<?xml version="1.0"?>
<VTKFile type="UnstructuredGrid">
  <UnstructuredGrid>
  <Piece NumberOfPoints="12411"  NumberOfCells="1379">
    <Points>
      <DataArray type="Float64" NumberOfComponents="3" format="ascii">
0 0 0
2.5273 -0.00535965 0
2.53165 4.28391 0
0 4.28571 0
1.26317 -0.00334433 0
2.52996 2.13962 0
1.26592 4.28507 0
0 2.14286 0
1.26517 2.14143 0
2.5273 -0.00535965 0
5.05605 -0.00929924 0
5.06276 4.2805 0
2.53165 4.28391 0
3.79166 -0.007255 0
5.05957 2.1358 0
3.79723 4.28237 0
2.52996 2.13962 0
3.79474 2.13777 0
5.05605 -0.00929924 0
7.58471 -0.0140531 0
7.59381 4.2758 0
5.06276 4.2805 0
6.3204 -0.0115366 0
7.58931 2.13103 0
6.32828 4.27832 0
5.05957 2.1358 0
6.32443 2.13357 0
7.58471 -0.0140531 0
10.1133 -0.0201741 0
10.1249 4.26969 0
7.59381 4.2758 0
8.84901 -0.0169283 0
10.1191 2.12492 0
8.85934 4.27293 0
7.58931 2.13103 0
8.85421 2.12816 0
10.1133 -0.0201741 0
12.6418 -0.0277882 0
12.656 4.26206 0
10.1249 4.26969 0
11.3776 -0.0237893 0
12.6489 2.1173 0
11.3904 4.26607 0
10.1191 2.12492 0
11.384 2.12131 0
12.6418 -0.0277882 0
15.1703 -0.0369808 0
15.1872 4.25284 0
12.656 4.26206 0
13.9061 -0.0321852 0
15.1788 2.1081 0
13.9216 4.25765 0
12.6489 2.1173 0
13.9139 2.1129 0
15.1703 -0.0369808 0
17.6989 -0.0477634 0
17.7184 4.24203 0
15.1872 4.25284 0
16.4346 -0.0421729 0
17.7087 2.0973 0
16.4528 4.24763 0
15.1788 2.1081 0
16.4437 2.1029 0
17.6989 -0.0477634 0
20.2274 -0.0601462 0
20.2497 4.22961 0
17.7184 4.24203 0
18.9632 -0.0537549 0
20.2386 2.0849 0
18.984 4.23602 0
17.7087 2.0973 0
18.9736 2.0913 0
20.2274 -0.0601462 0
22.756 -0.0741227 0
22.7809 4.2156 0
20.2497 4.22961 0
21.4917 -0.0669356 0
22.7685 2.07091 0
21.5153 4.2228 0
20.2386 2.0849 0
21.5035 2.0781 0
22.756 -0.0741227 0
25.2847 -0.0896872 0
25.3123 4.19999 0
22.7809 4.2156 0
24.0203 -0.0817069 0
25.2985 2.05532 0
24.0466 4.20799 0
22.7685 2.07091 0
24.0335 2.06331 0
25.2847 -0.0896872 0
27.8133 -0.106831 0
27.8436 4.18281 0
25.3123 4.19999 0
26.549 -0.0980621 0
27.8285 2.03816 0
26.5779 4.1916 0
25.2985 2.05532 0
26.5635 2.04694 0
27.8133 -0.106831 0
30.342 -0.125545 0
30.3749 4.16406 0
27.8436 4.18281 0
29.0777 -0.115992 0
30.3585 2.01942 0
29.1093 4.17363 0
27.8285 2.03816 0
29.0935 2.02899 0
30.342 -0.125545 0
32.8708 -0.145821 0
32.9063 4.14374 0
30.3749 4.16406 0
31.6064 -0.135488 0
32.8886 1.99913 0
31.6406 4.15409 0
30.3585 2.01942 0
31.6235 2.00947 0
32.8708 -0.145821 0
35.3995 -0.16765 0
35.4377 4.12186 0
32.9063 4.14374 0
34.1351 -0.156542 0
35.4187 1.97727 0
34.172 4.13299 0
32.8886 1.99913 0
34.1536 1.98839 0
35.3995 -0.16765 0
37.9284 -0.191024 0
37.9692 4.09844 0
35.4377 4.12186 0
36.6639 -0.179144 0
37.9488 1.95388 0
36.7034 4.11035 0
35.4187 1.97727 0
36.6837 1.96577 0
37.9284 -0.191024 0
40.4572 -0.215933 0
40.5006 4.07349 0
37.9692 4.09844 0
39.1928 -0.203287 0
40.4789 1.92894 0
39.2349 4.08616 0
37.9488 1.95388 0
39.2139 1.9416 0
40.4572 -0.215933 0
42.9861 -0.242371 0
43.0321 4.047 0
40.5006 4.07349 0
41.7216 -0.228962 0
43.0091 1.90248 0
41.7663 4.06043 0
40.4789 1.92894 0
41.744 1.9159 0
42.9861 -0.242371 0
45.515 -0.270327 0
45.5636 4.01899 0
43.0321 4.047 0
44.2505 -0.25616 0
45.5393 1.8745 0
44.2978 4.03319 0
43.0091 1.90248 0
44.2742 1.88868 0
45.515 -0.270327 0
48.044 -0.299795 0
48.0951 3.98948 0
45.5636 4.01899 0
46.7795 -0.284873 0
48.0695 1.845 0
46.8293 4.00442 0
45.5393 1.8745 0
46.8044 1.85994 0
48.044 -0.299795 0
50.5729 -0.330764 0
50.6266 3.95845 0
48.0951 3.98948 0
49.3084 -0.315092 0
50.5998 1.81401 0
49.3608 3.97415 0
48.0695 1.845 0
49.3347 1.82969 0
50.5729 -0.330764 0
53.102 -0.363228 0
53.1581 3.92594 0
50.6266 3.95845 0
51.8374 -0.34681 0
53.1301 1.78151 0
51.8924 3.94238 0
50.5998 1.81401 0
51.8649 1.79795 0
53.102 -0.363228 0
55.631 -0.397177 0
55.6897 3.89193 0
53.1581 3.92594 0
54.3665 -0.380017 0
55.6604 1.74754 0
54.4239 3.90912 0
53.1301 1.78151 0
54.3952 1.76471 0
55.631 -0.397177 0
58.1601 -0.432603 0
58.2213 3.85645 0
55.6897 3.89193 0
56.8955 -0.414706 0
58.1907 1.71208 0
56.9555 3.87437 0
55.6604 1.74754 0
56.9255 1.72999 0
58.1601 -0.432603 0
60.6892 -0.469498 0
60.7529 3.8195 0
58.2213 3.85645 0
59.4246 -0.450868 0
60.7211 1.67516 0
59.4871 3.83816 0
58.1907 1.71208 0
59.4559 1.6938 0
60.6892 -0.469498 0
63.2183 -0.507854 0
63.2845 3.78108 0
60.7529 3.8195 0
61.9538 -0.488494 0
63.2514 1.63677 0
62.0187 3.80047 0
60.7211 1.67516 0
61.9862 1.65614 0
63.2183 -0.507854 0
65.7475 -0.547661 0
65.8161 3.74121 0
63.2845 3.78108 0
64.4829 -0.527576 0
65.7818 1.59693 0
64.5503 3.76133 0
63.2514 1.63677 0
64.5166 1.61703 0
65.7475 -0.547661 0
68.2767 -0.588912 0
68.3477 3.6999 0
65.8161 3.74121 0
67.0121 -0.568107 0
68.3122 1.55565 0
67.0819 3.72074 0
65.7818 1.59693 0
67.047 1.57647 0
68.2767 -0.588912 0
70.8059 -0.631598 0
70.8793 3.65715 0
68.3477 3.6999 0
69.5413 -0.610076 0
70.8427 1.51293 0
69.6135 3.67871 0
68.3122 1.55565 0
69.5774 1.53447 0
70.8059 -0.631598 0
73.3351 -0.675711 0
73.411 3.61298 0
70.8793 3.65715 0
72.0705 -0.653477 0
73.3731 1.46878 0
72.1452 3.63524 0
70.8427 1.51293 0
72.1079 1.49104 0
73.3351 -0.675711 0
75.8644 -0.721242 0
75.9427 3.56738 0
73.411 3.61298 0
74.5998 -0.6983 0
75.9036 1.42322 0
74.6768 3.59036 0
73.3731 1.46878 0
74.6383 1.44618 0
75.8644 -0.721242 0
78.3937 -0.768183 0
78.4743 3.52037 0
75.9427 3.56738 0
77.129 -0.744537 0
78.4341 1.37625 0
77.2085 3.54405 0
75.9036 1.42322 0
77.1688 1.39991 0
78.3937 -0.768183 0
80.923 -0.816526 0
81.006 3.47196 0
78.4743 3.52037 0
79.6584 -0.79218 0
80.9646 1.32787 0
79.7402 3.49634 0
78.4341 1.37625 0
79.6993 1.35223 0
80.923 -0.816526 0
83.4524 -0.866262 0
83.5377 3.42216 0
81.006 3.47196 0
82.1877 -0.84122 0
83.4951 1.2781 0
82.2719 3.44724 0
80.9646 1.32787 0
82.2298 1.30316 0
83.4524 -0.866262 0
85.9817 -0.917382 0
86.0694 3.37097 0
83.5377 3.42216 0
84.717 -0.891649 0
86.0256 1.22694 0
84.8036 3.39674 0
83.4951 1.2781 0
84.7603 1.25269 0
85.9817 -0.917382 0
88.5111 -0.969879 0
88.6011 3.3184 0
86.0694 3.37097 0
87.2464 -0.943459 0
88.5561 1.17441 0
87.3353 3.34486 0
86.0256 1.22694 0
87.2909 1.20085 0
88.5111 -0.969879 0
91.0405 -1.02374 0
91.1328 3.26447 0
88.6011 3.3184 0
89.7758 -0.996641 0
91.0867 1.12051 0
89.867 3.29161 0
88.5561 1.17441 0
89.8214 1.14763 0
91.0405 -1.02374 0
93.5699 -1.07897 0
93.6646 3.20917 0
91.1328 3.26447 0
92.3052 -1.05119 0
93.6173 1.06525 0
92.3987 3.23699 0
91.0867 1.12051 0
92.352 1.09305 0
93.5699 -1.07897 0
96.0994 -1.13554 0
96.1963 3.15252 0
93.6646 3.20917 0
94.8347 -1.10709 0
96.1479 1.00863 0
94.9304 3.18102 0
93.6173 1.06525 0
94.8826 1.03711 0
96.0994 -1.13554 0
98.6289 -1.19346 0
98.728 3.09453 0
96.1963 3.15252 0
97.3641 -1.16433 0
98.6785 0.950679 0
97.4622 3.1237 0
96.1479 1.00863 0
97.4132 0.979824 0
98.6289 -1.19346 0
101.158 -1.25271 0
101.26 3.03521 0
98.728 3.09453 0
99.8936 -1.22292 0
101.209 0.891388 0
99.9939 3.06504 0
98.6785 0.950679 0
99.9438 0.9212 0
101.158 -1.25271 0
103.688 -1.31329 0
103.792 2.97455 0
101.26 3.03521 0
102.423 -1.28284 0
103.74 0.830772 0
102.526 3.00504 0
101.209 0.891388 0
102.474 0.861245 0
103.688 -1.31329 0
106.217 -1.37519 0
106.323 2.91258 0
103.792 2.97455 0
104.953 -1.34408 0
106.27 0.768837 0
105.057 2.94373 0
103.74 0.830772 0
105.005 0.799969 0
106.217 -1.37519 0
108.747 -1.43839 0
108.855 2.8493 0
106.323 2.91258 0
107.482 -1.40663 0
108.801 0.705593 0
107.589 2.8811 0
106.27 0.768837 0
107.536 0.737378 0
108.747 -1.43839 0
111.276 -1.5029 0
111.387 2.78472 0
108.855 2.8493 0
110.012 -1.47048 0
111.332 0.641048 0
110.121 2.81717 0
108.801 0.705593 0
110.066 0.673483 0
111.276 -1.5029 0
113.806 -1.56869 0
113.919 2.71884 0
111.387 2.78472 0
112.541 -1.53563 0
113.862 0.575211 0
112.653 2.75194 0
111.332 0.641048 0
112.597 0.608291 0
113.806 -1.56869 0
116.336 -1.63578 0
116.45 2.65168 0
113.919 2.71884 0
115.071 -1.60207 0
116.393 0.508089 0
115.184 2.68542 0
113.862 0.575211 0
115.128 0.54181 0
116.336 -1.63578 0
118.865 -1.70413 0
118.982 2.58324 0
116.45 2.65168 0
117.6 -1.66979 0
118.924 0.439692 0
117.716 2.61762 0
116.393 0.508089 0
117.658 0.474049 0
118.865 -1.70413 0
121.395 -1.77376 0
121.514 2.51354 0
118.982 2.58324 0
120.13 -1.73879 0
121.454 0.370027 0
120.248 2.54855 0
118.924 0.439692 0
120.189 0.405017 0
121.395 -1.77376 0
123.925 -1.84464 0
124.046 2.44258 0
121.514 2.51354 0
122.66 -1.80904 0
123.985 0.299103 0
122.78 2.47822 0
121.454 0.370027 0
122.72 0.334722 0
123.925 -1.84464 0
126.454 -1.91677 0
126.577 2.37036 0
124.046 2.44258 0
125.189 -1.88055 0
126.516 0.226929 0
125.311 2.40663 0
123.985 0.299103 0
125.25 0.263172 0
126.454 -1.91677 0
128.984 -1.99014 0
129.109 2.29691 0
126.577 2.37036 0
127.719 -1.9533 0
129.047 0.153513 0
127.843 2.33379 0
126.516 0.226929 0
127.781 0.190376 0
128.984 -1.99014 0
131.514 -2.06475 0
131.641 2.22222 0
129.109 2.29691 0
130.249 -2.02729 0
131.577 0.0788635 0
130.375 2.25972 0
129.047 0.153513 0
130.312 0.116342 0
131.514 -2.06475 0
134.043 -2.14058 0
134.173 2.1463 0
131.641 2.22222 0
132.778 -2.10251 0
134.108 0.00298855 0
132.907 2.18441 0
131.577 0.0788635 0
132.843 0.0410786 0
134.043 -2.14058 0
136.573 -2.21763 0
136.704 2.06917 0
134.173 2.1463 0
135.308 -2.17896 0
136.639 -0.0741031 0
135.438 2.10789 0
134.108 0.00298855 0
135.373 -0.0354057 0
136.573 -2.21763 0
139.103 -2.29589 0
139.236 1.99083 0
136.704 2.06917 0
137.838 -2.25661 0
139.169 -0.152403 0
137.97 2.03015 0
136.639 -0.0741031 0
137.904 -0.113103 0
139.103 -2.29589 0
141.632 -2.37535 0
141.768 1.91129 0
139.236 1.99083 0
140.368 -2.33547 0
141.7 -0.231903 0
140.502 1.95121 0
139.169 -0.152403 0
140.435 -0.192004 0
141.632 -2.37535 0
144.162 -2.45599 0
144.3 1.83055 0
141.768 1.91129 0
142.897 -2.41552 0
144.231 -0.312594 0
143.034 1.87107 0
141.7 -0.231903 0
142.966 -0.2721 0
144.162 -2.45599 0
146.692 -2.53782 0
146.831 1.74864 0
144.3 1.83055 0
145.427 -2.49676 0
146.762 -0.394469 0
145.566 1.78974 0
144.231 -0.312594 0
145.496 -0.353384 0
146.692 -2.53782 0
149.222 -2.62083 0
149.363 1.66554 0
146.831 1.74864 0
147.957 -2.57918 0
149.292 -0.477518 0
148.097 1.70724 0
146.762 -0.394469 0
148.027 -0.435847 0
149.222 -2.62083 0
151.751 -2.705 0
151.895 1.58129 0
149.363 1.66554 0
150.487 -2.66277 0
151.823 -0.561733 0
150.629 1.62356 0
149.292 -0.477518 0
150.558 -0.51948 0
151.751 -2.705 0
154.281 -2.79033 0
154.427 1.49587 0
151.895 1.58129 0
153.016 -2.74752 0
154.354 -0.647106 0
153.161 1.53872 0
151.823 -0.561733 0
153.089 -0.604276 0
154.281 -2.79033 0
156.811 -2.87681 0
156.958 1.4093 0
154.427 1.49587 0
155.546 -2.83342 0
156.885 -0.733629 0
155.693 1.45273 0
154.354 -0.647106 0
155.619 -0.690224 0
156.811 -2.87681 0
159.341 -2.96442 0
159.49 1.3216 0
156.958 1.4093 0
158.076 -2.92047 0
159.416 -0.821292 0
158.224 1.36559 0
156.885 -0.733629 0
158.15 -0.777318 0
159.341 -2.96442 0
161.871 -3.05317 0
162.022 1.23276 0
159.49 1.3216 0
160.606 -3.00866 0
161.946 -0.910088 0
160.756 1.27732 0
159.416 -0.821292 0
160.681 -0.865549 0
161.871 -3.05317 0
164.401 -3.14305 0
164.554 1.1428 0
162.022 1.23276 0
163.136 -3.09797 0
164.477 -1.00001 0
163.288 1.18792 0
161.946 -0.910088 0
163.212 -0.954908 0
164.401 -3.14305 0
166.93 -3.23404 0
167.085 1.05172 0
164.554 1.1428 0
165.665 -3.1884 0
167.008 -1.09104 0
165.819 1.0974 0
164.477 -1.00001 0
165.743 -1.04539 0
166.93 -3.23404 0
169.46 -3.32614 0
169.617 0.95953 0
167.085 1.05172 0
168.195 -3.27995 0
169.539 -1.18319 0
168.351 1.00576 0
167.008 -1.09104 0
168.273 -1.13698 0
169.46 -3.32614 0
171.99 -3.41933 0
172.149 0.866244 0
169.617 0.95953 0
170.725 -3.3726 0
172.07 -1.27643 0
170.883 0.913024 0
169.539 -1.18319 0
170.804 -1.22967 0
171.99 -3.41933 0
174.52 -3.51362 0
174.681 0.771869 0
172.149 0.866244 0
173.255 -3.46634 0
174.6 -1.37076 0
173.415 0.819192 0
172.07 -1.27643 0
173.335 -1.32346 0
174.52 -3.51362 0
177.05 -3.60898 0
177.212 0.676411 0
174.681 0.771869 0
175.785 -3.56117 0
177.131 -1.46617 0
175.946 0.724274 0
174.6 -1.37076 0
175.866 -1.41833 0
177.05 -3.60898 0
179.58 -3.70543 0
179.744 0.579879 0
177.212 0.676411 0
178.315 -3.65707 0
179.662 -1.56266 0
178.478 0.628278 0
177.131 -1.46617 0
178.397 -1.51428 0
179.58 -3.70543 0
182.11 -3.80293 0
182.276 0.482282 0
179.744 0.579879 0
180.845 -3.75405 0
182.193 -1.66021 0
181.01 0.531213 0
179.662 -1.56266 0
180.927 -1.6113 0
182.11 -3.80293 0
184.64 -3.90149 0
184.807 0.383629 0
182.276 0.482282 0
183.375 -3.85208 0
184.724 -1.75882 0
183.541 0.433087 0
182.193 -1.66021 0
183.458 -1.70939 0
184.64 -3.90149 0
187.17 -4.0011 0
187.339 0.283927 0
184.807 0.383629 0
185.905 -3.95117 0
187.254 -1.85848 0
186.073 0.333908 0
184.724 -1.75882 0
185.989 -1.80852 0
187.17 -4.0011 0
189.7 -4.10176 0
189.871 0.183185 0
187.339 0.283927 0
188.435 -4.0513 0
189.785 -1.95918 0
188.605 0.233686 0
187.254 -1.85848 0
188.52 -1.9087 0
189.7 -4.10176 0
192.229 -4.20344 0
192.402 0.0814121 0
189.871 0.183185 0
190.965 -4.15247 0
192.316 -2.0609 0
191.137 0.132427 0
189.785 -1.95918 0
191.051 -2.00991 0
192.229 -4.20344 0
194.759 -4.30614 0
194.934 -0.0213839 0
192.402 0.0814121 0
193.494 -4.25466 0
194.847 -2.16366 0
193.668 0.0301415 0
192.316 -2.0609 0
193.581 -2.11215 0
194.759 -4.30614 0
197.289 -4.40986 0
197.466 -0.125195 0
194.934 -0.0213839 0
196.024 -4.35787 0
197.378 -2.26742 0
196.2 -0.0731629 0
194.847 -2.16366 0
196.112 -2.21541 0
197.289 -4.40986 0
199.819 -4.51459 0
199.997 -0.230011 0
197.466 -0.125195 0
198.554 -4.4621 0
199.908 -2.37219 0
198.732 -0.177478 0
197.378 -2.26742 0
198.643 -2.31968 0
199.819 -4.51459 0
202.349 -4.62031 0
202.529 -0.335826 0
199.997 -0.230011 0
201.084 -4.56732 0
202.439 -2.47796 0
201.263 -0.282794 0
199.908 -2.37219 0
201.174 -2.42495 0
202.349 -4.62031 0
204.879 -4.72702 0
205.061 -0.442629 0
202.529 -0.335826 0
203.614 -4.67354 0
204.97 -2.58472 0
203.795 -0.389104 0
202.439 -2.47796 0
203.705 -2.53122 0
204.879 -4.72702 0
207.409 -4.83471 0
207.592 -0.550414 0
205.061 -0.442629 0
206.144 -4.78074 0
207.501 -2.69246 0
206.327 -0.496399 0
204.97 -2.58472 0
206.235 -2.63847 0
207.409 -4.83471 0
209.939 -4.94338 0
210.124 -0.65917 0
207.592 -0.550414 0
208.674 -4.88892 0
210.032 -2.80117 0
208.858 -0.604671 0
207.501 -2.69246 0
208.766 -2.7467 0
209.939 -4.94338 0
212.469 -5.05301 0
212.656 -0.768891 0
210.124 -0.65917 0
211.204 -4.99807 0
212.563 -2.91085 0
211.39 -0.713911 0
210.032 -2.80117 0
211.297 -2.85589 0
212.469 -5.05301 0
214.999 -5.16359 0
215.187 -0.879567 0
212.656 -0.768891 0
213.734 -5.10818 0
215.093 -3.02148 0
213.921 -0.82411 0
212.563 -2.91085 0
213.828 -2.96604 0
214.999 -5.16359 0
217.529 -5.27512 0
217.719 -0.991191 0
215.187 -0.879567 0
216.264 -5.21924 0
217.624 -3.13306 0
216.453 -0.935261 0
215.093 -3.02148 0
216.359 -3.07715 0
217.529 -5.27512 0
220.059 -5.38759 0
220.251 -1.10375 0
217.719 -0.991191 0
218.794 -5.33124 0
220.155 -3.24557 0
218.985 -1.04735 0
217.624 -3.13306 0
218.89 -3.1892 0
220.059 -5.38759 0
222.59 -5.50099 0
222.782 -1.21724 0
220.251 -1.10375 0
221.325 -5.44418 0
222.686 -3.35902 0
221.516 -1.16038 0
220.155 -3.24557 0
221.42 -3.30218 0
222.59 -5.50099 0
225.12 -5.61531 0
225.314 -1.33166 0
222.782 -1.21724 0
223.855 -5.55804 0
225.217 -3.47339 0
224.048 -1.27434 0
222.686 -3.35902 0
223.951 -3.41609 0
225.12 -5.61531 0
227.65 -5.73055 0
227.845 -1.44699 0
225.314 -1.33166 0
226.385 -5.67282 0
227.748 -3.58867 0
226.58 -1.38921 0
225.217 -3.47339 0
226.482 -3.53092 0
227.65 -5.73055 0
230.18 -5.84669 0
230.377 -1.56322 0
227.845 -1.44699 0
228.915 -5.78851 0
230.278 -3.70486 0
229.111 -1.50499 0
227.748 -3.58867 0
229.013 -3.64665 0
230.18 -5.84669 0
232.71 -5.96373 0
232.909 -1.68035 0
230.377 -1.56322 0
231.445 -5.9051 0
232.809 -3.82194 0
231.643 -1.62167 0
230.278 -3.70486 0
231.544 -3.76329 0
232.71 -5.96373 0
235.24 -6.08165 0
235.44 -1.79836 0
232.909 -1.68035 0
233.975 -6.02258 0
235.34 -3.93991 0
234.174 -1.73924 0
232.809 -3.82194 0
234.075 -3.88082 0
235.24 -6.08165 0
237.77 -6.20046 0
237.972 -1.91726 0
235.44 -1.79836 0
236.505 -6.14095 0
237.871 -4.05877 0
236.706 -1.8577 0
235.34 -3.93991 0
236.606 -3.99923 0
237.77 -6.20046 0
240.3 -6.32013 0
240.503 -2.03702 0
237.972 -1.91726 0
239.035 -6.26019 0
240.402 -4.17849 0
239.238 -1.97703 0
237.871 -4.05877 0
239.136 -4.11852 0
240.3 -6.32013 0
242.83 -6.44067 0
243.035 -2.15765 0
240.503 -2.03702 0
241.565 -6.3803 0
242.933 -4.29907 0
241.769 -2.09723 0
240.402 -4.17849 0
241.667 -4.23867 0
242.83 -6.44067 0
245.36 -6.56207 0
245.566 -2.27914 0
243.035 -2.15765 0
244.095 -6.50126 0
245.463 -4.42051 0
244.301 -2.21829 0
242.933 -4.29907 0
244.198 -4.35969 0
245.36 -6.56207 0
247.891 -6.68431 0
248.098 -2.40147 0
245.566 -2.27914 0
246.625 -6.62308 0
247.994 -4.5428 0
246.832 -2.3402 0
245.463 -4.42051 0
246.729 -4.48155 0
247.891 -6.68431 0
250.421 -6.80738 0
250.63 -2.52464 0
248.098 -2.40147 0
249.156 -6.74574 0
250.525 -4.66592 0
249.364 -2.46295 0
247.994 -4.5428 0
249.26 -4.60426 0
250.421 -6.80738 0
252.951 -6.93129 0
253.161 -2.64863 0
250.63 -2.52464 0
251.686 -6.86923 0
253.056 -4.78987 0
251.895 -2.58653 0
250.525 -4.66592 0
251.791 -4.72779 0
252.951 -6.93129 0
255.481 -7.05602 0
255.693 -2.77345 0
253.161 -2.64863 0
254.216 -6.99355 0
255.587 -4.91465 0
254.427 -2.71094 0
253.056 -4.78987 0
254.321 -4.85216 0
255.481 -7.05602 0
258.011 -7.18155 0
258.224 -2.89908 0
255.693 -2.77345 0
256.746 -7.11868 0
258.118 -5.04023 0
256.958 -2.83616 0
255.587 -4.91465 0
256.852 -4.97734 0
258.011 -7.18155 0
260.541 -7.3079 0
260.756 -3.02551 0
258.224 -2.89908 0
259.276 -7.24463 0
260.649 -5.16662 0
259.49 -2.96219 0
258.118 -5.04023 0
259.383 -5.10333 0
260.541 -7.3079 0
263.072 -7.43504 0
263.287 -3.15274 0
260.756 -3.02551 0
261.807 -7.37137 0
263.18 -5.2938 0
262.022 -3.08902 0
260.649 -5.16662 0
261.914 -5.23011 0
263.072 -7.43504 0
265.602 -7.56296 0
265.819 -3.28075 0
263.287 -3.15274 0
264.337 -7.4989 0
265.71 -5.42177 0
264.553 -3.21665 0
263.18 -5.2938 0
264.445 -5.35769 0
265.602 -7.56296 0
268.132 -7.69167 0
268.35 -3.40954 0
265.819 -3.28075 0
266.867 -7.62722 0
268.241 -5.55052 0
267.085 -3.34505 0
265.71 -5.42177 0
266.976 -5.48605 0
268.132 -7.69167 0
270.662 -7.82114 0
270.882 -3.53911 0
268.35 -3.40954 0
269.397 -7.75631 0
270.772 -5.68004 0
269.616 -3.47423 0
268.241 -5.55052 0
269.507 -5.61519 0
270.662 -7.82114 0
273.193 -7.95138 0
273.413 -3.66943 0
270.882 -3.53911 0
271.927 -7.88617 0
273.303 -5.81032 0
272.148 -3.60417 0
270.772 -5.68004 0
272.038 -5.74509 0
273.193 -7.95138 0
275.723 -8.08237 0
275.945 -3.80051 0
273.413 -3.66943 0
274.458 -8.01678 0
275.834 -5.94136 0
274.679 -3.73487 0
273.303 -5.81032 0
274.568 -5.87575 0
275.723 -8.08237 0
278.253 -8.2141 0
278.476 -3.93233 0
275.945 -3.80051 0
276.988 -8.14814 0
278.365 -6.07314 0
277.211 -3.86632 0
275.834 -5.94136 0
277.099 -6.00716 0
278.253 -8.2141 0
280.783 -8.34657 0
281.008 -4.06489 0
278.476 -3.93233 0
279.518 -8.28025 0
280.896 -6.20565 0
279.742 -3.99851 0
278.365 -6.07314 0
279.63 -6.1393 0
280.783 -8.34657 0
283.314 -8.47977 0
283.539 -4.19817 0
281.008 -4.06489 0
282.048 -8.41308 0
283.427 -6.3389 0
282.274 -4.13144 0
280.896 -6.20565 0
282.161 -6.27218 0
283.314 -8.47977 0
285.844 -8.61369 0
286.071 -4.33218 0
283.539 -4.19817 0
284.579 -8.54664 0
285.958 -6.47286 0
284.805 -4.26508 0
283.427 -6.3389 0
284.692 -6.40579 0
285.844 -8.61369 0
288.374 -8.74832 0
288.603 -4.46689 0
286.071 -4.33218 0
287.109 -8.68092 0
288.488 -6.60753 0
287.337 -4.39944 0
285.958 -6.47286 0
287.223 -6.54011 0
288.374 -8.74832 0
290.905 -8.88366 0
291.134 -4.60231 0
288.603 -4.46689 0
289.639 -8.8159 0
291.019 -6.74291 0
289.868 -4.53451 0
288.488 -6.60753 0
289.754 -6.67513 0
290.905 -8.88366 0
293.435 -9.01968 0
293.666 -4.73842 0
291.134 -4.60231 0
292.17 -8.95158 0
293.55 -6.87898 0
292.4 -4.67028 0
291.019 -6.74291 0
292.285 -6.81086 0
293.435 -9.01968 0
295.965 -9.1564 0
296.197 -4.87522 0
293.666 -4.73842 0
294.7 -9.08796 0
296.081 -7.01574 0
294.931 -4.80673 0
293.55 -6.87898 0
294.816 -6.94727 0
295.965 -9.1564 0
298.496 -9.29379 0
298.729 -5.01269 0
296.197 -4.87522 0
297.23 -9.22501 0
298.612 -7.15317 0
297.463 -4.94387 0
296.081 -7.01574 0
297.347 -7.08437 0
298.496 -9.29379 0
301.026 -9.43185 0
301.26 -5.15084 0
298.729 -5.01269 0
299.761 -9.36274 0
301.143 -7.29127 0
299.994 -5.08168 0
298.612 -7.15317 0
299.878 -7.22214 0
301.026 -9.43185 0
303.556 -9.57057 0
303.792 -5.28964 0
301.26 -5.15084 0
302.291 -9.50113 0
303.674 -7.43004 0
302.526 -5.22016 0
301.143 -7.29127 0
302.409 -7.36057 0
303.556 -9.57057 0
306.087 -9.70994 0
306.323 -5.42909 0
303.792 -5.28964 0
304.822 -9.64018 0
306.205 -7.56945 0
305.057 -5.35929 0
303.674 -7.43004 0
304.94 -7.49966 0
306.087 -9.70994 0
308.617 -9.84996 0
308.855 -5.56919 0
306.323 -5.42909 0
307.352 -9.77987 0
308.736 -7.70951 0
307.589 -5.49906 0
306.205 -7.56945 0
307.47 -7.6394 0
308.617 -9.84996 0
311.148 -9.99061 0
311.386 -5.70993 0
308.855 -5.56919 0
309.883 -9.92021 0
311.267 -7.85021 0
310.12 -5.63948 0
308.736 -7.70951 0
310.001 -7.77978 0
311.148 -9.99061 0
313.678 -10.1319 0
313.918 -5.85129 0
311.386 -5.70993 0
312.413 -10.0612 0
313.798 -7.99153 0
312.652 -5.78053 0
311.267 -7.85021 0
312.532 -7.92079 0
313.678 -10.1319 0
316.209 -10.2738 0
316.449 -5.99326 0
313.918 -5.85129 0
314.943 -10.2028 0
316.329 -8.13347 0
315.183 -5.9222 0
313.798 -7.99153 0
315.063 -8.06242 0
316.209 -10.2738 0
318.739 -10.4163 0
318.981 -6.13585 0
316.449 -5.99326 0
317.474 -10.345 0
318.86 -8.27601 0
317.715 -6.06448 0
316.329 -8.13347 0
317.594 -8.20466 0
318.739 -10.4163 0
321.27 -10.5594 0
321.512 -6.27904 0
318.981 -6.13585 0
320.004 -10.4878 0
321.391 -8.41917 0
320.246 -6.20737 0
318.86 -8.27601 0
320.125 -8.34752 0
321.27 -10.5594 0
323.8 -10.7031 0
324.044 -6.42282 0
321.512 -6.27904 0
322.535 -10.6312 0
323.922 -8.56291 0
322.778 -6.35086 0
321.391 -8.41917 0
322.656 -8.49096 0
323.8 -10.7031 0
326.331 -10.8474 0
326.575 -6.56719 0
324.044 -6.42282 0
325.065 -10.7752 0
326.453 -8.70724 0
325.309 -6.49493 0
323.922 -8.56291 0
325.187 -8.635 0
326.331 -10.8474 0
328.861 -10.9923 0
329.107 -6.71213 0
326.575 -6.56719 0
327.596 -10.9198 0
328.984 -8.85214 0
327.841 -6.63959 0
326.453 -8.70724 0
327.718 -8.77962 0
328.861 -10.9923 0
331.392 -11.1377 0
331.638 -6.85764 0
329.107 -6.71213 0
330.127 -11.0649 0
331.515 -8.99761 0
330.372 -6.78482 0
328.984 -8.85214 0
330.25 -8.92481 0
331.392 -11.1377 0
333.922 -11.2837 0
334.17 -7.00371 0
331.638 -6.85764 0
332.657 -11.2106 0
334.046 -9.14365 0
332.904 -6.93061 0
331.515 -8.99761 0
332.781 -9.07056 0
333.922 -11.2837 0
336.453 -11.4302 0
336.701 -7.15033 0
334.17 -7.00371 0
335.188 -11.3569 0
336.577 -9.29023 0
335.435 -7.07695 0
334.046 -9.14365 0
335.312 -9.21687 0
336.453 -11.4302 0
338.984 -11.5773 0
339.233 -7.29749 0
336.701 -7.15033 0
337.718 -11.5037 0
339.108 -9.43735 0
337.967 -7.22384 0
336.577 -9.29023 0
337.843 -9.36372 0
338.984 -11.5773 0
341.514 -11.7249 0
341.764 -7.44518 0
339.233 -7.29749 0
340.249 -11.6511 0
341.639 -9.58501 0
340.499 -7.37127 0
339.108 -9.43735 0
340.374 -9.51112 0
341.514 -11.7249 0
344.045 -11.8731 0
344.296 -7.59341 0
341.764 -7.44518 0
342.78 -11.799 0
344.17 -9.7332 0
343.03 -7.51923 0
341.639 -9.58501 0
342.905 -9.65904 0
344.045 -11.8731 0
346.576 -12.0218 0
346.827 -7.74214 0
344.296 -7.59341 0
345.31 -11.9474 0
346.702 -9.8819 0
345.562 -7.66771 0
344.17 -9.7332 0
345.436 -9.80748 0
346.576 -12.0218 0
349.106 -12.1709 0
349.359 -7.89139 0
346.827 -7.74214 0
347.841 -12.0963 0
349.233 -10.0311 0
348.093 -7.8167 0
346.702 -9.8819 0
347.967 -9.95644 0
349.106 -12.1709 0
351.637 -12.3206 0
351.89 -8.04113 0
349.359 -7.89139 0
350.372 -12.2457 0
351.764 -10.1808 0
350.625 -7.9662 0
349.233 -10.0311 0
350.498 -10.1059 0
351.637 -12.3206 0
354.168 -12.4708 0
354.422 -8.19137 0
351.89 -8.04113 0
352.902 -12.3956 0
354.295 -10.331 0
353.156 -8.11619 0
351.764 -10.1808 0
353.029 -10.2559 0
354.168 -12.4708 0
356.699 -12.6214 0
356.954 -8.34209 0
354.422 -8.19137 0
355.433 -12.546 0
356.826 -10.4817 0
355.688 -8.26667 0
354.295 -10.331 0
355.561 -10.4063 0
356.699 -12.6214 0
359.229 -12.7726 0
359.485 -8.49329 0
356.954 -8.34209 0
357.964 -12.6969 0
359.357 -10.6329 0
358.219 -8.41763 0
356.826 -10.4817 0
358.092 -10.5572 0
359.229 -12.7726 0
361.76 -12.9241 0
362.017 -8.64495 0
359.485 -8.49329 0
360.495 -12.8483 0
361.889 -10.7845 0
360.751 -8.56906 0
359.357 -10.6329 0
360.623 -10.7086 0
361.76 -12.9241 0
364.291 -13.0762 0
364.548 -8.79707 0
362.017 -8.64495 0
363.026 -13.0001 0
364.42 -10.9366 0
363.283 -8.72095 0
361.889 -10.7845 0
363.154 -10.8605 0
364.291 -13.0762 0
366.822 -13.2287 0
367.08 -8.94964 0
364.548 -8.79707 0
365.557 -13.1524 0
366.951 -11.0891 0
365.814 -8.8733 0
364.42 -10.9366 0
365.685 -11.0128 0
366.822 -13.2287 0
369.353 -13.3816 0
369.612 -9.10265 0
367.08 -8.94964 0
368.087 -13.3051 0
369.482 -11.2421 0
368.346 -9.02609 0
366.951 -11.0891 0
368.217 -11.1656 0
369.353 -13.3816 0
371.884 -13.535 0
372.143 -9.25609 0
369.612 -9.10265 0
370.618 -13.4583 0
372.014 -11.3955 0
370.877 -9.17931 0
369.482 -11.2421 0
370.748 -11.3188 0
371.884 -13.535 0
374.415 -13.6888 0
374.675 -9.40995 0
372.143 -9.25609 0
373.149 -13.6119 0
374.545 -11.5493 0
373.409 -9.33297 0
372.014 -11.3955 0
373.279 -11.4724 0
374.415 -13.6888 0
376.946 -13.843 0
377.207 -9.56424 0
374.675 -9.40995 0
375.68 -13.7659 0
377.076 -11.7036 0
375.941 -9.48704 0
374.545 -11.5493 0
375.81 -11.6264 0
376.946 -13.843 0
379.477 -13.9977 0
379.738 -9.71893 0
377.207 -9.56424 0
378.211 -13.9203 0
379.607 -11.8583 0
378.472 -9.64153 0
377.076 -11.7036 0
378.342 -11.7809 0
379.477 -13.9977 0
382.008 -14.1527 0
382.27 -9.87401 0
379.738 -9.71893 0
380.742 -14.0751 0
382.139 -12.0133 0
381.004 -9.79642 0
379.607 -11.8583 0
380.873 -11.9357 0
382.008 -14.1527 0
384.539 -14.3081 0
384.802 -10.0295 0
382.27 -9.87401 0
383.273 -14.2304 0
384.67 -12.1688 0
383.536 -9.9517 0
382.139 -12.0133 0
383.404 -12.091 0
384.539 -14.3081 0
387.07 -14.4639 0
387.333 -10.1854 0
384.802 -10.0295 0
385.804 -14.386 0
387.202 -12.3246 0
386.067 -10.1074 0
384.67 -12.1688 0
385.936 -12.2466 0
387.07 -14.4639 0
389.601 -14.6201 0
389.865 -10.3416 0
387.333 -10.1854 0
388.335 -14.542 0
389.733 -12.4808 0
388.599 -10.2634 0
387.202 -12.3246 0
388.467 -12.4026 0
389.601 -14.6201 0
392.132 -14.7766 0
392.397 -10.4982 0
389.865 -10.3416 0
390.866 -14.6983 0
392.264 -12.6374 0
391.131 -10.4198 0
389.733 -12.4808 0
390.999 -12.559 0
392.132 -14.7766 0
394.663 -14.9335 0
394.928 -10.6551 0
392.397 -10.4982 0
393.397 -14.855 0
394.796 -12.7943 0
393.663 -10.5766 0
392.264 -12.6374 0
393.53 -12.7158 0
394.663 -14.9335 0
397.194 -15.0908 0
397.46 -10.8124 0
394.928 -10.6551 0
395.929 -15.0121 0
397.327 -12.9516 0
396.194 -10.7337 0
394.796 -12.7943 0
396.061 -12.8729 0
397.194 -15.0908 0
399.725 -15.2484 0
399.992 -10.9701 0
397.46 -10.8124 0
398.46 -15.1695 0
399.859 -13.1092 0
398.726 -10.8912 0
397.327 -12.9516 0
398.593 -13.0303 0
399.725 -15.2484 0
402.257 -15.4063 0
402.524 -11.1281 0
399.992 -10.9701 0
400.991 -15.3273 0
402.39 -13.2671 0
401.258 -11.049 0
399.859 -13.1092 0
401.124 -13.1881 0
402.257 -15.4063 0
404.788 -15.5645 0
405.055 -11.2864 0
402.524 -11.1281 0
403.522 -15.4854 0
404.922 -13.4254 0
403.79 -11.2072 0
402.39 -13.2671 0
403.656 -13.3462 0
404.788 -15.5645 0
407.319 -15.7231 0
407.587 -11.445 0
405.055 -11.2864 0
406.054 -15.6438 0
407.453 -13.584 0
406.321 -11.3656 0
404.922 -13.4254 0
406.188 -13.5047 0
407.319 -15.7231 0
409.851 -15.8819 0
410.119 -11.6039 0
407.587 -11.445 0
408.585 -15.8025 0
409.985 -13.7429 0
408.853 -11.5244 0
407.453 -13.584 0
408.719 -13.6634 0
409.851 -15.8819 0
412.382 -16.0411 0
412.651 -11.7631 0
410.119 -11.6039 0
411.116 -15.9615 0
412.516 -13.9021 0
411.385 -11.6835 0
409.985 -13.7429 0
411.251 -13.8224 0
412.382 -16.0411 0
414.913 -16.2006 0
415.183 -11.9226 0
412.651 -11.7631 0
413.648 -16.1208 0
415.048 -14.0616 0
413.917 -11.8428 0
412.516 -13.9021 0
413.782 -13.9818 0
414.913 -16.2006 0
417.445 -16.3603 0
417.715 -12.0824 0
415.183 -11.9226 0
416.179 -16.2804 0
417.58 -14.2213 0
416.449 -12.0025 0
415.048 -14.0616 0
416.314 -14.1414 0
417.445 -16.3603 0
419.976 -16.5203 0
420.247 -12.2425 0
417.715 -12.0824 0
418.71 -16.4403 0
420.111 -14.3814 0
418.981 -12.1624 0
417.58 -14.2213 0
418.846 -14.3013 0
419.976 -16.5203 0
422.508 -16.6806 0
422.779 -12.4028 0
420.247 -12.2425 0
421.242 -16.6004 0
422.643 -14.5416 0
421.513 -12.3226 0
420.111 -14.3814 0
421.377 -14.4615 0
422.508 -16.6806 0
425.039 -16.8411 0
425.31 -12.5634 0
422.779 -12.4028 0
423.773 -16.7608 0
425.175 -14.7022 0
424.044 -12.483 0
422.643 -14.5416 0
423.909 -14.6219 0
425.039 -16.8411 0
427.571 -17.0019 0
427.842 -12.7242 0
425.31 -12.5634 0
426.305 -16.9215 0
427.707 -14.863 0
426.576 -12.6437 0
425.175 -14.7022 0
426.441 -14.7826 0
427.571 -17.0019 0
430.102 -17.1629 0
430.374 -12.8852 0
427.842 -12.7242 0
428.836 -17.0824 0
430.238 -15.024 0
429.108 -12.8047 0
427.707 -14.863 0
428.972 -14.9435 0
430.102 -17.1629 0
432.634 -17.3241 0
432.906 -13.0465 0
430.374 -12.8852 0
431.368 -17.2435 0
432.77 -15.1853 0
431.64 -12.9659 0
430.238 -15.024 0
431.504 -15.1047 0
432.634 -17.3241 0
435.166 -17.4856 0
435.438 -13.2081 0
432.906 -13.0465 0
433.9 -17.4048 0
435.302 -15.3468 0
434.172 -13.1273 0
432.77 -15.1853 0
434.036 -15.266 0
435.166 -17.4856 0
437.697 -17.6473 0
437.97 -13.3698 0
435.438 -13.2081 0
436.431 -17.5664 0
437.834 -15.5085 0
436.704 -13.2889 0
435.302 -15.3468 0
436.568 -15.4276 0
437.697 -17.6473 0
440.229 -17.8092 0
440.503 -13.5317 0
437.97 -13.3698 0
438.963 -17.7282 0
440.366 -15.6704 0
439.236 -13.4507 0
437.834 -15.5085 0
439.1 -15.5894 0
440.229 -17.8092 0
442.761 -17.9713 0
443.035 -13.6938 0
440.503 -13.5317 0
441.495 -17.8902 0
442.898 -15.8325 0
441.769 -13.6128 0
440.366 -15.6704 0
441.632 -15.7515 0
442.761 -17.9713 0
445.293 -18.1335 0
445.567 -13.8562 0
443.035 -13.6938 0
444.027 -18.0524 0
445.43 -15.9948 0
444.301 -13.775 0
442.898 -15.8325 0
444.164 -15.9137 0
445.293 -18.1335 0
447.824 -18.296 0
448.099 -14.0187 0
445.567 -13.8562 0
446.558 -18.2148 0
447.962 -16.1573 0
446.833 -13.9374 0
445.43 -15.9948 0
446.696 -16.0761 0
447.824 -18.296 0
450.356 -18.4586 0
450.631 -14.1813 0
448.099 -14.0187 0
449.09 -18.3773 0
450.494 -16.32 0
449.365 -14.1 0
447.962 -16.1573 0
449.228 -16.2386 0
450.356 -18.4586 0
452.888 -18.6214 0
453.163 -14.3442 0
450.631 -14.1813 0
451.622 -18.54 0
453.026 -16.4828 0
451.897 -14.2627 0
450.494 -16.32 0
451.76 -16.4014 0
452.888 -18.6214 0
455.42 -18.7844 0
455.695 -14.5071 0
453.163 -14.3442 0
454.154 -18.7029 0
455.558 -16.6457 0
454.429 -14.4256 0
453.026 -16.4828 0
454.292 -16.5642 0
455.42 -18.7844 0
457.952 -18.9475 0
458.228 -14.6703 0
455.695 -14.5071 0
456.686 -18.8659 0
458.09 -16.8089 0
456.962 -14.5887 0
455.558 -16.6457 0
456.824 -16.7273 0
457.952 -18.9475 0
460.484 -19.1107 0
460.76 -14.8335 0
458.228 -14.6703 0
459.218 -19.0291 0
460.622 -16.9721 0
459.494 -14.7519 0
458.09 -16.8089 0
459.356 -16.8905 0
460.484 -19.1107 0
463.016 -19.2741 0
463.292 -14.9969 0
460.76 -14.8335 0
461.75 -19.1924 0
463.154 -17.1355 0
462.026 -14.9152 0
460.622 -16.9721 0
461.888 -17.0538 0
463.016 -19.2741 0
465.548 -19.4375 0
465.825 -15.1605 0
463.292 -14.9969 0
464.282 -19.3558 0
465.687 -17.299 0
464.558 -15.0787 0
463.154 -17.1355 0
464.42 -17.2172 0
465.548 -19.4375 0
468.081 -19.6011 0
468.357 -15.3241 0
465.825 -15.1605 0
466.815 -19.5193 0
468.219 -17.4626 0
467.091 -15.2423 0
465.687 -17.299 0
466.953 -17.3808 0
468.081 -19.6011 0
470.613 -19.7648 0
470.889 -15.4878 0
468.357 -15.3241 0
469.347 -19.683 0
470.751 -17.6263 0
469.623 -15.4059 0
468.219 -17.4626 0
469.485 -17.5444 0
470.613 -19.7648 0
473.145 -19.9286 0
473.422 -15.6516 0
470.889 -15.4878 0
471.879 -19.8467 0
473.283 -17.7901 0
472.155 -15.5697 0
470.751 -17.6263 0
472.017 -17.7082 0
473.145 -19.9286 0
475.677 -20.0925 0
475.954 -15.8156 0
473.422 -15.6516 0
474.411 -20.0106 0
475.816 -17.954 0
474.688 -15.7336 0
473.283 -17.7901 0
474.55 -17.8721 0
475.677 -20.0925 0
478.21 -20.2565 0
478.487 -15.9795 0
475.954 -15.8156 0
476.944 -20.1745 0
478.348 -18.118 0
477.22 -15.8975 0
475.816 -17.954 0
477.082 -18.036 0
478.21 -20.2565 0
480.742 -20.4205 0
481.019 -16.1436 0
478.487 -15.9795 0
479.476 -20.3385 0
480.881 -18.2821 0
479.753 -16.0616 0
478.348 -18.118 0
479.614 -18.2 0
480.742 -20.4205 0
483.275 -20.5846 0
483.552 -16.3077 0
481.019 -16.1436 0
482.008 -20.5026 0
483.413 -18.4462 0
482.285 -16.2257 0
480.881 -18.2821 0
482.147 -18.3641 0
483.275 -20.5846 0
485.807 -20.7488 0
486.084 -16.4719 0
483.552 -16.3077 0
484.541 -20.6667 0
485.946 -18.6103 0
484.818 -16.3898 0
483.413 -18.4462 0
484.679 -18.5282 0
485.807 -20.7488 0
488.34 -20.913 0
488.617 -16.6361 0
486.084 -16.4719 0
487.073 -20.8309 0
488.478 -18.7745 0
487.35 -16.554 0
485.946 -18.6103 0
487.212 -18.6924 0
488.34 -20.913 0
490.872 -21.0772 0
491.149 -16.8004 0
488.617 -16.6361 0
489.606 -20.9951 0
491.011 -18.9388 0
489.883 -16.7183 0
488.478 -18.7745 0
489.744 -18.8567 0
490.872 -21.0772 0
493.405 -21.2415 0
493.682 -16.9648 0
491.149 -16.8004 0
492.138 -21.1594 0
493.543 -19.1031 0
492.416 -16.8826 0
491.011 -18.9388 0
492.277 -19.021 0
493.405 -21.2415 0
495.937 -21.406 0
496.215 -17.1292 0
493.682 -16.9648 0
494.671 -21.3237 0
496.076 -19.2676 0
494.948 -17.047 0
493.543 -19.1031 0
494.81 -19.1853 0
495.937 -21.406 0
498.47 -21.5711 0
498.748 -17.2937 0
496.215 -17.1292 0
497.203 -21.4884 0
498.609 -19.4324 0
497.481 -17.2114 0
496.076 -19.2676 0
497.342 -19.35 0
0 4.28571 0
2.53165 4.28391 0
2.53433 8.57105 0
0 8.57143 0
1.26592 4.28507 0
2.53304 6.42766 0
1.26722 8.57155 0
0 6.42857 0
1.26656 6.42838 0
2.53165 4.28391 0
5.06276 4.2805 0
5.06837 8.56855 0
2.53433 8.57105 0
3.79723 4.28237 0
5.06566 6.42472 0
3.80137 8.57004 0
2.53304 6.42766 0
3.79939 6.42641 0
5.06276 4.2805 0
7.59381 4.2758 0
7.60224 8.56421 0
5.06837 8.56855 0
6.32828 4.27832 0
7.59811 6.4202 0
6.33532 8.5666 0
5.06566 6.42472 0
6.33189 6.42265 0
7.59381 4.2758 0
10.1249 4.26969 0
10.1361 8.5582 0
7.60224 8.56421 0
8.85934 4.27293 0
10.1305 6.41412 0
8.86916 8.56141 0
7.59811 6.4202 0
8.86432 6.41735 0
10.1249 4.26969 0
12.656 4.26206 0
12.6699 8.55056 0
10.1361 8.5582 0
11.3904 4.26607 0
12.663 6.40648 0
11.403 8.55458 0
10.1305 6.41412 0
11.3968 6.4105 0
12.656 4.26206 0
15.1872 4.25284 0
15.2038 8.54132 0
12.6699 8.55056 0
13.9216 4.25765 0
15.1955 6.39725 0
13.9369 8.54614 0
12.663 6.40648 0
13.9293 6.40207 0
15.1872 4.25284 0
17.7184 4.24203 0
17.7377 8.53046 0
15.2038 8.54132 0
16.4528 4.24763 0
17.7281 6.38642 0
16.4708 8.53609 0
15.1955 6.39725 0
16.4618 6.39203 0
17.7184 4.24203 0
20.2497 4.22961 0
20.2717 8.51801 0
17.7377 8.53046 0
18.984 4.23602 0
20.2607 6.37398 0
19.0047 8.52444 0
17.7281 6.38642 0
18.9944 6.3804 0
20.2497 4.22961 0
22.7809 4.2156 0
22.8056 8.50396 0
20.2717 8.51801 0
21.5153 4.2228 0
22.7933 6.35995 0
21.5387 8.51118 0
20.2607 6.37398 0
21.527 6.36716 0
22.7809 4.2156 0
25.3123 4.19999 0
25.3396 8.48832 0
22.8056 8.50396 0
24.0466 4.20799 0
25.326 6.34433 0
24.0726 8.49634 0
22.7933 6.35995 0
24.0596 6.35234 0
25.3123 4.19999 0
27.8436 4.18281 0
27.8736 8.4711 0
25.3396 8.48832 0
26.5779 4.1916 0
27.8586 6.32713 0
26.6066 8.47991 0
25.326 6.34433 0
26.5923 6.33592 0
27.8436 4.18281 0
30.3749 4.16406 0
30.4076 8.45231 0
27.8736 8.4711 0
29.1093 4.17363 0
30.3913 6.30835 0
29.1406 8.4619 0
27.8586 6.32713 0
29.125 6.31793 0
30.3749 4.16406 0
32.9063 4.14374 0
32.9416 8.43196 0
30.4076 8.45231 0
31.6406 4.15409 0
32.924 6.28801 0
31.6746 8.44233 0
30.3913 6.30835 0
31.6577 6.29838 0
32.9063 4.14374 0
35.4377 4.12186 0
35.4757 8.41005 0
32.9416 8.43196 0
34.172 4.13299 0
35.4567 6.26612 0
34.2087 8.4212 0
32.924 6.28801 0
34.1904 6.27726 0
35.4377 4.12186 0
37.9692 4.09844 0
38.0097 8.38659 0
35.4757 8.41005 0
36.7034 4.11035 0
37.9895 6.24268 0
36.7427 8.39851 0
35.4567 6.26612 0
36.7231 6.25459 0
37.9692 4.09844 0
40.5006 4.07349 0
40.5438 8.36159 0
38.0097 8.38659 0
39.2349 4.08616 0
40.5222 6.2177 0
39.2767 8.37428 0
37.9895 6.24268 0
39.2558 6.23038 0
40.5006 4.07349 0
43.0321 4.047 0
43.0778 8.33507 0
40.5438 8.36159 0
41.7663 4.06043 0
43.055 6.1912 0
41.8108 8.34852 0
40.5222 6.2177 0
41.7886 6.20464 0
43.0321 4.047 0
45.5636 4.01899 0
45.6119 8.30702 0
43.0778 8.33507 0
44.2978 4.03319 0
45.5877 6.16317 0
44.3448 8.32123 0
43.055 6.1912 0
44.3213 6.17737 0
45.5636 4.01899 0
48.0951 3.98948 0
48.1459 8.27745 0
45.6119 8.30702 0
46.8293 4.00442 0
48.1205 6.13363 0
46.8789 8.29242 0
45.5877 6.16317 0
46.8541 6.14859 0
48.0951 3.98948 0
50.6266 3.95845 0
50.68 8.24639 0
48.1459 8.27745 0
49.3608 3.97415 0
50.6533 6.10258 0
49.413 8.26211 0
48.1205 6.13363 0
49.3869 6.11829 0
50.6266 3.95845 0
53.1581 3.92594 0
53.214 8.21382 0
50.68 8.24639 0
51.8924 3.94238 0
53.1861 6.07004 0
51.947 8.23029 0
50.6533 6.10258 0
51.9197 6.0865 0
53.1581 3.92594 0
55.6897 3.89193 0
55.7481 8.17977 0
53.214 8.21382 0
54.4239 3.90912 0
55.7189 6.03601 0
54.4811 8.19698 0
53.1861 6.07004 0
54.4525 6.05321 0
55.6897 3.89193 0
58.2213 3.85645 0
58.2822 8.14424 0
55.7481 8.17977 0
56.9555 3.87437 0
58.2518 6.0005 0
57.0152 8.16219 0
55.7189 6.03601 0
56.9853 6.01844 0
58.2213 3.85645 0
60.7529 3.8195 0
60.8163 8.10723 0
58.2822 8.14424 0
59.4871 3.83816 0
60.7846 5.96352 0
59.5492 8.12592 0
58.2518 6.0005 0
59.5182 5.98219 0
60.7529 3.8195 0
63.2845 3.78108 0
63.3503 8.06877 0
60.8163 8.10723 0
62.0187 3.80047 0
63.3174 5.92508 0
62.0833 8.08818 0
60.7846 5.96352 0
62.051 5.94448 0
63.2845 3.78108 0
65.8161 3.74121 0
65.8844 8.02885 0
63.3503 8.06877 0
64.5503 3.76133 0
65.8503 5.88519 0
64.6174 8.04899 0
63.3174 5.92508 0
64.5838 5.90531 0
65.8161 3.74121 0
68.3477 3.6999 0
68.4185 7.98748 0
65.8844 8.02885 0
67.0819 3.72074 0
68.3831 5.84385 0
67.1514 8.00834 0
65.8503 5.88519 0
67.1167 5.8647 0
68.3477 3.6999 0
70.8793 3.65715 0
70.9525 7.94468 0
68.4185 7.98748 0
69.6135 3.67871 0
70.916 5.80107 0
69.6855 7.96626 0
68.3831 5.84385 0
69.6495 5.82264 0
70.8793 3.65715 0
73.411 3.61298 0
73.4866 7.90044 0
70.9525 7.94468 0
72.1452 3.63524 0
73.4488 5.75686 0
72.2196 7.92274 0
70.916 5.80107 0
72.1824 5.77914 0
73.411 3.61298 0
75.9427 3.56738 0
76.0207 7.85479 0
73.4866 7.90044 0
74.6768 3.59036 0
75.9817 5.71124 0
74.7536 7.8778 0
73.4488 5.75686 0
74.7152 5.73423 0
75.9427 3.56738 0
78.4743 3.52037 0
78.5547 7.80773 0
76.0207 7.85479 0
77.2085 3.54405 0
78.5145 5.6642 0
77.2877 7.83144 0
75.9817 5.71124 0
77.2481 5.68789 0
78.4743 3.52037 0
81.006 3.47196 0
81.0888 7.75926 0
78.5547 7.80773 0
79.7402 3.49634 0
81.0474 5.61576 0
79.8217 7.78367 0
78.5145 5.6642 0
79.781 5.64015 0
81.006 3.47196 0
83.5377 3.42216 0
83.6228 7.70939 0
81.0888 7.75926 0
82.2719 3.44724 0
83.5803 5.56593 0
82.3558 7.7345 0
81.0474 5.61576 0
82.3138 5.59102 0
83.5377 3.42216 0
86.0694 3.37097 0
86.1568 7.65814 0
83.6228 7.70939 0
84.8036 3.39674 0
86.1132 5.5147 0
84.8898 7.68394 0
83.5803 5.56593 0
84.8467 5.54049 0
86.0694 3.37097 0
88.6011 3.3184 0
88.6909 7.60551 0
86.1568 7.65814 0
87.3353 3.34486 0
88.646 5.46211 0
87.4239 7.632 0
86.1132 5.5147 0
87.3796 5.48858 0
88.6011 3.3184 0
91.1328 3.26447 0
91.2249 7.55151 0
88.6909 7.60551 0
89.867 3.29161 0
91.1789 5.40814 0
89.9579 7.57868 0
88.646 5.46211 0
89.9125 5.43529 0
91.1328 3.26447 0
93.6646 3.20917 0
93.7589 7.49615 0
91.2249 7.55151 0
92.3987 3.23699 0
93.7118 5.35281 0
92.4919 7.524 0
91.1789 5.40814 0
92.4453 5.38064 0
93.6646 3.20917 0
96.1963 3.15252 0
96.2929 7.43944 0
93.7589 7.49615 0
94.9304 3.18102 0
96.2446 5.29613 0
95.0259 7.46797 0
93.7118 5.35281 0
94.9782 5.32464 0
96.1963 3.15252 0
98.728 3.09453 0
98.8269 7.38138 0
96.2929 7.43944 0
97.4622 3.1237 0
98.7775 5.2381 0
97.5599 7.41058 0
96.2446 5.29613 0
97.5111 5.26728 0
98.728 3.09453 0
101.26 3.03521 0
101.361 7.32199 0
98.8269 7.38138 0
99.9939 3.06504 0
101.31 5.17874 0
100.094 7.35185 0
98.7775 5.2381 0
100.044 5.20859 0
101.26 3.03521 0
103.792 2.97455 0
103.895 7.26127 0
101.361 7.32199 0
102.526 3.00504 0
103.843 5.11805 0
102.628 7.29179 0
101.31 5.17874 0
102.577 5.14856 0
103.792 2.97455 0
106.323 2.91258 0
106.429 7.19923 0
103.895 7.26127 0
105.057 2.94373 0
106.376 5.05605 0
105.162 7.23041 0
103.843 5.11805 0
105.11 5.08721 0
106.323 2.91258 0
108.855 2.8493 0
108.963 7.13588 0
106.429 7.19923 0
107.589 2.8811 0
108.909 4.99273 0
107.696 7.16772 0
106.376 5.05605 0
107.643 5.02455 0
108.855 2.8493 0
111.387 2.78472 0
111.497 7.07122 0
108.963 7.13588 0
110.121 2.81717 0
111.442 4.92811 0
110.23 7.10371 0
108.909 4.99273 0
110.175 4.96058 0
111.387 2.78472 0
113.919 2.71884 0
114.031 7.00528 0
111.497 7.07122 0
112.653 2.75194 0
113.975 4.8622 0
112.764 7.03841 0
111.442 4.92811 0
112.708 4.89531 0
113.919 2.71884 0
116.45 2.65168 0
116.565 6.93805 0
114.031 7.00528 0
115.184 2.68542 0
116.507 4.795 0
115.298 6.97182 0
113.975 4.8622 0
115.241 4.82876 0
116.45 2.65168 0
118.982 2.58324 0
119.099 6.86954 0
116.565 6.93805 0
117.716 2.61762 0
119.04 4.72653 0
117.832 6.90395 0
116.507 4.795 0
117.774 4.76092 0
118.982 2.58324 0
121.514 2.51354 0
121.632 6.79976 0
119.099 6.86954 0
120.248 2.54855 0
121.573 4.65679 0
120.366 6.83481 0
119.04 4.72653 0
120.307 4.69181 0
121.514 2.51354 0
124.046 2.44258 0
124.166 6.72872 0
121.632 6.79976 0
122.78 2.47822 0
124.106 4.58578 0
122.899 6.7644 0
121.573 4.65679 0
122.84 4.62144 0
124.046 2.44258 0
126.577 2.37036 0
126.7 6.65643 0
124.166 6.72872 0
125.311 2.40663 0
126.639 4.51353 0
125.433 6.69274 0
124.106 4.58578 0
125.372 4.54981 0
126.577 2.37036 0
129.109 2.29691 0
129.234 6.5829 0
126.7 6.65643 0
127.843 2.33379 0
129.172 4.44004 0
127.967 6.61982 0
126.639 4.51353 0
127.905 4.47694 0
129.109 2.29691 0
131.641 2.22222 0
131.768 6.50814 0
129.234 6.5829 0
130.375 2.25972 0
131.704 4.36531 0
130.501 6.54567 0
129.172 4.44004 0
130.438 4.40283 0
131.641 2.22222 0
134.173 2.1463 0
134.302 6.43215 0
131.768 6.50814 0
132.907 2.18441 0
134.237 4.28935 0
133.035 6.47029 0
131.704 4.36531 0
132.971 4.32748 0
134.173 2.1463 0
136.704 2.06917 0
136.836 6.35494 0
134.302 6.43215 0
135.438 2.10789 0
136.77 4.21218 0
135.569 6.39369 0
134.237 4.28935 0
135.504 4.25092 0
136.704 2.06917 0
139.236 1.99083 0
139.369 6.27652 0
136.836 6.35494 0
137.97 2.03015 0
139.303 4.1338 0
138.102 6.31588 0
136.77 4.21218 0
138.036 4.17314 0
139.236 1.99083 0
141.768 1.91129 0
141.903 6.1969 0
139.369 6.27652 0
140.502 1.95121 0
141.836 4.05422 0
140.636 6.23686 0
139.303 4.1338 0
140.569 4.09416 0
141.768 1.91129 0
144.3 1.83055 0
144.437 6.11609 0
141.903 6.1969 0
143.034 1.87107 0
144.368 3.97345 0
143.17 6.15664 0
141.836 4.05422 0
143.102 4.01398 0
144.3 1.83055 0
146.831 1.74864 0
146.971 6.03409 0
144.437 6.11609 0
145.566 1.78974 0
146.901 3.89149 0
145.704 6.07524 0
144.368 3.97345 0
145.635 3.93261 0
146.831 1.74864 0
149.363 1.66554 0
149.504 5.95092 0
146.971 6.03409 0
148.097 1.70724 0
149.434 3.80836 0
148.238 5.99265 0
146.901 3.89149 0
148.167 3.85007 0
149.363 1.66554 0
151.895 1.58129 0
152.038 5.86658 0
149.504 5.95092 0
150.629 1.62356 0
151.967 3.72406 0
150.771 5.9089 0
149.434 3.80836 0
150.7 3.76635 0
151.895 1.58129 0
154.427 1.49587 0
154.572 5.78109 0
152.038 5.86658 0
153.161 1.53872 0
154.499 3.6386 0
153.305 5.82398 0
151.967 3.72406 0
153.233 3.68147 0
154.427 1.49587 0
156.958 1.4093 0
157.105 5.69444 0
154.572 5.78109 0
155.693 1.45273 0
157.032 3.552 0
155.839 5.73791 0
154.499 3.6386 0
155.766 3.59544 0
156.958 1.4093 0
159.49 1.3216 0
159.639 5.60665 0
157.105 5.69444 0
158.224 1.36559 0
159.565 3.46425 0
158.372 5.65069 0
157.032 3.552 0
158.298 3.50826 0
159.49 1.3216 0
162.022 1.23276 0
162.173 5.51773 0
159.639 5.60665 0
160.756 1.27732 0
162.097 3.37537 0
160.906 5.56234 0
159.565 3.46425 0
160.831 3.41995 0
162.022 1.23276 0
164.554 1.1428 0
164.706 5.42769 0
162.173 5.51773 0
163.288 1.18792 0
164.63 3.28536 0
163.44 5.47285 0
162.097 3.37537 0
163.364 3.3305 0
164.554 1.1428 0
167.085 1.05172 0
167.24 5.33653 0
164.706 5.42769 0
165.819 1.0974 0
167.163 3.19424 0
165.973 5.38225 0
164.63 3.28536 0
165.896 3.23994 0
167.085 1.05172 0
169.617 0.95953 0
169.774 5.24426 0
167.24 5.33653 0
168.351 1.00576 0
169.695 3.10201 0
168.507 5.29053 0
167.163 3.19424 0
168.429 3.14826 0
169.617 0.95953 0
172.149 0.866244 0
172.307 5.15089 0
169.774 5.24426 0
170.883 0.913024 0
172.228 3.00868 0
171.04 5.19771 0
169.695 3.10201 0
170.962 3.05548 0
172.149 0.866244 0
174.681 0.771869 0
174.841 5.05643 0
172.307 5.15089 0
173.415 0.819192 0
174.761 2.91427 0
173.574 5.1038 0
172.228 3.00868 0
173.494 2.96161 0
174.681 0.771869 0
177.212 0.676411 0
177.374 4.96089 0
174.841 5.05643 0
175.946 0.724274 0
177.293 2.81877 0
176.108 5.0088 0
174.761 2.91427 0
176.027 2.86665 0
177.212 0.676411 0
179.744 0.579879 0
179.908 4.86428 0
177.374 4.96089 0
178.478 0.628278 0
179.826 2.72219 0
178.641 4.91272 0
177.293 2.81877 0
178.56 2.77061 0
179.744 0.579879 0
182.276 0.482282 0
182.441 4.7666 0
179.908 4.86428 0
181.01 0.531213 0
182.358 2.62455 0
181.175 4.81557 0
179.826 2.72219 0
181.092 2.6735 0
182.276 0.482282 0
184.807 0.383629 0
184.975 4.66786 0
182.441 4.7666 0
183.541 0.433087 0
184.891 2.52586 0
183.708 4.71736 0
182.358 2.62455 0
183.625 2.57534 0
184.807 0.383629 0
187.339 0.283927 0
187.508 4.56807 0
184.975 4.66786 0
186.073 0.333908 0
187.424 2.42611 0
186.241 4.6181 0
184.891 2.52586 0
186.157 2.47611 0
187.339 0.283927 0
189.871 0.183185 0
190.042 4.46725 0
187.508 4.56807 0
188.605 0.233686 0
189.956 2.32533 0
188.775 4.51779 0
187.424 2.42611 0
188.69 2.37585 0
189.871 0.183185 0
192.402 0.0814121 0
192.575 4.36539 0
190.042 4.46725 0
191.137 0.132427 0
192.489 2.22351 0
191.308 4.41645 0
189.956 2.32533 0
191.222 2.27455 0
192.402 0.0814121 0
194.934 -0.0213839 0
195.108 4.26251 0
192.575 4.36539 0
193.668 0.0301415 0
195.021 2.12067 0
193.842 4.31408 0
192.489 2.22351 0
193.755 2.17222 0
194.934 -0.0213839 0
197.466 -0.125195 0
197.642 4.15862 0
195.108 4.26251 0
196.2 -0.0731629 0
197.554 2.01682 0
196.375 4.21069 0
195.021 2.12067 0
196.288 2.06887 0
197.466 -0.125195 0
199.997 -0.230011 0
200.175 4.05372 0
197.642 4.15862 0
198.732 -0.177478 0
200.086 1.91196 0
198.909 4.10629 0
197.554 2.01682 0
198.82 1.96451 0
199.997 -0.230011 0
202.529 -0.335826 0
202.709 3.94782 0
200.175 4.05372 0
201.263 -0.282794 0
202.619 1.8061 0
201.442 4.00089 0
200.086 1.91196 0
201.353 1.85915 0
202.529 -0.335826 0
205.061 -0.442629 0
205.242 3.84093 0
202.709 3.94782 0
203.795 -0.389104 0
205.151 1.69925 0
203.975 3.8945 0
202.619 1.8061 0
203.885 1.7528 0
205.061 -0.442629 0
207.592 -0.550414 0
207.775 3.73306 0
205.242 3.84093 0
206.327 -0.496399 0
207.684 1.59143 0
206.509 3.78712 0
205.151 1.69925 0
206.418 1.64546 0
207.592 -0.550414 0
210.124 -0.65917 0
210.308 3.62422 0
207.775 3.73306 0
208.858 -0.604671 0
210.216 1.48263 0
209.042 3.67876 0
207.684 1.59143 0
208.95 1.53715 0
210.124 -0.65917 0
212.656 -0.768891 0
212.842 3.51441 0
210.308 3.62422 0
211.39 -0.713911 0
212.749 1.37286 0
211.575 3.56944 0
210.216 1.48263 0
211.482 1.42786 0
212.656 -0.768891 0
215.187 -0.879567 0
215.375 3.40365 0
212.842 3.51441 0
213.921 -0.82411 0
215.281 1.26214 0
214.108 3.45915 0
212.749 1.37286 0
214.015 1.31762 0
215.187 -0.879567 0
217.719 -0.991191 0
217.908 3.29195 0
215.375 3.40365 0
216.453 -0.935261 0
217.814 1.15048 0
216.642 3.34792 0
215.281 1.26214 0
216.547 1.20643 0
217.719 -0.991191 0
220.251 -1.10375 0
220.441 3.1793 0
217.908 3.29195 0
218.985 -1.04735 0
220.346 1.03787 0
219.175 3.23574 0
217.814 1.15048 0
219.08 1.09429 0
220.251 -1.10375 0
222.782 -1.21724 0
222.975 3.06572 0
220.441 3.1793 0
221.516 -1.16038 0
222.878 0.924337 0
221.708 3.12263 0
220.346 1.03787 0
221.612 0.98122 0
222.782 -1.21724 0
225.314 -1.33166 0
225.508 2.95123 0
222.975 3.06572 0
224.048 -1.27434 0
225.411 0.80988 0
224.241 3.00859 0
222.878 0.924337 0
224.145 0.867223 0
225.314 -1.33166 0
227.845 -1.44699 0
228.041 2.83581 0
225.508 2.95123 0
226.58 -1.38921 0
227.943 0.69451 0
226.774 2.89363 0
225.411 0.80988 0
226.677 0.752309 0
227.845 -1.44699 0
230.377 -1.56322 0
230.574 2.7195 0
228.041 2.83581 0
229.111 -1.50499 0
230.475 0.578235 0
229.307 2.77777 0
227.943 0.69451 0
229.209 0.636485 0
230.377 -1.56322 0
232.909 -1.68035 0
233.107 2.60229 0
230.574 2.7195 0
231.643 -1.62167 0
233.008 0.461064 0
231.841 2.661 0
230.475 0.578235 0
231.742 0.519761 0
232.909 -1.68035 0
235.44 -1.79836 0
235.64 2.48419 0
233.107 2.60229 0
234.174 -1.73924 0
235.54 0.343005 0
234.374 2.54335 0
233.008 0.461064 0
234.274 0.402145 0
235.44 -1.79836 0
237.972 -1.91726 0
238.173 2.36521 0
235.64 2.48419 0
236.706 -1.8577 0
238.073 0.224066 0
236.907 2.42481 0
235.54 0.343005 0
236.806 0.283645 0
237.972 -1.91726 0
240.503 -2.03702 0
240.706 2.24536 0
238.173 2.36521 0
239.238 -1.97703 0
240.605 0.104257 0
239.44 2.30539 0
238.073 0.224066 0
239.339 0.16427 0
240.503 -2.03702 0
243.035 -2.15765 0
243.239 2.12464 0
240.706 2.24536 0
241.769 -2.09723 0
243.137 -0.0164156 0
241.973 2.18511 0
240.605 0.104257 0
241.871 0.0440278 0
243.035 -2.15765 0
245.566 -2.27914 0
245.772 2.00308 0
243.239 2.12464 0
244.301 -2.21829 0
245.669 -0.137942 0
244.506 2.06397 0
243.137 -0.0164156 0
244.403 -0.0770726 0
245.566 -2.27914 0
248.098 -2.40147 0
248.305 1.88066 0
245.772 2.00308 0
246.832 -2.3402 0
248.202 -0.260314 0
247.039 1.94197 0
245.669 -0.137942 0
246.936 -0.199023 0
248.098 -2.40147 0
250.63 -2.52464 0
250.838 1.75741 0
248.305 1.88066 0
249.364 -2.46295 0
250.734 -0.383524 0
249.572 1.81914 0
248.202 -0.260314 0
249.468 -0.321815 0
250.63 -2.52464 0
253.161 -2.64863 0
253.371 1.63333 0
250.838 1.75741 0
251.895 -2.58653 0
253.266 -0.507562 0
252.105 1.69548 0
250.734 -0.383524 0
252 -0.44544 0
253.161 -2.64863 0
255.693 -2.77345 0
255.904 1.50844 0
253.371 1.63333 0
254.427 -2.71094 0
255.798 -0.63242 0
254.638 1.57099 0
253.266 -0.507562 0
254.532 -0.569889 0
255.693 -2.77345 0
258.224 -2.89908 0
258.437 1.38273 0
255.904 1.50844 0
256.958 -2.83616 0
258.331 -0.758091 0
257.171 1.44568 0
255.798 -0.63242 0
257.065 -0.695155 0
258.224 -2.89908 0
260.756 -3.02551 0
260.97 1.25621 0
258.437 1.38273 0
259.49 -2.96219 0
260.863 -0.884565 0
259.703 1.31957 0
258.331 -0.758091 0
259.597 -0.821228 0
260.756 -3.02551 0
263.287 -3.15274 0
263.503 1.1289 0
260.97 1.25621 0
262.022 -3.08902 0
263.395 -1.01183 0
262.236 1.19266 0
260.863 -0.884565 0
262.129 -0.9481 0
263.287 -3.15274 0
265.819 -3.28075 0
266.036 1.00081 0
263.503 1.1289 0
264.553 -3.21665 0
265.927 -1.13989 0
264.769 1.06495 0
263.395 -1.01183 0
264.661 -1.07576 0
265.819 -3.28075 0
268.35 -3.40954 0
268.568 0.871934 0
266.036 1.00081 0
267.085 -3.34505 0
268.459 -1.26872 0
267.302 0.936467 0
265.927 -1.13989 0
267.193 -1.20421 0
268.35 -3.40954 0
270.882 -3.53911 0
271.101 0.742291 0
268.568 0.871934 0
269.616 -3.47423 0
270.992 -1.39833 0
269.835 0.807208 0
268.459 -1.26872 0
269.726 -1.33343 0
270.882 -3.53911 0
273.413 -3.66943 0
273.634 0.611887 0
271.101 0.742291 0
272.148 -3.60417 0
273.524 -1.52869 0
272.368 0.677184 0
270.992 -1.39833 0
272.258 -1.46341 0
273.413 -3.66943 0
275.945 -3.80051 0
276.167 0.48073 0
273.634 0.611887 0
274.679 -3.73487 0
276.056 -1.65981 0
274.9 0.546402 0
273.524 -1.52869 0
274.79 -1.59416 0
275.945 -3.80051 0
278.476 -3.93233 0
278.7 0.34883 0
276.167 0.48073 0
277.211 -3.86632 0
278.588 -1.79167 0
277.433 0.414872 0
276.056 -1.65981 0
277.322 -1.72565 0
278.476 -3.93233 0
281.008 -4.06489 0
281.232 0.216193 0
278.7 0.34883 0
279.742 -3.99851 0
281.12 -1.92427 0
279.966 0.282603 0
278.588 -1.79167 0
279.854 -1.85788 0
281.008 -4.06489 0
283.539 -4.19817 0
283.765 0.0828291 0
281.232 0.216193 0
282.274 -4.13144 0
283.652 -2.0576 0
282.499 0.149601 0
281.12 -1.92427 0
282.386 -1.99084 0
283.539 -4.19817 0
286.071 -4.33218 0
286.298 -0.0512537 0
283.765 0.0828291 0
284.805 -4.26508 0
286.184 -2.19164 0
285.031 0.015877 0
283.652 -2.0576 0
284.918 -2.12453 0
286.071 -4.33218 0
288.603 -4.46689 0
288.831 -0.186047 0
286.298 -0.0512537 0
287.337 -4.39944 0
288.717 -2.32639 0
287.564 -0.118562 0
286.184 -2.19164 0
287.45 -2.25893 0
288.603 -4.46689 0
291.134 -4.60231 0
291.363 -0.321542 0
288.831 -0.186047 0
289.868 -4.53451 0
291.249 -2.46185 0
290.097 -0.253707 0
288.717 -2.32639 0
289.983 -2.39404 0
291.134 -4.60231 0
293.666 -4.73842 0
293.896 -0.457731 0
291.363 -0.321542 0
292.4 -4.67028 0
293.781 -2.598 0
292.63 -0.38955 0
291.249 -2.46185 0
292.515 -2.52984 0
293.666 -4.73842 0
296.197 -4.87522 0
296.429 -0.594605 0
293.896 -0.457731 0
294.931 -4.80673 0
296.313 -2.73484 0
295.162 -0.526083 0
293.781 -2.598 0
295.047 -2.66634 0
296.197 -4.87522 0
298.729 -5.01269 0
298.961 -0.732155 0
296.429 -0.594605 0
297.463 -4.94387 0
298.845 -2.87235 0
297.695 -0.663296 0
296.313 -2.73484 0
297.579 -2.80351 0
298.729 -5.01269 0
301.26 -5.15084 0
301.494 -0.870374 0
298.961 -0.732155 0
299.994 -5.08168 0
301.377 -3.01054 0
300.227 -0.801181 0
298.845 -2.87235 0
300.111 -2.94136 0
301.26 -5.15084 0
303.792 -5.28964 0
304.026 -1.00925 0
301.494 -0.870374 0
302.526 -5.22016 0
303.909 -3.14938 0
302.76 -0.939731 0
301.377 -3.01054 0
302.643 -3.07987 0
303.792 -5.28964 0
306.323 -5.42909 0
306.559 -1.14878 0
304.026 -1.00925 0
305.057 -5.35929 0
306.441 -3.28887 0
305.293 -1.07894 0
303.909 -3.14938 0
305.175 -3.21904 0
306.323 -5.42909 0
308.855 -5.56919 0
309.092 -1.28895 0
306.559 -1.14878 0
307.589 -5.49906 0
308.973 -3.42901 0
307.825 -1.21879 0
306.441 -3.28887 0
307.707 -3.35886 0
308.855 -5.56919 0
311.386 -5.70993 0
311.624 -1.42976 0
309.092 -1.28895 0
310.12 -5.63948 0
311.505 -3.56978 0
310.358 -1.35928 0
308.973 -3.42901 0
310.239 -3.49931 0
311.386 -5.70993 0
313.918 -5.85129 0
314.157 -1.57119 0
311.624 -1.42976 0
312.652 -5.78053 0
314.037 -3.71118 0
312.89 -1.5004 0
311.505 -3.56978 0
312.771 -3.6404 0
313.918 -5.85129 0
316.449 -5.99326 0
316.689 -1.71324 0
314.157 -1.57119 0
315.183 -5.9222 0
316.569 -3.85319 0
315.423 -1.64214 0
314.037 -3.71118 0
315.303 -3.78211 0
316.449 -5.99326 0
318.981 -6.13585 0
319.222 -1.8559 0
316.689 -1.71324 0
317.715 -6.06448 0
319.101 -3.99582 0
317.955 -1.7845 0
316.569 -3.85319 0
317.835 -3.92443 0
318.981 -6.13585 0
321.512 -6.27904 0
321.754 -1.99916 0
319.222 -1.8559 0
320.246 -6.20737 0
321.633 -4.13904 0
320.488 -1.92746 0
319.101 -3.99582 0
320.367 -4.06735 0
321.512 -6.27904 0
324.044 -6.42282 0
324.287 -2.14302 0
321.754 -1.99916 0
322.778 -6.35086 0
324.165 -4.28286 0
323.021 -2.07102 0
321.633 -4.13904 0
322.899 -4.21088 0
324.044 -6.42282 0
326.575 -6.56719 0
326.819 -2.28745 0
324.287 -2.14302 0
325.309 -6.49493 0
326.697 -4.42726 0
325.553 -2.21516 0
324.165 -4.28286 0
325.431 -4.35499 0
326.575 -6.56719 0
329.107 -6.71213 0
329.352 -2.43246 0
326.819 -2.28745 0
327.841 -6.63959 0
329.229 -4.57224 0
328.085 -2.35989 0
326.697 -4.42726 0
327.963 -4.49968 0
329.107 -6.71213 0
331.638 -6.85764 0
331.884 -2.57804 0
329.352 -2.43246 0
330.372 -6.78482 0
331.761 -4.71778 0
330.618 -2.50518 0
329.229 -4.57224 0
330.495 -4.64494 0
331.638 -6.85764 0
334.17 -7.00371 0
334.417 -2.72418 0
331.884 -2.57804 0
332.904 -6.93061 0
334.293 -4.86389 0
333.15 -2.65104 0
331.761 -4.71778 0
333.027 -4.79077 0
334.17 -7.00371 0
336.701 -7.15033 0
336.949 -2.87087 0
334.417 -2.72418 0
335.435 -7.07695 0
336.825 -5.01054 0
335.683 -2.79745 0
334.293 -4.86389 0
335.559 -4.93715 0
336.701 -7.15033 0
339.233 -7.29749 0
339.482 -3.01809 0
336.949 -2.87087 0
337.967 -7.22384 0
339.357 -5.15774 0
338.215 -2.94441 0
336.825 -5.01054 0
338.091 -5.08407 0
339.233 -7.29749 0
341.764 -7.44518 0
342.014 -3.16586 0
339.482 -3.01809 0
340.499 -7.37127 0
341.889 -5.30547 0
340.748 -3.09191 0
339.357 -5.15774 0
340.623 -5.23154 0
341.764 -7.44518 0
344.296 -7.59341 0
344.546 -3.31414 0
342.014 -3.16586 0
343.03 -7.51923 0
344.421 -5.45372 0
343.28 -3.23993 0
341.889 -5.30547 0
343.155 -5.37953 0
344.296 -7.59341 0
346.827 -7.74214 0
347.079 -3.46294 0
344.546 -3.31414 0
345.562 -7.66771 0
346.953 -5.60249 0
345.813 -3.38848 0
344.421 -5.45372 0
345.687 -5.52804 0
346.827 -7.74214 0
349.359 -7.89139 0
349.611 -3.61225 0
347.079 -3.46294 0
348.093 -7.8167 0
349.485 -5.75177 0
348.345 -3.53754 0
346.953 -5.60249 0
348.219 -5.67707 0
349.359 -7.89139 0
351.89 -8.04113 0
352.144 -3.76206 0
349.611 -3.61225 0
350.625 -7.9662 0
352.017 -5.90155 0
350.877 -3.6871 0
349.485 -5.75177 0
350.751 -5.8266 0
351.89 -8.04113 0
354.422 -8.19137 0
354.676 -3.91236 0
352.144 -3.76206 0
353.156 -8.11619 0
354.549 -6.05182 0
353.41 -3.83715 0
352.017 -5.90155 0
353.283 -5.97662 0
354.422 -8.19137 0
356.954 -8.34209 0
357.208 -4.06315 0
354.676 -3.91236 0
355.688 -8.26667 0
357.081 -6.20257 0
355.942 -3.9877 0
354.549 -6.05182 0
355.815 -6.12713 0
356.954 -8.34209 0
359.485 -8.49329 0
359.741 -4.2144 0
357.208 -4.06315 0
358.219 -8.41763 0
359.613 -6.3538 0
358.475 -4.13872 0
357.081 -6.20257 0
358.347 -6.27812 0
359.485 -8.49329 0
362.017 -8.64495 0
362.273 -4.36613 0
359.741 -4.2144 0
360.751 -8.56906 0
362.145 -6.50549 0
361.007 -4.29021 0
359.613 -6.3538 0
360.879 -6.42959 0
362.017 -8.64495 0
364.548 -8.79707 0
364.805 -4.51831 0
362.273 -4.36613 0
363.283 -8.72095 0
364.677 -6.65764 0
363.539 -4.44216 0
362.145 -6.50549 0
363.411 -6.58151 0
364.548 -8.79707 0
367.08 -8.94964 0
367.338 -4.67093 0
364.805 -4.51831 0
365.814 -8.8733 0
367.209 -6.81024 0
366.072 -4.59456 0
364.677 -6.65764 0
365.943 -6.73388 0
367.08 -8.94964 0
369.612 -9.10265 0
369.87 -4.824 0
367.338 -4.67093 0
368.346 -9.02609 0
369.741 -6.96328 0
368.604 -4.74741 0
367.209 -6.81024 0
368.475 -6.8867 0
369.612 -9.10265 0
372.143 -9.25609 0
372.403 -4.9775 0
369.87 -4.824 0
370.877 -9.17931 0
372.273 -7.11675 0
371.136 -4.9007 0
369.741 -6.96328 0
371.007 -7.03996 0
372.143 -9.25609 0
374.675 -9.40995 0
374.935 -5.13143 0
372.403 -4.9775 0
373.409 -9.33297 0
374.805 -7.27065 0
373.669 -5.05441 0
372.273 -7.11675 0
373.539 -7.19365 0
374.675 -9.40995 0
377.207 -9.56424 0
377.467 -5.28576 0
374.935 -5.13143 0
375.941 -9.48704 0
377.337 -7.42496 0
376.201 -5.20854 0
374.805 -7.27065 0
376.071 -7.34775 0
377.207 -9.56424 0
379.738 -9.71893 0
380 -5.44051 0
377.467 -5.28576 0
378.472 -9.64153 0
379.869 -7.57968 0
378.733 -5.36309 0
377.337 -7.42496 0
378.603 -7.50227 0
379.738 -9.71893 0
382.27 -9.87401 0
382.532 -5.59565 0
380 -5.44051 0
381.004 -9.79642 0
382.401 -7.73479 0
381.266 -5.51803 0
379.869 -7.57968 0
381.135 -7.65718 0
382.27 -9.87401 0
384.802 -10.0295 0
385.064 -5.75118 0
382.532 -5.59565 0
383.536 -9.9517 0
384.933 -7.8903 0
383.798 -5.67337 0
382.401 -7.73479 0
383.667 -7.8125 0
384.802 -10.0295 0
387.333 -10.1854 0
387.597 -5.9071 0
385.064 -5.75118 0
386.067 -10.1074 0
387.465 -8.04619 0
386.33 -5.82909 0
384.933 -7.8903 0
386.199 -7.9682 0
387.333 -10.1854 0
389.865 -10.3416 0
390.129 -6.06338 0
387.597 -5.9071 0
388.599 -10.2634 0
389.997 -8.20245 0
388.863 -5.9852 0
387.465 -8.04619 0
388.731 -8.12427 0
389.865 -10.3416 0
392.397 -10.4982 0
392.661 -6.22004 0
390.129 -6.06338 0
391.131 -10.4198 0
392.529 -8.35907 0
391.395 -6.14166 0
389.997 -8.20245 0
391.263 -8.28072 0
392.397 -10.4982 0
394.928 -10.6551 0
395.193 -6.37704 0
392.661 -6.22004 0
393.663 -10.5766 0
395.061 -8.51606 0
393.927 -6.29849 0
392.529 -8.35907 0
393.795 -8.43752 0
394.928 -10.6551 0
397.46 -10.8124 0
397.726 -6.5344 0
395.193 -6.37704 0
396.194 -10.7337 0
397.593 -8.67339 0
396.46 -6.45568 0
395.061 -8.51606 0
396.327 -8.59468 0
397.46 -10.8124 0
399.992 -10.9701 0
400.258 -6.69209 0
397.726 -6.5344 0
398.726 -10.8912 0
400.125 -8.83105 0
398.992 -6.6132 0
397.593 -8.67339 0
398.859 -8.75218 0
399.992 -10.9701 0
402.524 -11.1281 0
402.79 -6.85011 0
400.258 -6.69209 0
401.258 -11.049 0
402.657 -8.98905 0
401.524 -6.77106 0
400.125 -8.83105 0
401.391 -8.91001 0
402.524 -11.1281 0
405.055 -11.2864 0
405.323 -7.00846 0
402.79 -6.85011 0
403.79 -11.2072 0
405.189 -9.14738 0
404.057 -6.92925 0
402.657 -8.98905 0
403.923 -9.06818 0
405.055 -11.2864 0
407.587 -11.445 0
407.855 -7.16712 0
405.323 -7.00846 0
406.321 -11.3656 0
407.721 -9.30601 0
406.589 -7.08775 0
405.189 -9.14738 0
406.455 -9.22666 0
407.587 -11.445 0
410.119 -11.6039 0
410.387 -7.32608 0
407.855 -7.16712 0
408.853 -11.5244 0
410.253 -9.46496 0
409.121 -7.24656 0
407.721 -9.30601 0
408.987 -9.38545 0
410.119 -11.6039 0
412.651 -11.7631 0
412.92 -7.48534 0
410.387 -7.32608 0
411.385 -11.6835 0
412.785 -9.6242 0
411.654 -7.40568 0
410.253 -9.46496 0
411.519 -9.54454 0
412.651 -11.7631 0
415.183 -11.9226 0
415.452 -7.64489 0
412.92 -7.48534 0
413.917 -11.8428 0
415.318 -9.78372 0
414.186 -7.56508 0
412.785 -9.6242 0
414.051 -9.70392 0
415.183 -11.9226 0
417.715 -12.0824 0
417.984 -7.80472 0
415.452 -7.64489 0
416.449 -12.0025 0
417.85 -9.94353 0
416.718 -7.72477 0
415.318 -9.78372 0
416.584 -9.86359 0
417.715 -12.0824 0
420.247 -12.2425 0
420.517 -7.96482 0
417.984 -7.80472 0
418.981 -12.1624 0
420.382 -10.1036 0
419.251 -7.88474 0
417.85 -9.94353 0
419.116 -10.0235 0
420.247 -12.2425 0
422.779 -12.4028 0
423.049 -8.12519 0
420.517 -7.96482 0
421.513 -12.3226 0
422.914 -10.264 0
421.783 -8.04497 0
420.382 -10.1036 0
421.648 -10.1838 0
422.779 -12.4028 0
425.31 -12.5634 0
425.582 -8.28581 0
423.049 -8.12519 0
424.044 -12.483 0
425.446 -10.4246 0
424.315 -8.20547 0
422.914 -10.264 0
424.18 -10.3442 0
425.31 -12.5634 0
427.842 -12.7242 0
428.114 -8.44667 0
425.582 -8.28581 0
426.576 -12.6437 0
427.978 -10.5854 0
426.848 -8.36621 0
425.446 -10.4246 0
426.712 -10.5049 0
427.842 -12.7242 0
430.374 -12.8852 0
430.646 -8.60777 0
428.114 -8.44667 0
429.108 -12.8047 0
430.51 -10.7465 0
429.38 -8.52719 0
427.978 -10.5854 0
429.244 -10.6659 0
430.374 -12.8852 0
432.906 -13.0465 0
433.179 -8.7691 0
430.646 -8.60777 0
431.64 -12.9659 0
433.043 -10.9078 0
431.912 -8.68841 0
430.51 -10.7465 0
431.776 -10.8271 0
432.906 -13.0465 0
435.438 -13.2081 0
435.711 -8.93066 0
433.179 -8.7691 0
434.172 -13.1273 0
435.575 -11.0693 0
434.445 -8.84985 0
433.043 -10.9078 0
434.309 -10.9885 0
435.438 -13.2081 0
437.97 -13.3698 0
438.243 -9.09242 0
435.711 -8.93066 0
436.704 -13.2889 0
438.107 -11.2311 0
436.977 -9.01151 0
435.575 -11.0693 0
436.841 -11.1502 0
437.97 -13.3698 0
440.503 -13.5317 0
440.776 -9.25439 0
438.243 -9.09242 0
439.236 -13.4507 0
440.639 -11.393 0
439.51 -9.17338 0
438.107 -11.2311 0
439.373 -11.312 0
440.503 -13.5317 0
443.035 -13.6938 0
443.308 -9.41656 0
440.776 -9.25439 0
441.769 -13.6128 0
443.171 -11.5552 0
442.042 -9.33545 0
440.639 -11.393 0
441.905 -11.4741 0
443.035 -13.6938 0
445.567 -13.8562 0
445.841 -9.57891 0
443.308 -9.41656 0
444.301 -13.775 0
445.704 -11.7175 0
444.574 -9.49771 0
443.171 -11.5552 0
444.438 -11.6363 0
445.567 -13.8562 0
448.099 -14.0187 0
448.373 -9.74144 0
445.841 -9.57891 0
446.833 -13.9374 0
448.236 -11.88 0
447.107 -9.66015 0
445.704 -11.7175 0
446.97 -11.7988 0
448.099 -14.0187 0
450.631 -14.1813 0
450.905 -9.90414 0
448.373 -9.74144 0
449.365 -14.1 0
450.768 -12.0427 0
449.639 -9.82277 0
448.236 -11.88 0
449.502 -11.9614 0
450.631 -14.1813 0
453.163 -14.3442 0
453.438 -10.067 0
450.905 -9.90414 0
451.897 -14.2627 0
453.301 -12.2056 0
452.172 -9.98555 0
450.768 -12.0427 0
452.034 -12.1241 0
453.163 -14.3442 0
455.695 -14.5071 0
455.97 -10.23 0
453.438 -10.067 0
454.429 -14.4256 0
455.833 -12.3686 0
454.704 -10.1485 0
453.301 -12.2056 0
454.567 -12.287 0
455.695 -14.5071 0
458.228 -14.6703 0
458.503 -10.3932 0
455.97 -10.23 0
456.962 -14.5887 0
458.365 -12.5317 0
457.237 -10.3116 0
455.833 -12.3686 0
457.099 -12.4501 0
458.228 -14.6703 0
460.76 -14.8335 0
461.035 -10.5565 0
458.503 -10.3932 0
459.494 -14.7519 0
460.898 -12.695 0
459.769 -10.4748 0
458.365 -12.5317 0
459.631 -12.6133 0
460.76 -14.8335 0
463.292 -14.9969 0
463.568 -10.7199 0
461.035 -10.5565 0
462.026 -14.9152 0
463.43 -12.8584 0
462.302 -10.6382 0
460.898 -12.695 0
462.164 -12.7767 0
463.292 -14.9969 0
465.825 -15.1605 0
466.1 -10.8834 0
463.568 -10.7199 0
464.558 -15.0787 0
465.962 -13.0219 0
464.834 -10.8017 0
463.43 -12.8584 0
464.696 -12.9402 0
465.825 -15.1605 0
468.357 -15.3241 0
468.633 -11.0471 0
466.1 -10.8834 0
467.091 -15.2423 0
468.495 -13.1856 0
467.367 -10.9653 0
465.962 -13.0219 0
467.229 -13.1037 0
468.357 -15.3241 0
470.889 -15.4878 0
471.165 -11.2109 0
468.633 -11.0471 0
469.623 -15.4059 0
471.027 -13.3493 0
469.899 -11.129 0
468.495 -13.1856 0
469.761 -13.2674 0
470.889 -15.4878 0
473.422 -15.6516 0
473.698 -11.3747 0
471.165 -11.2109 0
472.155 -15.5697 0
473.56 -13.5132 0
472.432 -11.2928 0
471.027 -13.3493 0
472.294 -13.4312 0
473.422 -15.6516 0
475.954 -15.8156 0
476.231 -11.5386 0
473.698 -11.3747 0
474.688 -15.7336 0
476.092 -13.6771 0
474.964 -11.4567 0
473.56 -13.5132 0
474.826 -13.5951 0
475.954 -15.8156 0
478.487 -15.9795 0
478.763 -11.7027 0
476.231 -11.5386 0
477.22 -15.8975 0
478.625 -13.8411 0
477.497 -11.6206 0
476.092 -13.6771 0
477.359 -13.7591 0
478.487 -15.9795 0
481.019 -16.1436 0
481.296 -11.8667 0
478.763 -11.7027 0
479.753 -16.0616 0
481.157 -14.0052 0
480.029 -11.7847 0
478.625 -13.8411 0
479.891 -13.9231 0
481.019 -16.1436 0
483.552 -16.3077 0
483.828 -12.0309 0
481.296 -11.8667 0
482.285 -16.2257 0
483.69 -14.1693 0
482.562 -11.9488 0
481.157 -14.0052 0
482.424 -14.0872 0
483.552 -16.3077 0
486.084 -16.4719 0
486.361 -12.1951 0
483.828 -12.0309 0
484.818 -16.3898 0
486.223 -14.3335 0
485.095 -12.113 0
483.69 -14.1693 0
484.956 -14.2514 0
486.084 -16.4719 0
488.617 -16.6361 0
488.894 -12.3593 0
486.361 -12.1951 0
487.35 -16.554 0
488.755 -14.4977 0
487.627 -12.2772 0
486.223 -14.3335 0
487.489 -14.4156 0
488.617 -16.6361 0
491.149 -16.8004 0
491.426 -12.5236 0
488.894 -12.3593 0
489.883 -16.7183 0
491.288 -14.662 0
490.16 -12.4415 0
488.755 -14.4977 0
490.022 -14.5799 0
491.149 -16.8004 0
493.682 -16.9648 0
493.959 -12.688 0
491.426 -12.5236 0
492.416 -16.8826 0
493.821 -14.8264 0
492.693 -12.6058 0
491.288 -14.662 0
492.554 -14.7442 0
493.682 -16.9648 0
496.215 -17.1292 0
496.492 -12.8523 0
493.959 -12.688 0
494.948 -17.047 0
496.353 -14.9907 0
495.226 -12.7701 0
493.821 -14.8264 0
495.087 -14.9085 0
496.215 -17.1292 0
498.748 -17.2937 0
499.025 -13.0165 0
496.492 -12.8523 0
497.481 -17.2114 0
498.886 -15.1551 0
497.758 -12.9344 0
496.353 -14.9907 0
497.62 -15.0729 0
0 8.57143 0
2.53433 8.57105 0
2.53683 12.8573 0
0 12.8571 0
1.26722 8.57155 0
2.53559 10.7143 0
1.26842 12.8575 0
0 10.7143 0
1.26783 10.7146 0
2.53433 8.57105 0
5.06837 8.56855 0
5.07355 12.8553 0
2.53683 12.8573 0
3.80137 8.57004 0
5.07099 10.712 0
3.8052 12.8566 0
2.53559 10.7143 0
3.8033 10.7134 0
5.06837 8.56855 0
7.60224 8.56421 0
7.61023 12.8512 0
5.07355 12.8553 0
6.33532 8.5666 0
7.60627 10.7079 0
6.3419 12.8535 0
5.07099 10.712 0
6.33864 10.7102 0
7.60224 8.56421 0
10.1361 8.5582 0
10.1469 12.8453 0
7.61023 12.8512 0
8.86916 8.56141 0
10.1415 10.7019 0
8.87856 12.8484 0
7.60627 10.7079 0
8.87389 10.7051 0
10.1361 8.5582 0
12.6699 8.55056 0
12.6835 12.8377 0
10.1469 12.8453 0
11.403 8.55458 0
12.6768 10.6943 0
11.4152 12.8417 0
10.1415 10.7019 0
11.4091 10.6983 0
12.6699 8.55056 0
15.2038 8.54132 0
15.2202 12.8284 0
12.6835 12.8377 0
13.9369 8.54614 0
15.212 10.685 0
13.9518 12.8332 0
12.6768 10.6943 0
13.9444 10.6899 0
15.2038 8.54132 0
17.7377 8.53046 0
17.7568 12.8175 0
15.2202 12.8284 0
16.4708 8.53609 0
17.7473 10.6742 0
16.4885 12.8232 0
15.212 10.685 0
16.4797 10.6798 0
17.7377 8.53046 0
20.2717 8.51801 0
20.2935 12.805 0
17.7568 12.8175 0
19.0047 8.52444 0
20.2826 10.6617 0
19.0252 12.8115 0
17.7473 10.6742 0
19.0149 10.6681 0
20.2717 8.51801 0
22.8056 8.50396 0
22.8302 12.791 0
20.2935 12.805 0
21.5387 8.51118 0
22.8179 10.6476 0
21.5618 12.7982 0
20.2826 10.6617 0
21.5503 10.6549 0
22.8056 8.50396 0
25.3396 8.48832 0
25.3668 12.7753 0
22.8302 12.791 0
24.0726 8.49634 0
25.3532 10.632 0
24.0985 12.7833 0
22.8179 10.6476 0
24.0856 10.64 0
25.3396 8.48832 0
27.8736 8.4711 0
27.9035 12.758 0
25.3668 12.7753 0
26.6066 8.47991 0
27.8886 10.6147 0
26.6352 12.7669 0
25.3532 10.632 0
26.6209 10.6236 0
27.8736 8.4711 0
30.4076 8.45231 0
30.4402 12.7392 0
27.9035 12.758 0
29.1406 8.4619 0
30.4239 10.5959 0
29.1718 12.7488 0
27.8886 10.6147 0
29.1562 10.6055 0
30.4076 8.45231 0
32.9416 8.43196 0
32.9768 12.7188 0
30.4402 12.7392 0
31.6746 8.44233 0
32.9592 10.5756 0
31.7085 12.7292 0
30.4239 10.5959 0
31.6916 10.5859 0
32.9416 8.43196 0
35.4757 8.41005 0
35.5135 12.6969 0
32.9768 12.7188 0
34.2087 8.4212 0
35.4946 10.5536 0
34.2451 12.7081 0
32.9592 10.5756 0
34.2269 10.5648 0
35.4757 8.41005 0
38.0097 8.38659 0
38.0501 12.6734 0
35.5135 12.6969 0
36.7427 8.39851 0
38.0299 10.5302 0
36.7818 12.6854 0
35.4946 10.5536 0
36.7623 10.5421 0
38.0097 8.38659 0
40.5438 8.36159 0
40.5868 12.6484 0
38.0501 12.6734 0
39.2767 8.37428 0
40.5653 10.5052 0
39.3184 12.6611 0
38.0299 10.5302 0
39.2976 10.5179 0
40.5438 8.36159 0
43.0778 8.33507 0
43.1234 12.6218 0
40.5868 12.6484 0
41.8108 8.34852 0
43.1006 10.4786 0
41.8551 12.6353 0
40.5653 10.5052 0
41.8329 10.4921 0
43.0778 8.33507 0
45.6119 8.30702 0
45.66 12.5937 0
43.1234 12.6218 0
44.3448 8.32123 0
45.6359 10.4505 0
44.3917 12.608 0
43.1006 10.4786 0
44.3683 10.4648 0
45.6119 8.30702 0
48.1459 8.27745 0
48.1966 12.5641 0
45.66 12.5937 0
46.8789 8.29242 0
48.1713 10.421 0
46.9283 12.5791 0
45.6359 10.4505 0
46.9036 10.4359 0
48.1459 8.27745 0
50.68 8.24639 0
50.7332 12.533 0
48.1966 12.5641 0
49.413 8.26211 0
50.7066 10.3899 0
49.4649 12.5488 0
48.1713 10.421 0
49.4389 10.4056 0
50.68 8.24639 0
53.214 8.21382 0
53.2698 12.5004 0
50.7332 12.533 0
51.947 8.23029 0
53.2419 10.3573 0
52.0015 12.5169 0
50.7066 10.3899 0
51.9743 10.3738 0
53.214 8.21382 0
55.7481 8.17977 0
55.8064 12.4663 0
53.2698 12.5004 0
54.4811 8.19698 0
55.7773 10.3232 0
54.5381 12.4836 0
53.2419 10.3573 0
54.5096 10.3404 0
55.7481 8.17977 0
58.2822 8.14424 0
58.343 12.4308 0
55.8064 12.4663 0
57.0152 8.16219 0
58.3126 10.2877 0
57.0747 12.4487 0
55.7773 10.3232 0
57.0449 10.3056 0
58.2822 8.14424 0
60.8163 8.10723 0
60.8795 12.3937 0
58.343 12.4308 0
59.5492 8.12592 0
60.8479 10.2506 0
59.6112 12.4124 0
58.3126 10.2877 0
59.5802 10.2693 0
60.8163 8.10723 0
63.3503 8.06877 0
63.416 12.3552 0
60.8795 12.3937 0
62.0833 8.08818 0
63.3832 10.2121 0
62.1478 12.3746 0
60.8479 10.2506 0
62.1155 10.2316 0
63.3503 8.06877 0
65.8844 8.02885 0
65.9526 12.3152 0
63.416 12.3552 0
64.6174 8.04899 0
65.9185 10.1722 0
64.6843 12.3354 0
63.3832 10.2121 0
64.6508 10.1924 0
65.8844 8.02885 0
68.4185 7.98748 0
68.4891 12.2738 0
65.9526 12.3152 0
67.1514 8.00834 0
68.4538 10.1308 0
67.2208 12.2947 0
65.9185 10.1722 0
67.1861 10.1517 0
68.4185 7.98748 0
70.9525 7.94468 0
71.0256 12.231 0
68.4891 12.2738 0
69.6855 7.96626 0
70.9891 10.088 0
69.7573 12.2526 0
68.4538 10.1308 0
69.7214 10.1096 0
70.9525 7.94468 0
73.4866 7.90044 0
73.562 12.1867 0
71.0256 12.231 0
72.2196 7.92274 0
73.5243 10.0437 0
72.2938 12.209 0
70.9891 10.088 0
72.2567 10.066 0
73.4866 7.90044 0
76.0207 7.85479 0
76.0985 12.141 0
73.562 12.1867 0
74.7536 7.8778 0
76.0596 9.99804 0
74.8303 12.164 0
73.5243 10.0437 0
74.792 10.0211 0
76.0207 7.85479 0
78.5547 7.80773 0
78.6349 12.0939 0
76.0985 12.141 0
77.2877 7.83144 0
78.5948 9.95095 0
77.3667 12.1176 0
76.0596 9.99804 0
77.3272 9.97467 0
78.5547 7.80773 0
81.0888 7.75926 0
81.1713 12.0454 0
78.6349 12.0939 0
79.8217 7.78367 0
81.1301 9.90246 0
79.9031 12.0698 0
78.5948 9.95095 0
79.8624 9.92688 0
81.0888 7.75926 0
83.6228 7.70939 0
83.7077 11.9954 0
81.1713 12.0454 0
82.3558 7.7345 0
83.6653 9.85256 0
82.4395 12.0206 0
81.1301 9.90246 0
82.3977 9.87768 0
83.6228 7.70939 0
86.1568 7.65814 0
86.2441 11.9441 0
83.7077 11.9954 0
84.8898 7.68394 0
86.2005 9.80129 0
84.9759 11.97 0
83.6653 9.85256 0
84.9329 9.8271 0
86.1568 7.65814 0
88.6909 7.60551 0
88.7805 11.8914 0
86.2441 11.9441 0
87.4239 7.632 0
88.7357 9.74863 0
87.5123 11.918 0
86.2005 9.80129 0
87.4681 9.77513 0
88.6909 7.60551 0
91.2249 7.55151 0
91.3168 11.8374 0
88.7805 11.8914 0
89.9579 7.57868 0
91.2709 9.6946 0
90.0486 11.8646 0
88.7357 9.74863 0
90.0033 9.72178 0
91.2249 7.55151 0
93.7589 7.49615 0
93.8531 11.782 0
91.3168 11.8374 0
92.4919 7.524 0
93.806 9.63921 0
92.585 11.8099 0
91.2709 9.6946 0
92.5384 9.66708 0
93.7589 7.49615 0
96.2929 7.43944 0
96.3894 11.7252 0
93.8531 11.782 0
95.0259 7.46797 0
96.3412 9.58247 0
95.1213 11.7538 0
93.806 9.63921 0
95.0736 9.61101 0
96.2929 7.43944 0
98.8269 7.38138 0
98.9257 11.6671 0
96.3894 11.7252 0
97.5599 7.41058 0
98.8763 9.52438 0
97.6575 11.6963 0
96.3412 9.58247 0
97.6087 9.55359 0
98.8269 7.38138 0
101.361 7.32199 0
101.462 11.6076 0
98.9257 11.6671 0
100.094 7.35185 0
101.411 9.46496 0
100.194 11.6375 0
98.8763 9.52438 0
100.144 9.49483 0
101.361 7.32199 0
103.895 7.26127 0
103.998 11.5469 0
101.462 11.6076 0
102.628 7.29179 0
103.947 9.4042 0
102.73 11.5774 0
101.411 9.46496 0
102.679 9.43474 0
103.895 7.26127 0
106.429 7.19923 0
106.534 11.4848 0
103.998 11.5469 0
105.162 7.23041 0
106.482 9.34213 0
105.266 11.516 0
103.947 9.4042 0
105.214 9.37333 0
106.429 7.19923 0
108.963 7.13588 0
109.07 11.4213 0
106.534 11.4848 0
107.696 7.16772 0
109.017 9.27875 0
107.802 11.4532 0
106.482 9.34213 0
107.749 9.3106 0
108.963 7.13588 0
111.497 7.07122 0
111.607 11.3566 0
109.07 11.4213 0
110.23 7.10371 0
111.552 9.21406 0
110.339 11.3891 0
109.017 9.27875 0
110.284 9.24657 0
111.497 7.07122 0
114.031 7.00528 0
114.143 11.2906 0
111.607 11.3566 0
112.764 7.03841 0
114.087 9.14808 0
112.875 11.3238 0
111.552 9.21406 0
112.819 9.18124 0
114.031 7.00528 0
116.565 6.93805 0
116.679 11.2233 0
114.143 11.2906 0
115.298 6.97182 0
116.622 9.08082 0
115.411 11.2571 0
114.087 9.14808 0
115.354 9.11461 0
116.565 6.93805 0
119.099 6.86954 0
119.215 11.1547 0
116.679 11.2233 0
117.832 6.90395 0
119.157 9.01228 0
117.947 11.1892 0
116.622 9.08082 0
117.889 9.04671 0
119.099 6.86954 0
121.632 6.79976 0
121.751 11.0849 0
119.215 11.1547 0
120.366 6.83481 0
121.692 8.94247 0
120.483 11.12 0
119.157 9.01228 0
120.424 8.97753 0
121.632 6.79976 0
124.166 6.72872 0
124.287 11.0138 0
121.751 11.0849 0
122.899 6.7644 0
124.227 8.8714 0
123.019 11.0495 0
121.692 8.94247 0
122.959 8.90709 0
124.166 6.72872 0
126.7 6.65643 0
126.823 10.9414 0
124.287 11.0138 0
125.433 6.69274 0
126.762 8.79907 0
125.555 10.9778 0
124.227 8.8714 0
125.494 8.83539 0
126.7 6.65643 0
129.234 6.5829 0
129.359 10.8678 0
126.823 10.9414 0
127.967 6.61982 0
129.296 8.72551 0
128.091 10.9048 0
126.762 8.79907 0
128.029 8.76244 0
129.234 6.5829 0
131.768 6.50814 0
131.895 10.793 0
129.359 10.8678 0
130.501 6.54567 0
131.831 8.65071 0
130.627 10.8306 0
129.296 8.72551 0
130.564 8.68826 0
131.768 6.50814 0
134.302 6.43215 0
134.431 10.717 0
131.895 10.793 0
133.035 6.47029 0
134.366 8.57468 0
133.163 10.7551 0
131.831 8.65071 0
133.099 8.61284 0
134.302 6.43215 0
136.836 6.35494 0
136.967 10.6397 0
134.431 10.717 0
135.569 6.39369 0
136.901 8.49743 0
135.699 10.6785 0
134.366 8.57468 0
135.634 8.53621 0
136.836 6.35494 0
139.369 6.27652 0
139.502 10.5612 0
136.967 10.6397 0
138.102 6.31588 0
139.436 8.41898 0
138.234 10.6006 0
136.901 8.49743 0
138.168 8.45836 0
139.369 6.27652 0
141.903 6.1969 0
142.038 10.4815 0
139.502 10.5612 0
140.636 6.23686 0
141.971 8.33932 0
140.77 10.5215 0
139.436 8.41898 0
140.703 8.3793 0
141.903 6.1969 0
144.437 6.11609 0
144.574 10.4006 0
142.038 10.4815 0
143.17 6.15664 0
144.505 8.25848 0
143.306 10.4412 0
141.971 8.33932 0
143.238 8.29905 0
144.437 6.11609 0
146.971 6.03409 0
147.11 10.3185 0
144.574 10.4006 0
145.704 6.07524 0
147.04 8.17644 0
145.842 10.3597 0
144.505 8.25848 0
145.773 8.21761 0
146.971 6.03409 0
149.504 5.95092 0
149.645 10.2353 0
147.11 10.3185 0
148.238 5.99265 0
149.575 8.09324 0
148.378 10.2771 0
147.04 8.17644 0
148.308 8.13499 0
149.504 5.95092 0
152.038 5.86658 0
152.181 10.1509 0
149.645 10.2353 0
150.771 5.9089 0
152.11 8.00886 0
150.913 10.1932 0
149.575 8.09324 0
150.842 8.05119 0
152.038 5.86658 0
154.572 5.78109 0
154.717 10.0653 0
152.181 10.1509 0
153.305 5.82398 0
154.644 7.92333 0
153.449 10.1083 0
152.11 8.00886 0
153.377 7.96624 0
154.572 5.78109 0
157.105 5.69444 0
157.252 9.9786 0
154.717 10.0653 0
155.839 5.73791 0
157.179 7.83665 0
155.985 10.0221 0
154.644 7.92333 0
155.912 7.88013 0
157.105 5.69444 0
159.639 5.60665 0
159.788 9.89074 0
157.252 9.9786 0
158.372 5.65069 0
159.714 7.74882 0
158.52 9.93482 0
157.179 7.83665 0
158.446 7.79287 0
159.639 5.60665 0
162.173 5.51773 0
162.324 9.80175 0
159.788 9.89074 0
160.906 5.56234 0
162.248 7.65986 0
161.056 9.84639 0
159.714 7.74882 0
160.981 7.70448 0
162.173 5.51773 0
164.706 5.42769 0
164.859 9.71163 0
162.324 9.80175 0
163.44 5.47285 0
164.783 7.56978 0
163.591 9.75683 0
162.248 7.65986 0
163.515 7.61496 0
164.706 5.42769 0
167.24 5.33653 0
167.395 9.6204 0
164.859 9.71163 0
165.973 5.38225 0
167.317 7.47858 0
166.127 9.66615 0
164.783 7.56978 0
166.05 7.52432 0
167.24 5.33653 0
169.774 5.24426 0
169.93 9.52805 0
167.395 9.6204 0
168.507 5.29053 0
169.852 7.38627 0
168.662 9.57436 0
167.317 7.47858 0
168.585 7.43256 0
169.774 5.24426 0
172.307 5.15089 0
172.465 9.43461 0
169.93 9.52805 0
171.04 5.19771 0
172.386 7.29287 0
171.198 9.48147 0
169.852 7.38627 0
171.119 7.33971 0
172.307 5.15089 0
174.841 5.05643 0
175.001 9.34008 0
172.465 9.43461 0
173.574 5.1038 0
174.921 7.19837 0
173.733 9.38748 0
172.386 7.29287 0
173.654 7.24575 0
174.841 5.05643 0
177.374 4.96089 0
177.536 9.24446 0
175.001 9.34008 0
176.108 5.0088 0
177.455 7.10279 0
176.268 9.2924 0
174.921 7.19837 0
176.188 7.15071 0
177.374 4.96089 0
179.908 4.86428 0
180.071 9.14777 0
177.536 9.24446 0
178.641 4.91272 0
179.99 7.00614 0
178.804 9.19625 0
177.455 7.10279 0
178.722 7.0546 0
179.908 4.86428 0
182.441 4.7666 0
182.607 9.05001 0
180.071 9.14777 0
181.175 4.81557 0
182.524 6.90842 0
181.339 9.09902 0
179.99 7.00614 0
181.257 6.95741 0
182.441 4.7666 0
184.975 4.66786 0
185.142 8.9512 0
182.607 9.05001 0
183.708 4.71736 0
185.058 6.80964 0
183.874 9.00074 0
182.524 6.90842 0
183.791 6.85916 0
184.975 4.66786 0
187.508 4.56807 0
187.677 8.85134 0
185.142 8.9512 0
186.241 4.6181 0
187.593 6.70982 0
186.41 8.9014 0
185.058 6.80964 0
186.326 6.75986 0
187.508 4.56807 0
190.042 4.46725 0
190.212 8.75043 0
187.677 8.85134 0
188.775 4.51779 0
190.127 6.60895 0
188.945 8.80102 0
187.593 6.70982 0
188.86 6.65951 0
190.042 4.46725 0
192.575 4.36539 0
192.748 8.6485 0
190.212 8.75043 0
191.308 4.41645 0
192.661 6.50706 0
191.48 8.6996 0
190.127 6.60895 0
191.394 6.55813 0
192.575 4.36539 0
195.108 4.26251 0
195.283 8.54554 0
192.748 8.6485 0
193.842 4.31408 0
195.196 6.40414 0
194.015 8.59715 0
192.661 6.50706 0
193.928 6.45572 0
195.108 4.26251 0
197.642 4.15862 0
197.818 8.44157 0
195.283 8.54554 0
196.375 4.21069 0
197.73 6.3002 0
196.55 8.49368 0
195.196 6.40414 0
196.463 6.3523 0
197.642 4.15862 0
200.175 4.05372 0
200.353 8.33659 0
197.818 8.44157 0
198.909 4.10629 0
200.264 6.19526 0
199.085 8.38921 0
197.73 6.3002 0
198.997 6.24786 0
200.175 4.05372 0
202.709 3.94782 0
202.888 8.23062 0
200.353 8.33659 0
201.442 4.00089 0
202.798 6.08932 0
201.62 8.28373 0
200.264 6.19526 0
201.531 6.14242 0
202.709 3.94782 0
205.242 3.84093 0
205.423 8.12365 0
202.888 8.23062 0
203.975 3.8945 0
205.332 5.9824 0
204.155 8.17726 0
202.798 6.08932 0
204.065 6.03598 0
205.242 3.84093 0
207.775 3.73306 0
207.958 8.01571 0
205.423 8.12365 0
206.509 3.78712 0
207.866 5.87449 0
206.69 8.0698 0
205.332 5.9824 0
206.599 5.92856 0
207.775 3.73306 0
210.308 3.62422 0
210.493 7.90679 0
207.958 8.01571 0
209.042 3.67876 0
210.401 5.76561 0
209.225 7.96137 0
207.866 5.87449 0
209.134 5.82017 0
210.308 3.62422 0
212.842 3.51441 0
213.028 7.79691 0
210.493 7.90679 0
211.575 3.56944 0
212.935 5.65576 0
211.76 7.85197 0
210.401 5.76561 0
211.668 5.7108 0
212.842 3.51441 0
215.375 3.40365 0
215.562 7.68607 0
213.028 7.79691 0
214.108 3.45915 0
215.469 5.54496 0
214.295 7.74161 0
212.935 5.65576 0
214.202 5.60048 0
215.375 3.40365 0
217.908 3.29195 0
218.097 7.57428 0
215.562 7.68607 0
216.642 3.34792 0
218.003 5.43321 0
216.83 7.63029 0
215.469 5.54496 0
216.736 5.48921 0
217.908 3.29195 0
220.441 3.1793 0
220.632 7.46156 0
218.097 7.57428 0
219.175 3.23574 0
220.537 5.32053 0
219.365 7.51804 0
218.003 5.43321 0
219.27 5.37699 0
220.441 3.1793 0
222.975 3.06572 0
223.167 7.34791 0
220.632 7.46156 0
221.708 3.12263 0
223.071 5.20691 0
221.899 7.40485 0
220.537 5.32053 0
221.804 5.26384 0
222.975 3.06572 0
225.508 2.95123 0
225.701 7.23333 0
223.167 7.34791 0
224.241 3.00859 0
225.605 5.09238 0
224.434 7.29073 0
223.071 5.20691 0
224.338 5.14976 0
225.508 2.95123 0
228.041 2.83581 0
228.236 7.11784 0
225.701 7.23333 0
226.774 2.89363 0
228.138 4.97693 0
226.969 7.1757 0
225.605 5.09238 0
226.872 5.03476 0
228.041 2.83581 0
230.574 2.7195 0
230.771 7.00145 0
228.236 7.11784 0
229.307 2.77777 0
230.672 4.86057 0
229.503 7.05976 0
228.138 4.97693 0
229.405 4.91886 0
230.574 2.7195 0
233.107 2.60229 0
233.305 6.88416 0
230.771 7.00145 0
231.841 2.661 0
233.206 4.74332 0
232.038 6.94292 0
230.672 4.86057 0
231.939 4.80206 0
233.107 2.60229 0
235.64 2.48419 0
235.84 6.76599 0
233.305 6.88416 0
234.374 2.54335 0
235.74 4.62518 0
234.573 6.82518 0
233.206 4.74332 0
234.473 4.68436 0
235.64 2.48419 0
238.173 2.36521 0
238.374 6.64693 0
235.84 6.76599 0
236.907 2.42481 0
238.274 4.50616 0
237.107 6.70657 0
235.74 4.62518 0
237.007 4.56578 0
238.173 2.36521 0
240.706 2.24536 0
240.909 6.527 0
238.374 6.64693 0
239.44 2.30539 0
240.808 4.38627 0
239.642 6.58707 0
238.274 4.50616 0
239.541 4.44632 0
240.706 2.24536 0
243.239 2.12464 0
243.443 6.40621 0
240.909 6.527 0
241.973 2.18511 0
243.341 4.26552 0
242.176 6.46672 0
240.808 4.38627 0
242.074 4.326 0
243.239 2.12464 0
245.772 2.00308 0
245.978 6.28457 0
243.443 6.40621 0
244.506 2.06397 0
245.875 4.14391 0
244.711 6.3455 0
243.341 4.26552 0
244.608 4.20482 0
245.772 2.00308 0
248.305 1.88066 0
248.512 6.16208 0
245.978 6.28457 0
247.039 1.94197 0
248.409 4.02146 0
247.245 6.22343 0
245.875 4.14391 0
247.142 4.08279 0
248.305 1.88066 0
250.838 1.75741 0
251.047 6.03876 0
248.512 6.16208 0
249.572 1.81914 0
250.942 3.89817 0
249.779 6.10052 0
248.409 4.02146 0
249.676 3.95992 0
250.838 1.75741 0
253.371 1.63333 0
253.581 5.9146 0
251.047 6.03876 0
252.105 1.69548 0
253.476 3.77406 0
252.314 5.97678 0
250.942 3.89817 0
252.209 3.83622 0
253.371 1.63333 0
255.904 1.50844 0
256.115 5.78963 0
253.581 5.9146 0
254.638 1.57099 0
256.01 3.64912 0
254.848 5.85222 0
253.476 3.77406 0
254.743 3.71169 0
255.904 1.50844 0
258.437 1.38273 0
258.65 5.66385 0
256.115 5.78963 0
257.171 1.44568 0
258.543 3.52337 0
257.382 5.72684 0
256.01 3.64912 0
257.276 3.58635 0
258.437 1.38273 0
260.97 1.25621 0
261.184 5.53726 0
258.65 5.66385 0
259.703 1.31957 0
261.077 3.39682 0
259.917 5.60065 0
258.543 3.52337 0
259.81 3.46019 0
260.97 1.25621 0
263.503 1.1289 0
263.718 5.40987 0
261.184 5.53726 0
262.236 1.19266 0
263.61 3.26947 0
262.451 5.47366 0
261.077 3.39682 0
262.344 3.33324 0
263.503 1.1289 0
266.036 1.00081 0
266.252 5.28171 0
263.718 5.40987 0
264.769 1.06495 0
266.144 3.14134 0
264.985 5.34589 0
263.61 3.26947 0
264.877 3.2055 0
266.036 1.00081 0
268.568 0.871934 0
268.786 5.15276 0
266.252 5.28171 0
267.302 0.936467 0
268.677 3.01243 0
267.519 5.21733 0
266.144 3.14134 0
267.411 3.07698 0
268.568 0.871934 0
271.101 0.742291 0
271.32 5.02304 0
268.786 5.15276 0
269.835 0.807208 0
271.211 2.88275 0
270.053 5.088 0
268.677 3.01243 0
269.944 2.94768 0
271.101 0.742291 0
273.634 0.611887 0
273.855 4.89257 0
271.32 5.02304 0
272.368 0.677184 0
273.744 2.75231 0
272.587 4.9579 0
271.211 2.88275 0
272.478 2.81762 0
273.634 0.611887 0
276.167 0.48073 0
276.389 4.76134 0
273.855 4.89257 0
274.9 0.546402 0
276.278 2.62111 0
275.122 4.82705 0
273.744 2.75231 0
275.011 2.6868 0
276.167 0.48073 0
278.7 0.34883 0
278.923 4.62936 0
276.389 4.76134 0
277.433 0.414872 0
278.811 2.48917 0
277.656 4.69544 0
276.278 2.62111 0
277.544 2.55524 0
278.7 0.34883 0
281.232 0.216193 0
281.457 4.49666 0
278.923 4.62936 0
279.966 0.282603 0
281.344 2.3565 0
280.19 4.5631 0
278.811 2.48917 0
280.078 2.42293 0
281.232 0.216193 0
283.765 0.0828291 0
283.99 4.36322 0
281.457 4.49666 0
282.499 0.149601 0
283.878 2.2231 0
282.724 4.43003 0
281.344 2.3565 0
282.611 2.28989 0
283.765 0.0828291 0
286.298 -0.0512537 0
286.524 4.22907 0
283.99 4.36322 0
285.031 0.015877 0
286.411 2.08898 0
285.257 4.29623 0
283.878 2.2231 0
285.144 2.15613 0
286.298 -0.0512537 0
288.831 -0.186047 0
289.058 4.0942 0
286.524 4.22907 0
287.564 -0.118562 0
288.944 1.95415 0
287.791 4.16172 0
286.411 2.08898 0
287.678 2.02166 0
288.831 -0.186047 0
291.363 -0.321542 0
291.592 3.95864 0
289.058 4.0942 0
290.097 -0.253707 0
291.478 1.81862 0
290.325 4.02651 0
288.944 1.95415 0
290.211 1.88647 0
291.363 -0.321542 0
293.896 -0.457731 0
294.126 3.82238 0
291.592 3.95864 0
292.63 -0.38955 0
294.011 1.6824 0
292.859 3.8906 0
291.478 1.81862 0
292.744 1.7506 0
293.896 -0.457731 0
296.429 -0.594605 0
296.66 3.68544 0
294.126 3.82238 0
295.162 -0.526083 0
296.544 1.54549 0
295.393 3.75399 0
294.011 1.6824 0
295.278 1.61403 0
296.429 -0.594605 0
298.961 -0.732155 0
299.194 3.54782 0
296.66 3.68544 0
297.695 -0.663296 0
299.077 1.4079 0
297.927 3.61671 0
296.544 1.54549 0
297.811 1.47678 0
298.961 -0.732155 0
301.494 -0.870374 0
301.727 3.40953 0
299.194 3.54782 0
300.227 -0.801181 0
301.611 1.26965 0
300.46 3.47876 0
299.077 1.4079 0
300.344 1.33886 0
301.494 -0.870374 0
304.026 -1.00925 0
304.261 3.27059 0
301.727 3.40953 0
302.76 -0.939731 0
304.144 1.13074 0
302.994 3.34014 0
301.611 1.26965 0
302.877 1.20027 0
304.026 -1.00925 0
306.559 -1.14878 0
306.795 3.13099 0
304.261 3.27059 0
305.293 -1.07894 0
306.677 0.991172 0
305.528 3.20087 0
304.144 1.13074 0
305.41 1.06103 0
306.559 -1.14878 0
309.092 -1.28895 0
309.328 2.99075 0
306.795 3.13099 0
307.825 -1.21879 0
309.21 0.850965 0
308.062 3.06095 0
306.677 0.991172 0
307.943 0.921148 0
309.092 -1.28895 0
311.624 -1.42976 0
311.862 2.84988 0
309.328 2.99075 0
310.358 -1.35928 0
311.743 0.710124 0
310.595 2.92039 0
309.21 0.850965 0
310.477 0.780623 0
311.624 -1.42976 0
314.157 -1.57119 0
314.396 2.70838 0
311.862 2.84988 0
312.89 -1.5004 0
314.276 0.568657 0
313.129 2.7792 0
311.743 0.710124 0
313.01 0.639468 0
314.157 -1.57119 0
316.689 -1.71324 0
316.929 2.56626 0
314.396 2.70838 0
315.423 -1.64214 0
316.809 0.426573 0
315.662 2.6374 0
314.276 0.568657 0
315.543 0.497692 0
316.689 -1.71324 0
319.222 -1.8559 0
319.463 2.42354 0
316.929 2.56626 0
317.955 -1.7845 0
319.342 0.283881 0
318.196 2.49498 0
316.809 0.426573 0
318.076 0.355303 0
319.222 -1.8559 0
321.754 -1.99916 0
321.996 2.28021 0
319.463 2.42354 0
320.488 -1.92746 0
321.875 0.140588 0
320.729 2.35195 0
319.342 0.283881 0
320.609 0.212309 0
321.754 -1.99916 0
324.287 -2.14302 0
324.53 2.1363 0
321.996 2.28021 0
323.021 -2.07102 0
324.408 -0.00329748 0
323.263 2.20833 0
321.875 0.140588 0
323.142 0.0687185 0
324.287 -2.14302 0
326.819 -2.28745 0
327.063 1.9918 0
324.53 2.1363 0
325.553 -2.21516 0
326.941 -0.147766 0
325.796 2.06412 0
324.408 -0.00329748 0
325.675 -0.0754593 0
326.819 -2.28745 0
329.352 -2.43246 0
329.597 1.84673 0
327.063 1.9918 0
328.085 -2.35989 0
329.474 -0.292809 0
328.33 1.91933 0
326.941 -0.147766 0
328.208 -0.220216 0
329.352 -2.43246 0
331.884 -2.57804 0
332.13 1.70109 0
329.597 1.84673 0
330.618 -2.50518 0
332.007 -0.438419 0
330.863 1.77398 0
329.474 -0.292809 0
330.741 -0.365544 0
331.884 -2.57804 0
334.417 -2.72418 0
334.663 1.55489 0
332.13 1.70109 0
333.15 -2.65104 0
334.54 -0.584588 0
333.397 1.62806 0
332.007 -0.438419 0
333.274 -0.511434 0
334.417 -2.72418 0
336.949 -2.87087 0
337.197 1.40814 0
334.663 1.55489 0
335.683 -2.79745 0
337.073 -0.731305 0
335.93 1.48158 0
334.54 -0.584588 0
335.807 -0.657878 0
336.949 -2.87087 0
339.482 -3.01809 0
339.73 1.26085 0
337.197 1.40814 0
338.215 -2.94441 0
339.606 -0.878564 0
338.464 1.33456 0
337.073 -0.731305 0
338.339 -0.804868 0
339.482 -3.01809 0
342.014 -3.16586 0
342.263 1.11303 0
339.73 1.26085 0
340.748 -3.09191 0
342.139 -1.02636 0
340.997 1.18701 0
339.606 -0.878564 0
340.872 -0.952394 0
342.014 -3.16586 0
344.546 -3.31414 0
344.797 0.964688 0
342.263 1.11303 0
343.28 -3.23993 0
344.672 -1.17467 0
343.53 1.03893 0
342.139 -1.02636 0
343.405 -1.10045 0
344.546 -3.31414 0
347.079 -3.46294 0
347.33 0.815828 0
344.797 0.964688 0
345.813 -3.38848 0
347.204 -1.3235 0
346.063 0.890322 0
344.672 -1.17467 0
345.938 -1.24902 0
347.079 -3.46294 0
349.611 -3.61225 0
349.863 0.666461 0
347.33 0.815828 0
348.345 -3.53754 0
349.737 -1.47284 0
348.597 0.741208 0
347.204 -1.3235 0
348.471 -1.39811 0
349.611 -3.61225 0
352.144 -3.76206 0
352.397 0.516595 0
349.863 0.666461 0
350.877 -3.6871 0
352.27 -1.62268 0
351.13 0.59159 0
349.737 -1.47284 0
351.004 -1.5477 0
352.144 -3.76206 0
354.676 -3.91236 0
354.93 0.366239 0
352.397 0.516595 0
353.41 -3.83715 0
354.803 -1.77301 0
353.663 0.441478 0
352.27 -1.62268 0
353.536 -1.69779 0
354.676 -3.91236 0
357.208 -4.06315 0
357.463 0.215402 0
354.93 0.366239 0
355.942 -3.9877 0
357.336 -1.92382 0
356.196 0.29088 0
354.803 -1.77301 0
356.069 -1.84836 0
357.208 -4.06315 0
359.741 -4.2144 0
359.996 0.0640905 0
357.463 0.215402 0
358.475 -4.13872 0
359.868 -2.07511 0
358.73 0.139805 0
357.336 -1.92382 0
358.602 -1.99941 0
359.741 -4.2144 0
362.273 -4.36613 0
362.529 -0.0876854 0
359.996 0.0640905 0
361.007 -4.29021 0
362.401 -2.22686 0
361.263 -0.0117399 0
359.868 -2.07511 0
361.135 -2.15092 0
362.273 -4.36613 0
364.805 -4.51831 0
365.062 -0.239918 0
362.529 -0.0876854 0
363.539 -4.44216 0
364.934 -2.37906 0
363.796 -0.163745 0
362.401 -2.22686 0
363.668 -2.3029 0
364.805 -4.51831 0
367.338 -4.67093 0
367.595 -0.392598 0
365.062 -0.239918 0
366.072 -4.59456 0
367.467 -2.53172 0
366.329 -0.316202 0
364.934 -2.37906 0
366.2 -2.45534 0
367.338 -4.67093 0
369.87 -4.824 0
370.129 -0.545718 0
367.595 -0.392598 0
368.604 -4.74741 0
369.999 -2.68481 0
368.862 -0.469104 0
367.467 -2.53172 0
368.733 -2.60821 0
369.87 -4.824 0
372.403 -4.9775 0
372.662 -0.699269 0
370.129 -0.545718 0
371.136 -4.9007 0
372.532 -2.83834 0
371.395 -0.62244 0
369.999 -2.68481 0
371.266 -2.76152 0
372.403 -4.9775 0
374.935 -5.13143 0
375.195 -0.853242 0
372.662 -0.699269 0
373.669 -5.05441 0
375.065 -2.99229 0
373.928 -0.776203 0
372.532 -2.83834 0
373.798 -2.91526 0
374.935 -5.13143 0
377.467 -5.28576 0
377.728 -1.00763 0
375.195 -0.853242 0
376.201 -5.20854 0
377.597 -3.14665 0
376.461 -0.930385 0
375.065 -2.99229 0
376.331 -3.06942 0
377.467 -5.28576 0
380 -5.44051 0
380.261 -1.16242 0
377.728 -1.00763 0
378.733 -5.36309 0
380.13 -3.30142 0
378.994 -1.08498 0
377.597 -3.14665 0
378.864 -3.22399 0
380 -5.44051 0
382.532 -5.59565 0
382.794 -1.31761 0
380.261 -1.16242 0
381.266 -5.51803 0
382.663 -3.45659 0
381.527 -1.23997 0
380.13 -3.30142 0
381.396 -3.37896 0
382.532 -5.59565 0
385.064 -5.75118 0
385.327 -1.47319 0
382.794 -1.31761 0
383.798 -5.67337 0
385.195 -3.61215 0
384.06 -1.39536 0
382.663 -3.45659 0
383.929 -3.53432 0
385.064 -5.75118 0
387.597 -5.9071 0
387.86 -1.62915 0
385.327 -1.47319 0
386.33 -5.82909 0
387.728 -3.76809 0
386.593 -1.55113 0
385.195 -3.61215 0
386.462 -3.69007 0
387.597 -5.9071 0
390.129 -6.06338 0
390.393 -1.78549 0
387.86 -1.62915 0
388.863 -5.9852 0
390.261 -3.9244 0
389.126 -1.70727 0
387.728 -3.76809 0
388.994 -3.8462 0
390.129 -6.06338 0
392.661 -6.22004 0
392.926 -1.94218 0
390.393 -1.78549 0
391.395 -6.14166 0
392.793 -4.08107 0
391.659 -1.86379 0
390.261 -3.9244 0
391.527 -4.00269 0
392.661 -6.22004 0
395.193 -6.37704 0
395.458 -2.09923 0
392.926 -1.94218 0
393.927 -6.29849 0
395.326 -4.2381 0
394.192 -2.02066 0
392.793 -4.08107 0
394.06 -4.15954 0
395.193 -6.37704 0
397.726 -6.5344 0
397.991 -2.25663 0
395.458 -2.09923 0
396.46 -6.45568 0
397.859 -4.39548 0
396.725 -2.17789 0
395.326 -4.2381 0
396.592 -4.31675 0
397.726 -6.5344 0
400.258 -6.69209 0
400.524 -2.41436 0
397.991 -2.25663 0
398.992 -6.6132 0
400.391 -4.55319 0
399.258 -2.33545 0
397.859 -4.39548 0
399.125 -4.47429 0
400.258 -6.69209 0
402.79 -6.85011 0
403.057 -2.57243 0
400.524 -2.41436 0
401.524 -6.77106 0
402.924 -4.71124 0
401.791 -2.49336 0
400.391 -4.55319 0
401.658 -4.63217 0
402.79 -6.85011 0
405.323 -7.00846 0
405.59 -2.73081 0
403.057 -2.57243 0
404.057 -6.92925 0
405.456 -4.8696 0
404.324 -2.65158 0
402.924 -4.71124 0
404.19 -4.79038 0
405.323 -7.00846 0
407.855 -7.16712 0
408.123 -2.88951 0
405.59 -2.73081 0
406.589 -7.08775 0
407.989 -5.02828 0
406.856 -2.81013 0
405.456 -4.8696 0
406.723 -4.9489 0
407.855 -7.16712 0
410.387 -7.32608 0
410.656 -3.04852 0
408.123 -2.88951 0
409.121 -7.24656 0
410.522 -5.18727 0
409.389 -2.96898 0
407.989 -5.02828 0
409.255 -5.10774 0
410.387 -7.32608 0
412.92 -7.48534 0
413.188 -3.20782 0
410.656 -3.04852 0
411.654 -7.40568 0
413.054 -5.34655 0
411.922 -3.12813 0
410.522 -5.18727 0
411.788 -5.26687 0
412.92 -7.48534 0
415.452 -7.64489 0
415.721 -3.3674 0
413.188 -3.20782 0
414.186 -7.56508 0
415.587 -5.50612 0
414.455 -3.28757 0
413.054 -5.34655 0
414.32 -5.4263 0
415.452 -7.64489 0
417.984 -7.80472 0
418.254 -3.52727 0
415.721 -3.3674 0
416.718 -7.72477 0
418.119 -5.66597 0
416.988 -3.4473 0
415.587 -5.50612 0
416.853 -5.58601 0
417.984 -7.80472 0
420.517 -7.96482 0
420.787 -3.68741 0
418.254 -3.52727 0
419.251 -7.88474 0
420.652 -5.82609 0
419.52 -3.6073 0
418.119 -5.66597 0
419.386 -5.74599 0
420.517 -7.96482 0
423.049 -8.12519 0
423.32 -3.8478 0
420.787 -3.68741 0
421.783 -8.04497 0
423.184 -5.98647 0
422.053 -3.76757 0
420.652 -5.82609 0
421.918 -5.90625 0
423.049 -8.12519 0
425.582 -8.28581 0
425.852 -4.00846 0
423.32 -3.8478 0
424.315 -8.20547 0
425.717 -6.14711 0
424.586 -3.9281 0
423.184 -5.98647 0
424.451 -6.06676 0
425.582 -8.28581 0
428.114 -8.44667 0
428.385 -4.16935 0
425.852 -4.00846 0
426.848 -8.36621 0
428.25 -6.30799 0
427.119 -4.08888 0
425.717 -6.14711 0
426.983 -6.22752 0
428.114 -8.44667 0
430.646 -8.60777 0
430.918 -4.33049 0
428.385 -4.16935 0
429.38 -8.52719 0
430.782 -6.46911 0
429.652 -4.24989 0
428.25 -6.30799 0
429.516 -6.38852 0
430.646 -8.60777 0
433.179 -8.7691 0
433.451 -4.49185 0
430.918 -4.33049 0
431.912 -8.68841 0
433.315 -6.63046 0
432.184 -4.41114 0
430.782 -6.46911 0
432.048 -6.54975 0
433.179 -8.7691 0
435.711 -8.93066 0
435.983 -4.65343 0
433.451 -4.49185 0
434.445 -8.84985 0
435.847 -6.79202 0
434.717 -4.57262 0
433.315 -6.63046 0
434.581 -6.71121 0
435.711 -8.93066 0
438.243 -9.09242 0
438.516 -4.81523 0
435.983 -4.65343 0
436.977 -9.01151 0
438.38 -6.9538 0
437.25 -4.73431 0
435.847 -6.79202 0
437.114 -6.87289 0
438.243 -9.09242 0
440.776 -9.25439 0
441.049 -4.97723 0
438.516 -4.81523 0
439.51 -9.17338 0
440.912 -7.11579 0
439.783 -4.8962 0
438.38 -6.9538 0
439.646 -7.03477 0
440.776 -9.25439 0
443.308 -9.41656 0
443.582 -5.13942 0
441.049 -4.97723 0
442.042 -9.33545 0
443.445 -7.27797 0
442.315 -5.0583 0
440.912 -7.11579 0
442.179 -7.19685 0
443.308 -9.41656 0
445.841 -9.57891 0
446.114 -5.3018 0
443.582 -5.13942 0
444.574 -9.49771 0
445.978 -7.44033 0
444.848 -5.22058 0
443.445 -7.27797 0
444.711 -7.35913 0
445.841 -9.57891 0
448.373 -9.74144 0
448.647 -5.46435 0
446.114 -5.3018 0
447.107 -9.66015 0
448.51 -7.60288 0
447.381 -5.38305 0
445.978 -7.44033 0
447.244 -7.52158 0
448.373 -9.74144 0
450.905 -9.90414 0
451.18 -5.62708 0
448.647 -5.46435 0
449.639 -9.82277 0
451.043 -7.76559 0
449.913 -5.54569 0
448.51 -7.60288 0
449.776 -7.68421 0
450.905 -9.90414 0
453.438 -10.067 0
453.713 -5.78996 0
451.18 -5.62708 0
452.172 -9.98555 0
453.575 -7.92847 0
452.446 -5.7085 0
451.043 -7.76559 0
452.309 -7.84701 0
453.438 -10.067 0
455.97 -10.23 0
456.245 -5.953 0
453.713 -5.78996 0
454.704 -10.1485 0
456.108 -8.09149 0
454.979 -5.87146 0
453.575 -7.92847 0
454.842 -8.00996 0
455.97 -10.23 0
458.503 -10.3932 0
458.778 -6.11618 0
456.245 -5.953 0
457.237 -10.3116 0
458.64 -8.25467 0
457.512 -6.03458 0
456.108 -8.09149 0
457.374 -8.17306 0
458.503 -10.3932 0
461.035 -10.5565 0
461.311 -6.2795 0
458.778 -6.11618 0
459.769 -10.4748 0
461.173 -8.41797 0
460.044 -6.19783 0
458.64 -8.25467 0
459.907 -8.3363 0
461.035 -10.5565 0
463.568 -10.7199 0
463.843 -6.44295 0
461.311 -6.2795 0
462.302 -10.6382 0
463.706 -8.58141 0
462.577 -6.36121 0
461.173 -8.41797 0
462.439 -8.49968 0
463.568 -10.7199 0
466.1 -10.8834 0
466.376 -6.60651 0
463.843 -6.44295 0
464.834 -10.8017 0
466.238 -8.74496 0
465.11 -6.52472 0
463.706 -8.58141 0
464.972 -8.66317 0
466.1 -10.8834 0
468.633 -11.0471 0
468.909 -6.77019 0
466.376 -6.60651 0
467.367 -10.9653 0
468.771 -8.90863 0
467.642 -6.68834 0
466.238 -8.74496 0
467.505 -8.82678 0
468.633 -11.0471 0
471.165 -11.2109 0
471.441 -6.93396 0
468.909 -6.77019 0
469.899 -11.129 0
471.303 -9.0724 0
470.175 -6.85206 0
468.771 -8.90863 0
470.037 -8.9905 0
471.165 -11.2109 0
473.698 -11.3747 0
473.974 -7.09783 0
471.441 -6.93396 0
472.432 -11.2928 0
473.836 -9.23626 0
472.708 -7.01589 0
471.303 -9.0724 0
472.57 -9.15432 0
473.698 -11.3747 0
476.231 -11.5386 0
476.507 -7.26179 0
473.974 -7.09783 0
474.964 -11.4567 0
476.369 -9.40021 0
475.241 -7.1798 0
473.836 -9.23626 0
475.102 -9.31822 0
476.231 -11.5386 0
478.763 -11.7027 0
479.04 -7.42582 0
476.507 -7.26179 0
477.497 -11.6206 0
478.901 -9.56423 0
477.773 -7.34379 0
476.369 -9.40021 0
477.635 -9.48221 0
478.763 -11.7027 0
481.296 -11.8667 0
481.572 -7.58992 0
479.04 -7.42582 0
480.029 -11.7847 0
481.434 -9.72833 0
480.306 -7.50786 0
478.901 -9.56423 0
480.168 -9.64627 0
481.296 -11.8667 0
483.828 -12.0309 0
484.105 -7.75409 0
481.572 -7.58992 0
482.562 -11.9488 0
483.967 -9.89249 0
482.839 -7.672 0
481.434 -9.72833 0
482.7 -9.8104 0
483.828 -12.0309 0
486.361 -12.1951 0
486.638 -7.91831 0
484.105 -7.75409 0
485.095 -12.113 0
486.499 -10.0567 0
485.371 -7.83619 0
483.967 -9.89249 0
485.233 -9.97459 0
486.361 -12.1951 0
488.894 -12.3593 0
489.171 -8.08257 0
486.638 -7.91831 0
487.627 -12.2772 0
489.032 -10.221 0
487.904 -8.00043 0
486.499 -10.0567 0
487.766 -10.1388 0
488.894 -12.3593 0
491.426 -12.5236 0
491.703 -8.24685 0
489.171 -8.08257 0
490.16 -12.4415 0
491.565 -10.3852 0
490.437 -8.16471 0
489.032 -10.221 0
490.299 -10.3031 0
491.426 -12.5236 0
493.959 -12.688 0
494.236 -8.41115 0
491.703 -8.24685 0
492.693 -12.6058 0
494.098 -10.5495 0
492.97 -8.329 0
491.565 -10.3852 0
492.831 -10.4674 0
493.959 -12.688 0
496.492 -12.8523 0
496.769 -8.5754 0
494.236 -8.41115 0
495.226 -12.7701 0
496.63 -10.7138 0
495.502 -8.49328 0
494.098 -10.5495 0
495.364 -10.6317 0
496.492 -12.8523 0
499.025 -13.0165 0
499.301 -8.73957 0
496.769 -8.5754 0
497.758 -12.9344 0
499.163 -10.878 0
498.035 -8.6575 0
496.63 -10.7138 0
497.897 -10.7959 0
0 12.8571 0
2.53683 12.8573 0
2.53928 17.1431 0
0 17.1429 0
1.26842 12.8575 0
2.53805 15.0003 0
1.26964 17.1433 0
0 15 0
1.26903 15.0004 0
2.53683 12.8573 0
5.07355 12.8553 0
5.07866 17.141 0
2.53928 17.1431 0
3.8052 12.8566 0
5.07611 14.9982 0
3.80896 17.1423 0
2.53805 15.0003 0
3.80708 14.9995 0
5.07355 12.8553 0
7.61023 12.8512 0
7.61809 17.1369 0
5.07866 17.141 0
6.3419 12.8535 0
7.61416 14.9942 0
6.34837 17.1392 0
5.07611 14.9982 0
6.34513 14.9964 0
7.61023 12.8512 0
10.1469 12.8453 0
10.1575 17.131 0
7.61809 17.1369 0
8.87856 12.8484 0
10.1522 14.9883 0
8.88781 17.1341 0
7.61416 14.9942 0
8.88319 14.9915 0
10.1469 12.8453 0
12.6835 12.8377 0
12.697 17.1233 0
10.1575 17.131 0
11.4152 12.8417 0
12.6903 14.9807 0
11.4273 17.1274 0
10.1522 14.9883 0
11.4212 14.9847 0
12.6835 12.8377 0
15.2202 12.8284 0
15.2364 17.1141 0
12.697 17.1233 0
13.9518 12.8332 0
15.2283 14.9714 0
13.9667 17.1189 0
12.6903 14.9807 0
13.9593 14.9763 0
15.2202 12.8284 0
17.7568 12.8175 0
17.7758 17.1032 0
15.2364 17.1141 0
16.4885 12.8232 0
17.7663 14.9605 0
16.5061 17.1088 0
15.2283 14.9714 0
16.4973 14.9662 0
17.7568 12.8175 0
20.2935 12.805 0
20.3152 17.0907 0
17.7758 17.1032 0
19.0252 12.8115 0
20.3044 14.948 0
19.0455 17.0971 0
17.7663 14.9605 0
19.0354 14.9545 0
20.2935 12.805 0
22.8302 12.791 0
22.8546 17.0766 0
20.3152 17.0907 0
21.5618 12.7982 0
22.8424 14.9339 0
21.5849 17.0838 0
20.3044 14.948 0
21.5734 14.9412 0
22.8302 12.791 0
25.3668 12.7753 0
25.394 17.0609 0
22.8546 17.0766 0
24.0985 12.7833 0
25.3804 14.9183 0
24.1243 17.0689 0
22.8424 14.9339 0
24.1114 14.9263 0
25.3668 12.7753 0
27.9035 12.758 0
27.9333 17.0436 0
25.394 17.0609 0
26.6352 12.7669 0
27.9184 14.901 0
26.6636 17.0525 0
25.3804 14.9183 0
26.6494 14.9098 0
27.9035 12.758 0
30.4402 12.7392 0
30.4726 17.0248 0
27.9333 17.0436 0
29.1718 12.7488 0
30.4564 14.8822 0
29.203 17.0344 0
27.9184 14.901 0
29.1874 14.8918 0
30.4402 12.7392 0
32.9768 12.7188 0
33.0119 17.0044 0
30.4726 17.0248 0
31.7085 12.7292 0
32.9944 14.8618 0
31.7423 17.0148 0
30.4564 14.8822 0
31.7254 14.8722 0
32.9768 12.7188 0
35.5135 12.6969 0
35.5512 16.9824 0
33.0119 17.0044 0
34.2451 12.7081 0
35.5323 14.8398 0
34.2816 16.9936 0
32.9944 14.8618 0
34.2634 14.851 0
35.5135 12.6969 0
38.0501 12.6734 0
38.0905 16.9589 0
35.5512 16.9824 0
36.7818 12.6854 0
38.0703 14.8163 0
36.8208 16.9709 0
35.5323 14.8398 0
36.8013 14.8283 0
38.0501 12.6734 0
40.5868 12.6484 0
40.6297 16.9339 0
38.0905 16.9589 0
39.3184 12.6611 0
40.6082 14.7913 0
39.3601 16.9466 0
38.0703 14.8163 0
39.3393 14.804 0
40.5868 12.6484 0
43.1234 12.6218 0
43.1689 16.9073 0
40.6297 16.9339 0
41.8551 12.6353 0
43.1461 14.7647 0
41.8993 16.9208 0
40.6082 14.7913 0
41.8772 14.7782 0
43.1234 12.6218 0
45.66 12.5937 0
45.7081 16.8792 0
43.1689 16.9073 0
44.3917 12.608 0
45.684 14.7366 0
44.4385 16.8934 0
43.1461 14.7647 0
44.4151 14.7509 0
45.66 12.5937 0
48.1966 12.5641 0
48.2473 16.8495 0
45.7081 16.8792 0
46.9283 12.5791 0
48.2219 14.707 0
46.9777 16.8645 0
45.684 14.7366 0
46.953 14.722 0
48.1966 12.5641 0
50.7332 12.533 0
50.7864 16.8184 0
48.2473 16.8495 0
49.4649 12.5488 0
50.7598 14.6759 0
49.5168 16.8342 0
48.2219 14.707 0
49.4909 14.6916 0
50.7332 12.533 0
53.2698 12.5004 0
53.3255 16.7858 0
50.7864 16.8184 0
52.0015 12.5169 0
53.2977 14.6433 0
52.056 16.8023 0
50.7598 14.6759 0
52.0287 14.6598 0
53.2698 12.5004 0
55.8064 12.4663 0
55.8646 16.7516 0
53.3255 16.7858 0
54.5381 12.4836 0
55.8355 14.6091 0
54.5951 16.7689 0
53.2977 14.6433 0
54.5666 14.6264 0
55.8064 12.4663 0
58.343 12.4308 0
58.4037 16.716 0
55.8646 16.7516 0
57.0747 12.4487 0
58.3733 14.5736 0
57.1341 16.734 0
55.8355 14.6091 0
57.1044 14.5915 0
58.343 12.4308 0
60.8795 12.3937 0
60.9427 16.6789 0
58.4037 16.716 0
59.6112 12.4124 0
60.9111 14.5365 0
59.6732 16.6977 0
58.3733 14.5736 0
59.6422 14.5552 0
60.8795 12.3937 0
63.416 12.3552 0
63.4817 16.6404 0
60.9427 16.6789 0
62.1478 12.3746 0
63.4489 14.498 0
62.2122 16.6599 0
60.9111 14.5365 0
62.18 14.5174 0
63.416 12.3552 0
65.9526 12.3152 0
66.0207 16.6004 0
63.4817 16.6404 0
64.6843 12.3354 0
65.9866 14.458 0
64.7512 16.6206 0
63.4489 14.498 0
64.7177 14.4781 0
65.9526 12.3152 0
68.4891 12.2738 0
68.5596 16.5589 0
66.0207 16.6004 0
67.2208 12.2947 0
68.5243 14.4165 0
67.2901 16.5799 0
65.9866 14.458 0
67.2555 14.4374 0
68.4891 12.2738 0
71.0256 12.231 0
71.0985 16.5161 0
68.5596 16.5589 0
69.7573 12.2526 0
71.062 14.3737 0
69.8291 16.5377 0
68.5243 14.4165 0
69.7932 14.3953 0
71.0256 12.231 0
73.562 12.1867 0
73.6374 16.4717 0
71.0985 16.5161 0
72.2938 12.209 0
73.5997 14.3294 0
72.368 16.4941 0
71.062 14.3737 0
72.3309 14.3517 0
73.562 12.1867 0
76.0985 12.141 0
76.1762 16.426 0
73.6374 16.4717 0
74.8303 12.164 0
76.1374 14.2836 0
74.9068 16.449 0
73.5997 14.3294 0
74.8685 14.3067 0
76.0985 12.141 0
78.6349 12.0939 0
78.7151 16.3788 0
76.1762 16.426 0
77.3667 12.1176 0
78.675 14.2365 0
77.4457 16.4026 0
76.1374 14.2836 0
77.4062 14.2602 0
78.6349 12.0939 0
81.1713 12.0454 0
81.2538 16.3303 0
78.7151 16.3788 0
79.9031 12.0698 0
81.2126 14.188 0
79.9845 16.3547 0
78.675 14.2365 0
79.9438 14.2124 0
81.1713 12.0454 0
83.7077 11.9954 0
83.7926 16.2803 0
81.2538 16.3303 0
82.4395 12.0206 0
83.7502 14.138 0
82.5232 16.3055 0
81.2126 14.188 0
82.4814 14.1632 0
83.7077 11.9954 0
86.2441 11.9441 0
86.3313 16.2289 0
83.7926 16.2803 0
84.9759 11.97 0
86.2877 14.0867 0
85.0619 16.2548 0
83.7502 14.138 0
85.0189 14.1125 0
86.2441 11.9441 0
88.7805 11.8914 0
88.87 16.1762 0
86.3313 16.2289 0
87.5123 11.918 0
88.8252 14.034 0
87.6006 16.2028 0
86.2877 14.0867 0
87.5565 14.0605 0
88.7805 11.8914 0
91.3168 11.8374 0
91.4086 16.1221 0
88.87 16.1762 0
90.0486 11.8646 0
91.3627 13.9799 0
90.1393 16.1493 0
88.8252 14.034 0
90.094 14.0071 0
91.3168 11.8374 0
93.8531 11.782 0
93.9472 16.0666 0
91.4086 16.1221 0
92.585 11.8099 0
93.9002 13.9245 0
92.6779 16.0945 0
91.3627 13.9799 0
92.6314 13.9523 0
93.8531 11.782 0
96.3894 11.7252 0
96.4858 16.0098 0
93.9472 16.0666 0
95.1213 11.7538 0
96.4376 13.8677 0
95.2165 16.0384 0
93.9002 13.9245 0
95.1689 13.8962 0
96.3894 11.7252 0
98.9257 11.6671 0
99.0243 15.9517 0
96.4858 16.0098 0
97.6575 11.6963 0
98.975 13.8095 0
97.7551 15.9809 0
96.4376 13.8677 0
97.7063 13.8388 0
98.9257 11.6671 0
101.462 11.6076 0
101.563 15.8921 0
99.0243 15.9517 0
100.194 11.6375 0
101.512 13.75 0
100.294 15.9221 0
98.975 13.8095 0
100.244 13.7799 0
101.462 11.6076 0
103.998 11.5469 0
104.101 15.8313 0
101.563 15.8921 0
102.73 11.5774 0
104.05 13.6892 0
102.832 15.8619 0
101.512 13.75 0
102.781 13.7198 0
103.998 11.5469 0
106.534 11.4848 0
106.64 15.7692 0
104.101 15.8313 0
105.266 11.516 0
106.587 13.6271 0
105.37 15.8004 0
104.05 13.6892 0
105.318 13.6583 0
106.534 11.4848 0
109.07 11.4213 0
109.178 15.7057 0
106.64 15.7692 0
107.802 11.4532 0
109.124 13.5637 0
107.909 15.7376 0
106.587 13.6271 0
107.856 13.5955 0
109.07 11.4213 0
111.607 11.3566 0
111.716 15.6409 0
109.178 15.7057 0
110.339 11.3891 0
111.662 13.4989 0
110.447 15.6735 0
109.124 13.5637 0
110.393 13.5314 0
111.607 11.3566 0
114.143 11.2906 0
114.255 15.5749 0
111.716 15.6409 0
112.875 11.3238 0
114.199 13.4329 0
112.986 15.608 0
111.662 13.4989 0
112.93 13.4661 0
114.143 11.2906 0
116.679 11.2233 0
116.793 15.5075 0
114.255 15.5749 0
115.411 11.2571 0
116.736 13.3655 0
115.524 15.5413 0
114.199 13.4329 0
115.467 13.3994 0
116.679 11.2233 0
119.215 11.1547 0
119.331 15.4389 0
116.793 15.5075 0
117.947 11.1892 0
119.273 13.2969 0
118.062 15.4733 0
116.736 13.3655 0
118.004 13.3314 0
119.215 11.1547 0
121.751 11.0849 0
121.869 15.369 0
119.331 15.4389 0
120.483 11.12 0
121.81 13.2271 0
120.6 15.4041 0
119.273 13.2969 0
120.542 13.2622 0
121.751 11.0849 0
124.287 11.0138 0
124.407 15.2978 0
121.869 15.369 0
123.019 11.0495 0
124.347 13.1559 0
123.138 15.3335 0
121.81 13.2271 0
123.079 13.1917 0
124.287 11.0138 0
126.823 10.9414 0
126.946 15.2254 0
124.407 15.2978 0
125.555 10.9778 0
126.884 13.0835 0
125.677 15.2618 0
124.347 13.1559 0
125.616 13.1199 0
126.823 10.9414 0
129.359 10.8678 0
129.484 15.1517 0
126.946 15.2254 0
128.091 10.9048 0
129.421 13.0099 0
128.215 15.1887 0
126.884 13.0835 0
128.153 13.0469 0
129.359 10.8678 0
131.895 10.793 0
132.022 15.0768 0
129.484 15.1517 0
130.627 10.8306 0
131.958 12.9351 0
130.753 15.1144 0
129.421 13.0099 0
130.69 12.9726 0
131.895 10.793 0
134.431 10.717 0
134.56 15.0007 0
132.022 15.0768 0
133.163 10.7551 0
134.495 12.859 0
133.291 15.0389 0
131.958 12.9351 0
133.227 12.8972 0
134.431 10.717 0
136.967 10.6397 0
137.097 14.9234 0
134.56 15.0007 0
135.699 10.6785 0
137.032 12.7817 0
135.829 14.9622 0
134.495 12.859 0
135.764 12.8205 0
136.967 10.6397 0
139.502 10.5612 0
139.635 14.8448 0
137.097 14.9234 0
138.234 10.6006 0
139.569 12.7031 0
138.366 14.8842 0
137.032 12.7817 0
138.3 12.7425 0
139.502 10.5612 0
142.038 10.4815 0
142.173 14.7651 0
139.635 14.8448 0
140.77 10.5215 0
142.106 12.6234 0
140.904 14.8051 0
139.569 12.7031 0
140.837 12.6634 0
142.038 10.4815 0
144.574 10.4006 0
144.711 14.6841 0
142.173 14.7651 0
143.306 10.4412 0
144.642 12.5425 0
143.442 14.7247 0
142.106 12.6234 0
143.374 12.5831 0
144.574 10.4006 0
147.11 10.3185 0
147.249 14.602 0
144.711 14.6841 0
145.842 10.3597 0
147.179 12.4604 0
145.98 14.6432 0
144.642 12.5425 0
145.911 12.5016 0
147.11 10.3185 0
149.645 10.2353 0
149.786 14.5187 0
147.249 14.602 0
148.378 10.2771 0
149.716 12.3771 0
148.518 14.5605 0
147.179 12.4604 0
148.448 12.4189 0
149.645 10.2353 0
152.181 10.1509 0
152.324 14.4342 0
149.786 14.5187 0
150.913 10.1932 0
152.253 12.2927 0
151.055 14.4766 0
149.716 12.3771 0
150.984 12.335 0
152.181 10.1509 0
154.717 10.0653 0
154.862 14.3486 0
152.324 14.4342 0
153.449 10.1083 0
154.789 12.2071 0
153.593 14.3915 0
152.253 12.2927 0
153.521 12.25 0
154.717 10.0653 0
157.252 9.9786 0
157.399 14.2618 0
154.862 14.3486 0
155.985 10.0221 0
157.326 12.1203 0
156.13 14.3053 0
154.789 12.2071 0
156.057 12.1638 0
157.252 9.9786 0
159.788 9.89074 0
159.937 14.1739 0
157.399 14.2618 0
158.52 9.93482 0
159.862 12.0324 0
158.668 14.218 0
157.326 12.1203 0
158.594 12.0765 0
159.788 9.89074 0
162.324 9.80175 0
162.474 14.0848 0
159.937 14.1739 0
161.056 9.84639 0
162.399 11.9434 0
161.205 14.1295 0
159.862 12.0324 0
161.131 11.9881 0
162.324 9.80175 0
164.859 9.71163 0
165.012 13.9946 0
162.474 14.0848 0
163.591 9.75683 0
164.935 11.8532 0
163.743 14.0399 0
162.399 11.9434 0
163.667 11.8985 0
164.859 9.71163 0
167.395 9.6204 0
167.549 13.9033 0
165.012 13.9946 0
166.127 9.66615 0
167.472 11.762 0
166.28 13.9491 0
164.935 11.8532 0
166.204 11.8077 0
167.395 9.6204 0
169.93 9.52805 0
170.086 13.8109 0
167.549 13.9033 0
168.662 9.57436 0
170.008 11.6696 0
168.818 13.8572 0
167.472 11.762 0
168.74 11.7159 0
169.93 9.52805 0
172.465 9.43461 0
172.624 13.7174 0
170.086 13.8109 0
171.198 9.48147 0
172.544 11.5761 0
171.355 13.7643 0
170.008 11.6696 0
171.276 11.623 0
172.465 9.43461 0
175.001 9.34008 0
175.161 13.6228 0
172.624 13.7174 0
173.733 9.38748 0
175.081 11.4815 0
173.892 13.6702 0
172.544 11.5761 0
173.813 11.529 0
175.001 9.34008 0
177.536 9.24446 0
177.698 13.5271 0
175.161 13.6228 0
176.268 9.2924 0
177.617 11.3859 0
176.429 13.5751 0
175.081 11.4815 0
176.349 11.4339 0
177.536 9.24446 0
180.071 9.14777 0
180.235 13.4303 0
177.698 13.5271 0
178.804 9.19625 0
180.153 11.2892 0
178.966 13.4789 0
177.617 11.3859 0
178.885 11.3377 0
180.071 9.14777 0
182.607 9.05001 0
182.772 13.3325 0
180.235 13.4303 0
181.339 9.09902 0
182.689 11.1914 0
181.504 13.3816 0
180.153 11.2892 0
181.421 11.2404 0
182.607 9.05001 0
185.142 8.9512 0
185.309 13.2336 0
182.772 13.3325 0
183.874 9.00074 0
185.226 11.0925 0
184.041 13.2832 0
182.689 11.1914 0
183.958 11.1421 0
185.142 8.9512 0
187.677 8.85134 0
187.846 13.1337 0
185.309 13.2336 0
186.41 8.9014 0
187.762 10.9926 0
186.578 13.1838 0
185.226 11.0925 0
186.494 11.0427 0
187.677 8.85134 0
190.212 8.75043 0
190.383 13.0327 0
187.846 13.1337 0
188.945 8.80102 0
190.298 10.8917 0
189.115 13.0834 0
187.762 10.9926 0
189.03 10.9423 0
190.212 8.75043 0
192.748 8.6485 0
192.92 12.9307 0
190.383 13.0327 0
191.48 8.6996 0
192.834 10.7897 0
191.652 12.9819 0
190.298 10.8917 0
191.566 10.8408 0
192.748 8.6485 0
195.283 8.54554 0
195.457 12.8277 0
192.92 12.9307 0
194.015 8.59715 0
195.37 10.6867 0
194.188 12.8794 0
192.834 10.7897 0
194.102 10.7384 0
195.283 8.54554 0
197.818 8.44157 0
197.994 12.7237 0
195.457 12.8277 0
196.55 8.49368 0
197.906 10.5827 0
196.725 12.7758 0
195.37 10.6867 0
196.638 10.6349 0
197.818 8.44157 0
200.353 8.33659 0
200.53 12.6186 0
197.994 12.7237 0
199.085 8.38921 0
200.442 10.4777 0
199.262 12.6713 0
197.906 10.5827 0
199.174 10.5303 0
200.353 8.33659 0
202.888 8.23062 0
203.067 12.5126 0
200.53 12.6186 0
201.62 8.28373 0
202.977 10.3717 0
201.799 12.5657 0
200.442 10.4777 0
201.71 10.4248 0
202.888 8.23062 0
205.423 8.12365 0
205.604 12.4055 0
203.067 12.5126 0
204.155 8.17726 0
205.513 10.2647 0
204.335 12.4592 0
202.977 10.3717 0
204.245 10.3183 0
205.423 8.12365 0
207.958 8.01571 0
208.14 12.2975 0
205.604 12.4055 0
206.69 8.0698 0
208.049 10.1567 0
206.872 12.3517 0
205.513 10.2647 0
206.781 10.2108 0
207.958 8.01571 0
210.493 7.90679 0
210.677 12.1885 0
208.14 12.2975 0
209.225 7.96137 0
210.585 10.0478 0
209.409 12.2432 0
208.049 10.1567 0
209.317 10.1024 0
210.493 7.90679 0
213.028 7.79691 0
213.213 12.0786 0
210.677 12.1885 0
211.76 7.85197 0
213.12 9.93785 0
211.945 12.1337 0
210.585 10.0478 0
211.853 9.99293 0
213.028 7.79691 0
215.562 7.68607 0
215.75 11.9677 0
213.213 12.0786 0
214.295 7.74161 0
215.656 9.82697 0
214.482 12.0232 0
213.12 9.93785 0
214.388 9.88253 0
215.562 7.68607 0
218.097 7.57428 0
218.286 11.8558 0
215.75 11.9677 0
216.83 7.63029 0
218.192 9.71515 0
217.018 11.9119 0
215.656 9.82697 0
216.924 9.77118 0
218.097 7.57428 0
220.632 7.46156 0
220.823 11.743 0
218.286 11.8558 0
219.365 7.51804 0
220.727 9.60239 0
219.554 11.7995 0
218.192 9.71515 0
219.459 9.65889 0
220.632 7.46156 0
223.167 7.34791 0
223.359 11.6293 0
220.823 11.743 0
221.899 7.40485 0
223.263 9.4887 0
222.091 11.6863 0
220.727 9.60239 0
221.995 9.54566 0
223.167 7.34791 0
225.701 7.23333 0
225.895 11.5147 0
223.359 11.6293 0
224.434 7.29073 0
225.798 9.37409 0
224.627 11.5721 0
223.263 9.4887 0
224.531 9.43151 0
225.701 7.23333 0
228.236 7.11784 0
228.431 11.3991 0
225.895 11.5147 0
226.969 7.1757 0
228.334 9.25857 0
227.163 11.457 0
225.798 9.37409 0
227.066 9.31645 0
228.236 7.11784 0
230.771 7.00145 0
230.967 11.2826 0
228.431 11.3991 0
229.503 7.05976 0
230.869 9.14214 0
229.699 11.341 0
228.334 9.25857 0
229.601 9.20047 0
230.771 7.00145 0
233.305 6.88416 0
233.504 11.1653 0
230.967 11.2826 0
232.038 6.94292 0
233.404 9.02482 0
232.236 11.2241 0
230.869 9.14214 0
232.137 9.08359 0
233.305 6.88416 0
235.84 6.76599 0
236.04 11.047 0
233.504 11.1653 0
234.573 6.82518 0
235.94 8.9066 0
234.772 11.1063 0
233.404 9.02482 0
234.672 8.96582 0
235.84 6.76599 0
238.374 6.64693 0
238.576 10.9279 0
236.04 11.047 0
237.107 6.70657 0
238.475 8.78751 0
237.308 10.9876 0
235.94 8.9066 0
237.207 8.84717 0
238.374 6.64693 0
240.909 6.527 0
241.112 10.8079 0
238.576 10.9279 0
239.642 6.58707 0
241.01 8.66755 0
239.844 10.868 0
238.475 8.78751 0
239.743 8.72764 0
240.909 6.527 0
243.443 6.40621 0
243.648 10.6871 0
241.112 10.8079 0
242.176 6.46672 0
243.545 8.54673 0
242.38 10.7476 0
241.01 8.66755 0
242.278 8.60725 0
243.443 6.40621 0
245.978 6.28457 0
246.183 10.5653 0
243.648 10.6871 0
244.711 6.3455 0
246.081 8.42505 0
244.915 10.6263 0
243.545 8.54673 0
244.813 8.48599 0
245.978 6.28457 0
248.512 6.16208 0
248.719 10.4428 0
246.183 10.5653 0
247.245 6.22343 0
248.616 8.30253 0
247.451 10.5042 0
246.081 8.42505 0
247.348 8.36389 0
248.512 6.16208 0
251.047 6.03876 0
251.255 10.3194 0
248.719 10.4428 0
249.779 6.10052 0
251.151 8.17917 0
249.987 10.3812 0
248.616 8.30253 0
249.883 8.24095 0
251.047 6.03876 0
253.581 5.9146 0
253.791 10.1952 0
251.255 10.3194 0
252.314 5.97678 0
253.686 8.05498 0
252.523 10.2574 0
251.151 8.17917 0
252.418 8.11717 0
253.581 5.9146 0
256.115 5.78963 0
256.326 10.0701 0
253.791 10.1952 0
254.848 5.85222 0
256.221 7.92997 0
255.059 10.1328 0
253.686 8.05498 0
254.953 7.99257 0
256.115 5.78963 0
258.65 5.66385 0
258.862 9.94428 0
256.326 10.0701 0
257.382 5.72684 0
258.756 7.80415 0
257.594 10.0073 0
256.221 7.92997 0
257.488 7.86716 0
258.65 5.66385 0
261.184 5.53726 0
261.398 9.81763 0
258.862 9.94428 0
259.917 5.60065 0
261.291 7.67753 0
260.13 9.88105 0
258.756 7.80415 0
260.023 7.74094 0
261.184 5.53726 0
263.718 5.40987 0
263.933 9.69018 0
261.398 9.81763 0
262.451 5.47366 0
263.826 7.55011 0
262.665 9.754 0
261.291 7.67753 0
262.558 7.61392 0
263.718 5.40987 0
266.252 5.28171 0
266.469 9.56194 0
263.933 9.69018 0
264.985 5.34589 0
266.36 7.42191 0
265.201 9.62616 0
263.826 7.55011 0
265.093 7.48611 0
266.252 5.28171 0
268.786 5.15276 0
269.004 9.43293 0
266.469 9.56194 0
267.519 5.21733 0
268.895 7.29293 0
267.736 9.49753 0
266.36 7.42191 0
267.628 7.35751 0
268.786 5.15276 0
271.32 5.02304 0
271.54 9.30315 0
269.004 9.43293 0
270.053 5.088 0
271.43 7.16318 0
270.272 9.36813 0
268.895 7.29293 0
270.163 7.22815 0
271.32 5.02304 0
273.855 4.89257 0
274.075 9.1726 0
271.54 9.30315 0
272.587 4.9579 0
273.965 7.03267 0
272.807 9.23797 0
271.43 7.16318 0
272.697 7.09802 0
273.855 4.89257 0
276.389 4.76134 0
276.61 9.04131 0
274.075 9.1726 0
275.122 4.82705 0
276.499 6.9014 0
275.343 9.10705 0
273.965 7.03267 0
275.232 6.96713 0
276.389 4.76134 0
278.923 4.62936 0
279.145 8.90927 0
276.61 9.04131 0
277.656 4.69544 0
279.034 6.7694 0
277.878 8.97538 0
276.499 6.9014 0
277.767 6.83549 0
278.923 4.62936 0
281.457 4.49666 0
281.681 8.7765 0
279.145 8.90927 0
280.19 4.5631 0
281.569 6.63666 0
280.413 8.84298 0
279.034 6.7694 0
280.301 6.70312 0
281.457 4.49666 0
283.99 4.36322 0
284.216 8.643 0
281.681 8.7765 0
282.724 4.43003 0
284.103 6.50319 0
282.948 8.70984 0
281.569 6.63666 0
282.836 6.57001 0
283.99 4.36322 0
286.524 4.22907 0
286.751 8.50878 0
284.216 8.643 0
285.257 4.29623 0
286.638 6.369 0
285.483 8.57598 0
284.103 6.50319 0
285.37 6.43618 0
286.524 4.22907 0
289.058 4.0942 0
289.286 8.37386 0
286.751 8.50878 0
287.791 4.16172 0
289.172 6.23411 0
288.019 8.44141 0
286.638 6.369 0
287.905 6.30164 0
289.058 4.0942 0
291.592 3.95864 0
291.821 8.23823 0
289.286 8.37386 0
290.325 4.02651 0
291.707 6.09851 0
290.554 8.30613 0
289.172 6.23411 0
290.439 6.16639 0
291.592 3.95864 0
294.126 3.82238 0
294.356 8.10191 0
291.821 8.23823 0
292.859 3.8906 0
294.241 5.96222 0
293.089 8.17015 0
291.707 6.09851 0
292.974 6.03045 0
294.126 3.82238 0
296.66 3.68544 0
296.891 7.9649 0
294.356 8.10191 0
295.393 3.75399 0
296.775 5.82524 0
295.624 8.03349 0
294.241 5.96222 0
295.508 5.89382 0
296.66 3.68544 0
299.194 3.54782 0
299.426 7.82722 0
296.891 7.9649 0
297.927 3.61671 0
299.31 5.68759 0
298.158 7.89615 0
296.775 5.82524 0
298.043 5.7565 0
299.194 3.54782 0
301.727 3.40953 0
301.961 7.68888 0
299.426 7.82722 0
300.46 3.47876 0
301.844 5.54927 0
300.693 7.75813 0
299.31 5.68759 0
300.577 5.61852 0
301.727 3.40953 0
304.261 3.27059 0
304.496 7.54987 0
301.961 7.68888 0
302.994 3.34014 0
304.378 5.4103 0
303.228 7.61945 0
301.844 5.54927 0
303.111 5.47987 0
304.261 3.27059 0
306.795 3.13099 0
307.03 7.41021 0
304.496 7.54987 0
305.528 3.20087 0
306.913 5.27067 0
305.763 7.48012 0
304.378 5.4103 0
305.645 5.34056 0
306.795 3.13099 0
309.328 2.99075 0
309.565 7.26991 0
307.03 7.41021 0
308.062 3.06095 0
309.447 5.1304 0
308.298 7.34014 0
306.913 5.27067 0
308.18 5.20061 0
309.328 2.99075 0
311.862 2.84988 0
312.1 7.12898 0
309.565 7.26991 0
310.595 2.92039 0
311.981 4.9895 0
310.832 7.19953 0
309.447 5.1304 0
310.714 5.06003 0
311.862 2.84988 0
314.396 2.70838 0
314.634 6.98742 0
312.1 7.12898 0
313.129 2.7792 0
314.515 4.84797 0
313.367 7.05828 0
311.981 4.9895 0
313.248 4.91881 0
314.396 2.70838 0
316.929 2.56626 0
317.169 6.84525 0
314.634 6.98742 0
315.662 2.6374 0
317.049 4.70582 0
315.902 6.91641 0
314.515 4.84797 0
315.782 4.77697 0
316.929 2.56626 0
319.463 2.42354 0
319.704 6.70247 0
317.169 6.84525 0
318.196 2.49498 0
319.583 4.56307 0
318.436 6.77394 0
317.049 4.70582 0
318.316 4.63452 0
319.463 2.42354 0
321.996 2.28021 0
322.238 6.55909 0
319.704 6.70247 0
320.729 2.35195 0
322.117 4.41972 0
320.971 6.63085 0
319.583 4.56307 0
320.85 4.49147 0
321.996 2.28021 0
324.53 2.1363 0
324.773 6.41512 0
322.238 6.55909 0
323.263 2.20833 0
324.651 4.27577 0
323.505 6.48718 0
322.117 4.41972 0
323.384 4.34782 0
324.53 2.1363 0
327.063 1.9918 0
327.307 6.27056 0
324.773 6.41512 0
325.796 2.06412 0
327.185 4.13124 0
326.04 6.34291 0
324.651 4.27577 0
325.918 4.20358 0
327.063 1.9918 0
329.597 1.84673 0
329.842 6.12543 0
327.307 6.27056 0
328.33 1.91933 0
329.719 3.98614 0
328.574 6.19807 0
327.185 4.13124 0
328.452 4.05876 0
329.597 1.84673 0
332.13 1.70109 0
332.376 5.97974 0
329.842 6.12543 0
330.863 1.77398 0
332.253 3.84047 0
331.109 6.05266 0
329.719 3.98614 0
330.986 3.91338 0
332.13 1.70109 0
334.663 1.55489 0
334.91 5.83349 0
332.376 5.97974 0
333.397 1.62806 0
334.787 3.69425 0
333.643 5.90668 0
332.253 3.84047 0
333.52 3.76743 0
334.663 1.55489 0
337.197 1.40814 0
337.444 5.68669 0
334.91 5.83349 0
335.93 1.48158 0
337.321 3.54747 0
336.177 5.76016 0
334.787 3.69425 0
336.054 3.62093 0
337.197 1.40814 0
339.73 1.26085 0
339.979 5.53935 0
337.444 5.68669 0
338.464 1.33456 0
339.854 3.40016 0
338.712 5.61309 0
337.321 3.54747 0
338.588 3.47388 0
339.73 1.26085 0
342.263 1.11303 0
342.513 5.39148 0
339.979 5.53935 0
340.997 1.18701 0
342.388 3.25231 0
341.246 5.46548 0
339.854 3.40016 0
341.121 3.3263 0
342.263 1.11303 0
344.797 0.964688 0
345.047 5.24308 0
342.513 5.39148 0
343.53 1.03893 0
344.922 3.10394 0
343.78 5.31734 0
342.388 3.25231 0
343.655 3.17819 0
344.797 0.964688 0
347.33 0.815828 0
347.581 5.09417 0
345.047 5.24308 0
346.063 0.890322 0
347.456 2.95505 0
346.314 5.16869 0
344.922 3.10394 0
346.189 3.02956 0
347.33 0.815828 0
349.863 0.666461 0
350.115 4.94475 0
347.581 5.09417 0
348.597 0.741208 0
349.989 2.80566 0
348.848 5.01952 0
347.456 2.95505 0
348.723 2.88042 0
349.863 0.666461 0
352.397 0.516595 0
352.649 4.79484 0
350.115 4.94475 0
351.13 0.59159 0
352.523 2.65577 0
351.382 4.86986 0
349.989 2.80566 0
351.256 2.73078 0
352.397 0.516595 0
354.93 0.366239 0
355.183 4.64443 0
352.649 4.79484 0
353.663 0.441478 0
355.057 2.50539 0
353.916 4.7197 0
352.523 2.65577 0
353.79 2.58064 0
354.93 0.366239 0
357.463 0.215402 0
357.717 4.49355 0
355.183 4.64443 0
356.196 0.29088 0
357.59 2.35453 0
356.45 4.56905 0
355.057 2.50539 0
356.323 2.43002 0
357.463 0.215402 0
359.996 0.0640905 0
360.251 4.34219 0
357.717 4.49355 0
358.73 0.139805 0
360.124 2.20319 0
358.984 4.41793 0
357.59 2.35453 0
358.857 2.27892 0
359.996 0.0640905 0
362.529 -0.0876854 0
362.785 4.19037 0
360.251 4.34219 0
361.263 -0.0117399 0
362.657 2.05139 0
361.518 4.26634 0
360.124 2.20319 0
361.391 2.12735 0
362.529 -0.0876854 0
365.062 -0.239918 0
365.319 4.03809 0
362.785 4.19037 0
363.796 -0.163745 0
365.191 1.89913 0
364.052 4.11428 0
362.657 2.05139 0
363.924 1.97532 0
365.062 -0.239918 0
367.595 -0.392598 0
367.853 3.88536 0
365.319 4.03809 0
366.329 -0.316202 0
367.724 1.74643 0
366.586 3.96178 0
365.191 1.89913 0
366.458 1.82284 0
367.595 -0.392598 0
370.129 -0.545718 0
370.387 3.7322 0
367.853 3.88536 0
368.862 -0.469104 0
370.258 1.59329 0
369.12 3.80884 0
367.724 1.74643 0
368.991 1.66991 0
370.129 -0.545718 0
372.662 -0.699269 0
372.921 3.57861 0
370.387 3.7322 0
371.395 -0.62244 0
372.791 1.43971 0
371.654 3.65546 0
370.258 1.59329 0
371.524 1.51655 0
372.662 -0.699269 0
375.195 -0.853242 0
375.454 3.42459 0
372.921 3.57861 0
373.928 -0.776203 0
375.325 1.28572 0
374.188 3.50165 0
372.791 1.43971 0
374.058 1.36277 0
375.195 -0.853242 0
377.728 -1.00763 0
377.988 3.27016 0
375.454 3.42459 0
376.461 -0.930385 0
377.858 1.13131 0
376.721 3.34743 0
375.325 1.28572 0
376.591 1.20856 0
377.728 -1.00763 0
380.261 -1.16242 0
380.522 3.11533 0
377.988 3.27016 0
378.994 -1.08498 0
380.391 0.976493 0
379.255 3.19279 0
377.858 1.13131 0
379.125 1.05395 0
380.261 -1.16242 0
382.794 -1.31761 0
383.055 2.96009 0
380.522 3.11533 0
381.527 -1.23997 0
382.925 0.821281 0
381.789 3.03776 0
380.391 0.976493 0
381.658 0.898936 0
382.794 -1.31761 0
385.327 -1.47319 0
385.589 2.80447 0
383.055 2.96009 0
384.06 -1.39536 0
385.458 0.665681 0
384.322 2.88233 0
382.925 0.821281 0
384.191 0.743529 0
385.327 -1.47319 0
387.86 -1.62915 0
388.123 2.64848 0
385.589 2.80447 0
386.593 -1.55113 0
387.991 0.509701 0
386.856 2.72652 0
385.458 0.665681 0
386.725 0.587738 0
387.86 -1.62915 0
390.393 -1.78549 0
390.656 2.49211 0
388.123 2.64848 0
389.126 -1.70727 0
390.524 0.353349 0
389.389 2.57034 0
387.991 0.509701 0
389.258 0.431571 0
390.393 -1.78549 0
392.926 -1.94218 0
393.19 2.33537 0
390.656 2.49211 0
391.659 -1.86379 0
393.058 0.196634 0
391.923 2.41378 0
390.524 0.353349 0
391.791 0.275036 0
392.926 -1.94218 0
395.458 -2.09923 0
395.723 2.17829 0
393.19 2.33537 0
394.192 -2.02066 0
395.591 0.0395645 0
394.457 2.25687 0
393.058 0.196634 0
394.324 0.118143 0
395.458 -2.09923 0
397.991 -2.25663 0
398.257 2.02085 0
395.723 2.17829 0
396.725 -2.17789 0
398.124 -0.117851 0
396.99 2.09961 0
395.591 0.0395645 0
396.857 -0.0391007 0
397.991 -2.25663 0
400.524 -2.41436 0
400.79 1.86308 0
398.257 2.02085 0
399.258 -2.33545 0
400.657 -0.275605 0
399.524 1.94201 0
398.124 -0.117851 0
399.391 -0.196686 0
400.524 -2.41436 0
403.057 -2.57243 0
403.324 1.70498 0
400.79 1.86308 0
401.791 -2.49336 0
403.19 -0.433688 0
402.057 1.78407 0
400.657 -0.275605 0
401.924 -0.354606 0
403.057 -2.57243 0
405.59 -2.73081 0
405.857 1.54656 0
403.324 1.70498 0
404.324 -2.65158 0
405.724 -0.592092 0
404.59 1.62581 0
403.19 -0.433688 0
404.457 -0.51285 0
405.59 -2.73081 0
408.123 -2.88951 0
408.39 1.38783 0
405.857 1.54656 0
406.856 -2.81013 0
408.257 -0.750808 0
407.124 1.46724 0
405.724 -0.592092 0
406.99 -0.671411 0
408.123 -2.88951 0
410.656 -3.04852 0
410.924 1.2288 0
408.39 1.38783 0
409.389 -2.96898 0
410.79 -0.909828 0
409.657 1.30835 0
408.257 -0.750808 0
409.523 -0.83028 0
410.656 -3.04852 0
413.188 -3.20782 0
413.457 1.06947 0
410.924 1.2288 0
411.922 -3.12813 0
413.323 -1.06914 0
412.19 1.14917 0
410.79 -0.909828 0
412.056 -0.989449 0
413.188 -3.20782 0
415.721 -3.3674 0
415.99 0.909851 0
413.457 1.06947 0
414.455 -3.28757 0
415.856 -1.22875 0
414.724 0.989695 0
413.323 -1.06914 0
414.589 -1.14891 0
415.721 -3.3674 0
418.254 -3.52727 0
418.524 0.749956 0
415.99 0.909851 0
416.988 -3.4473 0
418.389 -1.38863 0
417.257 0.829938 0
415.856 -1.22875 0
417.122 -1.30865 0
418.254 -3.52727 0
420.787 -3.68741 0
421.057 0.589791 0
418.524 0.749956 0
419.52 -3.6073 0
420.922 -1.54878 0
419.79 0.669907 0
418.389 -1.38863 0
419.655 -1.46867 0
420.787 -3.68741 0
423.32 -3.8478 0
423.59 0.429365 0
421.057 0.589791 0
422.053 -3.76757 0
423.455 -1.70919 0
422.324 0.50961 0
420.922 -1.54878 0
422.188 -1.62895 0
423.32 -3.8478 0
425.852 -4.00846 0
426.123 0.268686 0
423.59 0.429365 0
424.586 -3.9281 0
425.988 -1.86986 0
424.857 0.349057 0
423.455 -1.70919 0
424.721 -1.78949 0
425.852 -4.00846 0
428.385 -4.16935 0
428.656 0.107763 0
426.123 0.268686 0
427.119 -4.08888 0
428.521 -2.03077 0
427.39 0.188255 0
425.988 -1.86986 0
427.254 -1.95028 0
428.385 -4.16935 0
430.918 -4.33049 0
431.19 -0.0533965 0
428.656 0.107763 0
429.652 -4.24989 0
431.054 -2.19192 0
429.923 0.0272122 0
428.521 -2.03077 0
429.787 -2.11132 0
430.918 -4.33049 0
433.451 -4.49185 0
433.723 -0.214783 0
431.19 -0.0533965 0
432.184 -4.41114 0
433.587 -2.35329 0
432.456 -0.134062 0
431.054 -2.19192 0
432.32 -2.27258 0
433.451 -4.49185 0
435.983 -4.65343 0
436.256 -0.376389 0
433.723 -0.214783 0
434.717 -4.57262 0
436.12 -2.51489 0
434.989 -0.295559 0
433.587 -2.35329 0
434.853 -2.43406 0
435.983 -4.65343 0
438.516 -4.81523 0
438.789 -0.538206 0
436.256 -0.376389 0
437.25 -4.73431 0
438.653 -2.6767 0
437.522 -0.457272 0
436.12 -2.51489 0
437.386 -2.59577 0
438.516 -4.81523 0
441.049 -4.97723 0
441.322 -0.700225 0
438.789 -0.538206 0
439.783 -4.8962 0
441.185 -2.8387 0
440.056 -0.619191 0
438.653 -2.6767 0
439.919 -2.75768 0
441.049 -4.97723 0
443.582 -5.13942 0
443.855 -0.862437 0
441.322 -0.700225 0
442.315 -5.0583 0
443.718 -3.00091 0
442.589 -0.781307 0
441.185 -2.8387 0
442.452 -2.91978 0
443.582 -5.13942 0
446.114 -5.3018 0
446.388 -1.02483 0
443.855 -0.862437 0
444.848 -5.22058 0
446.251 -3.1633 0
445.122 -0.943613 0
443.718 -3.00091 0
444.985 -3.08208 0
446.114 -5.3018 0
448.647 -5.46435 0
448.921 -1.18741 0
446.388 -1.02483 0
447.381 -5.38305 0
448.784 -3.32586 0
447.655 -1.1061 0
446.251 -3.1633 0
447.518 -3.24456 0
448.647 -5.46435 0
451.18 -5.62708 0
451.454 -1.35015 0
448.921 -1.18741 0
449.913 -5.54569 0
451.317 -3.4886 0
450.188 -1.26876 0
448.784 -3.32586 0
450.051 -3.40721 0
451.18 -5.62708 0
453.713 -5.78996 0
453.987 -1.51306 0
451.454 -1.35015 0
452.446 -5.7085 0
453.85 -3.65149 0
452.721 -1.43158 0
451.317 -3.4886 0
452.583 -3.57003 0
453.713 -5.78996 0
456.245 -5.953 0
456.52 -1.67611 0
453.987 -1.51306 0
454.979 -5.87146 0
456.383 -3.81454 0
455.254 -1.59456 0
453.85 -3.65149 0
455.116 -3.733 0
456.245 -5.953 0
458.778 -6.11618 0
459.053 -1.83931 0
456.52 -1.67611 0
457.512 -6.03458 0
458.915 -3.97773 0
457.787 -1.75769 0
456.383 -3.81454 0
457.649 -3.89612 0
458.778 -6.11618 0
461.311 -6.2795 0
461.586 -2.00264 0
459.053 -1.83931 0
460.044 -6.19783 0
461.448 -4.14106 0
460.319 -1.92096 0
458.915 -3.97773 0
460.182 -4.05938 0
461.311 -6.2795 0
463.843 -6.44295 0
464.119 -2.1661 0
461.586 -2.00264 0
462.577 -6.36121 0
463.981 -4.30451 0
462.852 -2.08435 0
461.448 -4.14106 0
462.715 -4.22277 0
463.843 -6.44295 0
466.376 -6.60651 0
466.652 -2.32967 0
464.119 -2.1661 0
465.11 -6.52472 0
466.514 -4.46808 0
465.385 -2.24787 0
463.981 -4.30451 0
465.248 -4.38628 0
466.376 -6.60651 0
468.909 -6.77019 0
469.185 -2.49336 0
466.652 -2.32967 0
467.642 -6.68834 0
469.047 -4.63176 0
467.918 -2.4115 0
466.514 -4.46808 0
467.78 -4.54991 0
468.909 -6.77019 0
471.441 -6.93396 0
471.717 -2.65715 0
469.185 -2.49336 0
470.175 -6.85206 0
471.579 -4.79554 0
470.451 -2.57524 0
469.047 -4.63176 0
470.313 -4.71364 0
471.441 -6.93396 0
473.974 -7.09783 0
474.25 -2.82103 0
471.717 -2.65715 0
472.708 -7.01589 0
474.112 -4.95942 0
472.984 -2.73908 0
471.579 -4.79554 0
472.846 -4.87747 0
473.974 -7.09783 0
476.507 -7.26179 0
476.783 -2.98499 0
474.25 -2.82103 0
475.241 -7.1798 0
476.645 -5.12338 0
475.517 -2.903 0
474.112 -4.95942 0
475.379 -5.04139 0
476.507 -7.26179 0
479.04 -7.42582 0
479.316 -3.14903 0
476.783 -2.98499 0
477.773 -7.34379 0
479.178 -5.28742 0
478.05 -3.067 0
476.645 -5.12338 0
477.911 -5.20539 0
479.04 -7.42582 0
481.572 -7.58992 0
481.849 -3.31314 0
479.316 -3.14903 0
480.306 -7.50786 0
481.711 -5.45153 0
480.582 -3.23108 0
479.178 -5.28742 0
480.444 -5.36946 0
481.572 -7.58992 0
484.105 -7.75409 0
484.382 -3.47731 0
481.849 -3.31314 0
482.839 -7.672 0
484.243 -5.61569 0
483.115 -3.39522 0
481.711 -5.45153 0
482.977 -5.5336 0
484.105 -7.75409 0
486.638 -7.91831 0
486.914 -3.64153 0
484.382 -3.47731 0
485.371 -7.83619 0
486.776 -5.77992 0
485.648 -3.55941 0
484.243 -5.61569 0
485.51 -5.6978 0
486.638 -7.91831 0
489.171 -8.08257 0
489.447 -3.80579 0
486.914 -3.64153 0
487.904 -8.00043 0
489.309 -5.94418 0
488.181 -3.72366 0
486.776 -5.77992 0
488.042 -5.86204 0
489.171 -8.08257 0
491.703 -8.24685 0
491.98 -3.97009 0
489.447 -3.80579 0
490.437 -8.16471 0
491.842 -6.10847 0
490.714 -3.88794 0
489.309 -5.94418 0
490.575 -6.02632 0
491.703 -8.24685 0
494.236 -8.41115 0
494.513 -4.13438 0
491.98 -3.97009 0
492.97 -8.329 0
494.374 -6.27276 0
493.246 -4.05223 0
491.842 -6.10847 0
493.108 -6.19061 0
494.236 -8.41115 0
496.769 -8.5754 0
497.045 -4.29864 0
494.513 -4.13438 0
495.502 -8.49328 0
496.907 -6.43701 0
495.779 -4.21652 0
494.374 -6.27276 0
495.641 -6.35489 0
496.769 -8.5754 0
499.301 -8.73957 0
499.578 -4.46281 0
497.045 -4.29864 0
498.035 -8.6575 0
499.44 -6.60117 0
498.312 -4.38074 0
496.907 -6.43701 0
498.174 -6.51911 0
0 17.1429 0
2.53928 17.1431 0
2.54178 21.4282 0
0 21.4286 0
1.26964 17.1433 0
2.54052 19.2857 0
1.27083 21.4287 0
0 19.2857 0
1.27022 19.286 0
2.53928 17.1431 0
5.07866 17.141 0
5.08384 21.4257 0
2.54178 21.4282 0
3.80896 17.1423 0
5.08123 19.2834 0
3.81279 21.4272 0
2.54052 19.2857 0
3.81086 19.2848 0
5.07866 17.141 0
7.61809 17.1369 0
7.62607 21.4213 0
5.08384 21.4257 0
6.34837 17.1392 0
7.62205 19.2792 0
6.35495 21.4237 0
5.08123 19.2834 0
6.35163 19.2816 0
7.61809 17.1369 0
10.1575 17.131 0
10.1683 21.4153 0
7.62607 21.4213 0
8.88781 17.1341 0
10.1629 19.2733 0
8.89721 21.4185 0
7.62205 19.2792 0
8.89248 19.2765 0
10.1575 17.131 0
12.697 17.1233 0
12.7106 21.4076 0
10.1683 21.4153 0
11.4273 17.1274 0
12.7038 19.2656 0
11.4395 21.4116 0
10.1629 19.2733 0
11.4333 19.2697 0
12.697 17.1233 0
15.2364 17.1141 0
15.2528 21.3983 0
12.7106 21.4076 0
13.9667 17.1189 0
15.2446 19.2564 0
13.9817 21.4032 0
12.7038 19.2656 0
13.9742 19.2612 0
15.2364 17.1141 0
17.7758 17.1032 0
17.7949 21.3874 0
15.2528 21.3983 0
16.5061 17.1088 0
17.7854 19.2455 0
16.5239 21.3931 0
15.2446 19.2564 0
16.515 19.2511 0
17.7758 17.1032 0
20.3152 17.0907 0
20.337 21.3749 0
17.7949 21.3874 0
19.0455 17.0971 0
20.3261 19.233 0
19.066 21.3814 0
17.7854 19.2455 0
19.0558 19.2394 0
20.3152 17.0907 0
22.8546 17.0766 0
22.8791 21.3608 0
20.337 21.3749 0
21.5849 17.0838 0
22.8669 19.2189 0
21.6081 21.3681 0
20.3261 19.233 0
21.5965 19.2261 0
22.8546 17.0766 0
25.394 17.0609 0
25.4212 21.3451 0
22.8791 21.3608 0
24.1243 17.0689 0
25.4076 19.2032 0
24.1501 21.3532 0
22.8669 19.2189 0
24.1372 19.2112 0
25.394 17.0609 0
27.9333 17.0436 0
27.9632 21.3279 0
25.4212 21.3451 0
26.6636 17.0525 0
27.9482 19.1859 0
26.6922 21.3367 0
25.4076 19.2032 0
26.6779 19.1948 0
27.9333 17.0436 0
30.4726 17.0248 0
30.5051 21.309 0
27.9632 21.3279 0
29.203 17.0344 0
30.4889 19.1671 0
29.2341 21.3186 0
27.9482 19.1859 0
29.2185 19.1767 0
30.4726 17.0248 0
33.0119 17.0044 0
33.0471 21.2886 0
30.5051 21.309 0
31.7423 17.0148 0
33.0295 19.1467 0
31.7761 21.299 0
30.4889 19.1671 0
31.7592 19.1571 0
33.0119 17.0044 0
35.5512 16.9824 0
35.589 21.2666 0
33.0471 21.2886 0
34.2816 16.9936 0
35.5701 19.1247 0
34.318 21.2778 0
33.0295 19.1467 0
34.2998 19.1359 0
35.5512 16.9824 0
38.0905 16.9589 0
38.1308 21.2431 0
35.589 21.2666 0
36.8208 16.9709 0
38.1106 19.1012 0
36.8599 21.2551 0
35.5701 19.1247 0
36.8404 19.1131 0
38.0905 16.9589 0
40.6297 16.9339 0
40.6727 21.218 0
38.1308 21.2431 0
39.3601 16.9466 0
40.6512 19.0761 0
39.4017 21.2308 0
38.1106 19.1012 0
39.3809 19.0888 0
40.6297 16.9339 0
43.1689 16.9073 0
43.2144 21.1914 0
40.6727 21.218 0
41.8993 16.9208 0
43.1917 19.0495 0
41.9436 21.2049 0
40.6512 19.0761 0
41.9214 19.063 0
43.1689 16.9073 0
45.7081 16.8792 0
45.7562 21.1633 0
43.2144 21.1914 0
44.4385 16.8934 0
45.7321 19.0214 0
44.4853 21.1776 0
43.1917 19.0495 0
44.4619 19.0356 0
45.7081 16.8792 0
48.2473 16.8495 0
48.2979 21.1336 0
45.7562 21.1633 0
46.9777 16.8645 0
48.2726 18.9918 0
47.0271 21.1487 0
45.7321 19.0214 0
47.0024 19.0068 0
48.2473 16.8495 0
50.7864 16.8184 0
50.8396 21.1025 0
48.2979 21.1336 0
49.5168 16.8342 0
50.813 18.9606 0
49.5688 21.1183 0
48.2726 18.9918 0
49.5428 18.9764 0
50.7864 16.8184 0
53.3255 16.7858 0
53.3812 21.0698 0
50.8396 21.1025 0
52.056 16.8023 0
53.3534 18.928 0
52.1104 21.0863 0
50.813 18.9606 0
52.0832 18.9445 0
53.3255 16.7858 0
55.8646 16.7516 0
55.9228 21.0357 0
53.3812 21.0698 0
54.5951 16.7689 0
55.8937 18.8938 0
54.652 21.0529 0
53.3534 18.928 0
54.6235 18.9111 0
55.8646 16.7516 0
58.4037 16.716 0
58.4644 21 0
55.9228 21.0357 0
57.1341 16.734 0
58.434 18.8582 0
57.1936 21.018 0
55.8937 18.8938 0
57.1639 18.8762 0
58.4037 16.716 0
60.9427 16.6789 0
61.0059 20.9629 0
58.4644 21 0
59.6732 16.6977 0
60.9743 18.8211 0
59.7351 20.9817 0
58.434 18.8582 0
59.7041 18.8398 0
60.9427 16.6789 0
63.4817 16.6404 0
63.5474 20.9243 0
61.0059 20.9629 0
62.2122 16.6599 0
63.5145 18.7825 0
62.2766 20.9438 0
60.9743 18.8211 0
62.2444 18.802 0
63.4817 16.6404 0
66.0207 16.6004 0
66.0888 20.8843 0
63.5474 20.9243 0
64.7512 16.6206 0
66.0547 18.7425 0
64.8181 20.9045 0
63.5145 18.7825 0
64.7846 18.7627 0
66.0207 16.6004 0
68.5596 16.5589 0
68.6302 20.8428 0
66.0888 20.8843 0
67.2901 16.5799 0
68.5949 18.701 0
67.3595 20.8638 0
66.0547 18.7425 0
67.3248 18.722 0
68.5596 16.5589 0
71.0985 16.5161 0
71.1715 20.7999 0
68.6302 20.8428 0
69.8291 16.5377 0
71.135 18.6581 0
69.9008 20.8215 0
68.5949 18.701 0
69.8649 18.6798 0
71.0985 16.5161 0
73.6374 16.4717 0
73.7128 20.7555 0
71.1715 20.7999 0
72.368 16.4941 0
73.6751 18.6138 0
72.4421 20.7779 0
71.135 18.6581 0
72.405 18.6361 0
73.6374 16.4717 0
76.1762 16.426 0
76.254 20.7098 0
73.7128 20.7555 0
74.9068 16.449 0
76.2151 18.568 0
74.9834 20.7328 0
73.6751 18.6138 0
74.9451 18.5911 0
76.1762 16.426 0
78.7151 16.3788 0
78.7952 20.6626 0
76.254 20.7098 0
77.4457 16.4026 0
78.7551 18.5208 0
77.5246 20.6863 0
76.2151 18.568 0
77.4851 18.5446 0
78.7151 16.3788 0
81.2538 16.3303 0
81.3364 20.614 0
78.7952 20.6626 0
79.9845 16.3547 0
81.2951 18.4723 0
80.0658 20.6384 0
78.7551 18.5208 0
80.0251 18.4967 0
81.2538 16.3303 0
83.7926 16.2803 0
83.8775 20.564 0
81.3364 20.614 0
82.5232 16.3055 0
83.835 18.4223 0
82.6069 20.5891 0
81.2951 18.4723 0
82.5651 18.4474 0
83.7926 16.2803 0
86.3313 16.2289 0
86.4185 20.5126 0
83.8775 20.564 0
85.0619 16.2548 0
86.3749 18.3709 0
85.148 20.5384 0
83.835 18.4223 0
85.105 18.3968 0
86.3313 16.2289 0
88.87 16.1762 0
88.9595 20.4598 0
86.4185 20.5126 0
87.6006 16.2028 0
88.9147 18.3182 0
87.689 20.4864 0
86.3749 18.3709 0
87.6448 18.3447 0
88.87 16.1762 0
91.4086 16.1221 0
91.5005 20.4057 0
88.9595 20.4598 0
90.1393 16.1493 0
91.4545 18.264 0
90.23 20.4329 0
88.9147 18.3182 0
90.1846 18.2913 0
91.4086 16.1221 0
93.9472 16.0666 0
94.0414 20.3501 0
91.5005 20.4057 0
92.6779 16.0945 0
93.9943 18.2085 0
92.7709 20.3781 0
91.4545 18.264 0
92.7244 18.2365 0
93.9472 16.0666 0
96.4858 16.0098 0
96.5822 20.2933 0
94.0414 20.3501 0
95.2165 16.0384 0
96.534 18.1517 0
95.3118 20.3219 0
93.9943 18.2085 0
95.2641 18.1803 0
96.4858 16.0098 0
99.0243 15.9517 0
99.123 20.2351 0
96.5822 20.2933 0
97.7551 15.9809 0
99.0737 18.0935 0
97.8526 20.2643 0
96.534 18.1517 0
97.8038 18.1228 0
99.0243 15.9517 0
101.563 15.8921 0
101.664 20.1755 0
99.123 20.2351 0
100.294 15.9221 0
101.613 18.034 0
100.393 20.2055 0
99.0737 18.0935 0
100.343 18.0639 0
101.563 15.8921 0
104.101 15.8313 0
104.204 20.1146 0
101.664 20.1755 0
102.832 15.8619 0
104.153 17.9731 0
102.934 20.1452 0
101.613 18.034 0
102.883 18.0037 0
104.101 15.8313 0
106.64 15.7692 0
106.745 20.0524 0
104.204 20.1146 0
105.37 15.8004 0
106.692 17.9109 0
105.475 20.0837 0
104.153 17.9731 0
105.423 17.9422 0
106.64 15.7692 0
109.178 15.7057 0
109.286 19.9889 0
106.745 20.0524 0
107.909 15.7376 0
109.232 17.8474 0
108.015 20.0208 0
106.692 17.9109 0
107.962 17.8794 0
109.178 15.7057 0
111.716 15.6409 0
111.826 19.9241 0
109.286 19.9889 0
110.447 15.6735 0
111.771 17.7826 0
110.556 19.9567 0
109.232 17.8474 0
110.502 17.8152 0
111.716 15.6409 0
114.255 15.5749 0
114.367 19.858 0
111.826 19.9241 0
112.986 15.608 0
114.311 17.7166 0
113.096 19.8912 0
111.771 17.7826 0
113.041 17.7498 0
114.255 15.5749 0
116.793 15.5075 0
116.907 19.7906 0
114.367 19.858 0
115.524 15.5413 0
116.85 17.6492 0
115.637 19.8244 0
114.311 17.7166 0
115.58 17.683 0
116.793 15.5075 0
119.331 15.4389 0
119.447 19.7219 0
116.907 19.7906 0
118.062 15.4733 0
119.389 17.5805 0
118.177 19.7564 0
116.85 17.6492 0
118.12 17.615 0
119.331 15.4389 0
121.869 15.369 0
121.988 19.652 0
119.447 19.7219 0
120.6 15.4041 0
121.929 17.5106 0
120.718 19.6871 0
119.389 17.5805 0
120.659 17.5457 0
121.869 15.369 0
124.407 15.2978 0
124.528 19.5807 0
121.988 19.652 0
123.138 15.3335 0
124.468 17.4394 0
123.258 19.6165 0
121.929 17.5106 0
123.198 17.4752 0
124.407 15.2978 0
126.946 15.2254 0
127.068 19.5083 0
124.528 19.5807 0
125.677 15.2618 0
127.007 17.367 0
125.798 19.5447 0
124.468 17.4394 0
125.737 17.4033 0
126.946 15.2254 0
129.484 15.1517 0
129.608 19.4346 0
127.068 19.5083 0
128.215 15.1887 0
129.546 17.2933 0
128.338 19.4716 0
127.007 17.367 0
128.276 17.3303 0
129.484 15.1517 0
132.022 15.0768 0
132.148 19.3596 0
129.608 19.4346 0
130.753 15.1144 0
132.085 17.2184 0
130.878 19.3972 0
129.546 17.2933 0
130.815 17.256 0
132.022 15.0768 0
134.56 15.0007 0
134.688 19.2834 0
132.148 19.3596 0
133.291 15.0389 0
134.624 17.1422 0
133.418 19.3217 0
132.085 17.2184 0
133.355 17.1804 0
134.56 15.0007 0
137.097 14.9234 0
137.228 19.206 0
134.688 19.2834 0
135.829 14.9622 0
137.163 17.0648 0
135.958 19.2449 0
134.624 17.1422 0
135.893 17.1037 0
137.097 14.9234 0
139.635 14.8448 0
139.768 19.1274 0
137.228 19.206 0
138.366 14.8842 0
139.702 16.9863 0
138.498 19.1669 0
137.163 17.0648 0
138.432 17.0257 0
139.635 14.8448 0
142.173 14.7651 0
142.308 19.0476 0
139.768 19.1274 0
140.904 14.8051 0
142.241 16.9065 0
141.038 19.0877 0
139.702 16.9863 0
140.971 16.9465 0
142.173 14.7651 0
144.711 14.6841 0
144.848 18.9666 0
142.308 19.0476 0
143.442 14.7247 0
144.779 16.8255 0
143.578 19.0073 0
142.241 16.9065 0
143.51 16.8661 0
144.711 14.6841 0
147.249 14.602 0
147.388 18.8844 0
144.848 18.9666 0
145.98 14.6432 0
147.318 16.7433 0
146.118 18.9257 0
144.779 16.8255 0
146.049 16.7846 0
147.249 14.602 0
149.786 14.5187 0
149.927 18.8011 0
147.388 18.8844 0
148.518 14.5605 0
149.857 16.66 0
148.658 18.8429 0
147.318 16.7433 0
148.588 16.7018 0
149.786 14.5187 0
152.324 14.4342 0
152.467 18.7165 0
149.927 18.8011 0
151.055 14.4766 0
152.395 16.5755 0
151.197 18.7589 0
149.857 16.66 0
151.126 16.6179 0
152.324 14.4342 0
154.862 14.3486 0
155.007 18.6308 0
152.467 18.7165 0
153.593 14.3915 0
154.934 16.4898 0
153.737 18.6738 0
152.395 16.5755 0
153.665 16.5328 0
154.862 14.3486 0
157.399 14.2618 0
157.546 18.544 0
155.007 18.6308 0
156.13 14.3053 0
157.473 16.403 0
156.276 18.5876 0
154.934 16.4898 0
156.203 16.4466 0
157.399 14.2618 0
159.937 14.1739 0
160.085 18.456 0
157.546 18.544 0
158.668 14.218 0
160.011 16.3151 0
158.816 18.5001 0
157.473 16.403 0
158.742 16.3592 0
159.937 14.1739 0
162.474 14.0848 0
162.625 18.3669 0
160.085 18.456 0
161.205 14.1295 0
162.549 16.226 0
161.355 18.4116 0
160.011 16.3151 0
161.28 16.2707 0
162.474 14.0848 0
165.012 13.9946 0
165.164 18.2766 0
162.625 18.3669 0
163.743 14.0399 0
165.088 16.1358 0
163.894 18.3219 0
162.549 16.226 0
163.819 16.181 0
165.012 13.9946 0
167.549 13.9033 0
167.703 18.1853 0
165.164 18.2766 0
166.28 13.9491 0
167.626 16.0444 0
166.434 18.2311 0
165.088 16.1358 0
166.357 16.0902 0
167.549 13.9033 0
170.086 13.8109 0
170.243 18.0928 0
167.703 18.1853 0
168.818 13.8572 0
170.164 15.952 0
168.973 18.1392 0
167.626 16.0444 0
168.895 15.9983 0
170.086 13.8109 0
172.624 13.7174 0
172.782 17.9992 0
170.243 18.0928 0
171.355 13.7643 0
172.703 15.8584 0
171.512 18.0462 0
170.164 15.952 0
171.433 15.9053 0
172.624 13.7174 0
175.161 13.6228 0
175.321 17.9046 0
172.782 17.9992 0
173.892 13.6702 0
175.241 15.7638 0
174.051 17.952 0
172.703 15.8584 0
173.972 15.8113 0
175.161 13.6228 0
177.698 13.5271 0
177.86 17.8088 0
175.321 17.9046 0
176.429 13.5751 0
177.779 15.6681 0
176.59 17.8568 0
175.241 15.7638 0
176.51 15.7161 0
177.698 13.5271 0
180.235 13.4303 0
180.399 17.712 0
177.86 17.8088 0
178.966 13.4789 0
180.317 15.5713 0
179.129 17.7606 0
177.779 15.6681 0
179.048 15.6198 0
180.235 13.4303 0
182.772 13.3325 0
182.938 17.6141 0
180.399 17.712 0
181.504 13.3816 0
182.855 15.4734 0
181.668 17.6632 0
180.317 15.5713 0
181.586 15.5225 0
182.772 13.3325 0
185.309 13.2336 0
185.476 17.5152 0
182.938 17.6141 0
184.041 13.2832 0
185.393 15.3745 0
184.207 17.5648 0
182.855 15.4734 0
184.124 15.4241 0
185.309 13.2336 0
187.846 13.1337 0
188.015 17.4152 0
185.476 17.5152 0
186.578 13.1838 0
187.931 15.2746 0
186.746 17.4653 0
185.393 15.3745 0
186.662 15.3247 0
187.846 13.1337 0
190.383 13.0327 0
190.554 17.3142 0
188.015 17.4152 0
189.115 13.0834 0
190.468 15.1736 0
189.284 17.3648 0
187.931 15.2746 0
189.2 15.2242 0
190.383 13.0327 0
192.92 12.9307 0
193.092 17.2121 0
190.554 17.3142 0
191.652 12.9819 0
193.006 15.0715 0
191.823 17.2633 0
190.468 15.1736 0
191.737 15.1227 0
192.92 12.9307 0
195.457 12.8277 0
195.631 17.109 0
193.092 17.2121 0
194.188 12.8794 0
195.544 14.9685 0
194.362 17.1607 0
193.006 15.0715 0
194.275 15.0201 0
195.457 12.8277 0
197.994 12.7237 0
198.169 17.0049 0
195.631 17.109 0
196.725 12.7758 0
198.082 14.8644 0
196.9 17.0571 0
195.544 14.9685 0
196.813 14.9166 0
197.994 12.7237 0
200.53 12.6186 0
200.708 16.8998 0
198.169 17.0049 0
199.262 12.6713 0
200.619 14.7593 0
199.439 16.9525 0
198.082 14.8644 0
199.35 14.812 0
200.53 12.6186 0
203.067 12.5126 0
203.246 16.7937 0
200.708 16.8998 0
201.799 12.5657 0
203.157 14.6532 0
201.977 16.8469 0
200.619 14.7593 0
201.888 14.7064 0
203.067 12.5126 0
205.604 12.4055 0
205.785 16.6866 0
203.246 16.7937 0
204.335 12.4592 0
205.694 14.5462 0
204.515 16.7403 0
203.157 14.6532 0
204.425 14.5998 0
205.604 12.4055 0
208.14 12.2975 0
208.323 16.5785 0
205.785 16.6866 0
206.872 12.3517 0
208.232 14.4381 0
207.054 16.6327 0
205.694 14.5462 0
206.963 14.4923 0
208.14 12.2975 0
210.677 12.1885 0
210.861 16.4695 0
208.323 16.5785 0
209.409 12.2432 0
210.769 14.3291 0
209.592 16.5241 0
208.232 14.4381 0
209.5 14.3837 0
210.677 12.1885 0
213.213 12.0786 0
213.399 16.3594 0
210.861 16.4695 0
211.945 12.1337 0
213.306 14.2191 0
212.13 16.4146 0
210.769 14.3291 0
212.038 14.2742 0
213.213 12.0786 0
215.75 11.9677 0
215.937 16.2485 0
213.399 16.3594 0
214.482 12.0232 0
215.843 14.1082 0
214.668 16.3041 0
213.306 14.2191 0
214.575 14.1638 0
215.75 11.9677 0
218.286 11.8558 0
218.475 16.1366 0
215.937 16.2485 0
217.018 11.9119 0
218.381 13.9963 0
217.206 16.1926 0
215.843 14.1082 0
217.112 14.0523 0
218.286 11.8558 0
220.823 11.743 0
221.013 16.0237 0
218.475 16.1366 0
219.554 11.7995 0
220.918 13.8835 0
219.744 16.0802 0
218.381 13.9963 0
219.649 13.94 0
220.823 11.743 0
223.359 11.6293 0
223.551 15.9099 0
221.013 16.0237 0
222.091 11.6863 0
223.455 13.7697 0
222.282 15.9669 0
220.918 13.8835 0
222.186 13.8267 0
223.359 11.6293 0
225.895 11.5147 0
226.089 15.7952 0
223.551 15.9099 0
224.627 11.5721 0
225.992 13.655 0
224.82 15.8527 0
223.455 13.7697 0
224.723 13.7125 0
225.895 11.5147 0
228.431 11.3991 0
228.627 15.6796 0
226.089 15.7952 0
227.163 11.457 0
228.529 13.5394 0
227.358 15.7375 0
225.992 13.655 0
227.26 13.5973 0
228.431 11.3991 0
230.967 11.2826 0
231.164 15.5631 0
228.627 15.6796 0
229.699 11.341 0
231.066 13.4229 0
229.895 15.6214 0
228.529 13.5394 0
229.797 13.4813 0
230.967 11.2826 0
233.504 11.1653 0
233.702 15.4456 0
231.164 15.5631 0
232.236 11.2241 0
233.603 13.3056 0
232.433 15.5045 0
231.066 13.4229 0
232.334 13.3644 0
233.504 11.1653 0
236.04 11.047 0
236.239 15.3273 0
233.702 15.4456 0
234.772 11.1063 0
236.139 13.1873 0
234.971 15.3866 0
233.603 13.3056 0
234.871 13.2465 0
236.04 11.047 0
238.576 10.9279 0
238.777 15.2081 0
236.239 15.3273 0
237.308 10.9876 0
238.676 13.0681 0
237.508 15.2678 0
236.139 13.1873 0
237.408 13.1278 0
238.576 10.9279 0
241.112 10.8079 0
241.314 15.0881 0
238.777 15.2081 0
239.844 10.868 0
241.213 12.9481 0
240.046 15.1482 0
238.676 13.0681 0
239.945 13.0082 0
241.112 10.8079 0
243.648 10.6871 0
243.852 14.9672 0
241.314 15.0881 0
242.38 10.7476 0
243.75 12.8272 0
242.583 15.0277 0
241.213 12.9481 0
242.481 12.8878 0
243.648 10.6871 0
246.183 10.5653 0
246.389 14.8454 0
243.852 14.9672 0
244.915 10.6263 0
246.286 12.7055 0
245.12 14.9064 0
243.75 12.8272 0
245.018 12.7664 0
246.183 10.5653 0
248.719 10.4428 0
248.926 14.7228 0
246.389 14.8454 0
247.451 10.5042 0
248.823 12.5829 0
247.658 14.7842 0
246.286 12.7055 0
247.554 12.6443 0
248.719 10.4428 0
251.255 10.3194 0
251.463 14.5993 0
248.926 14.7228 0
249.987 10.3812 0
251.359 12.4594 0
250.195 14.6612 0
248.823 12.5829 0
250.091 12.5213 0
251.255 10.3194 0
253.791 10.1952 0
254 14.475 0
251.463 14.5993 0
252.523 10.2574 0
253.896 12.3352 0
252.732 14.5373 0
251.359 12.4594 0
252.627 12.3974 0
253.791 10.1952 0
256.326 10.0701 0
256.538 14.3499 0
254 14.475 0
255.059 10.1328 0
256.432 12.2101 0
255.269 14.4126 0
253.896 12.3352 0
255.164 12.2728 0
256.326 10.0701 0
258.862 9.94428 0
259.075 14.224 0
256.538 14.3499 0
257.594 10.0073 0
258.968 12.0842 0
257.806 14.2871 0
256.432 12.2101 0
257.7 12.1473 0
258.862 9.94428 0
261.398 9.81763 0
261.611 14.0973 0
259.075 14.224 0
260.13 9.88105 0
261.505 11.9576 0
260.343 14.1608 0
258.968 12.0842 0
260.236 12.021 0
261.398 9.81763 0
263.933 9.69018 0
264.148 13.9698 0
261.611 14.0973 0
262.665 9.754 0
264.041 11.8301 0
262.88 14.0337 0
261.505 11.9576 0
262.773 11.8939 0
263.933 9.69018 0
266.469 9.56194 0
266.685 13.8415 0
264.148 13.9698 0
265.201 9.62616 0
266.577 11.7018 0
265.417 13.9058 0
264.041 11.8301 0
265.309 11.766 0
266.469 9.56194 0
269.004 9.43293 0
269.222 13.7124 0
266.685 13.8415 0
267.736 9.49753 0
269.113 11.5728 0
267.954 13.7771 0
266.577 11.7018 0
267.845 11.6374 0
269.004 9.43293 0
271.54 9.30315 0
271.759 13.5826 0
269.222 13.7124 0
270.272 9.36813 0
271.649 11.443 0
270.49 13.6476 0
269.113 11.5728 0
270.381 11.508 0
271.54 9.30315 0
274.075 9.1726 0
274.295 13.452 0
271.759 13.5826 0
272.807 9.23797 0
274.185 11.3124 0
273.027 13.5174 0
271.649 11.443 0
272.917 11.3778 0
274.075 9.1726 0
276.61 9.04131 0
276.832 13.3206 0
274.295 13.452 0
275.343 9.10705 0
276.721 11.1811 0
275.564 13.3864 0
274.185 11.3124 0
275.453 11.2468 0
276.61 9.04131 0
279.145 8.90927 0
279.368 13.1885 0
276.832 13.3206 0
277.878 8.97538 0
279.257 11.049 0
278.1 13.2547 0
276.721 11.1811 0
277.989 11.1151 0
279.145 8.90927 0
281.681 8.7765 0
281.905 13.0557 0
279.368 13.1885 0
280.413 8.84298 0
281.793 10.9162 0
280.637 13.1222 0
279.257 11.049 0
280.525 10.9827 0
281.681 8.7765 0
284.216 8.643 0
284.441 12.9222 0
281.905 13.0557 0
282.948 8.70984 0
284.328 10.7827 0
283.173 12.989 0
281.793 10.9162 0
283.061 10.8495 0
284.216 8.643 0
286.751 8.50878 0
286.978 12.7879 0
284.441 12.9222 0
285.483 8.57598 0
286.864 10.6484 0
285.709 12.8551 0
284.328 10.7827 0
285.596 10.7156 0
286.751 8.50878 0
289.286 8.37386 0
289.514 12.6529 0
286.978 12.7879 0
288.019 8.44141 0
289.4 10.5135 0
288.246 12.7205 0
286.864 10.6484 0
288.132 10.581 0
289.286 8.37386 0
291.821 8.23823 0
292.05 12.5172 0
289.514 12.6529 0
290.554 8.30613 0
291.936 10.3778 0
290.782 12.5852 0
289.4 10.5135 0
290.668 10.4457 0
291.821 8.23823 0
294.356 8.10191 0
294.586 12.3808 0
292.05 12.5172 0
293.089 8.17015 0
294.471 10.2415 0
293.318 12.4491 0
291.936 10.3778 0
293.203 10.3097 0
294.356 8.10191 0
296.891 7.9649 0
297.122 12.2438 0
294.586 12.3808 0
295.624 8.03349 0
297.007 10.1044 0
295.854 12.3124 0
294.471 10.2415 0
295.739 10.173 0
296.891 7.9649 0
299.426 7.82722 0
299.658 12.1061 0
297.122 12.2438 0
298.158 7.89615 0
299.542 9.96671 0
298.39 12.175 0
297.007 10.1044 0
298.274 10.0356 0
299.426 7.82722 0
301.961 7.68888 0
302.194 11.9677 0
299.658 12.1061 0
300.693 7.75813 0
302.078 9.82834 0
300.926 12.0369 0
299.542 9.96671 0
300.81 9.89761 0
301.961 7.68888 0
304.496 7.54987 0
304.73 11.8286 0
302.194 11.9677 0
303.228 7.61945 0
304.613 9.6893 0
303.462 11.8982 0
302.078 9.82834 0
303.345 9.7589 0
304.496 7.54987 0
307.03 7.41021 0
307.266 11.6889 0
304.73 11.8286 0
305.763 7.48012 0
307.148 9.54962 0
305.998 11.7588 0
304.613 9.6893 0
305.881 9.61954 0
307.03 7.41021 0
309.565 7.26991 0
309.802 11.5485 0
307.266 11.6889 0
308.298 7.34014 0
309.683 9.40929 0
308.534 11.6188 0
307.148 9.54962 0
308.416 9.47953 0
309.565 7.26991 0
312.1 7.12898 0
312.338 11.4075 0
309.802 11.5485 0
310.832 7.19953 0
312.219 9.26833 0
311.07 11.4781 0
309.683 9.40929 0
310.951 9.33889 0
312.1 7.12898 0
314.634 6.98742 0
314.873 11.2659 0
312.338 11.4075 0
313.367 7.05828 0
314.754 9.12675 0
313.605 11.3368 0
312.219 9.26833 0
313.486 9.19762 0
314.634 6.98742 0
317.169 6.84525 0
317.409 11.1237 0
314.873 11.2659 0
315.902 6.91641 0
317.289 8.98455 0
316.141 11.1949 0
314.754 9.12675 0
316.021 9.05573 0
317.169 6.84525 0
319.704 6.70247 0
319.945 10.9809 0
317.409 11.1237 0
318.436 6.77394 0
319.824 8.84174 0
318.677 11.0524 0
317.289 8.98455 0
318.557 8.91322 0
319.704 6.70247 0
322.238 6.55909 0
322.48 10.8375 0
319.945 10.9809 0
320.971 6.63085 0
322.359 8.69834 0
321.212 10.9092 0
319.824 8.84174 0
321.092 8.77011 0
322.238 6.55909 0
324.773 6.41512 0
325.016 10.6934 0
322.48 10.8375 0
323.505 6.48718 0
324.894 8.55434 0
323.748 10.7655 0
322.359 8.69834 0
323.627 8.62641 0
324.773 6.41512 0
327.307 6.27056 0
327.551 10.5488 0
325.016 10.6934 0
326.04 6.34291 0
327.429 8.40976 0
326.283 10.6212 0
324.894 8.55434 0
326.162 8.48212 0
327.307 6.27056 0
329.842 6.12543 0
330.086 10.4037 0
327.551 10.5488 0
328.574 6.19807 0
329.964 8.26461 0
328.819 10.4763 0
327.429 8.40976 0
328.696 8.33725 0
329.842 6.12543 0
332.376 5.97974 0
332.622 10.2579 0
330.086 10.4037 0
331.109 6.05266 0
332.499 8.11889 0
331.354 10.3309 0
329.964 8.26461 0
331.231 8.19182 0
332.376 5.97974 0
334.91 5.83349 0
335.157 10.1116 0
332.622 10.2579 0
333.643 5.90668 0
335.034 7.97261 0
333.889 10.1848 0
332.499 8.11889 0
333.766 8.04582 0
334.91 5.83349 0
337.444 5.68669 0
337.692 9.96477 0
335.157 10.1116 0
336.177 5.76016 0
337.568 7.82579 0
336.425 10.0383 0
335.034 7.97261 0
336.301 7.89927 0
337.444 5.68669 0
339.979 5.53935 0
340.227 9.81739 0
337.692 9.96477 0
338.712 5.61309 0
340.103 7.67842 0
338.96 9.89115 0
337.568 7.82579 0
338.836 7.75217 0
339.979 5.53935 0
342.513 5.39148 0
342.762 9.66947 0
340.227 9.81739 0
341.246 5.46548 0
342.638 7.53053 0
341.495 9.74349 0
340.103 7.67842 0
341.37 7.60454 0
342.513 5.39148 0
345.047 5.24308 0
345.297 9.52103 0
342.762 9.66947 0
343.78 5.31734 0
345.172 7.38211 0
344.03 9.59531 0
342.638 7.53053 0
343.905 7.45638 0
345.047 5.24308 0
347.581 5.09417 0
347.832 9.37208 0
345.297 9.52103 0
346.314 5.16869 0
347.707 7.23318 0
346.565 9.44662 0
345.172 7.38211 0
346.44 7.30771 0
347.581 5.09417 0
350.115 4.94475 0
350.367 9.22262 0
347.832 9.37208 0
348.848 5.01952 0
350.241 7.08374 0
349.1 9.29741 0
347.707 7.23318 0
348.974 7.15852 0
350.115 4.94475 0
352.649 4.79484 0
352.902 9.07266 0
350.367 9.22262 0
351.382 4.86986 0
352.776 6.9338 0
351.635 9.1477 0
350.241 7.08374 0
351.509 7.00883 0
352.649 4.79484 0
355.183 4.64443 0
355.437 8.92221 0
352.902 9.07266 0
353.916 4.7197 0
355.31 6.78338 0
354.17 8.9975 0
352.776 6.9338 0
354.043 6.85865 0
355.183 4.64443 0
357.717 4.49355 0
357.972 8.77129 0
355.437 8.92221 0
356.45 4.56905 0
357.845 6.63247 0
356.705 8.84681 0
355.31 6.78338 0
356.577 6.70798 0
357.717 4.49355 0
360.251 4.34219 0
360.507 8.61989 0
357.972 8.77129 0
358.984 4.41793 0
360.379 6.48109 0
359.239 8.69565 0
357.845 6.63247 0
359.112 6.55684 0
360.251 4.34219 0
362.785 4.19037 0
363.041 8.46803 0
360.507 8.61989 0
361.518 4.26634 0
362.913 6.32925 0
361.774 8.54402 0
360.379 6.48109 0
361.646 6.40523 0
362.785 4.19037 0
365.319 4.03809 0
365.576 8.31571 0
363.041 8.46803 0
364.052 4.11428 0
365.448 6.17695 0
364.309 8.39193 0
362.913 6.32925 0
364.18 6.25315 0
365.319 4.03809 0
367.853 3.88536 0
368.111 8.16295 0
365.576 8.31571 0
366.586 3.96178 0
367.982 6.0242 0
366.843 8.23938 0
365.448 6.17695 0
366.715 6.10063 0
367.853 3.88536 0
370.387 3.7322 0
370.645 8.00975 0
368.111 8.16295 0
369.12 3.80884 0
370.516 5.87102 0
369.378 8.0864 0
367.982 6.0242 0
369.249 5.94767 0
370.387 3.7322 0
372.921 3.57861 0
373.18 7.85612 0
370.645 8.00975 0
371.654 3.65546 0
373.05 5.71741 0
371.912 7.93298 0
370.516 5.87102 0
371.783 5.79427 0
372.921 3.57861 0
375.454 3.42459 0
375.714 7.70206 0
373.18 7.85612 0
374.188 3.50165 0
375.584 5.56337 0
374.447 7.77914 0
373.05 5.71741 0
374.317 5.64044 0
375.454 3.42459 0
377.988 3.27016 0
378.249 7.5476 0
375.714 7.70206 0
376.721 3.34743 0
378.118 5.40892 0
376.981 7.62488 0
375.584 5.56337 0
376.851 5.4862 0
377.988 3.27016 0
380.522 3.11533 0
380.783 7.39273 0
378.249 7.5476 0
379.255 3.19279 0
380.652 5.25407 0
379.516 7.47022 0
378.118 5.40892 0
379.385 5.33155 0
380.522 3.11533 0
383.055 2.96009 0
383.317 7.23747 0
380.783 7.39273 0
381.789 3.03776 0
383.186 5.09882 0
382.05 7.31515 0
380.652 5.25407 0
381.919 5.1765 0
383.055 2.96009 0
385.589 2.80447 0
385.852 7.08182 0
383.317 7.23747 0
384.322 2.88233 0
385.72 4.94319 0
384.584 7.15969 0
383.186 5.09882 0
384.453 5.02105 0
385.589 2.80447 0
388.123 2.64848 0
388.386 6.92578 0
385.852 7.08182 0
386.856 2.72652 0
388.254 4.78717 0
387.119 7.00385 0
385.72 4.94319 0
386.987 4.86523 0
388.123 2.64848 0
390.656 2.49211 0
390.92 6.76938 0
388.386 6.92578 0
389.389 2.57034 0
390.788 4.63078 0
389.653 6.84763 0
388.254 4.78717 0
389.521 4.70902 0
390.656 2.49211 0
393.19 2.33537 0
393.454 6.61262 0
390.92 6.76938 0
391.923 2.41378 0
393.322 4.47404 0
392.187 6.69105 0
390.788 4.63078 0
392.055 4.55245 0
393.19 2.33537 0
395.723 2.17829 0
395.988 6.4555 0
393.454 6.61262 0
394.457 2.25687 0
395.856 4.31693 0
394.721 6.53411 0
393.322 4.47404 0
394.589 4.39553 0
395.723 2.17829 0
398.257 2.02085 0
398.522 6.29804 0
395.988 6.4555 0
396.99 2.09961 0
398.39 4.15949 0
397.255 6.37682 0
395.856 4.31693 0
397.123 4.23825 0
398.257 2.02085 0
400.79 1.86308 0
401.056 6.14025 0
398.522 6.29804 0
399.524 1.94201 0
400.923 4.0017 0
399.789 6.21919 0
398.39 4.15949 0
399.656 4.08063 0
400.79 1.86308 0
403.324 1.70498 0
403.59 5.98212 0
401.056 6.14025 0
402.057 1.78407 0
403.457 3.84359 0
402.323 6.06122 0
400.923 4.0017 0
402.19 3.92268 0
403.324 1.70498 0
405.857 1.54656 0
406.124 5.82367 0
403.59 5.98212 0
404.59 1.62581 0
405.991 3.68515 0
404.857 5.90294 0
403.457 3.84359 0
404.724 3.76441 0
405.857 1.54656 0
408.39 1.38783 0
408.658 5.66492 0
406.124 5.82367 0
407.124 1.46724 0
408.524 3.52641 0
407.391 5.74433 0
405.991 3.68515 0
407.257 3.60582 0
408.39 1.38783 0
410.924 1.2288 0
411.192 5.50586 0
408.658 5.66492 0
409.657 1.30835 0
411.058 3.36736 0
409.925 5.58542 0
408.524 3.52641 0
409.791 3.44692 0
410.924 1.2288 0
413.457 1.06947 0
413.726 5.3465 0
411.192 5.50586 0
412.19 1.14917 0
413.591 3.20802 0
412.459 5.42622 0
411.058 3.36736 0
412.325 3.28772 0
413.457 1.06947 0
415.99 0.909851 0
416.26 5.18686 0
413.726 5.3465 0
414.724 0.989695 0
416.125 3.04839 0
414.993 5.26672 0
413.591 3.20802 0
414.858 3.12824 0
415.99 0.909851 0
418.524 0.749956 0
418.793 5.02695 0
416.26 5.18686 0
417.257 0.829938 0
418.658 2.88848 0
417.526 5.10694 0
416.125 3.04839 0
417.392 2.96847 0
418.524 0.749956 0
421.057 0.589791 0
421.327 4.86676 0
418.793 5.02695 0
419.79 0.669907 0
421.192 2.72831 0
420.06 4.94689 0
418.658 2.88848 0
419.925 2.80843 0
421.057 0.589791 0
423.59 0.429365 0
423.861 4.70631 0
421.327 4.86676 0
422.324 0.50961 0
423.725 2.56787 0
422.594 4.78657 0
421.192 2.72831 0
422.459 2.64812 0
423.59 0.429365 0
426.123 0.268686 0
426.394 4.54562 0
423.861 4.70631 0
424.857 0.349057 0
426.259 2.40718 0
425.127 4.626 0
423.725 2.56787 0
424.992 2.48755 0
426.123 0.268686 0
428.656 0.107763 0
428.928 4.38467 0
426.394 4.54562 0
427.39 0.188255 0
428.792 2.24624 0
427.661 4.46518 0
426.259 2.40718 0
427.525 2.32674 0
428.656 0.107763 0
431.19 -0.0533965 0
431.461 4.2235 0
428.928 4.38467 0
429.923 0.0272122 0
431.325 2.08508 0
430.195 4.30412 0
428.792 2.24624 0
430.059 2.16569 0
431.19 -0.0533965 0
433.723 -0.214783 0
433.995 4.06209 0
431.461 4.2235 0
432.456 -0.134062 0
433.859 1.92368 0
432.728 4.14282 0
431.325 2.08508 0
432.592 2.00441 0
433.723 -0.214783 0
436.256 -0.376389 0
436.528 3.90047 0
433.995 4.06209 0
434.989 -0.295559 0
436.392 1.76206 0
435.262 3.98131 0
433.859 1.92368 0
435.125 1.8429 0
436.256 -0.376389 0
438.789 -0.538206 0
439.062 3.73864 0
436.528 3.90047 0
437.522 -0.457272 0
438.925 1.60024 0
437.795 3.81958 0
436.392 1.76206 0
437.659 1.68118 0
438.789 -0.538206 0
441.322 -0.700225 0
441.595 3.57661 0
439.062 3.73864 0
440.056 -0.619191 0
441.459 1.43821 0
440.328 3.65765 0
438.925 1.60024 0
440.192 1.51925 0
441.322 -0.700225 0
443.855 -0.862437 0
444.129 3.41438 0
441.595 3.57661 0
442.589 -0.781307 0
443.992 1.27599 0
442.862 3.49552 0
441.459 1.43821 0
442.725 1.35713 0
443.855 -0.862437 0
446.388 -1.02483 0
446.662 3.25197 0
444.129 3.41438 0
445.122 -0.943613 0
446.525 1.11359 0
445.395 3.3332 0
443.992 1.27599 0
445.258 1.19481 0
446.388 -1.02483 0
448.921 -1.18741 0
449.195 3.08939 0
446.662 3.25197 0
447.655 -1.1061 0
449.058 0.951007 0
447.929 3.1707 0
446.525 1.11359 0
447.792 1.03232 0
448.921 -1.18741 0
451.454 -1.35015 0
451.728 2.92663 0
449.195 3.08939 0
450.188 -1.26876 0
451.591 0.788258 0
450.462 3.00803 0
449.058 0.951007 0
450.325 0.869653 0
451.454 -1.35015 0
453.987 -1.51306 0
454.262 2.76372 0
451.728 2.92663 0
452.721 -1.43158 0
454.124 0.625349 0
452.995 2.8452 0
451.591 0.788258 0
452.858 0.706823 0
453.987 -1.51306 0
456.52 -1.67611 0
456.795 2.60066 0
454.262 2.76372 0
455.254 -1.59456 0
456.657 0.462289 0
455.528 2.68221 0
454.124 0.625349 0
455.391 0.543837 0
456.52 -1.67611 0
459.053 -1.83931 0
459.328 2.43745 0
456.795 2.60066 0
457.787 -1.75769 0
459.191 0.299087 0
458.061 2.51907 0
456.657 0.462289 0
457.924 0.380705 0
459.053 -1.83931 0
461.586 -2.00264 0
461.861 2.27411 0
459.328 2.43745 0
460.319 -1.92096 0
461.724 0.13575 0
460.595 2.3558 0
459.191 0.299087 0
460.457 0.217435 0
461.586 -2.00264 0
464.119 -2.1661 0
464.394 2.11065 0
461.861 2.27411 0
462.852 -2.08435 0
464.257 -0.0277123 0
463.128 2.19239 0
461.724 0.13575 0
462.99 0.054034 0
464.119 -2.1661 0
466.652 -2.32967 0
466.927 1.94707 0
464.394 2.11065 0
465.385 -2.24787 0
466.79 -0.191292 0
465.661 2.02887 0
464.257 -0.0277123 0
465.523 -0.109488 0
466.652 -2.32967 0
469.185 -2.49336 0
469.46 1.78338 0
466.927 1.94707 0
467.918 -2.4115 0
469.323 -0.35498 0
468.194 1.86523 0
466.79 -0.191292 0
468.056 -0.273123 0
469.185 -2.49336 0
471.717 -2.65715 0
471.994 1.61959 0
469.46 1.78338 0
470.451 -2.57524 0
471.855 -0.518769 0
470.727 1.70149 0
469.323 -0.35498 0
470.589 -0.436863 0
471.717 -2.65715 0
474.25 -2.82103 0
474.527 1.45571 0
471.994 1.61959 0
472.984 -2.73908 0
474.388 -0.68265 0
473.26 1.53766 0
471.855 -0.518769 0
473.122 -0.600699 0
474.25 -2.82103 0
476.783 -2.98499 0
477.06 1.29174 0
474.527 1.45571 0
475.517 -2.903 0
476.921 -0.846615 0
475.793 1.37373 0
474.388 -0.68265 0
475.655 -0.764623 0
476.783 -2.98499 0
479.316 -3.14903 0
479.592 1.1277 0
477.06 1.29174 0
478.05 -3.067 0
479.454 -1.01066 0
478.326 1.20973 0
476.921 -0.846615 0
478.188 -0.928626 0
479.316 -3.14903 0
481.849 -3.31314 0
482.125 0.963598 0
479.592 1.1277 0
480.582 -3.23108 0
481.987 -1.17476 0
480.859 1.04566 0
479.454 -1.01066 0
480.721 -1.0927 0
481.849 -3.31314 0
484.382 -3.47731 0
484.658 0.799434 0
482.125 0.963598 0
483.115 -3.39522 0
484.52 -1.33893 0
483.392 0.881523 0
481.987 -1.17476 0
483.254 -1.25684 0
484.382 -3.47731 0
486.914 -3.64153 0
487.191 0.635219 0
484.658 0.799434 0
485.648 -3.55941 0
487.053 -1.50315 0
485.925 0.717333 0
484.52 -1.33893 0
485.786 -1.42104 0
486.914 -3.64153 0
489.447 -3.80579 0
489.724 0.470959 0
487.191 0.635219 0
488.181 -3.72366 0
489.586 -1.66741 0
488.458 0.553094 0
487.053 -1.50315 0
488.319 -1.58528 0
489.447 -3.80579 0
491.98 -3.97009 0
492.257 0.306661 0
489.724 0.470959 0
490.714 -3.88794 0
492.118 -1.83171 0
490.99 0.388814 0
489.586 -1.66741 0
490.852 -1.74956 0
491.98 -3.97009 0
494.513 -4.13438 0
494.79 0.142334 0
492.257 0.306661 0
493.246 -4.05223 0
494.651 -1.99602 0
493.523 0.2245 0
492.118 -1.83171 0
493.385 -1.91386 0
494.513 -4.13438 0
497.045 -4.29864 0
497.322 -0.0219898 0
494.79 0.142334 0
495.779 -4.21652 0
497.184 -2.1603 0
496.056 0.0601687 0
494.651 -1.99602 0
495.918 -2.07817 0
497.045 -4.29864 0
499.578 -4.46281 0
499.855 -0.186244 0
497.322 -0.0219898 0
498.312 -4.38074 0
499.717 -2.3245 0
498.589 -0.104132 0
497.184 -2.1603 0
498.45 -2.24241 0
0 21.4286 0
2.54178 21.4282 0
2.54446 25.7125 0
0 25.7143 0
1.27083 21.4287 0
2.54307 23.5705 0
1.27214 25.7136 0
0 23.5714 0
1.2715 23.5712 0
2.54178 21.4282 0
5.08384 21.4257 0
5.08945 25.709 0
2.54446 25.7125 0
3.81279 21.4272 0
5.08655 23.5675 0
3.81693 25.7109 0
2.54307 23.5705 0
3.81477 23.5692 0
5.08384 21.4257 0
7.62607 21.4213 0
7.63451 25.7043 0
5.08945 25.709 0
6.35495 21.4237 0
7.63021 23.563 0
6.36198 25.7068 0
5.08655 23.5675 0
6.35837 23.5654 0
7.62607 21.4213 0
10.1683 21.4153 0
10.1795 25.6981 0
7.63451 25.7043 0
8.89721 21.4185 0
10.1739 23.5569 0
8.90702 25.7014 0
7.63021 23.563 0
8.90204 23.5601 0
10.1683 21.4153 0
12.7106 21.4076 0
12.7245 25.6904 0
10.1795 25.6981 0
11.4395 21.4116 0
12.7175 23.5492 0
11.452 25.6945 0
10.1739 23.5569 0
11.4457 23.5532 0
12.7106 21.4076 0
15.2528 21.3983 0
15.2694 25.6812 0
12.7245 25.6904 0
13.9817 21.4032 0
15.261 23.5399 0
13.9969 25.686 0
12.7175 23.5492 0
13.9893 23.5447 0
15.2528 21.3983 0
17.7949 21.3874 0
17.8142 25.6703 0
15.2694 25.6812 0
16.5239 21.3931 0
17.8045 23.529 0
16.5418 25.6759 0
15.261 23.5399 0
16.5328 23.5347 0
17.7949 21.3874 0
20.337 21.3749 0
20.359 25.6578 0
17.8142 25.6703 0
19.066 21.3814 0
20.348 23.5165 0
19.0866 25.6643 0
17.8045 23.529 0
19.0763 23.523 0
20.337 21.3749 0
22.8791 21.3608 0
22.9038 25.6437 0
20.359 25.6578 0
21.6081 21.3681 0
22.8914 23.5024 0
21.6314 25.651 0
20.348 23.5165 0
21.6197 23.5097 0
22.8791 21.3608 0
25.4212 21.3451 0
25.4485 25.628 0
22.9038 25.6437 0
24.1501 21.3532 0
25.4348 23.4868 0
24.1761 25.6361 0
22.8914 23.5024 0
24.1631 23.4948 0
25.4212 21.3451 0
27.9632 21.3279 0
27.9931 25.6108 0
25.4485 25.628 0
26.6922 21.3367 0
27.9781 23.4695 0
26.7208 25.6196 0
25.4348 23.4868 0
26.7065 23.4783 0
27.9632 21.3279 0
30.5051 21.309 0
30.5378 25.5919 0
27.9931 25.6108 0
29.2341 21.3186 0
30.5214 23.4506 0
29.2655 25.6015 0
27.9781 23.4695 0
29.2498 23.4603 0
30.5051 21.309 0
33.0471 21.2886 0
33.0823 25.5715 0
30.5378 25.5919 0
31.7761 21.299 0
33.0647 23.4302 0
31.8101 25.5819 0
30.5214 23.4506 0
31.7931 23.4406 0
33.0471 21.2886 0
35.589 21.2666 0
35.6269 25.5495 0
33.0823 25.5715 0
34.318 21.2778 0
35.6079 23.4082 0
34.3546 25.5607 0
33.0647 23.4302 0
34.3363 23.4194 0
35.589 21.2666 0
38.1308 21.2431 0
38.1713 25.526 0
35.6269 25.5495 0
36.8599 21.2551 0
38.1511 23.3847 0
36.8991 25.5379 0
35.6079 23.4082 0
36.8795 23.3967 0
38.1308 21.2431 0
40.6727 21.218 0
40.7158 25.5009 0
38.1713 25.526 0
39.4017 21.2308 0
40.6942 23.3596 0
39.4435 25.5136 0
38.1511 23.3847 0
39.4226 23.3724 0
40.6727 21.218 0
43.2144 21.1914 0
43.2601 25.4743 0
40.7158 25.5009 0
41.9436 21.2049 0
43.2373 23.333 0
41.9879 25.4878 0
40.6942 23.3596 0
41.9657 23.3465 0
43.2144 21.1914 0
45.7562 21.1633 0
45.8044 25.4461 0
43.2601 25.4743 0
44.4853 21.1776 0
45.7803 23.3049 0
44.5323 25.4604 0
43.2373 23.333 0
44.5088 23.3191 0
45.7562 21.1633 0
48.2979 21.1336 0
48.3487 25.4165 0
45.8044 25.4461 0
47.0271 21.1487 0
48.3233 23.2752 0
47.0766 25.4315 0
45.7803 23.3049 0
47.0518 23.2902 0
48.2979 21.1336 0
50.8396 21.1025 0
50.8929 25.3853 0
48.3487 25.4165 0
49.5688 21.1183 0
50.8662 23.244 0
49.6208 25.4011 0
48.3233 23.2752 0
49.5948 23.2598 0
50.8396 21.1025 0
53.3812 21.0698 0
53.4371 25.3526 0
50.8929 25.3853 0
52.1104 21.0863 0
53.4091 23.2114 0
52.165 25.3691 0
50.8662 23.244 0
52.1377 23.2279 0
53.3812 21.0698 0
55.9228 21.0357 0
55.9812 25.3184 0
53.4371 25.3526 0
54.652 21.0529 0
55.952 23.1772 0
54.7091 25.3357 0
53.4091 23.2114 0
54.6806 23.1945 0
55.9228 21.0357 0
58.4644 21 0
58.5252 25.2828 0
55.9812 25.3184 0
57.1936 21.018 0
58.4948 23.1416 0
57.2532 25.3008 0
55.952 23.1772 0
57.2234 23.1596 0
58.4644 21 0
61.0059 20.9629 0
61.0692 25.2457 0
58.5252 25.2828 0
59.7351 20.9817 0
61.0375 23.1044 0
59.7972 25.2644 0
58.4948 23.1416 0
59.7662 23.1232 0
61.0059 20.9629 0
63.5474 20.9243 0
63.6132 25.2071 0
61.0692 25.2457 0
62.2766 20.9438 0
63.5802 23.0659 0
62.3412 25.2265 0
61.0375 23.1044 0
62.3089 23.0853 0
63.5474 20.9243 0
66.0888 20.8843 0
66.157 25.167 0
63.6132 25.2071 0
64.8181 20.9045 0
66.1229 23.0258 0
64.8851 25.1872 0
63.5802 23.0659 0
64.8516 23.046 0
66.0888 20.8843 0
68.6302 20.8428 0
68.7008 25.1255 0
66.157 25.167 0
67.3595 20.8638 0
68.6655 22.9843 0
67.4289 25.1464 0
66.1229 23.0258 0
67.3942 23.0052 0
68.6302 20.8428 0
71.1715 20.7999 0
71.2446 25.0825 0
68.7008 25.1255 0
69.9008 20.8215 0
71.208 22.9414 0
69.9727 25.1042 0
68.6655 22.9843 0
69.9368 22.963 0
71.1715 20.7999 0
73.7128 20.7555 0
73.7883 25.0382 0
71.2446 25.0825 0
72.4421 20.7779 0
73.7505 22.897 0
72.5165 25.0605 0
71.208 22.9414 0
72.4793 22.9194 0
73.7128 20.7555 0
76.254 20.7098 0
76.3319 24.9923 0
73.7883 25.0382 0
74.9834 20.7328 0
76.293 22.8512 0
75.0601 25.0154 0
73.7505 22.897 0
75.0217 22.8743 0
76.254 20.7098 0
78.7952 20.6626 0
78.8755 24.9451 0
76.3319 24.9923 0
77.5246 20.6863 0
78.8353 22.804 0
77.6037 24.9689 0
76.293 22.8512 0
77.5642 22.8278 0
78.7952 20.6626 0
81.3364 20.614 0
81.419 24.8965 0
78.8755 24.9451 0
80.0658 20.6384 0
81.3777 22.7554 0
80.1473 24.921 0
78.8353 22.804 0
80.1065 22.7799 0
81.3364 20.614 0
83.8775 20.564 0
83.9625 24.8464 0
81.419 24.8965 0
82.6069 20.5891 0
83.9199 22.7054 0
82.6907 24.8716 0
81.3777 22.7554 0
82.6488 22.7305 0
83.8775 20.564 0
86.4185 20.5126 0
86.5058 24.795 0
83.9625 24.8464 0
85.148 20.5384 0
86.4622 22.6539 0
85.2342 24.8209 0
83.9199 22.7054 0
85.1911 22.6798 0
86.4185 20.5126 0
88.9595 20.4598 0
89.0492 24.7422 0
86.5058 24.795 0
87.689 20.4864 0
89.0043 22.6012 0
87.7775 24.7688 0
86.4622 22.6539 0
87.7333 22.6277 0
88.9595 20.4598 0
91.5005 20.4057 0
91.5924 24.688 0
89.0492 24.7422 0
90.23 20.4329 0
91.5464 22.547 0
90.3208 24.7153 0
89.0043 22.6012 0
90.2754 22.5742 0
91.5005 20.4057 0
94.0414 20.3501 0
94.1356 24.6325 0
91.5924 24.688 0
92.7709 20.3781 0
94.0885 22.4915 0
92.864 24.6604 0
91.5464 22.547 0
92.8175 22.5194 0
94.0414 20.3501 0
96.5822 20.2933 0
96.6787 24.5756 0
94.1356 24.6325 0
95.3118 20.3219 0
96.6305 22.4346 0
95.4072 24.6042 0
94.0885 22.4915 0
95.3595 22.4632 0
96.5822 20.2933 0
99.123 20.2351 0
99.2218 24.5173 0
96.6787 24.5756 0
97.8526 20.2643 0
99.1724 22.3764 0
97.9503 24.5466 0
96.6305 22.4346 0
97.9014 22.4056 0
99.123 20.2351 0
101.664 20.1755 0
101.765 24.4578 0
99.2218 24.5173 0
100.393 20.2055 0
101.714 22.3168 0
100.493 24.4877 0
99.1724 22.3764 0
100.443 22.3467 0
101.664 20.1755 0
104.204 20.1146 0
104.308 24.3968 0
101.765 24.4578 0
102.934 20.1452 0
104.256 22.2559 0
103.036 24.4275 0
101.714 22.3168 0
102.985 22.2865 0
104.204 20.1146 0
106.745 20.0524 0
106.851 24.3346 0
104.308 24.3968 0
105.475 20.0837 0
106.798 22.1937 0
105.579 24.3659 0
104.256 22.2559 0
105.527 22.2249 0
106.745 20.0524 0
109.286 19.9889 0
109.393 24.271 0
106.851 24.3346 0
108.015 20.0208 0
109.34 22.1301 0
108.122 24.303 0
106.798 22.1937 0
108.069 22.1621 0
109.286 19.9889 0
111.826 19.9241 0
111.936 24.2062 0
109.393 24.271 0
110.556 19.9567 0
111.881 22.0653 0
110.665 24.2388 0
109.34 22.1301 0
110.61 22.0979 0
111.826 19.9241 0
114.367 19.858 0
114.479 24.14 0
111.936 24.2062 0
113.096 19.8912 0
114.423 21.9991 0
113.207 24.1733 0
111.881 22.0653 0
113.152 22.0324 0
114.367 19.858 0
116.907 19.7906 0
117.021 24.0726 0
114.479 24.14 0
115.637 19.8244 0
116.964 21.9317 0
115.75 24.1065 0
114.423 21.9991 0
115.693 21.9656 0
116.907 19.7906 0
119.447 19.7219 0
119.564 24.0039 0
117.021 24.0726 0
118.177 19.7564 0
119.506 21.863 0
118.293 24.0384 0
116.964 21.9317 0
118.235 21.8975 0
119.447 19.7219 0
121.988 19.652 0
122.106 23.9339 0
119.564 24.0039 0
120.718 19.6871 0
122.047 21.793 0
120.835 23.969 0
119.506 21.863 0
120.776 21.8282 0
121.988 19.652 0
124.528 19.5807 0
124.649 23.8626 0
122.106 23.9339 0
123.258 19.6165 0
124.588 21.7218 0
123.377 23.8984 0
122.047 21.793 0
123.318 21.7576 0
124.528 19.5807 0
127.068 19.5083 0
127.191 23.7901 0
124.649 23.8626 0
125.798 19.5447 0
127.13 21.6493 0
125.92 23.8265 0
124.588 21.7218 0
125.859 21.6857 0
127.068 19.5083 0
129.608 19.4346 0
129.733 23.7163 0
127.191 23.7901 0
128.338 19.4716 0
129.671 21.5756 0
128.462 23.7534 0
127.13 21.6493 0
128.4 21.6126 0
129.608 19.4346 0
132.148 19.3596 0
132.275 23.6413 0
129.733 23.7163 0
130.878 19.3972 0
132.212 21.5006 0
131.004 23.679 0
129.671 21.5756 0
130.941 21.5382 0
132.148 19.3596 0
134.688 19.2834 0
134.817 23.5651 0
132.275 23.6413 0
133.418 19.3217 0
134.753 21.4244 0
133.546 23.6034 0
132.212 21.5006 0
133.482 21.4627 0
134.688 19.2834 0
137.228 19.206 0
137.359 23.4877 0
134.817 23.5651 0
135.958 19.2449 0
137.294 21.347 0
136.088 23.5265 0
134.753 21.4244 0
136.023 21.3858 0
137.228 19.206 0
139.768 19.1274 0
139.901 23.409 0
137.359 23.4877 0
138.498 19.1669 0
139.835 21.2683 0
138.63 23.4485 0
137.294 21.347 0
138.564 21.3078 0
139.768 19.1274 0
142.308 19.0476 0
142.443 23.3292 0
139.901 23.409 0
141.038 19.0877 0
142.376 21.1885 0
141.172 23.3692 0
139.835 21.2683 0
141.105 21.2286 0
142.308 19.0476 0
144.848 18.9666 0
144.985 23.2481 0
142.443 23.3292 0
143.578 19.0073 0
144.916 21.1075 0
143.714 23.2888 0
142.376 21.1885 0
143.646 21.1482 0
144.848 18.9666 0
147.388 18.8844 0
147.527 23.1659 0
144.985 23.2481 0
146.118 18.9257 0
147.457 21.0253 0
146.256 23.2071 0
144.916 21.1075 0
146.187 21.0665 0
147.388 18.8844 0
149.927 18.8011 0
150.068 23.0825 0
147.527 23.1659 0
148.658 18.8429 0
149.998 20.9419 0
148.798 23.1243 0
147.457 21.0253 0
148.728 20.9837 0
149.927 18.8011 0
152.467 18.7165 0
152.61 22.9979 0
150.068 23.0825 0
151.197 18.7589 0
152.538 20.8573 0
151.339 23.0403 0
149.998 20.9419 0
151.268 20.8998 0
152.467 18.7165 0
155.007 18.6308 0
155.152 22.9121 0
152.61 22.9979 0
153.737 18.6738 0
155.079 20.7716 0
153.881 22.9551 0
152.538 20.8573 0
153.809 20.8146 0
155.007 18.6308 0
157.546 18.544 0
157.693 22.8252 0
155.152 22.9121 0
156.276 18.5876 0
157.619 20.6847 0
156.422 22.8688 0
155.079 20.7716 0
156.349 20.7283 0
157.546 18.544 0
160.085 18.456 0
160.234 22.7372 0
157.693 22.8252 0
158.816 18.5001 0
160.16 20.5967 0
158.964 22.7814 0
157.619 20.6847 0
158.89 20.6409 0
160.085 18.456 0
162.625 18.3669 0
162.776 22.648 0
160.234 22.7372 0
161.355 18.4116 0
162.7 20.5076 0
161.505 22.6927 0
160.16 20.5967 0
161.43 20.5523 0
162.625 18.3669 0
165.164 18.2766 0
165.317 22.5577 0
162.776 22.648 0
163.894 18.3219 0
165.24 20.4173 0
164.046 22.603 0
162.7 20.5076 0
163.97 20.4626 0
165.164 18.2766 0
167.703 18.1853 0
167.858 22.4663 0
165.317 22.5577 0
166.434 18.2311 0
167.781 20.3259 0
166.587 22.5122 0
165.24 20.4173 0
166.511 20.3717 0
167.703 18.1853 0
170.243 18.0928 0
170.399 22.3738 0
167.858 22.4663 0
168.973 18.1392 0
170.321 20.2334 0
169.128 22.4202 0
167.781 20.3259 0
169.051 20.2798 0
170.243 18.0928 0
172.782 17.9992 0
172.94 22.2802 0
170.399 22.3738 0
171.512 18.0462 0
172.861 20.1398 0
171.669 22.3271 0
170.321 20.2334 0
171.591 20.1868 0
172.782 17.9992 0
175.321 17.9046 0
175.481 22.1854 0
172.94 22.2802 0
174.051 17.952 0
175.401 20.0451 0
174.21 22.2329 0
172.861 20.1398 0
174.131 20.0926 0
175.321 17.9046 0
177.86 17.8088 0
178.022 22.0896 0
175.481 22.1854 0
176.59 17.8568 0
177.941 19.9494 0
176.751 22.1377 0
175.401 20.0451 0
176.671 19.9974 0
177.86 17.8088 0
180.399 17.712 0
180.562 21.9928 0
178.022 22.0896 0
179.129 17.7606 0
180.48 19.8525 0
179.292 22.0413 0
177.941 19.9494 0
179.211 19.9011 0
180.399 17.712 0
182.938 17.6141 0
183.103 21.8948 0
180.562 21.9928 0
181.668 17.6632 0
183.02 19.7546 0
181.833 21.9439 0
180.48 19.8525 0
181.75 19.8037 0
182.938 17.6141 0
185.476 17.5152 0
185.644 21.7958 0
183.103 21.8948 0
184.207 17.5648 0
185.56 19.6556 0
184.373 21.8455 0
183.02 19.7546 0
184.29 19.7052 0
185.476 17.5152 0
188.015 17.4152 0
188.184 21.6958 0
185.644 21.7958 0
186.746 17.4653 0
188.1 19.5556 0
186.914 21.7459 0
185.56 19.6556 0
186.83 19.6057 0
188.015 17.4152 0
190.554 17.3142 0
190.725 21.5947 0
188.184 21.6958 0
189.284 17.3648 0
190.639 19.4545 0
189.454 21.6454 0
188.1 19.5556 0
189.369 19.5052 0
190.554 17.3142 0
193.092 17.2121 0
193.265 21.4926 0
190.725 21.5947 0
191.823 17.2633 0
193.179 19.3524 0
191.995 21.5438 0
190.639 19.4545 0
191.909 19.4036 0
193.092 17.2121 0
195.631 17.109 0
195.805 21.3894 0
193.265 21.4926 0
194.362 17.1607 0
195.718 19.2493 0
194.535 21.4411 0
193.179 19.3524 0
194.448 19.301 0
195.631 17.109 0
198.169 17.0049 0
198.345 21.2853 0
195.805 21.3894 0
196.9 17.0571 0
198.257 19.1452 0
197.075 21.3375 0
195.718 19.2493 0
196.988 19.1974 0
198.169 17.0049 0
200.708 16.8998 0
200.886 21.1801 0
198.345 21.2853 0
199.439 16.9525 0
200.797 19.0401 0
199.615 21.2328 0
198.257 19.1452 0
199.527 19.0928 0
200.708 16.8998 0
203.246 16.7937 0
203.426 21.0739 0
200.886 21.1801 0
201.977 16.8469 0
203.336 18.9339 0
202.156 21.1271 0
200.797 19.0401 0
202.066 18.9871 0
203.246 16.7937 0
205.785 16.6866 0
205.966 20.9668 0
203.426 21.0739 0
204.515 16.7403 0
205.875 18.8268 0
204.696 21.0205 0
203.336 18.9339 0
204.605 18.8805 0
205.785 16.6866 0
208.323 16.5785 0
208.505 20.8587 0
205.966 20.9668 0
207.054 16.6327 0
208.414 18.7187 0
207.235 20.9128 0
205.875 18.8268 0
207.145 18.7729 0
208.323 16.5785 0
210.861 16.4695 0
211.045 20.7495 0
208.505 20.8587 0
209.592 16.5241 0
210.953 18.6096 0
209.775 20.8042 0
208.414 18.7187 0
209.684 18.6643 0
210.861 16.4695 0
213.399 16.3594 0
213.585 20.6395 0
211.045 20.7495 0
212.13 16.4146 0
213.492 18.4996 0
212.315 20.6946 0
210.953 18.6096 0
212.223 18.5547 0
213.399 16.3594 0
215.937 16.2485 0
216.125 20.5285 0
213.585 20.6395 0
214.668 16.3041 0
216.031 18.3886 0
214.855 20.5841 0
213.492 18.4996 0
214.761 18.4442 0
215.937 16.2485 0
218.475 16.1366 0
218.664 20.4165 0
216.125 20.5285 0
217.206 16.1926 0
218.57 18.2766 0
217.394 20.4726 0
216.031 18.3886 0
217.3 18.3327 0
218.475 16.1366 0
221.013 16.0237 0
221.204 20.3036 0
218.664 20.4165 0
219.744 16.0802 0
221.108 18.1637 0
219.934 20.3601 0
218.57 18.2766 0
219.839 18.2203 0
221.013 16.0237 0
223.551 15.9099 0
223.743 20.1897 0
221.204 20.3036 0
222.282 15.9669 0
223.647 18.0499 0
222.473 20.2468 0
221.108 18.1637 0
222.378 18.1069 0
223.551 15.9099 0
226.089 15.7952 0
226.283 20.075 0
223.743 20.1897 0
224.82 15.8527 0
226.186 17.9352 0
225.013 20.1325 0
223.647 18.0499 0
224.916 17.9927 0
226.089 15.7952 0
228.627 15.6796 0
228.822 19.9593 0
226.283 20.075 0
227.358 15.7375 0
228.724 17.8195 0
227.552 20.0172 0
226.186 17.9352 0
227.455 17.8775 0
228.627 15.6796 0
231.164 15.5631 0
231.361 19.8427 0
228.822 19.9593 0
229.895 15.6214 0
231.263 17.703 0
230.091 19.9011 0
228.724 17.8195 0
229.993 17.7614 0
231.164 15.5631 0
233.702 15.4456 0
233.9 19.7252 0
231.361 19.8427 0
232.433 15.5045 0
233.801 17.5855 0
232.631 19.7841 0
231.263 17.703 0
232.532 17.6444 0
233.702 15.4456 0
236.239 15.3273 0
236.439 19.6069 0
233.9 19.7252 0
234.971 15.3866 0
236.339 17.4672 0
235.17 19.6662 0
233.801 17.5855 0
235.07 17.5265 0
236.239 15.3273 0
238.777 15.2081 0
238.978 19.4876 0
236.439 19.6069 0
237.508 15.2678 0
238.877 17.348 0
237.709 19.5474 0
236.339 17.4672 0
237.608 17.4077 0
238.777 15.2081 0
241.314 15.0881 0
241.517 19.3675 0
238.978 19.4876 0
240.046 15.1482 0
241.416 17.2279 0
240.248 19.4277 0
238.877 17.348 0
240.147 17.288 0
241.314 15.0881 0
243.852 14.9672 0
244.056 19.2465 0
241.517 19.3675 0
242.583 15.0277 0
243.954 17.1069 0
242.786 19.3071 0
241.416 17.2279 0
242.685 17.1675 0
243.852 14.9672 0
246.389 14.8454 0
246.595 19.1247 0
244.056 19.2465 0
245.12 14.9064 0
246.492 16.9851 0
245.325 19.1857 0
243.954 17.1069 0
245.223 17.0462 0
246.389 14.8454 0
248.926 14.7228 0
249.133 19.002 0
246.595 19.1247 0
247.658 14.7842 0
249.03 16.8625 0
247.864 19.0635 0
246.492 16.9851 0
247.761 16.9239 0
248.926 14.7228 0
251.463 14.5993 0
251.672 18.8785 0
249.133 19.002 0
250.195 14.6612 0
251.568 16.739 0
250.403 18.9404 0
249.03 16.8625 0
250.299 16.8009 0
251.463 14.5993 0
254 14.475 0
254.21 18.7542 0
251.672 18.8785 0
252.732 14.5373 0
254.105 16.6147 0
252.941 18.8165 0
251.568 16.739 0
252.837 16.677 0
254 14.475 0
256.538 14.3499 0
256.749 18.629 0
254.21 18.7542 0
255.269 14.4126 0
256.643 16.4896 0
255.48 18.6917 0
254.105 16.6147 0
255.374 16.5522 0
256.538 14.3499 0
259.075 14.224 0
259.287 18.5031 0
256.749 18.629 0
257.806 14.2871 0
259.181 16.3636 0
258.018 18.5662 0
256.643 16.4896 0
257.912 16.4267 0
259.075 14.224 0
261.611 14.0973 0
261.825 18.3763 0
259.287 18.5031 0
260.343 14.1608 0
261.718 16.2369 0
260.556 18.4398 0
259.181 16.3636 0
260.45 16.3004 0
261.611 14.0973 0
264.148 13.9698 0
264.364 18.2488 0
261.825 18.3763 0
262.88 14.0337 0
264.256 16.1094 0
263.095 18.3126 0
261.718 16.2369 0
262.987 16.1732 0
264.148 13.9698 0
266.685 13.8415 0
266.902 18.1204 0
264.364 18.2488 0
265.417 13.9058 0
266.793 15.981 0
265.633 18.1847 0
264.256 16.1094 0
265.525 16.0453 0
266.685 13.8415 0
269.222 13.7124 0
269.44 17.9913 0
266.902 18.1204 0
267.954 13.7771 0
269.331 15.8519 0
268.171 18.0559 0
266.793 15.981 0
268.062 15.9166 0
269.222 13.7124 0
271.759 13.5826 0
271.978 17.8614 0
269.44 17.9913 0
270.49 13.6476 0
271.868 15.7221 0
270.709 17.9264 0
269.331 15.8519 0
270.6 15.7871 0
271.759 13.5826 0
274.295 13.452 0
274.516 17.7307 0
271.978 17.8614 0
273.027 13.5174 0
274.405 15.5914 0
273.247 17.7962 0
271.868 15.7221 0
273.137 15.6569 0
274.295 13.452 0
276.832 13.3206 0
277.054 17.5993 0
274.516 17.7307 0
275.564 13.3864 0
276.943 15.4601 0
275.785 17.6651 0
274.405 15.5914 0
275.674 15.5259 0
276.832 13.3206 0
279.368 13.1885 0
279.591 17.4672 0
277.054 17.5993 0
278.1 13.2547 0
279.48 15.3279 0
278.322 17.5334 0
276.943 15.4601 0
278.211 15.3941 0
279.368 13.1885 0
281.905 13.0557 0
282.129 17.3343 0
279.591 17.4672 0
280.637 13.1222 0
282.017 15.1951 0
280.86 17.4008 0
279.48 15.3279 0
280.748 15.2616 0
281.905 13.0557 0
284.441 12.9222 0
284.667 17.2007 0
282.129 17.3343 0
283.173 12.989 0
284.554 15.0615 0
283.398 17.2676 0
282.017 15.1951 0
283.285 15.1284 0
284.441 12.9222 0
286.978 12.7879 0
287.204 17.0664 0
284.667 17.2007 0
285.709 12.8551 0
287.091 14.9272 0
285.935 17.1336 0
284.554 15.0615 0
285.822 14.9945 0
286.978 12.7879 0
289.514 12.6529 0
289.742 16.9314 0
287.204 17.0664 0
288.246 12.7205 0
289.628 14.7922 0
288.473 16.999 0
287.091 14.9272 0
288.359 14.8598 0
289.514 12.6529 0
292.05 12.5172 0
292.279 16.7956 0
289.742 16.9314 0
290.782 12.5852 0
292.164 14.6565 0
291.01 16.8636 0
289.628 14.7922 0
290.896 14.7244 0
292.05 12.5172 0
294.586 12.3808 0
294.816 16.6592 0
292.279 16.7956 0
293.318 12.4491 0
294.701 14.5201 0
293.548 16.7275 0
292.164 14.6565 0
293.433 14.5884 0
294.586 12.3808 0
297.122 12.2438 0
297.354 16.5221 0
294.816 16.6592 0
295.854 12.3124 0
297.238 14.383 0
296.085 16.5907 0
294.701 14.5201 0
295.97 14.4516 0
297.122 12.2438 0
299.658 12.1061 0
299.891 16.3843 0
297.354 16.5221 0
298.39 12.175 0
299.775 14.2453 0
298.622 16.4533 0
297.238 14.383 0
298.506 14.3142 0
299.658 12.1061 0
302.194 11.9677 0
302.428 16.2459 0
299.891 16.3843 0
300.926 12.0369 0
302.311 14.1068 0
301.159 16.3152 0
299.775 14.2453 0
301.043 14.1761 0
302.194 11.9677 0
304.73 11.8286 0
304.965 16.1068 0
302.428 16.2459 0
303.462 11.8982 0
304.848 13.9677 0
303.696 16.1764 0
302.311 14.1068 0
303.579 14.0374 0
304.73 11.8286 0
307.266 11.6889 0
307.502 15.967 0
304.965 16.1068 0
305.998 11.7588 0
307.384 13.828 0
306.233 16.037 0
304.848 13.9677 0
306.116 13.898 0
307.266 11.6889 0
309.802 11.5485 0
310.039 15.8266 0
307.502 15.967 0
308.534 11.6188 0
309.92 13.6876 0
308.77 15.8969 0
307.384 13.828 0
308.652 13.7579 0
309.802 11.5485 0
312.338 11.4075 0
312.576 15.6856 0
310.039 15.8266 0
311.07 11.4781 0
312.457 13.5466 0
311.307 15.7562 0
309.92 13.6876 0
311.188 13.6172 0
312.338 11.4075 0
314.873 11.2659 0
315.112 15.5439 0
312.576 15.6856 0
313.605 11.3368 0
314.993 13.405 0
313.844 15.6148 0
312.457 13.5466 0
313.725 13.4759 0
314.873 11.2659 0
317.409 11.1237 0
317.649 15.4017 0
315.112 15.5439 0
316.141 11.1949 0
317.529 13.2628 0
316.381 15.4729 0
314.993 13.405 0
316.261 13.334 0
317.409 11.1237 0
319.945 10.9809 0
320.186 15.2588 0
317.649 15.4017 0
318.677 11.0524 0
320.065 13.1199 0
318.917 15.3303 0
317.529 13.2628 0
318.797 13.1914 0
319.945 10.9809 0
322.48 10.8375 0
322.722 15.1153 0
320.186 15.2588 0
321.212 10.9092 0
322.601 12.9764 0
321.454 15.1871 0
320.065 13.1199 0
321.333 13.0482 0
322.48 10.8375 0
325.016 10.6934 0
325.259 14.9712 0
322.722 15.1153 0
323.748 10.7655 0
325.137 12.8324 0
323.99 15.0434 0
322.601 12.9764 0
323.869 12.9045 0
325.016 10.6934 0
327.551 10.5488 0
327.795 14.8266 0
325.259 14.9712 0
326.283 10.6212 0
327.673 12.6878 0
326.527 14.899 0
325.137 12.8324 0
326.405 12.7602 0
327.551 10.5488 0
330.086 10.4037 0
330.331 14.6814 0
327.795 14.8266 0
328.819 10.4763 0
330.209 12.5426 0
329.063 14.7541 0
327.673 12.6878 0
328.941 12.6153 0
330.086 10.4037 0
332.622 10.2579 0
332.868 14.5356 0
330.331 14.6814 0
331.354 10.3309 0
332.745 12.3968 0
331.599 14.6086 0
330.209 12.5426 0
331.477 12.4698 0
332.622 10.2579 0
335.157 10.1116 0
335.404 14.3893 0
332.868 14.5356 0
333.889 10.1848 0
335.28 12.2505 0
334.136 14.4625 0
332.745 12.3968 0
334.013 12.3237 0
335.157 10.1116 0
337.692 9.96477 0
337.94 14.2424 0
335.404 14.3893 0
336.425 10.0383 0
337.816 12.1036 0
336.672 14.3159 0
335.28 12.2505 0
336.548 12.1771 0
337.692 9.96477 0
340.227 9.81739 0
340.476 14.095 0
337.94 14.2424 0
338.96 9.89115 0
340.352 11.9562 0
339.208 14.1687 0
337.816 12.1036 0
339.084 12.03 0
340.227 9.81739 0
342.762 9.66947 0
343.012 13.947 0
340.476 14.095 0
341.495 9.74349 0
342.887 11.8083 0
341.744 14.021 0
340.352 11.9562 0
341.619 11.8823 0
342.762 9.66947 0
345.297 9.52103 0
345.548 13.7985 0
343.012 13.947 0
344.03 9.59531 0
345.423 11.6598 0
344.28 13.8728 0
342.887 11.8083 0
344.155 11.7341 0
345.297 9.52103 0
347.832 9.37208 0
348.084 13.6495 0
345.548 13.7985 0
346.565 9.44662 0
347.958 11.5109 0
346.816 13.7241 0
345.423 11.6598 0
346.69 11.5854 0
347.832 9.37208 0
350.367 9.22262 0
350.62 13.5 0
348.084 13.6495 0
349.1 9.29741 0
350.493 11.3614 0
349.352 13.5749 0
347.958 11.5109 0
349.226 11.4362 0
350.367 9.22262 0
352.902 9.07266 0
353.155 13.3501 0
350.62 13.5 0
351.635 9.1477 0
353.029 11.2114 0
351.887 13.4251 0
350.493 11.3614 0
351.761 11.2865 0
352.902 9.07266 0
355.437 8.92221 0
355.691 13.1996 0
353.155 13.3501 0
354.17 8.9975 0
355.564 11.0609 0
354.423 13.2749 0
353.029 11.2114 0
354.296 11.1362 0
355.437 8.92221 0
357.972 8.77129 0
358.227 13.0486 0
355.691 13.1996 0
356.705 8.84681 0
358.099 10.91 0
356.959 13.1242 0
355.564 11.0609 0
356.832 10.9855 0
357.972 8.77129 0
360.507 8.61989 0
360.762 12.8972 0
358.227 13.0486 0
359.239 8.69565 0
360.634 10.7586 0
359.494 12.973 0
358.099 10.91 0
359.367 10.8344 0
360.507 8.61989 0
363.041 8.46803 0
363.298 12.7453 0
360.762 12.8972 0
361.774 8.54402 0
363.169 10.6067 0
362.03 12.8213 0
360.634 10.7586 0
361.902 10.6827 0
363.041 8.46803 0
365.576 8.31571 0
365.833 12.5929 0
363.298 12.7453 0
364.309 8.39193 0
365.705 10.4544 0
364.565 12.6692 0
363.169 10.6067 0
364.437 10.5306 0
365.576 8.31571 0
368.111 8.16295 0
368.368 12.4401 0
365.833 12.5929 0
366.843 8.23938 0
368.239 10.3016 0
367.101 12.5166 0
365.705 10.4544 0
366.972 10.378 0
368.111 8.16295 0
370.645 8.00975 0
370.904 12.2869 0
368.368 12.4401 0
369.378 8.0864 0
370.774 10.1484 0
369.636 12.3636 0
368.239 10.3016 0
369.507 10.225 0
370.645 8.00975 0
373.18 7.85612 0
373.439 12.1333 0
370.904 12.2869 0
371.912 7.93298 0
373.309 9.99473 0
372.171 12.2101 0
370.774 10.1484 0
372.042 10.0716 0
373.18 7.85612 0
375.714 7.70206 0
375.974 11.9792 0
373.439 12.1333 0
374.447 7.77914 0
375.844 9.84067 0
374.706 12.0563 0
373.309 9.99473 0
374.577 9.91775 0
375.714 7.70206 0
378.249 7.5476 0
378.509 11.8247 0
375.974 11.9792 0
376.981 7.62488 0
378.379 9.68619 0
377.242 11.902 0
375.844 9.84067 0
377.111 9.76348 0
378.249 7.5476 0
380.783 7.39273 0
381.044 11.6698 0
378.509 11.8247 0
379.516 7.47022 0
380.914 9.5313 0
379.777 11.7473 0
378.379 9.68619 0
379.646 9.6088 0
380.783 7.39273 0
383.317 7.23747 0
383.579 11.5145 0
381.044 11.6698 0
382.05 7.31515 0
383.448 9.37603 0
382.312 11.5922 0
380.914 9.5313 0
382.181 9.45371 0
383.317 7.23747 0
385.852 7.08182 0
386.114 11.3588 0
383.579 11.5145 0
384.584 7.15969 0
385.983 9.22036 0
384.847 11.4367 0
383.448 9.37603 0
384.716 9.29824 0
385.852 7.08182 0
388.386 6.92578 0
388.649 11.2028 0
386.114 11.3588 0
387.119 7.00385 0
388.517 9.06432 0
387.382 11.2808 0
385.983 9.22036 0
387.25 9.14239 0
388.386 6.92578 0
390.92 6.76938 0
391.184 11.0463 0
388.649 11.2028 0
389.653 6.84763 0
391.052 8.9079 0
389.916 11.1246 0
388.517 9.06432 0
389.785 8.98616 0
390.92 6.76938 0
393.454 6.61262 0
393.719 10.8896 0
391.184 11.0463 0
392.187 6.69105 0
393.586 8.75113 0
392.451 10.968 0
391.052 8.9079 0
392.319 8.82956 0
393.454 6.61262 0
395.988 6.4555 0
396.253 10.7324 0
393.719 10.8896 0
394.721 6.53411 0
396.121 8.594 0
394.986 10.811 0
393.586 8.75113 0
394.854 8.67261 0
395.988 6.4555 0
398.522 6.29804 0
398.788 10.5749 0
396.253 10.7324 0
397.255 6.37682 0
398.655 8.43653 0
397.521 10.6537 0
396.121 8.594 0
397.388 8.51531 0
398.522 6.29804 0
401.056 6.14025 0
401.322 10.4171 0
398.788 10.5749 0
399.789 6.21919 0
401.189 8.27872 0
400.055 10.4961 0
398.655 8.43653 0
399.922 8.35766 0
401.056 6.14025 0
403.59 5.98212 0
403.857 10.259 0
401.322 10.4171 0
402.323 6.06122 0
403.724 8.12058 0
402.59 10.3381 0
401.189 8.27872 0
402.456 8.19969 0
403.59 5.98212 0
406.124 5.82367 0
406.391 10.1005 0
403.857 10.259 0
404.857 5.90294 0
406.258 7.96213 0
405.124 10.1798 0
403.724 8.12058 0
404.991 8.04139 0
406.124 5.82367 0
408.658 5.66492 0
408.926 9.94173 0
406.391 10.1005 0
407.391 5.74433 0
408.792 7.80336 0
407.659 10.0212 0
406.258 7.96213 0
407.525 7.88278 0
408.658 5.66492 0
411.192 5.50586 0
411.46 9.78266 0
408.926 9.94173 0
409.925 5.58542 0
411.326 7.64429 0
410.193 9.86223 0
408.792 7.80336 0
410.059 7.72386 0
411.192 5.50586 0
413.726 5.3465 0
413.995 9.62329 0
411.46 9.78266 0
412.459 5.42622 0
413.86 7.48493 0
412.727 9.70301 0
411.326 7.64429 0
412.593 7.56464 0
413.726 5.3465 0
416.26 5.18686 0
416.529 9.46363 0
413.995 9.62329 0
414.993 5.26672 0
416.394 7.32528 0
415.262 9.54349 0
413.86 7.48493 0
415.127 7.40514 0
416.26 5.18686 0
418.793 5.02695 0
419.063 9.3037 0
416.529 9.46363 0
417.526 5.10694 0
418.928 7.16535 0
417.796 9.3837 0
416.394 7.32528 0
417.661 7.24535 0
418.793 5.02695 0
421.327 4.86676 0
421.597 9.1435 0
419.063 9.3037 0
420.06 4.94689 0
421.462 7.00516 0
420.33 9.22363 0
418.928 7.16535 0
420.195 7.08529 0
421.327 4.86676 0
423.861 4.70631 0
424.131 8.98304 0
421.597 9.1435 0
422.594 4.78657 0
423.996 6.84471 0
422.864 9.0633 0
421.462 7.00516 0
422.729 6.92496 0
423.861 4.70631 0
426.394 4.54562 0
426.665 8.82233 0
424.131 8.98304 0
425.127 4.626 0
426.53 6.684 0
425.398 8.90271 0
423.996 6.84471 0
425.263 6.76438 0
426.394 4.54562 0
428.928 4.38467 0
429.199 8.66138 0
426.665 8.82233 0
427.661 4.46518 0
429.063 6.52305 0
427.932 8.74188 0
426.53 6.684 0
427.797 6.60356 0
428.928 4.38467 0
431.461 4.2235 0
431.733 8.50019 0
429.199 8.66138 0
430.195 4.30412 0
431.597 6.36187 0
430.466 8.58081 0
429.063 6.52305 0
430.33 6.44249 0
431.461 4.2235 0
433.995 4.06209 0
434.267 8.33877 0
431.733 8.50019 0
432.728 4.14282 0
434.131 6.20046 0
433 8.41951 0
431.597 6.36187 0
432.864 6.28119 0
433.995 4.06209 0
436.528 3.90047 0
436.801 8.17714 0
434.267 8.33877 0
435.262 3.98131 0
436.665 6.03883 0
435.534 8.25799 0
434.131 6.20046 0
435.398 6.11967 0
436.528 3.90047 0
439.062 3.73864 0
439.335 8.0153 0
436.801 8.17714 0
437.795 3.81958 0
439.198 5.877 0
438.068 8.09625 0
436.665 6.03883 0
437.931 5.95794 0
439.062 3.73864 0
441.595 3.57661 0
441.868 7.85327 0
439.335 8.0153 0
440.328 3.65765 0
441.732 5.71496 0
440.602 7.93431 0
439.198 5.877 0
440.465 5.796 0
441.595 3.57661 0
444.129 3.41438 0
444.402 7.69103 0
441.868 7.85327 0
442.862 3.49552 0
444.265 5.55273 0
443.135 7.77217 0
441.732 5.71496 0
442.999 5.63387 0
444.129 3.41438 0
446.662 3.25197 0
446.936 7.52862 0
444.402 7.69103 0
445.395 3.3332 0
446.799 5.39032 0
445.669 7.60985 0
444.265 5.55273 0
445.532 5.47154 0
446.662 3.25197 0
449.195 3.08939 0
449.469 7.36603 0
446.936 7.52862 0
447.929 3.1707 0
449.332 5.22773 0
448.203 7.44734 0
446.799 5.39032 0
448.066 5.30904 0
449.195 3.08939 0
451.728 2.92663 0
452.003 7.20327 0
449.469 7.36603 0
450.462 3.00803 0
451.866 5.06497 0
450.736 7.28467 0
449.332 5.22773 0
450.599 5.14637 0
451.728 2.92663 0
454.262 2.76372 0
454.536 7.04036 0
452.003 7.20327 0
452.995 2.8452 0
454.399 4.90206 0
453.27 7.12183 0
451.866 5.06497 0
453.132 4.98353 0
454.262 2.76372 0
456.795 2.60066 0
457.07 6.87729 0
454.536 7.04036 0
455.528 2.68221 0
456.932 4.73899 0
455.803 6.95884 0
454.399 4.90206 0
455.666 4.82054 0
456.795 2.60066 0
459.328 2.43745 0
459.603 6.71408 0
457.07 6.87729 0
458.061 2.51907 0
459.466 4.57578 0
458.337 6.7957 0
456.932 4.73899 0
458.199 4.6574 0
459.328 2.43745 0
461.861 2.27411 0
462.137 6.55075 0
459.603 6.71408 0
460.595 2.3558 0
461.999 4.41244 0
460.87 6.63243 0
459.466 4.57578 0
460.732 4.49413 0
461.861 2.27411 0
464.394 2.11065 0
464.67 6.38728 0
462.137 6.55075 0
463.128 2.19239 0
464.532 4.24898 0
463.403 6.46903 0
461.999 4.41244 0
463.266 4.33073 0
464.394 2.11065 0
466.927 1.94707 0
467.203 6.2237 0
464.67 6.38728 0
465.661 2.02887 0
467.065 4.0854 0
465.937 6.30551 0
464.532 4.24898 0
465.799 4.1672 0
466.927 1.94707 0
469.46 1.78338 0
469.736 6.06002 0
467.203 6.2237 0
468.194 1.86523 0
469.598 3.92171 0
468.47 6.14187 0
467.065 4.0854 0
468.332 4.00357 0
469.46 1.78338 0
471.994 1.61959 0
472.27 5.89623 0
469.736 6.06002 0
470.727 1.70149 0
472.132 3.75792 0
471.003 5.97814 0
469.598 3.92171 0
470.865 3.83983 0
471.994 1.61959 0
474.527 1.45571 0
474.803 5.73236 0
472.27 5.89623 0
473.26 1.53766 0
474.665 3.59404 0
473.536 5.8143 0
472.132 3.75792 0
473.398 3.67599 0
474.527 1.45571 0
477.06 1.29174 0
477.336 5.5684 0
474.803 5.73236 0
475.793 1.37373 0
477.198 3.43008 0
476.069 5.65039 0
474.665 3.59404 0
475.931 3.51207 0
477.06 1.29174 0
479.592 1.1277 0
479.869 5.40437 0
477.336 5.5684 0
478.326 1.20973 0
479.731 3.26605 0
478.603 5.48639 0
477.198 3.43008 0
478.464 3.34807 0
479.592 1.1277 0
482.125 0.963598 0
482.402 5.24027 0
479.869 5.40437 0
480.859 1.04566 0
482.264 3.10194 0
481.136 5.32233 0
479.731 3.26605 0
480.997 3.184 0
482.125 0.963598 0
484.658 0.799434 0
484.935 5.07612 0
482.402 5.24027 0
483.392 0.881523 0
484.797 2.93779 0
483.669 5.1582 0
482.264 3.10194 0
483.53 3.01987 0
484.658 0.799434 0
487.191 0.635219 0
487.468 4.91192 0
484.935 5.07612 0
485.925 0.717333 0
487.33 2.77358 0
486.202 4.99403 0
484.797 2.93779 0
486.063 2.85569 0
487.191 0.635219 0
489.724 0.470959 0
490.001 4.74768 0
487.468 4.91192 0
488.458 0.553094 0
489.862 2.60933 0
488.734 4.82981 0
487.33 2.77358 0
488.596 2.69146 0
489.724 0.470959 0
492.257 0.306661 0
492.534 4.58339 0
490.001 4.74768 0
490.99 0.388814 0
492.395 2.44503 0
491.267 4.66554 0
489.862 2.60933 0
491.129 2.52718 0
492.257 0.306661 0
494.79 0.142334 0
495.067 4.41903 0
492.534 4.58339 0
493.523 0.2245 0
494.928 2.28068 0
493.8 4.50122 0
492.395 2.44503 0
493.662 2.36286 0
494.79 0.142334 0
497.322 -0.0219898 0
497.599 4.25458 0
495.067 4.41903 0
496.056 0.0601687 0
497.461 2.11629 0
496.333 4.33682 0
494.928 2.28068 0
496.194 2.19849 0
497.322 -0.0219898 0
499.855 -0.186244 0
500.132 4.09005 0
497.599 4.25458 0
498.589 -0.104132 0
499.994 1.95194 0
498.866 4.17231 0
497.461 2.11629 0
498.727 2.0341 0
0 25.7143 0
2.54446 25.7125 0
2.5488 29.9946 0
0 30 0
1.27214 25.7136 0
2.54615 27.8539 0
1.27487 29.9966 0
0 27.8571 0
1.27289 27.8557 0
2.54446 25.7125 0
5.08945 25.709 0
5.09616 29.9906 0
2.5488 29.9946 0
3.81693 25.7109 0
5.09264 27.85 0
3.8225 29.9927 0
2.54615 27.8539 0
3.81942 27.852 0
5.08945 25.709 0
7.63451 25.7043 0
7.6436 29.9858 0
5.09616 29.9906 0
6.36198 25.7068 0
7.639 27.8452 0
6.36987 29.9884 0
5.09264 27.85 0
6.36583 27.8478 0
7.63451 25.7043 0
10.1795 25.6981 0
10.1911 29.9796 0
7.6436 29.9858 0
8.90702 25.7014 0
10.1853 27.839 0
8.91734 29.9829 0
7.639 27.8452 0
8.91215 27.8423 0
10.1795 25.6981 0
12.7245 25.6904 0
12.7387 29.972 0
10.1911 29.9796 0
11.452 25.6945 0
12.7315 27.8314 0
11.4649 29.976 0
10.1853 27.839 0
11.4584 27.8354 0
12.7245 25.6904 0
15.2694 25.6812 0
15.2862 29.9627 0
12.7387 29.972 0
13.9969 25.686 0
15.2778 27.8221 0
14.0124 29.9675 0
12.7315 27.8314 0
14.0047 27.8269 0
15.2694 25.6812 0
17.8142 25.6703 0
17.8337 29.9518 0
15.2862 29.9627 0
16.5418 25.6759 0
17.8239 27.8112 0
16.56 29.9575 0
15.2778 27.8221 0
16.5509 27.8169 0
17.8142 25.6703 0
20.359 25.6578 0
20.3812 29.9394 0
17.8337 29.9518 0
19.0866 25.6643 0
20.3701 27.7988 0
19.1075 29.9458 0
17.8239 27.8112 0
19.097 27.8052 0
20.359 25.6578 0
22.9038 25.6437 0
22.9286 29.9253 0
20.3812 29.9394 0
21.6314 25.651 0
22.9162 27.7847 0
21.6549 29.9325 0
20.3701 27.7988 0
21.6431 27.7919 0
22.9038 25.6437 0
25.4485 25.628 0
25.476 29.9096 0
22.9286 29.9253 0
24.1761 25.6361 0
25.4622 27.769 0
24.2023 29.9176 0
22.9162 27.7847 0
24.1892 27.777 0
25.4485 25.628 0
27.9931 25.6108 0
28.0234 29.8923 0
25.476 29.9096 0
26.7208 25.6196 0
28.0082 27.7517 0
26.7497 29.9012 0
25.4622 27.769 0
26.7352 27.7606 0
27.9931 25.6108 0
30.5378 25.5919 0
30.5706 29.8735 0
28.0234 29.8923 0
29.2655 25.6015 0
30.5542 27.7329 0
29.297 29.8831 0
28.0082 27.7517 0
29.2812 27.7425 0
30.5378 25.5919 0
33.0823 25.5715 0
33.1178 29.8531 0
30.5706 29.8735 0
31.8101 25.5819 0
33.1001 27.7124 0
31.8442 29.8635 0
30.5542 27.7329 0
31.8271 27.7229 0
33.0823 25.5715 0
35.6269 25.5495 0
35.665 29.8311 0
33.1178 29.8531 0
34.3546 25.5607 0
35.6459 27.6905 0
34.3914 29.8423 0
33.1001 27.7124 0
34.373 27.7016 0
35.6269 25.5495 0
38.1713 25.526 0
38.2121 29.8075 0
35.665 29.8311 0
36.8991 25.5379 0
38.1917 27.6669 0
36.9385 29.8195 0
35.6459 27.6905 0
36.9188 27.6789 0
38.1713 25.526 0
40.7158 25.5009 0
40.7591 29.7824 0
38.2121 29.8075 0
39.4435 25.5136 0
40.7374 27.6418 0
39.4856 29.7952 0
38.1917 27.6669 0
39.4645 27.6546 0
40.7158 25.5009 0
43.2601 25.4743 0
43.306 29.7558 0
40.7591 29.7824 0
41.9879 25.4878 0
43.283 27.6152 0
42.0326 29.7693 0
40.7374 27.6418 0
42.0102 27.6287 0
43.2601 25.4743 0
45.8044 25.4461 0
45.8529 29.7277 0
43.306 29.7558 0
44.5323 25.4604 0
45.8286 27.5871 0
44.5795 29.7419 0
43.283 27.6152 0
44.5558 27.6013 0
45.8044 25.4461 0
48.3487 25.4165 0
48.3997 29.698 0
45.8529 29.7277 0
47.0766 25.4315 0
48.3742 27.5574 0
47.1263 29.713 0
45.8286 27.5871 0
47.1014 27.5724 0
48.3487 25.4165 0
50.8929 25.3853 0
50.9465 29.6668 0
48.3997 29.698 0
49.6208 25.4011 0
50.9197 27.5262 0
49.6731 29.6826 0
48.3742 27.5574 0
49.6469 27.542 0
50.8929 25.3853 0
53.4371 25.3526 0
53.4931 29.6341 0
50.9465 29.6668 0
52.165 25.3691 0
53.4651 27.4935 0
52.2198 29.6507 0
50.9197 27.5262 0
52.1924 27.5101 0
53.4371 25.3526 0
55.9812 25.3184 0
56.0398 29.5999 0
53.4931 29.6341 0
54.7091 25.3357 0
56.0104 27.4594 0
54.7665 29.6172 0
53.4651 27.4935 0
54.7378 27.4766 0
55.9812 25.3184 0
58.5252 25.2828 0
58.5863 29.5643 0
56.0398 29.5999 0
57.2532 25.3008 0
58.5557 27.4237 0
57.313 29.5823 0
56.0104 27.4594 0
57.2831 27.4417 0
58.5252 25.2828 0
61.0692 25.2457 0
61.1328 29.5271 0
58.5863 29.5643 0
59.7972 25.2644 0
61.101 27.3865 0
59.8595 29.5459 0
58.5557 27.4237 0
59.8284 27.4053 0
61.0692 25.2457 0
63.6132 25.2071 0
63.6792 29.4885 0
61.1328 29.5271 0
62.3412 25.2265 0
63.6461 27.3479 0
62.406 29.508 0
61.101 27.3865 0
62.3735 27.3674 0
63.6132 25.2071 0
66.157 25.167 0
66.2255 29.4484 0
63.6792 29.4885 0
64.8851 25.1872 0
66.1912 27.3079 0
64.9523 29.4687 0
63.6461 27.3479 0
64.9187 27.3281 0
66.157 25.167 0
68.7008 25.1255 0
68.7717 29.4069 0
66.2255 29.4484 0
67.4289 25.1464 0
68.7363 27.2664 0
67.4986 29.4279 0
66.1912 27.3079 0
67.4637 27.2873 0
68.7008 25.1255 0
71.2446 25.0825 0
71.3179 29.3639 0
68.7717 29.4069 0
69.9727 25.1042 0
71.2812 27.2234 0
70.0448 29.3856 0
68.7363 27.2664 0
70.0087 27.2451 0
71.2446 25.0825 0
73.7883 25.0382 0
73.864 29.3195 0
71.3179 29.3639 0
72.5165 25.0605 0
73.8261 27.179 0
72.591 29.3419 0
71.2812 27.2234 0
72.5537 27.2014 0
73.7883 25.0382 0
76.3319 24.9923 0
76.41 29.2737 0
73.864 29.3195 0
75.0601 25.0154 0
76.371 27.1332 0
75.137 29.2968 0
73.8261 27.179 0
75.0985 27.1563 0
76.3319 24.9923 0
78.8755 24.9451 0
78.956 29.2265 0
76.41 29.2737 0
77.6037 24.9689 0
78.9157 27.0859 0
77.683 29.2503 0
76.371 27.1332 0
77.6433 27.1097 0
78.8755 24.9451 0
81.419 24.8965 0
81.5019 29.1778 0
78.956 29.2265 0
80.1473 24.921 0
81.4604 27.0373 0
80.2289 29.2023 0
78.9157 27.0859 0
80.1881 27.0618 0
81.419 24.8965 0
83.9625 24.8464 0
84.0477 29.1277 0
81.5019 29.1778 0
82.6907 24.8716 0
84.005 26.9872 0
82.7748 29.1529 0
81.4604 27.0373 0
82.7327 27.0124 0
83.9625 24.8464 0
86.5058 24.795 0
86.5934 29.0763 0
84.0477 29.1277 0
85.2342 24.8209 0
86.5496 26.9358 0
85.3205 29.1022 0
84.005 26.9872 0
85.2773 26.9617 0
86.5058 24.795 0
89.0492 24.7422 0
89.139 29.0235 0
86.5934 29.0763 0
87.7775 24.7688 0
89.0941 26.883 0
87.8662 29.0501 0
86.5496 26.9358 0
87.8218 26.9096 0
89.0492 24.7422 0
91.5924 24.688 0
91.6846 28.9693 0
89.139 29.0235 0
90.3208 24.7153 0
91.6385 26.8288 0
90.4118 28.9965 0
89.0941 26.883 0
90.3663 26.8561 0
91.5924 24.688 0
94.1356 24.6325 0
94.2301 28.9137 0
91.6846 28.9693 0
92.864 24.6604 0
94.1828 26.7732 0
92.9574 28.9416 0
91.6385 26.8288 0
92.9107 26.8012 0
94.1356 24.6325 0
96.6787 24.5756 0
96.7755 28.8568 0
94.2301 28.9137 0
95.4072 24.6042 0
96.7271 26.7163 0
95.5028 28.8854 0
94.1828 26.7732 0
95.455 26.7449 0
96.6787 24.5756 0
99.2218 24.5173 0
99.3208 28.7985 0
96.7755 28.8568 0
97.9503 24.5466 0
99.2713 26.6581 0
98.0482 28.8278 0
96.7271 26.7163 0
97.9992 26.6874 0
99.2218 24.5173 0
101.765 24.4578 0
101.866 28.7389 0
99.3208 28.7985 0
100.493 24.4877 0
101.815 26.5985 0
100.593 28.7688 0
99.2713 26.6581 0
100.543 26.6284 0
101.765 24.4578 0
104.308 24.3968 0
104.411 28.6779 0
101.866 28.7389 0
103.036 24.4275 0
104.359 26.5375 0
103.139 28.7085 0
101.815 26.5985 0
103.087 26.5681 0
104.308 24.3968 0
106.851 24.3346 0
106.956 28.6156 0
104.411 28.6779 0
105.579 24.3659 0
106.903 26.4753 0
105.684 28.6469 0
104.359 26.5375 0
105.631 26.5065 0
106.851 24.3346 0
109.393 24.271 0
109.501 28.552 0
106.956 28.6156 0
108.122 24.303 0
109.447 26.4117 0
108.229 28.584 0
106.903 26.4753 0
108.175 26.4436 0
109.393 24.271 0
111.936 24.2062 0
112.046 28.4871 0
109.501 28.552 0
110.665 24.2388 0
111.991 26.3468 0
110.774 28.5198 0
109.447 26.4117 0
110.719 26.3794 0
111.936 24.2062 0
114.479 24.14 0
114.591 28.421 0
112.046 28.4871 0
113.207 24.1733 0
114.535 26.2806 0
113.319 28.4542 0
111.991 26.3468 0
113.263 26.3139 0
114.479 24.14 0
117.021 24.0726 0
117.136 28.3535 0
114.591 28.421 0
115.75 24.1065 0
117.079 26.2132 0
115.863 28.3874 0
114.535 26.2806 0
115.807 26.2471 0
117.021 24.0726 0
119.564 24.0039 0
119.68 28.2847 0
117.136 28.3535 0
118.293 24.0384 0
119.622 26.1444 0
118.408 28.3193 0
117.079 26.2132 0
118.35 26.179 0
119.564 24.0039 0
122.106 23.9339 0
122.225 28.2147 0
119.68 28.2847 0
120.835 23.969 0
122.166 26.0744 0
120.953 28.2499 0
119.622 26.1444 0
120.894 26.1096 0
122.106 23.9339 0
124.649 23.8626 0
124.77 28.1434 0
122.225 28.2147 0
123.377 23.8984 0
124.709 26.0031 0
123.497 28.1792 0
122.166 26.0744 0
123.437 26.0389 0
124.649 23.8626 0
127.191 23.7901 0
127.314 28.0708 0
124.77 28.1434 0
125.92 23.8265 0
127.252 25.9306 0
126.042 28.1073 0
124.709 26.0031 0
125.981 25.967 0
127.191 23.7901 0
129.733 23.7163 0
129.858 27.997 0
127.314 28.0708 0
128.462 23.7534 0
129.796 25.8568 0
128.586 28.0341 0
127.252 25.9306 0
128.524 25.8939 0
129.733 23.7163 0
132.275 23.6413 0
132.402 27.922 0
129.858 27.997 0
131.004 23.679 0
132.339 25.7818 0
131.13 27.9597 0
129.796 25.8568 0
131.067 25.8195 0
132.275 23.6413 0
134.817 23.5651 0
134.947 27.8457 0
132.402 27.922 0
133.546 23.6034 0
134.882 25.7056 0
133.675 27.884 0
132.339 25.7818 0
133.61 25.7438 0
134.817 23.5651 0
137.359 23.4877 0
137.491 27.7683 0
134.947 27.8457 0
136.088 23.5265 0
137.425 25.6281 0
136.219 27.8072 0
134.882 25.7056 0
136.154 25.667 0
137.359 23.4877 0
139.901 23.409 0
140.035 27.6896 0
137.491 27.7683 0
138.63 23.4485 0
139.968 25.5494 0
138.763 27.7291 0
137.425 25.6281 0
138.697 25.5889 0
139.901 23.409 0
142.443 23.3292 0
142.579 27.6097 0
140.035 27.6896 0
141.172 23.3692 0
142.511 25.4695 0
141.307 27.6498 0
139.968 25.5494 0
141.239 25.5096 0
142.443 23.3292 0
144.985 23.2481 0
145.122 27.5286 0
142.579 27.6097 0
143.714 23.2888 0
145.054 25.3885 0
143.85 27.5693 0
142.511 25.4695 0
143.782 25.4291 0
144.985 23.2481 0
147.527 23.1659 0
147.666 27.4463 0
145.122 27.5286 0
146.256 23.2071 0
147.596 25.3062 0
146.394 27.4876 0
145.054 25.3885 0
146.325 25.3475 0
147.527 23.1659 0
150.068 23.0825 0
150.21 27.3628 0
147.666 27.4463 0
148.798 23.1243 0
150.139 25.2228 0
148.938 27.4047 0
147.596 25.3062 0
148.868 25.2646 0
150.068 23.0825 0
152.61 22.9979 0
152.753 27.2782 0
150.21 27.3628 0
151.339 23.0403 0
152.682 25.1382 0
151.481 27.3207 0
150.139 25.2228 0
151.41 25.1806 0
152.61 22.9979 0
155.152 22.9121 0
155.297 27.1924 0
152.753 27.2782 0
153.881 22.9551 0
155.224 25.0524 0
154.025 27.2355 0
152.682 25.1382 0
153.953 25.0954 0
155.152 22.9121 0
157.693 22.8252 0
157.84 27.1055 0
155.297 27.1924 0
156.422 22.8688 0
157.766 24.9655 0
156.568 27.1491 0
155.224 25.0524 0
156.495 25.0091 0
157.693 22.8252 0
160.234 22.7372 0
160.383 27.0174 0
157.84 27.1055 0
158.964 22.7814 0
160.309 24.8774 0
159.112 27.0616 0
157.766 24.9655 0
159.038 24.9216 0
160.234 22.7372 0
162.776 22.648 0
162.927 26.9282 0
160.383 27.0174 0
161.505 22.6927 0
162.851 24.7882 0
161.655 26.9729 0
160.309 24.8774 0
161.58 24.833 0
162.776 22.648 0
165.317 22.5577 0
165.47 26.8378 0
162.927 26.9282 0
164.046 22.603 0
165.393 24.6979 0
164.198 26.8831 0
162.851 24.7882 0
164.122 24.7432 0
165.317 22.5577 0
167.858 22.4663 0
168.013 26.7464 0
165.47 26.8378 0
166.587 22.5122 0
167.935 24.6065 0
166.741 26.7922 0
165.393 24.6979 0
166.664 24.6523 0
167.858 22.4663 0
170.399 22.3738 0
170.556 26.6538 0
168.013 26.7464 0
169.128 22.4202 0
170.477 24.5139 0
169.284 26.7002 0
167.935 24.6065 0
169.206 24.5603 0
170.399 22.3738 0
172.94 22.2802 0
173.098 26.5601 0
170.556 26.6538 0
171.669 22.3271 0
173.019 24.4203 0
171.827 26.6071 0
170.477 24.5139 0
171.748 24.4672 0
172.94 22.2802 0
175.481 22.1854 0
175.641 26.4654 0
173.098 26.5601 0
174.21 22.2329 0
175.561 24.3255 0
174.37 26.5129 0
173.019 24.4203 0
174.29 24.373 0
175.481 22.1854 0
178.022 22.0896 0
178.184 26.3695 0
175.641 26.4654 0
176.751 22.1377 0
178.103 24.2297 0
176.912 26.4176 0
175.561 24.3255 0
176.832 24.2777 0
178.022 22.0896 0
180.562 21.9928 0
180.726 26.2726 0
178.184 26.3695 0
179.292 22.0413 0
180.644 24.1328 0
179.455 26.3212 0
178.103 24.2297 0
179.373 24.1814 0
180.562 21.9928 0
183.103 21.8948 0
183.269 26.1746 0
180.726 26.2726 0
181.833 21.9439 0
183.186 24.0348 0
181.997 26.2237 0
180.644 24.1328 0
181.915 24.084 0
183.103 21.8948 0
185.644 21.7958 0
185.811 26.0756 0
183.269 26.1746 0
184.373 21.8455 0
185.727 23.9358 0
184.54 26.1252 0
183.186 24.0348 0
184.457 23.9855 0
185.644 21.7958 0
188.184 21.6958 0
188.353 25.9755 0
185.811 26.0756 0
186.914 21.7459 0
188.269 23.8357 0
187.082 26.0257 0
185.727 23.9358 0
186.998 23.8859 0
188.184 21.6958 0
190.725 21.5947 0
190.896 25.8743 0
188.353 25.9755 0
189.454 21.6454 0
190.81 23.7346 0
189.624 25.925 0
188.269 23.8357 0
189.539 23.7853 0
190.725 21.5947 0
193.265 21.4926 0
193.438 25.7722 0
190.896 25.8743 0
191.995 21.5438 0
193.351 23.6325 0
192.167 25.8234 0
190.81 23.7346 0
192.081 23.6837 0
193.265 21.4926 0
195.805 21.3894 0
195.98 25.669 0
193.438 25.7722 0
194.535 21.4411 0
195.892 23.5293 0
194.709 25.7207 0
193.351 23.6325 0
194.622 23.581 0
195.805 21.3894 0
198.345 21.2853 0
198.522 25.5648 0
195.98 25.669 0
197.075 21.3375 0
198.433 23.4251 0
197.251 25.617 0
195.892 23.5293 0
197.163 23.4773 0
198.345 21.2853 0
200.886 21.1801 0
201.063 25.4596 0
198.522 25.5648 0
199.615 21.2328 0
200.974 23.3199 0
199.792 25.5123 0
198.433 23.4251 0
199.704 23.3727 0
200.886 21.1801 0
203.426 21.0739 0
203.605 25.3533 0
201.063 25.4596 0
202.156 21.1271 0
203.515 23.2138 0
202.334 25.4066 0
200.974 23.3199 0
202.245 23.267 0
203.426 21.0739 0
205.966 20.9668 0
206.147 25.2461 0
203.605 25.3533 0
204.696 21.0205 0
206.056 23.1066 0
204.876 25.2999 0
203.515 23.2138 0
204.786 23.1603 0
205.966 20.9668 0
208.505 20.8587 0
208.688 25.138 0
206.147 25.2461 0
207.235 20.9128 0
208.597 22.9984 0
207.417 25.1922 0
206.056 23.1066 0
207.326 23.0526 0
208.505 20.8587 0
211.045 20.7495 0
211.23 25.0288 0
208.688 25.138 0
209.775 20.8042 0
211.137 22.8893 0
209.959 25.0835 0
208.597 22.9984 0
209.867 22.944 0
211.045 20.7495 0
213.585 20.6395 0
213.771 24.9187 0
211.23 25.0288 0
212.315 20.6946 0
213.678 22.7792 0
212.5 24.9739 0
211.137 22.8893 0
212.408 22.8344 0
213.585 20.6395 0
216.125 20.5285 0
216.312 24.8076 0
213.771 24.9187 0
214.855 20.5841 0
216.218 22.6681 0
215.042 24.8633 0
213.678 22.7792 0
214.948 22.7238 0
216.125 20.5285 0
218.664 20.4165 0
218.854 24.6956 0
216.312 24.8076 0
217.394 20.4726 0
218.759 22.5561 0
217.583 24.7517 0
216.218 22.6681 0
217.489 22.6123 0
218.664 20.4165 0
221.204 20.3036 0
221.395 24.5826 0
218.854 24.6956 0
219.934 20.3601 0
221.299 22.4432 0
220.124 24.6392 0
218.759 22.5561 0
220.029 22.4998 0
221.204 20.3036 0
223.743 20.1897 0
223.936 24.4687 0
221.395 24.5826 0
222.473 20.2468 0
223.839 22.3293 0
222.665 24.5258 0
221.299 22.4432 0
222.569 22.3864 0
223.743 20.1897 0
226.283 20.075 0
226.477 24.3539 0
223.936 24.4687 0
225.013 20.1325 0
226.379 22.2145 0
225.206 24.4115 0
223.839 22.3293 0
225.109 22.2721 0
226.283 20.075 0
228.822 19.9593 0
229.017 24.2382 0
226.477 24.3539 0
227.552 20.0172 0
228.92 22.0988 0
227.747 24.2962 0
226.379 22.2145 0
227.65 22.1568 0
228.822 19.9593 0
231.361 19.8427 0
231.558 24.1216 0
229.017 24.2382 0
230.091 19.9011 0
231.459 21.9822 0
230.288 24.18 0
228.92 22.0988 0
230.19 22.0407 0
231.361 19.8427 0
233.9 19.7252 0
234.099 24.0041 0
231.558 24.1216 0
232.631 19.7841 0
233.999 21.8647 0
232.828 24.0629 0
231.459 21.9822 0
232.729 21.9236 0
233.9 19.7252 0
236.439 19.6069 0
236.639 23.8856 0
234.099 24.0041 0
235.17 19.6662 0
236.539 21.7464 0
235.369 23.945 0
233.999 21.8647 0
235.269 21.8057 0
236.439 19.6069 0
238.978 19.4876 0
239.18 23.7664 0
236.639 23.8856 0
237.709 19.5474 0
239.079 21.6271 0
237.909 23.8261 0
236.539 21.7464 0
237.809 21.6868 0
238.978 19.4876 0
241.517 19.3675 0
241.72 23.6462 0
239.18 23.7664 0
240.248 19.4277 0
241.618 21.507 0
240.45 23.7064 0
239.079 21.6271 0
240.349 21.5671 0
241.517 19.3675 0
244.056 19.2465 0
244.26 23.5252 0
241.72 23.6462 0
242.786 19.3071 0
244.158 21.386 0
242.99 23.5858 0
241.618 21.507 0
242.888 21.4466 0
244.056 19.2465 0
246.595 19.1247 0
246.8 23.4033 0
244.26 23.5252 0
245.325 19.1857 0
246.697 21.2641 0
245.53 23.4643 0
244.158 21.386 0
245.428 21.3251 0
246.595 19.1247 0
249.133 19.002 0
249.341 23.2806 0
246.8 23.4033 0
247.864 19.0635 0
249.237 21.1414 0
248.071 23.3421 0
246.697 21.2641 0
247.967 21.2029 0
249.133 19.002 0
251.672 18.8785 0
251.881 23.157 0
249.341 23.2806 0
250.403 18.9404 0
251.776 21.0179 0
250.611 23.2189 0
249.237 21.1414 0
250.507 21.0797 0
251.672 18.8785 0
254.21 18.7542 0
254.42 23.0327 0
251.881 23.157 0
252.941 18.8165 0
254.315 20.8935 0
253.15 23.0949 0
251.776 21.0179 0
253.046 20.9558 0
254.21 18.7542 0
256.749 18.629 0
256.96 22.9075 0
254.42 23.0327 0
255.48 18.6917 0
256.854 20.7683 0
255.69 22.9702 0
254.315 20.8935 0
255.585 20.831 0
256.749 18.629 0
259.287 18.5031 0
259.5 22.7814 0
256.96 22.9075 0
258.018 18.5662 0
259.394 20.6423 0
258.23 22.8445 0
256.854 20.7683 0
258.124 20.7054 0
259.287 18.5031 0
261.825 18.3763 0
262.04 22.6546 0
259.5 22.7814 0
260.556 18.4398 0
261.932 20.5156 0
260.77 22.7181 0
259.394 20.6423 0
260.663 20.5791 0
261.825 18.3763 0
264.364 18.2488 0
264.579 22.527 0
262.04 22.6546 0
263.095 18.3126 0
264.471 20.388 0
263.309 22.5909 0
261.932 20.5156 0
263.202 20.4519 0
264.364 18.2488 0
266.902 18.1204 0
267.119 22.3986 0
264.579 22.527 0
265.633 18.1847 0
267.01 20.2596 0
265.849 22.4629 0
264.471 20.388 0
265.741 20.3239 0
266.902 18.1204 0
269.44 17.9913 0
269.658 22.2695 0
267.119 22.3986 0
268.171 18.0559 0
269.549 20.1305 0
268.388 22.3341 0
267.01 20.2596 0
268.28 20.1951 0
269.44 17.9913 0
271.978 17.8614 0
272.197 22.1395 0
269.658 22.2695 0
270.709 17.9264 0
272.088 20.0005 0
270.928 22.2046 0
269.549 20.1305 0
270.818 20.0656 0
271.978 17.8614 0
274.516 17.7307 0
274.736 22.0088 0
272.197 22.1395 0
273.247 17.7962 0
274.626 19.8699 0
273.467 22.0743 0
272.088 20.0005 0
273.357 19.9353 0
274.516 17.7307 0
277.054 17.5993 0
277.276 21.8774 0
274.736 22.0088 0
275.785 17.6651 0
277.165 19.7384 0
276.006 21.9432 0
274.626 19.8699 0
275.895 19.8042 0
277.054 17.5993 0
279.591 17.4672 0
279.815 21.7452 0
277.276 21.8774 0
278.322 17.5334 0
279.703 19.6063 0
278.545 21.8114 0
277.165 19.7384 0
278.434 19.6724 0
279.591 17.4672 0
282.129 17.3343 0
282.353 21.6123 0
279.815 21.7452 0
280.86 17.4008 0
282.241 19.4734 0
281.084 21.6788 0
279.703 19.6063 0
280.972 19.5399 0
282.129 17.3343 0
284.667 17.2007 0
284.892 21.4786 0
282.353 21.6123 0
283.398 17.2676 0
284.779 19.3397 0
283.623 21.5455 0
282.241 19.4734 0
283.51 19.4066 0
284.667 17.2007 0
287.204 17.0664 0
287.431 21.3443 0
284.892 21.4786 0
285.935 17.1336 0
287.318 19.2054 0
286.162 21.4115 0
284.779 19.3397 0
286.049 19.2727 0
287.204 17.0664 0
289.742 16.9314 0
289.97 21.2092 0
287.431 21.3443 0
288.473 16.999 0
289.856 19.0703 0
288.7 21.2768 0
287.318 19.2054 0
288.587 19.138 0
289.742 16.9314 0
292.279 16.7956 0
292.508 21.0734 0
289.97 21.2092 0
291.01 16.8636 0
292.394 18.9346 0
291.239 21.1414 0
289.856 19.0703 0
291.125 19.0026 0
292.279 16.7956 0
294.816 16.6592 0
295.047 20.9369 0
292.508 21.0734 0
293.548 16.7275 0
294.932 18.7981 0
293.778 21.0053 0
292.394 18.9346 0
293.663 18.8665 0
294.816 16.6592 0
297.354 16.5221 0
297.585 20.7998 0
295.047 20.9369 0
296.085 16.5907 0
297.469 18.661 0
296.316 20.8685 0
294.932 18.7981 0
296.2 18.7297 0
297.354 16.5221 0
299.891 16.3843 0
300.123 20.662 0
297.585 20.7998 0
298.622 16.4533 0
300.007 18.5232 0
298.854 20.731 0
297.469 18.661 0
298.738 18.5922 0
299.891 16.3843 0
302.428 16.2459 0
302.662 20.5235 0
300.123 20.662 0
301.159 16.3152 0
302.545 18.3847 0
301.393 20.5928 0
300.007 18.5232 0
301.276 18.4541 0
302.428 16.2459 0
304.965 16.1068 0
305.2 20.3843 0
302.662 20.5235 0
303.696 16.1764 0
305.082 18.2456 0
303.931 20.454 0
302.545 18.3847 0
303.814 18.3153 0
304.965 16.1068 0
307.502 15.967 0
307.738 20.2446 0
305.2 20.3843 0
306.233 16.037 0
307.62 18.1058 0
306.469 20.3145 0
305.082 18.2456 0
306.351 18.1758 0
307.502 15.967 0
310.039 15.8266 0
310.276 20.1041 0
307.738 20.2446 0
308.77 15.8969 0
310.157 17.9654 0
309.007 20.1744 0
307.62 18.1058 0
308.889 18.0357 0
310.039 15.8266 0
312.576 15.6856 0
312.814 19.9631 0
310.276 20.1041 0
311.307 15.7562 0
312.695 17.8244 0
311.545 20.0337 0
310.157 17.9654 0
311.426 17.895 0
312.576 15.6856 0
315.112 15.5439 0
315.352 19.8214 0
312.814 19.9631 0
313.844 15.6148 0
315.232 17.6827 0
314.083 19.8923 0
312.695 17.8244 0
313.963 17.7536 0
315.112 15.5439 0
317.649 15.4017 0
317.889 19.6791 0
315.352 19.8214 0
316.381 15.4729 0
317.769 17.5404 0
316.62 19.7503 0
315.232 17.6827 0
316.5 17.6116 0
317.649 15.4017 0
320.186 15.2588 0
320.427 19.5362 0
317.889 19.6791 0
318.917 15.3303 0
320.306 17.3975 0
319.158 19.6077 0
317.769 17.5404 0
319.038 17.4691 0
320.186 15.2588 0
322.722 15.1153 0
322.964 19.3926 0
320.427 19.5362 0
321.454 15.1871 0
322.843 17.254 0
321.696 19.4645 0
320.306 17.3975 0
321.575 17.3259 0
322.722 15.1153 0
325.259 14.9712 0
325.502 19.2485 0
322.964 19.3926 0
323.99 15.0434 0
325.38 17.11 0
324.233 19.3207 0
322.843 17.254 0
324.112 17.1821 0
325.259 14.9712 0
327.795 14.8266 0
328.039 19.1039 0
325.502 19.2485 0
326.527 14.899 0
327.917 16.9653 0
326.771 19.1763 0
325.38 17.11 0
326.649 17.0377 0
327.795 14.8266 0
330.331 14.6814 0
330.577 18.9586 0
328.039 19.1039 0
329.063 14.7541 0
330.454 16.8201 0
329.308 19.0313 0
327.917 16.9653 0
329.186 16.8928 0
330.331 14.6814 0
332.868 14.5356 0
333.114 18.8128 0
330.577 18.9586 0
331.599 14.6086 0
332.991 16.6743 0
331.845 18.8858 0
330.454 16.8201 0
331.722 16.7472 0
332.868 14.5356 0
335.404 14.3893 0
335.651 18.6664 0
333.114 18.8128 0
334.136 14.4625 0
335.527 16.5279 0
334.382 18.7397 0
332.991 16.6743 0
334.259 16.6012 0
335.404 14.3893 0
337.94 14.2424 0
338.188 18.5195 0
335.651 18.6664 0
336.672 14.3159 0
338.064 16.381 0
336.919 18.593 0
335.527 16.5279 0
336.796 16.4545 0
337.94 14.2424 0
340.476 14.095 0
340.725 18.3721 0
338.188 18.5195 0
339.208 14.1687 0
340.6 16.2336 0
339.456 18.4459 0
338.064 16.381 0
339.332 16.3074 0
340.476 14.095 0
343.012 13.947 0
343.262 18.2241 0
340.725 18.3721 0
341.744 14.021 0
343.137 16.0856 0
341.993 18.2981 0
340.6 16.2336 0
341.869 16.1597 0
343.012 13.947 0
345.548 13.7985 0
345.799 18.0756 0
343.262 18.2241 0
344.28 13.8728 0
345.673 15.9371 0
344.53 18.1499 0
343.137 16.0856 0
344.405 16.0114 0
345.548 13.7985 0
348.084 13.6495 0
348.335 17.9266 0
345.799 18.0756 0
346.816 13.7241 0
348.21 15.7881 0
347.067 18.0011 0
345.673 15.9371 0
346.941 15.8627 0
348.084 13.6495 0
350.62 13.5 0
350.872 17.777 0
348.335 17.9266 0
349.352 13.5749 0
350.746 15.6386 0
349.604 17.8519 0
348.21 15.7881 0
349.478 15.7134 0
350.62 13.5 0
353.155 13.3501 0
353.409 17.627 0
350.872 17.777 0
351.887 13.4251 0
353.282 15.4886 0
352.14 17.7021 0
350.746 15.6386 0
352.014 15.5637 0
353.155 13.3501 0
355.691 13.1996 0
355.945 17.4765 0
353.409 17.627 0
354.423 13.2749 0
355.818 15.3381 0
354.677 17.5518 0
353.282 15.4886 0
354.55 15.4134 0
355.691 13.1996 0
358.227 13.0486 0
358.481 17.3255 0
355.945 17.4765 0
356.959 13.1242 0
358.354 15.1871 0
357.213 17.4011 0
355.818 15.3381 0
357.086 15.2627 0
358.227 13.0486 0
360.762 12.8972 0
361.018 17.1741 0
358.481 17.3255 0
359.494 12.973 0
360.89 15.0357 0
359.75 17.2499 0
358.354 15.1871 0
359.622 15.1115 0
360.762 12.8972 0
363.298 12.7453 0
363.554 17.0221 0
361.018 17.1741 0
362.03 12.8213 0
363.426 14.8838 0
362.286 17.0982 0
360.89 15.0357 0
362.158 14.9598 0
363.298 12.7453 0
365.833 12.5929 0
366.09 16.8698 0
363.554 17.0221 0
364.565 12.6692 0
365.962 14.7314 0
364.822 16.946 0
363.426 14.8838 0
364.694 14.8076 0
365.833 12.5929 0
368.368 12.4401 0
368.626 16.717 0
366.09 16.8698 0
367.101 12.5166 0
368.497 14.5786 0
367.358 16.7934 0
365.962 14.7314 0
367.229 14.6551 0
368.368 12.4401 0
370.904 12.2869 0
371.162 16.5637 0
368.626 16.717 0
369.636 12.3636 0
371.033 14.4254 0
369.894 16.6404 0
368.497 14.5786 0
369.765 14.502 0
370.904 12.2869 0
373.439 12.1333 0
373.698 16.41 0
371.162 16.5637 0
372.171 12.2101 0
373.569 14.2717 0
372.43 16.4869 0
371.033 14.4254 0
372.301 14.3486 0
373.439 12.1333 0
375.974 11.9792 0
376.234 16.2559 0
373.698 16.41 0
374.706 12.0563 0
376.104 14.1176 0
374.966 16.333 0
373.569 14.2717 0
374.836 14.1947 0
375.974 11.9792 0
378.509 11.8247 0
378.77 16.1014 0
376.234 16.2559 0
377.242 11.902 0
378.64 13.9631 0
377.502 16.1787 0
376.104 14.1176 0
377.372 14.0404 0
378.509 11.8247 0
381.044 11.6698 0
381.306 15.9465 0
378.77 16.1014 0
379.777 11.7473 0
381.175 13.8082 0
380.038 16.024 0
378.64 13.9631 0
379.907 13.8857 0
381.044 11.6698 0
383.579 11.5145 0
383.841 15.7912 0
381.306 15.9465 0
382.312 11.5922 0
383.71 13.6529 0
382.574 15.8689 0
381.175 13.8082 0
382.443 13.7306 0
383.579 11.5145 0
386.114 11.3588 0
386.377 15.6355 0
383.841 15.7912 0
384.847 11.4367 0
386.245 13.4972 0
385.109 15.7134 0
383.71 13.6529 0
384.978 13.5751 0
386.114 11.3588 0
388.649 11.2028 0
388.912 15.4794 0
386.377 15.6355 0
387.382 11.2808 0
388.781 13.3411 0
387.645 15.5575 0
386.245 13.4972 0
387.513 13.4192 0
388.649 11.2028 0
391.184 11.0463 0
391.448 15.323 0
388.912 15.4794 0
389.916 11.1246 0
391.316 13.1847 0
390.18 15.4012 0
388.781 13.3411 0
390.048 13.263 0
391.184 11.0463 0
393.719 10.8896 0
393.983 15.1662 0
391.448 15.323 0
392.451 10.968 0
393.851 13.0279 0
392.716 15.2446 0
391.316 13.1847 0
392.583 13.1063 0
393.719 10.8896 0
396.253 10.7324 0
396.518 15.009 0
393.983 15.1662 0
394.986 10.811 0
396.386 12.8708 0
395.251 15.0876 0
393.851 13.0279 0
395.118 12.9494 0
396.253 10.7324 0
398.788 10.5749 0
399.054 14.8515 0
396.518 15.009 0
397.521 10.6537 0
398.921 12.7133 0
397.786 14.9303 0
396.386 12.8708 0
397.653 12.7921 0
398.788 10.5749 0
401.322 10.4171 0
401.589 14.6937 0
399.054 14.8515 0
400.055 10.4961 0
401.456 12.5554 0
400.321 14.7727 0
398.921 12.7133 0
400.188 12.6344 0
401.322 10.4171 0
403.857 10.259 0
404.124 14.5355 0
401.589 14.6937 0
402.59 10.3381 0
403.99 12.3973 0
402.856 14.6147 0
401.456 12.5554 0
402.723 12.4764 0
403.857 10.259 0
406.391 10.1005 0
406.659 14.3771 0
404.124 14.5355 0
405.124 10.1798 0
406.525 12.2388 0
405.391 14.4563 0
403.99 12.3973 0
405.258 12.3181 0
406.391 10.1005 0
408.926 9.94173 0
409.194 14.2183 0
406.659 14.3771 0
407.659 10.0212 0
409.06 12.08 0
407.926 14.2977 0
406.525 12.2388 0
407.792 12.1595 0
408.926 9.94173 0
411.46 9.78266 0
411.729 14.0592 0
409.194 14.2183 0
410.193 9.86223 0
411.594 11.921 0
410.461 14.1388 0
409.06 12.08 0
410.327 12.0005 0
411.46 9.78266 0
413.995 9.62329 0
414.263 13.8998 0
411.729 14.0592 0
412.727 9.70301 0
414.129 11.7616 0
412.996 13.9795 0
411.594 11.921 0
412.862 11.8413 0
413.995 9.62329 0
416.529 9.46363 0
416.798 13.7401 0
414.263 13.8998 0
415.262 9.54349 0
416.663 11.6019 0
415.531 13.82 0
414.129 11.7616 0
415.396 11.6818 0
416.529 9.46363 0
419.063 9.3037 0
419.333 13.5802 0
416.798 13.7401 0
417.796 9.3837 0
419.198 11.442 0
418.066 13.6602 0
416.663 11.6019 0
417.931 11.522 0
419.063 9.3037 0
421.597 9.1435 0
421.867 13.42 0
419.333 13.5802 0
420.33 9.22363 0
421.732 11.2818 0
420.6 13.5001 0
419.198 11.442 0
420.465 11.3619 0
421.597 9.1435 0
424.131 8.98304 0
424.402 13.2595 0
421.867 13.42 0
422.864 9.0633 0
424.267 11.1213 0
423.135 13.3398 0
421.732 11.2818 0
422.999 11.2016 0
424.131 8.98304 0
426.665 8.82233 0
426.936 13.0988 0
424.402 13.2595 0
425.398 8.90271 0
426.801 10.9606 0
425.669 13.1792 0
424.267 11.1213 0
425.534 11.041 0
426.665 8.82233 0
429.199 8.66138 0
429.471 12.9379 0
426.936 13.0988 0
427.932 8.74188 0
429.335 10.7996 0
428.204 13.0184 0
426.801 10.9606 0
428.068 10.8802 0
429.199 8.66138 0
431.733 8.50019 0
432.005 12.7767 0
429.471 12.9379 0
430.466 8.58081 0
431.869 10.6385 0
430.738 12.8573 0
429.335 10.7996 0
430.602 10.7191 0
431.733 8.50019 0
434.267 8.33877 0
434.539 12.6153 0
432.005 12.7767 0
433 8.41951 0
434.403 10.477 0
433.272 12.696 0
431.869 10.6385 0
433.136 10.5578 0
434.267 8.33877 0
436.801 8.17714 0
437.074 12.4536 0
434.539 12.6153 0
435.534 8.25799 0
436.937 10.3154 0
435.807 12.5345 0
434.403 10.477 0
435.67 10.3963 0
436.801 8.17714 0
439.335 8.0153 0
439.608 12.2918 0
437.074 12.4536 0
438.068 8.09625 0
439.471 10.1536 0
438.341 12.3727 0
436.937 10.3154 0
438.204 10.2345 0
439.335 8.0153 0
441.868 7.85327 0
442.142 12.1297 0
439.608 12.2918 0
440.602 7.93431 0
442.005 9.99153 0
440.875 12.2108 0
439.471 10.1536 0
440.738 10.0726 0
441.868 7.85327 0
444.402 7.69103 0
444.676 11.9675 0
442.142 12.1297 0
443.135 7.77217 0
444.539 9.82929 0
443.409 12.0486 0
442.005 9.99153 0
443.272 9.91043 0
444.402 7.69103 0
446.936 7.52862 0
447.21 11.8051 0
444.676 11.9675 0
445.669 7.60985 0
447.073 9.66688 0
445.943 11.8863 0
444.539 9.82929 0
445.806 9.74811 0
446.936 7.52862 0
449.469 7.36603 0
449.744 11.6425 0
447.21 11.8051 0
448.203 7.44734 0
449.607 9.50429 0
448.477 11.7238 0
447.073 9.66688 0
448.34 9.58561 0
449.469 7.36603 0
452.003 7.20327 0
452.278 11.4798 0
449.744 11.6425 0
450.736 7.28467 0
452.14 9.34153 0
451.011 11.5612 0
449.607 9.50429 0
450.873 9.42293 0
452.003 7.20327 0
454.536 7.04036 0
454.811 11.3168 0
452.278 11.4798 0
453.27 7.12183 0
454.674 9.17862 0
453.544 11.3983 0
452.14 9.34153 0
453.407 9.2601 0
454.536 7.04036 0
457.07 6.87729 0
457.345 11.1538 0
454.811 11.3168 0
455.803 6.95884 0
457.207 9.01556 0
456.078 11.2353 0
454.674 9.17862 0
455.941 9.09711 0
457.07 6.87729 0
459.603 6.71408 0
459.879 10.9906 0
457.345 11.1538 0
458.337 6.7957 0
459.741 8.85235 0
458.612 11.0722 0
457.207 9.01556 0
458.474 8.93397 0
459.603 6.71408 0
462.137 6.55075 0
462.412 10.8273 0
459.879 10.9906 0
460.87 6.63243 0
462.274 8.68902 0
461.146 10.9089 0
459.741 8.85235 0
461.008 8.7707 0
462.137 6.55075 0
464.67 6.38728 0
464.946 10.6638 0
462.412 10.8273 0
463.403 6.46903 0
464.808 8.52556 0
463.679 10.7455 0
462.274 8.68902 0
463.541 8.6073 0
464.67 6.38728 0
467.203 6.2237 0
467.479 10.5002 0
464.946 10.6638 0
465.937 6.30551 0
467.341 8.36198 0
466.213 10.582 0
464.808 8.52556 0
466.075 8.44378 0
467.203 6.2237 0
469.736 6.06002 0
470.013 10.3366 0
467.479 10.5002 0
468.47 6.14187 0
469.875 8.1983 0
468.746 10.4184 0
467.341 8.36198 0
468.608 8.28015 0
469.736 6.06002 0
472.27 5.89623 0
472.546 10.1728 0
470.013 10.3366 0
471.003 5.97814 0
472.408 8.03452 0
471.279 10.2547 0
469.875 8.1983 0
471.141 8.11642 0
472.27 5.89623 0
474.803 5.73236 0
475.079 10.0089 0
472.546 10.1728 0
473.536 5.8143 0
474.941 7.87065 0
473.813 10.0909 0
472.408 8.03452 0
473.674 7.95259 0
474.803 5.73236 0
477.336 5.5684 0
477.613 9.84497 0
475.079 10.0089 0
476.069 5.65039 0
477.474 7.7067 0
476.346 9.92695 0
474.941 7.87065 0
476.208 7.78868 0
477.336 5.5684 0
479.869 5.40437 0
480.146 9.68096 0
477.613 9.84497 0
478.603 5.48639 0
480.007 7.54267 0
478.879 9.76297 0
477.474 7.7067 0
478.741 7.62469 0
479.869 5.40437 0
482.402 5.24027 0
482.679 9.51688 0
480.146 9.68096 0
481.136 5.32233 0
482.541 7.37858 0
481.412 9.59892 0
480.007 7.54267 0
481.274 7.46064 0
482.402 5.24027 0
484.935 5.07612 0
485.212 9.35274 0
482.679 9.51688 0
483.669 5.1582 0
485.074 7.21444 0
483.946 9.43481 0
482.541 7.37858 0
483.807 7.29652 0
484.935 5.07612 0
487.468 4.91192 0
487.745 9.18855 0
485.212 9.35274 0
486.202 4.99403 0
487.607 7.05025 0
486.479 9.27065 0
485.074 7.21444 0
486.34 7.13235 0
487.468 4.91192 0
490.001 4.74768 0
490.278 9.02432 0
487.745 9.18855 0
488.734 4.82981 0
490.14 6.88601 0
489.012 9.10644 0
487.607 7.05025 0
488.873 6.96813 0
490.001 4.74768 0
492.534 4.58339 0
492.811 8.86004 0
490.278 9.02432 0
491.267 4.66554 0
492.672 6.72173 0
491.545 8.94219 0
490.14 6.88601 0
491.406 6.80388 0
492.534 4.58339 0
495.067 4.41903 0
495.344 8.69569 0
492.811 8.86004 0
493.8 4.50122 0
495.205 6.55737 0
494.078 8.77788 0
492.672 6.72173 0
493.939 6.63956 0
495.067 4.41903 0
497.599 4.25458 0
497.877 8.53118 0
495.344 8.69569 0
496.333 4.33682 0
497.738 6.39288 0
496.611 8.61346 0
495.205 6.55737 0
496.472 6.47516 0
497.599 4.25458 0
500.132 4.09005 0
500.41 8.366 0
497.877 8.53118 0
498.866 4.17231 0
500.271 6.22807 0
499.144 8.44878 0
497.738 6.39288 0
499.005 6.31052 0
      </DataArray>
    </Points>
    <Cells>
      <DataArray type="Int32" Name="connectivity" format="ascii">
0 1 2 3 4 5 6 7 8 
9 10 11 12 13 14 15 16 17 
18 19 20 21 22 23 24 25 26 
27 28 29 30 31 32 33 34 35 
36 37 38 39 40 41 42 43 44 
45 46 47 48 49 50 51 52 53 
54 55 56 57 58 59 60 61 62 
63 64 65 66 67 68 69 70 71 
72 73 74 75 76 77 78 79 80 
81 82 83 84 85 86 87 88 89 
90 91 92 93 94 95 96 97 98 
99 100 101 102 103 104 105 106 107 
108 109 110 111 112 113 114 115 116 
117 118 119 120 121 122 123 124 125 
126 127 128 129 130 131 132 133 134 
135 136 137 138 139 140 141 142 143 
144 145 146 147 148 149 150 151 152 
153 154 155 156 157 158 159 160 161 
162 163 164 165 166 167 168 169 170 
171 172 173 174 175 176 177 178 179 
180 181 182 183 184 185 186 187 188 
189 190 191 192 193 194 195 196 197 
198 199 200 201 202 203 204 205 206 
207 208 209 210 211 212 213 214 215 
216 217 218 219 220 221 222 223 224 
225 226 227 228 229 230 231 232 233 
234 235 236 237 238 239 240 241 242 
243 244 245 246 247 248 249 250 251 
252 253 254 255 256 257 258 259 260 
261 262 263 264 265 266 267 268 269 
270 271 272 273 274 275 276 277 278 
279 280 281 282 283 284 285 286 287 
288 289 290 291 292 293 294 295 296 
297 298 299 300 301 302 303 304 305 
306 307 308 309 310 311 312 313 314 
315 316 317 318 319 320 321 322 323 
324 325 326 327 328 329 330 331 332 
333 334 335 336 337 338 339 340 341 
342 343 344 345 346 347 348 349 350 
351 352 353 354 355 356 357 358 359 
360 361 362 363 364 365 366 367 368 
369 370 371 372 373 374 375 376 377 
378 379 380 381 382 383 384 385 386 
387 388 389 390 391 392 393 394 395 
396 397 398 399 400 401 402 403 404 
405 406 407 408 409 410 411 412 413 
414 415 416 417 418 419 420 421 422 
423 424 425 426 427 428 429 430 431 
432 433 434 435 436 437 438 439 440 
441 442 443 444 445 446 447 448 449 
450 451 452 453 454 455 456 457 458 
459 460 461 462 463 464 465 466 467 
468 469 470 471 472 473 474 475 476 
477 478 479 480 481 482 483 484 485 
486 487 488 489 490 491 492 493 494 
495 496 497 498 499 500 501 502 503 
504 505 506 507 508 509 510 511 512 
513 514 515 516 517 518 519 520 521 
522 523 524 525 526 527 528 529 530 
531 532 533 534 535 536 537 538 539 
540 541 542 543 544 545 546 547 548 
549 550 551 552 553 554 555 556 557 
558 559 560 561 562 563 564 565 566 
567 568 569 570 571 572 573 574 575 
576 577 578 579 580 581 582 583 584 
585 586 587 588 589 590 591 592 593 
594 595 596 597 598 599 600 601 602 
603 604 605 606 607 608 609 610 611 
612 613 614 615 616 617 618 619 620 
621 622 623 624 625 626 627 628 629 
630 631 632 633 634 635 636 637 638 
639 640 641 642 643 644 645 646 647 
648 649 650 651 652 653 654 655 656 
657 658 659 660 661 662 663 664 665 
666 667 668 669 670 671 672 673 674 
675 676 677 678 679 680 681 682 683 
684 685 686 687 688 689 690 691 692 
693 694 695 696 697 698 699 700 701 
702 703 704 705 706 707 708 709 710 
711 712 713 714 715 716 717 718 719 
720 721 722 723 724 725 726 727 728 
729 730 731 732 733 734 735 736 737 
738 739 740 741 742 743 744 745 746 
747 748 749 750 751 752 753 754 755 
756 757 758 759 760 761 762 763 764 
765 766 767 768 769 770 771 772 773 
774 775 776 777 778 779 780 781 782 
783 784 785 786 787 788 789 790 791 
792 793 794 795 796 797 798 799 800 
801 802 803 804 805 806 807 808 809 
810 811 812 813 814 815 816 817 818 
819 820 821 822 823 824 825 826 827 
828 829 830 831 832 833 834 835 836 
837 838 839 840 841 842 843 844 845 
846 847 848 849 850 851 852 853 854 
855 856 857 858 859 860 861 862 863 
864 865 866 867 868 869 870 871 872 
873 874 875 876 877 878 879 880 881 
882 883 884 885 886 887 888 889 890 
891 892 893 894 895 896 897 898 899 
900 901 902 903 904 905 906 907 908 
909 910 911 912 913 914 915 916 917 
918 919 920 921 922 923 924 925 926 
927 928 929 930 931 932 933 934 935 
936 937 938 939 940 941 942 943 944 
945 946 947 948 949 950 951 952 953 
954 955 956 957 958 959 960 961 962 
963 964 965 966 967 968 969 970 971 
972 973 974 975 976 977 978 979 980 
981 982 983 984 985 986 987 988 989 
990 991 992 993 994 995 996 997 998 
999 1000 1001 1002 1003 1004 1005 1006 1007 
1008 1009 1010 1011 1012 1013 1014 1015 1016 
1017 1018 1019 1020 1021 1022 1023 1024 1025 
1026 1027 1028 1029 1030 1031 1032 1033 1034 
1035 1036 1037 1038 1039 1040 1041 1042 1043 
1044 1045 1046 1047 1048 1049 1050 1051 1052 
1053 1054 1055 1056 1057 1058 1059 1060 1061 
1062 1063 1064 1065 1066 1067 1068 1069 1070 
1071 1072 1073 1074 1075 1076 1077 1078 1079 
1080 1081 1082 1083 1084 1085 1086 1087 1088 
1089 1090 1091 1092 1093 1094 1095 1096 1097 
1098 1099 1100 1101 1102 1103 1104 1105 1106 
1107 1108 1109 1110 1111 1112 1113 1114 1115 
1116 1117 1118 1119 1120 1121 1122 1123 1124 
1125 1126 1127 1128 1129 1130 1131 1132 1133 
1134 1135 1136 1137 1138 1139 1140 1141 1142 
1143 1144 1145 1146 1147 1148 1149 1150 1151 
1152 1153 1154 1155 1156 1157 1158 1159 1160 
1161 1162 1163 1164 1165 1166 1167 1168 1169 
1170 1171 1172 1173 1174 1175 1176 1177 1178 
1179 1180 1181 1182 1183 1184 1185 1186 1187 
1188 1189 1190 1191 1192 1193 1194 1195 1196 
1197 1198 1199 1200 1201 1202 1203 1204 1205 
1206 1207 1208 1209 1210 1211 1212 1213 1214 
1215 1216 1217 1218 1219 1220 1221 1222 1223 
1224 1225 1226 1227 1228 1229 1230 1231 1232 
1233 1234 1235 1236 1237 1238 1239 1240 1241 
1242 1243 1244 1245 1246 1247 1248 1249 1250 
1251 1252 1253 1254 1255 1256 1257 1258 1259 
1260 1261 1262 1263 1264 1265 1266 1267 1268 
1269 1270 1271 1272 1273 1274 1275 1276 1277 
1278 1279 1280 1281 1282 1283 1284 1285 1286 
1287 1288 1289 1290 1291 1292 1293 1294 1295 
1296 1297 1298 1299 1300 1301 1302 1303 1304 
1305 1306 1307 1308 1309 1310 1311 1312 1313 
1314 1315 1316 1317 1318 1319 1320 1321 1322 
1323 1324 1325 1326 1327 1328 1329 1330 1331 
1332 1333 1334 1335 1336 1337 1338 1339 1340 
1341 1342 1343 1344 1345 1346 1347 1348 1349 
1350 1351 1352 1353 1354 1355 1356 1357 1358 
1359 1360 1361 1362 1363 1364 1365 1366 1367 
1368 1369 1370 1371 1372 1373 1374 1375 1376 
1377 1378 1379 1380 1381 1382 1383 1384 1385 
1386 1387 1388 1389 1390 1391 1392 1393 1394 
1395 1396 1397 1398 1399 1400 1401 1402 1403 
1404 1405 1406 1407 1408 1409 1410 1411 1412 
1413 1414 1415 1416 1417 1418 1419 1420 1421 
1422 1423 1424 1425 1426 1427 1428 1429 1430 
1431 1432 1433 1434 1435 1436 1437 1438 1439 
1440 1441 1442 1443 1444 1445 1446 1447 1448 
1449 1450 1451 1452 1453 1454 1455 1456 1457 
1458 1459 1460 1461 1462 1463 1464 1465 1466 
1467 1468 1469 1470 1471 1472 1473 1474 1475 
1476 1477 1478 1479 1480 1481 1482 1483 1484 
1485 1486 1487 1488 1489 1490 1491 1492 1493 
1494 1495 1496 1497 1498 1499 1500 1501 1502 
1503 1504 1505 1506 1507 1508 1509 1510 1511 
1512 1513 1514 1515 1516 1517 1518 1519 1520 
1521 1522 1523 1524 1525 1526 1527 1528 1529 
1530 1531 1532 1533 1534 1535 1536 1537 1538 
1539 1540 1541 1542 1543 1544 1545 1546 1547 
1548 1549 1550 1551 1552 1553 1554 1555 1556 
1557 1558 1559 1560 1561 1562 1563 1564 1565 
1566 1567 1568 1569 1570 1571 1572 1573 1574 
1575 1576 1577 1578 1579 1580 1581 1582 1583 
1584 1585 1586 1587 1588 1589 1590 1591 1592 
1593 1594 1595 1596 1597 1598 1599 1600 1601 
1602 1603 1604 1605 1606 1607 1608 1609 1610 
1611 1612 1613 1614 1615 1616 1617 1618 1619 
1620 1621 1622 1623 1624 1625 1626 1627 1628 
1629 1630 1631 1632 1633 1634 1635 1636 1637 
1638 1639 1640 1641 1642 1643 1644 1645 1646 
1647 1648 1649 1650 1651 1652 1653 1654 1655 
1656 1657 1658 1659 1660 1661 1662 1663 1664 
1665 1666 1667 1668 1669 1670 1671 1672 1673 
1674 1675 1676 1677 1678 1679 1680 1681 1682 
1683 1684 1685 1686 1687 1688 1689 1690 1691 
1692 1693 1694 1695 1696 1697 1698 1699 1700 
1701 1702 1703 1704 1705 1706 1707 1708 1709 
1710 1711 1712 1713 1714 1715 1716 1717 1718 
1719 1720 1721 1722 1723 1724 1725 1726 1727 
1728 1729 1730 1731 1732 1733 1734 1735 1736 
1737 1738 1739 1740 1741 1742 1743 1744 1745 
1746 1747 1748 1749 1750 1751 1752 1753 1754 
1755 1756 1757 1758 1759 1760 1761 1762 1763 
1764 1765 1766 1767 1768 1769 1770 1771 1772 
1773 1774 1775 1776 1777 1778 1779 1780 1781 
1782 1783 1784 1785 1786 1787 1788 1789 1790 
1791 1792 1793 1794 1795 1796 1797 1798 1799 
1800 1801 1802 1803 1804 1805 1806 1807 1808 
1809 1810 1811 1812 1813 1814 1815 1816 1817 
1818 1819 1820 1821 1822 1823 1824 1825 1826 
1827 1828 1829 1830 1831 1832 1833 1834 1835 
1836 1837 1838 1839 1840 1841 1842 1843 1844 
1845 1846 1847 1848 1849 1850 1851 1852 1853 
1854 1855 1856 1857 1858 1859 1860 1861 1862 
1863 1864 1865 1866 1867 1868 1869 1870 1871 
1872 1873 1874 1875 1876 1877 1878 1879 1880 
1881 1882 1883 1884 1885 1886 1887 1888 1889 
1890 1891 1892 1893 1894 1895 1896 1897 1898 
1899 1900 1901 1902 1903 1904 1905 1906 1907 
1908 1909 1910 1911 1912 1913 1914 1915 1916 
1917 1918 1919 1920 1921 1922 1923 1924 1925 
1926 1927 1928 1929 1930 1931 1932 1933 1934 
1935 1936 1937 1938 1939 1940 1941 1942 1943 
1944 1945 1946 1947 1948 1949 1950 1951 1952 
1953 1954 1955 1956 1957 1958 1959 1960 1961 
1962 1963 1964 1965 1966 1967 1968 1969 1970 
1971 1972 1973 1974 1975 1976 1977 1978 1979 
1980 1981 1982 1983 1984 1985 1986 1987 1988 
1989 1990 1991 1992 1993 1994 1995 1996 1997 
1998 1999 2000 2001 2002 2003 2004 2005 2006 
2007 2008 2009 2010 2011 2012 2013 2014 2015 
2016 2017 2018 2019 2020 2021 2022 2023 2024 
2025 2026 2027 2028 2029 2030 2031 2032 2033 
2034 2035 2036 2037 2038 2039 2040 2041 2042 
2043 2044 2045 2046 2047 2048 2049 2050 2051 
2052 2053 2054 2055 2056 2057 2058 2059 2060 
2061 2062 2063 2064 2065 2066 2067 2068 2069 
2070 2071 2072 2073 2074 2075 2076 2077 2078 
2079 2080 2081 2082 2083 2084 2085 2086 2087 
2088 2089 2090 2091 2092 2093 2094 2095 2096 
2097 2098 2099 2100 2101 2102 2103 2104 2105 
2106 2107 2108 2109 2110 2111 2112 2113 2114 
2115 2116 2117 2118 2119 2120 2121 2122 2123 
2124 2125 2126 2127 2128 2129 2130 2131 2132 
2133 2134 2135 2136 2137 2138 2139 2140 2141 
2142 2143 2144 2145 2146 2147 2148 2149 2150 
2151 2152 2153 2154 2155 2156 2157 2158 2159 
2160 2161 2162 2163 2164 2165 2166 2167 2168 
2169 2170 2171 2172 2173 2174 2175 2176 2177 
2178 2179 2180 2181 2182 2183 2184 2185 2186 
2187 2188 2189 2190 2191 2192 2193 2194 2195 
2196 2197 2198 2199 2200 2201 2202 2203 2204 
2205 2206 2207 2208 2209 2210 2211 2212 2213 
2214 2215 2216 2217 2218 2219 2220 2221 2222 
2223 2224 2225 2226 2227 2228 2229 2230 2231 
2232 2233 2234 2235 2236 2237 2238 2239 2240 
2241 2242 2243 2244 2245 2246 2247 2248 2249 
2250 2251 2252 2253 2254 2255 2256 2257 2258 
2259 2260 2261 2262 2263 2264 2265 2266 2267 
2268 2269 2270 2271 2272 2273 2274 2275 2276 
2277 2278 2279 2280 2281 2282 2283 2284 2285 
2286 2287 2288 2289 2290 2291 2292 2293 2294 
2295 2296 2297 2298 2299 2300 2301 2302 2303 
2304 2305 2306 2307 2308 2309 2310 2311 2312 
2313 2314 2315 2316 2317 2318 2319 2320 2321 
2322 2323 2324 2325 2326 2327 2328 2329 2330 
2331 2332 2333 2334 2335 2336 2337 2338 2339 
2340 2341 2342 2343 2344 2345 2346 2347 2348 
2349 2350 2351 2352 2353 2354 2355 2356 2357 
2358 2359 2360 2361 2362 2363 2364 2365 2366 
2367 2368 2369 2370 2371 2372 2373 2374 2375 
2376 2377 2378 2379 2380 2381 2382 2383 2384 
2385 2386 2387 2388 2389 2390 2391 2392 2393 
2394 2395 2396 2397 2398 2399 2400 2401 2402 
2403 2404 2405 2406 2407 2408 2409 2410 2411 
2412 2413 2414 2415 2416 2417 2418 2419 2420 
2421 2422 2423 2424 2425 2426 2427 2428 2429 
2430 2431 2432 2433 2434 2435 2436 2437 2438 
2439 2440 2441 2442 2443 2444 2445 2446 2447 
2448 2449 2450 2451 2452 2453 2454 2455 2456 
2457 2458 2459 2460 2461 2462 2463 2464 2465 
2466 2467 2468 2469 2470 2471 2472 2473 2474 
2475 2476 2477 2478 2479 2480 2481 2482 2483 
2484 2485 2486 2487 2488 2489 2490 2491 2492 
2493 2494 2495 2496 2497 2498 2499 2500 2501 
2502 2503 2504 2505 2506 2507 2508 2509 2510 
2511 2512 2513 2514 2515 2516 2517 2518 2519 
2520 2521 2522 2523 2524 2525 2526 2527 2528 
2529 2530 2531 2532 2533 2534 2535 2536 2537 
2538 2539 2540 2541 2542 2543 2544 2545 2546 
2547 2548 2549 2550 2551 2552 2553 2554 2555 
2556 2557 2558 2559 2560 2561 2562 2563 2564 
2565 2566 2567 2568 2569 2570 2571 2572 2573 
2574 2575 2576 2577 2578 2579 2580 2581 2582 
2583 2584 2585 2586 2587 2588 2589 2590 2591 
2592 2593 2594 2595 2596 2597 2598 2599 2600 
2601 2602 2603 2604 2605 2606 2607 2608 2609 
2610 2611 2612 2613 2614 2615 2616 2617 2618 
2619 2620 2621 2622 2623 2624 2625 2626 2627 
2628 2629 2630 2631 2632 2633 2634 2635 2636 
2637 2638 2639 2640 2641 2642 2643 2644 2645 
2646 2647 2648 2649 2650 2651 2652 2653 2654 
2655 2656 2657 2658 2659 2660 2661 2662 2663 
2664 2665 2666 2667 2668 2669 2670 2671 2672 
2673 2674 2675 2676 2677 2678 2679 2680 2681 
2682 2683 2684 2685 2686 2687 2688 2689 2690 
2691 2692 2693 2694 2695 2696 2697 2698 2699 
2700 2701 2702 2703 2704 2705 2706 2707 2708 
2709 2710 2711 2712 2713 2714 2715 2716 2717 
2718 2719 2720 2721 2722 2723 2724 2725 2726 
2727 2728 2729 2730 2731 2732 2733 2734 2735 
2736 2737 2738 2739 2740 2741 2742 2743 2744 
2745 2746 2747 2748 2749 2750 2751 2752 2753 
2754 2755 2756 2757 2758 2759 2760 2761 2762 
2763 2764 2765 2766 2767 2768 2769 2770 2771 
2772 2773 2774 2775 2776 2777 2778 2779 2780 
2781 2782 2783 2784 2785 2786 2787 2788 2789 
2790 2791 2792 2793 2794 2795 2796 2797 2798 
2799 2800 2801 2802 2803 2804 2805 2806 2807 
2808 2809 2810 2811 2812 2813 2814 2815 2816 
2817 2818 2819 2820 2821 2822 2823 2824 2825 
2826 2827 2828 2829 2830 2831 2832 2833 2834 
2835 2836 2837 2838 2839 2840 2841 2842 2843 
2844 2845 2846 2847 2848 2849 2850 2851 2852 
2853 2854 2855 2856 2857 2858 2859 2860 2861 
2862 2863 2864 2865 2866 2867 2868 2869 2870 
2871 2872 2873 2874 2875 2876 2877 2878 2879 
2880 2881 2882 2883 2884 2885 2886 2887 2888 
2889 2890 2891 2892 2893 2894 2895 2896 2897 
2898 2899 2900 2901 2902 2903 2904 2905 2906 
2907 2908 2909 2910 2911 2912 2913 2914 2915 
2916 2917 2918 2919 2920 2921 2922 2923 2924 
2925 2926 2927 2928 2929 2930 2931 2932 2933 
2934 2935 2936 2937 2938 2939 2940 2941 2942 
2943 2944 2945 2946 2947 2948 2949 2950 2951 
2952 2953 2954 2955 2956 2957 2958 2959 2960 
2961 2962 2963 2964 2965 2966 2967 2968 2969 
2970 2971 2972 2973 2974 2975 2976 2977 2978 
2979 2980 2981 2982 2983 2984 2985 2986 2987 
2988 2989 2990 2991 2992 2993 2994 2995 2996 
2997 2998 2999 3000 3001 3002 3003 3004 3005 
3006 3007 3008 3009 3010 3011 3012 3013 3014 
3015 3016 3017 3018 3019 3020 3021 3022 3023 
3024 3025 3026 3027 3028 3029 3030 3031 3032 
3033 3034 3035 3036 3037 3038 3039 3040 3041 
3042 3043 3044 3045 3046 3047 3048 3049 3050 
3051 3052 3053 3054 3055 3056 3057 3058 3059 
3060 3061 3062 3063 3064 3065 3066 3067 3068 
3069 3070 3071 3072 3073 3074 3075 3076 3077 
3078 3079 3080 3081 3082 3083 3084 3085 3086 
3087 3088 3089 3090 3091 3092 3093 3094 3095 
3096 3097 3098 3099 3100 3101 3102 3103 3104 
3105 3106 3107 3108 3109 3110 3111 3112 3113 
3114 3115 3116 3117 3118 3119 3120 3121 3122 
3123 3124 3125 3126 3127 3128 3129 3130 3131 
3132 3133 3134 3135 3136 3137 3138 3139 3140 
3141 3142 3143 3144 3145 3146 3147 3148 3149 
3150 3151 3152 3153 3154 3155 3156 3157 3158 
3159 3160 3161 3162 3163 3164 3165 3166 3167 
3168 3169 3170 3171 3172 3173 3174 3175 3176 
3177 3178 3179 3180 3181 3182 3183 3184 3185 
3186 3187 3188 3189 3190 3191 3192 3193 3194 
3195 3196 3197 3198 3199 3200 3201 3202 3203 
3204 3205 3206 3207 3208 3209 3210 3211 3212 
3213 3214 3215 3216 3217 3218 3219 3220 3221 
3222 3223 3224 3225 3226 3227 3228 3229 3230 
3231 3232 3233 3234 3235 3236 3237 3238 3239 
3240 3241 3242 3243 3244 3245 3246 3247 3248 
3249 3250 3251 3252 3253 3254 3255 3256 3257 
3258 3259 3260 3261 3262 3263 3264 3265 3266 
3267 3268 3269 3270 3271 3272 3273 3274 3275 
3276 3277 3278 3279 3280 3281 3282 3283 3284 
3285 3286 3287 3288 3289 3290 3291 3292 3293 
3294 3295 3296 3297 3298 3299 3300 3301 3302 
3303 3304 3305 3306 3307 3308 3309 3310 3311 
3312 3313 3314 3315 3316 3317 3318 3319 3320 
3321 3322 3323 3324 3325 3326 3327 3328 3329 
3330 3331 3332 3333 3334 3335 3336 3337 3338 
3339 3340 3341 3342 3343 3344 3345 3346 3347 
3348 3349 3350 3351 3352 3353 3354 3355 3356 
3357 3358 3359 3360 3361 3362 3363 3364 3365 
3366 3367 3368 3369 3370 3371 3372 3373 3374 
3375 3376 3377 3378 3379 3380 3381 3382 3383 
3384 3385 3386 3387 3388 3389 3390 3391 3392 
3393 3394 3395 3396 3397 3398 3399 3400 3401 
3402 3403 3404 3405 3406 3407 3408 3409 3410 
3411 3412 3413 3414 3415 3416 3417 3418 3419 
3420 3421 3422 3423 3424 3425 3426 3427 3428 
3429 3430 3431 3432 3433 3434 3435 3436 3437 
3438 3439 3440 3441 3442 3443 3444 3445 3446 
3447 3448 3449 3450 3451 3452 3453 3454 3455 
3456 3457 3458 3459 3460 3461 3462 3463 3464 
3465 3466 3467 3468 3469 3470 3471 3472 3473 
3474 3475 3476 3477 3478 3479 3480 3481 3482 
3483 3484 3485 3486 3487 3488 3489 3490 3491 
3492 3493 3494 3495 3496 3497 3498 3499 3500 
3501 3502 3503 3504 3505 3506 3507 3508 3509 
3510 3511 3512 3513 3514 3515 3516 3517 3518 
3519 3520 3521 3522 3523 3524 3525 3526 3527 
3528 3529 3530 3531 3532 3533 3534 3535 3536 
3537 3538 3539 3540 3541 3542 3543 3544 3545 
3546 3547 3548 3549 3550 3551 3552 3553 3554 
3555 3556 3557 3558 3559 3560 3561 3562 3563 
3564 3565 3566 3567 3568 3569 3570 3571 3572 
3573 3574 3575 3576 3577 3578 3579 3580 3581 
3582 3583 3584 3585 3586 3587 3588 3589 3590 
3591 3592 3593 3594 3595 3596 3597 3598 3599 
3600 3601 3602 3603 3604 3605 3606 3607 3608 
3609 3610 3611 3612 3613 3614 3615 3616 3617 
3618 3619 3620 3621 3622 3623 3624 3625 3626 
3627 3628 3629 3630 3631 3632 3633 3634 3635 
3636 3637 3638 3639 3640 3641 3642 3643 3644 
3645 3646 3647 3648 3649 3650 3651 3652 3653 
3654 3655 3656 3657 3658 3659 3660 3661 3662 
3663 3664 3665 3666 3667 3668 3669 3670 3671 
3672 3673 3674 3675 3676 3677 3678 3679 3680 
3681 3682 3683 3684 3685 3686 3687 3688 3689 
3690 3691 3692 3693 3694 3695 3696 3697 3698 
3699 3700 3701 3702 3703 3704 3705 3706 3707 
3708 3709 3710 3711 3712 3713 3714 3715 3716 
3717 3718 3719 3720 3721 3722 3723 3724 3725 
3726 3727 3728 3729 3730 3731 3732 3733 3734 
3735 3736 3737 3738 3739 3740 3741 3742 3743 
3744 3745 3746 3747 3748 3749 3750 3751 3752 
3753 3754 3755 3756 3757 3758 3759 3760 3761 
3762 3763 3764 3765 3766 3767 3768 3769 3770 
3771 3772 3773 3774 3775 3776 3777 3778 3779 
3780 3781 3782 3783 3784 3785 3786 3787 3788 
3789 3790 3791 3792 3793 3794 3795 3796 3797 
3798 3799 3800 3801 3802 3803 3804 3805 3806 
3807 3808 3809 3810 3811 3812 3813 3814 3815 
3816 3817 3818 3819 3820 3821 3822 3823 3824 
3825 3826 3827 3828 3829 3830 3831 3832 3833 
3834 3835 3836 3837 3838 3839 3840 3841 3842 
3843 3844 3845 3846 3847 3848 3849 3850 3851 
3852 3853 3854 3855 3856 3857 3858 3859 3860 
3861 3862 3863 3864 3865 3866 3867 3868 3869 
3870 3871 3872 3873 3874 3875 3876 3877 3878 
3879 3880 3881 3882 3883 3884 3885 3886 3887 
3888 3889 3890 3891 3892 3893 3894 3895 3896 
3897 3898 3899 3900 3901 3902 3903 3904 3905 
3906 3907 3908 3909 3910 3911 3912 3913 3914 
3915 3916 3917 3918 3919 3920 3921 3922 3923 
3924 3925 3926 3927 3928 3929 3930 3931 3932 
3933 3934 3935 3936 3937 3938 3939 3940 3941 
3942 3943 3944 3945 3946 3947 3948 3949 3950 
3951 3952 3953 3954 3955 3956 3957 3958 3959 
3960 3961 3962 3963 3964 3965 3966 3967 3968 
3969 3970 3971 3972 3973 3974 3975 3976 3977 
3978 3979 3980 3981 3982 3983 3984 3985 3986 
3987 3988 3989 3990 3991 3992 3993 3994 3995 
3996 3997 3998 3999 4000 4001 4002 4003 4004 
4005 4006 4007 4008 4009 4010 4011 4012 4013 
4014 4015 4016 4017 4018 4019 4020 4021 4022 
4023 4024 4025 4026 4027 4028 4029 4030 4031 
4032 4033 4034 4035 4036 4037 4038 4039 4040 
4041 4042 4043 4044 4045 4046 4047 4048 4049 
4050 4051 4052 4053 4054 4055 4056 4057 4058 
4059 4060 4061 4062 4063 4064 4065 4066 4067 
4068 4069 4070 4071 4072 4073 4074 4075 4076 
4077 4078 4079 4080 4081 4082 4083 4084 4085 
4086 4087 4088 4089 4090 4091 4092 4093 4094 
4095 4096 4097 4098 4099 4100 4101 4102 4103 
4104 4105 4106 4107 4108 4109 4110 4111 4112 
4113 4114 4115 4116 4117 4118 4119 4120 4121 
4122 4123 4124 4125 4126 4127 4128 4129 4130 
4131 4132 4133 4134 4135 4136 4137 4138 4139 
4140 4141 4142 4143 4144 4145 4146 4147 4148 
4149 4150 4151 4152 4153 4154 4155 4156 4157 
4158 4159 4160 4161 4162 4163 4164 4165 4166 
4167 4168 4169 4170 4171 4172 4173 4174 4175 
4176 4177 4178 4179 4180 4181 4182 4183 4184 
4185 4186 4187 4188 4189 4190 4191 4192 4193 
4194 4195 4196 4197 4198 4199 4200 4201 4202 
4203 4204 4205 4206 4207 4208 4209 4210 4211 
4212 4213 4214 4215 4216 4217 4218 4219 4220 
4221 4222 4223 4224 4225 4226 4227 4228 4229 
4230 4231 4232 4233 4234 4235 4236 4237 4238 
4239 4240 4241 4242 4243 4244 4245 4246 4247 
4248 4249 4250 4251 4252 4253 4254 4255 4256 
4257 4258 4259 4260 4261 4262 4263 4264 4265 
4266 4267 4268 4269 4270 4271 4272 4273 4274 
4275 4276 4277 4278 4279 4280 4281 4282 4283 
4284 4285 4286 4287 4288 4289 4290 4291 4292 
4293 4294 4295 4296 4297 4298 4299 4300 4301 
4302 4303 4304 4305 4306 4307 4308 4309 4310 
4311 4312 4313 4314 4315 4316 4317 4318 4319 
4320 4321 4322 4323 4324 4325 4326 4327 4328 
4329 4330 4331 4332 4333 4334 4335 4336 4337 
4338 4339 4340 4341 4342 4343 4344 4345 4346 
4347 4348 4349 4350 4351 4352 4353 4354 4355 
4356 4357 4358 4359 4360 4361 4362 4363 4364 
4365 4366 4367 4368 4369 4370 4371 4372 4373 
4374 4375 4376 4377 4378 4379 4380 4381 4382 
4383 4384 4385 4386 4387 4388 4389 4390 4391 
4392 4393 4394 4395 4396 4397 4398 4399 4400 
4401 4402 4403 4404 4405 4406 4407 4408 4409 
4410 4411 4412 4413 4414 4415 4416 4417 4418 
4419 4420 4421 4422 4423 4424 4425 4426 4427 
4428 4429 4430 4431 4432 4433 4434 4435 4436 
4437 4438 4439 4440 4441 4442 4443 4444 4445 
4446 4447 4448 4449 4450 4451 4452 4453 4454 
4455 4456 4457 4458 4459 4460 4461 4462 4463 
4464 4465 4466 4467 4468 4469 4470 4471 4472 
4473 4474 4475 4476 4477 4478 4479 4480 4481 
4482 4483 4484 4485 4486 4487 4488 4489 4490 
4491 4492 4493 4494 4495 4496 4497 4498 4499 
4500 4501 4502 4503 4504 4505 4506 4507 4508 
4509 4510 4511 4512 4513 4514 4515 4516 4517 
4518 4519 4520 4521 4522 4523 4524 4525 4526 
4527 4528 4529 4530 4531 4532 4533 4534 4535 
4536 4537 4538 4539 4540 4541 4542 4543 4544 
4545 4546 4547 4548 4549 4550 4551 4552 4553 
4554 4555 4556 4557 4558 4559 4560 4561 4562 
4563 4564 4565 4566 4567 4568 4569 4570 4571 
4572 4573 4574 4575 4576 4577 4578 4579 4580 
4581 4582 4583 4584 4585 4586 4587 4588 4589 
4590 4591 4592 4593 4594 4595 4596 4597 4598 
4599 4600 4601 4602 4603 4604 4605 4606 4607 
4608 4609 4610 4611 4612 4613 4614 4615 4616 
4617 4618 4619 4620 4621 4622 4623 4624 4625 
4626 4627 4628 4629 4630 4631 4632 4633 4634 
4635 4636 4637 4638 4639 4640 4641 4642 4643 
4644 4645 4646 4647 4648 4649 4650 4651 4652 
4653 4654 4655 4656 4657 4658 4659 4660 4661 
4662 4663 4664 4665 4666 4667 4668 4669 4670 
4671 4672 4673 4674 4675 4676 4677 4678 4679 
4680 4681 4682 4683 4684 4685 4686 4687 4688 
4689 4690 4691 4692 4693 4694 4695 4696 4697 
4698 4699 4700 4701 4702 4703 4704 4705 4706 
4707 4708 4709 4710 4711 4712 4713 4714 4715 
4716 4717 4718 4719 4720 4721 4722 4723 4724 
4725 4726 4727 4728 4729 4730 4731 4732 4733 
4734 4735 4736 4737 4738 4739 4740 4741 4742 
4743 4744 4745 4746 4747 4748 4749 4750 4751 
4752 4753 4754 4755 4756 4757 4758 4759 4760 
4761 4762 4763 4764 4765 4766 4767 4768 4769 
4770 4771 4772 4773 4774 4775 4776 4777 4778 
4779 4780 4781 4782 4783 4784 4785 4786 4787 
4788 4789 4790 4791 4792 4793 4794 4795 4796 
4797 4798 4799 4800 4801 4802 4803 4804 4805 
4806 4807 4808 4809 4810 4811 4812 4813 4814 
4815 4816 4817 4818 4819 4820 4821 4822 4823 
4824 4825 4826 4827 4828 4829 4830 4831 4832 
4833 4834 4835 4836 4837 4838 4839 4840 4841 
4842 4843 4844 4845 4846 4847 4848 4849 4850 
4851 4852 4853 4854 4855 4856 4857 4858 4859 
4860 4861 4862 4863 4864 4865 4866 4867 4868 
4869 4870 4871 4872 4873 4874 4875 4876 4877 
4878 4879 4880 4881 4882 4883 4884 4885 4886 
4887 4888 4889 4890 4891 4892 4893 4894 4895 
4896 4897 4898 4899 4900 4901 4902 4903 4904 
4905 4906 4907 4908 4909 4910 4911 4912 4913 
4914 4915 4916 4917 4918 4919 4920 4921 4922 
4923 4924 4925 4926 4927 4928 4929 4930 4931 
4932 4933 4934 4935 4936 4937 4938 4939 4940 
4941 4942 4943 4944 4945 4946 4947 4948 4949 
4950 4951 4952 4953 4954 4955 4956 4957 4958 
4959 4960 4961 4962 4963 4964 4965 4966 4967 
4968 4969 4970 4971 4972 4973 4974 4975 4976 
4977 4978 4979 4980 4981 4982 4983 4984 4985 
4986 4987 4988 4989 4990 4991 4992 4993 4994 
4995 4996 4997 4998 4999 5000 5001 5002 5003 
5004 5005 5006 5007 5008 5009 5010 5011 5012 
5013 5014 5015 5016 5017 5018 5019 5020 5021 
5022 5023 5024 5025 5026 5027 5028 5029 5030 
5031 5032 5033 5034 5035 5036 5037 5038 5039 
5040 5041 5042 5043 5044 5045 5046 5047 5048 
5049 5050 5051 5052 5053 5054 5055 5056 5057 
5058 5059 5060 5061 5062 5063 5064 5065 5066 
5067 5068 5069 5070 5071 5072 5073 5074 5075 
5076 5077 5078 5079 5080 5081 5082 5083 5084 
5085 5086 5087 5088 5089 5090 5091 5092 5093 
5094 5095 5096 5097 5098 5099 5100 5101 5102 
5103 5104 5105 5106 5107 5108 5109 5110 5111 
5112 5113 5114 5115 5116 5117 5118 5119 5120 
5121 5122 5123 5124 5125 5126 5127 5128 5129 
5130 5131 5132 5133 5134 5135 5136 5137 5138 
5139 5140 5141 5142 5143 5144 5145 5146 5147 
5148 5149 5150 5151 5152 5153 5154 5155 5156 
5157 5158 5159 5160 5161 5162 5163 5164 5165 
5166 5167 5168 5169 5170 5171 5172 5173 5174 
5175 5176 5177 5178 5179 5180 5181 5182 5183 
5184 5185 5186 5187 5188 5189 5190 5191 5192 
5193 5194 5195 5196 5197 5198 5199 5200 5201 
5202 5203 5204 5205 5206 5207 5208 5209 5210 
5211 5212 5213 5214 5215 5216 5217 5218 5219 
5220 5221 5222 5223 5224 5225 5226 5227 5228 
5229 5230 5231 5232 5233 5234 5235 5236 5237 
5238 5239 5240 5241 5242 5243 5244 5245 5246 
5247 5248 5249 5250 5251 5252 5253 5254 5255 
5256 5257 5258 5259 5260 5261 5262 5263 5264 
5265 5266 5267 5268 5269 5270 5271 5272 5273 
5274 5275 5276 5277 5278 5279 5280 5281 5282 
5283 5284 5285 5286 5287 5288 5289 5290 5291 
5292 5293 5294 5295 5296 5297 5298 5299 5300 
5301 5302 5303 5304 5305 5306 5307 5308 5309 
5310 5311 5312 5313 5314 5315 5316 5317 5318 
5319 5320 5321 5322 5323 5324 5325 5326 5327 
5328 5329 5330 5331 5332 5333 5334 5335 5336 
5337 5338 5339 5340 5341 5342 5343 5344 5345 
5346 5347 5348 5349 5350 5351 5352 5353 5354 
5355 5356 5357 5358 5359 5360 5361 5362 5363 
5364 5365 5366 5367 5368 5369 5370 5371 5372 
5373 5374 5375 5376 5377 5378 5379 5380 5381 
5382 5383 5384 5385 5386 5387 5388 5389 5390 
5391 5392 5393 5394 5395 5396 5397 5398 5399 
5400 5401 5402 5403 5404 5405 5406 5407 5408 
5409 5410 5411 5412 5413 5414 5415 5416 5417 
5418 5419 5420 5421 5422 5423 5424 5425 5426 
5427 5428 5429 5430 5431 5432 5433 5434 5435 
5436 5437 5438 5439 5440 5441 5442 5443 5444 
5445 5446 5447 5448 5449 5450 5451 5452 5453 
5454 5455 5456 5457 5458 5459 5460 5461 5462 
5463 5464 5465 5466 5467 5468 5469 5470 5471 
5472 5473 5474 5475 5476 5477 5478 5479 5480 
5481 5482 5483 5484 5485 5486 5487 5488 5489 
5490 5491 5492 5493 5494 5495 5496 5497 5498 
5499 5500 5501 5502 5503 5504 5505 5506 5507 
5508 5509 5510 5511 5512 5513 5514 5515 5516 
5517 5518 5519 5520 5521 5522 5523 5524 5525 
5526 5527 5528 5529 5530 5531 5532 5533 5534 
5535 5536 5537 5538 5539 5540 5541 5542 5543 
5544 5545 5546 5547 5548 5549 5550 5551 5552 
5553 5554 5555 5556 5557 5558 5559 5560 5561 
5562 5563 5564 5565 5566 5567 5568 5569 5570 
5571 5572 5573 5574 5575 5576 5577 5578 5579 
5580 5581 5582 5583 5584 5585 5586 5587 5588 
5589 5590 5591 5592 5593 5594 5595 5596 5597 
5598 5599 5600 5601 5602 5603 5604 5605 5606 
5607 5608 5609 5610 5611 5612 5613 5614 5615 
5616 5617 5618 5619 5620 5621 5622 5623 5624 
5625 5626 5627 5628 5629 5630 5631 5632 5633 
5634 5635 5636 5637 5638 5639 5640 5641 5642 
5643 5644 5645 5646 5647 5648 5649 5650 5651 
5652 5653 5654 5655 5656 5657 5658 5659 5660 
5661 5662 5663 5664 5665 5666 5667 5668 5669 
5670 5671 5672 5673 5674 5675 5676 5677 5678 
5679 5680 5681 5682 5683 5684 5685 5686 5687 
5688 5689 5690 5691 5692 5693 5694 5695 5696 
5697 5698 5699 5700 5701 5702 5703 5704 5705 
5706 5707 5708 5709 5710 5711 5712 5713 5714 
5715 5716 5717 5718 5719 5720 5721 5722 5723 
5724 5725 5726 5727 5728 5729 5730 5731 5732 
5733 5734 5735 5736 5737 5738 5739 5740 5741 
5742 5743 5744 5745 5746 5747 5748 5749 5750 
5751 5752 5753 5754 5755 5756 5757 5758 5759 
5760 5761 5762 5763 5764 5765 5766 5767 5768 
5769 5770 5771 5772 5773 5774 5775 5776 5777 
5778 5779 5780 5781 5782 5783 5784 5785 5786 
5787 5788 5789 5790 5791 5792 5793 5794 5795 
5796 5797 5798 5799 5800 5801 5802 5803 5804 
5805 5806 5807 5808 5809 5810 5811 5812 5813 
5814 5815 5816 5817 5818 5819 5820 5821 5822 
5823 5824 5825 5826 5827 5828 5829 5830 5831 
5832 5833 5834 5835 5836 5837 5838 5839 5840 
5841 5842 5843 5844 5845 5846 5847 5848 5849 
5850 5851 5852 5853 5854 5855 5856 5857 5858 
5859 5860 5861 5862 5863 5864 5865 5866 5867 
5868 5869 5870 5871 5872 5873 5874 5875 5876 
5877 5878 5879 5880 5881 5882 5883 5884 5885 
5886 5887 5888 5889 5890 5891 5892 5893 5894 
5895 5896 5897 5898 5899 5900 5901 5902 5903 
5904 5905 5906 5907 5908 5909 5910 5911 5912 
5913 5914 5915 5916 5917 5918 5919 5920 5921 
5922 5923 5924 5925 5926 5927 5928 5929 5930 
5931 5932 5933 5934 5935 5936 5937 5938 5939 
5940 5941 5942 5943 5944 5945 5946 5947 5948 
5949 5950 5951 5952 5953 5954 5955 5956 5957 
5958 5959 5960 5961 5962 5963 5964 5965 5966 
5967 5968 5969 5970 5971 5972 5973 5974 5975 
5976 5977 5978 5979 5980 5981 5982 5983 5984 
5985 5986 5987 5988 5989 5990 5991 5992 5993 
5994 5995 5996 5997 5998 5999 6000 6001 6002 
6003 6004 6005 6006 6007 6008 6009 6010 6011 
6012 6013 6014 6015 6016 6017 6018 6019 6020 
6021 6022 6023 6024 6025 6026 6027 6028 6029 
6030 6031 6032 6033 6034 6035 6036 6037 6038 
6039 6040 6041 6042 6043 6044 6045 6046 6047 
6048 6049 6050 6051 6052 6053 6054 6055 6056 
6057 6058 6059 6060 6061 6062 6063 6064 6065 
6066 6067 6068 6069 6070 6071 6072 6073 6074 
6075 6076 6077 6078 6079 6080 6081 6082 6083 
6084 6085 6086 6087 6088 6089 6090 6091 6092 
6093 6094 6095 6096 6097 6098 6099 6100 6101 
6102 6103 6104 6105 6106 6107 6108 6109 6110 
6111 6112 6113 6114 6115 6116 6117 6118 6119 
6120 6121 6122 6123 6124 6125 6126 6127 6128 
6129 6130 6131 6132 6133 6134 6135 6136 6137 
6138 6139 6140 6141 6142 6143 6144 6145 6146 
6147 6148 6149 6150 6151 6152 6153 6154 6155 
6156 6157 6158 6159 6160 6161 6162 6163 6164 
6165 6166 6167 6168 6169 6170 6171 6172 6173 
6174 6175 6176 6177 6178 6179 6180 6181 6182 
6183 6184 6185 6186 6187 6188 6189 6190 6191 
6192 6193 6194 6195 6196 6197 6198 6199 6200 
6201 6202 6203 6204 6205 6206 6207 6208 6209 
6210 6211 6212 6213 6214 6215 6216 6217 6218 
6219 6220 6221 6222 6223 6224 6225 6226 6227 
6228 6229 6230 6231 6232 6233 6234 6235 6236 
6237 6238 6239 6240 6241 6242 6243 6244 6245 
6246 6247 6248 6249 6250 6251 6252 6253 6254 
6255 6256 6257 6258 6259 6260 6261 6262 6263 
6264 6265 6266 6267 6268 6269 6270 6271 6272 
6273 6274 6275 6276 6277 6278 6279 6280 6281 
6282 6283 6284 6285 6286 6287 6288 6289 6290 
6291 6292 6293 6294 6295 6296 6297 6298 6299 
6300 6301 6302 6303 6304 6305 6306 6307 6308 
6309 6310 6311 6312 6313 6314 6315 6316 6317 
6318 6319 6320 6321 6322 6323 6324 6325 6326 
6327 6328 6329 6330 6331 6332 6333 6334 6335 
6336 6337 6338 6339 6340 6341 6342 6343 6344 
6345 6346 6347 6348 6349 6350 6351 6352 6353 
6354 6355 6356 6357 6358 6359 6360 6361 6362 
6363 6364 6365 6366 6367 6368 6369 6370 6371 
6372 6373 6374 6375 6376 6377 6378 6379 6380 
6381 6382 6383 6384 6385 6386 6387 6388 6389 
6390 6391 6392 6393 6394 6395 6396 6397 6398 
6399 6400 6401 6402 6403 6404 6405 6406 6407 
6408 6409 6410 6411 6412 6413 6414 6415 6416 
6417 6418 6419 6420 6421 6422 6423 6424 6425 
6426 6427 6428 6429 6430 6431 6432 6433 6434 
6435 6436 6437 6438 6439 6440 6441 6442 6443 
6444 6445 6446 6447 6448 6449 6450 6451 6452 
6453 6454 6455 6456 6457 6458 6459 6460 6461 
6462 6463 6464 6465 6466 6467 6468 6469 6470 
6471 6472 6473 6474 6475 6476 6477 6478 6479 
6480 6481 6482 6483 6484 6485 6486 6487 6488 
6489 6490 6491 6492 6493 6494 6495 6496 6497 
6498 6499 6500 6501 6502 6503 6504 6505 6506 
6507 6508 6509 6510 6511 6512 6513 6514 6515 
6516 6517 6518 6519 6520 6521 6522 6523 6524 
6525 6526 6527 6528 6529 6530 6531 6532 6533 
6534 6535 6536 6537 6538 6539 6540 6541 6542 
6543 6544 6545 6546 6547 6548 6549 6550 6551 
6552 6553 6554 6555 6556 6557 6558 6559 6560 
6561 6562 6563 6564 6565 6566 6567 6568 6569 
6570 6571 6572 6573 6574 6575 6576 6577 6578 
6579 6580 6581 6582 6583 6584 6585 6586 6587 
6588 6589 6590 6591 6592 6593 6594 6595 6596 
6597 6598 6599 6600 6601 6602 6603 6604 6605 
6606 6607 6608 6609 6610 6611 6612 6613 6614 
6615 6616 6617 6618 6619 6620 6621 6622 6623 
6624 6625 6626 6627 6628 6629 6630 6631 6632 
6633 6634 6635 6636 6637 6638 6639 6640 6641 
6642 6643 6644 6645 6646 6647 6648 6649 6650 
6651 6652 6653 6654 6655 6656 6657 6658 6659 
6660 6661 6662 6663 6664 6665 6666 6667 6668 
6669 6670 6671 6672 6673 6674 6675 6676 6677 
6678 6679 6680 6681 6682 6683 6684 6685 6686 
6687 6688 6689 6690 6691 6692 6693 6694 6695 
6696 6697 6698 6699 6700 6701 6702 6703 6704 
6705 6706 6707 6708 6709 6710 6711 6712 6713 
6714 6715 6716 6717 6718 6719 6720 6721 6722 
6723 6724 6725 6726 6727 6728 6729 6730 6731 
6732 6733 6734 6735 6736 6737 6738 6739 6740 
6741 6742 6743 6744 6745 6746 6747 6748 6749 
6750 6751 6752 6753 6754 6755 6756 6757 6758 
6759 6760 6761 6762 6763 6764 6765 6766 6767 
6768 6769 6770 6771 6772 6773 6774 6775 6776 
6777 6778 6779 6780 6781 6782 6783 6784 6785 
6786 6787 6788 6789 6790 6791 6792 6793 6794 
6795 6796 6797 6798 6799 6800 6801 6802 6803 
6804 6805 6806 6807 6808 6809 6810 6811 6812 
6813 6814 6815 6816 6817 6818 6819 6820 6821 
6822 6823 6824 6825 6826 6827 6828 6829 6830 
6831 6832 6833 6834 6835 6836 6837 6838 6839 
6840 6841 6842 6843 6844 6845 6846 6847 6848 
6849 6850 6851 6852 6853 6854 6855 6856 6857 
6858 6859 6860 6861 6862 6863 6864 6865 6866 
6867 6868 6869 6870 6871 6872 6873 6874 6875 
6876 6877 6878 6879 6880 6881 6882 6883 6884 
6885 6886 6887 6888 6889 6890 6891 6892 6893 
6894 6895 6896 6897 6898 6899 6900 6901 6902 
6903 6904 6905 6906 6907 6908 6909 6910 6911 
6912 6913 6914 6915 6916 6917 6918 6919 6920 
6921 6922 6923 6924 6925 6926 6927 6928 6929 
6930 6931 6932 6933 6934 6935 6936 6937 6938 
6939 6940 6941 6942 6943 6944 6945 6946 6947 
6948 6949 6950 6951 6952 6953 6954 6955 6956 
6957 6958 6959 6960 6961 6962 6963 6964 6965 
6966 6967 6968 6969 6970 6971 6972 6973 6974 
6975 6976 6977 6978 6979 6980 6981 6982 6983 
6984 6985 6986 6987 6988 6989 6990 6991 6992 
6993 6994 6995 6996 6997 6998 6999 7000 7001 
7002 7003 7004 7005 7006 7007 7008 7009 7010 
7011 7012 7013 7014 7015 7016 7017 7018 7019 
7020 7021 7022 7023 7024 7025 7026 7027 7028 
7029 7030 7031 7032 7033 7034 7035 7036 7037 
7038 7039 7040 7041 7042 7043 7044 7045 7046 
7047 7048 7049 7050 7051 7052 7053 7054 7055 
7056 7057 7058 7059 7060 7061 7062 7063 7064 
7065 7066 7067 7068 7069 7070 7071 7072 7073 
7074 7075 7076 7077 7078 7079 7080 7081 7082 
7083 7084 7085 7086 7087 7088 7089 7090 7091 
7092 7093 7094 7095 7096 7097 7098 7099 7100 
7101 7102 7103 7104 7105 7106 7107 7108 7109 
7110 7111 7112 7113 7114 7115 7116 7117 7118 
7119 7120 7121 7122 7123 7124 7125 7126 7127 
7128 7129 7130 7131 7132 7133 7134 7135 7136 
7137 7138 7139 7140 7141 7142 7143 7144 7145 
7146 7147 7148 7149 7150 7151 7152 7153 7154 
7155 7156 7157 7158 7159 7160 7161 7162 7163 
7164 7165 7166 7167 7168 7169 7170 7171 7172 
7173 7174 7175 7176 7177 7178 7179 7180 7181 
7182 7183 7184 7185 7186 7187 7188 7189 7190 
7191 7192 7193 7194 7195 7196 7197 7198 7199 
7200 7201 7202 7203 7204 7205 7206 7207 7208 
7209 7210 7211 7212 7213 7214 7215 7216 7217 
7218 7219 7220 7221 7222 7223 7224 7225 7226 
7227 7228 7229 7230 7231 7232 7233 7234 7235 
7236 7237 7238 7239 7240 7241 7242 7243 7244 
7245 7246 7247 7248 7249 7250 7251 7252 7253 
7254 7255 7256 7257 7258 7259 7260 7261 7262 
7263 7264 7265 7266 7267 7268 7269 7270 7271 
7272 7273 7274 7275 7276 7277 7278 7279 7280 
7281 7282 7283 7284 7285 7286 7287 7288 7289 
7290 7291 7292 7293 7294 7295 7296 7297 7298 
7299 7300 7301 7302 7303 7304 7305 7306 7307 
7308 7309 7310 7311 7312 7313 7314 7315 7316 
7317 7318 7319 7320 7321 7322 7323 7324 7325 
7326 7327 7328 7329 7330 7331 7332 7333 7334 
7335 7336 7337 7338 7339 7340 7341 7342 7343 
7344 7345 7346 7347 7348 7349 7350 7351 7352 
7353 7354 7355 7356 7357 7358 7359 7360 7361 
7362 7363 7364 7365 7366 7367 7368 7369 7370 
7371 7372 7373 7374 7375 7376 7377 7378 7379 
7380 7381 7382 7383 7384 7385 7386 7387 7388 
7389 7390 7391 7392 7393 7394 7395 7396 7397 
7398 7399 7400 7401 7402 7403 7404 7405 7406 
7407 7408 7409 7410 7411 7412 7413 7414 7415 
7416 7417 7418 7419 7420 7421 7422 7423 7424 
7425 7426 7427 7428 7429 7430 7431 7432 7433 
7434 7435 7436 7437 7438 7439 7440 7441 7442 
7443 7444 7445 7446 7447 7448 7449 7450 7451 
7452 7453 7454 7455 7456 7457 7458 7459 7460 
7461 7462 7463 7464 7465 7466 7467 7468 7469 
7470 7471 7472 7473 7474 7475 7476 7477 7478 
7479 7480 7481 7482 7483 7484 7485 7486 7487 
7488 7489 7490 7491 7492 7493 7494 7495 7496 
7497 7498 7499 7500 7501 7502 7503 7504 7505 
7506 7507 7508 7509 7510 7511 7512 7513 7514 
7515 7516 7517 7518 7519 7520 7521 7522 7523 
7524 7525 7526 7527 7528 7529 7530 7531 7532 
7533 7534 7535 7536 7537 7538 7539 7540 7541 
7542 7543 7544 7545 7546 7547 7548 7549 7550 
7551 7552 7553 7554 7555 7556 7557 7558 7559 
7560 7561 7562 7563 7564 7565 7566 7567 7568 
7569 7570 7571 7572 7573 7574 7575 7576 7577 
7578 7579 7580 7581 7582 7583 7584 7585 7586 
7587 7588 7589 7590 7591 7592 7593 7594 7595 
7596 7597 7598 7599 7600 7601 7602 7603 7604 
7605 7606 7607 7608 7609 7610 7611 7612 7613 
7614 7615 7616 7617 7618 7619 7620 7621 7622 
7623 7624 7625 7626 7627 7628 7629 7630 7631 
7632 7633 7634 7635 7636 7637 7638 7639 7640 
7641 7642 7643 7644 7645 7646 7647 7648 7649 
7650 7651 7652 7653 7654 7655 7656 7657 7658 
7659 7660 7661 7662 7663 7664 7665 7666 7667 
7668 7669 7670 7671 7672 7673 7674 7675 7676 
7677 7678 7679 7680 7681 7682 7683 7684 7685 
7686 7687 7688 7689 7690 7691 7692 7693 7694 
7695 7696 7697 7698 7699 7700 7701 7702 7703 
7704 7705 7706 7707 7708 7709 7710 7711 7712 
7713 7714 7715 7716 7717 7718 7719 7720 7721 
7722 7723 7724 7725 7726 7727 7728 7729 7730 
7731 7732 7733 7734 7735 7736 7737 7738 7739 
7740 7741 7742 7743 7744 7745 7746 7747 7748 
7749 7750 7751 7752 7753 7754 7755 7756 7757 
7758 7759 7760 7761 7762 7763 7764 7765 7766 
7767 7768 7769 7770 7771 7772 7773 7774 7775 
7776 7777 7778 7779 7780 7781 7782 7783 7784 
7785 7786 7787 7788 7789 7790 7791 7792 7793 
7794 7795 7796 7797 7798 7799 7800 7801 7802 
7803 7804 7805 7806 7807 7808 7809 7810 7811 
7812 7813 7814 7815 7816 7817 7818 7819 7820 
7821 7822 7823 7824 7825 7826 7827 7828 7829 
7830 7831 7832 7833 7834 7835 7836 7837 7838 
7839 7840 7841 7842 7843 7844 7845 7846 7847 
7848 7849 7850 7851 7852 7853 7854 7855 7856 
7857 7858 7859 7860 7861 7862 7863 7864 7865 
7866 7867 7868 7869 7870 7871 7872 7873 7874 
7875 7876 7877 7878 7879 7880 7881 7882 7883 
7884 7885 7886 7887 7888 7889 7890 7891 7892 
7893 7894 7895 7896 7897 7898 7899 7900 7901 
7902 7903 7904 7905 7906 7907 7908 7909 7910 
7911 7912 7913 7914 7915 7916 7917 7918 7919 
7920 7921 7922 7923 7924 7925 7926 7927 7928 
7929 7930 7931 7932 7933 7934 7935 7936 7937 
7938 7939 7940 7941 7942 7943 7944 7945 7946 
7947 7948 7949 7950 7951 7952 7953 7954 7955 
7956 7957 7958 7959 7960 7961 7962 7963 7964 
7965 7966 7967 7968 7969 7970 7971 7972 7973 
7974 7975 7976 7977 7978 7979 7980 7981 7982 
7983 7984 7985 7986 7987 7988 7989 7990 7991 
7992 7993 7994 7995 7996 7997 7998 7999 8000 
8001 8002 8003 8004 8005 8006 8007 8008 8009 
8010 8011 8012 8013 8014 8015 8016 8017 8018 
8019 8020 8021 8022 8023 8024 8025 8026 8027 
8028 8029 8030 8031 8032 8033 8034 8035 8036 
8037 8038 8039 8040 8041 8042 8043 8044 8045 
8046 8047 8048 8049 8050 8051 8052 8053 8054 
8055 8056 8057 8058 8059 8060 8061 8062 8063 
8064 8065 8066 8067 8068 8069 8070 8071 8072 
8073 8074 8075 8076 8077 8078 8079 8080 8081 
8082 8083 8084 8085 8086 8087 8088 8089 8090 
8091 8092 8093 8094 8095 8096 8097 8098 8099 
8100 8101 8102 8103 8104 8105 8106 8107 8108 
8109 8110 8111 8112 8113 8114 8115 8116 8117 
8118 8119 8120 8121 8122 8123 8124 8125 8126 
8127 8128 8129 8130 8131 8132 8133 8134 8135 
8136 8137 8138 8139 8140 8141 8142 8143 8144 
8145 8146 8147 8148 8149 8150 8151 8152 8153 
8154 8155 8156 8157 8158 8159 8160 8161 8162 
8163 8164 8165 8166 8167 8168 8169 8170 8171 
8172 8173 8174 8175 8176 8177 8178 8179 8180 
8181 8182 8183 8184 8185 8186 8187 8188 8189 
8190 8191 8192 8193 8194 8195 8196 8197 8198 
8199 8200 8201 8202 8203 8204 8205 8206 8207 
8208 8209 8210 8211 8212 8213 8214 8215 8216 
8217 8218 8219 8220 8221 8222 8223 8224 8225 
8226 8227 8228 8229 8230 8231 8232 8233 8234 
8235 8236 8237 8238 8239 8240 8241 8242 8243 
8244 8245 8246 8247 8248 8249 8250 8251 8252 
8253 8254 8255 8256 8257 8258 8259 8260 8261 
8262 8263 8264 8265 8266 8267 8268 8269 8270 
8271 8272 8273 8274 8275 8276 8277 8278 8279 
8280 8281 8282 8283 8284 8285 8286 8287 8288 
8289 8290 8291 8292 8293 8294 8295 8296 8297 
8298 8299 8300 8301 8302 8303 8304 8305 8306 
8307 8308 8309 8310 8311 8312 8313 8314 8315 
8316 8317 8318 8319 8320 8321 8322 8323 8324 
8325 8326 8327 8328 8329 8330 8331 8332 8333 
8334 8335 8336 8337 8338 8339 8340 8341 8342 
8343 8344 8345 8346 8347 8348 8349 8350 8351 
8352 8353 8354 8355 8356 8357 8358 8359 8360 
8361 8362 8363 8364 8365 8366 8367 8368 8369 
8370 8371 8372 8373 8374 8375 8376 8377 8378 
8379 8380 8381 8382 8383 8384 8385 8386 8387 
8388 8389 8390 8391 8392 8393 8394 8395 8396 
8397 8398 8399 8400 8401 8402 8403 8404 8405 
8406 8407 8408 8409 8410 8411 8412 8413 8414 
8415 8416 8417 8418 8419 8420 8421 8422 8423 
8424 8425 8426 8427 8428 8429 8430 8431 8432 
8433 8434 8435 8436 8437 8438 8439 8440 8441 
8442 8443 8444 8445 8446 8447 8448 8449 8450 
8451 8452 8453 8454 8455 8456 8457 8458 8459 
8460 8461 8462 8463 8464 8465 8466 8467 8468 
8469 8470 8471 8472 8473 8474 8475 8476 8477 
8478 8479 8480 8481 8482 8483 8484 8485 8486 
8487 8488 8489 8490 8491 8492 8493 8494 8495 
8496 8497 8498 8499 8500 8501 8502 8503 8504 
8505 8506 8507 8508 8509 8510 8511 8512 8513 
8514 8515 8516 8517 8518 8519 8520 8521 8522 
8523 8524 8525 8526 8527 8528 8529 8530 8531 
8532 8533 8534 8535 8536 8537 8538 8539 8540 
8541 8542 8543 8544 8545 8546 8547 8548 8549 
8550 8551 8552 8553 8554 8555 8556 8557 8558 
8559 8560 8561 8562 8563 8564 8565 8566 8567 
8568 8569 8570 8571 8572 8573 8574 8575 8576 
8577 8578 8579 8580 8581 8582 8583 8584 8585 
8586 8587 8588 8589 8590 8591 8592 8593 8594 
8595 8596 8597 8598 8599 8600 8601 8602 8603 
8604 8605 8606 8607 8608 8609 8610 8611 8612 
8613 8614 8615 8616 8617 8618 8619 8620 8621 
8622 8623 8624 8625 8626 8627 8628 8629 8630 
8631 8632 8633 8634 8635 8636 8637 8638 8639 
8640 8641 8642 8643 8644 8645 8646 8647 8648 
8649 8650 8651 8652 8653 8654 8655 8656 8657 
8658 8659 8660 8661 8662 8663 8664 8665 8666 
8667 8668 8669 8670 8671 8672 8673 8674 8675 
8676 8677 8678 8679 8680 8681 8682 8683 8684 
8685 8686 8687 8688 8689 8690 8691 8692 8693 
8694 8695 8696 8697 8698 8699 8700 8701 8702 
8703 8704 8705 8706 8707 8708 8709 8710 8711 
8712 8713 8714 8715 8716 8717 8718 8719 8720 
8721 8722 8723 8724 8725 8726 8727 8728 8729 
8730 8731 8732 8733 8734 8735 8736 8737 8738 
8739 8740 8741 8742 8743 8744 8745 8746 8747 
8748 8749 8750 8751 8752 8753 8754 8755 8756 
8757 8758 8759 8760 8761 8762 8763 8764 8765 
8766 8767 8768 8769 8770 8771 8772 8773 8774 
8775 8776 8777 8778 8779 8780 8781 8782 8783 
8784 8785 8786 8787 8788 8789 8790 8791 8792 
8793 8794 8795 8796 8797 8798 8799 8800 8801 
8802 8803 8804 8805 8806 8807 8808 8809 8810 
8811 8812 8813 8814 8815 8816 8817 8818 8819 
8820 8821 8822 8823 8824 8825 8826 8827 8828 
8829 8830 8831 8832 8833 8834 8835 8836 8837 
8838 8839 8840 8841 8842 8843 8844 8845 8846 
8847 8848 8849 8850 8851 8852 8853 8854 8855 
8856 8857 8858 8859 8860 8861 8862 8863 8864 
8865 8866 8867 8868 8869 8870 8871 8872 8873 
8874 8875 8876 8877 8878 8879 8880 8881 8882 
8883 8884 8885 8886 8887 8888 8889 8890 8891 
8892 8893 8894 8895 8896 8897 8898 8899 8900 
8901 8902 8903 8904 8905 8906 8907 8908 8909 
8910 8911 8912 8913 8914 8915 8916 8917 8918 
8919 8920 8921 8922 8923 8924 8925 8926 8927 
8928 8929 8930 8931 8932 8933 8934 8935 8936 
8937 8938 8939 8940 8941 8942 8943 8944 8945 
8946 8947 8948 8949 8950 8951 8952 8953 8954 
8955 8956 8957 8958 8959 8960 8961 8962 8963 
8964 8965 8966 8967 8968 8969 8970 8971 8972 
8973 8974 8975 8976 8977 8978 8979 8980 8981 
8982 8983 8984 8985 8986 8987 8988 8989 8990 
8991 8992 8993 8994 8995 8996 8997 8998 8999 
9000 9001 9002 9003 9004 9005 9006 9007 9008 
9009 9010 9011 9012 9013 9014 9015 9016 9017 
9018 9019 9020 9021 9022 9023 9024 9025 9026 
9027 9028 9029 9030 9031 9032 9033 9034 9035 
9036 9037 9038 9039 9040 9041 9042 9043 9044 
9045 9046 9047 9048 9049 9050 9051 9052 9053 
9054 9055 9056 9057 9058 9059 9060 9061 9062 
9063 9064 9065 9066 9067 9068 9069 9070 9071 
9072 9073 9074 9075 9076 9077 9078 9079 9080 
9081 9082 9083 9084 9085 9086 9087 9088 9089 
9090 9091 9092 9093 9094 9095 9096 9097 9098 
9099 9100 9101 9102 9103 9104 9105 9106 9107 
9108 9109 9110 9111 9112 9113 9114 9115 9116 
9117 9118 9119 9120 9121 9122 9123 9124 9125 
9126 9127 9128 9129 9130 9131 9132 9133 9134 
9135 9136 9137 9138 9139 9140 9141 9142 9143 
9144 9145 9146 9147 9148 9149 9150 9151 9152 
9153 9154 9155 9156 9157 9158 9159 9160 9161 
9162 9163 9164 9165 9166 9167 9168 9169 9170 
9171 9172 9173 9174 9175 9176 9177 9178 9179 
9180 9181 9182 9183 9184 9185 9186 9187 9188 
9189 9190 9191 9192 9193 9194 9195 9196 9197 
9198 9199 9200 9201 9202 9203 9204 9205 9206 
9207 9208 9209 9210 9211 9212 9213 9214 9215 
9216 9217 9218 9219 9220 9221 9222 9223 9224 
9225 9226 9227 9228 9229 9230 9231 9232 9233 
9234 9235 9236 9237 9238 9239 9240 9241 9242 
9243 9244 9245 9246 9247 9248 9249 9250 9251 
9252 9253 9254 9255 9256 9257 9258 9259 9260 
9261 9262 9263 9264 9265 9266 9267 9268 9269 
9270 9271 9272 9273 9274 9275 9276 9277 9278 
9279 9280 9281 9282 9283 9284 9285 9286 9287 
9288 9289 9290 9291 9292 9293 9294 9295 9296 
9297 9298 9299 9300 9301 9302 9303 9304 9305 
9306 9307 9308 9309 9310 9311 9312 9313 9314 
9315 9316 9317 9318 9319 9320 9321 9322 9323 
9324 9325 9326 9327 9328 9329 9330 9331 9332 
9333 9334 9335 9336 9337 9338 9339 9340 9341 
9342 9343 9344 9345 9346 9347 9348 9349 9350 
9351 9352 9353 9354 9355 9356 9357 9358 9359 
9360 9361 9362 9363 9364 9365 9366 9367 9368 
9369 9370 9371 9372 9373 9374 9375 9376 9377 
9378 9379 9380 9381 9382 9383 9384 9385 9386 
9387 9388 9389 9390 9391 9392 9393 9394 9395 
9396 9397 9398 9399 9400 9401 9402 9403 9404 
9405 9406 9407 9408 9409 9410 9411 9412 9413 
9414 9415 9416 9417 9418 9419 9420 9421 9422 
9423 9424 9425 9426 9427 9428 9429 9430 9431 
9432 9433 9434 9435 9436 9437 9438 9439 9440 
9441 9442 9443 9444 9445 9446 9447 9448 9449 
9450 9451 9452 9453 9454 9455 9456 9457 9458 
9459 9460 9461 9462 9463 9464 9465 9466 9467 
9468 9469 9470 9471 9472 9473 9474 9475 9476 
9477 9478 9479 9480 9481 9482 9483 9484 9485 
9486 9487 9488 9489 9490 9491 9492 9493 9494 
9495 9496 9497 9498 9499 9500 9501 9502 9503 
9504 9505 9506 9507 9508 9509 9510 9511 9512 
9513 9514 9515 9516 9517 9518 9519 9520 9521 
9522 9523 9524 9525 9526 9527 9528 9529 9530 
9531 9532 9533 9534 9535 9536 9537 9538 9539 
9540 9541 9542 9543 9544 9545 9546 9547 9548 
9549 9550 9551 9552 9553 9554 9555 9556 9557 
9558 9559 9560 9561 9562 9563 9564 9565 9566 
9567 9568 9569 9570 9571 9572 9573 9574 9575 
9576 9577 9578 9579 9580 9581 9582 9583 9584 
9585 9586 9587 9588 9589 9590 9591 9592 9593 
9594 9595 9596 9597 9598 9599 9600 9601 9602 
9603 9604 9605 9606 9607 9608 9609 9610 9611 
9612 9613 9614 9615 9616 9617 9618 9619 9620 
9621 9622 9623 9624 9625 9626 9627 9628 9629 
9630 9631 9632 9633 9634 9635 9636 9637 9638 
9639 9640 9641 9642 9643 9644 9645 9646 9647 
9648 9649 9650 9651 9652 9653 9654 9655 9656 
9657 9658 9659 9660 9661 9662 9663 9664 9665 
9666 9667 9668 9669 9670 9671 9672 9673 9674 
9675 9676 9677 9678 9679 9680 9681 9682 9683 
9684 9685 9686 9687 9688 9689 9690 9691 9692 
9693 9694 9695 9696 9697 9698 9699 9700 9701 
9702 9703 9704 9705 9706 9707 9708 9709 9710 
9711 9712 9713 9714 9715 9716 9717 9718 9719 
9720 9721 9722 9723 9724 9725 9726 9727 9728 
9729 9730 9731 9732 9733 9734 9735 9736 9737 
9738 9739 9740 9741 9742 9743 9744 9745 9746 
9747 9748 9749 9750 9751 9752 9753 9754 9755 
9756 9757 9758 9759 9760 9761 9762 9763 9764 
9765 9766 9767 9768 9769 9770 9771 9772 9773 
9774 9775 9776 9777 9778 9779 9780 9781 9782 
9783 9784 9785 9786 9787 9788 9789 9790 9791 
9792 9793 9794 9795 9796 9797 9798 9799 9800 
9801 9802 9803 9804 9805 9806 9807 9808 9809 
9810 9811 9812 9813 9814 9815 9816 9817 9818 
9819 9820 9821 9822 9823 9824 9825 9826 9827 
9828 9829 9830 9831 9832 9833 9834 9835 9836 
9837 9838 9839 9840 9841 9842 9843 9844 9845 
9846 9847 9848 9849 9850 9851 9852 9853 9854 
9855 9856 9857 9858 9859 9860 9861 9862 9863 
9864 9865 9866 9867 9868 9869 9870 9871 9872 
9873 9874 9875 9876 9877 9878 9879 9880 9881 
9882 9883 9884 9885 9886 9887 9888 9889 9890 
9891 9892 9893 9894 9895 9896 9897 9898 9899 
9900 9901 9902 9903 9904 9905 9906 9907 9908 
9909 9910 9911 9912 9913 9914 9915 9916 9917 
9918 9919 9920 9921 9922 9923 9924 9925 9926 
9927 9928 9929 9930 9931 9932 9933 9934 9935 
9936 9937 9938 9939 9940 9941 9942 9943 9944 
9945 9946 9947 9948 9949 9950 9951 9952 9953 
9954 9955 9956 9957 9958 9959 9960 9961 9962 
9963 9964 9965 9966 9967 9968 9969 9970 9971 
9972 9973 9974 9975 9976 9977 9978 9979 9980 
9981 9982 9983 9984 9985 9986 9987 9988 9989 
9990 9991 9992 9993 9994 9995 9996 9997 9998 
9999 10000 10001 10002 10003 10004 10005 10006 10007 
10008 10009 10010 10011 10012 10013 10014 10015 10016 
10017 10018 10019 10020 10021 10022 10023 10024 10025 
10026 10027 10028 10029 10030 10031 10032 10033 10034 
10035 10036 10037 10038 10039 10040 10041 10042 10043 
10044 10045 10046 10047 10048 10049 10050 10051 10052 
10053 10054 10055 10056 10057 10058 10059 10060 10061 
10062 10063 10064 10065 10066 10067 10068 10069 10070 
10071 10072 10073 10074 10075 10076 10077 10078 10079 
10080 10081 10082 10083 10084 10085 10086 10087 10088 
10089 10090 10091 10092 10093 10094 10095 10096 10097 
10098 10099 10100 10101 10102 10103 10104 10105 10106 
10107 10108 10109 10110 10111 10112 10113 10114 10115 
10116 10117 10118 10119 10120 10121 10122 10123 10124 
10125 10126 10127 10128 10129 10130 10131 10132 10133 
10134 10135 10136 10137 10138 10139 10140 10141 10142 
10143 10144 10145 10146 10147 10148 10149 10150 10151 
10152 10153 10154 10155 10156 10157 10158 10159 10160 
10161 10162 10163 10164 10165 10166 10167 10168 10169 
10170 10171 10172 10173 10174 10175 10176 10177 10178 
10179 10180 10181 10182 10183 10184 10185 10186 10187 
10188 10189 10190 10191 10192 10193 10194 10195 10196 
10197 10198 10199 10200 10201 10202 10203 10204 10205 
10206 10207 10208 10209 10210 10211 10212 10213 10214 
10215 10216 10217 10218 10219 10220 10221 10222 10223 
10224 10225 10226 10227 10228 10229 10230 10231 10232 
10233 10234 10235 10236 10237 10238 10239 10240 10241 
10242 10243 10244 10245 10246 10247 10248 10249 10250 
10251 10252 10253 10254 10255 10256 10257 10258 10259 
10260 10261 10262 10263 10264 10265 10266 10267 10268 
10269 10270 10271 10272 10273 10274 10275 10276 10277 
10278 10279 10280 10281 10282 10283 10284 10285 10286 
10287 10288 10289 10290 10291 10292 10293 10294 10295 
10296 10297 10298 10299 10300 10301 10302 10303 10304 
10305 10306 10307 10308 10309 10310 10311 10312 10313 
10314 10315 10316 10317 10318 10319 10320 10321 10322 
10323 10324 10325 10326 10327 10328 10329 10330 10331 
10332 10333 10334 10335 10336 10337 10338 10339 10340 
10341 10342 10343 10344 10345 10346 10347 10348 10349 
10350 10351 10352 10353 10354 10355 10356 10357 10358 
10359 10360 10361 10362 10363 10364 10365 10366 10367 
10368 10369 10370 10371 10372 10373 10374 10375 10376 
10377 10378 10379 10380 10381 10382 10383 10384 10385 
10386 10387 10388 10389 10390 10391 10392 10393 10394 
10395 10396 10397 10398 10399 10400 10401 10402 10403 
10404 10405 10406 10407 10408 10409 10410 10411 10412 
10413 10414 10415 10416 10417 10418 10419 10420 10421 
10422 10423 10424 10425 10426 10427 10428 10429 10430 
10431 10432 10433 10434 10435 10436 10437 10438 10439 
10440 10441 10442 10443 10444 10445 10446 10447 10448 
10449 10450 10451 10452 10453 10454 10455 10456 10457 
10458 10459 10460 10461 10462 10463 10464 10465 10466 
10467 10468 10469 10470 10471 10472 10473 10474 10475 
10476 10477 10478 10479 10480 10481 10482 10483 10484 
10485 10486 10487 10488 10489 10490 10491 10492 10493 
10494 10495 10496 10497 10498 10499 10500 10501 10502 
10503 10504 10505 10506 10507 10508 10509 10510 10511 
10512 10513 10514 10515 10516 10517 10518 10519 10520 
10521 10522 10523 10524 10525 10526 10527 10528 10529 
10530 10531 10532 10533 10534 10535 10536 10537 10538 
10539 10540 10541 10542 10543 10544 10545 10546 10547 
10548 10549 10550 10551 10552 10553 10554 10555 10556 
10557 10558 10559 10560 10561 10562 10563 10564 10565 
10566 10567 10568 10569 10570 10571 10572 10573 10574 
10575 10576 10577 10578 10579 10580 10581 10582 10583 
10584 10585 10586 10587 10588 10589 10590 10591 10592 
10593 10594 10595 10596 10597 10598 10599 10600 10601 
10602 10603 10604 10605 10606 10607 10608 10609 10610 
10611 10612 10613 10614 10615 10616 10617 10618 10619 
10620 10621 10622 10623 10624 10625 10626 10627 10628 
10629 10630 10631 10632 10633 10634 10635 10636 10637 
10638 10639 10640 10641 10642 10643 10644 10645 10646 
10647 10648 10649 10650 10651 10652 10653 10654 10655 
10656 10657 10658 10659 10660 10661 10662 10663 10664 
10665 10666 10667 10668 10669 10670 10671 10672 10673 
10674 10675 10676 10677 10678 10679 10680 10681 10682 
10683 10684 10685 10686 10687 10688 10689 10690 10691 
10692 10693 10694 10695 10696 10697 10698 10699 10700 
10701 10702 10703 10704 10705 10706 10707 10708 10709 
10710 10711 10712 10713 10714 10715 10716 10717 10718 
10719 10720 10721 10722 10723 10724 10725 10726 10727 
10728 10729 10730 10731 10732 10733 10734 10735 10736 
10737 10738 10739 10740 10741 10742 10743 10744 10745 
10746 10747 10748 10749 10750 10751 10752 10753 10754 
10755 10756 10757 10758 10759 10760 10761 10762 10763 
10764 10765 10766 10767 10768 10769 10770 10771 10772 
10773 10774 10775 10776 10777 10778 10779 10780 10781 
10782 10783 10784 10785 10786 10787 10788 10789 10790 
10791 10792 10793 10794 10795 10796 10797 10798 10799 
10800 10801 10802 10803 10804 10805 10806 10807 10808 
10809 10810 10811 10812 10813 10814 10815 10816 10817 
10818 10819 10820 10821 10822 10823 10824 10825 10826 
10827 10828 10829 10830 10831 10832 10833 10834 10835 
10836 10837 10838 10839 10840 10841 10842 10843 10844 
10845 10846 10847 10848 10849 10850 10851 10852 10853 
10854 10855 10856 10857 10858 10859 10860 10861 10862 
10863 10864 10865 10866 10867 10868 10869 10870 10871 
10872 10873 10874 10875 10876 10877 10878 10879 10880 
10881 10882 10883 10884 10885 10886 10887 10888 10889 
10890 10891 10892 10893 10894 10895 10896 10897 10898 
10899 10900 10901 10902 10903 10904 10905 10906 10907 
10908 10909 10910 10911 10912 10913 10914 10915 10916 
10917 10918 10919 10920 10921 10922 10923 10924 10925 
10926 10927 10928 10929 10930 10931 10932 10933 10934 
10935 10936 10937 10938 10939 10940 10941 10942 10943 
10944 10945 10946 10947 10948 10949 10950 10951 10952 
10953 10954 10955 10956 10957 10958 10959 10960 10961 
10962 10963 10964 10965 10966 10967 10968 10969 10970 
10971 10972 10973 10974 10975 10976 10977 10978 10979 
10980 10981 10982 10983 10984 10985 10986 10987 10988 
10989 10990 10991 10992 10993 10994 10995 10996 10997 
10998 10999 11000 11001 11002 11003 11004 11005 11006 
11007 11008 11009 11010 11011 11012 11013 11014 11015 
11016 11017 11018 11019 11020 11021 11022 11023 11024 
11025 11026 11027 11028 11029 11030 11031 11032 11033 
11034 11035 11036 11037 11038 11039 11040 11041 11042 
11043 11044 11045 11046 11047 11048 11049 11050 11051 
11052 11053 11054 11055 11056 11057 11058 11059 11060 
11061 11062 11063 11064 11065 11066 11067 11068 11069 
11070 11071 11072 11073 11074 11075 11076 11077 11078 
11079 11080 11081 11082 11083 11084 11085 11086 11087 
11088 11089 11090 11091 11092 11093 11094 11095 11096 
11097 11098 11099 11100 11101 11102 11103 11104 11105 
11106 11107 11108 11109 11110 11111 11112 11113 11114 
11115 11116 11117 11118 11119 11120 11121 11122 11123 
11124 11125 11126 11127 11128 11129 11130 11131 11132 
11133 11134 11135 11136 11137 11138 11139 11140 11141 
11142 11143 11144 11145 11146 11147 11148 11149 11150 
11151 11152 11153 11154 11155 11156 11157 11158 11159 
11160 11161 11162 11163 11164 11165 11166 11167 11168 
11169 11170 11171 11172 11173 11174 11175 11176 11177 
11178 11179 11180 11181 11182 11183 11184 11185 11186 
11187 11188 11189 11190 11191 11192 11193 11194 11195 
11196 11197 11198 11199 11200 11201 11202 11203 11204 
11205 11206 11207 11208 11209 11210 11211 11212 11213 
11214 11215 11216 11217 11218 11219 11220 11221 11222 
11223 11224 11225 11226 11227 11228 11229 11230 11231 
11232 11233 11234 11235 11236 11237 11238 11239 11240 
11241 11242 11243 11244 11245 11246 11247 11248 11249 
11250 11251 11252 11253 11254 11255 11256 11257 11258 
11259 11260 11261 11262 11263 11264 11265 11266 11267 
11268 11269 11270 11271 11272 11273 11274 11275 11276 
11277 11278 11279 11280 11281 11282 11283 11284 11285 
11286 11287 11288 11289 11290 11291 11292 11293 11294 
11295 11296 11297 11298 11299 11300 11301 11302 11303 
11304 11305 11306 11307 11308 11309 11310 11311 11312 
11313 11314 11315 11316 11317 11318 11319 11320 11321 
11322 11323 11324 11325 11326 11327 11328 11329 11330 
11331 11332 11333 11334 11335 11336 11337 11338 11339 
11340 11341 11342 11343 11344 11345 11346 11347 11348 
11349 11350 11351 11352 11353 11354 11355 11356 11357 
11358 11359 11360 11361 11362 11363 11364 11365 11366 
11367 11368 11369 11370 11371 11372 11373 11374 11375 
11376 11377 11378 11379 11380 11381 11382 11383 11384 
11385 11386 11387 11388 11389 11390 11391 11392 11393 
11394 11395 11396 11397 11398 11399 11400 11401 11402 
11403 11404 11405 11406 11407 11408 11409 11410 11411 
11412 11413 11414 11415 11416 11417 11418 11419 11420 
11421 11422 11423 11424 11425 11426 11427 11428 11429 
11430 11431 11432 11433 11434 11435 11436 11437 11438 
11439 11440 11441 11442 11443 11444 11445 11446 11447 
11448 11449 11450 11451 11452 11453 11454 11455 11456 
11457 11458 11459 11460 11461 11462 11463 11464 11465 
11466 11467 11468 11469 11470 11471 11472 11473 11474 
11475 11476 11477 11478 11479 11480 11481 11482 11483 
11484 11485 11486 11487 11488 11489 11490 11491 11492 
11493 11494 11495 11496 11497 11498 11499 11500 11501 
11502 11503 11504 11505 11506 11507 11508 11509 11510 
11511 11512 11513 11514 11515 11516 11517 11518 11519 
11520 11521 11522 11523 11524 11525 11526 11527 11528 
11529 11530 11531 11532 11533 11534 11535 11536 11537 
11538 11539 11540 11541 11542 11543 11544 11545 11546 
11547 11548 11549 11550 11551 11552 11553 11554 11555 
11556 11557 11558 11559 11560 11561 11562 11563 11564 
11565 11566 11567 11568 11569 11570 11571 11572 11573 
11574 11575 11576 11577 11578 11579 11580 11581 11582 
11583 11584 11585 11586 11587 11588 11589 11590 11591 
11592 11593 11594 11595 11596 11597 11598 11599 11600 
11601 11602 11603 11604 11605 11606 11607 11608 11609 
11610 11611 11612 11613 11614 11615 11616 11617 11618 
11619 11620 11621 11622 11623 11624 11625 11626 11627 
11628 11629 11630 11631 11632 11633 11634 11635 11636 
11637 11638 11639 11640 11641 11642 11643 11644 11645 
11646 11647 11648 11649 11650 11651 11652 11653 11654 
11655 11656 11657 11658 11659 11660 11661 11662 11663 
11664 11665 11666 11667 11668 11669 11670 11671 11672 
11673 11674 11675 11676 11677 11678 11679 11680 11681 
11682 11683 11684 11685 11686 11687 11688 11689 11690 
11691 11692 11693 11694 11695 11696 11697 11698 11699 
11700 11701 11702 11703 11704 11705 11706 11707 11708 
11709 11710 11711 11712 11713 11714 11715 11716 11717 
11718 11719 11720 11721 11722 11723 11724 11725 11726 
11727 11728 11729 11730 11731 11732 11733 11734 11735 
11736 11737 11738 11739 11740 11741 11742 11743 11744 
11745 11746 11747 11748 11749 11750 11751 11752 11753 
11754 11755 11756 11757 11758 11759 11760 11761 11762 
11763 11764 11765 11766 11767 11768 11769 11770 11771 
11772 11773 11774 11775 11776 11777 11778 11779 11780 
11781 11782 11783 11784 11785 11786 11787 11788 11789 
11790 11791 11792 11793 11794 11795 11796 11797 11798 
11799 11800 11801 11802 11803 11804 11805 11806 11807 
11808 11809 11810 11811 11812 11813 11814 11815 11816 
11817 11818 11819 11820 11821 11822 11823 11824 11825 
11826 11827 11828 11829 11830 11831 11832 11833 11834 
11835 11836 11837 11838 11839 11840 11841 11842 11843 
11844 11845 11846 11847 11848 11849 11850 11851 11852 
11853 11854 11855 11856 11857 11858 11859 11860 11861 
11862 11863 11864 11865 11866 11867 11868 11869 11870 
11871 11872 11873 11874 11875 11876 11877 11878 11879 
11880 11881 11882 11883 11884 11885 11886 11887 11888 
11889 11890 11891 11892 11893 11894 11895 11896 11897 
11898 11899 11900 11901 11902 11903 11904 11905 11906 
11907 11908 11909 11910 11911 11912 11913 11914 11915 
11916 11917 11918 11919 11920 11921 11922 11923 11924 
11925 11926 11927 11928 11929 11930 11931 11932 11933 
11934 11935 11936 11937 11938 11939 11940 11941 11942 
11943 11944 11945 11946 11947 11948 11949 11950 11951 
11952 11953 11954 11955 11956 11957 11958 11959 11960 
11961 11962 11963 11964 11965 11966 11967 11968 11969 
11970 11971 11972 11973 11974 11975 11976 11977 11978 
11979 11980 11981 11982 11983 11984 11985 11986 11987 
11988 11989 11990 11991 11992 11993 11994 11995 11996 
11997 11998 11999 12000 12001 12002 12003 12004 12005 
12006 12007 12008 12009 12010 12011 12012 12013 12014 
12015 12016 12017 12018 12019 12020 12021 12022 12023 
12024 12025 12026 12027 12028 12029 12030 12031 12032 
12033 12034 12035 12036 12037 12038 12039 12040 12041 
12042 12043 12044 12045 12046 12047 12048 12049 12050 
12051 12052 12053 12054 12055 12056 12057 12058 12059 
12060 12061 12062 12063 12064 12065 12066 12067 12068 
12069 12070 12071 12072 12073 12074 12075 12076 12077 
12078 12079 12080 12081 12082 12083 12084 12085 12086 
12087 12088 12089 12090 12091 12092 12093 12094 12095 
12096 12097 12098 12099 12100 12101 12102 12103 12104 
12105 12106 12107 12108 12109 12110 12111 12112 12113 
12114 12115 12116 12117 12118 12119 12120 12121 12122 
12123 12124 12125 12126 12127 12128 12129 12130 12131 
12132 12133 12134 12135 12136 12137 12138 12139 12140 
12141 12142 12143 12144 12145 12146 12147 12148 12149 
12150 12151 12152 12153 12154 12155 12156 12157 12158 
12159 12160 12161 12162 12163 12164 12165 12166 12167 
12168 12169 12170 12171 12172 12173 12174 12175 12176 
12177 12178 12179 12180 12181 12182 12183 12184 12185 
12186 12187 12188 12189 12190 12191 12192 12193 12194 
12195 12196 12197 12198 12199 12200 12201 12202 12203 
12204 12205 12206 12207 12208 12209 12210 12211 12212 
12213 12214 12215 12216 12217 12218 12219 12220 12221 
12222 12223 12224 12225 12226 12227 12228 12229 12230 
12231 12232 12233 12234 12235 12236 12237 12238 12239 
12240 12241 12242 12243 12244 12245 12246 12247 12248 
12249 12250 12251 12252 12253 12254 12255 12256 12257 
12258 12259 12260 12261 12262 12263 12264 12265 12266 
12267 12268 12269 12270 12271 12272 12273 12274 12275 
12276 12277 12278 12279 12280 12281 12282 12283 12284 
12285 12286 12287 12288 12289 12290 12291 12292 12293 
12294 12295 12296 12297 12298 12299 12300 12301 12302 
12303 12304 12305 12306 12307 12308 12309 12310 12311 
12312 12313 12314 12315 12316 12317 12318 12319 12320 
12321 12322 12323 12324 12325 12326 12327 12328 12329 
12330 12331 12332 12333 12334 12335 12336 12337 12338 
12339 12340 12341 12342 12343 12344 12345 12346 12347 
12348 12349 12350 12351 12352 12353 12354 12355 12356 
12357 12358 12359 12360 12361 12362 12363 12364 12365 
12366 12367 12368 12369 12370 12371 12372 12373 12374 
12375 12376 12377 12378 12379 12380 12381 12382 12383 
12384 12385 12386 12387 12388 12389 12390 12391 12392 
12393 12394 12395 12396 12397 12398 12399 12400 12401 
12402 12403 12404 12405 12406 12407 12408 12409 12410 
      </DataArray>
      <DataArray type="Int32" Name="offsets" format="ascii">
9
18
27
36
45
54
63
72
81
90
99
108
117
126
135
144
153
162
171
180
189
198
207
216
225
234
243
252
261
270
279
288
297
306
315
324
333
342
351
360
369
378
387
396
405
414
423
432
441
450
459
468
477
486
495
504
513
522
531
540
549
558
567
576
585
594
603
612
621
630
639
648
657
666
675
684
693
702
711
720
729
738
747
756
765
774
783
792
801
810
819
828
837
846
855
864
873
882
891
900
909
918
927
936
945
954
963
972
981
990
999
1008
1017
1026
1035
1044
1053
1062
1071
1080
1089
1098
1107
1116
1125
1134
1143
1152
1161
1170
1179
1188
1197
1206
1215
1224
1233
1242
1251
1260
1269
1278
1287
1296
1305
1314
1323
1332
1341
1350
1359
1368
1377
1386
1395
1404
1413
1422
1431
1440
1449
1458
1467
1476
1485
1494
1503
1512
1521
1530
1539
1548
1557
1566
1575
1584
1593
1602
1611
1620
1629
1638
1647
1656
1665
1674
1683
1692
1701
1710
1719
1728
1737
1746
1755
1764
1773
1782
1791
1800
1809
1818
1827
1836
1845
1854
1863
1872
1881
1890
1899
1908
1917
1926
1935
1944
1953
1962
1971
1980
1989
1998
2007
2016
2025
2034
2043
2052
2061
2070
2079
2088
2097
2106
2115
2124
2133
2142
2151
2160
2169
2178
2187
2196
2205
2214
2223
2232
2241
2250
2259
2268
2277
2286
2295
2304
2313
2322
2331
2340
2349
2358
2367
2376
2385
2394
2403
2412
2421
2430
2439
2448
2457
2466
2475
2484
2493
2502
2511
2520
2529
2538
2547
2556
2565
2574
2583
2592
2601
2610
2619
2628
2637
2646
2655
2664
2673
2682
2691
2700
2709
2718
2727
2736
2745
2754
2763
2772
2781
2790
2799
2808
2817
2826
2835
2844
2853
2862
2871
2880
2889
2898
2907
2916
2925
2934
2943
2952
2961
2970
2979
2988
2997
3006
3015
3024
3033
3042
3051
3060
3069
3078
3087
3096
3105
3114
3123
3132
3141
3150
3159
3168
3177
3186
3195
3204
3213
3222
3231
3240
3249
3258
3267
3276
3285
3294
3303
3312
3321
3330
3339
3348
3357
3366
3375
3384
3393
3402
3411
3420
3429
3438
3447
3456
3465
3474
3483
3492
3501
3510
3519
3528
3537
3546
3555
3564
3573
3582
3591
3600
3609
3618
3627
3636
3645
3654
3663
3672
3681
3690
3699
3708
3717
3726
3735
3744
3753
3762
3771
3780
3789
3798
3807
3816
3825
3834
3843
3852
3861
3870
3879
3888
3897
3906
3915
3924
3933
3942
3951
3960
3969
3978
3987
3996
4005
4014
4023
4032
4041
4050
4059
4068
4077
4086
4095
4104
4113
4122
4131
4140
4149
4158
4167
4176
4185
4194
4203
4212
4221
4230
4239
4248
4257
4266
4275
4284
4293
4302
4311
4320
4329
4338
4347
4356
4365
4374
4383
4392
4401
4410
4419
4428
4437
4446
4455
4464
4473
4482
4491
4500
4509
4518
4527
4536
4545
4554
4563
4572
4581
4590
4599
4608
4617
4626
4635
4644
4653
4662
4671
4680
4689
4698
4707
4716
4725
4734
4743
4752
4761
4770
4779
4788
4797
4806
4815
4824
4833
4842
4851
4860
4869
4878
4887
4896
4905
4914
4923
4932
4941
4950
4959
4968
4977
4986
4995
5004
5013
5022
5031
5040
5049
5058
5067
5076
5085
5094
5103
5112
5121
5130
5139
5148
5157
5166
5175
5184
5193
5202
5211
5220
5229
5238
5247
5256
5265
5274
5283
5292
5301
5310
5319
5328
5337
5346
5355
5364
5373
5382
5391
5400
5409
5418
5427
5436
5445
5454
5463
5472
5481
5490
5499
5508
5517
5526
5535
5544
5553
5562
5571
5580
5589
5598
5607
5616
5625
5634
5643
5652
5661
5670
5679
5688
5697
5706
5715
5724
5733
5742
5751
5760
5769
5778
5787
5796
5805
5814
5823
5832
5841
5850
5859
5868
5877
5886
5895
5904
5913
5922
5931
5940
5949
5958
5967
5976
5985
5994
6003
6012
6021
6030
6039
6048
6057
6066
6075
6084
6093
6102
6111
6120
6129
6138
6147
6156
6165
6174
6183
6192
6201
6210
6219
6228
6237
6246
6255
6264
6273
6282
6291
6300
6309
6318
6327
6336
6345
6354
6363
6372
6381
6390
6399
6408
6417
6426
6435
6444
6453
6462
6471
6480
6489
6498
6507
6516
6525
6534
6543
6552
6561
6570
6579
6588
6597
6606
6615
6624
6633
6642
6651
6660
6669
6678
6687
6696
6705
6714
6723
6732
6741
6750
6759
6768
6777
6786
6795
6804
6813
6822
6831
6840
6849
6858
6867
6876
6885
6894
6903
6912
6921
6930
6939
6948
6957
6966
6975
6984
6993
7002
7011
7020
7029
7038
7047
7056
7065
7074
7083
7092
7101
7110
7119
7128
7137
7146
7155
7164
7173
7182
7191
7200
7209
7218
7227
7236
7245
7254
7263
7272
7281
7290
7299
7308
7317
7326
7335
7344
7353
7362
7371
7380
7389
7398
7407
7416
7425
7434
7443
7452
7461
7470
7479
7488
7497
7506
7515
7524
7533
7542
7551
7560
7569
7578
7587
7596
7605
7614
7623
7632
7641
7650
7659
7668
7677
7686
7695
7704
7713
7722
7731
7740
7749
7758
7767
7776
7785
7794
7803
7812
7821
7830
7839
7848
7857
7866
7875
7884
7893
7902
7911
7920
7929
7938
7947
7956
7965
7974
7983
7992
8001
8010
8019
8028
8037
8046
8055
8064
8073
8082
8091
8100
8109
8118
8127
8136
8145
8154
8163
8172
8181
8190
8199
8208
8217
8226
8235
8244
8253
8262
8271
8280
8289
8298
8307
8316
8325
8334
8343
8352
8361
8370
8379
8388
8397
8406
8415
8424
8433
8442
8451
8460
8469
8478
8487
8496
8505
8514
8523
8532
8541
8550
8559
8568
8577
8586
8595
8604
8613
8622
8631
8640
8649
8658
8667
8676
8685
8694
8703
8712
8721
8730
8739
8748
8757
8766
8775
8784
8793
8802
8811
8820
8829
8838
8847
8856
8865
8874
8883
8892
8901
8910
8919
8928
8937
8946
8955
8964
8973
8982
8991
9000
9009
9018
9027
9036
9045
9054
9063
9072
9081
9090
9099
9108
9117
9126
9135
9144
9153
9162
9171
9180
9189
9198
9207
9216
9225
9234
9243
9252
9261
9270
9279
9288
9297
9306
9315
9324
9333
9342
9351
9360
9369
9378
9387
9396
9405
9414
9423
9432
9441
9450
9459
9468
9477
9486
9495
9504
9513
9522
9531
9540
9549
9558
9567
9576
9585
9594
9603
9612
9621
9630
9639
9648
9657
9666
9675
9684
9693
9702
9711
9720
9729
9738
9747
9756
9765
9774
9783
9792
9801
9810
9819
9828
9837
9846
9855
9864
9873
9882
9891
9900
9909
9918
9927
9936
9945
9954
9963
9972
9981
9990
9999
10008
10017
10026
10035
10044
10053
10062
10071
10080
10089
10098
10107
10116
10125
10134
10143
10152
10161
10170
10179
10188
10197
10206
10215
10224
10233
10242
10251
10260
10269
10278
10287
10296
10305
10314
10323
10332
10341
10350
10359
10368
10377
10386
10395
10404
10413
10422
10431
10440
10449
10458
10467
10476
10485
10494
10503
10512
10521
10530
10539
10548
10557
10566
10575
10584
10593
10602
10611
10620
10629
10638
10647
10656
10665
10674
10683
10692
10701
10710
10719
10728
10737
10746
10755
10764
10773
10782
10791
10800
10809
10818
10827
10836
10845
10854
10863
10872
10881
10890
10899
10908
10917
10926
10935
10944
10953
10962
10971
10980
10989
10998
11007
11016
11025
11034
11043
11052
11061
11070
11079
11088
11097
11106
11115
11124
11133
11142
11151
11160
11169
11178
11187
11196
11205
11214
11223
11232
11241
11250
11259
11268
11277
11286
11295
11304
11313
11322
11331
11340
11349
11358
11367
11376
11385
11394
11403
11412
11421
11430
11439
11448
11457
11466
11475
11484
11493
11502
11511
11520
11529
11538
11547
11556
11565
11574
11583
11592
11601
11610
11619
11628
11637
11646
11655
11664
11673
11682
11691
11700
11709
11718
11727
11736
11745
11754
11763
11772
11781
11790
11799
11808
11817
11826
11835
11844
11853
11862
11871
11880
11889
11898
11907
11916
11925
11934
11943
11952
11961
11970
11979
11988
11997
12006
12015
12024
12033
12042
12051
12060
12069
12078
12087
12096
12105
12114
12123
12132
12141
12150
12159
12168
12177
12186
12195
12204
12213
12222
12231
12240
12249
12258
12267
12276
12285
12294
12303
12312
12321
12330
12339
12348
12357
12366
12375
12384
12393
12402
12411
      </DataArray>
      <DataArray type="UInt8" Name="types" format="ascii">
70
70
70
70
70
70
70
70
70
70
70
70
70
70
70
70
70
70
70
70
70
70
70
70
70
70
70
70
70
70
70
70
70
70
70
70
70
70
70
70
70
70
70
70
70
70
70
70
70
70
70
70
70
70
70
70
70
70
70
70
70
70
70
70
70
70
70
70
70
70
70
70
70
70
70
70
70
70
70
70
70
70
70
70
70
70
70
70
70
70
70
70
70
70
70
70
70
70
70
70
70
70
70
70
70
70
70
70
70
70
70
70
70
70
70
70
70
70
70
70
70
70
70
70
70
70
70
70
70
70
70
70
70
70
70
70
70
70
70
70
70
70
70
70
70
70
70
70
70
70
70
70
70
70
70
70
70
70
70
70
70
70
70
70
70
70
70
70
70
70
70
70
70
70
70
70
70
70
70
70
70
70
70
70
70
70
70
70
70
70
70
70
70
70
70
70
70
70
70
70
70
70
70
70
70
70
70
70
70
70
70
70
70
70
70
70
70
70
70
70
70
70
70
70
70
70
70
70
70
70
70
70
70
70
70
70
70
70
70
70
70
70
70
70
70
70
70
70
70
70
70
70
70
70
70
70
70
70
70
70
70
70
70
70
70
70
70
70
70
70
70
70
70
70
70
70
70
70
70
70
70
70
70
70
70
70
70
70
70
70
70
70
70
70
70
70
70
70
70
70
70
70
70
70
70
70
70
70
70
70
70
70
70
70
70
70
70
70
70
70
70
70
70
70
70
70
70
70
70
70
70
70
70
70
70
70
70
70
70
70
70
70
70
70
70
70
70
70
70
70
70
70
70
70
70
70
70
70
70
70
70
70
70
70
70
70
70
70
70
70
70
70
70
70
70
70
70
70
70
70
70
70
70
70
70
70
70
70
70
70
70
70
70
70
70
70
70
70
70
70
70
70
70
70
70
70
70
70
70
70
70
70
70
70
70
70
70
70
70
70
70
70
70
70
70
70
70
70
70
70
70
70
70
70
70
70
70
70
70
70
70
70
70
70
70
70
70
70
70
70
70
70
70
70
70
70
70
70
70
70
70
70
70
70
70
70
70
70
70
70
70
70
70
70
70
70
70
70
70
70
70
70
70
70
70
70
70
70
70
70
70
70
70
70
70
70
70
70
70
70
70
70
70
70
70
70
70
70
70
70
70
70
70
70
70
70
70
70
70
70
70
70
70
70
70
70
70
70
70
70
70
70
70
70
70
70
70
70
70
70
70
70
70
70
70
70
70
70
70
70
70
70
70
70
70
70
70
70
70
70
70
70
70
70
70
70
70
70
70
70
70
70
70
70
70
70
70
70
70
70
70
70
70
70
70
70
70
70
70
70
70
70
70
70
70
70
70
70
70
70
70
70
70
70
70
70
70
70
70
70
70
70
70
70
70
70
70
70
70
70
70
70
70
70
70
70
70
70
70
70
70
70
70
70
70
70
70
70
70
70
70
70
70
70
70
70
70
70
70
70
70
70
70
70
70
70
70
70
70
70
70
70
70
70
70
70
70
70
70
70
70
70
70
70
70
70
70
70
70
70
70
70
70
70
70
70
70
70
70
70
70
70
70
70
70
70
70
70
70
70
70
70
70
70
70
70
70
70
70
70
70
70
70
70
70
70
70
70
70
70
70
70
70
70
70
70
70
70
70
70
70
70
70
70
70
70
70
70
70
70
70
70
70
70
70
70
70
70
70
70
70
70
70
70
70
70
70
70
70
70
70
70
70
70
70
70
70
70
70
70
70
70
70
70
70
70
70
70
70
70
70
70
70
70
70
70
70
70
70
70
70
70
70
70
70
70
70
70
70
70
70
70
70
70
70
70
70
70
70
70
70
70
70
70
70
70
70
70
70
70
70
70
70
70
70
70
70
70
70
70
70
70
70
70
70
70
70
70
70
70
70
70
70
70
70
70
70
70
70
70
70
70
70
70
70
70
70
70
70
70
70
70
70
70
70
70
70
70
70
70
70
70
70
70
70
70
70
70
70
70
70
70
70
70
70
70
70
70
70
70
70
70
70
70
70
70
70
70
70
70
70
70
70
70
70
70
70
70
70
70
70
70
70
70
70
70
70
70
70
70
70
70
70
70
70
70
70
70
70
70
70
70
70
70
70
70
70
70
70
70
70
70
70
70
70
70
70
70
70
70
70
70
70
70
70
70
70
70
70
70
70
70
70
70
70
70
70
70
70
70
70
70
70
70
70
70
70
70
70
70
70
70
70
70
70
70
70
70
70
70
70
70
70
70
70
70
70
70
70
70
70
70
70
70
70
70
70
70
70
70
70
70
70
70
70
70
70
70
70
70
70
70
70
70
70
70
70
70
70
70
70
70
70
70
70
70
70
70
70
70
70
70
70
70
70
70
70
70
70
70
70
70
70
70
70
70
70
70
70
70
70
70
70
70
70
70
70
70
70
70
70
70
70
70
70
70
70
70
70
70
70
70
70
70
70
70
70
70
70
70
70
70
70
70
70
70
70
70
70
70
70
70
70
70
70
70
70
70
70
70
70
70
70
70
70
70
70
70
70
70
70
70
70
70
70
70
70
70
70
70
70
70
70
70
70
70
70
70
70
70
70
70
70
70
70
70
70
70
70
70
70
70
70
70
70
70
70
70
70
70
70
70
70
70
70
70
70
70
70
70
70
70
70
70
70
70
70
70
70
70
70
70
70
70
70
70
70
70
70
70
70
70
70
70
70
70
70
70
70
70
70
70
70
70
70
70
70
70
70
70
70
70
70
70
70
70
70
70
70
70
70
70
70
70
70
70
70
70
70
70
70
70
70
70
70
70
70
70
70
70
70
70
70
70
70
70
70
70
70
70
70
70
70
70
70
70
70
70
70
70
70
70
70
70
70
70
70
70
70
70
70
70
70
70
70
70
70
70
70
70
70
70
70
70
70
70
70
70
70
70
70
70
70
70
70
70
70
70
70
70
70
70
70
70
70
70
70
70
70
70
70
70
70
70
70
70
70
70
70
70
70
70
70
70
70
70
70
70
70
70
70
70
70
70
70
70
70
70
70
70
70
70
70
70
70
70
70
70
70
70
70
70
70
70
70
70
70
70
70
70
70
70
70
70
70
70
70
70
70
70
70
70
70
70
70
70
70
70
70
      </DataArray>
    </Cells>
    <PointData>
      <DataArray type="Float64" NumberOfComponents="3" Name="Displacement" format="ascii">
0 0 0
-0.0107735 -0.00535965 -0.00535965
-0.00642589 -0.0018062 -0.0018062
0 0 0
-0.00586404 -0.00334433 -0.00334433
-0.00811578 -0.00323755 -0.00323755
-0.00311776 -0.000646249 -0.000646249
0 0 0
-0.00387008 -0.0014278 -0.0014278
-0.0107735 -0.00535965 -0.00535965
-0.0200947 -0.00929924 -0.00929924
-0.0133851 -0.00521914 -0.00521914
-0.00642589 -0.0018062 -0.0018062
-0.0154471 -0.007255 -0.007255
-0.0165719 -0.00705235 -0.00705235
-0.00987237 -0.00334779 -0.00334779
-0.00811578 -0.00323755 -0.00323755
-0.0123677 -0.0050878 -0.0050878
-0.0200947 -0.00929924 -0.00929924
-0.0295021 -0.0140531 -0.0140531
-0.0204077 -0.00990982 -0.00990982
-0.0133851 -0.00521914 -0.00521914
-0.0247814 -0.0115366 -0.0115366
-0.0249054 -0.0118244 -0.0118244
-0.0169005 -0.00739916 -0.00739916
-0.0165719 -0.00705235 -0.00705235
-0.0207493 -0.00928249 -0.00928249
-0.0295021 -0.0140531 -0.0140531
-0.0389896 -0.0201741 -0.0201741
-0.0273969 -0.0160219 -0.0160219
-0.0204077 -0.00990982 -0.00990982
-0.0342386 -0.0169283 -0.0169283
-0.03317 -0.0179335 -0.0179335
-0.023908 -0.0127798 -0.0127798
-0.0249054 -0.0118244 -0.0118244
-0.0290433 -0.0146991 -0.0146991
-0.0389896 -0.0201741 -0.0201741
-0.0485307 -0.0277882 -0.0277882
-0.0343298 -0.0236571 -0.0236571
-0.0273969 -0.0160219 -0.0160219
-0.0437562 -0.0237893 -0.0237893
-0.0414097 -0.0255595 -0.0255595
-0.0308699 -0.0196448 -0.0196448
-0.03317 -0.0179335 -0.0179335
-0.0372923 -0.0215513 -0.0215513
-0.0485307 -0.0277882 -0.0277882
-0.0580789 -0.0369808 -0.0369808
-0.0412213 -0.0328737 -0.0328737
-0.0343298 -0.0236571 -0.0236571
-0.0533055 -0.0321852 -0.0321852
-0.0496257 -0.0347591 -0.0347591
-0.0377803 -0.028066 -0.028066
-0.0414097 -0.0255595 -0.0255595
-0.0455207 -0.0299608 -0.0299608
-0.0580789 -0.0369808 -0.0369808
-0.0676182 -0.0477634 -0.0477634
-0.048075 -0.0436879 -0.0436879
-0.0412213 -0.0328737 -0.0328737
-0.0628506 -0.0421729 -0.0421729
-0.0578182 -0.0455567 -0.0455567
-0.0446526 -0.0380807 -0.0380807
-0.0496257 -0.0347591 -0.0347591
-0.0537251 -0.0399576 -0.0399576
-0.0676182 -0.0477634 -0.0477634
-0.0771317 -0.0601462 -0.0601462
-0.0548972 -0.0561041 -0.0561041
-0.048075 -0.0436879 -0.0436879
-0.0723787 -0.0537549 -0.0537549
-0.0659828 -0.057955 -0.057955
-0.0514898 -0.049696 -0.049696
-0.0578182 -0.0455567 -0.0455567
-0.0619042 -0.0515559 -0.0515559
-0.0771317 -0.0601462 -0.0601462
-0.0866132 -0.0741227 -0.0741227
-0.0616898 -0.070117 -0.070117
-0.0548972 -0.0561041 -0.0561041
-0.0818768 -0.0669356 -0.0669356
-0.0741178 -0.0719498 -0.0719498
-0.0582971 -0.0629114 -0.0629114
-0.0659828 -0.057955 -0.057955
-0.0700541 -0.0647532 -0.0647532
-0.0866132 -0.0741227 -0.0741227
-0.0960582 -0.0896872 -0.0896872
-0.0684551 -0.0857196 -0.0857196
-0.0616898 -0.070117 -0.070117
-0.0913404 -0.0817069 -0.0817069
-0.0822216 -0.0875337 -0.0875337
-0.0650758 -0.0777201 -0.0777201
-0.0741178 -0.0719498 -0.0719498
-0.0781736 -0.0795437 -0.0795437
-0.0960582 -0.0896872 -0.0896872
-0.105465 -0.106831 -0.106831
-0.0751943 -0.102903 -0.102903
-0.0684551 -0.0857196 -0.0857196
-0.100766 -0.0980621 -0.0980621
-0.0902939 -0.104698 -0.104698
-0.0718279 -0.0941142 -0.0941142
-0.0822216 -0.0875337 -0.0875337
-0.0862617 -0.0959188 -0.0959188
-0.105465 -0.106831 -0.106831
-0.114834 -0.125545 -0.125545
-0.0819085 -0.121659 -0.121659
-0.0751943 -0.102903 -0.102903
-0.110154 -0.115992 -0.115992
-0.0983349 -0.123434 -0.123434
-0.0785545 -0.112085 -0.112085
-0.0902939 -0.104698 -0.104698
-0.0943183 -0.11387 -0.11387
-0.114834 -0.125545 -0.125545
-0.124164 -0.145821 -0.145821
-0.0885988 -0.141977 -0.141977
-0.0819085 -0.121659 -0.121659
-0.119504 -0.135488 -0.135488
-0.106345 -0.143732 -0.143732
-0.0852566 -0.131623 -0.131623
-0.0983349 -0.123434 -0.123434
-0.102344 -0.133388 -0.133388
-0.124164 -0.145821 -0.145821
-0.133458 -0.16765 -0.16765
-0.0952659 -0.163851 -0.163851
-0.0885988 -0.141977 -0.141977
-0.128816 -0.156542 -0.156542
-0.114325 -0.165584 -0.165584
-0.0919352 -0.15272 -0.15272
-0.106345 -0.143732 -0.143732
-0.110339 -0.154464 -0.154464
-0.133458 -0.16765 -0.16765
-0.142714 -0.191024 -0.191024
-0.101911 -0.18727 -0.18727
-0.0952659 -0.163851 -0.163851
-0.13809 -0.179144 -0.179144
-0.122276 -0.188982 -0.188982
-0.0985911 -0.175368 -0.175368
-0.114325 -0.165584 -0.165584
-0.118304 -0.17709 -0.17709
-0.142714 -0.191024 -0.191024
-0.151935 -0.215933 -0.215933
-0.108535 -0.212227 -0.212227
-0.101911 -0.18727 -0.18727
-0.147329 -0.203287 -0.203287
-0.130198 -0.213916 -0.213916
-0.105225 -0.199557 -0.199557
-0.122276 -0.188982 -0.188982
-0.12624 -0.201257 -0.201257
-0.151935 -0.215933 -0.215933
-0.161121 -0.242371 -0.242371
-0.115138 -0.238713 -0.238713
-0.108535 -0.212227 -0.212227
-0.156532 -0.228962 -0.228962
-0.138092 -0.240378 -0.240378
-0.111839 -0.22528 -0.22528
-0.130198 -0.213916 -0.213916
-0.134148 -0.226957 -0.226957
-0.161121 -0.242371 -0.242371
-0.170273 -0.270327 -0.270327
-0.121721 -0.26672 -0.26672
-0.115138 -0.238713 -0.238713
-0.165701 -0.25616 -0.25616
-0.14596 -0.268361 -0.268361
-0.118432 -0.252527 -0.252527
-0.138092 -0.240378 -0.240378
-0.142029 -0.25418 -0.25418
-0.170273 -0.270327 -0.270327
-0.179392 -0.299795 -0.299795
-0.128286 -0.296238 -0.296238
-0.121721 -0.26672 -0.26672
-0.174836 -0.284873 -0.284873
-0.153802 -0.297855 -0.297855
-0.125006 -0.281291 -0.281291
-0.14596 -0.268361 -0.268361
-0.149884 -0.282919 -0.282919
-0.179392 -0.299795 -0.299795
-0.188478 -0.330764 -0.330764
-0.134833 -0.327261 -0.327261
-0.128286 -0.296238 -0.296238
-0.183939 -0.315092 -0.315092
-0.161618 -0.328852 -0.328852
-0.131561 -0.311562 -0.311562
-0.153802 -0.297855 -0.297855
-0.157713 -0.313166 -0.313166
-0.188478 -0.330764 -0.330764
-0.197533 -0.363228 -0.363228
-0.141362 -0.359778 -0.359778
-0.134833 -0.327261 -0.327261
-0.193009 -0.34681 -0.34681
-0.16941 -0.361343 -0.361343
-0.138099 -0.343333 -0.343333
-0.161618 -0.328852 -0.328852
-0.165517 -0.344911 -0.344911
-0.197533 -0.363228 -0.363228
-0.206556 -0.397177 -0.397177
-0.147875 -0.393783 -0.393783
-0.141362 -0.359778 -0.359778
-0.202048 -0.380017 -0.380017
-0.177178 -0.395321 -0.395321
-0.144621 -0.376595 -0.376595
-0.16941 -0.361343 -0.361343
-0.173297 -0.378147 -0.378147
-0.206556 -0.397177 -0.397177
-0.21555 -0.432603 -0.432603
-0.154372 -0.429266 -0.429266
-0.147875 -0.393783 -0.393783
-0.211057 -0.414706 -0.414706
-0.184924 -0.430776 -0.430776
-0.151126 -0.41134 -0.41134
-0.177178 -0.395321 -0.395321
-0.181054 -0.412865 -0.412865
-0.21555 -0.432603 -0.432603
-0.224515 -0.469498 -0.469498
-0.160855 -0.466219 -0.466219
-0.154372 -0.429266 -0.429266
-0.220036 -0.450868 -0.450868
-0.192647 -0.467701 -0.467701
-0.157615 -0.447559 -0.447559
-0.184924 -0.430776 -0.430776
-0.188788 -0.449056 -0.449056
-0.224515 -0.469498 -0.469498
-0.233451 -0.507854 -0.507854
-0.167323 -0.504633 -0.504633
-0.160855 -0.466219 -0.466219
-0.228986 -0.488494 -0.488494
-0.200349 -0.506087 -0.506087
-0.16409 -0.485244 -0.485244
-0.192647 -0.467701 -0.467701
-0.196501 -0.486712 -0.486712
-0.233451 -0.507854 -0.507854
-0.242359 -0.547661 -0.547661
-0.173777 -0.544501 -0.544501
-0.167323 -0.504633 -0.504633
-0.237908 -0.527576 -0.527576
-0.20803 -0.545926 -0.545926
-0.170552 -0.524386 -0.524386
-0.200349 -0.506087 -0.506087
-0.204192 -0.525825 -0.525825
-0.242359 -0.547661 -0.547661
-0.251239 -0.588912 -0.588912
-0.180219 -0.585813 -0.585813
-0.173777 -0.544501 -0.544501
-0.246802 -0.568107 -0.568107
-0.215691 -0.587208 -0.587208
-0.177 -0.564977 -0.564977
-0.20803 -0.545926 -0.545926
-0.211863 -0.566387 -0.566387
-0.251239 -0.588912 -0.588912
-0.260094 -0.631598 -0.631598
-0.186649 -0.628562 -0.628562
-0.180219 -0.585813 -0.585813
-0.25567 -0.610076 -0.610076
-0.223333 -0.629927 -0.629927
-0.183435 -0.607008 -0.607008
-0.215691 -0.587208 -0.587208
-0.219515 -0.608388 -0.608388
-0.260094 -0.631598 -0.631598
-0.268922 -0.675711 -0.675711
-0.193067 -0.672738 -0.672738
-0.186649 -0.628562 -0.628562
-0.264511 -0.653477 -0.653477
-0.230956 -0.674072 -0.674072
-0.189859 -0.650472 -0.650472
-0.223333 -0.629927 -0.629927
-0.227147 -0.651821 -0.651821
-0.268922 -0.675711 -0.675711
-0.277725 -0.721242 -0.721242
-0.199474 -0.718334 -0.718334
-0.193067 -0.672738 -0.672738
-0.273327 -0.6983 -0.6983
-0.238562 -0.719637 -0.719637
-0.196272 -0.695359 -0.695359
-0.230956 -0.674072 -0.674072
-0.234761 -0.696678 -0.696678
-0.277725 -0.721242 -0.721242
-0.286504 -0.768183 -0.768183
-0.205871 -0.765341 -0.765341
-0.199474 -0.718334 -0.718334
-0.282118 -0.744537 -0.744537
-0.246149 -0.766612 -0.766612
-0.202674 -0.741662 -0.741662
-0.238562 -0.719637 -0.719637
-0.242358 -0.742948 -0.742948
-0.286504 -0.768183 -0.768183
-0.295259 -0.816526 -0.816526
-0.212259 -0.813751 -0.813751
-0.205871 -0.765341 -0.765341
-0.290884 -0.79218 -0.79218
-0.253721 -0.814989 -0.814989
-0.209066 -0.789371 -0.789371
-0.246149 -0.766612 -0.766612
-0.249937 -0.790625 -0.790625
-0.295259 -0.816526 -0.816526
-0.30399 -0.866262 -0.866262
-0.218637 -0.863554 -0.863554
-0.212259 -0.813751 -0.813751
-0.299627 -0.84122 -0.84122
-0.261275 -0.864759 -0.864759
-0.215449 -0.838479 -0.838479
-0.253721 -0.814989 -0.814989
-0.2575 -0.8397 -0.8397
-0.30399 -0.866262 -0.866262
-0.312699 -0.917382 -0.917382
-0.225008 -0.914744 -0.914744
-0.218637 -0.863554 -0.863554
-0.308347 -0.891649 -0.891649
-0.268815 -0.915915 -0.915915
-0.221824 -0.888976 -0.888976
-0.261275 -0.864759 -0.864759
-0.265047 -0.890165 -0.890165
-0.312699 -0.917382 -0.917382
-0.321385 -0.969879 -0.969879
-0.23137 -0.96731 -0.96731
-0.225008 -0.914744 -0.914744
-0.317045 -0.943459 -0.943459
-0.276339 -0.968448 -0.968448
-0.22819 -0.940855 -0.940855
-0.268815 -0.915915 -0.915915
-0.272579 -0.94201 -0.94201
-0.321385 -0.969879 -0.969879
-0.33005 -1.02374 -1.02374
-0.237725 -1.02125 -1.02125
-0.23137 -0.96731 -0.96731
-0.32572 -0.996641 -0.996641
-0.28385 -1.02235 -1.02235
-0.234549 -0.994108 -0.994108
-0.276339 -0.968448 -0.968448
-0.280096 -0.995228 -0.995228
-0.33005 -1.02374 -1.02374
-0.338694 -1.07897 -1.07897
-0.244074 -1.07654 -1.07654
-0.237725 -1.02125 -1.02125
-0.334375 -1.05119 -1.05119
-0.291346 -1.07761 -1.07761
-0.240901 -1.04872 -1.04872
-0.28385 -1.02235 -1.02235
-0.287599 -1.04981 -1.04981
-0.338694 -1.07897 -1.07897
-0.347318 -1.13554 -1.13554
-0.250417 -1.13319 -1.13319
-0.244074 -1.07654 -1.07654
-0.343009 -1.10709 -1.10709
-0.298829 -1.13422 -1.13422
-0.247246 -1.1047 -1.1047
-0.291346 -1.07761 -1.07761
-0.295089 -1.10575 -1.10575
-0.347318 -1.13554 -1.13554
-0.355922 -1.19346 -1.19346
-0.256754 -1.19118 -1.19118
-0.250417 -1.13319 -1.13319
-0.351622 -1.16433 -1.16433
-0.306299 -1.19218 -1.19218
-0.253586 -1.16202 -1.16202
-0.298829 -1.13422 -1.13422
-0.302566 -1.16303 -1.16303
-0.355922 -1.19346 -1.19346
-0.364506 -1.25271 -1.25271
-0.263086 -1.25051 -1.25051
-0.256754 -1.19118 -1.19118
-0.360216 -1.22292 -1.22292
-0.313757 -1.25147 -1.25147
-0.25992 -1.22068 -1.22068
-0.306299 -1.19218 -1.19218
-0.31003 -1.22166 -1.22166
-0.364506 -1.25271 -1.25271
-0.373071 -1.31329 -1.31329
-0.269413 -1.31116 -1.31116
-0.263086 -1.25051 -1.25051
-0.368791 -1.28284 -1.28284
-0.321204 -1.31209 -1.31209
-0.26625 -1.28067 -1.28067
-0.313757 -1.25147 -1.25147
-0.317482 -1.28161 -1.28161
-0.373071 -1.31329 -1.31329
-0.381618 -1.37519 -1.37519
-0.275737 -1.37313 -1.37313
-0.269413 -1.31116 -1.31116
-0.377347 -1.34408 -1.34408
-0.328639 -1.37402 -1.37402
-0.272576 -1.34198 -1.34198
-0.321204 -1.31209 -1.31209
-0.324922 -1.34289 -1.34289
-0.381618 -1.37519 -1.37519
-0.390147 -1.43839 -1.43839
-0.282057 -1.43641 -1.43641
-0.275737 -1.37313 -1.37313
-0.385885 -1.40663 -1.40663
-0.336063 -1.43726 -1.43726
-0.278897 -1.40461 -1.40461
-0.328639 -1.37402 -1.37402
-0.332352 -1.40548 -1.40548
-0.390147 -1.43839 -1.43839
-0.398658 -1.5029 -1.5029
-0.288373 -1.501 -1.501
-0.282057 -1.43641 -1.43641
-0.394405 -1.47048 -1.47048
-0.343477 -1.50181 -1.50181
-0.285215 -1.46854 -1.46854
-0.336063 -1.43726 -1.43726
-0.339771 -1.46937 -1.46937
-0.398658 -1.5029 -1.5029
-0.407153 -1.56869 -1.56869
-0.294688 -1.56687 -1.56687
-0.288373 -1.501 -1.501
-0.402908 -1.53563 -1.53563
-0.350881 -1.56765 -1.56765
-0.291531 -1.53377 -1.53377
-0.343477 -1.50181 -1.50181
-0.34718 -1.53457 -1.53457
-0.407153 -1.56869 -1.56869
-0.415631 -1.63578 -1.63578
-0.300999 -1.63403 -1.63403
-0.294688 -1.56687 -1.56687
-0.411394 -1.60207 -1.60207
-0.358276 -1.63477 -1.63477
-0.297844 -1.60029 -1.60029
-0.350881 -1.56765 -1.56765
-0.35458 -1.60105 -1.60105
-0.415631 -1.63578 -1.63578
-0.424092 -1.70413 -1.70413
-0.307309 -1.70247 -1.70247
-0.300999 -1.63403 -1.63403
-0.419864 -1.66979 -1.66979
-0.365662 -1.70317 -1.70317
-0.304155 -1.66809 -1.66809
-0.358276 -1.63477 -1.63477
-0.36197 -1.66881 -1.66881
-0.424092 -1.70413 -1.70413
-0.432538 -1.77376 -1.77376
-0.313618 -1.77217 -1.77217
-0.307309 -1.70247 -1.70247
-0.428317 -1.73879 -1.73879
-0.373039 -1.77283 -1.77283
-0.310464 -1.73716 -1.73716
-0.365662 -1.70317 -1.70317
-0.369352 -1.73784 -1.73784
-0.432538 -1.77376 -1.77376
-0.440969 -1.84464 -1.84464
-0.319926 -1.84314 -1.84314
-0.313618 -1.77217 -1.77217
-0.436756 -1.80904 -1.80904
-0.380408 -1.84375 -1.84375
-0.316772 -1.8075 -1.8075
-0.373039 -1.77283 -1.77283
-0.376725 -1.80814 -1.80814
-0.440969 -1.84464 -1.84464
-0.449385 -1.91677 -1.91677
-0.326233 -1.91535 -1.91535
-0.319926 -1.84314 -1.84314
-0.445179 -1.88055 -1.88055
-0.38777 -1.91593 -1.91593
-0.32308 -1.87909 -1.87909
-0.380408 -1.84375 -1.84375
-0.38409 -1.87969 -1.87969
-0.449385 -1.91677 -1.91677
-0.457786 -1.99014 -1.99014
-0.33254 -1.98881 -1.98881
-0.326233 -1.91535 -1.91535
-0.453587 -1.9533 -1.9533
-0.395124 -1.98934 -1.98934
-0.329386 -1.95192 -1.95192
-0.38777 -1.91593 -1.91593
-0.391448 -1.95248 -1.95248
-0.457786 -1.99014 -1.99014
-0.466173 -2.06475 -2.06475
-0.338847 -2.0635 -2.0635
-0.33254 -1.98881 -1.98881
-0.461981 -2.02729 -2.02729
-0.402471 -2.06399 -2.06399
-0.335693 -2.026 -2.026
-0.395124 -1.98934 -1.98934
-0.398798 -2.02652 -2.02652
-0.466173 -2.06475 -2.06475
-0.474546 -2.14058 -2.14058
-0.345155 -2.13941 -2.13941
-0.338847 -2.0635 -2.0635
-0.470361 -2.10251 -2.10251
-0.409811 -2.13987 -2.13987
-0.342001 -2.1013 -2.1013
-0.402471 -2.06399 -2.06399
-0.406142 -2.10178 -2.10178
-0.474546 -2.14058 -2.14058
-0.482905 -2.21763 -2.21763
-0.351463 -2.21655 -2.21655
-0.345155 -2.13941 -2.13941
-0.478727 -2.17896 -2.17896
-0.417145 -2.21696 -2.21696
-0.348309 -2.17783 -2.17783
-0.409811 -2.13987 -2.13987
-0.413479 -2.17826 -2.17826
-0.482905 -2.21763 -2.21763
-0.491251 -2.29589 -2.29589
-0.357772 -2.29489 -2.29489
-0.351463 -2.21655 -2.21655
-0.48708 -2.25661 -2.25661
-0.424473 -2.29526 -2.29526
-0.354617 -2.25557 -2.25557
-0.417145 -2.21696 -2.21696
-0.420809 -2.25596 -2.25596
-0.491251 -2.29589 -2.29589
-0.499584 -2.37535 -2.37535
-0.364083 -2.37443 -2.37443
-0.357772 -2.29489 -2.29489
-0.495419 -2.33547 -2.33547
-0.431795 -2.37476 -2.37476
-0.360928 -2.33451 -2.33451
-0.424473 -2.29526 -2.29526
-0.428134 -2.33486 -2.33486
-0.499584 -2.37535 -2.37535
-0.507905 -2.45599 -2.45599
-0.370396 -2.45516 -2.45516
-0.364083 -2.37443 -2.37443
-0.503746 -2.41552 -2.41552
-0.439111 -2.45545 -2.45545
-0.36724 -2.41465 -2.41465
-0.431795 -2.37476 -2.37476
-0.435454 -2.41496 -2.41496
-0.507905 -2.45599 -2.45599
-0.516214 -2.53782 -2.53782
-0.376711 -2.53708 -2.53708
-0.370396 -2.45516 -2.45516
-0.512061 -2.49676 -2.49676
-0.446423 -2.53733 -2.53733
-0.373553 -2.49597 -2.49597
-0.439111 -2.45545 -2.45545
-0.442768 -2.49624 -2.49624
-0.516214 -2.53782 -2.53782
-0.52451 -2.62083 -2.62083
-0.383028 -2.62017 -2.62017
-0.376711 -2.53708 -2.53708
-0.520363 -2.57918 -2.57918
-0.45373 -2.62038 -2.62038
-0.379869 -2.57848 -2.57848
-0.446423 -2.53733 -2.53733
-0.450077 -2.5787 -2.5787
-0.52451 -2.62083 -2.62083
-0.532795 -2.705 -2.705
-0.389348 -2.70443 -2.70443
-0.383028 -2.62017 -2.62017
-0.528654 -2.66277 -2.66277
-0.461032 -2.70459 -2.70459
-0.386188 -2.66215 -2.66215
-0.45373 -2.62038 -2.62038
-0.457381 -2.66234 -2.66234
-0.532795 -2.705 -2.705
-0.541068 -2.79033 -2.79033
-0.39567 -2.78984 -2.78984
-0.389348 -2.70443 -2.70443
-0.536933 -2.74752 -2.74752
-0.46833 -2.78996 -2.78996
-0.392509 -2.74699 -2.74699
-0.461032 -2.70459 -2.70459
-0.464681 -2.74713 -2.74713
-0.541068 -2.79033 -2.79033
-0.54933 -2.87681 -2.87681
-0.401996 -2.87641 -2.87641
-0.39567 -2.78984 -2.78984
-0.5452 -2.83342 -2.83342
-0.475623 -2.87649 -2.87649
-0.398833 -2.83298 -2.83298
-0.46833 -2.78996 -2.78996
-0.471977 -2.83308 -2.83308
-0.54933 -2.87681 -2.87681
-0.55758 -2.96442 -2.96442
-0.408325 -2.96412 -2.96412
-0.401996 -2.87641 -2.87641
-0.553456 -2.92047 -2.92047
-0.482913 -2.96415 -2.96415
-0.40516 -2.92012 -2.92012
-0.475623 -2.87649 -2.87649
-0.479269 -2.92018 -2.92018
-0.55758 -2.96442 -2.96442
-0.56582 -3.05317 -3.05317
-0.414658 -3.05296 -3.05296
-0.408325 -2.96412 -2.96412
-0.561702 -3.00866 -3.00866
-0.4902 -3.05294 -3.05294
-0.411491 -3.00839 -3.00839
-0.482913 -2.96415 -2.96415
-0.486557 -3.00841 -3.00841
-0.56582 -3.05317 -3.05317
-0.57405 -3.14305 -3.14305
-0.420994 -3.14292 -3.14292
-0.414658 -3.05296 -3.05296
-0.569937 -3.09797 -3.09797
-0.497482 -3.14286 -3.14286
-0.417825 -3.0978 -3.0978
-0.4902 -3.05294 -3.05294
-0.493841 -3.09776 -3.09776
-0.57405 -3.14305 -3.14305
-0.582269 -3.23404 -3.23404
-0.427334 -3.234 -3.234
-0.420994 -3.14292 -3.14292
-0.578161 -3.1884 -3.1884
-0.504762 -3.2339 -3.2339
-0.424164 -3.18832 -3.18832
-0.497482 -3.14286 -3.14286
-0.501123 -3.18824 -3.18824
-0.582269 -3.23404 -3.23404
-0.590478 -3.32614 -3.32614
-0.433679 -3.32618 -3.32618
-0.427334 -3.234 -3.234
-0.586375 -3.27995 -3.27995
-0.512039 -3.32604 -3.32604
-0.430506 -3.27995 -3.27995
-0.504762 -3.2339 -3.2339
-0.508401 -3.27983 -3.27983
-0.590478 -3.32614 -3.32614
-0.598676 -3.41933 -3.41933
-0.440027 -3.41947 -3.41947
-0.433679 -3.32618 -3.32618
-0.594578 -3.3726 -3.3726
-0.519312 -3.41928 -3.41928
-0.436852 -3.37269 -3.37269
-0.512039 -3.32604 -3.32604
-0.515676 -3.37253 -3.37253
-0.598676 -3.41933 -3.41933
-0.606865 -3.51362 -3.51362
-0.446381 -3.51385 -3.51385
-0.440027 -3.41947 -3.41947
-0.602772 -3.46634 -3.46634
-0.526583 -3.51362 -3.51362
-0.443203 -3.46652 -3.46652
-0.519312 -3.41928 -3.41928
-0.522948 -3.46631 -3.46631
-0.606865 -3.51362 -3.51362
-0.615044 -3.60898 -3.60898
-0.452738 -3.6093 -3.6093
-0.446381 -3.51385 -3.51385
-0.610956 -3.56117 -3.56117
-0.533852 -3.60903 -3.60903
-0.449559 -3.56144 -3.56144
-0.526583 -3.51362 -3.51362
-0.530218 -3.56119 -3.56119
-0.615044 -3.60898 -3.60898
-0.623214 -3.70543 -3.70543
-0.459101 -3.70584 -3.70584
-0.452738 -3.6093 -3.6093
-0.61913 -3.65707 -3.65707
-0.541118 -3.70552 -3.70552
-0.455919 -3.65744 -3.65744
-0.533852 -3.60903 -3.60903
-0.537485 -3.65714 -3.65714
-0.623214 -3.70543 -3.70543
-0.631374 -3.80293 -3.80293
-0.465468 -3.80343 -3.80343
-0.459101 -3.70584 -3.70584
-0.627295 -3.75405 -3.75405
-0.548382 -3.80307 -3.80307
-0.462284 -3.7545 -3.7545
-0.541118 -3.70552 -3.70552
-0.54475 -3.75416 -3.75416
-0.631374 -3.80293 -3.80293
-0.639525 -3.90149 -3.90149
-0.471841 -3.90209 -3.90209
-0.465468 -3.80343 -3.80343
-0.635451 -3.85208 -3.85208
-0.555643 -3.90168 -3.90168
-0.468654 -3.85263 -3.85263
-0.548382 -3.80307 -3.80307
-0.552013 -3.85224 -3.85224
-0.639525 -3.90149 -3.90149
-0.647667 -4.0011 -4.0011
-0.478219 -4.00179 -4.00179
-0.471841 -3.90209 -3.90209
-0.643597 -3.95117 -3.95117
-0.562903 -4.00134 -4.00134
-0.475029 -3.95181 -3.95181
-0.555643 -3.90168 -3.90168
-0.559273 -3.95138 -3.95138
-0.647667 -4.0011 -4.0011
-0.655799 -4.10176 -4.10176
-0.484601 -4.10253 -4.10253
-0.478219 -4.00179 -4.00179
-0.651734 -4.0513 -4.0513
-0.570161 -4.10203 -4.10203
-0.481409 -4.05203 -4.05203
-0.562903 -4.00134 -4.00134
-0.566532 -4.05155 -4.05155
-0.655799 -4.10176 -4.10176
-0.663922 -4.20344 -4.20344
-0.49099 -4.2043 -4.2043
-0.484601 -4.10253 -4.10253
-0.659862 -4.15247 -4.15247
-0.577416 -4.20376 -4.20376
-0.487795 -4.15329 -4.15329
-0.570161 -4.10203 -4.10203
-0.573789 -4.15277 -4.15277
-0.663922 -4.20344 -4.20344
-0.672037 -4.30614 -4.30614
-0.497383 -4.3071 -4.3071
-0.49099 -4.2043 -4.2043
-0.667981 -4.25466 -4.25466
-0.58467 -4.30651 -4.30651
-0.494186 -4.25557 -4.25557
-0.577416 -4.20376 -4.20376
-0.581044 -4.25501 -4.25501
-0.672037 -4.30614 -4.30614
-0.680143 -4.40986 -4.40986
-0.503782 -4.41091 -4.41091
-0.497383 -4.3071 -4.3071
-0.676091 -4.35787 -4.35787
-0.591923 -4.41028 -4.41028
-0.500582 -4.35888 -4.35888
-0.58467 -4.30651 -4.30651
-0.588297 -4.35827 -4.35827
-0.680143 -4.40986 -4.40986
-0.688239 -4.51459 -4.51459
-0.510187 -4.51573 -4.51573
-0.503782 -4.41091 -4.41091
-0.684192 -4.4621 -4.4621
-0.599173 -4.51505 -4.51505
-0.506984 -4.46319 -4.46319
-0.591923 -4.41028 -4.41028
-0.595548 -4.46254 -4.46254
-0.688239 -4.51459 -4.51459
-0.696327 -4.62031 -4.62031
-0.516597 -4.62154 -4.62154
-0.510187 -4.51573 -4.51573
-0.692284 -4.56732 -4.56732
-0.606423 -4.62082 -4.62082
-0.513391 -4.56851 -4.56851
-0.599173 -4.51505 -4.51505
-0.602798 -4.56781 -4.56781
-0.696327 -4.62031 -4.62031
-0.704407 -4.72702 -4.72702
-0.523013 -4.72834 -4.72834
-0.516597 -4.62154 -4.62154
-0.700368 -4.67354 -4.67354
-0.61367 -4.72758 -4.72758
-0.519804 -4.67482 -4.67482
-0.606423 -4.62082 -4.62082
-0.610047 -4.67408 -4.67408
-0.704407 -4.72702 -4.72702
-0.712477 -4.83471 -4.83471
-0.529434 -4.83613 -4.83613
-0.523013 -4.72834 -4.72834
-0.708443 -4.78074 -4.78074
-0.620916 -4.83532 -4.83532
-0.526223 -4.78211 -4.78211
-0.61367 -4.72758 -4.72758
-0.617293 -4.78133 -4.78133
-0.712477 -4.83471 -4.83471
-0.720539 -4.94338 -4.94338
-0.535861 -4.94488 -4.94488
-0.529434 -4.83613 -4.83613
-0.716509 -4.88892 -4.88892
-0.628161 -4.94403 -4.94403
-0.532647 -4.89039 -4.89039
-0.620916 -4.83532 -4.83532
-0.624539 -4.88955 -4.88955
-0.720539 -4.94338 -4.94338
-0.728592 -5.05301 -5.05301
-0.542294 -5.05461 -5.05461
-0.535861 -4.94488 -4.94488
-0.724567 -4.99807 -4.99807
-0.635404 -5.0537 -5.0537
-0.539077 -4.99963 -4.99963
-0.628161 -4.94403 -4.94403
-0.631782 -4.99875 -4.99875
-0.728592 -5.05301 -5.05301
-0.736637 -5.16359 -5.16359
-0.548733 -5.16528 -5.16528
-0.542294 -5.05461 -5.05461
-0.732616 -5.10818 -5.10818
-0.642645 -5.16434 -5.16434
-0.545513 -5.10982 -5.10982
-0.635404 -5.0537 -5.0537
-0.639025 -5.1089 -5.1089
-0.736637 -5.16359 -5.16359
-0.744673 -5.27512 -5.27512
-0.555177 -5.2769 -5.2769
-0.548733 -5.16528 -5.16528
-0.740656 -5.21924 -5.21924
-0.649885 -5.27591 -5.27591
-0.551954 -5.22098 -5.22098
-0.642645 -5.16434 -5.16434
-0.646265 -5.22001 -5.22001
-0.744673 -5.27512 -5.27512
-0.7527 -5.38759 -5.38759
-0.561626 -5.38947 -5.38947
-0.555177 -5.2769 -5.2769
-0.748688 -5.33124 -5.33124
-0.657124 -5.38843 -5.38843
-0.558401 -5.33307 -5.33307
-0.649885 -5.27591 -5.27591
-0.653505 -5.33206 -5.33206
-0.7527 -5.38759 -5.38759
-0.760719 -5.50099 -5.50099
-0.568082 -5.50296 -5.50296
-0.561626 -5.38947 -5.38947
-0.75671 -5.44418 -5.44418
-0.66436 -5.50188 -5.50188
-0.564853 -5.4461 -5.4461
-0.657124 -5.38843 -5.38843
-0.660742 -5.44504 -5.44504
-0.760719 -5.50099 -5.50099
-0.768728 -5.61531 -5.61531
-0.574543 -5.61737 -5.61737
-0.568082 -5.50296 -5.50296
-0.764724 -5.55804 -5.55804
-0.671596 -5.61625 -5.61625
-0.571311 -5.56005 -5.56005
-0.66436 -5.50188 -5.50188
-0.667978 -5.55895 -5.55895
-0.768728 -5.61531 -5.61531
-0.776729 -5.73055 -5.73055
-0.581009 -5.7327 -5.7327
-0.574543 -5.61737 -5.61737
-0.77273 -5.67282 -5.67282
-0.678829 -5.73153 -5.73153
-0.577775 -5.67492 -5.67492
-0.671596 -5.61625 -5.61625
-0.675213 -5.67377 -5.67377
-0.776729 -5.73055 -5.73055
-0.784721 -5.84669 -5.84669
-0.587481 -5.84893 -5.84893
-0.581009 -5.7327 -5.7327
-0.780726 -5.78851 -5.78851
-0.686061 -5.84772 -5.84772
-0.584244 -5.7907 -5.7907
-0.678829 -5.73153 -5.73153
-0.682446 -5.78951 -5.78951
-0.784721 -5.84669 -5.84669
-0.792704 -5.96373 -5.96373
-0.593958 -5.96606 -5.96606
-0.587481 -5.84893 -5.84893
-0.788714 -5.9051 -5.9051
-0.693292 -5.9648 -5.9648
-0.590719 -5.90738 -5.90738
-0.686061 -5.84772 -5.84772
-0.689677 -5.90615 -5.90615
-0.792704 -5.96373 -5.96373
-0.800678 -6.08165 -6.08165
-0.600441 -6.08408 -6.08408
-0.593958 -5.96606 -5.96606
-0.796692 -6.02258 -6.02258
-0.70052 -6.08277 -6.08277
-0.597199 -6.02496 -6.02496
-0.693292 -5.9648 -5.9648
-0.696906 -6.02368 -6.02368
-0.800678 -6.08165 -6.08165
-0.808643 -6.20046 -6.20046
-0.606929 -6.20297 -6.20297
-0.600441 -6.08408 -6.08408
-0.804662 -6.14095 -6.14095
-0.707746 -6.20162 -6.20162
-0.603684 -6.14341 -6.14341
-0.70052 -6.08277 -6.08277
-0.704134 -6.14209 -6.14209
-0.808643 -6.20046 -6.20046
-0.816599 -6.32013 -6.32013
-0.613422 -6.32274 -6.32274
-0.606929 -6.20297 -6.20297
-0.812622 -6.26019 -6.26019
-0.714971 -6.32135 -6.32135
-0.610175 -6.26275 -6.26275
-0.707746 -6.20162 -6.20162
-0.711359 -6.26138 -6.26138
-0.816599 -6.32013 -6.32013
-0.824546 -6.44067 -6.44067
-0.61992 -6.44337 -6.44337
-0.613422 -6.32274 -6.32274
-0.820574 -6.3803 -6.3803
-0.722193 -6.44193 -6.44193
-0.61667 -6.38295 -6.38295
-0.714971 -6.32135 -6.32135
-0.718582 -6.38153 -6.38153
-0.824546 -6.44067 -6.44067
-0.832483 -6.56207 -6.56207
-0.626423 -6.56485 -6.56485
-0.61992 -6.44337 -6.44337
-0.828516 -6.50126 -6.50126
-0.729413 -6.56337 -6.56337
-0.623171 -6.504 -6.504
-0.722193 -6.44193 -6.44193
-0.725804 -6.50254 -6.50254
-0.832483 -6.56207 -6.56207
-0.840411 -6.68431 -6.68431
-0.632931 -6.68718 -6.68718
-0.626423 -6.56485 -6.56485
-0.836448 -6.62308 -6.62308
-0.736631 -6.68566 -6.68566
-0.629676 -6.62591 -6.62591
-0.729413 -6.56337 -6.56337
-0.733023 -6.62441 -6.62441
-0.840411 -6.68431 -6.68431
-0.848329 -6.80738 -6.80738
-0.639443 -6.81035 -6.81035
-0.632931 -6.68718 -6.68718
-0.844371 -6.74574 -6.74574
-0.743846 -6.80878 -6.80878
-0.636186 -6.74866 -6.74866
-0.736631 -6.68566 -6.68566
-0.740239 -6.74711 -6.74711
-0.848329 -6.80738 -6.80738
-0.856237 -6.93129 -6.93129
-0.64596 -6.93435 -6.93435
-0.639443 -6.81035 -6.81035
-0.852284 -6.86923 -6.86923
-0.751059 -6.93273 -6.93273
-0.642701 -6.87224 -6.87224
-0.743846 -6.80878 -6.80878
-0.747453 -6.87065 -6.87065
-0.856237 -6.93129 -6.93129
-0.864135 -7.05602 -7.05602
-0.652482 -7.05916 -7.05916
-0.64596 -6.93435 -6.93435
-0.860187 -6.99355 -6.99355
-0.758269 -7.0575 -7.0575
-0.649221 -6.99665 -6.99665
-0.751059 -6.93273 -6.93273
-0.754665 -6.99502 -6.99502
-0.864135 -7.05602 -7.05602
-0.872024 -7.18155 -7.18155
-0.659008 -7.18479 -7.18479
-0.652482 -7.05916 -7.05916
-0.868081 -7.11868 -7.11868
-0.765476 -7.18309 -7.18309
-0.655744 -7.12188 -7.12188
-0.758269 -7.0575 -7.0575
-0.761873 -7.12019 -7.12019
-0.872024 -7.18155 -7.18155
-0.879902 -7.3079 -7.3079
-0.665538 -7.31122 -7.31122
-0.659008 -7.18479 -7.18479
-0.875964 -7.24463 -7.24463
-0.77268 -7.30948 -7.30948
-0.662272 -7.24791 -7.24791
-0.765476 -7.18309 -7.18309
-0.769079 -7.24618 -7.24618
-0.879902 -7.3079 -7.3079
-0.88777 -7.43504 -7.43504
-0.672071 -7.43845 -7.43845
-0.665538 -7.31122 -7.31122
-0.883837 -7.37137 -7.37137
-0.779881 -7.43666 -7.43666
-0.668804 -7.37474 -7.37474
-0.77268 -7.30948 -7.30948
-0.776281 -7.37297 -7.37297
-0.88777 -7.43504 -7.43504
-0.895627 -7.56296 -7.56296
-0.678609 -7.56646 -7.56646
-0.672071 -7.43845 -7.43845
-0.891699 -7.4989 -7.4989
-0.787078 -7.56463 -7.56463
-0.67534 -7.50236 -7.50236
-0.779881 -7.43666 -7.43666
-0.78348 -7.50055 -7.50055
-0.895627 -7.56296 -7.56296
-0.903473 -7.69167 -7.69167
-0.68515 -7.69526 -7.69526
-0.678609 -7.56646 -7.56646
-0.899551 -7.62722 -7.62722
-0.794272 -7.69338 -7.69338
-0.681879 -7.63076 -7.63076
-0.787078 -7.56463 -7.56463
-0.790676 -7.62891 -7.62891
-0.903473 -7.69167 -7.69167
-0.911309 -7.82114 -7.82114
-0.691695 -7.82482 -7.82482
-0.68515 -7.69526 -7.69526
-0.907392 -7.75631 -7.75631
-0.801462 -7.8229 -7.8229
-0.688422 -7.75994 -7.75994
-0.794272 -7.69338 -7.69338
-0.797868 -7.75805 -7.75805
-0.911309 -7.82114 -7.82114
-0.919133 -7.95138 -7.95138
-0.698243 -7.95514 -7.95514
-0.691695 -7.82482 -7.82482
-0.915222 -7.88617 -7.88617
-0.808649 -7.95318 -7.95318
-0.694968 -7.88989 -7.88989
-0.801462 -7.8229 -7.8229
-0.805056 -7.88795 -7.88795
-0.919133 -7.95138 -7.95138
-0.926946 -8.08237 -8.08237
-0.704793 -8.08622 -8.08622
-0.698243 -7.95514 -7.95514
-0.923041 -8.01678 -8.01678
-0.81583 -8.08422 -8.08422
-0.701518 -8.02059 -8.02059
-0.808649 -7.95318 -7.95318
-0.81224 -8.01861 -8.01861
-0.926946 -8.08237 -8.08237
-0.934748 -8.2141 -8.2141
-0.711347 -8.21804 -8.21804
-0.704793 -8.08622 -8.08622
-0.930848 -8.14814 -8.14814
-0.823008 -8.216 -8.216
-0.70807 -8.15204 -8.15204
-0.81583 -8.08422 -8.08422
-0.81942 -8.15001 -8.15001
-0.934748 -8.2141 -8.2141
-0.942537 -8.34657 -8.34657
-0.717903 -8.3506 -8.3506
-0.711347 -8.21804 -8.21804
-0.938644 -8.28025 -8.28025
-0.830181 -8.34851 -8.34851
-0.714625 -8.28423 -8.28423
-0.823008 -8.216 -8.216
-0.826595 -8.28216 -8.28216
-0.942537 -8.34657 -8.34657
-0.950315 -8.47977 -8.47977
-0.724461 -8.48388 -8.48388
-0.717903 -8.3506 -8.3506
-0.946428 -8.41308 -8.41308
-0.837349 -8.48175 -8.48175
-0.721182 -8.41715 -8.41715
-0.830181 -8.34851 -8.34851
-0.833766 -8.41504 -8.41504
-0.950315 -8.47977 -8.47977
-0.958081 -8.61369 -8.61369
-0.731022 -8.61789 -8.61789
-0.724461 -8.48388 -8.48388
-0.954199 -8.54664 -8.54664
-0.844512 -8.61572 -8.61572
-0.727741 -8.5508 -8.5508
-0.837349 -8.48175 -8.48175
-0.840931 -8.54865 -8.54865
-0.958081 -8.61369 -8.61369
-0.965834 -8.74832 -8.74832
-0.737584 -8.75261 -8.75261
-0.731022 -8.61789 -8.61789
-0.961959 -8.68092 -8.68092
-0.85167 -8.75039 -8.75039
-0.734303 -8.68516 -8.68516
-0.844512 -8.61572 -8.61572
-0.848092 -8.68297 -8.68297
-0.965834 -8.74832 -8.74832
-0.973574 -8.88366 -8.88366
-0.744148 -8.88802 -8.88802
-0.737584 -8.75261 -8.75261
-0.969705 -8.8159 -8.8159
-0.858822 -8.88577 -8.88577
-0.740866 -8.82023 -8.82023
-0.85167 -8.75039 -8.75039
-0.855247 -8.81799 -8.81799
-0.973574 -8.88366 -8.88366
-0.981301 -9.01968 -9.01968
-0.750713 -9.02413 -9.02413
-0.744148 -8.88802 -8.88802
-0.977439 -8.95158 -8.95158
-0.865968 -9.02184 -9.02184
-0.747431 -8.95599 -8.95599
-0.858822 -8.88577 -8.88577
-0.862396 -8.95372 -8.95372
-0.981301 -9.01968 -9.01968
-0.989016 -9.1564 -9.1564
-0.75728 -9.16093 -9.16093
-0.750713 -9.02413 -9.02413
-0.98516 -9.08796 -9.08796
-0.873109 -9.15859 -9.15859
-0.753996 -9.09245 -9.09245
-0.865968 -9.02184 -9.02184
-0.869539 -9.09013 -9.09013
-0.989016 -9.1564 -9.1564
-0.996716 -9.29379 -9.29379
-0.763847 -9.29841 -9.29841
-0.75728 -9.16093 -9.16093
-0.992868 -9.22501 -9.22501
-0.880242 -9.29603 -9.29603
-0.760563 -9.22959 -9.22959
-0.873109 -9.15859 -9.15859
-0.876676 -9.22723 -9.22723
-0.996716 -9.29379 -9.29379
-1.0044 -9.43185 -9.43185
-0.770414 -9.43655 -9.43655
-0.763847 -9.29841 -9.29841
-1.00056 -9.36274 -9.36274
-0.88737 -9.43413 -9.43413
-0.767131 -9.3674 -9.3674
-0.880242 -9.29603 -9.29603
-0.883807 -9.365 -9.365
-1.0044 -9.43185 -9.43185
-1.01208 -9.57057 -9.57057
-0.776982 -9.57535 -9.57535
-0.770414 -9.43655 -9.43655
-1.00824 -9.50113 -9.50113
-0.89449 -9.57289 -9.57289
-0.773698 -9.50587 -9.50587
-0.88737 -9.43413 -9.43413
-0.890931 -9.50343 -9.50343
-1.01208 -9.57057 -9.57057
-1.01973 -9.70994 -9.70994
-0.78355 -9.71481 -9.71481
-0.776982 -9.57535 -9.57535
-1.01591 -9.64018 -9.64018
-0.901603 -9.71231 -9.71231
-0.780266 -9.645 -9.645
-0.89449 -9.57289 -9.57289
-0.898048 -9.64252 -9.64252
-1.01973 -9.70994 -9.70994
-1.02738 -9.84996 -9.84996
-0.790118 -9.85491 -9.85491
-0.78355 -9.71481 -9.71481
-1.02356 -9.77987 -9.77987
-0.908709 -9.85237 -9.85237
-0.786834 -9.78478 -9.78478
-0.901603 -9.71231 -9.71231
-0.905157 -9.78226 -9.78226
-1.02738 -9.84996 -9.84996
-1.03501 -9.99061 -9.99061
-0.796684 -9.99564 -9.99564
-0.790118 -9.85491 -9.85491
-1.03119 -9.92021 -9.92021
-0.915807 -9.99306 -9.99306
-0.793401 -9.9252 -9.9252
-0.908709 -9.85237 -9.85237
-0.912259 -9.92264 -9.92264
-1.03501 -9.99061 -9.99061
-1.04262 -10.1319 -10.1319
-0.80325 -10.137 -10.137
-0.796684 -9.99564 -9.99564
-1.03882 -10.0612 -10.0612
-0.922896 -10.1344 -10.1344
-0.799967 -10.0662 -10.0662
-0.915807 -9.99306 -9.99306
-0.919353 -10.0636 -10.0636
-1.04262 -10.1319 -10.1319
-1.05022 -10.2738 -10.2738
-0.809815 -10.279 -10.279
-0.80325 -10.137 -10.137
-1.04642 -10.2028 -10.2028
-0.929978 -10.2763 -10.2763
-0.806533 -10.2079 -10.2079
-0.922896 -10.1344 -10.1344
-0.926438 -10.2053 -10.2053
-1.05022 -10.2738 -10.2738
-1.0578 -10.4163 -10.4163
-0.816378 -10.4216 -10.4216
-0.809815 -10.279 -10.279
-1.05401 -10.345 -10.345
-0.93705 -10.4189 -10.4189
-0.813096 -10.3502 -10.3502
-0.929978 -10.2763 -10.2763
-0.933515 -10.3475 -10.3475
-1.0578 -10.4163 -10.4163
-1.06537 -10.5594 -10.5594
-0.822939 -10.5648 -10.5648
-0.816378 -10.4216 -10.4216
-1.06159 -10.4878 -10.4878
-0.944114 -10.562 -10.562
-0.819658 -10.4931 -10.4931
-0.93705 -10.4189 -10.4189
-0.940583 -10.4904 -10.4904
-1.06537 -10.5594 -10.5594
-1.07292 -10.7031 -10.7031
-0.829497 -10.7085 -10.7085
-0.822939 -10.5648 -10.5648
-1.06914 -10.6312 -10.6312
-0.951168 -10.7058 -10.7058
-0.826218 -10.6366 -10.6366
-0.944114 -10.562 -10.562
-0.947642 -10.6338 -10.6338
-1.07292 -10.7031 -10.7031
-1.08045 -10.8474 -10.8474
-0.836054 -10.8529 -10.8529
-0.829497 -10.7085 -10.7085
-1.07668 -10.7752 -10.7752
-0.958212 -10.8501 -10.8501
-0.832776 -10.7806 -10.7806
-0.951168 -10.7058 -10.7058
-0.954691 -10.7779 -10.7779
-1.08045 -10.8474 -10.8474
-1.08796 -10.9923 -10.9923
-0.842607 -10.9978 -10.9978
-0.836054 -10.8529 -10.8529
-1.08421 -10.9198 -10.9198
-0.965246 -10.995 -10.995
-0.839331 -10.9253 -10.9253
-0.958212 -10.8501 -10.8501
-0.96173 -10.9225 -10.9225
-1.08796 -10.9923 -10.9923
-1.09546 -11.1377 -11.1377
-0.849157 -11.1434 -11.1434
-0.842607 -10.9978 -10.9978
-1.09171 -11.0649 -11.0649
-0.97227 -11.1405 -11.1405
-0.845882 -11.0705 -11.0705
-0.965246 -10.995 -10.995
-0.968759 -11.0677 -11.0677
-1.09546 -11.1377 -11.1377
-1.10294 -11.2837 -11.2837
-0.855703 -11.2894 -11.2894
-0.849157 -11.1434 -11.1434
-1.0992 -11.2106 -11.2106
-0.979283 -11.2865 -11.2865
-0.85243 -11.2163 -11.2163
-0.97227 -11.1405 -11.1405
-0.975778 -11.2134 -11.2134
-1.10294 -11.2837 -11.2837
-1.1104 -11.4302 -11.4302
-0.862245 -11.436 -11.436
-0.855703 -11.2894 -11.2894
-1.10667 -11.3569 -11.3569
-0.986284 -11.4331 -11.4331
-0.858974 -11.3627 -11.3627
-0.979283 -11.2865 -11.2865
-0.982785 -11.3597 -11.3597
-1.1104 -11.4302 -11.4302
-1.11784 -11.5773 -11.5773
-0.868783 -11.5832 -11.5832
-0.862245 -11.436 -11.436
-1.11412 -11.5037 -11.5037
-0.993274 -11.5802 -11.5802
-0.865514 -11.5096 -11.5096
-0.986284 -11.4331 -11.4331
-0.989781 -11.5066 -11.5066
-1.11784 -11.5773 -11.5773
-1.12527 -11.7249 -11.7249
-0.875316 -11.7309 -11.7309
-0.868783 -11.5832 -11.5832
-1.12156 -11.6511 -11.6511
-1.00025 -11.7279 -11.7279
-0.87205 -11.657 -11.657
-0.993274 -11.5802 -11.5802
-0.996765 -11.654 -11.654
-1.12527 -11.7249 -11.7249
-1.13267 -11.8731 -11.8731
-0.881843 -11.8791 -11.8791
-0.875316 -11.7309 -11.7309
-1.12897 -11.799 -11.799
-1.00722 -11.8761 -11.8761
-0.87858 -11.8049 -11.8049
-1.00025 -11.7279 -11.7279
-1.00374 -11.8019 -11.8019
-1.13267 -11.8731 -11.8731
-1.14005 -12.0218 -12.0218
-0.888366 -12.0279 -12.0279
-0.881843 -11.8791 -11.8791
-1.13636 -11.9474 -11.9474
-1.01417 -12.0248 -12.0248
-0.885105 -11.9534 -11.9534
-1.00722 -11.8761 -11.8761
-1.0107 -11.9503 -11.9503
-1.14005 -12.0218 -12.0218
-1.14742 -12.1709 -12.1709
-0.894882 -12.1771 -12.1771
-0.888366 -12.0279 -12.0279
-1.14374 -12.0963 -12.0963
-1.02111 -12.174 -12.174
-0.891625 -12.1024 -12.1024
-1.01417 -12.0248 -12.0248
-1.01764 -12.0993 -12.0993
-1.14742 -12.1709 -12.1709
-1.15476 -12.3206 -12.3206
-0.901392 -12.3268 -12.3268
-0.894882 -12.1771 -12.1771
-1.15109 -12.2457 -12.2457
-1.02804 -12.3237 -12.3237
-0.898138 -12.2519 -12.2519
-1.02111 -12.174 -12.174
-1.02458 -12.2488 -12.2488
-1.15476 -12.3206 -12.3206
-1.16208 -12.4708 -12.4708
-0.907895 -12.4771 -12.4771
-0.901392 -12.3268 -12.3268
-1.15843 -12.3956 -12.3956
-1.03495 -12.4739 -12.4739
-0.904645 -12.4019 -12.4019
-1.02804 -12.3237 -12.3237
-1.0315 -12.3987 -12.3987
-1.16208 -12.4708 -12.4708
-1.16938 -12.6214 -12.6214
-0.914391 -12.6278 -12.6278
-0.907895 -12.4771 -12.4771
-1.16574 -12.546 -12.546
-1.04185 -12.6246 -12.6246
-0.911144 -12.5524 -12.5524
-1.03495 -12.4739 -12.4739
-1.0384 -12.5492 -12.5492
-1.16938 -12.6214 -12.6214
-1.17666 -12.7726 -12.7726
-0.92088 -12.779 -12.779
-0.914391 -12.6278 -12.6278
-1.17303 -12.6969 -12.6969
-1.04873 -12.7757 -12.7757
-0.917637 -12.7033 -12.7033
-1.04185 -12.6246 -12.6246
-1.04529 -12.7001 -12.7001
-1.17666 -12.7726 -12.7726
-1.18392 -12.9241 -12.9241
-0.927361 -12.9307 -12.9307
-0.92088 -12.779 -12.779
-1.18029 -12.8483 -12.8483
-1.0556 -12.9274 -12.9274
-0.924121 -12.8548 -12.8548
-1.04873 -12.7757 -12.7757
-1.05217 -12.8515 -12.8515
-1.18392 -12.9241 -12.9241
-1.19115 -13.0762 -13.0762
-0.933833 -13.0828 -13.0828
-0.927361 -12.9307 -12.9307
-1.18754 -13.0001 -13.0001
-1.06246 -13.0794 -13.0794
-0.930598 -13.0067 -13.0067
-1.0556 -12.9274 -12.9274
-1.05903 -13.0033 -13.0033
-1.19115 -13.0762 -13.0762
-1.19837 -13.2287 -13.2287
-0.940296 -13.2354 -13.2354
-0.933833 -13.0828 -13.0828
-1.19476 -13.1524 -13.1524
-1.06929 -13.232 -13.232
-0.937066 -13.159 -13.159
-1.06246 -13.0794 -13.0794
-1.06588 -13.1557 -13.1557
-1.19837 -13.2287 -13.2287
-1.20555 -13.3816 -13.3816
-0.946751 -13.3884 -13.3884
-0.940296 -13.2354 -13.2354
-1.20196 -13.3051 -13.3051
-1.07611 -13.385 -13.385
-0.943525 -13.3118 -13.3118
-1.06929 -13.232 -13.232
-1.07271 -13.3084 -13.3084
-1.20555 -13.3816 -13.3816
-1.21272 -13.535 -13.535
-0.953195 -13.5418 -13.5418
-0.946751 -13.3884 -13.3884
-1.20914 -13.4583 -13.4583
-1.08292 -13.5384 -13.5384
-0.949974 -13.465 -13.465
-1.07611 -13.385 -13.385
-1.07952 -13.4616 -13.4616
-1.21272 -13.535 -13.535
-1.21986 -13.6888 -13.6888
-0.959629 -13.6957 -13.6957
-0.953195 -13.5418 -13.5418
-1.21629 -13.6119 -13.6119
-1.0897 -13.6922 -13.6922
-0.956414 -13.6187 -13.6187
-1.08292 -13.5384 -13.5384
-1.08631 -13.6152 -13.6152
-1.21986 -13.6888 -13.6888
-1.22697 -13.843 -13.843
-0.966053 -13.85 -13.85
-0.959629 -13.6957 -13.6957
-1.22342 -13.7659 -13.7659
-1.09647 -13.8465 -13.8465
-0.962843 -13.7728 -13.7728
-1.0897 -13.6922 -13.6922
-1.09309 -13.7693 -13.7693
-1.22697 -13.843 -13.843
-1.23406 -13.9977 -13.9977
-0.972466 -14.0046 -14.0046
-0.966053 -13.85 -13.85
-1.23052 -13.9203 -13.9203
-1.10322 -14.0011 -14.0011
-0.969261 -13.9272 -13.9272
-1.09647 -13.8465 -13.8465
-1.09985 -13.9237 -13.9237
-1.23406 -13.9977 -13.9977
-1.24112 -14.1527 -14.1527
-0.978868 -14.1597 -14.1597
-0.972466 -14.0046 -14.0046
-1.23759 -14.0751 -14.0751
-1.10996 -14.1562 -14.1562
-0.975668 -14.0821 -14.0821
-1.10322 -14.0011 -14.0011
-1.10659 -14.0786 -14.0786
-1.24112 -14.1527 -14.1527
-1.24816 -14.3081 -14.3081
-0.985257 -14.3152 -14.3152
-0.978868 -14.1597 -14.1597
-1.24464 -14.2304 -14.2304
-1.11667 -14.3116 -14.3116
-0.982064 -14.2374 -14.2374
-1.10996 -14.1562 -14.1562
-1.11332 -14.2338 -14.2338
-1.24816 -14.3081 -14.3081
-1.25517 -14.4639 -14.4639
-0.991634 -14.4711 -14.4711
-0.985257 -14.3152 -14.3152
-1.25167 -14.386 -14.386
-1.12336 -14.4675 -14.4675
-0.988447 -14.3931 -14.3931
-1.11667 -14.3116 -14.3116
-1.12002 -14.3895 -14.3895
-1.25517 -14.4639 -14.4639
-1.26215 -14.6201 -14.6201
-0.997999 -14.6273 -14.6273
-0.991634 -14.4711 -14.4711
-1.25867 -14.542 -14.542
-1.13004 -14.6237 -14.6237
-0.994818 -14.5491 -14.5491
-1.12336 -14.4675 -14.4675
-1.1267 -14.5455 -14.5455
-1.26215 -14.6201 -14.6201
-1.26911 -14.7766 -14.7766
-1.00435 -14.7839 -14.7839
-0.997999 -14.6273 -14.6273
-1.26563 -14.6983 -14.6983
-1.13669 -14.7802 -14.7802
-1.00118 -14.7056 -14.7056
-1.13004 -14.6237 -14.6237
-1.13337 -14.7019 -14.7019
-1.26911 -14.7766 -14.7766
-1.27604 -14.9335 -14.9335
-1.01069 -14.9409 -14.9409
-1.00435 -14.7839 -14.7839
-1.27258 -14.855 -14.855
-1.14332 -14.9372 -14.9372
-1.00752 -14.8623 -14.8623
-1.13669 -14.7802 -14.7802
-1.14001 -14.8586 -14.8586
-1.27604 -14.9335 -14.9335
-1.28294 -15.0908 -15.0908
-1.01701 -15.0982 -15.0982
-1.01069 -14.9409 -14.9409
-1.27949 -15.0121 -15.0121
-1.14994 -15.0944 -15.0944
-1.01385 -15.0195 -15.0195
-1.14332 -14.9372 -14.9372
-1.14663 -15.0157 -15.0157
-1.28294 -15.0908 -15.0908
-1.28981 -15.2484 -15.2484
-1.02332 -15.2558 -15.2558
-1.01701 -15.0982 -15.0982
-1.28638 -15.1695 -15.1695
-1.15653 -15.252 -15.252
-1.02017 -15.1769 -15.1769
-1.14994 -15.0944 -15.0944
-1.15323 -15.1732 -15.1732
-1.28981 -15.2484 -15.2484
-1.29665 -15.4063 -15.4063
-1.02961 -15.4138 -15.4138
-1.02332 -15.2558 -15.2558
-1.29323 -15.3273 -15.3273
-1.16309 -15.41 -15.41
-1.02647 -15.3347 -15.3347
-1.15653 -15.252 -15.252
-1.15981 -15.331 -15.331
-1.29665 -15.4063 -15.4063
-1.30346 -15.5645 -15.5645
-1.03589 -15.5721 -15.5721
-1.02961 -15.4138 -15.4138
-1.30006 -15.4854 -15.4854
-1.16964 -15.5683 -15.5683
-1.03275 -15.4929 -15.4929
-1.16309 -15.41 -15.41
-1.16637 -15.4891 -15.4891
-1.30346 -15.5645 -15.5645
-1.31024 -15.7231 -15.7231
-1.04215 -15.7307 -15.7307
-1.03589 -15.5721 -15.5721
-1.30685 -15.6438 -15.6438
-1.17616 -15.7268 -15.7268
-1.03902 -15.6513 -15.6513
-1.16964 -15.5683 -15.5683
-1.1729 -15.6475 -15.6475
-1.31024 -15.7231 -15.7231
-1.31699 -15.8819 -15.8819
-1.0484 -15.8896 -15.8896
-1.04215 -15.7307 -15.7307
-1.31362 -15.8025 -15.8025
-1.18266 -15.8857 -15.8857
-1.04528 -15.8101 -15.8101
-1.17616 -15.7268 -15.7268
-1.17941 -15.8063 -15.8063
-1.31699 -15.8819 -15.8819
-1.32371 -16.0411 -16.0411
-1.05462 -16.0488 -16.0488
-1.0484 -15.8896 -15.8896
-1.32035 -15.9615 -15.9615
-1.18913 -16.0449 -16.0449
-1.05151 -15.9692 -15.9692
-1.18266 -15.8857 -15.8857
-1.18589 -15.9653 -15.9653
-1.32371 -16.0411 -16.0411
-1.33039 -16.2006 -16.2006
-1.06083 -16.2083 -16.2083
-1.05462 -16.0488 -16.0488
-1.32705 -16.1208 -16.1208
-1.19558 -16.2044 -16.2044
-1.05773 -16.1285 -16.1285
-1.18913 -16.0449 -16.0449
-1.19236 -16.1246 -16.1246
-1.33039 -16.2006 -16.2006
-1.33705 -16.3603 -16.3603
-1.06703 -16.3681 -16.3681
-1.06083 -16.2083 -16.2083
-1.33372 -16.2804 -16.2804
-1.202 -16.3642 -16.3642
-1.06393 -16.2882 -16.2882
-1.19558 -16.2044 -16.2044
-1.19879 -16.2843 -16.2843
-1.33705 -16.3603 -16.3603
-1.34367 -16.5203 -16.5203
-1.0732 -16.5282 -16.5282
-1.06703 -16.3681 -16.3681
-1.34036 -16.4403 -16.4403
-1.2084 -16.5242 -16.5242
-1.07011 -16.4481 -16.4481
-1.202 -16.3642 -16.3642
-1.2052 -16.4442 -16.4442
-1.34367 -16.5203 -16.5203
-1.35026 -16.6806 -16.6806
-1.07935 -16.6885 -16.6885
-1.0732 -16.5282 -16.5282
-1.34697 -16.6004 -16.6004
-1.21477 -16.6845 -16.6845
-1.07628 -16.6083 -16.6083
-1.2084 -16.5242 -16.5242
-1.21159 -16.6043 -16.6043
-1.35026 -16.6806 -16.6806
-1.35681 -16.8411 -16.8411
-1.08549 -16.8491 -16.8491
-1.07935 -16.6885 -16.6885
-1.35354 -16.7608 -16.7608
-1.22111 -16.8451 -16.8451
-1.08242 -16.7687 -16.7687
-1.21477 -16.6845 -16.6845
-1.21794 -16.7648 -16.7648
-1.35681 -16.8411 -16.8411
-1.36333 -17.0019 -17.0019
-1.0916 -17.0099 -17.0099
-1.08549 -16.8491 -16.8491
-1.36007 -16.9215 -16.9215
-1.22743 -17.0059 -17.0059
-1.08855 -16.9295 -16.9295
-1.22111 -16.8451 -16.8451
-1.22427 -16.9254 -16.9254
-1.36333 -17.0019 -17.0019
-1.36981 -17.1629 -17.1629
-1.0977 -17.171 -17.171
-1.0916 -17.0099 -17.0099
-1.36658 -17.0824 -17.0824
-1.23372 -17.1669 -17.1669
-1.09465 -17.0904 -17.0904
-1.22743 -17.0059 -17.0059
-1.23058 -17.0864 -17.0864
-1.36981 -17.1629 -17.1629
-1.37626 -17.3241 -17.3241
-1.10377 -17.3323 -17.3323
-1.0977 -17.171 -17.171
-1.37304 -17.2435 -17.2435
-1.23998 -17.3282 -17.3282
-1.10073 -17.2516 -17.2516
-1.23372 -17.1669 -17.1669
-1.23685 -17.2475 -17.2475
-1.37626 -17.3241 -17.3241
-1.38268 -17.4856 -17.4856
-1.10982 -17.4938 -17.4938
-1.10377 -17.3323 -17.3323
-1.37947 -17.4048 -17.4048
-1.24621 -17.4897 -17.4897
-1.1068 -17.413 -17.413
-1.23998 -17.3282 -17.3282
-1.2431 -17.4089 -17.4089
-1.38268 -17.4856 -17.4856
-1.38905 -17.6473 -17.6473
-1.11585 -17.6555 -17.6555
-1.10982 -17.4938 -17.4938
-1.38587 -17.5664 -17.5664
-1.25241 -17.6514 -17.6514
-1.11284 -17.5746 -17.5746
-1.24621 -17.4897 -17.4897
-1.24932 -17.5705 -17.5705
-1.38905 -17.6473 -17.6473
-1.39539 -17.8092 -17.8092
-1.12185 -17.8174 -17.8174
-1.11585 -17.6555 -17.6555
-1.39223 -17.7282 -17.7282
-1.25859 -17.8133 -17.8133
-1.11885 -17.7364 -17.7364
-1.25241 -17.6514 -17.6514
-1.2555 -17.7323 -17.7323
-1.39539 -17.8092 -17.8092
-1.40169 -17.9713 -17.9713
-1.12784 -17.9796 -17.9796
-1.12185 -17.8174 -17.8174
-1.39855 -17.8902 -17.8902
-1.26473 -17.9754 -17.9754
-1.12485 -17.8985 -17.8985
-1.25859 -17.8133 -17.8133
-1.26166 -17.8943 -17.8943
-1.40169 -17.9713 -17.9713
-1.40796 -18.1335 -18.1335
-1.1338 -18.1419 -18.1419
-1.12784 -17.9796 -17.9796
-1.40483 -18.0524 -18.0524
-1.27084 -18.1377 -18.1377
-1.13082 -18.0607 -18.0607
-1.26473 -17.9754 -17.9754
-1.26779 -18.0565 -18.0565
-1.40796 -18.1335 -18.1335
-1.41418 -18.296 -18.296
-1.13973 -18.3044 -18.3044
-1.1338 -18.1419 -18.1419
-1.41108 -18.2148 -18.2148
-1.27692 -18.3002 -18.3002
-1.13677 -18.2231 -18.2231
-1.27084 -18.1377 -18.1377
-1.27388 -18.2189 -18.2189
-1.41418 -18.296 -18.296
-1.42037 -18.4586 -18.4586
-1.14564 -18.467 -18.467
-1.13973 -18.3044 -18.3044
-1.41728 -18.3773 -18.3773
-1.28297 -18.4628 -18.4628
-1.14269 -18.3857 -18.3857
-1.27692 -18.3002 -18.3002
-1.27995 -18.3815 -18.3815
-1.42037 -18.4586 -18.4586
-1.42652 -18.6214 -18.6214
-1.15152 -18.6299 -18.6299
-1.14564 -18.467 -18.467
-1.42345 -18.54 -18.54
-1.28898 -18.6256 -18.6256
-1.14858 -18.5484 -18.5484
-1.28297 -18.4628 -18.4628
-1.28598 -18.5442 -18.5442
-1.42652 -18.6214 -18.6214
-1.43262 -18.7844 -18.7844
-1.15738 -18.7929 -18.7929
-1.15152 -18.6299 -18.6299
-1.42958 -18.7029 -18.7029
-1.29497 -18.7886 -18.7886
-1.15446 -18.7113 -18.7113
-1.28898 -18.6256 -18.6256
-1.29198 -18.7071 -18.7071
-1.43262 -18.7844 -18.7844
-1.43869 -18.9475 -18.9475
-1.16321 -18.956 -18.956
-1.15738 -18.7929 -18.7929
-1.43566 -18.8659 -18.8659
-1.30092 -18.9517 -18.9517
-1.1603 -18.8744 -18.8744
-1.29497 -18.7886 -18.7886
-1.29795 -18.8701 -18.8701
-1.43869 -18.9475 -18.9475
-1.44471 -19.1107 -19.1107
-1.16902 -19.1193 -19.1193
-1.16321 -18.956 -18.956
-1.44171 -19.0291 -19.0291
-1.30683 -19.115 -19.115
-1.16612 -19.0376 -19.0376
-1.30092 -18.9517 -18.9517
-1.30388 -19.0333 -19.0333
-1.44471 -19.1107 -19.1107
-1.4507 -19.2741 -19.2741
-1.1748 -19.2826 -19.2826
-1.16902 -19.1193 -19.1193
-1.44771 -19.1924 -19.1924
-1.31271 -19.2783 -19.2783
-1.17191 -19.2009 -19.2009
-1.30683 -19.115 -19.115
-1.30978 -19.1966 -19.1966
-1.4507 -19.2741 -19.2741
-1.45664 -19.4375 -19.4375
-1.18055 -19.4462 -19.4462
-1.1748 -19.2826 -19.2826
-1.45367 -19.3558 -19.3558
-1.31856 -19.4418 -19.4418
-1.17768 -19.3644 -19.3644
-1.31271 -19.2783 -19.2783
-1.31564 -19.3601 -19.3601
-1.45664 -19.4375 -19.4375
-1.46254 -19.6011 -19.6011
-1.18627 -19.6098 -19.6098
-1.18055 -19.4462 -19.4462
-1.45959 -19.5193 -19.5193
-1.32437 -19.6055 -19.6055
-1.18341 -19.528 -19.528
-1.31856 -19.4418 -19.4418
-1.32147 -19.5236 -19.5236
-1.46254 -19.6011 -19.6011
-1.46839 -19.7648 -19.7648
-1.19196 -19.7735 -19.7735
-1.18627 -19.6098 -19.6098
-1.46547 -19.683 -19.683
-1.33014 -19.7692 -19.7692
-1.18912 -19.6917 -19.6917
-1.32437 -19.6055 -19.6055
-1.32726 -19.6873 -19.6873
-1.46839 -19.7648 -19.7648
-1.4742 -19.9286 -19.9286
-1.19762 -19.9374 -19.9374
-1.19196 -19.7735 -19.7735
-1.4713 -19.8467 -19.8467
-1.33588 -19.933 -19.933
-1.1948 -19.8554 -19.8554
-1.33014 -19.7692 -19.7692
-1.33301 -19.8511 -19.8511
-1.4742 -19.9286 -19.9286
-1.47997 -20.0925 -20.0925
-1.20325 -20.1013 -20.1013
-1.19762 -19.9374 -19.9374
-1.47709 -20.0106 -20.0106
-1.34158 -20.0969 -20.0969
-1.20044 -20.0193 -20.0193
-1.33588 -19.933 -19.933
-1.33873 -20.0149 -20.0149
-1.47997 -20.0925 -20.0925
-1.48569 -20.2565 -20.2565
-1.20886 -20.2653 -20.2653
-1.20325 -20.1013 -20.1013
-1.48283 -20.1745 -20.1745
-1.34724 -20.2609 -20.2609
-1.20606 -20.1833 -20.1833
-1.34158 -20.0969 -20.0969
-1.34441 -20.1789 -20.1789
-1.48569 -20.2565 -20.2565
-1.49137 -20.4205 -20.4205
-1.21442 -20.4293 -20.4293
-1.20886 -20.2653 -20.2653
-1.48853 -20.3385 -20.3385
-1.35286 -20.4249 -20.4249
-1.21164 -20.3473 -20.3473
-1.34724 -20.2609 -20.2609
-1.35005 -20.3429 -20.3429
-1.49137 -20.4205 -20.4205
-1.497 -20.5846 -20.5846
-1.21996 -20.5934 -20.5934
-1.21442 -20.4293 -20.4293
-1.49419 -20.5026 -20.5026
-1.35845 -20.589 -20.589
-1.2172 -20.5114 -20.5114
-1.35286 -20.4249 -20.4249
-1.35566 -20.507 -20.507
-1.497 -20.5846 -20.5846
-1.5026 -20.7488 -20.7488
-1.22546 -20.7576 -20.7576
-1.21996 -20.5934 -20.5934
-1.4998 -20.6667 -20.6667
-1.364 -20.7532 -20.7532
-1.22272 -20.6755 -20.6755
-1.35845 -20.589 -20.589
-1.36123 -20.6711 -20.6711
-1.5026 -20.7488 -20.7488
-1.50816 -20.913 -20.913
-1.23093 -20.9218 -20.9218
-1.22546 -20.7576 -20.7576
-1.50538 -20.8309 -20.8309
-1.36951 -20.9174 -20.9174
-1.2282 -20.8397 -20.8397
-1.364 -20.7532 -20.7532
-1.36676 -20.8353 -20.8353
-1.50816 -20.913 -20.913
-1.51369 -21.0772 -21.0772
-1.23636 -21.0861 -21.0861
-1.23093 -20.9218 -20.9218
-1.51093 -20.9951 -20.9951
-1.375 -21.0817 -21.0817
-1.23365 -21.004 -21.004
-1.36951 -20.9174 -20.9174
-1.37226 -20.9995 -20.9995
-1.51369 -21.0772 -21.0772
-1.51922 -21.2415 -21.2415
-1.24174 -21.2505 -21.2505
-1.23636 -21.0861 -21.0861
-1.51646 -21.1594 -21.1594
-1.38044 -21.246 -21.246
-1.23906 -21.1683 -21.1683
-1.375 -21.0817 -21.0817
-1.37772 -21.1638 -21.1638
-1.51922 -21.2415 -21.2415
-1.52481 -21.406 -21.406
-1.24709 -21.4149 -21.4149
-1.24174 -21.2505 -21.2505
-1.522 -21.3237 -21.3237
-1.38584 -21.4105 -21.4105
-1.24442 -21.3327 -21.3327
-1.38044 -21.246 -21.246
-1.38315 -21.3282 -21.3282
-1.52481 -21.406 -21.406
-1.53045 -21.5711 -21.5711
-1.25247 -21.5794 -21.5794
-1.24709 -21.4149 -21.4149
-1.52764 -21.4884 -21.4884
-1.39122 -21.5752 -21.5752
-1.24977 -21.4972 -21.4972
-1.38584 -21.4105 -21.4105
-1.38852 -21.4928 -21.4928
0 0 0
-0.00642589 -0.0018062 -0.0018062
-0.00374336 -0.000375016 -0.000375016
0 0 0
-0.00311776 -0.000646249 -0.000646249
-0.00503466 -0.000916152 -0.000916152
-0.00181503 0.000117684 0.000117684
0 0 0
-0.00247895 -0.00019141 -0.00019141
-0.00642589 -0.0018062 -0.0018062
-0.0133851 -0.00521914 -0.00521914
-0.00777233 -0.00288037 -0.00288037
-0.00374336 -0.000375016 -0.000375016
-0.00987237 -0.00334779 -0.00334779
-0.0104837 -0.00384778 -0.00384778
-0.00573265 -0.00138668 -0.00138668
-0.00503466 -0.000916152 -0.000916152
-0.00771547 -0.00215752 -0.00215752
-0.0133851 -0.00521914 -0.00521914
-0.0204077 -0.00990982 -0.00990982
-0.01197 -0.00721921 -0.00721921
-0.00777233 -0.00288037 -0.00288037
-0.0169005 -0.00739916 -0.00739916
-0.016106 -0.00837506 -0.00837506
-0.00985821 -0.0048326 -0.0048326
-0.0104837 -0.00384778 -0.00384778
-0.0132876 -0.00592167 -0.00592167
-0.0204077 -0.00990982 -0.00990982
-0.0273969 -0.0160219 -0.0160219
-0.0162039 -0.0132288 -0.0132288
-0.01197 -0.00721921 -0.00721921
-0.023908 -0.0127798 -0.0127798
-0.0217402 -0.0144492 -0.0144492
-0.014087 -0.0100197 -0.0100197
-0.016106 -0.00837506 -0.00837506
-0.0189261 -0.0112171 -0.0112171
-0.0273969 -0.0160219 -0.0160219
-0.0343298 -0.0236571 -0.0236571
-0.0204265 -0.0208652 -0.0208652
-0.0162039 -0.0132288 -0.0132288
-0.0308699 -0.0196448 -0.0196448
-0.0273337 -0.022089 -0.022089
-0.0183184 -0.0168449 -0.0168449
-0.0217402 -0.0144492 -0.0144492
-0.0245428 -0.0180717 -0.0180717
-0.0343298 -0.0236571 -0.0236571
-0.0412213 -0.0328737 -0.0328737
-0.0246144 -0.0301115 -0.0301115
-0.0204265 -0.0208652 -0.0208652
-0.0377803 -0.028066 -0.028066
-0.0328831 -0.0313223 -0.0313223
-0.022525 -0.0252875 -0.0252875
-0.0273337 -0.022089 -0.022089
-0.0301136 -0.0265056 -0.0265056
-0.0412213 -0.0328737 -0.0328737
-0.048075 -0.0436879 -0.0436879
-0.0287705 -0.0409647 -0.0409647
-0.0246144 -0.0301115 -0.0301115
-0.0446526 -0.0380807 -0.0380807
-0.0383932 -0.0421561 -0.0421561
-0.0266961 -0.0353375 -0.0353375
-0.0328831 -0.0313223 -0.0313223
-0.0356426 -0.036539 -0.036539
-0.048075 -0.0436879 -0.0436879
-0.0548972 -0.0561041 -0.0561041
-0.0328983 -0.053419 -0.053419
-0.0287705 -0.0409647 -0.0409647
-0.0514898 -0.049696 -0.049696
-0.0438709 -0.0545915 -0.0545915
-0.0308376 -0.046992 -0.046992
-0.0383932 -0.0421561 -0.0421561
-0.0411357 -0.0481739 -0.0481739
-0.0548972 -0.0561041 -0.0561041
-0.0616898 -0.070117 -0.070117
-0.0370043 -0.0674688 -0.0674688
-0.0328983 -0.053419 -0.053419
-0.0582971 -0.0629114 -0.0629114
-0.0493215 -0.0686231 -0.0686231
-0.0349537 -0.0602449 -0.0602449
-0.0438709 -0.0545915 -0.0545915
-0.0465993 -0.0614082 -0.0614082
-0.0616898 -0.070117 -0.070117
-0.0684551 -0.0857196 -0.0857196
-0.0410924 -0.0831068 -0.0831068
-0.0370043 -0.0674688 -0.0674688
-0.0650758 -0.0777201 -0.0777201
-0.0547487 -0.0842439 -0.0842439
-0.0390503 -0.0750897 -0.0750897
-0.0493215 -0.0686231 -0.0686231
-0.0520378 -0.0762353 -0.0762353
-0.0684551 -0.0857196 -0.0857196
-0.0751943 -0.102903 -0.102903
-0.0451661 -0.100325 -0.100325
-0.0410924 -0.0831068 -0.0831068
-0.0718279 -0.0941142 -0.0941142
-0.0601553 -0.101445 -0.101445
-0.0431309 -0.091519 -0.091519
-0.0547487 -0.0842439 -0.0842439
-0.0574545 -0.0926476 -0.0926476
-0.0751943 -0.102903 -0.102903
-0.0819085 -0.121659 -0.121659
-0.0492277 -0.119116 -0.119116
-0.0451661 -0.100325 -0.100325
-0.0785545 -0.112085 -0.112085
-0.0655433 -0.120219 -0.120219
-0.0471983 -0.109525 -0.109525
-0.0601553 -0.101445 -0.101445
-0.0628516 -0.110636 -0.110636
-0.0819085 -0.121659 -0.121659
-0.0885988 -0.141977 -0.141977
-0.053279 -0.139471 -0.139471
-0.0492277 -0.119116 -0.119116
-0.0852566 -0.131623 -0.131623
-0.070914 -0.140557 -0.140557
-0.0512546 -0.129099 -0.129099
-0.0655433 -0.120219 -0.120219
-0.0682307 -0.130193 -0.130193
-0.0885988 -0.141977 -0.141977
-0.0952659 -0.163851 -0.163851
-0.0573212 -0.161382 -0.161382
-0.053279 -0.139471 -0.139471
-0.0919352 -0.15272 -0.15272
-0.0762685 -0.16245 -0.16245
-0.0553012 -0.150233 -0.150233
-0.070914 -0.140557 -0.140557
-0.0735932 -0.15131 -0.15131
-0.0952659 -0.163851 -0.163851
-0.101911 -0.18727 -0.18727
-0.0613554 -0.18484 -0.18484
-0.0573212 -0.161382 -0.161382
-0.0985911 -0.175368 -0.175368
-0.081608 -0.18589 -0.18589
-0.0593392 -0.172918 -0.172918
-0.0762685 -0.16245 -0.16245
-0.0789401 -0.173977 -0.173977
-0.101911 -0.18727 -0.18727
-0.108535 -0.212227 -0.212227
-0.0653826 -0.209836 -0.209836
-0.0613554 -0.18484 -0.18484
-0.105225 -0.199557 -0.199557
-0.0869334 -0.210868 -0.210868
-0.0633698 -0.197146 -0.197146
-0.081608 -0.18589 -0.18589
-0.0842724 -0.198187 -0.198187
-0.108535 -0.212227 -0.212227
-0.115138 -0.238713 -0.238713
-0.0694037 -0.236364 -0.236364
-0.0653826 -0.209836 -0.209836
-0.111839 -0.22528 -0.22528
-0.0922454 -0.237375 -0.237375
-0.0673939 -0.222909 -0.222909
-0.0869334 -0.210868 -0.210868
-0.089591 -0.223931 -0.223931
-0.115138 -0.238713 -0.238713
-0.121721 -0.26672 -0.26672
-0.0734196 -0.264413 -0.264413
-0.0694037 -0.236364 -0.236364
-0.118432 -0.252527 -0.252527
-0.097545 -0.265404 -0.265404
-0.0714123 -0.250198 -0.250198
-0.0922454 -0.237375 -0.237375
-0.0948967 -0.2512 -0.2512
-0.121721 -0.26672 -0.26672
-0.128286 -0.296238 -0.296238
-0.0774309 -0.293975 -0.293975
-0.0734196 -0.264413 -0.264413
-0.125006 -0.281291 -0.281291
-0.102833 -0.294945 -0.294945
-0.0754257 -0.279005 -0.279005
-0.097545 -0.265404 -0.265404
-0.10019 -0.279986 -0.279986
-0.128286 -0.296238 -0.296238
-0.134833 -0.327261 -0.327261
-0.0814386 -0.325043 -0.325043
-0.0774309 -0.293975 -0.293975
-0.131561 -0.311562 -0.311562
-0.10811 -0.325991 -0.325991
-0.0794352 -0.309321 -0.309321
-0.102833 -0.294945 -0.294945
-0.105473 -0.310281 -0.310281
-0.134833 -0.327261 -0.327261
-0.141362 -0.359778 -0.359778
-0.0854435 -0.357607 -0.357607
-0.0814386 -0.325043 -0.325043
-0.138099 -0.343333 -0.343333
-0.113377 -0.358533 -0.358533
-0.0834414 -0.341138 -0.341138
-0.10811 -0.325991 -0.325991
-0.110745 -0.342076 -0.342076
-0.141362 -0.359778 -0.359778
-0.147875 -0.393783 -0.393783
-0.0894462 -0.391659 -0.391659
-0.0854435 -0.357607 -0.357607
-0.144621 -0.376595 -0.376595
-0.118635 -0.392562 -0.392562
-0.0874451 -0.374448 -0.374448
-0.113377 -0.358533 -0.358533
-0.116007 -0.375362 -0.375362
-0.147875 -0.393783 -0.393783
-0.154372 -0.429266 -0.429266
-0.0934476 -0.427191 -0.427191
-0.0894462 -0.391659 -0.391659
-0.151126 -0.41134 -0.41134
-0.123884 -0.428071 -0.428071
-0.0914471 -0.409241 -0.409241
-0.118635 -0.392562 -0.392562
-0.121261 -0.410132 -0.410132
-0.154372 -0.429266 -0.429266
-0.160855 -0.466219 -0.466219
-0.0974484 -0.464194 -0.464194
-0.0934476 -0.427191 -0.427191
-0.157615 -0.447559 -0.447559
-0.129126 -0.46505 -0.46505
-0.0954481 -0.445509 -0.445509
-0.123884 -0.428071 -0.428071
-0.126506 -0.446377 -0.446377
-0.160855 -0.466219 -0.466219
-0.167323 -0.504633 -0.504633
-0.101449 -0.502661 -0.502661
-0.0974484 -0.464194 -0.464194
-0.16409 -0.485244 -0.485244
-0.13436 -0.503491 -0.503491
-0.0994488 -0.483245 -0.483245
-0.129126 -0.46505 -0.46505
-0.131744 -0.484088 -0.484088
-0.167323 -0.504633 -0.504633
-0.173777 -0.544501 -0.544501
-0.105451 -0.542581 -0.542581
-0.101449 -0.502661 -0.502661
-0.170552 -0.524386 -0.524386
-0.139588 -0.543386 -0.543386
-0.10345 -0.522439 -0.522439
-0.13436 -0.503491 -0.503491
-0.136975 -0.523257 -0.523257
-0.173777 -0.544501 -0.544501
-0.180219 -0.585813 -0.585813
-0.109454 -0.583947 -0.583947
-0.105451 -0.542581 -0.542581
-0.177 -0.564977 -0.564977
-0.144811 -0.584726 -0.584726
-0.107453 -0.563084 -0.563084
-0.139588 -0.543386 -0.543386
-0.1422 -0.563876 -0.563876
-0.180219 -0.585813 -0.585813
-0.186649 -0.628562 -0.628562
-0.11346 -0.626751 -0.626751
-0.109454 -0.583947 -0.583947
-0.183435 -0.607008 -0.607008
-0.150028 -0.627503 -0.627503
-0.111457 -0.60517 -0.60517
-0.144811 -0.584726 -0.584726
-0.14742 -0.605935 -0.605935
-0.186649 -0.628562 -0.628562
-0.193067 -0.672738 -0.672738
-0.117468 -0.670984 -0.670984
-0.11346 -0.626751 -0.626751
-0.189859 -0.650472 -0.650472
-0.155241 -0.671709 -0.671709
-0.115464 -0.648689 -0.648689
-0.150028 -0.627503 -0.627503
-0.152635 -0.649428 -0.649428
-0.193067 -0.672738 -0.672738
-0.199474 -0.718334 -0.718334
-0.12148 -0.716637 -0.716637
-0.117468 -0.670984 -0.670984
-0.196272 -0.695359 -0.695359
-0.160451 -0.717334 -0.717334
-0.119474 -0.693633 -0.693633
-0.155241 -0.671709 -0.671709
-0.157846 -0.694344 -0.694344
-0.199474 -0.718334 -0.718334
-0.205871 -0.765341 -0.765341
-0.125496 -0.763702 -0.763702
-0.12148 -0.716637 -0.716637
-0.202674 -0.741662 -0.741662
-0.165657 -0.764371 -0.764371
-0.123488 -0.739994 -0.739994
-0.160451 -0.717334 -0.717334
-0.163054 -0.740677 -0.740677
-0.205871 -0.765341 -0.765341
-0.212259 -0.813751 -0.813751
-0.129517 -0.812171 -0.812171
-0.125496 -0.763702 -0.763702
-0.209066 -0.789371 -0.789371
-0.170862 -0.812811 -0.812811
-0.127506 -0.787762 -0.787762
-0.165657 -0.764371 -0.764371
-0.16826 -0.788416 -0.788416
-0.212259 -0.813751 -0.813751
-0.218637 -0.863554 -0.863554
-0.133544 -0.862035 -0.862035
-0.129517 -0.812171 -0.812171
-0.215449 -0.838479 -0.838479
-0.176064 -0.862646 -0.862646
-0.13153 -0.836929 -0.836929
-0.170862 -0.812811 -0.812811
-0.173463 -0.837555 -0.837555
-0.218637 -0.863554 -0.863554
-0.225008 -0.914744 -0.914744
-0.137576 -0.913286 -0.913286
-0.133544 -0.862035 -0.862035
-0.221824 -0.888976 -0.888976
-0.181265 -0.913867 -0.913867
-0.135559 -0.887488 -0.887488
-0.176064 -0.862646 -0.862646
-0.178665 -0.888084 -0.888084
-0.225008 -0.914744 -0.914744
-0.23137 -0.96731 -0.96731
-0.141615 -0.965915 -0.965915
-0.137576 -0.913286 -0.913286
-0.22819 -0.940855 -0.940855
-0.186466 -0.966466 -0.966466
-0.139595 -0.939429 -0.939429
-0.181265 -0.913867 -0.913867
-0.183866 -0.939995 -0.939995
-0.23137 -0.96731 -0.96731
-0.237725 -1.02125 -1.02125
-0.145661 -1.01991 -1.01991
-0.141615 -0.965915 -0.965915
-0.234549 -0.994108 -0.994108
-0.191667 -1.02043 -1.02043
-0.143637 -0.992744 -0.992744
-0.186466 -0.966466 -0.966466
-0.189066 -0.99328 -0.99328
-0.237725 -1.02125 -1.02125
-0.244074 -1.07654 -1.07654
-0.149715 -1.07527 -1.07527
-0.145661 -1.01991 -1.01991
-0.240901 -1.04872 -1.04872
-0.196868 -1.07576 -1.07576
-0.147687 -1.04742 -1.04742
-0.191667 -1.02043 -1.02043
-0.194267 -1.04793 -1.04793
-0.244074 -1.07654 -1.07654
-0.250417 -1.13319 -1.13319
-0.153777 -1.13199 -1.13199
-0.149715 -1.07527 -1.07527
-0.247246 -1.1047 -1.1047
-0.20207 -1.13244 -1.13244
-0.151745 -1.10346 -1.10346
-0.196868 -1.07576 -1.07576
-0.199469 -1.10394 -1.10394
-0.250417 -1.13319 -1.13319
-0.256754 -1.19118 -1.19118
-0.157848 -1.19005 -1.19005
-0.153777 -1.13199 -1.13199
-0.253586 -1.16202 -1.16202
-0.207274 -1.19047 -1.19047
-0.155811 -1.16085 -1.16085
-0.20207 -1.13244 -1.13244
-0.204672 -1.16129 -1.16129
-0.256754 -1.19118 -1.19118
-0.263086 -1.25051 -1.25051
-0.161928 -1.24944 -1.24944
-0.157848 -1.19005 -1.19005
-0.25992 -1.22068 -1.22068
-0.21248 -1.24983 -1.24983
-0.159887 -1.21958 -1.21958
-0.207274 -1.19047 -1.19047
-0.209877 -1.21998 -1.21998
-0.263086 -1.25051 -1.25051
-0.269413 -1.31116 -1.31116
-0.166018 -1.31016 -1.31016
-0.161928 -1.24944 -1.24944
-0.26625 -1.28067 -1.28067
-0.217689 -1.31052 -1.31052
-0.163972 -1.27963 -1.27963
-0.21248 -1.24983 -1.24983
-0.215084 -1.28001 -1.28001
-0.269413 -1.31116 -1.31116
-0.275737 -1.37313 -1.37313
-0.170119 -1.3722 -1.3722
-0.166018 -1.31016 -1.31016
-0.272576 -1.34198 -1.34198
-0.222901 -1.37253 -1.37253
-0.168067 -1.34102 -1.34102
-0.217689 -1.31052 -1.31052
-0.220294 -1.34136 -1.34136
-0.275737 -1.37313 -1.37313
-0.282057 -1.43641 -1.43641
-0.17423 -1.43555 -1.43555
-0.170119 -1.3722 -1.3722
-0.278897 -1.40461 -1.40461
-0.228116 -1.43584 -1.43584
-0.172173 -1.40371 -1.40371
-0.222901 -1.37253 -1.37253
-0.225508 -1.40402 -1.40402
-0.282057 -1.43641 -1.43641
-0.288373 -1.501 -1.501
-0.178352 -1.5002 -1.5002
-0.17423 -1.43555 -1.43555
-0.285215 -1.46854 -1.46854
-0.233336 -1.50046 -1.50046
-0.176289 -1.46772 -1.46772
-0.228116 -1.43584 -1.43584
-0.230725 -1.46799 -1.46799
-0.288373 -1.501 -1.501
-0.294688 -1.56687 -1.56687
-0.182486 -1.56615 -1.56615
-0.178352 -1.5002 -1.5002
-0.291531 -1.53377 -1.53377
-0.23856 -1.56637 -1.56637
-0.180418 -1.53302 -1.53302
-0.233336 -1.50046 -1.50046
-0.235947 -1.53326 -1.53326
-0.294688 -1.56687 -1.56687
-0.300999 -1.63403 -1.63403
-0.186632 -1.63338 -1.63338
-0.182486 -1.56615 -1.56615
-0.297844 -1.60029 -1.60029
-0.243789 -1.63357 -1.63357
-0.184558 -1.59961 -1.59961
-0.23856 -1.56637 -1.56637
-0.241174 -1.59981 -1.59981
-0.300999 -1.63403 -1.63403
-0.307309 -1.70247 -1.70247
-0.190791 -1.70189 -1.70189
-0.186632 -1.63338 -1.63338
-0.304155 -1.66809 -1.66809
-0.249023 -1.70204 -1.70204
-0.18871 -1.66748 -1.66748
-0.243789 -1.63357 -1.63357
-0.246405 -1.66765 -1.66765
-0.307309 -1.70247 -1.70247
-0.313618 -1.77217 -1.77217
-0.194963 -1.77167 -1.77167
-0.190791 -1.70189 -1.70189
-0.310464 -1.73716 -1.73716
-0.254263 -1.77179 -1.77179
-0.192875 -1.73662 -1.73662
-0.249023 -1.70204 -1.70204
-0.251642 -1.73676 -1.73676
-0.313618 -1.77217 -1.77217
-0.319926 -1.84314 -1.84314
-0.199148 -1.84271 -1.84271
-0.194963 -1.77167 -1.77167
-0.316772 -1.8075 -1.8075
-0.25951 -1.84279 -1.84279
-0.197054 -1.80703 -1.80703
-0.254263 -1.77179 -1.77179
-0.256886 -1.80713 -1.80713
-0.319926 -1.84314 -1.84314
-0.326233 -1.91535 -1.91535
-0.203347 -1.91499 -1.91499
-0.199148 -1.84271 -1.84271
-0.32308 -1.87909 -1.87909
-0.264763 -1.91504 -1.91504
-0.201246 -1.87869 -1.87869
-0.25951 -1.84279 -1.84279
-0.262135 -1.87876 -1.87876
-0.326233 -1.91535 -1.91535
-0.33254 -1.98881 -1.98881
-0.20756 -1.98852 -1.98852
-0.203347 -1.91499 -1.91499
-0.329386 -1.95192 -1.95192
-0.270023 -1.98853 -1.98853
-0.205452 -1.9516 -1.9516
-0.264763 -1.91504 -1.91504
-0.267392 -1.95163 -1.95163
-0.33254 -1.98881 -1.98881
-0.338847 -2.0635 -2.0635
-0.211788 -2.06329 -2.06329
-0.20756 -1.98852 -1.98852
-0.335693 -2.026 -2.026
-0.27529 -2.06326 -2.06326
-0.209672 -2.02575 -2.02575
-0.270023 -1.98853 -1.98853
-0.272655 -2.02575 -2.02575
-0.338847 -2.0635 -2.0635
-0.345155 -2.13941 -2.13941
-0.21603 -2.13928 -2.13928
-0.211788 -2.06329 -2.06329
-0.342001 -2.1013 -2.1013
-0.280565 -2.13922 -2.13922
-0.213907 -2.10113 -2.10113
-0.27529 -2.06326 -2.06326
-0.277926 -2.10109 -2.10109
-0.345155 -2.13941 -2.13941
-0.351463 -2.21655 -2.21655
-0.220288 -2.21649 -2.21649
-0.21603 -2.13928 -2.13928
-0.348309 -2.17783 -2.17783
-0.285848 -2.21639 -2.21639
-0.218157 -2.17774 -2.17774
-0.280565 -2.13922 -2.13922
-0.283205 -2.17765 -2.17765
-0.351463 -2.21655 -2.21655
-0.357772 -2.29489 -2.29489
-0.224561 -2.29491 -2.29491
-0.220288 -2.21649 -2.21649
-0.354617 -2.25557 -2.25557
-0.291139 -2.29477 -2.29477
-0.222422 -2.25555 -2.25555
-0.285848 -2.21639 -2.21639
-0.288492 -2.25543 -2.25543
-0.357772 -2.29489 -2.29489
-0.364083 -2.37443 -2.37443
-0.22885 -2.37453 -2.37453
-0.224561 -2.29491 -2.29491
-0.360928 -2.33451 -2.33451
-0.296439 -2.37435 -2.37435
-0.226703 -2.33457 -2.33457
-0.291139 -2.29477 -2.29477
-0.293788 -2.33441 -2.33441
-0.364083 -2.37443 -2.37443
-0.370396 -2.45516 -2.45516
-0.233155 -2.45534 -2.45534
-0.22885 -2.37453 -2.37453
-0.36724 -2.41465 -2.41465
-0.301748 -2.45513 -2.45513
-0.231 -2.41479 -2.41479
-0.296439 -2.37435 -2.37435
-0.299092 -2.41459 -2.41459
-0.370396 -2.45516 -2.45516
-0.376711 -2.53708 -2.53708
-0.237476 -2.53734 -2.53734
-0.233155 -2.45534 -2.45534
-0.373553 -2.49597 -2.49597
-0.307066 -2.53708 -2.53708
-0.235313 -2.49619 -2.49619
-0.301748 -2.45513 -2.45513
-0.304406 -2.49596 -2.49596
-0.376711 -2.53708 -2.53708
-0.383028 -2.62017 -2.62017
-0.241814 -2.62051 -2.62051
-0.237476 -2.53734 -2.53734
-0.379869 -2.57848 -2.57848
-0.312393 -2.62021 -2.62021
-0.239643 -2.57878 -2.57878
-0.307066 -2.53708 -2.53708
-0.309728 -2.5785 -2.5785
-0.383028 -2.62017 -2.62017
-0.389348 -2.70443 -2.70443
-0.246169 -2.70484 -2.70484
-0.241814 -2.62051 -2.62051
-0.386188 -2.66215 -2.66215
-0.317731 -2.70451 -2.70451
-0.243989 -2.66253 -2.66253
-0.312393 -2.62021 -2.62021
-0.315061 -2.66222 -2.66222
-0.389348 -2.70443 -2.70443
-0.39567 -2.78984 -2.78984
-0.250541 -2.79034 -2.79034
-0.246169 -2.70484 -2.70484
-0.392509 -2.74699 -2.74699
-0.323078 -2.78997 -2.78997
-0.248353 -2.74745 -2.74745
-0.317731 -2.70451 -2.70451
-0.320403 -2.7471 -2.7471
-0.39567 -2.78984 -2.78984
-0.401996 -2.87641 -2.87641
-0.254931 -2.87699 -2.87699
-0.250541 -2.79034 -2.79034
-0.398833 -2.83298 -2.83298
-0.328436 -2.87658 -2.87658
-0.252734 -2.83352 -2.83352
-0.323078 -2.78997 -2.78997
-0.325756 -2.83313 -2.83313
-0.401996 -2.87641 -2.87641
-0.408325 -2.96412 -2.96412
-0.259338 -2.96477 -2.96477
-0.254931 -2.87699 -2.87699
-0.40516 -2.92012 -2.92012
-0.333804 -2.96432 -2.96432
-0.257133 -2.92074 -2.92074
-0.328436 -2.87658 -2.87658
-0.331119 -2.92031 -2.92031
-0.408325 -2.96412 -2.96412
-0.414658 -3.05296 -3.05296
-0.263764 -3.05369 -3.05369
-0.259338 -2.96477 -2.96477
-0.411491 -3.00839 -3.00839
-0.339183 -3.0532 -3.0532
-0.261549 -3.00909 -3.00909
-0.333804 -2.96432 -2.96432
-0.336492 -3.00862 -3.00862
-0.414658 -3.05296 -3.05296
-0.420994 -3.14292 -3.14292
-0.268207 -3.14374 -3.14374
-0.263764 -3.05369 -3.05369
-0.417825 -3.0978 -3.0978
-0.344573 -3.14321 -3.14321
-0.265983 -3.09858 -3.09858
-0.339183 -3.0532 -3.0532
-0.341876 -3.09807 -3.09807
-0.420994 -3.14292 -3.14292
-0.427334 -3.234 -3.234
-0.272669 -3.2349 -3.2349
-0.268207 -3.14374 -3.14374
-0.424164 -3.18832 -3.18832
-0.349974 -3.23433 -3.23433
-0.270436 -3.18918 -3.18918
-0.344573 -3.14321 -3.14321
-0.347272 -3.18863 -3.18863
-0.427334 -3.234 -3.234
-0.433679 -3.32618 -3.32618
-0.277149 -3.32717 -3.32717
-0.272669 -3.2349 -3.2349
-0.430506 -3.27995 -3.27995
-0.355386 -3.32656 -3.32656
-0.274906 -3.2809 -3.2809
-0.349974 -3.23433 -3.23433
-0.352678 -3.28031 -3.28031
-0.433679 -3.32618 -3.32618
-0.440027 -3.41947 -3.41947
-0.281648 -3.42054 -3.42054
-0.277149 -3.32717 -3.32717
-0.436852 -3.37269 -3.37269
-0.36081 -3.41989 -3.41989
-0.279396 -3.37372 -3.37372
-0.355386 -3.32656 -3.32656
-0.358096 -3.37309 -3.37309
-0.440027 -3.41947 -3.41947
-0.446381 -3.51385 -3.51385
-0.286165 -3.515 -3.515
-0.281648 -3.42054 -3.42054
-0.443203 -3.46652 -3.46652
-0.366245 -3.51431 -3.51431
-0.283904 -3.46763 -3.46763
-0.36081 -3.41989 -3.41989
-0.363526 -3.46696 -3.46696
-0.446381 -3.51385 -3.51385
-0.452738 -3.6093 -3.6093
-0.290702 -3.61054 -3.61054
-0.286165 -3.515 -3.515
-0.449559 -3.56144 -3.56144
-0.371692 -3.60981 -3.60981
-0.288431 -3.56263 -3.56263
-0.366245 -3.51431 -3.51431
-0.368967 -3.56192 -3.56192
-0.452738 -3.6093 -3.6093
-0.459101 -3.70584 -3.70584
-0.295258 -3.70715 -3.70715
-0.290702 -3.61054 -3.61054
-0.455919 -3.65744 -3.65744
-0.377151 -3.70638 -3.70638
-0.292977 -3.65871 -3.65871
-0.371692 -3.60981 -3.60981
-0.37442 -3.65796 -3.65796
-0.459101 -3.70584 -3.70584
-0.465468 -3.80343 -3.80343
-0.299833 -3.80483 -3.80483
-0.295258 -3.70715 -3.70715
-0.462284 -3.7545 -3.7545
-0.382623 -3.80402 -3.80402
-0.297543 -3.75586 -3.75586
-0.377151 -3.70638 -3.70638
-0.379885 -3.75507 -3.75507
-0.465468 -3.80343 -3.80343
-0.471841 -3.90209 -3.90209
-0.304427 -3.90357 -3.90357
-0.299833 -3.80483 -3.80483
-0.468654 -3.85263 -3.85263
-0.388106 -3.90272 -3.90272
-0.302127 -3.85407 -3.85407
-0.382623 -3.80402 -3.80402
-0.385363 -3.85324 -3.85324
-0.471841 -3.90209 -3.90209
-0.478219 -4.00179 -4.00179
-0.309041 -4.00335 -4.00335
-0.304427 -3.90357 -3.90357
-0.475029 -3.95181 -3.95181
-0.393602 -4.00246 -4.00246
-0.306731 -3.95333 -3.95333
-0.388106 -3.90272 -3.90272
-0.390852 -3.95246 -3.95246
-0.478219 -4.00179 -4.00179
-0.484601 -4.10253 -4.10253
-0.313674 -4.10418 -4.10418
-0.309041 -4.00335 -4.00335
-0.481409 -4.05203 -4.05203
-0.39911 -4.10324 -4.10324
-0.311355 -4.05364 -4.05364
-0.393602 -4.00246 -4.00246
-0.396354 -4.05272 -4.05272
-0.484601 -4.10253 -4.10253
-0.49099 -4.2043 -4.2043
-0.318327 -4.20604 -4.20604
-0.313674 -4.10418 -4.10418
-0.487795 -4.15329 -4.15329
-0.40463 -4.20506 -4.20506
-0.315998 -4.15498 -4.15498
-0.39911 -4.10324 -4.10324
-0.401869 -4.15402 -4.15402
-0.49099 -4.2043 -4.2043
-0.497383 -4.3071 -4.3071
-0.323 -4.30892 -4.30892
-0.318327 -4.20604 -4.20604
-0.494186 -4.25557 -4.25557
-0.410164 -4.3079 -4.3079
-0.320661 -4.25735 -4.25735
-0.40463 -4.20506 -4.20506
-0.407395 -4.25635 -4.25635
-0.497383 -4.3071 -4.3071
-0.503782 -4.41091 -4.41091
-0.327692 -4.41281 -4.41281
-0.323 -4.30892 -4.30892
-0.500582 -4.35888 -4.35888
-0.415709 -4.41175 -4.41175
-0.325344 -4.36074 -4.36074
-0.410164 -4.3079 -4.3079
-0.412935 -4.3597 -4.3597
-0.503782 -4.41091 -4.41091
-0.510187 -4.51573 -4.51573
-0.332405 -4.51771 -4.51771
-0.327692 -4.41281 -4.41281
-0.506984 -4.46319 -4.46319
-0.421268 -4.51661 -4.51661
-0.330046 -4.46514 -4.46514
-0.415709 -4.41175 -4.41175
-0.418487 -4.46406 -4.46406
-0.510187 -4.51573 -4.51573
-0.516597 -4.62154 -4.62154
-0.337137 -4.62361 -4.62361
-0.332405 -4.51771 -4.51771
-0.513391 -4.56851 -4.56851
-0.426839 -4.62247 -4.62247
-0.334768 -4.57054 -4.57054
-0.421268 -4.51661 -4.51661
-0.424052 -4.56942 -4.56942
-0.516597 -4.62154 -4.62154
-0.523013 -4.72834 -4.72834
-0.341889 -4.7305 -4.7305
-0.337137 -4.62361 -4.62361
-0.519804 -4.67482 -4.67482
-0.432423 -4.72932 -4.72932
-0.339511 -4.67693 -4.67693
-0.426839 -4.62247 -4.62247
-0.42963 -4.67577 -4.67577
-0.523013 -4.72834 -4.72834
-0.529434 -4.83613 -4.83613
-0.346662 -4.83837 -4.83837
-0.341889 -4.7305 -4.7305
-0.526223 -4.78211 -4.78211
-0.43802 -4.83714 -4.83714
-0.344273 -4.78431 -4.78431
-0.432423 -4.72932 -4.72932
-0.43522 -4.78311 -4.78311
-0.529434 -4.83613 -4.83613
-0.535861 -4.94488 -4.94488
-0.351454 -4.94721 -4.94721
-0.346662 -4.83837 -4.83837
-0.532647 -4.89039 -4.89039
-0.44363 -4.94594 -4.94594
-0.349055 -4.89267 -4.89267
-0.43802 -4.83714 -4.83714
-0.440823 -4.89142 -4.89142
-0.535861 -4.94488 -4.94488
-0.542294 -5.05461 -5.05461
-0.356266 -5.05701 -5.05701
-0.351454 -4.94721 -4.94721
-0.539077 -4.99963 -4.99963
-0.449252 -5.05571 -5.05571
-0.353857 -5.00199 -5.00199
-0.44363 -4.94594 -4.94594
-0.446439 -5.00071 -5.00071
-0.542294 -5.05461 -5.05461
-0.548733 -5.16528 -5.16528
-0.361098 -5.16778 -5.16778
-0.356266 -5.05701 -5.05701
-0.545513 -5.10982 -5.10982
-0.454887 -5.16643 -5.16643
-0.35868 -5.11228 -5.11228
-0.449252 -5.05571 -5.05571
-0.452068 -5.11095 -5.11095
-0.548733 -5.16528 -5.16528
-0.555177 -5.2769 -5.2769
-0.365951 -5.27948 -5.27948
-0.361098 -5.16778 -5.16778
-0.551954 -5.22098 -5.22098
-0.460536 -5.27809 -5.27809
-0.363522 -5.22351 -5.22351
-0.454887 -5.16643 -5.16643
-0.45771 -5.22214 -5.22214
-0.555177 -5.2769 -5.2769
-0.561626 -5.38947 -5.38947
-0.370823 -5.39213 -5.39213
-0.365951 -5.27948 -5.27948
-0.558401 -5.33307 -5.33307
-0.466197 -5.3907 -5.3907
-0.368384 -5.33569 -5.33569
-0.460536 -5.27809 -5.27809
-0.463365 -5.33428 -5.33428
-0.561626 -5.38947 -5.38947
-0.568082 -5.50296 -5.50296
-0.375715 -5.50571 -5.50571
-0.370823 -5.39213 -5.39213
-0.564853 -5.4461 -5.4461
-0.47187 -5.50423 -5.50423
-0.373266 -5.4488 -5.4488
-0.466197 -5.3907 -5.3907
-0.469032 -5.44735 -5.44735
-0.568082 -5.50296 -5.50296
-0.574543 -5.61737 -5.61737
-0.380627 -5.6202 -5.6202
-0.375715 -5.50571 -5.50571
-0.571311 -5.56005 -5.56005
-0.477557 -5.61869 -5.61869
-0.378168 -5.56284 -5.56284
-0.47187 -5.50423 -5.50423
-0.474712 -5.56135 -5.56135
-0.574543 -5.61737 -5.61737
-0.581009 -5.7327 -5.7327
-0.385559 -5.73561 -5.73561
-0.380627 -5.6202 -5.6202
-0.577775 -5.67492 -5.67492
-0.483256 -5.73406 -5.73406
-0.38309 -5.6778 -5.6778
-0.477557 -5.61869 -5.61869
-0.480405 -5.67626 -5.67626
-0.581009 -5.7327 -5.7327
-0.587481 -5.84893 -5.84893
-0.390511 -5.85193 -5.85193
-0.385559 -5.73561 -5.73561
-0.584244 -5.7907 -5.7907
-0.488968 -5.85034 -5.85034
-0.388032 -5.79366 -5.79366
-0.483256 -5.73406 -5.73406
-0.48611 -5.79209 -5.79209
-0.587481 -5.84893 -5.84893
-0.593958 -5.96606 -5.96606
-0.395482 -5.96914 -5.96914
-0.390511 -5.85193 -5.85193
-0.590719 -5.90738 -5.90738
-0.494692 -5.96751 -5.96751
-0.392994 -5.91043 -5.91043
-0.488968 -5.85034 -5.85034
-0.491828 -5.90881 -5.90881
-0.593958 -5.96606 -5.96606
-0.600441 -6.08408 -6.08408
-0.400473 -6.08724 -6.08724
-0.395482 -5.96914 -5.96914
-0.597199 -6.02496 -6.02496
-0.500429 -6.08557 -6.08557
-0.397975 -6.02808 -6.02808
-0.494692 -5.96751 -5.96751
-0.497559 -6.02643 -6.02643
-0.600441 -6.08408 -6.08408
-0.606929 -6.20297 -6.20297
-0.405484 -6.20622 -6.20622
-0.400473 -6.08724 -6.08724
-0.603684 -6.14341 -6.14341
-0.506178 -6.20451 -6.20451
-0.402976 -6.14662 -6.14662
-0.500429 -6.08557 -6.08557
-0.503302 -6.14493 -6.14493
-0.606929 -6.20297 -6.20297
-0.613422 -6.32274 -6.32274
-0.410514 -6.32607 -6.32607
-0.405484 -6.20622 -6.20622
-0.610175 -6.26275 -6.26275
-0.51194 -6.32431 -6.32431
-0.407996 -6.26604 -6.26604
-0.506178 -6.20451 -6.20451
-0.509058 -6.2643 -6.2643
-0.613422 -6.32274 -6.32274
-0.61992 -6.44337 -6.44337
-0.415563 -6.44679 -6.44679
-0.410514 -6.32607 -6.32607
-0.61667 -6.38295 -6.38295
-0.517714 -6.44499 -6.44499
-0.413036 -6.38632 -6.38632
-0.51194 -6.32431 -6.32431
-0.514825 -6.38454 -6.38454
-0.61992 -6.44337 -6.44337
-0.626423 -6.56485 -6.56485
-0.420632 -6.56835 -6.56835
-0.415563 -6.44679 -6.44679
-0.623171 -6.504 -6.504
-0.5235 -6.56651 -6.56651
-0.418095 -6.50746 -6.50746
-0.517714 -6.44499 -6.44499
-0.520605 -6.50564 -6.50564
-0.626423 -6.56485 -6.56485
-0.632931 -6.68718 -6.68718
-0.42572 -6.69077 -6.69077
-0.420632 -6.56835 -6.56835
-0.629676 -6.62591 -6.62591
-0.529297 -6.68889 -6.68889
-0.423174 -6.62945 -6.62945
-0.5235 -6.56651 -6.56651
-0.526397 -6.62759 -6.62759
-0.632931 -6.68718 -6.68718
-0.639443 -6.81035 -6.81035
-0.430827 -6.81402 -6.81402
-0.42572 -6.69077 -6.69077
-0.636186 -6.74866 -6.74866
-0.535107 -6.81209 -6.81209
-0.428271 -6.75229 -6.75229
-0.529297 -6.68889 -6.68889
-0.532201 -6.75039 -6.75039
-0.639443 -6.81035 -6.81035
-0.64596 -6.93435 -6.93435
-0.435953 -6.93809 -6.93809
-0.430827 -6.81402 -6.81402
-0.642701 -6.87224 -6.87224
-0.540929 -6.93613 -6.93613
-0.433387 -6.87595 -6.87595
-0.535107 -6.81209 -6.81209
-0.538017 -6.87401 -6.87401
-0.64596 -6.93435 -6.93435
-0.652482 -7.05916 -7.05916
-0.441097 -7.06299 -7.06299
-0.435953 -6.93809 -6.93809
-0.649221 -6.99665 -6.99665
-0.546762 -7.06099 -7.06099
-0.438523 -7.00044 -7.00044
-0.540929 -6.93613 -6.93613
-0.543844 -6.99846 -6.99846
-0.652482 -7.05916 -7.05916
-0.659008 -7.18479 -7.18479
-0.44626 -7.1887 -7.1887
-0.441097 -7.06299 -7.06299
-0.655744 -7.12188 -7.12188
-0.552606 -7.18666 -7.18666
-0.443676 -7.12575 -7.12575
-0.546762 -7.06099 -7.06099
-0.549683 -7.12373 -7.12373
-0.659008 -7.18479 -7.18479
-0.665538 -7.31122 -7.31122
-0.451442 -7.31522 -7.31522
-0.44626 -7.1887 -7.1887
-0.662272 -7.24791 -7.24791
-0.558462 -7.31314 -7.31314
-0.448849 -7.25186 -7.25186
-0.552606 -7.18666 -7.18666
-0.555533 -7.2498 -7.2498
-0.665538 -7.31122 -7.31122
-0.672071 -7.43845 -7.43845
-0.456642 -7.44253 -7.44253
-0.451442 -7.31522 -7.31522
-0.668804 -7.37474 -7.37474
-0.564329 -7.44041 -7.44041
-0.454039 -7.37877 -7.37877
-0.558462 -7.31314 -7.31314
-0.561394 -7.37667 -7.37667
-0.672071 -7.43845 -7.43845
-0.678609 -7.56646 -7.56646
-0.461859 -7.57062 -7.57062
-0.456642 -7.44253 -7.44253
-0.67534 -7.50236 -7.50236
-0.570207 -7.56846 -7.56846
-0.459248 -7.50648 -7.50648
-0.564329 -7.44041 -7.44041
-0.567266 -7.50434 -7.50434
-0.678609 -7.56646 -7.56646
-0.68515 -7.69526 -7.69526
-0.467095 -7.69949 -7.69949
-0.461859 -7.57062 -7.57062
-0.681879 -7.63076 -7.63076
-0.576095 -7.69729 -7.69729
-0.464475 -7.63496 -7.63496
-0.570207 -7.56846 -7.56846
-0.573149 -7.63278 -7.63278
-0.68515 -7.69526 -7.69526
-0.691695 -7.82482 -7.82482
-0.472349 -7.82914 -7.82914
-0.467095 -7.69949 -7.69949
-0.688422 -7.75994 -7.75994
-0.581994 -7.8269 -7.8269
-0.46972 -7.76422 -7.76422
-0.576095 -7.69729 -7.69729
-0.579043 -7.762 -7.762
-0.691695 -7.82482 -7.82482
-0.698243 -7.95514 -7.95514
-0.47762 -7.95954 -7.95954
-0.472349 -7.82914 -7.82914
-0.694968 -7.88989 -7.88989
-0.587903 -7.95726 -7.95726
-0.474982 -7.89425 -7.89425
-0.581994 -7.8269 -7.8269
-0.584948 -7.89199 -7.89199
-0.698243 -7.95514 -7.95514
-0.704793 -8.08622 -8.08622
-0.482908 -8.0907 -8.0907
-0.47762 -7.95954 -7.95954
-0.701518 -8.02059 -8.02059
-0.593823 -8.08838 -8.08838
-0.480262 -8.02503 -8.02503
-0.587903 -7.95726 -7.95726
-0.590862 -8.02273 -8.02273
-0.704793 -8.08622 -8.08622
-0.711347 -8.21804 -8.21804
-0.488213 -8.2226 -8.2226
-0.482908 -8.0907 -8.0907
-0.70807 -8.15204 -8.15204
-0.599752 -8.22024 -8.22024
-0.485558 -8.15656 -8.15656
-0.593823 -8.08838 -8.08838
-0.596787 -8.15422 -8.15422
-0.711347 -8.21804 -8.21804
-0.717903 -8.3506 -8.3506
-0.493535 -8.35524 -8.35524
-0.488213 -8.2226 -8.2226
-0.714625 -8.28423 -8.28423
-0.605692 -8.35284 -8.35284
-0.490872 -8.28883 -8.28883
-0.599752 -8.22024 -8.22024
-0.602721 -8.28645 -8.28645
-0.717903 -8.3506 -8.3506
-0.724461 -8.48388 -8.48388
-0.498874 -8.4886 -8.4886
-0.493535 -8.35524 -8.35524
-0.721182 -8.41715 -8.41715
-0.61164 -8.48617 -8.48617
-0.496203 -8.42183 -8.42183
-0.605692 -8.35284 -8.35284
-0.608665 -8.41941 -8.41941
-0.724461 -8.48388 -8.48388
-0.731022 -8.61789 -8.61789
-0.50423 -8.62268 -8.62268
-0.498874 -8.4886 -8.4886
-0.727741 -8.5508 -8.5508
-0.617598 -8.62021 -8.62021
-0.50155 -8.55555 -8.55555
-0.61164 -8.48617 -8.48617
-0.614618 -8.5531 -8.5531
-0.731022 -8.61789 -8.61789
-0.737584 -8.75261 -8.75261
-0.509601 -8.75748 -8.75748
-0.50423 -8.62268 -8.62268
-0.734303 -8.68516 -8.68516
-0.623565 -8.75497 -8.75497
-0.506913 -8.68999 -8.68999
-0.617598 -8.62021 -8.62021
-0.620581 -8.6875 -8.6875
-0.737584 -8.75261 -8.75261
-0.744148 -8.88802 -8.88802
-0.514988 -8.89297 -8.89297
-0.509601 -8.75748 -8.75748
-0.740866 -8.82023 -8.82023
-0.629541 -8.89042 -8.89042
-0.512293 -8.82514 -8.82514
-0.623565 -8.75497 -8.75497
-0.626552 -8.82261 -8.82261
-0.744148 -8.88802 -8.88802
-0.750713 -9.02413 -9.02413
-0.520391 -9.02916 -9.02916
-0.514988 -8.89297 -8.89297
-0.747431 -8.95599 -8.95599
-0.635525 -9.02658 -9.02658
-0.517688 -8.96098 -8.96098
-0.629541 -8.89042 -8.89042
-0.632532 -8.95841 -8.95841
-0.750713 -9.02413 -9.02413
-0.75728 -9.16093 -9.16093
-0.525809 -9.16603 -9.16603
-0.520391 -9.02916 -9.02916
-0.753996 -9.09245 -9.09245
-0.641517 -9.16341 -9.16341
-0.523098 -9.09751 -9.09751
-0.635525 -9.02658 -9.02658
-0.63852 -9.09491 -9.09491
-0.75728 -9.16093 -9.16093
-0.763847 -9.29841 -9.29841
-0.531243 -9.30358 -9.30358
-0.525809 -9.16603 -9.16603
-0.760563 -9.22959 -9.22959
-0.647517 -9.30092 -9.30092
-0.528524 -9.23472 -9.23472
-0.641517 -9.16341 -9.16341
-0.644516 -9.23208 -9.23208
-0.763847 -9.29841 -9.29841
-0.770414 -9.43655 -9.43655
-0.536691 -9.4418 -9.4418
-0.531243 -9.30358 -9.30358
-0.767131 -9.3674 -9.3674
-0.653525 -9.43911 -9.43911
-0.533965 -9.37261 -9.37261
-0.647517 -9.30092 -9.30092
-0.65052 -9.36993 -9.36993
-0.770414 -9.43655 -9.43655
-0.776982 -9.57535 -9.57535
-0.542154 -9.58068 -9.58068
-0.536691 -9.4418 -9.4418
-0.773698 -9.50587 -9.50587
-0.659541 -9.57795 -9.57795
-0.53942 -9.51116 -9.51116
-0.653525 -9.43911 -9.43911
-0.656532 -9.50845 -9.50845
-0.776982 -9.57535 -9.57535
-0.78355 -9.71481 -9.71481
-0.547631 -9.72021 -9.72021
-0.542154 -9.58068 -9.58068
-0.780266 -9.645 -9.645
-0.665563 -9.71744 -9.71744
-0.54489 -9.65036 -9.65036
-0.659541 -9.57795 -9.57795
-0.662551 -9.64761 -9.64761
-0.78355 -9.71481 -9.71481
-0.790118 -9.85491 -9.85491
-0.553121 -9.86038 -9.86038
-0.547631 -9.72021 -9.72021
-0.786834 -9.78478 -9.78478
-0.671592 -9.85758 -9.85758
-0.550374 -9.79022 -9.79022
-0.665563 -9.71744 -9.71744
-0.668577 -9.78743 -9.78743
-0.790118 -9.85491 -9.85491
-0.796684 -9.99564 -9.99564
-0.558626 -10.0012 -10.0012
-0.553121 -9.86038 -9.86038
-0.793401 -9.9252 -9.9252
-0.677628 -9.99835 -9.99835
-0.555872 -9.93071 -9.93071
-0.671592 -9.85758 -9.85758
-0.674609 -9.92789 -9.92789
-0.796684 -9.99564 -9.99564
-0.80325 -10.137 -10.137
-0.564144 -10.1426 -10.1426
-0.558626 -10.0012 -10.0012
-0.799967 -10.0662 -10.0662
-0.68367 -10.1397 -10.1397
-0.561383 -10.0718 -10.0718
-0.677628 -9.99835 -9.99835
-0.680648 -10.069 -10.069
-0.80325 -10.137 -10.137
-0.809815 -10.279 -10.279
-0.569675 -10.2847 -10.2847
-0.564144 -10.1426 -10.1426
-0.806533 -10.2079 -10.2079
-0.689718 -10.2818 -10.2818
-0.566908 -10.2136 -10.2136
-0.68367 -10.1397 -10.1397
-0.686693 -10.2107 -10.2107
-0.809815 -10.279 -10.279
-0.816378 -10.4216 -10.4216
-0.575218 -10.4273 -10.4273
-0.569675 -10.2847 -10.2847
-0.813096 -10.3502 -10.3502
-0.695771 -10.4244 -10.4244
-0.572445 -10.3559 -10.3559
-0.689718 -10.2818 -10.2818
-0.692744 -10.353 -10.353
-0.816378 -10.4216 -10.4216
-0.822939 -10.5648 -10.5648
-0.580774 -10.5706 -10.5706
-0.575218 -10.4273 -10.4273
-0.819658 -10.4931 -10.4931
-0.701829 -10.5676 -10.5676
-0.577995 -10.4989 -10.4989
-0.695771 -10.4244 -10.4244
-0.6988 -10.4959 -10.4959
-0.822939 -10.5648 -10.5648
-0.829497 -10.7085 -10.7085
-0.586342 -10.7144 -10.7144
-0.580774 -10.5706 -10.5706
-0.826218 -10.6366 -10.6366
-0.707893 -10.7114 -10.7114
-0.583557 -10.6424 -10.6424
-0.701829 -10.5676 -10.5676
-0.704861 -10.6394 -10.6394
-0.829497 -10.7085 -10.7085
-0.836054 -10.8529 -10.8529
-0.591922 -10.8589 -10.8589
-0.586342 -10.7144 -10.7144
-0.832776 -10.7806 -10.7806
-0.713961 -10.8558 -10.8558
-0.589131 -10.7866 -10.7866
-0.707893 -10.7114 -10.7114
-0.710926 -10.7836 -10.7836
-0.836054 -10.8529 -10.8529
-0.842607 -10.9978 -10.9978
-0.597513 -11.0039 -11.0039
-0.591922 -10.8589 -10.8589
-0.839331 -10.9253 -10.9253
-0.720033 -11.0008 -11.0008
-0.594716 -10.9313 -10.9313
-0.713961 -10.8558 -10.8558
-0.716996 -10.9282 -10.9282
-0.842607 -10.9978 -10.9978
-0.849157 -11.1434 -11.1434
-0.603115 -11.1495 -11.1495
-0.597513 -11.0039 -11.0039
-0.845882 -11.0705 -11.0705
-0.726109 -11.1464 -11.1464
-0.600312 -11.0766 -11.0766
-0.720033 -11.0008 -11.0008
-0.72307 -11.0735 -11.0735
-0.849157 -11.1434 -11.1434
-0.855703 -11.2894 -11.2894
-0.608727 -11.2956 -11.2956
-0.603115 -11.1495 -11.1495
-0.85243 -11.2163 -11.2163
-0.732188 -11.2925 -11.2925
-0.60592 -11.2225 -11.2225
-0.726109 -11.1464 -11.1464
-0.729148 -11.2193 -11.2193
-0.855703 -11.2894 -11.2894
-0.862245 -11.436 -11.436
-0.61435 -11.4423 -11.4423
-0.608727 -11.2956 -11.2956
-0.858974 -11.3627 -11.3627
-0.738271 -11.4391 -11.4391
-0.611537 -11.3689 -11.3689
-0.732188 -11.2925 -11.2925
-0.735229 -11.3657 -11.3657
-0.862245 -11.436 -11.436
-0.868783 -11.5832 -11.5832
-0.619983 -11.5895 -11.5895
-0.61435 -11.4423 -11.4423
-0.865514 -11.5096 -11.5096
-0.744356 -11.5863 -11.5863
-0.617165 -11.5158 -11.5158
-0.738271 -11.4391 -11.4391
-0.741313 -11.5126 -11.5126
-0.868783 -11.5832 -11.5832
-0.875316 -11.7309 -11.7309
-0.625625 -11.7373 -11.7373
-0.619983 -11.5895 -11.5895
-0.87205 -11.657 -11.657
-0.750444 -11.734 -11.734
-0.622803 -11.6633 -11.6633
-0.744356 -11.5863 -11.5863
-0.7474 -11.6601 -11.6601
-0.875316 -11.7309 -11.7309
-0.881843 -11.8791 -11.8791
-0.631276 -11.8856 -11.8856
-0.625625 -11.7373 -11.7373
-0.87858 -11.8049 -11.8049
-0.756533 -11.8823 -11.8823
-0.62845 -11.8114 -11.8114
-0.750444 -11.734 -11.734
-0.753488 -11.8081 -11.8081
-0.881843 -11.8791 -11.8791
-0.888366 -12.0279 -12.0279
-0.636936 -12.0344 -12.0344
-0.631276 -11.8856 -11.8856
-0.885105 -11.9534 -11.9534
-0.762624 -12.0311 -12.0311
-0.634105 -11.9599 -11.9599
-0.756533 -11.8823 -11.8823
-0.759579 -11.9566 -11.9566
-0.888366 -12.0279 -12.0279
-0.894882 -12.1771 -12.1771
-0.642605 -12.1837 -12.1837
-0.636936 -12.0344 -12.0344
-0.891625 -12.1024 -12.1024
-0.768717 -12.1803 -12.1803
-0.63977 -12.109 -12.109
-0.762624 -12.0311 -12.0311
-0.765671 -12.1056 -12.1056
-0.894882 -12.1771 -12.1771
-0.901392 -12.3268 -12.3268
-0.648281 -12.3335 -12.3335
-0.642605 -12.1837 -12.1837
-0.898138 -12.2519 -12.2519
-0.77481 -12.3301 -12.3301
-0.645442 -12.2585 -12.2585
-0.768717 -12.1803 -12.1803
-0.771763 -12.2552 -12.2552
-0.901392 -12.3268 -12.3268
-0.907895 -12.4771 -12.4771
-0.653965 -12.4838 -12.4838
-0.648281 -12.3335 -12.3335
-0.904645 -12.4019 -12.4019
-0.780904 -12.4804 -12.4804
-0.651122 -12.4086 -12.4086
-0.77481 -12.3301 -12.3301
-0.777857 -12.4052 -12.4052
-0.907895 -12.4771 -12.4771
-0.914391 -12.6278 -12.6278
-0.659656 -12.6346 -12.6346
-0.653965 -12.4838 -12.4838
-0.911144 -12.5524 -12.5524
-0.786997 -12.6311 -12.6311
-0.65681 -12.5591 -12.5591
-0.780904 -12.4804 -12.4804
-0.783951 -12.5557 -12.5557
-0.914391 -12.6278 -12.6278
-0.92088 -12.779 -12.779
-0.665354 -12.7858 -12.7858
-0.659656 -12.6346 -12.6346
-0.917637 -12.7033 -12.7033
-0.793091 -12.7824 -12.7824
-0.662504 -12.7101 -12.7101
-0.786997 -12.6311 -12.6311
-0.790044 -12.7067 -12.7067
-0.92088 -12.779 -12.779
-0.927361 -12.9307 -12.9307
-0.671058 -12.9376 -12.9376
-0.665354 -12.7858 -12.7858
-0.924121 -12.8548 -12.8548
-0.799183 -12.9341 -12.9341
-0.668205 -12.8616 -12.8616
-0.793091 -12.7824 -12.7824
-0.796137 -12.8582 -12.8582
-0.927361 -12.9307 -12.9307
-0.933833 -13.0828 -13.0828
-0.676768 -13.0897 -13.0897
-0.671058 -12.9376 -12.9376
-0.930598 -13.0067 -13.0067
-0.805274 -13.0862 -13.0862
-0.673913 -13.0136 -13.0136
-0.799183 -12.9341 -12.9341
-0.802229 -13.0101 -13.0101
-0.933833 -13.0828 -13.0828
-0.940296 -13.2354 -13.2354
-0.682484 -13.2424 -13.2424
-0.676768 -13.0897 -13.0897
-0.937066 -13.159 -13.159
-0.811364 -13.2388 -13.2388
-0.679625 -13.166 -13.166
-0.805274 -13.0862 -13.0862
-0.808319 -13.1625 -13.1625
-0.940296 -13.2354 -13.2354
-0.946751 -13.3884 -13.3884
-0.688204 -13.3954 -13.3954
-0.682484 -13.2424 -13.2424
-0.943525 -13.3118 -13.3118
-0.817451 -13.3919 -13.3919
-0.685343 -13.3188 -13.3188
-0.811364 -13.2388 -13.2388
-0.814408 -13.3153 -13.3153
-0.946751 -13.3884 -13.3884
-0.953195 -13.5418 -13.5418
-0.693929 -13.5489 -13.5489
-0.688204 -13.3954 -13.3954
-0.949974 -13.465 -13.465
-0.823536 -13.5453 -13.5453
-0.691066 -13.4721 -13.4721
-0.817451 -13.3919 -13.3919
-0.820494 -13.4685 -13.4685
-0.953195 -13.5418 -13.5418
-0.959629 -13.6957 -13.6957
-0.699659 -13.7029 -13.7029
-0.693929 -13.5489 -13.5489
-0.956414 -13.6187 -13.6187
-0.829618 -13.6992 -13.6992
-0.696794 -13.6258 -13.6258
-0.823536 -13.5453 -13.5453
-0.826577 -13.6222 -13.6222
-0.959629 -13.6957 -13.6957
-0.966053 -13.85 -13.85
-0.705392 -13.8572 -13.8572
-0.699659 -13.7029 -13.7029
-0.962843 -13.7728 -13.7728
-0.835697 -13.8535 -13.8535
-0.702525 -13.78 -13.78
-0.829618 -13.6992 -13.6992
-0.832658 -13.7763 -13.7763
-0.966053 -13.85 -13.85
-0.972466 -14.0046 -14.0046
-0.711128 -14.0119 -14.0119
-0.705392 -13.8572 -13.8572
-0.969261 -13.9272 -13.9272
-0.841771 -14.0082 -14.0082
-0.70826 -13.9345 -13.9345
-0.835697 -13.8535 -13.8535
-0.838734 -13.9308 -13.9308
-0.972466 -14.0046 -14.0046
-0.978868 -14.1597 -14.1597
-0.716867 -14.1671 -14.1671
-0.711128 -14.0119 -14.0119
-0.975668 -14.0821 -14.0821
-0.847842 -14.1634 -14.1634
-0.713997 -14.0895 -14.0895
-0.841771 -14.0082 -14.0082
-0.844807 -14.0858 -14.0858
-0.978868 -14.1597 -14.1597
-0.985257 -14.3152 -14.3152
-0.722609 -14.3226 -14.3226
-0.716867 -14.1671 -14.1671
-0.982064 -14.2374 -14.2374
-0.853907 -14.3189 -14.3189
-0.719738 -14.2448 -14.2448
-0.847842 -14.1634 -14.1634
-0.850875 -14.2411 -14.2411
-0.985257 -14.3152 -14.3152
-0.991634 -14.4711 -14.4711
-0.728352 -14.4785 -14.4785
-0.722609 -14.3226 -14.3226
-0.988447 -14.3931 -14.3931
-0.859968 -14.4748 -14.4748
-0.72548 -14.4005 -14.4005
-0.853907 -14.3189 -14.3189
-0.856938 -14.3968 -14.3968
-0.991634 -14.4711 -14.4711
-0.997999 -14.6273 -14.6273
-0.734097 -14.6348 -14.6348
-0.728352 -14.4785 -14.4785
-0.994818 -14.5491 -14.5491
-0.866022 -14.631 -14.631
-0.731225 -14.5566 -14.5566
-0.859968 -14.4748 -14.4748
-0.862996 -14.5528 -14.5528
-0.997999 -14.6273 -14.6273
-1.00435 -14.7839 -14.7839
-0.739843 -14.7915 -14.7915
-0.734097 -14.6348 -14.6348
-1.00118 -14.7056 -14.7056
-0.872071 -14.7876 -14.7876
-0.73697 -14.7131 -14.7131
-0.866022 -14.631 -14.631
-0.869047 -14.7093 -14.7093
-1.00435 -14.7839 -14.7839
-1.01069 -14.9409 -14.9409
-0.74559 -14.9485 -14.9485
-0.739843 -14.7915 -14.7915
-1.00752 -14.8623 -14.8623
-0.878113 -14.9446 -14.9446
-0.742716 -14.8699 -14.8699
-0.872071 -14.7876 -14.7876
-0.875093 -14.8661 -14.8661
-1.01069 -14.9409 -14.9409
-1.01701 -15.0982 -15.0982
-0.751336 -15.1058 -15.1058
-0.74559 -14.9485 -14.9485
-1.01385 -15.0195 -15.0195
-0.884148 -15.102 -15.102
-0.748463 -15.0271 -15.0271
-0.878113 -14.9446 -14.9446
-0.881131 -15.0232 -15.0232
-1.01701 -15.0982 -15.0982
-1.02332 -15.2558 -15.2558
-0.757082 -15.2635 -15.2635
-0.751336 -15.1058 -15.1058
-1.02017 -15.1769 -15.1769
-0.890175 -15.2596 -15.2596
-0.754209 -15.1846 -15.1846
-0.884148 -15.102 -15.102
-0.887162 -15.1807 -15.1807
-1.02332 -15.2558 -15.2558
-1.02961 -15.4138 -15.4138
-0.762827 -15.4215 -15.4215
-0.757082 -15.2635 -15.2635
-1.02647 -15.3347 -15.3347
-0.896194 -15.4176 -15.4176
-0.759955 -15.3425 -15.3425
-0.890175 -15.2596 -15.2596
-0.893186 -15.3386 -15.3386
-1.02961 -15.4138 -15.4138
-1.03589 -15.5721 -15.5721
-0.768571 -15.5799 -15.5799
-0.762827 -15.4215 -15.4215
-1.03275 -15.4929 -15.4929
-0.902205 -15.5759 -15.5759
-0.765699 -15.5007 -15.5007
-0.896194 -15.4176 -15.4176
-0.899201 -15.4967 -15.4967
-1.03589 -15.5721 -15.5721
-1.04215 -15.7307 -15.7307
-0.774313 -15.7385 -15.7385
-0.768571 -15.5799 -15.5799
-1.03902 -15.6513 -15.6513
-0.908207 -15.7346 -15.7346
-0.771442 -15.6592 -15.6592
-0.902205 -15.5759 -15.5759
-0.905207 -15.6552 -15.6552
-1.04215 -15.7307 -15.7307
-1.0484 -15.8896 -15.8896
-0.780052 -15.8975 -15.8975
-0.774313 -15.7385 -15.7385
-1.04528 -15.8101 -15.8101
-0.914199 -15.8935 -15.8935
-0.777183 -15.818 -15.818
-0.908207 -15.7346 -15.7346
-0.911204 -15.814 -15.814
-1.0484 -15.8896 -15.8896
-1.05462 -16.0488 -16.0488
-0.785789 -16.0568 -16.0568
-0.780052 -15.8975 -15.8975
-1.05151 -15.9692 -15.9692
-0.920181 -16.0528 -16.0528
-0.782921 -15.9771 -15.9771
-0.914199 -15.8935 -15.8935
-0.917191 -15.9731 -15.9731
-1.05462 -16.0488 -16.0488
-1.06083 -16.2083 -16.2083
-0.791522 -16.2163 -16.2163
-0.785789 -16.0568 -16.0568
-1.05773 -16.1285 -16.1285
-0.926153 -16.2123 -16.2123
-0.788656 -16.1365 -16.1365
-0.920181 -16.0528 -16.0528
-0.923168 -16.1325 -16.1325
-1.06083 -16.2083 -16.2083
-1.06703 -16.3681 -16.3681
-0.797252 -16.3762 -16.3762
-0.791522 -16.2163 -16.2163
-1.06393 -16.2882 -16.2882
-0.932113 -16.3721 -16.3721
-0.794388 -16.2962 -16.2962
-0.926153 -16.2123 -16.2123
-0.929134 -16.2922 -16.2922
-1.06703 -16.3681 -16.3681
-1.0732 -16.5282 -16.5282
-0.802977 -16.5363 -16.5363
-0.797252 -16.3762 -16.3762
-1.07011 -16.4481 -16.4481
-0.938063 -16.5322 -16.5322
-0.800115 -16.4562 -16.4562
-0.932113 -16.3721 -16.3721
-0.935089 -16.4521 -16.4521
-1.0732 -16.5282 -16.5282
-1.07935 -16.6885 -16.6885
-0.808697 -16.6966 -16.6966
-0.802977 -16.5363 -16.5363
-1.07628 -16.6083 -16.6083
-0.944 -16.6925 -16.6925
-0.805838 -16.6164 -16.6164
-0.938063 -16.5322 -16.5322
-0.941033 -16.6123 -16.6123
-1.07935 -16.6885 -16.6885
-1.08549 -16.8491 -16.8491
-0.814412 -16.8572 -16.8572
-0.808697 -16.6966 -16.6966
-1.08242 -16.7687 -16.7687
-0.949925 -16.8531 -16.8531
-0.811555 -16.7769 -16.7769
-0.944 -16.6925 -16.6925
-0.946964 -16.7728 -16.7728
-1.08549 -16.8491 -16.8491
-1.0916 -17.0099 -17.0099
-0.820121 -17.0181 -17.0181
-0.814412 -16.8572 -16.8572
-1.08855 -16.9295 -16.9295
-0.955836 -17.014 -17.014
-0.817267 -16.9376 -16.9376
-0.949925 -16.8531 -16.8531
-0.952882 -16.9335 -16.9335
-1.0916 -17.0099 -17.0099
-1.0977 -17.171 -17.171
-0.825823 -17.1792 -17.1792
-0.820121 -17.0181 -17.0181
-1.09465 -17.0904 -17.0904
-0.961734 -17.1751 -17.1751
-0.822973 -17.0986 -17.0986
-0.955836 -17.014 -17.014
-0.958787 -17.0945 -17.0945
-1.0977 -17.171 -17.171
-1.10377 -17.3323 -17.3323
-0.831519 -17.3405 -17.3405
-0.825823 -17.1792 -17.1792
-1.10073 -17.2516 -17.2516
-0.967619 -17.3364 -17.3364
-0.828672 -17.2598 -17.2598
-0.961734 -17.1751 -17.1751
-0.964678 -17.2557 -17.2557
-1.10377 -17.3323 -17.3323
-1.10982 -17.4938 -17.4938
-0.837207 -17.5021 -17.5021
-0.831519 -17.3405 -17.3405
-1.1068 -17.413 -17.413
-0.973488 -17.4979 -17.4979
-0.834364 -17.4213 -17.4213
-0.967619 -17.3364 -17.3364
-0.970555 -17.4171 -17.4171
-1.10982 -17.4938 -17.4938
-1.11585 -17.6555 -17.6555
-0.842887 -17.6639 -17.6639
-0.837207 -17.5021 -17.5021
-1.11284 -17.5746 -17.5746
-0.979343 -17.6597 -17.6597
-0.840048 -17.5829 -17.5829
-0.973488 -17.4979 -17.4979
-0.976417 -17.5788 -17.5788
-1.11585 -17.6555 -17.6555
-1.12185 -17.8174 -17.8174
-0.848559 -17.8258 -17.8258
-0.842887 -17.6639 -17.6639
-1.11885 -17.7364 -17.7364
-0.985182 -17.8216 -17.8216
-0.845724 -17.7448 -17.7448
-0.979343 -17.6597 -17.6597
-0.982264 -17.7406 -17.7406
-1.12185 -17.8174 -17.8174
-1.12784 -17.9796 -17.9796
-0.854222 -17.988 -17.988
-0.848559 -17.8258 -17.8258
-1.12485 -17.8985 -17.8985
-0.991004 -17.9838 -17.9838
-0.851392 -17.9069 -17.9069
-0.985182 -17.8216 -17.8216
-0.988095 -17.9027 -17.9027
-1.12784 -17.9796 -17.9796
-1.1338 -18.1419 -18.1419
-0.859875 -18.1503 -18.1503
-0.854222 -17.988 -17.988
-1.13082 -18.0607 -18.0607
-0.996811 -18.1461 -18.1461
-0.85705 -18.0691 -18.0691
-0.991004 -17.9838 -17.9838
-0.99391 -18.0649 -18.0649
-1.1338 -18.1419 -18.1419
-1.13973 -18.3044 -18.3044
-0.865519 -18.3129 -18.3129
-0.859875 -18.1503 -18.1503
-1.13677 -18.2231 -18.2231
-1.0026 -18.3086 -18.3086
-0.862698 -18.2316 -18.2316
-0.996811 -18.1461 -18.1461
-0.999707 -18.2273 -18.2273
-1.13973 -18.3044 -18.3044
-1.14564 -18.467 -18.467
-0.871151 -18.4756 -18.4756
-0.865519 -18.3129 -18.3129
-1.14269 -18.3857 -18.3857
-1.00837 -18.4713 -18.4713
-0.868336 -18.3942 -18.3942
-1.0026 -18.3086 -18.3086
-1.00549 -18.3899 -18.3899
-1.14564 -18.467 -18.467
-1.15152 -18.6299 -18.6299
-0.876773 -18.6384 -18.6384
-0.871151 -18.4756 -18.4756
-1.14858 -18.5484 -18.5484
-1.01412 -18.6341 -18.6341
-0.873964 -18.557 -18.557
-1.00837 -18.4713 -18.4713
-1.01125 -18.5527 -18.5527
-1.15152 -18.6299 -18.6299
-1.15738 -18.7929 -18.7929
-0.882383 -18.8014 -18.8014
-0.876773 -18.6384 -18.6384
-1.15446 -18.7113 -18.7113
-1.01986 -18.7971 -18.7971
-0.87958 -18.7199 -18.7199
-1.01412 -18.6341 -18.6341
-1.01699 -18.7156 -18.7156
-1.15738 -18.7929 -18.7929
-1.16321 -18.956 -18.956
-0.887981 -18.9646 -18.9646
-0.882383 -18.8014 -18.8014
-1.1603 -18.8744 -18.8744
-1.02557 -18.9603 -18.9603
-0.885184 -18.883 -18.883
-1.01986 -18.7971 -18.7971
-1.02272 -18.8787 -18.8787
-1.16321 -18.956 -18.956
-1.16902 -19.1193 -19.1193
-0.893566 -19.1279 -19.1279
-0.887981 -18.9646 -18.9646
-1.16612 -19.0376 -19.0376
-1.03127 -19.1236 -19.1236
-0.890775 -19.0462 -19.0462
-1.02557 -18.9603 -18.9603
-1.02842 -19.0419 -19.0419
-1.16902 -19.1193 -19.1193
-1.1748 -19.2826 -19.2826
-0.899138 -19.2913 -19.2913
-0.893566 -19.1279 -19.1279
-1.17191 -19.2009 -19.2009
-1.03694 -19.287 -19.287
-0.896354 -19.2096 -19.2096
-1.03127 -19.1236 -19.1236
-1.03411 -19.2053 -19.2053
-1.1748 -19.2826 -19.2826
-1.18055 -19.4462 -19.4462
-0.904696 -19.4549 -19.4549
-0.899138 -19.2913 -19.2913
-1.17768 -19.3644 -19.3644
-1.0426 -19.4505 -19.4505
-0.901919 -19.3731 -19.3731
-1.03694 -19.287 -19.287
-1.03977 -19.3687 -19.3687
-1.18055 -19.4462 -19.4462
-1.18627 -19.6098 -19.6098
-0.91024 -19.6185 -19.6185
-0.904696 -19.4549 -19.4549
-1.18341 -19.528 -19.528
-1.04823 -19.6142 -19.6142
-0.90747 -19.5367 -19.5367
-1.0426 -19.4505 -19.4505
-1.04542 -19.5323 -19.5323
-1.18627 -19.6098 -19.6098
-1.19196 -19.7735 -19.7735
-0.915769 -19.7823 -19.7823
-0.91024 -19.6185 -19.6185
-1.18912 -19.6917 -19.6917
-1.05384 -19.7779 -19.7779
-0.913006 -19.7004 -19.7004
-1.04823 -19.6142 -19.6142
-1.05104 -19.696 -19.696
-1.19196 -19.7735 -19.7735
-1.19762 -19.9374 -19.9374
-0.921282 -19.9461 -19.9461
-0.915769 -19.7823 -19.7823
-1.1948 -19.8554 -19.8554
-1.05943 -19.9417 -19.9417
-0.918527 -19.8642 -19.8642
-1.05384 -19.7779 -19.7779
-1.05664 -19.8598 -19.8598
-1.19762 -19.9374 -19.9374
-1.20325 -20.1013 -20.1013
-0.926779 -20.1101 -20.1101
-0.921282 -19.9461 -19.9461
-1.20044 -20.0193 -20.0193
-1.06499 -20.1057 -20.1057
-0.924032 -20.0281 -20.0281
-1.05943 -19.9417 -19.9417
-1.06221 -20.0237 -20.0237
-1.20325 -20.1013 -20.1013
-1.20886 -20.2653 -20.2653
-0.932258 -20.2741 -20.2741
-0.926779 -20.1101 -20.1101
-1.20606 -20.1833 -20.1833
-1.07053 -20.2697 -20.2697
-0.929521 -20.1921 -20.1921
-1.06499 -20.1057 -20.1057
-1.06777 -20.1877 -20.1877
-1.20886 -20.2653 -20.2653
-1.21442 -20.4293 -20.4293
-0.937718 -20.4382 -20.4382
-0.932258 -20.2741 -20.2741
-1.21164 -20.3473 -20.3473
-1.07605 -20.4337 -20.4337
-0.934991 -20.3561 -20.3561
-1.07053 -20.2697 -20.2697
-1.07329 -20.3517 -20.3517
-1.21442 -20.4293 -20.4293
-1.21996 -20.5934 -20.5934
-0.943158 -20.6023 -20.6023
-0.937718 -20.4382 -20.4382
-1.2172 -20.5114 -20.5114
-1.08153 -20.5979 -20.5979
-0.940441 -20.5202 -20.5202
-1.07605 -20.4337 -20.4337
-1.07879 -20.5158 -20.5158
-1.21996 -20.5934 -20.5934
-1.22546 -20.7576 -20.7576
-0.948575 -20.7665 -20.7665
-0.943158 -20.6023 -20.6023
-1.22272 -20.6755 -20.6755
-1.08699 -20.7621 -20.7621
-0.945869 -20.6844 -20.6844
-1.08153 -20.5979 -20.5979
-1.08427 -20.68 -20.68
-1.22546 -20.7576 -20.7576
-1.23093 -20.9218 -20.9218
-0.953966 -20.9308 -20.9308
-0.948575 -20.7665 -20.7665
-1.2282 -20.8397 -20.8397
-1.09242 -20.9263 -20.9263
-0.951274 -20.8486 -20.8486
-1.08699 -20.7621 -20.7621
-1.08971 -20.8442 -20.8442
-1.23093 -20.9218 -20.9218
-1.23636 -21.0861 -21.0861
-0.959332 -21.0951 -21.0951
-0.953966 -20.9308 -20.9308
-1.23365 -21.004 -21.004
-1.09781 -21.0906 -21.0906
-0.956652 -21.0129 -21.0129
-1.09242 -20.9263 -20.9263
-1.09512 -21.0084 -21.0084
-1.23636 -21.0861 -21.0861
-1.24174 -21.2505 -21.2505
-0.964676 -21.2594 -21.2594
-0.959332 -21.0951 -21.0951
-1.23906 -21.1683 -21.1683
-1.10316 -21.2549 -21.2549
-0.962005 -21.1772 -21.1772
-1.09781 -21.0906 -21.0906
-1.10049 -21.1728 -21.1728
-1.24174 -21.2505 -21.2505
-1.24709 -21.4149 -21.4149
-0.970017 -21.4237 -21.4237
-0.964676 -21.2594 -21.2594
-1.24442 -21.3327 -21.3327
-1.1085 -21.4193 -21.4193
-0.967345 -21.3415 -21.3415
-1.10316 -21.2549 -21.2549
-1.10583 -21.3371 -21.3371
-1.24709 -21.4149 -21.4149
-1.25247 -21.5794 -21.5794
-0.975368 -21.5879 -21.5879
-0.970017 -21.4237 -21.4237
-1.24977 -21.4972 -21.4972
-1.11388 -21.5836 -21.5836
-0.97269 -21.5058 -21.5058
-1.1085 -21.4193 -21.4193
-1.11118 -21.5015 -21.5015
0 0 0
-0.00374336 -0.000375016 -0.000375016
-0.00124365 0.000201922 0.000201922
0 0 0
-0.00181503 0.000117684 0.000117684
-0.00248433 -1.35421e-05 -1.35421e-05
-0.000619326 0.000402378 0.000402378
0 0 0
-0.00120629 0.000306075 0.000306075
-0.00374336 -0.000375016 -0.000375016
-0.00777233 -0.00288037 -0.00288037
-0.00258808 -0.00187969 -0.00187969
-0.00124365 0.000201922 0.000201922
-0.00573265 -0.00138668 -0.00138668
-0.00515647 -0.00224 -0.00224
-0.00190345 -0.000571594 -0.000571594
-0.00248433 -1.35421e-05 -1.35421e-05
-0.00380365 -0.000872027 -0.000872027
-0.00777233 -0.00288037 -0.00288037
-0.01197 -0.00721921 -0.00721921
-0.0039813 -0.00596391 -0.00596391
-0.00258808 -0.00187969 -0.00187969
-0.00985821 -0.0048326 -0.0048326
-0.00794185 -0.00642349 -0.00642349
-0.00328078 -0.00368507 -0.00368507
-0.00515647 -0.00224 -0.00224
-0.00653914 -0.00409985 -0.00409985
-0.01197 -0.00721921 -0.00721921
-0.0162039 -0.0132288 -0.0132288
-0.00540676 -0.0118681 -0.0118681
-0.0039813 -0.00596391 -0.00596391
-0.014087 -0.0100197 -0.0100197
-0.010771 -0.0123708 -0.0123708
-0.00469171 -0.00869675 -0.00869675
-0.00794185 -0.00642349 -0.00642349
-0.00935439 -0.00918416 -0.00918416
-0.0162039 -0.0132288 -0.0132288
-0.0204265 -0.0208652 -0.0208652
-0.0068335 -0.0194795 -0.0194795
-0.00540676 -0.0118681 -0.0118681
-0.0183184 -0.0168449 -0.0168449
-0.0136006 -0.0199945 -0.0199945
-0.00612075 -0.0154649 -0.0154649
-0.010771 -0.0123708 -0.0123708
-0.0121873 -0.0159764 -0.0159764
-0.0204265 -0.0208652 -0.0208652
-0.0246144 -0.0301115 -0.0301115
-0.00825649 -0.0287404 -0.0287404
-0.0068335 -0.0194795 -0.0194795
-0.022525 -0.0252875 -0.0252875
-0.0164115 -0.0292494 -0.0292494
-0.00754577 -0.023906 -0.023906
-0.0136006 -0.0199945 -0.0199945
-0.0150088 -0.0244195 -0.0244195
-0.0246144 -0.0301115 -0.0301115
-0.0287705 -0.0409647 -0.0409647
-0.00967056 -0.0396207 -0.0396207
-0.00825649 -0.0287404 -0.0287404
-0.0266961 -0.0353375 -0.0353375
-0.019201 -0.0401181 -0.0401181
-0.00896457 -0.0339793 -0.0339793
-0.0164115 -0.0292494 -0.0292494
-0.0178088 -0.0344828 -0.0344828
-0.0287705 -0.0409647 -0.0409647
-0.0328983 -0.053419 -0.053419
-0.0110789 -0.0521053 -0.0521053
-0.00967056 -0.0396207 -0.0396207
-0.0308376 -0.046992 -0.046992
-0.021972 -0.0525893 -0.0525893
-0.0103753 -0.0456631 -0.0456631
-0.019201 -0.0401181 -0.0401181
-0.0205885 -0.0461539 -0.0461539
-0.0328983 -0.053419 -0.053419
-0.0370043 -0.0674688 -0.0674688
-0.0124834 -0.0661846 -0.0661846
-0.0110789 -0.0521053 -0.0521053
-0.0349537 -0.0602449 -0.0602449
-0.024729 -0.0666554 -0.0666554
-0.0117814 -0.0589461 -0.0589461
-0.021972 -0.0525893 -0.0525893
-0.023352 -0.0594234 -0.0594234
-0.0370043 -0.0674688 -0.0674688
-0.0410924 -0.0831068 -0.0831068
-0.0138871 -0.0818512 -0.0818512
-0.0124834 -0.0661846 -0.0661846
-0.0390503 -0.0750897 -0.0750897
-0.0274758 -0.0823089 -0.0823089
-0.0131852 -0.07382 -0.07382
-0.024729 -0.0666554 -0.0666554
-0.0261034 -0.0742842 -0.0742842
-0.0410924 -0.0831068 -0.0831068
-0.0451661 -0.100325 -0.100325
-0.0152921 -0.0990977 -0.0990977
-0.0138871 -0.0818512 -0.0818512
-0.0431309 -0.091519 -0.091519
-0.0302156 -0.0995426 -0.0995426
-0.0145893 -0.0902774 -0.0902774
-0.0274758 -0.0823089 -0.0823089
-0.0288464 -0.0907287 -0.0907287
-0.0451661 -0.100325 -0.100325
-0.0492277 -0.119116 -0.119116
-0.0167 -0.117917 -0.117917
-0.0152921 -0.0990977 -0.0990977
-0.0471983 -0.109525 -0.109525
-0.0329505 -0.118349 -0.118349
-0.0159956 -0.108311 -0.108311
-0.0302156 -0.0995426 -0.0995426
-0.0315836 -0.10875 -0.10875
-0.0492277 -0.119116 -0.119116
-0.053279 -0.139471 -0.139471
-0.0181122 -0.138301 -0.138301
-0.0167 -0.117917 -0.117917
-0.0512546 -0.129099 -0.129099
-0.0356823 -0.138719 -0.138719
-0.0174055 -0.127914 -0.127914
-0.0329505 -0.118349 -0.118349
-0.0343167 -0.128339 -0.128339
-0.053279 -0.139471 -0.139471
-0.0573212 -0.161382 -0.161382
-0.0195299 -0.160241 -0.160241
-0.0181122 -0.138301 -0.138301
-0.0553012 -0.150233 -0.150233
-0.0384122 -0.160645 -0.160645
-0.0188203 -0.149077 -0.149077
-0.0356823 -0.138719 -0.138719
-0.0370474 -0.149488 -0.149488
-0.0573212 -0.161382 -0.161382
-0.0613554 -0.18484 -0.18484
-0.020954 -0.18373 -0.18373
-0.0195299 -0.160241 -0.160241
-0.0593392 -0.172918 -0.172918
-0.0411413 -0.18412 -0.18412
-0.0202411 -0.171793 -0.171793
-0.0384122 -0.160645 -0.160645
-0.0397768 -0.17219 -0.17219
-0.0613554 -0.18484 -0.18484
-0.0653826 -0.209836 -0.209836
-0.0223855 -0.208759 -0.208759
-0.020954 -0.18373 -0.18373
-0.0633698 -0.197146 -0.197146
-0.0438706 -0.209134 -0.209134
-0.0216688 -0.196053 -0.196053
-0.0411413 -0.18412 -0.18412
-0.0425059 -0.196435 -0.196435
-0.0653826 -0.209836 -0.209836
-0.0694037 -0.236364 -0.236364
-0.0238253 -0.23532 -0.23532
-0.0223855 -0.208759 -0.208759
-0.0673939 -0.222909 -0.222909
-0.0466009 -0.235679 -0.235679
-0.0231043 -0.221849 -0.221849
-0.0438706 -0.209134 -0.209134
-0.0452356 -0.222215 -0.222215
-0.0694037 -0.236364 -0.236364
-0.0734196 -0.264413 -0.264413
-0.0252741 -0.263404 -0.263404
-0.0238253 -0.23532 -0.23532
-0.0714123 -0.250198 -0.250198
-0.0493332 -0.263746 -0.263746
-0.0245485 -0.249172 -0.249172
-0.0466009 -0.235679 -0.235679
-0.0479667 -0.249523 -0.249523
-0.0734196 -0.264413 -0.264413
-0.0774309 -0.293975 -0.293975
-0.0267328 -0.293003 -0.293003
-0.0252741 -0.263404 -0.263404
-0.0754257 -0.279005 -0.279005
-0.0520681 -0.293328 -0.293328
-0.0260022 -0.278015 -0.278015
-0.0493332 -0.263746 -0.263746
-0.0507002 -0.278348 -0.278348
-0.0774309 -0.293975 -0.293975
-0.0814386 -0.325043 -0.325043
-0.0282022 -0.324109 -0.324109
-0.0267328 -0.293003 -0.293003
-0.0794352 -0.309321 -0.309321
-0.0548066 -0.324415 -0.324415
-0.0274661 -0.308368 -0.308368
-0.0520681 -0.293328 -0.293328
-0.0534369 -0.308684 -0.308684
-0.0814386 -0.325043 -0.325043
-0.0854435 -0.357607 -0.357607
-0.0296831 -0.356712 -0.356712
-0.0282022 -0.324109 -0.324109
-0.0834414 -0.341138 -0.341138
-0.0575494 -0.357 -0.357
-0.0289412 -0.340224 -0.340224
-0.0548066 -0.324415 -0.324415
-0.0561774 -0.340521 -0.340521
-0.0854435 -0.357607 -0.357607
-0.0894462 -0.391659 -0.391659
-0.0311763 -0.390805 -0.390805
-0.0296831 -0.356712 -0.356712
-0.0874451 -0.374448 -0.374448
-0.0602973 -0.391073 -0.391073
-0.0304281 -0.373573 -0.373573
-0.0575494 -0.357 -0.357
-0.0589226 -0.373851 -0.373851
-0.0894462 -0.391659 -0.391659
-0.0934476 -0.427191 -0.427191
-0.0326824 -0.426379 -0.426379
-0.0311763 -0.390805 -0.390805
-0.0914471 -0.409241 -0.409241
-0.063051 -0.426627 -0.426627
-0.0319277 -0.408407 -0.408407
-0.0602973 -0.391073 -0.391073
-0.0616733 -0.408666 -0.408666
-0.0934476 -0.427191 -0.427191
-0.0974484 -0.464194 -0.464194
-0.0342023 -0.463425 -0.463425
-0.0326824 -0.426379 -0.426379
-0.0954481 -0.445509 -0.445509
-0.0658112 -0.463653 -0.463653
-0.0334406 -0.444718 -0.444718
-0.063051 -0.426627 -0.426627
-0.0644302 -0.444957 -0.444957
-0.0974484 -0.464194 -0.464194
-0.101449 -0.502661 -0.502661
-0.0357367 -0.501935 -0.501935
-0.0342023 -0.463425 -0.463425
-0.0994488 -0.483245 -0.483245
-0.0685788 -0.502142 -0.502142
-0.0349676 -0.482497 -0.482497
-0.0658112 -0.463653 -0.463653
-0.067194 -0.482715 -0.482715
-0.101449 -0.502661 -0.502661
-0.105451 -0.542581 -0.542581
-0.0372862 -0.541901 -0.541901
-0.0357367 -0.501935 -0.501935
-0.10345 -0.522439 -0.522439
-0.0713544 -0.542086 -0.542086
-0.0365095 -0.521737 -0.521737
-0.0685788 -0.502142 -0.502142
-0.0699655 -0.521933 -0.521933
-0.105451 -0.542581 -0.542581
-0.109454 -0.583947 -0.583947
-0.0388516 -0.583314 -0.583314
-0.0372862 -0.541901 -0.541901
-0.107453 -0.563084 -0.563084
-0.0741386 -0.583476 -0.583476
-0.0380669 -0.562427 -0.562427
-0.0713544 -0.542086 -0.542086
-0.0727454 -0.562601 -0.562601
-0.109454 -0.583947 -0.583947
-0.11346 -0.626751 -0.626751
-0.0404336 -0.626165 -0.626165
-0.0388516 -0.583314 -0.583314
-0.111457 -0.60517 -0.60517
-0.0769323 -0.626305 -0.626305
-0.0396405 -0.60456 -0.60456
-0.0741386 -0.583476 -0.583476
-0.0755343 -0.604711 -0.604711
-0.11346 -0.626751 -0.626751
-0.117468 -0.670984 -0.670984
-0.0420328 -0.670447 -0.670447
-0.0404336 -0.626165 -0.626165
-0.115464 -0.648689 -0.648689
-0.079736 -0.670563 -0.670563
-0.041231 -0.648128 -0.648128
-0.0769323 -0.626305 -0.626305
-0.0783329 -0.648256 -0.648256
-0.117468 -0.670984 -0.670984
-0.12148 -0.716637 -0.716637
-0.0436499 -0.71615 -0.71615
-0.0420328 -0.670447 -0.670447
-0.119474 -0.693633 -0.693633
-0.0825505 -0.716242 -0.716242
-0.0428391 -0.693121 -0.693121
-0.079736 -0.670563 -0.670563
-0.0811419 -0.693225 -0.693225
-0.12148 -0.716637 -0.716637
-0.125496 -0.763702 -0.763702
-0.0452855 -0.763266 -0.763266
-0.0436499 -0.71615 -0.71615
-0.123488 -0.739994 -0.739994
-0.0853763 -0.763334 -0.763334
-0.0444654 -0.739532 -0.739532
-0.0825505 -0.716242 -0.716242
-0.0839619 -0.739612 -0.739612
-0.125496 -0.763702 -0.763702
-0.129517 -0.812171 -0.812171
-0.0469403 -0.811787 -0.811787
-0.0452855 -0.763266 -0.763266
-0.127506 -0.787762 -0.787762
-0.0882141 -0.81183 -0.81183
-0.0461105 -0.787352 -0.787352
-0.0853763 -0.763334 -0.763334
-0.0867936 -0.787407 -0.787407
-0.129517 -0.812171 -0.812171
-0.133544 -0.862035 -0.862035
-0.0486149 -0.861704 -0.861704
-0.0469403 -0.811787 -0.811787
-0.13153 -0.836929 -0.836929
-0.0910644 -0.861721 -0.861721
-0.0477751 -0.836572 -0.836572
-0.0882141 -0.81183 -0.81183
-0.0896376 -0.836602 -0.836602
-0.133544 -0.862035 -0.862035
-0.137576 -0.913286 -0.913286
-0.0503098 -0.913009 -0.913009
-0.0486149 -0.861704 -0.861704
-0.135559 -0.887488 -0.887488
-0.093928 -0.913 -0.913
-0.0494597 -0.887184 -0.887184
-0.0910644 -0.861721 -0.861721
-0.0924945 -0.887188 -0.887188
-0.137576 -0.913286 -0.913286
-0.141615 -0.965915 -0.965915
-0.0520256 -0.965693 -0.965693
-0.0503098 -0.913009 -0.913009
-0.139595 -0.939429 -0.939429
-0.0968053 -0.965658 -0.965658
-0.051165 -0.939179 -0.939179
-0.093928 -0.913 -0.913
-0.0953649 -0.939157 -0.939157
-0.141615 -0.965915 -0.965915
-0.145661 -1.01991 -1.01991
-0.053763 -1.01975 -1.01975
-0.0520256 -0.965693 -0.965693
-0.143637 -0.992744 -0.992744
-0.099697 -1.01969 -1.01969
-0.0528916 -0.99255 -0.99255
-0.0968053 -0.965658 -0.965658
-0.0982493 -0.992501 -0.992501
-0.145661 -1.01991 -1.01991
-0.149715 -1.07527 -1.07527
-0.0555224 -1.07517 -1.07517
-0.053763 -1.01975 -1.01975
-0.147687 -1.04742 -1.04742
-0.102604 -1.07508 -1.07508
-0.0546399 -1.04729 -1.04729
-0.099697 -1.01969 -1.01969
-0.101148 -1.04721 -1.04721
-0.149715 -1.07527 -1.07527
-0.153777 -1.13199 -1.13199
-0.0573045 -1.13194 -1.13194
-0.0555224 -1.07517 -1.07517
-0.151745 -1.10346 -1.10346
-0.105526 -1.13182 -1.13182
-0.0564106 -1.10338 -1.10338
-0.102604 -1.07508 -1.07508
-0.104063 -1.10328 -1.10328
-0.153777 -1.13199 -1.13199
-0.157848 -1.19005 -1.19005
-0.0591097 -1.19005 -1.19005
-0.0573045 -1.13194 -1.13194
-0.155811 -1.16085 -1.16085
-0.108464 -1.18991 -1.18991
-0.0582042 -1.16083 -1.16083
-0.105526 -1.13182 -1.13182
-0.106993 -1.16069 -1.16069
-0.157848 -1.19005 -1.19005
-0.161928 -1.24944 -1.24944
-0.0609386 -1.24951 -1.24951
-0.0591097 -1.19005 -1.19005
-0.159887 -1.21958 -1.21958
-0.111418 -1.24933 -1.24933
-0.0600212 -1.21961 -1.21961
-0.108464 -1.18991 -1.18991
-0.109939 -1.21945 -1.21945
-0.161928 -1.24944 -1.24944
-0.166018 -1.31016 -1.31016
-0.0627916 -1.31029 -1.31029
-0.0609386 -1.24951 -1.24951
-0.163972 -1.27963 -1.27963
-0.11439 -1.31008 -1.31008
-0.0618621 -1.27973 -1.27973
-0.111418 -1.24933 -1.24933
-0.112902 -1.27954 -1.27954
-0.166018 -1.31016 -1.31016
-0.170119 -1.3722 -1.3722
-0.0646693 -1.37239 -1.37239
-0.0627916 -1.31029 -1.31029
-0.168067 -1.34102 -1.34102
-0.117379 -1.37215 -1.37215
-0.0637274 -1.34117 -1.34117
-0.11439 -1.31008 -1.31008
-0.115882 -1.34095 -1.34095
-0.170119 -1.3722 -1.3722
-0.17423 -1.43555 -1.43555
-0.0665722 -1.4358 -1.4358
-0.0646693 -1.37239 -1.37239
-0.172173 -1.40371 -1.40371
-0.120386 -1.43554 -1.43554
-0.0656176 -1.40393 -1.40393
-0.117379 -1.37215 -1.37215
-0.11888 -1.40368 -1.40368
-0.17423 -1.43555 -1.43555
-0.178352 -1.5002 -1.5002
-0.0685006 -1.50052 -1.50052
-0.0665722 -1.4358 -1.4358
-0.176289 -1.46772 -1.46772
-0.123411 -1.50022 -1.50022
-0.0675332 -1.468 -1.468
-0.120386 -1.43554 -1.43554
-0.121896 -1.46772 -1.46772
-0.178352 -1.5002 -1.5002
-0.182486 -1.56615 -1.56615
-0.0704551 -1.56653 -1.56653
-0.0685006 -1.50052 -1.50052
-0.180418 -1.53302 -1.53302
-0.126455 -1.5662 -1.5662
-0.0694746 -1.53336 -1.53336
-0.123411 -1.50022 -1.50022
-0.124931 -1.53305 -1.53305
-0.182486 -1.56615 -1.56615
-0.186632 -1.63338 -1.63338
-0.072436 -1.63382 -1.63382
-0.0704551 -1.56653 -1.56653
-0.184558 -1.59961 -1.59961
-0.129519 -1.63347 -1.63347
-0.0714422 -1.60002 -1.60002
-0.126455 -1.5662 -1.5662
-0.127985 -1.59967 -1.59967
-0.186632 -1.63338 -1.63338
-0.190791 -1.70189 -1.70189
-0.0744439 -1.7024 -1.7024
-0.072436 -1.63382 -1.63382
-0.18871 -1.66748 -1.66748
-0.132602 -1.70201 -1.70201
-0.0734366 -1.66795 -1.66795
-0.129519 -1.63347 -1.63347
-0.131058 -1.66758 -1.66758
-0.190791 -1.70189 -1.70189
-0.194963 -1.77167 -1.77167
-0.0764791 -1.77224 -1.77224
-0.0744439 -1.7024 -1.7024
-0.192875 -1.73662 -1.73662
-0.135706 -1.77182 -1.77182
-0.0754581 -1.73716 -1.73716
-0.132602 -1.70201 -1.70201
-0.134151 -1.73676 -1.73676
-0.194963 -1.77167 -1.77167
-0.199148 -1.84271 -1.84271
-0.078542 -1.84334 -1.84334
-0.0764791 -1.77224 -1.77224
-0.197054 -1.80703 -1.80703
-0.138829 -1.84289 -1.84289
-0.0775071 -1.80763 -1.80763
-0.135706 -1.77182 -1.77182
-0.137265 -1.8072 -1.8072
-0.199148 -1.84271 -1.84271
-0.203347 -1.91499 -1.91499
-0.080633 -1.9157 -1.9157
-0.078542 -1.84334 -1.84334
-0.201246 -1.87869 -1.87869
-0.141974 -1.91521 -1.91521
-0.079584 -1.87937 -1.87937
-0.138829 -1.84289 -1.84289
-0.140399 -1.8789 -1.8789
-0.203347 -1.91499 -1.91499
-0.20756 -1.98852 -1.98852
-0.0827525 -1.9893 -1.9893
-0.080633 -1.9157 -1.9157
-0.205452 -1.9516 -1.9516
-0.145141 -1.98878 -1.98878
-0.0816892 -1.95234 -1.95234
-0.141974 -1.91521 -1.91521
-0.143555 -1.95184 -1.95184
-0.20756 -1.98852 -1.98852
-0.211788 -2.06329 -2.06329
-0.0849008 -2.06413 -2.06413
-0.0827525 -1.9893 -1.9893
-0.209672 -2.02575 -2.02575
-0.148329 -2.06358 -2.06358
-0.083823 -2.02656 -2.02656
-0.145141 -1.98878 -1.98878
-0.146732 -2.02603 -2.02603
-0.211788 -2.06329 -2.06329
-0.21603 -2.13928 -2.13928
-0.0870783 -2.14019 -2.14019
-0.0849008 -2.06413 -2.06413
-0.213907 -2.10113 -2.10113
-0.151538 -2.13961 -2.13961
-0.0859859 -2.10201 -2.10201
-0.148329 -2.06358 -2.06358
-0.149931 -2.10144 -2.10144
-0.21603 -2.13928 -2.13928
-0.220288 -2.21649 -2.21649
-0.0892854 -2.21747 -2.21747
-0.0870783 -2.14019 -2.14019
-0.218157 -2.17774 -2.17774
-0.154771 -2.21685 -2.21685
-0.0881782 -2.17868 -2.17868
-0.151538 -2.13961 -2.13961
-0.153152 -2.17808 -2.17808
-0.220288 -2.21649 -2.21649
-0.224561 -2.29491 -2.29491
-0.0915223 -2.29596 -2.29596
-0.0892854 -2.21747 -2.21747
-0.222422 -2.25555 -2.25555
-0.158026 -2.29531 -2.29531
-0.0904001 -2.25656 -2.25656
-0.154771 -2.21685 -2.21685
-0.156395 -2.25593 -2.25593
-0.224561 -2.29491 -2.29491
-0.22885 -2.37453 -2.37453
-0.0937893 -2.37565 -2.37565
-0.0915223 -2.29596 -2.29596
-0.226703 -2.33457 -2.33457
-0.161304 -2.37496 -2.37496
-0.092652 -2.33566 -2.33566
-0.158026 -2.29531 -2.29531
-0.159662 -2.33499 -2.33499
-0.22885 -2.37453 -2.37453
-0.233155 -2.45534 -2.45534
-0.0960868 -2.45653 -2.45653
-0.0937893 -2.37565 -2.37565
-0.231 -2.41479 -2.41479
-0.164605 -2.45581 -2.45581
-0.0949342 -2.41594 -2.41594
-0.161304 -2.37496 -2.37496
-0.162951 -2.41524 -2.41524
-0.233155 -2.45534 -2.45534
-0.237476 -2.53734 -2.53734
-0.0984151 -2.5386 -2.5386
-0.0960868 -2.45653 -2.45653
-0.235313 -2.49619 -2.49619
-0.16793 -2.53784 -2.53784
-0.0972471 -2.49742 -2.49742
-0.164605 -2.45581 -2.45581
-0.166264 -2.49668 -2.49668
-0.237476 -2.53734 -2.53734
-0.241814 -2.62051 -2.62051
-0.100774 -2.62184 -2.62184
-0.0984151 -2.5386 -2.5386
-0.239643 -2.57878 -2.57878
-0.171278 -2.62105 -2.62105
-0.0995908 -2.58007 -2.58007
-0.16793 -2.53784 -2.53784
-0.169601 -2.5793 -2.5793
-0.241814 -2.62051 -2.62051
-0.246169 -2.70484 -2.70484
-0.103165 -2.70625 -2.70625
-0.100774 -2.62184 -2.62184
-0.243989 -2.66253 -2.66253
-0.174651 -2.70542 -2.70542
-0.101966 -2.6639 -2.6639
-0.171278 -2.62105 -2.62105
-0.172962 -2.66309 -2.66309
-0.246169 -2.70484 -2.70484
-0.250541 -2.79034 -2.79034
-0.105587 -2.79182 -2.79182
-0.103165 -2.70625 -2.70625
-0.248353 -2.74745 -2.74745
-0.178048 -2.79096 -2.79096
-0.104372 -2.74889 -2.74889
-0.174651 -2.70542 -2.70542
-0.176347 -2.74805 -2.74805
-0.250541 -2.79034 -2.79034
-0.254931 -2.87699 -2.87699
-0.108041 -2.87854 -2.87854
-0.105587 -2.79182 -2.79182
-0.252734 -2.83352 -2.83352
-0.18147 -2.87764 -2.87764
-0.10681 -2.83504 -2.83504
-0.178048 -2.79096 -2.79096
-0.179756 -2.83416 -2.83416
-0.254931 -2.87699 -2.87699
-0.259338 -2.96477 -2.96477
-0.110527 -2.9664 -2.9664
-0.108041 -2.87854 -2.87854
-0.257133 -2.92074 -2.92074
-0.184917 -2.96547 -2.96547
-0.10928 -2.92233 -2.92233
-0.18147 -2.87764 -2.87764
-0.18319 -2.92141 -2.92141
-0.259338 -2.96477 -2.96477
-0.263764 -3.05369 -3.05369
-0.113045 -3.05539 -3.05539
-0.110527 -2.9664 -2.9664
-0.261549 -3.00909 -3.00909
-0.188388 -3.05442 -3.05442
-0.111782 -3.01075 -3.01075
-0.184917 -2.96547 -2.96547
-0.186649 -3.0098 -3.0098
-0.263764 -3.05369 -3.05369
-0.268207 -3.14374 -3.14374
-0.115596 -3.14551 -3.14551
-0.113045 -3.05539 -3.05539
-0.265983 -3.09858 -3.09858
-0.191885 -3.14451 -3.14451
-0.114316 -3.10031 -3.10031
-0.188388 -3.05442 -3.05442
-0.190134 -3.09932 -3.09932
-0.268207 -3.14374 -3.14374
-0.272669 -3.2349 -3.2349
-0.118179 -3.23675 -3.23675
-0.115596 -3.14551 -3.14551
-0.270436 -3.18918 -3.18918
-0.195408 -3.23571 -3.23571
-0.116883 -3.19099 -3.19099
-0.191885 -3.14451 -3.14451
-0.193643 -3.18997 -3.18997
-0.272669 -3.2349 -3.2349
-0.277149 -3.32717 -3.32717
-0.120795 -3.32909 -3.32909
-0.118179 -3.23675 -3.23675
-0.274906 -3.2809 -3.2809
-0.198956 -3.32801 -3.32801
-0.119483 -3.28278 -3.28278
-0.195408 -3.23571 -3.23571
-0.197178 -3.28172 -3.28172
-0.277149 -3.32717 -3.32717
-0.281648 -3.42054 -3.42054
-0.123444 -3.42253 -3.42253
-0.120795 -3.32909 -3.32909
-0.279396 -3.37372 -3.37372
-0.20253 -3.42142 -3.42142
-0.122115 -3.37568 -3.37568
-0.198956 -3.32801 -3.32801
-0.200739 -3.37458 -3.37458
-0.281648 -3.42054 -3.42054
-0.286165 -3.515 -3.515
-0.126126 -3.51707 -3.51707
-0.123444 -3.42253 -3.42253
-0.283904 -3.46763 -3.46763
-0.206129 -3.51592 -3.51592
-0.124781 -3.46966 -3.46966
-0.20253 -3.42142 -3.42142
-0.204326 -3.46853 -3.46853
-0.286165 -3.515 -3.515
-0.290702 -3.61054 -3.61054
-0.128841 -3.61268 -3.61268
-0.126126 -3.51707 -3.51707
-0.288431 -3.56263 -3.56263
-0.209756 -3.6115 -3.6115
-0.127479 -3.56474 -3.56474
-0.206129 -3.51592 -3.51592
-0.207939 -3.56357 -3.56357
-0.290702 -3.61054 -3.61054
-0.295258 -3.70715 -3.70715
-0.13159 -3.70937 -3.70937
-0.128841 -3.61268 -3.61268
-0.292977 -3.65871 -3.65871
-0.213408 -3.70815 -3.70815
-0.130212 -3.6609 -3.6609
-0.209756 -3.6115 -3.6115
-0.211578 -3.65969 -3.65969
-0.295258 -3.70715 -3.70715
-0.299833 -3.80483 -3.80483
-0.134373 -3.80713 -3.80713
-0.13159 -3.70937 -3.70937
-0.297543 -3.75586 -3.75586
-0.217087 -3.80587 -3.80587
-0.132977 -3.75812 -3.75812
-0.213408 -3.70815 -3.70815
-0.215244 -3.75688 -3.75688
-0.299833 -3.80483 -3.80483
-0.304427 -3.90357 -3.90357
-0.137189 -3.90594 -3.90594
-0.134373 -3.80713 -3.80713
-0.302127 -3.85407 -3.85407
-0.220792 -3.90464 -3.90464
-0.135777 -3.85641 -3.85641
-0.217087 -3.80587 -3.80587
-0.218936 -3.85512 -3.85512
-0.304427 -3.90357 -3.90357
-0.309041 -4.00335 -4.00335
-0.140039 -4.00581 -4.00581
-0.137189 -3.90594 -3.90594
-0.306731 -3.95333 -3.95333
-0.224524 -4.00447 -4.00447
-0.13861 -3.95574 -3.95574
-0.220792 -3.90464 -3.90464
-0.222654 -3.95443 -3.95443
-0.309041 -4.00335 -4.00335
-0.313674 -4.10418 -4.10418
-0.142923 -4.10671 -4.10671
-0.140039 -4.00581 -4.00581
-0.311355 -4.05364 -4.05364
-0.228282 -4.10533 -4.10533
-0.141477 -4.05613 -4.05613
-0.224524 -4.00447 -4.00447
-0.2264 -4.05477 -4.05477
-0.313674 -4.10418 -4.10418
-0.318327 -4.20604 -4.20604
-0.145841 -4.20864 -4.20864
-0.142923 -4.10671 -4.10671
-0.315998 -4.15498 -4.15498
-0.232068 -4.20723 -4.20723
-0.144378 -4.15755 -4.15755
-0.228282 -4.10533 -4.10533
-0.230172 -4.15615 -4.15615
-0.318327 -4.20604 -4.20604
-0.323 -4.30892 -4.30892
-0.148793 -4.3116 -4.3116
-0.145841 -4.20864 -4.20864
-0.320661 -4.25735 -4.25735
-0.23588 -4.31015 -4.31015
-0.147312 -4.25999 -4.25999
-0.232068 -4.20723 -4.20723
-0.23397 -4.25856 -4.25856
-0.323 -4.30892 -4.30892
-0.327692 -4.41281 -4.41281
-0.151779 -4.41557 -4.41557
-0.148793 -4.3116 -4.3116
-0.325344 -4.36074 -4.36074
-0.239719 -4.41408 -4.41408
-0.150281 -4.36346 -4.36346
-0.23588 -4.31015 -4.31015
-0.237796 -4.36199 -4.36199
-0.327692 -4.41281 -4.41281
-0.332405 -4.51771 -4.51771
-0.154799 -4.52055 -4.52055
-0.151779 -4.41557 -4.41557
-0.330046 -4.46514 -4.46514
-0.243586 -4.51902 -4.51902
-0.153285 -4.46793 -4.46793
-0.239719 -4.41408 -4.41408
-0.241649 -4.46643 -4.46643
-0.332405 -4.51771 -4.51771
-0.337137 -4.62361 -4.62361
-0.157854 -4.62652 -4.62652
-0.154799 -4.52055 -4.52055
-0.334768 -4.57054 -4.57054
-0.247479 -4.62496 -4.62496
-0.156322 -4.57341 -4.57341
-0.243586 -4.51902 -4.51902
-0.245529 -4.57187 -4.57187
-0.337137 -4.62361 -4.62361
-0.341889 -4.7305 -4.7305
-0.160942 -4.73349 -4.73349
-0.157854 -4.62652 -4.62652
-0.339511 -4.67693 -4.67693
-0.2514 -4.73189 -4.73189
-0.159394 -4.67988 -4.67988
-0.247479 -4.62496 -4.62496
-0.249436 -4.6783 -4.6783
-0.341889 -4.7305 -4.7305
-0.346662 -4.83837 -4.83837
-0.164065 -4.84144 -4.84144
-0.160942 -4.73349 -4.73349
-0.344273 -4.78431 -4.78431
-0.255347 -4.8398 -4.8398
-0.1625 -4.78734 -4.78734
-0.2514 -4.73189 -4.73189
-0.25337 -4.78572 -4.78572
-0.346662 -4.83837 -4.83837
-0.351454 -4.94721 -4.94721
-0.167223 -4.95035 -4.95035
-0.164065 -4.84144 -4.84144
-0.349055 -4.89267 -4.89267
-0.259322 -4.94868 -4.94868
-0.16564 -4.89577 -4.89577
-0.255347 -4.8398 -4.8398
-0.257331 -4.89412 -4.89412
-0.351454 -4.94721 -4.94721
-0.356266 -5.05701 -5.05701
-0.170415 -5.06024 -5.06024
-0.167223 -4.95035 -4.95035
-0.353857 -5.00199 -5.00199
-0.263324 -5.05852 -5.05852
-0.168814 -5.00518 -5.00518
-0.259322 -4.94868 -4.94868
-0.26132 -5.00348 -5.00348
-0.356266 -5.05701 -5.05701
-0.361098 -5.16778 -5.16778
-0.173641 -5.17107 -5.17107
-0.170415 -5.06024 -5.06024
-0.35868 -5.11228 -5.11228
-0.267353 -5.16932 -5.16932
-0.172023 -5.11554 -5.11554
-0.263324 -5.05852 -5.05852
-0.265335 -5.1138 -5.1138
-0.361098 -5.16778 -5.16778
-0.365951 -5.27948 -5.27948
-0.176901 -5.28286 -5.28286
-0.173641 -5.17107 -5.17107
-0.363522 -5.22351 -5.22351
-0.27141 -5.28107 -5.28107
-0.175267 -5.22685 -5.22685
-0.267353 -5.16932 -5.16932
-0.269378 -5.22508 -5.22508
-0.365951 -5.27948 -5.27948
-0.370823 -5.39213 -5.39213
-0.180196 -5.39558 -5.39558
-0.176901 -5.28286 -5.28286
-0.368384 -5.33569 -5.33569
-0.275493 -5.39376 -5.39376
-0.178544 -5.3391 -5.3391
-0.27141 -5.28107 -5.28107
-0.273448 -5.3373 -5.3373
-0.370823 -5.39213 -5.39213
-0.375715 -5.50571 -5.50571
-0.183525 -5.50924 -5.50924
-0.180196 -5.39558 -5.39558
-0.373266 -5.4488 -5.4488
-0.279604 -5.50737 -5.50737
-0.181856 -5.45229 -5.45229
-0.275493 -5.39376 -5.39376
-0.277545 -5.45045 -5.45045
-0.375715 -5.50571 -5.50571
-0.380627 -5.6202 -5.6202
-0.186888 -5.62381 -5.62381
-0.183525 -5.50924 -5.50924
-0.378168 -5.56284 -5.56284
-0.283741 -5.62191 -5.62191
-0.185202 -5.56641 -5.56641
-0.279604 -5.50737 -5.50737
-0.281669 -5.56453 -5.56453
-0.380627 -5.6202 -5.6202
-0.385559 -5.73561 -5.73561
-0.190285 -5.7393 -5.7393
-0.186888 -5.62381 -5.62381
-0.38309 -5.6778 -5.6778
-0.287906 -5.73736 -5.73736
-0.188582 -5.68144 -5.68144
-0.283741 -5.62191 -5.62191
-0.28582 -5.67952 -5.67952
-0.385559 -5.73561 -5.73561
-0.390511 -5.85193 -5.85193
-0.193716 -5.85569 -5.85569
-0.190285 -5.7393 -5.7393
-0.388032 -5.79366 -5.79366
-0.292097 -5.85372 -5.85372
-0.191996 -5.79738 -5.79738
-0.287906 -5.73736 -5.73736
-0.289998 -5.79543 -5.79543
-0.390511 -5.85193 -5.85193
-0.395482 -5.96914 -5.96914
-0.197182 -5.97298 -5.97298
-0.193716 -5.85569 -5.85569
-0.392994 -5.91043 -5.91043
-0.296316 -5.97097 -5.97097
-0.195445 -5.91422 -5.91422
-0.292097 -5.85372 -5.85372
-0.294203 -5.91223 -5.91223
-0.395482 -5.96914 -5.96914
-0.400473 -6.08724 -6.08724
-0.200681 -6.09116 -6.09116
-0.197182 -5.97298 -5.97298
-0.397975 -6.02808 -6.02808
-0.300561 -6.08911 -6.08911
-0.198927 -6.03196 -6.03196
-0.296316 -5.97097 -5.97097
-0.298435 -6.02993 -6.02993
-0.400473 -6.08724 -6.08724
-0.405484 -6.20622 -6.20622
-0.204215 -6.21021 -6.21021
-0.200681 -6.09116 -6.09116
-0.402976 -6.14662 -6.14662
-0.304833 -6.20813 -6.20813
-0.202444 -6.15058 -6.15058
-0.300561 -6.08911 -6.08911
-0.302694 -6.14851 -6.14851
-0.405484 -6.20622 -6.20622
-0.410514 -6.32607 -6.32607
-0.207782 -6.33014 -6.33014
-0.204215 -6.21021 -6.21021
-0.407996 -6.26604 -6.26604
-0.309132 -6.32801 -6.32801
-0.205994 -6.27007 -6.27007
-0.304833 -6.20813 -6.20813
-0.306979 -6.26796 -6.26796
-0.410514 -6.32607 -6.32607
-0.415563 -6.44679 -6.44679
-0.211383 -6.45093 -6.45093
-0.207782 -6.33014 -6.33014
-0.413036 -6.38632 -6.38632
-0.313457 -6.44877 -6.44877
-0.209578 -6.39043 -6.39043
-0.309132 -6.32801 -6.32801
-0.311291 -6.38828 -6.38828
-0.415563 -6.44679 -6.44679
-0.420632 -6.56835 -6.56835
-0.215017 -6.57257 -6.57257
-0.211383 -6.45093 -6.45093
-0.418095 -6.50746 -6.50746
-0.317808 -6.57037 -6.57037
-0.213196 -6.51164 -6.51164
-0.313457 -6.44877 -6.44877
-0.315629 -6.50946 -6.50946
-0.420632 -6.56835 -6.56835
-0.42572 -6.69077 -6.69077
-0.218685 -6.69506 -6.69506
-0.215017 -6.57257 -6.57257
-0.423174 -6.62945 -6.62945
-0.322186 -6.69282 -6.69282
-0.216847 -6.63371 -6.63371
-0.317808 -6.57037 -6.57037
-0.319994 -6.63149 -6.63149
-0.42572 -6.69077 -6.69077
-0.430827 -6.81402 -6.81402
-0.222386 -6.81838 -6.81838
-0.218685 -6.69506 -6.69506
-0.428271 -6.75229 -6.75229
-0.32659 -6.81611 -6.81611
-0.220531 -6.75662 -6.75662
-0.322186 -6.69282 -6.69282
-0.324385 -6.75436 -6.75436
-0.430827 -6.81402 -6.81402
-0.435953 -6.93809 -6.93809
-0.22612 -6.94254 -6.94254
-0.222386 -6.81838 -6.81838
-0.433387 -6.87595 -6.87595
-0.33102 -6.94023 -6.94023
-0.224249 -6.88036 -6.88036
-0.32659 -6.81611 -6.81611
-0.328802 -6.87807 -6.87807
-0.435953 -6.93809 -6.93809
-0.441097 -7.06299 -7.06299
-0.229888 -7.06751 -7.06751
-0.22612 -6.94254 -6.94254
-0.438523 -7.00044 -7.00044
-0.335476 -7.06517 -7.06517
-0.228 -7.00492 -7.00492
-0.33102 -6.94023 -6.94023
-0.333245 -7.0026 -7.0026
-0.441097 -7.06299 -7.06299
-0.44626 -7.1887 -7.1887
-0.233688 -7.1933 -7.1933
-0.229888 -7.06751 -7.06751
-0.443676 -7.12575 -7.12575
-0.339958 -7.19092 -7.19092
-0.231784 -7.1303 -7.1303
-0.335476 -7.06517 -7.06517
-0.337714 -7.12794 -7.12794
-0.44626 -7.1887 -7.1887
-0.451442 -7.31522 -7.31522
-0.237521 -7.31989 -7.31989
-0.233688 -7.1933 -7.1933
-0.448849 -7.25186 -7.25186
-0.344465 -7.31747 -7.31747
-0.2356 -7.25649 -7.25649
-0.339958 -7.19092 -7.19092
-0.342209 -7.25409 -7.25409
-0.451442 -7.31522 -7.31522
-0.456642 -7.44253 -7.44253
-0.241387 -7.44727 -7.44727
-0.237521 -7.31989 -7.31989
-0.454039 -7.37877 -7.37877
-0.348998 -7.44481 -7.44481
-0.23945 -7.38348 -7.38348
-0.344465 -7.31747 -7.31747
-0.346729 -7.38104 -7.38104
-0.456642 -7.44253 -7.44253
-0.461859 -7.57062 -7.57062
-0.245284 -7.57544 -7.57544
-0.241387 -7.44727 -7.44727
-0.459248 -7.50648 -7.50648
-0.353556 -7.57295 -7.57295
-0.243331 -7.51126 -7.51126
-0.348998 -7.44481 -7.44481
-0.351274 -7.50878 -7.50878
-0.461859 -7.57062 -7.57062
-0.467095 -7.69949 -7.69949
-0.249215 -7.70438 -7.70438
-0.245284 -7.57544 -7.57544
-0.464475 -7.63496 -7.63496
-0.358139 -7.70186 -7.70186
-0.247246 -7.63981 -7.63981
-0.353556 -7.57295 -7.57295
-0.355844 -7.63731 -7.63731
-0.467095 -7.69949 -7.69949
-0.472349 -7.82914 -7.82914
-0.253177 -7.8341 -7.8341
-0.249215 -7.70438 -7.70438
-0.46972 -7.76422 -7.76422
-0.362747 -7.83154 -7.83154
-0.251192 -7.76915 -7.76915
-0.358139 -7.70186 -7.70186
-0.36044 -7.7666 -7.7666
-0.472349 -7.82914 -7.82914
-0.47762 -7.95954 -7.95954
-0.257171 -7.96458 -7.96458
-0.253177 -7.8341 -7.8341
-0.474982 -7.89425 -7.89425
-0.367379 -7.96198 -7.96198
-0.25517 -7.89924 -7.89924
-0.362747 -7.83154 -7.83154
-0.36506 -7.89666 -7.89666
-0.47762 -7.95954 -7.95954
-0.482908 -8.0907 -8.0907
-0.261196 -8.09581 -8.09581
-0.257171 -7.96458 -7.96458
-0.480262 -8.02503 -8.02503
-0.372036 -8.09317 -8.09317
-0.25918 -8.0301 -8.0301
-0.367379 -7.96198 -7.96198
-0.369705 -8.02748 -8.02748
-0.482908 -8.0907 -8.0907
-0.488213 -8.2226 -8.2226
-0.265253 -8.22778 -8.22778
-0.261196 -8.09581 -8.09581
-0.485558 -8.15656 -8.15656
-0.376717 -8.22511 -8.22511
-0.263221 -8.1617 -8.1617
-0.372036 -8.09317 -8.09317
-0.374374 -8.15905 -8.15905
-0.488213 -8.2226 -8.2226
-0.493535 -8.35524 -8.35524
-0.269341 -8.36049 -8.36049
-0.265253 -8.22778 -8.22778
-0.490872 -8.28883 -8.28883
-0.381423 -8.35778 -8.35778
-0.267294 -8.29404 -8.29404
-0.376717 -8.22511 -8.22511
-0.379067 -8.29136 -8.29136
-0.493535 -8.35524 -8.35524
-0.498874 -8.4886 -8.4886
-0.27346 -8.49392 -8.49392
-0.269341 -8.36049 -8.36049
-0.496203 -8.42183 -8.42183
-0.386152 -8.49118 -8.49118
-0.271397 -8.42711 -8.42711
-0.381423 -8.35778 -8.35778
-0.383784 -8.42439 -8.42439
-0.498874 -8.4886 -8.4886
-0.50423 -8.62268 -8.62268
-0.27761 -8.62808 -8.62808
-0.27346 -8.49392 -8.49392
-0.50155 -8.55555 -8.55555
-0.390904 -8.6253 -8.6253
-0.275532 -8.56091 -8.56091
-0.386152 -8.49118 -8.49118
-0.388525 -8.55815 -8.55815
-0.50423 -8.62268 -8.62268
-0.509601 -8.75748 -8.75748
-0.28179 -8.76294 -8.76294
-0.27761 -8.62808 -8.62808
-0.506913 -8.68999 -8.68999
-0.39568 -8.76013 -8.76013
-0.279697 -8.69542 -8.69542
-0.390904 -8.6253 -8.6253
-0.393289 -8.69263 -8.69263
-0.509601 -8.75748 -8.75748
-0.514988 -8.89297 -8.89297
-0.286001 -8.8985 -8.8985
-0.28179 -8.76294 -8.76294
-0.512293 -8.82514 -8.82514
-0.400479 -8.89566 -8.89566
-0.283892 -8.83063 -8.83063
-0.39568 -8.76013 -8.76013
-0.398076 -8.82781 -8.82781
-0.514988 -8.89297 -8.89297
-0.520391 -9.02916 -9.02916
-0.290241 -9.03476 -9.03476
-0.286001 -8.8985 -8.8985
-0.517688 -8.96098 -8.96098
-0.4053 -9.03189 -9.03189
-0.288117 -8.96655 -8.96655
-0.400479 -8.89566 -8.89566
-0.402887 -8.96369 -8.96369
-0.520391 -9.02916 -9.02916
-0.525809 -9.16603 -9.16603
-0.294511 -9.17171 -9.17171
-0.290241 -9.03476 -9.03476
-0.523098 -9.09751 -9.09751
-0.410145 -9.1688 -9.1688
-0.292372 -9.10315 -9.10315
-0.4053 -9.03189 -9.03189
-0.40772 -9.10026 -9.10026
-0.525809 -9.16603 -9.16603
-0.531243 -9.30358 -9.30358
-0.29881 -9.30932 -9.30932
-0.294511 -9.17171 -9.17171
-0.528524 -9.23472 -9.23472
-0.415011 -9.30638 -9.30638
-0.296657 -9.24043 -9.24043
-0.410145 -9.1688 -9.1688
-0.412575 -9.23751 -9.23751
-0.531243 -9.30358 -9.30358
-0.536691 -9.4418 -9.4418
-0.303139 -9.44761 -9.44761
-0.29881 -9.30932 -9.30932
-0.533965 -9.37261 -9.37261
-0.419899 -9.44464 -9.44464
-0.300971 -9.37838 -9.37838
-0.415011 -9.30638 -9.30638
-0.417452 -9.37543 -9.37543
-0.536691 -9.4418 -9.4418
-0.542154 -9.58068 -9.58068
-0.307496 -9.58656 -9.58656
-0.303139 -9.44761 -9.44761
-0.53942 -9.51116 -9.51116
-0.424809 -9.58355 -9.58355
-0.305314 -9.517 -9.517
-0.419899 -9.44464 -9.44464
-0.422352 -9.51401 -9.51401
-0.542154 -9.58068 -9.58068
-0.547631 -9.72021 -9.72021
-0.311882 -9.72615 -9.72615
-0.307496 -9.58656 -9.58656
-0.54489 -9.65036 -9.65036
-0.429741 -9.72311 -9.72311
-0.309686 -9.65627 -9.65627
-0.424809 -9.58355 -9.58355
-0.427272 -9.65325 -9.65325
-0.547631 -9.72021 -9.72021
-0.553121 -9.86038 -9.86038
-0.316296 -9.86639 -9.86639
-0.311882 -9.72615 -9.72615
-0.550374 -9.79022 -9.79022
-0.434693 -9.86332 -9.86332
-0.314086 -9.79619 -9.79619
-0.429741 -9.72311 -9.72311
-0.432214 -9.79314 -9.79314
-0.553121 -9.86038 -9.86038
-0.558626 -10.0012 -10.0012
-0.320738 -10.0073 -10.0073
-0.316296 -9.86639 -9.86639
-0.555872 -9.93071 -9.93071
-0.439667 -10.0042 -10.0042
-0.318514 -9.93675 -9.93675
-0.434693 -9.86332 -9.86332
-0.437177 -9.93366 -9.93366
-0.558626 -10.0012 -10.0012
-0.564144 -10.1426 -10.1426
-0.325208 -10.1488 -10.1488
-0.320738 -10.0073 -10.0073
-0.561383 -10.0718 -10.0718
-0.44466 -10.1456 -10.1456
-0.32297 -10.0779 -10.0779
-0.439667 -10.0042 -10.0042
-0.442161 -10.0748 -10.0748
-0.564144 -10.1426 -10.1426
-0.569675 -10.2847 -10.2847
-0.329705 -10.2909 -10.2909
-0.325208 -10.1488 -10.1488
-0.566908 -10.2136 -10.2136
-0.449674 -10.2877 -10.2877
-0.327453 -10.2197 -10.2197
-0.44466 -10.1456 -10.1456
-0.447165 -10.2166 -10.2166
-0.569675 -10.2847 -10.2847
-0.575218 -10.4273 -10.4273
-0.334229 -10.4336 -10.4336
-0.329705 -10.2909 -10.2909
-0.572445 -10.3559 -10.3559
-0.454708 -10.4304 -10.4304
-0.331963 -10.3622 -10.3622
-0.449674 -10.2877 -10.2877
-0.452189 -10.359 -10.359
-0.575218 -10.4273 -10.4273
-0.580774 -10.5706 -10.5706
-0.338779 -10.5769 -10.5769
-0.334229 -10.4336 -10.4336
-0.577995 -10.4989 -10.4989
-0.459761 -10.5737 -10.5737
-0.336501 -10.5052 -10.5052
-0.454708 -10.4304 -10.4304
-0.457232 -10.502 -10.502
-0.580774 -10.5706 -10.5706
-0.586342 -10.7144 -10.7144
-0.343356 -10.7208 -10.7208
-0.338779 -10.5769 -10.5769
-0.583557 -10.6424 -10.6424
-0.464834 -10.7176 -10.7176
-0.341064 -10.6488 -10.6488
-0.459761 -10.5737 -10.5737
-0.462295 -10.6456 -10.6456
-0.586342 -10.7144 -10.7144
-0.591922 -10.8589 -10.8589
-0.347959 -10.8653 -10.8653
-0.343356 -10.7208 -10.7208
-0.589131 -10.7866 -10.7866
-0.469925 -10.8621 -10.8621
-0.345654 -10.793 -10.793
-0.464834 -10.7176 -10.7176
-0.467377 -10.7897 -10.7897
-0.591922 -10.8589 -10.8589
-0.597513 -11.0039 -11.0039
-0.352587 -11.0104 -11.0104
-0.347959 -10.8653 -10.8653
-0.594716 -10.9313 -10.9313
-0.475035 -11.0071 -11.0071
-0.35027 -10.9378 -10.9378
-0.469925 -10.8621 -10.8621
-0.472478 -10.9345 -10.9345
-0.597513 -11.0039 -11.0039
-0.603115 -11.1495 -11.1495
-0.357241 -11.1561 -11.1561
-0.352587 -11.0104 -11.0104
-0.600312 -11.0766 -11.0766
-0.480163 -11.1527 -11.1527
-0.354911 -11.0832 -11.0832
-0.475035 -11.0071 -11.0071
-0.477597 -11.0798 -11.0798
-0.603115 -11.1495 -11.1495
-0.608727 -11.2956 -11.2956
-0.36192 -11.3023 -11.3023
-0.357241 -11.1561 -11.1561
-0.60592 -11.2225 -11.2225
-0.485308 -11.2989 -11.2989
-0.359577 -11.2291 -11.2291
-0.480163 -11.1527 -11.1527
-0.482733 -11.2257 -11.2257
-0.608727 -11.2956 -11.2956
-0.61435 -11.4423 -11.4423
-0.366623 -11.449 -11.449
-0.36192 -11.3023 -11.3023
-0.611537 -11.3689 -11.3689
-0.490471 -11.4456 -11.4456
-0.364268 -11.3756 -11.3756
-0.485308 -11.2989 -11.2989
-0.487888 -11.3722 -11.3722
-0.61435 -11.4423 -11.4423
-0.619983 -11.5895 -11.5895
-0.37135 -11.5963 -11.5963
-0.366623 -11.449 -11.449
-0.617165 -11.5158 -11.5158
-0.495651 -11.5929 -11.5929
-0.368984 -11.5226 -11.5226
-0.490471 -11.4456 -11.4456
-0.493059 -11.5192 -11.5192
-0.619983 -11.5895 -11.5895
-0.625625 -11.7373 -11.7373
-0.376101 -11.7441 -11.7441
-0.37135 -11.5963 -11.5963
-0.622803 -11.6633 -11.6633
-0.500848 -11.7406 -11.7406
-0.373723 -11.6701 -11.6701
-0.495651 -11.5929 -11.5929
-0.498248 -11.6667 -11.6667
-0.625625 -11.7373 -11.7373
-0.631276 -11.8856 -11.8856
-0.380876 -11.8925 -11.8925
-0.376101 -11.7441 -11.7441
-0.62845 -11.8114 -11.8114
-0.506061 -11.889 -11.889
-0.378486 -11.8182 -11.8182
-0.500848 -11.7406 -11.7406
-0.503453 -11.8147 -11.8147
-0.631276 -11.8856 -11.8856
-0.636936 -12.0344 -12.0344
-0.385673 -12.0413 -12.0413
-0.380876 -11.8925 -11.8925
-0.634105 -11.9599 -11.9599
-0.51129 -12.0378 -12.0378
-0.383272 -11.9668 -11.9668
-0.506061 -11.889 -11.889
-0.508674 -11.9633 -11.9633
-0.636936 -12.0344 -12.0344
-0.642605 -12.1837 -12.1837
-0.390494 -12.1907 -12.1907
-0.385673 -12.0413 -12.0413
-0.63977 -12.109 -12.109
-0.516534 -12.1871 -12.1871
-0.388081 -12.1159 -12.1159
-0.51129 -12.0378 -12.0378
-0.51391 -12.1124 -12.1124
-0.642605 -12.1837 -12.1837
-0.648281 -12.3335 -12.3335
-0.395336 -12.3405 -12.3405
-0.390494 -12.1907 -12.1907
-0.645442 -12.2585 -12.2585
-0.521794 -12.337 -12.337
-0.392912 -12.2656 -12.2656
-0.516534 -12.1871 -12.1871
-0.519162 -12.262 -12.262
-0.648281 -12.3335 -12.3335
-0.653965 -12.4838 -12.4838
-0.4002 -12.4909 -12.4909
-0.395336 -12.3405 -12.3405
-0.651122 -12.4086 -12.4086
-0.527068 -12.4873 -12.4873
-0.397765 -12.4157 -12.4157
-0.521794 -12.337 -12.337
-0.524429 -12.4121 -12.4121
-0.653965 -12.4838 -12.4838
-0.659656 -12.6346 -12.6346
-0.405086 -12.6417 -12.6417
-0.4002 -12.4909 -12.4909
-0.65681 -12.5591 -12.5591
-0.532356 -12.6381 -12.6381
-0.40264 -12.5663 -12.5663
-0.527068 -12.4873 -12.4873
-0.52971 -12.5626 -12.5626
-0.659656 -12.6346 -12.6346
-0.665354 -12.7858 -12.7858
-0.409992 -12.7931 -12.7931
-0.405086 -12.6417 -12.6417
-0.662504 -12.7101 -12.7101
-0.537659 -12.7894 -12.7894
-0.407537 -12.7173 -12.7173
-0.532356 -12.6381 -12.6381
-0.535006 -12.7137 -12.7137
-0.665354 -12.7858 -12.7858
-0.671058 -12.9376 -12.9376
-0.41492 -12.9448 -12.9448
-0.409992 -12.7931 -12.7931
-0.668205 -12.8616 -12.8616
-0.542974 -12.9411 -12.9411
-0.412454 -12.8689 -12.8689
-0.537659 -12.7894 -12.7894
-0.540315 -12.8652 -12.8652
-0.671058 -12.9376 -12.9376
-0.676768 -13.0897 -13.0897
-0.419867 -13.0971 -13.0971
-0.41492 -12.9448 -12.9448
-0.673913 -13.0136 -13.0136
-0.548303 -13.0933 -13.0933
-0.417391 -13.0209 -13.0209
-0.542974 -12.9411 -12.9411
-0.545637 -13.0172 -13.0172
-0.676768 -13.0897 -13.0897
-0.682484 -13.2424 -13.2424
-0.424834 -13.2497 -13.2497
-0.419867 -13.0971 -13.0971
-0.679625 -13.166 -13.166
-0.553645 -13.246 -13.246
-0.422348 -13.1733 -13.1733
-0.548303 -13.0933 -13.0933
-0.550972 -13.1696 -13.1696
-0.682484 -13.2424 -13.2424
-0.688204 -13.3954 -13.3954
-0.429821 -13.4029 -13.4029
-0.424834 -13.2497 -13.2497
-0.685343 -13.3188 -13.3188
-0.558998 -13.3991 -13.3991
-0.427325 -13.3262 -13.3262
-0.553645 -13.246 -13.246
-0.55632 -13.3225 -13.3225
-0.688204 -13.3954 -13.3954
-0.693929 -13.5489 -13.5489
-0.434826 -13.5564 -13.5564
-0.429821 -13.4029 -13.4029
-0.691066 -13.4721 -13.4721
-0.564363 -13.5526 -13.5526
-0.432321 -13.4796 -13.4796
-0.558998 -13.3991 -13.3991
-0.561679 -13.4758 -13.4758
-0.693929 -13.5489 -13.5489
-0.699659 -13.7029 -13.7029
-0.43985 -13.7104 -13.7104
-0.434826 -13.5564 -13.5564
-0.696794 -13.6258 -13.6258
-0.56974 -13.7066 -13.7066
-0.437336 -13.6333 -13.6333
-0.564363 -13.5526 -13.5526
-0.56705 -13.6295 -13.6295
-0.699659 -13.7029 -13.7029
-0.705392 -13.8572 -13.8572
-0.444892 -13.8648 -13.8648
-0.43985 -13.7104 -13.7104
-0.702525 -13.78 -13.78
-0.575128 -13.8609 -13.8609
-0.442369 -13.7875 -13.7875
-0.56974 -13.7066 -13.7066
-0.572432 -13.7837 -13.7837
-0.705392 -13.8572 -13.8572
-0.711128 -14.0119 -14.0119
-0.449951 -14.0196 -14.0196
-0.444892 -13.8648 -13.8648
-0.70826 -13.9345 -13.9345
-0.580525 -14.0157 -14.0157
-0.44742 -13.9421 -13.9421
-0.575128 -13.8609 -13.8609
-0.577825 -13.9383 -13.9383
-0.711128 -14.0119 -14.0119
-0.716867 -14.1671 -14.1671
-0.455028 -14.1748 -14.1748
-0.449951 -14.0196 -14.0196
-0.713997 -14.0895 -14.0895
-0.585933 -14.1709 -14.1709
-0.452488 -14.0971 -14.0971
-0.580525 -14.0157 -14.0157
-0.583228 -14.0932 -14.0932
-0.716867 -14.1671 -14.1671
-0.722609 -14.3226 -14.3226
-0.460121 -14.3303 -14.3303
-0.455028 -14.1748 -14.1748
-0.719738 -14.2448 -14.2448
-0.591351 -14.3264 -14.3264
-0.457572 -14.2525 -14.2525
-0.585933 -14.1709 -14.1709
-0.588641 -14.2486 -14.2486
-0.722609 -14.3226 -14.3226
-0.728352 -14.4785 -14.4785
-0.46523 -14.4863 -14.4863
-0.460121 -14.3303 -14.3303
-0.72548 -14.4005 -14.4005
-0.596777 -14.4824 -14.4824
-0.462674 -14.4083 -14.4083
-0.591351 -14.3264 -14.3264
-0.594063 -14.4044 -14.4044
-0.728352 -14.4785 -14.4785
-0.734097 -14.6348 -14.6348
-0.470355 -14.6426 -14.6426
-0.46523 -14.4863 -14.4863
-0.731225 -14.5566 -14.5566
-0.602212 -14.6387 -14.6387
-0.467791 -14.5644 -14.5644
-0.596777 -14.4824 -14.4824
-0.599494 -14.5605 -14.5605
-0.734097 -14.6348 -14.6348
-0.739843 -14.7915 -14.7915
-0.475496 -14.7993 -14.7993
-0.470355 -14.6426 -14.6426
-0.73697 -14.7131 -14.7131
-0.607655 -14.7954 -14.7954
-0.472924 -14.7209 -14.7209
-0.602212 -14.6387 -14.6387
-0.604933 -14.717 -14.717
-0.739843 -14.7915 -14.7915
-0.74559 -14.9485 -14.9485
-0.480651 -14.9564 -14.9564
-0.475496 -14.7993 -14.7993
-0.742716 -14.8699 -14.8699
-0.613106 -14.9524 -14.9524
-0.478071 -14.8778 -14.8778
-0.607655 -14.7954 -14.7954
-0.61038 -14.8738 -14.8738
-0.74559 -14.9485 -14.9485
-0.751336 -15.1058 -15.1058
-0.48582 -15.1138 -15.1138
-0.480651 -14.9564 -14.9564
-0.748463 -15.0271 -15.0271
-0.618564 -15.1098 -15.1098
-0.483234 -15.035 -15.035
-0.613106 -14.9524 -14.9524
-0.615834 -15.031 -15.031
-0.751336 -15.1058 -15.1058
-0.757082 -15.2635 -15.2635
-0.491004 -15.2715 -15.2715
-0.48582 -15.1138 -15.1138
-0.754209 -15.1846 -15.1846
-0.624029 -15.2675 -15.2675
-0.48841 -15.1926 -15.1926
-0.618564 -15.1098 -15.1098
-0.621296 -15.1886 -15.1886
-0.757082 -15.2635 -15.2635
-0.762827 -15.4215 -15.4215
-0.4962 -15.4296 -15.4296
-0.491004 -15.2715 -15.2715
-0.759955 -15.3425 -15.3425
-0.6295 -15.4255 -15.4255
-0.4936 -15.3505 -15.3505
-0.624029 -15.2675 -15.2675
-0.626764 -15.3465 -15.3465
-0.762827 -15.4215 -15.4215
-0.768571 -15.5799 -15.5799
-0.50141 -15.588 -15.588
-0.4962 -15.4296 -15.4296
-0.765699 -15.5007 -15.5007
-0.634977 -15.5839 -15.5839
-0.498803 -15.5087 -15.5087
-0.6295 -15.4255 -15.4255
-0.632238 -15.5047 -15.5047
-0.768571 -15.5799 -15.5799
-0.774313 -15.7385 -15.7385
-0.506632 -15.7467 -15.7467
-0.50141 -15.588 -15.588
-0.771442 -15.6592 -15.6592
-0.640459 -15.7426 -15.7426
-0.504019 -15.6673 -15.6673
-0.634977 -15.5839 -15.5839
-0.637717 -15.6632 -15.6632
-0.774313 -15.7385 -15.7385
-0.780052 -15.8975 -15.8975
-0.511865 -15.9057 -15.9057
-0.506632 -15.7467 -15.7467
-0.777183 -15.818 -15.818
-0.645945 -15.9016 -15.9016
-0.509247 -15.8261 -15.8261
-0.640459 -15.7426 -15.7426
-0.643201 -15.822 -15.822
-0.780052 -15.8975 -15.8975
-0.785789 -16.0568 -16.0568
-0.517111 -16.065 -16.065
-0.511865 -15.9057 -15.9057
-0.782921 -15.9771 -15.9771
-0.651436 -16.0608 -16.0608
-0.514487 -15.9853 -15.9853
-0.645945 -15.9016 -15.9016
-0.64869 -15.9812 -15.9812
-0.785789 -16.0568 -16.0568
-0.791522 -16.2163 -16.2163
-0.522367 -16.2245 -16.2245
-0.517111 -16.065 -16.065
-0.788656 -16.1365 -16.1365
-0.656931 -16.2204 -16.2204
-0.519737 -16.1447 -16.1447
-0.651436 -16.0608 -16.0608
-0.654183 -16.1406 -16.1406
-0.791522 -16.2163 -16.2163
-0.797252 -16.3762 -16.3762
-0.527633 -16.3844 -16.3844
-0.522367 -16.2245 -16.2245
-0.794388 -16.2962 -16.2962
-0.662429 -16.3803 -16.3803
-0.524999 -16.3044 -16.3044
-0.656931 -16.2204 -16.2204
-0.65968 -16.3003 -16.3003
-0.797252 -16.3762 -16.3762
-0.802977 -16.5363 -16.5363
-0.532909 -16.5445 -16.5445
-0.527633 -16.3844 -16.3844
-0.800115 -16.4562 -16.4562
-0.66793 -16.5404 -16.5404
-0.53027 -16.4644 -16.4644
-0.662429 -16.3803 -16.3803
-0.665179 -16.4603 -16.4603
-0.802977 -16.5363 -16.5363
-0.808697 -16.6966 -16.6966
-0.538195 -16.7049 -16.7049
-0.532909 -16.5445 -16.5445
-0.805838 -16.6164 -16.6164
-0.673433 -16.7008 -16.7008
-0.535551 -16.6247 -16.6247
-0.66793 -16.5404 -16.5404
-0.670681 -16.6205 -16.6205
-0.808697 -16.6966 -16.6966
-0.814412 -16.8572 -16.8572
-0.54349 -16.8656 -16.8656
-0.538195 -16.7049 -16.7049
-0.811555 -16.7769 -16.7769
-0.678938 -16.8614 -16.8614
-0.540842 -16.7852 -16.7852
-0.673433 -16.7008 -16.7008
-0.676185 -16.781 -16.781
-0.814412 -16.8572 -16.8572
-0.820121 -17.0181 -17.0181
-0.548793 -17.0265 -17.0265
-0.54349 -16.8656 -16.8656
-0.817267 -16.9376 -16.9376
-0.684444 -17.0223 -17.0223
-0.54614 -16.946 -16.946
-0.678938 -16.8614 -16.8614
-0.68169 -16.9418 -16.9418
-0.820121 -17.0181 -17.0181
-0.825823 -17.1792 -17.1792
-0.554104 -17.1876 -17.1876
-0.548793 -17.0265 -17.0265
-0.822973 -17.0986 -17.0986
-0.68995 -17.1834 -17.1834
-0.551448 -17.107 -17.107
-0.684444 -17.0223 -17.0223
-0.687197 -17.1028 -17.1028
-0.825823 -17.1792 -17.1792
-0.831519 -17.3405 -17.3405
-0.559422 -17.349 -17.349
-0.554104 -17.1876 -17.1876
-0.828672 -17.2598 -17.2598
-0.695457 -17.3447 -17.3447
-0.556762 -17.2683 -17.2683
-0.68995 -17.1834 -17.1834
-0.692704 -17.264 -17.264
-0.831519 -17.3405 -17.3405
-0.837207 -17.5021 -17.5021
-0.564747 -17.5106 -17.5106
-0.559422 -17.349 -17.349
-0.834364 -17.4213 -17.4213
-0.700964 -17.5063 -17.5063
-0.562084 -17.4298 -17.4298
-0.695457 -17.3447 -17.3447
-0.698211 -17.4255 -17.4255
-0.837207 -17.5021 -17.5021
-0.842887 -17.6639 -17.6639
-0.570079 -17.6724 -17.6724
-0.564747 -17.5106 -17.5106
-0.840048 -17.5829 -17.5829
-0.70647 -17.6681 -17.6681
-0.567412 -17.5914 -17.5914
-0.700964 -17.5063 -17.5063
-0.703717 -17.5872 -17.5872
-0.842887 -17.6639 -17.6639
-0.848559 -17.8258 -17.8258
-0.575416 -17.8344 -17.8344
-0.570079 -17.6724 -17.6724
-0.845724 -17.7448 -17.7448
-0.711975 -17.8301 -17.8301
-0.572747 -17.7533 -17.7533
-0.70647 -17.6681 -17.6681
-0.709223 -17.7491 -17.7491
-0.848559 -17.8258 -17.8258
-0.854222 -17.988 -17.988
-0.580759 -17.9966 -17.9966
-0.575416 -17.8344 -17.8344
-0.851392 -17.9069 -17.9069
-0.717477 -17.9923 -17.9923
-0.578087 -17.9154 -17.9154
-0.711975 -17.8301 -17.8301
-0.714726 -17.9111 -17.9111
-0.854222 -17.988 -17.988
-0.859875 -18.1503 -18.1503
-0.586106 -18.1589 -18.1589
-0.580759 -17.9966 -17.9966
-0.85705 -18.0691 -18.0691
-0.722978 -18.1546 -18.1546
-0.583432 -18.0777 -18.0777
-0.717477 -17.9923 -17.9923
-0.720228 -18.0734 -18.0734
-0.859875 -18.1503 -18.1503
-0.865519 -18.3129 -18.3129
-0.591457 -18.3215 -18.3215
-0.586106 -18.1589 -18.1589
-0.862698 -18.2316 -18.2316
-0.728475 -18.3172 -18.3172
-0.588781 -18.2402 -18.2402
-0.722978 -18.1546 -18.1546
-0.725727 -18.2359 -18.2359
-0.865519 -18.3129 -18.3129
-0.871151 -18.4756 -18.4756
-0.596813 -18.4842 -18.4842
-0.591457 -18.3215 -18.3215
-0.868336 -18.3942 -18.3942
-0.733969 -18.4799 -18.4799
-0.594135 -18.4028 -18.4028
-0.728475 -18.3172 -18.3172
-0.731223 -18.3985 -18.3985
-0.871151 -18.4756 -18.4756
-0.876773 -18.6384 -18.6384
-0.602171 -18.6471 -18.6471
-0.596813 -18.4842 -18.4842
-0.873964 -18.557 -18.557
-0.739459 -18.6428 -18.6428
-0.599491 -18.5656 -18.5656
-0.733969 -18.4799 -18.4799
-0.736715 -18.5613 -18.5613
-0.876773 -18.6384 -18.6384
-0.882383 -18.8014 -18.8014
-0.607532 -18.8101 -18.8101
-0.602171 -18.6471 -18.6471
-0.87958 -18.7199 -18.7199
-0.744945 -18.8058 -18.8058
-0.604851 -18.7286 -18.7286
-0.739459 -18.6428 -18.6428
-0.742203 -18.7242 -18.7242
-0.882383 -18.8014 -18.8014
-0.887981 -18.9646 -18.9646
-0.612895 -18.9733 -18.9733
-0.607532 -18.8101 -18.8101
-0.885184 -18.883 -18.883
-0.750425 -18.969 -18.969
-0.610213 -18.8917 -18.8917
-0.744945 -18.8058 -18.8058
-0.747686 -18.8873 -18.8873
-0.887981 -18.9646 -18.9646
-0.893566 -19.1279 -19.1279
-0.61826 -19.1366 -19.1366
-0.612895 -18.9733 -18.9733
-0.890775 -19.0462 -19.0462
-0.7559 -19.1323 -19.1323
-0.615577 -19.055 -19.055
-0.750425 -18.969 -18.969
-0.753163 -19.0506 -19.0506
-0.893566 -19.1279 -19.1279
-0.899138 -19.2913 -19.2913
-0.623625 -19.3001 -19.3001
-0.61826 -19.1366 -19.1366
-0.896354 -19.2096 -19.2096
-0.761369 -19.2957 -19.2957
-0.620942 -19.2184 -19.2184
-0.7559 -19.1323 -19.1323
-0.758635 -19.214 -19.214
-0.899138 -19.2913 -19.2913
-0.904696 -19.4549 -19.4549
-0.628991 -19.4637 -19.4637
-0.623625 -19.3001 -19.3001
-0.901919 -19.3731 -19.3731
-0.766831 -19.4593 -19.4593
-0.626308 -19.3819 -19.3819
-0.761369 -19.2957 -19.2957
-0.764101 -19.3775 -19.3775
-0.904696 -19.4549 -19.4549
-0.91024 -19.6185 -19.6185
-0.634358 -19.6273 -19.6273
-0.628991 -19.4637 -19.4637
-0.90747 -19.5367 -19.5367
-0.772286 -19.6229 -19.6229
-0.631675 -19.5455 -19.5455
-0.766831 -19.4593 -19.4593
-0.76956 -19.5411 -19.5411
-0.91024 -19.6185 -19.6185
-0.915769 -19.7823 -19.7823
-0.639723 -19.7911 -19.7911
-0.634358 -19.6273 -19.6273
-0.913006 -19.7004 -19.7004
-0.777733 -19.7867 -19.7867
-0.63704 -19.7092 -19.7092
-0.772286 -19.6229 -19.6229
-0.775011 -19.7048 -19.7048
-0.915769 -19.7823 -19.7823
-0.921282 -19.9461 -19.9461
-0.645087 -19.955 -19.955
-0.639723 -19.7911 -19.7911
-0.918527 -19.8642 -19.8642
-0.783172 -19.9505 -19.9505
-0.642405 -19.873 -19.873
-0.777733 -19.7867 -19.7867
-0.780454 -19.8686 -19.8686
-0.921282 -19.9461 -19.9461
-0.926779 -20.1101 -20.1101
-0.65045 -20.1189 -20.1189
-0.645087 -19.955 -19.955
-0.924032 -20.0281 -20.0281
-0.788602 -20.1145 -20.1145
-0.647769 -20.0369 -20.0369
-0.783172 -19.9505 -19.9505
-0.785888 -20.0325 -20.0325
-0.926779 -20.1101 -20.1101
-0.932258 -20.2741 -20.2741
-0.65581 -20.283 -20.283
-0.65045 -20.1189 -20.1189
-0.929521 -20.1921 -20.1921
-0.794021 -20.2785 -20.2785
-0.65313 -20.2009 -20.2009
-0.788602 -20.1145 -20.1145
-0.791313 -20.1965 -20.1965
-0.932258 -20.2741 -20.2741
-0.937718 -20.4382 -20.4382
-0.661166 -20.4471 -20.4471
-0.65581 -20.283 -20.283
-0.934991 -20.3561 -20.3561
-0.799429 -20.4426 -20.4426
-0.658488 -20.365 -20.365
-0.794021 -20.2785 -20.2785
-0.796726 -20.3606 -20.3606
-0.937718 -20.4382 -20.4382
-0.943158 -20.6023 -20.6023
-0.666518 -20.6112 -20.6112
-0.661166 -20.4471 -20.4471
-0.940441 -20.5202 -20.5202
-0.804823 -20.6068 -20.6068
-0.663842 -20.5291 -20.5291
-0.799429 -20.4426 -20.4426
-0.802128 -20.5247 -20.5247
-0.943158 -20.6023 -20.6023
-0.948575 -20.7665 -20.7665
-0.671863 -20.7754 -20.7754
-0.666518 -20.6112 -20.6112
-0.945869 -20.6844 -20.6844
-0.810203 -20.771 -20.771
-0.669191 -20.6933 -20.6933
-0.804823 -20.6068 -20.6068
-0.807515 -20.6889 -20.6889
-0.948575 -20.7665 -20.7665
-0.953966 -20.9308 -20.9308
-0.677203 -20.9397 -20.9397
-0.671863 -20.7754 -20.7754
-0.951274 -20.8486 -20.8486
-0.815567 -20.9352 -20.9352
-0.674534 -20.8576 -20.8576
-0.810203 -20.771 -20.771
-0.812887 -20.8531 -20.8531
-0.953966 -20.9308 -20.9308
-0.959332 -21.0951 -21.0951
-0.682535 -21.104 -21.104
-0.677203 -20.9397 -20.9397
-0.956652 -21.0129 -21.0129
-0.820914 -21.0995 -21.0995
-0.67987 -21.0219 -21.0219
-0.815567 -20.9352 -20.9352
-0.818242 -21.0174 -21.0174
-0.959332 -21.0951 -21.0951
-0.964676 -21.2594 -21.2594
-0.687863 -21.2683 -21.2683
-0.682535 -21.104 -21.104
-0.962005 -21.1772 -21.1772
-0.82625 -21.2638 -21.2638
-0.6852 -21.1861 -21.1861
-0.820914 -21.0995 -21.0995
-0.823583 -21.1817 -21.1817
-0.964676 -21.2594 -21.2594
-0.970017 -21.4237 -21.4237
-0.693187 -21.4325 -21.4325
-0.687863 -21.2683 -21.2683
-0.967345 -21.3415 -21.3415
-0.831585 -21.4281 -21.4281
-0.690525 -21.3504 -21.3504
-0.82625 -21.2638 -21.2638
-0.828918 -21.346 -21.346
-0.970017 -21.4237 -21.4237
-0.975368 -21.5879 -21.5879
-0.698512 -21.5967 -21.5967
-0.693187 -21.4325 -21.4325
-0.97269 -21.5058 -21.5058
-0.836921 -21.5923 -21.5923
-0.69585 -21.5146 -21.5146
-0.831585 -21.4281 -21.4281
-0.834253 -21.5102 -21.5102
0 0 0
-0.00124365 0.000201922 0.000201922
0.00120799 0.000194637 0.000194637
0 0 0
-0.000619326 0.000402378 0.000402378
-1.79136e-05 0.000271232 0.000271232
0.000600976 0.000398289 0.000398289
0 0 0
-9.26078e-06 0.000431296 0.000431296
-0.00124365 0.000201922 0.000201922
-0.00258808 -0.00187969 -0.00187969
0.00251817 -0.00189353 -0.00189353
0.00120799 0.000194637 0.000194637
-0.00190345 -0.000571594 -0.000571594
-3.49952e-05 -0.00176646 -0.00176646
0.00185076 -0.000582063 -0.000582063
-1.79136e-05 0.000271232 0.000271232
-2.64171e-05 -0.000475641 -0.000475641
-0.00258808 -0.00187969 -0.00187969
-0.0039813 -0.00596391 -0.00596391
0.00387479 -0.00598521 -0.00598521
0.00251817 -0.00189353 -0.00189353
-0.00328078 -0.00368507 -0.00368507
-5.30993e-05 -0.00581933 -0.00581933
0.00319304 -0.00370251 -0.00370251
-3.49952e-05 -0.00176646 -0.00176646
-4.38213e-05 -0.00355494 -0.00355494
-0.0039813 -0.00596391 -0.00596391
-0.00540676 -0.0118681 -0.0118681
0.00525867 -0.011898 -0.011898
0.00387479 -0.00598521 -0.00598521
-0.00469171 -0.00869675 -0.00869675
-7.37303e-05 -0.0117112 -0.0117112
0.00456518 -0.0087222 -0.0087222
-5.30993e-05 -0.00581933 -0.00581933
-6.30251e-05 -0.00854378 -0.00854378
-0.00540676 -0.0118681 -0.0118681
-0.0068335 -0.0194795 -0.0194795
0.00663661 -0.0195192 -0.0195192
0.00525867 -0.011898 -0.011898
-0.00612075 -0.0154649 -0.0154649
-9.79956e-05 -0.0193211 -0.0193211
0.0059493 -0.0154996 -0.0154996
-7.37303e-05 -0.0117112 -0.0117112
-8.53375e-05 -0.0153063 -0.0153063
-0.0068335 -0.0194795 -0.0194795
-0.00825649 -0.0287404 -0.0287404
0.00800122 -0.0287912 -0.0287912
0.00663661 -0.0195192 -0.0195192
-0.00754577 -0.023906 -0.023906
-0.000127063 -0.0285875 -0.0285875
0.00732103 -0.0239511 -0.0239511
-9.79956e-05 -0.0193211 -0.0193211
-0.000111857 -0.0237498 -0.0237498
-0.00825649 -0.0287404 -0.0287404
-0.00967056 -0.0396207 -0.0396207
0.00934502 -0.0396836 -0.0396836
0.00800122 -0.0287912 -0.0287912
-0.00896457 -0.0339793 -0.0339793
-0.000162072 -0.0394757 -0.0394757
0.00867579 -0.034036 -0.034036
-0.000127063 -0.0285875 -0.0285875
-0.000143753 -0.0338302 -0.0338302
-0.00967056 -0.0396207 -0.0396207
-0.0110789 -0.0521053 -0.0521053
0.0106689 -0.0521816 -0.0521816
0.00934502 -0.0396836 -0.0396836
-0.0103753 -0.0456631 -0.0456631
-0.000204162 -0.0519693 -0.0519693
0.0100094 -0.0457326 -0.0457326
-0.000162072 -0.0394757 -0.0394757
-0.000182163 -0.0455225 -0.0455225
-0.0110789 -0.0521053 -0.0521053
-0.0124834 -0.0661846 -0.0661846
0.0119727 -0.0662757 -0.0662757
0.0106689 -0.0521816 -0.0521816
-0.0117814 -0.0589461 -0.0589461
-0.000254411 -0.0660581 -0.0660581
0.0113233 -0.0590296 -0.0590296
-0.000204162 -0.0519693 -0.0519693
-0.000228201 -0.0588148 -0.0588148
-0.0124834 -0.0661846 -0.0661846
-0.0138871 -0.0818512 -0.0818512
0.0132573 -0.0819583 -0.0819583
0.0119727 -0.0662757 -0.0662757
-0.0131852 -0.07382 -0.07382
-0.000313848 -0.0817344 -0.0817344
0.0126173 -0.0739189 -0.0739189
-0.000254411 -0.0660581 -0.0660581
-0.000282919 -0.0736982 -0.0736982
-0.0138871 -0.0818512 -0.0818512
-0.0152921 -0.0990977 -0.0990977
0.0145227 -0.0992224 -0.0992224
0.0132573 -0.0819583 -0.0819583
-0.0145893 -0.0902774 -0.0902774
-0.000383446 -0.0989911 -0.0989911
0.0138924 -0.0903931 -0.0903931
-0.000313848 -0.0817344 -0.0817344
-0.000347317 -0.0901656 -0.0901656
-0.0152921 -0.0990977 -0.0990977
-0.0167 -0.117917 -0.117917
0.015769 -0.11806 -0.11806
0.0145227 -0.0992224 -0.0992224
-0.0159956 -0.108311 -0.108311
-0.000464139 -0.117821 -0.117821
0.0151483 -0.108445 -0.108445
-0.000383446 -0.0989911 -0.0989911
-0.000422348 -0.10821 -0.10821
-0.0167 -0.117917 -0.117917
-0.0181122 -0.138301 -0.138301
0.0169956 -0.138465 -0.138465
0.015769 -0.11806 -0.11806
-0.0174055 -0.127914 -0.127914
-0.000556834 -0.138216 -0.138216
0.0163848 -0.128067 -0.128067
-0.000464139 -0.117821 -0.117821
-0.000508931 -0.127823 -0.127823
-0.0181122 -0.138301 -0.138301
-0.0195299 -0.160241 -0.160241
0.0182019 -0.160427 -0.160427
0.0169956 -0.138465 -0.138465
-0.0188203 -0.149077 -0.149077
-0.000662411 -0.160168 -0.160168
0.0176014 -0.149252 -0.149252
-0.000556834 -0.138216 -0.138216
-0.000607958 -0.148998 -0.148998
-0.0195299 -0.160241 -0.160241
-0.020954 -0.18373 -0.18373
0.0193872 -0.18394 -0.18394
0.0182019 -0.160427 -0.160427
-0.0202411 -0.171793 -0.171793
-0.000781735 -0.18367 -0.18367
0.0187973 -0.17199 -0.17199
-0.000662411 -0.160168 -0.160168
-0.000720301 -0.171726 -0.171726
-0.020954 -0.18373 -0.18373
-0.0223855 -0.208759 -0.208759
0.0205507 -0.208994 -0.208994
0.0193872 -0.18394 -0.18394
-0.0216688 -0.196053 -0.196053
-0.000915654 -0.208713 -0.208713
0.0199717 -0.196275 -0.196275
-0.000781735 -0.18367 -0.18367
-0.000846817 -0.195999 -0.195999
-0.0223855 -0.208759 -0.208759
-0.0238253 -0.23532 -0.23532
0.0216916 -0.235581 -0.235581
0.0205507 -0.208994 -0.208994
-0.0231043 -0.221849 -0.221849
-0.001065 -0.235288 -0.235288
0.021124 -0.222096 -0.222096
-0.000915654 -0.208713 -0.208713
-0.000988349 -0.221809 -0.221809
-0.0238253 -0.23532 -0.23532
-0.0252741 -0.263404 -0.263404
0.022809 -0.263693 -0.263693
0.0216916 -0.235581 -0.235581
-0.0245485 -0.249172 -0.249172
-0.00123061 -0.263387 -0.263387
0.0222533 -0.249447 -0.249447
-0.001065 -0.235288 -0.235288
-0.00114572 -0.249147 -0.249147
-0.0252741 -0.263404 -0.263404
-0.0267328 -0.293003 -0.293003
0.0239022 -0.293321 -0.293321
0.022809 -0.263693 -0.263693
-0.0260022 -0.278015 -0.278015
-0.00141328 -0.293001 -0.293001
0.0233587 -0.278318 -0.278318
-0.00123061 -0.263387 -0.263387
-0.00131976 -0.278005 -0.278005
-0.0267328 -0.293003 -0.293003
-0.0282022 -0.324109 -0.324109
0.0249704 -0.324457 -0.324457
0.0239022 -0.293321 -0.293321
-0.0274661 -0.308368 -0.308368
-0.00161381 -0.324123 -0.324123
0.0244395 -0.308701 -0.308701
-0.00141328 -0.293001 -0.293001
-0.00151126 -0.308374 -0.308374
-0.0282022 -0.324109 -0.324109
-0.0296831 -0.356712 -0.356712
0.0260128 -0.357093 -0.357093
0.0249704 -0.324457 -0.324457
-0.0289412 -0.340224 -0.340224
-0.00183298 -0.356743 -0.356743
0.0254949 -0.340588 -0.340588
-0.00161381 -0.324123 -0.324123
-0.00172102 -0.340246 -0.340246
-0.0296831 -0.356712 -0.356712
-0.0311763 -0.390805 -0.390805
0.0270286 -0.391219 -0.391219
0.0260128 -0.357093 -0.357093
-0.0304281 -0.373573 -0.373573
-0.00207157 -0.390853 -0.390853
0.0265241 -0.37397 -0.37397
-0.00183298 -0.356743 -0.356743
-0.0019498 -0.373612 -0.373612
-0.0311763 -0.390805 -0.390805
-0.0326824 -0.426379 -0.426379
0.0280171 -0.426827 -0.426827
0.0270286 -0.391219 -0.391219
-0.0319277 -0.408407 -0.408407
-0.00233032 -0.426445 -0.426445
0.0275263 -0.408838 -0.408838
-0.00207157 -0.390853 -0.390853
-0.00219838 -0.408465 -0.408465
-0.0326824 -0.426379 -0.426379
-0.0342023 -0.463425 -0.463425
0.0289775 -0.463909 -0.463909
0.0280171 -0.426827 -0.426827
-0.0334406 -0.444718 -0.444718
-0.00260999 -0.46351 -0.46351
0.0285008 -0.445184 -0.445184
-0.00233032 -0.426445 -0.426445
-0.0024675 -0.444794 -0.444794
-0.0342023 -0.463425 -0.463425
-0.0357367 -0.501935 -0.501935
0.0299091 -0.502456 -0.502456
0.0289775 -0.463909 -0.463909
-0.0349676 -0.482497 -0.482497
-0.00291129 -0.50204 -0.50204
0.0294469 -0.483 -0.483
-0.00260999 -0.46351 -0.46351
-0.00275789 -0.482592 -0.482592
-0.0357367 -0.501935 -0.501935
-0.0372862 -0.541901 -0.541901
0.0308112 -0.54246 -0.54246
0.0299091 -0.502456 -0.502456
-0.0365095 -0.521737 -0.521737
-0.00323494 -0.542025 -0.542025
0.0303639 -0.522276 -0.522276
-0.00291129 -0.50204 -0.50204
-0.00307028 -0.521851 -0.521851
-0.0372862 -0.541901 -0.541901
-0.0388516 -0.583314 -0.583314
0.0316831 -0.583912 -0.583912
0.0308112 -0.54246 -0.54246
-0.0380669 -0.562427 -0.562427
-0.00358164 -0.583459 -0.583459
0.0312509 -0.563005 -0.563005
-0.00323494 -0.542025 -0.542025
-0.00340537 -0.562562 -0.562562
-0.0388516 -0.583314 -0.583314
-0.0404336 -0.626165 -0.626165
0.032524 -0.626804 -0.626804
0.0316831 -0.583912 -0.583912
-0.0396405 -0.60456 -0.60456
-0.00395207 -0.626331 -0.626331
0.0321074 -0.605178 -0.605178
-0.00358164 -0.583459 -0.583459
-0.00376385 -0.604716 -0.604716
-0.0404336 -0.626165 -0.626165
-0.0420328 -0.670447 -0.670447
0.0333334 -0.671127 -0.671127
0.032524 -0.626804 -0.626804
-0.041231 -0.648128 -0.648128
-0.0043469 -0.670635 -0.670635
0.0329327 -0.648787 -0.648787
-0.00395207 -0.626331 -0.626331
-0.00414639 -0.648305 -0.648305
-0.0420328 -0.670447 -0.670447
-0.0436499 -0.71615 -0.71615
0.0341106 -0.716872 -0.716872
0.0333334 -0.671127 -0.671127
-0.0428391 -0.693121 -0.693121
-0.00476678 -0.71636 -0.71636
0.0337261 -0.693822 -0.693822
-0.0043469 -0.670635 -0.670635
-0.00455367 -0.69332 -0.69332
-0.0436499 -0.71615 -0.71615
-0.0452855 -0.763266 -0.763266
0.034855 -0.764032 -0.764032
0.0341106 -0.716872 -0.716872
-0.0444654 -0.739532 -0.739532
-0.00521237 -0.763499 -0.763499
0.0344869 -0.740276 -0.740276
-0.00476678 -0.71636 -0.71636
-0.00498632 -0.739753 -0.739753
-0.0452855 -0.763266 -0.763266
-0.0469403 -0.811787 -0.811787
0.0355658 -0.812598 -0.812598
0.034855 -0.764032 -0.764032
-0.0461105 -0.787352 -0.787352
-0.00568427 -0.812043 -0.812043
0.0352146 -0.78814 -0.78814
-0.00521237 -0.763499 -0.763499
-0.00544499 -0.787596 -0.787596
-0.0469403 -0.811787 -0.811787
-0.0486149 -0.861704 -0.861704
0.0362425 -0.862561 -0.862561
0.0355658 -0.812598 -0.812598
-0.0477751 -0.836572 -0.836572
-0.0061831 -0.861984 -0.861984
0.0359085 -0.837405 -0.837405
-0.00568427 -0.812043 -0.812043
-0.00593028 -0.83684 -0.83684
-0.0486149 -0.861704 -0.861704
-0.0503098 -0.913009 -0.913009
0.0368846 -0.913913 -0.913913
0.0362425 -0.862561 -0.862561
-0.0494597 -0.887184 -0.887184
-0.00670947 -0.913313 -0.913313
0.0365679 -0.888064 -0.888064
-0.0061831 -0.861984 -0.861984
-0.00644281 -0.887476 -0.887476
-0.0503098 -0.913009 -0.913009
-0.0520256 -0.965693 -0.965693
0.0374913 -0.966645 -0.966645
0.0368846 -0.913913 -0.913913
-0.051165 -0.939179 -0.939179
-0.00726396 -0.966022 -0.966022
0.0371924 -0.940107 -0.940107
-0.00670947 -0.913313 -0.913313
-0.00698317 -0.939496 -0.939496
-0.0520256 -0.965693 -0.965693
-0.053763 -1.01975 -1.01975
0.0380623 -1.02075 -1.02075
0.0374913 -0.966645 -0.966645
-0.0528916 -0.99255 -0.99255
-0.00784714 -1.0201 -1.0201
0.0377813 -0.993525 -0.993525
-0.00726396 -0.966022 -0.966022
-0.00755193 -0.992892 -0.992892
-0.053763 -1.01975 -1.01975
-0.0555224 -1.07517 -1.07517
0.0385967 -1.07621 -1.07621
0.0380623 -1.02075 -1.02075
-0.0546399 -1.04729 -1.04729
-0.00845956 -1.07555 -1.07555
0.0383341 -1.04831 -1.04831
-0.00784714 -1.0201 -1.0201
-0.00814966 -1.04765 -1.04765
-0.0555224 -1.07517 -1.07517
-0.0573045 -1.13194 -1.13194
0.0390943 -1.13304 -1.13304
0.0385967 -1.07621 -1.07621
-0.0564106 -1.10338 -1.10338
-0.00910176 -1.13234 -1.13234
0.0388502 -1.10446 -1.10446
-0.00845956 -1.07555 -1.07555
-0.0087769 -1.10378 -1.10378
-0.0573045 -1.13194 -1.13194
-0.0591097 -1.19005 -1.19005
0.0395543 -1.1912 -1.1912
0.0390943 -1.13304 -1.13304
-0.0582042 -1.16083 -1.16083
-0.00977429 -1.19049 -1.19049
0.039329 -1.16195 -1.16195
-0.00910176 -1.13234 -1.13234
-0.0094342 -1.16125 -1.16125
-0.0591097 -1.19005 -1.19005
-0.0609386 -1.24951 -1.24951
0.0399764 -1.25071 -1.25071
0.0395543 -1.1912 -1.1912
-0.0600212 -1.21961 -1.21961
-0.0104776 -1.24997 -1.24997
0.0397701 -1.22079 -1.22079
-0.00977429 -1.19049 -1.19049
-0.0101221 -1.22006 -1.22006
-0.0609386 -1.24951 -1.24951
-0.0627916 -1.31029 -1.31029
0.0403599 -1.31154 -1.31154
0.0399764 -1.25071 -1.25071
-0.0618621 -1.27973 -1.27973
-0.0112123 -1.31077 -1.31077
0.040173 -1.28096 -1.28096
-0.0104776 -1.24997 -1.24997
-0.010841 -1.2802 -1.2802
-0.0627916 -1.31029 -1.31029
-0.0646693 -1.37239 -1.37239
0.0407045 -1.3737 -1.3737
0.0403599 -1.31154 -1.31154
-0.0637274 -1.34117 -1.34117
-0.0119789 -1.3729 -1.3729
0.0405371 -1.34246 -1.34246
-0.0112123 -1.31077 -1.31077
-0.0115916 -1.34167 -1.34167
-0.0646693 -1.37239 -1.37239
-0.0665722 -1.4358 -1.4358
0.0410096 -1.43717 -1.43717
0.0407045 -1.3737 -1.3737
-0.0656176 -1.40393 -1.40393
-0.0127777 -1.43635 -1.43635
0.040862 -1.40527 -1.40527
-0.0119789 -1.3729 -1.3729
-0.0123742 -1.40446 -1.40446
-0.0665722 -1.4358 -1.4358
-0.0685006 -1.50052 -1.50052
0.0412748 -1.50194 -1.50194
0.0410096 -1.43717 -1.43717
-0.0675332 -1.468 -1.468
-0.0136093 -1.50109 -1.50109
0.0411472 -1.46939 -1.46939
-0.0127777 -1.43635 -1.43635
-0.0131894 -1.46855 -1.46855
-0.0685006 -1.50052 -1.50052
-0.0704551 -1.56653 -1.56653
0.0414995 -1.568 -1.568
0.0412748 -1.50194 -1.50194
-0.0694746 -1.53336 -1.53336
-0.0144741 -1.56713 -1.56713
0.0413922 -1.53481 -1.53481
-0.0136093 -1.50109 -1.50109
-0.0140375 -1.53395 -1.53395
-0.0704551 -1.56653 -1.56653
-0.072436 -1.63382 -1.63382
0.0416835 -1.63536 -1.63536
0.0414995 -1.568 -1.568
-0.0714422 -1.60002 -1.60002
-0.0153725 -1.63445 -1.63445
0.0415966 -1.60152 -1.60152
-0.0144741 -1.56713 -1.56713
-0.0149191 -1.60063 -1.60063
-0.072436 -1.63382 -1.63382
-0.0744439 -1.7024 -1.7024
0.0418262 -1.70399 -1.70399
0.0416835 -1.63536 -1.63536
-0.0734366 -1.66795 -1.66795
-0.0163051 -1.70306 -1.70306
0.04176 -1.66951 -1.66951
-0.0153725 -1.63445 -1.63445
-0.0158345 -1.6686 -1.6686
-0.0744439 -1.7024 -1.7024
-0.0764791 -1.77224 -1.77224
0.0419273 -1.77389 -1.77389
0.0418262 -1.70399 -1.70399
-0.0754581 -1.73716 -1.73716
-0.0172721 -1.77293 -1.77293
0.041882 -1.73878 -1.73878
-0.0163051 -1.70306 -1.70306
-0.0167842 -1.73784 -1.73784
-0.0764791 -1.77224 -1.77224
-0.078542 -1.84334 -1.84334
0.0419863 -1.84505 -1.84505
0.0419273 -1.77389 -1.77389
-0.0775071 -1.80763 -1.80763
-0.018274 -1.84406 -1.84406
0.0419621 -1.80931 -1.80931
-0.0172721 -1.77293 -1.77293
-0.0177687 -1.80834 -1.80834
-0.078542 -1.84334 -1.84334
-0.080633 -1.9157 -1.9157
0.0420029 -1.91747 -1.91747
0.0419863 -1.84505 -1.84505
-0.079584 -1.87937 -1.87937
-0.0193112 -1.91645 -1.91645
0.0419999 -1.8811 -1.8811
-0.018274 -1.84406 -1.84406
-0.0187881 -1.8801 -1.8801
-0.080633 -1.9157 -1.9157
-0.0827525 -1.9893 -1.9893
0.0419767 -1.99113 -1.99113
0.0420029 -1.91747 -1.91747
-0.0816892 -1.95234 -1.95234
-0.020384 -1.99008 -1.99008
0.0419951 -1.95414 -1.95414
-0.0193112 -1.91645 -1.91645
-0.0198431 -1.95311 -1.95311
-0.0827525 -1.9893 -1.9893
-0.0849008 -2.06413 -2.06413
0.0419072 -2.06602 -2.06602
0.0419767 -1.99113 -1.99113
-0.083823 -2.02656 -2.02656
-0.0214928 -2.06495 -2.06495
0.0419474 -2.02842 -2.02842
-0.020384 -1.99008 -1.99008
-0.0209339 -2.02736 -2.02736
-0.0849008 -2.06413 -2.06413
-0.0870783 -2.14019 -2.14019
0.0417943 -2.14214 -2.14214
0.0419072 -2.06602 -2.06602
-0.0859859 -2.10201 -2.10201
-0.022638 -2.14104 -2.14104
0.0418562 -2.10393 -2.10393
-0.0214928 -2.06495 -2.06495
-0.0220608 -2.10284 -2.10284
-0.0870783 -2.14019 -2.14019
-0.0892854 -2.21747 -2.21747
0.0416375 -2.21948 -2.21948
0.0417943 -2.14214 -2.14214
-0.0881782 -2.17868 -2.17868
-0.0238199 -2.21835 -2.21835
0.0417214 -2.18066 -2.18066
-0.022638 -2.14104 -2.14104
-0.0232243 -2.17954 -2.17954
-0.0892854 -2.21747 -2.21747
-0.0915223 -2.29596 -2.29596
0.0414366 -2.29804 -2.29804
0.0416375 -2.21948 -2.21948
-0.0904001 -2.25656 -2.25656
-0.0250388 -2.29687 -2.29687
0.0415426 -2.25861 -2.25861
-0.0238199 -2.21835 -2.21835
-0.0244247 -2.25746 -2.25746
-0.0915223 -2.29596 -2.29596
-0.0937893 -2.37565 -2.37565
0.0411911 -2.37779 -2.37779
0.0414366 -2.29804 -2.29804
-0.092652 -2.33566 -2.33566
-0.026295 -2.37659 -2.37659
0.0413194 -2.33776 -2.33776
-0.0250388 -2.29687 -2.29687
-0.0256622 -2.33658 -2.33658
-0.0937893 -2.37565 -2.37565
-0.0960868 -2.45653 -2.45653
0.0409009 -2.45873 -2.45873
0.0411911 -2.37779 -2.37779
-0.0949342 -2.41594 -2.41594
-0.0275888 -2.45751 -2.45751
0.0410516 -2.41811 -2.41811
-0.026295 -2.37659 -2.37659
-0.0269372 -2.4169 -2.4169
-0.0960868 -2.45653 -2.45653
-0.0984151 -2.5386 -2.5386
0.0405656 -2.54087 -2.54087
0.0409009 -2.45873 -2.45873
-0.0972471 -2.49742 -2.49742
-0.0289206 -2.53961 -2.53961
0.0407389 -2.49965 -2.49965
-0.0275888 -2.45751 -2.45751
-0.0282499 -2.49841 -2.49841
-0.0984151 -2.5386 -2.5386
-0.100774 -2.62184 -2.62184
0.0401849 -2.62417 -2.62417
0.0405656 -2.54087 -2.54087
-0.0995908 -2.58007 -2.58007
-0.0302905 -2.62288 -2.62288
0.0403809 -2.58237 -2.58237
-0.0289206 -2.53961 -2.53961
-0.0296008 -2.5811 -2.5811
-0.100774 -2.62184 -2.62184
-0.103165 -2.70625 -2.70625
0.0397586 -2.70865 -2.70865
0.0401849 -2.62417 -2.62417
-0.101966 -2.6639 -2.6639
-0.0316989 -2.70732 -2.70732
0.0399775 -2.66626 -2.66626
-0.0302905 -2.62288 -2.62288
-0.0309899 -2.66496 -2.66496
-0.103165 -2.70625 -2.70625
-0.105587 -2.79182 -2.79182
0.0392864 -2.79428 -2.79428
0.0397586 -2.70865 -2.70865
-0.104372 -2.74889 -2.74889
-0.033146 -2.79293 -2.79293
0.0395283 -2.75132 -2.75132
-0.0316989 -2.70732 -2.70732
-0.0324176 -2.74998 -2.74998
-0.105587 -2.79182 -2.79182
-0.108041 -2.87854 -2.87854
0.0387682 -2.88107 -2.88107
0.0392864 -2.79428 -2.79428
-0.10681 -2.83504 -2.83504
-0.0346321 -2.87968 -2.87968
0.0390331 -2.83753 -2.83753
-0.033146 -2.79293 -2.79293
-0.0338842 -2.83616 -2.83616
-0.108041 -2.87854 -2.87854
-0.110527 -2.9664 -2.9664
0.0382036 -2.96899 -2.96899
0.0387682 -2.88107 -2.88107
-0.10928 -2.92233 -2.92233
-0.0361573 -2.96757 -2.96757
0.0384917 -2.92489 -2.92489
-0.0346321 -2.87968 -2.87968
-0.0353898 -2.92348 -2.92348
-0.110527 -2.9664 -2.9664
-0.113045 -3.05539 -3.05539
0.0375924 -3.05805 -3.05805
0.0382036 -2.96899 -2.96899
-0.111782 -3.01075 -3.01075
-0.037722 -3.0566 -3.0566
0.0379038 -3.01338 -3.01338
-0.0361573 -2.96757 -2.96757
-0.0369347 -3.01195 -3.01195
-0.113045 -3.05539 -3.05539
-0.115596 -3.14551 -3.14551
0.0369344 -3.14824 -3.14824
0.0375924 -3.05805 -3.05805
-0.114316 -3.10031 -3.10031
-0.0393262 -3.14676 -3.14676
0.0372693 -3.10301 -3.10301
-0.037722 -3.0566 -3.0566
-0.0385191 -3.10154 -3.10154
-0.115596 -3.14551 -3.14551
-0.118179 -3.23675 -3.23675
0.0362295 -3.23954 -3.23954
0.0369344 -3.14824 -3.14824
-0.116883 -3.19099 -3.19099
-0.0409702 -3.23803 -3.23803
0.0365879 -3.19375 -3.19375
-0.0393262 -3.14676 -3.14676
-0.0401432 -3.19225 -3.19225
-0.118179 -3.23675 -3.23675
-0.120795 -3.32909 -3.32909
0.0354775 -3.33195 -3.33195
0.0362295 -3.23954 -3.23954
-0.119483 -3.28278 -3.28278
-0.0426543 -3.3304 -3.3304
0.0358594 -3.28561 -3.28561
-0.0409702 -3.23803 -3.23803
-0.0418072 -3.28408 -3.28408
-0.120795 -3.32909 -3.32909
-0.123444 -3.42253 -3.42253
0.0346781 -3.42546 -3.42546
0.0354775 -3.33195 -3.33195
-0.122115 -3.37568 -3.37568
-0.0443784 -3.42388 -3.42388
0.0350837 -3.37857 -3.37857
-0.0426543 -3.3304 -3.3304
-0.0435113 -3.37701 -3.37701
-0.123444 -3.42253 -3.42253
-0.126126 -3.51707 -3.51707
0.0338313 -3.52007 -3.52007
0.0346781 -3.42546 -3.42546
-0.124781 -3.46966 -3.46966
-0.0461429 -3.51845 -3.51845
0.0342607 -3.47263 -3.47263
-0.0443784 -3.42388 -3.42388
-0.0452556 -3.47103 -3.47103
-0.126126 -3.51707 -3.51707
-0.128841 -3.61268 -3.61268
0.0329368 -3.61575 -3.61575
0.0338313 -3.52007 -3.52007
-0.127479 -3.56474 -3.56474
-0.0479479 -3.6141 -3.6141
0.03339 -3.56777 -3.56777
-0.0461429 -3.51845 -3.51845
-0.0470403 -3.56614 -3.56614
-0.128841 -3.61268 -3.61268
-0.13159 -3.70937 -3.70937
0.0319946 -3.71251 -3.71251
0.0329368 -3.61575 -3.61575
-0.130212 -3.6609 -3.6609
-0.0497934 -3.71083 -3.71083
0.0324717 -3.664 -3.664
-0.0479479 -3.6141 -3.6141
-0.0488656 -3.66233 -3.66233
-0.13159 -3.70937 -3.70937
-0.134373 -3.80713 -3.80713
0.0310044 -3.81033 -3.81033
0.0319946 -3.71251 -3.71251
-0.132977 -3.75812 -3.75812
-0.0516797 -3.80862 -3.80862
0.0315055 -3.76129 -3.76129
-0.0497934 -3.71083 -3.71083
-0.0507315 -3.75959 -3.75959
-0.134373 -3.80713 -3.80713
-0.137189 -3.90594 -3.90594
0.0299663 -3.90922 -3.90922
0.0310044 -3.81033 -3.81033
-0.135777 -3.85641 -3.85641
-0.0536069 -3.90747 -3.90747
0.0304914 -3.85964 -3.85964
-0.0516797 -3.80862 -3.80862
-0.0526382 -3.85791 -3.85791
-0.137189 -3.90594 -3.90594
-0.140039 -4.00581 -4.00581
0.02888 -4.00915 -4.00915
0.0299663 -3.90922 -3.90922
-0.13861 -3.95574 -3.95574
-0.055575 -4.00737 -4.00737
0.0294292 -3.95905 -3.95905
-0.0536069 -3.90747 -3.90747
-0.0545858 -3.95729 -3.95729
-0.140039 -4.00581 -4.00581
-0.142923 -4.10671 -4.10671
0.0277455 -4.11012 -4.11012
0.02888 -4.00915 -4.00915
-0.141477 -4.05613 -4.05613
-0.0575842 -4.1083 -4.1083
0.0283188 -4.0595 -4.0595
-0.055575 -4.00737 -4.00737
-0.0565745 -4.0577 -4.0577
-0.142923 -4.10671 -4.10671
-0.145841 -4.20864 -4.20864
0.0265627 -4.21212 -4.21212
0.0277455 -4.11012 -4.11012
-0.144378 -4.15755 -4.15755
-0.0596346 -4.21027 -4.21027
0.0271601 -4.16099 -4.16099
-0.0575842 -4.1083 -4.1083
-0.0586042 -4.15916 -4.15916
-0.145841 -4.20864 -4.20864
-0.148793 -4.3116 -4.3116
0.0253315 -4.31515 -4.31515
0.0265627 -4.21212 -4.21212
-0.147312 -4.25999 -4.25999
-0.0617261 -4.31326 -4.31326
0.0259531 -4.26351 -4.26351
-0.0596346 -4.21027 -4.21027
-0.0606752 -4.26164 -4.26164
-0.148793 -4.3116 -4.3116
-0.151779 -4.41557 -4.41557
0.0240518 -4.41919 -4.41919
0.0253315 -4.31515 -4.31515
-0.150281 -4.36346 -4.36346
-0.063859 -4.41727 -4.41727
0.0246977 -4.36704 -4.36704
-0.0617261 -4.31326 -4.31326
-0.0627874 -4.36514 -4.36514
-0.151779 -4.41557 -4.41557
-0.154799 -4.52055 -4.52055
0.0227237 -4.52424 -4.52424
0.0240518 -4.41919 -4.41919
-0.153285 -4.46793 -4.46793
-0.0660332 -4.52229 -4.52229
0.0233938 -4.47159 -4.47159
-0.063859 -4.41727 -4.41727
-0.0649409 -4.46965 -4.46965
-0.154799 -4.52055 -4.52055
-0.157854 -4.62652 -4.62652
0.021347 -4.63028 -4.63028
0.0227237 -4.52424 -4.52424
-0.156322 -4.57341 -4.57341
-0.0682488 -4.6283 -4.6283
0.0220414 -4.57714 -4.57714
-0.0660332 -4.52229 -4.52229
-0.0671358 -4.57517 -4.57517
-0.157854 -4.62652 -4.62652
-0.160942 -4.73349 -4.73349
0.0199217 -4.73732 -4.73732
0.021347 -4.63028 -4.63028
-0.159394 -4.67988 -4.67988
-0.0705059 -4.7353 -4.7353
0.0206404 -4.68368 -4.68368
-0.0682488 -4.6283 -4.6283
-0.0693721 -4.68167 -4.68167
-0.160942 -4.73349 -4.73349
-0.164065 -4.84144 -4.84144
0.0184477 -4.84533 -4.84533
0.0199217 -4.73732 -4.73732
-0.1625 -4.78734 -4.78734
-0.0728044 -4.84328 -4.84328
0.0191908 -4.7912 -4.7912
-0.0705059 -4.7353 -4.7353
-0.0716499 -4.78917 -4.78917
-0.164065 -4.84144 -4.84144
-0.167223 -4.95035 -4.95035
0.0169252 -4.95432 -4.95432
0.0184477 -4.84533 -4.84533
-0.16564 -4.89577 -4.89577
-0.0751443 -4.95223 -4.95223
0.0176925 -4.89971 -4.89971
-0.0728044 -4.84328 -4.84328
-0.0739692 -4.89764 -4.89764
-0.167223 -4.95035 -4.95035
-0.170415 -5.06024 -5.06024
0.015354 -5.06427 -5.06427
0.0169252 -4.95432 -4.95432
-0.168814 -5.00518 -5.00518
-0.0775258 -5.06215 -5.06215
0.0161456 -5.00918 -5.00918
-0.0751443 -4.95223 -4.95223
-0.0763299 -5.00707 -5.00707
-0.170415 -5.06024 -5.06024
-0.173641 -5.17107 -5.17107
0.0137341 -5.17518 -5.17518
0.015354 -5.06427 -5.06427
-0.172023 -5.11554 -5.11554
-0.0799488 -5.17303 -5.17303
0.0145501 -5.11961 -5.11961
-0.0775258 -5.06215 -5.06215
-0.0787321 -5.11747 -5.11747
-0.173641 -5.17107 -5.17107
-0.176901 -5.28286 -5.28286
0.0120656 -5.28704 -5.28704
0.0137341 -5.17518 -5.17518
-0.175267 -5.22685 -5.22685
-0.0824132 -5.28485 -5.28485
0.012906 -5.23099 -5.23099
-0.0799488 -5.17303 -5.17303
-0.0811758 -5.22882 -5.22882
-0.176901 -5.28286 -5.28286
-0.180196 -5.39558 -5.39558
0.0103486 -5.39983 -5.39983
0.0120656 -5.28704 -5.28704
-0.178544 -5.3391 -5.3391
-0.084919 -5.39761 -5.39761
0.0112132 -5.34332 -5.34332
-0.0824132 -5.28485 -5.28485
-0.0836609 -5.34111 -5.34111
-0.180196 -5.39558 -5.39558
-0.183525 -5.50924 -5.50924
0.00858293 -5.51355 -5.51355
0.0103486 -5.39983 -5.39983
-0.181856 -5.45229 -5.45229
-0.0874663 -5.5113 -5.5113
0.00947182 -5.45658 -5.45658
-0.084919 -5.39761 -5.39761
-0.0861875 -5.45434 -5.45434
-0.183525 -5.50924 -5.50924
-0.186888 -5.62381 -5.62381
0.00676875 -5.6282 -5.6282
0.00858293 -5.51355 -5.51355
-0.185202 -5.56641 -5.56641
-0.090055 -5.62591 -5.62591
0.0076819 -5.57076 -5.57076
-0.0874663 -5.5113 -5.5113
-0.0887555 -5.56849 -5.56849
-0.186888 -5.62381 -5.62381
-0.190285 -5.7393 -5.7393
0.00490609 -5.74375 -5.74375
0.00676875 -5.6282 -5.6282
-0.188582 -5.68144 -5.68144
-0.092685 -5.74143 -5.74143
0.00584348 -5.68586 -5.68586
-0.090055 -5.62591 -5.62591
-0.0913648 -5.68355 -5.68355
-0.190285 -5.7393 -5.7393
-0.193716 -5.85569 -5.85569
0.00299501 -5.86022 -5.86022
0.00490609 -5.74375 -5.74375
-0.191996 -5.79738 -5.79738
-0.0953562 -5.85786 -5.85786
0.0039566 -5.80187 -5.80187
-0.092685 -5.74143 -5.74143
-0.0940155 -5.79953 -5.79953
-0.193716 -5.85569 -5.85569
-0.197182 -5.97298 -5.97298
0.00103558 -5.97758 -5.97758
0.00299501 -5.86022 -5.86022
-0.195445 -5.91422 -5.91422
-0.0980687 -5.97518 -5.97518
0.00202133 -5.91878 -5.91878
-0.0953562 -5.85786 -5.85786
-0.0967073 -5.91641 -5.91641
-0.197182 -5.97298 -5.97298
-0.200681 -6.09116 -6.09116
-0.00097214 -6.09582 -6.09582
0.00103558 -5.97758 -5.97758
-0.198927 -6.03196 -6.03196
-0.100822 -6.0934 -6.0934
3.77474e-05 -6.03659 -6.03659
-0.0980687 -5.97518 -5.97518
-0.0994404 -6.03418 -6.03418
-0.200681 -6.09116 -6.09116
-0.204215 -6.21021 -6.21021
-0.00302805 -6.21495 -6.21495
-0.00097214 -6.09582 -6.09582
-0.202444 -6.15058 -6.15058
-0.103617 -6.21249 -6.21249
-0.00199407 -6.15527 -6.15527
-0.100822 -6.0934 -6.0934
-0.102214 -6.15283 -6.15283
-0.204215 -6.21021 -6.21021
-0.207782 -6.33014 -6.33014
-0.00513205 -6.33494 -6.33494
-0.00302805 -6.21495 -6.21495
-0.205994 -6.27007 -6.27007
-0.106452 -6.33245 -6.33245
-0.00407404 -6.27484 -6.27484
-0.103617 -6.21249 -6.21249
-0.10503 -6.27236 -6.27236
-0.207782 -6.33014 -6.33014
-0.211383 -6.45093 -6.45093
-0.00728405 -6.4558 -6.4558
-0.00513205 -6.33494 -6.33494
-0.209578 -6.39043 -6.39043
-0.109329 -6.45327 -6.45327
-0.00620206 -6.39526 -6.39526
-0.106452 -6.33245 -6.33245
-0.107886 -6.39275 -6.39275
-0.211383 -6.45093 -6.45093
-0.215017 -6.57257 -6.57257
-0.00948393 -6.57751 -6.57751
-0.00728405 -6.4558 -6.4558
-0.213196 -6.51164 -6.51164
-0.112246 -6.57495 -6.57495
-0.00837801 -6.51655 -6.51655
-0.109329 -6.45327 -6.45327
-0.110782 -6.51401 -6.51401
-0.215017 -6.57257 -6.57257
-0.218685 -6.69506 -6.69506
-0.0117316 -6.70007 -6.70007
-0.00948393 -6.57751 -6.57751
-0.216847 -6.63371 -6.63371
-0.115204 -6.69747 -6.69747
-0.0106018 -6.63868 -6.63868
-0.112246 -6.57495 -6.57495
-0.11372 -6.63611 -6.63611
-0.218685 -6.69506 -6.69506
-0.222386 -6.81838 -6.81838
-0.0140268 -6.82346 -6.82346
-0.0117316 -6.70007 -6.70007
-0.220531 -6.75662 -6.75662
-0.118202 -6.82083 -6.82083
-0.0128733 -6.76166 -6.76166
-0.115204 -6.69747 -6.69747
-0.116698 -6.75905 -6.75905
-0.222386 -6.81838 -6.81838
-0.22612 -6.94254 -6.94254
-0.0163696 -6.94768 -6.94768
-0.0140268 -6.82346 -6.82346
-0.224249 -6.88036 -6.88036
-0.121241 -6.94502 -6.94502
-0.0151923 -6.88547 -6.88547
-0.118202 -6.82083 -6.82083
-0.119716 -6.88283 -6.88283
-0.22612 -6.94254 -6.94254
-0.229888 -7.06751 -7.06751
-0.0187597 -7.07272 -7.07272
-0.0163696 -6.94768 -6.94768
-0.228 -7.00492 -7.00492
-0.124319 -7.07003 -7.07003
-0.0175588 -7.0101 -7.0101
-0.121241 -6.94502 -6.94502
-0.122775 -7.00743 -7.00743
-0.229888 -7.06751 -7.06751
-0.233688 -7.1933 -7.1933
-0.021197 -7.19858 -7.19858
-0.0187597 -7.07272 -7.07272
-0.231784 -7.1303 -7.1303
-0.127438 -7.19585 -7.19585
-0.0199725 -7.13555 -7.13555
-0.124319 -7.07003 -7.07003
-0.125874 -7.13284 -7.13284
-0.233688 -7.1933 -7.1933
-0.237521 -7.31989 -7.31989
-0.0236814 -7.32523 -7.32523
-0.021197 -7.19858 -7.19858
-0.2356 -7.25649 -7.25649
-0.130597 -7.32247 -7.32247
-0.0224333 -7.2618 -7.2618
-0.127438 -7.19585 -7.19585
-0.129013 -7.25906 -7.25906
-0.237521 -7.31989 -7.31989
-0.241387 -7.44727 -7.44727
-0.0262126 -7.45268 -7.45268
-0.0236814 -7.32523 -7.32523
-0.23945 -7.38348 -7.38348
-0.133795 -7.44989 -7.44989
-0.0249411 -7.38886 -7.38886
-0.130597 -7.32247 -7.32247
-0.132191 -7.38608 -7.38608
-0.241387 -7.44727 -7.44727
-0.245284 -7.57544 -7.57544
-0.0287905 -7.58092 -7.58092
-0.0262126 -7.45268 -7.45268
-0.243331 -7.51126 -7.51126
-0.137033 -7.57809 -7.57809
-0.0274957 -7.5167 -7.5167
-0.133795 -7.44989 -7.44989
-0.135409 -7.51389 -7.51389
-0.245284 -7.57544 -7.57544
-0.249215 -7.70438 -7.70438
-0.0314149 -7.70993 -7.70993
-0.0287905 -7.58092 -7.58092
-0.247246 -7.63981 -7.63981
-0.140311 -7.70707 -7.70707
-0.0300969 -7.64533 -7.64533
-0.137033 -7.57809 -7.57809
-0.138667 -7.64249 -7.64249
-0.249215 -7.70438 -7.70438
-0.253177 -7.8341 -7.8341
-0.0340856 -7.83971 -7.83971
-0.0314149 -7.70993 -7.70993
-0.251192 -7.76915 -7.76915
-0.143627 -7.83682 -7.83682
-0.0327444 -7.77472 -7.77472
-0.140311 -7.70707 -7.70707
-0.141964 -7.77185 -7.77185
-0.253177 -7.8341 -7.8341
-0.257171 -7.96458 -7.96458
-0.0368024 -7.97025 -7.97025
-0.0340856 -7.83971 -7.83971
-0.25517 -7.89924 -7.89924
-0.146982 -7.96733 -7.96733
-0.0354382 -7.90489 -7.90489
-0.143627 -7.83682 -7.83682
-0.1453 -7.90198 -7.90198
-0.257171 -7.96458 -7.96458
-0.261196 -8.09581 -8.09581
-0.039565 -8.10155 -8.10155
-0.0368024 -7.97025 -7.97025
-0.25918 -8.0301 -8.0301
-0.150377 -8.0986 -8.0986
-0.038178 -8.03581 -8.03581
-0.146982 -7.96733 -7.96733
-0.148675 -8.03287 -8.03287
-0.261196 -8.09581 -8.09581
-0.265253 -8.22778 -8.22778
-0.0423734 -8.23358 -8.23358
-0.039565 -8.10155 -8.10155
-0.263221 -8.1617 -8.1617
-0.153809 -8.2306 -8.2306
-0.0409635 -8.16747 -8.16747
-0.150377 -8.0986 -8.0986
-0.152088 -8.16451 -8.16451
-0.265253 -8.22778 -8.22778
-0.269341 -8.36049 -8.36049
-0.0452272 -8.36636 -8.36636
-0.0423734 -8.23358 -8.23358
-0.267294 -8.29404 -8.29404
-0.15728 -8.36334 -8.36334
-0.0437947 -8.29988 -8.29988
-0.153809 -8.2306 -8.2306
-0.15554 -8.29688 -8.29688
-0.269341 -8.36049 -8.36049
-0.27346 -8.49392 -8.49392
-0.0481263 -8.49986 -8.49986
-0.0452272 -8.36636 -8.36636
-0.271397 -8.42711 -8.42711
-0.160789 -8.49681 -8.49681
-0.0466711 -8.43302 -8.43302
-0.15728 -8.36334 -8.36334
-0.15903 -8.42999 -8.42999
-0.27346 -8.49392 -8.49392
-0.27761 -8.62808 -8.62808
-0.0510703 -8.63407 -8.63407
-0.0481263 -8.49986 -8.49986
-0.275532 -8.56091 -8.56091
-0.164336 -8.631 -8.631
-0.0495927 -8.56688 -8.56688
-0.160789 -8.49681 -8.49681
-0.162558 -8.56382 -8.56382
-0.27761 -8.62808 -8.62808
-0.28179 -8.76294 -8.76294
-0.0540591 -8.769 -8.769
-0.0510703 -8.63407 -8.63407
-0.279697 -8.69542 -8.69542
-0.167921 -8.76589 -8.76589
-0.0525591 -8.70145 -8.70145
-0.164336 -8.631 -8.631
-0.166124 -8.69836 -8.69836
-0.28179 -8.76294 -8.76294
-0.286001 -8.8985 -8.8985
-0.0570923 -8.90463 -8.90463
-0.0540591 -8.769 -8.769
-0.283892 -8.83063 -8.83063
-0.171543 -8.90149 -8.90149
-0.0555702 -8.83673 -8.83673
-0.167921 -8.76589 -8.76589
-0.169727 -8.83361 -8.83361
-0.286001 -8.8985 -8.8985
-0.290241 -9.03476 -9.03476
-0.0601698 -9.04095 -9.04095
-0.0570923 -8.90463 -8.90463
-0.288117 -8.96655 -8.96655
-0.175201 -9.03778 -9.03778
-0.0586256 -8.9727 -8.9727
-0.171543 -8.90149 -8.90149
-0.173367 -8.96955 -8.96955
-0.290241 -9.03476 -9.03476
-0.294511 -9.17171 -9.17171
-0.0632913 -9.17795 -9.17795
-0.0601698 -9.04095 -9.04095
-0.292372 -9.10315 -9.10315
-0.178897 -9.17476 -9.17476
-0.0617251 -9.10937 -9.10937
-0.175201 -9.03778 -9.03778
-0.177045 -9.10618 -9.10618
-0.294511 -9.17171 -9.17171
-0.29881 -9.30932 -9.30932
-0.0664564 -9.31563 -9.31563
-0.0632913 -9.17795 -9.17795
-0.296657 -9.24043 -9.24043
-0.182629 -9.31241 -9.31241
-0.0648684 -9.24671 -9.24671
-0.178897 -9.17476 -9.17476
-0.180759 -9.2435 -9.2435
-0.29881 -9.30932 -9.30932
-0.303139 -9.44761 -9.44761
-0.0696649 -9.45398 -9.45398
-0.0664564 -9.31563 -9.31563
-0.300971 -9.37838 -9.37838
-0.186398 -9.45073 -9.45073
-0.0680552 -9.38473 -9.38473
-0.182629 -9.31241 -9.31241
-0.184509 -9.38148 -9.38148
-0.303139 -9.44761 -9.44761
-0.307496 -9.58656 -9.58656
-0.0729165 -9.59299 -9.59299
-0.0696649 -9.45398 -9.45398
-0.305314 -9.517 -9.517
-0.190203 -9.5897 -9.5897
-0.0712854 -9.5234 -9.5234
-0.186398 -9.45073 -9.45073
-0.188296 -9.52013 -9.52013
-0.307496 -9.58656 -9.58656
-0.311882 -9.72615 -9.72615
-0.076211 -9.73264 -9.73264
-0.0729165 -9.59299 -9.59299
-0.309686 -9.65627 -9.65627
-0.194043 -9.72933 -9.72933
-0.0745584 -9.66274 -9.66274
-0.190203 -9.5897 -9.5897
-0.192118 -9.65944 -9.65944
-0.311882 -9.72615 -9.72615
-0.316296 -9.86639 -9.86639
-0.079548 -9.87294 -9.87294
-0.076211 -9.73264 -9.73264
-0.314086 -9.79619 -9.79619
-0.197918 -9.8696 -9.8696
-0.0778742 -9.80271 -9.80271
-0.194043 -9.72933 -9.72933
-0.195976 -9.79939 -9.79939
-0.316296 -9.86639 -9.86639
-0.320738 -10.0073 -10.0073
-0.0829272 -10.0139 -10.0139
-0.079548 -9.87294 -9.87294
-0.318514 -9.93675 -9.93675
-0.201829 -10.0105 -10.0105
-0.0812324 -9.94333 -9.94333
-0.197918 -9.8696 -9.8696
-0.199869 -9.93997 -9.93997
-0.320738 -10.0073 -10.0073
-0.325208 -10.1488 -10.1488
-0.0863483 -10.1554 -10.1554
-0.0829272 -10.0139 -10.0139
-0.32297 -10.0779 -10.0779
-0.205774 -10.152 -10.152
-0.0846326 -10.0846 -10.0846
-0.201829 -10.0105 -10.0105
-0.203797 -10.0812 -10.0812
-0.325208 -10.1488 -10.1488
-0.329705 -10.2909 -10.2909
-0.089811 -10.2976 -10.2976
-0.0863483 -10.1554 -10.1554
-0.327453 -10.2197 -10.2197
-0.209754 -10.2942 -10.2942
-0.0880745 -10.2264 -10.2264
-0.205774 -10.152 -10.152
-0.20776 -10.223 -10.223
-0.329705 -10.2909 -10.2909
-0.334229 -10.4336 -10.4336
-0.093315 -10.4404 -10.4404
-0.089811 -10.2976 -10.2976
-0.331963 -10.3622 -10.3622
-0.213768 -10.4369 -10.4369
-0.0915579 -10.3689 -10.3689
-0.209754 -10.2942 -10.2942
-0.211757 -10.3655 -10.3655
-0.334229 -10.4336 -10.4336
-0.338779 -10.5769 -10.5769
-0.0968599 -10.5838 -10.5838
-0.093315 -10.4404 -10.4404
-0.336501 -10.5052 -10.5052
-0.217816 -10.5803 -10.5803
-0.0950823 -10.512 -10.512
-0.213768 -10.4369 -10.4369
-0.215788 -10.5085 -10.5085
-0.338779 -10.5769 -10.5769
-0.343356 -10.7208 -10.7208
-0.100445 -10.7277 -10.7277
-0.0968599 -10.5838 -10.5838
-0.341064 -10.6488 -10.6488
-0.221897 -10.7242 -10.7242
-0.0986476 -10.6557 -10.6557
-0.217816 -10.5803 -10.5803
-0.219852 -10.6522 -10.6522
-0.343356 -10.7208 -10.7208
-0.347959 -10.8653 -10.8653
-0.104071 -10.8723 -10.8723
-0.100445 -10.7277 -10.7277
-0.345654 -10.793 -10.793
-0.226011 -10.8688 -10.8688
-0.102253 -10.7999 -10.7999
-0.221897 -10.7242 -10.7242
-0.22395 -10.7964 -10.7964
-0.347959 -10.8653 -10.8653
-0.352587 -11.0104 -11.0104
-0.107737 -11.0174 -11.0174
-0.104071 -10.8723 -10.8723
-0.35027 -10.9378 -10.9378
-0.230159 -11.0139 -11.0139
-0.105899 -10.9448 -10.9448
-0.226011 -10.8688 -10.8688
-0.228081 -10.9412 -10.9412
-0.352587 -11.0104 -11.0104
-0.357241 -11.1561 -11.1561
-0.111442 -11.1631 -11.1631
-0.107737 -11.0174 -11.0174
-0.354911 -11.0832 -11.0832
-0.234338 -11.1595 -11.1595
-0.109584 -11.0902 -11.0902
-0.230159 -11.0139 -11.0139
-0.232244 -11.0866 -11.0866
-0.357241 -11.1561 -11.1561
-0.36192 -11.3023 -11.3023
-0.115186 -11.3094 -11.3094
-0.111442 -11.1631 -11.1631
-0.359577 -11.2291 -11.2291
-0.23855 -11.3058 -11.3058
-0.113309 -11.2362 -11.2362
-0.234338 -11.1595 -11.1595
-0.23644 -11.2326 -11.2326
-0.36192 -11.3023 -11.3023
-0.366623 -11.449 -11.449
-0.118969 -11.4562 -11.4562
-0.115186 -11.3094 -11.3094
-0.364268 -11.3756 -11.3756
-0.242793 -11.4525 -11.4525
-0.117073 -11.3827 -11.3827
-0.23855 -11.3058 -11.3058
-0.240667 -11.3791 -11.3791
-0.366623 -11.449 -11.449
-0.37135 -11.5963 -11.5963
-0.122791 -11.6035 -11.6035
-0.118969 -11.4562 -11.4562
-0.368984 -11.5226 -11.5226
-0.247067 -11.5998 -11.5998
-0.120875 -11.5298 -11.5298
-0.242793 -11.4525 -11.4525
-0.244926 -11.5261 -11.5261
-0.37135 -11.5963 -11.5963
-0.376101 -11.7441 -11.7441
-0.126651 -11.7514 -11.7514
-0.122791 -11.6035 -11.6035
-0.373723 -11.6701 -11.6701
-0.251373 -11.7477 -11.7477
-0.124716 -11.6774 -11.6774
-0.247067 -11.5998 -11.5998
-0.249216 -11.6737 -11.6737
-0.376101 -11.7441 -11.7441
-0.380876 -11.8925 -11.8925
-0.130548 -11.8998 -11.8998
-0.126651 -11.7514 -11.7514
-0.378486 -11.8182 -11.8182
-0.255709 -11.8961 -11.8961
-0.128595 -11.8255 -11.8255
-0.251373 -11.7477 -11.7477
-0.253537 -11.8218 -11.8218
-0.380876 -11.8925 -11.8925
-0.385673 -12.0413 -12.0413
-0.134483 -12.0487 -12.0487
-0.130548 -11.8998 -11.8998
-0.383272 -11.9668 -11.9668
-0.260075 -12.0449 -12.0449
-0.132511 -11.9742 -11.9742
-0.255709 -11.8961 -11.8961
-0.257888 -11.9704 -11.9704
-0.385673 -12.0413 -12.0413
-0.390494 -12.1907 -12.1907
-0.138454 -12.1981 -12.1981
-0.134483 -12.0487 -12.0487
-0.388081 -12.1159 -12.1159
-0.264471 -12.1943 -12.1943
-0.136464 -12.1233 -12.1233
-0.260075 -12.0449 -12.0449
-0.262269 -12.1196 -12.1196
-0.390494 -12.1907 -12.1907
-0.395336 -12.3405 -12.3405
-0.142462 -12.348 -12.348
-0.138454 -12.1981 -12.1981
-0.392912 -12.2656 -12.2656
-0.268896 -12.3442 -12.3442
-0.140454 -12.273 -12.273
-0.264471 -12.1943 -12.1943
-0.26668 -12.2692 -12.2692
-0.395336 -12.3405 -12.3405
-0.4002 -12.4909 -12.4909
-0.146507 -12.4984 -12.4984
-0.142462 -12.348 -12.348
-0.397765 -12.4157 -12.4157
-0.27335 -12.4946 -12.4946
-0.14448 -12.4232 -12.4232
-0.268896 -12.3442 -12.3442
-0.27112 -12.4194 -12.4194
-0.4002 -12.4909 -12.4909
-0.405086 -12.6417 -12.6417
-0.150586 -12.6493 -12.6493
-0.146507 -12.4984 -12.4984
-0.40264 -12.5663 -12.5663
-0.277833 -12.6455 -12.6455
-0.148542 -12.5738 -12.5738
-0.27335 -12.4946 -12.4946
-0.275588 -12.57 -12.57
-0.405086 -12.6417 -12.6417
-0.409992 -12.7931 -12.7931
-0.154702 -12.8007 -12.8007
-0.150586 -12.6493 -12.6493
-0.407537 -12.7173 -12.7173
-0.282344 -12.7968 -12.7968
-0.15264 -12.7249 -12.7249
-0.277833 -12.6455 -12.6455
-0.280085 -12.7211 -12.7211
-0.409992 -12.7931 -12.7931
-0.41492 -12.9448 -12.9448
-0.158852 -12.9525 -12.9525
-0.154702 -12.8007 -12.8007
-0.412454 -12.8689 -12.8689
-0.286883 -12.9486 -12.9486
-0.156772 -12.8765 -12.8765
-0.282344 -12.7968 -12.7968
-0.28461 -12.8727 -12.8727
-0.41492 -12.9448 -12.9448
-0.419867 -13.0971 -13.0971
-0.163036 -13.1048 -13.1048
-0.158852 -12.9525 -12.9525
-0.417391 -13.0209 -13.0209
-0.291449 -13.1009 -13.1009
-0.16094 -13.0286 -13.0286
-0.286883 -12.9486 -12.9486
-0.289162 -13.0247 -13.0247
-0.419867 -13.0971 -13.0971
-0.424834 -13.2497 -13.2497
-0.167255 -13.2575 -13.2575
-0.163036 -13.1048 -13.1048
-0.422348 -13.1733 -13.1733
-0.296042 -13.2536 -13.2536
-0.165141 -13.1811 -13.1811
-0.291449 -13.1009 -13.1009
-0.293742 -13.1772 -13.1772
-0.424834 -13.2497 -13.2497
-0.429821 -13.4029 -13.4029
-0.171507 -13.4107 -13.4107
-0.167255 -13.2575 -13.2575
-0.427325 -13.3262 -13.3262
-0.300661 -13.4067 -13.4067
-0.169377 -13.334 -13.334
-0.296042 -13.2536 -13.2536
-0.298348 -13.3301 -13.3301
-0.429821 -13.4029 -13.4029
-0.434826 -13.5564 -13.5564
-0.175792 -13.5643 -13.5643
-0.171507 -13.4107 -13.4107
-0.432321 -13.4796 -13.4796
-0.305306 -13.5603 -13.5603
-0.173645 -13.4874 -13.4874
-0.300661 -13.4067 -13.4067
-0.30298 -13.4834 -13.4834
-0.434826 -13.5564 -13.5564
-0.43985 -13.7104 -13.7104
-0.18011 -13.7183 -13.7183
-0.175792 -13.5643 -13.5643
-0.437336 -13.6333 -13.6333
-0.309977 -13.7143 -13.7143
-0.177947 -13.6412 -13.6412
-0.305306 -13.5603 -13.5603
-0.307639 -13.6372 -13.6372
-0.43985 -13.7104 -13.7104
-0.444892 -13.8648 -13.8648
-0.18446 -13.8727 -13.8727
-0.18011 -13.7183 -13.7183
-0.442369 -13.7875 -13.7875
-0.314673 -13.8687 -13.8687
-0.182281 -13.7954 -13.7954
-0.309977 -13.7143 -13.7143
-0.312322 -13.7914 -13.7914
-0.444892 -13.8648 -13.8648
-0.449951 -14.0196 -14.0196
-0.188842 -14.0275 -14.0275
-0.18446 -13.8727 -13.8727
-0.44742 -13.9421 -13.9421
-0.319394 -14.0235 -14.0235
-0.186647 -13.9501 -13.9501
-0.314673 -13.8687 -13.8687
-0.317031 -13.946 -13.946
-0.449951 -14.0196 -14.0196
-0.455028 -14.1748 -14.1748
-0.193256 -14.1828 -14.1828
-0.188842 -14.0275 -14.0275
-0.452488 -14.0971 -14.0971
-0.324139 -14.1787 -14.1787
-0.191045 -14.1051 -14.1051
-0.319394 -14.0235 -14.0235
-0.321764 -14.1011 -14.1011
-0.455028 -14.1748 -14.1748
-0.460121 -14.3303 -14.3303
-0.1977 -14.3384 -14.3384
-0.193256 -14.1828 -14.1828
-0.457572 -14.2525 -14.2525
-0.328908 -14.3343 -14.3343
-0.195474 -14.2605 -14.2605
-0.324139 -14.1787 -14.1787
-0.326521 -14.2565 -14.2565
-0.460121 -14.3303 -14.3303
-0.46523 -14.4863 -14.4863
-0.202175 -14.4944 -14.4944
-0.1977 -14.3384 -14.3384
-0.462674 -14.4083 -14.4083
-0.3337 -14.4903 -14.4903
-0.199934 -14.4163 -14.4163
-0.328908 -14.3343 -14.3343
-0.331301 -14.4123 -14.4123
-0.46523 -14.4863 -14.4863
-0.470355 -14.6426 -14.6426
-0.20668 -14.6508 -14.6508
-0.202175 -14.4944 -14.4944
-0.467791 -14.5644 -14.5644
-0.338515 -14.6467 -14.6467
-0.204424 -14.5725 -14.5725
-0.3337 -14.4903 -14.4903
-0.336105 -14.5684 -14.5684
-0.470355 -14.6426 -14.6426
-0.475496 -14.7993 -14.7993
-0.211214 -14.8075 -14.8075
-0.20668 -14.6508 -14.6508
-0.472924 -14.7209 -14.7209
-0.343353 -14.8034 -14.8034
-0.208943 -14.7291 -14.7291
-0.338515 -14.6467 -14.6467
-0.340931 -14.725 -14.725
-0.475496 -14.7993 -14.7993
-0.480651 -14.9564 -14.9564
-0.215777 -14.9646 -14.9646
-0.211214 -14.8075 -14.8075
-0.478071 -14.8778 -14.8778
-0.348212 -14.9604 -14.9604
-0.213492 -14.886 -14.886
-0.343353 -14.8034 -14.8034
-0.345779 -14.8819 -14.8819
-0.480651 -14.9564 -14.9564
-0.48582 -15.1138 -15.1138
-0.220369 -15.122 -15.122
-0.215777 -14.9646 -14.9646
-0.483234 -15.035 -15.035
-0.353093 -15.1179 -15.1179
-0.21807 -15.0432 -15.0432
-0.348212 -14.9604 -14.9604
-0.35065 -15.0391 -15.0391
-0.48582 -15.1138 -15.1138
-0.491004 -15.2715 -15.2715
-0.224989 -15.2798 -15.2798
-0.220369 -15.122 -15.122
-0.48841 -15.1926 -15.1926
-0.357994 -15.2756 -15.2756
-0.222676 -15.2008 -15.2008
-0.353093 -15.1179 -15.1179
-0.355541 -15.1967 -15.1967
-0.491004 -15.2715 -15.2715
-0.4962 -15.4296 -15.4296
-0.229637 -15.4379 -15.4379
-0.224989 -15.2798 -15.2798
-0.4936 -15.3505 -15.3505
-0.362916 -15.4337 -15.4337
-0.22731 -15.3588 -15.3588
-0.357994 -15.2756 -15.2756
-0.360453 -15.3546 -15.3546
-0.4962 -15.4296 -15.4296
-0.50141 -15.588 -15.588
-0.234312 -15.5963 -15.5963
-0.229637 -15.4379 -15.4379
-0.498803 -15.5087 -15.5087
-0.367859 -15.5921 -15.5921
-0.231971 -15.517 -15.517
-0.362916 -15.4337 -15.4337
-0.365385 -15.5129 -15.5129
-0.50141 -15.588 -15.588
-0.506632 -15.7467 -15.7467
-0.239013 -15.755 -15.755
-0.234312 -15.5963 -15.5963
-0.504019 -15.6673 -15.6673
-0.37282 -15.7508 -15.7508
-0.236659 -15.6756 -15.6756
-0.367859 -15.5921 -15.5921
-0.370337 -15.6714 -15.6714
-0.506632 -15.7467 -15.7467
-0.511865 -15.9057 -15.9057
-0.243741 -15.9141 -15.9141
-0.239013 -15.755 -15.755
-0.509247 -15.8261 -15.8261
-0.377801 -15.9098 -15.9098
-0.241374 -15.8345 -15.8345
-0.37282 -15.7508 -15.7508
-0.375308 -15.8303 -15.8303
-0.511865 -15.9057 -15.9057
-0.517111 -16.065 -16.065
-0.248494 -16.0734 -16.0734
-0.243741 -15.9141 -15.9141
-0.514487 -15.9853 -15.9853
-0.3828 -16.0691 -16.0691
-0.246114 -15.9937 -15.9937
-0.377801 -15.9098 -15.9098
-0.380299 -15.9894 -15.9894
-0.517111 -16.065 -16.065
-0.522367 -16.2245 -16.2245
-0.253273 -16.233 -16.233
-0.248494 -16.0734 -16.0734
-0.519737 -16.1447 -16.1447
-0.387818 -16.2287 -16.2287
-0.25088 -16.1532 -16.1532
-0.3828 -16.0691 -16.0691
-0.385307 -16.1489 -16.1489
-0.522367 -16.2245 -16.2245
-0.527633 -16.3844 -16.3844
-0.258076 -16.3929 -16.3929
-0.253273 -16.233 -16.233
-0.524999 -16.3044 -16.3044
-0.392853 -16.3886 -16.3886
-0.255671 -16.3129 -16.3129
-0.387818 -16.2287 -16.2287
-0.390333 -16.3087 -16.3087
-0.527633 -16.3844 -16.3844
-0.532909 -16.5445 -16.5445
-0.262903 -16.5531 -16.5531
-0.258076 -16.3929 -16.3929
-0.53027 -16.4644 -16.4644
-0.397905 -16.5488 -16.5488
-0.260487 -16.473 -16.473
-0.392853 -16.3886 -16.3886
-0.395376 -16.4687 -16.4687
-0.532909 -16.5445 -16.5445
-0.538195 -16.7049 -16.7049
-0.267754 -16.7135 -16.7135
-0.262903 -16.5531 -16.5531
-0.535551 -16.6247 -16.6247
-0.402973 -16.7092 -16.7092
-0.265326 -16.6332 -16.6332
-0.397905 -16.5488 -16.5488
-0.400437 -16.629 -16.629
-0.538195 -16.7049 -16.7049
-0.54349 -16.8656 -16.8656
-0.272628 -16.8742 -16.8742
-0.267754 -16.7135 -16.7135
-0.540842 -16.7852 -16.7852
-0.408057 -16.8699 -16.8699
-0.270188 -16.7938 -16.7938
-0.402973 -16.7092 -16.7092
-0.405513 -16.7895 -16.7895
-0.54349 -16.8656 -16.8656
-0.548793 -17.0265 -17.0265
-0.277525 -17.0351 -17.0351
-0.272628 -16.8742 -16.8742
-0.54614 -16.946 -16.946
-0.413157 -17.0308 -17.0308
-0.275074 -16.9546 -16.9546
-0.408057 -16.8699 -16.8699
-0.410605 -16.9503 -16.9503
-0.548793 -17.0265 -17.0265
-0.554104 -17.1876 -17.1876
-0.282444 -17.1963 -17.1963
-0.277525 -17.0351 -17.0351
-0.551448 -17.107 -17.107
-0.418272 -17.1919 -17.1919
-0.279982 -17.1156 -17.1156
-0.413157 -17.0308 -17.0308
-0.415713 -17.1113 -17.1113
-0.554104 -17.1876 -17.1876
-0.559422 -17.349 -17.349
-0.287384 -17.3576 -17.3576
-0.282444 -17.1963 -17.1963
-0.556762 -17.2683 -17.2683
-0.423402 -17.3533 -17.3533
-0.284911 -17.2769 -17.2769
-0.418272 -17.1919 -17.1919
-0.420835 -17.2726 -17.2726
-0.559422 -17.349 -17.349
-0.564747 -17.5106 -17.5106
-0.292346 -17.5192 -17.5192
-0.287384 -17.3576 -17.3576
-0.562084 -17.4298 -17.4298
-0.428545 -17.5149 -17.5149
-0.289863 -17.4384 -17.4384
-0.423402 -17.3533 -17.3533
-0.425972 -17.4341 -17.4341
-0.564747 -17.5106 -17.5106
-0.570079 -17.6724 -17.6724
-0.297328 -17.6811 -17.6811
-0.292346 -17.5192 -17.5192
-0.567412 -17.5914 -17.5914
-0.433702 -17.6767 -17.6767
-0.294834 -17.6001 -17.6001
-0.428545 -17.5149 -17.5149
-0.431122 -17.5958 -17.5958
-0.570079 -17.6724 -17.6724
-0.575416 -17.8344 -17.8344
-0.30233 -17.8431 -17.8431
-0.297328 -17.6811 -17.6811
-0.572747 -17.7533 -17.7533
-0.438872 -17.8387 -17.8387
-0.299827 -17.762 -17.762
-0.433702 -17.6767 -17.6767
-0.436285 -17.7577 -17.7577
-0.575416 -17.8344 -17.8344
-0.580759 -17.9966 -17.9966
-0.307352 -18.0053 -18.0053
-0.30233 -17.8431 -17.8431
-0.578087 -17.9154 -17.9154
-0.444054 -18.0009 -18.0009
-0.304839 -17.9242 -17.9242
-0.438872 -17.8387 -17.8387
-0.441461 -17.9198 -17.9198
-0.580759 -17.9966 -17.9966
-0.586106 -18.1589 -18.1589
-0.312393 -18.1677 -18.1677
-0.307352 -18.0053 -18.0053
-0.583432 -18.0777 -18.0777
-0.449248 -18.1633 -18.1633
-0.30987 -18.0865 -18.0865
-0.444054 -18.0009 -18.0009
-0.44665 -18.0821 -18.0821
-0.586106 -18.1589 -18.1589
-0.591457 -18.3215 -18.3215
-0.317452 -18.3303 -18.3303
-0.312393 -18.1677 -18.1677
-0.588781 -18.2402 -18.2402
-0.454454 -18.3259 -18.3259
-0.31492 -18.249 -18.249
-0.449248 -18.1633 -18.1633
-0.451849 -18.2446 -18.2446
-0.591457 -18.3215 -18.3215
-0.596813 -18.4842 -18.4842
-0.322529 -18.493 -18.493
-0.317452 -18.3303 -18.3303
-0.594135 -18.4028 -18.4028
-0.45967 -18.4886 -18.4886
-0.319988 -18.4116 -18.4116
-0.454454 -18.3259 -18.3259
-0.45706 -18.4072 -18.4072
-0.596813 -18.4842 -18.4842
-0.602171 -18.6471 -18.6471
-0.327624 -18.6559 -18.6559
-0.322529 -18.493 -18.493
-0.599491 -18.5656 -18.5656
-0.464896 -18.6515 -18.6515
-0.325074 -18.5744 -18.5744
-0.45967 -18.4886 -18.4886
-0.462282 -18.57 -18.57
-0.602171 -18.6471 -18.6471
-0.607532 -18.8101 -18.8101
-0.332735 -18.819 -18.819
-0.327624 -18.6559 -18.6559
-0.604851 -18.7286 -18.7286
-0.470133 -18.8145 -18.8145
-0.330178 -18.7374 -18.7374
-0.464896 -18.6515 -18.6515
-0.467513 -18.733 -18.733
-0.607532 -18.8101 -18.8101
-0.612895 -18.9733 -18.9733
-0.337863 -18.9822 -18.9822
-0.332735 -18.819 -18.819
-0.610213 -18.8917 -18.8917
-0.475378 -18.9777 -18.9777
-0.335297 -18.9005 -18.9005
-0.470133 -18.8145 -18.8145
-0.472754 -18.8961 -18.8961
-0.612895 -18.9733 -18.9733
-0.61826 -19.1366 -19.1366
-0.343007 -19.1455 -19.1455
-0.337863 -18.9822 -18.9822
-0.615577 -19.055 -19.055
-0.480632 -19.1411 -19.1411
-0.340433 -19.0638 -19.0638
-0.475378 -18.9777 -18.9777
-0.478004 -19.0594 -19.0594
-0.61826 -19.1366 -19.1366
-0.623625 -19.3001 -19.3001
-0.348166 -19.309 -19.309
-0.343007 -19.1455 -19.1455
-0.620942 -19.2184 -19.2184
-0.485895 -19.3045 -19.3045
-0.345585 -19.2272 -19.2272
-0.480632 -19.1411 -19.1411
-0.483263 -19.2228 -19.2228
-0.623625 -19.3001 -19.3001
-0.628991 -19.4637 -19.4637
-0.35334 -19.4725 -19.4725
-0.348166 -19.309 -19.309
-0.626308 -19.3819 -19.3819
-0.491165 -19.4681 -19.4681
-0.350751 -19.3907 -19.3907
-0.485895 -19.3045 -19.3045
-0.488529 -19.3863 -19.3863
-0.628991 -19.4637 -19.4637
-0.634358 -19.6273 -19.6273
-0.358528 -19.6362 -19.6362
-0.35334 -19.4725 -19.4725
-0.631675 -19.5455 -19.5455
-0.496442 -19.6318 -19.6318
-0.355932 -19.5544 -19.5544
-0.491165 -19.4681 -19.4681
-0.493802 -19.5499 -19.5499
-0.634358 -19.6273 -19.6273
-0.639723 -19.7911 -19.7911
-0.36373 -19.8 -19.8
-0.358528 -19.6362 -19.6362
-0.63704 -19.7092 -19.7092
-0.501726 -19.7955 -19.7955
-0.361127 -19.7181 -19.7181
-0.496442 -19.6318 -19.6318
-0.499083 -19.7136 -19.7136
-0.639723 -19.7911 -19.7911
-0.645087 -19.955 -19.955
-0.368945 -19.9639 -19.9639
-0.36373 -19.8 -19.8
-0.642405 -19.873 -19.873
-0.507016 -19.9594 -19.9594
-0.366335 -19.8819 -19.8819
-0.501726 -19.7955 -19.7955
-0.50437 -19.8775 -19.8775
-0.645087 -19.955 -19.955
-0.65045 -20.1189 -20.1189
-0.374173 -20.1278 -20.1278
-0.368945 -19.9639 -19.9639
-0.647769 -20.0369 -20.0369
-0.512311 -20.1234 -20.1234
-0.371557 -20.0459 -20.0459
-0.507016 -19.9594 -19.9594
-0.509663 -20.0414 -20.0414
-0.65045 -20.1189 -20.1189
-0.65581 -20.283 -20.283
-0.379414 -20.2919 -20.2919
-0.374173 -20.1278 -20.1278
-0.65313 -20.2009 -20.2009
-0.517612 -20.2874 -20.2874
-0.376792 -20.2099 -20.2099
-0.512311 -20.1234 -20.1234
-0.514961 -20.2054 -20.2054
-0.65581 -20.283 -20.283
-0.661166 -20.4471 -20.4471
-0.384668 -20.456 -20.456
-0.379414 -20.2919 -20.2919
-0.658488 -20.365 -20.365
-0.522917 -20.4515 -20.4515
-0.38204 -20.3739 -20.3739
-0.517612 -20.2874 -20.2874
-0.520264 -20.3695 -20.3695
-0.661166 -20.4471 -20.4471
-0.666518 -20.6112 -20.6112
-0.389936 -20.6202 -20.6202
-0.384668 -20.456 -20.456
-0.663842 -20.5291 -20.5291
-0.528227 -20.6157 -20.6157
-0.3873 -20.5381 -20.5381
-0.522917 -20.4515 -20.4515
-0.525571 -20.5336 -20.5336
-0.666518 -20.6112 -20.6112
-0.671863 -20.7754 -20.7754
-0.395216 -20.7844 -20.7844
-0.389936 -20.6202 -20.6202
-0.669191 -20.6933 -20.6933
-0.53354 -20.7799 -20.7799
-0.392574 -20.7023 -20.7023
-0.528227 -20.6157 -20.6157
-0.530883 -20.6978 -20.6978
-0.671863 -20.7754 -20.7754
-0.677203 -20.9397 -20.9397
-0.400509 -20.9487 -20.9487
-0.395216 -20.7844 -20.7844
-0.674534 -20.8576 -20.8576
-0.538856 -20.9442 -20.9442
-0.397861 -20.8665 -20.8665
-0.53354 -20.7799 -20.7799
-0.536198 -20.862 -20.862
-0.677203 -20.9397 -20.9397
-0.682535 -21.104 -21.104
-0.405813 -21.1129 -21.1129
-0.400509 -20.9487 -20.9487
-0.67987 -21.0219 -21.0219
-0.544174 -21.1085 -21.1085
-0.40316 -21.0308 -21.0308
-0.538856 -20.9442 -20.9442
-0.541515 -21.0263 -21.0263
-0.682535 -21.104 -21.104
-0.687863 -21.2683 -21.2683
-0.411122 -21.2772 -21.2772
-0.405813 -21.1129 -21.1129
-0.6852 -21.1861 -21.1861
-0.549493 -21.2728 -21.2728
-0.408467 -21.1951 -21.1951
-0.544174 -21.1085 -21.1085
-0.546834 -21.1906 -21.1906
-0.687863 -21.2683 -21.2683
-0.693187 -21.4325 -21.4325
-0.41643 -21.4415 -21.4415
-0.411122 -21.2772 -21.2772
-0.690525 -21.3504 -21.3504
-0.554808 -21.437 -21.437
-0.413777 -21.3594 -21.3594
-0.549493 -21.2728 -21.2728
-0.552151 -21.3549 -21.3549
-0.693187 -21.4325 -21.4325
-0.698512 -21.5967 -21.5967
-0.421724 -21.6057 -21.6057
-0.41643 -21.4415 -21.4415
-0.69585 -21.5146 -21.5146
-0.560117 -21.6012 -21.6012
-0.419079 -21.5236 -21.5236
-0.554808 -21.437 -21.437
-0.557464 -21.5191 -21.5191
0 0 0
0.00120799 0.000194637 0.000194637
0.00370918 -0.000394332 -0.000394332
0 0 0
0.000600976 0.000398289 0.000398289
0.00244918 -2.74464e-05 -2.74464e-05
0.00179796 0.000107827 0.000107827
0 0 0
0.00118844 0.000298847 0.000298847
0.00120799 0.000194637 0.000194637
0.00251817 -0.00189353 -0.00189353
0.00770228 -0.00291896 -0.00291896
0.00370918 -0.000394332 -0.000394332
0.00185076 -0.000582063 -0.000582063
0.0050867 -0.00226707 -0.00226707
0.00568089 -0.0014154 -0.0014154
0.00244918 -2.74464e-05 -2.74464e-05
0.00375137 -0.000892432 -0.000892432
0.00251817 -0.00189353 -0.00189353
0.00387479 -0.00598521 -0.00598521
0.0118606 -0.0072804 -0.0072804
0.00770228 -0.00291896 -0.00291896
0.00319304 -0.00370251 -0.00370251
0.00783439 -0.00646534 -0.00646534
0.00976899 -0.00488198 -0.00488198
0.0050867 -0.00226707 -0.00226707
0.00645103 -0.00413401 -0.00413401
0.00387479 -0.00598521 -0.00598521
0.00525867 -0.011898 -0.011898
0.0160507 -0.0133165 -0.0133165
0.0118606 -0.0072804 -0.0072804
0.00456518 -0.0087222 -0.0087222
0.010621 -0.0124301 -0.0124301
0.0139565 -0.0100937 -0.0100937
0.00783439 -0.00646534 -0.00646534
0.0092264 -0.00923439 -0.00923439
0.00525867 -0.011898 -0.011898
0.00663661 -0.0195192 -0.0195192
0.0202225 -0.0209827 -0.0209827
0.0160507 -0.0133165 -0.0133165
0.0059493 -0.0154996 -0.0154996
0.013401 -0.0200735 -0.0200735
0.0181408 -0.0169471 -0.0169471
0.010621 -0.0124301 -0.0124301
0.0120136 -0.0160453 -0.0160453
0.00663661 -0.0195192 -0.0195192
0.00800122 -0.0287912 -0.0287912
0.0243501 -0.030262 -0.030262
0.0202225 -0.0209827 -0.0209827
0.00732103 -0.0239511 -0.0239511
0.0161528 -0.0293505 -0.0293505
0.0222922 -0.0254211 -0.0254211
0.013401 -0.0200735 -0.0200735
0.014781 -0.0245093 -0.0245093
0.00800122 -0.0287912 -0.0287912
0.00934502 -0.0396836 -0.0396836
0.0284339 -0.0411514 -0.0411514
0.0243501 -0.030262 -0.030262
0.00867579 -0.034036 -0.034036
0.0188713 -0.0402435 -0.0402435
0.0263973 -0.0355057 -0.0355057
0.0161528 -0.0293505 -0.0293505
0.0175163 -0.0345957 -0.0345957
0.00934502 -0.0396836 -0.0396836
0.0106689 -0.0521816 -0.0521816
0.0324752 -0.0536457 -0.0536457
0.0284339 -0.0411514 -0.0411514
0.0100094 -0.0457326 -0.0457326
0.0215571 -0.0527414 -0.0527414
0.0304596 -0.0471983 -0.0471983
0.0188713 -0.0402435 -0.0402435
0.0202181 -0.0462923 -0.0462923
0.0106689 -0.0521816 -0.0521816
0.0119727 -0.0662757 -0.0662757
0.0364782 -0.0677394 -0.0677394
0.0324752 -0.0536457 -0.0536457
0.0113233 -0.0590296 -0.0590296
0.0242125 -0.0668368 -0.0668368
0.0344813 -0.060493 -0.060493
0.0215571 -0.0527414 -0.0527414
0.0228884 -0.0595899 -0.0595899
0.0119727 -0.0662757 -0.0662757
0.0132573 -0.0819583 -0.0819583
0.0404451 -0.0834257 -0.0834257
0.0364782 -0.0677394 -0.0677394
0.0126173 -0.0739189 -0.0739189
0.0268394 -0.0825225 -0.0825225
0.0384661 -0.075384 -0.075384
0.0242125 -0.0668368 -0.0668368
0.0255294 -0.0744814 -0.0744814
0.0132573 -0.0819583 -0.0819583
0.0145227 -0.0992224 -0.0992224
0.0443774 -0.100697 -0.100697
0.0404451 -0.0834257 -0.0834257
0.0138924 -0.0903931 -0.0903931
0.029439 -0.0997913 -0.0997913
0.0424155 -0.0918637 -0.0918637
0.0268394 -0.0825225 -0.0825225
0.0281426 -0.0909595 -0.0909595
0.0145227 -0.0992224 -0.0992224
0.015769 -0.11806 -0.11806
0.0482755 -0.119545 -0.119545
0.0443774 -0.100697 -0.100697
0.0151483 -0.108445 -0.108445
0.0320116 -0.118635 -0.118635
0.0463307 -0.109924 -0.109924
0.029439 -0.0997913 -0.0997913
0.0307287 -0.109017 -0.109017
0.015769 -0.11806 -0.11806
0.0169956 -0.138465 -0.138465
0.0521393 -0.139962 -0.139962
0.0482755 -0.119545 -0.119545
0.0163848 -0.128067 -0.128067
0.0345571 -0.139047 -0.139047
0.0502117 -0.129558 -0.129558
0.0320116 -0.118635 -0.118635
0.0332878 -0.128646 -0.128646
0.0169956 -0.138465 -0.138465
0.0182019 -0.160427 -0.160427
0.0559684 -0.161938 -0.161938
0.0521393 -0.139962 -0.139962
0.0176014 -0.149252 -0.149252
0.037075 -0.161017 -0.161017
0.0540582 -0.150756 -0.150756
0.0345571 -0.139047 -0.139047
0.0358195 -0.149838 -0.149838
0.0182019 -0.160427 -0.160427
0.0193872 -0.18394 -0.18394
0.0597622 -0.185467 -0.185467
0.0559684 -0.161938 -0.161938
0.0187973 -0.17199 -0.17199
0.0395646 -0.184539 -0.184539
0.0578698 -0.173509 -0.173509
0.037075 -0.161017 -0.161017
0.0383234 -0.172585 -0.172585
0.0193872 -0.18394 -0.18394
0.0205507 -0.208994 -0.208994
0.0635198 -0.210539 -0.210539
0.0597622 -0.185467 -0.185467
0.0199717 -0.196275 -0.196275
0.0420253 -0.209603 -0.209603
0.0616456 -0.197811 -0.197811
0.0395646 -0.184539 -0.184539
0.0407986 -0.196879 -0.196879
0.0205507 -0.208994 -0.208994
0.0216916 -0.235581 -0.235581
0.0672406 -0.237145 -0.237145
0.0635198 -0.210539 -0.210539
0.021124 -0.222096 -0.222096
0.0444562 -0.2362 -0.2362
0.0653849 -0.223651 -0.223651
0.0420253 -0.209603 -0.209603
0.0432445 -0.22271 -0.22271
0.0216916 -0.235581 -0.235581
0.022809 -0.263693 -0.263693
0.0709236 -0.265278 -0.265278
0.0672406 -0.237145 -0.237145
0.0222533 -0.249447 -0.249447
0.0468565 -0.264324 -0.264324
0.0690868 -0.251021 -0.251021
0.0444562 -0.2362 -0.2362
0.0456602 -0.250072 -0.250072
0.022809 -0.263693 -0.263693
0.0239022 -0.293321 -0.293321
0.074568 -0.294928 -0.294928
0.0709236 -0.265278 -0.265278
0.0233587 -0.278318 -0.278318
0.0492254 -0.293964 -0.293964
0.0727507 -0.279914 -0.279914
0.0468565 -0.264324 -0.264324
0.0480449 -0.278955 -0.278955
0.0239022 -0.293321 -0.293321
0.0249704 -0.324457 -0.324457
0.0781732 -0.326087 -0.326087
0.074568 -0.294928 -0.294928
0.0244395 -0.308701 -0.308701
0.0515622 -0.325112 -0.325112
0.0763756 -0.31032 -0.31032
0.0492254 -0.293964 -0.293964
0.0503979 -0.30935 -0.30935
0.0249704 -0.324457 -0.324457
0.0260128 -0.357093 -0.357093
0.0817382 -0.358747 -0.358747
0.0781732 -0.326087 -0.326087
0.0254949 -0.340588 -0.340588
0.0538659 -0.357761 -0.357761
0.0799608 -0.34223 -0.34223
0.0515622 -0.325112 -0.325112
0.0527182 -0.34125 -0.34125
0.0260128 -0.357093 -0.357093
0.0270286 -0.391219 -0.391219
0.0852623 -0.392899 -0.392899
0.0817382 -0.358747 -0.358747
0.0265241 -0.37397 -0.37397
0.056136 -0.391901 -0.391901
0.0835054 -0.375637 -0.375637
0.0538659 -0.357761 -0.357761
0.0550052 -0.374645 -0.374645
0.0270286 -0.391219 -0.391219
0.0280171 -0.426827 -0.426827
0.0887448 -0.428534 -0.428534
0.0852623 -0.392899 -0.392899
0.0275263 -0.408838 -0.408838
0.0583715 -0.427523 -0.427523
0.0870088 -0.410532 -0.410532
0.056136 -0.391901 -0.391901
0.0572581 -0.409527 -0.409527
0.0280171 -0.426827 -0.426827
0.0289775 -0.463909 -0.463909
0.0921849 -0.465645 -0.465645
0.0887448 -0.428534 -0.428534
0.0285008 -0.445184 -0.445184
0.0605719 -0.46462 -0.46462
0.0904702 -0.446906 -0.446906
0.0583715 -0.427523 -0.427523
0.0594762 -0.445888 -0.445888
0.0289775 -0.463909 -0.463909
0.0299091 -0.502456 -0.502456
0.0955818 -0.504222 -0.504222
0.0921849 -0.465645 -0.465645
0.0294469 -0.483 -0.483
0.0627362 -0.503183 -0.503183
0.0938888 -0.48475 -0.48475
0.0605719 -0.46462 -0.46462
0.0616586 -0.483719 -0.483719
0.0299091 -0.502456 -0.502456
0.0308112 -0.54246 -0.54246
0.098935 -0.544256 -0.544256
0.0955818 -0.504222 -0.504222
0.0303639 -0.522276 -0.522276
0.0648639 -0.543203 -0.543203
0.0972639 -0.524057 -0.524057
0.0627362 -0.503183 -0.503183
0.0638047 -0.523012 -0.523012
0.0308112 -0.54246 -0.54246
0.0316831 -0.583912 -0.583912
0.102244 -0.58574 -0.58574
0.098935 -0.544256 -0.544256
0.0312509 -0.563005 -0.563005
0.0669542 -0.584672 -0.584672
0.100595 -0.564818 -0.564818
0.0648639 -0.543203 -0.543203
0.0659138 -0.563757 -0.563757
0.0316831 -0.583912 -0.583912
0.032524 -0.626804 -0.626804
0.105507 -0.628665 -0.628665
0.102244 -0.58574 -0.58574
0.0321074 -0.605178 -0.605178
0.0690064 -0.627582 -0.627582
0.103881 -0.607023 -0.607023
0.0669542 -0.584672 -0.584672
0.0679851 -0.605947 -0.605947
0.032524 -0.626804 -0.626804
0.0333334 -0.671127 -0.671127
0.108724 -0.673023 -0.673023
0.105507 -0.628665 -0.628665
0.0329327 -0.648787 -0.648787
0.07102 -0.671923 -0.671923
0.107121 -0.650666 -0.650666
0.0690064 -0.627582 -0.627582
0.0700181 -0.649574 -0.649574
0.0333334 -0.671127 -0.671127
0.0341106 -0.716872 -0.716872
0.111895 -0.718804 -0.718804
0.108724 -0.673023 -0.673023
0.0337261 -0.693822 -0.693822
0.0729941 -0.717687 -0.717687
0.110316 -0.695736 -0.695736
0.07102 -0.671923 -0.671923
0.072012 -0.694628 -0.694628
0.0341106 -0.716872 -0.716872
0.034855 -0.764032 -0.764032
0.115019 -0.766 -0.766
0.111895 -0.718804 -0.718804
0.0344869 -0.740276 -0.740276
0.0749282 -0.764866 -0.764866
0.113463 -0.742226 -0.742226
0.0729941 -0.717687 -0.717687
0.0739662 -0.7411 -0.7411
0.034855 -0.764032 -0.764032
0.0355658 -0.812598 -0.812598
0.118095 -0.814604 -0.814604
0.115019 -0.766 -0.766
0.0352146 -0.78814 -0.78814
0.0768217 -0.813452 -0.813452
0.116563 -0.790127 -0.790127
0.0749282 -0.764866 -0.764866
0.07588 -0.788984 -0.788984
0.0355658 -0.812598 -0.812598
0.0362425 -0.862561 -0.862561
0.121123 -0.864605 -0.864605
0.118095 -0.814604 -0.814604
0.0359085 -0.837405 -0.837405
0.0786738 -0.863435 -0.863435
0.119615 -0.83943 -0.83943
0.0768217 -0.813452 -0.813452
0.0777529 -0.838269 -0.838269
0.0362425 -0.862561 -0.862561
0.0368846 -0.913913 -0.913913
0.124101 -0.915996 -0.915996
0.121123 -0.864605 -0.864605
0.0365679 -0.888064 -0.888064
0.0804842 -0.914807 -0.914807
0.122618 -0.890128 -0.890128
0.0786738 -0.863435 -0.863435
0.0795843 -0.888948 -0.888948
0.0368846 -0.913913 -0.913913
0.0374913 -0.966645 -0.966645
0.12703 -0.968769 -0.968769
0.124101 -0.915996 -0.915996
0.0371924 -0.940107 -0.940107
0.0822521 -0.96756 -0.96756
0.125572 -0.94221 -0.94221
0.0804842 -0.914807 -0.914807
0.0813735 -0.941011 -0.941011
0.0374913 -0.966645 -0.966645
0.0380623 -1.02075 -1.02075
0.129909 -1.02291 -1.02291
0.12703 -0.968769 -0.968769
0.0377813 -0.993525 -0.993525
0.0839769 -1.02169 -1.02169
0.128476 -0.99567 -0.99567
0.0822521 -0.96756 -0.96756
0.0831199 -0.994452 -0.994452
0.0380623 -1.02075 -1.02075
0.0385967 -1.07621 -1.07621
0.132737 -1.07842 -1.07842
0.129909 -1.02291 -1.02291
0.0383341 -1.04831 -1.04831
0.0856582 -1.07717 -1.07717
0.131329 -1.0505 -1.0505
0.0839769 -1.02169 -1.02169
0.084823 -1.04926 -1.04926
0.0385967 -1.07621 -1.07621
0.0390943 -1.13304 -1.13304
0.135513 -1.13529 -1.13529
0.132737 -1.07842 -1.07842
0.0388502 -1.10446 -1.10446
0.0872954 -1.13402 -1.13402
0.134131 -1.10669 -1.10669
0.0856582 -1.07717 -1.07717
0.0864823 -1.10543 -1.10543
0.0390943 -1.13304 -1.13304
0.0395543 -1.1912 -1.1912
0.138238 -1.1935 -1.1935
0.135513 -1.13529 -1.13529
0.039329 -1.16195 -1.16195
0.0888879 -1.19221 -1.19221
0.136882 -1.16423 -1.16423
0.0872954 -1.13402 -1.13402
0.0880973 -1.16295 -1.16295
0.0395543 -1.1912 -1.1912
0.0399764 -1.25071 -1.25071
0.140911 -1.25305 -1.25305
0.138238 -1.1935 -1.1935
0.0397701 -1.22079 -1.22079
0.0904353 -1.25174 -1.25174
0.139581 -1.22311 -1.22311
0.0888879 -1.19221 -1.19221
0.0896673 -1.22181 -1.22181
0.0399764 -1.25071 -1.25071
0.0403599 -1.31154 -1.31154
0.14353 -1.31393 -1.31393
0.140911 -1.25305 -1.25305
0.040173 -1.28096 -1.28096
0.091937 -1.3126 -1.3126
0.142227 -1.28332 -1.28332
0.0904353 -1.25174 -1.25174
0.0911919 -1.282 -1.282
0.0403599 -1.31154 -1.31154
0.0407045 -1.3737 -1.3737
0.146097 -1.37613 -1.37613
0.14353 -1.31393 -1.31393
0.0405371 -1.34246 -1.34246
0.0933925 -1.37478 -1.37478
0.14482 -1.34487 -1.34487
0.091937 -1.3126 -1.3126
0.0926705 -1.34352 -1.34352
0.0407045 -1.3737 -1.3737
0.0410096 -1.43717 -1.43717
0.14861 -1.43965 -1.43965
0.146097 -1.37613 -1.37613
0.040862 -1.40527 -1.40527
0.0948014 -1.43827 -1.43827
0.14736 -1.40773 -1.40773
0.0933925 -1.37478 -1.37478
0.0941028 -1.40636 -1.40636
0.0410096 -1.43717 -1.43717
0.0412748 -1.50194 -1.50194
0.151068 -1.50447 -1.50447
0.14861 -1.43965 -1.43965
0.0411472 -1.46939 -1.46939
0.0961632 -1.50306 -1.50306
0.149846 -1.47189 -1.47189
0.0948014 -1.43827 -1.43827
0.0954882 -1.4705 -1.4705
0.0412748 -1.50194 -1.50194
0.0414995 -1.568 -1.568
0.153472 -1.57058 -1.57058
0.151068 -1.50447 -1.50447
0.0413922 -1.53481 -1.53481
0.0974775 -1.56916 -1.56916
0.152277 -1.53736 -1.53736
0.0961632 -1.50306 -1.50306
0.0968263 -1.53595 -1.53595
0.0414995 -1.568 -1.568
0.0416835 -1.63536 -1.63536
0.15582 -1.63799 -1.63799
0.153472 -1.57058 -1.57058
0.0415966 -1.60152 -1.60152
0.0987438 -1.63654 -1.63654
0.154653 -1.60412 -1.60412
0.0974775 -1.56916 -1.56916
0.0981167 -1.60269 -1.60269
0.0416835 -1.63536 -1.63536
0.0418262 -1.70399 -1.70399
0.158113 -1.70667 -1.70667
0.15582 -1.63799 -1.63799
0.04176 -1.66951 -1.66951
0.0999617 -1.70519 -1.70519
0.156974 -1.67217 -1.67217
0.0987438 -1.63654 -1.63654
0.0993588 -1.6707 -1.6707
0.0418262 -1.70399 -1.70399
0.0419273 -1.77389 -1.77389
0.16035 -1.77662 -1.77662
0.158113 -1.70667 -1.70667
0.041882 -1.73878 -1.73878
0.101131 -1.77512 -1.77512
0.159239 -1.74149 -1.74149
0.0999617 -1.70519 -1.70519
0.100552 -1.74 -1.74
0.0419273 -1.77389 -1.77389
0.0419863 -1.84505 -1.84505
0.162531 -1.84783 -1.84783
0.16035 -1.77662 -1.77662
0.0419621 -1.80931 -1.80931
0.102251 -1.84631 -1.84631
0.161447 -1.81207 -1.81207
0.101131 -1.77512 -1.77512
0.101697 -1.81056 -1.81056
0.0419863 -1.84505 -1.84505
0.0420029 -1.91747 -1.91747
0.164655 -1.9203 -1.9203
0.162531 -1.84783 -1.84783
0.0419999 -1.8811 -1.8811
0.103321 -1.91875 -1.91875
0.1636 -1.88391 -1.88391
0.102251 -1.84631 -1.84631
0.102792 -1.88237 -1.88237
0.0420029 -1.91747 -1.91747
0.0419767 -1.99113 -1.99113
0.166721 -1.99401 -1.99401
0.164655 -1.9203 -1.9203
0.0419951 -1.95414 -1.95414
0.104341 -1.99244 -1.99244
0.165695 -1.957 -1.957
0.103321 -1.91875 -1.91875
0.103837 -1.95544 -1.95544
0.0419767 -1.99113 -1.99113
0.0419072 -2.06602 -2.06602
0.16873 -2.06896 -2.06896
0.166721 -1.99401 -1.99401
0.0419474 -2.02842 -2.02842
0.105311 -2.06736 -2.06736
0.167733 -2.03133 -2.03133
0.104341 -1.99244 -1.99244
0.104832 -2.02975 -2.02975
0.0419072 -2.06602 -2.06602
0.0417943 -2.14214 -2.14214
0.170682 -2.14514 -2.14514
0.16873 -2.06896 -2.06896
0.0418562 -2.10393 -2.10393
0.10623 -2.14351 -2.14351
0.169713 -2.1069 -2.1069
0.105311 -2.06736 -2.06736
0.105777 -2.10528 -2.10528
0.0417943 -2.14214 -2.14214
0.0416375 -2.21948 -2.21948
0.172575 -2.22253 -2.22253
0.170682 -2.14514 -2.14514
0.0417214 -2.18066 -2.18066
0.107099 -2.22088 -2.22088
0.171636 -2.18368 -2.18368
0.10623 -2.14351 -2.14351
0.106671 -2.18204 -2.18204
0.0416375 -2.21948 -2.21948
0.0414366 -2.29804 -2.29804
0.17441 -2.30114 -2.30114
0.172575 -2.22253 -2.22253
0.0415426 -2.25861 -2.25861
0.107916 -2.29946 -2.29946
0.1735 -2.26169 -2.26169
0.107099 -2.22088 -2.22088
0.107513 -2.26002 -2.26002
0.0414366 -2.29804 -2.29804
0.0411911 -2.37779 -2.37779
0.176186 -2.38095 -2.38095
0.17441 -2.30114 -2.30114
0.0413194 -2.33776 -2.33776
0.108681 -2.37924 -2.37924
0.175305 -2.3409 -2.3409
0.107916 -2.29946 -2.29946
0.108305 -2.3392 -2.3392
0.0411911 -2.37779 -2.37779
0.0409009 -2.45873 -2.45873
0.177902 -2.46195 -2.46195
0.176186 -2.38095 -2.38095
0.0410516 -2.41811 -2.41811
0.109394 -2.46022 -2.46022
0.177051 -2.4213 -2.4213
0.108681 -2.37924 -2.37924
0.109044 -2.41958 -2.41958
0.0409009 -2.45873 -2.45873
0.0405656 -2.54087 -2.54087
0.17956 -2.54414 -2.54414
0.177902 -2.46195 -2.46195
0.0407389 -2.49965 -2.49965
0.110055 -2.54238 -2.54238
0.178739 -2.5029 -2.5029
0.109394 -2.46022 -2.46022
0.109731 -2.50115 -2.50115
0.0405656 -2.54087 -2.54087
0.0401849 -2.62417 -2.62417
0.181157 -2.6275 -2.6275
0.17956 -2.54414 -2.54414
0.0403809 -2.58237 -2.58237
0.110664 -2.62571 -2.62571
0.180366 -2.58567 -2.58567
0.110055 -2.54238 -2.54238
0.110366 -2.5839 -2.5839
0.0401849 -2.62417 -2.62417
0.0397586 -2.70865 -2.70865
0.182695 -2.71204 -2.71204
0.181157 -2.6275 -2.6275
0.0399775 -2.66626 -2.66626
0.111219 -2.71022 -2.71022
0.181934 -2.66962 -2.66962
0.110664 -2.62571 -2.62571
0.110948 -2.66782 -2.66782
0.0397586 -2.70865 -2.70865
0.0392864 -2.79428 -2.79428
0.184173 -2.79773 -2.79773
0.182695 -2.71204 -2.71204
0.0395283 -2.75132 -2.75132
0.111722 -2.79588 -2.79588
0.183442 -2.75474 -2.75474
0.111219 -2.71022 -2.71022
0.111477 -2.7529 -2.7529
0.0392864 -2.79428 -2.79428
0.0387682 -2.88107 -2.88107
0.18559 -2.88457 -2.88457
0.184173 -2.79773 -2.79773
0.0390331 -2.83753 -2.83753
0.112172 -2.8827 -2.8827
0.184889 -2.84101 -2.84101
0.111722 -2.79588 -2.79588
0.111954 -2.83915 -2.83915
0.0387682 -2.88107 -2.88107
0.0382036 -2.96899 -2.96899
0.186946 -2.97256 -2.97256
0.18559 -2.88457 -2.88457
0.0384917 -2.92489 -2.92489
0.112568 -2.97065 -2.97065
0.186276 -2.92842 -2.92842
0.112172 -2.8827 -2.8827
0.112376 -2.92653 -2.92653
0.0382036 -2.96899 -2.96899
0.0375924 -3.05805 -3.05805
0.188242 -3.06168 -3.06168
0.186946 -2.97256 -2.97256
0.0379038 -3.01338 -3.01338
0.11291 -3.05974 -3.05974
0.187602 -3.01698 -3.01698
0.112568 -2.97065 -2.97065
0.112745 -3.01506 -3.01506
0.0375924 -3.05805 -3.05805
0.0369344 -3.14824 -3.14824
0.189477 -3.15192 -3.15192
0.188242 -3.06168 -3.06168
0.0372693 -3.10301 -3.10301
0.113198 -3.14996 -3.14996
0.188867 -3.10666 -3.10666
0.11291 -3.05974 -3.05974
0.113061 -3.10471 -3.10471
0.0369344 -3.14824 -3.14824
0.0362295 -3.23954 -3.23954
0.19065 -3.24328 -3.24328
0.189477 -3.15192 -3.15192
0.0365879 -3.19375 -3.19375
0.113432 -3.24129 -3.24129
0.190071 -3.19746 -3.19746
0.113198 -3.14996 -3.14996
0.113322 -3.19549 -3.19549
0.0362295 -3.23954 -3.23954
0.0354775 -3.33195 -3.33195
0.191762 -3.33576 -3.33576
0.19065 -3.24328 -3.24328
0.0358594 -3.28561 -3.28561
0.113612 -3.33374 -3.33374
0.191213 -3.28938 -3.28938
0.113432 -3.24129 -3.24129
0.113529 -3.28738 -3.28738
0.0354775 -3.33195 -3.33195
0.0346781 -3.42546 -3.42546
0.192812 -3.42933 -3.42933
0.191762 -3.33576 -3.33576
0.0350837 -3.37857 -3.37857
0.113738 -3.42728 -3.42728
0.192294 -3.3824 -3.3824
0.113612 -3.33374 -3.33374
0.113682 -3.38037 -3.38037
0.0346781 -3.42546 -3.42546
0.0338313 -3.52007 -3.52007
0.1938 -3.52399 -3.52399
0.192812 -3.42933 -3.42933
0.0342607 -3.47263 -3.47263
0.113808 -3.52191 -3.52191
0.193314 -3.47652 -3.47652
0.113738 -3.42728 -3.42728
0.11378 -3.47446 -3.47446
0.0338313 -3.52007 -3.52007
0.0329368 -3.61575 -3.61575
0.194727 -3.61974 -3.61974
0.1938 -3.52399 -3.52399
0.03339 -3.56777 -3.56777
0.113824 -3.61763 -3.61763
0.194271 -3.57173 -3.57173
0.113808 -3.52191 -3.52191
0.113823 -3.56963 -3.56963
0.0329368 -3.61575 -3.61575
0.0319946 -3.71251 -3.71251
0.195591 -3.71656 -3.71656
0.194727 -3.61974 -3.61974
0.0324717 -3.664 -3.664
0.113785 -3.71442 -3.71442
0.195167 -3.66801 -3.66801
0.113824 -3.61763 -3.61763
0.113812 -3.66589 -3.66589
0.0319946 -3.71251 -3.71251
0.0310044 -3.81033 -3.81033
0.196393 -3.81444 -3.81444
0.195591 -3.71656 -3.71656
0.0315055 -3.76129 -3.76129
0.113691 -3.81227 -3.81227
0.196 -3.76537 -3.76537
0.113785 -3.71442 -3.71442
0.113745 -3.76321 -3.76321
0.0310044 -3.81033 -3.81033
0.0299663 -3.90922 -3.90922
0.197133 -3.91339 -3.91339
0.196393 -3.81444 -3.81444
0.0304914 -3.85964 -3.85964
0.113542 -3.91119 -3.91119
0.196771 -3.86378 -3.86378
0.113691 -3.81227 -3.81227
0.113624 -3.8616 -3.8616
0.0299663 -3.90922 -3.90922
0.02888 -4.00915 -4.00915
0.19781 -4.01338 -4.01338
0.197133 -3.91339 -3.91339
0.0294292 -3.95905 -3.95905
0.113338 -4.01115 -4.01115
0.197479 -3.96325 -3.96325
0.113542 -3.91119 -3.91119
0.113447 -3.96104 -3.96104
0.02888 -4.00915 -4.00915
0.0277455 -4.11012 -4.11012
0.198425 -4.11441 -4.11441
0.19781 -4.01338 -4.01338
0.0283188 -4.0595 -4.0595
0.113078 -4.11215 -4.11215
0.198125 -4.06377 -4.06377
0.113338 -4.01115 -4.01115
0.113215 -4.06152 -4.06152
0.0277455 -4.11012 -4.11012
0.0265627 -4.21212 -4.21212
0.198977 -4.21648 -4.21648
0.198425 -4.11441 -4.11441
0.0271601 -4.16099 -4.16099
0.112763 -4.21419 -4.21419
0.198709 -4.16532 -4.16532
0.113078 -4.11215 -4.11215
0.112927 -4.16304 -4.16304
0.0265627 -4.21212 -4.21212
0.0253315 -4.31515 -4.31515
0.199467 -4.31957 -4.31957
0.198977 -4.21648 -4.21648
0.0259531 -4.26351 -4.26351
0.112392 -4.31725 -4.31725
0.19923 -4.26789 -4.26789
0.112763 -4.21419 -4.21419
0.112584 -4.26559 -4.26559
0.0253315 -4.31515 -4.31515
0.0240518 -4.41919 -4.41919
0.199893 -4.42367 -4.42367
0.199467 -4.31957 -4.31957
0.0246977 -4.36704 -4.36704
0.111965 -4.42132 -4.42132
0.199688 -4.37149 -4.37149
0.112392 -4.31725 -4.31725
0.112186 -4.36916 -4.36916
0.0240518 -4.41919 -4.41919
0.0227237 -4.52424 -4.52424
0.200257 -4.52878 -4.52878
0.199893 -4.42367 -4.42367
0.0233938 -4.47159 -4.47159
0.111483 -4.5264 -4.5264
0.200083 -4.4761 -4.4761
0.111965 -4.42132 -4.42132
0.111731 -4.47374 -4.47374
0.0227237 -4.52424 -4.52424
0.021347 -4.63028 -4.63028
0.200558 -4.63489 -4.63489
0.200257 -4.52878 -4.52878
0.0220414 -4.57714 -4.57714
0.110945 -4.63248 -4.63248
0.200416 -4.58171 -4.58171
0.111483 -4.5264 -4.5264
0.111221 -4.57932 -4.57932
0.021347 -4.63028 -4.63028
0.0199217 -4.73732 -4.73732
0.200797 -4.74199 -4.74199
0.200558 -4.63489 -4.63489
0.0206404 -4.68368 -4.68368
0.110352 -4.73955 -4.73955
0.200685 -4.68831 -4.68831
0.110945 -4.63248 -4.63248
0.110656 -4.68589 -4.68589
0.0199217 -4.73732 -4.73732
0.0184477 -4.84533 -4.84533
0.200972 -4.85006 -4.85006
0.200797 -4.74199 -4.74199
0.0191908 -4.7912 -4.7912
0.109703 -4.84759 -4.84759
0.200892 -4.7959 -4.7959
0.110352 -4.73955 -4.73955
0.110034 -4.79345 -4.79345
0.0184477 -4.84533 -4.84533
0.0169252 -4.95432 -4.95432
0.201084 -4.95912 -4.95912
0.200972 -4.85006 -4.85006
0.0176925 -4.89971 -4.89971
0.108997 -4.95662 -4.95662
0.201036 -4.90447 -4.90447
0.109703 -4.84759 -4.84759
0.109357 -4.90198 -4.90198
0.0169252 -4.95432 -4.95432
0.015354 -5.06427 -5.06427
0.201133 -5.06913 -5.06913
0.201084 -4.95912 -4.95912
0.0161456 -5.00918 -5.00918
0.108236 -5.0666 -5.0666
0.201117 -5.014 -5.014
0.108997 -4.95662 -4.95662
0.108624 -5.01149 -5.01149
0.015354 -5.06427 -5.06427
0.0137341 -5.17518 -5.17518
0.20112 -5.1801 -5.1801
0.201133 -5.06913 -5.06913
0.0145501 -5.11961 -5.11961
0.10742 -5.17754 -5.17754
0.201134 -5.1245 -5.1245
0.108236 -5.0666 -5.0666
0.107835 -5.12195 -5.12195
0.0137341 -5.17518 -5.17518
0.0120656 -5.28704 -5.28704
0.201043 -5.29202 -5.29202
0.20112 -5.1801 -5.1801
0.012906 -5.23099 -5.23099
0.106547 -5.28943 -5.28943
0.201089 -5.23594 -5.23594
0.10742 -5.17754 -5.17754
0.10699 -5.23337 -5.23337
0.0120656 -5.28704 -5.28704
0.0103486 -5.39983 -5.39983
0.200904 -5.40487 -5.40487
0.201043 -5.29202 -5.29202
0.0112132 -5.34332 -5.34332
0.105619 -5.40225 -5.40225
0.200981 -5.34833 -5.34833
0.106547 -5.28943 -5.28943
0.10609 -5.34572 -5.34572
0.0103486 -5.39983 -5.39983
0.00858293 -5.51355 -5.51355
0.200701 -5.51866 -5.51866
0.200904 -5.40487 -5.40487
0.00947182 -5.45658 -5.45658
0.104635 -5.51601 -5.51601
0.20081 -5.46165 -5.46165
0.105619 -5.40225 -5.40225
0.105134 -5.45901 -5.45901
0.00858293 -5.51355 -5.51355
0.00676875 -5.6282 -5.6282
0.200436 -5.63337 -5.63337
0.200701 -5.51866 -5.51866
0.0076819 -5.57076 -5.57076
0.103595 -5.63068 -5.63068
0.200577 -5.5759 -5.5759
0.104635 -5.51601 -5.51601
0.104122 -5.57323 -5.57323
0.00676875 -5.6282 -5.6282
0.00490609 -5.74375 -5.74375
0.200108 -5.74899 -5.74899
0.200436 -5.63337 -5.63337
0.00584348 -5.68586 -5.68586
0.1025 -5.74627 -5.74627
0.20028 -5.69106 -5.69106
0.103595 -5.63068 -5.63068
0.103055 -5.68837 -5.68837
0.00490609 -5.74375 -5.74375
0.00299501 -5.86022 -5.86022
0.199718 -5.86551 -5.86551
0.200108 -5.74899 -5.74899
0.0039566 -5.80187 -5.80187
0.101349 -5.86277 -5.86277
0.199921 -5.80714 -5.80714
0.1025 -5.74627 -5.74627
0.101931 -5.80441 -5.80441
0.00299501 -5.86022 -5.86022
0.00103558 -5.97758 -5.97758
0.199264 -5.98293 -5.98293
0.199718 -5.86551 -5.86551
0.00202133 -5.91878 -5.91878
0.100143 -5.98016 -5.98016
0.199499 -5.92411 -5.92411
0.101349 -5.86277 -5.86277
0.100753 -5.92135 -5.92135
0.00103558 -5.97758 -5.97758
-0.00097214 -6.09582 -6.09582
0.198748 -6.10124 -6.10124
0.199264 -5.98293 -5.98293
3.77474e-05 -6.03659 -6.03659
0.0988808 -6.09844 -6.09844
0.199014 -6.04197 -6.04197
0.100143 -5.98016 -5.98016
0.0995187 -6.03919 -6.03919
-0.00097214 -6.09582 -6.09582
-0.00302805 -6.21495 -6.21495
0.19817 -6.22043 -6.22043
0.198748 -6.10124 -6.10124
-0.00199407 -6.15527 -6.15527
0.0975636 -6.21759 -6.21759
0.198467 -6.16072 -6.16072
0.0988808 -6.09844 -6.09844
0.0982291 -6.1579 -6.1579
-0.00302805 -6.21495 -6.21495
-0.00513205 -6.33494 -6.33494
0.197529 -6.34048 -6.34048
0.19817 -6.22043 -6.22043
-0.00407404 -6.27484 -6.27484
0.0961912 -6.33762 -6.33762
0.197857 -6.28035 -6.28035
0.0975636 -6.21759 -6.21759
0.0968843 -6.2775 -6.2775
-0.00513205 -6.33494 -6.33494
-0.00728405 -6.4558 -6.4558
0.196826 -6.4614 -6.4614
0.197529 -6.34048 -6.34048
-0.00620206 -6.39526 -6.39526
0.0947637 -6.45851 -6.45851
0.197185 -6.40084 -6.40084
0.0961912 -6.33762 -6.33762
0.0954843 -6.39796 -6.39796
-0.00728405 -6.4558 -6.4558
-0.00948393 -6.57751 -6.57751
0.196061 -6.58318 -6.58318
0.196826 -6.4614 -6.4614
-0.00837801 -6.51655 -6.51655
0.0932811 -6.58025 -6.58025
0.196451 -6.52218 -6.52218
0.0947637 -6.45851 -6.45851
0.0940292 -6.51927 -6.51927
-0.00948393 -6.57751 -6.57751
-0.0117316 -6.70007 -6.70007
0.195233 -6.70579 -6.70579
0.196061 -6.58318 -6.58318
-0.0106018 -6.63868 -6.63868
0.0917436 -6.70284 -6.70284
0.195655 -6.64438 -6.64438
0.0932811 -6.58025 -6.58025
0.0925192 -6.64144 -6.64144
-0.0117316 -6.70007 -6.70007
-0.0140268 -6.82346 -6.82346
0.194344 -6.82925 -6.82925
0.195233 -6.70579 -6.70579
-0.0128733 -6.76166 -6.76166
0.0901513 -6.82626 -6.82626
0.194796 -6.76742 -6.76742
0.0917436 -6.70284 -6.70284
0.0909543 -6.76445 -6.76445
-0.0140268 -6.82346 -6.82346
-0.0163696 -6.94768 -6.94768
0.193393 -6.95353 -6.95353
0.194344 -6.82925 -6.82925
-0.0151923 -6.88547 -6.88547
0.0885044 -6.95052 -6.95052
0.193876 -6.89129 -6.89129
0.0901513 -6.82626 -6.82626
0.0893346 -6.88829 -6.88829
-0.0163696 -6.94768 -6.94768
-0.0187597 -7.07272 -7.07272
0.19238 -7.07863 -7.07863
0.193393 -6.95353 -6.95353
-0.0175588 -7.0101 -7.0101
0.0868029 -7.07559 -7.07559
0.192894 -7.01598 -7.01598
0.0885044 -6.95052 -6.95052
0.0876604 -7.01295 -7.01295
-0.0187597 -7.07272 -7.07272
-0.021197 -7.19858 -7.19858
0.191306 -7.20454 -7.20454
0.19238 -7.07863 -7.07863
-0.0199725 -7.13555 -7.13555
0.0850472 -7.20147 -7.20147
0.191851 -7.14149 -7.14149
0.0868029 -7.07559 -7.07559
0.0859318 -7.13843 -7.13843
-0.021197 -7.19858 -7.19858
-0.0236814 -7.32523 -7.32523
0.190171 -7.33126 -7.33126
0.191306 -7.20454 -7.20454
-0.0224333 -7.2618 -7.2618
0.0832372 -7.32816 -7.32816
0.190746 -7.2678 -7.2678
0.0850472 -7.20147 -7.20147
0.0841489 -7.26472 -7.26472
-0.0236814 -7.32523 -7.32523
-0.0262126 -7.45268 -7.45268
0.188974 -7.45877 -7.45877
0.190171 -7.33126 -7.33126
-0.0249411 -7.38886 -7.38886
0.0813732 -7.45564 -7.45564
0.18958 -7.39491 -7.39491
0.0832372 -7.32816 -7.32816
0.082312 -7.3918 -7.3918
-0.0262126 -7.45268 -7.45268
-0.0287905 -7.58092 -7.58092
0.187716 -7.58706 -7.58706
0.188974 -7.45877 -7.45877
-0.0274957 -7.5167 -7.5167
0.0794555 -7.58391 -7.58391
0.188353 -7.52282 -7.52282
0.0813732 -7.45564 -7.45564
0.0804211 -7.51968 -7.51968
-0.0287905 -7.58092 -7.58092
-0.0314149 -7.70993 -7.70993
0.186398 -7.71613 -7.71613
0.187716 -7.58706 -7.58706
-0.0300969 -7.64533 -7.64533
0.077484 -7.71295 -7.71295
0.187065 -7.6515 -7.6515
0.0794555 -7.58391 -7.58391
0.0784764 -7.64833 -7.64833
-0.0314149 -7.70993 -7.70993
-0.0340856 -7.83971 -7.83971
0.185019 -7.84597 -7.84597
0.186398 -7.71613 -7.71613
-0.0327444 -7.77472 -7.77472
0.0754591 -7.84276 -7.84276
0.185716 -7.78096 -7.78096
0.077484 -7.71295 -7.71295
0.0764782 -7.77776 -7.77776
-0.0340856 -7.83971 -7.83971
-0.0368024 -7.97025 -7.97025
0.183579 -7.97658 -7.97658
0.185019 -7.84597 -7.84597
-0.0354382 -7.90489 -7.90489
0.073381 -7.97333 -7.97333
0.184307 -7.91118 -7.91118
0.0754591 -7.84276 -7.84276
0.0744267 -7.90795 -7.90795
-0.0368024 -7.97025 -7.97025
-0.039565 -8.10155 -8.10155
0.18208 -8.10793 -8.10793
0.183579 -7.97658 -7.97658
-0.038178 -8.03581 -8.03581
0.0712498 -8.10466 -8.10466
0.182837 -8.04216 -8.04216
0.073381 -7.97333 -7.97333
0.072322 -8.0389 -8.0389
-0.039565 -8.10155 -8.10155
-0.0423734 -8.23358 -8.23358
0.18052 -8.24002 -8.24002
0.18208 -8.10793 -8.10793
-0.0409635 -8.16747 -8.16747
0.0690658 -8.23672 -8.23672
0.181307 -8.17388 -8.17388
0.0712498 -8.10466 -8.10466
0.0701644 -8.1706 -8.1706
-0.0423734 -8.23358 -8.23358
-0.0452272 -8.36636 -8.36636
0.178901 -8.37285 -8.37285
0.18052 -8.24002 -8.24002
-0.0437947 -8.29988 -8.29988
0.0668292 -8.36953 -8.36953
0.179718 -8.30635 -8.30635
0.0690658 -8.23672 -8.23672
0.0679541 -8.30303 -8.30303
-0.0452272 -8.36636 -8.36636
-0.0481263 -8.49986 -8.49986
0.177222 -8.50641 -8.50641
0.178901 -8.37285 -8.37285
-0.0466711 -8.43302 -8.43302
0.0645402 -8.50305 -8.50305
0.178069 -8.43954 -8.43954
0.0668292 -8.36953 -8.36953
0.0656912 -8.4362 -8.4362
-0.0481263 -8.49986 -8.49986
-0.0510703 -8.63407 -8.63407
0.175484 -8.64068 -8.64068
0.177222 -8.50641 -8.50641
-0.0495927 -8.56688 -8.56688
0.0621991 -8.6373 -8.6373
0.17636 -8.57346 -8.57346
0.0645402 -8.50305 -8.50305
0.0633762 -8.57009 -8.57009
-0.0510703 -8.63407 -8.63407
-0.0540591 -8.769 -8.769
0.173687 -8.77566 -8.77566
0.175484 -8.64068 -8.64068
-0.0525591 -8.70145 -8.70145
0.0598061 -8.77226 -8.77226
0.174593 -8.70808 -8.70808
0.0621991 -8.6373 -8.6373
0.0610091 -8.70469 -8.70469
-0.0540591 -8.769 -8.769
-0.0570923 -8.90463 -8.90463
0.171831 -8.91135 -8.91135
0.173687 -8.77566 -8.77566
-0.0555702 -8.83673 -8.83673
0.0573615 -8.90791 -8.90791
0.172766 -8.84342 -8.84342
0.0598061 -8.77226 -8.77226
0.0585903 -8.84 -8.84
-0.0570923 -8.90463 -8.90463
-0.0601698 -9.04095 -9.04095
0.169916 -9.04772 -9.04772
0.171831 -8.91135 -8.91135
-0.0586256 -8.9727 -8.9727
0.0548656 -9.04426 -9.04426
0.170881 -8.97945 -8.97945
0.0573615 -8.90791 -8.90791
0.05612 -8.976 -8.976
-0.0601698 -9.04095 -9.04095
-0.0632913 -9.17795 -9.17795
0.167944 -9.18478 -9.18478
0.169916 -9.04772 -9.04772
-0.0617251 -9.10937 -9.10937
0.0523185 -9.1813 -9.1813
0.168937 -9.11617 -9.11617
0.0548656 -9.04426 -9.04426
0.0535984 -9.11269 -9.11269
-0.0632913 -9.17795 -9.17795
-0.0664564 -9.31563 -9.31563
0.165913 -9.32252 -9.32252
0.167944 -9.18478 -9.18478
-0.0648684 -9.24671 -9.24671
0.0497206 -9.319 -9.319
0.166936 -9.25357 -9.25357
0.0523185 -9.1813 -9.1813
0.0510259 -9.25007 -9.25007
-0.0664564 -9.31563 -9.31563
-0.0696649 -9.45398 -9.45398
0.163825 -9.46092 -9.46092
0.165913 -9.32252 -9.32252
-0.0680552 -9.38473 -9.38473
0.0470721 -9.45738 -9.45738
0.164876 -9.39163 -9.39163
0.0497206 -9.319 -9.319
0.0484026 -9.38811 -9.38811
-0.0696649 -9.45398 -9.45398
-0.0729165 -9.59299 -9.59299
0.161679 -9.59998 -9.59998
0.163825 -9.46092 -9.46092
-0.0712854 -9.5234 -9.5234
0.0443734 -9.59641 -9.59641
0.162759 -9.53037 -9.53037
0.0470721 -9.45738 -9.45738
0.045729 -9.52681 -9.52681
-0.0729165 -9.59299 -9.59299
-0.076211 -9.73264 -9.73264
0.159476 -9.73969 -9.73969
0.161679 -9.59998 -9.59998
-0.0745584 -9.66274 -9.66274
0.0416247 -9.7361 -9.7361
0.160585 -9.66975 -9.66975
0.0443734 -9.59641 -9.59641
0.0430053 -9.66617 -9.66617
-0.076211 -9.73264 -9.73264
-0.079548 -9.87294 -9.87294
0.157217 -9.88004 -9.88004
0.159476 -9.73969 -9.73969
-0.0778742 -9.80271 -9.80271
0.0388264 -9.87642 -9.87642
0.158353 -9.80978 -9.80978
0.0416247 -9.7361 -9.7361
0.0402317 -9.80618 -9.80618
-0.079548 -9.87294 -9.87294
-0.0829272 -10.0139 -10.0139
0.1549 -10.021 -10.021
0.157217 -9.88004 -9.88004
-0.0812324 -9.94333 -9.94333
0.0359787 -10.0174 -10.0174
0.156066 -9.95045 -9.95045
0.0388264 -9.87642 -9.87642
0.0374087 -9.94682 -9.94682
-0.0829272 -10.0139 -10.0139
-0.0863483 -10.1554 -10.1554
0.152528 -10.1626 -10.1626
0.1549 -10.021 -10.021
-0.0846326 -10.0846 -10.0846
0.0330819 -10.159 -10.159
0.153721 -10.0917 -10.0917
0.0359787 -10.0174 -10.0174
0.0345364 -10.0881 -10.0881
-0.0863483 -10.1554 -10.1554
-0.089811 -10.2976 -10.2976
0.1501 -10.3049 -10.3049
0.152528 -10.1626 -10.1626
-0.0880745 -10.2264 -10.2264
0.0301364 -10.3012 -10.3012
0.151321 -10.2337 -10.2337
0.0330819 -10.159 -10.159
0.0316152 -10.23 -10.23
-0.089811 -10.2976 -10.2976
-0.093315 -10.4404 -10.4404
0.147616 -10.4477 -10.4477
0.1501 -10.3049 -10.3049
-0.0915579 -10.3689 -10.3689
0.0271426 -10.444 -10.444
0.148865 -10.3762 -10.3762
0.0301364 -10.3012 -10.3012
0.0286455 -10.3725 -10.3725
-0.093315 -10.4404 -10.4404
-0.0968599 -10.5838 -10.5838
0.145077 -10.5911 -10.5911
0.147616 -10.4477 -10.4477
-0.0950823 -10.512 -10.512
0.0241006 -10.5874 -10.5874
0.146354 -10.5193 -10.5193
0.0271426 -10.444 -10.444
0.0256276 -10.5156 -10.5156
-0.0968599 -10.5838 -10.5838
-0.100445 -10.7277 -10.7277
0.142483 -10.7351 -10.7351
0.145077 -10.5911 -10.5911
-0.0986476 -10.6557 -10.6557
0.0210109 -10.7314 -10.7314
0.143787 -10.6631 -10.6631
0.0241006 -10.5874 -10.5874
0.0225617 -10.6593 -10.6593
-0.100445 -10.7277 -10.7277
-0.104071 -10.8723 -10.8723
0.139835 -10.8797 -10.8797
0.142483 -10.7351 -10.7351
-0.102253 -10.7999 -10.7999
0.0178739 -10.876 -10.876
0.141166 -10.8074 -10.8074
0.0210109 -10.7314 -10.7314
0.0194483 -10.8036 -10.8036
-0.104071 -10.8723 -10.8723
-0.107737 -11.0174 -11.0174
0.137133 -11.0249 -11.0249
0.139835 -10.8797 -10.8797
-0.105899 -10.9448 -10.9448
0.0146898 -11.0211 -11.0211
0.138491 -10.9523 -10.9523
0.0178739 -10.876 -10.876
0.0162877 -10.9485 -10.9485
-0.107737 -11.0174 -11.0174
-0.111442 -11.1631 -11.1631
0.134376 -11.1707 -11.1707
0.137133 -11.0249 -11.0249
-0.109584 -11.0902 -11.0902
0.011459 -11.1668 -11.1668
0.135761 -11.0977 -11.0977
0.0146898 -11.0211 -11.0211
0.0130802 -11.0939 -11.0939
-0.111442 -11.1631 -11.1631
-0.115186 -11.3094 -11.3094
0.131567 -11.317 -11.317
0.134376 -11.1707 -11.1707
-0.113309 -11.2362 -11.2362
0.0081819 -11.3131 -11.3131
0.132978 -11.2437 -11.2437
0.011459 -11.1668 -11.1668
0.00982621 -11.2399 -11.2399
-0.115186 -11.3094 -11.3094
-0.118969 -11.4562 -11.4562
0.128704 -11.4638 -11.4638
0.131567 -11.317 -11.317
-0.117073 -11.3827 -11.3827
0.00485884 -11.4599 -11.4599
0.130142 -11.3903 -11.3903
0.0081819 -11.3131 -11.3131
0.00652609 -11.3864 -11.3864
-0.118969 -11.4562 -11.4562
-0.122791 -11.6035 -11.6035
0.125788 -11.6112 -11.6112
0.128704 -11.4638 -11.4638
-0.120875 -11.5298 -11.5298
0.0014902 -11.6073 -11.6073
0.127252 -11.5374 -11.5374
0.00485884 -11.4599 -11.4599
0.00318019 -11.5335 -11.5335
-0.122791 -11.6035 -11.6035
-0.126651 -11.7514 -11.7514
0.12282 -11.7591 -11.7591
0.125788 -11.6112 -11.6112
-0.124716 -11.6774 -11.6774
-0.00192365 -11.7552 -11.7552
0.124311 -11.6851 -11.6851
0.0014902 -11.6073 -11.6073
-0.000211098 -11.6812 -11.6812
-0.126651 -11.7514 -11.7514
-0.130548 -11.8998 -11.8998
0.1198 -11.9075 -11.9075
0.12282 -11.7591 -11.7591
-0.128595 -11.8255 -11.8255
-0.00538232 -11.9036 -11.9036
0.121317 -11.8333 -11.8333
-0.00192365 -11.7552 -11.7552
-0.0036474 -11.8293 -11.8293
-0.130548 -11.8998 -11.8998
-0.134483 -12.0487 -12.0487
0.116729 -12.0565 -12.0565
0.1198 -11.9075 -11.9075
-0.132511 -11.9742 -11.9742
-0.00888542 -12.0525 -12.0525
0.118271 -11.982 -11.982
-0.00538232 -11.9036 -11.9036
-0.00712834 -11.978 -11.978
-0.134483 -12.0487 -12.0487
-0.138454 -12.1981 -12.1981
0.113606 -12.206 -12.206
0.116729 -12.0565 -12.0565
-0.136464 -12.1233 -12.1233
-0.0124326 -12.202 -12.202
0.115174 -12.1312 -12.1312
-0.00888542 -12.0525 -12.0525
-0.0106535 -12.1272 -12.1272
-0.138454 -12.1981 -12.1981
-0.142462 -12.348 -12.348
0.110433 -12.3559 -12.3559
0.113606 -12.206 -12.206
-0.140454 -12.273 -12.273
-0.0160234 -12.3519 -12.3519
0.112026 -12.2809 -12.2809
-0.0124326 -12.202 -12.202
-0.0142225 -12.2769 -12.2769
-0.142462 -12.348 -12.348
-0.146507 -12.4984 -12.4984
0.107209 -12.5064 -12.5064
0.110433 -12.3559 -12.3559
-0.14448 -12.4232 -12.4232
-0.0196574 -12.5023 -12.5023
0.108827 -12.4311 -12.4311
-0.0160234 -12.3519 -12.3519
-0.017835 -12.4271 -12.4271
-0.146507 -12.4984 -12.4984
-0.150586 -12.6493 -12.6493
0.103935 -12.6573 -12.6573
0.107209 -12.5064 -12.5064
-0.148542 -12.5738 -12.5738
-0.0233343 -12.6532 -12.6532
0.105578 -12.5818 -12.5818
-0.0196574 -12.5023 -12.5023
-0.0214905 -12.5777 -12.5777
-0.150586 -12.6493 -12.6493
-0.154702 -12.8007 -12.8007
0.100612 -12.8087 -12.8087
0.103935 -12.6573 -12.6573
-0.15264 -12.7249 -12.7249
-0.0270535 -12.8046 -12.8046
0.10228 -12.7329 -12.7329
-0.0233343 -12.6532 -12.6532
-0.0251886 -12.7289 -12.7289
-0.154702 -12.8007 -12.8007
-0.158852 -12.9525 -12.9525
0.0972395 -12.9605 -12.9605
0.100612 -12.8087 -12.8087
-0.156772 -12.8765 -12.8765
-0.0308148 -12.9565 -12.9565
0.0989319 -12.8846 -12.8846
-0.0270535 -12.8046 -12.8046
-0.028929 -12.8805 -12.8805
-0.158852 -12.9525 -12.9525
-0.163036 -13.1048 -13.1048
0.0938184 -13.1129 -13.1129
0.0972395 -12.9605 -12.9605
-0.16094 -13.0286 -13.0286
-0.0346177 -13.1088 -13.1088
0.095535 -13.0366 -13.0366
-0.0308148 -12.9565 -12.9565
-0.0327111 -13.0326 -13.0326
-0.163036 -13.1048 -13.1048
-0.167255 -13.2575 -13.2575
0.0903489 -13.2656 -13.2656
0.0938184 -13.1129 -13.1129
-0.165141 -13.1811 -13.1811
-0.0384617 -13.2615 -13.2615
0.0920896 -13.1892 -13.1892
-0.0346177 -13.1088 -13.1088
-0.0365346 -13.1851 -13.1851
-0.167255 -13.2575 -13.2575
-0.171507 -13.4107 -13.4107
0.0868316 -13.4188 -13.4188
0.0903489 -13.2656 -13.2656
-0.169377 -13.334 -13.334
-0.0423465 -13.4147 -13.4147
0.0885962 -13.3422 -13.3422
-0.0384617 -13.2615 -13.2615
-0.040399 -13.338 -13.338
-0.171507 -13.4107 -13.4107
-0.175792 -13.5643 -13.5643
0.0832669 -13.5725 -13.5725
0.0868316 -13.4188 -13.4188
-0.173645 -13.4874 -13.4874
-0.0462715 -13.5683 -13.5683
0.0850551 -13.4956 -13.4956
-0.0423465 -13.4147 -13.4147
-0.044304 -13.4914 -13.4914
-0.175792 -13.5643 -13.5643
-0.18011 -13.7183 -13.7183
0.0796552 -13.7265 -13.7265
0.0832669 -13.5725 -13.5725
-0.177947 -13.6412 -13.6412
-0.0502364 -13.7223 -13.7223
0.0814669 -13.6494 -13.6494
-0.0462715 -13.5683 -13.5683
-0.048249 -13.6453 -13.6453
-0.18011 -13.7183 -13.7183
-0.18446 -13.8727 -13.8727
0.0759969 -13.881 -13.881
0.0796552 -13.7265 -13.7265
-0.182281 -13.7954 -13.7954
-0.0542407 -13.8768 -13.8768
0.0778318 -13.8037 -13.8037
-0.0502364 -13.7223 -13.7223
-0.0522336 -13.7995 -13.7995
-0.18446 -13.8727 -13.8727
-0.188842 -14.0275 -14.0275
0.0722926 -14.0358 -14.0358
0.0759969 -13.881 -13.881
-0.186647 -13.9501 -13.9501
-0.0582839 -14.0316 -14.0316
0.0741505 -13.9584 -13.9584
-0.0542407 -13.8768 -13.8768
-0.0562575 -13.9542 -13.9542
-0.188842 -14.0275 -14.0275
-0.193256 -14.1828 -14.1828
0.0685426 -14.1911 -14.1911
0.0722926 -14.0358 -14.0358
-0.191045 -14.1051 -14.1051
-0.0623657 -14.1869 -14.1869
0.0704233 -14.1134 -14.1134
-0.0582839 -14.0316 -14.0316
-0.06032 -14.1092 -14.1092
-0.193256 -14.1828 -14.1828
-0.1977 -14.3384 -14.3384
0.0647475 -14.3468 -14.3468
0.0685426 -14.1911 -14.1911
-0.195474 -14.2605 -14.2605
-0.0664855 -14.3425 -14.3425
0.0666506 -14.2689 -14.2689
-0.0623657 -14.1869 -14.1869
-0.0644209 -14.2647 -14.2647
-0.1977 -14.3384 -14.3384
-0.202175 -14.4944 -14.4944
0.0609076 -14.5028 -14.5028
0.0647475 -14.3468 -14.3468
-0.199934 -14.4163 -14.4163
-0.0706429 -14.4985 -14.4985
0.0628331 -14.4247 -14.4247
-0.0664855 -14.3425 -14.3425
-0.0685595 -14.4205 -14.4205
-0.202175 -14.4944 -14.4944
-0.20668 -14.6508 -14.6508
0.0570235 -14.6592 -14.6592
0.0609076 -14.5028 -14.5028
-0.204424 -14.5725 -14.5725
-0.0748374 -14.6549 -14.6549
0.058971 -14.5809 -14.5809
-0.0706429 -14.4985 -14.4985
-0.0727355 -14.5767 -14.5767
-0.20668 -14.6508 -14.6508
-0.211214 -14.8075 -14.8075
0.0530955 -14.816 -14.816
0.0570235 -14.6592 -14.6592
-0.208943 -14.7291 -14.7291
-0.0790686 -14.8117 -14.8117
0.0550649 -14.7375 -14.7375
-0.0748374 -14.6549 -14.6549
-0.0769484 -14.7333 -14.7333
-0.211214 -14.8075 -14.8075
-0.215777 -14.9646 -14.9646
0.0491243 -14.9731 -14.9731
0.0530955 -14.816 -14.816
-0.213492 -14.886 -14.886
-0.0833359 -14.9688 -14.9688
0.0511153 -14.8945 -14.8945
-0.0790686 -14.8117 -14.8117
-0.0811977 -14.8902 -14.8902
-0.215777 -14.9646 -14.9646
-0.220369 -15.122 -15.122
0.0451102 -15.1305 -15.1305
0.0491243 -14.9731 -14.9731
-0.21807 -15.0432 -15.0432
-0.087639 -15.1262 -15.1262
0.0471226 -15.0518 -15.0518
-0.0833359 -14.9688 -14.9688
-0.085483 -15.0475 -15.0475
-0.220369 -15.122 -15.122
-0.224989 -15.2798 -15.2798
0.0410538 -15.2883 -15.2883
0.0451102 -15.1305 -15.1305
-0.222676 -15.2008 -15.2008
-0.0919773 -15.284 -15.284
0.0430873 -15.2094 -15.2094
-0.087639 -15.1262 -15.1262
-0.0898038 -15.2051 -15.2051
-0.224989 -15.2798 -15.2798
-0.229637 -15.4379 -15.4379
0.0369555 -15.4465 -15.4465
0.0410538 -15.2883 -15.2883
-0.22731 -15.3588 -15.3588
-0.0963503 -15.4421 -15.4421
0.0390098 -15.3673 -15.3673
-0.0919773 -15.284 -15.284
-0.0941595 -15.363 -15.363
-0.229637 -15.4379 -15.4379
-0.234312 -15.5963 -15.5963
0.0328157 -15.6049 -15.6049
0.0369555 -15.4465 -15.4465
-0.231971 -15.517 -15.517
-0.100758 -15.6006 -15.6006
0.0348907 -15.5256 -15.5256
-0.0963503 -15.4421 -15.4421
-0.0985498 -15.5213 -15.5213
-0.234312 -15.5963 -15.5963
-0.239013 -15.755 -15.755
0.0286351 -15.7637 -15.7637
0.0328157 -15.6049 -15.6049
-0.236659 -15.6756 -15.6756
-0.105199 -15.7593 -15.7593
0.0307305 -15.6842 -15.6842
-0.100758 -15.6006 -15.6006
-0.102974 -15.6799 -15.6799
-0.239013 -15.755 -15.755
-0.243741 -15.9141 -15.9141
0.0244141 -15.9227 -15.9227
0.0286351 -15.7637 -15.7637
-0.241374 -15.8345 -15.8345
-0.109673 -15.9184 -15.9184
0.0265296 -15.8431 -15.8431
-0.105199 -15.7593 -15.7593
-0.107432 -15.8388 -15.8388
-0.243741 -15.9141 -15.9141
-0.248494 -16.0734 -16.0734
0.0201531 -16.0821 -16.0821
0.0244141 -15.9227 -15.9227
-0.246114 -15.9937 -15.9937
-0.11418 -16.0777 -16.0777
0.0222885 -16.0024 -16.0024
-0.109673 -15.9184 -15.9184
-0.111923 -15.998 -15.998
-0.248494 -16.0734 -16.0734
-0.253273 -16.233 -16.233
0.0158527 -16.2417 -16.2417
0.0201531 -16.0821 -16.0821
-0.25088 -16.1532 -16.1532
-0.11872 -16.2373 -16.2373
0.0180078 -16.1619 -16.1619
-0.11418 -16.0777 -16.0777
-0.116446 -16.1575 -16.1575
-0.253273 -16.233 -16.233
-0.258076 -16.3929 -16.3929
0.0115134 -16.4016 -16.4016
0.0158527 -16.2417 -16.2417
-0.255671 -16.3129 -16.3129
-0.123291 -16.3972 -16.3972
0.0136879 -16.3216 -16.3216
-0.11872 -16.2373 -16.2373
-0.121002 -16.3172 -16.3172
-0.258076 -16.3929 -16.3929
-0.262903 -16.5531 -16.5531
0.0071356 -16.5618 -16.5618
0.0115134 -16.4016 -16.4016
-0.260487 -16.473 -16.473
-0.127894 -16.5574 -16.5574
0.00932925 -16.4817 -16.4817
-0.123291 -16.3972 -16.3972
-0.125589 -16.4773 -16.4773
-0.262903 -16.5531 -16.5531
-0.267754 -16.7135 -16.7135
0.00271993 -16.7223 -16.7223
0.0071356 -16.5618 -16.5618
-0.265326 -16.6332 -16.6332
-0.132527 -16.7178 -16.7178
0.00493247 -16.642 -16.642
-0.127894 -16.5574 -16.5574
-0.130207 -16.6376 -16.6376
-0.267754 -16.7135 -16.7135
-0.272628 -16.8742 -16.8742
-0.00173316 -16.883 -16.883
0.00271993 -16.7223 -16.7223
-0.270188 -16.7938 -16.7938
-0.137191 -16.8785 -16.8785
0.000498029 -16.8026 -16.8026
-0.132527 -16.7178 -16.7178
-0.134855 -16.7982 -16.7982
-0.272628 -16.8742 -16.8742
-0.277525 -17.0351 -17.0351
-0.00622314 -17.0439 -17.0439
-0.00173316 -16.883 -16.883
-0.275074 -16.9546 -16.9546
-0.141884 -17.0395 -17.0395
-0.00397357 -16.9634 -16.9634
-0.137191 -16.8785 -16.8785
-0.139534 -16.959 -16.959
-0.277525 -17.0351 -17.0351
-0.282444 -17.1963 -17.1963
-0.0107495 -17.2051 -17.2051
-0.00622314 -17.0439 -17.0439
-0.279982 -17.1156 -17.1156
-0.146607 -17.2006 -17.2006
-0.00848181 -17.1245 -17.1245
-0.141884 -17.0395 -17.0395
-0.144242 -17.12 -17.12
-0.282444 -17.1963 -17.1963
-0.287384 -17.3576 -17.3576
-0.0153118 -17.3665 -17.3665
-0.0107495 -17.2051 -17.2051
-0.284911 -17.2769 -17.2769
-0.151358 -17.362 -17.362
-0.0130262 -17.2857 -17.2857
-0.146607 -17.2006 -17.2006
-0.148979 -17.2813 -17.2813
-0.287384 -17.3576 -17.3576
-0.292346 -17.5192 -17.5192
-0.0199094 -17.5281 -17.5281
-0.0153118 -17.3665 -17.3665
-0.289863 -17.4384 -17.4384
-0.156138 -17.5236 -17.5236
-0.0176062 -17.4473 -17.4473
-0.151358 -17.362 -17.362
-0.153745 -17.4428 -17.4428
-0.292346 -17.5192 -17.5192
-0.297328 -17.6811 -17.6811
-0.0245418 -17.6899 -17.6899
-0.0199094 -17.5281 -17.5281
-0.294834 -17.6001 -17.6001
-0.160945 -17.6855 -17.6855
-0.0222213 -17.609 -17.609
-0.156138 -17.5236 -17.5236
-0.158538 -17.6045 -17.6045
-0.297328 -17.6811 -17.6811
-0.30233 -17.8431 -17.8431
-0.0292085 -17.852 -17.852
-0.0245418 -17.6899 -17.6899
-0.299827 -17.762 -17.762
-0.16578 -17.8475 -17.8475
-0.0268709 -17.7709 -17.7709
-0.160945 -17.6855 -17.6855
-0.163359 -17.7665 -17.7665
-0.30233 -17.8431 -17.8431
-0.307352 -18.0053 -18.0053
-0.0339091 -18.0142 -18.0142
-0.0292085 -17.852 -17.852
-0.304839 -17.9242 -17.9242
-0.170641 -18.0097 -18.0097
-0.0315546 -17.9331 -17.9331
-0.16578 -17.8475 -17.8475
-0.168207 -17.9286 -17.9286
-0.307352 -18.0053 -18.0053
-0.312393 -18.1677 -18.1677
-0.0386429 -18.1766 -18.1766
-0.0339091 -18.0142 -18.0142
-0.30987 -18.0865 -18.0865
-0.175528 -18.1721 -18.1721
-0.0362719 -18.0954 -18.0954
-0.170641 -18.0097 -18.0097
-0.173081 -18.0909 -18.0909
-0.312393 -18.1677 -18.1677
-0.317452 -18.3303 -18.3303
-0.0434094 -18.3392 -18.3392
-0.0386429 -18.1766 -18.1766
-0.31492 -18.249 -18.249
-0.180441 -18.3347 -18.3347
-0.0410221 -18.2579 -18.2579
-0.175528 -18.1721 -18.1721
-0.177982 -18.2534 -18.2534
-0.317452 -18.3303 -18.3303
-0.322529 -18.493 -18.493
-0.0482082 -18.5019 -18.5019
-0.0434094 -18.3392 -18.3392
-0.319988 -18.4116 -18.4116
-0.185379 -18.4975 -18.4975
-0.0458048 -18.4205 -18.4205
-0.180441 -18.3347 -18.3347
-0.182907 -18.4161 -18.4161
-0.322529 -18.493 -18.493
-0.327624 -18.6559 -18.6559
-0.0530386 -18.6649 -18.6649
-0.0482082 -18.5019 -18.5019
-0.325074 -18.5744 -18.5744
-0.190342 -18.6604 -18.6604
-0.0506195 -18.5834 -18.5834
-0.185379 -18.4975 -18.4975
-0.187858 -18.5789 -18.5789
-0.327624 -18.6559 -18.6559
-0.332735 -18.819 -18.819
-0.0579001 -18.8279 -18.8279
-0.0530386 -18.6649 -18.6649
-0.330178 -18.7374 -18.7374
-0.195328 -18.8234 -18.8234
-0.0554655 -18.7464 -18.7464
-0.190342 -18.6604 -18.6604
-0.192832 -18.7419 -18.7419
-0.332735 -18.819 -18.819
-0.337863 -18.9822 -18.9822
-0.0627923 -18.9911 -18.9911
-0.0579001 -18.8279 -18.8279
-0.335297 -18.9005 -18.9005
-0.200339 -18.9866 -18.9866
-0.0603424 -18.9095 -18.9095
-0.195328 -18.8234 -18.8234
-0.197831 -18.905 -18.905
-0.337863 -18.9822 -18.9822
-0.343007 -19.1455 -19.1455
-0.0677145 -19.1545 -19.1545
-0.0627923 -18.9911 -18.9911
-0.340433 -19.0638 -19.0638
-0.205372 -19.15 -19.15
-0.0652497 -19.0728 -19.0728
-0.200339 -18.9866 -18.9866
-0.202852 -19.0683 -19.0683
-0.343007 -19.1455 -19.1455
-0.348166 -19.309 -19.309
-0.0726663 -19.3179 -19.3179
-0.0677145 -19.1545 -19.1545
-0.345585 -19.2272 -19.2272
-0.210427 -19.3134 -19.3134
-0.0701868 -19.2362 -19.2362
-0.205372 -19.15 -19.15
-0.207896 -19.2317 -19.2317
-0.348166 -19.309 -19.309
-0.35334 -19.4725 -19.4725
-0.0776471 -19.4815 -19.4815
-0.0726663 -19.3179 -19.3179
-0.350751 -19.3907 -19.3907
-0.215504 -19.477 -19.477
-0.0751531 -19.3997 -19.3997
-0.210427 -19.3134 -19.3134
-0.212963 -19.3952 -19.3952
-0.35334 -19.4725 -19.4725
-0.358528 -19.6362 -19.6362
-0.0826565 -19.6452 -19.6452
-0.0776471 -19.4815 -19.4815
-0.355932 -19.5544 -19.5544
-0.220603 -19.6407 -19.6407
-0.0801483 -19.5633 -19.5633
-0.215504 -19.477 -19.477
-0.218051 -19.5588 -19.5588
-0.358528 -19.6362 -19.6362
-0.36373 -19.8 -19.8
-0.0876939 -19.809 -19.809
-0.0826565 -19.6452 -19.6452
-0.361127 -19.7181 -19.7181
-0.225723 -19.8045 -19.8045
-0.0851717 -19.7271 -19.7271
-0.220603 -19.6407 -19.6407
-0.22316 -19.7226 -19.7226
-0.36373 -19.8 -19.8
-0.368945 -19.9639 -19.9639
-0.092759 -19.9729 -19.9729
-0.0876939 -19.809 -19.809
-0.366335 -19.8819 -19.8819
-0.230863 -19.9684 -19.9684
-0.090223 -19.8909 -19.8909
-0.225723 -19.8045 -19.8045
-0.22829 -19.8864 -19.8864
-0.368945 -19.9639 -19.9639
-0.374173 -20.1278 -20.1278
-0.0978515 -20.1368 -20.1368
-0.092759 -19.9729 -19.9729
-0.371557 -20.0459 -20.0459
-0.236024 -20.1323 -20.1323
-0.0953018 -20.0548 -20.0548
-0.230863 -19.9684 -19.9684
-0.233441 -20.0503 -20.0503
-0.374173 -20.1278 -20.1278
-0.379414 -20.2919 -20.2919
-0.102972 -20.3009 -20.3009
-0.0978515 -20.1368 -20.1368
-0.376792 -20.2099 -20.2099
-0.241205 -20.2964 -20.2964
-0.100408 -20.2188 -20.2188
-0.236024 -20.1323 -20.1323
-0.238612 -20.2143 -20.2143
-0.379414 -20.2919 -20.2919
-0.384668 -20.456 -20.456
-0.108119 -20.465 -20.465
-0.102972 -20.3009 -20.3009
-0.38204 -20.3739 -20.3739
-0.246407 -20.4605 -20.4605
-0.105542 -20.3829 -20.3829
-0.241205 -20.2964 -20.2964
-0.243803 -20.3784 -20.3784
-0.384668 -20.456 -20.456
-0.389936 -20.6202 -20.6202
-0.113296 -20.6291 -20.6291
-0.108119 -20.465 -20.465
-0.3873 -20.5381 -20.5381
-0.25163 -20.6246 -20.6246
-0.110704 -20.547 -20.547
-0.246407 -20.4605 -20.4605
-0.249016 -20.5426 -20.5426
-0.389936 -20.6202 -20.6202
-0.395216 -20.7844 -20.7844
-0.118503 -20.7934 -20.7934
-0.113296 -20.6291 -20.6291
-0.392574 -20.7023 -20.7023
-0.256875 -20.7889 -20.7889
-0.115896 -20.7112 -20.7112
-0.25163 -20.6246 -20.6246
-0.25425 -20.7067 -20.7067
-0.395216 -20.7844 -20.7844
-0.400509 -20.9487 -20.9487
-0.123742 -20.9576 -20.9576
-0.118503 -20.7934 -20.7934
-0.397861 -20.8665 -20.8665
-0.262144 -20.9531 -20.9531
-0.121118 -20.8755 -20.8755
-0.256875 -20.7889 -20.7889
-0.259507 -20.871 -20.871
-0.400509 -20.9487 -20.9487
-0.405813 -21.1129 -21.1129
-0.129012 -21.1219 -21.1219
-0.123742 -20.9576 -20.9576
-0.40316 -21.0308 -21.0308
-0.267433 -21.1174 -21.1174
-0.126373 -21.0398 -21.0398
-0.262144 -20.9531 -20.9531
-0.264786 -21.0353 -21.0353
-0.405813 -21.1129 -21.1129
-0.411122 -21.2772 -21.2772
-0.134308 -21.2862 -21.2862
-0.129012 -21.1219 -21.1219
-0.408467 -21.1951 -21.1951
-0.272735 -21.2817 -21.2817
-0.131658 -21.2041 -21.2041
-0.267433 -21.1174 -21.1174
-0.270083 -21.1996 -21.1996
-0.411122 -21.2772 -21.2772
-0.41643 -21.4415 -21.4415
-0.139607 -21.4506 -21.4506
-0.134308 -21.2862 -21.2862
-0.413777 -21.3594 -21.3594
-0.278035 -21.446 -21.446
-0.136959 -21.3684 -21.3684
-0.272735 -21.2817 -21.2817
-0.275386 -21.3639 -21.3639
-0.41643 -21.4415 -21.4415
-0.421724 -21.6057 -21.6057
-0.144887 -21.6148 -21.6148
-0.139607 -21.4506 -21.4506
-0.419079 -21.5236 -21.5236
-0.283323 -21.6102 -21.6102
-0.142251 -21.5327 -21.5327
-0.278035 -21.446 -21.446
-0.280681 -21.5281 -21.5281
0 0 0
0.00370918 -0.000394332 -0.000394332
0.00639262 -0.00182948 -0.00182948
0 0 0
0.00179796 0.000107827 0.000107827
0.00500166 -0.000939013 -0.000939013
0.00310277 -0.000657771 -0.000657771
0 0 0
0.00246286 -0.000203528 -0.000203528
0.00370918 -0.000394332 -0.000394332
0.00770228 -0.00291896 -0.00291896
0.0133117 -0.00527465 -0.00527465
0.00639262 -0.00182948 -0.00182948
0.00568089 -0.0014154 -0.0014154
0.0104124 -0.00389547 -0.00389547
0.00981933 -0.00338578 -0.00338578
0.00500166 -0.000939013 -0.000939013
0.00766391 -0.00219201 -0.00219201
0.00770228 -0.00291896 -0.00291896
0.0118606 -0.0072804 -0.0072804
0.0202922 -0.0100058 -0.0100058
0.0133117 -0.00527465 -0.00527465
0.00976899 -0.00488198 -0.00488198
0.0159937 -0.00845413 -0.00845413
0.0168063 -0.00747418 -0.00747418
0.0104124 -0.00389547 -0.00389547
0.0131962 -0.00598433 -0.00598433
0.0118606 -0.0072804 -0.0072804
0.0160507 -0.0133165 -0.0133165
0.0272344 -0.0161628 -0.0161628
0.0202922 -0.0100058 -0.0100058
0.0139565 -0.0100937 -0.0100937
0.0215826 -0.0145642 -0.0145642
0.0237698 -0.0128977 -0.0128977
0.0159937 -0.00845413 -0.00845413
0.0187919 -0.0113137 -0.0113137
0.0160507 -0.0133165 -0.0133165
0.0202225 -0.0209827 -0.0209827
0.0341129 -0.023847 -0.023847
0.0272344 -0.0161628 -0.0161628
0.0181408 -0.0169471 -0.0169471
0.0271238 -0.0222437 -0.0222437
0.0306813 -0.0198096 -0.0198096
0.0215826 -0.0145642 -0.0145642
0.0243602 -0.0182061 -0.0182061
0.0202225 -0.0209827 -0.0209827
0.0243501 -0.030262 -0.030262
0.0409396 -0.0331175 -0.0331175
0.0341129 -0.023847 -0.023847
0.0222922 -0.0254211 -0.0254211
0.0326111 -0.0315205 -0.0315205
0.0375324 -0.0282822 -0.0282822
0.0271238 -0.0222437 -0.0222437
0.0298741 -0.0266816 -0.0266816
0.0243501 -0.030262 -0.030262
0.0284339 -0.0411514 -0.0411514
0.0477164 -0.0439914 -0.0439914
0.0409396 -0.0331175 -0.0331175
0.0263973 -0.0355057 -0.0355057
0.038047 -0.0424025 -0.0424025
0.0443341 -0.0383536 -0.0383536
0.0326111 -0.0315205 -0.0315205
0.0353352 -0.0367607 -0.0367607
0.0284339 -0.0411514 -0.0411514
0.0324752 -0.0536457 -0.0536457
0.0544474 -0.0564737 -0.0564737
0.0477164 -0.0439914 -0.0439914
0.0304596 -0.0471983 -0.0471983
0.0434362 -0.054891 -0.054891
0.0510875 -0.0500317 -0.0500317
0.038047 -0.0424025 -0.0424025
0.0407472 -0.0484461 -0.0484461
0.0324752 -0.0536457 -0.0536457
0.0364782 -0.0677394 -0.0677394
0.0611326 -0.0705599 -0.0705599
0.0544474 -0.0564737 -0.0564737
0.0344813 -0.060493 -0.060493
0.0487819 -0.0689811 -0.0689811
0.0577957 -0.0633167 -0.0633167
0.0434362 -0.054891 -0.054891
0.0461143 -0.0617362 -0.0617362
0.0364782 -0.0677394 -0.0677394
0.0404451 -0.0834257 -0.0834257
0.0677725 -0.0862429 -0.0862429
0.0611326 -0.0705599 -0.0705599
0.0384661 -0.075384 -0.075384
0.0540861 -0.0846662 -0.0846662
0.0644582 -0.0782023 -0.0782023
0.0487819 -0.0689811 -0.0689811
0.0514391 -0.0766248 -0.0766248
0.0404451 -0.0834257 -0.0834257
0.0443774 -0.100697 -0.100697
0.0743662 -0.103514 -0.103514
0.0677725 -0.0862429 -0.0862429
0.0424155 -0.0918637 -0.0918637
0.0593495 -0.101938 -0.101938
0.0710752 -0.0946807 -0.0946807
0.0540861 -0.0846662 -0.0846662
0.0567228 -0.0931044 -0.0931044
0.0443774 -0.100697 -0.100697
0.0482755 -0.119545 -0.119545
0.0809132 -0.122366 -0.122366
0.0743662 -0.103514 -0.103514
0.0463307 -0.109924 -0.109924
0.0645722 -0.120789 -0.120789
0.0776456 -0.112743 -0.112743
0.0593495 -0.101938 -0.101938
0.061966 -0.111167 -0.111167
0.0482755 -0.119545 -0.119545
0.0521393 -0.139962 -0.139962
0.0874126 -0.142788 -0.142788
0.0809132 -0.122366 -0.122366
0.0502117 -0.129558 -0.129558
0.069754 -0.141209 -0.141209
0.0841689 -0.132381 -0.132381
0.0645722 -0.120789 -0.120789
0.0671683 -0.130803 -0.130803
0.0521393 -0.139962 -0.139962
0.0559684 -0.161938 -0.161938
0.0938634 -0.164772 -0.164772
0.0874126 -0.142788 -0.142788
0.0540582 -0.150756 -0.150756
0.074894 -0.16319 -0.16319
0.0906441 -0.153585 -0.153585
0.069754 -0.141209 -0.141209
0.0723292 -0.152005 -0.152005
0.0559684 -0.161938 -0.161938
0.0597622 -0.185467 -0.185467
0.100265 -0.188309 -0.188309
0.0938634 -0.164772 -0.164772
0.0578698 -0.173509 -0.173509
0.0799917 -0.186724 -0.186724
0.0970703 -0.176347 -0.176347
0.074894 -0.16319 -0.16319
0.0774482 -0.174763 -0.174763
0.0597622 -0.185467 -0.185467
0.0635198 -0.210539 -0.210539
0.106616 -0.213392 -0.213392
0.100265 -0.188309 -0.188309
0.0616456 -0.197811 -0.197811
0.0850461 -0.211802 -0.211802
0.103447 -0.200658 -0.200658
0.0799917 -0.186724 -0.186724
0.0825243 -0.19907 -0.19907
0.0635198 -0.210539 -0.210539
0.0672406 -0.237145 -0.237145
0.112916 -0.24001 -0.24001
0.106616 -0.213392 -0.213392
0.0653849 -0.223651 -0.223651
0.0900565 -0.238415 -0.238415
0.109772 -0.22651 -0.22651
0.0850461 -0.211802 -0.211802
0.0875568 -0.224917 -0.224917
0.0672406 -0.237145 -0.237145
0.0709236 -0.265278 -0.265278
0.119164 -0.268156 -0.268156
0.112916 -0.24001 -0.24001
0.0690868 -0.251021 -0.251021
0.095022 -0.266555 -0.266555
0.116046 -0.253893 -0.253893
0.0900565 -0.238415 -0.238415
0.0925449 -0.252295 -0.252295
0.0709236 -0.265278 -0.265278
0.074568 -0.294928 -0.294928
0.125359 -0.297821 -0.297821
0.119164 -0.268156 -0.268156
0.0727507 -0.279914 -0.279914
0.0999419 -0.296214 -0.296214
0.122268 -0.282799 -0.282799
0.095022 -0.266555 -0.266555
0.0974877 -0.281195 -0.281195
0.074568 -0.294928 -0.294928
0.0781732 -0.326087 -0.326087
0.1315 -0.328997 -0.328997
0.125359 -0.297821 -0.297821
0.0763756 -0.31032 -0.31032
0.104815 -0.327382 -0.327382
0.128436 -0.313221 -0.313221
0.0999419 -0.296214 -0.296214
0.102384 -0.31161 -0.31161
0.0781732 -0.326087 -0.326087
0.0817382 -0.358747 -0.358747
0.137587 -0.361674 -0.361674
0.1315 -0.328997 -0.328997
0.0799608 -0.34223 -0.34223
0.109641 -0.360052 -0.360052
0.13455 -0.345148 -0.345148
0.104815 -0.327382 -0.327382
0.107234 -0.34353 -0.34353
0.0817382 -0.358747 -0.358747
0.0852623 -0.392899 -0.392899
0.143619 -0.395845 -0.395845
0.137587 -0.361674 -0.361674
0.0835054 -0.375637 -0.375637
0.114419 -0.394214 -0.394214
0.14061 -0.378573 -0.378573
0.109641 -0.360052 -0.360052
0.112036 -0.376947 -0.376947
0.0852623 -0.392899 -0.392899
0.0887448 -0.428534 -0.428534
0.149595 -0.4315 -0.4315
0.143619 -0.395845 -0.395845
0.0870088 -0.410532 -0.410532
0.119149 -0.42986 -0.42986
0.146614 -0.413488 -0.413488
0.114419 -0.394214 -0.394214
0.11679 -0.411852 -0.411852
0.0887448 -0.428534 -0.428534
0.0921849 -0.465645 -0.465645
0.155514 -0.468632 -0.468632
0.149595 -0.4315 -0.4315
0.0904702 -0.446906 -0.446906
0.123828 -0.466982 -0.466982
0.152561 -0.449882 -0.449882
0.119149 -0.42986 -0.42986
0.121495 -0.448237 -0.448237
0.0921849 -0.465645 -0.465645
0.0955818 -0.504222 -0.504222
0.161376 -0.507231 -0.507231
0.155514 -0.468632 -0.468632
0.0938888 -0.48475 -0.48475
0.128458 -0.505571 -0.505571
0.158452 -0.487749 -0.487749
0.123828 -0.466982 -0.466982
0.126149 -0.486094 -0.486094
0.0955818 -0.504222 -0.504222
0.098935 -0.544256 -0.544256
0.167179 -0.54729 -0.54729
0.161376 -0.507231 -0.507231
0.0972639 -0.524057 -0.524057
0.133036 -0.545619 -0.545619
0.164285 -0.527079 -0.527079
0.128458 -0.505571 -0.505571
0.130753 -0.525413 -0.525413
0.098935 -0.544256 -0.544256
0.102244 -0.58574 -0.58574
0.172924 -0.588799 -0.588799
0.167179 -0.54729 -0.54729
0.100595 -0.564818 -0.564818
0.137563 -0.587116 -0.587116
0.170059 -0.567864 -0.567864
0.133036 -0.545619 -0.545619
0.135306 -0.566187 -0.566187
0.102244 -0.58574 -0.58574
0.105507 -0.628665 -0.628665
0.178609 -0.63175 -0.63175
0.172924 -0.588799 -0.588799
0.103881 -0.607023 -0.607023
0.142037 -0.630055 -0.630055
0.175774 -0.610095 -0.610095
0.137563 -0.587116 -0.587116
0.139807 -0.608406 -0.608406
0.105507 -0.628665 -0.628665
0.108724 -0.673023 -0.673023
0.184234 -0.676134 -0.676134
0.178609 -0.63175 -0.63175
0.107121 -0.650666 -0.650666
0.146458 -0.674427 -0.674427
0.181429 -0.653764 -0.653764
0.142037 -0.630055 -0.630055
0.144255 -0.652062 -0.652062
0.108724 -0.673023 -0.673023
0.111895 -0.718804 -0.718804
0.189798 -0.721944 -0.721944
0.184234 -0.676134 -0.676134
0.110316 -0.695736 -0.695736
0.150826 -0.720223 -0.720223
0.187024 -0.698862 -0.698862
0.146458 -0.674427 -0.674427
0.148649 -0.697147 -0.697147
0.111895 -0.718804 -0.718804
0.115019 -0.766 -0.766
0.195301 -0.76917 -0.76917
0.189798 -0.721944 -0.721944
0.113463 -0.742226 -0.742226
0.155139 -0.767435 -0.767435
0.192557 -0.74538 -0.74538
0.150826 -0.720223 -0.720223
0.15299 -0.743652 -0.743652
0.115019 -0.766 -0.766
0.118095 -0.814604 -0.814604
0.200741 -0.817803 -0.817803
0.195301 -0.76917 -0.76917
0.116563 -0.790127 -0.790127
0.159398 -0.816054 -0.816054
0.198029 -0.793311 -0.793311
0.155139 -0.767435 -0.767435
0.157275 -0.791569 -0.791569
0.118095 -0.814604 -0.814604
0.121123 -0.864605 -0.864605
0.206119 -0.867836 -0.867836
0.200741 -0.817803 -0.817803
0.119615 -0.83943 -0.83943
0.1636 -0.866072 -0.866072
0.203438 -0.842645 -0.842645
0.159398 -0.816054 -0.816054
0.161506 -0.840889 -0.840889
0.121123 -0.864605 -0.864605
0.124101 -0.915996 -0.915996
0.211434 -0.91926 -0.91926
0.206119 -0.867836 -0.867836
0.122618 -0.890128 -0.890128
0.167747 -0.917481 -0.917481
0.208784 -0.893375 -0.893375
0.1636 -0.866072 -0.866072
0.165681 -0.891603 -0.891603
0.124101 -0.915996 -0.915996
0.12703 -0.968769 -0.968769
0.216684 -0.972065 -0.972065
0.211434 -0.91926 -0.91926
0.125572 -0.94221 -0.94221
0.171837 -0.97027 -0.97027
0.214067 -0.94549 -0.94549
0.167747 -0.917481 -0.917481
0.169799 -0.943703 -0.943703
0.12703 -0.968769 -0.968769
0.129909 -1.02291 -1.02291
0.22187 -1.02624 -1.02624
0.216684 -0.972065 -0.972065
0.128476 -0.99567 -0.99567
0.175869 -1.02443 -1.02443
0.219285 -0.998984 -0.998984
0.171837 -0.97027 -0.97027
0.17386 -0.997181 -0.997181
0.129909 -1.02291 -1.02291
0.132737 -1.07842 -1.07842
0.226991 -1.08179 -1.08179
0.22187 -1.02624 -1.02624
0.131329 -1.0505 -1.0505
0.179844 -1.07996 -1.07996
0.224439 -1.05385 -1.05385
0.175869 -1.02443 -1.02443
0.177864 -1.05203 -1.05203
0.132737 -1.07842 -1.07842
0.135513 -1.13529 -1.13529
0.232046 -1.13869 -1.13869
0.226991 -1.08179 -1.08179
0.134131 -1.10669 -1.10669
0.18376 -1.13685 -1.13685
0.229527 -1.11007 -1.11007
0.179844 -1.07996 -1.07996
0.181809 -1.10823 -1.10823
0.135513 -1.13529 -1.13529
0.138238 -1.1935 -1.1935
0.237036 -1.19694 -1.19694
0.232046 -1.13869 -1.13869
0.136882 -1.16423 -1.16423
0.187617 -1.19508 -1.19508
0.234549 -1.16765 -1.16765
0.18376 -1.13685 -1.13685
0.185696 -1.16579 -1.16579
0.138238 -1.1935 -1.1935
0.140911 -1.25305 -1.25305
0.241958 -1.25653 -1.25653
0.237036 -1.19694 -1.19694
0.139581 -1.22311 -1.22311
0.191415 -1.25465 -1.25465
0.239505 -1.22657 -1.22657
0.187617 -1.19508 -1.19508
0.189523 -1.22469 -1.22469
0.140911 -1.25305 -1.25305
0.14353 -1.31393 -1.31393
0.246814 -1.31745 -1.31745
0.241958 -1.25653 -1.25653
0.142227 -1.28332 -1.28332
0.195152 -1.31555 -1.31555
0.244395 -1.28682 -1.28682
0.191415 -1.25465 -1.25465
0.193291 -1.28493 -1.28493
0.14353 -1.31393 -1.31393
0.146097 -1.37613 -1.37613
0.251602 -1.37969 -1.37969
0.246814 -1.31745 -1.31745
0.14482 -1.34487 -1.34487
0.198829 -1.37777 -1.37777
0.249216 -1.3484 -1.3484
0.195152 -1.31555 -1.31555
0.196998 -1.34649 -1.34649
0.146097 -1.37613 -1.37613
0.14861 -1.43965 -1.43965
0.256322 -1.44324 -1.44324
0.251602 -1.37969 -1.37969
0.14736 -1.40773 -1.40773
0.202446 -1.44131 -1.44131
0.25397 -1.4113 -1.4113
0.198829 -1.37777 -1.37777
0.200645 -1.40937 -1.40937
0.14861 -1.43965 -1.43965
0.151068 -1.50447 -1.50447
0.260973 -1.5081 -1.5081
0.256322 -1.44324 -1.44324
0.149846 -1.47189 -1.47189
0.206 -1.50615 -1.50615
0.258656 -1.47551 -1.47551
0.202446 -1.44131 -1.44131
0.204231 -1.47356 -1.47356
0.151068 -1.50447 -1.50447
0.153472 -1.57058 -1.57058
0.265555 -1.57426 -1.57426
0.260973 -1.5081 -1.5081
0.152277 -1.53736 -1.53736
0.209493 -1.57228 -1.57228
0.263272 -1.54102 -1.54102
0.206 -1.50615 -1.50615
0.207755 -1.53905 -1.53905
0.153472 -1.57058 -1.57058
0.15582 -1.63799 -1.63799
0.270068 -1.64171 -1.64171
0.265555 -1.57426 -1.57426
0.154653 -1.60412 -1.60412
0.212924 -1.63971 -1.63971
0.26782 -1.60782 -1.60782
0.209493 -1.57228 -1.57228
0.211217 -1.60584 -1.60584
0.15582 -1.63799 -1.63799
0.158113 -1.70667 -1.70667
0.274511 -1.71043 -1.71043
0.270068 -1.64171 -1.64171
0.156974 -1.67217 -1.67217
0.216292 -1.70841 -1.70841
0.272298 -1.67591 -1.67591
0.212924 -1.63971 -1.63971
0.214616 -1.6739 -1.6739
0.158113 -1.70667 -1.70667
0.16035 -1.77662 -1.77662
0.278883 -1.78043 -1.78043
0.274511 -1.71043 -1.71043
0.159239 -1.74149 -1.74149
0.219597 -1.77839 -1.77839
0.276706 -1.74527 -1.74527
0.216292 -1.70841 -1.70841
0.217952 -1.74324 -1.74324
0.16035 -1.77662 -1.77662
0.162531 -1.84783 -1.84783
0.283185 -1.85169 -1.85169
0.278883 -1.78043 -1.78043
0.161447 -1.81207 -1.81207
0.222838 -1.84963 -1.84963
0.281043 -1.8159 -1.8159
0.219597 -1.77839 -1.77839
0.221226 -1.81385 -1.81385
0.162531 -1.84783 -1.84783
0.164655 -1.9203 -1.9203
0.287416 -1.9242 -1.9242
0.283185 -1.85169 -1.85169
0.1636 -1.88391 -1.88391
0.226016 -1.92212 -1.92212
0.285309 -1.88779 -1.88779
0.222838 -1.84963 -1.84963
0.224435 -1.88572 -1.88572
0.164655 -1.9203 -1.9203
0.166721 -1.99401 -1.99401
0.291575 -1.99796 -1.99796
0.287416 -1.9242 -1.9242
0.165695 -1.957 -1.957
0.229129 -1.99585 -1.99585
0.289504 -1.96092 -1.96092
0.226016 -1.92212 -1.92212
0.22758 -1.95883 -1.95883
0.166721 -1.99401 -1.99401
0.16873 -2.06896 -2.06896
0.295663 -2.07295 -2.07295
0.291575 -1.99796 -1.99796
0.167733 -2.03133 -2.03133
0.232177 -2.07083 -2.07083
0.293628 -2.0353 -2.0353
0.229129 -1.99585 -1.99585
0.230661 -2.03319 -2.03319
0.16873 -2.06896 -2.06896
0.170682 -2.14514 -2.14514
0.299678 -2.14918 -2.14918
0.295663 -2.07295 -2.07295
0.169713 -2.1069 -2.1069
0.23516 -2.14703 -2.14703
0.297679 -2.11091 -2.11091
0.232177 -2.07083 -2.07083
0.233677 -2.10877 -2.10877
0.170682 -2.14514 -2.14514
0.172575 -2.22253 -2.22253
0.303621 -2.22662 -2.22662
0.299678 -2.14918 -2.14918
0.171636 -2.18368 -2.18368
0.238079 -2.22445 -2.22445
0.301659 -2.18775 -2.18775
0.23516 -2.14703 -2.14703
0.236628 -2.18559 -2.18559
0.172575 -2.22253 -2.22253
0.17441 -2.30114 -2.30114
0.307491 -2.30527 -2.30527
0.303621 -2.22662 -2.22662
0.1735 -2.26169 -2.26169
0.240931 -2.30308 -2.30308
0.305565 -2.2658 -2.2658
0.238079 -2.22445 -2.22445
0.239513 -2.26361 -2.26361
0.17441 -2.30114 -2.30114
0.176186 -2.38095 -2.38095
0.311288 -2.38513 -2.38513
0.307491 -2.30527 -2.30527
0.175305 -2.3409 -2.3409
0.243717 -2.38291 -2.38291
0.309399 -2.34505 -2.34505
0.240931 -2.30308 -2.30308
0.242333 -2.34285 -2.34285
0.176186 -2.38095 -2.38095
0.177902 -2.46195 -2.46195
0.315012 -2.46618 -2.46618
0.311288 -2.38513 -2.38513
0.177051 -2.4213 -2.4213
0.246438 -2.46394 -2.46394
0.313159 -2.42551 -2.42551
0.243717 -2.38291 -2.38291
0.245086 -2.42328 -2.42328
0.177902 -2.46195 -2.46195
0.17956 -2.54414 -2.54414
0.318661 -2.54842 -2.54842
0.315012 -2.46618 -2.46618
0.178739 -2.5029 -2.5029
0.249091 -2.54615 -2.54615
0.316846 -2.50715 -2.50715
0.246438 -2.46394 -2.46394
0.247773 -2.5049 -2.5049
0.17956 -2.54414 -2.54414
0.181157 -2.6275 -2.6275
0.322237 -2.63184 -2.63184
0.318661 -2.54842 -2.54842
0.180366 -2.58567 -2.58567
0.251678 -2.62954 -2.62954
0.320459 -2.58998 -2.58998
0.249091 -2.54615 -2.54615
0.250393 -2.5877 -2.5877
0.181157 -2.6275 -2.6275
0.182695 -2.71204 -2.71204
0.325739 -2.71642 -2.71642
0.322237 -2.63184 -2.63184
0.181934 -2.66962 -2.66962
0.254198 -2.7141 -2.7141
0.323997 -2.67398 -2.67398
0.251678 -2.62954 -2.62954
0.252946 -2.67168 -2.67168
0.182695 -2.71204 -2.71204
0.184173 -2.79773 -2.79773
0.329166 -2.80216 -2.80216
0.325739 -2.71642 -2.71642
0.183442 -2.75474 -2.75474
0.25665 -2.79982 -2.79982
0.327462 -2.75915 -2.75915
0.254198 -2.7141 -2.7141
0.255432 -2.75682 -2.75682
0.184173 -2.79773 -2.79773
0.18559 -2.88457 -2.88457
0.332518 -2.88906 -2.88906
0.329166 -2.80216 -2.80216
0.184889 -2.84101 -2.84101
0.259035 -2.88669 -2.88669
0.330852 -2.84546 -2.84546
0.25665 -2.79982 -2.79982
0.257851 -2.84311 -2.84311
0.18559 -2.88457 -2.88457
0.186946 -2.97256 -2.97256
0.335796 -2.97709 -2.97709
0.332518 -2.88906 -2.88906
0.186276 -2.92842 -2.92842
0.261352 -2.9747 -2.9747
0.334167 -2.93293 -2.93293
0.259035 -2.88669 -2.88669
0.260202 -2.93055 -2.93055
0.186946 -2.97256 -2.97256
0.188242 -3.06168 -3.06168
0.338998 -3.06627 -3.06627
0.335796 -2.97709 -2.97709
0.187602 -3.01698 -3.01698
0.263601 -3.06385 -3.06385
0.337406 -3.02154 -3.02154
0.261352 -2.9747 -2.9747
0.262485 -3.01914 -3.01914
0.188242 -3.06168 -3.06168
0.189477 -3.15192 -3.15192
0.342125 -3.15656 -3.15656
0.338998 -3.06627 -3.06627
0.188867 -3.10666 -3.10666
0.265782 -3.15412 -3.15412
0.340571 -3.11127 -3.11127
0.263601 -3.06385 -3.06385
0.2647 -3.10885 -3.10885
0.189477 -3.15192 -3.15192
0.19065 -3.24328 -3.24328
0.345176 -3.24798 -3.24798
0.342125 -3.15656 -3.15656
0.190071 -3.19746 -3.19746
0.267894 -3.24551 -3.24551
0.34366 -3.20213 -3.20213
0.265782 -3.15412 -3.15412
0.266846 -3.19968 -3.19968
0.19065 -3.24328 -3.24328
0.191762 -3.33576 -3.33576
0.348152 -3.3405 -3.3405
0.345176 -3.24798 -3.24798
0.191213 -3.28938 -3.28938
0.269938 -3.33801 -3.33801
0.346673 -3.2941 -3.2941
0.267894 -3.24551 -3.24551
0.268924 -3.29162 -3.29162
0.191762 -3.33576 -3.33576
0.192812 -3.42933 -3.42933
0.351051 -3.43413 -3.43413
0.348152 -3.3405 -3.3405
0.192294 -3.3824 -3.3824
0.271912 -3.43161 -3.43161
0.349611 -3.38718 -3.38718
0.269938 -3.33801 -3.33801
0.270934 -3.38467 -3.38467
0.192812 -3.42933 -3.42933
0.1938 -3.52399 -3.52399
0.353875 -3.52884 -3.52884
0.351051 -3.43413 -3.43413
0.193314 -3.47652 -3.47652
0.273818 -3.5263 -3.5263
0.352472 -3.48135 -3.48135
0.271912 -3.43161 -3.43161
0.272874 -3.47882 -3.47882
0.1938 -3.52399 -3.52399
0.194727 -3.61974 -3.61974
0.356622 -3.62464 -3.62464
0.353875 -3.52884 -3.52884
0.194271 -3.57173 -3.57173
0.275655 -3.62207 -3.62207
0.355258 -3.57661 -3.57661
0.273818 -3.5263 -3.5263
0.274745 -3.57405 -3.57405
0.194727 -3.61974 -3.61974
0.195591 -3.71656 -3.71656
0.359293 -3.72152 -3.72152
0.356622 -3.62464 -3.62464
0.195167 -3.66801 -3.66801
0.277423 -3.71892 -3.71892
0.357967 -3.67295 -3.67295
0.275655 -3.62207 -3.62207
0.276548 -3.67036 -3.67036
0.195591 -3.71656 -3.71656
0.196393 -3.81444 -3.81444
0.361887 -3.81946 -3.81946
0.359293 -3.72152 -3.72152
0.196 -3.76537 -3.76537
0.279121 -3.81684 -3.81684
0.360599 -3.77036 -3.77036
0.277423 -3.71892 -3.71892
0.27828 -3.76775 -3.76775
0.196393 -3.81444 -3.81444
0.197133 -3.91339 -3.91339
0.364404 -3.91846 -3.91846
0.361887 -3.81946 -3.81946
0.196771 -3.86378 -3.86378
0.28075 -3.91581 -3.91581
0.363155 -3.86883 -3.86883
0.279121 -3.81684 -3.81684
0.279944 -3.86619 -3.86619
0.197133 -3.91339 -3.91339
0.19781 -4.01338 -4.01338
0.366845 -4.0185 -4.0185
0.364404 -3.91846 -3.91846
0.197479 -3.96325 -3.96325
0.282309 -4.01583 -4.01583
0.365634 -3.96835 -3.96835
0.28075 -3.91581 -3.91581
0.281538 -3.96569 -3.96569
0.19781 -4.01338 -4.01338
0.198425 -4.11441 -4.11441
0.369209 -4.11959 -4.11959
0.366845 -4.0185 -4.0185
0.198125 -4.06377 -4.06377
0.283798 -4.11689 -4.11689
0.368037 -4.06892 -4.06892
0.282309 -4.01583 -4.01583
0.283062 -4.06623 -4.06623
0.198425 -4.11441 -4.11441
0.198977 -4.21648 -4.21648
0.371497 -4.22171 -4.22171
0.369209 -4.11959 -4.11959
0.198709 -4.16532 -4.16532
0.285218 -4.21899 -4.21899
0.370363 -4.17052 -4.17052
0.283798 -4.11689 -4.11689
0.284517 -4.16781 -4.16781
0.198977 -4.21648 -4.21648
0.199467 -4.31957 -4.31957
0.373707 -4.32486 -4.32486
0.371497 -4.22171 -4.22171
0.19923 -4.26789 -4.26789
0.286568 -4.3221 -4.3221
0.372611 -4.27316 -4.27316
0.285218 -4.21899 -4.21899
0.285902 -4.27042 -4.27042
0.199467 -4.31957 -4.31957
0.199893 -4.42367 -4.42367
0.37584 -4.42902 -4.42902
0.373707 -4.32486 -4.32486
0.199688 -4.37149 -4.37149
0.287848 -4.42623 -4.42623
0.374783 -4.37681 -4.37681
0.286568 -4.3221 -4.3221
0.287216 -4.37404 -4.37404
0.199893 -4.42367 -4.42367
0.200257 -4.52878 -4.52878
0.377896 -4.53418 -4.53418
0.37584 -4.42902 -4.42902
0.200083 -4.4761 -4.4761
0.289058 -4.53137 -4.53137
0.376877 -4.48147 -4.48147
0.287848 -4.42623 -4.42623
0.288461 -4.47868 -4.47868
0.200257 -4.52878 -4.52878
0.200558 -4.63489 -4.63489
0.379874 -4.64034 -4.64034
0.377896 -4.53418 -4.53418
0.200416 -4.58171 -4.58171
0.290197 -4.63751 -4.63751
0.378895 -4.58714 -4.58714
0.289058 -4.53137 -4.53137
0.289636 -4.58432 -4.58432
0.200558 -4.63489 -4.63489
0.200797 -4.74199 -4.74199
0.381776 -4.7475 -4.7475
0.379874 -4.64034 -4.64034
0.200685 -4.68831 -4.68831
0.291267 -4.74464 -4.74464
0.380835 -4.6938 -4.6938
0.290197 -4.63751 -4.63751
0.290741 -4.69095 -4.69095
0.200797 -4.74199 -4.74199
0.200972 -4.85006 -4.85006
0.3836 -4.85563 -4.85563
0.381776 -4.7475 -4.7475
0.200892 -4.7959 -4.7959
0.292267 -4.85274 -4.85274
0.382698 -4.80144 -4.80144
0.291267 -4.74464 -4.74464
0.291776 -4.79857 -4.79857
0.200972 -4.85006 -4.85006
0.201084 -4.95912 -4.95912
0.385347 -4.96474 -4.96474
0.3836 -4.85563 -4.85563
0.201036 -4.90447 -4.90447
0.293197 -4.96182 -4.96182
0.384484 -4.91006 -4.91006
0.292267 -4.85274 -4.85274
0.292741 -4.90716 -4.90716
0.201084 -4.95912 -4.95912
0.201133 -5.06913 -5.06913
0.387017 -5.07481 -5.07481
0.385347 -4.96474 -4.96474
0.201117 -5.014 -5.014
0.294056 -5.07187 -5.07187
0.386192 -5.01965 -5.01965
0.293197 -4.96182 -4.96182
0.293635 -5.01672 -5.01672
0.201133 -5.06913 -5.06913
0.20112 -5.1801 -5.1801
0.38861 -5.18583 -5.18583
0.387017 -5.07481 -5.07481
0.201134 -5.1245 -5.1245
0.294846 -5.18287 -5.18287
0.387823 -5.1302 -5.1302
0.294056 -5.07187 -5.07187
0.29446 -5.12725 -5.12725
0.20112 -5.1801 -5.1801
0.201043 -5.29202 -5.29202
0.390125 -5.29781 -5.29781
0.38861 -5.18583 -5.18583
0.201089 -5.23594 -5.23594
0.295565 -5.29481 -5.29481
0.389377 -5.2417 -5.2417
0.294846 -5.18287 -5.18287
0.295214 -5.23872 -5.23872
0.201043 -5.29202 -5.29202
0.200904 -5.40487 -5.40487
0.391564 -5.41072 -5.41072
0.390125 -5.29781 -5.29781
0.200981 -5.34833 -5.34833
0.296215 -5.4077 -5.4077
0.390854 -5.35415 -5.35415
0.295565 -5.29481 -5.29481
0.295899 -5.35114 -5.35114
0.200904 -5.40487 -5.40487
0.200701 -5.51866 -5.51866
0.392925 -5.52456 -5.52456
0.391564 -5.41072 -5.41072
0.20081 -5.46165 -5.46165
0.296794 -5.52151 -5.52151
0.392254 -5.46752 -5.46752
0.296215 -5.4077 -5.4077
0.296513 -5.46449 -5.46449
0.200701 -5.51866 -5.51866
0.200436 -5.63337 -5.63337
0.394208 -5.63932 -5.63932
0.392925 -5.52456 -5.52456
0.200577 -5.5759 -5.5759
0.297303 -5.63625 -5.63625
0.393576 -5.58183 -5.58183
0.296794 -5.52151 -5.52151
0.297057 -5.57876 -5.57876
0.200436 -5.63337 -5.63337
0.200108 -5.74899 -5.74899
0.395415 -5.755 -5.755
0.394208 -5.63932 -5.63932
0.20028 -5.69106 -5.69106
0.297743 -5.75189 -5.75189
0.394821 -5.69705 -5.69705
0.297303 -5.63625 -5.63625
0.297532 -5.69396 -5.69396
0.200108 -5.74899 -5.74899
0.199718 -5.86551 -5.86551
0.396545 -5.87158 -5.87158
0.395415 -5.755 -5.755
0.199921 -5.80714 -5.80714
0.298112 -5.86845 -5.86845
0.39599 -5.81317 -5.81317
0.297743 -5.75189 -5.75189
0.297936 -5.81006 -5.81006
0.199718 -5.86551 -5.86551
0.199264 -5.98293 -5.98293
0.397598 -5.98905 -5.98905
0.396545 -5.87158 -5.87158
0.199499 -5.92411 -5.92411
0.298412 -5.9859 -5.9859
0.397081 -5.9302 -5.9302
0.298112 -5.86845 -5.86845
0.298271 -5.92706 -5.92706
0.199264 -5.98293 -5.98293
0.198748 -6.10124 -6.10124
0.398574 -6.10741 -6.10741
0.397598 -5.98905 -5.98905
0.199014 -6.04197 -6.04197
0.298642 -6.10423 -6.10423
0.398095 -6.04812 -6.04812
0.298412 -5.9859 -5.9859
0.298536 -6.04495 -6.04495
0.198748 -6.10124 -6.10124
0.19817 -6.22043 -6.22043
0.399473 -6.22666 -6.22666
0.398574 -6.10741 -6.10741
0.198467 -6.16072 -6.16072
0.298802 -6.22345 -6.22345
0.399033 -6.16693 -6.16693
0.298642 -6.10423 -6.10423
0.298731 -6.16373 -6.16373
0.19817 -6.22043 -6.22043
0.197529 -6.34048 -6.34048
0.400295 -6.34677 -6.34677
0.399473 -6.22666 -6.22666
0.197857 -6.28035 -6.28035
0.298893 -6.34353 -6.34353
0.399894 -6.2866 -6.2866
0.298802 -6.22345 -6.22345
0.298857 -6.28338 -6.28338
0.197529 -6.34048 -6.34048
0.196826 -6.4614 -6.4614
0.401041 -6.46774 -6.46774
0.400295 -6.34677 -6.34677
0.197185 -6.40084 -6.40084
0.298915 -6.46448 -6.46448
0.400678 -6.40715 -6.40715
0.298893 -6.34353 -6.34353
0.298913 -6.4039 -6.4039
0.196826 -6.4614 -6.4614
0.196061 -6.58318 -6.58318
0.401711 -6.58957 -6.58957
0.401041 -6.46774 -6.46774
0.196451 -6.52218 -6.52218
0.298867 -6.58628 -6.58628
0.401386 -6.52855 -6.52855
0.298915 -6.46448 -6.46448
0.298899 -6.52527 -6.52527
0.196061 -6.58318 -6.58318
0.195233 -6.70579 -6.70579
0.402304 -6.71224 -6.71224
0.401711 -6.58957 -6.58957
0.195655 -6.64438 -6.64438
0.29875 -6.70893 -6.70893
0.402017 -6.6508 -6.6508
0.298867 -6.58628 -6.58628
0.298817 -6.6475 -6.6475
0.195233 -6.70579 -6.70579
0.194344 -6.82925 -6.82925
0.402821 -6.83575 -6.83575
0.402304 -6.71224 -6.71224
0.194796 -6.76742 -6.76742
0.298563 -6.83241 -6.83241
0.402572 -6.77389 -6.77389
0.29875 -6.70893 -6.70893
0.298665 -6.77056 -6.77056
0.194344 -6.82925 -6.82925
0.193393 -6.95353 -6.95353
0.403261 -6.96008 -6.96008
0.402821 -6.83575 -6.83575
0.193876 -6.89129 -6.89129
0.298308 -6.95672 -6.95672
0.403051 -6.89781 -6.89781
0.298563 -6.83241 -6.83241
0.298444 -6.89446 -6.89446
0.193393 -6.95353 -6.95353
0.19238 -7.07863 -7.07863
0.403626 -7.08524 -7.08524
0.403261 -6.96008 -6.96008
0.192894 -7.01598 -7.01598
0.297984 -7.08185 -7.08185
0.403453 -7.02256 -7.02256
0.298308 -6.95672 -6.95672
0.298155 -7.01918 -7.01918
0.19238 -7.07863 -7.07863
0.191306 -7.20454 -7.20454
0.403915 -7.2112 -7.2112
0.403626 -7.08524 -7.08524
0.191851 -7.14149 -7.14149
0.297592 -7.20779 -7.20779
0.40378 -7.14812 -7.14812
0.297984 -7.08185 -7.08185
0.297796 -7.14472 -7.14472
0.191306 -7.20454 -7.20454
0.190171 -7.33126 -7.33126
0.404129 -7.33797 -7.33797
0.403915 -7.2112 -7.2112
0.190746 -7.2678 -7.2678
0.297131 -7.33453 -7.33453
0.404031 -7.27449 -7.27449
0.297592 -7.20779 -7.20779
0.29737 -7.27106 -7.27106
0.190171 -7.33126 -7.33126
0.188974 -7.45877 -7.45877
0.404267 -7.46553 -7.46553
0.404129 -7.33797 -7.33797
0.18958 -7.39491 -7.39491
0.296601 -7.46207 -7.46207
0.404207 -7.40165 -7.40165
0.297131 -7.33453 -7.33453
0.296874 -7.3982 -7.3982
0.188974 -7.45877 -7.45877
0.187716 -7.58706 -7.58706
0.404329 -7.59388 -7.59388
0.404267 -7.46553 -7.46553
0.188353 -7.52282 -7.52282
0.296004 -7.59039 -7.59039
0.404307 -7.52961 -7.52961
0.296601 -7.46207 -7.46207
0.296311 -7.52613 -7.52613
0.187716 -7.58706 -7.58706
0.186398 -7.71613 -7.71613
0.404317 -7.723 -7.723
0.404329 -7.59388 -7.59388
0.187065 -7.6515 -7.6515
0.295338 -7.71949 -7.71949
0.404333 -7.65835 -7.65835
0.296004 -7.59039 -7.59039
0.295679 -7.65484 -7.65484
0.186398 -7.71613 -7.71613
0.185019 -7.84597 -7.84597
0.40423 -7.8529 -7.8529
0.404317 -7.723 -7.723
0.185716 -7.78096 -7.78096
0.294605 -7.84935 -7.84935
0.404283 -7.78785 -7.78785
0.295338 -7.71949 -7.71949
0.29498 -7.78432 -7.78432
0.185019 -7.84597 -7.84597
0.183579 -7.97658 -7.97658
0.404068 -7.98355 -7.98355
0.40423 -7.8529 -7.8529
0.184307 -7.91118 -7.91118
0.293804 -7.97998 -7.97998
0.404158 -7.91813 -7.91813
0.294605 -7.84935 -7.84935
0.294213 -7.91457 -7.91457
0.183579 -7.97658 -7.97658
0.18208 -8.10793 -8.10793
0.403832 -8.11495 -8.11495
0.404068 -7.98355 -7.98355
0.182837 -8.04216 -8.04216
0.292936 -8.11136 -8.11136
0.403959 -8.04915 -8.04915
0.293804 -7.97998 -7.97998
0.293379 -8.04558 -8.04558
0.18208 -8.10793 -8.10793
0.18052 -8.24002 -8.24002
0.403521 -8.24709 -8.24709
0.403832 -8.11495 -8.11495
0.181307 -8.17388 -8.17388
0.292001 -8.24348 -8.24348
0.403686 -8.18093 -8.18093
0.292936 -8.11136 -8.11136
0.292477 -8.17733 -8.17733
0.18052 -8.24002 -8.24002
0.178901 -8.37285 -8.37285
0.403136 -8.37997 -8.37997
0.403521 -8.24709 -8.24709
0.179718 -8.30635 -8.30635
0.290999 -8.37633 -8.37633
0.403338 -8.31344 -8.31344
0.292001 -8.24348 -8.24348
0.291509 -8.30982 -8.30982
0.178901 -8.37285 -8.37285
0.177222 -8.50641 -8.50641
0.402678 -8.51358 -8.51358
0.403136 -8.37997 -8.37997
0.178069 -8.43954 -8.43954
0.289931 -8.50992 -8.50992
0.402916 -8.44669 -8.44669
0.290999 -8.37633 -8.37633
0.290473 -8.44304 -8.44304
0.177222 -8.50641 -8.50641
0.175484 -8.64068 -8.64068
0.402146 -8.6479 -8.6479
0.402678 -8.51358 -8.51358
0.17636 -8.57346 -8.57346
0.288796 -8.64422 -8.64422
0.402421 -8.58065 -8.58065
0.289931 -8.50992 -8.50992
0.289371 -8.57698 -8.57698
0.175484 -8.64068 -8.64068
0.173687 -8.77566 -8.77566
0.401541 -8.78293 -8.78293
0.402146 -8.6479 -8.6479
0.174593 -8.70808 -8.70808
0.287594 -8.77922 -8.77922
0.401852 -8.71533 -8.71533
0.288796 -8.64422 -8.64422
0.288203 -8.71163 -8.71163
0.173687 -8.77566 -8.77566
0.171831 -8.91135 -8.91135
0.400862 -8.91867 -8.91867
0.401541 -8.78293 -8.78293
0.172766 -8.84342 -8.84342
0.286327 -8.91493 -8.91493
0.401211 -8.85071 -8.85071
0.287594 -8.77922 -8.77922
0.286969 -8.84699 -8.84699
0.171831 -8.91135 -8.91135
0.169916 -9.04772 -9.04772
0.400111 -9.05509 -9.05509
0.400862 -8.91867 -8.91867
0.170881 -8.97945 -8.97945
0.284994 -9.05133 -9.05133
0.400496 -8.98679 -8.98679
0.286327 -8.91493 -8.91493
0.285669 -8.98305 -8.98305
0.169916 -9.04772 -9.04772
0.167944 -9.18478 -9.18478
0.399287 -9.1922 -9.1922
0.400111 -9.05509 -9.05509
0.168937 -9.11617 -9.11617
0.283596 -9.18842 -9.18842
0.399708 -9.12356 -9.12356
0.284994 -9.05133 -9.05133
0.284303 -9.11979 -9.11979
0.167944 -9.18478 -9.18478
0.165913 -9.32252 -9.32252
0.398392 -9.32998 -9.32998
0.399287 -9.1922 -9.1922
0.166936 -9.25357 -9.25357
0.282133 -9.32617 -9.32617
0.398849 -9.261 -9.261
0.283596 -9.18842 -9.18842
0.282873 -9.25721 -9.25721
0.165913 -9.32252 -9.32252
0.163825 -9.46092 -9.46092
0.397424 -9.46843 -9.46843
0.398392 -9.32998 -9.32998
0.164876 -9.39163 -9.39163
0.280605 -9.4646 -9.4646
0.397917 -9.39912 -9.39912
0.282133 -9.32617 -9.32617
0.281377 -9.3953 -9.3953
0.163825 -9.46092 -9.46092
0.161679 -9.59998 -9.59998
0.396384 -9.60753 -9.60753
0.397424 -9.46843 -9.46843
0.162759 -9.53037 -9.53037
0.279012 -9.60368 -9.60368
0.396913 -9.5379 -9.5379
0.280605 -9.4646 -9.4646
0.279816 -9.53406 -9.53406
0.161679 -9.59998 -9.59998
0.159476 -9.73969 -9.73969
0.395273 -9.74729 -9.74729
0.396384 -9.60753 -9.60753
0.160585 -9.66975 -9.66975
0.277355 -9.74342 -9.74342
0.395838 -9.67733 -9.67733
0.279012 -9.60368 -9.60368
0.278192 -9.67347 -9.67347
0.159476 -9.73969 -9.73969
0.157217 -9.88004 -9.88004
0.394091 -9.88768 -9.88768
0.395273 -9.74729 -9.74729
0.158353 -9.80978 -9.80978
0.275634 -9.88379 -9.88379
0.394691 -9.8174 -9.8174
0.277355 -9.74342 -9.74342
0.276503 -9.81352 -9.81352
0.157217 -9.88004 -9.88004
0.1549 -10.021 -10.021
0.392838 -10.0287 -10.0287
0.394091 -9.88768 -9.88768
0.156066 -9.95045 -9.95045
0.27385 -10.0248 -10.0248
0.393474 -9.95812 -9.95812
0.275634 -9.88379 -9.88379
0.27475 -9.95422 -9.95422
0.1549 -10.021 -10.021
0.152528 -10.1626 -10.1626
0.391515 -10.1704 -10.1704
0.392838 -10.0287 -10.0287
0.153721 -10.0917 -10.0917
0.272002 -10.1664 -10.1664
0.392186 -10.0995 -10.0995
0.27385 -10.0248 -10.0248
0.272934 -10.0955 -10.0955
0.152528 -10.1626 -10.1626
0.1501 -10.3049 -10.3049
0.390122 -10.3126 -10.3126
0.391515 -10.1704 -10.1704
0.151321 -10.2337 -10.2337
0.270091 -10.3087 -10.3087
0.390827 -10.2414 -10.2414
0.272002 -10.1664 -10.1664
0.271054 -10.2375 -10.2375
0.1501 -10.3049 -10.3049
0.147616 -10.4477 -10.4477
0.388659 -10.4555 -10.4555
0.390122 -10.3126 -10.3126
0.148865 -10.3762 -10.3762
0.268118 -10.4515 -10.4515
0.389399 -10.384 -10.384
0.270091 -10.3087 -10.3087
0.269112 -10.38 -10.38
0.147616 -10.4477 -10.4477
0.145077 -10.5911 -10.5911
0.387126 -10.599 -10.599
0.388659 -10.4555 -10.4555
0.146354 -10.5193 -10.5193
0.266082 -10.595 -10.595
0.387901 -10.5272 -10.5272
0.268118 -10.4515 -10.4515
0.267108 -10.5232 -10.5232
0.145077 -10.5911 -10.5911
0.142483 -10.7351 -10.7351
0.385524 -10.743 -10.743
0.387126 -10.599 -10.599
0.143787 -10.6631 -10.6631
0.263984 -10.739 -10.739
0.386334 -10.6709 -10.6709
0.266082 -10.595 -10.595
0.265041 -10.6669 -10.6669
0.142483 -10.7351 -10.7351
0.139835 -10.8797 -10.8797
0.383853 -10.8877 -10.8877
0.385524 -10.743 -10.743
0.141166 -10.8074 -10.8074
0.261824 -10.8836 -10.8836
0.384697 -10.8153 -10.8153
0.263984 -10.739 -10.739
0.262912 -10.8113 -10.8113
0.139835 -10.8797 -10.8797
0.137133 -11.0249 -11.0249
0.382114 -11.0329 -11.0329
0.383853 -10.8877 -10.8877
0.138491 -10.9523 -10.9523
0.259604 -11.0288 -11.0288
0.382992 -10.9602 -10.9602
0.261824 -10.8836 -10.8836
0.260722 -10.9562 -10.9562
0.137133 -11.0249 -11.0249
0.134376 -11.1707 -11.1707
0.380307 -11.1787 -11.1787
0.382114 -11.0329 -11.0329
0.135761 -11.0977 -11.0977
0.257322 -11.1746 -11.1746
0.381219 -11.1057 -11.1057
0.259604 -11.0288 -11.0288
0.25847 -11.1017 -11.1017
0.134376 -11.1707 -11.1707
0.131567 -11.317 -11.317
0.378432 -11.325 -11.325
0.380307 -11.1787 -11.1787
0.132978 -11.2437 -11.2437
0.25498 -11.3209 -11.3209
0.379378 -11.2518 -11.2518
0.257322 -11.1746 -11.1746
0.256158 -11.2477 -11.2477
0.131567 -11.317 -11.317
0.128704 -11.4638 -11.4638
0.37649 -11.4719 -11.4719
0.378432 -11.325 -11.325
0.130142 -11.3903 -11.3903
0.252577 -11.4678 -11.4678
0.37747 -11.3984 -11.3984
0.25498 -11.3209 -11.3209
0.253786 -11.3943 -11.3943
0.128704 -11.4638 -11.4638
0.125788 -11.6112 -11.6112
0.374481 -11.6193 -11.6193
0.37649 -11.4719 -11.4719
0.127252 -11.5374 -11.5374
0.250114 -11.6152 -11.6152
0.375494 -11.5455 -11.5455
0.252577 -11.4678 -11.4678
0.251353 -11.5414 -11.5414
0.125788 -11.6112 -11.6112
0.12282 -11.7591 -11.7591
0.372405 -11.7673 -11.7673
0.374481 -11.6193 -11.6193
0.124311 -11.6851 -11.6851
0.247593 -11.7631 -11.7631
0.373451 -11.6932 -11.6932
0.250114 -11.6152 -11.6152
0.248861 -11.6891 -11.6891
0.12282 -11.7591 -11.7591
0.1198 -11.9075 -11.9075
0.370263 -11.9158 -11.9158
0.372405 -11.7673 -11.7673
0.121317 -11.8333 -11.8333
0.245012 -11.9116 -11.9116
0.371342 -11.8415 -11.8415
0.247593 -11.7631 -11.7631
0.246309 -11.8373 -11.8373
0.1198 -11.9075 -11.9075
0.116729 -12.0565 -12.0565
0.368055 -12.0647 -12.0647
0.370263 -11.9158 -11.9158
0.118271 -11.982 -11.982
0.242372 -12.0606 -12.0606
0.369167 -11.9902 -11.9902
0.245012 -11.9116 -11.9116
0.243699 -11.986 -11.986
0.116729 -12.0565 -12.0565
0.113606 -12.206 -12.206
0.365782 -12.2142 -12.2142
0.368055 -12.0647 -12.0647
0.115174 -12.1312 -12.1312
0.239674 -12.21 -12.21
0.366927 -12.1394 -12.1394
0.242372 -12.0606 -12.0606
0.24103 -12.1352 -12.1352
0.113606 -12.206 -12.206
0.110433 -12.3559 -12.3559
0.363443 -12.3642 -12.3642
0.365782 -12.2142 -12.2142
0.112026 -12.2809 -12.2809
0.236918 -12.36 -12.36
0.364621 -12.2892 -12.2892
0.239674 -12.21 -12.21
0.238303 -12.285 -12.285
0.110433 -12.3559 -12.3559
0.107209 -12.5064 -12.5064
0.36104 -12.5147 -12.5147
0.363443 -12.3642 -12.3642
0.108827 -12.4311 -12.4311
0.234104 -12.5105 -12.5105
0.36225 -12.4394 -12.4394
0.236918 -12.36 -12.36
0.235518 -12.4352 -12.4352
0.107209 -12.5064 -12.5064
0.103935 -12.6573 -12.6573
0.358573 -12.6657 -12.6657
0.36104 -12.5147 -12.5147
0.105578 -12.5818 -12.5818
0.231234 -12.6614 -12.6614
0.359815 -12.5901 -12.5901
0.234104 -12.5105 -12.5105
0.232676 -12.5859 -12.5859
0.103935 -12.6573 -12.6573
0.100612 -12.8087 -12.8087
0.356042 -12.8171 -12.8171
0.358573 -12.6657 -12.6657
0.10228 -12.7329 -12.7329
0.228307 -12.8128 -12.8128
0.357315 -12.7413 -12.7413
0.231234 -12.6614 -12.6614
0.229777 -12.7371 -12.7371
0.100612 -12.8087 -12.8087
0.0972395 -12.9605 -12.9605
0.353447 -12.969 -12.969
0.356042 -12.8171 -12.8171
0.0989319 -12.8846 -12.8846
0.225323 -12.9647 -12.9647
0.354753 -12.893 -12.893
0.228307 -12.8128 -12.8128
0.226822 -12.8887 -12.8887
0.0972395 -12.9605 -12.9605
0.0938184 -13.1129 -13.1129
0.35079 -13.1213 -13.1213
0.353447 -12.969 -12.969
0.095535 -13.0366 -13.0366
0.222284 -13.1171 -13.1171
0.352127 -13.0451 -13.0451
0.225323 -12.9647 -12.9647
0.22381 -13.0408 -13.0408
0.0938184 -13.1129 -13.1129
0.0903489 -13.2656 -13.2656
0.34807 -13.2741 -13.2741
0.35079 -13.1213 -13.1213
0.0920896 -13.1892 -13.1892
0.219189 -13.2698 -13.2698
0.349438 -13.1977 -13.1977
0.222284 -13.1171 -13.1171
0.220743 -13.1934 -13.1934
0.0903489 -13.2656 -13.2656
0.0868316 -13.4188 -13.4188
0.345288 -13.4274 -13.4274
0.34807 -13.2741 -13.2741
0.0885962 -13.3422 -13.3422
0.216039 -13.423 -13.423
0.346687 -13.3507 -13.3507
0.219189 -13.2698 -13.2698
0.217621 -13.3464 -13.3464
0.0868316 -13.4188 -13.4188
0.0832669 -13.5725 -13.5725
0.342444 -13.581 -13.581
0.345288 -13.4274 -13.4274
0.0850551 -13.4956 -13.4956
0.212835 -13.5767 -13.5767
0.343874 -13.5041 -13.5041
0.216039 -13.423 -13.423
0.214444 -13.4998 -13.4998
0.0832669 -13.5725 -13.5725
0.0796552 -13.7265 -13.7265
0.339539 -13.7351 -13.7351
0.342444 -13.581 -13.581
0.0814669 -13.6494 -13.6494
0.209576 -13.7308 -13.7308
0.340999 -13.658 -13.658
0.212835 -13.5767 -13.5767
0.211212 -13.6537 -13.6537
0.0796552 -13.7265 -13.7265
0.0759969 -13.881 -13.881
0.336573 -13.8896 -13.8896
0.339539 -13.7351 -13.7351
0.0778318 -13.8037 -13.8037
0.206264 -13.8852 -13.8852
0.338064 -13.8123 -13.8123
0.209576 -13.7308 -13.7308
0.207927 -13.808 -13.808
0.0759969 -13.881 -13.881
0.0722926 -14.0358 -14.0358
0.333547 -14.0445 -14.0445
0.336573 -13.8896 -13.8896
0.0741505 -13.9584 -13.9584
0.202899 -14.0401 -14.0401
0.335067 -13.967 -13.967
0.206264 -13.8852 -13.8852
0.204588 -13.9626 -13.9626
0.0722926 -14.0358 -14.0358
0.0685426 -14.1911 -14.1911
0.330461 -14.1998 -14.1998
0.333547 -14.0445 -14.0445
0.0704233 -14.1134 -14.1134
0.199481 -14.1954 -14.1954
0.332011 -14.1221 -14.1221
0.202899 -14.0401 -14.0401
0.201196 -14.1177 -14.1177
0.0685426 -14.1911 -14.1911
0.0647475 -14.3468 -14.3468
0.327315 -14.3555 -14.3555
0.330461 -14.1998 -14.1998
0.0666506 -14.2689 -14.2689
0.19601 -14.3511 -14.3511
0.328895 -14.2776 -14.2776
0.199481 -14.1954 -14.1954
0.197752 -14.2732 -14.2732
0.0647475 -14.3468 -14.3468
0.0609076 -14.5028 -14.5028
0.324111 -14.5115 -14.5115
0.327315 -14.3555 -14.3555
0.0628331 -14.4247 -14.4247
0.192488 -14.5071 -14.5071
0.32572 -14.4334 -14.4334
0.19601 -14.3511 -14.3511
0.194256 -14.429 -14.429
0.0609076 -14.5028 -14.5028
0.0570235 -14.6592 -14.6592
0.320848 -14.6679 -14.6679
0.324111 -14.5115 -14.5115
0.058971 -14.5809 -14.5809
0.188915 -14.6635 -14.6635
0.322486 -14.5897 -14.5897
0.192488 -14.5071 -14.5071
0.190708 -14.5853 -14.5853
0.0570235 -14.6592 -14.6592
0.0530955 -14.816 -14.816
0.317526 -14.8247 -14.8247
0.320848 -14.6679 -14.6679
0.0550649 -14.7375 -14.7375
0.18529 -14.8203 -14.8203
0.319194 -14.7463 -14.7463
0.188915 -14.6635 -14.6635
0.187109 -14.7419 -14.7419
0.0530955 -14.816 -14.816
0.0491243 -14.9731 -14.9731
0.314148 -14.9819 -14.9819
0.317526 -14.8247 -14.8247
0.0511153 -14.8945 -14.8945
0.181615 -14.9774 -14.9774
0.315844 -14.9033 -14.9033
0.18529 -14.8203 -14.8203
0.183459 -14.8988 -14.8988
0.0491243 -14.9731 -14.9731
0.0451102 -15.1305 -15.1305
0.310712 -15.1394 -15.1394
0.314148 -14.9819 -14.9819
0.0471226 -15.0518 -15.0518
0.17789 -15.1349 -15.1349
0.312437 -15.0606 -15.0606
0.181615 -14.9774 -14.9774
0.179759 -15.0561 -15.0561
0.0451102 -15.1305 -15.1305
0.0410538 -15.2883 -15.2883
0.30722 -15.2972 -15.2972
0.310712 -15.1394 -15.1394
0.0430873 -15.2094 -15.2094
0.174116 -15.2927 -15.2927
0.308973 -15.2182 -15.2182
0.17789 -15.1349 -15.1349
0.176009 -15.2138 -15.2138
0.0410538 -15.2883 -15.2883
0.0369555 -15.4465 -15.4465
0.303671 -15.4553 -15.4553
0.30722 -15.2972 -15.2972
0.0390098 -15.3673 -15.3673
0.170292 -15.4508 -15.4508
0.305452 -15.3762 -15.3762
0.174116 -15.2927 -15.2927
0.17221 -15.3717 -15.3717
0.0369555 -15.4465 -15.4465
0.0328157 -15.6049 -15.6049
0.300067 -15.6138 -15.6138
0.303671 -15.4553 -15.4553
0.0348907 -15.5256 -15.5256
0.16642 -15.6093 -15.6093
0.301876 -15.5345 -15.5345
0.170292 -15.4508 -15.4508
0.168362 -15.53 -15.53
0.0328157 -15.6049 -15.6049
0.0286351 -15.7637 -15.7637
0.296407 -15.7726 -15.7726
0.300067 -15.6138 -15.6138
0.0307305 -15.6842 -15.6842
0.1625 -15.7681 -15.7681
0.298244 -15.6931 -15.6931
0.16642 -15.6093 -15.6093
0.164466 -15.6886 -15.6886
0.0286351 -15.7637 -15.7637
0.0244141 -15.9227 -15.9227
0.292693 -15.9316 -15.9316
0.296407 -15.7726 -15.7726
0.0265296 -15.8431 -15.8431
0.158532 -15.9271 -15.9271
0.294557 -15.8521 -15.8521
0.1625 -15.7681 -15.7681
0.160522 -15.8476 -15.8476
0.0244141 -15.9227 -15.9227
0.0201531 -16.0821 -16.0821
0.288925 -16.091 -16.091
0.292693 -15.9316 -15.9316
0.0222885 -16.0024 -16.0024
0.154518 -16.0865 -16.0865
0.290816 -16.0113 -16.0113
0.158532 -15.9271 -15.9271
0.156531 -16.0068 -16.0068
0.0201531 -16.0821 -16.0821
0.0158527 -16.2417 -16.2417
0.285103 -16.2507 -16.2507
0.288925 -16.091 -16.091
0.0180078 -16.1619 -16.1619
0.150456 -16.2462 -16.2462
0.287021 -16.1708 -16.1708
0.154518 -16.0865 -16.0865
0.152493 -16.1663 -16.1663
0.0158527 -16.2417 -16.2417
0.0115134 -16.4016 -16.4016
0.281228 -16.4106 -16.4106
0.285103 -16.2507 -16.2507
0.0136879 -16.3216 -16.3216
0.146349 -16.4061 -16.4061
0.283172 -16.3306 -16.3306
0.150456 -16.2462 -16.2462
0.148409 -16.3261 -16.3261
0.0115134 -16.4016 -16.4016
0.0071356 -16.5618 -16.5618
0.2773 -16.5708 -16.5708
0.281228 -16.4106 -16.4106
0.00932925 -16.4817 -16.4817
0.142196 -16.5663 -16.5663
0.279271 -16.4907 -16.4907
0.146349 -16.4061 -16.4061
0.144278 -16.4861 -16.4861
0.0071356 -16.5618 -16.5618
0.00271993 -16.7223 -16.7223
0.27332 -16.7312 -16.7312
0.2773 -16.5708 -16.5708
0.00493247 -16.642 -16.642
0.137999 -16.7267 -16.7267
0.275317 -16.651 -16.651
0.142196 -16.5663 -16.5663
0.140103 -16.6465 -16.6465
0.00271993 -16.7223 -16.7223
-0.00173316 -16.883 -16.883
0.269289 -16.892 -16.892
0.27332 -16.7312 -16.7312
0.000498029 -16.8026 -16.8026
0.133756 -16.8874 -16.8874
0.271311 -16.8116 -16.8116
0.137999 -16.7267 -16.7267
0.135883 -16.807 -16.807
-0.00173316 -16.883 -16.883
-0.00622314 -17.0439 -17.0439
0.265206 -17.0529 -17.0529
0.269289 -16.892 -16.892
-0.00397357 -16.9634 -16.9634
0.12947 -17.0484 -17.0484
0.267254 -16.9724 -16.9724
0.133756 -16.8874 -16.8874
0.131618 -16.9679 -16.9679
-0.00622314 -17.0439 -17.0439
-0.0107495 -17.2051 -17.2051
0.261073 -17.2141 -17.2141
0.265206 -17.0529 -17.0529
-0.00848181 -17.1245 -17.1245
0.12514 -17.2096 -17.2096
0.263146 -17.1335 -17.1335
0.12947 -17.0484 -17.0484
0.12731 -17.1289 -17.1289
-0.0107495 -17.2051 -17.2051
-0.0153118 -17.3665 -17.3665
0.256889 -17.3755 -17.3755
0.261073 -17.2141 -17.2141
-0.0130262 -17.2857 -17.2857
0.120767 -17.371 -17.371
0.258987 -17.2948 -17.2948
0.12514 -17.2096 -17.2096
0.122959 -17.2902 -17.2902
-0.0153118 -17.3665 -17.3665
-0.0199094 -17.5281 -17.5281
0.252656 -17.5371 -17.5371
0.256889 -17.3755 -17.3755
-0.0176062 -17.4473 -17.4473
0.116351 -17.5326 -17.5326
0.254779 -17.4563 -17.4563
0.120767 -17.371 -17.371
0.118564 -17.4518 -17.4518
-0.0199094 -17.5281 -17.5281
-0.0245418 -17.6899 -17.6899
0.248374 -17.699 -17.699
0.252656 -17.5371 -17.5371
-0.0222213 -17.609 -17.609
0.111894 -17.6944 -17.6944
0.250521 -17.618 -17.618
0.116351 -17.5326 -17.5326
0.114128 -17.6135 -17.6135
-0.0245418 -17.6899 -17.6899
-0.0292085 -17.852 -17.852
0.244043 -17.861 -17.861
0.248374 -17.699 -17.699
-0.0268709 -17.7709 -17.7709
0.107395 -17.8565 -17.8565
0.246214 -17.78 -17.78
0.111894 -17.6944 -17.6944
0.10965 -17.7754 -17.7754
-0.0292085 -17.852 -17.852
-0.0339091 -18.0142 -18.0142
0.239664 -18.0233 -18.0233
0.244043 -17.861 -17.861
-0.0315546 -17.9331 -17.9331
0.102855 -18.0187 -18.0187
0.241859 -17.9421 -17.9421
0.107395 -17.8565 -17.8565
0.10513 -17.9376 -17.9376
-0.0339091 -18.0142 -18.0142
-0.0386429 -18.1766 -18.1766
0.235237 -18.1857 -18.1857
0.239664 -18.0233 -18.0233
-0.0362719 -18.0954 -18.0954
0.0982752 -18.1811 -18.1811
0.237457 -18.1044 -18.1044
0.102855 -18.0187 -18.0187
0.10057 -18.0999 -18.0999
-0.0386429 -18.1766 -18.1766
-0.0434094 -18.3392 -18.3392
0.230764 -18.3483 -18.3483
0.235237 -18.1857 -18.1857
-0.0410221 -18.2579 -18.2579
0.0936551 -18.3437 -18.3437
0.233007 -18.2669 -18.2669
0.0982752 -18.1811 -18.1811
0.0959701 -18.2624 -18.2624
-0.0434094 -18.3392 -18.3392
-0.0482082 -18.5019 -18.5019
0.226244 -18.511 -18.511
0.230764 -18.3483 -18.3483
-0.0458048 -18.4205 -18.4205
0.0889958 -18.5065 -18.5065
0.22851 -18.4296 -18.4296
0.0936551 -18.3437 -18.3437
0.0913303 -18.4251 -18.4251
-0.0482082 -18.5019 -18.5019
-0.0530386 -18.6649 -18.6649
0.221678 -18.6739 -18.6739
0.226244 -18.511 -18.511
-0.0506195 -18.5834 -18.5834
0.0842976 -18.6694 -18.6694
0.223967 -18.5925 -18.5925
0.0889958 -18.5065 -18.5065
0.0866515 -18.5879 -18.5879
-0.0530386 -18.6649 -18.6649
-0.0579001 -18.8279 -18.8279
0.217067 -18.837 -18.837
0.221678 -18.6739 -18.6739
-0.0554655 -18.7464 -18.7464
0.0795612 -18.8324 -18.8324
0.219379 -18.7554 -18.7554
0.0842976 -18.6694 -18.6694
0.0819342 -18.7509 -18.7509
-0.0579001 -18.8279 -18.8279
-0.0627923 -18.9911 -18.9911
0.212411 -19.0002 -19.0002
0.217067 -18.837 -18.837
-0.0603424 -18.9095 -18.9095
0.0747871 -18.9956 -18.9956
0.214745 -18.9186 -18.9186
0.0795612 -18.8324 -18.8324
0.0771788 -18.914 -18.914
-0.0627923 -18.9911 -18.9911
-0.0677145 -19.1545 -19.1545
0.207711 -19.1635 -19.1635
0.212411 -19.0002 -19.0002
-0.0652497 -19.0728 -19.0728
0.0699757 -19.159 -19.159
0.210067 -19.0819 -19.0819
0.0747871 -18.9956 -18.9956
0.072386 -19.0773 -19.0773
-0.0677145 -19.1545 -19.1545
-0.0726663 -19.3179 -19.3179
0.202967 -19.327 -19.327
0.207711 -19.1635 -19.1635
-0.0701868 -19.2362 -19.2362
0.0651277 -19.3224 -19.3224
0.205344 -19.2453 -19.2453
0.0699757 -19.159 -19.159
0.0675562 -19.2407 -19.2407
-0.0726663 -19.3179 -19.3179
-0.0776471 -19.4815 -19.4815
0.198179 -19.4906 -19.4906
0.202967 -19.327 -19.327
-0.0751531 -19.3997 -19.3997
0.0602435 -19.486 -19.486
0.200578 -19.4088 -19.4088
0.0651277 -19.3224 -19.3224
0.0626901 -19.4042 -19.4042
-0.0776471 -19.4815 -19.4815
-0.0826565 -19.6452 -19.6452
0.193349 -19.6543 -19.6543
0.198179 -19.4906 -19.4906
-0.0801483 -19.5633 -19.5633
0.0553238 -19.6497 -19.6497
0.19577 -19.5724 -19.5724
0.0602435 -19.486 -19.486
0.0577881 -19.5679 -19.5679
-0.0826565 -19.6452 -19.6452
-0.0876939 -19.809 -19.809
0.188477 -19.8181 -19.8181
0.193349 -19.6543 -19.6543
-0.0851717 -19.7271 -19.7271
0.0503689 -19.8135 -19.8135
0.190918 -19.7361 -19.7361
0.0553238 -19.6497 -19.6497
0.0528507 -19.7316 -19.7316
-0.0876939 -19.809 -19.809
-0.092759 -19.9729 -19.9729
0.183563 -19.9819 -19.9819
0.188477 -19.8181 -19.8181
-0.090223 -19.8909 -19.8909
0.0453794 -19.9774 -19.9774
0.186025 -19.9 -19.9
0.0503689 -19.8135 -19.8135
0.0478785 -19.8954 -19.8954
-0.092759 -19.9729 -19.9729
-0.0978515 -20.1368 -20.1368
0.178609 -20.1459 -20.1459
0.183563 -19.9819 -19.9819
-0.0953018 -20.0548 -20.0548
0.0403556 -20.1413 -20.1413
0.181091 -20.0639 -20.0639
0.0453794 -19.9774 -19.9774
0.0428718 -20.0594 -20.0594
-0.0978515 -20.1368 -20.1368
-0.102972 -20.3009 -20.3009
0.173613 -20.3099 -20.3099
0.178609 -20.1459 -20.1459
-0.100408 -20.2188 -20.2188
0.0352977 -20.3054 -20.3054
0.176116 -20.2279 -20.2279
0.0403556 -20.1413 -20.1413
0.0378309 -20.2234 -20.2234
-0.102972 -20.3009 -20.3009
-0.108119 -20.465 -20.465
0.168578 -20.474 -20.474
0.173613 -20.3099 -20.3099
-0.105542 -20.3829 -20.3829
0.0302056 -20.4695 -20.4695
0.171101 -20.392 -20.392
0.0352977 -20.3054 -20.3054
0.0327559 -20.3874 -20.3874
-0.108119 -20.465 -20.465
-0.113296 -20.6291 -20.6291
0.163503 -20.6382 -20.6382
0.168578 -20.474 -20.474
-0.110704 -20.547 -20.547
0.0250785 -20.6336 -20.6336
0.166045 -20.5561 -20.5561
0.0302056 -20.4695 -20.4695
0.0276465 -20.5516 -20.5516
-0.113296 -20.6291 -20.6291
-0.118503 -20.7934 -20.7934
0.158387 -20.8024 -20.8024
0.163503 -20.6382 -20.6382
-0.115896 -20.7112 -20.7112
0.0199151 -20.7979 -20.7979
0.16095 -20.7203 -20.7203
0.0250785 -20.6336 -20.6336
0.0225015 -20.7157 -20.7157
-0.118503 -20.7934 -20.7934
-0.123742 -20.9576 -20.9576
0.15323 -20.9666 -20.9666
0.158387 -20.8024 -20.8024
-0.121118 -20.8755 -20.8755
0.014713 -20.9621 -20.9621
0.155814 -20.8845 -20.8845
0.0199151 -20.7979 -20.7979
0.0173192 -20.88 -20.88
-0.123742 -20.9576 -20.9576
-0.129012 -21.1219 -21.1219
0.148027 -21.1309 -21.1309
0.15323 -20.9666 -20.9666
-0.126373 -21.0398 -21.0398
0.00946876 -21.1264 -21.1264
0.150634 -21.0487 -21.0487
0.014713 -20.9621 -20.9621
0.0120962 -21.0442 -21.0442
-0.129012 -21.1219 -21.1219
-0.134308 -21.2862 -21.2862
0.142773 -21.2953 -21.2953
0.148027 -21.1309 -21.1309
-0.131658 -21.2041 -21.2041
0.00418342 -21.2907 -21.2907
0.145407 -21.2131 -21.2131
0.00946876 -21.1264 -21.1264
0.00683105 -21.2086 -21.2086
-0.134308 -21.2862 -21.2862
-0.139607 -21.4506 -21.4506
0.137468 -21.4597 -21.4597
0.142773 -21.2953 -21.2953
-0.136959 -21.3684 -21.3684
-0.00112498 -21.4551 -21.4551
0.140125 -21.3775 -21.3775
0.00418342 -21.2907 -21.2907
0.00152811 -21.3729 -21.3729
-0.139607 -21.4506 -21.4506
-0.144887 -21.6148 -21.6148
0.132186 -21.6242 -21.6242
0.137468 -21.4597 -21.4597
-0.142251 -21.5327 -21.5327
-0.00638808 -21.6195 -21.6195
0.134815 -21.542 -21.542
-0.00112498 -21.4551 -21.4551
-0.0037654 -21.5373 -21.5373
0 0 0
0.00639262 -0.00182948 -0.00182948
0.0107334 -0.00538561 -0.00538561
0 0 0
0.00310277 -0.000657771 -0.000657771
0.00807951 -0.00325882 -0.00325882
0.00583652 -0.00335108 -0.00335108
0 0 0
0.00385438 -0.00143492 -0.00143492
0.00639262 -0.00182948 -0.00182948
0.0133117 -0.00527465 -0.00527465
0.0200224 -0.00937184 -0.00937184
0.0107334 -0.00538561 -0.00538561
0.00981933 -0.00338578 -0.00338578
0.0164963 -0.00711586 -0.00711586
0.0153929 -0.00730344 -0.00730344
0.00807951 -0.00325882 -0.00325882
0.0123116 -0.00512862 -0.00512862
0.0133117 -0.00527465 -0.00527465
0.0202922 -0.0100058 -0.0100058
0.029385 -0.0141793 -0.0141793
0.0200224 -0.00937184 -0.00937184
0.0168063 -0.00747418 -0.00747418
0.0247874 -0.0119364 -0.0119364
0.0246879 -0.0116353 -0.0116353
0.0164963 -0.00711586 -0.00711586
0.0206532 -0.00936985 -0.00936985
0.0202922 -0.0100058 -0.0100058
0.0272344 -0.0161628 -0.0161628
0.0388183 -0.0203588 -0.0203588
0.029385 -0.0141793 -0.0141793
0.0237698 -0.0128977 -0.0128977
0.0330029 -0.0180982 -0.0180982
0.0340955 -0.017083 -0.017083
0.0247874 -0.0119364 -0.0119364
0.0289017 -0.014837 -0.014837
0.0272344 -0.0161628 -0.0161628
0.0341129 -0.023847 -0.023847
0.048296 -0.0280384 -0.0280384
0.0388183 -0.0203588 -0.0203588
0.0306813 -0.0198096 -0.0198096
0.0411846 -0.0257817 -0.0257817
0.0435543 -0.0240058 -0.0240058
0.0330029 -0.0180982 -0.0180982
0.0370974 -0.0217441 -0.0217441
0.0341129 -0.023847 -0.023847
0.0409396 -0.0331175 -0.0331175
0.0577707 -0.0373046 -0.0373046
0.048296 -0.0280384 -0.0280384
0.0375324 -0.0282822 -0.0282822
0.0493322 -0.0350452 -0.0350452
0.0530353 -0.0324712 -0.0324712
0.0411846 -0.0257817 -0.0257817
0.0452628 -0.0302141 -0.0302141
0.0409396 -0.0331175 -0.0331175
0.0477164 -0.0439914 -0.0439914
0.0672248 -0.04817 -0.04817
0.0577707 -0.0373046 -0.0373046
0.0443341 -0.0383536 -0.0383536
0.0574441 -0.0459139 -0.0459139
0.0625014 -0.0425369 -0.0425369
0.0493322 -0.0350452 -0.0350452
0.0533929 -0.0402783 -0.0402783
0.0477164 -0.0439914 -0.0439914
0.0544474 -0.0564737 -0.0564737
0.0766398 -0.0606453 -0.0606453
0.0672248 -0.04817 -0.04817
0.0510875 -0.0500317 -0.0500317
0.0655141 -0.0583914 -0.0583914
0.0719379 -0.0542065 -0.0542065
0.0574441 -0.0459139 -0.0459139
0.0614846 -0.0519517 -0.0519517
0.0544474 -0.0564737 -0.0564737
0.0611326 -0.0705599 -0.0705599
0.0860073 -0.0747247 -0.0747247
0.0766398 -0.0606453 -0.0606453
0.0577957 -0.0633167 -0.0633167
0.0735386 -0.0724742 -0.0724742
0.0813299 -0.0674849 -0.0674849
0.0655141 -0.0583914 -0.0583914
0.0695323 -0.0652326 -0.0652326
0.0611326 -0.0705599 -0.0705599
0.0677725 -0.0862429 -0.0862429
0.0953207 -0.0904026 -0.0904026
0.0860073 -0.0747247 -0.0747247
0.0644582 -0.0782023 -0.0782023
0.0815141 -0.0881549 -0.0881549
0.090671 -0.0823643 -0.0823643
0.0735386 -0.0724742 -0.0724742
0.0775326 -0.0801153 -0.0801153
0.0677725 -0.0862429 -0.0862429
0.0743662 -0.103514 -0.103514
0.104577 -0.10767 -0.10767
0.0953207 -0.0904026 -0.0904026
0.0710752 -0.0946807 -0.0946807
0.0894384 -0.105425 -0.105425
0.0999561 -0.0988383 -0.0988383
0.0815141 -0.0881549 -0.0881549
0.0854828 -0.0965919 -0.0965919
0.0743662 -0.103514 -0.103514
0.0809132 -0.122366 -0.122366
0.113773 -0.126519 -0.126519
0.104577 -0.10767 -0.10767
0.0776456 -0.112743 -0.112743
0.0973097 -0.124276 -0.124276
0.109183 -0.116898 -0.116898
0.0894384 -0.105425 -0.105425
0.0933808 -0.114653 -0.114653
0.0809132 -0.122366 -0.122366
0.0874126 -0.142788 -0.142788
0.122908 -0.14694 -0.14694
0.113773 -0.126519 -0.126519
0.0841689 -0.132381 -0.132381
0.105127 -0.144698 -0.144698
0.118348 -0.136534 -0.136534
0.0973097 -0.124276 -0.124276
0.101225 -0.134291 -0.134291
0.0874126 -0.142788 -0.142788
0.0938634 -0.164772 -0.164772
0.13198 -0.168925 -0.168925
0.122908 -0.14694 -0.14694
0.0906441 -0.153585 -0.153585
0.112888 -0.166684 -0.166684
0.127452 -0.157738 -0.157738
0.105127 -0.144698 -0.144698
0.109014 -0.155496 -0.155496
0.0938634 -0.164772 -0.164772
0.100265 -0.188309 -0.188309
0.140989 -0.192465 -0.192465
0.13198 -0.168925 -0.168925
0.0970703 -0.176347 -0.176347
0.120593 -0.190223 -0.190223
0.136492 -0.180501 -0.180501
0.112888 -0.166684 -0.166684
0.116748 -0.17826 -0.17826
0.100265 -0.188309 -0.188309
0.106616 -0.213392 -0.213392
0.149932 -0.217551 -0.217551
0.140989 -0.192465 -0.192465
0.103447 -0.200658 -0.200658
0.128241 -0.215308 -0.215308
0.145469 -0.204815 -0.204815
0.120593 -0.190223 -0.190223
0.124424 -0.202573 -0.202573
0.106616 -0.213392 -0.213392
0.112916 -0.24001 -0.24001
0.158811 -0.244175 -0.244175
0.149932 -0.217551 -0.217551
0.109772 -0.22651 -0.22651
0.13583 -0.24193 -0.24193
0.15438 -0.230671 -0.230671
0.128241 -0.215308 -0.215308
0.132043 -0.228428 -0.228428
0.112916 -0.24001 -0.24001
0.119164 -0.268156 -0.268156
0.167623 -0.272327 -0.272327
0.158811 -0.244175 -0.244175
0.116046 -0.253893 -0.253893
0.14336 -0.27008 -0.27008
0.163225 -0.25806 -0.25806
0.13583 -0.24193 -0.24193
0.139602 -0.255815 -0.255815
0.119164 -0.268156 -0.268156
0.125359 -0.297821 -0.297821
0.176368 -0.302 -0.302
0.167623 -0.272327 -0.272327
0.122268 -0.282799 -0.282799
0.15083 -0.29975 -0.29975
0.172004 -0.286974 -0.286974
0.14336 -0.27008 -0.27008
0.147103 -0.284726 -0.284726
0.125359 -0.297821 -0.297821
0.1315 -0.328997 -0.328997
0.185045 -0.333185 -0.333185
0.176368 -0.302 -0.302
0.128436 -0.313221 -0.313221
0.158239 -0.330931 -0.330931
0.180715 -0.317404 -0.317404
0.15083 -0.29975 -0.29975
0.154542 -0.315152 -0.315152
0.1315 -0.328997 -0.328997
0.137587 -0.361674 -0.361674
0.193653 -0.365873 -0.365873
0.185045 -0.333185 -0.333185
0.13455 -0.345148 -0.345148
0.165587 -0.363615 -0.363615
0.189358 -0.349341 -0.349341
0.158239 -0.330931 -0.330931
0.161921 -0.347086 -0.347086
0.137587 -0.361674 -0.361674
0.143619 -0.395845 -0.395845
0.202192 -0.400055 -0.400055
0.193653 -0.365873 -0.365873
0.14061 -0.378573 -0.378573
0.172873 -0.397792 -0.397792
0.197932 -0.382778 -0.382778
0.165587 -0.363615 -0.363615
0.169238 -0.380517 -0.380517
0.143619 -0.395845 -0.395845
0.149595 -0.4315 -0.4315
0.210661 -0.435724 -0.435724
0.202192 -0.400055 -0.400055
0.146614 -0.413488 -0.413488
0.180095 -0.433455 -0.433455
0.206435 -0.417704 -0.417704
0.172873 -0.397792 -0.397792
0.176492 -0.415438 -0.415438
0.149595 -0.4315 -0.4315
0.155514 -0.468632 -0.468632
0.219058 -0.47287 -0.47287
0.210661 -0.435724 -0.435724
0.152561 -0.449882 -0.449882
0.187253 -0.470595 -0.470595
0.214869 -0.454112 -0.454112
0.180095 -0.433455 -0.433455
0.183682 -0.451841 -0.451841
0.155514 -0.468632 -0.468632
0.161376 -0.507231 -0.507231
0.227384 -0.511484 -0.511484
0.219058 -0.47287 -0.47287
0.158452 -0.487749 -0.487749
0.194347 -0.509203 -0.509203
0.22323 -0.491994 -0.491994
0.187253 -0.470595 -0.470595
0.190808 -0.489716 -0.489716
0.161376 -0.507231 -0.507231
0.167179 -0.54729 -0.54729
0.235638 -0.551559 -0.551559
0.227384 -0.511484 -0.511484
0.164285 -0.527079 -0.527079
0.201376 -0.54927 -0.54927
0.23152 -0.53134 -0.53134
0.194347 -0.509203 -0.509203
0.19787 -0.529054 -0.529054
0.167179 -0.54729 -0.54729
0.172924 -0.588799 -0.588799
0.243818 -0.593086 -0.593086
0.235638 -0.551559 -0.551559
0.170059 -0.567864 -0.567864
0.208338 -0.590789 -0.590789
0.239737 -0.572142 -0.572142
0.201376 -0.54927 -0.54927
0.204865 -0.569849 -0.569849
0.172924 -0.588799 -0.588799
0.178609 -0.63175 -0.63175
0.251924 -0.636056 -0.636056
0.243818 -0.593086 -0.593086
0.175774 -0.610095 -0.610095
0.215234 -0.63375 -0.63375
0.24788 -0.614392 -0.614392
0.208338 -0.590789 -0.590789
0.211795 -0.61209 -0.61209
0.178609 -0.63175 -0.63175
0.184234 -0.676134 -0.676134
0.259956 -0.680461 -0.680461
0.251924 -0.636056 -0.636056
0.181429 -0.653764 -0.653764
0.222063 -0.678146 -0.678146
0.25595 -0.65808 -0.65808
0.215234 -0.63375 -0.63375
0.218657 -0.655769 -0.655769
0.184234 -0.676134 -0.676134
0.189798 -0.721944 -0.721944
0.267913 -0.726292 -0.726292
0.259956 -0.680461 -0.680461
0.187024 -0.698862 -0.698862
0.228823 -0.723967 -0.723967
0.263944 -0.703199 -0.703199
0.222063 -0.678146 -0.678146
0.225451 -0.700879 -0.700879
0.189798 -0.721944 -0.721944
0.195301 -0.76917 -0.76917
0.275794 -0.77354 -0.77354
0.267913 -0.726292 -0.726292
0.192557 -0.74538 -0.74538
0.235515 -0.771205 -0.771205
0.271863 -0.749739 -0.749739
0.228823 -0.723967 -0.723967
0.232178 -0.747409 -0.747409
0.195301 -0.76917 -0.76917
0.200741 -0.817803 -0.817803
0.283599 -0.822197 -0.822197
0.275794 -0.77354 -0.77354
0.198029 -0.793311 -0.793311
0.242138 -0.819851 -0.819851
0.279706 -0.797692 -0.797692
0.235515 -0.771205 -0.771205
0.238835 -0.795352 -0.795352
0.200741 -0.817803 -0.817803
0.206119 -0.867836 -0.867836
0.291326 -0.872254 -0.872254
0.283599 -0.822197 -0.822197
0.203438 -0.842645 -0.842645
0.24869 -0.869897 -0.869897
0.287472 -0.847051 -0.847051
0.242138 -0.819851 -0.819851
0.245423 -0.844699 -0.844699
0.206119 -0.867836 -0.867836
0.211434 -0.91926 -0.91926
0.298976 -0.923703 -0.923703
0.291326 -0.872254 -0.872254
0.208784 -0.893375 -0.893375
0.255173 -0.921334 -0.921334
0.295161 -0.897805 -0.897805
0.24869 -0.869897 -0.869897
0.25194 -0.895442 -0.895442
0.211434 -0.91926 -0.91926
0.216684 -0.972065 -0.972065
0.306548 -0.976535 -0.976535
0.298976 -0.923703 -0.923703
0.214067 -0.94549 -0.94549
0.261584 -0.974153 -0.974153
0.302772 -0.949946 -0.949946
0.255173 -0.921334 -0.921334
0.258387 -0.947571 -0.947571
0.216684 -0.972065 -0.972065
0.22187 -1.02624 -1.02624
0.314041 -1.03074 -1.03074
0.306548 -0.976535 -0.976535
0.219285 -0.998984 -0.998984
0.267923 -1.02835 -1.02835
0.310304 -1.00347 -1.00347
0.261584 -0.974153 -0.974153
0.264763 -1.00108 -1.00108
0.22187 -1.02624 -1.02624
0.226991 -1.08179 -1.08179
0.321454 -1.08631 -1.08631
0.314041 -1.03074 -1.03074
0.224439 -1.05385 -1.05385
0.274191 -1.08391 -1.08391
0.317757 -1.05836 -1.05836
0.267923 -1.02835 -1.02835
0.271066 -1.05596 -1.05596
0.226991 -1.08179 -1.08179
0.232046 -1.13869 -1.13869
0.328788 -1.14324 -1.14324
0.321454 -1.08631 -1.08631
0.229527 -1.11007 -1.11007
0.280385 -1.14082 -1.14082
0.325131 -1.11461 -1.11461
0.274191 -1.08391 -1.08391
0.277297 -1.1122 -1.1122
0.232046 -1.13869 -1.13869
0.237036 -1.19694 -1.19694
0.336041 -1.20152 -1.20152
0.328788 -1.14324 -1.14324
0.234549 -1.16765 -1.16765
0.286507 -1.19909 -1.19909
0.332425 -1.17222 -1.17222
0.280385 -1.14082 -1.14082
0.283455 -1.16979 -1.16979
0.237036 -1.19694 -1.19694
0.241958 -1.25653 -1.25653
0.343213 -1.26114 -1.26114
0.336041 -1.20152 -1.20152
0.239505 -1.22657 -1.22657
0.292554 -1.25869 -1.25869
0.339637 -1.23117 -1.23117
0.286507 -1.19909 -1.19909
0.28954 -1.22872 -1.22872
0.241958 -1.25653 -1.25653
0.246814 -1.31745 -1.31745
0.350304 -1.32209 -1.32209
0.343213 -1.26114 -1.26114
0.244395 -1.28682 -1.28682
0.298527 -1.31963 -1.31963
0.346769 -1.29145 -1.29145
0.292554 -1.25869 -1.25869
0.29555 -1.28899 -1.28899
0.246814 -1.31745 -1.31745
0.251602 -1.37969 -1.37969
0.357313 -1.38437 -1.38437
0.350304 -1.32209 -1.32209
0.249216 -1.3484 -1.3484
0.304426 -1.38189 -1.38189
0.353819 -1.35307 -1.35307
0.298527 -1.31963 -1.31963
0.301486 -1.35059 -1.35059
0.251602 -1.37969 -1.37969
0.256322 -1.44324 -1.44324
0.36424 -1.44796 -1.44796
0.357313 -1.38437 -1.38437
0.25397 -1.4113 -1.4113
0.310249 -1.44546 -1.44546
0.360787 -1.416 -1.416
0.304426 -1.38189 -1.38189
0.307347 -1.41351 -1.41351
0.256322 -1.44324 -1.44324
0.260973 -1.5081 -1.5081
0.371083 -1.51285 -1.51285
0.36424 -1.44796 -1.44796
0.258656 -1.47551 -1.47551
0.315996 -1.51034 -1.51034
0.367672 -1.48024 -1.48024
0.310249 -1.44546 -1.44546
0.313132 -1.47774 -1.47774
0.260973 -1.5081 -1.5081
0.265555 -1.57426 -1.57426
0.377844 -1.57904 -1.57904
0.371083 -1.51285 -1.51285
0.263272 -1.54102 -1.54102
0.321668 -1.57651 -1.57651
0.374474 -1.54578 -1.54578
0.315996 -1.51034 -1.51034
0.318842 -1.54326 -1.54326
0.265555 -1.57426 -1.57426
0.270068 -1.64171 -1.64171
0.38452 -1.64652 -1.64652
0.377844 -1.57904 -1.57904
0.26782 -1.60782 -1.60782
0.327262 -1.64398 -1.64398
0.381192 -1.61262 -1.61262
0.321668 -1.57651 -1.57651
0.324475 -1.61009 -1.61009
0.270068 -1.64171 -1.64171
0.274511 -1.71043 -1.71043
0.391113 -1.71528 -1.71528
0.38452 -1.64652 -1.64652
0.272298 -1.67591 -1.67591
0.33278 -1.71272 -1.71272
0.387827 -1.68074 -1.68074
0.327262 -1.64398 -1.64398
0.330031 -1.67819 -1.67819
0.274511 -1.71043 -1.71043
0.278883 -1.78043 -1.78043
0.39762 -1.78532 -1.78532
0.391113 -1.71528 -1.71528
0.276706 -1.74527 -1.74527
0.33822 -1.78274 -1.78274
0.394377 -1.75014 -1.75014
0.33278 -1.71272 -1.71272
0.33551 -1.74757 -1.74757
0.278883 -1.78043 -1.78043
0.283185 -1.85169 -1.85169
0.404043 -1.85661 -1.85661
0.39762 -1.78532 -1.78532
0.281043 -1.8159 -1.8159
0.343583 -1.85402 -1.85402
0.400842 -1.82081 -1.82081
0.33822 -1.78274 -1.78274
0.340911 -1.81822 -1.81822
0.283185 -1.85169 -1.85169
0.287416 -1.9242 -1.9242
0.410381 -1.92917 -1.92917
0.404043 -1.85661 -1.85661
0.285309 -1.88779 -1.88779
0.348867 -1.92655 -1.92655
0.407223 -1.89273 -1.89273
0.343583 -1.85402 -1.85402
0.346235 -1.89013 -1.89013
0.287416 -1.9242 -1.9242
0.291575 -1.99796 -1.99796
0.416632 -2.00296 -2.00296
0.410381 -1.92917 -1.92917
0.289504 -1.96092 -1.96092
0.354072 -2.00033 -2.00033
0.413517 -1.96591 -1.96591
0.348867 -1.92655 -1.92655
0.351479 -1.96328 -1.96328
0.291575 -1.99796 -1.99796
0.295663 -2.07295 -2.07295
0.422798 -2.078 -2.078
0.416632 -2.00296 -2.00296
0.293628 -2.0353 -2.0353
0.359199 -2.07534 -2.07534
0.419726 -2.04033 -2.04033
0.354072 -2.00033 -2.00033
0.356646 -2.03768 -2.03768
0.295663 -2.07295 -2.07295
0.299678 -2.14918 -2.14918
0.428877 -2.15426 -2.15426
0.422798 -2.078 -2.078
0.297679 -2.11091 -2.11091
0.364246 -2.15159 -2.15159
0.425848 -2.11598 -2.11598
0.359199 -2.07534 -2.07534
0.361733 -2.11331 -2.11331
0.299678 -2.14918 -2.14918
0.303621 -2.22662 -2.22662
0.434869 -2.23174 -2.23174
0.428877 -2.15426 -2.15426
0.301659 -2.18775 -2.18775
0.369214 -2.22905 -2.22905
0.431884 -2.19285 -2.19285
0.364246 -2.15159 -2.15159
0.36674 -2.19017 -2.19017
0.303621 -2.22662 -2.22662
0.307491 -2.30527 -2.30527
0.440775 -2.31044 -2.31044
0.434869 -2.23174 -2.23174
0.305565 -2.2658 -2.2658
0.374102 -2.30773 -2.30773
0.437833 -2.27094 -2.27094
0.369214 -2.22905 -2.22905
0.371668 -2.26824 -2.26824
0.307491 -2.30527 -2.30527
0.311288 -2.38513 -2.38513
0.446592 -2.39034 -2.39034
0.440775 -2.31044 -2.31044
0.309399 -2.34505 -2.34505
0.378909 -2.38761 -2.38761
0.443694 -2.35024 -2.35024
0.374102 -2.30773 -2.30773
0.376515 -2.34752 -2.34752
0.311288 -2.38513 -2.38513
0.315012 -2.46618 -2.46618
0.452323 -2.47143 -2.47143
0.446592 -2.39034 -2.39034
0.313159 -2.42551 -2.42551
0.383636 -2.46868 -2.46868
0.449468 -2.43074 -2.43074
0.378909 -2.38761 -2.38761
0.381283 -2.428 -2.428
0.315012 -2.46618 -2.46618
0.318661 -2.54842 -2.54842
0.457965 -2.55371 -2.55371
0.452323 -2.47143 -2.47143
0.316846 -2.50715 -2.50715
0.388282 -2.55094 -2.55094
0.455155 -2.51242 -2.51242
0.383636 -2.46868 -2.46868
0.385969 -2.50966 -2.50966
0.318661 -2.54842 -2.54842
0.322237 -2.63184 -2.63184
0.463518 -2.63717 -2.63717
0.457965 -2.55371 -2.55371
0.320459 -2.58998 -2.58998
0.392847 -2.63438 -2.63438
0.460753 -2.59529 -2.59529
0.388282 -2.55094 -2.55094
0.390575 -2.59251 -2.59251
0.322237 -2.63184 -2.63184
0.325739 -2.71642 -2.71642
0.468984 -2.7218 -2.7218
0.463518 -2.63717 -2.63717
0.323997 -2.67398 -2.67398
0.39733 -2.71898 -2.71898
0.466262 -2.67934 -2.67934
0.392847 -2.63438 -2.63438
0.395099 -2.67653 -2.67653
0.325739 -2.71642 -2.71642
0.329166 -2.80216 -2.80216
0.47436 -2.80758 -2.80758
0.468984 -2.7218 -2.7218
0.327462 -2.75915 -2.75915
0.401732 -2.80475 -2.80475
0.471683 -2.76454 -2.76454
0.39733 -2.71898 -2.71898
0.399541 -2.76172 -2.76172
0.329166 -2.80216 -2.80216
0.332518 -2.88906 -2.88906
0.479647 -2.89452 -2.89452
0.47436 -2.80758 -2.80758
0.330852 -2.84546 -2.84546
0.406052 -2.89167 -2.89167
0.477015 -2.85091 -2.85091
0.401732 -2.80475 -2.80475
0.403902 -2.84806 -2.84806
0.332518 -2.88906 -2.88906
0.335796 -2.97709 -2.97709
0.484846 -2.9826 -2.9826
0.479647 -2.89452 -2.89452
0.334167 -2.93293 -2.93293
0.41029 -2.97973 -2.97973
0.482258 -2.93842 -2.93842
0.406052 -2.89167 -2.89167
0.408181 -2.93555 -2.93555
0.335796 -2.97709 -2.97709
0.338998 -3.06627 -3.06627
0.489954 -3.07182 -3.07182
0.484846 -2.9826 -2.9826
0.337406 -3.02154 -3.02154
0.414445 -3.06892 -3.06892
0.487411 -3.02707 -3.02707
0.41029 -2.97973 -2.97973
0.412378 -3.02418 -3.02418
0.338998 -3.06627 -3.06627
0.342125 -3.15656 -3.15656
0.494973 -3.16216 -3.16216
0.489954 -3.07182 -3.07182
0.340571 -3.11127 -3.11127
0.418518 -3.15924 -3.15924
0.492475 -3.11685 -3.11685
0.414445 -3.06892 -3.06892
0.416492 -3.11394 -3.11394
0.342125 -3.15656 -3.15656
0.345176 -3.24798 -3.24798
0.499902 -3.25363 -3.25363
0.494973 -3.16216 -3.16216
0.34366 -3.20213 -3.20213
0.422508 -3.25068 -3.25068
0.497449 -3.20776 -3.20776
0.418518 -3.15924 -3.15924
0.420524 -3.20482 -3.20482
0.345176 -3.24798 -3.24798
0.348152 -3.3405 -3.3405
0.504741 -3.3462 -3.3462
0.499902 -3.25363 -3.25363
0.346673 -3.2941 -3.2941
0.426416 -3.34323 -3.34323
0.502333 -3.29977 -3.29977
0.422508 -3.25068 -3.25068
0.424472 -3.29682 -3.29682
0.348152 -3.3405 -3.3405
0.351051 -3.43413 -3.43413
0.50949 -3.43987 -3.43987
0.504741 -3.3462 -3.3462
0.349611 -3.38718 -3.38718
0.43024 -3.43688 -3.43688
0.507127 -3.39289 -3.39289
0.426416 -3.34323 -3.34323
0.428338 -3.38992 -3.38992
0.351051 -3.43413 -3.43413
0.353875 -3.52884 -3.52884
0.514148 -3.53463 -3.53463
0.50949 -3.43987 -3.43987
0.352472 -3.48135 -3.48135
0.433981 -3.53162 -3.53162
0.511831 -3.48711 -3.48711
0.43024 -3.43688 -3.43688
0.432121 -3.48411 -3.48411
0.353875 -3.52884 -3.52884
0.356622 -3.62464 -3.62464
0.518716 -3.63048 -3.63048
0.514148 -3.53463 -3.53463
0.355258 -3.57661 -3.57661
0.437638 -3.62744 -3.62744
0.516444 -3.58242 -3.58242
0.433981 -3.53162 -3.53162
0.43582 -3.5794 -3.5794
0.356622 -3.62464 -3.62464
0.359293 -3.72152 -3.72152
0.523193 -3.7274 -3.7274
0.518716 -3.63048 -3.63048
0.357967 -3.67295 -3.67295
0.441212 -3.72434 -3.72434
0.520966 -3.6788 -3.6788
0.437638 -3.62744 -3.62744
0.439436 -3.67576 -3.67576
0.359293 -3.72152 -3.72152
0.361887 -3.81946 -3.81946
0.52758 -3.82538 -3.82538
0.523193 -3.7274 -3.7274
0.360599 -3.77036 -3.77036
0.444702 -3.82231 -3.82231
0.525398 -3.77626 -3.77626
0.441212 -3.72434 -3.72434
0.442968 -3.77319 -3.77319
0.361887 -3.81946 -3.81946
0.364404 -3.91846 -3.91846
0.531875 -3.92443 -3.92443
0.52758 -3.82538 -3.82538
0.363155 -3.86883 -3.86883
0.448109 -3.92133 -3.92133
0.529739 -3.87478 -3.87478
0.444702 -3.82231 -3.82231
0.446416 -3.87169 -3.87169
0.364404 -3.91846 -3.91846
0.366845 -4.0185 -4.0185
0.536079 -4.02453 -4.02453
0.531875 -3.92443 -3.92443
0.365634 -3.96835 -3.96835
0.451432 -4.0214 -4.0214
0.533989 -3.97435 -3.97435
0.448109 -3.92133 -3.92133
0.449781 -3.97124 -3.97124
0.366845 -4.0185 -4.0185
0.369209 -4.11959 -4.11959
0.540193 -4.12566 -4.12566
0.536079 -4.02453 -4.02453
0.368037 -4.06892 -4.06892
0.45467 -4.12252 -4.12252
0.538147 -4.07496 -4.07496
0.451432 -4.0214 -4.0214
0.453061 -4.07183 -4.07183
0.369209 -4.11959 -4.11959
0.371497 -4.22171 -4.22171
0.544215 -4.22783 -4.22783
0.540193 -4.12566 -4.12566
0.370363 -4.17052 -4.17052
0.457825 -4.22466 -4.22466
0.542215 -4.17662 -4.17662
0.45467 -4.12252 -4.12252
0.456258 -4.17346 -4.17346
0.371497 -4.22171 -4.22171
0.373707 -4.32486 -4.32486
0.548145 -4.33102 -4.33102
0.544215 -4.22783 -4.22783
0.372611 -4.27316 -4.27316
0.460895 -4.32783 -4.32783
0.546191 -4.2793 -4.2793
0.457825 -4.22466 -4.22466
0.459371 -4.27612 -4.27612
0.373707 -4.32486 -4.32486
0.37584 -4.42902 -4.42902
0.551985 -4.43523 -4.43523
0.548145 -4.33102 -4.33102
0.374783 -4.37681 -4.37681
0.463882 -4.43201 -4.43201
0.550076 -4.383 -4.383
0.460895 -4.32783 -4.32783
0.462399 -4.3798 -4.3798
0.37584 -4.42902 -4.42902
0.377896 -4.53418 -4.53418
0.555733 -4.54044 -4.54044
0.551985 -4.43523 -4.43523
0.376877 -4.48147 -4.48147
0.466783 -4.5372 -4.5372
0.55387 -4.48771 -4.48771
0.463882 -4.43201 -4.43201
0.465343 -4.48448 -4.48448
0.377896 -4.53418 -4.53418
0.379874 -4.64034 -4.64034
0.559389 -4.64665 -4.64665
0.555733 -4.54044 -4.54044
0.378895 -4.58714 -4.58714
0.469601 -4.64339 -4.64339
0.557572 -4.59342 -4.59342
0.466783 -4.5372 -4.5372
0.468203 -4.59017 -4.59017
0.379874 -4.64034 -4.64034
0.381776 -4.7475 -4.7475
0.562954 -4.75386 -4.75386
0.559389 -4.64665 -4.64665
0.380835 -4.6938 -4.6938
0.472334 -4.75057 -4.75057
0.561183 -4.70013 -4.70013
0.469601 -4.64339 -4.64339
0.470978 -4.69686 -4.69686
0.381776 -4.7475 -4.7475
0.3836 -4.85563 -4.85563
0.566428 -4.86204 -4.86204
0.562954 -4.75386 -4.75386
0.382698 -4.80144 -4.80144
0.474983 -4.85873 -4.85873
0.564702 -4.80782 -4.80782
0.472334 -4.75057 -4.75057
0.473669 -4.80453 -4.80453
0.3836 -4.85563 -4.85563
0.385347 -4.96474 -4.96474
0.569809 -4.97119 -4.97119
0.566428 -4.86204 -4.86204
0.384484 -4.91006 -4.91006
0.477548 -4.96786 -4.96786
0.56813 -4.91649 -4.91649
0.474983 -4.85873 -4.85873
0.476276 -4.91317 -4.91317
0.385347 -4.96474 -4.96474
0.387017 -5.07481 -5.07481
0.5731 -5.08131 -5.08131
0.569809 -4.97119 -4.97119
0.386192 -5.01965 -5.01965
0.480028 -5.07796 -5.07796
0.571466 -5.02613 -5.02613
0.477548 -4.96786 -4.96786
0.478798 -5.02279 -5.02279
0.387017 -5.07481 -5.07481
0.38861 -5.18583 -5.18583
0.576299 -5.19239 -5.19239
0.5731 -5.08131 -5.08131
0.387823 -5.1302 -5.1302
0.482424 -5.18901 -5.18901
0.574711 -5.13673 -5.13673
0.480028 -5.07796 -5.07796
0.481236 -5.13336 -5.13336
0.38861 -5.18583 -5.18583
0.390125 -5.29781 -5.29781
0.579406 -5.30441 -5.30441
0.576299 -5.19239 -5.19239
0.389377 -5.2417 -5.2417
0.484735 -5.30101 -5.30101
0.577864 -5.24828 -5.24828
0.482424 -5.18901 -5.18901
0.48359 -5.24489 -5.24489
0.390125 -5.29781 -5.29781
0.391564 -5.41072 -5.41072
0.582422 -5.41737 -5.41737
0.579406 -5.30441 -5.30441
0.390854 -5.35415 -5.35415
0.486962 -5.41394 -5.41394
0.580925 -5.36077 -5.36077
0.484735 -5.30101 -5.30101
0.485859 -5.35736 -5.35736
0.391564 -5.41072 -5.41072
0.392925 -5.52456 -5.52456
0.585346 -5.53126 -5.53126
0.582422 -5.41737 -5.41737
0.392254 -5.46752 -5.46752
0.489105 -5.52781 -5.52781
0.583896 -5.4742 -5.4742
0.486962 -5.41394 -5.41394
0.488044 -5.47076 -5.47076
0.392925 -5.52456 -5.52456
0.394208 -5.63932 -5.63932
0.588179 -5.64607 -5.64607
0.585346 -5.53126 -5.53126
0.393576 -5.58183 -5.58183
0.491163 -5.64259 -5.64259
0.586774 -5.58855 -5.58855
0.489105 -5.52781 -5.52781
0.490144 -5.58509 -5.58509
0.394208 -5.63932 -5.63932
0.395415 -5.755 -5.755
0.590921 -5.76179 -5.76179
0.588179 -5.64607 -5.64607
0.394821 -5.69705 -5.69705
0.493137 -5.7583 -5.7583
0.589561 -5.70381 -5.70381
0.491163 -5.64259 -5.64259
0.492161 -5.70033 -5.70033
0.395415 -5.755 -5.755
0.396545 -5.87158 -5.87158
0.593571 -5.87842 -5.87842
0.590921 -5.76179 -5.76179
0.39599 -5.81317 -5.81317
0.495027 -5.8749 -5.8749
0.592257 -5.81999 -5.81999
0.493137 -5.7583 -5.7583
0.494093 -5.81648 -5.81648
0.396545 -5.87158 -5.87158
0.397598 -5.98905 -5.98905
0.59613 -5.99594 -5.99594
0.593571 -5.87842 -5.87842
0.397081 -5.9302 -5.9302
0.496833 -5.9924 -5.9924
0.594862 -5.93707 -5.93707
0.495027 -5.8749 -5.8749
0.495941 -5.93354 -5.93354
0.397598 -5.98905 -5.98905
0.398574 -6.10741 -6.10741
0.598598 -6.11435 -6.11435
0.59613 -5.99594 -5.99594
0.398095 -6.04812 -6.04812
0.498555 -6.11079 -6.11079
0.597375 -6.05503 -6.05503
0.496833 -5.9924 -5.9924
0.497705 -6.05148 -6.05148
0.398574 -6.10741 -6.10741
0.399473 -6.22666 -6.22666
0.600975 -6.23364 -6.23364
0.598598 -6.11435 -6.11435
0.399033 -6.16693 -6.16693
0.500193 -6.23005 -6.23005
0.599798 -6.17389 -6.17389
0.498555 -6.11079 -6.11079
0.499385 -6.17031 -6.17031
0.399473 -6.22666 -6.22666
0.400295 -6.34677 -6.34677
0.603261 -6.3538 -6.3538
0.600975 -6.23364 -6.23364
0.399894 -6.2866 -6.2866
0.501747 -6.35019 -6.35019
0.602129 -6.29361 -6.29361
0.500193 -6.23005 -6.23005
0.500981 -6.29001 -6.29001
0.400295 -6.34677 -6.34677
0.401041 -6.46774 -6.46774
0.605456 -6.47482 -6.47482
0.603261 -6.3538 -6.3538
0.400678 -6.40715 -6.40715
0.503218 -6.47119 -6.47119
0.60437 -6.4142 -6.4142
0.501747 -6.35019 -6.35019
0.502493 -6.41058 -6.41058
0.401041 -6.46774 -6.46774
0.401711 -6.58957 -6.58957
0.60756 -6.59669 -6.59669
0.605456 -6.47482 -6.47482
0.401386 -6.52855 -6.52855
0.504605 -6.59304 -6.59304
0.606519 -6.53565 -6.53565
0.503218 -6.47119 -6.47119
0.503922 -6.53201 -6.53201
0.401711 -6.58957 -6.58957
0.402304 -6.71224 -6.71224
0.609573 -6.71941 -6.71941
0.60756 -6.59669 -6.59669
0.402017 -6.6508 -6.6508
0.505908 -6.71573 -6.71573
0.608578 -6.65795 -6.65795
0.504605 -6.59304 -6.59304
0.505267 -6.65428 -6.65428
0.402304 -6.71224 -6.71224
0.402821 -6.83575 -6.83575
0.611497 -6.84297 -6.84297
0.609573 -6.71941 -6.71941
0.402572 -6.77389 -6.77389
0.507128 -6.83927 -6.83927
0.610546 -6.78108 -6.78108
0.505908 -6.71573 -6.71573
0.506528 -6.7774 -6.7774
0.402821 -6.83575 -6.83575
0.403261 -6.96008 -6.96008
0.613329 -6.96735 -6.96735
0.611497 -6.84297 -6.84297
0.403051 -6.89781 -6.89781
0.508265 -6.96363 -6.96363
0.612424 -6.90505 -6.90505
0.507128 -6.83927 -6.83927
0.507707 -6.90134 -6.90134
0.403261 -6.96008 -6.96008
0.403626 -7.08524 -7.08524
0.615072 -7.09255 -7.09255
0.613329 -6.96735 -6.96735
0.403453 -7.02256 -7.02256
0.509318 -7.08881 -7.08881
0.614212 -7.02985 -7.02985
0.508265 -6.96363 -6.96363
0.508802 -7.02611 -7.02611
0.403626 -7.08524 -7.08524
0.403915 -7.2112 -7.2112
0.616724 -7.21856 -7.21856
0.615072 -7.09255 -7.09255
0.40378 -7.14812 -7.14812
0.510289 -7.21479 -7.21479
0.615909 -7.15545 -7.15545
0.509318 -7.08881 -7.08881
0.509814 -7.1517 -7.1517
0.403915 -7.2112 -7.2112
0.404129 -7.33797 -7.33797
0.618287 -7.34537 -7.34537
0.616724 -7.21856 -7.21856
0.404031 -7.27449 -7.27449
0.511177 -7.34159 -7.34159
0.617517 -7.28187 -7.28187
0.510289 -7.21479 -7.21479
0.510743 -7.27809 -7.27809
0.404129 -7.33797 -7.33797
0.404267 -7.46553 -7.46553
0.61976 -7.47298 -7.47298
0.618287 -7.34537 -7.34537
0.404207 -7.40165 -7.40165
0.511982 -7.46917 -7.46917
0.619034 -7.40908 -7.40908
0.511177 -7.34159 -7.34159
0.51159 -7.40528 -7.40528
0.404267 -7.46553 -7.46553
0.404329 -7.59388 -7.59388
0.621143 -7.60137 -7.60137
0.61976 -7.47298 -7.47298
0.404307 -7.52961 -7.52961
0.512705 -7.59754 -7.59754
0.620462 -7.53708 -7.53708
0.511982 -7.46917 -7.46917
0.512354 -7.53326 -7.53326
0.404329 -7.59388 -7.59388
0.404317 -7.723 -7.723
0.622437 -7.73054 -7.73054
0.621143 -7.60137 -7.60137
0.404333 -7.65835 -7.65835
0.513346 -7.72669 -7.72669
0.621801 -7.66586 -7.66586
0.512705 -7.59754 -7.59754
0.513036 -7.66202 -7.66202
0.404317 -7.723 -7.723
0.40423 -7.8529 -7.8529
0.623642 -7.86048 -7.86048
0.622437 -7.73054 -7.73054
0.404283 -7.78785 -7.78785
0.513905 -7.8566 -7.8566
0.62305 -7.79541 -7.79541
0.513346 -7.72669 -7.72669
0.513636 -7.79155 -7.79155
0.40423 -7.8529 -7.8529
0.404068 -7.98355 -7.98355
0.624757 -7.99117 -7.99117
0.623642 -7.86048 -7.86048
0.404158 -7.91813 -7.91813
0.514382 -7.98728 -7.98728
0.624211 -7.92573 -7.92573
0.513905 -7.8566 -7.8566
0.514153 -7.92185 -7.92185
0.404068 -7.98355 -7.98355
0.403832 -8.11495 -8.11495
0.625784 -8.12262 -8.12262
0.624757 -7.99117 -7.99117
0.403959 -8.04915 -8.04915
0.514777 -8.1187 -8.1187
0.625282 -8.0568 -8.0568
0.514382 -7.98728 -7.98728
0.51459 -8.0529 -8.0529
0.403832 -8.11495 -8.11495
0.403521 -8.24709 -8.24709
0.626723 -8.25481 -8.25481
0.625784 -8.12262 -8.12262
0.403686 -8.18093 -8.18093
0.515091 -8.25087 -8.25087
0.626265 -8.18862 -8.18862
0.514777 -8.1187 -8.1187
0.514944 -8.18469 -8.18469
0.403521 -8.24709 -8.24709
0.403136 -8.37997 -8.37997
0.627573 -8.38773 -8.38773
0.626723 -8.25481 -8.25481
0.403338 -8.31344 -8.31344
0.515324 -8.38377 -8.38377
0.627159 -8.32118 -8.32118
0.515091 -8.25087 -8.25087
0.515218 -8.31723 -8.31723
0.403136 -8.37997 -8.37997
0.402678 -8.51358 -8.51358
0.628335 -8.52138 -8.52138
0.627573 -8.38773 -8.38773
0.402916 -8.44669 -8.44669
0.515476 -8.5174 -8.5174
0.627965 -8.45446 -8.45446
0.515324 -8.38377 -8.38377
0.51541 -8.4505 -8.4505
0.402678 -8.51358 -8.51358
0.402146 -8.6479 -8.6479
0.62901 -8.65574 -8.65574
0.628335 -8.52138 -8.52138
0.402421 -8.58065 -8.58065
0.515547 -8.65174 -8.65174
0.628683 -8.58847 -8.58847
0.515476 -8.5174 -8.5174
0.515521 -8.58448 -8.58448
0.402146 -8.6479 -8.6479
0.401541 -8.78293 -8.78293
0.629596 -8.79082 -8.79082
0.62901 -8.65574 -8.65574
0.401852 -8.71533 -8.71533
0.515537 -8.7868 -8.7868
0.629314 -8.72319 -8.72319
0.515547 -8.65174 -8.65174
0.515552 -8.71918 -8.71918
0.401541 -8.78293 -8.78293
0.400862 -8.91867 -8.91867
0.630096 -8.92659 -8.92659
0.629596 -8.79082 -8.79082
0.401211 -8.85071 -8.85071
0.515448 -8.92255 -8.92255
0.629857 -8.85861 -8.85861
0.515537 -8.7868 -8.7868
0.515503 -8.85459 -8.85459
0.400862 -8.91867 -8.91867
0.400111 -9.05509 -9.05509
0.630508 -9.06305 -9.06305
0.630096 -8.92659 -8.92659
0.400496 -8.98679 -8.98679
0.515279 -9.059 -9.059
0.630313 -8.99473 -8.99473
0.515448 -8.92255 -8.92255
0.515373 -8.99069 -8.99069
0.400111 -9.05509 -9.05509
0.399287 -9.1922 -9.1922
0.630834 -9.2002 -9.2002
0.630508 -9.06305 -9.06305
0.399708 -9.12356 -9.12356
0.515029 -9.19612 -9.19612
0.630682 -9.13154 -9.13154
0.515279 -9.059 -9.059
0.515164 -9.12747 -9.12747
0.399287 -9.1922 -9.1922
0.398392 -9.32998 -9.32998
0.631073 -9.33802 -9.33802
0.630834 -9.2002 -9.2002
0.398849 -9.261 -9.261
0.514701 -9.33393 -9.33393
0.630964 -9.26903 -9.26903
0.515029 -9.19612 -9.19612
0.514875 -9.26494 -9.26494
0.398392 -9.32998 -9.32998
0.397424 -9.46843 -9.46843
0.631226 -9.47651 -9.47651
0.631073 -9.33802 -9.33802
0.397917 -9.39912 -9.39912
0.514293 -9.47239 -9.47239
0.63116 -9.40718 -9.40718
0.514701 -9.33393 -9.33393
0.514507 -9.40308 -9.40308
0.397424 -9.46843 -9.46843
0.396384 -9.60753 -9.60753
0.631293 -9.61565 -9.61565
0.631226 -9.47651 -9.47651
0.396913 -9.5379 -9.5379
0.513807 -9.61152 -9.61152
0.63127 -9.546 -9.546
0.514293 -9.47239 -9.47239
0.51406 -9.54188 -9.54188
0.396384 -9.60753 -9.60753
0.395273 -9.74729 -9.74729
0.631274 -9.75545 -9.75545
0.631293 -9.61565 -9.61565
0.395838 -9.67733 -9.67733
0.513242 -9.7513 -9.7513
0.631294 -9.68547 -9.68547
0.513807 -9.61152 -9.61152
0.513534 -9.68133 -9.68133
0.395273 -9.74729 -9.74729
0.394091 -9.88768 -9.88768
0.63117 -9.89588 -9.89588
0.631274 -9.75545 -9.75545
0.394691 -9.8174 -9.8174
0.512599 -9.89171 -9.89171
0.631232 -9.82558 -9.82558
0.513242 -9.7513 -9.7513
0.51293 -9.82142 -9.82142
0.394091 -9.88768 -9.88768
0.392838 -10.0287 -10.0287
0.63098 -10.0369 -10.0369
0.63117 -9.89588 -9.89588
0.393474 -9.95812 -9.95812
0.511878 -10.0328 -10.0328
0.631086 -9.96633 -9.96633
0.512599 -9.89171 -9.89171
0.512248 -9.96216 -9.96216
0.392838 -10.0287 -10.0287
0.391515 -10.1704 -10.1704
0.630707 -10.1786 -10.1786
0.63098 -10.0369 -10.0369
0.392186 -10.0995 -10.0995
0.511079 -10.1744 -10.1744
0.630854 -10.1077 -10.1077
0.511878 -10.0328 -10.0328
0.511488 -10.1035 -10.1035
0.391515 -10.1704 -10.1704
0.390122 -10.3126 -10.3126
0.630348 -10.3209 -10.3209
0.630707 -10.1786 -10.1786
0.390827 -10.2414 -10.2414
0.510204 -10.3167 -10.3167
0.630538 -10.2497 -10.2497
0.511079 -10.1744 -10.1744
0.510651 -10.2455 -10.2455
0.390122 -10.3126 -10.3126
0.388659 -10.4555 -10.4555
0.629906 -10.4638 -10.4638
0.630348 -10.3209 -10.3209
0.389399 -10.384 -10.384
0.509251 -10.4596 -10.4596
0.630138 -10.3923 -10.3923
0.510204 -10.3167 -10.3167
0.509737 -10.3881 -10.3881
0.388659 -10.4555 -10.4555
0.387126 -10.599 -10.599
0.62938 -10.6074 -10.6074
0.629906 -10.4638 -10.4638
0.387901 -10.5272 -10.5272
0.508221 -10.6031 -10.6031
0.629653 -10.5355 -10.5355
0.509251 -10.4596 -10.4596
0.508746 -10.5313 -10.5313
0.387126 -10.599 -10.599
0.385524 -10.743 -10.743
0.62877 -10.7515 -10.7515
0.62938 -10.6074 -10.6074
0.386334 -10.6709 -10.6709
0.507116 -10.7472 -10.7472
0.629085 -10.6793 -10.6793
0.508221 -10.6031 -10.6031
0.507678 -10.6751 -10.6751
0.385524 -10.743 -10.743
0.383853 -10.8877 -10.8877
0.628078 -10.8961 -10.8961
0.62877 -10.7515 -10.7515
0.384697 -10.8153 -10.8153
0.505934 -10.8918 -10.8918
0.628434 -10.8237 -10.8237
0.507116 -10.7472 -10.7472
0.506534 -10.8194 -10.8194
0.383853 -10.8877 -10.8877
0.382114 -11.0329 -11.0329
0.627302 -11.0414 -11.0414
0.628078 -10.8961 -10.8961
0.382992 -10.9602 -10.9602
0.504677 -11.0371 -11.0371
0.6277 -10.9687 -10.9687
0.505934 -10.8918 -10.8918
0.505315 -10.9644 -10.9644
0.382114 -11.0329 -11.0329
0.380307 -11.1787 -11.1787
0.626445 -11.1872 -11.1872
0.627302 -11.0414 -11.0414
0.381219 -11.1057 -11.1057
0.503344 -11.1829 -11.1829
0.626884 -11.1142 -11.1142
0.504677 -11.0371 -11.0371
0.50402 -11.1099 -11.1099
0.380307 -11.1787 -11.1787
0.378432 -11.325 -11.325
0.625505 -11.3336 -11.3336
0.626445 -11.1872 -11.1872
0.379378 -11.2518 -11.2518
0.501937 -11.3292 -11.3292
0.625985 -11.2603 -11.2603
0.503344 -11.1829 -11.1829
0.50265 -11.256 -11.256
0.378432 -11.325 -11.325
0.37649 -11.4719 -11.4719
0.624484 -11.4805 -11.4805
0.625505 -11.3336 -11.3336
0.37747 -11.3984 -11.3984
0.500455 -11.4761 -11.4761
0.625004 -11.407 -11.407
0.501937 -11.3292 -11.3292
0.501205 -11.4026 -11.4026
0.37649 -11.4719 -11.4719
0.374481 -11.6193 -11.6193
0.623381 -11.6279 -11.6279
0.624484 -11.4805 -11.4805
0.375494 -11.5455 -11.5455
0.498899 -11.6236 -11.6236
0.623942 -11.5541 -11.5541
0.500455 -11.4761 -11.4761
0.499686 -11.5498 -11.5498
0.374481 -11.6193 -11.6193
0.372405 -11.7673 -11.7673
0.622198 -11.7759 -11.7759
0.623381 -11.6279 -11.6279
0.373451 -11.6932 -11.6932
0.49727 -11.7715 -11.7715
0.622799 -11.7019 -11.7019
0.498899 -11.6236 -11.6236
0.498094 -11.6975 -11.6975
0.372405 -11.7673 -11.7673
0.370263 -11.9158 -11.9158
0.620934 -11.9244 -11.9244
0.622198 -11.7759 -11.7759
0.371342 -11.8415 -11.8415
0.495566 -11.92 -11.92
0.621576 -11.8501 -11.8501
0.49727 -11.7715 -11.7715
0.496427 -11.8457 -11.8457
0.370263 -11.9158 -11.9158
0.368055 -12.0647 -12.0647
0.61959 -12.0734 -12.0734
0.620934 -11.9244 -11.9244
0.369167 -11.9902 -11.9902
0.49379 -12.069 -12.069
0.620272 -11.9989 -11.9989
0.495566 -11.92 -11.92
0.494688 -11.9945 -11.9945
0.368055 -12.0647 -12.0647
0.365782 -12.2142 -12.2142
0.618166 -12.223 -12.223
0.61959 -12.0734 -12.0734
0.366927 -12.1394 -12.1394
0.491942 -12.2185 -12.2185
0.618888 -12.1481 -12.1481
0.49379 -12.069 -12.069
0.492875 -12.1437 -12.1437
0.365782 -12.2142 -12.2142
0.363443 -12.3642 -12.3642
0.616663 -12.373 -12.373
0.618166 -12.223 -12.223
0.364621 -12.2892 -12.2892
0.490021 -12.3686 -12.3686
0.617424 -12.2979 -12.2979
0.491942 -12.2185 -12.2185
0.490991 -12.2935 -12.2935
0.363443 -12.3642 -12.3642
0.36104 -12.5147 -12.5147
0.615081 -12.5235 -12.5235
0.616663 -12.373 -12.373
0.36225 -12.4394 -12.4394
0.488029 -12.519 -12.519
0.615882 -12.4482 -12.4482
0.490021 -12.3686 -12.3686
0.489034 -12.4437 -12.4437
0.36104 -12.5147 -12.5147
0.358573 -12.6657 -12.6657
0.61342 -12.6745 -12.6745
0.615081 -12.5235 -12.5235
0.359815 -12.5901 -12.5901
0.485965 -12.67 -12.67
0.61426 -12.5989 -12.5989
0.488029 -12.519 -12.519
0.487006 -12.5945 -12.5945
0.358573 -12.6657 -12.6657
0.356042 -12.8171 -12.8171
0.611682 -12.8259 -12.8259
0.61342 -12.6745 -12.6745
0.357315 -12.7413 -12.7413
0.48383 -12.8215 -12.8215
0.612561 -12.7501 -12.7501
0.485965 -12.67 -12.67
0.484906 -12.7457 -12.7457
0.356042 -12.8171 -12.8171
0.353447 -12.969 -12.969
0.609866 -12.9779 -12.9779
0.611682 -12.8259 -12.8259
0.354753 -12.893 -12.893
0.481624 -12.9734 -12.9734
0.610784 -12.9018 -12.9018
0.48383 -12.8215 -12.8215
0.482736 -12.8974 -12.8974
0.353447 -12.969 -12.969
0.35079 -13.1213 -13.1213
0.607972 -13.1302 -13.1302
0.609866 -12.9779 -12.9779
0.352127 -13.0451 -13.0451
0.479349 -13.1257 -13.1257
0.608929 -13.054 -13.054
0.481624 -12.9734 -12.9734
0.480495 -13.0495 -13.0495
0.35079 -13.1213 -13.1213
0.34807 -13.2741 -13.2741
0.606002 -13.283 -13.283
0.607972 -13.1302 -13.1302
0.349438 -13.1977 -13.1977
0.477004 -13.2785 -13.2785
0.606997 -13.2066 -13.2066
0.479349 -13.1257 -13.1257
0.478185 -13.2021 -13.2021
0.34807 -13.2741 -13.2741
0.345288 -13.4274 -13.4274
0.603955 -13.4363 -13.4363
0.606002 -13.283 -13.283
0.346687 -13.3507 -13.3507
0.474589 -13.4318 -13.4318
0.604988 -13.3596 -13.3596
0.477004 -13.2785 -13.2785
0.475805 -13.3551 -13.3551
0.345288 -13.4274 -13.4274
0.342444 -13.581 -13.581
0.601833 -13.59 -13.59
0.603955 -13.4363 -13.4363
0.343874 -13.5041 -13.5041
0.472106 -13.5855 -13.5855
0.602904 -13.5131 -13.5131
0.474589 -13.4318 -13.4318
0.473356 -13.5086 -13.5086
0.342444 -13.581 -13.581
0.339539 -13.7351 -13.7351
0.599635 -13.7441 -13.7441
0.601833 -13.59 -13.59
0.340999 -13.658 -13.658
0.469555 -13.7395 -13.7395
0.600743 -13.667 -13.667
0.472106 -13.5855 -13.5855
0.470839 -13.6624 -13.6624
0.339539 -13.7351 -13.7351
0.336573 -13.8896 -13.8896
0.597362 -13.8986 -13.8986
0.599635 -13.7441 -13.7441
0.338064 -13.8123 -13.8123
0.466935 -13.894 -13.894
0.598508 -13.8213 -13.8213
0.469555 -13.7395 -13.7395
0.468253 -13.8167 -13.8167
0.336573 -13.8896 -13.8896
0.333547 -14.0445 -14.0445
0.595014 -14.0535 -14.0535
0.597362 -13.8986 -13.8986
0.335067 -13.967 -13.967
0.464248 -14.049 -14.049
0.596197 -13.976 -13.976
0.466935 -13.894 -13.894
0.4656 -13.9715 -13.9715
0.333547 -14.0445 -14.0445
0.330461 -14.1998 -14.1998
0.592592 -14.2088 -14.2088
0.595014 -14.0535 -14.0535
0.332011 -14.1221 -14.1221
0.461494 -14.2043 -14.2043
0.593812 -14.1311 -14.1311
0.464248 -14.049 -14.049
0.462879 -14.1266 -14.1266
0.330461 -14.1998 -14.1998
0.327315 -14.3555 -14.3555
0.590097 -14.3645 -14.3645
0.592592 -14.2088 -14.2088
0.328895 -14.2776 -14.2776
0.458673 -14.3599 -14.3599
0.591354 -14.2866 -14.2866
0.461494 -14.2043 -14.2043
0.460092 -14.2821 -14.2821
0.327315 -14.3555 -14.3555
0.324111 -14.5115 -14.5115
0.587528 -14.5206 -14.5206
0.590097 -14.3645 -14.3645
0.32572 -14.4334 -14.4334
0.455787 -14.516 -14.516
0.588821 -14.4425 -14.4425
0.458673 -14.3599 -14.3599
0.457238 -14.4379 -14.4379
0.324111 -14.5115 -14.5115
0.320848 -14.6679 -14.6679
0.584886 -14.677 -14.677
0.587528 -14.5206 -14.5206
0.322486 -14.5897 -14.5897
0.452834 -14.6724 -14.6724
0.586216 -14.5988 -14.5988
0.455787 -14.516 -14.516
0.454319 -14.5942 -14.5942
0.320848 -14.6679 -14.6679
0.317526 -14.8247 -14.8247
0.582172 -14.8338 -14.8338
0.584886 -14.677 -14.677
0.319194 -14.7463 -14.7463
0.449817 -14.8292 -14.8292
0.583538 -14.7554 -14.7554
0.452834 -14.6724 -14.6724
0.451334 -14.7508 -14.7508
0.317526 -14.8247 -14.8247
0.314148 -14.9819 -14.9819
0.579387 -14.991 -14.991
0.582172 -14.8338 -14.8338
0.315844 -14.9033 -14.9033
0.446734 -14.9864 -14.9864
0.580788 -14.9124 -14.9124
0.449817 -14.8292 -14.8292
0.448284 -14.9078 -14.9078
0.314148 -14.9819 -14.9819
0.310712 -15.1394 -15.1394
0.576529 -15.1485 -15.1485
0.579387 -14.991 -14.991
0.312437 -15.0606 -15.0606
0.443588 -15.1439 -15.1439
0.577967 -15.0697 -15.0697
0.446734 -14.9864 -14.9864
0.445169 -15.0651 -15.0651
0.310712 -15.1394 -15.1394
0.30722 -15.2972 -15.2972
0.573601 -15.3063 -15.3063
0.576529 -15.1485 -15.1485
0.308973 -15.2182 -15.2182
0.440378 -15.3017 -15.3017
0.575074 -15.2273 -15.2273
0.443588 -15.1439 -15.1439
0.441991 -15.2227 -15.2227
0.30722 -15.2972 -15.2972
0.303671 -15.4553 -15.4553
0.570603 -15.4645 -15.4645
0.573601 -15.3063 -15.3063
0.305452 -15.3762 -15.3762
0.437104 -15.4599 -15.4599
0.572111 -15.3853 -15.3853
0.440378 -15.3017 -15.3017
0.438749 -15.3807 -15.3807
0.303671 -15.4553 -15.4553
0.300067 -15.6138 -15.6138
0.567535 -15.6229 -15.6229
0.570603 -15.4645 -15.4645
0.301876 -15.5345 -15.5345
0.433768 -15.6183 -15.6183
0.569078 -15.5437 -15.5437
0.437104 -15.4599 -15.4599
0.435444 -15.539 -15.539
0.300067 -15.6138 -15.6138
0.296407 -15.7726 -15.7726
0.564397 -15.7817 -15.7817
0.567535 -15.6229 -15.6229
0.298244 -15.6931 -15.6931
0.430369 -15.7771 -15.7771
0.565975 -15.7023 -15.7023
0.433768 -15.6183 -15.6183
0.432076 -15.6977 -15.6977
0.296407 -15.7726 -15.7726
0.292693 -15.9316 -15.9316
0.561191 -15.9408 -15.9408
0.564397 -15.7817 -15.7817
0.294557 -15.8521 -15.8521
0.426909 -15.9362 -15.9362
0.562802 -15.8612 -15.8612
0.430369 -15.7771 -15.7771
0.428647 -15.8566 -15.8566
0.292693 -15.9316 -15.9316
0.288925 -16.091 -16.091
0.557915 -16.1002 -16.1002
0.561191 -15.9408 -15.9408
0.290816 -16.0113 -16.0113
0.423387 -16.0956 -16.0956
0.559562 -16.0205 -16.0205
0.426909 -15.9362 -15.9362
0.425156 -16.0158 -16.0158
0.288925 -16.091 -16.091
0.285103 -16.2507 -16.2507
0.554572 -16.2599 -16.2599
0.557915 -16.1002 -16.1002
0.287021 -16.1708 -16.1708
0.419805 -16.2552 -16.2552
0.556252 -16.18 -16.18
0.423387 -16.0956 -16.0956
0.421603 -16.1754 -16.1754
0.285103 -16.2507 -16.2507
0.281228 -16.4106 -16.4106
0.551162 -16.4198 -16.4198
0.554572 -16.2599 -16.2599
0.283172 -16.3306 -16.3306
0.416162 -16.4152 -16.4152
0.552876 -16.3398 -16.3398
0.419805 -16.2552 -16.2552
0.417991 -16.3352 -16.3352
0.281228 -16.4106 -16.4106
0.2773 -16.5708 -16.5708
0.547685 -16.58 -16.58
0.551162 -16.4198 -16.4198
0.279271 -16.4907 -16.4907
0.412459 -16.5754 -16.5754
0.549432 -16.4999 -16.4999
0.416162 -16.4152 -16.4152
0.414318 -16.4952 -16.4952
0.2773 -16.5708 -16.5708
0.27332 -16.7312 -16.7312
0.544141 -16.7405 -16.7405
0.547685 -16.58 -16.58
0.275317 -16.651 -16.651
0.408697 -16.7358 -16.7358
0.545921 -16.6602 -16.6602
0.412459 -16.5754 -16.5754
0.410586 -16.6556 -16.6556
0.27332 -16.7312 -16.7312
0.269289 -16.892 -16.892
0.540531 -16.9012 -16.9012
0.544141 -16.7405 -16.7405
0.271311 -16.8116 -16.8116
0.404877 -16.8965 -16.8965
0.542344 -16.8208 -16.8208
0.408697 -16.7358 -16.7358
0.406794 -16.8162 -16.8162
0.269289 -16.892 -16.892
0.265206 -17.0529 -17.0529
0.536856 -17.0621 -17.0621
0.540531 -16.9012 -16.9012
0.267254 -16.9724 -16.9724
0.400998 -17.0575 -17.0575
0.538702 -16.9816 -16.9816
0.404877 -16.8965 -16.8965
0.402944 -16.977 -16.977
0.265206 -17.0529 -17.0529
0.261073 -17.2141 -17.2141
0.533116 -17.2233 -17.2233
0.536856 -17.0621 -17.0621
0.263146 -17.1335 -17.1335
0.397061 -17.2187 -17.2187
0.534994 -17.1427 -17.1427
0.400998 -17.0575 -17.0575
0.399036 -17.1381 -17.1381
0.261073 -17.2141 -17.2141
0.256889 -17.3755 -17.3755
0.529311 -17.3847 -17.3847
0.533116 -17.2233 -17.2233
0.258987 -17.2948 -17.2948
0.393067 -17.3801 -17.3801
0.531222 -17.304 -17.304
0.397061 -17.2187 -17.2187
0.395071 -17.2994 -17.2994
0.256889 -17.3755 -17.3755
0.252656 -17.5371 -17.5371
0.525443 -17.5464 -17.5464
0.529311 -17.3847 -17.3847
0.254779 -17.4563 -17.4563
0.389016 -17.5417 -17.5417
0.527385 -17.4655 -17.4655
0.393067 -17.3801 -17.3801
0.391048 -17.4609 -17.4609
0.252656 -17.5371 -17.5371
0.248374 -17.699 -17.699
0.521512 -17.7082 -17.7082
0.525443 -17.5464 -17.5464
0.250521 -17.618 -17.618
0.384909 -17.7036 -17.7036
0.523485 -17.6273 -17.6273
0.389016 -17.5417 -17.5417
0.386969 -17.6226 -17.6226
0.248374 -17.699 -17.699
0.244043 -17.861 -17.861
0.517517 -17.8703 -17.8703
0.521512 -17.7082 -17.7082
0.246214 -17.78 -17.78
0.380746 -17.8656 -17.8656
0.519522 -17.7892 -17.7892
0.384909 -17.7036 -17.7036
0.382834 -17.7846 -17.7846
0.244043 -17.861 -17.861
0.239664 -18.0233 -18.0233
0.51346 -18.0325 -18.0325
0.517517 -17.8703 -17.8703
0.241859 -17.9421 -17.9421
0.376528 -18.0278 -18.0278
0.515496 -17.9514 -17.9514
0.380746 -17.8656 -17.8656
0.378644 -17.9467 -17.9467
0.239664 -18.0233 -18.0233
0.235237 -18.1857 -18.1857
0.509342 -18.1949 -18.1949
0.51346 -18.0325 -18.0325
0.237457 -18.1044 -18.1044
0.372256 -18.1903 -18.1903
0.511409 -18.1137 -18.1137
0.376528 -18.0278 -18.0278
0.374399 -18.109 -18.109
0.235237 -18.1857 -18.1857
0.230764 -18.3483 -18.3483
0.505162 -18.3575 -18.3575
0.509342 -18.1949 -18.1949
0.233007 -18.2669 -18.2669
0.367929 -18.3529 -18.3529
0.50726 -18.2762 -18.2762
0.372256 -18.1903 -18.1903
0.370099 -18.2715 -18.2715
0.230764 -18.3483 -18.3483
0.226244 -18.511 -18.511
0.500922 -18.5202 -18.5202
0.505162 -18.3575 -18.3575
0.22851 -18.4296 -18.4296
0.363549 -18.5156 -18.5156
0.503049 -18.4388 -18.4388
0.367929 -18.3529 -18.3529
0.365746 -18.4342 -18.4342
0.226244 -18.511 -18.511
0.221678 -18.6739 -18.6739
0.496621 -18.6832 -18.6832
0.500922 -18.5202 -18.5202
0.223967 -18.5925 -18.5925
0.359116 -18.6785 -18.6785
0.498779 -18.6017 -18.6017
0.363549 -18.5156 -18.5156
0.361339 -18.597 -18.597
0.221678 -18.6739 -18.6739
0.217067 -18.837 -18.837
0.492261 -18.8462 -18.8462
0.496621 -18.6832 -18.6832
0.219379 -18.7554 -18.7554
0.35463 -18.8416 -18.8416
0.494448 -18.7647 -18.7647
0.359116 -18.6785 -18.6785
0.356879 -18.76 -18.76
0.217067 -18.837 -18.837
0.212411 -19.0002 -19.0002
0.487841 -19.0094 -19.0094
0.492261 -18.8462 -18.8462
0.214745 -18.9186 -18.9186
0.350092 -19.0048 -19.0048
0.490058 -18.9278 -18.9278
0.35463 -18.8416 -18.8416
0.352367 -18.9232 -18.9232
0.212411 -19.0002 -19.0002
0.207711 -19.1635 -19.1635
0.483363 -19.1727 -19.1727
0.487841 -19.0094 -19.0094
0.210067 -19.0819 -19.0819
0.345503 -19.1681 -19.1681
0.485609 -19.0911 -19.0911
0.350092 -19.0048 -19.0048
0.347804 -19.0864 -19.0864
0.207711 -19.1635 -19.1635
0.202967 -19.327 -19.327
0.478827 -19.3362 -19.3362
0.483363 -19.1727 -19.1727
0.205344 -19.2453 -19.2453
0.340863 -19.3316 -19.3316
0.481102 -19.2545 -19.2545
0.345503 -19.1681 -19.1681
0.343189 -19.2498 -19.2498
0.202967 -19.327 -19.327
0.198179 -19.4906 -19.4906
0.474233 -19.4998 -19.4998
0.478827 -19.3362 -19.3362
0.200578 -19.4088 -19.4088
0.336172 -19.4952 -19.4952
0.476537 -19.418 -19.418
0.340863 -19.3316 -19.3316
0.338524 -19.4134 -19.4134
0.198179 -19.4906 -19.4906
0.193349 -19.6543 -19.6543
0.469583 -19.6634 -19.6634
0.474233 -19.4998 -19.4998
0.19577 -19.5724 -19.5724
0.331432 -19.6588 -19.6588
0.471915 -19.5816 -19.5816
0.336172 -19.4952 -19.4952
0.333808 -19.577 -19.577
0.193349 -19.6543 -19.6543
0.188477 -19.8181 -19.8181
0.464876 -19.8272 -19.8272
0.469583 -19.6634 -19.6634
0.190918 -19.7361 -19.7361
0.326642 -19.8226 -19.8226
0.467236 -19.7453 -19.7453
0.331432 -19.6588 -19.6588
0.329043 -19.7407 -19.7407
0.188477 -19.8181 -19.8181
0.183563 -19.9819 -19.9819
0.460113 -19.9911 -19.9911
0.464876 -19.8272 -19.8272
0.186025 -19.9 -19.9
0.321804 -19.9865 -19.9865
0.462501 -19.9091 -19.9091
0.326642 -19.8226 -19.8226
0.324229 -19.9045 -19.9045
0.183563 -19.9819 -19.9819
0.178609 -20.1459 -20.1459
0.455296 -20.155 -20.155
0.460113 -19.9911 -19.9911
0.181091 -20.0639 -20.0639
0.316918 -20.1504 -20.1504
0.457711 -20.073 -20.073
0.321804 -19.9865 -19.9865
0.319367 -20.0685 -20.0685
0.178609 -20.1459 -20.1459
0.173613 -20.3099 -20.3099
0.450424 -20.319 -20.319
0.455296 -20.155 -20.155
0.176116 -20.2279 -20.2279
0.311985 -20.3145 -20.3145
0.452867 -20.237 -20.237
0.316918 -20.1504 -20.1504
0.314458 -20.2324 -20.2324
0.173613 -20.3099 -20.3099
0.168578 -20.474 -20.474
0.445501 -20.4831 -20.4831
0.450424 -20.319 -20.319
0.171101 -20.392 -20.392
0.307007 -20.4786 -20.4786
0.447969 -20.4011 -20.4011
0.311985 -20.3145 -20.3145
0.309502 -20.3965 -20.3965
0.168578 -20.474 -20.474
0.163503 -20.6382 -20.6382
0.440528 -20.6473 -20.6473
0.445501 -20.4831 -20.4831
0.166045 -20.5561 -20.5561
0.301984 -20.6427 -20.6427
0.44302 -20.5652 -20.5652
0.307007 -20.4786 -20.4786
0.304501 -20.5606 -20.5606
0.163503 -20.6382 -20.6382
0.158387 -20.8024 -20.8024
0.435509 -20.8114 -20.8114
0.440528 -20.6473 -20.6473
0.16095 -20.7203 -20.7203
0.296919 -20.8069 -20.8069
0.438024 -20.7293 -20.7293
0.301984 -20.6427 -20.6427
0.299456 -20.7248 -20.7248
0.158387 -20.8024 -20.8024
0.15323 -20.9666 -20.9666
0.43045 -20.9757 -20.9757
0.435509 -20.8114 -20.8114
0.155814 -20.8845 -20.8845
0.291813 -20.9711 -20.9711
0.432984 -20.8936 -20.8936
0.296919 -20.8069 -20.8069
0.29437 -20.889 -20.889
0.15323 -20.9666 -20.9666
0.148027 -21.1309 -21.1309
0.425364 -21.14 -21.14
0.43045 -20.9757 -20.9757
0.150634 -21.0487 -21.0487
0.286669 -21.1354 -21.1354
0.42791 -21.0578 -21.0578
0.291813 -20.9711 -20.9711
0.289246 -21.0533 -21.0533
0.148027 -21.1309 -21.1309
0.142773 -21.2953 -21.2953
0.420269 -21.3043 -21.3043
0.425364 -21.14 -21.14
0.145407 -21.2131 -21.2131
0.281482 -21.2998 -21.2998
0.422816 -21.2221 -21.2221
0.286669 -21.1354 -21.1354
0.284081 -21.2176 -21.2176
0.142773 -21.2953 -21.2953
0.137468 -21.4597 -21.4597
0.415212 -21.4688 -21.4688
0.420269 -21.3043 -21.3043
0.140125 -21.3775 -21.3775
0.276232 -21.4643 -21.4643
0.417731 -21.3865 -21.3865
0.281482 -21.2998 -21.2998
0.278869 -21.382 -21.382
0.137468 -21.4597 -21.4597
0.132186 -21.6242 -21.6242
0.410147 -21.634 -21.634
0.415212 -21.4688 -21.4688
0.134815 -21.542 -21.542
0.270914 -21.6291 -21.6291
0.412706 -21.5512 -21.5512
0.276232 -21.4643 -21.4643
0.273567 -21.5466 -21.5466
      </DataArray> 
      <DataArray type="Float64" NumberOfComponents="4" Name="CauchyStress" format="ascii">
-11367.3 -3426.84 0 -2681.33
-7335.77 138.743 0 116.362
-5492.03 -596.55 0 -297.333
-5188.98 -1563.99 0 -203.917
-8154.15 165.482 0 -365.787
-6836.53 -421.723 0 -383.296
-5390.54 -1124.06 0 -348.021
-6092.13 -1836.73 0 -654.505
-6752.54 -925.626 0 -608.945
-7335.77 138.743 0 116.362
-7272.28 79.2002 0 44.5764
-5572.45 -180.441 0 -134.709
-5492.03 -596.55 0 -297.333
-7280.69 -26.8894 0 56.8895
-6578.53 -62.9845 0 -53.8879
-5568.31 -308.12 0 -210.612
-6836.53 -421.723 0 -383.296
-6661.22 -152.211 0 -148.183
-7272.28 79.2002 0 44.5764
-7408.35 -26.4238 0 30.67
-5501.86 -36.7537 0 -41.3518
-5572.45 -180.441 0 -134.709
-7350.65 50.9847 0 46.5461
-6492.79 -4.32285 0 7.72724
-5530.01 -91.4587 0 -73.8107
-6578.53 -62.9845 0 -53.8879
-6531.83 -25.2437 0 -18.8366
-7408.35 -26.4238 0 30.67
-7440.66 7.43386 0 18.3865
-5453.92 -6.23203 0 -18.574
-5501.86 -36.7537 0 -41.3518
-7426.65 -24.1996 0 14.8061
-6453.2 3.15702 0 19.4234
-5480.59 -14.4013 0 -26.5035
-6492.79 -4.32285 0 7.72724
-6465.35 3.61742 0 20.3651
-7440.66 7.43386 0 18.3865
-7466.95 -8.8549 0 25.9198
-5406 5.05681 0 -14.8664
-5453.92 -6.23203 0 -18.574
-7459.6 5.1124 0 25.3445
-6434.82 2.34527 0 14.2624
-5426.06 1.06874 0 -14.7458
-6453.2 3.15702 0 19.4234
-6445.93 2.00603 0 15.5318
-7466.95 -8.8549 0 25.9198
-7455.41 1.03662 0 28.3679
-5372.93 2.88755 0 -18.7391
-5406 5.05681 0 -14.8664
-7461.9 -6.47928 0 25.2577
-6411.96 0.757246 0 9.99677
-5389.99 4.56078 0 -16.9989
-6434.82 2.34527 0 14.2624
-6422.72 2.0447 0 12.5669
-7455.41 1.03662 0 28.3679
-7437.78 -2.12104 0 34.1204
-5340.88 0.821723 0 -21.3946
-5372.93 2.88755 0 -18.7391
-7448.77 0.739216 0 32.0989
-6387.6 -0.975909 0 7.52445
-5355.92 1.90037 0 -20.0838
-6411.96 0.757246 0 9.99677
-6400.77 -0.394633 0 8.1492
-7437.78 -2.12104 0 34.1204
-7407.31 0.0589016 0 38.2649
-5312.34 -1.92235 0 -22.9351
-5340.88 0.821723 0 -21.3946
-7422.95 -1.53707 0 35.7594
-6359.05 -1.92603 0 7.30714
-5326.79 -0.643997 0 -22.4781
-6387.6 -0.975909 0 7.52445
-6373.4 -1.40833 0 7.27548
-7407.31 0.0589016 0 38.2649
-7373.83 -0.585238 0 43.0357
-5283.77 -3.54595 0 -22.6236
-5312.34 -1.92235 0 -22.9351
-7391.19 0.0105549 0 40.8708
-6328.72 -2.64294 0 8.71808
-5297.86 -2.81584 0 -22.9182
-6359.05 -1.92603 0 7.30714
-6344.25 -2.37383 0 7.8042
-7373.83 -0.585238 0 43.0357
-7336.73 -0.187804 0 47.3592
-5255.81 -4.67421 0 -21.282
-5283.77 -3.54595 0 -22.6236
-7355.43 -0.486878 0 45.1056
-6296.66 -2.9724 0 11.101
-5269.85 -4.19116 0 -22.0902
-6328.72 -2.64294 0 8.71808
-6312.75 -2.8129 0 9.82693
-7336.73 -0.187804 0 47.3592
-7298.67 -0.35638 0 51.7327
-5227.73 -5.24734 0 -19.1457
-5255.81 -4.67421 0 -21.282
-7317.85 -0.21399 0 49.6062
-6263.89 -3.18346 0 14.0919
-5241.74 -5.00469 0 -20.2747
-6296.66 -2.9724 0 11.101
-6280.39 -3.10422 0 12.5386
-7298.67 -0.35638 0 51.7327
-7259.77 -0.339711 0 55.9511
-5199.71 -5.5449 0 -16.627
-5227.73 -5.24734 0 -19.1457
-7279.26 -0.367647 0 53.8294
-6230.58 -3.26517 0 17.3599
-5213.74 -5.42838 0 -17.9271
-6263.89 -3.18346 0 14.0919
-6247.26 -3.22796 0 15.7031
-7259.77 -0.339711 0 55.9511
-7220.65 -0.428924 0 60.1123
-5171.63 -5.64795 0 -13.8881
-5199.71 -5.5449 0 -16.627
-7240.24 -0.372052 0 58.0525
-6197.07 -3.30772 0 20.7645
-5185.67 -5.61176 0 -15.2722
-6230.58 -3.26517 0 17.3599
-6213.86 -3.29336 0 19.0531
-7220.65 -0.428924 0 60.1123
-7181.39 -0.491029 0 64.1852
-5143.54 -5.65819 0 -11.0748
-5171.63 -5.64795 0 -13.8881
-7201.03 -0.463489 0 62.1536
-6163.43 -3.31746 0 24.1946
-5157.59 -5.66252 0 -12.4871
-6197.07 -3.30772 0 20.7645
-6180.26 -3.31331 0 22.4798
-7181.39 -0.491029 0 64.1852
-7142.12 -0.572763 0 68.1865
-5115.43 -5.61585 0 -8.24574
-5143.54 -5.65819 0 -11.0748
-7161.76 -0.529196 0 66.1973
-6129.76 -3.31939 0 27.608
-5129.49 -5.64089 0 -9.65857
-6163.43 -3.31746 0 24.1946
-6146.6 -3.31975 0 25.9057
-7142.12 -0.572763 0 68.1865
-7102.83 -0.653762 0 72.1138
-5087.31 -5.55202 0 -5.44193
-5115.43 -5.61585 0 -8.24574
-7122.47 -0.613593 0 70.1583
-6096.05 -3.317 0 30.9756
-5101.37 -5.58584 0 -6.83962
-6129.76 -3.31939 0 27.608
-6112.9 -3.31791 0 29.2983
-7102.83 -0.653762 0 72.1138
-7063.55 -0.740027 0 75.9694
-5059.19 -5.47936 0 -2.67845
-5087.31 -5.55202 0 -5.44193
-7083.19 -0.696095 0 74.0509
-6062.35 -3.31604 0 34.2881
-5073.25 -5.51611 0 -4.05433
-6096.05 -3.317 0 30.9756
-6079.2 -3.31642 0 32.6392
-7063.55 -0.740027 0 75.9694
-7024.28 -0.829263 0 79.7541
-5031.06 -5.40565 0 0.0361118
-5059.19 -5.47936 0 -2.67845
-7043.91 -0.78437 0 77.8705
-6028.64 -3.31743 0 37.5401
-5045.13 -5.44245 0 -1.31487
-6062.35 -3.31604 0 34.2881
-6045.49 -3.31627 0 35.9218
-7024.28 -0.829263 0 79.7541
-6985.01 -0.921753 0 83.4683
-5002.93 -5.3337 0 2.69956
-5031.06 -5.40565 0 0.0361118
-7004.64 -0.875063 0 81.6201
-5994.93 -3.32211 0 40.7307
-5017 -5.36932 0 1.37433
-6028.64 -3.31743 0 37.5401
-6011.79 -3.31939 0 39.1431
-6985.01 -0.921753 0 83.4683
-6945.74 -1.01743 0 87.1127
-4974.8 -5.26487 0 5.3112
-5002.93 -5.3337 0 2.69956
-6965.38 -0.969229 0 85.2992
-5961.23 -3.3301 0 43.8599
-4988.87 -5.29887 0 4.01183
-5994.93 -3.32211 0 40.7307
-5978.08 -3.32567 0 42.3029
-6945.74 -1.01743 0 87.1127
-6906.47 -1.11606 0 90.6875
-4946.67 -5.19941 0 7.87155
-4974.8 -5.26487 0 5.3112
-6926.11 -1.06637 0 88.9088
-5927.52 -3.34135 0 46.9282
-4960.74 -5.23171 0 6.59776
-5961.23 -3.3301 0 43.8599
-5944.37 -3.33533 0 45.4016
-6906.47 -1.11606 0 90.6875
-6867.2 -1.21762 0 94.1931
-4918.53 -5.13728 0 10.3812
-4946.67 -5.19941 0 7.87155
-6886.84 -1.16649 0 92.4489
-5893.81 -3.3557 0 49.9363
-4932.6 -5.16794 0 9.13268
-5927.52 -3.34135 0 46.9282
-5910.66 -3.34814 0 48.4397
-6867.2 -1.21762 0 94.1931
-6827.93 -1.32192 0 97.63
-4890.39 -5.07829 0 12.8409
-4918.53 -5.13728 0 10.3812
-6847.57 -1.26944 0 95.9201
-5860.09 -3.37297 0 52.885
-4904.46 -5.10741 0 11.6173
-5893.81 -3.3557 0 49.9363
-5876.95 -3.36398 0 51.4181
-6827.93 -1.32192 0 97.63
-6788.65 -1.42887 0 100.998
-4862.25 -5.02222 0 15.2512
-4890.39 -5.07829 0 12.8409
-6808.29 -1.37507 0 99.3227
-5826.38 -3.39301 0 55.7746
-4876.32 -5.0499 0 14.0522
-5860.09 -3.37297 0 52.885
-5843.24 -3.38265 0 54.3371
-6788.65 -1.42887 0 100.998
-6749.37 -1.5383 0 104.299
-4834.11 -4.96886 0 17.6126
-4862.25 -5.02222 0 15.2512
-6769.01 -1.48328 0 102.657
-5792.66 -3.41564 0 58.6057
-4848.18 -4.99521 0 16.438
-5826.38 -3.39301 0 55.7746
-5809.52 -3.40401 0 57.1974
-6749.37 -1.5383 0 104.299
-6710.09 -1.65008 0 107.532
-4805.97 -4.91806 0 19.9255
-4834.11 -4.96886 0 17.6126
-6729.73 -1.5939 0 105.924
-5758.94 -3.44074 0 61.3788
-4820.04 -4.94316 0 18.7751
-5792.66 -3.41564 0 58.6057
-5775.8 -3.42789 0 59.9995
-6710.09 -1.65008 0 107.532
-6670.8 -1.76407 0 110.697
-4777.82 -4.86967 0 22.1902
-4805.97 -4.91806 0 19.9255
-6690.44 -1.70681 0 109.123
-5725.21 -3.46816 0 64.0942
-4791.89 -4.89357 0 21.0638
-5758.94 -3.44074 0 61.3788
-5742.07 -3.45416 0 62.7437
-6670.8 -1.76407 0 110.697
-6631.5 -1.88013 0 113.796
-4749.67 -4.82355 0 24.4072
-4777.82 -4.86967 0 22.1902
-6651.15 -1.82185 0 112.255
-5691.48 -3.49777 0 66.7522
-4763.75 -4.84633 0 23.3047
-5725.21 -3.46816 0 64.0942
-5708.35 -3.4827 0 65.4303
-6631.5 -1.88013 0 113.796
-6592.21 -1.99813 0 116.828
-4721.52 -4.77959 0 26.5767
-4749.67 -4.82355 0 24.4072
-6611.86 -1.9389 0 115.321
-5657.75 -3.52947 0 69.3533
-4735.6 -4.80131 0 25.4979
-5691.48 -3.49777 0 66.7522
-5674.62 -3.51337 0 68.0599
-6592.21 -1.99813 0 116.828
-6552.91 -2.11793 0 119.795
-4693.37 -4.73769 0 28.6989
-4721.52 -4.77959 0 26.5767
-6572.56 -2.05781 0 118.32
-5624.02 -3.56311 0 71.8977
-4707.44 -4.75839 0 27.6437
-5657.75 -3.52947 0 69.3533
-5640.89 -3.54605 0 70.6326
-6552.91 -2.11793 0 119.795
-6513.61 -2.2394 0 122.695
-4665.21 -4.69773 0 30.7743
-4693.37 -4.73769 0 28.6989
-6533.26 -2.17846 0 121.253
-5590.28 -3.59861 0 74.3859
-4679.29 -4.71747 0 29.7425
-5624.02 -3.56311 0 71.8977
-5607.15 -3.58064 0 73.1488
-6513.61 -2.2394 0 122.695
-6474.3 -2.3624 0 125.53
-4637.06 -4.65964 0 32.803
-4665.21 -4.69773 0 30.7743
-6493.95 -2.30071 0 124.121
-5556.55 -3.63583 0 76.818
-4651.14 -4.67846 0 31.7945
-5590.28 -3.59861 0 74.3859
-5573.42 -3.61701 0 75.6089
-6474.3 -2.3624 0 125.53
-6434.99 -2.48681 0 128.301
-4608.9 -4.62332 0 34.7853
-4637.06 -4.65964 0 32.803
-6454.65 -2.42443 0 126.924
-5522.81 -3.67467 0 79.1946
-4622.98 -4.64127 0 33.7999
-5556.55 -3.63583 0 76.818
-5539.68 -3.65505 0 78.0132
-6434.99 -2.48681 0 128.301
-6395.68 -2.6125 0 131.007
-4580.74 -4.58867 0 36.7216
-4608.9 -4.62332 0 34.7853
-6415.34 -2.5495 0 129.662
-5489.07 -3.71502 0 81.5158
-4594.82 -4.60579 0 35.7592
-5522.81 -3.67467 0 79.1946
-5505.94 -3.69466 0 80.3621
-6395.68 -2.6125 0 131.007
-6356.37 -2.73934 0 133.648
-4552.58 -4.55561 0 38.612
-4580.74 -4.58867 0 36.7216
-6376.03 -2.67578 0 132.335
-5455.32 -3.75677 0 83.7821
-4566.66 -4.57195 0 37.6725
-5489.07 -3.71502 0 81.5158
-5472.19 -3.73572 0 82.6558
-6356.37 -2.73934 0 133.648
-6317.05 -2.86722 0 136.226
-4524.42 -4.52405 0 40.4569
-4552.58 -4.55561 0 38.612
-6336.71 -2.80316 0 134.945
-5421.58 -3.79983 0 85.9937
-4538.5 -4.53965 0 39.5402
-5455.32 -3.75677 0 83.7821
-5438.45 -3.77814 0 84.8947
-6317.05 -2.86722 0 136.226
-6277.74 -2.99602 0 138.741
-4496.26 -4.4939 0 42.2566
-4524.42 -4.52405 0 40.4569
-6297.39 -2.93151 0 137.492
-5387.83 -3.84408 0 88.151
-4510.34 -4.5088 0 41.3624
-5421.58 -3.79983 0 85.9937
-5404.7 -3.82181 0 87.0791
-6277.74 -2.99602 0 138.741
-6238.42 -3.12561 0 141.193
-4468.09 -4.46509 0 44.0113
-4496.26 -4.4939 0 42.2566
-6258.08 -3.06072 0 139.975
-5354.08 -3.88942 0 90.2544
-4482.18 -4.47934 0 43.1395
-5387.83 -3.84408 0 88.151
-5370.96 -3.86662 0 89.2094
-6238.42 -3.12561 0 141.193
-6199.09 -3.25588 0 143.582
-4439.93 -4.43753 0 45.7212
-4468.09 -4.46509 0 44.0113
-6218.75 -3.19067 0 142.395
-5320.33 -3.93577 0 92.3042
-4454.01 -4.45116 0 44.8718
-5354.08 -3.88942 0 90.2544
-5337.21 -3.91248 0 91.286
-6199.09 -3.25588 0 143.582
-6159.77 -3.38672 0 145.909
-4411.77 -4.41113 0 47.3868
-4439.93 -4.43753 0 45.7212
-6179.43 -3.32124 0 144.753
-5286.58 -3.98301 0 94.3006
-4425.85 -4.42419 0 46.5596
-5320.33 -3.93577 0 92.3042
-5303.46 -3.95928 0 93.309
-6159.77 -3.38672 0 145.909
-6120.44 -3.51802 0 148.175
-4383.6 -4.38583 0 49.0082
-4411.77 -4.41113 0 47.3868
-6140.11 -3.45232 0 147.05
-5252.83 -4.03106 0 96.2442
-4397.68 -4.39835 0 48.203
-5286.58 -3.98301 0 94.3006
-5269.71 -4.00694 0 95.279
-6120.44 -3.51802 0 148.175
-6081.12 -3.64966 0 150.379
-4355.43 -4.36153 0 50.5858
-4383.6 -4.38583 0 49.0082
-6100.78 -3.5838 0 149.284
-5219.08 -4.07982 0 98.1351
-4369.52 -4.37356 0 49.8025
-5252.83 -4.03106 0 96.2442
-5235.95 -4.05536 0 97.1962
-6081.12 -3.64966 0 150.379
-6041.79 -3.78154 0 152.522
-4327.27 -4.33817 0 52.1198
-4355.43 -4.36153 0 50.5858
-6061.45 -3.71557 0 151.458
-5185.32 -4.12919 0 99.9737
-4341.35 -4.34974 0 51.3582
-5219.08 -4.07982 0 98.1351
-5202.2 -4.10443 0 99.0609
-6041.79 -3.78154 0 152.522
-6002.46 -3.91355 0 154.604
-4299.1 -4.31567 0 53.6105
-4327.27 -4.33817 0 52.1198
-6022.12 -3.84753 0 153.57
-5151.57 -4.17909 0 101.76
-4313.18 -4.32681 0 52.8705
-5185.32 -4.12919 0 99.9737
-5168.45 -4.15408 0 100.873
-6002.46 -3.91355 0 154.604
-5963.13 -4.04559 0 156.626
-4270.93 -4.29395 0 55.0581
-4299.1 -4.31567 0 53.6105
-5982.79 -3.97957 0 155.623
-5117.81 -4.22944 0 103.495
-4285.01 -4.30471 0 54.3397
-5151.57 -4.17909 0 101.76
-5134.69 -4.20422 0 102.634
-5963.13 -4.04559 0 156.626
-5923.79 -4.17756 0 158.589
-4242.76 -4.27294 0 56.4631
-4270.93 -4.29395 0 55.0581
-5943.46 -4.11159 0 157.615
-5084.06 -4.28013 0 105.179
-4256.85 -4.28336 0 55.7659
-5117.81 -4.22944 0 103.495
-5100.93 -4.25474 0 104.344
-5923.79 -4.17756 0 158.589
-5884.46 -4.30935 0 160.492
-4214.59 -4.25257 0 57.8256
-4242.76 -4.27294 0 56.4631
-5904.13 -4.24348 0 159.548
-5050.3 -4.33109 0 106.812
-4228.68 -4.26268 0 57.1496
-5084.06 -4.28013 0 105.179
-5067.18 -4.30558 0 106.002
-5884.46 -4.30935 0 160.492
-5845.13 -4.44088 0 162.336
-4186.42 -4.23278 0 59.1459
-4214.59 -4.25257 0 57.8256
-5864.79 -4.37515 0 161.421
-5016.54 -4.38223 0 108.394
-4200.51 -4.24261 0 58.491
-5050.3 -4.33109 0 106.812
-5033.42 -4.35664 0 107.61
-5845.13 -4.44088 0 162.336
-5805.79 -4.57204 0 164.121
-4158.26 -4.21349 0 60.4244
-4186.42 -4.23278 0 59.1459
-5825.46 -4.50651 0 163.236
-4982.78 -4.43347 0 109.927
-4172.34 -4.22307 0 59.7904
-5016.54 -4.38223 0 108.394
-4999.66 -4.40784 0 109.167
-5805.79 -4.57204 0 164.121
-5766.45 -4.70275 0 165.849
-4130.09 -4.19463 0 61.6612
-4158.26 -4.21349 0 60.4244
-5786.12 -4.63746 0 164.992
-4949.02 -4.48473 0 111.409
-4144.17 -4.20401 0 61.048
-4982.78 -4.43347 0 109.927
-4965.9 -4.4591 0 110.674
-5766.45 -4.70275 0 165.849
-5727.12 -4.8329 0 167.518
-4101.92 -4.17615 0 62.8567
-4130.09 -4.19463 0 61.6612
-5746.79 -4.7679 0 166.69
-4915.26 -4.53593 0 112.841
-4116 -4.18535 0 62.2641
-4949.02 -4.48473 0 111.409
-4932.14 -4.51034 0 112.131
-5727.12 -4.8329 0 167.518
-5687.78 -4.96242 0 169.13
-4073.75 -4.15797 0 64.0112
-4101.92 -4.17615 0 62.8567
-5707.45 -4.89774 0 168.331
-4881.51 -4.587 0 114.225
-4087.83 -4.16702 0 63.4391
-4915.26 -4.53593 0 112.841
-4898.38 -4.56149 0 113.539
-5687.78 -4.96242 0 169.13
-5648.44 -5.0912 0 170.685
-4045.58 -4.14003 0 65.1249
-4073.75 -4.15797 0 64.0112
-5668.11 -5.02691 0 169.915
-4847.75 -4.63786 0 115.559
-4059.66 -4.14897 0 64.5731
-4881.51 -4.587 0 114.225
-4864.63 -4.61246 0 114.898
-5648.44 -5.0912 0 170.685
-5609.1 -5.21918 0 172.183
-4017.41 -4.12228 0 66.1981
-4045.58 -4.14003 0 65.1249
-5628.77 -5.1553 0 171.441
-4813.99 -4.68844 0 116.845
-4031.5 -4.13114 0 65.6666
-4847.75 -4.63786 0 115.559
-4830.87 -4.66319 0 116.208
-5609.1 -5.21918 0 172.183
-5569.77 -5.34626 0 173.626
-3989.24 -4.10465 0 67.2312
-4017.41 -4.12228 0 66.1981
-5589.44 -5.28283 0 172.911
-4780.23 -4.73866 0 118.083
-4003.33 -4.11345 0 66.7197
-4813.99 -4.68844 0 116.845
-4797.11 -4.7136 0 117.47
-5569.77 -5.34626 0 173.626
-5530.43 -5.47235 0 175.012
-3961.07 -4.08708 0 68.2243
-3989.24 -4.10465 0 67.2312
-5550.1 -5.40943 0 174.326
-4746.47 -4.78845 0 119.272
-3975.16 -4.09586 0 67.7327
-4780.23 -4.73866 0 118.083
-4763.35 -4.76361 0 118.683
-5530.43 -5.47235 0 175.012
-5491.09 -5.59739 0 176.343
-3932.91 -4.06952 0 69.1778
-3961.07 -4.08708 0 68.2243
-5510.76 -5.53501 0 175.684
-4712.71 -4.83775 0 120.415
-3946.99 -4.0783 0 68.706
-4746.47 -4.78845 0 119.272
-4729.59 -4.81316 0 119.849
-5491.09 -5.59739 0 176.343
-5451.75 -5.72129 0 177.619
-3904.74 -4.05191 0 70.0919
-3932.91 -4.06952 0 69.1778
-5471.42 -5.65949 0 176.987
-4678.95 -4.88648 0 121.51
-3918.82 -4.06072 0 69.6398
-4712.71 -4.83775 0 120.415
-4695.83 -4.86219 0 120.968
-5451.75 -5.72129 0 177.619
-5412.41 -5.84398 0 178.84
-3876.57 -4.03419 0 70.967
-3904.74 -4.05191 0 70.0919
-5432.08 -5.78279 0 178.236
-4645.19 -4.93459 0 122.558
-3890.66 -4.04307 0 70.5344
-4678.95 -4.88648 0 121.51
-4662.07 -4.91062 0 122.04
-5412.41 -5.84398 0 178.84
-5373.07 -5.96538 0 180.007
-3848.41 -4.01632 0 71.8033
-3876.57 -4.03419 0 70.967
-5392.74 -5.90484 0 179.43
-4611.43 -4.982 0 123.56
-3862.49 -4.02528 0 71.39
-4645.19 -4.93459 0 122.558
-4628.31 -4.95839 0 123.064
-5373.07 -5.96538 0 180.007
-5333.73 -6.08541 0 181.12
-3820.24 -3.99824 0 72.6011
-3848.41 -4.01632 0 71.8033
-5353.4 -6.02557 0 180.57
-4577.68 -5.02867 0 124.515
-3834.32 -4.00731 0 72.207
-4611.43 -4.982 0 123.56
-4594.56 -5.00543 0 124.043
-5333.73 -6.08541 0 181.12
-5294.4 -6.20401 0 182.179
-3792.08 -3.97989 0 73.3607
-3820.24 -3.99824 0 72.6011
-5314.07 -6.1449 0 181.656
-4543.92 -5.07451 0 125.425
-3806.16 -3.9891 0 72.9857
-4577.68 -5.02867 0 124.515
-4560.8 -5.05169 0 124.975
-5294.4 -6.20401 0 182.179
-5255.06 -6.32111 0 183.186
-3763.91 -3.96124 0 74.0823
-3792.08 -3.97989 0 73.3607
-5274.73 -6.26276 0 182.689
-4510.16 -5.11948 0 126.289
-3778 -3.97061 0 73.7262
-4543.92 -5.07451 0 125.425
-4527.04 -5.09711 0 125.862
-5255.06 -6.32111 0 183.186
-5215.72 -6.43664 0 184.139
-3735.75 -3.94222 0 74.7663
-3763.91 -3.96124 0 74.0823
-5235.39 -6.37908 0 183.669
-4476.41 -5.16352 0 127.108
-3749.83 -3.95178 0 74.429
-4510.16 -5.11948 0 126.289
-4493.29 -5.14162 0 126.704
-5215.72 -6.43664 0 184.139
-5176.38 -6.55054 0 185.041
-3707.59 -3.9228 0 75.4129
-3735.75 -3.94222 0 74.7663
-5196.05 -6.4938 0 184.597
-4442.65 -5.20657 0 127.882
-3721.67 -3.93257 0 75.0943
-4476.41 -5.16352 0 127.108
-4459.53 -5.18517 0 127.5
-5176.38 -6.55054 0 185.041
-5137.05 -6.66273 0 185.891
-3679.43 -3.90293 0 76.0224
-3707.59 -3.9228 0 75.4129
-5156.72 -6.60685 0 185.472
-4408.9 -5.24857 0 128.611
-3693.51 -3.91293 0 75.7223
-4442.65 -5.20657 0 127.882
-4425.78 -5.2277 0 128.252
-5137.05 -6.66273 0 185.891
-5097.71 -6.77317 0 186.689
-3651.27 -3.88257 0 76.5951
-3679.43 -3.90293 0 76.0224
-5117.38 -6.71817 0 186.296
-4375.14 -5.28948 0 129.297
-3665.35 -3.89281 0 76.3134
-4408.9 -5.24857 0 128.611
-4392.02 -5.26916 0 128.96
-5097.71 -6.77317 0 186.689
-5058.38 -6.88178 0 187.436
-3623.11 -3.86166 0 77.1313
-3651.27 -3.88257 0 76.5951
-5078.04 -6.8277 0 187.069
-4341.39 -5.32923 0 129.938
-3637.19 -3.87218 0 76.8678
-4375.14 -5.28948 0 129.297
-4358.27 -5.3095 0 129.623
-5058.38 -6.88178 0 187.436
-5019.04 -6.9885 0 188.132
-3594.95 -3.84017 0 77.6313
-3623.11 -3.86166 0 77.1313
-5038.71 -6.93538 0 187.79
-4307.64 -5.36779 0 130.537
-3609.03 -3.85099 0 77.3858
-4341.39 -5.32923 0 129.938
-4324.52 -5.34866 0 130.243
-5019.04 -6.9885 0 188.132
-4979.71 -7.09329 0 188.778
-3566.79 -3.81806 0 78.0953
-3594.95 -3.84017 0 77.6313
-4999.38 -7.04114 0 188.461
-4273.89 -5.4051 0 131.092
-3580.87 -3.82919 0 77.8677
-4307.64 -5.36779 0 130.537
-4290.77 -5.3866 0 130.819
-4979.71 -7.09329 0 188.778
-4940.38 -7.19609 0 189.374
-3538.63 -3.79528 0 78.5236
-3566.79 -3.81806 0 78.0953
-4960.04 -7.14494 0 189.082
-4240.14 -5.44111 0 131.604
-3552.71 -3.80676 0 78.3139
-4273.89 -5.4051 0 131.092
-4257.02 -5.42327 0 131.353
-4940.38 -7.19609 0 189.374
-4901.05 -7.29684 0 189.921
-3510.48 -3.77181 0 78.9165
-3538.63 -3.79528 0 78.5236
-4920.71 -7.24672 0 189.654
-4206.39 -5.47577 0 132.074
-3524.56 -3.78364 0 78.7244
-4240.14 -5.44111 0 131.604
-4223.27 -5.45861 0 131.844
-4901.05 -7.29684 0 189.921
-4861.72 -7.39548 0 190.418
-3482.33 -3.7476 0 79.2743
-3510.48 -3.77181 0 78.9165
-4881.38 -7.34642 0 190.176
-4172.64 -5.50905 0 132.501
-3496.4 -3.7598 0 79.0997
-4206.39 -5.47577 0 132.074
-4189.52 -5.49259 0 132.293
-4861.72 -7.39548 0 190.418
-4822.39 -7.49198 0 190.867
-3454.17 -3.72261 0 79.5972
-3482.33 -3.7476 0 79.2743
-4842.05 -7.444 0 190.649
-4138.9 -5.5409 0 132.887
-3468.25 -3.7352 0 79.4401
-4172.64 -5.50905 0 132.501
-4155.77 -5.52516 0 132.699
-4822.39 -7.49198 0 190.867
-4783.06 -7.58627 0 191.268
-3426.02 -3.69681 0 79.8857
-3454.17 -3.72261 0 79.5972
-4802.72 -7.5394 0 191.073
-4105.15 -5.57128 0 133.232
-3440.1 -3.70981 0 79.7458
-4138.9 -5.5409 0 132.887
-4122.03 -5.55628 0 133.065
-4783.06 -7.58627 0 191.268
-4743.73 -7.67832 0 191.62
-3397.87 -3.67017 0 80.1398
-3426.02 -3.69681 0 79.8857
-4763.39 -7.63258 0 191.45
-4071.41 -5.60014 0 133.535
-3411.95 -3.6836 0 80.017
-4105.15 -5.57128 0 133.232
-4088.28 -5.5859 0 133.388
-4743.73 -7.67832 0 191.62
-4704.4 -7.76808 0 191.925
-3369.72 -3.64266 0 80.36
-3397.87 -3.67017 0 80.1398
-4724.07 -7.72349 0 191.778
-4037.67 -5.62745 0 133.797
-3383.8 -3.65653 0 80.2541
-4071.41 -5.60014 0 133.535
-4054.54 -5.61399 0 133.671
-4704.4 -7.76808 0 191.925
-4665.08 -7.8555 0 192.183
-3341.57 -3.61423 0 80.5465
-3369.72 -3.64266 0 80.36
-4684.74 -7.81208 0 192.06
-4003.93 -5.65316 0 134.02
-3355.65 -3.62856 0 80.4574
-4037.67 -5.62745 0 133.797
-4020.8 -5.64051 0 133.914
-4665.08 -7.8555 0 192.183
-4625.75 -7.94054 0 192.394
-3313.43 -3.58487 0 80.6995
-3341.57 -3.61423 0 80.5465
-4645.42 -7.89832 0 192.294
-3970.19 -5.67726 0 134.202
-3327.5 -3.59967 0 80.6272
-4003.93 -5.65316 0 134.02
-3987.06 -5.66542 0 134.116
-4625.75 -7.94054 0 192.394
-4586.43 -8.02316 0 192.559
-3285.28 -3.55454 0 80.8195
-3313.43 -3.58487 0 80.6995
-4606.09 -7.98215 0 192.482
-3936.45 -5.69968 0 134.344
-3299.36 -3.56983 0 80.7636
-3970.19 -5.67726 0 134.202
-3953.32 -5.68868 0 134.278
-4586.43 -8.02316 0 192.559
-4547.11 -8.10332 0 192.677
-3257.14 -3.52322 0 80.9065
-3285.28 -3.55454 0 80.8195
-4566.77 -8.06355 0 192.624
-3902.71 -5.72042 0 134.447
-3271.21 -3.53901 0 80.8671
-3936.45 -5.69968 0 134.344
-3919.58 -5.71026 0 134.4
-4547.11 -8.10332 0 192.677
-4507.79 -8.18098 0 192.751
-3229 -3.49087 0 80.961
-3257.14 -3.52322 0 80.9065
-4527.45 -8.14246 0 192.72
-3868.97 -5.73942 0 134.511
-3243.07 -3.50718 0 80.9378
-3902.71 -5.72042 0 134.447
-3885.84 -5.73014 0 134.484
-4507.79 -8.18098 0 192.751
-4468.47 -8.25611 0 192.779
-3200.86 -3.45748 0 80.9833
-3229 -3.49087 0 80.961
-4488.13 -8.21886 0 192.77
-3835.24 -5.75666 0 134.536
-3214.93 -3.47431 0 80.9762
-3868.97 -5.73942 0 134.511
-3852.11 -5.74826 0 134.528
-4468.47 -8.25611 0 192.779
-4429.16 -8.32866 0 192.762
-3172.72 -3.42301 0 80.9735
-3200.86 -3.45748 0 80.9833
-4448.81 -8.29271 0 192.776
-3801.51 -5.77212 0 134.523
-3186.79 -3.44038 0 80.9823
-3835.24 -5.75666 0 134.536
-3818.37 -5.76461 0 134.534
-4429.16 -8.32866 0 192.762
-4389.84 -8.39862 0 192.701
-3144.58 -3.38744 0 80.932
-3172.72 -3.42301 0 80.9735
-4409.5 -8.36397 0 192.737
-3767.78 -5.78575 0 134.471
-3158.65 -3.40537 0 80.9567
-3801.51 -5.77212 0 134.523
-3784.64 -5.77916 0 134.502
-4389.84 -8.39862 0 192.701
-4350.53 -8.46594 0 192.596
-3116.45 -3.35076 0 80.859
-3144.58 -3.38744 0 80.932
-4370.18 -8.43261 0 192.654
-3734.05 -5.79754 0 134.382
-3130.51 -3.36924 0 80.8994
-3767.78 -5.78575 0 134.471
-3750.91 -5.79188 0 134.431
-4350.53 -8.46594 0 192.596
-4311.21 -8.5306 0 192.447
-3088.31 -3.31293 0 80.7549
-3116.45 -3.35076 0 80.859
-4330.87 -8.4986 0 192.527
-3700.32 -5.80746 0 134.256
-3102.38 -3.33199 0 80.8108
-3734.05 -5.79754 0 134.382
-3717.18 -5.80273 0 134.324
-4311.21 -8.5306 0 192.447
-4271.9 -8.59256 0 192.255
-3060.18 -3.27394 0 80.6199
-3088.31 -3.31293 0 80.7549
-4291.56 -8.56192 0 192.357
-3666.59 -5.81548 0 134.092
-3074.25 -3.29358 0 80.6912
-3700.32 -5.80746 0 134.256
-3683.46 -5.81171 0 134.179
-4271.9 -8.59256 0 192.255
-4232.59 -8.6518 0 192.021
-3032.05 -3.23376 0 80.4543
-3060.18 -3.27394 0 80.6199
-4252.25 -8.62252 0 192.143
-3632.87 -5.82158 0 133.892
-3046.11 -3.254 0 80.5409
-3666.59 -5.81548 0 134.092
-3649.73 -5.81877 0 133.997
-4232.59 -8.6518 0 192.021
-4193.29 -8.7083 0 191.744
-3003.92 -3.19239 0 80.2584
-3032.05 -3.23376 0 80.4543
-4212.94 -8.68039 0 191.887
-3599.15 -5.82573 0 133.656
-3017.98 -3.21323 0 80.3602
-3632.87 -5.82158 0 133.892
-3616.01 -5.8239 0 133.779
-4193.29 -8.7083 0 191.744
-4153.98 -8.76202 0 191.425
-2975.79 -3.14979 0 80.0325
-3003.92 -3.19239 0 80.2584
-4173.63 -8.73551 0 191.589
-3565.43 -5.82793 0 133.383
-2989.86 -3.17124 0 80.1492
-3599.15 -5.82573 0 133.656
-3582.29 -5.82708 0 133.524
-4153.98 -8.76202 0 191.425
-4114.68 -8.81294 0 191.064
-2947.67 -3.10596 0 79.7769
-2975.79 -3.14979 0 80.0325
-4134.33 -8.78783 0 191.25
-3531.71 -5.82813 0 133.075
-2961.73 -3.12803 0 79.9084
-3565.43 -5.82793 0 133.383
-3548.57 -5.82828 0 133.234
-4114.68 -8.81294 0 191.064
-4075.37 -8.86105 0 190.662
-2919.54 -3.06088 0 79.4917
-2947.67 -3.10596 0 79.7769
-4095.03 -8.83735 0 190.868
-3497.99 -5.82634 0 132.731
-2933.6 -3.08358 0 79.638
-3531.71 -5.82813 0 133.075
-3514.85 -5.82749 0 132.908
-4075.37 -8.86105 0 190.662
-4036.07 -8.90633 0 190.219
-2891.42 -3.01454 0 79.1774
-2919.54 -3.06088 0 79.4917
-4055.72 -8.88405 0 190.446
-3464.27 -5.82253 0 132.353
-2905.48 -3.03787 0 79.3382
-3497.99 -5.82634 0 132.731
-3481.13 -5.82469 0 132.547
-4036.07 -8.90633 0 190.219
-3996.78 -8.94874 0 189.736
-2863.3 -2.96691 0 78.8342
-2891.42 -3.01454 0 79.1774
-4016.42 -8.92789 0 189.983
-3430.56 -5.81667 0 131.94
-2877.36 -2.99088 0 79.0094
-3464.27 -5.82253 0 132.353
-3447.42 -5.81986 0 132.151
-3996.78 -8.94874 0 189.736
-3957.48 -8.98828 0 189.213
-2835.18 -2.91799 0 78.4624
-2863.3 -2.96691 0 78.8342
-3977.13 -8.96887 0 189.48
-3396.85 -5.80877 0 131.492
-2849.24 -2.94261 0 78.6519
-3430.56 -5.81667 0 131.94
-3413.7 -5.81298 0 131.72
-3957.48 -8.98828 0 189.213
-3918.18 -9.02493 0 188.65
-2807.06 -2.86776 0 78.0622
-2835.18 -2.91799 0 78.4624
-3937.83 -9.00696 0 188.937
-3363.14 -5.7988 0 131.011
-2821.12 -2.89304 0 78.2658
-3396.85 -5.80877 0 131.492
-3379.99 -5.80404 0 131.256
-3918.18 -9.02493 0 188.65
-3878.89 -9.05867 0 188.048
-2778.95 -2.81622 0 77.634
-2807.06 -2.86776 0 78.0622
-3898.54 -9.04216 0 188.354
-3329.43 -5.78675 0 130.496
-2793.01 -2.84216 0 77.8516
-3363.14 -5.7988 0 131.011
-3346.28 -5.79303 0 130.757
-3878.89 -9.05867 0 188.048
-3839.6 -9.08949 0 187.408
-2750.83 -2.76336 0 77.178
-2778.95 -2.81622 0 77.634
-3859.24 -9.07444 0 187.733
-3295.72 -5.77261 0 129.947
-2764.89 -2.78996 0 77.4094
-3329.43 -5.78675 0 130.496
-3312.57 -5.77994 0 130.225
-3839.6 -9.08949 0 187.408
-3800.31 -9.11738 0 186.728
-2722.72 -2.70916 0 76.6945
-2750.83 -2.76336 0 77.178
-3819.95 -9.1038 0 187.073
-3262.02 -5.75636 0 129.366
-2736.78 -2.73643 0 76.9397
-3295.72 -5.77261 0 129.947
-3278.87 -5.76475 0 129.66
-3800.31 -9.11738 0 186.728
-3761.02 -9.14232 0 186.011
-2694.61 -2.65362 0 76.1838
-2722.72 -2.70916 0 76.6945
-3780.66 -9.13022 0 186.374
-3228.31 -5.73801 0 128.752
-2708.67 -2.68156 0 76.4425
-3262.02 -5.75636 0 129.366
-3245.16 -5.74745 0 129.063
-3761.02 -9.14232 0 186.011
-3721.73 -9.16431 0 185.256
-2666.5 -2.59673 0 75.6462
-2694.61 -2.65362 0 76.1838
-3741.38 -9.15369 0 185.638
-3194.61 -5.71753 0 128.105
-2680.56 -2.62534 0 75.9184
-3228.31 -5.73801 0 128.752
-3211.46 -5.72804 0 128.432
-3721.73 -9.16431 0 185.256
-3682.45 -9.18334 0 184.464
-2638.4 -2.53848 0 75.0819
-2666.5 -2.59673 0 75.6462
-3702.09 -9.17419 0 184.864
-3160.91 -5.69493 0 127.427
-2652.45 -2.56777 0 75.3674
-3194.61 -5.71753 0 128.105
-3177.76 -5.7065 0 127.77
-3682.45 -9.18334 0 184.464
-3643.17 -9.19939 0 183.635
-2610.29 -2.47887 0 74.4913
-2638.4 -2.53848 0 75.0819
-3662.81 -9.19174 0 184.054
-3127.21 -5.67019 0 126.717
-2624.34 -2.50885 0 74.7899
-3160.91 -5.69493 0 127.427
-3144.06 -5.68283 0 127.076
-3643.17 -9.19939 0 183.635
-3603.88 -9.21247 0 182.769
-2582.19 -2.4179 0 73.8746
-2610.29 -2.47887 0 74.4913
-3623.52 -9.20631 0 183.206
-3093.52 -5.64331 0 125.976
-2596.24 -2.44856 0 74.1862
-3127.21 -5.67019 0 126.717
-3110.37 -5.65702 0 126.35
-3603.88 -9.21247 0 182.769
-3564.61 -9.22257 0 181.867
-2554.09 -2.35556 0 73.2321
-2582.19 -2.4179 0 73.8746
-3584.24 -9.21789 0 182.323
-3059.83 -5.61429 0 125.203
-2568.14 -2.3869 0 73.5565
-3093.52 -5.64331 0 125.976
-3076.67 -5.62907 0 125.593
-3564.61 -9.22257 0 181.867
-3525.33 -9.22968 0 180.93
-2525.99 -2.29184 0 72.564
-2554.09 -2.35556 0 73.2321
-3544.97 -9.2265 0 181.403
-3026.13 -5.58312 0 124.401
-2540.04 -2.32387 0 72.9012
-3059.83 -5.61429 0 125.203
-3042.98 -5.59897 0 124.806
-3525.33 -9.22968 0 180.93
-3486.05 -9.23381 0 179.957
-2497.89 -2.22675 0 71.8708
-2525.99 -2.29184 0 72.564
-3505.69 -9.23212 0 180.448
-2992.44 -5.5498 0 123.568
-2511.94 -2.25947 0 72.2205
-3026.13 -5.58312 0 124.401
-3009.29 -5.56673 0 123.988
-3486.05 -9.23381 0 179.957
-3446.78 -9.23494 0 178.949
-2469.8 -2.16028 0 71.1525
-2497.89 -2.22675 0 71.8708
-3466.42 -9.23475 0 179.458
-2958.75 -5.51433 0 122.705
-2483.84 -2.19369 0 71.5147
-2992.44 -5.5498 0 123.568
-2975.6 -5.53233 0 123.14
-3446.78 -9.23494 0 178.949
-3407.51 -9.23308 0 177.907
-2441.7 -2.09244 0 70.4096
-2469.8 -2.16028 0 71.1525
-3427.14 -9.23438 0 178.433
-2925.07 -5.47671 0 121.812
-2455.75 -2.12654 0 70.7841
-2958.75 -5.51433 0 122.705
-2941.91 -5.49579 0 122.262
-3407.51 -9.23308 0 177.907
-3368.24 -9.22824 0 176.831
-2413.61 -2.02323 0 69.6423
-2441.7 -2.09244 0 70.4096
-3387.87 -9.23103 0 177.373
-2891.38 -5.43693 0 120.89
-2427.66 -2.05801 0 70.029
-2925.07 -5.47671 0 121.812
-2908.23 -5.45709 0 121.355
-3368.24 -9.22824 0 176.831
-3328.97 -9.2204 0 175.721
-2385.52 -1.95264 0 68.8509
-2413.61 -2.02323 0 69.6423
-3348.6 -9.22469 0 176.28
-2857.7 -5.39501 0 119.939
-2399.56 -1.98811 0 69.2496
-2891.38 -5.43693 0 120.89
-2874.54 -5.41624 0 120.418
-3328.97 -9.2204 0 175.721
-3289.7 -9.20959 0 174.578
-2357.43 -1.88068 0 68.0357
-2385.52 -1.95264 0 68.8509
-3309.34 -9.21537 0 175.154
-2824.02 -5.35094 0 118.96
-2371.48 -1.91683 0 68.4462
-2857.7 -5.39501 0 119.939
-2840.86 -5.37325 0 119.453
-3289.7 -9.20959 0 174.578
-3250.44 -9.19579 0 173.402
-2329.34 -1.80735 0 67.1969
-2357.43 -1.88068 0 68.0357
-3270.07 -9.20306 0 173.994
-2790.34 -5.30473 0 117.952
-2343.39 -1.84418 0 67.6192
-2824.02 -5.35094 0 118.96
-2807.18 -5.32811 0 118.46
-3250.44 -9.19579 0 173.402
-3211.18 -9.17901 0 172.193
-2301.26 -1.73265 0 66.3348
-2329.34 -1.80735 0 67.1969
-3230.81 -9.18777 0 172.801
-2756.66 -5.25638 0 116.917
-2315.3 -1.77017 0 66.7687
-2790.34 -5.30473 0 117.952
-2773.5 -5.28083 0 117.438
-3211.18 -9.17901 0 172.193
-3171.92 -9.15927 0 170.952
-2273.18 -1.6566 0 65.4497
-2301.26 -1.73265 0 66.3348
-3191.55 -9.16951 0 171.576
-2722.99 -5.2059 0 115.854
-2287.22 -1.6948 0 65.8951
-2756.66 -5.25638 0 116.917
-2739.83 -5.23141 0 116.389
-3171.92 -9.15927 0 170.952
-3132.66 -9.13657 0 169.679
-2245.1 -1.57919 0 64.542
-2273.18 -1.6566 0 65.4497
-3152.29 -9.14829 0 170.32
-2689.32 -5.15329 0 114.764
-2259.14 -1.61806 0 64.9987
-2722.99 -5.2059 0 115.854
-2706.15 -5.17986 0 115.312
-3132.66 -9.13657 0 169.679
-3093.4 -9.11092 0 168.375
-2217.02 -1.50043 0 63.6118
-2245.1 -1.57919 0 64.542
-3113.03 -9.12411 0 169.031
-2655.64 -5.09856 0 113.646
-2231.06 -1.53998 0 64.0797
-2689.32 -5.15329 0 114.764
-2672.48 -5.12619 0 114.208
-3093.4 -9.11092 0 168.375
-3054.14 -9.08232 0 167.04
-2188.94 -1.42033 0 62.6594
-2217.02 -1.50043 0 63.6118
-3073.77 -9.09698 0 167.712
-2621.97 -5.04172 0 112.503
-2202.98 -1.46055 0 63.1384
-2655.64 -5.09856 0 113.646
-2638.81 -5.07041 0 113.078
-3054.14 -9.08232 0 167.04
-3014.89 -9.05079 0 165.675
-2160.86 -1.3389 0 61.6852
-2188.94 -1.42033 0 62.6594
-3034.52 -9.06692 0 166.361
-2588.31 -4.98278 0 111.333
-2174.9 -1.37978 0 62.175
-2621.97 -5.04172 0 112.503
-2605.14 -5.01252 0 111.921
-3014.89 -9.05079 0 165.675
-2975.64 -9.01634 0 164.279
-2132.79 -1.25613 0 60.6894
-2160.86 -1.3389 0 61.6852
-2995.26 -9.03393 0 164.981
-2554.64 -4.92175 0 110.137
-2146.82 -1.29768 0 61.19
-2588.31 -4.98278 0 111.333
-2571.47 -4.95253 0 110.738
-2975.64 -9.01634 0 164.279
-2936.39 -8.97898 0 162.853
-2104.71 -1.17205 0 59.6723
-2132.79 -1.25613 0 60.6894
-2956.01 -8.99802 0 163.57
-2520.97 -4.85863 0 108.915
-2118.75 -1.21426 0 60.1835
-2554.64 -4.92175 0 110.137
-2537.81 -4.89045 0 109.529
-2936.39 -8.97898 0 162.853
-2897.14 -8.93872 0 161.398
-2076.64 -1.08667 0 58.6342
-2104.71 -1.17205 0 59.6723
-2916.76 -8.95921 0 162.13
-2487.31 -4.79345 0 107.669
-2090.68 -1.12952 0 59.1559
-2520.97 -4.85863 0 108.915
-2504.14 -4.8263 0 108.295
-2897.14 -8.93872 0 161.398
-2857.89 -8.89559 0 159.914
-2048.57 -0.999982 0 57.5754
-2076.64 -1.08667 0 58.6342
-2877.51 -8.91752 0 160.66
-2453.65 -4.72621 0 106.397
-2062.61 -1.04349 0 58.1074
-2487.31 -4.79345 0 107.669
-2470.48 -4.76008 0 107.036
-2857.89 -8.89559 0 159.914
-2818.65 -8.84959 0 158.402
-2020.51 -0.912011 0 56.496
-2048.57 -0.999982 0 57.5754
-2838.27 -8.87295 0 159.162
-2419.99 -4.65692 0 105.101
-2034.54 -0.956156 0 57.0382
-2453.65 -4.72621 0 106.397
-2436.82 -4.69182 0 105.752
-2818.65 -8.84959 0 158.402
-2779.4 -8.80075 0 156.861
-1992.44 -0.822765 0 55.3965
-2020.51 -0.912011 0 56.496
-2799.02 -8.82552 0 157.635
-2386.33 -4.58561 0 103.781
-2006.47 -0.867547 0 55.9488
-2419.99 -4.65692 0 105.101
-2403.16 -4.62152 0 104.444
-2779.4 -8.80075 0 156.861
-2740.16 -8.74907 0 155.293
-1964.38 -0.732258 0 54.2771
-1992.44 -0.822765 0 55.3965
-2759.78 -8.77526 0 156.08
-2352.68 -4.51227 0 102.437
-1978.41 -0.777669 0 54.8393
-2386.33 -4.58561 0 103.781
-2369.5 -4.54919 0 103.112
-2740.16 -8.74907 0 155.293
-2700.92 -8.69458 0 153.697
-1936.31 -0.640501 0 53.1381
-1964.38 -0.732258 0 54.2771
-2720.54 -8.72217 0 154.498
-2319.02 -4.43694 0 101.069
-1950.34 -0.686535 0 53.71
-2352.68 -4.51227 0 102.437
-2335.85 -4.47486 0 101.756
-2700.92 -8.69458 0 153.697
-2661.68 -8.6373 0 152.073
-1908.25 -0.547509 0 51.9797
-1936.31 -0.640501 0 53.1381
-2681.3 -8.66629 0 152.888
-2285.37 -4.35963 0 99.6783
-1922.28 -0.594158 0 52.5613
-2319.02 -4.43694 0 101.069
-2302.2 -4.39854 0 100.377
-2661.68 -8.6373 0 152.073
-2622.44 -8.57724 0 150.424
-1880.19 -0.453296 0 50.8023
-1908.25 -0.547509 0 51.9797
-2642.06 -8.60762 0 151.252
-2251.72 -4.28035 0 98.2647
-1894.22 -0.500554 0 51.3934
-2285.37 -4.35963 0 99.6783
-2268.54 -4.32024 0 98.9743
-2622.44 -8.57724 0 150.424
-2583.21 -8.51444 0 148.748
-1852.13 -0.357877 0 49.6061
-1880.19 -0.453296 0 50.8023
-2602.82 -8.54618 0 149.589
-2218.07 -4.19913 0 96.8284
-1866.16 -0.405736 0 50.2065
-2251.72 -4.28035 0 98.2647
-2234.89 -4.23998 0 97.5493
-2583.21 -8.51444 0 148.748
-2543.97 -8.4489 0 147.046
-1824.08 -0.261267 0 48.3914
-1852.13 -0.357877 0 49.6061
-2563.59 -8.48201 0 147.9
-2184.42 -4.11598 0 95.3701
-1838.1 -0.30972 0 49.001
-2218.07 -4.19913 0 96.8284
-2201.24 -4.15779 0 96.102
-2543.97 -8.4489 0 147.046
-2504.74 -8.38066 0 145.319
-1796.02 -0.163484 0 47.1584
-1824.08 -0.261267 0 48.3914
-2524.36 -8.41512 0 146.185
-2150.77 -4.03091 0 93.8898
-1810.05 -0.212521 0 47.7771
-2184.42 -4.11598 0 95.3701
-2167.6 -4.07368 0 94.6326
-2504.74 -8.38066 0 145.319
-2465.51 -8.30973 0 143.566
-1767.97 -0.0645435 0 45.9075
-1796.02 -0.163484 0 47.1584
-2485.12 -8.34553 0 144.445
-2117.13 -3.94396 0 92.3881
-1781.99 -0.114157 0 46.5352
-2150.77 -4.03091 0 93.8898
-2133.95 -3.98767 0 93.1416
-2465.51 -8.30973 0 143.566
-2426.28 -8.23614 0 141.789
-1739.92 0.0355369 0 44.639
-1767.97 -0.0645435 0 45.9075
-2445.89 -8.27327 0 142.681
-2083.48 -3.85514 0 90.8651
-1753.94 -0.0146446 0 45.2755
-2117.13 -3.94396 0 92.3881
-2100.31 -3.89978 0 91.6292
-2426.28 -8.23614 0 141.789
-2387.05 -8.15993 0 139.988
-1711.87 0.136739 0 43.3531
-1739.92 0.0355369 0 44.639
-2406.66 -8.19836 0 140.891
-2049.84 -3.76448 0 89.3214
-1725.89 0.0859988 0 43.9982
-2083.48 -3.85514 0 90.8651
-2066.66 -3.81004 0 90.0958
-2387.05 -8.15993 0 139.988
-2347.82 -8.0811 0 138.162
-1683.82 0.239044 0 42.05
-1711.87 0.136739 0 43.3531
-2367.43 -8.12084 0 139.078
-2016.2 -3.67199 0 87.7571
-1697.84 0.187755 0 42.7037
-2049.84 -3.76448 0 89.3214
-2033.02 -3.71846 0 88.5418
-2347.82 -8.0811 0 138.162
-2308.59 -7.99969 0 136.313
-1655.77 0.342433 0 40.7302
-1683.82 0.239044 0 42.05
-2328.21 -8.04072 0 137.241
-1982.56 -3.5777 0 86.1727
-1669.79 0.290604 0 41.3922
-2016.2 -3.67199 0 87.7571
-1999.38 -3.62507 0 86.9674
-2308.59 -7.99969 0 136.313
-2269.37 -7.91573 0 134.442
-1627.72 0.446886 0 39.3938
-1655.77 0.342433 0 40.7302
-2288.98 -7.95803 0 135.38
-1948.92 -3.48163 0 84.5684
-1641.75 0.394528 0 40.064
-1982.56 -3.5777 0 86.1727
-1965.74 -3.52989 0 85.373
-2269.37 -7.91573 0 134.442
-2230.15 -7.82925 0 132.547
-1599.68 0.552383 0 38.0412
-1627.72 0.446886 0 39.3938
-2249.76 -7.8728 0 133.497
-1915.29 -3.38381 0 82.9446
-1613.7 0.499505 0 38.7195
-1948.92 -3.48163 0 84.5684
-1932.1 -3.43294 0 83.7589
-2230.15 -7.82925 0 132.547
-2190.92 -7.74027 0 130.63
-1571.63 0.658903 0 36.6725
-1599.68 0.552383 0 38.0412
-2210.53 -7.78507 0 131.591
-1881.65 -3.28427 0 81.3017
-1585.66 0.605516 0 37.3588
-1915.29 -3.38381 0 82.9446
-1898.47 -3.33425 0 82.1255
-2190.92 -7.74027 0 130.63
-2151.7 -7.64883 0 128.691
-1543.59 0.766424 0 35.2882
-1571.63 0.658903 0 36.6725
-2171.31 -7.69485 0 129.663
-1848.02 -3.18302 0 79.6399
-1557.61 0.71254 0 35.9823
-1881.65 -3.28427 0 81.3017
-1864.83 -3.23385 0 80.4731
-2151.7 -7.64883 0 128.691
-2112.48 -7.55495 0 126.73
-1515.55 0.874925 0 33.8884
-1543.59 0.766424 0 35.2882
-2132.09 -7.60219 0 127.713
-1814.38 -3.08009 0 77.9597
-1529.57 0.820554 0 34.5902
-1848.02 -3.18302 0 79.6399
-1831.2 -3.13176 0 78.8021
-2112.48 -7.55495 0 126.73
-2073.26 -7.45866 0 124.749
-1487.51 0.984384 0 32.4735
-1515.55 0.874925 0 33.8884
-2092.87 -7.5071 0 125.742
-1780.75 -2.97552 0 76.2613
-1501.53 0.929536 0 33.1828
-1814.38 -3.08009 0 77.9597
-1797.57 -3.02801 0 77.1127
-2073.26 -7.45866 0 124.749
-2034.04 -7.36001 0 122.746
-1459.47 1.09478 0 31.0437
-1487.51 0.984384 0 32.4735
-2053.65 -7.40963 0 123.75
-1747.12 -2.86933 0 74.545
-1473.49 1.03946 0 31.7605
-1780.75 -2.97552 0 76.2613
-1763.94 -2.92262 0 75.4053
-2034.04 -7.36001 0 122.746
-1994.83 -7.25902 0 120.723
-1431.43 1.20608 0 29.5994
-1459.47 1.09478 0 31.0437
-2014.43 -7.30981 0 121.737
-1713.49 -2.76154 0 72.8113
-1445.45 1.15032 0 30.3234
-1747.12 -2.86933 0 74.545
-1730.31 -2.81563 0 73.6803
-1994.83 -7.25902 0 120.723
-1955.61 -7.15572 0 118.68
-1403.4 1.31827 0 28.1407
-1431.43 1.20608 0 29.5994
-1975.22 -7.20766 0 119.704
-1679.86 -2.65219 0 71.0604
-1417.42 1.26207 0 28.8718
-1713.49 -2.76154 0 72.8113
-1696.68 -2.70706 0 71.938
-1955.61 -7.15572 0 118.68
-1916.39 -7.05016 0 116.618
-1375.36 1.43132 0 26.668
-1403.4 1.31827 0 28.1407
-1936 -7.10322 0 117.652
-1646.24 -2.5413 0 69.2928
-1389.38 1.37469 0 27.4061
-1679.86 -2.65219 0 71.0604
-1663.05 -2.59693 0 70.1787
-1916.39 -7.05016 0 116.618
-1877.18 -6.94236 0 114.536
-1347.33 1.54522 0 25.1816
-1375.36 1.43132 0 26.668
-1896.79 -6.99653 0 115.58
-1612.61 -2.42891 0 67.5086
-1361.35 1.48817 0 25.9265
-1646.24 -2.5413 0 69.2928
-1629.42 -2.48529 0 68.4027
-1877.18 -6.94236 0 114.536
-1837.97 -6.83235 0 112.436
-1319.3 1.65992 0 23.6817
-1347.33 1.54522 0 25.1816
-1857.57 -6.88763 0 113.488
-1578.99 -2.31504 0 65.7083
-1333.31 1.60247 0 24.4333
-1612.61 -2.42891 0 67.5086
-1595.8 -2.37216 0 66.6104
-1837.97 -6.83235 0 112.436
-1798.75 -6.72019 0 110.317
-1291.26 1.77541 0 22.1686
-1319.3 1.65992 0 23.6817
-1818.36 -6.77654 0 111.379
-1545.36 -2.19973 0 63.8922
-1305.28 1.71757 0 22.9267
-1578.99 -2.31504 0 65.7083
-1562.17 -2.25757 0 64.8022
-1798.75 -6.72019 0 110.317
-1759.54 -6.60589 0 108.18
-1263.23 1.89166 0 20.6426
-1291.26 1.77541 0 22.1686
-1779.15 -6.6633 0 109.251
-1511.74 -2.08301 0 62.0606
-1277.25 1.83344 0 21.4072
-1545.36 -2.19973 0 63.8922
-1528.55 -2.14155 0 62.9783
-1759.54 -6.60589 0 108.18
-1720.33 -6.48951 0 106.025
-1235.2 2.00865 0 19.1039
-1263.23 1.89166 0 20.6426
-1739.94 -6.54796 0 107.105
-1478.11 -1.96491 0 60.2138
-1249.22 1.95006 0 19.8748
-1511.74 -2.08301 0 62.0606
-1494.93 -2.02413 0 61.1391
-1720.33 -6.48951 0 106.025
-1681.12 -6.37107 0 103.854
-1207.17 2.12634 0 17.5529
-1235.2 2.00865 0 19.1039
-1700.72 -6.43054 0 104.942
-1444.49 -1.84545 0 58.3523
-1221.19 2.06741 0 18.3299
-1478.11 -1.96491 0 60.2138
-1461.3 -1.90535 0 59.2849
-1681.12 -6.37107 0 103.854
-1641.91 -6.25062 0 101.665
-1179.15 2.24471 0 15.9898
-1207.17 2.12634 0 17.5529
-1661.51 -6.31109 0 102.761
-1410.87 -1.72469 0 56.4763
-1193.16 2.18544 0 16.7729
-1444.49 -1.84545 0 58.3523
-1427.68 -1.78523 0 57.4161
-1641.91 -6.25062 0 101.665
-1602.7 -6.12819 0 99.4597
-1151.12 2.36374 0 14.415
-1179.15 2.24471 0 15.9898
-1622.3 -6.18965 0 100.564
-1377.25 -1.60264 0 54.5862
-1165.13 2.30414 0 15.2039
-1410.87 -1.72469 0 56.4763
-1394.06 -1.66382 0 55.533
-1602.7 -6.12819 0 99.4597
-1563.49 -6.00383 0 97.2384
-1123.09 2.48338 0 12.8286
-1151.12 2.36374 0 14.415
-1583.1 -6.06625 0 98.351
-1343.63 -1.47934 0 52.6822
-1137.11 2.42348 0 13.6232
-1377.25 -1.60264 0 54.5862
-1360.44 -1.54114 0 53.6359
-1563.49 -6.00383 0 97.2384
-1524.28 -5.87757 0 95.0014
-1095.07 2.60363 0 11.231
-1123.09 2.48338 0 12.8286
-1543.89 -5.94094 0 96.1218
-1310.01 -1.35483 0 50.7648
-1109.08 2.54343 0 12.0312
-1343.63 -1.47934 0 52.6822
-1326.82 -1.41723 0 51.7252
-1524.28 -5.87757 0 95.0014
-1485.07 -5.74946 0 92.7491
-1067.04 2.72443 0 9.62241
-1095.07 2.60363 0 11.231
-1504.68 -5.81375 0 93.8771
-1276.4 -1.22914 0 48.8342
-1081.06 2.66396 0 10.4281
-1310.01 -1.35483 0 50.7648
-1293.21 -1.29213 0 49.8011
-1485.07 -5.74946 0 92.7491
-1445.87 -5.61954 0 90.4819
-1039.02 2.84578 0 8.00316
-1067.04 2.72443 0 9.62241
-1465.47 -5.68472 0 91.6174
-1242.78 -1.10231 0 46.8909
-1053.03 2.78504 0 8.8141
-1276.4 -1.22914 0 48.8342
-1259.59 -1.16586 0 47.8641
-1445.87 -5.61954 0 90.4819
-1406.66 -5.48784 0 88.2002
-1011 2.96763 0 6.3735
-1039.02 2.84578 0 8.00316
-1426.26 -5.55391 0 89.3428
-1209.16 -0.974366 0 44.9351
-1025.01 2.90664 0 7.18961
-1242.78 -1.10231 0 46.8909
-1225.97 -1.03847 0 45.9145
-1406.66 -5.48784 0 88.2002
-1367.45 -5.35441 0 85.9043
-982.974 3.08996 0 4.73373
-1011 2.96763 0 6.3735
-1387.05 -5.42134 0 87.054
-1175.55 -0.845354 0 42.9672
-996.985 3.02874 0 5.55486
-1209.16 -0.974366 0 44.9351
-1192.35 -0.909992 0 43.9526
-1367.45 -5.35441 0 85.9043
-1328.24 -5.2193 0 83.5947
-954.952 3.21273 0 3.08411
-982.974 3.08996 0 4.73373
-1347.85 -5.28706 0 84.7512
-1141.93 -0.715307 0 40.9874
-968.963 3.15129 0 3.91013
-1175.55 -0.845354 0 42.9672
-1158.74 -0.780457 0 41.9787
-1328.24 -5.2193 0 83.5947
-1289.04 -5.08254 0 81.2717
-926.931 3.33592 0 1.42493
-954.952 3.21273 0 3.08411
-1308.64 -5.15112 0 82.4349
-1108.32 -0.584261 0 38.9962
-940.941 3.27427 0 2.2557
-1141.93 -0.715307 0 40.9874
-1125.12 -0.649906 0 39.9932
-1289.04 -5.08254 0 81.2717
-1249.83 -4.94418 0 78.9358
-898.91 3.45949 0 -0.243528
-926.931 3.33592 0 1.42493
-1269.43 -5.01355 0 80.1054
-1074.7 -0.452256 0 36.9939
-912.921 3.39766 0 0.591844
-1108.32 -0.584261 0 38.9962
-1091.51 -0.518376 0 37.9965
-1249.83 -4.94418 0 78.9358
-1210.62 -4.80426 0 76.5873
-870.89 3.5834 0 -1.92099
-898.91 3.45949 0 -0.243528
-1230.23 -4.87441 0 77.7631
-1041.09 -0.319328 0 34.9808
-884.9 3.5214 0 -1.08115
-1074.7 -0.452256 0 36.9939
-1057.89 -0.385905 0 35.9887
-1210.62 -4.80426 0 76.5873
-1171.42 -4.66283 0 74.2266
-842.871 3.70764 0 -3.60716
-870.89 3.5834 0 -1.92099
-1191.02 -4.73373 0 75.4085
-1007.47 -0.185517 0 32.9573
-856.881 3.64548 0 -2.763
-1041.09 -0.319328 0 34.9808
-1024.28 -0.252531 0 33.9703
-1171.42 -4.66283 0 74.2266
-1132.21 -4.51993 0 71.8542
-814.852 3.83215 0 -5.30177
-842.871 3.70764 0 -3.60716
-1151.81 -4.59156 0 73.0418
-973.857 -0.050862 0 30.9236
-828.861 3.76986 0 -4.45343
-1007.47 -0.185517 0 32.9573
-990.664 -0.118293 0 31.9417
-1132.21 -4.51993 0 71.8542
-1093 -4.37561 0 69.4703
-786.833 3.95691 0 -7.00453
-814.852 3.83215 0 -5.30177
-1112.61 -4.44795 0 70.6636
-940.243 0.0845975 0 28.8802
-800.842 3.8945 0 -6.15215
-973.857 -0.050862 0 30.9236
-957.05 0.0167697 0 29.9031
-1093 -4.37561 0 69.4703
-1053.8 -4.22991 0 67.0754
-758.815 4.08188 0 -8.71514
-786.833 3.95691 0 -7.00453
-1073.4 -4.30293 0 68.2742
-906.63 0.220821 0 26.8274
-772.824 4.01937 0 -7.85887
-940.243 0.0845975 0 28.8802
-923.436 0.152616 0 27.8549
-1053.8 -4.22991 0 67.0754
-1014.59 -4.08288 0 64.6699
-730.797 4.20703 0 -10.4333
-758.815 4.08188 0 -8.71514
-1034.19 -4.15656 0 65.8739
-873.016 0.357768 0 24.7654
-744.806 4.14444 0 -9.57331
-906.63 0.220821 0 26.8274
-889.823 0.289207 0 25.7975
-1014.59 -4.08288 0 64.6699
-975.384 -3.93457 0 62.2542
-702.78 4.33233 0 -12.1588
-730.797 4.20703 0 -10.4333
-994.987 -4.00888 0 63.4633
-839.403 0.495399 0 22.6947
-716.788 4.26966 0 -11.2952
-873.016 0.357768 0 24.7654
-856.21 0.4265 0 23.7311
-975.384 -3.93457 0 62.2542
-936.177 -3.78501 0 59.8286
-674.762 4.45774 0 -13.8913
-702.78 4.33233 0 -12.1588
-955.78 -3.85994 0 61.0426
-805.79 0.633673 0 20.6156
-688.771 4.39502 0 -13.0242
-839.403 0.495399 0 22.6947
-822.597 0.564458 0 21.6562
-936.177 -3.78501 0 59.8286
-896.969 -3.63427 0 57.3936
-646.746 4.58325 0 -15.6305
-674.762 4.45774 0 -13.8913
-916.573 -3.70978 0 58.6123
-772.177 0.772555 0 18.5284
-660.754 4.52048 0 -14.76
-805.79 0.633673 0 20.6156
-788.984 0.70304 0 19.573
-896.969 -3.63427 0 57.3936
-857.762 -3.48238 0 54.9496
-618.729 4.70884 0 -17.3761
-646.746 4.58325 0 -15.6305
-877.366 -3.55846 0 56.1727
-738.564 0.912012 0 16.4335
-632.737 4.64603 0 -16.5025
-772.177 0.772555 0 18.5284
-755.371 0.842214 0 17.4819
-857.762 -3.48238 0 54.9496
-818.555 -3.3294 0 52.4969
-590.713 4.83454 0 -19.128
-618.729 4.70884 0 -17.3761
-838.158 -3.40602 0 53.7243
-704.951 1.05202 0 14.3312
-604.721 4.77168 0 -18.2513
-738.564 0.912012 0 16.4335
-721.758 0.981949 0 15.3833
-818.555 -3.3294 0 52.4969
-779.347 -3.17537 0 50.0359
-562.697 4.96038 0 -20.8859
-590.713 4.83454 0 -19.128
-798.951 -3.25251 0 51.2674
-671.339 1.19257 0 12.2216
-576.705 4.89744 0 -20.0062
-704.951 1.05202 0 14.3312
-688.145 1.12223 0 13.2773
-779.347 -3.17537 0 50.0359
-740.139 -3.02037 0 47.5671
-534.681 5.0864 0 -22.6498
-562.697 4.96038 0 -20.8859
-759.743 -3.09798 0 48.8025
-637.726 1.33365 0 10.1051
-548.689 5.02336 0 -21.7671
-671.339 1.19257 0 12.2216
-654.532 1.26304 0 11.1642
-740.139 -3.02037 0 47.5671
-700.93 -2.86442 0 45.0907
-506.665 5.21269 0 -24.4196
-534.681 5.0864 0 -22.6498
-720.535 -2.94251 0 46.3298
-604.112 1.47528 0 7.98178
-520.673 5.14951 0 -23.5339
-637.726 1.33365 0 10.1051
-620.919 1.4044 0 9.04428
-700.93 -2.86442 0 45.0907
-661.719 -2.70762 0 42.6072
-478.649 5.33918 0 -26.1951
-506.665 5.21269 0 -24.4196
-681.325 -2.78611 0 43.8498
-570.498 1.61747 0 5.85181
-492.657 5.27592 0 -25.3066
-604.112 1.47528 0 7.98178
-587.305 1.5463 0 6.91762
-661.719 -2.70762 0 42.6072
-622.506 -2.55006 0 40.1168
-450.633 5.46565 0 -27.9764
-478.649 5.33918 0 -26.1951
-642.113 -2.62898 0 41.3629
-536.882 1.76011 0 3.71529
-464.641 5.40245 0 -27.085
-570.498 1.61747 0 5.85181
-553.69 1.68875 0 4.78435
-622.506 -2.55006 0 40.1168
-583.288 -2.39156 0 37.6198
-422.617 5.59107 0 -29.7626
-450.633 5.46565 0 -27.9764
-602.898 -2.4708 0 38.869
-503.265 1.90306 0 1.57285
-436.625 5.52862 0 -28.869
-536.882 1.76011 0 3.71529
-520.074 1.83155 0 2.64478
-583.288 -2.39156 0 37.6198
-544.066 -2.23297 0 35.1162
-394.599 5.71331 0 -31.5523
-422.617 5.59107 0 -29.7626
-563.678 -2.31263 0 36.369
-469.647 2.04536 0 -0.574371
-408.608 5.65279 0 -30.6571
-503.265 1.90306 0 1.57285
-486.456 1.97441 0 0.499678
-544.066 -2.23297 0 35.1162
-504.837 -2.07174 0 32.6069
-366.583 5.82655 0 -33.3399
-394.599 5.71331 0 -31.5523
-524.453 -2.1519 0 33.8618
-436.028 2.18577 0 -2.72229
-380.591 5.77165 0 -32.4469
-469.647 2.04536 0 -0.574371
-452.838 2.11583 0 -1.6485
-504.837 -2.07174 0 32.6069
-465.616 -1.91409 0 30.0904
-338.562 5.92153 0 -35.1168
-366.583 5.82655 0 -33.3399
-485.224 -1.99458 0 31.3505
-402.42 2.31948 0 -4.86366
-352.573 5.8772 0 -34.2304
-436.028 2.18577 0 -2.72229
-419.221 2.25408 0 -3.79479
-465.616 -1.91409 0 30.0904
-426.405 -1.7424 0 27.573
-310.542 5.97471 0 -36.8584
-338.562 5.92153 0 -35.1168
-446.009 -1.82555 0 28.8299
-368.83 2.44083 0 -6.97947
-324.55 5.95538 0 -35.9946
-402.42 2.31948 0 -4.86366
-385.623 2.38163 0 -5.92581
-426.405 -1.7424 0 27.573
-387.3 -1.59488 0 25.0445
-282.501 5.95838 0 -38.5327
-310.542 5.97471 0 -36.8584
-406.831 -1.67705 0 26.3136
-335.308 2.53152 0 -9.03771
-296.528 5.97828 0 -37.7063
-368.83 2.44083 0 -6.97947
-352.054 2.49292 0 -8.02044
-387.3 -1.59488 0 25.0445
-348.326 -1.37092 0 22.5404
-254.457 5.79425 0 -40.054
-282.501 5.95838 0 -38.5327
-367.794 -1.46838 0 23.781
-301.89 2.57174 0 -10.9718
-268.473 5.89957 0 -39.3213
-335.308 2.53152 0 -9.03771
-318.587 2.55596 0 -10.0225
-348.326 -1.37092 0 22.5404
-309.92 -1.27912 0 20.01
-226.289 5.43716 0 -41.3426
-254.457 5.79425 0 -40.054
-329.018 -1.36766 0 21.2925
-268.758 2.50478 0 -12.6684
-240.408 5.64908 0 -40.7316
-301.89 2.57174 0 -10.9718
-285.264 2.56505 0 -11.8692
-309.92 -1.27912 0 20.01
-272.149 -0.800158 0 17.6163
-198.057 4.66589 0 -42.1719
-226.289 5.43716 0 -41.3426
-290.943 -0.963088 0 18.7585
-235.987 2.27351 0 -13.9555
-212.159 5.10515 0 -41.8391
-268.758 2.50478 0 -12.6684
-252.343 2.39331 0 -13.3585
-272.149 -0.800158 0 17.6163
-236.659 -0.976353 0 15.1289
-169.186 3.59832 0 -42.481
-198.057 4.66589 0 -42.1719
-254.014 -1.10182 0 16.4483
-204.139 1.73585 0 -14.492
-183.785 4.19554 0 -42.385
-235.987 2.27351 0 -13.9555
-219.859 2.10277 0 -14.3942
-236.659 -0.976353 0 15.1289
-203.46 0.683062 0 13.2213
-139.804 1.74508 0 -41.9325
-169.186 3.59832 0 -42.481
-219.692 0.247546 0 13.9249
-173.038 0.771059 0 -14.0685
-154.489 2.70198 0 -42.3547
-204.139 1.73585 0 -14.492
-188.616 1.2104 0 -14.3214
-203.46 0.683062 0 13.2213
-177.812 -0.72202 0 10.9556
-107.485 0.804015 0 -41.3307
-139.804 1.74508 0 -41.9325
-189.529 -1.05473 0 12.4458
-144.117 -0.849787 0 -11.8853
-124.331 1.21608 0 -41.5304
-173.038 0.771059 0 -14.0685
-157.987 0.287535 0 -13.48
-177.812 -0.72202 0 10.9556
-159.975 5.24995 0 11.7221
-72.6516 0.926011 0 -41.8812
-107.485 0.804015 0 -41.3307
-167.203 4.47859 0 9.92332
-114.005 -2.91291 0 -9.48267
-90.1698 0.0718587 0 -41.3324
-144.117 -0.849787 0 -11.8853
-129.99 -2.30168 0 -10.1158
-159.975 5.24995 0 11.7221
-170.628 -6.89857 0 16.3048
-29.4262 16.2644 0 -51.4605
-72.6516 0.926011 0 -41.8812
-161.789 -4.856 0 14.2433
-81.2796 -2.1102 0 -8.96228
-52.8625 6.18108 0 -44.7084
-114.005 -2.91291 0 -9.48267
-97.3551 -2.61531 0 -9.59139
-170.628 -6.89857 0 16.3048
-233.091 -32.6429 0 56.3597
2.68495 76.4701 0 -77.4061
-29.4262 16.2644 0 -51.4605
-187.588 5.62417 0 24.3531
-8.34984 43.4997 0 -44.9096
-10.1532 32.5101 0 -61.6403
-81.2796 -2.1102 0 -8.96228
-56.0931 5.98253 0 -16.6763
-233.091 -32.6429 0 56.3597
-39.8648 387.086 0 -196.403
-7.82995 287.273 0 -63.0395
2.68495 76.4701 0 -77.4061
-243.759 -65.9221 0 29.4373
17.4738 366.885 0 -109.463
6.5328 165.338 0 -85.9598
-8.34984 43.4997 0 -44.9096
22.0864 132.232 0 -81.1045
-5188.98 -1563.99 0 -203.917
-5492.03 -596.55 0 -297.333
-3258.97 -574.57 0 -6.28702
-3002.71 -903.083 0 276.467
-5390.54 -1124.06 0 -348.021
-4307.55 -659.911 0 -121.736
-3176.84 -727.702 0 105.502
-4254.67 -1281.37 0 46.1556
-4209.71 -914.691 0 -37.0169
-5492.03 -596.55 0 -297.333
-5572.45 -180.441 0 -134.709
-3319.92 -255.826 0 -92.616
-3258.97 -574.57 0 -6.28702
-5568.31 -308.12 0 -210.612
-4459.9 -261.543 0 -139.772
-3286.14 -403.449 0 -62.3331
-4307.55 -659.911 0 -121.736
-4425.63 -445.65 0 -159.47
-5572.45 -180.441 0 -134.709
-5501.86 -36.7537 0 -41.3518
-3350.88 -95.7974 0 -107.443
-3319.92 -255.826 0 -92.616
-5530.01 -91.4587 0 -73.8107
-4448.5 -80.9441 0 -88.8806
-3349.69 -159.506 0 -106.925
-4459.9 -261.543 0 -139.772
-4457.12 -144.796 0 -107.604
-5501.86 -36.7537 0 -41.3518
-5453.92 -6.23203 0 -18.574
-3325.22 -22.1327 0 -96.8825
-3350.88 -95.7974 0 -107.443
-5480.59 -14.4013 0 -26.5035
-4406 -12.2216 0 -62.8934
-3336.84 -50.0873 0 -101.622
-4448.5 -80.9441 0 -88.8806
-4430.25 -38.9129 0 -74.9862
-5453.92 -6.23203 0 -18.574
-5406 5.05681 0 -14.8664
-3295.4 -1.09042 0 -89.2475
-3325.22 -22.1327 0 -96.8825
-5426.06 1.06874 0 -14.7458
-4360.62 4.02623 0 -53.2351
-3312.77 -8.04701 0 -93.078
-4406 -12.2216 0 -62.8934
-4381.33 0.361972 0 -55.5925
-5406 5.05681 0 -14.8664
-5372.93 2.88755 0 -18.7391
-3261.11 3.81105 0 -83.5662
-3295.4 -1.09042 0 -89.2475
-5389.99 4.56078 0 -16.9989
-4322.93 5.87943 0 -51.4565
-3276.59 2.88713 0 -85.7987
-4360.62 4.02623 0 -53.2351
-4341.38 5.5631 0 -52.3378
-5372.93 2.88755 0 -18.7391
-5340.88 0.821723 0 -21.3946
-3233.48 0.964077 0 -80.5752
-3261.11 3.81105 0 -83.5662
-5355.92 1.90037 0 -20.0838
-4290.68 2.18684 0 -51.6207
-3247.33 2.67142 0 -82.0188
-4322.93 5.87943 0 -51.4565
-4305.95 4.46214 0 -51.2528
-5340.88 0.821723 0 -21.3946
-5312.34 -1.92235 0 -22.9351
-3208.58 -2.30115 0 -78.2239
-3233.48 0.964077 0 -80.5752
-5326.79 -0.643997 0 -22.4781
-4262.7 -1.29562 0 -51.7174
-3220.25 -0.630694 0 -79.2663
-4290.68 2.18684 0 -51.6207
-4276.38 0.264635 0 -51.8498
-5312.34 -1.92235 0 -22.9351
-5283.77 -3.54595 0 -22.6236
-3187.43 -5.28362 0 -76.3869
-3208.58 -2.30115 0 -78.2239
-5297.86 -2.81584 0 -22.9182
-4237.17 -4.1141 0 -51.1277
-3197.86 -3.93603 0 -77.3126
-4262.7 -1.29562 0 -51.7174
-4249.66 -2.78692 0 -51.4701
-5283.77 -3.54595 0 -22.6236
-5255.81 -4.67421 0 -21.282
-3167.91 -7.14909 0 -74.5803
-3187.43 -5.28362 0 -76.3869
-5269.85 -4.19116 0 -22.0902
-4213.11 -5.83968 0 -49.8626
-3177.4 -6.31707 0 -75.4651
-4237.17 -4.1141 0 -51.1277
-4225.03 -5.11194 0 -50.5914
-5255.81 -4.67421 0 -21.282
-5227.73 -5.24734 0 -19.1457
-3149.74 -8.28541 0 -72.8252
-3167.91 -7.14909 0 -74.5803
-5241.74 -5.00469 0 -20.2747
-4189.83 -6.85448 0 -48.1244
-3158.76 -7.8117 0 -73.7096
-4213.11 -5.83968 0 -49.8626
-4201.4 -6.41612 0 -49.0316
-5227.73 -5.24734 0 -19.1457
-5199.71 -5.5449 0 -16.627
-3132.15 -8.82328 0 -71.0529
-3149.74 -8.28541 0 -72.8252
-5213.74 -5.42838 0 -17.9271
-4166.96 -7.34195 0 -46.0889
-3140.87 -8.60666 0 -71.9363
-4189.83 -6.85448 0 -48.1244
-4178.37 -7.15248 0 -47.1382
-5199.71 -5.5449 0 -16.627
-5171.63 -5.64795 0 -13.8881
-3114.94 -9.02873 0 -69.2924
-3132.15 -8.82328 0 -71.0529
-5185.67 -5.61176 0 -15.2722
-4144.29 -7.53435 0 -43.9021
-3123.53 -8.96164 0 -70.1729
-4166.96 -7.34195 0 -46.0889
-4155.61 -7.46497 0 -45.0061
-5171.63 -5.64795 0 -13.8881
-5143.54 -5.65819 0 -11.0748
-3097.89 -9.02468 0 -67.5433
-3114.94 -9.02873 0 -69.2924
-5157.59 -5.66252 0 -12.4871
-4121.71 -7.55058 0 -41.6496
-3106.4 -9.04422 0 -68.4149
-4144.29 -7.53435 0 -43.9021
-4132.99 -7.55895 0 -42.7809
-5143.54 -5.65819 0 -11.0748
-5115.43 -5.61585 0 -8.24574
-3080.92 -8.91728 0 -65.8183
-3097.89 -9.02468 0 -67.5433
-5129.49 -5.64089 0 -9.65857
-4099.16 -7.47935 0 -39.3866
-3089.4 -8.98095 0 -66.6778
-4121.71 -7.55058 0 -41.6496
-4110.43 -7.52236 0 -40.5169
-5115.43 -5.61585 0 -8.24574
-5087.31 -5.55202 0 -5.44193
-3063.97 -8.75545 0 -64.1208
-3080.92 -8.91728 0 -65.8183
-5101.37 -5.58584 0 -6.83962
-4076.62 -7.36427 0 -37.1408
-3072.44 -8.8405 0 -64.9657
-4099.16 -7.47935 0 -39.3866
-4087.89 -7.42549 0 -38.2606
-5087.31 -5.55202 0 -5.44193
-5059.19 -5.47936 0 -2.67845
-3047.04 -8.57178 0 -62.4542
-3063.97 -8.75545 0 -64.1208
-5073.25 -5.51611 0 -4.05433
-4054.09 -7.23176 0 -34.9272
-3055.51 -8.66543 0 -63.2836
-4076.62 -7.36427 0 -37.1408
-4065.35 -7.29923 0 -36.0293
-5059.19 -5.47936 0 -2.67845
-5031.06 -5.40565 0 0.0361118
-3030.11 -8.3802 0 -60.8193
-3047.04 -8.57178 0 -62.4542
-5045.13 -5.44245 0 -1.31487
-4031.55 -7.09373 0 -32.7522
-3038.57 -8.47633 0 -61.6327
-4054.09 -7.23176 0 -34.9272
-4042.82 -7.16299 0 -33.8347
-5031.06 -5.40565 0 0.0361118
-5002.93 -5.3337 0 2.69956
-3013.17 -8.18846 0 -59.2165
-3030.11 -8.3802 0 -60.8193
-5017 -5.36932 0 1.37433
-4009.01 -6.95622 0 -30.6184
-3021.64 -8.28416 0 -60.0139
-4031.55 -7.09373 0 -32.7522
-4020.28 -7.02471 0 -31.6801
-5002.93 -5.3337 0 2.69956
-4974.8 -5.26487 0 5.3112
-2996.24 -7.99925 0 -57.6452
-3013.17 -8.18846 0 -59.2165
-4988.87 -5.29887 0 4.01183
-3986.47 -6.82147 0 -28.5261
-3004.71 -8.09343 0 -58.4269
-4009.01 -6.95622 0 -30.6184
-3997.74 -6.88844 0 -29.567
-4974.8 -5.26487 0 5.3112
-4946.67 -5.19941 0 7.87155
-2979.3 -7.81364 0 -56.1051
-2996.24 -7.99925 0 -57.6452
-4960.74 -5.23171 0 6.59776
-3963.93 -6.69027 0 -26.4752
-2987.77 -7.90599 0 -56.8713
-3986.47 -6.82147 0 -28.5261
-3975.2 -6.75542 0 -27.4955
-4946.67 -5.19941 0 7.87155
-4918.53 -5.13728 0 10.3812
-2962.36 -7.63167 0 -54.5957
-2979.3 -7.81364 0 -56.1051
-4932.6 -5.16794 0 9.13268
-3941.38 -6.5626 0 -24.4651
-2970.83 -7.7222 0 -55.3466
-3963.93 -6.69027 0 -26.4752
-3952.65 -6.626 0 -25.4651
-4918.53 -5.13728 0 10.3812
-4890.39 -5.07829 0 12.8409
-2945.41 -7.45311 0 -53.1163
-2962.36 -7.63167 0 -54.5957
-4904.46 -5.10741 0 11.6173
-3918.83 -6.43827 0 -22.4952
-2953.88 -7.54198 0 -53.8523
-3941.38 -6.5626 0 -24.4651
-3930.11 -6.50004 0 -23.4751
-4890.39 -5.07829 0 12.8409
-4862.25 -5.02222 0 15.2512
-2928.47 -7.27764 0 -51.6668
-2945.41 -7.45311 0 -53.1163
-4876.32 -5.0499 0 14.0522
-3896.28 -6.31699 0 -20.5649
-2936.94 -7.36501 0 -52.3879
-3918.83 -6.43827 0 -22.4952
-3907.56 -6.37727 0 -21.5251
-4862.25 -5.02222 0 15.2512
-4834.11 -4.96886 0 17.6126
-2911.52 -7.10499 0 -50.2466
-2928.47 -7.27764 0 -51.6668
-4848.18 -4.99521 0 16.438
-3873.73 -6.19853 0 -18.6738
-2919.99 -7.19098 0 -50.9531
-3896.28 -6.31699 0 -20.5649
-3885.01 -6.25742 0 -19.6144
-4834.11 -4.96886 0 17.6126
-4805.97 -4.91806 0 19.9255
-2894.57 -6.9349 0 -48.8556
-2911.52 -7.10499 0 -50.2466
-4820.04 -4.94316 0 18.7751
-3851.18 -6.08266 0 -16.8216
-2903.05 -7.01964 0 -49.5475
-3873.73 -6.19853 0 -18.6738
-3862.46 -6.14028 0 -17.7428
-4805.97 -4.91806 0 19.9255
-4777.82 -4.86967 0 22.1902
-2877.62 -6.76722 0 -47.4935
-2894.57 -6.9349 0 -48.8556
-4791.89 -4.89357 0 21.0638
-3828.62 -5.96922 0 -15.0079
-2886.1 -6.85077 0 -48.171
-3851.18 -6.08266 0 -16.8216
-3839.9 -6.02564 0 -15.9099
-4777.82 -4.86967 0 22.1902
-4749.67 -4.82355 0 24.4072
-2860.68 -6.60178 0 -46.1601
-2877.62 -6.76722 0 -47.4935
-4763.75 -4.84633 0 23.3047
-3806.07 -5.85808 0 -13.2324
-2869.15 -6.68422 0 -46.8232
-3828.62 -5.96922 0 -15.0079
-3817.35 -5.91337 0 -14.1154
-4749.67 -4.82355 0 24.4072
-4721.52 -4.77959 0 26.5767
-2843.73 -6.4385 0 -44.8551
-2860.68 -6.60178 0 -46.1601
-4735.6 -4.80131 0 25.4979
-3783.51 -5.74913 0 -11.495
-2852.2 -6.51988 0 -45.504
-3806.07 -5.85808 0 -13.2324
-3794.79 -5.80334 0 -12.359
-4721.52 -4.77959 0 26.5767
-4693.37 -4.73769 0 28.6989
-2826.77 -6.27728 0 -43.5785
-2843.73 -6.4385 0 -44.8551
-4707.44 -4.75839 0 27.6437
-3760.95 -5.64227 0 -9.79527
-2835.25 -6.35763 0 -44.2133
-3783.51 -5.74913 0 -11.495
-3772.23 -5.69545 0 -10.6404
-4693.37 -4.73769 0 28.6989
-4665.21 -4.69773 0 30.7743
-2809.82 -6.11804 0 -42.33
-2826.77 -6.27728 0 -43.5785
-4679.29 -4.71747 0 29.7425
-3738.39 -5.53741 0 -8.13312
-2818.3 -6.19742 0 -42.9507
-3760.95 -5.64227 0 -9.79527
-3749.67 -5.5896 0 -8.95952
-4665.21 -4.69773 0 30.7743
-4637.06 -4.65964 0 32.803
-2792.87 -5.96074 0 -41.1094
-2809.82 -6.11804 0 -42.33
-4651.14 -4.67846 0 31.7945
-3715.83 -5.43448 0 -6.50828
-2801.35 -6.03916 0 -41.7162
-3738.39 -5.53741 0 -8.13312
-3727.11 -5.48571 0 -7.31605
-4637.06 -4.65964 0 32.803
-4608.9 -4.62332 0 34.7853
-2775.92 -5.80531 0 -39.9167
-2792.87 -5.96074 0 -41.1094
-4622.98 -4.64127 0 33.7999
-3693.27 -5.3334 0 -4.92052
-2784.4 -5.88279 0 -40.5096
-3715.83 -5.43448 0 -6.50828
-3704.55 -5.38371 0 -5.70978
-4608.9 -4.62332 0 34.7853
-4580.74 -4.58867 0 36.7216
-2758.97 -5.65169 0 -38.7516
-2775.92 -5.80531 0 -39.9167
-4594.82 -4.60579 0 35.7592
-3670.71 -5.23409 0 -3.36964
-2767.44 -5.72827 0 -39.3307
-3693.27 -5.3334 0 -4.92052
-3681.99 -5.28353 0 -4.14049
-4580.74 -4.58867 0 36.7216
-4552.58 -4.55561 0 38.612
-2742.01 -5.49983 0 -37.614
-2758.97 -5.65169 0 -38.7516
-4566.66 -4.57195 0 37.6725
-3648.15 -5.13649 0 -1.85541
-2750.49 -5.57554 0 -38.1794
-3670.71 -5.23409 0 -3.36964
-3659.43 -5.18508 0 -2.60796
-4552.58 -4.55561 0 38.612
-4524.42 -4.52405 0 40.4569
-2725.06 -5.34969 0 -36.5037
-2742.01 -5.49983 0 -37.614
-4538.5 -4.53965 0 39.5402
-3625.58 -5.04053 0 -0.377606
-2733.54 -5.42455 0 -37.0555
-3648.15 -5.13649 0 -1.85541
-3636.86 -5.08831 0 -1.11197
-4524.42 -4.52405 0 40.4569
-4496.26 -4.4939 0 42.2566
-2708.11 -5.2012 0 -35.4206
-2725.06 -5.34969 0 -36.5037
-4510.34 -4.5088 0 41.3624
-3603.02 -4.94614 0 1.06399
-2716.58 -5.27524 0 -35.9588
-3625.58 -5.04053 0 -0.377606
-3614.3 -4.99315 0 0.347705
-4496.26 -4.4939 0 42.2566
-4468.09 -4.46509 0 44.0113
-2691.15 -5.05433 0 -34.3644
-2708.11 -5.2012 0 -35.4206
-4482.18 -4.47934 0 43.1395
-3580.45 -4.85326 0 2.46961
-2699.63 -5.12757 0 -34.8891
-3603.02 -4.94614 0 1.06399
-3591.73 -4.89951 0 1.77128
-4468.09 -4.46509 0 44.0113
-4439.93 -4.43753 0 45.7212
-2674.2 -4.90903 0 -33.335
-2691.15 -5.05433 0 -34.3644
-4454.01 -4.45116 0 44.8718
-3557.89 -4.76181 0 3.83946
-2682.67 -4.98149 0 -33.8464
-3580.45 -4.85326 0 2.46961
-3569.17 -4.80736 0 3.15899
-4439.93 -4.43753 0 45.7212
-4411.77 -4.41113 0 47.3868
-2657.24 -4.76523 0 -32.3323
-2674.2 -4.90903 0 -33.335
-4425.85 -4.42419 0 46.5596
-3535.32 -4.67173 0 5.17378
-2665.72 -4.83694 0 -32.8304
-3557.89 -4.76181 0 3.83946
-3546.6 -4.7166 0 4.51105
-4411.77 -4.41113 0 47.3868
-4383.6 -4.38583 0 49.0082
-2640.29 -4.62291 0 -31.3561
-2657.24 -4.76523 0 -32.3323
-4397.68 -4.39835 0 48.203
-3512.75 -4.58297 0 6.47278
-2648.77 -4.69389 0 -31.8409
-3535.32 -4.67173 0 5.17378
-3524.04 -4.62719 0 5.82768
-4383.6 -4.38583 0 49.0082
-4355.43 -4.36153 0 50.5858
-2623.33 -4.48201 0 -30.4062
-2640.29 -4.62291 0 -31.3561
-4369.52 -4.37356 0 49.8025
-3490.19 -4.49545 0 7.73669
-2631.81 -4.55229 0 -30.8779
-3512.75 -4.58297 0 6.47278
-3501.47 -4.53906 0 7.10911
-4355.43 -4.36153 0 50.5858
-4327.27 -4.33817 0 52.1198
-2606.38 -4.34249 0 -29.4824
-2623.33 -4.48201 0 -30.4062
-4341.35 -4.34974 0 51.3582
-3467.62 -4.40912 0 8.96574
-2614.86 -4.41208 0 -29.9411
-3490.19 -4.49545 0 7.73669
-3478.9 -4.45214 0 8.35556
-4327.27 -4.33817 0 52.1198
-4299.1 -4.31567 0 53.6105
-2589.42 -4.20429 0 -28.5846
-2606.38 -4.34249 0 -29.4824
-4313.18 -4.32681 0 52.8705
-3445.05 -4.32392 0 10.1602
-2597.9 -4.27323 0 -29.0303
-3467.62 -4.40912 0 8.96574
-3456.33 -4.36638 0 9.56726
-4299.1 -4.31567 0 53.6105
-4270.93 -4.29395 0 55.0581
-2572.47 -4.06738 0 -27.7127
-2589.42 -4.20429 0 -28.5846
-4285.01 -4.30471 0 54.3397
-3422.48 -4.23978 0 11.3201
-2580.95 -4.13568 0 -28.1454
-3445.05 -4.32392 0 10.1602
-3433.77 -4.28172 0 10.7444
-4270.93 -4.29395 0 55.0581
-4242.76 -4.27294 0 56.4631
-2555.52 -3.93172 0 -26.8663
-2572.47 -4.06738 0 -27.7127
-4256.85 -4.28336 0 55.7659
-3399.92 -4.15666 0 12.4459
-2563.99 -3.9994 0 -27.2863
-3422.48 -4.23978 0 11.3201
-3411.2 -4.1981 0 11.8873
-4242.76 -4.27294 0 56.4631
-4214.59 -4.25257 0 57.8256
-2538.56 -3.79726 0 -26.0454
-2555.52 -3.93172 0 -26.8663
-4228.68 -4.26268 0 57.1496
-3377.35 -4.07448 0 13.5378
-2547.04 -3.86434 0 -26.4527
-3399.92 -4.15666 0 12.4459
-3388.63 -4.11545 0 12.9961
-4214.59 -4.25257 0 57.8256
-4186.42 -4.23278 0 59.1459
-2521.61 -3.66395 0 -25.2499
-2538.56 -3.79726 0 -26.0454
-4200.51 -4.24261 0 58.491
-3354.78 -3.99321 0 14.5959
-2530.08 -3.73046 0 -25.6445
-3377.35 -4.07448 0 13.5378
-3366.06 -4.03374 0 14.071
-4186.42 -4.23278 0 59.1459
-4158.26 -4.21349 0 60.4244
-2504.65 -3.53176 0 -24.4794
-2521.61 -3.66395 0 -25.2499
-4172.34 -4.22307 0 59.7904
-3332.21 -3.91277 0 15.6205
-2513.13 -3.59772 0 -24.8615
-3354.78 -3.99321 0 14.5959
-3343.5 -3.95289 0 15.1124
-4158.26 -4.21349 0 60.4244
-4130.09 -4.19463 0 61.6612
-2487.7 -3.40065 0 -23.7339
-2504.65 -3.53176 0 -24.4794
-4144.17 -4.20401 0 61.048
-3309.65 -3.83312 0 16.6118
-2496.18 -3.46608 0 -24.1036
-3332.21 -3.91277 0 15.6205
-3320.93 -3.87285 0 16.1203
-4130.09 -4.19463 0 61.6612
-4101.92 -4.17615 0 62.8567
-2470.75 -3.27058 0 -23.0133
-2487.7 -3.40065 0 -23.7339
-4116 -4.18535 0 62.2641
-3287.08 -3.75421 0 17.57
-2479.22 -3.33549 0 -23.3705
-3309.65 -3.83312 0 16.6118
-3298.36 -3.79358 0 17.095
-4101.92 -4.17615 0 62.8567
-4073.75 -4.15797 0 64.0112
-2453.79 -3.14151 0 -22.3172
-2470.75 -3.27058 0 -23.0133
-4087.83 -4.16702 0 63.4391
-3264.51 -3.67598 0 18.4954
-2462.27 -3.20592 0 -22.6622
-3287.08 -3.75421 0 17.57
-3275.79 -3.71502 0 18.0368
-4073.75 -4.15797 0 64.0112
-4045.58 -4.14003 0 65.1249
-2436.84 -3.0134 0 -21.6456
-2453.79 -3.14151 0 -22.3172
-4059.66 -4.14897 0 64.5731
-3241.94 -3.59839 0 19.3881
-2445.32 -3.07734 0 -21.9784
-3264.51 -3.67598 0 18.4954
-3253.23 -3.63711 0 18.9458
-4045.58 -4.14003 0 65.1249
-4017.41 -4.12228 0 66.1981
-2419.89 -2.88621 0 -20.9983
-2436.84 -3.0134 0 -21.6456
-4031.5 -4.13114 0 65.6666
-3219.38 -3.52139 0 20.2485
-2428.37 -2.94969 0 -21.3189
-3241.94 -3.59839 0 19.3881
-3230.66 -3.55982 0 19.8224
-4017.41 -4.12228 0 66.1981
-3989.24 -4.10465 0 67.2312
-2402.94 -2.75992 0 -20.3751
-2419.89 -2.88621 0 -20.9983
-4003.33 -4.11345 0 66.7197
-3196.81 -3.44492 0 21.0768
-2411.41 -2.82296 0 -20.6837
-3219.38 -3.52139 0 20.2485
-3208.1 -3.48309 0 20.6667
-3989.24 -4.10465 0 67.2312
-3961.07 -4.08708 0 68.2243
-2385.99 -2.63448 0 -19.7759
-2402.94 -2.75992 0 -20.3751
-3975.16 -4.09586 0 67.7327
-3174.25 -3.36894 0 21.873
-2394.46 -2.69709 0 -20.0725
-3196.81 -3.44492 0 21.0768
-3185.53 -3.40687 0 21.4789
-3961.07 -4.08708 0 68.2243
-3932.91 -4.06952 0 69.1778
-2369.04 -2.50985 0 -19.2005
-2385.99 -2.63448 0 -19.7759
-3946.99 -4.0783 0 68.706
-3151.68 -3.2934 0 22.6376
-2377.51 -2.57206 0 -19.4852
-3174.25 -3.36894 0 21.873
-3162.97 -3.33112 0 22.2593
-3932.91 -4.06952 0 69.1778
-3904.74 -4.05191 0 70.0919
-2352.09 -2.38602 0 -18.6487
-2369.04 -2.50985 0 -19.2005
-3918.82 -4.06072 0 69.6398
-3129.12 -3.21827 0 23.3707
-2360.56 -2.44784 0 -18.9216
-3151.68 -3.2934 0 22.6376
-3140.4 -3.25579 0 23.0081
-3904.74 -4.05191 0 70.0919
-3876.57 -4.03419 0 70.967
-2335.14 -2.26293 0 -18.1203
-2352.09 -2.38602 0 -18.6487
-3890.66 -4.04307 0 70.5344
-3106.56 -3.14349 0 24.0725
-2343.61 -2.32438 0 -18.3815
-3129.12 -3.21827 0 23.3707
-3117.84 -3.18083 0 23.7255
-3876.57 -4.03419 0 70.967
-3848.41 -4.01632 0 71.8033
-2318.19 -2.14057 0 -17.6152
-2335.14 -2.26293 0 -18.1203
-3862.49 -4.02528 0 71.39
-3083.99 -3.06902 0 24.7433
-2326.67 -2.20166 0 -17.8648
-3106.56 -3.14349 0 24.0725
-3095.27 -3.10622 0 24.4118
-3848.41 -4.01632 0 71.8033
-3820.24 -3.99824 0 72.6011
-2301.24 -2.01889 0 -17.1332
-2318.19 -2.14057 0 -17.6152
-3834.32 -4.00731 0 72.207
-3061.43 -2.99482 0 25.3833
-2309.72 -2.07965 0 -17.3713
-3083.99 -3.06902 0 24.7433
-3072.71 -3.03189 0 25.0672
-3820.24 -3.99824 0 72.6011
-3792.08 -3.97989 0 73.3607
-2284.3 -1.89788 0 -16.6741
-2301.24 -2.01889 0 -17.1332
-3806.16 -3.9891 0 72.9857
-3038.87 -2.92086 0 25.9927
-2292.77 -1.95831 0 -16.9008
-3061.43 -2.99482 0 25.3833
-3050.15 -2.95782 0 25.6918
-3792.08 -3.97989 0 73.3607
-3763.91 -3.96124 0 74.0823
-2267.35 -1.77749 0 -16.2378
-2284.3 -1.89788 0 -16.6741
-3778 -3.97061 0 73.7262
-3016.31 -2.84708 0 26.5718
-2275.83 -1.83761 0 -16.4531
-3038.87 -2.92086 0 25.9927
-3027.59 -2.88395 0 26.286
-3763.91 -3.96124 0 74.0823
-3735.75 -3.94222 0 74.7663
-2250.41 -1.6577 0 -15.8242
-2267.35 -1.77749 0 -16.2378
-3749.83 -3.95178 0 74.429
-2993.75 -2.77346 0 27.1207
-2258.88 -1.71752 0 -16.0282
-3016.31 -2.84708 0 26.5718
-3005.03 -2.81026 0 26.85
-3735.75 -3.94222 0 74.7663
-3707.59 -3.9228 0 75.4129
-2233.46 -1.53849 0 -15.4329
-2250.41 -1.6577 0 -15.8242
-3721.67 -3.93257 0 75.0943
-2971.19 -2.69995 0 27.6397
-2241.94 -1.59803 0 -15.6257
-2993.75 -2.77346 0 27.1207
-2982.47 -2.7367 0 27.3839
-3707.59 -3.9228 0 75.4129
-3679.43 -3.90293 0 76.0224
-2216.52 -1.41982 0 -15.0639
-2233.46 -1.53849 0 -15.4329
-3693.51 -3.91293 0 75.7223
-2948.63 -2.62652 0 28.129
-2224.99 -1.47909 0 -15.2456
-2971.19 -2.69995 0 27.6397
-2959.91 -2.66323 0 27.888
-3679.43 -3.90293 0 76.0224
-3651.27 -3.88257 0 76.5951
-2199.58 -1.30166 0 -14.717
-2216.52 -1.41982 0 -15.0639
-3665.35 -3.89281 0 76.3134
-2926.08 -2.55314 0 28.5889
-2208.05 -1.36068 0 -14.8877
-2948.63 -2.62652 0 28.129
-2937.36 -2.58983 0 28.3626
-3651.27 -3.88257 0 76.5951
-3623.11 -3.86166 0 77.1313
-2182.64 -1.184 0 -14.3921
-2199.58 -1.30166 0 -14.717
-3637.19 -3.87218 0 76.8678
-2903.52 -2.47976 0 29.0195
-2191.11 -1.24277 0 -14.5518
-2926.08 -2.55314 0 28.5889
-2914.8 -2.51645 0 28.8078
-3623.11 -3.86166 0 77.1313
-3594.95 -3.84017 0 77.6313
-2165.7 -1.06681 0 -14.0888
-2182.64 -1.184 0 -14.3921
-3609.03 -3.85099 0 77.3858
-2880.97 -2.40635 0 29.4211
-2174.17 -1.12535 0 -14.2377
-2903.52 -2.47976 0 29.0195
-2892.24 -2.44306 0 29.2239
-3594.95 -3.84017 0 77.6313
-3566.79 -3.81806 0 78.0953
-2148.76 -0.950051 0 -13.8072
-2165.7 -1.06681 0 -14.0888
-3580.87 -3.82919 0 77.8677
-2858.41 -2.33288 0 29.794
-2157.23 -1.00837 0 -13.9453
-2880.97 -2.40635 0 29.4211
-2869.69 -2.36963 0 29.6112
-3566.79 -3.81806 0 78.0953
-3538.63 -3.79528 0 78.5236
-2131.82 -0.833713 0 -13.547
-2148.76 -0.950051 0 -13.8072
-3552.71 -3.80676 0 78.3139
-2835.86 -2.25933 0 30.1383
-2140.29 -0.891831 0 -13.6744
-2858.41 -2.33288 0 29.794
-2847.14 -2.29612 0 29.9697
-3538.63 -3.79528 0 78.5236
-3510.48 -3.77181 0 78.9165
-2114.88 -0.71777 0 -13.308
-2131.82 -0.833713 0 -13.547
-3524.56 -3.78364 0 78.7244
-2813.31 -2.18565 0 30.4543
-2123.35 -0.775693 0 -13.4249
-2835.86 -2.25933 0 30.1383
-2824.58 -2.22251 0 30.2998
-3510.48 -3.77181 0 78.9165
-3482.33 -3.7476 0 79.2743
-2097.94 -0.602198 0 -13.0902
-2114.88 -0.71777 0 -13.308
-3496.4 -3.7598 0 79.0997
-2790.76 -2.11182 0 30.7422
-2106.41 -0.659939 0 -13.1965
-2813.31 -2.18565 0 30.4543
-2802.03 -2.14875 0 30.6017
-3482.33 -3.7476 0 79.2743
-3454.17 -3.72261 0 79.5972
-2081.01 -0.486977 0 -12.8932
-2097.94 -0.602198 0 -13.0902
-3468.25 -3.7352 0 79.4401
-2768.21 -2.03781 0 31.0022
-2089.48 -0.544545 0 -12.9891
-2790.76 -2.11182 0 30.7422
-2779.48 -2.07484 0 30.8757
-3454.17 -3.72261 0 79.5972
-3426.02 -3.69681 0 79.8857
-2064.07 -0.372085 0 -12.717
-2081.01 -0.486977 0 -12.8932
-3440.1 -3.70981 0 79.7458
-2745.66 -1.96359 0 31.2346
-2072.54 -0.429491 0 -12.8025
-2768.21 -2.03781 0 31.0022
-2756.93 -2.00073 0 31.1218
-3426.02 -3.69681 0 79.8857
-3397.87 -3.67017 0 80.1398
-2047.14 -0.257501 0 -12.5613
-2064.07 -0.372085 0 -12.717
-3411.95 -3.6836 0 80.017
-2723.11 -1.88913 0 31.4395
-2055.61 -0.314756 0 -12.6366
-2745.66 -1.96359 0 31.2346
-2734.39 -1.92639 0 31.3405
-3397.87 -3.67017 0 80.1398
-3369.72 -3.64266 0 80.36
-2030.21 -0.143207 0 -12.426
-2047.14 -0.257501 0 -12.5613
-3383.8 -3.65653 0 80.2541
-2700.57 -1.81442 0 31.6173
-2038.68 -0.200319 0 -12.4911
-2723.11 -1.88913 0 31.4395
-2711.84 -1.85181 0 31.5318
-3369.72 -3.64266 0 80.36
-3341.57 -3.61423 0 80.5465
-2013.28 -0.0291824 0 -12.311
-2030.21 -0.143207 0 -12.426
-3355.65 -3.62856 0 80.4574
-2678.03 -1.73941 0 31.7681
-2021.74 -0.0861621 0 -12.366
-2700.57 -1.81442 0 31.6173
-2689.3 -1.77695 0 31.696
-3341.57 -3.61423 0 80.5465
-3313.43 -3.58487 0 80.6995
-1996.35 0.0845904 0 -12.2161
-2013.28 -0.0291824 0 -12.311
-3327.5 -3.59967 0 80.6272
-2655.48 -1.6641 0 31.8921
-2004.81 0.0277344 0 -12.261
-2678.03 -1.73941 0 31.7681
-2666.75 -1.7018 0 31.8334
-3313.43 -3.58487 0 80.6995
-3285.28 -3.55454 0 80.8195
-1979.42 0.198129 0 -12.141
-1996.35 0.0845904 0 -12.2161
-3299.36 -3.56983 0 80.7636
-2632.94 -1.58845 0 31.9896
-1987.89 0.141388 0 -12.1761
-2655.48 -1.6641 0 31.8921
-2644.21 -1.62632 0 31.9442
-3285.28 -3.55454 0 80.8195
-3257.14 -3.52322 0 80.9065
-1962.49 0.311451 0 -12.0857
-1979.42 0.198129 0 -12.141
-3271.21 -3.53901 0 80.8671
-2610.4 -1.51244 0 32.0608
-1970.96 0.254816 0 -12.1109
-2632.94 -1.58845 0 31.9896
-2621.67 -1.55049 0 32.0285
-3257.14 -3.52322 0 80.9065
-3229 -3.49087 0 80.961
-1945.57 0.424572 0 -12.0499
-1962.49 0.311451 0 -12.0857
-3243.07 -3.50718 0 80.9378
-2587.86 -1.43605 0 32.106
-1954.03 0.368036 0 -12.0653
-2610.4 -1.51244 0 32.0608
-2599.13 -1.47429 0 32.0867
-3229 -3.49087 0 80.961
-3200.86 -3.45748 0 80.9833
-1928.64 0.537508 0 -12.0335
-1945.57 0.424572 0 -12.0499
-3214.93 -3.47431 0 80.9762
-2565.33 -1.35926 0 32.1253
-1937.11 0.481062 0 -12.0393
-2587.86 -1.43605 0 32.106
-2576.59 -1.39771 0 32.1189
-3200.86 -3.45748 0 80.9833
-3172.72 -3.42301 0 80.9735
-1911.72 0.650274 0 -12.0363
-1928.64 0.537508 0 -12.0335
-3186.79 -3.44038 0 80.9823
-2542.79 -1.28205 0 32.119
-1920.18 0.593911 0 -12.0325
-2565.33 -1.35926 0 32.1253
-2554.06 -1.32071 0 32.1254
-3172.72 -3.42301 0 80.9735
-3144.58 -3.38744 0 80.932
-1894.8 0.762885 0 -12.0582
-1911.72 0.650274 0 -12.0363
-3158.65 -3.40537 0 80.9567
-2520.26 -1.20441 0 32.0873
-1903.26 0.706598 0 -12.0449
-2542.79 -1.28205 0 32.119
-2531.52 -1.24329 0 32.1063
-3144.58 -3.38744 0 80.932
-3116.45 -3.35076 0 80.859
-1877.88 0.875354 0 -12.099
-1894.8 0.762885 0 -12.0582
-3130.51 -3.36924 0 80.8994
-2497.72 -1.1263 0 32.0305
-1886.34 0.819136 0 -12.0762
-2520.26 -1.20441 0 32.0873
-2508.99 -1.16541 0 32.0621
-3116.45 -3.35076 0 80.859
-3088.31 -3.31293 0 80.7549
-1860.96 0.987694 0 -12.1584
-1877.88 0.875354 0 -12.099
-3102.38 -3.33199 0 80.8108
-2475.19 -1.04772 0 31.9487
-1869.42 0.931539 0 -12.1264
-2497.72 -1.1263 0 32.0305
-2486.46 -1.08707 0 31.9927
-3088.31 -3.31293 0 80.7549
-3060.18 -3.27394 0 80.6199
-1844.04 1.09992 0 -12.2364
-1860.96 0.987694 0 -12.1584
-3074.25 -3.29358 0 80.6912
-2452.66 -0.968648 0 31.8422
-1852.5 1.04382 0 -12.1951
-2475.19 -1.04772 0 31.9487
-2463.93 -1.00825 0 31.8985
-3060.18 -3.27394 0 80.6199
-3032.05 -3.23376 0 80.4543
-1827.12 1.21204 0 -12.3328
-1844.04 1.09992 0 -12.2364
-3046.11 -3.254 0 80.5409
-2430.13 -0.889068 0 31.7112
-1835.58 1.15599 0 -12.2824
-2452.66 -0.968648 0 31.8422
-2441.4 -0.928922 0 31.7798
-3032.05 -3.23376 0 80.4543
-3003.92 -3.19239 0 80.2584
-1810.21 1.32406 0 -12.4474
-1827.12 1.21204 0 -12.3328
-3017.98 -3.21323 0 80.3602
-2407.61 -0.808965 0 31.556
-1818.67 1.26806 0 -12.3879
-2430.13 -0.889068 0 31.7112
-2418.87 -0.849083 0 31.6366
-3003.92 -3.19239 0 80.2584
-2975.79 -3.14979 0 80.0325
-1793.29 1.43601 0 -12.5801
-1810.21 1.32406 0 -12.4474
-2989.86 -3.17124 0 80.1492
-2385.08 -0.728325 0 31.3767
-1801.75 1.38005 0 -12.5115
-2407.61 -0.808965 0 31.556
-2396.34 -0.768713 0 31.4694
-2975.79 -3.14979 0 80.0325
-2947.67 -3.10596 0 79.7769
-1776.38 1.54788 0 -12.7305
-1793.29 1.43601 0 -12.5801
-2961.73 -3.12803 0 79.9084
-2362.56 -0.647135 0 31.1736
-1784.84 1.49195 0 -12.6531
-2385.08 -0.728325 0 31.3767
-2373.82 -0.6878 0 31.2781
-2947.67 -3.10596 0 79.7769
-2919.54 -3.06088 0 79.4917
-1759.47 1.65969 0 -12.8987
-1776.38 1.54788 0 -12.7305
-2933.6 -3.08358 0 79.638
-2340.04 -0.565382 0 30.947
-1767.93 1.60379 0 -12.8124
-2362.56 -0.647135 0 31.1736
-2351.3 -0.60633 0 31.0632
-2919.54 -3.06088 0 79.4917
-2891.42 -3.01454 0 79.1774
-1742.56 1.77145 0 -13.0845
-1759.47 1.65969 0 -12.8987
-2905.48 -3.03787 0 79.3382
-2317.51 -0.483055 0 30.697
-1751.01 1.71557 0 -12.9894
-2340.04 -0.565382 0 30.947
-2328.78 -0.524291 0 30.8249
-2891.42 -3.01454 0 79.1774
-2863.3 -2.96691 0 78.8342
-1725.65 1.88316 0 -13.2875
-1742.56 1.77145 0 -13.0845
-2877.36 -2.99088 0 79.0094
-2295 -0.400142 0 30.4238
-1734.11 1.82731 0 -13.1838
-2317.51 -0.483055 0 30.697
-2306.26 -0.441672 0 30.5632
-2863.3 -2.96691 0 78.8342
-2835.18 -2.91799 0 78.4624
-1708.74 1.99483 0 -13.5078
-1725.65 1.88316 0 -13.2875
-2849.24 -2.94261 0 78.6519
-2272.48 -0.316633 0 30.1277
-1717.2 1.939 0 -13.3955
-2295 -0.400142 0 30.4238
-2283.74 -0.358463 0 30.2786
-2835.18 -2.91799 0 78.4624
-2807.06 -2.86776 0 78.0622
-1691.84 2.10647 0 -13.7451
-1708.74 1.99483 0 -13.5078
-2821.12 -2.89304 0 78.2658
-2249.96 -0.232519 0 29.809
-1700.29 2.05065 0 -13.6243
-2272.48 -0.316633 0 30.1277
-2261.22 -0.274652 0 29.9712
-2807.06 -2.86776 0 78.0622
-2778.95 -2.81622 0 77.634
-1674.93 2.21809 0 -13.9993
-1691.84 2.10647 0 -13.7451
-2793.01 -2.84216 0 77.8516
-2227.45 -0.14779 0 29.4678
-1683.39 2.16228 0 -13.8701
-2249.96 -0.232519 0 29.809
-2238.71 -0.190232 0 29.6412
-2778.95 -2.81622 0 77.634
-2750.83 -2.76336 0 77.178
-1658.03 2.32969 0 -14.2701
-1674.93 2.21809 0 -13.9993
-2764.89 -2.78996 0 77.4094
-2204.94 -0.0624397 0 29.1043
-1666.48 2.27389 0 -14.1326
-2227.45 -0.14779 0 29.4678
-2216.19 -0.105193 0 29.2888
-2750.83 -2.76336 0 77.178
-2722.72 -2.70916 0 76.6945
-1641.13 2.44127 0 -14.5574
-1658.03 2.32969 0 -14.2701
-2736.78 -2.73643 0 76.9397
-2182.43 0.0235401 0 28.7189
-1649.58 2.38548 0 -14.4117
-2204.94 -0.0624397 0 29.1043
-2193.68 -0.0195289 0 28.9144
-2722.72 -2.70916 0 76.6945
-2694.61 -2.65362 0 76.1838
-1624.23 2.55285 0 -14.8611
-1641.13 2.44127 0 -14.5574
-2708.67 -2.68156 0 76.4425
-2159.92 0.110156 0 28.3117
-1632.68 2.49707 0 -14.7073
-2182.43 0.0235401 0 28.7189
-2171.17 0.0667682 0 28.518
-2694.61 -2.65362 0 76.1838
-2666.5 -2.59673 0 75.6462
-1607.33 2.66443 0 -15.181
-1624.23 2.55285 0 -14.8611
-2680.56 -2.62534 0 75.9184
-2137.41 0.197413 0 27.8829
-1615.78 2.60864 0 -15.0191
-2159.92 0.110156 0 28.3117
-2148.66 0.153704 0 28.1
-2666.5 -2.59673 0 75.6462
-2638.4 -2.53848 0 75.0819
-1590.43 2.77601 0 -15.5169
-1607.33 2.66443 0 -15.181
-2652.45 -2.56777 0 75.3674
-2114.9 0.285317 0 27.4328
-1598.88 2.72022 0 -15.347
-2137.41 0.197413 0 27.8829
-2126.16 0.241284 0 27.6605
-2638.4 -2.53848 0 75.0819
-2610.29 -2.47887 0 74.4913
-1573.54 2.88759 0 -15.8686
-1590.43 2.77601 0 -15.5169
-2624.34 -2.50885 0 74.7899
-2092.4 0.373873 0 26.9616
-1581.98 2.8318 0 -15.6908
-2114.9 0.285317 0 27.4328
-2103.65 0.329513 0 27.1998
-2610.29 -2.47887 0 74.4913
-2582.19 -2.4179 0 73.8746
-1556.64 2.99918 0 -16.236
-1573.54 2.88759 0 -15.8686
-2596.24 -2.44856 0 74.1862
-2069.9 0.463082 0 26.4695
-1565.09 2.94338 0 -16.0504
-2092.4 0.373873 0 26.9616
-2081.15 0.418395 0 26.7182
-2582.19 -2.4179 0 73.8746
-2554.09 -2.35556 0 73.2321
-1539.75 3.11077 0 -16.6189
-1556.64 2.99918 0 -16.236
-2568.14 -2.3869 0 73.5565
-2047.4 0.55295 0 25.9568
-1548.2 3.05497 0 -16.4256
-2069.9 0.463082 0 26.4695
-2058.65 0.507934 0 26.2157
-2554.09 -2.35556 0 73.2321
-2525.99 -2.29184 0 72.564
-1522.86 3.22238 0 -17.0172
-1539.75 3.11077 0 -16.6189
-2540.04 -2.32387 0 72.9012
-2024.9 0.643478 0 25.4236
-1531.3 3.16657 0 -16.8161
-2047.4 0.55295 0 25.9568
-2036.15 0.598131 0 25.6927
-2525.99 -2.29184 0 72.564
-2497.89 -2.22675 0 71.8708
-1505.97 3.334 0 -17.4306
-1522.86 3.22238 0 -17.0172
-2511.94 -2.25947 0 72.2205
-2002.4 0.734667 0 24.8702
-1514.41 3.27819 0 -17.222
-2024.9 0.643478 0 25.4236
-2013.65 0.688989 0 25.1494
-2497.89 -2.22675 0 71.8708
-2469.8 -2.16028 0 71.1525
-1489.08 3.44563 0 -17.859
-1505.97 3.334 0 -17.4306
-2483.84 -2.19369 0 71.5147
-1979.9 0.826518 0 24.2969
-1497.52 3.38981 0 -17.6429
-2002.4 0.734667 0 24.8702
-1991.15 0.78051 0 24.586
-2469.8 -2.16028 0 71.1525
-2441.7 -2.09244 0 70.4096
-1472.19 3.55728 0 -18.3022
-1489.08 3.44563 0 -17.859
-2455.75 -2.12654 0 70.7841
-1957.41 0.919032 0 23.7038
-1480.64 3.50145 0 -18.0787
-1979.9 0.826518 0 24.2969
-1968.66 0.872693 0 24.0028
-2441.7 -2.09244 0 70.4096
-2413.61 -2.02323 0 69.6423
-1455.31 3.66893 0 -18.7601
-1472.19 3.55728 0 -18.3022
-2427.66 -2.05801 0 70.029
-1934.92 1.01221 0 23.0911
-1463.75 3.6131 0 -18.5293
-1957.41 0.919032 0 23.7038
-1946.16 0.965538 0 23.3999
-2413.61 -2.02323 0 69.6423
-2385.52 -1.95264 0 68.8509
-1438.42 3.7806 0 -19.2325
-1455.31 3.66893 0 -18.7601
-2399.56 -1.98811 0 69.2496
-1912.43 1.10605 0 22.4592
-1446.86 3.72477 0 -18.9945
-1934.92 1.01221 0 23.0911
-1923.67 1.05905 0 22.7776
-2385.52 -1.95264 0 68.8509
-2357.43 -1.88068 0 68.0357
-1421.54 3.89228 0 -19.7192
-1438.42 3.7806 0 -19.2325
-2371.48 -1.91683 0 68.4462
-1889.94 1.20054 0 21.8082
-1429.98 3.83644 0 -19.4741
-1912.43 1.10605 0 22.4592
-1901.18 1.15321 0 22.136
-2357.43 -1.88068 0 68.0357
-2329.34 -1.80735 0 67.1969
-1404.66 4.00397 0 -20.2201
-1421.54 3.89228 0 -19.7192
-2343.39 -1.84418 0 67.6192
-1867.45 1.2957 0 21.1383
-1413.1 3.94813 0 -19.9679
-1889.94 1.20054 0 21.8082
-1878.69 1.24804 0 21.4756
-2329.34 -1.80735 0 67.1969
-2301.26 -1.73265 0 66.3348
-1387.78 4.11567 0 -20.7349
-1404.66 4.00397 0 -20.2201
-2315.3 -1.77017 0 66.7687
-1844.96 1.39151 0 20.4498
-1396.22 4.05982 0 -20.4758
-1867.45 1.2957 0 21.1383
-1856.21 1.34352 0 20.7964
-2301.26 -1.73265 0 66.3348
-2273.18 -1.6566 0 65.4497
-1370.9 4.22737 0 -21.2636
-1387.78 4.11567 0 -20.7349
-2287.22 -1.6948 0 65.8951
-1822.48 1.48797 0 19.7429
-1379.34 4.17152 0 -20.9975
-1844.96 1.39151 0 20.4498
-1833.72 1.43966 0 20.0986
-2273.18 -1.6566 0 65.4497
-2245.1 -1.57919 0 64.542
-1354.02 4.33907 0 -21.8059
-1370.9 4.22737 0 -21.2636
-2259.14 -1.61806 0 64.9987
-1800 1.58507 0 19.0178
-1362.46 4.28322 0 -21.5331
-1822.48 1.48797 0 19.7429
-1811.24 1.53644 0 19.3826
-2245.1 -1.57919 0 64.542
-2217.02 -1.50043 0 63.6118
-1337.15 4.45076 0 -22.3617
-1354.02 4.33907 0 -21.8059
-2231.06 -1.53998 0 64.0797
-1777.52 1.68282 0 18.2747
-1345.58 4.39492 0 -22.0821
-1800 1.58507 0 19.0178
-1788.76 1.63387 0 18.6485
-2217.02 -1.50043 0 63.6118
-2188.94 -1.42033 0 62.6594
-1320.27 4.56246 0 -22.9308
-1337.15 4.45076 0 -22.3617
-2202.98 -1.46055 0 63.1384
-1755.04 1.78121 0 17.5139
-1328.71 4.50661 0 -22.6446
-1777.52 1.68282 0 18.2747
-1766.28 1.73193 0 17.8965
-2188.94 -1.42033 0 62.6594
-2160.86 -1.3389 0 61.6852
-1303.4 4.67414 0 -23.5131
-1320.27 4.56246 0 -22.9308
-2174.9 -1.37978 0 62.175
-1732.56 1.88022 0 16.7357
-1311.83 4.6183 0 -23.2203
-1755.04 1.78121 0 17.5139
-1743.8 1.83063 0 17.127
-2160.86 -1.3389 0 61.6852
-2132.79 -1.25613 0 60.6894
-1286.53 4.7858 0 -24.1084
-1303.4 4.67414 0 -23.5131
-2146.82 -1.29768 0 61.19
-1710.08 1.97986 0 15.9401
-1294.96 4.72997 0 -23.8091
-1732.56 1.88022 0 16.7357
-1721.32 1.92996 0 16.34
-2132.79 -1.25613 0 60.6894
-2104.71 -1.17205 0 59.6723
-1269.66 4.89744 0 -24.7164
-1286.53 4.7858 0 -24.1084
-2118.75 -1.21426 0 60.1835
-1687.61 2.08011 0 15.1275
-1278.09 4.84163 0 -24.4108
-1710.08 1.97986 0 15.9401
-1698.84 2.02991 0 15.5359
-2104.71 -1.17205 0 59.6723
-2076.64 -1.08667 0 58.6342
-1252.79 5.00906 0 -25.3371
-1269.66 4.89744 0 -24.7164
-2090.68 -1.12952 0 59.1559
-1665.13 2.18098 0 14.298
-1261.22 4.95326 0 -25.0252
-1687.61 2.08011 0 15.1275
-1676.37 2.13047 0 14.7148
-2076.64 -1.08667 0 58.6342
-2048.57 -0.999982 0 57.5754
-1235.92 5.12064 0 -25.9703
-1252.79 5.00906 0 -25.3371
-2062.61 -1.04349 0 58.1074
-1642.66 2.28244 0 13.4519
-1244.35 5.06486 0 -25.6521
-1665.13 2.18098 0 14.298
-1653.9 2.23163 0 13.877
-2048.57 -0.999982 0 57.5754
-2020.51 -0.912011 0 56.496
-1219.05 5.23219 0 -26.6158
-1235.92 5.12064 0 -25.9703
-2034.54 -0.956156 0 57.0382
-1620.19 2.3845 0 12.5895
-1227.49 5.17642 0 -26.2915
-1642.66 2.28244 0 13.4519
-1631.43 2.33339 0 13.0227
-2020.51 -0.912011 0 56.496
-1992.44 -0.822765 0 55.3965
-1202.19 5.34368 0 -27.2734
-1219.05 5.23219 0 -26.6158
-2006.47 -0.867547 0 55.9488
-1597.72 2.48713 0 11.7108
-1210.62 5.28794 0 -26.9431
-1620.19 2.3845 0 12.5895
-1608.96 2.43574 0 12.1522
-1992.44 -0.822765 0 55.3965
-1964.38 -0.732258 0 54.2771
-1185.32 5.45513 0 -27.943
-1202.19 5.34368 0 -27.2734
-1978.41 -0.777669 0 54.8393
-1575.26 2.59035 0 10.8163
-1193.76 5.39941 0 -27.6067
-1597.72 2.48713 0 11.7108
-1586.49 2.53867 0 11.2655
-1964.38 -0.732258 0 54.2771
-1936.31 -0.640501 0 53.1381
-1168.46 5.56651 0 -28.6243
-1185.32 5.45513 0 -27.943
-1950.34 -0.686535 0 53.71
-1552.79 2.69412 0 9.90602
-1176.89 5.51083 0 -28.2822
-1575.26 2.59035 0 10.8163
-1564.02 2.64216 0 10.3631
-1936.31 -0.640501 0 53.1381
-1908.25 -0.547509 0 51.9797
-1151.6 5.67782 0 -29.3174
-1168.46 5.56651 0 -28.6243
-1922.28 -0.594158 0 52.5613
-1530.33 2.79844 0 8.98026
-1160.03 5.62217 0 -28.9694
-1552.79 2.69412 0 9.90602
-1541.56 2.74621 0 9.44506
-1908.25 -0.547509 0 51.9797
-1880.19 -0.453296 0 50.8023
-1134.74 5.78905 0 -30.0218
-1151.6 5.67782 0 -29.3174
-1894.22 -0.500554 0 51.3934
-1507.87 2.90331 0 8.03924
-1143.17 5.73344 0 -29.6682
-1530.33 2.79844 0 8.98026
-1519.1 2.85081 0 8.51164
-1880.19 -0.453296 0 50.8023
-1852.13 -0.357877 0 49.6061
-1117.88 5.90019 0 -30.7376
-1134.74 5.78905 0 -30.0218
-1866.16 -0.405736 0 50.2065
-1485.4 3.0087 0 7.08317
-1126.31 5.84463 0 -30.3783
-1507.87 2.90331 0 8.03924
-1496.63 2.95594 0 7.56307
-1852.13 -0.357877 0 49.6061
-1824.08 -0.261267 0 48.3914
-1101.03 6.01124 0 -31.4645
-1117.88 5.90019 0 -30.7376
-1838.1 -0.30972 0 49.001
-1462.95 3.1146 0 6.11229
-1109.45 5.95573 0 -31.0997
-1485.4 3.0087 0 7.08317
-1474.17 3.06159 0 6.59957
-1824.08 -0.261267 0 48.3914
-1796.02 -0.163484 0 47.1584
-1084.17 6.12218 0 -32.2024
-1101.03 6.01124 0 -31.4645
-1810.05 -0.212521 0 47.7771
-1440.49 3.22101 0 5.12682
-1092.6 6.06673 0 -31.8321
-1462.95 3.1146 0 6.11229
-1451.72 3.16775 0 5.62137
-1796.02 -0.163484 0 47.1584
-1767.97 -0.0645435 0 45.9075
-1067.32 6.23301 0 -32.9511
-1084.17 6.12218 0 -32.2024
-1781.99 -0.114157 0 46.5352
-1418.03 3.32791 0 4.12698
-1075.74 6.17761 0 -32.5754
-1440.49 3.22101 0 5.12682
-1429.26 3.2744 0 4.62868
-1767.97 -0.0645435 0 45.9075
-1739.92 0.0355369 0 44.639
-1050.46 6.3437 0 -33.7104
-1067.32 6.23301 0 -32.9511
-1753.94 -0.0146446 0 45.2755
-1395.57 3.43528 0 3.11299
-1058.89 6.28837 0 -33.3294
-1418.03 3.32791 0 4.12698
-1406.8 3.38154 0 3.62174
-1739.92 0.0355369 0 44.639
-1711.87 0.136739 0 43.3531
-1033.61 6.45426 0 -34.4802
-1050.46 6.3437 0 -33.7104
-1725.89 0.0859988 0 43.9982
-1373.12 3.54311 0 2.08509
-1042.04 6.399 0 -34.094
-1395.57 3.43528 0 3.11299
-1384.35 3.48914 0 2.60077
-1711.87 0.136739 0 43.3531
-1683.82 0.239044 0 42.05
-1016.76 6.56467 0 -35.2602
-1033.61 6.45426 0 -34.4802
-1697.84 0.187755 0 42.7037
-1350.67 3.65139 0 1.04348
-1025.18 6.50949 0 -34.8689
-1373.12 3.54311 0 2.08509
-1361.89 3.5972 0 1.56598
-1683.82 0.239044 0 42.05
-1655.77 0.342433 0 40.7302
-999.909 6.67492 0 -36.0504
-1016.76 6.56467 0 -35.2602
-1669.79 0.290604 0 41.3922
-1328.22 3.7601 0 -0.0115972
-1008.33 6.61982 0 -35.654
-1350.67 3.65139 0 1.04348
-1339.44 3.70569 0 0.517612
-1655.77 0.342433 0 40.7302
-1627.72 0.446886 0 39.3938
-983.06 6.785 0 -36.8505
-999.909 6.67492 0 -36.0504
-1641.75 0.394528 0 40.064
-1305.77 3.86922 0 -1.07993
-991.485 6.72998 0 -36.4492
-1328.22 3.7601 0 -0.0115972
-1316.99 3.81461 0 -0.544119
-1627.72 0.446886 0 39.3938
-1599.68 0.552383 0 38.0412
-966.213 6.89489 0 -37.6604
-983.06 6.785 0 -36.8505
-1613.7 0.499505 0 38.7195
-1283.32 3.97874 0 -2.16128
-974.637 6.83997 0 -37.2543
-1305.77 3.86922 0 -1.07993
-1294.54 3.92393 0 -1.61899
-1599.68 0.552383 0 38.0412
-1571.63 0.658903 0 36.6725
-949.367 7.00459 0 -38.48
-966.213 6.89489 0 -37.6604
-1585.66 0.605516 0 37.3588
-1260.87 4.08864 0 -3.25544
-957.79 6.94976 0 -38.069
-1283.32 3.97874 0 -2.16128
-1272.1 4.03364 0 -2.70677
-1571.63 0.658903 0 36.6725
-1543.59 0.766424 0 35.2882
-932.522 7.11407 0 -39.309
-949.367 7.00459 0 -38.48
-1557.61 0.71254 0 35.9823
-1238.43 4.19891 0 -4.36218
-940.944 7.05936 0 -38.8933
-1260.87 4.08864 0 -3.25544
-1249.65 4.14373 0 -3.80725
-1543.59 0.766424 0 35.2882
-1515.55 0.874925 0 33.8884
-915.678 7.22334 0 -40.1472
-932.522 7.11407 0 -39.309
-1529.57 0.820554 0 34.5902
-1215.98 4.30952 0 -5.48127
-924.1 7.16873 0 -39.7269
-1238.43 4.19891 0 -4.36218
-1227.2 4.25417 0 -4.92019
-1515.55 0.874925 0 33.8884
-1487.51 0.984384 0 32.4735
-898.835 7.33236 0 -40.9946
-915.678 7.22334 0 -40.1472
-1501.53 0.929536 0 33.1828
-1193.54 4.42046 0 -6.61249
-907.256 7.27788 0 -40.5698
-1215.98 4.30952 0 -5.48127
-1204.76 4.36495 0 -6.04538
-1487.51 0.984384 0 32.4735
-1459.47 1.09478 0 31.0437
-881.993 7.44114 0 -41.851
-898.835 7.33236 0 -40.9946
-1473.49 1.03946 0 31.7605
-1171.1 4.53172 0 -7.75563
-890.414 7.38678 0 -41.4217
-1193.54 4.42046 0 -6.61249
-1182.32 4.47605 0 -7.18258
-1459.47 1.09478 0 31.0437
-1431.43 1.20608 0 29.5994
-865.153 7.54965 0 -42.7161
-881.993 7.44114 0 -41.851
-1445.45 1.15032 0 30.3234
-1148.65 4.64326 0 -8.91044
-873.573 7.49543 0 -42.2825
-1171.1 4.53172 0 -7.75563
-1159.87 4.58745 0 -8.33159
-1431.43 1.20608 0 29.5994
-1403.4 1.31827 0 28.1407
-848.313 7.65789 0 -43.5899
-865.153 7.54965 0 -42.7161
-1417.42 1.26207 0 28.8718
-1126.21 4.75508 0 -10.0767
-856.733 7.60381 0 -43.1519
-1148.65 4.64326 0 -8.91044
-1137.43 4.69914 0 -9.49217
-1403.4 1.31827 0 28.1407
-1375.36 1.43132 0 26.668
-831.475 7.76583 0 -44.4721
-848.313 7.65789 0 -43.5899
-1389.38 1.37469 0 27.4061
-1103.78 4.86715 0 -11.2542
-839.894 7.7119 0 -44.0299
-1126.21 4.75508 0 -10.0767
-1114.99 4.81108 0 -10.6641
-1375.36 1.43132 0 26.668
-1347.33 1.54522 0 25.1816
-814.637 7.87347 0 -45.3625
-831.475 7.76583 0 -44.4721
-1361.35 1.48817 0 25.9265
-1081.34 4.97945 0 -12.4428
-823.056 7.81969 0 -44.9163
-1103.78 4.86715 0 -11.2542
-1092.56 4.92327 0 -11.8471
-1347.33 1.54522 0 25.1816
-1319.3 1.65992 0 23.6817
-797.801 7.98078 0 -46.2611
-814.637 7.87347 0 -45.3625
-1333.31 1.60247 0 24.4333
-1058.9 5.09197 0 -13.6421
-806.219 7.92716 0 -45.8108
-1081.34 4.97945 0 -12.4428
-1070.12 5.03569 0 -13.0411
-1319.3 1.65992 0 23.6817
-1291.26 1.77541 0 22.1686
-780.965 8.08775 0 -47.1677
-797.801 7.98078 0 -46.2611
-1305.28 1.71757 0 22.9267
-1036.47 5.20468 0 -14.852
-789.383 8.03431 0 -46.7134
-1058.9 5.09197 0 -13.6421
-1047.68 5.1483 0 -14.2457
-1291.26 1.77541 0 22.1686
-1263.23 1.89166 0 20.6426
-764.13 8.19437 0 -48.082
-780.965 8.08775 0 -47.1677
-1277.25 1.83344 0 21.4072
-1014.03 5.31757 0 -16.0722
-772.548 8.14111 0 -47.6239
-1036.47 5.20468 0 -14.852
-1025.25 5.2611 0 -15.4608
-1263.23 1.89166 0 20.6426
-1235.2 2.00865 0 19.1039
-747.297 8.30062 0 -49.0039
-764.13 8.19437 0 -48.082
-1249.22 1.95006 0 19.8748
-991.597 5.4306 0 -17.3026
-755.713 8.24755 0 -48.542
-1014.03 5.31757 0 -16.0722
-1002.81 5.37406 0 -16.6862
-1235.2 2.00865 0 19.1039
-1207.17 2.12634 0 17.5529
-730.464 8.40649 0 -49.9333
-747.297 8.30062 0 -49.0039
-1221.19 2.06741 0 18.3299
-969.164 5.54376 0 -18.5429
-738.88 8.3536 0 -49.4677
-991.597 5.4306 0 -17.3026
-980.381 5.48717 0 -17.9215
-1207.17 2.12634 0 17.5529
-1179.15 2.24471 0 15.9898
-713.632 8.51195 0 -50.8699
-730.464 8.40649 0 -49.9333
-1193.16 2.18544 0 16.7729
-946.733 5.65703 0 -19.7928
-722.048 8.45927 0 -50.4007
-969.164 5.54376 0 -18.5429
-957.948 5.60038 0 -19.1666
-1179.15 2.24471 0 15.9898
-1151.12 2.36374 0 14.415
-696.801 8.61699 0 -51.8137
-713.632 8.51195 0 -50.8699
-1165.13 2.30414 0 15.2039
-924.302 5.77039 0 -21.0522
-705.217 8.56453 0 -51.341
-946.733 5.65703 0 -19.7928
-935.517 5.7137 0 -20.4213
-1151.12 2.36374 0 14.415
-1123.09 2.48338 0 12.8286
-679.971 8.7216 0 -52.7644
-696.801 8.61699 0 -51.8137
-1137.11 2.42348 0 13.6232
-901.872 5.8838 0 -22.3208
-688.386 8.66935 0 -52.2882
-924.302 5.77039 0 -21.0522
-913.087 5.82709 0 -21.6854
-1123.09 2.48338 0 12.8286
-1095.07 2.60363 0 11.231
-663.142 8.82576 0 -53.7219
-679.971 8.7216 0 -52.7644
-1109.08 2.54343 0 12.0312
-879.443 5.99726 0 -23.5984
-671.557 8.77374 0 -53.2423
-901.872 5.8838 0 -22.3208
-890.658 5.94053 0 -22.9585
-1095.07 2.60363 0 11.231
-1067.04 2.72443 0 9.62241
-646.314 8.92944 0 -54.686
-663.142 8.82576 0 -53.7219
-1081.06 2.66396 0 10.4281
-857.015 6.11073 0 -24.8848
-654.728 8.87766 0 -54.2031
-879.443 5.99726 0 -23.5984
-868.229 6.05399 0 -24.2406
-1067.04 2.72443 0 9.62241
-1039.02 2.84578 0 8.00316
-629.486 9.03264 0 -55.6565
-646.314 8.92944 0 -54.686
-1053.03 2.78504 0 8.8141
-834.588 6.22419 0 -26.1798
-637.9 8.9811 0 -55.1705
-857.015 6.11073 0 -24.8848
-845.802 6.16746 0 -25.5313
-1039.02 2.84578 0 8.00316
-1011 2.96763 0 6.3735
-612.659 9.13533 0 -56.6333
-629.486 9.03264 0 -55.6565
-1025.01 2.90664 0 7.18961
-812.162 6.33763 0 -27.4831
-621.073 9.08405 0 -56.1442
-834.588 6.22419 0 -26.1798
-823.375 6.28092 0 -26.8304
-1011 2.96763 0 6.3735
-982.974 3.08996 0 4.73373
-595.833 9.23749 0 -57.6162
-612.659 9.13533 0 -56.6333
-996.985 3.02874 0 5.55486
-789.736 6.451 0 -28.7945
-604.246 9.18647 0 -57.124
-812.162 6.33763 0 -27.4831
-800.949 6.39432 0 -28.1378
-982.974 3.08996 0 4.73373
-954.952 3.21273 0 3.08411
-579.008 9.33911 0 -58.6051
-595.833 9.23749 0 -57.6162
-968.963 3.15129 0 3.91013
-767.311 6.5643 0 -30.1139
-587.421 9.28837 0 -58.1099
-789.736 6.451 0 -28.7945
-778.523 6.50766 0 -29.4532
-954.952 3.21273 0 3.08411
-926.931 3.33592 0 1.42493
-562.184 9.44016 0 -59.5997
-579.008 9.33911 0 -58.6051
-940.941 3.27427 0 2.2557
-744.887 6.67749 0 -31.4408
-570.596 9.38971 0 -59.1017
-767.311 6.5643 0 -30.1139
-756.099 6.62091 0 -30.7764
-926.931 3.33592 0 1.42493
-898.91 3.45949 0 -0.243528
-545.36 9.54063 0 -60.5999
-562.184 9.44016 0 -59.5997
-912.921 3.39766 0 0.591844
-722.463 6.79054 0 -32.7753
-553.772 9.49047 0 -60.0991
-744.887 6.67749 0 -31.4408
-733.675 6.73403 0 -32.1071
-898.91 3.45949 0 -0.243528
-870.89 3.5834 0 -1.92099
-528.537 9.64049 0 -61.6056
-545.36 9.54063 0 -60.5999
-884.9 3.5214 0 -1.08115
-700.04 6.90343 0 -34.1169
-536.948 9.59063 0 -61.1021
-722.463 6.79054 0 -32.7753
-711.252 6.84701 0 -33.4452
-870.89 3.5834 0 -1.92099
-842.871 3.70764 0 -3.60716
-511.714 9.73971 0 -62.6165
-528.537 9.64049 0 -61.6056
-856.881 3.64548 0 -2.763
-677.618 7.01613 0 -35.4655
-520.125 9.69018 0 -62.1104
-700.04 6.90343 0 -34.1169
-688.829 6.95981 0 -34.7903
-842.871 3.70764 0 -3.60716
-814.852 3.83215 0 -5.30177
-494.892 9.83828 0 -63.6325
-511.714 9.73971 0 -62.6165
-828.861 3.76986 0 -4.45343
-655.196 7.12862 0 -36.8209
-503.303 9.78908 0 -63.1239
-677.618 7.01613 0 -35.4655
-666.407 7.07241 0 -36.1424
-814.852 3.83215 0 -5.30177
-786.833 3.95691 0 -7.00453
-478.071 9.93617 0 -64.6534
-494.892 9.83828 0 -63.6325
-800.842 3.8945 0 -6.15215
-632.775 7.24085 0 -38.1828
-486.481 9.88732 0 -64.1424
-655.196 7.12862 0 -36.8209
-643.986 7.18477 0 -37.501
-786.833 3.95691 0 -7.00453
-758.815 4.08188 0 -8.71514
-461.25 10.0334 0 -65.6791
-478.071 9.93617 0 -64.6534
-772.824 4.01937 0 -7.85887
-610.355 7.35281 0 -39.551
-469.66 9.98486 0 -65.1657
-632.775 7.24085 0 -38.1828
-621.565 7.29687 0 -38.8661
-758.815 4.08188 0 -8.71514
-730.797 4.20703 0 -10.4333
-444.43 10.1298 0 -66.7093
-461.25 10.0334 0 -65.6791
-744.806 4.14444 0 -9.57331
-587.935 7.46446 0 -40.9252
-452.84 10.0817 0 -66.1936
-610.355 7.35281 0 -39.551
-599.145 7.40867 0 -40.2374
-730.797 4.20703 0 -10.4333
-702.78 4.33233 0 -12.1588
-427.61 10.2255 0 -67.7439
-444.43 10.1298 0 -66.7093
-716.788 4.26966 0 -11.2952
-565.515 7.57578 0 -42.3053
-436.02 10.1778 0 -67.226
-587.935 7.46446 0 -40.9252
-576.725 7.52016 0 -41.6146
-702.78 4.33233 0 -12.1588
-674.762 4.45774 0 -13.8913
-410.791 10.3205 0 -68.7827
-427.61 10.2255 0 -67.7439
-688.771 4.39502 0 -13.0242
-543.096 7.68675 0 -43.691
-419.201 10.2731 0 -68.2628
-565.515 7.57578 0 -42.3053
-554.305 7.63131 0 -42.9975
-674.762 4.45774 0 -13.8913
-646.746 4.58325 0 -15.6305
-393.972 10.4147 0 -69.8255
-410.791 10.3205 0 -68.7827
-660.754 4.52048 0 -14.76
-520.677 7.79737 0 -45.0821
-402.382 10.3677 0 -69.3036
-543.096 7.68675 0 -43.691
-531.886 7.7421 0 -44.3859
-646.746 4.58325 0 -15.6305
-618.729 4.70884 0 -17.3761
-377.154 10.5083 0 -70.8723
-393.972 10.4147 0 -69.8255
-632.737 4.64603 0 -16.5025
-498.259 7.90767 0 -46.4784
-385.563 10.4616 0 -70.3484
-520.677 7.79737 0 -45.0821
-509.468 7.85256 0 -45.7796
-618.729 4.70884 0 -17.3761
-590.713 4.83454 0 -19.128
-360.336 10.6012 0 -71.9228
-377.154 10.5083 0 -70.8723
-604.721 4.77168 0 -18.2513
-475.841 8.01769 0 -47.8796
-368.745 10.5548 0 -71.3971
-498.259 7.90767 0 -46.4784
-487.05 7.96271 0 -47.1784
-590.713 4.83454 0 -19.128
-562.697 4.96038 0 -20.8859
-343.519 10.6937 0 -72.9769
-360.336 10.6012 0 -71.9228
-576.705 4.89744 0 -20.0062
-453.423 8.12752 0 -49.2858
-351.927 10.6475 0 -72.4494
-475.841 8.01769 0 -47.8796
-464.632 8.07262 0 -48.5821
-562.697 4.96038 0 -20.8859
-534.681 5.0864 0 -22.6498
-326.702 10.7859 0 -74.0346
-343.519 10.6937 0 -72.9769
-548.689 5.02336 0 -21.7671
-431.006 8.23729 0 -50.6967
-335.11 10.7398 0 -73.5053
-453.423 8.12752 0 -49.2858
-442.214 8.1824 0 -49.9906
-534.681 5.0864 0 -22.6498
-506.665 5.21269 0 -24.4196
-309.886 10.878 0 -75.096
-326.702 10.7859 0 -74.0346
-520.673 5.14951 0 -23.5339
-408.589 8.3471 0 -52.1124
-318.294 10.832 0 -74.5649
-431.006 8.23729 0 -50.6967
-419.797 8.29218 0 -51.4039
-506.665 5.21269 0 -24.4196
-478.649 5.33918 0 -26.1951
-293.07 10.97 0 -76.1612
-309.886 10.878 0 -75.096
-492.657 5.27592 0 -25.3066
-386.173 8.45694 0 -53.533
-301.478 10.924 0 -75.6281
-408.589 8.3471 0 -52.1124
-397.381 8.40204 0 -52.8221
-478.649 5.33918 0 -26.1951
-450.633 5.46565 0 -27.9764
-276.256 11.0615 0 -77.2304
-293.07 10.97 0 -76.1612
-464.641 5.40245 0 -27.085
-363.757 8.56631 0 -54.9583
-284.663 11.0159 0 -76.6953
-386.173 8.45694 0 -53.533
-374.965 8.51174 0 -54.245
-450.633 5.46565 0 -27.9764
-422.617 5.59107 0 -29.7626
-259.441 11.151 0 -78.3043
-276.256 11.0615 0 -77.2304
-436.625 5.52862 0 -28.869
-341.341 8.67378 0 -56.3882
-267.849 11.1067 0 -77.7667
-363.757 8.56631 0 -54.9583
-352.549 8.62049 0 -55.6727
-422.617 5.59107 0 -29.7626
-394.599 5.71331 0 -31.5523
-242.624 11.2341 0 -79.3835
-259.441 11.151 0 -78.3043
-408.608 5.65279 0 -30.6571
-318.924 8.77533 0 -57.8213
-251.033 11.1938 0 -78.8432
-341.341 8.67378 0 -56.3882
-330.133 8.72562 0 -57.1044
-394.599 5.71331 0 -31.5523
-366.583 5.82655 0 -33.3399
-225.797 11.3026 0 -80.4699
-242.624 11.2341 0 -79.3835
-380.591 5.77165 0 -32.4469
-296.5 8.86314 0 -59.255
-234.213 11.271 0 -79.9256
-318.924 8.77533 0 -57.8213
-307.713 8.82199 0 -58.5385
-366.583 5.82655 0 -33.3399
-338.562 5.92153 0 -35.1168
-208.949 11.337 0 -81.5649
-225.797 11.3026 0 -80.4699
-352.573 5.8772 0 -34.2304
-274.062 8.91958 0 -60.6825
-217.376 11.3259 0 -81.0164
-296.5 8.86314 0 -59.255
-285.284 8.89643 0 -59.9698
-338.562 5.92153 0 -35.1168
-310.542 5.97471 0 -36.8584
-192.039 11.3096 0 -82.6747
-208.949 11.337 0 -81.5649
-324.55 5.95538 0 -35.9946
-251.587 8.91646 0 -62.0913
-200.506 11.3338 0 -82.1171
-274.062 8.91958 0 -60.6825
-262.83 8.92938 0 -61.3912
-310.542 5.97471 0 -36.8584
-282.501 5.95838 0 -38.5327
-175.026 11.1576 0 -83.8028
-192.039 11.3096 0 -82.6747
-296.528 5.97828 0 -37.7063
-229.033 8.79552 0 -63.4581
-183.546 11.2543 0 -83.2369
-251.587 8.91646 0 -62.0913
-240.324 8.87304 0 -62.7804
-282.501 5.95838 0 -38.5327
-254.457 5.79425 0 -40.054
-157.76 10.8191 0 -84.9746
-175.026 11.1576 0 -83.8028
-268.473 5.89957 0 -39.3213
-206.321 8.48502 0 -64.7453
-166.441 11.0177 0 -84.3797
-229.033 8.79552 0 -63.4581
-217.701 8.67637 0 -64.1183
-254.457 5.79425 0 -40.054
-226.289 5.43716 0 -41.3426
-140.122 10.1508 0 -86.2029
-157.76 10.8191 0 -84.9746
-240.408 5.64908 0 -40.7316
-183.287 7.84082 0 -65.9051
-148.987 10.5339 0 -85.5833
-206.321 8.48502 0 -64.7453
-194.862 8.20217 0 -65.3378
-226.289 5.43716 0 -41.3426
-198.057 4.66589 0 -42.1719
-121.674 9.14778 0 -87.5976
-140.122 10.1508 0 -86.2029
-212.159 5.10515 0 -41.8391
-159.696 6.78414 0 -66.8796
-131.053 9.69364 0 -86.8644
-183.287 7.84082 0 -65.9051
-171.569 7.39673 0 -66.4343
-198.057 4.66589 0 -42.1719
-169.186 3.59832 0 -42.481
-102.263 7.69599 0 -89.2215
-121.674 9.14778 0 -87.5976
-183.785 4.19554 0 -42.385
-135.028 5.13942 0 -67.7089
-112.064 8.45761 0 -88.3847
-159.696 6.78414 0 -66.8796
-147.565 5.98014 0 -67.2747
-169.186 3.59832 0 -42.481
-139.804 1.74508 0 -41.9325
-80.9863 6.65073 0 -91.5044
-102.263 7.69599 0 -89.2215
-154.489 2.70198 0 -42.3547
-108.79 3.40921 0 -68.5703
-91.9897 7.05981 0 -90.2242
-135.028 5.13942 0 -67.7089
-122.084 4.34085 0 -68.1755
-139.804 1.74508 0 -41.9325
-107.485 0.804015 0 -41.3307
-58.6542 7.05942 0 -94.5961
-80.9863 6.65073 0 -91.5044
-124.331 1.21608 0 -41.5304
-79.6573 2.52385 0 -70.4253
-69.7656 6.4372 0 -92.9672
-108.79 3.40921 0 -68.5703
-94.8253 2.47498 0 -69.1499
-107.485 0.804015 0 -41.3307
-72.6516 0.926011 0 -41.8812
-35.1819 14.5748 0 -99.1143
-58.6542 7.05942 0 -94.5961
-90.1698 0.0718586 0 -41.3324
-48.0541 7.94077 0 -74.9128
-47.2445 9.51518 0 -96.6027
-79.6573 2.52385 0 -70.4253
-63.8553 4.24358 0 -72.4289
-72.6516 0.926011 0 -41.8812
-29.4262 16.2644 0 -51.4605
-17.551 36.2683 0 -101.288
-35.1819 14.5748 0 -99.1143
-52.8625 6.18108 0 -44.7084
-14.886 31.6391 0 -85.1205
-24.7652 22.543 0 -101.024
-48.0541 7.94077 0 -74.9128
-32.1391 15.1656 0 -78.6411
-29.4262 16.2644 0 -51.4605
2.68495 76.4701 0 -77.4061
-6.08756 88.2642 0 -89.8277
-17.551 36.2683 0 -101.288
-10.1532 32.5101 0 -61.6403
-3.74756 99.5885 0 -88.6692
-11.5304 58.9545 0 -98.513
-14.886 31.6391 0 -85.1205
-2.98237 60.0445 0 -90.5262
2.68495 76.4701 0 -77.4061
-7.82995 287.273 0 -63.0395
0.875728 142.703 0 -41.4433
-6.08756 88.2642 0 -89.8277
6.5328 165.338 0 -85.9598
-10.5446 203.113 0 -34.4027
-1.37093 119.231 0 -71.3811
-3.74756 99.5885 0 -88.6692
-8.13328 150.822 0 -72.1465
-3002.71 -903.083 0 276.467
-3258.97 -574.57 0 -6.28702
-1063.96 -186.417 0 143.563
-1090.63 -327.029 0 431.571
-3176.84 -727.702 0 105.502
-2161.77 -380.201 0 86.0019
-1045.68 -257.833 0 272.351
-2003.09 -601.618 0 394.575
-2115.99 -507.69 0 196.278
-3258.97 -574.57 0 -6.28702
-3319.92 -255.826 0 -92.616
-1120.18 -116.928 0 -28.2548
-1063.96 -186.417 0 143.563
-3286.14 -403.449 0 -62.3331
-2212.43 -202.344 0 -50.9051
-1107.46 -147.789 0 42.4691
-2161.77 -380.201 0 86.0019
-2184.63 -277.178 0 11.7394
-3319.92 -255.826 0 -92.616
-3350.88 -95.7974 0 -107.443
-1123.8 -53.5319 0 -105.648
-1120.18 -116.928 0 -28.2548
-3349.69 -159.506 0 -106.925
-2238.63 -86.6623 0 -108.842
-1118.04 -81.912 0 -75.0021
-2212.43 -202.344 0 -50.9051
-2232.85 -138.844 0 -91.2247
-3350.88 -95.7974 0 -107.443
-3325.22 -22.1327 0 -96.8825
-1126.77 -24.2411 0 -132.78
-1123.8 -53.5319 0 -105.648
-3336.84 -50.0873 0 -101.622
-2231.47 -29.9408 0 -120.568
-1130.19 -36.3224 0 -123.94
-2238.63 -86.6623 0 -108.842
-2236.81 -51.6438 0 -116.359
-3325.22 -22.1327 0 -96.8825
-3295.4 -1.09042 0 -89.2475
-1114.67 -9.20108 0 -135.074
-1126.77 -24.2411 0 -132.78
-3312.77 -8.04701 0 -93.078
-2211.05 -6.22258 0 -117.292
-1119.26 -14.6589 0 -135.47
-2231.47 -29.9408 0 -120.568
-2222.46 -15.3239 0 -120.47
-3295.4 -1.09042 0 -89.2475
-3261.11 3.81105 0 -83.5662
-1104.54 -6.66594 0 -129.529
-1114.67 -9.20108 0 -135.074
-3276.59 2.88713 0 -85.7987
-2187.73 -0.997234 0 -110.887
-1110.7 -7.29145 0 -132.801
-2211.05 -6.22258 0 -117.292
-2199 -2.01387 0 -113.732
-3261.11 3.81105 0 -83.5662
-3233.48 0.964077 0 -80.5752
-1092.71 -6.71193 0 -122.558
-1104.54 -6.66594 0 -129.529
-3247.33 2.67142 0 -82.0188
-2166.72 -1.84699 0 -105.054
-1097.85 -6.33661 0 -125.912
-2187.73 -0.997234 0 -110.887
-2176.91 -1.09084 0 -107.992
-3233.48 0.964077 0 -80.5752
-3208.58 -2.30115 0 -78.2239
-1083.64 -8.38794 0 -116.899
-1092.71 -6.71193 0 -122.558
-3220.25 -0.630694 0 -79.2663
-2148.71 -4.5964 0 -100.587
-1088.28 -7.57548 0 -119.541
-2166.72 -1.84699 0 -105.054
-2157.3 -3.12686 0 -102.556
-3208.58 -2.30115 0 -78.2239
-3187.43 -5.28362 0 -76.3869
-1075.3 -9.57211 0 -112.789
-1083.64 -8.38794 0 -116.899
-3197.86 -3.93603 0 -77.3126
-2133.27 -6.94855 0 -97.2895
-1079.15 -8.99961 0 -114.64
-2148.71 -4.5964 0 -100.587
-2140.73 -5.87689 0 -98.854
-3187.43 -5.28362 0 -76.3869
-3167.91 -7.14909 0 -74.5803
-1068.32 -10.4721 0 -110.024
-1075.3 -9.57211 0 -112.789
-3177.4 -6.31707 0 -75.4651
-2119.6 -8.61609 0 -94.8493
-1071.79 -10.0952 0 -111.272
-2133.27 -6.94855 0 -97.2895
-2126.26 -7.86785 0 -95.9629
-3167.91 -7.14909 0 -74.5803
-3149.74 -8.28541 0 -72.8252
-1061.82 -10.8762 0 -108.159
-1068.32 -10.4721 0 -110.024
-3158.76 -7.8117 0 -73.7096
-2107.03 -9.56199 0 -92.9437
-1064.97 -10.7119 0 -108.999
-2119.6 -8.61609 0 -94.8493
-2113.22 -9.17015 0 -93.8542
-3149.74 -8.28541 0 -72.8252
-3132.15 -8.82328 0 -71.0529
-1055.79 -11.0171 0 -106.871
-1061.82 -10.8762 0 -108.159
-3140.87 -8.60666 0 -71.9363
-2095.09 -10.0182 0 -91.3718
-1058.79 -10.9814 0 -107.462
-2107.03 -9.56199 0 -92.9437
-2101 -9.83913 0 -92.1221
-3132.15 -8.82328 0 -71.0529
-3114.94 -9.02873 0 -69.2924
-1049.93 -10.9481 0 -105.917
-1055.79 -11.0171 0 -106.871
-3123.53 -8.96164 0 -70.1729
-2083.48 -10.1475 0 -89.9907
-1052.83 -10.9989 0 -106.363
-2095.09 -10.0182 0 -91.3718
-2089.26 -10.1149 0 -90.6654
-3114.94 -9.02873 0 -69.2924
-3097.89 -9.02468 0 -67.5433
-1044.18 -10.7775 0 -105.154
-1049.93 -10.9481 0 -105.917
-3106.4 -9.04422 0 -68.4149
-2072.05 -10.0923 0 -88.7246
-1047.05 -10.874 0 -105.518
-2083.48 -10.1475 0 -89.9907
-2077.75 -10.1369 0 -89.3459
-3097.89 -9.02468 0 -67.5433
-3080.92 -8.91728 0 -65.8183
-1038.48 -10.545 0 -104.493
-1044.18 -10.7775 0 -105.154
-3089.4 -8.98095 0 -66.6778
-2060.69 -9.93499 0 -87.5265
-1041.33 -10.6657 0 -104.814
-2072.05 -10.0923 0 -88.7246
-2066.36 -10.0228 0 -88.1193
-3080.92 -8.91728 0 -65.8183
-3063.97 -8.75545 0 -64.1208
-1032.79 -10.2874 0 -103.89
-1038.48 -10.545 0 -104.493
-3072.44 -8.8405 0 -64.9657
-2049.36 -9.72852 0 -86.3738
-1035.64 -10.4185 0 -104.186
-2060.69 -9.93499 0 -87.5265
-2055.02 -9.83582 0 -86.9453
-3063.97 -8.75545 0 -64.1208
-3047.04 -8.57178 0 -62.4542
-1027.11 -10.0189 0 -103.318
-1032.79 -10.2874 0 -103.89
-3055.51 -8.66543 0 -63.2836
-2038.05 -9.50041 0 -85.2535
-1029.95 -10.1536 0 -103.601
-2049.36 -9.72852 0 -86.3738
-2043.71 -9.61609 0 -85.8102
-3047.04 -8.57178 0 -62.4542
-3030.11 -8.3802 0 -60.8193
-1021.43 -9.74929 0 -102.767
-1027.11 -10.0189 0 -103.318
-3038.57 -8.47633 0 -61.6327
-2026.73 -9.26549 0 -84.1596
-1024.27 -9.88404 0 -103.041
-2038.05 -9.50041 0 -85.2535
-2032.39 -9.38327 0 -84.7034
-3030.11 -8.3802 0 -60.8193
-3013.17 -8.18846 0 -59.2165
-1015.74 -9.48176 0 -102.23
-1021.43 -9.74929 0 -102.767
-3021.64 -8.28416 0 -60.0139
-2015.42 -9.03048 0 -83.0889
-1018.59 -9.6151 0 -102.497
-2026.73 -9.26549 0 -84.1596
-2021.08 -9.14777 0 -83.6215
-3013.17 -8.18846 0 -59.2165
-2996.24 -7.99925 0 -57.6452
-1010.06 -9.21793 0 -101.704
-1015.74 -9.48176 0 -102.23
-3004.71 -8.09343 0 -58.4269
-2004.1 -8.79823 0 -82.0398
-1012.9 -9.34938 0 -101.965
-2015.42 -9.03048 0 -83.0889
-2009.76 -8.91393 0 -82.5617
-2996.24 -7.99925 0 -57.6452
-2979.3 -7.81364 0 -56.1051
-1004.37 -8.95789 0 -101.188
-1010.06 -9.21793 0 -101.704
-2987.77 -7.90599 0 -56.8713
-1992.78 -8.56962 0 -81.0116
-1007.21 -9.08744 0 -101.445
-2004.1 -8.79823 0 -82.0398
-1998.44 -8.68346 0 -81.5232
-2979.3 -7.81364 0 -56.1051
-2962.36 -7.63167 0 -54.5957
-998.675 -8.70141 0 -100.683
-1004.37 -8.95789 0 -101.188
-2970.83 -7.7222 0 -55.3466
-1981.45 -8.34466 0 -80.0038
-1001.52 -8.82923 0 -100.934
-1992.78 -8.56962 0 -81.0116
-1987.12 -8.4567 0 -80.5052
-2962.36 -7.63167 0 -54.5957
-2945.41 -7.45311 0 -53.1163
-992.983 -8.44809 0 -100.187
-998.675 -8.70141 0 -100.683
-2953.88 -7.54198 0 -53.8523
-1970.13 -8.12306 0 -79.0159
-995.829 -8.57438 0 -100.434
-1981.45 -8.34466 0 -80.0038
-1975.79 -8.23346 0 -79.5074
-2945.41 -7.45311 0 -53.1163
-2928.47 -7.27764 0 -51.6668
-987.29 -8.19756 0 -99.7011
-992.983 -8.44809 0 -100.187
-2936.94 -7.36501 0 -52.3879
-1958.8 -7.90448 0 -78.0478
-990.137 -8.3225 0 -99.9429
-1970.13 -8.12306 0 -79.0159
-1964.47 -8.01341 0 -78.5294
-2928.47 -7.27764 0 -51.6668
-2911.52 -7.10499 0 -50.2466
-981.597 -7.9495 0 -99.2247
-987.29 -8.19756 0 -99.7011
-2919.99 -7.19098 0 -50.9531
-1947.48 -7.6886 0 -77.0992
-984.444 -8.07324 0 -99.4617
-1958.8 -7.90448 0 -78.0478
-1953.14 -7.79622 0 -77.5711
-2911.52 -7.10499 0 -50.2466
-2894.57 -6.9349 0 -48.8556
-975.904 -7.70367 0 -98.7579
-981.597 -7.9495 0 -99.2247
-2903.05 -7.01964 0 -49.5475
-1936.15 -7.47519 0 -76.17
-978.75 -7.82632 0 -98.9901
-1947.48 -7.6886 0 -77.0992
-1941.81 -7.5816 0 -76.6322
-2894.57 -6.9349 0 -48.8556
-2877.62 -6.76722 0 -47.4935
-970.21 -7.45991 0 -98.3007
-975.904 -7.70367 0 -98.7579
-2886.1 -6.85077 0 -48.171
-1924.82 -7.26405 0 -75.26
-973.057 -7.58154 0 -98.5281
-1936.15 -7.47519 0 -76.17
-1930.48 -7.36935 0 -75.7126
-2877.62 -6.76722 0 -47.4935
-2860.68 -6.60178 0 -46.1601
-964.517 -7.2181 0 -97.8529
-970.21 -7.45991 0 -98.3007
-2869.15 -6.68422 0 -46.8232
-1913.49 -7.05506 0 -74.3691
-967.364 -7.33877 0 -98.0756
-1924.82 -7.26405 0 -75.26
-1919.16 -7.15929 0 -74.8122
-2860.68 -6.60178 0 -46.1601
-2843.73 -6.4385 0 -44.8551
-958.824 -6.97816 0 -97.4145
-964.517 -7.2181 0 -97.8529
-2852.2 -6.51988 0 -45.504
-1902.16 -6.84811 0 -73.4972
-961.67 -7.0979 0 -97.6325
-1913.49 -7.05506 0 -74.3691
-1907.83 -6.95133 0 -73.9308
-2843.73 -6.4385 0 -44.8551
-2826.77 -6.27728 0 -43.5785
-953.13 -6.74002 0 -96.9855
-958.824 -6.97816 0 -97.4145
-2835.25 -6.35763 0 -44.2133
-1890.83 -6.64312 0 -72.6441
-955.977 -6.85887 0 -97.1989
-1902.16 -6.84811 0 -73.4972
-1896.5 -6.74537 0 -73.0683
-2826.77 -6.27728 0 -43.5785
-2809.82 -6.11804 0 -42.33
-947.437 -6.50366 0 -96.5659
-953.13 -6.74002 0 -96.9855
-2818.3 -6.19742 0 -42.9507
-1879.51 -6.44006 0 -71.8097
-950.284 -6.62162 0 -96.7745
-1890.83 -6.64312 0 -72.6441
-1885.17 -6.54135 0 -72.2245
-2809.82 -6.11804 0 -42.33
-2792.87 -5.96074 0 -41.1094
-941.744 -6.26903 0 -96.1555
-947.437 -6.50366 0 -96.5659
-2801.35 -6.03916 0 -41.7162
-1868.18 -6.23886 0 -70.994
-944.591 -6.38613 0 -96.3595
-1879.51 -6.44006 0 -71.8097
-1873.84 -6.33923 0 -71.3995
-2792.87 -5.96074 0 -41.1094
-2775.92 -5.80531 0 -39.9167
-936.051 -6.03613 0 -95.7543
-941.744 -6.26903 0 -96.1555
-2784.4 -5.88279 0 -40.5096
-1856.85 -6.03948 0 -70.1967
-938.898 -6.15237 0 -95.9537
-1868.18 -6.23886 0 -70.994
-1862.51 -6.13894 0 -70.5931
-2775.92 -5.80531 0 -39.9167
-2758.97 -5.65169 0 -38.7516
-930.358 -5.80493 0 -95.3622
-936.051 -6.03613 0 -95.7543
-2767.44 -5.72827 0 -39.3307
-1845.52 -5.84189 0 -69.4179
-933.205 -5.92032 0 -95.5571
-1856.85 -6.03948 0 -70.1967
-1851.18 -5.94047 0 -69.805
-2758.97 -5.65169 0 -38.7516
-2742.01 -5.49983 0 -37.614
-924.665 -5.57541 0 -94.9793
-930.358 -5.80493 0 -95.3622
-2750.49 -5.57554 0 -38.1794
-1834.19 -5.64606 0 -68.6574
-927.512 -5.68996 0 -95.1696
-1845.52 -5.84189 0 -69.4179
-1839.85 -5.74376 0 -69.0354
-2742.01 -5.49983 0 -37.614
-2725.06 -5.34969 0 -36.5037
-918.973 -5.34756 0 -94.6054
-924.665 -5.57541 0 -94.9793
-2733.54 -5.42455 0 -37.0555
-1822.86 -5.45196 0 -67.9151
-921.819 -5.46128 0 -94.7912
-1834.19 -5.64606 0 -68.6574
-1828.52 -5.5488 0 -68.284
-2725.06 -5.34969 0 -36.5037
-2708.11 -5.2012 0 -35.4206
-913.28 -5.12137 0 -94.2405
-918.973 -5.34756 0 -94.6054
-2716.58 -5.27524 0 -35.9588
-1811.53 -5.25954 0 -67.1908
-916.126 -5.23426 0 -94.4218
-1822.86 -5.45196 0 -67.9151
-1817.19 -5.35554 0 -67.5507
-2708.11 -5.2012 0 -35.4206
-2691.15 -5.05433 0 -34.3644
-907.588 -4.89681 0 -93.8846
-913.28 -5.12137 0 -94.2405
-2699.63 -5.12757 0 -34.8891
-1800.2 -5.06878 0 -66.4845
-910.434 -5.00888 0 -94.0614
-1811.53 -5.25954 0 -67.1908
-1805.86 -5.16395 0 -66.8354
-2691.15 -5.05433 0 -34.3644
-2674.2 -4.90903 0 -33.335
-901.896 -4.67388 0 -93.5375
-907.588 -4.89681 0 -93.8846
-2682.67 -4.98149 0 -33.8464
-1788.87 -4.87964 0 -65.7961
-904.742 -4.78514 0 -93.7099
-1800.2 -5.06878 0 -66.4845
-1794.53 -4.97401 0 -66.1381
-2674.2 -4.90903 0 -33.335
-2657.24 -4.76523 0 -32.3323
-896.204 -4.45256 0 -93.1993
-901.896 -4.67388 0 -93.5375
-2665.72 -4.83694 0 -32.8304
-1777.54 -4.6921 0 -65.1254
-899.05 -4.56302 0 -93.3673
-1788.87 -4.87964 0 -65.7961
-1783.2 -4.78567 0 -65.4585
-2657.24 -4.76523 0 -32.3323
-2640.29 -4.62291 0 -31.3561
-890.512 -4.23283 0 -92.8699
-896.204 -4.45256 0 -93.1993
-2648.77 -4.69389 0 -31.8409
-1766.21 -4.50612 0 -64.4724
-893.358 -4.3425 0 -93.0335
-1777.54 -4.6921 0 -65.1254
-1771.87 -4.59892 0 -64.7967
-2640.29 -4.62291 0 -31.3561
-2623.33 -4.48201 0 -30.4062
-884.82 -4.01468 0 -92.5492
-890.512 -4.23283 0 -92.8699
-2631.81 -4.55229 0 -30.8779
-1754.88 -4.32167 0 -63.8368
-887.666 -4.12356 0 -92.7084
-1766.21 -4.50612 0 -64.4724
-1760.54 -4.41371 0 -64.1524
-2623.33 -4.48201 0 -30.4062
-2606.38 -4.34249 0 -29.4824
-879.129 -3.7981 0 -92.2371
-884.82 -4.01468 0 -92.5492
-2614.86 -4.41208 0 -29.9411
-1743.55 -4.13873 0 -63.2187
-881.975 -3.9062 0 -92.3921
-1754.88 -4.32167 0 -63.8368
-1749.21 -4.23002 0 -63.5256
-2606.38 -4.34249 0 -29.4824
-2589.42 -4.20429 0 -28.5846
-873.438 -3.58306 0 -91.9337
-879.129 -3.7981 0 -92.2371
-2597.9 -4.27323 0 -29.0303
-1732.22 -3.95726 0 -62.6179
-876.284 -3.69039 0 -92.0843
-1743.55 -4.13873 0 -63.2187
-1737.88 -4.04781 0 -62.9162
-2589.42 -4.20429 0 -28.5846
-2572.47 -4.06738 0 -27.7127
-867.747 -3.36956 0 -91.6388
-873.438 -3.58306 0 -91.9337
-2580.95 -4.13568 0 -28.1454
-1720.89 -3.77723 0 -62.0343
-870.593 -3.47612 0 -91.7852
-1732.22 -3.95726 0 -62.6179
-1726.56 -3.86706 0 -62.324
-2572.47 -4.06738 0 -27.7127
-2555.52 -3.93172 0 -26.8663
-862.057 -3.15758 0 -91.3525
-867.747 -3.36956 0 -91.6388
-2563.99 -3.9994 0 -27.2863
-1709.56 -3.59861 0 -61.4678
-864.902 -3.26338 0 -91.4946
-1720.89 -3.77723 0 -62.0343
-1715.23 -3.68774 0 -61.7489
-2555.52 -3.93172 0 -26.8663
-2538.56 -3.79726 0 -26.0454
-856.367 -2.94711 0 -91.0746
-862.057 -3.15758 0 -91.3525
-2547.04 -3.86434 0 -26.4527
-1698.23 -3.42138 0 -60.9182
-859.212 -3.05216 0 -91.2125
-1709.56 -3.59861 0 -61.4678
-1703.9 -3.50982 0 -61.1909
-2538.56 -3.79726 0 -26.0454
-2521.61 -3.66395 0 -25.2499
-850.677 -2.73813 0 -90.8051
-856.367 -2.94711 0 -91.0746
-2530.08 -3.73046 0 -25.6445
-1686.91 -3.24551 0 -60.3855
-853.522 -2.84243 0 -90.9388
-1698.23 -3.42138 0 -60.9182
-1692.57 -3.33327 0 -60.6497
-2521.61 -3.66395 0 -25.2499
-2504.65 -3.53176 0 -24.4794
-844.988 -2.53063 0 -90.5439
-850.677 -2.73813 0 -90.8051
-2513.13 -3.59772 0 -24.8615
-1675.58 -3.07096 0 -59.8695
-847.832 -2.63419 0 -90.6735
-1686.91 -3.24551 0 -60.3855
-1681.24 -3.15807 0 -60.1254
-2504.65 -3.53176 0 -24.4794
-2487.7 -3.40065 0 -23.7339
-839.299 -2.32459 0 -90.2911
-844.988 -2.53063 0 -90.5439
-2496.18 -3.46608 0 -24.1036
-1664.25 -2.89772 0 -59.3701
-842.143 -2.42743 0 -90.4165
-1675.58 -3.07096 0 -59.8695
-1669.91 -2.98418 0 -59.6177
-2487.7 -3.40065 0 -23.7339
-2470.75 -3.27058 0 -23.0133
-833.61 -2.12001 0 -90.0464
-839.299 -2.32459 0 -90.2911
-2479.22 -3.33549 0 -23.3705
-1652.92 -2.72576 0 -58.8873
-836.454 -2.22212 0 -90.1677
-1664.25 -2.89772 0 -59.3701
-1658.59 -2.81158 0 -59.1267
-2470.75 -3.27058 0 -23.0133
-2453.79 -3.14151 0 -22.3172
-827.922 -1.91686 0 -89.81
-833.61 -2.12001 0 -90.0464
-2462.27 -3.20592 0 -22.6622
-1641.6 -2.55504 0 -58.4209
-830.766 -2.01825 0 -89.9272
-1652.92 -2.72576 0 -58.8873
-1647.26 -2.64025 0 -58.6521
-2453.79 -3.14151 0 -22.3172
-2436.84 -3.0134 0 -21.6456
-822.234 -1.71514 0 -89.5817
-827.922 -1.91686 0 -89.81
-2445.32 -3.07734 0 -21.9784
-1630.27 -2.38556 0 -57.9708
-825.078 -1.81582 0 -89.6948
-1641.6 -2.55504 0 -58.4209
-1635.93 -2.47015 0 -58.1938
-2436.84 -3.0134 0 -21.6456
-2419.89 -2.88621 0 -20.9983
-816.546 -1.51484 0 -89.3614
-822.234 -1.71514 0 -89.5817
-2428.37 -2.94969 0 -21.3189
-1618.95 -2.21727 0 -57.5368
-819.39 -1.61481 0 -89.4705
-1630.27 -2.38556 0 -57.9708
-1624.61 -2.30127 0 -57.7518
-2419.89 -2.88621 0 -20.9983
-2402.94 -2.75992 0 -20.3751
-810.859 -1.31594 0 -89.1492
-816.546 -1.51484 0 -89.3614
-2411.41 -2.82296 0 -20.6837
-1607.62 -2.05017 0 -57.119
-813.703 -1.41521 0 -89.2543
-1618.95 -2.21727 0 -57.5368
-1613.28 -2.13357 0 -57.3259
-2402.94 -2.75992 0 -20.3751
-2385.99 -2.63448 0 -19.7759
-805.173 -1.11843 0 -88.9449
-810.859 -1.31594 0 -89.1492
-2394.46 -2.69709 0 -20.0725
-1596.3 -1.88421 0 -56.7171
-808.016 -1.21701 0 -89.046
-1607.62 -2.05017 0 -57.119
-1601.96 -1.96705 0 -56.916
-2385.99 -2.63448 0 -19.7759
-2369.04 -2.50985 0 -19.2005
-799.486 -0.922296 0 -88.7485
-805.173 -1.11843 0 -88.9449
-2377.51 -2.57206 0 -19.4852
-1584.97 -1.71939 0 -56.331
-802.329 -1.02019 0 -88.8457
-1596.3 -1.88421 0 -56.7171
-1590.63 -1.80166 0 -56.5221
-2369.04 -2.50985 0 -19.2005
-2352.09 -2.38602 0 -18.6487
-793.801 -0.727532 0 -88.56
-799.486 -0.922296 0 -88.7485
-2360.56 -2.44784 0 -18.9216
-1573.65 -1.55568 0 -55.9607
-796.643 -0.824744 0 -88.6532
-1584.97 -1.71939 0 -56.331
-1579.31 -1.6374 0 -56.1439
-2352.09 -2.38602 0 -18.6487
-2335.14 -2.26293 0 -18.1203
-788.115 -0.534126 0 -88.3792
-793.801 -0.727532 0 -88.56
-2343.61 -2.32438 0 -18.3815
-1562.33 -1.39305 0 -55.606
-790.958 -0.63066 0 -88.4686
-1573.65 -1.55568 0 -55.9607
-1567.99 -1.47423 0 -55.7814
-2335.14 -2.26293 0 -18.1203
-2318.19 -2.14057 0 -17.6152
-782.431 -0.342065 0 -88.2062
-788.115 -0.534126 0 -88.3792
-2326.67 -2.20166 0 -17.8648
-1551 -1.23149 0 -55.2668
-785.273 -0.437928 0 -88.2917
-1562.33 -1.39305 0 -55.606
-1556.67 -1.31214 0 -55.4345
-2318.19 -2.14057 0 -17.6152
-2301.24 -2.01889 0 -17.1332
-776.746 -0.151341 0 -88.0409
-782.431 -0.342065 0 -88.2062
-2309.72 -2.07965 0 -17.3713
-1539.68 -1.07097 0 -54.943
-779.588 -0.246537 0 -88.1226
-1551 -1.23149 0 -55.2668
-1545.34 -1.1511 0 -55.103
-2301.24 -2.01889 0 -17.1332
-2284.3 -1.89788 0 -16.6741
-771.062 0.0380584 0 -87.8832
-776.746 -0.151341 0 -88.0409
-2292.77 -1.95831 0 -16.9008
-1528.36 -0.911474 0 -54.6345
-773.904 -0.0564761 0 -87.9611
-1539.68 -1.07097 0 -54.943
-1534.02 -0.991094 0 -54.7869
-2284.3 -1.89788 0 -16.6741
-2267.35 -1.77749 0 -16.2378
-765.379 0.226142 0 -87.7331
-771.062 0.0380584 0 -87.8832
-2275.83 -1.83761 0 -16.4531
-1517.04 -0.752983 0 -54.3412
-768.221 0.132264 0 -87.8072
-1528.36 -0.911474 0 -54.6345
-1522.7 -0.832104 0 -54.486
-2267.35 -1.77749 0 -16.2378
-2250.41 -1.6577 0 -15.8242
-759.696 0.41292 0 -87.5905
-765.379 0.226142 0 -87.7331
-2258.88 -1.71752 0 -16.0282
-1505.72 -0.595477 0 -54.0629
-762.538 0.319694 0 -87.6608
-1517.04 -0.752983 0 -54.3412
-1511.38 -0.674108 0 -54.2002
-2250.41 -1.6577 0 -15.8242
-2233.46 -1.53849 0 -15.4329
-754.014 0.598402 0 -87.4553
-759.696 0.41292 0 -87.5905
-2241.94 -1.59803 0 -15.6257
-1494.4 -0.438937 0 -53.7996
-756.855 0.505822 0 -87.522
-1505.72 -0.595477 0 -54.0629
-1500.06 -0.517087 0 -53.9294
-2233.46 -1.53849 0 -15.4329
-2216.52 -1.41982 0 -15.0639
-748.333 0.782596 0 -87.3276
-754.014 0.598402 0 -87.4553
-2224.99 -1.47909 0 -15.2456
-1483.09 -0.283344 0 -53.5512
-751.173 0.690659 0 -87.3905
-1494.4 -0.438937 0 -53.7996
-1488.75 -0.361023 0 -53.6735
-2216.52 -1.41982 0 -15.0639
-2199.58 -1.30166 0 -14.717
-742.651 0.965513 0 -87.2072
-748.333 0.782596 0 -87.3276
-2208.05 -1.36068 0 -14.8877
-1471.77 -0.12868 0 -53.3174
-745.492 0.874214 0 -87.2665
-1483.09 -0.283344 0 -53.5512
-1477.43 -0.205897 0 -53.4324
-2199.58 -1.30166 0 -14.717
-2182.64 -1.184 0 -14.3921
-736.971 1.14716 0 -87.0941
-742.651 0.965513 0 -87.2072
-2191.11 -1.24277 0 -14.5518
-1460.45 0.0250718 0 -53.0983
-739.811 1.05649 0 -87.1498
-1471.77 -0.12868 0 -53.3174
-1466.11 -0.0516911 0 -53.206
-2182.64 -1.184 0 -14.3921
-2165.7 -1.06681 0 -14.0888
-731.291 1.32755 0 -86.9883
-736.971 1.14716 0 -87.0941
-2174.17 -1.12535 0 -14.2377
-1449.14 0.177928 0 -52.8937
-734.131 1.23751 0 -87.0403
-1460.45 0.0250718 0 -53.0983
-1454.8 0.101611 0 -52.9942
-2165.7 -1.06681 0 -14.0888
-2148.76 -0.950051 0 -13.8072
-725.612 1.50668 0 -86.8896
-731.291 1.32755 0 -86.9883
-2157.23 -1.00837 0 -13.9453
-1437.82 0.329907 0 -52.7034
-728.451 1.41727 0 -86.9381
-1449.14 0.177928 0 -52.8937
-1443.48 0.254026 0 -52.7967
-2148.76 -0.950051 0 -13.8072
-2131.82 -0.833713 0 -13.547
-719.933 1.68457 0 -86.7981
-725.612 1.50668 0 -86.8896
-2140.29 -0.891831 0 -13.6744
-1426.51 0.481022 0 -52.5275
-722.772 1.59578 0 -86.843
-1437.82 0.329907 0 -52.7034
-1432.17 0.405571 0 -52.6137
-2131.82 -0.833713 0 -13.547
-2114.88 -0.71777 0 -13.308
-714.255 1.86122 0 -86.7137
-719.933 1.68457 0 -86.7981
-2123.35 -0.775693 0 -13.4249
-1415.2 0.63129 0 -52.3657
-717.094 1.77305 0 -86.755
-1426.51 0.481022 0 -52.5275
-1420.85 0.556261 0 -52.4448
-2114.88 -0.71777 0 -13.308
-2097.94 -0.602198 0 -13.0902
-708.577 2.03664 0 -86.6362
-714.255 1.86122 0 -86.7137
-2106.41 -0.659939 0 -13.1965
-1403.88 0.780726 0 -52.2179
-711.416 1.94909 0 -86.6741
-1415.2 0.63129 0 -52.3657
-1409.54 0.706111 0 -52.29
-2097.94 -0.602198 0 -13.0902
-2081.01 -0.486977 0 -12.8932
-702.9 2.21085 0 -86.5658
-708.577 2.03664 0 -86.6362
-2089.48 -0.544545 0 -12.9891
-1392.57 0.929345 0 -52.0841
-705.738 2.1239 0 -86.6001
-1403.88 0.780726 0 -52.2179
-1398.23 0.855137 0 -52.1493
-2081.01 -0.486977 0 -12.8932
-2064.07 -0.372085 0 -12.717
-697.224 2.38383 0 -86.5022
-702.9 2.21085 0 -86.5658
-2072.54 -0.429491 0 -12.8025
-1381.26 1.07716 0 -51.9641
-700.062 2.29749 0 -86.5331
-1392.57 0.929345 0 -52.0841
-1386.92 1.00335 0 -52.0224
-2064.07 -0.372085 0 -12.717
-2047.14 -0.257501 0 -12.5613
-691.548 2.55561 0 -86.4455
-697.224 2.38383 0 -86.5022
-2055.61 -0.314756 0 -12.6366
-1369.95 1.22418 0 -51.8579
-694.386 2.46987 0 -86.473
-1381.26 1.07716 0 -51.9641
-1375.61 1.15077 0 -51.9093
-2047.14 -0.257501 0 -12.5613
-2030.21 -0.143207 0 -12.426
-685.873 2.72619 0 -86.3956
-691.548 2.55561 0 -86.4455
-2038.68 -0.200319 0 -12.4911
-1358.64 1.37043 0 -51.7652
-688.71 2.64105 0 -86.4197
-1369.95 1.22418 0 -51.8579
-1364.3 1.2974 0 -51.8099
-2030.21 -0.143207 0 -12.426
-2013.28 -0.0291824 0 -12.311
-680.198 2.89557 0 -86.3525
-685.873 2.72619 0 -86.3956
-2021.74 -0.0861621 0 -12.366
-1347.34 1.51592 0 -51.6861
-683.036 2.81103 0 -86.3732
-1358.64 1.37043 0 -51.7652
-1352.99 1.44327 0 -51.724
-2013.28 -0.0291824 0 -12.311
-1996.35 0.0845904 0 -12.2161
-674.525 3.06376 0 -86.316
-680.198 2.89557 0 -86.3525
-2004.81 0.0277344 0 -12.261
-1336.03 1.66065 0 -51.6203
-677.362 2.97982 0 -86.3334
-1347.34 1.51592 0 -51.6861
-1341.68 1.58838 0 -51.6515
-1996.35 0.0845904 0 -12.2161
-1979.42 0.198129 0 -12.141
-668.852 3.23077 0 -86.2862
-674.525 3.06376 0 -86.316
-1987.89 0.141388 0 -12.1761
-1324.72 1.80464 0 -51.5678
-671.688 3.14742 0 -86.3002
-1336.03 1.66065 0 -51.6203
-1330.38 1.73274 0 -51.5924
-1979.42 0.198129 0 -12.141
-1962.49 0.311451 0 -12.0857
-663.179 3.39661 0 -86.2629
-668.852 3.23077 0 -86.2862
-1970.96 0.254816 0 -12.1109
-1313.42 1.94791 0 -51.5284
-666.015 3.31384 0 -86.2737
-1324.72 1.80464 0 -51.5678
-1319.07 1.87636 0 -51.5465
-1962.49 0.311451 0 -12.0857
-1945.57 0.424572 0 -12.0499
-657.507 3.56127 0 -86.2462
-663.179 3.39661 0 -86.2629
-1954.03 0.368036 0 -12.0653
-1302.12 2.09045 0 -51.5021
-660.343 3.47909 0 -86.2537
-1313.42 1.94791 0 -51.5284
-1307.77 2.01927 0 -51.5136
-1945.57 0.424572 0 -12.0499
-1928.64 0.537508 0 -12.0335
-651.836 3.72477 0 -86.2359
-657.507 3.56127 0 -86.2462
-1937.11 0.481062 0 -12.0393
-1290.81 2.23229 0 -51.4887
-654.672 3.64316 0 -86.2402
-1302.12 2.09045 0 -51.5021
-1296.47 2.16146 0 -51.4938
-1928.64 0.537508 0 -12.0335
-1911.72 0.650274 0 -12.0363
-646.166 3.8871 0 -86.232
-651.836 3.72477 0 -86.2359
-1920.18 0.593911 0 -12.0325
-1279.51 2.37343 0 -51.4882
-649.001 3.80608 0 -86.2332
-1290.81 2.23229 0 -51.4887
-1285.16 2.30295 0 -51.4868
-1911.72 0.650274 0 -12.0363
-1894.8 0.762885 0 -12.0582
-640.496 4.04828 0 -86.2345
-646.166 3.8871 0 -86.232
-1903.26 0.706598 0 -12.0449
-1268.21 2.51389 0 -51.5003
-643.331 3.96784 0 -86.2325
-1279.51 2.37343 0 -51.4882
-1273.86 2.44374 0 -51.4926
-1894.8 0.762885 0 -12.0582
-1877.88 0.875354 0 -12.099
-634.827 4.20831 0 -86.2433
-640.496 4.04828 0 -86.2345
-1886.34 0.819136 0 -12.0762
-1256.91 2.65366 0 -51.525
-637.661 4.12844 0 -86.2382
-1268.21 2.51389 0 -51.5003
-1262.56 2.58386 0 -51.5111
-1877.88 0.875354 0 -12.099
-1860.96 0.987694 0 -12.1584
-629.158 4.36719 0 -86.2584
-634.827 4.20831 0 -86.2433
-1869.42 0.931539 0 -12.1264
-1245.61 2.79277 0 -51.5622
-631.992 4.28789 0 -86.2501
-1256.91 2.65366 0 -51.525
-1251.26 2.7233 0 -51.5421
-1860.96 0.987694 0 -12.1584
-1844.04 1.09992 0 -12.2364
-623.491 4.52493 0 -86.2796
-629.158 4.36719 0 -86.2584
-1852.5 1.04382 0 -12.1951
-1234.32 2.93121 0 -51.6118
-626.324 4.4462 0 -86.2682
-1245.61 2.79277 0 -51.5622
-1239.97 2.86207 0 -51.5855
-1844.04 1.09992 0 -12.2364
-1827.12 1.21204 0 -12.3328
-617.824 4.68153 0 -86.307
-623.491 4.52493 0 -86.2796
-1835.58 1.15599 0 -12.2824
-1223.02 3.06901 0 -51.6737
-620.657 4.60337 0 -86.2926
-1234.32 2.93121 0 -51.6118
-1228.67 3.00019 0 -51.6412
-1827.12 1.21204 0 -12.3328
-1810.21 1.32406 0 -12.4474
-612.157 4.83699 0 -86.3405
-617.824 4.68153 0 -86.307
-1818.67 1.26806 0 -12.3879
-1211.72 3.20615 0 -51.7476
-614.99 4.7594 0 -86.323
-1223.02 3.06901 0 -51.6737
-1217.37 3.13766 0 -51.7091
-1810.21 1.32406 0 -12.4474
-1793.29 1.43601 0 -12.5801
-606.492 4.99133 0 -86.3799
-612.157 4.83699 0 -86.3405
-1801.75 1.38005 0 -12.5115
-1200.43 3.34266 0 -51.8337
-609.324 4.9143 0 -86.3594
-1211.72 3.20615 0 -51.7476
-1206.08 3.27449 0 -51.7892
-1793.29 1.43601 0 -12.5801
-1776.38 1.54788 0 -12.7305
-600.827 5.14453 0 -86.4254
-606.492 4.99133 0 -86.3799
-1784.84 1.49195 0 -12.6531
-1189.14 3.47854 0 -51.9316
-603.659 5.06807 0 -86.4019
-1200.43 3.34266 0 -51.8337
-1194.78 3.41068 0 -51.8811
-1776.38 1.54788 0 -12.7305
-1759.47 1.65969 0 -12.8987
-595.163 5.29661 0 -86.4767
-600.827 5.14453 0 -86.4254
-1767.93 1.60379 0 -12.8124
-1177.85 3.61379 0 -52.0413
-597.995 5.22071 0 -86.4503
-1189.14 3.47854 0 -51.9316
-1183.49 3.54624 0 -51.985
-1759.47 1.65969 0 -12.8987
-1742.56 1.77145 0 -13.0845
-589.499 5.44757 0 -86.5339
-595.163 5.29661 0 -86.4767
-1751.01 1.71557 0 -12.9894
-1166.55 3.74843 0 -52.1628
-592.331 5.37223 0 -86.5046
-1177.85 3.61379 0 -52.0413
-1172.2 3.68119 0 -52.1006
-1742.56 1.77145 0 -13.0845
-1725.65 1.88316 0 -13.2875
-583.836 5.59741 0 -86.597
-589.499 5.44757 0 -86.5339
-1734.11 1.82731 0 -13.1838
-1155.26 3.88245 0 -52.2958
-586.668 5.52263 0 -86.5647
-1166.55 3.74843 0 -52.1628
-1160.91 3.81551 0 -52.2278
-1725.65 1.88316 0 -13.2875
-1708.74 1.99483 0 -13.5078
-578.174 5.74614 0 -86.6657
-583.836 5.59741 0 -86.597
-1717.2 1.939 0 -13.3955
-1143.98 4.01586 0 -52.4403
-581.005 5.67192 0 -86.6306
-1155.26 3.88245 0 -52.2958
-1149.62 3.94923 0 -52.3666
-1708.74 1.99483 0 -13.5078
-1691.84 2.10647 0 -13.7451
-572.513 5.89375 0 -86.7402
-578.174 5.74614 0 -86.6657
-1700.29 2.05065 0 -13.6243
-1132.69 4.14866 0 -52.5961
-575.344 5.82009 0 -86.7022
-1143.98 4.01586 0 -52.4403
-1138.33 4.08234 0 -52.5168
-1691.84 2.10647 0 -13.7451
-1674.93 2.21809 0 -13.9993
-566.853 6.04025 0 -86.8203
-572.513 5.89375 0 -86.7402
-1683.39 2.16228 0 -13.8701
-1121.4 4.28087 0 -52.7632
-569.683 5.96714 0 -86.7795
-1132.69 4.14866 0 -52.5961
-1127.04 4.21484 0 -52.6783
-1674.93 2.21809 0 -13.9993
-1658.03 2.32969 0 -14.2701
-561.193 6.18565 0 -86.9059
-566.853 6.04025 0 -86.8203
-1666.48 2.27389 0 -14.1326
-1110.12 4.41249 0 -52.9415
-564.023 6.11309 0 -86.8624
-1121.4 4.28087 0 -52.7632
-1115.76 4.34675 0 -52.851
-1658.03 2.32969 0 -14.2701
-1641.13 2.44127 0 -14.5574
-555.534 6.32993 0 -86.9971
-561.193 6.18565 0 -86.9059
-1649.58 2.38548 0 -14.4117
-1098.83 4.54351 0 -53.1307
-558.363 6.25793 0 -86.9509
-1110.12 4.41249 0 -52.9415
-1104.47 4.47807 0 -53.0347
-1641.13 2.44127 0 -14.5574
-1624.23 2.55285 0 -14.8611
-549.875 6.47311 0 -87.0938
-555.534 6.32993 0 -86.9971
-1632.68 2.49707 0 -14.7073
-1087.55 4.67394 0 -53.3309
-552.704 6.40166 0 -87.0448
-1098.83 4.54351 0 -53.1307
-1093.19 4.6088 0 -53.2295
-1624.23 2.55285 0 -14.8611
-1607.33 2.66443 0 -15.181
-544.218 6.61519 0 -87.1959
-549.875 6.47311 0 -87.0938
-1615.78 2.60864 0 -15.0191
-1076.27 4.80379 0 -53.5419
-547.046 6.54429 0 -87.1442
-1087.55 4.67394 0 -53.3309
-1081.91 4.73894 0 -53.435
-1607.33 2.66443 0 -15.181
-1590.43 2.77601 0 -15.5169
-538.561 6.75616 0 -87.3033
-544.218 6.61519 0 -87.1959
-1598.88 2.72022 0 -15.347
-1064.99 4.93306 0 -53.7635
-541.389 6.68581 0 -87.249
-1076.27 4.80379 0 -53.5419
-1070.63 4.8685 0 -53.6514
-1590.43 2.77601 0 -15.5169
-1573.54 2.88759 0 -15.8686
-532.904 6.89604 0 -87.4161
-538.561 6.75616 0 -87.3033
-1581.98 2.8318 0 -15.6908
-1053.71 5.06174 0 -53.9957
-535.732 6.82624 0 -87.3591
-1064.99 4.93306 0 -53.7635
-1059.34 4.99747 0 -53.8783
-1573.54 2.88759 0 -15.8686
-1556.64 2.99918 0 -16.236
-527.249 7.03481 0 -87.5341
-532.904 6.89604 0 -87.4161
-1565.09 2.94338 0 -16.0504
-1042.43 5.18985 0 -54.2384
-530.077 6.96556 0 -87.4744
-1053.71 5.06174 0 -53.9957
-1048.07 5.12587 0 -54.1158
-1556.64 2.99918 0 -16.236
-1539.75 3.11077 0 -16.6189
-521.594 7.17248 0 -87.6573
-527.249 7.03481 0 -87.5341
-1548.2 3.05497 0 -16.4256
-1031.15 5.31738 0 -54.4915
-524.421 7.10378 0 -87.595
-1042.43 5.18985 0 -54.2384
-1036.79 5.25369 0 -54.3637
-1539.75 3.11077 0 -16.6189
-1522.86 3.22238 0 -17.0172
-515.94 7.30906 0 -87.7856
-521.594 7.17248 0 -87.6573
-1531.3 3.16657 0 -16.8161
-1019.87 5.44434 0 -54.7547
-518.767 7.24091 0 -87.7208
-1031.15 5.31738 0 -54.4915
-1025.51 5.38093 0 -54.6218
-1522.86 3.22238 0 -17.0172
-1505.97 3.334 0 -17.4306
-510.287 7.44454 0 -87.919
-515.94 7.30906 0 -87.7856
-1514.41 3.27819 0 -17.222
-1008.6 5.57072 0 -55.0281
-513.114 7.37694 0 -87.8517
-1019.87 5.44434 0 -54.7547
-1014.23 5.5076 0 -54.8902
-1505.97 3.334 0 -17.4306
-1489.08 3.44563 0 -17.859
-504.634 7.57892 0 -88.0574
-510.287 7.44454 0 -87.919
-1497.52 3.38981 0 -17.6429
-997.323 5.69653 0 -55.3116
-507.461 7.51186 0 -87.9876
-1008.6 5.57072 0 -55.0281
-1002.96 5.6337 0 -55.1686
-1489.08 3.44563 0 -17.859
-1472.19 3.55728 0 -18.3022
-498.983 7.7122 0 -88.2008
-504.634 7.57892 0 -88.0574
-1480.64 3.50145 0 -18.0787
-986.05 5.82176 0 -55.6049
-501.808 7.6457 0 -88.1285
-997.323 5.69653 0 -55.3116
-991.686 5.75922 0 -55.457
-1472.19 3.55728 0 -18.3022
-1455.31 3.66893 0 -18.7601
-493.332 7.84438 0 -88.3492
-498.983 7.7122 0 -88.2008
-1463.75 3.6131 0 -18.5293
-974.778 5.94642 0 -55.908
-496.157 7.77843 0 -88.2744
-986.05 5.82176 0 -55.6049
-980.413 5.88416 0 -55.7552
-1455.31 3.66893 0 -18.7601
-1438.42 3.7806 0 -19.2325
-487.681 7.97547 0 -88.5023
-493.332 7.84438 0 -88.3492
-1446.86 3.72477 0 -18.9945
-963.507 6.07051 0 -56.2208
-490.506 7.91007 0 -88.4251
-974.778 5.94642 0 -55.908
-969.142 6.00854 0 -56.0632
-1438.42 3.7806 0 -19.2325
-1421.54 3.89228 0 -19.7192
-482.032 8.10546 0 -88.6603
-487.681 7.97547 0 -88.5023
-1429.98 3.83644 0 -19.4741
-952.237 6.19402 0 -56.5431
-484.856 8.0406 0 -88.5807
-963.507 6.07051 0 -56.2208
-957.872 6.13233 0 -56.3808
-1421.54 3.89228 0 -19.7192
-1404.66 4.00397 0 -20.2201
-476.383 8.23435 0 -88.8231
-482.032 8.10546 0 -88.6603
-1413.1 3.94813 0 -19.9679
-940.968 6.31695 0 -56.8749
-479.207 8.17005 0 -88.7411
-952.237 6.19402 0 -56.5431
-946.602 6.25556 0 -56.7079
-1404.66 4.00397 0 -20.2201
-1387.78 4.11567 0 -20.7349
-470.735 8.36215 0 -88.9905
-476.383 8.23435 0 -88.8231
-1396.22 4.05982 0 -20.4758
-929.701 6.43931 0 -57.2161
-473.559 8.29839 0 -88.9062
-940.968 6.31695 0 -56.8749
-935.334 6.3782 0 -57.0443
-1387.78 4.11567 0 -20.7349
-1370.9 4.22737 0 -21.2636
-465.087 8.48884 0 -89.1625
-470.735 8.36215 0 -88.9905
-1379.34 4.17152 0 -20.9975
-918.434 6.56108 0 -57.5665
-467.911 8.42563 0 -89.0759
-929.701 6.43931 0 -57.2161
-924.067 6.50027 0 -57.3901
-1370.9 4.22737 0 -21.2636
-1354.02 4.33907 0 -21.8059
-459.441 8.61443 0 -89.3392
-465.087 8.48884 0 -89.1625
-1362.46 4.28322 0 -21.5331
-907.169 6.68228 0 -57.926
-462.264 8.55177 0 -89.2503
-918.434 6.56108 0 -57.5665
-912.801 6.62175 0 -57.7451
-1354.02 4.33907 0 -21.8059
-1337.15 4.45076 0 -22.3617
-453.795 8.73892 0 -89.5204
-459.441 8.61443 0 -89.3392
-1345.58 4.39492 0 -22.0821
-895.905 6.80289 0 -58.2945
-456.617 8.67681 0 -89.4292
-907.169 6.68228 0 -57.926
-901.537 6.74266 0 -58.1091
-1337.15 4.45076 0 -22.3617
-1320.27 4.56246 0 -22.9308
-448.149 8.86231 0 -89.706
-453.795 8.73892 0 -89.5204
-1328.71 4.50661 0 -22.6446
-884.642 6.92292 0 -58.6719
-450.972 8.80075 0 -89.6127
-895.905 6.80289 0 -58.2945
-890.273 6.86298 0 -58.4821
-1320.27 4.56246 0 -22.9308
-1303.4 4.67414 0 -23.5131
-442.505 8.98459 0 -89.8961
-448.149 8.86231 0 -89.706
-1311.83 4.6183 0 -23.2203
-873.38 7.04235 0 -59.058
-445.327 8.92359 0 -89.8005
-884.642 6.92292 0 -58.6719
-879.01 6.98271 0 -58.8639
-1303.4 4.67414 0 -23.5131
-1286.53 4.7858 0 -24.1084
-436.861 9.10577 0 -90.0905
-442.505 8.98459 0 -89.8961
-1294.96 4.72997 0 -23.8091
-862.119 7.1612 0 -59.4529
-439.683 9.04532 0 -89.9928
-873.38 7.04235 0 -59.058
-867.749 7.10185 0 -59.2544
-1286.53 4.7858 0 -24.1084
-1269.66 4.89744 0 -24.7164
-431.218 9.22584 0 -90.2893
-436.861 9.10577 0 -90.0905
-1278.09 4.84163 0 -24.4108
-850.859 7.27944 0 -59.8563
-434.039 9.16594 0 -90.1894
-862.119 7.1612 0 -59.4529
-856.489 7.22039 0 -59.6535
-1269.66 4.89744 0 -24.7164
-1252.79 5.00906 0 -25.3371
-425.576 9.3448 0 -90.4923
-431.218 9.22584 0 -90.2893
-1261.22 4.95326 0 -25.0252
-839.6 7.39709 0 -60.2682
-428.397 9.28546 0 -90.3902
-850.859 7.27944 0 -59.8563
-845.229 7.33834 0 -60.0612
-1252.79 5.00906 0 -25.3371
-1235.92 5.12064 0 -25.9703
-419.934 9.46265 0 -90.6994
-425.576 9.3448 0 -90.4923
-1244.35 5.06486 0 -25.6521
-828.342 7.51414 0 -60.6884
-422.755 9.40386 0 -90.5953
-839.6 7.39709 0 -60.2682
-833.971 7.45569 0 -60.4772
-1235.92 5.12064 0 -25.9703
-1219.05 5.23219 0 -26.6158
-414.293 9.57939 0 -90.9108
-419.934 9.46265 0 -90.6994
-1227.49 5.17642 0 -26.2915
-817.086 7.63057 0 -61.1168
-417.113 9.52116 0 -90.8046
-828.342 7.51414 0 -60.6884
-822.714 7.57243 0 -60.9015
-1219.05 5.23219 0 -26.6158
-1202.19 5.34368 0 -27.2734
-408.653 9.69501 0 -91.1262
-414.293 9.57939 0 -90.9108
-1210.62 5.28794 0 -26.9431
-805.83 7.74639 0 -61.5533
-411.473 9.63734 0 -91.018
-817.086 7.63057 0 -61.1168
-811.458 7.68856 0 -61.334
-1202.19 5.34368 0 -27.2734
-1185.32 5.45513 0 -27.943
-403.013 9.80951 0 -91.3456
-408.653 9.69501 0 -91.1262
-1193.76 5.39941 0 -27.6067
-794.576 7.8616 0 -61.9978
-405.833 9.7524 0 -91.2354
-805.83 7.74639 0 -61.5533
-800.203 7.80407 0 -61.7746
-1185.32 5.45513 0 -27.943
-1168.46 5.56651 0 -28.6243
-397.374 9.92289 0 -91.569
-403.013 9.80951 0 -91.3456
-1176.89 5.51083 0 -28.2822
-783.322 7.97618 0 -62.4503
-400.194 9.86634 0 -91.4568
-794.576 7.8616 0 -61.9978
-788.949 7.91897 0 -62.2231
-1168.46 5.56651 0 -28.6243
-1151.6 5.67782 0 -29.3174
-391.736 10.0351 0 -91.7964
-397.374 9.92289 0 -91.569
-1160.03 5.62217 0 -28.9694
-772.07 8.09014 0 -62.9105
-394.555 9.97916 0 -91.6822
-783.322 7.97618 0 -62.4503
-777.696 8.03324 0 -62.6794
-1151.6 5.67782 0 -29.3174
-1134.74 5.78905 0 -30.0218
-386.099 10.1463 0 -92.0276
-391.736 10.0351 0 -91.7964
-1143.17 5.73344 0 -29.6682
-760.819 8.20346 0 -63.3783
-388.917 10.0909 0 -91.9115
-772.07 8.09014 0 -62.9105
-766.444 8.14688 0 -63.1434
-1134.74 5.78905 0 -30.0218
-1117.88 5.90019 0 -30.7376
-380.462 10.2563 0 -92.2626
-386.099 10.1463 0 -92.0276
-1126.31 5.84463 0 -30.3783
-749.568 8.31614 0 -63.8537
-383.28 10.2014 0 -92.1446
-760.819 8.20346 0 -63.3783
-755.193 8.25988 0 -63.6151
-1117.88 5.90019 0 -30.7376
-1101.03 6.01124 0 -31.4645
-374.826 10.3652 0 -92.5013
-380.462 10.2563 0 -92.2626
-1109.45 5.95573 0 -31.0997
-738.319 8.42818 0 -64.3366
-377.644 10.3109 0 -92.3815
-749.568 8.31614 0 -63.8537
-743.944 8.37224 0 -64.0943
-1101.03 6.01124 0 -31.4645
-1084.17 6.12218 0 -32.2024
-369.191 10.4729 0 -92.7438
-374.826 10.3652 0 -92.5013
-1092.6 6.06673 0 -31.8321
-727.071 8.53956 0 -64.8268
-372.008 10.4192 0 -92.6221
-738.319 8.42818 0 -64.3366
-732.695 8.48395 0 -64.5808
-1084.17 6.12218 0 -32.2024
-1067.32 6.23301 0 -32.9511
-363.556 10.5795 0 -92.9899
-369.191 10.4729 0 -92.7438
-1075.74 6.17761 0 -32.5754
-715.823 8.65028 0 -65.3242
-366.373 10.5263 0 -92.8664
-727.071 8.53956 0 -64.8268
-721.447 8.595 0 -65.0746
-1067.32 6.23301 0 -32.9511
-1050.46 6.3437 0 -33.7104
-357.922 10.685 0 -93.2395
-363.556 10.5795 0 -92.9899
-1058.89 6.28837 0 -33.3294
-704.577 8.76034 0 -65.8287
-360.739 10.6324 0 -93.1143
-715.823 8.65028 0 -65.3242
-710.2 8.70539 0 -65.5756
-1050.46 6.3437 0 -33.7104
-1033.61 6.45426 0 -34.4802
-352.288 10.7893 0 -93.4927
-357.922 10.685 0 -93.2395
-1042.04 6.399 0 -34.094
-693.332 8.86972 0 -66.3402
-355.105 10.7373 0 -93.3657
-704.577 8.76034 0 -65.8287
-698.954 8.81512 0 -66.0836
-1033.61 6.45426 0 -34.4802
-1016.76 6.56467 0 -35.2602
-346.656 10.8924 0 -93.7494
-352.288 10.7893 0 -93.4927
-1025.18 6.50949 0 -34.8689
-682.088 8.97843 0 -66.8586
-349.472 10.841 0 -93.6207
-693.332 8.86972 0 -66.3402
-687.71 8.92416 0 -66.5986
-1016.76 6.56467 0 -35.2602
-999.909 6.67492 0 -36.0504
-341.024 10.9944 0 -94.0095
-346.656 10.8924 0 -93.7494
-1008.33 6.61982 0 -35.654
-670.844 9.08645 0 -67.3838
-343.84 10.9436 0 -93.8791
-682.088 8.97843 0 -66.8586
-676.466 9.03252 0 -67.1204
-999.909 6.67492 0 -36.0504
-983.06 6.785 0 -36.8505
-335.392 11.0953 0 -94.273
-341.024 10.9944 0 -94.0095
-991.485 6.72998 0 -36.4492
-659.602 9.19377 0 -67.9156
-338.208 11.045 0 -94.1409
-670.844 9.08645 0 -67.3838
-665.223 9.14019 0 -67.6489
-983.06 6.785 0 -36.8505
-966.213 6.89489 0 -37.6604
-329.762 11.195 0 -94.5398
-335.392 11.0953 0 -94.273
-974.637 6.83997 0 -37.2543
-648.361 9.30038 0 -68.454
-332.577 11.1453 0 -94.406
-659.602 9.19377 0 -67.9156
-653.981 9.24716 0 -68.184
-966.213 6.89489 0 -37.6604
-949.367 7.00459 0 -38.48
-324.131 11.2935 0 -94.8098
-329.762 11.195 0 -94.5398
-957.79 6.94976 0 -38.069
-637.12 9.40629 0 -68.9988
-326.946 11.2444 0 -94.6744
-648.361 9.30038 0 -68.454
-642.74 9.35343 0 -68.7256
-949.367 7.00459 0 -38.48
-932.522 7.11407 0 -39.309
-318.502 11.3909 0 -95.0831
-324.131 11.2935 0 -94.8098
-940.944 7.05936 0 -38.8933
-625.88 9.51147 0 -69.55
-321.317 11.3424 0 -94.9461
-637.12 9.40629 0 -68.9988
-631.5 9.45897 0 -69.2736
-932.522 7.11407 0 -39.309
-915.678 7.22334 0 -40.1472
-312.873 11.4871 0 -95.3595
-318.502 11.3909 0 -95.0831
-924.1 7.16873 0 -39.7269
-614.642 9.61593 0 -70.1073
-315.687 11.4391 0 -95.2209
-625.88 9.51147 0 -69.55
-620.261 9.56379 0 -69.8279
-915.678 7.22334 0 -40.1472
-898.835 7.33236 0 -40.9946
-307.245 11.5821 0 -95.6389
-312.873 11.4871 0 -95.3595
-907.256 7.27788 0 -40.5698
-603.404 9.71964 0 -70.6708
-310.059 11.5347 0 -95.4988
-614.642 9.61593 0 -70.1073
-609.023 9.66788 0 -70.3883
-898.835 7.33236 0 -40.9946
-881.993 7.44114 0 -41.851
-301.617 11.6759 0 -95.9214
-307.245 11.5821 0 -95.6389
-890.414 7.38678 0 -41.4217
-592.167 9.82261 0 -71.2403
-304.431 11.6292 0 -95.7798
-603.404 9.71964 0 -70.6708
-597.786 9.77122 0 -70.9548
-881.993 7.44114 0 -41.851
-865.153 7.54965 0 -42.7161
-295.99 11.7686 0 -96.2069
-301.617 11.6759 0 -95.9214
-873.573 7.49543 0 -42.2825
-580.931 9.92483 0 -71.8156
-298.804 11.7224 0 -96.0638
-592.167 9.82261 0 -71.2403
-586.549 9.87381 0 -71.5272
-865.153 7.54965 0 -42.7161
-848.313 7.65789 0 -43.5899
-290.364 11.86 0 -96.4953
-295.99 11.7686 0 -96.2069
-856.733 7.60381 0 -43.1519
-569.696 10.0263 0 -72.3967
-293.177 11.8145 0 -96.3507
-580.931 9.92483 0 -71.8156
-575.314 9.97565 0 -72.1054
-848.313 7.65789 0 -43.5899
-831.475 7.76583 0 -44.4721
-284.738 11.9503 0 -96.7866
-290.364 11.86 0 -96.4953
-839.894 7.7119 0 -44.0299
-558.462 10.1269 0 -72.9835
-287.551 11.9053 0 -96.6406
-569.696 10.0263 0 -72.3967
-564.079 10.0767 0 -72.6894
-831.475 7.76583 0 -44.4721
-814.637 7.87347 0 -45.3625
-279.113 12.0394 0 -97.0806
-284.738 11.9503 0 -96.7866
-823.056 7.81969 0 -44.9163
-547.229 10.2268 0 -73.5758
-281.926 11.995 0 -96.9333
-558.462 10.1269 0 -72.9835
-552.845 10.177 0 -73.279
-814.637 7.87347 0 -45.3625
-797.801 7.98078 0 -46.2611
-273.489 12.1272 0 -97.3775
-279.113 12.0394 0 -97.0806
-806.219 7.92716 0 -45.8108
-535.996 10.3259 0 -74.1735
-276.301 12.0834 0 -97.2287
-547.229 10.2268 0 -73.5758
-541.612 10.2765 0 -73.874
-797.801 7.98078 0 -46.2611
-780.965 8.08775 0 -47.1677
-267.865 12.2139 0 -97.677
-273.489 12.1272 0 -97.3775
-789.383 8.03431 0 -46.7134
-524.765 10.4242 0 -74.7766
-270.676 12.1707 0 -97.5269
-535.996 10.3259 0 -74.1735
-530.38 10.3752 0 -74.4744
-780.965 8.08775 0 -47.1677
-764.13 8.19437 0 -48.082
-262.241 12.2993 0 -97.9792
-267.865 12.2139 0 -97.677
-772.548 8.14111 0 -47.6239
-513.534 10.5217 0 -75.3849
-265.053 12.2567 0 -97.8278
-524.765 10.4242 0 -74.7766
-519.149 10.473 0 -75.0801
-764.13 8.19437 0 -48.082
-747.297 8.30062 0 -49.0039
-256.618 12.3835 0 -98.284
-262.241 12.2993 0 -97.9792
-755.713 8.24755 0 -48.542
-502.304 10.6183 0 -75.9983
-259.43 12.3415 0 -98.1313
-513.534 10.5217 0 -75.3849
-507.919 10.5701 0 -75.691
-747.297 8.30062 0 -49.0039
-730.464 8.40649 0 -49.9333
-250.996 12.4665 0 -98.5913
-256.618 12.3835 0 -98.284
-738.88 8.3536 0 -49.4677
-491.074 10.7141 0 -76.6167
-253.807 12.4251 0 -98.4373
-502.304 10.6183 0 -75.9983
-496.689 10.6663 0 -76.3069
-730.464 8.40649 0 -49.9333
-713.632 8.51195 0 -50.8699
-245.374 12.5482 0 -98.901
-250.996 12.4665 0 -98.5913
-722.048 8.45927 0 -50.4007
-479.846 10.8091 0 -77.2399
-248.185 12.5075 0 -98.7458
-491.074 10.7141 0 -76.6167
-485.46 10.7617 0 -76.9277
-713.632 8.51195 0 -50.8699
-696.801 8.61699 0 -51.8137
-239.753 12.6287 0 -99.2133
-245.374 12.5482 0 -98.901
-705.217 8.56453 0 -51.341
-468.618 10.9032 0 -77.8679
-242.564 12.5886 0 -99.0568
-479.846 10.8091 0 -77.2399
-474.232 10.8562 0 -77.5533
-696.801 8.61699 0 -51.8137
-679.971 8.7216 0 -52.7644
-234.133 12.708 0 -99.5278
-239.753 12.6287 0 -99.2133
-688.386 8.66935 0 -52.2882
-457.391 10.9964 0 -78.5006
-236.943 12.6685 0 -99.3702
-468.618 10.9032 0 -77.8679
-463.005 10.9499 0 -78.1837
-679.971 8.7216 0 -52.7644
-663.142 8.82576 0 -53.7219
-228.513 12.786 0 -99.8447
-234.133 12.708 0 -99.5278
-671.557 8.77374 0 -53.2423
-446.165 11.0887 0 -79.1378
-231.323 12.7472 0 -99.686
-457.391 10.9964 0 -78.5006
-451.778 11.0427 0 -78.8187
-663.142 8.82576 0 -53.7219
-646.314 8.92944 0 -54.686
-222.893 12.8628 0 -100.164
-228.513 12.786 0 -99.8447
-654.728 8.87766 0 -54.2031
-434.94 11.1802 0 -79.7795
-225.703 12.8246 0 -100.004
-446.165 11.0887 0 -79.1378
-440.552 11.1346 0 -79.4581
-646.314 8.92944 0 -54.686
-629.486 9.03264 0 -55.6565
-217.274 12.9383 0 -100.485
-222.893 12.8628 0 -100.164
-637.9 8.9811 0 -55.1705
-423.715 11.2707 0 -80.4255
-220.084 12.9007 0 -100.324
-434.94 11.1802 0 -79.7795
-429.327 11.2256 0 -80.102
-629.486 9.03264 0 -55.6565
-612.659 9.13533 0 -56.6333
-211.656 13.0126 0 -100.809
-217.274 12.9383 0 -100.485
-621.073 9.08405 0 -56.1442
-412.491 11.3604 0 -81.0757
-214.465 12.9756 0 -100.647
-423.715 11.2707 0 -80.4255
-418.103 11.3157 0 -80.7501
-612.659 9.13533 0 -56.6333
-595.833 9.23749 0 -57.6162
-206.038 13.0855 0 -101.134
-211.656 13.0126 0 -100.809
-604.246 9.18647 0 -57.124
-401.267 11.449 0 -81.73
-208.847 13.0492 0 -100.971
-412.491 11.3604 0 -81.0757
-406.879 11.4048 0 -81.4023
-595.833 9.23749 0 -57.6162
-579.008 9.33911 0 -58.6051
-200.42 13.1572 0 -101.462
-206.038 13.0855 0 -101.134
-587.421 9.28837 0 -58.1099
-390.044 11.5368 0 -82.3882
-203.229 13.1215 0 -101.298
-401.267 11.449 0 -81.73
-395.656 11.493 0 -82.0586
-579.008 9.33911 0 -58.6051
-562.184 9.44016 0 -59.5997
-194.804 13.2276 0 -101.792
-200.42 13.1572 0 -101.462
-570.596 9.38971 0 -59.1017
-378.822 11.6236 0 -83.0504
-197.612 13.1926 0 -101.626
-390.044 11.5368 0 -82.3882
-384.433 11.5803 0 -82.7188
-562.184 9.44016 0 -59.5997
-545.36 9.54063 0 -60.5999
-189.187 13.2967 0 -102.123
-194.804 13.2276 0 -101.792
-553.772 9.49047 0 -60.0991
-367.601 11.7094 0 -83.7163
-191.995 13.2623 0 -101.957
-378.822 11.6236 0 -83.0504
-373.211 11.6666 0 -83.3829
-545.36 9.54063 0 -60.5999
-528.537 9.64049 0 -61.6056
-183.571 13.3645 0 -102.456
-189.187 13.2967 0 -102.123
-536.948 9.59063 0 -61.1021
-356.38 11.7942 0 -84.3859
-186.379 13.3308 0 -102.289
-367.601 11.7094 0 -83.7163
-361.99 11.7519 0 -84.0506
-528.537 9.64049 0 -61.6056
-511.714 9.73971 0 -62.6165
-177.956 13.4309 0 -102.792
-183.571 13.3645 0 -102.456
-520.125 9.69018 0 -62.1104
-345.16 11.878 0 -85.0589
-180.763 13.3979 0 -102.624
-356.38 11.7942 0 -84.3859
-350.77 11.8362 0 -84.722
-511.714 9.73971 0 -62.6165
-494.892 9.83828 0 -63.6325
-172.341 13.4961 0 -103.129
-177.956 13.4309 0 -102.792
-503.303 9.78908 0 -63.1239
-333.94 11.9608 0 -85.7355
-175.148 13.4637 0 -102.96
-345.16 11.878 0 -85.0589
-339.55 11.9195 0 -85.3968
-494.892 9.83828 0 -63.6325
-478.071 9.93617 0 -64.6534
-166.726 13.5598 0 -103.467
-172.341 13.4961 0 -103.129
-486.481 9.88732 0 -64.1424
-322.721 12.0425 0 -86.4153
-169.533 13.5281 0 -103.298
-333.94 11.9608 0 -85.7355
-328.33 12.0018 0 -86.075
-478.071 9.93617 0 -64.6534
-461.25 10.0334 0 -65.6791
-161.112 13.6223 0 -103.808
-166.726 13.5598 0 -103.467
-469.66 9.98486 0 -65.1657
-311.502 12.1232 0 -87.0983
-163.919 13.5912 0 -103.637
-322.721 12.0425 0 -86.4153
-317.112 12.083 0 -86.7564
-461.25 10.0334 0 -65.6791
-444.43 10.1298 0 -66.7093
-155.498 13.6833 0 -104.149
-161.112 13.6223 0 -103.808
-452.84 10.0817 0 -66.1936
-300.284 12.2028 0 -87.7843
-158.305 13.653 0 -103.978
-311.502 12.1232 0 -87.0983
-305.893 12.1631 0 -87.4409
-444.43 10.1298 0 -66.7093
-427.61 10.2255 0 -67.7439
-149.885 13.743 0 -104.493
-155.498 13.6833 0 -104.149
-436.02 10.1778 0 -67.226
-289.067 12.2813 0 -88.4734
-152.691 13.7133 0 -104.321
-300.284 12.2028 0 -87.7843
-294.675 12.2422 0 -88.1285
-427.61 10.2255 0 -67.7439
-410.791 10.3205 0 -68.7827
-144.271 13.8013 0 -104.838
-149.885 13.743 0 -104.493
-419.201 10.2731 0 -68.2628
-277.849 12.3587 0 -89.1652
-147.078 13.7723 0 -104.665
-289.067 12.2813 0 -88.4734
-283.458 12.3201 0 -88.8189
-410.791 10.3205 0 -68.7827
-393.972 10.4147 0 -69.8255
-138.659 13.8583 0 -105.184
-144.271 13.8013 0 -104.838
-402.382 10.3677 0 -69.3036
-266.633 12.4351 0 -89.8598
-141.465 13.8299 0 -105.011
-277.849 12.3587 0 -89.1652
-272.241 12.397 0 -89.5121
-393.972 10.4147 0 -69.8255
-377.154 10.5083 0 -70.8723
-133.046 13.914 0 -105.531
-138.659 13.8583 0 -105.184
-385.563 10.4616 0 -70.3484
-255.416 12.5104 0 -90.5569
-135.852 13.8863 0 -105.357
-266.633 12.4351 0 -89.8598
-261.024 12.4729 0 -90.208
-377.154 10.5083 0 -70.8723
-360.336 10.6012 0 -71.9228
-127.434 13.9686 0 -105.88
-133.046 13.914 0 -105.531
-368.745 10.5548 0 -71.3971
-244.2 12.5849 0 -91.2565
-130.24 13.9414 0 -105.706
-255.416 12.5104 0 -90.5569
-249.808 12.5478 0 -90.9064
-360.336 10.6012 0 -71.9228
-343.519 10.6937 0 -72.9769
-121.822 14.0222 0 -106.23
-127.434 13.9686 0 -105.88
-351.927 10.6475 0 -72.4494
-232.985 12.6587 0 -91.9586
-124.628 13.9955 0 -106.055
-244.2 12.5849 0 -91.2565
-238.592 12.6218 0 -91.6073
-343.519 10.6937 0 -72.9769
-326.702 10.7859 0 -74.0346
-116.21 14.0752 0 -106.581
-121.822 14.0222 0 -106.23
-335.11 10.7398 0 -73.5053
-221.77 12.732 0 -92.663
-119.016 14.0488 0 -106.405
-232.985 12.6587 0 -91.9586
-227.377 12.6953 0 -92.3105
-326.702 10.7859 0 -74.0346
-309.886 10.878 0 -75.096
-110.6 14.128 0 -106.933
-116.21 14.0752 0 -106.581
-318.294 10.832 0 -74.5649
-210.556 12.8051 0 -93.3698
-113.405 14.1016 0 -106.757
-221.77 12.732 0 -92.663
-216.163 12.7685 0 -93.0161
-309.886 10.878 0 -75.096
-293.07 10.97 0 -76.1612
-104.99 14.181 0 -107.287
-110.6 14.128 0 -106.933
-301.478 10.924 0 -75.6281
-199.343 12.8781 0 -94.0792
-107.795 14.1545 0 -107.11
-210.556 12.8051 0 -93.3698
-204.949 12.8416 0 -93.7241
-293.07 10.97 0 -76.1612
-276.256 11.0615 0 -77.2304
-99.3816 14.2348 0 -107.643
-104.99 14.181 0 -107.287
-284.663 11.0159 0 -76.6953
-188.131 12.9511 0 -94.7921
-102.186 14.2078 0 -107.464
-199.343 12.8781 0 -94.0792
-193.736 12.9147 0 -94.4352
-276.256 11.0615 0 -77.2304
-259.441 11.151 0 -78.3043
-93.7752 14.2894 0 -108.003
-99.3816 14.2348 0 -107.643
-267.849 11.1067 0 -77.7667
-176.919 13.0226 0 -95.5097
-96.578 14.262 0 -107.822
-188.131 12.9511 0 -94.7921
-182.525 12.9872 0 -95.1501
-259.441 11.151 0 -78.3043
-242.624 11.2341 0 -79.3835
-88.1697 14.3445 0 -108.372
-93.7752 14.2894 0 -108.003
-251.033 11.1938 0 -78.8432
-165.707 13.0898 0 -96.2352
-90.9726 14.3169 0 -108.186
-176.919 13.0226 0 -95.5097
-171.313 13.0572 0 -95.8712
-242.624 11.2341 0 -79.3835
-225.797 11.3026 0 -80.4699
-82.5656 14.3969 0 -108.759
-88.1697 14.3445 0 -108.372
-234.213 11.271 0 -79.9256
-154.487 13.1451 0 -96.9749
-85.3671 14.3714 0 -108.563
-165.707 13.0898 0 -96.2352
-160.098 13.1196 0 -96.6026
-225.797 11.3026 0 -80.4699
-208.949 11.337 0 -81.5649
-76.9533 14.443 0 -109.184
-82.5656 14.3969 0 -108.759
-217.376 11.3259 0 -81.0164
-143.248 13.1748 0 -97.7409
-79.7619 14.4212 0 -108.965
-154.487 13.1451 0 -96.9749
-148.871 13.1648 0 -97.3539
-208.949 11.337 0 -81.5649
-192.039 11.3096 0 -82.6747
-71.3306 14.4678 0 -109.679
-76.9533 14.443 0 -109.184
-200.506 11.3338 0 -82.1171
-131.964 13.1514 0 -98.5552
-74.1421 14.4594 0 -109.42
-143.248 13.1748 0 -97.7409
-137.614 13.1716 0 -98.1393
-192.039 11.3096 0 -82.6747
-175.026 11.1576 0 -83.8028
-65.6545 14.4619 0 -110.307
-71.3306 14.4678 0 -109.679
-183.546 11.2543 0 -83.2369
-120.58 13.0355 0 -99.4578
-68.5053 14.47 0 -109.971
-131.964 13.1514 0 -98.5552
-126.288 13.11 0 -98.9937
-175.026 11.1576 0 -83.8028
-157.76 10.8191 0 -84.9746
-59.9179 14.3801 0 -111.162
-65.6545 14.4619 0 -110.307
-166.441 11.0177 0 -84.3797
-109.004 12.7592 0 -100.515
-62.789 14.433 0 -110.699
-120.58 13.0355 0 -99.4578
-114.824 12.9193 0 -99.9583
-157.76 10.8191 0 -84.9746
-140.122 10.1508 0 -86.2029
-53.9758 14.2326 0 -112.398
-59.9179 14.3801 0 -111.162
-148.987 10.5339 0 -85.5833
-97.0806 12.2677 0 -101.834
-56.9938 14.3154 0 -111.718
-109.004 12.7592 0 -100.515
-103.096 12.5503 0 -101.14
-140.122 10.1508 0 -86.2029
-121.674 9.14778 0 -87.5976
-47.8566 13.9383 0 -114.187
-53.9758 14.2326 0 -112.398
-131.053 9.69364 0 -86.8644
-84.569 11.5003 0 -103.568
-50.9169 14.1011 0 -113.215
-97.0806 12.2677 0 -101.834
-90.9205 11.903 0 -102.623
-121.674 9.14778 0 -87.5976
-102.263 7.69599 0 -89.2215
-41.1981 13.739 0 -116.718
-47.8566 13.9383 0 -114.187
-112.064 8.45761 0 -88.3847
-71.2052 10.6618 0 -105.892
-44.6572 13.8133 0 -115.344
-84.569 11.5003 0 -103.568
-78.0033 11.0903 0 -104.671
-102.263 7.69599 0 -89.2215
-80.9863 6.65073 0 -91.5044
-34.3889 13.6834 0 -119.853
-41.1981 13.739 0 -116.718
-91.9897 7.05981 0 -90.2242
-56.7393 10.2427 0 -108.94
-37.7184 13.6442 0 -118.245
-71.2052 10.6618 0 -105.892
-64.1475 10.2705 0 -107.269
-80.9863 6.65073 0 -91.5044
-58.6542 7.05942 0 -94.5961
-26.888 15.1869 0 -122.862
-34.3889 13.6834 0 -119.853
-69.7656 6.4372 0 -92.9672
-41.595 12.1402 0 -112.409
-30.8732 14.1629 0 -121.439
-56.7393 10.2427 0 -108.94
-49.1617 10.8185 0 -110.76
-58.6542 7.05942 0 -94.5961
-35.1819 14.5748 0 -99.1143
-20.5153 18.8145 0 -123.092
-26.888 15.1869 0 -122.862
-47.2445 9.51518 0 -96.6027
-27.0211 19.1046 0 -114.736
-23.2359 16.5803 0 -123.609
-41.595 12.1402 0 -112.409
-34.2199 14.5317 0 -113.716
-35.1819 14.5748 0 -99.1143
-17.551 36.2683 0 -101.288
-13.7403 27.4718 0 -115.865
-20.5153 18.8145 0 -123.092
-24.7652 22.543 0 -101.024
-16.7585 35.6167 0 -110.408
-17.587 22.6856 0 -120.743
-27.0211 19.1046 0 -114.736
-20.8311 26.3973 0 -114.267
-17.551 36.2683 0 -101.288
-6.08756 88.2642 0 -89.8277
-10.0322 34.9841 0 -93.7917
-13.7403 27.4718 0 -115.865
-11.5304 58.9545 0 -98.513
-9.16328 60.2803 0 -89.9634
-10.7597 31.6062 0 -107.222
-16.7585 35.6167 0 -110.408
-13.3596 46.7276 0 -102.303
-6.08756 88.2642 0 -89.8277
0.875728 142.703 0 -41.4433
-7.10641 43.6612 0 -52.1894
-10.0322 34.9841 0 -93.7917
-1.37093 119.231 0 -71.3811
-1.58114 89.6776 0 -49.9385
-9.44733 38.8506 0 -75.5118
-9.16328 60.2803 0 -89.9634
-4.80517 75.6541 0 -72.8702
-1090.63 -327.029 0 431.571
-1063.96 -186.417 0 143.563
1034.85 170.892 0 141.671
1059.75 318.097 0 429.814
-1045.68 -257.833 0 272.351
-15.4617 -7.93907 0 161.69
1015.83 245.043 0 270.867
-16.5042 -4.4488 0 439.635
-15.81 -6.65685 0 304.121
-1063.96 -186.417 0 143.563
-1120.18 -116.928 0 -28.2548
1091.94 98.1879 0 -31.5783
1034.85 170.892 0 141.671
-1107.46 -147.789 0 42.4691
-15.1121 -9.55036 0 -20.8579
1078.87 130.372 0 39.8591
-15.4617 -7.93907 0 161.69
-15.306 -8.85011 0 49.2977
-1120.18 -116.928 0 -28.2548
-1123.8 -53.5319 0 -105.648
1096.07 32.9586 0 -110.53
1091.94 98.1879 0 -31.5783
-1118.04 -81.912 0 -75.0021
-14.9053 -10.591 0 -105.462
1090.05 62.1681 0 -79.0873
-15.1121 -9.55036 0 -20.8579
-14.965 -10.1229 0 -68.9396
-1123.8 -53.5319 0 -105.648
-1126.77 -24.2411 0 -132.78
1099.51 2.18648 0 -139.123
1096.07 32.9586 0 -110.53
-1130.19 -36.3224 0 -123.94
-14.7363 -11.2974 0 -138.151
1102.7 14.9791 0 -129.58
-14.9053 -10.591 0 -105.462
-14.8489 -10.9714 0 -127.922
-1126.77 -24.2411 0 -132.78
-1114.67 -9.20108 0 -135.074
1087.82 -14.0331 0 -142.718
1099.51 2.18648 0 -139.123
-1119.26 -14.6589 0 -135.47
-14.5369 -11.8666 0 -143.732
1092.22 -8.03029 0 -142.479
-14.7363 -11.2974 0 -138.151
-14.6231 -11.6008 0 -142.315
-1114.67 -9.20108 0 -135.074
-1104.54 -6.66594 0 -129.529
1077.97 -17.376 0 -138.362
1087.82 -14.0331 0 -142.718
-1110.7 -7.29145 0 -132.801
-14.3777 -12.2473 0 -138.899
1084.01 -16.396 0 -141.048
-14.5369 -11.8666 0 -143.732
-14.4571 -12.0805 0 -142.263
-1104.54 -6.66594 0 -129.529
-1092.71 -6.71193 0 -122.558
1066.28 -17.7367 0 -132.561
1077.97 -17.376 0 -138.362
-1097.85 -6.33661 0 -125.912
-14.2785 -12.4556 0 -132.055
1071.37 -17.9577 0 -135.328
-14.3777 -12.2473 0 -138.899
-14.316 -12.3739 0 -135.249
-1092.71 -6.71193 0 -122.558
-1083.64 -8.38794 0 -116.899
1057.24 -16.1193 0 -128.088
1066.28 -17.7367 0 -132.561
-1088.28 -7.57548 0 -119.541
-14.2388 -12.4886 0 -126.27
1061.88 -16.941 0 -130.134
-14.2785 -12.4556 0 -132.055
-14.2544 -12.4917 0 -129.035
-1083.64 -8.38794 0 -116.899
-1075.3 -9.57211 0 -112.789
1048.87 -14.7272 0 -125.191
1057.24 -16.1193 0 -128.088
-1079.15 -8.99961 0 -114.64
-14.2384 -12.391 0 -122.245
1052.75 -15.432 0 -126.432
-14.2388 -12.4886 0 -126.27
-14.234 -12.454 0 -123.996
-1075.3 -9.57211 0 -112.789
-1068.32 -10.4721 0 -110.024
1041.83 -13.4355 0 -123.654
1048.87 -14.7272 0 -125.191
-1071.79 -10.0952 0 -111.272
-14.2573 -12.1967 0 -119.71
1045.33 -14.0265 0 -124.286
-14.2384 -12.391 0 -122.245
-14.2471 -12.3035 0 -120.838
-1068.32 -10.4721 0 -110.024
-1061.82 -10.8762 0 -108.159
1035.27 -12.5253 0 -123.02
1041.83 -13.4355 0 -123.654
-1064.97 -10.7119 0 -108.999
-14.2802 -11.9428 0 -118.236
1038.45 -12.9536 0 -123.244
-14.2573 -12.1967 0 -119.71
-14.2688 -12.0755 0 -118.857
-1061.82 -10.8762 0 -108.159
-1055.79 -11.0171 0 -106.871
1029.2 -11.814 0 -122.955
1035.27 -12.5253 0 -123.02
-1058.79 -10.9814 0 -107.462
-14.2973 -11.6539 0 -117.424
1032.22 -12.1404 0 -122.936
-14.2802 -11.9428 0 -118.236
-14.29 -11.8014 0 -117.772
-1055.79 -11.0171 0 -106.871
-1049.93 -10.9481 0 -105.917
1023.31 -11.2828 0 -123.208
1029.2 -11.814 0 -122.955
-1052.83 -10.9989 0 -106.363
-14.3043 -11.3487 0 -117.004
1026.22 -11.5343 0 -123.052
-14.2973 -11.6539 0 -117.424
-14.3022 -11.5026 0 -117.176
-1049.93 -10.9481 0 -105.917
-1044.18 -10.7775 0 -105.154
1017.57 -10.8443 0 -123.632
1023.31 -11.2828 0 -123.208
-1047.05 -10.874 0 -105.518
-14.2997 -11.0382 0 -116.796
1020.43 -11.0526 0 -123.406
-14.3043 -11.3487 0 -117.004
-14.3034 -11.1936 0 -116.882
-1044.18 -10.7775 0 -105.154
-1038.48 -10.545 0 -104.493
1011.88 -10.4711 0 -124.135
1017.57 -10.8443 0 -123.632
-1041.33 -10.6657 0 -104.814
-14.2844 -10.7288 0 -116.7
1014.72 -10.6523 0 -123.877
-14.2997 -11.0382 0 -116.796
-14.2933 -10.8831 0 -116.738
-1038.48 -10.545 0 -104.493
-1032.79 -10.2874 0 -103.89
1006.23 -10.1317 0 -124.672
1011.88 -10.4711 0 -124.135
-1035.64 -10.4185 0 -104.186
-14.2601 -10.4238 0 -116.658
1009.05 -10.2977 0 -124.401
-14.2844 -10.7288 0 -116.7
-14.2733 -10.5757 0 -116.675
-1032.79 -10.2874 0 -103.89
-1027.11 -10.0189 0 -103.318
1000.6 -9.81442 0 -125.217
1006.23 -10.1317 0 -124.672
-1029.95 -10.1536 0 -103.601
-14.2288 -10.1245 0 -116.642
1003.41 -9.97116 0 -124.944
-14.2601 -10.4238 0 -116.658
-14.2452 -10.2734 0 -116.648
-1027.11 -10.0189 0 -103.318
-1021.43 -9.74929 0 -102.767
994.979 -9.50936 0 -125.759
1000.6 -9.81442 0 -125.217
-1024.27 -9.88404 0 -103.041
-14.1923 -9.83088 0 -116.635
997.789 -9.66058 0 -125.489
-14.2288 -10.1245 0 -116.642
-14.2111 -9.977 0 -116.638
-1021.43 -9.74929 0 -102.767
-1015.74 -9.48176 0 -102.23
989.36 -9.21244 0 -126.292
994.979 -9.50936 0 -125.759
-1018.59 -9.6151 0 -102.497
-14.1521 -9.54252 0 -116.633
992.169 -9.36013 0 -126.026
-14.1923 -9.83088 0 -116.635
-14.1725 -9.68608 0 -116.634
-1015.74 -9.48176 0 -102.23
-1010.06 -9.21793 0 -101.704
983.744 -8.92071 0 -126.815
989.36 -9.21244 0 -126.292
-1012.9 -9.34938 0 -101.965
-14.1095 -9.25875 0 -116.631
986.552 -9.06601 0 -126.555
-14.1521 -9.54252 0 -116.633
-14.131 -9.4001 0 -116.632
-1010.06 -9.21793 0 -101.704
-1004.37 -8.95789 0 -101.188
978.128 -8.63276 0 -127.327
983.744 -8.92071 0 -126.815
-1007.21 -9.08744 0 -101.445
-14.0655 -8.97891 0 -116.629
980.936 -8.77634 0 -127.072
-14.1095 -9.25875 0 -116.631
-14.0876 -9.11838 0 -116.63
-1004.37 -8.95789 0 -101.188
-998.675 -8.70141 0 -100.683
972.512 -8.34761 0 -127.828
978.128 -8.63276 0 -127.327
-1001.52 -8.82923 0 -100.934
-14.0206 -8.70236 0 -116.626
975.32 -8.48987 0 -127.578
-14.0655 -8.97891 0 -116.629
-14.0431 -8.84025 0 -116.628
-998.675 -8.70141 0 -100.683
-992.983 -8.44809 0 -100.187
966.896 -8.06472 0 -128.318
972.512 -8.34761 0 -127.828
-995.829 -8.57438 0 -100.434
-13.9754 -8.42861 0 -116.623
969.704 -8.20591 0 -128.074
-14.0206 -8.70236 0 -116.626
-13.998 -8.56516 0 -116.625
-992.983 -8.44809 0 -100.187
-987.29 -8.19756 0 -99.7011
961.279 -7.7837 0 -128.798
966.896 -8.06472 0 -128.318
-990.137 -8.3225 0 -99.9429
-13.9301 -8.15726 0 -116.62
964.088 -7.92399 0 -128.559
-13.9754 -8.42861 0 -116.623
-13.9527 -8.29265 0 -116.622
-987.29 -8.19756 0 -99.7011
-981.597 -7.9495 0 -99.2247
955.662 -7.50431 0 -129.268
961.279 -7.7837 0 -128.798
-984.444 -8.07324 0 -99.4617
-13.8848 -7.88803 0 -116.617
958.471 -7.64381 0 -129.034
-13.9301 -8.15726 0 -116.62
-13.9074 -8.02239 0 -116.618
-981.597 -7.9495 0 -99.2247
-975.904 -7.70367 0 -98.7579
950.045 -7.22641 0 -129.728
955.662 -7.50431 0 -129.268
-978.75 -7.82632 0 -98.9901
-13.8399 -7.6207 0 -116.613
952.854 -7.36518 0 -129.499
-13.8848 -7.88803 0 -116.617
-13.8623 -7.75414 0 -116.615
-975.904 -7.70367 0 -98.7579
-970.21 -7.45991 0 -98.3007
944.427 -6.94989 0 -130.178
950.045 -7.22641 0 -129.728
-973.057 -7.58154 0 -98.5281
-13.7951 -7.35515 0 -116.609
947.236 -7.08798 0 -129.954
-13.8399 -7.6207 0 -116.613
-13.8175 -7.48771 0 -116.611
-970.21 -7.45991 0 -98.3007
-964.517 -7.2181 0 -97.8529
938.808 -6.67469 0 -130.618
944.427 -6.94989 0 -130.178
-967.364 -7.33877 0 -98.0756
-13.7507 -7.09127 0 -116.605
941.618 -6.81212 0 -130.399
-13.7951 -7.35515 0 -116.609
-13.7729 -7.223 0 -116.607
-964.517 -7.2181 0 -97.8529
-958.824 -6.97816 0 -97.4145
933.189 -6.40079 0 -131.049
938.808 -6.67469 0 -130.618
-961.67 -7.0979 0 -97.6325
-13.7066 -6.82901 0 -116.601
935.999 -6.53758 0 -130.835
-13.7507 -7.09127 0 -116.605
-13.7286 -6.95994 0 -116.603
-958.824 -6.97816 0 -97.4145
-953.13 -6.74002 0 -96.9855
927.57 -6.12818 0 -131.47
933.189 -6.40079 0 -131.049
-955.977 -6.85887 0 -97.1989
-13.6627 -6.56833 0 -116.596
930.379 -6.26432 0 -131.261
-13.7066 -6.82901 0 -116.601
-13.6846 -6.69847 0 -116.599
-953.13 -6.74002 0 -96.9855
-947.437 -6.50366 0 -96.5659
921.95 -5.85685 0 -131.882
927.57 -6.12818 0 -131.47
-950.284 -6.62162 0 -96.7745
-13.6192 -6.30921 0 -116.592
924.76 -5.99235 0 -131.677
-13.6627 -6.56833 0 -116.596
-13.6409 -6.43857 0 -116.594
-947.437 -6.50366 0 -96.5659
-941.744 -6.26903 0 -96.1555
916.329 -5.58683 0 -132.284
921.95 -5.85685 0 -131.882
-944.591 -6.38613 0 -96.3595
-13.576 -6.05164 0 -116.587
919.14 -5.72168 0 -132.084
-13.6192 -6.30921 0 -116.592
-13.5975 -6.18023 0 -116.59
-941.744 -6.26903 0 -96.1555
-936.051 -6.03613 0 -95.7543
910.709 -5.31812 0 -132.676
916.329 -5.58683 0 -132.284
-938.898 -6.15237 0 -95.9537
-13.533 -5.79563 0 -116.583
913.519 -5.45231 0 -132.481
-13.576 -6.05164 0 -116.587
-13.5544 -5.92344 0 -116.585
-936.051 -6.03613 0 -95.7543
-930.358 -5.80493 0 -95.3622
905.088 -5.05075 0 -133.059
910.709 -5.31812 0 -132.676
-933.205 -5.92032 0 -95.5571
-13.4903 -5.54116 0 -116.578
907.898 -5.18427 0 -132.869
-13.533 -5.79563 0 -116.583
-13.5116 -5.6682 0 -116.581
-930.358 -5.80493 0 -95.3622
-924.665 -5.57541 0 -94.9793
899.466 -4.78474 0 -133.433
905.088 -5.05075 0 -133.059
-927.512 -5.68996 0 -95.1696
-13.4479 -5.28825 0 -116.573
902.277 -4.91757 0 -133.247
-13.4903 -5.54116 0 -116.578
-13.469 -5.41451 0 -116.576
-924.665 -5.57541 0 -94.9793
-918.973 -5.34756 0 -94.6054
893.845 -4.52009 0 -133.798
899.466 -4.78474 0 -133.433
-921.819 -5.46128 0 -94.7912
-13.4057 -5.03689 0 -116.568
896.655 -4.65224 0 -133.617
-13.4479 -5.28825 0 -116.573
-13.4267 -5.16237 0 -116.571
-918.973 -5.34756 0 -94.6054
-913.28 -5.12137 0 -94.2405
888.223 -4.25684 0 -134.153
893.845 -4.52009 0 -133.798
-916.126 -5.23426 0 -94.4218
-13.3638 -4.78708 0 -116.563
891.034 -4.38829 0 -133.977
-13.4057 -5.03689 0 -116.568
-13.3847 -4.91179 0 -116.566
-913.28 -5.12137 0 -94.2405
-907.588 -4.89681 0 -93.8846
882.6 -3.99501 0 -134.5
888.223 -4.25684 0 -134.153
-910.434 -5.00888 0 -94.0614
-13.3221 -4.53883 0 -116.558
885.412 -4.12575 0 -134.328
-13.3638 -4.78708 0 -116.563
-13.3429 -4.66276 0 -116.561
-907.588 -4.89681 0 -93.8846
-901.896 -4.67388 0 -93.5375
876.978 -3.7346 0 -134.837
882.6 -3.99501 0 -134.5
-904.742 -4.78514 0 -93.7099
-13.2807 -4.29214 0 -116.553
879.789 -3.86462 0 -134.669
-13.3221 -4.53883 0 -116.558
-13.3014 -4.41529 0 -116.556
-901.896 -4.67388 0 -93.5375
-896.204 -4.45256 0 -93.1993
871.355 -3.47564 0 -135.165
876.978 -3.7346 0 -134.837
-899.05 -4.56302 0 -93.3673
-13.2396 -4.04702 0 -116.548
874.167 -3.60494 0 -135.002
-13.2807 -4.29214 0 -116.553
-13.2601 -4.16939 0 -116.551
-896.204 -4.45256 0 -93.1993
-890.512 -4.23283 0 -92.8699
865.732 -3.21815 0 -135.484
871.355 -3.47564 0 -135.165
-893.358 -4.3425 0 -93.0335
-13.1987 -3.80345 0 -116.543
868.544 -3.34671 0 -135.326
-13.2396 -4.04702 0 -116.548
-13.2191 -3.92504 0 -116.545
-890.512 -4.23283 0 -92.8699
-884.82 -4.01468 0 -92.5492
860.109 -2.96214 0 -135.795
865.732 -3.21815 0 -135.484
-887.666 -4.12356 0 -92.7084
-13.158 -3.56145 0 -116.537
862.921 -3.08996 0 -135.641
-13.1987 -3.80345 0 -116.543
-13.1783 -3.68225 0 -116.54
-884.82 -4.01468 0 -92.5492
-879.129 -3.7981 0 -92.2371
854.486 -2.70763 0 -136.096
860.109 -2.96214 0 -135.795
-881.975 -3.9062 0 -92.3921
-13.1176 -3.321 0 -116.532
857.298 -2.8347 0 -135.947
-13.158 -3.56145 0 -116.537
-13.1378 -3.44103 0 -116.534
-879.129 -3.7981 0 -92.2371
-873.438 -3.58306 0 -91.9337
848.863 -2.45463 0 -136.389
854.486 -2.70763 0 -136.096
-876.284 -3.69039 0 -92.0843
-13.0775 -3.08213 0 -116.526
851.674 -2.58094 0 -136.244
-13.1176 -3.321 0 -116.532
-13.0975 -3.20137 0 -116.529
-873.438 -3.58306 0 -91.9337
-867.747 -3.36956 0 -91.6388
843.239 -2.20316 0 -136.673
848.863 -2.45463 0 -136.389
-870.593 -3.47612 0 -91.7852
-13.0376 -2.84481 0 -116.52
846.051 -2.32871 0 -136.532
-13.0775 -3.08213 0 -116.526
-13.0575 -2.96327 0 -116.523
-867.747 -3.36956 0 -91.6388
-862.057 -3.15758 0 -91.3525
837.615 -1.95324 0 -136.948
843.239 -2.20316 0 -136.673
-864.902 -3.26338 0 -91.4946
-12.998 -2.60906 0 -116.515
840.427 -2.07801 0 -136.812
-13.0376 -2.84481 0 -116.52
-13.0178 -2.72674 0 -116.518
-862.057 -3.15758 0 -91.3525
-856.367 -2.94711 0 -91.0746
831.992 -1.70487 0 -137.215
837.615 -1.95324 0 -136.948
-859.212 -3.05216 0 -91.2125
-12.9586 -2.37487 0 -116.509
834.803 -1.82886 0 -137.083
-12.998 -2.60906 0 -116.515
-12.9782 -2.49177 0 -116.512
-856.367 -2.94711 0 -91.0746
-850.677 -2.73813 0 -90.8051
826.368 -1.45807 0 -137.473
831.992 -1.70487 0 -137.215
-853.522 -2.84243 0 -90.9388
-12.9195 -2.14225 0 -116.503
829.18 -1.58127 0 -137.345
-12.9586 -2.37487 0 -116.509
-12.939 -2.25837 0 -116.506
-850.677 -2.73813 0 -90.8051
-844.988 -2.53063 0 -90.5439
820.744 -1.21286 0 -137.723
826.368 -1.45807 0 -137.473
-847.832 -2.63419 0 -90.6735
-12.8806 -1.91119 0 -116.497
823.556 -1.33526 0 -137.599
-12.9195 -2.14225 0 -116.503
-12.9 -2.02653 0 -116.5
-844.988 -2.53063 0 -90.5439
-839.299 -2.32459 0 -90.2911
815.12 -0.969245 0 -137.964
820.744 -1.21286 0 -137.723
-842.143 -2.42743 0 -90.4165
-12.842 -1.6817 0 -116.491
817.932 -1.09085 0 -137.845
-12.8806 -1.91119 0 -116.497
-12.8612 -1.79625 0 -116.494
-839.299 -2.32459 0 -90.2911
-833.61 -2.12001 0 -90.0464
809.496 -0.727244 0 -138.197
815.12 -0.969245 0 -137.964
-836.454 -2.22212 0 -90.1677
-12.8036 -1.45377 0 -116.485
812.308 -0.848042 0 -138.082
-12.842 -1.6817 0 -116.491
-12.8227 -1.56754 0 -116.488
-833.61 -2.12001 0 -90.0464
-827.922 -1.91686 0 -89.81
803.871 -0.486868 0 -138.422
809.496 -0.727244 0 -138.197
-830.766 -2.01825 0 -89.9272
-12.7655 -1.2274 0 -116.479
806.684 -0.606852 0 -138.311
-12.8036 -1.45377 0 -116.485
-12.7845 -1.34039 0 -116.482
-827.922 -1.91686 0 -89.81
-822.234 -1.71514 0 -89.5817
798.247 -0.248129 0 -138.638
803.871 -0.486868 0 -138.422
-825.078 -1.81582 0 -89.6948
-12.7276 -1.0026 0 -116.473
801.059 -0.367293 0 -138.531
-12.7655 -1.2274 0 -116.479
-12.7465 -1.1148 0 -116.476
-822.234 -1.71514 0 -89.5817
-816.546 -1.51484 0 -89.3614
792.623 -0.0110399 0 -138.847
798.247 -0.248129 0 -138.638
-819.39 -1.61481 0 -89.4705
-12.69 -0.779356 0 -116.466
795.435 -0.129377 0 -138.743
-12.7276 -1.0026 0 -116.473
-12.7088 -0.89078 0 -116.47
-816.546 -1.51484 0 -89.3614
-810.859 -1.31594 0 -89.1492
786.999 0.224387 0 -139.047
792.623 -0.0110399 0 -138.847
-813.703 -1.41521 0 -89.2543
-12.6526 -0.557681 0 -116.46
789.811 0.106882 0 -138.948
-12.69 -0.779356 0 -116.466
-12.6713 -0.668323 0 -116.463
-810.859 -1.31594 0 -89.1492
-805.173 -1.11843 0 -88.9449
781.375 0.458141 0 -139.239
786.999 0.224387 0 -139.047
-808.016 -1.21701 0 -89.046
-12.6155 -0.33757 0 -116.454
784.187 0.341474 0 -139.144
-12.6526 -0.557681 0 -116.46
-12.634 -0.44743 0 -116.457
-805.173 -1.11843 0 -88.9449
-799.486 -0.922296 0 -88.7485
775.751 0.690209 0 -139.423
781.375 0.458141 0 -139.239
-802.329 -1.02019 0 -88.8457
-12.5787 -0.119022 0 -116.447
778.563 0.574386 0 -139.332
-12.6155 -0.33757 0 -116.454
-12.5971 -0.2281 0 -116.451
-799.486 -0.922296 0 -88.7485
-793.801 -0.727532 0 -88.56
770.127 0.920581 0 -139.599
775.751 0.690209 0 -139.423
-796.643 -0.824744 0 -88.6532
-12.5421 0.0979613 0 -116.441
772.939 0.805608 0 -139.512
-12.5787 -0.119022 0 -116.447
-12.5603 -0.010335 0 -116.444
-793.801 -0.727532 0 -88.56
-788.115 -0.534126 0 -88.3792
764.503 1.14925 0 -139.767
770.127 0.920581 0 -139.599
-790.958 -0.63066 0 -88.4686
-12.5057 0.313381 0 -116.435
767.315 1.03513 0 -139.684
-12.5421 0.0979613 0 -116.441
-12.5239 0.205867 0 -116.438
-788.115 -0.534126 0 -88.3792
-782.431 -0.342065 0 -88.2062
758.879 1.37619 0 -139.927
764.503 1.14925 0 -139.767
-785.273 -0.437928 0 -88.2917
-12.4696 0.527237 0 -116.428
761.691 1.26294 0 -139.848
-12.5057 0.313381 0 -116.435
-12.4876 0.420504 0 -116.431
-782.431 -0.342065 0 -88.2062
-776.746 -0.151341 0 -88.0409
753.255 1.60141 0 -140.08
758.879 1.37619 0 -139.927
-779.588 -0.246537 0 -88.1226
-12.4338 0.739529 0 -116.422
756.067 1.48902 0 -140.004
-12.4696 0.527237 0 -116.428
-12.4517 0.633579 0 -116.425
-776.746 -0.151341 0 -88.0409
-771.062 0.0380584 0 -87.8832
747.631 1.82489 0 -140.224
753.255 1.60141 0 -140.08
-773.904 -0.0564761 0 -87.9611
-12.3982 0.950258 0 -116.415
750.443 1.71337 0 -140.153
-12.4338 0.739529 0 -116.422
-12.416 0.845089 0 -116.418
-771.062 0.0380584 0 -87.8832
-765.379 0.226142 0 -87.7331
742.007 2.04662 0 -140.362
747.631 1.82489 0 -140.224
-768.221 0.132264 0 -87.8072
-12.3629 1.15942 0 -116.408
744.819 1.93598 0 -140.294
-12.3982 0.950258 0 -116.415
-12.3805 1.05504 0 -116.412
-765.379 0.226142 0 -87.7331
-759.696 0.41292 0 -87.5905
736.384 2.2666 0 -140.491
742.007 2.04662 0 -140.362
-762.538 0.319694 0 -87.6608
-12.3278 1.36702 0 -116.402
739.195 2.15683 0 -140.427
-12.3629 1.15942 0 -116.408
-12.3453 1.26342 0 -116.405
-759.696 0.41292 0 -87.5905
-754.014 0.598402 0 -87.4553
730.76 2.48481 0 -140.613
736.384 2.2666 0 -140.491
-756.855 0.505822 0 -87.522
-12.293 1.57306 0 -116.395
733.572 2.37592 0 -140.553
-12.3278 1.36702 0 -116.402
-12.3104 1.47024 0 -116.398
-754.014 0.598402 0 -87.4553
-748.333 0.782596 0 -87.3276
725.137 2.70124 0 -140.728
730.76 2.48481 0 -140.613
-751.173 0.690659 0 -87.3905
-12.2584 1.77754 0 -116.388
727.948 2.59324 0 -140.671
-12.293 1.57306 0 -116.395
-12.2757 1.67549 0 -116.392
-748.333 0.782596 0 -87.3276
-742.651 0.965513 0 -87.2072
719.513 2.91588 0 -140.835
725.137 2.70124 0 -140.728
-745.492 0.874214 0 -87.2665
-12.2241 1.98045 0 -116.381
722.325 2.80878 0 -140.782
-12.2584 1.77754 0 -116.388
-12.2412 1.87919 0 -116.385
-742.651 0.965513 0 -87.2072
-736.971 1.14716 0 -87.0941
713.89 3.12873 0 -140.935
719.513 2.91588 0 -140.835
-739.811 1.05649 0 -87.1498
-12.1901 2.18179 0 -116.375
716.702 3.02253 0 -140.886
-12.2241 1.98045 0 -116.381
-12.2071 2.08131 0 -116.378
-736.971 1.14716 0 -87.0941
-731.291 1.32755 0 -86.9883
708.267 3.33978 0 -141.027
713.89 3.12873 0 -140.935
-734.131 1.23751 0 -87.0403
-12.1563 2.38158 0 -116.368
711.079 3.23448 0 -140.982
-12.1901 2.18179 0 -116.375
-12.1731 2.28188 0 -116.371
-731.291 1.32755 0 -86.9883
-725.612 1.50668 0 -86.8896
702.644 3.54902 0 -141.112
708.267 3.33978 0 -141.027
-728.451 1.41727 0 -86.9381
-12.1227 2.5798 0 -116.361
705.456 3.44463 0 -141.071
-12.1563 2.38158 0 -116.368
-12.1395 2.48088 0 -116.364
-725.612 1.50668 0 -86.8896
-719.933 1.68457 0 -86.7981
697.022 3.75644 0 -141.19
702.644 3.54902 0 -141.112
-722.772 1.59578 0 -86.843
-12.0894 2.77646 0 -116.354
699.833 3.65296 0 -141.152
-12.1227 2.5798 0 -116.361
-12.106 2.67832 0 -116.358
-719.933 1.68457 0 -86.7981
-714.255 1.86122 0 -86.7137
691.399 3.96203 0 -141.261
697.022 3.75644 0 -141.19
-717.094 1.77305 0 -86.755
-12.0564 2.97155 0 -116.347
694.21 3.85947 0 -141.227
-12.0894 2.77646 0 -116.354
-12.0729 2.8742 0 -116.351
-714.255 1.86122 0 -86.7137
-708.577 2.03664 0 -86.6362
685.777 4.1658 0 -141.325
691.399 3.96203 0 -141.261
-711.416 1.94909 0 -86.6741
-12.0236 3.16508 0 -116.34
688.588 4.06414 0 -141.294
-12.0564 2.97155 0 -116.347
-12.04 3.06851 0 -116.344
-708.577 2.03664 0 -86.6362
-702.9 2.21085 0 -86.5658
680.155 4.36772 0 -141.382
685.777 4.1658 0 -141.325
-705.738 2.1239 0 -86.6001
-11.9911 3.35705 0 -116.333
682.966 4.26699 0 -141.355
-12.0236 3.16508 0 -116.34
-12.0073 3.26126 0 -116.337
-702.9 2.21085 0 -86.5658
-697.224 2.38383 0 -86.5022
674.533 4.56779 0 -141.432
680.155 4.36772 0 -141.382
-700.062 2.29749 0 -86.5331
-11.9588 3.54746 0 -116.326
677.344 4.46798 0 -141.408
-11.9911 3.35705 0 -116.333
-11.9749 3.45245 0 -116.33
-697.224 2.38383 0 -86.5022
-691.548 2.55561 0 -86.4455
668.911 4.76601 0 -141.475
674.533 4.56779 0 -141.432
-694.386 2.46987 0 -86.473
-11.9268 3.7363 0 -116.319
671.722 4.66713 0 -141.454
-11.9588 3.54746 0 -116.326
-11.9428 3.64207 0 -116.323
-691.548 2.55561 0 -86.4455
-685.873 2.72619 0 -86.3956
663.29 4.96237 0 -141.511
668.911 4.76601 0 -141.475
-688.71 2.64105 0 -86.4197
-11.895 3.92358 0 -116.313
666.1 4.86442 0 -141.494
-11.9268 3.7363 0 -116.319
-11.9109 3.83014 0 -116.316
-685.873 2.72619 0 -86.3956
-680.198 2.89557 0 -86.3525
657.668 5.15686 0 -141.541
663.29 4.96237 0 -141.511
-683.036 2.81103 0 -86.3732
-11.8635 4.1093 0 -116.306
660.479 5.05985 0 -141.527
-11.895 3.92358 0 -116.313
-11.8793 4.01664 0 -116.309
-680.198 2.89557 0 -86.3525
-674.525 3.06376 0 -86.316
652.047 5.34948 0 -141.563
657.668 5.15686 0 -141.541
-677.362 2.97982 0 -86.3334
-11.8323 4.29346 0 -116.299
654.858 5.25341 0 -141.553
-11.8635 4.1093 0 -116.306
-11.8479 4.20157 0 -116.302
-674.525 3.06376 0 -86.316
-668.852 3.23077 0 -86.2862
646.426 5.54022 0 -141.58
652.047 5.34948 0 -141.563
-671.688 3.14742 0 -86.3002
-11.8013 4.47605 0 -116.292
649.237 5.44509 0 -141.572
-11.8323 4.29346 0 -116.299
-11.8168 4.38495 0 -116.295
-668.852 3.23077 0 -86.2862
-663.179 3.39661 0 -86.2629
640.806 5.72908 0 -141.589
646.426 5.54022 0 -141.58
-666.015 3.31384 0 -86.2737
-11.7706 4.65708 0 -116.285
643.616 5.63489 0 -141.585
-11.8013 4.47605 0 -116.292
-11.7859 4.56676 0 -116.288
-663.179 3.39661 0 -86.2629
-657.507 3.56127 0 -86.2462
635.185 5.91605 0 -141.592
640.806 5.72908 0 -141.589
-660.343 3.47909 0 -86.2537
-11.7401 4.83655 0 -116.278
637.995 5.8228 0 -141.591
-11.7706 4.65708 0 -116.285
-11.7553 4.74701 0 -116.281
-657.507 3.56127 0 -86.2462
-651.836 3.72477 0 -86.2359
629.565 6.10113 0 -141.588
635.185 5.91605 0 -141.592
-654.672 3.64316 0 -86.2402
-11.7099 5.01446 0 -116.271
632.375 6.00883 0 -141.591
-11.7401 4.83655 0 -116.278
-11.725 4.9257 0 -116.274
-651.836 3.72477 0 -86.2359
-646.166 3.8871 0 -86.232
623.945 6.2843 0 -141.578
629.565 6.10113 0 -141.588
-649.001 3.80608 0 -86.2332
-11.6799 5.19081 0 -116.264
626.755 6.19295 0 -141.584
-11.7099 5.01446 0 -116.271
-11.6949 5.10283 0 -116.267
-646.166 3.8871 0 -86.232
-640.496 4.04828 0 -86.2345
618.325 6.46558 0 -141.562
623.945 6.2843 0 -141.578
-643.331 3.96784 0 -86.2325
-11.6502 5.36559 0 -116.257
621.135 6.37518 0 -141.571
-11.6799 5.19081 0 -116.264
-11.665 5.2784 0 -116.26
-640.496 4.04828 0 -86.2345
-634.827 4.20831 0 -86.2433
612.706 6.64494 0 -141.54
618.325 6.46558 0 -141.562
-637.661 4.12844 0 -86.2382
-11.6208 5.53882 0 -116.25
615.516 6.5555 0 -141.552
-11.6502 5.36559 0 -116.257
-11.6355 5.4524 0 -116.253
-634.827 4.20831 0 -86.2433
-629.158 4.36719 0 -86.2584
607.087 6.82239 0 -141.511
612.706 6.64494 0 -141.54
-631.992 4.28789 0 -86.2501
-11.5916 5.71048 0 -116.243
609.896 6.7339 0 -141.526
-11.6208 5.53882 0 -116.25
-11.6061 5.62484 0 -116.246
-629.158 4.36719 0 -86.2584
-623.491 4.52493 0 -86.2796
601.468 6.99793 0 -141.476
607.087 6.82239 0 -141.511
-626.324 4.4462 0 -86.2682
-11.5626 5.88058 0 -116.236
604.277 6.9104 0 -141.494
-11.5916 5.71048 0 -116.243
-11.5771 5.79573 0 -116.239
-623.491 4.52493 0 -86.2796
-617.824 4.68153 0 -86.307
595.849 7.17154 0 -141.434
601.468 6.99793 0 -141.476
-620.657 4.60337 0 -86.2926
-11.534 6.04912 0 -116.229
598.659 7.08498 0 -141.456
-11.5626 5.88058 0 -116.236
-11.5483 5.96505 0 -116.232
-617.824 4.68153 0 -86.307
-612.157 4.83699 0 -86.3405
590.231 7.34323 0 -141.387
595.849 7.17154 0 -141.434
-614.99 4.7594 0 -86.323
-11.5055 6.2161 0 -116.222
593.04 7.25763 0 -141.412
-11.534 6.04912 0 -116.229
-11.5197 6.13281 0 -116.225
-612.157 4.83699 0 -86.3405
-606.492 4.99133 0 -86.3799
584.613 7.513 0 -141.334
590.231 7.34323 0 -141.387
-609.324 4.9143 0 -86.3594
-11.4774 6.38152 0 -116.215
587.422 7.42836 0 -141.361
-11.5055 6.2161 0 -116.222
-11.4914 6.29901 0 -116.218
-606.492 4.99133 0 -86.3799
-600.827 5.14453 0 -86.4254
578.995 7.68083 0 -141.275
584.613 7.513 0 -141.334
-603.659 5.06807 0 -86.4019
-11.4495 6.54538 0 -116.208
581.804 7.59716 0 -141.305
-11.4774 6.38152 0 -116.215
-11.4634 6.46364 0 -116.211
-600.827 5.14453 0 -86.4254
-595.163 5.29661 0 -86.4767
573.378 7.84674 0 -141.21
578.995 7.68083 0 -141.275
-597.995 5.22071 0 -86.4503
-11.4218 6.70768 0 -116.201
576.186 7.76403 0 -141.243
-11.4495 6.54538 0 -116.208
-11.4356 6.62672 0 -116.204
-595.163 5.29661 0 -86.4767
-589.499 5.44757 0 -86.5339
567.76 8.0107 0 -141.139
573.378 7.84674 0 -141.21
-592.331 5.37223 0 -86.5046
-11.3945 6.86841 0 -116.194
570.569 7.92896 0 -141.175
-11.4218 6.70768 0 -116.201
-11.4081 6.78824 0 -116.197
-589.499 5.44757 0 -86.5339
-583.836 5.59741 0 -86.597
562.143 8.17273 0 -141.062
567.76 8.0107 0 -141.139
-586.668 5.52263 0 -86.5647
-11.3673 7.02759 0 -116.187
564.952 8.09196 0 -141.101
-11.3945 6.86841 0 -116.194
-11.3809 6.9482 0 -116.191
-583.836 5.59741 0 -86.597
-578.174 5.74614 0 -86.6657
556.527 8.33282 0 -140.98
562.143 8.17273 0 -141.062
-581.005 5.67192 0 -86.6306
-11.3405 7.18521 0 -116.18
559.335 8.25301 0 -141.022
-11.3673 7.02759 0 -116.187
-11.3539 7.10659 0 -116.184
-578.174 5.74614 0 -86.6657
-572.513 5.89375 0 -86.7402
550.91 8.49096 0 -140.892
556.527 8.33282 0 -140.98
-575.344 5.82009 0 -86.7022
-11.3138 7.34126 0 -116.173
553.718 8.41213 0 -140.937
-11.3405 7.18521 0 -116.18
-11.3271 7.26343 0 -116.177
-572.513 5.89375 0 -86.7402
-566.853 6.04025 0 -86.8203
545.294 8.64716 0 -140.798
550.91 8.49096 0 -140.892
-569.683 5.96714 0 -86.7795
-11.2875 7.49576 0 -116.167
548.102 8.5693 0 -140.846
-11.3138 7.34126 0 -116.173
-11.3006 7.41871 0 -116.17
-566.853 6.04025 0 -86.8203
-561.193 6.18565 0 -86.9059
539.678 8.80141 0 -140.699
545.294 8.64716 0 -140.798
-564.023 6.11309 0 -86.8624
-11.2614 7.6487 0 -116.16
542.486 8.72453 0 -140.749
-11.2875 7.49576 0 -116.167
-11.2744 7.57243 0 -116.163
-561.193 6.18565 0 -86.9059
-555.534 6.32993 0 -86.9971
534.063 8.95371 0 -140.594
539.678 8.80141 0 -140.699
-558.363 6.25793 0 -86.9509
-11.2356 7.80008 0 -116.153
536.871 8.8778 0 -140.647
-11.2614 7.6487 0 -116.16
-11.2485 7.72458 0 -116.156
-555.534 6.32993 0 -86.9971
-549.875 6.47311 0 -87.0938
528.448 9.10406 0 -140.484
534.063 8.95371 0 -140.594
-552.704 6.40166 0 -87.0448
-11.21 7.9499 0 -116.146
531.255 9.02913 0 -140.54
-11.2356 7.80008 0 -116.153
-11.2228 7.87518 0 -116.15
-549.875 6.47311 0 -87.0938
-544.218 6.61519 0 -87.1959
522.833 9.25246 0 -140.369
528.448 9.10406 0 -140.484
-547.046 6.54429 0 -87.1442
-11.1847 8.09816 0 -116.139
525.64 9.17851 0 -140.427
-11.21 7.9499 0 -116.146
-11.1973 8.02422 0 -116.143
-544.218 6.61519 0 -87.1959
-538.561 6.75616 0 -87.3033
517.218 9.39891 0 -140.248
522.833 9.25246 0 -140.369
-541.389 6.68581 0 -87.249
-11.1596 8.24486 0 -116.133
520.025 9.32593 0 -140.309
-11.1847 8.09816 0 -116.139
-11.1721 8.1717 0 -116.136
-538.561 6.75616 0 -87.3033
-532.904 6.89604 0 -87.4161
511.604 9.54341 0 -140.122
517.218 9.39891 0 -140.248
-535.732 6.82624 0 -87.3591
-11.1348 8.39 0 -116.126
514.411 9.4714 0 -140.186
-11.1596 8.24486 0 -116.133
-11.1472 8.31763 0 -116.129
-532.904 6.89604 0 -87.4161
-527.249 7.03481 0 -87.5341
505.99 9.68595 0 -139.991
511.604 9.54341 0 -140.122
-530.077 6.96556 0 -87.4744
-11.1103 8.53359 0 -116.119
508.797 9.61492 0 -140.057
-11.1348 8.39 0 -116.126
-11.1225 8.46199 0 -116.123
-527.249 7.03481 0 -87.5341
-521.594 7.17248 0 -87.6573
500.376 9.82654 0 -139.855
505.99 9.68595 0 -139.991
-524.421 7.10378 0 -87.595
-11.086 8.67561 0 -116.113
503.183 9.75649 0 -139.923
-11.1103 8.53359 0 -116.119
-11.0981 8.60479 0 -116.116
-521.594 7.17248 0 -87.6573
-515.94 7.30906 0 -87.7856
494.763 9.96517 0 -139.713
500.376 9.82654 0 -139.855
-518.767 7.24091 0 -87.7208
-11.062 8.81608 0 -116.106
497.569 9.8961 0 -139.784
-11.086 8.67561 0 -116.113
-11.074 8.74604 0 -116.109
-515.94 7.30906 0 -87.7856
-510.287 7.44454 0 -87.919
489.149 10.1018 0 -139.567
494.763 9.96517 0 -139.713
-513.114 7.37694 0 -87.8517
-11.0383 8.95499 0 -116.1
491.956 10.0338 0 -139.641
-11.062 8.81608 0 -116.106
-11.0501 8.88573 0 -116.103
-510.287 7.44454 0 -87.919
-504.634 7.57892 0 -88.0574
483.537 10.2366 0 -139.415
489.149 10.1018 0 -139.567
-507.461 7.51186 0 -87.9876
-11.0148 9.09234 0 -116.093
486.343 10.1695 0 -139.492
-11.0383 8.95499 0 -116.1
-11.0265 9.02386 0 -116.096
-504.634 7.57892 0 -88.0574
-498.983 7.7122 0 -88.2008
477.924 10.3693 0 -139.259
483.537 10.2366 0 -139.415
-501.808 7.6457 0 -88.1285
-10.9915 9.22813 0 -116.087
480.73 10.3032 0 -139.338
-11.0148 9.09234 0 -116.093
-11.0031 9.16043 0 -116.09
-498.983 7.7122 0 -88.2008
-493.332 7.84438 0 -88.3492
472.312 10.5002 0 -139.098
477.924 10.3693 0 -139.259
-496.157 7.77843 0 -88.2744
-10.9686 9.36237 0 -116.08
475.118 10.435 0 -139.179
-10.9915 9.22813 0 -116.087
-10.98 9.29545 0 -116.083
-493.332 7.84438 0 -88.3492
-487.681 7.97547 0 -88.5023
466.7 10.629 0 -138.932
472.312 10.5002 0 -139.098
-490.506 7.91007 0 -88.4251
-10.9458 9.49505 0 -116.074
469.506 10.5648 0 -139.016
-10.9686 9.36237 0 -116.08
-10.9572 9.4289 0 -116.077
-487.681 7.97547 0 -88.5023
-482.032 8.10546 0 -88.6603
461.088 10.7559 0 -138.761
466.7 10.629 0 -138.932
-484.856 8.0406 0 -88.5807
-10.9234 9.62617 0 -116.068
463.894 10.6927 0 -138.847
-10.9458 9.49505 0 -116.074
-10.9346 9.5608 0 -116.071
-482.032 8.10546 0 -88.6603
-476.383 8.23435 0 -88.8231
455.477 10.8809 0 -138.586
461.088 10.7559 0 -138.761
-479.207 8.17005 0 -88.7411
-10.9012 9.75573 0 -116.061
458.282 10.8186 0 -138.674
-10.9234 9.62617 0 -116.068
-10.9123 9.69114 0 -116.064
-476.383 8.23435 0 -88.8231
-470.735 8.36215 0 -88.9905
449.866 11.0039 0 -138.406
455.477 10.8809 0 -138.586
-473.559 8.29839 0 -88.9062
-10.8793 9.88374 0 -116.055
452.671 10.9426 0 -138.497
-10.9012 9.75573 0 -116.061
-10.8902 9.81993 0 -116.058
-470.735 8.36215 0 -88.9905
-465.087 8.48884 0 -89.1625
444.255 11.1249 0 -138.222
449.866 11.0039 0 -138.406
-467.911 8.42563 0 -89.0759
-10.8576 10.0102 0 -116.049
447.06 11.0646 0 -138.315
-10.8793 9.88374 0 -116.055
-10.8684 9.94716 0 -116.052
-465.087 8.48884 0 -89.1625
-459.441 8.61443 0 -89.3392
438.644 11.244 0 -138.033
444.255 11.1249 0 -138.222
-462.264 8.55177 0 -89.2503
-10.8362 10.1351 0 -116.043
441.45 11.1847 0 -138.128
-10.8576 10.0102 0 -116.049
-10.8469 10.0728 0 -116.046
-459.441 8.61443 0 -89.3392
-453.795 8.73892 0 -89.5204
433.034 11.3612 0 -137.839
438.644 11.244 0 -138.033
-456.617 8.67681 0 -89.4292
-10.8151 10.2584 0 -116.036
435.839 11.3028 0 -137.937
-10.8362 10.1351 0 -116.043
-10.8256 10.1969 0 -116.039
-453.795 8.73892 0 -89.5204
-448.149 8.86231 0 -89.706
427.424 11.4764 0 -137.642
433.034 11.3612 0 -137.839
-450.972 8.80075 0 -89.6127
-10.7942 10.3802 0 -116.03
430.229 11.419 0 -137.741
-10.8151 10.2584 0 -116.036
-10.8046 10.3195 0 -116.033
-448.149 8.86231 0 -89.706
-442.505 8.98459 0 -89.8961
421.814 11.5896 0 -137.44
427.424 11.4764 0 -137.642
-445.327 8.92359 0 -89.8005
-10.7736 10.5004 0 -116.024
424.619 11.5333 0 -137.541
-10.7942 10.3802 0 -116.03
-10.7838 10.4405 0 -116.027
-442.505 8.98459 0 -89.8961
-436.861 9.10577 0 -90.0905
416.205 11.701 0 -137.233
421.814 11.5896 0 -137.44
-439.683 9.04532 0 -89.9928
-10.7532 10.6191 0 -116.018
419.01 11.6455 0 -137.337
-10.7736 10.5004 0 -116.024
-10.7634 10.56 0 -116.021
-436.861 9.10577 0 -90.0905
-431.218 9.22584 0 -90.2893
410.596 11.8103 0 -137.023
416.205 11.701 0 -137.233
-434.039 9.16594 0 -90.1894
-10.7331 10.7362 0 -116.012
413.4 11.7559 0 -137.129
-10.7532 10.6191 0 -116.018
-10.7431 10.6778 0 -116.015
-431.218 9.22584 0 -90.2893
-425.576 9.3448 0 -90.4923
404.987 11.9178 0 -136.808
410.596 11.8103 0 -137.023
-428.397 9.28546 0 -90.3902
-10.7133 10.8518 0 -116.007
407.792 11.8643 0 -136.916
-10.7331 10.7362 0 -116.012
-10.7232 10.7942 0 -116.009
-425.576 9.3448 0 -90.4923
-419.934 9.46265 0 -90.6994
399.379 12.0233 0 -136.589
404.987 11.9178 0 -136.808
-422.755 9.40386 0 -90.5953
-10.6937 10.9658 0 -116.001
402.183 11.9708 0 -136.699
-10.7133 10.8518 0 -116.007
-10.7035 10.909 0 -116.004
-419.934 9.46265 0 -90.6994
-414.293 9.57939 0 -90.9108
393.77 12.1268 0 -136.366
399.379 12.0233 0 -136.589
-417.113 9.52116 0 -90.8046
-10.6744 11.0782 0 -115.995
396.574 12.0753 0 -136.478
-10.6937 10.9658 0 -116.001
-10.684 11.0222 0 -115.998
-414.293 9.57939 0 -90.9108
-408.653 9.69501 0 -91.1262
388.162 12.2285 0 -136.14
393.77 12.1268 0 -136.366
-411.473 9.63734 0 -91.018
-10.6554 11.1891 0 -115.989
390.966 12.1779 0 -136.254
-10.6744 11.0782 0 -115.995
-10.6649 11.1338 0 -115.992
-408.653 9.69501 0 -91.1262
-403.013 9.80951 0 -91.3456
382.554 12.3282 0 -135.909
388.162 12.2285 0 -136.14
-405.833 9.7524 0 -91.2354
-10.6366 11.2984 0 -115.984
385.358 12.2786 0 -136.025
-10.6554 11.1891 0 -115.989
-10.6459 11.244 0 -115.986
-403.013 9.80951 0 -91.3456
-397.374 9.92289 0 -91.569
376.947 12.426 0 -135.674
382.554 12.3282 0 -135.909
-400.194 9.86634 0 -91.4568
-10.6181 11.4062 0 -115.978
379.751 12.3773 0 -135.792
-10.6366 11.2984 0 -115.984
-10.6273 11.3525 0 -115.981
-397.374 9.92289 0 -91.569
-391.736 10.0351 0 -91.7964
371.34 12.5218 0 -135.436
376.947 12.426 0 -135.674
-394.555 9.97916 0 -91.6822
-10.5998 11.5124 0 -115.972
374.143 12.4741 0 -135.556
-10.6181 11.4062 0 -115.978
-10.6089 11.4595 0 -115.975
-391.736 10.0351 0 -91.7964
-386.099 10.1463 0 -92.0276
365.733 12.6158 0 -135.194
371.34 12.5218 0 -135.436
-388.917 10.0909 0 -91.9115
-10.5818 11.6171 0 -115.967
368.536 12.569 0 -135.315
-10.5998 11.5124 0 -115.972
-10.5908 11.565 0 -115.97
-386.099 10.1463 0 -92.0276
-380.462 10.2563 0 -92.2626
360.126 12.7078 0 -134.948
365.733 12.6158 0 -135.194
-383.28 10.2014 0 -92.1446
-10.5641 11.7202 0 -115.961
362.929 12.662 0 -135.071
-10.5818 11.6171 0 -115.967
-10.5729 11.6689 0 -115.964
-380.462 10.2563 0 -92.2626
-374.826 10.3652 0 -92.5013
354.519 12.7979 0 -134.699
360.126 12.7078 0 -134.948
-377.644 10.3109 0 -92.3815
-10.5466 11.8218 0 -115.956
357.322 12.7531 0 -134.824
-10.5641 11.7202 0 -115.961
-10.5553 11.7712 0 -115.959
-374.826 10.3652 0 -92.5013
-369.191 10.4729 0 -92.7438
348.913 12.8861 0 -134.446
354.519 12.7979 0 -134.699
-372.008 10.4192 0 -92.6221
-10.5294 11.9218 0 -115.951
351.716 12.8422 0 -134.572
-10.5466 11.8218 0 -115.956
-10.538 11.872 0 -115.953
-369.191 10.4729 0 -92.7438
-363.556 10.5795 0 -92.9899
343.307 12.9724 0 -134.189
348.913 12.8861 0 -134.446
-366.373 10.5263 0 -92.8664
-10.5125 12.0203 0 -115.946
346.11 12.9295 0 -134.318
-10.5294 11.9218 0 -115.951
-10.5209 11.9712 0 -115.948
-363.556 10.5795 0 -92.9899
-357.922 10.685 0 -93.2395
337.701 13.0568 0 -133.929
343.307 12.9724 0 -134.189
-360.739 10.6324 0 -93.1143
-10.4958 12.1172 0 -115.94
340.504 13.0148 0 -134.059
-10.5125 12.0203 0 -115.946
-10.5041 12.0689 0 -115.943
-357.922 10.685 0 -93.2395
-352.288 10.7893 0 -93.4927
332.095 13.1393 0 -133.666
337.701 13.0568 0 -133.929
-355.105 10.7373 0 -93.3657
-10.4794 12.2125 0 -115.935
334.898 13.0982 0 -133.798
-10.4958 12.1172 0 -115.94
-10.4876 12.165 0 -115.938
-352.288 10.7893 0 -93.4927
-346.656 10.8924 0 -93.7494
326.49 13.2198 0 -133.399
332.095 13.1393 0 -133.666
-349.472 10.841 0 -93.6207
-10.4633 12.3063 0 -115.93
329.293 13.1798 0 -133.533
-10.4794 12.2125 0 -115.935
-10.4713 12.2596 0 -115.933
-346.656 10.8924 0 -93.7494
-341.024 10.9944 0 -94.0095
320.885 13.2985 0 -133.129
326.49 13.2198 0 -133.399
-343.84 10.9436 0 -93.8791
-10.4474 12.3985 0 -115.925
323.687 13.2594 0 -133.264
-10.4633 12.3063 0 -115.93
-10.4553 12.3526 0 -115.928
-341.024 10.9944 0 -94.0095
-335.392 11.0953 0 -94.273
315.28 13.3754 0 -132.856
320.885 13.2985 0 -133.129
-338.208 11.045 0 -94.1409
-10.4318 12.4892 0 -115.92
318.082 13.3372 0 -132.993
-10.4474 12.3985 0 -115.925
-10.4396 12.4441 0 -115.923
-335.392 11.0953 0 -94.273
-329.762 11.195 0 -94.5398
309.675 13.4503 0 -132.579
315.28 13.3754 0 -132.856
-332.577 11.1453 0 -94.406
-10.4164 12.5784 0 -115.916
312.477 13.4131 0 -132.718
-10.4318 12.4892 0 -115.92
-10.4241 12.534 0 -115.918
-329.762 11.195 0 -94.5398
-324.131 11.2935 0 -94.8098
304.07 13.5233 0 -132.299
309.675 13.4503 0 -132.579
-326.946 11.2444 0 -94.6744
-10.4014 12.6659 0 -115.911
306.872 13.4871 0 -132.44
-10.4164 12.5784 0 -115.916
-10.4089 12.6223 0 -115.913
-324.131 11.2935 0 -94.8098
-318.502 11.3909 0 -95.0831
298.466 13.5945 0 -132.017
304.07 13.5233 0 -132.299
-321.317 11.3424 0 -94.9461
-10.3865 12.752 0 -115.906
301.268 13.5592 0 -132.159
-10.4014 12.6659 0 -115.911
-10.3939 12.7091 0 -115.908
-318.502 11.3909 0 -95.0831
-312.873 11.4871 0 -95.3595
292.862 13.6638 0 -131.731
298.466 13.5945 0 -132.017
-315.687 11.4391 0 -95.2209
-10.372 12.8364 0 -115.901
295.664 13.6294 0 -131.874
-10.3865 12.752 0 -115.906
-10.3792 12.7944 0 -115.904
-312.873 11.4871 0 -95.3595
-307.245 11.5821 0 -95.6389
287.258 13.7313 0 -131.443
292.862 13.6638 0 -131.731
-310.059 11.5347 0 -95.4988
-10.3577 12.9194 0 -115.897
290.06 13.6978 0 -131.587
-10.372 12.8364 0 -115.901
-10.3648 12.8781 0 -115.899
-307.245 11.5821 0 -95.6389
-301.617 11.6759 0 -95.9214
281.654 13.7969 0 -131.151
287.258 13.7313 0 -131.443
-304.431 11.6292 0 -95.7798
-10.3437 13.0007 0 -115.892
284.456 13.7643 0 -131.297
-10.3577 12.9194 0 -115.897
-10.3506 12.9602 0 -115.895
-301.617 11.6759 0 -95.9214
-295.99 11.7686 0 -96.2069
276.05 13.8606 0 -130.857
281.654 13.7969 0 -131.151
-298.804 11.7224 0 -96.0638
-10.3299 13.0805 0 -115.888
278.852 13.829 0 -131.004
-10.3437 13.0007 0 -115.892
-10.3367 13.0408 0 -115.89
-295.99 11.7686 0 -96.2069
-290.364 11.86 0 -96.4953
270.446 13.9225 0 -130.56
276.05 13.8606 0 -130.857
-293.177 11.8145 0 -96.3507
-10.3164 13.1588 0 -115.884
273.248 13.8918 0 -130.709
-10.3299 13.0805 0 -115.888
-10.3231 13.1199 0 -115.886
-290.364 11.86 0 -96.4953
-284.738 11.9503 0 -96.7866
264.843 13.9825 0 -130.26
270.446 13.9225 0 -130.56
-287.551 11.9053 0 -96.6406
-10.3032 13.2355 0 -115.879
267.645 13.9527 0 -130.41
-10.3164 13.1588 0 -115.884
-10.3098 13.1974 0 -115.882
-284.738 11.9503 0 -96.7866
-279.113 12.0394 0 -97.0806
259.24 14.0407 0 -129.958
264.843 13.9825 0 -130.26
-281.926 11.995 0 -96.9333
-10.2902 13.3107 0 -115.875
262.041 14.0118 0 -130.109
-10.3032 13.2355 0 -115.879
-10.2967 13.2733 0 -115.877
-279.113 12.0394 0 -97.0806
-273.489 12.1272 0 -97.3775
253.637 14.0971 0 -129.653
259.24 14.0407 0 -129.958
-276.301 12.0834 0 -97.2287
-10.2775 13.3843 0 -115.871
256.438 14.0691 0 -129.805
-10.2902 13.3107 0 -115.875
-10.2838 13.3477 0 -115.873
-273.489 12.1272 0 -97.3775
-267.865 12.2139 0 -97.677
248.034 14.1516 0 -129.345
253.637 14.0971 0 -129.653
-270.676 12.1707 0 -97.5269
-10.2651 13.4564 0 -115.867
250.835 14.1246 0 -129.499
-10.2775 13.3843 0 -115.871
-10.2713 13.4205 0 -115.869
-267.865 12.2139 0 -97.677
-262.241 12.2993 0 -97.9792
242.431 14.2043 0 -129.035
248.034 14.1516 0 -129.345
-265.053 12.2567 0 -97.8278
-10.2529 13.5269 0 -115.863
245.232 14.1782 0 -129.19
-10.2651 13.4564 0 -115.867
-10.259 13.4918 0 -115.865
-262.241 12.2993 0 -97.9792
-256.618 12.3835 0 -98.284
236.828 14.2552 0 -128.722
242.431 14.2043 0 -129.035
-259.43 12.3415 0 -98.1313
-10.241 13.5958 0 -115.859
239.63 14.23 0 -128.879
-10.2529 13.5269 0 -115.863
-10.2469 13.5615 0 -115.861
-256.618 12.3835 0 -98.284
-250.996 12.4665 0 -98.5913
231.226 14.3043 0 -128.407
236.828 14.2552 0 -128.722
-253.807 12.4251 0 -98.4373
-10.2294 13.6632 0 -115.855
234.027 14.2799 0 -128.565
-10.241 13.5958 0 -115.859
-10.2352 13.6297 0 -115.857
-250.996 12.4665 0 -98.5913
-245.374 12.5482 0 -98.901
225.623 14.3515 0 -128.09
231.226 14.3043 0 -128.407
-248.185 12.5075 0 -98.7458
-10.218 13.7291 0 -115.852
228.425 14.3281 0 -128.249
-10.2294 13.6632 0 -115.855
-10.2237 13.6963 0 -115.854
-245.374 12.5482 0 -98.901
-239.753 12.6287 0 -99.2133
220.021 14.397 0 -127.771
225.623 14.3515 0 -128.09
-242.564 12.5886 0 -99.0568
-10.2069 13.7934 0 -115.848
222.822 14.3745 0 -127.931
-10.218 13.7291 0 -115.852
-10.2124 13.7614 0 -115.85
-239.753 12.6287 0 -99.2133
-234.133 12.708 0 -99.5278
214.419 14.4407 0 -127.449
220.021 14.397 0 -127.771
-236.943 12.6685 0 -99.3702
-10.1961 13.8561 0 -115.844
217.22 14.419 0 -127.61
-10.2069 13.7934 0 -115.848
-10.2015 13.8249 0 -115.846
-234.133 12.708 0 -99.5278
-228.513 12.786 0 -99.8447
208.817 14.4825 0 -127.125
214.419 14.4407 0 -127.449
-231.323 12.7472 0 -99.686
-10.1855 13.9173 0 -115.841
211.618 14.4618 0 -127.287
-10.1961 13.8561 0 -115.844
-10.1908 13.8869 0 -115.843
-228.513 12.786 0 -99.8447
-222.893 12.8628 0 -100.164
203.215 14.5226 0 -126.799
208.817 14.4825 0 -127.125
-225.703 12.8246 0 -100.004
-10.1752 13.977 0 -115.838
206.016 14.5028 0 -126.962
-10.1855 13.9173 0 -115.841
-10.1803 13.9473 0 -115.839
-222.893 12.8628 0 -100.164
-217.274 12.9383 0 -100.485
197.613 14.5609 0 -126.471
203.215 14.5226 0 -126.799
-220.084 12.9007 0 -100.324
-10.1652 14.0351 0 -115.834
200.414 14.542 0 -126.635
-10.1752 13.977 0 -115.838
-10.1702 14.0062 0 -115.836
-217.274 12.9383 0 -100.485
-211.656 13.0126 0 -100.809
192.011 14.5975 0 -126.141
197.613 14.5609 0 -126.471
-214.465 12.9756 0 -100.647
-10.1554 14.0916 0 -115.831
194.812 14.5794 0 -126.306
-10.1652 14.0351 0 -115.834
-10.1603 14.0635 0 -115.833
-211.656 13.0126 0 -100.809
-206.038 13.0855 0 -101.134
186.409 14.6322 0 -125.809
192.011 14.5975 0 -126.141
-208.847 13.0492 0 -100.971
-10.1459 14.1466 0 -115.828
189.21 14.6151 0 -125.975
-10.1554 14.0916 0 -115.831
-10.1506 14.1193 0 -115.829
-206.038 13.0855 0 -101.134
-200.42 13.1572 0 -101.462
180.807 14.6653 0 -125.476
186.409 14.6322 0 -125.809
-203.229 13.1215 0 -101.298
-10.1367 14.2001 0 -115.825
183.608 14.649 0 -125.643
-10.1459 14.1466 0 -115.828
-10.1413 14.1735 0 -115.826
-200.42 13.1572 0 -101.462
-194.804 13.2276 0 -101.792
175.205 14.6965 0 -125.14
180.807 14.6653 0 -125.476
-197.612 13.1926 0 -101.626
-10.1277 14.2519 0 -115.822
178.006 14.6811 0 -125.308
-10.1367 14.2001 0 -115.825
-10.1322 14.2262 0 -115.823
-194.804 13.2276 0 -101.792
-189.187 13.2967 0 -102.123
169.604 14.726 0 -124.803
175.205 14.6965 0 -125.14
-191.995 13.2623 0 -101.957
-10.119 14.3023 0 -115.819
172.404 14.7115 0 -124.971
-10.1277 14.2519 0 -115.822
-10.1233 14.2773 0 -115.82
-189.187 13.2967 0 -102.123
-183.571 13.3645 0 -102.456
164.002 14.7537 0 -124.464
169.604 14.726 0 -124.803
-186.379 13.3308 0 -102.289
-10.1106 14.351 0 -115.816
166.803 14.7401 0 -124.633
-10.119 14.3023 0 -115.819
-10.1147 14.3268 0 -115.817
-183.571 13.3645 0 -102.456
-177.956 13.4309 0 -102.792
158.4 14.7797 0 -124.123
164.002 14.7537 0 -124.464
-180.763 13.3979 0 -102.624
-10.1024 14.3982 0 -115.813
161.201 14.7669 0 -124.293
-10.1106 14.351 0 -115.816
-10.1064 14.3748 0 -115.815
-177.956 13.4309 0 -102.792
-172.341 13.4961 0 -103.129
152.799 14.8039 0 -123.781
158.4 14.7797 0 -124.123
-175.148 13.4637 0 -102.96
-10.0944 14.4438 0 -115.811
155.599 14.792 0 -123.952
-10.1024 14.3982 0 -115.813
-10.0984 14.4212 0 -115.812
-172.341 13.4961 0 -103.129
-166.726 13.5598 0 -103.467
147.197 14.8264 0 -123.437
152.799 14.8039 0 -123.781
-169.533 13.5281 0 -103.298
-10.0867 14.4878 0 -115.808
149.998 14.8154 0 -123.609
-10.0944 14.4438 0 -115.811
-10.0905 14.466 0 -115.809
-166.726 13.5598 0 -103.467
-161.112 13.6223 0 -103.808
141.596 14.8471 0 -123.092
147.197 14.8264 0 -123.437
-163.919 13.5912 0 -103.637
-10.0792 14.5302 0 -115.806
144.396 14.837 0 -123.264
-10.0867 14.4878 0 -115.808
-10.0829 14.5092 0 -115.807
-161.112 13.6223 0 -103.808
-155.498 13.6833 0 -104.149
135.994 14.8661 0 -122.745
141.596 14.8471 0 -123.092
-158.305 13.653 0 -103.978
-10.0719 14.5711 0 -115.803
138.795 14.8568 0 -122.919
-10.0792 14.5302 0 -115.806
-10.0755 14.5509 0 -115.804
-155.498 13.6833 0 -104.149
-149.885 13.743 0 -104.493
130.393 14.8833 0 -122.397
135.994 14.8661 0 -122.745
-152.691 13.7133 0 -104.321
-10.0648 14.6103 0 -115.801
133.194 14.8749 0 -122.571
-10.0719 14.5711 0 -115.803
-10.0683 14.5909 0 -115.802
-149.885 13.743 0 -104.493
-144.271 13.8013 0 -104.838
124.792 14.8988 0 -122.048
130.393 14.8833 0 -122.397
-147.078 13.7723 0 -104.665
-10.0578 14.648 0 -115.799
127.592 14.8913 0 -122.223
-10.0648 14.6103 0 -115.801
-10.0612 14.6293 0 -115.8
-144.271 13.8013 0 -104.838
-138.659 13.8583 0 -105.184
119.191 14.9126 0 -121.697
124.792 14.8988 0 -122.048
-141.465 13.8299 0 -105.011
-10.0509 14.6841 0 -115.797
121.991 14.9059 0 -121.873
-10.0578 14.648 0 -115.799
-10.0543 14.6662 0 -115.798
-138.659 13.8583 0 -105.184
-133.046 13.914 0 -105.531
113.59 14.9247 0 -121.346
119.191 14.9126 0 -121.697
-135.852 13.8863 0 -105.357
-10.0441 14.7187 0 -115.795
116.39 14.9189 0 -121.522
-10.0509 14.6841 0 -115.797
-10.0475 14.7016 0 -115.796
-133.046 13.914 0 -105.531
-127.434 13.9686 0 -105.88
107.989 14.9354 0 -120.993
113.59 14.9247 0 -121.346
-130.24 13.9414 0 -105.706
-10.0374 14.752 0 -115.792
110.789 14.9302 0 -121.169
-10.0441 14.7187 0 -115.795
-10.0407 14.7355 0 -115.793
-127.434 13.9686 0 -105.88
-121.822 14.0222 0 -106.23
102.388 14.9447 0 -120.639
107.989 14.9354 0 -120.993
-124.628 13.9955 0 -106.055
-10.0308 14.7842 0 -115.79
105.189 14.9402 0 -120.816
-10.0374 14.752 0 -115.792
-10.0341 14.7682 0 -115.791
-121.822 14.0222 0 -106.23
-116.21 14.0752 0 -106.581
96.788 14.953 0 -120.283
102.388 14.9447 0 -120.639
-119.016 14.0488 0 -106.405
-10.0244 14.8156 0 -115.788
99.5882 14.949 0 -120.461
-10.0308 14.7842 0 -115.79
-10.0276 14.8 0 -115.789
-116.21 14.0752 0 -106.581
-110.6 14.128 0 -106.933
91.1877 14.961 0 -119.926
96.788 14.953 0 -120.283
-113.405 14.1016 0 -106.757
-10.0184 14.8467 0 -115.785
93.9879 14.957 0 -120.105
-10.0244 14.8156 0 -115.788
-10.0213 14.8311 0 -115.787
-110.6 14.128 0 -106.933
-104.99 14.181 0 -107.287
85.587 14.9696 0 -119.568
91.1877 14.961 0 -119.926
-107.795 14.1545 0 -107.11
-10.0133 14.8783 0 -115.783
88.3874 14.9651 0 -119.747
-10.0184 14.8467 0 -115.785
-10.0157 14.8623 0 -115.784
-104.99 14.181 0 -107.287
-99.3816 14.2348 0 -107.643
79.9847 14.9804 0 -119.208
85.587 14.9696 0 -119.568
-102.186 14.2078 0 -107.464
-10.0098 14.9115 0 -115.781
82.7862 14.9745 0 -119.388
-10.0133 14.8783 0 -115.783
-10.0112 14.8946 0 -115.782
-99.3816 14.2348 0 -107.643
-93.7752 14.2894 0 -108.003
74.3794 14.9967 0 -118.848
79.9847 14.9804 0 -119.208
-96.578 14.262 0 -107.822
-10.0092 14.9482 0 -115.782
77.1825 14.9876 0 -119.028
-10.0098 14.9115 0 -115.781
-10.009 14.9293 0 -115.781
-93.7752 14.2894 0 -108.003
-88.1697 14.3445 0 -108.372
68.7655 15.0231 0 -118.491
74.3794 14.9967 0 -118.848
-90.9726 14.3169 0 -108.186
-10.014 14.9906 0 -115.791
71.5741 15.0082 0 -118.669
-10.0092 14.9482 0 -115.782
-10.0108 14.9685 0 -115.785
-88.1697 14.3445 0 -108.372
-82.5656 14.3969 0 -108.759
63.1372 15.0693 0 -118.144
68.7655 15.0231 0 -118.491
-85.3671 14.3714 0 -108.563
-10.0278 15.0424 0 -115.817
65.9533 15.0429 0 -118.316
-10.014 14.9906 0 -115.791
-10.0195 15.0151 0 -115.801
-82.5656 14.3969 0 -108.759
-76.9533 14.443 0 -109.184
57.4739 15.1482 0 -117.82
63.1372 15.0693 0 -118.144
-79.7619 14.4212 0 -108.965
-10.0566 15.1087 0 -115.879
60.3123 15.1035 0 -117.978
-10.0278 15.0424 0 -115.817
-10.0398 15.0733 0 -115.841
-76.9533 14.443 0 -109.184
-71.3306 14.4678 0 -109.679
51.7569 15.2877 0 -117.547
57.4739 15.1482 0 -117.82
-74.1421 14.4594 0 -109.42
-10.1101 15.1967 0 -116.014
54.6223 15.2082 0 -117.675
-10.0566 15.1087 0 -115.879
-10.0796 15.1495 0 -115.935
-71.3306 14.4678 0 -109.679
-65.6545 14.4619 0 -110.307
45.9167 15.5157 0 -117.375
51.7569 15.2877 0 -117.547
-68.5053 14.47 0 -109.971
-10.2028 15.3168 0 -116.287
48.8604 15.3879 0 -117.444
-10.1101 15.1967 0 -116.014
-10.1501 15.2518 0 -116.127
-65.6545 14.4619 0 -110.307
-59.9179 14.3801 0 -111.162
39.9093 15.9008 0 -117.384
45.9167 15.5157 0 -117.375
-62.789 14.433 0 -110.699
-10.3558 15.4825 0 -116.803
42.9319 15.6846 0 -117.35
-10.2028 15.3168 0 -116.287
-10.2706 15.3934 0 -116.51
-59.9179 14.3801 0 -111.162
-53.9758 14.2326 0 -112.398
33.5361 16.4632 0 -117.708
39.9093 15.9008 0 -117.384
-56.9938 14.3154 0 -111.718
-10.5977 15.7104 0 -117.717
36.794 16.1567 0 -117.496
-10.3558 15.4825 0 -116.803
-10.4625 15.5869 0 -117.191
-53.9758 14.2326 0 -112.398
-47.8566 13.9383 0 -114.187
26.7679 17.3069 0 -118.508
33.5361 16.4632 0 -117.708
-50.9169 14.1011 0 -113.215
-10.96 16.0122 0 -119.22
30.1835 16.8521 0 -118.037
-10.5977 15.7104 0 -117.717
-10.7637 15.8531 0 -118.396
-47.8566 13.9383 0 -114.187
-41.1981 13.739 0 -116.718
19.1851 18.1927 0 -119.968
26.7679 17.3069 0 -118.508
-44.6572 13.8133 0 -115.344
-11.4647 16.384 0 -121.457
23.1447 17.7589 0 -119.145
-10.96 16.0122 0 -119.22
-11.1899 16.1882 0 -120.214
-41.1981 13.739 0 -116.718
-34.3889 13.6834 0 -119.853
11.2137 18.9647 0 -122.036
19.1851 18.1927 0 -119.968
-37.7184 13.6442 0 -118.245
-12.081 16.756 0 -124.277
15.1461 18.656 0 -120.939
-11.4647 16.384 0 -121.457
-11.7709 16.5833 0 -122.871
-34.3889 13.6834 0 -119.853
-26.888 15.1869 0 -122.862
2.51957 17.8984 0 -124.178
11.2137 18.9647 0 -122.036
-30.8732 14.1629 0 -121.439
-12.653 16.9331 0 -126.688
7.08451 18.7679 0 -123.166
-12.081 16.756 0 -124.277
-12.3754 16.8779 0 -125.548
-26.888 15.1869 0 -122.862
-20.5153 18.8145 0 -123.092
-4.34024 13.6018 0 -124.195
2.51957 17.8984 0 -124.178
-23.2359 16.5803 0 -123.609
-12.7735 16.4729 0 -126.069
-1.53803 16.3877 0 -124.661
-12.653 16.9331 0 -126.688
-12.8297 16.8393 0 -127.16
-20.5153 18.8145 0 -123.092
-13.7403 27.4718 0 -115.865
-9.59686 1.78662 0 -117.771
-4.34024 13.6018 0 -124.195
-17.587 22.6856 0 -120.743
-11.8155 14.7321 0 -118.011
-6.8635 8.56384 0 -122.186
-12.7735 16.4729 0 -126.069
-12.433 15.7707 0 -123.003
-13.7403 27.4718 0 -115.865
-10.0322 34.9841 0 -93.7917
-7.7008 -13.2572 0 -97.3748
-9.59686 1.78662 0 -117.771
-10.7597 31.6062 0 -107.222
-8.9751 10.9468 0 -96.8948
-10.4287 -5.46524 0 -109.774
-11.8155 14.7321 0 -118.011
-10.7542 13.2099 0 -109.962
-10.0322 34.9841 0 -93.7917
-7.10641 43.6612 0 -52.1894
0.367962 -34.5397 0 -57.5502
-7.7008 -13.2572 0 -97.3748
-9.44733 38.8506 0 -75.5118
-2.77953 4.6632 0 -53.3026
-3.49845 -22.8142 0 -80.1647
-8.9751 10.9468 0 -96.8948
-6.36038 7.92756 0 -77.9961
1059.75 318.097 0 429.814
1034.85 170.892 0 141.671
3245.2 561.539 0 -13.1848
2985.42 893.395 0 272.446
1015.83 245.043 0 270.867
2138.38 365.639 0 81.7111
3161.69 715.472 0 100.09
1977.49 592.581 0 391.985
2091.56 495.508 0 192.937
1034.85 170.892 0 141.671
1091.94 98.1879 0 -31.5783
3308.05 241.736 0 -103.658
3245.2 561.539 0 -13.1848
1078.87 130.372 0 39.8591
2190.23 185.101 0 -57.75
3273.26 389.946 0 -71.0784
2138.38 365.639 0 81.7111
2162.02 261.035 0 6.30682
1091.94 98.1879 0 -31.5783
1096.07 32.9586 0 -110.53
3340.54 79.5679 0 -122.872
3308.05 241.736 0 -103.658
1090.05 62.1681 0 -79.0873
2217.27 67.7571 0 -118.794
3338.69 144.437 0 -120.271
2190.23 185.101 0 -57.75
2210.97 120.729 0 -99.6303
1096.07 32.9586 0 -110.53
1099.51 2.18648 0 -139.123
3315.7 3.91898 0 -116.092
3340.54 79.5679 0 -122.872
1102.7 14.9791 0 -129.58
2210.84 9.37612 0 -133.32
3327 32.7957 0 -118.992
2217.27 67.7571 0 -118.794
2215.9 31.8965 0 -127.766
1099.51 2.18648 0 -139.123
1087.82 -14.0331 0 -142.718
3286.11 -18.5448 0 -111.93
3315.7 3.91898 0 -116.092
1092.22 -8.03029 0 -142.479
2190.83 -15.608 0 -132.533
3303.43 -10.9547 0 -114.043
2210.84 9.37612 0 -133.32
2202.04 -5.93276 0 -134.493
1087.82 -14.0331 0 -142.718
1077.97 -17.376 0 -138.362
3251.71 -24.2132 0 -109.712
3286.11 -18.5448 0 -111.93
1084.01 -16.396 0 -141.048
2167.66 -21.6762 0 -128.469
3267.27 -22.9819 0 -110.201
2190.83 -15.608 0 -132.533
2178.9 -20.2958 0 -130.15
1077.97 -17.376 0 -138.362
1066.28 -17.7367 0 -132.561
3223.85 -21.65 0 -110.277
3251.71 -24.2132 0 -109.712
1071.37 -17.9577 0 -135.328
2146.64 -21.193 0 -124.982
3237.82 -23.2645 0 -109.93
2167.66 -21.6762 0 -128.469
2156.84 -21.8187 0 -126.741
1066.28 -17.7367 0 -132.561
1057.24 -16.1193 0 -128.088
3198.69 -18.3306 0 -111.583
3223.85 -21.65 0 -110.277
1061.88 -16.941 0 -130.134
2128.54 -18.4695 0 -122.911
3210.49 -20.0631 0 -110.785
2146.64 -21.193 0 -124.982
2137.18 -19.9633 0 -123.675
1057.24 -16.1193 0 -128.088
1048.87 -14.7272 0 -125.191
3177.31 -15.0807 0 -113.467
3198.69 -18.3306 0 -111.583
1052.75 -15.432 0 -126.432
2112.98 -15.8831 0 -122.059
3187.85 -16.582 0 -112.527
2128.54 -18.4695 0 -122.911
2120.5 -17.0979 0 -122.396
1048.87 -14.7272 0 -125.191
1041.83 -13.4355 0 -123.654
3157.59 -12.8211 0 -115.403
3177.31 -15.0807 0 -113.467
1045.33 -14.0265 0 -124.286
2099.19 -13.8217 0 -122.09
3167.18 -13.8623 0 -114.416
2112.98 -15.8831 0 -122.059
2105.9 -14.7826 0 -121.966
1041.83 -13.4355 0 -123.654
1035.27 -12.5253 0 -123.02
3139.28 -11.2209 0 -117.373
3157.59 -12.8211 0 -115.403
1038.45 -12.9536 0 -123.244
2086.51 -12.3822 0 -122.655
3148.36 -11.9324 0 -116.399
2099.19 -13.8217 0 -122.09
2092.75 -13.0299 0 -122.332
1035.27 -12.5253 0 -123.02
1029.2 -11.814 0 -122.955
3121.56 -10.1861 0 -119.284
3139.28 -11.2209 0 -117.373
1032.22 -12.1404 0 -122.936
2074.49 -11.3817 0 -123.534
3130.34 -10.6538 0 -118.332
2086.51 -12.3822 0 -122.655
2080.44 -11.8372 0 -123.062
1029.2 -11.814 0 -122.955
1023.31 -11.2828 0 -123.208
3104.26 -9.47186 0 -121.148
3121.56 -10.1861 0 -119.284
1026.22 -11.5343 0 -123.052
2062.84 -10.685 0 -124.568
3112.89 -9.79384 0 -120.224
2074.49 -11.3817 0 -123.534
2068.63 -11.0028 0 -124.04
1023.31 -11.2828 0 -123.208
1017.57 -10.8443 0 -123.632
3087.13 -8.96756 0 -122.955
3104.26 -9.47186 0 -121.148
1020.43 -11.0526 0 -123.406
2051.37 -10.1685 0 -125.675
3095.67 -9.20169 0 -122.057
2062.84 -10.685 0 -124.568
2057.09 -10.4097 0 -125.116
1017.57 -10.8443 0 -123.632
1011.88 -10.4711 0 -124.135
3070.09 -8.57297 0 -124.715
3087.13 -8.96756 0 -122.955
1014.72 -10.6523 0 -123.877
2040 -9.75855 0 -126.803
3078.6 -8.75927 0 -123.841
2051.37 -10.1685 0 -125.675
2045.68 -9.95344 0 -126.239
1011.88 -10.4711 0 -124.135
1006.23 -10.1317 0 -124.672
3053.09 -8.24167 0 -126.432
3070.09 -8.57297 0 -124.715
1009.05 -10.2977 0 -124.401
2028.68 -9.40699 0 -127.929
3061.59 -8.40202 0 -125.579
2040 -9.75855 0 -126.803
2034.34 -9.57742 0 -127.367
1006.23 -10.1317 0 -124.672
1000.6 -9.81442 0 -125.217
3036.11 -7.94149 0 -128.109
3053.09 -8.24167 0 -126.432
1003.41 -9.97116 0 -124.944
2017.38 -9.08756 0 -129.04
3044.6 -8.08862 0 -127.275
2028.68 -9.40699 0 -127.929
2023.03 -9.24432 0 -128.487
1000.6 -9.81442 0 -125.217
994.979 -9.50936 0 -125.759
3019.13 -7.65795 0 -129.749
3036.11 -7.94149 0 -128.109
997.789 -9.66058 0 -125.489
2006.09 -8.78523 0 -130.132
3027.62 -7.79835 0 -128.933
2017.38 -9.08756 0 -129.04
2011.73 -8.93483 0 -129.589
994.979 -9.50936 0 -125.759
989.36 -9.21244 0 -126.292
3002.16 -7.38229 0 -131.354
3019.13 -7.65795 0 -129.749
992.169 -9.36013 0 -126.026
1994.79 -8.49227 0 -131.201
3010.64 -7.51939 0 -130.556
2006.09 -8.78523 0 -130.132
2000.44 -8.63788 0 -130.669
989.36 -9.21244 0 -126.292
983.744 -8.92071 0 -126.815
2985.18 -7.11073 0 -132.927
3002.16 -7.38229 0 -131.354
986.552 -9.06601 0 -126.555
1983.5 -8.20457 0 -132.249
2993.67 -7.24617 0 -132.145
1994.79 -8.49227 0 -131.201
1989.15 -8.34792 0 -131.728
983.744 -8.92071 0 -126.815
978.128 -8.63276 0 -127.327
2968.2 -6.84118 0 -134.467
2985.18 -7.11073 0 -132.927
980.936 -8.77634 0 -127.072
1972.21 -7.92007 0 -133.275
2976.69 -6.97577 0 -133.701
1983.5 -8.20457 0 -132.249
1977.86 -8.062 0 -132.765
978.128 -8.63276 0 -127.327
972.512 -8.34761 0 -127.828
2951.22 -6.57278 0 -135.977
2968.2 -6.84118 0 -134.467
975.32 -8.48987 0 -127.578
1960.92 -7.63767 0 -134.28
2959.71 -6.70688 0 -135.226
1972.21 -7.92007 0 -133.275
1966.57 -7.77865 0 -133.78
972.512 -8.34761 0 -127.828
966.896 -8.06472 0 -128.318
2934.23 -6.30507 0 -137.456
2951.22 -6.57278 0 -135.977
969.704 -8.20591 0 -128.074
1949.63 -7.35682 0 -135.264
2942.73 -6.43885 0 -136.72
1960.92 -7.63767 0 -134.28
1955.28 -7.49707 0 -134.775
966.896 -8.06472 0 -128.318
961.279 -7.7837 0 -128.798
2917.25 -6.03786 0 -138.904
2934.23 -6.30507 0 -137.456
964.088 -7.92399 0 -128.559
1938.34 -7.07719 0 -136.228
2925.74 -6.17141 0 -138.184
1949.63 -7.35682 0 -135.264
1943.99 -7.21686 0 -135.749
961.279 -7.7837 0 -128.798
955.662 -7.50431 0 -129.268
2900.27 -5.77106 0 -140.323
2917.25 -6.03786 0 -138.904
958.471 -7.64381 0 -129.034
1927.05 -6.79864 0 -137.172
2908.76 -5.90441 0 -139.617
1938.34 -7.07719 0 -136.228
1932.69 -6.93779 0 -136.703
955.662 -7.50431 0 -129.268
950.045 -7.22641 0 -129.728
2883.28 -5.50465 0 -141.713
2900.27 -5.77106 0 -140.323
952.854 -7.36518 0 -129.499
1915.75 -6.52104 0 -138.097
2891.77 -5.63781 0 -141.022
1927.05 -6.79864 0 -137.172
1921.4 -6.65972 0 -137.637
950.045 -7.22641 0 -129.728
944.427 -6.94989 0 -130.178
2866.3 -5.23865 0 -143.073
2883.28 -5.50465 0 -141.713
947.236 -7.08798 0 -129.954
1904.46 -6.24438 0 -139.002
2874.79 -5.3716 0 -142.396
1915.75 -6.52104 0 -138.097
1910.1 -6.3826 0 -138.552
944.427 -6.94989 0 -130.178
938.808 -6.67469 0 -130.618
2849.31 -4.97306 0 -144.404
2866.3 -5.23865 0 -143.073
941.618 -6.81212 0 -130.399
1893.16 -5.96861 0 -139.887
2857.8 -5.1058 0 -143.742
1904.46 -6.24438 0 -139.002
1898.81 -6.10638 0 -139.447
938.808 -6.67469 0 -130.618
933.189 -6.40079 0 -131.049
2832.32 -4.70793 0 -145.706
2849.31 -4.97306 0 -144.404
935.999 -6.53758 0 -130.835
1881.86 -5.69376 0 -140.753
2840.82 -4.84044 0 -145.059
1893.16 -5.96861 0 -139.887
1887.51 -5.83107 0 -140.323
933.189 -6.40079 0 -131.049
927.57 -6.12818 0 -131.47
2815.33 -4.4433 0 -146.98
2832.32 -4.70793 0 -145.706
930.379 -6.26432 0 -131.261
1870.57 -5.41983 0 -141.6
2823.83 -4.57555 0 -146.347
1881.86 -5.69376 0 -140.753
1876.22 -5.55667 0 -141.179
927.57 -6.12818 0 -131.47
921.95 -5.85685 0 -131.882
2798.35 -4.17923 0 -148.226
2815.33 -4.4433 0 -146.98
924.76 -5.99235 0 -131.677
1859.27 -5.14685 0 -142.428
2806.84 -4.31119 0 -147.606
1870.57 -5.41983 0 -141.6
1864.92 -5.28322 0 -142.017
921.95 -5.85685 0 -131.882
916.329 -5.58683 0 -132.284
2781.36 -3.91576 0 -149.443
2798.35 -4.17923 0 -148.226
919.14 -5.72168 0 -132.084
1847.97 -4.87486 0 -143.237
2789.85 -4.04742 0 -148.838
1859.27 -5.14685 0 -142.428
1853.62 -5.01073 0 -142.835
916.329 -5.58683 0 -132.284
910.709 -5.31812 0 -132.676
2764.37 -3.65295 0 -150.632
2781.36 -3.91576 0 -149.443
913.519 -5.45231 0 -132.481
1836.68 -4.60388 0 -144.028
2772.86 -3.78427 0 -150.041
1847.97 -4.87486 0 -143.237
1842.32 -4.73924 0 -143.635
910.709 -5.31812 0 -132.676
905.088 -5.05075 0 -133.059
2747.38 -3.39086 0 -151.793
2764.37 -3.65295 0 -150.632
907.898 -5.18427 0 -132.869
1825.38 -4.33397 0 -144.8
2755.87 -3.52181 0 -151.216
1836.68 -4.60388 0 -144.028
1831.03 -4.46879 0 -144.416
905.088 -5.05075 0 -133.059
899.466 -4.78474 0 -133.433
2730.39 -3.12954 0 -152.926
2747.38 -3.39086 0 -151.793
902.277 -4.91757 0 -133.247
1814.08 -4.06515 0 -145.553
2738.88 -3.2601 0 -152.363
1825.38 -4.33397 0 -144.8
1819.73 -4.19942 0 -145.179
899.466 -4.78474 0 -133.433
893.845 -4.52009 0 -133.798
2713.4 -2.86905 0 -154.031
2730.39 -3.12954 0 -152.926
896.655 -4.65224 0 -133.617
1802.78 -3.79746 0 -146.288
2721.89 -2.99919 0 -153.482
1814.08 -4.06515 0 -145.553
1808.43 -3.93116 0 -145.923
893.845 -4.52009 0 -133.798
888.223 -4.25684 0 -134.153
2696.41 -2.60943 0 -155.11
2713.4 -2.86905 0 -154.031
891.034 -4.38829 0 -133.977
1791.48 -3.53094 0 -147.004
2704.9 -2.73913 0 -154.574
1802.78 -3.79746 0 -146.288
1797.13 -3.66405 0 -146.648
888.223 -4.25684 0 -134.153
882.6 -3.99501 0 -134.5
2679.42 -2.35075 0 -156.16
2696.41 -2.60943 0 -155.11
885.412 -4.12575 0 -134.328
1780.18 -3.26563 0 -147.702
2687.92 -2.47997 0 -155.638
1791.48 -3.53094 0 -147.004
1785.83 -3.39813 0 -147.356
882.6 -3.99501 0 -134.5
876.978 -3.7346 0 -134.837
2662.43 -2.09305 0 -157.184
2679.42 -2.35075 0 -156.16
879.789 -3.86462 0 -134.669
1768.88 -3.00155 0 -148.383
2670.93 -2.22178 0 -156.676
1780.18 -3.26563 0 -147.702
1774.53 -3.13343 0 -148.045
876.978 -3.7346 0 -134.837
871.355 -3.47564 0 -135.165
2645.44 -1.83639 0 -158.181
2662.43 -2.09305 0 -157.184
874.167 -3.60494 0 -135.002
1757.58 -2.73874 0 -149.045
2653.94 -1.96459 0 -157.686
1768.88 -3.00155 0 -148.383
1763.23 -2.86998 0 -148.716
871.355 -3.47564 0 -135.165
865.732 -3.21815 0 -135.484
2628.45 -1.5808 0 -159.151
2645.44 -1.83639 0 -158.181
868.544 -3.34671 0 -135.326
1746.28 -2.47724 0 -149.689
2636.95 -1.70845 0 -158.67
1757.58 -2.73874 0 -149.045
1751.93 -2.60783 0 -149.369
865.732 -3.21815 0 -135.484
860.109 -2.96214 0 -135.795
2611.46 -1.32634 0 -160.095
2628.45 -1.5808 0 -159.151
862.921 -3.08996 0 -135.641
1734.98 -2.21708 0 -150.316
2619.96 -1.45343 0 -159.626
1746.28 -2.47724 0 -149.689
1740.63 -2.34699 0 -150.005
860.109 -2.96214 0 -135.795
854.486 -2.70763 0 -136.096
2594.47 -1.07306 0 -161.012
2611.46 -1.32634 0 -160.095
857.298 -2.8347 0 -135.947
1723.68 -1.95829 0 -150.925
2602.97 -1.19955 0 -160.557
1734.98 -2.21708 0 -150.316
1729.33 -2.08751 0 -150.623
854.486 -2.70763 0 -136.096
848.863 -2.45463 0 -136.389
2577.49 -0.821007 0 -161.903
2594.47 -1.07306 0 -161.012
851.674 -2.58094 0 -136.244
1712.38 -1.7009 0 -151.517
2585.98 -0.94688 0 -161.461
1723.68 -1.95829 0 -150.925
1718.03 -1.82942 0 -151.223
848.863 -2.45463 0 -136.389
843.239 -2.20316 0 -136.673
2560.5 -0.570216 0 -162.768
2577.49 -0.821007 0 -161.903
846.051 -2.32871 0 -136.532
1701.08 -1.44493 0 -152.091
2568.99 -0.695451 0 -162.339
1712.38 -1.7009 0 -151.517
1706.73 -1.57274 0 -151.806
843.239 -2.20316 0 -136.673
837.615 -1.95324 0 -136.948
2543.51 -0.320736 0 -163.607
2560.5 -0.570216 0 -162.768
840.427 -2.07801 0 -136.812
1689.78 -1.19043 0 -152.648
2552 -0.44531 0 -163.191
1701.08 -1.44493 0 -152.091
1695.43 -1.3175 0 -152.372
837.615 -1.95324 0 -136.948
831.992 -1.70487 0 -137.215
2526.52 -0.0726099 0 -164.421
2543.51 -0.320736 0 -163.607
834.803 -1.82886 0 -137.083
1678.48 -0.937414 0 -153.188
2535.02 -0.196501 0 -164.017
1689.78 -1.19043 0 -152.648
1684.13 -1.06373 0 -152.92
831.992 -1.70487 0 -137.215
826.368 -1.45807 0 -137.473
2509.53 0.174121 0 -165.209
2526.52 -0.0726099 0 -164.421
829.18 -1.58127 0 -137.345
1667.19 -0.685913 0 -153.71
2518.03 0.0509326 0 -164.818
1678.48 -0.937414 0 -153.188
1672.83 -0.811472 0 -153.451
826.368 -1.45807 0 -137.473
820.744 -1.21286 0 -137.723
2492.55 0.419415 0 -165.971
2509.53 0.174121 0 -165.209
823.556 -1.33526 0 -137.599
1655.89 -0.435955 0 -154.216
2501.04 0.29695 0 -165.593
1667.19 -0.685913 0 -153.71
1661.54 -0.560739 0 -153.965
820.744 -1.21286 0 -137.723
815.12 -0.969245 0 -137.964
2475.56 0.663231 0 -166.708
2492.55 0.419415 0 -165.971
817.932 -1.09085 0 -137.845
1644.59 -0.187567 0 -154.705
2484.05 0.54151 0 -166.343
1655.89 -0.435955 0 -154.216
1650.24 -0.311563 0 -154.463
815.12 -0.969245 0 -137.964
809.496 -0.727244 0 -138.197
2458.58 0.905531 0 -167.421
2475.56 0.663231 0 -166.708
812.308 -0.848042 0 -138.082
1633.29 0.0592244 0 -155.178
2467.07 0.784573 0 -167.068
1644.59 -0.187567 0 -154.705
1638.94 -0.0639702 0 -154.944
809.496 -0.727244 0 -138.197
803.871 -0.486868 0 -138.422
2441.59 1.14628 0 -168.108
2458.58 0.905531 0 -167.421
806.684 -0.606852 0 -138.311
1621.99 0.304394 0 -155.634
2450.08 1.0261 0 -167.768
1633.29 0.0592244 0 -155.178
1627.64 0.182013 0 -155.408
803.871 -0.486868 0 -138.422
798.247 -0.248129 0 -138.638
2424.61 1.38543 0 -168.771
2441.59 1.14628 0 -168.108
801.059 -0.367293 0 -138.531
1610.69 0.547916 0 -156.073
2433.1 1.26605 0 -168.443
1621.99 0.304394 0 -155.634
1616.34 0.426362 0 -155.855
798.247 -0.248129 0 -138.638
792.623 -0.0110399 0 -138.847
2407.62 1.62295 0 -169.409
2424.61 1.38543 0 -168.771
795.435 -0.129377 0 -138.743
1599.39 0.789766 0 -156.496
2416.12 1.50439 0 -169.093
1610.69 0.547916 0 -156.073
1605.04 0.669052 0 -156.287
792.623 -0.0110399 0 -138.847
786.999 0.224387 0 -139.047
2390.64 1.8588 0 -170.024
2407.62 1.62295 0 -169.409
789.811 0.106882 0 -138.948
1588.1 1.02992 0 -156.903
2399.13 1.74109 0 -169.72
1599.39 0.789766 0 -156.496
1593.75 0.910057 0 -156.701
786.999 0.224387 0 -139.047
781.375 0.458141 0 -139.239
2373.66 2.09296 0 -170.613
2390.64 1.8588 0 -170.024
784.187 0.341474 0 -139.144
1576.8 1.26836 0 -157.294
2382.15 1.97609 0 -170.321
1588.1 1.02992 0 -156.903
1582.45 1.14935 0 -157.1
781.375 0.458141 0 -139.239
775.751 0.690209 0 -139.423
2356.68 2.32537 0 -171.179
2373.66 2.09296 0 -170.613
778.563 0.574386 0 -139.332
1565.5 1.50505 0 -157.668
2365.17 2.20938 0 -170.899
1576.8 1.26836 0 -157.294
1571.15 1.38692 0 -157.483
775.751 0.690209 0 -139.423
770.127 0.920581 0 -139.599
2339.7 2.55602 0 -171.722
2356.68 2.32537 0 -171.179
772.939 0.805608 0 -139.512
1554.21 1.73997 0 -158.027
2348.19 2.44092 0 -171.454
1565.5 1.50505 0 -157.668
1559.85 1.62273 0 -157.85
770.127 0.920581 0 -139.599
764.503 1.14925 0 -139.767
2322.72 2.78486 0 -172.24
2339.7 2.55602 0 -171.722
767.315 1.03513 0 -139.684
1542.91 1.97312 0 -158.37
2331.21 2.67067 0 -171.984
1554.21 1.73997 0 -158.027
1548.56 1.85677 0 -158.201
764.503 1.14925 0 -139.767
758.879 1.37619 0 -139.927
2305.74 3.01187 0 -172.735
2322.72 2.78486 0 -172.24
761.691 1.26294 0 -139.848
1531.62 2.20445 0 -158.698
2314.23 2.8986 0 -172.491
1542.91 1.97312 0 -158.37
1537.26 2.08901 0 -158.536
758.879 1.37619 0 -139.927
753.255 1.60141 0 -140.08
2288.76 3.23701 0 -173.207
2305.74 3.01187 0 -172.735
756.067 1.48902 0 -140.004
1520.32 2.43395 0 -159.01
2297.25 3.12468 0 -172.974
1531.62 2.20445 0 -158.698
1525.97 2.31943 0 -158.856
753.255 1.60141 0 -140.08
747.631 1.82489 0 -140.224
2271.79 3.46026 0 -173.656
2288.76 3.23701 0 -173.207
750.443 1.71337 0 -140.153
1509.03 2.6616 0 -159.307
2280.28 3.34887 0 -173.435
1520.32 2.43395 0 -159.01
1514.67 2.54801 0 -159.16
747.631 1.82489 0 -140.224
742.007 2.04662 0 -140.362
2254.81 3.68158 0 -174.082
2271.79 3.46026 0 -173.656
744.819 1.93598 0 -140.294
1497.73 2.88739 0 -159.588
2263.3 3.57116 0 -173.872
1509.03 2.6616 0 -159.307
1503.38 2.77473 0 -159.449
742.007 2.04662 0 -140.362
736.384 2.2666 0 -140.491
2237.84 3.90094 0 -174.485
2254.81 3.68158 0 -174.082
739.195 2.15683 0 -140.427
1486.44 3.11128 0 -159.854
2246.33 3.7915 0 -174.286
1497.73 2.88739 0 -159.588
1492.09 2.99957 0 -159.723
736.384 2.2666 0 -140.491
730.76 2.48481 0 -140.613
2220.87 4.11832 0 -174.866
2237.84 3.90094 0 -174.485
733.572 2.37592 0 -140.553
1475.15 3.33327 0 -160.105
2229.35 4.00988 0 -174.678
1486.44 3.11128 0 -159.854
1480.79 3.22252 0 -159.982
730.76 2.48481 0 -140.613
725.137 2.70124 0 -140.728
2203.89 4.33369 0 -175.224
2220.87 4.11832 0 -174.866
727.948 2.59324 0 -140.671
1463.85 3.55333 0 -160.341
2212.38 4.22626 0 -175.048
1475.15 3.33327 0 -160.105
1469.5 3.44354 0 -160.225
725.137 2.70124 0 -140.728
719.513 2.91588 0 -140.835
2186.92 4.54701 0 -175.56
2203.89 4.33369 0 -175.224
722.325 2.80878 0 -140.782
1452.56 3.77145 0 -160.563
2195.41 4.44061 0 -175.395
1463.85 3.55333 0 -160.341
1458.21 3.66263 0 -160.454
719.513 2.91588 0 -140.835
713.89 3.12873 0 -140.935
2169.95 4.75828 0 -175.874
2186.92 4.54701 0 -175.56
716.702 3.02253 0 -140.886
1441.27 3.98761 0 -160.769
2178.44 4.65291 0 -175.72
1452.56 3.77145 0 -160.563
1446.92 3.87977 0 -160.668
713.89 3.12873 0 -140.935
708.267 3.33978 0 -141.027
2152.98 4.96745 0 -176.166
2169.95 4.75828 0 -175.874
711.079 3.23448 0 -140.982
1429.98 4.20179 0 -160.962
2161.47 4.86313 0 -176.023
1441.27 3.98761 0 -160.769
1435.63 4.09494 0 -160.867
708.267 3.33978 0 -141.027
702.644 3.54902 0 -141.112
2136.02 5.17452 0 -176.436
2152.98 4.96745 0 -176.166
705.456 3.44463 0 -141.071
1418.69 4.41397 0 -161.139
2144.5 5.07125 0 -176.304
1429.98 4.20179 0 -160.962
1424.34 4.30813 0 -161.052
702.644 3.54902 0 -141.112
697.022 3.75644 0 -141.19
2119.05 5.37944 0 -176.685
2136.02 5.17452 0 -176.436
699.833 3.65296 0 -141.152
1407.4 4.62415 0 -161.302
2127.53 5.27725 0 -176.563
1418.69 4.41397 0 -161.139
1413.05 4.51931 0 -161.223
697.022 3.75644 0 -141.19
691.399 3.96203 0 -141.261
2102.09 5.5822 0 -176.913
2119.05 5.37944 0 -176.685
694.21 3.85947 0 -141.227
1396.11 4.8323 0 -161.451
2110.57 5.48109 0 -176.802
1407.4 4.62415 0 -161.302
1401.76 4.72848 0 -161.379
691.399 3.96203 0 -141.261
685.777 4.1658 0 -141.325
2085.12 5.78278 0 -177.119
2102.09 5.5822 0 -176.913
688.588 4.06414 0 -141.294
1384.83 5.03841 0 -161.586
2093.6 5.68277 0 -177.018
1396.11 4.8323 0 -161.451
1390.47 4.93561 0 -161.521
685.777 4.1658 0 -141.325
680.155 4.36772 0 -141.382
2068.16 5.98115 0 -177.304
2085.12 5.78278 0 -177.119
682.966 4.26699 0 -141.355
1373.54 5.24247 0 -161.707
2076.64 5.88224 0 -177.214
1384.83 5.03841 0 -161.586
1379.18 5.1407 0 -161.649
680.155 4.36772 0 -141.382
674.533 4.56779 0 -141.432
2051.2 6.1773 0 -177.469
2068.16 5.98115 0 -177.304
677.344 4.46798 0 -141.408
1362.25 5.44445 0 -161.814
2059.68 6.07951 0 -177.389
1373.54 5.24247 0 -161.707
1367.9 5.34372 0 -161.763
674.533 4.56779 0 -141.432
668.911 4.76601 0 -141.475
2034.24 6.37121 0 -177.613
2051.2 6.1773 0 -177.469
671.722 4.66713 0 -141.454
1350.97 5.64436 0 -161.908
2042.72 6.27454 0 -177.543
1362.25 5.44445 0 -161.814
1356.61 5.54467 0 -161.863
668.911 4.76601 0 -141.475
663.29 4.96237 0 -141.511
2017.28 6.56284 0 -177.736
2034.24 6.37121 0 -177.613
666.1 4.86442 0 -141.494
1339.68 5.84217 0 -161.987
2025.76 6.46731 0 -177.677
1350.97 5.64436 0 -161.908
1345.32 5.74353 0 -161.949
663.29 4.96237 0 -141.511
657.668 5.15686 0 -141.541
2000.33 6.7522 0 -177.839
2017.28 6.56284 0 -177.736
660.479 5.05985 0 -141.527
1328.4 6.03788 0 -162.053
2008.8 6.65781 0 -177.79
1339.68 5.84217 0 -161.987
1334.04 5.94029 0 -162.022
657.668 5.15686 0 -141.541
652.047 5.34948 0 -141.563
1983.37 6.93925 0 -177.922
2000.33 6.7522 0 -177.839
654.858 5.25341 0 -141.553
1317.11 6.23146 0 -162.106
1991.85 6.84601 0 -177.883
1328.4 6.03788 0 -162.053
1322.76 6.13493 0 -162.081
652.047 5.34948 0 -141.563
646.426 5.54022 0 -141.58
1966.42 7.12398 0 -177.985
1983.37 6.93925 0 -177.922
649.237 5.44509 0 -141.572
1305.83 6.42291 0 -162.145
1974.89 7.0319 0 -177.956
1317.11 6.23146 0 -162.106
1311.47 6.32745 0 -162.127
646.426 5.54022 0 -141.58
640.806 5.72908 0 -141.589
1949.46 7.30637 0 -178.028
1966.42 7.12398 0 -177.985
643.616 5.63489 0 -141.585
1294.55 6.61223 0 -162.172
1957.94 7.21547 0 -178.009
1305.83 6.42291 0 -162.145
1300.19 6.51784 0 -162.16
640.806 5.72908 0 -141.589
635.185 5.91605 0 -141.592
1932.51 7.48641 0 -178.052
1949.46 7.30637 0 -178.028
637.995 5.8228 0 -141.591
1283.27 6.79939 0 -162.185
1940.99 7.39668 0 -178.042
1294.55 6.61223 0 -162.172
1288.91 6.70608 0 -162.18
635.185 5.91605 0 -141.592
629.565 6.10113 0 -141.588
1915.56 7.66408 0 -178.056
1932.51 7.48641 0 -178.052
632.375 6.00883 0 -141.591
1271.99 6.98438 0 -162.185
1924.04 7.57554 0 -178.056
1283.27 6.79939 0 -162.185
1277.63 6.89216 0 -162.186
629.565 6.10113 0 -141.588
623.945 6.2843 0 -141.578
1898.62 7.83937 0 -178.041
1915.56 7.66408 0 -178.056
626.755 6.19295 0 -141.584
1260.71 7.16721 0 -162.172
1907.09 7.75202 0 -178.051
1271.99 6.98438 0 -162.185
1266.35 7.07607 0 -162.18
623.945 6.2843 0 -141.578
618.325 6.46558 0 -141.562
1881.67 8.01226 0 -178.006
1898.62 7.83937 0 -178.041
621.135 6.37518 0 -141.571
1249.43 7.34785 0 -162.147
1890.14 7.92612 0 -178.026
1260.71 7.16721 0 -162.172
1255.07 7.2578 0 -162.161
618.325 6.46558 0 -141.562
612.706 6.64494 0 -141.54
1864.72 8.18274 0 -177.953
1881.67 8.01226 0 -178.006
615.516 6.5555 0 -141.552
1238.15 7.5263 0 -162.109
1873.2 8.0978 0 -177.982
1249.43 7.34785 0 -162.147
1243.79 7.43735 0 -162.129
612.706 6.64494 0 -141.54
607.087 6.82239 0 -141.511
1847.78 8.3508 0 -177.881
1864.72 8.18274 0 -177.953
609.896 6.7339 0 -141.526
1226.88 7.70255 0 -162.058
1856.25 8.26707 0 -177.92
1238.15 7.5263 0 -162.109
1232.52 7.6147 0 -162.085
607.087 6.82239 0 -141.511
601.468 6.99793 0 -141.476
1830.84 8.51642 0 -177.791
1847.78 8.3508 0 -177.881
604.277 6.9104 0 -141.494
1215.6 7.87659 0 -161.995
1839.31 8.43391 0 -177.838
1226.88 7.70255 0 -162.058
1221.24 7.78984 0 -162.028
601.468 6.99793 0 -141.476
595.849 7.17154 0 -141.434
1813.9 8.67959 0 -177.682
1830.84 8.51642 0 -177.791
598.659 7.08498 0 -141.456
1204.33 8.04841 0 -161.92
1822.37 8.59831 0 -177.739
1215.6 7.87659 0 -161.995
1209.96 7.96278 0 -161.959
595.849 7.17154 0 -141.434
590.231 7.34323 0 -141.387
1796.96 8.8403 0 -177.555
1813.9 8.67959 0 -177.682
593.04 7.25763 0 -141.412
1193.05 8.21802 0 -161.833
1805.43 8.76025 0 -177.621
1204.33 8.04841 0 -161.92
1198.69 8.13349 0 -161.878
590.231 7.34323 0 -141.387
584.613 7.513 0 -141.334
1780.02 8.99854 0 -177.41
1796.96 8.8403 0 -177.555
587.422 7.42836 0 -141.361
1181.78 8.38539 0 -161.734
1788.49 8.91973 0 -177.484
1193.05 8.21802 0 -161.833
1187.42 8.30198 0 -161.785
584.613 7.513 0 -141.334
578.995 7.68083 0 -141.275
1763.09 9.15431 0 -177.247
1780.02 8.99854 0 -177.41
581.804 7.59716 0 -141.305
1170.51 8.55053 0 -161.622
1771.56 9.07674 0 -177.33
1181.78 8.38539 0 -161.734
1176.14 8.46824 0 -161.68
578.995 7.68083 0 -141.275
573.378 7.84674 0 -141.21
1746.15 9.30758 0 -177.066
1763.09 9.15431 0 -177.247
576.186 7.76403 0 -141.243
1159.24 8.71342 0 -161.499
1754.62 9.23126 0 -177.158
1170.51 8.55053 0 -161.622
1164.87 8.63225 0 -161.562
573.378 7.84674 0 -141.21
567.76 8.0107 0 -141.139
1729.22 9.45836 0 -176.867
1746.15 9.30758 0 -177.066
570.569 7.92896 0 -141.175
1147.97 8.87407 0 -161.365
1737.69 9.38328 0 -176.969
1159.24 8.71342 0 -161.499
1153.6 8.79402 0 -161.433
567.76 8.0107 0 -141.139
562.143 8.17273 0 -141.062
1712.29 9.60663 0 -176.652
1729.22 9.45836 0 -176.867
564.952 8.09196 0 -141.101
1136.7 9.03246 0 -161.218
1720.76 9.53281 0 -176.762
1147.97 8.87407 0 -161.365
1142.33 8.95354 0 -161.293
562.143 8.17273 0 -141.062
556.527 8.33282 0 -140.98
1695.36 9.75239 0 -176.419
1712.29 9.60663 0 -176.652
559.335 8.25301 0 -141.022
1125.43 9.18859 0 -161.061
1703.83 9.67983 0 -176.537
1136.7 9.03246 0 -161.218
1131.06 9.11081 0 -161.141
556.527 8.33282 0 -140.98
550.91 8.49096 0 -140.892
1678.44 9.89564 0 -176.169
1695.36 9.75239 0 -176.419
553.718 8.41213 0 -140.937
1114.16 9.34246 0 -160.892
1686.9 9.82433 0 -176.296
1125.43 9.18859 0 -161.061
1119.79 9.26581 0 -160.978
550.91 8.49096 0 -140.892
545.294 8.64716 0 -140.798
1661.51 10.0364 0 -175.902
1678.44 9.89564 0 -176.169
548.102 8.5693 0 -140.846
1102.89 9.49407 0 -160.711
1669.97 9.96631 0 -176.038
1114.16 9.34246 0 -160.892
1108.53 9.41855 0 -160.803
545.294 8.64716 0 -140.798
539.678 8.80141 0 -140.699
1644.59 10.1745 0 -175.619
1661.51 10.0364 0 -175.902
542.486 8.72453 0 -140.749
1091.63 9.6434 0 -160.52
1653.05 10.1058 0 -175.763
1102.89 9.49407 0 -160.711
1097.26 9.56902 0 -160.617
539.678 8.80141 0 -140.699
534.063 8.95371 0 -140.594
1627.66 10.3102 0 -175.319
1644.59 10.1745 0 -175.619
536.871 8.8778 0 -140.647
1080.36 9.79046 0 -160.318
1636.12 10.2427 0 -175.471
1091.63 9.6434 0 -160.52
1085.99 9.71721 0 -160.42
534.063 8.95371 0 -140.594
528.448 9.10406 0 -140.484
1610.74 10.4433 0 -175.003
1627.66 10.3102 0 -175.319
531.255 9.02913 0 -140.54
1069.1 9.93524 0 -160.104
1619.2 10.3771 0 -175.163
1080.36 9.79046 0 -160.318
1074.73 9.86313 0 -160.212
528.448 9.10406 0 -140.484
522.833 9.25246 0 -140.369
1593.82 10.5738 0 -174.67
1610.74 10.4433 0 -175.003
525.64 9.17851 0 -140.427
1057.84 10.0777 0 -159.88
1602.28 10.5089 0 -174.839
1069.1 9.93524 0 -160.104
1063.47 10.0068 0 -159.994
522.833 9.25246 0 -140.369
517.218 9.39891 0 -140.248
1576.91 10.7019 0 -174.322
1593.82 10.5738 0 -174.67
520.025 9.32593 0 -140.309
1046.57 10.218 0 -159.646
1585.37 10.6382 0 -174.498
1057.84 10.0777 0 -159.88
1052.2 10.1481 0 -159.764
517.218 9.39891 0 -140.248
511.604 9.54341 0 -140.122
1559.99 10.8273 0 -173.958
1576.91 10.7019 0 -174.322
514.411 9.4714 0 -140.186
1035.31 10.3559 0 -159.4
1568.45 10.7649 0 -174.142
1046.57 10.218 0 -159.646
1040.94 10.2872 0 -159.524
511.604 9.54341 0 -140.122
505.99 9.68595 0 -139.991
1543.08 10.9502 0 -173.578
1559.99 10.8273 0 -173.958
508.797 9.61492 0 -140.057
1024.05 10.4915 0 -159.145
1551.53 10.8891 0 -173.77
1035.31 10.3559 0 -159.4
1029.68 10.424 0 -159.274
505.99 9.68595 0 -139.991
500.376 9.82654 0 -139.855
1526.16 11.0706 0 -173.183
1543.08 10.9502 0 -173.578
503.183 9.75649 0 -139.923
1012.79 10.6249 0 -158.879
1534.62 11.0107 0 -173.382
1024.05 10.4915 0 -159.145
1018.42 10.5585 0 -159.013
500.376 9.82654 0 -139.855
494.763 9.96517 0 -139.713
1509.25 11.1884 0 -172.772
1526.16 11.0706 0 -173.183
497.569 9.8961 0 -139.784
1001.53 10.756 0 -158.603
1517.71 11.1298 0 -172.979
1012.79 10.6249 0 -158.879
1007.16 10.6907 0 -158.742
494.763 9.96517 0 -139.713
489.149 10.1018 0 -139.567
1492.34 11.3036 0 -172.346
1509.25 11.1884 0 -172.772
491.956 10.0338 0 -139.641
990.277 10.8848 0 -158.317
1500.8 11.2463 0 -172.561
1001.53 10.756 0 -158.603
995.905 10.8207 0 -158.461
489.149 10.1018 0 -139.567
483.537 10.2366 0 -139.415
1475.44 11.4163 0 -171.906
1492.34 11.3036 0 -172.346
486.343 10.1695 0 -139.492
979.02 11.0113 0 -158.021
1483.89 11.3602 0 -172.128
990.277 10.8848 0 -158.317
984.648 10.9483 0 -158.17
483.537 10.2366 0 -139.415
477.924 10.3693 0 -139.259
1458.53 11.5264 0 -171.45
1475.44 11.4163 0 -171.906
480.73 10.3032 0 -139.338
967.765 11.1355 0 -157.715
1466.98 11.4716 0 -171.68
979.02 11.0113 0 -158.021
973.392 11.0736 0 -157.869
477.924 10.3693 0 -139.259
472.312 10.5002 0 -139.098
1441.63 11.6339 0 -170.98
1458.53 11.5264 0 -171.45
475.118 10.435 0 -139.179
956.51 11.2574 0 -157.399
1450.08 11.5805 0 -171.217
967.765 11.1355 0 -157.715
962.137 11.1967 0 -157.558
472.312 10.5002 0 -139.098
466.7 10.629 0 -138.932
1424.72 11.7389 0 -170.495
1441.63 11.6339 0 -170.98
469.506 10.5648 0 -139.016
945.256 11.377 0 -157.074
1433.18 11.6868 0 -170.74
956.51 11.2574 0 -157.399
950.883 11.3175 0 -157.238
466.7 10.629 0 -138.932
461.088 10.7559 0 -138.761
1407.82 11.8414 0 -169.997
1424.72 11.7389 0 -170.495
463.894 10.6927 0 -138.847
934.003 11.4944 0 -156.739
1416.27 11.7905 0 -170.248
945.256 11.377 0 -157.074
939.63 11.436 0 -156.907
461.088 10.7559 0 -138.761
455.477 10.8809 0 -138.586
1390.92 11.9413 0 -169.484
1407.82 11.8414 0 -169.997
458.282 10.8186 0 -138.674
922.752 11.6094 0 -156.395
1399.37 11.8916 0 -169.742
934.003 11.4944 0 -156.739
928.377 11.5522 0 -156.568
455.477 10.8809 0 -138.586
449.866 11.0039 0 -138.406
1374.03 12.0386 0 -168.957
1390.92 11.9413 0 -169.484
452.671 10.9426 0 -138.497
911.501 11.7222 0 -156.041
1382.48 11.9902 0 -169.222
922.752 11.6094 0 -156.395
917.126 11.6661 0 -156.219
449.866 11.0039 0 -138.406
444.255 11.1249 0 -138.222
1357.13 12.1334 0 -168.416
1374.03 12.0386 0 -168.957
447.06 11.0646 0 -138.315
900.251 11.8327 0 -155.679
1365.58 12.0863 0 -168.688
911.501 11.7222 0 -156.041
905.876 11.7777 0 -155.861
444.255 11.1249 0 -138.222
438.644 11.244 0 -138.033
1340.24 12.2256 0 -167.862
1357.13 12.1334 0 -168.416
441.45 11.1847 0 -138.128
889.002 11.9409 0 -155.307
1348.68 12.1798 0 -168.141
900.251 11.8327 0 -155.679
894.626 11.8871 0 -155.494
438.644 11.244 0 -138.033
433.034 11.3612 0 -137.839
1323.34 12.3153 0 -167.295
1340.24 12.2256 0 -167.862
435.839 11.3028 0 -137.937
877.753 12.0468 0 -154.927
1331.79 12.2708 0 -167.58
889.002 11.9409 0 -155.307
883.377 11.9942 0 -155.118
433.034 11.3612 0 -137.839
427.424 11.4764 0 -137.642
1306.45 12.4025 0 -166.714
1323.34 12.3153 0 -167.295
430.229 11.419 0 -137.741
866.506 12.1505 0 -154.537
1314.9 12.3592 0 -167.006
877.753 12.0468 0 -154.927
872.13 12.099 0 -154.733
427.424 11.4764 0 -137.642
421.814 11.5896 0 -137.44
1289.56 12.4871 0 -166.12
1306.45 12.4025 0 -166.714
424.619 11.5333 0 -137.541
855.26 12.2519 0 -154.139
1298.01 12.4451 0 -166.419
866.506 12.1505 0 -154.537
860.883 12.2015 0 -154.339
421.814 11.5896 0 -137.44
416.205 11.701 0 -137.233
1272.68 12.5692 0 -165.513
1289.56 12.4871 0 -166.12
419.01 11.6455 0 -137.337
844.014 12.351 0 -153.733
1281.12 12.5285 0 -165.818
855.26 12.2519 0 -154.139
849.637 12.3018 0 -153.937
416.205 11.701 0 -137.233
410.596 11.8103 0 -137.023
1255.79 12.6488 0 -164.894
1272.68 12.5692 0 -165.513
413.4 11.7559 0 -137.129
832.77 12.4479 0 -153.317
1264.23 12.6093 0 -165.205
844.014 12.351 0 -153.733
838.392 12.3998 0 -153.526
410.596 11.8103 0 -137.023
404.987 11.9178 0 -136.808
1238.9 12.7259 0 -164.262
1255.79 12.6488 0 -164.894
407.792 11.8643 0 -136.916
821.526 12.5425 0 -152.894
1247.35 12.6877 0 -164.579
832.77 12.4479 0 -153.317
827.148 12.4955 0 -153.107
404.987 11.9178 0 -136.808
399.379 12.0233 0 -136.589
1222.02 12.8004 0 -163.617
1238.9 12.7259 0 -164.262
402.183 11.9708 0 -136.699
810.283 12.6349 0 -152.462
1230.46 12.7635 0 -163.941
821.526 12.5425 0 -152.894
815.904 12.589 0 -152.679
399.379 12.0233 0 -136.589
393.77 12.1268 0 -136.366
1205.14 12.8725 0 -162.961
1222.02 12.8004 0 -163.617
396.574 12.0753 0 -136.478
799.041 12.725 0 -152.023
1213.58 12.8368 0 -163.29
810.283 12.6349 0 -152.462
804.662 12.6802 0 -152.243
393.77 12.1268 0 -136.366
388.162 12.2285 0 -136.14
1188.26 12.9421 0 -162.292
1205.14 12.8725 0 -162.961
390.966 12.1779 0 -136.254
787.8 12.8128 0 -151.575
1196.7 12.9076 0 -162.628
799.041 12.725 0 -152.023
793.421 12.7692 0 -151.8
388.162 12.2285 0 -136.14
382.554 12.3282 0 -135.909
1171.38 13.0091 0 -161.611
1188.26 12.9421 0 -162.292
385.358 12.2786 0 -136.025
776.56 12.8985 0 -151.119
1179.82 12.9759 0 -161.953
787.8 12.8128 0 -151.575
782.18 12.8559 0 -151.348
382.554 12.3282 0 -135.909
376.947 12.426 0 -135.674
1154.5 13.0737 0 -160.919
1171.38 13.0091 0 -161.611
379.751 12.3773 0 -135.792
765.321 12.9818 0 -150.656
1162.94 13.0418 0 -161.267
776.56 12.8985 0 -151.119
770.94 12.9404 0 -150.888
376.947 12.426 0 -135.674
371.34 12.5218 0 -135.436
1137.63 13.1359 0 -160.215
1154.5 13.0737 0 -160.919
374.143 12.4741 0 -135.556
754.082 13.063 0 -150.184
1146.07 13.1051 0 -160.568
765.321 12.9818 0 -150.656
759.701 13.0227 0 -150.421
371.34 12.5218 0 -135.436
365.733 12.6158 0 -135.194
1120.75 13.1955 0 -159.5
1137.63 13.1359 0 -160.215
368.536 12.569 0 -135.315
742.845 13.1419 0 -149.706
1129.19 13.166 0 -159.859
754.082 13.063 0 -150.184
748.463 13.1027 0 -149.946
365.733 12.6158 0 -135.194
360.126 12.7078 0 -134.948
1103.88 13.2528 0 -158.774
1120.75 13.1955 0 -159.5
362.929 12.662 0 -135.071
731.608 13.2187 0 -149.22
1112.32 13.2245 0 -159.138
742.845 13.1419 0 -149.706
737.226 13.1806 0 -149.464
360.126 12.7078 0 -134.948
354.519 12.7979 0 -134.699
1087.01 13.3075 0 -158.036
1103.88 13.2528 0 -158.774
357.322 12.7531 0 -134.824
720.372 13.2932 0 -148.726
1095.45 13.2804 0 -158.406
731.608 13.2187 0 -149.22
725.99 13.2562 0 -148.974
354.519 12.7979 0 -134.699
348.913 12.8861 0 -134.446
1070.14 13.3599 0 -157.288
1087.01 13.3075 0 -158.036
351.716 12.8422 0 -134.572
709.137 13.3655 0 -148.225
1078.58 13.334 0 -157.663
720.372 13.2932 0 -148.726
714.754 13.3296 0 -148.477
348.913 12.8861 0 -134.446
343.307 12.9724 0 -134.189
1053.27 13.4098 0 -156.529
1070.14 13.3599 0 -157.288
346.11 12.9295 0 -134.318
697.902 13.4356 0 -147.718
1061.71 13.3851 0 -156.91
709.137 13.3655 0 -148.225
703.519 13.4008 0 -147.972
343.307 12.9724 0 -134.189
337.701 13.0568 0 -133.929
1036.41 13.4573 0 -155.76
1053.27 13.4098 0 -156.529
340.504 13.0148 0 -134.059
686.669 13.5035 0 -147.203
1044.84 13.4338 0 -156.146
697.902 13.4356 0 -147.718
692.285 13.4698 0 -147.461
337.701 13.0568 0 -133.929
332.095 13.1393 0 -133.666
1019.54 13.5024 0 -154.98
1036.41 13.4573 0 -155.76
334.898 13.0982 0 -133.798
675.436 13.5692 0 -146.681
1027.98 13.4801 0 -155.371
686.669 13.5035 0 -147.203
681.052 13.5366 0 -146.943
332.095 13.1393 0 -133.666
326.49 13.2198 0 -133.399
1002.68 13.5451 0 -154.19
1019.54 13.5024 0 -154.98
329.293 13.1798 0 -133.533
664.204 13.6328 0 -146.153
1011.11 13.5241 0 -154.586
675.436 13.5692 0 -146.681
669.82 13.6013 0 -146.418
326.49 13.2198 0 -133.399
320.885 13.2985 0 -133.129
985.818 13.5855 0 -153.39
1002.68 13.5451 0 -154.19
323.687 13.2594 0 -133.264
652.973 13.6942 0 -145.618
994.248 13.5656 0 -153.791
664.204 13.6328 0 -146.153
658.588 13.6638 0 -145.886
320.885 13.2985 0 -133.129
315.28 13.3754 0 -132.856
968.957 13.6234 0 -152.58
985.818 13.5855 0 -153.39
318.082 13.3372 0 -132.993
641.742 13.7535 0 -145.076
977.387 13.6047 0 -152.986
652.973 13.6942 0 -145.618
647.357 13.7241 0 -145.348
315.28 13.3754 0 -132.856
309.675 13.4503 0 -132.579
952.098 13.6591 0 -151.761
968.957 13.6234 0 -152.58
312.477 13.4131 0 -132.718
630.513 13.8106 0 -144.528
960.527 13.6415 0 -152.172
641.742 13.7535 0 -145.076
636.127 13.7823 0 -144.803
309.675 13.4503 0 -132.579
304.07 13.5233 0 -132.299
935.24 13.6923 0 -150.932
952.098 13.6591 0 -151.761
306.872 13.4871 0 -132.44
619.284 13.8655 0 -143.974
943.668 13.676 0 -151.347
630.513 13.8106 0 -144.528
624.898 13.8383 0 -144.252
304.07 13.5233 0 -132.299
298.466 13.5945 0 -132.017
918.383 13.7233 0 -150.093
935.24 13.6923 0 -150.932
301.268 13.5592 0 -132.159
608.055 13.9183 0 -143.413
926.811 13.7081 0 -150.514
619.284 13.8655 0 -143.974
613.669 13.8922 0 -143.694
298.466 13.5945 0 -132.017
292.862 13.6638 0 -131.731
901.528 13.752 0 -149.246
918.383 13.7233 0 -150.093
295.664 13.6294 0 -131.874
596.828 13.969 0 -142.847
909.955 13.7379 0 -149.671
608.055 13.9183 0 -143.413
602.442 13.9439 0 -143.131
292.862 13.6638 0 -131.731
287.258 13.7313 0 -131.443
884.674 13.7783 0 -148.39
901.528 13.752 0 -149.246
290.06 13.6978 0 -131.587
585.601 14.0176 0 -142.274
893.1 13.7654 0 -148.819
596.828 13.969 0 -142.847
591.214 13.9936 0 -142.561
287.258 13.7313 0 -131.443
281.654 13.7969 0 -131.151
867.821 13.8024 0 -147.524
884.674 13.7783 0 -148.39
284.456 13.7643 0 -131.297
574.375 14.0641 0 -141.696
876.247 13.7906 0 -147.958
585.601 14.0176 0 -142.274
579.988 14.0411 0 -141.986
281.654 13.7969 0 -131.151
276.05 13.8606 0 -130.857
850.97 13.8241 0 -146.65
867.821 13.8024 0 -147.524
278.852 13.829 0 -131.004
563.15 14.1085 0 -141.112
859.395 13.8135 0 -147.088
574.375 14.0641 0 -141.696
568.762 14.0865 0 -141.404
276.05 13.8606 0 -130.857
270.446 13.9225 0 -130.56
834.12 13.8437 0 -145.768
850.97 13.8241 0 -146.65
273.248 13.8918 0 -130.709
551.925 14.1508 0 -140.522
842.544 13.8342 0 -146.21
563.15 14.1085 0 -141.112
557.537 14.1299 0 -140.818
270.446 13.9225 0 -130.56
264.843 13.9825 0 -130.26
817.271 13.861 0 -144.877
834.12 13.8437 0 -145.768
267.645 13.9527 0 -130.41
540.701 14.191 0 -139.927
825.695 13.8526 0 -145.324
551.925 14.1508 0 -140.522
546.313 14.1711 0 -140.225
264.843 13.9825 0 -130.26
259.24 14.0407 0 -129.958
800.423 13.876 0 -143.979
817.271 13.861 0 -144.877
262.041 14.0118 0 -130.109
529.477 14.2292 0 -139.326
808.847 13.8688 0 -144.429
540.701 14.191 0 -139.927
535.089 14.2103 0 -139.627
259.24 14.0407 0 -129.958
253.637 14.0971 0 -129.653
783.577 13.8889 0 -143.072
800.423 13.876 0 -143.979
256.438 14.0691 0 -129.805
518.255 14.2653 0 -138.72
792 13.8827 0 -143.526
529.477 14.2292 0 -139.326
523.866 14.2475 0 -139.024
253.637 14.0971 0 -129.653
248.034 14.1516 0 -129.345
766.731 13.8995 0 -142.157
783.577 13.8889 0 -143.072
250.835 14.1246 0 -129.499
507.032 14.2993 0 -138.109
775.154 13.8945 0 -142.616
518.255 14.2653 0 -138.72
512.643 14.2826 0 -138.415
248.034 14.1516 0 -129.345
242.431 14.2043 0 -129.035
749.887 13.908 0 -141.235
766.731 13.8995 0 -142.157
245.232 14.1782 0 -129.19
495.811 14.3314 0 -137.493
758.309 13.904 0 -141.697
507.032 14.2993 0 -138.109
501.422 14.3156 0 -137.801
242.431 14.2043 0 -129.035
236.828 14.2552 0 -128.722
733.045 13.9143 0 -140.305
749.887 13.908 0 -141.235
239.63 14.23 0 -128.879
484.59 14.3614 0 -136.872
741.466 13.9114 0 -140.771
495.811 14.3314 0 -137.493
490.2 14.3466 0 -137.183
236.828 14.2552 0 -128.722
231.226 14.3043 0 -128.407
716.203 13.9185 0 -139.368
733.045 13.9143 0 -140.305
234.027 14.2799 0 -128.565
473.37 14.3893 0 -136.246
724.624 13.9167 0 -139.838
484.59 14.3614 0 -136.872
478.98 14.3756 0 -136.559
231.226 14.3043 0 -128.407
225.623 14.3515 0 -128.09
699.362 13.9205 0 -138.424
716.203 13.9185 0 -139.368
228.425 14.3281 0 -128.249
462.15 14.4153 0 -135.615
707.782 13.9198 0 -138.897
473.37 14.3893 0 -136.246
467.76 14.4026 0 -135.931
225.623 14.3515 0 -128.09
220.021 14.397 0 -127.771
682.523 13.9204 0 -137.473
699.362 13.9205 0 -138.424
222.822 14.3745 0 -127.931
450.931 14.4393 0 -134.98
690.942 13.9207 0 -137.95
462.15 14.4153 0 -135.615
456.54 14.4276 0 -135.298
220.021 14.397 0 -127.771
214.419 14.4407 0 -127.449
665.684 13.9183 0 -136.515
682.523 13.9204 0 -137.473
217.22 14.419 0 -127.61
439.712 14.4614 0 -134.34
674.103 13.9196 0 -136.995
450.931 14.4393 0 -134.98
445.321 14.4506 0 -134.66
214.419 14.4407 0 -127.449
208.817 14.4825 0 -127.125
648.847 13.914 0 -135.551
665.684 13.9183 0 -136.515
211.618 14.4618 0 -127.287
428.494 14.4814 0 -133.696
657.266 13.9164 0 -136.034
439.712 14.4614 0 -134.34
434.103 14.4716 0 -134.018
208.817 14.4825 0 -127.125
203.215 14.5226 0 -126.799
632.011 13.9077 0 -134.58
648.847 13.914 0 -135.551
206.016 14.5028 0 -126.962
417.276 14.4995 0 -133.047
640.429 13.9111 0 -135.066
428.494 14.4814 0 -133.696
422.885 14.4907 0 -133.372
203.215 14.5226 0 -126.799
197.613 14.5609 0 -126.471
615.175 13.8993 0 -133.603
632.011 13.9077 0 -134.58
200.414 14.542 0 -126.635
406.059 14.5157 0 -132.395
623.593 13.9038 0 -134.092
417.276 14.4995 0 -133.047
411.668 14.5078 0 -132.721
197.613 14.5609 0 -126.471
192.011 14.5975 0 -126.141
598.341 13.889 0 -132.62
615.175 13.8993 0 -133.603
194.812 14.5794 0 -126.306
394.843 14.5299 0 -131.738
606.758 13.8944 0 -133.112
406.059 14.5157 0 -132.395
400.451 14.523 0 -132.067
192.011 14.5975 0 -126.141
186.409 14.6322 0 -125.809
581.508 13.8766 0 -131.63
598.341 13.889 0 -132.62
189.21 14.6151 0 -125.975
383.626 14.5422 0 -131.077
589.924 13.883 0 -132.126
394.843 14.5299 0 -131.738
389.234 14.5363 0 -131.408
186.409 14.6322 0 -125.809
180.807 14.6653 0 -125.476
564.675 13.8622 0 -130.635
581.508 13.8766 0 -131.63
183.608 14.649 0 -125.643
372.411 14.5526 0 -130.413
573.091 13.8696 0 -131.134
383.626 14.5422 0 -131.077
378.019 14.5477 0 -130.746
180.807 14.6653 0 -125.476
175.205 14.6965 0 -125.14
547.844 13.8458 0 -129.635
564.675 13.8622 0 -130.635
178.006 14.6811 0 -125.308
361.196 14.5611 0 -129.745
556.259 13.8542 0 -130.136
372.411 14.5526 0 -130.413
366.803 14.5571 0 -130.079
175.205 14.6965 0 -125.14
169.604 14.726 0 -124.803
531.013 13.8275 0 -128.629
547.844 13.8458 0 -129.635
172.404 14.7115 0 -124.971
349.981 14.5677 0 -129.073
539.428 13.8369 0 -129.132
361.196 14.5611 0 -129.745
355.588 14.5647 0 -129.409
169.604 14.726 0 -124.803
164.002 14.7537 0 -124.464
514.184 13.8072 0 -127.617
531.013 13.8275 0 -128.629
166.803 14.7401 0 -124.633
338.766 14.5725 0 -128.398
522.598 13.8176 0 -128.124
349.981 14.5677 0 -129.073
344.374 14.5703 0 -128.736
164.002 14.7537 0 -124.464
158.4 14.7797 0 -124.123
497.355 13.785 0 -126.601
514.184 13.8072 0 -127.617
161.201 14.7669 0 -124.293
327.552 14.5753 0 -127.719
505.769 13.7964 0 -127.11
338.766 14.5725 0 -128.398
333.159 14.5741 0 -128.059
158.4 14.7797 0 -124.123
152.799 14.8039 0 -123.781
480.527 13.7609 0 -125.58
497.355 13.785 0 -126.601
155.599 14.792 0 -123.952
316.339 14.5763 0 -127.037
488.941 13.7732 0 -126.091
327.552 14.5753 0 -127.719
321.946 14.576 0 -127.379
152.799 14.8039 0 -123.781
147.197 14.8264 0 -123.437
463.7 13.7349 0 -124.554
480.527 13.7609 0 -125.58
149.998 14.8154 0 -123.609
305.126 14.5754 0 -126.352
472.113 13.7482 0 -125.067
316.339 14.5763 0 -127.037
310.732 14.5761 0 -126.695
147.197 14.8264 0 -123.437
141.596 14.8471 0 -123.092
446.873 13.7071 0 -123.523
463.7 13.7349 0 -124.554
144.396 14.837 0 -123.264
293.913 14.5727 0 -125.665
455.286 13.7212 0 -124.039
305.126 14.5754 0 -126.352
299.519 14.5743 0 -126.009
141.596 14.8471 0 -123.092
135.994 14.8661 0 -122.745
430.048 13.6773 0 -122.488
446.873 13.7071 0 -123.523
138.795 14.8568 0 -122.919
282.701 14.5682 0 -124.974
438.46 13.6924 0 -123.006
293.913 14.5727 0 -125.665
288.307 14.5707 0 -125.319
135.994 14.8661 0 -122.745
130.393 14.8833 0 -122.397
413.223 13.6457 0 -121.449
430.048 13.6773 0 -122.488
133.194 14.8749 0 -122.571
271.489 14.5618 0 -124.28
421.635 13.6618 0 -121.969
282.701 14.5682 0 -124.974
277.095 14.5652 0 -124.627
130.393 14.8833 0 -122.397
124.792 14.8988 0 -122.048
396.399 13.6123 0 -120.406
413.223 13.6457 0 -121.449
127.592 14.8913 0 -122.223
260.277 14.5536 0 -123.584
404.811 13.6293 0 -120.928
271.489 14.5618 0 -124.28
265.883 14.5579 0 -123.932
124.792 14.8988 0 -122.048
119.191 14.9126 0 -121.697
379.576 13.5771 0 -119.359
396.399 13.6123 0 -120.406
121.991 14.9059 0 -121.873
249.066 14.5436 0 -122.885
387.987 13.5949 0 -119.883
260.277 14.5536 0 -123.584
254.671 14.5488 0 -123.235
119.191 14.9126 0 -121.697
113.59 14.9247 0 -121.346
362.753 13.5401 0 -118.308
379.576 13.5771 0 -119.359
116.39 14.9189 0 -121.522
237.855 14.5318 0 -122.184
371.164 13.5588 0 -118.834
249.066 14.5436 0 -122.885
243.461 14.5379 0 -122.535
113.59 14.9247 0 -121.346
107.989 14.9354 0 -120.993
345.932 13.5014 0 -117.254
362.753 13.5401 0 -118.308
110.789 14.9302 0 -121.169
226.645 14.5185 0 -121.48
354.343 13.521 0 -117.781
237.855 14.5318 0 -122.184
232.25 14.5253 0 -121.832
107.989 14.9354 0 -120.993
102.388 14.9447 0 -120.639
329.111 13.4612 0 -116.196
345.932 13.5014 0 -117.254
105.189 14.9402 0 -120.816
215.436 14.5036 0 -120.774
337.522 13.4815 0 -116.725
226.645 14.5185 0 -121.48
221.04 14.5112 0 -121.127
102.388 14.9447 0 -120.639
96.788 14.953 0 -120.283
312.292 13.4196 0 -115.134
329.111 13.4612 0 -116.196
99.5882 14.949 0 -120.461
204.227 14.4876 0 -120.065
320.702 13.4406 0 -115.665
215.436 14.5036 0 -120.774
209.831 14.4957 0 -120.42
96.788 14.953 0 -120.283
91.1877 14.961 0 -119.926
295.474 13.3772 0 -114.069
312.292 13.4196 0 -115.134
93.9879 14.957 0 -120.105
193.018 14.4711 0 -119.354
303.883 13.3985 0 -114.602
204.227 14.4876 0 -120.065
198.622 14.4794 0 -119.71
91.1877 14.961 0 -119.926
85.587 14.9696 0 -119.568
278.657 13.3348 0 -113
295.474 13.3772 0 -114.069
88.3874 14.9651 0 -119.747
181.81 14.455 0 -118.64
287.065 13.356 0 -113.535
193.018 14.4711 0 -119.354
187.414 14.4629 0 -118.998
85.587 14.9696 0 -119.568
79.9847 14.9804 0 -119.208
261.841 13.2943 0 -111.926
278.657 13.3348 0 -113
82.7862 14.9745 0 -119.388
170.602 14.4414 0 -117.923
270.248 13.3141 0 -112.464
181.81 14.455 0 -118.64
176.206 14.4477 0 -118.282
79.9847 14.9804 0 -119.208
74.3794 14.9967 0 -118.848
245.024 13.2587 0 -110.846
261.841 13.2943 0 -111.926
77.1825 14.9876 0 -119.028
159.391 14.434 0 -117.202
253.432 13.2755 0 -111.387
170.602 14.4414 0 -117.923
164.997 14.4366 0 -117.563
74.3794 14.9967 0 -118.848
68.7655 15.0231 0 -118.491
228.204 13.2347 0 -109.756
245.024 13.2587 0 -110.846
71.5741 15.0082 0 -118.669
148.173 14.4394 0 -116.478
236.614 13.2446 0 -110.302
159.391 14.434 0 -117.202
153.783 14.4344 0 -116.84
68.7655 15.0231 0 -118.491
63.1372 15.0693 0 -118.144
211.372 13.2333 0 -108.653
228.204 13.2347 0 -109.756
65.9533 15.0429 0 -118.316
136.938 14.4699 0 -115.752
219.791 13.2301 0 -109.207
148.173 14.4394 0 -116.478
142.559 14.4504 0 -116.115
63.1372 15.0693 0 -118.144
57.4739 15.1482 0 -117.82
194.515 13.2767 0 -107.531
211.372 13.2333 0 -108.653
60.3123 15.1035 0 -117.978
125.667 14.5459 0 -115.028
202.947 13.2473 0 -108.095
136.938 14.4699 0 -115.752
131.309 14.5001 0 -115.39
57.4739 15.1482 0 -117.82
51.7569 15.2877 0 -117.547
177.59 13.3963 0 -106.379
194.515 13.2767 0 -107.531
54.6223 15.2082 0 -117.675
114.322 14.7037 0 -114.317
186.066 13.324 0 -106.959
125.667 14.5459 0 -115.028
120.007 14.6119 0 -114.669
51.7569 15.2877 0 -117.547
45.9167 15.5157 0 -117.375
160.55 13.6567 0 -105.181
177.59 13.3963 0 -106.379
48.8604 15.3879 0 -117.444
102.832 14.9942 0 -113.639
169.085 13.5039 0 -105.788
114.322 14.7037 0 -114.317
108.6 14.8269 0 -113.974
45.9167 15.5157 0 -117.375
39.9093 15.9008 0 -117.384
143.237 14.1241 0 -103.929
160.55 13.6567 0 -105.181
42.9319 15.6846 0 -117.35
91.0787 15.5015 0 -113.035
151.945 13.8579 0 -104.562
102.832 14.9942 0 -113.639
96.9995 15.217 0 -113.321
39.9093 15.9008 0 -117.384
33.5361 16.4632 0 -117.708
125.523 14.9394 0 -102.594
143.237 14.1241 0 -103.929
36.794 16.1567 0 -117.496
78.8681 16.2978 0 -112.576
134.43 14.4814 0 -103.275
91.0787 15.5015 0 -113.035
85.0417 15.8537 0 -112.788
33.5361 16.4632 0 -117.708
26.7679 17.3069 0 -118.508
106.93 16.1207 0 -101.23
125.523 14.9394 0 -102.594
30.1835 16.8521 0 -118.037
65.9072 17.4677 0 -112.378
116.394 15.4795 0 -101.908
78.8681 16.2978 0 -112.576
72.5119 16.8473 0 -112.419
26.7679 17.3069 0 -118.508
19.1851 18.1927 0 -119.968
87.2733 17.7805 0 -99.8731
106.93 16.1207 0 -101.23
23.1447 17.7589 0 -119.145
51.8706 18.814 0 -112.623
97.2102 16.9133 0 -100.547
65.9072 17.4677 0 -112.378
59.0292 18.1243 0 -112.46
19.1851 18.1927 0 -119.968
11.2137 18.9647 0 -122.036
65.4927 19.1358 0 -98.9786
87.2733 17.7805 0 -99.8731
15.1461 18.656 0 -120.939
36.4484 19.8328 0 -113.514
76.7978 18.5482 0 -99.318
51.8706 18.814 0 -112.623
44.3896 19.4855 0 -112.917
11.2137 18.9647 0 -122.036
2.51957 17.8984 0 -124.178
42.2924 19.1534 0 -99.0076
65.4927 19.1358 0 -98.9786
7.08451 18.7679 0 -123.166
20.1082 18.4634 0 -115.139
53.8875 19.5533 0 -98.8337
36.4484 19.8328 0 -113.514
28.266 19.57 0 -114.341
2.51957 17.8984 0 -124.178
-4.34024 13.6018 0 -124.195
17.2662 12.2631 0 -101.43
42.2924 19.1534 0 -99.0076
-1.53803 16.3877 0 -124.661
4.45025 11.4466 0 -116.612
30.2219 16.9774 0 -99.806
20.1082 18.4634 0 -115.139
12.1887 16.1314 0 -115.825
-4.34024 13.6018 0 -124.195
-9.59686 1.78662 0 -117.771
-1.79242 -9.67418 0 -104.563
17.2662 12.2631 0 -101.43
-6.8635 8.56384 0 -122.186
-5.32992 -7.27202 0 -113.725
6.00602 4.42973 0 -103.153
4.45025 11.4466 0 -116.612
-1.93845 3.5489 0 -116.515
-9.59686 1.78662 0 -117.771
-7.7008 -13.2572 0 -97.3748
-11.8146 -66.3182 0 -99.4285
-1.79242 -9.67418 0 -104.563
-10.4287 -5.46524 0 -109.774
-8.33022 -38.8812 0 -96.7129
-7.7945 -33.7296 0 -104.411
-5.32992 -7.27202 0 -113.725
-6.96999 -21.2544 0 -107.176
-7.7008 -13.2572 0 -97.3748
0.367962 -34.5397 0 -57.5502
-8.11667 -136.8 0 -59.1855
-11.8146 -66.3182 0 -99.4285
-3.49845 -22.8142 0 -80.1647
-7.01059 -81.6671 0 -61.0239
-12.7044 -103.611 0 -85.2568
-8.33022 -38.8812 0 -96.7129
-8.77205 -59.7406 0 -81.7685
2985.42 893.395 0 272.446
3245.2 561.539 0 -13.1848
5512.1 592.821 0 -313.236
5204.08 1554 0 -214.351
3161.69 715.472 0 100.09
4307.3 649.984 0 -131.683
5407.08 1118.09 0 -360.296
4251.54 1270.56 0 38.3267
4207.95 903.916 0 -44.7643
3245.2 561.539 0 -13.1848
3308.05 241.736 0 -103.658
5597.08 173.916 0 -156.531
5512.1 592.821 0 -313.236
3273.26 389.946 0 -71.0784
4463.21 251.25 0 -155.954
5591.51 303.798 0 -230.033
4307.3 649.984 0 -131.683
4427.04 435.856 0 -172.667
3308.05 241.736 0 -103.658
3340.54 79.5679 0 -122.872
5527.41 27.2745 0 -67.4847
5597.08 173.916 0 -156.531
3338.69 144.437 0 -120.271
4453.99 68.0088 0 -109.951
5555.34 83.2298 0 -97.7183
4463.21 251.25 0 -155.954
4461.92 133.322 0 -126.374
3340.54 79.5679 0 -122.872
3315.7 3.91898 0 -116.092
5478.87 -5.27417 0 -49.5401
5527.41 27.2745 0 -67.4847
3327 32.7957 0 -118.992
4411.96 -2.87968 0 -88.3283
5505.95 3.79695 0 -54.9725
4453.99 68.0088 0 -109.951
4436.06 24.7692 0 -98.2495
3315.7 3.91898 0 -116.092
3286.11 -18.5448 0 -111.93
5430.11 -17.453 0 -51.387
5478.87 -5.27417 0 -49.5401
3303.43 -10.9547 0 -114.043
4366.3 -20.539 0 -83.0561
5450.57 -13.1362 0 -48.4001
4411.96 -2.87968 0 -88.3283
4387.23 -16.2648 0 -83.1951
3286.11 -18.5448 0 -111.93
3251.71 -24.2132 0 -109.712
5396.3 -15.6287 0 -61.2989
5430.11 -17.453 0 -51.387
3267.27 -22.9819 0 -110.201
4328.13 -22.9951 0 -85.9281
5413.71 -17.1757 0 -56.499
4366.3 -20.539 0 -83.0561
4346.82 -22.4581 0 -84.4507
3251.71 -24.2132 0 -109.712
3223.85 -21.65 0 -110.277
5363.71 -13.5537 0 -70.2489
5396.3 -15.6287 0 -61.2989
3237.82 -23.2645 0 -109.93
4295.4 -19.4714 0 -90.9448
5378.99 -14.6715 0 -65.7685
4328.13 -22.9951 0 -85.9281
4310.91 -21.7054 0 -88.1296
3223.85 -21.65 0 -110.277
3198.69 -18.3306 0 -111.583
5334.78 -10.6297 0 -78.1834
5363.71 -13.5537 0 -70.2489
3210.49 -20.0631 0 -110.785
4267.04 -15.852 0 -96.0314
5349.41 -12.0104 0 -74.5251
4295.4 -19.4714 0 -90.9448
4280.9 -17.5083 0 -93.657
3198.69 -18.3306 0 -111.583
3177.31 -15.0807 0 -113.467
5305.92 -8.74309 0 -84.2667
5334.78 -10.6297 0 -78.1834
3187.85 -16.582 0 -112.527
4241.19 -12.7505 0 -100.483
5320.14 -9.61252 0 -81.3681
4267.04 -15.852 0 -96.0314
4253.83 -14.2327 0 -98.3025
3177.31 -15.0807 0 -113.467
3157.59 -12.8211 0 -115.403
5277.72 -7.31506 0 -89.2613
5305.92 -8.74309 0 -84.2667
3167.18 -13.8623 0 -114.416
4216.9 -10.6539 0 -104.254
5291.88 -7.94989 0 -86.9115
4241.19 -12.7505 0 -100.483
4228.93 -11.5744 0 -102.469
3157.59 -12.8211 0 -115.403
3139.28 -11.2209 0 -117.373
5249.42 -6.43166 0 -93.3694
5277.72 -7.31506 0 -89.2613
3148.36 -11.9324 0 -116.399
4193.43 -9.23276 0 -107.504
5263.54 -6.83028 0 -91.3892
4216.9 -10.6539 0 -104.254
4205.08 -9.87714 0 -105.925
3139.28 -11.2209 0 -117.373
3121.56 -10.1861 0 -119.284
5221.19 -5.82275 0 -96.9856
5249.42 -6.43166 0 -93.3694
3130.34 -10.6538 0 -118.332
4170.39 -8.32319 0 -110.383
5235.32 -6.09443 0 -95.2326
4193.43 -9.23276 0 -107.504
4181.87 -8.72457 0 -108.986
3121.56 -10.1861 0 -119.284
3104.26 -9.47186 0 -121.148
5192.88 -5.41298 0 -100.265
5221.19 -5.82275 0 -96.9856
3112.89 -9.79384 0 -120.224
4147.56 -7.70792 0 -113.024
5207.03 -5.60194 0 -98.6547
4170.39 -8.32319 0 -110.383
4158.96 -7.98841 0 -111.726
3104.26 -9.47186 0 -121.148
3087.13 -8.96756 0 -122.955
5164.56 -5.10163 0 -103.351
5192.88 -5.41298 0 -100.265
3095.67 -9.20169 0 -122.057
4124.84 -7.27311 0 -115.505
5178.73 -5.24706 0 -101.828
4147.56 -7.70792 0 -113.024
4136.19 -7.47324 0 -114.282
3087.13 -8.96756 0 -122.955
3070.09 -8.57297 0 -124.715
5136.21 -4.84886 0 -106.304
5164.56 -5.10163 0 -103.351
3078.6 -8.75927 0 -123.841
4102.15 -6.93317 0 -117.881
5150.39 -4.97069 0 -104.84
4124.84 -7.27311 0 -115.505
4113.49 -7.09477 0 -116.704
3070.09 -8.57297 0 -124.715
3053.09 -8.24167 0 -126.432
5107.84 -4.62299 0 -109.166
5136.21 -4.84886 0 -106.304
3061.59 -8.40202 0 -125.579
4079.47 -6.64478 0 -120.179
5122.03 -4.73338 0 -107.745
4102.15 -6.93317 0 -117.881
4090.81 -6.78434 0 -119.038
3053.09 -8.24167 0 -126.432
3036.11 -7.94149 0 -128.109
5079.46 -4.41075 0 -111.957
5107.84 -4.62299 0 -109.166
3044.6 -8.08862 0 -127.275
4056.8 -6.3813 0 -122.417
5093.65 -4.51591 0 -110.57
4079.47 -6.64478 0 -120.179
4068.14 -6.51095 0 -121.304
3036.11 -7.94149 0 -128.109
3019.13 -7.65795 0 -129.749
5051.07 -4.20366 0 -114.687
5079.46 -4.41075 0 -111.957
3027.62 -7.79835 0 -128.933
4034.12 -6.12998 0 -124.603
5065.26 -4.30679 0 -113.33
4056.8 -6.3813 0 -122.417
4045.46 -6.25462 0 -123.516
3019.13 -7.65795 0 -129.749
3002.16 -7.38229 0 -131.354
5022.67 -3.9983 0 -117.362
5051.07 -4.20366 0 -114.687
3010.64 -7.51939 0 -130.556
4011.45 -5.88387 0 -126.744
5036.87 -4.10093 0 -116.032
4034.12 -6.12998 0 -124.603
4022.79 -6.00652 0 -125.679
3002.16 -7.38229 0 -131.354
2985.18 -7.11073 0 -132.927
4994.27 -3.7928 0 -119.984
5022.67 -3.9983 0 -117.362
2993.67 -7.24617 0 -132.145
3988.76 -5.63989 0 -128.841
5008.47 -3.89561 0 -118.68
4011.45 -5.88387 0 -126.744
4000.11 -5.76173 0 -127.798
2985.18 -7.11073 0 -132.927
2968.2 -6.84118 0 -134.467
4965.86 -3.58651 0 -122.555
4994.27 -3.7928 0 -119.984
2976.69 -6.97577 0 -133.701
3966.08 -5.39654 0 -130.896
4980.07 -3.68978 0 -121.276
3988.76 -5.63989 0 -128.841
3977.42 -5.51819 0 -129.874
2968.2 -6.84118 0 -134.467
2951.22 -6.57278 0 -135.977
4937.46 -3.37914 0 -125.075
4965.86 -3.58651 0 -122.555
2959.71 -6.70688 0 -135.226
3943.39 -5.15322 0 -132.911
4951.66 -3.48296 0 -123.821
3966.08 -5.39654 0 -130.896
3954.74 -5.2749 0 -131.909
2951.22 -6.57278 0 -135.977
2934.23 -6.30507 0 -137.456
4909.05 -3.17067 0 -127.545
4937.46 -3.37914 0 -125.075
2942.73 -6.43885 0 -136.72
3920.71 -4.90967 0 -134.885
4923.25 -3.27504 0 -126.316
3943.39 -5.15322 0 -132.911
3932.05 -5.03148 0 -133.903
2934.23 -6.30507 0 -137.456
2917.25 -6.03786 0 -138.904
4880.64 -2.96113 0 -129.965
4909.05 -3.17067 0 -127.545
2925.74 -6.17141 0 -138.184
3898.02 -4.66584 0 -136.819
4894.85 -3.06603 0 -128.761
3920.71 -4.90967 0 -134.885
3909.36 -4.78779 0 -135.857
2917.25 -6.03786 0 -138.904
2900.27 -5.77106 0 -140.323
4852.23 -2.75059 0 -132.336
4880.64 -2.96113 0 -129.965
2908.76 -5.90441 0 -139.617
3875.33 -4.42173 0 -138.713
4866.44 -2.85598 0 -131.157
3898.02 -4.66584 0 -136.819
3886.67 -4.54382 0 -137.771
2900.27 -5.77106 0 -140.323
2883.28 -5.50465 0 -141.713
4823.82 -2.53915 0 -134.658
4852.23 -2.75059 0 -132.336
2891.77 -5.63781 0 -141.022
3852.64 -4.17738 0 -140.569
4838.03 -2.64498 0 -133.503
3875.33 -4.42173 0 -138.713
3863.98 -4.29958 0 -139.646
2883.28 -5.50465 0 -141.713
2866.3 -5.23865 0 -143.073
4795.41 -2.32689 0 -136.932
4823.82 -2.53915 0 -134.658
2874.79 -5.3716 0 -142.396
3829.95 -3.93284 0 -142.385
4809.62 -2.43312 0 -135.801
3852.64 -4.17738 0 -140.569
3841.29 -4.05513 0 -141.482
2866.3 -5.23865 0 -143.073
2849.31 -4.97306 0 -144.404
4767 -2.11391 0 -139.157
4795.41 -2.32689 0 -136.932
2857.8 -5.1058 0 -143.742
3807.25 -3.68818 0 -144.163
4781.2 -2.22049 0 -138.051
3829.95 -3.93284 0 -142.385
3818.6 -3.81052 0 -143.279
2849.31 -4.97306 0 -144.404
2832.32 -4.70793 0 -145.706
4738.59 -1.90031 0 -141.335
4767 -2.11391 0 -139.157
2840.82 -4.84044 0 -145.059
3784.56 -3.44347 0 -145.902
4752.79 -2.00718 0 -140.252
3807.25 -3.68818 0 -144.163
3795.91 -3.56583 0 -145.038
2832.32 -4.70793 0 -145.706
2815.33 -4.4433 0 -146.98
4710.18 -1.68617 0 -143.464
4738.59 -1.90031 0 -141.335
2823.83 -4.57555 0 -146.347
3761.87 -3.19877 0 -147.604
4724.38 -1.7933 0 -142.405
3784.56 -3.44347 0 -145.902
3773.22 -3.32112 0 -146.758
2815.33 -4.4433 0 -146.98
2798.35 -4.17923 0 -148.226
4681.76 -1.4716 0 -145.546
4710.18 -1.68617 0 -143.464
2806.84 -4.31119 0 -147.606
3739.18 -2.95417 0 -149.267
4695.97 -1.57894 0 -144.511
3761.87 -3.19877 0 -147.604
3750.52 -3.07645 0 -148.44
2798.35 -4.17923 0 -148.226
2781.36 -3.91576 0 -149.443
4653.35 -1.25669 0 -147.581
4681.76 -1.4716 0 -145.546
2789.85 -4.04742 0 -148.838
3716.48 -2.70972 0 -150.893
4667.56 -1.36418 0 -146.57
3739.18 -2.95417 0 -149.267
3727.83 -2.83192 0 -150.085
2781.36 -3.91576 0 -149.443
2764.37 -3.65295 0 -150.632
4624.94 -1.04153 0 -149.57
4653.35 -1.25669 0 -147.581
2772.86 -3.78427 0 -150.041
3693.79 -2.46552 0 -152.481
4639.15 -1.14914 0 -148.581
3716.48 -2.70972 0 -150.893
3705.14 -2.58758 0 -151.692
2764.37 -3.65295 0 -150.632
2747.38 -3.39086 0 -151.793
4596.53 -0.826213 0 -151.511
4624.94 -1.04153 0 -149.57
2755.87 -3.52181 0 -151.216
3671.1 -2.22162 0 -154.032
4610.73 -0.933886 0 -150.546
3693.79 -2.46552 0 -152.481
3682.44 -2.34353 0 -153.261
2747.38 -3.39086 0 -151.793
2730.39 -3.12954 0 -152.926
4568.12 -0.610829 0 -153.407
4596.53 -0.826213 0 -151.511
2738.88 -3.2601 0 -152.363
3648.4 -1.97811 0 -155.546
4582.32 -0.718524 0 -152.465
3671.1 -2.22162 0 -154.032
3659.75 -2.09981 0 -154.793
2730.39 -3.12954 0 -152.926
2713.4 -2.86905 0 -154.031
4539.71 -0.395467 0 -155.256
4568.12 -0.610829 0 -153.407
2721.89 -2.99919 0 -153.482
3625.71 -1.73506 0 -157.023
4553.91 -0.503139 0 -154.337
3648.4 -1.97811 0 -155.546
3637.05 -1.85652 0 -156.289
2713.4 -2.86905 0 -154.031
2696.41 -2.60943 0 -155.11
4511.29 -0.180213 0 -157.06
4539.71 -0.395467 0 -155.256
2704.9 -2.73913 0 -154.574
3603.01 -1.49253 0 -158.463
4525.5 -0.287821 0 -156.163
3625.71 -1.73506 0 -157.023
3614.36 -1.61372 0 -157.748
2696.41 -2.60943 0 -155.11
2679.42 -2.35075 0 -156.16
4482.89 0.0348451 0 -158.818
4511.29 -0.180213 0 -157.06
2687.92 -2.47997 0 -155.638
3580.32 -1.2506 0 -159.868
4497.09 -0.0726545 0 -157.944
3603.01 -1.49253 0 -158.463
3591.67 -1.37149 0 -159.17
2679.42 -2.35075 0 -156.16
2662.43 -2.09305 0 -157.184
4454.48 0.249625 0 -160.531
4482.89 0.0348451 0 -158.818
2670.93 -2.22178 0 -156.676
3557.63 -1.00933 0 -161.236
4468.68 0.142275 0 -159.68
3580.32 -1.2506 0 -159.868
3568.97 -1.12988 0 -160.556
2662.43 -2.09305 0 -157.184
2645.44 -1.83639 0 -158.181
4426.07 0.464044 0 -162.199
4454.48 0.249625 0 -160.531
2653.94 -1.96459 0 -157.686
3534.94 -0.768791 0 -162.568
4440.27 0.356885 0 -161.37
3557.63 -1.00933 0 -161.236
3546.28 -0.888966 0 -161.906
2645.44 -1.83639 0 -158.181
2628.45 -1.5808 0 -159.151
4397.66 0.678021 0 -163.823
4426.07 0.464044 0 -162.199
2636.95 -1.70845 0 -158.67
3512.24 -0.529046 0 -163.864
4411.86 0.571093 0 -163.016
3534.94 -0.768791 0 -162.568
3523.59 -0.648815 0 -163.221
2628.45 -1.5808 0 -159.151
2611.46 -1.32634 0 -160.095
4369.25 0.891478 0 -165.402
4397.66 0.678021 0 -163.823
2619.96 -1.45343 0 -159.626
3489.55 -0.290157 0 -165.126
4383.46 0.78482 0 -164.618
3512.24 -0.529046 0 -163.864
3500.9 -0.40949 0 -164.499
2611.46 -1.32634 0 -160.095
2594.47 -1.07306 0 -161.012
4340.85 1.10434 0 -166.937
4369.25 0.891478 0 -165.402
2602.97 -1.19955 0 -160.557
3466.86 -0.0521873 0 -166.352
4355.05 0.997987 0 -166.175
3489.55 -0.290157 0 -165.126
3478.21 -0.171053 0 -165.743
2594.47 -1.07306 0 -161.012
2577.49 -0.821007 0 -161.903
4312.44 1.31652 0 -168.429
4340.85 1.10434 0 -166.937
2585.98 -0.94688 0 -161.461
3444.17 0.184802 0 -167.543
4326.64 1.21052 0 -167.689
3466.86 -0.0521873 0 -166.352
3455.52 0.0664336 0 -166.951
2577.49 -0.821007 0 -161.903
2560.5 -0.570216 0 -162.768
4284.04 1.52796 0 -169.877
4312.44 1.31652 0 -168.429
2568.99 -0.695451 0 -162.339
3421.48 0.420751 0 -168.699
4298.24 1.42234 0 -169.159
3444.17 0.184802 0 -167.543
3432.83 0.30291 0 -168.125
2560.5 -0.570216 0 -162.768
2543.51 -0.320736 0 -163.607
4255.64 1.73857 0 -171.282
4284.04 1.52796 0 -169.877
2552 -0.44531 0 -163.191
3398.79 0.655602 0 -169.821
4269.84 1.63337 0 -170.585
3421.48 0.420751 0 -168.699
3410.14 0.538318 0 -169.264
2543.51 -0.320736 0 -163.607
2526.52 -0.0726099 0 -164.421
4227.23 1.94829 0 -172.645
4255.64 1.73857 0 -171.282
2535.02 -0.196501 0 -164.017
3376.1 0.889297 0 -170.908
4241.43 1.84355 0 -171.969
3398.79 0.655602 0 -169.821
3387.45 0.772598 0 -170.369
2526.52 -0.0726099 0 -164.421
2509.53 0.174121 0 -165.209
4198.83 2.15705 0 -173.965
4227.23 1.94829 0 -172.645
2518.03 0.0509326 0 -164.818
3353.42 1.12178 0 -171.962
4213.03 2.05279 0 -173.31
3376.1 0.889297 0 -170.908
3364.76 1.00569 0 -171.439
2509.53 0.174121 0 -165.209
2492.55 0.419415 0 -165.971
4170.44 2.36477 0 -175.242
4198.83 2.15705 0 -173.965
2501.04 0.29695 0 -165.593
3330.73 1.353 0 -172.982
4184.63 2.26104 0 -174.609
3353.42 1.12178 0 -171.962
3342.07 1.23755 0 -172.476
2492.55 0.419415 0 -165.971
2475.56 0.663231 0 -166.708
4142.04 2.57139 0 -176.478
4170.44 2.36477 0 -175.242
2484.05 0.54151 0 -166.343
3308.05 1.58289 0 -173.968
4156.24 2.46822 0 -175.865
3330.73 1.353 0 -172.982
3319.39 1.46811 0 -173.479
2475.56 0.663231 0 -166.708
2458.58 0.905531 0 -167.421
4113.64 2.77685 0 -177.672
4142.04 2.57139 0 -176.478
2467.07 0.784573 0 -167.068
3285.36 1.81142 0 -174.92
4127.84 2.67427 0 -177.08
3308.05 1.58289 0 -173.968
3296.7 1.69733 0 -174.448
2458.58 0.905531 0 -167.421
2441.59 1.14628 0 -168.108
4085.25 2.98108 0 -178.824
4113.64 2.77685 0 -177.672
2450.08 1.0261 0 -167.768
3262.68 2.03852 0 -175.84
4099.45 2.87912 0 -178.253
3285.36 1.81142 0 -174.92
3274.02 1.92515 0 -175.384
2441.59 1.14628 0 -168.108
2424.61 1.38543 0 -168.771
4056.86 3.18401 0 -179.935
4085.25 2.98108 0 -178.824
2433.1 1.26605 0 -168.443
3240 2.26414 0 -176.727
4071.05 3.08271 0 -179.385
3262.68 2.03852 0 -175.84
3251.34 2.15151 0 -176.288
2424.61 1.38543 0 -168.771
2407.62 1.62295 0 -169.409
4028.47 3.38559 0 -181.006
4056.86 3.18401 0 -179.935
2416.12 1.50439 0 -169.093
3217.31 2.48824 0 -177.581
4042.66 3.28498 0 -180.476
3240 2.26414 0 -176.727
3228.66 2.37638 0 -177.158
2407.62 1.62295 0 -169.409
2390.64 1.8588 0 -170.024
4000.08 3.58576 0 -182.036
4028.47 3.38559 0 -181.006
2399.13 1.74109 0 -169.72
3194.64 2.71076 0 -178.403
4014.27 3.48586 0 -181.526
3217.31 2.48824 0 -177.581
3205.97 2.5997 0 -177.996
2390.64 1.8588 0 -170.024
2373.66 2.09296 0 -170.613
3971.69 3.78445 0 -183.026
4000.08 3.58576 0 -182.036
2382.15 1.97609 0 -170.321
3171.96 2.93167 0 -179.193
3985.89 3.68529 0 -182.536
3194.64 2.71076 0 -178.403
3183.3 2.82142 0 -178.802
2373.66 2.09296 0 -170.613
2356.68 2.32537 0 -171.179
3943.31 3.98161 0 -183.976
3971.69 3.78445 0 -183.026
2365.17 2.20938 0 -170.899
3149.28 3.15091 0 -179.95
3957.5 3.88322 0 -183.506
3171.96 2.93167 0 -179.193
3160.62 3.0415 0 -179.576
2356.68 2.32537 0 -171.179
2339.7 2.55602 0 -171.722
3914.93 4.17718 0 -184.886
3943.31 3.98161 0 -183.976
2348.19 2.44092 0 -171.454
3126.6 3.36844 0 -180.676
3929.12 4.07959 0 -184.436
3149.28 3.15091 0 -179.95
3137.94 3.25989 0 -180.317
2339.7 2.55602 0 -171.722
2322.72 2.78486 0 -172.24
3886.55 4.3711 0 -185.757
3914.93 4.17718 0 -184.886
2331.21 2.67067 0 -171.984
3103.93 3.58421 0 -181.371
3900.74 4.27435 0 -185.327
3126.6 3.36844 0 -180.676
3115.27 3.47654 0 -181.028
2322.72 2.78486 0 -172.24
2305.74 3.01187 0 -172.735
3858.17 4.56333 0 -186.589
3886.55 4.3711 0 -185.757
2314.23 2.8986 0 -172.491
3081.26 3.79818 0 -182.034
3872.36 4.46743 0 -186.178
3103.93 3.58421 0 -181.371
3092.59 3.69142 0 -181.706
2305.74 3.01187 0 -172.735
2288.76 3.23701 0 -173.207
3829.79 4.75381 0 -187.382
3858.17 4.56333 0 -186.589
2297.25 3.12468 0 -172.974
3058.59 4.01032 0 -182.666
3843.98 4.65879 0 -186.99
3081.26 3.79818 0 -182.034
3069.92 3.90448 0 -182.354
2288.76 3.23701 0 -173.207
2271.79 3.46026 0 -173.656
3801.42 4.94249 0 -188.137
3829.79 4.75381 0 -187.382
2280.28 3.34887 0 -173.435
3035.92 4.22057 0 -183.268
3815.6 4.84838 0 -187.764
3058.59 4.01032 0 -182.666
3047.25 4.11568 0 -182.971
2271.79 3.46026 0 -173.656
2254.81 3.68158 0 -174.082
3773.05 5.12932 0 -188.853
3801.42 4.94249 0 -188.137
2263.3 3.57116 0 -173.872
3013.25 4.42891 0 -183.839
3787.23 5.03614 0 -188.5
3035.92 4.22057 0 -183.268
3024.58 4.32498 0 -183.557
2254.81 3.68158 0 -174.082
2237.84 3.90094 0 -174.485
3744.68 5.31425 0 -189.531
3773.05 5.12932 0 -188.853
2246.33 3.7915 0 -174.286
2990.58 4.63528 0 -184.379
3758.86 5.22203 0 -189.197
3013.25 4.42891 0 -183.839
3001.92 4.53234 0 -184.113
2237.84 3.90094 0 -174.485
2220.87 4.11832 0 -174.866
3716.31 5.49724 0 -190.172
3744.68 5.31425 0 -189.531
2229.35 4.00988 0 -174.678
2967.92 4.83966 0 -184.89
3730.49 5.40599 0 -189.856
2990.58 4.63528 0 -184.379
2979.25 4.73772 0 -184.638
2220.87 4.11832 0 -174.866
2203.89 4.33369 0 -175.224
3687.95 5.67823 0 -190.776
3716.31 5.49724 0 -190.172
2212.38 4.22626 0 -175.048
2945.26 5.04201 0 -185.37
3702.13 5.58799 0 -190.479
2967.92 4.83966 0 -184.89
2956.59 4.94109 0 -185.134
2203.89 4.33369 0 -175.224
2186.92 4.54701 0 -175.56
3659.58 5.85719 0 -191.342
3687.95 5.67823 0 -190.776
2195.41 4.44061 0 -175.395
2922.6 5.24228 0 -185.821
3673.77 5.76797 0 -191.064
2945.26 5.04201 0 -185.37
2933.93 5.14241 0 -185.6
2186.92 4.54701 0 -175.56
2169.95 4.75828 0 -175.874
3631.23 6.03407 0 -191.872
3659.58 5.85719 0 -191.342
2178.44 4.65291 0 -175.72
2899.94 5.44045 0 -186.243
3645.4 5.94589 0 -191.612
2922.6 5.24228 0 -185.821
2911.27 5.34163 0 -186.036
2169.95 4.75828 0 -175.874
2152.98 4.96745 0 -176.166
3602.87 6.20882 0 -192.365
3631.23 6.03407 0 -191.872
2161.47 4.86313 0 -176.023
2877.28 5.63649 0 -186.635
3617.05 6.12171 0 -192.123
2899.94 5.44045 0 -186.243
2888.61 5.53874 0 -186.443
2152.98 4.96745 0 -176.166
2136.02 5.17452 0 -176.436
3574.52 6.38142 0 -192.822
3602.87 6.20882 0 -192.365
2144.5 5.07125 0 -176.304
2854.62 5.83035 0 -186.999
3588.69 6.29539 0 -192.598
2877.28 5.63649 0 -186.635
2865.95 5.73369 0 -186.821
2136.02 5.17452 0 -176.436
2119.05 5.37944 0 -176.685
3546.16 6.55181 0 -193.243
3574.52 6.38142 0 -192.822
2127.53 5.27725 0 -176.563
2831.97 6.02201 0 -187.334
3560.34 6.46689 0 -193.037
2854.62 5.83035 0 -186.999
2843.3 5.92646 0 -187.17
2119.05 5.37944 0 -176.685
2102.09 5.5822 0 -176.913
3517.82 6.71995 0 -193.629
3546.16 6.55181 0 -193.243
2110.57 5.48109 0 -176.802
2809.32 6.21144 0 -187.64
3531.99 6.63616 0 -193.441
2831.97 6.02201 0 -187.334
2820.64 6.11701 0 -187.49
2102.09 5.5822 0 -176.913
2085.12 5.78278 0 -177.119
3489.47 6.88582 0 -193.979
3517.82 6.71995 0 -193.629
2093.6 5.68277 0 -177.018
2786.67 6.39861 0 -187.918
3503.64 6.80318 0 -193.808
2809.32 6.21144 0 -187.64
2797.99 6.30531 0 -187.783
2085.12 5.78278 0 -177.119
2068.16 5.98115 0 -177.304
3461.13 7.04938 0 -194.294
3489.47 6.88582 0 -193.979
2076.64 5.88224 0 -177.214
2764.02 6.58348 0 -188.168
3475.3 6.96789 0 -194.141
2786.67 6.39861 0 -187.918
2775.35 6.49133 0 -188.047
2068.16 5.98115 0 -177.304
2051.2 6.1773 0 -177.469
3432.79 7.21058 0 -194.575
3461.13 7.04938 0 -194.294
2059.68 6.07951 0 -177.389
2741.38 6.76604 0 -188.39
3446.96 7.13028 0 -194.439
2764.02 6.58348 0 -188.168
2752.7 6.67505 0 -188.283
2051.2 6.1773 0 -177.469
2034.24 6.37121 0 -177.613
3404.45 7.36941 0 -194.821
3432.79 7.21058 0 -194.575
2042.72 6.27454 0 -177.543
2718.73 6.94625 0 -188.585
3418.62 7.2903 0 -194.702
2741.38 6.76604 0 -188.39
2730.06 6.85644 0 -188.491
2034.24 6.37121 0 -177.613
2017.28 6.56284 0 -177.736
3376.11 7.52581 0 -195.033
3404.45 7.36941 0 -194.821
2025.76 6.46731 0 -177.677
2696.09 7.12408 0 -188.753
3390.28 7.44791 0 -194.931
2718.73 6.94625 0 -188.585
2707.41 7.03546 0 -188.672
2017.28 6.56284 0 -177.736
2000.33 6.7522 0 -177.839
3347.78 7.67977 0 -195.211
3376.11 7.52581 0 -195.033
2008.8 6.65781 0 -177.79
2673.45 7.29952 0 -188.893
3361.95 7.6031 0 -195.126
2696.09 7.12408 0 -188.753
2684.77 7.2121 0 -188.826
2000.33 6.7522 0 -177.839
1983.37 6.93925 0 -177.922
3319.45 7.83125 0 -195.355
3347.78 7.67977 0 -195.211
1991.85 6.84601 0 -177.883
2650.82 7.47253 0 -189.006
3333.62 7.75582 0 -195.287
2673.45 7.29952 0 -188.893
2662.13 7.38633 0 -188.953
1983.37 6.93925 0 -177.922
1966.42 7.12398 0 -177.985
3291.13 7.98022 0 -195.466
3319.45 7.83125 0 -195.355
1974.89 7.0319 0 -177.956
2628.18 7.6431 0 -189.093
3305.29 7.90605 0 -195.415
2650.82 7.47253 0 -189.006
2639.5 7.55813 0 -189.053
1966.42 7.12398 0 -177.985
1949.46 7.30637 0 -178.028
3262.81 8.12666 0 -195.544
3291.13 7.98022 0 -195.466
1957.94 7.21547 0 -178.009
2605.55 7.81121 0 -189.154
3276.97 8.05376 0 -195.509
2628.18 7.6431 0 -189.093
2616.86 7.72746 0 -189.127
1949.46 7.30637 0 -178.028
1932.51 7.48641 0 -178.052
3234.49 8.27053 0 -195.59
3262.81 8.12666 0 -195.544
1940.99 7.39668 0 -178.042
2582.92 7.97682 0 -189.188
3248.65 8.19892 0 -195.571
2605.55 7.81121 0 -189.154
2594.23 7.89432 0 -189.174
1932.51 7.48641 0 -178.052
1915.56 7.66408 0 -178.056
3206.17 8.41182 0 -195.603
3234.49 8.27053 0 -195.59
1924.04 7.57554 0 -178.056
2560.29 8.13992 0 -189.197
3220.33 8.3415 0 -195.6
2582.92 7.97682 0 -189.188
2571.6 8.05868 0 -189.196
1915.56 7.66408 0 -178.056
1898.62 7.83937 0 -178.041
3177.86 8.55049 0 -195.584
3206.17 8.41182 0 -195.603
1907.09 7.75202 0 -178.051
2537.66 8.30049 0 -189.179
3192.01 8.48148 0 -195.597
2560.29 8.13992 0 -189.197
2548.98 8.22052 0 -189.191
1898.62 7.83937 0 -178.041
1881.67 8.01226 0 -178.006
3149.55 8.68653 0 -195.533
3177.86 8.55049 0 -195.584
1890.14 7.92612 0 -178.026
2515.04 8.45851 0 -189.136
3163.7 8.61884 0 -195.562
2537.66 8.30049 0 -189.179
2526.35 8.37982 0 -189.161
1881.67 8.01226 0 -178.006
1864.72 8.18274 0 -177.953
3121.24 8.8199 0 -195.45
3149.55 8.68653 0 -195.533
1873.2 8.0978 0 -177.982
2492.42 8.61397 0 -189.068
3135.39 8.75355 0 -195.495
2515.04 8.45851 0 -189.136
2503.73 8.53656 0 -189.106
1864.72 8.18274 0 -177.953
1847.78 8.3508 0 -177.881
3092.93 8.95059 0 -195.336
3121.24 8.8199 0 -195.45
1856.25 8.26707 0 -177.92
2469.8 8.76684 0 -188.975
3107.09 8.88558 0 -195.397
2492.42 8.61397 0 -189.068
2481.11 8.69073 0 -189.025
1847.78 8.3508 0 -177.881
1830.84 8.51642 0 -177.791
3064.63 9.07859 0 -195.192
3092.93 8.95059 0 -195.336
1839.31 8.43391 0 -177.838
2447.18 8.91711 0 -188.858
3078.78 9.01493 0 -195.268
2469.8 8.76684 0 -188.975
2458.49 8.8423 0 -188.92
1830.84 8.51642 0 -177.791
1813.9 8.67959 0 -177.682
3036.34 9.20386 0 -195.016
3064.63 9.07859 0 -195.192
1822.37 8.59831 0 -177.739
2424.57 9.06476 0 -188.715
3050.48 9.14156 0 -195.108
2447.18 8.91711 0 -188.858
2435.88 8.99126 0 -188.789
1813.9 8.67959 0 -177.682
1796.96 8.8403 0 -177.555
3008.04 9.32639 0 -194.81
3036.34 9.20386 0 -195.016
1805.43 8.76025 0 -177.621
2401.96 9.20978 0 -188.548
3022.19 9.26546 0 -194.917
2424.57 9.06476 0 -188.715
2413.26 9.1376 0 -188.635
1796.96 8.8403 0 -177.555
1780.02 8.99854 0 -177.41
2979.75 9.44616 0 -194.574
3008.04 9.32639 0 -194.81
1788.49 8.91973 0 -177.484
2379.35 9.35216 0 -188.358
2993.9 9.38662 0 -194.696
2401.96 9.20978 0 -188.548
2390.65 9.2813 0 -188.456
1780.02 8.99854 0 -177.41
1763.09 9.15431 0 -177.247
2951.46 9.56315 0 -194.308
2979.75 9.44616 0 -194.574
1771.56 9.07674 0 -177.33
2356.74 9.49187 0 -188.143
2965.61 9.505 0 -194.445
2379.35 9.35216 0 -188.358
2368.04 9.42235 0 -188.253
1763.09 9.15431 0 -177.247
1746.15 9.30758 0 -177.066
2923.18 9.67736 0 -194.013
2951.46 9.56315 0 -194.308
1754.62 9.23126 0 -177.158
2334.13 9.62892 0 -187.905
2937.32 9.62061 0 -194.164
2356.74 9.49187 0 -188.143
2345.44 9.56073 0 -188.027
1746.15 9.30758 0 -177.066
1729.22 9.45836 0 -176.867
2894.9 9.78877 0 -193.688
2923.18 9.67736 0 -194.013
1737.69 9.38328 0 -176.969
2311.53 9.76328 0 -187.643
2909.04 9.73342 0 -193.854
2334.13 9.62892 0 -187.905
2322.83 9.69644 0 -187.777
1729.22 9.45836 0 -176.867
1712.29 9.60663 0 -176.652
2866.62 9.89735 0 -193.334
2894.9 9.78877 0 -193.688
1720.76 9.53281 0 -176.762
2288.93 9.89496 0 -187.358
2880.76 9.84341 0 -193.515
2311.53 9.76328 0 -187.643
2300.23 9.82946 0 -187.504
1712.29 9.60663 0 -176.652
1695.36 9.75239 0 -176.419
2838.34 10.0031 0 -192.952
2866.62 9.89735 0 -193.334
1703.83 9.67983 0 -176.537
2266.33 10.0239 0 -187.051
2852.48 9.95058 0 -193.147
2288.93 9.89496 0 -187.358
2277.63 9.95978 0 -187.207
1695.36 9.75239 0 -176.419
1678.44 9.89564 0 -176.169
2810.07 10.106 0 -192.541
2838.34 10.0031 0 -192.952
1686.9 9.82433 0 -176.296
2243.74 10.1502 0 -186.72
2824.21 10.0549 0 -192.75
2266.33 10.0239 0 -187.051
2255.04 10.0874 0 -186.888
1678.44 9.89564 0 -176.169
1661.51 10.0364 0 -175.902
2781.8 10.2061 0 -192.102
2810.07 10.106 0 -192.541
1669.97 9.96631 0 -176.038
2221.15 10.2737 0 -186.367
2795.94 10.1564 0 -192.325
2243.74 10.1502 0 -186.72
2232.44 10.2123 0 -186.546
1661.51 10.0364 0 -175.902
1644.59 10.1745 0 -175.619
2753.54 10.3033 0 -191.636
2781.8 10.2061 0 -192.102
1653.05 10.1058 0 -175.763
2198.56 10.3945 0 -185.992
2767.67 10.255 0 -191.872
2221.15 10.2737 0 -186.367
2209.85 10.3345 0 -186.182
1644.59 10.1745 0 -175.619
1627.66 10.3102 0 -175.319
2725.28 10.3976 0 -191.141
2753.54 10.3033 0 -191.636
1636.12 10.2427 0 -175.471
2175.97 10.5126 0 -185.595
2739.41 10.3508 0 -191.392
2198.56 10.3945 0 -185.992
2187.26 10.4539 0 -185.796
1627.66 10.3102 0 -175.319
1610.74 10.4433 0 -175.003
2697.02 10.4891 0 -190.62
2725.28 10.3976 0 -191.141
1619.2 10.3771 0 -175.163
2153.38 10.6279 0 -185.176
2711.15 10.4437 0 -190.884
2175.97 10.5126 0 -185.595
2164.68 10.5706 0 -185.388
1610.74 10.4433 0 -175.003
1593.82 10.5738 0 -174.67
2668.76 10.5776 0 -190.071
2697.02 10.4891 0 -190.62
1602.28 10.5089 0 -174.839
2130.8 10.7405 0 -184.735
2682.89 10.5337 0 -190.349
2153.38 10.6279 0 -185.176
2142.09 10.6845 0 -184.958
1593.82 10.5738 0 -174.67
1576.91 10.7019 0 -174.322
2640.51 10.6633 0 -189.496
2668.76 10.5776 0 -190.071
1585.37 10.6382 0 -174.498
2108.22 10.8503 0 -184.273
2654.64 10.6208 0 -189.787
2130.8 10.7405 0 -184.735
2119.51 10.7958 0 -184.507
1576.91 10.7019 0 -174.322
1559.99 10.8273 0 -173.958
2612.26 10.7461 0 -188.895
2640.51 10.6633 0 -189.496
1568.45 10.7649 0 -174.142
2085.64 10.9574 0 -183.79
2626.39 10.705 0 -189.199
2108.22 10.8503 0 -184.273
2096.93 10.9042 0 -184.034
1559.99 10.8273 0 -173.958
1543.08 10.9502 0 -173.578
2584.02 10.8259 0 -188.267
2612.26 10.7461 0 -188.895
1551.53 10.8891 0 -173.77
2063.07 11.0617 0 -183.286
2598.14 10.7864 0 -188.584
2085.64 10.9574 0 -183.79
2074.35 11.0099 0 -183.541
1543.08 10.9502 0 -173.578
1526.16 11.0706 0 -173.183
2555.78 10.9029 0 -187.614
2584.02 10.8259 0 -188.267
1534.62 11.0107 0 -173.382
2040.49 11.1633 0 -182.762
2569.9 10.8648 0 -187.943
2063.07 11.0617 0 -183.286
2051.78 11.1128 0 -183.027
1526.16 11.0706 0 -173.183
1509.25 11.1884 0 -172.772
2527.54 10.977 0 -186.935
2555.78 10.9029 0 -187.614
1517.71 11.1298 0 -172.979
2017.92 11.262 0 -182.217
2541.66 10.9403 0 -187.277
2040.49 11.1633 0 -182.762
2029.21 11.213 0 -182.492
1509.25 11.1884 0 -172.772
1492.34 11.3036 0 -172.346
2499.3 11.0481 0 -186.23
2527.54 10.977 0 -186.935
1500.8 11.2463 0 -172.561
1995.35 11.3581 0 -181.652
2513.42 11.0129 0 -186.586
2017.92 11.262 0 -182.217
2006.64 11.3104 0 -181.937
1492.34 11.3036 0 -172.346
1475.44 11.4163 0 -171.906
2471.07 11.1164 0 -185.501
2499.3 11.0481 0 -186.23
1483.89 11.3602 0 -172.128
1972.79 11.4513 0 -181.067
2485.19 11.0826 0 -185.869
1995.35 11.3581 0 -181.652
1984.07 11.405 0 -181.362
1475.44 11.4163 0 -171.906
1458.53 11.5264 0 -171.45
2442.85 11.1817 0 -184.747
2471.07 11.1164 0 -185.501
1466.98 11.4716 0 -171.68
1950.22 11.5418 0 -180.462
2456.96 11.1494 0 -185.127
1972.79 11.4513 0 -181.067
1961.51 11.4969 0 -180.767
1458.53 11.5264 0 -171.45
1441.63 11.6339 0 -170.98
2414.62 11.2441 0 -183.969
2442.85 11.1817 0 -184.747
1450.08 11.5805 0 -171.217
1927.66 11.6295 0 -179.838
2428.73 11.2133 0 -184.361
1950.22 11.5418 0 -180.462
1938.94 11.586 0 -180.152
1441.63 11.6339 0 -170.98
1424.72 11.7389 0 -170.495
2386.4 11.3036 0 -183.166
2414.62 11.2441 0 -183.969
1433.18 11.6868 0 -170.74
1905.1 11.7145 0 -179.194
2400.51 11.2742 0 -183.571
1927.66 11.6295 0 -179.838
1916.38 11.6724 0 -179.518
1424.72 11.7389 0 -170.495
1407.82 11.8414 0 -169.997
2358.18 11.3602 0 -182.34
2386.4 11.3036 0 -183.166
1416.27 11.7905 0 -170.248
1882.55 11.7967 0 -178.531
2372.29 11.3323 0 -182.756
1905.1 11.7145 0 -179.194
1893.83 11.7559 0 -178.865
1407.82 11.8414 0 -169.997
1390.92 11.9413 0 -169.484
2329.97 11.414 0 -181.49
2358.18 11.3602 0 -182.34
1399.37 11.8916 0 -169.742
1860 11.8761 0 -177.85
2344.07 11.3875 0 -181.918
1882.55 11.7967 0 -178.531
1871.27 11.8367 0 -178.193
1390.92 11.9413 0 -169.484
1374.03 12.0386 0 -168.957
2301.75 11.4648 0 -180.617
2329.97 11.414 0 -181.49
1382.48 11.9902 0 -169.222
1837.44 11.9528 0 -177.15
2315.86 11.4397 0 -181.057
1860 11.8761 0 -177.85
1848.72 11.9148 0 -177.502
1374.03 12.0386 0 -168.957
1357.13 12.1334 0 -168.416
2273.55 11.5127 0 -179.721
2301.75 11.4648 0 -180.617
1365.58 12.0863 0 -168.688
1814.9 12.0267 0 -176.432
2287.65 11.4891 0 -180.172
1837.44 11.9528 0 -177.15
1826.17 11.9901 0 -176.793
1357.13 12.1334 0 -168.416
1340.24 12.2256 0 -167.862
2245.34 11.5577 0 -178.803
2273.55 11.5127 0 -179.721
1348.68 12.1798 0 -168.141
1792.35 12.0979 0 -175.695
2259.44 11.5356 0 -179.265
1814.9 12.0267 0 -176.432
1803.62 12.0627 0 -176.066
1340.24 12.2256 0 -167.862
1323.34 12.3153 0 -167.295
2217.14 11.5999 0 -177.862
2245.34 11.5577 0 -178.803
1331.79 12.2708 0 -167.58
1769.81 12.1664 0 -174.941
2231.24 11.5792 0 -178.335
1792.35 12.0979 0 -175.695
1781.08 12.1325 0 -175.32
1323.34 12.3153 0 -167.295
1306.45 12.4025 0 -166.714
2188.94 11.6392 0 -176.899
2217.14 11.5999 0 -177.862
1314.9 12.3592 0 -167.006
1747.26 12.2321 0 -174.169
2203.04 11.6199 0 -177.383
1769.81 12.1664 0 -174.941
1758.53 12.1995 0 -174.557
1306.45 12.4025 0 -166.714
1289.56 12.4871 0 -166.12
2160.75 11.6756 0 -175.914
2188.94 11.6392 0 -176.899
1298.01 12.4451 0 -166.419
1724.73 12.295 0 -173.379
2174.84 11.6577 0 -176.409
1747.26 12.2321 0 -174.169
1735.99 12.2639 0 -173.776
1289.56 12.4871 0 -166.12
1272.68 12.5692 0 -165.513
2132.56 11.7091 0 -174.907
2160.75 11.6756 0 -175.914
1281.12 12.5285 0 -165.818
1702.19 12.3553 0 -172.572
2146.65 11.6927 0 -175.413
1724.73 12.295 0 -173.379
1713.46 12.3255 0 -172.978
1272.68 12.5692 0 -165.513
1255.79 12.6488 0 -164.894
2104.37 11.7398 0 -173.879
2132.56 11.7091 0 -174.907
1264.23 12.6093 0 -165.205
1679.65 12.4128 0 -171.749
2118.46 11.7248 0 -174.396
1702.19 12.3553 0 -172.572
1690.92 12.3844 0 -172.163
1255.79 12.6488 0 -164.894
1238.9 12.7259 0 -164.262
2076.18 11.7677 0 -172.83
2104.37 11.7398 0 -173.879
1247.35 12.6877 0 -164.579
1657.12 12.4676 0 -170.908
2090.27 11.7541 0 -173.357
1679.65 12.4128 0 -171.749
1668.39 12.4405 0 -171.33
1238.9 12.7259 0 -164.262
1222.02 12.8004 0 -163.617
2048 11.7928 0 -171.761
2076.18 11.7677 0 -172.83
1230.46 12.7635 0 -163.941
1634.59 12.5197 0 -170.051
2062.09 11.7806 0 -172.298
1657.12 12.4676 0 -170.908
1645.86 12.494 0 -170.482
1222.02 12.8004 0 -163.617
1205.14 12.8725 0 -162.961
2019.82 11.815 0 -170.671
2048 11.7928 0 -171.761
1213.58 12.8368 0 -163.29
1612.07 12.5692 0 -169.178
2033.91 11.8042 0 -171.219
1634.59 12.5197 0 -170.051
1623.33 12.5448 0 -169.616
1205.14 12.8725 0 -162.961
1188.26 12.9421 0 -162.292
1991.65 11.8344 0 -169.561
2019.82 11.815 0 -170.671
1196.7 12.9076 0 -162.628
1589.54 12.6159 0 -168.288
2005.73 11.825 0 -170.119
1612.07 12.5692 0 -169.178
1600.8 12.5929 0 -168.735
1188.26 12.9421 0 -162.292
1171.38 13.0091 0 -161.611
1963.47 11.851 0 -168.431
1991.65 11.8344 0 -169.561
1179.82 12.9759 0 -161.953
1567.02 12.66 0 -167.383
1977.56 11.8431 0 -168.999
1589.54 12.6159 0 -168.288
1578.28 12.6383 0 -167.837
1171.38 13.0091 0 -161.611
1154.5 13.0737 0 -160.919
1935.3 11.8649 0 -167.282
1963.47 11.851 0 -168.431
1162.94 13.0418 0 -161.267
1544.5 12.7014 0 -166.462
1949.39 11.8583 0 -167.859
1567.02 12.66 0 -167.383
1555.76 12.6811 0 -166.924
1154.5 13.0737 0 -160.919
1137.63 13.1359 0 -160.215
1907.14 11.876 0 -166.113
1935.3 11.8649 0 -167.282
1146.07 13.1051 0 -160.568
1521.98 12.7402 0 -165.526
1921.22 11.8708 0 -166.7
1544.5 12.7014 0 -166.462
1533.24 12.7211 0 -165.996
1137.63 13.1359 0 -160.215
1120.75 13.1955 0 -159.5
1878.98 11.8843 0 -164.926
1907.14 11.876 0 -166.113
1129.19 13.166 0 -159.859
1499.46 12.7763 0 -164.574
1893.06 11.8805 0 -165.522
1521.98 12.7402 0 -165.526
1510.72 12.7586 0 -165.052
1120.75 13.1955 0 -159.5
1103.88 13.2528 0 -158.774
1850.82 11.8899 0 -163.719
1878.98 11.8843 0 -164.926
1112.32 13.2245 0 -159.138
1476.95 12.8099 0 -163.608
1864.89 11.8875 0 -164.325
1499.46 12.7763 0 -164.574
1488.21 12.7934 0 -164.093
1103.88 13.2528 0 -158.774
1087.01 13.3075 0 -158.036
1822.66 11.8928 0 -162.494
1850.82 11.8899 0 -163.719
1095.45 13.2804 0 -158.406
1454.44 12.8408 0 -162.626
1836.74 11.8917 0 -163.109
1476.95 12.8099 0 -163.608
1465.7 12.8256 0 -163.119
1087.01 13.3075 0 -158.036
1070.14 13.3599 0 -157.288
1794.5 11.893 0 -161.251
1822.66 11.8928 0 -162.494
1078.58 13.334 0 -157.663
1431.93 12.8691 0 -161.631
1808.58 11.8933 0 -161.875
1454.44 12.8408 0 -162.626
1443.19 12.8552 0 -162.13
1070.14 13.3599 0 -157.288
1053.27 13.4098 0 -156.529
1766.35 11.8905 0 -159.991
1794.5 11.893 0 -161.251
1061.71 13.3851 0 -156.91
1409.42 12.8948 0 -160.621
1780.43 11.8921 0 -160.623
1431.93 12.8691 0 -161.631
1420.68 12.8822 0 -161.128
1053.27 13.4098 0 -156.529
1036.41 13.4573 0 -155.76
1738.21 11.8854 0 -158.712
1766.35 11.8905 0 -159.991
1044.84 13.4338 0 -156.146
1386.92 12.9179 0 -159.597
1752.28 11.8883 0 -159.354
1409.42 12.8948 0 -160.621
1398.17 12.9067 0 -160.111
1036.41 13.4573 0 -155.76
1019.54 13.5024 0 -154.98
1710.06 11.8776 0 -157.417
1738.21 11.8854 0 -158.712
1027.98 13.4801 0 -155.371
1364.42 12.9385 0 -158.559
1724.13 11.8818 0 -158.067
1386.92 12.9179 0 -159.597
1375.67 12.9285 0 -159.08
1019.54 13.5024 0 -154.98
1002.68 13.5451 0 -154.19
1681.92 11.8671 0 -156.104
1710.06 11.8776 0 -157.417
1011.11 13.5241 0 -154.586
1341.92 12.9566 0 -157.508
1695.99 11.8727 0 -156.763
1364.42 12.9385 0 -158.559
1353.17 12.9478 0 -158.035
1002.68 13.5451 0 -154.19
985.818 13.5855 0 -153.39
1653.78 11.8541 0 -154.775
1681.92 11.8671 0 -156.104
994.248 13.5656 0 -153.791
1319.42 12.9721 0 -156.443
1667.85 11.8609 0 -155.442
1341.92 12.9566 0 -157.508
1330.67 12.9646 0 -156.977
985.818 13.5855 0 -153.39
968.957 13.6234 0 -152.58
1625.65 11.8385 0 -153.429
1653.78 11.8541 0 -154.775
977.387 13.6047 0 -152.986
1296.92 12.9851 0 -155.365
1639.71 11.8466 0 -154.104
1319.42 12.9721 0 -156.443
1308.17 12.9789 0 -155.906
968.957 13.6234 0 -152.58
952.098 13.6591 0 -151.761
1597.51 11.8203 0 -152.067
1625.65 11.8385 0 -153.429
960.527 13.6415 0 -152.172
1274.43 12.9956 0 -154.274
1611.58 11.8297 0 -152.75
1296.92 12.9851 0 -155.365
1285.68 12.9907 0 -154.821
952.098 13.6591 0 -151.761
935.24 13.6923 0 -150.932
1569.38 11.7995 0 -150.689
1597.51 11.8203 0 -152.067
943.668 13.676 0 -151.347
1251.94 13.0037 0 -153.171
1583.45 11.8102 0 -151.38
1274.43 12.9956 0 -154.274
1263.18 13 0 -153.724
935.24 13.6923 0 -150.932
918.383 13.7233 0 -150.093
1541.26 11.7762 0 -149.296
1569.38 11.7995 0 -150.689
926.811 13.7081 0 -150.514
1229.45 13.0093 0 -152.055
1555.32 11.7882 0 -149.994
1251.94 13.0037 0 -153.171
1240.69 13.0068 0 -152.614
918.383 13.7233 0 -150.093
901.528 13.752 0 -149.246
1513.13 11.7505 0 -147.887
1541.26 11.7762 0 -149.296
909.955 13.7379 0 -149.671
1206.96 13.0124 0 -150.927
1527.19 11.7637 0 -148.593
1229.45 13.0093 0 -152.055
1218.21 13.0111 0 -151.492
901.528 13.752 0 -149.246
884.674 13.7783 0 -148.39
1485.01 11.7222 0 -146.463
1513.13 11.7505 0 -147.887
893.1 13.7654 0 -148.819
1184.48 13.0131 0 -149.787
1499.07 11.7366 0 -147.177
1206.96 13.0124 0 -150.927
1195.72 13.0131 0 -150.358
884.674 13.7783 0 -148.39
867.821 13.8024 0 -147.524
1456.89 11.6915 0 -145.025
1485.01 11.7222 0 -146.463
876.247 13.7906 0 -147.958
1161.99 13.0115 0 -148.635
1470.95 11.7071 0 -145.746
1184.48 13.0131 0 -149.787
1173.23 13.0126 0 -149.212
867.821 13.8024 0 -147.524
850.97 13.8241 0 -146.65
1428.77 11.6583 0 -143.572
1456.89 11.6915 0 -145.025
859.395 13.8135 0 -147.088
1139.51 13.0074 0 -147.471
1442.83 11.6752 0 -144.3
1161.99 13.0115 0 -148.635
1150.75 13.0097 0 -148.054
850.97 13.8241 0 -146.65
834.12 13.8437 0 -145.768
1400.66 11.6228 0 -142.105
1428.77 11.6583 0 -143.572
842.544 13.8342 0 -146.21
1117.03 13.001 0 -146.296
1414.72 11.6408 0 -142.84
1139.51 13.0074 0 -147.471
1128.27 13.0045 0 -146.885
834.12 13.8437 0 -145.768
817.271 13.861 0 -144.877
1372.55 11.5848 0 -140.624
1400.66 11.6228 0 -142.105
825.695 13.8526 0 -145.324
1094.55 12.9922 0 -145.11
1386.61 11.6041 0 -141.366
1117.03 13.001 0 -146.296
1105.79 12.9969 0 -145.705
817.271 13.861 0 -144.877
800.423 13.876 0 -143.979
1344.44 11.5445 0 -139.129
1372.55 11.5848 0 -140.624
808.847 13.8688 0 -144.429
1072.08 12.9811 0 -143.914
1358.5 11.565 0 -139.878
1094.55 12.9922 0 -145.11
1083.32 12.987 0 -144.513
800.423 13.876 0 -143.979
783.577 13.8889 0 -143.072
1316.34 11.5019 0 -137.621
1344.44 11.5445 0 -139.129
792 13.8827 0 -143.526
1049.6 12.9677 0 -142.706
1330.39 11.5235 0 -138.377
1072.08 12.9811 0 -143.914
1060.84 12.9747 0 -143.311
783.577 13.8889 0 -143.072
766.731 13.8995 0 -142.157
1288.23 11.4569 0 -136.1
1316.34 11.5019 0 -137.621
775.154 13.8945 0 -142.616
1027.13 12.9521 0 -141.488
1302.29 11.4797 0 -136.862
1049.6 12.9677 0 -142.706
1038.37 12.9602 0 -142.098
766.731 13.8995 0 -142.157
749.887 13.908 0 -141.235
1260.13 11.4097 0 -134.566
1288.23 11.4569 0 -136.1
758.309 13.904 0 -141.697
1004.66 12.9341 0 -140.26
1274.18 11.4336 0 -135.335
1027.13 12.9521 0 -141.488
1015.9 12.9434 0 -140.875
749.887 13.908 0 -141.235
733.045 13.9143 0 -140.305
1232.04 11.3602 0 -133.02
1260.13 11.4097 0 -134.566
741.466 13.9114 0 -140.771
982.193 12.9139 0 -139.022
1246.08 11.3852 0 -133.795
1004.66 12.9341 0 -140.26
993.427 12.9243 0 -139.642
733.045 13.9143 0 -140.305
716.203 13.9185 0 -139.368
1203.94 11.3085 0 -131.461
1232.04 11.3602 0 -133.02
724.624 13.9167 0 -139.838
959.726 12.8915 0 -137.774
1217.99 11.3346 0 -132.242
982.193 12.9139 0 -139.022
970.959 12.903 0 -138.399
716.203 13.9185 0 -139.368
699.362 13.9205 0 -138.424
1175.85 11.2546 0 -129.891
1203.94 11.3085 0 -131.461
707.782 13.9198 0 -138.897
937.261 12.8669 0 -136.517
1189.89 11.2818 0 -130.678
959.726 12.8915 0 -137.774
948.494 12.8795 0 -137.147
699.362 13.9205 0 -138.424
682.523 13.9204 0 -137.473
1147.76 11.1985 0 -128.309
1175.85 11.2546 0 -129.891
690.942 13.9207 0 -137.95
914.798 12.8401 0 -135.25
1161.8 11.2268 0 -129.101
937.261 12.8669 0 -136.517
926.029 12.8538 0 -135.885
682.523 13.9204 0 -137.473
665.684 13.9183 0 -136.515
1119.67 11.1403 0 -126.715
1147.76 11.1985 0 -128.309
674.103 13.9196 0 -136.995
892.336 12.8112 0 -133.974
1133.71 11.1697 0 -127.513
914.798 12.8401 0 -135.25
903.567 12.8259 0 -134.613
665.684 13.9183 0 -136.515
648.847 13.914 0 -135.551
1091.58 11.0799 0 -125.111
1119.67 11.1403 0 -126.715
657.266 13.9164 0 -136.034
869.877 12.7802 0 -132.69
1105.63 11.1104 0 -125.914
892.336 12.8112 0 -133.974
881.106 12.796 0 -133.333
648.847 13.914 0 -135.551
632.011 13.9077 0 -134.58
1063.5 11.0175 0 -123.495
1091.58 11.0799 0 -125.111
640.429 13.9111 0 -135.066
847.418 12.747 0 -131.397
1077.54 11.049 0 -124.304
869.877 12.7802 0 -132.69
858.647 12.7638 0 -132.044
632.011 13.9077 0 -134.58
615.175 13.8993 0 -133.603
1035.42 10.953 0 -121.869
1063.5 11.0175 0 -123.495
623.593 13.9038 0 -134.092
824.962 12.7118 0 -130.095
1049.46 10.9855 0 -122.684
847.418 12.747 0 -131.397
836.19 12.7296 0 -130.747
615.175 13.8993 0 -133.603
598.341 13.889 0 -132.62
1007.34 10.8865 0 -120.233
1035.42 10.953 0 -121.869
606.758 13.8944 0 -133.112
802.507 12.6745 0 -128.785
1021.38 10.92 0 -121.053
824.962 12.7118 0 -130.095
813.734 12.6934 0 -129.441
598.341 13.889 0 -132.62
581.508 13.8766 0 -131.63
979.264 10.818 0 -118.587
1007.34 10.8865 0 -120.233
589.924 13.883 0 -132.126
780.053 12.6351 0 -127.468
993.302 10.8525 0 -119.411
802.507 12.6745 0 -128.785
791.28 12.655 0 -128.127
581.508 13.8766 0 -131.63
564.675 13.8622 0 -130.635
951.19 10.7475 0 -116.931
979.264 10.818 0 -118.587
573.091 13.8696 0 -131.134
757.601 12.5938 0 -126.142
965.227 10.783 0 -117.761
780.053 12.6351 0 -127.468
768.827 12.6147 0 -126.806
564.675 13.8622 0 -130.635
547.844 13.8458 0 -129.635
923.118 10.6751 0 -115.266
951.19 10.7475 0 -116.931
556.259 13.8542 0 -130.136
735.151 12.5504 0 -124.809
937.153 10.7116 0 -116.1
757.601 12.5938 0 -126.142
746.376 12.5724 0 -125.476
547.844 13.8458 0 -129.635
531.013 13.8275 0 -128.629
895.047 10.6008 0 -113.592
923.118 10.6751 0 -115.266
539.428 13.8369 0 -129.132
712.702 12.5051 0 -123.469
909.082 10.6382 0 -114.43
735.151 12.5504 0 -124.809
723.926 12.528 0 -124.14
531.013 13.8275 0 -128.629
514.184 13.8072 0 -127.617
866.979 10.5246 0 -111.909
895.047 10.6008 0 -113.592
522.598 13.8176 0 -128.124
690.254 12.4579 0 -122.122
881.013 10.563 0 -112.751
712.702 12.5051 0 -123.469
701.478 12.4818 0 -122.796
514.184 13.8072 0 -127.617
497.355 13.785 0 -126.601
838.913 10.4466 0 -110.217
866.979 10.5246 0 -111.909
505.769 13.7964 0 -127.11
667.808 12.4088 0 -120.767
852.946 10.4858 0 -111.064
690.254 12.4579 0 -122.122
679.031 12.4336 0 -121.445
497.355 13.785 0 -126.601
480.527 13.7609 0 -125.58
810.849 10.3668 0 -108.517
838.913 10.4466 0 -110.217
488.941 13.7732 0 -126.091
645.363 12.3577 0 -119.407
824.881 10.4069 0 -109.368
667.808 12.4088 0 -120.767
656.585 12.3835 0 -120.088
480.527 13.7609 0 -125.58
463.7 13.7349 0 -124.554
782.787 10.2851 0 -106.809
810.849 10.3668 0 -108.517
472.113 13.7482 0 -125.067
622.92 12.3048 0 -118.04
796.818 10.3262 0 -107.664
645.363 12.3577 0 -119.407
634.141 12.3315 0 -118.724
463.7 13.7349 0 -124.554
446.873 13.7071 0 -123.523
754.726 10.2018 0 -105.094
782.787 10.2851 0 -106.809
455.286 13.7212 0 -124.039
600.477 12.2501 0 -116.666
768.756 10.2437 0 -105.952
622.92 12.3048 0 -118.04
611.698 12.2777 0 -117.354
446.873 13.7071 0 -123.523
430.048 13.6773 0 -122.488
726.668 10.1167 0 -103.37
754.726 10.2018 0 -105.094
438.46 13.6924 0 -123.006
578.036 12.1935 0 -115.287
740.697 10.1594 0 -104.233
600.477 12.2501 0 -116.666
589.257 12.222 0 -115.978
430.048 13.6773 0 -122.488
413.223 13.6457 0 -121.449
698.611 10.0299 0 -101.64
726.668 10.1167 0 -103.37
421.635 13.6618 0 -121.969
555.597 12.1351 0 -113.903
712.639 10.0735 0 -102.506
578.036 12.1935 0 -115.287
566.816 12.1645 0 -114.596
413.223 13.6457 0 -121.449
396.399 13.6123 0 -120.406
670.556 9.94147 0 -99.9034
698.611 10.0299 0 -101.64
404.811 13.6293 0 -120.928
533.158 12.0749 0 -112.513
684.584 9.98589 0 -100.773
555.597 12.1351 0 -113.903
544.377 12.1052 0 -113.208
396.399 13.6123 0 -120.406
379.576 13.5771 0 -119.359
642.503 9.85142 0 -98.1599
670.556 9.94147 0 -99.9034
387.987 13.5949 0 -119.883
510.721 12.013 0 -111.117
656.529 9.89665 0 -99.0325
533.158 12.0749 0 -112.513
521.939 12.0442 0 -111.816
379.576 13.5771 0 -119.359
362.753 13.5401 0 -118.308
614.451 9.75979 0 -96.4103
642.503 9.85142 0 -98.1599
371.164 13.5588 0 -118.834
488.285 11.9494 0 -109.717
628.477 9.8058 0 -97.2859
510.721 12.013 0 -111.117
499.503 11.9814 0 -110.418
362.753 13.5401 0 -118.308
345.932 13.5014 0 -117.254
586.401 9.66661 0 -94.6547
614.451 9.75979 0 -96.4103
354.343 13.521 0 -117.781
465.85 11.8841 0 -108.312
600.426 9.71339 0 -95.5332
488.285 11.9494 0 -109.717
477.067 11.917 0 -109.015
345.932 13.5014 0 -117.254
329.111 13.4612 0 -116.196
558.352 9.57196 0 -92.8934
586.401 9.66661 0 -94.6547
337.522 13.4815 0 -116.725
443.416 11.8173 0 -106.902
572.376 9.61947 0 -93.7747
465.85 11.8841 0 -108.312
454.633 11.8509 0 -107.608
329.111 13.4612 0 -116.196
312.292 13.4196 0 -115.134
530.306 9.47591 0 -91.1267
558.352 9.57196 0 -92.8934
320.702 13.4406 0 -115.665
420.984 11.749 0 -105.488
544.329 9.5241 0 -92.0107
443.416 11.8173 0 -106.902
432.2 11.7833 0 -106.196
312.292 13.4196 0 -115.134
295.474 13.3772 0 -114.069
502.261 9.37862 0 -89.3546
530.306 9.47591 0 -91.1267
303.883 13.3985 0 -114.602
398.554 11.6796 0 -104.07
516.283 9.4274 0 -90.2413
420.984 11.749 0 -105.488
409.769 11.7144 0 -104.78
295.474 13.3772 0 -114.069
278.657 13.3348 0 -113
474.218 9.28043 0 -87.5769
502.261 9.37862 0 -89.3546
287.065 13.356 0 -113.535
376.125 11.6097 0 -102.646
488.239 9.3296 0 -88.4665
398.554 11.6796 0 -104.07
387.339 11.6446 0 -103.359
278.657 13.3348 0 -113
261.841 13.2943 0 -111.926
446.179 9.18193 0 -85.793
474.218 9.28043 0 -87.5769
270.248 13.3141 0 -112.464
353.699 11.5405 0 -101.217
460.198 9.23116 0 -86.6858
376.125 11.6097 0 -102.646
364.912 11.5749 0 -101.932
261.841 13.2943 0 -111.926
245.024 13.2587 0 -110.846
418.144 9.08444 0 -84.001
446.179 9.18193 0 -85.793
253.432 13.2755 0 -111.387
331.276 11.4745 0 -99.7789
432.161 9.13292 0 -84.8982
353.699 11.5405 0 -101.217
342.487 11.5068 0 -100.499
245.024 13.2587 0 -110.846
228.204 13.2347 0 -109.756
390.117 8.99028 0 -82.1973
418.144 9.08444 0 -84.001
236.614 13.2446 0 -110.302
308.855 11.4165 0 -98.3289
404.13 9.03674 0 -83.1009
331.276 11.4745 0 -99.7789
320.065 11.4441 0 -99.0558
228.204 13.2347 0 -109.756
211.372 13.2333 0 -108.653
362.103 8.90454 0 -80.3732
390.117 8.99028 0 -82.1973
219.791 13.2301 0 -109.207
286.435 11.3751 0 -96.8586
376.108 8.94586 0 -81.2886
308.855 11.4165 0 -98.3289
297.645 11.3927 0 -97.5971
211.372 13.2333 0 -108.653
194.515 13.2767 0 -107.531
334.105 8.8349 0 -78.5151
362.103 8.90454 0 -80.3732
202.947 13.2473 0 -108.095
264.009 11.3678 0 -95.3536
348.102 8.86699 0 -79.4496
286.435 11.3751 0 -96.8586
275.223 11.3661 0 -96.1114
194.515 13.2767 0 -107.531
177.59 13.3963 0 -106.379
306.142 8.79922 0 -76.5914
334.105 8.8349 0 -78.5151
186.066 13.324 0 -106.959
241.563 11.4206 0 -93.7889
320.117 8.8114 0 -77.5644
264.009 11.3678 0 -95.3536
252.789 11.3832 0 -94.5817
177.59 13.3963 0 -106.379
160.55 13.6567 0 -105.181
278.207 8.8169 0 -74.5584
306.142 8.79922 0 -76.5914
169.085 13.5039 0 -105.788
219.062 11.5864 0 -92.1219
292.174 8.79899 0 -75.5922
241.563 11.4206 0 -93.7889
230.323 11.4873 0 -92.97
160.55 13.6567 0 -105.181
143.237 14.1241 0 -103.929
250.353 8.94448 0 -72.3175
278.207 8.8169 0 -74.5584
151.945 13.8579 0 -104.562
196.44 11.9255 0 -90.2882
264.261 8.86448 0 -73.473
219.062 11.5864 0 -92.1219
207.768 11.7236 0 -91.2351
143.237 14.1241 0 -103.929
125.523 14.9394 0 -102.594
222.491 9.20346 0 -69.7627
250.353 8.94448 0 -72.3175
134.43 14.4814 0 -103.275
173.549 12.567 0 -88.195
236.44 9.04963 0 -71.0876
196.44 11.9255 0 -90.2882
185.047 12.2108 0 -89.2731
125.523 14.9394 0 -102.594
106.93 16.1207 0 -101.23
194.754 9.75743 0 -66.6434
222.491 9.20346 0 -69.7627
116.394 15.4795 0 -101.908
150.167 13.5657 0 -85.7405
208.578 9.44803 0 -68.2957
173.549 12.567 0 -88.195
161.921 12.9937 0 -87.0367
106.93 16.1207 0 -101.23
87.2733 17.7805 0 -99.8731
166.582 10.4605 0 -62.838
194.754 9.75743 0 -66.6434
97.2102 16.9133 0 -100.547
125.752 15.0986 0 -82.8783
180.806 10.063 0 -64.8346
150.167 13.5657 0 -85.7405
138.17 14.313 0 -84.3243
87.2733 17.7805 0 -99.8731
65.4927 19.1358 0 -98.9786
138.193 11.7242 0 -57.9644
166.582 10.4605 0 -62.838
76.7978 18.5482 0 -99.318
99.7304 16.6917 0 -79.8018
152.336 11.1002 0 -60.5569
125.752 15.0986 0 -82.8783
112.91 15.8405 0 -81.4091
65.4927 19.1358 0 -98.9786
42.2924 19.1534 0 -99.0076
106.871 12.0151 0 -52.7247
138.193 11.7242 0 -57.9644
53.8875 19.5533 0 -98.8337
70.428 17.6459 0 -77.4494
123.25 11.9104 0 -55.3341
99.7304 16.6917 0 -79.8018
85.8041 17.5825 0 -78.2916
42.2924 19.1534 0 -99.0076
17.2662 12.2631 0 -101.43
72.6096 11.5357 0 -48.3943
106.871 12.0151 0 -52.7247
30.2219 16.9774 0 -99.806
37.642 12.9096 0 -78.3012
89.9496 12.4962 0 -50.1997
70.428 17.6459 0 -77.4494
54.1451 16.2103 0 -77.4868
17.2662 12.2631 0 -101.43
-1.79242 -9.67418 0 -104.563
26.9452 -1.95655 0 -53.9045
72.6096 11.5357 0 -48.3943
6.00602 4.42973 0 -103.153
0.980516 -8.84687 0 -87.2876
52.2276 6.72231 0 -49.1302
37.642 12.9096 0 -78.3012
20.5168 6.36206 0 -80.8634
-1.79242 -9.67418 0 -104.563
-11.8146 -66.3182 0 -99.4285
-13.3885 -56.0239 0 -83.5479
26.9452 -1.95655 0 -53.9045
-7.7945 -33.7296 0 -104.411
-13.0172 -77.1857 0 -99.0993
4.65722 -15.8327 0 -63.5481
0.980516 -8.84687 0 -87.2876
-13.1968 -36.3552 0 -95.091
-11.8146 -66.3182 0 -99.4285
-8.11667 -136.8 0 -59.1855
-3.31333 -273.201 0 -100.362
-13.3885 -56.0239 0 -83.5479
-12.7044 -103.611 0 -85.2568
7.0879 -197.665 0 -61.0662
-21.3022 -143.343 0 -103.833
-13.0172 -77.1857 0 -99.0993
-5.23427 -134.118 0 -90.726
5204.08 1554 0 -214.351
5512.1 592.821 0 -313.236
7421.94 -137.183 0 91.7528
11501.3 3434.15 0 -2760.27
5407.08 1118.09 0 -360.296
6887.52 422.67 0 -407.636
8258.69 -152.663 0 -401.487
6125.75 1828.71 0 -666.893
6798.09 925.479 0 -630.467
5512.1 592.821 0 -313.236
5597.08 173.916 0 -156.531
7344.14 -78.8987 0 20.0982
7421.94 -137.183 0 91.7528
5591.51 303.798 0 -230.033
6629.39 60.3093 0 -79.5275
7355.72 24.1833 0 34.3748
6887.52 422.67 0 -407.636
6713.08 151.762 0 -172.8
5597.08 173.916 0 -156.531
5527.41 27.2745 0 -67.4847
7477.54 25.2841 0 -0.721904
7344.14 -78.8987 0 20.0982
5555.34 83.2298 0 -97.7183
6540.93 -1.07444 0 -22.0278
7421.22 -50.7575 0 18.9299
6629.39 60.3093 0 -79.5275
6581.18 20.9095 0 -46.2278
5527.41 27.2745 0 -67.4847
5478.87 -5.27417 0 -49.5401
7509.83 -7.22706 0 -22.0556
7477.54 25.2841 0 -0.721904
5505.95 3.79695 0 -54.9725
6499.53 -9.80147 0 -16.3652
7495.51 23.5256 0 -20.9638
6540.93 -1.07444 0 -22.0278
6512.48 -9.77012 0 -12.1995
5478.87 -5.27417 0 -49.5401
5430.11 -17.453 0 -51.387
7536.4 8.65227 0 -23.8371
7509.83 -7.22706 0 -22.0556
5450.57 -13.1362 0 -48.4001
6480.2 -9.37658 0 -28.7457
7528.96 -4.99249 0 -19.7752
6499.53 -9.80147 0 -16.3652
6491.7 -8.91097 0 -23.7867
5430.11 -17.453 0 -51.387
5396.3 -15.6287 0 -61.2989
7525.39 -0.927619 0 -30.7861
7536.4 8.65227 0 -23.8371
5413.71 -17.1757 0 -56.499
6456.84 -7.85175 0 -40.6583
7531.59 6.4028 0 -29.1813
6480.2 -9.37658 0 -28.7457
6467.82 -9.13347 0 -34.2253
5396.3 -15.6287 0 -61.2989
5363.71 -13.5537 0 -70.2489
7508.11 2.09812 0 -34.3285
7525.39 -0.927619 0 -30.7861
5378.99 -14.6715 0 -65.7685
6432.21 -6.02255 0 -50.9569
7518.95 -0.679653 0 -31.7339
6456.84 -7.85175 0 -40.6583
6445.5 -6.66347 0 -46.4164
5363.71 -13.5537 0 -70.2489
5334.78 -10.6297 0 -78.1834
7477.87 -0.0137161 0 -39.3223
7508.11 2.09812 0 -34.3285
5349.41 -12.0104 0 -74.5251
6403.49 -4.9131 0 -58.9815
7493.42 1.54453 0 -37.2716
6432.21 -6.02255 0 -50.9569
6417.92 -5.51449 0 -55.1142
5334.78 -10.6297 0 -78.1834
5305.92 -8.74309 0 -84.2667
7444.43 0.592536 0 -43.5247
7477.87 -0.0137161 0 -39.3223
5320.14 -9.61252 0 -81.3681
6373 -4.01976 0 -65.3006
7461.8 0.0176105 0 -41.2292
6403.49 -4.9131 0 -58.9815
6388.61 -4.37787 0 -62.3647
5305.92 -8.74309 0 -84.2667
5277.72 -7.31506 0 -89.2613
7407.21 0.208358 0 -48.0014
7444.43 0.592536 0 -43.5247
5291.88 -7.94989 0 -86.9115
6340.75 -3.50956 0 -70.5226
7425.99 0.500387 0 -45.8734
6373 -4.01976 0 -65.3006
6356.95 -3.75897 0 -68.0098
5277.72 -7.31506 0 -89.2613
5249.42 -6.43166 0 -93.3694
7368.89 0.366292 0 -52.2669
7407.21 0.208358 0 -48.0014
5263.54 -6.83028 0 -91.3892
6307.76 -3.12365 0 -75.0022
7388.21 0.229322 0 -50.0953
6340.75 -3.50956 0 -70.5226
6324.38 -3.28961 0 -72.8383
5249.42 -6.43166 0 -93.3694
5221.19 -5.82275 0 -96.9856
7329.63 0.351777 0 -56.5288
7368.89 0.366292 0 -52.2669
5235.32 -6.09443 0 -95.2326
6274.18 -2.8718 0 -79.0624
7349.31 0.378493 0 -54.4291
6307.76 -3.12365 0 -75.0022
6291 -2.99331 0 -77.0726
5221.19 -5.82275 0 -96.9856
5192.88 -5.41298 0 -100.265
7290.06 0.438236 0 -60.6961
7329.63 0.351777 0 -56.5288
5207.03 -5.60194 0 -98.6547
6240.36 -2.66477 0 -82.8456
7309.88 0.382687 0 -58.6109
6274.18 -2.8718 0 -79.0624
6257.3 -2.7608 0 -80.9808
5192.88 -5.41298 0 -100.265
5164.56 -5.10163 0 -103.351
7250.29 0.500875 0 -64.8026
7290.06 0.438236 0 -60.6961
5178.73 -5.24706 0 -101.828
6206.37 -2.4945 0 -86.4645
7270.19 0.472971 0 -62.7629
6240.36 -2.66477 0 -82.8456
6223.37 -2.57843 0 -84.6719
5164.56 -5.10163 0 -103.351
5136.21 -4.84886 0 -106.304
7210.46 0.582307 0 -68.8344
7250.29 0.500875 0 -64.8026
5150.39 -4.97069 0 -104.84
6172.31 -2.33547 0 -89.9648
7230.38 0.53885 0 -66.8253
6206.37 -2.4945 0 -86.4645
6189.35 -2.41332 0 -88.227
5136.21 -4.84886 0 -106.304
5107.84 -4.62299 0 -109.166
7170.59 0.663922 0 -72.7955
7210.46 0.582307 0 -68.8344
5122.03 -4.73338 0 -107.745
6138.21 -2.18327 0 -93.3785
7190.52 0.623387 0 -70.8247
6172.31 -2.33547 0 -89.9648
6155.26 -2.25937 0 -91.6815
5107.84 -4.62299 0 -109.166
5079.46 -4.41075 0 -111.957
7130.7 0.75074 0 -76.6847
7170.59 0.663922 0 -72.7955
5093.65 -4.51591 0 -110.57
6104.09 -2.03173 0 -96.7179
7150.65 0.706508 0 -74.7486
6138.21 -2.18327 0 -93.3785
6121.15 -2.10738 0 -95.0568
5079.46 -4.41075 0 -111.957
5051.07 -4.20366 0 -114.687
7090.81 0.840823 0 -80.5024
7130.7 0.75074 0 -76.6847
5065.26 -4.30679 0 -113.33
6069.96 -1.87949 0 -99.9908
7110.76 0.795478 0 -78.6026
6104.09 -2.03173 0 -96.7179
6087.03 -1.95588 0 -98.3624
5051.07 -4.20366 0 -114.687
5022.67 -3.9983 0 -117.362
7050.92 0.934206 0 -84.249
7090.81 0.840823 0 -80.5024
5036.87 -4.10093 0 -116.032
6035.83 -1.72539 0 -103.2
7070.87 0.887056 0 -82.3845
6069.96 -1.87949 0 -99.9908
6052.9 -1.80266 0 -101.603
5022.67 -3.9983 0 -117.362
4994.27 -3.7928 0 -119.984
7011.03 1.03089 0 -87.9246
7050.92 0.934206 0 -84.249
5008.47 -3.89561 0 -118.68
6001.69 -1.5692 0 -106.348
7030.98 0.982169 0 -86.0956
6035.83 -1.72539 0 -103.2
6018.76 -1.64759 0 -104.782
4994.27 -3.7928 0 -119.984
4965.86 -3.58651 0 -122.555
6971.14 1.13056 0 -91.5298
7011.03 1.03089 0 -87.9246
4980.07 -3.68978 0 -121.276
5967.55 -1.41085 0 -109.435
6991.09 1.08035 0 -89.736
6001.69 -1.5692 0 -106.348
5984.62 -1.49029 0 -107.899
4965.86 -3.58651 0 -122.555
4937.46 -3.37914 0 -125.075
6931.25 1.23322 0 -95.0649
6971.14 1.13056 0 -91.5298
4951.66 -3.48296 0 -123.821
5933.41 -1.25041 0 -112.462
6951.2 1.18153 0 -93.3061
5967.55 -1.41085 0 -109.435
5950.48 -1.33089 0 -110.956
4937.46 -3.37914 0 -125.075
4909.05 -3.17067 0 -127.545
6891.36 1.33865 0 -98.5303
6931.25 1.23322 0 -95.0649
4923.25 -3.27504 0 -126.316
5899.27 -1.08797 0 -115.429
6911.3 1.2856 0 -96.8063
5933.41 -1.25041 0 -112.462
5916.34 -1.16943 0 -113.953
4909.05 -3.17067 0 -127.545
4880.64 -2.96113 0 -129.965
6851.46 1.44676 0 -101.926
6891.36 1.33865 0 -98.5303
4894.85 -3.06603 0 -128.761
5865.12 -0.923673 0 -118.337
6871.41 1.39238 0 -100.237
5899.27 -1.08797 0 -115.429
5882.19 -1.00605 0 -116.89
4880.64 -2.96113 0 -129.965
4852.23 -2.75059 0 -132.336
6811.57 1.55736 0 -105.254
6851.46 1.44676 0 -101.926
4866.44 -2.85598 0 -131.157
5830.98 -0.757632 0 -121.185
6831.52 1.50176 0 -103.599
5865.12 -0.923673 0 -118.337
5848.05 -0.840862 0 -119.768
4852.23 -2.75059 0 -132.336
4823.82 -2.53915 0 -134.658
6771.68 1.67035 0 -108.513
6811.57 1.55736 0 -105.254
4838.03 -2.64498 0 -133.503
5796.83 -0.589973 0 -123.975
6791.63 1.61357 0 -106.892
5830.98 -0.757632 0 -121.185
5813.91 -0.673997 0 -122.587
4823.82 -2.53915 0 -134.658
4795.41 -2.32689 0 -136.932
6731.79 1.78556 0 -111.703
6771.68 1.67035 0 -108.513
4809.62 -2.43312 0 -135.801
5762.69 -0.420819 0 -126.707
6751.73 1.72769 0 -110.116
5796.83 -0.589973 0 -123.975
5779.76 -0.505575 0 -125.348
4795.41 -2.32689 0 -136.932
4767 -2.11391 0 -139.157
6691.89 1.90287 0 -114.826
6731.79 1.78556 0 -111.703
4781.2 -2.22049 0 -138.051
5728.54 -0.250289 0 -129.381
6711.84 1.84396 0 -113.273
5762.69 -0.420819 0 -126.707
5745.62 -0.335718 0 -128.051
4767 -2.11391 0 -139.157
4738.59 -1.90031 0 -141.335
6652 2.02212 0 -117.882
6691.89 1.90287 0 -114.826
4752.79 -2.00718 0 -140.252
5694.4 -0.0785018 0 -131.997
6671.95 1.96226 0 -116.362
5728.54 -0.250289 0 -129.381
5711.47 -0.164545 0 -130.696
4738.59 -1.90031 0 -141.335
4710.18 -1.68617 0 -143.464
6612.11 2.14319 0 -120.871
6652 2.02212 0 -117.882
4724.38 -1.7933 0 -142.405
5660.26 0.0944258 0 -134.555
6632.06 2.08243 0 -119.385
5694.4 -0.0785018 0 -131.997
5677.33 0.00782671 0 -133.283
4710.18 -1.68617 0 -143.464
4681.76 -1.4716 0 -145.546
6572.22 2.26593 0 -123.793
6612.11 2.14319 0 -120.871
4695.97 -1.57894 0 -144.511
5626.11 0.268379 0 -137.057
6592.17 2.20436 0 -122.34
5660.26 0.0944258 0 -134.555
5643.18 0.181281 0 -135.813
4681.76 -1.4716 0 -145.546
4653.35 -1.25669 0 -147.581
6532.33 2.39023 0 -126.65
6572.22 2.26593 0 -123.793
4667.56 -1.36418 0 -146.57
5591.97 0.443244 0 -139.503
6552.28 2.3279 0 -125.23
5626.11 0.268379 0 -137.057
5609.04 0.355704 0 -138.287
4653.35 -1.25669 0 -147.581
4624.94 -1.04153 0 -149.57
6492.44 2.51594 0 -129.44
6532.33 2.39023 0 -126.65
4639.15 -1.14914 0 -148.581
5557.82 0.618909 0 -141.892
6512.39 2.45292 0 -128.053
5591.97 0.443244 0 -139.503
5574.89 0.530983 0 -140.704
4624.94 -1.04153 0 -149.57
4596.53 -0.826213 0 -151.511
6452.55 2.64295 0 -132.166
6492.44 2.51594 0 -129.44
4610.73 -0.933886 0 -150.546
5523.68 0.795265 0 -144.225
6472.5 2.57929 0 -130.811
5557.82 0.618909 0 -141.892
5540.75 0.707008 0 -143.065
4596.53 -0.826213 0 -151.511
4568.12 -0.610829 0 -153.407
6412.67 2.77111 0 -134.826
6452.55 2.64295 0 -132.166
4582.32 -0.718524 0 -152.465
5489.54 0.972204 0 -146.502
6432.61 2.70689 0 -133.504
5523.68 0.795265 0 -144.225
5506.61 0.883669 0 -145.37
4568.12 -0.610829 0 -153.407
4539.71 -0.395467 0 -155.256
6372.78 2.90032 0 -137.422
6412.67 2.77111 0 -134.826
4553.91 -0.503139 0 -154.337
5455.39 1.14962 0 -148.725
6392.72 2.8356 0 -136.132
5489.54 0.972204 0 -146.502
5472.47 1.06086 0 -147.62
4539.71 -0.395467 0 -155.256
4511.29 -0.180213 0 -157.06
6332.89 3.03045 0 -139.955
6372.78 2.90032 0 -137.422
4525.5 -0.287821 0 -156.163
5421.25 1.32741 0 -150.892
6352.84 2.96528 0 -138.696
5455.39 1.14962 0 -148.725
5438.32 1.23847 0 -149.815
4511.29 -0.180213 0 -157.06
4482.89 0.0348451 0 -158.818
6293.01 3.16138 0 -142.423
6332.89 3.03045 0 -139.955
4497.09 -0.0726545 0 -157.944
5387.11 1.50547 0 -153.005
6312.95 3.09583 0 -141.197
5421.25 1.32741 0 -150.892
5404.18 1.41641 0 -151.955
4482.89 0.0348451 0 -158.818
4454.48 0.249625 0 -160.531
6253.13 3.293 0 -144.828
6293.01 3.16138 0 -142.423
4468.68 0.142275 0 -159.68
5352.98 1.6837 0 -155.064
6273.07 3.22711 0 -143.633
5387.11 1.50547 0 -153.005
5370.04 1.59457 0 -154.041
4454.48 0.249625 0 -160.531
4426.07 0.464044 0 -162.199
6213.25 3.42518 0 -147.171
6253.13 3.293 0 -144.828
4440.27 0.356885 0 -161.37
5318.84 1.862 0 -157.069
6233.19 3.35902 0 -146.007
5352.98 1.6837 0 -155.064
5335.91 1.77285 0 -156.073
4426.07 0.464044 0 -162.199
4397.66 0.678021 0 -163.823
6173.37 3.55782 0 -149.45
6213.25 3.42518 0 -147.171
4411.86 0.571093 0 -163.016
5284.7 2.04028 0 -159.02
6193.31 3.49145 0 -148.318
5318.84 1.862 0 -157.069
5301.77 1.95115 0 -158.051
4397.66 0.678021 0 -163.823
4369.25 0.891478 0 -165.402
6133.49 3.6908 0 -151.668
6173.37 3.55782 0 -149.45
4383.46 0.78482 0 -164.618
5250.57 2.21843 0 -160.918
6153.43 3.62428 0 -150.567
5284.7 2.04028 0 -159.02
5267.63 2.12937 0 -159.976
4369.25 0.891478 0 -165.402
4340.85 1.10434 0 -166.937
6093.62 3.82403 0 -153.825
6133.49 3.6908 0 -151.668
4355.05 0.997987 0 -166.175
5216.43 2.39638 0 -162.764
6113.56 3.75739 0 -152.754
5250.57 2.21843 0 -160.918
5233.5 2.30744 0 -161.848
4340.85 1.10434 0 -166.937
4312.44 1.31652 0 -168.429
6053.75 3.95738 0 -155.92
6093.62 3.82403 0 -153.825
4326.64 1.21052 0 -167.689
5182.3 2.57402 0 -164.557
6073.68 3.89069 0 -154.88
5216.43 2.39638 0 -162.764
5199.37 2.48524 0 -163.667
4312.44 1.31652 0 -168.429
4284.04 1.52796 0 -169.877
6013.88 4.09076 0 -157.954
6053.75 3.95738 0 -155.92
4298.24 1.42234 0 -169.159
5148.17 2.75126 0 -166.298
6033.81 4.02407 0 -156.944
5182.3 2.57402 0 -164.557
5165.23 2.66269 0 -165.434
4284.04 1.52796 0 -169.877
4255.64 1.73857 0 -171.282
5974.01 4.22406 0 -159.928
6013.88 4.09076 0 -157.954
4269.84 1.63337 0 -170.585
5114.04 2.92803 0 -167.987
5993.94 4.15743 0 -158.948
5148.17 2.75126 0 -166.298
5131.1 2.83971 0 -167.149
4255.64 1.73857 0 -171.282
4227.23 1.94829 0 -172.645
5934.15 4.35719 0 -161.842
5974.01 4.22406 0 -159.928
4241.43 1.84355 0 -171.969
5079.91 3.10422 0 -169.624
5954.08 4.29065 0 -160.892
5114.04 2.92803 0 -167.987
5096.98 3.0162 0 -168.812
4227.23 1.94829 0 -172.645
4198.83 2.15705 0 -173.965
5894.28 4.49004 0 -163.696
5934.15 4.35719 0 -161.842
4213.03 2.05279 0 -173.31
5045.79 3.27977 0 -171.211
5914.21 4.42365 0 -162.776
5079.91 3.10422 0 -169.624
5062.85 3.19208 0 -170.424
4198.83 2.15705 0 -173.965
4170.44 2.36477 0 -175.242
5854.42 4.62252 0 -165.491
5894.28 4.49004 0 -163.696
4184.63 2.26104 0 -174.609
5011.67 3.45458 0 -172.747
5874.35 4.55633 0 -164.601
5045.79 3.27977 0 -171.211
5028.73 3.36727 0 -171.985
4170.44 2.36477 0 -175.242
4142.04 2.57139 0 -176.478
5814.57 4.75453 0 -167.227
5854.42 4.62252 0 -165.491
4156.24 2.46822 0 -175.865
4977.55 3.62858 0 -174.233
5834.5 4.68859 0 -166.367
5011.67 3.45458 0 -172.747
4994.61 3.54169 0 -173.496
4142.04 2.57139 0 -176.478
4113.64 2.77685 0 -177.672
5774.71 4.88599 0 -168.905
5814.57 4.75453 0 -167.227
4127.84 2.67427 0 -177.08
4943.43 3.80168 0 -175.668
5794.64 4.82034 0 -168.074
4977.55 3.62858 0 -174.233
4960.49 3.71525 0 -174.957
4113.64 2.77685 0 -177.672
4085.25 2.98108 0 -178.824
5734.86 5.0168 0 -170.525
5774.71 4.88599 0 -168.905
4099.45 2.87912 0 -178.253
4909.31 3.97382 0 -177.054
5754.79 4.95148 0 -169.722
4943.43 3.80168 0 -175.668
4926.37 3.88788 0 -176.367
4085.25 2.98108 0 -178.824
4056.86 3.18401 0 -179.935
5695.01 5.14687 0 -172.088
5734.86 5.0168 0 -170.525
4071.05 3.08271 0 -179.385
4875.2 4.1449 0 -178.391
5714.94 5.08193 0 -171.314
4909.31 3.97382 0 -177.054
4892.25 4.05949 0 -177.729
4056.86 3.18401 0 -179.935
4028.47 3.38559 0 -181.006
5655.17 5.27612 0 -173.593
5695.01 5.14687 0 -172.088
4042.66 3.28498 0 -180.476
4841.09 4.31486 0 -179.678
5675.09 5.2116 0 -172.847
4875.2 4.1449 0 -178.391
4858.14 4.23003 0 -179.041
4028.47 3.38559 0 -181.006
4000.08 3.58576 0 -182.036
5615.33 5.40446 0 -175.041
5655.17 5.27612 0 -173.593
4014.27 3.48586 0 -181.526
4806.98 4.48363 0 -180.917
5635.25 5.3404 0 -174.324
4841.09 4.31486 0 -179.678
4824.03 4.3994 0 -180.304
4000.08 3.58576 0 -182.036
3971.69 3.78445 0 -183.026
5575.49 5.5318 0 -176.433
5615.33 5.40446 0 -175.041
3985.89 3.68529 0 -182.536
4772.87 4.65114 0 -182.108
5595.41 5.46826 0 -175.744
4806.98 4.48363 0 -180.917
4789.92 4.56755 0 -181.519
3971.69 3.78445 0 -183.026
3943.31 3.98161 0 -183.976
5535.66 5.65808 0 -177.769
5575.49 5.5318 0 -176.433
3957.5 3.88322 0 -183.506
4738.77 4.81731 0 -183.251
5555.57 5.59508 0 -177.108
4772.87 4.65114 0 -182.108
4755.82 4.7344 0 -182.685
3943.31 3.98161 0 -183.976
3914.93 4.17718 0 -184.886
5495.82 5.78321 0 -179.05
5535.66 5.65808 0 -177.769
3929.12 4.07959 0 -184.436
4704.67 4.98208 0 -184.346
5515.74 5.72079 0 -178.416
4738.77 4.81731 0 -183.251
4721.72 4.89987 0 -183.804
3914.93 4.17718 0 -184.886
3886.55 4.3711 0 -185.757
5456 5.90711 0 -180.275
5495.82 5.78321 0 -179.05
3900.74 4.27435 0 -185.327
4670.57 5.14538 0 -185.394
5475.91 5.84531 0 -179.669
4704.67 4.98208 0 -184.346
4687.62 5.06392 0 -184.876
3886.55 4.3711 0 -185.757
3858.17 4.56333 0 -186.589
5416.17 6.0297 0 -181.446
5456 5.90711 0 -180.275
3872.36 4.46743 0 -186.178
4636.47 5.30715 0 -186.395
5436.08 5.96857 0 -180.867
4670.57 5.14538 0 -185.394
4653.52 5.22646 0 -185.9
3858.17 4.56333 0 -186.589
3829.79 4.75381 0 -187.382
5376.35 6.15092 0 -182.562
5416.17 6.0297 0 -181.446
3843.98 4.65879 0 -186.99
4602.38 5.46733 0 -187.349
5396.26 6.09049 0 -182.011
4636.47 5.30715 0 -186.395
4619.43 5.38744 0 -186.878
3829.79 4.75381 0 -187.382
3801.42 4.94249 0 -188.137
5336.54 6.27069 0 -183.625
5376.35 6.15092 0 -182.562
3815.6 4.84838 0 -187.764
4568.29 5.62585 0 -188.257
5356.44 6.21099 0 -183.1
4602.38 5.46733 0 -187.349
4585.33 5.5468 0 -187.809
3801.42 4.94249 0 -188.137
3773.05 5.12932 0 -188.853
5296.72 6.38895 0 -184.634
5336.54 6.27069 0 -183.625
3787.23 5.03614 0 -188.5
4534.2 5.78265 0 -189.12
5316.63 6.33001 0 -184.136
4568.29 5.62585 0 -188.257
4551.25 5.70447 0 -188.694
3773.05 5.12932 0 -188.853
3744.68 5.31425 0 -189.531
5256.92 6.50561 0 -185.589
5296.72 6.38895 0 -184.634
3758.86 5.22203 0 -189.197
4500.12 5.93768 0 -189.936
5276.82 6.44748 0 -185.118
4534.2 5.78265 0 -189.12
4517.16 5.86039 0 -189.534
3744.68 5.31425 0 -189.531
3716.31 5.49724 0 -190.172
5217.11 6.62063 0 -186.492
5256.92 6.50561 0 -185.589
3730.49 5.40599 0 -189.856
4466.04 6.09088 0 -190.708
5237.01 6.56333 0 -186.048
4500.12 5.93768 0 -189.936
4483.08 6.01451 0 -190.328
3716.31 5.49724 0 -190.172
3687.95 5.67823 0 -190.776
5177.31 6.73393 0 -187.343
5217.11 6.62063 0 -186.492
3702.13 5.58799 0 -190.479
4431.96 6.24219 0 -191.435
5197.21 6.6775 0 -186.924
4466.04 6.09088 0 -190.708
4449 6.16677 0 -191.077
3687.95 5.67823 0 -190.776
3659.58 5.85719 0 -191.342
5137.52 6.84545 0 -188.142
5177.31 6.73393 0 -187.343
3673.77 5.76797 0 -191.064
4397.89 6.39156 0 -192.117
5157.41 6.78992 0 -187.749
4431.96 6.24219 0 -191.435
4414.93 6.31712 0 -191.782
3659.58 5.85719 0 -191.342
3631.23 6.03407 0 -191.872
5097.72 6.95513 0 -188.889
5137.52 6.84545 0 -188.142
3645.4 5.94589 0 -191.612
4363.82 6.53894 0 -192.756
5117.62 6.90052 0 -188.522
4397.89 6.39156 0 -192.117
4380.86 6.4655 0 -192.442
3631.23 6.03407 0 -191.872
3602.87 6.20882 0 -192.365
5057.94 7.06291 0 -189.586
5097.72 6.95513 0 -188.889
3617.05 6.12171 0 -192.123
4329.75 6.68428 0 -193.35
5077.83 7.00926 0 -189.244
4363.82 6.53894 0 -192.756
4346.79 6.61187 0 -193.058
3602.87 6.20882 0 -192.365
3574.52 6.38142 0 -192.822
5018.15 7.16874 0 -190.231
5057.94 7.06291 0 -189.586
3588.69 6.29539 0 -192.598
4295.69 6.82753 0 -193.901
5038.05 7.11607 0 -189.915
4329.75 6.68428 0 -193.35
4312.72 6.75617 0 -193.631
3574.52 6.38142 0 -192.822
3546.16 6.55181 0 -193.243
4978.38 7.27255 0 -190.827
5018.15 7.16874 0 -190.231
3560.34 6.46689 0 -193.037
4261.63 6.96863 0 -194.409
4998.26 7.2209 0 -190.535
4295.69 6.82753 0 -193.901
4278.66 6.89835 0 -194.161
3546.16 6.55181 0 -193.243
3517.82 6.71995 0 -193.629
4938.6 7.3743 0 -191.372
4978.38 7.27255 0 -190.827
3531.99 6.63616 0 -193.441
4227.58 7.10756 0 -194.874
4958.49 7.32369 0 -191.106
4261.63 6.96863 0 -194.409
4244.6 7.03837 0 -194.647
3517.82 6.71995 0 -193.629
3489.47 6.88582 0 -193.979
4898.83 7.47393 0 -191.868
4938.6 7.3743 0 -191.372
3503.64 6.80318 0 -193.808
4193.52 7.24425 0 -195.297
4918.72 7.42438 0 -191.626
4227.58 7.10756 0 -194.874
4210.55 7.17618 0 -195.091
3489.47 6.88582 0 -193.979
3461.13 7.04938 0 -194.294
4859.07 7.57139 0 -192.315
4898.83 7.47393 0 -191.868
3475.3 6.96789 0 -194.141
4159.47 7.37866 0 -195.678
4878.95 7.52293 0 -192.098
4193.52 7.24425 0 -195.297
4176.5 7.31174 0 -195.493
3461.13 7.04938 0 -194.294
3432.79 7.21058 0 -194.575
4819.31 7.66663 0 -192.713
4859.07 7.57139 0 -192.315
3446.96 7.13028 0 -194.439
4125.43 7.51076 0 -196.017
4839.19 7.61929 0 -192.52
4159.47 7.37866 0 -195.678
4142.45 7.44501 0 -195.853
3432.79 7.21058 0 -194.575
3404.45 7.36941 0 -194.821
4779.55 7.7596 0 -193.063
4819.31 7.66663 0 -192.713
3418.62 7.2903 0 -194.702
4091.39 7.64051 0 -196.315
4799.43 7.7134 0 -192.894
4125.43 7.51076 0 -196.017
4108.41 7.57593 0 -196.171
3404.45 7.36941 0 -194.821
3376.11 7.52581 0 -195.033
4739.8 7.85026 0 -193.365
4779.55 7.7596 0 -193.063
3390.28 7.44791 0 -194.931
4057.35 7.76786 0 -196.572
4759.67 7.80522 0 -193.22
4091.39 7.64051 0 -196.315
4074.37 7.70448 0 -196.448
3376.11 7.52581 0 -195.033
3347.78 7.67977 0 -195.211
4700.05 7.93857 0 -193.62
4739.8 7.85026 0 -193.365
3361.95 7.6031 0 -195.126
4023.32 7.89277 0 -196.788
4719.93 7.89471 0 -193.498
4057.35 7.76786 0 -196.572
4040.33 7.83062 0 -196.685
3347.78 7.67977 0 -195.211
3319.45 7.83125 0 -195.355
4660.31 8.02448 0 -193.827
4700.05 7.93857 0 -193.62
3333.62 7.75582 0 -195.287
3989.29 8.01522 0 -196.964
4680.18 7.98183 0 -193.729
4023.32 7.89277 0 -196.788
4006.3 7.9543 0 -196.881
3319.45 7.83125 0 -195.355
3291.13 7.98022 0 -195.466
4620.58 8.10795 0 -193.988
4660.31 8.02448 0 -193.827
3305.29 7.90605 0 -195.415
3955.26 8.13515 0 -197.099
4640.44 8.06652 0 -193.914
3989.29 8.01522 0 -196.964
3972.27 8.0755 0 -197.036
3291.13 7.98022 0 -195.466
3262.81 8.12666 0 -195.544
4580.84 8.18893 0 -194.103
4620.58 8.10795 0 -193.988
3276.97 8.05376 0 -195.509
3921.24 8.25255 0 -197.196
4600.71 8.14875 0 -194.051
3955.26 8.13515 0 -197.099
3938.25 8.19417 0 -197.152
3262.81 8.12666 0 -195.544
3234.49 8.27053 0 -195.59
4541.12 8.2674 0 -194.172
4580.84 8.18893 0 -194.103
3248.65 8.19892 0 -195.571
3887.22 8.36738 0 -197.253
4560.98 8.22849 0 -194.143
3921.24 8.25255 0 -197.196
3904.23 8.31029 0 -197.229
3234.49 8.27053 0 -195.59
3206.17 8.41182 0 -195.603
4501.4 8.34332 0 -194.195
4541.12 8.2674 0 -194.172
3220.33 8.3415 0 -195.6
3853.2 8.4796 0 -197.271
4521.26 8.30569 0 -194.189
3887.22 8.36738 0 -197.253
3870.21 8.42382 0 -197.266
3206.17 8.41182 0 -195.603
3177.86 8.55049 0 -195.584
4461.68 8.41665 0 -194.174
4501.4 8.34332 0 -194.195
3192.01 8.48148 0 -195.597
3819.19 8.58919 0 -197.25
4481.54 8.38031 0 -194.19
3853.2 8.4796 0 -197.271
3836.2 8.53473 0 -197.265
3177.86 8.55049 0 -195.584
3149.55 8.68653 0 -195.533
4421.97 8.48736 0 -194.107
4461.68 8.41665 0 -194.174
3163.7 8.61884 0 -195.562
3785.19 8.69612 0 -197.191
4441.82 8.45233 0 -194.146
3819.19 8.58919 0 -197.25
3802.19 8.64299 0 -197.225
3149.55 8.68653 0 -195.533
3121.24 8.8199 0 -195.45
4382.26 8.55541 0 -193.997
4421.97 8.48736 0 -194.107
3135.39 8.75355 0 -195.495
3751.19 8.80036 0 -197.094
4402.11 8.52172 0 -194.058
3785.19 8.69612 0 -197.191
3768.19 8.74858 0 -197.147
3121.24 8.8199 0 -195.45
3092.93 8.95059 0 -195.336
4342.56 8.62078 0 -193.843
4382.26 8.55541 0 -193.997
3107.09 8.88558 0 -195.397
3717.19 8.90189 0 -196.96
4362.41 8.58843 0 -193.925
3751.19 8.80036 0 -197.094
3734.19 8.85147 0 -197.032
3092.93 8.95059 0 -195.336
3064.63 9.07859 0 -195.192
4302.86 8.68343 0 -193.645
4342.56 8.62078 0 -193.843
3078.78 9.01493 0 -195.268
3683.19 9.00068 0 -196.789
4322.71 8.65245 0 -193.749
3717.19 8.90189 0 -196.96
3700.19 8.95163 0 -196.879
3064.63 9.07859 0 -195.192
3036.34 9.20386 0 -195.016
4263.17 8.74335 0 -193.404
4302.86 8.68343 0 -193.645
3050.48 9.14156 0 -195.108
3649.2 9.0967 0 -196.58
4283.02 8.71373 0 -193.53
3683.19 9.00068 0 -196.789
3666.2 9.04904 0 -196.689
3036.34 9.20386 0 -195.016
3008.04 9.32639 0 -194.81
4223.49 8.80049 0 -193.121
4263.17 8.74335 0 -193.404
3022.19 9.26546 0 -194.917
3615.22 9.18994 0 -196.336
4243.33 8.77227 0 -193.268
3649.2 9.0967 0 -196.58
3632.21 9.14367 0 -196.462
3008.04 9.32639 0 -194.81
2979.75 9.44616 0 -194.574
4183.8 8.85485 0 -192.795
4223.49 8.80049 0 -193.121
2993.9 9.38662 0 -194.696
3581.24 9.28037 0 -196.055
4203.64 8.82802 0 -192.963
3615.22 9.18994 0 -196.336
3598.23 9.23551 0 -196.2
2979.75 9.44616 0 -194.574
2951.46 9.56315 0 -194.308
4144.13 8.90639 0 -192.428
4183.8 8.85485 0 -192.795
2965.61 9.505 0 -194.445
3547.26 9.36798 0 -195.738
4163.97 8.88097 0 -192.617
3581.24 9.28037 0 -196.055
3564.25 9.32453 0 -195.901
2951.46 9.56315 0 -194.308
2923.18 9.67736 0 -194.013
4104.46 8.9551 0 -192.019
4144.13 8.90639 0 -192.428
2937.32 9.62061 0 -194.164
3513.29 9.45274 0 -195.385
4124.29 8.9311 0 -192.229
3547.26 9.36798 0 -195.738
3530.27 9.41071 0 -195.566
2923.18 9.67736 0 -194.013
2894.9 9.78877 0 -193.688
4064.79 9.00094 0 -191.569
4104.46 8.9551 0 -192.019
2909.04 9.73342 0 -193.854
3479.32 9.53463 0 -194.998
4084.63 8.97838 0 -191.799
3513.29 9.45274 0 -195.385
3496.3 9.49404 0 -195.196
2894.9 9.78877 0 -193.688
2866.62 9.89735 0 -193.334
4025.13 9.04392 0 -191.079
4064.79 9.00094 0 -191.569
2880.76 9.84341 0 -193.515
3445.35 9.61365 0 -194.576
4044.96 9.02279 0 -191.329
3479.32 9.53463 0 -194.998
3462.33 9.5745 0 -194.791
2866.62 9.89735 0 -193.334
2838.34 10.0031 0 -192.952
3985.48 9.08399 0 -190.548
4025.13 9.04392 0 -191.079
2852.48 9.95058 0 -193.147
3411.39 9.68978 0 -194.119
4005.31 9.06432 0 -190.819
3445.35 9.61365 0 -194.576
3428.37 9.65208 0 -194.352
2838.34 10.0031 0 -192.952
2810.07 10.106 0 -192.541
3945.83 9.12116 0 -189.978
3985.48 9.08399 0 -190.548
2824.21 10.0549 0 -192.75
3377.43 9.763 0 -193.628
3965.65 9.10294 0 -190.268
3411.39 9.68978 0 -194.119
3394.41 9.72675 0 -193.878
2810.07 10.106 0 -192.541
2781.8 10.2061 0 -192.102
3906.19 9.15541 0 -189.368
3945.83 9.12116 0 -189.978
2795.94 10.1564 0 -192.325
3343.48 9.83329 0 -193.104
3926.01 9.13865 0 -189.678
3377.43 9.763 0 -193.628
3360.46 9.79851 0 -193.37
2781.8 10.2061 0 -192.102
2753.54 10.3033 0 -191.636
3866.55 9.18671 0 -188.719
3906.19 9.15541 0 -189.368
2767.67 10.255 0 -191.872
3309.54 9.90066 0 -192.546
3886.37 9.17143 0 -189.049
3343.48 9.83329 0 -193.104
3326.51 9.86734 0 -192.829
2753.54 10.3033 0 -191.636
2725.28 10.3976 0 -191.141
3826.92 9.21507 0 -188.032
3866.55 9.18671 0 -188.719
2739.41 10.3508 0 -191.392
3275.59 9.96508 0 -191.955
3846.73 9.20126 0 -188.381
3309.54 9.90066 0 -192.546
3292.56 9.93324 0 -192.255
2725.28 10.3976 0 -191.141
2697.02 10.4891 0 -190.62
3787.29 9.24046 0 -187.307
3826.92 9.21507 0 -188.032
2711.15 10.4437 0 -190.884
3241.65 10.0265 0 -191.331
3807.1 9.22813 0 -187.674
3275.59 9.96508 0 -191.955
3258.62 9.99618 0 -191.647
2697.02 10.4891 0 -190.62
2668.76 10.5776 0 -190.071
3747.67 9.26288 0 -186.543
3787.29 9.24046 0 -187.307
2682.89 10.5337 0 -190.349
3207.72 10.0851 0 -190.675
3767.48 9.25204 0 -186.93
3241.65 10.0265 0 -191.331
3224.69 10.0562 0 -191.007
2668.76 10.5776 0 -190.071
2640.51 10.6633 0 -189.496
3708.05 9.28232 0 -185.742
3747.67 9.26288 0 -186.543
2654.64 10.6208 0 -189.787
3173.79 10.1406 0 -189.987
3727.86 9.27297 0 -186.147
3207.72 10.0851 0 -190.675
3190.75 10.1132 0 -190.335
2640.51 10.6633 0 -189.496
2612.26 10.7461 0 -188.895
3668.44 9.29877 0 -184.905
3708.05 9.28232 0 -185.742
2626.39 10.705 0 -189.199
3139.86 10.1932 0 -189.267
3688.24 9.29092 0 -185.328
3173.79 10.1406 0 -189.987
3156.82 10.1673 0 -189.631
2612.26 10.7461 0 -188.895
2584.02 10.8259 0 -188.267
3628.83 9.31223 0 -184.03
3668.44 9.29877 0 -184.905
2598.14 10.7864 0 -188.584
3105.94 10.2428 0 -188.516
3648.63 9.30587 0 -184.472
3139.86 10.1932 0 -189.267
3122.9 10.2183 0 -188.896
2584.02 10.8259 0 -188.267
2555.78 10.9029 0 -187.614
3589.23 9.32269 0 -183.12
3628.83 9.31223 0 -184.03
2569.9 10.8648 0 -187.943
3072.02 10.2894 0 -187.734
3609.03 9.31783 0 -183.58
3105.94 10.2428 0 -188.516
3088.98 10.2664 0 -188.129
2555.78 10.9029 0 -187.614
2527.54 10.977 0 -186.935
3549.63 9.33014 0 -182.174
3589.23 9.32269 0 -183.12
2541.66 10.9403 0 -187.277
3038.11 10.333 0 -186.921
3569.43 9.32679 0 -182.651
3072.02 10.2894 0 -187.734
3055.07 10.3115 0 -187.331
2527.54 10.977 0 -186.935
2499.3 11.0481 0 -186.23
3510.04 9.3346 0 -181.192
3549.63 9.33014 0 -182.174
2513.42 11.0129 0 -186.586
3004.2 10.3736 0 -186.078
3529.84 9.33275 0 -181.687
3038.11 10.333 0 -186.921
3021.15 10.3537 0 -186.503
2499.3 11.0481 0 -186.23
2471.07 11.1164 0 -185.501
3470.46 9.33604 0 -180.175
3510.04 9.3346 0 -181.192
2485.19 11.0826 0 -185.869
2970.3 10.4112 0 -185.205
3490.25 9.33569 0 -180.688
3004.2 10.3736 0 -186.078
2987.25 10.3928 0 -185.645
2471.07 11.1164 0 -185.501
2442.85 11.1817 0 -184.747
3430.88 9.33448 0 -179.124
3470.46 9.33604 0 -180.175
2456.96 11.1494 0 -185.127
2936.4 10.4459 0 -184.302
3450.67 9.33564 0 -179.654
2970.3 10.4112 0 -185.205
2953.35 10.4289 0 -184.757
2442.85 11.1817 0 -184.747
2414.62 11.2441 0 -183.969
3391.31 9.32992 0 -178.039
3430.88 9.33448 0 -179.124
2428.73 11.2133 0 -184.361
2902.5 10.4776 0 -183.37
3411.09 9.33258 0 -178.586
2936.4 10.4459 0 -184.302
2919.45 10.4621 0 -183.84
2414.62 11.2441 0 -183.969
2386.4 11.3036 0 -183.166
3351.74 9.32235 0 -176.919
3391.31 9.32992 0 -178.039
2400.51 11.2742 0 -183.571
2868.61 10.5062 0 -182.409
3371.52 9.32651 0 -177.483
2902.5 10.4776 0 -183.37
2885.55 10.4923 0 -182.893
2386.4 11.3036 0 -183.166
2358.18 11.3602 0 -182.34
3312.17 9.31179 0 -175.767
3351.74 9.32235 0 -176.919
2372.29 11.3323 0 -182.756
2834.72 10.5319 0 -181.42
3331.95 9.31744 0 -176.347
2868.61 10.5062 0 -182.409
2851.67 10.5194 0 -181.918
2358.18 11.3602 0 -182.34
2329.97 11.414 0 -181.49
3272.62 9.29822 0 -174.581
3312.17 9.31179 0 -175.767
2344.07 11.3875 0 -181.918
2800.84 10.5546 0 -180.402
3292.39 9.30538 0 -175.178
2834.72 10.5319 0 -181.42
2817.78 10.5436 0 -180.914
2329.97 11.414 0 -181.49
2301.75 11.4648 0 -180.617
3233.06 9.28167 0 -173.363
3272.62 9.29822 0 -174.581
2315.86 11.4397 0 -181.057
2766.96 10.5744 0 -179.356
3252.84 9.29032 0 -173.976
2800.84 10.5546 0 -180.402
2783.9 10.5649 0 -179.882
2301.75 11.4648 0 -180.617
2273.55 11.5127 0 -179.721
3193.52 9.26214 0 -172.113
3233.06 9.28167 0 -173.363
2287.65 11.4891 0 -180.172
2733.09 10.5911 0 -178.283
3213.29 9.27228 0 -172.742
2766.96 10.5744 0 -179.356
2750.02 10.5831 0 -178.823
2273.55 11.5127 0 -179.721
2245.34 11.5577 0 -178.803
3153.97 9.23963 0 -170.83
3193.52 9.26214 0 -172.113
2259.44 11.5356 0 -179.265
2699.22 10.6049 0 -177.182
3173.74 9.25126 0 -171.475
2733.09 10.5911 0 -178.283
2716.15 10.5984 0 -177.736
2245.34 11.5577 0 -178.803
2217.14 11.5999 0 -177.862
3114.44 9.21416 0 -169.517
3153.97 9.23963 0 -170.83
2231.24 11.5792 0 -178.335
2665.35 10.6158 0 -176.055
3134.2 9.22727 0 -170.177
2699.22 10.6049 0 -177.182
2682.28 10.6107 0 -176.622
2217.14 11.5999 0 -177.862
2188.94 11.6392 0 -176.899
3074.91 9.18573 0 -168.172
3114.44 9.21416 0 -169.517
2203.04 11.6199 0 -177.383
2631.49 10.6237 0 -174.901
3094.67 9.20031 0 -168.848
2665.35 10.6158 0 -176.055
2648.42 10.6201 0 -175.481
2188.94 11.6392 0 -176.899
2160.75 11.6756 0 -175.914
3035.38 9.15435 0 -166.797
3074.91 9.18573 0 -168.172
2174.84 11.6577 0 -176.409
2597.63 10.6286 0 -173.72
3055.14 9.17041 0 -167.488
2631.49 10.6237 0 -174.901
2614.56 10.6265 0 -174.314
2160.75 11.6756 0 -175.914
2132.56 11.7091 0 -174.907
2995.86 9.12004 0 -165.392
3035.38 9.15435 0 -166.797
2146.65 11.6927 0 -175.413
2563.78 10.6307 0 -172.514
3015.62 9.13756 0 -166.098
2597.63 10.6286 0 -173.72
2580.7 10.63 0 -173.121
2132.56 11.7091 0 -174.907
2104.37 11.7398 0 -173.879
2956.34 9.08281 0 -163.957
2995.86 9.12004 0 -165.392
2118.46 11.7248 0 -174.396
2529.93 10.6298 0 -171.283
2976.1 9.10179 0 -164.678
2563.78 10.6307 0 -172.514
2546.85 10.6306 0 -171.902
2104.37 11.7398 0 -173.879
2076.18 11.7677 0 -172.83
2916.83 9.04268 0 -162.492
2956.34 9.08281 0 -163.957
2090.27 11.7541 0 -173.357
2496.09 10.626 0 -170.026
2936.59 9.06311 0 -163.228
2529.93 10.6298 0 -171.283
2513.01 10.6283 0 -170.658
2076.18 11.7677 0 -172.83
2048 11.7928 0 -171.761
2877.33 8.99965 0 -160.999
2916.83 9.04268 0 -162.492
2062.09 11.7806 0 -172.298
2462.24 10.6193 0 -168.744
2897.08 9.02152 0 -161.749
2496.09 10.626 0 -170.026
2479.16 10.623 0 -169.388
2048 11.7928 0 -171.761
2019.82 11.815 0 -170.671
2837.83 8.95375 0 -159.476
2877.33 8.99965 0 -160.999
2033.91 11.8042 0 -171.219
2428.41 10.6098 0 -167.438
2857.58 8.97706 0 -160.241
2462.24 10.6193 0 -168.744
2445.33 10.6149 0 -168.094
2019.82 11.815 0 -170.671
1991.65 11.8344 0 -169.561
2798.33 8.90498 0 -157.926
2837.83 8.95375 0 -159.476
2005.73 11.825 0 -170.119
2394.58 10.5974 0 -166.108
2818.08 8.92972 0 -158.705
2428.41 10.6098 0 -167.438
2411.49 10.6039 0 -166.776
1991.65 11.8344 0 -169.561
1963.47 11.851 0 -168.431
2758.84 8.85338 0 -156.348
2798.33 8.90498 0 -157.926
1977.56 11.8431 0 -168.999
2360.75 10.5821 0 -164.754
2778.59 8.87953 0 -157.14
2394.58 10.5974 0 -166.108
2377.66 10.5901 0 -165.434
1963.47 11.851 0 -168.431
1935.3 11.8649 0 -167.282
2719.36 8.79895 0 -154.742
2758.84 8.85338 0 -156.348
1949.39 11.8583 0 -167.859
2326.92 10.564 0 -163.376
2739.1 8.82652 0 -155.548
2360.75 10.5821 0 -164.754
2343.84 10.5734 0 -164.068
1935.3 11.8649 0 -167.282
1907.14 11.876 0 -166.113
2679.88 8.74172 0 -153.11
2719.36 8.79895 0 -154.742
1921.22 11.8708 0 -166.7
2293.1 10.5431 0 -161.975
2699.62 8.77069 0 -153.929
2326.92 10.564 0 -163.376
2310.01 10.5539 0 -162.679
1907.14 11.876 0 -166.113
1878.98 11.8843 0 -164.926
2640.4 8.68171 0 -151.45
2679.88 8.74172 0 -153.11
1893.06 11.8805 0 -165.522
2259.29 10.5194 0 -160.552
2660.14 8.71206 0 -152.283
2293.1 10.5431 0 -161.975
2276.2 10.5316 0 -161.266
1878.98 11.8843 0 -164.926
1850.82 11.8899 0 -163.719
2600.94 8.61894 0 -149.765
2640.4 8.68171 0 -151.45
1864.89 11.8875 0 -164.325
2225.48 10.4929 0 -159.106
2620.67 8.65067 0 -150.611
2259.29 10.5194 0 -160.552
2242.38 10.5065 0 -159.832
1850.82 11.8899 0 -163.719
1822.66 11.8928 0 -162.494
2561.47 8.55342 0 -148.054
2600.94 8.61894 0 -149.765
1836.74 11.8917 0 -163.109
2191.67 10.4637 0 -157.638
2581.2 8.58652 0 -148.913
2225.48 10.4929 0 -159.106
2208.57 10.4786 0 -158.374
1822.66 11.8928 0 -162.494
1794.5 11.893 0 -161.251
2522.01 8.4852 0 -146.317
2561.47 8.55342 0 -148.054
1808.58 11.8933 0 -161.875
2157.86 10.4317 0 -156.148
2541.74 8.51965 0 -147.189
2191.67 10.4637 0 -157.638
2174.77 10.448 0 -156.895
1794.5 11.893 0 -161.251
1766.35 11.8905 0 -159.991
2482.56 8.41428 0 -144.555
2522.01 8.4852 0 -146.317
1780.43 11.8921 0 -160.623
2124.06 10.397 0 -154.636
2502.28 8.45007 0 -145.439
2157.86 10.4317 0 -156.148
2140.96 10.4147 0 -155.395
1766.35 11.8905 0 -159.991
1738.21 11.8854 0 -158.712
2443.11 8.34069 0 -142.769
2482.56 8.41428 0 -144.555
1752.28 11.8883 0 -159.354
2090.27 10.3596 0 -153.104
2462.83 8.37782 0 -143.665
2124.06 10.397 0 -154.636
2107.17 10.3786 0 -153.873
1738.21 11.8854 0 -158.712
1710.06 11.8776 0 -157.417
2403.66 8.26446 0 -140.958
2443.11 8.34069 0 -142.769
1724.13 11.8818 0 -158.067
2056.48 10.3195 0 -151.551
2423.38 8.3029 0 -141.867
2090.27 10.3596 0 -153.104
2073.37 10.3399 0 -152.33
1710.06 11.8776 0 -157.417
1681.92 11.8671 0 -156.104
2364.22 8.18562 0 -139.124
2403.66 8.26446 0 -140.958
1695.99 11.8727 0 -156.763
2022.69 10.2768 0 -149.977
2383.94 8.22537 0 -140.044
2056.48 10.3195 0 -151.551
2039.58 10.2985 0 -150.766
1681.92 11.8671 0 -156.104
1653.78 11.8541 0 -154.775
2324.79 8.10419 0 -137.266
2364.22 8.18562 0 -139.124
1667.85 11.8609 0 -155.442
1988.9 10.2314 0 -148.383
2344.5 8.14523 0 -138.198
2022.69 10.2768 0 -149.977
2005.8 10.2544 0 -149.183
1653.78 11.8541 0 -154.775
1625.65 11.8385 0 -153.429
2285.36 8.0202 0 -135.385
2324.79 8.10419 0 -137.266
1639.71 11.8466 0 -154.104
1955.12 10.1834 0 -146.77
2305.07 8.06251 0 -136.328
1988.9 10.2314 0 -148.383
1972.01 10.2077 0 -147.579
1625.65 11.8385 0 -153.429
1597.51 11.8203 0 -152.067
2245.93 7.93368 0 -133.481
2285.36 8.0202 0 -135.385
1611.58 11.8297 0 -152.75
1921.35 10.1329 0 -145.137
2265.64 7.97725 0 -134.436
1955.12 10.1834 0 -146.77
1938.23 10.1585 0 -145.956
1597.51 11.8203 0 -152.067
1569.38 11.7995 0 -150.689
2206.51 7.84466 0 -131.556
2245.93 7.93368 0 -133.481
1583.45 11.8102 0 -151.38
1887.57 10.0798 0 -143.485
2226.22 7.88948 0 -132.521
1921.35 10.1329 0 -145.137
1904.46 10.1067 0 -144.313
1569.38 11.7995 0 -150.689
1541.26 11.7762 0 -149.296
2167.09 7.75316 0 -129.608
2206.51 7.84466 0 -131.556
1555.32 11.7882 0 -149.994
1853.8 10.0241 0 -141.814
2186.8 7.79922 0 -130.584
1887.57 10.0798 0 -143.485
1870.69 10.0523 0 -142.652
1541.26 11.7762 0 -149.296
1513.13 11.7505 0 -147.887
2127.68 7.65923 0 -127.639
2167.09 7.75316 0 -129.608
1527.19 11.7637 0 -148.593
1820.04 9.966 0 -140.125
2147.39 7.7065 0 -128.626
1853.8 10.0241 0 -141.814
1836.92 9.99538 0 -140.972
1513.13 11.7505 0 -147.887
1485.01 11.7222 0 -146.463
2088.28 7.56289 0 -125.648
2127.68 7.65923 0 -127.639
1499.07 11.7366 0 -147.177
1786.28 9.90539 0 -138.418
2107.98 7.61136 0 -126.646
1820.04 9.966 0 -140.125
1803.16 9.936 0 -139.274
1485.01 11.7222 0 -146.463
1456.89 11.6915 0 -145.025
2048.87 7.46417 0 -123.637
2088.28 7.56289 0 -125.648
1470.95 11.7071 0 -145.746
1752.52 9.84232 0 -136.693
2068.57 7.51382 0 -124.646
1786.28 9.90539 0 -138.418
1769.4 9.87416 0 -137.558
1456.89 11.6915 0 -145.025
1428.77 11.6583 0 -143.572
2009.48 7.36311 0 -121.606
2048.87 7.46417 0 -123.637
1442.83 11.6752 0 -144.3
1718.76 9.77683 0 -134.951
2029.17 7.41393 0 -122.624
1752.52 9.84232 0 -136.693
1735.64 9.80988 0 -135.824
1428.77 11.6583 0 -143.572
1400.66 11.6228 0 -142.105
1970.08 7.25974 0 -119.555
2009.48 7.36311 0 -121.606
1414.72 11.6408 0 -142.84
1685.01 9.70896 0 -133.192
1989.78 7.31171 0 -120.583
1718.76 9.77683 0 -134.951
1701.89 9.74319 0 -134.073
1400.66 11.6228 0 -142.105
1372.55 11.5848 0 -140.624
1930.69 7.1541 0 -117.485
1970.08 7.25974 0 -119.555
1386.61 11.6041 0 -141.366
1651.26 9.63872 0 -131.416
1950.39 7.2072 0 -118.522
1685.01 9.70896 0 -133.192
1668.14 9.67413 0 -132.306
1372.55 11.5848 0 -140.624
1344.44 11.5445 0 -139.129
1891.31 7.04621 0 -115.395
1930.69 7.1541 0 -117.485
1358.5 11.565 0 -139.878
1617.52 9.56615 0 -129.623
1911 7.10043 0 -116.442
1651.26 9.63872 0 -131.416
1634.39 9.60272 0 -130.522
1344.44 11.5445 0 -139.129
1316.34 11.5019 0 -137.621
1851.93 6.93613 0 -113.286
1891.31 7.04621 0 -115.395
1330.39 11.5235 0 -138.377
1583.78 9.49128 0 -127.815
1871.62 6.99144 0 -114.343
1617.52 9.56615 0 -129.623
1600.65 9.529 0 -128.721
1316.34 11.5019 0 -137.621
1288.23 11.4569 0 -136.1
1812.55 6.82387 0 -111.16
1851.93 6.93613 0 -113.286
1302.29 11.4797 0 -136.862
1550.04 9.41414 0 -125.991
1832.24 6.88027 0 -112.225
1583.78 9.49128 0 -127.815
1566.91 9.45299 0 -126.905
1288.23 11.4569 0 -136.1
1260.13 11.4097 0 -134.566
1773.18 6.70949 0 -109.015
1812.55 6.82387 0 -111.16
1274.18 11.4336 0 -135.335
1516.31 9.33476 0 -124.152
1792.87 6.76694 0 -110.09
1550.04 9.41414 0 -125.991
1533.17 9.37473 0 -125.073
1260.13 11.4097 0 -134.566
1232.04 11.3602 0 -133.02
1733.81 6.59301 0 -106.853
1773.18 6.70949 0 -109.015
1246.08 11.3852 0 -133.795
1482.58 9.25318 0 -122.297
1753.5 6.65151 0 -107.936
1516.31 9.33476 0 -124.152
1499.44 9.29424 0 -123.226
1232.04 11.3602 0 -133.02
1203.94 11.3085 0 -131.461
1694.45 6.47448 0 -104.673
1733.81 6.59301 0 -106.853
1217.99 11.3346 0 -132.242
1448.85 9.16942 0 -120.428
1714.13 6.534 0 -105.765
1482.58 9.25318 0 -122.297
1465.71 9.21157 0 -121.365
1203.94 11.3085 0 -131.461
1175.85 11.2546 0 -129.891
1655.09 6.35393 0 -102.477
1694.45 6.47448 0 -104.673
1189.89 11.2818 0 -130.678
1415.12 9.08352 0 -118.545
1674.77 6.41445 0 -103.578
1448.85 9.16942 0 -120.428
1431.99 9.12674 0 -119.488
1175.85 11.2546 0 -129.891
1147.76 11.1985 0 -128.309
1615.74 6.2314 0 -100.265
1655.09 6.35393 0 -102.477
1161.8 11.2268 0 -129.101
1381.4 8.99552 0 -116.648
1635.41 6.29291 0 -101.373
1415.12 9.08352 0 -118.545
1398.26 9.03978 0 -117.598
1147.76 11.1985 0 -128.309
1119.67 11.1403 0 -126.715
1576.39 6.10694 0 -98.0367
1615.74 6.2314 0 -100.265
1133.71 11.1697 0 -127.513
1347.69 8.90545 0 -114.737
1596.06 6.16941 0 -99.1528
1381.4 8.99552 0 -116.648
1364.54 8.95074 0 -115.694
1119.67 11.1403 0 -126.715
1091.58 11.0799 0 -125.111
1537.04 5.98058 0 -95.7927
1576.39 6.10694 0 -98.0367
1105.63 11.1104 0 -125.914
1313.97 8.81333 0 -112.812
1556.71 6.044 0 -96.9166
1347.69 8.90545 0 -114.737
1330.83 8.85964 0 -113.776
1091.58 11.0799 0 -125.111
1063.5 11.0175 0 -123.495
1497.7 5.85237 0 -93.5337
1537.04 5.98058 0 -95.7927
1077.54 11.049 0 -124.304
1280.26 8.71922 0 -110.875
1517.37 5.9167 0 -94.6651
1313.97 8.81333 0 -112.812
1297.11 8.76653 0 -111.845
1063.5 11.0175 0 -123.495
1035.42 10.953 0 -121.869
1458.36 5.72234 0 -91.2598
1497.7 5.85237 0 -93.5337
1049.46 10.9855 0 -122.684
1246.55 8.62314 0 -108.925
1478.03 5.78758 0 -92.3986
1280.26 8.71922 0 -110.875
1263.4 8.67142 0 -109.901
1035.42 10.953 0 -121.869
1007.34 10.8865 0 -120.233
1419.02 5.59054 0 -88.9716
1458.36 5.72234 0 -91.2598
1021.38 10.92 0 -121.053
1212.84 8.52513 0 -106.963
1438.69 5.65666 0 -90.1175
1246.55 8.62314 0 -108.925
1229.7 8.57437 0 -107.945
1007.34 10.8865 0 -120.233
979.264 10.818 0 -118.587
1379.69 5.45701 0 -86.6694
1419.02 5.59054 0 -88.9716
993.302 10.8525 0 -119.411
1179.14 8.42522 0 -104.988
1399.35 5.52399 0 -87.8222
1212.84 8.52513 0 -106.963
1195.99 8.47541 0 -105.977
979.264 10.818 0 -118.587
951.19 10.7475 0 -116.931
1340.36 5.32179 0 -84.3536
1379.69 5.45701 0 -86.6694
965.227 10.783 0 -117.761
1145.44 8.32346 0 -103.002
1360.02 5.38961 0 -85.5132
1179.14 8.42522 0 -104.988
1162.29 8.37457 0 -103.997
951.19 10.7475 0 -116.931
923.118 10.6751 0 -115.266
1301.04 5.18493 0 -82.0246
1340.36 5.32179 0 -84.3536
937.153 10.7116 0 -116.1
1111.75 8.21987 0 -101.005
1320.7 5.25356 0 -83.1907
1145.44 8.32346 0 -103.002
1128.59 8.27189 0 -102.005
923.118 10.6751 0 -115.266
895.047 10.6008 0 -113.592
1261.72 5.04646 0 -79.6828
1301.04 5.18493 0 -82.0246
909.082 10.6382 0 -114.43
1078.05 8.1145 0 -98.9969
1281.38 5.11589 0 -80.8552
1111.75 8.21987 0 -101.005
1094.9 8.16741 0 -100.002
895.047 10.6008 0 -113.592
866.979 10.5246 0 -111.909
1222.4 4.90644 0 -77.3285
1261.72 5.04646 0 -79.6828
881.013 10.563 0 -112.751
1044.36 8.00739 0 -96.9781
1242.06 4.97665 0 -78.5072
1078.05 8.1145 0 -98.9969
1061.21 8.06116 0 -97.9888
866.979 10.5246 0 -111.909
838.913 10.4466 0 -110.217
1183.09 4.76491 0 -74.9623
1222.4 4.90644 0 -77.3285
852.946 10.4858 0 -111.064
1010.67 7.89856 0 -94.949
1202.74 4.83587 0 -76.1469
1044.36 8.00739 0 -96.9781
1027.52 7.95319 0 -95.9648
838.913 10.4466 0 -110.217
810.849 10.3668 0 -108.517
1143.78 4.62192 0 -72.5844
1183.09 4.76491 0 -74.9623
824.881 10.4069 0 -109.368
976.986 7.78807 0 -92.91
1163.43 4.6936 0 -73.7747
1010.67 7.89856 0 -94.949
993.829 7.84352 0 -93.9307
810.849 10.3668 0 -108.517
782.787 10.2851 0 -106.809
1104.47 4.4775 0 -70.1952
1143.78 4.62192 0 -72.5844
796.818 10.3262 0 -107.664
943.303 7.67595 0 -90.8613
1124.12 4.54988 0 -71.3912
976.986 7.78807 0 -92.91
960.144 7.73221 0 -91.8868
782.787 10.2851 0 -106.809
754.726 10.2018 0 -105.094
1065.17 4.3317 0 -67.7952
1104.47 4.4775 0 -70.1952
768.756 10.2437 0 -105.952
909.622 7.56223 0 -88.8034
1084.82 4.40477 0 -68.9966
943.303 7.67595 0 -90.8613
926.462 7.61929 0 -89.8335
754.726 10.2018 0 -105.094
726.668 10.1167 0 -103.37
1025.87 4.18458 0 -65.3848
1065.17 4.3317 0 -67.7952
740.697 10.1594 0 -104.233
875.944 7.44697 0 -86.7366
1045.52 4.2583 0 -66.5913
909.622 7.56223 0 -88.8034
892.783 7.50479 0 -87.7711
726.668 10.1167 0 -103.37
698.611 10.0299 0 -101.64
986.568 4.03617 0 -62.9643
1025.87 4.18458 0 -65.3848
712.639 10.0735 0 -102.506
842.268 7.33019 0 -84.6612
1006.22 4.11053 0 -64.1758
875.944 7.44697 0 -86.7366
859.105 7.38876 0 -85.6999
698.611 10.0299 0 -101.64
670.556 9.94147 0 -99.9034
947.274 3.88653 0 -60.5341
986.568 4.03617 0 -62.9643
684.584 9.98589 0 -100.773
808.594 7.21194 0 -82.5775
966.921 3.9615 0 -61.7504
842.268 7.33019 0 -84.6612
825.431 7.27124 0 -83.6203
670.556 9.94147 0 -99.9034
642.503 9.85142 0 -98.1599
907.983 3.7357 0 -58.0946
947.274 3.88653 0 -60.5341
656.529 9.89665 0 -99.0325
774.923 7.09225 0 -80.486
927.628 3.81126 0 -59.3155
808.594 7.21194 0 -82.5775
791.758 7.15227 0 -81.5327
642.503 9.85142 0 -98.1599
614.451 9.75979 0 -96.4103
868.695 3.58373 0 -55.6461
907.983 3.7357 0 -58.0946
628.477 9.8058 0 -97.2859
741.254 6.97118 0 -78.3869
888.339 3.65985 0 -56.8714
774.923 7.09225 0 -80.486
758.088 7.03189 0 -79.4373
614.451 9.75979 0 -96.4103
586.401 9.66661 0 -94.6547
829.409 3.43067 0 -53.1892
868.695 3.58373 0 -55.6461
600.426 9.71339 0 -95.5332
707.586 6.84876 0 -76.2806
849.051 3.50733 0 -54.4187
741.254 6.97118 0 -78.3869
724.42 6.91014 0 -77.3346
586.401 9.66661 0 -94.6547
558.352 9.57196 0 -92.8934
790.125 3.27656 0 -50.724
829.409 3.43067 0 -53.1892
572.376 9.61947 0 -93.7747
673.921 6.72503 0 -74.1675
809.766 3.35374 0 -51.9576
707.586 6.84876 0 -76.2806
690.753 6.78705 0 -75.2249
558.352 9.57196 0 -92.8934
530.306 9.47591 0 -91.1267
750.843 3.12149 0 -48.2511
790.125 3.27656 0 -50.724
544.329 9.5241 0 -92.0107
640.257 6.60005 0 -72.0479
770.483 3.19914 0 -49.4885
673.921 6.72503 0 -74.1675
657.089 6.66269 0 -73.1085
530.306 9.47591 0 -91.1267
502.261 9.37862 0 -89.3546
711.562 2.96547 0 -45.7708
750.843 3.12149 0 -48.2511
516.283 9.4274 0 -90.2413
606.595 6.47387 0 -69.922
731.202 3.0436 0 -47.0119
640.257 6.60005 0 -72.0479
623.426 6.5371 0 -70.9857
502.261 9.37862 0 -89.3546
474.218 9.28043 0 -87.5769
672.283 2.80859 0 -43.2835
711.562 2.96547 0 -45.7708
488.239 9.3296 0 -88.4665
572.936 6.34657 0 -67.79
691.922 2.88712 0 -44.528
606.595 6.47387 0 -69.922
589.765 6.41036 0 -68.8568
474.218 9.28043 0 -87.5769
446.179 9.18193 0 -85.793
633.005 2.65097 0 -40.7896
672.283 2.80859 0 -43.2835
460.198 9.23116 0 -86.6858
539.279 6.21835 0 -65.6519
652.644 2.72991 0 -42.0373
572.936 6.34657 0 -67.79
556.107 6.28255 0 -66.7217
446.179 9.18193 0 -85.793
418.144 9.08444 0 -84.001
593.728 2.49237 0 -38.2895
633.005 2.65097 0 -40.7896
432.161 9.13292 0 -84.8982
505.626 6.08933 0 -63.5066
613.366 2.57168 0 -39.5404
539.279 6.21835 0 -65.6519
522.452 6.15394 0 -64.5802
418.144 9.08444 0 -84.001
390.117 8.99028 0 -82.1973
554.457 2.33383 0 -35.7843
593.728 2.49237 0 -38.2895
404.13 9.03674 0 -83.1009
471.983 5.96034 0 -61.3527
574.092 2.4134 0 -37.0372
505.626 6.08933 0 -63.5066
488.803 6.02474 0 -62.4309
390.117 8.99028 0 -82.1973
362.103 8.90454 0 -80.3732
515.194 2.17242 0 -33.2739
554.457 2.33383 0 -35.7843
376.108 8.94586 0 -81.2886
438.356 5.83174 0 -59.1848
534.824 2.2528 0 -34.5302
471.983 5.96034 0 -61.3527
455.167 5.89604 0 -60.2709
362.103 8.90454 0 -80.3732
334.105 8.8349 0 -78.5151
475.963 2.01545 0 -30.7629
515.194 2.17242 0 -33.2739
348.102 8.86699 0 -79.4496
404.764 5.70671 0 -56.9951
495.573 2.09527 0 -32.0171
438.356 5.83174 0 -59.1848
421.553 5.76839 0 -58.0937
334.105 8.8349 0 -78.5151
306.142 8.79922 0 -76.5914
436.782 1.84318 0 -28.2489
475.963 2.01545 0 -30.7629
320.117 8.8114 0 -77.5644
371.232 5.5863 0 -54.763
456.365 1.92722 0 -29.5086
404.764 5.70671 0 -56.9951
387.99 5.64631 0 -55.8856
306.142 8.79922 0 -76.5914
278.207 8.8169 0 -74.5584
397.764 1.69914 0 -25.7517
436.782 1.84318 0 -28.2489
292.174 8.79899 0 -75.5922
337.832 5.48104 0 -52.458
417.244 1.77818 0 -26.9921
371.232 5.5863 0 -54.763
354.507 5.52994 0 -53.624
278.207 8.8169 0 -74.5584
250.353 8.94448 0 -72.3175
358.966 1.47234 0 -23.255
397.764 1.69914 0 -25.7517
264.261 8.86448 0 -73.473
304.638 5.3945 0 -50.0139
378.33 1.57394 0 -24.5142
337.832 5.48104 0 -52.458
321.209 5.43818 0 -51.2557
250.353 8.94448 0 -72.3175
222.491 9.20346 0 -69.7627
320.854 1.39479 0 -20.8421
358.966 1.47234 0 -23.255
236.44 9.04963 0 -71.0876
271.882 5.35558 0 -47.3309
339.792 1.47043 0 -22.0119
304.638 5.3945 0 -50.0139
288.174 5.36007 0 -48.7204
222.491 9.20346 0 -69.7627
194.754 9.75743 0 -66.6434
283.571 0.900647 0 -18.4326
320.854 1.39479 0 -20.8421
208.578 9.44803 0 -68.2957
239.716 5.37998 0 -44.2394
302.082 1.08334 0 -19.6885
271.882 5.35558 0 -47.3309
255.742 5.37595 0 -45.8317
194.754 9.75743 0 -66.6434
166.582 10.4605 0 -62.838
248.78 1.12771 0 -16.3362
283.571 0.900647 0 -18.4326
180.806 10.063 0 -64.8346
208.826 5.52756 0 -40.4516
265.779 1.20387 0 -17.2292
239.716 5.37998 0 -44.2394
223.998 5.39577 0 -42.5054
166.582 10.4605 0 -62.838
138.193 11.7242 0 -57.9644
216.706 -0.608358 0 -14.2279
248.78 1.12771 0 -16.3362
152.336 11.1002 0 -60.5569
179.114 5.87005 0 -35.718
232.256 -0.0788261 0 -15.5314
208.826 5.52756 0 -40.4516
193.968 5.75412 0 -38.1284
138.193 11.7242 0 -57.9644
106.871 12.0151 0 -52.7247
192.525 0.944154 0 -13.0774
216.706 -0.608358 0 -14.2279
123.25 11.9104 0 -55.3341
152.295 6.45446 0 -29.3861
203.576 1.10467 0 -13.0116
179.114 5.87005 0 -35.718
164.936 5.95135 0 -33.0255
106.871 12.0151 0 -52.7247
72.6096 11.5357 0 -48.3943
177.44 -5.61166 0 -10.9916
192.525 0.944154 0 -13.0774
89.9496 12.4962 0 -50.1997
124.548 7.44111 0 -22.5274
182.766 -4.22188 0 -13.504
152.295 6.45446 0 -29.3861
139.497 7.23125 0 -25.4772
72.6096 11.5357 0 -48.3943
26.9452 -1.95655 0 -53.9045
193.081 5.45054 0 -6.47181
177.44 -5.61166 0 -10.9916
52.2276 6.72231 0 -49.1302
93.949 6.17044 0 -17.3754
181.779 3.88989 0 -7.50332
124.548 7.44111 0 -22.5274
108.798 6.96165 0 -20.3003
26.9452 -1.95655 0 -53.9045
-13.3885 -56.0239 0 -83.5479
274.271 22.1729 0 28.9776
193.081 5.45054 0 -6.47181
4.65722 -15.8327 0 -63.5481
11.7774 -30.9141 0 -48.669
214.815 -8.96517 0 -2.45487
93.949 6.17044 0 -17.3754
67.4015 -0.168228 0 -22.4558
-13.3885 -56.0239 0 -83.5479
-3.31333 -273.201 0 -100.362
29.117 -332.785 0 -244.945
274.271 22.1729 0 28.9776
-21.3022 -143.343 0 -103.833
-40.9343 -341.858 0 -152.752
286.876 64.0585 0 6.88503
11.7774 -30.9141 0 -48.669
-30.6496 -110.963 0 -92.1814
      </DataArray> 
      <DataArray type="Float64" NumberOfComponents="4" Name="GreenStrain" format="ascii">
-0.00519925 -1.11022e-16 0.00222825 -0.00176914
-0.00370681 0.00117501 0.00108506 6.85818e-05
-0.00266532 0.00052874 0.000915678 -0.000196853
-0.00236659 0 0.00101425 -0.000133448
-0.00412329 0.00131122 0.00120517 -0.000248144
-0.00336912 0.00081914 0.00109285 -0.000255389
-0.00253449 0.00025009 0.000979028 -0.000228583
-0.00277966 0 0.00119128 -0.000428834
-0.00325029 0.000554787 0.00115522 -0.000401367
-0.00370681 0.00117501 0.00108506 6.85818e-05
-0.00366559 0.0011356 0.00108428 2.09226e-05
-0.00276883 0.000748635 0.000865797 -9.31921e-05
-0.00266532 0.00052874 0.000915678 -0.000196853
-0.00365377 0.00108403 0.00110132 2.96546e-05
-0.00329379 0.000959512 0.0010004 -4.19979e-05
-0.00274737 0.000684235 0.0008842 -0.000141579
-0.00336912 0.00081914 0.00109285 -0.000255389
-0.00332183 0.000927381 0.00102619 -0.00010262
-0.00366559 0.0011356 0.00108428 2.09226e-05
-0.00371824 0.00110355 0.00112058 9.7334e-06
-0.00275515 0.000809791 0.000833726 -3.44221e-05
-0.00276883 0.000748635 0.000865797 -9.31921e-05
-0.00370089 0.00113342 0.00110035 2.12697e-05
-0.00325956 0.000975912 0.000978707 -3.99435e-06
-0.002761 0.000786702 0.000846128 -5.45192e-05
-0.00329379 0.000959512 0.0010004 -4.19979e-05
-0.00327602 0.000971326 0.000987726 -2.02113e-05
-0.00371824 0.00110355 0.00112058 9.7334e-06
-0.00373966 0.00112528 0.00112045 -1.18096e-06
-0.00273566 0.00081781 0.000821937 -2.1673e-05
-0.00275515 0.000809791 0.000833726 -3.44221e-05
-0.00372778 0.00110739 0.00112302 -2.02677e-06
-0.00324077 0.000973687 0.000971606 1.26676e-06
-0.00274785 0.000817753 0.000827184 -2.58033e-05
-0.00325956 0.000975912 0.000978707 -3.99435e-06
-0.00324696 0.000975756 0.000973375 3.09864e-06
-0.00373966 0.00112528 0.00112045 -1.18096e-06
-0.00375049 0.00112118 0.00112685 7.55518e-07
-0.00271323 0.00081619 0.000813018 -2.13623e-05
-0.00273566 0.00081781 0.000821937 -2.1673e-05
-0.0037489 0.00112702 0.00112366 1.8745e-06
-0.00323135 0.000970479 0.000968946 -4.63628e-06
-0.00272274 0.000817244 0.000816642 -2.02216e-05
-0.00324077 0.000973687 0.000971606 1.26676e-06
-0.00323691 0.000971999 0.000970678 -2.53679e-06
-0.00375049 0.00112118 0.00112685 7.55518e-07
-0.00374618 0.00112437 0.00112363 -7.05462e-07
-0.0026962 0.000810064 0.000808344 -2.60044e-05
-0.00271323 0.00081619 0.000813018 -2.13623e-05
-0.0037483 0.0011216 0.00112573 -1.20286e-06
-0.00321956 0.000966201 0.000965725 -9.97202e-06
-0.00270507 0.0008135 0.000810673 -2.38162e-05
-0.00323135 0.000970479 0.000968946 -4.63628e-06
-0.0032252 0.000968489 0.000967161 -7.01549e-06
-0.00374618 0.00112437 0.00112363 -7.05462e-07
-0.00373683 0.00112016 0.00112143 3.97365e-08
-0.0026797 0.000804144 0.000803811 -2.98383e-05
-0.0026962 0.000810064 0.000808344 -2.60044e-05
-0.0037428 0.00112324 0.00112267 2.17058e-07
-0.00320698 0.000961623 0.000962297 -1.41409e-05
-0.00268746 0.000806978 0.000805922 -2.79321e-05
-0.00321956 0.000966201 0.000965725 -9.97202e-06
-0.00321372 0.000963917 0.000964203 -1.24591e-05
-0.00373683 0.00112016 0.00112143 3.97365e-08
-0.0037218 0.00111666 0.00111649 -2.27258e-07
-0.00266487 0.000798415 0.000799909 -3.29283e-05
-0.0026797 0.000804144 0.000803811 -2.98383e-05
-0.00372944 0.00111821 0.0011191 -3.8165e-07
-0.00319242 0.000956811 0.00095812 -1.68057e-05
-0.00267236 0.000801258 0.000801901 -3.15917e-05
-0.00320698 0.000961623 0.000962297 -1.41409e-05
-0.00319975 0.000959249 0.000960214 -1.55686e-05
-0.0037218 0.00111666 0.00111649 -2.27258e-07
-0.00370484 0.0011113 0.00111152 -2.51905e-08
-0.0026502 0.00079325 0.000795836 -3.47833e-05
-0.00266487 0.000798415 0.000799909 -3.29283e-05
-0.00371368 0.00111421 0.00111406 9.90428e-09
-0.00317701 0.000951854 0.000953639 -1.83724e-05
-0.00265742 0.000795761 0.000797854 -3.39492e-05
-0.00319242 0.000956811 0.00095812 -1.68057e-05
-0.00318489 0.000954342 0.000955949 -1.77304e-05
-0.00370484 0.0011113 0.00111152 -2.51905e-08
-0.0036862 0.00110591 0.00110584 -6.2755e-08
-0.00263592 0.000788432 0.000791781 -3.59378e-05
-0.0026502 0.00079325 0.000795836 -3.47833e-05
-0.00369558 0.00110858 0.00110871 -1.10225e-07
-0.0031608 0.000946838 0.00094884 -1.92626e-05
-0.00264308 0.000790808 0.000793829 -3.54543e-05
-0.00317701 0.000951854 0.000953639 -1.83724e-05
-0.00316894 0.000949352 0.00095125 -1.88765e-05
-0.0036862 0.00110591 0.00110584 -6.2755e-08
-0.003667 0.00110011 0.0011001 -1.33496e-08
-0.00262167 0.000783879 0.000787625 -3.65421e-05
-0.00263592 0.000788432 0.000791781 -3.59378e-05
-0.00367669 0.00110306 0.00110298 -5.42574e-09
-0.00314425 0.00094178 0.000943915 -1.97142e-05
-0.00262877 0.000786128 0.000789704 -3.62836e-05
-0.0031608 0.000946838 0.00094884 -1.92626e-05
-0.00315257 0.000944312 0.000946398 -1.95315e-05
-0.003667 0.00110011 0.0011001 -1.33496e-08
-0.00364741 0.00109426 0.00109421 -1.48332e-08
-0.0026075 0.000779479 0.000783438 -3.68647e-05
-0.00262167 0.000783879 0.000787625 -3.65421e-05
-0.00365722 0.00109718 0.00109716 -2.84098e-08
-0.00312745 0.00093671 0.00093889 -1.99427e-05
-0.00261459 0.000781665 0.000785539 -3.67342e-05
-0.00314425 0.00094178 0.000943915 -1.97142e-05
-0.00313586 0.000939245 0.000941406 -1.98485e-05
-0.00364741 0.00109426 0.00109421 -1.48332e-08
-0.0036277 0.00108834 0.0010883 -3.92728e-09
-0.00259333 0.000775171 0.000779212 -3.70103e-05
-0.0026075 0.000779479 0.000783438 -3.68647e-05
-0.00363757 0.00109131 0.00109125 -1.9477e-09
-0.00311057 0.000931633 0.000933829 -2.00407e-05
-0.00260041 0.000777316 0.000781326 -3.69511e-05
-0.00312745 0.00093671 0.00093889 -1.99427e-05
-0.00311902 0.000934172 0.000936365 -2.00028e-05
-0.0036277 0.00108834 0.0010883 -3.92728e-09
-0.00360792 0.00108241 0.00108236 -2.6707e-09
-0.00257918 0.000770911 0.000774972 -3.70741e-05
-0.00259333 0.000775171 0.000779212 -3.70103e-05
-0.00361781 0.00108538 0.00108533 -6.10996e-09
-0.00309363 0.000926557 0.000928743 -2.0081e-05
-0.00258626 0.000773037 0.000777094 -3.70501e-05
-0.00311057 0.000931633 0.000933829 -2.00407e-05
-0.0031021 0.000929095 0.000931287 -2.00658e-05
-0.00360792 0.00108241 0.00108236 -2.6707e-09
-0.00358814 0.00107648 0.00107643 -6.27326e-10
-0.00256503 0.000766678 0.00077072 -3.70942e-05
-0.00257918 0.000770911 0.000774972 -3.70741e-05
-0.00359803 0.00107945 0.00107939 -7.33593e-11
-0.00307667 0.000921482 0.000923651 -2.00917e-05
-0.0025721 0.000768792 0.000772847 -3.70872e-05
-0.00309363 0.000926557 0.000928743 -2.0081e-05
-0.00308515 0.000924019 0.000926198 -2.00885e-05
-0.00358814 0.00107648 0.00107643 -6.27326e-10
-0.00356835 0.00107054 0.00107049 -1.25497e-10
-0.00255087 0.000762457 0.000766465 -3.70976e-05
-0.00256503 0.000766678 0.00077072 -3.70942e-05
-0.00357824 0.00107351 0.00107346 -8.56601e-10
-0.0030597 0.000916408 0.000918555 -2.0092e-05
-0.00255795 0.000764566 0.000768593 -3.70973e-05
-0.00307667 0.000921482 0.000923651 -2.00917e-05
-0.00306818 0.000918945 0.000921103 -2.00926e-05
-0.00356835 0.00107054 0.00107049 -1.25497e-10
-0.00354857 0.00106461 0.00106456 1.22971e-10
-0.00253673 0.000758241 0.000762207 -3.7094e-05
-0.00255087 0.000762457 0.000766465 -3.70976e-05
-0.00355846 0.00106757 0.00106752 2.99459e-10
-0.00304274 0.000911335 0.000913459 -2.00885e-05
-0.0025438 0.000760348 0.000764336 -3.70961e-05
-0.0030597 0.000916408 0.000918555 -2.0092e-05
-0.00305122 0.000913871 0.000916007 -2.00904e-05
-0.00354857 0.00106461 0.00106456 1.22971e-10
-0.00352879 0.00105867 0.00105862 2.16099e-10
-0.00252258 0.000754028 0.00075795 -3.70895e-05
-0.00253673 0.000758241 0.000762207 -3.7094e-05
-0.00353868 0.00106164 0.00106159 1.04063e-10
-0.00302578 0.000906264 0.000908363 -2.00848e-05
-0.00252965 0.000756134 0.000760079 -3.70918e-05
-0.00304274 0.000911335 0.000913459 -2.00885e-05
-0.00303426 0.000908799 0.00091091 -2.00866e-05
-0.00352879 0.00105867 0.00105862 2.16099e-10
-0.00350903 0.00105274 0.00105269 1.87459e-10
-0.00250843 0.000749815 0.000753692 -3.70854e-05
-0.00252258 0.000754028 0.00075795 -3.70895e-05
-0.00351891 0.00105571 0.00105566 2.49367e-10
-0.00300882 0.000901193 0.000903267 -2.00819e-05
-0.0025155 0.000751921 0.000755821 -3.70873e-05
-0.00302578 0.000906264 0.000908363 -2.00848e-05
-0.0030173 0.000903728 0.000905815 -2.00832e-05
-0.00350903 0.00105274 0.00105269 1.87459e-10
-0.00348926 0.00104681 0.00104676 1.80118e-10
-0.00249428 0.000745602 0.000749434 -3.70825e-05
-0.00250843 0.000749815 0.000753692 -3.70854e-05
-0.00349914 0.00104978 0.00104973 1.78373e-10
-0.00299186 0.000896122 0.000898173 -2.00799e-05
-0.00250135 0.000747709 0.000751563 -3.70838e-05
-0.00300882 0.000901193 0.000903267 -2.00819e-05
-0.00300034 0.000898657 0.00090072 -2.00808e-05
-0.00348926 0.00104681 0.00104676 1.80118e-10
-0.0034695 0.00104088 0.00104083 1.43928e-10
-0.00248013 0.000741389 0.000745177 -3.70806e-05
-0.00249428 0.000745602 0.000749434 -3.70825e-05
-0.00347938 0.00104385 0.0010438 1.66224e-10
-0.0029749 0.000891052 0.000893079 -2.00787e-05
-0.00248721 0.000743496 0.000747305 -3.70815e-05
-0.00299186 0.000896122 0.000898173 -2.00799e-05
-0.00298338 0.000893587 0.000895626 -2.00792e-05
-0.0034695 0.00104088 0.00104083 1.43928e-10
-0.00344973 0.00103495 0.00103491 1.29129e-10
-0.00246599 0.000737176 0.00074092 -3.70796e-05
-0.00248013 0.000741389 0.000745177 -3.70806e-05
-0.00345961 0.00103792 0.00103787 1.36672e-10
-0.00295795 0.000885981 0.000887985 -2.0078e-05
-0.00247306 0.000739283 0.000743048 -3.708e-05
-0.0029749 0.000891052 0.000893079 -2.00787e-05
-0.00296642 0.000888517 0.000890532 -2.00783e-05
-0.00344973 0.00103495 0.00103491 1.29129e-10
-0.00342997 0.00102902 0.00102898 1.115e-10
-0.00245184 0.000732963 0.000736663 -3.7079e-05
-0.00246599 0.000737176 0.00074092 -3.70796e-05
-0.00343985 0.00103199 0.00103194 1.19231e-10
-0.00294099 0.000880911 0.000882892 -2.00777e-05
-0.00245892 0.00073507 0.000738791 -3.70792e-05
-0.00295795 0.000885981 0.000887985 -2.0078e-05
-0.00294947 0.000883446 0.000885438 -2.00779e-05
-0.00342997 0.00102902 0.00102898 1.115e-10
-0.00341021 0.0010231 0.00102305 1.03592e-10
-0.0024377 0.00072875 0.000732407 -3.70787e-05
-0.00245184 0.000732963 0.000736663 -3.7079e-05
-0.00342009 0.00102606 0.00102601 1.07505e-10
-0.00292404 0.000875841 0.000877798 -2.00776e-05
-0.00244477 0.000730856 0.000734535 -3.70788e-05
-0.00294099 0.000880911 0.000882892 -2.00777e-05
-0.00293251 0.000878376 0.000880345 -2.00777e-05
-0.00341021 0.0010231 0.00102305 1.03593e-10
-0.00339045 0.00101717 0.00101712 9.68633e-11
-0.00242355 0.000724536 0.000728151 -3.70787e-05
-0.0024377 0.00072875 0.000732407 -3.70787e-05
-0.00340033 0.00102013 0.00102008 9.9339e-11
-0.00290708 0.000870771 0.000872705 -2.00777e-05
-0.00243063 0.000726643 0.000730279 -3.70787e-05
-0.00292404 0.000875841 0.000877798 -2.00776e-05
-0.00291556 0.000873306 0.000875252 -2.00776e-05
-0.00339045 0.00101717 0.00101712 9.68633e-11
-0.00337069 0.00101124 0.00101119 9.37268e-11
-0.00240941 0.000720322 0.000723895 -3.70787e-05
-0.00242355 0.000724536 0.000728151 -3.70787e-05
-0.00338057 0.0010142 0.00101416 9.51114e-11
-0.00289013 0.000865701 0.000867613 -2.00777e-05
-0.00241648 0.000722429 0.000726023 -3.70787e-05
-0.00290708 0.000870771 0.000872705 -2.00777e-05
-0.00289861 0.000868236 0.000870159 -2.00777e-05
-0.00337069 0.00101124 0.00101119 9.37276e-11
-0.00335093 0.00100531 0.00100526 9.14559e-11
-0.00239527 0.000716109 0.000719639 -3.70788e-05
-0.00240941 0.000720322 0.000723895 -3.70787e-05
-0.00336081 0.00100828 0.00100823 9.21691e-11
-0.00287318 0.000860631 0.00086252 -2.00778e-05
-0.00240234 0.000718215 0.000721767 -3.70787e-05
-0.00289013 0.000865701 0.000867613 -2.00777e-05
-0.00288165 0.000863166 0.000865066 -2.00778e-05
-0.00335093 0.00100531 0.00100526 9.14559e-11
-0.00333117 0.000999383 0.000999336 9.03256e-11
-0.00238112 0.000711895 0.000715383 -3.70788e-05
-0.00239527 0.000716109 0.000719639 -3.70788e-05
-0.00334105 0.00100235 0.0010023 9.07488e-11
-0.00285622 0.000855561 0.000857427 -2.00779e-05
-0.00238819 0.000714002 0.000717511 -3.70788e-05
-0.00287318 0.000860631 0.00086252 -2.00778e-05
-0.0028647 0.000858096 0.000859974 -2.00779e-05
-0.00333117 0.000999383 0.000999336 9.03264e-11
-0.00331141 0.000993455 0.000993408 8.9524e-11
-0.00236698 0.000707681 0.000711128 -3.70789e-05
-0.00238112 0.000711895 0.000715383 -3.70788e-05
-0.00332129 0.000996419 0.000996372 8.97426e-11
-0.00283927 0.000850491 0.000852335 -2.0078e-05
-0.00237405 0.000709788 0.000713256 -3.70789e-05
-0.00285622 0.000855561 0.000857427 -2.00779e-05
-0.00284775 0.000853026 0.000854881 -2.00779e-05
-0.00331141 0.000993455 0.000993408 8.9524e-11
-0.00329165 0.000987527 0.00098748 8.90149e-11
-0.00235284 0.000703467 0.000706873 -3.70789e-05
-0.00236698 0.000707681 0.000711128 -3.70789e-05
-0.00330153 0.000990491 0.000990444 8.91841e-11
-0.00282232 0.000845421 0.000847243 -2.0078e-05
-0.00235991 0.000705574 0.000709001 -3.70789e-05
-0.00283927 0.000850491 0.000852335 -2.0078e-05
-0.0028308 0.000847956 0.000849789 -2.0078e-05
-0.00329165 0.000987527 0.00098748 8.90092e-11
-0.00327189 0.000981599 0.000981553 8.85718e-11
-0.00233869 0.000699253 0.000702618 -3.70789e-05
-0.00235284 0.000703467 0.000706873 -3.70789e-05
-0.00328177 0.000984563 0.000984516 8.87113e-11
-0.00280537 0.000840351 0.000842151 -2.00781e-05
-0.00234577 0.00070136 0.000704745 -3.70789e-05
-0.00282232 0.000845421 0.000847243 -2.0078e-05
-0.00281384 0.000842886 0.000844697 -2.00781e-05
-0.00327189 0.000981599 0.000981553 8.85718e-11
-0.00325213 0.000975671 0.000975625 8.81678e-11
-0.00232455 0.000695039 0.000698363 -3.70789e-05
-0.00233869 0.000699253 0.000702618 -3.70789e-05
-0.00326201 0.000978635 0.000978589 8.83171e-11
-0.00278842 0.000835281 0.000837059 -2.00781e-05
-0.00233162 0.000697146 0.000700491 -3.70789e-05
-0.00280537 0.000840351 0.000842151 -2.00781e-05
-0.00279689 0.000837816 0.000839605 -2.00781e-05
-0.00325213 0.000975671 0.000975625 8.81687e-11
-0.00323237 0.000969744 0.000969697 8.77563e-11
-0.00231041 0.000690825 0.000694109 -3.70789e-05
-0.00232455 0.000695039 0.000698363 -3.70789e-05
-0.00324225 0.000972707 0.000972661 8.79142e-11
-0.00277147 0.000830211 0.000831967 -2.00781e-05
-0.00231748 0.000692932 0.000696236 -3.70789e-05
-0.00278842 0.000835281 0.000837059 -2.00781e-05
-0.00277994 0.000832746 0.000834513 -2.00781e-05
-0.00323237 0.000969744 0.000969697 8.77563e-11
-0.00321261 0.000963816 0.00096377 8.7339e-11
-0.00229627 0.000686611 0.000689854 -3.70788e-05
-0.00231041 0.000690825 0.000694109 -3.70789e-05
-0.00322249 0.00096678 0.000966734 8.75134e-11
-0.00275452 0.000825141 0.000826875 -2.00782e-05
-0.00230334 0.000688718 0.000691982 -3.70788e-05
-0.00277147 0.000830211 0.000831967 -2.00781e-05
-0.00276299 0.000827676 0.000829421 -2.00781e-05
-0.00321261 0.000963816 0.00096377 8.73324e-11
-0.00319285 0.000957888 0.000957843 8.68665e-11
-0.00228213 0.000682397 0.0006856 -3.70788e-05
-0.00229627 0.000686611 0.000689854 -3.70788e-05
-0.00320273 0.000960852 0.000960806 8.70649e-11
-0.00273757 0.000820071 0.000821784 -2.00782e-05
-0.0022892 0.000684504 0.000687727 -3.70788e-05
-0.00275452 0.000825141 0.000826875 -2.00782e-05
-0.00274604 0.000822606 0.000824329 -2.00782e-05
-0.00319285 0.000957888 0.000957843 8.68665e-11
-0.0031731 0.000951961 0.000951915 8.63892e-11
-0.00226799 0.000678182 0.000681346 -3.70787e-05
-0.00228213 0.000682397 0.0006856 -3.70788e-05
-0.00318298 0.000954925 0.000954879 8.65972e-11
-0.00272062 0.000815001 0.000816692 -2.00782e-05
-0.00227506 0.000680289 0.000683473 -3.70787e-05
-0.00273757 0.000820071 0.000821784 -2.00782e-05
-0.00272909 0.000817536 0.000819238 -2.00782e-05
-0.0031731 0.000951961 0.000951915 8.63892e-11
-0.00315334 0.000946034 0.000945988 8.58984e-11
-0.00225385 0.000673968 0.000677092 -3.70786e-05
-0.00226799 0.000678182 0.000681346 -3.70787e-05
-0.00316322 0.000948997 0.000948952 8.61022e-11
-0.00270367 0.000809931 0.000811601 -2.00781e-05
-0.00226092 0.000676075 0.000679219 -3.70786e-05
-0.00272062 0.000815001 0.000816692 -2.00782e-05
-0.00271214 0.000812466 0.000814147 -2.00782e-05
-0.00315334 0.000946034 0.000945988 8.58984e-11
-0.00313358 0.000940107 0.000940061 8.53666e-11
-0.00223971 0.000669754 0.000672839 -3.70785e-05
-0.00225385 0.000673968 0.000677092 -3.70786e-05
-0.00314346 0.00094307 0.000943025 8.56136e-11
-0.00268672 0.000804861 0.00080651 -2.00781e-05
-0.00224678 0.000671861 0.000674966 -3.70785e-05
-0.00270367 0.000809931 0.000811601 -2.00781e-05
-0.00269519 0.000807396 0.000809055 -2.00781e-05
-0.00313358 0.000940107 0.000940061 8.53732e-11
-0.00311383 0.00093418 0.000934134 8.48199e-11
-0.00222557 0.00066554 0.000668586 -3.70784e-05
-0.00223971 0.000669754 0.000672839 -3.70785e-05
-0.0031237 0.000937143 0.000937098 8.50414e-11
-0.00266977 0.000799791 0.000801419 -2.00781e-05
-0.00223264 0.000667647 0.000670712 -3.70784e-05
-0.00268672 0.000804861 0.00080651 -2.00781e-05
-0.00267824 0.000802326 0.000803965 -2.00781e-05
-0.00311383 0.00093418 0.000934134 8.48199e-11
-0.00309407 0.000928253 0.000928208 8.43142e-11
-0.00221143 0.000661325 0.000664332 -3.70783e-05
-0.00222557 0.00066554 0.000668586 -3.70784e-05
-0.00310395 0.000931216 0.000931171 8.45319e-11
-0.00265282 0.000794722 0.000796328 -2.00781e-05
-0.0022185 0.000663432 0.000666459 -3.70783e-05
-0.00266977 0.000799791 0.000801419 -2.00781e-05
-0.0026613 0.000797256 0.000798874 -2.00781e-05
-0.00309407 0.000928253 0.000928208 8.43142e-11
-0.00307431 0.000922326 0.000922281 8.37573e-11
-0.0021973 0.000657111 0.00066008 -3.70782e-05
-0.00221143 0.000661325 0.000664332 -3.70783e-05
-0.00308419 0.000925289 0.000925244 8.40145e-11
-0.00263587 0.000789652 0.000791238 -2.00781e-05
-0.00220437 0.000659218 0.000662206 -3.70782e-05
-0.00265282 0.000794722 0.000796328 -2.00781e-05
-0.00264435 0.000792187 0.000793783 -2.00781e-05
-0.00307431 0.000922326 0.000922281 8.37507e-11
-0.00305456 0.000916399 0.000916354 8.31971e-11
-0.00218316 0.000652896 0.000655827 -3.7078e-05
-0.0021973 0.000657111 0.00066008 -3.70782e-05
-0.00306444 0.000919362 0.000919318 8.34354e-11
-0.00261893 0.000784582 0.000786147 -2.0078e-05
-0.00219023 0.000655004 0.000657953 -3.70781e-05
-0.00263587 0.000789652 0.000791238 -2.00781e-05
-0.0026274 0.000787117 0.000788693 -2.0078e-05
-0.00305456 0.000916399 0.000916354 8.31971e-11
-0.0030348 0.000910472 0.000910428 8.26516e-11
-0.00216902 0.000648682 0.000651574 -3.70779e-05
-0.00218316 0.000652896 0.000655827 -3.7078e-05
-0.00304468 0.000913436 0.000913391 8.29063e-11
-0.00260198 0.000779512 0.000781057 -2.0078e-05
-0.00217609 0.000650789 0.0006537 -3.7078e-05
-0.00261893 0.000784582 0.000786147 -2.0078e-05
-0.00261045 0.000782047 0.000783602 -2.0078e-05
-0.0030348 0.000910472 0.000910428 8.26459e-11
-0.00301505 0.000904546 0.000904502 8.20895e-11
-0.00215489 0.000644467 0.000647322 -3.70777e-05
-0.00216902 0.000648682 0.000651574 -3.70779e-05
-0.00302493 0.000907509 0.000907465 8.23343e-11
-0.00258503 0.000774443 0.000775967 -2.0078e-05
-0.00216195 0.000646575 0.000649448 -3.70778e-05
-0.00260198 0.000779512 0.000781057 -2.0078e-05
-0.00259351 0.000776977 0.000778512 -2.0078e-05
-0.00301505 0.000904546 0.000904502 8.20895e-11
-0.0029953 0.00089862 0.000898575 8.1525e-11
-0.00214075 0.000640253 0.00064307 -3.70776e-05
-0.00215489 0.000644467 0.000647322 -3.70777e-05
-0.00300517 0.000901583 0.000901539 8.17904e-11
-0.00256809 0.000769373 0.000770877 -2.00779e-05
-0.00214782 0.00064236 0.000645196 -3.70777e-05
-0.00258503 0.000774443 0.000775967 -2.0078e-05
-0.00257656 0.000771908 0.000773422 -2.00779e-05
-0.0029953 0.00089862 0.000898575 8.15391e-11
-0.00297554 0.000892693 0.000892649 8.09851e-11
-0.00212661 0.000636038 0.000638818 -3.70774e-05
-0.00214075 0.000640253 0.00064307 -3.70776e-05
-0.00298542 0.000895657 0.000895612 8.12159e-11
-0.00255114 0.000764303 0.000765788 -2.00779e-05
-0.00213368 0.000638145 0.000640944 -3.70775e-05
-0.00256809 0.000769373 0.000770877 -2.00779e-05
-0.00255961 0.000766838 0.000768332 -2.00779e-05
-0.00297554 0.000892693 0.000892649 8.09851e-11
-0.00295579 0.000886767 0.000886723 8.0415e-11
-0.00211248 0.000631824 0.000634566 -3.70773e-05
-0.00212661 0.000636038 0.000638818 -3.70774e-05
-0.00296567 0.00088973 0.000889686 8.06951e-11
-0.0025342 0.000759234 0.000760698 -2.00778e-05
-0.00211955 0.000633931 0.000636692 -3.70774e-05
-0.00255114 0.000764303 0.000765788 -2.00779e-05
-0.00254267 0.000761769 0.000763243 -2.00778e-05
-0.00295579 0.000886767 0.000886723 8.04159e-11
-0.00293604 0.000880841 0.000880798 7.98623e-11
-0.00209834 0.000627609 0.000630315 -3.70771e-05
-0.00211248 0.000631824 0.000634566 -3.70773e-05
-0.00294591 0.000883804 0.00088376 8.00891e-11
-0.00251725 0.000754164 0.000755609 -2.00778e-05
-0.00210541 0.000629716 0.000632441 -3.70772e-05
-0.0025342 0.000759234 0.000760698 -2.00778e-05
-0.00252572 0.000756699 0.000758153 -2.00778e-05
-0.00293604 0.000880841 0.000880798 7.98623e-11
-0.00291628 0.000874915 0.000874872 7.93588e-11
-0.00208421 0.000623394 0.000626064 -3.70769e-05
-0.00209834 0.000627609 0.000630315 -3.70771e-05
-0.00292616 0.000877878 0.000877835 7.96136e-11
-0.00250031 0.000749095 0.00075052 -2.00777e-05
-0.00209128 0.000625502 0.000628189 -3.7077e-05
-0.00251725 0.000754164 0.000755609 -2.00778e-05
-0.00250878 0.00075163 0.000753064 -2.00777e-05
-0.00291628 0.000874915 0.000874872 7.9372e-11
-0.00289653 0.00086899 0.000868946 7.87245e-11
-0.00207008 0.00061918 0.000621813 -3.70768e-05
-0.00208421 0.000623394 0.000626064 -3.70769e-05
-0.00290641 0.000871953 0.000871909 7.90247e-11
-0.00248336 0.000744026 0.000745431 -2.00777e-05
-0.00207714 0.000621287 0.000623938 -3.70769e-05
-0.00250031 0.000749095 0.00075052 -2.00777e-05
-0.00249184 0.00074656 0.000747975 -2.00777e-05
-0.00289653 0.00086899 0.000868946 7.87245e-11
-0.00287678 0.000863064 0.000863021 7.82008e-11
-0.00205594 0.000614965 0.000617562 -3.70766e-05
-0.00207008 0.00061918 0.000621813 -3.70768e-05
-0.00288666 0.000866027 0.000865983 7.84134e-11
-0.00246642 0.000738956 0.000740342 -2.00776e-05
-0.00206301 0.000617072 0.000619687 -3.70767e-05
-0.00248336 0.000744026 0.000745431 -2.00777e-05
-0.00247489 0.000741491 0.000742886 -2.00776e-05
-0.00287678 0.000863064 0.000863021 7.82008e-11
-0.00285703 0.000857139 0.000857095 7.76522e-11
-0.00204181 0.00061075 0.000613311 -3.70764e-05
-0.00205594 0.000614965 0.000617562 -3.70766e-05
-0.0028669 0.000860101 0.000860058 7.79336e-11
-0.00244948 0.000733887 0.000735253 -2.00775e-05
-0.00204888 0.000612857 0.000615436 -3.70765e-05
-0.00246642 0.000738956 0.000740342 -2.00776e-05
-0.00245795 0.000736421 0.000737797 -2.00776e-05
-0.00285703 0.000857139 0.000857095 7.7654e-11
-0.00283728 0.000851213 0.00085117 7.70917e-11
-0.00202768 0.000606535 0.000609061 -3.70762e-05
-0.00204181 0.00061075 0.000613311 -3.70764e-05
-0.00284715 0.000854176 0.000854133 7.73348e-11
-0.00243253 0.000728818 0.000730165 -2.00775e-05
-0.00203474 0.000608643 0.000611186 -3.70763e-05
-0.00244948 0.000733887 0.000735253 -2.00775e-05
-0.00244101 0.000731352 0.000732709 -2.00775e-05
-0.00283728 0.000851213 0.00085117 7.71065e-11
-0.00281753 0.000845288 0.000845245 7.65487e-11
-0.00201354 0.00060232 0.000604811 -3.7076e-05
-0.00202768 0.000606535 0.000609061 -3.70762e-05
-0.0028274 0.000848251 0.000848208 7.68052e-11
-0.00241559 0.000723748 0.000725076 -2.00774e-05
-0.00202061 0.000604428 0.000606936 -3.70761e-05
-0.00243253 0.000728818 0.000730165 -2.00775e-05
-0.00242406 0.000726283 0.00072762 -2.00774e-05
-0.00281753 0.000845288 0.000845245 7.65487e-11
-0.00279778 0.000839363 0.00083932 7.60033e-11
-0.00199941 0.000598105 0.000600561 -3.70758e-05
-0.00201354 0.00060232 0.000604811 -3.7076e-05
-0.00280765 0.000842325 0.000842283 7.62423e-11
-0.00239865 0.000718679 0.000719988 -2.00773e-05
-0.00200648 0.000600213 0.000602685 -3.70759e-05
-0.00241559 0.000723748 0.000725076 -2.00774e-05
-0.00240712 0.000721214 0.000722532 -2.00774e-05
-0.00279778 0.000839363 0.00083932 7.60033e-11
-0.00277803 0.000833438 0.000833395 7.54529e-11
-0.00198528 0.000593891 0.000596311 -3.70756e-05
-0.00199941 0.000598105 0.000600561 -3.70758e-05
-0.0027879 0.0008364 0.000836358 7.56976e-11
-0.00238171 0.00071361 0.0007149 -2.00772e-05
-0.00199235 0.000595998 0.000598436 -3.70757e-05
-0.00239865 0.000718679 0.000719988 -2.00773e-05
-0.00239018 0.000716145 0.000717444 -2.00773e-05
-0.00277803 0.000833438 0.000833395 7.54478e-11
-0.00275828 0.000827513 0.000827471 7.48953e-11
-0.00197115 0.000589676 0.000592061 -3.70754e-05
-0.00198528 0.000593891 0.000596311 -3.70756e-05
-0.00276815 0.000830476 0.000830433 7.51431e-11
-0.00236477 0.000708541 0.000709812 -2.00772e-05
-0.00197822 0.000591783 0.000594186 -3.70755e-05
-0.00238171 0.00071361 0.0007149 -2.00772e-05
-0.00237324 0.000711075 0.000712356 -2.00772e-05
-0.00275828 0.000827513 0.000827471 7.48953e-11
-0.00273853 0.000821588 0.000821546 7.43368e-11
-0.00195702 0.000585461 0.000587812 -3.70752e-05
-0.00197115 0.000589676 0.000592061 -3.70754e-05
-0.0027484 0.000824551 0.000824508 7.45873e-11
-0.00234783 0.000703472 0.000704725 -2.00771e-05
-0.00196409 0.000587568 0.000589937 -3.70753e-05
-0.00236477 0.000708541 0.000709812 -2.00772e-05
-0.0023563 0.000706006 0.000707269 -2.00771e-05
-0.00273853 0.000821588 0.000821546 7.43368e-11
-0.00271878 0.000815664 0.000815622 7.37975e-11
-0.00194289 0.000581246 0.000583563 -3.70749e-05
-0.00195702 0.000585461 0.000587812 -3.70752e-05
-0.00272865 0.000818626 0.000818584 7.40389e-11
-0.00233089 0.000698403 0.000699637 -2.0077e-05
-0.00194996 0.000583353 0.000585687 -3.70751e-05
-0.00234783 0.000703472 0.000704725 -2.00771e-05
-0.00233936 0.000700937 0.000702181 -2.00771e-05
-0.00271878 0.000815664 0.000815622 7.37975e-11
-0.00269903 0.000809739 0.000809697 7.32441e-11
-0.00192876 0.000577031 0.000579314 -3.70747e-05
-0.00194289 0.000581246 0.000583563 -3.70749e-05
-0.00270891 0.000812702 0.000812659 7.34883e-11
-0.00231395 0.000693334 0.00069455 -2.00769e-05
-0.00193583 0.000579138 0.000581438 -3.70748e-05
-0.00233089 0.000698403 0.000699637 -2.0077e-05
-0.00232242 0.000695868 0.000697094 -2.0077e-05
-0.00269903 0.000809739 0.000809697 7.32376e-11
-0.00267929 0.000803815 0.000803773 7.26851e-11
-0.00191463 0.000572816 0.000575065 -3.70745e-05
-0.00192876 0.000577031 0.000579314 -3.70747e-05
-0.00268916 0.000806777 0.000806735 7.29465e-11
-0.00229701 0.000688265 0.000689463 -2.00768e-05
-0.0019217 0.000574923 0.00057719 -3.70746e-05
-0.00231395 0.000693334 0.00069455 -2.00769e-05
-0.00230548 0.000690799 0.000692007 -2.00769e-05
-0.00267929 0.000803815 0.000803773 7.26918e-11
-0.00265954 0.000797891 0.000797849 7.21389e-11
-0.00190051 0.000568601 0.000570817 -3.70743e-05
-0.00191463 0.000572816 0.000575065 -3.70745e-05
-0.00266941 0.000800853 0.000800811 7.23911e-11
-0.00228007 0.000683196 0.000684376 -2.00768e-05
-0.00190757 0.000570708 0.000572941 -3.70744e-05
-0.00229701 0.000688265 0.000689463 -2.00768e-05
-0.00228854 0.00068573 0.00068692 -2.00768e-05
-0.00265954 0.000797891 0.000797849 7.21389e-11
-0.00263979 0.000791967 0.000791925 7.15943e-11
-0.00188638 0.000564386 0.000566569 -3.7074e-05
-0.00190051 0.000568601 0.000570817 -3.70743e-05
-0.00264967 0.000794929 0.000794887 7.18496e-11
-0.00226314 0.000678127 0.000679289 -2.00767e-05
-0.00189344 0.000566493 0.000568693 -3.70741e-05
-0.00228007 0.000683196 0.000684376 -2.00768e-05
-0.0022716 0.000680662 0.000681833 -2.00767e-05
-0.00263979 0.000791967 0.000791925 7.15943e-11
-0.00262005 0.000786043 0.000786001 7.10423e-11
-0.00187225 0.00056017 0.000562321 -3.70738e-05
-0.00188638 0.000564386 0.000566569 -3.7074e-05
-0.00262992 0.000789005 0.000788963 7.12894e-11
-0.0022462 0.000673058 0.000674203 -2.00766e-05
-0.00187932 0.000562278 0.000564445 -3.70739e-05
-0.00226314 0.000678127 0.000679289 -2.00767e-05
-0.00225467 0.000675593 0.000676746 -2.00766e-05
-0.00262005 0.000786043 0.000786001 7.1044e-11
-0.0026003 0.000780119 0.000780078 7.04924e-11
-0.00185813 0.000555955 0.000558073 -3.70736e-05
-0.00187225 0.00056017 0.000562321 -3.70738e-05
-0.00261017 0.000783081 0.000783039 7.07465e-11
-0.00222926 0.00066799 0.000669117 -2.00765e-05
-0.00186519 0.000558063 0.000560197 -3.70737e-05
-0.0022462 0.000673058 0.000674203 -2.00766e-05
-0.00223773 0.000670524 0.00067166 -2.00765e-05
-0.0026003 0.000780119 0.000780078 7.04874e-11
-0.00258056 0.000774196 0.000774154 6.99416e-11
-0.001844 0.00055174 0.000553825 -3.70733e-05
-0.00185813 0.000555955 0.000558073 -3.70736e-05
-0.00259043 0.000777157 0.000777116 7.01968e-11
-0.00221233 0.000662921 0.00066403 -2.00764e-05
-0.00185106 0.000553848 0.000555949 -3.70734e-05
-0.00222926 0.00066799 0.000669117 -2.00765e-05
-0.00222079 0.000665455 0.000666573 -2.00764e-05
-0.00258056 0.000774196 0.000774154 6.99416e-11
-0.00256081 0.000768272 0.000768231 6.93815e-11
-0.00182987 0.000547525 0.000549578 -3.70731e-05
-0.001844 0.00055174 0.000553825 -3.70733e-05
-0.00257068 0.000771234 0.000771192 6.96431e-11
-0.00219539 0.000657852 0.000658944 -2.00763e-05
-0.00183694 0.000549633 0.000551702 -3.70732e-05
-0.00221233 0.000662921 0.00066403 -2.00764e-05
-0.00220386 0.000660387 0.000661487 -2.00763e-05
-0.00256081 0.000768272 0.000768231 6.93815e-11
-0.00254107 0.000762349 0.000762308 6.88415e-11
-0.00181575 0.00054331 0.000545331 -3.70728e-05
-0.00182987 0.000547525 0.000549578 -3.70731e-05
-0.00255094 0.00076531 0.000765269 6.90853e-11
-0.00217845 0.000652784 0.000653859 -2.00762e-05
-0.00182281 0.000545417 0.000547454 -3.70729e-05
-0.00219539 0.000657852 0.000658944 -2.00763e-05
-0.00218692 0.000655318 0.000656402 -2.00763e-05
-0.00254107 0.000762349 0.000762308 6.88563e-11
-0.00252132 0.000756425 0.000756384 6.83061e-11
-0.00180162 0.000539094 0.000541084 -3.70726e-05
-0.00181575 0.00054331 0.000545331 -3.70728e-05
-0.00253119 0.000759387 0.000759346 6.85599e-11
-0.00216152 0.000647715 0.000648773 -2.00761e-05
-0.00180869 0.000541202 0.000543207 -3.70727e-05
-0.00217845 0.000652784 0.000653859 -2.00762e-05
-0.00216999 0.000650249 0.000651316 -2.00762e-05
-0.00252132 0.000756425 0.000756384 6.83012e-11
-0.00250158 0.000750502 0.000750461 6.77411e-11
-0.0017875 0.000534879 0.000536837 -3.70723e-05
-0.00180162 0.000539094 0.000541084 -3.70726e-05
-0.00251145 0.000753464 0.000753423 6.80009e-11
-0.00214458 0.000642647 0.000643688 -2.0076e-05
-0.00179456 0.000536987 0.000538961 -3.70724e-05
-0.00216152 0.000647715 0.000648773 -2.00761e-05
-0.00215305 0.000645181 0.00064623 -2.00761e-05
-0.00250158 0.000750502 0.000750461 6.77411e-11
-0.00248184 0.000744579 0.000744539 6.71997e-11
-0.00177338 0.000530664 0.000532591 -3.70721e-05
-0.0017875 0.000534879 0.000536837 -3.70723e-05
-0.00249171 0.000747541 0.0007475 6.74437e-11
-0.00212765 0.000637578 0.000638602 -2.00759e-05
-0.00178044 0.000532772 0.000534714 -3.70722e-05
-0.00214458 0.000642647 0.000643688 -2.0076e-05
-0.00213612 0.000640112 0.000641145 -2.0076e-05
-0.00248184 0.000744579 0.000744539 6.71997e-11
-0.00246209 0.000738656 0.000738616 6.66467e-11
-0.00175925 0.000526449 0.000528345 -3.70718e-05
-0.00177338 0.000530664 0.000532591 -3.70721e-05
-0.00247196 0.000741618 0.000741577 6.692e-11
-0.00211072 0.00063251 0.000633517 -2.00758e-05
-0.00176631 0.000528556 0.000530468 -3.70719e-05
-0.00212765 0.000637578 0.000638602 -2.00759e-05
-0.00211918 0.000635044 0.00063606 -2.00759e-05
-0.00246209 0.000738656 0.000738616 6.66483e-11
-0.00244235 0.000732734 0.000732693 6.61162e-11
-0.00174513 0.000522233 0.000524099 -3.70716e-05
-0.00175925 0.000526449 0.000528345 -3.70718e-05
-0.00245222 0.000735695 0.000735655 6.63651e-11
-0.00209378 0.000627441 0.000628432 -2.00757e-05
-0.00175219 0.000524341 0.000526222 -3.70717e-05
-0.00211072 0.00063251 0.000633517 -2.00758e-05
-0.00210225 0.000629976 0.000630975 -2.00758e-05
-0.00244235 0.000732734 0.000732693 6.61045e-11
-0.00242261 0.000726811 0.000726771 6.557e-11
-0.00173101 0.000518018 0.000519853 -3.70713e-05
-0.00174513 0.000522233 0.000524099 -3.70716e-05
-0.00243248 0.000729773 0.000729732 6.5815e-11
-0.00207685 0.000622373 0.000623348 -2.00756e-05
-0.00173807 0.000520126 0.000521976 -3.70714e-05
-0.00209378 0.000627441 0.000628432 -2.00757e-05
-0.00208532 0.000624907 0.00062589 -2.00757e-05
-0.00242261 0.000726811 0.000726771 6.557e-11
-0.00240287 0.000720889 0.000720849 6.50036e-11
-0.00171689 0.000513803 0.000515607 -3.7071e-05
-0.00173101 0.000518018 0.000519853 -3.70713e-05
-0.00241274 0.00072385 0.00072381 6.528e-11
-0.00205992 0.000617305 0.000618263 -2.00755e-05
-0.00172395 0.00051591 0.00051773 -3.70712e-05
-0.00207685 0.000622373 0.000623348 -2.00756e-05
-0.00206839 0.000619839 0.000620805 -2.00756e-05
-0.00240287 0.000720889 0.000720849 6.50036e-11
-0.00238313 0.000714967 0.000714926 6.4461e-11
-0.00170277 0.000509587 0.000511362 -3.70708e-05
-0.00171689 0.000513803 0.000515607 -3.7071e-05
-0.002393 0.000717928 0.000717887 6.47356e-11
-0.00204299 0.000612237 0.000613179 -2.00754e-05
-0.00170983 0.000511695 0.000513485 -3.70709e-05
-0.00205992 0.000617305 0.000618263 -2.00755e-05
-0.00205145 0.000614771 0.000615721 -2.00755e-05
-0.00238313 0.000714967 0.000714926 6.44627e-11
-0.00236339 0.000709044 0.000709004 6.39198e-11
-0.00168864 0.000505372 0.000507117 -3.70705e-05
-0.00170277 0.000509587 0.000511362 -3.70708e-05
-0.00237326 0.000712005 0.000711965 6.41717e-11
-0.00202606 0.000607169 0.000608095 -2.00753e-05
-0.0016957 0.000507479 0.000509239 -3.70706e-05
-0.00204299 0.000612237 0.000613179 -2.00754e-05
-0.00203452 0.000609703 0.000610637 -2.00754e-05
-0.00236339 0.000709044 0.000709004 6.39e-11
-0.00234365 0.000703122 0.000703082 6.33753e-11
-0.00167452 0.000501156 0.000502872 -3.70703e-05
-0.00168864 0.000505372 0.000507117 -3.70705e-05
-0.00235352 0.000706083 0.000706043 6.36424e-11
-0.00200913 0.000602101 0.000603011 -2.00752e-05
-0.00168158 0.000503264 0.000504994 -3.70704e-05
-0.00202606 0.000607169 0.000608095 -2.00753e-05
-0.00201759 0.000604635 0.000605553 -2.00753e-05
-0.00234365 0.000703122 0.000703082 6.33753e-11
-0.00232391 0.000697201 0.000697161 6.28398e-11
-0.0016604 0.000496941 0.000498627 -3.707e-05
-0.00167452 0.000501156 0.000502872 -3.70703e-05
-0.00233378 0.000700161 0.000700122 6.30935e-11
-0.0019922 0.000597033 0.000597927 -2.00751e-05
-0.00166746 0.000499049 0.00050075 -3.70701e-05
-0.00200913 0.000602101 0.000603011 -2.00752e-05
-0.00200066 0.000599567 0.000600469 -2.00751e-05
-0.00232391 0.000697201 0.000697161 6.28398e-11
-0.00230417 0.000691279 0.000691239 6.22576e-11
-0.00164629 0.000492725 0.000494383 -3.70697e-05
-0.0016604 0.000496941 0.000498627 -3.707e-05
-0.00231404 0.00069424 0.0006942 6.25508e-11
-0.00197527 0.000591965 0.000592843 -2.0075e-05
-0.00165334 0.000494833 0.000496505 -3.70699e-05
-0.0019922 0.000597033 0.000597927 -2.00751e-05
-0.00198373 0.000594499 0.000595385 -2.0075e-05
-0.00230417 0.000691279 0.000691239 6.22724e-11
-0.00228443 0.000685357 0.000685318 6.1707e-11
-0.00163217 0.00048851 0.000490139 -3.70695e-05
-0.00164629 0.000492725 0.000494383 -3.70697e-05
-0.0022943 0.000688318 0.000688278 6.19924e-11
-0.00195834 0.000586897 0.00058776 -2.00749e-05
-0.00163923 0.000490618 0.000492261 -3.70696e-05
-0.00197527 0.000591965 0.000592843 -2.0075e-05
-0.0019668 0.000589431 0.000590302 -2.00749e-05
-0.00228443 0.000685357 0.000685318 6.17234e-11
-0.00226469 0.000679436 0.000679396 6.11904e-11
-0.00161805 0.000484294 0.000485895 -3.70692e-05
-0.00163217 0.00048851 0.000490139 -3.70695e-05
-0.00227456 0.000682396 0.000682357 6.14513e-11
-0.00194141 0.000581829 0.000582677 -2.00748e-05
-0.00162511 0.000486402 0.000488017 -3.70693e-05
-0.00195834 0.000586897 0.00058776 -2.00749e-05
-0.00194987 0.000584363 0.000585218 -2.00748e-05
-0.00226469 0.000679436 0.000679396 6.11904e-11
-0.00224496 0.000673514 0.000673475 6.06604e-11
-0.00160393 0.000480079 0.000481651 -3.70689e-05
-0.00161805 0.000484294 0.000485895 -3.70692e-05
-0.00225483 0.000676475 0.000676436 6.09136e-11
-0.00192448 0.000576761 0.000577594 -2.00747e-05
-0.00161099 0.000482186 0.000483773 -3.70691e-05
-0.00194141 0.000581829 0.000582677 -2.00748e-05
-0.00193294 0.000579295 0.000580135 -2.00747e-05
-0.00224496 0.000673514 0.000673475 6.06604e-11
-0.00222522 0.000667593 0.000667554 6.01287e-11
-0.00158981 0.000475863 0.000477407 -3.70687e-05
-0.00160393 0.000480079 0.000481651 -3.70689e-05
-0.00223509 0.000670554 0.000670515 6.03712e-11
-0.00190755 0.000571693 0.000572511 -2.00746e-05
-0.00159687 0.000477971 0.000479529 -3.70688e-05
-0.00192448 0.000576761 0.000577594 -2.00747e-05
-0.00191602 0.000574227 0.000575052 -2.00746e-05
-0.00222522 0.000667593 0.000667554 6.01039e-11
-0.00220548 0.000661672 0.000661633 5.95617e-11
-0.0015757 0.000471647 0.000473164 -3.70684e-05
-0.00158981 0.000475863 0.000477407 -3.70687e-05
-0.00221535 0.000664633 0.000664594 5.98361e-11
-0.00189063 0.000566626 0.000567428 -2.00745e-05
-0.00158276 0.000473755 0.000475286 -3.70685e-05
-0.00190755 0.000571693 0.000572511 -2.00746e-05
-0.00189909 0.000569159 0.00056997 -2.00745e-05
-0.00220548 0.000661672 0.000661633 5.95635e-11
-0.00218575 0.000655751 0.000655712 5.90171e-11
-0.00156158 0.000467432 0.000468921 -3.70681e-05
-0.0015757 0.000471647 0.000473164 -3.70684e-05
-0.00219561 0.000658712 0.000658673 5.92764e-11
-0.0018737 0.000561558 0.000562346 -2.00744e-05
-0.00156864 0.00046954 0.000471042 -3.70683e-05
-0.00189063 0.000566626 0.000567428 -2.00745e-05
-0.00188216 0.000564092 0.000564887 -2.00744e-05
-0.00218575 0.000655751 0.000655712 5.90171e-11
-0.00216601 0.000649831 0.000649792 5.84791e-11
-0.00154746 0.000463216 0.000464678 -3.70679e-05
-0.00156158 0.000467432 0.000468921 -3.70681e-05
-0.00217588 0.000652791 0.000652752 5.87449e-11
-0.00185677 0.00055649 0.000557264 -2.00743e-05
-0.00155452 0.000465324 0.000466799 -3.7068e-05
-0.0018737 0.000561558 0.000562346 -2.00744e-05
-0.00186524 0.000559024 0.000559805 -2.00743e-05
-0.00216601 0.000649831 0.000649792 5.84791e-11
-0.00214628 0.00064391 0.000643871 5.79091e-11
-0.00153335 0.000459 0.000460435 -3.70676e-05
-0.00154746 0.000463216 0.000464678 -3.70679e-05
-0.00215614 0.00064687 0.000646831 5.81824e-11
-0.00183985 0.000551423 0.000552182 -2.00742e-05
-0.00154041 0.000461108 0.000462557 -3.70677e-05
-0.00185677 0.00055649 0.000557264 -2.00743e-05
-0.00184831 0.000553956 0.000554723 -2.00742e-05
-0.00214628 0.00064391 0.000643871 5.79175e-11
-0.00212654 0.000637989 0.000637951 5.73867e-11
-0.00151924 0.000454785 0.000456193 -3.70673e-05
-0.00153335 0.000459 0.000460435 -3.70676e-05
-0.00213641 0.00064095 0.000640911 5.76336e-11
-0.00182292 0.000546355 0.0005471 -2.0074e-05
-0.00152629 0.000456893 0.000458314 -3.70675e-05
-0.00183985 0.000551423 0.000552182 -2.00742e-05
-0.00183138 0.000548889 0.000549641 -2.00741e-05
-0.00212654 0.000637989 0.000637951 5.73948e-11
-0.00210681 0.000632069 0.000632031 5.68536e-11
-0.00150512 0.000450569 0.000451951 -3.70671e-05
-0.00151924 0.000454785 0.000456193 -3.70673e-05
-0.00211667 0.000635029 0.000634991 5.71226e-11
-0.001806 0.000541288 0.000542018 -2.00739e-05
-0.00151218 0.000452677 0.000454072 -3.70672e-05
-0.00182292 0.000546355 0.0005471 -2.0074e-05
-0.00181446 0.000543821 0.000544559 -2.0074e-05
-0.00210681 0.000632069 0.000632031 5.68536e-11
-0.00208707 0.000626149 0.000626111 5.63075e-11
-0.00149101 0.000446353 0.000447709 -3.70668e-05
-0.00150512 0.000450569 0.000451951 -3.70671e-05
-0.00209694 0.000629109 0.000629071 5.65638e-11
-0.00178907 0.00053622 0.000536936 -2.00738e-05
-0.00149806 0.000448461 0.00044983 -3.7067e-05
-0.001806 0.000541288 0.000542018 -2.00739e-05
-0.00179753 0.000538754 0.000539477 -2.00739e-05
-0.00208707 0.000626149 0.000626111 5.63075e-11
-0.00206734 0.000620229 0.000620191 5.57442e-11
-0.00147689 0.000442138 0.000443467 -3.70666e-05
-0.00149101 0.000446353 0.000447709 -3.70668e-05
-0.00207721 0.000623189 0.000623151 5.60261e-11
-0.00177215 0.000531153 0.000531855 -2.00737e-05
-0.00148395 0.000444245 0.000445588 -3.70667e-05
-0.00178907 0.00053622 0.000536936 -2.00738e-05
-0.00178061 0.000533687 0.000534396 -2.00738e-05
-0.00206734 0.000620229 0.000620191 5.57459e-11
-0.00204761 0.000614309 0.000614271 5.52024e-11
-0.00146278 0.000437922 0.000439225 -3.70663e-05
-0.00147689 0.000442138 0.000443467 -3.70666e-05
-0.00205747 0.000617269 0.000617231 5.54731e-11
-0.00175522 0.000526086 0.000526774 -2.00736e-05
-0.00146984 0.00044003 0.000441346 -3.70664e-05
-0.00177215 0.000531153 0.000531855 -2.00737e-05
-0.00176369 0.000528619 0.000529314 -2.00737e-05
-0.00204761 0.000614309 0.000614271 5.52155e-11
-0.00202787 0.000608389 0.000608351 5.46584e-11
-0.00144867 0.000433706 0.000434984 -3.70661e-05
-0.00146278 0.000437922 0.000439225 -3.70663e-05
-0.00203774 0.000611349 0.000611311 5.49272e-11
-0.0017383 0.000521018 0.000521693 -2.00735e-05
-0.00145573 0.000435814 0.000437105 -3.70662e-05
-0.00175522 0.000526086 0.000526774 -2.00736e-05
-0.00174676 0.000523552 0.000524233 -2.00736e-05
-0.00202787 0.000608389 0.000608351 5.46584e-11
-0.00200814 0.000602469 0.000602432 5.41477e-11
-0.00143456 0.00042949 0.000430743 -3.70658e-05
-0.00144867 0.000433706 0.000434984 -3.70661e-05
-0.00201801 0.000605429 0.000605391 5.43605e-11
-0.00172138 0.000515951 0.000516612 -2.00734e-05
-0.00144161 0.000431598 0.000432864 -3.70659e-05
-0.0017383 0.000521018 0.000521693 -2.00735e-05
-0.00172984 0.000518485 0.000519152 -2.00735e-05
-0.00200814 0.000602469 0.000602432 5.41477e-11
-0.00198841 0.00059655 0.000596512 5.36078e-11
-0.00142045 0.000425274 0.000426502 -3.70655e-05
-0.00143456 0.00042949 0.000430743 -3.70658e-05
-0.00199828 0.00059951 0.000599472 5.38568e-11
-0.00170446 0.000510884 0.000511531 -2.00733e-05
-0.0014275 0.000427382 0.000428623 -3.70657e-05
-0.00172138 0.000515951 0.000516612 -2.00734e-05
-0.00171292 0.000513418 0.000514072 -2.00734e-05
-0.00198841 0.00059655 0.000596512 5.35833e-11
-0.00196868 0.00059063 0.000590593 5.30429e-11
-0.00140634 0.000421058 0.000422262 -3.70653e-05
-0.00142045 0.000425274 0.000426502 -3.70655e-05
-0.00197855 0.00059359 0.000593552 5.33221e-11
-0.00168754 0.000505817 0.000506451 -2.00732e-05
-0.00141339 0.000423166 0.000424382 -3.70654e-05
-0.00170446 0.000510884 0.000511531 -2.00733e-05
-0.001696 0.000508351 0.000508991 -2.00733e-05
-0.00196868 0.00059063 0.000590593 5.30332e-11
-0.00194895 0.000584711 0.000584674 5.2498e-11
-0.00139223 0.000416842 0.000418021 -3.7065e-05
-0.00140634 0.000421058 0.000422262 -3.70653e-05
-0.00195882 0.000587671 0.000587633 5.27447e-11
-0.00167061 0.00050075 0.000501371 -2.00731e-05
-0.00139928 0.00041895 0.000420141 -3.70652e-05
-0.00168754 0.000505817 0.000506451 -2.00732e-05
-0.00167908 0.000503283 0.000503911 -2.00732e-05
-0.00194895 0.000584711 0.000584674 5.2498e-11
-0.00192922 0.000578792 0.000578755 5.19668e-11
-0.00137812 0.000412626 0.000413781 -3.70648e-05
-0.00139223 0.000416842 0.000418021 -3.7065e-05
-0.00193908 0.000581752 0.000581714 5.22196e-11
-0.00165369 0.000495683 0.000496291 -2.0073e-05
-0.00138517 0.000414734 0.000415901 -3.70649e-05
-0.00167061 0.00050075 0.000501371 -2.00731e-05
-0.00166215 0.000498216 0.000498831 -2.00731e-05
-0.00192922 0.000578792 0.000578755 5.19668e-11
-0.00190949 0.000572873 0.000572836 5.13923e-11
-0.00136401 0.00040841 0.000409541 -3.70645e-05
-0.00137812 0.000412626 0.000413781 -3.70648e-05
-0.00191935 0.000575833 0.000575795 5.16829e-11
-0.00163677 0.000490616 0.000491211 -2.00729e-05
-0.00137106 0.000410518 0.000411661 -3.70647e-05
-0.00165369 0.000495683 0.000496291 -2.0073e-05
-0.00164523 0.000493149 0.000493751 -2.0073e-05
-0.00190949 0.000572873 0.000572836 5.14271e-11
-0.00188976 0.000566954 0.000566917 5.08799e-11
-0.0013499 0.000404194 0.000405301 -3.70643e-05
-0.00136401 0.00040841 0.000409541 -3.70645e-05
-0.00189963 0.000569914 0.000569876 5.11253e-11
-0.00161985 0.000485549 0.000486131 -2.00729e-05
-0.00135695 0.000406302 0.000407421 -3.70644e-05
-0.00163677 0.000490616 0.000491211 -2.00729e-05
-0.00162831 0.000488083 0.000488671 -2.00729e-05
-0.00188976 0.000566954 0.000566917 5.08797e-11
-0.00187003 0.000561035 0.000560999 5.03352e-11
-0.00133579 0.000399978 0.000401062 -3.70641e-05
-0.0013499 0.000404194 0.000405301 -3.70643e-05
-0.0018799 0.000563995 0.000563958 5.05888e-11
-0.00160294 0.000480482 0.000481052 -2.00728e-05
-0.00134284 0.000402086 0.000403181 -3.70642e-05
-0.00161985 0.000485549 0.000486131 -2.00729e-05
-0.0016114 0.000483016 0.000483591 -2.00728e-05
-0.00187003 0.000561035 0.000560999 5.03352e-11
-0.0018503 0.000555117 0.00055508 4.98059e-11
-0.00132168 0.000395762 0.000396822 -3.70638e-05
-0.00133579 0.000399978 0.000401062 -3.70641e-05
-0.00186017 0.000558076 0.000558039 5.00499e-11
-0.00158602 0.000475415 0.000475972 -2.00727e-05
-0.00132874 0.00039787 0.000398942 -3.70639e-05
-0.00160294 0.000480482 0.000481052 -2.00728e-05
-0.00159448 0.000477949 0.000478512 -2.00727e-05
-0.0018503 0.000555117 0.00055508 4.98059e-11
-0.00183058 0.000549198 0.000549162 4.92602e-11
-0.00130757 0.000391546 0.000392583 -3.70636e-05
-0.00132168 0.000395762 0.000396822 -3.70638e-05
-0.00184044 0.000552158 0.000552121 4.9515e-11
-0.0015691 0.000470349 0.000470893 -2.00726e-05
-0.00131463 0.000393654 0.000394703 -3.70637e-05
-0.00158602 0.000475415 0.000475972 -2.00727e-05
-0.00157756 0.000472882 0.000473433 -2.00726e-05
-0.00183058 0.000549198 0.000549162 4.92602e-11
-0.00181085 0.00054328 0.000543244 4.8738e-11
-0.00129347 0.00038733 0.000388344 -3.70633e-05
-0.00130757 0.000391546 0.000392583 -3.70636e-05
-0.00182071 0.000546239 0.000546203 4.89919e-11
-0.00155218 0.000465282 0.000465814 -2.00725e-05
-0.00130052 0.000389438 0.000390464 -3.70635e-05
-0.0015691 0.000470349 0.000470893 -2.00726e-05
-0.00156064 0.000467815 0.000468354 -2.00725e-05
-0.00181085 0.00054328 0.000543244 4.8748e-11
-0.00179112 0.000537362 0.000537325 4.81782e-11
-0.00127936 0.000383114 0.000384106 -3.70631e-05
-0.00129347 0.00038733 0.000388344 -3.70633e-05
-0.00180098 0.000540321 0.000540284 4.84457e-11
-0.00153526 0.000460215 0.000460735 -2.00724e-05
-0.00128641 0.000385222 0.000386225 -3.70632e-05
-0.00155218 0.000465282 0.000465814 -2.00725e-05
-0.00154372 0.000462749 0.000463275 -2.00724e-05
-0.00179112 0.000537362 0.000537325 4.81782e-11
-0.00177139 0.000531444 0.000531408 4.76275e-11
-0.00126525 0.000378898 0.000379867 -3.70629e-05
-0.00127936 0.000383114 0.000384106 -3.70631e-05
-0.00178126 0.000534403 0.000534366 4.78931e-11
-0.00151835 0.000455149 0.000455657 -2.00723e-05
-0.00127231 0.000381006 0.000381987 -3.7063e-05
-0.00153526 0.000460215 0.000460735 -2.00724e-05
-0.00152681 0.000457682 0.000458196 -2.00724e-05
-0.00177139 0.000531444 0.000531408 4.76275e-11
-0.00175167 0.000525526 0.00052549 4.71246e-11
-0.00125115 0.000374682 0.000375629 -3.70627e-05
-0.00126525 0.000378898 0.000379867 -3.70629e-05
-0.00176153 0.000528485 0.000528449 4.73588e-11
-0.00150143 0.000450082 0.000450578 -2.00722e-05
-0.0012582 0.00037679 0.000377748 -3.70628e-05
-0.00151835 0.000455149 0.000455657 -2.00723e-05
-0.00150989 0.000452615 0.000453117 -2.00723e-05
-0.00175167 0.000525526 0.00052549 4.71078e-11
-0.00173194 0.000519608 0.000519572 4.65846e-11
-0.00123704 0.000370465 0.000371391 -3.70624e-05
-0.00125115 0.000374682 0.000375629 -3.70627e-05
-0.00174181 0.000522567 0.000522531 4.68268e-11
-0.00148452 0.000445016 0.0004455 -2.00722e-05
-0.0012441 0.000372574 0.00037351 -3.70626e-05
-0.00150143 0.000450082 0.000450578 -2.00722e-05
-0.00149297 0.000447549 0.000448039 -2.00722e-05
-0.00173194 0.000519608 0.000519572 4.65847e-11
-0.00171222 0.00051369 0.000513655 4.60276e-11
-0.00122294 0.000366249 0.000367153 -3.70622e-05
-0.00123704 0.000370465 0.000371391 -3.70624e-05
-0.00172208 0.000516649 0.000516613 4.63153e-11
-0.0014676 0.000439949 0.000440422 -2.00721e-05
-0.00122999 0.000368357 0.000369272 -3.70623e-05
-0.00148452 0.000445016 0.0004455 -2.00722e-05
-0.00147606 0.000442482 0.000442961 -2.00721e-05
-0.00171222 0.00051369 0.000513655 4.60276e-11
-0.00169249 0.000507773 0.000507737 4.54953e-11
-0.00120884 0.000362033 0.000362916 -3.7062e-05
-0.00122294 0.000366249 0.000367153 -3.70622e-05
-0.00170236 0.000510732 0.000510696 4.57448e-11
-0.00145069 0.000434883 0.000435344 -2.0072e-05
-0.00121589 0.000364141 0.000365035 -3.70621e-05
-0.0014676 0.000439949 0.000440422 -2.00721e-05
-0.00145914 0.000437416 0.000437883 -2.0072e-05
-0.00169249 0.000507773 0.000507737 4.54953e-11
-0.00167277 0.000501855 0.00050182 4.49549e-11
-0.00119473 0.000357817 0.000358678 -3.70618e-05
-0.00120884 0.000362033 0.000362916 -3.7062e-05
-0.00168263 0.000504814 0.000504778 4.52008e-11
-0.00143377 0.000429816 0.000430266 -2.00719e-05
-0.00120178 0.000359925 0.000360797 -3.70619e-05
-0.00145069 0.000434883 0.000435344 -2.0072e-05
-0.00144223 0.00043235 0.000432805 -2.0072e-05
-0.00167277 0.000501855 0.00050182 4.49546e-11
-0.00165304 0.000495938 0.000495903 4.44206e-11
-0.00118063 0.0003536 0.000354441 -3.70616e-05
-0.00119473 0.000357817 0.000358678 -3.70618e-05
-0.00166291 0.000498897 0.000498861 4.46833e-11
-0.00141686 0.00042475 0.000425189 -2.00718e-05
-0.00118768 0.000355708 0.00035656 -3.70617e-05
-0.00143377 0.000429816 0.000430266 -2.00719e-05
-0.00142531 0.000427283 0.000427728 -2.00719e-05
-0.00165304 0.000495938 0.000495903 4.44008e-11
-0.00163332 0.000490021 0.000489986 4.38737e-11
-0.00116653 0.000349384 0.000350204 -3.70614e-05
-0.00118063 0.0003536 0.000354441 -3.70616e-05
-0.00164318 0.00049298 0.000492944 4.413e-11
-0.00139994 0.000419684 0.000420111 -2.00718e-05
-0.00117358 0.000351492 0.000352323 -3.70615e-05
-0.00141686 0.00042475 0.000425189 -2.00718e-05
-0.0014084 0.000422217 0.00042265 -2.00718e-05
-0.00163332 0.000490021 0.000489986 4.38737e-11
-0.0016136 0.000484104 0.000484069 4.33534e-11
-0.00115243 0.000345168 0.000345968 -3.70612e-05
-0.00116653 0.000349384 0.000350204 -3.70614e-05
-0.00162346 0.000487063 0.000487027 4.35884e-11
-0.00138303 0.000414617 0.000415034 -2.00717e-05
-0.00115948 0.000347276 0.000348086 -3.70613e-05
-0.00139994 0.000419684 0.000420111 -2.00718e-05
-0.00139149 0.000417151 0.000417573 -2.00717e-05
-0.0016136 0.000484104 0.000484069 4.33534e-11
-0.00159388 0.000478187 0.000478152 4.27951e-11
-0.00113832 0.000340951 0.000341731 -3.7061e-05
-0.00115243 0.000345168 0.000345968 -3.70612e-05
-0.00160374 0.000481146 0.00048111 4.3076e-11
-0.00136612 0.000409551 0.000409957 -2.00716e-05
-0.00114537 0.000343059 0.000343849 -3.70611e-05
-0.00138303 0.000414617 0.000415034 -2.00717e-05
-0.00137457 0.000412084 0.000412496 -2.00717e-05
-0.00159388 0.000478187 0.000478152 4.28214e-11
-0.00157415 0.00047227 0.000472235 4.227e-11
-0.00112422 0.000336735 0.000337495 -3.70608e-05
-0.00113832 0.000340951 0.000341731 -3.7061e-05
-0.00158401 0.000475229 0.000475194 4.25509e-11
-0.00134921 0.000404485 0.00040488 -2.00716e-05
-0.00113127 0.000338843 0.000339613 -3.70609e-05
-0.00136612 0.000409551 0.000409957 -2.00716e-05
-0.00135766 0.000407018 0.000407419 -2.00716e-05
-0.00157415 0.00047227 0.000472235 4.227e-11
-0.00155443 0.000466354 0.000466319 4.17139e-11
-0.00111012 0.000332518 0.000333259 -3.70606e-05
-0.00112422 0.000336735 0.000337495 -3.70608e-05
-0.00156429 0.000469312 0.000469277 4.19838e-11
-0.00133229 0.000399419 0.000399804 -2.00715e-05
-0.00111717 0.000334626 0.000335377 -3.70607e-05
-0.00134921 0.000404485 0.00040488 -2.00716e-05
-0.00134075 0.000401952 0.000402342 -2.00715e-05
-0.00155443 0.000466354 0.000466319 4.17139e-11
-0.00153471 0.000460437 0.000460402 4.12104e-11
-0.00109602 0.000328302 0.000329023 -3.70604e-05
-0.00111012 0.000332518 0.000333259 -3.70606e-05
-0.00154457 0.000463395 0.000463361 4.14781e-11
-0.00131538 0.000394353 0.000394727 -2.00714e-05
-0.00110307 0.00033041 0.000331141 -3.70605e-05
-0.00133229 0.000399419 0.000399804 -2.00715e-05
-0.00132384 0.000396886 0.000397266 -2.00715e-05
-0.00153471 0.000460437 0.000460402 4.12104e-11
-0.00151499 0.000454521 0.000454486 4.06674e-11
-0.00108192 0.000324085 0.000324788 -3.70602e-05
-0.00109602 0.000328302 0.000329023 -3.70604e-05
-0.00152485 0.000457479 0.000457444 4.09203e-11
-0.00129847 0.000389287 0.000389651 -2.00714e-05
-0.00108897 0.000326193 0.000326905 -3.70603e-05
-0.00131538 0.000394353 0.000394727 -2.00714e-05
-0.00130693 0.00039182 0.000392189 -2.00714e-05
-0.00151499 0.000454521 0.000454486 4.06671e-11
-0.00149527 0.000448604 0.00044857 4.01427e-11
-0.00106782 0.000319868 0.000320552 -3.70601e-05
-0.00108192 0.000324085 0.000324788 -3.70602e-05
-0.00150513 0.000451563 0.000451528 4.04136e-11
-0.00128156 0.000384221 0.000384575 -2.00713e-05
-0.00107487 0.000321977 0.00032267 -3.70601e-05
-0.00129847 0.000389287 0.000389651 -2.00714e-05
-0.00129002 0.000386754 0.000387113 -2.00713e-05
-0.00149527 0.000448604 0.00044857 4.01358e-11
-0.00147555 0.000442688 0.000442654 3.95963e-11
-0.00105372 0.000315652 0.000316317 -3.70599e-05
-0.00106782 0.000319868 0.000320552 -3.70601e-05
-0.00148541 0.000445646 0.000445612 3.98842e-11
-0.00126465 0.000379155 0.000379499 -2.00713e-05
-0.00106077 0.00031776 0.000318435 -3.706e-05
-0.00128156 0.000384221 0.000384575 -2.00713e-05
-0.00127311 0.000381688 0.000382037 -2.00713e-05
-0.00147555 0.000442688 0.000442654 3.95963e-11
-0.00145583 0.000436772 0.000436738 3.90543e-11
-0.00103963 0.000311435 0.000312082 -3.70597e-05
-0.00105372 0.000315652 0.000316317 -3.70599e-05
-0.00146569 0.00043973 0.000439696 3.93156e-11
-0.00124774 0.000374089 0.000374423 -2.00712e-05
-0.00104668 0.000313543 0.000314199 -3.70598e-05
-0.00126465 0.000379155 0.000379499 -2.00713e-05
-0.0012562 0.000376622 0.000376961 -2.00712e-05
-0.00145583 0.000436772 0.000436738 3.90543e-11
-0.00143611 0.000430856 0.000430822 3.85106e-11
-0.00102553 0.000307218 0.000307847 -3.70596e-05
-0.00103963 0.000311435 0.000312082 -3.70597e-05
-0.00144597 0.000433814 0.00043378 3.87775e-11
-0.00123083 0.000369023 0.000369348 -2.00712e-05
-0.00103258 0.000309327 0.000309965 -3.70596e-05
-0.00124774 0.000374089 0.000374423 -2.00712e-05
-0.00123929 0.000371556 0.000371885 -2.00712e-05
-0.00143611 0.000430856 0.000430822 3.85109e-11
-0.00141639 0.000424941 0.000424907 3.80212e-11
-0.00101143 0.000303002 0.000303613 -3.70594e-05
-0.00102553 0.000307218 0.000307847 -3.70596e-05
-0.00142625 0.000427898 0.000427865 3.82705e-11
-0.00121393 0.000363957 0.000364272 -2.00711e-05
-0.00101848 0.00030511 0.00030573 -3.70595e-05
-0.00123083 0.000369023 0.000369348 -2.00712e-05
-0.00122238 0.00036649 0.00036681 -2.00711e-05
-0.00141639 0.000424941 0.000424907 3.8021e-11
-0.00139667 0.000419025 0.000418991 3.74496e-11
-0.000997334 0.000298785 0.000299378 -3.70593e-05
-0.00101143 0.000303002 0.000303613 -3.70594e-05
-0.00140653 0.000421983 0.000421949 3.77307e-11
-0.00119702 0.000358891 0.000359197 -2.00711e-05
-0.00100438 0.000300893 0.000301495 -3.70593e-05
-0.00121393 0.000363957 0.000364272 -2.00711e-05
-0.00120547 0.000361424 0.000361734 -2.00711e-05
-0.00139667 0.000419025 0.000418991 3.74496e-11
-0.00137695 0.000413109 0.000413076 3.69436e-11
-0.000983238 0.000294568 0.000295144 -3.70591e-05
-0.000997334 0.000298785 0.000299378 -3.70593e-05
-0.00138681 0.000416067 0.000416034 3.71671e-11
-0.00118011 0.000353825 0.000354122 -2.0071e-05
-0.000990286 0.000296677 0.000297261 -3.70592e-05
-0.00119702 0.000358891 0.000359197 -2.00711e-05
-0.00118856 0.000356358 0.000356659 -2.0071e-05
-0.00137695 0.000413109 0.000413076 3.69436e-11
-0.00135724 0.000407194 0.000407161 3.63888e-11
-0.000969142 0.000290351 0.00029091 -3.7059e-05
-0.000983238 0.000294568 0.000295144 -3.70591e-05
-0.00136709 0.000410152 0.000410118 3.66529e-11
-0.0011632 0.00034876 0.000349047 -2.0071e-05
-0.00097619 0.00029246 0.000293027 -3.7059e-05
-0.00118011 0.000353825 0.000354122 -2.0071e-05
-0.00117166 0.000351292 0.000351584 -2.0071e-05
-0.00135724 0.000407194 0.000407161 3.6389e-11
-0.00133752 0.000401279 0.000401245 3.58973e-11
-0.000955046 0.000286134 0.000286677 -3.70588e-05
-0.000969142 0.000290351 0.00029091 -3.7059e-05
-0.00134738 0.000404236 0.000404203 3.61401e-11
-0.0011463 0.000343694 0.000343972 -2.0071e-05
-0.000962094 0.000288243 0.000288793 -3.70589e-05
-0.0011632 0.00034876 0.000349047 -2.0071e-05
-0.00115475 0.000346227 0.000346509 -2.0071e-05
-0.00133752 0.000401279 0.000401245 3.58674e-11
-0.0013178 0.000395363 0.00039533 3.53159e-11
-0.000940951 0.000281917 0.000282443 -3.70587e-05
-0.000955046 0.000286134 0.000286677 -3.70588e-05
-0.00132766 0.000398321 0.000398288 3.55957e-11
-0.00112939 0.000338628 0.000338897 -2.00709e-05
-0.000947999 0.000284026 0.00028456 -3.70588e-05
-0.0011463 0.000343694 0.000343972 -2.0071e-05
-0.00113784 0.000341161 0.000341435 -2.00709e-05
-0.0013178 0.000395363 0.00039533 3.53159e-11
-0.00129808 0.000389448 0.000389415 3.48014e-11
-0.000926857 0.000277701 0.00027821 -3.70586e-05
-0.000940951 0.000281917 0.000282443 -3.70587e-05
-0.00130794 0.000392406 0.000392373 3.50401e-11
-0.00111248 0.000333563 0.000333823 -2.00709e-05
-0.000933904 0.000279809 0.000280326 -3.70586e-05
-0.00112939 0.000338628 0.000338897 -2.00709e-05
-0.00112094 0.000336095 0.00033636 -2.00709e-05
-0.00129808 0.000389448 0.000389415 3.48014e-11
-0.00127837 0.000383533 0.000383501 3.42882e-11
-0.000912763 0.000273484 0.000273977 -3.70584e-05
-0.000926857 0.000277701 0.00027821 -3.70586e-05
-0.00128823 0.000386491 0.000386458 3.45364e-11
-0.00109558 0.000328497 0.000328749 -2.00709e-05
-0.00091981 0.000275592 0.000276093 -3.70585e-05
-0.00111248 0.000333563 0.000333823 -2.00709e-05
-0.00110403 0.00033103 0.000331286 -2.00709e-05
-0.00127837 0.000383533 0.000383501 3.42581e-11
-0.00125865 0.000377618 0.000377586 3.37368e-11
-0.000898669 0.000269266 0.000269744 -3.70583e-05
-0.000912763 0.000273484 0.000273977 -3.70584e-05
-0.00126851 0.000380576 0.000380543 3.40239e-11
-0.00107867 0.000323431 0.000323675 -2.00708e-05
-0.000905716 0.000271375 0.00027186 -3.70584e-05
-0.00109558 0.000328497 0.000328749 -2.00709e-05
-0.00108712 0.000325964 0.000326212 -2.00708e-05
-0.00125865 0.000377618 0.000377586 3.37363e-11
-0.00123894 0.000371704 0.000371671 3.32073e-11
-0.000884575 0.000265049 0.000265511 -3.70582e-05
-0.000898669 0.000269266 0.000269744 -3.70583e-05
-0.00124879 0.000374661 0.000374629 3.34864e-11
-0.00106177 0.000318366 0.000318601 -2.00708e-05
-0.000891622 0.000267158 0.000267627 -3.70583e-05
-0.00107867 0.000323431 0.000323675 -2.00708e-05
-0.00107022 0.000320898 0.000321138 -2.00708e-05
-0.00123894 0.000371704 0.000371671 3.32073e-11
-0.00121922 0.000365789 0.000365757 3.26694e-11
-0.000870483 0.000260832 0.000261279 -3.70581e-05
-0.000884575 0.000265049 0.000265511 -3.70582e-05
-0.00122908 0.000368746 0.000368714 3.29504e-11
-0.00104486 0.0003133 0.000313527 -2.00708e-05
-0.000877529 0.000262941 0.000263395 -3.70582e-05
-0.00106177 0.000318366 0.000318601 -2.00708e-05
-0.00105332 0.000315833 0.000316064 -2.00708e-05
-0.00121922 0.000365789 0.000365757 3.26694e-11
-0.00119951 0.000359875 0.000359842 3.21552e-11
-0.00085639 0.000256615 0.000257046 -3.7058e-05
-0.000870483 0.000260832 0.000261279 -3.70581e-05
-0.00120936 0.000362832 0.0003628 3.24088e-11
-0.00102796 0.000308235 0.000308453 -2.00708e-05
-0.000863436 0.000258724 0.000259163 -3.70581e-05
-0.00104486 0.0003133 0.000313527 -2.00708e-05
-0.00103641 0.000310767 0.00031099 -2.00708e-05
-0.00119951 0.000359875 0.000359842 3.21553e-11
-0.00117979 0.00035396 0.000353928 3.1601e-11
-0.000842298 0.000252398 0.000252814 -3.70579e-05
-0.00085639 0.000256615 0.000257046 -3.7058e-05
-0.00118965 0.000356917 0.000356885 3.18486e-11
-0.00101106 0.000303169 0.00030338 -2.00708e-05
-0.000849344 0.000254506 0.00025493 -3.7058e-05
-0.00102796 0.000308235 0.000308453 -2.00708e-05
-0.00101951 0.000305702 0.000305917 -2.00708e-05
-0.00117979 0.00035396 0.000353928 3.16372e-11
-0.00116008 0.000348046 0.000348014 3.1086e-11
-0.000828207 0.000248181 0.000248583 -3.70578e-05
-0.000842298 0.000252398 0.000252814 -3.70579e-05
-0.00116994 0.000351003 0.000350971 3.13305e-11
-0.000994152 0.000298104 0.000298307 -2.00708e-05
-0.000835252 0.000250289 0.000250698 -3.70579e-05
-0.00101106 0.000303169 0.00030338 -2.00708e-05
-0.0010026 0.000300636 0.000300843 -2.00708e-05
-0.00116008 0.000348046 0.000348014 3.1086e-11
-0.00114036 0.000342132 0.0003421 3.05433e-11
-0.000814115 0.000243963 0.000244351 -3.70577e-05
-0.000828207 0.000248181 0.000248583 -3.70578e-05
-0.00115022 0.000345089 0.000345057 3.07848e-11
-0.00097725 0.000293038 0.000293233 -2.00707e-05
-0.000821161 0.000246072 0.000246467 -3.70578e-05
-0.000994152 0.000298104 0.000298307 -2.00708e-05
-0.000985701 0.000295571 0.00029577 -2.00707e-05
-0.00114036 0.000342132 0.0003421 3.05433e-11
-0.00112065 0.000336217 0.000336186 3.00477e-11
-0.000800025 0.000239746 0.000240119 -3.70577e-05
-0.000814115 0.000243963 0.000244351 -3.70577e-05
-0.00113051 0.000339175 0.000339143 3.03056e-11
-0.000960347 0.000287973 0.000288161 -2.00707e-05
-0.00080707 0.000241855 0.000242235 -3.70577e-05
-0.00097725 0.000293038 0.000293233 -2.00707e-05
-0.000968799 0.000290506 0.000290697 -2.00707e-05
-0.00112065 0.000336217 0.000336186 3.00283e-11
-0.00110094 0.000330303 0.000330272 2.94854e-11
-0.000785934 0.000235529 0.000235888 -3.70576e-05
-0.000800025 0.000239746 0.000240119 -3.70577e-05
-0.0011108 0.00033326 0.000333229 2.97869e-11
-0.000943446 0.000282907 0.000283088 -2.00707e-05
-0.00079298 0.000237637 0.000238004 -3.70576e-05
-0.000960347 0.000287973 0.000288161 -2.00707e-05
-0.000951896 0.00028544 0.000285624 -2.00707e-05
-0.00110094 0.000330303 0.000330272 2.94854e-11
-0.00108123 0.00032439 0.000324359 2.89796e-11
-0.000771845 0.000231311 0.000231657 -3.70575e-05
-0.000785934 0.000235529 0.000235888 -3.70576e-05
-0.00109108 0.000327347 0.000327315 2.91944e-11
-0.000926544 0.000277842 0.000278015 -2.00707e-05
-0.000778889 0.00023342 0.000233773 -3.70576e-05
-0.000943446 0.000282907 0.000283088 -2.00707e-05
-0.000934995 0.000280375 0.000280551 -2.00707e-05
-0.00108123 0.00032439 0.000324359 2.89796e-11
-0.00106151 0.000318476 0.000318445 2.84294e-11
-0.000757755 0.000227094 0.000227426 -3.70575e-05
-0.000771845 0.000231311 0.000231657 -3.70575e-05
-0.00107137 0.000321433 0.000321402 2.87243e-11
-0.000909643 0.000272777 0.000272943 -2.00708e-05
-0.0007648 0.000229202 0.000229542 -3.70575e-05
-0.000926544 0.000277842 0.000278015 -2.00707e-05
-0.000918093 0.000275309 0.000275479 -2.00707e-05
-0.00106151 0.000318476 0.000318445 2.84294e-11
-0.0010418 0.000312562 0.000312531 2.79011e-11
-0.000743666 0.000222876 0.000223196 -3.70574e-05
-0.000757755 0.000227094 0.000227426 -3.70575e-05
-0.00105166 0.000315519 0.000315488 2.81764e-11
-0.000892742 0.000267711 0.00026787 -2.00708e-05
-0.000750711 0.000224985 0.000225311 -3.70574e-05
-0.000909643 0.000272777 0.000272943 -2.00708e-05
-0.000901192 0.000270244 0.000270406 -2.00708e-05
-0.0010418 0.000312562 0.000312531 2.79011e-11
-0.00102209 0.000306649 0.000306618 2.73619e-11
-0.000729577 0.000218658 0.000218965 -3.70574e-05
-0.000743666 0.000222876 0.000223196 -3.70574e-05
-0.00103195 0.000309605 0.000309575 2.76942e-11
-0.000875842 0.000262646 0.000262798 -2.00708e-05
-0.000736622 0.000220767 0.00022108 -3.70574e-05
-0.000892742 0.000267711 0.00026787 -2.00708e-05
-0.000884292 0.000265179 0.000265334 -2.00708e-05
-0.00102209 0.000306649 0.000306618 2.7359e-11
-0.00100238 0.000300735 0.000300705 2.68666e-11
-0.000715489 0.000214441 0.000214735 -3.70573e-05
-0.000729577 0.000218658 0.000218965 -3.70574e-05
-0.00101223 0.000303692 0.000303661 2.70865e-11
-0.000858942 0.000257581 0.000257726 -2.00708e-05
-0.000722533 0.00021655 0.00021685 -3.70574e-05
-0.000875842 0.000262646 0.000262798 -2.00708e-05
-0.000867392 0.000260114 0.000260262 -2.00708e-05
-0.00100238 0.000300735 0.000300705 2.68666e-11
-0.000982669 0.000294822 0.000294792 2.63333e-11
-0.000701401 0.000210223 0.000210505 -3.70573e-05
-0.000715489 0.000214441 0.000214735 -3.70573e-05
-0.000992524 0.000297778 0.000297748 2.65714e-11
-0.000842042 0.000252516 0.000252654 -2.00708e-05
-0.000708445 0.000212332 0.00021262 -3.70573e-05
-0.000858942 0.000257581 0.000257726 -2.00708e-05
-0.000850492 0.000255048 0.00025519 -2.00708e-05
-0.000982669 0.000294822 0.000294792 2.635e-11
-0.000962958 0.000288908 0.000288878 2.58043e-11
-0.000687314 0.000206005 0.000206275 -3.70573e-05
-0.000701401 0.000210223 0.000210505 -3.70573e-05
-0.000972813 0.000291865 0.000291835 2.60859e-11
-0.000825143 0.00024745 0.000247583 -2.00708e-05
-0.000694358 0.000208114 0.00020839 -3.70573e-05
-0.000842042 0.000252516 0.000252654 -2.00708e-05
-0.000833593 0.000249983 0.000250118 -2.00708e-05
-0.000962958 0.000288908 0.000288878 2.58043e-11
-0.000943248 0.000282995 0.000282965 2.52801e-11
-0.000673227 0.000201788 0.000202045 -3.70573e-05
-0.000687314 0.000206005 0.000206275 -3.70573e-05
-0.000953103 0.000285952 0.000285922 2.55139e-11
-0.000808244 0.000242385 0.000242511 -2.00709e-05
-0.000680271 0.000203897 0.00020416 -3.70573e-05
-0.000825143 0.00024745 0.000247583 -2.00708e-05
-0.000816694 0.000244918 0.000245047 -2.00709e-05
-0.000943248 0.000282995 0.000282965 2.52801e-11
-0.000923538 0.000277082 0.000277053 2.47566e-11
-0.000659141 0.00019757 0.000197816 -3.70572e-05
-0.000673227 0.000201788 0.000202045 -3.70573e-05
-0.000933393 0.000280039 0.000280009 2.50312e-11
-0.000791346 0.00023732 0.00023744 -2.00709e-05
-0.000666184 0.000199679 0.000199931 -3.70573e-05
-0.000808244 0.000242385 0.000242511 -2.00709e-05
-0.000799795 0.000239853 0.000239975 -2.00709e-05
-0.000923538 0.000277082 0.000277053 2.47566e-11
-0.000903828 0.000271169 0.00027114 2.42085e-11
-0.000645054 0.000193352 0.000193587 -3.70572e-05
-0.000659141 0.00019757 0.000197816 -3.70572e-05
-0.000913683 0.000274126 0.000274096 2.4474e-11
-0.000774448 0.000232255 0.000232368 -2.00709e-05
-0.000652097 0.000195461 0.000195701 -3.70572e-05
-0.000791346 0.00023732 0.00023744 -2.00709e-05
-0.000782897 0.000234787 0.000234904 -2.00709e-05
-0.000903828 0.000271169 0.00027114 2.42319e-11
-0.000884119 0.000265256 0.000265227 2.36917e-11
-0.000630969 0.000189134 0.000189358 -3.70572e-05
-0.000645054 0.000193352 0.000193587 -3.70572e-05
-0.000893974 0.000268213 0.000268183 2.39705e-11
-0.00075755 0.00022719 0.000227297 -2.0071e-05
-0.000638011 0.000191243 0.000191472 -3.70572e-05
-0.000774448 0.000232255 0.000232368 -2.00709e-05
-0.000765999 0.000229722 0.000229833 -2.00709e-05
-0.000884119 0.000265256 0.000265227 2.36917e-11
-0.00086441 0.000259343 0.000259314 2.31562e-11
-0.000616883 0.000184916 0.000185129 -3.70573e-05
-0.000630969 0.000189134 0.000189358 -3.70572e-05
-0.000874265 0.0002623 0.000262271 2.33916e-11
-0.000740652 0.000222124 0.000222226 -2.0071e-05
-0.000623926 0.000187025 0.000187243 -3.70572e-05
-0.00075755 0.00022719 0.000227297 -2.0071e-05
-0.000749101 0.000224657 0.000224762 -2.0071e-05
-0.00086441 0.000259343 0.000259314 2.31562e-11
-0.000844702 0.000253431 0.000253402 2.26415e-11
-0.000602798 0.000180698 0.0001809 -3.70573e-05
-0.000616883 0.000184916 0.000185129 -3.70573e-05
-0.000854556 0.000256387 0.000256358 2.29367e-11
-0.000723755 0.000217059 0.000217155 -2.00711e-05
-0.000609841 0.000182807 0.000183014 -3.70573e-05
-0.000740652 0.000222124 0.000222226 -2.0071e-05
-0.000732204 0.000219592 0.000219691 -2.0071e-05
-0.000844702 0.000253431 0.000253402 2.26383e-11
-0.000824993 0.000247518 0.000247489 2.21479e-11
-0.000588714 0.00017648 0.000176672 -3.70573e-05
-0.000602798 0.000180698 0.0001809 -3.70573e-05
-0.000834848 0.000250474 0.000250446 2.23763e-11
-0.000706859 0.000211994 0.000212085 -2.00711e-05
-0.000595756 0.000178589 0.000178786 -3.70573e-05
-0.000723755 0.000217059 0.000217155 -2.00711e-05
-0.000715307 0.000214527 0.00021462 -2.00711e-05
-0.000824993 0.000247518 0.000247489 2.21477e-11
-0.000805286 0.000241606 0.000241577 2.16003e-11
-0.000574629 0.000172262 0.000172443 -3.70573e-05
-0.000588714 0.00017648 0.000176672 -3.70573e-05
-0.000815139 0.000244562 0.000244533 2.18461e-11
-0.000689962 0.000206929 0.000207014 -2.00712e-05
-0.000581671 0.000174371 0.000174557 -3.70573e-05
-0.000706859 0.000211994 0.000212085 -2.00711e-05
-0.00069841 0.000209462 0.00020955 -2.00711e-05
-0.000805286 0.000241606 0.000241577 2.16003e-11
-0.000785578 0.000235693 0.000235665 2.1064e-11
-0.000560546 0.000168043 0.000168215 -3.70574e-05
-0.000574629 0.000172262 0.000172443 -3.70573e-05
-0.000795432 0.000238649 0.000238621 2.13642e-11
-0.000673066 0.000201864 0.000201944 -2.00712e-05
-0.000567587 0.000170152 0.000170329 -3.70573e-05
-0.000689962 0.000206929 0.000207014 -2.00712e-05
-0.000681514 0.000204396 0.000204479 -2.00712e-05
-0.000785578 0.000235693 0.000235665 2.1064e-11
-0.00076587 0.000229781 0.000229753 2.05307e-11
-0.000546462 0.000163825 0.000163987 -3.70574e-05
-0.000560546 0.000168043 0.000168215 -3.70574e-05
-0.000775724 0.000232737 0.000232709 2.08304e-11
-0.000656171 0.000196799 0.000196874 -2.00713e-05
-0.000553504 0.000165934 0.000166101 -3.70574e-05
-0.000673066 0.000201864 0.000201944 -2.00712e-05
-0.000664618 0.000199331 0.000199409 -2.00712e-05
-0.00076587 0.000229781 0.000229753 2.05311e-11
-0.000746163 0.000223869 0.000223841 2.0007e-11
-0.000532379 0.000159607 0.00015976 -3.70574e-05
-0.000546462 0.000163825 0.000163987 -3.70574e-05
-0.000756017 0.000226825 0.000226797 2.03025e-11
-0.000639275 0.000191734 0.000191804 -2.00713e-05
-0.000539421 0.000161716 0.000161873 -3.70574e-05
-0.000656171 0.000196799 0.000196874 -2.00713e-05
-0.000647723 0.000194266 0.000194339 -2.00713e-05
-0.000746163 0.000223869 0.000223841 2.00269e-11
-0.000726457 0.000217956 0.000217929 1.94524e-11
-0.000518296 0.000155388 0.000155532 -3.70575e-05
-0.000532379 0.000159607 0.00015976 -3.70574e-05
-0.00073631 0.000220912 0.000220885 1.97741e-11
-0.00062238 0.000186669 0.000186734 -2.00714e-05
-0.000525338 0.000157497 0.000157646 -3.70575e-05
-0.000639275 0.000191734 0.000191804 -2.00713e-05
-0.000630828 0.000189201 0.000189269 -2.00714e-05
-0.000726457 0.000217956 0.000217929 1.94524e-11
-0.00070675 0.000212044 0.000212017 1.89392e-11
-0.000504214 0.00015117 0.000151305 -3.70576e-05
-0.000518296 0.000155388 0.000155532 -3.70575e-05
-0.000716603 0.000215 0.000214973 1.92533e-11
-0.000605486 0.000181603 0.000181664 -2.00715e-05
-0.000511255 0.000153279 0.000153418 -3.70575e-05
-0.00062238 0.000186669 0.000186734 -2.00714e-05
-0.000613933 0.000184136 0.000184199 -2.00714e-05
-0.00070675 0.000212044 0.000212017 1.89392e-11
-0.000687044 0.000206132 0.000206105 1.83687e-11
-0.000490132 0.000146951 0.000147078 -3.70576e-05
-0.000504214 0.00015117 0.000151305 -3.70576e-05
-0.000696897 0.000209088 0.000209061 1.86686e-11
-0.000588592 0.000176538 0.000176594 -2.00716e-05
-0.000497173 0.00014906 0.000149191 -3.70576e-05
-0.000605486 0.000181603 0.000181664 -2.00715e-05
-0.000597039 0.000179071 0.000179129 -2.00715e-05
-0.000687044 0.000206132 0.000206105 1.83917e-11
-0.000667338 0.00020022 0.000200193 1.78494e-11
-0.00047605 0.000142733 0.000142851 -3.70577e-05
-0.000490132 0.000146951 0.000147078 -3.70576e-05
-0.000677191 0.000203176 0.000203149 1.80662e-11
-0.000571698 0.000171473 0.000171525 -2.00716e-05
-0.000483091 0.000144842 0.000144964 -3.70577e-05
-0.000588592 0.000176538 0.000176594 -2.00716e-05
-0.000580145 0.000174006 0.000174059 -2.00716e-05
-0.000667338 0.00020022 0.000200193 1.78492e-11
-0.000647632 0.000194308 0.000194282 1.72167e-11
-0.000461969 0.000138514 0.000138624 -3.70578e-05
-0.00047605 0.000142733 0.000142851 -3.70577e-05
-0.000657485 0.000197264 0.000197237 1.75225e-11
-0.000554804 0.000166408 0.000166455 -2.00717e-05
-0.00046901 0.000140623 0.000140737 -3.70578e-05
-0.000571698 0.000171473 0.000171525 -2.00716e-05
-0.000563251 0.000168941 0.00016899 -2.00717e-05
-0.000647632 0.000194308 0.000194282 1.72167e-11
-0.000627927 0.000188397 0.00018837 1.66291e-11
-0.000447888 0.000134295 0.000134397 -3.70579e-05
-0.000461969 0.000138514 0.000138624 -3.70578e-05
-0.000637779 0.000191353 0.000191326 1.6941e-11
-0.000537911 0.000161343 0.000161386 -2.00718e-05
-0.000454929 0.000136405 0.00013651 -3.70578e-05
-0.000554804 0.000166408 0.000166455 -2.00717e-05
-0.000546357 0.000163876 0.000163921 -2.00718e-05
-0.000627927 0.000188397 0.00018837 1.66291e-11
-0.000608222 0.000182485 0.000182459 1.60049e-11
-0.000433808 0.000130076 0.000130171 -3.7058e-05
-0.000447888 0.000134295 0.000134397 -3.70579e-05
-0.000618074 0.000185441 0.000185414 1.62902e-11
-0.000521018 0.000156278 0.000156317 -2.00719e-05
-0.000440848 0.000132186 0.000132284 -3.70579e-05
-0.000537911 0.000161343 0.000161386 -2.00718e-05
-0.000529464 0.000158811 0.000158851 -2.00719e-05
-0.000608222 0.000182485 0.000182459 1.60049e-11
-0.000588517 0.000176573 0.000176547 1.53002e-11
-0.000419728 0.000125857 0.000125944 -3.70581e-05
-0.000433808 0.000130076 0.000130171 -3.7058e-05
-0.000598369 0.000179529 0.000179503 1.56188e-11
-0.000504125 0.000151213 0.000151248 -2.0072e-05
-0.000426768 0.000127967 0.000128058 -3.7058e-05
-0.000521018 0.000156278 0.000156317 -2.00719e-05
-0.000512571 0.000153746 0.000153782 -2.00719e-05
-0.000588517 0.000176573 0.000176547 1.52709e-11
-0.000568812 0.000170662 0.000170636 1.44922e-11
-0.000405648 0.000121639 0.000121718 -3.70582e-05
-0.000419728 0.000125857 0.000125944 -3.70581e-05
-0.000578664 0.000173618 0.000173591 1.48632e-11
-0.000487233 0.000146148 0.000146179 -2.00721e-05
-0.000412688 0.000123748 0.000123831 -3.70581e-05
-0.000504125 0.000151213 0.000151248 -2.0072e-05
-0.000495679 0.00014868 0.000148714 -2.0072e-05
-0.000568812 0.000170662 0.000170636 1.44922e-11
-0.000549108 0.00016475 0.000164725 1.36517e-11
-0.000391569 0.000117419 0.000117492 -3.70582e-05
-0.000405648 0.000121639 0.000121718 -3.70582e-05
-0.00055896 0.000167706 0.00016768 1.40465e-11
-0.000470341 0.000141083 0.00014111 -2.00721e-05
-0.000398608 0.000119529 0.000119605 -3.70582e-05
-0.000487233 0.000146148 0.000146179 -2.00721e-05
-0.000478787 0.000143615 0.000143645 -2.00721e-05
-0.000549108 0.00016475 0.000164725 1.36517e-11
-0.000529404 0.000158839 0.000158813 1.27036e-11
-0.00037749 0.0001132 0.000113267 -3.70583e-05
-0.000391569 0.000117419 0.000117492 -3.70582e-05
-0.000539256 0.000161795 0.000161769 1.31743e-11
-0.000453449 0.000136018 0.000136042 -2.00722e-05
-0.000384529 0.00011531 0.00011538 -3.70583e-05
-0.000470341 0.000141083 0.00014111 -2.00721e-05
-0.000461895 0.00013855 0.000138576 -2.00722e-05
-0.000529404 0.000158839 0.000158813 1.27628e-11
-0.0005097 0.000152928 0.000152902 1.18237e-11
-0.000363411 0.000108981 0.000109041 -3.70583e-05
-0.00037749 0.0001132 0.000113267 -3.70583e-05
-0.000519552 0.000155883 0.000155858 1.22176e-11
-0.000436557 0.000130953 0.000130973 -2.00723e-05
-0.00037045 0.000111091 0.000111154 -3.70583e-05
-0.000453449 0.000136018 0.000136042 -2.00722e-05
-0.000445003 0.000133485 0.000133508 -2.00722e-05
-0.0005097 0.000152928 0.000152902 1.18234e-11
-0.000489996 0.000147016 0.000146991 1.09631e-11
-0.000349333 0.000104762 0.000104816 -3.70584e-05
-0.000363411 0.000108981 0.000109041 -3.70583e-05
-0.000499848 0.000149972 0.000149947 1.13306e-11
-0.000419666 0.000125888 0.000125905 -2.00723e-05
-0.000356372 0.000106872 0.000106929 -3.70584e-05
-0.000436557 0.000130953 0.000130973 -2.00723e-05
-0.000428112 0.00012842 0.000128439 -2.00723e-05
-0.000489996 0.000147016 0.000146991 1.09631e-11
-0.000470293 0.000141105 0.000141081 1.05512e-11
-0.000335255 0.000100543 0.000100591 -3.70584e-05
-0.000349333 0.000104762 0.000104816 -3.70584e-05
-0.000480145 0.000144061 0.000144036 1.05887e-11
-0.000402776 0.000120823 0.000120837 -2.00723e-05
-0.000342294 0.000102652 0.000102703 -3.70584e-05
-0.000419666 0.000125888 0.000125905 -2.00723e-05
-0.000411221 0.000123355 0.000123371 -2.00723e-05
-0.000470293 0.000141105 0.000141081 1.05512e-11
-0.00045059 0.000135194 0.00013517 1.04676e-11
-0.000321177 9.63234e-05 9.63659e-05 -3.70583e-05
-0.000335255 0.000100543 0.000100591 -3.70584e-05
-0.000460442 0.00013815 0.000138125 1.03475e-11
-0.000385885 0.000115758 0.000115769 -2.00723e-05
-0.000328216 9.84331e-05 9.84783e-05 -3.70583e-05
-0.000402776 0.000120823 0.000120837 -2.00723e-05
-0.000394331 0.00011829 0.000118303 -2.00723e-05
-0.00045059 0.000135194 0.00013517 1.04672e-11
-0.000430888 0.000129284 0.000129259 1.22938e-11
-0.0003071 9.2104e-05 9.21411e-05 -3.70583e-05
-0.000321177 9.63234e-05 9.63659e-05 -3.70583e-05
-0.000440739 0.000132239 0.000132214 1.09768e-11
-0.000368996 0.000110693 0.000110701 -2.00723e-05
-0.000314138 9.42137e-05 9.42534e-05 -3.70583e-05
-0.000385885 0.000115758 0.000115769 -2.00723e-05
-0.00037744 0.000113225 0.000113235 -2.00723e-05
-0.000430888 0.000129284 0.000129259 1.23174e-11
-0.000411186 0.000123373 0.000123349 1.47652e-11
-0.000293023 8.78846e-05 8.79165e-05 -3.70583e-05
-0.0003071 9.2104e-05 9.21411e-05 -3.70583e-05
-0.000421037 0.000126328 0.000126304 1.29734e-11
-0.000352106 0.000105628 0.000105634 -2.00723e-05
-0.000300061 8.99943e-05 9.00288e-05 -3.70583e-05
-0.000368996 0.000110693 0.000110701 -2.00723e-05
-0.000360551 0.00010816 0.000108167 -2.00723e-05
-0.000411186 0.000123373 0.000123349 1.47652e-11
-0.000391484 0.000117462 0.000117438 2.25632e-11
-0.000278947 8.36652e-05 8.36921e-05 -3.70583e-05
-0.000293023 8.78846e-05 8.79165e-05 -3.70583e-05
-0.000401335 0.000120417 0.000120393 1.86473e-11
-0.000335217 0.000100563 0.000100566 -2.00724e-05
-0.000285985 8.57749e-05 8.58043e-05 -3.70583e-05
-0.000352106 0.000105628 0.000105634 -2.00723e-05
-0.000343661 0.000103095 0.0001031 -2.00724e-05
-0.000391484 0.000117462 0.000117438 2.25632e-11
-0.000371783 0.000111552 0.000111528 3.02524e-11
-0.000264871 7.94458e-05 7.94678e-05 -3.70586e-05
-0.000278947 8.36652e-05 8.36921e-05 -3.70583e-05
-0.000381634 0.000114507 0.000114483 2.44614e-11
-0.000318328 9.54977e-05 9.54987e-05 -2.00726e-05
-0.000271909 8.15555e-05 8.15799e-05 -3.70584e-05
-0.000335217 0.000100563 0.000100566 -2.00724e-05
-0.000326772 9.80301e-05 9.80324e-05 -2.00725e-05
-0.000371783 0.000111552 0.000111528 3.02587e-11
-0.000352082 0.000105641 0.000105617 4.5907e-11
-0.000250795 7.52265e-05 7.52436e-05 -3.70592e-05
-0.000264871 7.94458e-05 7.94678e-05 -3.70586e-05
-0.000361932 0.000108596 0.000108573 4.37076e-11
-0.000301439 9.04327e-05 9.04313e-05 -2.0073e-05
-0.000257833 7.73362e-05 7.73557e-05 -3.70589e-05
-0.000318328 9.54977e-05 9.54987e-05 -2.00726e-05
-0.000309884 9.29652e-05 9.2965e-05 -2.00728e-05
-0.000352082 0.000105641 0.000105617 4.59063e-11
-0.00033238 9.97303e-05 9.97071e-05 5.65201e-11
-0.00023672 7.10072e-05 7.10196e-05 -3.70603e-05
-0.000250795 7.52265e-05 7.52436e-05 -3.70592e-05
-0.000342231 0.000102686 0.000102662 4.08829e-11
-0.00028455 8.53677e-05 8.5364e-05 -2.00738e-05
-0.000243757 7.31168e-05 7.31316e-05 -3.70597e-05
-0.000301439 9.04327e-05 9.04313e-05 -2.0073e-05
-0.000292995 8.79002e-05 8.78977e-05 -2.00733e-05
-0.00033238 9.97303e-05 9.97071e-05 5.65201e-11
-0.000312678 9.38193e-05 9.37965e-05 4.62881e-11
-0.000222644 6.67878e-05 6.67957e-05 -3.70619e-05
-0.00023672 7.10072e-05 7.10196e-05 -3.70603e-05
-0.000322529 9.67748e-05 9.67519e-05 9.13149e-11
-0.000267661 8.03026e-05 8.02966e-05 -2.0075e-05
-0.000229682 6.88975e-05 6.89076e-05 -3.7061e-05
-0.00028455 8.53677e-05 8.5364e-05 -2.00738e-05
-0.000276106 8.28352e-05 8.28303e-05 -2.00743e-05
-0.000312678 9.38193e-05 9.37965e-05 4.62881e-11
-0.000292974 8.79079e-05 8.78854e-05 3.06609e-11
-0.000208569 6.25678e-05 6.25721e-05 -3.70638e-05
-0.000222644 6.67878e-05 6.67957e-05 -3.70619e-05
-0.000302826 9.08638e-05 9.0841e-05 -1.95593e-11
-0.000250772 7.52372e-05 7.52292e-05 -2.00765e-05
-0.000215607 6.46779e-05 6.46838e-05 -3.70629e-05
-0.000267661 8.03026e-05 8.02966e-05 -2.0075e-05
-0.000259217 7.777e-05 7.77629e-05 -2.00757e-05
-0.000292974 8.79079e-05 8.78854e-05 3.06606e-11
-0.000273268 8.19957e-05 8.1974e-05 -2.49037e-10
-0.000194494 5.83462e-05 5.83489e-05 -3.7065e-05
-0.000208569 6.25678e-05 6.25721e-05 -3.70638e-05
-0.000283121 8.49518e-05 8.49298e-05 9.78191e-11
-0.000233882 7.01714e-05 7.01619e-05 -2.00777e-05
-0.000201532 6.04573e-05 6.04604e-05 -3.70646e-05
-0.000250772 7.52372e-05 7.52292e-05 -2.00765e-05
-0.000242327 7.27044e-05 7.26955e-05 -2.00772e-05
-0.000273268 8.19957e-05 8.1974e-05 -2.49101e-10
-0.00025356 7.60836e-05 7.60614e-05 -3.78407e-10
-0.000180418 5.41208e-05 5.41274e-05 -3.7062e-05
-0.000194494 5.83462e-05 5.83489e-05 -3.7065e-05
-0.000263415 7.904e-05 7.90177e-05 -6.25896e-10
-0.000216993 6.51048e-05 6.50951e-05 -2.00762e-05
-0.000187456 5.62342e-05 5.62378e-05 -3.70644e-05
-0.000233882 7.01714e-05 7.01619e-05 -2.00777e-05
-0.000225438 6.76382e-05 6.76285e-05 -2.00775e-05
-0.00025356 7.60836e-05 7.60614e-05 -3.78407e-10
-0.000233856 7.01706e-05 7.01508e-05 -2.10898e-09
-0.000166339 4.9887e-05 4.99081e-05 -3.70488e-05
-0.000180418 5.41208e-05 5.41274e-05 -3.7062e-05
-0.000243707 7.3126e-05 7.3106e-05 -3.00924e-10
-0.00020011 6.00373e-05 6.0031e-05 -2.00678e-05
-0.000173379 5.20054e-05 5.20174e-05 -3.70572e-05
-0.000216993 6.51048e-05 6.50951e-05 -2.00762e-05
-0.00020855 6.25712e-05 6.25624e-05 -2.00735e-05
-0.000233856 7.01706e-05 7.01508e-05 -2.10898e-09
-0.00021416 6.42663e-05 6.424e-05 -2.31878e-09
-0.000152259 4.5636e-05 4.56954e-05 -3.70089e-05
-0.000166339 4.9887e-05 4.99081e-05 -3.70488e-05
-0.000224007 6.72193e-05 6.71947e-05 -3.78361e-09
-0.000183237 5.4969e-05 5.49718e-05 -2.00406e-05
-0.000159299 4.77642e-05 4.78004e-05 -3.70338e-05
-0.00020011 6.00373e-05 6.0031e-05 -2.00678e-05
-0.000191672 5.75031e-05 5.75009e-05 -2.00572e-05
-0.00021416 6.42663e-05 6.424e-05 -2.31876e-09
-0.000194513 5.83649e-05 5.8349e-05 -1.02736e-08
-0.000138163 4.13532e-05 4.149e-05 -3.69198e-05
-0.000152259 4.5636e-05 4.56954e-05 -3.70089e-05
-0.000204325 6.13086e-05 6.12925e-05 -2.25417e-09
-0.000166398 4.99004e-05 4.99276e-05 -1.99754e-05
-0.000145215 4.35005e-05 4.3592e-05 -3.69723e-05
-0.000183237 5.4969e-05 5.49718e-05 -2.00406e-05
-0.00017481 5.24349e-05 5.24465e-05 -2.00156e-05
-0.000194513 5.83649e-05 5.8349e-05 -1.02736e-08
-0.000174945 5.25232e-05 5.24664e-05 -8.68478e-09
-0.000124059 3.70098e-05 3.73066e-05 -3.67239e-05
-0.000138163 4.13532e-05 4.149e-05 -3.69198e-05
-0.00018472 5.54475e-05 5.54027e-05 -1.69689e-08
-0.000149616 4.48331e-05 4.49069e-05 -1.98302e-05
-0.000131109 3.91899e-05 3.9394e-05 -3.68408e-05
-0.000166398 4.99004e-05 4.99276e-05 -1.99754e-05
-0.000158 4.73657e-05 4.74148e-05 -1.99142e-05
-0.000174945 5.25232e-05 5.24664e-05 -8.68478e-09
-0.000155639 4.66977e-05 4.66894e-05 -4.00125e-08
-0.000109884 3.25721e-05 3.31336e-05 -3.63632e-05
-0.000124059 3.70098e-05 3.73066e-05 -3.67239e-05
-0.000165235 4.95751e-05 4.95685e-05 -7.24479e-09
-0.00013298 3.97746e-05 3.99452e-05 -1.95375e-05
-0.000116991 3.48098e-05 3.52203e-05 -3.65681e-05
-0.000149616 4.48331e-05 4.49069e-05 -1.98302e-05
-0.000141268 4.23042e-05 4.24131e-05 -1.97144e-05
-0.000155639 4.66977e-05 4.66894e-05 -4.00125e-08
-0.000136719 4.11698e-05 4.09496e-05 -2.40872e-08
-9.5656e-05 2.79581e-05 2.90134e-05 -3.56849e-05
-0.000109884 3.25721e-05 3.31336e-05 -3.63632e-05
-0.00014614 4.39537e-05 4.37942e-05 -6.68742e-08
-0.000116535 3.47226e-05 3.50626e-05 -1.89873e-05
-0.000102764 3.02828e-05 3.10634e-05 -3.60787e-05
-0.00013298 3.97746e-05 3.99452e-05 -1.95375e-05
-0.00012474 3.72424e-05 3.74989e-05 -1.92916e-05
-0.000136719 4.11698e-05 4.09496e-05 -2.40872e-08
-0.00011883 3.56448e-05 3.56508e-05 -1.35139e-07
-8.11107e-05 2.31465e-05 2.48418e-05 -3.46308e-05
-9.5656e-05 2.79581e-05 2.90134e-05 -3.56849e-05
-0.000127555 3.825e-05 3.82738e-05 -5.66912e-09
-0.000100568 2.97174e-05 3.03647e-05 -1.79778e-05
-8.84687e-05 2.56029e-05 2.69425e-05 -3.52052e-05
-0.000116535 3.47226e-05 3.50626e-05 -1.89873e-05
-0.00010845 3.22243e-05 3.26683e-05 -1.85882e-05
-0.00011883 3.56448e-05 3.56508e-05 -1.35139e-07
-0.0001024 3.14188e-05 3.04207e-05 -4.41581e-08
-6.62681e-05 1.79413e-05 2.07115e-05 -3.29684e-05
-8.11107e-05 2.31465e-05 2.48418e-05 -3.46308e-05
-0.000110469 3.36526e-05 3.29215e-05 -2.52207e-07
-8.49912e-05 2.46908e-05 2.5843e-05 -1.63617e-05
-7.36783e-05 2.05456e-05 2.27712e-05 -3.38961e-05
-0.000100568 2.97174e-05 3.03647e-05 -1.79778e-05
-9.27837e-05 2.71833e-05 2.81145e-05 -1.71957e-05
-0.0001024 3.14188e-05 3.04207e-05 -4.41581e-08
-8.92458e-05 2.67516e-05 2.67832e-05 -3.71561e-07
-5.01048e-05 1.2762e-05 1.6004e-05 -3.11859e-05
-6.62681e-05 1.79413e-05 2.07115e-05 -3.29684e-05
-9.51501e-05 2.84374e-05 2.85911e-05 1.1237e-07
-7.05504e-05 1.98072e-05 2.17471e-05 -1.36744e-05
-5.85276e-05 1.54322e-05 1.84695e-05 -3.20384e-05
-8.49912e-05 2.46908e-05 2.5843e-05 -1.63617e-05
-7.74827e-05 2.22822e-05 2.36574e-05 -1.53314e-05
-8.92458e-05 2.67516e-05 2.67832e-05 -3.71561e-07
-8.1318e-05 2.71579e-05 2.32115e-05 6.18375e-07
-3.27512e-05 7.64436e-06 1.07601e-05 -3.00844e-05
-5.01048e-05 1.2762e-05 1.6004e-05 -3.11859e-05
-8.46482e-05 2.7688e-05 2.44115e-05 -8.11051e-07
-5.54708e-05 1.45468e-05 1.75389e-05 -1.07768e-05
-4.13843e-05 9.84665e-06 1.35161e-05 -3.04299e-05
-7.05504e-05 1.98072e-05 2.17471e-05 -1.36744e-05
-6.34583e-05 1.71525e-05 1.98454e-05 -1.18808e-05
-8.1318e-05 2.71579e-05 2.32115e-05 6.18375e-07
-8.52121e-05 2.30715e-05 2.66317e-05 3.63076e-06
-1.27084e-05 8.09881e-06 1.97552e-06 -3.50878e-05
-3.27512e-05 7.64436e-06 1.07601e-05 -3.00844e-05
-8.09434e-05 2.26118e-05 2.49992e-05 2.59008e-06
-3.93566e-05 1.01687e-05 1.25091e-05 -9.10254e-06
-2.34457e-05 7.10463e-06 7.00333e-06 -3.12966e-05
-5.54708e-05 1.45468e-05 1.75389e-05 -1.07768e-05
-4.72246e-05 1.22329e-05 1.49965e-05 -1.01611e-05
-8.52121e-05 2.30715e-05 2.66317e-05 3.63076e-06
-0.000115862 2.28432e-05 3.98653e-05 2.78949e-05
-3.42641e-06 3.1124e-05 -1.18704e-05 -5.29886e-05
-1.27084e-05 8.09881e-06 1.97552e-06 -3.50878e-05
-9.61699e-05 3.24734e-05 2.72985e-05 7.57492e-06
-6.78242e-06 1.90824e-05 -5.27143e-06 -3.11254e-05
-4.66115e-06 1.24822e-05 -3.35187e-06 -4.15214e-05
-3.93566e-05 1.01687e-05 1.25091e-05 -9.10254e-06
-2.73742e-05 9.83438e-06 7.51706e-06 -1.33576e-05
-0.000115862 2.28432e-05 3.98653e-05 2.78949e-05
-6.01914e-05 0.000181642 -5.20504e-05 -0.000144619
-4.09028e-05 0.000138684 -4.19064e-05 -5.30149e-05
-3.42641e-06 3.1124e-05 -1.18704e-05 -5.29886e-05
-0.000114002 5.60529e-06 4.64555e-05 1.14734e-05
-3.61157e-05 0.000170603 -5.76372e-05 -8.52405e-05
-1.38814e-05 7.40237e-05 -2.57753e-05 -6.20688e-05
-6.78242e-06 1.90824e-05 -5.27143e-06 -3.11254e-05
-1.66665e-06 5.56695e-05 -2.31441e-05 -5.69031e-05
-0.00236659 0 0.00101425 -0.000133448
-0.00266532 0.00052874 0.000915678 -0.000196853
-0.0015463 0.000202914 0.000575737 -5.14095e-06
-0.0013681 0 0.00058633 0.000180409
-0.00253449 0.00025009 0.000979028 -0.000228583
-0.00206006 0.000318384 0.000746431 -8.10514e-05
-0.00148202 0.000114044 0.000586273 6.83835e-05
-0.00193964 0 0.000831275 3.01683e-05
-0.00197246 0.000176437 0.000769726 -2.48664e-05
-0.00266532 0.00052874 0.000915678 -0.000196853
-0.00276883 0.000748635 0.000865797 -9.31921e-05
-0.00162483 0.000371162 0.000537285 -6.29358e-05
-0.0015463 0.000202914 0.000575737 -5.14095e-06
-0.00274737 0.000684235 0.0008842 -0.000141579
-0.0021967 0.000540139 0.000709953 -9.49524e-05
-0.00158568 0.000292423 0.000554255 -4.2397e-05
-0.00206006 0.000318384 0.000746431 -8.10514e-05
-0.00215169 0.000443091 0.000732257 -0.000106739
-0.00276883 0.000748635 0.000865797 -9.31921e-05
-0.00275515 0.000809791 0.000833726 -3.44221e-05
-0.00166438 0.000455613 0.000518044 -7.41816e-05
-0.00162483 0.000371162 0.000537285 -6.29358e-05
-0.002761 0.000786702 0.000846128 -5.45192e-05
-0.00221825 0.000628574 0.000681291 -6.37129e-05
-0.00165423 0.000423673 0.00052738 -7.30735e-05
-0.0021967 0.000540139 0.000709953 -9.49524e-05
-0.00221295 0.000598006 0.000692117 -7.49635e-05
-0.00275515 0.000809791 0.000833726 -3.44221e-05
-0.00273566 0.00081781 0.000821937 -2.1673e-05
-0.00166254 0.000488465 0.000503175 -6.87585e-05
-0.00166438 0.000455613 0.000518044 -7.41816e-05
-0.00274785 0.000817753 0.000827184 -2.58033e-05
-0.00220726 0.000656465 0.000664628 -4.86102e-05
-0.00166419 0.00047629 0.000509101 -7.11257e-05
-0.00221825 0.000628574 0.000681291 -6.37129e-05
-0.00221542 0.000646797 0.000672268 -5.55898e-05
-0.00273566 0.00081781 0.000821937 -2.1673e-05
-0.00271323 0.00081619 0.000813018 -2.13623e-05
-0.00165068 0.000494423 0.00049554 -6.51446e-05
-0.00166254 0.000488465 0.000503175 -6.87585e-05
-0.00272274 0.000817244 0.000816642 -2.02216e-05
-0.00218688 0.000657707 0.000655358 -4.40488e-05
-0.00165838 0.000493593 0.000499196 -6.69749e-05
-0.00220726 0.000656465 0.000664628 -4.86102e-05
-0.00219676 0.000659021 0.00065903 -4.47244e-05
-0.00271323 0.00081619 0.000813018 -2.13623e-05
-0.0026962 0.000810064 0.000808344 -2.60044e-05
-0.00163415 0.00049165 0.000489641 -6.27331e-05
-0.00165068 0.000494423 0.00049554 -6.51446e-05
-0.00270507 0.0008135 0.000810673 -2.38162e-05
-0.00216816 0.000652899 0.000649397 -4.45925e-05
-0.00164181 0.00049355 0.000492112 -6.35458e-05
-0.00218688 0.000657707 0.000655358 -4.40488e-05
-0.00217741 0.000655548 0.000652227 -4.43197e-05
-0.0026962 0.000810064 0.000808344 -2.60044e-05
-0.0026797 0.000804144 0.000803811 -2.98383e-05
-0.00161978 0.000486004 0.000485904 -6.20414e-05
-0.00163415 0.00049165 0.000489641 -6.27331e-05
-0.00268746 0.000806978 0.000805922 -2.79321e-05
-0.00215132 0.000646133 0.000645082 -4.63709e-05
-0.00162702 0.000488973 0.000487735 -6.23584e-05
-0.00216816 0.000652899 0.000649397 -4.45925e-05
-0.00215938 0.000649603 0.000647046 -4.5298e-05
-0.0026797 0.000804144 0.000803811 -2.98383e-05
-0.00266487 0.000798415 0.000799909 -3.29283e-05
-0.00160672 0.000480561 0.000482641 -6.17429e-05
-0.00161978 0.000486004 0.000485904 -6.20414e-05
-0.00267236 0.000801258 0.000801901 -3.15917e-05
-0.00213667 0.000640116 0.000641381 -4.8089e-05
-0.00161287 0.000483184 0.000484149 -6.18065e-05
-0.00215132 0.000646133 0.000645082 -4.63709e-05
-0.00214382 0.000642987 0.000643213 -4.73501e-05
-0.00266487 0.000798415 0.000799909 -3.29283e-05
-0.0026502 0.00079325 0.000795836 -3.47833e-05
-0.00159559 0.000475822 0.000479901 -6.17658e-05
-0.00160672 0.000480561 0.000482641 -6.17429e-05
-0.00265742 0.000795761 0.000797854 -3.39492e-05
-0.00212335 0.000634801 0.00063795 -4.93392e-05
-0.00160106 0.000478097 0.00048127 -6.17613e-05
-0.00213667 0.000640116 0.000641381 -4.8089e-05
-0.00212986 0.000637375 0.000639636 -4.87475e-05
-0.0026502 0.00079325 0.000795836 -3.47833e-05
-0.00263592 0.000788432 0.000791781 -3.59378e-05
-0.00158544 0.000471888 0.000477239 -6.17939e-05
-0.00159559 0.000475822 0.000479901 -6.17658e-05
-0.00264308 0.000790808 0.000793829 -3.54543e-05
-0.00211095 0.00063026 0.000634579 -5.01298e-05
-0.00159037 0.000473764 0.000478544 -6.17693e-05
-0.00212335 0.000634801 0.00063795 -4.93392e-05
-0.00211707 0.000632446 0.000636268 -4.97999e-05
-0.00263592 0.000788432 0.000791781 -3.59378e-05
-0.00262167 0.000783879 0.000787625 -3.65421e-05
-0.00157609 0.000468524 0.000474672 -6.18412e-05
-0.00158544 0.000471888 0.000477239 -6.17939e-05
-0.00262877 0.000786128 0.000789704 -3.62836e-05
-0.00209904 0.000626196 0.00063122 -5.05894e-05
-0.00158072 0.000470148 0.00047596 -6.18241e-05
-0.00211095 0.00063026 0.000634579 -5.01298e-05
-0.00210494 0.000628182 0.000632898 -5.03874e-05
-0.00262167 0.000783879 0.000787625 -3.65421e-05
-0.0026075 0.000779479 0.000783438 -3.68647e-05
-0.00156712 0.000465547 0.000472103 -6.1861e-05
-0.00157609 0.000468524 0.000474672 -6.18412e-05
-0.00261459 0.000781665 0.000785539 -3.67342e-05
-0.00208743 0.000622462 0.000627843 -5.08317e-05
-0.00157156 0.000466997 0.000473384 -6.18514e-05
-0.00209904 0.000626196 0.00063122 -5.05894e-05
-0.00209321 0.000624297 0.000629535 -5.07342e-05
-0.0026075 0.000779479 0.000783438 -3.68647e-05
-0.00259333 0.000775171 0.000779212 -3.70103e-05
-0.00155839 0.000462796 0.000469542 -6.1871e-05
-0.00156712 0.000465547 0.000472103 -6.1861e-05
-0.00260041 0.000777316 0.000781326 -3.69511e-05
-0.00207596 0.000618907 0.000624452 -5.09504e-05
-0.00156274 0.00046415 0.000470825 -6.18685e-05
-0.00208743 0.000622462 0.000627843 -5.08317e-05
-0.00208168 0.000620668 0.000626149 -5.09012e-05
-0.00259333 0.000775171 0.000779212 -3.70103e-05
-0.00257918 0.000770911 0.000774972 -3.70741e-05
-0.00154978 0.000460173 0.000466973 -6.18698e-05
-0.00155839 0.000462796 0.000469542 -6.1871e-05
-0.00258626 0.000773037 0.000777094 -3.70501e-05
-0.00206457 0.000615457 0.000621049 -5.10005e-05
-0.00155407 0.000461473 0.000468257 -6.18708e-05
-0.00207596 0.000618907 0.000624452 -5.09504e-05
-0.00207026 0.000617173 0.000622752 -5.0982e-05
-0.00257918 0.000770911 0.000774972 -3.70741e-05
-0.00256503 0.000766678 0.00077072 -3.70942e-05
-0.00154122 0.000457618 0.000464401 -6.18652e-05
-0.00154978 0.000460173 0.000466973 -6.18698e-05
-0.0025721 0.000768792 0.000772847 -3.70872e-05
-0.00205321 0.000612058 0.000617637 -5.10175e-05
-0.00154549 0.00045889 0.000465688 -6.1868e-05
-0.00206457 0.000615457 0.000621049 -5.10005e-05
-0.00205889 0.000613753 0.000619344 -5.10115e-05
-0.00256503 0.000766678 0.00077072 -3.70942e-05
-0.00255087 0.000762457 0.000766465 -3.70976e-05
-0.00153269 0.000455094 0.000461825 -6.18589e-05
-0.00154122 0.000457618 0.000464401 -6.18652e-05
-0.00255795 0.000764566 0.000768593 -3.70973e-05
-0.00204187 0.000608686 0.000614222 -5.10195e-05
-0.00153695 0.000456353 0.000463113 -6.1862e-05
-0.00205321 0.000612058 0.000617637 -5.10175e-05
-0.00204754 0.00061037 0.00061593 -5.10197e-05
-0.00255087 0.000762457 0.000766465 -3.70976e-05
-0.00253673 0.000758241 0.000762207 -3.7094e-05
-0.00152416 0.000452586 0.000459247 -6.18532e-05
-0.00153269 0.000455094 0.000461825 -6.18589e-05
-0.0025438 0.000760348 0.000764336 -3.70961e-05
-0.00203053 0.000605324 0.000610804 -5.1016e-05
-0.00152842 0.000453839 0.000460536 -6.1856e-05
-0.00204187 0.000608686 0.000614222 -5.10195e-05
-0.0020362 0.000607004 0.000612513 -5.1018e-05
-0.00253673 0.000758241 0.000762207 -3.7094e-05
-0.00252258 0.000754028 0.00075795 -3.70895e-05
-0.00151564 0.000450082 0.000456669 -6.18485e-05
-0.00152416 0.000452586 0.000459247 -6.18532e-05
-0.00252965 0.000756134 0.000760079 -3.70918e-05
-0.0020192 0.000601967 0.000607385 -5.10114e-05
-0.0015199 0.000451333 0.000457958 -6.18507e-05
-0.00203053 0.000605324 0.000610804 -5.1016e-05
-0.00202487 0.000603645 0.000609094 -5.10137e-05
-0.00252258 0.000754028 0.00075795 -3.70895e-05
-0.00250843 0.000749815 0.000753692 -3.70854e-05
-0.00150712 0.00044758 0.00045409 -6.18449e-05
-0.00151564 0.000450082 0.000456669 -6.18485e-05
-0.0025155 0.000751921 0.000755821 -3.70873e-05
-0.00200786 0.00059861 0.000603966 -5.10074e-05
-0.00151138 0.000448831 0.000455379 -6.18466e-05
-0.0020192 0.000601967 0.000607385 -5.10114e-05
-0.00201353 0.000600288 0.000605675 -5.10092e-05
-0.00250843 0.000749815 0.000753692 -3.70854e-05
-0.00249428 0.000745602 0.000749434 -3.70825e-05
-0.0014986 0.000445077 0.000451511 -6.18424e-05
-0.00150712 0.00044758 0.00045409 -6.18449e-05
-0.00250135 0.000747709 0.000751563 -3.70838e-05
-0.00199653 0.000595253 0.000600547 -5.10044e-05
-0.00150286 0.000446328 0.0004528 -6.18435e-05
-0.00200786 0.00059861 0.000603966 -5.10074e-05
-0.0020022 0.000596932 0.000602256 -5.10057e-05
-0.00249428 0.000745602 0.000749434 -3.70825e-05
-0.00248013 0.000741389 0.000745177 -3.70806e-05
-0.00149008 0.000442573 0.000448932 -6.18407e-05
-0.0014986 0.000445077 0.000451511 -6.18424e-05
-0.00248721 0.000743496 0.000747305 -3.70815e-05
-0.00198519 0.000591896 0.000597128 -5.10024e-05
-0.00149434 0.000443825 0.000450221 -6.18415e-05
-0.00199653 0.000595253 0.000600547 -5.10044e-05
-0.00199086 0.000593575 0.000598837 -5.10033e-05
-0.00248013 0.000741389 0.000745177 -3.70806e-05
-0.00246599 0.000737176 0.00074092 -3.70796e-05
-0.00148156 0.000440069 0.000446354 -6.18396e-05
-0.00149008 0.000442573 0.000448932 -6.18407e-05
-0.00247306 0.000739283 0.000743048 -3.708e-05
-0.00197386 0.000588539 0.000593709 -5.10011e-05
-0.00148582 0.000441321 0.000447643 -6.18401e-05
-0.00198519 0.000591896 0.000597128 -5.10024e-05
-0.00197953 0.000590217 0.000595419 -5.10017e-05
-0.00246599 0.000737176 0.00074092 -3.70796e-05
-0.00245184 0.000732963 0.000736663 -3.7079e-05
-0.00147304 0.000437564 0.000443776 -6.1839e-05
-0.00148156 0.000440069 0.000446354 -6.18396e-05
-0.00245892 0.00073507 0.000738791 -3.70792e-05
-0.00196253 0.00058518 0.000590291 -5.10004e-05
-0.0014773 0.000438816 0.000445065 -6.18393e-05
-0.00197386 0.000588539 0.000593709 -5.10011e-05
-0.00196819 0.000586859 0.000592 -5.10007e-05
-0.00245184 0.000732963 0.000736663 -3.7079e-05
-0.0024377 0.00072875 0.000732407 -3.70787e-05
-0.00146452 0.000435058 0.000441198 -6.18385e-05
-0.00147304 0.000437564 0.000443776 -6.1839e-05
-0.00244477 0.000730856 0.000734535 -3.70788e-05
-0.00195119 0.000581822 0.000586873 -5.10001e-05
-0.00146878 0.000436311 0.000442487 -6.18387e-05
-0.00196253 0.00058518 0.000590291 -5.10004e-05
-0.00195686 0.000583501 0.000588582 -5.10002e-05
-0.0024377 0.00072875 0.000732407 -3.70787e-05
-0.00242355 0.000724536 0.000728151 -3.70787e-05
-0.001456 0.000432552 0.00043862 -6.18383e-05
-0.00146452 0.000435058 0.000441198 -6.18385e-05
-0.00243063 0.000726643 0.000730279 -3.70787e-05
-0.00193986 0.000578463 0.000583456 -5.09999e-05
-0.00146026 0.000433805 0.000439909 -6.18384e-05
-0.00195119 0.000581822 0.000586873 -5.10001e-05
-0.00194553 0.000580142 0.000585164 -5.1e-05
-0.00242355 0.000724536 0.000728151 -3.70787e-05
-0.00240941 0.000720322 0.000723895 -3.70787e-05
-0.00144748 0.000430046 0.000436043 -6.18381e-05
-0.001456 0.000432552 0.00043862 -6.18383e-05
-0.00241648 0.000722429 0.000726023 -3.70787e-05
-0.00192853 0.000575104 0.000580038 -5.09998e-05
-0.00145174 0.000431299 0.000437332 -6.18382e-05
-0.00193986 0.000578463 0.000583456 -5.09999e-05
-0.00193419 0.000576783 0.000581747 -5.09998e-05
-0.00240941 0.000720322 0.000723895 -3.70787e-05
-0.00239527 0.000716109 0.000719639 -3.70788e-05
-0.00143896 0.000427539 0.000433466 -6.18379e-05
-0.00144748 0.000430046 0.000436043 -6.18381e-05
-0.00240234 0.000718215 0.000721767 -3.70787e-05
-0.00191719 0.000571744 0.000576621 -5.09998e-05
-0.00144322 0.000428792 0.000434755 -6.1838e-05
-0.00192853 0.000575104 0.000580038 -5.09998e-05
-0.00192286 0.000573424 0.00057833 -5.09998e-05
-0.00239527 0.000716109 0.000719639 -3.70788e-05
-0.00238112 0.000711895 0.000715383 -3.70788e-05
-0.00143044 0.000425032 0.00043089 -6.18377e-05
-0.00143896 0.000427539 0.000433466 -6.18379e-05
-0.00238819 0.000714002 0.000717511 -3.70788e-05
-0.00190586 0.000568385 0.000573204 -5.09997e-05
-0.0014347 0.000426286 0.000432178 -6.18378e-05
-0.00191719 0.000571744 0.000576621 -5.09998e-05
-0.00191153 0.000570065 0.000574913 -5.09998e-05
-0.00238112 0.000711895 0.000715383 -3.70788e-05
-0.00236698 0.000707681 0.000711128 -3.70789e-05
-0.00142192 0.000422525 0.000428313 -6.18375e-05
-0.00143044 0.000425032 0.00043089 -6.18377e-05
-0.00237405 0.000709788 0.000713256 -3.70789e-05
-0.00189453 0.000565025 0.000569788 -5.09997e-05
-0.00142618 0.000423779 0.000429601 -6.18376e-05
-0.00190586 0.000568385 0.000573204 -5.09997e-05
-0.0019002 0.000566705 0.000571496 -5.09997e-05
-0.00236698 0.000707681 0.000711128 -3.70789e-05
-0.00235284 0.000703467 0.000706873 -3.70789e-05
-0.0014134 0.000420018 0.000425737 -6.18373e-05
-0.00142192 0.000422525 0.000428313 -6.18375e-05
-0.00235991 0.000705574 0.000709001 -3.70789e-05
-0.0018832 0.000561666 0.000566371 -5.09996e-05
-0.00141766 0.000421271 0.000427025 -6.18374e-05
-0.00189453 0.000565025 0.000569788 -5.09997e-05
-0.00188886 0.000563346 0.000568079 -5.09997e-05
-0.00235284 0.000703467 0.000706873 -3.70789e-05
-0.00233869 0.000699253 0.000702618 -3.70789e-05
-0.00140489 0.000417511 0.000423161 -6.1837e-05
-0.0014134 0.000420018 0.000425737 -6.18373e-05
-0.00234577 0.00070136 0.000704745 -3.70789e-05
-0.00187187 0.000558306 0.000562955 -5.09995e-05
-0.00140915 0.000418764 0.000424449 -6.18371e-05
-0.0018832 0.000561666 0.000566371 -5.09996e-05
-0.00187753 0.000559986 0.000564663 -5.09996e-05
-0.00233869 0.000699253 0.000702618 -3.70789e-05
-0.00232455 0.000695039 0.000698363 -3.70789e-05
-0.00139637 0.000415003 0.000420586 -6.18367e-05
-0.00140489 0.000417511 0.000423161 -6.1837e-05
-0.00233162 0.000697146 0.000700491 -3.70789e-05
-0.00186054 0.000554946 0.000559539 -5.09994e-05
-0.00140063 0.000416257 0.000421873 -6.18369e-05
-0.00187187 0.000558306 0.000562955 -5.09995e-05
-0.0018662 0.000556626 0.000561247 -5.09995e-05
-0.00232455 0.000695039 0.000698363 -3.70789e-05
-0.00231041 0.000690825 0.000694109 -3.70789e-05
-0.00138785 0.000412495 0.00041801 -6.18364e-05
-0.00139637 0.000415003 0.000420586 -6.18367e-05
-0.00231748 0.000692932 0.000696236 -3.70789e-05
-0.00184921 0.000551586 0.000556123 -5.09992e-05
-0.00139211 0.000413749 0.000419298 -6.18366e-05
-0.00186054 0.000554946 0.000559539 -5.09994e-05
-0.00185487 0.000553266 0.000557831 -5.09993e-05
-0.00231041 0.000690825 0.000694109 -3.70789e-05
-0.00229627 0.000686611 0.000689854 -3.70788e-05
-0.00137934 0.000409988 0.000415435 -6.18361e-05
-0.00138785 0.000412495 0.00041801 -6.18364e-05
-0.00230334 0.000688718 0.000691982 -3.70788e-05
-0.00183788 0.000548226 0.000552708 -5.09991e-05
-0.00138359 0.000411242 0.000416723 -6.18363e-05
-0.00184921 0.000551586 0.000556123 -5.09992e-05
-0.00184354 0.000549906 0.000554415 -5.09992e-05
-0.00229627 0.000686611 0.000689854 -3.70788e-05
-0.00228213 0.000682397 0.0006856 -3.70788e-05
-0.00137082 0.00040748 0.00041286 -6.18358e-05
-0.00137934 0.000409988 0.000415435 -6.18361e-05
-0.0022892 0.000684504 0.000687727 -3.70788e-05
-0.00182655 0.000544866 0.000549293 -5.09989e-05
-0.00137508 0.000408734 0.000414148 -6.18359e-05
-0.00183788 0.000548226 0.000552708 -5.09991e-05
-0.00183221 0.000546546 0.000551 -5.0999e-05
-0.00228213 0.000682397 0.0006856 -3.70788e-05
-0.00226799 0.000678182 0.000681346 -3.70787e-05
-0.00136231 0.000404972 0.000410286 -6.18354e-05
-0.00137082 0.00040748 0.00041286 -6.18358e-05
-0.00227506 0.000680289 0.000683473 -3.70787e-05
-0.00181522 0.000541506 0.000545877 -5.09987e-05
-0.00136656 0.000406226 0.000411573 -6.18356e-05
-0.00182655 0.000544866 0.000549293 -5.09989e-05
-0.00182088 0.000543186 0.000547585 -5.09988e-05
-0.00226799 0.000678182 0.000681346 -3.70787e-05
-0.00225385 0.000673968 0.000677092 -3.70786e-05
-0.00135379 0.000402463 0.000407711 -6.1835e-05
-0.00136231 0.000404972 0.000410286 -6.18354e-05
-0.00226092 0.000676075 0.000679219 -3.70786e-05
-0.00180389 0.000538145 0.000542463 -5.09985e-05
-0.00135805 0.000403717 0.000408999 -6.18352e-05
-0.00181522 0.000541506 0.000545877 -5.09987e-05
-0.00180956 0.000539826 0.00054417 -5.09986e-05
-0.00225385 0.000673968 0.000677092 -3.70786e-05
-0.00223971 0.000669754 0.000672839 -3.70785e-05
-0.00134528 0.000399955 0.000405137 -6.18346e-05
-0.00135379 0.000402463 0.000407711 -6.1835e-05
-0.00224678 0.000671861 0.000674966 -3.70785e-05
-0.00179256 0.000534785 0.000539048 -5.09982e-05
-0.00134953 0.000401209 0.000406424 -6.18348e-05
-0.00180389 0.000538145 0.000542463 -5.09985e-05
-0.00179823 0.000536465 0.000540755 -5.09984e-05
-0.00223971 0.000669754 0.000672839 -3.70785e-05
-0.00222557 0.00066554 0.000668586 -3.70784e-05
-0.00133676 0.000397446 0.000402564 -6.18342e-05
-0.00134528 0.000399955 0.000405137 -6.18346e-05
-0.00223264 0.000667647 0.000670712 -3.70784e-05
-0.00178124 0.000531424 0.000535634 -5.0998e-05
-0.00134102 0.000398701 0.00040385 -6.18344e-05
-0.00179256 0.000534785 0.000539048 -5.09982e-05
-0.0017869 0.000533105 0.000537341 -5.09981e-05
-0.00222557 0.00066554 0.000668586 -3.70784e-05
-0.00221143 0.000661325 0.000664332 -3.70783e-05
-0.00132825 0.000394938 0.00039999 -6.18338e-05
-0.00133676 0.000397446 0.000402564 -6.18342e-05
-0.0022185 0.000663432 0.000666459 -3.70783e-05
-0.00176991 0.000528064 0.00053222 -5.09977e-05
-0.0013325 0.000396192 0.000401277 -6.1834e-05
-0.00178124 0.000531424 0.000535634 -5.0998e-05
-0.00177557 0.000529744 0.000533927 -5.09979e-05
-0.00221143 0.000661325 0.000664332 -3.70783e-05
-0.0021973 0.000657111 0.00066008 -3.70782e-05
-0.00131973 0.000392429 0.000397417 -6.18333e-05
-0.00132825 0.000394938 0.00039999 -6.18338e-05
-0.00220437 0.000659218 0.000662206 -3.70782e-05
-0.00175858 0.000524703 0.000528806 -5.09975e-05
-0.00132399 0.000393683 0.000398703 -6.18336e-05
-0.00176991 0.000528064 0.00053222 -5.09977e-05
-0.00176425 0.000526383 0.000530513 -5.09976e-05
-0.0021973 0.000657111 0.00066008 -3.70782e-05
-0.00218316 0.000652896 0.000655827 -3.7078e-05
-0.00131122 0.00038992 0.000394844 -6.18329e-05
-0.00131973 0.000392429 0.000397417 -6.18333e-05
-0.00219023 0.000655004 0.000657953 -3.70781e-05
-0.00174726 0.000521342 0.000525392 -5.09972e-05
-0.00131548 0.000391174 0.00039613 -6.18331e-05
-0.00175858 0.000524703 0.000528806 -5.09975e-05
-0.00175292 0.000523023 0.000527099 -5.09973e-05
-0.00218316 0.000652896 0.000655827 -3.7078e-05
-0.00216902 0.000648682 0.000651574 -3.70779e-05
-0.00130271 0.000387411 0.000392271 -6.18324e-05
-0.00131122 0.00038992 0.000394844 -6.18329e-05
-0.00217609 0.000650789 0.0006537 -3.7078e-05
-0.00173593 0.000517981 0.000521979 -5.09969e-05
-0.00130697 0.000388665 0.000393557 -6.18327e-05
-0.00174726 0.000521342 0.000525392 -5.09972e-05
-0.00174159 0.000519662 0.000523686 -5.09971e-05
-0.00216902 0.000648682 0.000651574 -3.70779e-05
-0.00215489 0.000644467 0.000647322 -3.70777e-05
-0.0012942 0.000384902 0.000389698 -6.1832e-05
-0.00130271 0.000387411 0.000392271 -6.18324e-05
-0.00216195 0.000646575 0.000649448 -3.70778e-05
-0.00172461 0.00051462 0.000518566 -5.09966e-05
-0.00129845 0.000386156 0.000390985 -6.18322e-05
-0.00173593 0.000517981 0.000521979 -5.09969e-05
-0.00173027 0.000516301 0.000520272 -5.09968e-05
-0.00215489 0.000644467 0.000647322 -3.70777e-05
-0.00214075 0.000640253 0.00064307 -3.70776e-05
-0.00128569 0.000382392 0.000387126 -6.18315e-05
-0.0012942 0.000384902 0.000389698 -6.1832e-05
-0.00214782 0.00064236 0.000645196 -3.70777e-05
-0.00171328 0.000511259 0.000515153 -5.09963e-05
-0.00128994 0.000383647 0.000388412 -6.18317e-05
-0.00172461 0.00051462 0.000518566 -5.09966e-05
-0.00171894 0.00051294 0.000516859 -5.09965e-05
-0.00214075 0.000640253 0.00064307 -3.70776e-05
-0.00212661 0.000636038 0.000638818 -3.70774e-05
-0.00127718 0.000379883 0.000384554 -6.1831e-05
-0.00128569 0.000382392 0.000387126 -6.18315e-05
-0.00213368 0.000638145 0.000640944 -3.70775e-05
-0.00170196 0.000507898 0.00051174 -5.0996e-05
-0.00128143 0.000381137 0.00038584 -6.18312e-05
-0.00171328 0.000511259 0.000515153 -5.09963e-05
-0.00170762 0.000509578 0.000513447 -5.09962e-05
-0.00212661 0.000636038 0.000638818 -3.70774e-05
-0.00211248 0.000631824 0.000634566 -3.70773e-05
-0.00126867 0.000377373 0.000381983 -6.18305e-05
-0.00127718 0.000379883 0.000384554 -6.1831e-05
-0.00211955 0.000633931 0.000636692 -3.70774e-05
-0.00169063 0.000504536 0.000508328 -5.09957e-05
-0.00127292 0.000378628 0.000383268 -6.18307e-05
-0.00170196 0.000507898 0.00051174 -5.0996e-05
-0.0016963 0.000506217 0.000510034 -5.09959e-05
-0.00211248 0.000631824 0.000634566 -3.70773e-05
-0.00209834 0.000627609 0.000630315 -3.70771e-05
-0.00126016 0.000374863 0.000379411 -6.183e-05
-0.00126867 0.000377373 0.000381983 -6.18305e-05
-0.00210541 0.000629716 0.000632441 -3.70772e-05
-0.00167931 0.000501175 0.000504916 -5.09954e-05
-0.00126441 0.000376118 0.000380697 -6.18302e-05
-0.00169063 0.000504536 0.000508328 -5.09957e-05
-0.00168497 0.000502856 0.000506622 -5.09955e-05
-0.00209834 0.000627609 0.000630315 -3.70771e-05
-0.00208421 0.000623394 0.000626064 -3.70769e-05
-0.00125165 0.000372353 0.00037684 -6.18294e-05
-0.00126016 0.000374863 0.000379411 -6.183e-05
-0.00209128 0.000625502 0.000628189 -3.7077e-05
-0.00166799 0.000497813 0.000501504 -5.0995e-05
-0.0012559 0.000373608 0.000378126 -6.18297e-05
-0.00167931 0.000501175 0.000504916 -5.09954e-05
-0.00167365 0.000499494 0.00050321 -5.09952e-05
-0.00208421 0.000623394 0.000626064 -3.70769e-05
-0.00207008 0.00061918 0.000621813 -3.70768e-05
-0.00124314 0.000369843 0.000374269 -6.18289e-05
-0.00125165 0.000372353 0.00037684 -6.18294e-05
-0.00207714 0.000621287 0.000623938 -3.70769e-05
-0.00165667 0.000494452 0.000498092 -5.09947e-05
-0.00124739 0.000371098 0.000375554 -6.18292e-05
-0.00166799 0.000497813 0.000501504 -5.0995e-05
-0.00166233 0.000496133 0.000499798 -5.09949e-05
-0.00207008 0.00061918 0.000621813 -3.70768e-05
-0.00205594 0.000614965 0.000617562 -3.70766e-05
-0.00123463 0.000367332 0.000371698 -6.18284e-05
-0.00124314 0.000369843 0.000374269 -6.18289e-05
-0.00206301 0.000617072 0.000619687 -3.70767e-05
-0.00164534 0.00049109 0.000494681 -5.09943e-05
-0.00123888 0.000368588 0.000372984 -6.18286e-05
-0.00165667 0.000494452 0.000498092 -5.09947e-05
-0.00165101 0.000492771 0.000496386 -5.09945e-05
-0.00205594 0.000614965 0.000617562 -3.70766e-05
-0.00204181 0.00061075 0.000613311 -3.70764e-05
-0.00122612 0.000364822 0.000369128 -6.18278e-05
-0.00123463 0.000367332 0.000371698 -6.18284e-05
-0.00204888 0.000612857 0.000615436 -3.70765e-05
-0.00163402 0.000487728 0.000491269 -5.0994e-05
-0.00123037 0.000366077 0.000370413 -6.18281e-05
-0.00164534 0.00049109 0.000494681 -5.09943e-05
-0.00163968 0.000489409 0.000492975 -5.09942e-05
-0.00204181 0.00061075 0.000613311 -3.70764e-05
-0.00202768 0.000606535 0.000609061 -3.70762e-05
-0.00121761 0.000362311 0.000366558 -6.18273e-05
-0.00122612 0.000364822 0.000369128 -6.18278e-05
-0.00203474 0.000608643 0.000611186 -3.70763e-05
-0.0016227 0.000484366 0.000487859 -5.09936e-05
-0.00122187 0.000363567 0.000367843 -6.18275e-05
-0.00163402 0.000487728 0.000491269 -5.0994e-05
-0.00162836 0.000486047 0.000489564 -5.09938e-05
-0.00202768 0.000606535 0.000609061 -3.70762e-05
-0.00201354 0.00060232 0.000604811 -3.7076e-05
-0.00120911 0.000359801 0.000363988 -6.18267e-05
-0.00121761 0.000362311 0.000366558 -6.18273e-05
-0.00202061 0.000604428 0.000606936 -3.70761e-05
-0.00161138 0.000481004 0.000484448 -5.09933e-05
-0.00121336 0.000361056 0.000365273 -6.1827e-05
-0.0016227 0.000484366 0.000487859 -5.09936e-05
-0.00161704 0.000482685 0.000486153 -5.09934e-05
-0.00201354 0.00060232 0.000604811 -3.7076e-05
-0.00199941 0.000598105 0.000600561 -3.70758e-05
-0.0012006 0.00035729 0.000361419 -6.18261e-05
-0.00120911 0.000359801 0.000363988 -6.18267e-05
-0.00200648 0.000600213 0.000602685 -3.70759e-05
-0.00160006 0.000477642 0.000481037 -5.09929e-05
-0.00120485 0.000358545 0.000362703 -6.18264e-05
-0.00161138 0.000481004 0.000484448 -5.09933e-05
-0.00160572 0.000479323 0.000482743 -5.09931e-05
-0.00199941 0.000598105 0.000600561 -3.70758e-05
-0.00198528 0.000593891 0.000596311 -3.70756e-05
-0.00119209 0.000354779 0.000358849 -6.18255e-05
-0.0012006 0.00035729 0.000361419 -6.18261e-05
-0.00199235 0.000595998 0.000598436 -3.70757e-05
-0.00158874 0.00047428 0.000477627 -5.09925e-05
-0.00119635 0.000356034 0.000360134 -6.18258e-05
-0.00160006 0.000477642 0.000481037 -5.09929e-05
-0.0015944 0.000475961 0.000479332 -5.09927e-05
-0.00198528 0.000593891 0.000596311 -3.70756e-05
-0.00197115 0.000589676 0.000592061 -3.70754e-05
-0.00118359 0.000352268 0.00035628 -6.1825e-05
-0.00119209 0.000354779 0.000358849 -6.18255e-05
-0.00197822 0.000591783 0.000594186 -3.70755e-05
-0.00157742 0.000470918 0.000474217 -5.09921e-05
-0.00118784 0.000353523 0.000357565 -6.18252e-05
-0.00158874 0.00047428 0.000477627 -5.09925e-05
-0.00158308 0.000472599 0.000475922 -5.09923e-05
-0.00197115 0.000589676 0.000592061 -3.70754e-05
-0.00195702 0.000585461 0.000587812 -3.70752e-05
-0.00117508 0.000349756 0.000353711 -6.18244e-05
-0.00118359 0.000352268 0.00035628 -6.1825e-05
-0.00196409 0.000587568 0.000589937 -3.70753e-05
-0.00156611 0.000467555 0.000470808 -5.09917e-05
-0.00117934 0.000351012 0.000354996 -6.18247e-05
-0.00157742 0.000470918 0.000474217 -5.09921e-05
-0.00157177 0.000469237 0.000472512 -5.09919e-05
-0.00195702 0.000585461 0.000587812 -3.70752e-05
-0.00194289 0.000581246 0.000583563 -3.70749e-05
-0.00116658 0.000347245 0.000351143 -6.18238e-05
-0.00117508 0.000349756 0.000353711 -6.18244e-05
-0.00194996 0.000583353 0.000585687 -3.70751e-05
-0.00155479 0.000464193 0.000467398 -5.09913e-05
-0.00117083 0.000348501 0.000352427 -6.18241e-05
-0.00156611 0.000467555 0.000470808 -5.09917e-05
-0.00156045 0.000465874 0.000469103 -5.09915e-05
-0.00194289 0.000581246 0.000583563 -3.70749e-05
-0.00192876 0.000577031 0.000579314 -3.70747e-05
-0.00115807 0.000344733 0.000348575 -6.18232e-05
-0.00116658 0.000347245 0.000351143 -6.18238e-05
-0.00193583 0.000579138 0.000581438 -3.70748e-05
-0.00154347 0.00046083 0.000463989 -5.09909e-05
-0.00116233 0.000345989 0.000349859 -6.18235e-05
-0.00155479 0.000464193 0.000467398 -5.09913e-05
-0.00154913 0.000462512 0.000465693 -5.09911e-05
-0.00192876 0.000577031 0.000579314 -3.70747e-05
-0.00191463 0.000572816 0.000575065 -3.70745e-05
-0.00114957 0.000342222 0.000346007 -6.18225e-05
-0.00115807 0.000344733 0.000348575 -6.18232e-05
-0.0019217 0.000574923 0.00057719 -3.70746e-05
-0.00153215 0.000457468 0.00046058 -5.09905e-05
-0.00115382 0.000343477 0.000347291 -6.18228e-05
-0.00154347 0.00046083 0.000463989 -5.09909e-05
-0.00153781 0.000459149 0.000462284 -5.09907e-05
-0.00191463 0.000572816 0.000575065 -3.70745e-05
-0.00190051 0.000568601 0.000570817 -3.70743e-05
-0.00114107 0.00033971 0.000343439 -6.18219e-05
-0.00114957 0.000342222 0.000346007 -6.18225e-05
-0.00190757 0.000570708 0.000572941 -3.70744e-05
-0.00152084 0.000454105 0.000457171 -5.09901e-05
-0.00114532 0.000340966 0.000344723 -6.18222e-05
-0.00153215 0.000457468 0.00046058 -5.09905e-05
-0.0015265 0.000455787 0.000458876 -5.09903e-05
-0.00190051 0.000568601 0.000570817 -3.70743e-05
-0.00188638 0.000564386 0.000566569 -3.7074e-05
-0.00113256 0.000337198 0.000340872 -6.18213e-05
-0.00114107 0.00033971 0.000343439 -6.18219e-05
-0.00189344 0.000566493 0.000568693 -3.70741e-05
-0.00150952 0.000450742 0.000453763 -5.09897e-05
-0.00113682 0.000338454 0.000342155 -6.18216e-05
-0.00152084 0.000454105 0.000457171 -5.09901e-05
-0.00151518 0.000452424 0.000455467 -5.09899e-05
-0.00188638 0.000564386 0.000566569 -3.7074e-05
-0.00187225 0.00056017 0.000562321 -3.70738e-05
-0.00112406 0.000334686 0.000338304 -6.18207e-05
-0.00113256 0.000337198 0.000340872 -6.18213e-05
-0.00187932 0.000562278 0.000564445 -3.70739e-05
-0.00149821 0.000447379 0.000450355 -5.09893e-05
-0.00112831 0.000335942 0.000339588 -6.1821e-05
-0.00150952 0.000450742 0.000453763 -5.09897e-05
-0.00150386 0.000449061 0.000452059 -5.09895e-05
-0.00187225 0.00056017 0.000562321 -3.70738e-05
-0.00185813 0.000555955 0.000558073 -3.70736e-05
-0.00111556 0.000332173 0.000335737 -6.182e-05
-0.00112406 0.000334686 0.000338304 -6.18207e-05
-0.00186519 0.000558063 0.000560197 -3.70737e-05
-0.00148689 0.000444016 0.000446947 -5.09888e-05
-0.00111981 0.000333429 0.000337021 -6.18204e-05
-0.00149821 0.000447379 0.000450355 -5.09893e-05
-0.00149255 0.000445698 0.000448651 -5.0989e-05
-0.00185813 0.000555955 0.000558073 -3.70736e-05
-0.001844 0.00055174 0.000553825 -3.70733e-05
-0.00110706 0.000329661 0.000333171 -6.18194e-05
-0.00111556 0.000332173 0.000335737 -6.182e-05
-0.00185106 0.000553848 0.000555949 -3.70734e-05
-0.00147558 0.000440653 0.000443539 -5.09884e-05
-0.00111131 0.000330917 0.000334454 -6.18197e-05
-0.00148689 0.000444016 0.000446947 -5.09888e-05
-0.00148123 0.000442335 0.000445243 -5.09886e-05
-0.001844 0.00055174 0.000553825 -3.70733e-05
-0.00182987 0.000547525 0.000549578 -3.70731e-05
-0.00109856 0.000327148 0.000330605 -6.18188e-05
-0.00110706 0.000329661 0.000333171 -6.18194e-05
-0.00183694 0.000549633 0.000551702 -3.70732e-05
-0.00146426 0.00043729 0.000440131 -5.0988e-05
-0.00110281 0.000328404 0.000331888 -6.18191e-05
-0.00147558 0.000440653 0.000443539 -5.09884e-05
-0.00146992 0.000438972 0.000441835 -5.09882e-05
-0.00182987 0.000547525 0.000549578 -3.70731e-05
-0.00181575 0.00054331 0.000545331 -3.70728e-05
-0.00109006 0.000324635 0.000328038 -6.18181e-05
-0.00109856 0.000327148 0.000330605 -6.18188e-05
-0.00182281 0.000545417 0.000547454 -3.70729e-05
-0.00145295 0.000433927 0.000436724 -5.09875e-05
-0.00109431 0.000325892 0.000329321 -6.18184e-05
-0.00146426 0.00043729 0.000440131 -5.0988e-05
-0.00145861 0.000435609 0.000438428 -5.09877e-05
-0.00181575 0.00054331 0.000545331 -3.70728e-05
-0.00180162 0.000539094 0.000541084 -3.70726e-05
-0.00108156 0.000322123 0.000325473 -6.18175e-05
-0.00109006 0.000324635 0.000328038 -6.18181e-05
-0.00180869 0.000541202 0.000543207 -3.70727e-05
-0.00144164 0.000430564 0.000433317 -5.09871e-05
-0.00108581 0.000323379 0.000326756 -6.18178e-05
-0.00145295 0.000433927 0.000436724 -5.09875e-05
-0.00144729 0.000432245 0.000435021 -5.09873e-05
-0.00180162 0.000539094 0.000541084 -3.70726e-05
-0.0017875 0.000534879 0.000536837 -3.70723e-05
-0.00107306 0.00031961 0.000322907 -6.18168e-05
-0.00108156 0.000322123 0.000325473 -6.18175e-05
-0.00179456 0.000536987 0.000538961 -3.70724e-05
-0.00143032 0.0004272 0.000429911 -5.09866e-05
-0.00107731 0.000320866 0.00032419 -6.18171e-05
-0.00144164 0.000430564 0.000433317 -5.09871e-05
-0.00143598 0.000428882 0.000431614 -5.09869e-05
-0.0017875 0.000534879 0.000536837 -3.70723e-05
-0.00177338 0.000530664 0.000532591 -3.70721e-05
-0.00106456 0.000317096 0.000320342 -6.18161e-05
-0.00107306 0.00031961 0.000322907 -6.18168e-05
-0.00178044 0.000532772 0.000534714 -3.70722e-05
-0.00141901 0.000423837 0.000426504 -5.09862e-05
-0.00106881 0.000318353 0.000321624 -6.18165e-05
-0.00143032 0.0004272 0.000429911 -5.09866e-05
-0.00142467 0.000425518 0.000428207 -5.09864e-05
-0.00177338 0.000530664 0.000532591 -3.70721e-05
-0.00175925 0.000526449 0.000528345 -3.70718e-05
-0.00105606 0.000314583 0.000317777 -6.18155e-05
-0.00106456 0.000317096 0.000320342 -6.18161e-05
-0.00176631 0.000528556 0.000530468 -3.70719e-05
-0.0014077 0.000420473 0.000423098 -5.09858e-05
-0.00106031 0.00031584 0.000319059 -6.18158e-05
-0.00141901 0.000423837 0.000426504 -5.09862e-05
-0.00141336 0.000422155 0.000424801 -5.0986e-05
-0.00175925 0.000526449 0.000528345 -3.70718e-05
-0.00174513 0.000522233 0.000524099 -3.70716e-05
-0.00104756 0.00031207 0.000315212 -6.18148e-05
-0.00105606 0.000314583 0.000317777 -6.18155e-05
-0.00175219 0.000524341 0.000526222 -3.70717e-05
-0.00139639 0.000417109 0.000419692 -5.09853e-05
-0.00105181 0.000313326 0.000316494 -6.18152e-05
-0.0014077 0.000420473 0.000423098 -5.09858e-05
-0.00140205 0.000418791 0.000421395 -5.09855e-05
-0.00174513 0.000522233 0.000524099 -3.70716e-05
-0.00173101 0.000518018 0.000519853 -3.70713e-05
-0.00103907 0.000309556 0.000312648 -6.18142e-05
-0.00104756 0.00031207 0.000315212 -6.18148e-05
-0.00173807 0.000520126 0.000521976 -3.70714e-05
-0.00138508 0.000413745 0.000416286 -5.09849e-05
-0.00104332 0.000310813 0.00031393 -6.18145e-05
-0.00139639 0.000417109 0.000419692 -5.09853e-05
-0.00139074 0.000415427 0.000417989 -5.09851e-05
-0.00173101 0.000518018 0.000519853 -3.70713e-05
-0.00171689 0.000513803 0.000515607 -3.7071e-05
-0.00103057 0.000307042 0.000310083 -6.18135e-05
-0.00103907 0.000309556 0.000312648 -6.18142e-05
-0.00172395 0.00051591 0.00051773 -3.70712e-05
-0.00137377 0.000410382 0.000412881 -5.09844e-05
-0.00103482 0.000308299 0.000311366 -6.18138e-05
-0.00138508 0.000413745 0.000416286 -5.09849e-05
-0.00137942 0.000412064 0.000414583 -5.09846e-05
-0.00171689 0.000513803 0.000515607 -3.7071e-05
-0.00170277 0.000509587 0.000511362 -3.70708e-05
-0.00102207 0.000304529 0.00030752 -6.18128e-05
-0.00103057 0.000307042 0.000310083 -6.18135e-05
-0.00170983 0.000511695 0.000513485 -3.70709e-05
-0.00136246 0.000407018 0.000409476 -5.09839e-05
-0.00102632 0.000305785 0.000308801 -6.18132e-05
-0.00137377 0.000410382 0.000412881 -5.09844e-05
-0.00136812 0.0004087 0.000411178 -5.09842e-05
-0.00170277 0.000509587 0.000511362 -3.70708e-05
-0.00168864 0.000505372 0.000507117 -3.70705e-05
-0.00101358 0.000302015 0.000304956 -6.18122e-05
-0.00102207 0.000304529 0.00030752 -6.18128e-05
-0.0016957 0.000507479 0.000509239 -3.70706e-05
-0.00135115 0.000403654 0.000406071 -5.09835e-05
-0.00101783 0.000303272 0.000306238 -6.18125e-05
-0.00136246 0.000407018 0.000409476 -5.09839e-05
-0.00135681 0.000405336 0.000407773 -5.09837e-05
-0.00168864 0.000505372 0.000507117 -3.70705e-05
-0.00167452 0.000501156 0.000502872 -3.70703e-05
-0.00100508 0.0002995 0.000302393 -6.18115e-05
-0.00101358 0.000302015 0.000304956 -6.18122e-05
-0.00168158 0.000503264 0.000504994 -3.70704e-05
-0.00133984 0.000400289 0.000402666 -5.0983e-05
-0.00100933 0.000300757 0.000303674 -6.18118e-05
-0.00135115 0.000403654 0.000406071 -5.09835e-05
-0.0013455 0.000401972 0.000404368 -5.09833e-05
-0.00167452 0.000501156 0.000502872 -3.70703e-05
-0.0016604 0.000496941 0.000498627 -3.707e-05
-0.000996588 0.000296986 0.000299829 -6.18108e-05
-0.00100508 0.0002995 0.000302393 -6.18115e-05
-0.00166746 0.000499049 0.00050075 -3.70701e-05
-0.00132854 0.000396925 0.000399261 -5.09826e-05
-0.00100084 0.000298243 0.000301111 -6.18111e-05
-0.00133984 0.000400289 0.000402666 -5.0983e-05
-0.00133419 0.000398607 0.000400964 -5.09828e-05
-0.0016604 0.000496941 0.000498627 -3.707e-05
-0.00164629 0.000492725 0.000494383 -3.70697e-05
-0.000988094 0.000294472 0.000297267 -6.18101e-05
-0.000996588 0.000296986 0.000299829 -6.18108e-05
-0.00165334 0.000494833 0.000496505 -3.70699e-05
-0.00131723 0.000393561 0.000395857 -5.09821e-05
-0.000992341 0.000295729 0.000298548 -6.18105e-05
-0.00132854 0.000396925 0.000399261 -5.09826e-05
-0.00132288 0.000395243 0.000397559 -5.09823e-05
-0.00164629 0.000492725 0.000494383 -3.70697e-05
-0.00163217 0.00048851 0.000490139 -3.70695e-05
-0.0009796 0.000291957 0.000294704 -6.18095e-05
-0.000988094 0.000294472 0.000297267 -6.18101e-05
-0.00163923 0.000490618 0.000492261 -3.70696e-05
-0.00130592 0.000390197 0.000392453 -5.09817e-05
-0.000983847 0.000293214 0.000295985 -6.18098e-05
-0.00131723 0.000393561 0.000395857 -5.09821e-05
-0.00131157 0.000391879 0.000394155 -5.09819e-05
-0.00163217 0.00048851 0.000490139 -3.70695e-05
-0.00161805 0.000484294 0.000485895 -3.70692e-05
-0.000971107 0.000289442 0.000292142 -6.18088e-05
-0.0009796 0.000291957 0.000294704 -6.18095e-05
-0.00162511 0.000486402 0.000488017 -3.70693e-05
-0.00129461 0.000386832 0.00038905 -5.09812e-05
-0.000975353 0.0002907 0.000293423 -6.18091e-05
-0.00130592 0.000390197 0.000392453 -5.09817e-05
-0.00130027 0.000388514 0.000390751 -5.09814e-05
-0.00161805 0.000484294 0.000485895 -3.70692e-05
-0.00160393 0.000480079 0.000481651 -3.70689e-05
-0.000962614 0.000286928 0.00028958 -6.18081e-05
-0.000971107 0.000289442 0.000292142 -6.18088e-05
-0.00161099 0.000482186 0.000483773 -3.70691e-05
-0.00128331 0.000383467 0.000385646 -5.09807e-05
-0.00096686 0.000288185 0.000290861 -6.18085e-05
-0.00129461 0.000386832 0.00038905 -5.09812e-05
-0.00128896 0.00038515 0.000387348 -5.0981e-05
-0.00160393 0.000480079 0.000481651 -3.70689e-05
-0.00158981 0.000475863 0.000477407 -3.70687e-05
-0.000954121 0.000284413 0.000287018 -6.18074e-05
-0.000962614 0.000286928 0.00028958 -6.18081e-05
-0.00159687 0.000477971 0.000479529 -3.70688e-05
-0.001272 0.000380103 0.000382243 -5.09803e-05
-0.000958368 0.00028567 0.000288299 -6.18078e-05
-0.00128331 0.000383467 0.000385646 -5.09807e-05
-0.00127766 0.000381785 0.000383945 -5.09805e-05
-0.00158981 0.000475863 0.000477407 -3.70687e-05
-0.0015757 0.000471647 0.000473164 -3.70684e-05
-0.00094563 0.000281898 0.000284457 -6.18068e-05
-0.000954121 0.000284413 0.000287018 -6.18074e-05
-0.00158276 0.000473755 0.000475286 -3.70685e-05
-0.0012607 0.000376738 0.00037884 -5.09798e-05
-0.000949875 0.000283155 0.000285737 -6.18071e-05
-0.001272 0.000380103 0.000382243 -5.09803e-05
-0.00126635 0.00037842 0.000380542 -5.098e-05
-0.0015757 0.000471647 0.000473164 -3.70684e-05
-0.00156158 0.000467432 0.000468921 -3.70681e-05
-0.000937138 0.000279382 0.000281895 -6.18061e-05
-0.00094563 0.000281898 0.000284457 -6.18068e-05
-0.00156864 0.00046954 0.000471042 -3.70683e-05
-0.00124939 0.000373373 0.000375437 -5.09794e-05
-0.000941384 0.00028064 0.000283176 -6.18064e-05
-0.0012607 0.000376738 0.00037884 -5.09798e-05
-0.00125505 0.000375056 0.000377139 -5.09796e-05
-0.00156158 0.000467432 0.000468921 -3.70681e-05
-0.00154746 0.000463216 0.000464678 -3.70679e-05
-0.000928647 0.000276867 0.000279334 -6.18054e-05
-0.000937138 0.000279382 0.000281895 -6.18061e-05
-0.00155452 0.000465324 0.000466799 -3.7068e-05
-0.00123809 0.000370008 0.000372035 -5.09789e-05
-0.000932893 0.000278125 0.000280615 -6.18058e-05
-0.00124939 0.000373373 0.000375437 -5.09794e-05
-0.00124374 0.000371691 0.000373736 -5.09791e-05
-0.00154746 0.000463216 0.000464678 -3.70679e-05
-0.00153335 0.000459 0.000460435 -3.70676e-05
-0.000920157 0.000274351 0.000276774 -6.18047e-05
-0.000928647 0.000276867 0.000279334 -6.18054e-05
-0.00154041 0.000461108 0.000462557 -3.70677e-05
-0.00122679 0.000366643 0.000368633 -5.09784e-05
-0.000924402 0.000275609 0.000278054 -6.18051e-05
-0.00123809 0.000370008 0.000372035 -5.09789e-05
-0.00123244 0.000368326 0.000370334 -5.09787e-05
-0.00153335 0.000459 0.000460435 -3.70676e-05
-0.00151924 0.000454785 0.000456193 -3.70673e-05
-0.000911667 0.000271836 0.000274213 -6.18041e-05
-0.000920157 0.000274351 0.000276774 -6.18047e-05
-0.00152629 0.000456893 0.000458314 -3.70675e-05
-0.00121548 0.000363278 0.000365231 -5.0978e-05
-0.000915912 0.000273093 0.000275494 -6.18044e-05
-0.00122679 0.000366643 0.000368633 -5.09784e-05
-0.00122114 0.000364961 0.000366932 -5.09782e-05
-0.00151924 0.000454785 0.000456193 -3.70673e-05
-0.00150512 0.000450569 0.000451951 -3.70671e-05
-0.000903178 0.00026932 0.000271653 -6.18034e-05
-0.000911667 0.000271836 0.000274213 -6.18041e-05
-0.00151218 0.000452677 0.000454072 -3.70672e-05
-0.00120418 0.000359913 0.000361829 -5.09775e-05
-0.000907422 0.000270578 0.000272933 -6.18037e-05
-0.00121548 0.000363278 0.000365231 -5.0978e-05
-0.00120983 0.000361596 0.00036353 -5.09777e-05
-0.00150512 0.000450569 0.000451951 -3.70671e-05
-0.00149101 0.000446353 0.000447709 -3.70668e-05
-0.000894689 0.000266804 0.000269094 -6.18027e-05
-0.000903178 0.00026932 0.000271653 -6.18034e-05
-0.00149806 0.000448461 0.00044983 -3.7067e-05
-0.00119288 0.000356548 0.000358428 -5.09771e-05
-0.000898933 0.000268062 0.000270373 -6.18031e-05
-0.00120418 0.000359913 0.000361829 -5.09775e-05
-0.00119853 0.00035823 0.000360129 -5.09773e-05
-0.00149101 0.000446353 0.000447709 -3.70668e-05
-0.00147689 0.000442138 0.000443467 -3.70666e-05
-0.0008862 0.000264288 0.000266534 -6.18021e-05
-0.000894689 0.000266804 0.000269094 -6.18027e-05
-0.00148395 0.000444245 0.000445588 -3.70667e-05
-0.00118158 0.000353182 0.000355027 -5.09766e-05
-0.000890444 0.000265546 0.000267814 -6.18024e-05
-0.00119288 0.000356548 0.000358428 -5.09771e-05
-0.00118723 0.000354865 0.000356727 -5.09768e-05
-0.00147689 0.000442138 0.000443467 -3.70666e-05
-0.00146278 0.000437922 0.000439225 -3.70663e-05
-0.000877712 0.000261771 0.000263975 -6.18014e-05
-0.0008862 0.000264288 0.000266534 -6.18021e-05
-0.00146984 0.00044003 0.000441346 -3.70664e-05
-0.00117028 0.000349817 0.000351626 -5.09762e-05
-0.000881956 0.00026303 0.000265254 -6.18017e-05
-0.00118158 0.000353182 0.000355027 -5.09766e-05
-0.00117593 0.0003515 0.000353326 -5.09764e-05
-0.00146278 0.000437922 0.000439225 -3.70663e-05
-0.00144867 0.000433706 0.000434984 -3.70661e-05
-0.000869225 0.000259255 0.000261416 -6.18007e-05
-0.000877712 0.000261771 0.000263975 -6.18014e-05
-0.00145573 0.000435814 0.000437105 -3.70662e-05
-0.00115898 0.000346451 0.000348225 -5.09757e-05
-0.000873469 0.000260513 0.000262695 -6.18011e-05
-0.00117028 0.000349817 0.000351626 -5.09762e-05
-0.00116463 0.000348134 0.000349925 -5.09759e-05
-0.00144867 0.000433706 0.000434984 -3.70661e-05
-0.00143456 0.00042949 0.000430743 -3.70658e-05
-0.000860738 0.000256739 0.000258857 -6.18001e-05
-0.000869225 0.000259255 0.000261416 -6.18007e-05
-0.00144161 0.000431598 0.000432864 -3.70659e-05
-0.00114768 0.000343086 0.000344825 -5.09753e-05
-0.000864981 0.000257997 0.000260136 -6.18004e-05
-0.00115898 0.000346451 0.000348225 -5.09757e-05
-0.00115333 0.000344769 0.000346525 -5.09755e-05
-0.00143456 0.00042949 0.000430743 -3.70658e-05
-0.00142045 0.000425274 0.000426502 -3.70655e-05
-0.000852252 0.000254222 0.000256298 -6.17994e-05
-0.000860738 0.000256739 0.000258857 -6.18001e-05
-0.0014275 0.000427382 0.000428623 -3.70657e-05
-0.00113638 0.00033972 0.000341425 -5.09748e-05
-0.000856495 0.00025548 0.000257578 -6.17997e-05
-0.00114768 0.000343086 0.000344825 -5.09753e-05
-0.00114203 0.000341403 0.000343125 -5.0975e-05
-0.00142045 0.000425274 0.000426502 -3.70655e-05
-0.00140634 0.000421058 0.000422262 -3.70653e-05
-0.000843766 0.000251705 0.00025374 -6.17988e-05
-0.000852252 0.000254222 0.000256298 -6.17994e-05
-0.00141339 0.000423166 0.000424382 -3.70654e-05
-0.00112508 0.000336354 0.000338025 -5.09744e-05
-0.000848008 0.000252964 0.000255019 -6.17991e-05
-0.00113638 0.00033972 0.000341425 -5.09748e-05
-0.00113073 0.000338037 0.000339725 -5.09746e-05
-0.00140634 0.000421058 0.000422262 -3.70653e-05
-0.00139223 0.000416842 0.000418021 -3.7065e-05
-0.00083528 0.000249188 0.000251182 -6.17981e-05
-0.000843766 0.000251705 0.00025374 -6.17988e-05
-0.00139928 0.00041895 0.000420141 -3.70652e-05
-0.00111378 0.000332988 0.000334625 -5.09739e-05
-0.000839523 0.000250447 0.000252461 -6.17984e-05
-0.00112508 0.000336354 0.000338025 -5.09744e-05
-0.00111943 0.000334671 0.000336325 -5.09742e-05
-0.00139223 0.000416842 0.000418021 -3.7065e-05
-0.00137812 0.000412626 0.000413781 -3.70648e-05
-0.000826795 0.000246671 0.000248625 -6.17975e-05
-0.00083528 0.000249188 0.000251182 -6.17981e-05
-0.00138517 0.000414734 0.000415901 -3.70649e-05
-0.00110248 0.000329622 0.000331226 -5.09735e-05
-0.000831038 0.00024793 0.000249903 -6.17978e-05
-0.00111378 0.000332988 0.000334625 -5.09739e-05
-0.00110813 0.000331305 0.000332925 -5.09737e-05
-0.00137812 0.000412626 0.000413781 -3.70648e-05
-0.00136401 0.00040841 0.000409541 -3.70645e-05
-0.000818311 0.000244154 0.000246067 -6.17968e-05
-0.000826795 0.000246671 0.000248625 -6.17975e-05
-0.00137106 0.000410518 0.000411661 -3.70647e-05
-0.00109118 0.000326256 0.000327826 -5.09731e-05
-0.000822553 0.000245412 0.000247346 -6.17971e-05
-0.00110248 0.000329622 0.000331226 -5.09735e-05
-0.00109683 0.000327939 0.000329526 -5.09733e-05
-0.00136401 0.00040841 0.000409541 -3.70645e-05
-0.0013499 0.000404194 0.000405301 -3.70643e-05
-0.000809827 0.000241636 0.00024351 -6.17962e-05
-0.000818311 0.000244154 0.000246067 -6.17968e-05
-0.00135695 0.000406302 0.000407421 -3.70644e-05
-0.00107989 0.00032289 0.000324428 -5.09726e-05
-0.000814069 0.000242895 0.000244789 -6.17965e-05
-0.00109118 0.000326256 0.000327826 -5.09731e-05
-0.00108554 0.000324573 0.000326127 -5.09728e-05
-0.0013499 0.000404194 0.000405301 -3.70643e-05
-0.00133579 0.000399978 0.000401062 -3.70641e-05
-0.000801343 0.000239119 0.000240953 -6.17955e-05
-0.000809827 0.000241636 0.00024351 -6.17962e-05
-0.00134284 0.000402086 0.000403181 -3.70642e-05
-0.00106859 0.000319524 0.000321029 -5.09722e-05
-0.000805585 0.000240378 0.000242232 -6.17959e-05
-0.00107989 0.00032289 0.000324428 -5.09726e-05
-0.00107424 0.000321207 0.000322728 -5.09724e-05
-0.00133579 0.000399978 0.000401062 -3.70641e-05
-0.00132168 0.000395762 0.000396822 -3.70638e-05
-0.00079286 0.000236601 0.000238397 -6.17949e-05
-0.000801343 0.000239119 0.000240953 -6.17955e-05
-0.00132874 0.00039787 0.000398942 -3.70639e-05
-0.0010573 0.000316158 0.000317631 -5.09718e-05
-0.000797102 0.00023786 0.000239675 -6.17952e-05
-0.00106859 0.000319524 0.000321029 -5.09722e-05
-0.00106294 0.000317841 0.00031933 -5.0972e-05
-0.00132168 0.000395762 0.000396822 -3.70638e-05
-0.00130757 0.000391546 0.000392583 -3.70636e-05
-0.000784378 0.000234083 0.00023584 -6.17943e-05
-0.00079286 0.000236601 0.000238397 -6.17949e-05
-0.00131463 0.000393654 0.000394703 -3.70637e-05
-0.001046 0.000312791 0.000314232 -5.09714e-05
-0.000788619 0.000235342 0.000237118 -6.17946e-05
-0.0010573 0.000316158 0.000317631 -5.09718e-05
-0.00105165 0.000314474 0.000315931 -5.09716e-05
-0.00130757 0.000391546 0.000392583 -3.70636e-05
-0.00129347 0.00038733 0.000388344 -3.70633e-05
-0.000775895 0.000231565 0.000233284 -6.17937e-05
-0.000784378 0.000234083 0.00023584 -6.17943e-05
-0.00130052 0.000389438 0.000390464 -3.70635e-05
-0.00103471 0.000309425 0.000310834 -5.09709e-05
-0.000780136 0.000232824 0.000234562 -6.1794e-05
-0.001046 0.000312791 0.000314232 -5.09714e-05
-0.00104035 0.000311108 0.000312533 -5.09711e-05
-0.00129347 0.00038733 0.000388344 -3.70633e-05
-0.00127936 0.000383114 0.000384106 -3.70631e-05
-0.000767414 0.000229047 0.000230729 -6.1793e-05
-0.000775895 0.000231565 0.000233284 -6.17937e-05
-0.00128641 0.000385222 0.000386225 -3.70632e-05
-0.00102341 0.000306058 0.000307437 -5.09705e-05
-0.000771655 0.000230306 0.000232006 -6.17934e-05
-0.00103471 0.000309425 0.000310834 -5.09709e-05
-0.00102906 0.000307741 0.000309136 -5.09707e-05
-0.00127936 0.000383114 0.000384106 -3.70631e-05
-0.00126525 0.000378898 0.000379867 -3.70629e-05
-0.000758933 0.000226529 0.000228173 -6.17924e-05
-0.000767414 0.000229047 0.000230729 -6.1793e-05
-0.00127231 0.000381006 0.000381987 -3.7063e-05
-0.00101212 0.000302691 0.000304039 -5.09701e-05
-0.000763173 0.000227788 0.000229451 -6.17927e-05
-0.00102341 0.000306058 0.000307437 -5.09705e-05
-0.00101776 0.000304375 0.000305738 -5.09703e-05
-0.00126525 0.000378898 0.000379867 -3.70629e-05
-0.00125115 0.000374682 0.000375629 -3.70627e-05
-0.000750452 0.000224011 0.000225618 -6.17918e-05
-0.000758933 0.000226529 0.000228173 -6.17924e-05
-0.0012582 0.00037679 0.000377748 -3.70628e-05
-0.00100082 0.000299325 0.000300642 -5.09697e-05
-0.000754692 0.00022527 0.000226895 -6.17921e-05
-0.00101212 0.000302691 0.000304039 -5.09701e-05
-0.00100647 0.000301008 0.000302341 -5.09699e-05
-0.00125115 0.000374682 0.000375629 -3.70627e-05
-0.00123704 0.000370465 0.000371391 -3.70624e-05
-0.000741972 0.000221492 0.000223063 -6.17912e-05
-0.000750452 0.000224011 0.000225618 -6.17918e-05
-0.0012441 0.000372574 0.00037351 -3.70626e-05
-0.00098953 0.000295958 0.000297245 -5.09693e-05
-0.000746212 0.000222752 0.00022434 -6.17915e-05
-0.00100082 0.000299325 0.000300642 -5.09697e-05
-0.000995177 0.000297641 0.000298944 -5.09695e-05
-0.00123704 0.000370465 0.000371391 -3.70624e-05
-0.00122294 0.000366249 0.000367153 -3.70622e-05
-0.000733492 0.000218974 0.000220508 -6.17906e-05
-0.000741972 0.000221492 0.000223063 -6.17912e-05
-0.00122999 0.000368357 0.000369272 -3.70623e-05
-0.000978238 0.000292591 0.000293849 -5.09689e-05
-0.000737732 0.000220233 0.000221785 -6.17909e-05
-0.00098953 0.000295958 0.000297245 -5.09693e-05
-0.000983884 0.000294274 0.000295547 -5.09691e-05
-0.00122294 0.000366249 0.000367153 -3.70622e-05
-0.00120884 0.000362033 0.000362916 -3.7062e-05
-0.000725013 0.000216455 0.000217954 -6.179e-05
-0.000733492 0.000218974 0.000220508 -6.17906e-05
-0.00121589 0.000364141 0.000365035 -3.70621e-05
-0.000966946 0.000289224 0.000290452 -5.09685e-05
-0.000729253 0.000217714 0.000219231 -6.17903e-05
-0.000978238 0.000292591 0.000293849 -5.09689e-05
-0.000972592 0.000290907 0.000292151 -5.09687e-05
-0.00120884 0.000362033 0.000362916 -3.7062e-05
-0.00119473 0.000357817 0.000358678 -3.70618e-05
-0.000716535 0.000213936 0.0002154 -6.17894e-05
-0.000725013 0.000216455 0.000217954 -6.179e-05
-0.00120178 0.000359925 0.000360797 -3.70619e-05
-0.000955654 0.000285856 0.000287056 -5.09681e-05
-0.000720774 0.000215195 0.000216677 -6.17897e-05
-0.000966946 0.000289224 0.000290452 -5.09685e-05
-0.0009613 0.00028754 0.000288754 -5.09683e-05
-0.00119473 0.000357817 0.000358678 -3.70618e-05
-0.00118063 0.0003536 0.000354441 -3.70616e-05
-0.000708056 0.000211417 0.000212846 -6.17889e-05
-0.000716535 0.000213936 0.0002154 -6.17894e-05
-0.00118768 0.000355708 0.00035656 -3.70617e-05
-0.000944363 0.000282489 0.00028366 -5.09677e-05
-0.000712296 0.000212676 0.000214123 -6.17892e-05
-0.000955654 0.000285856 0.000287056 -5.09681e-05
-0.000950009 0.000284173 0.000285358 -5.09679e-05
-0.00118063 0.0003536 0.000354441 -3.70616e-05
-0.00116653 0.000349384 0.000350204 -3.70614e-05
-0.000699579 0.000208897 0.000210292 -6.17883e-05
-0.000708056 0.000211417 0.000212846 -6.17889e-05
-0.00117358 0.000351492 0.000352323 -3.70615e-05
-0.000933073 0.000279122 0.000280265 -5.09674e-05
-0.000703818 0.000210157 0.000211569 -6.17886e-05
-0.000944363 0.000282489 0.00028366 -5.09677e-05
-0.000938718 0.000280806 0.000281962 -5.09676e-05
-0.00116653 0.000349384 0.000350204 -3.70614e-05
-0.00115243 0.000345168 0.000345968 -3.70612e-05
-0.000691102 0.000206378 0.000207739 -6.17877e-05
-0.000699579 0.000208897 0.000210292 -6.17883e-05
-0.00115948 0.000347276 0.000348086 -3.70613e-05
-0.000921783 0.000275754 0.000276869 -5.0967e-05
-0.00069534 0.000207638 0.000209015 -6.1788e-05
-0.000933073 0.000279122 0.000280265 -5.09674e-05
-0.000927427 0.000277438 0.000278567 -5.09672e-05
-0.00115243 0.000345168 0.000345968 -3.70612e-05
-0.00113832 0.000340951 0.000341731 -3.7061e-05
-0.000682625 0.000203859 0.000205186 -6.17872e-05
-0.000691102 0.000206378 0.000207739 -6.17877e-05
-0.00114537 0.000343059 0.000343849 -3.70611e-05
-0.000910493 0.000272387 0.000273474 -5.09666e-05
-0.000686863 0.000205118 0.000206462 -6.17874e-05
-0.000921783 0.000275754 0.000276869 -5.0967e-05
-0.000916138 0.000274071 0.000275172 -5.09668e-05
-0.00113832 0.000340951 0.000341731 -3.7061e-05
-0.00112422 0.000336735 0.000337495 -3.70608e-05
-0.000674149 0.000201339 0.000202633 -6.17866e-05
-0.000682625 0.000203859 0.000205186 -6.17872e-05
-0.00113127 0.000338843 0.000339613 -3.70609e-05
-0.000899204 0.000269019 0.000270079 -5.09663e-05
-0.000678387 0.000202599 0.000203909 -6.17869e-05
-0.000910493 0.000272387 0.000273474 -5.09666e-05
-0.000904848 0.000270703 0.000271777 -5.09664e-05
-0.00112422 0.000336735 0.000337495 -3.70608e-05
-0.00111012 0.000332518 0.000333259 -3.70606e-05
-0.000665673 0.000198819 0.00020008 -6.17861e-05
-0.000674149 0.000201339 0.000202633 -6.17866e-05
-0.00111717 0.000334626 0.000335377 -3.70607e-05
-0.000887915 0.000265651 0.000266684 -5.09659e-05
-0.000669911 0.000200079 0.000201356 -6.17863e-05
-0.000899204 0.000269019 0.000270079 -5.09663e-05
-0.000893559 0.000267335 0.000268382 -5.09661e-05
-0.00111012 0.000332518 0.000333259 -3.70606e-05
-0.00109602 0.000328302 0.000329023 -3.70604e-05
-0.000657197 0.000196299 0.000197528 -6.17855e-05
-0.000665673 0.000198819 0.00020008 -6.17861e-05
-0.00110307 0.00033041 0.000331141 -3.70605e-05
-0.000876627 0.000262284 0.00026329 -5.09656e-05
-0.000661435 0.000197559 0.000198804 -6.17858e-05
-0.000887915 0.000265651 0.000266684 -5.09659e-05
-0.000882271 0.000263968 0.000264987 -5.09657e-05
-0.00109602 0.000328302 0.000329023 -3.70604e-05
-0.00108192 0.000324085 0.000324788 -3.70602e-05
-0.000648723 0.000193779 0.000194976 -6.1785e-05
-0.000657197 0.000196299 0.000197528 -6.17855e-05
-0.00108897 0.000326193 0.000326905 -3.70603e-05
-0.000865339 0.000258916 0.000259896 -5.09652e-05
-0.00065296 0.000195039 0.000196252 -6.17852e-05
-0.000876627 0.000262284 0.00026329 -5.09656e-05
-0.000870983 0.0002606 0.000261593 -5.09654e-05
-0.00108192 0.000324085 0.000324788 -3.70602e-05
-0.00106782 0.000319868 0.000320552 -3.70601e-05
-0.000640248 0.000191259 0.000192424 -6.17845e-05
-0.000648723 0.000193779 0.000194976 -6.1785e-05
-0.00107487 0.000321977 0.00032267 -3.70601e-05
-0.000854052 0.000255548 0.000256502 -5.09649e-05
-0.000644485 0.000192519 0.0001937 -6.17847e-05
-0.000865339 0.000258916 0.000259896 -5.09652e-05
-0.000859696 0.000257232 0.000258199 -5.0965e-05
-0.00106782 0.000319868 0.000320552 -3.70601e-05
-0.00105372 0.000315652 0.000316317 -3.70599e-05
-0.000631774 0.000188738 0.000189873 -6.17839e-05
-0.000640248 0.000191259 0.000192424 -6.17845e-05
-0.00106077 0.00031776 0.000318435 -3.706e-05
-0.000842765 0.00025218 0.000253108 -5.09645e-05
-0.000636011 0.000189998 0.000191148 -6.17842e-05
-0.000854052 0.000255548 0.000256502 -5.09649e-05
-0.000848409 0.000253864 0.000254805 -5.09647e-05
-0.00105372 0.000315652 0.000316317 -3.70599e-05
-0.00103963 0.000311435 0.000312082 -3.70597e-05
-0.000623301 0.000186218 0.000187321 -6.17834e-05
-0.000631774 0.000188738 0.000189873 -6.17839e-05
-0.00104668 0.000313543 0.000314199 -3.70598e-05
-0.000831479 0.000248811 0.000249715 -5.09642e-05
-0.000627538 0.000187478 0.000188597 -6.17837e-05
-0.000842765 0.00025218 0.000253108 -5.09645e-05
-0.000837122 0.000250496 0.000251411 -5.09644e-05
-0.00103963 0.000311435 0.000312082 -3.70597e-05
-0.00102553 0.000307218 0.000307847 -3.70596e-05
-0.000614828 0.000183697 0.00018477 -6.17829e-05
-0.000623301 0.000186218 0.000187321 -6.17834e-05
-0.00103258 0.000309327 0.000309965 -3.70596e-05
-0.000820193 0.000245443 0.000246322 -5.09639e-05
-0.000619064 0.000184957 0.000186046 -6.17832e-05
-0.000831479 0.000248811 0.000249715 -5.09642e-05
-0.000825836 0.000247127 0.000248018 -5.09641e-05
-0.00102553 0.000307218 0.000307847 -3.70596e-05
-0.00101143 0.000303002 0.000303613 -3.70594e-05
-0.000606355 0.000181176 0.00018222 -6.17824e-05
-0.000614828 0.000183697 0.00018477 -6.17829e-05
-0.00101848 0.00030511 0.00030573 -3.70595e-05
-0.000808908 0.000242075 0.000242929 -5.09636e-05
-0.000610592 0.000182437 0.000183495 -6.17827e-05
-0.000820193 0.000245443 0.000246322 -5.09639e-05
-0.000814551 0.000243759 0.000244625 -5.09637e-05
-0.00101143 0.000303002 0.000303613 -3.70594e-05
-0.000997334 0.000298785 0.000299378 -3.70593e-05
-0.000597883 0.000178655 0.000179669 -6.17819e-05
-0.000606355 0.000181176 0.00018222 -6.17824e-05
-0.00100438 0.000300893 0.000301495 -3.70593e-05
-0.000797623 0.000238706 0.000239536 -5.09633e-05
-0.000602119 0.000179916 0.000180944 -6.17822e-05
-0.000808908 0.000242075 0.000242929 -5.09636e-05
-0.000803266 0.000240391 0.000241232 -5.09634e-05
-0.000997334 0.000298785 0.000299378 -3.70593e-05
-0.000983238 0.000294568 0.000295144 -3.70591e-05
-0.000589412 0.000176134 0.000177119 -6.17815e-05
-0.000597883 0.000178655 0.000179669 -6.17819e-05
-0.000990286 0.000296677 0.000297261 -3.70592e-05
-0.000786339 0.000235338 0.000236143 -5.0963e-05
-0.000593648 0.000177395 0.000178394 -6.17817e-05
-0.000797623 0.000238706 0.000239536 -5.09633e-05
-0.000791981 0.000237022 0.00023784 -5.09631e-05
-0.000983238 0.000294568 0.000295144 -3.70591e-05
-0.000969142 0.000290351 0.00029091 -3.7059e-05
-0.000580941 0.000173613 0.000174569 -6.1781e-05
-0.000589412 0.000176134 0.000177119 -6.17815e-05
-0.00097619 0.00029246 0.000293027 -3.7059e-05
-0.000775055 0.000231969 0.000232751 -5.09627e-05
-0.000585176 0.000174873 0.000175844 -6.17812e-05
-0.000786339 0.000235338 0.000236143 -5.0963e-05
-0.000780697 0.000233653 0.000234447 -5.09628e-05
-0.000969142 0.000290351 0.00029091 -3.7059e-05
-0.000955046 0.000286134 0.000286677 -3.70588e-05
-0.00057247 0.000171091 0.00017202 -6.17805e-05
-0.000580941 0.000173613 0.000174569 -6.1781e-05
-0.000962094 0.000288243 0.000288793 -3.70589e-05
-0.000763771 0.0002286 0.000229359 -5.09624e-05
-0.000576705 0.000172352 0.000173294 -6.17808e-05
-0.000775055 0.000231969 0.000232751 -5.09627e-05
-0.000769413 0.000230285 0.000231055 -5.09625e-05
-0.000955046 0.000286134 0.000286677 -3.70588e-05
-0.000940951 0.000281917 0.000282443 -3.70587e-05
-0.000564 0.00016857 0.00016947 -6.17801e-05
-0.00057247 0.000171091 0.00017202 -6.17805e-05
-0.000947999 0.000284026 0.00028456 -3.70588e-05
-0.000752488 0.000225231 0.000225967 -5.09621e-05
-0.000568235 0.00016983 0.000170745 -6.17803e-05
-0.000763771 0.0002286 0.000229359 -5.09624e-05
-0.00075813 0.000226916 0.000227663 -5.09623e-05
-0.000940951 0.000281917 0.000282443 -3.70587e-05
-0.000926857 0.000277701 0.00027821 -3.70586e-05
-0.00055553 0.000166048 0.000166921 -6.17796e-05
-0.000564 0.00016857 0.00016947 -6.17801e-05
-0.000933904 0.000279809 0.000280326 -3.70586e-05
-0.000741206 0.000221862 0.000222576 -5.09619e-05
-0.000559765 0.000167309 0.000168196 -6.17798e-05
-0.000752488 0.000225231 0.000225967 -5.09621e-05
-0.000746847 0.000223547 0.000224272 -5.0962e-05
-0.000926857 0.000277701 0.00027821 -3.70586e-05
-0.000912763 0.000273484 0.000273977 -3.70584e-05
-0.000547061 0.000163526 0.000164372 -6.17792e-05
-0.00055553 0.000166048 0.000166921 -6.17796e-05
-0.00091981 0.000275592 0.000276093 -3.70585e-05
-0.000729924 0.000218493 0.000219185 -5.09616e-05
-0.000551296 0.000164787 0.000165647 -6.17794e-05
-0.000741206 0.000221862 0.000222576 -5.09619e-05
-0.000735565 0.000220178 0.00022088 -5.09617e-05
-0.000912763 0.000273484 0.000273977 -3.70584e-05
-0.000898669 0.000269266 0.000269744 -3.70583e-05
-0.000538592 0.000161004 0.000161824 -6.17788e-05
-0.000547061 0.000163526 0.000164372 -6.17792e-05
-0.000905716 0.000271375 0.00027186 -3.70584e-05
-0.000718642 0.000215124 0.000215794 -5.09613e-05
-0.000542827 0.000162265 0.000163098 -6.1779e-05
-0.000729924 0.000218493 0.000219185 -5.09616e-05
-0.000724283 0.000216809 0.000217489 -5.09615e-05
-0.000898669 0.000269266 0.000269744 -3.70583e-05
-0.000884575 0.000265049 0.000265511 -3.70582e-05
-0.000530124 0.000158482 0.000159275 -6.17783e-05
-0.000538592 0.000161004 0.000161824 -6.17788e-05
-0.000891622 0.000267158 0.000267627 -3.70583e-05
-0.000707361 0.000211755 0.000212403 -5.09611e-05
-0.000534358 0.000159743 0.000160549 -6.17785e-05
-0.000718642 0.000215124 0.000215794 -5.09613e-05
-0.000713002 0.000213439 0.000214098 -5.09612e-05
-0.000884575 0.000265049 0.000265511 -3.70582e-05
-0.000870483 0.000260832 0.000261279 -3.70581e-05
-0.000521656 0.000155959 0.000156727 -6.17779e-05
-0.000530124 0.000158482 0.000159275 -6.17783e-05
-0.000877529 0.000262941 0.000263395 -3.70582e-05
-0.00069608 0.000208385 0.000209012 -5.09608e-05
-0.00052589 0.000157221 0.000158001 -6.17781e-05
-0.000707361 0.000211755 0.000212403 -5.09611e-05
-0.000701721 0.00021007 0.000210707 -5.0961e-05
-0.000870483 0.000260832 0.000261279 -3.70581e-05
-0.00085639 0.000256615 0.000257046 -3.7058e-05
-0.000513189 0.000153437 0.000154179 -6.17775e-05
-0.000521656 0.000155959 0.000156727 -6.17779e-05
-0.000863436 0.000258724 0.000259163 -3.70581e-05
-0.0006848 0.000205016 0.000205622 -5.09606e-05
-0.000517422 0.000154698 0.000155453 -6.17777e-05
-0.00069608 0.000208385 0.000209012 -5.09608e-05
-0.00069044 0.000206701 0.000207317 -5.09607e-05
-0.00085639 0.000256615 0.000257046 -3.7058e-05
-0.000842298 0.000252398 0.000252814 -3.70579e-05
-0.000504722 0.000150914 0.000151632 -6.17771e-05
-0.000513189 0.000153437 0.000154179 -6.17775e-05
-0.000849344 0.000254506 0.00025493 -3.7058e-05
-0.00067352 0.000201646 0.000202232 -5.09604e-05
-0.000508955 0.000152175 0.000152906 -6.17773e-05
-0.0006848 0.000205016 0.000205622 -5.09606e-05
-0.00067916 0.000203331 0.000203927 -5.09605e-05
-0.000842298 0.000252398 0.000252814 -3.70579e-05
-0.000828207 0.000248181 0.000248583 -3.70578e-05
-0.000496255 0.000148391 0.000149085 -6.17768e-05
-0.000504722 0.000150914 0.000151632 -6.17771e-05
-0.000835252 0.000250289 0.000250698 -3.70579e-05
-0.000662241 0.000198276 0.000198842 -5.09602e-05
-0.000500488 0.000149653 0.000150358 -6.1777e-05
-0.00067352 0.000201646 0.000202232 -5.09604e-05
-0.00066788 0.000199961 0.000200537 -5.09603e-05
-0.000828207 0.000248181 0.000248583 -3.70578e-05
-0.000814115 0.000243963 0.000244351 -3.70577e-05
-0.000487789 0.000145868 0.000146538 -6.17764e-05
-0.000496255 0.000148391 0.000149085 -6.17768e-05
-0.000821161 0.000246072 0.000246467 -3.70578e-05
-0.000650962 0.000194907 0.000195452 -5.096e-05
-0.000492022 0.00014713 0.000147811 -6.17766e-05
-0.000662241 0.000198276 0.000198842 -5.09602e-05
-0.000656601 0.000196592 0.000197147 -5.09601e-05
-0.000814115 0.000243963 0.000244351 -3.70577e-05
-0.000800025 0.000239746 0.000240119 -3.70577e-05
-0.000479324 0.000143345 0.000143991 -6.1776e-05
-0.000487789 0.000145868 0.000146538 -6.17764e-05
-0.00080707 0.000241855 0.000242235 -3.70577e-05
-0.000639683 0.000191537 0.000192063 -5.09598e-05
-0.000483556 0.000144607 0.000145264 -6.17762e-05
-0.000650962 0.000194907 0.000195452 -5.096e-05
-0.000645323 0.000193222 0.000193758 -5.09599e-05
-0.000800025 0.000239746 0.000240119 -3.70577e-05
-0.000785934 0.000235529 0.000235888 -3.70576e-05
-0.000470858 0.000140822 0.000141444 -6.17757e-05
-0.000479324 0.000143345 0.000143991 -6.1776e-05
-0.00079298 0.000237637 0.000238004 -3.70576e-05
-0.000628405 0.000188167 0.000188674 -5.09596e-05
-0.000475091 0.000142084 0.000142717 -6.17759e-05
-0.000639683 0.000191537 0.000192063 -5.09598e-05
-0.000634044 0.000189852 0.000190368 -5.09597e-05
-0.000785934 0.000235529 0.000235888 -3.70576e-05
-0.000771845 0.000231311 0.000231657 -3.70575e-05
-0.000462394 0.000138298 0.000138898 -6.17753e-05
-0.000470858 0.000140822 0.000141444 -6.17757e-05
-0.000778889 0.00023342 0.000233773 -3.70576e-05
-0.000617128 0.000184797 0.000185285 -5.09594e-05
-0.000466626 0.00013956 0.000140171 -6.17755e-05
-0.000628405 0.000188167 0.000188674 -5.09596e-05
-0.000622767 0.000186482 0.000186979 -5.09595e-05
-0.000771845 0.000231311 0.000231657 -3.70575e-05
-0.000757755 0.000227094 0.000227426 -3.70575e-05
-0.000453929 0.000135775 0.000136352 -6.1775e-05
-0.000462394 0.000138298 0.000138898 -6.17753e-05
-0.0007648 0.000229202 0.000229542 -3.70575e-05
-0.000605851 0.000181426 0.000181896 -5.09592e-05
-0.000458162 0.000137037 0.000137625 -6.17752e-05
-0.000617128 0.000184797 0.000185285 -5.09594e-05
-0.000611489 0.000183111 0.00018359 -5.09593e-05
-0.000757755 0.000227094 0.000227426 -3.70575e-05
-0.000743666 0.000222876 0.000223196 -3.70574e-05
-0.000445466 0.000133251 0.000133806 -6.17747e-05
-0.000453929 0.000135775 0.000136352 -6.1775e-05
-0.000750711 0.000224985 0.000225311 -3.70574e-05
-0.000594574 0.000178056 0.000178508 -5.0959e-05
-0.000449698 0.000134513 0.000135079 -6.17749e-05
-0.000605851 0.000181426 0.000181896 -5.09592e-05
-0.000600212 0.000179741 0.000180202 -5.09591e-05
-0.000743666 0.000222876 0.000223196 -3.70574e-05
-0.000729577 0.000218658 0.000218965 -3.70574e-05
-0.000437002 0.000130727 0.000131261 -6.17744e-05
-0.000445466 0.000133251 0.000133806 -6.17747e-05
-0.000736622 0.000220767 0.00022108 -3.70574e-05
-0.000583298 0.000174685 0.000175119 -5.09589e-05
-0.000441234 0.000131989 0.000132533 -6.17745e-05
-0.000594574 0.000178056 0.000178508 -5.0959e-05
-0.000588936 0.000176371 0.000176814 -5.0959e-05
-0.000729577 0.000218658 0.000218965 -3.70574e-05
-0.000715489 0.000214441 0.000214735 -3.70573e-05
-0.000428539 0.000128203 0.000128716 -6.17741e-05
-0.000437002 0.000130727 0.000131261 -6.17744e-05
-0.000722533 0.00021655 0.00021685 -3.70574e-05
-0.000572022 0.000171315 0.000171732 -5.09587e-05
-0.000432771 0.000129465 0.000129988 -6.17742e-05
-0.000583298 0.000174685 0.000175119 -5.09589e-05
-0.00057766 0.000173 0.000173425 -5.09588e-05
-0.000715489 0.000214441 0.000214735 -3.70573e-05
-0.000701401 0.000210223 0.000210505 -3.70573e-05
-0.000420077 0.000125679 0.000126171 -6.17738e-05
-0.000428539 0.000128203 0.000128716 -6.17741e-05
-0.000708445 0.000212332 0.00021262 -3.70573e-05
-0.000560746 0.000167944 0.000168344 -5.09586e-05
-0.000424308 0.000126941 0.000127443 -6.17739e-05
-0.000572022 0.000171315 0.000171732 -5.09587e-05
-0.000566384 0.00016963 0.000170038 -5.09587e-05
-0.000701401 0.000210223 0.000210505 -3.70573e-05
-0.000687314 0.000206005 0.000206275 -3.70573e-05
-0.000411615 0.000123155 0.000123626 -6.17735e-05
-0.000420077 0.000125679 0.000126171 -6.17738e-05
-0.000694358 0.000208114 0.00020839 -3.70573e-05
-0.000549471 0.000164573 0.000164956 -5.09585e-05
-0.000415846 0.000124417 0.000124898 -6.17737e-05
-0.000560746 0.000167944 0.000168344 -5.09586e-05
-0.000555109 0.000166259 0.00016665 -5.09585e-05
-0.000687314 0.000206005 0.000206275 -3.70573e-05
-0.000673227 0.000201788 0.000202045 -3.70573e-05
-0.000403153 0.00012063 0.000121081 -6.17733e-05
-0.000411615 0.000123155 0.000123626 -6.17735e-05
-0.000680271 0.000203897 0.00020416 -3.70573e-05
-0.000538197 0.000161203 0.000161569 -5.09583e-05
-0.000407384 0.000121892 0.000122354 -6.17734e-05
-0.000549471 0.000164573 0.000164956 -5.09585e-05
-0.000543834 0.000162888 0.000163263 -5.09584e-05
-0.000673227 0.000201788 0.000202045 -3.70573e-05
-0.000659141 0.00019757 0.000197816 -3.70572e-05
-0.000394692 0.000118105 0.000118537 -6.1773e-05
-0.000403153 0.00012063 0.000121081 -6.17733e-05
-0.000666184 0.000199679 0.000199931 -3.70573e-05
-0.000526923 0.000157832 0.000158182 -5.09582e-05
-0.000398923 0.000119368 0.000119809 -6.17731e-05
-0.000538197 0.000161203 0.000161569 -5.09583e-05
-0.00053256 0.000159517 0.000159875 -5.09583e-05
-0.000659141 0.00019757 0.000197816 -3.70572e-05
-0.000645054 0.000193352 0.000193587 -3.70572e-05
-0.000386231 0.00011558 0.000115993 -6.17728e-05
-0.000394692 0.000118105 0.000118537 -6.1773e-05
-0.000652097 0.000195461 0.000195701 -3.70572e-05
-0.000515649 0.00015446 0.000154795 -5.09581e-05
-0.000390462 0.000116843 0.000117265 -6.17729e-05
-0.000526923 0.000157832 0.000158182 -5.09582e-05
-0.000521286 0.000156146 0.000156488 -5.09582e-05
-0.000645054 0.000193352 0.000193587 -3.70572e-05
-0.000630969 0.000189134 0.000189358 -3.70572e-05
-0.000377771 0.000113055 0.00011345 -6.17725e-05
-0.000386231 0.00011558 0.000115993 -6.17728e-05
-0.000638011 0.000191243 0.000191472 -3.70572e-05
-0.000504376 0.000151089 0.000151408 -5.0958e-05
-0.000382001 0.000114318 0.000114721 -6.17727e-05
-0.000515649 0.00015446 0.000154795 -5.09581e-05
-0.000510012 0.000152775 0.000153102 -5.09581e-05
-0.000630969 0.000189134 0.000189358 -3.70572e-05
-0.000616883 0.000184916 0.000185129 -3.70573e-05
-0.000369311 0.00011053 0.000110906 -6.17723e-05
-0.000377771 0.000113055 0.00011345 -6.17725e-05
-0.000623926 0.000187025 0.000187243 -3.70572e-05
-0.000493103 0.000147718 0.000148022 -5.09579e-05
-0.000373541 0.000111793 0.000112178 -6.17724e-05
-0.000504376 0.000151089 0.000151408 -5.0958e-05
-0.000498739 0.000149404 0.000149715 -5.0958e-05
-0.000616883 0.000184916 0.000185129 -3.70573e-05
-0.000602798 0.000180698 0.0001809 -3.70573e-05
-0.000360852 0.000108005 0.000108363 -6.17721e-05
-0.000369311 0.00011053 0.000110906 -6.17723e-05
-0.000609841 0.000182807 0.000183014 -3.70573e-05
-0.00048183 0.000144346 0.000144636 -5.09579e-05
-0.000365081 0.000109268 0.000109634 -6.17722e-05
-0.000493103 0.000147718 0.000148022 -5.09579e-05
-0.000487466 0.000146032 0.000146329 -5.09579e-05
-0.000602798 0.000180698 0.0001809 -3.70573e-05
-0.000588714 0.00017648 0.000176672 -3.70573e-05
-0.000352393 0.000105479 0.00010582 -6.17719e-05
-0.000360852 0.000108005 0.000108363 -6.17721e-05
-0.000595756 0.000178589 0.000178786 -3.70573e-05
-0.000470558 0.000140975 0.00014125 -5.09578e-05
-0.000356622 0.000106742 0.000107091 -6.1772e-05
-0.00048183 0.000144346 0.000144636 -5.09579e-05
-0.000476194 0.000142661 0.000142943 -5.09578e-05
-0.000588714 0.00017648 0.000176672 -3.70573e-05
-0.000574629 0.000172262 0.000172443 -3.70573e-05
-0.000343934 0.000102954 0.000103277 -6.17717e-05
-0.000352393 0.000105479 0.00010582 -6.17719e-05
-0.000581671 0.000174371 0.000174557 -3.70573e-05
-0.000459287 0.000137603 0.000137864 -5.09577e-05
-0.000348163 0.000104217 0.000104549 -6.17718e-05
-0.000470558 0.000140975 0.00014125 -5.09578e-05
-0.000464922 0.000139289 0.000139557 -5.09578e-05
-0.000574629 0.000172262 0.000172443 -3.70573e-05
-0.000560546 0.000168043 0.000168215 -3.70574e-05
-0.000335476 0.000100428 0.000100735 -6.17716e-05
-0.000343934 0.000102954 0.000103277 -6.17717e-05
-0.000567587 0.000170152 0.000170329 -3.70573e-05
-0.000448015 0.000134231 0.000134479 -5.09577e-05
-0.000339705 0.000101691 0.000102006 -6.17716e-05
-0.000459287 0.000137603 0.000137864 -5.09577e-05
-0.000453651 0.000135917 0.000136172 -5.09577e-05
-0.000560546 0.000168043 0.000168215 -3.70574e-05
-0.000546462 0.000163825 0.000163987 -3.70574e-05
-0.000327018 9.7902e-05 9.81926e-05 -6.17714e-05
-0.000335476 0.000100428 0.000100735 -6.17716e-05
-0.000553504 0.000165934 0.000166101 -3.70574e-05
-0.000436745 0.000130859 0.000131094 -5.09577e-05
-0.000331247 9.9165e-05 9.94637e-05 -6.17715e-05
-0.000448015 0.000134231 0.000134479 -5.09577e-05
-0.00044238 0.000132545 0.000132786 -5.09577e-05
-0.000546462 0.000163825 0.000163987 -3.70574e-05
-0.000532379 0.000159607 0.00015976 -3.70574e-05
-0.000318561 9.53759e-05 9.56507e-05 -6.17712e-05
-0.000327018 9.7902e-05 9.81926e-05 -6.17714e-05
-0.000539421 0.000161716 0.000161873 -3.70574e-05
-0.000425474 0.000127487 0.000127709 -5.09576e-05
-0.000322789 9.6639e-05 9.69216e-05 -6.17713e-05
-0.000436745 0.000130859 0.000131094 -5.09577e-05
-0.000431109 0.000129173 0.000129401 -5.09576e-05
-0.000532379 0.000159607 0.00015976 -3.70574e-05
-0.000518296 0.000155388 0.000155532 -3.70575e-05
-0.000310104 9.28496e-05 9.3109e-05 -6.17711e-05
-0.000318561 9.53759e-05 9.56507e-05 -6.17712e-05
-0.000525338 0.000157497 0.000157646 -3.70575e-05
-0.000414204 0.000124115 0.000124324 -5.09576e-05
-0.000314332 9.41127e-05 9.43798e-05 -6.17712e-05
-0.000425474 0.000127487 0.000127709 -5.09576e-05
-0.000419839 0.000125801 0.000126016 -5.09576e-05
-0.000518296 0.000155388 0.000155532 -3.70575e-05
-0.000504214 0.00015117 0.000151305 -3.70576e-05
-0.000301647 9.03231e-05 9.05676e-05 -6.1771e-05
-0.000310104 9.28496e-05 9.3109e-05 -6.17711e-05
-0.000511255 0.000153279 0.000153418 -3.70575e-05
-0.000402935 0.000120743 0.000120939 -5.09576e-05
-0.000305876 9.15864e-05 9.18383e-05 -6.1771e-05
-0.000414204 0.000124115 0.000124324 -5.09576e-05
-0.000408569 0.000122429 0.000122632 -5.09576e-05
-0.000504214 0.00015117 0.000151305 -3.70576e-05
-0.000490132 0.000146951 0.000147078 -3.70576e-05
-0.000293191 8.77965e-05 8.80264e-05 -6.17709e-05
-0.000301647 9.03231e-05 9.05676e-05 -6.1771e-05
-0.000497173 0.00014906 0.000149191 -3.70576e-05
-0.000391665 0.000117371 0.000117555 -5.09576e-05
-0.000297419 8.90598e-05 8.9297e-05 -6.17709e-05
-0.000402935 0.000120743 0.000120939 -5.09576e-05
-0.0003973 0.000119057 0.000119247 -5.09576e-05
-0.000490132 0.000146951 0.000147078 -3.70576e-05
-0.00047605 0.000142733 0.000142851 -3.70577e-05
-0.000284736 8.52697e-05 8.54855e-05 -6.17708e-05
-0.000293191 8.77965e-05 8.80264e-05 -6.17709e-05
-0.000483091 0.000144842 0.000144964 -3.70577e-05
-0.000380397 0.000113998 0.000114171 -5.09576e-05
-0.000288964 8.65331e-05 8.67559e-05 -6.17708e-05
-0.000391665 0.000117371 0.000117555 -5.09576e-05
-0.000386031 0.000115684 0.000115863 -5.09576e-05
-0.00047605 0.000142733 0.000142851 -3.70577e-05
-0.000461969 0.000138514 0.000138624 -3.70578e-05
-0.000276281 8.27427e-05 8.29448e-05 -6.17707e-05
-0.000284736 8.52697e-05 8.54855e-05 -6.17708e-05
-0.00046901 0.000140623 0.000140737 -3.70578e-05
-0.000369128 0.000110625 0.000110787 -5.09576e-05
-0.000280508 8.40062e-05 8.42151e-05 -6.17707e-05
-0.000380397 0.000113998 0.000114171 -5.09576e-05
-0.000374762 0.000112312 0.000112479 -5.09576e-05
-0.000461969 0.000138514 0.000138624 -3.70578e-05
-0.000447888 0.000134295 0.000134397 -3.70579e-05
-0.000267826 8.02156e-05 8.04043e-05 -6.17706e-05
-0.000276281 8.27427e-05 8.29448e-05 -6.17707e-05
-0.000454929 0.000136405 0.00013651 -3.70578e-05
-0.00035786 0.000107253 0.000107403 -5.09577e-05
-0.000272053 8.14792e-05 8.16745e-05 -6.17706e-05
-0.000369128 0.000110625 0.000110787 -5.09576e-05
-0.000363494 0.000108939 0.000109095 -5.09576e-05
-0.000447888 0.000134295 0.000134397 -3.70579e-05
-0.000433808 0.000130076 0.000130171 -3.7058e-05
-0.000259371 7.76883e-05 7.78641e-05 -6.17705e-05
-0.000267826 8.02156e-05 8.04043e-05 -6.17706e-05
-0.000440848 0.000132186 0.000132284 -3.70579e-05
-0.000346592 0.00010388 0.00010402 -5.09577e-05
-0.000263598 7.89519e-05 7.91342e-05 -6.17705e-05
-0.00035786 0.000107253 0.000107403 -5.09577e-05
-0.000352226 0.000105566 0.000105711 -5.09577e-05
-0.000433808 0.000130076 0.000130171 -3.7058e-05
-0.000419728 0.000125857 0.000125944 -3.70581e-05
-0.000250917 7.51608e-05 7.53242e-05 -6.17704e-05
-0.000259371 7.76883e-05 7.78641e-05 -6.17705e-05
-0.000426768 0.000127967 0.000128058 -3.7058e-05
-0.000335325 0.000100507 0.000100637 -5.09577e-05
-0.000255144 7.64245e-05 7.65941e-05 -6.17705e-05
-0.000346592 0.00010388 0.00010402 -5.09577e-05
-0.000340959 0.000102193 0.000102328 -5.09577e-05
-0.000419728 0.000125857 0.000125944 -3.70581e-05
-0.000405648 0.000121639 0.000121718 -3.70582e-05
-0.000242464 7.26331e-05 7.27845e-05 -6.17704e-05
-0.000250917 7.51608e-05 7.53242e-05 -6.17704e-05
-0.000412688 0.000123748 0.000123831 -3.70581e-05
-0.000324058 9.71336e-05 9.72535e-05 -5.09577e-05
-0.00024669 7.3897e-05 7.40543e-05 -6.17704e-05
-0.000335325 0.000100507 0.000100637 -5.09577e-05
-0.000329692 9.88201e-05 9.8945e-05 -5.09577e-05
-0.000405648 0.000121639 0.000121718 -3.70582e-05
-0.000391569 0.000117419 0.000117492 -3.70582e-05
-0.00023401 7.01053e-05 7.02451e-05 -6.17703e-05
-0.000242464 7.26331e-05 7.27845e-05 -6.17704e-05
-0.000398608 0.000119529 0.000119605 -3.70582e-05
-0.000312792 9.37603e-05 9.38707e-05 -5.09578e-05
-0.000238237 7.13692e-05 7.15148e-05 -6.17703e-05
-0.000324058 9.71336e-05 9.72535e-05 -5.09577e-05
-0.000318425 9.54469e-05 9.55621e-05 -5.09578e-05
-0.000391569 0.000117419 0.000117492 -3.70582e-05
-0.00037749 0.0001132 0.000113267 -3.70583e-05
-0.000225558 6.75772e-05 6.77059e-05 -6.17702e-05
-0.00023401 7.01053e-05 7.02451e-05 -6.17703e-05
-0.000384529 0.00011531 0.00011538 -3.70583e-05
-0.000301526 9.03869e-05 9.04881e-05 -5.09578e-05
-0.000229784 6.88413e-05 6.89754e-05 -6.17702e-05
-0.000312792 9.37603e-05 9.38707e-05 -5.09578e-05
-0.000307159 9.20736e-05 9.21794e-05 -5.09578e-05
-0.00037749 0.0001132 0.000113267 -3.70583e-05
-0.000363411 0.000108981 0.000109041 -3.70583e-05
-0.000217105 6.5049e-05 6.51669e-05 -6.17701e-05
-0.000225558 6.75772e-05 6.77059e-05 -6.17702e-05
-0.00037045 0.000111091 0.000111154 -3.70583e-05
-0.00029026 8.70134e-05 8.71058e-05 -5.09578e-05
-0.000221331 6.63132e-05 6.64364e-05 -6.17701e-05
-0.000301526 9.03869e-05 9.04881e-05 -5.09578e-05
-0.000295893 8.87001e-05 8.87969e-05 -5.09578e-05
-0.000363411 0.000108981 0.000109041 -3.70583e-05
-0.000349333 0.000104762 0.000104816 -3.70584e-05
-0.000208653 6.25206e-05 6.26282e-05 -6.177e-05
-0.000217105 6.5049e-05 6.51669e-05 -6.17701e-05
-0.000356372 0.000106872 0.000106929 -3.70584e-05
-0.000278995 8.36397e-05 8.37236e-05 -5.09577e-05
-0.000212879 6.37849e-05 6.38975e-05 -6.177e-05
-0.00029026 8.70134e-05 8.71058e-05 -5.09578e-05
-0.000284627 8.53265e-05 8.54147e-05 -5.09577e-05
-0.000349333 0.000104762 0.000104816 -3.70584e-05
-0.000335255 0.000100543 0.000100591 -3.70584e-05
-0.000200201 5.99921e-05 6.00897e-05 -6.17698e-05
-0.000208653 6.25206e-05 6.26282e-05 -6.177e-05
-0.000342294 0.000102652 0.000102703 -3.70584e-05
-0.00026773 8.02659e-05 8.03417e-05 -5.09577e-05
-0.000204427 6.12564e-05 6.13589e-05 -6.17699e-05
-0.000278995 8.36397e-05 8.37236e-05 -5.09577e-05
-0.000273362 8.19528e-05 8.20326e-05 -5.09577e-05
-0.000335255 0.000100543 0.000100591 -3.70584e-05
-0.000321177 9.63234e-05 9.63659e-05 -3.70583e-05
-0.00019175 5.74633e-05 5.75515e-05 -6.17696e-05
-0.000200201 5.99921e-05 6.00897e-05 -6.17698e-05
-0.000328216 9.84331e-05 9.84783e-05 -3.70583e-05
-0.000256465 7.6892e-05 7.696e-05 -5.09576e-05
-0.000195976 5.87277e-05 5.88206e-05 -6.17697e-05
-0.00026773 8.02659e-05 8.03417e-05 -5.09577e-05
-0.000262097 7.85789e-05 7.86508e-05 -5.09576e-05
-0.000321177 9.63234e-05 9.63659e-05 -3.70583e-05
-0.0003071 9.2104e-05 9.21411e-05 -3.70583e-05
-0.000183299 5.49345e-05 5.50135e-05 -6.17694e-05
-0.00019175 5.74633e-05 5.75515e-05 -6.17696e-05
-0.000314138 9.42137e-05 9.42534e-05 -3.70583e-05
-0.000245201 7.3518e-05 7.35785e-05 -5.09575e-05
-0.000187525 5.61989e-05 5.62824e-05 -6.17695e-05
-0.000256465 7.6892e-05 7.696e-05 -5.09576e-05
-0.000250833 7.5205e-05 7.52692e-05 -5.09575e-05
-0.0003071 9.2104e-05 9.21411e-05 -3.70583e-05
-0.000293023 8.78846e-05 8.79165e-05 -3.70583e-05
-0.000174849 5.24055e-05 5.24757e-05 -6.17692e-05
-0.000183299 5.49345e-05 5.50135e-05 -6.17694e-05
-0.000300061 8.99943e-05 9.00288e-05 -3.70583e-05
-0.000233937 7.01439e-05 7.01972e-05 -5.09574e-05
-0.000179074 5.367e-05 5.37445e-05 -6.17693e-05
-0.000245201 7.3518e-05 7.35785e-05 -5.09575e-05
-0.000239569 7.1831e-05 7.18878e-05 -5.09574e-05
-0.000293023 8.78846e-05 8.79165e-05 -3.70583e-05
-0.000278947 8.36652e-05 8.36921e-05 -3.70583e-05
-0.000166399 4.98766e-05 4.99381e-05 -6.17691e-05
-0.000174849 5.24055e-05 5.24757e-05 -6.17692e-05
-0.000285985 8.57749e-05 8.58043e-05 -3.70583e-05
-0.000222674 6.67699e-05 6.68161e-05 -5.09574e-05
-0.000170624 5.11411e-05 5.12068e-05 -6.17692e-05
-0.000233937 7.01439e-05 7.01972e-05 -5.09574e-05
-0.000228306 6.84569e-05 6.85066e-05 -5.09574e-05
-0.000278947 8.36652e-05 8.36921e-05 -3.70583e-05
-0.000264871 7.94458e-05 7.94678e-05 -3.70586e-05
-0.000157949 4.73478e-05 4.74006e-05 -6.17691e-05
-0.000166399 4.98766e-05 4.99381e-05 -6.17691e-05
-0.000271909 8.15555e-05 8.15799e-05 -3.70584e-05
-0.000211411 6.33959e-05 6.34351e-05 -5.09576e-05
-0.000162174 4.86122e-05 4.86693e-05 -6.17691e-05
-0.000222674 6.67699e-05 6.68161e-05 -5.09574e-05
-0.000217043 6.50829e-05 6.51256e-05 -5.09575e-05
-0.000264871 7.94458e-05 7.94678e-05 -3.70586e-05
-0.000250795 7.52265e-05 7.52436e-05 -3.70592e-05
-0.0001495 4.48192e-05 4.48634e-05 -6.17695e-05
-0.000157949 4.73478e-05 4.74006e-05 -6.17691e-05
-0.000257833 7.73362e-05 7.73557e-05 -3.70589e-05
-0.000200149 6.0022e-05 6.00543e-05 -5.09581e-05
-0.000153725 4.60835e-05 4.6132e-05 -6.17692e-05
-0.000211411 6.33959e-05 6.34351e-05 -5.09576e-05
-0.00020578 6.1709e-05 6.17447e-05 -5.09578e-05
-0.000250795 7.52265e-05 7.52436e-05 -3.70592e-05
-0.00023672 7.10072e-05 7.10196e-05 -3.70603e-05
-0.000141052 4.22908e-05 4.23263e-05 -6.17703e-05
-0.0001495 4.48192e-05 4.48634e-05 -6.17695e-05
-0.000243757 7.31168e-05 7.31316e-05 -3.70597e-05
-0.000188887 5.66483e-05 5.66737e-05 -5.09592e-05
-0.000145276 4.3555e-05 4.35948e-05 -6.17698e-05
-0.000200149 6.0022e-05 6.00543e-05 -5.09581e-05
-0.000194518 5.83352e-05 5.8364e-05 -5.09586e-05
-0.00023672 7.10072e-05 7.10196e-05 -3.70603e-05
-0.000222644 6.67878e-05 6.67957e-05 -3.70619e-05
-0.000132605 3.97625e-05 3.97895e-05 -6.17719e-05
-0.000141052 4.22908e-05 4.23263e-05 -6.17703e-05
-0.000229682 6.88975e-05 6.89076e-05 -3.7061e-05
-0.000177626 5.32745e-05 5.32933e-05 -5.09609e-05
-0.000136828 4.10267e-05 4.10579e-05 -6.1771e-05
-0.000188887 5.66483e-05 5.66737e-05 -5.09592e-05
-0.000183256 5.49614e-05 5.49835e-05 -5.09599e-05
-0.000222644 6.67878e-05 6.67957e-05 -3.70619e-05
-0.000208569 6.25678e-05 6.25721e-05 -3.70638e-05
-0.000124157 3.72331e-05 3.72531e-05 -6.17746e-05
-0.000132605 3.97625e-05 3.97895e-05 -6.17719e-05
-0.000215607 6.46779e-05 6.46838e-05 -3.70629e-05
-0.000166364 4.98997e-05 4.99133e-05 -5.0963e-05
-0.000128381 3.8498e-05 3.85213e-05 -6.17731e-05
-0.000177626 5.32745e-05 5.32933e-05 -5.09609e-05
-0.000171995 5.15873e-05 5.16032e-05 -5.09619e-05
-0.000208569 6.25678e-05 6.25721e-05 -3.70638e-05
-0.000194494 5.83462e-05 5.83489e-05 -3.7065e-05
-0.000115707 3.47003e-05 3.47173e-05 -6.17789e-05
-0.000124157 3.72331e-05 3.72531e-05 -6.17746e-05
-0.000201532 6.04573e-05 6.04604e-05 -3.70646e-05
-0.000155101 4.6522e-05 4.6534e-05 -5.09648e-05
-0.000119932 3.59674e-05 3.5985e-05 -6.17766e-05
-0.000166364 4.98997e-05 4.99133e-05 -5.0963e-05
-0.000160733 4.82114e-05 4.82235e-05 -5.0964e-05
-0.000194494 5.83462e-05 5.83489e-05 -3.7065e-05
-0.000180418 5.41208e-05 5.41274e-05 -3.7062e-05
-0.00010725 3.21586e-05 3.21822e-05 -6.17852e-05
-0.000115707 3.47003e-05 3.47173e-05 -6.17789e-05
-0.000187456 5.62342e-05 5.62378e-05 -3.70644e-05
-0.000143834 4.31369e-05 4.31561e-05 -5.09641e-05
-0.00011148 3.34312e-05 3.34497e-05 -6.17817e-05
-0.000155101 4.6522e-05 4.6534e-05 -5.09648e-05
-0.000149469 4.48309e-05 4.48448e-05 -5.09651e-05
-0.000180418 5.41208e-05 5.41274e-05 -3.7062e-05
-0.000166339 4.9887e-05 4.99081e-05 -3.70488e-05
-9.87778e-05 2.95966e-05 2.96491e-05 -6.17932e-05
-0.00010725 3.21586e-05 3.21822e-05 -6.17852e-05
-0.000173379 5.20054e-05 5.20174e-05 -3.70572e-05
-0.000132556 3.9735e-05 3.97806e-05 -5.09556e-05
-0.000103016 3.08811e-05 3.09151e-05 -6.17891e-05
-0.000143834 4.31369e-05 4.31561e-05 -5.09641e-05
-0.000138197 4.14387e-05 4.1468e-05 -5.09611e-05
-0.000166339 4.9887e-05 4.99081e-05 -3.70488e-05
-0.000152259 4.5636e-05 4.56954e-05 -3.70089e-05
-9.0265e-05 2.6994e-05 2.71161e-05 -6.18045e-05
-9.87778e-05 2.95966e-05 2.96491e-05 -6.17932e-05
-0.000159299 4.77642e-05 4.78004e-05 -3.70338e-05
-0.000121254 3.63001e-05 3.64087e-05 -5.09292e-05
-9.45291e-05 2.83025e-05 2.83829e-05 -6.17982e-05
-0.000132556 3.9735e-05 3.97806e-05 -5.09556e-05
-0.000126909 3.80236e-05 3.80938e-05 -5.09461e-05
-0.000152259 4.5636e-05 4.56954e-05 -3.70089e-05
-0.000138163 4.13532e-05 4.149e-05 -3.69198e-05
-8.16812e-05 2.43131e-05 2.45863e-05 -6.18166e-05
-9.0265e-05 2.6994e-05 2.71161e-05 -6.18045e-05
-0.000145215 4.35005e-05 4.3592e-05 -3.69723e-05
-0.000109899 3.27989e-05 3.30427e-05 -5.0866e-05
-8.59831e-05 2.5666e-05 2.58502e-05 -6.18109e-05
-0.000121254 3.63001e-05 3.64087e-05 -5.09292e-05
-0.000115585 3.45595e-05 3.47253e-05 -5.09028e-05
-0.000138163 4.13532e-05 4.149e-05 -3.69198e-05
-0.000124059 3.70098e-05 3.73066e-05 -3.67239e-05
-7.29413e-05 2.14991e-05 2.20467e-05 -6.18376e-05
-8.16812e-05 2.43131e-05 2.45863e-05 -6.18166e-05
-0.000131109 3.91899e-05 3.9394e-05 -3.68408e-05
-9.8444e-05 2.91872e-05 2.96815e-05 -5.07353e-05
-7.73403e-05 2.29285e-05 2.33193e-05 -6.18247e-05
-0.000109899 3.27989e-05 3.30427e-05 -5.0866e-05
-0.000104187 3.10131e-05 3.13603e-05 -5.0814e-05
-0.000124059 3.70098e-05 3.73066e-05 -3.67239e-05
-0.000109884 3.25721e-05 3.31336e-05 -3.63632e-05
-6.39641e-05 1.84621e-05 1.95008e-05 -6.18645e-05
-7.29413e-05 2.14991e-05 2.20467e-05 -6.18376e-05
-0.000116991 3.48098e-05 3.52203e-05 -3.65681e-05
-8.6792e-05 2.53735e-05 2.63222e-05 -5.04938e-05
-6.8483e-05 2.0012e-05 2.07733e-05 -6.18516e-05
-9.8444e-05 2.91872e-05 2.96815e-05 -5.07353e-05
-9.26515e-05 2.73073e-05 2.80047e-05 -5.06269e-05
-0.000109884 3.25721e-05 3.31336e-05 -3.63632e-05
-9.5656e-05 2.79581e-05 2.90134e-05 -3.56849e-05
-5.45206e-05 1.51256e-05 1.68836e-05 -6.19497e-05
-6.39641e-05 1.84621e-05 1.95008e-05 -6.18645e-05
-0.000102764 3.02828e-05 3.10634e-05 -3.60787e-05
-7.48179e-05 2.12884e-05 2.29412e-05 -5.0091e-05
-5.93286e-05 1.68416e-05 1.82087e-05 -6.18925e-05
-8.6792e-05 2.53735e-05 2.63222e-05 -5.04938e-05
-8.0852e-05 2.33806e-05 2.46306e-05 -5.03264e-05
-9.5656e-05 2.79581e-05 2.90134e-05 -3.56849e-05
-8.11107e-05 2.31465e-05 2.48418e-05 -3.46308e-05
-4.45141e-05 1.14055e-05 1.41894e-05 -6.21228e-05
-5.45206e-05 1.51256e-05 1.68836e-05 -6.19497e-05
-8.84687e-05 2.56029e-05 2.69425e-05 -3.52052e-05
-6.22348e-05 1.6765e-05 1.94871e-05 -4.95238e-05
-4.95718e-05 1.32993e-05 1.55454e-05 -6.20259e-05
-7.48179e-05 2.12884e-05 2.29412e-05 -5.0091e-05
-6.86316e-05 1.90673e-05 2.12418e-05 -4.98042e-05
-8.11107e-05 2.31465e-05 2.48418e-05 -3.46308e-05
-6.62681e-05 1.79413e-05 2.07115e-05 -3.29684e-05
-3.35845e-05 7.55773e-06 1.11543e-05 -6.26585e-05
-4.45141e-05 1.14055e-05 1.41894e-05 -6.21228e-05
-7.36783e-05 2.05456e-05 2.27712e-05 -3.38961e-05
-4.8856e-05 1.19654e-05 1.58102e-05 -4.89068e-05
-3.92256e-05 9.4905e-06 1.27436e-05 -6.23119e-05
-6.22348e-05 1.6765e-05 1.94871e-05 -4.95238e-05
-5.56391e-05 1.4421e-05 1.76649e-05 -4.92487e-05
-6.62681e-05 1.79413e-05 2.07115e-05 -3.29684e-05
-5.01048e-05 1.2762e-05 1.6004e-05 -3.11859e-05
-2.22774e-05 4.21012e-06 7.74313e-06 -6.37316e-05
-3.35845e-05 7.55773e-06 1.11543e-05 -6.26585e-05
-5.85276e-05 1.54322e-05 1.84695e-05 -3.20384e-05
-3.40792e-05 7.0765e-06 1.15726e-05 -4.88434e-05
-2.78491e-05 5.67498e-06 9.50319e-06 -6.31218e-05
-4.8856e-05 1.19654e-05 1.58102e-05 -4.89068e-05
-4.17234e-05 9.39429e-06 1.38553e-05 -4.86556e-05
-5.01048e-05 1.2762e-05 1.6004e-05 -3.11859e-05
-3.27512e-05 7.64436e-06 1.07601e-05 -3.00844e-05
-1.13312e-05 4.10927e-06 3.09513e-06 -6.59735e-05
-2.22774e-05 4.21012e-06 7.74313e-06 -6.37316e-05
-4.13843e-05 9.84665e-06 1.35161e-05 -3.04299e-05
-1.87824e-05 4.73697e-06 6.01949e-06 -5.06366e-05
-1.6796e-05 3.5815e-06 5.66335e-06 -6.4649e-05
-3.40792e-05 7.0765e-06 1.15726e-05 -4.88434e-05
-2.63051e-05 5.43513e-06 8.94426e-06 -4.95439e-05
-3.27512e-05 7.64436e-06 1.07601e-05 -3.00844e-05
-1.27084e-05 8.09881e-06 1.97552e-06 -3.50878e-05
-5.57575e-06 1.21168e-05 -2.80332e-06 -6.75437e-05
-1.13312e-05 4.10927e-06 3.09513e-06 -6.59735e-05
-2.34457e-05 7.10463e-06 7.00333e-06 -3.12966e-05
-4.92095e-06 1.07774e-05 -2.50992e-06 -5.6817e-05
-7.16413e-06 6.37658e-06 3.37523e-07 -6.7101e-05
-1.87824e-05 4.73697e-06 6.01949e-06 -5.06366e-05
-1.16186e-05 5.67177e-06 2.54866e-06 -5.26745e-05
-1.27084e-05 8.09881e-06 1.97552e-06 -3.50878e-05
-3.42641e-06 3.1124e-05 -1.18704e-05 -5.29886e-05
-8.49423e-06 3.72467e-05 -1.23225e-05 -6.18541e-05
-5.57575e-06 1.21168e-05 -2.80332e-06 -6.75437e-05
-4.66115e-06 1.24822e-05 -3.35187e-06 -4.15214e-05
-9.09112e-06 4.26259e-05 -1.4372e-05 -6.14856e-05
-6.15588e-06 2.27443e-05 -7.10934e-06 -6.64526e-05
-4.92095e-06 1.07774e-05 -2.50992e-06 -5.6817e-05
-2.73113e-06 2.26945e-05 -8.55574e-06 -6.09923e-05
-3.42641e-06 3.1124e-05 -1.18704e-05 -5.29886e-05
-4.09028e-05 0.000138684 -4.19064e-05 -5.30149e-05
-1.71055e-05 6.73518e-05 -2.15341e-05 -3.26574e-05
-8.49423e-06 3.72467e-05 -1.23225e-05 -6.18541e-05
-1.38814e-05 7.40237e-05 -2.57753e-05 -6.20688e-05
-3.2269e-05 9.96566e-05 -2.88804e-05 -3.11347e-05
-1.22559e-05 5.34988e-05 -1.76755e-05 -5.10641e-05
-9.09112e-06 4.26259e-05 -1.4372e-05 -6.14856e-05
-2.02033e-05 7.01339e-05 -2.13988e-05 -5.31683e-05
-0.0013681 0 0.00058633 0.000180409
-0.0015463 0.000202914 0.000575737 -5.14095e-06
-0.000504438 6.66106e-05 0.00018764 9.31167e-05
-0.000496483 -1.11022e-16 0.000212779 0.00028092
-0.00148202 0.000114044 0.000586273 6.83835e-05
-0.00102524 0.000134817 0.000381608 5.53817e-05
-0.000484525 2.80846e-05 0.000195617 0.000177126
-0.000912238 0 0.000390959 0.000257144
-0.000983088 6.41729e-05 0.000393821 0.000127646
-0.0015463 0.000202914 0.000575737 -5.14095e-06
-0.00162483 0.000371162 0.000537285 -6.29358e-05
-0.000542881 0.000109665 0.000185664 -1.91715e-05
-0.000504438 6.66106e-05 0.00018764 9.31167e-05
-0.00158568 0.000292423 0.000554255 -4.2397e-05
-0.00107727 0.000231175 0.000362613 -3.47647e-05
-0.000531971 9.24208e-05 0.000188379 2.70949e-05
-0.00102524 0.000134817 0.000381608 5.53817e-05
-0.00105216 0.000189698 0.000369627 6.54172e-06
-0.00162483 0.000371162 0.000537285 -6.29358e-05
-0.00166438 0.000455613 0.000518044 -7.41816e-05
-0.000554006 0.00014167 0.000176715 -7.00515e-05
-0.000542881 0.000109665 0.000185664 -1.91715e-05
-0.00165423 0.000423673 0.00052738 -7.30735e-05
-0.00110763 0.000292711 0.000349252 -7.35636e-05
-0.000546965 0.000126733 0.000180099 -4.98426e-05
-0.00107727 0.000231175 0.000362613 -3.47647e-05
-0.00109696 0.000265861 0.000356186 -6.15583e-05
-0.00166438 0.000455613 0.000518044 -7.41816e-05
-0.00166254 0.000488465 0.000503175 -6.87585e-05
-0.000559711 0.000156566 0.000172777 -8.82216e-05
-0.000554006 0.00014167 0.000176715 -7.00515e-05
-0.00166419 0.00047629 0.000509101 -7.11257e-05
-0.00111244 0.000319828 0.000339691 -8.22061e-05
-0.000559693 0.000151128 0.000175099 -8.22201e-05
-0.00110763 0.000292711 0.000349252 -7.35636e-05
-0.00111192 0.000309858 0.000343741 -7.89715e-05
-0.00166254 0.000488465 0.000503175 -6.87585e-05
-0.00165068 0.000494423 0.00049554 -6.51446e-05
-0.000555788 0.000162139 0.000168707 -9.01892e-05
-0.000559711 0.000156566 0.000172777 -8.82216e-05
-0.00165838 0.000493593 0.000499196 -6.69749e-05
-0.00110568 0.00032851 0.000333072 -8.10126e-05
-0.000557324 0.000160158 0.000170214 -9.02105e-05
-0.00111244 0.000319828 0.000339691 -8.22061e-05
-0.00111007 0.00032572 0.000336149 -8.26209e-05
-0.00165068 0.000494423 0.00049554 -6.51446e-05
-0.00163415 0.00049165 0.000489641 -6.27331e-05
-0.000551008 0.000161796 0.000166805 -8.70262e-05
-0.000555788 0.000162139 0.000168707 -9.01892e-05
-0.00164181 0.00049355 0.000492112 -6.35458e-05
-0.0010947 0.00032754 0.000328781 -7.77166e-05
-0.000554039 0.000162449 0.000167824 -8.89384e-05
-0.00110568 0.00032851 0.000333072 -8.10126e-05
-0.00110023 0.000328765 0.00033063 -7.91373e-05
-0.00163415 0.00049165 0.000489641 -6.27331e-05
-0.00161978 0.000486004 0.000485904 -6.20414e-05
-0.000545005 0.000159926 0.000165034 -8.29117e-05
-0.000551008 0.000161796 0.000166805 -8.70262e-05
-0.00162702 0.000488973 0.000487735 -6.23584e-05
-0.00108397 0.000323891 0.000325748 -7.47602e-05
-0.000547671 0.00016092 0.000165751 -8.48837e-05
-0.0010947 0.00032754 0.000328781 -7.77166e-05
-0.00108922 0.000325832 0.000327167 -7.62558e-05
-0.00161978 0.000486004 0.000485904 -6.20414e-05
-0.00160672 0.000480561 0.000482641 -6.17429e-05
-0.000540144 0.000157659 0.000163922 -7.96407e-05
-0.000545005 0.000159926 0.000165034 -8.29117e-05
-0.00161287 0.000483184 0.000484149 -6.18065e-05
-0.00107446 0.000319744 0.000323449 -7.26729e-05
-0.000542624 0.000158796 0.000164498 -8.11559e-05
-0.00108397 0.000323891 0.000325748 -7.47602e-05
-0.00107902 0.000321803 0.000324521 -7.35461e-05
-0.00160672 0.000480561 0.000482641 -6.17429e-05
-0.00159559 0.000475822 0.000479901 -6.17658e-05
-0.000535719 0.000155745 0.000162846 -7.73708e-05
-0.000540144 0.000157659 0.000163922 -7.96407e-05
-0.00160106 0.000478097 0.00048127 -6.17613e-05
-0.0010663 0.000316181 0.000321479 -7.13357e-05
-0.000537772 0.000156646 0.00016334 -7.83732e-05
-0.00107446 0.000319744 0.000323449 -7.26729e-05
-0.00107023 0.000317872 0.000322441 -7.19506e-05
-0.00159559 0.000475822 0.000479901 -6.17658e-05
-0.00158544 0.000471888 0.000477239 -6.17939e-05
-0.000532018 0.000154174 0.000161933 -7.5972e-05
-0.000535719 0.000155745 0.000162846 -7.73708e-05
-0.00159037 0.000473764 0.000478544 -6.17693e-05
-0.00105912 0.000313223 0.000319672 -7.05475e-05
-0.000533847 0.000154921 0.000162397 -7.65843e-05
-0.0010663 0.000316181 0.000321479 -7.13357e-05
-0.00106261 0.000314632 0.000320561 -7.08733e-05
-0.00158544 0.000471888 0.000477239 -6.17939e-05
-0.00157609 0.000468524 0.000474672 -6.18412e-05
-0.000528626 0.000152919 0.000161017 -7.51538e-05
-0.000532018 0.000154174 0.000161933 -7.5972e-05
-0.00158072 0.000470148 0.00047596 -6.18241e-05
-0.00105261 0.000310789 0.000317922 -7.00985e-05
-0.000530265 0.000153513 0.000161465 -7.55027e-05
-0.00105912 0.000313223 0.000319672 -7.05475e-05
-0.0010558 0.00031195 0.000318794 -7.02966e-05
-0.00157609 0.000468524 0.000474672 -6.18412e-05
-0.00156712 0.000465547 0.000472103 -6.1861e-05
-0.000525506 0.000151863 0.000160133 -7.47069e-05
-0.000528626 0.000152919 0.000161017 -7.51538e-05
-0.00157156 0.000466997 0.000473384 -6.18514e-05
-0.00104648 0.000308694 0.000316194 -6.98568e-05
-0.000527054 0.000152372 0.000160578 -7.48964e-05
-0.00105261 0.000310789 0.000317922 -7.00985e-05
-0.00104951 0.000309708 0.000317057 -6.99558e-05
-0.00156712 0.000465547 0.000472103 -6.1861e-05
-0.00155839 0.000462796 0.000469542 -6.1871e-05
-0.000522497 0.000150935 0.000159241 -7.44718e-05
-0.000525506 0.000151863 0.000160133 -7.47069e-05
-0.00156274 0.00046415 0.000470825 -6.18685e-05
-0.00104057 0.000306813 0.000314468 -6.97283e-05
-0.000523986 0.000151387 0.000159685 -7.45694e-05
-0.00104648 0.000308694 0.000316194 -6.98568e-05
-0.00104351 0.000307733 0.000315332 -6.97837e-05
-0.00155839 0.000462796 0.000469542 -6.1871e-05
-0.00154978 0.000460173 0.000466973 -6.18698e-05
-0.000519565 0.000150075 0.000158353 -7.43549e-05
-0.000522497 0.000150935 0.000159241 -7.44718e-05
-0.00155407 0.000461473 0.000468257 -6.18708e-05
-0.00103478 0.00030505 0.00031274 -6.96628e-05
-0.000521028 0.000150499 0.000158798 -7.44031e-05
-0.00104057 0.000306813 0.000314468 -6.97283e-05
-0.00103766 0.000305921 0.000313604 -6.96895e-05
-0.00154978 0.000460173 0.000466973 -6.18698e-05
-0.00154122 0.000457618 0.000464401 -6.18652e-05
-0.000516661 0.000149252 0.000157461 -7.4299e-05
-0.000519565 0.000150075 0.000158353 -7.43549e-05
-0.00154549 0.00045889 0.000465688 -6.1868e-05
-0.00102904 0.00030335 0.000311008 -6.96292e-05
-0.00051811 0.00014966 0.000157907 -7.43216e-05
-0.00103478 0.00030505 0.00031274 -6.96628e-05
-0.0010319 0.000304195 0.000311874 -6.96435e-05
-0.00154122 0.000457618 0.000464401 -6.18652e-05
-0.00153269 0.000455094 0.000461825 -6.18589e-05
-0.000513772 0.000148445 0.000156569 -7.42739e-05
-0.000516661 0.000149252 0.000157461 -7.4299e-05
-0.00153695 0.000456353 0.000463113 -6.1862e-05
-0.00102332 0.000301681 0.000309274 -6.96122e-05
-0.000515216 0.000148847 0.000157015 -7.42839e-05
-0.00102904 0.00030335 0.000311008 -6.96292e-05
-0.00102618 0.000302513 0.000310141 -6.96191e-05
-0.00153269 0.000455094 0.000461825 -6.18589e-05
-0.00152416 0.000452586 0.000459247 -6.18532e-05
-0.000510886 0.000147644 0.000155675 -7.42631e-05
-0.000513772 0.000148445 0.000156569 -7.42739e-05
-0.00152842 0.000453839 0.000460536 -6.1856e-05
-0.00101761 0.000300026 0.000307538 -6.96032e-05
-0.000512328 0.000148044 0.000156122 -7.42673e-05
-0.00102332 0.000301681 0.000309274 -6.96122e-05
-0.00102047 0.000300852 0.000308406 -6.96071e-05
-0.00152416 0.000452586 0.000459247 -6.18532e-05
-0.00151564 0.000450082 0.000456669 -6.18485e-05
-0.000508 0.000146845 0.000154781 -7.42587e-05
-0.000510886 0.000147644 0.000155675 -7.42631e-05
-0.0015199 0.000451333 0.000457958 -6.18507e-05
-0.00101191 0.000298375 0.000305801 -6.95984e-05
-0.000509443 0.000147245 0.000155228 -7.42604e-05
-0.00101761 0.000300026 0.000307538 -6.96032e-05
-0.00101476 0.0002992 0.000306669 -6.96004e-05
-0.00151564 0.000450082 0.000456669 -6.18485e-05
-0.00150712 0.00044758 0.00045409 -6.18449e-05
-0.000505114 0.000146045 0.000153887 -7.4257e-05
-0.000508 0.000146845 0.000154781 -7.42587e-05
-0.00151138 0.000448831 0.000455379 -6.18466e-05
-0.00100621 0.000296724 0.000304063 -6.95956e-05
-0.000506557 0.000146445 0.000154334 -7.42577e-05
-0.00101191 0.000298375 0.000305801 -6.95984e-05
-0.00100906 0.000297549 0.000304932 -6.95968e-05
-0.00150712 0.00044758 0.00045409 -6.18449e-05
-0.0014986 0.000445077 0.000451511 -6.18424e-05
-0.000502227 0.000145244 0.000152993 -7.42563e-05
-0.000505114 0.000146045 0.000153887 -7.4257e-05
-0.00150286 0.000446328 0.0004528 -6.18435e-05
-0.0010005 0.000295073 0.000302326 -6.95939e-05
-0.000503671 0.000145645 0.00015344 -7.42566e-05
-0.00100621 0.000296724 0.000304063 -6.95956e-05
-0.00100335 0.000295899 0.000303195 -6.95947e-05
-0.0014986 0.000445077 0.000451511 -6.18424e-05
-0.00149008 0.000442573 0.000448932 -6.18407e-05
-0.000499339 0.000144441 0.000152099 -7.42559e-05
-0.000502227 0.000145244 0.000152993 -7.42563e-05
-0.00149434 0.000443825 0.000450221 -6.18415e-05
-0.000994797 0.000293421 0.000300589 -6.95928e-05
-0.000500783 0.000144842 0.000152546 -7.42561e-05
-0.0010005 0.000295073 0.000302326 -6.95939e-05
-0.000997649 0.000294247 0.000301458 -6.95933e-05
-0.00149008 0.000442573 0.000448932 -6.18407e-05
-0.00148156 0.000440069 0.000446354 -6.18396e-05
-0.000496451 0.000143637 0.000151206 -7.42556e-05
-0.000499339 0.000144441 0.000152099 -7.42559e-05
-0.00148582 0.000441321 0.000447643 -6.18401e-05
-0.000989091 0.000291768 0.000298853 -6.95921e-05
-0.000497895 0.000144039 0.000151653 -7.42557e-05
-0.000994797 0.000293421 0.000300589 -6.95928e-05
-0.000991944 0.000292595 0.000299721 -6.95924e-05
-0.00148156 0.000440069 0.000446354 -6.18396e-05
-0.00147304 0.000437564 0.000443776 -6.1839e-05
-0.000493562 0.000142832 0.000150313 -7.42552e-05
-0.000496451 0.000143637 0.000151206 -7.42556e-05
-0.0014773 0.000438816 0.000445065 -6.18393e-05
-0.000983386 0.000290114 0.000297116 -6.95916e-05
-0.000495007 0.000143234 0.00015076 -7.42554e-05
-0.000989091 0.000291768 0.000298853 -6.95921e-05
-0.000986238 0.000290941 0.000297985 -6.95918e-05
-0.00147304 0.000437564 0.000443776 -6.1839e-05
-0.00146452 0.000435058 0.000441198 -6.18385e-05
-0.000490674 0.000142026 0.000149421 -7.42548e-05
-0.000493562 0.000142832 0.000150313 -7.42552e-05
-0.00146878 0.000436311 0.000442487 -6.18387e-05
-0.00097768 0.000288459 0.00029538 -6.95911e-05
-0.000492118 0.000142429 0.000149867 -7.4255e-05
-0.000983386 0.000290114 0.000297116 -6.95916e-05
-0.000980533 0.000289287 0.000296248 -6.95913e-05
-0.00146452 0.000435058 0.000441198 -6.18385e-05
-0.001456 0.000432552 0.00043862 -6.18383e-05
-0.000487786 0.000141219 0.000148528 -7.42543e-05
-0.000490674 0.000142026 0.000149421 -7.42548e-05
-0.00146026 0.000433805 0.000439909 -6.18384e-05
-0.000971975 0.000286804 0.000293645 -6.95907e-05
-0.00048923 0.000141623 0.000148974 -7.42545e-05
-0.00097768 0.000288459 0.00029538 -6.95911e-05
-0.000974828 0.000287632 0.000294513 -6.95909e-05
-0.001456 0.000432552 0.00043862 -6.18383e-05
-0.00144748 0.000430046 0.000436043 -6.18381e-05
-0.000484898 0.000140413 0.000147636 -7.42538e-05
-0.000487786 0.000141219 0.000148528 -7.42543e-05
-0.00145174 0.000431299 0.000437332 -6.18382e-05
-0.00096627 0.000285148 0.000291909 -6.95904e-05
-0.000486342 0.000140816 0.000148082 -7.42541e-05
-0.000971975 0.000286804 0.000293645 -6.95907e-05
-0.000969123 0.000285976 0.000292777 -6.95906e-05
-0.00144748 0.000430046 0.000436043 -6.18381e-05
-0.00143896 0.000427539 0.000433466 -6.18379e-05
-0.00048201 0.000139606 0.000146745 -7.42533e-05
-0.000484898 0.000140413 0.000147636 -7.42538e-05
-0.00144322 0.000428792 0.000434755 -6.1838e-05
-0.000960566 0.000283493 0.000290174 -6.95901e-05
-0.000483454 0.000140009 0.000147191 -7.42536e-05
-0.00096627 0.000285148 0.000291909 -6.95904e-05
-0.000963418 0.000284321 0.000291042 -6.95902e-05
-0.00143896 0.000427539 0.000433466 -6.18379e-05
-0.00143044 0.000425032 0.00043089 -6.18377e-05
-0.000479123 0.000138798 0.000145853 -7.42527e-05
-0.00048201 0.000139606 0.000146745 -7.42533e-05
-0.0014347 0.000426286 0.000432178 -6.18378e-05
-0.000954862 0.000281836 0.000288439 -6.95897e-05
-0.000480566 0.000139202 0.000146299 -7.4253e-05
-0.000960566 0.000283493 0.000290174 -6.95901e-05
-0.000957714 0.000282664 0.000289307 -6.95899e-05
-0.00143044 0.000425032 0.00043089 -6.18377e-05
-0.00142192 0.000422525 0.000428313 -6.18375e-05
-0.000476236 0.000137991 0.000144962 -7.42522e-05
-0.000479123 0.000138798 0.000145853 -7.42527e-05
-0.00142618 0.000423779 0.000429601 -6.18376e-05
-0.000949158 0.00028018 0.000286705 -6.95893e-05
-0.00047768 0.000138394 0.000145408 -7.42525e-05
-0.000954862 0.000281836 0.000288439 -6.95897e-05
-0.00095201 0.000281008 0.000287572 -6.95895e-05
-0.00142192 0.000422525 0.000428313 -6.18375e-05
-0.0014134 0.000420018 0.000425737 -6.18373e-05
-0.00047335 0.000137183 0.000144072 -7.42516e-05
-0.000476236 0.000137991 0.000144962 -7.42522e-05
-0.00141766 0.000421271 0.000427025 -6.18374e-05
-0.000943455 0.000278523 0.000284971 -6.95889e-05
-0.000474793 0.000137587 0.000144517 -7.42519e-05
-0.000949158 0.00028018 0.000286705 -6.95893e-05
-0.000946306 0.000279352 0.000285838 -6.95891e-05
-0.0014134 0.000420018 0.000425737 -6.18373e-05
-0.00140489 0.000417511 0.000423161 -6.1837e-05
-0.000470464 0.000136375 0.000143181 -7.42509e-05
-0.00047335 0.000137183 0.000144072 -7.42516e-05
-0.00140915 0.000418764 0.000424449 -6.18371e-05
-0.000937752 0.000276867 0.000283237 -6.95885e-05
-0.000471907 0.000136779 0.000143626 -7.42513e-05
-0.000943455 0.000278523 0.000284971 -6.95889e-05
-0.000940604 0.000277695 0.000284104 -6.95887e-05
-0.00140489 0.000417511 0.000423161 -6.1837e-05
-0.00139637 0.000415003 0.000420586 -6.18367e-05
-0.000467579 0.000135566 0.000142291 -7.42503e-05
-0.000470464 0.000136375 0.000143181 -7.42509e-05
-0.00140063 0.000416257 0.000421873 -6.18369e-05
-0.00093205 0.00027521 0.000281503 -6.9588e-05
-0.000469021 0.000135971 0.000142736 -7.42506e-05
-0.000937752 0.000276867 0.000283237 -6.95885e-05
-0.000934901 0.000276038 0.00028237 -6.95882e-05
-0.00139637 0.000415003 0.000420586 -6.18367e-05
-0.00138785 0.000412495 0.00041801 -6.18364e-05
-0.000464694 0.000134758 0.000141401 -7.42496e-05
-0.000467579 0.000135566 0.000142291 -7.42503e-05
-0.00139211 0.000413749 0.000419298 -6.18366e-05
-0.000926348 0.000273552 0.00027977 -6.95875e-05
-0.000466136 0.000135162 0.000141846 -7.425e-05
-0.00093205 0.00027521 0.000281503 -6.9588e-05
-0.000929199 0.000274381 0.000280636 -6.95878e-05
-0.00138785 0.000412495 0.00041801 -6.18364e-05
-0.00137934 0.000409988 0.000415435 -6.18361e-05
-0.000461809 0.000133949 0.000140511 -7.42489e-05
-0.000464694 0.000134758 0.000141401 -7.42496e-05
-0.00138359 0.000411242 0.000416723 -6.18363e-05
-0.000920647 0.000271895 0.000278036 -6.9587e-05
-0.000463252 0.000134354 0.000140956 -7.42493e-05
-0.000926348 0.000273552 0.00027977 -6.95875e-05
-0.000923498 0.000272724 0.000278903 -6.95873e-05
-0.00137934 0.000409988 0.000415435 -6.18361e-05
-0.00137082 0.00040748 0.00041286 -6.18358e-05
-0.000458925 0.00013314 0.000139622 -7.42482e-05
-0.000461809 0.000133949 0.000140511 -7.42489e-05
-0.00137508 0.000408734 0.000414148 -6.18359e-05
-0.000914946 0.000270238 0.000276304 -6.95865e-05
-0.000460367 0.000133545 0.000140067 -7.42486e-05
-0.000920647 0.000271895 0.000278036 -6.9587e-05
-0.000917796 0.000271066 0.00027717 -6.95868e-05
-0.00137082 0.00040748 0.00041286 -6.18358e-05
-0.00136231 0.000404972 0.000410286 -6.18354e-05
-0.000456042 0.000132331 0.000138733 -7.42475e-05
-0.000458925 0.00013314 0.000139622 -7.42482e-05
-0.00136656 0.000406226 0.000411573 -6.18356e-05
-0.000909246 0.00026858 0.000274571 -6.95859e-05
-0.000457484 0.000132736 0.000139178 -7.42479e-05
-0.000914946 0.000270238 0.000276304 -6.95865e-05
-0.000912096 0.000269409 0.000275437 -6.95862e-05
-0.00136231 0.000404972 0.000410286 -6.18354e-05
-0.00135379 0.000402463 0.000407711 -6.1835e-05
-0.000453159 0.000131522 0.000137844 -7.42468e-05
-0.000456042 0.000132331 0.000138733 -7.42475e-05
-0.00135805 0.000403717 0.000408999 -6.18352e-05
-0.000903546 0.000266922 0.000272839 -6.95854e-05
-0.0004546 0.000131927 0.000138289 -7.42471e-05
-0.000909246 0.00026858 0.000274571 -6.95859e-05
-0.000906396 0.000267751 0.000273705 -6.95857e-05
-0.00135379 0.000402463 0.000407711 -6.1835e-05
-0.00134528 0.000399955 0.000405137 -6.18346e-05
-0.000450276 0.000130713 0.000136956 -7.4246e-05
-0.000453159 0.000131522 0.000137844 -7.42468e-05
-0.00134953 0.000401209 0.000406424 -6.18348e-05
-0.000897846 0.000265264 0.000271107 -6.95848e-05
-0.000451717 0.000131117 0.0001374 -7.42464e-05
-0.000903546 0.000266922 0.000272839 -6.95854e-05
-0.000900696 0.000266093 0.000271973 -6.95851e-05
-0.00134528 0.000399955 0.000405137 -6.18346e-05
-0.00133676 0.000397446 0.000402564 -6.18342e-05
-0.000447394 0.000129903 0.000136067 -7.42452e-05
-0.000450276 0.000130713 0.000136956 -7.4246e-05
-0.00134102 0.000398701 0.00040385 -6.18344e-05
-0.000892147 0.000263606 0.000269375 -6.95842e-05
-0.000448835 0.000130308 0.000136512 -7.42456e-05
-0.000897846 0.000265264 0.000271107 -6.95848e-05
-0.000894997 0.000264435 0.000270241 -6.95845e-05
-0.00133676 0.000397446 0.000402564 -6.18342e-05
-0.00132825 0.000394938 0.00039999 -6.18338e-05
-0.000444512 0.000129093 0.000135179 -7.42444e-05
-0.000447394 0.000129903 0.000136067 -7.42452e-05
-0.0013325 0.000396192 0.000401277 -6.1834e-05
-0.000886448 0.000261947 0.000267643 -6.95836e-05
-0.000445953 0.000129498 0.000135623 -7.42448e-05
-0.000892147 0.000263606 0.000269375 -6.95842e-05
-0.000889298 0.000262777 0.000268509 -6.95839e-05
-0.00132825 0.000394938 0.00039999 -6.18338e-05
-0.00131973 0.000392429 0.000397417 -6.18333e-05
-0.00044163 0.000128283 0.000134292 -7.42436e-05
-0.000444512 0.000129093 0.000135179 -7.42444e-05
-0.00132399 0.000393683 0.000398703 -6.18336e-05
-0.00088075 0.000260289 0.000265912 -6.9583e-05
-0.000443071 0.000128688 0.000134736 -7.4244e-05
-0.000886448 0.000261947 0.000267643 -6.95836e-05
-0.000883599 0.000261118 0.000266778 -6.95833e-05
-0.00131973 0.000392429 0.000397417 -6.18333e-05
-0.00131122 0.00038992 0.000394844 -6.18329e-05
-0.000438749 0.000127472 0.000133404 -7.42428e-05
-0.00044163 0.000128283 0.000134292 -7.42436e-05
-0.00131548 0.000391174 0.00039613 -6.18331e-05
-0.000875053 0.00025863 0.000264181 -6.95823e-05
-0.00044019 0.000127878 0.000133848 -7.42432e-05
-0.00088075 0.000260289 0.000265912 -6.9583e-05
-0.000877901 0.000259459 0.000265047 -6.95827e-05
-0.00131122 0.00038992 0.000394844 -6.18329e-05
-0.00130271 0.000387411 0.000392271 -6.18324e-05
-0.000435869 0.000126662 0.000132517 -7.4242e-05
-0.000438749 0.000127472 0.000133404 -7.42428e-05
-0.00130697 0.000388665 0.000393557 -6.18327e-05
-0.000869355 0.000256971 0.00026245 -6.95817e-05
-0.000437309 0.000127067 0.000132961 -7.42424e-05
-0.000875053 0.00025863 0.000264181 -6.95823e-05
-0.000872204 0.0002578 0.000263316 -6.9582e-05
-0.00130271 0.000387411 0.000392271 -6.18324e-05
-0.0012942 0.000384902 0.000389698 -6.1832e-05
-0.000432989 0.000125851 0.00013163 -7.42411e-05
-0.000435869 0.000126662 0.000132517 -7.4242e-05
-0.00129845 0.000386156 0.000390985 -6.18322e-05
-0.000863659 0.000255312 0.00026072 -6.9581e-05
-0.000434429 0.000126256 0.000132074 -7.42415e-05
-0.000869355 0.000256971 0.00026245 -6.95817e-05
-0.000866507 0.000256141 0.000261585 -6.95813e-05
-0.0012942 0.000384902 0.000389698 -6.1832e-05
-0.00128569 0.000382392 0.000387126 -6.18315e-05
-0.000430109 0.00012504 0.000130744 -7.42403e-05
-0.000432989 0.000125851 0.00013163 -7.42411e-05
-0.00128994 0.000383647 0.000388412 -6.18317e-05
-0.000857962 0.000253652 0.00025899 -6.95803e-05
-0.000431549 0.000125446 0.000131187 -7.42407e-05
-0.000863659 0.000255312 0.00026072 -6.9581e-05
-0.00086081 0.000254482 0.000259855 -6.95807e-05
-0.00128569 0.000382392 0.000387126 -6.18315e-05
-0.00127718 0.000379883 0.000384554 -6.1831e-05
-0.00042723 0.000124229 0.000129857 -7.42394e-05
-0.000430109 0.00012504 0.000130744 -7.42403e-05
-0.00128143 0.000381137 0.00038584 -6.18312e-05
-0.000852266 0.000251993 0.00025726 -6.95797e-05
-0.000428669 0.000124634 0.000130301 -7.42398e-05
-0.000857962 0.000253652 0.00025899 -6.95803e-05
-0.000855114 0.000252823 0.000258125 -6.958e-05
-0.00127718 0.000379883 0.000384554 -6.1831e-05
-0.00126867 0.000377373 0.000381983 -6.18305e-05
-0.000424351 0.000123417 0.000128971 -7.42385e-05
-0.00042723 0.000124229 0.000129857 -7.42394e-05
-0.00127292 0.000378628 0.000383268 -6.18307e-05
-0.000846571 0.000250333 0.000255531 -6.9579e-05
-0.00042579 0.000123823 0.000129414 -7.42389e-05
-0.000852266 0.000251993 0.00025726 -6.95797e-05
-0.000849418 0.000251163 0.000256395 -6.95793e-05
-0.00126867 0.000377373 0.000381983 -6.18305e-05
-0.00126016 0.000374863 0.000379411 -6.183e-05
-0.000421472 0.000122606 0.000128086 -7.42376e-05
-0.000424351 0.000123417 0.000128971 -7.42385e-05
-0.00126441 0.000376118 0.000380697 -6.18302e-05
-0.000840876 0.000248673 0.000253801 -6.95782e-05
-0.000422911 0.000123012 0.000128529 -7.42381e-05
-0.000846571 0.000250333 0.000255531 -6.9579e-05
-0.000843723 0.000249503 0.000254666 -6.95786e-05
-0.00126016 0.000374863 0.000379411 -6.183e-05
-0.00125165 0.000372353 0.00037684 -6.18294e-05
-0.000418594 0.000121794 0.0001272 -7.42367e-05
-0.000421472 0.000122606 0.000128086 -7.42376e-05
-0.0012559 0.000373608 0.000378126 -6.18297e-05
-0.000835181 0.000247013 0.000252072 -6.95775e-05
-0.000420033 0.0001222 0.000127643 -7.42372e-05
-0.000840876 0.000248673 0.000253801 -6.95782e-05
-0.000838029 0.000247843 0.000252937 -6.95779e-05
-0.00125165 0.000372353 0.00037684 -6.18294e-05
-0.00124314 0.000369843 0.000374269 -6.18289e-05
-0.000415717 0.000120982 0.000126315 -7.42358e-05
-0.000418594 0.000121794 0.0001272 -7.42367e-05
-0.00124739 0.000371098 0.000375554 -6.18292e-05
-0.000829487 0.000245353 0.000250343 -6.95768e-05
-0.000417156 0.000121388 0.000126758 -7.42362e-05
-0.000835181 0.000247013 0.000252072 -6.95775e-05
-0.000832334 0.000246183 0.000251208 -6.95772e-05
-0.00124314 0.000369843 0.000374269 -6.18289e-05
-0.00123463 0.000367332 0.000371698 -6.18284e-05
-0.00041284 0.000120169 0.00012543 -7.42349e-05
-0.000415717 0.000120982 0.000126315 -7.42358e-05
-0.00123888 0.000368588 0.000372984 -6.18286e-05
-0.000823794 0.000243692 0.000248615 -6.95761e-05
-0.000414278 0.000120576 0.000125873 -7.42353e-05
-0.000829487 0.000245353 0.000250343 -6.95768e-05
-0.00082664 0.000244522 0.000249479 -6.95764e-05
-0.00123463 0.000367332 0.000371698 -6.18284e-05
-0.00122612 0.000364822 0.000369128 -6.18278e-05
-0.000409963 0.000119357 0.000124546 -7.42339e-05
-0.00041284 0.000120169 0.00012543 -7.42349e-05
-0.00123037 0.000366077 0.000370413 -6.18281e-05
-0.000818101 0.000242031 0.000246887 -6.95753e-05
-0.000411401 0.000119763 0.000124988 -7.42344e-05
-0.000823794 0.000243692 0.000248615 -6.95761e-05
-0.000820947 0.000242862 0.000247751 -6.95757e-05
-0.00122612 0.000364822 0.000369128 -6.18278e-05
-0.00121761 0.000362311 0.000366558 -6.18273e-05
-0.000407087 0.000118544 0.000123661 -7.4233e-05
-0.000409963 0.000119357 0.000124546 -7.42339e-05
-0.00122187 0.000363567 0.000367843 -6.18275e-05
-0.000812408 0.000240371 0.000245159 -6.95745e-05
-0.000408525 0.000118951 0.000124103 -7.42334e-05
-0.000818101 0.000242031 0.000246887 -6.95753e-05
-0.000815254 0.000241201 0.000246023 -6.95749e-05
-0.00121761 0.000362311 0.000366558 -6.18273e-05
-0.00120911 0.000359801 0.000363988 -6.18267e-05
-0.000404211 0.000117731 0.000122777 -7.4232e-05
-0.000407087 0.000118544 0.000123661 -7.4233e-05
-0.00121336 0.000361056 0.000365273 -6.1827e-05
-0.000806716 0.00023871 0.000243431 -6.95738e-05
-0.000405649 0.000118138 0.000123219 -7.42325e-05
-0.000812408 0.000240371 0.000245159 -6.95745e-05
-0.000809562 0.00023954 0.000244295 -6.95742e-05
-0.00120911 0.000359801 0.000363988 -6.18267e-05
-0.0012006 0.00035729 0.000361419 -6.18261e-05
-0.000401336 0.000116918 0.000121893 -7.4231e-05
-0.000404211 0.000117731 0.000122777 -7.4232e-05
-0.00120485 0.000358545 0.000362703 -6.18264e-05
-0.000801024 0.000237048 0.000241704 -6.9573e-05
-0.000402773 0.000117325 0.000122335 -7.42315e-05
-0.000806716 0.00023871 0.000243431 -6.95738e-05
-0.00080387 0.000237879 0.000242568 -6.95734e-05
-0.0012006 0.00035729 0.000361419 -6.18261e-05
-0.00119209 0.000354779 0.000358849 -6.18255e-05
-0.000398461 0.000116105 0.00012101 -7.42301e-05
-0.000401336 0.000116918 0.000121893 -7.4231e-05
-0.00119635 0.000356034 0.000360134 -6.18258e-05
-0.000795333 0.000235387 0.000239977 -6.95722e-05
-0.000399898 0.000116511 0.000121452 -7.42305e-05
-0.000801024 0.000237048 0.000241704 -6.9573e-05
-0.000798178 0.000236218 0.00024084 -6.95726e-05
-0.00119209 0.000354779 0.000358849 -6.18255e-05
-0.00118359 0.000352268 0.00035628 -6.1825e-05
-0.000395586 0.000115291 0.000120127 -7.42291e-05
-0.000398461 0.000116105 0.00012101 -7.42301e-05
-0.00118784 0.000353523 0.000357565 -6.18252e-05
-0.000789642 0.000233725 0.00023825 -6.95714e-05
-0.000397024 0.000115698 0.000120568 -7.42296e-05
-0.000795333 0.000235387 0.000239977 -6.95722e-05
-0.000792487 0.000234556 0.000239113 -6.95718e-05
-0.00118359 0.000352268 0.00035628 -6.1825e-05
-0.00117508 0.000349756 0.000353711 -6.18244e-05
-0.000392712 0.000114477 0.000119244 -7.42281e-05
-0.000395586 0.000115291 0.000120127 -7.42291e-05
-0.00117934 0.000351012 0.000354996 -6.18247e-05
-0.000783952 0.000232063 0.000236523 -6.95706e-05
-0.000394149 0.000114884 0.000119685 -7.42286e-05
-0.000789642 0.000233725 0.00023825 -6.95714e-05
-0.000786797 0.000232894 0.000237387 -6.9571e-05
-0.00117508 0.000349756 0.000353711 -6.18244e-05
-0.00116658 0.000347245 0.000351143 -6.18238e-05
-0.000389839 0.000113663 0.000118361 -7.42271e-05
-0.000392712 0.000114477 0.000119244 -7.42281e-05
-0.00117083 0.000348501 0.000352427 -6.18241e-05
-0.000778262 0.000230402 0.000234797 -6.95698e-05
-0.000391276 0.00011407 0.000118802 -7.42276e-05
-0.000783952 0.000232063 0.000236523 -6.95706e-05
-0.000781107 0.000231233 0.00023566 -6.95702e-05
-0.00116658 0.000347245 0.000351143 -6.18238e-05
-0.00115807 0.000344733 0.000348575 -6.18232e-05
-0.000386966 0.000112849 0.000117479 -7.42261e-05
-0.000389839 0.000113663 0.000118361 -7.42271e-05
-0.00116233 0.000345989 0.000349859 -6.18235e-05
-0.000772572 0.000228739 0.000233071 -6.9569e-05
-0.000388402 0.000113256 0.00011792 -7.42266e-05
-0.000778262 0.000230402 0.000234797 -6.95698e-05
-0.000775417 0.00022957 0.000233934 -6.95694e-05
-0.00115807 0.000344733 0.000348575 -6.18232e-05
-0.00114957 0.000342222 0.000346007 -6.18225e-05
-0.000384093 0.000112035 0.000116597 -7.42251e-05
-0.000386966 0.000112849 0.000117479 -7.42261e-05
-0.00115382 0.000343477 0.000347291 -6.18228e-05
-0.000766883 0.000227077 0.000231346 -6.95682e-05
-0.000385529 0.000112442 0.000117038 -7.42256e-05
-0.000772572 0.000228739 0.000233071 -6.9569e-05
-0.000769728 0.000227908 0.000232208 -6.95686e-05
-0.00114957 0.000342222 0.000346007 -6.18225e-05
-0.00114107 0.00033971 0.000343439 -6.18219e-05
-0.000381221 0.00011122 0.000115715 -7.4224e-05
-0.000384093 0.000112035 0.000116597 -7.42251e-05
-0.00114532 0.000340966 0.000344723 -6.18222e-05
-0.000761195 0.000225414 0.00022962 -6.95674e-05
-0.000382657 0.000111627 0.000116156 -7.42245e-05
-0.000766883 0.000227077 0.000231346 -6.95682e-05
-0.000764039 0.000226246 0.000230483 -6.95678e-05
-0.00114107 0.00033971 0.000343439 -6.18219e-05
-0.00113256 0.000337198 0.000340872 -6.18213e-05
-0.000378349 0.000110405 0.000114833 -7.4223e-05
-0.000381221 0.00011122 0.000115715 -7.4224e-05
-0.00113682 0.000338454 0.000342155 -6.18216e-05
-0.000755507 0.000223752 0.000227895 -6.95665e-05
-0.000379785 0.000110812 0.000115274 -7.42235e-05
-0.000761195 0.000225414 0.00022962 -6.95674e-05
-0.000758351 0.000224583 0.000228758 -6.95669e-05
-0.00113256 0.000337198 0.000340872 -6.18213e-05
-0.00112406 0.000334686 0.000338304 -6.18207e-05
-0.000375478 0.00010959 0.000113952 -7.4222e-05
-0.000378349 0.000110405 0.000114833 -7.4223e-05
-0.00112831 0.000335942 0.000339588 -6.1821e-05
-0.000749819 0.000222089 0.00022617 -6.95657e-05
-0.000376913 0.000109997 0.000114393 -7.42225e-05
-0.000755507 0.000223752 0.000227895 -6.95665e-05
-0.000752663 0.00022292 0.000227033 -6.95661e-05
-0.00112406 0.000334686 0.000338304 -6.18207e-05
-0.00111556 0.000332173 0.000335737 -6.182e-05
-0.000372607 0.000108775 0.000113071 -7.42209e-05
-0.000375478 0.00010959 0.000113952 -7.4222e-05
-0.00111981 0.000333429 0.000337021 -6.18204e-05
-0.000744132 0.000220426 0.000224446 -6.95648e-05
-0.000374042 0.000109182 0.000113511 -7.42214e-05
-0.000749819 0.000222089 0.00022617 -6.95657e-05
-0.000746976 0.000221257 0.000225308 -6.95653e-05
-0.00111556 0.000332173 0.000335737 -6.182e-05
-0.00110706 0.000329661 0.000333171 -6.18194e-05
-0.000369736 0.000107959 0.00011219 -7.42199e-05
-0.000372607 0.000108775 0.000113071 -7.42209e-05
-0.00111131 0.000330917 0.000334454 -6.18197e-05
-0.000738446 0.000218763 0.000222721 -6.9564e-05
-0.000371171 0.000108367 0.000112631 -7.42204e-05
-0.000744132 0.000220426 0.000224446 -6.95648e-05
-0.000741289 0.000219594 0.000223583 -6.95644e-05
-0.00110706 0.000329661 0.000333171 -6.18194e-05
-0.00109856 0.000327148 0.000330605 -6.18188e-05
-0.000366866 0.000107143 0.00011131 -7.42188e-05
-0.000369736 0.000107959 0.00011219 -7.42199e-05
-0.00110281 0.000328404 0.000331888 -6.18191e-05
-0.00073276 0.000217099 0.000220997 -6.95631e-05
-0.000368301 0.000107551 0.00011175 -7.42194e-05
-0.000738446 0.000218763 0.000222721 -6.9564e-05
-0.000735603 0.000217931 0.000221859 -6.95636e-05
-0.00109856 0.000327148 0.000330605 -6.18188e-05
-0.00109006 0.000324635 0.000328038 -6.18181e-05
-0.000363997 0.000106327 0.00011043 -7.42178e-05
-0.000366866 0.000107143 0.00011131 -7.42188e-05
-0.00109431 0.000325892 0.000329321 -6.18184e-05
-0.000727074 0.000215435 0.000219274 -6.95623e-05
-0.000365431 0.000106735 0.00011087 -7.42183e-05
-0.00073276 0.000217099 0.000220997 -6.95631e-05
-0.000729917 0.000216267 0.000220135 -6.95627e-05
-0.00109006 0.000324635 0.000328038 -6.18181e-05
-0.00108156 0.000322123 0.000325473 -6.18175e-05
-0.000361128 0.000105511 0.00010955 -7.42167e-05
-0.000363997 0.000106327 0.00011043 -7.42178e-05
-0.00108581 0.000323379 0.000326756 -6.18178e-05
-0.000721389 0.000213772 0.00021755 -6.95614e-05
-0.000362562 0.000105919 0.00010999 -7.42172e-05
-0.000727074 0.000215435 0.000219274 -6.95623e-05
-0.000724231 0.000214604 0.000218412 -6.95618e-05
-0.00108156 0.000322123 0.000325473 -6.18175e-05
-0.00107306 0.00031961 0.000322907 -6.18168e-05
-0.000358259 0.000104695 0.00010867 -7.42156e-05
-0.000361128 0.000105511 0.00010955 -7.42167e-05
-0.00107731 0.000320866 0.00032419 -6.18171e-05
-0.000715704 0.000212108 0.000215827 -6.95605e-05
-0.000359693 0.000105103 0.00010911 -7.42162e-05
-0.000721389 0.000213772 0.00021755 -6.95614e-05
-0.000718546 0.00021294 0.000216689 -6.9561e-05
-0.00107306 0.00031961 0.000322907 -6.18168e-05
-0.00106456 0.000317096 0.000320342 -6.18161e-05
-0.000355391 0.000103878 0.000107791 -7.42146e-05
-0.000358259 0.000104695 0.00010867 -7.42156e-05
-0.00106881 0.000318353 0.000321624 -6.18165e-05
-0.00071002 0.000210444 0.000214104 -6.95597e-05
-0.000356825 0.000104287 0.000108231 -7.42151e-05
-0.000715704 0.000212108 0.000215827 -6.95605e-05
-0.000712862 0.000211276 0.000214966 -6.95601e-05
-0.00106456 0.000317096 0.000320342 -6.18161e-05
-0.00105606 0.000314583 0.000317777 -6.18155e-05
-0.000352523 0.000103061 0.000106912 -7.42135e-05
-0.000355391 0.000103878 0.000107791 -7.42146e-05
-0.00106031 0.00031584 0.000319059 -6.18158e-05
-0.000704336 0.000208779 0.000212382 -6.95588e-05
-0.000353957 0.00010347 0.000107351 -7.4214e-05
-0.00071002 0.000210444 0.000214104 -6.95597e-05
-0.000707178 0.000209611 0.000213243 -6.95592e-05
-0.00105606 0.000314583 0.000317777 -6.18155e-05
-0.00104756 0.00031207 0.000315212 -6.18148e-05
-0.000349655 0.000102244 0.000106033 -7.42124e-05
-0.000352523 0.000103061 0.000106912 -7.42135e-05
-0.00105181 0.000313326 0.000316494 -6.18152e-05
-0.000698653 0.000207115 0.000210659 -6.95579e-05
-0.000351089 0.000102653 0.000106473 -7.4213e-05
-0.000704336 0.000208779 0.000212382 -6.95588e-05
-0.000701495 0.000207947 0.00021152 -6.95584e-05
-0.00104756 0.00031207 0.000315212 -6.18148e-05
-0.00103907 0.000309556 0.000312648 -6.18142e-05
-0.000346788 0.000101427 0.000105155 -7.42114e-05
-0.000349655 0.000102244 0.000106033 -7.42124e-05
-0.00104332 0.000310813 0.00031393 -6.18145e-05
-0.00069297 0.00020545 0.000208937 -6.9557e-05
-0.000348222 0.000101836 0.000105594 -7.42119e-05
-0.000698653 0.000207115 0.000210659 -6.95579e-05
-0.000695811 0.000206282 0.000209798 -6.95575e-05
-0.00103907 0.000309556 0.000312648 -6.18142e-05
-0.00103057 0.000307042 0.000310083 -6.18135e-05
-0.000343922 0.00010061 0.000104277 -7.42103e-05
-0.000346788 0.000101427 0.000105155 -7.42114e-05
-0.00103482 0.000308299 0.000311366 -6.18138e-05
-0.000687288 0.000203785 0.000207215 -6.95562e-05
-0.000345355 0.000101018 0.000104716 -7.42108e-05
-0.00069297 0.00020545 0.000208937 -6.9557e-05
-0.000690129 0.000204617 0.000208076 -6.95566e-05
-0.00103057 0.000307042 0.000310083 -6.18135e-05
-0.00102207 0.000304529 0.00030752 -6.18128e-05
-0.000341056 9.9792e-05 0.000103399 -7.42092e-05
-0.000343922 0.00010061 0.000104277 -7.42103e-05
-0.00102632 0.000305785 0.000308801 -6.18132e-05
-0.000681606 0.00020212 0.000205494 -6.95553e-05
-0.000342489 0.000100201 0.000103838 -7.42097e-05
-0.000687288 0.000203785 0.000207215 -6.95562e-05
-0.000684447 0.000202952 0.000206355 -6.95557e-05
-0.00102207 0.000304529 0.00030752 -6.18128e-05
-0.00101358 0.000302015 0.000304956 -6.18122e-05
-0.00033819 9.89742e-05 0.000102521 -7.42081e-05
-0.000341056 9.9792e-05 0.000103399 -7.42092e-05
-0.00101783 0.000303272 0.000306238 -6.18125e-05
-0.000675925 0.000200455 0.000203773 -6.95544e-05
-0.000339623 9.93831e-05 0.00010296 -7.42086e-05
-0.000681606 0.00020212 0.000205494 -6.95553e-05
-0.000678765 0.000201287 0.000204633 -6.95548e-05
-0.00101358 0.000302015 0.000304956 -6.18122e-05
-0.00100508 0.0002995 0.000302393 -6.18115e-05
-0.000335325 9.81561e-05 0.000101644 -7.4207e-05
-0.00033819 9.89742e-05 0.000102521 -7.42081e-05
-0.00100933 0.000300757 0.000303674 -6.18118e-05
-0.000670244 0.000198789 0.000202052 -6.95535e-05
-0.000336758 9.85651e-05 0.000102083 -7.42076e-05
-0.000675925 0.000200455 0.000203773 -6.95544e-05
-0.000673084 0.000199622 0.000202912 -6.9554e-05
-0.00100508 0.0002995 0.000302393 -6.18115e-05
-0.000996588 0.000296986 0.000299829 -6.18108e-05
-0.00033246 9.73378e-05 0.000100767 -7.42059e-05
-0.000335325 9.81561e-05 0.000101644 -7.4207e-05
-0.00100084 0.000298243 0.000301111 -6.18111e-05
-0.000664563 0.000197124 0.000200331 -6.95526e-05
-0.000333893 9.77469e-05 0.000101205 -7.42065e-05
-0.000670244 0.000198789 0.000202052 -6.95535e-05
-0.000667403 0.000197956 0.000201192 -6.95531e-05
-0.000996588 0.000296986 0.000299829 -6.18108e-05
-0.000988094 0.000294472 0.000297267 -6.18101e-05
-0.000329596 9.65192e-05 9.98901e-05 -7.42048e-05
-0.00033246 9.73378e-05 0.000100767 -7.42059e-05
-0.000992341 0.000295729 0.000298548 -6.18105e-05
-0.000658883 0.000195458 0.000198611 -6.95517e-05
-0.000331028 9.69285e-05 0.000100328 -7.42054e-05
-0.000664563 0.000197124 0.000200331 -6.95526e-05
-0.000661723 0.000196291 0.000199471 -6.95522e-05
-0.000988094 0.000294472 0.000297267 -6.18101e-05
-0.0009796 0.000291957 0.000294704 -6.18095e-05
-0.000326732 9.57005e-05 9.90136e-05 -7.42037e-05
-0.000329596 9.65192e-05 9.98901e-05 -7.42048e-05
-0.000983847 0.000293214 0.000295985 -6.18098e-05
-0.000653204 0.000193792 0.000196891 -6.95508e-05
-0.000328164 9.61099e-05 9.94518e-05 -7.42043e-05
-0.000658883 0.000195458 0.000198611 -6.95517e-05
-0.000656043 0.000194625 0.000197751 -6.95513e-05
-0.0009796 0.000291957 0.000294704 -6.18095e-05
-0.000971107 0.000289442 0.000292142 -6.18088e-05
-0.000323869 9.48816e-05 9.81374e-05 -7.42027e-05
-0.000326732 9.57005e-05 9.90136e-05 -7.42037e-05
-0.000975353 0.0002907 0.000293423 -6.18091e-05
-0.000647525 0.000192126 0.000195171 -6.955e-05
-0.000325301 9.52911e-05 9.85755e-05 -7.42032e-05
-0.000653204 0.000193792 0.000196891 -6.95508e-05
-0.000650364 0.000192959 0.000196031 -6.95504e-05
-0.000971107 0.000289442 0.000292142 -6.18088e-05
-0.000962614 0.000286928 0.00028958 -6.18081e-05
-0.000321006 9.40624e-05 9.72615e-05 -7.42016e-05
-0.000323869 9.48816e-05 9.81374e-05 -7.42027e-05
-0.00096686 0.000288185 0.000290861 -6.18085e-05
-0.000641846 0.000190459 0.000193452 -6.95491e-05
-0.000322437 9.4472e-05 9.76995e-05 -7.42021e-05
-0.000647525 0.000192126 0.000195171 -6.955e-05
-0.000644685 0.000191292 0.000194311 -6.95495e-05
-0.000962614 0.000286928 0.00028958 -6.18081e-05
-0.000954121 0.000284413 0.000287018 -6.18074e-05
-0.000318144 9.3243e-05 9.63859e-05 -7.42005e-05
-0.000321006 9.40624e-05 9.72615e-05 -7.42016e-05
-0.000958368 0.00028567 0.000288299 -6.18078e-05
-0.000636168 0.000188793 0.000191732 -6.95482e-05
-0.000319575 9.36528e-05 9.68237e-05 -7.4201e-05
-0.000641846 0.000190459 0.000193452 -6.95491e-05
-0.000639007 0.000189626 0.000192592 -6.95486e-05
-0.000954121 0.000284413 0.000287018 -6.18074e-05
-0.00094563 0.000281898 0.000284457 -6.18068e-05
-0.000315281 9.24235e-05 9.55106e-05 -7.41994e-05
-0.000318144 9.3243e-05 9.63859e-05 -7.42005e-05
-0.000949875 0.000283155 0.000285737 -6.18071e-05
-0.000630491 0.000187126 0.000190013 -6.95473e-05
-0.000316712 9.28333e-05 9.59482e-05 -7.41999e-05
-0.000636168 0.000188793 0.000191732 -6.95482e-05
-0.000633329 0.000187959 0.000190873 -6.95477e-05
-0.00094563 0.000281898 0.000284457 -6.18068e-05
-0.000937138 0.000279382 0.000281895 -6.18061e-05
-0.00031242 9.16037e-05 9.46355e-05 -7.41983e-05
-0.000315281 9.24235e-05 9.55106e-05 -7.41994e-05
-0.000941384 0.00028064 0.000283176 -6.18064e-05
-0.000624813 0.000185459 0.000188295 -6.95464e-05
-0.000313851 9.20136e-05 9.5073e-05 -7.41988e-05
-0.000630491 0.000187126 0.000190013 -6.95473e-05
-0.000627652 0.000186292 0.000189154 -6.95468e-05
-0.000937138 0.000279382 0.000281895 -6.18061e-05
-0.000928647 0.000276867 0.000279334 -6.18054e-05
-0.000309559 9.07836e-05 9.37607e-05 -7.41972e-05
-0.00031242 9.16037e-05 9.46355e-05 -7.41983e-05
-0.000932893 0.000278125 0.000280615 -6.18058e-05
-0.000619137 0.000183792 0.000186576 -6.95455e-05
-0.000310989 9.11937e-05 9.41981e-05 -7.41978e-05
-0.000624813 0.000185459 0.000188295 -6.95464e-05
-0.000621975 0.000184625 0.000187436 -6.95459e-05
-0.000928647 0.000276867 0.000279334 -6.18054e-05
-0.000920157 0.000274351 0.000276774 -6.18047e-05
-0.000306698 8.99634e-05 9.28863e-05 -7.41961e-05
-0.000309559 9.07836e-05 9.37607e-05 -7.41972e-05
-0.000924402 0.000275609 0.000278054 -6.18051e-05
-0.000613461 0.000182125 0.000184858 -6.95446e-05
-0.000308128 9.03735e-05 9.33235e-05 -7.41967e-05
-0.000619137 0.000183792 0.000186576 -6.95455e-05
-0.000616299 0.000182958 0.000185717 -6.95451e-05
-0.000920157 0.000274351 0.000276774 -6.18047e-05
-0.000911667 0.000271836 0.000274213 -6.18041e-05
-0.000303838 8.9143e-05 9.2012e-05 -7.4195e-05
-0.000306698 8.99634e-05 9.28863e-05 -7.41961e-05
-0.000915912 0.000273093 0.000275494 -6.18044e-05
-0.000607785 0.000180457 0.000183141 -6.95437e-05
-0.000305268 8.95532e-05 9.24491e-05 -7.41956e-05
-0.000613461 0.000182125 0.000184858 -6.95446e-05
-0.000610623 0.000181291 0.000183999 -6.95442e-05
-0.000911667 0.000271836 0.000274213 -6.18041e-05
-0.000903178 0.00026932 0.000271653 -6.18034e-05
-0.000300978 8.83223e-05 9.11381e-05 -7.4194e-05
-0.000303838 8.9143e-05 9.2012e-05 -7.4195e-05
-0.000907422 0.000270578 0.000272933 -6.18037e-05
-0.00060211 0.000178789 0.000181423 -6.95428e-05
-0.000302408 8.87327e-05 9.1575e-05 -7.41945e-05
-0.000607785 0.000180457 0.000183141 -6.95437e-05
-0.000604947 0.000179623 0.000182282 -6.95433e-05
-0.000903178 0.00026932 0.000271653 -6.18034e-05
-0.000894689 0.000266804 0.000269094 -6.18027e-05
-0.000298119 8.75014e-05 9.02645e-05 -7.41929e-05
-0.000300978 8.83223e-05 9.11381e-05 -7.4194e-05
-0.000898933 0.000268062 0.000270373 -6.18031e-05
-0.000596435 0.000177122 0.000179706 -6.9542e-05
-0.000299548 8.79119e-05 9.07013e-05 -7.41934e-05
-0.00060211 0.000178789 0.000181423 -6.95428e-05
-0.000599272 0.000177956 0.000180564 -6.95424e-05
-0.000894689 0.000266804 0.000269094 -6.18027e-05
-0.0008862 0.000264288 0.000266534 -6.18021e-05
-0.00029526 8.66804e-05 8.93911e-05 -7.41918e-05
-0.000298119 8.75014e-05 9.02645e-05 -7.41929e-05
-0.000890444 0.000265546 0.000267814 -6.18024e-05
-0.000590761 0.000175454 0.000177989 -6.95411e-05
-0.000296689 8.70909e-05 8.98277e-05 -7.41923e-05
-0.000596435 0.000177122 0.000179706 -6.9542e-05
-0.000593598 0.000176288 0.000178847 -6.95415e-05
-0.0008862 0.000264288 0.000266534 -6.18021e-05
-0.000877712 0.000261771 0.000263975 -6.18014e-05
-0.000292401 8.58591e-05 8.8518e-05 -7.41907e-05
-0.00029526 8.66804e-05 8.93911e-05 -7.41918e-05
-0.000881956 0.00026303 0.000265254 -6.18017e-05
-0.000585087 0.000173785 0.000176272 -6.95402e-05
-0.00029383 8.62697e-05 8.89545e-05 -7.41913e-05
-0.000590761 0.000175454 0.000177989 -6.95411e-05
-0.000587924 0.00017462 0.00017713 -6.95406e-05
-0.000877712 0.000261771 0.000263975 -6.18014e-05
-0.000869225 0.000259255 0.000261416 -6.18007e-05
-0.000289543 8.50375e-05 8.76452e-05 -7.41896e-05
-0.000292401 8.58591e-05 8.8518e-05 -7.41907e-05
-0.000873469 0.000260513 0.000262695 -6.18011e-05
-0.000579414 0.000172117 0.000174556 -6.95393e-05
-0.000290972 8.54483e-05 8.80816e-05 -7.41902e-05
-0.000585087 0.000173785 0.000176272 -6.95402e-05
-0.00058225 0.000172951 0.000175414 -6.95398e-05
-0.000869225 0.000259255 0.000261416 -6.18007e-05
-0.000860738 0.000256739 0.000258857 -6.18001e-05
-0.000286685 8.42158e-05 8.67727e-05 -7.41886e-05
-0.000289543 8.50375e-05 8.76452e-05 -7.41896e-05
-0.000864981 0.000257997 0.000260136 -6.18004e-05
-0.000573741 0.000170449 0.00017284 -6.95384e-05
-0.000288114 8.46267e-05 8.72089e-05 -7.41891e-05
-0.000579414 0.000172117 0.000174556 -6.95393e-05
-0.000576577 0.000171283 0.000173698 -6.95389e-05
-0.000860738 0.000256739 0.000258857 -6.18001e-05
-0.000852252 0.000254222 0.000256298 -6.17994e-05
-0.000283828 8.33939e-05 8.59004e-05 -7.41875e-05
-0.000286685 8.42158e-05 8.67727e-05 -7.41886e-05
-0.000856495 0.00025548 0.000257578 -6.17997e-05
-0.000568068 0.00016878 0.000171124 -6.95376e-05
-0.000285257 8.38049e-05 8.63365e-05 -7.4188e-05
-0.000573741 0.000170449 0.00017284 -6.95384e-05
-0.000570905 0.000169614 0.000171982 -6.9538e-05
-0.000852252 0.000254222 0.000256298 -6.17994e-05
-0.000843766 0.000251705 0.00025374 -6.17988e-05
-0.000280972 8.25717e-05 8.50285e-05 -7.41864e-05
-0.000283828 8.33939e-05 8.59004e-05 -7.41875e-05
-0.000848008 0.000252964 0.000255019 -6.17991e-05
-0.000562397 0.000167111 0.000169408 -6.95367e-05
-0.0002824 8.29828e-05 8.54644e-05 -7.4187e-05
-0.000568068 0.00016878 0.000171124 -6.95376e-05
-0.000565232 0.000167945 0.000170266 -6.95371e-05
-0.000843766 0.000251705 0.00025374 -6.17988e-05
-0.00083528 0.000249188 0.000251182 -6.17981e-05
-0.000278115 8.17494e-05 8.41568e-05 -7.41854e-05
-0.000280972 8.25717e-05 8.50285e-05 -7.41864e-05
-0.000839523 0.000250447 0.000252461 -6.17984e-05
-0.000556725 0.000165442 0.000167693 -6.95358e-05
-0.000279543 8.21606e-05 8.45926e-05 -7.41859e-05
-0.000562397 0.000167111 0.000169408 -6.95367e-05
-0.000559561 0.000166276 0.00016855 -6.95363e-05
-0.00083528 0.000249188 0.000251182 -6.17981e-05
-0.000826795 0.000246671 0.000248625 -6.17975e-05
-0.000275259 8.09268e-05 8.32854e-05 -7.41843e-05
-0.000278115 8.17494e-05 8.41568e-05 -7.41854e-05
-0.000831038 0.00024793 0.000249903 -6.17978e-05
-0.000551054 0.000163772 0.000165978 -6.9535e-05
-0.000276687 8.13381e-05 8.37211e-05 -7.41848e-05
-0.000556725 0.000165442 0.000167693 -6.95358e-05
-0.00055389 0.000164607 0.000166835 -6.95354e-05
-0.000826795 0.000246671 0.000248625 -6.17975e-05
-0.000818311 0.000244154 0.000246067 -6.17968e-05
-0.000272404 8.0104e-05 8.24143e-05 -7.41833e-05
-0.000275259 8.09268e-05 8.32854e-05 -7.41843e-05
-0.000822553 0.000245412 0.000247346 -6.17971e-05
-0.000545384 0.000162103 0.000164263 -6.95341e-05
-0.000273832 8.05154e-05 8.28498e-05 -7.41838e-05
-0.000551054 0.000163772 0.000165978 -6.9535e-05
-0.000548219 0.000162938 0.00016512 -6.95346e-05
-0.000818311 0.000244154 0.000246067 -6.17968e-05
-0.000809827 0.000241636 0.00024351 -6.17962e-05
-0.000269549 7.9281e-05 8.15435e-05 -7.41822e-05
-0.000272404 8.0104e-05 8.24143e-05 -7.41833e-05
-0.000814069 0.000242895 0.000244789 -6.17965e-05
-0.000539714 0.000160433 0.000162549 -6.95333e-05
-0.000270976 7.96925e-05 8.19789e-05 -7.41827e-05
-0.000545384 0.000162103 0.000164263 -6.95341e-05
-0.000542549 0.000161268 0.000163406 -6.95337e-05
-0.000809827 0.000241636 0.00024351 -6.17962e-05
-0.000801343 0.000239119 0.000240953 -6.17955e-05
-0.000266695 7.84577e-05 8.06729e-05 -7.41812e-05
-0.000269549 7.9281e-05 8.15435e-05 -7.41822e-05
-0.000805585 0.000240378 0.000242232 -6.17959e-05
-0.000534044 0.000158763 0.000160835 -6.95324e-05
-0.000268122 7.88694e-05 8.11082e-05 -7.41817e-05
-0.000539714 0.000160433 0.000162549 -6.95333e-05
-0.000536879 0.000159598 0.000161692 -6.95328e-05
-0.000801343 0.000239119 0.000240953 -6.17955e-05
-0.00079286 0.000236601 0.000238397 -6.17949e-05
-0.00026384 7.76343e-05 7.98027e-05 -7.41801e-05
-0.000266695 7.84577e-05 8.06729e-05 -7.41812e-05
-0.000797102 0.00023786 0.000239675 -6.17952e-05
-0.000528375 0.000157093 0.000159121 -6.95316e-05
-0.000265267 7.8046e-05 8.02378e-05 -7.41806e-05
-0.000534044 0.000158763 0.000160835 -6.95324e-05
-0.00053121 0.000157928 0.000159978 -6.9532e-05
-0.00079286 0.000236601 0.000238397 -6.17949e-05
-0.000784378 0.000234083 0.00023584 -6.17943e-05
-0.000260987 7.68106e-05 7.89327e-05 -7.41791e-05
-0.00026384 7.76343e-05 7.98027e-05 -7.41801e-05
-0.000788619 0.000235342 0.000237118 -6.17946e-05
-0.000522706 0.000155423 0.000157407 -6.95307e-05
-0.000262414 7.72225e-05 7.93676e-05 -7.41796e-05
-0.000528375 0.000157093 0.000159121 -6.95316e-05
-0.000525541 0.000156258 0.000158264 -6.95312e-05
-0.000784378 0.000234083 0.00023584 -6.17943e-05
-0.000775895 0.000231565 0.000233284 -6.17937e-05
-0.000258134 7.59868e-05 7.8063e-05 -7.41781e-05
-0.000260987 7.68106e-05 7.89327e-05 -7.41791e-05
-0.000780136 0.000232824 0.000234562 -6.1794e-05
-0.000517038 0.000153753 0.000155694 -6.95299e-05
-0.00025956 7.63987e-05 7.84978e-05 -7.41786e-05
-0.000522706 0.000155423 0.000157407 -6.95307e-05
-0.000519872 0.000154588 0.00015655 -6.95303e-05
-0.000775895 0.000231565 0.000233284 -6.17937e-05
-0.000767414 0.000229047 0.000230729 -6.1793e-05
-0.000255281 7.51627e-05 7.71935e-05 -7.4177e-05
-0.000258134 7.59868e-05 7.8063e-05 -7.41781e-05
-0.000771655 0.000230306 0.000232006 -6.17934e-05
-0.000511371 0.000152082 0.000153981 -6.95291e-05
-0.000256707 7.55748e-05 7.76282e-05 -7.41776e-05
-0.000517038 0.000153753 0.000155694 -6.95299e-05
-0.000514204 0.000152918 0.000154837 -6.95295e-05
-0.000767414 0.000229047 0.000230729 -6.1793e-05
-0.000758933 0.000226529 0.000228173 -6.17924e-05
-0.000252429 7.43384e-05 7.63244e-05 -7.4176e-05
-0.000255281 7.51627e-05 7.71935e-05 -7.4177e-05
-0.000763173 0.000227788 0.000229451 -6.17927e-05
-0.000505703 0.000150411 0.000152268 -6.95283e-05
-0.000253855 7.47506e-05 7.67589e-05 -7.41765e-05
-0.000511371 0.000152082 0.000153981 -6.95291e-05
-0.000508537 0.000151247 0.000153124 -6.95287e-05
-0.000758933 0.000226529 0.000228173 -6.17924e-05
-0.000750452 0.000224011 0.000225618 -6.17918e-05
-0.000249577 7.35139e-05 7.54555e-05 -7.4175e-05
-0.000252429 7.43384e-05 7.63244e-05 -7.4176e-05
-0.000754692 0.00022527 0.000226895 -6.17921e-05
-0.000500037 0.000148741 0.000150556 -6.95274e-05
-0.000251003 7.39262e-05 7.58899e-05 -7.41755e-05
-0.000505703 0.000150411 0.000152268 -6.95283e-05
-0.00050287 0.000149576 0.000151412 -6.95279e-05
-0.000750452 0.000224011 0.000225618 -6.17918e-05
-0.000741972 0.000221492 0.000223063 -6.17912e-05
-0.000246725 7.26892e-05 7.4587e-05 -7.4174e-05
-0.000249577 7.35139e-05 7.54555e-05 -7.4175e-05
-0.000746212 0.000222752 0.00022434 -6.17915e-05
-0.00049437 0.000147069 0.000148843 -6.95266e-05
-0.000248151 7.31015e-05 7.50212e-05 -7.41745e-05
-0.000500037 0.000148741 0.000150556 -6.95274e-05
-0.000497204 0.000147905 0.000149699 -6.9527e-05
-0.000741972 0.000221492 0.000223063 -6.17912e-05
-0.000733492 0.000218974 0.000220508 -6.17906e-05
-0.000243874 7.18642e-05 7.37187e-05 -7.4173e-05
-0.000246725 7.26892e-05 7.4587e-05 -7.4174e-05
-0.000737732 0.000220233 0.000221785 -6.17909e-05
-0.000488705 0.000145398 0.000147131 -6.95258e-05
-0.0002453 7.22767e-05 7.41528e-05 -7.41735e-05
-0.00049437 0.000147069 0.000148843 -6.95266e-05
-0.000491538 0.000146234 0.000147987 -6.95262e-05
-0.000733492 0.000218974 0.000220508 -6.17906e-05
-0.000725013 0.000216455 0.000217954 -6.179e-05
-0.000241024 7.1039e-05 7.28506e-05 -7.4172e-05
-0.000243874 7.18642e-05 7.37187e-05 -7.4173e-05
-0.000729253 0.000217714 0.000219231 -6.17903e-05
-0.000483039 0.000143727 0.00014542 -6.9525e-05
-0.000242449 7.14517e-05 7.32846e-05 -7.41725e-05
-0.000488705 0.000145398 0.000147131 -6.95258e-05
-0.000485872 0.000144562 0.000146276 -6.95254e-05
-0.000725013 0.000216455 0.000217954 -6.179e-05
-0.000716535 0.000213936 0.0002154 -6.17894e-05
-0.000238174 7.02137e-05 7.19829e-05 -7.4171e-05
-0.000241024 7.1039e-05 7.28506e-05 -7.4172e-05
-0.000720774 0.000215195 0.000216677 -6.17897e-05
-0.000477375 0.000142055 0.000143708 -6.95242e-05
-0.000239599 7.06264e-05 7.24167e-05 -7.41715e-05
-0.000483039 0.000143727 0.00014542 -6.9525e-05
-0.000480207 0.000142891 0.000144564 -6.95246e-05
-0.000716535 0.000213936 0.0002154 -6.17894e-05
-0.000708056 0.000211417 0.000212846 -6.17889e-05
-0.000235324 6.93881e-05 7.11154e-05 -7.41701e-05
-0.000238174 7.02137e-05 7.19829e-05 -7.4171e-05
-0.000712296 0.000212676 0.000214123 -6.17892e-05
-0.00047171 0.000140383 0.000141997 -6.95235e-05
-0.000236749 6.98009e-05 7.15491e-05 -7.41706e-05
-0.000477375 0.000142055 0.000143708 -6.95242e-05
-0.000474542 0.000141219 0.000142853 -6.95239e-05
-0.000708056 0.000211417 0.000212846 -6.17889e-05
-0.000699579 0.000208897 0.000210292 -6.17883e-05
-0.000232475 6.85623e-05 7.02483e-05 -7.41691e-05
-0.000235324 6.93881e-05 7.11154e-05 -7.41701e-05
-0.000703818 0.000210157 0.000211569 -6.17886e-05
-0.000466046 0.000138711 0.000140287 -6.95227e-05
-0.000233899 6.89752e-05 7.06818e-05 -7.41696e-05
-0.00047171 0.000140383 0.000141997 -6.95235e-05
-0.000468878 0.000139547 0.000141142 -6.95231e-05
-0.000699579 0.000208897 0.000210292 -6.17883e-05
-0.000691102 0.000206378 0.000207739 -6.17877e-05
-0.000229626 6.77363e-05 6.93814e-05 -7.41681e-05
-0.000232475 6.85623e-05 7.02483e-05 -7.41691e-05
-0.00069534 0.000207638 0.000209015 -6.1788e-05
-0.000460383 0.000137039 0.000138576 -6.95219e-05
-0.00023105 6.81493e-05 6.98148e-05 -7.41686e-05
-0.000466046 0.000138711 0.000140287 -6.95227e-05
-0.000463214 0.000137875 0.000139431 -6.95223e-05
-0.000691102 0.000206378 0.000207739 -6.17877e-05
-0.000682625 0.000203859 0.000205186 -6.17872e-05
-0.000226778 6.691e-05 6.85147e-05 -7.41672e-05
-0.000229626 6.77363e-05 6.93814e-05 -7.41681e-05
-0.000686863 0.000205118 0.000206462 -6.17874e-05
-0.00045472 0.000135366 0.000136866 -6.95211e-05
-0.000228202 6.73232e-05 6.8948e-05 -7.41677e-05
-0.000460383 0.000137039 0.000138576 -6.95219e-05
-0.000457551 0.000136202 0.000137721 -6.95215e-05
-0.000682625 0.000203859 0.000205186 -6.17872e-05
-0.000674149 0.000201339 0.000202633 -6.17866e-05
-0.00022393 6.60836e-05 6.76484e-05 -7.41662e-05
-0.000226778 6.691e-05 6.85147e-05 -7.41672e-05
-0.000678387 0.000202599 0.000203909 -6.17869e-05
-0.000449057 0.000133694 0.000135156 -6.95204e-05
-0.000225354 6.64968e-05 6.80815e-05 -7.41667e-05
-0.00045472 0.000135366 0.000136866 -6.95211e-05
-0.000451888 0.00013453 0.000136011 -6.95208e-05
-0.000674149 0.000201339 0.000202633 -6.17866e-05
-0.000665673 0.000198819 0.00020008 -6.17861e-05
-0.000221082 6.52569e-05 6.67824e-05 -7.41653e-05
-0.00022393 6.60836e-05 6.76484e-05 -7.41662e-05
-0.000669911 0.000200079 0.000201356 -6.17863e-05
-0.000443395 0.000132021 0.000133446 -6.95196e-05
-0.000222506 6.56703e-05 6.72153e-05 -7.41658e-05
-0.000449057 0.000133694 0.000135156 -6.95204e-05
-0.000446226 0.000132857 0.000134301 -6.952e-05
-0.000665673 0.000198819 0.00020008 -6.17861e-05
-0.000657197 0.000196299 0.000197528 -6.17855e-05
-0.000218235 6.443e-05 6.59166e-05 -7.41644e-05
-0.000221082 6.52569e-05 6.67824e-05 -7.41653e-05
-0.000661435 0.000197559 0.000198804 -6.17858e-05
-0.000437734 0.000130348 0.000131737 -6.95189e-05
-0.000219659 6.48435e-05 6.63494e-05 -7.41648e-05
-0.000443395 0.000132021 0.000133446 -6.95196e-05
-0.000440564 0.000131184 0.000132591 -6.95193e-05
-0.000657197 0.000196299 0.000197528 -6.17855e-05
-0.000648723 0.000193779 0.000194976 -6.1785e-05
-0.000215389 6.36029e-05 6.50511e-05 -7.41635e-05
-0.000218235 6.443e-05 6.59166e-05 -7.41644e-05
-0.00065296 0.000195039 0.000196252 -6.17852e-05
-0.000432072 0.000128675 0.000130028 -6.95182e-05
-0.000216812 6.40165e-05 6.54838e-05 -7.41639e-05
-0.000437734 0.000130348 0.000131737 -6.95189e-05
-0.000434903 0.000129511 0.000130882 -6.95185e-05
-0.000648723 0.000193779 0.000194976 -6.1785e-05
-0.000640248 0.000191259 0.000192424 -6.17845e-05
-0.000212543 6.27756e-05 6.41859e-05 -7.41625e-05
-0.000215389 6.36029e-05 6.50511e-05 -7.41635e-05
-0.000644485 0.000192519 0.0001937 -6.17847e-05
-0.000426412 0.000127001 0.000128319 -6.95175e-05
-0.000213966 6.31893e-05 6.46184e-05 -7.4163e-05
-0.000432072 0.000128675 0.000130028 -6.95182e-05
-0.000429242 0.000127838 0.000129173 -6.95178e-05
-0.000640248 0.000191259 0.000192424 -6.17845e-05
-0.000631774 0.000188738 0.000189873 -6.17839e-05
-0.000209697 6.19481e-05 6.33209e-05 -7.41616e-05
-0.000212543 6.27756e-05 6.41859e-05 -7.41625e-05
-0.000636011 0.000189998 0.000191148 -6.17842e-05
-0.000420751 0.000125328 0.00012661 -6.95167e-05
-0.00021112 6.23619e-05 6.37534e-05 -7.41621e-05
-0.000426412 0.000127001 0.000128319 -6.95175e-05
-0.000423582 0.000126165 0.000127464 -6.95171e-05
-0.000631774 0.000188738 0.000189873 -6.17839e-05
-0.000623301 0.000186218 0.000187321 -6.17834e-05
-0.000206852 6.11203e-05 6.24563e-05 -7.41607e-05
-0.000209697 6.19481e-05 6.33209e-05 -7.41616e-05
-0.000627538 0.000187478 0.000188597 -6.17837e-05
-0.000415092 0.000123654 0.000124902 -6.9516e-05
-0.000208274 6.15342e-05 6.28886e-05 -7.41612e-05
-0.000420751 0.000125328 0.00012661 -6.95167e-05
-0.000417922 0.000124491 0.000125756 -6.95164e-05
-0.000623301 0.000186218 0.000187321 -6.17834e-05
-0.000614828 0.000183697 0.00018477 -6.17829e-05
-0.000204007 6.02924e-05 6.15919e-05 -7.41599e-05
-0.000206852 6.11203e-05 6.24563e-05 -7.41607e-05
-0.000619064 0.000184957 0.000186046 -6.17832e-05
-0.000409432 0.00012198 0.000123194 -6.95153e-05
-0.000205429 6.07064e-05 6.2024e-05 -7.41603e-05
-0.000415092 0.000123654 0.000124902 -6.9516e-05
-0.000412262 0.000122817 0.000124048 -6.95157e-05
-0.000614828 0.000183697 0.00018477 -6.17829e-05
-0.000606355 0.000181176 0.00018222 -6.17824e-05
-0.000201162 5.94642e-05 6.07278e-05 -7.4159e-05
-0.000204007 6.02924e-05 6.15919e-05 -7.41599e-05
-0.000610592 0.000182437 0.000183495 -6.17827e-05
-0.000403774 0.000120306 0.000121486 -6.95146e-05
-0.000202585 5.98783e-05 6.11598e-05 -7.41594e-05
-0.000409432 0.00012198 0.000123194 -6.95153e-05
-0.000406603 0.000121143 0.00012234 -6.9515e-05
-0.000606355 0.000181176 0.00018222 -6.17824e-05
-0.000597883 0.000178655 0.000179669 -6.17819e-05
-0.000198318 5.86358e-05 5.9864e-05 -7.41581e-05
-0.000201162 5.94642e-05 6.07278e-05 -7.4159e-05
-0.000602119 0.000179916 0.000180944 -6.17822e-05
-0.000398115 0.000118632 0.000119779 -6.9514e-05
-0.00019974 5.905e-05 6.02959e-05 -7.41586e-05
-0.000403774 0.000120306 0.000121486 -6.95146e-05
-0.000400944 0.000119469 0.000120632 -6.95143e-05
-0.000597883 0.000178655 0.000179669 -6.17819e-05
-0.000589412 0.000176134 0.000177119 -6.17815e-05
-0.000195475 5.78072e-05 5.90004e-05 -7.41573e-05
-0.000198318 5.86358e-05 5.9864e-05 -7.41581e-05
-0.000593648 0.000177395 0.000178394 -6.17817e-05
-0.000392457 0.000116957 0.000118071 -6.95133e-05
-0.000196897 5.82215e-05 5.94322e-05 -7.41577e-05
-0.000398115 0.000118632 0.000119779 -6.9514e-05
-0.000395286 0.000117794 0.000118925 -6.95136e-05
-0.000589412 0.000176134 0.000177119 -6.17815e-05
-0.000580941 0.000173613 0.000174569 -6.1781e-05
-0.000192632 5.69783e-05 5.81372e-05 -7.41564e-05
-0.000195475 5.78072e-05 5.90004e-05 -7.41573e-05
-0.000585176 0.000174873 0.000175844 -6.17812e-05
-0.0003868 0.000115282 0.000116365 -6.95126e-05
-0.000194053 5.73928e-05 5.85688e-05 -7.41568e-05
-0.000392457 0.000116957 0.000118071 -6.95133e-05
-0.000389628 0.00011612 0.000117218 -6.9513e-05
-0.000580941 0.000173613 0.000174569 -6.1781e-05
-0.00057247 0.000171091 0.00017202 -6.17805e-05
-0.000189789 5.61493e-05 5.72742e-05 -7.41556e-05
-0.000192632 5.69783e-05 5.81372e-05 -7.41564e-05
-0.000576705 0.000172352 0.000173294 -6.17808e-05
-0.000381143 0.000113608 0.000114658 -6.9512e-05
-0.00019121 5.65639e-05 5.77057e-05 -7.4156e-05
-0.0003868 0.000115282 0.000116365 -6.95126e-05
-0.000383971 0.000114445 0.000115511 -6.95123e-05
-0.00057247 0.000171091 0.00017202 -6.17805e-05
-0.000564 0.00016857 0.00016947 -6.17801e-05
-0.000186947 5.532e-05 5.64115e-05 -7.41548e-05
-0.000189789 5.61493e-05 5.72742e-05 -7.41556e-05
-0.000568235 0.00016983 0.000170745 -6.17803e-05
-0.000375486 0.000111932 0.000112952 -6.95113e-05
-0.000188368 5.57347e-05 5.68428e-05 -7.41552e-05
-0.000381143 0.000113608 0.000114658 -6.9512e-05
-0.000378314 0.00011277 0.000113805 -6.95117e-05
-0.000564 0.00016857 0.00016947 -6.17801e-05
-0.00055553 0.000166048 0.000166921 -6.17796e-05
-0.000184105 5.44906e-05 5.55491e-05 -7.4154e-05
-0.000186947 5.532e-05 5.64115e-05 -7.41548e-05
-0.000559765 0.000167309 0.000168196 -6.17798e-05
-0.00036983 0.000110257 0.000111245 -6.95107e-05
-0.000185526 5.49053e-05 5.59803e-05 -7.41544e-05
-0.000375486 0.000111932 0.000112952 -6.95113e-05
-0.000372658 0.000111095 0.000112098 -6.9511e-05
-0.00055553 0.000166048 0.000166921 -6.17796e-05
-0.000547061 0.000163526 0.000164372 -6.17792e-05
-0.000181264 5.36609e-05 5.46869e-05 -7.41532e-05
-0.000184105 5.44906e-05 5.55491e-05 -7.4154e-05
-0.000551296 0.000164787 0.000165647 -6.17794e-05
-0.000364174 0.000108582 0.00010954 -6.95101e-05
-0.000182684 5.40757e-05 5.5118e-05 -7.41535e-05
-0.00036983 0.000110257 0.000111245 -6.95107e-05
-0.000367002 0.00010942 0.000110393 -6.95104e-05
-0.000547061 0.000163526 0.000164372 -6.17792e-05
-0.000538592 0.000161004 0.000161824 -6.17788e-05
-0.000178423 5.28309e-05 5.38251e-05 -7.41524e-05
-0.000181264 5.36609e-05 5.46869e-05 -7.41532e-05
-0.000542827 0.000162265 0.000163098 -6.1779e-05
-0.000358519 0.000106906 0.000107834 -6.95095e-05
-0.000179843 5.32459e-05 5.4256e-05 -7.41528e-05
-0.000364174 0.000108582 0.00010954 -6.95101e-05
-0.000361347 0.000107744 0.000108687 -6.95098e-05
-0.000538592 0.000161004 0.000161824 -6.17788e-05
-0.000530124 0.000158482 0.000159275 -6.17783e-05
-0.000175582 5.20008e-05 5.29635e-05 -7.41516e-05
-0.000178423 5.28309e-05 5.38251e-05 -7.41524e-05
-0.000534358 0.000159743 0.000160549 -6.17785e-05
-0.000352864 0.00010523 0.000106129 -6.95089e-05
-0.000177002 5.24159e-05 5.33942e-05 -7.4152e-05
-0.000358519 0.000106906 0.000107834 -6.95095e-05
-0.000355692 0.000106068 0.000106981 -6.95092e-05
-0.000530124 0.000158482 0.000159275 -6.17783e-05
-0.000521656 0.000155959 0.000156727 -6.17779e-05
-0.000172742 5.11705e-05 5.21022e-05 -7.41508e-05
-0.000175582 5.20008e-05 5.29635e-05 -7.41516e-05
-0.00052589 0.000157221 0.000158001 -6.17781e-05
-0.00034721 0.000103554 0.000104424 -6.95083e-05
-0.000174162 5.15857e-05 5.25328e-05 -7.41512e-05
-0.000352864 0.00010523 0.000106129 -6.95089e-05
-0.000350037 0.000104392 0.000105276 -6.95086e-05
-0.000521656 0.000155959 0.000156727 -6.17779e-05
-0.000513189 0.000153437 0.000154179 -6.17775e-05
-0.000169903 5.03399e-05 5.12411e-05 -7.41501e-05
-0.000172742 5.11705e-05 5.21022e-05 -7.41508e-05
-0.000517422 0.000154698 0.000155453 -6.17777e-05
-0.000341556 0.000101878 0.000102719 -6.95077e-05
-0.000171322 5.07552e-05 5.16716e-05 -7.41504e-05
-0.00034721 0.000103554 0.000104424 -6.95083e-05
-0.000344383 0.000102716 0.000103571 -6.9508e-05
-0.000513189 0.000153437 0.000154179 -6.17775e-05
-0.000504722 0.000150914 0.000151632 -6.17771e-05
-0.000167063 4.95091e-05 5.03804e-05 -7.41493e-05
-0.000169903 5.03399e-05 5.12411e-05 -7.41501e-05
-0.000508955 0.000152175 0.000152906 -6.17773e-05
-0.000335903 0.000100202 0.000101015 -6.95071e-05
-0.000168483 4.99245e-05 5.08107e-05 -7.41497e-05
-0.000341556 0.000101878 0.000102719 -6.95077e-05
-0.000338729 0.00010104 0.000101867 -6.95074e-05
-0.000504722 0.000150914 0.000151632 -6.17771e-05
-0.000496255 0.000148391 0.000149085 -6.17768e-05
-0.000164225 4.86781e-05 4.95199e-05 -7.41486e-05
-0.000167063 4.95091e-05 5.03804e-05 -7.41493e-05
-0.000500488 0.000149653 0.000150358 -6.1777e-05
-0.00033025 9.85251e-05 9.93106e-05 -6.95066e-05
-0.000165644 4.90936e-05 4.99501e-05 -7.41489e-05
-0.000335903 0.000100202 0.000101015 -6.95071e-05
-0.000333076 9.93635e-05 0.000100163 -6.95069e-05
-0.000496255 0.000148391 0.000149085 -6.17768e-05
-0.000487789 0.000145868 0.000146538 -6.17764e-05
-0.000161386 4.78469e-05 4.86597e-05 -7.41478e-05
-0.000164225 4.86781e-05 4.95199e-05 -7.41486e-05
-0.000492022 0.00014713 0.000147811 -6.17766e-05
-0.000324597 9.68484e-05 9.76067e-05 -6.9506e-05
-0.000162805 4.82625e-05 4.90898e-05 -7.41482e-05
-0.00033025 9.85251e-05 9.93106e-05 -6.95066e-05
-0.000327423 9.76868e-05 9.84586e-05 -6.95063e-05
-0.000487789 0.000145868 0.000146538 -6.17764e-05
-0.000479324 0.000143345 0.000143991 -6.1776e-05
-0.000158548 4.70154e-05 4.77998e-05 -7.41471e-05
-0.000161386 4.78469e-05 4.86597e-05 -7.41478e-05
-0.000483556 0.000144607 0.000145264 -6.17762e-05
-0.000318945 9.51714e-05 9.59031e-05 -6.95055e-05
-0.000159967 4.74312e-05 4.82297e-05 -7.41475e-05
-0.000324597 9.68484e-05 9.76067e-05 -6.9506e-05
-0.000321771 9.60099e-05 9.67548e-05 -6.95058e-05
-0.000479324 0.000143345 0.000143991 -6.1776e-05
-0.000470858 0.000140822 0.000141444 -6.17757e-05
-0.000155711 4.61838e-05 4.69402e-05 -7.41464e-05
-0.000158548 4.70154e-05 4.77998e-05 -7.41471e-05
-0.000475091 0.000142084 0.000142717 -6.17759e-05
-0.000313294 9.34942e-05 9.41997e-05 -6.9505e-05
-0.00015713 4.65996e-05 4.73699e-05 -7.41468e-05
-0.000318945 9.51714e-05 9.59031e-05 -6.95055e-05
-0.000316119 9.43328e-05 9.50513e-05 -6.95052e-05
-0.000470858 0.000140822 0.000141444 -6.17757e-05
-0.000462394 0.000138298 0.000138898 -6.17753e-05
-0.000152874 4.53519e-05 4.60808e-05 -7.41458e-05
-0.000155711 4.61838e-05 4.69402e-05 -7.41464e-05
-0.000466626 0.00013956 0.000140171 -6.17755e-05
-0.000307642 9.18169e-05 9.24966e-05 -6.95045e-05
-0.000154292 4.57679e-05 4.65104e-05 -7.41461e-05
-0.000313294 9.34942e-05 9.41997e-05 -6.9505e-05
-0.000310468 9.26556e-05 9.33481e-05 -6.95047e-05
-0.000462394 0.000138298 0.000138898 -6.17753e-05
-0.000453929 0.000135775 0.000136352 -6.1775e-05
-0.000150037 4.45198e-05 4.52217e-05 -7.41451e-05
-0.000152874 4.53519e-05 4.60808e-05 -7.41458e-05
-0.000458162 0.000137037 0.000137625 -6.17752e-05
-0.000301992 9.01393e-05 9.07938e-05 -6.9504e-05
-0.000151455 4.49359e-05 4.56512e-05 -7.41454e-05
-0.000307642 9.18169e-05 9.24966e-05 -6.95045e-05
-0.000304817 9.09781e-05 9.16452e-05 -6.95042e-05
-0.000453929 0.000135775 0.000136352 -6.1775e-05
-0.000445466 0.000133251 0.000133806 -6.17747e-05
-0.000147201 4.36875e-05 4.43629e-05 -7.41444e-05
-0.000150037 4.45198e-05 4.52217e-05 -7.41451e-05
-0.000449698 0.000134513 0.000135079 -6.17749e-05
-0.000296341 8.84616e-05 8.90913e-05 -6.95035e-05
-0.000148619 4.41037e-05 4.47923e-05 -7.41447e-05
-0.000301992 9.01393e-05 9.07938e-05 -6.9504e-05
-0.000299166 8.93005e-05 8.99425e-05 -6.95037e-05
-0.000445466 0.000133251 0.000133806 -6.17747e-05
-0.000437002 0.000130727 0.000131261 -6.17744e-05
-0.000144365 4.28549e-05 4.35044e-05 -7.41438e-05
-0.000147201 4.36875e-05 4.43629e-05 -7.41444e-05
-0.000441234 0.000131989 0.000132533 -6.17745e-05
-0.000290691 8.67837e-05 8.7389e-05 -6.9503e-05
-0.000145783 4.32712e-05 4.39336e-05 -7.41441e-05
-0.000296341 8.84616e-05 8.90913e-05 -6.95035e-05
-0.000293516 8.76227e-05 8.82401e-05 -6.95032e-05
-0.000437002 0.000130727 0.000131261 -6.17744e-05
-0.000428539 0.000128203 0.000128716 -6.17741e-05
-0.00014153 4.20222e-05 4.26461e-05 -7.41431e-05
-0.000144365 4.28549e-05 4.35044e-05 -7.41438e-05
-0.000432771 0.000129465 0.000129988 -6.17742e-05
-0.000285042 8.51056e-05 8.56871e-05 -6.95025e-05
-0.000142947 4.24386e-05 4.30752e-05 -7.41434e-05
-0.000290691 8.67837e-05 8.7389e-05 -6.9503e-05
-0.000287867 8.59446e-05 8.6538e-05 -6.95028e-05
-0.000428539 0.000128203 0.000128716 -6.17741e-05
-0.000420077 0.000125679 0.000126171 -6.17738e-05
-0.000138695 4.11892e-05 4.17881e-05 -7.41425e-05
-0.00014153 4.20222e-05 4.26461e-05 -7.41431e-05
-0.000424308 0.000126941 0.000127443 -6.17739e-05
-0.000279393 8.34272e-05 8.39853e-05 -6.95021e-05
-0.000140112 4.16057e-05 4.22171e-05 -7.41428e-05
-0.000285042 8.51056e-05 8.56871e-05 -6.95025e-05
-0.000282217 8.42664e-05 8.48362e-05 -6.95023e-05
-0.000420077 0.000125679 0.000126171 -6.17738e-05
-0.000411615 0.000123155 0.000123626 -6.17735e-05
-0.00013586 4.0356e-05 4.09304e-05 -7.41419e-05
-0.000138695 4.11892e-05 4.17881e-05 -7.41425e-05
-0.000415846 0.000124417 0.000124898 -6.17737e-05
-0.000273744 8.17487e-05 8.22839e-05 -6.95016e-05
-0.000137278 4.07726e-05 4.13592e-05 -7.41422e-05
-0.000279393 8.34272e-05 8.39853e-05 -6.95021e-05
-0.000276569 8.2588e-05 8.31346e-05 -6.95018e-05
-0.000411615 0.000123155 0.000123626 -6.17735e-05
-0.000403153 0.00012063 0.000121081 -6.17733e-05
-0.000133026 3.95226e-05 4.0073e-05 -7.41413e-05
-0.00013586 4.0356e-05 4.09304e-05 -7.41419e-05
-0.000407384 0.000121892 0.000122354 -6.17734e-05
-0.000268096 8.007e-05 8.05827e-05 -6.95012e-05
-0.000134443 3.99393e-05 4.05017e-05 -7.41416e-05
-0.000273744 8.17487e-05 8.22839e-05 -6.95016e-05
-0.00027092 8.09094e-05 8.14333e-05 -6.95014e-05
-0.000403153 0.00012063 0.000121081 -6.17733e-05
-0.000394692 0.000118105 0.000118537 -6.1773e-05
-0.000130193 3.8689e-05 3.92159e-05 -7.41407e-05
-0.000133026 3.95226e-05 4.0073e-05 -7.41413e-05
-0.000398923 0.000119368 0.000119809 -6.17731e-05
-0.000262449 7.83911e-05 7.88818e-05 -6.95008e-05
-0.000131609 3.91058e-05 3.96444e-05 -7.4141e-05
-0.000268096 8.007e-05 8.05827e-05 -6.95012e-05
-0.000265272 7.92306e-05 7.97322e-05 -6.9501e-05
-0.000394692 0.000118105 0.000118537 -6.1773e-05
-0.000386231 0.00011558 0.000115993 -6.17728e-05
-0.000127359 3.78551e-05 3.8359e-05 -7.41401e-05
-0.000130193 3.8689e-05 3.92159e-05 -7.41407e-05
-0.000390462 0.000116843 0.000117265 -6.17729e-05
-0.000256801 7.6712e-05 7.71812e-05 -6.95004e-05
-0.000128776 3.82721e-05 3.87874e-05 -7.41404e-05
-0.000262449 7.83911e-05 7.88818e-05 -6.95008e-05
-0.000259625 7.75516e-05 7.80315e-05 -6.95006e-05
-0.000386231 0.00011558 0.000115993 -6.17728e-05
-0.000377771 0.000113055 0.00011345 -6.17725e-05
-0.000124527 3.7021e-05 3.75024e-05 -7.41396e-05
-0.000127359 3.78551e-05 3.8359e-05 -7.41401e-05
-0.000382001 0.000114318 0.000114721 -6.17727e-05
-0.000251155 7.50327e-05 7.54808e-05 -6.95e-05
-0.000125943 3.74381e-05 3.79306e-05 -7.41399e-05
-0.000256801 7.6712e-05 7.71812e-05 -6.95004e-05
-0.000253978 7.58724e-05 7.6331e-05 -6.95002e-05
-0.000377771 0.000113055 0.00011345 -6.17725e-05
-0.000369311 0.00011053 0.000110906 -6.17723e-05
-0.000121694 3.61868e-05 3.66461e-05 -7.4139e-05
-0.000124527 3.7021e-05 3.75024e-05 -7.41396e-05
-0.000373541 0.000111793 0.000112178 -6.17724e-05
-0.000245508 7.33532e-05 7.37807e-05 -6.94996e-05
-0.00012311 3.66039e-05 3.70742e-05 -7.41393e-05
-0.000251155 7.50327e-05 7.54808e-05 -6.95e-05
-0.000248331 7.4193e-05 7.46307e-05 -6.94998e-05
-0.000369311 0.00011053 0.000110906 -6.17723e-05
-0.000360852 0.000108005 0.000108363 -6.17721e-05
-0.000118862 3.53522e-05 3.579e-05 -7.41385e-05
-0.000121694 3.61868e-05 3.66461e-05 -7.4139e-05
-0.000365081 0.000109268 0.000109634 -6.17722e-05
-0.000239862 7.16736e-05 7.20809e-05 -6.94992e-05
-0.000120278 3.57695e-05 3.6218e-05 -7.41388e-05
-0.000245508 7.33532e-05 7.37807e-05 -6.94996e-05
-0.000242685 7.25134e-05 7.29308e-05 -6.94994e-05
-0.000360852 0.000108005 0.000108363 -6.17721e-05
-0.000352393 0.000105479 0.00010582 -6.17719e-05
-0.000116031 3.45175e-05 3.49342e-05 -7.4138e-05
-0.000118862 3.53522e-05 3.579e-05 -7.41385e-05
-0.000356622 0.000106742 0.000107091 -6.1772e-05
-0.000234217 6.99937e-05 7.03813e-05 -6.94989e-05
-0.000117446 3.49349e-05 3.53621e-05 -7.41383e-05
-0.000239862 7.16736e-05 7.20809e-05 -6.94992e-05
-0.00023704 7.08336e-05 7.12311e-05 -6.94991e-05
-0.000352393 0.000105479 0.00010582 -6.17719e-05
-0.000343934 0.000102954 0.000103277 -6.17717e-05
-0.0001132 3.36825e-05 3.40787e-05 -7.41375e-05
-0.000116031 3.45175e-05 3.49342e-05 -7.4138e-05
-0.000348163 0.000104217 0.000104549 -6.17718e-05
-0.000228572 6.83136e-05 6.86821e-05 -6.94986e-05
-0.000114615 3.41001e-05 3.45065e-05 -7.41378e-05
-0.000234217 6.99937e-05 7.03813e-05 -6.94989e-05
-0.000231394 6.91537e-05 6.95317e-05 -6.94987e-05
-0.000343934 0.000102954 0.000103277 -6.17717e-05
-0.000335476 0.000100428 0.000100735 -6.17716e-05
-0.000110369 3.28474e-05 3.32235e-05 -7.4137e-05
-0.0001132 3.36825e-05 3.40787e-05 -7.41375e-05
-0.000339705 0.000101691 0.000102006 -6.17716e-05
-0.000222927 6.66333e-05 6.6983e-05 -6.94982e-05
-0.000111784 3.3265e-05 3.36511e-05 -7.41373e-05
-0.000228572 6.83136e-05 6.86821e-05 -6.94986e-05
-0.000225749 6.74735e-05 6.78325e-05 -6.94984e-05
-0.000335476 0.000100428 0.000100735 -6.17716e-05
-0.000327018 9.7902e-05 9.81926e-05 -6.17714e-05
-0.000107539 3.2012e-05 3.23686e-05 -7.41365e-05
-0.000110369 3.28474e-05 3.32235e-05 -7.4137e-05
-0.000331247 9.9165e-05 9.94637e-05 -6.17715e-05
-0.000217283 6.49529e-05 6.52843e-05 -6.94979e-05
-0.000108954 3.24297e-05 3.2796e-05 -7.41368e-05
-0.000222927 6.66333e-05 6.6983e-05 -6.94982e-05
-0.000220105 6.57931e-05 6.61336e-05 -6.94981e-05
-0.000327018 9.7902e-05 9.81926e-05 -6.17714e-05
-0.000318561 9.53759e-05 9.56507e-05 -6.17712e-05
-0.000104709 3.11764e-05 3.15139e-05 -7.41361e-05
-0.000107539 3.2012e-05 3.23686e-05 -7.41365e-05
-0.000322789 9.6639e-05 9.69216e-05 -6.17713e-05
-0.000211639 6.32722e-05 6.35858e-05 -6.94976e-05
-0.000106124 3.15942e-05 3.19412e-05 -7.41363e-05
-0.000217283 6.49529e-05 6.52843e-05 -6.94979e-05
-0.000214461 6.41126e-05 6.4435e-05 -6.94978e-05
-0.000318561 9.53759e-05 9.56507e-05 -6.17712e-05
-0.000310104 9.28496e-05 9.3109e-05 -6.17711e-05
-0.000101879 3.03405e-05 3.06595e-05 -7.41356e-05
-0.000104709 3.11764e-05 3.15139e-05 -7.41361e-05
-0.000314332 9.41127e-05 9.43798e-05 -6.17712e-05
-0.000205996 6.15913e-05 6.18876e-05 -6.94973e-05
-0.000103294 3.07585e-05 3.10867e-05 -7.41359e-05
-0.000211639 6.32722e-05 6.35858e-05 -6.94976e-05
-0.000208817 6.24318e-05 6.27367e-05 -6.94975e-05
-0.000310104 9.28496e-05 9.3109e-05 -6.17711e-05
-0.000301647 9.03231e-05 9.05676e-05 -6.1771e-05
-9.90503e-05 2.95045e-05 2.98054e-05 -7.41352e-05
-0.000101879 3.03405e-05 3.06595e-05 -7.41356e-05
-0.000305876 9.15864e-05 9.18383e-05 -6.1771e-05
-0.000200353 5.99103e-05 6.01896e-05 -6.94971e-05
-0.000100465 2.99225e-05 3.02324e-05 -7.41354e-05
-0.000205996 6.15913e-05 6.18876e-05 -6.94973e-05
-0.000203174 6.07508e-05 6.10386e-05 -6.94972e-05
-0.000301647 9.03231e-05 9.05676e-05 -6.1771e-05
-0.000293191 8.77965e-05 8.80264e-05 -6.17709e-05
-9.62217e-05 2.86682e-05 2.89515e-05 -7.41348e-05
-9.90503e-05 2.95045e-05 2.98054e-05 -7.41352e-05
-0.000297419 8.90598e-05 8.9297e-05 -6.17709e-05
-0.00019471 5.8229e-05 5.84919e-05 -6.94968e-05
-9.7636e-05 2.90863e-05 2.93784e-05 -7.4135e-05
-0.000200353 5.99103e-05 6.01896e-05 -6.94971e-05
-0.000197531 5.90697e-05 5.93407e-05 -6.94969e-05
-0.000293191 8.77965e-05 8.80264e-05 -6.17709e-05
-0.000284736 8.52697e-05 8.54855e-05 -6.17708e-05
-9.33936e-05 2.78317e-05 2.8098e-05 -7.41344e-05
-9.62217e-05 2.86682e-05 2.89515e-05 -7.41348e-05
-0.000288964 8.65331e-05 8.67559e-05 -6.17708e-05
-0.000189068 5.65475e-05 5.67945e-05 -6.94966e-05
-9.48076e-05 2.82499e-05 2.85247e-05 -7.41346e-05
-0.00019471 5.8229e-05 5.84919e-05 -6.94968e-05
-0.000191889 5.73883e-05 5.76432e-05 -6.94967e-05
-0.000284736 8.52697e-05 8.54855e-05 -6.17708e-05
-0.000276281 8.27427e-05 8.29448e-05 -6.17707e-05
-9.05658e-05 2.69949e-05 2.72447e-05 -7.4134e-05
-9.33936e-05 2.78317e-05 2.8098e-05 -7.41344e-05
-0.000280508 8.40062e-05 8.42151e-05 -6.17707e-05
-0.000183426 5.48659e-05 5.50974e-05 -6.94963e-05
-9.19796e-05 2.74133e-05 2.76713e-05 -7.41342e-05
-0.000189068 5.65475e-05 5.67945e-05 -6.94966e-05
-0.000186247 5.57067e-05 5.59459e-05 -6.94964e-05
-0.000276281 8.27427e-05 8.29448e-05 -6.17707e-05
-0.000267826 8.02156e-05 8.04043e-05 -6.17706e-05
-8.77384e-05 2.6158e-05 2.63916e-05 -7.41336e-05
-9.05658e-05 2.69949e-05 2.72447e-05 -7.4134e-05
-0.000272053 8.14792e-05 8.16745e-05 -6.17706e-05
-0.000177785 5.3184e-05 5.34005e-05 -6.94961e-05
-8.91521e-05 2.65765e-05 2.68181e-05 -7.41338e-05
-0.000183426 5.48659e-05 5.50974e-05 -6.94963e-05
-0.000180606 5.4025e-05 5.42489e-05 -6.94962e-05
-0.000267826 8.02156e-05 8.04043e-05 -6.17706e-05
-0.000259371 7.76883e-05 7.78641e-05 -6.17705e-05
-8.49115e-05 2.53208e-05 2.55389e-05 -7.41333e-05
-8.77384e-05 2.6158e-05 2.63916e-05 -7.41336e-05
-0.000263598 7.89519e-05 7.91342e-05 -6.17705e-05
-0.000172144 5.15019e-05 5.17039e-05 -6.94959e-05
-8.63249e-05 2.57394e-05 2.59652e-05 -7.41334e-05
-0.000177785 5.3184e-05 5.34005e-05 -6.94961e-05
-0.000174965 5.2343e-05 5.25521e-05 -6.9496e-05
-0.000259371 7.76883e-05 7.78641e-05 -6.17705e-05
-0.000250917 7.51608e-05 7.53242e-05 -6.17704e-05
-8.20849e-05 2.44833e-05 2.46864e-05 -7.41329e-05
-8.49115e-05 2.53208e-05 2.55389e-05 -7.41333e-05
-0.000255144 7.64245e-05 7.65941e-05 -6.17705e-05
-0.000166504 4.98196e-05 5.00075e-05 -6.94957e-05
-8.34982e-05 2.49021e-05 2.51126e-05 -7.41331e-05
-0.000172144 5.15019e-05 5.17039e-05 -6.94959e-05
-0.000169324 5.06608e-05 5.08557e-05 -6.94958e-05
-0.000250917 7.51608e-05 7.53242e-05 -6.17704e-05
-0.000242464 7.26331e-05 7.27845e-05 -6.17704e-05
-7.92588e-05 2.36457e-05 2.38342e-05 -7.41326e-05
-8.20849e-05 2.44833e-05 2.46864e-05 -7.41329e-05
-0.00024669 7.3897e-05 7.40543e-05 -6.17704e-05
-0.000160864 4.81371e-05 4.83114e-05 -6.94955e-05
-8.06718e-05 2.40645e-05 2.42603e-05 -7.41327e-05
-0.000166504 4.98196e-05 5.00075e-05 -6.94957e-05
-0.000163684 4.89784e-05 4.91594e-05 -6.94956e-05
-0.000242464 7.26331e-05 7.27845e-05 -6.17704e-05
-0.00023401 7.01053e-05 7.02451e-05 -6.17703e-05
-7.64331e-05 2.28078e-05 2.29823e-05 -7.41322e-05
-7.92588e-05 2.36457e-05 2.38342e-05 -7.41326e-05
-0.000238237 7.13692e-05 7.15148e-05 -6.17703e-05
-0.000155224 4.64544e-05 4.66156e-05 -6.94953e-05
-7.78459e-05 2.32267e-05 2.34082e-05 -7.41324e-05
-0.000160864 4.81371e-05 4.83114e-05 -6.94955e-05
-0.000158044 4.72958e-05 4.74635e-05 -6.94954e-05
-0.00023401 7.01053e-05 7.02451e-05 -6.17703e-05
-0.000225558 6.75772e-05 6.77059e-05 -6.17702e-05
-7.36077e-05 2.19696e-05 2.21306e-05 -7.41319e-05
-7.64331e-05 2.28078e-05 2.29823e-05 -7.41322e-05
-0.000229784 6.88413e-05 6.89754e-05 -6.17702e-05
-0.000149585 4.47715e-05 4.492e-05 -6.94951e-05
-7.50203e-05 2.23887e-05 2.25564e-05 -7.41321e-05
-0.000155224 4.64544e-05 4.66156e-05 -6.94953e-05
-0.000152404 4.5613e-05 4.57678e-05 -6.94952e-05
-0.000225558 6.75772e-05 6.77059e-05 -6.17702e-05
-0.000217105 6.5049e-05 6.51669e-05 -6.17701e-05
-7.07827e-05 2.11312e-05 2.12792e-05 -7.41316e-05
-7.36077e-05 2.19696e-05 2.21306e-05 -7.41319e-05
-0.000221331 6.63132e-05 6.64364e-05 -6.17701e-05
-0.000143946 4.30883e-05 4.32247e-05 -6.94948e-05
-7.21952e-05 2.15504e-05 2.17049e-05 -7.41317e-05
-0.000149585 4.47715e-05 4.492e-05 -6.94951e-05
-0.000146765 4.39299e-05 4.40724e-05 -6.9495e-05
-0.000217105 6.5049e-05 6.51669e-05 -6.17701e-05
-0.000208653 6.25206e-05 6.26282e-05 -6.177e-05
-6.79581e-05 2.02925e-05 2.04281e-05 -7.41312e-05
-7.07827e-05 2.11312e-05 2.12792e-05 -7.41316e-05
-0.000212879 6.37849e-05 6.38975e-05 -6.177e-05
-0.000138308 4.14049e-05 4.15297e-05 -6.94946e-05
-6.93704e-05 2.07119e-05 2.08536e-05 -7.41314e-05
-0.000143946 4.30883e-05 4.32247e-05 -6.94948e-05
-0.000141127 4.22466e-05 4.23772e-05 -6.94947e-05
-0.000208653 6.25206e-05 6.26282e-05 -6.177e-05
-0.000200201 5.99921e-05 6.00897e-05 -6.17698e-05
-6.51338e-05 1.94536e-05 1.95773e-05 -7.41309e-05
-6.79581e-05 2.02925e-05 2.04281e-05 -7.41312e-05
-0.000204427 6.12564e-05 6.13589e-05 -6.17699e-05
-0.000132669 3.97213e-05 3.98349e-05 -6.94944e-05
-6.65459e-05 1.98731e-05 2.00026e-05 -7.41311e-05
-0.000138308 4.14049e-05 4.15297e-05 -6.94946e-05
-0.000135488 4.05631e-05 4.06823e-05 -6.94945e-05
-0.000200201 5.99921e-05 6.00897e-05 -6.17698e-05
-0.00019175 5.74633e-05 5.75515e-05 -6.17696e-05
-6.23099e-05 1.86144e-05 1.87266e-05 -7.41305e-05
-6.51338e-05 1.94536e-05 1.95773e-05 -7.41309e-05
-0.000195976 5.87277e-05 5.88206e-05 -6.17697e-05
-0.000127032 3.80375e-05 3.81404e-05 -6.94941e-05
-6.37218e-05 1.9034e-05 1.91519e-05 -7.41307e-05
-0.000132669 3.97213e-05 3.98349e-05 -6.94944e-05
-0.00012985 3.88794e-05 3.89876e-05 -6.94942e-05
-0.00019175 5.74633e-05 5.75515e-05 -6.17696e-05
-0.000183299 5.49345e-05 5.50135e-05 -6.17694e-05
-5.94864e-05 1.77751e-05 1.78763e-05 -7.41301e-05
-6.23099e-05 1.86144e-05 1.87266e-05 -7.41305e-05
-0.000187525 5.61989e-05 5.62824e-05 -6.17695e-05
-0.000121394 3.63535e-05 3.64461e-05 -6.94938e-05
-6.08981e-05 1.81948e-05 1.83014e-05 -7.41303e-05
-0.000127032 3.80375e-05 3.81404e-05 -6.94941e-05
-0.000124213 3.71955e-05 3.72932e-05 -6.94939e-05
-0.000183299 5.49345e-05 5.50135e-05 -6.17694e-05
-0.000174849 5.24055e-05 5.24757e-05 -6.17692e-05
-5.66632e-05 1.69356e-05 1.70261e-05 -7.41297e-05
-5.94864e-05 1.77751e-05 1.78763e-05 -7.41301e-05
-0.000179074 5.367e-05 5.37445e-05 -6.17693e-05
-0.000115757 3.46694e-05 3.4752e-05 -6.94935e-05
-5.80748e-05 1.73554e-05 1.74512e-05 -7.41299e-05
-0.000121394 3.63535e-05 3.64461e-05 -6.94938e-05
-0.000118576 3.55115e-05 3.5599e-05 -6.94936e-05
-0.000174849 5.24055e-05 5.24757e-05 -6.17692e-05
-0.000166399 4.98766e-05 4.99381e-05 -6.17691e-05
-5.38405e-05 1.60962e-05 1.61762e-05 -7.41293e-05
-5.66632e-05 1.69356e-05 1.70261e-05 -7.41297e-05
-0.000170624 5.11411e-05 5.12068e-05 -6.17692e-05
-0.000110121 3.29854e-05 3.30581e-05 -6.94932e-05
-5.52518e-05 1.65159e-05 1.66011e-05 -7.41295e-05
-0.000115757 3.46694e-05 3.4752e-05 -6.94935e-05
-0.000112939 3.38274e-05 3.3905e-05 -6.94933e-05
-0.000166399 4.98766e-05 4.99381e-05 -6.17691e-05
-0.000157949 4.73478e-05 4.74006e-05 -6.17691e-05
-5.10184e-05 1.52569e-05 1.53264e-05 -7.41288e-05
-5.38405e-05 1.60962e-05 1.61762e-05 -7.41293e-05
-0.000162174 4.86122e-05 4.86693e-05 -6.17691e-05
-0.000104485 3.13014e-05 3.13644e-05 -6.9493e-05
-5.24294e-05 1.56765e-05 1.57512e-05 -7.4129e-05
-0.000110121 3.29854e-05 3.30581e-05 -6.94932e-05
-0.000107303 3.21434e-05 3.22112e-05 -6.94931e-05
-0.000157949 4.73478e-05 4.74006e-05 -6.17691e-05
-0.0001495 4.48192e-05 4.48634e-05 -6.17695e-05
-4.8197e-05 1.4418e-05 1.44767e-05 -7.41284e-05
-5.10184e-05 1.52569e-05 1.53264e-05 -7.41288e-05
-0.000153725 4.60835e-05 4.6132e-05 -6.17692e-05
-9.88498e-05 2.96178e-05 2.96709e-05 -6.94929e-05
-4.96076e-05 1.48373e-05 1.49015e-05 -7.41286e-05
-0.000104485 3.13014e-05 3.13644e-05 -6.9493e-05
-0.000101667 3.04596e-05 3.05176e-05 -6.94929e-05
-0.0001495 4.48192e-05 4.48634e-05 -6.17695e-05
-0.000141052 4.22908e-05 4.23263e-05 -6.17703e-05
-4.53765e-05 1.35797e-05 1.36272e-05 -7.41283e-05
-4.8197e-05 1.4418e-05 1.44767e-05 -7.41284e-05
-0.000145276 4.3555e-05 4.35948e-05 -6.17698e-05
-9.32155e-05 2.79346e-05 2.79775e-05 -6.94934e-05
-4.67866e-05 1.39987e-05 1.4052e-05 -7.41283e-05
-9.88498e-05 2.96178e-05 2.96709e-05 -6.94929e-05
-9.60326e-05 2.87762e-05 2.88242e-05 -6.94931e-05
-0.000141052 4.22908e-05 4.23263e-05 -6.17703e-05
-0.000132605 3.97625e-05 3.97895e-05 -6.17719e-05
-4.25572e-05 1.27423e-05 1.27778e-05 -7.41292e-05
-4.53765e-05 1.35797e-05 1.36272e-05 -7.41283e-05
-0.000136828 4.10267e-05 4.10579e-05 -6.1771e-05
-8.75819e-05 2.62517e-05 2.62844e-05 -6.94948e-05
-4.39667e-05 1.31609e-05 1.32025e-05 -7.41286e-05
-9.32155e-05 2.79346e-05 2.79775e-05 -6.94934e-05
-9.03986e-05 2.70932e-05 2.71309e-05 -6.94939e-05
-0.000132605 3.97625e-05 3.97895e-05 -6.17719e-05
-0.000124157 3.72331e-05 3.72531e-05 -6.17746e-05
-3.97391e-05 1.19058e-05 1.19286e-05 -7.41324e-05
-4.25572e-05 1.27423e-05 1.27778e-05 -7.41292e-05
-0.000128381 3.8498e-05 3.85213e-05 -6.17731e-05
-8.19487e-05 2.45683e-05 2.45916e-05 -6.94981e-05
-4.11479e-05 1.23239e-05 1.23531e-05 -7.41304e-05
-8.75819e-05 2.62517e-05 2.62844e-05 -6.94948e-05
-8.47653e-05 2.54102e-05 2.54379e-05 -6.94961e-05
-0.000124157 3.72331e-05 3.72531e-05 -6.17746e-05
-0.000115707 3.47003e-05 3.47173e-05 -6.17789e-05
-3.69213e-05 1.10693e-05 1.10794e-05 -7.4141e-05
-3.97391e-05 1.19058e-05 1.19286e-05 -7.41324e-05
-0.000119932 3.59674e-05 3.5985e-05 -6.17766e-05
-7.6314e-05 2.28824e-05 2.28992e-05 -6.95052e-05
-3.83303e-05 1.14876e-05 1.1504e-05 -7.41358e-05
-8.19487e-05 2.45683e-05 2.45916e-05 -6.94981e-05
-7.91316e-05 2.37259e-05 2.37453e-05 -6.9501e-05
-0.000115707 3.47003e-05 3.47173e-05 -6.17789e-05
-0.00010725 3.21586e-05 3.21822e-05 -6.17852e-05
-3.41027e-05 1.02308e-05 1.02308e-05 -7.41608e-05
-3.69213e-05 1.10693e-05 1.10794e-05 -7.4141e-05
-0.00011148 3.34312e-05 3.34497e-05 -6.17817e-05
-7.06736e-05 2.11889e-05 2.12077e-05 -6.95196e-05
-3.5512e-05 1.06505e-05 1.06549e-05 -7.4149e-05
-7.6314e-05 2.28824e-05 2.28992e-05 -6.95052e-05
-7.34948e-05 2.2037e-05 2.20534e-05 -6.9511e-05
-0.00010725 3.21586e-05 3.21822e-05 -6.17852e-05
-9.87778e-05 2.95966e-05 2.96491e-05 -6.17932e-05
-3.12766e-05 9.38528e-06 9.38201e-06 -7.42034e-05
-3.41027e-05 1.02308e-05 1.02308e-05 -7.41608e-05
-0.000103016 3.08811e-05 3.09151e-05 -6.17891e-05
-6.50181e-05 1.9478e-05 1.95172e-05 -6.95481e-05
-3.26916e-05 9.80948e-06 9.80661e-06 -7.41782e-05
-7.06736e-05 2.11889e-05 2.12077e-05 -6.95196e-05
-6.78485e-05 2.03366e-05 2.03622e-05 -6.95317e-05
-9.87778e-05 2.95966e-05 2.96491e-05 -6.17932e-05
-9.0265e-05 2.6994e-05 2.71161e-05 -6.18045e-05
-2.84368e-05 8.52221e-06 8.53483e-06 -7.42898e-05
-3.12766e-05 9.38528e-06 9.38201e-06 -7.42034e-05
-9.45291e-05 2.83025e-05 2.83829e-05 -6.17982e-05
-5.93283e-05 1.77304e-05 1.78277e-05 -6.96028e-05
-2.98583e-05 8.95663e-06 8.95784e-06 -7.42394e-05
-6.50181e-05 1.9478e-05 1.95172e-05 -6.95481e-05
-6.2179e-05 1.86103e-05 1.86723e-05 -6.95706e-05
-9.0265e-05 2.6994e-05 2.71161e-05 -6.18045e-05
-8.16812e-05 2.43131e-05 2.45863e-05 -6.18166e-05
-2.55553e-05 7.62537e-06 7.68426e-06 -7.44576e-05
-2.84368e-05 8.52221e-06 8.53483e-06 -7.42898e-05
-8.59831e-05 2.5666e-05 2.58502e-05 -6.18109e-05
-5.35692e-05 1.59154e-05 1.61373e-05 -6.97056e-05
-2.70049e-05 8.08003e-06 8.11068e-06 -7.43602e-05
-5.93283e-05 1.77304e-05 1.78277e-05 -6.96028e-05
-5.64603e-05 1.68345e-05 1.69825e-05 -6.96475e-05
-8.16812e-05 2.43131e-05 2.45863e-05 -6.18166e-05
-7.29413e-05 2.14991e-05 2.20467e-05 -6.18376e-05
-2.26141e-05 6.66334e-06 6.83603e-06 -7.47657e-05
-2.55553e-05 7.62537e-06 7.68426e-06 -7.44576e-05
-7.73403e-05 2.29285e-05 2.33193e-05 -6.18247e-05
-4.76781e-05 1.39797e-05 1.44422e-05 -6.98929e-05
-2.40908e-05 7.15363e-06 7.25877e-06 -7.45896e-05
-5.35692e-05 1.59154e-05 1.61373e-05 -6.97056e-05
-5.06451e-05 1.49655e-05 1.52913e-05 -6.97834e-05
-7.29413e-05 2.14991e-05 2.20467e-05 -6.18376e-05
-6.39641e-05 1.84621e-05 1.95008e-05 -6.18645e-05
-1.95295e-05 5.60684e-06 5.96687e-06 -7.53082e-05
-2.26141e-05 6.66334e-06 6.83603e-06 -7.47657e-05
-6.8483e-05 2.0012e-05 2.07733e-05 -6.18516e-05
-4.15611e-05 1.18644e-05 1.27271e-05 -7.02238e-05
-2.11016e-05 6.15163e-06 6.40712e-06 -7.49998e-05
-4.76781e-05 1.39797e-05 1.44422e-05 -6.98929e-05
-4.46546e-05 1.29511e-05 1.35872e-05 -7.00402e-05
-6.39641e-05 1.84621e-05 1.95008e-05 -6.18645e-05
-5.45206e-05 1.51256e-05 1.68836e-05 -6.19497e-05
-1.62895e-05 4.40536e-06 5.09321e-06 -7.61932e-05
-1.95295e-05 5.60684e-06 5.96687e-06 -7.53082e-05
-5.93286e-05 1.68416e-05 1.82087e-05 -6.18925e-05
-3.50768e-05 9.49087e-06 1.09654e-05 -7.07859e-05
-1.79186e-05 5.02048e-06 5.52778e-06 -7.57011e-05
-4.15611e-05 1.18644e-05 1.27271e-05 -7.02238e-05
-3.83757e-05 1.07076e-05 1.18578e-05 -7.04597e-05
-5.45206e-05 1.51256e-05 1.68836e-05 -6.19497e-05
-4.45141e-05 1.14055e-05 1.41894e-05 -6.21228e-05
-1.27337e-05 3.10991e-06 4.12447e-06 -7.75372e-05
-1.62895e-05 4.40536e-06 5.09321e-06 -7.61932e-05
-4.95718e-05 1.32993e-05 1.55454e-05 -6.20259e-05
-2.81093e-05 6.9074e-06 9.08654e-06 -7.16891e-05
-1.45814e-05 3.7732e-06 4.6321e-06 -7.67998e-05
-3.50768e-05 9.49087e-06 1.09654e-05 -7.07859e-05
-3.1657e-05 8.22571e-06 1.0042e-05 -7.1205e-05
-4.45141e-05 1.14055e-05 1.41894e-05 -6.21228e-05
-3.35845e-05 7.55773e-06 1.11543e-05 -6.26585e-05
-9.07404e-06 1.81352e-06 3.11165e-06 -7.927e-05
-1.27337e-05 3.10991e-06 4.12447e-06 -7.75372e-05
-3.92256e-05 9.4905e-06 1.27436e-05 -6.23119e-05
-2.05955e-05 4.30989e-06 6.97955e-06 -7.30297e-05
-1.086e-05 2.42067e-06 3.61684e-06 -7.83715e-05
-2.81093e-05 6.9074e-06 9.08654e-06 -7.16891e-05
-2.4425e-05 5.55634e-06 8.08657e-06 -7.22648e-05
-3.35845e-05 7.55773e-06 1.11543e-05 -6.26585e-05
-2.22774e-05 4.21012e-06 7.74313e-06 -6.37316e-05
-5.3113e-06 1.20177e-06 1.76123e-06 -8.09576e-05
-9.07404e-06 1.81352e-06 3.11165e-06 -7.927e-05
-2.78491e-05 5.67498e-06 9.50319e-06 -6.31218e-05
-1.3051e-05 2.72966e-06 4.42344e-06 -7.47096e-05
-7.26233e-06 1.39986e-06 2.51249e-06 -8.01652e-05
-2.05955e-05 4.30989e-06 6.97955e-06 -7.30297e-05
-1.67583e-05 3.32622e-06 5.75662e-06 -7.39094e-05
-2.22774e-05 4.21012e-06 7.74313e-06 -6.37316e-05
-1.13312e-05 4.10927e-06 3.09513e-06 -6.59735e-05
-2.6561e-06 2.04668e-06 2.61179e-07 -8.09906e-05
-5.3113e-06 1.20177e-06 1.76123e-06 -8.09576e-05
-1.6796e-05 3.5815e-06 5.66335e-06 -6.4649e-05
-6.63291e-06 3.84965e-06 1.19283e-06 -7.58897e-05
-3.63715e-06 1.29342e-06 1.00446e-06 -8.13439e-05
-1.3051e-05 2.72966e-06 4.42344e-06 -7.47096e-05
-9.62531e-06 2.72213e-06 2.95851e-06 -7.53429e-05
-1.13312e-05 4.10927e-06 3.09513e-06 -6.59735e-05
-5.57575e-06 1.21168e-05 -2.80332e-06 -6.75437e-05
-1.16755e-06 5.96099e-06 -2.05433e-06 -7.64101e-05
-2.6561e-06 2.04668e-06 2.61179e-07 -8.09906e-05
-7.16413e-06 6.37658e-06 3.37523e-07 -6.7101e-05
-4.32387e-06 1.09125e-05 -2.82371e-06 -7.33608e-05
-1.96672e-06 3.73758e-06 -7.58943e-07 -7.95156e-05
-6.63291e-06 3.84965e-06 1.19283e-06 -7.58897e-05
-4.66778e-06 6.60356e-06 -8.2962e-07 -7.56331e-05
-5.57575e-06 1.21168e-05 -2.80332e-06 -6.75437e-05
-8.49423e-06 3.72467e-05 -1.23225e-05 -6.18541e-05
-2.28036e-06 1.10051e-05 -3.73917e-06 -6.23416e-05
-1.16755e-06 5.96099e-06 -2.05433e-06 -7.64101e-05
-6.15588e-06 2.27443e-05 -7.10934e-06 -6.64526e-05
-5.8934e-06 2.37759e-05 -7.66393e-06 -6.08975e-05
-1.01875e-06 8.30416e-06 -3.12232e-06 -7.08875e-05
-4.32387e-06 1.09125e-05 -2.82371e-06 -7.33608e-05
-4.94962e-06 1.66181e-05 -5.00076e-06 -6.84592e-05
-8.49423e-06 3.72467e-05 -1.23225e-05 -6.18541e-05
-1.71055e-05 6.73518e-05 -2.15341e-05 -3.26574e-05
-5.59074e-06 1.83819e-05 -5.48191e-06 -3.57669e-05
-2.28036e-06 1.10051e-05 -3.73917e-06 -6.23416e-05
-1.22559e-05 5.34988e-05 -1.76755e-05 -5.10641e-05
-9.80801e-06 4.06376e-05 -1.32127e-05 -3.60126e-05
-4.09139e-06 1.43768e-05 -4.40804e-06 -5.06965e-05
-5.8934e-06 2.37759e-05 -7.66393e-06 -6.08975e-05
-7.42349e-06 3.22143e-05 -1.06246e-05 -5.03411e-05
-0.000496483 0 0.000212779 0.00028092
-0.000504438 6.66106e-05 0.00018764 9.31167e-05
0.00049139 -6.95668e-05 -0.000180781 9.22849e-05
0.000481953 0 -0.000206551 0.000278995
-0.000484525 2.80846e-05 0.000195617 0.000177126
-6.64978e-06 -1.56429e-06 3.52032e-06 0.000105098
0.000470815 -2.97123e-05 -0.000189044 0.000175971
-7.50948e-06 0 3.21835e-06 0.000285769
-6.98425e-06 -9.63331e-07 3.40611e-06 0.000197681
-0.000504438 6.66106e-05 0.00018764 9.31167e-05
-0.000542881 0.000109665 0.000185664 -1.91715e-05
0.000530927 -0.000114609 -0.000178422 -1.9727e-05
0.00049139 -6.95668e-05 -0.000180781 9.22849e-05
-0.000531971 9.24208e-05 0.000188379 2.70949e-05
-6.09106e-06 -2.5412e-06 3.69954e-06 -1.35622e-05
0.000519492 -9.64614e-05 -0.000181299 2.64142e-05
-6.64978e-06 -1.56429e-06 3.52032e-06 0.000105098
-6.38056e-06 -2.07629e-06 3.62436e-06 3.20404e-05
-0.000542881 0.000109665 0.000185664 -1.91715e-05
-0.000554006 0.00014167 0.000176715 -7.00515e-05
0.000542975 -0.000148083 -0.000169239 -7.04736e-05
0.000530927 -0.000114609 -0.000178422 -1.9727e-05
-0.000546965 0.000126733 0.000180099 -4.98426e-05
-5.6087e-06 -3.32516e-06 3.8288e-06 -6.85565e-05
0.000535486 -0.000132456 -0.000172727 -5.03241e-05
-6.09106e-06 -2.5412e-06 3.69954e-06 -1.35622e-05
-5.82697e-06 -2.95815e-06 3.76505e-06 -4.48161e-05
-0.000554006 0.00014167 0.000176715 -7.00515e-05
-0.000559711 0.000156566 0.000172777 -8.82216e-05
0.000549487 -0.000164185 -0.000165129 -8.8524e-05
0.000542975 -0.000148083 -0.000169239 -7.04736e-05
-0.000559693 0.000151128 0.000175099 -8.22201e-05
-5.21957e-06 -3.90961e-06 3.91251e-06 -8.98045e-05
0.000549078 -0.000158175 -0.00016753 -8.25773e-05
-5.6087e-06 -3.32516e-06 3.8288e-06 -6.85565e-05
-5.41362e-06 -3.63839e-06 3.87943e-06 -8.31554e-05
-0.000559711 0.000156566 0.000172777 -8.82216e-05
-0.000555788 0.000162139 0.000168707 -9.01892e-05
0.000546211 -0.00017068 -0.000160942 -9.03824e-05
0.000549487 -0.000164185 -0.000165129 -8.8524e-05
-0.000557324 0.000160158 0.000170214 -9.02105e-05
-4.89358e-06 -4.36647e-06 3.96859e-06 -9.34312e-05
0.000547447 -0.000168276 -0.000162502 -9.0464e-05
-5.21957e-06 -3.90961e-06 3.91251e-06 -8.98045e-05
-5.04288e-06 -4.15391e-06 3.94148e-06 -9.25103e-05
-0.000555788 0.000162139 0.000168707 -9.01892e-05
-0.000551008 0.000161796 0.000166805 -8.70262e-05
0.000541889 -0.000170971 -0.000158965 -8.71066e-05
0.000546211 -0.00017068 -0.000160942 -9.03824e-05
-0.000554039 0.000162449 0.000167824 -8.89384e-05
-4.65958e-06 -4.67674e-06 4.00128e-06 -9.02887e-05
0.000544712 -0.000171342 -0.000160016 -8.90689e-05
-4.89358e-06 -4.36647e-06 3.96859e-06 -9.34312e-05
-4.76745e-06 -4.53916e-06 3.98855e-06 -9.24759e-05
-0.000551008 0.000161796 0.000166805 -8.70262e-05
-0.000545005 0.000159926 0.000165034 -8.29117e-05
0.000536185 -0.000169477 -0.00015716 -8.29177e-05
0.000541889 -0.000170971 -0.000158965 -8.71066e-05
-0.000547671 0.00016092 0.000165751 -8.48837e-05
-4.50269e-06 -4.87014e-06 4.01693e-06 -8.58389e-05
0.000538719 -0.000170312 -0.000157889 -8.49246e-05
-4.65958e-06 -4.67674e-06 4.00128e-06 -9.02887e-05
-4.57138e-06 -4.78673e-06 4.01062e-06 -8.79154e-05
-0.000545005 0.000159926 0.000165034 -8.29117e-05
-0.000540144 0.000157659 0.000163922 -7.96407e-05
0.000531505 -0.000167388 -0.00015605 -7.96012e-05
0.000536185 -0.000169477 -0.00015716 -8.29177e-05
-0.000542624 0.000158796 0.000164498 -8.11559e-05
-4.40711e-06 -4.96198e-06 4.01532e-06 -8.20784e-05
0.000533906 -0.000168457 -0.000156621 -8.11338e-05
-4.50269e-06 -4.87014e-06 4.01693e-06 -8.58389e-05
-4.44934e-06 -4.92695e-06 4.01841e-06 -8.38756e-05
-0.000540144 0.000157659 0.000163922 -7.96407e-05
-0.000535719 0.000155745 0.000162846 -7.73708e-05
0.000527194 -0.000165515 -0.000155005 -7.73166e-05
0.000531505 -0.000167388 -0.00015605 -7.96012e-05
-0.000537772 0.000156646 0.00016334 -7.83732e-05
-4.348e-06 -4.98589e-06 4.00024e-06 -7.94624e-05
0.000529196 -0.000166409 -0.00015548 -7.83242e-05
-4.40711e-06 -4.96198e-06 4.01532e-06 -8.20784e-05
-4.37407e-06 -4.98075e-06 4.00921e-06 -8.06e-05
-0.000535719 0.000155745 0.000162846 -7.73708e-05
-0.000532018 0.000154174 0.000161933 -7.5972e-05
0.000523572 -0.000163899 -0.000154145 -7.59198e-05
0.000527194 -0.000165515 -0.000155005 -7.73166e-05
-0.000533847 0.000154921 0.000162397 -7.65843e-05
-4.308e-06 -4.96393e-06 3.97368e-06 -7.78147e-05
0.000525364 -0.000164676 -0.00015458 -7.6529e-05
-4.348e-06 -4.98589e-06 4.00024e-06 -7.94624e-05
-4.3267e-06 -4.97932e-06 3.9883e-06 -7.85477e-05
-0.000532018 0.000154174 0.000161933 -7.5972e-05
-0.000528626 0.000152919 0.000161017 -7.51538e-05
0.000520249 -0.00016255 -0.0001533 -7.51145e-05
0.000523572 -0.000163899 -0.000154145 -7.59198e-05
-0.000530265 0.000153513 0.000161465 -7.55027e-05
-4.274e-06 -4.91676e-06 3.9389e-06 -7.68578e-05
0.000521854 -0.000163195 -0.000153711 -7.54565e-05
-4.308e-06 -4.96393e-06 3.97368e-06 -7.78147e-05
-4.2908e-06 -4.94255e-06 3.95715e-06 -7.72608e-05
-0.000528626 0.000152919 0.000161017 -7.51538e-05
-0.000525506 0.000151863 0.000160133 -7.47069e-05
0.000517201 -0.000161376 -0.000152496 -7.46839e-05
0.000520249 -0.00016255 -0.0001533 -7.51145e-05
-0.000527054 0.000152372 0.000160578 -7.48964e-05
-4.23876e-06 -4.85671e-06 3.89806e-06 -7.63312e-05
0.000518712 -0.000161946 -0.0001529 -7.4865e-05
-4.274e-06 -4.91676e-06 3.9389e-06 -7.68578e-05
-4.25688e-06 -4.88774e-06 3.91912e-06 -7.65565e-05
-0.000525506 0.000151863 0.000160133 -7.47069e-05
-0.000522497 0.000150935 0.000159241 -7.44718e-05
0.000514275 -0.000160323 -0.000151694 -7.44655e-05
0.000517201 -0.000161376 -0.000152496 -7.46839e-05
-0.000523986 0.000151387 0.000159685 -7.45694e-05
-4.19851e-06 -4.7925e-06 3.85329e-06 -7.60591e-05
0.000515721 -0.000160838 -0.000152093 -7.45551e-05
-4.23876e-06 -4.85671e-06 3.89806e-06 -7.63312e-05
-4.21939e-06 -4.82477e-06 3.87607e-06 -7.61705e-05
-0.000522497 0.000150935 0.000159241 -7.44718e-05
-0.000519565 0.000150075 0.000158353 -7.43549e-05
0.000511438 -0.000159339 -0.000150899 -7.43633e-05
0.000514275 -0.000160323 -0.000151694 -7.44655e-05
-0.000521028 0.000150499 0.000158798 -7.44031e-05
-4.15206e-06 -4.72861e-06 3.806e-06 -7.59254e-05
0.000512852 -0.000159825 -0.000151297 -7.44045e-05
-4.19851e-06 -4.7925e-06 3.85329e-06 -7.60591e-05
-4.17608e-06 -4.76033e-06 3.82989e-06 -7.59807e-05
-0.000519565 0.000150075 0.000158353 -7.43549e-05
-0.000516661 0.000149252 0.000157461 -7.4299e-05
0.000508639 -0.000158398 -0.000150104 -7.43196e-05
0.000511438 -0.000159339 -0.000150899 -7.43633e-05
-0.00051811 0.00014966 0.000157907 -7.43216e-05
-4.09953e-06 -4.66751e-06 3.7573e-06 -7.58645e-05
0.000510034 -0.000158865 -0.000150501 -7.43365e-05
-4.15206e-06 -4.72861e-06 3.806e-06 -7.59254e-05
-4.12651e-06 -4.69763e-06 3.78177e-06 -7.58884e-05
-0.000516661 0.000149252 0.000157461 -7.4299e-05
-0.000513772 0.000148445 0.000156569 -7.42739e-05
0.000505866 -0.000157479 -0.000149309 -7.43037e-05
0.000508639 -0.000158398 -0.000150104 -7.43196e-05
-0.000515216 0.000148847 0.000157015 -7.42839e-05
-4.04179e-06 -4.61e-06 3.70791e-06 -7.58387e-05
0.000507251 -0.000157936 -0.000149706 -7.43095e-05
-4.09953e-06 -4.66751e-06 3.7573e-06 -7.58645e-05
-4.07125e-06 -4.63829e-06 3.73266e-06 -7.58489e-05
-0.000513772 0.000148445 0.000156569 -7.42739e-05
-0.000510886 0.000147644 0.000155675 -7.42631e-05
0.000503103 -0.000156574 -0.000148512 -7.42997e-05
0.000505866 -0.000157479 -0.000149309 -7.43037e-05
-0.000512328 0.000148044 0.000156122 -7.42673e-05
-3.9799e-06 -4.55615e-06 3.65831e-06 -7.58294e-05
0.000504483 -0.000157025 -0.00014891 -7.43008e-05
-4.04179e-06 -4.61e-06 3.70791e-06 -7.58387e-05
-4.01129e-06 -4.58264e-06 3.68311e-06 -7.58327e-05
-0.000510886 0.000147644 0.000155675 -7.42631e-05
-0.000508 0.000146845 0.000154781 -7.42587e-05
0.000500347 -0.000155677 -0.000147716 -7.43002e-05
0.000503103 -0.000156574 -0.000148512 -7.42997e-05
-0.000509443 0.000147245 0.000155228 -7.42604e-05
-3.91492e-06 -4.50556e-06 3.60878e-06 -7.58267e-05
0.000501725 -0.000156125 -0.000148114 -7.42997e-05
-3.9799e-06 -4.55615e-06 3.65831e-06 -7.58294e-05
-3.94773e-06 -4.53048e-06 3.63352e-06 -7.58276e-05
-0.000508 0.000146845 0.000154781 -7.42587e-05
-0.000505114 0.000146045 0.000153887 -7.4257e-05
0.000497594 -0.000154783 -0.000146919 -7.43017e-05
0.000500347 -0.000155677 -0.000147716 -7.43002e-05
-0.000506557 0.000146445 0.000154334 -7.42577e-05
-3.8478e-06 -4.4577e-06 3.5595e-06 -7.58265e-05
0.00049897 -0.00015523 -0.000147317 -7.43009e-05
-3.91492e-06 -4.50556e-06 3.60878e-06 -7.58267e-05
-3.88158e-06 -4.48132e-06 3.5841e-06 -7.58265e-05
-0.000505114 0.000146045 0.000153887 -7.4257e-05
-0.000502227 0.000145244 0.000152993 -7.42563e-05
0.000494842 -0.000153893 -0.000146121 -7.4303e-05
0.000497594 -0.000154783 -0.000146919 -7.43017e-05
-0.000503671 0.000145645 0.00015344 -7.42566e-05
-3.77928e-06 -4.412e-06 3.51055e-06 -7.58269e-05
0.000496218 -0.000154338 -0.00014652 -7.43024e-05
-3.8478e-06 -4.4577e-06 3.5595e-06 -7.58265e-05
-3.81367e-06 -4.43461e-06 3.53498e-06 -7.58267e-05
-0.000502227 0.000145244 0.000152993 -7.42563e-05
-0.000499339 0.000144441 0.000152099 -7.42559e-05
0.000492092 -0.000153004 -0.000145323 -7.43037e-05
0.000494842 -0.000153893 -0.000146121 -7.4303e-05
-0.000500783 0.000144842 0.000152546 -7.42561e-05
-3.70995e-06 -4.36797e-06 3.46196e-06 -7.58271e-05
0.000493467 -0.000153448 -0.000145722 -7.43034e-05
-3.77928e-06 -4.412e-06 3.51055e-06 -7.58269e-05
-3.74469e-06 -4.3898e-06 3.48621e-06 -7.5827e-05
-0.000499339 0.000144441 0.000152099 -7.42559e-05
-0.000496451 0.000143637 0.000151206 -7.42556e-05
0.000489341 -0.000152117 -0.000144525 -7.43039e-05
0.000492092 -0.000153004 -0.000145323 -7.43037e-05
-0.000497895 0.000144039 0.000151653 -7.42557e-05
-3.64022e-06 -4.3252e-06 3.41375e-06 -7.58271e-05
0.000490716 -0.00015256 -0.000144924 -7.43039e-05
-3.70995e-06 -4.36797e-06 3.46196e-06 -7.58271e-05
-3.67511e-06 -4.34645e-06 3.43781e-06 -7.58272e-05
-0.000496451 0.000143637 0.000151206 -7.42556e-05
-0.000493562 0.000142832 0.000150313 -7.42552e-05
0.00048659 -0.00015123 -0.000143726 -7.43037e-05
0.000489341 -0.000152117 -0.000144525 -7.43039e-05
-0.000495007 0.000143234 0.00015076 -7.42554e-05
-3.57041e-06 -4.28337e-06 3.3659e-06 -7.58269e-05
0.000487965 -0.000151673 -0.000144125 -7.43039e-05
-3.64022e-06 -4.3252e-06 3.41375e-06 -7.58271e-05
-3.60531e-06 -4.30418e-06 3.38978e-06 -7.5827e-05
-0.000493562 0.000142832 0.000150313 -7.42552e-05
-0.000490674 0.000142026 0.000149421 -7.42548e-05
0.000483839 -0.000150344 -0.000142926 -7.43033e-05
0.00048659 -0.00015123 -0.000143726 -7.43037e-05
-0.000492118 0.000142429 0.000149867 -7.4255e-05
-3.50071e-06 -4.24223e-06 3.3184e-06 -7.58265e-05
0.000485215 -0.000150787 -0.000143326 -7.43035e-05
-3.57041e-06 -4.28337e-06 3.3659e-06 -7.58269e-05
-3.53553e-06 -4.26272e-06 3.34211e-06 -7.58267e-05
-0.000490674 0.000142026 0.000149421 -7.42548e-05
-0.000487786 0.000141219 0.000148528 -7.42543e-05
0.000481088 -0.000149458 -0.000142127 -7.43026e-05
0.000483839 -0.000150344 -0.000142926 -7.43033e-05
-0.00048923 0.000141623 0.000148974 -7.42545e-05
-3.43126e-06 -4.20163e-06 3.27124e-06 -7.58259e-05
0.000482463 -0.000149901 -0.000142527 -7.4303e-05
-3.50071e-06 -4.24223e-06 3.3184e-06 -7.58265e-05
-3.46595e-06 -4.22187e-06 3.29478e-06 -7.58262e-05
-0.000487786 0.000141219 0.000148528 -7.42543e-05
-0.000484898 0.000140413 0.000147636 -7.42538e-05
0.000478336 -0.000148573 -0.000141327 -7.43019e-05
0.000481088 -0.000149458 -0.000142127 -7.43026e-05
-0.000486342 0.000140816 0.000148082 -7.42541e-05
-3.36214e-06 -4.16144e-06 3.22439e-06 -7.58253e-05
0.000479712 -0.000149016 -0.000141727 -7.43022e-05
-3.43126e-06 -4.20163e-06 3.27124e-06 -7.58259e-05
-3.39666e-06 -4.18149e-06 3.24778e-06 -7.58256e-05
-0.000484898 0.000140413 0.000147636 -7.42538e-05
-0.00048201 0.000139606 0.000146745 -7.42533e-05
0.000475584 -0.000147688 -0.000140527 -7.4301e-05
0.000478336 -0.000148573 -0.000141327 -7.43019e-05
-0.000483454 0.000140009 0.000147191 -7.42536e-05
-3.2934e-06 -4.12158e-06 3.17785e-06 -7.58246e-05
0.00047696 -0.000148131 -0.000140927 -7.43014e-05
-3.36214e-06 -4.16144e-06 3.22439e-06 -7.58253e-05
-3.32772e-06 -4.14147e-06 3.20108e-06 -7.5825e-05
-0.00048201 0.000139606 0.000146745 -7.42533e-05
-0.000479123 0.000138798 0.000145853 -7.42527e-05
0.000472832 -0.000146804 -0.000139726 -7.43001e-05
0.000475584 -0.000147688 -0.000140527 -7.4301e-05
-0.000480566 0.000139202 0.000146299 -7.4253e-05
-3.22507e-06 -4.082e-06 3.1316e-06 -7.58239e-05
0.000474208 -0.000147246 -0.000140127 -7.43006e-05
-3.2934e-06 -4.12158e-06 3.17785e-06 -7.58246e-05
-3.25918e-06 -4.10176e-06 3.15469e-06 -7.58242e-05
-0.000479123 0.000138798 0.000145853 -7.42527e-05
-0.000476236 0.000137991 0.000144962 -7.42522e-05
0.000470079 -0.000145919 -0.000138926 -7.42992e-05
0.000472832 -0.000146804 -0.000139726 -7.43001e-05
-0.00047768 0.000138394 0.000145408 -7.42525e-05
-3.15716e-06 -4.04268e-06 3.08564e-06 -7.58231e-05
0.000471456 -0.000146362 -0.000139326 -7.42997e-05
-3.22507e-06 -4.082e-06 3.1316e-06 -7.58239e-05
-3.19106e-06 -4.06231e-06 3.10859e-06 -7.58235e-05
-0.000476236 0.000137991 0.000144962 -7.42522e-05
-0.00047335 0.000137183 0.000144072 -7.42516e-05
0.000467326 -0.000145035 -0.000138125 -7.42983e-05
0.000470079 -0.000145919 -0.000138926 -7.42992e-05
-0.000474793 0.000137587 0.000144517 -7.42519e-05
-3.08967e-06 -4.00359e-06 3.03997e-06 -7.58223e-05
0.000468703 -0.000145477 -0.000138525 -7.42988e-05
-3.15716e-06 -4.04268e-06 3.08564e-06 -7.58231e-05
-3.12336e-06 -4.0231e-06 3.06277e-06 -7.58227e-05
-0.00047335 0.000137183 0.000144072 -7.42516e-05
-0.000470464 0.000136375 0.000143181 -7.42509e-05
0.000464572 -0.000144151 -0.000137323 -7.42973e-05
0.000467326 -0.000145035 -0.000138125 -7.42983e-05
-0.000471907 0.000136779 0.000143626 -7.42513e-05
-3.0226e-06 -3.96472e-06 2.99457e-06 -7.58215e-05
0.000465949 -0.000144593 -0.000137724 -7.42978e-05
-3.08967e-06 -4.00359e-06 3.03997e-06 -7.58223e-05
-3.05608e-06 -3.98413e-06 3.01723e-06 -7.58219e-05
-0.000470464 0.000136375 0.000143181 -7.42509e-05
-0.000467579 0.000135566 0.000142291 -7.42503e-05
0.000461818 -0.000143268 -0.000136522 -7.42964e-05
0.000464572 -0.000144151 -0.000137323 -7.42973e-05
-0.000469021 0.000135971 0.000142736 -7.42506e-05
-2.95596e-06 -3.92609e-06 2.94945e-06 -7.58207e-05
0.000463195 -0.000143709 -0.000136923 -7.42969e-05
-3.0226e-06 -3.96472e-06 2.99457e-06 -7.58215e-05
-2.98923e-06 -3.94538e-06 2.97197e-06 -7.58211e-05
-0.000467579 0.000135566 0.000142291 -7.42503e-05
-0.000464694 0.000134758 0.000141401 -7.42496e-05
0.000459064 -0.000142384 -0.00013572 -7.42954e-05
0.000461818 -0.000143268 -0.000136522 -7.42964e-05
-0.000466136 0.000135162 0.000141846 -7.425e-05
-2.88973e-06 -3.88767e-06 2.9046e-06 -7.58199e-05
0.000460441 -0.000142826 -0.000136121 -7.42959e-05
-2.95596e-06 -3.92609e-06 2.94945e-06 -7.58207e-05
-2.92279e-06 -3.90685e-06 2.92699e-06 -7.58203e-05
-0.000464694 0.000134758 0.000141401 -7.42496e-05
-0.000461809 0.000133949 0.000140511 -7.42489e-05
0.00045631 -0.000141501 -0.000134918 -7.42944e-05
0.000459064 -0.000142384 -0.00013572 -7.42954e-05
-0.000463252 0.000134354 0.000140956 -7.42493e-05
-2.82392e-06 -3.84948e-06 2.86002e-06 -7.5819e-05
0.000457687 -0.000141943 -0.000135319 -7.42949e-05
-2.88973e-06 -3.88767e-06 2.9046e-06 -7.58199e-05
-2.85677e-06 -3.86854e-06 2.88228e-06 -7.58195e-05
-0.000461809 0.000133949 0.000140511 -7.42489e-05
-0.000458925 0.00013314 0.000139622 -7.42482e-05
0.000453554 -0.000140618 -0.000134116 -7.42934e-05
0.00045631 -0.000141501 -0.000134918 -7.42944e-05
-0.000460367 0.000133545 0.000140067 -7.42486e-05
-2.75851e-06 -3.81151e-06 2.81572e-06 -7.58182e-05
0.000454932 -0.000141059 -0.000134517 -7.42939e-05
-2.82392e-06 -3.84948e-06 2.86002e-06 -7.5819e-05
-2.79116e-06 -3.83046e-06 2.83784e-06 -7.58186e-05
-0.000458925 0.00013314 0.000139622 -7.42482e-05
-0.000456042 0.000132331 0.000138733 -7.42475e-05
0.000450799 -0.000139735 -0.000133313 -7.42924e-05
0.000453554 -0.000140618 -0.000134116 -7.42934e-05
-0.000457484 0.000132736 0.000139178 -7.42479e-05
-2.69352e-06 -3.77377e-06 2.77169e-06 -7.58173e-05
0.000452177 -0.000140177 -0.000133714 -7.42929e-05
-2.75851e-06 -3.81151e-06 2.81572e-06 -7.58182e-05
-2.72596e-06 -3.79261e-06 2.79367e-06 -7.58177e-05
-0.000456042 0.000132331 0.000138733 -7.42475e-05
-0.000453159 0.000131522 0.000137844 -7.42468e-05
0.000448043 -0.000138853 -0.00013251 -7.42914e-05
0.000450799 -0.000139735 -0.000133313 -7.42924e-05
-0.0004546 0.000131927 0.000138289 -7.42471e-05
-2.62893e-06 -3.73625e-06 2.72793e-06 -7.58164e-05
0.000449421 -0.000139294 -0.000132912 -7.42919e-05
-2.69352e-06 -3.77377e-06 2.77169e-06 -7.58173e-05
-2.66117e-06 -3.75498e-06 2.74978e-06 -7.58168e-05
-0.000453159 0.000131522 0.000137844 -7.42468e-05
-0.000450276 0.000130713 0.000136956 -7.4246e-05
0.000445287 -0.00013797 -0.000131707 -7.42903e-05
0.000448043 -0.000138853 -0.00013251 -7.42914e-05
-0.000451717 0.000131117 0.0001374 -7.42464e-05
-2.56474e-06 -3.69897e-06 2.68445e-06 -7.58154e-05
0.000446665 -0.000138411 -0.000132109 -7.42909e-05
-2.62893e-06 -3.73625e-06 2.72793e-06 -7.58164e-05
-2.59678e-06 -3.71758e-06 2.70616e-06 -7.58159e-05
-0.000450276 0.000130713 0.000136956 -7.4246e-05
-0.000447394 0.000129903 0.000136067 -7.42452e-05
0.000442531 -0.000137088 -0.000130904 -7.42893e-05
0.000445287 -0.00013797 -0.000131707 -7.42903e-05
-0.000448835 0.000130308 0.000136512 -7.42456e-05
-2.50096e-06 -3.66192e-06 2.64123e-06 -7.58145e-05
0.000443909 -0.000137529 -0.000131306 -7.42898e-05
-2.56474e-06 -3.69897e-06 2.68445e-06 -7.58154e-05
-2.5328e-06 -3.68042e-06 2.66281e-06 -7.5815e-05
-0.000447394 0.000129903 0.000136067 -7.42452e-05
-0.000444512 0.000129093 0.000135179 -7.42444e-05
0.000439774 -0.000136206 -0.0001301 -7.42882e-05
0.000442531 -0.000137088 -0.000130904 -7.42893e-05
-0.000445953 0.000129498 0.000135623 -7.42448e-05
-2.43758e-06 -3.6251e-06 2.59829e-06 -7.58136e-05
0.000441152 -0.000136647 -0.000130502 -7.42888e-05
-2.50096e-06 -3.66192e-06 2.64123e-06 -7.58145e-05
-2.46922e-06 -3.64348e-06 2.61973e-06 -7.5814e-05
-0.000444512 0.000129093 0.000135179 -7.42444e-05
-0.00044163 0.000128283 0.000134292 -7.42436e-05
0.000437017 -0.000135325 -0.000129296 -7.42871e-05
0.000439774 -0.000136206 -0.0001301 -7.42882e-05
-0.000443071 0.000128688 0.000134736 -7.4244e-05
-2.37461e-06 -3.58851e-06 2.55562e-06 -7.58126e-05
0.000438395 -0.000135766 -0.000129698 -7.42877e-05
-2.43758e-06 -3.6251e-06 2.59829e-06 -7.58136e-05
-2.40605e-06 -3.60677e-06 2.57692e-06 -7.58131e-05
-0.00044163 0.000128283 0.000134292 -7.42436e-05
-0.000438749 0.000127472 0.000133404 -7.42428e-05
0.000434259 -0.000134443 -0.000128492 -7.4286e-05
0.000437017 -0.000135325 -0.000129296 -7.42871e-05
-0.00044019 0.000127878 0.000133848 -7.42432e-05
-2.31204e-06 -3.55215e-06 2.51323e-06 -7.58116e-05
0.000435638 -0.000134884 -0.000128894 -7.42866e-05
-2.37461e-06 -3.58851e-06 2.55562e-06 -7.58126e-05
-2.34327e-06 -3.5703e-06 2.53439e-06 -7.58121e-05
-0.000438749 0.000127472 0.000133404 -7.42428e-05
-0.000435869 0.000126662 0.000132517 -7.4242e-05
0.000431501 -0.000133562 -0.000127688 -7.42849e-05
0.000434259 -0.000134443 -0.000128492 -7.4286e-05
-0.000437309 0.000127067 0.000132961 -7.42424e-05
-2.24987e-06 -3.51603e-06 2.4711e-06 -7.58106e-05
0.00043288 -0.000134003 -0.00012809 -7.42855e-05
-2.31204e-06 -3.55215e-06 2.51323e-06 -7.58116e-05
-2.2809e-06 -3.53406e-06 2.49213e-06 -7.58111e-05
-0.000435869 0.000126662 0.000132517 -7.4242e-05
-0.000432989 0.000125851 0.00013163 -7.42411e-05
0.000428743 -0.000132681 -0.000126883 -7.42838e-05
0.000431501 -0.000133562 -0.000127688 -7.42849e-05
-0.000434429 0.000126256 0.000132074 -7.42415e-05
-2.1881e-06 -3.48014e-06 2.42925e-06 -7.58096e-05
0.000430122 -0.000133122 -0.000127286 -7.42843e-05
-2.24987e-06 -3.51603e-06 2.4711e-06 -7.58106e-05
-2.21894e-06 -3.49806e-06 2.45014e-06 -7.58101e-05
-0.000432989 0.000125851 0.00013163 -7.42411e-05
-0.000430109 0.00012504 0.000130744 -7.42403e-05
0.000425984 -0.000131801 -0.000126078 -7.42826e-05
0.000428743 -0.000132681 -0.000126883 -7.42838e-05
-0.000431549 0.000125446 0.000131187 -7.42407e-05
-2.12674e-06 -3.44448e-06 2.38767e-06 -7.58086e-05
0.000427363 -0.000132241 -0.000126481 -7.42832e-05
-2.1881e-06 -3.48014e-06 2.42925e-06 -7.58096e-05
-2.15737e-06 -3.46228e-06 2.40842e-06 -7.58091e-05
-0.000430109 0.00012504 0.000130744 -7.42403e-05
-0.00042723 0.000124229 0.000129857 -7.42394e-05
0.000423225 -0.00013092 -0.000125273 -7.42815e-05
0.000425984 -0.000131801 -0.000126078 -7.42826e-05
-0.000428669 0.000124634 0.000130301 -7.42398e-05
-2.06578e-06 -3.40906e-06 2.34636e-06 -7.58075e-05
0.000424605 -0.000131361 -0.000125676 -7.42821e-05
-2.12674e-06 -3.44448e-06 2.38767e-06 -7.58086e-05
-2.09621e-06 -3.42674e-06 2.36698e-06 -7.58081e-05
-0.00042723 0.000124229 0.000129857 -7.42394e-05
-0.000424351 0.000123417 0.000128971 -7.42385e-05
0.000420466 -0.00013004 -0.000124468 -7.42803e-05
0.000423225 -0.00013092 -0.000125273 -7.42815e-05
-0.00042579 0.000123823 0.000129414 -7.42389e-05
-2.00522e-06 -3.37387e-06 2.30532e-06 -7.58065e-05
0.000421845 -0.00013048 -0.000124871 -7.42809e-05
-2.06578e-06 -3.40906e-06 2.34636e-06 -7.58075e-05
-2.03545e-06 -3.39144e-06 2.32581e-06 -7.5807e-05
-0.000424351 0.000123417 0.000128971 -7.42385e-05
-0.000421472 0.000122606 0.000128086 -7.42376e-05
0.000417706 -0.00012916 -0.000123662 -7.42792e-05
0.000420466 -0.00013004 -0.000124468 -7.42803e-05
-0.000422911 0.000123012 0.000128529 -7.42381e-05
-1.94506e-06 -3.33891e-06 2.26456e-06 -7.58054e-05
0.000419086 -0.0001296 -0.000124065 -7.42797e-05
-2.00522e-06 -3.37387e-06 2.30532e-06 -7.58065e-05
-1.97509e-06 -3.35636e-06 2.28491e-06 -7.5806e-05
-0.000421472 0.000122606 0.000128086 -7.42376e-05
-0.000418594 0.000121794 0.0001272 -7.42367e-05
0.000414946 -0.000128281 -0.000122856 -7.4278e-05
0.000417706 -0.00012916 -0.000123662 -7.42792e-05
-0.000420033 0.0001222 0.000127643 -7.42372e-05
-1.88531e-06 -3.30419e-06 2.22407e-06 -7.58044e-05
0.000416326 -0.000128721 -0.000123259 -7.42786e-05
-1.94506e-06 -3.33891e-06 2.26456e-06 -7.58054e-05
-1.91513e-06 -3.32152e-06 2.24428e-06 -7.58049e-05
-0.000418594 0.000121794 0.0001272 -7.42367e-05
-0.000415717 0.000120982 0.000126315 -7.42358e-05
0.000412185 -0.000127401 -0.00012205 -7.42768e-05
0.000414946 -0.000128281 -0.000122856 -7.4278e-05
-0.000417156 0.000121388 0.000126758 -7.42362e-05
-1.82595e-06 -3.2697e-06 2.18385e-06 -7.58033e-05
0.000413566 -0.000127841 -0.000122453 -7.42774e-05
-1.88531e-06 -3.30419e-06 2.22407e-06 -7.58044e-05
-1.85558e-06 -3.28692e-06 2.20393e-06 -7.58038e-05
-0.000415717 0.000120982 0.000126315 -7.42358e-05
-0.00041284 0.000120169 0.00012543 -7.42349e-05
0.000409424 -0.000126522 -0.000121244 -7.42756e-05
0.000412185 -0.000127401 -0.00012205 -7.42768e-05
-0.000414278 0.000120576 0.000125873 -7.42353e-05
-1.767e-06 -3.23544e-06 2.14391e-06 -7.58022e-05
0.000410805 -0.000126962 -0.000121647 -7.42762e-05
-1.82595e-06 -3.2697e-06 2.18385e-06 -7.58033e-05
-1.79643e-06 -3.25254e-06 2.16385e-06 -7.58027e-05
-0.00041284 0.000120169 0.00012543 -7.42349e-05
-0.000409963 0.000119357 0.000124546 -7.42339e-05
0.000406663 -0.000125643 -0.000120437 -7.42743e-05
0.000409424 -0.000126522 -0.000121244 -7.42756e-05
-0.000411401 0.000119763 0.000124988 -7.42344e-05
-1.70846e-06 -3.20142e-06 2.10423e-06 -7.58011e-05
0.000408044 -0.000126083 -0.000120841 -7.42749e-05
-1.767e-06 -3.23544e-06 2.14391e-06 -7.58022e-05
-1.73768e-06 -3.2184e-06 2.12404e-06 -7.58017e-05
-0.000409963 0.000119357 0.000124546 -7.42339e-05
-0.000407087 0.000118544 0.000123661 -7.4233e-05
0.000403902 -0.000124764 -0.00011963 -7.42731e-05
0.000406663 -0.000125643 -0.000120437 -7.42743e-05
-0.000408525 0.000118951 0.000124103 -7.42334e-05
-1.65031e-06 -3.16763e-06 2.06483e-06 -7.58e-05
0.000405283 -0.000125204 -0.000120034 -7.42737e-05
-1.70846e-06 -3.20142e-06 2.10423e-06 -7.58011e-05
-1.67933e-06 -3.1845e-06 2.0845e-06 -7.58005e-05
-0.000407087 0.000118544 0.000123661 -7.4233e-05
-0.000404211 0.000117731 0.000122777 -7.4232e-05
0.00040114 -0.000123886 -0.000118823 -7.42719e-05
0.000403902 -0.000124764 -0.00011963 -7.42731e-05
-0.000405649 0.000118138 0.000123219 -7.42325e-05
-1.59257e-06 -3.13408e-06 2.02571e-06 -7.57989e-05
0.000402521 -0.000124325 -0.000119227 -7.42725e-05
-1.65031e-06 -3.16763e-06 2.06483e-06 -7.58e-05
-1.62139e-06 -3.15082e-06 2.04524e-06 -7.57994e-05
-0.000404211 0.000117731 0.000122777 -7.4232e-05
-0.000401336 0.000116918 0.000121893 -7.4231e-05
0.000398378 -0.000123008 -0.000118016 -7.42706e-05
0.00040114 -0.000123886 -0.000118823 -7.42719e-05
-0.000402773 0.000117325 0.000122335 -7.42315e-05
-1.53523e-06 -3.10075e-06 1.98685e-06 -7.57977e-05
0.000399759 -0.000123447 -0.000118419 -7.42712e-05
-1.59257e-06 -3.13408e-06 2.02571e-06 -7.57989e-05
-1.56385e-06 -3.11739e-06 2.00624e-06 -7.57983e-05
-0.000401336 0.000116918 0.000121893 -7.4231e-05
-0.000398461 0.000116105 0.00012101 -7.42301e-05
0.000395615 -0.00012213 -0.000117208 -7.42694e-05
0.000398378 -0.000123008 -0.000118016 -7.42706e-05
-0.000399898 0.000116511 0.000121452 -7.42305e-05
-1.47829e-06 -3.06766e-06 1.94827e-06 -7.57966e-05
0.000396996 -0.000122569 -0.000117612 -7.427e-05
-1.53523e-06 -3.10075e-06 1.98685e-06 -7.57977e-05
-1.50671e-06 -3.08418e-06 1.96752e-06 -7.57972e-05
-0.000398461 0.000116105 0.00012101 -7.42301e-05
-0.000395586 0.000115291 0.000120127 -7.42291e-05
0.000392852 -0.000121252 -0.0001164 -7.42681e-05
0.000395615 -0.00012213 -0.000117208 -7.42694e-05
-0.000397024 0.000115698 0.000120568 -7.42296e-05
-1.42176e-06 -3.03481e-06 1.90996e-06 -7.57954e-05
0.000394234 -0.000121691 -0.000116804 -7.42687e-05
-1.47829e-06 -3.06766e-06 1.94827e-06 -7.57966e-05
-1.44998e-06 -3.05121e-06 1.92908e-06 -7.5796e-05
-0.000395586 0.000115291 0.000120127 -7.42291e-05
-0.000392712 0.000114477 0.000119244 -7.42281e-05
0.000390089 -0.000120375 -0.000115592 -7.42668e-05
0.000392852 -0.000121252 -0.0001164 -7.42681e-05
-0.000394149 0.000114884 0.000119685 -7.42286e-05
-1.36563e-06 -3.00219e-06 1.87192e-06 -7.57943e-05
0.000391471 -0.000120813 -0.000115996 -7.42675e-05
-1.42176e-06 -3.03481e-06 1.90996e-06 -7.57954e-05
-1.39364e-06 -3.01847e-06 1.8909e-06 -7.57949e-05
-0.000392712 0.000114477 0.000119244 -7.42281e-05
-0.000389839 0.000113663 0.000118361 -7.42271e-05
0.000387325 -0.000119497 -0.000114783 -7.42655e-05
0.000390089 -0.000120375 -0.000115592 -7.42668e-05
-0.000391276 0.00011407 0.000118802 -7.42276e-05
-1.3099e-06 -2.9698e-06 1.83416e-06 -7.57931e-05
0.000388707 -0.000119936 -0.000115188 -7.42662e-05
-1.36563e-06 -3.00219e-06 1.87192e-06 -7.57943e-05
-1.33771e-06 -2.98596e-06 1.853e-06 -7.57937e-05
-0.000389839 0.000113663 0.000118361 -7.42271e-05
-0.000386966 0.000112849 0.000117479 -7.42261e-05
0.000384561 -0.00011862 -0.000113975 -7.42643e-05
0.000387325 -0.000119497 -0.000114783 -7.42655e-05
-0.000388402 0.000113256 0.00011792 -7.42266e-05
-1.25457e-06 -2.93764e-06 1.79666e-06 -7.57919e-05
0.000385943 -0.000119059 -0.000114379 -7.42649e-05
-1.3099e-06 -2.9698e-06 1.83416e-06 -7.57931e-05
-1.28218e-06 -2.95369e-06 1.81538e-06 -7.57925e-05
-0.000386966 0.000112849 0.000117479 -7.42261e-05
-0.000384093 0.000112035 0.000116597 -7.42251e-05
0.000381797 -0.000117743 -0.000113166 -7.4263e-05
0.000384561 -0.00011862 -0.000113975 -7.42643e-05
-0.000385529 0.000112442 0.000117038 -7.42256e-05
-1.19965e-06 -2.90572e-06 1.75944e-06 -7.57908e-05
0.000383179 -0.000118182 -0.00011357 -7.42636e-05
-1.25457e-06 -2.93764e-06 1.79666e-06 -7.57919e-05
-1.22706e-06 -2.92165e-06 1.77802e-06 -7.57914e-05
-0.000384093 0.000112035 0.000116597 -7.42251e-05
-0.000381221 0.00011122 0.000115715 -7.4224e-05
0.000379032 -0.000116867 -0.000112357 -7.42617e-05
0.000381797 -0.000117743 -0.000113166 -7.4263e-05
-0.000382657 0.000111627 0.000116156 -7.42245e-05
-1.14512e-06 -2.87403e-06 1.7225e-06 -7.57896e-05
0.000380415 -0.000117305 -0.000112761 -7.42623e-05
-1.19965e-06 -2.90572e-06 1.75944e-06 -7.57908e-05
-1.17234e-06 -2.88985e-06 1.74094e-06 -7.57902e-05
-0.000381221 0.00011122 0.000115715 -7.4224e-05
-0.000378349 0.000110405 0.000114833 -7.4223e-05
0.000376267 -0.000115991 -0.000111547 -7.42603e-05
0.000379032 -0.000116867 -0.000112357 -7.42617e-05
-0.000379785 0.000110812 0.000115274 -7.42235e-05
-1.09101e-06 -2.84258e-06 1.68582e-06 -7.57884e-05
0.00037765 -0.000116429 -0.000111952 -7.4261e-05
-1.14512e-06 -2.87403e-06 1.7225e-06 -7.57896e-05
-1.11802e-06 -2.85828e-06 1.70413e-06 -7.5789e-05
-0.000378349 0.000110405 0.000114833 -7.4223e-05
-0.000375478 0.00010959 0.000113952 -7.4222e-05
0.000373502 -0.000115115 -0.000110737 -7.4259e-05
0.000376267 -0.000115991 -0.000111547 -7.42603e-05
-0.000376913 0.000109997 0.000114393 -7.42225e-05
-1.03729e-06 -2.81136e-06 1.64942e-06 -7.57872e-05
0.000374884 -0.000115553 -0.000111142 -7.42597e-05
-1.09101e-06 -2.84258e-06 1.68582e-06 -7.57884e-05
-1.0641e-06 -2.82694e-06 1.66759e-06 -7.57878e-05
-0.000375478 0.00010959 0.000113952 -7.4222e-05
-0.000372607 0.000108775 0.000113071 -7.42209e-05
0.000370736 -0.000114239 -0.000109927 -7.42577e-05
0.000373502 -0.000115115 -0.000110737 -7.4259e-05
-0.000374042 0.000109182 0.000113511 -7.42214e-05
-9.83976e-07 -2.78037e-06 1.61329e-06 -7.5786e-05
0.000372119 -0.000114677 -0.000110332 -7.42584e-05
-1.03729e-06 -2.81136e-06 1.64942e-06 -7.57872e-05
-1.01058e-06 -2.79584e-06 1.63132e-06 -7.57866e-05
-0.000372607 0.000108775 0.000113071 -7.42209e-05
-0.000369736 0.000107959 0.00011219 -7.42199e-05
0.00036797 -0.000113363 -0.000109117 -7.42564e-05
0.000370736 -0.000114239 -0.000109927 -7.42577e-05
-0.000371171 0.000108367 0.000112631 -7.42204e-05
-9.31065e-07 -2.74962e-06 1.57744e-06 -7.57848e-05
0.000369353 -0.000113801 -0.000109522 -7.42571e-05
-9.83976e-07 -2.78037e-06 1.61329e-06 -7.5786e-05
-9.57471e-07 -2.76497e-06 1.59533e-06 -7.57854e-05
-0.000369736 0.000107959 0.00011219 -7.42199e-05
-0.000366866 0.000107143 0.00011131 -7.42188e-05
0.000365203 -0.000112488 -0.000108307 -7.42551e-05
0.00036797 -0.000113363 -0.000109117 -7.42564e-05
-0.000368301 0.000107551 0.00011175 -7.42194e-05
-8.78557e-07 -2.7191e-06 1.54185e-06 -7.57836e-05
0.000366587 -0.000112925 -0.000108712 -7.42557e-05
-9.31065e-07 -2.74962e-06 1.57744e-06 -7.57848e-05
-9.04761e-07 -2.73433e-06 1.55961e-06 -7.57842e-05
-0.000366866 0.000107143 0.00011131 -7.42188e-05
-0.000363997 0.000106327 0.00011043 -7.42178e-05
0.000362437 -0.000111613 -0.000107496 -7.42537e-05
0.000365203 -0.000112488 -0.000108307 -7.42551e-05
-0.000365431 0.000106735 0.00011087 -7.42183e-05
-8.26452e-07 -2.68881e-06 1.50654e-06 -7.57823e-05
0.00036382 -0.00011205 -0.000107901 -7.42544e-05
-8.78557e-07 -2.7191e-06 1.54185e-06 -7.57836e-05
-8.52454e-07 -2.70393e-06 1.52416e-06 -7.57829e-05
-0.000363997 0.000106327 0.00011043 -7.42178e-05
-0.000361128 0.000105511 0.00010955 -7.42167e-05
0.000359669 -0.000110738 -0.000106685 -7.42524e-05
0.000362437 -0.000111613 -0.000107496 -7.42537e-05
-0.000362562 0.000105919 0.00010999 -7.42172e-05
-7.74749e-07 -2.65876e-06 1.4715e-06 -7.57811e-05
0.000361053 -0.000111175 -0.00010709 -7.42531e-05
-8.26452e-07 -2.68881e-06 1.50654e-06 -7.57823e-05
-8.0055e-07 -2.67376e-06 1.48899e-06 -7.57817e-05
-0.000361128 0.000105511 0.00010955 -7.42167e-05
-0.000358259 0.000104695 0.00010867 -7.42156e-05
0.000356902 -0.000109863 -0.000105874 -7.4251e-05
0.000359669 -0.000110738 -0.000106685 -7.42524e-05
-0.000359693 0.000105103 0.00010911 -7.42162e-05
-7.23449e-07 -2.62894e-06 1.43674e-06 -7.57799e-05
0.000358286 -0.000110301 -0.000106279 -7.42517e-05
-7.74749e-07 -2.65876e-06 1.4715e-06 -7.57811e-05
-7.49049e-07 -2.64382e-06 1.45409e-06 -7.57805e-05
-0.000358259 0.000104695 0.00010867 -7.42156e-05
-0.000355391 0.000103878 0.000107791 -7.42146e-05
0.000354134 -0.000108989 -0.000105062 -7.42497e-05
0.000356902 -0.000109863 -0.000105874 -7.4251e-05
-0.000356825 0.000104287 0.000108231 -7.42151e-05
-6.72551e-07 -2.59936e-06 1.40225e-06 -7.57786e-05
0.000355518 -0.000109426 -0.000105468 -7.42504e-05
-7.23449e-07 -2.62894e-06 1.43674e-06 -7.57799e-05
-6.9795e-07 -2.61412e-06 1.41946e-06 -7.57793e-05
-0.000355391 0.000103878 0.000107791 -7.42146e-05
-0.000352523 0.000103061 0.000106912 -7.42135e-05
0.000351366 -0.000108115 -0.00010425 -7.42483e-05
0.000354134 -0.000108989 -0.000105062 -7.42497e-05
-0.000353957 0.00010347 0.000107351 -7.4214e-05
-6.22056e-07 -2.57001e-06 1.36803e-06 -7.57774e-05
0.00035275 -0.000108552 -0.000104656 -7.4249e-05
-6.72551e-07 -2.59936e-06 1.40225e-06 -7.57786e-05
-6.47254e-07 -2.58465e-06 1.3851e-06 -7.5778e-05
-0.000352523 0.000103061 0.000106912 -7.42135e-05
-0.000349655 0.000102244 0.000106033 -7.42124e-05
0.000348597 -0.000107241 -0.000103438 -7.4247e-05
0.000351366 -0.000108115 -0.00010425 -7.42483e-05
-0.000351089 0.000102653 0.000106473 -7.4213e-05
-5.71964e-07 -2.54089e-06 1.33408e-06 -7.57762e-05
0.000349981 -0.000107678 -0.000103844 -7.42477e-05
-6.22056e-07 -2.57001e-06 1.36803e-06 -7.57774e-05
-5.9696e-07 -2.55542e-06 1.35102e-06 -7.57768e-05
-0.000349655 0.000102244 0.000106033 -7.42124e-05
-0.000346788 0.000101427 0.000105155 -7.42114e-05
0.000345828 -0.000106367 -0.000102626 -7.42456e-05
0.000348597 -0.000107241 -0.000103438 -7.4247e-05
-0.000348222 0.000101836 0.000105594 -7.42119e-05
-5.22275e-07 -2.51201e-06 1.30041e-06 -7.57749e-05
0.000347213 -0.000106804 -0.000103032 -7.42463e-05
-5.71964e-07 -2.54089e-06 1.33408e-06 -7.57762e-05
-5.47069e-07 -2.52642e-06 1.31721e-06 -7.57755e-05
-0.000346788 0.000101427 0.000105155 -7.42114e-05
-0.000343922 0.00010061 0.000104277 -7.42103e-05
0.000343059 -0.000105494 -0.000101814 -7.42443e-05
0.000345828 -0.000106367 -0.000102626 -7.42456e-05
-0.000345355 0.000101018 0.000104716 -7.42108e-05
-4.72988e-07 -2.48336e-06 1.267e-06 -7.57737e-05
0.000344444 -0.000105931 -0.00010222 -7.42449e-05
-5.22275e-07 -2.51201e-06 1.30041e-06 -7.57749e-05
-4.97581e-07 -2.49765e-06 1.28367e-06 -7.57743e-05
-0.000343922 0.00010061 0.000104277 -7.42103e-05
-0.000341056 9.9792e-05 0.000103399 -7.42092e-05
0.000340289 -0.000104621 -0.000101001 -7.42429e-05
0.000343059 -0.000105494 -0.000101814 -7.42443e-05
-0.000342489 0.000100201 0.000103838 -7.42097e-05
-4.24104e-07 -2.45494e-06 1.23388e-06 -7.57724e-05
0.000341674 -0.000105057 -0.000101407 -7.42436e-05
-4.72988e-07 -2.48336e-06 1.267e-06 -7.57737e-05
-4.48496e-07 -2.46912e-06 1.25041e-06 -7.57731e-05
-0.000341056 9.9792e-05 0.000103399 -7.42092e-05
-0.00033819 9.89742e-05 0.000102521 -7.42081e-05
0.000337519 -0.000103748 -0.000100188 -7.42415e-05
0.000340289 -0.000104621 -0.000101001 -7.42429e-05
-0.000339623 9.93831e-05 0.00010296 -7.42086e-05
-3.75622e-07 -2.42676e-06 1.20102e-06 -7.57712e-05
0.000338904 -0.000104184 -0.000100594 -7.42422e-05
-4.24104e-07 -2.45494e-06 1.23388e-06 -7.57724e-05
-3.99813e-07 -2.44082e-06 1.21741e-06 -7.57718e-05
-0.00033819 9.89742e-05 0.000102521 -7.42081e-05
-0.000335325 9.81561e-05 0.000101644 -7.4207e-05
0.000334749 -0.000102875 -9.93745e-05 -7.42402e-05
0.000337519 -0.000103748 -0.000100188 -7.42415e-05
-0.000336758 9.85651e-05 0.000102083 -7.42076e-05
-3.27543e-07 -2.39881e-06 1.16844e-06 -7.57699e-05
0.000336134 -0.000103312 -9.97812e-05 -7.42409e-05
-3.75622e-07 -2.42676e-06 1.20102e-06 -7.57712e-05
-3.51533e-07 -2.41275e-06 1.18469e-06 -7.57706e-05
-0.000335325 9.81561e-05 0.000101644 -7.4207e-05
-0.00033246 9.73378e-05 0.000100767 -7.42059e-05
0.000331978 -0.000102003 -9.85609e-05 -7.42388e-05
0.000334749 -0.000102875 -9.93745e-05 -7.42402e-05
-0.000333893 9.77469e-05 0.000101205 -7.42065e-05
-2.79867e-07 -2.37109e-06 1.13613e-06 -7.57687e-05
0.000333364 -0.000102439 -9.89677e-05 -7.42395e-05
-3.27543e-07 -2.39881e-06 1.16844e-06 -7.57699e-05
-3.03655e-07 -2.38492e-06 1.15225e-06 -7.57693e-05
-0.00033246 9.73378e-05 0.000100767 -7.42059e-05
-0.000329596 9.65192e-05 9.98901e-05 -7.42048e-05
0.000329207 -0.000101131 -9.77472e-05 -7.42374e-05
0.000331978 -0.000102003 -9.85609e-05 -7.42388e-05
-0.000331028 9.69285e-05 0.000100328 -7.42054e-05
-2.32594e-07 -2.34361e-06 1.10409e-06 -7.57674e-05
0.000330593 -0.000101567 -9.81541e-05 -7.42381e-05
-2.79867e-07 -2.37109e-06 1.13613e-06 -7.57687e-05
-2.56181e-07 -2.35732e-06 1.12007e-06 -7.5768e-05
-0.000329596 9.65192e-05 9.98901e-05 -7.42048e-05
-0.000326732 9.57005e-05 9.90136e-05 -7.42037e-05
0.000326436 -0.000100259 -9.69331e-05 -7.42361e-05
0.000329207 -0.000101131 -9.77472e-05 -7.42374e-05
-0.000328164 9.61099e-05 9.94518e-05 -7.42043e-05
-1.85723e-07 -2.31637e-06 1.07232e-06 -7.57662e-05
0.000327822 -0.000100695 -9.73402e-05 -7.42368e-05
-2.32594e-07 -2.34361e-06 1.10409e-06 -7.57674e-05
-2.09109e-07 -2.32996e-06 1.08817e-06 -7.57668e-05
-0.000326732 9.57005e-05 9.90136e-05 -7.42037e-05
-0.000323869 9.48816e-05 9.81374e-05 -7.42027e-05
0.000323664 -9.9387e-05 -9.61188e-05 -7.42347e-05
0.000326436 -0.000100259 -9.69331e-05 -7.42361e-05
-0.000325301 9.52911e-05 9.85755e-05 -7.42032e-05
-1.39255e-07 -2.28935e-06 1.04083e-06 -7.57649e-05
0.00032505 -9.98228e-05 -9.6526e-05 -7.42354e-05
-1.85723e-07 -2.31637e-06 1.07232e-06 -7.57662e-05
-1.62439e-07 -2.30283e-06 1.05654e-06 -7.57655e-05
-0.000323869 9.48816e-05 9.81374e-05 -7.42027e-05
-0.000321006 9.40624e-05 9.72615e-05 -7.42016e-05
0.000320892 -9.85156e-05 -9.53042e-05 -7.42333e-05
0.000323664 -9.9387e-05 -9.61188e-05 -7.42347e-05
-0.000322437 9.4472e-05 9.76995e-05 -7.42021e-05
-9.31902e-08 -2.26257e-06 1.00961e-06 -7.57637e-05
0.000322278 -9.89513e-05 -9.57116e-05 -7.4234e-05
-1.39255e-07 -2.28935e-06 1.04083e-06 -7.57649e-05
-1.16173e-07 -2.27593e-06 1.02519e-06 -7.57643e-05
-0.000321006 9.40624e-05 9.72615e-05 -7.42016e-05
-0.000318144 9.3243e-05 9.63859e-05 -7.42005e-05
0.00031812 -9.76444e-05 -9.44894e-05 -7.4232e-05
0.000320892 -9.85156e-05 -9.53042e-05 -7.42333e-05
-0.000319575 9.36528e-05 9.68237e-05 -7.4201e-05
-4.75276e-08 -2.23603e-06 9.78666e-07 -7.57624e-05
0.000319506 -9.80799e-05 -9.48969e-05 -7.42326e-05
-9.31902e-08 -2.26257e-06 1.00961e-06 -7.57637e-05
-7.03088e-08 -2.24927e-06 9.94105e-07 -7.5763e-05
-0.000318144 9.3243e-05 9.63859e-05 -7.42005e-05
-0.000315281 9.24235e-05 9.55106e-05 -7.41994e-05
0.000315347 -9.67734e-05 -9.36744e-05 -7.42306e-05
0.00031812 -9.76444e-05 -9.44894e-05 -7.4232e-05
-0.000316712 9.28333e-05 9.59482e-05 -7.41999e-05
-2.26769e-09 -2.20971e-06 9.47992e-07 -7.57611e-05
0.000316733 -9.72088e-05 -9.40819e-05 -7.42313e-05
-4.75276e-08 -2.23603e-06 9.78666e-07 -7.57624e-05
-2.48476e-08 -2.22284e-06 9.63295e-07 -7.57618e-05
-0.000315281 9.24235e-05 9.55106e-05 -7.41994e-05
-0.00031242 9.16037e-05 9.46355e-05 -7.41983e-05
0.000312574 -9.59027e-05 -9.28591e-05 -7.42292e-05
0.000315347 -9.67734e-05 -9.36744e-05 -7.42306e-05
-0.000313851 9.20136e-05 9.5073e-05 -7.41988e-05
4.25895e-08 -2.18364e-06 9.17591e-07 -7.57599e-05
0.00031396 -9.6338e-05 -9.32667e-05 -7.42299e-05
-2.26769e-09 -2.20971e-06 9.47992e-07 -7.57611e-05
2.0211e-08 -2.19665e-06 9.32758e-07 -7.57605e-05
-0.00031242 9.16037e-05 9.46355e-05 -7.41983e-05
-0.000309559 9.07836e-05 9.37607e-05 -7.41972e-05
0.0003098 -9.50322e-05 -9.20435e-05 -7.42279e-05
0.000312574 -9.59027e-05 -9.28591e-05 -7.42292e-05
-0.000310989 9.11937e-05 9.41981e-05 -7.41978e-05
8.70441e-08 -2.15779e-06 8.87463e-07 -7.57586e-05
0.000311187 -9.54674e-05 -9.24513e-05 -7.42285e-05
4.25895e-08 -2.18364e-06 9.17591e-07 -7.57599e-05
6.48669e-08 -2.17068e-06 9.02493e-07 -7.57593e-05
-0.000309559 9.07836e-05 9.37607e-05 -7.41972e-05
-0.000306698 8.99634e-05 9.28863e-05 -7.41961e-05
0.000307027 -9.4162e-05 -9.12277e-05 -7.42265e-05
0.0003098 -9.50322e-05 -9.20435e-05 -7.42279e-05
-0.000308128 9.03735e-05 9.33235e-05 -7.41967e-05
1.31096e-07 -2.13218e-06 8.57608e-07 -7.57574e-05
0.000308413 -9.45971e-05 -9.16356e-05 -7.42272e-05
8.70441e-08 -2.15779e-06 8.87463e-07 -7.57586e-05
1.0912e-07 -2.14496e-06 8.72501e-07 -7.5758e-05
-0.000306698 8.99634e-05 9.28863e-05 -7.41961e-05
-0.000303838 8.9143e-05 9.2012e-05 -7.4195e-05
0.000304252 -9.3292e-05 -9.04116e-05 -7.42251e-05
0.000307027 -9.4162e-05 -9.12277e-05 -7.42265e-05
-0.000305268 8.95532e-05 9.24491e-05 -7.41956e-05
1.74745e-07 -2.1068e-06 8.28025e-07 -7.57561e-05
0.000305639 -9.37269e-05 -9.08197e-05 -7.42258e-05
1.31096e-07 -2.13218e-06 8.57608e-07 -7.57574e-05
1.52971e-07 -2.11946e-06 8.42782e-07 -7.57568e-05
-0.000303838 8.9143e-05 9.2012e-05 -7.4195e-05
-0.000300978 8.83223e-05 9.11381e-05 -7.4194e-05
0.000301478 -9.24222e-05 -8.95952e-05 -7.42238e-05
0.000304252 -9.3292e-05 -9.04116e-05 -7.42251e-05
-0.000302408 8.87327e-05 9.1575e-05 -7.41945e-05
2.17992e-07 -2.08166e-06 7.98715e-07 -7.57549e-05
0.000302865 -9.28571e-05 -9.00034e-05 -7.42244e-05
1.74745e-07 -2.1068e-06 8.28025e-07 -7.57561e-05
1.96418e-07 -2.0942e-06 8.13336e-07 -7.57555e-05
-0.000300978 8.83223e-05 9.11381e-05 -7.4194e-05
-0.000298119 8.75014e-05 9.02645e-05 -7.41929e-05
0.000298703 -9.15527e-05 -8.87787e-05 -7.42224e-05
0.000301478 -9.24222e-05 -8.95952e-05 -7.42238e-05
-0.000299548 8.79119e-05 9.07013e-05 -7.41934e-05
2.60836e-07 -2.05675e-06 7.69678e-07 -7.57536e-05
0.00030009 -9.19874e-05 -8.9187e-05 -7.42231e-05
2.17992e-07 -2.08166e-06 7.98715e-07 -7.57549e-05
2.39464e-07 -2.06918e-06 7.84163e-07 -7.57543e-05
-0.000298119 8.75014e-05 9.02645e-05 -7.41929e-05
-0.00029526 8.66804e-05 8.93911e-05 -7.41918e-05
0.000295928 -9.06835e-05 -8.79618e-05 -7.4221e-05
0.000298703 -9.15527e-05 -8.87787e-05 -7.42224e-05
-0.000296689 8.70909e-05 8.98277e-05 -7.41923e-05
3.03277e-07 -2.03208e-06 7.40914e-07 -7.57524e-05
0.000297315 -9.11181e-05 -8.83703e-05 -7.42217e-05
2.60836e-07 -2.05675e-06 7.69678e-07 -7.57536e-05
2.82106e-07 -2.04438e-06 7.55262e-07 -7.5753e-05
-0.00029526 8.66804e-05 8.93911e-05 -7.41918e-05
-0.000292401 8.58591e-05 8.8518e-05 -7.41907e-05
0.000293152 -8.98144e-05 -8.71447e-05 -7.42197e-05
0.000295928 -9.06835e-05 -8.79618e-05 -7.4221e-05
-0.00029383 8.62697e-05 8.89545e-05 -7.41913e-05
3.45315e-07 -2.00764e-06 7.12423e-07 -7.57511e-05
0.00029454 -9.02489e-05 -8.75533e-05 -7.42204e-05
3.03277e-07 -2.03208e-06 7.40914e-07 -7.57524e-05
3.24346e-07 -2.01983e-06 7.26635e-07 -7.57518e-05
-0.000292401 8.58591e-05 8.8518e-05 -7.41907e-05
-0.000289543 8.50375e-05 8.76452e-05 -7.41896e-05
0.000290376 -8.89457e-05 -8.63274e-05 -7.42183e-05
0.000293152 -8.98144e-05 -8.71447e-05 -7.42197e-05
-0.000290972 8.54483e-05 8.80816e-05 -7.41902e-05
3.86951e-07 -1.98343e-06 6.84204e-07 -7.57499e-05
0.000291764 -8.938e-05 -8.67361e-05 -7.4219e-05
3.45315e-07 -2.00764e-06 7.12423e-07 -7.57511e-05
3.66183e-07 -1.9955e-06 6.98279e-07 -7.57505e-05
-0.000289543 8.50375e-05 8.76452e-05 -7.41896e-05
-0.000286685 8.42158e-05 8.67727e-05 -7.41886e-05
0.0002876 -8.80771e-05 -8.55098e-05 -7.4217e-05
0.000290376 -8.89457e-05 -8.63274e-05 -7.42183e-05
-0.000288114 8.46267e-05 8.72089e-05 -7.41891e-05
4.28184e-07 -1.95945e-06 6.56258e-07 -7.57487e-05
0.000288988 -8.85114e-05 -8.59186e-05 -7.42176e-05
3.86951e-07 -1.98343e-06 6.84204e-07 -7.57499e-05
4.07618e-07 -1.97141e-06 6.70197e-07 -7.57493e-05
-0.000286685 8.42158e-05 8.67727e-05 -7.41886e-05
-0.000283828 8.33939e-05 8.59004e-05 -7.41875e-05
0.000284823 -8.72088e-05 -8.46919e-05 -7.42156e-05
0.0002876 -8.80771e-05 -8.55098e-05 -7.4217e-05
-0.000285257 8.38049e-05 8.63365e-05 -7.4188e-05
4.69015e-07 -1.93571e-06 6.28585e-07 -7.57474e-05
0.000286212 -8.7643e-05 -8.51009e-05 -7.42163e-05
4.28184e-07 -1.95945e-06 6.56258e-07 -7.57487e-05
4.4865e-07 -1.94755e-06 6.42388e-07 -7.57481e-05
-0.000283828 8.33939e-05 8.59004e-05 -7.41875e-05
-0.000280972 8.25717e-05 8.50285e-05 -7.41864e-05
0.000282046 -8.63408e-05 -8.38738e-05 -7.42143e-05
0.000284823 -8.72088e-05 -8.46919e-05 -7.42156e-05
-0.0002824 8.29828e-05 8.54644e-05 -7.4187e-05
5.09443e-07 -1.91221e-06 6.01185e-07 -7.57462e-05
0.000283435 -8.67748e-05 -8.42829e-05 -7.4215e-05
4.69015e-07 -1.93571e-06 6.28585e-07 -7.57474e-05
4.89279e-07 -1.92393e-06 6.14851e-07 -7.57468e-05
-0.000280972 8.25717e-05 8.50285e-05 -7.41864e-05
-0.000278115 8.17494e-05 8.41568e-05 -7.41854e-05
0.000279269 -8.5473e-05 -8.30554e-05 -7.42129e-05
0.000282046 -8.63408e-05 -8.38738e-05 -7.42143e-05
-0.000279543 8.21606e-05 8.45926e-05 -7.41859e-05
5.49468e-07 -1.88894e-06 5.74058e-07 -7.5745e-05
0.000280658 -8.59068e-05 -8.34646e-05 -7.42136e-05
5.09443e-07 -1.91221e-06 6.01185e-07 -7.57462e-05
5.29506e-07 -1.90054e-06 5.87587e-07 -7.57456e-05
-0.000278115 8.17494e-05 8.41568e-05 -7.41854e-05
-0.000275259 8.09268e-05 8.32854e-05 -7.41843e-05
0.000276491 -8.46054e-05 -8.22368e-05 -7.42116e-05
0.000279269 -8.5473e-05 -8.30554e-05 -7.42129e-05
-0.000276687 8.13381e-05 8.37211e-05 -7.41848e-05
5.89091e-07 -1.8659e-06 5.47203e-07 -7.57438e-05
0.00027788 -8.50392e-05 -8.26461e-05 -7.42123e-05
5.49468e-07 -1.88894e-06 5.74058e-07 -7.5745e-05
5.6933e-07 -1.87739e-06 5.60596e-07 -7.57444e-05
-0.000275259 8.09268e-05 8.32854e-05 -7.41843e-05
-0.000272404 8.0104e-05 8.24143e-05 -7.41833e-05
0.000273713 -8.37381e-05 -8.14179e-05 -7.42103e-05
0.000276491 -8.46054e-05 -8.22368e-05 -7.42116e-05
-0.000273832 8.05154e-05 8.28498e-05 -7.41838e-05
6.28311e-07 -1.84309e-06 5.20621e-07 -7.57425e-05
0.000275102 -8.41717e-05 -8.18274e-05 -7.42109e-05
5.89091e-07 -1.8659e-06 5.47203e-07 -7.57438e-05
6.08751e-07 -1.85447e-06 5.33878e-07 -7.57431e-05
-0.000272404 8.0104e-05 8.24143e-05 -7.41833e-05
-0.000269549 7.9281e-05 8.15435e-05 -7.41822e-05
0.000270935 -8.2871e-05 -8.05988e-05 -7.42089e-05
0.000273713 -8.37381e-05 -8.14179e-05 -7.42103e-05
-0.000270976 7.96925e-05 8.19789e-05 -7.41827e-05
6.67129e-07 -1.82052e-06 4.94312e-07 -7.57413e-05
0.000272324 -8.33045e-05 -8.10084e-05 -7.42096e-05
6.28311e-07 -1.84309e-06 5.20621e-07 -7.57425e-05
6.4777e-07 -1.83178e-06 5.07433e-07 -7.57419e-05
-0.000269549 7.9281e-05 8.15435e-05 -7.41822e-05
-0.000266695 7.84577e-05 8.06729e-05 -7.41812e-05
0.000268156 -8.20042e-05 -7.97794e-05 -7.42076e-05
0.000270935 -8.2871e-05 -8.05988e-05 -7.42089e-05
-0.000268122 7.88694e-05 8.11082e-05 -7.41817e-05
7.05543e-07 -1.79819e-06 4.68276e-07 -7.57401e-05
0.000269546 -8.24376e-05 -8.01891e-05 -7.42083e-05
6.67129e-07 -1.82052e-06 4.94312e-07 -7.57413e-05
6.86386e-07 -1.80933e-06 4.8126e-07 -7.57407e-05
-0.000266695 7.84577e-05 8.06729e-05 -7.41812e-05
-0.00026384 7.76343e-05 7.98027e-05 -7.41801e-05
0.000265377 -8.11376e-05 -7.89598e-05 -7.42063e-05
0.000268156 -8.20042e-05 -7.97794e-05 -7.42076e-05
-0.000265267 7.8046e-05 8.02378e-05 -7.41806e-05
7.43556e-07 -1.77608e-06 4.42512e-07 -7.57389e-05
0.000266767 -8.15708e-05 -7.93696e-05 -7.4207e-05
7.05543e-07 -1.79819e-06 4.68276e-07 -7.57401e-05
7.246e-07 -1.78711e-06 4.5536e-07 -7.57395e-05
-0.00026384 7.76343e-05 7.98027e-05 -7.41801e-05
-0.000260987 7.68106e-05 7.89327e-05 -7.41791e-05
0.000262598 -8.02712e-05 -7.81399e-05 -7.4205e-05
0.000265377 -8.11376e-05 -7.89598e-05 -7.42063e-05
-0.000262414 7.72225e-05 7.93676e-05 -7.41796e-05
7.81165e-07 -1.75422e-06 4.17022e-07 -7.57377e-05
0.000263987 -8.07044e-05 -7.85499e-05 -7.42056e-05
7.43556e-07 -1.77608e-06 4.42512e-07 -7.57389e-05
7.62411e-07 -1.76512e-06 4.29733e-07 -7.57383e-05
-0.000260987 7.68106e-05 7.89327e-05 -7.41791e-05
-0.000258134 7.59868e-05 7.8063e-05 -7.41781e-05
0.000259818 -7.94051e-05 -7.73197e-05 -7.42037e-05
0.000262598 -8.02712e-05 -7.81399e-05 -7.4205e-05
-0.00025956 7.63987e-05 7.84978e-05 -7.41786e-05
8.18373e-07 -1.73258e-06 3.91804e-07 -7.57365e-05
0.000261208 -7.98381e-05 -7.77298e-05 -7.42043e-05
7.81165e-07 -1.75422e-06 4.17022e-07 -7.57377e-05
7.99819e-07 -1.74337e-06 4.04379e-07 -7.57371e-05
-0.000258134 7.59868e-05 7.8063e-05 -7.41781e-05
-0.000255281 7.51627e-05 7.71935e-05 -7.4177e-05
0.000257038 -7.85392e-05 -7.64993e-05 -7.42024e-05
0.000259818 -7.94051e-05 -7.73197e-05 -7.42037e-05
-0.000256707 7.55748e-05 7.76282e-05 -7.41776e-05
8.55177e-07 -1.71118e-06 3.66858e-07 -7.57353e-05
0.000258428 -7.89721e-05 -7.69096e-05 -7.4203e-05
8.18372e-07 -1.73258e-06 3.91804e-07 -7.57365e-05
8.36825e-07 -1.72185e-06 3.79297e-07 -7.57359e-05
-0.000255281 7.51627e-05 7.71935e-05 -7.4177e-05
-0.000252429 7.43384e-05 7.63244e-05 -7.4176e-05
0.000254257 -7.76736e-05 -7.56787e-05 -7.42011e-05
0.000257038 -7.85392e-05 -7.64993e-05 -7.42024e-05
-0.000253855 7.47506e-05 7.67589e-05 -7.41765e-05
8.91579e-07 -1.69001e-06 3.42186e-07 -7.57342e-05
0.000255647 -7.81064e-05 -7.6089e-05 -7.42017e-05
8.55177e-07 -1.71118e-06 3.66858e-07 -7.57353e-05
8.73428e-07 -1.70057e-06 3.54488e-07 -7.57347e-05
-0.000252429 7.43384e-05 7.63244e-05 -7.4176e-05
-0.000249577 7.35139e-05 7.54555e-05 -7.4175e-05
0.000251476 -7.68082e-05 -7.48577e-05 -7.41998e-05
0.000254257 -7.76736e-05 -7.56787e-05 -7.42011e-05
-0.000251003 7.39262e-05 7.58899e-05 -7.41755e-05
9.27578e-07 -1.66908e-06 3.17786e-07 -7.5733e-05
0.000252867 -7.72409e-05 -7.52682e-05 -7.42004e-05
8.91579e-07 -1.69001e-06 3.42186e-07 -7.57342e-05
9.09629e-07 -1.67952e-06 3.29952e-07 -7.57336e-05
-0.000249577 7.35139e-05 7.54555e-05 -7.4175e-05
-0.000246725 7.26892e-05 7.4587e-05 -7.4174e-05
0.000248695 -7.59431e-05 -7.40366e-05 -7.41985e-05
0.000251476 -7.68082e-05 -7.48577e-05 -7.41998e-05
-0.000248151 7.31015e-05 7.50212e-05 -7.41745e-05
9.63175e-07 -1.64838e-06 2.9366e-07 -7.57318e-05
0.000250086 -7.63756e-05 -7.44472e-05 -7.41992e-05
9.27578e-07 -1.66908e-06 3.17786e-07 -7.5733e-05
9.45427e-07 -1.6587e-06 3.05689e-07 -7.57324e-05
-0.000246725 7.26892e-05 7.4587e-05 -7.4174e-05
-0.000243874 7.18642e-05 7.37187e-05 -7.4173e-05
0.000245914 -7.50782e-05 -7.32151e-05 -7.41972e-05
0.000248695 -7.59431e-05 -7.40366e-05 -7.41985e-05
-0.0002453 7.22767e-05 7.41528e-05 -7.41735e-05
9.98369e-07 -1.62792e-06 2.69805e-07 -7.57307e-05
0.000247304 -7.55106e-05 -7.36259e-05 -7.41979e-05
9.63175e-07 -1.64838e-06 2.9366e-07 -7.57318e-05
9.80822e-07 -1.63812e-06 2.81699e-07 -7.57312e-05
-0.000243874 7.18642e-05 7.37187e-05 -7.4173e-05
-0.000241024 7.1039e-05 7.28506e-05 -7.4172e-05
0.000243132 -7.42135e-05 -7.23935e-05 -7.4196e-05
0.000245914 -7.50782e-05 -7.32151e-05 -7.41972e-05
-0.000242449 7.14517e-05 7.32846e-05 -7.41725e-05
1.03316e-06 -1.60768e-06 2.46224e-07 -7.57295e-05
0.000244523 -7.46458e-05 -7.28043e-05 -7.41966e-05
9.98369e-07 -1.62792e-06 2.69805e-07 -7.57307e-05
1.01582e-06 -1.61777e-06 2.57981e-07 -7.57301e-05
-0.000241024 7.1039e-05 7.28506e-05 -7.4172e-05
-0.000238174 7.02137e-05 7.19829e-05 -7.4171e-05
0.000240349 -7.33491e-05 -7.15715e-05 -7.41947e-05
0.000243132 -7.42135e-05 -7.23935e-05 -7.4196e-05
-0.000239599 7.06264e-05 7.24167e-05 -7.41715e-05
1.06755e-06 -1.58769e-06 2.22916e-07 -7.57284e-05
0.000241741 -7.37813e-05 -7.19825e-05 -7.41953e-05
1.03316e-06 -1.60768e-06 2.46224e-07 -7.57295e-05
1.05041e-06 -1.59766e-06 2.34536e-07 -7.57289e-05
-0.000238174 7.02137e-05 7.19829e-05 -7.4171e-05
-0.000235324 6.93881e-05 7.11154e-05 -7.41701e-05
0.000237567 -7.24849e-05 -7.07493e-05 -7.41935e-05
0.000240349 -7.33491e-05 -7.15715e-05 -7.41947e-05
-0.000236749 6.98009e-05 7.15491e-05 -7.41706e-05
1.10154e-06 -1.56792e-06 1.9988e-07 -7.57272e-05
0.000238958 -7.2917e-05 -7.11605e-05 -7.41941e-05
1.06755e-06 -1.58769e-06 2.22916e-07 -7.57284e-05
1.08459e-06 -1.57778e-06 2.11364e-07 -7.57278e-05
-0.000235324 6.93881e-05 7.11154e-05 -7.41701e-05
-0.000232475 6.85623e-05 7.02483e-05 -7.41691e-05
0.000234784 -7.1621e-05 -6.99269e-05 -7.41922e-05
0.000237567 -7.24849e-05 -7.07493e-05 -7.41935e-05
-0.000233899 6.89752e-05 7.06818e-05 -7.41696e-05
1.13512e-06 -1.54839e-06 1.77117e-07 -7.57261e-05
0.000236175 -7.20529e-05 -7.03382e-05 -7.41928e-05
1.10154e-06 -1.56792e-06 1.9988e-07 -7.57272e-05
1.11838e-06 -1.55813e-06 1.88464e-07 -7.57267e-05
-0.000232475 6.85623e-05 7.02483e-05 -7.41691e-05
-0.000229626 6.77363e-05 6.93814e-05 -7.41681e-05
0.000232 -7.07573e-05 -6.91042e-05 -7.4191e-05
0.000234784 -7.1621e-05 -6.99269e-05 -7.41922e-05
-0.00023105 6.81493e-05 6.98148e-05 -7.41686e-05
1.1683e-06 -1.5291e-06 1.54627e-07 -7.5725e-05
0.000233392 -7.11891e-05 -6.95156e-05 -7.41916e-05
1.13512e-06 -1.54839e-06 1.77117e-07 -7.57261e-05
1.15176e-06 -1.53872e-06 1.65838e-07 -7.57255e-05
-0.000229626 6.77363e-05 6.93814e-05 -7.41681e-05
-0.000226778 6.691e-05 6.85147e-05 -7.41672e-05
0.000229217 -6.98938e-05 -6.82812e-05 -7.41897e-05
0.000232 -7.07573e-05 -6.91042e-05 -7.4191e-05
-0.000228202 6.73232e-05 6.8948e-05 -7.41677e-05
1.20108e-06 -1.51004e-06 1.32409e-07 -7.57238e-05
0.000230609 -7.03255e-05 -6.86928e-05 -7.41903e-05
1.1683e-06 -1.5291e-06 1.54627e-07 -7.5725e-05
1.18474e-06 -1.51954e-06 1.43484e-07 -7.57244e-05
-0.000226778 6.691e-05 6.85147e-05 -7.41672e-05
-0.00022393 6.60836e-05 6.76484e-05 -7.41662e-05
0.000226433 -6.90306e-05 -6.7458e-05 -7.41885e-05
0.000229217 -6.98938e-05 -6.82812e-05 -7.41897e-05
-0.000225354 6.64968e-05 6.80815e-05 -7.41667e-05
1.23346e-06 -1.49121e-06 1.10464e-07 -7.57227e-05
0.000227825 -6.94622e-05 -6.78697e-05 -7.41891e-05
1.20108e-06 -1.51004e-06 1.32409e-07 -7.57238e-05
1.21732e-06 -1.50059e-06 1.21403e-07 -7.57233e-05
-0.00022393 6.60836e-05 6.76484e-05 -7.41662e-05
-0.000221082 6.52569e-05 6.67824e-05 -7.41653e-05
0.000223648 -6.81676e-05 -6.66346e-05 -7.41873e-05
0.000226433 -6.90306e-05 -6.7458e-05 -7.41885e-05
-0.000222506 6.56703e-05 6.72153e-05 -7.41658e-05
1.26543e-06 -1.47261e-06 8.87922e-08 -7.57216e-05
0.000225041 -6.85991e-05 -6.70463e-05 -7.41879e-05
1.23346e-06 -1.49121e-06 1.10464e-07 -7.57227e-05
1.2495e-06 -1.48188e-06 9.95942e-08 -7.57222e-05
-0.000221082 6.52569e-05 6.67824e-05 -7.41653e-05
-0.000218235 6.443e-05 6.59166e-05 -7.41644e-05
0.000220864 -6.73049e-05 -6.58108e-05 -7.41861e-05
0.000223648 -6.81676e-05 -6.66346e-05 -7.41873e-05
-0.000219659 6.48435e-05 6.63494e-05 -7.41648e-05
1.297e-06 -1.45425e-06 6.73929e-08 -7.57206e-05
0.000222256 -6.77362e-05 -6.62227e-05 -7.41867e-05
1.26543e-06 -1.47261e-06 8.87922e-08 -7.57216e-05
1.28127e-06 -1.4634e-06 7.80585e-08 -7.57211e-05
-0.000218235 6.443e-05 6.59166e-05 -7.41644e-05
-0.000215389 6.36029e-05 6.50511e-05 -7.41635e-05
0.000218078 -6.64424e-05 -6.49869e-05 -7.41849e-05
0.000220864 -6.73049e-05 -6.58108e-05 -7.41861e-05
-0.000216812 6.40165e-05 6.54838e-05 -7.41639e-05
1.32817e-06 -1.43613e-06 4.62663e-08 -7.57195e-05
0.000219471 -6.68736e-05 -6.53989e-05 -7.41855e-05
1.297e-06 -1.45425e-06 6.73929e-08 -7.57206e-05
1.31264e-06 -1.44516e-06 5.67956e-08 -7.572e-05
-0.000215389 6.36029e-05 6.50511e-05 -7.41635e-05
-0.000212543 6.27756e-05 6.41859e-05 -7.41625e-05
0.000215293 -6.55802e-05 -6.41626e-05 -7.41837e-05
0.000218078 -6.64424e-05 -6.49869e-05 -7.41849e-05
-0.000213966 6.31893e-05 6.46184e-05 -7.4163e-05
1.35894e-06 -1.41824e-06 2.54125e-08 -7.57184e-05
0.000216686 -6.60113e-05 -6.45748e-05 -7.41843e-05
1.32817e-06 -1.43613e-06 4.62663e-08 -7.57195e-05
1.34361e-06 -1.42715e-06 3.58054e-08 -7.57189e-05
-0.000212543 6.27756e-05 6.41859e-05 -7.41625e-05
-0.000209697 6.19481e-05 6.33209e-05 -7.41616e-05
0.000212507 -6.47182e-05 -6.33381e-05 -7.41825e-05
0.000215293 -6.55802e-05 -6.41626e-05 -7.41837e-05
-0.00021112 6.23619e-05 6.37534e-05 -7.41621e-05
1.3893e-06 -1.40058e-06 4.83139e-09 -7.57173e-05
0.0002139 -6.51491e-05 -6.37504e-05 -7.41831e-05
1.35894e-06 -1.41824e-06 2.54125e-08 -7.57184e-05
1.37417e-06 -1.40938e-06 1.50879e-08 -7.57179e-05
-0.000209697 6.19481e-05 6.33209e-05 -7.41616e-05
-0.000206852 6.11203e-05 6.24563e-05 -7.41607e-05
0.000209721 -6.38564e-05 -6.25134e-05 -7.41813e-05
0.000212507 -6.47182e-05 -6.33381e-05 -7.41825e-05
-0.000208274 6.15342e-05 6.28886e-05 -7.41612e-05
1.41927e-06 -1.38315e-06 -1.5477e-08 -7.57163e-05
0.000211114 -6.42872e-05 -6.29258e-05 -7.41819e-05
1.3893e-06 -1.40058e-06 4.83139e-09 -7.57173e-05
1.40434e-06 -1.39184e-06 -5.35681e-09 -7.57168e-05
-0.000206852 6.11203e-05 6.24563e-05 -7.41607e-05
-0.000204007 6.02924e-05 6.15919e-05 -7.41599e-05
0.000206934 -6.29949e-05 -6.16884e-05 -7.41802e-05
0.000209721 -6.38564e-05 -6.25134e-05 -7.41813e-05
-0.000205429 6.07064e-05 6.2024e-05 -7.41603e-05
1.44883e-06 -1.36596e-06 -3.55126e-08 -7.57152e-05
0.000208328 -6.34256e-05 -6.21009e-05 -7.41808e-05
1.41927e-06 -1.38315e-06 -1.5477e-08 -7.57163e-05
1.4341e-06 -1.37453e-06 -2.55288e-08 -7.57158e-05
-0.000204007 6.02924e-05 6.15919e-05 -7.41599e-05
-0.000201162 5.94642e-05 6.07278e-05 -7.4159e-05
0.000204148 -6.21336e-05 -6.08631e-05 -7.4179e-05
0.000206934 -6.29949e-05 -6.16884e-05 -7.41802e-05
-0.000202585 5.98783e-05 6.11598e-05 -7.41594e-05
1.47798e-06 -1.34901e-06 -5.52755e-08 -7.57142e-05
0.000205541 -6.25642e-05 -6.12758e-05 -7.41796e-05
1.44883e-06 -1.36596e-06 -3.55126e-08 -7.57152e-05
1.46345e-06 -1.35745e-06 -4.54281e-08 -7.57147e-05
-0.000201162 5.94642e-05 6.07278e-05 -7.4159e-05
-0.000198318 5.86358e-05 5.9864e-05 -7.41581e-05
0.00020136 -6.12725e-05 -6.00376e-05 -7.41779e-05
0.000204148 -6.21336e-05 -6.08631e-05 -7.4179e-05
-0.00019974 5.905e-05 6.02959e-05 -7.41586e-05
1.50674e-06 -1.33228e-06 -7.47658e-08 -7.57132e-05
0.000202754 -6.1703e-05 -6.04504e-05 -7.41785e-05
1.47798e-06 -1.34901e-06 -5.52756e-08 -7.57142e-05
1.49241e-06 -1.34062e-06 -6.50547e-08 -7.57137e-05
-0.000198318 5.86358e-05 5.9864e-05 -7.41581e-05
-0.000195475 5.78072e-05 5.90004e-05 -7.41573e-05
0.000198573 -6.04117e-05 -5.92118e-05 -7.41768e-05
0.00020136 -6.12725e-05 -6.00376e-05 -7.41779e-05
-0.000196897 5.82215e-05 5.94322e-05 -7.41577e-05
1.53509e-06 -1.31579e-06 -9.39833e-08 -7.57122e-05
0.000199966 -6.08421e-05 -5.96247e-05 -7.41773e-05
1.50674e-06 -1.33228e-06 -7.47658e-08 -7.57132e-05
1.52096e-06 -1.32401e-06 -8.44085e-08 -7.57127e-05
-0.000195475 5.78072e-05 5.90004e-05 -7.41573e-05
-0.000192632 5.69783e-05 5.81372e-05 -7.41564e-05
0.000195785 -5.95511e-05 -5.83858e-05 -7.41756e-05
0.000198573 -6.04117e-05 -5.92118e-05 -7.41768e-05
-0.000194053 5.73928e-05 5.85688e-05 -7.41568e-05
1.56304e-06 -1.29954e-06 -1.12928e-07 -7.57112e-05
0.000197179 -5.99814e-05 -5.87988e-05 -7.41762e-05
1.53509e-06 -1.31579e-06 -9.39833e-08 -7.57122e-05
1.54911e-06 -1.30764e-06 -1.0349e-07 -7.57117e-05
-0.000192632 5.69783e-05 5.81372e-05 -7.41564e-05
-0.000189789 5.61493e-05 5.72742e-05 -7.41556e-05
0.000192996 -5.86908e-05 -5.75595e-05 -7.41745e-05
0.000195785 -5.95511e-05 -5.83858e-05 -7.41756e-05
-0.00019121 5.65639e-05 5.77057e-05 -7.4156e-05
1.59059e-06 -1.28352e-06 -1.316e-07 -7.57102e-05
0.000194391 -5.91209e-05 -5.79727e-05 -7.41751e-05
1.56304e-06 -1.29954e-06 -1.12928e-07 -7.57112e-05
1.57686e-06 -1.2915e-06 -1.22298e-07 -7.57107e-05
-0.000189789 5.61493e-05 5.72742e-05 -7.41556e-05
-0.000186947 5.532e-05 5.64115e-05 -7.41548e-05
0.000190208 -5.78307e-05 -5.6733e-05 -7.41734e-05
0.000192996 -5.86908e-05 -5.75595e-05 -7.41745e-05
-0.000188368 5.57347e-05 5.68428e-05 -7.41552e-05
1.61773e-06 -1.26773e-06 -1.5e-07 -7.57092e-05
0.000191602 -5.82607e-05 -5.71463e-05 -7.4174e-05
1.59059e-06 -1.28352e-06 -1.316e-07 -7.57102e-05
1.60421e-06 -1.2756e-06 -1.40834e-07 -7.57097e-05
-0.000186947 5.532e-05 5.64115e-05 -7.41548e-05
-0.000184105 5.44906e-05 5.55491e-05 -7.4154e-05
0.000187419 -5.69709e-05 -5.59062e-05 -7.41723e-05
0.000190208 -5.78307e-05 -5.6733e-05 -7.41734e-05
-0.000185526 5.49053e-05 5.59803e-05 -7.41544e-05
1.64447e-06 -1.25218e-06 -1.68126e-07 -7.57082e-05
0.000188813 -5.74008e-05 -5.63196e-05 -7.41729e-05
1.61773e-06 -1.26773e-06 -1.5e-07 -7.57092e-05
1.63115e-06 -1.25993e-06 -1.59097e-07 -7.57087e-05
-0.000184105 5.44906e-05 5.55491e-05 -7.4154e-05
-0.000181264 5.36609e-05 5.46869e-05 -7.41532e-05
0.000184629 -5.61113e-05 -5.50791e-05 -7.41712e-05
0.000187419 -5.69709e-05 -5.59062e-05 -7.41723e-05
-0.000182684 5.40757e-05 5.5118e-05 -7.41535e-05
1.67081e-06 -1.23686e-06 -1.8598e-07 -7.57072e-05
0.000186024 -5.6541e-05 -5.54927e-05 -7.41718e-05
1.64447e-06 -1.25218e-06 -1.68126e-07 -7.57082e-05
1.65769e-06 -1.24449e-06 -1.77087e-07 -7.57077e-05
-0.000181264 5.36609e-05 5.46869e-05 -7.41532e-05
-0.000178423 5.28309e-05 5.38251e-05 -7.41524e-05
0.000181839 -5.52519e-05 -5.42518e-05 -7.41702e-05
0.000184629 -5.61113e-05 -5.50791e-05 -7.41712e-05
-0.000179843 5.32459e-05 5.4256e-05 -7.41528e-05
1.69675e-06 -1.22177e-06 -2.03562e-07 -7.57063e-05
0.000183234 -5.56815e-05 -5.46655e-05 -7.41707e-05
1.67081e-06 -1.23686e-06 -1.8598e-07 -7.57072e-05
1.68383e-06 -1.22929e-06 -1.94805e-07 -7.57068e-05
-0.000178423 5.28309e-05 5.38251e-05 -7.41524e-05
-0.000175582 5.20008e-05 5.29635e-05 -7.41516e-05
0.000179049 -5.43928e-05 -5.34242e-05 -7.41691e-05
0.000181839 -5.52519e-05 -5.42518e-05 -7.41702e-05
-0.000177002 5.24159e-05 5.33942e-05 -7.4152e-05
1.72229e-06 -1.20692e-06 -2.2087e-07 -7.57054e-05
0.000180444 -5.48223e-05 -5.3838e-05 -7.41696e-05
1.69675e-06 -1.22177e-06 -2.03562e-07 -7.57063e-05
1.70957e-06 -1.21432e-06 -2.1225e-07 -7.57058e-05
-0.000175582 5.20008e-05 5.29635e-05 -7.41516e-05
-0.000172742 5.11705e-05 5.21022e-05 -7.41508e-05
0.000176259 -5.35339e-05 -5.25964e-05 -7.41681e-05
0.000179049 -5.43928e-05 -5.34242e-05 -7.41691e-05
-0.000174162 5.15857e-05 5.25328e-05 -7.41512e-05
1.74742e-06 -1.19231e-06 -2.37906e-07 -7.57044e-05
0.000177654 -5.39633e-05 -5.30103e-05 -7.41686e-05
1.72229e-06 -1.20692e-06 -2.2087e-07 -7.57054e-05
1.7349e-06 -1.19959e-06 -2.29422e-07 -7.57049e-05
-0.000172742 5.11705e-05 5.21022e-05 -7.41508e-05
-0.000169903 5.03399e-05 5.12411e-05 -7.41501e-05
0.000173468 -5.26752e-05 -5.17683e-05 -7.4167e-05
0.000176259 -5.35339e-05 -5.25964e-05 -7.41681e-05
-0.000171322 5.07552e-05 5.16716e-05 -7.41504e-05
1.77215e-06 -1.17792e-06 -2.54669e-07 -7.57035e-05
0.000174863 -5.31045e-05 -5.21824e-05 -7.41675e-05
1.74742e-06 -1.19231e-06 -2.37906e-07 -7.57044e-05
1.75984e-06 -1.18508e-06 -2.46322e-07 -7.5704e-05
-0.000169903 5.03399e-05 5.12411e-05 -7.41501e-05
-0.000167063 4.95091e-05 5.03804e-05 -7.41493e-05
0.000170677 -5.18168e-05 -5.09399e-05 -7.4166e-05
0.000173468 -5.26752e-05 -5.17683e-05 -7.4167e-05
-0.000168483 4.99245e-05 5.08107e-05 -7.41497e-05
1.79648e-06 -1.16377e-06 -2.7116e-07 -7.57026e-05
0.000172072 -5.2246e-05 -5.13542e-05 -7.41665e-05
1.77215e-06 -1.17792e-06 -2.54669e-07 -7.57035e-05
1.78437e-06 -1.17082e-06 -2.62949e-07 -7.57031e-05
-0.000167063 4.95091e-05 5.03804e-05 -7.41493e-05
-0.000164225 4.86781e-05 4.95199e-05 -7.41486e-05
0.000167885 -5.09586e-05 -5.01113e-05 -7.4165e-05
0.000170677 -5.18168e-05 -5.09399e-05 -7.4166e-05
-0.000165644 4.90936e-05 4.99501e-05 -7.41489e-05
1.82041e-06 -1.14986e-06 -2.87378e-07 -7.57017e-05
0.000169281 -5.13877e-05 -5.05257e-05 -7.41655e-05
1.79648e-06 -1.16377e-06 -2.7116e-07 -7.57026e-05
1.80849e-06 -1.15679e-06 -2.79303e-07 -7.57022e-05
-0.000164225 4.86781e-05 4.95199e-05 -7.41486e-05
-0.000161386 4.78469e-05 4.86597e-05 -7.41478e-05
0.000165093 -5.01007e-05 -4.92825e-05 -7.4164e-05
0.000167885 -5.09586e-05 -5.01113e-05 -7.4165e-05
-0.000162805 4.82625e-05 4.90898e-05 -7.41482e-05
1.84393e-06 -1.13618e-06 -3.03323e-07 -7.57008e-05
0.000166489 -5.05296e-05 -4.96969e-05 -7.41645e-05
1.82041e-06 -1.14986e-06 -2.87378e-07 -7.57017e-05
1.83222e-06 -1.14299e-06 -2.95385e-07 -7.57013e-05
-0.000161386 4.78469e-05 4.86597e-05 -7.41478e-05
-0.000158548 4.70154e-05 4.77998e-05 -7.41471e-05
0.000162301 -4.9243e-05 -4.84534e-05 -7.4163e-05
0.000165093 -5.01007e-05 -4.92825e-05 -7.4164e-05
-0.000159967 4.74312e-05 4.82297e-05 -7.41475e-05
1.86705e-06 -1.12273e-06 -3.18996e-07 -7.57e-05
0.000163697 -4.96718e-05 -4.8868e-05 -7.41635e-05
1.84393e-06 -1.13618e-06 -3.03323e-07 -7.57008e-05
1.85554e-06 -1.12942e-06 -3.11193e-07 -7.57004e-05
-0.000158548 4.70154e-05 4.77998e-05 -7.41471e-05
-0.000155711 4.61838e-05 4.69402e-05 -7.41464e-05
0.000159508 -4.83855e-05 -4.7624e-05 -7.4162e-05
0.000162301 -4.9243e-05 -4.84534e-05 -7.4163e-05
-0.00015713 4.65996e-05 4.73699e-05 -7.41468e-05
1.88977e-06 -1.10951e-06 -3.34396e-07 -7.56991e-05
0.000160905 -4.88142e-05 -4.80387e-05 -7.41625e-05
1.86705e-06 -1.12273e-06 -3.18996e-07 -7.57e-05
1.87846e-06 -1.11609e-06 -3.2673e-07 -7.56995e-05
-0.000155711 4.61838e-05 4.69402e-05 -7.41464e-05
-0.000152874 4.53519e-05 4.60808e-05 -7.41458e-05
0.000156715 -4.75283e-05 -4.67943e-05 -7.41611e-05
0.000159508 -4.83855e-05 -4.7624e-05 -7.4162e-05
-0.000154292 4.57679e-05 4.65104e-05 -7.41461e-05
1.91209e-06 -1.09653e-06 -3.49523e-07 -7.56983e-05
0.000158112 -4.79569e-05 -4.72092e-05 -7.41615e-05
1.88977e-06 -1.10951e-06 -3.34396e-07 -7.56991e-05
1.90098e-06 -1.10299e-06 -3.41993e-07 -7.56987e-05
-0.000152874 4.53519e-05 4.60808e-05 -7.41458e-05
-0.000150037 4.45198e-05 4.52217e-05 -7.41451e-05
0.000153922 -4.66713e-05 -4.59645e-05 -7.41601e-05
0.000156715 -4.75283e-05 -4.67943e-05 -7.41611e-05
-0.000151455 4.49359e-05 4.56512e-05 -7.41454e-05
1.934e-06 -1.08379e-06 -3.64378e-07 -7.56974e-05
0.000155318 -4.70998e-05 -4.63794e-05 -7.41606e-05
1.91209e-06 -1.09653e-06 -3.49523e-07 -7.56983e-05
1.92309e-06 -1.09013e-06 -3.56984e-07 -7.56979e-05
-0.000150037 4.45198e-05 4.52217e-05 -7.41451e-05
-0.000147201 4.36875e-05 4.43629e-05 -7.41444e-05
0.000151128 -4.58146e-05 -4.51343e-05 -7.41592e-05
0.000153922 -4.66713e-05 -4.59645e-05 -7.41601e-05
-0.000148619 4.41037e-05 4.47923e-05 -7.41447e-05
1.95551e-06 -1.07127e-06 -3.7896e-07 -7.56966e-05
0.000152525 -4.62429e-05 -4.55494e-05 -7.41596e-05
1.934e-06 -1.08379e-06 -3.64378e-07 -7.56974e-05
1.94481e-06 -1.0775e-06 -3.71703e-07 -7.5697e-05
-0.000147201 4.36875e-05 4.43629e-05 -7.41444e-05
-0.000144365 4.28549e-05 4.35044e-05 -7.41438e-05
0.000148334 -4.49581e-05 -4.43039e-05 -7.41582e-05
0.000151128 -4.58146e-05 -4.51343e-05 -7.41592e-05
-0.000145783 4.32712e-05 4.39336e-05 -7.41441e-05
1.97662e-06 -1.059e-06 -3.93269e-07 -7.56958e-05
0.000149731 -4.53863e-05 -4.47191e-05 -7.41587e-05
1.95551e-06 -1.07127e-06 -3.7896e-07 -7.56966e-05
1.96612e-06 -1.06511e-06 -3.86148e-07 -7.56962e-05
-0.000144365 4.28549e-05 4.35044e-05 -7.41438e-05
-0.00014153 4.20222e-05 4.26461e-05 -7.41431e-05
0.000145539 -4.41018e-05 -4.34732e-05 -7.41573e-05
0.000148334 -4.49581e-05 -4.43039e-05 -7.41582e-05
-0.000142947 4.24386e-05 4.30752e-05 -7.41434e-05
1.99733e-06 -1.04695e-06 -4.07306e-07 -7.5695e-05
0.000146937 -4.45299e-05 -4.38886e-05 -7.41578e-05
1.97662e-06 -1.059e-06 -3.93269e-07 -7.56958e-05
1.98703e-06 -1.05295e-06 -4.00321e-07 -7.56954e-05
-0.00014153 4.20222e-05 4.26461e-05 -7.41431e-05
-0.000138695 4.11892e-05 4.17881e-05 -7.41425e-05
0.000142744 -4.32457e-05 -4.26423e-05 -7.41564e-05
0.000145539 -4.41018e-05 -4.34732e-05 -7.41573e-05
-0.000140112 4.16057e-05 4.22171e-05 -7.41428e-05
2.01764e-06 -1.03514e-06 -4.2107e-07 -7.56942e-05
0.000144142 -4.36737e-05 -4.30578e-05 -7.41569e-05
1.99733e-06 -1.04695e-06 -4.07306e-07 -7.5695e-05
2.00754e-06 -1.04102e-06 -4.14222e-07 -7.56946e-05
-0.000138695 4.11892e-05 4.17881e-05 -7.41425e-05
-0.00013586 4.0356e-05 4.09304e-05 -7.41419e-05
0.000139949 -4.23899e-05 -4.18111e-05 -7.41555e-05
0.000142744 -4.32457e-05 -4.26423e-05 -7.41564e-05
-0.000137278 4.07726e-05 4.13592e-05 -7.41422e-05
2.03754e-06 -1.02356e-06 -4.34561e-07 -7.56935e-05
0.000141347 -4.28178e-05 -4.22267e-05 -7.4156e-05
2.01764e-06 -1.03514e-06 -4.2107e-07 -7.56942e-05
2.02764e-06 -1.02932e-06 -4.2785e-07 -7.56939e-05
-0.00013586 4.0356e-05 4.09304e-05 -7.41419e-05
-0.000133026 3.95226e-05 4.0073e-05 -7.41413e-05
0.000137154 -4.15344e-05 -4.09796e-05 -7.41547e-05
0.000139949 -4.23899e-05 -4.18111e-05 -7.41555e-05
-0.000134443 3.99393e-05 4.05017e-05 -7.41416e-05
2.05704e-06 -1.01222e-06 -4.4778e-07 -7.56927e-05
0.000138551 -4.19621e-05 -4.13954e-05 -7.41551e-05
2.03754e-06 -1.02356e-06 -4.34561e-07 -7.56935e-05
2.04734e-06 -1.01786e-06 -4.41205e-07 -7.56931e-05
-0.000133026 3.95226e-05 4.0073e-05 -7.41413e-05
-0.000130193 3.8689e-05 3.92159e-05 -7.41407e-05
0.000134358 -4.06791e-05 -4.01479e-05 -7.41538e-05
0.000137154 -4.15344e-05 -4.09796e-05 -7.41547e-05
-0.000131609 3.91058e-05 3.96444e-05 -7.4141e-05
2.07614e-06 -1.00111e-06 -4.60726e-07 -7.5692e-05
0.000135756 -4.11067e-05 -4.05638e-05 -7.41542e-05
2.05704e-06 -1.01222e-06 -4.4778e-07 -7.56927e-05
2.06664e-06 -1.00664e-06 -4.54287e-07 -7.56924e-05
-0.000130193 3.8689e-05 3.92159e-05 -7.41407e-05
-0.000127359 3.78551e-05 3.8359e-05 -7.41401e-05
0.000131561 -3.9824e-05 -3.9316e-05 -7.41529e-05
0.000134358 -4.06791e-05 -4.01479e-05 -7.41538e-05
-0.000128776 3.82721e-05 3.87874e-05 -7.41404e-05
2.09484e-06 -9.90238e-07 -4.734e-07 -7.56913e-05
0.000132959 -4.02515e-05 -3.9732e-05 -7.41534e-05
2.07614e-06 -1.00111e-06 -4.60726e-07 -7.5692e-05
2.08554e-06 -9.95646e-07 -4.67097e-07 -7.56916e-05
-0.000127359 3.78551e-05 3.8359e-05 -7.41401e-05
-0.000124527 3.7021e-05 3.75024e-05 -7.41396e-05
0.000128764 -3.89691e-05 -3.84837e-05 -7.41521e-05
0.000131561 -3.9824e-05 -3.9316e-05 -7.41529e-05
-0.000125943 3.74381e-05 3.79306e-05 -7.41399e-05
2.11313e-06 -9.79597e-07 -4.85801e-07 -7.56906e-05
0.000130163 -3.93965e-05 -3.88999e-05 -7.41525e-05
2.09484e-06 -9.90238e-07 -4.734e-07 -7.56913e-05
2.10404e-06 -9.84888e-07 -4.79635e-07 -7.56909e-05
-0.000124527 3.7021e-05 3.75024e-05 -7.41396e-05
-0.000121694 3.61868e-05 3.66461e-05 -7.4139e-05
0.000125967 -3.81145e-05 -3.76512e-05 -7.41513e-05
0.000128764 -3.89691e-05 -3.84837e-05 -7.41521e-05
-0.00012311 3.66039e-05 3.70742e-05 -7.41393e-05
2.13103e-06 -9.69189e-07 -4.9793e-07 -7.56899e-05
0.000127366 -3.85418e-05 -3.80675e-05 -7.41517e-05
2.11313e-06 -9.79597e-07 -4.85801e-07 -7.56906e-05
2.12213e-06 -9.74364e-07 -4.91899e-07 -7.56902e-05
-0.000121694 3.61868e-05 3.66461e-05 -7.4139e-05
-0.000118862 3.53522e-05 3.579e-05 -7.41385e-05
0.00012317 -3.72601e-05 -3.68185e-05 -7.41505e-05
0.000125967 -3.81145e-05 -3.76512e-05 -7.41513e-05
-0.000120278 3.57695e-05 3.6218e-05 -7.41388e-05
2.14851e-06 -9.59016e-07 -5.09785e-07 -7.56892e-05
0.000124569 -3.76873e-05 -3.72349e-05 -7.41509e-05
2.13103e-06 -9.69189e-07 -4.9793e-07 -7.56899e-05
2.13982e-06 -9.64073e-07 -5.03891e-07 -7.56895e-05
-0.000118862 3.53522e-05 3.579e-05 -7.41385e-05
-0.000116031 3.45175e-05 3.49342e-05 -7.4138e-05
0.000120372 -3.6406e-05 -3.59855e-05 -7.41497e-05
0.00012317 -3.72601e-05 -3.68185e-05 -7.41505e-05
-0.000117446 3.49349e-05 3.53621e-05 -7.41383e-05
2.1656e-06 -9.49076e-07 -5.21369e-07 -7.56885e-05
0.000121771 -3.6833e-05 -3.6402e-05 -7.41501e-05
2.14851e-06 -9.59016e-07 -5.09785e-07 -7.56892e-05
2.15711e-06 -9.54017e-07 -5.15611e-07 -7.56888e-05
-0.000116031 3.45175e-05 3.49342e-05 -7.4138e-05
-0.0001132 3.36825e-05 3.40787e-05 -7.41375e-05
0.000117574 -3.55521e-05 -3.51522e-05 -7.41489e-05
0.000120372 -3.6406e-05 -3.59855e-05 -7.41497e-05
-0.000114615 3.41001e-05 3.45065e-05 -7.41378e-05
2.18229e-06 -9.3937e-07 -5.32679e-07 -7.56879e-05
0.000118973 -3.5979e-05 -3.55689e-05 -7.41493e-05
2.1656e-06 -9.49076e-07 -5.21369e-07 -7.56885e-05
2.174e-06 -9.44194e-07 -5.27058e-07 -7.56882e-05
-0.0001132 3.36825e-05 3.40787e-05 -7.41375e-05
-0.000110369 3.28474e-05 3.32235e-05 -7.4137e-05
0.000114775 -3.46984e-05 -3.43187e-05 -7.41481e-05
0.000117574 -3.55521e-05 -3.51522e-05 -7.41489e-05
-0.000111784 3.3265e-05 3.36511e-05 -7.41373e-05
2.19857e-06 -9.29898e-07 -5.43717e-07 -7.56872e-05
0.000116175 -3.51252e-05 -3.47355e-05 -7.41485e-05
2.18229e-06 -9.3937e-07 -5.32679e-07 -7.56879e-05
2.19048e-06 -9.34605e-07 -5.38232e-07 -7.56875e-05
-0.000110369 3.28474e-05 3.32235e-05 -7.4137e-05
-0.000107539 3.2012e-05 3.23686e-05 -7.41365e-05
0.000111976 -3.3845e-05 -3.34849e-05 -7.41474e-05
0.000114775 -3.46984e-05 -3.43187e-05 -7.41481e-05
-0.000108954 3.24297e-05 3.2796e-05 -7.41368e-05
2.21445e-06 -9.20659e-07 -5.54482e-07 -7.56866e-05
0.000113376 -3.42717e-05 -3.39018e-05 -7.41478e-05
2.19857e-06 -9.29898e-07 -5.43717e-07 -7.56872e-05
2.20656e-06 -9.25249e-07 -5.49134e-07 -7.56869e-05
-0.000107539 3.2012e-05 3.23686e-05 -7.41365e-05
-0.000104709 3.11764e-05 3.15139e-05 -7.41361e-05
0.000109177 -3.29918e-05 -3.26508e-05 -7.41467e-05
0.000111976 -3.3845e-05 -3.34849e-05 -7.41474e-05
-0.000106124 3.15942e-05 3.19412e-05 -7.41363e-05
2.22993e-06 -9.11655e-07 -5.64975e-07 -7.5686e-05
0.000110577 -3.34183e-05 -3.30679e-05 -7.4147e-05
2.21445e-06 -9.20659e-07 -5.54482e-07 -7.56866e-05
2.22224e-06 -9.16128e-07 -5.59762e-07 -7.56863e-05
-0.000104709 3.11764e-05 3.15139e-05 -7.41361e-05
-0.000101879 3.03405e-05 3.06595e-05 -7.41356e-05
0.000106377 -3.21388e-05 -3.18165e-05 -7.41459e-05
0.000109177 -3.29918e-05 -3.26508e-05 -7.41467e-05
-0.000103294 3.07585e-05 3.10867e-05 -7.41359e-05
2.24501e-06 -9.02885e-07 -5.75194e-07 -7.56854e-05
0.000107777 -3.25653e-05 -3.22337e-05 -7.41463e-05
2.22993e-06 -9.11655e-07 -5.64975e-07 -7.5686e-05
2.23752e-06 -9.07241e-07 -5.70119e-07 -7.56857e-05
-0.000101879 3.03405e-05 3.06595e-05 -7.41356e-05
-9.90503e-05 2.95045e-05 2.98054e-05 -7.41352e-05
0.000103577 -3.12861e-05 -3.09819e-05 -7.41452e-05
0.000106377 -3.21388e-05 -3.18165e-05 -7.41459e-05
-0.000100465 2.99225e-05 3.02324e-05 -7.41354e-05
2.25968e-06 -8.9435e-07 -5.85141e-07 -7.56848e-05
0.000104977 -3.17124e-05 -3.13993e-05 -7.41456e-05
2.24501e-06 -9.02885e-07 -5.75194e-07 -7.56854e-05
2.25239e-06 -8.98588e-07 -5.80202e-07 -7.56851e-05
-9.90503e-05 2.95045e-05 2.98054e-05 -7.41352e-05
-9.62217e-05 2.86682e-05 2.89515e-05 -7.41348e-05
0.000100777 -3.04336e-05 -3.01471e-05 -7.41445e-05
0.000103577 -3.12861e-05 -3.09819e-05 -7.41452e-05
-9.7636e-05 2.90863e-05 2.93784e-05 -7.4135e-05
2.27395e-06 -8.86049e-07 -5.94815e-07 -7.56842e-05
0.000102177 -3.08598e-05 -3.05646e-05 -7.41449e-05
2.25968e-06 -8.9435e-07 -5.85141e-07 -7.56848e-05
2.26687e-06 -8.9017e-07 -5.90012e-07 -7.56845e-05
-9.62217e-05 2.86682e-05 2.89515e-05 -7.41348e-05
-9.33936e-05 2.78317e-05 2.8098e-05 -7.41344e-05
9.7976e-05 -2.95813e-05 -2.9312e-05 -7.41438e-05
0.000100777 -3.04336e-05 -3.01471e-05 -7.41445e-05
-9.48076e-05 2.82499e-05 2.85247e-05 -7.41346e-05
2.28782e-06 -8.77986e-07 -6.04216e-07 -7.56837e-05
9.93765e-05 -3.00074e-05 -2.97296e-05 -7.41442e-05
2.27395e-06 -8.86049e-07 -5.94815e-07 -7.56842e-05
2.28094e-06 -8.81988e-07 -5.9955e-07 -7.5684e-05
-9.33936e-05 2.78317e-05 2.8098e-05 -7.41344e-05
-9.05658e-05 2.69949e-05 2.72447e-05 -7.4134e-05
9.51748e-05 -2.87293e-05 -2.84766e-05 -7.41432e-05
9.7976e-05 -2.95813e-05 -2.9312e-05 -7.41438e-05
-9.19796e-05 2.74133e-05 2.76713e-05 -7.41342e-05
2.30129e-06 -8.7016e-07 -6.13343e-07 -7.56832e-05
9.65755e-05 -2.91553e-05 -2.88944e-05 -7.41435e-05
2.28782e-06 -8.77986e-07 -6.04216e-07 -7.56837e-05
2.29461e-06 -8.74043e-07 -6.08814e-07 -7.56834e-05
-9.05658e-05 2.69949e-05 2.72447e-05 -7.4134e-05
-8.77384e-05 2.6158e-05 2.63916e-05 -7.41336e-05
9.23732e-05 -2.78775e-05 -2.7641e-05 -7.41425e-05
9.51748e-05 -2.87293e-05 -2.84766e-05 -7.41432e-05
-8.91521e-05 2.65765e-05 2.68181e-05 -7.41338e-05
2.31437e-06 -8.62574e-07 -6.22197e-07 -7.56826e-05
9.37741e-05 -2.83034e-05 -2.80589e-05 -7.41429e-05
2.30129e-06 -8.7016e-07 -6.13343e-07 -7.56832e-05
2.30788e-06 -8.66336e-07 -6.17805e-07 -7.56829e-05
-8.77384e-05 2.6158e-05 2.63916e-05 -7.41336e-05
-8.49115e-05 2.53208e-05 2.55389e-05 -7.41333e-05
8.95713e-05 -2.7026e-05 -2.68051e-05 -7.41419e-05
9.23732e-05 -2.78775e-05 -2.7641e-05 -7.41425e-05
-8.63249e-05 2.57394e-05 2.59652e-05 -7.41334e-05
2.32705e-06 -8.5523e-07 -6.30778e-07 -7.56821e-05
9.09723e-05 -2.74517e-05 -2.72231e-05 -7.41422e-05
2.31437e-06 -8.62574e-07 -6.22197e-07 -7.56826e-05
2.32076e-06 -8.58871e-07 -6.26522e-07 -7.56824e-05
-8.49115e-05 2.53208e-05 2.55389e-05 -7.41333e-05
-8.20849e-05 2.44833e-05 2.46864e-05 -7.41329e-05
8.6769e-05 -2.61747e-05 -2.5969e-05 -7.41413e-05
8.95713e-05 -2.7026e-05 -2.68051e-05 -7.41419e-05
-8.34982e-05 2.49021e-05 2.51126e-05 -7.41331e-05
2.33933e-06 -8.48133e-07 -6.39085e-07 -7.56816e-05
8.81702e-05 -2.66003e-05 -2.63871e-05 -7.41416e-05
2.32705e-06 -8.5523e-07 -6.30778e-07 -7.56821e-05
2.33324e-06 -8.51651e-07 -6.34966e-07 -7.56819e-05
-8.20849e-05 2.44833e-05 2.46864e-05 -7.41329e-05
-7.92588e-05 2.36457e-05 2.38342e-05 -7.41326e-05
8.39663e-05 -2.53237e-05 -2.51326e-05 -7.41407e-05
8.6769e-05 -2.61747e-05 -2.5969e-05 -7.41413e-05
-8.06718e-05 2.40645e-05 2.42603e-05 -7.41327e-05
2.35123e-06 -8.41287e-07 -6.47119e-07 -7.56812e-05
8.53677e-05 -2.57492e-05 -2.55508e-05 -7.4141e-05
2.33933e-06 -8.48133e-07 -6.39085e-07 -7.56816e-05
2.34533e-06 -8.44679e-07 -6.43136e-07 -7.56814e-05
-7.92588e-05 2.36457e-05 2.38342e-05 -7.41326e-05
-7.64331e-05 2.28078e-05 2.29823e-05 -7.41322e-05
8.11633e-05 -2.44729e-05 -2.42959e-05 -7.41401e-05
8.39663e-05 -2.53237e-05 -2.51326e-05 -7.41407e-05
-7.78459e-05 2.32267e-05 2.34082e-05 -7.41324e-05
2.36275e-06 -8.34698e-07 -6.5488e-07 -7.56807e-05
8.25648e-05 -2.48982e-05 -2.47143e-05 -7.41404e-05
2.35123e-06 -8.41287e-07 -6.47119e-07 -7.56812e-05
2.35704e-06 -8.3796e-07 -6.51033e-07 -7.56809e-05
-7.64331e-05 2.28078e-05 2.29823e-05 -7.41322e-05
-7.36077e-05 2.19696e-05 2.21306e-05 -7.41319e-05
7.83599e-05 -2.36224e-05 -2.34589e-05 -7.41396e-05
8.11633e-05 -2.44729e-05 -2.42959e-05 -7.41401e-05
-7.50203e-05 2.23887e-05 2.25564e-05 -7.41321e-05
2.3739e-06 -8.28371e-07 -6.62369e-07 -7.56803e-05
7.97616e-05 -2.40476e-05 -2.38774e-05 -7.41399e-05
2.36275e-06 -8.34698e-07 -6.5488e-07 -7.56807e-05
2.36837e-06 -8.31501e-07 -6.58658e-07 -7.56805e-05
-7.36077e-05 2.19696e-05 2.21306e-05 -7.41319e-05
-7.07827e-05 2.11312e-05 2.12792e-05 -7.41316e-05
7.55562e-05 -2.27721e-05 -2.26217e-05 -7.41391e-05
7.83599e-05 -2.36224e-05 -2.34589e-05 -7.41396e-05
-7.21952e-05 2.15504e-05 2.17049e-05 -7.41317e-05
2.38469e-06 -8.22311e-07 -6.6959e-07 -7.56798e-05
7.69581e-05 -2.31972e-05 -2.30404e-05 -7.41393e-05
2.3739e-06 -8.28371e-07 -6.62369e-07 -7.56803e-05
2.37934e-06 -8.25307e-07 -6.66013e-07 -7.568e-05
-7.07827e-05 2.11312e-05 2.12792e-05 -7.41316e-05
-6.79581e-05 2.02925e-05 2.04281e-05 -7.41312e-05
7.27521e-05 -2.19221e-05 -2.17843e-05 -7.41386e-05
7.55562e-05 -2.27721e-05 -2.26217e-05 -7.41391e-05
-6.93704e-05 2.07119e-05 2.08536e-05 -7.41314e-05
2.39513e-06 -8.16521e-07 -6.76546e-07 -7.56794e-05
7.41542e-05 -2.23471e-05 -2.22031e-05 -7.41388e-05
2.38469e-06 -8.22311e-07 -6.6959e-07 -7.56798e-05
2.38995e-06 -8.19383e-07 -6.731e-07 -7.56796e-05
-6.79581e-05 2.02925e-05 2.04281e-05 -7.41312e-05
-6.51338e-05 1.94536e-05 1.95773e-05 -7.41309e-05
6.99478e-05 -2.10724e-05 -2.09466e-05 -7.41381e-05
7.27521e-05 -2.19221e-05 -2.17843e-05 -7.41386e-05
-6.65459e-05 1.98731e-05 2.00026e-05 -7.41311e-05
2.40523e-06 -8.10998e-07 -6.83243e-07 -7.5679e-05
7.135e-05 -2.14972e-05 -2.13655e-05 -7.41383e-05
2.39513e-06 -8.16521e-07 -6.76546e-07 -7.56794e-05
2.40022e-06 -8.13727e-07 -6.79926e-07 -7.56792e-05
-6.51338e-05 1.94536e-05 1.95773e-05 -7.41309e-05
-6.23099e-05 1.86144e-05 1.87266e-05 -7.41305e-05
6.71431e-05 -2.0223e-05 -2.01086e-05 -7.41376e-05
6.99478e-05 -2.10724e-05 -2.09466e-05 -7.41381e-05
-6.37218e-05 1.9034e-05 1.91519e-05 -7.41307e-05
2.41501e-06 -8.05726e-07 -6.89692e-07 -7.56785e-05
6.85455e-05 -2.06477e-05 -2.05276e-05 -7.41379e-05
2.40523e-06 -8.10998e-07 -6.83243e-07 -7.5679e-05
2.41016e-06 -8.08332e-07 -6.86497e-07 -7.56788e-05
-6.23099e-05 1.86144e-05 1.87266e-05 -7.41305e-05
-5.94864e-05 1.77751e-05 1.78763e-05 -7.41301e-05
6.43382e-05 -1.93737e-05 -1.92705e-05 -7.41372e-05
6.71431e-05 -2.0223e-05 -2.01086e-05 -7.41376e-05
-6.08981e-05 1.81948e-05 1.83014e-05 -7.41303e-05
2.42445e-06 -8.00672e-07 -6.95906e-07 -7.56781e-05
6.57407e-05 -1.97983e-05 -1.96896e-05 -7.41374e-05
2.41501e-06 -8.05726e-07 -6.89692e-07 -7.56785e-05
2.41977e-06 -8.03175e-07 -6.92827e-07 -7.56783e-05
-5.94864e-05 1.77751e-05 1.78763e-05 -7.41301e-05
-5.66632e-05 1.69356e-05 1.70261e-05 -7.41297e-05
6.15329e-05 -1.85247e-05 -1.84321e-05 -7.41366e-05
6.43382e-05 -1.93737e-05 -1.92705e-05 -7.41372e-05
-5.80748e-05 1.73554e-05 1.74512e-05 -7.41299e-05
2.43355e-06 -7.9577e-07 -7.01907e-07 -7.56776e-05
6.29356e-05 -1.89492e-05 -1.88513e-05 -7.41369e-05
2.42445e-06 -8.00672e-07 -6.95906e-07 -7.56781e-05
2.42905e-06 -7.98208e-07 -6.98931e-07 -7.56778e-05
-5.66632e-05 1.69356e-05 1.70261e-05 -7.41297e-05
-5.38405e-05 1.60962e-05 1.61762e-05 -7.41293e-05
5.87274e-05 -1.76758e-05 -1.75935e-05 -7.4136e-05
6.15329e-05 -1.85247e-05 -1.84321e-05 -7.41366e-05
-5.52518e-05 1.65159e-05 1.66011e-05 -7.41295e-05
2.44226e-06 -7.90906e-07 -7.07722e-07 -7.5677e-05
6.01302e-05 -1.81002e-05 -1.80128e-05 -7.41363e-05
2.43355e-06 -7.9577e-07 -7.01907e-07 -7.56776e-05
2.43796e-06 -7.93343e-07 -7.04835e-07 -7.56773e-05
-5.38405e-05 1.60962e-05 1.61762e-05 -7.41293e-05
-5.10184e-05 1.52569e-05 1.53264e-05 -7.41288e-05
5.59214e-05 -1.68267e-05 -1.67549e-05 -7.41352e-05
5.87274e-05 -1.76758e-05 -1.75935e-05 -7.4136e-05
-5.24294e-05 1.56765e-05 1.57512e-05 -7.4129e-05
2.45046e-06 -7.85892e-07 -7.13387e-07 -7.56763e-05
5.73244e-05 -1.72513e-05 -1.71742e-05 -7.41356e-05
2.44226e-06 -7.90906e-07 -7.07722e-07 -7.5677e-05
2.44643e-06 -7.88434e-07 -7.1057e-07 -7.56767e-05
-5.10184e-05 1.52569e-05 1.53264e-05 -7.41288e-05
-4.8197e-05 1.4418e-05 1.44767e-05 -7.41284e-05
5.31149e-05 -1.59773e-05 -1.59161e-05 -7.41342e-05
5.59214e-05 -1.68267e-05 -1.67549e-05 -7.41352e-05
-4.96076e-05 1.48373e-05 1.49015e-05 -7.41286e-05
2.45798e-06 -7.80436e-07 -7.18949e-07 -7.56755e-05
5.45182e-05 -1.64021e-05 -1.63355e-05 -7.41347e-05
2.45046e-06 -7.85892e-07 -7.13387e-07 -7.56763e-05
2.45432e-06 -7.83243e-07 -7.16177e-07 -7.56759e-05
-4.8197e-05 1.4418e-05 1.44767e-05 -7.41284e-05
-4.53765e-05 1.35797e-05 1.36272e-05 -7.41283e-05
5.03074e-05 -1.51268e-05 -1.50774e-05 -7.4133e-05
5.31149e-05 -1.59773e-05 -1.59161e-05 -7.41342e-05
-4.67866e-05 1.39987e-05 1.4052e-05 -7.41283e-05
2.46451e-06 -7.74101e-07 -7.24461e-07 -7.56749e-05
5.17113e-05 -1.55522e-05 -1.54968e-05 -7.41336e-05
2.45798e-06 -7.80436e-07 -7.18949e-07 -7.56755e-05
2.4614e-06 -7.77413e-07 -7.21707e-07 -7.56752e-05
-4.53765e-05 1.35797e-05 1.36272e-05 -7.41283e-05
-4.25572e-05 1.27423e-05 1.27778e-05 -7.41292e-05
4.74983e-05 -1.42744e-05 -1.42388e-05 -7.41318e-05
5.03074e-05 -1.51268e-05 -1.50774e-05 -7.4133e-05
-4.39667e-05 1.31609e-05 1.32025e-05 -7.41286e-05
2.46954e-06 -7.66255e-07 -7.29979e-07 -7.56749e-05
4.89032e-05 -1.47009e-05 -1.46581e-05 -7.41323e-05
2.46451e-06 -7.74101e-07 -7.24461e-07 -7.56749e-05
2.46725e-06 -7.70415e-07 -7.27214e-07 -7.56747e-05
-4.25572e-05 1.27423e-05 1.27778e-05 -7.41292e-05
-3.97391e-05 1.19058e-05 1.19286e-05 -7.41324e-05
4.46863e-05 -1.34183e-05 -1.34006e-05 -7.41315e-05
4.74983e-05 -1.42744e-05 -1.42388e-05 -7.41318e-05
-4.11479e-05 1.23239e-05 1.23531e-05 -7.41304e-05
2.47232e-06 -7.56026e-07 -7.35553e-07 -7.56769e-05
4.60927e-05 -1.3847e-05 -1.38196e-05 -7.41314e-05
2.46954e-06 -7.66255e-07 -7.29979e-07 -7.56749e-05
2.47127e-06 -7.61506e-07 -7.32754e-07 -7.56755e-05
-3.97391e-05 1.19058e-05 1.19286e-05 -7.41324e-05
-3.69213e-05 1.10693e-05 1.10794e-05 -7.4141e-05
4.18683e-05 -1.25557e-05 -1.25625e-05 -7.41343e-05
4.46863e-05 -1.34183e-05 -1.34006e-05 -7.41315e-05
-3.83303e-05 1.14876e-05 1.1504e-05 -7.41358e-05
2.47172e-06 -7.42239e-07 -7.41208e-07 -7.56842e-05
4.32783e-05 -1.29881e-05 -1.29815e-05 -7.41323e-05
2.47232e-06 -7.56026e-07 -7.35553e-07 -7.56769e-05
2.47252e-06 -7.49662e-07 -7.38369e-07 -7.56796e-05
-3.69213e-05 1.10693e-05 1.10794e-05 -7.4141e-05
-3.41027e-05 1.02308e-05 1.02308e-05 -7.41608e-05
3.90404e-05 -1.16813e-05 -1.17253e-05 -7.41453e-05
4.18683e-05 -1.25557e-05 -1.25625e-05 -7.41343e-05
-3.5512e-05 1.06505e-05 1.06549e-05 -7.4149e-05
2.4662e-06 -7.23412e-07 -7.46907e-07 -7.57033e-05
4.04557e-05 -1.21204e-05 -1.21437e-05 -7.41383e-05
2.47172e-06 -7.42239e-07 -7.41208e-07 -7.56842e-05
2.46969e-06 -7.33565e-07 -7.44054e-07 -7.56918e-05
-3.41027e-05 1.02308e-05 1.02308e-05 -7.41608e-05
-3.12766e-05 9.38528e-06 9.38201e-06 -7.42034e-05
3.61918e-05 -1.07871e-05 -1.08877e-05 -7.41747e-05
3.90404e-05 -1.16813e-05 -1.17253e-05 -7.41453e-05
-3.26916e-05 9.80948e-06 9.80661e-06 -7.41782e-05
2.45359e-06 -6.97729e-07 -7.52513e-07 -7.57473e-05
3.76199e-05 -1.12375e-05 -1.13067e-05 -7.41567e-05
2.4662e-06 -7.23412e-07 -7.46907e-07 -7.57033e-05
2.46093e-06 -7.11544e-07 -7.49738e-07 -7.57208e-05
-3.12766e-05 9.38528e-06 9.38201e-06 -7.42034e-05
-2.84368e-05 8.52221e-06 8.53483e-06 -7.42898e-05
3.33113e-05 -9.85855e-06 -1.00512e-05 -7.4242e-05
3.61918e-05 -1.07871e-05 -1.08877e-05 -7.41747e-05
-2.98583e-05 8.95663e-06 8.95784e-06 -7.42394e-05
2.43117e-06 -6.63258e-07 -7.57676e-07 -7.58406e-05
3.47557e-05 -1.03281e-05 -1.0469e-05 -7.4202e-05
2.45359e-06 -6.97729e-07 -7.52513e-07 -7.57473e-05
2.4438e-06 -6.81726e-07 -7.55174e-07 -7.57862e-05
-2.84368e-05 8.52221e-06 8.53483e-06 -7.42898e-05
-2.55553e-05 7.62537e-06 7.68426e-06 -7.44576e-05
3.03644e-05 -8.8758e-06 -9.2094e-06 -7.43834e-05
3.33113e-05 -9.85855e-06 -1.00512e-05 -7.4242e-05
-2.70049e-05 8.08003e-06 8.11068e-06 -7.43602e-05
2.39552e-06 -6.1805e-07 -7.61772e-07 -7.60253e-05
3.18502e-05 -9.37615e-06 -9.63175e-06 -7.43002e-05
2.43117e-06 -6.63258e-07 -7.57676e-07 -7.58406e-05
2.41523e-06 -6.42068e-07 -7.59927e-07 -7.59168e-05
-2.55553e-05 7.62537e-06 7.68426e-06 -7.44576e-05
-2.26141e-05 6.66334e-06 6.83603e-06 -7.47657e-05
2.7326e-05 -7.80509e-06 -8.36609e-06 -7.46563e-05
3.03644e-05 -8.8758e-06 -9.2094e-06 -7.43834e-05
-2.40908e-05 7.15363e-06 7.25877e-06 -7.45896e-05
2.34297e-06 -5.61205e-07 -7.63614e-07 -7.63712e-05
2.88557e-05 -8.35259e-06 -8.78703e-06 -7.4499e-05
2.39552e-06 -6.1805e-07 -7.61772e-07 -7.60253e-05
2.37158e-06 -5.91128e-07 -7.6305e-07 -7.61747e-05
-2.26141e-05 6.66334e-06 6.83603e-06 -7.47657e-05
-1.95295e-05 5.60684e-06 5.96687e-06 -7.53082e-05
2.41053e-05 -6.61823e-06 -7.49447e-06 -7.51549e-05
2.7326e-05 -7.80509e-06 -8.36609e-06 -7.46563e-05
-2.11016e-05 6.15163e-06 6.40712e-06 -7.49998e-05
2.26988e-06 -4.93212e-07 -7.6143e-07 -7.69797e-05
2.57507e-05 -7.23061e-06 -7.93718e-06 -7.48693e-05
2.34297e-06 -5.61205e-07 -7.63614e-07 -7.63712e-05
2.30923e-06 -5.28336e-07 -7.63239e-07 -7.663e-05
-1.95295e-05 5.60684e-06 5.96687e-06 -7.53082e-05
-1.62895e-05 4.40536e-06 5.09321e-06 -7.61932e-05
2.06862e-05 -5.27278e-06 -6.60574e-06 -7.59891e-05
2.41053e-05 -6.61823e-06 -7.49447e-06 -7.51549e-05
-1.79186e-05 5.02048e-06 5.52778e-06 -7.57011e-05
2.17483e-06 -4.19654e-07 -7.52219e-07 -7.79762e-05
2.24103e-05 -5.96058e-06 -7.04988e-06 -7.55232e-05
2.26988e-06 -4.93212e-07 -7.6143e-07 -7.69797e-05
2.22505e-06 -4.56688e-07 -7.57868e-07 -7.74299e-05
-1.62895e-05 4.40536e-06 5.09321e-06 -7.61932e-05
-1.27337e-05 3.10991e-06 4.12447e-06 -7.75372e-05
1.69104e-05 -3.84127e-06 -5.60105e-06 -7.72844e-05
2.06862e-05 -5.27278e-06 -6.60574e-06 -7.59891e-05
-1.45814e-05 3.7732e-06 4.6321e-06 -7.67998e-05
2.05964e-06 -3.51505e-07 -7.32059e-07 -7.94546e-05
1.88729e-05 -4.56952e-06 -6.13e-06 -7.657e-05
2.17483e-06 -4.19654e-07 -7.52219e-07 -7.79762e-05
2.11958e-06 -3.83488e-07 -7.44039e-07 -7.86341e-05
-1.27337e-05 3.10991e-06 4.12447e-06 -7.75372e-05
-9.07404e-06 1.81352e-06 3.11165e-06 -7.927e-05
1.30086e-05 -2.45975e-06 -4.52094e-06 -7.89842e-05
1.69104e-05 -3.84127e-06 -5.60105e-06 -7.72844e-05
-1.086e-05 2.42067e-06 3.61684e-06 -7.83715e-05
1.93716e-06 -3.15162e-07 -6.95141e-07 -8.13135e-05
1.49164e-05 -3.09899e-06 -5.06461e-06 -7.80991e-05
2.05964e-06 -3.51505e-07 -7.32059e-07 -7.94546e-05
1.99788e-06 -3.27487e-07 -7.15883e-07 -8.03876e-05
-9.07404e-06 1.81352e-06 3.11165e-06 -7.927e-05
-5.3113e-06 1.20177e-06 1.76123e-06 -8.09576e-05
9.02368e-06 -1.89147e-06 -3.05666e-06 -8.0685e-05
1.30086e-05 -2.45975e-06 -4.52094e-06 -7.89842e-05
-7.26233e-06 1.39986e-06 2.51249e-06 -8.01652e-05
1.83063e-06 -3.47393e-07 -6.35672e-07 -8.28992e-05
1.108e-05 -2.04551e-06 -3.87193e-06 -7.98777e-05
1.93716e-06 -3.15162e-07 -6.95141e-07 -8.13135e-05
1.88042e-06 -3.19109e-07 -6.69135e-07 -8.21508e-05
-5.3113e-06 1.20177e-06 1.76123e-06 -8.09576e-05
-2.6561e-06 2.04668e-06 2.61179e-07 -8.09906e-05
6.24775e-06 -3.0203e-06 -1.38319e-06 -8.08035e-05
9.02368e-06 -1.89147e-06 -3.05666e-06 -8.0685e-05
-3.63715e-06 1.29342e-06 1.00446e-06 -8.13439e-05
1.78761e-06 -5.07455e-07 -5.48639e-07 -8.24858e-05
7.26959e-06 -2.0864e-06 -2.22137e-06 -8.11035e-05
1.83063e-06 -3.47393e-07 -6.35672e-07 -8.28992e-05
1.79671e-06 -4.08294e-07 -5.95036e-07 -8.32069e-05
-2.6561e-06 2.04668e-06 2.61179e-07 -8.09906e-05
-1.16755e-06 5.96099e-06 -2.05433e-06 -7.64101e-05
4.8359e-06 -7.58214e-06 1.17696e-06 -7.63892e-05
6.24775e-06 -3.0203e-06 -1.38319e-06 -8.08035e-05
-1.96672e-06 3.73758e-06 -7.58943e-07 -7.95156e-05
1.84542e-06 -8.37427e-07 -4.31996e-07 -7.71789e-05
5.56692e-06 -4.98544e-06 -2.49205e-07 -7.9404e-05
1.78761e-06 -5.07455e-07 -5.48639e-07 -8.24858e-05
1.80371e-06 -6.49475e-07 -4.94673e-07 -8.04663e-05
-1.16755e-06 5.96099e-06 -2.05433e-06 -7.64101e-05
-2.28036e-06 1.10051e-05 -3.73917e-06 -6.23416e-05
6.28469e-06 -1.36286e-05 3.1474e-06 -6.25325e-05
4.8359e-06 -7.58214e-06 1.17696e-06 -7.63892e-05
-1.01875e-06 8.30416e-06 -3.12232e-06 -7.08875e-05
2.04524e-06 -1.36379e-06 -2.92053e-07 -6.32905e-05
4.82002e-06 -1.03939e-05 2.38879e-06 -7.09658e-05
1.84542e-06 -8.37427e-07 -4.31996e-07 -7.71789e-05
1.9226e-06 -1.07424e-06 -3.63583e-07 -7.18825e-05
-2.28036e-06 1.10051e-05 -3.73917e-06 -6.23416e-05
-5.59074e-06 1.83819e-05 -5.48191e-06 -3.57669e-05
1.00934e-05 -2.20568e-05 5.12717e-06 -3.56328e-05
6.28469e-06 -1.36286e-05 3.1474e-06 -6.25325e-05
-4.09139e-06 1.43768e-05 -4.40804e-06 -5.06965e-05
2.3979e-06 -1.74121e-06 -2.81437e-07 -3.46693e-05
8.33931e-06 -1.75547e-05 3.94944e-06 -5.08628e-05
2.04524e-06 -1.36379e-06 -2.92053e-07 -6.32905e-05
2.20606e-06 -1.66313e-06 -2.32685e-07 -5.08729e-05
0.000481953 0 -0.000206551 0.000278995
0.00049139 -6.95668e-05 -0.000180781 9.22849e-05
0.00153541 -0.000204687 -0.000570312 -7.5048e-06
0.00135653 0 -0.000581369 0.000176406
0.000470815 -2.97123e-05 -0.000189044 0.000175971
0.00101299 -0.000137305 -0.000375295 5.36358e-05
0.00147082 -0.000115174 -0.00058099 6.52665e-05
0.000898952 0 -0.000385265 0.000254137
0.000970239 -6.53777e-05 -0.000387798 0.000125353
0.00049139 -6.95668e-05 -0.000180781 9.22849e-05
0.000530927 -0.000114609 -0.000178422 -1.9727e-05
0.00161458 -0.000374291 -0.000531551 -6.46334e-05
0.00153541 -0.000204687 -0.000570312 -7.5048e-06
0.000519492 -9.64614e-05 -0.000181299 2.64142e-05
0.00106598 -0.00023553 -0.000355908 -3.58621e-05
0.00157506 -0.000294825 -0.000548673 -4.43115e-05
0.00101299 -0.000137305 -0.000375295 5.36358e-05
0.00104047 -0.000193217 -0.000363107 5.18926e-06
0.000530927 -0.000114609 -0.000178422 -1.9727e-05
0.000542975 -0.000148083 -0.000169239 -7.04736e-05
0.00165508 -0.000460468 -0.000511978 -7.55092e-05
0.00161458 -0.000374291 -0.000531551 -6.46334e-05
0.000535486 -0.000132456 -0.000172727 -5.03241e-05
0.0010972 -0.0002985 -0.000342299 -7.44012e-05
0.00164443 -0.000427657 -0.000521472 -7.45931e-05
0.00106598 -0.00023553 -0.000355908 -3.58621e-05
0.00108605 -0.000270958 -0.000349327 -6.24992e-05
0.000542975 -0.000148083 -0.000169239 -7.04736e-05
0.000549487 -0.000164185 -0.000165129 -8.8524e-05
0.00165408 -0.000494712 -0.000496873 -6.96545e-05
0.00165508 -0.000460468 -0.000511978 -7.55092e-05
0.000549078 -0.000158175 -0.00016753 -8.25773e-05
0.00110286 -0.000326906 -0.000332554 -8.28186e-05
0.00165536 -0.000481903 -0.00050291 -7.22567e-05
0.0010972 -0.0002985 -0.000342299 -7.44012e-05
0.00110195 -0.000316319 -0.000336699 -7.97099e-05
0.000549487 -0.000164185 -0.000165129 -8.8524e-05
0.000546211 -0.00017068 -0.000160942 -9.03824e-05
0.00164277 -0.000501611 -0.000489069 -6.55943e-05
0.00165408 -0.000494712 -0.000496873 -6.96545e-05
0.000547447 -0.000168276 -0.000162502 -9.0464e-05
0.00109673 -0.000336522 -0.000325803 -8.13681e-05
0.00165023 -0.000500364 -0.0004928 -6.76306e-05
0.00110286 -0.000326906 -0.000332554 -8.28186e-05
0.00110083 -0.000333311 -0.000328936 -8.31013e-05
0.000546211 -0.00017068 -0.000160942 -9.03824e-05
0.000541889 -0.000170971 -0.000158965 -8.71066e-05
0.00162657 -0.000499383 -0.000483078 -6.28655e-05
0.00164277 -0.000501611 -0.000489069 -6.55943e-05
0.000544712 -0.000171342 -0.000160016 -8.90689e-05
0.00108617 -0.000336176 -0.000321425 -7.78549e-05
0.00163409 -0.000501053 -0.000485588 -6.38244e-05
0.00109673 -0.000336522 -0.000325803 -8.13681e-05
0.00109152 -0.000337124 -0.000323314 -7.9378e-05
0.000541889 -0.000170971 -0.000158965 -8.71066e-05
0.000536185 -0.000169477 -0.00015716 -8.29177e-05
0.00161239 -0.00049402 -0.000479302 -6.19757e-05
0.00162657 -0.000499383 -0.000483078 -6.28655e-05
0.000538719 -0.000170312 -0.000157889 -8.49246e-05
0.0010757 -0.000332869 -0.000318355 -7.47501e-05
0.00161955 -0.000496874 -0.000481146 -6.23736e-05
0.00108617 -0.000336176 -0.000321425 -7.78549e-05
0.00108084 -0.00033467 -0.000319786 -7.63095e-05
0.000536185 -0.000169477 -0.00015716 -8.29177e-05
0.000531505 -0.000167388 -0.00015605 -7.96012e-05
0.00159946 -0.000488687 -0.000476044 -6.15907e-05
0.00161239 -0.00049402 -0.000479302 -6.19757e-05
0.000533906 -0.000168457 -0.000156621 -8.11338e-05
0.00106634 -0.000328877 -0.000316056 -7.25857e-05
0.00160554 -0.000491272 -0.000477545 -6.16879e-05
0.0010757 -0.000332869 -0.000318355 -7.47501e-05
0.00107083 -0.000330877 -0.000317125 -7.34898e-05
0.000531505 -0.000167388 -0.00015605 -7.96012e-05
0.000527194 -0.000165515 -0.000155005 -7.73166e-05
0.00158842 -0.000483957 -0.00047334 -6.15949e-05
0.00159946 -0.000488687 -0.000476044 -6.15907e-05
0.000529196 -0.000166409 -0.00015548 -7.83242e-05
0.00105828 -0.00032534 -0.000314118 -7.12242e-05
0.00159384 -0.000486237 -0.000474688 -6.1592e-05
0.00106634 -0.000328877 -0.000316056 -7.25857e-05
0.00106217 -0.000327031 -0.000315061 -7.18457e-05
0.000527194 -0.000165515 -0.000155005 -7.73166e-05
0.000523572 -0.000163899 -0.000154145 -7.59198e-05
0.00157835 -0.000479973 -0.000470735 -6.16472e-05
0.00158842 -0.000483957 -0.00047334 -6.15949e-05
0.000525364 -0.000164676 -0.00015458 -7.6529e-05
0.00105119 -0.000322334 -0.000312365 -7.04453e-05
0.00158323 -0.000481879 -0.00047201 -6.16074e-05
0.00105828 -0.00032534 -0.000314118 -7.12242e-05
0.00105463 -0.000323775 -0.000313225 -7.07635e-05
0.000523572 -0.000163899 -0.000154145 -7.59198e-05
0.000520249 -0.00016255 -0.0001533 -7.51145e-05
0.00156909 -0.00047653 -0.000468239 -6.17368e-05
0.00157835 -0.000479973 -0.000470735 -6.16472e-05
0.000521854 -0.000163195 -0.000153711 -7.54565e-05
0.00104474 -0.000319811 -0.000310686 -7.00229e-05
0.00157367 -0.000478197 -0.00046949 -6.1697e-05
0.00105119 -0.000322334 -0.000312365 -7.04453e-05
0.0010479 -0.000321021 -0.000311521 -7.02064e-05
0.000520249 -0.00016255 -0.0001533 -7.51145e-05
0.000517201 -0.000161376 -0.000152496 -7.46839e-05
0.00156021 -0.000473461 -0.000465749 -6.18042e-05
0.00156909 -0.00047653 -0.000468239 -6.17368e-05
0.000518712 -0.000161946 -0.0001529 -7.4865e-05
0.0010387 -0.000317607 -0.000309038 -6.98139e-05
0.0015646 -0.000474959 -0.000466989 -6.17709e-05
0.00104474 -0.000319811 -0.000310686 -7.00229e-05
0.00104168 -0.000318677 -0.00030986 -6.98962e-05
0.000517201 -0.000161376 -0.000152496 -7.46839e-05
0.000514275 -0.000160323 -0.000151694 -7.44655e-05
0.00155158 -0.000470615 -0.000463271 -6.18587e-05
0.00156021 -0.000473461 -0.000465749 -6.18042e-05
0.000515721 -0.000160838 -0.000152093 -7.45551e-05
0.00103288 -0.000315612 -0.000307399 -6.97174e-05
0.00155588 -0.000472017 -0.000464512 -6.18345e-05
0.0010387 -0.000317607 -0.000309038 -6.98139e-05
0.00103577 -0.00031659 -0.000308218 -6.97571e-05
0.000514275 -0.000160323 -0.000151694 -7.44655e-05
0.000511438 -0.000159339 -0.000150899 -7.43633e-05
0.00154307 -0.0004679 -0.000460787 -6.18953e-05
0.00155158 -0.000470615 -0.000463271 -6.18587e-05
0.000512852 -0.000159825 -0.000151297 -7.44045e-05
0.00102718 -0.000313737 -0.000305761 -6.96798e-05
0.00154731 -0.000469245 -0.000462029 -6.18784e-05
0.00103288 -0.000315612 -0.000307399 -6.97174e-05
0.00103002 -0.000314663 -0.00030658 -6.96931e-05
0.000511438 -0.000159339 -0.000150899 -7.43633e-05
0.000508639 -0.000158398 -0.000150104 -7.43196e-05
0.00153462 -0.000465255 -0.000458301 -6.19208e-05
0.00154307 -0.0004679 -0.000460787 -6.18953e-05
0.000510034 -0.000158865 -0.000150501 -7.43365e-05
0.00102155 -0.00031193 -0.000304122 -6.96687e-05
0.00153884 -0.000466571 -0.000459545 -6.19096e-05
0.00102718 -0.000313737 -0.000305761 -6.96798e-05
0.00102436 -0.000312827 -0.000304942 -6.96725e-05
0.000508639 -0.000158398 -0.000150104 -7.43196e-05
0.000505866 -0.000157479 -0.000149309 -7.43037e-05
0.00152621 -0.000462647 -0.000455811 -6.19373e-05
0.00153462 -0.000465255 -0.000458301 -6.19208e-05
0.000507251 -0.000157936 -0.000149706 -7.43095e-05
0.00101595 -0.000310159 -0.000302481 -6.96691e-05
0.00153041 -0.000463947 -0.000457056 -6.19299e-05
0.00102155 -0.00031193 -0.000304122 -6.96687e-05
0.00101874 -0.000311041 -0.000303302 -6.9668e-05
0.000505866 -0.000157479 -0.000149309 -7.43037e-05
0.000503103 -0.000156574 -0.000148512 -7.42997e-05
0.0015178 -0.000460058 -0.000453319 -6.19479e-05
0.00152621 -0.000462647 -0.000455811 -6.19373e-05
0.000504483 -0.000157025 -0.00014891 -7.43008e-05
0.00101036 -0.000308408 -0.000300838 -6.96727e-05
0.001522 -0.000461351 -0.000454565 -6.19432e-05
0.00101595 -0.000310159 -0.000302481 -6.96691e-05
0.00101315 -0.000309282 -0.000301659 -6.96708e-05
0.000503103 -0.000156574 -0.000148512 -7.42997e-05
0.000500347 -0.000155677 -0.000147716 -7.43002e-05
0.0015094 -0.000457479 -0.000450825 -6.19544e-05
0.0015178 -0.000460058 -0.000453319 -6.19479e-05
0.000501725 -0.000156125 -0.000148114 -7.42997e-05
0.00100479 -0.000306668 -0.000299194 -6.96767e-05
0.0015136 -0.000458767 -0.000452072 -6.19515e-05
0.00101036 -0.000308408 -0.000300838 -6.96727e-05
0.00100757 -0.000307537 -0.000300016 -6.96748e-05
0.000500347 -0.000155677 -0.000147716 -7.43002e-05
0.000497594 -0.000154783 -0.000146919 -7.43017e-05
0.00150101 -0.000454904 -0.00044833 -6.19582e-05
0.0015094 -0.000457479 -0.000450825 -6.19544e-05
0.00049897 -0.00015523 -0.000147317 -7.43009e-05
0.000999212 -0.000304932 -0.000297548 -6.96798e-05
0.0015052 -0.000456191 -0.000449577 -6.19566e-05
0.00100479 -0.000306668 -0.000299194 -6.96767e-05
0.001002 -0.000305799 -0.000298371 -6.96784e-05
0.000497594 -0.000154783 -0.000146919 -7.43017e-05
0.000494842 -0.000153893 -0.000146121 -7.4303e-05
0.00149261 -0.000452331 -0.000445834 -6.19602e-05
0.00150101 -0.000454904 -0.00044833 -6.19582e-05
0.000496218 -0.000154338 -0.00014652 -7.43024e-05
0.000993638 -0.000303199 -0.000295902 -6.96817e-05
0.00149681 -0.000453617 -0.000447082 -6.19594e-05
0.000999212 -0.000304932 -0.000297548 -6.96798e-05
0.000996425 -0.000304065 -0.000296726 -6.96809e-05
0.000494842 -0.000153893 -0.000146121 -7.4303e-05
0.000492092 -0.000153004 -0.000145323 -7.43037e-05
0.00148421 -0.000449759 -0.000443337 -6.1961e-05
0.00149261 -0.000452331 -0.000445834 -6.19602e-05
0.000493467 -0.000153448 -0.000145722 -7.43034e-05
0.000988065 -0.000301468 -0.000294256 -6.96827e-05
0.00148841 -0.000451045 -0.000444585 -6.19607e-05
0.000993638 -0.000303199 -0.000295902 -6.96817e-05
0.000990852 -0.000302334 -0.000295079 -6.96823e-05
0.000492092 -0.000153004 -0.000145323 -7.43037e-05
0.000489341 -0.000152117 -0.000144525 -7.43039e-05
0.00147581 -0.000447188 -0.00044084 -6.19611e-05
0.00148421 -0.000449759 -0.000443337 -6.1961e-05
0.000490716 -0.00015256 -0.000144924 -7.43039e-05
0.000982492 -0.000299738 -0.000292609 -6.96829e-05
0.00148001 -0.000448474 -0.000442088 -6.19611e-05
0.000988065 -0.000301468 -0.000294256 -6.96827e-05
0.000985279 -0.000300603 -0.000293433 -6.96829e-05
0.000489341 -0.000152117 -0.000144525 -7.43039e-05
0.00048659 -0.00015123 -0.000143726 -7.43037e-05
0.00146742 -0.000444618 -0.000438342 -6.19607e-05
0.00147581 -0.000447188 -0.00044084 -6.19611e-05
0.000487965 -0.000151673 -0.000144125 -7.43039e-05
0.000976919 -0.000298009 -0.000290962 -6.96827e-05
0.00147162 -0.000445903 -0.000439591 -6.1961e-05
0.000982492 -0.000299738 -0.000292609 -6.96829e-05
0.000979706 -0.000298873 -0.000291785 -6.96829e-05
0.00048659 -0.00015123 -0.000143726 -7.43037e-05
0.000483839 -0.000150344 -0.000142926 -7.43033e-05
0.00145902 -0.000442048 -0.000435845 -6.196e-05
0.00146742 -0.000444618 -0.000438342 -6.19607e-05
0.000485215 -0.000150787 -0.000143326 -7.43035e-05
0.000971346 -0.000296279 -0.000289314 -6.96821e-05
0.00146322 -0.000443333 -0.000437093 -6.19604e-05
0.000976919 -0.000298009 -0.000290962 -6.96827e-05
0.000974132 -0.000297144 -0.000290138 -6.96825e-05
0.000483839 -0.000150344 -0.000142926 -7.43033e-05
0.000481088 -0.000149458 -0.000142127 -7.43026e-05
0.00145062 -0.000439478 -0.000433346 -6.19592e-05
0.00145902 -0.000442048 -0.000435845 -6.196e-05
0.000482463 -0.000149901 -0.000142527 -7.4303e-05
0.000965772 -0.000294551 -0.000287666 -6.96814e-05
0.00145482 -0.000440763 -0.000434596 -6.19596e-05
0.000971346 -0.000296279 -0.000289314 -6.96821e-05
0.000968559 -0.000295415 -0.00028849 -6.96818e-05
0.000481088 -0.000149458 -0.000142127 -7.43026e-05
0.000478336 -0.000148573 -0.000141327 -7.43019e-05
0.00144222 -0.000436909 -0.000430848 -6.19582e-05
0.00145062 -0.000439478 -0.000433346 -6.19592e-05
0.000479712 -0.000149016 -0.000141727 -7.43022e-05
0.000960197 -0.000292823 -0.000286018 -6.96805e-05
0.00144642 -0.000438193 -0.000432097 -6.19587e-05
0.000965772 -0.000294551 -0.000287666 -6.96814e-05
0.000962985 -0.000293687 -0.000286842 -6.96809e-05
0.000478336 -0.000148573 -0.000141327 -7.43019e-05
0.000475584 -0.000147688 -0.000140527 -7.4301e-05
0.00143382 -0.000434339 -0.00042835 -6.19572e-05
0.00144222 -0.000436909 -0.000430848 -6.19582e-05
0.00047696 -0.000148131 -0.000140927 -7.43014e-05
0.000954623 -0.000291094 -0.000284369 -6.96795e-05
0.00143802 -0.000435624 -0.000429599 -6.19577e-05
0.000960197 -0.000292823 -0.000286018 -6.96805e-05
0.00095741 -0.000291958 -0.000285194 -6.968e-05
0.000475584 -0.000147688 -0.000140527 -7.4301e-05
0.000472832 -0.000146804 -0.000139726 -7.43001e-05
0.00142542 -0.00043177 -0.000425851 -6.19562e-05
0.00143382 -0.000434339 -0.00042835 -6.19572e-05
0.000474208 -0.000147246 -0.000140127 -7.43006e-05
0.000949048 -0.000289367 -0.00028272 -6.96785e-05
0.00142962 -0.000433055 -0.0004271 -6.19567e-05
0.000954623 -0.000291094 -0.000284369 -6.96795e-05
0.000951835 -0.000290231 -0.000283545 -6.9679e-05
0.000472832 -0.000146804 -0.000139726 -7.43001e-05
0.000470079 -0.000145919 -0.000138926 -7.42992e-05
0.00141702 -0.000429201 -0.000423352 -6.19551e-05
0.00142542 -0.00043177 -0.000425851 -6.19562e-05
0.000471456 -0.000146362 -0.000139326 -7.42997e-05
0.000943472 -0.000287639 -0.000281071 -6.96775e-05
0.00142122 -0.000430486 -0.000424601 -6.19557e-05
0.000949048 -0.000289367 -0.00028272 -6.96785e-05
0.00094626 -0.000288503 -0.000281896 -6.9678e-05
0.000470079 -0.000145919 -0.000138926 -7.42992e-05
0.000467326 -0.000145035 -0.000138125 -7.42983e-05
0.00140862 -0.000426633 -0.000420853 -6.19541e-05
0.00141702 -0.000429201 -0.000423352 -6.19551e-05
0.000468703 -0.000145477 -0.000138525 -7.42988e-05
0.000937897 -0.000285912 -0.000279422 -6.96765e-05
0.00141282 -0.000427917 -0.000422102 -6.19546e-05
0.000943472 -0.000287639 -0.000281071 -6.96775e-05
0.000940685 -0.000286775 -0.000280247 -6.9677e-05
0.000467326 -0.000145035 -0.000138125 -7.42983e-05
0.000464572 -0.000144151 -0.000137323 -7.42973e-05
0.00140022 -0.000424064 -0.000418353 -6.1953e-05
0.00140862 -0.000426633 -0.000420853 -6.19541e-05
0.000465949 -0.000144593 -0.000137724 -7.42978e-05
0.000932321 -0.000284185 -0.000277773 -6.96755e-05
0.00140442 -0.000425349 -0.000419603 -6.19536e-05
0.000937897 -0.000285912 -0.000279422 -6.96765e-05
0.000935109 -0.000285048 -0.000278597 -6.9676e-05
0.000464572 -0.000144151 -0.000137323 -7.42973e-05
0.000461818 -0.000143268 -0.000136522 -7.42964e-05
0.00139182 -0.000421496 -0.000415854 -6.1952e-05
0.00140022 -0.000424064 -0.000418353 -6.1953e-05
0.000463195 -0.000143709 -0.000136923 -7.42969e-05
0.000926744 -0.000282458 -0.000276123 -6.96744e-05
0.00139602 -0.00042278 -0.000417104 -6.19525e-05
0.000932321 -0.000284185 -0.000277773 -6.96755e-05
0.000929533 -0.000283321 -0.000276948 -6.9675e-05
0.000461818 -0.000143268 -0.000136522 -7.42964e-05
0.000459064 -0.000142384 -0.00013572 -7.42954e-05
0.00138342 -0.000418928 -0.000413354 -6.19509e-05
0.00139182 -0.000421496 -0.000415854 -6.1952e-05
0.000460441 -0.000142826 -0.000136121 -7.42959e-05
0.000921168 -0.000280731 -0.000274473 -6.96734e-05
0.00138762 -0.000420212 -0.000414604 -6.19514e-05
0.000926744 -0.000282458 -0.000276123 -6.96744e-05
0.000923956 -0.000281594 -0.000275298 -6.96739e-05
0.000459064 -0.000142384 -0.00013572 -7.42954e-05
0.00045631 -0.000141501 -0.000134918 -7.42944e-05
0.00137502 -0.00041636 -0.000410854 -6.19498e-05
0.00138342 -0.000418928 -0.000413354 -6.19509e-05
0.000457687 -0.000141943 -0.000135319 -7.42949e-05
0.000915591 -0.000279005 -0.000272823 -6.96723e-05
0.00137922 -0.000417644 -0.000412104 -6.19504e-05
0.000921168 -0.000280731 -0.000274473 -6.96734e-05
0.000918379 -0.000279868 -0.000273648 -6.96728e-05
0.00045631 -0.000141501 -0.000134918 -7.42944e-05
0.000453554 -0.000140618 -0.000134116 -7.42934e-05
0.00136662 -0.000413793 -0.000408354 -6.19488e-05
0.00137502 -0.00041636 -0.000410854 -6.19498e-05
0.000454932 -0.000141059 -0.000134517 -7.42939e-05
0.000910013 -0.000277278 -0.000271172 -6.96712e-05
0.00137082 -0.000415076 -0.000409604 -6.19493e-05
0.000915591 -0.000279005 -0.000272823 -6.96723e-05
0.000912802 -0.000278141 -0.000271997 -6.96718e-05
0.000453554 -0.000140618 -0.000134116 -7.42934e-05
0.000450799 -0.000139735 -0.000133313 -7.42924e-05
0.00135822 -0.000411225 -0.000405854 -6.19477e-05
0.00136662 -0.000413793 -0.000408354 -6.19488e-05
0.000452177 -0.000140177 -0.000133714 -7.42929e-05
0.000904436 -0.000275552 -0.000269521 -6.96702e-05
0.00136242 -0.000412509 -0.000407104 -6.19482e-05
0.000910013 -0.000277278 -0.000271172 -6.96712e-05
0.000907225 -0.000276415 -0.000270347 -6.96707e-05
0.000450799 -0.000139735 -0.000133313 -7.42924e-05
0.000448043 -0.000138853 -0.00013251 -7.42914e-05
0.00134981 -0.000408658 -0.000403353 -6.19466e-05
0.00135822 -0.000411225 -0.000405854 -6.19477e-05
0.000449421 -0.000139294 -0.000132912 -7.42919e-05
0.000898858 -0.000273827 -0.000267871 -6.96691e-05
0.00135402 -0.000409941 -0.000404603 -6.19471e-05
0.000904436 -0.000275552 -0.000269521 -6.96702e-05
0.000901647 -0.000274689 -0.000268696 -6.96696e-05
0.000448043 -0.000138853 -0.00013251 -7.42914e-05
0.000445287 -0.00013797 -0.000131707 -7.42903e-05
0.00134141 -0.000406091 -0.000400852 -6.19455e-05
0.00134981 -0.000408658 -0.000403353 -6.19466e-05
0.000446665 -0.000138411 -0.000132109 -7.42909e-05
0.00089328 -0.000272101 -0.000266219 -6.96679e-05
0.00134561 -0.000407374 -0.000402103 -6.1946e-05
0.000898858 -0.000273827 -0.000267871 -6.96691e-05
0.000896069 -0.000272964 -0.000267045 -6.96685e-05
0.000445287 -0.00013797 -0.000131707 -7.42903e-05
0.000442531 -0.000137088 -0.000130904 -7.42893e-05
0.00133301 -0.000403524 -0.000398351 -6.19444e-05
0.00134141 -0.000406091 -0.000400852 -6.19455e-05
0.000443909 -0.000137529 -0.000131306 -7.42898e-05
0.000887701 -0.000270376 -0.000264568 -6.96668e-05
0.00133721 -0.000404807 -0.000399602 -6.19449e-05
0.00089328 -0.000272101 -0.000266219 -6.96679e-05
0.00089049 -0.000271238 -0.000265394 -6.96674e-05
0.000442531 -0.000137088 -0.000130904 -7.42893e-05
0.000439774 -0.000136206 -0.0001301 -7.42882e-05
0.00132461 -0.000400958 -0.00039585 -6.19432e-05
0.00133301 -0.000403524 -0.000398351 -6.19444e-05
0.000441152 -0.000136647 -0.000130502 -7.42888e-05
0.000882122 -0.000268651 -0.000262916 -6.96657e-05
0.00132881 -0.000402241 -0.000397101 -6.19438e-05
0.000887701 -0.000270376 -0.000264568 -6.96668e-05
0.000884912 -0.000269513 -0.000263742 -6.96663e-05
0.000439774 -0.000136206 -0.0001301 -7.42882e-05
0.000437017 -0.000135325 -0.000129296 -7.42871e-05
0.0013162 -0.000398391 -0.000393349 -6.19421e-05
0.00132461 -0.000400958 -0.00039585 -6.19432e-05
0.000438395 -0.000135766 -0.000129698 -7.42877e-05
0.000876543 -0.000266926 -0.000261265 -6.96645e-05
0.00132041 -0.000399674 -0.000394599 -6.19427e-05
0.000882122 -0.000268651 -0.000262916 -6.96657e-05
0.000879333 -0.000267788 -0.00026209 -6.96651e-05
0.000437017 -0.000135325 -0.000129296 -7.42871e-05
0.000434259 -0.000134443 -0.000128492 -7.4286e-05
0.0013078 -0.000395825 -0.000390847 -6.1941e-05
0.0013162 -0.000398391 -0.000393349 -6.19421e-05
0.000435638 -0.000134884 -0.000128894 -7.42866e-05
0.000870964 -0.000265201 -0.000259612 -6.96634e-05
0.001312 -0.000397108 -0.000392098 -6.19415e-05
0.000876543 -0.000266926 -0.000261265 -6.96645e-05
0.000873753 -0.000266064 -0.000260439 -6.9664e-05
0.000434259 -0.000134443 -0.000128492 -7.4286e-05
0.000431501 -0.000133562 -0.000127688 -7.42849e-05
0.0012994 -0.000393259 -0.000388345 -6.19398e-05
0.0013078 -0.000395825 -0.000390847 -6.1941e-05
0.00043288 -0.000134003 -0.00012809 -7.42855e-05
0.000865384 -0.000263477 -0.00025796 -6.96622e-05
0.0013036 -0.000394542 -0.000389596 -6.19404e-05
0.000870964 -0.000265201 -0.000259612 -6.96634e-05
0.000868174 -0.000264339 -0.000258786 -6.96628e-05
0.000431501 -0.000133562 -0.000127688 -7.42849e-05
0.000428743 -0.000132681 -0.000126883 -7.42838e-05
0.00129099 -0.000390693 -0.000385844 -6.19386e-05
0.0012994 -0.000393259 -0.000388345 -6.19398e-05
0.000430122 -0.000133122 -0.000127286 -7.42843e-05
0.000859804 -0.000261753 -0.000256308 -6.9661e-05
0.0012952 -0.000391976 -0.000387095 -6.19392e-05
0.000865384 -0.000263477 -0.00025796 -6.96622e-05
0.000862594 -0.000262615 -0.000257134 -6.96616e-05
0.000428743 -0.000132681 -0.000126883 -7.42838e-05
0.000425984 -0.000131801 -0.000126078 -7.42826e-05
0.00128259 -0.000388128 -0.000383341 -6.19374e-05
0.00129099 -0.000390693 -0.000385844 -6.19386e-05
0.000427363 -0.000132241 -0.000126481 -7.42832e-05
0.000854223 -0.000260029 -0.000254655 -6.96598e-05
0.00128679 -0.000389411 -0.000384592 -6.1938e-05
0.000859804 -0.000261753 -0.000256308 -6.9661e-05
0.000857014 -0.000260891 -0.000255481 -6.96604e-05
0.000425984 -0.000131801 -0.000126078 -7.42826e-05
0.000423225 -0.00013092 -0.000125273 -7.42815e-05
0.00127419 -0.000385563 -0.000380839 -6.19363e-05
0.00128259 -0.000388128 -0.000383341 -6.19374e-05
0.000424605 -0.000131361 -0.000125676 -7.42821e-05
0.000848643 -0.000258305 -0.000253002 -6.96586e-05
0.00127839 -0.000386845 -0.00038209 -6.19368e-05
0.000854223 -0.000260029 -0.000254655 -6.96598e-05
0.000851433 -0.000259167 -0.000253828 -6.96592e-05
0.000423225 -0.00013092 -0.000125273 -7.42815e-05
0.000420466 -0.00013004 -0.000124468 -7.42803e-05
0.00126578 -0.000382998 -0.000378336 -6.1935e-05
0.00127419 -0.000385563 -0.000380839 -6.19363e-05
0.000421845 -0.00013048 -0.000124871 -7.42809e-05
0.000843062 -0.000256582 -0.000251349 -6.96574e-05
0.00126998 -0.00038428 -0.000379588 -6.19357e-05
0.000848643 -0.000258305 -0.000253002 -6.96586e-05
0.000845852 -0.000257443 -0.000252175 -6.9658e-05
0.000420466 -0.00013004 -0.000124468 -7.42803e-05
0.000417706 -0.00012916 -0.000123662 -7.42792e-05
0.00125738 -0.000380433 -0.000375834 -6.19338e-05
0.00126578 -0.000382998 -0.000378336 -6.1935e-05
0.000419086 -0.0001296 -0.000124065 -7.42797e-05
0.00083748 -0.000254858 -0.000249695 -6.96561e-05
0.00126158 -0.000381715 -0.000377085 -6.19344e-05
0.000843062 -0.000256582 -0.000251349 -6.96574e-05
0.000840271 -0.00025572 -0.000250522 -6.96568e-05
0.000417706 -0.00012916 -0.000123662 -7.42792e-05
0.000414946 -0.000128281 -0.000122856 -7.4278e-05
0.00124897 -0.000377868 -0.000373331 -6.19326e-05
0.00125738 -0.000380433 -0.000375834 -6.19338e-05
0.000416326 -0.000128721 -0.000123259 -7.42786e-05
0.000831899 -0.000253136 -0.000248041 -6.96549e-05
0.00125318 -0.00037915 -0.000374582 -6.19332e-05
0.00083748 -0.000254858 -0.000249695 -6.96561e-05
0.00083469 -0.000253997 -0.000248868 -6.96555e-05
0.000414946 -0.000128281 -0.000122856 -7.4278e-05
0.000412185 -0.000127401 -0.00012205 -7.42768e-05
0.00124057 -0.000375304 -0.000370828 -6.19314e-05
0.00124897 -0.000377868 -0.000373331 -6.19326e-05
0.000413566 -0.000127841 -0.000122453 -7.42774e-05
0.000826317 -0.000251413 -0.000246387 -6.96536e-05
0.00124477 -0.000376586 -0.000372079 -6.1932e-05
0.000831899 -0.000253136 -0.000248041 -6.96549e-05
0.000829108 -0.000252274 -0.000247214 -6.96543e-05
0.000412185 -0.000127401 -0.00012205 -7.42768e-05
0.000409424 -0.000126522 -0.000121244 -7.42756e-05
0.00123216 -0.00037274 -0.000368324 -6.19301e-05
0.00124057 -0.000375304 -0.000370828 -6.19314e-05
0.000410805 -0.000126962 -0.000121647 -7.42762e-05
0.000820735 -0.00024969 -0.000244733 -6.96524e-05
0.00123637 -0.000374022 -0.000369576 -6.19308e-05
0.000826317 -0.000251413 -0.000246387 -6.96536e-05
0.000823526 -0.000250552 -0.00024556 -6.9653e-05
0.000409424 -0.000126522 -0.000121244 -7.42756e-05
0.000406663 -0.000125643 -0.000120437 -7.42743e-05
0.00122376 -0.000370176 -0.000365821 -6.19289e-05
0.00123216 -0.00037274 -0.000368324 -6.19301e-05
0.000408044 -0.000126083 -0.000120841 -7.42749e-05
0.000815152 -0.000247968 -0.000243079 -6.96511e-05
0.00122796 -0.000371458 -0.000367073 -6.19295e-05
0.000820735 -0.00024969 -0.000244733 -6.96524e-05
0.000817943 -0.000248829 -0.000243906 -6.96517e-05
0.000406663 -0.000125643 -0.000120437 -7.42743e-05
0.000403902 -0.000124764 -0.00011963 -7.42731e-05
0.00121535 -0.000367612 -0.000363317 -6.19276e-05
0.00122376 -0.000370176 -0.000365821 -6.19289e-05
0.000405283 -0.000125204 -0.000120034 -7.42737e-05
0.000809569 -0.000246246 -0.000241424 -6.96498e-05
0.00121955 -0.000368894 -0.000364569 -6.19283e-05
0.000815152 -0.000247968 -0.000243079 -6.96511e-05
0.000812361 -0.000247107 -0.000242252 -6.96505e-05
0.000403902 -0.000124764 -0.00011963 -7.42731e-05
0.00040114 -0.000123886 -0.000118823 -7.42719e-05
0.00120695 -0.000365049 -0.000360813 -6.19264e-05
0.00121535 -0.000367612 -0.000363317 -6.19276e-05
0.000402521 -0.000124325 -0.000119227 -7.42725e-05
0.000803986 -0.000244524 -0.000239769 -6.96485e-05
0.00121115 -0.00036633 -0.000362065 -6.1927e-05
0.000809569 -0.000246246 -0.000241424 -6.96498e-05
0.000806778 -0.000245385 -0.000240597 -6.96492e-05
0.00040114 -0.000123886 -0.000118823 -7.42719e-05
0.000398378 -0.000123008 -0.000118016 -7.42706e-05
0.00119854 -0.000362485 -0.000358309 -6.19251e-05
0.00120695 -0.000365049 -0.000360813 -6.19264e-05
0.000399759 -0.000123447 -0.000118419 -7.42712e-05
0.000798403 -0.000242803 -0.000238114 -6.96472e-05
0.00120274 -0.000363767 -0.000359561 -6.19257e-05
0.000803986 -0.000244524 -0.000239769 -6.96485e-05
0.000801195 -0.000243663 -0.000238942 -6.96479e-05
0.000398378 -0.000123008 -0.000118016 -7.42706e-05
0.000395615 -0.00012213 -0.000117208 -7.42694e-05
0.00119013 -0.000359922 -0.000355805 -6.19238e-05
0.00119854 -0.000362485 -0.000358309 -6.19251e-05
0.000396996 -0.000122569 -0.000117612 -7.427e-05
0.000792819 -0.000241081 -0.000236459 -6.96459e-05
0.00119434 -0.000361204 -0.000357057 -6.19245e-05
0.000798403 -0.000242803 -0.000238114 -6.96472e-05
0.000795611 -0.000241942 -0.000237287 -6.96466e-05
0.000395615 -0.00012213 -0.000117208 -7.42694e-05
0.000392852 -0.000121252 -0.0001164 -7.42681e-05
0.00118173 -0.000357359 -0.0003533 -6.19225e-05
0.00119013 -0.000359922 -0.000355805 -6.19238e-05
0.000394234 -0.000121691 -0.000116804 -7.42687e-05
0.000787235 -0.00023936 -0.000234804 -6.96446e-05
0.00118593 -0.000358641 -0.000354553 -6.19232e-05
0.000792819 -0.000241081 -0.000236459 -6.96459e-05
0.000790027 -0.000240221 -0.000235631 -6.96453e-05
0.000392852 -0.000121252 -0.0001164 -7.42681e-05
0.000390089 -0.000120375 -0.000115592 -7.42668e-05
0.00117332 -0.000354797 -0.000350796 -6.19212e-05
0.00118173 -0.000357359 -0.0003533 -6.19225e-05
0.000391471 -0.000120813 -0.000115996 -7.42675e-05
0.000781651 -0.000237639 -0.000233148 -6.96433e-05
0.00117752 -0.000356078 -0.000352048 -6.19219e-05
0.000787235 -0.00023936 -0.000234804 -6.96446e-05
0.000784443 -0.0002385 -0.000233976 -6.96439e-05
0.000390089 -0.000120375 -0.000115592 -7.42668e-05
0.000387325 -0.000119497 -0.000114783 -7.42655e-05
0.00116491 -0.000352234 -0.000348291 -6.19199e-05
0.00117332 -0.000354797 -0.000350796 -6.19212e-05
0.000388707 -0.000119936 -0.000115188 -7.42662e-05
0.000776066 -0.000235919 -0.000231492 -6.9642e-05
0.00116912 -0.000353516 -0.000349543 -6.19206e-05
0.000781651 -0.000237639 -0.000233148 -6.96433e-05
0.000778859 -0.000236779 -0.00023232 -6.96426e-05
0.000387325 -0.000119497 -0.000114783 -7.42655e-05
0.000384561 -0.00011862 -0.000113975 -7.42643e-05
0.00115651 -0.000349672 -0.000345786 -6.19186e-05
0.00116491 -0.000352234 -0.000348291 -6.19199e-05
0.000385943 -0.000119059 -0.000114379 -7.42649e-05
0.000770481 -0.000234199 -0.000229836 -6.96406e-05
0.00116071 -0.000350953 -0.000347038 -6.19193e-05
0.000776066 -0.000235919 -0.000231492 -6.9642e-05
0.000773274 -0.000235059 -0.000230664 -6.96413e-05
0.000384561 -0.00011862 -0.000113975 -7.42643e-05
0.000381797 -0.000117743 -0.000113166 -7.4263e-05
0.0011481 -0.00034711 -0.000343281 -6.19173e-05
0.00115651 -0.000349672 -0.000345786 -6.19186e-05
0.000383179 -0.000118182 -0.00011357 -7.42636e-05
0.000764896 -0.000232478 -0.000228179 -6.96393e-05
0.0011523 -0.000348391 -0.000344533 -6.1918e-05
0.000770481 -0.000234199 -0.000229836 -6.96406e-05
0.000767689 -0.000233338 -0.000229007 -6.96399e-05
0.000381797 -0.000117743 -0.000113166 -7.4263e-05
0.000379032 -0.000116867 -0.000112357 -7.42617e-05
0.00113969 -0.000344549 -0.000340775 -6.1916e-05
0.0011481 -0.00034711 -0.000343281 -6.19173e-05
0.000380415 -0.000117305 -0.000112761 -7.42623e-05
0.000759311 -0.000230759 -0.000226522 -6.96379e-05
0.00114389 -0.000345829 -0.000342028 -6.19167e-05
0.000764896 -0.000232478 -0.000228179 -6.96393e-05
0.000762104 -0.000231618 -0.000227351 -6.96386e-05
0.000379032 -0.000116867 -0.000112357 -7.42617e-05
0.000376267 -0.000115991 -0.000111547 -7.42603e-05
0.00113128 -0.000341987 -0.00033827 -6.19147e-05
0.00113969 -0.000344549 -0.000340775 -6.1916e-05
0.00037765 -0.000116429 -0.000111952 -7.4261e-05
0.000753725 -0.000229039 -0.000224866 -6.96366e-05
0.00113549 -0.000343268 -0.000339523 -6.19153e-05
0.000759311 -0.000230759 -0.000226522 -6.96379e-05
0.000756518 -0.000229899 -0.000225694 -6.96372e-05
0.000376267 -0.000115991 -0.000111547 -7.42603e-05
0.000373502 -0.000115115 -0.000110737 -7.4259e-05
0.00112287 -0.000339426 -0.000335764 -6.19134e-05
0.00113128 -0.000341987 -0.00033827 -6.19147e-05
0.000374884 -0.000115553 -0.000111142 -7.42597e-05
0.000748139 -0.000227319 -0.000223208 -6.96352e-05
0.00112708 -0.000340706 -0.000337017 -6.1914e-05
0.000753725 -0.000229039 -0.000224866 -6.96366e-05
0.000750932 -0.000228179 -0.000224037 -6.96359e-05
0.000373502 -0.000115115 -0.000110737 -7.4259e-05
0.000370736 -0.000114239 -0.000109927 -7.42577e-05
0.00111447 -0.000336865 -0.000333258 -6.1912e-05
0.00112287 -0.000339426 -0.000335764 -6.19134e-05
0.000372119 -0.000114677 -0.000110332 -7.42584e-05
0.000742553 -0.0002256 -0.000221551 -6.96338e-05
0.00111867 -0.000338145 -0.000334511 -6.19127e-05
0.000748139 -0.000227319 -0.000223208 -6.96352e-05
0.000745346 -0.00022646 -0.00022238 -6.96345e-05
0.000370736 -0.000114239 -0.000109927 -7.42577e-05
0.00036797 -0.000113363 -0.000109117 -7.42564e-05
0.00110606 -0.000334304 -0.000330752 -6.19107e-05
0.00111447 -0.000336865 -0.000333258 -6.1912e-05
0.000369353 -0.000113801 -0.000109522 -7.42571e-05
0.000736966 -0.000223881 -0.000219893 -6.96325e-05
0.00111026 -0.000335584 -0.000332005 -6.19114e-05
0.000742553 -0.0002256 -0.000221551 -6.96338e-05
0.00073976 -0.000224741 -0.000220722 -6.96331e-05
0.00036797 -0.000113363 -0.000109117 -7.42564e-05
0.000365203 -0.000112488 -0.000108307 -7.42551e-05
0.00109765 -0.000331743 -0.000328245 -6.19093e-05
0.00110606 -0.000334304 -0.000330752 -6.19107e-05
0.000366587 -0.000112925 -0.000108712 -7.42557e-05
0.000731379 -0.000222163 -0.000218236 -6.96311e-05
0.00110185 -0.000333024 -0.000329499 -6.191e-05
0.000736966 -0.000223881 -0.000219893 -6.96325e-05
0.000734173 -0.000223022 -0.000219065 -6.96318e-05
0.000365203 -0.000112488 -0.000108307 -7.42551e-05
0.000362437 -0.000111613 -0.000107496 -7.42537e-05
0.00108924 -0.000329183 -0.000325739 -6.1908e-05
0.00109765 -0.000331743 -0.000328245 -6.19093e-05
0.00036382 -0.00011205 -0.000107901 -7.42544e-05
0.000725792 -0.000220444 -0.000216578 -6.96297e-05
0.00109344 -0.000330463 -0.000326992 -6.19087e-05
0.000731379 -0.000222163 -0.000218236 -6.96311e-05
0.000728586 -0.000221303 -0.000217407 -6.96304e-05
0.000362437 -0.000111613 -0.000107496 -7.42537e-05
0.000359669 -0.000110738 -0.000106685 -7.42524e-05
0.00108083 -0.000326623 -0.000323232 -6.19067e-05
0.00108924 -0.000329183 -0.000325739 -6.1908e-05
0.000361053 -0.000111175 -0.00010709 -7.42531e-05
0.000720205 -0.000218726 -0.000214919 -6.96283e-05
0.00108504 -0.000327903 -0.000324485 -6.19073e-05
0.000725792 -0.000220444 -0.000216578 -6.96297e-05
0.000722998 -0.000219585 -0.000215749 -6.9629e-05
0.000359669 -0.000110738 -0.000106685 -7.42524e-05
0.000356902 -0.000109863 -0.000105874 -7.4251e-05
0.00107242 -0.000324063 -0.000320725 -6.19053e-05
0.00108083 -0.000326623 -0.000323232 -6.19067e-05
0.000358286 -0.000110301 -0.000106279 -7.42517e-05
0.000714617 -0.000217008 -0.000213261 -6.96269e-05
0.00107663 -0.000325343 -0.000321979 -6.1906e-05
0.000720205 -0.000218726 -0.000214919 -6.96283e-05
0.000717411 -0.000217867 -0.00021409 -6.96276e-05
0.000356902 -0.000109863 -0.000105874 -7.4251e-05
0.000354134 -0.000108989 -0.000105062 -7.42497e-05
0.00106401 -0.000321503 -0.000318218 -6.19039e-05
0.00107242 -0.000324063 -0.000320725 -6.19053e-05
0.000355518 -0.000109426 -0.000105468 -7.42504e-05
0.000709029 -0.00021529 -0.000211602 -6.96255e-05
0.00106822 -0.000322783 -0.000319472 -6.19046e-05
0.000714617 -0.000217008 -0.000213261 -6.96269e-05
0.000711823 -0.000216149 -0.000212432 -6.96262e-05
0.000354134 -0.000108989 -0.000105062 -7.42497e-05
0.000351366 -0.000108115 -0.00010425 -7.42483e-05
0.0010556 -0.000318944 -0.000315711 -6.19026e-05
0.00106401 -0.000321503 -0.000318218 -6.19039e-05
0.00035275 -0.000108552 -0.000104656 -7.4249e-05
0.000703441 -0.000213573 -0.000209943 -6.96241e-05
0.00105981 -0.000320224 -0.000316964 -6.19033e-05
0.000709029 -0.00021529 -0.000211602 -6.96255e-05
0.000706235 -0.000214432 -0.000210773 -6.96248e-05
0.000351366 -0.000108115 -0.00010425 -7.42483e-05
0.000348597 -0.000107241 -0.000103438 -7.4247e-05
0.00104719 -0.000316385 -0.000313203 -6.19012e-05
0.0010556 -0.000318944 -0.000315711 -6.19026e-05
0.000349981 -0.000107678 -0.000103844 -7.42477e-05
0.000697852 -0.000211856 -0.000208284 -6.96227e-05
0.0010514 -0.000317664 -0.000314457 -6.19019e-05
0.000703441 -0.000213573 -0.000209943 -6.96241e-05
0.000700646 -0.000212714 -0.000209114 -6.96234e-05
0.000348597 -0.000107241 -0.000103438 -7.4247e-05
0.000345828 -0.000106367 -0.000102626 -7.42456e-05
0.00103878 -0.000313826 -0.000310696 -6.18999e-05
0.00104719 -0.000316385 -0.000313203 -6.19012e-05
0.000347213 -0.000106804 -0.000103032 -7.42463e-05
0.000692263 -0.000210139 -0.000206625 -6.96213e-05
0.00104299 -0.000315105 -0.000311949 -6.19005e-05
0.000697852 -0.000211856 -0.000208284 -6.96227e-05
0.000695057 -0.000210997 -0.000207454 -6.9622e-05
0.000345828 -0.000106367 -0.000102626 -7.42456e-05
0.000343059 -0.000105494 -0.000101814 -7.42443e-05
0.00103037 -0.000311267 -0.000308188 -6.18985e-05
0.00103878 -0.000313826 -0.000310696 -6.18999e-05
0.000344444 -0.000105931 -0.00010222 -7.42449e-05
0.000686674 -0.000208422 -0.000204965 -6.96199e-05
0.00103458 -0.000312546 -0.000309442 -6.18992e-05
0.000692263 -0.000210139 -0.000206625 -6.96213e-05
0.000689468 -0.00020928 -0.000205795 -6.96206e-05
0.000343059 -0.000105494 -0.000101814 -7.42443e-05
0.000340289 -0.000104621 -0.000101001 -7.42429e-05
0.00102196 -0.000308708 -0.00030568 -6.18971e-05
0.00103037 -0.000311267 -0.000308188 -6.18985e-05
0.000341674 -0.000105057 -0.000101407 -7.42436e-05
0.000681084 -0.000206705 -0.000203305 -6.96185e-05
0.00102617 -0.000309988 -0.000306934 -6.18978e-05
0.000686674 -0.000208422 -0.000204965 -6.96199e-05
0.000683879 -0.000207564 -0.000204135 -6.96192e-05
0.000340289 -0.000104621 -0.000101001 -7.42429e-05
0.000337519 -0.000103748 -0.000100188 -7.42415e-05
0.00101355 -0.00030615 -0.000303171 -6.18958e-05
0.00102196 -0.000308708 -0.00030568 -6.18971e-05
0.000338904 -0.000104184 -0.000100594 -7.42422e-05
0.000675495 -0.000204989 -0.000201645 -6.96171e-05
0.00101776 -0.000307429 -0.000304425 -6.18964e-05
0.000681084 -0.000206705 -0.000203305 -6.96185e-05
0.000678289 -0.000205847 -0.000202475 -6.96178e-05
0.000337519 -0.000103748 -0.000100188 -7.42415e-05
0.000334749 -0.000102875 -9.93745e-05 -7.42402e-05
0.00100514 -0.000303592 -0.000300663 -6.18944e-05
0.00101355 -0.00030615 -0.000303171 -6.18958e-05
0.000336134 -0.000103312 -9.97812e-05 -7.42409e-05
0.000669904 -0.000203273 -0.000199985 -6.96157e-05
0.00100934 -0.000304871 -0.000301917 -6.18951e-05
0.000675495 -0.000204989 -0.000201645 -6.96171e-05
0.0006727 -0.000204131 -0.000200815 -6.96164e-05
0.000334749 -0.000102875 -9.93745e-05 -7.42402e-05
0.000331978 -0.000102003 -9.85609e-05 -7.42388e-05
0.000996727 -0.000301034 -0.000298154 -6.1893e-05
0.00100514 -0.000303592 -0.000300663 -6.18944e-05
0.000333364 -0.000102439 -9.89677e-05 -7.42395e-05
0.000664314 -0.000201557 -0.000198324 -6.96143e-05
0.00100093 -0.000302313 -0.000299409 -6.18937e-05
0.000669904 -0.000203273 -0.000199985 -6.96157e-05
0.000667109 -0.000202415 -0.000199155 -6.9615e-05
0.000331978 -0.000102003 -9.85609e-05 -7.42388e-05
0.000329207 -0.000101131 -9.77472e-05 -7.42374e-05
0.000988316 -0.000298476 -0.000295645 -6.18916e-05
0.000996727 -0.000301034 -0.000298154 -6.1893e-05
0.000330593 -0.000101567 -9.81541e-05 -7.42381e-05
0.000658724 -0.000199842 -0.000196664 -6.96129e-05
0.000992522 -0.000299755 -0.0002969 -6.18923e-05
0.000664314 -0.000201557 -0.000198324 -6.96143e-05
0.000661519 -0.000200699 -0.000197494 -6.96136e-05
0.000329207 -0.000101131 -9.77472e-05 -7.42374e-05
0.000326436 -0.000100259 -9.69331e-05 -7.42361e-05
0.000979904 -0.000295919 -0.000293136 -6.18903e-05
0.000988316 -0.000298476 -0.000295645 -6.18916e-05
0.000327822 -0.000100695 -9.73402e-05 -7.42368e-05
0.000653133 -0.000198126 -0.000195003 -6.96114e-05
0.00098411 -0.000297198 -0.000294391 -6.1891e-05
0.000658724 -0.000199842 -0.000196664 -6.96129e-05
0.000655928 -0.000198984 -0.000195833 -6.96121e-05
0.000326436 -0.000100259 -9.69331e-05 -7.42361e-05
0.000323664 -9.9387e-05 -9.61188e-05 -7.42347e-05
0.000971492 -0.000293362 -0.000290627 -6.18889e-05
0.000979904 -0.000295919 -0.000293136 -6.18903e-05
0.00032505 -9.98228e-05 -9.6526e-05 -7.42354e-05
0.000647541 -0.000196411 -0.000193341 -6.961e-05
0.000975698 -0.00029464 -0.000291882 -6.18896e-05
0.000653133 -0.000198126 -0.000195003 -6.96114e-05
0.000650337 -0.000197269 -0.000194172 -6.96107e-05
0.000323664 -9.9387e-05 -9.61188e-05 -7.42347e-05
0.000320892 -9.85156e-05 -9.53042e-05 -7.42333e-05
0.00096308 -0.000290805 -0.000288118 -6.18875e-05
0.000971492 -0.000293362 -0.000290627 -6.18889e-05
0.000322278 -9.89513e-05 -9.57116e-05 -7.4234e-05
0.00064195 -0.000194696 -0.00019168 -6.96086e-05
0.000967286 -0.000292083 -0.000289373 -6.18882e-05
0.000647541 -0.000196411 -0.000193341 -6.961e-05
0.000644746 -0.000195554 -0.000192511 -6.96093e-05
0.000320892 -9.85156e-05 -9.53042e-05 -7.42333e-05
0.00031812 -9.76444e-05 -9.44894e-05 -7.4232e-05
0.000954668 -0.000288248 -0.000285608 -6.18861e-05
0.00096308 -0.000290805 -0.000288118 -6.18875e-05
0.000319506 -9.80799e-05 -9.48969e-05 -7.42326e-05
0.000636358 -0.000192982 -0.000190018 -6.96072e-05
0.000958874 -0.000289527 -0.000286863 -6.18868e-05
0.00064195 -0.000194696 -0.00019168 -6.96086e-05
0.000639154 -0.000193839 -0.000190849 -6.96079e-05
0.00031812 -9.76444e-05 -9.44894e-05 -7.4232e-05
0.000315347 -9.67734e-05 -9.36744e-05 -7.42306e-05
0.000946255 -0.000285692 -0.000283099 -6.18848e-05
0.000954668 -0.000288248 -0.000285608 -6.18861e-05
0.000316733 -9.72088e-05 -9.40819e-05 -7.42313e-05
0.000630766 -0.000191267 -0.000188357 -6.96058e-05
0.000950461 -0.00028697 -0.000284353 -6.18855e-05
0.000636358 -0.000192982 -0.000190018 -6.96072e-05
0.000633562 -0.000192125 -0.000189188 -6.96065e-05
0.000315347 -9.67734e-05 -9.36744e-05 -7.42306e-05
0.000312574 -9.59027e-05 -9.28591e-05 -7.42292e-05
0.000937842 -0.000283135 -0.000280589 -6.18834e-05
0.000946255 -0.000285692 -0.000283099 -6.18848e-05
0.00031396 -9.6338e-05 -9.32667e-05 -7.42299e-05
0.000625174 -0.000189553 -0.000186694 -6.96044e-05
0.000942049 -0.000284414 -0.000281844 -6.18841e-05
0.000630766 -0.000191267 -0.000188357 -6.96058e-05
0.00062797 -0.00019041 -0.000187526 -6.96051e-05
0.000312574 -9.59027e-05 -9.28591e-05 -7.42292e-05
0.0003098 -9.50322e-05 -9.20435e-05 -7.42279e-05
0.000929429 -0.000280579 -0.000278078 -6.1882e-05
0.000937842 -0.000283135 -0.000280589 -6.18834e-05
0.000311187 -9.54674e-05 -9.24513e-05 -7.42285e-05
0.000619581 -0.000187839 -0.000185032 -6.9603e-05
0.000933636 -0.000281857 -0.000279334 -6.18827e-05
0.000625174 -0.000189553 -0.000186694 -6.96044e-05
0.000622377 -0.000188696 -0.000185863 -6.96037e-05
0.0003098 -9.50322e-05 -9.20435e-05 -7.42279e-05
0.000307027 -9.4162e-05 -9.12277e-05 -7.42265e-05
0.000921016 -0.000278024 -0.000275568 -6.18807e-05
0.000929429 -0.000280579 -0.000278078 -6.1882e-05
0.000308413 -9.45971e-05 -9.16356e-05 -7.42272e-05
0.000613988 -0.000186126 -0.00018337 -6.96015e-05
0.000925223 -0.000279301 -0.000276823 -6.18813e-05
0.000619581 -0.000187839 -0.000185032 -6.9603e-05
0.000616785 -0.000186983 -0.000184201 -6.96022e-05
0.000307027 -9.4162e-05 -9.12277e-05 -7.42265e-05
0.000304252 -9.3292e-05 -9.04116e-05 -7.42251e-05
0.000912602 -0.000275468 -0.000273058 -6.18793e-05
0.000921016 -0.000278024 -0.000275568 -6.18807e-05
0.000305639 -9.37269e-05 -9.08197e-05 -7.42258e-05
0.000608395 -0.000184412 -0.000181707 -6.96001e-05
0.000916809 -0.000276746 -0.000274313 -6.188e-05
0.000613988 -0.000186126 -0.00018337 -6.96015e-05
0.000611192 -0.000185269 -0.000182538 -6.96008e-05
0.000304252 -9.3292e-05 -9.04116e-05 -7.42251e-05
0.000301478 -9.24222e-05 -8.95952e-05 -7.42238e-05
0.000904189 -0.000272913 -0.000270547 -6.18779e-05
0.000912602 -0.000275468 -0.000273058 -6.18793e-05
0.000302865 -9.28571e-05 -9.00034e-05 -7.42244e-05
0.000602801 -0.000182699 -0.000180044 -6.95987e-05
0.000908396 -0.00027419 -0.000271802 -6.18786e-05
0.000608395 -0.000184412 -0.000181707 -6.96001e-05
0.000605598 -0.000183556 -0.000180875 -6.95994e-05
0.000301478 -9.24222e-05 -8.95952e-05 -7.42238e-05
0.000298703 -9.15527e-05 -8.87787e-05 -7.42224e-05
0.000895775 -0.000270357 -0.000268036 -6.18766e-05
0.000904189 -0.000272913 -0.000270547 -6.18779e-05
0.00030009 -9.19874e-05 -8.9187e-05 -7.42231e-05
0.000597208 -0.000180986 -0.000178381 -6.95973e-05
0.000899982 -0.000271635 -0.000269292 -6.18772e-05
0.000602801 -0.000182699 -0.000180044 -6.95987e-05
0.000600005 -0.000181843 -0.000179212 -6.9598e-05
0.000298703 -9.15527e-05 -8.87787e-05 -7.42224e-05
0.000295928 -9.06835e-05 -8.79618e-05 -7.4221e-05
0.000887361 -0.000267803 -0.000265525 -6.18752e-05
0.000895775 -0.000270357 -0.000268036 -6.18766e-05
0.000297315 -9.11181e-05 -8.83703e-05 -7.42217e-05
0.000591614 -0.000179274 -0.000176717 -6.95959e-05
0.000891568 -0.00026908 -0.000266781 -6.18759e-05
0.000597208 -0.000180986 -0.000178381 -6.95973e-05
0.000594411 -0.00018013 -0.000177549 -6.95966e-05
0.000295928 -9.06835e-05 -8.79618e-05 -7.4221e-05
0.000293152 -8.98144e-05 -8.71447e-05 -7.42197e-05
0.000878947 -0.000265248 -0.000263014 -6.18738e-05
0.000887361 -0.000267803 -0.000265525 -6.18752e-05
0.00029454 -9.02489e-05 -8.75533e-05 -7.42204e-05
0.000586019 -0.000177561 -0.000175053 -6.95945e-05
0.000883154 -0.000266525 -0.000264269 -6.18745e-05
0.000591614 -0.000179274 -0.000176717 -6.95959e-05
0.000588816 -0.000178417 -0.000175885 -6.95952e-05
0.000293152 -8.98144e-05 -8.71447e-05 -7.42197e-05
0.000290376 -8.89457e-05 -8.63274e-05 -7.42183e-05
0.000870532 -0.000262693 -0.000260502 -6.18725e-05
0.000878947 -0.000265248 -0.000263014 -6.18738e-05
0.000291764 -8.938e-05 -8.67361e-05 -7.4219e-05
0.000580425 -0.000175849 -0.00017339 -6.95931e-05
0.000874739 -0.000263971 -0.000261758 -6.18731e-05
0.000586019 -0.000177561 -0.000175053 -6.95945e-05
0.000583222 -0.000176705 -0.000174222 -6.95938e-05
0.000290376 -8.89457e-05 -8.63274e-05 -7.42183e-05
0.0002876 -8.80771e-05 -8.55098e-05 -7.4217e-05
0.000862117 -0.000260139 -0.000257991 -6.18711e-05
0.000870532 -0.000262693 -0.000260502 -6.18725e-05
0.000288988 -8.85114e-05 -8.59186e-05 -7.42176e-05
0.00057483 -0.000174137 -0.000171725 -6.95917e-05
0.000866325 -0.000261416 -0.000259246 -6.18718e-05
0.000580425 -0.000175849 -0.00017339 -6.95931e-05
0.000577627 -0.000174993 -0.000172557 -6.95924e-05
0.0002876 -8.80771e-05 -8.55098e-05 -7.4217e-05
0.000284823 -8.72088e-05 -8.46919e-05 -7.42156e-05
0.000853702 -0.000257585 -0.000255479 -6.18698e-05
0.000862117 -0.000260139 -0.000257991 -6.18711e-05
0.000286212 -8.7643e-05 -8.51009e-05 -7.42163e-05
0.000569234 -0.000172425 -0.000170061 -6.95903e-05
0.00085791 -0.000258862 -0.000256735 -6.18704e-05
0.00057483 -0.000174137 -0.000171725 -6.95917e-05
0.000572032 -0.000173281 -0.000170893 -6.9591e-05
0.000284823 -8.72088e-05 -8.46919e-05 -7.42156e-05
0.000282046 -8.63408e-05 -8.38738e-05 -7.42143e-05
0.000845287 -0.000255031 -0.000252967 -6.18684e-05
0.000853702 -0.000257585 -0.000255479 -6.18698e-05
0.000283435 -8.67748e-05 -8.42829e-05 -7.4215e-05
0.000563639 -0.000170714 -0.000168396 -6.95889e-05
0.000849495 -0.000256308 -0.000254223 -6.18691e-05
0.000569234 -0.000172425 -0.000170061 -6.95903e-05
0.000566437 -0.00017157 -0.000169229 -6.95896e-05
0.000282046 -8.63408e-05 -8.38738e-05 -7.42143e-05
0.000279269 -8.5473e-05 -8.30554e-05 -7.42129e-05
0.000836872 -0.000252478 -0.000250455 -6.18671e-05
0.000845287 -0.000255031 -0.000252967 -6.18684e-05
0.000280658 -8.59068e-05 -8.34646e-05 -7.42136e-05
0.000558043 -0.000169003 -0.000166732 -6.95875e-05
0.00084108 -0.000253755 -0.000251711 -6.18677e-05
0.000563639 -0.000170714 -0.000168396 -6.95889e-05
0.000560841 -0.000169858 -0.000167564 -6.95882e-05
0.000279269 -8.5473e-05 -8.30554e-05 -7.42129e-05
0.000276491 -8.46054e-05 -8.22368e-05 -7.42116e-05
0.000828456 -0.000249925 -0.000247942 -6.18657e-05
0.000836872 -0.000252478 -0.000250455 -6.18671e-05
0.00027788 -8.50392e-05 -8.26461e-05 -7.42123e-05
0.000552447 -0.000167292 -0.000165067 -6.95862e-05
0.000832664 -0.000251201 -0.000249198 -6.18664e-05
0.000558043 -0.000169003 -0.000166732 -6.95875e-05
0.000555245 -0.000168147 -0.000165899 -6.95868e-05
0.000276491 -8.46054e-05 -8.22368e-05 -7.42116e-05
0.000273713 -8.37381e-05 -8.14179e-05 -7.42103e-05
0.000820041 -0.000247371 -0.00024543 -6.18644e-05
0.000828456 -0.000249925 -0.000247942 -6.18657e-05
0.000275102 -8.41717e-05 -8.18274e-05 -7.42109e-05
0.000546851 -0.000165581 -0.000163401 -6.95848e-05
0.000824248 -0.000248648 -0.000246686 -6.1865e-05
0.000552447 -0.000167292 -0.000165067 -6.95862e-05
0.000549649 -0.000166436 -0.000164234 -6.95855e-05
0.000273713 -8.37381e-05 -8.14179e-05 -7.42103e-05
0.000270935 -8.2871e-05 -8.05988e-05 -7.42089e-05
0.000811625 -0.000244819 -0.000242917 -6.1863e-05
0.000820041 -0.000247371 -0.00024543 -6.18644e-05
0.000272324 -8.33045e-05 -8.10084e-05 -7.42096e-05
0.000541254 -0.00016387 -0.000161736 -6.95834e-05
0.000815833 -0.000246095 -0.000244173 -6.18637e-05
0.000546851 -0.000165581 -0.000163401 -6.95848e-05
0.000544052 -0.000164726 -0.000162569 -6.95841e-05
0.000270935 -8.2871e-05 -8.05988e-05 -7.42089e-05
0.000268156 -8.20042e-05 -7.97794e-05 -7.42076e-05
0.000803208 -0.000242266 -0.000240404 -6.18617e-05
0.000811625 -0.000244819 -0.000242917 -6.1863e-05
0.000269546 -8.24376e-05 -8.01891e-05 -7.42083e-05
0.000535657 -0.00016216 -0.00016007 -6.9582e-05
0.000807416 -0.000243542 -0.00024166 -6.18624e-05
0.000541254 -0.00016387 -0.000161736 -6.95834e-05
0.000538456 -0.000163015 -0.000160903 -6.95827e-05
0.000268156 -8.20042e-05 -7.97794e-05 -7.42076e-05
0.000265377 -8.11376e-05 -7.89598e-05 -7.42063e-05
0.000794792 -0.000239713 -0.000237891 -6.18604e-05
0.000803208 -0.000242266 -0.000240404 -6.18617e-05
0.000266767 -8.15708e-05 -7.93696e-05 -7.4207e-05
0.00053006 -0.00016045 -0.000158404 -6.95807e-05
0.000799 -0.00024099 -0.000239147 -6.1861e-05
0.000535657 -0.00016216 -0.00016007 -6.9582e-05
0.000532858 -0.000161305 -0.000159237 -6.95813e-05
0.000265377 -8.11376e-05 -7.89598e-05 -7.42063e-05
0.000262598 -8.02712e-05 -7.81399e-05 -7.4205e-05
0.000786375 -0.000237161 -0.000235377 -6.1859e-05
0.000794792 -0.000239713 -0.000237891 -6.18604e-05
0.000263987 -8.07044e-05 -7.85499e-05 -7.42056e-05
0.000524462 -0.00015874 -0.000156738 -6.95793e-05
0.000790584 -0.000238437 -0.000236634 -6.18597e-05
0.00053006 -0.00016045 -0.000158404 -6.95807e-05
0.000527261 -0.000159595 -0.000157571 -6.958e-05
0.000262598 -8.02712e-05 -7.81399e-05 -7.4205e-05
0.000259818 -7.94051e-05 -7.73197e-05 -7.42037e-05
0.000777958 -0.000234609 -0.000232864 -6.18577e-05
0.000786375 -0.000237161 -0.000235377 -6.1859e-05
0.000261208 -7.98381e-05 -7.77298e-05 -7.42043e-05
0.000518864 -0.000157031 -0.000155072 -6.95779e-05
0.000782167 -0.000235885 -0.000234121 -6.18584e-05
0.000524462 -0.00015874 -0.000156738 -6.95793e-05
0.000521663 -0.000157885 -0.000155905 -6.95786e-05
0.000259818 -7.94051e-05 -7.73197e-05 -7.42037e-05
0.000257038 -7.85392e-05 -7.64993e-05 -7.42024e-05
0.000769541 -0.000232057 -0.00023035 -6.18564e-05
0.000777958 -0.000234609 -0.000232864 -6.18577e-05
0.000258428 -7.89721e-05 -7.69096e-05 -7.4203e-05
0.000513266 -0.000155321 -0.000153405 -6.95766e-05
0.00077375 -0.000233333 -0.000231607 -6.18571e-05
0.000518864 -0.000157031 -0.000155072 -6.95779e-05
0.000516065 -0.000156176 -0.000154238 -6.95773e-05
0.000257038 -7.85392e-05 -7.64993e-05 -7.42024e-05
0.000254257 -7.76736e-05 -7.56787e-05 -7.42011e-05
0.000761124 -0.000229506 -0.000227836 -6.18551e-05
0.000769541 -0.000232057 -0.00023035 -6.18564e-05
0.000255647 -7.81064e-05 -7.6089e-05 -7.42017e-05
0.000507668 -0.000153612 -0.000151738 -6.95753e-05
0.000765333 -0.000230782 -0.000229093 -6.18557e-05
0.000513266 -0.000155321 -0.000153405 -6.95766e-05
0.000510467 -0.000154467 -0.000152572 -6.95759e-05
0.000254257 -7.76736e-05 -7.56787e-05 -7.42011e-05
0.000251476 -7.68082e-05 -7.48577e-05 -7.41998e-05
0.000752706 -0.000226955 -0.000225322 -6.18538e-05
0.000761124 -0.000229506 -0.000227836 -6.18551e-05
0.000252867 -7.72409e-05 -7.52682e-05 -7.42004e-05
0.000502069 -0.000151903 -0.000150071 -6.95739e-05
0.000756915 -0.00022823 -0.000226579 -6.18544e-05
0.000507668 -0.000153612 -0.000151738 -6.95753e-05
0.000504869 -0.000152758 -0.000150905 -6.95746e-05
0.000251476 -7.68082e-05 -7.48577e-05 -7.41998e-05
0.000248695 -7.59431e-05 -7.40366e-05 -7.41985e-05
0.000744289 -0.000224404 -0.000222808 -6.18525e-05
0.000752706 -0.000226955 -0.000225322 -6.18538e-05
0.000250086 -7.63756e-05 -7.44472e-05 -7.41992e-05
0.00049647 -0.000150195 -0.000148404 -6.95726e-05
0.000748498 -0.000225679 -0.000224065 -6.18531e-05
0.000502069 -0.000151903 -0.000150071 -6.95739e-05
0.00049927 -0.000151049 -0.000149237 -6.95732e-05
0.000248695 -7.59431e-05 -7.40366e-05 -7.41985e-05
0.000245914 -7.50782e-05 -7.32151e-05 -7.41972e-05
0.000735871 -0.000221853 -0.000220293 -6.18512e-05
0.000744289 -0.000224404 -0.000222808 -6.18525e-05
0.000247304 -7.55106e-05 -7.36259e-05 -7.41979e-05
0.000490871 -0.000148486 -0.000146736 -6.95713e-05
0.00074008 -0.000223128 -0.000221551 -6.18518e-05
0.00049647 -0.000150195 -0.000148404 -6.95726e-05
0.000493671 -0.000149341 -0.00014757 -6.95719e-05
0.000245914 -7.50782e-05 -7.32151e-05 -7.41972e-05
0.000243132 -7.42135e-05 -7.23935e-05 -7.4196e-05
0.000727452 -0.000219302 -0.000217779 -6.18499e-05
0.000735871 -0.000221853 -0.000220293 -6.18512e-05
0.000244523 -7.46458e-05 -7.28043e-05 -7.41966e-05
0.000485271 -0.000146778 -0.000145068 -6.95699e-05
0.000731662 -0.000220577 -0.000219036 -6.18505e-05
0.000490871 -0.000148486 -0.000146736 -6.95713e-05
0.000488071 -0.000147632 -0.000145902 -6.95706e-05
0.000243132 -7.42135e-05 -7.23935e-05 -7.4196e-05
0.000240349 -7.33491e-05 -7.15715e-05 -7.41947e-05
0.000719034 -0.000216752 -0.000215264 -6.18486e-05
0.000727452 -0.000219302 -0.000217779 -6.18499e-05
0.000241741 -7.37813e-05 -7.19825e-05 -7.41953e-05
0.000479672 -0.00014507 -0.0001434 -6.95686e-05
0.000723243 -0.000218027 -0.000216521 -6.18493e-05
0.000485271 -0.000146778 -0.000145068 -6.95699e-05
0.000482471 -0.000145924 -0.000144234 -6.95693e-05
0.000240349 -7.33491e-05 -7.15715e-05 -7.41947e-05
0.000237567 -7.24849e-05 -7.07493e-05 -7.41935e-05
0.000710615 -0.000214201 -0.000212749 -6.18473e-05
0.000719034 -0.000216752 -0.000215264 -6.18486e-05
0.000238958 -7.2917e-05 -7.11605e-05 -7.41941e-05
0.000474071 -0.000143363 -0.000141732 -6.95673e-05
0.000714825 -0.000215477 -0.000214006 -6.1848e-05
0.000479672 -0.00014507 -0.0001434 -6.95686e-05
0.000476871 -0.000144217 -0.000142566 -6.9568e-05
0.000237567 -7.24849e-05 -7.07493e-05 -7.41935e-05
0.000234784 -7.1621e-05 -6.99269e-05 -7.41922e-05
0.000702196 -0.000211652 -0.000210234 -6.18461e-05
0.000710615 -0.000214201 -0.000212749 -6.18473e-05
0.000236175 -7.20529e-05 -7.03382e-05 -7.41928e-05
0.000468471 -0.000141655 -0.000140064 -6.9566e-05
0.000706406 -0.000212926 -0.000211491 -6.18467e-05
0.000474071 -0.000143363 -0.000141732 -6.95673e-05
0.000471271 -0.000142509 -0.000140898 -6.95667e-05
0.000234784 -7.1621e-05 -6.99269e-05 -7.41922e-05
0.000232 -7.07573e-05 -6.91042e-05 -7.4191e-05
0.000693777 -0.000209102 -0.000207718 -6.18448e-05
0.000702196 -0.000211652 -0.000210234 -6.18461e-05
0.000233392 -7.11891e-05 -6.95156e-05 -7.41916e-05
0.00046287 -0.000139948 -0.000138395 -6.95647e-05
0.000697987 -0.000210377 -0.000208976 -6.18454e-05
0.000468471 -0.000141655 -0.000140064 -6.9566e-05
0.000465671 -0.000140802 -0.000139229 -6.95654e-05
0.000232 -7.07573e-05 -6.91042e-05 -7.4191e-05
0.000229217 -6.98938e-05 -6.82812e-05 -7.41897e-05
0.000685358 -0.000206552 -0.000205202 -6.18435e-05
0.000693777 -0.000209102 -0.000207718 -6.18448e-05
0.000230609 -7.03255e-05 -6.86928e-05 -7.41903e-05
0.000457269 -0.000138241 -0.000136726 -6.95634e-05
0.000689568 -0.000207827 -0.00020646 -6.18442e-05
0.00046287 -0.000139948 -0.000138395 -6.95647e-05
0.00046007 -0.000139095 -0.000137561 -6.95641e-05
0.000229217 -6.98938e-05 -6.82812e-05 -7.41897e-05
0.000226433 -6.90306e-05 -6.7458e-05 -7.41885e-05
0.000676938 -0.000204003 -0.000202687 -6.18423e-05
0.000685358 -0.000206552 -0.000205202 -6.18435e-05
0.000227825 -6.94622e-05 -6.78697e-05 -7.41891e-05
0.000451668 -0.000136535 -0.000135057 -6.95622e-05
0.000681148 -0.000205278 -0.000203945 -6.18429e-05
0.000457269 -0.000138241 -0.000136726 -6.95634e-05
0.000454468 -0.000137388 -0.000135892 -6.95628e-05
0.000226433 -6.90306e-05 -6.7458e-05 -7.41885e-05
0.000223648 -6.81676e-05 -6.66346e-05 -7.41873e-05
0.000668519 -0.000201454 -0.000200171 -6.1841e-05
0.000676938 -0.000204003 -0.000202687 -6.18423e-05
0.000225041 -6.85991e-05 -6.70463e-05 -7.41879e-05
0.000446066 -0.000134828 -0.000133388 -6.95609e-05
0.000672729 -0.000202728 -0.000201429 -6.18417e-05
0.000451668 -0.000136535 -0.000135057 -6.95622e-05
0.000448867 -0.000135681 -0.000134222 -6.95615e-05
0.000223648 -6.81676e-05 -6.66346e-05 -7.41873e-05
0.000220864 -6.73049e-05 -6.58108e-05 -7.41861e-05
0.000660099 -0.000198905 -0.000197654 -6.18398e-05
0.000668519 -0.000201454 -0.000200171 -6.1841e-05
0.000222256 -6.77362e-05 -6.62227e-05 -7.41867e-05
0.000440464 -0.000133122 -0.000131718 -6.95596e-05
0.000664309 -0.000200179 -0.000198913 -6.18404e-05
0.000446066 -0.000134828 -0.000133388 -6.95609e-05
0.000443265 -0.000133975 -0.000132553 -6.95602e-05
0.000220864 -6.73049e-05 -6.58108e-05 -7.41861e-05
0.000218078 -6.64424e-05 -6.49869e-05 -7.41849e-05
0.000651678 -0.000196356 -0.000195138 -6.18386e-05
0.000660099 -0.000198905 -0.000197654 -6.18398e-05
0.000219471 -6.68736e-05 -6.53989e-05 -7.41855e-05
0.000434862 -0.000131416 -0.000130048 -6.95584e-05
0.000655889 -0.000197631 -0.000196396 -6.18392e-05
0.000440464 -0.000133122 -0.000131718 -6.95596e-05
0.000437663 -0.000132269 -0.000130883 -6.9559e-05
0.000218078 -6.64424e-05 -6.49869e-05 -7.41849e-05
0.000215293 -6.55802e-05 -6.41626e-05 -7.41837e-05
0.000643258 -0.000193808 -0.000192621 -6.18373e-05
0.000651678 -0.000196356 -0.000195138 -6.18386e-05
0.000216686 -6.60113e-05 -6.45748e-05 -7.41843e-05
0.000429259 -0.00012971 -0.000128378 -6.95571e-05
0.000647468 -0.000195082 -0.00019388 -6.1838e-05
0.000434862 -0.000131416 -0.000130048 -6.95584e-05
0.000432061 -0.000130563 -0.000129213 -6.95577e-05
0.000215293 -6.55802e-05 -6.41626e-05 -7.41837e-05
0.000212507 -6.47182e-05 -6.33381e-05 -7.41825e-05
0.000634837 -0.00019126 -0.000190105 -6.18361e-05
0.000643258 -0.000193808 -0.000192621 -6.18373e-05
0.0002139 -6.51491e-05 -6.37504e-05 -7.41831e-05
0.000423656 -0.000128005 -0.000126708 -6.95559e-05
0.000639048 -0.000192534 -0.000191363 -6.18367e-05
0.000429259 -0.00012971 -0.000128378 -6.95571e-05
0.000426458 -0.000128857 -0.000127543 -6.95565e-05
0.000212507 -6.47182e-05 -6.33381e-05 -7.41825e-05
0.000209721 -6.38564e-05 -6.25134e-05 -7.41813e-05
0.000626416 -0.000188712 -0.000187588 -6.18349e-05
0.000634837 -0.00019126 -0.000190105 -6.18361e-05
0.000211114 -6.42872e-05 -6.29258e-05 -7.41819e-05
0.000418053 -0.000126299 -0.000125037 -6.95547e-05
0.000630627 -0.000189986 -0.000188846 -6.18355e-05
0.000423656 -0.000128005 -0.000126708 -6.95559e-05
0.000420855 -0.000127152 -0.000125873 -6.95553e-05
0.000209721 -6.38564e-05 -6.25134e-05 -7.41813e-05
0.000206934 -6.29949e-05 -6.16884e-05 -7.41802e-05
0.000617995 -0.000186164 -0.00018507 -6.18337e-05
0.000626416 -0.000188712 -0.000187588 -6.18349e-05
0.000208328 -6.34256e-05 -6.21009e-05 -7.41808e-05
0.00041245 -0.000124594 -0.000123367 -6.95534e-05
0.000622206 -0.000187438 -0.000186329 -6.18343e-05
0.000418053 -0.000126299 -0.000125037 -6.95547e-05
0.000415252 -0.000125447 -0.000124202 -6.9554e-05
0.000206934 -6.29949e-05 -6.16884e-05 -7.41802e-05
0.000204148 -6.21336e-05 -6.08631e-05 -7.4179e-05
0.000609574 -0.000183617 -0.000182553 -6.18325e-05
0.000617995 -0.000186164 -0.00018507 -6.18337e-05
0.000205541 -6.25642e-05 -6.12758e-05 -7.41796e-05
0.000406846 -0.000122889 -0.000121696 -6.95522e-05
0.000613784 -0.00018489 -0.000183812 -6.18331e-05
0.00041245 -0.000124594 -0.000123367 -6.95534e-05
0.000409648 -0.000123742 -0.000122531 -6.95528e-05
0.000204148 -6.21336e-05 -6.08631e-05 -7.4179e-05
0.00020136 -6.12725e-05 -6.00376e-05 -7.41779e-05
0.000601152 -0.000181069 -0.000180036 -6.18313e-05
0.000609574 -0.000183617 -0.000182553 -6.18325e-05
0.000202754 -6.1703e-05 -6.04504e-05 -7.41785e-05
0.000401242 -0.000121185 -0.000120025 -6.9551e-05
0.000605363 -0.000182343 -0.000181294 -6.18319e-05
0.000406846 -0.000122889 -0.000121696 -6.95522e-05
0.000404044 -0.000122037 -0.00012086 -6.95516e-05
0.00020136 -6.12725e-05 -6.00376e-05 -7.41779e-05
0.000198573 -6.04117e-05 -5.92118e-05 -7.41768e-05
0.00059273 -0.000178522 -0.000177518 -6.18302e-05
0.000601152 -0.000181069 -0.000180036 -6.18313e-05
0.000199966 -6.08421e-05 -5.96247e-05 -7.41773e-05
0.000395638 -0.000119481 -0.000118353 -6.95498e-05
0.000596941 -0.000179796 -0.000178777 -6.18308e-05
0.000401242 -0.000121185 -0.000120025 -6.9551e-05
0.00039844 -0.000120333 -0.000119189 -6.95504e-05
0.000198573 -6.04117e-05 -5.92118e-05 -7.41768e-05
0.000195785 -5.95511e-05 -5.83858e-05 -7.41756e-05
0.000584308 -0.000175975 -0.000175 -6.1829e-05
0.00059273 -0.000178522 -0.000177518 -6.18302e-05
0.000197179 -5.99814e-05 -5.87988e-05 -7.41762e-05
0.000390033 -0.000117776 -0.000116681 -6.95486e-05
0.000588519 -0.000177249 -0.000176259 -6.18296e-05
0.000395638 -0.000119481 -0.000118353 -6.95498e-05
0.000392835 -0.000118628 -0.000117517 -6.95492e-05
0.000195785 -5.95511e-05 -5.83858e-05 -7.41756e-05
0.000192996 -5.86908e-05 -5.75595e-05 -7.41745e-05
0.000575886 -0.000173429 -0.000172482 -6.18278e-05
0.000584308 -0.000175975 -0.000175 -6.1829e-05
0.000194391 -5.91209e-05 -5.79727e-05 -7.41751e-05
0.000384428 -0.000116073 -0.00011501 -6.95475e-05
0.000580097 -0.000174702 -0.000173741 -6.18284e-05
0.000390033 -0.000117776 -0.000116681 -6.95486e-05
0.000387231 -0.000116924 -0.000115845 -6.95481e-05
0.000192996 -5.86908e-05 -5.75595e-05 -7.41745e-05
0.000190208 -5.78307e-05 -5.6733e-05 -7.41734e-05
0.000567463 -0.000170882 -0.000169963 -6.18267e-05
0.000575886 -0.000173429 -0.000172482 -6.18278e-05
0.000191602 -5.82607e-05 -5.71463e-05 -7.4174e-05
0.000378823 -0.000114369 -0.000113337 -6.95463e-05
0.000571674 -0.000172155 -0.000171222 -6.18273e-05
0.000384428 -0.000116073 -0.00011501 -6.95475e-05
0.000381625 -0.000115221 -0.000114173 -6.95469e-05
0.000190208 -5.78307e-05 -5.6733e-05 -7.41734e-05
0.000187419 -5.69709e-05 -5.59062e-05 -7.41723e-05
0.00055904 -0.000168336 -0.000167445 -6.18255e-05
0.000567463 -0.000170882 -0.000169963 -6.18267e-05
0.000188813 -5.74008e-05 -5.63196e-05 -7.41729e-05
0.000373217 -0.000112665 -0.000111665 -6.95451e-05
0.000563252 -0.000169609 -0.000168704 -6.18261e-05
0.000378823 -0.000114369 -0.000113337 -6.95463e-05
0.00037602 -0.000113517 -0.000112501 -6.95457e-05
0.000187419 -5.69709e-05 -5.59062e-05 -7.41723e-05
0.000184629 -5.61113e-05 -5.50791e-05 -7.41712e-05
0.000550617 -0.00016579 -0.000164926 -6.18244e-05
0.00055904 -0.000168336 -0.000167445 -6.18255e-05
0.000186024 -5.6541e-05 -5.54927e-05 -7.41718e-05
0.000367611 -0.000110962 -0.000109992 -6.9544e-05
0.000554829 -0.000167063 -0.000166185 -6.1825e-05
0.000373217 -0.000112665 -0.000111665 -6.95451e-05
0.000370414 -0.000111814 -0.000110829 -6.95446e-05
0.000184629 -5.61113e-05 -5.50791e-05 -7.41712e-05
0.000181839 -5.52519e-05 -5.42518e-05 -7.41702e-05
0.000542194 -0.000163244 -0.000162407 -6.18233e-05
0.000550617 -0.00016579 -0.000164926 -6.18244e-05
0.000183234 -5.56815e-05 -5.46655e-05 -7.41707e-05
0.000362005 -0.000109259 -0.00010832 -6.95429e-05
0.000546405 -0.000164517 -0.000163666 -6.18239e-05
0.000367611 -0.000110962 -0.000109992 -6.9544e-05
0.000364808 -0.000110111 -0.000109156 -6.95434e-05
0.000181839 -5.52519e-05 -5.42518e-05 -7.41702e-05
0.000179049 -5.43928e-05 -5.34242e-05 -7.41691e-05
0.00053377 -0.000160699 -0.000159888 -6.18222e-05
0.000542194 -0.000163244 -0.000162407 -6.18233e-05
0.000180444 -5.48223e-05 -5.3838e-05 -7.41696e-05
0.000356399 -0.000107557 -0.000106647 -6.95417e-05
0.000537982 -0.000161971 -0.000161147 -6.18227e-05
0.000362005 -0.000109259 -0.00010832 -6.95429e-05
0.000359202 -0.000108408 -0.000107483 -6.95423e-05
0.000179049 -5.43928e-05 -5.34242e-05 -7.41691e-05
0.000176259 -5.35339e-05 -5.25964e-05 -7.41681e-05
0.000525346 -0.000158153 -0.000157368 -6.18211e-05
0.00053377 -0.000160699 -0.000159888 -6.18222e-05
0.000177654 -5.39633e-05 -5.30103e-05 -7.41686e-05
0.000350792 -0.000105854 -0.000104973 -6.95406e-05
0.000529558 -0.000159426 -0.000158628 -6.18216e-05
0.000356399 -0.000107557 -0.000106647 -6.95417e-05
0.000353595 -0.000106705 -0.00010581 -6.95412e-05
0.000176259 -5.35339e-05 -5.25964e-05 -7.41681e-05
0.000173468 -5.26752e-05 -5.17683e-05 -7.4167e-05
0.000516922 -0.000155608 -0.000154849 -6.182e-05
0.000525346 -0.000158153 -0.000157368 -6.18211e-05
0.000174863 -5.31045e-05 -5.21824e-05 -7.41675e-05
0.000345185 -0.000104152 -0.0001033 -6.95395e-05
0.000521134 -0.000156881 -0.000156109 -6.18205e-05
0.000350792 -0.000105854 -0.000104973 -6.95406e-05
0.000347988 -0.000105003 -0.000104137 -6.95401e-05
0.000173468 -5.26752e-05 -5.17683e-05 -7.4167e-05
0.000170677 -5.18168e-05 -5.09399e-05 -7.4166e-05
0.000508498 -0.000153063 -0.000152329 -6.18189e-05
0.000516922 -0.000155608 -0.000154849 -6.182e-05
0.000172072 -5.2246e-05 -5.13542e-05 -7.41665e-05
0.000339577 -0.00010245 -0.000101626 -6.95384e-05
0.00051271 -0.000154336 -0.000153589 -6.18194e-05
0.000345185 -0.000104152 -0.0001033 -6.95395e-05
0.000342381 -0.000103301 -0.000102463 -6.9539e-05
0.000170677 -5.18168e-05 -5.09399e-05 -7.4166e-05
0.000167885 -5.09586e-05 -5.01113e-05 -7.4165e-05
0.000500073 -0.000150518 -0.000149809 -6.18178e-05
0.000508498 -0.000153063 -0.000152329 -6.18189e-05
0.000169281 -5.13877e-05 -5.05257e-05 -7.41655e-05
0.000333969 -0.000100748 -9.9952e-05 -6.95374e-05
0.000504286 -0.000151791 -0.000151069 -6.18184e-05
0.000339577 -0.00010245 -0.000101626 -6.95384e-05
0.000336773 -0.000101599 -0.000100789 -6.95379e-05
0.000167885 -5.09586e-05 -5.01113e-05 -7.4165e-05
0.000165093 -5.01007e-05 -4.92825e-05 -7.4164e-05
0.000491648 -0.000147974 -0.000147289 -6.18168e-05
0.000500073 -0.000150518 -0.000149809 -6.18178e-05
0.000166489 -5.05296e-05 -4.96969e-05 -7.41645e-05
0.000328361 -9.90466e-05 -9.82777e-05 -6.95363e-05
0.000495861 -0.000149246 -0.000148549 -6.18173e-05
0.000333969 -0.000100748 -9.9952e-05 -6.95374e-05
0.000331165 -9.98974e-05 -9.91149e-05 -6.95368e-05
0.000165093 -5.01007e-05 -4.92825e-05 -7.4164e-05
0.000162301 -4.9243e-05 -4.84534e-05 -7.4163e-05
0.000483223 -0.00014543 -0.000144769 -6.18157e-05
0.000491648 -0.000147974 -0.000147289 -6.18168e-05
0.000163697 -4.96718e-05 -4.8868e-05 -7.41635e-05
0.000322753 -9.73453e-05 -9.66033e-05 -6.95352e-05
0.000487436 -0.000146702 -0.000146029 -6.18162e-05
0.000328361 -9.90466e-05 -9.82777e-05 -6.95363e-05
0.000325557 -9.81959e-05 -9.74405e-05 -6.95358e-05
0.000162301 -4.9243e-05 -4.84534e-05 -7.4163e-05
0.000159508 -4.83855e-05 -4.7624e-05 -7.4162e-05
0.000474798 -0.000142886 -0.000142248 -6.18146e-05
0.000483223 -0.00014543 -0.000144769 -6.18157e-05
0.000160905 -4.88142e-05 -4.80387e-05 -7.41625e-05
0.000317144 -9.56442e-05 -9.49286e-05 -6.95342e-05
0.000479011 -0.000144158 -0.000143509 -6.18152e-05
0.000322753 -9.73453e-05 -9.66033e-05 -6.95352e-05
0.000319949 -9.64947e-05 -9.5766e-05 -6.95347e-05
0.000159508 -4.83855e-05 -4.7624e-05 -7.4162e-05
0.000156715 -4.75283e-05 -4.67943e-05 -7.41611e-05
0.000466372 -0.000140342 -0.000139727 -6.18136e-05
0.000474798 -0.000142886 -0.000142248 -6.18146e-05
0.000158112 -4.79569e-05 -4.72092e-05 -7.41615e-05
0.000311535 -9.39434e-05 -9.32537e-05 -6.95332e-05
0.000470585 -0.000141614 -0.000140988 -6.18141e-05
0.000317144 -9.56442e-05 -9.49286e-05 -6.95342e-05
0.00031434 -9.47938e-05 -9.40911e-05 -6.95337e-05
0.000156715 -4.75283e-05 -4.67943e-05 -7.41611e-05
0.000153922 -4.66713e-05 -4.59645e-05 -7.41601e-05
0.000457947 -0.000137798 -0.000137207 -6.18126e-05
0.000466372 -0.000140342 -0.000139727 -6.18136e-05
0.000155318 -4.70998e-05 -4.63794e-05 -7.41606e-05
0.000305926 -9.22428e-05 -9.15785e-05 -6.95321e-05
0.00046216 -0.00013907 -0.000138467 -6.18131e-05
0.000311535 -9.39434e-05 -9.32537e-05 -6.95332e-05
0.000308731 -9.3093e-05 -9.24161e-05 -6.95326e-05
0.000153922 -4.66713e-05 -4.59645e-05 -7.41601e-05
0.000151128 -4.58146e-05 -4.51343e-05 -7.41592e-05
0.00044952 -0.000135255 -0.000134685 -6.18116e-05
0.000457947 -0.000137798 -0.000137207 -6.18126e-05
0.000152525 -4.62429e-05 -4.55494e-05 -7.41596e-05
0.000300316 -9.05424e-05 -8.99031e-05 -6.95311e-05
0.000453734 -0.000136526 -0.000135946 -6.18121e-05
0.000305926 -9.22428e-05 -9.15785e-05 -6.95321e-05
0.000303121 -9.13925e-05 -9.07408e-05 -6.95316e-05
0.000151128 -4.58146e-05 -4.51343e-05 -7.41592e-05
0.000148334 -4.49581e-05 -4.43039e-05 -7.41582e-05
0.000441094 -0.000132711 -0.000132164 -6.18106e-05
0.00044952 -0.000135255 -0.000134685 -6.18116e-05
0.000149731 -4.53863e-05 -4.47191e-05 -7.41587e-05
0.000294706 -8.88422e-05 -8.82275e-05 -6.95301e-05
0.000445307 -0.000133983 -0.000133425 -6.18111e-05
0.000300316 -9.05424e-05 -8.99031e-05 -6.95311e-05
0.000297511 -8.96923e-05 -8.90653e-05 -6.95306e-05
0.000148334 -4.49581e-05 -4.43039e-05 -7.41582e-05
0.000145539 -4.41018e-05 -4.34732e-05 -7.41573e-05
0.000432667 -0.000130168 -0.000129642 -6.18096e-05
0.000441094 -0.000132711 -0.000132164 -6.18106e-05
0.000146937 -4.45299e-05 -4.38886e-05 -7.41578e-05
0.000289096 -8.71423e-05 -8.65516e-05 -6.95291e-05
0.000436881 -0.00013144 -0.000130903 -6.18101e-05
0.000294706 -8.88422e-05 -8.82275e-05 -6.95301e-05
0.000291901 -8.79922e-05 -8.73896e-05 -6.95296e-05
0.000145539 -4.41018e-05 -4.34732e-05 -7.41573e-05
0.000142744 -4.32457e-05 -4.26423e-05 -7.41564e-05
0.000424241 -0.000127626 -0.000127121 -6.18086e-05
0.000432667 -0.000130168 -0.000129642 -6.18096e-05
0.000144142 -4.36737e-05 -4.30578e-05 -7.41569e-05
0.000283485 -8.54426e-05 -8.48755e-05 -6.95282e-05
0.000428454 -0.000128897 -0.000128382 -6.18091e-05
0.000289096 -8.71423e-05 -8.65516e-05 -6.95291e-05
0.000286291 -8.62924e-05 -8.57136e-05 -6.95286e-05
0.000142744 -4.32457e-05 -4.26423e-05 -7.41564e-05
0.000139949 -4.23899e-05 -4.18111e-05 -7.41555e-05
0.000415813 -0.000125083 -0.000124599 -6.18076e-05
0.000424241 -0.000127626 -0.000127121 -6.18086e-05
0.000141347 -4.28178e-05 -4.22267e-05 -7.4156e-05
0.000277874 -8.37431e-05 -8.31991e-05 -6.95272e-05
0.000420027 -0.000126354 -0.00012586 -6.18081e-05
0.000283485 -8.54426e-05 -8.48755e-05 -6.95282e-05
0.00028068 -8.45928e-05 -8.40373e-05 -6.95277e-05
0.000139949 -4.23899e-05 -4.18111e-05 -7.41555e-05
0.000137154 -4.15344e-05 -4.09796e-05 -7.41547e-05
0.000407386 -0.000122541 -0.000122077 -6.18067e-05
0.000415813 -0.000125083 -0.000124599 -6.18076e-05
0.000138551 -4.19621e-05 -4.13954e-05 -7.41551e-05
0.000272263 -8.20439e-05 -8.15226e-05 -6.95262e-05
0.0004116 -0.000123812 -0.000123338 -6.18071e-05
0.000277874 -8.37431e-05 -8.31991e-05 -6.95272e-05
0.000275069 -8.28935e-05 -8.23609e-05 -6.95267e-05
0.000137154 -4.15344e-05 -4.09796e-05 -7.41547e-05
0.000134358 -4.06791e-05 -4.01479e-05 -7.41538e-05
0.000398958 -0.000119998 -0.000119554 -6.18057e-05
0.000407386 -0.000122541 -0.000122077 -6.18067e-05
0.000135756 -4.11067e-05 -4.05638e-05 -7.41542e-05
0.000266652 -8.03449e-05 -7.98457e-05 -6.95253e-05
0.000403172 -0.00012127 -0.000120815 -6.18062e-05
0.000272263 -8.20439e-05 -8.15226e-05 -6.95262e-05
0.000269457 -8.11943e-05 -8.06842e-05 -6.95258e-05
0.000134358 -4.06791e-05 -4.01479e-05 -7.41538e-05
0.000131561 -3.9824e-05 -3.9316e-05 -7.41529e-05
0.00039053 -0.000117456 -0.000117032 -6.18048e-05
0.000398958 -0.000119998 -0.000119554 -6.18057e-05
0.000132959 -4.02515e-05 -3.9732e-05 -7.41534e-05
0.00026104 -7.86461e-05 -7.81687e-05 -6.95244e-05
0.000394744 -0.000118727 -0.000118293 -6.18052e-05
0.000266652 -8.03449e-05 -7.98457e-05 -6.95253e-05
0.000263846 -7.94955e-05 -7.90072e-05 -6.95248e-05
0.000131561 -3.9824e-05 -3.9316e-05 -7.41529e-05
0.000128764 -3.89691e-05 -3.84837e-05 -7.41521e-05
0.000382102 -0.000114915 -0.000114509 -6.18038e-05
0.00039053 -0.000117456 -0.000117032 -6.18048e-05
0.000130163 -3.93965e-05 -3.88999e-05 -7.41525e-05
0.000255427 -7.69475e-05 -7.64914e-05 -6.95235e-05
0.000386316 -0.000116186 -0.00011577 -6.18043e-05
0.00026104 -7.86461e-05 -7.81687e-05 -6.95244e-05
0.000258234 -7.77968e-05 -7.73301e-05 -6.95239e-05
0.000128764 -3.89691e-05 -3.84837e-05 -7.41521e-05
0.000125967 -3.81145e-05 -3.76512e-05 -7.41513e-05
0.000373673 -0.000112373 -0.000111986 -6.18029e-05
0.000382102 -0.000114915 -0.000114509 -6.18038e-05
0.000127366 -3.85418e-05 -3.80675e-05 -7.41517e-05
0.000249815 -7.52492e-05 -7.48139e-05 -6.95226e-05
0.000377888 -0.000113644 -0.000113247 -6.18034e-05
0.000255427 -7.69475e-05 -7.64914e-05 -6.95235e-05
0.000252621 -7.60983e-05 -7.56527e-05 -6.9523e-05
0.000125967 -3.81145e-05 -3.76512e-05 -7.41513e-05
0.00012317 -3.72601e-05 -3.68185e-05 -7.41505e-05
0.000365245 -0.000109832 -0.000109463 -6.1802e-05
0.000373673 -0.000112373 -0.000111986 -6.18029e-05
0.000124569 -3.76873e-05 -3.72349e-05 -7.41509e-05
0.000244202 -7.35511e-05 -7.31361e-05 -6.95217e-05
0.000369459 -0.000111102 -0.000110724 -6.18025e-05
0.000249815 -7.52492e-05 -7.48139e-05 -6.95226e-05
0.000247008 -7.44001e-05 -7.3975e-05 -6.95221e-05
0.00012317 -3.72601e-05 -3.68185e-05 -7.41505e-05
0.000120372 -3.6406e-05 -3.59855e-05 -7.41497e-05
0.000356815 -0.000107291 -0.000106939 -6.18011e-05
0.000365245 -0.000109832 -0.000109463 -6.1802e-05
0.000121771 -3.6833e-05 -3.6402e-05 -7.41501e-05
0.000238589 -7.18532e-05 -7.14581e-05 -6.95208e-05
0.00036103 -0.000108561 -0.000108201 -6.18016e-05
0.000244202 -7.35511e-05 -7.31361e-05 -6.95217e-05
0.000241395 -7.27021e-05 -7.22971e-05 -6.95212e-05
0.000120372 -3.6406e-05 -3.59855e-05 -7.41497e-05
0.000117574 -3.55521e-05 -3.51522e-05 -7.41489e-05
0.000348386 -0.00010475 -0.000104416 -6.18002e-05
0.000356815 -0.000107291 -0.000106939 -6.18011e-05
0.000118973 -3.5979e-05 -3.55689e-05 -7.41493e-05
0.000232975 -7.01556e-05 -6.97798e-05 -6.95199e-05
0.000352601 -0.00010602 -0.000105677 -6.18007e-05
0.000238589 -7.18532e-05 -7.14581e-05 -6.95208e-05
0.000235782 -7.10044e-05 -7.0619e-05 -6.95204e-05
0.000117574 -3.55521e-05 -3.51522e-05 -7.41489e-05
0.000114775 -3.46984e-05 -3.43187e-05 -7.41481e-05
0.000339956 -0.000102209 -0.000101892 -6.17994e-05
0.000348386 -0.00010475 -0.000104416 -6.18002e-05
0.000116175 -3.51252e-05 -3.47355e-05 -7.41485e-05
0.000227361 -6.84582e-05 -6.81014e-05 -6.95191e-05
0.000344171 -0.000103479 -0.000103154 -6.17998e-05
0.000232975 -7.01556e-05 -6.97798e-05 -6.95199e-05
0.000230168 -6.93068e-05 -6.89406e-05 -6.95195e-05
0.000114775 -3.46984e-05 -3.43187e-05 -7.41481e-05
0.000111976 -3.3845e-05 -3.34849e-05 -7.41474e-05
0.000331527 -9.96686e-05 -9.93677e-05 -6.17985e-05
0.000339956 -0.000102209 -0.000101892 -6.17994e-05
0.000113376 -3.42717e-05 -3.39018e-05 -7.41478e-05
0.000221747 -6.6761e-05 -6.64226e-05 -6.95183e-05
0.000335742 -0.000100939 -0.00010063 -6.17989e-05
0.000227361 -6.84582e-05 -6.81014e-05 -6.95191e-05
0.000224554 -6.76095e-05 -6.7262e-05 -6.95187e-05
0.000111976 -3.3845e-05 -3.34849e-05 -7.41474e-05
0.000109177 -3.29918e-05 -3.26508e-05 -7.41467e-05
0.000323096 -9.71283e-05 -9.68435e-05 -6.17977e-05
0.000331527 -9.96686e-05 -9.93677e-05 -6.17985e-05
0.000110577 -3.34183e-05 -3.30679e-05 -7.4147e-05
0.000216133 -6.5064e-05 -6.47437e-05 -6.95174e-05
0.000327311 -9.83984e-05 -9.81056e-05 -6.17981e-05
0.000221747 -6.6761e-05 -6.64226e-05 -6.95183e-05
0.00021894 -6.59125e-05 -6.55832e-05 -6.95178e-05
0.000109177 -3.29918e-05 -3.26508e-05 -7.41467e-05
0.000106377 -3.21388e-05 -3.18165e-05 -7.41459e-05
0.000314666 -9.45882e-05 -9.4319e-05 -6.17968e-05
0.000323096 -9.71283e-05 -9.68435e-05 -6.17977e-05
0.000107777 -3.25653e-05 -3.22337e-05 -7.41463e-05
0.000210518 -6.33673e-05 -6.30645e-05 -6.95166e-05
0.000318881 -9.58582e-05 -9.55813e-05 -6.17972e-05
0.000216133 -6.5064e-05 -6.47437e-05 -6.95174e-05
0.000213325 -6.42156e-05 -6.39041e-05 -6.9517e-05
0.000106377 -3.21388e-05 -3.18165e-05 -7.41459e-05
0.000103577 -3.12861e-05 -3.09819e-05 -7.41452e-05
0.000306235 -9.20483e-05 -9.17944e-05 -6.1796e-05
0.000314666 -9.45882e-05 -9.4319e-05 -6.17968e-05
0.000104977 -3.17124e-05 -3.13993e-05 -7.41456e-05
0.000204902 -6.16707e-05 -6.1385e-05 -6.95158e-05
0.000310451 -9.33182e-05 -9.30567e-05 -6.17964e-05
0.000210518 -6.33673e-05 -6.30645e-05 -6.95166e-05
0.00020771 -6.2519e-05 -6.22248e-05 -6.95162e-05
0.000103577 -3.12861e-05 -3.09819e-05 -7.41452e-05
0.000100777 -3.04336e-05 -3.01471e-05 -7.41445e-05
0.000297804 -8.95086e-05 -8.92695e-05 -6.17952e-05
0.000306235 -9.20483e-05 -9.17944e-05 -6.1796e-05
0.000102177 -3.08598e-05 -3.05646e-05 -7.41449e-05
0.000199287 -5.99744e-05 -5.97053e-05 -6.95151e-05
0.00030202 -9.07784e-05 -9.05319e-05 -6.17956e-05
0.000204902 -6.16707e-05 -6.1385e-05 -6.95158e-05
0.000202095 -6.08226e-05 -6.05452e-05 -6.95154e-05
0.000100777 -3.04336e-05 -3.01471e-05 -7.41445e-05
9.7976e-05 -2.95813e-05 -2.9312e-05 -7.41438e-05
0.000289373 -8.69691e-05 -8.67444e-05 -6.17944e-05
0.000297804 -8.95086e-05 -8.92695e-05 -6.17952e-05
9.93765e-05 -3.00074e-05 -2.97296e-05 -7.41442e-05
0.000193671 -5.82784e-05 -5.80254e-05 -6.95143e-05
0.000293588 -8.82388e-05 -8.8007e-05 -6.17948e-05
0.000199287 -5.99744e-05 -5.97053e-05 -6.95151e-05
0.000196479 -5.91264e-05 -5.88654e-05 -6.95147e-05
9.7976e-05 -2.95813e-05 -2.9312e-05 -7.41438e-05
9.51748e-05 -2.87293e-05 -2.84766e-05 -7.41432e-05
0.000280941 -8.44298e-05 -8.42191e-05 -6.17936e-05
0.000289373 -8.69691e-05 -8.67444e-05 -6.17944e-05
9.65755e-05 -2.91553e-05 -2.88944e-05 -7.41435e-05
0.000188055 -5.65825e-05 -5.63452e-05 -6.95135e-05
0.000285157 -8.56994e-05 -8.54818e-05 -6.1794e-05
0.000193671 -5.82784e-05 -5.80254e-05 -6.95143e-05
0.000190863 -5.74304e-05 -5.71853e-05 -6.95139e-05
9.51748e-05 -2.87293e-05 -2.84766e-05 -7.41432e-05
9.23732e-05 -2.78775e-05 -2.7641e-05 -7.41425e-05
0.000272509 -8.18907e-05 -8.16936e-05 -6.17929e-05
0.000280941 -8.44298e-05 -8.42191e-05 -6.17936e-05
9.37741e-05 -2.83034e-05 -2.80589e-05 -7.41429e-05
0.000182438 -5.48869e-05 -5.46648e-05 -6.95128e-05
0.000276725 -8.31602e-05 -8.29564e-05 -6.17932e-05
0.000188055 -5.65825e-05 -5.63452e-05 -6.95135e-05
0.000185246 -5.57347e-05 -5.55051e-05 -6.95132e-05
9.23732e-05 -2.78775e-05 -2.7641e-05 -7.41425e-05
8.95713e-05 -2.7026e-05 -2.68051e-05 -7.41419e-05
0.000264077 -7.93518e-05 -7.91679e-05 -6.17921e-05
0.000272509 -8.18907e-05 -8.16936e-05 -6.17929e-05
9.09723e-05 -2.74517e-05 -2.72231e-05 -7.41422e-05
0.000176821 -5.31916e-05 -5.29842e-05 -6.95121e-05
0.000268293 -8.06212e-05 -8.04308e-05 -6.17925e-05
0.000182438 -5.48869e-05 -5.46648e-05 -6.95128e-05
0.00017963 -5.40392e-05 -5.38245e-05 -6.95124e-05
8.95713e-05 -2.7026e-05 -2.68051e-05 -7.41419e-05
8.6769e-05 -2.61747e-05 -2.5969e-05 -7.41413e-05
0.000255644 -7.68132e-05 -7.66419e-05 -6.17914e-05
0.000264077 -7.93518e-05 -7.91679e-05 -6.17921e-05
8.81702e-05 -2.66003e-05 -2.63871e-05 -7.41416e-05
0.000171204 -5.14964e-05 -5.13033e-05 -6.95114e-05
0.000259861 -7.80825e-05 -7.79049e-05 -6.17917e-05
0.000176821 -5.31916e-05 -5.29842e-05 -6.95121e-05
0.000174013 -5.2344e-05 -5.21437e-05 -6.95117e-05
8.6769e-05 -2.61747e-05 -2.5969e-05 -7.41413e-05
8.39663e-05 -2.53237e-05 -2.51326e-05 -7.41407e-05
0.000247212 -7.42747e-05 -7.41158e-05 -6.17907e-05
0.000255644 -7.68132e-05 -7.66419e-05 -6.17914e-05
8.53677e-05 -2.57492e-05 -2.55508e-05 -7.4141e-05
0.000165586 -4.98015e-05 -4.96221e-05 -6.95107e-05
0.000251428 -7.55439e-05 -7.53789e-05 -6.1791e-05
0.000171204 -5.14964e-05 -5.13033e-05 -6.95114e-05
0.000168395 -5.06489e-05 -5.04627e-05 -6.95111e-05
8.39663e-05 -2.53237e-05 -2.51326e-05 -7.41407e-05
8.11633e-05 -2.44729e-05 -2.42959e-05 -7.41401e-05
0.000238778 -7.17365e-05 -7.15894e-05 -6.179e-05
0.000247212 -7.42747e-05 -7.41158e-05 -6.17907e-05
8.25648e-05 -2.48982e-05 -2.47143e-05 -7.41404e-05
0.000159969 -4.81068e-05 -4.79407e-05 -6.95101e-05
0.000242995 -7.30056e-05 -7.28526e-05 -6.17903e-05
0.000165586 -4.98015e-05 -4.96221e-05 -6.95107e-05
0.000162778 -4.89541e-05 -4.87814e-05 -6.95104e-05
8.11633e-05 -2.44729e-05 -2.42959e-05 -7.41401e-05
7.83599e-05 -2.36224e-05 -2.34589e-05 -7.41396e-05
0.000230345 -6.91985e-05 -6.90628e-05 -6.17894e-05
0.000238778 -7.17365e-05 -7.15894e-05 -6.179e-05
7.97616e-05 -2.40476e-05 -2.38774e-05 -7.41399e-05
0.00015435 -4.64124e-05 -4.62591e-05 -6.95095e-05
0.000234562 -7.04674e-05 -7.03261e-05 -6.17897e-05
0.000159969 -4.81068e-05 -4.79407e-05 -6.95101e-05
0.000157159 -4.72596e-05 -4.70999e-05 -6.95098e-05
7.83599e-05 -2.36224e-05 -2.34589e-05 -7.41396e-05
7.55562e-05 -2.27721e-05 -2.26217e-05 -7.41391e-05
0.000221911 -6.66607e-05 -6.6536e-05 -6.17888e-05
0.000230345 -6.91985e-05 -6.90628e-05 -6.17894e-05
7.69581e-05 -2.31972e-05 -2.30404e-05 -7.41393e-05
0.000148732 -4.47182e-05 -4.45772e-05 -6.95089e-05
0.000226128 -6.79295e-05 -6.77994e-05 -6.17891e-05
0.00015435 -4.64124e-05 -4.62591e-05 -6.95095e-05
0.000151541 -4.55653e-05 -4.54182e-05 -6.95092e-05
7.55562e-05 -2.27721e-05 -2.26217e-05 -7.41391e-05
7.27521e-05 -2.19221e-05 -2.17843e-05 -7.41386e-05
0.000213477 -6.41231e-05 -6.4009e-05 -6.17882e-05
0.000221911 -6.66607e-05 -6.6536e-05 -6.17888e-05
7.41542e-05 -2.23471e-05 -2.22031e-05 -7.41388e-05
0.000143113 -4.30243e-05 -4.28951e-05 -6.95084e-05
0.000217694 -6.53918e-05 -6.52725e-05 -6.17885e-05
0.000148732 -4.47182e-05 -4.45772e-05 -6.95089e-05
0.000145922 -4.38713e-05 -4.37362e-05 -6.95086e-05
7.27521e-05 -2.19221e-05 -2.17843e-05 -7.41386e-05
6.99478e-05 -2.10724e-05 -2.09466e-05 -7.41381e-05
0.000205043 -6.15857e-05 -6.14818e-05 -6.17878e-05
0.000213477 -6.41231e-05 -6.4009e-05 -6.17882e-05
7.135e-05 -2.14972e-05 -2.13655e-05 -7.41383e-05
0.000137494 -4.13307e-05 -4.12128e-05 -6.95079e-05
0.00020926 -6.28544e-05 -6.27454e-05 -6.1788e-05
0.000143113 -4.30243e-05 -4.28951e-05 -6.95084e-05
0.000140303 -4.21775e-05 -4.2054e-05 -6.95081e-05
6.99478e-05 -2.10724e-05 -2.09466e-05 -7.41381e-05
6.71431e-05 -2.0223e-05 -2.01086e-05 -7.41376e-05
0.000196609 -5.90486e-05 -5.89543e-05 -6.17873e-05
0.000205043 -6.15857e-05 -6.14818e-05 -6.17878e-05
6.85455e-05 -2.06477e-05 -2.05276e-05 -7.41379e-05
0.000131874 -3.96373e-05 -3.95302e-05 -6.95074e-05
0.000200826 -6.03171e-05 -6.02181e-05 -6.17875e-05
0.000137494 -4.13307e-05 -4.12128e-05 -6.95079e-05
0.000134684 -4.04839e-05 -4.03715e-05 -6.95076e-05
6.71431e-05 -2.0223e-05 -2.01086e-05 -7.41376e-05
6.43382e-05 -1.93737e-05 -1.92705e-05 -7.41372e-05
0.000188174 -5.65117e-05 -5.64267e-05 -6.17869e-05
0.000196609 -5.90486e-05 -5.89543e-05 -6.17873e-05
6.57407e-05 -1.97983e-05 -1.96896e-05 -7.41374e-05
0.000126255 -3.79441e-05 -3.78474e-05 -6.95069e-05
0.000192391 -5.77801e-05 -5.76905e-05 -6.17871e-05
0.000131874 -3.96373e-05 -3.95302e-05 -6.95074e-05
0.000129065 -3.87907e-05 -3.86888e-05 -6.95072e-05
6.43382e-05 -1.93737e-05 -1.92705e-05 -7.41372e-05
6.15329e-05 -1.85247e-05 -1.84321e-05 -7.41366e-05
0.000179739 -5.3975e-05 -5.38989e-05 -6.17866e-05
0.000188174 -5.65117e-05 -5.64267e-05 -6.17869e-05
6.29356e-05 -1.89492e-05 -1.88513e-05 -7.41369e-05
0.000120635 -3.62512e-05 -3.61644e-05 -6.95065e-05
0.000183957 -5.52434e-05 -5.51628e-05 -6.17867e-05
0.000126255 -3.79441e-05 -3.78474e-05 -6.95069e-05
0.000123445 -3.70976e-05 -3.70059e-05 -6.95067e-05
6.15329e-05 -1.85247e-05 -1.84321e-05 -7.41366e-05
5.87274e-05 -1.76758e-05 -1.75935e-05 -7.4136e-05
0.000171304 -5.14385e-05 -5.13709e-05 -6.17861e-05
0.000179739 -5.3975e-05 -5.38989e-05 -6.17866e-05
6.01302e-05 -1.81002e-05 -1.80128e-05 -7.41363e-05
0.000115015 -3.45584e-05 -3.44813e-05 -6.95059e-05
0.000175522 -5.27068e-05 -5.26349e-05 -6.17864e-05
0.000120635 -3.62512e-05 -3.61644e-05 -6.95065e-05
0.000117825 -3.54048e-05 -3.53228e-05 -6.95062e-05
5.87274e-05 -1.76758e-05 -1.75935e-05 -7.4136e-05
5.59214e-05 -1.68267e-05 -1.67549e-05 -7.41352e-05
0.000162869 -4.89021e-05 -4.88429e-05 -6.17856e-05
0.000171304 -5.14385e-05 -5.13709e-05 -6.17861e-05
5.73244e-05 -1.72513e-05 -1.71742e-05 -7.41356e-05
0.000109394 -3.28655e-05 -3.2798e-05 -6.95051e-05
0.000167086 -5.01703e-05 -5.01069e-05 -6.17859e-05
0.000115015 -3.45584e-05 -3.44813e-05 -6.95059e-05
0.000112204 -3.3712e-05 -3.36396e-05 -6.95055e-05
5.59214e-05 -1.68267e-05 -1.67549e-05 -7.41352e-05
5.31149e-05 -1.59773e-05 -1.59161e-05 -7.41342e-05
0.000154433 -4.63654e-05 -4.63148e-05 -6.17846e-05
0.000162869 -4.89021e-05 -4.88429e-05 -6.17856e-05
5.45182e-05 -1.64021e-05 -1.63355e-05 -7.41347e-05
0.000103773 -3.11723e-05 -3.11148e-05 -6.9504e-05
0.000158651 -4.76338e-05 -4.75788e-05 -6.17852e-05
0.000109394 -3.28655e-05 -3.2798e-05 -6.95051e-05
0.000106584 -3.2019e-05 -3.19564e-05 -6.95046e-05
5.31149e-05 -1.59773e-05 -1.59161e-05 -7.41342e-05
5.03074e-05 -1.51268e-05 -1.50774e-05 -7.4133e-05
0.000145998 -4.38281e-05 -4.37869e-05 -6.1783e-05
0.000154433 -4.63654e-05 -4.63148e-05 -6.17846e-05
5.17113e-05 -1.55522e-05 -1.54968e-05 -7.41336e-05
9.8152e-05 -2.94782e-05 -2.94316e-05 -6.95024e-05
0.000150215 -4.50969e-05 -4.50508e-05 -6.17839e-05
0.000103773 -3.11723e-05 -3.11148e-05 -6.9504e-05
0.000100963 -3.03255e-05 -3.02732e-05 -6.95033e-05
5.03074e-05 -1.51268e-05 -1.50774e-05 -7.4133e-05
4.74983e-05 -1.42744e-05 -1.42388e-05 -7.41318e-05
0.000137561 -4.12892e-05 -4.12593e-05 -6.17801e-05
0.000145998 -4.38281e-05 -4.37869e-05 -6.1783e-05
4.89032e-05 -1.47009e-05 -1.46581e-05 -7.41323e-05
9.25291e-05 -2.77821e-05 -2.77487e-05 -6.95e-05
0.000141779 -4.2559e-05 -4.2523e-05 -6.17817e-05
9.8152e-05 -2.94782e-05 -2.94316e-05 -6.95024e-05
9.53407e-05 -2.86305e-05 -2.85901e-05 -6.95013e-05
4.74983e-05 -1.42744e-05 -1.42388e-05 -7.41318e-05
4.46863e-05 -1.34183e-05 -1.34006e-05 -7.41315e-05
0.000129122 -3.87468e-05 -3.87323e-05 -6.1775e-05
0.000137561 -4.12892e-05 -4.12593e-05 -6.17801e-05
4.60927e-05 -1.3847e-05 -1.38196e-05 -7.41314e-05
8.69032e-05 -2.60817e-05 -2.60664e-05 -6.9497e-05
0.000133342 -4.00186e-05 -3.99957e-05 -6.17779e-05
9.25291e-05 -2.77821e-05 -2.77487e-05 -6.95e-05
8.97166e-05 -2.69326e-05 -2.69074e-05 -6.94986e-05
4.46863e-05 -1.34183e-05 -1.34006e-05 -7.41315e-05
4.18683e-05 -1.25557e-05 -1.25625e-05 -7.41343e-05
0.000120679 -3.61969e-05 -3.62067e-05 -6.17664e-05
0.000129122 -3.87468e-05 -3.87323e-05 -6.1775e-05
4.32783e-05 -1.29881e-05 -1.29815e-05 -7.41323e-05
8.12712e-05 -2.43732e-05 -2.43848e-05 -6.94938e-05
0.000124901 -3.74731e-05 -3.74693e-05 -6.17713e-05
8.69032e-05 -2.60817e-05 -2.60664e-05 -6.9497e-05
8.40882e-05 -2.52289e-05 -2.52255e-05 -6.94954e-05
4.18683e-05 -1.25557e-05 -1.25625e-05 -7.41343e-05
3.90404e-05 -1.16813e-05 -1.17253e-05 -7.41453e-05
0.000112225 -3.36323e-05 -3.36824e-05 -6.17524e-05
0.000120679 -3.61969e-05 -3.62067e-05 -6.17664e-05
4.04557e-05 -1.21204e-05 -1.21437e-05 -7.41383e-05
7.56264e-05 -2.2649e-05 -2.27046e-05 -6.94921e-05
0.000116454 -3.49171e-05 -3.49444e-05 -6.17602e-05
8.12712e-05 -2.43732e-05 -2.43848e-05 -6.94938e-05
7.84509e-05 -2.35137e-05 -2.35445e-05 -6.94925e-05
3.90404e-05 -1.16813e-05 -1.17253e-05 -7.41453e-05
3.61918e-05 -1.07871e-05 -1.08877e-05 -7.41747e-05
0.000103749 -3.10397e-05 -3.11611e-05 -6.17298e-05
0.000112225 -3.36323e-05 -3.36824e-05 -6.17524e-05
3.76199e-05 -1.12375e-05 -1.13067e-05 -7.41567e-05
6.99563e-05 -2.08966e-05 -2.10256e-05 -6.94965e-05
0.00010799 -3.23406e-05 -3.24211e-05 -6.17425e-05
7.56264e-05 -2.2649e-05 -2.27046e-05 -6.94921e-05
7.27955e-05 -2.17776e-05 -2.18648e-05 -6.94934e-05
3.61918e-05 -1.07871e-05 -1.08877e-05 -7.41747e-05
3.33113e-05 -9.85855e-06 -1.00512e-05 -7.4242e-05
9.52248e-05 -2.83961e-05 -2.86409e-05 -6.16959e-05
0.000103749 -3.10397e-05 -3.11611e-05 -6.17298e-05
3.47557e-05 -1.03281e-05 -1.0469e-05 -7.4202e-05
6.42378e-05 -1.90931e-05 -1.93477e-05 -6.95161e-05
9.94957e-05 -2.97265e-05 -2.99011e-05 -6.17143e-05
6.99563e-05 -2.08966e-05 -2.10256e-05 -6.94965e-05
6.7105e-05 -2.00028e-05 -2.01866e-05 -6.9503e-05
3.33113e-05 -9.85855e-06 -1.00512e-05 -7.4242e-05
3.03644e-05 -8.8758e-06 -9.2094e-06 -7.43834e-05
8.66188e-05 -2.56614e-05 -2.61246e-05 -6.16442e-05
9.52248e-05 -2.83961e-05 -2.86409e-05 -6.16959e-05
3.18502e-05 -9.37615e-06 -9.63175e-06 -7.43002e-05
5.84304e-05 -1.72047e-05 -1.76682e-05 -6.95698e-05
9.09333e-05 -2.7043e-05 -2.73816e-05 -6.16732e-05
6.42378e-05 -1.90931e-05 -1.93477e-05 -6.95161e-05
6.13484e-05 -1.81629e-05 -1.85081e-05 -6.95381e-05
3.03644e-05 -8.8758e-06 -9.2094e-06 -7.43834e-05
2.7326e-05 -7.80509e-06 -8.36609e-06 -7.46563e-05
7.78412e-05 -2.27785e-05 -2.35983e-05 -6.15785e-05
8.66188e-05 -2.56614e-05 -2.61246e-05 -6.16442e-05
2.88557e-05 -8.35259e-06 -8.78703e-06 -7.4499e-05
5.24654e-05 -1.51753e-05 -1.59815e-05 -6.96913e-05
8.22613e-05 -2.42444e-05 -2.48644e-05 -6.1612e-05
5.84304e-05 -1.72047e-05 -1.76682e-05 -6.95698e-05
5.54731e-05 -1.62105e-05 -1.68268e-05 -6.96169e-05
2.7326e-05 -7.80509e-06 -8.36609e-06 -7.46563e-05
2.41053e-05 -6.61823e-06 -7.49447e-06 -7.51549e-05
6.88059e-05 -1.96563e-05 -2.10641e-05 -6.14922e-05
7.78412e-05 -2.27785e-05 -2.35983e-05 -6.15785e-05
2.57507e-05 -7.23061e-06 -7.93718e-06 -7.48693e-05
4.62422e-05 -1.29465e-05 -1.42696e-05 -6.99388e-05
7.33567e-05 -2.12509e-05 -2.23311e-05 -6.15395e-05
5.24654e-05 -1.51753e-05 -1.59815e-05 -6.96913e-05
4.93932e-05 -1.40924e-05 -1.51289e-05 -6.97992e-05
2.41053e-05 -6.61823e-06 -7.49447e-06 -7.51549e-05
2.06862e-05 -5.27278e-06 -6.60574e-06 -7.59891e-05
5.92759e-05 -1.62194e-05 -1.84528e-05 -6.14397e-05
6.88059e-05 -1.96563e-05 -2.10641e-05 -6.14922e-05
2.24103e-05 -5.96058e-06 -7.04988e-06 -7.55232e-05
3.96122e-05 -1.0443e-05 -1.25011e-05 -7.04028e-05
6.41313e-05 -1.79874e-05 -1.9776e-05 -6.14539e-05
4.62422e-05 -1.29465e-05 -1.42696e-05 -6.99388e-05
4.29895e-05 -1.17259e-05 -1.33987e-05 -7.01269e-05
2.06862e-05 -5.27278e-06 -6.60574e-06 -7.59891e-05
1.69104e-05 -3.84127e-06 -5.60105e-06 -7.72844e-05
4.9147e-05 -1.23883e-05 -1.57537e-05 -6.1458e-05
5.92759e-05 -1.62194e-05 -1.84528e-05 -6.14397e-05
1.88729e-05 -4.56952e-06 -6.13e-06 -7.657e-05
3.24579e-05 -7.73004e-06 -1.05976e-05 -7.12048e-05
5.42707e-05 -1.43382e-05 -1.7114e-05 -6.14399e-05
3.96122e-05 -1.0443e-05 -1.25011e-05 -7.04028e-05
3.61039e-05 -9.11206e-06 -1.15679e-05 -7.07708e-05
1.69104e-05 -3.84127e-06 -5.60105e-06 -7.72844e-05
1.30086e-05 -2.45975e-06 -4.52094e-06 -7.89842e-05
3.80448e-05 -8.43422e-06 -1.26902e-05 -6.18511e-05
4.9147e-05 -1.23883e-05 -1.57537e-05 -6.1458e-05
1.49164e-05 -3.09899e-06 -5.06461e-06 -7.80991e-05
2.47163e-05 -5.02968e-06 -8.43712e-06 -7.24685e-05
4.37799e-05 -1.04186e-05 -1.42977e-05 -6.15713e-05
3.24579e-05 -7.73004e-06 -1.05976e-05 -7.12048e-05
2.8665e-05 -6.3205e-06 -9.57623e-06 -7.17362e-05
1.30086e-05 -2.45975e-06 -4.52094e-06 -7.89842e-05
9.02368e-06 -1.89147e-06 -3.05666e-06 -8.0685e-05
2.65104e-05 -5.01339e-06 -9.21299e-06 -6.28438e-05
3.80448e-05 -8.43422e-06 -1.26902e-05 -6.18511e-05
1.108e-05 -2.04551e-06 -3.87193e-06 -7.98777e-05
1.69307e-05 -3.44276e-06 -5.78056e-06 -7.41441e-05
3.22016e-05 -6.50649e-06 -1.10122e-05 -6.22619e-05
2.47163e-05 -5.02968e-06 -8.43712e-06 -7.24685e-05
2.07565e-05 -4.02587e-06 -7.17029e-06 -7.33337e-05
9.02368e-06 -1.89147e-06 -3.05666e-06 -8.0685e-05
6.24775e-06 -3.0203e-06 -1.38319e-06 -8.08035e-05
1.52852e-05 -4.95925e-06 -4.42539e-06 -6.51666e-05
2.65104e-05 -5.01339e-06 -9.21299e-06 -6.28438e-05
7.26959e-06 -2.0864e-06 -2.22137e-06 -8.11035e-05
1.03027e-05 -4.75121e-06 -2.37921e-06 -7.54568e-05
2.08964e-05 -4.3858e-06 -7.07599e-06 -6.37737e-05
1.69307e-05 -3.44276e-06 -5.78056e-06 -7.41441e-05
1.33943e-05 -3.49447e-06 -4.24279e-06 -7.48208e-05
6.24775e-06 -3.0203e-06 -1.38319e-06 -8.08035e-05
4.8359e-06 -7.58214e-06 1.17696e-06 -7.63892e-05
9.30218e-06 -1.33255e-05 1.72426e-06 -6.70668e-05
1.52852e-05 -4.95925e-06 -4.42539e-06 -6.51666e-05
5.56692e-06 -4.98544e-06 -2.49205e-07 -7.9404e-05
7.95452e-06 -1.2377e-05 1.89533e-06 -7.32221e-05
1.09844e-05 -7.34161e-06 -1.56121e-06 -6.64216e-05
1.03027e-05 -4.75121e-06 -2.37921e-06 -7.54568e-05
8.28107e-06 -7.72977e-06 -2.3627e-07 -7.53314e-05
4.8359e-06 -7.58214e-06 1.17696e-06 -7.63892e-05
6.28469e-06 -1.36286e-05 3.1474e-06 -6.25325e-05
1.22307e-05 -3.95869e-05 1.17241e-05 -6.18046e-05
9.30218e-06 -1.33255e-05 1.72426e-06 -6.70668e-05
4.82002e-06 -1.03939e-05 2.38879e-06 -7.09658e-05
9.69191e-06 -2.62246e-05 7.08545e-06 -6.10585e-05
9.84777e-06 -2.43913e-05 6.23293e-06 -6.62133e-05
7.95452e-06 -1.2377e-05 1.89533e-06 -7.32221e-05
8.64934e-06 -1.85384e-05 4.23815e-06 -6.8484e-05
6.28469e-06 -1.36286e-05 3.1474e-06 -6.25325e-05
1.00934e-05 -2.20568e-05 5.12717e-06 -3.56328e-05
2.1077e-05 -7.18047e-05 2.17404e-05 -3.27555e-05
1.22307e-05 -3.95869e-05 1.17241e-05 -6.18046e-05
8.33931e-06 -1.75547e-05 3.94944e-06 -5.08628e-05
1.3658e-05 -4.46999e-05 1.33036e-05 -3.62064e-05
1.6093e-05 -5.68118e-05 1.74509e-05 -5.11443e-05
9.69191e-06 -2.62246e-05 7.08545e-06 -6.10585e-05
1.12916e-05 -3.52777e-05 1.02798e-05 -5.05704e-05
0.00135653 0 -0.000581369 0.000176406
0.00153541 -0.000204687 -0.000570312 -7.5048e-06
0.00265841 -0.000527238 -0.00091336 -0.000199984
0.00236228 2.22045e-16 -0.00101241 -0.000138394
0.00147082 -0.000115174 -0.00058099 6.52665e-05
0.00205094 -0.000318933 -0.00074229 -8.36521e-05
0.00252806 -0.000248519 -0.000976946 -0.000231797
0.00193072 0 -0.000827453 2.47757e-05
0.00196362 -0.000176941 -0.000765722 -2.82703e-05
0.00153541 -0.000204687 -0.000570312 -7.5048e-06
0.00161458 -0.000374291 -0.000531551 -6.46334e-05
0.00276286 -0.000749671 -0.000862794 -9.60602e-05
0.00265841 -0.000527238 -0.00091336 -0.000199984
0.00157506 -0.000294825 -0.000548673 -4.43115e-05
0.00218801 -0.000541981 -0.000705441 -9.72438e-05
0.00274082 -0.000683827 -0.00088157 -0.000144796
0.00205094 -0.000318933 -0.00074229 -8.36521e-05
0.00214249 -0.000444102 -0.00072788 -0.000109129
0.00161458 -0.000374291 -0.000531551 -6.46334e-05
0.00165508 -0.000460468 -0.000511978 -7.55092e-05
0.00274996 -0.000812653 -0.000830274 -3.62544e-05
0.00276286 -0.000749671 -0.000862794 -9.60602e-05
0.00164443 -0.000427657 -0.000521472 -7.45931e-05
0.00221072 -0.000632387 -0.000676431 -6.54909e-05
0.00275555 -0.000788817 -0.000842884 -5.69133e-05
0.00218801 -0.000541981 -0.000705441 -9.72438e-05
0.00220493 -0.000600847 -0.000687464 -7.70908e-05
0.00165508 -0.000460468 -0.000511978 -7.55092e-05
0.00165408 -0.000494712 -0.000496873 -6.96545e-05
0.00273068 -0.000821716 -0.000818126 -2.25236e-05
0.00274996 -0.000812653 -0.000830274 -3.62544e-05
0.00165536 -0.000481903 -0.00050291 -7.22567e-05
0.0022004 -0.000661637 -0.000659469 -4.96379e-05
0.00274278 -0.000821206 -0.00082353 -2.70836e-05
0.00221072 -0.000632387 -0.000676431 -6.54909e-05
0.00220826 -0.00065138 -0.000667235 -5.69719e-05
0.00165408 -0.000494712 -0.000496873 -6.96545e-05
0.00164277 -0.000501611 -0.000489069 -6.55943e-05
0.00270832 -0.000820593 -0.000809025 -2.16152e-05
0.00273068 -0.000821716 -0.000818126 -2.25236e-05
0.00165023 -0.000500364 -0.0004928 -6.76306e-05
0.00218037 -0.000663713 -0.000649996 -4.44863e-05
0.00271781 -0.000821452 -0.000812725 -2.07409e-05
0.0022004 -0.000661637 -0.000659469 -4.96379e-05
0.00219011 -0.000664665 -0.000653762 -4.54373e-05
0.00164277 -0.000501611 -0.000489069 -6.55943e-05
0.00162657 -0.000499383 -0.000483078 -6.28655e-05
0.00269133 -0.000814719 -0.000804263 -2.59227e-05
0.00270832 -0.000820593 -0.000809025 -2.16152e-05
0.00163409 -0.000501053 -0.000485588 -6.38244e-05
0.00216183 -0.000659321 -0.000643932 -4.46458e-05
0.00270017 -0.000818049 -0.000806624 -2.38652e-05
0.00218037 -0.000663713 -0.000649996 -4.44863e-05
0.002171 -0.000661803 -0.0006468 -4.45349e-05
0.00162657 -0.000499383 -0.000483078 -6.28655e-05
0.00161239 -0.00049402 -0.000479302 -6.19757e-05
0.00267493 -0.00080891 -0.000799723 -2.96213e-05
0.00269133 -0.000814719 -0.000804263 -2.59227e-05
0.00161955 -0.000496874 -0.000481146 -6.23736e-05
0.00214511 -0.000652758 -0.000639581 -4.62277e-05
0.00268264 -0.000811702 -0.00080183 -2.77688e-05
0.00216183 -0.000659321 -0.000643932 -4.46458e-05
0.00215311 -0.000656145 -0.000641557 -4.52353e-05
0.00161239 -0.00049402 -0.000479302 -6.19757e-05
0.00159946 -0.000488687 -0.000476044 -6.15907e-05
0.00266022 -0.000803225 -0.000795854 -3.26783e-05
0.00267493 -0.00080891 -0.000799723 -2.96213e-05
0.00160554 -0.000491272 -0.000477545 -6.16879e-05
0.00213056 -0.000646806 -0.000635896 -4.78716e-05
0.00266764 -0.000806052 -0.000797825 -3.13459e-05
0.00214511 -0.000652758 -0.000639581 -4.62277e-05
0.00213766 -0.000649658 -0.000637714 -4.71568e-05
0.00159946 -0.000488687 -0.000476044 -6.15907e-05
0.00158842 -0.000483957 -0.00047334 -6.15949e-05
0.00264569 -0.000798066 -0.000791839 -3.45628e-05
0.00266022 -0.000803225 -0.000795854 -3.26783e-05
0.00159384 -0.000486237 -0.000474688 -6.1592e-05
0.00211734 -0.000641491 -0.000632508 -4.91244e-05
0.00265284 -0.000800577 -0.000793826 -3.37104e-05
0.00213056 -0.000646806 -0.000635896 -4.78716e-05
0.0021238 -0.000644071 -0.00063417 -4.85249e-05
0.00158842 -0.000483957 -0.00047334 -6.15949e-05
0.00157835 -0.000479973 -0.000470735 -6.16472e-05
0.00263156 -0.000793234 -0.000787853 -3.57704e-05
0.00264569 -0.000798066 -0.000791839 -3.45628e-05
0.00158323 -0.000481879 -0.00047201 -6.16074e-05
0.00210504 -0.000636909 -0.0006292 -4.99557e-05
0.00263864 -0.000795619 -0.000789866 -3.5258e-05
0.00211734 -0.000641491 -0.000632508 -4.91244e-05
0.00211111 -0.000639118 -0.000630856 -4.96023e-05
0.00157835 -0.000479973 -0.000470735 -6.16472e-05
0.00156909 -0.00047653 -0.000468239 -6.17368e-05
0.00261745 -0.000788657 -0.00078377 -3.64354e-05
0.00263156 -0.000793234 -0.000787853 -3.57704e-05
0.00157367 -0.000478197 -0.00046949 -6.1697e-05
0.00209325 -0.000632787 -0.000625912 -5.04715e-05
0.00262448 -0.000790919 -0.000785813 -3.61468e-05
0.00210504 -0.000636909 -0.0006292 -4.99557e-05
0.0020991 -0.000634803 -0.000627554 -5.02406e-05
0.00156909 -0.00047653 -0.000468239 -6.17368e-05
0.00156021 -0.000473461 -0.000465749 -6.18042e-05
0.00260342 -0.000784226 -0.000779655 -3.68141e-05
0.00261745 -0.000788657 -0.00078377 -3.64354e-05
0.0015646 -0.000474959 -0.000466989 -6.17709e-05
0.00208175 -0.000628985 -0.000622612 -5.0771e-05
0.00261044 -0.000786428 -0.000781721 -3.66563e-05
0.00209325 -0.000632787 -0.000625912 -5.04715e-05
0.00208747 -0.000630854 -0.000624265 -5.06454e-05
0.00156021 -0.000473461 -0.000465749 -6.18042e-05
0.00155158 -0.000470615 -0.000463271 -6.18587e-05
0.00258938 -0.000779885 -0.0007755 -3.70079e-05
0.00260342 -0.000784226 -0.000779655 -3.68141e-05
0.00155588 -0.000472017 -0.000464512 -6.18345e-05
0.00207039 -0.000625363 -0.000619299 -5.09408e-05
0.0025964 -0.000782047 -0.00077758 -3.6926e-05
0.00208175 -0.000628985 -0.000622612 -5.0771e-05
0.00207606 -0.000627158 -0.000620957 -5.08671e-05
0.00155158 -0.000470615 -0.000463271 -6.18587e-05
0.00154307 -0.0004679 -0.000460787 -6.18953e-05
0.00257535 -0.00077559 -0.000771327 -3.711e-05
0.00258938 -0.000779885 -0.0007755 -3.70079e-05
0.00154731 -0.000469245 -0.000462029 -6.18784e-05
0.00205912 -0.000621845 -0.000615974 -5.10331e-05
0.00258237 -0.000777733 -0.000773416 -3.70681e-05
0.00207039 -0.000625363 -0.000619299 -5.09408e-05
0.00206475 -0.000623594 -0.000617638 -5.09947e-05
0.00154307 -0.0004679 -0.000460787 -6.18953e-05
0.00153462 -0.000465255 -0.000458301 -6.19208e-05
0.00256131 -0.000771321 -0.00076714 -3.71591e-05
0.00257535 -0.00077559 -0.000771327 -3.711e-05
0.00153884 -0.000466571 -0.000459545 -6.19096e-05
0.00204787 -0.000618382 -0.000612639 -5.10829e-05
0.00256833 -0.000773453 -0.000769234 -3.71387e-05
0.00205912 -0.000621845 -0.000615974 -5.10331e-05
0.00205349 -0.000620109 -0.000614307 -5.10616e-05
0.00153462 -0.000465255 -0.000458301 -6.19208e-05
0.00152621 -0.000462647 -0.000455811 -6.19373e-05
0.00254727 -0.000767064 -0.000762947 -3.71835e-05
0.00256131 -0.000771321 -0.00076714 -3.71591e-05
0.00153041 -0.000463947 -0.000457056 -6.19299e-05
0.00203665 -0.000614947 -0.000609299 -5.11091e-05
0.00255429 -0.000769192 -0.000765044 -3.71736e-05
0.00204787 -0.000618382 -0.000612639 -5.10829e-05
0.00204226 -0.000616662 -0.00061097 -5.10983e-05
0.00152621 -0.000462647 -0.000455811 -6.19373e-05
0.0015178 -0.000460058 -0.000453319 -6.19479e-05
0.00253323 -0.000762813 -0.000758749 -3.71946e-05
0.00254727 -0.000767064 -0.000762947 -3.71835e-05
0.001522 -0.000461351 -0.000454565 -6.19432e-05
0.00202542 -0.000611525 -0.000605956 -5.11229e-05
0.00254025 -0.000764938 -0.000760848 -3.71901e-05
0.00203665 -0.000614947 -0.000609299 -5.11091e-05
0.00203103 -0.000613235 -0.000607628 -5.11171e-05
0.0015178 -0.000460058 -0.000453319 -6.19479e-05
0.0015094 -0.000457479 -0.000450825 -6.19544e-05
0.00251918 -0.000758564 -0.000754549 -3.71997e-05
0.00253323 -0.000762813 -0.000758749 -3.71946e-05
0.0015136 -0.000458767 -0.000452072 -6.19515e-05
0.0020142 -0.00060811 -0.00060261 -5.113e-05
0.0025262 -0.000760688 -0.000756649 -3.71977e-05
0.00202542 -0.000611525 -0.000605956 -5.11229e-05
0.00201981 -0.000609817 -0.000604283 -5.11271e-05
0.0015094 -0.000457479 -0.000450825 -6.19544e-05
0.00150101 -0.000454904 -0.00044833 -6.19582e-05
0.00250513 -0.000754317 -0.000750348 -3.72017e-05
0.00251918 -0.000758564 -0.000754549 -3.71997e-05
0.0015052 -0.000456191 -0.000449577 -6.19566e-05
0.00200298 -0.000604698 -0.000599263 -5.11334e-05
0.00251215 -0.00075644 -0.000752449 -3.72009e-05
0.0020142 -0.00060811 -0.00060261 -5.113e-05
0.00200859 -0.000606404 -0.000600937 -5.1132e-05
0.00150101 -0.000454904 -0.00044833 -6.19582e-05
0.00149261 -0.000452331 -0.000445834 -6.19602e-05
0.00249108 -0.00075007 -0.000746146 -3.72024e-05
0.00250513 -0.000754317 -0.000750348 -3.72017e-05
0.00149681 -0.000453617 -0.000447082 -6.19594e-05
0.00199176 -0.000601288 -0.000595915 -5.11349e-05
0.0024981 -0.000752193 -0.000748247 -3.72022e-05
0.00200298 -0.000604698 -0.000599263 -5.11334e-05
0.00199737 -0.000602993 -0.000597589 -5.11344e-05
0.00149261 -0.000452331 -0.000445834 -6.19602e-05
0.00148421 -0.000449759 -0.000443337 -6.1961e-05
0.00247702 -0.000745823 -0.000741944 -3.72023e-05
0.00249108 -0.00075007 -0.000746146 -3.72024e-05
0.00148841 -0.000451045 -0.000444585 -6.19607e-05
0.00198053 -0.000597878 -0.000592566 -5.11354e-05
0.00248405 -0.000747946 -0.000744045 -3.72024e-05
0.00199176 -0.000601288 -0.000595915 -5.11349e-05
0.00198614 -0.000599583 -0.00059424 -5.11352e-05
0.00148421 -0.000449759 -0.000443337 -6.1961e-05
0.00147581 -0.000447188 -0.00044084 -6.19611e-05
0.00246297 -0.000741576 -0.000737741 -3.72018e-05
0.00247702 -0.000745823 -0.000741944 -3.72023e-05
0.00148001 -0.000448474 -0.000442088 -6.19611e-05
0.00196931 -0.000594468 -0.000589217 -5.11352e-05
0.00247 -0.000743699 -0.000739842 -3.72021e-05
0.00198053 -0.000597878 -0.000592566 -5.11354e-05
0.00197492 -0.000596173 -0.000590892 -5.11353e-05
0.00147581 -0.000447188 -0.00044084 -6.19611e-05
0.00146742 -0.000444618 -0.000438342 -6.19607e-05
0.00244892 -0.000737329 -0.000733538 -3.72012e-05
0.00246297 -0.000741576 -0.000737741 -3.72018e-05
0.00147162 -0.000445903 -0.000439591 -6.1961e-05
0.00195808 -0.000591058 -0.000585868 -5.11346e-05
0.00245594 -0.000739453 -0.000735639 -3.72015e-05
0.00196931 -0.000594468 -0.000589217 -5.11352e-05
0.0019637 -0.000592763 -0.000587542 -5.11349e-05
0.00146742 -0.000444618 -0.000438342 -6.19607e-05
0.00145902 -0.000442048 -0.000435845 -6.196e-05
0.00243486 -0.000733083 -0.000729335 -3.72005e-05
0.00244892 -0.000737329 -0.000733538 -3.72012e-05
0.00146322 -0.000443333 -0.000437093 -6.19604e-05
0.00194686 -0.000587649 -0.000582518 -5.11338e-05
0.00244189 -0.000735206 -0.000731437 -3.72008e-05
0.00195808 -0.000591058 -0.000585868 -5.11346e-05
0.00195247 -0.000589354 -0.000584193 -5.11342e-05
0.00145902 -0.000442048 -0.000435845 -6.196e-05
0.00145062 -0.000439478 -0.000433346 -6.19592e-05
0.00242081 -0.000728836 -0.000725132 -3.71997e-05
0.00243486 -0.000733083 -0.000729335 -3.72005e-05
0.00145482 -0.000440763 -0.000434596 -6.19596e-05
0.00193563 -0.00058424 -0.000579168 -5.1133e-05
0.00242784 -0.000730959 -0.000727233 -3.72001e-05
0.00194686 -0.000587649 -0.000582518 -5.11338e-05
0.00194125 -0.000585945 -0.000580843 -5.11334e-05
0.00145062 -0.000439478 -0.000433346 -6.19592e-05
0.00144222 -0.000436909 -0.000430848 -6.19582e-05
0.00240676 -0.00072459 -0.000720928 -3.71989e-05
0.00242081 -0.000728836 -0.000725132 -3.71997e-05
0.00144642 -0.000438193 -0.000432097 -6.19587e-05
0.00192441 -0.000580831 -0.000575818 -5.1132e-05
0.00241378 -0.000726713 -0.00072303 -3.71993e-05
0.00193563 -0.00058424 -0.000579168 -5.1133e-05
0.00193002 -0.000582536 -0.000577493 -5.11325e-05
0.00144222 -0.000436909 -0.000430848 -6.19582e-05
0.00143382 -0.000434339 -0.00042835 -6.19572e-05
0.0023927 -0.000720344 -0.000716725 -3.71981e-05
0.00240676 -0.00072459 -0.000720928 -3.71989e-05
0.00143802 -0.000435624 -0.000429599 -6.19577e-05
0.00191318 -0.000577423 -0.000572468 -5.1131e-05
0.00239973 -0.000722467 -0.000718827 -3.71985e-05
0.00192441 -0.000580831 -0.000575818 -5.1132e-05
0.00191879 -0.000579127 -0.000574143 -5.11315e-05
0.00143382 -0.000434339 -0.00042835 -6.19572e-05
0.00142542 -0.00043177 -0.000425851 -6.19562e-05
0.00237865 -0.000716098 -0.000712521 -3.71972e-05
0.0023927 -0.000720344 -0.000716725 -3.71981e-05
0.00142962 -0.000433055 -0.0004271 -6.19567e-05
0.00190196 -0.000574014 -0.000569118 -5.11301e-05
0.00238568 -0.000718221 -0.000714623 -3.71976e-05
0.00191318 -0.000577423 -0.000572468 -5.1131e-05
0.00190757 -0.000575718 -0.000570793 -5.11305e-05
0.00142542 -0.00043177 -0.000425851 -6.19562e-05
0.00141702 -0.000429201 -0.000423352 -6.19551e-05
0.00236459 -0.000711852 -0.000708318 -3.71964e-05
0.00237865 -0.000716098 -0.000712521 -3.71972e-05
0.00142122 -0.000430486 -0.000424601 -6.19557e-05
0.00189073 -0.000570606 -0.000565767 -5.11291e-05
0.00237162 -0.000713975 -0.00071042 -3.71968e-05
0.00190196 -0.000574014 -0.000569118 -5.11301e-05
0.00189634 -0.00057231 -0.000567443 -5.11296e-05
0.00141702 -0.000429201 -0.000423352 -6.19551e-05
0.00140862 -0.000426633 -0.000420853 -6.19541e-05
0.00235054 -0.000707606 -0.000704114 -3.71956e-05
0.00236459 -0.000711852 -0.000708318 -3.71964e-05
0.00141282 -0.000427917 -0.000422102 -6.19546e-05
0.0018795 -0.000567198 -0.000562417 -5.11281e-05
0.00235757 -0.000709729 -0.000706216 -3.7196e-05
0.00189073 -0.000570606 -0.000565767 -5.11291e-05
0.00188512 -0.000568902 -0.000564092 -5.11286e-05
0.00140862 -0.000426633 -0.000420853 -6.19541e-05
0.00140022 -0.000424064 -0.000418353 -6.1953e-05
0.00233648 -0.000703361 -0.00069991 -3.71949e-05
0.00235054 -0.000707606 -0.000704114 -3.71956e-05
0.00140442 -0.000425349 -0.000419603 -6.19536e-05
0.00186828 -0.00056379 -0.000559066 -5.11271e-05
0.00234351 -0.000705484 -0.000702012 -3.71953e-05
0.0018795 -0.000567198 -0.000562417 -5.11281e-05
0.00187389 -0.000565494 -0.000560741 -5.11276e-05
0.00140022 -0.000424064 -0.000418353 -6.1953e-05
0.00139182 -0.000421496 -0.000415854 -6.1952e-05
0.00232243 -0.000699116 -0.000695706 -3.71941e-05
0.00233648 -0.000703361 -0.00069991 -3.71949e-05
0.00139602 -0.00042278 -0.000417104 -6.19525e-05
0.00185705 -0.000560382 -0.000555715 -5.11261e-05
0.00232946 -0.000701238 -0.000697808 -3.71945e-05
0.00186828 -0.00056379 -0.000559066 -5.11271e-05
0.00186266 -0.000562086 -0.00055739 -5.11266e-05
0.00139182 -0.000421496 -0.000415854 -6.1952e-05
0.00138342 -0.000418928 -0.000413354 -6.19509e-05
0.00230838 -0.00069487 -0.000691502 -3.71933e-05
0.00232243 -0.000699116 -0.000695706 -3.71941e-05
0.00138762 -0.000420212 -0.000414604 -6.19514e-05
0.00184582 -0.000556975 -0.000552364 -5.11252e-05
0.0023154 -0.000696993 -0.000693604 -3.71937e-05
0.00185705 -0.000560382 -0.000555715 -5.11261e-05
0.00185144 -0.000558678 -0.000554039 -5.11257e-05
0.00138342 -0.000418928 -0.000413354 -6.19509e-05
0.00137502 -0.00041636 -0.000410854 -6.19498e-05
0.00229432 -0.000690625 -0.000687298 -3.71925e-05
0.00230838 -0.00069487 -0.000691502 -3.71933e-05
0.00137922 -0.000417644 -0.000412104 -6.19504e-05
0.0018346 -0.000553567 -0.000549013 -5.11242e-05
0.00230135 -0.000692748 -0.0006894 -3.71929e-05
0.00184582 -0.000556975 -0.000552364 -5.11252e-05
0.00184021 -0.000555271 -0.000550688 -5.11247e-05
0.00137502 -0.00041636 -0.000410854 -6.19498e-05
0.00136662 -0.000413793 -0.000408354 -6.19488e-05
0.00228027 -0.00068638 -0.000683094 -3.71917e-05
0.00229432 -0.000690625 -0.000687298 -3.71925e-05
0.00137082 -0.000415076 -0.000409604 -6.19493e-05
0.00182337 -0.00055016 -0.000545661 -5.11232e-05
0.00228729 -0.000688503 -0.000685196 -3.71921e-05
0.0018346 -0.000553567 -0.000549013 -5.11242e-05
0.00182898 -0.000551863 -0.000547337 -5.11237e-05
0.00136662 -0.000413793 -0.000408354 -6.19488e-05
0.00135822 -0.000411225 -0.000405854 -6.19477e-05
0.00226621 -0.000682135 -0.000678889 -3.71909e-05
0.00228027 -0.00068638 -0.000683094 -3.71917e-05
0.00136242 -0.000412509 -0.000407104 -6.19482e-05
0.00181214 -0.000546753 -0.00054231 -5.11222e-05
0.00227324 -0.000684258 -0.000680992 -3.71913e-05
0.00182337 -0.00055016 -0.000545661 -5.11232e-05
0.00181776 -0.000548456 -0.000543985 -5.11227e-05
0.00135822 -0.000411225 -0.000405854 -6.19477e-05
0.00134981 -0.000408658 -0.000403353 -6.19466e-05
0.00225216 -0.000677891 -0.000674685 -3.71901e-05
0.00226621 -0.000682135 -0.000678889 -3.71909e-05
0.00135402 -0.000409941 -0.000404603 -6.19471e-05
0.00180091 -0.000543346 -0.000538958 -5.11212e-05
0.00225918 -0.000680013 -0.000676787 -3.71905e-05
0.00181214 -0.000546753 -0.00054231 -5.11222e-05
0.00180653 -0.000545049 -0.000540634 -5.11217e-05
0.00134981 -0.000408658 -0.000403353 -6.19466e-05
0.00134141 -0.000406091 -0.000400852 -6.19455e-05
0.0022381 -0.000673646 -0.00067048 -3.71893e-05
0.00225216 -0.000677891 -0.000674685 -3.71901e-05
0.00134561 -0.000407374 -0.000402103 -6.1946e-05
0.00178969 -0.000539939 -0.000535606 -5.11202e-05
0.00224513 -0.000675768 -0.000672583 -3.71897e-05
0.00180091 -0.000543346 -0.000538958 -5.11212e-05
0.0017953 -0.000541643 -0.000537282 -5.11207e-05
0.00134141 -0.000406091 -0.000400852 -6.19455e-05
0.00133301 -0.000403524 -0.000398351 -6.19444e-05
0.00222405 -0.000669402 -0.000666276 -3.71885e-05
0.0022381 -0.000673646 -0.00067048 -3.71893e-05
0.00133721 -0.000404807 -0.000399602 -6.19449e-05
0.00177846 -0.000536533 -0.000532254 -5.11192e-05
0.00223107 -0.000671524 -0.000668378 -3.71889e-05
0.00178969 -0.000539939 -0.000535606 -5.11202e-05
0.00178407 -0.000538236 -0.00053393 -5.11197e-05
0.00133301 -0.000403524 -0.000398351 -6.19444e-05
0.00132461 -0.000400958 -0.00039585 -6.19432e-05
0.00220999 -0.000665157 -0.000662071 -3.71877e-05
0.00222405 -0.000669402 -0.000666276 -3.71885e-05
0.00132881 -0.000402241 -0.000397101 -6.19438e-05
0.00176723 -0.000533127 -0.000528902 -5.11182e-05
0.00221702 -0.00066728 -0.000664173 -3.71881e-05
0.00177846 -0.000536533 -0.000532254 -5.11192e-05
0.00177284 -0.00053483 -0.000530578 -5.11187e-05
0.00132461 -0.000400958 -0.00039585 -6.19432e-05
0.0013162 -0.000398391 -0.000393349 -6.19421e-05
0.00219593 -0.000660913 -0.000657866 -3.71869e-05
0.00220999 -0.000665157 -0.000662071 -3.71877e-05
0.00132041 -0.000399674 -0.000394599 -6.19427e-05
0.001756 -0.00052972 -0.000525549 -5.11171e-05
0.00220296 -0.000663035 -0.000659969 -3.71873e-05
0.00176723 -0.000533127 -0.000528902 -5.11182e-05
0.00176162 -0.000531424 -0.000527225 -5.11176e-05
0.0013162 -0.000398391 -0.000393349 -6.19421e-05
0.0013078 -0.000395825 -0.000390847 -6.1941e-05
0.00218188 -0.000656669 -0.000653661 -3.71861e-05
0.00219593 -0.000660913 -0.000657866 -3.71869e-05
0.001312 -0.000397108 -0.000392098 -6.19415e-05
0.00174477 -0.000526315 -0.000522197 -5.11161e-05
0.00218891 -0.000658791 -0.000655764 -3.71865e-05
0.001756 -0.00052972 -0.000525549 -5.11171e-05
0.00175039 -0.000528017 -0.000523873 -5.11166e-05
0.0013078 -0.000395825 -0.000390847 -6.1941e-05
0.0012994 -0.000393259 -0.000388345 -6.19398e-05
0.00216782 -0.000652426 -0.000649456 -3.71852e-05
0.00218188 -0.000656669 -0.000653661 -3.71861e-05
0.0013036 -0.000394542 -0.000389596 -6.19404e-05
0.00173354 -0.000522909 -0.000518844 -5.1115e-05
0.00217485 -0.000654548 -0.000651559 -3.71856e-05
0.00174477 -0.000526315 -0.000522197 -5.11161e-05
0.00173916 -0.000524612 -0.00052052 -5.11156e-05
0.0012994 -0.000393259 -0.000388345 -6.19398e-05
0.00129099 -0.000390693 -0.000385844 -6.19386e-05
0.00215377 -0.000648182 -0.000645251 -3.71844e-05
0.00216782 -0.000652426 -0.000649456 -3.71852e-05
0.0012952 -0.000391976 -0.000387095 -6.19392e-05
0.00172232 -0.000519503 -0.000515491 -5.1114e-05
0.0021608 -0.000650304 -0.000647353 -3.71848e-05
0.00173354 -0.000522909 -0.000518844 -5.1115e-05
0.00172793 -0.000521206 -0.000517168 -5.11145e-05
0.00129099 -0.000390693 -0.000385844 -6.19386e-05
0.00128259 -0.000388128 -0.000383341 -6.19374e-05
0.00213971 -0.000643939 -0.000641046 -3.71835e-05
0.00215377 -0.000648182 -0.000645251 -3.71844e-05
0.00128679 -0.000389411 -0.000384592 -6.1938e-05
0.00171109 -0.000516098 -0.000512138 -5.11129e-05
0.00214674 -0.00064606 -0.000643148 -3.7184e-05
0.00172232 -0.000519503 -0.000515491 -5.1114e-05
0.0017167 -0.000517801 -0.000513815 -5.11134e-05
0.00128259 -0.000388128 -0.000383341 -6.19374e-05
0.00127419 -0.000385563 -0.000380839 -6.19363e-05
0.00212566 -0.000639695 -0.00063684 -3.71827e-05
0.00213971 -0.000643939 -0.000641046 -3.71835e-05
0.00127839 -0.000386845 -0.00038209 -6.19368e-05
0.00169986 -0.000512693 -0.000508785 -5.11118e-05
0.00213268 -0.000641817 -0.000638943 -3.71831e-05
0.00171109 -0.000516098 -0.000512138 -5.11129e-05
0.00170547 -0.000514395 -0.000510462 -5.11124e-05
0.00127419 -0.000385563 -0.000380839 -6.19363e-05
0.00126578 -0.000382998 -0.000378336 -6.1935e-05
0.0021116 -0.000635452 -0.000632635 -3.71818e-05
0.00212566 -0.000639695 -0.00063684 -3.71827e-05
0.00126998 -0.00038428 -0.000379588 -6.19357e-05
0.00168863 -0.000509288 -0.000505432 -5.11107e-05
0.00211863 -0.000637574 -0.000634738 -3.71823e-05
0.00169986 -0.000512693 -0.000508785 -5.11118e-05
0.00169424 -0.00051099 -0.000507109 -5.11113e-05
0.00126578 -0.000382998 -0.000378336 -6.1935e-05
0.00125738 -0.000380433 -0.000375834 -6.19338e-05
0.00209754 -0.000631209 -0.000628429 -3.7181e-05
0.0021116 -0.000635452 -0.000632635 -3.71818e-05
0.00126158 -0.000381715 -0.000377085 -6.19344e-05
0.0016774 -0.000505883 -0.000502078 -5.11096e-05
0.00210457 -0.00063333 -0.000630532 -3.71814e-05
0.00168863 -0.000509288 -0.000505432 -5.11107e-05
0.00168301 -0.000507585 -0.000503755 -5.11102e-05
0.00125738 -0.000380433 -0.000375834 -6.19338e-05
0.00124897 -0.000377868 -0.000373331 -6.19326e-05
0.00208349 -0.000626966 -0.000624224 -3.71801e-05
0.00209754 -0.000631209 -0.000628429 -3.7181e-05
0.00125318 -0.00037915 -0.000374582 -6.19332e-05
0.00166617 -0.000502479 -0.000498725 -5.11085e-05
0.00209052 -0.000629088 -0.000626326 -3.71805e-05
0.0016774 -0.000505883 -0.000502078 -5.11096e-05
0.00167178 -0.000504181 -0.000500402 -5.11091e-05
0.00124897 -0.000377868 -0.000373331 -6.19326e-05
0.00124057 -0.000375304 -0.000370828 -6.19314e-05
0.00206943 -0.000622723 -0.000620018 -3.71792e-05
0.00208349 -0.000626966 -0.000624224 -3.71801e-05
0.00124477 -0.000376586 -0.000372079 -6.1932e-05
0.00165494 -0.000499074 -0.000495371 -5.11074e-05
0.00207646 -0.000624845 -0.000622121 -3.71796e-05
0.00166617 -0.000502479 -0.000498725 -5.11085e-05
0.00166056 -0.000500776 -0.000497048 -5.1108e-05
0.00124057 -0.000375304 -0.000370828 -6.19314e-05
0.00123216 -0.00037274 -0.000368324 -6.19301e-05
0.00205538 -0.000618481 -0.000615812 -3.71783e-05
0.00206943 -0.000622723 -0.000620018 -3.71792e-05
0.00123637 -0.000374022 -0.000369576 -6.19308e-05
0.00164371 -0.00049567 -0.000492017 -5.11063e-05
0.0020624 -0.000620602 -0.000617915 -3.71788e-05
0.00165494 -0.000499074 -0.000495371 -5.11074e-05
0.00164933 -0.000497372 -0.000493694 -5.11069e-05
0.00123216 -0.00037274 -0.000368324 -6.19301e-05
0.00122376 -0.000370176 -0.000365821 -6.19289e-05
0.00204132 -0.000614238 -0.000611606 -3.71774e-05
0.00205538 -0.000618481 -0.000615812 -3.71783e-05
0.00122796 -0.000371458 -0.000367073 -6.19295e-05
0.00163248 -0.000492266 -0.000488663 -5.11052e-05
0.00204835 -0.00061636 -0.000613709 -3.71779e-05
0.00164371 -0.00049567 -0.000492017 -5.11063e-05
0.0016381 -0.000493968 -0.00049034 -5.11057e-05
0.00122376 -0.000370176 -0.000365821 -6.19289e-05
0.00121535 -0.000367612 -0.000363317 -6.19276e-05
0.00202726 -0.000609996 -0.0006074 -3.71765e-05
0.00204132 -0.000614238 -0.000611606 -3.71774e-05
0.00121955 -0.000368894 -0.000364569 -6.19283e-05
0.00162125 -0.000488862 -0.000485309 -5.1104e-05
0.00203429 -0.000612117 -0.000609503 -3.7177e-05
0.00163248 -0.000492266 -0.000488663 -5.11052e-05
0.00162687 -0.000490564 -0.000486986 -5.11046e-05
0.00121535 -0.000367612 -0.000363317 -6.19276e-05
0.00120695 -0.000365049 -0.000360813 -6.19264e-05
0.00201321 -0.000605754 -0.000603194 -3.71756e-05
0.00202726 -0.000609996 -0.0006074 -3.71765e-05
0.00121115 -0.00036633 -0.000362065 -6.1927e-05
0.00161002 -0.000485459 -0.000481955 -5.11029e-05
0.00202024 -0.000607875 -0.000605297 -3.71761e-05
0.00162125 -0.000488862 -0.000485309 -5.1104e-05
0.00161564 -0.00048716 -0.000483632 -5.11035e-05
0.00120695 -0.000365049 -0.000360813 -6.19264e-05
0.00119854 -0.000362485 -0.000358309 -6.19251e-05
0.00199915 -0.000601512 -0.000598988 -3.71747e-05
0.00201321 -0.000605754 -0.000603194 -3.71756e-05
0.00120274 -0.000363767 -0.000359561 -6.19257e-05
0.00159879 -0.000482055 -0.0004786 -5.11018e-05
0.00200618 -0.000603633 -0.000601091 -3.71752e-05
0.00161002 -0.000485459 -0.000481955 -5.11029e-05
0.0016044 -0.000483757 -0.000480278 -5.11023e-05
0.00119854 -0.000362485 -0.000358309 -6.19251e-05
0.00119013 -0.000359922 -0.000355805 -6.19238e-05
0.00198509 -0.00059727 -0.000594782 -3.71738e-05
0.00199915 -0.000601512 -0.000598988 -3.71747e-05
0.00119434 -0.000361204 -0.000357057 -6.19245e-05
0.00158756 -0.000478652 -0.000475246 -5.11006e-05
0.00199212 -0.000599391 -0.000596885 -3.71743e-05
0.00159879 -0.000482055 -0.0004786 -5.11018e-05
0.00159317 -0.000480354 -0.000476923 -5.11012e-05
0.00119013 -0.000359922 -0.000355805 -6.19238e-05
0.00118173 -0.000357359 -0.0003533 -6.19225e-05
0.00197104 -0.000593029 -0.000590575 -3.71729e-05
0.00198509 -0.00059727 -0.000594782 -3.71738e-05
0.00118593 -0.000358641 -0.000354553 -6.19232e-05
0.00157633 -0.000475249 -0.000471891 -5.10995e-05
0.00197807 -0.00059515 -0.000592678 -3.71734e-05
0.00158756 -0.000478652 -0.000475246 -5.11006e-05
0.00158194 -0.00047695 -0.000473568 -5.11e-05
0.00118173 -0.000357359 -0.0003533 -6.19225e-05
0.00117332 -0.000354797 -0.000350796 -6.19212e-05
0.00195698 -0.000588787 -0.000586369 -3.7172e-05
0.00197104 -0.000593029 -0.000590575 -3.71729e-05
0.00117752 -0.000356078 -0.000352048 -6.19219e-05
0.0015651 -0.000471846 -0.000468536 -5.10983e-05
0.00196401 -0.000590908 -0.000588472 -3.71725e-05
0.00157633 -0.000475249 -0.000471891 -5.10995e-05
0.00157071 -0.000473548 -0.000470214 -5.10989e-05
0.00117332 -0.000354797 -0.000350796 -6.19212e-05
0.00116491 -0.000352234 -0.000348291 -6.19199e-05
0.00194292 -0.000584546 -0.000582162 -3.71711e-05
0.00195698 -0.000588787 -0.000586369 -3.7172e-05
0.00116912 -0.000353516 -0.000349543 -6.19206e-05
0.00155387 -0.000468444 -0.000465181 -5.10971e-05
0.00194995 -0.000586667 -0.000584266 -3.71716e-05
0.0015651 -0.000471846 -0.000468536 -5.10983e-05
0.00155948 -0.000470145 -0.000466859 -5.10977e-05
0.00116491 -0.000352234 -0.000348291 -6.19199e-05
0.00115651 -0.000349672 -0.000345786 -6.19186e-05
0.00192887 -0.000580305 -0.000577956 -3.71702e-05
0.00194292 -0.000584546 -0.000582162 -3.71711e-05
0.00116071 -0.000350953 -0.000347038 -6.19193e-05
0.00154263 -0.000465041 -0.000461826 -5.1096e-05
0.0019359 -0.000582425 -0.000580059 -3.71706e-05
0.00155387 -0.000468444 -0.000465181 -5.10971e-05
0.00154825 -0.000466742 -0.000463504 -5.10965e-05
0.00115651 -0.000349672 -0.000345786 -6.19186e-05
0.0011481 -0.00034711 -0.000343281 -6.19173e-05
0.00191481 -0.000576064 -0.000573749 -3.71692e-05
0.00192887 -0.000580305 -0.000577956 -3.71702e-05
0.0011523 -0.000348391 -0.000344533 -6.1918e-05
0.0015314 -0.000461639 -0.000458471 -5.10948e-05
0.00192184 -0.000578184 -0.000575852 -3.71697e-05
0.00154263 -0.000465041 -0.000461826 -5.1096e-05
0.00153702 -0.00046334 -0.000460148 -5.10954e-05
0.0011481 -0.00034711 -0.000343281 -6.19173e-05
0.00113969 -0.000344549 -0.000340775 -6.1916e-05
0.00190075 -0.000571823 -0.000569542 -3.71683e-05
0.00191481 -0.000576064 -0.000573749 -3.71692e-05
0.00114389 -0.000345829 -0.000342028 -6.19167e-05
0.00152017 -0.000458237 -0.000455115 -5.10936e-05
0.00190778 -0.000573944 -0.000571646 -3.71688e-05
0.0015314 -0.000461639 -0.000458471 -5.10948e-05
0.00152579 -0.000459938 -0.000456793 -5.10942e-05
0.00113969 -0.000344549 -0.000340775 -6.1916e-05
0.00113128 -0.000341987 -0.00033827 -6.19147e-05
0.0018867 -0.000567583 -0.000565335 -3.71674e-05
0.00190075 -0.000571823 -0.000569542 -3.71683e-05
0.00113549 -0.000343268 -0.000339523 -6.19153e-05
0.00150894 -0.000454835 -0.00045176 -5.10924e-05
0.00189373 -0.000569703 -0.000567439 -3.71679e-05
0.00152017 -0.000458237 -0.000455115 -5.10936e-05
0.00151456 -0.000456536 -0.000453437 -5.1093e-05
0.00113128 -0.000341987 -0.00033827 -6.19147e-05
0.00112287 -0.000339426 -0.000335764 -6.19134e-05
0.00187264 -0.000563342 -0.000561128 -3.71665e-05
0.0018867 -0.000567583 -0.000565335 -3.71674e-05
0.00112708 -0.000340706 -0.000337017 -6.1914e-05
0.00149771 -0.000451433 -0.000448404 -5.10912e-05
0.00187967 -0.000565462 -0.000563232 -3.71669e-05
0.00150894 -0.000454835 -0.00045176 -5.10924e-05
0.00150332 -0.000453134 -0.000450082 -5.10918e-05
0.00112287 -0.000339426 -0.000335764 -6.19134e-05
0.00111447 -0.000336865 -0.000333258 -6.1912e-05
0.00185858 -0.000559102 -0.000556921 -3.71655e-05
0.00187264 -0.000563342 -0.000561128 -3.71665e-05
0.00111867 -0.000338145 -0.000334511 -6.19127e-05
0.00148648 -0.000448032 -0.000445048 -5.109e-05
0.00186561 -0.000561222 -0.000559025 -3.7166e-05
0.00149771 -0.000451433 -0.000448404 -5.10912e-05
0.00149209 -0.000449733 -0.000446726 -5.10906e-05
0.00111447 -0.000336865 -0.000333258 -6.1912e-05
0.00110606 -0.000334304 -0.000330752 -6.19107e-05
0.00184453 -0.000554862 -0.000552714 -3.71646e-05
0.00185858 -0.000559102 -0.000556921 -3.71655e-05
0.00111026 -0.000335584 -0.000332005 -6.19114e-05
0.00147525 -0.000444631 -0.000441692 -5.10888e-05
0.00185156 -0.000556982 -0.000554818 -3.7165e-05
0.00148648 -0.000448032 -0.000445048 -5.109e-05
0.00148086 -0.000446331 -0.00044337 -5.10894e-05
0.00110606 -0.000334304 -0.000330752 -6.19107e-05
0.00109765 -0.000331743 -0.000328245 -6.19093e-05
0.00183047 -0.000550622 -0.000548507 -3.71636e-05
0.00184453 -0.000554862 -0.000552714 -3.71646e-05
0.00110185 -0.000333024 -0.000329499 -6.191e-05
0.00146401 -0.00044123 -0.000438336 -5.10876e-05
0.0018375 -0.000552742 -0.00055061 -3.71641e-05
0.00147525 -0.000444631 -0.000441692 -5.10888e-05
0.00146963 -0.00044293 -0.000440014 -5.10882e-05
0.00109765 -0.000331743 -0.000328245 -6.19093e-05
0.00108924 -0.000329183 -0.000325739 -6.1908e-05
0.00181641 -0.000546382 -0.000544299 -3.71627e-05
0.00183047 -0.000550622 -0.000548507 -3.71636e-05
0.00109344 -0.000330463 -0.000326992 -6.19087e-05
0.00145278 -0.000437829 -0.000434979 -5.10864e-05
0.00182344 -0.000548502 -0.000546403 -3.71632e-05
0.00146401 -0.00044123 -0.000438336 -5.10876e-05
0.0014584 -0.000439529 -0.000436658 -5.1087e-05
0.00108924 -0.000329183 -0.000325739 -6.1908e-05
0.00108083 -0.000326623 -0.000323232 -6.19067e-05
0.00180236 -0.000542142 -0.000540092 -3.71617e-05
0.00181641 -0.000546382 -0.000544299 -3.71627e-05
0.00108504 -0.000327903 -0.000324485 -6.19073e-05
0.00144155 -0.000434428 -0.000431623 -5.10852e-05
0.00180939 -0.000544262 -0.000542196 -3.71622e-05
0.00145278 -0.000437829 -0.000434979 -5.10864e-05
0.00144716 -0.000436129 -0.000433301 -5.10858e-05
0.00108083 -0.000326623 -0.000323232 -6.19067e-05
0.00107242 -0.000324063 -0.000320725 -6.19053e-05
0.0017883 -0.000537903 -0.000535885 -3.71608e-05
0.00180236 -0.000542142 -0.000540092 -3.71617e-05
0.00107663 -0.000325343 -0.000321979 -6.1906e-05
0.00143032 -0.000431028 -0.000428266 -5.1084e-05
0.00179533 -0.000540022 -0.000537988 -3.71613e-05
0.00144155 -0.000434428 -0.000431623 -5.10852e-05
0.00143593 -0.000432728 -0.000429945 -5.10846e-05
0.00107242 -0.000324063 -0.000320725 -6.19053e-05
0.00106401 -0.000321503 -0.000318218 -6.19039e-05
0.00177424 -0.000533663 -0.000531677 -3.71598e-05
0.0017883 -0.000537903 -0.000535885 -3.71608e-05
0.00106822 -0.000322783 -0.000319472 -6.19046e-05
0.00141908 -0.000427628 -0.00042491 -5.10828e-05
0.00178127 -0.000535783 -0.000533781 -3.71603e-05
0.00143032 -0.000431028 -0.000428266 -5.1084e-05
0.0014247 -0.000429328 -0.000426588 -5.10834e-05
0.00106401 -0.000321503 -0.000318218 -6.19039e-05
0.0010556 -0.000318944 -0.000315711 -6.19026e-05
0.00176019 -0.000529424 -0.000527469 -3.71589e-05
0.00177424 -0.000533663 -0.000531677 -3.71598e-05
0.00105981 -0.000320224 -0.000316964 -6.19033e-05
0.00140785 -0.000424228 -0.000421553 -5.10816e-05
0.00176721 -0.000531544 -0.000529573 -3.71594e-05
0.00141908 -0.000427628 -0.00042491 -5.10828e-05
0.00141347 -0.000425928 -0.000423231 -5.10822e-05
0.0010556 -0.000318944 -0.000315711 -6.19026e-05
0.00104719 -0.000316385 -0.000313203 -6.19012e-05
0.00174613 -0.000525185 -0.000523262 -3.71579e-05
0.00176019 -0.000529424 -0.000527469 -3.71589e-05
0.0010514 -0.000317664 -0.000314457 -6.19019e-05
0.00139662 -0.000420828 -0.000418196 -5.10803e-05
0.00175316 -0.000527305 -0.000525365 -3.71584e-05
0.00140785 -0.000424228 -0.000421553 -5.10816e-05
0.00140223 -0.000422528 -0.000419874 -5.1081e-05
0.00104719 -0.000316385 -0.000313203 -6.19012e-05
0.00103878 -0.000313826 -0.000310696 -6.18999e-05
0.00173207 -0.000520946 -0.000519054 -3.7157e-05
0.00174613 -0.000525185 -0.000523262 -3.71579e-05
0.00104299 -0.000315105 -0.000311949 -6.19005e-05
0.00138538 -0.000417428 -0.000414839 -5.10791e-05
0.0017391 -0.000523066 -0.000521158 -3.71574e-05
0.00139662 -0.000420828 -0.000418196 -5.10803e-05
0.001391 -0.000419128 -0.000416517 -5.10797e-05
0.00103878 -0.000313826 -0.000310696 -6.18999e-05
0.00103037 -0.000311267 -0.000308188 -6.18985e-05
0.00171801 -0.000516708 -0.000514846 -3.7156e-05
0.00173207 -0.000520946 -0.000519054 -3.7157e-05
0.00103458 -0.000312546 -0.000309442 -6.18992e-05
0.00137415 -0.000414029 -0.000411481 -5.10779e-05
0.00172504 -0.000518827 -0.00051695 -3.71565e-05
0.00138538 -0.000417428 -0.000414839 -5.10791e-05
0.00137977 -0.000415729 -0.00041316 -5.10785e-05
0.00103037 -0.000311267 -0.000308188 -6.18985e-05
0.00102196 -0.000308708 -0.00030568 -6.18971e-05
0.00170396 -0.000512469 -0.000510638 -3.71551e-05
0.00171801 -0.000516708 -0.000514846 -3.7156e-05
0.00102617 -0.000309988 -0.000306934 -6.18978e-05
0.00136292 -0.00041063 -0.000408124 -5.10767e-05
0.00171099 -0.000514588 -0.000512742 -3.71555e-05
0.00137415 -0.000414029 -0.000411481 -5.10779e-05
0.00136854 -0.000412329 -0.000409802 -5.10773e-05
0.00102196 -0.000308708 -0.00030568 -6.18971e-05
0.00101355 -0.00030615 -0.000303171 -6.18958e-05
0.0016899 -0.000508231 -0.00050643 -3.71541e-05
0.00170396 -0.000512469 -0.000510638 -3.71551e-05
0.00101776 -0.000307429 -0.000304425 -6.18964e-05
0.00135169 -0.000407231 -0.000404766 -5.10755e-05
0.00169693 -0.00051035 -0.000508534 -3.71546e-05
0.00136292 -0.00041063 -0.000408124 -5.10767e-05
0.0013573 -0.00040893 -0.000406445 -5.10761e-05
0.00101355 -0.00030615 -0.000303171 -6.18958e-05
0.00100514 -0.000303592 -0.000300663 -6.18944e-05
0.00167584 -0.000503993 -0.000502222 -3.71531e-05
0.0016899 -0.000508231 -0.00050643 -3.71541e-05
0.00100934 -0.000304871 -0.000301917 -6.18951e-05
0.00134045 -0.000403832 -0.000401408 -5.10742e-05
0.00168287 -0.000506112 -0.000504326 -3.71536e-05
0.00135169 -0.000407231 -0.000404766 -5.10755e-05
0.00134607 -0.000405531 -0.000403087 -5.10748e-05
0.00100514 -0.000303592 -0.000300663 -6.18944e-05
0.000996727 -0.000301034 -0.000298154 -6.1893e-05
0.00166179 -0.000499755 -0.000498013 -3.71522e-05
0.00167584 -0.000503993 -0.000502222 -3.71531e-05
0.00100093 -0.000302313 -0.000299409 -6.18937e-05
0.00132922 -0.000400433 -0.000398051 -5.1073e-05
0.00166881 -0.000501874 -0.000500118 -3.71526e-05
0.00134045 -0.000403832 -0.000401408 -5.10742e-05
0.00133483 -0.000402133 -0.00039973 -5.10736e-05
0.000996727 -0.000301034 -0.000298154 -6.1893e-05
0.000988316 -0.000298476 -0.000295645 -6.18916e-05
0.00164773 -0.000495517 -0.000493805 -3.71512e-05
0.00166179 -0.000499755 -0.000498013 -3.71522e-05
0.000992522 -0.000299755 -0.0002969 -6.18923e-05
0.00131798 -0.000397035 -0.000394693 -5.10718e-05
0.00165476 -0.000497636 -0.000495909 -3.71517e-05
0.00132922 -0.000400433 -0.000398051 -5.1073e-05
0.0013236 -0.000398734 -0.000396372 -5.10724e-05
0.000988316 -0.000298476 -0.000295645 -6.18916e-05
0.000979904 -0.000295919 -0.000293136 -6.18903e-05
0.00163367 -0.000491279 -0.000489597 -3.71502e-05
0.00164773 -0.000495517 -0.000493805 -3.71512e-05
0.00098411 -0.000297198 -0.000294391 -6.1891e-05
0.00130675 -0.000393637 -0.000391334 -5.10705e-05
0.0016407 -0.000493398 -0.000491701 -3.71507e-05
0.00131798 -0.000397035 -0.000394693 -5.10718e-05
0.00131237 -0.000395336 -0.000393014 -5.10712e-05
0.000979904 -0.000295919 -0.000293136 -6.18903e-05
0.000971492 -0.000293362 -0.000290627 -6.18889e-05
0.00161961 -0.000487042 -0.000485388 -3.71493e-05
0.00163367 -0.000491279 -0.000489597 -3.71502e-05
0.000975698 -0.00029464 -0.000291882 -6.18896e-05
0.00129552 -0.000390239 -0.000387976 -5.10693e-05
0.00162664 -0.00048916 -0.000487492 -3.71498e-05
0.00130675 -0.000393637 -0.000391334 -5.10705e-05
0.00130113 -0.000391938 -0.000389655 -5.10699e-05
0.000971492 -0.000293362 -0.000290627 -6.18889e-05
0.00096308 -0.000290805 -0.000288118 -6.18875e-05
0.00160556 -0.000482804 -0.00048118 -3.71483e-05
0.00161961 -0.000487042 -0.000485388 -3.71493e-05
0.000967286 -0.000292083 -0.000289373 -6.18882e-05
0.00128428 -0.000386841 -0.000384618 -5.10681e-05
0.00161259 -0.000484923 -0.000483284 -3.71488e-05
0.00129552 -0.000390239 -0.000387976 -5.10693e-05
0.0012899 -0.00038854 -0.000386297 -5.10687e-05
0.00096308 -0.000290805 -0.000288118 -6.18875e-05
0.000954668 -0.000288248 -0.000285608 -6.18861e-05
0.0015915 -0.000478567 -0.000476971 -3.71474e-05
0.00160556 -0.000482804 -0.00048118 -3.71483e-05
0.000958874 -0.000289527 -0.000286863 -6.18868e-05
0.00127305 -0.000383443 -0.000381259 -5.10669e-05
0.00159853 -0.000480686 -0.000479075 -3.71478e-05
0.00128428 -0.000386841 -0.000384618 -5.10681e-05
0.00127867 -0.000385142 -0.000382938 -5.10675e-05
0.000954668 -0.000288248 -0.000285608 -6.18861e-05
0.000946255 -0.000285692 -0.000283099 -6.18848e-05
0.00157744 -0.00047433 -0.000472762 -3.71464e-05
0.0015915 -0.000478567 -0.000476971 -3.71474e-05
0.000950461 -0.00028697 -0.000284353 -6.18855e-05
0.00126181 -0.000380046 -0.0003779 -5.10656e-05
0.00158447 -0.000476449 -0.000474867 -3.71469e-05
0.00127305 -0.000383443 -0.000381259 -5.10669e-05
0.00126743 -0.000381745 -0.00037958 -5.10662e-05
0.000946255 -0.000285692 -0.000283099 -6.18848e-05
0.000937842 -0.000283135 -0.000280589 -6.18834e-05
0.00156338 -0.000470093 -0.000468553 -3.71454e-05
0.00157744 -0.00047433 -0.000472762 -3.71464e-05
0.000942049 -0.000284414 -0.000281844 -6.18841e-05
0.00125058 -0.000376649 -0.000374542 -5.10644e-05
0.00157041 -0.000472212 -0.000470658 -3.71459e-05
0.00126181 -0.000380046 -0.0003779 -5.10656e-05
0.0012562 -0.000378347 -0.000376221 -5.1065e-05
0.000937842 -0.000283135 -0.000280589 -6.18834e-05
0.000929429 -0.000280579 -0.000278078 -6.1882e-05
0.00154933 -0.000465857 -0.000464344 -3.71445e-05
0.00156338 -0.000470093 -0.000468553 -3.71454e-05
0.000933636 -0.000281857 -0.000279334 -6.18827e-05
0.00123934 -0.000373252 -0.000371183 -5.10632e-05
0.00155636 -0.000467975 -0.000466449 -3.71449e-05
0.00125058 -0.000376649 -0.000374542 -5.10644e-05
0.00124496 -0.00037495 -0.000372862 -5.10638e-05
0.000929429 -0.000280579 -0.000278078 -6.1882e-05
0.000921016 -0.000278024 -0.000275568 -6.18807e-05
0.00153527 -0.00046162 -0.000460135 -3.71435e-05
0.00154933 -0.000465857 -0.000464344 -3.71445e-05
0.000925223 -0.000279301 -0.000276823 -6.18813e-05
0.00122811 -0.000369855 -0.000367823 -5.10619e-05
0.0015423 -0.000463738 -0.00046224 -3.7144e-05
0.00123934 -0.000373252 -0.000371183 -5.10632e-05
0.00123373 -0.000371553 -0.000369503 -5.10626e-05
0.000921016 -0.000278024 -0.000275568 -6.18807e-05
0.000912602 -0.000275468 -0.000273058 -6.18793e-05
0.00152121 -0.000457384 -0.000455926 -3.71425e-05
0.00153527 -0.00046162 -0.000460135 -3.71435e-05
0.000916809 -0.000276746 -0.000274313 -6.188e-05
0.00121687 -0.000366458 -0.000364464 -5.10607e-05
0.00152824 -0.000459502 -0.000458031 -3.7143e-05
0.00122811 -0.000369855 -0.000367823 -5.10619e-05
0.00122249 -0.000368157 -0.000366144 -5.10613e-05
0.000912602 -0.000275468 -0.000273058 -6.18793e-05
0.000904189 -0.000272913 -0.000270547 -6.18779e-05
0.00150715 -0.000453148 -0.000451717 -3.71416e-05
0.00152121 -0.000457384 -0.000455926 -3.71425e-05
0.000908396 -0.00027419 -0.000271802 -6.18786e-05
0.00120564 -0.000363062 -0.000361105 -5.10595e-05
0.00151418 -0.000455266 -0.000453822 -3.71421e-05
0.00121687 -0.000366458 -0.000364464 -5.10607e-05
0.00121126 -0.00036476 -0.000362784 -5.10601e-05
0.000904189 -0.000272913 -0.000270547 -6.18779e-05
0.000895775 -0.000270357 -0.000268036 -6.18766e-05
0.0014931 -0.000448912 -0.000447508 -3.71406e-05
0.00150715 -0.000453148 -0.000451717 -3.71416e-05
0.000899982 -0.000271635 -0.000269292 -6.18772e-05
0.0011944 -0.000359666 -0.000357745 -5.10583e-05
0.00150013 -0.00045103 -0.000449613 -3.71411e-05
0.00120564 -0.000363062 -0.000361105 -5.10595e-05
0.00120002 -0.000361364 -0.000359425 -5.10589e-05
0.000895775 -0.000270357 -0.000268036 -6.18766e-05
0.000887361 -0.000267803 -0.000265525 -6.18752e-05
0.00147904 -0.000444676 -0.000443299 -3.71397e-05
0.0014931 -0.000448912 -0.000447508 -3.71406e-05
0.000891568 -0.00026908 -0.000266781 -6.18759e-05
0.00118317 -0.00035627 -0.000354385 -5.10571e-05
0.00148607 -0.000446794 -0.000445403 -3.71401e-05
0.0011944 -0.000359666 -0.000357745 -5.10583e-05
0.00118879 -0.000357968 -0.000356065 -5.10577e-05
0.000887361 -0.000267803 -0.000265525 -6.18752e-05
0.000878947 -0.000265248 -0.000263014 -6.18738e-05
0.00146498 -0.00044044 -0.000439089 -3.71387e-05
0.00147904 -0.000444676 -0.000443299 -3.71397e-05
0.000883154 -0.000266525 -0.000264269 -6.18745e-05
0.00117193 -0.000352874 -0.000351026 -5.10558e-05
0.00147201 -0.000442558 -0.000441194 -3.71392e-05
0.00118317 -0.00035627 -0.000354385 -5.10571e-05
0.00117755 -0.000354572 -0.000352706 -5.10564e-05
0.000878947 -0.000265248 -0.000263014 -6.18738e-05
0.000870532 -0.000262693 -0.000260502 -6.18725e-05
0.00145092 -0.000436205 -0.00043488 -3.71378e-05
0.00146498 -0.00044044 -0.000439089 -3.71387e-05
0.000874739 -0.000263971 -0.000261758 -6.18731e-05
0.0011607 -0.000349479 -0.000347666 -5.10546e-05
0.00145795 -0.000438322 -0.000436984 -3.71382e-05
0.00117193 -0.000352874 -0.000351026 -5.10558e-05
0.00116632 -0.000351176 -0.000349346 -5.10552e-05
0.000870532 -0.000262693 -0.000260502 -6.18725e-05
0.000862117 -0.000260139 -0.000257991 -6.18711e-05
0.00143687 -0.000431969 -0.00043067 -3.71368e-05
0.00145092 -0.000436205 -0.00043488 -3.71378e-05
0.000866325 -0.000261416 -0.000259246 -6.18718e-05
0.00114946 -0.000346083 -0.000344306 -5.10534e-05
0.00144389 -0.000434087 -0.000432775 -3.71373e-05
0.0011607 -0.000349479 -0.000347666 -5.10546e-05
0.00115508 -0.000347781 -0.000345986 -5.1054e-05
0.000862117 -0.000260139 -0.000257991 -6.18711e-05
0.000853702 -0.000257585 -0.000255479 -6.18698e-05
0.00142281 -0.000427734 -0.00042646 -3.71359e-05
0.00143687 -0.000431969 -0.00043067 -3.71368e-05
0.00085791 -0.000258862 -0.000256735 -6.18704e-05
0.00113823 -0.000342688 -0.000340945 -5.10522e-05
0.00142984 -0.000429852 -0.000428565 -3.71363e-05
0.00114946 -0.000346083 -0.000344306 -5.10534e-05
0.00114385 -0.000344386 -0.000342625 -5.10528e-05
0.000853702 -0.000257585 -0.000255479 -6.18698e-05
0.000845287 -0.000255031 -0.000252967 -6.18684e-05
0.00140875 -0.000423499 -0.000422251 -3.71349e-05
0.00142281 -0.000427734 -0.00042646 -3.71359e-05
0.000849495 -0.000256308 -0.000254223 -6.18691e-05
0.00112699 -0.000339293 -0.000337585 -5.1051e-05
0.00141578 -0.000425616 -0.000424356 -3.71354e-05
0.00113823 -0.000342688 -0.000340945 -5.10522e-05
0.00113261 -0.000340991 -0.000339265 -5.10516e-05
0.000845287 -0.000255031 -0.000252967 -6.18684e-05
0.000836872 -0.000252478 -0.000250455 -6.18671e-05
0.00139469 -0.000419264 -0.000418041 -3.7134e-05
0.00140875 -0.000423499 -0.000422251 -3.71349e-05
0.00084108 -0.000253755 -0.000251711 -6.18677e-05
0.00111576 -0.000335898 -0.000334224 -5.10498e-05
0.00140172 -0.000421382 -0.000420146 -3.71344e-05
0.00112699 -0.000339293 -0.000337585 -5.1051e-05
0.00112137 -0.000337596 -0.000335905 -5.10504e-05
0.000836872 -0.000252478 -0.000250455 -6.18671e-05
0.000828456 -0.000249925 -0.000247942 -6.18657e-05
0.00138063 -0.000415029 -0.000413831 -3.7133e-05
0.00139469 -0.000419264 -0.000418041 -3.7134e-05
0.000832664 -0.000251201 -0.000249198 -6.18664e-05
0.00110452 -0.000332504 -0.000330864 -5.10486e-05
0.00138766 -0.000417147 -0.000415936 -3.71335e-05
0.00111576 -0.000335898 -0.000334224 -5.10498e-05
0.00111014 -0.000334201 -0.000332544 -5.10492e-05
0.000828456 -0.000249925 -0.000247942 -6.18657e-05
0.000820041 -0.000247371 -0.00024543 -6.18644e-05
0.00136658 -0.000410795 -0.000409621 -3.71321e-05
0.00138063 -0.000415029 -0.000413831 -3.7133e-05
0.000824248 -0.000248648 -0.000246686 -6.1865e-05
0.00109328 -0.000329109 -0.000327503 -5.10474e-05
0.00137361 -0.000412912 -0.000411726 -3.71325e-05
0.00110452 -0.000332504 -0.000330864 -5.10486e-05
0.0010989 -0.000330807 -0.000329183 -5.1048e-05
0.000820041 -0.000247371 -0.00024543 -6.18644e-05
0.000811625 -0.000244819 -0.000242917 -6.1863e-05
0.00135252 -0.000406561 -0.000405411 -3.71311e-05
0.00136658 -0.000410795 -0.000409621 -3.71321e-05
0.000815833 -0.000246095 -0.000244173 -6.18637e-05
0.00108205 -0.000325715 -0.000324142 -5.10462e-05
0.00135955 -0.000408678 -0.000407516 -3.71316e-05
0.00109328 -0.000329109 -0.000327503 -5.10474e-05
0.00108766 -0.000327412 -0.000325822 -5.10468e-05
0.000811625 -0.000244819 -0.000242917 -6.1863e-05
0.000803208 -0.000242266 -0.000240404 -6.18617e-05
0.00133846 -0.000402326 -0.000401201 -3.71302e-05
0.00135252 -0.000406561 -0.000405411 -3.71311e-05
0.000807416 -0.000243542 -0.00024166 -6.18624e-05
0.00107081 -0.000322321 -0.000320781 -5.1045e-05
0.00134549 -0.000404443 -0.000403306 -3.71307e-05
0.00108205 -0.000325715 -0.000324142 -5.10462e-05
0.00107643 -0.000324018 -0.000322461 -5.10456e-05
0.000803208 -0.000242266 -0.000240404 -6.18617e-05
0.000794792 -0.000239713 -0.000237891 -6.18604e-05
0.0013244 -0.000398092 -0.00039699 -3.71292e-05
0.00133846 -0.000402326 -0.000401201 -3.71302e-05
0.000799 -0.00024099 -0.000239147 -6.1861e-05
0.00105957 -0.000318928 -0.00031742 -5.10438e-05
0.00133143 -0.000400209 -0.000399096 -3.71297e-05
0.00107081 -0.000322321 -0.000320781 -5.1045e-05
0.00106519 -0.000320624 -0.0003191 -5.10444e-05
0.000794792 -0.000239713 -0.000237891 -6.18604e-05
0.000786375 -0.000237161 -0.000235377 -6.1859e-05
0.00131035 -0.000393858 -0.00039278 -3.71283e-05
0.0013244 -0.000398092 -0.00039699 -3.71292e-05
0.000790584 -0.000238437 -0.000236634 -6.18597e-05
0.00104834 -0.000315534 -0.000314058 -5.10426e-05
0.00131737 -0.000395975 -0.000394885 -3.71288e-05
0.00105957 -0.000318928 -0.00031742 -5.10438e-05
0.00105395 -0.000317231 -0.000315739 -5.10432e-05
0.000786375 -0.000237161 -0.000235377 -6.1859e-05
0.000777958 -0.000234609 -0.000232864 -6.18577e-05
0.00129629 -0.000389625 -0.00038857 -3.71274e-05
0.00131035 -0.000393858 -0.00039278 -3.71283e-05
0.000782167 -0.000235885 -0.000234121 -6.18584e-05
0.0010371 -0.000312141 -0.000310697 -5.10414e-05
0.00130332 -0.000391742 -0.000390675 -3.71278e-05
0.00104834 -0.000315534 -0.000314058 -5.10426e-05
0.00104272 -0.000313837 -0.000312377 -5.1042e-05
0.000777958 -0.000234609 -0.000232864 -6.18577e-05
0.000769541 -0.000232057 -0.00023035 -6.18564e-05
0.00128223 -0.000385391 -0.000384359 -3.71265e-05
0.00129629 -0.000389625 -0.00038857 -3.71274e-05
0.00077375 -0.000233333 -0.000231607 -6.18571e-05
0.00102586 -0.000308747 -0.000307335 -5.10402e-05
0.00128926 -0.000387508 -0.000386464 -3.71269e-05
0.0010371 -0.000312141 -0.000310697 -5.10414e-05
0.00103148 -0.000310444 -0.000309016 -5.10408e-05
0.000769541 -0.000232057 -0.00023035 -6.18564e-05
0.000761124 -0.000229506 -0.000227836 -6.18551e-05
0.00126817 -0.000381158 -0.000380148 -3.71255e-05
0.00128223 -0.000385391 -0.000384359 -3.71265e-05
0.000765333 -0.000230782 -0.000229093 -6.18557e-05
0.00101462 -0.000305355 -0.000303973 -5.1039e-05
0.0012752 -0.000383274 -0.000382254 -3.7126e-05
0.00102586 -0.000308747 -0.000307335 -5.10402e-05
0.00102024 -0.000307051 -0.000305654 -5.10396e-05
0.000761124 -0.000229506 -0.000227836 -6.18551e-05
0.000752706 -0.000226955 -0.000225322 -6.18538e-05
0.00125411 -0.000376925 -0.000375938 -3.71246e-05
0.00126817 -0.000381158 -0.000380148 -3.71255e-05
0.000756915 -0.00022823 -0.000226579 -6.18544e-05
0.00100339 -0.000301962 -0.000300611 -5.10379e-05
0.00126114 -0.000379041 -0.000378043 -3.71251e-05
0.00101462 -0.000305355 -0.000303973 -5.1039e-05
0.00100901 -0.000303658 -0.000302292 -5.10384e-05
0.000752706 -0.000226955 -0.000225322 -6.18538e-05
0.000744289 -0.000224404 -0.000222808 -6.18525e-05
0.00124005 -0.000372691 -0.000371727 -3.71237e-05
0.00125411 -0.000376925 -0.000375938 -3.71246e-05
0.000748498 -0.000225679 -0.000224065 -6.18531e-05
0.00099215 -0.000298569 -0.000297249 -5.10367e-05
0.00124708 -0.000374808 -0.000373832 -3.71241e-05
0.00100339 -0.000301962 -0.000300611 -5.10379e-05
0.000997769 -0.000300265 -0.00029893 -5.10373e-05
0.000744289 -0.000224404 -0.000222808 -6.18525e-05
0.000735871 -0.000221853 -0.000220293 -6.18512e-05
0.001226 -0.000368459 -0.000367516 -3.71228e-05
0.00124005 -0.000372691 -0.000371727 -3.71237e-05
0.00074008 -0.000223128 -0.000221551 -6.18518e-05
0.000980912 -0.000295177 -0.000293887 -5.10355e-05
0.00123303 -0.000370575 -0.000369622 -3.71232e-05
0.00099215 -0.000298569 -0.000297249 -5.10367e-05
0.000986531 -0.000296873 -0.000295568 -5.10361e-05
0.000735871 -0.000221853 -0.000220293 -6.18512e-05
0.000727452 -0.000219302 -0.000217779 -6.18499e-05
0.00121194 -0.000364226 -0.000363305 -3.71219e-05
0.001226 -0.000368459 -0.000367516 -3.71228e-05
0.000731662 -0.000220577 -0.000219036 -6.18505e-05
0.000969675 -0.000291785 -0.000290524 -5.10344e-05
0.00121897 -0.000366342 -0.000365411 -3.71223e-05
0.000980912 -0.000295177 -0.000293887 -5.10355e-05
0.000975294 -0.000293481 -0.000292206 -5.10349e-05
0.000727452 -0.000219302 -0.000217779 -6.18499e-05
0.000719034 -0.000216752 -0.000215264 -6.18486e-05
0.00119788 -0.000359993 -0.000359094 -3.71209e-05
0.00121194 -0.000364226 -0.000363305 -3.71219e-05
0.000723243 -0.000218027 -0.000216521 -6.18493e-05
0.000958437 -0.000288393 -0.000287162 -5.10332e-05
0.00120491 -0.00036211 -0.0003612 -3.71214e-05
0.000969675 -0.000291785 -0.000290524 -5.10344e-05
0.000964056 -0.000290089 -0.000288843 -5.10338e-05
0.000719034 -0.000216752 -0.000215264 -6.18486e-05
0.000710615 -0.000214201 -0.000212749 -6.18473e-05
0.00118382 -0.000355761 -0.000354883 -3.712e-05
0.00119788 -0.000359993 -0.000359094 -3.71209e-05
0.000714825 -0.000215477 -0.000214006 -6.1848e-05
0.000947199 -0.000285001 -0.000283799 -5.10321e-05
0.00119085 -0.000357877 -0.000356989 -3.71205e-05
0.000958437 -0.000288393 -0.000287162 -5.10332e-05
0.000952818 -0.000286697 -0.00028548 -5.10326e-05
0.000710615 -0.000214201 -0.000212749 -6.18473e-05
0.000702196 -0.000211652 -0.000210234 -6.18461e-05
0.00116976 -0.000351529 -0.000350672 -3.71191e-05
0.00118382 -0.000355761 -0.000354883 -3.712e-05
0.000706406 -0.000212926 -0.000211491 -6.18467e-05
0.00093596 -0.000281609 -0.000280436 -5.10309e-05
0.00117679 -0.000353645 -0.000352777 -3.71196e-05
0.000947199 -0.000285001 -0.000283799 -5.10321e-05
0.00094158 -0.000283305 -0.000282118 -5.10315e-05
0.000702196 -0.000211652 -0.000210234 -6.18461e-05
0.000693777 -0.000209102 -0.000207718 -6.18448e-05
0.0011557 -0.000347296 -0.00034646 -3.71182e-05
0.00116976 -0.000351529 -0.000350672 -3.71191e-05
0.000697987 -0.000210377 -0.000208976 -6.18454e-05
0.000924722 -0.000278218 -0.000277073 -5.10298e-05
0.00116273 -0.000349413 -0.000348566 -3.71187e-05
0.00093596 -0.000281609 -0.000280436 -5.10309e-05
0.000930341 -0.000279914 -0.000278755 -5.10303e-05
0.000693777 -0.000209102 -0.000207718 -6.18448e-05
0.000685358 -0.000206552 -0.000205202 -6.18435e-05
0.00114165 -0.000343065 -0.000342249 -3.71173e-05
0.0011557 -0.000347296 -0.00034646 -3.71182e-05
0.000689568 -0.000207827 -0.00020646 -6.18442e-05
0.000913484 -0.000274827 -0.00027371 -5.10286e-05
0.00114867 -0.00034518 -0.000344355 -3.71178e-05
0.000924722 -0.000278218 -0.000277073 -5.10298e-05
0.000919103 -0.000276522 -0.000275392 -5.10292e-05
0.000685358 -0.000206552 -0.000205202 -6.18435e-05
0.000676938 -0.000204003 -0.000202687 -6.18423e-05
0.00112759 -0.000338833 -0.000338037 -3.71165e-05
0.00114165 -0.000343065 -0.000342249 -3.71173e-05
0.000681148 -0.000205278 -0.000203945 -6.18429e-05
0.000902245 -0.000271436 -0.000270347 -5.10275e-05
0.00113462 -0.000340949 -0.000340143 -3.71169e-05
0.000913484 -0.000274827 -0.00027371 -5.10286e-05
0.000907864 -0.000273131 -0.000272028 -5.10281e-05
0.000676938 -0.000204003 -0.000202687 -6.18423e-05
0.000668519 -0.000201454 -0.000200171 -6.1841e-05
0.00111353 -0.000334601 -0.000333826 -3.71156e-05
0.00112759 -0.000338833 -0.000338037 -3.71165e-05
0.000672729 -0.000202728 -0.000201429 -6.18417e-05
0.000891006 -0.000268045 -0.000266983 -5.10264e-05
0.00112056 -0.000336717 -0.000335932 -3.7116e-05
0.000902245 -0.000271436 -0.000270347 -5.10275e-05
0.000896626 -0.00026974 -0.000268665 -5.1027e-05
0.000668519 -0.000201454 -0.000200171 -6.1841e-05
0.000660099 -0.000198905 -0.000197654 -6.18398e-05
0.00109947 -0.00033037 -0.000329614 -3.71147e-05
0.00111353 -0.000334601 -0.000333826 -3.71156e-05
0.000664309 -0.000200179 -0.000198913 -6.18404e-05
0.000879767 -0.000264654 -0.00026362 -5.10253e-05
0.0011065 -0.000332485 -0.00033172 -3.71151e-05
0.000891006 -0.000268045 -0.000266983 -5.10264e-05
0.000885387 -0.00026635 -0.000265302 -5.10258e-05
0.000660099 -0.000198905 -0.000197654 -6.18398e-05
0.000651678 -0.000196356 -0.000195138 -6.18386e-05
0.00108541 -0.000326138 -0.000325402 -3.71138e-05
0.00109947 -0.00033037 -0.000329614 -3.71147e-05
0.000655889 -0.000197631 -0.000196396 -6.18392e-05
0.000868528 -0.000261264 -0.000260256 -5.10242e-05
0.00109244 -0.000328254 -0.000327508 -3.71143e-05
0.000879767 -0.000264654 -0.00026362 -5.10253e-05
0.000874148 -0.000262959 -0.000261938 -5.10247e-05
0.000651678 -0.000196356 -0.000195138 -6.18386e-05
0.000643258 -0.000193808 -0.000192621 -6.18373e-05
0.00107135 -0.000321907 -0.000321191 -3.71129e-05
0.00108541 -0.000326138 -0.000325402 -3.71138e-05
0.000647468 -0.000195082 -0.00019388 -6.1838e-05
0.000857289 -0.000257874 -0.000256892 -5.10231e-05
0.00107838 -0.000324023 -0.000323296 -3.71134e-05
0.000868528 -0.000261264 -0.000260256 -5.10242e-05
0.000862908 -0.000259569 -0.000258574 -5.10236e-05
0.000643258 -0.000193808 -0.000192621 -6.18373e-05
0.000634837 -0.00019126 -0.000190105 -6.18361e-05
0.00105729 -0.000317676 -0.000316979 -3.71121e-05
0.00107135 -0.000321907 -0.000321191 -3.71129e-05
0.000639048 -0.000192534 -0.000191363 -6.18367e-05
0.000846049 -0.000254484 -0.000253528 -5.1022e-05
0.00106432 -0.000319792 -0.000319085 -3.71125e-05
0.000857289 -0.000257874 -0.000256892 -5.10231e-05
0.000851669 -0.000256179 -0.00025521 -5.10225e-05
0.000634837 -0.00019126 -0.000190105 -6.18361e-05
0.000626416 -0.000188712 -0.000187588 -6.18349e-05
0.00104323 -0.000313445 -0.000312766 -3.71112e-05
0.00105729 -0.000317676 -0.000316979 -3.71121e-05
0.000630627 -0.000189986 -0.000188846 -6.18355e-05
0.00083481 -0.000251094 -0.000250164 -5.10209e-05
0.00105026 -0.000315561 -0.000314873 -3.71116e-05
0.000846049 -0.000254484 -0.000253528 -5.1022e-05
0.00084043 -0.000252789 -0.000251846 -5.10214e-05
0.000626416 -0.000188712 -0.000187588 -6.18349e-05
0.000617995 -0.000186164 -0.00018507 -6.18337e-05
0.00102917 -0.000309215 -0.000308554 -3.71104e-05
0.00104323 -0.000313445 -0.000312766 -3.71112e-05
0.000622206 -0.000187438 -0.000186329 -6.18343e-05
0.00082357 -0.000247704 -0.0002468 -5.10198e-05
0.0010362 -0.00031133 -0.00031066 -3.71108e-05
0.00083481 -0.000251094 -0.000250164 -5.10209e-05
0.00082919 -0.000249399 -0.000248482 -5.10203e-05
0.000617995 -0.000186164 -0.00018507 -6.18337e-05
0.000609574 -0.000183617 -0.000182553 -6.18325e-05
0.00101512 -0.000304984 -0.000304342 -3.71095e-05
0.00102917 -0.000309215 -0.000308554 -3.71104e-05
0.000613784 -0.00018489 -0.000183812 -6.18331e-05
0.00081233 -0.000244315 -0.000243435 -5.10187e-05
0.00102215 -0.000307099 -0.000306448 -3.71099e-05
0.00082357 -0.000247704 -0.0002468 -5.10198e-05
0.00081795 -0.000246009 -0.000245117 -5.10192e-05
0.000609574 -0.000183617 -0.000182553 -6.18325e-05
0.000601152 -0.000181069 -0.000180036 -6.18313e-05
0.00100106 -0.000300754 -0.00030013 -3.71086e-05
0.00101512 -0.000304984 -0.000304342 -3.71095e-05
0.000605363 -0.000182343 -0.000181294 -6.18319e-05
0.00080109 -0.000240926 -0.000240071 -5.10176e-05
0.00100809 -0.000302869 -0.000302236 -3.71091e-05
0.00081233 -0.000244315 -0.000243435 -5.10187e-05
0.00080671 -0.00024262 -0.000241753 -5.10182e-05
0.000601152 -0.000181069 -0.000180036 -6.18313e-05
0.00059273 -0.000178522 -0.000177518 -6.18302e-05
0.000986997 -0.000296523 -0.000295917 -3.71078e-05
0.00100106 -0.000300754 -0.00030013 -3.71086e-05
0.000596941 -0.000179796 -0.000178777 -6.18308e-05
0.00078985 -0.000237536 -0.000236706 -5.10166e-05
0.000994027 -0.000298639 -0.000298023 -3.71082e-05
0.00080109 -0.000240926 -0.000240071 -5.10176e-05
0.00079547 -0.000239231 -0.000238388 -5.10171e-05
0.00059273 -0.000178522 -0.000177518 -6.18302e-05
0.000584308 -0.000175975 -0.000175 -6.1829e-05
0.000972938 -0.000292293 -0.000291705 -3.7107e-05
0.000986997 -0.000296523 -0.000295917 -3.71078e-05
0.000588519 -0.000177249 -0.000176259 -6.18296e-05
0.00077861 -0.000234148 -0.000233341 -5.10155e-05
0.000979967 -0.000294408 -0.000293811 -3.71074e-05
0.00078985 -0.000237536 -0.000236706 -5.10166e-05
0.00078423 -0.000235842 -0.000235023 -5.1016e-05
0.000584308 -0.000175975 -0.000175 -6.1829e-05
0.000575886 -0.000173429 -0.000172482 -6.18278e-05
0.000958878 -0.000288063 -0.000287492 -3.71061e-05
0.000972938 -0.000292293 -0.000291705 -3.7107e-05
0.000580097 -0.000174702 -0.000173741 -6.18284e-05
0.000767369 -0.000230759 -0.000229976 -5.10145e-05
0.000965908 -0.000290178 -0.000289598 -3.71065e-05
0.00077861 -0.000234148 -0.000233341 -5.10155e-05
0.000772989 -0.000232453 -0.000231658 -5.1015e-05
0.000575886 -0.000173429 -0.000172482 -6.18278e-05
0.000567463 -0.000170882 -0.000169963 -6.18267e-05
0.000944819 -0.000283834 -0.000283279 -3.71053e-05
0.000958878 -0.000288063 -0.000287492 -3.71061e-05
0.000571674 -0.000172155 -0.000171222 -6.18273e-05
0.000756128 -0.00022737 -0.000226611 -5.10134e-05
0.000951849 -0.000285949 -0.000285386 -3.71057e-05
0.000767369 -0.000230759 -0.000229976 -5.10145e-05
0.000761749 -0.000229065 -0.000228293 -5.10139e-05
0.000567463 -0.000170882 -0.000169963 -6.18267e-05
0.00055904 -0.000168336 -0.000167445 -6.18255e-05
0.000930759 -0.000279604 -0.000279066 -3.71045e-05
0.000944819 -0.000283834 -0.000283279 -3.71053e-05
0.000563252 -0.000169609 -0.000168704 -6.18261e-05
0.000744888 -0.000223982 -0.000223245 -5.10124e-05
0.000937789 -0.000281719 -0.000281173 -3.71049e-05
0.000756128 -0.00022737 -0.000226611 -5.10134e-05
0.000750508 -0.000225676 -0.000224928 -5.10129e-05
0.00055904 -0.000168336 -0.000167445 -6.18255e-05
0.000550617 -0.00016579 -0.000164926 -6.18244e-05
0.000916699 -0.000275375 -0.000274854 -3.71037e-05
0.000930759 -0.000279604 -0.000279066 -3.71045e-05
0.000554829 -0.000167063 -0.000166185 -6.1825e-05
0.000733647 -0.000220594 -0.00021988 -5.10113e-05
0.000923729 -0.000277489 -0.00027696 -3.71041e-05
0.000744888 -0.000223982 -0.000223245 -5.10124e-05
0.000739267 -0.000222288 -0.000221562 -5.10119e-05
0.000550617 -0.00016579 -0.000164926 -6.18244e-05
0.000542194 -0.000163244 -0.000162407 -6.18233e-05
0.00090264 -0.000271145 -0.00027064 -3.71028e-05
0.000916699 -0.000275375 -0.000274854 -3.71037e-05
0.000546405 -0.000164517 -0.000163666 -6.18239e-05
0.000722405 -0.000217206 -0.000216514 -5.10103e-05
0.00090967 -0.00027326 -0.000272747 -3.71033e-05
0.000733647 -0.000220594 -0.00021988 -5.10113e-05
0.000728026 -0.0002189 -0.000218197 -5.10108e-05
0.000542194 -0.000163244 -0.000162407 -6.18233e-05
0.00053377 -0.000160699 -0.000159888 -6.18222e-05
0.00088858 -0.000266916 -0.000266427 -3.7102e-05
0.00090264 -0.000271145 -0.00027064 -3.71028e-05
0.000537982 -0.000161971 -0.000161147 -6.18227e-05
0.000711164 -0.000213818 -0.000213148 -5.10093e-05
0.00089561 -0.000269031 -0.000268534 -3.71024e-05
0.000722405 -0.000217206 -0.000216514 -5.10103e-05
0.000716785 -0.000215512 -0.000214831 -5.10098e-05
0.00053377 -0.000160699 -0.000159888 -6.18222e-05
0.000525346 -0.000158153 -0.000157368 -6.18211e-05
0.00087452 -0.000262687 -0.000262214 -3.71012e-05
0.00088858 -0.000266916 -0.000266427 -3.7102e-05
0.000529558 -0.000159426 -0.000158628 -6.18216e-05
0.000699922 -0.000210431 -0.000209782 -5.10083e-05
0.00088155 -0.000264802 -0.000264321 -3.71016e-05
0.000711164 -0.000213818 -0.000213148 -5.10093e-05
0.000705543 -0.000212125 -0.000211465 -5.10088e-05
0.000525346 -0.000158153 -0.000157368 -6.18211e-05
0.000516922 -0.000155608 -0.000154849 -6.182e-05
0.00086046 -0.000258458 -0.000258001 -3.71004e-05
0.00087452 -0.000262687 -0.000262214 -3.71012e-05
0.000521134 -0.000156881 -0.000156109 -6.18205e-05
0.000688681 -0.000207043 -0.000206416 -5.10073e-05
0.00086749 -0.000260573 -0.000260107 -3.71008e-05
0.000699922 -0.000210431 -0.000209782 -5.10083e-05
0.000694302 -0.000208737 -0.000208099 -5.10078e-05
0.000516922 -0.000155608 -0.000154849 -6.182e-05
0.000508498 -0.000153063 -0.000152329 -6.18189e-05
0.0008464 -0.000254229 -0.000253787 -3.70996e-05
0.00086046 -0.000258458 -0.000258001 -3.71004e-05
0.00051271 -0.000154336 -0.000153589 -6.18194e-05
0.000677439 -0.000203656 -0.00020305 -5.10063e-05
0.00085343 -0.000256344 -0.000255894 -3.71e-05
0.000688681 -0.000207043 -0.000206416 -5.10073e-05
0.00068306 -0.00020535 -0.000204733 -5.10068e-05
0.000508498 -0.000153063 -0.000152329 -6.18189e-05
0.000500073 -0.000150518 -0.000149809 -6.18178e-05
0.00083234 -0.000250001 -0.000249574 -3.70989e-05
0.0008464 -0.000254229 -0.000253787 -3.70996e-05
0.000504286 -0.000151791 -0.000151069 -6.18184e-05
0.000666197 -0.000200269 -0.000199683 -5.10053e-05
0.00083937 -0.000252115 -0.000251681 -3.70993e-05
0.000677439 -0.000203656 -0.00020305 -5.10063e-05
0.000671818 -0.000201963 -0.000201366 -5.10058e-05
0.000500073 -0.000150518 -0.000149809 -6.18178e-05
0.000491648 -0.000147974 -0.000147289 -6.18168e-05
0.000818279 -0.000245772 -0.00024536 -3.70981e-05
0.00083234 -0.000250001 -0.000249574 -3.70989e-05
0.000495861 -0.000149246 -0.000148549 -6.18173e-05
0.000654954 -0.000196883 -0.000196317 -5.10044e-05
0.000825309 -0.000247887 -0.000247467 -3.70985e-05
0.000666197 -0.000200269 -0.000199683 -5.10053e-05
0.000660576 -0.000198576 -0.000198 -5.10048e-05
0.000491648 -0.000147974 -0.000147289 -6.18168e-05
0.000483223 -0.00014543 -0.000144769 -6.18157e-05
0.000804219 -0.000241544 -0.000241146 -3.70973e-05
0.000818279 -0.000245772 -0.00024536 -3.70981e-05
0.000487436 -0.000146702 -0.000146029 -6.18162e-05
0.000643712 -0.000193496 -0.00019295 -5.10034e-05
0.000811249 -0.000243658 -0.000243253 -3.70977e-05
0.000654954 -0.000196883 -0.000196317 -5.10044e-05
0.000649333 -0.000195189 -0.000194633 -5.10039e-05
0.000483223 -0.00014543 -0.000144769 -6.18157e-05
0.000474798 -0.000142886 -0.000142248 -6.18146e-05
0.000790158 -0.000237316 -0.000236932 -3.70965e-05
0.000804219 -0.000241544 -0.000241146 -3.70973e-05
0.000479011 -0.000144158 -0.000143509 -6.18152e-05
0.000632469 -0.000190109 -0.000189583 -5.10024e-05
0.000797189 -0.00023943 -0.000239039 -3.70969e-05
0.000643712 -0.000193496 -0.00019295 -5.10034e-05
0.000638091 -0.000191803 -0.000191266 -5.10029e-05
0.000474798 -0.000142886 -0.000142248 -6.18146e-05
0.000466372 -0.000140342 -0.000139727 -6.18136e-05
0.000776098 -0.000233088 -0.000232718 -3.70958e-05
0.000790158 -0.000237316 -0.000236932 -3.70965e-05
0.000470585 -0.000141614 -0.000140988 -6.18141e-05
0.000621227 -0.000186723 -0.000186216 -5.10015e-05
0.000783128 -0.000235202 -0.000234825 -3.70962e-05
0.000632469 -0.000190109 -0.000189583 -5.10024e-05
0.000626848 -0.000188416 -0.000187899 -5.10019e-05
0.000466372 -0.000140342 -0.000139727 -6.18136e-05
0.000457947 -0.000137798 -0.000137207 -6.18126e-05
0.000762037 -0.00022886 -0.000228504 -3.7095e-05
0.000776098 -0.000233088 -0.000232718 -3.70958e-05
0.00046216 -0.00013907 -0.000138467 -6.18131e-05
0.000609984 -0.000183337 -0.000182848 -5.10005e-05
0.000769067 -0.000230974 -0.000230611 -3.70954e-05
0.000621227 -0.000186723 -0.000186216 -5.10015e-05
0.000615605 -0.00018503 -0.000184532 -5.1001e-05
0.000457947 -0.000137798 -0.000137207 -6.18126e-05
0.00044952 -0.000135255 -0.000134685 -6.18116e-05
0.000747976 -0.000224632 -0.00022429 -3.70943e-05
0.000762037 -0.00022886 -0.000228504 -3.7095e-05
0.000453734 -0.000136526 -0.000135946 -6.18121e-05
0.00059874 -0.000179951 -0.000179481 -5.09996e-05
0.000755007 -0.000226746 -0.000226397 -3.70947e-05
0.000609984 -0.000183337 -0.000182848 -5.10005e-05
0.000604362 -0.000181644 -0.000181165 -5.10001e-05
0.00044952 -0.000135255 -0.000134685 -6.18116e-05
0.000441094 -0.000132711 -0.000132164 -6.18106e-05
0.000733915 -0.000220405 -0.000220076 -3.70935e-05
0.000747976 -0.000224632 -0.00022429 -3.70943e-05
0.000445307 -0.000133983 -0.000133425 -6.18111e-05
0.000587497 -0.000176566 -0.000176113 -5.09987e-05
0.000740946 -0.000222518 -0.000222183 -3.70939e-05
0.00059874 -0.000179951 -0.000179481 -5.09996e-05
0.000593119 -0.000178258 -0.000177797 -5.09991e-05
0.000441094 -0.000132711 -0.000132164 -6.18106e-05
0.000432667 -0.000130168 -0.000129642 -6.18096e-05
0.000719854 -0.000216177 -0.000215862 -3.70928e-05
0.000733915 -0.000220405 -0.000220076 -3.70935e-05
0.000436881 -0.00013144 -0.000130903 -6.18101e-05
0.000576253 -0.00017318 -0.000172746 -5.09978e-05
0.000726885 -0.000218291 -0.000217969 -3.70932e-05
0.000587497 -0.000176566 -0.000176113 -5.09987e-05
0.000581875 -0.000174873 -0.00017443 -5.09982e-05
0.000432667 -0.000130168 -0.000129642 -6.18096e-05
0.000424241 -0.000127626 -0.000127121 -6.18086e-05
0.000705793 -0.00021195 -0.000211647 -3.70921e-05
0.000719854 -0.000216177 -0.000215862 -3.70928e-05
0.000428454 -0.000128897 -0.000128382 -6.18091e-05
0.00056501 -0.000169795 -0.000169378 -5.09969e-05
0.000712824 -0.000214064 -0.000213754 -3.70924e-05
0.000576253 -0.00017318 -0.000172746 -5.09978e-05
0.000570632 -0.000171487 -0.000171062 -5.09973e-05
0.000424241 -0.000127626 -0.000127121 -6.18086e-05
0.000415813 -0.000125083 -0.000124599 -6.18076e-05
0.000691732 -0.000207723 -0.000207432 -3.70914e-05
0.000705793 -0.00021195 -0.000211647 -3.70921e-05
0.000420027 -0.000126354 -0.00012586 -6.18081e-05
0.000553766 -0.00016641 -0.00016601 -5.0996e-05
0.000698762 -0.000209836 -0.00020954 -3.70917e-05
0.00056501 -0.000169795 -0.000169378 -5.09969e-05
0.000559388 -0.000168102 -0.000167694 -5.09964e-05
0.000415813 -0.000125083 -0.000124599 -6.18076e-05
0.000407386 -0.000122541 -0.000122077 -6.18067e-05
0.00067767 -0.000203496 -0.000203218 -3.70906e-05
0.000691732 -0.000207723 -0.000207432 -3.70914e-05
0.0004116 -0.000123812 -0.000123338 -6.18071e-05
0.000542522 -0.000163025 -0.000162642 -5.09951e-05
0.000684701 -0.000205609 -0.000205325 -3.7091e-05
0.000553766 -0.00016641 -0.00016601 -5.0996e-05
0.000548144 -0.000164717 -0.000164326 -5.09955e-05
0.000407386 -0.000122541 -0.000122077 -6.18067e-05
0.000398958 -0.000119998 -0.000119554 -6.18057e-05
0.000663609 -0.000199269 -0.000199003 -3.70899e-05
0.00067767 -0.000203496 -0.000203218 -3.70906e-05
0.000403172 -0.00012127 -0.000120815 -6.18062e-05
0.000531277 -0.00015964 -0.000159273 -5.09942e-05
0.000670639 -0.000201382 -0.00020111 -3.70903e-05
0.000542522 -0.000163025 -0.000162642 -5.09951e-05
0.000536899 -0.000161332 -0.000160957 -5.09946e-05
0.000398958 -0.000119998 -0.000119554 -6.18057e-05
0.00039053 -0.000117456 -0.000117032 -6.18048e-05
0.000649547 -0.000195042 -0.000194788 -3.70892e-05
0.000663609 -0.000199269 -0.000199003 -3.70899e-05
0.000394744 -0.000118727 -0.000118293 -6.18052e-05
0.000520033 -0.000156255 -0.000155905 -5.09933e-05
0.000656578 -0.000197155 -0.000196895 -3.70896e-05
0.000531277 -0.00015964 -0.000159273 -5.09942e-05
0.000525655 -0.000157947 -0.000157589 -5.09938e-05
0.00039053 -0.000117456 -0.000117032 -6.18048e-05
0.000382102 -0.000114915 -0.000114509 -6.18038e-05
0.000635485 -0.000190815 -0.000190573 -3.70885e-05
0.000649547 -0.000195042 -0.000194788 -3.70892e-05
0.000386316 -0.000116186 -0.00011577 -6.18043e-05
0.000508788 -0.000152871 -0.000152536 -5.09925e-05
0.000642516 -0.000192929 -0.00019268 -3.70889e-05
0.000520033 -0.000156255 -0.000155905 -5.09933e-05
0.00051441 -0.000154563 -0.00015422 -5.09929e-05
0.000382102 -0.000114915 -0.000114509 -6.18038e-05
0.000373673 -0.000112373 -0.000111986 -6.18029e-05
0.000621423 -0.000186589 -0.000186358 -3.70878e-05
0.000635485 -0.000190815 -0.000190573 -3.70885e-05
0.000377888 -0.000113644 -0.000113247 -6.18034e-05
0.000497543 -0.000149486 -0.000149167 -5.09916e-05
0.000628454 -0.000188702 -0.000188465 -3.70882e-05
0.000508788 -0.000152871 -0.000152536 -5.09925e-05
0.000503165 -0.000151179 -0.000150851 -5.0992e-05
0.000373673 -0.000112373 -0.000111986 -6.18029e-05
0.000365245 -0.000109832 -0.000109463 -6.1802e-05
0.000607361 -0.000182363 -0.000182142 -3.70872e-05
0.000621423 -0.000186589 -0.000186358 -3.70878e-05
0.000369459 -0.000111102 -0.000110724 -6.18025e-05
0.000486298 -0.000146102 -0.000145798 -5.09908e-05
0.000614392 -0.000184476 -0.00018425 -3.70875e-05
0.000497543 -0.000149486 -0.000149167 -5.09916e-05
0.00049192 -0.000147794 -0.000147483 -5.09912e-05
0.000365245 -0.000109832 -0.000109463 -6.1802e-05
0.000356815 -0.000107291 -0.000106939 -6.18011e-05
0.000593299 -0.000178136 -0.000177927 -3.70865e-05
0.000607361 -0.000182363 -0.000182142 -3.70872e-05
0.00036103 -0.000108561 -0.000108201 -6.18016e-05
0.000475052 -0.000142718 -0.000142429 -5.09899e-05
0.00060033 -0.000180249 -0.000180035 -3.70868e-05
0.000486298 -0.000146102 -0.000145798 -5.09908e-05
0.000480675 -0.00014441 -0.000144113 -5.09903e-05
0.000356815 -0.000107291 -0.000106939 -6.18011e-05
0.000348386 -0.00010475 -0.000104416 -6.18002e-05
0.000579237 -0.00017391 -0.000173711 -3.70858e-05
0.000593299 -0.000178136 -0.000177927 -3.70865e-05
0.000352601 -0.00010602 -0.000105677 -6.18007e-05
0.000463807 -0.000139335 -0.000139059 -5.09891e-05
0.000586268 -0.000176023 -0.000175819 -3.70862e-05
0.000475052 -0.000142718 -0.000142429 -5.09899e-05
0.000469429 -0.000141027 -0.000140744 -5.09895e-05
0.000348386 -0.00010475 -0.000104416 -6.18002e-05
0.000339956 -0.000102209 -0.000101892 -6.17994e-05
0.000565174 -0.000169684 -0.000169496 -3.70852e-05
0.000579237 -0.00017391 -0.000173711 -3.70858e-05
0.000344171 -0.000103479 -0.000103154 -6.17998e-05
0.000452561 -0.000135951 -0.00013569 -5.09883e-05
0.000572205 -0.000171797 -0.000171603 -3.70855e-05
0.000463807 -0.000139335 -0.000139059 -5.09891e-05
0.000458184 -0.000137643 -0.000137375 -5.09887e-05
0.000339956 -0.000102209 -0.000101892 -6.17994e-05
0.000331527 -9.96686e-05 -9.93677e-05 -6.17985e-05
0.000551111 -0.000165459 -0.00016528 -3.70845e-05
0.000565174 -0.000169684 -0.000169496 -3.70852e-05
0.000335742 -0.000100939 -0.00010063 -6.17989e-05
0.000441315 -0.000132568 -0.00013232 -5.09875e-05
0.000558143 -0.000167571 -0.000167388 -3.70848e-05
0.000452561 -0.000135951 -0.00013569 -5.09883e-05
0.000446938 -0.000134259 -0.000134005 -5.09879e-05
0.000331527 -9.96686e-05 -9.93677e-05 -6.17985e-05
0.000323096 -9.71283e-05 -9.68435e-05 -6.17977e-05
0.000537049 -0.000161233 -0.000161064 -3.70839e-05
0.000551111 -0.000165459 -0.00016528 -3.70845e-05
0.000327311 -9.83984e-05 -9.81056e-05 -6.17981e-05
0.000430068 -0.000129185 -0.00012895 -5.09867e-05
0.00054408 -0.000163346 -0.000163172 -3.70842e-05
0.000441315 -0.000132568 -0.00013232 -5.09875e-05
0.000435692 -0.000130876 -0.000130635 -5.09871e-05
0.000323096 -9.71283e-05 -9.68435e-05 -6.17977e-05
0.000314666 -9.45882e-05 -9.4319e-05 -6.17968e-05
0.000522986 -0.000157007 -0.000156848 -3.70832e-05
0.000537049 -0.000161233 -0.000161064 -3.70839e-05
0.000318881 -9.58582e-05 -9.55813e-05 -6.17972e-05
0.000418822 -0.000125802 -0.00012558 -5.09859e-05
0.000530017 -0.00015912 -0.000158956 -3.70835e-05
0.000430068 -0.000129185 -0.00012895 -5.09867e-05
0.000424445 -0.000127493 -0.000127265 -5.09863e-05
0.000314666 -9.45882e-05 -9.4319e-05 -6.17968e-05
0.000306235 -9.20483e-05 -9.17944e-05 -6.1796e-05
0.000508923 -0.000152782 -0.000152632 -3.70826e-05
0.000522986 -0.000157007 -0.000156848 -3.70832e-05
0.000310451 -9.33182e-05 -9.30567e-05 -6.17964e-05
0.000407575 -0.000122419 -0.00012221 -5.09851e-05
0.000515954 -0.000154895 -0.00015474 -3.70829e-05
0.000418822 -0.000125802 -0.00012558 -5.09859e-05
0.000413199 -0.00012411 -0.000123895 -5.09855e-05
0.000306235 -9.20483e-05 -9.17944e-05 -6.1796e-05
0.000297804 -8.95086e-05 -8.92695e-05 -6.17952e-05
0.000494859 -0.000148557 -0.000148416 -3.7082e-05
0.000508923 -0.000152782 -0.000152632 -3.70826e-05
0.00030202 -9.07784e-05 -9.05319e-05 -6.17956e-05
0.000396328 -0.000119036 -0.00011884 -5.09844e-05
0.000501891 -0.000150669 -0.000150524 -3.70823e-05
0.000407575 -0.000122419 -0.00012221 -5.09851e-05
0.000401952 -0.000120727 -0.000120525 -5.09848e-05
0.000297804 -8.95086e-05 -8.92695e-05 -6.17952e-05
0.000289373 -8.69691e-05 -8.67444e-05 -6.17944e-05
0.000480796 -0.000144331 -0.000144199 -3.70813e-05
0.000494859 -0.000148557 -0.000148416 -3.7082e-05
0.000293588 -8.82388e-05 -8.8007e-05 -6.17948e-05
0.000385081 -0.000115653 -0.000115469 -5.09836e-05
0.000487828 -0.000146444 -0.000146307 -3.70817e-05
0.000396328 -0.000119036 -0.00011884 -5.09844e-05
0.000390705 -0.000117345 -0.000117154 -5.0984e-05
0.000289373 -8.69691e-05 -8.67444e-05 -6.17944e-05
0.000280941 -8.44298e-05 -8.42191e-05 -6.17936e-05
0.000466732 -0.000140106 -0.000139983 -3.70807e-05
0.000480796 -0.000144331 -0.000144199 -3.70813e-05
0.000285157 -8.56994e-05 -8.54818e-05 -6.1794e-05
0.000373834 -0.000112271 -0.000112098 -5.09829e-05
0.000473764 -0.000142219 -0.000142091 -3.7081e-05
0.000385081 -0.000115653 -0.000115469 -5.09836e-05
0.000379457 -0.000113962 -0.000113784 -5.09833e-05
0.000280941 -8.44298e-05 -8.42191e-05 -6.17936e-05
0.000272509 -8.18907e-05 -8.16936e-05 -6.17929e-05
0.000452669 -0.000135881 -0.000135766 -3.70801e-05
0.000466732 -0.000140106 -0.000139983 -3.70807e-05
0.000276725 -8.31602e-05 -8.29564e-05 -6.17932e-05
0.000362586 -0.000108889 -0.000108727 -5.09822e-05
0.000459701 -0.000137994 -0.000137874 -3.70804e-05
0.000373834 -0.000112271 -0.000112098 -5.09829e-05
0.00036821 -0.00011058 -0.000110413 -5.09825e-05
0.000272509 -8.18907e-05 -8.16936e-05 -6.17929e-05
0.000264077 -7.93518e-05 -7.91679e-05 -6.17921e-05
0.000438605 -0.000131657 -0.000131549 -3.70796e-05
0.000452669 -0.000135881 -0.000135766 -3.70801e-05
0.000268293 -8.06212e-05 -8.04308e-05 -6.17925e-05
0.000351338 -0.000105507 -0.000105356 -5.09814e-05
0.000445637 -0.000133769 -0.000133658 -3.70798e-05
0.000362586 -0.000108889 -0.000108727 -5.09822e-05
0.000356962 -0.000107198 -0.000107042 -5.09818e-05
0.000264077 -7.93518e-05 -7.91679e-05 -6.17921e-05
0.000255644 -7.68132e-05 -7.66419e-05 -6.17914e-05
0.000424541 -0.000127432 -0.000127332 -3.7079e-05
0.000438605 -0.000131657 -0.000131549 -3.70796e-05
0.000259861 -7.80825e-05 -7.79049e-05 -6.17917e-05
0.00034009 -0.000102125 -0.000101985 -5.09808e-05
0.000431573 -0.000129544 -0.000129441 -3.70793e-05
0.000351338 -0.000105507 -0.000105356 -5.09814e-05
0.000345714 -0.000103816 -0.000103671 -5.09811e-05
0.000255644 -7.68132e-05 -7.66419e-05 -6.17914e-05
0.000247212 -7.42747e-05 -7.41158e-05 -6.17907e-05
0.000410476 -0.000123207 -0.000123115 -3.70784e-05
0.000424541 -0.000127432 -0.000127332 -3.7079e-05
0.000251428 -7.55439e-05 -7.53789e-05 -6.1791e-05
0.000328842 -9.87433e-05 -9.86135e-05 -5.09801e-05
0.000417509 -0.00012532 -0.000125224 -3.70787e-05
0.00034009 -0.000102125 -0.000101985 -5.09808e-05
0.000334466 -0.000100434 -0.000100299 -5.09804e-05
0.000247212 -7.42747e-05 -7.41158e-05 -6.17907e-05
0.000238778 -7.17365e-05 -7.15894e-05 -6.179e-05
0.000396412 -0.000118983 -0.000118898 -3.70779e-05
0.000410476 -0.000123207 -0.000123115 -3.70784e-05
0.000242995 -7.30056e-05 -7.28526e-05 -6.17903e-05
0.000317593 -9.53618e-05 -9.52419e-05 -5.09794e-05
0.000403444 -0.000121095 -0.000121007 -3.70782e-05
0.000328842 -9.87433e-05 -9.86135e-05 -5.09801e-05
0.000323217 -9.70526e-05 -9.69277e-05 -5.09798e-05
0.000238778 -7.17365e-05 -7.15894e-05 -6.179e-05
0.000230345 -6.91985e-05 -6.90628e-05 -6.17894e-05
0.000382347 -0.000114759 -0.000114681 -3.70774e-05
0.000396412 -0.000118983 -0.000118898 -3.70779e-05
0.000234562 -7.04674e-05 -7.03261e-05 -6.17897e-05
0.000306344 -9.19805e-05 -9.18701e-05 -5.09788e-05
0.00038938 -0.000116871 -0.00011679 -3.70777e-05
0.000317593 -9.53618e-05 -9.52419e-05 -5.09794e-05
0.000311969 -9.36712e-05 -9.3556e-05 -5.09791e-05
0.000230345 -6.91985e-05 -6.90628e-05 -6.17894e-05
0.000221911 -6.66607e-05 -6.6536e-05 -6.17888e-05
0.000368283 -0.000110534 -0.000110464 -3.70769e-05
0.000382347 -0.000114759 -0.000114681 -3.70774e-05
0.000226128 -6.79295e-05 -6.77994e-05 -6.17891e-05
0.000295095 -8.85994e-05 -8.84981e-05 -5.09783e-05
0.000375315 -0.000112646 -0.000112572 -3.70772e-05
0.000306344 -9.19805e-05 -9.18701e-05 -5.09788e-05
0.00030072 -9.02899e-05 -9.01841e-05 -5.09786e-05
0.000221911 -6.66607e-05 -6.6536e-05 -6.17888e-05
0.000213477 -6.41231e-05 -6.4009e-05 -6.17882e-05
0.000354218 -0.00010631 -0.000106246 -3.70765e-05
0.000368283 -0.000110534 -0.000110464 -3.70769e-05
0.000217694 -6.53918e-05 -6.52725e-05 -6.17885e-05
0.000283846 -8.52184e-05 -8.51259e-05 -5.09778e-05
0.00036125 -0.000108422 -0.000108355 -3.70767e-05
0.000295095 -8.85994e-05 -8.84981e-05 -5.09783e-05
0.00028947 -8.69089e-05 -8.68121e-05 -5.0978e-05
0.000213477 -6.41231e-05 -6.4009e-05 -6.17882e-05
0.000205043 -6.15857e-05 -6.14818e-05 -6.17878e-05
0.000340152 -0.000102086 -0.000102028 -3.70762e-05
0.000354218 -0.00010631 -0.000106246 -3.70765e-05
0.00020926 -6.28544e-05 -6.27454e-05 -6.1788e-05
0.000272596 -8.18376e-05 -8.17536e-05 -5.09773e-05
0.000347185 -0.000104198 -0.000104137 -3.70764e-05
0.000283846 -8.52184e-05 -8.51259e-05 -5.09778e-05
0.000278221 -8.3528e-05 -8.34398e-05 -5.09776e-05
0.000205043 -6.15857e-05 -6.14818e-05 -6.17878e-05
0.000196609 -5.90486e-05 -5.89543e-05 -6.17873e-05
0.000326087 -9.78625e-05 -9.78104e-05 -3.70759e-05
0.000340152 -0.000102086 -0.000102028 -3.70762e-05
0.000200826 -6.03171e-05 -6.02181e-05 -6.17875e-05
0.000261346 -7.8457e-05 -7.83811e-05 -5.0977e-05
0.00033312 -9.99744e-05 -9.99193e-05 -3.7076e-05
0.000272596 -8.18376e-05 -8.17536e-05 -5.09773e-05
0.000266971 -8.01473e-05 -8.00673e-05 -5.09772e-05
0.000196609 -5.90486e-05 -5.89543e-05 -6.17873e-05
0.000188174 -5.65117e-05 -5.64267e-05 -6.17869e-05
0.000312021 -9.36388e-05 -9.35924e-05 -3.70757e-05
0.000326087 -9.78625e-05 -9.78104e-05 -3.70759e-05
0.000192391 -5.77801e-05 -5.76905e-05 -6.17871e-05
0.000250096 -7.50766e-05 -7.50083e-05 -5.09767e-05
0.000319054 -9.57506e-05 -9.57014e-05 -3.70758e-05
0.000261346 -7.8457e-05 -7.83811e-05 -5.0977e-05
0.000255721 -7.67668e-05 -7.66947e-05 -5.09768e-05
0.000188174 -5.65117e-05 -5.64267e-05 -6.17869e-05
0.000179739 -5.3975e-05 -5.38989e-05 -6.17866e-05
0.000297955 -8.94152e-05 -8.93742e-05 -3.70756e-05
0.000312021 -9.36388e-05 -9.35924e-05 -3.70757e-05
0.000183957 -5.52434e-05 -5.51628e-05 -6.17867e-05
0.000238846 -7.16964e-05 -7.16355e-05 -5.09764e-05
0.000304988 -9.15269e-05 -9.14833e-05 -3.70756e-05
0.000250096 -7.50766e-05 -7.50083e-05 -5.09767e-05
0.000244471 -7.33865e-05 -7.33219e-05 -5.09766e-05
0.000179739 -5.3975e-05 -5.38989e-05 -6.17866e-05
0.000171304 -5.14385e-05 -5.13709e-05 -6.17861e-05
0.000283889 -8.51916e-05 -8.5156e-05 -3.70756e-05
0.000297955 -8.94152e-05 -8.93742e-05 -3.70756e-05
0.000175522 -5.27068e-05 -5.26349e-05 -6.17864e-05
0.000227595 -6.83163e-05 -6.82625e-05 -5.09762e-05
0.000290922 -8.73034e-05 -8.72651e-05 -3.70756e-05
0.000238846 -7.16964e-05 -7.16355e-05 -5.09764e-05
0.000233221 -7.00063e-05 -6.9949e-05 -5.09763e-05
0.000171304 -5.14385e-05 -5.13709e-05 -6.17861e-05
0.000162869 -4.89021e-05 -4.88429e-05 -6.17856e-05
0.000269823 -8.09682e-05 -8.09376e-05 -3.70755e-05
0.000283889 -8.51916e-05 -8.5156e-05 -3.70756e-05
0.000167086 -5.01703e-05 -5.01069e-05 -6.17859e-05
0.000216345 -6.49363e-05 -6.48893e-05 -5.09759e-05
0.000276856 -8.30799e-05 -8.30468e-05 -3.70756e-05
0.000227595 -6.83163e-05 -6.82625e-05 -5.09762e-05
0.00022197 -6.66263e-05 -6.65759e-05 -5.09761e-05
0.000162869 -4.89021e-05 -4.88429e-05 -6.17856e-05
0.000154433 -4.63654e-05 -4.63148e-05 -6.17846e-05
0.000255756 -7.67448e-05 -7.67191e-05 -3.70754e-05
0.000269823 -8.09682e-05 -8.09376e-05 -3.70755e-05
0.000158651 -4.76338e-05 -4.75788e-05 -6.17852e-05
0.000205094 -6.15563e-05 -6.15162e-05 -5.09754e-05
0.000262789 -7.88565e-05 -7.88283e-05 -3.70755e-05
0.000216345 -6.49363e-05 -6.48893e-05 -5.09759e-05
0.000210719 -6.32463e-05 -6.32028e-05 -5.09757e-05
0.000154433 -4.63654e-05 -4.63148e-05 -6.17846e-05
0.000145998 -4.38281e-05 -4.37869e-05 -6.1783e-05
0.00024169 -7.25214e-05 -7.25007e-05 -3.70749e-05
0.000255756 -7.67448e-05 -7.67191e-05 -3.70754e-05
0.000150215 -4.50969e-05 -4.50508e-05 -6.17839e-05
0.000193844 -5.81761e-05 -5.81432e-05 -5.09741e-05
0.000248723 -7.46332e-05 -7.46099e-05 -3.70752e-05
0.000205094 -6.15563e-05 -6.15162e-05 -5.09754e-05
0.000199469 -5.98663e-05 -5.98297e-05 -5.09749e-05
0.000145998 -4.38281e-05 -4.37869e-05 -6.1783e-05
0.000137561 -4.12892e-05 -4.12593e-05 -6.17801e-05
0.000227624 -6.82977e-05 -6.82826e-05 -3.70733e-05
0.00024169 -7.25214e-05 -7.25007e-05 -3.70749e-05
0.000141779 -4.2559e-05 -4.2523e-05 -6.17817e-05
0.000182593 -5.47948e-05 -5.47706e-05 -5.09714e-05
0.000234657 -7.04096e-05 -7.03916e-05 -3.70743e-05
0.000193844 -5.81761e-05 -5.81432e-05 -5.09741e-05
0.000188218 -5.64856e-05 -5.64568e-05 -5.0973e-05
0.000137561 -4.12892e-05 -4.12593e-05 -6.17801e-05
0.000129122 -3.87468e-05 -3.87323e-05 -6.1775e-05
0.000213559 -6.40731e-05 -6.40653e-05 -3.70693e-05
0.000227624 -6.82977e-05 -6.82826e-05 -3.70733e-05
0.000133342 -4.00186e-05 -3.99957e-05 -6.17779e-05
0.000171342 -5.14113e-05 -5.13987e-05 -5.09659e-05
0.000220591 -6.61856e-05 -6.61738e-05 -3.70717e-05
0.000182593 -5.47948e-05 -5.47706e-05 -5.09714e-05
0.000176967 -5.31035e-05 -5.30845e-05 -5.09692e-05
0.000129122 -3.87468e-05 -3.87323e-05 -6.1775e-05
0.000120679 -3.61969e-05 -3.62067e-05 -6.17664e-05
0.000199495 -5.98466e-05 -5.98493e-05 -3.70603e-05
0.000213559 -6.40731e-05 -6.40653e-05 -3.70693e-05
0.000124901 -3.74731e-05 -3.74693e-05 -6.17713e-05
0.000160089 -4.80227e-05 -4.80284e-05 -5.09549e-05
0.000206527 -6.19602e-05 -6.19571e-05 -3.70656e-05
0.000171342 -5.14113e-05 -5.13987e-05 -5.09659e-05
0.000165716 -4.97179e-05 -4.97133e-05 -5.09613e-05
0.000120679 -3.61969e-05 -3.62067e-05 -6.17664e-05
0.000112225 -3.36323e-05 -3.36824e-05 -6.17524e-05
0.000185434 -5.56157e-05 -5.56365e-05 -3.70406e-05
0.000199495 -5.98466e-05 -5.98493e-05 -3.70603e-05
0.000116454 -3.49171e-05 -3.49444e-05 -6.17602e-05
0.000148832 -4.46238e-05 -4.46605e-05 -5.09335e-05
0.000192464 -5.77319e-05 -5.77423e-05 -3.70523e-05
0.000160089 -4.80227e-05 -4.80284e-05 -5.09549e-05
0.000154461 -4.63251e-05 -4.6344e-05 -5.0946e-05
0.000112225 -3.36323e-05 -3.36824e-05 -6.17524e-05
0.000103749 -3.10397e-05 -3.11611e-05 -6.17298e-05
0.000171375 -5.13759e-05 -5.14283e-05 -3.70013e-05
0.000185434 -5.56157e-05 -5.56365e-05 -3.70406e-05
0.00010799 -3.23406e-05 -3.24211e-05 -6.17425e-05
0.000137563 -4.12037e-05 -4.12968e-05 -5.08933e-05
0.000178405 -5.34974e-05 -5.35317e-05 -3.70241e-05
0.000148832 -4.46238e-05 -4.46605e-05 -5.09335e-05
0.000143199 -4.29171e-05 -4.29781e-05 -5.09163e-05
0.000103749 -3.10397e-05 -3.11611e-05 -6.17298e-05
9.52248e-05 -2.83961e-05 -2.86409e-05 -6.16959e-05
0.000157322 -4.71184e-05 -4.72303e-05 -3.69219e-05
0.000171375 -5.13759e-05 -5.14283e-05 -3.70013e-05
9.94957e-05 -2.97265e-05 -2.99011e-05 -6.17143e-05
0.00012627 -3.77454e-05 -3.79389e-05 -5.08198e-05
0.000164347 -4.92499e-05 -4.93274e-05 -3.69686e-05
0.000137563 -4.12037e-05 -4.12968e-05 -5.08933e-05
0.00013192 -3.94814e-05 -3.96167e-05 -5.08625e-05
9.52248e-05 -2.83961e-05 -2.86409e-05 -6.16959e-05
8.66188e-05 -2.56614e-05 -2.61246e-05 -6.16442e-05
0.000143266 -4.2829e-05 -4.30443e-05 -3.67752e-05
0.000157322 -4.71184e-05 -4.72303e-05 -3.69219e-05
9.09333e-05 -2.7043e-05 -2.73816e-05 -6.16732e-05
0.000114923 -3.42137e-05 -3.45897e-05 -5.0689e-05
0.000150297 -4.49796e-05 -4.51358e-05 -3.68591e-05
0.00012627 -3.77454e-05 -3.79389e-05 -5.08198e-05
0.000120605 -3.59905e-05 -3.62636e-05 -5.07626e-05
8.66188e-05 -2.56614e-05 -2.61246e-05 -6.16442e-05
7.78412e-05 -2.27785e-05 -2.35983e-05 -6.15785e-05
0.000129215 -3.84791e-05 -3.88869e-05 -3.64975e-05
0.000143266 -4.2829e-05 -4.30443e-05 -3.67752e-05
8.22613e-05 -2.42444e-05 -2.48644e-05 -6.1612e-05
0.000103476 -3.05636e-05 -3.12483e-05 -5.04646e-05
0.000136236 -4.06623e-05 -4.09603e-05 -3.66588e-05
0.000114923 -3.42137e-05 -3.45897e-05 -5.0689e-05
0.000109216 -3.24099e-05 -3.29168e-05 -5.05939e-05
7.78412e-05 -2.27785e-05 -2.35983e-05 -6.15785e-05
6.88059e-05 -1.96563e-05 -2.10641e-05 -6.14922e-05
0.000115114 -3.40357e-05 -3.47478e-05 -3.60249e-05
0.000129215 -3.84791e-05 -3.88869e-05 -3.64975e-05
7.33567e-05 -2.12509e-05 -2.23311e-05 -6.15395e-05
9.18292e-05 -2.67014e-05 -2.79119e-05 -5.00982e-05
0.000122181 -3.62762e-05 -3.68165e-05 -3.62899e-05
0.000103476 -3.05636e-05 -3.12483e-05 -5.04646e-05
9.76869e-05 -2.86606e-05 -2.95827e-05 -5.02979e-05
6.88059e-05 -1.96563e-05 -2.10641e-05 -6.14922e-05
5.92759e-05 -1.62194e-05 -1.84528e-05 -6.14397e-05
0.000100984 -2.94164e-05 -3.06716e-05 -3.51972e-05
0.000115114 -3.40357e-05 -3.47478e-05 -3.60249e-05
6.41313e-05 -1.79874e-05 -1.9776e-05 -6.14539e-05
7.98539e-05 -2.25584e-05 -2.45552e-05 -4.95357e-05
0.000108039 -3.17435e-05 -3.26982e-05 -3.56711e-05
9.18292e-05 -2.67014e-05 -2.79119e-05 -5.00982e-05
8.58894e-05 -2.46811e-05 -2.62321e-05 -4.98555e-05
5.92759e-05 -1.62194e-05 -1.84528e-05 -6.14397e-05
4.9147e-05 -1.23883e-05 -1.57537e-05 -6.1458e-05
8.65566e-05 -2.4601e-05 -2.65524e-05 -3.39529e-05
0.000100984 -2.94164e-05 -3.06716e-05 -3.51972e-05
5.42707e-05 -1.43382e-05 -1.7114e-05 -6.14399e-05
6.72516e-05 -1.7963e-05 -2.11237e-05 -4.87771e-05
9.38538e-05 -2.70599e-05 -2.86259e-05 -3.46277e-05
7.98539e-05 -2.25584e-05 -2.45552e-05 -4.95357e-05
7.36616e-05 -2.03025e-05 -2.28682e-05 -4.91563e-05
4.9147e-05 -1.23883e-05 -1.57537e-05 -6.1458e-05
3.80448e-05 -8.43422e-06 -1.26902e-05 -6.18511e-05
7.18491e-05 -1.93847e-05 -2.24848e-05 -3.20538e-05
8.65566e-05 -2.4601e-05 -2.65524e-05 -3.39529e-05
4.37799e-05 -1.04186e-05 -1.42977e-05 -6.15713e-05
5.38231e-05 -1.30828e-05 -1.74601e-05 -4.79514e-05
7.91893e-05 -2.19945e-05 -2.45121e-05 -3.3106e-05
6.72516e-05 -1.7963e-05 -2.11237e-05 -4.87771e-05
6.06351e-05 -1.55807e-05 -1.9309e-05 -4.83993e-05
3.80448e-05 -8.43422e-06 -1.26902e-05 -6.18511e-05
2.65104e-05 -5.01339e-06 -9.21299e-06 -6.28438e-05
5.57948e-05 -1.41892e-05 -1.78309e-05 -3.00018e-05
7.18491e-05 -1.93847e-05 -2.24848e-05 -3.20538e-05
3.22016e-05 -6.50649e-06 -1.10122e-05 -6.22619e-05
3.89172e-05 -8.09747e-06 -1.32085e-05 -4.7704e-05
6.41722e-05 -1.68716e-05 -2.02717e-05 -3.09926e-05
5.38231e-05 -1.30828e-05 -1.74601e-05 -4.79514e-05
4.66418e-05 -1.04631e-05 -1.55051e-05 -4.75993e-05
2.65104e-05 -5.01339e-06 -9.21299e-06 -6.28438e-05
1.52852e-05 -4.95925e-06 -4.42539e-06 -6.51666e-05
3.8468e-05 -9.02013e-06 -1.26205e-05 -2.86278e-05
5.57948e-05 -1.41892e-05 -1.78309e-05 -3.00018e-05
2.08964e-05 -4.3858e-06 -7.07599e-06 -6.37737e-05
2.33851e-05 -5.69781e-06 -7.58028e-06 -4.94304e-05
4.70992e-05 -1.12468e-05 -1.53653e-05 -2.91043e-05
3.89172e-05 -8.09747e-06 -1.32085e-05 -4.7704e-05
3.10361e-05 -6.41753e-06 -1.05508e-05 -4.83512e-05
1.52852e-05 -4.95925e-06 -4.42539e-06 -6.51666e-05
9.30218e-06 -1.33255e-05 1.72426e-06 -6.70668e-05
1.82127e-05 -9.46954e-06 -3.74708e-06 -3.35301e-05
3.8468e-05 -9.02013e-06 -1.26205e-05 -2.86278e-05
1.09844e-05 -7.34161e-06 -1.56121e-06 -6.64216e-05
9.11418e-06 -1.18744e-05 1.18293e-06 -5.58496e-05
2.91046e-05 -8.47483e-06 -8.84134e-06 -2.97556e-05
2.33851e-05 -5.69781e-06 -7.58028e-06 -4.94304e-05
1.60494e-05 -6.6478e-06 -4.02925e-06 -5.15263e-05
9.30218e-06 -1.33255e-05 1.72426e-06 -6.70668e-05
1.22307e-05 -3.95869e-05 1.17241e-05 -6.18046e-05
8.61033e-06 -3.29114e-05 1.04148e-05 -5.20618e-05
1.82127e-05 -9.46954e-06 -3.74708e-06 -3.35301e-05
9.84777e-06 -2.43913e-05 6.23293e-06 -6.62133e-05
1.32104e-05 -4.47913e-05 1.35347e-05 -6.11853e-05
9.98409e-06 -1.38993e-05 1.67794e-06 -4.00996e-05
9.11418e-06 -1.18744e-05 1.18293e-06 -5.58496e-05
6.77079e-06 -2.41223e-05 7.43637e-06 -6.03214e-05
1.22307e-05 -3.95869e-05 1.17241e-05 -6.18046e-05
2.1077e-05 -7.18047e-05 2.17404e-05 -3.27555e-05
4.70225e-05 -0.000143828 4.14882e-05 -5.33626e-05
8.61033e-06 -3.29114e-05 1.04148e-05 -5.20618e-05
1.6093e-05 -5.68118e-05 1.74509e-05 -5.11443e-05
3.77636e-05 -0.000104478 2.85921e-05 -3.07736e-05
1.92401e-05 -7.6879e-05 2.47024e-05 -6.18052e-05
1.32104e-05 -4.47913e-05 1.35347e-05 -6.11853e-05
2.4764e-05 -7.35486e-05 2.09077e-05 -5.30738e-05
0.00236228 2.22045e-16 -0.00101241 -0.000138394
0.00265841 -0.000527238 -0.00091336 -0.000199984
0.00371339 -0.00117661 -0.00108719 6.68024e-05
0.00520609 -1.11022e-16 -0.00223118 -0.00176788
0.00252806 -0.000248519 -0.000976946 -0.000231797
0.00336632 -0.000817316 -0.00109243 -0.000258652
0.00413082 -0.00130978 -0.00120902 -0.000250486
0.0027795 0 -0.00119122 -0.000430065
0.00324743 -0.000552302 -0.00115505 -0.000404209
0.00265841 -0.000527238 -0.00091336 -0.000199984
0.00276286 -0.000749671 -0.000862794 -9.60602e-05
0.00366635 -0.00113594 -0.00108446 2.12298e-05
0.00371339 -0.00117661 -0.00108719 6.68024e-05
0.00274082 -0.000683827 -0.00088157 -0.000144796
0.00329173 -0.000960074 -0.000999282 -4.46318e-05
0.00365677 -0.00108592 -0.00110179 2.97786e-05
0.00336632 -0.000817316 -0.00109243 -0.000258652
0.00331978 -0.000926817 -0.00102555 -0.000105937
0.00276286 -0.000749671 -0.000862794 -9.60602e-05
0.00274996 -0.000812653 -0.000830274 -3.62544e-05
0.00371701 -0.00110353 -0.00112006 9.8602e-06
0.00366635 -0.00113594 -0.00108446 2.12298e-05
0.00275555 -0.000788817 -0.000842884 -5.69133e-05
0.00325688 -0.000977585 -0.000976842 -5.20133e-06
0.00370035 -0.00113327 -0.00110018 2.14104e-05
0.00329173 -0.000960074 -0.000999282 -4.46318e-05
0.00327363 -0.000972603 -0.000986153 -2.19858e-05
0.00274996 -0.000812653 -0.000830274 -3.62544e-05
0.00273068 -0.000821716 -0.000818126 -2.25236e-05
0.00373788 -0.0011247 -0.00111993 -1.06269e-06
0.00371701 -0.00110353 -0.00112006 9.8602e-06
0.00274278 -0.000821206 -0.00082353 -2.70836e-05
0.00323764 -0.000975788 -0.000969364 8.31564e-07
0.00372623 -0.00110714 -0.00112247 -1.84233e-06
0.00325688 -0.000977585 -0.000976842 -5.20133e-06
0.00324404 -0.000977685 -0.000971294 2.31393e-06
0.00273068 -0.000821716 -0.000818126 -2.25236e-05
0.00270832 -0.000820593 -0.000809025 -2.16152e-05
0.00374869 -0.00112068 -0.00112629 7.6052e-07
0.00373788 -0.0011247 -0.00111993 -1.06269e-06
0.00271781 -0.000821452 -0.000812725 -2.07409e-05
0.00322804 -0.00097275 -0.000966552 -4.65462e-06
0.00374701 -0.00112641 -0.00112312 1.897e-06
0.00323764 -0.000975788 -0.000969364 8.31564e-07
0.00323365 -0.000974205 -0.000968334 -2.71244e-06
0.00270832 -0.000820593 -0.000809025 -2.16152e-05
0.00269133 -0.000814719 -0.000804263 -2.59227e-05
0.00374469 -0.00112389 -0.0011232 -6.8137e-07
0.00374869 -0.00112068 -0.00112629 7.6052e-07
0.00270017 -0.000818049 -0.000806624 -2.38652e-05
0.00321629 -0.000968576 -0.000963307 -9.81936e-06
0.00374666 -0.00112112 -0.00112523 -1.17422e-06
0.00322804 -0.00097275 -0.000966552 -4.65462e-06
0.00322189 -0.000970815 -0.000964746 -6.93185e-06
0.00269133 -0.000814719 -0.000804263 -2.59227e-05
0.00267493 -0.00080891 -0.000799723 -2.96213e-05
0.0037357 -0.00111982 -0.00112109 3.5859e-08
0.00374469 -0.00112389 -0.0011232 -6.8137e-07
0.00268264 -0.000811702 -0.00080183 -2.77688e-05
0.00320388 -0.000964068 -0.00095992 -1.39346e-05
0.00374147 -0.00112281 -0.00112228 2.17901e-07
0.00321629 -0.000968576 -0.000963307 -9.81936e-06
0.00321053 -0.000966331 -0.0009618 -1.22676e-05
0.00267493 -0.00080891 -0.000799723 -2.96213e-05
0.00266022 -0.000803225 -0.000795854 -3.26783e-05
0.00372108 -0.00111642 -0.00111628 -2.22653e-07
0.0037357 -0.00111982 -0.00112109 3.5859e-08
0.00266764 -0.000806052 -0.000797825 -3.13459e-05
0.00318954 -0.000959309 -0.000955814 -1.66087e-05
0.00372853 -0.00111794 -0.00111882 -3.77277e-07
0.00320388 -0.000964068 -0.00095992 -1.39346e-05
0.00319675 -0.000961722 -0.00095787 -1.53619e-05
0.00266022 -0.000803225 -0.000795854 -3.26783e-05
0.00264569 -0.000798066 -0.000791839 -3.45628e-05
0.00370445 -0.00111118 -0.0011114 -2.79362e-08
0.00372108 -0.00111642 -0.00111628 -2.22653e-07
0.00265284 -0.000800577 -0.000793826 -3.37104e-05
0.00317436 -0.000954393 -0.000951413 -1.82134e-05
0.00371312 -0.00111403 -0.0011139 8.19032e-09
0.00318954 -0.000959309 -0.000955814 -1.66087e-05
0.00318212 -0.000956862 -0.000953682 -1.75506e-05
0.00264569 -0.000798066 -0.000791839 -3.45628e-05
0.00263156 -0.000793234 -0.000787853 -3.57704e-05
0.00368612 -0.00110588 -0.00110582 -6.28006e-08
0.00370445 -0.00111118 -0.0011114 -2.79362e-08
0.00263864 -0.000795619 -0.000789866 -3.5258e-05
0.00315836 -0.000949406 -0.000946693 -1.91495e-05
0.00369535 -0.00110851 -0.00110865 -1.10518e-07
0.00317436 -0.000954393 -0.000951413 -1.82134e-05
0.00316639 -0.000951907 -0.000949064 -1.874e-05
0.00263156 -0.000793234 -0.000787853 -3.57704e-05
0.00261745 -0.000788657 -0.00078377 -3.64354e-05
0.00366715 -0.00110015 -0.00110015 -1.50975e-08
0.00368612 -0.00110588 -0.00110582 -6.28006e-08
0.00262448 -0.000790919 -0.000785813 -3.61468e-05
0.003142 -0.000944368 -0.000941842 -1.96466e-05
0.00367672 -0.00110307 -0.001103 -7.09981e-09
0.00315836 -0.000949406 -0.000946693 -1.91495e-05
0.00315023 -0.000946891 -0.000944289 -1.94419e-05
0.00261745 -0.000788657 -0.00078377 -3.64354e-05
0.00260342 -0.000784226 -0.000779655 -3.68141e-05
0.00364775 -0.00109436 -0.00109431 -1.5705e-08
0.00366715 -0.00110015 -0.00110015 -1.50975e-08
0.00261044 -0.000786428 -0.000781721 -3.66563e-05
0.00312537 -0.00093931 -0.000936884 -1.99144e-05
0.00365747 -0.00109725 -0.00109724 -2.9441e-08
0.003142 -0.000944368 -0.000941842 -1.96466e-05
0.0031337 -0.000941841 -0.000939368 -1.98014e-05
0.00260342 -0.000784226 -0.000779655 -3.68141e-05
0.00258938 -0.000779885 -0.0007755 -3.70079e-05
0.00362818 -0.00108849 -0.00108844 -5.05769e-09
0.00364775 -0.00109436 -0.00109431 -1.5705e-08
0.0025964 -0.000782047 -0.00077758 -3.6926e-05
0.00310863 -0.000934239 -0.000931882 -2.00444e-05
0.00363799 -0.00109144 -0.00109138 -3.17233e-09
0.00312537 -0.00093931 -0.000936884 -1.99144e-05
0.00311702 -0.000936776 -0.000934389 -1.99915e-05
0.00258938 -0.000779885 -0.0007755 -3.70079e-05
0.00257535 -0.00077559 -0.000771327 -3.711e-05
0.00360852 -0.00108259 -0.00108254 -3.44872e-09
0.00362818 -0.00108849 -0.00108844 -5.05769e-09
0.00258237 -0.000777733 -0.000773416 -3.70681e-05
0.00309181 -0.000929163 -0.00092685 -2.01092e-05
0.00361836 -0.00108554 -0.00108549 -7.0012e-09
0.00310863 -0.000934239 -0.000931882 -2.00444e-05
0.00310023 -0.000931702 -0.000929368 -2.00826e-05
0.00257535 -0.00077559 -0.000771327 -3.711e-05
0.00256131 -0.000771321 -0.00076714 -3.71591e-05
0.00358883 -0.00107668 -0.00107663 -1.35276e-09
0.00360852 -0.00108259 -0.00108254 -3.44872e-09
0.00256833 -0.000773453 -0.000769234 -3.71387e-05
0.00307496 -0.000924084 -0.000921806 -2.0138e-05
0.00359868 -0.00107964 -0.00107959 -8.86281e-10
0.00309181 -0.000929163 -0.00092685 -2.01092e-05
0.00308339 -0.000926624 -0.00092433 -2.01266e-05
0.00256131 -0.000771321 -0.00076714 -3.71591e-05
0.00254727 -0.000767064 -0.000762947 -3.71835e-05
0.00356912 -0.00107077 -0.00107072 -6.74659e-10
0.00358883 -0.00107668 -0.00107663 -1.35276e-09
0.00255429 -0.000769192 -0.000765044 -3.71736e-05
0.0030581 -0.000919003 -0.000916754 -2.01512e-05
0.00357897 -0.00107373 -0.00107368 -1.48008e-09
0.00307496 -0.000924084 -0.000921806 -2.0138e-05
0.00306653 -0.000921544 -0.00091928 -2.01459e-05
0.00254727 -0.000767064 -0.000762947 -3.71835e-05
0.00253323 -0.000762813 -0.000758749 -3.71946e-05
0.0035494 -0.00106485 -0.00106481 -3.437e-10
0.00356912 -0.00107077 -0.00107072 -6.74659e-10
0.00254025 -0.000764938 -0.000760848 -3.71901e-05
0.00304122 -0.000913922 -0.000911699 -2.01563e-05
0.00355926 -0.00106781 -0.00106776 -2.23336e-10
0.0030581 -0.000919003 -0.000916754 -2.01512e-05
0.00304966 -0.000916463 -0.000914227 -2.01544e-05
0.00253323 -0.000762813 -0.000758749 -3.71946e-05
0.00251918 -0.000758564 -0.000754549 -3.71997e-05
0.00352968 -0.00105894 -0.00105889 -1.56052e-10
0.0035494 -0.00106485 -0.00106481 -3.437e-10
0.0025262 -0.000760688 -0.000756649 -3.71977e-05
0.00302434 -0.00090884 -0.000906643 -2.01583e-05
0.00353954 -0.0010619 -0.00106185 -3.11072e-10
0.00304122 -0.000913922 -0.000911699 -2.01563e-05
0.00303278 -0.000911381 -0.000909171 -2.01576e-05
0.00251918 -0.000758564 -0.000754549 -3.71997e-05
0.00250513 -0.000754317 -0.000750348 -3.72017e-05
0.00350996 -0.00105302 -0.00105297 -1.27776e-10
0.00352968 -0.00105894 -0.00105889 -1.56052e-10
0.00251215 -0.00075644 -0.000752449 -3.72009e-05
0.00300746 -0.000903758 -0.000901585 -2.01588e-05
0.00351982 -0.00105598 -0.00105593 -9.66193e-11
0.00302434 -0.00090884 -0.000906643 -2.01583e-05
0.0030159 -0.000906299 -0.000904114 -2.01586e-05
0.00250513 -0.000754317 -0.000750348 -3.72017e-05
0.00249108 -0.00075007 -0.000746146 -3.72024e-05
0.00349025 -0.00104711 -0.00104706 -8.63154e-11
0.00350996 -0.00105302 -0.00105297 -1.27776e-10
0.0024981 -0.000752193 -0.000748247 -3.72022e-05
0.00299057 -0.000898676 -0.000896528 -2.01587e-05
0.0035001 -0.00105006 -0.00105002 -1.10068e-10
0.00300746 -0.000903758 -0.000901585 -2.01588e-05
0.00299902 -0.000901217 -0.000899057 -2.01588e-05
0.00249108 -0.00075007 -0.000746146 -3.72024e-05
0.00247702 -0.000745823 -0.000741944 -3.72023e-05
0.00347053 -0.00104119 -0.00104114 -9.13912e-11
0.00349025 -0.00104711 -0.00104706 -8.63154e-11
0.00248405 -0.000747946 -0.000744045 -3.72024e-05
0.00297369 -0.000893594 -0.00089147 -2.01583e-05
0.00348039 -0.00104415 -0.0010441 -8.40117e-11
0.00299057 -0.000898676 -0.000896528 -2.01587e-05
0.00298213 -0.000896135 -0.000893999 -2.01585e-05
0.00247702 -0.000745823 -0.000741944 -3.72023e-05
0.00246297 -0.000741576 -0.000737741 -3.72018e-05
0.00345081 -0.00103528 -0.00103523 -8.29543e-11
0.00347053 -0.00104119 -0.00104114 -9.13912e-11
0.00247 -0.000743699 -0.000739842 -3.72021e-05
0.00295681 -0.000888512 -0.000886412 -2.01579e-05
0.00346067 -0.00103823 -0.00103819 -8.5432e-11
0.00297369 -0.000893594 -0.00089147 -2.01583e-05
0.00296525 -0.000891053 -0.000888941 -2.01581e-05
0.00246297 -0.000741576 -0.000737741 -3.72018e-05
0.00244892 -0.000737329 -0.000733538 -3.72012e-05
0.00343109 -0.00102936 -0.00102931 -8.58673e-11
0.00345081 -0.00103528 -0.00103523 -8.29543e-11
0.00245594 -0.000739453 -0.000735639 -3.72015e-05
0.00293992 -0.00088343 -0.000881353 -2.01574e-05
0.00344095 -0.00103232 -0.00103227 -8.45553e-11
0.00295681 -0.000888512 -0.000886412 -2.01579e-05
0.00294836 -0.000885971 -0.000883882 -2.01576e-05
0.00244892 -0.000737329 -0.000733538 -3.72012e-05
0.00243486 -0.000733083 -0.000729335 -3.72005e-05
0.00341137 -0.00102344 -0.0010234 -8.37119e-11
0.00343109 -0.00102936 -0.00102931 -8.58673e-11
0.00244189 -0.000735206 -0.000731437 -3.72008e-05
0.00292304 -0.000878348 -0.000876295 -2.01569e-05
0.00342123 -0.0010264 -0.00102636 -8.38387e-11
0.00293992 -0.00088343 -0.000881353 -2.01574e-05
0.00293148 -0.000880889 -0.000878824 -2.01571e-05
0.00243486 -0.000733083 -0.000729335 -3.72005e-05
0.00242081 -0.000728836 -0.000725132 -3.71997e-05
0.00339166 -0.00101753 -0.00101748 -8.42544e-11
0.00341137 -0.00102344 -0.0010234 -8.37119e-11
0.00242784 -0.000730959 -0.000727233 -3.72001e-05
0.00290615 -0.000873266 -0.000871237 -2.01564e-05
0.00340152 -0.00102049 -0.00102044 -8.42271e-11
0.00292304 -0.000878348 -0.000876295 -2.01569e-05
0.00291459 -0.000875807 -0.000873766 -2.01566e-05
0.00242081 -0.000728836 -0.000725132 -3.71997e-05
0.00240676 -0.00072459 -0.000720928 -3.71989e-05
0.00337194 -0.00101161 -0.00101157 -8.34064e-11
0.00339166 -0.00101753 -0.00101748 -8.42544e-11
0.00241378 -0.000726713 -0.00072303 -3.71993e-05
0.00288927 -0.000868184 -0.000866179 -2.01559e-05
0.0033818 -0.00101457 -0.00101453 -8.34797e-11
0.00290615 -0.000873266 -0.000871237 -2.01564e-05
0.00289771 -0.000870725 -0.000868708 -2.01561e-05
0.00240676 -0.00072459 -0.000720928 -3.71989e-05
0.0023927 -0.000720344 -0.000716725 -3.71981e-05
0.00335222 -0.0010057 -0.00100565 -8.32674e-11
0.00337194 -0.00101161 -0.00101157 -8.34101e-11
0.00239973 -0.000722467 -0.000718827 -3.71985e-05
0.00287238 -0.000863103 -0.00086112 -2.01554e-05
0.00336208 -0.00100866 -0.00100861 -8.3408e-11
0.00288927 -0.000868184 -0.000866179 -2.01559e-05
0.00288083 -0.000865643 -0.000863649 -2.01556e-05
0.0023927 -0.000720344 -0.000716725 -3.71981e-05
0.00237865 -0.000716098 -0.000712521 -3.71972e-05
0.00333251 -0.000999783 -0.000999739 -8.2839e-11
0.00335222 -0.0010057 -0.00100565 -8.32674e-11
0.00238568 -0.000718221 -0.000714623 -3.71976e-05
0.0028555 -0.000858021 -0.000856062 -2.01549e-05
0.00334237 -0.00100274 -0.0010027 -8.29342e-11
0.00287238 -0.000863103 -0.00086112 -2.01554e-05
0.00286394 -0.000860562 -0.000858591 -2.01551e-05
0.00237865 -0.000716098 -0.000712521 -3.71972e-05
0.00236459 -0.000711852 -0.000708318 -3.71964e-05
0.00331279 -0.000993868 -0.000993824 -8.25954e-11
0.00333251 -0.000999783 -0.000999739 -8.28464e-11
0.00237162 -0.000713975 -0.00071042 -3.71968e-05
0.00283861 -0.00085294 -0.000851003 -2.01544e-05
0.00332265 -0.000996825 -0.000996782 -8.27329e-11
0.0028555 -0.000858021 -0.000856062 -2.01549e-05
0.00284706 -0.00085548 -0.000853533 -2.01546e-05
0.00236459 -0.000711852 -0.000708318 -3.71964e-05
0.00235054 -0.000707606 -0.000704114 -3.71956e-05
0.00329307 -0.000987953 -0.000987909 -8.22803e-11
0.00331279 -0.000993868 -0.000993824 -8.25954e-11
0.00235757 -0.000709729 -0.000706216 -3.7196e-05
0.00282173 -0.000847858 -0.000845945 -2.01539e-05
0.00330293 -0.00099091 -0.000990867 -8.24143e-11
0.00283861 -0.00085294 -0.000851003 -2.01544e-05
0.00283017 -0.000850399 -0.000848474 -2.01542e-05
0.00235054 -0.000707606 -0.000704114 -3.71956e-05
0.00233648 -0.000703361 -0.00069991 -3.71949e-05
0.00327336 -0.000982038 -0.000981995 -8.20082e-11
0.00329307 -0.000987953 -0.000987909 -8.22866e-11
0.00234351 -0.000705484 -0.000702012 -3.71953e-05
0.00280485 -0.000842777 -0.000840886 -2.01535e-05
0.00328322 -0.000984995 -0.000984952 -8.21677e-11
0.00282173 -0.000847858 -0.000845945 -2.01539e-05
0.00281329 -0.000845318 -0.000843416 -2.01537e-05
0.00233648 -0.000703361 -0.00069991 -3.71949e-05
0.00232243 -0.000699116 -0.000695706 -3.71941e-05
0.00325364 -0.000976123 -0.00097608 -8.16971e-11
0.00327336 -0.000982038 -0.000981995 -8.20082e-11
0.00232946 -0.000701238 -0.000697808 -3.71945e-05
0.00278796 -0.000837696 -0.000835828 -2.0153e-05
0.0032635 -0.00097908 -0.000979037 -8.18659e-11
0.00280485 -0.000842777 -0.000840886 -2.01535e-05
0.0027964 -0.000840236 -0.000838357 -2.01532e-05
0.00232243 -0.000699116 -0.000695706 -3.71941e-05
0.00230838 -0.00069487 -0.000691502 -3.71933e-05
0.00323393 -0.000970208 -0.000970165 -8.13693e-11
0.00325364 -0.000976123 -0.00097608 -8.17005e-11
0.0023154 -0.000696993 -0.000693604 -3.71937e-05
0.00277108 -0.000832615 -0.000830769 -2.01525e-05
0.00324378 -0.000973165 -0.000973123 -8.15675e-11
0.00278796 -0.000837696 -0.000835828 -2.0153e-05
0.00277952 -0.000835155 -0.000833299 -2.01528e-05
0.00230838 -0.00069487 -0.000691502 -3.71933e-05
0.00229432 -0.000690625 -0.000687298 -3.71925e-05
0.00321421 -0.000964293 -0.000964251 -8.09923e-11
0.00323393 -0.000970208 -0.000970165 -8.13693e-11
0.00230135 -0.000692748 -0.0006894 -3.71929e-05
0.00275419 -0.000827534 -0.000825711 -2.01521e-05
0.00322407 -0.00096725 -0.000967208 -8.12084e-11
0.00277108 -0.000832615 -0.000830769 -2.01525e-05
0.00276263 -0.000830074 -0.00082824 -2.01523e-05
0.00229432 -0.000690625 -0.000687298 -3.71925e-05
0.00228027 -0.00068638 -0.000683094 -3.71917e-05
0.0031945 -0.000958378 -0.000958336 -8.06062e-11
0.00321421 -0.000964293 -0.000964251 -8.09923e-11
0.00228729 -0.000688503 -0.000685196 -3.71921e-05
0.00273731 -0.000822453 -0.000820652 -2.01516e-05
0.00320435 -0.000961335 -0.000961293 -8.08379e-11
0.00275419 -0.000827534 -0.000825711 -2.01521e-05
0.00274575 -0.000824993 -0.000823181 -2.01518e-05
0.00228027 -0.00068638 -0.000683094 -3.71917e-05
0.00226621 -0.000682135 -0.000678889 -3.71909e-05
0.00317478 -0.000952463 -0.000952422 -8.01956e-11
0.0031945 -0.000958378 -0.000958336 -8.06062e-11
0.00227324 -0.000684258 -0.000680992 -3.71913e-05
0.00272042 -0.000817372 -0.000815593 -2.01511e-05
0.00318464 -0.00095542 -0.000955379 -8.04453e-11
0.00273731 -0.000822453 -0.000820652 -2.01516e-05
0.00272887 -0.000819912 -0.000818123 -2.01514e-05
0.00226621 -0.000682135 -0.000678889 -3.71909e-05
0.00225216 -0.000677891 -0.000674685 -3.71901e-05
0.00315506 -0.000946548 -0.000946507 -7.97496e-11
0.00317478 -0.000952463 -0.000952422 -8.01961e-11
0.00225918 -0.000680013 -0.000676787 -3.71905e-05
0.00270354 -0.000812291 -0.000810535 -2.01507e-05
0.00316492 -0.000949505 -0.000949464 -8.00061e-11
0.00272042 -0.000817372 -0.000815593 -2.01511e-05
0.00271198 -0.000814832 -0.000813064 -2.01509e-05
0.00225216 -0.000677891 -0.000674685 -3.71901e-05
0.0022381 -0.000673646 -0.00067048 -3.71893e-05
0.00313535 -0.000940633 -0.000940593 -7.93012e-11
0.00315506 -0.000946548 -0.000946507 -7.97496e-11
0.00224513 -0.000675768 -0.000672583 -3.71897e-05
0.00268665 -0.000807211 -0.000805476 -2.01502e-05
0.00314521 -0.00094359 -0.00094355 -7.95557e-11
0.00270354 -0.000812291 -0.000810535 -2.01507e-05
0.0026951 -0.000809751 -0.000808005 -2.01504e-05
0.0022381 -0.000673646 -0.00067048 -3.71893e-05
0.00222405 -0.000669402 -0.000666276 -3.71885e-05
0.00311563 -0.000934718 -0.000934678 -7.88669e-11
0.00313535 -0.000940633 -0.000940593 -7.92987e-11
0.00223107 -0.000671524 -0.000668378 -3.71889e-05
0.00266977 -0.00080213 -0.000800417 -2.01497e-05
0.00312549 -0.000937675 -0.000937635 -7.91231e-11
0.00268665 -0.000807211 -0.000805476 -2.01502e-05
0.00267821 -0.00080467 -0.000802946 -2.015e-05
0.00222405 -0.000669402 -0.000666276 -3.71885e-05
0.00220999 -0.000665157 -0.000662071 -3.71877e-05
0.00309592 -0.000928803 -0.000928764 -7.8353e-11
0.00311563 -0.000934718 -0.000934678 -7.88669e-11
0.00221702 -0.00066728 -0.000664173 -3.71881e-05
0.00265289 -0.00079705 -0.000795358 -2.01492e-05
0.00310578 -0.000931761 -0.000931721 -7.86387e-11
0.00266977 -0.00080213 -0.000800417 -2.01497e-05
0.00266133 -0.00079959 -0.000797888 -2.01495e-05
0.00220999 -0.000665157 -0.000662071 -3.71877e-05
0.00219593 -0.000660913 -0.000657866 -3.71869e-05
0.0030762 -0.000922888 -0.000922849 -7.78886e-11
0.00309592 -0.000928803 -0.000928764 -7.8353e-11
0.00220296 -0.000663035 -0.000659969 -3.71873e-05
0.002636 -0.00079197 -0.000790299 -2.01488e-05
0.00308606 -0.000925846 -0.000925806 -7.81431e-11
0.00265289 -0.00079705 -0.000795358 -2.01492e-05
0.00264444 -0.00079451 -0.000792829 -2.0149e-05
0.00219593 -0.000660913 -0.000657866 -3.71869e-05
0.00218188 -0.000656669 -0.000653661 -3.71861e-05
0.00305649 -0.000916974 -0.000916935 -7.74173e-11
0.0030762 -0.000922888 -0.000922849 -7.79024e-11
0.00218891 -0.000658791 -0.000655764 -3.71865e-05
0.00261912 -0.000786889 -0.00078524 -2.01483e-05
0.00306635 -0.000919931 -0.000919892 -7.77059e-11
0.002636 -0.00079197 -0.000790299 -2.01488e-05
0.00262756 -0.000789429 -0.00078777 -2.01485e-05
0.00218188 -0.000656669 -0.000653661 -3.71861e-05
0.00216782 -0.000652426 -0.000649456 -3.71852e-05
0.00303677 -0.000911059 -0.000911021 -7.69144e-11
0.00305649 -0.000916974 -0.000916935 -7.74173e-11
0.00217485 -0.000654548 -0.000651559 -3.71856e-05
0.00260223 -0.000781809 -0.000780182 -2.01478e-05
0.00304663 -0.000914016 -0.000913978 -7.71913e-11
0.00261912 -0.000786889 -0.00078524 -2.01483e-05
0.00261067 -0.000784349 -0.000782711 -2.0148e-05
0.00216782 -0.000652426 -0.000649456 -3.71852e-05
0.00215377 -0.000648182 -0.000645251 -3.71844e-05
0.00301706 -0.000905144 -0.000905106 -7.64267e-11
0.00303677 -0.000911059 -0.000911021 -7.69148e-11
0.0021608 -0.000650304 -0.000647353 -3.71848e-05
0.00258535 -0.000776729 -0.000775123 -2.01473e-05
0.00302692 -0.000908102 -0.000908063 -7.67152e-11
0.00260223 -0.000781809 -0.000780182 -2.01478e-05
0.00259379 -0.000779269 -0.000777652 -2.01475e-05
0.00215377 -0.000648182 -0.000645251 -3.71844e-05
0.00213971 -0.000643939 -0.000641046 -3.71835e-05
0.00299734 -0.00089923 -0.000899192 -7.59548e-11
0.00301706 -0.000905144 -0.000905106 -7.64267e-11
0.00214674 -0.00064606 -0.000643148 -3.7184e-05
0.00256846 -0.000771649 -0.000770064 -2.01468e-05
0.0030072 -0.000902187 -0.000902149 -7.62115e-11
0.00258535 -0.000776729 -0.000775123 -2.01473e-05
0.00257691 -0.000774189 -0.000772593 -2.0147e-05
0.00213971 -0.000643939 -0.000641046 -3.71835e-05
0.00212566 -0.000639695 -0.00063684 -3.71827e-05
0.00297763 -0.000893315 -0.000893278 -7.54503e-11
0.00299734 -0.00089923 -0.000899192 -7.59346e-11
0.00213268 -0.000641817 -0.000638943 -3.71831e-05
0.00255158 -0.000766569 -0.000765004 -2.01463e-05
0.00298749 -0.000896273 -0.000896235 -7.57402e-11
0.00256846 -0.000771649 -0.000770064 -2.01468e-05
0.00256002 -0.000769109 -0.000767534 -2.01465e-05
0.00212566 -0.000639695 -0.00063684 -3.71827e-05
0.0021116 -0.000635452 -0.000632635 -3.71818e-05
0.00295792 -0.000887401 -0.000887364 -7.49728e-11
0.00297763 -0.000893315 -0.000893278 -7.54503e-11
0.00211863 -0.000637574 -0.000634738 -3.71823e-05
0.0025347 -0.00076149 -0.000759945 -2.01458e-05
0.00296777 -0.000890358 -0.000890321 -7.52243e-11
0.00255158 -0.000766569 -0.000765004 -2.01463e-05
0.00254314 -0.00076403 -0.000762475 -2.0146e-05
0.0021116 -0.000635452 -0.000632635 -3.71818e-05
0.00209754 -0.000631209 -0.000628429 -3.7181e-05
0.0029382 -0.000881486 -0.00088145 -7.4478e-11
0.00295792 -0.000887401 -0.000887364 -7.49728e-11
0.00210457 -0.00063333 -0.000630532 -3.71814e-05
0.00251781 -0.00075641 -0.000754886 -2.01453e-05
0.00294806 -0.000884443 -0.000884407 -7.47814e-11
0.0025347 -0.00076149 -0.000759945 -2.01458e-05
0.00252625 -0.00075895 -0.000757416 -2.01455e-05
0.00209754 -0.000631209 -0.000628429 -3.7181e-05
0.00208349 -0.000626966 -0.000624224 -3.71801e-05
0.00291849 -0.000875572 -0.000875536 -7.39399e-11
0.0029382 -0.000881486 -0.00088145 -7.4478e-11
0.00209052 -0.000629088 -0.000626326 -3.71805e-05
0.00250093 -0.000751331 -0.000749827 -2.01448e-05
0.00292835 -0.000878529 -0.000878493 -7.42087e-11
0.00251781 -0.00075641 -0.000754886 -2.01453e-05
0.00250937 -0.00075387 -0.000752357 -2.0145e-05
0.00208349 -0.000626966 -0.000624224 -3.71801e-05
0.00206943 -0.000622723 -0.000620018 -3.71792e-05
0.00289877 -0.000869657 -0.000869622 -7.35458e-11
0.00291849 -0.000875572 -0.000875536 -7.39332e-11
0.00207646 -0.000624845 -0.000622121 -3.71796e-05
0.00248404 -0.000746251 -0.000744768 -2.01443e-05
0.00290863 -0.000872615 -0.000872579 -7.37683e-11
0.00250093 -0.000751331 -0.000749827 -2.01448e-05
0.00249249 -0.000748791 -0.000747298 -2.01445e-05
0.00206943 -0.000622723 -0.000620018 -3.71792e-05
0.00205538 -0.000618481 -0.000615812 -3.71783e-05
0.00287906 -0.000863743 -0.000863708 -7.30058e-11
0.00289877 -0.000869657 -0.000869622 -7.35458e-11
0.0020624 -0.000620602 -0.000617915 -3.71788e-05
0.00246716 -0.000741172 -0.000739709 -2.01437e-05
0.00288892 -0.0008667 -0.000866665 -7.3327e-11
0.00248404 -0.000746251 -0.000744768 -2.01443e-05
0.0024756 -0.000743712 -0.000742238 -2.0144e-05
0.00205538 -0.000618481 -0.000615812 -3.71783e-05
0.00204132 -0.000614238 -0.000611606 -3.71774e-05
0.00285935 -0.000857829 -0.000857794 -7.2499e-11
0.00287906 -0.000863743 -0.000863708 -7.30058e-11
0.00204835 -0.00061636 -0.000613709 -3.71779e-05
0.00245028 -0.000736093 -0.00073465 -2.01432e-05
0.0028692 -0.000860786 -0.000860751 -7.27467e-11
0.00246716 -0.000741172 -0.000739709 -2.01437e-05
0.00245872 -0.000738632 -0.000737179 -2.01435e-05
0.00204132 -0.000614238 -0.000611606 -3.71774e-05
0.00202726 -0.000609996 -0.0006074 -3.71765e-05
0.00283963 -0.000851914 -0.00085188 -7.20173e-11
0.00285935 -0.000857829 -0.000857794 -7.24941e-11
0.00203429 -0.000612117 -0.000609503 -3.7177e-05
0.00243339 -0.000731014 -0.00072959 -2.01427e-05
0.00284949 -0.000854872 -0.000854837 -7.2308e-11
0.00245028 -0.000736093 -0.00073465 -2.01432e-05
0.00244183 -0.000733553 -0.00073212 -2.0143e-05
0.00202726 -0.000609996 -0.0006074 -3.71765e-05
0.00201321 -0.000605754 -0.000603194 -3.71756e-05
0.00281992 -0.000846 -0.000845966 -7.15231e-11
0.00283963 -0.000851914 -0.00085188 -7.20253e-11
0.00202024 -0.000607875 -0.000605297 -3.71761e-05
0.00241651 -0.000725935 -0.000724531 -2.01422e-05
0.00282978 -0.000848957 -0.000848923 -7.17864e-11
0.00243339 -0.000731014 -0.00072959 -2.01427e-05
0.00242495 -0.000728474 -0.000727061 -2.01424e-05
0.00201321 -0.000605754 -0.000603194 -3.71756e-05
0.00199915 -0.000601512 -0.000598988 -3.71747e-05
0.00280021 -0.000840086 -0.000840052 -7.10396e-11
0.00281992 -0.000846 -0.000845966 -7.15231e-11
0.00200618 -0.000603633 -0.000601091 -3.71752e-05
0.00239962 -0.000720856 -0.000719472 -2.01417e-05
0.00281006 -0.000843043 -0.000843009 -7.13159e-11
0.00241651 -0.000725935 -0.000724531 -2.01422e-05
0.00240807 -0.000723395 -0.000722001 -2.01419e-05
0.00199915 -0.000601512 -0.000598988 -3.71747e-05
0.00198509 -0.00059727 -0.000594782 -3.71738e-05
0.0027805 -0.000834172 -0.000834139 -7.05318e-11
0.00280021 -0.000840086 -0.000840052 -7.10396e-11
0.00199212 -0.000599391 -0.000596885 -3.71743e-05
0.00238274 -0.000715777 -0.000714413 -2.01411e-05
0.00279035 -0.000837129 -0.000837095 -7.08041e-11
0.00239962 -0.000720856 -0.000719472 -2.01417e-05
0.00239118 -0.000718317 -0.000716942 -2.01414e-05
0.00198509 -0.00059727 -0.000594782 -3.71738e-05
0.00197104 -0.000593029 -0.000590575 -3.71729e-05
0.00276078 -0.000828258 -0.000828225 -7.00624e-11
0.0027805 -0.000834172 -0.000834139 -7.05451e-11
0.00197807 -0.00059515 -0.000592678 -3.71734e-05
0.00236586 -0.000710699 -0.000709353 -2.01406e-05
0.00277064 -0.000831215 -0.000831182 -7.03303e-11
0.00238274 -0.000715777 -0.000714413 -2.01411e-05
0.0023743 -0.000713238 -0.000711883 -2.01409e-05
0.00197104 -0.000593029 -0.000590575 -3.71729e-05
0.00195698 -0.000588787 -0.000586369 -3.7172e-05
0.00274107 -0.000822344 -0.000822311 -6.95696e-11
0.00276078 -0.000828258 -0.000828225 -7.00625e-11
0.00196401 -0.000590908 -0.000588472 -3.71725e-05
0.00234897 -0.00070562 -0.000704294 -2.01401e-05
0.00275093 -0.000825301 -0.000825268 -6.98445e-11
0.00236586 -0.000710699 -0.000709353 -2.01406e-05
0.00235741 -0.000708159 -0.000706823 -2.01403e-05
0.00195698 -0.000588787 -0.000586369 -3.7172e-05
0.00194292 -0.000584546 -0.000582162 -3.71711e-05
0.00272136 -0.00081643 -0.000816398 -6.90834e-11
0.00274107 -0.000822344 -0.000822311 -6.95696e-11
0.00194995 -0.000586667 -0.000584266 -3.71716e-05
0.00233209 -0.000700542 -0.000699234 -2.01395e-05
0.00273121 -0.000819387 -0.000819355 -6.93628e-11
0.00234897 -0.00070562 -0.000704294 -2.01401e-05
0.00234053 -0.000703081 -0.000701764 -2.01398e-05
0.00194292 -0.000584546 -0.000582162 -3.71711e-05
0.00192887 -0.000580305 -0.000577956 -3.71702e-05
0.00270165 -0.000810516 -0.000810484 -6.85908e-11
0.00272136 -0.00081643 -0.000816398 -6.90834e-11
0.0019359 -0.000582425 -0.000580059 -3.71706e-05
0.00231521 -0.000695463 -0.000694175 -2.0139e-05
0.0027115 -0.000813473 -0.000813441 -6.88636e-11
0.00233209 -0.000700542 -0.000699234 -2.01395e-05
0.00232365 -0.000698002 -0.000696705 -2.01393e-05
0.00192887 -0.000580305 -0.000577956 -3.71702e-05
0.00191481 -0.000576064 -0.000573749 -3.71692e-05
0.00268193 -0.000804602 -0.000804571 -6.8104e-11
0.00270165 -0.000810516 -0.000810484 -6.85849e-11
0.00192184 -0.000578184 -0.000575852 -3.71697e-05
0.00229832 -0.000690385 -0.000689116 -2.01384e-05
0.00269179 -0.000807559 -0.000807528 -6.83581e-11
0.00231521 -0.000695463 -0.000694175 -2.0139e-05
0.00230676 -0.000692924 -0.000691645 -2.01387e-05
0.00191481 -0.000576064 -0.000573749 -3.71692e-05
0.00190075 -0.000571823 -0.000569542 -3.71683e-05
0.00266222 -0.000798688 -0.000798657 -6.76313e-11
0.00268193 -0.000804602 -0.000804571 -6.8112e-11
0.00190778 -0.000573944 -0.000571646 -3.71688e-05
0.00228144 -0.000685307 -0.000684056 -2.01379e-05
0.00267208 -0.000801645 -0.000801614 -6.78871e-11
0.00229832 -0.000690385 -0.000689116 -2.01384e-05
0.00228988 -0.000687846 -0.000686586 -2.01382e-05
0.00190075 -0.000571823 -0.000569542 -3.71683e-05
0.0018867 -0.000567583 -0.000565335 -3.71674e-05
0.00264251 -0.000792775 -0.000792744 -6.7117e-11
0.00266222 -0.000798688 -0.000798657 -6.76313e-11
0.00189373 -0.000569703 -0.000567439 -3.71679e-05
0.00226455 -0.000680229 -0.000678997 -2.01374e-05
0.00265237 -0.000795732 -0.000795701 -6.73871e-11
0.00228144 -0.000685307 -0.000684056 -2.01379e-05
0.002273 -0.000682768 -0.000681526 -2.01376e-05
0.0018867 -0.000567583 -0.000565335 -3.71674e-05
0.00187264 -0.000563342 -0.000561128 -3.71665e-05
0.0026228 -0.000786861 -0.000786831 -6.66285e-11
0.00264251 -0.000792775 -0.000792744 -6.7117e-11
0.00187967 -0.000565462 -0.000563232 -3.71669e-05
0.00224767 -0.000675151 -0.000673937 -2.01368e-05
0.00263266 -0.000789818 -0.000789787 -6.68866e-11
0.00226455 -0.000680229 -0.000678997 -2.01374e-05
0.00225611 -0.00067769 -0.000676467 -2.01371e-05
0.00187264 -0.000563342 -0.000561128 -3.71665e-05
0.00185858 -0.000559102 -0.000556921 -3.71655e-05
0.00260309 -0.000780947 -0.000780918 -6.61319e-11
0.0026228 -0.000786861 -0.000786831 -6.66286e-11
0.00186561 -0.000561222 -0.000559025 -3.7166e-05
0.00223079 -0.000670074 -0.000668878 -2.01363e-05
0.00261294 -0.000783904 -0.000783874 -6.64057e-11
0.00224767 -0.000675151 -0.000673937 -2.01368e-05
0.00223923 -0.000672612 -0.000671407 -2.01365e-05
0.00185858 -0.000559102 -0.000556921 -3.71655e-05
0.00184453 -0.000554862 -0.000552714 -3.71646e-05
0.00258338 -0.000775034 -0.000775004 -6.56363e-11
0.00260309 -0.000780947 -0.000780918 -6.61336e-11
0.00185156 -0.000556982 -0.000554818 -3.7165e-05
0.00221391 -0.000664996 -0.000663818 -2.01357e-05
0.00259323 -0.000777991 -0.000777961 -6.58987e-11
0.00223079 -0.000670074 -0.000668878 -2.01363e-05
0.00222235 -0.000667535 -0.000666348 -2.0136e-05
0.00184453 -0.000554862 -0.000552714 -3.71646e-05
0.00183047 -0.000550622 -0.000548507 -3.71636e-05
0.00256367 -0.00076912 -0.000769091 -6.51503e-11
0.00258338 -0.000775034 -0.000775004 -6.56363e-11
0.0018375 -0.000552742 -0.00055061 -3.71641e-05
0.00219702 -0.000659919 -0.000658759 -2.01352e-05
0.00257352 -0.000772077 -0.000772048 -6.54142e-11
0.00221391 -0.000664996 -0.000663818 -2.01357e-05
0.00220546 -0.000662457 -0.000661288 -2.01355e-05
0.00183047 -0.000550622 -0.000548507 -3.71636e-05
0.00181641 -0.000546382 -0.000544299 -3.71627e-05
0.00254396 -0.000763207 -0.000763178 -6.46528e-11
0.00256367 -0.00076912 -0.000769091 -6.51503e-11
0.00182344 -0.000548502 -0.000546403 -3.71632e-05
0.00218014 -0.000654841 -0.000653699 -2.01346e-05
0.00255381 -0.000766164 -0.000766135 -6.49244e-11
0.00219702 -0.000659919 -0.000658759 -2.01352e-05
0.00218858 -0.00065738 -0.000656229 -2.01349e-05
0.00181641 -0.000546382 -0.000544299 -3.71627e-05
0.00180236 -0.000542142 -0.000540092 -3.71617e-05
0.00252425 -0.000757293 -0.000757265 -6.4154e-11
0.00254396 -0.000763207 -0.000763178 -6.46462e-11
0.00180939 -0.000544262 -0.000542196 -3.71622e-05
0.00216326 -0.000649764 -0.000648639 -2.01341e-05
0.0025341 -0.00076025 -0.000760222 -6.44198e-11
0.00218014 -0.000654841 -0.000653699 -2.01346e-05
0.0021717 -0.000652303 -0.000651169 -2.01344e-05
0.00180236 -0.000542142 -0.000540092 -3.71617e-05
0.0017883 -0.000537903 -0.000535885 -3.71608e-05
0.00250454 -0.00075138 -0.000751352 -6.36677e-11
0.00252425 -0.000757293 -0.000757265 -6.41607e-11
0.00179533 -0.000540022 -0.000537988 -3.71613e-05
0.00214637 -0.000644687 -0.00064358 -2.01335e-05
0.00251439 -0.000754337 -0.000754309 -6.39274e-11
0.00216326 -0.000649764 -0.000648639 -2.01341e-05
0.00215481 -0.000647225 -0.00064611 -2.01338e-05
0.0017883 -0.000537903 -0.000535885 -3.71608e-05
0.00177424 -0.000533663 -0.000531677 -3.71598e-05
0.00248483 -0.000745467 -0.000745439 -6.31705e-11
0.00250454 -0.00075138 -0.000751352 -6.36677e-11
0.00178127 -0.000535783 -0.000533781 -3.71603e-05
0.00212949 -0.00063961 -0.00063852 -2.0133e-05
0.00249468 -0.000748423 -0.000748396 -6.34224e-11
0.00214637 -0.000644687 -0.00064358 -2.01335e-05
0.00213793 -0.000642148 -0.00064105 -2.01333e-05
0.00177424 -0.000533663 -0.000531677 -3.71598e-05
0.00176019 -0.000529424 -0.000527469 -3.71589e-05
0.00246512 -0.000739554 -0.000739527 -6.26836e-11
0.00248483 -0.000745467 -0.000745439 -6.31705e-11
0.00176721 -0.000531544 -0.000529573 -3.71594e-05
0.00211261 -0.000634533 -0.000633461 -2.01324e-05
0.00247497 -0.00074251 -0.000742483 -6.29389e-11
0.00212949 -0.00063961 -0.00063852 -2.0133e-05
0.00212105 -0.000637071 -0.00063599 -2.01327e-05
0.00176019 -0.000529424 -0.000527469 -3.71589e-05
0.00174613 -0.000525185 -0.000523262 -3.71579e-05
0.00244541 -0.00073364 -0.000733614 -6.21993e-11
0.00246512 -0.000739554 -0.000739527 -6.2679e-11
0.00175316 -0.000527305 -0.000525365 -3.71584e-05
0.00209573 -0.000629456 -0.000628401 -2.01319e-05
0.00245526 -0.000736597 -0.00073657 -6.246e-11
0.00211261 -0.000634533 -0.000633461 -2.01324e-05
0.00210417 -0.000631994 -0.000630931 -2.01321e-05
0.00174613 -0.000525185 -0.000523262 -3.71579e-05
0.00173207 -0.000520946 -0.000519054 -3.7157e-05
0.0024257 -0.000727727 -0.000727701 -6.17036e-11
0.00244541 -0.00073364 -0.000733614 -6.21877e-11
0.0017391 -0.000523066 -0.000521158 -3.71574e-05
0.00207884 -0.000624379 -0.000623341 -2.01313e-05
0.00243555 -0.000730684 -0.000730658 -6.19691e-11
0.00209573 -0.000629456 -0.000628401 -2.01319e-05
0.00208728 -0.000626918 -0.000625871 -2.01316e-05
0.00173207 -0.000520946 -0.000519054 -3.7157e-05
0.00171801 -0.000516708 -0.000514846 -3.7156e-05
0.00240599 -0.000721814 -0.000721789 -6.12051e-11
0.0024257 -0.000727727 -0.000727701 -6.17036e-11
0.00172504 -0.000518827 -0.00051695 -3.71565e-05
0.00206196 -0.000619303 -0.000618282 -2.01308e-05
0.00241584 -0.000724771 -0.000724745 -6.14847e-11
0.00207884 -0.000624379 -0.000623341 -2.01313e-05
0.0020704 -0.000621841 -0.000620811 -2.0131e-05
0.00171801 -0.000516708 -0.000514846 -3.7156e-05
0.00170396 -0.000512469 -0.000510638 -3.71551e-05
0.00238628 -0.000715901 -0.000715876 -6.07173e-11
0.00240599 -0.000721814 -0.000721789 -6.12051e-11
0.00171099 -0.000514588 -0.000512742 -3.71555e-05
0.00204508 -0.000614226 -0.000613222 -2.01302e-05
0.00239613 -0.000718858 -0.000718832 -6.09882e-11
0.00206196 -0.000619303 -0.000618282 -2.01308e-05
0.00205352 -0.000616765 -0.000615752 -2.01305e-05
0.00170396 -0.000512469 -0.000510638 -3.71551e-05
0.0016899 -0.000508231 -0.00050643 -3.71541e-05
0.00236657 -0.000709988 -0.000709963 -6.02034e-11
0.00238628 -0.000715901 -0.000715876 -6.07112e-11
0.00169693 -0.00051035 -0.000508534 -3.71546e-05
0.0020282 -0.00060915 -0.000608162 -2.01296e-05
0.00237642 -0.000712945 -0.00071292 -6.0487e-11
0.00204508 -0.000614226 -0.000613222 -2.01302e-05
0.00203664 -0.000611688 -0.000610692 -2.01299e-05
0.0016899 -0.000508231 -0.00050643 -3.71541e-05
0.00167584 -0.000503993 -0.000502222 -3.71531e-05
0.00234686 -0.000704075 -0.000704051 -5.97125e-11
0.00236657 -0.000709988 -0.000709963 -6.02168e-11
0.00168287 -0.000506112 -0.000504326 -3.71536e-05
0.00201131 -0.000604074 -0.000603102 -2.01291e-05
0.00235672 -0.000707032 -0.000707007 -5.99375e-11
0.0020282 -0.00060915 -0.000608162 -2.01296e-05
0.00201975 -0.000606612 -0.000605632 -2.01294e-05
0.00167584 -0.000503993 -0.000502222 -3.71531e-05
0.00166179 -0.000499755 -0.000498013 -3.71522e-05
0.00232715 -0.000698163 -0.000698139 -5.92213e-11
0.00234686 -0.000704075 -0.000704051 -5.97125e-11
0.00166881 -0.000501874 -0.000500118 -3.71526e-05
0.00199443 -0.000598998 -0.000598043 -2.01285e-05
0.00233701 -0.000701119 -0.000701095 -5.94823e-11
0.00201131 -0.000604074 -0.000603102 -2.01291e-05
0.00200287 -0.000601536 -0.000600573 -2.01288e-05
0.00166179 -0.000499755 -0.000498013 -3.71522e-05
0.00164773 -0.000495517 -0.000493805 -3.71512e-05
0.00230744 -0.00069225 -0.000692226 -5.87224e-11
0.00232715 -0.000698163 -0.000698139 -5.92213e-11
0.00165476 -0.000497636 -0.000495909 -3.71517e-05
0.00197755 -0.000593922 -0.000592983 -2.0128e-05
0.0023173 -0.000695206 -0.000695182 -5.90003e-11
0.00199443 -0.000598998 -0.000598043 -2.01285e-05
0.00198599 -0.00059646 -0.000595513 -2.01282e-05
0.00164773 -0.000495517 -0.000493805 -3.71512e-05
0.00163367 -0.000491279 -0.000489597 -3.71502e-05
0.00228774 -0.000686337 -0.000686314 -5.82252e-11
0.00230744 -0.00069225 -0.000692226 -5.87309e-11
0.0016407 -0.000493398 -0.000491701 -3.71507e-05
0.00196067 -0.000588846 -0.000587923 -2.01274e-05
0.00229759 -0.000689294 -0.00068927 -5.85127e-11
0.00197755 -0.000593922 -0.000592983 -2.0128e-05
0.00196911 -0.000591384 -0.000590453 -2.01277e-05
0.00163367 -0.000491279 -0.000489597 -3.71502e-05
0.00161961 -0.000487042 -0.000485388 -3.71493e-05
0.00226803 -0.000680425 -0.000680402 -5.77512e-11
0.00228774 -0.000686337 -0.000686314 -5.82267e-11
0.00162664 -0.00048916 -0.000487492 -3.71498e-05
0.00194378 -0.00058377 -0.000582863 -2.01268e-05
0.00227788 -0.000683381 -0.000683358 -5.8003e-11
0.00196067 -0.000588846 -0.000587923 -2.01274e-05
0.00195223 -0.000586308 -0.000585393 -2.01271e-05
0.00161961 -0.000487042 -0.000485388 -3.71493e-05
0.00160556 -0.000482804 -0.00048118 -3.71483e-05
0.00224832 -0.000674512 -0.00067449 -5.72462e-11
0.00226803 -0.000680425 -0.000680402 -5.77512e-11
0.00161259 -0.000484923 -0.000483284 -3.71488e-05
0.0019269 -0.000578695 -0.000577804 -2.01263e-05
0.00225817 -0.000677468 -0.000677446 -5.75123e-11
0.00194378 -0.00058377 -0.000582863 -2.01268e-05
0.00193534 -0.000581233 -0.000580333 -2.01266e-05
0.00160556 -0.000482804 -0.00048118 -3.71483e-05
0.0015915 -0.000478567 -0.000476971 -3.71474e-05
0.00222861 -0.0006686 -0.000668577 -5.67682e-11
0.00224832 -0.000674512 -0.00067449 -5.72462e-11
0.00159853 -0.000480686 -0.000479075 -3.71478e-05
0.00191002 -0.000573619 -0.000572744 -2.01257e-05
0.00223847 -0.000671556 -0.000671534 -5.70291e-11
0.0019269 -0.000578695 -0.000577804 -2.01263e-05
0.00191846 -0.000576157 -0.000575274 -2.0126e-05
0.0015915 -0.000478567 -0.000476971 -3.71474e-05
0.00157744 -0.00047433 -0.000472762 -3.71464e-05
0.00220891 -0.000662687 -0.000662665 -5.62696e-11
0.00222861 -0.0006686 -0.000668577 -5.67505e-11
0.00158447 -0.000476449 -0.000474867 -3.71469e-05
0.00189314 -0.000568544 -0.000567684 -2.01252e-05
0.00221876 -0.000665643 -0.000665621 -5.65149e-11
0.00191002 -0.000573619 -0.000572744 -2.01257e-05
0.00190158 -0.000571082 -0.000570214 -2.01254e-05
0.00157744 -0.00047433 -0.000472762 -3.71464e-05
0.00156338 -0.000470093 -0.000468553 -3.71454e-05
0.0021892 -0.000656775 -0.000656753 -5.57766e-11
0.00220891 -0.000662687 -0.000662665 -5.62573e-11
0.00157041 -0.000472212 -0.000470658 -3.71459e-05
0.00187626 -0.000563469 -0.000562624 -2.01246e-05
0.00219905 -0.000659731 -0.000659709 -5.60226e-11
0.00189314 -0.000568544 -0.000567684 -2.01252e-05
0.0018847 -0.000566006 -0.000565154 -2.01249e-05
0.00156338 -0.000470093 -0.000468553 -3.71454e-05
0.00154933 -0.000465857 -0.000464344 -3.71445e-05
0.00216949 -0.000650862 -0.000650842 -5.52758e-11
0.0021892 -0.000656775 -0.000656753 -5.57766e-11
0.00155636 -0.000467975 -0.000466449 -3.71449e-05
0.00185938 -0.000558393 -0.000557564 -2.01241e-05
0.00217935 -0.000653818 -0.000653797 -5.55436e-11
0.00187626 -0.000563469 -0.000562624 -2.01246e-05
0.00186782 -0.000560931 -0.000560094 -2.01243e-05
0.00154933 -0.000465857 -0.000464344 -3.71445e-05
0.00153527 -0.00046162 -0.000460135 -3.71435e-05
0.00214979 -0.00064495 -0.00064493 -5.47769e-11
0.00216949 -0.000650862 -0.000650842 -5.52758e-11
0.0015423 -0.000463738 -0.00046224 -3.7144e-05
0.00184249 -0.000553318 -0.000552504 -2.01235e-05
0.00215964 -0.000647906 -0.000647886 -5.50392e-11
0.00185938 -0.000558393 -0.000557564 -2.01241e-05
0.00185094 -0.000555856 -0.000555034 -2.01238e-05
0.00153527 -0.00046162 -0.000460135 -3.71435e-05
0.00152121 -0.000457384 -0.000455926 -3.71425e-05
0.00213008 -0.000639038 -0.000639018 -5.42786e-11
0.00214979 -0.00064495 -0.00064493 -5.47658e-11
0.00152824 -0.000459502 -0.000458031 -3.7143e-05
0.00182561 -0.000548244 -0.000547444 -2.01229e-05
0.00213993 -0.000641994 -0.000641974 -5.4543e-11
0.00184249 -0.000553318 -0.000552504 -2.01235e-05
0.00183405 -0.000550781 -0.000549974 -2.01232e-05
0.00152121 -0.000457384 -0.000455926 -3.71425e-05
0.00150715 -0.000453148 -0.000451717 -3.71416e-05
0.00211037 -0.000633126 -0.000633106 -5.37676e-11
0.00213008 -0.000639038 -0.000639018 -5.42931e-11
0.00151418 -0.000455266 -0.000453822 -3.71421e-05
0.00180873 -0.000543169 -0.000542384 -2.01224e-05
0.00212023 -0.000636082 -0.000636062 -5.40515e-11
0.00182561 -0.000548244 -0.000547444 -2.01229e-05
0.00181717 -0.000545706 -0.000544914 -2.01227e-05
0.00150715 -0.000453148 -0.000451717 -3.71416e-05
0.0014931 -0.000448912 -0.000447508 -3.71406e-05
0.00209067 -0.000627214 -0.000627194 -5.32868e-11
0.00211037 -0.000633126 -0.000633106 -5.37676e-11
0.00150013 -0.00045103 -0.000449613 -3.71411e-05
0.00179185 -0.000538094 -0.000537324 -2.01218e-05
0.00210052 -0.00063017 -0.00063015 -5.35449e-11
0.00180873 -0.000543169 -0.000542384 -2.01224e-05
0.00180029 -0.000540631 -0.000539854 -2.01221e-05
0.0014931 -0.000448912 -0.000447508 -3.71406e-05
0.00147904 -0.000444676 -0.000443299 -3.71397e-05
0.00207096 -0.000621302 -0.000621283 -5.27976e-11
0.00209067 -0.000627214 -0.000627194 -5.32868e-11
0.00148607 -0.000446794 -0.000445403 -3.71401e-05
0.00177497 -0.00053302 -0.000532264 -2.01213e-05
0.00208081 -0.000624258 -0.000624239 -5.30638e-11
0.00179185 -0.000538094 -0.000537324 -2.01218e-05
0.00178341 -0.000535557 -0.000534794 -2.01215e-05
0.00147904 -0.000444676 -0.000443299 -3.71397e-05
0.00146498 -0.00044044 -0.000439089 -3.71387e-05
0.00205126 -0.00061539 -0.000615371 -5.22868e-11
0.00207096 -0.000621302 -0.000621283 -5.27977e-11
0.00147201 -0.000442558 -0.000441194 -3.71392e-05
0.00175809 -0.000527945 -0.000527204 -2.01207e-05
0.00206111 -0.000618346 -0.000618327 -5.2541e-11
0.00177497 -0.00053302 -0.000532264 -2.01213e-05
0.00176653 -0.000530482 -0.000529734 -2.0121e-05
0.00146498 -0.00044044 -0.000439089 -3.71387e-05
0.00145092 -0.000436205 -0.00043488 -3.71378e-05
0.00203155 -0.000609478 -0.00060946 -5.17827e-11
0.00205126 -0.00061539 -0.000615371 -5.23149e-11
0.00145795 -0.000438322 -0.000436984 -3.71382e-05
0.00174121 -0.000522871 -0.000522144 -2.01202e-05
0.0020414 -0.000612434 -0.000612416 -5.20753e-11
0.00175809 -0.000527945 -0.000527204 -2.01207e-05
0.00174965 -0.000525408 -0.000524674 -2.01204e-05
0.00145092 -0.000436205 -0.00043488 -3.71378e-05
0.00143687 -0.000431969 -0.00043067 -3.71368e-05
0.00201185 -0.000603566 -0.000603548 -5.1303e-11
0.00203155 -0.000609478 -0.00060946 -5.17827e-11
0.00144389 -0.000434087 -0.000432775 -3.71373e-05
0.00172433 -0.000517797 -0.000517084 -2.01196e-05
0.0020217 -0.000606522 -0.000606504 -5.15515e-11
0.00174121 -0.000522871 -0.000522144 -2.01202e-05
0.00173277 -0.000520334 -0.000519614 -2.01199e-05
0.00143687 -0.000431969 -0.00043067 -3.71368e-05
0.00142281 -0.000427734 -0.00042646 -3.71359e-05
0.00199214 -0.000597654 -0.000597637 -5.0817e-11
0.00201185 -0.000603566 -0.000603548 -5.1303e-11
0.00142984 -0.000429852 -0.000428565 -3.71363e-05
0.00170745 -0.000512723 -0.000512024 -2.0119e-05
0.00200199 -0.00060061 -0.000600593 -5.1077e-11
0.00172433 -0.000517797 -0.000517084 -2.01196e-05
0.00171589 -0.00051526 -0.000514554 -2.01193e-05
0.00142281 -0.000427734 -0.00042646 -3.71359e-05
0.00140875 -0.000423499 -0.000422251 -3.71349e-05
0.00197244 -0.000591742 -0.000591726 -5.03021e-11
0.00199214 -0.000597654 -0.000597637 -5.0805e-11
0.00141578 -0.000425616 -0.000424356 -3.71354e-05
0.00169057 -0.000507649 -0.000506964 -2.01185e-05
0.00198229 -0.000594698 -0.000594681 -5.05535e-11
0.00170745 -0.000512723 -0.000512024 -2.0119e-05
0.00169901 -0.000510186 -0.000509494 -2.01188e-05
0.00140875 -0.000423499 -0.000422251 -3.71349e-05
0.00139469 -0.000419264 -0.000418041 -3.7134e-05
0.00195273 -0.000585831 -0.000585814 -4.98106e-11
0.00197244 -0.000591742 -0.000591726 -5.03217e-11
0.00140172 -0.000421382 -0.000420146 -3.71344e-05
0.00167368 -0.000502575 -0.000501904 -2.01179e-05
0.00196258 -0.000588786 -0.00058877 -5.00712e-11
0.00169057 -0.000507649 -0.000506964 -2.01185e-05
0.00168213 -0.000505112 -0.000504434 -2.01182e-05
0.00139469 -0.000419264 -0.000418041 -3.7134e-05
0.00138063 -0.000415029 -0.000413831 -3.7133e-05
0.00193303 -0.000579919 -0.000579903 -4.93169e-11
0.00195273 -0.000585831 -0.000585814 -4.98106e-11
0.00138766 -0.000417147 -0.000415936 -3.71335e-05
0.0016568 -0.000497501 -0.000496844 -2.01174e-05
0.00194288 -0.000582875 -0.000582859 -4.95813e-11
0.00167368 -0.000502575 -0.000501904 -2.01179e-05
0.00166524 -0.000500038 -0.000499374 -2.01177e-05
0.00138063 -0.000415029 -0.000413831 -3.7133e-05
0.00136658 -0.000410795 -0.000409621 -3.71321e-05
0.00191332 -0.000574007 -0.000573992 -4.88116e-11
0.00193303 -0.000579919 -0.000579903 -4.93169e-11
0.00137361 -0.000412912 -0.000411726 -3.71325e-05
0.00163992 -0.000492428 -0.000491784 -2.01168e-05
0.00192317 -0.000576963 -0.000576948 -4.90777e-11
0.0016568 -0.000497501 -0.000496844 -2.01174e-05
0.00164836 -0.000494964 -0.000494314 -2.01171e-05
0.00136658 -0.000410795 -0.000409621 -3.71321e-05
0.00135252 -0.000406561 -0.000405411 -3.71311e-05
0.00189362 -0.000568096 -0.000568081 -4.83197e-11
0.00191332 -0.000574007 -0.000573992 -4.88108e-11
0.00135955 -0.000408678 -0.000407516 -3.71316e-05
0.00162304 -0.000487354 -0.000486724 -2.01163e-05
0.00190347 -0.000571052 -0.000571036 -4.85856e-11
0.00163992 -0.000492428 -0.000491784 -2.01168e-05
0.00163148 -0.000489891 -0.000489254 -2.01166e-05
0.00135252 -0.000406561 -0.000405411 -3.71311e-05
0.00133846 -0.000402326 -0.000401201 -3.71302e-05
0.00187391 -0.000562184 -0.00056217 -4.78376e-11
0.00189362 -0.000568096 -0.000568081 -4.83202e-11
0.00134549 -0.000404443 -0.000403306 -3.71307e-05
0.00160616 -0.000482281 -0.000481664 -2.01158e-05
0.00188377 -0.00056514 -0.000565125 -4.80717e-11
0.00162304 -0.000487354 -0.000486724 -2.01163e-05
0.0016146 -0.000484817 -0.000484194 -2.0116e-05
0.00133846 -0.000402326 -0.000401201 -3.71302e-05
0.0013244 -0.000398092 -0.00039699 -3.71292e-05
0.00185421 -0.000556273 -0.000556259 -4.73452e-11
0.00187391 -0.000562184 -0.00056217 -4.78376e-11
0.00133143 -0.000400209 -0.000399096 -3.71297e-05
0.00158928 -0.000477208 -0.000476604 -2.01152e-05
0.00186406 -0.000559229 -0.000559214 -4.75982e-11
0.00160616 -0.000482281 -0.000481664 -2.01158e-05
0.00159772 -0.000479744 -0.000479134 -2.01155e-05
0.0013244 -0.000398092 -0.00039699 -3.71292e-05
0.00131035 -0.000393858 -0.00039278 -3.71283e-05
0.00183451 -0.000550362 -0.000550348 -4.68707e-11
0.00185421 -0.000556273 -0.000556259 -4.73452e-11
0.00131737 -0.000395975 -0.000394885 -3.71288e-05
0.0015724 -0.000472134 -0.000471543 -2.01147e-05
0.00184436 -0.000553317 -0.000553303 -4.71086e-11
0.00158928 -0.000477208 -0.000476604 -2.01152e-05
0.00158084 -0.000474671 -0.000474073 -2.01149e-05
0.00131035 -0.000393858 -0.00039278 -3.71283e-05
0.00129629 -0.000389625 -0.00038857 -3.71274e-05
0.0018148 -0.00054445 -0.000544437 -4.63305e-11
0.00183451 -0.000550362 -0.000550348 -4.68707e-11
0.00130332 -0.000391742 -0.000390675 -3.71278e-05
0.00155552 -0.000467061 -0.000466483 -2.01141e-05
0.00182466 -0.000547406 -0.000547392 -4.66208e-11
0.0015724 -0.000472134 -0.000471543 -2.01147e-05
0.00156396 -0.000469598 -0.000469013 -2.01144e-05
0.00129629 -0.000389625 -0.00038857 -3.71274e-05
0.00128223 -0.000385391 -0.000384359 -3.71265e-05
0.0017951 -0.000538539 -0.000538526 -4.58523e-11
0.0018148 -0.00054445 -0.000544437 -4.63434e-11
0.00128926 -0.000387508 -0.000386464 -3.71269e-05
0.00153864 -0.000461988 -0.000461423 -2.01136e-05
0.00180495 -0.000541495 -0.000541482 -4.60855e-11
0.00155552 -0.000467061 -0.000466483 -2.01141e-05
0.00154708 -0.000464525 -0.000463953 -2.01138e-05
0.00128223 -0.000385391 -0.000384359 -3.71265e-05
0.00126817 -0.000381158 -0.000380148 -3.71255e-05
0.0017754 -0.000532628 -0.000532615 -4.53074e-11
0.0017951 -0.000538539 -0.000538526 -4.58523e-11
0.0012752 -0.000383274 -0.000382254 -3.7126e-05
0.00152176 -0.000456916 -0.000456363 -2.0113e-05
0.00178525 -0.000535584 -0.000535571 -4.56071e-11
0.00153864 -0.000461988 -0.000461423 -2.01136e-05
0.0015302 -0.000459452 -0.000458893 -2.01133e-05
0.00126817 -0.000381158 -0.000380148 -3.71255e-05
0.00125411 -0.000376925 -0.000375938 -3.71246e-05
0.00175569 -0.000526717 -0.000526705 -4.48095e-11
0.0017754 -0.000532628 -0.000532615 -4.53074e-11
0.00126114 -0.000379041 -0.000378043 -3.71251e-05
0.00150488 -0.000451843 -0.000451302 -2.01125e-05
0.00176555 -0.000529672 -0.00052966 -4.50932e-11
0.00152176 -0.000456916 -0.000456363 -2.0113e-05
0.00151332 -0.000454379 -0.000453832 -2.01128e-05
0.00125411 -0.000376925 -0.000375938 -3.71246e-05
0.00124005 -0.000372691 -0.000371727 -3.71237e-05
0.00173599 -0.000520806 -0.000520794 -4.43358e-11
0.00175569 -0.000526717 -0.000526705 -4.48355e-11
0.00124708 -0.000374808 -0.000373832 -3.71241e-05
0.001488 -0.00044677 -0.000446242 -2.0112e-05
0.00174584 -0.000523761 -0.000523749 -4.4591e-11
0.00150488 -0.000451843 -0.000451302 -2.01125e-05
0.00149644 -0.000449307 -0.000448772 -2.01122e-05
0.00124005 -0.000372691 -0.000371727 -3.71237e-05
0.001226 -0.000368459 -0.000367516 -3.71228e-05
0.00171629 -0.000514895 -0.000514883 -4.38577e-11
0.00173599 -0.000520806 -0.000520794 -4.43355e-11
0.00123303 -0.000370575 -0.000369622 -3.71232e-05
0.00147112 -0.000441698 -0.000441182 -2.01114e-05
0.00172614 -0.00051785 -0.000517839 -4.40954e-11
0.001488 -0.00044677 -0.000446242 -2.0112e-05
0.00147956 -0.000444234 -0.000443712 -2.01117e-05
0.001226 -0.000368459 -0.000367516 -3.71228e-05
0.00121194 -0.000364226 -0.000363305 -3.71219e-05
0.00169659 -0.000508984 -0.000508973 -4.33411e-11
0.00171629 -0.000514895 -0.000514883 -4.38577e-11
0.00121897 -0.000366342 -0.000365411 -3.71223e-05
0.00145424 -0.000436626 -0.000436121 -2.01109e-05
0.00170644 -0.000511939 -0.000511928 -4.35989e-11
0.00147112 -0.000441698 -0.000441182 -2.01114e-05
0.00146268 -0.000439162 -0.000438652 -2.01112e-05
0.00121194 -0.000364226 -0.000363305 -3.71219e-05
0.00119788 -0.000359993 -0.000359094 -3.71209e-05
0.00167688 -0.000503073 -0.000503062 -4.2858e-11
0.00169659 -0.000508984 -0.000508973 -4.33411e-11
0.00120491 -0.00036211 -0.0003612 -3.71214e-05
0.00143736 -0.000431553 -0.000431061 -2.01104e-05
0.00168674 -0.000506028 -0.000506018 -4.31049e-11
0.00145424 -0.000436626 -0.000436121 -2.01109e-05
0.0014458 -0.000434089 -0.000433591 -2.01106e-05
0.00119788 -0.000359993 -0.000359094 -3.71209e-05
0.00118382 -0.000355761 -0.000354883 -3.712e-05
0.00165718 -0.000497162 -0.000497152 -4.23574e-11
0.00167688 -0.000503073 -0.000503062 -4.2858e-11
0.00119085 -0.000357877 -0.000356989 -3.71205e-05
0.00142048 -0.000426481 -0.000426001 -2.01098e-05
0.00166703 -0.000500117 -0.000500107 -4.25844e-11
0.00143736 -0.000431553 -0.000431061 -2.01104e-05
0.00142892 -0.000429017 -0.000428531 -2.01101e-05
0.00118382 -0.000355761 -0.000354883 -3.712e-05
0.00116976 -0.000351529 -0.000350672 -3.71191e-05
0.00163748 -0.000491251 -0.000491241 -4.18417e-11
0.00165718 -0.000497162 -0.000497152 -4.23401e-11
0.00117679 -0.000353645 -0.000352777 -3.71196e-05
0.0014036 -0.000421409 -0.00042094 -2.01093e-05
0.00164733 -0.000494207 -0.000494197 -4.2116e-11
0.00142048 -0.000426481 -0.000426001 -2.01098e-05
0.00141204 -0.000423945 -0.00042347 -2.01096e-05
0.00116976 -0.000351529 -0.000350672 -3.71191e-05
0.0011557 -0.000347296 -0.00034646 -3.71182e-05
0.00161778 -0.00048534 -0.000485331 -4.13514e-11
0.00163748 -0.000491251 -0.000491241 -4.18417e-11
0.00116273 -0.000349413 -0.000348566 -3.71187e-05
0.00138672 -0.000416337 -0.00041588 -2.01088e-05
0.00162763 -0.000488296 -0.000488286 -4.1604e-11
0.0014036 -0.000421409 -0.00042094 -2.01093e-05
0.00139516 -0.000418873 -0.00041841 -2.01091e-05
0.0011557 -0.000347296 -0.00034646 -3.71182e-05
0.00114165 -0.000343065 -0.000342249 -3.71173e-05
0.00159808 -0.00047943 -0.000479421 -4.08447e-11
0.00161778 -0.00048534 -0.000485331 -4.13514e-11
0.00114867 -0.00034518 -0.000344355 -3.71178e-05
0.00136984 -0.000411266 -0.000410819 -2.01083e-05
0.00160793 -0.000482385 -0.000482376 -4.11033e-11
0.00138672 -0.000416337 -0.00041588 -2.01088e-05
0.00137828 -0.000413801 -0.000413349 -2.01085e-05
0.00114165 -0.000343065 -0.000342249 -3.71173e-05
0.00112759 -0.000338833 -0.000338037 -3.71165e-05
0.00157838 -0.000473519 -0.000473511 -4.03561e-11
0.00159808 -0.00047943 -0.000479421 -4.08405e-11
0.00113462 -0.000340949 -0.000340143 -3.71169e-05
0.00135296 -0.000406194 -0.000405759 -2.01078e-05
0.00158823 -0.000476474 -0.000476466 -4.06165e-11
0.00136984 -0.000411266 -0.000410819 -2.01083e-05
0.0013614 -0.00040873 -0.000408289 -2.0108e-05
0.00112759 -0.000338833 -0.000338037 -3.71165e-05
0.00111353 -0.000334601 -0.000333826 -3.71156e-05
0.00155868 -0.000467608 -0.0004676 -3.98478e-11
0.00157838 -0.000473519 -0.000473511 -4.03561e-11
0.00112056 -0.000336717 -0.000335932 -3.7116e-05
0.00133608 -0.000401122 -0.000400698 -2.01072e-05
0.00156853 -0.000470564 -0.000470555 -4.0094e-11
0.00135296 -0.000406194 -0.000405759 -2.01078e-05
0.00134452 -0.000403658 -0.000403228 -2.01075e-05
0.00111353 -0.000334601 -0.000333826 -3.71156e-05
0.00109947 -0.00033037 -0.000329614 -3.71147e-05
0.00153897 -0.000461698 -0.00046169 -3.93403e-11
0.00155868 -0.000467608 -0.0004676 -3.98478e-11
0.0011065 -0.000332485 -0.00033172 -3.71151e-05
0.00131921 -0.000396051 -0.000395638 -2.01067e-05
0.00154883 -0.000464653 -0.000464645 -3.96032e-11
0.00133608 -0.000401122 -0.000400698 -2.01072e-05
0.00132765 -0.000398587 -0.000398168 -2.0107e-05
0.00109947 -0.00033037 -0.000329614 -3.71147e-05
0.00108541 -0.000326138 -0.000325402 -3.71138e-05
0.00151927 -0.000455787 -0.00045578 -3.88594e-11
0.00153897 -0.000461698 -0.00046169 -3.93403e-11
0.00109244 -0.000328254 -0.000327508 -3.71143e-05
0.00130233 -0.00039098 -0.000390577 -2.01062e-05
0.00152912 -0.000458743 -0.000458735 -3.9097e-11
0.00131921 -0.000396051 -0.000395638 -2.01067e-05
0.00131077 -0.000393515 -0.000393107 -2.01065e-05
0.00108541 -0.000326138 -0.000325402 -3.71138e-05
0.00107135 -0.000321907 -0.000321191 -3.71129e-05
0.00149957 -0.000449877 -0.00044987 -3.83499e-11
0.00151927 -0.000455787 -0.00045578 -3.88591e-11
0.00107838 -0.000324023 -0.000323296 -3.71134e-05
0.00128545 -0.000385908 -0.000385516 -2.01057e-05
0.00150942 -0.000452832 -0.000452825 -3.86306e-11
0.00130233 -0.00039098 -0.000390577 -2.01062e-05
0.00129389 -0.000388444 -0.000388047 -2.0106e-05
0.00107135 -0.000321907 -0.000321191 -3.71129e-05
0.00105729 -0.000317676 -0.000316979 -3.71121e-05
0.00147987 -0.000443966 -0.00044396 -3.7845e-11
0.00149957 -0.000449877 -0.00044987 -3.83491e-11
0.00106432 -0.000319792 -0.000319085 -3.71125e-05
0.00126857 -0.000380837 -0.000380456 -2.01052e-05
0.00148972 -0.000446922 -0.000446915 -3.8113e-11
0.00128545 -0.000385908 -0.000385516 -2.01057e-05
0.00127701 -0.000383373 -0.000382986 -2.01054e-05
0.00105729 -0.000317676 -0.000316979 -3.71121e-05
0.00104323 -0.000313445 -0.000312766 -3.71112e-05
0.00146017 -0.000438056 -0.00043805 -3.73307e-11
0.00147987 -0.000443966 -0.00044396 -3.7845e-11
0.00105026 -0.000315561 -0.000314873 -3.71116e-05
0.00125169 -0.000375766 -0.000375395 -2.01047e-05
0.00147002 -0.000441011 -0.000441005 -3.75934e-11
0.00126857 -0.000380837 -0.000380456 -2.01052e-05
0.00126013 -0.000378302 -0.000377925 -2.01049e-05
0.00104323 -0.000313445 -0.000312766 -3.71112e-05
0.00102917 -0.000309215 -0.000308554 -3.71104e-05
0.00144047 -0.000432146 -0.00043214 -3.68342e-11
0.00146017 -0.000438056 -0.00043805 -3.73307e-11
0.0010362 -0.00031133 -0.00031066 -3.71108e-05
0.00123481 -0.000370695 -0.000370334 -2.01042e-05
0.00145032 -0.000435101 -0.000435095 -3.70945e-11
0.00125169 -0.000375766 -0.000375395 -2.01047e-05
0.00124325 -0.000373231 -0.000372865 -2.01044e-05
0.00102917 -0.000309215 -0.000308554 -3.71104e-05
0.00101512 -0.000304984 -0.000304342 -3.71095e-05
0.00142077 -0.000426235 -0.00042623 -3.63187e-11
0.00144047 -0.000432146 -0.00043214 -3.68335e-11
0.00102215 -0.000307099 -0.000306448 -3.71099e-05
0.00121793 -0.000365624 -0.000365274 -2.01037e-05
0.00143062 -0.000429191 -0.000429185 -3.65854e-11
0.00123481 -0.000370695 -0.000370334 -2.01042e-05
0.00122637 -0.00036816 -0.000367804 -2.01039e-05
0.00101512 -0.000304984 -0.000304342 -3.71095e-05
0.00100106 -0.000300754 -0.00030013 -3.71086e-05
0.00140107 -0.000420325 -0.00042032 -3.58567e-11
0.00142077 -0.000426235 -0.00042623 -3.6319e-11
0.00100809 -0.000302869 -0.000302236 -3.71091e-05
0.00120105 -0.000360554 -0.000360213 -2.01032e-05
0.00141092 -0.00042328 -0.000423275 -3.61067e-11
0.00121793 -0.000365624 -0.000365274 -2.01037e-05
0.00120949 -0.000363089 -0.000362743 -2.01034e-05
0.00100106 -0.000300754 -0.00030013 -3.71086e-05
0.000986997 -0.000296523 -0.000295917 -3.71078e-05
0.00138137 -0.000414415 -0.00041441 -3.5324e-11
0.00140107 -0.000420325 -0.00042032 -3.58567e-11
0.000994027 -0.000298639 -0.000298023 -3.71082e-05
0.00118417 -0.000355483 -0.000355152 -2.01027e-05
0.00139122 -0.00041737 -0.000417365 -3.55958e-11
0.00120105 -0.000360554 -0.000360213 -2.01032e-05
0.00119261 -0.000358018 -0.000357683 -2.01029e-05
0.000986997 -0.000296523 -0.000295917 -3.71078e-05
0.000972938 -0.000292293 -0.000291705 -3.7107e-05
0.00136167 -0.000408505 -0.000408501 -3.4849e-11
0.00138137 -0.000414415 -0.00041441 -3.5324e-11
0.000979967 -0.000294408 -0.000293811 -3.71074e-05
0.00116729 -0.000350412 -0.000350091 -2.01022e-05
0.00137152 -0.00041146 -0.000411455 -3.50845e-11
0.00118417 -0.000355483 -0.000355152 -2.01027e-05
0.00117573 -0.000352948 -0.000352622 -2.01024e-05
0.000972938 -0.000292293 -0.000291705 -3.7107e-05
0.000958878 -0.000288063 -0.000287492 -3.71061e-05
0.00134197 -0.000402595 -0.000402591 -3.43348e-11
0.00136167 -0.000408505 -0.000408501 -3.48493e-11
0.000965908 -0.000290178 -0.000289598 -3.71065e-05
0.00115041 -0.000345342 -0.00034503 -2.01017e-05
0.00135182 -0.00040555 -0.000405546 -3.45877e-11
0.00116729 -0.000350412 -0.000350091 -2.01022e-05
0.00115885 -0.000347877 -0.000347561 -2.0102e-05
0.000958878 -0.000288063 -0.000287492 -3.71061e-05
0.000944819 -0.000283834 -0.000283279 -3.71053e-05
0.00132227 -0.000396685 -0.000396681 -3.38317e-11
0.00134197 -0.000402595 -0.000402591 -3.43175e-11
0.000951849 -0.000285949 -0.000285386 -3.71057e-05
0.00113353 -0.000340272 -0.00033997 -2.01012e-05
0.00133212 -0.00039964 -0.000399636 -3.40971e-11
0.00115041 -0.000345342 -0.00034503 -2.01017e-05
0.00114197 -0.000342807 -0.0003425 -2.01015e-05
0.000944819 -0.000283834 -0.000283279 -3.71053e-05
0.000930759 -0.000279604 -0.000279066 -3.71045e-05
0.00130257 -0.000390775 -0.000390771 -3.33215e-11
0.00132227 -0.000396685 -0.000396681 -3.38317e-11
0.000937789 -0.000281719 -0.000281173 -3.71049e-05
0.00111665 -0.000335202 -0.000334909 -2.01007e-05
0.00131242 -0.00039373 -0.000393726 -3.35718e-11
0.00113353 -0.000340272 -0.00033997 -2.01012e-05
0.00112509 -0.000337737 -0.000337439 -2.0101e-05
0.000930759 -0.000279604 -0.000279066 -3.71045e-05
0.000916699 -0.000275375 -0.000274854 -3.71037e-05
0.00128288 -0.000384865 -0.000384862 -3.28073e-11
0.00130257 -0.000390775 -0.000390771 -3.33215e-11
0.000923729 -0.000277489 -0.00027696 -3.71041e-05
0.00109978 -0.000330131 -0.000329848 -2.01003e-05
0.00129273 -0.00038782 -0.000387817 -3.30565e-11
0.00111665 -0.000335202 -0.000334909 -2.01007e-05
0.00110822 -0.000332666 -0.000332378 -2.01005e-05
0.000916699 -0.000275375 -0.000274854 -3.71037e-05
0.00090264 -0.000271145 -0.00027064 -3.71028e-05
0.00126318 -0.000378955 -0.000378952 -3.2322e-11
0.00128288 -0.000384865 -0.000384862 -3.28435e-11
0.00090967 -0.00027326 -0.000272747 -3.71033e-05
0.0010829 -0.000325061 -0.000324787 -2.00998e-05
0.00127303 -0.00038191 -0.000381907 -3.25798e-11
0.00109978 -0.000330131 -0.000329848 -2.01003e-05
0.00109134 -0.000327596 -0.000327317 -2.01e-05
0.00090264 -0.000271145 -0.00027064 -3.71028e-05
0.00088858 -0.000266916 -0.000266427 -3.7102e-05
0.00124348 -0.000373045 -0.000373043 -3.18236e-11
0.00126318 -0.000378955 -0.000378952 -3.23223e-11
0.00089561 -0.000269031 -0.000268534 -3.71024e-05
0.00106602 -0.000319992 -0.000319726 -2.00993e-05
0.00125333 -0.000376 -0.000375997 -3.20751e-11
0.0010829 -0.000325061 -0.000324787 -2.00998e-05
0.00107446 -0.000322526 -0.000322256 -2.00995e-05
0.00088858 -0.000266916 -0.000266427 -3.7102e-05
0.00087452 -0.000262687 -0.000262214 -3.71012e-05
0.00122378 -0.000367135 -0.000367133 -3.13191e-11
0.00124348 -0.000373045 -0.000373043 -3.18236e-11
0.00088155 -0.000264802 -0.000264321 -3.71016e-05
0.00104914 -0.000314922 -0.000314664 -2.00988e-05
0.00123363 -0.00037009 -0.000370088 -3.15619e-11
0.00106602 -0.000319992 -0.000319726 -2.00993e-05
0.00105758 -0.000317457 -0.000317195 -2.00991e-05
0.00087452 -0.000262687 -0.000262214 -3.71012e-05
0.00086046 -0.000258458 -0.000258001 -3.71004e-05
0.00120408 -0.000361225 -0.000361224 -3.08329e-11
0.00122378 -0.000367135 -0.000367133 -3.13191e-11
0.00086749 -0.000260573 -0.000260107 -3.71008e-05
0.00103226 -0.000309852 -0.000309603 -2.00984e-05
0.00121393 -0.00036418 -0.000364178 -3.1023e-11
0.00104914 -0.000314922 -0.000314664 -2.00988e-05
0.0010407 -0.000312387 -0.000312134 -2.00986e-05
0.00086046 -0.000258458 -0.000258001 -3.71004e-05
0.0008464 -0.000254229 -0.000253787 -3.70996e-05
0.00118438 -0.000355315 -0.000355314 -3.03439e-11
0.00120408 -0.000361225 -0.000361224 -3.08332e-11
0.00085343 -0.000256344 -0.000255894 -3.71e-05
0.00101538 -0.000304782 -0.000304542 -2.00979e-05
0.00119423 -0.00035827 -0.000358269 -3.05579e-11
0.00103226 -0.000309852 -0.000309603 -2.00984e-05
0.00102382 -0.000307317 -0.000307073 -2.00981e-05
0.0008464 -0.000254229 -0.000253787 -3.70996e-05
0.00083234 -0.000250001 -0.000249574 -3.70989e-05
0.00116468 -0.000349405 -0.000349405 -2.9808e-11
0.00118438 -0.000355315 -0.000355314 -3.03266e-11
0.00083937 -0.000252115 -0.000251681 -3.70993e-05
0.000998502 -0.000299713 -0.000299481 -2.00974e-05
0.00117453 -0.00035236 -0.000352359 -3.00627e-11
0.00101538 -0.000304782 -0.000304542 -2.00979e-05
0.00100694 -0.000302248 -0.000302012 -2.00977e-05
0.00083234 -0.000250001 -0.000249574 -3.70989e-05
0.000818279 -0.000245772 -0.00024536 -3.70981e-05
0.00114498 -0.000343495 -0.000343495 -2.92892e-11
0.00116468 -0.000349405 -0.000349405 -2.9808e-11
0.000825309 -0.000247887 -0.000247467 -3.70985e-05
0.000981623 -0.000294643 -0.00029442 -2.0097e-05
0.00115483 -0.00034645 -0.00034645 -2.956e-11
0.000998502 -0.000299713 -0.000299481 -2.00974e-05
0.000990062 -0.000297178 -0.00029695 -2.00972e-05
0.000818279 -0.000245772 -0.00024536 -3.70981e-05
0.000804219 -0.000241544 -0.000241146 -3.70973e-05
0.00112529 -0.000337586 -0.000337586 -2.87834e-11
0.00114498 -0.000343495 -0.000343495 -2.92892e-11
0.000811249 -0.000243658 -0.000243253 -3.70977e-05
0.000964744 -0.000289574 -0.000289358 -2.00965e-05
0.00113514 -0.000340541 -0.000340541 -2.90147e-11
0.000981623 -0.000294643 -0.00029442 -2.0097e-05
0.000973183 -0.000292109 -0.000291889 -2.00967e-05
0.000804219 -0.000241544 -0.000241146 -3.70973e-05
0.000790158 -0.000237316 -0.000236932 -3.70965e-05
0.00110559 -0.000331676 -0.000331677 -2.83084e-11
0.00112529 -0.000337586 -0.000337586 -2.88062e-11
0.000797189 -0.00023943 -0.000239039 -3.70969e-05
0.000947865 -0.000284505 -0.000284297 -2.00961e-05
0.00111544 -0.000334631 -0.000334631 -2.85235e-11
0.000964744 -0.000289574 -0.000289358 -2.00965e-05
0.000956304 -0.000287039 -0.000286828 -2.00963e-05
0.000790158 -0.000237316 -0.000236932 -3.70965e-05
0.000776098 -0.000233088 -0.000232718 -3.70958e-05
0.00108589 -0.000325766 -0.000325767 -2.77977e-11
0.00110559 -0.000331676 -0.000331677 -2.83087e-11
0.000783128 -0.000235202 -0.000234825 -3.70962e-05
0.000930986 -0.000279436 -0.000279236 -2.00956e-05
0.00109574 -0.000328721 -0.000328722 -2.80812e-11
0.000947865 -0.000284505 -0.000284297 -2.00961e-05
0.000939425 -0.00028197 -0.000281766 -2.00958e-05
0.000776098 -0.000233088 -0.000232718 -3.70958e-05
0.000762037 -0.00022886 -0.000228504 -3.7095e-05
0.00106619 -0.000319857 -0.000319858 -2.72884e-11
0.00108589 -0.000325766 -0.000325767 -2.77977e-11
0.000769067 -0.000230974 -0.000230611 -3.70954e-05
0.000914106 -0.000274367 -0.000274174 -2.00952e-05
0.00107604 -0.000322811 -0.000322813 -2.7589e-11
0.000930986 -0.000279436 -0.000279236 -2.00956e-05
0.000922546 -0.000276901 -0.000276705 -2.00954e-05
0.000762037 -0.00022886 -0.000228504 -3.7095e-05
0.000747976 -0.000224632 -0.00022429 -3.70943e-05
0.00104649 -0.000313947 -0.000313949 -2.67899e-11
0.00106619 -0.000319857 -0.000319858 -2.72884e-11
0.000755007 -0.000226746 -0.000226397 -3.70947e-05
0.000897227 -0.000269298 -0.000269113 -2.00947e-05
0.00105634 -0.000316902 -0.000316903 -2.70536e-11
0.000914106 -0.000274367 -0.000274174 -2.00952e-05
0.000905667 -0.000271832 -0.000271644 -2.00949e-05
0.000747976 -0.000224632 -0.00022429 -3.70943e-05
0.000733915 -0.000220405 -0.000220076 -3.70935e-05
0.0010268 -0.000308037 -0.00030804 -2.62961e-11
0.00104649 -0.000313947 -0.000313949 -2.67906e-11
0.000740946 -0.000222518 -0.000222183 -3.70939e-05
0.000880348 -0.000264229 -0.000264051 -2.00943e-05
0.00103665 -0.000310992 -0.000310994 -2.65345e-11
0.000897227 -0.000269298 -0.000269113 -2.00947e-05
0.000888788 -0.000266763 -0.000266582 -2.00945e-05
0.000733915 -0.000220405 -0.000220076 -3.70935e-05
0.000719854 -0.000216177 -0.000215862 -3.70928e-05
0.0010071 -0.000302128 -0.00030213 -2.5796e-11
0.0010268 -0.000308037 -0.00030804 -2.62953e-11
0.000726885 -0.000218291 -0.000217969 -3.70932e-05
0.000863469 -0.00025916 -0.00025899 -2.00939e-05
0.00101695 -0.000305083 -0.000305085 -2.60742e-11
0.000880348 -0.000264229 -0.000264051 -2.00943e-05
0.000871909 -0.000261694 -0.00026152 -2.00941e-05
0.000719854 -0.000216177 -0.000215862 -3.70928e-05
0.000705793 -0.00021195 -0.000211647 -3.70921e-05
0.000987401 -0.000296218 -0.000296221 -2.52881e-11
0.0010071 -0.000302128 -0.00030213 -2.5796e-11
0.000712824 -0.000214064 -0.000213754 -3.70924e-05
0.00084659 -0.000254091 -0.000253928 -2.00934e-05
0.00099725 -0.000299173 -0.000299176 -2.55343e-11
0.000863469 -0.00025916 -0.00025899 -2.00939e-05
0.00085503 -0.000256625 -0.000256459 -2.00936e-05
0.000705793 -0.00021195 -0.000211647 -3.70921e-05
0.000691732 -0.000207723 -0.000207432 -3.70914e-05
0.000967703 -0.000290309 -0.000290312 -2.47974e-11
0.000987401 -0.000296218 -0.000296221 -2.52479e-11
0.000698762 -0.000209836 -0.00020954 -3.70917e-05
0.000829711 -0.000249023 -0.000248866 -2.0093e-05
0.000977552 -0.000293263 -0.000293267 -2.50291e-11
0.00084659 -0.000254091 -0.000253928 -2.00934e-05
0.00083815 -0.000251557 -0.000251397 -2.00932e-05
0.000691732 -0.000207723 -0.000207432 -3.70914e-05
0.00067767 -0.000203496 -0.000203218 -3.70906e-05
0.000948006 -0.000284399 -0.000284403 -2.42608e-11
0.000967703 -0.000290309 -0.000290312 -2.47974e-11
0.000684701 -0.000205609 -0.000205325 -3.7091e-05
0.000812832 -0.000243954 -0.000243805 -2.00926e-05
0.000957855 -0.000287354 -0.000287357 -2.45491e-11
0.000829711 -0.000249023 -0.000248866 -2.0093e-05
0.000821271 -0.000246488 -0.000246336 -2.00928e-05
0.00067767 -0.000203496 -0.000203218 -3.70906e-05
0.000663609 -0.000199269 -0.000199003 -3.70899e-05
0.000928308 -0.00027849 -0.000278494 -2.37508e-11
0.000948006 -0.000284399 -0.000284403 -2.42608e-11
0.000670639 -0.000201382 -0.00020111 -3.70903e-05
0.000795952 -0.000238885 -0.000238743 -2.00921e-05
0.000938157 -0.000281444 -0.000281448 -2.39789e-11
0.000812832 -0.000243954 -0.000243805 -2.00926e-05
0.000804392 -0.00024142 -0.000241274 -2.00924e-05
0.000663609 -0.000199269 -0.000199003 -3.70899e-05
0.000649547 -0.000195042 -0.000194788 -3.70892e-05
0.000908611 -0.00027258 -0.000272585 -2.32403e-11
0.000928308 -0.00027849 -0.000278494 -2.37511e-11
0.000656578 -0.000197155 -0.000196895 -3.70896e-05
0.000779073 -0.000233817 -0.000233681 -2.00917e-05
0.00091846 -0.000275535 -0.000275539 -2.3511e-11
0.000795952 -0.000238885 -0.000238743 -2.00921e-05
0.000787513 -0.000236351 -0.000236212 -2.00919e-05
0.000649547 -0.000195042 -0.000194788 -3.70892e-05
0.000635485 -0.000190815 -0.000190573 -3.70885e-05
0.000888914 -0.000266671 -0.000266675 -2.27478e-11
0.000908611 -0.00027258 -0.000272585 -2.32361e-11
0.000642516 -0.000192929 -0.00019268 -3.70889e-05
0.000762194 -0.000228749 -0.000228619 -2.00913e-05
0.000898762 -0.000269625 -0.00026963 -2.29919e-11
0.000779073 -0.000233817 -0.000233681 -2.00917e-05
0.000770633 -0.000231283 -0.00023115 -2.00915e-05
0.000635485 -0.000190815 -0.000190573 -3.70885e-05
0.000621423 -0.000186589 -0.000186358 -3.70878e-05
0.000869216 -0.000260761 -0.000260766 -2.22459e-11
0.000888914 -0.000266671 -0.000266675 -2.27478e-11
0.000628454 -0.000188702 -0.000188465 -3.70882e-05
0.000745314 -0.000223681 -0.000223557 -2.00909e-05
0.000879065 -0.000263716 -0.000263721 -2.24888e-11
0.000762194 -0.000228749 -0.000228619 -2.00913e-05
0.000753754 -0.000226215 -0.000226088 -2.00911e-05
0.000621423 -0.000186589 -0.000186358 -3.70878e-05
0.000607361 -0.000182363 -0.000182142 -3.70872e-05
0.000849519 -0.000254852 -0.000254857 -2.1739e-11
0.000869216 -0.000260761 -0.000260766 -2.22459e-11
0.000614392 -0.000184476 -0.00018425 -3.70875e-05
0.000728435 -0.000218612 -0.000218495 -2.00905e-05
0.000859368 -0.000257807 -0.000257812 -2.19561e-11
0.000745314 -0.000223681 -0.000223557 -2.00909e-05
0.000736875 -0.000221147 -0.000221026 -2.00907e-05
0.000607361 -0.000182363 -0.000182142 -3.70872e-05
0.000593299 -0.000178136 -0.000177927 -3.70865e-05
0.000829822 -0.000248942 -0.000248948 -2.12453e-11
0.000849519 -0.000254852 -0.000254857 -2.17487e-11
0.00060033 -0.000180249 -0.000180035 -3.70868e-05
0.000711555 -0.000213544 -0.000213433 -2.00901e-05
0.00083967 -0.000251897 -0.000251903 -2.14992e-11
0.000728435 -0.000218612 -0.000218495 -2.00905e-05
0.000719995 -0.000216078 -0.000215964 -2.00903e-05
0.000593299 -0.000178136 -0.000177927 -3.70865e-05
0.000579237 -0.00017391 -0.000173711 -3.70858e-05
0.000810125 -0.000243033 -0.000243039 -2.07485e-11
0.000829822 -0.000248942 -0.000248948 -2.12453e-11
0.000586268 -0.000176023 -0.000175819 -3.70862e-05
0.000694676 -0.000208476 -0.000208371 -2.00897e-05
0.000819973 -0.000245988 -0.000245994 -2.10254e-11
0.000711555 -0.000213544 -0.000213433 -2.00901e-05
0.000703116 -0.00021101 -0.000210902 -2.00899e-05
0.000579237 -0.00017391 -0.000173711 -3.70858e-05
0.000565174 -0.000169684 -0.000169496 -3.70852e-05
0.000790427 -0.000237124 -0.00023713 -2.01993e-11
0.000810125 -0.000243033 -0.000243039 -2.07485e-11
0.000572205 -0.000171797 -0.000171603 -3.70855e-05
0.000677796 -0.000203409 -0.000203309 -2.00893e-05
0.000800276 -0.000240078 -0.000240085 -2.04813e-11
0.000694676 -0.000208476 -0.000208371 -2.00897e-05
0.000686236 -0.000205943 -0.00020584 -2.00895e-05
0.000565174 -0.000169684 -0.000169496 -3.70852e-05
0.000551111 -0.000165459 -0.00016528 -3.70845e-05
0.00077073 -0.000231214 -0.000231221 -1.96839e-11
0.000790427 -0.000237124 -0.00023713 -2.01993e-11
0.000558143 -0.000167571 -0.000167388 -3.70848e-05
0.000660917 -0.000198341 -0.000198247 -2.00889e-05
0.000780579 -0.000234169 -0.000234176 -1.99679e-11
0.000677796 -0.000203409 -0.000203309 -2.00893e-05
0.000669357 -0.000200875 -0.000200778 -2.00891e-05
0.000551111 -0.000165459 -0.00016528 -3.70845e-05
0.000537049 -0.000161233 -0.000161064 -3.70839e-05
0.000751033 -0.000225305 -0.000225312 -1.91918e-11
0.00077073 -0.000231214 -0.000231221 -1.96837e-11
0.00054408 -0.000163346 -0.000163172 -3.70842e-05
0.000644037 -0.000193273 -0.000193185 -2.00885e-05
0.000760882 -0.00022826 -0.000228267 -1.9447e-11
0.000660917 -0.000198341 -0.000198247 -2.00889e-05
0.000652477 -0.000195807 -0.000195716 -2.00887e-05
0.000537049 -0.000161233 -0.000161064 -3.70839e-05
0.000522986 -0.000157007 -0.000156848 -3.70832e-05
0.000731336 -0.000219396 -0.000219403 -1.86673e-11
0.000751033 -0.000225305 -0.000225312 -1.91746e-11
0.000530017 -0.00015912 -0.000158956 -3.70835e-05
0.000627157 -0.000188205 -0.000188122 -2.00881e-05
0.000741185 -0.00022235 -0.000222358 -1.89372e-11
0.000644037 -0.000193273 -0.000193185 -2.00885e-05
0.000635597 -0.000190739 -0.000190653 -2.00883e-05
0.000522986 -0.000157007 -0.000156848 -3.70832e-05
0.000508923 -0.000152782 -0.000152632 -3.70826e-05
0.000711639 -0.000213486 -0.000213494 -1.81537e-11
0.000731336 -0.000219396 -0.000219403 -1.86673e-11
0.000515954 -0.000154895 -0.00015474 -3.70829e-05
0.000610277 -0.000183138 -0.00018306 -2.00878e-05
0.000721488 -0.000216441 -0.000216449 -1.84357e-11
0.000627157 -0.000188205 -0.000188122 -2.00881e-05
0.000618717 -0.000185672 -0.000185591 -2.00879e-05
0.000508923 -0.000152782 -0.000152632 -3.70826e-05
0.000494859 -0.000148557 -0.000148416 -3.7082e-05
0.000691942 -0.000207577 -0.000207585 -1.76464e-11
0.000711639 -0.000213486 -0.000213494 -1.81537e-11
0.000501891 -0.000150669 -0.000150524 -3.70823e-05
0.000593397 -0.00017807 -0.000177997 -2.00874e-05
0.000701791 -0.000210532 -0.00021054 -1.79267e-11
0.000610277 -0.000183138 -0.00018306 -2.00878e-05
0.000601837 -0.000180604 -0.000180529 -2.00876e-05
0.000494859 -0.000148557 -0.000148416 -3.7082e-05
0.000480796 -0.000144331 -0.000144199 -3.70813e-05
0.000672245 -0.000201668 -0.000201676 -1.70909e-11
0.000691942 -0.000207577 -0.000207585 -1.76858e-11
0.000487828 -0.000146444 -0.000146307 -3.70817e-05
0.000576517 -0.000173003 -0.000172935 -2.0087e-05
0.000682094 -0.000204622 -0.000204631 -1.74079e-11
0.000593397 -0.00017807 -0.000177997 -2.00874e-05
0.000584957 -0.000175536 -0.000175466 -2.00872e-05
0.000480796 -0.000144331 -0.000144199 -3.70813e-05
0.000466732 -0.000140106 -0.000139983 -3.70807e-05
0.000652548 -0.000195758 -0.000195767 -1.65083e-11
0.000672245 -0.000201668 -0.000201676 -1.70913e-11
0.000473764 -0.000142219 -0.000142091 -3.7081e-05
0.000559637 -0.000167935 -0.000167872 -2.00866e-05
0.000662397 -0.000198713 -0.000198722 -1.67868e-11
0.000576517 -0.000173003 -0.000172935 -2.0087e-05
0.000568077 -0.000170469 -0.000170404 -2.00868e-05
0.000466732 -0.000140106 -0.000139983 -3.70807e-05
0.000452669 -0.000135881 -0.000135766 -3.70801e-05
0.000632852 -0.000189849 -0.000189858 -1.59229e-11
0.000652548 -0.000195758 -0.000195767 -1.65083e-11
0.000459701 -0.000137994 -0.000137874 -3.70804e-05
0.000542757 -0.000162868 -0.00016281 -2.00863e-05
0.0006427 -0.000192804 -0.000192813 -1.6279e-11
0.000559637 -0.000167935 -0.000167872 -2.00866e-05
0.000551197 -0.000165402 -0.000165341 -2.00865e-05
0.000452669 -0.000135881 -0.000135766 -3.70801e-05
0.000438605 -0.000131657 -0.000131549 -3.70796e-05
0.000613155 -0.00018394 -0.000183949 -1.52823e-11
0.000632852 -0.000189849 -0.000189858 -1.59229e-11
0.000445637 -0.000133769 -0.000133658 -3.70798e-05
0.000525877 -0.000157801 -0.000157747 -2.00859e-05
0.000623003 -0.000186894 -0.000186904 -1.5575e-11
0.000542757 -0.000162868 -0.00016281 -2.00863e-05
0.000534317 -0.000160334 -0.000160278 -2.00861e-05
0.000438605 -0.000131657 -0.000131549 -3.70796e-05
0.000424541 -0.000127432 -0.000127332 -3.7079e-05
0.000593458 -0.00017803 -0.00017804 -1.45707e-11
0.000613155 -0.00018394 -0.000183949 -1.52823e-11
0.000431573 -0.000129544 -0.000129441 -3.70793e-05
0.000508997 -0.000152734 -0.000152684 -2.00856e-05
0.000603306 -0.000180985 -0.000180995 -1.4944e-11
0.000525877 -0.000157801 -0.000157747 -2.00859e-05
0.000517437 -0.000155267 -0.000155216 -2.00857e-05
0.000424541 -0.000127432 -0.000127332 -3.7079e-05
0.000410476 -0.000123207 -0.000123115 -3.70784e-05
0.000573761 -0.000172121 -0.000172131 -1.37922e-11
0.000593458 -0.00017803 -0.00017804 -1.45702e-11
0.000417509 -0.00012532 -0.000125224 -3.70787e-05
0.000492116 -0.000147667 -0.000147621 -2.00852e-05
0.000583609 -0.000175076 -0.000175086 -1.42283e-11
0.000508997 -0.000152734 -0.000152684 -2.00856e-05
0.000500556 -0.0001502 -0.000150153 -2.00854e-05
0.000410476 -0.000123207 -0.000123115 -3.70784e-05
0.000396412 -0.000118983 -0.000118898 -3.70779e-05
0.000554064 -0.000166212 -0.000166222 -1.28851e-11
0.000573761 -0.000172121 -0.000172131 -1.37922e-11
0.000403444 -0.000121095 -0.000121007 -3.70782e-05
0.000475236 -0.0001426 -0.000142558 -2.00849e-05
0.000563912 -0.000169166 -0.000169177 -1.33704e-11
0.000492116 -0.000147667 -0.000147621 -2.00852e-05
0.000483676 -0.000145133 -0.00014509 -2.00851e-05
0.000396412 -0.000118983 -0.000118898 -3.70779e-05
0.000382347 -0.000114759 -0.000114681 -3.70774e-05
0.000534367 -0.000160302 -0.000160313 -1.18895e-11
0.000554064 -0.000166212 -0.000166222 -1.28851e-11
0.00038938 -0.000116871 -0.00011679 -3.70777e-05
0.000458355 -0.000137533 -0.000137495 -2.00846e-05
0.000544215 -0.000163257 -0.000163268 -1.23948e-11
0.000475236 -0.0001426 -0.000142558 -2.00849e-05
0.000466795 -0.000140066 -0.000140027 -2.00848e-05
0.000382347 -0.000114759 -0.000114681 -3.70774e-05
0.000368283 -0.000110534 -0.000110464 -3.70769e-05
0.00051467 -0.000154393 -0.000154404 -1.06638e-11
0.000534367 -0.000160302 -0.000160313 -1.19021e-11
0.000375315 -0.000112646 -0.000112572 -3.70772e-05
0.000441474 -0.000132466 -0.000132432 -2.00843e-05
0.000524518 -0.000157348 -0.000157359 -1.13019e-11
0.000458355 -0.000137533 -0.000137495 -2.00846e-05
0.000449915 -0.000134999 -0.000134964 -2.00845e-05
0.000368283 -0.000110534 -0.000110464 -3.70769e-05
0.000354218 -0.00010631 -0.000106246 -3.70765e-05
0.000494972 -0.000148484 -0.000148495 -9.38497e-12
0.00051467 -0.000154393 -0.000154404 -1.06642e-11
0.00036125 -0.000108422 -0.000108355 -3.70767e-05
0.000424593 -0.000127399 -0.000127369 -2.00841e-05
0.000504821 -0.000151438 -0.00015145 -9.91589e-12
0.000441474 -0.000132466 -0.000132432 -2.00843e-05
0.000433034 -0.000129932 -0.000129901 -2.00842e-05
0.000354218 -0.00010631 -0.000106246 -3.70765e-05
0.000340152 -0.000102086 -0.000102028 -3.70762e-05
0.000475275 -0.000142574 -0.000142586 -7.62614e-12
0.000494972 -0.000148484 -0.000148495 -9.38497e-12
0.000347185 -0.000104198 -0.000104137 -3.70764e-05
0.000407712 -0.000122332 -0.000122306 -2.00839e-05
0.000485124 -0.000145529 -0.000145541 -8.46732e-12
0.000424593 -0.000127399 -0.000127369 -2.00841e-05
0.000416153 -0.000124865 -0.000124837 -2.0084e-05
0.000340152 -0.000102086 -0.000102028 -3.70762e-05
0.000326087 -9.78625e-05 -9.78104e-05 -3.70759e-05
0.000455578 -0.000136665 -0.000136677 -6.0228e-12
0.000475275 -0.000142574 -0.000142586 -7.62614e-12
0.00033312 -9.99744e-05 -9.99193e-05 -3.7076e-05
0.000390831 -0.000117265 -0.000117242 -2.00837e-05
0.000465426 -0.00013962 -0.000139631 -6.64138e-12
0.000407712 -0.000122332 -0.000122306 -2.00839e-05
0.000399271 -0.000119798 -0.000119774 -2.00838e-05
0.000326087 -9.78625e-05 -9.78104e-05 -3.70759e-05
0.000312021 -9.36388e-05 -9.35924e-05 -3.70757e-05
0.00043588 -0.000130755 -0.000130768 -3.39952e-12
0.000455578 -0.000136665 -0.000136677 -6.0228e-12
0.000319054 -9.57506e-05 -9.57014e-05 -3.70758e-05
0.000373949 -0.000112198 -0.000112179 -2.00836e-05
0.000445729 -0.00013371 -0.000133722 -4.49315e-12
0.000390831 -0.000117265 -0.000117242 -2.00837e-05
0.00038239 -0.000114732 -0.000114711 -2.00837e-05
0.000312021 -9.36388e-05 -9.35924e-05 -3.70757e-05
0.000297955 -8.94152e-05 -8.93742e-05 -3.70756e-05
0.000416182 -0.000124846 -0.000124858 -1.99515e-12
0.00043588 -0.000130755 -0.000130768 -3.42565e-12
0.000304988 -9.15269e-05 -9.14833e-05 -3.70756e-05
0.000357067 -0.000107132 -0.000107115 -2.00836e-05
0.000426031 -0.0001278 -0.000127813 -2.36326e-12
0.000373949 -0.000112198 -0.000112179 -2.00836e-05
0.000365508 -0.000109665 -0.000109647 -2.00836e-05
0.000297955 -8.94152e-05 -8.93742e-05 -3.70756e-05
0.000283889 -8.51916e-05 -8.5156e-05 -3.70756e-05
0.000396483 -0.000118936 -0.000118949 1.05646e-12
0.000416182 -0.000124846 -0.000124858 -1.99515e-12
0.000290922 -8.73034e-05 -8.72651e-05 -3.70756e-05
0.000340185 -0.000102065 -0.000102051 -2.00836e-05
0.000406333 -0.000121891 -0.000121904 9.88577e-13
0.000357067 -0.000107132 -0.000107115 -2.00836e-05
0.000348626 -0.000104598 -0.000104583 -2.00836e-05
0.000283889 -8.51916e-05 -8.5156e-05 -3.70756e-05
0.000269823 -8.09682e-05 -8.09376e-05 -3.70755e-05
0.000376784 -0.000113026 -0.000113039 -1.01089e-12
0.000396483 -0.000118936 -0.000118949 1.05646e-12
0.000276856 -8.30799e-05 -8.30468e-05 -3.70756e-05
0.000323302 -9.6998e-05 -9.69875e-05 -2.00838e-05
0.000386634 -0.000115981 -0.000115994 -3.13186e-13
0.000340185 -0.000102065 -0.000102051 -2.00836e-05
0.000331743 -9.95314e-05 -9.95194e-05 -2.00837e-05
0.000269823 -8.09682e-05 -8.09376e-05 -3.70755e-05
0.000255756 -7.67448e-05 -7.67191e-05 -3.70754e-05
0.000357084 -0.000107116 -0.000107129 -5.2585e-12
0.000376784 -0.000113026 -0.000113039 -1.06046e-12
0.000262789 -7.88565e-05 -7.88283e-05 -3.70755e-05
0.000306419 -9.19312e-05 -9.19234e-05 -2.00839e-05
0.000366934 -0.000110071 -0.000110084 5.39865e-12
0.000323302 -9.6998e-05 -9.69875e-05 -2.00838e-05
0.000314861 -9.44646e-05 -9.44554e-05 -2.00839e-05
0.000255756 -7.67448e-05 -7.67191e-05 -3.70754e-05
0.00024169 -7.25214e-05 -7.25007e-05 -3.70749e-05
0.000337384 -0.000101205 -0.000101219 -2.53046e-11
0.000357084 -0.000107116 -0.000107129 -5.25868e-12
0.000248723 -7.46332e-05 -7.46099e-05 -3.70752e-05
0.000289536 -8.68644e-05 -8.68593e-05 -2.0084e-05
0.000347234 -0.00010416 -0.000104174 -2.30089e-11
0.000306419 -9.19312e-05 -9.19234e-05 -2.00839e-05
0.000297978 -8.93978e-05 -8.93913e-05 -2.0084e-05
0.00024169 -7.25214e-05 -7.25007e-05 -3.70749e-05
0.000227624 -6.82977e-05 -6.82826e-05 -3.70733e-05
0.000317682 -9.52944e-05 -9.5309e-05 -9.05827e-11
0.000337384 -0.000101205 -0.000101219 -2.53046e-11
0.000234657 -7.04096e-05 -7.03916e-05 -3.70743e-05
0.000272653 -8.17977e-05 -8.17952e-05 -2.00836e-05
0.000327533 -9.82498e-05 -9.82642e-05 -1.28249e-11
0.000289536 -8.68644e-05 -8.68593e-05 -2.0084e-05
0.000281094 -8.4331e-05 -8.43272e-05 -2.00839e-05
0.000227624 -6.82977e-05 -6.82826e-05 -3.70733e-05
0.000213559 -6.40731e-05 -6.40653e-05 -3.70693e-05
0.00029798 -8.93835e-05 -8.93985e-05 -1.78191e-10
0.000317682 -9.52944e-05 -9.5309e-05 -9.05827e-11
0.000220591 -6.61856e-05 -6.61738e-05 -3.70717e-05
0.000255771 -7.6731e-05 -7.67314e-05 -2.00821e-05
0.000307831 -9.2339e-05 -9.23537e-05 -1.90188e-10
0.000272653 -8.17977e-05 -8.17952e-05 -2.00836e-05
0.000264212 -7.92643e-05 -7.92633e-05 -2.00831e-05
0.000213559 -6.40731e-05 -6.40653e-05 -3.70693e-05
0.000199495 -5.98466e-05 -5.98493e-05 -3.70603e-05
0.000278279 -8.34726e-05 -8.34884e-05 -5.86725e-10
0.00029798 -8.93835e-05 -8.93985e-05 -1.78191e-10
0.000206527 -6.19602e-05 -6.19571e-05 -3.70656e-05
0.000238892 -7.16646e-05 -7.16689e-05 -2.00778e-05
0.000288129 -8.64278e-05 -8.64434e-05 -1.66953e-10
0.000255771 -7.6731e-05 -7.67314e-05 -2.00821e-05
0.000247331 -7.41977e-05 -7.41999e-05 -2.00804e-05
0.000199495 -5.98466e-05 -5.98493e-05 -3.70603e-05
0.000185434 -5.56157e-05 -5.56365e-05 -3.70406e-05
0.000258581 -7.75637e-05 -7.75789e-05 -8.53936e-10
0.000278279 -8.34726e-05 -8.34884e-05 -5.86748e-10
0.000192464 -5.77319e-05 -5.77423e-05 -3.70523e-05
0.000222019 -6.65988e-05 -6.66085e-05 -2.0067e-05
0.000268429 -8.05182e-05 -8.05334e-05 -1.03624e-09
0.000238892 -7.16646e-05 -7.16689e-05 -2.00778e-05
0.000230454 -6.91316e-05 -6.91384e-05 -2.00735e-05
0.000185434 -5.56157e-05 -5.56365e-05 -3.70406e-05
0.000171375 -5.13759e-05 -5.14283e-05 -3.70013e-05
0.000238898 -7.1657e-05 -7.16746e-05 -2.85637e-09
0.000258581 -7.75637e-05 -7.75789e-05 -8.53936e-10
0.000178405 -5.34974e-05 -5.35317e-05 -3.70241e-05
0.00020516 -6.15343e-05 -6.15538e-05 -2.00436e-05
0.000248736 -7.46088e-05 -7.46261e-05 -8.97511e-10
0.000222019 -6.65988e-05 -6.66085e-05 -2.0067e-05
0.000213586 -6.40663e-05 -6.40801e-05 -2.00576e-05
0.000171375 -5.13759e-05 -5.14283e-05 -3.70013e-05
0.000157322 -4.71184e-05 -4.72303e-05 -3.69219e-05
0.00021924 -6.57646e-05 -6.5775e-05 -3.27788e-09
0.000238898 -7.1657e-05 -7.16746e-05 -2.85637e-09
0.000164347 -4.92499e-05 -4.93274e-05 -3.69686e-05
0.000188326 -5.64725e-05 -5.65086e-05 -1.99932e-05
0.000229065 -6.87109e-05 -6.87233e-05 -4.66698e-09
0.00020516 -6.15343e-05 -6.15538e-05 -2.00436e-05
0.000196739 -5.90028e-05 -5.90299e-05 -2.00227e-05
0.000157322 -4.71184e-05 -4.72303e-05 -3.69219e-05
0.000143266 -4.2829e-05 -4.30443e-05 -3.67752e-05
0.000199659 -5.98832e-05 -5.99039e-05 -1.17762e-08
0.00021924 -6.57646e-05 -6.5775e-05 -3.27788e-09
0.000150297 -4.49796e-05 -4.51358e-05 -3.68591e-05
0.000171548 -5.1416e-05 -5.14851e-05 -1.98935e-05
0.000209433 -6.28155e-05 -6.28362e-05 -3.44016e-09
0.000188326 -5.64725e-05 -5.65086e-05 -1.99932e-05
0.000179926 -5.39436e-05 -5.39926e-05 -1.99527e-05
0.000143266 -4.2829e-05 -4.30443e-05 -3.67752e-05
0.000129215 -3.84791e-05 -3.88869e-05 -3.64975e-05
0.000180199 -5.40752e-05 -5.40531e-05 -1.0441e-08
0.000199659 -5.98832e-05 -5.99039e-05 -1.17762e-08
0.000136236 -4.06623e-05 -4.09603e-05 -3.66588e-05
0.000154857 -4.63684e-05 -4.64951e-05 -1.96984e-05
0.000189915 -5.69809e-05 -5.69716e-05 -1.8743e-08
0.000171548 -5.1416e-05 -5.14851e-05 -1.98935e-05
0.000163191 -4.88899e-05 -4.89863e-05 -1.98094e-05
0.000129215 -3.84791e-05 -3.88869e-05 -3.64975e-05
0.000115114 -3.40357e-05 -3.47478e-05 -3.60249e-05
0.000161064 -4.83007e-05 -4.83272e-05 -4.28797e-08
0.000180199 -5.40752e-05 -5.40531e-05 -1.0441e-08
0.000122181 -3.62762e-05 -3.68165e-05 -3.62899e-05
0.000138357 -4.13415e-05 -4.15779e-05 -1.93348e-05
0.000170565 -5.11493e-05 -5.11781e-05 -9.29602e-09
0.000154857 -4.63684e-05 -4.64951e-05 -1.96984e-05
0.00014657 -4.38538e-05 -4.40214e-05 -1.95503e-05
0.000115114 -3.40357e-05 -3.47478e-05 -3.60249e-05
0.000100984 -2.94164e-05 -3.06716e-05 -3.51972e-05
0.000142402 -4.28555e-05 -4.26629e-05 -2.73473e-08
0.000161064 -4.83007e-05 -4.83272e-05 -4.28797e-08
0.000108039 -3.17435e-05 -3.26982e-05 -3.56711e-05
0.000122104 -3.6335e-05 -3.67582e-05 -1.86877e-05
0.000151682 -4.55951e-05 -4.54658e-05 -7.06798e-08
0.000138357 -4.13415e-05 -4.15779e-05 -1.93348e-05
0.000130205 -3.88297e-05 -3.91607e-05 -1.90438e-05
0.000100984 -2.94164e-05 -3.06716e-05 -3.51972e-05
8.65566e-05 -2.4601e-05 -2.65524e-05 -3.39529e-05
0.000124898 -3.74444e-05 -3.74801e-05 -1.41041e-07
0.000142402 -4.28555e-05 -4.26629e-05 -2.73473e-08
9.38538e-05 -2.70599e-05 -2.86259e-05 -3.46277e-05
0.000106409 -3.13966e-05 -3.21484e-05 -1.75449e-05
0.000133412 -3.99842e-05 -4.00405e-05 -8.55951e-09
0.000122104 -3.6335e-05 -3.67582e-05 -1.86877e-05
0.000114143 -3.38679e-05 -3.44037e-05 -1.82283e-05
8.65566e-05 -2.4601e-05 -2.65524e-05 -3.39529e-05
7.18491e-05 -1.93847e-05 -2.24848e-05 -3.20538e-05
0.000109032 -3.34085e-05 -3.241e-05 -5.20211e-08
0.000124898 -3.74444e-05 -3.74801e-05 -1.41041e-07
7.91893e-05 -2.19945e-05 -2.45121e-05 -3.3106e-05
9.11914e-05 -2.64549e-05 -2.77442e-05 -1.57524e-05
0.000116794 -3.5544e-05 -3.48212e-05 -2.63274e-07
0.000106409 -3.13966e-05 -3.21484e-05 -1.75449e-05
9.8795e-05 -2.89016e-05 -2.99543e-05 -1.6679e-05
7.18491e-05 -1.93847e-05 -2.24848e-05 -3.20538e-05
5.57948e-05 -1.41892e-05 -1.78309e-05 -3.00018e-05
9.66851e-05 -2.89794e-05 -2.90167e-05 -3.8775e-07
0.000109032 -3.34085e-05 -3.241e-05 -5.20211e-08
6.41722e-05 -1.68716e-05 -2.02717e-05 -3.09926e-05
7.72412e-05 -2.16844e-05 -2.38101e-05 -1.28193e-05
0.00010215 -3.05212e-05 -3.0698e-05 1.1037e-07
9.11914e-05 -2.64549e-05 -2.77442e-05 -1.57524e-05
8.39048e-05 -2.41011e-05 -2.56302e-05 -1.46143e-05
5.57948e-05 -1.41892e-05 -1.78309e-05 -3.00018e-05
3.8468e-05 -9.02013e-06 -1.26205e-05 -2.86278e-05
8.99756e-05 -2.98435e-05 -2.57709e-05 6.0109e-07
9.66851e-05 -2.89794e-05 -2.90167e-05 -3.8775e-07
4.70992e-05 -1.12468e-05 -1.53653e-05 -2.91043e-05
6.27252e-05 -1.65327e-05 -1.97968e-05 -9.60273e-06
9.26296e-05 -3.01474e-05 -2.67781e-05 -8.54226e-07
7.72412e-05 -2.16844e-05 -2.38101e-05 -1.28193e-05
7.04361e-05 -1.90857e-05 -2.20073e-05 -1.08687e-05
3.8468e-05 -9.02013e-06 -1.26205e-05 -2.86278e-05
1.82127e-05 -9.46954e-06 -3.74708e-06 -3.35301e-05
9.57432e-05 -2.62651e-05 -2.97763e-05 3.71158e-06
8.99756e-05 -2.98435e-05 -2.57709e-05 6.0109e-07
2.91046e-05 -8.47483e-06 -8.84134e-06 -2.97556e-05
4.72665e-05 -1.22267e-05 -1.50171e-05 -7.51151e-06
9.04408e-05 -2.5464e-05 -2.78472e-05 2.63443e-06
6.27252e-05 -1.65327e-05 -1.97968e-05 -9.60273e-06
5.47785e-05 -1.42652e-05 -1.73628e-05 -8.80737e-06
1.82127e-05 -9.46954e-06 -3.74708e-06 -3.35301e-05
8.61033e-06 -3.29114e-05 1.04148e-05 -5.20618e-05
0.000130658 -2.69175e-05 -4.446e-05 2.92813e-05
9.57432e-05 -2.62651e-05 -2.97763e-05 3.71158e-06
9.98409e-06 -1.38993e-05 1.67794e-06 -4.00996e-05
1.45015e-05 -2.12019e-05 2.87161e-06 -2.95739e-05
0.000108332 -3.62961e-05 -3.08726e-05 7.82492e-06
4.72665e-05 -1.22267e-05 -1.50171e-05 -7.51151e-06
3.54273e-05 -1.18971e-05 -1.00843e-05 -1.16336e-05
8.61033e-06 -3.29114e-05 1.04148e-05 -5.20618e-05
4.70225e-05 -0.000143828 4.14882e-05 -5.33626e-05
8.42106e-05 -0.000190579 4.55864e-05 -0.000142553
0.000130658 -2.69175e-05 -4.446e-05 2.92813e-05
1.92401e-05 -7.6879e-05 2.47024e-05 -6.18052e-05
4.28585e-05 -0.000176878 5.74369e-05 -8.58011e-05
0.000132614 -9.79781e-06 -5.26353e-05 1.38352e-05
1.45015e-05 -2.12019e-05 2.87161e-06 -2.95739e-05
8.85716e-06 -5.84308e-05 2.12459e-05 -5.60387e-05
      </DataArray> 
    </PointData>
    <CellData>
      <DataArray type="Float64" NumberOfComponents="1" Name="Process" format="ascii">
3
3
3
3
3
3
3
3
3
3
3
3
3
3
3
3
3
3
3
3
3
3
3
3
3
2
2
2
2
2
2
2
2
2
2
2
2
2
2
2
2
2
2
2
2
2
2
2
2
1
1
1
1
1
1
1
1
1
1
1
1
1
1
1
1
1
1
1
1
1
1
1
1
1
0
0
0
0
0
0
0
0
0
0
0
0
0
0
0
0
0
0
0
0
0
0
0
0
0
5
5
5
5
5
5
5
5
5
5
5
5
5
5
5
5
5
5
5
5
5
5
5
5
5
4
4
4
4
4
4
4
4
4
4
4
4
4
4
4
4
4
4
4
4
4
4
4
4
7
7
7
7
7
7
7
7
7
7
7
7
7
7
7
7
7
7
7
7
7
7
7
7
7
6
6
6
6
6
6
6
6
6
6
6
6
6
6
6
6
6
6
6
6
6
6
6
6
3
3
3
3
3
3
3
3
3
3
3
3
3
3
3
3
3
3
3
3
3
3
3
3
3
2
2
2
2
2
2
2
2
2
2
2
2
2
2
2
2
2
2
2
2
2
2
2
2
1
1
1
1
1
1
1
1
1
1
1
1
1
1
1
1
1
1
1
1
1
1
1
1
1
0
0
0
0
0
0
0
0
0
0
0
0
0
0
0
0
0
0
0
0
0
0
0
0
0
5
5
5
5
5
5
5
5
5
5
5
5
5
5
5
5
5
5
5
5
5
5
5
5
5
4
4
4
4
4
4
4
4
4
4
4
4
4
4
4
4
4
4
4
4
4
4
4
4
7
7
7
7
7
7
7
7
7
7
7
7
7
7
7
7
7
7
7
7
7
7
7
7
7
6
6
6
6
6
6
6
6
6
6
6
6
6
6
6
6
6
6
6
6
6
6
6
6
3
3
3
3
3
3
3
3
3
3
3
3
3
3
3
3
3
3
3
3
3
3
3
3
3
2
2
2
2
2
2
2
2
2
2
2
2
2
2
2
2
2
2
2
2
2
2
2
2
1
1
1
1
1
1
1
1
1
1
1
1
1
1
1
1
1
1
1
1
1
1
1
1
1
0
0
0
0
0
0
0
0
0
0
0
0
0
0
0
0
0
0
0
0
0
0
0
0
0
5
5
5
5
5
5
5
5
5
5
5
5
5
5
5
5
5
5
5
5
5
5
5
5
5
4
4
4
4
4
4
4
4
4
4
4
4
4
4
4
4
4
4
4
4
4
4
4
4
7
7
7
7
7
7
7
7
7
7
7
7
7
7
7
7
7
7
7
7
7
7
7
7
7
6
6
6
6
6
6
6
6
6
6
6
6
6
6
6
6
6
6
6
6
6
6
6
6
3
3
3
3
3
3
3
3
3
3
3
3
3
3
3
3
3
3
3
3
3
3
3
3
3
2
2
2
2
2
2
2
2
2
2
2
2
2
2
2
2
2
2
2
2
2
2
2
2
1
1
1
1
1
1
1
1
1
1
1
1
1
1
1
1
1
1
1
1
1
1
1
1
1
0
0
0
0
0
0
0
0
0
0
0
0
0
0
0
0
0
0
0
0
0
0
0
0
0
5
5
5
5
5
5
5
5
5
5
5
5
5
5
5
5
5
5
5
5
5
5
5
5
5
4
4
4
4
4
4
4
4
4
4
4
4
4
4
4
4
4
4
4
4
4
4
4
4
7
7
7
7
7
7
7
7
7
7
7
7
7
7
7
7
7
7
7
7
7
7
7
7
7
6
6
6
6
6
6
6
6
6
6
6
6
6
6
6
6
6
6
6
6
6
6
6
6
3
3
3
3
3
3
3
3
3
3
3
3
3
3
3
3
3
3
3
3
3
3
3
3
3
2
2
2
2
2
2
2
2
2
2
2
2
2
2
2
2
2
2
2
2
2
2
2
2
1
1
1
1
1
1
1
1
1
1
1
1
1
1
1
1
1
1
1
1
1
1
1
1
1
0
0
0
0
0
0
0
0
0
0
0
0
0
0
0
0
0
0
0
0
0
0
0
0
0
5
5
5
5
5
5
5
5
5
5
5
5
5
5
5
5
5
5
5
5
5
5
5
5
5
4
4
4
4
4
4
4
4
4
4
4
4
4
4
4
4
4
4
4
4
4
4
4
4
7
7
7
7
7
7
7
7
7
7
7
7
7
7
7
7
7
7
7
7
7
7
7
7
7
6
6
6
6
6
6
6
6
6
6
6
6
6
6
6
6
6
6
6
6
6
6
6
6
3
3
3
3
3
3
3
3
3
3
3
3
3
3
3
3
3
3
3
3
3
3
3
3
3
2
2
2
2
2
2
2
2
2
2
2
2
2
2
2
2
2
2
2
2
2
2
2
2
1
1
1
1
1
1
1
1
1
1
1
1
1
1
1
1
1
1
1
1
1
1
1
1
1
0
0
0
0
0
0
0
0
0
0
0
0
0
0
0
0
0
0
0
0
0
0
0
0
0
5
5
5
5
5
5
5
5
5
5
5
5
5
5
5
5
5
5
5
5
5
5
5
5
5
4
4
4
4
4
4
4
4
4
4
4
4
4
4
4
4
4
4
4
4
4
4
4
4
7
7
7
7
7
7
7
7
7
7
7
7
7
7
7
7
7
7
7
7
7
7
7
7
7
6
6
6
6
6
6
6
6
6
6
6
6
6
6
6
6
6
6
6
6
6
6
6
6
3
3
3
3
3
3
3
3
3
3
3
3
3
3
3
3
3
3
3
3
3
3
3
3
3
2
2
2
2
2
2
2
2
2
2
2
2
2
2
2
2
2
2
2
2
2
2
2
2
1
1
1
1
1
1
1
1
1
1
1
1
1
1
1
1
1
1
1
1
1
1
1
1
1
0
0
0
0
0
0
0
0
0
0
0
0
0
0
0
0
0
0
0
0
0
0
0
0
0
5
5
5
5
5
5
5
5
5
5
5
5
5
5
5
5
5
5
5
5
5
5
5
5
5
4
4
4
4
4
4
4
4
4
4
4
4
4
4
4
4
4
4
4
4
4
4
4
4
7
7
7
7
7
7
7
7
7
7
7
7
7
7
7
7
7
7
7
7
7
7
7
7
7
6
6
6
6
6
6
6
6
6
6
6
6
6
6
6
6
6
6
6
6
6
6
6
6
      </DataArray> 
    </CellData>
  </Piece>
  </UnstructuredGrid>
</VTKFile>
