<?xml version="1.0"?>
<VTKFile type="UnstructuredGrid">
  <UnstructuredGrid>
  <Piece NumberOfPoints="193"  NumberOfCells="36">
    <Points>
      <DataArray type="Float64" NumberOfComponents="3" format="ascii">
0 0 0
187.586 0 0
183.27 10 0
0 10 0
19.7209 -4.52145 0
39.2385 -13.9464 0
59.4203 -24.0662 0
81.3148 -31.5368 0
104.609 -33.81 0
127.681 -29.9417 0
149.03 -21.1016 0
168.564 -9.86972 0
6.54778 -0.681765 0
13.1557 -2.23629 0
26.2397 -7.34839 0
32.7289 -10.542 0
45.8225 -17.4209 0
52.5345 -20.8348 0
66.5091 -26.9981 0
73.8109 -29.5208 0
88.987 -32.9614 0
96.7735 -33.7315 0
112.418 -33.1862 0
120.129 -31.8813 0
135.027 -27.4374 0
142.144 -24.4576 0
155.703 -17.4771 0
162.205 -13.6992 0
174.913 -6.17175 0
181.18 -2.64507 0
186.335 3.33333 0
184.835 6.66667 0
163.518 -1.3 0
144.473 -12.207 0
124.834 -20.366 0
104.261 -23.8276 0
83.5151 -21.7923 0
63.435 -14.9155 0
43.8556 -5.08377 0
23.3023 4.80048 0
176.646 6.14643 0
169.991 2.5355 0
157.156 -5.07368 0
150.828 -8.75377 0
138.039 -15.3478 0
131.496 -18.0918 0
118.058 -22.1092 0
111.189 -23.2738 0
97.3131 -23.7578 0
90.3851 -23.0706 0
76.7281 -19.9657 0
70.0359 -17.6492 0
56.9014 -11.8463 0
50.3941 -8.53413 0
37.2148 -1.61304 0
30.3901 1.73849 0
15.8785 7.36756 0
8.10158 9.16822 0
0 6.66667 0
0 3.33333 0
10.9598 3.57075 0
175.66 0.0144858 0
31.6668 -4.39354 0
156.488 -11.2758 0
51.3977 -14.6879 0
136.712 -21.4153 0
71.7402 -23.6204 0
115.469 -27.7331 0
93.3522 -28.5033 0
104.494 -30.5221 0
104.378 -27.1957 0
100.77 -25.5613 0
97.13 -27.1218 0
96.9517 -30.4454 0
100.706 -32.2186 0
100.738 -28.9094 0
108.391 -31.9502 0
112.013 -29.9201 0
111.605 -26.6167 0
107.865 -25.3136 0
108.13 -28.6512 0
82.0413 -28.3227 0
82.7709 -25.0746 0
79.6726 -22.5731 0
75.7429 -23.1793 0
74.7757 -26.3653 0
77.9641 -29.0091 0
78.8137 -25.8067 0
130.853 -27.1972 0
133.859 -24.3504 0
132.688 -21.2337 0
128.724 -20.8876 0
125.796 -23.5904 0
126.741 -26.7826 0
129.794 -24.0572 0
60.7523 -21.0356 0
62.0838 -17.9827 0
59.4506 -14.9357 0
55.435 -14.8522 0
53.987 -17.852 0
56.6538 -20.9815 0
58.0482 -17.9659 0
151.603 -17.8587 0
154.082 -14.581 0
152.465 -11.6696 0
148.457 -11.989 0
146.005 -15.1874 0
147.517 -18.1552 0
150.034 -14.9303 0
23.6518 -4.33328 0
27.6394 -4.30185 0
29.0113 -1.26774 0
26.2341 1.80299 0
22.1161 1.72856 0
20.9373 -1.38369 0
24.9492 -1.25177 0
3.42266 1.47652 0
7.0887 2.66525 0
7.58788 5.94869 0
3.93633 8.10298 0
3.67973 4.81876 0
170.914 -6.58576 0
173.246 -3.27475 0
171.611 -0.356678 0
167.562 -0.775889 0
165.215 -4.14054 0
166.889 -7.00708 0
169.235 -3.67731 0
19.1054 4.61492 0
14.9801 4.21231 0
14.0877 1.009 0
16.9986 -1.69893 0
18.0592 1.47664 0
180.774 6.54406 0
178.198 3.25597 0
179.694 0.333478 0
183.679 0.400216 0
182.281 3.49979 0
40.7828 -10.9925 0
42.3127 -8.03361 0
39.7863 -4.81716 0
35.7198 -4.57614 0
34.2351 -7.55747 0
36.7483 -10.7459 0
38.2688 -7.77798 0
161.179 -4.6217 0
158.844 -7.95151 0
160.519 -10.8309 0
164.549 -10.3547 0
162.866 -7.4867 0
43.2912 -14.2099 0
47.3469 -14.4655 0
48.8627 -11.4992 0
46.3571 -8.29492 0
44.8236 -11.253 0
142.004 -15.3324 0
139.422 -18.4055 0
140.784 -21.444 0
144.894 -21.3345 0
143.454 -18.3431 0
63.5666 -24.0504 0
67.6771 -23.9063 0
68.847 -20.7886 0
66.0833 -17.8829 0
64.8201 -20.977 0
121.88 -22.9425 0
118.758 -25.4027 0
119.446 -28.6596 0
123.521 -29.3958 0
122.705 -26.186 0
85.4314 -30.7128 0
89.4482 -29.701 0
89.9119 -26.4048 0
86.6326 -24.1634 0
86.0284 -27.4556 0
10.2344 0.297028 0
177.235 -2.88902 0
174.097 2.90344 0
11.6693 6.78892 0
30.2211 -7.40346 0
49.9091 -17.6625 0
70.6702 -26.7587 0
93.0309 -31.7971 0
116.017 -30.9973 0
137.98 -24.4795 0
158.141 -14.164 0
154.829 -8.38021 0
135.432 -18.3262 0
114.915 -24.4314 0
93.6779 -25.171 0
72.8209 -20.4554 0
52.8916 -11.705 0
33.1044 -1.3987 0
      </DataArray>
    </Points>
    <Cells>
      <DataArray type="Int32" Name="connectivity" format="ascii">
8 35 68 69 70 71 72 73 74 75 
8 67 35 76 77 78 79 70 69 80 
7 36 66 81 82 83 84 85 86 87 
9 65 34 88 89 90 91 92 93 94 
6 37 64 95 96 97 98 99 100 101 
10 63 33 102 103 104 105 106 107 108 
4 62 39 109 110 111 112 113 114 115 
0 60 3 116 117 118 119 58 59 120 
11 61 32 121 122 123 124 125 126 127 
4 39 60 114 113 128 129 130 131 132 
1 2 61 30 31 133 134 135 136 137 
5 38 62 138 139 140 141 142 143 144 
11 32 63 126 125 145 146 147 148 149 
5 64 38 150 151 152 153 139 138 154 
10 33 65 107 106 155 156 157 158 159 
6 66 37 160 161 162 163 96 95 164 
9 34 67 93 92 165 166 167 168 169 
7 68 36 170 171 172 173 82 81 174 
0 4 60 12 13 131 130 117 116 175 
1 61 11 136 135 122 121 28 29 176 
2 32 61 40 41 124 123 134 133 177 
3 60 39 119 118 129 128 56 57 178 
4 5 62 14 15 143 142 110 109 179 
5 6 64 16 17 100 99 151 150 180 
6 7 66 18 19 86 85 161 160 181 
7 8 68 20 21 74 73 171 170 182 
8 9 67 22 23 168 167 77 76 183 
9 10 65 24 25 158 157 89 88 184 
10 11 63 26 27 148 147 103 102 185 
32 33 63 42 43 105 104 146 145 186 
33 34 65 44 45 91 90 156 155 187 
34 35 67 46 47 79 78 166 165 188 
35 36 68 48 49 173 172 72 71 189 
36 37 66 50 51 163 162 84 83 190 
37 38 64 52 53 153 152 98 97 191 
38 39 62 54 55 112 111 141 140 192 
      </DataArray>
      <DataArray type="Int32" Name="offsets" format="ascii">
10
20
30
40
50
60
70
80
90
100
110
120
130
140
150
160
170
180
190
200
210
220
230
240
250
260
270
280
290
300
310
320
330
340
350
360
      </DataArray>
      <DataArray type="UInt8" Name="types" format="ascii">
69
69
69
69
69
69
69
69
69
69
69
69
69
69
69
69
69
69
69
69
69
69
69
69
69
69
69
69
69
69
69
69
69
69
69
69
      </DataArray>
    </Cells>
    <PointData>
      <DataArray type="Float64" NumberOfComponents="2" Name="Displacement" format="ascii">
0 0
-12.4142 0
-16.7302 0
0 0
-2.50129 -4.52145
-5.20591 -13.9464
-7.24634 -24.0662
-7.57409 -31.5368
-6.50238 -33.81
-5.65245 -29.9417
-6.52554 -21.1016
-9.21328 -9.86972
-0.859627 -0.681765
-1.6591 -2.23629
-3.38994 -7.34839
-4.30814 -10.542
-6.02935 -17.4209
-6.72472 -20.8348
-7.56493 -26.9981
-7.67057 -29.5208
-7.30935 -32.9614
-6.93023 -33.7315
-6.10036 -33.1862
-5.79683 -31.8813
-5.7134 -27.4374
-6.00434 -24.4576
-7.25996 -17.4771
-8.16507 -13.6992
-10.2724 -6.17175
-11.4129 -2.64507
-13.6649 0
-15.1645 0
-14.2595 -11.3
-11.0827 -22.207
-8.49937 -30.366
-6.85012 -33.8276
-5.37375 -31.7923
-3.23167 -24.9155
-0.588889 -15.0838
1.08008 -5.19952
-15.9464 -3.85357
-15.1941 -7.4645
-13.2149 -15.0737
-12.1345 -18.7538
-10.1093 -25.3478
-9.24454 -28.0918
-7.86763 -32.1092
-7.32957 -33.2738
-6.39059 -33.7578
-5.91125 -33.0706
-4.75341 -29.9657
-4.03815 -27.6492
-2.35785 -21.8463
-1.45778 -18.5341
0.177801 -11.613
0.760475 -8.26151
1.06365 -2.63244
0.69417 -0.831784
0 0
0 0
-0.151277 -1.42925
-13.2291 -4.98551
-1.66652 -9.39354
-10.1791 -16.2758
-4.1579 -19.6879
-7.73277 -26.4153
-6.03759 -28.6204
-6.7528 -32.7331
-6.64781 -33.5033
-6.61691 -33.8554
-6.73262 -33.8624
-6.63725 -33.8947
-6.57368 -33.7884
-6.75201 -33.7788
-6.70177 -33.8852
-6.66965 -33.9094
-6.42353 -33.6169
-6.5058 -33.2534
-6.91362 -33.2834
-6.9502 -33.6469
-6.6853 -33.6512
-6.84754 -31.6561
-6.11802 -31.7412
-5.51263 -30.9065
-5.73857 -29.846
-6.70582 -29.6987
-7.22113 -30.6758
-6.37144 -30.8067
-6.18409 -28.8638
-6.88125 -27.6837
-8.05308 -27.9003
-8.31298 -29.221
-7.53729 -30.257
-6.59246 -30.116
-7.24305 -29.0572
-5.91437 -24.3689
-4.58286 -24.6494
-3.5124 -23.2691
-3.82424 -21.5189
-5.2723 -21.1853
-6.3092 -22.6482
-4.91478 -22.9659
-7.65666 -19.5253
-8.88115 -17.9144
-10.4984 -18.3362
-10.8022 -20.3224
-9.55082 -21.8541
-8.03847 -21.4885
-9.22524 -19.9303
-2.27413 -5.99995
-1.99027 -7.63518
-0.618342 -7.93441
0.308185 -6.53034
-0.106115 -4.93811
-1.28494 -4.71702
-0.976691 -6.25177
-0.28104 -0.190142
-0.318705 -0.668087
0.180471 -0.717977
0.232627 -0.230352
-0.023974 -0.18124
-10.5679 -8.25242
-11.9393 -6.60808
-13.5742 -7.02334
-13.9199 -9.10922
-12.5629 -10.8072
-10.8886 -10.3404
-12.2461 -8.67731
0.586889 -3.71841
0.165281 -2.45436
-0.727146 -2.32433
-1.51997 -3.3656
-0.459323 -3.52336
-15.5226 -1.78927
-14.3949 -3.4107
-12.8988 -2.99986
-12.6173 -1.26645
-14.015 -1.50021
-3.66168 -14.3258
-2.13178 -14.7003
-0.954415 -13.1505
-1.31727 -11.2428
-2.80194 -10.8908
-3.99244 -12.4125
-2.47191 -12.778
-12.895 -12.955
-11.5265 -14.6182
-9.85137 -14.1643
-9.52546 -12.0214
-11.2078 -12.4867
-4.85694 -15.8766
-4.50495 -17.7988
-2.98919 -18.1659
-1.7911 -16.6283
-3.32456 -16.253
-9.84831 -23.6657
-8.72652 -25.0721
-7.36393 -24.7774
-6.95808 -23.0012
-8.39813 -23.3431
-6.80376 -25.7171
-6.39693 -27.2397
-5.22707 -27.4552
-4.28707 -26.2162
-5.55022 -25.977
-7.75007 -31.2758
-7.16753 -32.0694
-6.47992 -31.9929
-6.10873 -31.0625
-6.92462 -31.186
-7.1612 -32.3795
-6.84812 -33.0343
-6.38441 -33.0715
-5.95998 -32.4967
-6.56421 -32.4556
-0.876736 -1.36964
-11.6539 -4.55568
-14.7919 -5.4299
0.55823 -1.54441
-3.11226 -9.07012
-5.64641 -19.3292
-7.10761 -28.4253
-6.96914 -33.4638
-6.20559 -32.664
-6.46471 -26.1462
-8.52529 -15.8307
-11.8375 -16.7135
-9.0129 -26.6596
-7.30712 -32.7647
-6.3221 -33.5044
-4.95689 -28.7888
-2.66391 -20.0383
-0.228958 -9.73204
      </DataArray> 
      <DataArray type="Float64" NumberOfComponents="4" Name="CauchyStress" format="ascii">
-202.476 -41.1291 0 -1.48307
-61.4644 74.2362 0 -79.3774
58.496 246.254 0 4.48395
272.077 40.1845 0 -18.9607
-81.5836 -13.4232 0 31.0574
-2.44826 -0.945624 0 1.05571
55.907 11.113 0 -24.8588
108.615 6.0376 0 -24.7576
130.475 0.664689 0 4.54257
102.584 9.57712 0 30.7049
48.9143 13.4141 0 25.9708
0.598072 -1.79271 0 -5.17235
-157.564 -7.90616 0 27.282
-112.144 -6.09 0 35.3711
-50.1286 -11.3617 0 22.7958
-23.2729 -5.76075 0 12.5019
17.8732 5.21226 0 -9.29957
36.5679 8.46019 0 -18.0561
74.7528 11.3674 0 -28.4177
91.3435 8.06009 0 -28.3183
120.104 2.58466 0 -17.2069
127.014 -0.0103088 0 -6.9302
124.521 1.51434 0 15.5499
115.601 5.45575 0 24.7258
84.6532 11.7093 0 32.4993
68.2084 14.5913 0 30.9006
33.4458 10.1555 0 17.8069
13.9264 5.4516 0 8.28743
-29.0537 -17.7693 0 -8.12815
-70.7511 -23.9073 0 -31.7165
29.358 134.279 0 -105.086
64.2969 215.122 0 -89.669
12.5424 16.5532 0 10.3249
-43.3094 -13.6244 0 -22.636
-87.9186 -8.8412 0 -26.4633
-110.685 -0.783534 0 -3.88222
-93.2022 -5.74379 0 21.3692
-48.7391 -10.9297 0 21.6096
6.36189 0.059025 0 -3.63224
96.9324 14.9632 0 -39.6601
45.0111 11.307 0 23.6391
23.9265 -15.902 0 18.4191
-8.90284 -4.1169 0 -5.66935
-26.0689 -8.30989 0 -14.4509
-58.2674 -12.6 0 -26.7466
-74.3421 -12.5967 0 -28.2494
-98.9976 -5.17191 0 -21.0844
-107.215 -3.0924 0 -13.5205
-109.332 -1.67888 0 6.1544
-102.958 -2.79764 0 14.6085
-80.2704 -9.38263 0 24.7029
-64.3189 -9.81773 0 24.7164
-31.369 -9.00537 0 15.3435
-12.5417 -4.23265 0 6.72281
31.6033 7.93983 0 -15.7772
59.1885 11.2623 0 -27.8752
145.489 11.0996 0 -41.0235
199.116 2.61712 0 -32.8027
70.2667 19.8826 0 -3.89557
-84.1695 -27.4416 0 -0.36147
-9.34873 -1.49998 0 -11.1223
-4.9539 -8.99167 0 19.2338
-6.29283 8.26539 0 -7.84767
-4.40005 7.79288 0 4.36402
-4.34767 6.00069 0 -5.54084
-4.12187 1.40985 0 4.06367
-3.86955 0.667716 0 -4.20819
-3.6788 -3.33278 0 1.85183
-3.54266 -3.71998 0 -1.62442
38.0771 -3.48205 0 1.57824
-42.1614 -3.86761 0 -1.24022
-77.1802 -3.05225 0 0.229858
-41.2572 -4.02525 0 0.940098
36.8895 -3.02648 0 -3.29638
81.4297 -1.8013 0 -1.20913
-3.60215 -4.1264 0 -0.473425
80.5924 -1.18696 0 7.0932
36.0153 -2.27273 0 6.20925
-40.63 -4.21719 0 -3.2867
-76.5061 -3.3872 0 -5.26633
-3.66133 -4.01054 0 0.750031
31.0943 0.334028 0 -10.8085
-35.9745 -3.57241 0 4.81446
-61.0911 -5.31189 0 13.6962
-31.1945 -3.01066 0 4.96378
25.6281 3.05356 0 -12.4436
62.8844 4.64959 0 -19.3666
-3.90739 -1.25709 0 -3.54563
58.6498 7.40968 0 22.5911
23.3135 4.86181 0 13.6408
-29.3836 -3.41688 0 -6.30354
-57.3901 -7.01073 0 -16.6734
-34.3142 -4.09356 0 -6.56325
28.9462 2.07354 0 12.7443
-4.14714 -0.532989 0 3.52089
14.0916 6.80305 0 -12.4645
-20.5513 -0.597325 0 3.29538
-29.426 -4.10609 0 9.71601
-14.6901 1.7909 0 0.483407
7.70035 7.83164 0 -10.3876
27.5991 9.4754 0 -16.8563
-4.23594 4.17124 0 -5.19605
22.9422 10.6735 0 17.2871
5.76629 8.84992 0 10.0056
-13.3254 1.9277 0 -0.791852
-26.3275 -5.93007 0 -10.1277
-18.9121 -0.532336 0 -4.01464
11.7829 8.34109 0 12.3068
-4.46108 4.56008 0 5.12672
-47.7882 -3.90014 0 14.5243
-23.5554 3.17357 0 0.973601
13.2255 10.8025 0 -16.265
46.6178 12.3222 0 -26.7212
22.0917 10.4766 0 -22.4779
-36.232 1.56454 0 1.90714
-7.84009 6.66029 0 -9.67538
-133.12 -7.42348 0 -2.88518
-67.0509 6.056 0 -5.96487
52.2391 -9.32535 0 -26.8776
144.897 3.5633 0 -30.9352
-13.0155 -6.90454 0 -12.9217
-7.57815 15.7891 0 -14.1892
-15.4985 11.951 0 -3.13946
7.31432 17.2294 0 5.14905
14.7516 34.4898 0 3.80462
-1.47047 6.00064 0 12.1086
-5.21377 2.46039 0 7.88148
-5.53465 17.8851 0 -1.84725
73.0379 12.5804 0 -32.8356
36.4609 6.10681 0 -22.5964
-49.0985 -4.02056 0 1.87078
-73.418 -8.18872 0 16.5152
-8.42702 5.10606 0 -11.129
35.0564 61.5792 0 34.2839
14.9016 -12.5647 0 36.4294
-22.334 -3.37329 0 17.1834
-48.4619 9.80428 0 -16.3984
20.7064 45.5484 0 -15.1105
-5.67843 6.41182 0 -5.08207
-2.76062 7.01664 0 -6.61194
8.73571 6.52978 0 -10.2132
4.44983 9.3604 0 -11.7025
-14.2235 5.26928 0 -2.03741
-12.815 2.1739 0 1.00521
-5.1917 8.05311 0 -6.92127
-4.3018 -2.37302 0 2.73264
-8.23514 4.55587 0 2.39105
-0.764409 7.69693 0 6.5734
-4.66761 3.0959 0 5.85186
-4.30011 7.32248 0 7.21168
2.00973 5.26285 0 -5.56931
1.34999 7.42552 0 -7.75306
-8.63102 4.13485 0 -2.7592
-5.05036 2.44502 0 -2.21764
-4.65032 7.22406 0 -6.12316
-36.9365 -7.23194 0 -14.2774
-24.068 -2.70274 0 -5.47867
17.8157 6.61969 0 13.383
35.8933 10.8931 0 20.7252
-4.13425 3.56159 0 4.33862
39.9383 8.56373 0 -19.8264
20.104 4.88107 0 -12.7896
-25.9161 -2.4828 0 4.59395
-40.7864 -6.29825 0 13.2557
-3.82066 2.74807 0 -4.67884
-66.0008 -6.43917 0 -14.9895
-37.882 -4.60474 0 -5.44654
33.0609 -0.598247 0 9.61864
68.3711 3.70498 0 19.4119
-3.74545 -1.81749 0 2.72206
71.9163 1.33674 0 -14.9759
34.6108 -1.87677 0 -7.09255
-39.1125 -4.16902 0 3.38333
-69.0598 -4.81859 0 11.1368
-3.5665 -2.3979 0 -2.61334
-99.4422 -4.20077 0 15.8466
-39.2139 -12.3161 0 -0.587967
22.1095 -12.1737 0 21.127
103.158 3.02609 0 -33.8748
-28.3026 -1.7023 0 8.15374
15.0769 8.11361 0 -12.1217
51.9201 7.1047 0 -21.2926
78.7129 -1.1837 0 -9.0082
76.3054 0.511327 0 14.4341
47.3473 9.83805 0 23.3278
13.1625 9.19884 0 11.2005
-14.6056 -0.0552731 0 -4.23348
-47.4918 -7.97496 0 -16.9656
-72.8612 -4.47402 0 -11.1051
-74.9131 -3.34352 0 6.44156
-51.4631 -6.28688 0 14.9784
-17.587 -1.35431 0 4.78677
25.2229 11.2597 0 -18.7639
      </DataArray> 
    </PointData>
    <CellData>
      <DataArray type="Float64" NumberOfComponents="1" Name="Process" format="ascii">
1
1
3
1
3
0
2
2
0
2
0
2
0
2
0
3
1
3
2
0
0
2
2
3
3
1
1
1
0
0
1
1
3
3
3
2
      </DataArray> 
    </CellData>
  </Piece>
  </UnstructuredGrid>
</VTKFile>
