<?xml version="1.0"?>
<VTKFile type="UnstructuredGrid">
  <UnstructuredGrid>
  <Piece NumberOfPoints="12411"  NumberOfCells="1379">
    <Points>
      <DataArray type="Float64" NumberOfComponents="3" format="ascii">
0 0 0
2.53115 -0.00345065 0
2.53394 4.28455 0
0 4.28571 0
1.26527 -0.00215207 0
2.53285 2.14077 0
1.26703 4.2853 0
0 2.14286 0
1.26655 2.14194 0
2.53115 -0.00345065 0
5.06322 -0.00599016 0
5.06754 4.28235 0
2.53394 4.28455 0
3.79718 -0.00467242 0
5.06549 2.13831 0
3.80076 4.28356 0
2.53285 2.14077 0
3.79916 2.13958 0
5.06322 -0.00599016 0
7.59525 -0.00905427 0
7.6011 4.27933 0
5.06754 4.28235 0
6.32925 -0.00743235 0
7.59821 2.13524 0
6.33432 4.28095 0
5.06549 2.13831 0
6.33184 2.13688 0
7.59525 -0.00905427 0
10.1272 -0.0129984 0
10.1347 4.27539 0
7.6011 4.27933 0
8.86124 -0.010907 0
10.131 2.1313 0
8.86789 4.27748 0
7.59821 2.13524 0
8.86458 2.13339 0
10.1272 -0.0129984 0
12.6592 -0.0179037 0
12.6683 4.27047 0
10.1347 4.27539 0
11.3932 -0.0153275 0
12.6637 2.12639 0
11.4015 4.27306 0
10.131 2.1313 0
11.3974 2.12897 0
12.6592 -0.0179037 0
15.1911 -0.0238255 0
15.2019 4.26454 0
12.6683 4.27047 0
13.9251 -0.0207363 0
15.1965 2.12047 0
13.9351 4.26764 0
12.6637 2.12639 0
13.9301 2.12356 0
15.1911 -0.0238255 0
17.723 -0.0307711 0
17.7356 4.25758 0
15.2019 4.26454 0
16.4571 -0.02717 0
17.7293 2.11351 0
16.4688 4.26119 0
15.1965 2.12047 0
16.4629 2.11712 0
17.723 -0.0307711 0
20.255 -0.0387472 0
20.2693 4.24958 0
17.7356 4.25758 0
18.989 -0.0346304 0
20.2622 2.10553 0
19.0025 4.25371 0
17.7293 2.11351 0
18.9958 2.10965 0
20.255 -0.0387472 0
22.787 -0.0477497 0
22.803 4.24056 0
20.2693 4.24958 0
21.521 -0.0431204 0
22.795 2.09651 0
21.5362 4.2452 0
20.2622 2.10553 0
21.5286 2.10115 0
22.787 -0.0477497 0
25.319 -0.057775 0
25.3368 4.23051 0
22.803 4.24056 0
24.053 -0.0526348 0
25.3279 2.08648 0
24.0699 4.23566 0
22.795 2.09651 0
24.0615 2.09162 0
25.319 -0.057775 0
27.851 -0.0688174 0
27.8705 4.21945 0
25.3368 4.23051 0
26.585 -0.0631694 0
27.8608 2.07542 0
26.6036 4.22511 0
25.3279 2.08648 0
26.5943 2.08108 0
27.851 -0.0688174 0
30.3831 -0.0808713 0
30.4043 4.20737 0
27.8705 4.21945 0
29.1171 -0.0747182 0
30.3937 2.06336 0
29.1374 4.21354 0
27.8608 2.07542 0
29.1273 2.06952 0
30.3831 -0.0808713 0
32.9152 -0.0939312 0
32.9381 4.19429 0
30.4043 4.20737 0
31.6491 -0.0872759 0
32.9267 2.05029 0
31.6712 4.20096 0
30.3937 2.06336 0
31.6602 2.05695 0
32.9152 -0.0939312 0
35.4473 -0.107991 0
35.4719 4.18021 0
32.9381 4.19429 0
34.1813 -0.100837 0
35.4596 2.03622 0
34.205 4.18737 0
32.9267 2.05029 0
34.1931 2.04338 0
35.4473 -0.107991 0
37.9795 -0.123046 0
38.0057 4.16513 0
35.4719 4.18021 0
36.7134 -0.115395 0
37.9926 2.02115 0
36.7388 4.17279 0
35.4596 2.03622 0
36.7261 2.02881 0
37.9795 -0.123046 0
40.5116 -0.139091 0
40.5395 4.14906 0
38.0057 4.16513 0
39.2455 -0.130945 0
40.5256 2.00509 0
39.2726 4.15722 0
37.9926 2.02115 0
39.2591 2.01324 0
40.5116 -0.139091 0
43.0438 -0.156119 0
43.0734 4.13201 0
40.5395 4.14906 0
41.7777 -0.147482 0
43.0586 1.98805 0
41.8065 4.14066 0
40.5256 2.00509 0
41.7921 1.99669 0
43.0438 -0.156119 0
45.576 -0.174126 0
45.6073 4.11397 0
43.0734 4.13201 0
44.3099 -0.165 0
45.5917 1.97003 0
44.3403 4.12311 0
43.0586 1.98805 0
44.3252 1.97916 0
45.576 -0.174126 0
48.1083 -0.193106 0
48.1412 4.09497 0
45.6073 4.11397 0
46.8422 -0.183494 0
48.1248 1.95104 0
46.8742 4.10459 0
45.5917 1.97003 0
46.8582 1.96065 0
48.1083 -0.193106 0
50.6406 -0.213053 0
50.6751 4.07499 0
48.1412 4.09497 0
49.3744 -0.202959 0
50.6578 1.93107 0
49.4081 4.0851 0
48.1248 1.95104 0
49.3913 1.94118 0
50.6406 -0.213053 0
53.1729 -0.233962 0
53.209 4.05406 0
50.6751 4.07499 0
51.9067 -0.223388 0
53.1909 1.91015 0
51.942 4.06465 0
50.6578 1.93107 0
51.9244 1.92073 0
53.1729 -0.233962 0
55.7052 -0.255829 0
55.7429 4.03216 0
53.209 4.05406 0
54.439 -0.244776 0
55.7241 1.88827 0
54.476 4.04323 0
53.1909 1.91015 0
54.4575 1.89933 0
55.7052 -0.255829 0
58.2375 -0.278647 0
58.2769 4.00932 0
55.7429 4.03216 0
56.9714 -0.267119 0
58.2572 1.86544 0
57.0099 4.02086 0
55.7241 1.88827 0
56.9906 1.87697 0
58.2375 -0.278647 0
60.7699 -0.30241 0
60.8108 3.98552 0
58.2769 4.00932 0
59.5037 -0.29041 0
60.7904 1.84166 0
59.5439 3.99754 0
58.2572 1.86544 0
59.5238 1.85367 0
60.7699 -0.30241 0
63.3023 -0.327114 0
63.3448 3.96079 0
60.8108 3.98552 0
62.0361 -0.314645 0
63.3236 1.81694 0
62.0778 3.97327 0
60.7904 1.84166 0
62.057 1.82942 0
63.3023 -0.327114 0
65.8347 -0.352754 0
65.8788 3.93512 0
63.3448 3.96079 0
64.5685 -0.339817 0
65.8568 1.79128 0
64.6118 3.94807 0
63.3236 1.81694 0
64.5902 1.80423 0
65.8347 -0.352754 0
68.3671 -0.379323 0
68.4128 3.90852 0
65.8788 3.93512 0
67.1009 -0.365922 0
68.39 1.7647 0
67.1458 3.92194 0
65.8568 1.79128 0
67.1234 1.77811 0
68.3671 -0.379323 0
70.8996 -0.406816 0
70.9468 3.881 0
68.4128 3.90852 0
69.6334 -0.392954 0
70.9232 1.73719 0
69.6798 3.89488 0
68.39 1.7647 0
69.6566 1.75106 0
70.8996 -0.406816 0
73.4321 -0.435228 0
73.4809 3.85255 0
70.9468 3.881 0
72.1658 -0.420907 0
73.4565 1.70876 0
72.2139 3.86689 0
70.9232 1.73719 0
72.1899 1.72309 0
73.4321 -0.435228 0
75.9646 -0.464554 0
76.0149 3.8232 0
73.4809 3.85255 0
74.6983 -0.449777 0
75.9898 1.67942 0
74.7479 3.83799 0
73.4565 1.70876 0
74.7231 1.6942 0
75.9646 -0.464554 0
78.4971 -0.494787 0
78.549 3.79293 0
76.0149 3.8232 0
77.2309 -0.479557 0
78.5231 1.64917 0
77.2819 3.80818 0
75.9898 1.67942 0
77.2564 1.66441 0
78.4971 -0.494787 0
81.0297 -0.525923 0
81.083 3.76176 0
78.549 3.79293 0
79.7634 -0.510243 0
81.0564 1.61802 0
79.816 3.77746 0
78.5231 1.64917 0
79.7897 1.6337 0
81.0297 -0.525923 0
83.5622 -0.557957 0
83.6171 3.7297 0
81.083 3.76176 0
82.2959 -0.541828 0
83.5897 1.58597 0
82.3501 3.74584 0
81.0564 1.61802 0
82.323 1.6021 0
83.5622 -0.557957 0
86.0948 -0.590882 0
86.1512 3.69674 0
83.6171 3.7297 0
84.8285 -0.574308 0
86.123 1.55302 0
84.8842 3.71333 0
83.5897 1.58597 0
84.8564 1.56961 0
86.0948 -0.590882 0
88.6274 -0.624693 0
88.6853 3.66289 0
86.1512 3.69674 0
87.3611 -0.607677 0
88.6564 1.51919 0
87.4183 3.67993 0
86.123 1.55302 0
87.3897 1.53622 0
88.6274 -0.624693 0
91.1601 -0.659386 0
91.2194 3.62817 0
88.6853 3.66289 0
89.8937 -0.64193 0
91.1898 1.48448 0
89.9524 3.64564 0
88.6564 1.51919 0
89.9231 1.50195 0
91.1601 -0.659386 0
93.6927 -0.694954 0
93.7536 3.59256 0
91.2194 3.62817 0
92.4264 -0.677061 0
93.7232 1.4489 0
92.4865 3.61047 0
91.1898 1.48448 0
92.4565 1.4668 0
93.6927 -0.694954 0
96.2254 -0.731392 0
96.2877 3.55609 0
93.7536 3.59256 0
94.959 -0.713064 0
96.2566 1.41244 0
95.0206 3.57443 0
93.7232 1.4489 0
94.9899 1.43078 0
96.2254 -0.731392 0
98.7581 -0.768694 0
98.8219 3.51875 0
96.2877 3.55609 0
97.4917 -0.749935 0
98.79 1.37512 0
97.5548 3.53753 0
96.2566 1.41244 0
97.5233 1.39389 0
98.7581 -0.768694 0
101.291 -0.806856 0
101.356 3.48055 0
98.8219 3.51875 0
100.024 -0.787668 0
101.323 1.33694 0
100.089 3.49976 0
98.79 1.37512 0
100.057 1.35614 0
101.291 -0.806856 0
103.824 -0.845872 0
103.89 3.4415 0
101.356 3.48055 0
102.557 -0.826258 0
103.857 1.29791 0
102.623 3.46113 0
101.323 1.33694 0
102.59 1.31753 0
103.824 -0.845872 0
106.356 -0.885736 0
106.424 3.4016 0
103.89 3.4415 0
105.09 -0.865698 0
106.39 1.25802 0
105.157 3.42166 0
103.857 1.29791 0
105.124 1.27807 0
106.356 -0.885736 0
108.889 -0.926443 0
108.959 3.36086 0
106.424 3.4016 0
107.623 -0.905985 0
108.924 1.2173 0
107.691 3.38133 0
106.39 1.25802 0
107.657 1.23776 0
108.889 -0.926443 0
111.422 -0.967988 0
111.493 3.31928 0
108.959 3.36086 0
110.155 -0.947111 0
111.457 1.17573 0
110.226 3.34017 0
108.924 1.2173 0
110.191 1.19662 0
111.422 -0.967988 0
113.955 -1.01037 0
114.027 3.27686 0
111.493 3.31928 0
112.688 -0.989073 0
113.991 1.13334 0
112.76 3.29817 0
111.457 1.17573 0
112.724 1.15464 0
113.955 -1.01037 0
116.487 -1.05357 0
116.561 3.23362 0
114.027 3.27686 0
115.221 -1.03186 0
116.524 1.09011 0
115.294 3.25534 0
113.991 1.13334 0
115.258 1.11183 0
116.487 -1.05357 0
119.02 -1.09759 0
119.095 3.18956 0
116.561 3.23362 0
117.754 -1.07548 0
119.058 1.04607 0
117.828 3.21169 0
116.524 1.09011 0
117.791 1.06819 0
119.02 -1.09759 0
121.553 -1.14243 0
121.63 3.14468 0
119.095 3.18956 0
120.287 -1.11991 0
121.591 1.00121 0
120.363 3.16722 0
119.058 1.04607 0
120.325 1.02374 0
121.553 -1.14243 0
124.086 -1.18809 0
124.164 3.09899 0
121.63 3.14468 0
122.82 -1.16516 0
124.125 0.955537 0
122.897 3.12193 0
121.591 1.00121 0
122.858 0.978474 0
124.086 -1.18809 0
126.619 -1.23454 0
126.698 3.05249 0
124.164 3.09899 0
125.352 -1.21121 0
126.659 0.909061 0
125.431 3.07584 0
124.125 0.955537 0
125.392 0.932399 0
126.619 -1.23454 0
129.152 -1.2818 0
129.232 3.0052 0
126.698 3.05249 0
127.885 -1.25807 0
129.192 0.861785 0
127.965 3.02895 0
126.659 0.909061 0
127.925 0.885523 0
129.152 -1.2818 0
131.685 -1.32985 0
131.767 2.95711 0
129.232 3.0052 0
130.418 -1.30572 0
131.726 0.813715 0
130.5 2.98125 0
129.192 0.861785 0
130.459 0.837849 0
131.685 -1.32985 0
134.218 -1.37869 0
134.301 2.90823 0
131.767 2.95711 0
132.951 -1.35417 0
134.259 0.764855 0
133.034 2.93277 0
131.726 0.813715 0
132.993 0.789383 0
134.218 -1.37869 0
136.751 -1.42831 0
136.835 2.85857 0
134.301 2.90823 0
135.484 -1.4034 0
136.793 0.715213 0
135.568 2.8835 0
134.259 0.764855 0
135.526 0.740132 0
136.751 -1.42831 0
139.284 -1.47871 0
139.369 2.80813 0
136.835 2.85857 0
138.017 -1.45341 0
139.327 0.664792 0
138.102 2.83344 0
136.793 0.715213 0
138.06 0.690099 0
139.284 -1.47871 0
141.817 -1.52988 0
141.904 2.75692 0
139.369 2.80813 0
140.55 -1.5042 0
141.86 0.613599 0
140.637 2.78262 0
139.327 0.664792 0
140.593 0.639291 0
141.817 -1.52988 0
144.35 -1.58182 0
144.438 2.70493 0
141.904 2.75692 0
143.083 -1.55576 0
144.394 0.561638 0
143.171 2.73102 0
141.86 0.613599 0
143.127 0.587714 0
144.35 -1.58182 0
146.883 -1.63452 0
146.972 2.65219 0
144.438 2.70493 0
145.616 -1.60808 0
146.928 0.508916 0
145.705 2.67866 0
144.394 0.561638 0
145.661 0.535372 0
146.883 -1.63452 0
149.416 -1.68798 0
149.507 2.59869 0
146.972 2.65219 0
148.149 -1.66116 0
149.461 0.455437 0
148.24 2.62554 0
146.928 0.508916 0
148.194 0.482271 0
149.416 -1.68798 0
151.949 -1.74219 0
152.041 2.54445 0
149.507 2.59869 0
150.682 -1.71499 0
151.995 0.401208 0
150.774 2.57166 0
149.461 0.455437 0
150.728 0.428416 0
151.949 -1.74219 0
154.482 -1.79714 0
154.575 2.48945 0
152.041 2.54445 0
153.215 -1.76957 0
154.529 0.346233 0
153.308 2.51704 0
151.995 0.401208 0
153.262 0.373813 0
154.482 -1.79714 0
157.015 -1.85284 0
157.11 2.43371 0
154.575 2.48945 0
155.748 -1.8249 0
157.062 0.290518 0
155.843 2.46167 0
154.529 0.346233 0
155.796 0.318467 0
157.015 -1.85284 0
159.548 -1.90926 0
159.644 2.37725 0
157.11 2.43371 0
158.282 -1.88096 0
159.596 0.234068 0
158.377 2.40557 0
157.062 0.290518 0
158.329 0.262384 0
159.548 -1.90926 0
162.081 -1.96642 0
162.178 2.32005 0
159.644 2.37725 0
160.815 -1.93775 0
162.13 0.176889 0
160.911 2.34874 0
159.596 0.234068 0
160.863 0.205569 0
162.081 -1.96642 0
164.614 -2.0243 0
164.713 2.26212 0
162.178 2.32005 0
163.348 -1.99527 0
164.664 0.118987 0
163.446 2.29117 0
162.13 0.176889 0
163.397 0.148028 0
164.614 -2.0243 0
167.147 -2.0829 0
167.247 2.20348 0
164.713 2.26212 0
165.881 -2.05351 0
167.197 0.0603657 0
165.98 2.23289 0
164.664 0.118987 0
165.93 0.0897656 0
167.147 -2.0829 0
169.681 -2.14221 0
169.782 2.14413 0
167.247 2.20348 0
168.414 -2.11247 0
169.731 0.00103184 0
168.514 2.17389 0
167.197 0.0603657 0
168.464 0.0307875 0
169.681 -2.14221 0
172.214 -2.20223 0
172.316 2.08407 0
169.782 2.14413 0
170.947 -2.17214 0
172.265 -0.0590094 0
171.049 2.11418 0
169.731 0.00103184 0
170.998 -0.0289007 0
172.214 -2.20223 0
174.747 -2.26296 0
174.85 2.0233 0
172.316 2.08407 0
173.48 -2.23251 0
174.799 -0.119753 0
173.583 2.05377 0
172.265 -0.0590094 0
173.532 -0.0892937 0
174.747 -2.26296 0
177.28 -2.32437 0
177.385 1.96184 0
174.85 2.0233 0
176.014 -2.29358 0
177.333 -0.181193 0
176.117 1.99266 0
174.799 -0.119753 0
176.066 -0.150386 0
177.28 -2.32437 0
179.814 -2.38648 0
179.919 1.89969 0
177.385 1.96184 0
178.547 -2.35534 0
179.866 -0.243324 0
178.652 1.93085 0
177.333 -0.181193 0
178.599 -0.212172 0
179.814 -2.38648 0
182.347 -2.44928 0
182.454 1.83685 0
179.919 1.89969 0
181.08 -2.4178 0
182.4 -0.306141 0
181.186 1.86836 0
179.866 -0.243324 0
181.133 -0.274647 0
182.347 -2.44928 0
184.88 -2.51275 0
184.988 1.77333 0
182.454 1.83685 0
183.613 -2.48093 0
184.934 -0.369638 0
183.721 1.80518 0
182.4 -0.306141 0
183.667 -0.337805 0
184.88 -2.51275 0
187.413 -2.5769 0
187.522 1.70914 0
184.988 1.77333 0
186.147 -2.54474 0
187.468 -0.43381 0
186.255 1.74132 0
184.934 -0.369638 0
186.201 -0.40164 0
187.413 -2.5769 0
189.947 -2.64172 0
190.057 1.64428 0
187.522 1.70914 0
188.68 -2.60923 0
190.002 -0.498652 0
188.79 1.67679 0
187.468 -0.43381 0
188.735 -0.466148 0
189.947 -2.64172 0
192.48 -2.70721 0
192.591 1.57875 0
190.057 1.64428 0
191.213 -2.67438 0
192.536 -0.564157 0
191.324 1.6116 0
190.002 -0.498652 0
191.269 -0.531322 0
192.48 -2.70721 0
195.013 -2.77335 0
195.126 1.51257 0
192.591 1.57875 0
193.747 -2.7402 0
195.069 -0.630322 0
193.858 1.54574 0
192.536 -0.564157 0
193.803 -0.597158 0
195.013 -2.77335 0
197.547 -2.84014 0
197.66 1.44573 0
195.126 1.51257 0
196.28 -2.80667 0
197.603 -0.697139 0
196.393 1.47923 0
195.069 -0.630322 0
196.336 -0.663649 0
197.547 -2.84014 0
200.08 -2.90759 0
200.195 1.37824 0
197.66 1.44573 0
198.813 -2.87379 0
200.137 -0.764604 0
198.927 1.41207 0
197.603 -0.697139 0
198.87 -0.730791 0
200.08 -2.90759 0
202.613 -2.97567 0
202.729 1.31011 0
200.195 1.37824 0
201.347 -2.94155 0
202.671 -0.832712 0
201.462 1.34426 0
200.137 -0.764604 0
201.404 -0.798578 0
202.613 -2.97567 0
205.147 -3.0444 0
205.263 1.24135 0
202.729 1.31011 0
203.88 -3.00996 0
205.205 -0.901456 0
203.996 1.27581 0
202.671 -0.832712 0
203.938 -0.867005 0
205.147 -3.0444 0
207.68 -3.11375 0
207.798 1.17195 0
205.263 1.24135 0
206.413 -3.07899 0
207.739 -0.970832 0
206.531 1.20673 0
205.205 -0.901456 0
206.472 -0.936066 0
207.68 -3.11375 0
210.214 -3.18373 0
210.332 1.10193 0
207.798 1.17195 0
208.947 -3.14866 0
210.273 -1.04083 0
209.065 1.13702 0
207.739 -0.970832 0
209.006 -1.00576 0
210.214 -3.18373 0
212.747 -3.25433 0
212.867 1.03129 0
210.332 1.10193 0
211.48 -3.21895 0
212.807 -1.11146 0
211.6 1.06668 0
210.273 -1.04083 0
211.54 -1.07607 0
212.747 -3.25433 0
215.28 -3.32555 0
215.401 0.960027 0
212.867 1.03129 0
214.014 -3.28986 0
215.341 -1.18269 0
214.134 0.995733 0
212.807 -1.11146 0
214.074 -1.147 0
215.28 -3.32555 0
217.814 -3.39737 0
217.936 0.888159 0
215.401 0.960027 0
216.547 -3.36138 0
217.875 -1.25454 0
216.669 0.924169 0
215.341 -1.18269 0
216.608 -1.21854 0
217.814 -3.39737 0
220.347 -3.4698 0
220.47 0.815686 0
217.936 0.888159 0
219.081 -3.43351 0
220.409 -1.32699 0
219.203 0.851998 0
217.875 -1.25454 0
219.142 -1.29069 0
220.347 -3.4698 0
222.881 -3.54283 0
223.005 0.742615 0
220.47 0.815686 0
221.614 -3.50624 0
222.943 -1.40004 0
221.738 0.779225 0
220.409 -1.32699 0
221.676 -1.36344 0
222.881 -3.54283 0
225.414 -3.61645 0
225.539 0.66895 0
223.005 0.742615 0
224.148 -3.57957 0
225.477 -1.47369 0
224.272 0.705856 0
222.943 -1.40004 0
224.21 -1.43679 0
225.414 -3.61645 0
227.948 -3.69066 0
228.074 0.594697 0
225.539 0.66895 0
226.681 -3.65348 0
228.011 -1.54792 0
226.807 0.631896 0
225.477 -1.47369 0
226.744 -1.51073 0
227.948 -3.69066 0
230.481 -3.76545 0
230.608 0.519861 0
228.074 0.594697 0
229.215 -3.72799 0
230.545 -1.62274 0
229.341 0.557351 0
228.011 -1.54792 0
229.278 -1.58526 0
230.481 -3.76545 0
233.015 -3.84082 0
233.143 0.444448 0
230.608 0.519861 0
231.748 -3.80307 0
233.079 -1.69813 0
231.876 0.482226 0
230.545 -1.62274 0
231.812 -1.66036 0
233.015 -3.84082 0
235.549 -3.91677 0
235.677 0.368464 0
233.143 0.444448 0
234.282 -3.87872 0
235.613 -1.77409 0
234.41 0.406527 0
233.079 -1.69813 0
234.346 -1.73604 0
235.549 -3.91677 0
238.082 -3.99327 0
238.212 0.291913 0
235.677 0.368464 0
236.815 -3.95495 0
238.147 -1.85062 0
236.945 0.330259 0
235.613 -1.77409 0
236.88 -1.81229 0
238.082 -3.99327 0
240.616 -4.07034 0
240.746 0.214801 0
238.212 0.291913 0
239.349 -4.03174 0
240.681 -1.92771 0
239.479 0.253427 0
238.147 -1.85062 0
239.414 -1.8891 0
240.616 -4.07034 0
243.149 -4.14797 0
243.281 0.137134 0
240.746 0.214801 0
241.883 -4.10909 0
243.215 -2.00536 0
242.014 0.176037 0
240.681 -1.92771 0
241.948 -1.96647 0
243.149 -4.14797 0
245.683 -4.22614 0
245.816 0.0589174 0
243.281 0.137134 0
244.416 -4.18699 0
245.749 -2.08355 0
244.548 0.0980943 0
243.215 -2.00536 0
244.482 -2.04439 0
245.683 -4.22614 0
248.217 -4.30486 0
248.35 -0.0198441 0
245.816 0.0589174 0
246.95 -4.26543 0
248.283 -2.1623 0
247.083 0.0196044 0
245.749 -2.08355 0
247.016 -2.12286 0
248.217 -4.30486 0
250.75 -4.38412 0
250.885 -0.0991447 0
248.35 -0.0198441 0
249.483 -4.34442 0
250.818 -2.24158 0
249.617 -0.0594273 0
248.283 -2.1623 0
249.55 -2.20187 0
250.75 -4.38412 0
253.284 -4.46391 0
253.419 -0.178979 0
250.885 -0.0991447 0
252.017 -4.42395 0
253.352 -2.32139 0
252.152 -0.138995 0
250.818 -2.24158 0
252.085 -2.28142 0
253.284 -4.46391 0
255.818 -4.54423 0
255.954 -0.259342 0
253.419 -0.178979 0
254.551 -4.50401 0
255.886 -2.40173 0
254.687 -0.219095 0
253.352 -2.32139 0
254.619 -2.36149 0
255.818 -4.54423 0
258.351 -4.62508 0
258.488 -0.340227 0
255.954 -0.259342 0
257.085 -4.58459 0
258.42 -2.4826 0
257.221 -0.299719 0
255.886 -2.40173 0
257.153 -2.4421 0
258.351 -4.62508 0
260.885 -4.70644 0
261.023 -0.42163 0
258.488 -0.340227 0
259.618 -4.66569 0
260.954 -2.56398 0
259.756 -0.380864 0
258.42 -2.4826 0
259.687 -2.52322 0
260.885 -4.70644 0
263.419 -4.78831 0
263.558 -0.503544 0
261.023 -0.42163 0
262.152 -4.74731 0
263.488 -2.64587 0
262.29 -0.462523 0
260.954 -2.56398 0
262.221 -2.60486 0
263.419 -4.78831 0
265.953 -4.87069 0
266.092 -0.585965 0
263.558 -0.503544 0
264.686 -4.82944 0
266.022 -2.72827 0
264.825 -0.544692 0
263.488 -2.64587 0
264.755 -2.68701 0
265.953 -4.87069 0
268.486 -4.95357 0
268.627 -0.668888 0
266.092 -0.585965 0
267.219 -4.91207 0
268.557 -2.81118 0
267.36 -0.627364 0
266.022 -2.72827 0
267.29 -2.76966 0
268.486 -4.95357 0
271.02 -5.03695 0
271.161 -0.752306 0
268.627 -0.668888 0
269.753 -4.9952 0
271.091 -2.89457 0
269.894 -0.710535 0
268.557 -2.81118 0
269.824 -2.85281 0
271.02 -5.03695 0
273.554 -5.12081 0
273.696 -0.836214 0
271.161 -0.752306 0
272.287 -5.07882 0
273.625 -2.97846 0
272.429 -0.794199 0
271.091 -2.89457 0
272.358 -2.93646 0
273.554 -5.12081 0
276.088 -5.20517 0
276.231 -0.920607 0
273.696 -0.836214 0
274.821 -5.16293 0
276.159 -3.06284 0
274.963 -0.87835 0
273.625 -2.97846 0
274.892 -3.02059 0
276.088 -5.20517 0
278.622 -5.29 0
278.765 -1.00548 0
276.231 -0.920607 0
277.355 -5.24752 0
278.694 -3.14769 0
277.498 -0.962983 0
276.159 -3.06284 0
277.426 -3.1052 0
278.622 -5.29 0
281.155 -5.3753 0
281.3 -1.09082 0
278.765 -1.00548 0
279.889 -5.33259 0
281.228 -3.23301 0
280.033 -1.04809 0
278.694 -3.14769 0
279.961 -3.19029 0
281.155 -5.3753 0
283.689 -5.46108 0
283.835 -1.17664 0
281.3 -1.09082 0
282.422 -5.41813 0
283.762 -3.31881 0
282.567 -1.13367 0
281.228 -3.23301 0
282.495 -3.27585 0
283.689 -5.46108 0
286.223 -5.54731 0
286.369 -1.26292 0
283.835 -1.17664 0
284.956 -5.50414 0
286.296 -3.40507 0
285.102 -1.21972 0
283.762 -3.31881 0
285.029 -3.36188 0
286.223 -5.54731 0
288.757 -5.63401 0
288.904 -1.34965 0
286.369 -1.26292 0
287.49 -5.5906 0
288.831 -3.49178 0
287.637 -1.30623 0
286.296 -3.40507 0
287.563 -3.44837 0
288.757 -5.63401 0
291.291 -5.72116 0
291.439 -1.43684 0
288.904 -1.34965 0
290.024 -5.67753 0
291.365 -3.57895 0
290.171 -1.39319 0
288.831 -3.49178 0
290.098 -3.53531 0
291.291 -5.72116 0
293.825 -5.80875 0
293.973 -1.52447 0
291.439 -1.43684 0
292.558 -5.7649 0
293.899 -3.66657 0
292.706 -1.4806 0
291.365 -3.57895 0
292.632 -3.6227 0
293.825 -5.80875 0
296.359 -5.89679 0
296.508 -1.61255 0
293.973 -1.52447 0
295.092 -5.85271 0
296.434 -3.75462 0
295.241 -1.56846 0
293.899 -3.66657 0
295.166 -3.71054 0
296.359 -5.89679 0
298.893 -5.98526 0
299.043 -1.70106 0
296.508 -1.61255 0
297.626 -5.94097 0
298.968 -3.84311 0
297.775 -1.65675 0
296.434 -3.75462 0
297.701 -3.79881 0
298.893 -5.98526 0
301.427 -6.07416 0
301.577 -1.79 0
299.043 -1.70106 0
300.16 -6.02966 0
301.502 -3.93204 0
300.31 -1.74548 0
298.968 -3.84311 0
300.235 -3.88752 0
301.427 -6.07416 0
303.961 -6.16349 0
304.112 -1.87937 0
301.577 -1.79 0
302.694 -6.11877 0
304.037 -4.02138 0
302.845 -1.83463 0
301.502 -3.93204 0
302.769 -3.97666 0
303.961 -6.16349 0
306.495 -6.25324 0
306.647 -1.96916 0
304.112 -1.87937 0
305.228 -6.20831 0
306.571 -4.11115 0
305.38 -1.92421 0
304.037 -4.02138 0
305.304 -4.06622 0
306.495 -6.25324 0
309.029 -6.3434 0
309.182 -2.05936 0
306.647 -1.96916 0
307.762 -6.29826 0
309.105 -4.20133 0
307.914 -2.0142 0
306.571 -4.11115 0
307.838 -4.15619 0
309.029 -6.3434 0
311.563 -6.43397 0
311.716 -2.14997 0
309.182 -2.05936 0
310.296 -6.38863 0
311.64 -4.29192 0
310.449 -2.10461 0
309.105 -4.20133 0
310.373 -4.24658 0
311.563 -6.43397 0
314.097 -6.52494 0
314.251 -2.24098 0
311.716 -2.14997 0
312.83 -6.4794 0
314.174 -4.38292 0
312.984 -2.19542 0
311.64 -4.29192 0
312.907 -4.33737 0
314.097 -6.52494 0
316.631 -6.61631 0
316.786 -2.33239 0
314.251 -2.24098 0
315.364 -6.57058 0
316.709 -4.47431 0
315.518 -2.28663 0
314.174 -4.38292 0
315.441 -4.42856 0
316.631 -6.61631 0
319.165 -6.70808 0
319.321 -2.42419 0
316.786 -2.33239 0
317.898 -6.66215 0
319.243 -4.56609 0
318.053 -2.37824 0
316.709 -4.47431 0
317.976 -4.52015 0
319.165 -6.70808 0
321.699 -6.80023 0
321.855 -2.51638 0
319.321 -2.42419 0
320.432 -6.75411 0
321.777 -4.65827 0
320.588 -2.47024 0
319.243 -4.56609 0
320.51 -4.61213 0
321.699 -6.80023 0
324.234 -6.89277 0
324.39 -2.60895 0
321.855 -2.51638 0
322.966 -6.84645 0
324.312 -4.75082 0
323.123 -2.56262 0
321.777 -4.65827 0
323.045 -4.70449 0
324.234 -6.89277 0
326.768 -6.98568 0
326.925 -2.7019 0
324.39 -2.60895 0
325.501 -6.93917 0
326.846 -4.84375 0
325.658 -2.65538 0
324.312 -4.75082 0
325.579 -4.79724 0
326.768 -6.98568 0
329.302 -7.07896 0
329.46 -2.79522 0
326.925 -2.7019 0
328.035 -7.03227 0
329.381 -4.93705 0
328.192 -2.74851 0
326.846 -4.84375 0
328.114 -4.89035 0
329.302 -7.07896 0
331.836 -7.1726 0
331.995 -2.8889 0
329.46 -2.79522 0
330.569 -7.12573 0
331.915 -5.03071 0
330.727 -2.84201 0
329.381 -4.93705 0
330.648 -4.98384 0
331.836 -7.1726 0
334.37 -7.26661 0
334.529 -2.98294 0
331.995 -2.8889 0
333.103 -7.21956 0
334.45 -5.12474 0
333.262 -2.93588 0
331.915 -5.03071 0
333.183 -5.07768 0
334.37 -7.26661 0
336.905 -7.36097 0
337.064 -3.07734 0
334.529 -2.98294 0
335.637 -7.31375 0
336.984 -5.21912 0
335.797 -3.0301 0
334.45 -5.12474 0
335.717 -5.17188 0
336.905 -7.36097 0
339.439 -7.45568 0
339.599 -3.17209 0
337.064 -3.07734 0
338.172 -7.40828 0
339.519 -5.31385 0
338.332 -3.12467 0
336.984 -5.21912 0
338.252 -5.26644 0
339.439 -7.45568 0
341.973 -7.55074 0
342.134 -3.26718 0
339.599 -3.17209 0
340.706 -7.50317 0
342.054 -5.40892 0
340.867 -3.21959 0
339.519 -5.31385 0
340.786 -5.36134 0
341.973 -7.55074 0
344.507 -7.64613 0
344.669 -3.3626 0
342.134 -3.26718 0
343.24 -7.59839 0
344.588 -5.50433 0
343.401 -3.31485 0
342.054 -5.40892 0
343.321 -5.45658 0
344.507 -7.64613 0
347.042 -7.74185 0
347.204 -3.45836 0
344.669 -3.3626 0
345.775 -7.69395 0
347.123 -5.60007 0
345.936 -3.41044 0
344.588 -5.50433 0
345.855 -5.55216 0
347.042 -7.74185 0
349.576 -7.83791 0
349.739 -3.55445 0
347.204 -3.45836 0
348.309 -7.78984 0
349.657 -5.69614 0
348.471 -3.50637 0
347.123 -5.60007 0
348.39 -5.64807 0
349.576 -7.83791 0
352.11 -7.93428 0
352.273 -3.65086 0
349.739 -3.55445 0
350.843 -7.88605 0
352.192 -5.79254 0
351.006 -3.60262 0
349.657 -5.69614 0
350.925 -5.7443 0
352.11 -7.93428 0
354.645 -8.03097 0
354.808 -3.74759 0
352.273 -3.65086 0
353.378 -7.98259 0
354.727 -5.88925 0
353.541 -3.69918 0
352.192 -5.79254 0
353.459 -5.84085 0
354.645 -8.03097 0
357.179 -8.12797 0
357.343 -3.84462 0
354.808 -3.74759 0
355.912 -8.07943 0
357.261 -5.98627 0
356.076 -3.79607 0
354.727 -5.88925 0
355.994 -5.93772 0
357.179 -8.12797 0
359.714 -8.22528 0
359.878 -3.94196 0
357.343 -3.84462 0
358.446 -8.17659 0
359.796 -6.08359 0
358.611 -3.89325 0
357.261 -5.98627 0
358.529 -6.03489 0
359.714 -8.22528 0
362.248 -8.32289 0
362.413 -4.03961 0
359.878 -3.94196 0
360.981 -8.27405 0
362.331 -6.18122 0
361.146 -3.99075 0
359.796 -6.08359 0
361.063 -6.13237 0
362.248 -8.32289 0
364.783 -8.4208 0
364.948 -4.13754 0
362.413 -4.03961 0
363.515 -8.37181 0
364.865 -6.27914 0
363.681 -4.08854 0
362.331 -6.18122 0
363.598 -6.23014 0
364.783 -8.4208 0
367.317 -8.51899 0
367.483 -4.23577 0
364.948 -4.13754 0
366.05 -8.46986 0
367.4 -6.37735 0
366.216 -4.18662 0
364.865 -6.27914 0
366.133 -6.32821 0
367.317 -8.51899 0
369.852 -8.61746 0
370.018 -4.33428 0
367.483 -4.23577 0
368.584 -8.56819 0
369.935 -6.47584 0
368.751 -4.28499 0
367.4 -6.37735 0
368.667 -6.42656 0
369.852 -8.61746 0
372.386 -8.71622 0
372.553 -4.43306 0
370.018 -4.33428 0
371.119 -8.66681 0
372.47 -6.57461 0
371.286 -4.38364 0
369.935 -6.47584 0
371.202 -6.52519 0
372.386 -8.71622 0
374.921 -8.81525 0
375.088 -4.53212 0
372.553 -4.43306 0
373.653 -8.7657 0
375.004 -6.67366 0
373.821 -4.48256 0
372.47 -6.57461 0
373.737 -6.6241 0
374.921 -8.81525 0
377.455 -8.91455 0
377.623 -4.63145 0
375.088 -4.53212 0
376.188 -8.86486 0
377.539 -6.77297 0
376.356 -4.58176 0
375.004 -6.67366 0
376.272 -6.72328 0
377.455 -8.91455 0
379.99 -9.0141 0
380.158 -4.73104 0
377.623 -4.63145 0
378.722 -8.96429 0
380.074 -6.87255 0
378.891 -4.68121 0
377.539 -6.77297 0
378.807 -6.82273 0
379.99 -9.0141 0
382.524 -9.11392 0
382.693 -4.83089 0
380.158 -4.73104 0
381.257 -9.06398 0
382.609 -6.97238 0
381.426 -4.78093 0
380.074 -6.87255 0
381.341 -6.92243 0
382.524 -9.11392 0
385.059 -9.21399 0
385.228 -4.93099 0
382.693 -4.83089 0
383.792 -9.16392 0
385.144 -7.07246 0
383.961 -4.88091 0
382.609 -6.97238 0
383.876 -7.02239 0
385.059 -9.21399 0
387.594 -9.3143 0
387.763 -5.03133 0
385.228 -4.93099 0
386.326 -9.26411 0
387.678 -7.17279 0
386.496 -4.98113 0
385.144 -7.07246 0
386.411 -7.12259 0
387.594 -9.3143 0
390.128 -9.41485 0
390.298 -5.13191 0
387.763 -5.03133 0
388.861 -9.36455 0
390.213 -7.27336 0
389.031 -5.08159 0
387.678 -7.17279 0
388.946 -7.22304 0
390.128 -9.41485 0
392.663 -9.51564 0
392.833 -5.23273 0
390.298 -5.13191 0
391.396 -9.46522 0
392.748 -7.37416 0
391.566 -5.18229 0
390.213 -7.27336 0
391.481 -7.32373 0
392.663 -9.51564 0
395.198 -9.61666 0
395.369 -5.33378 0
392.833 -5.23273 0
393.93 -9.56612 0
395.283 -7.4752 0
394.101 -5.28323 0
392.748 -7.37416 0
394.016 -7.42465 0
395.198 -9.61666 0
397.732 -9.7179 0
397.904 -5.43505 0
395.369 -5.33378 0
396.465 -9.66725 0
397.818 -7.57645 0
396.636 -5.38439 0
395.283 -7.4752 0
396.551 -7.5258 0
397.732 -9.7179 0
400.267 -9.81936 0
400.439 -5.53654 0
397.904 -5.43505 0
399 -9.76861 0
400.353 -7.67793 0
399.171 -5.48577 0
397.818 -7.57645 0
399.086 -7.62716 0
400.267 -9.81936 0
402.802 -9.92104 0
402.974 -5.63824 0
400.439 -5.53654 0
401.535 -9.87017 0
402.888 -7.77962 0
401.706 -5.58736 0
400.353 -7.67793 0
401.621 -7.72875 0
402.802 -9.92104 0
405.337 -10.0229 0
405.509 -5.74015 0
402.974 -5.63824 0
404.069 -9.97195 0
405.423 -7.88151 0
404.242 -5.68917 0
402.888 -7.77962 0
404.156 -7.83054 0
405.337 -10.0229 0
407.872 -10.125 0
408.044 -5.84226 0
405.509 -5.74015 0
406.604 -10.0739 0
407.958 -7.98361 0
406.777 -5.79118 0
405.423 -7.88151 0
406.691 -7.93254 0
407.872 -10.125 0
410.407 -10.2273 0
410.579 -5.94457 0
408.044 -5.84226 0
409.139 -10.1761 0
410.493 -8.08591 0
409.312 -5.89339 0
407.958 -7.98361 0
409.226 -8.03474 0
410.407 -10.2273 0
412.941 -10.3298 0
413.115 -6.04707 0
410.579 -5.94457 0
411.674 -10.2785 0
413.028 -8.1884 0
411.847 -5.9958 0
410.493 -8.08591 0
411.761 -8.13713 0
412.941 -10.3298 0
415.476 -10.4324 0
415.65 -6.14976 0
413.115 -6.04707 0
414.209 -10.3811 0
415.563 -8.29107 0
414.382 -6.09839 0
413.028 -8.1884 0
414.296 -8.23971 0
415.476 -10.4324 0
418.011 -10.5353 0
418.185 -6.25263 0
415.65 -6.14976 0
416.744 -10.4838 0
418.098 -8.39393 0
416.918 -6.20117 0
415.563 -8.29107 0
416.831 -8.34248 0
418.011 -10.5353 0
420.546 -10.6383 0
420.72 -6.35567 0
418.185 -6.25263 0
419.279 -10.5867 0
420.633 -8.49696 0
419.453 -6.30413 0
418.098 -8.39393 0
419.366 -8.44542 0
420.546 -10.6383 0
423.081 -10.7415 0
423.256 -6.45888 0
420.72 -6.35567 0
421.814 -10.6898 0
423.169 -8.60016 0
421.988 -6.40725 0
420.633 -8.49696 0
421.901 -8.54853 0
423.081 -10.7415 0
425.616 -10.8448 0
425.791 -6.56226 0
423.256 -6.45888 0
424.349 -10.7931 0
425.704 -8.70352 0
424.523 -6.51055 0
423.169 -8.60016 0
424.436 -8.65182 0
425.616 -10.8448 0
428.151 -10.9483 0
428.326 -6.66579 0
425.791 -6.56226 0
426.884 -10.8965 0
428.239 -8.80704 0
427.059 -6.614 0
425.704 -8.70352 0
426.971 -8.75526 0
428.151 -10.9483 0
430.686 -11.052 0
430.862 -6.76948 0
428.326 -6.66579 0
429.419 -11.0001 0
430.774 -8.91072 0
429.594 -6.71761 0
428.239 -8.80704 0
429.506 -8.85886 0
430.686 -11.052 0
433.222 -11.1558 0
433.397 -6.87331 0
430.862 -6.76948 0
431.954 -11.1039 0
433.309 -9.01454 0
432.129 -6.82138 0
430.774 -8.91072 0
432.042 -8.96261 0
433.222 -11.1558 0
435.757 -11.2598 0
435.932 -6.97729 0
433.397 -6.87331 0
434.489 -11.2078 0
435.844 -9.11851 0
434.665 -6.92528 0
433.309 -9.01454 0
434.577 -9.06651 0
435.757 -11.2598 0
438.292 -11.3638 0
438.468 -7.0814 0
435.932 -6.97729 0
437.024 -11.3118 0
438.38 -9.22261 0
437.2 -7.02933 0
435.844 -9.11851 0
437.112 -9.17054 0
438.292 -11.3638 0
440.827 -11.4681 0
441.003 -7.18565 0
438.468 -7.0814 0
439.559 -11.4159 0
440.915 -9.32685 0
439.735 -7.13351 0
438.38 -9.22261 0
439.647 -9.27471 0
440.827 -11.4681 0
443.362 -11.5724 0
443.538 -7.29002 0
441.003 -7.18565 0
442.095 -11.5202 0
443.45 -9.43121 0
442.271 -7.23782 0
440.915 -9.32685 0
442.183 -9.37901 0
443.362 -11.5724 0
445.897 -11.6769 0
446.074 -7.39451 0
443.538 -7.29002 0
444.63 -11.6246 0
445.986 -9.53569 0
444.806 -7.34225 0
443.45 -9.43121 0
444.718 -9.48343 0
445.897 -11.6769 0
448.433 -11.7815 0
448.609 -7.49912 0
446.074 -7.39451 0
447.165 -11.7292 0
448.521 -9.64029 0
447.342 -7.4468 0
445.986 -9.53569 0
447.253 -9.58797 0
448.433 -11.7815 0
450.968 -11.8862 0
451.145 -7.60384 0
448.609 -7.49912 0
449.7 -11.8338 0
451.056 -9.74499 0
449.877 -7.55147 0
448.521 -9.64029 0
449.789 -9.69263 0
450.968 -11.8862 0
453.503 -11.991 0
453.68 -7.70866 0
451.145 -7.60384 0
452.236 -11.9386 0
453.592 -9.84981 0
452.413 -7.65624 0
451.056 -9.74499 0
452.324 -9.79739 0
453.503 -11.991 0
456.039 -12.0959 0
456.216 -7.81358 0
453.68 -7.70866 0
454.771 -12.0434 0
456.127 -9.95472 0
454.948 -7.76111 0
453.592 -9.84981 0
454.86 -9.90225 0
456.039 -12.0959 0
458.574 -12.2009 0
458.751 -7.9186 0
456.216 -7.81358 0
457.306 -12.1484 0
458.663 -10.0597 0
457.484 -7.86608 0
456.127 -9.95472 0
457.395 -10.0072 0
458.574 -12.2009 0
461.109 -12.3059 0
461.287 -8.0237 0
458.751 -7.9186 0
459.842 -12.2534 0
461.198 -10.1648 0
460.019 -7.97114 0
458.663 -10.0597 0
459.93 -10.1123 0
461.109 -12.3059 0
463.645 -12.4111 0
463.822 -8.12888 0
461.287 -8.0237 0
462.377 -12.3585 0
463.734 -10.27 0
462.555 -8.07628 0
461.198 -10.1648 0
462.466 -10.2174 0
463.645 -12.4111 0
466.18 -12.5164 0
466.358 -8.23414 0
463.822 -8.12888 0
464.913 -12.4637 0
466.269 -10.3752 0
465.09 -8.1815 0
463.734 -10.27 0
465.001 -10.3226 0
466.18 -12.5164 0
468.716 -12.6217 0
468.894 -8.33948 0
466.358 -8.23414 0
467.448 -12.569 0
468.805 -10.4806 0
467.626 -8.2868 0
466.269 -10.3752 0
467.537 -10.4279 0
468.716 -12.6217 0
471.251 -12.727 0
471.429 -8.44488 0
468.894 -8.33948 0
469.984 -12.6744 0
471.34 -10.586 0
470.161 -8.39217 0
468.805 -10.4806 0
470.072 -10.5333 0
471.251 -12.727 0
473.787 -12.8325 0
473.965 -8.55034 0
471.429 -8.44488 0
472.519 -12.7798 0
473.876 -10.6914 0
472.697 -8.4976 0
471.34 -10.586 0
472.608 -10.6387 0
473.787 -12.8325 0
476.322 -12.938 0
476.5 -8.65585 0
473.965 -8.55034 0
475.055 -12.8852 0
476.411 -10.7969 0
475.233 -8.60309 0
473.876 -10.6914 0
475.144 -10.7442 0
476.322 -12.938 0
478.858 -13.0435 0
479.036 -8.76142 0
476.5 -8.65585 0
477.59 -12.9908 0
478.947 -10.9025 0
477.768 -8.70863 0
476.411 -10.7969 0
477.679 -10.8497 0
478.858 -13.0435 0
481.394 -13.1491 0
481.572 -8.86703 0
479.036 -8.76142 0
480.126 -13.0963 0
481.483 -11.0081 0
480.304 -8.81422 0
478.947 -10.9025 0
480.215 -10.9553 0
481.394 -13.1491 0
483.929 -13.2548 0
484.108 -8.97267 0
481.572 -8.86703 0
482.661 -13.2019 0
484.018 -11.1137 0
482.84 -8.91985 0
481.483 -11.0081 0
482.751 -11.0609 0
483.929 -13.2548 0
486.465 -13.3604 0
486.643 -9.07836 0
484.108 -8.97267 0
485.197 -13.3076 0
486.554 -11.2194 0
485.375 -9.02551 0
484.018 -11.1137 0
485.286 -11.1665 0
486.465 -13.3604 0
489.001 -13.4661 0
489.179 -9.18407 0
486.643 -9.07836 0
487.733 -13.4133 0
489.09 -11.3251 0
487.911 -9.13121 0
486.554 -11.2194 0
487.822 -11.2722 0
489.001 -13.4661 0
491.536 -13.5719 0
491.715 -9.28981 0
489.179 -9.18407 0
490.269 -13.519 0
491.626 -11.4308 0
490.447 -9.23694 0
489.09 -11.3251 0
490.358 -11.378 0
491.536 -13.5719 0
494.072 -13.6776 0
494.251 -9.3956 0
491.715 -9.28981 0
492.804 -13.6247 0
494.161 -11.5366 0
492.983 -9.3427 0
491.626 -11.4308 0
492.894 -11.4837 0
494.072 -13.6776 0
496.608 -13.7835 0
496.787 -9.50145 0
494.251 -9.3956 0
495.34 -13.7305 0
496.697 -11.6425 0
495.519 -9.44852 0
494.161 -11.5366 0
495.429 -11.5895 0
496.608 -13.7835 0
499.144 -13.8898 0
499.322 -9.60734 0
496.787 -9.50145 0
497.876 -13.8365 0
499.233 -11.7486 0
498.055 -9.5544 0
496.697 -11.6425 0
497.965 -11.6955 0
0 4.28571 0
2.53394 4.28455 0
2.53567 8.57119 0
0 8.57143 0
1.26703 4.2853 0
2.53484 6.42798 0
1.26787 8.5715 0
0 6.42857 0
1.26744 6.42845 0
2.53394 4.28455 0
5.06754 4.28235 0
5.07115 8.56957 0
2.53567 8.57119 0
3.80076 4.28356 0
5.06941 6.42609 0
3.80342 8.57053 0
2.53484 6.42798 0
3.80215 6.42718 0
5.06754 4.28235 0
7.6011 4.27933 0
7.60653 8.56678 0
5.07115 8.56957 0
6.33432 4.28095 0
7.60387 6.42318 0
6.33885 8.56831 0
5.06941 6.42609 0
6.33664 6.42476 0
7.6011 4.27933 0
10.1347 4.27539 0
10.1419 8.56291 0
7.60653 8.56678 0
8.86789 4.27748 0
10.1383 6.41926 0
8.8742 8.56498 0
7.60387 6.42318 0
8.87109 6.42135 0
10.1347 4.27539 0
12.6683 4.27047 0
12.6772 8.55799 0
10.1419 8.56291 0
11.4015 4.27306 0
12.6728 6.41434 0
11.4096 8.56058 0
10.1383 6.41926 0
11.4056 6.41693 0
12.6683 4.27047 0
15.2019 4.26454 0
15.2126 8.55204 0
12.6772 8.55799 0
13.9351 4.26764 0
15.2073 6.4084 0
13.9449 8.55515 0
12.6728 6.41434 0
13.94 6.4115 0
15.2019 4.26454 0
17.7356 4.25758 0
17.748 8.54506 0
15.2126 8.55204 0
16.4688 4.26119 0
17.7418 6.40143 0
16.4803 8.54868 0
15.2073 6.4084 0
16.4746 6.40504 0
17.7356 4.25758 0
20.2693 4.24958 0
20.2835 8.53704 0
17.748 8.54506 0
19.0025 4.25371 0
20.2764 6.39342 0
19.0157 8.54118 0
17.7418 6.40143 0
19.0091 6.39755 0
20.2693 4.24958 0
22.803 4.24056 0
22.8189 8.528 0
20.2835 8.53704 0
21.5362 4.2452 0
22.811 6.38439 0
21.5512 8.53265 0
20.2764 6.39342 0
21.5437 6.38903 0
22.803 4.24056 0
25.3368 4.23051 0
25.3544 8.51793 0
22.8189 8.528 0
24.0699 4.23566 0
25.3456 6.37433 0
24.0866 8.52309 0
22.811 6.38439 0
24.0783 6.37949 0
25.3368 4.23051 0
27.8705 4.21945 0
27.8898 8.50685 0
25.3544 8.51793 0
26.6036 4.22511 0
27.8802 6.36326 0
26.6221 8.51252 0
25.3456 6.37433 0
26.6129 6.36892 0
27.8705 4.21945 0
30.4043 4.20737 0
30.4253 8.49476 0
27.8898 8.50685 0
29.1374 4.21354 0
30.4148 6.35117 0
29.1576 8.50093 0
27.8802 6.36326 0
29.1475 6.35734 0
30.4043 4.20737 0
32.9381 4.19429 0
32.9608 8.48165 0
30.4253 8.49476 0
31.6712 4.20096 0
32.9494 6.33808 0
31.693 8.48833 0
30.4148 6.35117 0
31.6821 6.34475 0
32.9381 4.19429 0
35.4719 4.18021 0
35.4963 8.46755 0
32.9608 8.48165 0
34.205 4.18737 0
35.4841 6.32399 0
34.2285 8.47473 0
32.9494 6.33808 0
34.2168 6.33116 0
35.4719 4.18021 0
38.0057 4.16513 0
38.0318 8.45245 0
35.4963 8.46755 0
36.7388 4.17279 0
38.0188 6.3089 0
36.764 8.46013 0
35.4841 6.32399 0
36.7514 6.31657 0
38.0057 4.16513 0
40.5395 4.14906 0
40.5673 8.43637 0
38.0318 8.45245 0
39.2726 4.15722 0
40.5534 6.29282 0
39.2995 8.44453 0
38.0188 6.3089 0
39.2861 6.30098 0
40.5395 4.14906 0
43.0734 4.13201 0
43.1028 8.41929 0
40.5673 8.43637 0
41.8065 4.14066 0
43.0881 6.27575 0
41.835 8.42795 0
40.5534 6.29282 0
41.8208 6.28441 0
43.0734 4.13201 0
45.6073 4.11397 0
45.6383 8.40124 0
43.1028 8.41929 0
44.3403 4.12311 0
45.6228 6.25771 0
44.3706 8.41039 0
43.0881 6.27575 0
44.3555 6.26685 0
45.6073 4.11397 0
48.1412 4.09497 0
48.1739 8.38221 0
45.6383 8.40124 0
46.8742 4.10459 0
48.1575 6.23869 0
46.9061 8.39185 0
45.6228 6.25771 0
46.8902 6.24832 0
48.1412 4.09497 0
50.6751 4.07499 0
50.7094 8.36221 0
48.1739 8.38221 0
49.4081 4.0851 0
50.6923 6.21871 0
49.4416 8.37233 0
48.1575 6.23869 0
49.4249 6.22882 0
50.6751 4.07499 0
53.209 4.05406 0
53.245 8.34126 0
50.7094 8.36221 0
51.942 4.06465 0
53.227 6.19776 0
51.9772 8.35185 0
50.6923 6.21871 0
51.9596 6.20835 0
53.209 4.05406 0
55.7429 4.03216 0
55.7805 8.31934 0
53.245 8.34126 0
54.476 4.04323 0
55.7617 6.17585 0
54.5127 8.33042 0
53.227 6.19776 0
54.4944 6.18692 0
55.7429 4.03216 0
58.2769 4.00932 0
58.3161 8.29647 0
55.7805 8.31934 0
57.0099 4.02086 0
58.2965 6.15299 0
57.0483 8.30802 0
55.7617 6.17585 0
57.0291 6.16454 0
58.2769 4.00932 0
60.8108 3.98552 0
60.8516 8.27265 0
58.3161 8.29647 0
59.5439 3.99754 0
60.8312 6.12919 0
59.5838 8.28468 0
58.2965 6.15299 0
59.5639 6.14121 0
60.8108 3.98552 0
63.3448 3.96079 0
63.3872 8.24789 0
60.8516 8.27265 0
62.0778 3.97327 0
63.366 6.10444 0
62.1194 8.26039 0
60.8312 6.12919 0
62.0986 6.11693 0
63.3448 3.96079 0
65.8788 3.93512 0
65.9228 8.2222 0
63.3872 8.24789 0
64.6118 3.94807 0
65.9008 6.07876 0
64.655 8.23516 0
63.366 6.10444 0
64.6334 6.09172 0
65.8788 3.93512 0
68.4128 3.90852 0
68.4583 8.19557 0
65.9228 8.2222 0
67.1458 3.92194 0
68.4356 6.05215 0
67.1905 8.209 0
65.9008 6.07876 0
67.1682 6.06557 0
68.4128 3.90852 0
70.9468 3.881 0
70.9939 8.16802 0
68.4583 8.19557 0
69.6798 3.89488 0
70.9704 6.02461 0
69.7261 8.18191 0
68.4356 6.05215 0
69.703 6.03849 0
70.9468 3.881 0
73.4809 3.85255 0
73.5295 8.13955 0
70.9939 8.16802 0
72.2139 3.86689 0
73.5052 5.99615 0
72.2617 8.1539 0
70.9704 6.02461 0
72.2378 6.0105 0
73.4809 3.85255 0
76.0149 3.8232 0
76.0651 8.11017 0
73.5295 8.13955 0
74.7479 3.83799 0
76.04 5.96678 0
74.7973 8.12498 0
73.5052 5.99615 0
74.7726 5.98158 0
76.0149 3.8232 0
78.549 3.79293 0
78.6007 8.07988 0
76.0651 8.11017 0
77.2819 3.80818 0
78.5748 5.9365 0
77.3329 8.09514 0
76.04 5.96678 0
77.3074 5.95175 0
78.549 3.79293 0
81.083 3.76176 0
81.1363 8.04868 0
78.6007 8.07988 0
79.816 3.77746 0
81.1097 5.90532 0
79.8685 8.06439 0
78.5748 5.9365 0
79.8423 5.92102 0
81.083 3.76176 0
83.6171 3.7297 0
83.6719 8.01658 0
81.1363 8.04868 0
82.3501 3.74584 0
83.6445 5.87324 0
82.4041 8.03274 0
81.1097 5.90532 0
82.3771 5.88939 0
83.6171 3.7297 0
86.1512 3.69674 0
86.2075 7.9836 0
83.6719 8.01658 0
84.8842 3.71333 0
86.1794 5.84026 0
84.9397 8.0002 0
83.6445 5.87324 0
84.9119 5.85686 0
86.1512 3.69674 0
88.6853 3.66289 0
88.7431 7.94972 0
86.2075 7.9836 0
87.4183 3.67993 0
88.7142 5.8064 0
87.4753 7.96677 0
86.1794 5.84026 0
87.4468 5.82344 0
88.6853 3.66289 0
91.2194 3.62817 0
91.2787 7.91497 0
88.7431 7.94972 0
89.9524 3.64564 0
91.2491 5.77166 0
90.0109 7.93245 0
88.7142 5.8064 0
89.9816 5.78914 0
91.2194 3.62817 0
93.7536 3.59256 0
93.8143 7.87933 0
91.2787 7.91497 0
92.4865 3.61047 0
93.7839 5.73604 0
92.5465 7.89726 0
91.2491 5.77166 0
92.5165 5.75396 0
93.7536 3.59256 0
96.2877 3.55609 0
96.3499 7.84283 0
93.8143 7.87933 0
95.0206 3.57443 0
96.3188 5.69955 0
95.0821 7.86119 0
93.7839 5.73604 0
95.0514 5.71791 0
96.2877 3.55609 0
98.8219 3.51875 0
98.8855 7.80546 0
96.3499 7.84283 0
97.5548 3.53753 0
98.8537 5.6622 0
97.6177 7.82425 0
96.3188 5.69955 0
97.5862 5.68098 0
98.8219 3.51875 0
101.356 3.48055 0
101.421 7.76723 0
98.8855 7.80546 0
100.089 3.49976 0
101.389 5.62398 0
100.153 7.78645 0
98.8537 5.6622 0
100.121 5.6432 0
101.356 3.48055 0
103.89 3.4415 0
103.957 7.72815 0
101.421 7.76723 0
102.623 3.46113 0
103.923 5.58492 0
102.689 7.7478 0
101.389 5.62398 0
102.656 5.60456 0
103.89 3.4415 0
106.424 3.4016 0
106.492 7.68822 0
103.957 7.72815 0
105.157 3.42166 0
106.458 5.545 0
105.224 7.70829 0
103.923 5.58492 0
105.191 5.56506 0
106.424 3.4016 0
108.959 3.36086 0
109.028 7.64744 0
106.492 7.68822 0
107.691 3.38133 0
108.993 5.50424 0
107.76 7.66793 0
106.458 5.545 0
107.726 5.52472 0
108.959 3.36086 0
111.493 3.31928 0
111.564 7.60583 0
109.028 7.64744 0
110.226 3.34017 0
111.528 5.46264 0
110.296 7.62674 0
108.993 5.50424 0
110.261 5.48354 0
111.493 3.31928 0
114.027 3.27686 0
114.099 7.56338 0
111.564 7.60583 0
112.76 3.29817 0
114.063 5.42021 0
112.831 7.58471 0
111.528 5.46264 0
112.796 5.44153 0
114.027 3.27686 0
116.561 3.23362 0
116.635 7.52011 0
114.099 7.56338 0
115.294 3.25534 0
116.598 5.37695 0
115.367 7.54185 0
114.063 5.42021 0
115.331 5.39868 0
116.561 3.23362 0
119.095 3.18956 0
119.17 7.47601 0
116.635 7.52011 0
117.828 3.21169 0
119.133 5.33287 0
117.903 7.49816 0
116.598 5.37695 0
117.865 5.35501 0
119.095 3.18956 0
121.63 3.14468 0
121.706 7.4311 0
119.17 7.47601 0
120.363 3.16722 0
121.668 5.28797 0
120.438 7.45365 0
119.133 5.33287 0
120.4 5.31052 0
121.63 3.14468 0
124.164 3.09899 0
124.242 7.38537 0
121.706 7.4311 0
122.897 3.12193 0
124.203 5.24227 0
122.974 7.40834 0
121.668 5.28797 0
122.935 5.26522 0
124.164 3.09899 0
126.698 3.05249 0
126.777 7.33884 0
124.242 7.38537 0
125.431 3.07584 0
126.738 5.19575 0
125.509 7.36221 0
124.203 5.24227 0
125.47 5.21911 0
126.698 3.05249 0
129.232 3.0052 0
129.313 7.29151 0
126.777 7.33884 0
127.965 3.02895 0
129.273 5.14844 0
128.045 7.31528 0
126.738 5.19575 0
128.005 5.1722 0
129.232 3.0052 0
131.767 2.95711 0
131.848 7.24339 0
129.313 7.29151 0
130.5 2.98125 0
131.808 5.10033 0
130.581 7.26755 0
129.273 5.14844 0
130.54 5.12449 0
131.767 2.95711 0
134.301 2.90823 0
134.384 7.19448 0
131.848 7.24339 0
133.034 2.93277 0
134.342 5.05144 0
133.116 7.21903 0
131.808 5.10033 0
133.075 5.07598 0
134.301 2.90823 0
136.835 2.85857 0
136.92 7.14478 0
134.384 7.19448 0
135.568 2.8835 0
136.877 5.00176 0
135.652 7.16973 0
134.342 5.05144 0
135.61 5.02669 0
136.835 2.85857 0
139.369 2.80813 0
139.455 7.0943 0
136.92 7.14478 0
138.102 2.83344 0
139.412 4.9513 0
138.187 7.11964 0
136.877 5.00176 0
138.145 4.97663 0
139.369 2.80813 0
141.904 2.75692 0
141.991 7.04306 0
139.455 7.0943 0
140.637 2.78262 0
141.947 4.90007 0
140.723 7.06878 0
139.412 4.9513 0
140.68 4.92578 0
141.904 2.75692 0
144.438 2.70493 0
144.526 6.99104 0
141.991 7.04306 0
143.171 2.73102 0
144.482 4.84807 0
143.259 7.01714 0
141.947 4.90007 0
143.215 4.87416 0
144.438 2.70493 0
146.972 2.65219 0
147.062 6.93826 0
144.526 6.99104 0
145.705 2.67866 0
147.017 4.79531 0
145.794 6.96475 0
144.482 4.84807 0
145.75 4.82178 0
146.972 2.65219 0
149.507 2.59869 0
149.598 6.88473 0
147.062 6.93826 0
148.24 2.62554 0
149.552 4.74179 0
148.33 6.91159 0
147.017 4.79531 0
148.285 4.76864 0
149.507 2.59869 0
152.041 2.54445 0
152.133 6.83044 0
149.598 6.88473 0
150.774 2.57166 0
152.087 4.68752 0
150.865 6.85768 0
149.552 4.74179 0
150.82 4.71475 0
152.041 2.54445 0
154.575 2.48945 0
154.669 6.77541 0
152.133 6.83044 0
153.308 2.51704 0
154.622 4.63251 0
153.401 6.80302 0
152.087 4.68752 0
153.355 4.66011 0
154.575 2.48945 0
157.11 2.43371 0
157.204 6.71964 0
154.669 6.77541 0
155.843 2.46167 0
157.157 4.57676 0
155.937 6.74762 0
154.622 4.63251 0
155.89 4.60472 0
157.11 2.43371 0
159.644 2.37725 0
159.74 6.66313 0
157.204 6.71964 0
158.377 2.40557 0
159.692 4.52027 0
158.472 6.69148 0
157.157 4.57676 0
158.425 4.5486 0
159.644 2.37725 0
162.178 2.32005 0
162.276 6.6059 0
159.74 6.66313 0
160.911 2.34874 0
162.227 4.46305 0
161.008 6.63461 0
159.692 4.52027 0
160.96 4.49175 0
162.178 2.32005 0
164.713 2.26212 0
164.811 6.54794 0
162.276 6.6059 0
163.446 2.29117 0
164.762 4.40511 0
163.543 6.57701 0
162.227 4.46305 0
163.494 4.43417 0
164.713 2.26212 0
167.247 2.20348 0
167.347 6.48926 0
164.811 6.54794 0
165.98 2.23289 0
167.297 4.34645 0
166.079 6.51869 0
164.762 4.40511 0
166.029 4.37587 0
167.247 2.20348 0
169.782 2.14413 0
169.882 6.42987 0
167.347 6.48926 0
168.514 2.17389 0
169.832 4.28707 0
168.614 6.45965 0
167.297 4.34645 0
168.564 4.31685 0
169.782 2.14413 0
172.316 2.08407 0
172.418 6.36977 0
169.882 6.42987 0
171.049 2.11418 0
172.367 4.22699 0
171.15 6.39991 0
169.832 4.28707 0
171.099 4.25712 0
172.316 2.08407 0
174.85 2.0233 0
174.953 6.30897 0
172.418 6.36977 0
173.583 2.05377 0
174.902 4.16621 0
173.686 6.33945 0
172.367 4.22699 0
173.634 4.19669 0
174.85 2.0233 0
177.385 1.96184 0
177.489 6.24747 0
174.953 6.30897 0
176.117 1.99266 0
177.437 4.10473 0
176.221 6.2783 0
174.902 4.16621 0
176.169 4.13556 0
177.385 1.96184 0
179.919 1.89969 0
180.025 6.18528 0
177.489 6.24747 0
178.652 1.93085 0
179.972 4.04256 0
178.757 6.21646 0
177.437 4.10473 0
178.704 4.07373 0
179.919 1.89969 0
182.454 1.83685 0
182.56 6.1224 0
180.025 6.18528 0
181.186 1.86836 0
182.507 3.9797 0
181.292 6.15393 0
179.972 4.04256 0
181.239 4.01121 0
182.454 1.83685 0
184.988 1.77333 0
185.096 6.05885 0
182.56 6.1224 0
183.721 1.80518 0
185.042 3.91616 0
183.828 6.09071 0
182.507 3.9797 0
183.774 3.94802 0
184.988 1.77333 0
187.522 1.70914 0
187.631 5.99462 0
185.096 6.05885 0
186.255 1.74132 0
187.577 3.85195 0
186.363 6.02682 0
185.042 3.91616 0
186.309 3.88414 0
187.522 1.70914 0
190.057 1.64428 0
190.167 5.92972 0
187.631 5.99462 0
188.79 1.67679 0
190.112 3.78707 0
188.899 5.96225 0
187.577 3.85195 0
188.844 3.81959 0
190.057 1.64428 0
192.591 1.57875 0
192.702 5.86415 0
190.167 5.92972 0
191.324 1.6116 0
192.647 3.72152 0
191.434 5.89702 0
190.112 3.78707 0
191.379 3.75438 0
192.591 1.57875 0
195.126 1.51257 0
195.238 5.79793 0
192.702 5.86415 0
193.858 1.54574 0
195.182 3.65532 0
193.97 5.83112 0
192.647 3.72152 0
193.914 3.6885 0
195.126 1.51257 0
197.66 1.44573 0
197.773 5.73105 0
195.238 5.79793 0
196.393 1.47923 0
197.717 3.58846 0
196.506 5.76457 0
195.182 3.65532 0
196.449 3.62197 0
197.66 1.44573 0
200.195 1.37824 0
200.309 5.66353 0
197.773 5.73105 0
198.927 1.41207 0
200.252 3.52095 0
199.041 5.69737 0
197.717 3.58846 0
198.984 3.55479 0
200.195 1.37824 0
202.729 1.31011 0
202.844 5.59536 0
200.309 5.66353 0
201.462 1.34426 0
202.787 3.45281 0
201.577 5.62952 0
200.252 3.52095 0
201.519 3.48696 0
202.729 1.31011 0
205.263 1.24135 0
205.38 5.52656 0
202.844 5.59536 0
203.996 1.27581 0
205.322 3.38402 0
204.112 5.56104 0
202.787 3.45281 0
204.054 3.41849 0
205.263 1.24135 0
207.798 1.17195 0
207.915 5.45712 0
205.38 5.52656 0
206.531 1.20673 0
207.857 3.3146 0
206.648 5.49192 0
205.322 3.38402 0
206.589 3.34939 0
207.798 1.17195 0
210.332 1.10193 0
210.451 5.38706 0
207.915 5.45712 0
209.065 1.13702 0
210.392 3.24456 0
209.183 5.42217 0
207.857 3.3146 0
209.124 3.27966 0
210.332 1.10193 0
212.867 1.03129 0
212.987 5.31638 0
210.451 5.38706 0
211.6 1.06668 0
212.927 3.1739 0
211.719 5.3518 0
210.392 3.24456 0
211.659 3.20931 0
212.867 1.03129 0
215.401 0.960027 0
215.522 5.24508 0
212.987 5.31638 0
214.134 0.995733 0
215.462 3.10262 0
214.254 5.28081 0
212.927 3.1739 0
214.194 3.13834 0
215.401 0.960027 0
217.936 0.888159 0
218.058 5.17318 0
215.522 5.24508 0
216.669 0.924169 0
217.997 3.03073 0
216.79 5.2092 0
215.462 3.10262 0
216.729 3.06675 0
217.936 0.888159 0
220.47 0.815686 0
220.593 5.10066 0
218.058 5.17318 0
219.203 0.851998 0
220.532 2.95824 0
219.325 5.13699 0
217.997 3.03073 0
219.264 2.99456 0
220.47 0.815686 0
223.005 0.742615 0
223.129 5.02755 0
220.593 5.10066 0
221.738 0.779225 0
223.067 2.88515 0
221.861 5.06418 0
220.532 2.95824 0
221.799 2.92177 0
223.005 0.742615 0
225.539 0.66895 0
225.664 4.95385 0
223.129 5.02755 0
224.272 0.705856 0
225.602 2.81146 0
224.396 4.99078 0
223.067 2.88515 0
224.334 2.84838 0
225.539 0.66895 0
228.074 0.594697 0
228.2 4.87956 0
225.664 4.95385 0
226.807 0.631896 0
228.137 2.73719 0
226.932 4.91678 0
225.602 2.81146 0
226.869 2.7744 0
228.074 0.594697 0
230.608 0.519861 0
230.735 4.80469 0
228.2 4.87956 0
229.341 0.557351 0
230.672 2.66233 0
229.467 4.8422 0
228.137 2.73719 0
229.404 2.69984 0
230.608 0.519861 0
233.143 0.444448 0
233.271 4.72924 0
230.735 4.80469 0
231.876 0.482226 0
233.207 2.5869 0
232.003 4.76703 0
230.672 2.66233 0
231.939 2.62469 0
233.143 0.444448 0
235.677 0.368464 0
235.806 4.65321 0
233.271 4.72924 0
234.41 0.406527 0
235.742 2.5109 0
234.538 4.6913 0
233.207 2.5869 0
234.474 2.54897 0
235.677 0.368464 0
238.212 0.291913 0
238.342 4.57662 0
235.806 4.65321 0
236.945 0.330259 0
238.277 2.43433 0
237.074 4.61499 0
235.742 2.5109 0
237.009 2.47268 0
238.212 0.291913 0
240.746 0.214801 0
240.877 4.49947 0
238.342 4.57662 0
239.479 0.253427 0
240.812 2.3572 0
239.609 4.53812 0
238.277 2.43433 0
239.544 2.39583 0
240.746 0.214801 0
243.281 0.137134 0
243.413 4.42177 0
240.877 4.49947 0
242.014 0.176037 0
243.347 2.27951 0
242.145 4.46069 0
240.812 2.3572 0
242.079 2.31842 0
243.281 0.137134 0
245.816 0.0589174 0
245.948 4.34352 0
243.413 4.42177 0
244.548 0.0980943 0
245.882 2.20127 0
244.68 4.38271 0
243.347 2.27951 0
244.614 2.24046 0
245.816 0.0589174 0
248.35 -0.0198441 0
248.483 4.26472 0
245.948 4.34352 0
247.083 0.0196044 0
248.417 2.12249 0
247.216 4.30418 0
245.882 2.20127 0
247.149 2.16195 0
248.35 -0.0198441 0
250.885 -0.0991447 0
251.019 4.18538 0
248.483 4.26472 0
249.617 -0.0594273 0
250.952 2.04317 0
249.751 4.22511 0
248.417 2.12249 0
249.684 2.0829 0
250.885 -0.0991447 0
253.419 -0.178979 0
253.554 4.10551 0
251.019 4.18538 0
252.152 -0.138995 0
253.487 1.96332 0
252.287 4.14551 0
250.952 2.04317 0
252.219 2.00331 0
253.419 -0.178979 0
255.954 -0.259342 0
256.09 4.02511 0
253.554 4.10551 0
254.687 -0.219095 0
256.022 1.88294 0
254.822 4.06537 0
253.487 1.96332 0
254.754 1.92319 0
255.954 -0.259342 0
258.488 -0.340227 0
258.625 3.94418 0
256.09 4.02511 0
257.221 -0.299719 0
258.557 1.80203 0
257.358 3.98471 0
256.022 1.88294 0
257.289 1.84255 0
258.488 -0.340227 0
261.023 -0.42163 0
261.161 3.86274 0
258.625 3.94418 0
259.756 -0.380864 0
261.092 1.72061 0
259.893 3.90353 0
258.557 1.80203 0
259.824 1.76139 0
261.023 -0.42163 0
263.558 -0.503544 0
263.696 3.78079 0
261.161 3.86274 0
262.29 -0.462523 0
263.627 1.63868 0
262.429 3.82183 0
261.092 1.72061 0
262.359 1.67971 0
263.558 -0.503544 0
266.092 -0.585965 0
266.232 3.69833 0
263.696 3.78079 0
264.825 -0.544692 0
266.162 1.55624 0
264.964 3.73963 0
263.627 1.63868 0
264.894 1.59752 0
266.092 -0.585965 0
268.627 -0.668888 0
268.767 3.61537 0
266.232 3.69833 0
267.36 -0.627364 0
268.697 1.4733 0
267.499 3.65692 0
266.162 1.55624 0
267.43 1.51483 0
268.627 -0.668888 0
271.161 -0.752306 0
271.303 3.53192 0
268.767 3.61537 0
269.894 -0.710535 0
271.232 1.38986 0
270.035 3.57371 0
268.697 1.4733 0
269.965 1.43164 0
271.161 -0.752306 0
273.696 -0.836214 0
273.838 3.44798 0
271.303 3.53192 0
272.429 -0.794199 0
273.767 1.30593 0
272.57 3.49001 0
271.232 1.38986 0
272.5 1.34796 0
273.696 -0.836214 0
276.231 -0.920607 0
276.374 3.36355 0
273.838 3.44798 0
274.963 -0.87835 0
276.302 1.22152 0
275.106 3.40582 0
273.767 1.30593 0
275.035 1.26379 0
276.231 -0.920607 0
278.765 -1.00548 0
278.909 3.27864 0
276.374 3.36355 0
277.498 -0.962983 0
278.837 1.13663 0
277.641 3.32115 0
276.302 1.22152 0
277.57 1.17913 0
278.765 -1.00548 0
281.3 -1.09082 0
281.444 3.19326 0
278.909 3.27864 0
280.033 -1.04809 0
281.372 1.05127 0
280.177 3.23601 0
278.837 1.13663 0
280.105 1.09401 0
281.3 -1.09082 0
283.835 -1.17664 0
283.98 3.10741 0
281.444 3.19326 0
282.567 -1.13367 0
283.907 0.965432 0
282.712 3.15039 0
281.372 1.05127 0
282.64 1.00841 0
283.835 -1.17664 0
286.369 -1.26292 0
286.515 3.02109 0
283.98 3.10741 0
285.102 -1.21972 0
286.442 0.879136 0
285.248 3.06431 0
283.907 0.965432 0
285.175 0.922342 0
286.369 -1.26292 0
288.904 -1.34965 0
289.051 2.93432 0
286.515 3.02109 0
287.637 -1.30623 0
288.977 0.792382 0
287.783 2.97776 0
286.442 0.879136 0
287.71 0.835816 0
288.904 -1.34965 0
291.439 -1.43684 0
291.586 2.8471 0
289.051 2.93432 0
290.171 -1.39319 0
291.512 0.705177 0
290.318 2.89077 0
288.977 0.792382 0
290.245 0.748836 0
291.439 -1.43684 0
293.973 -1.52447 0
294.122 2.75943 0
291.586 2.8471 0
292.706 -1.4806 0
294.047 0.617524 0
292.854 2.80332 0
291.512 0.705177 0
292.78 0.661406 0
293.973 -1.52447 0
296.508 -1.61255 0
296.657 2.67132 0
294.122 2.75943 0
295.241 -1.56846 0
296.583 0.529431 0
295.389 2.71543 0
294.047 0.617524 0
295.315 0.573532 0
296.508 -1.61255 0
299.043 -1.70106 0
299.192 2.58277 0
296.657 2.67132 0
297.775 -1.65675 0
299.118 0.440902 0
297.925 2.6271 0
296.583 0.529431 0
297.85 0.48522 0
299.043 -1.70106 0
301.577 -1.79 0
301.728 2.4938 0
299.192 2.58277 0
300.31 -1.74548 0
301.653 0.351942 0
300.46 2.53834 0
299.118 0.440902 0
300.385 0.396475 0
301.577 -1.79 0
304.112 -1.87937 0
304.263 2.4044 0
301.728 2.4938 0
302.845 -1.83463 0
304.188 0.262558 0
302.996 2.44915 0
301.653 0.351942 0
302.92 0.307303 0
304.112 -1.87937 0
306.647 -1.96916 0
306.799 2.31458 0
304.263 2.4044 0
305.38 -1.92421 0
306.723 0.172754 0
305.531 2.35954 0
304.188 0.262558 0
305.455 0.217708 0
306.647 -1.96916 0
309.182 -2.05936 0
309.334 2.22434 0
306.799 2.31458 0
307.914 -2.0142 0
309.258 0.0825355 0
308.066 2.26951 0
306.723 0.172754 0
307.99 0.127696 0
309.182 -2.05936 0
311.716 -2.14997 0
311.87 2.1337 0
309.334 2.22434 0
310.449 -2.10461 0
311.793 -0.00809106 0
310.602 2.17907 0
309.258 0.0825355 0
310.525 0.037273 0
311.716 -2.14997 0
314.251 -2.24098 0
314.405 2.04265 0
311.87 2.1337 0
312.984 -2.19542 0
314.328 -0.0991208 0
313.137 2.08822 0
311.793 -0.00809106 0
313.061 -0.0535559 0
314.251 -2.24098 0
316.786 -2.33239 0
316.94 1.95121 0
314.405 2.04265 0
315.518 -2.28663 0
316.863 -0.190548 0
315.673 1.99698 0
314.328 -0.0991208 0
315.596 -0.144785 0
316.786 -2.33239 0
319.321 -2.42419 0
319.476 1.85937 0
316.94 1.95121 0
318.053 -2.37824 0
319.398 -0.282368 0
318.208 1.90534 0
316.863 -0.190548 0
318.131 -0.236409 0
319.321 -2.42419 0
321.855 -2.51638 0
322.011 1.76715 0
319.476 1.85937 0
320.588 -2.47024 0
321.933 -0.374575 0
320.744 1.81331 0
319.398 -0.282368 0
320.666 -0.328423 0
321.855 -2.51638 0
324.39 -2.60895 0
324.547 1.67455 0
322.011 1.76715 0
323.123 -2.56262 0
324.468 -0.467163 0
323.279 1.7209 0
321.933 -0.374575 0
323.201 -0.420821 0
324.39 -2.60895 0
326.925 -2.7019 0
327.082 1.58157 0
324.547 1.67455 0
325.658 -2.65538 0
327.004 -0.560127 0
325.814 1.6281 0
324.468 -0.467163 0
325.736 -0.513598 0
326.925 -2.7019 0
329.46 -2.79522 0
329.618 1.48822 0
327.082 1.58157 0
328.192 -2.74851 0
329.539 -0.653461 0
328.35 1.53494 0
327.004 -0.560127 0
328.271 -0.606748 0
329.46 -2.79522 0
331.995 -2.8889 0
332.153 1.3945 0
329.618 1.48822 0
330.727 -2.84201 0
332.074 -0.747161 0
330.885 1.44141 0
329.539 -0.653461 0
330.806 -0.700266 0
331.995 -2.8889 0
334.529 -2.98294 0
334.688 1.30043 0
332.153 1.3945 0
333.262 -2.93588 0
334.609 -0.84122 0
333.421 1.34751 0
332.074 -0.747161 0
333.341 -0.794146 0
334.529 -2.98294 0
337.064 -3.07734 0
337.224 1.206 0
334.688 1.30043 0
335.797 -3.0301 0
337.144 -0.935633 0
335.956 1.25326 0
334.609 -0.84122 0
335.876 -0.888383 0
337.064 -3.07734 0
339.599 -3.17209 0
339.759 1.11122 0
337.224 1.206 0
338.332 -3.12467 0
339.679 -1.0304 0
338.492 1.15865 0
337.144 -0.935633 0
338.412 -0.982971 0
339.599 -3.17209 0
342.134 -3.26718 0
342.295 1.0161 0
339.759 1.11122 0
340.867 -3.21959 0
342.214 -1.1255 0
341.027 1.0637 0
339.679 -1.0304 0
340.947 -1.07791 0
342.134 -3.26718 0
344.669 -3.3626 0
344.83 0.920643 0
342.295 1.0161 0
343.401 -3.31485 0
344.749 -1.22094 0
343.562 0.968414 0
342.214 -1.1255 0
343.482 -1.17318 0
344.669 -3.3626 0
347.204 -3.45836 0
347.366 0.824853 0
344.83 0.920643 0
345.936 -3.41044 0
347.285 -1.31672 0
346.098 0.872789 0
344.749 -1.22094 0
346.017 -1.26879 0
347.204 -3.45836 0
349.739 -3.55445 0
349.901 0.728735 0
347.366 0.824853 0
348.471 -3.50637 0
349.82 -1.41282 0
348.633 0.776835 0
347.285 -1.31672 0
348.552 -1.36473 0
349.739 -3.55445 0
352.273 -3.65086 0
352.436 0.632296 0
349.901 0.728735 0
351.006 -3.60262 0
352.355 -1.50925 0
351.169 0.680556 0
349.82 -1.41282 0
351.087 -1.461 0
352.273 -3.65086 0
354.808 -3.74759 0
354.972 0.535541 0
352.436 0.632296 0
353.541 -3.69918 0
354.89 -1.60599 0
353.704 0.583958 0
352.355 -1.50925 0
353.623 -1.55758 0
354.808 -3.74759 0
357.343 -3.84462 0
357.507 0.438476 0
354.972 0.535541 0
356.076 -3.79607 0
357.425 -1.70304 0
356.24 0.487047 0
354.89 -1.60599 0
356.158 -1.65448 0
357.343 -3.84462 0
359.878 -3.94196 0
360.043 0.341105 0
357.507 0.438476 0
358.611 -3.89325 0
359.96 -1.8004 0
358.775 0.389828 0
357.425 -1.70304 0
358.693 -1.75168 0
359.878 -3.94196 0
362.413 -4.03961 0
362.578 0.243435 0
360.043 0.341105 0
361.146 -3.99075 0
362.496 -1.89805 0
361.31 0.292307 0
359.96 -1.8004 0
361.228 -1.84919 0
362.413 -4.03961 0
364.948 -4.13754 0
365.114 0.14547 0
362.578 0.243435 0
363.681 -4.08854 0
365.031 -1.99601 0
363.846 0.194489 0
362.496 -1.89805 0
363.763 -1.94699 0
364.948 -4.13754 0
367.483 -4.23577 0
367.649 0.0472166 0
365.114 0.14547 0
366.216 -4.18662 0
367.566 -2.09425 0
366.381 0.0963791 0
365.031 -1.99601 0
366.298 -2.04509 0
367.483 -4.23577 0
370.018 -4.33428 0
370.184 -0.0513203 0
367.649 0.0472166 0
368.751 -4.28499 0
370.101 -2.19277 0
368.917 -0.00201679 0
367.566 -2.09425 0
368.834 -2.14347 0
370.018 -4.33428 0
372.553 -4.43306 0
372.72 -0.150135 0
370.184 -0.0513203 0
371.286 -4.38364 0
372.637 -2.29157 0
371.452 -0.100693 0
370.101 -2.19277 0
371.369 -2.24214 0
372.553 -4.43306 0
375.088 -4.53212 0
375.255 -0.249223 0
372.72 -0.150135 0
373.821 -4.48256 0
375.172 -2.39065 0
373.988 -0.199645 0
372.637 -2.29157 0
373.904 -2.34107 0
375.088 -4.53212 0
377.623 -4.63145 0
377.791 -0.348577 0
375.255 -0.249223 0
376.356 -4.58176 0
377.707 -2.48999 0
376.523 -0.298867 0
375.172 -2.39065 0
376.439 -2.44028 0
377.623 -4.63145 0
380.158 -4.73104 0
380.326 -0.448193 0
377.791 -0.348577 0
378.891 -4.68121 0
380.242 -2.58959 0
379.059 -0.398353 0
377.707 -2.48999 0
378.975 -2.53976 0
380.158 -4.73104 0
382.693 -4.83089 0
382.862 -0.548066 0
380.326 -0.448193 0
381.426 -4.78093 0
382.777 -2.68945 0
381.594 -0.498098 0
380.242 -2.58959 0
381.51 -2.63949 0
382.693 -4.83089 0
385.228 -4.93099 0
385.397 -0.648189 0
382.862 -0.548066 0
383.961 -4.88091 0
385.313 -2.78956 0
384.129 -0.598096 0
382.777 -2.68945 0
384.045 -2.73948 0
385.228 -4.93099 0
387.763 -5.03133 0
387.933 -0.748557 0
385.397 -0.648189 0
386.496 -4.98113 0
387.848 -2.88992 0
386.665 -0.698343 0
385.313 -2.78956 0
386.58 -2.83971 0
387.763 -5.03133 0
390.298 -5.13191 0
390.468 -0.849165 0
387.933 -0.748557 0
389.031 -5.08159 0
390.383 -2.99051 0
389.2 -0.798832 0
387.848 -2.88992 0
389.116 -2.94019 0
390.298 -5.13191 0
392.833 -5.23273 0
393.004 -0.950008 0
390.468 -0.849165 0
391.566 -5.18229 0
392.919 -3.09135 0
391.736 -0.899558 0
390.383 -2.99051 0
391.651 -3.0409 0
392.833 -5.23273 0
395.369 -5.33378 0
395.539 -1.05108 0
393.004 -0.950008 0
394.101 -5.28323 0
395.454 -3.19241 0
394.271 -1.00052 0
392.919 -3.09135 0
394.186 -3.14185 0
395.369 -5.33378 0
397.904 -5.43505 0
398.075 -1.15238 0
395.539 -1.05108 0
396.636 -5.38439 0
397.989 -3.29369 0
396.807 -1.1017 0
395.454 -3.19241 0
396.722 -3.24302 0
397.904 -5.43505 0
400.439 -5.53654 0
400.61 -1.25389 0
398.075 -1.15238 0
399.171 -5.48577 0
400.524 -3.39519 0
399.342 -1.20311 0
397.989 -3.29369 0
399.257 -3.34441 0
400.439 -5.53654 0
402.974 -5.63824 0
403.146 -1.35562 0
400.61 -1.25389 0
401.706 -5.58736 0
403.06 -3.49691 0
401.878 -1.30473 0
400.524 -3.39519 0
401.792 -3.44602 0
402.974 -5.63824 0
405.509 -5.74015 0
405.681 -1.45755 0
403.146 -1.35562 0
404.242 -5.68917 0
405.595 -3.59883 0
404.413 -1.40656 0
403.06 -3.49691 0
404.327 -3.54784 0
405.509 -5.74015 0
408.044 -5.84226 0
408.217 -1.55968 0
405.681 -1.45755 0
406.777 -5.79118 0
408.13 -3.70095 0
406.949 -1.50859 0
405.595 -3.59883 0
406.863 -3.64987 0
408.044 -5.84226 0
410.579 -5.94457 0
410.752 -1.66202 0
408.217 -1.55968 0
409.312 -5.89339 0
410.666 -3.80327 0
409.484 -1.61083 0
408.13 -3.70095 0
409.398 -3.75209 0
410.579 -5.94457 0
413.115 -6.04707 0
413.288 -1.76454 0
410.752 -1.66202 0
411.847 -5.9958 0
413.201 -3.90579 0
412.02 -1.71325 0
410.666 -3.80327 0
411.934 -3.85451 0
413.115 -6.04707 0
415.65 -6.14976 0
415.823 -1.86725 0
413.288 -1.76454 0
414.382 -6.09839 0
415.737 -4.00848 0
414.555 -1.81587 0
413.201 -3.90579 0
414.469 -3.95711 0
415.65 -6.14976 0
418.185 -6.25263 0
418.359 -1.97013 0
415.823 -1.86725 0
416.918 -6.20117 0
418.272 -4.11136 0
417.091 -1.91867 0
415.737 -4.00848 0
417.004 -4.0599 0
418.185 -6.25263 0
420.72 -6.35567 0
420.894 -2.0732 0
418.359 -1.97013 0
419.453 -6.30413 0
420.807 -4.21442 0
419.627 -2.02164 0
418.272 -4.11136 0
419.54 -4.16287 0
420.72 -6.35567 0
423.256 -6.45888 0
423.43 -2.17643 0
420.894 -2.0732 0
421.988 -6.40725 0
423.343 -4.31764 0
422.162 -2.12479 0
420.807 -4.21442 0
422.075 -4.26601 0
423.256 -6.45888 0
425.791 -6.56226 0
425.965 -2.27983 0
423.43 -2.17643 0
424.523 -6.51055 0
425.878 -4.42102 0
424.698 -2.22811 0
423.343 -4.31764 0
424.611 -4.36931 0
425.791 -6.56226 0
428.326 -6.66579 0
428.501 -2.38338 0
425.965 -2.27983 0
427.059 -6.614 0
428.414 -4.52457 0
427.233 -2.33158 0
425.878 -4.42102 0
427.146 -4.47278 0
428.326 -6.66579 0
430.862 -6.76948 0
431.037 -2.48709 0
428.501 -2.38338 0
429.594 -6.71761 0
430.949 -4.62827 0
429.769 -2.43521 0
428.414 -4.52457 0
429.681 -4.5764 0
430.862 -6.76948 0
433.397 -6.87331 0
433.572 -2.59094 0
431.037 -2.48709 0
432.129 -6.82138 0
433.485 -4.73211 0
432.304 -2.539 0
430.949 -4.62827 0
432.217 -4.68017 0
433.397 -6.87331 0
435.932 -6.97729 0
436.108 -2.69494 0
433.572 -2.59094 0
434.665 -6.92528 0
436.02 -4.8361 0
434.84 -2.64292 0
433.485 -4.73211 0
434.752 -4.78409 0
435.932 -6.97729 0
438.468 -7.0814 0
438.643 -2.79907 0
436.108 -2.69494 0
437.2 -7.02933 0
438.556 -4.94022 0
437.376 -2.74699 0
436.02 -4.8361 0
437.288 -4.88814 0
438.468 -7.0814 0
441.003 -7.18565 0
441.179 -2.90333 0
438.643 -2.79907 0
439.735 -7.13351 0
441.091 -5.04448 0
439.911 -2.85119 0
438.556 -4.94022 0
439.823 -4.99234 0
441.003 -7.18565 0
443.538 -7.29002 0
443.715 -3.00772 0
441.179 -2.90333 0
442.271 -7.23782 0
443.627 -5.14886 0
442.447 -2.95551 0
441.091 -5.04448 0
442.359 -5.09665 0
443.538 -7.29002 0
446.074 -7.39451 0
446.25 -3.11223 0
443.715 -3.00772 0
444.806 -7.34225 0
446.162 -5.25336 0
444.982 -3.05996 0
443.627 -5.14886 0
444.894 -5.2011 0
446.074 -7.39451 0
448.609 -7.49912 0
448.786 -3.21686 0
446.25 -3.11223 0
447.342 -7.4468 0
448.698 -5.35798 0
447.518 -3.16453 0
446.162 -5.25336 0
447.43 -5.30566 0
448.609 -7.49912 0
451.145 -7.60384 0
451.321 -3.32159 0
448.786 -3.21686 0
449.877 -7.55147 0
451.233 -5.46271 0
450.054 -3.26921 0
448.698 -5.35798 0
449.965 -5.41033 0
451.145 -7.60384 0
453.68 -7.70866 0
453.857 -3.42643 0
451.321 -3.32159 0
452.413 -7.65624 0
453.769 -5.56754 0
452.589 -3.374 0
451.233 -5.46271 0
452.501 -5.51511 0
453.68 -7.70866 0
456.216 -7.81358 0
456.393 -3.53137 0
453.857 -3.42643 0
454.948 -7.76111 0
456.304 -5.67247 0
455.125 -3.47889 0
453.769 -5.56754 0
455.037 -5.61999 0
456.216 -7.81358 0
458.751 -7.9186 0
458.928 -3.6364 0
456.393 -3.53137 0
457.484 -7.86608 0
458.84 -5.77749 0
457.661 -3.58387 0
456.304 -5.67247 0
457.572 -5.72497 0
458.751 -7.9186 0
461.287 -8.0237 0
461.464 -3.74151 0
458.928 -3.6364 0
460.019 -7.97114 0
461.376 -5.8826 0
460.196 -3.68894 0
458.84 -5.77749 0
460.108 -5.83003 0
461.287 -8.0237 0
463.822 -8.12888 0
464 -3.84671 0
461.464 -3.74151 0
462.555 -8.07628 0
463.911 -5.98779 0
462.732 -3.7941 0
461.376 -5.8826 0
462.643 -5.93518 0
463.822 -8.12888 0
466.358 -8.23414 0
466.536 -3.95199 0
464 -3.84671 0
465.09 -8.1815 0
466.447 -6.09306 0
465.268 -3.89934 0
463.911 -5.98779 0
465.179 -6.04042 0
466.358 -8.23414 0
468.894 -8.33948 0
469.071 -4.05734 0
466.536 -3.95199 0
467.626 -8.2868 0
468.982 -6.1984 0
467.803 -4.00466 0
466.447 -6.09306 0
467.715 -6.14572 0
468.894 -8.33948 0
471.429 -8.44488 0
471.607 -4.16275 0
469.071 -4.05734 0
470.161 -8.39217 0
471.518 -6.30381 0
470.339 -4.11004 0
468.982 -6.1984 0
470.25 -6.2511 0
471.429 -8.44488 0
473.965 -8.55034 0
474.143 -4.26822 0
471.607 -4.16275 0
472.697 -8.4976 0
474.054 -6.40928 0
472.875 -4.21548 0
471.518 -6.30381 0
472.786 -6.35653 0
473.965 -8.55034 0
476.5 -8.65585 0
476.678 -4.37375 0
474.143 -4.26822 0
475.233 -8.60309 0
476.589 -6.5148 0
475.411 -4.32098 0
474.054 -6.40928 0
475.322 -6.46203 0
476.5 -8.65585 0
479.036 -8.76142 0
479.214 -4.47933 0
476.678 -4.37375 0
477.768 -8.70863 0
479.125 -6.62037 0
477.946 -4.42654 0
476.589 -6.5148 0
477.857 -6.56758 0
479.036 -8.76142 0
481.572 -8.86703 0
481.75 -4.58496 0
479.214 -4.47933 0
480.304 -8.81422 0
481.661 -6.72599 0
480.482 -4.53214 0
479.125 -6.62037 0
480.393 -6.67317 0
481.572 -8.86703 0
484.108 -8.97267 0
484.286 -4.69062 0
481.75 -4.58496 0
482.84 -8.91985 0
484.197 -6.83164 0
483.018 -4.63778 0
481.661 -6.72599 0
482.929 -6.77881 0
484.108 -8.97267 0
486.643 -9.07836 0
486.822 -4.79632 0
484.286 -4.69062 0
485.375 -9.02551 0
486.732 -6.93733 0
485.554 -4.74346 0
484.197 -6.83164 0
485.465 -6.88448 0
486.643 -9.07836 0
489.179 -9.18407 0
489.357 -4.90204 0
486.822 -4.79632 0
487.911 -9.13121 0
489.268 -7.04305 0
488.089 -4.84918 0
486.732 -6.93733 0
488 -6.99019 0
489.179 -9.18407 0
491.715 -9.28981 0
491.893 -5.0078 0
489.357 -4.90204 0
490.447 -9.23694 0
491.804 -7.14881 0
490.625 -4.95492 0
489.268 -7.04305 0
490.536 -7.09593 0
491.715 -9.28981 0
494.251 -9.3956 0
494.429 -5.11357 0
491.893 -5.0078 0
492.983 -9.3427 0
494.34 -7.25459 0
493.161 -5.06068 0
491.804 -7.14881 0
493.072 -7.20169 0
494.251 -9.3956 0
496.787 -9.50145 0
496.965 -5.21934 0
494.429 -5.11357 0
495.519 -9.44852 0
496.876 -7.3604 0
495.697 -5.16646 0
494.34 -7.25459 0
495.608 -7.30749 0
496.787 -9.50145 0
499.322 -9.60734 0
499.501 -5.32506 0
496.965 -5.21934 0
498.055 -9.5544 0
499.412 -7.46618 0
498.233 -5.27221 0
496.876 -7.3604 0
498.144 -7.4133 0
0 8.57143 0
2.53567 8.57119 0
2.53728 12.8573 0
0 12.8571 0
1.26787 8.5715 0
2.53648 10.7143 0
1.26864 12.8574 0
0 10.7143 0
1.26826 10.7145 0
2.53567 8.57119 0
5.07115 8.56957 0
5.07449 12.8559 0
2.53728 12.8573 0
3.80342 8.57053 0
5.07283 10.7128 0
3.80589 12.8568 0
2.53648 10.7143 0
3.80467 10.7137 0
5.07115 8.56957 0
7.60653 8.56678 0
7.61166 12.8533 0
5.07449 12.8559 0
6.33885 8.56831 0
7.60912 10.7101 0
6.34308 12.8548 0
5.07283 10.7128 0
6.34098 10.7116 0
7.60653 8.56678 0
10.1419 8.56291 0
10.1488 12.8495 0
7.61166 12.8533 0
8.8742 8.56498 0
10.1454 10.7063 0
8.88025 12.8515 0
7.60912 10.7101 0
8.87725 10.7084 0
10.1419 8.56291 0
12.6772 8.55799 0
12.686 12.8446 0
10.1488 12.8495 0
11.4096 8.56058 0
12.6816 10.7014 0
11.4174 12.8472 0
10.1454 10.7063 0
11.4135 10.704 0
12.6772 8.55799 0
15.2126 8.55204 0
15.2231 12.8386 0
12.686 12.8446 0
13.9449 8.55515 0
15.2179 10.6955 0
13.9546 12.8418 0
12.6816 10.7014 0
13.9498 10.6986 0
15.2126 8.55204 0
17.748 8.54506 0
17.7603 12.8316 0
15.2231 12.8386 0
16.4803 8.54868 0
17.7542 10.6885 0
16.4917 12.8353 0
15.2179 10.6955 0
16.486 10.6921 0
17.748 8.54506 0
20.2835 8.53704 0
20.2975 12.8236 0
17.7603 12.8316 0
19.0157 8.54118 0
20.2905 10.6804 0
19.0289 12.8278 0
17.7542 10.6885 0
19.0223 10.6846 0
20.2835 8.53704 0
22.8189 8.528 0
22.8347 12.8146 0
20.2975 12.8236 0
21.5512 8.53265 0
22.8268 10.6714 0
21.5661 12.8192 0
20.2905 10.6804 0
21.5586 10.676 0
22.8189 8.528 0
25.3544 8.51793 0
25.3718 12.8045 0
22.8347 12.8146 0
24.0866 8.52309 0
25.3631 10.6613 0
24.1033 12.8096 0
22.8268 10.6714 0
24.0949 10.6665 0
25.3544 8.51793 0
27.8898 8.50685 0
27.909 12.7934 0
25.3718 12.8045 0
26.6221 8.51252 0
27.8994 10.6502 0
26.6404 12.7991 0
25.3631 10.6613 0
26.6313 10.6559 0
27.8898 8.50685 0
30.4253 8.49476 0
30.4462 12.7813 0
27.909 12.7934 0
29.1576 8.50093 0
30.4358 10.6381 0
29.1776 12.7875 0
27.8994 10.6502 0
29.1676 10.6443 0
30.4253 8.49476 0
32.9608 8.48165 0
32.9834 12.7682 0
30.4462 12.7813 0
31.693 8.48833 0
32.9721 10.625 0
31.7148 12.7748 0
30.4358 10.6381 0
31.7039 10.6317 0
32.9608 8.48165 0
35.4963 8.46755 0
35.5206 12.754 0
32.9834 12.7682 0
34.2285 8.47473 0
35.5084 10.6109 0
34.252 12.7612 0
32.9721 10.625 0
34.2403 10.6181 0
35.4963 8.46755 0
38.0318 8.45245 0
38.0578 12.7389 0
35.5206 12.754 0
36.764 8.46013 0
38.0448 10.5958 0
36.7892 12.7466 0
35.5084 10.6109 0
36.7766 10.6035 0
38.0318 8.45245 0
40.5673 8.43637 0
40.5949 12.7228 0
38.0578 12.7389 0
39.2995 8.44453 0
40.5811 10.5797 0
39.3264 12.731 0
38.0448 10.5958 0
39.313 10.5879 0
40.5673 8.43637 0
43.1028 8.41929 0
43.1321 12.7057 0
40.5949 12.7228 0
41.835 8.42795 0
43.1175 10.5626 0
41.8635 12.7144 0
40.5811 10.5797 0
41.8493 10.5713 0
43.1028 8.41929 0
45.6383 8.40124 0
45.6693 12.6877 0
43.1321 12.7057 0
44.3706 8.41039 0
45.6538 10.5446 0
44.4007 12.6968 0
43.1175 10.5626 0
44.3857 10.5537 0
45.6383 8.40124 0
48.1739 8.38221 0
48.2065 12.6686 0
45.6693 12.6877 0
46.9061 8.39185 0
48.1902 10.5255 0
46.9379 12.6783 0
45.6538 10.5446 0
46.922 10.5352 0
48.1739 8.38221 0
50.7094 8.36221 0
50.7436 12.6486 0
48.2065 12.6686 0
49.4416 8.37233 0
50.7265 10.5055 0
49.4751 12.6587 0
48.1902 10.5255 0
49.4584 10.5156 0
50.7094 8.36221 0
53.245 8.34126 0
53.2808 12.6276 0
50.7436 12.6486 0
51.9772 8.35185 0
53.2629 10.4845 0
52.0122 12.6382 0
50.7265 10.5055 0
51.9947 10.4952 0
53.245 8.34126 0
55.7805 8.31934 0
55.818 12.6057 0
53.2808 12.6276 0
54.5127 8.33042 0
55.7993 10.4626 0
54.5494 12.6168 0
53.2629 10.4845 0
54.5311 10.4737 0
55.7805 8.31934 0
58.3161 8.29647 0
58.3551 12.5828 0
55.818 12.6057 0
57.0483 8.30802 0
58.3356 10.4397 0
57.0866 12.5944 0
55.7993 10.4626 0
57.0674 10.4513 0
58.3161 8.29647 0
60.8516 8.27265 0
60.8923 12.559 0
58.3551 12.5828 0
59.5838 8.28468 0
60.872 10.4159 0
59.6237 12.571 0
58.3356 10.4397 0
59.6038 10.4279 0
60.8516 8.27265 0
63.3872 8.24789 0
63.4295 12.5342 0
60.8923 12.559 0
62.1194 8.26039 0
63.4083 10.3911 0
62.1609 12.5467 0
60.872 10.4159 0
62.1401 10.4036 0
63.3872 8.24789 0
65.9228 8.2222 0
65.9666 12.5085 0
63.4295 12.5342 0
64.655 8.23516 0
65.9447 10.3654 0
64.698 12.5215 0
63.4083 10.3911 0
64.6765 10.3784 0
65.9228 8.2222 0
68.4583 8.19557 0
68.5037 12.4818 0
65.9666 12.5085 0
67.1905 8.209 0
68.481 10.3388 0
67.2352 12.4953 0
65.9447 10.3654 0
67.2129 10.3522 0
68.4583 8.19557 0
70.9939 8.16802 0
71.0409 12.4543 0
68.5037 12.4818 0
69.7261 8.18191 0
71.0174 10.3112 0
69.7723 12.4682 0
68.481 10.3388 0
69.7492 10.3251 0
70.9939 8.16802 0
73.5295 8.13955 0
73.578 12.4258 0
71.0409 12.4543 0
72.2617 8.1539 0
73.5538 10.2828 0
72.3095 12.4401 0
71.0174 10.3112 0
72.2856 10.2971 0
73.5295 8.13955 0
76.0651 8.11017 0
76.1151 12.3964 0
73.578 12.4258 0
74.7973 8.12498 0
76.0901 10.2534 0
74.8466 12.4112 0
73.5538 10.2828 0
74.8219 10.2682 0
76.0651 8.11017 0
78.6007 8.07988 0
78.6523 12.366 0
76.1151 12.3964 0
77.3329 8.09514 0
78.6265 10.2231 0
77.3837 12.3813 0
76.0901 10.2534 0
77.3583 10.2383 0
78.6007 8.07988 0
81.1363 8.04868 0
81.1894 12.3348 0
78.6523 12.366 0
79.8685 8.06439 0
81.1628 10.1918 0
79.9208 12.3505 0
78.6265 10.2231 0
79.8947 10.2076 0
81.1363 8.04868 0
83.6719 8.01658 0
83.7265 12.3027 0
81.1894 12.3348 0
82.4041 8.03274 0
83.6992 10.1597 0
82.4579 12.3189 0
81.1628 10.1918 0
82.431 10.1759 0
83.6719 8.01658 0
86.2075 7.9836 0
86.2636 12.2697 0
83.7265 12.3027 0
84.9397 8.0002 0
86.2355 10.1267 0
84.995 12.2863 0
83.6992 10.1597 0
84.9674 10.1434 0
86.2075 7.9836 0
88.7431 7.94972 0
88.8007 12.2358 0
86.2636 12.2697 0
87.4753 7.96677 0
88.7719 10.0929 0
87.5321 12.2529 0
86.2355 10.1267 0
87.5037 10.1099 0
88.7431 7.94972 0
91.2787 7.91497 0
91.3378 12.201 0
88.8007 12.2358 0
90.0109 7.93245 0
91.3082 10.0581 0
90.0692 12.2185 0
88.7719 10.0929 0
90.0401 10.0756 0
91.2787 7.91497 0
93.8143 7.87933 0
93.8749 12.1654 0
91.3378 12.201 0
92.5465 7.89726 0
93.8446 10.0224 0
92.6063 12.1833 0
91.3082 10.0581 0
92.5764 10.0404 0
93.8143 7.87933 0
96.3499 7.84283 0
96.4119 12.1288 0
93.8749 12.1654 0
95.0821 7.86119 0
96.3809 9.98592 0
95.1434 12.1472 0
93.8446 10.0224 0
95.1127 10.0043 0
96.3499 7.84283 0
98.8855 7.80546 0
98.949 12.0914 0
96.4119 12.1288 0
97.6177 7.82425 0
98.9172 9.94854 0
97.6805 12.1102 0
96.3809 9.98592 0
97.6491 9.96734 0
98.8855 7.80546 0
101.421 7.76723 0
101.486 12.0532 0
98.949 12.0914 0
100.153 7.78645 0
101.454 9.9103 0
100.218 12.0724 0
98.9172 9.94854 0
100.185 9.92953 0
101.421 7.76723 0
103.957 7.72815 0
104.023 12.0141 0
101.486 12.0532 0
102.689 7.7478 0
103.99 9.8712 0
102.755 12.0337 0
101.454 9.9103 0
102.722 9.89086 0
103.957 7.72815 0
106.492 7.68822 0
106.56 11.9741 0
104.023 12.0141 0
105.224 7.70829 0
106.526 9.83125 0
105.292 11.9942 0
103.99 9.8712 0
105.258 9.85133 0
106.492 7.68822 0
109.028 7.64744 0
109.097 11.9333 0
106.56 11.9741 0
107.76 7.66793 0
109.063 9.79046 0
107.829 11.9538 0
106.526 9.83125 0
107.794 9.81096 0
109.028 7.64744 0
111.564 7.60583 0
111.634 11.8917 0
109.097 11.9333 0
110.296 7.62674 0
111.599 9.74884 0
110.366 11.9126 0
109.063 9.79046 0
110.331 9.76975 0
111.564 7.60583 0
114.099 7.56338 0
114.171 11.8492 0
111.634 11.8917 0
112.831 7.58471 0
114.135 9.70637 0
112.903 11.8705 0
111.599 9.74884 0
112.867 9.72771 0
114.099 7.56338 0
116.635 7.52011 0
116.708 11.8059 0
114.171 11.8492 0
115.367 7.54185 0
116.671 9.66308 0
115.44 11.8276 0
114.135 9.70637 0
115.403 9.68483 0
116.635 7.52011 0
119.17 7.47601 0
119.245 11.7618 0
116.708 11.8059 0
117.903 7.49816 0
119.208 9.61897 0
117.977 11.7839 0
116.671 9.66308 0
117.94 9.64113 0
119.17 7.47601 0
121.706 7.4311 0
121.782 11.7168 0
119.245 11.7618 0
120.438 7.45365 0
121.744 9.57405 0
120.514 11.7394 0
119.208 9.61897 0
120.476 9.59661 0
121.706 7.4311 0
124.242 7.38537 0
124.319 11.6711 0
121.782 11.7168 0
122.974 7.40834 0
124.28 9.52831 0
123.051 11.694 0
121.744 9.57405 0
123.012 9.55128 0
124.242 7.38537 0
126.777 7.33884 0
126.856 11.6245 0
124.319 11.6711 0
125.509 7.36221 0
126.817 9.48176 0
125.588 11.6479 0
124.28 9.52831 0
125.549 9.50514 0
126.777 7.33884 0
129.313 7.29151 0
129.393 11.5772 0
126.856 11.6245 0
128.045 7.31528 0
129.353 9.43442 0
128.125 11.6009 0
126.817 9.48176 0
128.085 9.45819 0
129.313 7.29151 0
131.848 7.24339 0
131.93 11.529 0
129.393 11.5772 0
130.581 7.26755 0
131.889 9.38628 0
130.662 11.5532 0
129.353 9.43442 0
130.621 9.41045 0
131.848 7.24339 0
134.384 7.19448 0
134.467 11.4801 0
131.93 11.529 0
133.116 7.21903 0
134.425 9.33735 0
133.198 11.5046 0
131.889 9.38628 0
133.157 9.36191 0
134.384 7.19448 0
136.92 7.14478 0
137.004 11.4303 0
134.467 11.4801 0
135.652 7.16973 0
136.962 9.28764 0
135.735 11.4553 0
134.425 9.33735 0
135.694 9.31259 0
136.92 7.14478 0
139.455 7.0943 0
139.541 11.3798 0
137.004 11.4303 0
138.187 7.11964 0
139.498 9.23715 0
138.272 11.4052 0
136.962 9.28764 0
138.23 9.26249 0
139.455 7.0943 0
141.991 7.04306 0
142.078 11.3285 0
139.541 11.3798 0
140.723 7.06878 0
142.034 9.18588 0
140.809 11.3543 0
139.498 9.23715 0
140.766 9.21161 0
141.991 7.04306 0
144.526 6.99104 0
144.615 11.2765 0
142.078 11.3285 0
143.259 7.01714 0
144.57 9.13385 0
143.346 11.3026 0
142.034 9.18588 0
143.302 9.15996 0
144.526 6.99104 0
147.062 6.93826 0
147.151 11.2237 0
144.615 11.2765 0
145.794 6.96475 0
147.107 9.08106 0
145.883 11.2502 0
144.57 9.13385 0
145.839 9.10755 0
147.062 6.93826 0
149.598 6.88473 0
149.688 11.1701 0
147.151 11.2237 0
148.33 6.91159 0
149.643 9.0275 0
148.42 11.197 0
147.107 9.08106 0
148.375 9.05437 0
149.598 6.88473 0
152.133 6.83044 0
152.225 11.1158 0
149.688 11.1701 0
150.865 6.85768 0
152.179 8.9732 0
150.957 11.1431 0
149.643 9.0275 0
150.911 9.00045 0
152.133 6.83044 0
154.669 6.77541 0
154.762 11.0607 0
152.225 11.1158 0
153.401 6.80302 0
154.715 8.91815 0
153.494 11.0884 0
152.179 8.9732 0
153.447 8.94577 0
154.669 6.77541 0
157.204 6.71964 0
157.299 11.0049 0
154.762 11.0607 0
155.937 6.74762 0
157.252 8.86237 0
156.03 11.0329 0
154.715 8.91815 0
155.983 8.89035 0
157.204 6.71964 0
159.74 6.66313 0
159.836 10.9484 0
157.299 11.0049 0
158.472 6.69148 0
159.788 8.80584 0
158.567 10.9768 0
157.252 8.86237 0
158.52 8.8342 0
159.74 6.66313 0
162.276 6.6059 0
162.372 10.8911 0
159.836 10.9484 0
161.008 6.63461 0
162.324 8.74859 0
161.104 10.9199 0
159.788 8.80584 0
161.056 8.77731 0
162.276 6.6059 0
164.811 6.54794 0
164.909 10.8331 0
162.372 10.8911 0
163.543 6.57701 0
164.86 8.69061 0
163.641 10.8622 0
162.324 8.74859 0
163.592 8.71969 0
164.811 6.54794 0
167.347 6.48926 0
167.446 10.7744 0
164.909 10.8331 0
166.079 6.51869 0
167.396 8.63192 0
166.178 10.8039 0
164.86 8.69061 0
166.128 8.66136 0
167.347 6.48926 0
169.882 6.42987 0
169.983 10.715 0
167.446 10.7744 0
168.614 6.45965 0
169.933 8.57251 0
168.714 10.7448 0
167.396 8.63192 0
168.664 8.6023 0
169.882 6.42987 0
172.418 6.36977 0
172.52 10.6549 0
169.983 10.715 0
171.15 6.39991 0
172.469 8.51239 0
171.251 10.685 0
169.933 8.57251 0
171.201 8.54254 0
172.418 6.36977 0
174.953 6.30897 0
175.056 10.594 0
172.52 10.6549 0
173.686 6.33945 0
175.005 8.45158 0
173.788 10.6245 0
172.469 8.51239 0
173.737 8.48207 0
174.953 6.30897 0
177.489 6.24747 0
177.593 10.5325 0
175.056 10.594 0
176.221 6.2783 0
177.541 8.39006 0
176.325 10.5634 0
175.005 8.45158 0
176.273 8.4209 0
177.489 6.24747 0
180.025 6.18528 0
180.13 10.4703 0
177.593 10.5325 0
178.757 6.21646 0
180.077 8.32785 0
178.861 10.5015 0
177.541 8.39006 0
178.809 8.35904 0
180.025 6.18528 0
182.56 6.1224 0
182.667 10.4074 0
180.13 10.4703 0
181.292 6.15393 0
182.613 8.26496 0
181.398 10.4389 0
180.077 8.32785 0
181.345 8.29649 0
182.56 6.1224 0
185.096 6.05885 0
185.203 10.3438 0
182.667 10.4074 0
183.828 6.09071 0
185.149 8.20139 0
183.935 10.3757 0
182.613 8.26496 0
183.881 8.23326 0
185.096 6.05885 0
187.631 5.99462 0
187.74 10.2795 0
185.203 10.3438 0
186.363 6.02682 0
187.686 8.13714 0
186.472 10.3117 0
185.149 8.20139 0
186.417 8.16935 0
187.631 5.99462 0
190.167 5.92972 0
190.277 10.2146 0
187.74 10.2795 0
188.899 5.96225 0
190.222 8.07222 0
189.008 10.2471 0
187.686 8.13714 0
188.954 8.10476 0
190.167 5.92972 0
192.702 5.86415 0
192.813 10.149 0
190.277 10.2146 0
191.434 5.89702 0
192.758 8.00664 0
191.545 10.1819 0
190.222 8.07222 0
191.49 8.03951 0
192.702 5.86415 0
195.238 5.79793 0
195.35 10.0827 0
192.813 10.149 0
193.97 5.83112 0
195.294 7.9404 0
194.082 10.1159 0
192.758 8.00664 0
194.026 7.9736 0
195.238 5.79793 0
197.773 5.73105 0
197.887 10.0158 0
195.35 10.0827 0
196.506 5.76457 0
197.83 7.87351 0
196.618 10.0494 0
195.294 7.9404 0
196.562 7.90703 0
197.773 5.73105 0
200.309 5.66353 0
200.423 9.94826 0
197.887 10.0158 0
199.041 5.69737 0
200.366 7.80596 0
199.155 9.98212 0
197.83 7.87351 0
199.098 7.83982 0
200.309 5.66353 0
202.844 5.59536 0
202.96 9.88006 0
200.423 9.94826 0
201.577 5.62952 0
202.902 7.73778 0
201.691 9.91424 0
200.366 7.80596 0
201.634 7.77195 0
202.844 5.59536 0
205.38 5.52656 0
205.496 9.81123 0
202.96 9.88006 0
204.112 5.56104 0
205.438 7.66896 0
204.228 9.84572 0
202.902 7.73778 0
204.17 7.70345 0
205.38 5.52656 0
207.915 5.45712 0
208.033 9.74176 0
205.496 9.81123 0
206.648 5.49192 0
207.974 7.59951 0
206.765 9.77657 0
205.438 7.66896 0
206.706 7.63431 0
207.915 5.45712 0
210.451 5.38706 0
210.57 9.67166 0
208.033 9.74176 0
209.183 5.42217 0
210.51 7.52943 0
209.301 9.70679 0
207.974 7.59951 0
209.242 7.56455 0
210.451 5.38706 0
212.987 5.31638 0
213.106 9.60095 0
210.57 9.67166 0
211.719 5.3518 0
213.046 7.45873 0
211.838 9.63638 0
210.51 7.52943 0
211.778 7.49416 0
212.987 5.31638 0
215.522 5.24508 0
215.643 9.52962 0
213.106 9.60095 0
214.254 5.28081 0
215.582 7.38741 0
214.374 9.56536 0
213.046 7.45873 0
214.314 7.42315 0
215.522 5.24508 0
218.058 5.17318 0
218.179 9.45768 0
215.643 9.52962 0
216.79 5.2092 0
218.118 7.31549 0
216.911 9.49372 0
215.582 7.38741 0
216.85 7.35153 0
218.058 5.17318 0
220.593 5.10066 0
220.716 9.38513 0
218.179 9.45768 0
219.325 5.13699 0
220.654 7.24296 0
219.447 9.42148 0
218.118 7.31549 0
219.386 7.2793 0
220.593 5.10066 0
223.129 5.02755 0
223.252 9.31199 0
220.716 9.38513 0
221.861 5.06418 0
223.19 7.16983 0
221.984 9.34863 0
220.654 7.24296 0
221.922 7.20647 0
223.129 5.02755 0
225.664 4.95385 0
225.789 9.23825 0
223.252 9.31199 0
224.396 4.99078 0
225.726 7.09611 0
224.52 9.27519 0
223.19 7.16983 0
224.458 7.13305 0
225.664 4.95385 0
228.2 4.87956 0
228.325 9.16393 0
225.789 9.23825 0
226.932 4.91678 0
228.262 7.02181 0
227.057 9.20116 0
225.726 7.09611 0
226.994 7.05903 0
228.2 4.87956 0
230.735 4.80469 0
230.862 9.08902 0
228.325 9.16393 0
229.467 4.8422 0
230.798 6.94691 0
229.593 9.12655 0
228.262 7.02181 0
229.53 6.98443 0
230.735 4.80469 0
233.271 4.72924 0
233.398 9.01354 0
230.862 9.08902 0
232.003 4.76703 0
233.334 6.87145 0
232.13 9.05135 0
230.798 6.94691 0
232.066 6.90925 0
233.271 4.72924 0
235.806 4.65321 0
235.935 8.93748 0
233.398 9.01354 0
234.538 4.6913 0
235.87 6.79541 0
234.666 8.97558 0
233.334 6.87145 0
234.602 6.8335 0
235.806 4.65321 0
238.342 4.57662 0
238.471 8.86086 0
235.935 8.93748 0
237.074 4.61499 0
238.406 6.7188 0
237.203 8.89924 0
235.87 6.79541 0
237.138 6.75717 0
238.342 4.57662 0
240.877 4.49947 0
241.007 8.78368 0
238.471 8.86086 0
239.609 4.53812 0
240.942 6.64163 0
239.739 8.82234 0
238.406 6.7188 0
239.674 6.68029 0
240.877 4.49947 0
243.413 4.42177 0
243.544 8.70594 0
241.007 8.78368 0
242.145 4.46069 0
243.478 6.56391 0
242.276 8.74488 0
240.942 6.64163 0
242.21 6.60284 0
243.413 4.42177 0
245.948 4.34352 0
246.08 8.62765 0
243.544 8.70594 0
244.68 4.38271 0
246.014 6.48564 0
244.812 8.66686 0
243.478 6.56391 0
244.746 6.52484 0
245.948 4.34352 0
248.483 4.26472 0
248.617 8.54882 0
246.08 8.62765 0
247.216 4.30418 0
248.55 6.40682 0
247.348 8.5883 0
246.014 6.48564 0
247.282 6.4463 0
248.483 4.26472 0
251.019 4.18538 0
251.153 8.46945 0
248.617 8.54882 0
249.751 4.22511 0
251.086 6.32747 0
249.885 8.5092 0
248.55 6.40682 0
249.818 6.36721 0
251.019 4.18538 0
253.554 4.10551 0
253.689 8.38954 0
251.153 8.46945 0
252.287 4.14551 0
253.622 6.24758 0
252.421 8.42956 0
251.086 6.32747 0
252.354 6.28759 0
253.554 4.10551 0
256.09 4.02511 0
256.226 8.30911 0
253.689 8.38954 0
254.822 4.06537 0
256.158 6.16716 0
254.958 8.34939 0
253.622 6.24758 0
254.89 6.20744 0
256.09 4.02511 0
258.625 3.94418 0
258.762 8.22815 0
256.226 8.30911 0
257.358 3.98471 0
258.694 6.08622 0
257.494 8.2687 0
256.158 6.16716 0
257.426 6.12676 0
258.625 3.94418 0
261.161 3.86274 0
261.298 8.14668 0
258.762 8.22815 0
259.893 3.90353 0
261.23 6.00477 0
260.03 8.18748 0
258.694 6.08622 0
259.962 6.04556 0
261.161 3.86274 0
263.696 3.78079 0
263.835 8.0647 0
261.298 8.14668 0
262.429 3.82183 0
263.766 5.9228 0
262.567 8.10575 0
261.23 6.00477 0
262.498 5.96385 0
263.696 3.78079 0
266.232 3.69833 0
266.371 7.98221 0
263.835 8.0647 0
264.964 3.73963 0
266.301 5.84032 0
265.103 8.02352 0
263.766 5.9228 0
265.033 5.88162 0
266.232 3.69833 0
268.767 3.61537 0
268.907 7.89922 0
266.371 7.98221 0
267.499 3.65692 0
268.837 5.75735 0
267.639 7.94077 0
266.301 5.84032 0
267.569 5.7989 0
268.767 3.61537 0
271.303 3.53192 0
271.444 7.81573 0
268.907 7.89922 0
270.035 3.57371 0
271.373 5.67388 0
270.176 7.85753 0
268.837 5.75735 0
270.105 5.71567 0
271.303 3.53192 0
273.838 3.44798 0
273.98 7.73175 0
271.444 7.81573 0
272.57 3.49001 0
273.909 5.58992 0
272.712 7.7738 0
271.373 5.67388 0
272.641 5.63196 0
273.838 3.44798 0
276.374 3.36355 0
276.516 7.64729 0
273.98 7.73175 0
275.106 3.40582 0
276.445 5.50547 0
275.248 7.68958 0
273.909 5.58992 0
275.177 5.54775 0
276.374 3.36355 0
278.909 3.27864 0
279.052 7.56235 0
276.516 7.64729 0
277.641 3.32115 0
278.981 5.42055 0
277.784 7.60488 0
276.445 5.50547 0
277.713 5.46307 0
278.909 3.27864 0
281.444 3.19326 0
281.589 7.47694 0
279.052 7.56235 0
280.177 3.23601 0
281.517 5.33515 0
280.321 7.5197 0
278.981 5.42055 0
280.249 5.37791 0
281.444 3.19326 0
283.98 3.10741 0
284.125 7.39106 0
281.589 7.47694 0
282.712 3.15039 0
284.052 5.24928 0
282.857 7.43406 0
281.517 5.33515 0
282.784 5.29227 0
283.98 3.10741 0
286.515 3.02109 0
286.661 7.30471 0
284.125 7.39106 0
285.248 3.06431 0
286.588 5.16295 0
285.393 7.34794 0
284.052 5.24928 0
285.32 5.20617 0
286.515 3.02109 0
289.051 2.93432 0
289.197 7.21791 0
286.661 7.30471 0
287.783 2.97776 0
289.124 5.07616 0
287.929 7.26137 0
286.588 5.16295 0
287.856 5.11961 0
289.051 2.93432 0
291.586 2.8471 0
291.734 7.13066 0
289.197 7.21791 0
290.318 2.89077 0
291.66 4.98893 0
290.465 7.17434 0
289.124 5.07616 0
290.392 5.0326 0
291.586 2.8471 0
294.122 2.75943 0
294.27 7.04296 0
291.734 7.13066 0
292.854 2.80332 0
294.196 4.90124 0
293.002 7.08686 0
291.66 4.98893 0
292.928 4.94514 0
294.122 2.75943 0
296.657 2.67132 0
296.806 6.95482 0
294.27 7.04296 0
295.389 2.71543 0
296.731 4.81311 0
295.538 6.99894 0
294.196 4.90124 0
295.464 4.85723 0
296.657 2.67132 0
299.192 2.58277 0
299.342 6.86624 0
296.806 6.95482 0
297.925 2.6271 0
299.267 4.72455 0
298.074 6.91058 0
296.731 4.81311 0
297.999 4.76889 0
299.192 2.58277 0
301.728 2.4938 0
301.878 6.77724 0
299.342 6.86624 0
300.46 2.53834 0
301.803 4.63556 0
300.61 6.82179 0
299.267 4.72455 0
300.535 4.68011 0
301.728 2.4938 0
304.263 2.4044 0
304.414 6.6878 0
301.878 6.77724 0
302.996 2.44915 0
304.339 4.54614 0
303.146 6.73257 0
301.803 4.63556 0
303.071 4.59091 0
304.263 2.4044 0
306.799 2.31458 0
306.95 6.59795 0
304.414 6.6878 0
305.531 2.35954 0
306.875 4.45631 0
305.682 6.64293 0
304.339 4.54614 0
305.607 4.50128 0
306.799 2.31458 0
309.334 2.22434 0
309.487 6.50769 0
306.95 6.59795 0
308.066 2.26951 0
309.41 4.36606 0
308.218 6.55287 0
306.875 4.45631 0
308.142 4.41124 0
309.334 2.22434 0
311.87 2.1337 0
312.023 6.41702 0
309.487 6.50769 0
310.602 2.17907 0
311.946 4.2754 0
310.755 6.46241 0
309.41 4.36606 0
310.678 4.32078 0
311.87 2.1337 0
314.405 2.04265 0
314.559 6.32594 0
312.023 6.41702 0
313.137 2.08822 0
314.482 4.18434 0
313.291 6.37153 0
311.946 4.2754 0
313.214 4.22992 0
314.405 2.04265 0
316.94 1.95121 0
317.095 6.23447 0
314.559 6.32594 0
315.673 1.99698 0
317.018 4.09288 0
315.827 6.28026 0
314.482 4.18434 0
315.75 4.13866 0
316.94 1.95121 0
319.476 1.85937 0
319.631 6.14261 0
317.095 6.23447 0
318.208 1.90534 0
319.553 4.00103 0
318.363 6.18859 0
317.018 4.09288 0
318.286 4.04701 0
319.476 1.85937 0
322.011 1.76715 0
322.167 6.05036 0
319.631 6.14261 0
320.744 1.81331 0
322.089 3.90879 0
320.899 6.09653 0
319.553 4.00103 0
320.821 3.95496 0
322.011 1.76715 0
324.547 1.67455 0
324.703 5.95773 0
322.167 6.05036 0
323.279 1.7209 0
324.625 3.81618 0
323.435 6.00409 0
322.089 3.90879 0
323.357 3.86253 0
324.547 1.67455 0
327.082 1.58157 0
327.239 5.86472 0
324.703 5.95773 0
325.814 1.6281 0
327.161 3.72318 0
325.971 5.91127 0
324.625 3.81618 0
325.893 3.76973 0
327.082 1.58157 0
329.618 1.48822 0
329.775 5.77134 0
327.239 5.86472 0
328.35 1.53494 0
329.696 3.62982 0
328.507 5.81808 0
327.161 3.72318 0
328.428 3.67655 0
329.618 1.48822 0
332.153 1.3945 0
332.311 5.6776 0
329.775 5.77134 0
330.885 1.44141 0
332.232 3.53609 0
331.043 5.72452 0
329.696 3.62982 0
330.964 3.583 0
332.153 1.3945 0
334.688 1.30043 0
334.847 5.5835 0
332.311 5.6776 0
333.421 1.34751 0
334.768 3.442 0
333.579 5.63059 0
332.232 3.53609 0
333.5 3.48909 0
334.688 1.30043 0
337.224 1.206 0
337.383 5.48904 0
334.847 5.5835 0
335.956 1.25326 0
337.304 3.34756 0
336.115 5.53631 0
334.768 3.442 0
336.036 3.39482 0
337.224 1.206 0
339.759 1.11122 0
339.919 5.39424 0
337.383 5.48904 0
338.492 1.15865 0
339.839 3.25277 0
338.651 5.44168 0
337.304 3.34756 0
338.571 3.30021 0
339.759 1.11122 0
342.295 1.0161 0
342.455 5.29909 0
339.919 5.39424 0
341.027 1.0637 0
342.375 3.15763 0
341.187 5.34671 0
339.839 3.25277 0
341.107 3.20524 0
342.295 1.0161 0
344.83 0.920643 0
344.991 5.20361 0
342.455 5.29909 0
343.562 0.968414 0
344.911 3.06216 0
343.723 5.25139 0
342.375 3.15763 0
343.643 3.10994 0
344.83 0.920643 0
347.366 0.824853 0
347.527 5.10779 0
344.991 5.20361 0
346.098 0.872789 0
347.446 2.96636 0
346.259 5.15574 0
344.911 3.06216 0
346.179 3.0143 0
347.366 0.824853 0
349.901 0.728735 0
350.063 5.01165 0
347.527 5.10779 0
348.633 0.776835 0
349.982 2.87023 0
348.795 5.05976 0
347.446 2.96636 0
348.714 2.91833 0
349.901 0.728735 0
352.436 0.632296 0
352.599 4.91519 0
350.063 5.01165 0
351.169 0.680556 0
352.518 2.77377 0
351.331 4.96346 0
349.982 2.87023 0
351.25 2.82204 0
352.436 0.632296 0
354.972 0.535541 0
355.135 4.81841 0
352.599 4.91519 0
353.704 0.583958 0
355.053 2.67701 0
353.867 4.86684 0
352.518 2.77377 0
353.786 2.72543 0
354.972 0.535541 0
357.507 0.438476 0
357.671 4.72132 0
355.135 4.81841 0
356.24 0.487047 0
357.589 2.57993 0
356.403 4.7699 0
355.053 2.67701 0
356.321 2.62851 0
357.507 0.438476 0
360.043 0.341105 0
360.207 4.62392 0
357.671 4.72132 0
358.775 0.389828 0
360.125 2.48255 0
358.939 4.67266 0
357.589 2.57993 0
358.857 2.53127 0
360.043 0.341105 0
362.578 0.243435 0
362.743 4.52623 0
360.207 4.62392 0
361.31 0.292307 0
362.661 2.38486 0
361.475 4.57511 0
360.125 2.48255 0
361.393 2.43374 0
362.578 0.243435 0
365.114 0.14547 0
365.279 4.42824 0
362.743 4.52623 0
363.846 0.194489 0
365.196 2.28689 0
364.011 4.47727 0
362.661 2.38486 0
363.928 2.33591 0
365.114 0.14547 0
367.649 0.0472166 0
367.815 4.32996 0
365.279 4.42824 0
366.381 0.0963791 0
367.732 2.18862 0
366.547 4.37914 0
365.196 2.28689 0
366.464 2.23779 0
367.649 0.0472166 0
370.184 -0.0513203 0
370.351 4.2314 0
367.815 4.32996 0
368.917 -0.00201679 0
370.268 2.09007 0
369.083 4.28072 0
367.732 2.18862 0
369 2.13938 0
370.184 -0.0513203 0
372.72 -0.150135 0
372.887 4.13256 0
370.351 4.2314 0
371.452 -0.100693 0
372.803 1.99124 0
371.619 4.18202 0
370.268 2.09007 0
371.535 2.04069 0
372.72 -0.150135 0
375.255 -0.249223 0
375.423 4.03345 0
372.887 4.13256 0
373.988 -0.199645 0
375.339 1.89214 0
374.155 4.08304 0
372.803 1.99124 0
374.071 1.94173 0
375.255 -0.249223 0
377.791 -0.348577 0
377.959 3.93408 0
375.423 4.03345 0
376.523 -0.298867 0
377.875 1.79278 0
376.691 3.9838 0
375.339 1.89214 0
376.607 1.84249 0
377.791 -0.348577 0
380.326 -0.448193 0
380.494 3.83444 0
377.959 3.93408 0
379.059 -0.398353 0
380.41 1.69315 0
379.226 3.88429 0
377.875 1.79278 0
379.143 1.743 0
380.326 -0.448193 0
382.862 -0.548066 0
383.03 3.73455 0
380.494 3.83444 0
381.594 -0.498098 0
382.946 1.59327 0
381.762 3.78453 0
380.41 1.69315 0
381.678 1.64324 0
382.862 -0.548066 0
385.397 -0.648189 0
385.566 3.6344 0
383.03 3.73455 0
384.129 -0.598096 0
385.482 1.49313 0
384.298 3.68451 0
382.946 1.59327 0
384.214 1.54323 0
385.397 -0.648189 0
387.933 -0.748557 0
388.102 3.53401 0
385.566 3.6344 0
386.665 -0.698343 0
388.017 1.39275 0
386.834 3.58424 0
385.482 1.49313 0
386.75 1.44297 0
387.933 -0.748557 0
390.468 -0.849165 0
390.638 3.43338 0
388.102 3.53401 0
389.2 -0.798832 0
390.553 1.29213 0
389.37 3.48373 0
388.017 1.39275 0
389.285 1.34247 0
390.468 -0.849165 0
393.004 -0.950008 0
393.174 3.33252 0
390.638 3.43338 0
391.736 -0.899558 0
393.089 1.19128 0
391.906 3.38298 0
390.553 1.29213 0
391.821 1.24174 0
393.004 -0.950008 0
395.539 -1.05108 0
395.71 3.23143 0
393.174 3.33252 0
394.271 -1.00052 0
395.624 1.0902 0
394.442 3.282 0
393.089 1.19128 0
394.357 1.14077 0
395.539 -1.05108 0
398.075 -1.15238 0
398.246 3.13012 0
395.71 3.23143 0
396.807 -1.1017 0
398.16 0.988893 0
396.978 3.1808 0
395.624 1.0902 0
396.892 1.03957 0
398.075 -1.15238 0
400.61 -1.25389 0
400.781 3.02858 0
398.246 3.13012 0
399.342 -1.20311 0
400.696 0.887369 0
399.513 3.07938 0
398.16 0.988893 0
399.428 0.938158 0
400.61 -1.25389 0
403.146 -1.35562 0
403.317 2.92684 0
400.781 3.02858 0
401.878 -1.30473 0
403.231 0.785633 0
402.049 2.97774 0
400.696 0.887369 0
401.964 0.836527 0
403.146 -1.35562 0
405.681 -1.45755 0
405.853 2.82489 0
403.317 2.92684 0
404.413 -1.40656 0
405.767 0.68369 0
404.585 2.87589 0
403.231 0.785633 0
404.499 0.734687 0
405.681 -1.45755 0
408.217 -1.55968 0
408.389 2.72273 0
405.853 2.82489 0
406.949 -1.50859 0
408.303 0.581545 0
407.121 2.77383 0
405.767 0.68369 0
407.035 0.632642 0
408.217 -1.55968 0
410.752 -1.66202 0
410.925 2.62038 0
408.389 2.72273 0
409.484 -1.61083 0
410.839 0.479204 0
409.657 2.67158 0
408.303 0.581545 0
409.571 0.530398 0
410.752 -1.66202 0
413.288 -1.76454 0
413.461 2.51784 0
410.925 2.62038 0
412.02 -1.71325 0
413.374 0.376672 0
412.193 2.56914 0
410.839 0.479204 0
412.106 0.427961 0
413.288 -1.76454 0
415.823 -1.86725 0
415.996 2.41512 0
413.461 2.51784 0
414.555 -1.81587 0
415.91 0.273954 0
414.729 2.4665 0
413.374 0.376672 0
414.642 0.325336 0
415.823 -1.86725 0
418.359 -1.97013 0
418.532 2.31221 0
415.996 2.41512 0
417.091 -1.91867 0
418.446 0.171057 0
417.264 2.36369 0
415.91 0.273954 0
417.178 0.222528 0
418.359 -1.97013 0
420.894 -2.0732 0
421.068 2.20913 0
418.532 2.31221 0
419.627 -2.02164 0
420.981 0.0679857 0
419.8 2.26069 0
418.446 0.171057 0
419.713 0.119543 0
420.894 -2.0732 0
423.43 -2.17643 0
423.604 2.10589 0
421.068 2.20913 0
422.162 -2.12479 0
423.517 -0.0352549 0
422.336 2.15753 0
420.981 0.0679857 0
422.249 0.0163862 0
423.43 -2.17643 0
425.965 -2.27983 0
426.14 2.00247 0
423.604 2.10589 0
424.698 -2.22811 0
426.053 -0.138659 0
424.872 2.0542 0
423.517 -0.0352549 0
424.785 -0.0869369 0
425.965 -2.27983 0
428.501 -2.38338 0
428.676 1.8989 0
426.14 2.00247 0
427.233 -2.33158 0
428.588 -0.242221 0
427.408 1.95071 0
426.053 -0.138659 0
427.32 -0.190421 0
428.501 -2.38338 0
431.037 -2.48709 0
431.211 1.79518 0
428.676 1.8989 0
429.769 -2.43521 0
431.124 -0.345936 0
429.944 1.84706 0
428.588 -0.242221 0
429.856 -0.29406 0
431.037 -2.48709 0
433.572 -2.59094 0
433.747 1.69131 0
431.211 1.79518 0
432.304 -2.539 0
433.66 -0.449799 0
432.479 1.74327 0
431.124 -0.345936 0
432.392 -0.397849 0
433.572 -2.59094 0
436.108 -2.69494 0
436.283 1.5873 0
433.747 1.69131 0
434.84 -2.64292 0
436.195 -0.553803 0
435.015 1.63933 0
433.66 -0.449799 0
434.928 -0.501783 0
436.108 -2.69494 0
438.643 -2.79907 0
438.819 1.48316 0
436.283 1.5873 0
437.376 -2.74699 0
438.731 -0.657943 0
437.551 1.53525 0
436.195 -0.553803 0
437.463 -0.605856 0
438.643 -2.79907 0
441.179 -2.90333 0
441.355 1.37888 0
438.819 1.48316 0
439.911 -2.85119 0
441.267 -0.762215 0
440.087 1.43103 0
438.731 -0.657943 0
439.999 -0.710063 0
441.179 -2.90333 0
443.715 -3.00772 0
443.891 1.27448 0
441.355 1.37888 0
442.447 -2.95551 0
443.803 -0.866612 0
442.623 1.32669 0
441.267 -0.762215 0
442.535 -0.814398 0
443.715 -3.00772 0
446.25 -3.11223 0
446.426 1.16995 0
443.891 1.27448 0
444.982 -3.05996 0
446.338 -0.971129 0
445.159 1.22223 0
443.803 -0.866612 0
445.07 -0.918855 0
446.25 -3.11223 0
448.786 -3.21686 0
448.962 1.06532 0
446.426 1.16995 0
447.518 -3.16453 0
448.874 -1.07576 0
447.694 1.11765 0
446.338 -0.971129 0
447.606 -1.02343 0
448.786 -3.21686 0
451.321 -3.32159 0
451.498 0.960569 0
448.962 1.06532 0
450.054 -3.26921 0
451.41 -1.1805 0
450.23 1.01296 0
448.874 -1.07576 0
450.142 -1.12812 0
451.321 -3.32159 0
453.857 -3.42643 0
454.034 0.85572 0
451.498 0.960569 0
452.589 -3.374 0
453.946 -1.28535 0
452.766 0.908157 0
451.41 -1.1805 0
452.678 -1.23291 0
453.857 -3.42643 0
456.393 -3.53137 0
456.57 0.750772 0
454.034 0.85572 0
455.125 -3.47889 0
456.481 -1.39029 0
455.302 0.803258 0
453.946 -1.28535 0
455.213 -1.3378 0
456.393 -3.53137 0
458.928 -3.6364 0
459.106 0.645731 0
456.57 0.750772 0
457.661 -3.58387 0
459.017 -1.49532 0
457.838 0.698263 0
456.481 -1.39029 0
457.749 -1.44279 0
458.928 -3.6364 0
461.464 -3.74151 0
461.641 0.540603 0
459.106 0.645731 0
460.196 -3.68894 0
461.553 -1.60045 0
460.373 0.593178 0
459.017 -1.49532 0
460.285 -1.54787 0
461.464 -3.74151 0
464 -3.84671 0
464.177 0.435394 0
461.641 0.540603 0
462.732 -3.7941 0
464.089 -1.70565 0
462.909 0.488008 0
461.553 -1.60045 0
462.821 -1.65304 0
464 -3.84671 0
466.536 -3.95199 0
466.713 0.330108 0
464.177 0.435394 0
465.268 -3.89934 0
466.624 -1.81093 0
465.445 0.38276 0
464.089 -1.70565 0
465.356 -1.75828 0
466.536 -3.95199 0
469.071 -4.05734 0
469.249 0.224751 0
466.713 0.330108 0
467.803 -4.00466 0
469.16 -1.91629 0
467.981 0.277438 0
466.624 -1.81093 0
467.892 -1.8636 0
469.071 -4.05734 0
471.607 -4.16275 0
471.785 0.119328 0
469.249 0.224751 0
470.339 -4.11004 0
471.696 -2.02171 0
470.517 0.172047 0
469.16 -1.91629 0
470.428 -1.96899 0
471.607 -4.16275 0
474.143 -4.26822 0
474.32 0.0138453 0
471.785 0.119328 0
472.875 -4.21548 0
474.232 -2.12718 0
473.053 0.066594 0
471.696 -2.02171 0
472.964 -2.07444 0
474.143 -4.26822 0
476.678 -4.37375 0
476.856 -0.0916925 0
474.32 0.0138453 0
475.411 -4.32098 0
476.767 -2.23272 0
475.588 -0.038917 0
474.232 -2.12718 0
475.5 -2.17994 0
476.678 -4.37375 0
479.214 -4.47933 0
479.392 -0.19728 0
476.856 -0.0916925 0
477.946 -4.42654 0
479.303 -2.3383 0
478.124 -0.14448 0
476.767 -2.23272 0
478.035 -2.2855 0
479.214 -4.47933 0
481.75 -4.58496 0
481.928 -0.302913 0
479.392 -0.19728 0
480.482 -4.53214 0
481.839 -2.44393 0
480.66 -0.250091 0
479.303 -2.3383 0
480.571 -2.39111 0
481.75 -4.58496 0
484.286 -4.69062 0
484.464 -0.408585 0
481.928 -0.302913 0
483.018 -4.63778 0
484.375 -2.5496 0
483.196 -0.355744 0
481.839 -2.44393 0
483.107 -2.49676 0
484.286 -4.69062 0
486.822 -4.79632 0
487 -0.514291 0
484.464 -0.408585 0
485.554 -4.74346 0
486.911 -2.6553 0
485.732 -0.461434 0
484.375 -2.5496 0
485.643 -2.60245 0
486.822 -4.79632 0
489.357 -4.90204 0
489.536 -0.620026 0
487 -0.514291 0
488.089 -4.84918 0
489.446 -2.76103 0
488.268 -0.567156 0
486.911 -2.6553 0
488.179 -2.70816 0
489.357 -4.90204 0
491.893 -5.0078 0
492.071 -0.725778 0
489.536 -0.620026 0
490.625 -4.95492 0
491.982 -2.86679 0
490.803 -0.6729 0
489.446 -2.76103 0
490.714 -2.81391 0
491.893 -5.0078 0
494.429 -5.11357 0
494.607 -0.831532 0
492.071 -0.725778 0
493.161 -5.06068 0
494.518 -2.97255 0
493.339 -0.778656 0
491.982 -2.86679 0
493.25 -2.91967 0
494.429 -5.11357 0
496.965 -5.21934 0
497.143 -0.937264 0
494.607 -0.831532 0
495.697 -5.16646 0
497.054 -3.07829 0
495.875 -0.884403 0
494.518 -2.97255 0
495.786 -3.02543 0
496.965 -5.21934 0
499.501 -5.32506 0
499.679 -1.04294 0
497.143 -0.937264 0
498.233 -5.27221 0
499.59 -3.18398 0
498.411 -0.990111 0
497.054 -3.07829 0
498.322 -3.13115 0
0 12.8571 0
2.53728 12.8573 0
2.53885 17.143 0
0 17.1429 0
1.26864 12.8574 0
2.53806 15.0002 0
1.26942 17.1431 0
0 15 0
1.26903 15.0003 0
2.53728 12.8573 0
5.07449 12.8559 0
5.07777 17.1416 0
2.53885 17.143 0
3.80589 12.8568 0
5.07613 14.9989 0
3.8083 17.1425 0
2.53806 15.0002 0
3.8071 14.9997 0
5.07449 12.8559 0
7.61166 12.8533 0
7.61672 17.139 0
5.07777 17.1416 0
6.34308 12.8548 0
7.61419 14.9963 0
6.34724 17.1405 0
5.07613 14.9989 0
6.34516 14.9977 0
7.61166 12.8533 0
10.1488 12.8495 0
10.1557 17.1352 0
7.61672 17.139 0
8.88025 12.8515 0
10.1523 14.9925 0
8.8862 17.1372 0
7.61419 14.9963 0
8.88322 14.9945 0
10.1488 12.8495 0
12.686 12.8446 0
12.6946 17.1303 0
10.1557 17.1352 0
11.4174 12.8472 0
12.6903 14.9876 0
11.4252 17.1329 0
10.1523 14.9925 0
11.4213 14.9902 0
12.686 12.8446 0
15.2231 12.8386 0
15.2336 17.1243 0
12.6946 17.1303 0
13.9546 12.8418 0
15.2284 14.9816 0
13.9641 17.1275 0
12.6903 14.9876 0
13.9593 14.9847 0
15.2231 12.8386 0
17.7603 12.8316 0
17.7725 17.1173 0
15.2336 17.1243 0
16.4917 12.8353 0
17.7664 14.9746 0
16.5031 17.121 0
15.2284 14.9816 0
16.4974 14.9782 0
17.7603 12.8316 0
20.2975 12.8236 0
20.3115 17.1093 0
17.7725 17.1173 0
19.0289 12.8278 0
20.3045 14.9666 0
19.042 17.1134 0
17.7664 14.9746 0
19.0355 14.9707 0
20.2975 12.8236 0
22.8347 12.8146 0
22.8504 17.1002 0
20.3115 17.1093 0
21.5661 12.8192 0
22.8425 14.9575 0
21.5809 17.1049 0
20.3045 14.9666 0
21.5735 14.9622 0
22.8347 12.8146 0
25.3718 12.8045 0
25.3893 17.0901 0
22.8504 17.1002 0
24.1033 12.8096 0
25.3806 14.9474 0
24.1199 17.0953 0
22.8425 14.9575 0
24.1116 14.9526 0
25.3718 12.8045 0
27.909 12.7934 0
27.9282 17.079 0
25.3893 17.0901 0
26.6404 12.7991 0
27.9186 14.9363 0
26.6588 17.0847 0
25.3806 14.9474 0
26.6496 14.942 0
27.909 12.7934 0
30.4462 12.7813 0
30.4671 17.0669 0
27.9282 17.079 0
29.1776 12.7875 0
30.4567 14.9242 0
29.1977 17.0731 0
27.9186 14.9363 0
29.1876 14.9304 0
30.4462 12.7813 0
32.9834 12.7682 0
33.006 17.0538 0
30.4671 17.0669 0
31.7148 12.7748 0
32.9947 14.9111 0
31.7365 17.0605 0
30.4567 14.9242 0
31.7257 14.9178 0
32.9834 12.7682 0
35.5206 12.754 0
35.5449 17.0397 0
33.006 17.0538 0
34.252 12.7612 0
35.5327 14.897 0
34.2754 17.0469 0
32.9947 14.9111 0
34.2637 14.9042 0
35.5206 12.754 0
38.0578 12.7389 0
38.0837 17.0246 0
35.5449 17.0397 0
36.7892 12.7466 0
38.0707 14.8818 0
36.8143 17.0322 0
35.5327 14.897 0
36.8017 14.8895 0
38.0578 12.7389 0
40.5949 12.7228 0
40.6226 17.0084 0
38.0837 17.0246 0
39.3264 12.731 0
40.6088 14.8657 0
39.3531 17.0166 0
38.0707 14.8818 0
39.3398 14.8739 0
40.5949 12.7228 0
43.1321 12.7057 0
43.1614 16.9913 0
40.6226 17.0084 0
41.8635 12.7144 0
43.1468 14.8486 0
41.892 17 0
40.6088 14.8657 0
41.8778 14.8573 0
43.1321 12.7057 0
45.6693 12.6877 0
45.7002 16.9733 0
43.1614 16.9913 0
44.4007 12.6968 0
45.6848 14.8306 0
44.4308 16.9824 0
43.1468 14.8486 0
44.4158 14.8397 0
45.6693 12.6877 0
48.2065 12.6686 0
48.2391 16.9542 0
45.7002 16.9733 0
46.9379 12.6783 0
48.2228 14.8115 0
46.9696 16.9639 0
45.6848 14.8306 0
46.9538 14.8212 0
48.2065 12.6686 0
50.7436 12.6486 0
50.7779 16.9342 0
48.2391 16.9542 0
49.4751 12.6587 0
50.7608 14.7915 0
49.5085 16.9443 0
48.2228 14.8115 0
49.4918 14.8016 0
50.7436 12.6486 0
53.2808 12.6276 0
53.3166 16.9132 0
50.7779 16.9342 0
52.0122 12.6382 0
53.2987 14.7705 0
52.0473 16.9238 0
50.7608 14.7915 0
52.0297 14.7811 0
53.2808 12.6276 0
55.818 12.6057 0
55.8554 16.8912 0
53.3166 16.9132 0
54.5494 12.6168 0
55.8367 14.7486 0
54.586 16.9023 0
53.2987 14.7705 0
54.5677 14.7597 0
55.818 12.6057 0
58.3551 12.5828 0
58.3942 16.8683 0
55.8554 16.8912 0
57.0866 12.5944 0
58.3747 14.7257 0
57.1248 16.8799 0
55.8367 14.7486 0
57.1057 14.7372 0
58.3551 12.5828 0
60.8923 12.559 0
60.9329 16.8445 0
58.3942 16.8683 0
59.6237 12.571 0
60.9126 14.7018 0
59.6636 16.8565 0
58.3747 14.7257 0
59.6436 14.7139 0
60.8923 12.559 0
63.4295 12.5342 0
63.4717 16.8197 0
60.9329 16.8445 0
62.1609 12.5467 0
63.4506 14.677 0
62.2023 16.8322 0
60.9126 14.7018 0
62.1816 14.6896 0
63.4295 12.5342 0
65.9666 12.5085 0
66.0104 16.794 0
63.4717 16.8197 0
64.698 12.5215 0
65.9885 14.6513 0
64.7411 16.8069 0
63.4506 14.677 0
64.7195 14.6643 0
65.9666 12.5085 0
68.5037 12.4818 0
68.5491 16.7673 0
66.0104 16.794 0
67.2352 12.4953 0
68.5264 14.6247 0
67.2798 16.7807 0
65.9885 14.6513 0
67.2575 14.6381 0
68.5037 12.4818 0
71.0409 12.4543 0
71.0878 16.7397 0
68.5491 16.7673 0
69.7723 12.4682 0
71.0644 14.5971 0
69.8185 16.7536 0
68.5264 14.6247 0
69.7954 14.611 0
71.0409 12.4543 0
73.578 12.4258 0
73.6265 16.7112 0
71.0878 16.7397 0
72.3095 12.4401 0
73.6023 14.5686 0
72.3572 16.7256 0
71.0644 14.5971 0
72.3333 14.5829 0
73.578 12.4258 0
76.1151 12.3964 0
76.1652 16.6818 0
73.6265 16.7112 0
74.8466 12.4112 0
76.1402 14.5392 0
74.8958 16.6966 0
73.6023 14.5686 0
74.8712 14.554 0
76.1151 12.3964 0
78.6523 12.366 0
78.7038 16.6514 0
76.1652 16.6818 0
77.3837 12.3813 0
78.678 14.5088 0
77.4345 16.6667 0
76.1402 14.5392 0
77.4091 14.5241 0
78.6523 12.366 0
81.1894 12.3348 0
81.2425 16.6202 0
78.7038 16.6514 0
79.9208 12.3505 0
81.2159 14.4776 0
79.9731 16.6359 0
78.678 14.5088 0
79.947 14.4933 0
81.1894 12.3348 0
83.7265 12.3027 0
83.7811 16.5881 0
81.2425 16.6202 0
82.4579 12.3189 0
83.7538 14.4455 0
82.5118 16.6042 0
81.2159 14.4776 0
82.4849 14.4617 0
83.7265 12.3027 0
86.2636 12.2697 0
86.3197 16.555 0
83.7811 16.5881 0
84.995 12.2863 0
86.2916 14.4125 0
85.0504 16.5717 0
83.7538 14.4455 0
85.0227 14.4291 0
86.2636 12.2697 0
88.8007 12.2358 0
88.8583 16.5211 0
86.3197 16.555 0
87.5321 12.2529 0
88.8295 14.3786 0
87.589 16.5382 0
86.2916 14.4125 0
87.5606 14.3956 0
88.8007 12.2358 0
91.3378 12.201 0
91.3968 16.4863 0
88.8583 16.5211 0
90.0692 12.2185 0
91.3673 14.3438 0
90.1276 16.5038 0
88.8295 14.3786 0
90.0984 14.3613 0
91.3378 12.201 0
93.8749 12.1654 0
93.9354 16.4506 0
91.3968 16.4863 0
92.6063 12.1833 0
93.9051 14.3081 0
92.6661 16.4686 0
91.3673 14.3438 0
92.6362 14.326 0
93.8749 12.1654 0
96.4119 12.1288 0
96.4739 16.4141 0
93.9354 16.4506 0
95.1434 12.1472 0
96.4429 14.2716 0
95.2047 16.4325 0
93.9051 14.3081 0
95.174 14.2899 0
96.4119 12.1288 0
98.949 12.0914 0
99.0125 16.3767 0
96.4739 16.4141 0
97.6805 12.1102 0
98.9807 14.2341 0
97.7432 16.3955 0
96.4429 14.2716 0
97.7118 14.253 0
98.949 12.0914 0
101.486 12.0532 0
101.551 16.3384 0
99.0125 16.3767 0
100.218 12.0724 0
101.519 14.1959 0
100.282 16.3576 0
98.9807 14.2341 0
100.25 14.2151 0
101.486 12.0532 0
104.023 12.0141 0
104.089 16.2993 0
101.551 16.3384 0
102.755 12.0337 0
104.056 14.1568 0
102.82 16.3189 0
101.519 14.1959 0
102.787 14.1764 0
104.023 12.0141 0
106.56 11.9741 0
106.628 16.2593 0
104.089 16.2993 0
105.292 11.9942 0
106.594 14.1168 0
105.359 16.2794 0
104.056 14.1568 0
105.325 14.1369 0
106.56 11.9741 0
109.097 11.9333 0
109.166 16.2185 0
106.628 16.2593 0
107.829 11.9538 0
109.132 14.076 0
107.897 16.239 0
106.594 14.1168 0
107.863 14.0965 0
109.097 11.9333 0
111.634 11.8917 0
111.705 16.1768 0
109.166 16.2185 0
110.366 11.9126 0
111.669 14.0343 0
110.436 16.1977 0
109.132 14.076 0
110.401 14.0552 0
111.634 11.8917 0
114.171 11.8492 0
114.243 16.1343 0
111.705 16.1768 0
112.903 11.8705 0
114.207 13.9918 0
112.974 16.1556 0
111.669 14.0343 0
112.938 14.0132 0
114.171 11.8492 0
116.708 11.8059 0
116.782 16.091 0
114.243 16.1343 0
115.44 11.8276 0
116.745 13.9485 0
115.512 16.1127 0
114.207 13.9918 0
115.476 13.9703 0
116.708 11.8059 0
119.245 11.7618 0
119.32 16.0468 0
116.782 16.091 0
117.977 11.7839 0
119.283 13.9044 0
118.051 16.069 0
116.745 13.9485 0
118.014 13.9265 0
119.245 11.7618 0
121.782 11.7168 0
121.858 16.0019 0
119.32 16.0468 0
120.514 11.7394 0
121.82 13.8594 0
120.589 16.0244 0
119.283 13.9044 0
120.551 13.882 0
121.782 11.7168 0
124.319 11.6711 0
124.397 15.9561 0
121.858 16.0019 0
123.051 11.694 0
124.358 13.8137 0
123.128 15.9791 0
121.82 13.8594 0
123.089 13.8366 0
124.319 11.6711 0
126.856 11.6245 0
126.935 15.9095 0
124.397 15.9561 0
125.588 11.6479 0
126.896 13.7671 0
125.666 15.9329 0
124.358 13.8137 0
125.627 13.7905 0
126.856 11.6245 0
129.393 11.5772 0
129.473 15.8621 0
126.935 15.9095 0
128.125 11.6009 0
129.433 13.7197 0
128.204 15.8859 0
126.896 13.7671 0
128.164 13.7435 0
129.393 11.5772 0
131.93 11.529 0
132.012 15.8139 0
129.473 15.8621 0
130.662 11.5532 0
131.971 13.6715 0
130.742 15.8381 0
129.433 13.7197 0
130.702 13.6957 0
131.93 11.529 0
134.467 11.4801 0
134.55 15.765 0
132.012 15.8139 0
133.198 11.5046 0
134.508 13.6226 0
133.281 15.7895 0
131.971 13.6715 0
133.24 13.6472 0
134.467 11.4801 0
137.004 11.4303 0
137.088 15.7152 0
134.55 15.765 0
135.735 11.4553 0
137.046 13.5729 0
135.819 15.7402 0
134.508 13.6226 0
135.777 13.5978 0
137.004 11.4303 0
139.541 11.3798 0
139.626 15.6647 0
137.088 15.7152 0
138.272 11.4052 0
139.584 13.5223 0
138.357 15.69 0
137.046 13.5729 0
138.315 13.5477 0
139.541 11.3798 0
142.078 11.3285 0
142.165 15.6134 0
139.626 15.6647 0
140.809 11.3543 0
142.121 13.471 0
140.895 15.6391 0
139.584 13.5223 0
140.852 13.4968 0
142.078 11.3285 0
144.615 11.2765 0
144.703 15.5613 0
142.165 15.6134 0
143.346 11.3026 0
144.659 13.419 0
143.434 15.5874 0
142.121 13.471 0
143.39 13.4451 0
144.615 11.2765 0
147.151 11.2237 0
147.241 15.5085 0
144.703 15.5613 0
145.883 11.2502 0
147.196 13.3662 0
145.972 15.535 0
144.659 13.419 0
145.927 13.3927 0
147.151 11.2237 0
149.688 11.1701 0
149.779 15.4549 0
147.241 15.5085 0
148.42 11.197 0
149.734 13.3126 0
148.51 15.4818 0
147.196 13.3662 0
148.465 13.3395 0
149.688 11.1701 0
152.225 11.1158 0
152.317 15.4005 0
149.779 15.4549 0
150.957 11.1431 0
152.271 13.2582 0
151.048 15.4278 0
149.734 13.3126 0
151.002 13.2855 0
152.225 11.1158 0
154.762 11.0607 0
154.855 15.3454 0
152.317 15.4005 0
153.494 11.0884 0
154.809 13.2032 0
153.586 15.3731 0
152.271 13.2582 0
153.54 13.2308 0
154.762 11.0607 0
157.299 11.0049 0
157.393 15.2896 0
154.855 15.3454 0
156.03 11.0329 0
157.346 13.1473 0
156.124 15.3176 0
154.809 13.2032 0
156.077 13.1753 0
157.299 11.0049 0
159.836 10.9484 0
159.931 15.233 0
157.393 15.2896 0
158.567 10.9768 0
159.884 13.0908 0
158.662 15.2614 0
157.346 13.1473 0
158.615 13.1192 0
159.836 10.9484 0
162.372 10.8911 0
162.469 15.1757 0
159.931 15.233 0
161.104 10.9199 0
162.421 13.0335 0
161.2 15.2045 0
159.884 13.0908 0
161.152 13.0622 0
162.372 10.8911 0
164.909 10.8331 0
165.007 15.1177 0
162.469 15.1757 0
163.641 10.8622 0
164.958 12.9755 0
163.738 15.1468 0
162.421 13.0335 0
163.69 13.0046 0
164.909 10.8331 0
167.446 10.7744 0
167.545 15.059 0
165.007 15.1177 0
166.178 10.8039 0
167.496 12.9168 0
166.276 15.0884 0
164.958 12.9755 0
166.227 12.9462 0
167.446 10.7744 0
169.983 10.715 0
170.083 14.9995 0
167.545 15.059 0
168.714 10.7448 0
170.033 12.8573 0
168.814 15.0293 0
167.496 12.9168 0
168.764 12.8872 0
169.983 10.715 0
172.52 10.6549 0
172.621 14.9394 0
170.083 14.9995 0
171.251 10.685 0
172.57 12.7972 0
171.352 14.9695 0
170.033 12.8573 0
171.302 12.8274 0
172.52 10.6549 0
175.056 10.594 0
175.159 14.8785 0
172.621 14.9394 0
173.788 10.6245 0
175.108 12.7363 0
173.89 14.909 0
172.57 12.7972 0
173.839 12.7669 0
175.056 10.594 0
177.593 10.5325 0
177.697 14.8169 0
175.159 14.8785 0
176.325 10.5634 0
177.645 12.6748 0
176.428 14.8478 0
175.108 12.7363 0
176.376 12.7057 0
177.593 10.5325 0
180.13 10.4703 0
180.235 14.7547 0
177.697 14.8169 0
178.861 10.5015 0
180.182 12.6126 0
178.966 14.7859 0
177.645 12.6748 0
178.914 12.6438 0
180.13 10.4703 0
182.667 10.4074 0
182.773 14.6918 0
180.235 14.7547 0
181.398 10.4389 0
182.72 12.5496 0
181.504 14.7233 0
180.182 12.6126 0
181.451 12.5812 0
182.667 10.4074 0
185.203 10.3438 0
185.311 14.6281 0
182.773 14.6918 0
183.935 10.3757 0
185.257 12.486 0
184.042 14.66 0
182.72 12.5496 0
183.988 12.5179 0
185.203 10.3438 0
187.74 10.2795 0
187.849 14.5639 0
185.311 14.6281 0
186.472 10.3117 0
187.794 12.4218 0
186.58 14.5961 0
185.257 12.486 0
186.526 12.454 0
187.74 10.2795 0
190.277 10.2146 0
190.386 14.4989 0
187.849 14.5639 0
189.008 10.2471 0
190.331 12.3568 0
189.118 14.5315 0
187.794 12.4218 0
189.063 12.3894 0
190.277 10.2146 0
192.813 10.149 0
192.924 14.4333 0
190.386 14.4989 0
191.545 10.1819 0
192.869 12.2912 0
191.655 14.4662 0
190.331 12.3568 0
191.6 12.3241 0
192.813 10.149 0
195.35 10.0827 0
195.462 14.367 0
192.924 14.4333 0
194.082 10.1159 0
195.406 12.2249 0
194.193 14.4002 0
192.869 12.2912 0
194.137 12.2581 0
195.35 10.0827 0
197.887 10.0158 0
198 14.3 0
195.462 14.367 0
196.618 10.0494 0
197.943 12.158 0
196.731 14.3336 0
195.406 12.2249 0
196.675 12.1915 0
197.887 10.0158 0
200.423 9.94826 0
200.537 14.2325 0
198 14.3 0
199.155 9.98212 0
200.48 12.0904 0
199.269 14.2663 0
197.943 12.158 0
199.212 12.1243 0
200.423 9.94826 0
202.96 9.88006 0
203.075 14.1642 0
200.537 14.2325 0
201.691 9.91424 0
203.017 12.0222 0
201.806 14.1984 0
200.48 12.0904 0
201.749 12.0564 0
202.96 9.88006 0
205.496 9.81123 0
205.613 14.0954 0
203.075 14.1642 0
204.228 9.84572 0
205.555 11.9534 0
204.344 14.1299 0
203.017 12.0222 0
204.286 11.9879 0
205.496 9.81123 0
208.033 9.74176 0
208.15 14.0259 0
205.613 14.0954 0
206.765 9.77657 0
208.092 11.8839 0
206.882 14.0607 0
205.555 11.9534 0
206.823 11.9187 0
208.033 9.74176 0
210.57 9.67166 0
210.688 13.9557 0
208.15 14.0259 0
209.301 9.70679 0
210.629 11.8138 0
209.419 13.9909 0
208.092 11.8839 0
209.36 11.8489 0
210.57 9.67166 0
213.106 9.60095 0
213.226 13.885 0
210.688 13.9557 0
211.838 9.63638 0
213.166 11.743 0
211.957 13.9204 0
210.629 11.8138 0
211.897 11.7785 0
213.106 9.60095 0
215.643 9.52962 0
215.763 13.8136 0
213.226 13.885 0
214.374 9.56536 0
215.703 11.6717 0
214.494 13.8494 0
213.166 11.743 0
214.434 11.7074 0
215.643 9.52962 0
218.179 9.45768 0
218.301 13.7417 0
215.763 13.8136 0
216.911 9.49372 0
218.24 11.5997 0
217.032 13.7777 0
215.703 11.6717 0
216.971 11.6358 0
218.179 9.45768 0
220.716 9.38513 0
220.838 13.6691 0
218.301 13.7417 0
219.447 9.42148 0
220.777 11.5272 0
219.57 13.7054 0
218.24 11.5997 0
219.509 11.5635 0
220.716 9.38513 0
223.252 9.31199 0
223.376 13.5959 0
220.838 13.6691 0
221.984 9.34863 0
223.314 11.454 0
222.107 13.6326 0
220.777 11.5272 0
222.046 11.4907 0
223.252 9.31199 0
225.789 9.23825 0
225.913 13.5222 0
223.376 13.5959 0
224.52 9.27519 0
225.851 11.3803 0
224.645 13.5591 0
223.314 11.454 0
224.583 11.4172 0
225.789 9.23825 0
228.325 9.16393 0
228.451 13.4478 0
225.913 13.5222 0
227.057 9.20116 0
228.388 11.3059 0
227.182 13.485 0
225.851 11.3803 0
227.12 11.3432 0
228.325 9.16393 0
230.862 9.08902 0
230.988 13.3729 0
228.451 13.4478 0
229.593 9.12655 0
230.925 11.231 0
229.72 13.4104 0
228.388 11.3059 0
229.657 11.2685 0
230.862 9.08902 0
233.398 9.01354 0
233.526 13.2973 0
230.988 13.3729 0
232.13 9.05135 0
233.462 11.1555 0
232.257 13.3352 0
230.925 11.231 0
232.193 11.1933 0
233.398 9.01354 0
235.935 8.93748 0
236.063 13.2213 0
233.526 13.2973 0
234.666 8.97558 0
235.999 11.0794 0
234.794 13.2594 0
233.462 11.1555 0
234.73 11.1175 0
235.935 8.93748 0
238.471 8.86086 0
238.601 13.1446 0
236.063 13.2213 0
237.203 8.89924 0
238.536 11.0028 0
237.332 13.183 0
235.999 11.0794 0
237.267 11.0412 0
238.471 8.86086 0
241.007 8.78368 0
241.138 13.0674 0
238.601 13.1446 0
239.739 8.82234 0
241.073 10.9256 0
239.869 13.1061 0
238.536 11.0028 0
239.804 10.9643 0
241.007 8.78368 0
243.544 8.70594 0
243.675 12.9896 0
241.138 13.0674 0
242.276 8.74488 0
243.61 10.8478 0
242.407 13.0286 0
241.073 10.9256 0
242.341 10.8868 0
243.544 8.70594 0
246.08 8.62765 0
246.213 12.9113 0
243.675 12.9896 0
244.812 8.66686 0
246.146 10.7695 0
244.944 12.9505 0
243.61 10.8478 0
244.878 10.8088 0
246.08 8.62765 0
248.617 8.54882 0
248.75 12.8325 0
246.213 12.9113 0
247.348 8.5883 0
248.683 10.6907 0
247.481 12.872 0
246.146 10.7695 0
247.415 10.7302 0
248.617 8.54882 0
251.153 8.46945 0
251.287 12.7531 0
248.75 12.8325 0
249.885 8.5092 0
251.22 10.6113 0
250.019 12.7928 0
248.683 10.6907 0
249.952 10.6511 0
251.153 8.46945 0
253.689 8.38954 0
253.824 12.6731 0
251.287 12.7531 0
252.421 8.42956 0
253.757 10.5314 0
252.556 12.7132 0
251.22 10.6113 0
252.489 10.5714 0
253.689 8.38954 0
256.226 8.30911 0
256.362 12.5927 0
253.824 12.6731 0
254.958 8.34939 0
256.294 10.4509 0
255.093 12.633 0
253.757 10.5314 0
255.025 10.4912 0
256.226 8.30911 0
258.762 8.22815 0
258.899 12.5117 0
256.362 12.5927 0
257.494 8.2687 0
258.83 10.37 0
257.63 12.5522 0
256.294 10.4509 0
257.562 10.4105 0
258.762 8.22815 0
261.298 8.14668 0
261.436 12.4302 0
258.899 12.5117 0
260.03 8.18748 0
261.367 10.2885 0
260.167 12.471 0
258.83 10.37 0
260.099 10.3293 0
261.298 8.14668 0
263.835 8.0647 0
263.973 12.3482 0
261.436 12.4302 0
262.567 8.10575 0
263.904 10.2065 0
262.705 12.3892 0
261.367 10.2885 0
262.636 10.2476 0
263.835 8.0647 0
266.371 7.98221 0
266.51 12.2657 0
263.973 12.3482 0
265.103 8.02352 0
266.441 10.124 0
265.242 12.307 0
263.904 10.2065 0
265.172 10.1653 0
266.371 7.98221 0
268.907 7.89922 0
269.048 12.1826 0
266.51 12.2657 0
267.639 7.94077 0
268.977 10.041 0
267.779 12.2242 0
266.441 10.124 0
267.709 10.0825 0
268.907 7.89922 0
271.444 7.81573 0
271.585 12.0991 0
269.048 12.1826 0
270.176 7.85753 0
271.514 9.95748 0
270.316 12.1409 0
268.977 10.041 0
270.246 9.99929 0
271.444 7.81573 0
273.98 7.73175 0
274.122 12.0151 0
271.585 12.0991 0
272.712 7.7738 0
274.051 9.87349 0
272.853 12.0572 0
271.514 9.95748 0
272.782 9.91554 0
273.98 7.73175 0
276.516 7.64729 0
276.659 11.9306 0
274.122 12.0151 0
275.248 7.68958 0
276.587 9.78901 0
275.39 11.9729 0
274.051 9.87349 0
275.319 9.83131 0
276.516 7.64729 0
279.052 7.56235 0
279.196 11.8457 0
276.659 11.9306 0
277.784 7.60488 0
279.124 9.70406 0
277.927 11.8882 0
276.587 9.78901 0
277.856 9.7466 0
279.052 7.56235 0
281.589 7.47694 0
281.733 11.7602 0
279.196 11.8457 0
280.321 7.5197 0
281.661 9.61863 0
280.464 11.803 0
279.124 9.70406 0
280.392 9.6614 0
281.589 7.47694 0
284.125 7.39106 0
284.27 11.6743 0
281.733 11.7602 0
282.857 7.43406 0
284.197 9.53274 0
283.001 11.7173 0
281.661 9.61863 0
282.929 9.57574 0
284.125 7.39106 0
286.661 7.30471 0
286.807 11.5879 0
284.27 11.6743 0
285.393 7.34794 0
286.734 9.44638 0
285.538 11.6312 0
284.197 9.53274 0
285.466 9.48961 0
286.661 7.30471 0
289.197 7.21791 0
289.344 11.5011 0
286.807 11.5879 0
287.929 7.26137 0
289.271 9.35956 0
288.075 11.5446 0
286.734 9.44638 0
288.002 9.40303 0
289.197 7.21791 0
291.734 7.13066 0
291.881 11.4138 0
289.344 11.5011 0
290.465 7.17434 0
291.807 9.2723 0
290.612 11.4575 0
289.271 9.35956 0
290.539 9.31599 0
291.734 7.13066 0
294.27 7.04296 0
294.418 11.3261 0
291.881 11.4138 0
293.002 7.08686 0
294.344 9.18458 0
293.149 11.37 0
291.807 9.2723 0
293.075 9.22849 0
294.27 7.04296 0
296.806 6.95482 0
296.955 11.2379 0
294.418 11.3261 0
295.538 6.99894 0
296.88 9.09643 0
295.686 11.2821 0
294.344 9.18458 0
295.612 9.14056 0
296.806 6.95482 0
299.342 6.86624 0
299.492 11.1493 0
296.955 11.2379 0
298.074 6.91058 0
299.417 9.00784 0
298.223 11.1937 0
296.88 9.09643 0
298.149 9.05219 0
299.342 6.86624 0
301.878 6.77724 0
302.028 11.0603 0
299.492 11.1493 0
300.61 6.82179 0
301.953 8.91882 0
300.76 11.1049 0
299.417 9.00784 0
300.685 8.96338 0
301.878 6.77724 0
304.414 6.6878 0
304.565 10.9709 0
302.028 11.0603 0
303.146 6.73257 0
304.49 8.82938 0
303.297 11.0156 0
301.953 8.91882 0
303.222 8.87415 0
304.414 6.6878 0
306.95 6.59795 0
307.102 10.881 0
304.565 10.9709 0
305.682 6.64293 0
307.026 8.73951 0
305.834 10.926 0
304.49 8.82938 0
305.758 8.7845 0
306.95 6.59795 0
309.487 6.50769 0
309.639 10.7907 0
307.102 10.881 0
308.218 6.55287 0
309.563 8.64924 0
308.371 10.8359 0
307.026 8.73951 0
308.295 8.69443 0
309.487 6.50769 0
312.023 6.41702 0
312.176 10.7 0
309.639 10.7907 0
310.755 6.46241 0
312.099 8.55855 0
310.907 10.7454 0
309.563 8.64924 0
310.831 8.60394 0
312.023 6.41702 0
314.559 6.32594 0
314.712 10.6089 0
312.176 10.7 0
313.291 6.37153 0
314.636 8.46746 0
313.444 10.6545 0
312.099 8.55855 0
313.367 8.51306 0
314.559 6.32594 0
317.095 6.23447 0
317.249 10.5174 0
314.712 10.6089 0
315.827 6.28026 0
317.172 8.37598 0
315.981 10.5632 0
314.636 8.46746 0
315.904 8.42177 0
317.095 6.23447 0
319.631 6.14261 0
319.786 10.4255 0
317.249 10.5174 0
318.363 6.18859 0
319.708 8.2841 0
318.518 10.4715 0
317.172 8.37598 0
318.44 8.33009 0
319.631 6.14261 0
322.167 6.05036 0
322.323 10.3332 0
319.786 10.4255 0
320.899 6.09653 0
322.245 8.19184 0
321.054 10.3794 0
319.708 8.2841 0
320.977 8.23802 0
322.167 6.05036 0
324.703 5.95773 0
324.859 10.2406 0
322.323 10.3332 0
323.435 6.00409 0
324.781 8.0992 0
323.591 10.287 0
322.245 8.19184 0
323.513 8.14557 0
324.703 5.95773 0
327.239 5.86472 0
327.396 10.1476 0
324.859 10.2406 0
325.971 5.91127 0
327.318 8.00618 0
326.128 10.1941 0
324.781 8.0992 0
326.049 8.05273 0
327.239 5.86472 0
329.775 5.77134 0
329.933 10.0542 0
327.396 10.1476 0
328.507 5.81808 0
329.854 7.91279 0
328.664 10.1009 0
327.318 8.00618 0
328.586 7.95953 0
329.775 5.77134 0
332.311 5.6776 0
332.469 9.96039 0
329.933 10.0542 0
331.043 5.72452 0
332.39 7.81903 0
331.201 10.0073 0
329.854 7.91279 0
331.122 7.86596 0
332.311 5.6776 0
334.847 5.5835 0
335.006 9.86627 0
332.469 9.96039 0
333.579 5.63059 0
334.927 7.72492 0
333.738 9.91337 0
332.39 7.81903 0
333.658 7.77202 0
334.847 5.5835 0
337.383 5.48904 0
337.543 9.77179 0
335.006 9.86627 0
336.115 5.53631 0
337.463 7.63045 0
336.274 9.81907 0
334.927 7.72492 0
336.195 7.67773 0
337.383 5.48904 0
339.919 5.39424 0
340.079 9.67696 0
337.543 9.77179 0
338.651 5.44168 0
339.999 7.53564 0
338.811 9.72442 0
337.463 7.63045 0
338.731 7.58309 0
339.919 5.39424 0
342.455 5.29909 0
342.616 9.5818 0
340.079 9.67696 0
341.187 5.34671 0
342.536 7.44048 0
341.348 9.62942 0
339.999 7.53564 0
341.267 7.4881 0
342.455 5.29909 0
344.991 5.20361 0
345.152 9.48629 0
342.616 9.5818 0
343.723 5.25139 0
345.072 7.34499 0
343.884 9.53409 0
342.536 7.44048 0
343.804 7.39278 0
344.991 5.20361 0
347.527 5.10779 0
347.689 9.39045 0
345.152 9.48629 0
346.259 5.15574 0
347.608 7.24916 0
346.421 9.43841 0
345.072 7.34499 0
346.34 7.29711 0
347.527 5.10779 0
350.063 5.01165 0
350.225 9.29429 0
347.689 9.39045 0
348.795 5.05976 0
350.144 7.153 0
348.957 9.34241 0
347.608 7.24916 0
348.876 7.20112 0
350.063 5.01165 0
352.599 4.91519 0
352.762 9.19781 0
350.225 9.29429 0
351.331 4.96346 0
352.681 7.05653 0
351.494 9.24609 0
350.144 7.153 0
351.412 7.10481 0
352.599 4.91519 0
355.135 4.81841 0
355.298 9.10101 0
352.762 9.19781 0
353.867 4.86684 0
355.217 6.95974 0
354.03 9.14945 0
352.681 7.05653 0
353.949 7.00817 0
355.135 4.81841 0
357.671 4.72132 0
357.835 9.0039 0
355.298 9.10101 0
356.403 4.7699 0
357.753 6.86264 0
356.567 9.05249 0
355.217 6.95974 0
356.485 6.91123 0
357.671 4.72132 0
360.207 4.62392 0
360.371 8.90648 0
357.835 9.0039 0
358.939 4.67266 0
360.289 6.76523 0
359.103 8.95523 0
357.753 6.86264 0
359.021 6.81397 0
360.207 4.62392 0
362.743 4.52623 0
362.908 8.80877 0
360.371 8.90648 0
361.475 4.57511 0
362.825 6.66753 0
361.64 8.85766 0
360.289 6.76523 0
361.557 6.71642 0
362.743 4.52623 0
365.279 4.42824 0
365.444 8.71076 0
362.908 8.80877 0
364.011 4.47727 0
365.362 6.56953 0
364.176 8.7598 0
362.825 6.66753 0
364.093 6.61857 0
365.279 4.42824 0
367.815 4.32996 0
367.981 8.61247 0
365.444 8.71076 0
366.547 4.37914 0
367.898 6.47124 0
366.712 8.66165 0
365.362 6.56953 0
366.63 6.52042 0
367.815 4.32996 0
370.351 4.2314 0
370.517 8.51389 0
367.981 8.61247 0
369.083 4.28072 0
370.434 6.37267 0
369.249 8.56321 0
367.898 6.47124 0
369.166 6.42199 0
370.351 4.2314 0
372.887 4.13256 0
373.053 8.41503 0
370.517 8.51389 0
371.619 4.18202 0
372.97 6.27383 0
371.785 8.46449 0
370.434 6.37267 0
371.702 6.32329 0
372.887 4.13256 0
375.423 4.03345 0
375.59 8.31591 0
373.053 8.41503 0
374.155 4.08304 0
375.506 6.17471 0
374.322 8.3655 0
372.97 6.27383 0
374.238 6.2243 0
375.423 4.03345 0
377.959 3.93408 0
378.126 8.21651 0
375.59 8.31591 0
376.691 3.9838 0
378.042 6.07532 0
376.858 8.26624 0
375.506 6.17471 0
376.774 6.12505 0
377.959 3.93408 0
380.494 3.83444 0
380.662 8.11686 0
378.126 8.21651 0
379.226 3.88429 0
380.578 5.97568 0
379.394 8.16672 0
378.042 6.07532 0
379.31 6.02553 0
380.494 3.83444 0
383.03 3.73455 0
383.199 8.01695 0
380.662 8.11686 0
381.762 3.78453 0
383.115 5.87577 0
381.931 8.06693 0
380.578 5.97568 0
381.846 5.92576 0
383.03 3.73455 0
385.566 3.6344 0
385.735 7.91679 0
383.199 8.01695 0
384.298 3.68451 0
385.651 5.77562 0
384.467 7.9669 0
383.115 5.87577 0
384.383 5.82573 0
385.566 3.6344 0
388.102 3.53401 0
388.271 7.81638 0
385.735 7.91679 0
386.834 3.58424 0
388.187 5.67522 0
387.003 7.86661 0
385.651 5.77562 0
386.919 5.72545 0
388.102 3.53401 0
390.638 3.43338 0
390.808 7.71574 0
388.271 7.81638 0
389.37 3.48373 0
390.723 5.57458 0
389.54 7.76609 0
388.187 5.67522 0
389.455 5.62493 0
390.638 3.43338 0
393.174 3.33252 0
393.344 7.61486 0
390.808 7.71574 0
391.906 3.38298 0
393.259 5.47371 0
392.076 7.66532 0
390.723 5.57458 0
391.991 5.52418 0
393.174 3.33252 0
395.71 3.23143 0
395.88 7.51375 0
393.344 7.61486 0
394.442 3.282 0
395.795 5.37261 0
394.612 7.56433 0
393.259 5.47371 0
394.527 5.42319 0
395.71 3.23143 0
398.246 3.13012 0
398.416 7.41242 0
395.88 7.51375 0
396.978 3.1808 0
398.331 5.27129 0
397.148 7.46311 0
395.795 5.37261 0
397.063 5.32198 0
398.246 3.13012 0
400.781 3.02858 0
400.953 7.31087 0
398.416 7.41242 0
399.513 3.07938 0
400.867 5.16975 0
399.685 7.36167 0
398.331 5.27129 0
399.599 5.22055 0
400.781 3.02858 0
403.317 2.92684 0
403.489 7.20911 0
400.953 7.31087 0
402.049 2.97774 0
403.403 5.068 0
402.221 7.26002 0
400.867 5.16975 0
402.135 5.1189 0
403.317 2.92684 0
405.853 2.82489 0
406.025 7.10715 0
403.489 7.20911 0
404.585 2.87589 0
405.939 4.96604 0
404.757 7.15816 0
403.403 5.068 0
404.671 5.01704 0
405.853 2.82489 0
408.389 2.72273 0
408.561 7.00498 0
406.025 7.10715 0
407.121 2.77383 0
408.475 4.86388 0
407.293 7.05609 0
405.939 4.96604 0
407.207 4.91498 0
408.389 2.72273 0
410.925 2.62038 0
411.097 6.90262 0
408.561 7.00498 0
409.657 2.67158 0
411.011 4.76152 0
409.829 6.95382 0
408.475 4.86388 0
409.743 4.81272 0
410.925 2.62038 0
413.461 2.51784 0
413.634 6.80007 0
411.097 6.90262 0
412.193 2.56914 0
413.547 4.65897 0
412.365 6.85137 0
411.011 4.76152 0
412.279 4.71027 0
413.461 2.51784 0
415.996 2.41512 0
416.17 6.69733 0
413.634 6.80007 0
414.729 2.4665 0
416.083 4.55624 0
414.902 6.74872 0
413.547 4.65897 0
414.815 4.60763 0
415.996 2.41512 0
418.532 2.31221 0
418.706 6.59441 0
416.17 6.69733 0
417.264 2.36369 0
418.619 4.45333 0
417.438 6.64589 0
416.083 4.55624 0
417.351 4.50481 0
418.532 2.31221 0
421.068 2.20913 0
421.242 6.49132 0
418.706 6.59441 0
419.8 2.26069 0
421.155 4.35024 0
419.974 6.54289 0
418.619 4.45333 0
419.887 4.40181 0
421.068 2.20913 0
423.604 2.10589 0
423.778 6.38806 0
421.242 6.49132 0
422.336 2.15753 0
423.691 4.24699 0
422.51 6.43971 0
421.155 4.35024 0
422.423 4.29864 0
423.604 2.10589 0
426.14 2.00247 0
426.314 6.28464 0
423.778 6.38806 0
424.872 2.0542 0
426.227 4.14357 0
425.046 6.33637 0
423.691 4.24699 0
424.959 4.1953 0
426.14 2.00247 0
428.676 1.8989 0
428.85 6.18106 0
426.314 6.28464 0
427.408 1.95071 0
428.763 4.04 0
427.582 6.23287 0
426.227 4.14357 0
427.495 4.0918 0
428.676 1.8989 0
431.211 1.79518 0
431.386 6.07733 0
428.85 6.18106 0
429.944 1.84706 0
431.299 3.93627 0
430.118 6.12921 0
428.763 4.04 0
430.031 3.98815 0
431.211 1.79518 0
433.747 1.69131 0
433.922 5.97345 0
431.386 6.07733 0
432.479 1.74327 0
433.835 3.8324 0
432.654 6.02541 0
431.299 3.93627 0
432.567 3.88435 0
433.747 1.69131 0
436.283 1.5873 0
436.458 5.86943 0
433.922 5.97345 0
435.015 1.63933 0
436.371 3.72838 0
435.19 5.92145 0
433.835 3.8324 0
435.103 3.7804 0
436.283 1.5873 0
438.819 1.48316 0
438.995 5.76527 0
436.458 5.86943 0
437.551 1.53525 0
438.907 3.62423 0
437.726 5.81737 0
436.371 3.72838 0
437.639 3.67632 0
438.819 1.48316 0
441.355 1.37888 0
441.531 5.66098 0
438.995 5.76527 0
440.087 1.43103 0
441.443 3.51995 0
440.263 5.71314 0
438.907 3.62423 0
440.175 3.5721 0
441.355 1.37888 0
443.891 1.27448 0
444.067 5.55657 0
441.531 5.66098 0
442.623 1.32669 0
443.979 3.41554 0
442.799 5.60879 0
441.443 3.51995 0
442.711 3.46776 0
443.891 1.27448 0
446.426 1.16995 0
446.603 5.45204 0
444.067 5.55657 0
445.159 1.22223 0
446.515 3.31101 0
445.335 5.50432 0
443.979 3.41554 0
445.247 3.36329 0
446.426 1.16995 0
448.962 1.06532 0
449.139 5.3474 0
446.603 5.45204 0
447.694 1.11765 0
449.05 3.20637 0
447.871 5.39973 0
446.515 3.31101 0
447.782 3.2587 0
448.962 1.06532 0
451.498 0.960569 0
451.675 5.24264 0
449.139 5.3474 0
450.23 1.01296 0
451.586 3.10162 0
450.407 5.29503 0
449.05 3.20637 0
450.318 3.15401 0
451.498 0.960569 0
454.034 0.85572 0
454.211 5.13779 0
451.675 5.24264 0
452.766 0.908157 0
454.122 2.99676 0
452.943 5.19023 0
451.586 3.10162 0
452.854 3.0492 0
454.034 0.85572 0
456.57 0.750772 0
456.747 5.03283 0
454.211 5.13779 0
455.302 0.803258 0
456.658 2.89181 0
455.479 5.08532 0
454.122 2.99676 0
455.39 2.9443 0
456.57 0.750772 0
459.106 0.645731 0
459.283 4.92779 0
456.747 5.03283 0
457.838 0.698263 0
459.194 2.78677 0
458.015 4.98032 0
456.658 2.89181 0
457.926 2.8393 0
459.106 0.645731 0
461.641 0.540603 0
461.819 4.82265 0
459.283 4.92779 0
460.373 0.593178 0
461.73 2.68164 0
460.551 4.87523 0
459.194 2.78677 0
460.462 2.73421 0
461.641 0.540603 0
464.177 0.435394 0
464.354 4.71744 0
461.819 4.82265 0
462.909 0.488008 0
464.266 2.57642 0
463.087 4.77005 0
461.73 2.68164 0
462.998 2.62904 0
464.177 0.435394 0
466.713 0.330108 0
466.89 4.61215 0
464.354 4.71744 0
465.445 0.38276 0
466.802 2.47113 0
465.622 4.6648 0
464.266 2.57642 0
465.534 2.52379 0
466.713 0.330108 0
469.249 0.224751 0
469.426 4.50678 0
466.89 4.61215 0
467.981 0.277438 0
469.338 2.36577 0
468.158 4.55947 0
466.802 2.47113 0
468.07 2.41846 0
469.249 0.224751 0
471.785 0.119328 0
471.962 4.40136 0
469.426 4.50678 0
470.517 0.172047 0
471.873 2.26035 0
470.694 4.45408 0
469.338 2.36577 0
470.606 2.31307 0
471.785 0.119328 0
474.32 0.0138453 0
474.498 4.29587 0
471.962 4.40136 0
473.053 0.066594 0
474.409 2.15486 0
473.23 4.34862 0
471.873 2.26035 0
473.141 2.20761 0
474.32 0.0138453 0
476.856 -0.0916925 0
477.034 4.19033 0
474.498 4.29587 0
475.588 -0.038917 0
476.945 2.04932 0
475.766 4.24311 0
474.409 2.15486 0
475.677 2.1021 0
476.856 -0.0916925 0
479.392 -0.19728 0
479.57 4.08474 0
477.034 4.19033 0
478.124 -0.14448 0
479.481 1.94373 0
478.302 4.13754 0
476.945 2.04932 0
478.213 1.99653 0
479.392 -0.19728 0
481.928 -0.302913 0
482.106 3.9791 0
479.57 4.08474 0
480.66 -0.250091 0
482.017 1.8381 0
480.838 4.03193 0
479.481 1.94373 0
480.749 1.89092 0
481.928 -0.302913 0
484.464 -0.408585 0
484.642 3.87343 0
482.106 3.9791 0
483.196 -0.355744 0
484.553 1.73242 0
483.374 3.92627 0
482.017 1.8381 0
483.285 1.78527 0
484.464 -0.408585 0
487 -0.514291 0
487.178 3.76772 0
484.642 3.87343 0
485.732 -0.461434 0
487.089 1.62672 0
485.91 3.82058 0
484.553 1.73242 0
485.821 1.67957 0
487 -0.514291 0
489.536 -0.620026 0
489.714 3.66199 0
487.178 3.76772 0
488.268 -0.567156 0
489.625 1.52098 0
488.446 3.71486 0
487.089 1.62672 0
488.357 1.57385 0
489.536 -0.620026 0
492.071 -0.725778 0
492.25 3.55623 0
489.714 3.66199 0
490.803 -0.6729 0
492.16 1.41523 0
490.982 3.60911 0
489.625 1.52098 0
490.893 1.46811 0
492.071 -0.725778 0
494.607 -0.831532 0
494.785 3.45048 0
492.25 3.55623 0
493.339 -0.778656 0
494.696 1.30948 0
493.517 3.50335 0
492.16 1.41523 0
493.428 1.36235 0
494.607 -0.831532 0
497.143 -0.937264 0
497.321 3.34474 0
494.785 3.45048 0
495.875 -0.884403 0
497.232 1.20375 0
496.053 3.39761 0
494.696 1.30948 0
495.964 1.25661 0
497.143 -0.937264 0
499.679 -1.04294 0
499.857 3.23907 0
497.321 3.34474 0
498.411 -0.990111 0
499.768 1.09808 0
498.589 3.2919 0
497.232 1.20375 0
498.5 1.1509 0
0 17.1429 0
2.53885 17.143 0
2.54046 21.4283 0
0 21.4286 0
1.26942 17.1431 0
2.53965 19.2857 0
1.27019 21.4286 0
0 19.2857 0
1.2698 19.2859 0
2.53885 17.143 0
5.07777 17.1416 0
5.0811 21.4267 0
2.54046 21.4283 0
3.8083 17.1425 0
5.07942 19.2843 0
3.81077 21.4277 0
2.53965 19.2857 0
3.80953 19.2851 0
5.07777 17.1416 0
7.61672 17.139 0
7.62186 21.4239 0
5.0811 21.4267 0
6.34724 17.1405 0
7.61927 19.2816 0
6.35147 21.4254 0
5.07942 19.2843 0
6.34934 19.2831 0
7.61672 17.139 0
10.1557 17.1352 0
10.1626 21.42 0
7.62186 21.4239 0
8.8862 17.1372 0
10.1591 19.2777 0
8.89224 21.4221 0
7.61927 19.2816 0
8.8892 19.2798 0
10.1557 17.1352 0
12.6946 17.1303 0
12.7034 21.4151 0
10.1626 21.42 0
11.4252 17.1329 0
12.699 19.2728 0
11.433 21.4177 0
10.1591 19.2777 0
11.4291 19.2754 0
12.6946 17.1303 0
15.2336 17.1243 0
15.2441 21.4091 0
12.7034 21.4151 0
13.9641 17.1275 0
15.2388 19.2668 0
13.9738 21.4122 0
12.699 19.2728 0
13.9689 19.27 0
15.2336 17.1243 0
17.7725 17.1173 0
17.7848 21.4021 0
15.2441 21.4091 0
16.5031 17.121 0
17.7787 19.2598 0
16.5145 21.4058 0
15.2388 19.2668 0
16.5088 19.2635 0
17.7725 17.1173 0
20.3115 17.1093 0
20.3255 21.3941 0
17.7848 21.4021 0
19.042 17.1134 0
20.3185 19.2518 0
19.0552 21.3982 0
17.7787 19.2598 0
19.0486 19.256 0
20.3115 17.1093 0
22.8504 17.1002 0
22.8662 21.385 0
20.3255 21.3941 0
21.5809 17.1049 0
22.8583 19.2427 0
21.5958 21.3897 0
20.3185 19.2518 0
21.5884 19.2474 0
22.8504 17.1002 0
25.3893 17.0901 0
25.4068 21.3749 0
22.8662 21.385 0
24.1199 17.0953 0
25.398 19.2327 0
24.1365 21.3801 0
22.8583 19.2427 0
24.1282 19.2378 0
25.3893 17.0901 0
27.9282 17.079 0
27.9474 21.3638 0
25.4068 21.3749 0
26.6588 17.0847 0
27.9378 19.2216 0
26.6771 21.3695 0
25.398 19.2327 0
26.6679 19.2272 0
27.9282 17.079 0
30.4671 17.0669 0
30.488 21.3517 0
27.9474 21.3638 0
29.1977 17.0731 0
30.4776 19.2094 0
29.2177 21.3579 0
27.9378 19.2216 0
29.2077 19.2156 0
30.4671 17.0669 0
33.006 17.0538 0
33.0286 21.3386 0
30.488 21.3517 0
31.7365 17.0605 0
33.0173 19.1963 0
31.7583 21.3453 0
30.4776 19.2094 0
31.7474 19.203 0
33.006 17.0538 0
35.5449 17.0397 0
35.5692 21.3245 0
33.0286 21.3386 0
34.2754 17.0469 0
35.557 19.1822 0
34.2989 21.3317 0
33.0173 19.1963 0
34.2871 19.1894 0
35.5449 17.0397 0
38.0837 17.0246 0
38.1097 21.3093 0
35.5692 21.3245 0
36.8143 17.0322 0
38.0967 19.1671 0
36.8394 21.317 0
35.557 19.1822 0
36.8269 19.1747 0
38.0837 17.0246 0
40.6226 17.0084 0
40.6502 21.2932 0
38.1097 21.3093 0
39.3531 17.0166 0
40.6364 19.1509 0
39.38 21.3014 0
38.0967 19.1671 0
39.3665 19.1591 0
40.6226 17.0084 0
43.1614 16.9913 0
43.1907 21.2761 0
40.6502 21.2932 0
41.892 17 0
43.1761 19.1338 0
41.9205 21.2848 0
40.6364 19.1509 0
41.9062 19.1425 0
43.1614 16.9913 0
45.7002 16.9733 0
45.7312 21.258 0
43.1907 21.2761 0
44.4308 16.9824 0
45.7157 19.1157 0
44.461 21.2672 0
43.1761 19.1338 0
44.4459 19.1249 0
45.7002 16.9733 0
48.2391 16.9542 0
48.2716 21.239 0
45.7312 21.258 0
46.9696 16.9639 0
48.2553 19.0967 0
47.0014 21.2486 0
45.7157 19.1157 0
46.9855 19.1063 0
48.2391 16.9542 0
50.7779 16.9342 0
50.8121 21.2189 0
48.2716 21.239 0
49.5085 16.9443 0
50.795 19.0767 0
49.5419 21.2291 0
48.2553 19.0967 0
49.5252 19.0868 0
50.7779 16.9342 0
53.3166 16.9132 0
53.3525 21.1979 0
50.8121 21.2189 0
52.0473 16.9238 0
53.3346 19.0557 0
52.0823 21.2085 0
50.795 19.0767 0
52.0648 19.0663 0
53.3166 16.9132 0
55.8554 16.8912 0
55.8929 21.176 0
53.3525 21.1979 0
54.586 16.9023 0
55.8742 19.0337 0
54.6227 21.1871 0
53.3346 19.0557 0
54.6044 19.0448 0
55.8554 16.8912 0
58.3942 16.8683 0
58.4333 21.1531 0
55.8929 21.176 0
57.1248 16.8799 0
58.4137 19.0108 0
57.1631 21.1646 0
55.8742 19.0337 0
57.1439 19.0224 0
58.3942 16.8683 0
60.9329 16.8445 0
60.9736 21.1292 0
58.4333 21.1531 0
59.6636 16.8565 0
60.9533 18.9869 0
59.7034 21.1412 0
58.4137 19.0108 0
59.6835 18.999 0
60.9329 16.8445 0
63.4717 16.8197 0
63.5139 21.1044 0
60.9736 21.1292 0
62.2023 16.8322 0
63.4928 18.9621 0
62.2438 21.1169 0
60.9533 18.9869 0
62.223 18.9747 0
63.4717 16.8197 0
66.0104 16.794 0
66.0542 21.0786 0
63.5139 21.1044 0
64.7411 16.8069 0
66.0323 18.9364 0
64.7841 21.0916 0
63.4928 18.9621 0
64.7626 18.9494 0
66.0104 16.794 0
68.5491 16.7673 0
68.5945 21.052 0
66.0542 21.0786 0
67.2798 16.7807 0
68.5718 18.9097 0
67.3244 21.0654 0
66.0323 18.9364 0
67.3021 18.9232 0
68.5491 16.7673 0
71.0878 16.7397 0
71.1348 21.0244 0
68.5945 21.052 0
69.8185 16.7536 0
71.1113 18.8821 0
69.8647 21.0383 0
68.5718 18.9097 0
69.8416 18.8961 0
71.0878 16.7397 0
73.6265 16.7112 0
73.675 20.9959 0
71.1348 21.0244 0
72.3572 16.7256 0
73.6507 18.8536 0
72.4049 21.0102 0
71.1113 18.8821 0
72.381 18.868 0
73.6265 16.7112 0
76.1652 16.6818 0
76.2152 20.9664 0
73.675 20.9959 0
74.8958 16.6966 0
76.1902 18.8242 0
74.9451 20.9812 0
73.6507 18.8536 0
74.9205 18.839 0
76.1652 16.6818 0
78.7038 16.6514 0
78.7554 20.9361 0
76.2152 20.9664 0
77.4345 16.6667 0
78.7296 18.7939 0
77.4853 20.9514 0
76.1902 18.8242 0
77.4599 18.8091 0
78.7038 16.6514 0
81.2425 16.6202 0
81.2956 20.9048 0
78.7554 20.9361 0
79.9731 16.6359 0
81.269 18.7626 0
80.0255 20.9206 0
78.7296 18.7939 0
79.9993 18.7783 0
81.2425 16.6202 0
83.7811 16.5881 0
83.8357 20.8727 0
81.2956 20.9048 0
82.5118 16.6042 0
83.8084 18.7305 0
82.5656 20.8889 0
81.269 18.7626 0
82.5387 18.7466 0
83.7811 16.5881 0
86.3197 16.555 0
86.3758 20.8396 0
83.8357 20.8727 0
85.0504 16.5717 0
86.3477 18.6974 0
85.1058 20.8563 0
83.8084 18.7305 0
85.0781 18.7141 0
86.3197 16.555 0
88.8583 16.5211 0
88.9159 20.8057 0
86.3758 20.8396 0
87.589 16.5382 0
88.8871 18.6635 0
87.6458 20.8228 0
86.3477 18.6974 0
87.6174 18.6806 0
88.8583 16.5211 0
91.3968 16.4863 0
91.4559 20.7709 0
88.9159 20.8057 0
90.1276 16.5038 0
91.4264 18.6287 0
90.1859 20.7884 0
88.8871 18.6635 0
90.1567 18.6462 0
91.3968 16.4863 0
93.9354 16.4506 0
93.996 20.7352 0
91.4559 20.7709 0
92.6661 16.4686 0
93.9657 18.593 0
92.726 20.7531 0
91.4264 18.6287 0
92.696 18.611 0
93.9354 16.4506 0
96.4739 16.4141 0
96.536 20.6986 0
93.996 20.7352 0
95.2047 16.4325 0
96.505 18.5564 0
95.266 20.717 0
93.9657 18.593 0
95.2353 18.5748 0
96.4739 16.4141 0
99.0125 16.3767 0
99.076 20.6612 0
96.536 20.6986 0
97.7432 16.3955 0
99.0442 18.519 0
97.806 20.68 0
96.505 18.5564 0
97.7746 18.5378 0
99.0125 16.3767 0
101.551 16.3384 0
101.616 20.6229 0
99.076 20.6612 0
100.282 16.3576 0
101.583 18.4807 0
100.346 20.6421 0
99.0442 18.519 0
100.314 18.5 0
101.551 16.3384 0
104.089 16.2993 0
104.156 20.5837 0
101.616 20.6229 0
102.82 16.3189 0
104.123 18.4416 0
102.886 20.6034 0
101.583 18.4807 0
102.853 18.4613 0
104.089 16.2993 0
106.628 16.2593 0
106.696 20.5437 0
104.156 20.5837 0
105.359 16.2794 0
106.662 18.4016 0
105.426 20.5638 0
104.123 18.4416 0
105.392 18.4217 0
106.628 16.2593 0
109.166 16.2185 0
109.236 20.5029 0
106.696 20.5437 0
107.897 16.239 0
109.201 18.3608 0
107.966 20.5234 0
106.662 18.4016 0
107.931 18.3813 0
109.166 16.2185 0
111.705 16.1768 0
111.775 20.4612 0
109.236 20.5029 0
110.436 16.1977 0
111.74 18.3191 0
110.506 20.4822 0
109.201 18.3608 0
110.471 18.34 0
111.705 16.1768 0
114.243 16.1343 0
114.315 20.4187 0
111.775 20.4612 0
112.974 16.1556 0
114.279 18.2766 0
113.045 20.4401 0
111.74 18.3191 0
113.01 18.2979 0
114.243 16.1343 0
116.782 16.091 0
116.855 20.3753 0
114.315 20.4187 0
115.512 16.1127 0
116.818 18.2332 0
115.585 20.3971 0
114.279 18.2766 0
115.549 18.255 0
116.782 16.091 0
119.32 16.0468 0
119.395 20.3312 0
116.855 20.3753 0
118.051 16.069 0
119.357 18.1891 0
118.125 20.3534 0
116.818 18.2332 0
118.088 18.2113 0
119.32 16.0468 0
121.858 16.0019 0
121.935 20.2862 0
119.395 20.3312 0
120.589 16.0244 0
121.896 18.1441 0
120.665 20.3088 0
119.357 18.1891 0
120.627 18.1667 0
121.858 16.0019 0
124.397 15.9561 0
124.474 20.2404 0
121.935 20.2862 0
123.128 15.9791 0
124.435 18.0983 0
123.204 20.2634 0
121.896 18.1441 0
123.166 18.1213 0
124.397 15.9561 0
126.935 15.9095 0
127.014 20.1938 0
124.474 20.2404 0
125.666 15.9329 0
126.974 18.0517 0
125.744 20.2172 0
124.435 18.0983 0
125.705 18.0751 0
126.935 15.9095 0
129.473 15.8621 0
129.554 20.1464 0
127.014 20.1938 0
128.204 15.8859 0
129.513 18.0043 0
128.284 20.1702 0
126.974 18.0517 0
128.244 18.0281 0
129.473 15.8621 0
132.012 15.8139 0
132.093 20.0982 0
129.554 20.1464 0
130.742 15.8381 0
132.052 17.9561 0
130.823 20.1224 0
129.513 18.0043 0
130.783 17.9803 0
132.012 15.8139 0
134.55 15.765 0
134.633 20.0492 0
132.093 20.0982 0
133.281 15.7895 0
134.591 17.9072 0
133.363 20.0738 0
132.052 17.9561 0
133.322 17.9318 0
134.55 15.765 0
137.088 15.7152 0
137.172 19.9994 0
134.633 20.0492 0
135.819 15.7402 0
137.13 17.8574 0
135.903 20.0244 0
134.591 17.9072 0
135.861 17.8824 0
137.088 15.7152 0
139.626 15.6647 0
139.712 19.9489 0
137.172 19.9994 0
138.357 15.69 0
139.669 17.8069 0
138.442 19.9742 0
137.13 17.8574 0
138.4 17.8322 0
139.626 15.6647 0
142.165 15.6134 0
142.251 19.8975 0
139.712 19.9489 0
140.895 15.6391 0
142.208 17.7555 0
140.982 19.9233 0
139.669 17.8069 0
140.939 17.7813 0
142.165 15.6134 0
144.703 15.5613 0
144.791 19.8454 0
142.251 19.8975 0
143.434 15.5874 0
144.747 17.7035 0
143.521 19.8716 0
142.208 17.7555 0
143.477 17.7296 0
144.703 15.5613 0
147.241 15.5085 0
147.33 19.7926 0
144.791 19.8454 0
145.972 15.535 0
147.286 17.6506 0
146.061 19.8191 0
144.747 17.7035 0
146.016 17.6771 0
147.241 15.5085 0
149.779 15.4549 0
149.87 19.739 0
147.33 19.7926 0
148.51 15.4818 0
149.824 17.597 0
148.6 19.7659 0
147.286 17.6506 0
148.555 17.6239 0
149.779 15.4549 0
152.317 15.4005 0
152.409 19.6846 0
149.87 19.739 0
151.048 15.4278 0
152.363 17.5426 0
151.139 19.7119 0
149.824 17.597 0
151.094 17.5699 0
152.317 15.4005 0
154.855 15.3454 0
154.948 19.6295 0
152.409 19.6846 0
153.586 15.3731 0
154.902 17.4875 0
153.679 19.6571 0
152.363 17.5426 0
153.632 17.5152 0
154.855 15.3454 0
157.393 15.2896 0
157.488 19.5736 0
154.948 19.6295 0
156.124 15.3176 0
157.441 17.4317 0
156.218 19.6017 0
154.902 17.4875 0
156.171 17.4597 0
157.393 15.2896 0
159.931 15.233 0
160.027 19.5171 0
157.488 19.5736 0
158.662 15.2614 0
159.979 17.3751 0
158.757 19.5454 0
157.441 17.4317 0
158.71 17.4035 0
159.931 15.233 0
162.469 15.1757 0
162.566 19.4597 0
160.027 19.5171 0
161.2 15.2045 0
162.518 17.3178 0
161.297 19.4885 0
159.979 17.3751 0
161.249 17.3466 0
162.469 15.1757 0
165.007 15.1177 0
165.106 19.4017 0
162.566 19.4597 0
163.738 15.1468 0
165.056 17.2598 0
163.836 19.4308 0
162.518 17.3178 0
163.787 17.2889 0
165.007 15.1177 0
167.545 15.059 0
167.645 19.3429 0
165.106 19.4017 0
166.276 15.0884 0
167.595 17.201 0
166.375 19.3724 0
165.056 17.2598 0
166.326 17.2305 0
167.545 15.059 0
170.083 14.9995 0
170.184 19.2835 0
167.645 19.3429 0
168.814 15.0293 0
170.134 17.1416 0
168.914 19.3133 0
167.595 17.201 0
168.864 17.1714 0
170.083 14.9995 0
172.621 14.9394 0
172.723 19.2233 0
170.184 19.2835 0
171.352 14.9695 0
172.672 17.0814 0
171.454 19.2535 0
170.134 17.1416 0
171.403 17.1116 0
172.621 14.9394 0
175.159 14.8785 0
175.262 19.1624 0
172.723 19.2233 0
173.89 14.909 0
175.211 17.0205 0
173.993 19.1929 0
172.672 17.0814 0
173.941 17.051 0
175.159 14.8785 0
177.697 14.8169 0
177.801 19.1008 0
175.262 19.1624 0
176.428 14.8478 0
177.749 16.959 0
176.532 19.1317 0
175.211 17.0205 0
176.48 16.9898 0
177.697 14.8169 0
180.235 14.7547 0
180.34 19.0385 0
177.801 19.1008 0
178.966 14.7859 0
180.288 16.8967 0
179.071 19.0698 0
177.749 16.959 0
179.018 16.9279 0
180.235 14.7547 0
182.773 14.6918 0
182.879 18.9756 0
180.34 19.0385 0
181.504 14.7233 0
182.826 16.8337 0
181.61 19.0071 0
180.288 16.8967 0
181.557 16.8653 0
182.773 14.6918 0
185.311 14.6281 0
185.418 18.9119 0
182.879 18.9756 0
184.042 14.66 0
185.365 16.7701 0
184.149 18.9438 0
182.826 16.8337 0
184.095 16.802 0
185.311 14.6281 0
187.849 14.5639 0
187.957 18.8476 0
185.418 18.9119 0
186.58 14.5961 0
187.903 16.7058 0
186.688 18.8799 0
185.365 16.7701 0
186.634 16.738 0
187.849 14.5639 0
190.386 14.4989 0
190.496 18.7826 0
187.957 18.8476 0
189.118 14.5315 0
190.441 16.6408 0
189.227 18.8152 0
187.903 16.7058 0
189.172 16.6734 0
190.386 14.4989 0
192.924 14.4333 0
193.035 18.717 0
190.496 18.7826 0
191.655 14.4662 0
192.98 16.5752 0
191.766 18.7499 0
190.441 16.6408 0
191.71 16.6081 0
192.924 14.4333 0
195.462 14.367 0
195.574 18.6507 0
193.035 18.717 0
194.193 14.4002 0
195.518 16.5089 0
194.305 18.6839 0
192.98 16.5752 0
194.249 16.5421 0
195.462 14.367 0
198 14.3 0
198.113 18.5837 0
195.574 18.6507 0
196.731 14.3336 0
198.056 16.4419 0
196.843 18.6173 0
195.518 16.5089 0
196.787 16.4755 0
198 14.3 0
200.537 14.2325 0
200.652 18.5161 0
198.113 18.5837 0
199.269 14.2663 0
200.595 16.3743 0
199.382 18.55 0
198.056 16.4419 0
199.325 16.4082 0
200.537 14.2325 0
203.075 14.1642 0
203.19 18.4478 0
200.652 18.5161 0
201.806 14.1984 0
203.133 16.3061 0
201.921 18.482 0
200.595 16.3743 0
201.864 16.3403 0
203.075 14.1642 0
205.613 14.0954 0
205.729 18.3789 0
203.19 18.4478 0
204.344 14.1299 0
205.671 16.2372 0
204.46 18.4135 0
203.133 16.3061 0
204.402 16.2717 0
205.613 14.0954 0
208.15 14.0259 0
208.268 18.3094 0
205.729 18.3789 0
206.882 14.0607 0
208.209 16.1677 0
206.999 18.3443 0
205.671 16.2372 0
206.94 16.2025 0
208.15 14.0259 0
210.688 13.9557 0
210.807 18.2393 0
208.268 18.3094 0
209.419 13.9909 0
210.747 16.0976 0
209.537 18.2744 0
208.209 16.1677 0
209.478 16.1327 0
210.688 13.9557 0
213.226 13.885 0
213.345 18.1685 0
210.807 18.2393 0
211.957 13.9204 0
213.285 16.0268 0
212.076 18.204 0
210.747 16.0976 0
212.016 16.0623 0
213.226 13.885 0
215.763 13.8136 0
215.884 18.0971 0
213.345 18.1685 0
214.494 13.8494 0
215.824 15.9554 0
214.615 18.1329 0
213.285 16.0268 0
214.554 15.9912 0
215.763 13.8136 0
218.301 13.7417 0
218.422 18.0251 0
215.884 18.0971 0
217.032 13.7777 0
218.362 15.8835 0
217.153 18.0612 0
215.824 15.9554 0
217.093 15.9195 0
218.301 13.7417 0
220.838 13.6691 0
220.961 17.9525 0
218.422 18.0251 0
219.57 13.7054 0
220.9 15.8109 0
219.692 17.9889 0
218.362 15.8835 0
219.631 15.8472 0
220.838 13.6691 0
223.376 13.5959 0
223.499 17.8793 0
220.961 17.9525 0
222.107 13.6326 0
223.438 15.7377 0
222.23 17.916 0
220.9 15.8109 0
222.169 15.7744 0
223.376 13.5959 0
225.913 13.5222 0
226.038 17.8055 0
223.499 17.8793 0
224.645 13.5591 0
225.976 15.6639 0
224.769 17.8425 0
223.438 15.7377 0
224.707 15.7009 0
225.913 13.5222 0
228.451 13.4478 0
228.576 17.7312 0
226.038 17.8055 0
227.182 13.485 0
228.514 15.5895 0
227.307 17.7684 0
225.976 15.6639 0
227.245 15.6268 0
228.451 13.4478 0
230.988 13.3729 0
231.115 17.6562 0
228.576 17.7312 0
229.72 13.4104 0
231.052 15.5146 0
229.846 17.6938 0
228.514 15.5895 0
229.783 15.5521 0
230.988 13.3729 0
233.526 13.2973 0
233.653 17.5807 0
231.115 17.6562 0
232.257 13.3352 0
233.59 15.4391 0
232.384 17.6185 0
231.052 15.5146 0
232.321 15.4769 0
233.526 13.2973 0
236.063 13.2213 0
236.192 17.5046 0
233.653 17.5807 0
234.794 13.2594 0
236.127 15.363 0
234.922 17.5427 0
233.59 15.4391 0
234.858 15.4011 0
236.063 13.2213 0
238.601 13.1446 0
238.73 17.4279 0
236.192 17.5046 0
237.332 13.183 0
238.665 15.2863 0
237.461 17.4663 0
236.127 15.363 0
237.396 15.3247 0
238.601 13.1446 0
241.138 13.0674 0
241.268 17.3507 0
238.73 17.4279 0
239.869 13.1061 0
241.203 15.2091 0
239.999 17.3893 0
238.665 15.2863 0
239.934 15.2478 0
241.138 13.0674 0
243.675 12.9896 0
243.807 17.2729 0
241.268 17.3507 0
242.407 13.0286 0
243.741 15.1313 0
242.537 17.3118 0
241.203 15.2091 0
242.472 15.1703 0
243.675 12.9896 0
246.213 12.9113 0
246.345 17.1945 0
243.807 17.2729 0
244.944 12.9505 0
246.279 15.053 0
245.076 17.2338 0
243.741 15.1313 0
245.01 15.0922 0
246.213 12.9113 0
248.75 12.8325 0
248.883 17.1156 0
246.345 17.1945 0
247.481 12.872 0
248.816 14.9741 0
247.614 17.1551 0
246.279 15.053 0
247.548 15.0136 0
248.75 12.8325 0
251.287 12.7531 0
251.421 17.0362 0
248.883 17.1156 0
250.019 12.7928 0
251.354 14.8947 0
250.152 17.076 0
248.816 14.9741 0
250.085 14.9345 0
251.287 12.7531 0
253.824 12.6731 0
253.959 16.9563 0
251.421 17.0362 0
252.556 12.7132 0
253.892 14.8147 0
252.69 16.9963 0
251.354 14.8947 0
252.623 14.8548 0
253.824 12.6731 0
256.362 12.5927 0
256.498 16.8758 0
253.959 16.9563 0
255.093 12.633 0
256.43 14.7343 0
255.228 16.9161 0
253.892 14.8147 0
255.161 14.7746 0
256.362 12.5927 0
258.899 12.5117 0
259.036 16.7948 0
256.498 16.8758 0
257.63 12.5522 0
258.967 14.6533 0
257.767 16.8353 0
256.43 14.7343 0
257.698 14.6938 0
258.899 12.5117 0
261.436 12.4302 0
261.574 16.7132 0
259.036 16.7948 0
260.167 12.471 0
261.505 14.5718 0
260.305 16.7541 0
258.967 14.6533 0
260.236 14.6126 0
261.436 12.4302 0
263.973 12.3482 0
264.112 16.6312 0
261.574 16.7132 0
262.705 12.3892 0
264.042 14.4897 0
262.843 16.6723 0
261.505 14.5718 0
262.774 14.5308 0
263.973 12.3482 0
266.51 12.2657 0
266.65 16.5487 0
264.112 16.6312 0
265.242 12.307 0
266.58 14.4072 0
265.381 16.59 0
264.042 14.4897 0
265.311 14.4485 0
266.51 12.2657 0
269.048 12.1826 0
269.188 16.4656 0
266.65 16.5487 0
267.779 12.2242 0
269.118 14.3242 0
267.919 16.5072 0
266.58 14.4072 0
267.849 14.3658 0
269.048 12.1826 0
271.585 12.0991 0
271.726 16.3821 0
269.188 16.4656 0
270.316 12.1409 0
271.655 14.2407 0
270.457 16.4239 0
269.118 14.3242 0
270.386 14.2825 0
271.585 12.0991 0
274.122 12.0151 0
274.264 16.2981 0
271.726 16.3821 0
272.853 12.0572 0
274.193 14.1566 0
272.995 16.3401 0
271.655 14.2407 0
272.924 14.1987 0
274.122 12.0151 0
276.659 11.9306 0
276.801 16.2136 0
274.264 16.2981 0
275.39 11.9729 0
276.73 14.0721 0
275.533 16.2559 0
274.193 14.1566 0
275.461 14.1145 0
276.659 11.9306 0
279.196 11.8457 0
279.339 16.1286 0
276.801 16.2136 0
277.927 11.8882 0
279.268 13.9872 0
278.07 16.1711 0
276.73 14.0721 0
277.999 14.0297 0
279.196 11.8457 0
281.733 11.7602 0
281.877 16.0431 0
279.339 16.1286 0
280.464 11.803 0
281.805 13.9017 0
280.608 16.0859 0
279.268 13.9872 0
280.536 13.9445 0
281.733 11.7602 0
284.27 11.6743 0
284.415 15.9572 0
281.877 16.0431 0
283.001 11.7173 0
284.342 13.8158 0
283.146 16.0002 0
281.805 13.9017 0
283.074 13.8588 0
284.27 11.6743 0
286.807 11.5879 0
286.953 15.8708 0
284.415 15.9572 0
285.538 11.6312 0
286.88 13.7294 0
285.684 15.914 0
284.342 13.8158 0
285.611 13.7727 0
286.807 11.5879 0
289.344 11.5011 0
289.49 15.7839 0
286.953 15.8708 0
288.075 11.5446 0
289.417 13.6426 0
288.222 15.8274 0
286.88 13.7294 0
288.148 13.6861 0
289.344 11.5011 0
291.881 11.4138 0
292.028 15.6966 0
289.49 15.7839 0
290.612 11.4575 0
291.954 13.5553 0
290.759 15.7403 0
289.417 13.6426 0
290.686 13.599 0
291.881 11.4138 0
294.418 11.3261 0
294.566 15.6089 0
292.028 15.6966 0
293.149 11.37 0
294.492 13.4675 0
293.297 15.6528 0
291.954 13.5553 0
293.223 13.5115 0
294.418 11.3261 0
296.955 11.2379 0
297.103 15.5207 0
294.566 15.6089 0
295.686 11.2821 0
297.029 13.3794 0
295.835 15.5648 0
294.492 13.4675 0
295.76 13.4235 0
296.955 11.2379 0
299.492 11.1493 0
299.641 15.4321 0
297.103 15.5207 0
298.223 11.1937 0
299.566 13.2908 0
298.372 15.4764 0
297.029 13.3794 0
298.298 13.3351 0
299.492 11.1493 0
302.028 11.0603 0
302.179 15.343 0
299.641 15.4321 0
300.76 11.1049 0
302.104 13.2017 0
300.91 15.3876 0
299.566 13.2908 0
300.835 13.2463 0
302.028 11.0603 0
304.565 10.9709 0
304.716 15.2535 0
302.179 15.343 0
303.297 11.0156 0
304.641 13.1122 0
303.447 15.2983 0
302.104 13.2017 0
303.372 13.157 0
304.565 10.9709 0
307.102 10.881 0
307.254 15.1637 0
304.716 15.2535 0
305.834 10.926 0
307.178 13.0224 0
305.985 15.2087 0
304.641 13.1122 0
305.909 13.0674 0
307.102 10.881 0
309.639 10.7907 0
309.791 15.0733 0
307.254 15.1637 0
308.371 10.8359 0
309.715 12.9321 0
308.523 15.1186 0
307.178 13.0224 0
308.447 12.9773 0
309.639 10.7907 0
312.176 10.7 0
312.329 14.9826 0
309.791 15.0733 0
310.907 10.7454 0
312.252 12.8414 0
311.06 15.028 0
309.715 12.9321 0
310.984 12.8868 0
312.176 10.7 0
314.712 10.6089 0
314.866 14.8915 0
312.329 14.9826 0
313.444 10.6545 0
314.789 12.7502 0
313.598 14.9371 0
312.252 12.8414 0
313.521 12.7959 0
314.712 10.6089 0
317.249 10.5174 0
317.404 14.8 0
314.866 14.8915 0
315.981 10.5632 0
317.326 12.6587 0
316.135 14.8458 0
314.789 12.7502 0
316.058 12.7045 0
317.249 10.5174 0
319.786 10.4255 0
319.941 14.7081 0
317.404 14.8 0
318.518 10.4715 0
319.864 12.5668 0
318.672 14.7541 0
317.326 12.6587 0
318.595 12.6128 0
319.786 10.4255 0
322.323 10.3332 0
322.478 14.6158 0
319.941 14.7081 0
321.054 10.3794 0
322.401 12.4746 0
321.21 14.662 0
319.864 12.5668 0
321.132 12.5207 0
322.323 10.3332 0
324.859 10.2406 0
325.016 14.5231 0
322.478 14.6158 0
323.591 10.287 0
324.938 12.3819 0
323.747 14.5695 0
322.401 12.4746 0
323.669 12.4283 0
324.859 10.2406 0
327.396 10.1476 0
327.553 14.4301 0
325.016 14.5231 0
326.128 10.1941 0
327.475 12.2889 0
326.284 14.4766 0
324.938 12.3819 0
326.206 12.3354 0
327.396 10.1476 0
329.933 10.0542 0
330.09 14.3367 0
327.553 14.4301 0
328.664 10.1009 0
330.012 12.1954 0
328.822 14.3834 0
327.475 12.2889 0
328.743 12.2422 0
329.933 10.0542 0
332.469 9.96039 0
332.628 14.2429 0
330.09 14.3367 0
331.201 10.0073 0
332.549 12.1017 0
331.359 14.2898 0
330.012 12.1954 0
331.28 12.1486 0
332.469 9.96039 0
335.006 9.86627 0
335.165 14.1487 0
332.628 14.2429 0
333.738 9.91337 0
335.085 12.0075 0
333.896 14.1958 0
332.549 12.1017 0
333.817 12.0546 0
335.006 9.86627 0
337.543 9.77179 0
337.702 14.0542 0
335.165 14.1487 0
336.274 9.81907 0
337.622 11.9131 0
336.433 14.1015 0
335.085 12.0075 0
336.354 11.9603 0
337.543 9.77179 0
340.079 9.67696 0
340.239 13.9594 0
337.702 14.0542 0
338.811 9.72442 0
340.159 11.8182 0
338.971 14.0069 0
337.622 11.9131 0
338.891 11.8657 0
340.079 9.67696 0
342.616 9.5818 0
342.776 13.8642 0
340.239 13.9594 0
341.348 9.62942 0
342.696 11.723 0
341.508 13.9118 0
340.159 11.8182 0
341.428 11.7707 0
342.616 9.5818 0
345.152 9.48629 0
345.314 13.7687 0
342.776 13.8642 0
343.884 9.53409 0
345.233 11.6275 0
344.045 13.8165 0
342.696 11.723 0
343.965 11.6753 0
345.152 9.48629 0
347.689 9.39045 0
347.851 13.6728 0
345.314 13.7687 0
346.421 9.43841 0
347.77 11.5317 0
346.582 13.7208 0
345.233 11.6275 0
346.501 11.5796 0
347.689 9.39045 0
350.225 9.29429 0
350.388 13.5767 0
347.851 13.6728 0
348.957 9.34241 0
350.307 11.4355 0
349.119 13.6248 0
347.77 11.5317 0
349.038 11.4836 0
350.225 9.29429 0
352.762 9.19781 0
352.925 13.4802 0
350.388 13.5767 0
351.494 9.24609 0
352.843 11.339 0
351.656 13.5284 0
350.307 11.4355 0
351.575 11.3873 0
352.762 9.19781 0
355.298 9.10101 0
355.462 13.3833 0
352.925 13.4802 0
354.03 9.14945 0
355.38 11.2422 0
354.193 13.4318 0
352.843 11.339 0
354.112 11.2907 0
355.298 9.10101 0
357.835 9.0039 0
357.999 13.2862 0
355.462 13.3833 0
356.567 9.05249 0
357.917 11.1451 0
356.73 13.3348 0
355.38 11.2422 0
356.648 11.1937 0
357.835 9.0039 0
360.371 8.90648 0
360.536 13.1888 0
357.999 13.2862 0
359.103 8.95523 0
360.454 11.0477 0
359.267 13.2375 0
357.917 11.1451 0
359.185 11.0964 0
360.371 8.90648 0
362.908 8.80877 0
363.073 13.0911 0
360.536 13.1888 0
361.64 8.85766 0
362.99 10.9499 0
361.804 13.14 0
360.454 11.0477 0
361.722 10.9988 0
362.908 8.80877 0
365.444 8.71076 0
365.61 12.993 0
363.073 13.0911 0
364.176 8.7598 0
365.527 10.8519 0
364.341 13.0421 0
362.99 10.9499 0
364.259 10.901 0
365.444 8.71076 0
367.981 8.61247 0
368.146 12.8947 0
365.61 12.993 0
366.712 8.66165 0
368.064 10.7536 0
366.878 12.9439 0
365.527 10.8519 0
366.795 10.8028 0
367.981 8.61247 0
370.517 8.51389 0
370.683 12.7961 0
368.146 12.8947 0
369.249 8.56321 0
370.6 10.655 0
369.415 12.8455 0
368.064 10.7536 0
369.332 10.7044 0
370.517 8.51389 0
373.053 8.41503 0
373.22 12.6973 0
370.683 12.7961 0
371.785 8.46449 0
373.137 10.5562 0
371.952 12.7467 0
370.6 10.655 0
371.868 10.6056 0
373.053 8.41503 0
375.59 8.31591 0
375.757 12.5981 0
373.22 12.6973 0
374.322 8.3655 0
375.673 10.457 0
374.489 12.6477 0
373.137 10.5562 0
374.405 10.5066 0
375.59 8.31591 0
378.126 8.21651 0
378.294 12.4987 0
375.757 12.5981 0
376.858 8.26624 0
378.21 10.3576 0
377.025 12.5485 0
375.673 10.457 0
376.942 10.4074 0
378.126 8.21651 0
380.662 8.11686 0
380.831 12.3991 0
378.294 12.4987 0
379.394 8.16672 0
380.747 10.258 0
379.562 12.4489 0
378.21 10.3576 0
379.478 10.3078 0
380.662 8.11686 0
383.199 8.01695 0
383.367 12.2991 0
380.831 12.3991 0
381.931 8.06693 0
383.283 10.1581 0
382.099 12.3491 0
380.747 10.258 0
382.015 10.2081 0
383.199 8.01695 0
385.735 7.91679 0
385.904 12.199 0
383.367 12.2991 0
384.467 7.9669 0
385.82 10.0579 0
384.636 12.2491 0
383.283 10.1581 0
384.551 10.108 0
385.735 7.91679 0
388.271 7.81638 0
388.441 12.0985 0
385.904 12.199 0
387.003 7.86661 0
388.356 9.95749 0
387.172 12.1488 0
385.82 10.0579 0
387.088 10.0077 0
388.271 7.81638 0
390.808 7.71574 0
390.977 11.9979 0
388.441 12.0985 0
389.54 7.76609 0
390.893 9.85684 0
389.709 12.0482 0
388.356 9.95749 0
389.624 9.90719 0
390.808 7.71574 0
393.344 7.61486 0
393.514 11.897 0
390.977 11.9979 0
392.076 7.66532 0
393.429 9.75595 0
392.246 11.9475 0
390.893 9.85684 0
392.161 9.80642 0
393.344 7.61486 0
395.88 7.51375 0
396.051 11.7959 0
393.514 11.897 0
394.612 7.56433 0
395.965 9.65484 0
394.782 11.8465 0
393.429 9.75595 0
394.697 9.70542 0
395.88 7.51375 0
398.416 7.41242 0
398.587 11.6945 0
396.051 11.7959 0
397.148 7.46311 0
398.502 9.5535 0
397.319 11.7452 0
395.965 9.65484 0
397.234 9.6042 0
398.416 7.41242 0
400.953 7.31087 0
401.124 11.593 0
398.587 11.6945 0
399.685 7.36167 0
401.038 9.45195 0
399.856 11.6438 0
398.502 9.5535 0
399.77 9.50275 0
400.953 7.31087 0
403.489 7.20911 0
403.66 11.4912 0
401.124 11.593 0
402.221 7.26002 0
403.575 9.35019 0
402.392 11.5421 0
401.038 9.45195 0
402.306 9.40109 0
403.489 7.20911 0
406.025 7.10715 0
406.197 11.3892 0
403.66 11.4912 0
404.757 7.15816 0
406.111 9.24822 0
404.929 11.4403 0
403.575 9.35019 0
404.843 9.29923 0
406.025 7.10715 0
408.561 7.00498 0
408.734 11.2871 0
406.197 11.3892 0
407.293 7.05609 0
408.647 9.14604 0
407.465 11.3382 0
406.111 9.24822 0
407.379 9.19715 0
408.561 7.00498 0
411.097 6.90262 0
411.27 11.1847 0
408.734 11.2871 0
409.829 6.95382 0
411.184 9.04368 0
410.002 11.2359 0
408.647 9.14604 0
409.916 9.09488 0
411.097 6.90262 0
413.634 6.80007 0
413.806 11.0821 0
411.27 11.1847 0
412.365 6.85137 0
413.72 8.94112 0
412.538 11.1334 0
411.184 9.04368 0
412.452 8.99242 0
413.634 6.80007 0
416.17 6.69733 0
416.343 10.9794 0
413.806 11.0821 0
414.902 6.74872 0
416.256 8.83838 0
415.075 11.0308 0
413.72 8.94112 0
414.988 8.88977 0
416.17 6.69733 0
418.706 6.59441 0
418.879 10.8765 0
416.343 10.9794 0
417.438 6.64589 0
418.793 8.73545 0
417.611 10.9279 0
416.256 8.83838 0
417.524 8.78694 0
418.706 6.59441 0
421.242 6.49132 0
421.416 10.7734 0
418.879 10.8765 0
419.974 6.54289 0
421.329 8.63236 0
420.148 10.8249 0
418.793 8.73545 0
420.061 8.68393 0
421.242 6.49132 0
423.778 6.38806 0
423.952 10.6701 0
421.416 10.7734 0
422.51 6.43971 0
423.865 8.5291 0
422.684 10.7218 0
421.329 8.63236 0
422.597 8.58075 0
423.778 6.38806 0
426.314 6.28464 0
426.489 10.5667 0
423.952 10.6701 0
425.046 6.33637 0
426.401 8.42567 0
425.22 10.6184 0
423.865 8.5291 0
425.133 8.4774 0
426.314 6.28464 0
428.85 6.18106 0
429.025 10.4631 0
426.489 10.5667 0
427.582 6.23287 0
428.938 8.32209 0
427.757 10.5149 0
426.401 8.42567 0
427.669 8.3739 0
428.85 6.18106 0
431.386 6.07733 0
431.561 10.3593 0
429.025 10.4631 0
430.118 6.12921 0
431.474 8.21835 0
430.293 10.4112 0
428.938 8.32209 0
430.206 8.27024 0
431.386 6.07733 0
433.922 5.97345 0
434.098 10.2555 0
431.561 10.3593 0
432.654 6.02541 0
434.01 8.11447 0
432.829 10.3074 0
431.474 8.21835 0
432.742 8.16643 0
433.922 5.97345 0
436.458 5.86943 0
436.634 10.1514 0
434.098 10.2555 0
435.19 5.92145 0
436.546 8.01045 0
435.366 10.2035 0
434.01 8.11447 0
435.278 8.06247 0
436.458 5.86943 0
438.995 5.76527 0
439.17 10.0473 0
436.634 10.1514 0
437.726 5.81737 0
439.082 7.90629 0
437.902 10.0994 0
436.546 8.01045 0
437.814 7.95838 0
438.995 5.76527 0
441.531 5.66098 0
441.706 9.94298 0
439.17 10.0473 0
440.263 5.71314 0
441.618 7.802 0
440.438 9.99514 0
439.082 7.90629 0
440.35 7.85416 0
441.531 5.66098 0
444.067 5.55657 0
444.243 9.83857 0
441.706 9.94298 0
442.799 5.60879 0
444.155 7.69758 0
442.974 9.89079 0
441.618 7.802 0
442.887 7.74981 0
444.067 5.55657 0
446.603 5.45204 0
446.779 9.73403 0
444.243 9.83857 0
445.335 5.50432 0
446.691 7.59305 0
445.511 9.78632 0
444.155 7.69758 0
445.423 7.64533 0
446.603 5.45204 0
449.139 5.3474 0
449.315 9.62939 0
446.779 9.73403 0
447.871 5.39973 0
449.227 7.4884 0
448.047 9.68172 0
446.691 7.59305 0
447.959 7.54074 0
449.139 5.3474 0
451.675 5.24264 0
451.851 9.52463 0
449.315 9.62939 0
450.407 5.29503 0
451.763 7.38365 0
450.583 9.57702 0
449.227 7.4884 0
450.495 7.43604 0
451.675 5.24264 0
454.211 5.13779 0
454.387 9.41977 0
451.851 9.52463 0
452.943 5.19023 0
454.299 7.27879 0
453.119 9.47221 0
451.763 7.38365 0
453.031 7.33123 0
454.211 5.13779 0
456.747 5.03283 0
456.923 9.31481 0
454.387 9.41977 0
455.479 5.08532 0
456.835 7.17383 0
455.655 9.3673 0
454.299 7.27879 0
455.567 7.22632 0
456.747 5.03283 0
459.283 4.92779 0
459.46 9.20977 0
456.923 9.31481 0
458.015 4.98032 0
459.371 7.06879 0
458.192 9.2623 0
456.835 7.17383 0
458.103 7.12132 0
459.283 4.92779 0
461.819 4.82265 0
461.996 9.10463 0
459.46 9.20977 0
460.551 4.87523 0
461.907 6.96365 0
460.728 9.15721 0
459.371 7.06879 0
460.639 7.01623 0
461.819 4.82265 0
464.354 4.71744 0
464.532 8.99941 0
461.996 9.10463 0
463.087 4.77005 0
464.443 6.85843 0
463.264 9.05203 0
461.907 6.96365 0
463.175 6.91105 0
464.354 4.71744 0
466.89 4.61215 0
467.068 8.89412 0
464.532 8.99941 0
465.622 4.6648 0
466.979 6.75314 0
465.8 8.94678 0
464.443 6.85843 0
465.711 6.8058 0
466.89 4.61215 0
469.426 4.50678 0
469.604 8.78876 0
467.068 8.89412 0
468.158 4.55947 0
469.515 6.64778 0
468.336 8.84145 0
466.979 6.75314 0
468.247 6.70047 0
469.426 4.50678 0
471.962 4.40136 0
472.14 8.68333 0
469.604 8.78876 0
470.694 4.45408 0
472.051 6.54235 0
470.872 8.73606 0
469.515 6.64778 0
470.783 6.59507 0
471.962 4.40136 0
474.498 4.29587 0
474.676 8.57785 0
472.14 8.68333 0
473.23 4.34862 0
474.587 6.43687 0
473.408 8.6306 0
472.051 6.54235 0
473.319 6.48962 0
474.498 4.29587 0
477.034 4.19033 0
477.212 8.47231 0
474.676 8.57785 0
475.766 4.24311 0
477.123 6.33133 0
475.944 8.52509 0
474.587 6.43687 0
475.855 6.3841 0
477.034 4.19033 0
479.57 4.08474 0
479.748 8.36672 0
477.212 8.47231 0
478.302 4.13754 0
479.659 6.22574 0
478.48 8.41952 0
477.123 6.33133 0
478.391 6.27854 0
479.57 4.08474 0
482.106 3.9791 0
482.284 8.26109 0
479.748 8.36672 0
480.838 4.03193 0
482.195 6.1201 0
481.016 8.31391 0
479.659 6.22574 0
480.927 6.17292 0
482.106 3.9791 0
484.642 3.87343 0
484.82 8.15542 0
482.284 8.26109 0
483.374 3.92627 0
484.731 6.01443 0
483.552 8.20826 0
482.195 6.1201 0
483.463 6.06727 0
484.642 3.87343 0
487.178 3.76772 0
487.356 8.04972 0
484.82 8.15542 0
485.91 3.82058 0
487.267 5.90872 0
486.088 8.10257 0
484.731 6.01443 0
485.999 5.96158 0
487.178 3.76772 0
489.714 3.66199 0
489.892 7.94399 0
487.356 8.04972 0
488.446 3.71486 0
489.803 5.80299 0
488.624 7.99686 0
487.267 5.90872 0
488.535 5.85586 0
489.714 3.66199 0
492.25 3.55623 0
492.428 7.83823 0
489.892 7.94399 0
490.982 3.60911 0
492.339 5.69723 0
491.16 7.89111 0
489.803 5.80299 0
491.071 5.75011 0
492.25 3.55623 0
494.785 3.45048 0
494.964 7.73245 0
492.428 7.83823 0
493.517 3.50335 0
494.875 5.59147 0
493.696 7.78534 0
492.339 5.69723 0
493.607 5.64435 0
494.785 3.45048 0
497.321 3.34474 0
497.499 7.62668 0
494.964 7.73245 0
496.053 3.39761 0
497.41 5.48572 0
496.232 7.67957 0
494.875 5.59147 0
496.142 5.53859 0
497.321 3.34474 0
499.857 3.23907 0
500.035 7.52095 0
497.499 7.62668 0
498.589 3.2919 0
499.946 5.38003 0
498.767 7.57381 0
497.41 5.48572 0
498.678 5.43287 0
0 21.4286 0
2.54046 21.4283 0
2.54219 25.7131 0
0 25.7143 0
1.27019 21.4286 0
2.54129 23.5708 0
1.27103 25.7139 0
0 23.5714 0
1.27062 23.5713 0
2.54046 21.4283 0
5.0811 21.4267 0
5.08471 25.7109 0
2.54219 25.7131 0
3.81077 21.4277 0
5.08285 23.5689 0
3.81343 25.7121 0
2.54129 23.5708 0
3.81204 23.57 0
5.0811 21.4267 0
7.62186 21.4239 0
7.62728 25.7079 0
5.08471 25.7109 0
6.35147 21.4254 0
7.62451 23.566 0
6.356 25.7095 0
5.08285 23.5689 0
6.35368 23.5676 0
7.62186 21.4239 0
10.1626 21.42 0
10.1698 25.7039 0
7.62728 25.7079 0
8.89224 21.4221 0
10.1662 23.5621 0
8.89856 25.706 0
7.62451 23.566 0
8.89535 23.5642 0
10.1626 21.42 0
12.7034 21.4151 0
12.7123 25.699 0
10.1698 25.7039 0
11.433 21.4177 0
12.7078 23.5571 0
11.4411 25.7016 0
10.1662 23.5621 0
11.437 23.5597 0
12.7034 21.4151 0
15.2441 21.4091 0
15.2548 25.693 0
12.7123 25.699 0
13.9738 21.4122 0
15.2494 23.5512 0
13.9836 25.6961 0
12.7078 23.5571 0
13.9786 23.5543 0
15.2441 21.4091 0
17.7848 21.4021 0
17.7972 25.686 0
15.2548 25.693 0
16.5145 21.4058 0
17.791 23.5442 0
16.526 25.6896 0
15.2494 23.5512 0
16.5202 23.5478 0
17.7848 21.4021 0
20.3255 21.3941 0
20.3396 25.678 0
17.7972 25.686 0
19.0552 21.3982 0
20.3326 23.5362 0
19.0684 25.6821 0
17.791 23.5442 0
19.0618 23.5403 0
20.3255 21.3941 0
22.8662 21.385 0
22.882 25.6689 0
20.3396 25.678 0
21.5958 21.3897 0
22.8741 23.5271 0
21.6108 25.6736 0
20.3326 23.5362 0
21.6033 23.5318 0
22.8662 21.385 0
25.4068 21.3749 0
25.4244 25.6589 0
22.882 25.6689 0
24.1365 21.3801 0
25.4156 23.517 0
24.1532 25.664 0
22.8741 23.5271 0
24.1448 23.5222 0
25.4068 21.3749 0
27.9474 21.3638 0
27.9667 25.6478 0
25.4244 25.6589 0
26.6771 21.3695 0
27.9571 23.5059 0
26.6956 25.6534 0
25.4156 23.517 0
26.6863 23.5116 0
27.9474 21.3638 0
30.488 21.3517 0
30.509 25.6357 0
27.9667 25.6478 0
29.2177 21.3579 0
30.4985 23.4938 0
29.2379 25.6418 0
27.9571 23.5059 0
29.2278 23.5 0
30.488 21.3517 0
33.0286 21.3386 0
33.0513 25.6225 0
30.509 25.6357 0
31.7583 21.3453 0
33.0399 23.4807 0
31.7802 25.6292 0
30.4985 23.4938 0
31.7692 23.4874 0
33.0286 21.3386 0
35.5692 21.3245 0
35.5935 25.6084 0
33.0513 25.6225 0
34.2989 21.3317 0
35.5813 23.4665 0
34.3224 25.6156 0
33.0399 23.4807 0
34.3106 23.4737 0
35.5692 21.3245 0
38.1097 21.3093 0
38.1358 25.5933 0
35.5935 25.6084 0
36.8394 21.317 0
38.1227 23.4514 0
36.8646 25.601 0
35.5813 23.4665 0
36.852 23.4591 0
38.1097 21.3093 0
40.6502 21.2932 0
40.6779 25.5771 0
38.1358 25.5933 0
39.38 21.3014 0
40.6641 23.4353 0
39.4069 25.5853 0
38.1227 23.4514 0
39.3934 23.4435 0
40.6502 21.2932 0
43.1907 21.2761 0
43.2201 25.56 0
40.6779 25.5771 0
41.9205 21.2848 0
43.2054 23.4182 0
41.949 25.5687 0
40.6641 23.4353 0
41.9347 23.4269 0
43.1907 21.2761 0
45.7312 21.258 0
45.7622 25.542 0
43.2201 25.56 0
44.461 21.2672 0
45.7467 23.4001 0
44.4912 25.5511 0
43.2054 23.4182 0
44.476 23.4093 0
45.7312 21.258 0
48.2716 21.239 0
48.3043 25.5229 0
45.7622 25.542 0
47.0014 21.2486 0
48.288 23.381 0
47.0333 25.5325 0
45.7467 23.4001 0
47.0173 23.3907 0
48.2716 21.239 0
50.8121 21.2189 0
50.8464 25.5028 0
48.3043 25.5229 0
49.5419 21.2291 0
50.8292 23.361 0
49.5754 25.513 0
48.288 23.381 0
49.5586 23.3711 0
50.8121 21.2189 0
53.3525 21.1979 0
53.3884 25.4818 0
50.8464 25.5028 0
52.0823 21.2085 0
53.3705 23.34 0
52.1174 25.4925 0
50.8292 23.361 0
52.0998 23.3506 0
53.3525 21.1979 0
55.8929 21.176 0
55.9304 25.4599 0
53.3884 25.4818 0
54.6227 21.1871 0
55.9117 23.318 0
54.6594 25.471 0
53.3705 23.34 0
54.6411 23.3291 0
55.8929 21.176 0
58.4333 21.1531 0
58.4724 25.437 0
55.9304 25.4599 0
57.1631 21.1646 0
58.4528 23.2951 0
57.2014 25.4485 0
55.9117 23.318 0
57.1822 23.3067 0
58.4333 21.1531 0
60.9736 21.1292 0
61.0144 25.4131 0
58.4724 25.437 0
59.7034 21.1412 0
60.994 23.2712 0
59.7434 25.4251 0
58.4528 23.2951 0
59.7234 23.2833 0
60.9736 21.1292 0
63.5139 21.1044 0
63.5563 25.3883 0
61.0144 25.4131 0
62.2438 21.1169 0
63.5351 23.2464 0
62.2853 25.4008 0
60.994 23.2712 0
62.2645 23.259 0
63.5139 21.1044 0
66.0542 21.0786 0
66.0982 25.3625 0
63.5563 25.3883 0
64.7841 21.0916 0
66.0762 23.2207 0
64.8272 25.3755 0
63.5351 23.2464 0
64.8056 23.2337 0
66.0542 21.0786 0
68.5945 21.052 0
68.64 25.3359 0
66.0982 25.3625 0
67.3244 21.0654 0
68.6172 23.194 0
67.3691 25.3493 0
66.0762 23.2207 0
67.3467 23.2075 0
68.5945 21.052 0
71.1348 21.0244 0
71.1818 25.3082 0
68.64 25.3359 0
69.8647 21.0383 0
71.1583 23.1664 0
69.9109 25.3222 0
68.6172 23.194 0
69.8878 23.1803 0
71.1348 21.0244 0
73.675 20.9959 0
73.7236 25.2797 0
71.1818 25.3082 0
72.4049 21.0102 0
73.6993 23.1379 0
72.4527 25.2941 0
71.1583 23.1664 0
72.4288 23.1523 0
73.675 20.9959 0
76.2152 20.9664 0
76.2653 25.2503 0
73.7236 25.2797 0
74.9451 20.9812 0
76.2403 23.1084 0
74.9945 25.2651 0
73.6993 23.1379 0
74.9698 23.1233 0
76.2152 20.9664 0
78.7554 20.9361 0
78.8071 25.2199 0
76.2653 25.2503 0
77.4853 20.9514 0
78.7812 23.0781 0
77.5362 25.2352 0
76.2403 23.1084 0
77.5107 23.0934 0
78.7554 20.9361 0
81.2956 20.9048 0
81.3487 25.1887 0
78.8071 25.2199 0
80.0255 20.9206 0
81.3221 23.0468 0
80.0779 25.2044 0
78.7812 23.0781 0
80.0517 23.0626 0
81.2956 20.9048 0
83.8357 20.8727 0
83.8904 25.1565 0
81.3487 25.1887 0
82.5656 20.8889 0
83.863 23.0147 0
82.6196 25.1727 0
81.3221 23.0468 0
82.5926 23.0309 0
83.8357 20.8727 0
86.3758 20.8396 0
86.432 25.1234 0
83.8904 25.1565 0
85.1058 20.8563 0
86.4039 22.9816 0
85.1612 25.1401 0
83.863 23.0147 0
85.1335 22.9983 0
86.3758 20.8396 0
88.9159 20.8057 0
88.9736 25.0895 0
86.432 25.1234 0
87.6458 20.8228 0
88.9447 22.9477 0
87.7028 25.1066 0
86.4039 22.9816 0
87.6743 22.9648 0
88.9159 20.8057 0
91.4559 20.7709 0
91.5151 25.0547 0
88.9736 25.0895 0
90.1859 20.7884 0
91.4855 22.9129 0
90.2443 25.0722 0
88.9447 22.9477 0
90.2151 22.9304 0
91.4559 20.7709 0
93.996 20.7352 0
94.0566 25.019 0
91.5151 25.0547 0
92.726 20.7531 0
94.0263 22.8772 0
92.7859 25.0369 0
91.4855 22.9129 0
92.7559 22.8951 0
93.996 20.7352 0
96.536 20.6986 0
96.5981 24.9824 0
94.0566 25.019 0
95.266 20.717 0
96.567 22.8406 0
95.3274 25.0008 0
94.0263 22.8772 0
95.2967 22.859 0
96.536 20.6986 0
99.076 20.6612 0
99.1395 24.9449 0
96.5981 24.9824 0
97.806 20.68 0
99.1077 22.8031 0
97.8688 24.9638 0
96.567 22.8406 0
97.8374 22.822 0
99.076 20.6612 0
101.616 20.6229 0
101.681 24.9066 0
99.1395 24.9449 0
100.346 20.6421 0
101.648 22.7648 0
100.41 24.9259 0
99.1077 22.8031 0
100.378 22.7841 0
101.616 20.6229 0
104.156 20.5837 0
104.222 24.8675 0
101.681 24.9066 0
102.886 20.6034 0
104.189 22.7257 0
102.952 24.8872 0
101.648 22.7648 0
102.919 22.7454 0
104.156 20.5837 0
106.696 20.5437 0
106.764 24.8275 0
104.222 24.8675 0
105.426 20.5638 0
106.73 22.6857 0
105.493 24.8476 0
104.189 22.7257 0
105.459 22.7058 0
106.696 20.5437 0
109.236 20.5029 0
109.305 24.7866 0
106.764 24.8275 0
107.966 20.5234 0
109.27 22.6448 0
108.034 24.8071 0
106.73 22.6857 0
108 22.6654 0
109.236 20.5029 0
111.775 20.4612 0
111.846 24.7449 0
109.305 24.7866 0
110.506 20.4822 0
111.811 22.6031 0
110.576 24.7659 0
109.27 22.6448 0
110.541 22.6241 0
111.775 20.4612 0
114.315 20.4187 0
114.387 24.7024 0
111.846 24.7449 0
113.045 20.4401 0
114.351 22.5606 0
113.117 24.7237 0
111.811 22.6031 0
113.081 22.582 0
114.315 20.4187 0
116.855 20.3753 0
116.929 24.659 0
114.387 24.7024 0
115.585 20.3971 0
116.892 22.5173 0
115.658 24.6808 0
114.351 22.5606 0
115.622 22.539 0
116.855 20.3753 0
119.395 20.3312 0
119.47 24.6148 0
116.929 24.659 0
118.125 20.3534 0
119.432 22.4731 0
118.199 24.637 0
116.892 22.5173 0
118.162 22.4953 0
119.395 20.3312 0
121.935 20.2862 0
122.011 24.5698 0
119.47 24.6148 0
120.665 20.3088 0
121.973 22.4281 0
120.74 24.5924 0
119.432 22.4731 0
120.702 22.4507 0
121.935 20.2862 0
124.474 20.2404 0
124.552 24.524 0
122.011 24.5698 0
123.204 20.2634 0
124.513 22.3823 0
123.281 24.547 0
121.973 22.4281 0
123.243 22.4053 0
124.474 20.2404 0
127.014 20.1938 0
127.093 24.4774 0
124.552 24.524 0
125.744 20.2172 0
127.053 22.3357 0
125.822 24.5008 0
124.513 22.3823 0
125.783 22.3591 0
127.014 20.1938 0
129.554 20.1464 0
129.634 24.43 0
127.093 24.4774 0
128.284 20.1702 0
129.594 22.2883 0
128.363 24.4538 0
127.053 22.3357 0
128.324 22.3121 0
129.554 20.1464 0
132.093 20.0982 0
132.175 24.3818 0
129.634 24.43 0
130.823 20.1224 0
132.134 22.2401 0
130.904 24.406 0
129.594 22.2883 0
130.864 22.2643 0
132.093 20.0982 0
134.633 20.0492 0
134.716 24.3328 0
132.175 24.3818 0
133.363 20.0738 0
134.674 22.1911 0
133.445 24.3574 0
132.134 22.2401 0
133.404 22.2157 0
134.633 20.0492 0
137.172 19.9994 0
137.257 24.283 0
134.716 24.3328 0
135.903 20.0244 0
137.214 22.1413 0
135.986 24.308 0
134.674 22.1911 0
135.944 22.1663 0
137.172 19.9994 0
139.712 19.9489 0
139.798 24.2324 0
137.257 24.283 0
138.442 19.9742 0
139.755 22.0907 0
138.527 24.2578 0
137.214 22.1413 0
138.485 22.1161 0
139.712 19.9489 0
142.251 19.8975 0
142.338 24.1811 0
139.798 24.2324 0
140.982 19.9233 0
142.295 22.0394 0
141.068 24.2068 0
139.755 22.0907 0
141.025 22.0651 0
142.251 19.8975 0
144.791 19.8454 0
144.879 24.1289 0
142.338 24.1811 0
143.521 19.8716 0
144.835 21.9873 0
143.609 24.1551 0
142.295 22.0394 0
143.565 22.0134 0
144.791 19.8454 0
147.33 19.7926 0
147.42 24.0761 0
144.879 24.1289 0
146.061 19.8191 0
147.375 21.9344 0
146.149 24.1026 0
144.835 21.9873 0
146.105 21.9609 0
147.33 19.7926 0
149.87 19.739 0
149.96 24.0224 0
147.42 24.0761 0
148.6 19.7659 0
149.915 21.8808 0
148.69 24.0493 0
147.375 21.9344 0
148.645 21.9077 0
149.87 19.739 0
152.409 19.6846 0
152.501 23.9681 0
149.96 24.0224 0
151.139 19.7119 0
152.455 21.8264 0
151.231 23.9953 0
149.915 21.8808 0
151.185 21.8537 0
152.409 19.6846 0
154.948 19.6295 0
155.042 23.9129 0
152.501 23.9681 0
153.679 19.6571 0
154.995 21.7713 0
153.771 23.9406 0
152.455 21.8264 0
153.725 21.7989 0
154.948 19.6295 0
157.488 19.5736 0
157.582 23.8571 0
155.042 23.9129 0
156.218 19.6017 0
157.535 21.7154 0
156.312 23.8851 0
154.995 21.7713 0
156.265 21.7435 0
157.488 19.5736 0
160.027 19.5171 0
160.123 23.8004 0
157.582 23.8571 0
158.757 19.5454 0
160.075 21.6588 0
158.853 23.8288 0
157.535 21.7154 0
158.805 21.6872 0
160.027 19.5171 0
162.566 19.4597 0
162.663 23.7431 0
160.123 23.8004 0
161.297 19.4885 0
162.615 21.6015 0
161.393 23.7719 0
160.075 21.6588 0
161.345 21.6303 0
162.566 19.4597 0
165.106 19.4017 0
165.204 23.685 0
162.663 23.7431 0
163.836 19.4308 0
165.155 21.5434 0
163.934 23.7142 0
162.615 21.6015 0
163.885 21.5726 0
165.106 19.4017 0
167.645 19.3429 0
167.744 23.6263 0
165.204 23.685 0
166.375 19.3724 0
167.694 21.4847 0
166.474 23.6557 0
165.155 21.5434 0
166.425 21.5142 0
167.645 19.3429 0
170.184 19.2835 0
170.285 23.5668 0
167.744 23.6263 0
168.914 19.3133 0
170.234 21.4252 0
169.014 23.5966 0
167.694 21.4847 0
168.964 21.455 0
170.184 19.2835 0
172.723 19.2233 0
172.825 23.5066 0
170.285 23.5668 0
171.454 19.2535 0
172.774 21.365 0
171.555 23.5368 0
170.234 21.4252 0
171.504 21.3952 0
172.723 19.2233 0
175.262 19.1624 0
175.365 23.4457 0
172.825 23.5066 0
173.993 19.1929 0
175.314 21.3041 0
174.095 23.4762 0
172.774 21.365 0
174.044 21.3346 0
175.262 19.1624 0
177.801 19.1008 0
177.905 23.3841 0
175.365 23.4457 0
176.532 19.1317 0
177.853 21.2425 0
176.635 23.415 0
175.314 21.3041 0
176.584 21.2734 0
177.801 19.1008 0
180.34 19.0385 0
180.446 23.3218 0
177.905 23.3841 0
179.071 19.0698 0
180.393 21.1802 0
179.176 23.353 0
177.853 21.2425 0
179.123 21.2115 0
180.34 19.0385 0
182.879 18.9756 0
182.986 23.2588 0
180.446 23.3218 0
181.61 19.0071 0
182.933 21.1173 0
181.716 23.2904 0
180.393 21.1802 0
181.663 21.1488 0
182.879 18.9756 0
185.418 18.9119 0
185.526 23.1951 0
182.986 23.2588 0
184.149 18.9438 0
185.472 21.0536 0
184.256 23.227 0
182.933 21.1173 0
184.202 21.0855 0
185.418 18.9119 0
187.957 18.8476 0
188.066 23.1308 0
185.526 23.1951 0
186.688 18.8799 0
188.012 20.9893 0
186.796 23.163 0
185.472 21.0536 0
186.742 21.0215 0
187.957 18.8476 0
190.496 18.7826 0
190.606 23.0658 0
188.066 23.1308 0
189.227 18.8152 0
190.551 20.9243 0
189.336 23.0984 0
188.012 20.9893 0
189.281 20.9569 0
190.496 18.7826 0
193.035 18.717 0
193.146 23.0001 0
190.606 23.0658 0
191.766 18.7499 0
193.091 20.8586 0
191.876 23.033 0
190.551 20.9243 0
191.821 20.8915 0
193.035 18.717 0
195.574 18.6507 0
195.686 22.9338 0
193.146 23.0001 0
194.305 18.6839 0
195.63 20.7923 0
194.416 22.967 0
193.091 20.8586 0
194.36 20.8255 0
195.574 18.6507 0
198.113 18.5837 0
198.226 22.8668 0
195.686 22.9338 0
196.843 18.6173 0
198.169 20.7253 0
196.956 22.9004 0
195.63 20.7923 0
196.9 20.7589 0
198.113 18.5837 0
200.652 18.5161 0
200.766 22.7992 0
198.226 22.8668 0
199.382 18.55 0
200.709 20.6577 0
199.496 22.8331 0
198.169 20.7253 0
199.439 20.6916 0
200.652 18.5161 0
203.19 18.4478 0
203.306 22.7309 0
200.766 22.7992 0
201.921 18.482 0
203.248 20.5894 0
202.036 22.7651 0
200.709 20.6577 0
201.978 20.6236 0
203.19 18.4478 0
205.729 18.3789 0
205.846 22.662 0
203.306 22.7309 0
204.46 18.4135 0
205.787 20.5205 0
204.576 22.6965 0
203.248 20.5894 0
204.518 20.5551 0
205.729 18.3789 0
208.268 18.3094 0
208.385 22.5925 0
205.846 22.662 0
206.999 18.3443 0
208.327 20.451 0
207.116 22.6273 0
205.787 20.5205 0
207.057 20.4858 0
208.268 18.3094 0
210.807 18.2393 0
210.925 22.5223 0
208.385 22.5925 0
209.537 18.2744 0
210.866 20.3808 0
209.655 22.5574 0
208.327 20.451 0
209.596 20.416 0
210.807 18.2393 0
213.345 18.1685 0
213.465 22.4515 0
210.925 22.5223 0
212.076 18.204 0
213.405 20.3101 0
212.195 22.487 0
210.866 20.3808 0
212.135 20.3455 0
213.345 18.1685 0
215.884 18.0971 0
216.004 22.3801 0
213.465 22.4515 0
214.615 18.1329 0
215.944 20.2387 0
214.735 22.4159 0
213.405 20.3101 0
214.675 20.2744 0
215.884 18.0971 0
218.422 18.0251 0
218.544 22.3081 0
216.004 22.3801 0
217.153 18.0612 0
218.483 20.1667 0
217.274 22.3442 0
215.944 20.2387 0
217.214 20.2027 0
218.422 18.0251 0
220.961 17.9525 0
221.084 22.2355 0
218.544 22.3081 0
219.692 17.9889 0
221.022 20.0941 0
219.814 22.2718 0
218.483 20.1667 0
219.753 20.1304 0
220.961 17.9525 0
223.499 17.8793 0
223.623 22.1622 0
221.084 22.2355 0
222.23 17.916 0
223.561 20.0209 0
222.353 22.1989 0
221.022 20.0941 0
222.292 20.0575 0
223.499 17.8793 0
226.038 17.8055 0
226.163 22.0884 0
223.623 22.1622 0
224.769 17.8425 0
226.1 19.9471 0
224.893 22.1254 0
223.561 20.0209 0
224.831 19.984 0
226.038 17.8055 0
228.576 17.7312 0
228.702 22.014 0
226.163 22.0884 0
227.307 17.7684 0
228.639 19.8727 0
227.432 22.0513 0
226.1 19.9471 0
227.37 19.9099 0
228.576 17.7312 0
231.115 17.6562 0
231.242 21.9391 0
228.702 22.014 0
229.846 17.6938 0
231.178 19.7977 0
229.972 21.9766 0
228.639 19.8727 0
229.909 19.8353 0
231.115 17.6562 0
233.653 17.5807 0
233.781 21.8635 0
231.242 21.9391 0
232.384 17.6185 0
233.717 19.7221 0
232.511 21.9014 0
231.178 19.7977 0
232.448 19.76 0
233.653 17.5807 0
236.192 17.5046 0
236.32 21.7874 0
233.781 21.8635 0
234.922 17.5427 0
236.256 19.646 0
235.051 21.8255 0
233.717 19.7221 0
234.987 19.6842 0
236.192 17.5046 0
238.73 17.4279 0
238.86 21.7107 0
236.32 21.7874 0
237.461 17.4663 0
238.795 19.5693 0
237.59 21.7491 0
236.256 19.646 0
237.525 19.6078 0
238.73 17.4279 0
241.268 17.3507 0
241.399 21.6334 0
238.86 21.7107 0
239.999 17.3893 0
241.334 19.4921 0
240.129 21.6721 0
238.795 19.5693 0
240.064 19.5308 0
241.268 17.3507 0
243.807 17.2729 0
243.938 21.5556 0
241.399 21.6334 0
242.537 17.3118 0
243.872 19.4143 0
242.668 21.5946 0
241.334 19.4921 0
242.603 19.4533 0
243.807 17.2729 0
246.345 17.1945 0
246.477 21.4773 0
243.938 21.5556 0
245.076 17.2338 0
246.411 19.3359 0
245.208 21.5165 0
243.872 19.4143 0
245.142 19.3752 0
246.345 17.1945 0
248.883 17.1156 0
249.016 21.3984 0
246.477 21.4773 0
247.614 17.1551 0
248.95 19.2571 0
247.747 21.4379 0
246.411 19.3359 0
247.68 19.2966 0
248.883 17.1156 0
251.421 17.0362 0
251.555 21.3189 0
249.016 21.3984 0
250.152 17.076 0
251.488 19.1776 0
250.286 21.3587 0
248.95 19.2571 0
250.219 19.2174 0
251.421 17.0362 0
253.959 16.9563 0
254.094 21.2389 0
251.555 21.3189 0
252.69 16.9963 0
254.027 19.0977 0
252.825 21.279 0
251.488 19.1776 0
252.758 19.1377 0
253.959 16.9563 0
256.498 16.8758 0
256.633 21.1584 0
254.094 21.2389 0
255.228 16.9161 0
256.566 19.0172 0
255.364 21.1988 0
254.027 19.0977 0
255.296 19.0575 0
256.498 16.8758 0
259.036 16.7948 0
259.172 21.0774 0
256.633 21.1584 0
257.767 16.8353 0
259.104 18.9361 0
257.903 21.118 0
256.566 19.0172 0
257.835 18.9767 0
259.036 16.7948 0
261.574 16.7132 0
261.711 20.9959 0
259.172 21.0774 0
260.305 16.7541 0
261.643 18.8546 0
260.442 21.0367 0
259.104 18.9361 0
260.373 18.8954 0
261.574 16.7132 0
264.112 16.6312 0
264.25 20.9138 0
261.711 20.9959 0
262.843 16.6723 0
264.181 18.7726 0
262.981 20.9549 0
261.643 18.8546 0
262.912 18.8137 0
264.112 16.6312 0
266.65 16.5487 0
266.789 20.8313 0
264.25 20.9138 0
265.381 16.59 0
266.719 18.69 0
265.52 20.8726 0
264.181 18.7726 0
265.45 18.7314 0
266.65 16.5487 0
269.188 16.4656 0
269.328 20.7482 0
266.789 20.8313 0
267.919 16.5072 0
269.258 18.607 0
268.059 20.7898 0
266.719 18.69 0
267.989 18.6486 0
269.188 16.4656 0
271.726 16.3821 0
271.867 20.6646 0
269.328 20.7482 0
270.457 16.4239 0
271.796 18.5234 0
270.597 20.7065 0
269.258 18.607 0
270.527 18.5653 0
271.726 16.3821 0
274.264 16.2981 0
274.405 20.5806 0
271.867 20.6646 0
272.995 16.3401 0
274.335 18.4394 0
273.136 20.6227 0
271.796 18.5234 0
273.065 18.4815 0
274.264 16.2981 0
276.801 16.2136 0
276.944 20.4961 0
274.405 20.5806 0
275.533 16.2559 0
276.873 18.3549 0
275.675 20.5384 0
274.335 18.4394 0
275.604 18.3972 0
276.801 16.2136 0
279.339 16.1286 0
279.483 20.4111 0
276.944 20.4961 0
278.07 16.1711 0
279.411 18.2699 0
278.214 20.4536 0
276.873 18.3549 0
278.142 18.3124 0
279.339 16.1286 0
281.877 16.0431 0
282.021 20.3256 0
279.483 20.4111 0
280.608 16.0859 0
281.949 18.1844 0
280.752 20.3684 0
279.411 18.2699 0
280.68 18.2272 0
281.877 16.0431 0
284.415 15.9572 0
284.56 20.2396 0
282.021 20.3256 0
283.146 16.0002 0
284.487 18.0985 0
283.291 20.2827 0
281.949 18.1844 0
283.218 18.1415 0
284.415 15.9572 0
286.953 15.8708 0
287.099 20.1532 0
284.56 20.2396 0
285.684 15.914 0
287.026 18.0121 0
285.829 20.1965 0
284.487 18.0985 0
285.757 18.0553 0
286.953 15.8708 0
289.49 15.7839 0
289.637 20.0664 0
287.099 20.1532 0
288.222 15.8274 0
289.564 17.9252 0
288.368 20.1099 0
287.026 18.0121 0
288.295 17.9687 0
289.49 15.7839 0
292.028 15.6966 0
292.176 19.979 0
289.637 20.0664 0
290.759 15.7403 0
292.102 17.8379 0
290.906 20.0228 0
289.564 17.9252 0
290.833 17.8816 0
292.028 15.6966 0
294.566 15.6089 0
294.714 19.8913 0
292.176 19.979 0
293.297 15.6528 0
294.64 17.7501 0
293.445 19.9352 0
292.102 17.8379 0
293.371 17.7941 0
294.566 15.6089 0
297.103 15.5207 0
297.252 19.8031 0
294.714 19.8913 0
295.835 15.5648 0
297.178 17.6619 0
295.983 19.8472 0
294.64 17.7501 0
295.909 17.7061 0
297.103 15.5207 0
299.641 15.4321 0
299.791 19.7144 0
297.252 19.8031 0
298.372 15.4764 0
299.716 17.5733 0
298.522 19.7588 0
297.178 17.6619 0
298.447 17.6177 0
299.641 15.4321 0
302.179 15.343 0
302.329 19.6254 0
299.791 19.7144 0
300.91 15.3876 0
302.254 17.4842 0
301.06 19.67 0
299.716 17.5733 0
300.985 17.5288 0
302.179 15.343 0
304.716 15.2535 0
304.867 19.5359 0
302.329 19.6254 0
303.447 15.2983 0
304.792 17.3948 0
303.598 19.5807 0
302.254 17.4842 0
303.523 17.4396 0
304.716 15.2535 0
307.254 15.1637 0
307.406 19.446 0
304.867 19.5359 0
305.985 15.2087 0
307.33 17.3049 0
306.136 19.491 0
304.792 17.3948 0
306.061 17.3499 0
307.254 15.1637 0
309.791 15.0733 0
309.944 19.3556 0
307.406 19.446 0
308.523 15.1186 0
309.868 17.2145 0
308.675 19.4009 0
307.33 17.3049 0
308.599 17.2597 0
309.791 15.0733 0
312.329 14.9826 0
312.482 19.2649 0
309.944 19.3556 0
311.06 15.028 0
312.405 17.1238 0
311.213 19.3103 0
309.868 17.2145 0
311.136 17.1692 0
312.329 14.9826 0
314.866 14.8915 0
315.02 19.1738 0
312.482 19.2649 0
313.598 14.9371 0
314.943 17.0327 0
313.751 19.2194 0
312.405 17.1238 0
313.674 17.0783 0
314.866 14.8915 0
317.404 14.8 0
317.558 19.0823 0
315.02 19.1738 0
316.135 14.8458 0
317.481 16.9412 0
316.289 19.1281 0
314.943 17.0327 0
316.212 16.987 0
317.404 14.8 0
319.941 14.7081 0
320.096 18.9903 0
317.558 19.0823 0
318.672 14.7541 0
320.019 16.8493 0
318.827 19.0363 0
317.481 16.9412 0
318.75 16.8953 0
319.941 14.7081 0
322.478 14.6158 0
322.634 18.898 0
320.096 18.9903 0
321.21 14.662 0
322.556 16.757 0
321.365 18.9442 0
320.019 16.8493 0
321.287 16.8031 0
322.478 14.6158 0
325.016 14.5231 0
325.172 18.8053 0
322.634 18.898 0
323.747 14.5695 0
325.094 16.6643 0
323.903 18.8517 0
322.556 16.757 0
323.825 16.7107 0
325.016 14.5231 0
327.553 14.4301 0
327.71 18.7123 0
325.172 18.8053 0
326.284 14.4766 0
327.632 16.5712 0
326.441 18.7589 0
325.094 16.6643 0
326.363 16.6178 0
327.553 14.4301 0
330.09 14.3367 0
330.248 18.6188 0
327.71 18.7123 0
328.822 14.3834 0
330.169 16.4778 0
328.979 18.6656 0
327.632 16.5712 0
328.9 16.5245 0
330.09 14.3367 0
332.628 14.2429 0
332.786 18.525 0
330.248 18.6188 0
331.359 14.2898 0
332.707 16.384 0
331.517 18.572 0
330.169 16.4778 0
331.438 16.4309 0
332.628 14.2429 0
335.165 14.1487 0
335.324 18.4309 0
332.786 18.525 0
333.896 14.1958 0
335.244 16.2899 0
334.055 18.478 0
332.707 16.384 0
333.976 16.337 0
335.165 14.1487 0
337.702 14.0542 0
337.862 18.3364 0
335.324 18.4309 0
336.433 14.1015 0
337.782 16.1953 0
336.593 18.3837 0
335.244 16.2899 0
336.513 16.2426 0
337.702 14.0542 0
340.239 13.9594 0
340.399 18.2415 0
337.862 18.3364 0
338.971 14.0069 0
340.319 16.1005 0
339.13 18.289 0
337.782 16.1953 0
339.051 16.148 0
340.239 13.9594 0
342.776 13.8642 0
342.937 18.1463 0
340.399 18.2415 0
341.508 13.9118 0
342.857 16.0053 0
341.668 18.194 0
340.319 16.1005 0
341.588 16.0529 0
342.776 13.8642 0
345.314 13.7687 0
345.475 18.0508 0
342.937 18.1463 0
344.045 13.8165 0
345.394 15.9098 0
344.206 18.0986 0
342.857 16.0053 0
344.125 15.9576 0
345.314 13.7687 0
347.851 13.6728 0
348.012 17.9549 0
345.475 18.0508 0
346.582 13.7208 0
347.931 15.8139 0
346.744 18.0029 0
345.394 15.9098 0
346.663 15.8619 0
347.851 13.6728 0
350.388 13.5767 0
350.55 17.8587 0
348.012 17.9549 0
349.119 13.6248 0
350.469 15.7177 0
349.281 17.9069 0
347.931 15.8139 0
349.2 15.7659 0
350.388 13.5767 0
352.925 13.4802 0
353.088 17.7622 0
350.55 17.8587 0
351.656 13.5284 0
353.006 15.6212 0
351.819 17.8105 0
350.469 15.7177 0
351.737 15.6695 0
352.925 13.4802 0
355.462 13.3833 0
355.625 17.6654 0
353.088 17.7622 0
354.193 13.4318 0
355.543 15.5244 0
354.356 17.7139 0
353.006 15.6212 0
354.275 15.5729 0
355.462 13.3833 0
357.999 13.2862 0
358.163 17.5683 0
355.625 17.6654 0
356.73 13.3348 0
358.081 15.4273 0
356.894 17.6169 0
355.543 15.5244 0
356.812 15.4759 0
357.999 13.2862 0
360.536 13.1888 0
360.7 17.4708 0
358.163 17.5683 0
359.267 13.2375 0
360.618 15.3298 0
359.431 17.5196 0
358.081 15.4273 0
359.349 15.3786 0
360.536 13.1888 0
363.073 13.0911 0
363.238 17.3731 0
360.7 17.4708 0
361.804 13.14 0
363.155 15.2321 0
361.969 17.422 0
360.618 15.3298 0
361.886 15.281 0
363.073 13.0911 0
365.61 12.993 0
365.775 17.2751 0
363.238 17.3731 0
364.341 13.0421 0
365.692 15.1341 0
364.506 17.3241 0
363.155 15.2321 0
364.424 15.1831 0
365.61 12.993 0
368.146 12.8947 0
368.312 17.1767 0
365.775 17.2751 0
366.878 12.9439 0
368.229 15.0358 0
367.044 17.2259 0
365.692 15.1341 0
366.961 15.085 0
368.146 12.8947 0
370.683 12.7961 0
370.85 17.0781 0
368.312 17.1767 0
369.415 12.8455 0
370.766 14.9372 0
369.581 17.1275 0
368.229 15.0358 0
369.498 14.9865 0
370.683 12.7961 0
373.22 12.6973 0
373.387 16.9793 0
370.85 17.0781 0
371.952 12.7467 0
373.304 14.8383 0
372.118 17.0287 0
370.766 14.9372 0
372.035 14.8878 0
373.22 12.6973 0
375.757 12.5981 0
375.924 16.8801 0
373.387 16.9793 0
374.489 12.6477 0
375.841 14.7392 0
374.656 16.9297 0
373.304 14.8383 0
374.572 14.7888 0
375.757 12.5981 0
378.294 12.4987 0
378.462 16.7807 0
375.924 16.8801 0
377.025 12.5485 0
378.378 14.6397 0
377.193 16.8304 0
375.841 14.7392 0
377.109 14.6895 0
378.294 12.4987 0
380.831 12.3991 0
380.999 16.681 0
378.462 16.7807 0
379.562 12.4489 0
380.915 14.5401 0
379.73 16.7309 0
378.378 14.6397 0
379.646 14.5899 0
380.831 12.3991 0
383.367 12.2991 0
383.536 16.5811 0
380.999 16.681 0
382.099 12.3491 0
383.452 14.4401 0
382.267 16.6311 0
380.915 14.5401 0
382.183 14.4901 0
383.367 12.2991 0
385.904 12.199 0
386.073 16.4809 0
383.536 16.5811 0
384.636 12.2491 0
385.989 14.34 0
384.804 16.531 0
383.452 14.4401 0
384.72 14.3901 0
385.904 12.199 0
388.441 12.0985 0
388.61 16.3805 0
386.073 16.4809 0
387.172 12.1488 0
388.525 14.2395 0
387.342 16.4307 0
385.989 14.34 0
387.257 14.2898 0
388.441 12.0985 0
390.977 11.9979 0
391.147 16.2798 0
388.61 16.3805 0
389.709 12.0482 0
391.062 14.1389 0
389.879 16.3302 0
388.525 14.2395 0
389.794 14.1892 0
390.977 11.9979 0
393.514 11.897 0
393.684 16.1789 0
391.147 16.2798 0
392.246 11.9475 0
393.599 14.038 0
392.416 16.2294 0
391.062 14.1389 0
392.331 14.0885 0
393.514 11.897 0
396.051 11.7959 0
396.221 16.0778 0
393.684 16.1789 0
394.782 11.8465 0
396.136 13.9369 0
394.953 16.1284 0
393.599 14.038 0
394.868 13.9875 0
396.051 11.7959 0
398.587 11.6945 0
398.758 15.9765 0
396.221 16.0778 0
397.319 11.7452 0
398.673 13.8355 0
397.49 16.0272 0
396.136 13.9369 0
397.404 13.8862 0
398.587 11.6945 0
401.124 11.593 0
401.295 15.8749 0
398.758 15.9765 0
399.856 11.6438 0
401.21 13.734 0
400.027 15.9257 0
398.673 13.8355 0
399.941 13.7848 0
401.124 11.593 0
403.66 11.4912 0
403.832 15.7731 0
401.295 15.8749 0
402.392 11.5421 0
403.746 13.6322 0
402.564 15.824 0
401.21 13.734 0
402.478 13.6831 0
403.66 11.4912 0
406.197 11.3892 0
406.369 15.6712 0
403.832 15.7731 0
404.929 11.4403 0
406.283 13.5302 0
405.101 15.7222 0
403.746 13.6322 0
405.015 13.5812 0
406.197 11.3892 0
408.734 11.2871 0
408.906 15.569 0
406.369 15.6712 0
407.465 11.3382 0
408.82 13.428 0
407.637 15.6201 0
406.283 13.5302 0
407.551 13.4792 0
408.734 11.2871 0
411.27 11.1847 0
411.443 15.4666 0
408.906 15.569 0
410.002 11.2359 0
411.356 13.3257 0
410.174 15.5178 0
408.82 13.428 0
410.088 13.3769 0
411.27 11.1847 0
413.806 11.0821 0
413.979 15.364 0
411.443 15.4666 0
412.538 11.1334 0
413.893 13.2231 0
412.711 15.4153 0
411.356 13.3257 0
412.625 13.2744 0
413.806 11.0821 0
416.343 10.9794 0
416.516 15.2613 0
413.979 15.364 0
415.075 11.0308 0
416.43 13.1204 0
415.248 15.3127 0
413.893 13.2231 0
415.161 13.1718 0
416.343 10.9794 0
418.879 10.8765 0
419.053 15.1584 0
416.516 15.2613 0
417.611 10.9279 0
418.966 13.0174 0
417.785 15.2098 0
416.43 13.1204 0
417.698 13.0689 0
418.879 10.8765 0
421.416 10.7734 0
421.59 15.0553 0
419.053 15.1584 0
420.148 10.8249 0
421.503 12.9143 0
420.321 15.1068 0
418.966 13.0174 0
420.234 12.9659 0
421.416 10.7734 0
423.952 10.6701 0
424.126 14.952 0
421.59 15.0553 0
422.684 10.7218 0
424.039 12.8111 0
422.858 15.0036 0
421.503 12.9143 0
422.771 12.8627 0
423.952 10.6701 0
426.489 10.5667 0
426.663 14.8486 0
424.126 14.952 0
425.22 10.6184 0
426.576 12.7076 0
425.395 14.9003 0
424.039 12.8111 0
425.308 12.7594 0
426.489 10.5667 0
429.025 10.4631 0
429.2 14.745 0
426.663 14.8486 0
427.757 10.5149 0
429.112 12.604 0
427.931 14.7968 0
426.576 12.7076 0
427.844 12.6559 0
429.025 10.4631 0
431.561 10.3593 0
431.736 14.6412 0
429.2 14.745 0
430.293 10.4112 0
431.649 12.5003 0
430.468 14.6931 0
429.112 12.604 0
430.38 12.5522 0
431.561 10.3593 0
434.098 10.2555 0
434.273 14.5373 0
431.736 14.6412 0
432.829 10.3074 0
434.185 12.3964 0
433.004 14.5893 0
431.649 12.5003 0
432.917 12.4484 0
434.098 10.2555 0
436.634 10.1514 0
436.809 14.4333 0
434.273 14.5373 0
435.366 10.2035 0
436.722 12.2924 0
435.541 14.4854 0
434.185 12.3964 0
435.453 12.3444 0
436.634 10.1514 0
439.17 10.0473 0
439.346 14.3292 0
436.809 14.4333 0
437.902 10.0994 0
439.258 12.1882 0
438.078 14.3813 0
436.722 12.2924 0
437.99 12.2403 0
439.17 10.0473 0
441.706 9.94298 0
441.882 14.2249 0
439.346 14.3292 0
440.438 9.99514 0
441.794 12.0839 0
440.614 14.277 0
439.258 12.1882 0
440.526 12.1361 0
441.706 9.94298 0
444.243 9.83857 0
444.419 14.1205 0
441.882 14.2249 0
442.974 9.89079 0
444.331 11.9795 0
443.15 14.1727 0
441.794 12.0839 0
443.062 12.0317 0
444.243 9.83857 0
446.779 9.73403 0
446.955 14.0159 0
444.419 14.1205 0
445.511 9.78632 0
446.867 11.875 0
445.687 14.0682 0
444.331 11.9795 0
445.599 11.9273 0
446.779 9.73403 0
449.315 9.62939 0
449.491 13.9113 0
446.955 14.0159 0
448.047 9.68172 0
449.403 11.7703 0
448.223 13.9636 0
446.867 11.875 0
448.135 11.8227 0
449.315 9.62939 0
451.851 9.52463 0
452.028 13.8065 0
449.491 13.9113 0
450.583 9.57702 0
451.94 11.6656 0
450.76 13.8589 0
449.403 11.7703 0
450.671 11.718 0
451.851 9.52463 0
454.387 9.41977 0
454.564 13.7017 0
452.028 13.8065 0
453.119 9.47221 0
454.476 11.5607 0
453.296 13.7541 0
451.94 11.6656 0
453.208 11.6132 0
454.387 9.41977 0
456.923 9.31481 0
457.1 13.5967 0
454.564 13.7017 0
455.655 9.3673 0
457.012 11.4558 0
455.832 13.6492 0
454.476 11.5607 0
455.744 11.5083 0
456.923 9.31481 0
459.46 9.20977 0
459.637 13.4917 0
457.1 13.5967 0
458.192 9.2623 0
459.548 11.3507 0
458.369 13.5442 0
457.012 11.4558 0
458.28 11.4033 0
459.46 9.20977 0
461.996 9.10463 0
462.173 13.3865 0
459.637 13.4917 0
460.728 9.15721 0
462.084 11.2456 0
460.905 13.4391 0
459.548 11.3507 0
460.816 11.2982 0
461.996 9.10463 0
464.532 8.99941 0
464.709 13.2813 0
462.173 13.3865 0
463.264 9.05203 0
464.621 11.1404 0
463.441 13.3339 0
462.084 11.2456 0
463.352 11.193 0
464.532 8.99941 0
467.068 8.89412 0
467.245 13.176 0
464.709 13.2813 0
465.8 8.94678 0
467.157 11.0351 0
465.977 13.2287 0
464.621 11.1404 0
465.889 11.0877 0
467.068 8.89412 0
469.604 8.78876 0
469.782 13.0707 0
467.245 13.176 0
468.336 8.84145 0
469.693 10.9297 0
468.514 13.1234 0
467.157 11.0351 0
468.425 10.9824 0
469.604 8.78876 0
472.14 8.68333 0
472.318 12.9653 0
469.782 13.0707 0
470.872 8.73606 0
472.229 10.8243 0
471.05 13.018 0
469.693 10.9297 0
470.961 10.877 0
472.14 8.68333 0
474.676 8.57785 0
474.854 12.8598 0
472.318 12.9653 0
473.408 8.6306 0
474.765 10.7188 0
473.586 12.9125 0
472.229 10.8243 0
473.497 10.7716 0
474.676 8.57785 0
477.212 8.47231 0
477.39 12.7542 0
474.854 12.8598 0
475.944 8.52509 0
477.301 10.6133 0
476.122 12.807 0
474.765 10.7188 0
476.033 10.6661 0
477.212 8.47231 0
479.748 8.36672 0
479.926 12.6487 0
477.39 12.7542 0
478.48 8.41952 0
479.837 10.5077 0
478.658 12.7015 0
477.301 10.6133 0
478.569 10.5605 0
479.748 8.36672 0
482.284 8.26109 0
482.462 12.543 0
479.926 12.6487 0
481.016 8.31391 0
482.373 10.4021 0
481.194 12.5959 0
479.837 10.5077 0
481.105 10.4549 0
482.284 8.26109 0
484.82 8.15542 0
484.998 12.4374 0
482.462 12.543 0
483.552 8.20826 0
484.909 10.2964 0
483.73 12.4902 0
482.373 10.4021 0
483.641 10.3492 0
484.82 8.15542 0
487.356 8.04972 0
487.534 12.3317 0
484.998 12.4374 0
486.088 8.10257 0
487.445 10.1907 0
486.266 12.3845 0
484.909 10.2964 0
486.177 10.2436 0
487.356 8.04972 0
489.892 7.94399 0
490.07 12.226 0
487.534 12.3317 0
488.624 7.99686 0
489.981 10.085 0
488.802 12.2788 0
487.445 10.1907 0
488.713 10.1378 0
489.892 7.94399 0
492.428 7.83823 0
492.606 12.1202 0
490.07 12.226 0
491.16 7.89111 0
492.517 9.97923 0
491.338 12.1731 0
489.981 10.085 0
491.249 10.0321 0
492.428 7.83823 0
494.964 7.73245 0
495.142 12.0144 0
492.606 12.1202 0
493.696 7.78534 0
495.053 9.87344 0
493.874 12.0673 0
492.517 9.97923 0
493.785 9.92634 0
494.964 7.73245 0
497.499 7.62668 0
497.678 11.9086 0
495.142 12.0144 0
496.232 7.67957 0
497.589 9.76762 0
496.41 11.9615 0
495.053 9.87344 0
496.321 9.82053 0
497.499 7.62668 0
500.035 7.52095 0
500.214 11.8027 0
497.678 11.9086 0
498.767 7.57381 0
500.125 9.66183 0
498.946 11.8556 0
497.589 9.76762 0
498.857 9.71472 0
0 25.7143 0
2.54219 25.7131 0
2.54498 29.9965 0
0 30 0
1.27103 25.7139 0
2.54327 27.855 0
1.27279 29.9978 0
0 27.8571 0
1.27152 27.8562 0
2.54219 25.7131 0
5.08471 25.7109 0
5.08903 29.994 0
2.54498 29.9965 0
3.81343 25.7121 0
5.08676 27.8526 0
3.81701 29.9953 0
2.54327 27.855 0
3.81503 27.8538 0
5.08471 25.7109 0
7.62728 25.7079 0
7.63313 29.9909 0
5.08903 29.994 0
6.356 25.7095 0
7.63017 27.8495 0
6.36107 29.9925 0
5.08676 27.8526 0
6.35847 27.8511 0
7.62728 25.7079 0
10.1698 25.7039 0
10.1773 29.9869 0
7.63313 29.9909 0
8.89856 25.706 0
10.1735 27.8455 0
8.9052 29.989 0
7.63017 27.8495 0
8.90186 27.8476 0
10.1698 25.7039 0
12.7123 25.699 0
12.7214 29.982 0
10.1773 29.9869 0
11.4411 25.7016 0
12.7169 27.8406 0
11.4494 29.9846 0
10.1735 27.8455 0
11.4452 27.8432 0
12.7123 25.699 0
15.2548 25.693 0
15.2656 29.976 0
12.7214 29.982 0
13.9836 25.6961 0
15.2602 27.8346 0
13.9935 29.9791 0
12.7169 27.8406 0
13.9885 27.8377 0
15.2548 25.693 0
17.7972 25.686 0
17.8098 29.9691 0
15.2656 29.976 0
16.526 25.6896 0
17.8035 27.8276 0
16.5377 29.9727 0
15.2602 27.8346 0
16.5318 27.8313 0
17.7972 25.686 0
20.3396 25.678 0
20.3539 29.961 0
17.8098 29.9691 0
19.0684 25.6821 0
20.3468 27.8196 0
19.0819 29.9652 0
17.8035 27.8276 0
19.0751 27.8238 0
20.3396 25.678 0
22.882 25.6689 0
22.898 29.952 0
20.3539 29.961 0
21.6108 25.6736 0
22.89 27.8106 0
21.626 29.9567 0
20.3468 27.8196 0
21.6184 27.8152 0
22.882 25.6689 0
25.4244 25.6589 0
25.4421 29.9419 0
22.898 29.952 0
24.1532 25.664 0
25.4332 27.8005 0
24.1701 29.9471 0
22.89 27.8106 0
24.1616 27.8057 0
25.4244 25.6589 0
27.9667 25.6478 0
27.9862 29.9308 0
25.4421 29.9419 0
26.6956 25.6534 0
27.9764 27.7894 0
26.7141 29.9365 0
25.4332 27.8005 0
26.7048 27.7951 0
27.9667 25.6478 0
30.509 25.6357 0
30.5302 29.9187 0
27.9862 29.9308 0
29.2379 25.6418 0
30.5196 27.7773 0
29.2582 29.9249 0
27.9764 27.7894 0
29.248 27.7835 0
30.509 25.6357 0
33.0513 25.6225 0
33.0741 29.9056 0
30.5302 29.9187 0
31.7802 25.6292 0
33.0627 27.7642 0
31.8022 29.9123 0
30.5196 27.7773 0
31.7911 27.7709 0
33.0513 25.6225 0
35.5935 25.6084 0
35.6181 29.8915 0
33.0741 29.9056 0
34.3224 25.6156 0
35.6058 27.75 0
34.3461 29.8987 0
33.0627 27.7642 0
34.3342 27.7572 0
35.5935 25.6084 0
38.1358 25.5933 0
38.162 29.8764 0
35.6181 29.8915 0
36.8646 25.601 0
38.1488 27.7349 0
36.89 29.884 0
35.6058 27.75 0
36.8773 27.7426 0
38.1358 25.5933 0
40.6779 25.5771 0
40.7058 29.8602 0
38.162 29.8764 0
39.4069 25.5853 0
40.6919 27.7188 0
39.4339 29.8684 0
38.1488 27.7349 0
39.4204 27.727 0
40.6779 25.5771 0
43.2201 25.56 0
43.2496 29.8431 0
40.7058 29.8602 0
41.949 25.5687 0
43.2348 27.7017 0
41.9777 29.8518 0
40.6919 27.7188 0
41.9634 27.7104 0
43.2201 25.56 0
45.7622 25.542 0
45.7934 29.825 0
43.2496 29.8431 0
44.4912 25.5511 0
45.7778 27.6836 0
44.5215 29.8342 0
43.2348 27.7017 0
44.5063 27.6928 0
45.7622 25.542 0
48.3043 25.5229 0
48.3372 29.806 0
45.7934 29.825 0
47.0333 25.5325 0
48.3207 27.6645 0
47.0653 29.8156 0
45.7778 27.6836 0
47.0493 27.6742 0
48.3043 25.5229 0
50.8464 25.5028 0
50.8809 29.7859 0
48.3372 29.806 0
49.5754 25.513 0
50.8636 27.6445 0
49.609 29.7961 0
48.3207 27.6645 0
49.5922 27.6546 0
50.8464 25.5028 0
53.3884 25.4818 0
53.4245 29.7649 0
50.8809 29.7859 0
52.1174 25.4925 0
53.4065 27.6235 0
52.1527 29.7756 0
50.8636 27.6445 0
52.135 27.6341 0
53.3884 25.4818 0
55.9304 25.4599 0
55.9681 29.743 0
53.4245 29.7649 0
54.6594 25.471 0
55.9493 27.6015 0
54.6963 29.7541 0
53.4065 27.6235 0
54.6779 27.6126 0
55.9304 25.4599 0
58.4724 25.437 0
58.5117 29.7201 0
55.9681 29.743 0
57.2014 25.4485 0
58.492 27.5786 0
57.2399 29.7316 0
55.9493 27.6015 0
57.2207 27.5902 0
58.4724 25.437 0
61.0144 25.4131 0
61.0553 29.6962 0
58.5117 29.7201 0
59.7434 25.4251 0
61.0348 27.5547 0
59.7835 29.7082 0
58.492 27.5786 0
59.7634 27.5668 0
61.0144 25.4131 0
63.5563 25.3883 0
63.5988 29.6714 0
61.0553 29.6962 0
62.2853 25.4008 0
63.5775 27.5299 0
62.327 29.6839 0
61.0348 27.5547 0
62.3061 27.5425 0
63.5563 25.3883 0
66.0982 25.3625 0
66.1422 29.6456 0
63.5988 29.6714 0
64.8272 25.3755 0
66.1202 27.5042 0
64.8705 29.6586 0
63.5775 27.5299 0
64.8488 27.5172 0
66.0982 25.3625 0
68.64 25.3359 0
68.6856 29.6189 0
66.1422 29.6456 0
67.3691 25.3493 0
68.6628 27.4775 0
67.4139 29.6324 0
66.1202 27.5042 0
67.3915 27.491 0
68.64 25.3359 0
71.1818 25.3082 0
71.229 29.5913 0
68.6856 29.6189 0
69.9109 25.3222 0
71.2054 27.4499 0
69.9573 29.6053 0
68.6628 27.4775 0
69.9341 27.4638 0
71.1818 25.3082 0
73.7236 25.2797 0
73.7723 29.5628 0
71.229 29.5913 0
72.4527 25.2941 0
73.7479 27.4214 0
72.5007 29.5772 0
71.2054 27.4499 0
72.4767 27.4357 0
73.7236 25.2797 0
76.2653 25.2503 0
76.3156 29.5334 0
73.7723 29.5628 0
74.9945 25.2651 0
76.2905 27.3919 0
75.044 29.5482 0
73.7479 27.4214 0
75.0192 27.4068 0
76.2653 25.2503 0
78.8071 25.2199 0
78.8589 29.503 0
76.3156 29.5334 0
77.5362 25.2352 0
78.8329 27.3616 0
77.5872 29.5183 0
76.2905 27.3919 0
77.5617 27.3768 0
78.8071 25.2199 0
81.3487 25.1887 0
81.4021 29.4717 0
78.8589 29.503 0
80.0779 25.2044 0
81.3754 27.3303 0
80.1305 29.4875 0
78.8329 27.3616 0
80.1042 27.346 0
81.3487 25.1887 0
83.8904 25.1565 0
83.9452 29.4396 0
81.4021 29.4717 0
82.6196 25.1727 0
83.9178 27.2981 0
82.6736 29.4558 0
81.3754 27.3303 0
82.6466 27.3143 0
83.8904 25.1565 0
86.432 25.1234 0
86.4883 29.4065 0
83.9452 29.4396 0
85.1612 25.1401 0
86.4601 27.2651 0
85.2168 29.4231 0
83.9178 27.2981 0
85.189 27.2817 0
86.432 25.1234 0
88.9736 25.0895 0
89.0314 29.3726 0
86.4883 29.4065 0
87.7028 25.1066 0
89.0025 27.2311 0
87.7599 29.3896 0
86.4601 27.2651 0
87.7313 27.2482 0
88.9736 25.0895 0
91.5151 25.0547 0
91.5744 29.3377 0
89.0314 29.3726 0
90.2443 25.0722 0
91.5448 27.1963 0
90.3029 29.3552 0
89.0025 27.2311 0
90.2736 27.2138 0
91.5151 25.0547 0
94.0566 25.019 0
94.1174 29.302 0
91.5744 29.3377 0
92.7859 25.0369 0
94.087 27.1606 0
92.8459 29.32 0
91.5448 27.1963 0
92.8159 27.1785 0
94.0566 25.019 0
96.5981 24.9824 0
96.6604 29.2654 0
94.1174 29.302 0
95.3274 25.0008 0
96.6292 27.124 0
95.3889 29.2838 0
94.087 27.1606 0
95.3581 27.1424 0
96.5981 24.9824 0
99.1395 24.9449 0
99.2032 29.228 0
96.6604 29.2654 0
97.8688 24.9638 0
99.1714 27.0865 0
97.9318 29.2468 0
96.6292 27.124 0
97.9003 27.1054 0
99.1395 24.9449 0
101.681 24.9066 0
101.746 29.1897 0
99.2032 29.228 0
100.41 24.9259 0
101.713 27.0482 0
100.475 29.2089 0
99.1714 27.0865 0
100.442 27.0675 0
101.681 24.9066 0
104.222 24.8675 0
104.289 29.1505 0
101.746 29.1897 0
102.952 24.8872 0
104.256 27.0091 0
103.017 29.1702 0
101.713 27.0482 0
102.985 27.0288 0
104.222 24.8675 0
106.764 24.8275 0
106.832 29.1105 0
104.289 29.1505 0
105.493 24.8476 0
106.798 26.9691 0
105.56 29.1306 0
104.256 27.0091 0
105.527 26.9892 0
106.764 24.8275 0
109.305 24.7866 0
109.374 29.0696 0
106.832 29.1105 0
108.034 24.8071 0
109.34 26.9282 0
108.103 29.0901 0
106.798 26.9691 0
108.069 26.9487 0
109.305 24.7866 0
111.846 24.7449 0
111.917 29.0279 0
109.374 29.0696 0
110.576 24.7659 0
111.882 26.8865 0
110.646 29.0488 0
109.34 26.9282 0
110.611 26.9074 0
111.846 24.7449 0
114.387 24.7024 0
114.46 28.9854 0
111.917 29.0279 0
113.117 24.7237 0
114.424 26.844 0
113.188 29.0067 0
111.882 26.8865 0
113.153 26.8653 0
114.387 24.7024 0
116.929 24.659 0
117.002 28.942 0
114.46 28.9854 0
115.658 24.6808 0
116.965 26.8006 0
115.731 28.9638 0
114.424 26.844 0
115.694 26.8224 0
116.929 24.659 0
119.47 24.6148 0
119.545 28.8978 0
117.002 28.942 0
118.199 24.637 0
119.507 26.7564 0
118.273 28.92 0
116.965 26.8006 0
118.236 26.7786 0
119.47 24.6148 0
122.011 24.5698 0
122.087 28.8528 0
119.545 28.8978 0
120.74 24.5924 0
122.049 26.7114 0
120.816 28.8754 0
119.507 26.7564 0
120.778 26.734 0
122.011 24.5698 0
124.552 24.524 0
124.63 28.807 0
122.087 28.8528 0
123.281 24.547 0
124.591 26.6656 0
123.358 28.83 0
122.049 26.7114 0
123.32 26.6886 0
124.552 24.524 0
127.093 24.4774 0
127.172 28.7603 0
124.63 28.807 0
125.822 24.5008 0
127.132 26.619 0
125.901 28.7837 0
124.591 26.6656 0
125.862 26.6424 0
127.093 24.4774 0
129.634 24.43 0
129.714 28.7129 0
127.172 28.7603 0
128.363 24.4538 0
129.674 26.5715 0
128.443 28.7367 0
127.132 26.619 0
128.403 26.5953 0
129.634 24.43 0
132.175 24.3818 0
132.257 28.6647 0
129.714 28.7129 0
130.904 24.406 0
132.216 26.5233 0
130.986 28.6889 0
129.674 26.5715 0
130.945 26.5475 0
132.175 24.3818 0
134.716 24.3328 0
134.799 28.6157 0
132.257 28.6647 0
133.445 24.3574 0
134.757 26.4743 0
133.528 28.6403 0
132.216 26.5233 0
133.487 26.4989 0
134.716 24.3328 0
137.257 24.283 0
137.341 28.5659 0
134.799 28.6157 0
135.986 24.308 0
137.299 26.4245 0
136.07 28.5908 0
134.757 26.4743 0
136.028 26.4495 0
137.257 24.283 0
139.798 24.2324 0
139.883 28.5153 0
137.341 28.5659 0
138.527 24.2578 0
139.84 26.3739 0
138.612 28.5407 0
137.299 26.4245 0
138.57 26.3993 0
139.798 24.2324 0
142.338 24.1811 0
142.425 28.4639 0
139.883 28.5153 0
141.068 24.2068 0
142.382 26.3226 0
141.154 28.4897 0
139.84 26.3739 0
141.111 26.3483 0
142.338 24.1811 0
144.879 24.1289 0
144.967 28.4118 0
142.425 28.4639 0
143.609 24.1551 0
144.923 26.2704 0
143.696 28.4379 0
142.382 26.3226 0
143.653 26.2966 0
144.879 24.1289 0
147.42 24.0761 0
147.509 28.3589 0
144.967 28.4118 0
146.149 24.1026 0
147.465 26.2176 0
146.238 28.3854 0
144.923 26.2704 0
146.194 26.2441 0
147.42 24.0761 0
149.96 24.0224 0
150.051 28.3053 0
147.509 28.3589 0
148.69 24.0493 0
150.006 26.1639 0
148.78 28.3322 0
147.465 26.2176 0
148.735 26.1908 0
149.96 24.0224 0
152.501 23.9681 0
152.593 28.2509 0
150.051 28.3053 0
151.231 23.9953 0
152.547 26.1095 0
151.322 28.2782 0
150.006 26.1639 0
151.277 26.1368 0
152.501 23.9681 0
155.042 23.9129 0
155.135 28.1957 0
152.593 28.2509 0
153.771 23.9406 0
155.088 26.0544 0
153.864 28.2234 0
152.547 26.1095 0
153.818 26.0821 0
155.042 23.9129 0
157.582 23.8571 0
157.677 28.1398 0
155.135 28.1957 0
156.312 23.8851 0
157.63 25.9985 0
156.406 28.1679 0
155.088 26.0544 0
156.359 26.0266 0
157.582 23.8571 0
160.123 23.8004 0
160.219 28.0832 0
157.677 28.1398 0
158.853 23.8288 0
160.171 25.9419 0
158.948 28.1116 0
157.63 25.9985 0
158.9 25.9703 0
160.123 23.8004 0
162.663 23.7431 0
162.761 28.0259 0
160.219 28.0832 0
161.393 23.7719 0
162.712 25.8846 0
161.49 28.0546 0
160.171 25.9419 0
161.441 25.9133 0
162.663 23.7431 0
165.204 23.685 0
165.302 27.9678 0
162.761 28.0259 0
163.934 23.7142 0
165.253 25.8265 0
164.031 27.9969 0
162.712 25.8846 0
163.982 25.8556 0
165.204 23.685 0
167.744 23.6263 0
167.844 27.909 0
165.302 27.9678 0
166.474 23.6557 0
167.794 25.7677 0
166.573 27.9385 0
165.253 25.8265 0
166.523 25.7972 0
167.744 23.6263 0
170.285 23.5668 0
170.385 27.8495 0
167.844 27.909 0
169.014 23.5966 0
170.335 25.7082 0
169.115 27.8793 0
167.794 25.7677 0
169.064 25.738 0
170.285 23.5668 0
172.825 23.5066 0
172.927 27.7893 0
170.385 27.8495 0
171.555 23.5368 0
172.876 25.648 0
171.656 27.8195 0
170.335 25.7082 0
171.605 25.6782 0
172.825 23.5066 0
175.365 23.4457 0
175.468 27.7283 0
172.927 27.7893 0
174.095 23.4762 0
175.417 25.5871 0
174.198 27.7589 0
172.876 25.648 0
174.146 25.6176 0
175.365 23.4457 0
177.905 23.3841 0
178.01 27.6667 0
175.468 27.7283 0
176.635 23.415 0
177.958 25.5255 0
176.739 27.6976 0
175.417 25.5871 0
176.687 25.5564 0
177.905 23.3841 0
180.446 23.3218 0
180.551 27.6044 0
178.01 27.6667 0
179.176 23.353 0
180.498 25.4632 0
179.28 27.6357 0
177.958 25.5255 0
179.228 25.4944 0
180.446 23.3218 0
182.986 23.2588 0
183.092 27.5414 0
180.551 27.6044 0
181.716 23.2904 0
183.039 25.4002 0
181.822 27.573 0
180.498 25.4632 0
181.769 25.4318 0
182.986 23.2588 0
185.526 23.1951 0
185.634 27.4778 0
183.092 27.5414 0
184.256 23.227 0
185.58 25.3365 0
184.363 27.5097 0
183.039 25.4002 0
184.31 25.3684 0
185.526 23.1951 0
188.066 23.1308 0
188.175 27.4134 0
185.634 27.4778 0
186.796 23.163 0
188.121 25.2722 0
186.904 27.4457 0
185.58 25.3365 0
186.85 25.3044 0
188.066 23.1308 0
190.606 23.0658 0
190.716 27.3484 0
188.175 27.4134 0
189.336 23.0984 0
190.661 25.2072 0
189.446 27.381 0
188.121 25.2722 0
189.391 25.2397 0
190.606 23.0658 0
193.146 23.0001 0
193.257 27.2827 0
190.716 27.3484 0
191.876 23.033 0
193.202 25.1415 0
191.987 27.3156 0
190.661 25.2072 0
191.931 25.1744 0
193.146 23.0001 0
195.686 22.9338 0
195.798 27.2164 0
193.257 27.2827 0
194.416 22.967 0
195.742 25.0751 0
194.528 27.2496 0
193.202 25.1415 0
194.472 25.1084 0
195.686 22.9338 0
198.226 22.8668 0
198.339 27.1494 0
195.798 27.2164 0
196.956 22.9004 0
198.283 25.0081 0
197.069 27.1829 0
195.742 25.0751 0
197.012 25.0417 0
198.226 22.8668 0
200.766 22.7992 0
200.88 27.0817 0
198.339 27.1494 0
199.496 22.8331 0
200.823 24.9405 0
199.61 27.1156 0
198.283 25.0081 0
199.553 24.9744 0
200.766 22.7992 0
203.306 22.7309 0
203.421 27.0134 0
200.88 27.0817 0
202.036 22.7651 0
203.364 24.8722 0
202.151 27.0476 0
200.823 24.9405 0
202.093 24.9065 0
203.306 22.7309 0
205.846 22.662 0
205.962 26.9445 0
203.421 27.0134 0
204.576 22.6965 0
205.904 24.8033 0
204.692 26.979 0
203.364 24.8722 0
204.634 24.8378 0
205.846 22.662 0
208.385 22.5925 0
208.503 26.8749 0
205.962 26.9445 0
207.116 22.6273 0
208.444 24.7338 0
207.233 26.9098 0
205.904 24.8033 0
207.174 24.7686 0
208.385 22.5925 0
210.925 22.5223 0
211.044 26.8048 0
208.503 26.8749 0
209.655 22.5574 0
210.984 24.6636 0
209.773 26.8399 0
208.444 24.7338 0
209.714 24.6988 0
210.925 22.5223 0
213.465 22.4515 0
213.585 26.734 0
211.044 26.8048 0
212.195 22.487 0
213.525 24.5928 0
212.314 26.7694 0
210.984 24.6636 0
212.255 24.6283 0
213.465 22.4515 0
216.004 22.3801 0
216.125 26.6625 0
213.585 26.734 0
214.735 22.4159 0
216.065 24.5214 0
214.855 26.6983 0
213.525 24.5928 0
214.795 24.5572 0
216.004 22.3801 0
218.544 22.3081 0
218.666 26.5905 0
216.125 26.6625 0
217.274 22.3442 0
218.605 24.4494 0
217.396 26.6266 0
216.065 24.5214 0
217.335 24.4854 0
218.544 22.3081 0
221.084 22.2355 0
221.207 26.5179 0
218.666 26.5905 0
219.814 22.2718 0
221.145 24.3767 0
219.936 26.5543 0
218.605 24.4494 0
219.875 24.4131 0
221.084 22.2355 0
223.623 22.1622 0
223.747 26.4446 0
221.207 26.5179 0
222.353 22.1989 0
223.685 24.3035 0
222.477 26.4813 0
221.145 24.3767 0
222.415 24.3402 0
223.623 22.1622 0
226.163 22.0884 0
226.288 26.3708 0
223.747 26.4446 0
224.893 22.1254 0
226.225 24.2297 0
225.017 26.4078 0
223.685 24.3035 0
224.955 24.2667 0
226.163 22.0884 0
228.702 22.014 0
228.828 26.2964 0
226.288 26.3708 0
227.432 22.0513 0
228.765 24.1553 0
227.558 26.3337 0
226.225 24.2297 0
227.495 24.1926 0
228.702 22.014 0
231.242 21.9391 0
231.368 26.2214 0
228.828 26.2964 0
229.972 21.9766 0
231.305 24.0803 0
230.098 26.259 0
228.765 24.1553 0
230.035 24.1179 0
231.242 21.9391 0
233.781 21.8635 0
233.909 26.1458 0
231.368 26.2214 0
232.511 21.9014 0
233.845 24.0047 0
232.639 26.1837 0
231.305 24.0803 0
232.575 24.0426 0
233.781 21.8635 0
236.32 21.7874 0
236.449 26.0697 0
233.909 26.1458 0
235.051 21.8255 0
236.385 23.9286 0
235.179 26.1078 0
233.845 24.0047 0
235.115 23.9667 0
236.32 21.7874 0
238.86 21.7107 0
238.989 25.993 0
236.449 26.0697 0
237.59 21.7491 0
238.924 23.8519 0
237.719 26.0314 0
236.385 23.9286 0
237.655 23.8903 0
238.86 21.7107 0
241.399 21.6334 0
241.529 25.9157 0
238.989 25.993 0
240.129 21.6721 0
241.464 23.7746 0
240.259 25.9544 0
238.924 23.8519 0
240.194 23.8133 0
241.399 21.6334 0
243.938 21.5556 0
244.07 25.8379 0
241.529 25.9157 0
242.668 21.5946 0
244.004 23.6968 0
242.8 25.8769 0
241.464 23.7746 0
242.734 23.7358 0
243.938 21.5556 0
246.477 21.4773 0
246.61 25.7595 0
244.07 25.8379 0
245.208 21.5165 0
246.543 23.6184 0
245.34 25.7988 0
244.004 23.6968 0
245.274 23.6577 0
246.477 21.4773 0
249.016 21.3984 0
249.15 25.6806 0
246.61 25.7595 0
247.747 21.4379 0
249.083 23.5395 0
247.88 25.7201 0
246.543 23.6184 0
247.813 23.5791 0
249.016 21.3984 0
251.555 21.3189 0
251.69 25.6011 0
249.15 25.6806 0
250.286 21.3587 0
251.623 23.4601 0
250.42 25.6409 0
249.083 23.5395 0
250.353 23.4999 0
251.555 21.3189 0
254.094 21.2389 0
254.23 25.5212 0
251.69 25.6011 0
252.825 21.279 0
254.162 23.3801 0
252.96 25.5612 0
251.623 23.4601 0
252.892 23.4202 0
254.094 21.2389 0
256.633 21.1584 0
256.77 25.4406 0
254.23 25.5212 0
255.364 21.1988 0
256.702 23.2996 0
255.5 25.481 0
254.162 23.3801 0
255.432 23.3399 0
256.633 21.1584 0
259.172 21.0774 0
259.309 25.3596 0
256.77 25.4406 0
257.903 21.118 0
259.241 23.2186 0
258.04 25.4002 0
256.702 23.2996 0
257.971 23.2591 0
259.172 21.0774 0
261.711 20.9959 0
261.849 25.278 0
259.309 25.3596 0
260.442 21.0367 0
261.78 23.137 0
260.579 25.3189 0
259.241 23.2186 0
260.511 23.1779 0
261.711 20.9959 0
264.25 20.9138 0
264.389 25.196 0
261.849 25.278 0
262.981 20.9549 0
264.32 23.055 0
263.119 25.2371 0
261.78 23.137 0
263.05 23.096 0
264.25 20.9138 0
266.789 20.8313 0
266.929 25.1134 0
264.389 25.196 0
265.52 20.8726 0
266.859 22.9724 0
265.659 25.1548 0
264.32 23.055 0
265.589 23.0137 0
266.789 20.8313 0
269.328 20.7482 0
269.468 25.0303 0
266.929 25.1134 0
268.059 20.7898 0
269.398 22.8893 0
268.199 25.0719 0
266.859 22.9724 0
268.129 22.9309 0
269.328 20.7482 0
271.867 20.6646 0
272.008 24.9468 0
269.468 25.0303 0
270.597 20.7065 0
271.937 22.8058 0
270.738 24.9886 0
269.398 22.8893 0
270.668 22.8476 0
271.867 20.6646 0
274.405 20.5806 0
274.548 24.8627 0
272.008 24.9468 0
273.136 20.6227 0
274.476 22.7217 0
273.278 24.9048 0
271.937 22.8058 0
273.207 22.7638 0
274.405 20.5806 0
276.944 20.4961 0
277.087 24.7782 0
274.548 24.8627 0
275.675 20.5384 0
277.016 22.6372 0
275.817 24.8205 0
274.476 22.7217 0
275.746 22.6795 0
276.944 20.4961 0
279.483 20.4111 0
279.627 24.6932 0
277.087 24.7782 0
278.214 20.4536 0
279.555 22.5522 0
278.357 24.7357 0
277.016 22.6372 0
278.285 22.5947 0
279.483 20.4111 0
282.021 20.3256 0
282.166 24.6077 0
279.627 24.6932 0
280.752 20.3684 0
282.094 22.4667 0
280.896 24.6505 0
279.555 22.5522 0
280.824 22.5095 0
282.021 20.3256 0
284.56 20.2396 0
284.705 24.5217 0
282.166 24.6077 0
283.291 20.2827 0
284.633 22.3807 0
283.436 24.5647 0
282.094 22.4667 0
283.363 22.4238 0
284.56 20.2396 0
287.099 20.1532 0
287.245 24.4353 0
284.705 24.5217 0
285.829 20.1965 0
287.172 22.2943 0
285.975 24.4785 0
284.633 22.3807 0
285.902 22.3376 0
287.099 20.1532 0
289.637 20.0664 0
289.784 24.3484 0
287.245 24.4353 0
288.368 20.1099 0
289.71 22.2074 0
288.514 24.3919 0
287.172 22.2943 0
288.441 22.2509 0
289.637 20.0664 0
292.176 19.979 0
292.323 24.2611 0
289.784 24.3484 0
290.906 20.0228 0
292.249 22.1201 0
291.054 24.3048 0
289.71 22.2074 0
290.98 22.1638 0
292.176 19.979 0
294.714 19.8913 0
294.862 24.1733 0
292.323 24.2611 0
293.445 19.9352 0
294.788 22.0323 0
293.593 24.2172 0
292.249 22.1201 0
293.519 22.0763 0
294.714 19.8913 0
297.252 19.8031 0
297.401 24.0851 0
294.862 24.1733 0
295.983 19.8472 0
297.327 21.9441 0
296.132 24.1292 0
294.788 22.0323 0
296.058 21.9883 0
297.252 19.8031 0
299.791 19.7144 0
299.941 23.9964 0
297.401 24.0851 0
298.522 19.7588 0
299.866 21.8555 0
298.671 24.0408 0
297.327 21.9441 0
298.596 21.8999 0
299.791 19.7144 0
302.329 19.6254 0
302.48 23.9074 0
299.941 23.9964 0
301.06 19.67 0
302.404 21.7664 0
301.21 23.9519 0
299.866 21.8555 0
301.135 21.811 0
302.329 19.6254 0
304.867 19.5359 0
305.019 23.8178 0
302.48 23.9074 0
303.598 19.5807 0
304.943 21.6769 0
303.749 23.8627 0
302.404 21.7664 0
303.674 21.7217 0
304.867 19.5359 0
307.406 19.446 0
307.557 23.7279 0
305.019 23.8178 0
306.136 19.491 0
307.482 21.587 0
306.288 23.7729 0
304.943 21.6769 0
306.212 21.632 0
307.406 19.446 0
309.944 19.3556 0
310.096 23.6376 0
307.557 23.7279 0
308.675 19.4009 0
310.02 21.4967 0
308.827 23.6828 0
307.482 21.587 0
308.751 21.5419 0
309.944 19.3556 0
312.482 19.2649 0
312.635 23.5469 0
310.096 23.6376 0
311.213 19.3103 0
312.559 21.4059 0
311.366 23.5923 0
310.02 21.4967 0
311.289 21.4513 0
312.482 19.2649 0
315.02 19.1738 0
315.174 23.4557 0
312.635 23.5469 0
313.751 19.2194 0
315.097 21.3148 0
313.905 23.5013 0
312.559 21.4059 0
313.828 21.3604 0
315.02 19.1738 0
317.558 19.0823 0
317.713 23.3642 0
315.174 23.4557 0
316.289 19.1281 0
317.635 21.2233 0
316.443 23.41 0
315.097 21.3148 0
316.366 21.2691 0
317.558 19.0823 0
320.096 18.9903 0
320.251 23.2722 0
317.713 23.3642 0
318.827 19.0363 0
320.174 21.1313 0
318.982 23.3183 0
317.635 21.2233 0
318.905 21.1773 0
320.096 18.9903 0
322.634 18.898 0
322.79 23.1799 0
320.251 23.2722 0
321.365 18.9442 0
322.712 21.039 0
321.521 23.2261 0
320.174 21.1313 0
321.443 21.0852 0
322.634 18.898 0
325.172 18.8053 0
325.329 23.0872 0
322.79 23.1799 0
323.903 18.8517 0
325.25 20.9463 0
324.059 23.1336 0
322.712 21.039 0
323.981 20.9927 0
325.172 18.8053 0
327.71 18.7123 0
327.867 22.9942 0
325.329 23.0872 0
326.441 18.7589 0
327.789 20.8533 0
326.598 23.0407 0
325.25 20.9463 0
326.52 20.8998 0
327.71 18.7123 0
330.248 18.6188 0
330.406 22.9007 0
327.867 22.9942 0
328.979 18.6656 0
330.327 20.7598 0
329.137 22.9475 0
327.789 20.8533 0
329.058 20.8066 0
330.248 18.6188 0
332.786 18.525 0
332.944 22.8069 0
330.406 22.9007 0
331.517 18.572 0
332.865 20.666 0
331.675 22.8539 0
330.327 20.7598 0
331.596 20.713 0
332.786 18.525 0
335.324 18.4309 0
335.483 22.7127 0
332.944 22.8069 0
334.055 18.478 0
335.403 20.5719 0
334.214 22.7599 0
332.865 20.666 0
334.134 20.619 0
335.324 18.4309 0
337.862 18.3364 0
338.021 22.6182 0
335.483 22.7127 0
336.593 18.3837 0
337.941 20.4773 0
336.752 22.6655 0
335.403 20.5719 0
336.672 20.5246 0
337.862 18.3364 0
340.399 18.2415 0
340.56 22.5234 0
338.021 22.6182 0
339.13 18.289 0
340.479 20.3825 0
339.29 22.5708 0
337.941 20.4773 0
339.21 20.43 0
340.399 18.2415 0
342.937 18.1463 0
343.098 22.4282 0
340.56 22.5234 0
341.668 18.194 0
343.017 20.2873 0
341.829 22.4758 0
340.479 20.3825 0
341.748 20.3349 0
342.937 18.1463 0
345.475 18.0508 0
345.636 22.3326 0
343.098 22.4282 0
344.206 18.0986 0
345.555 20.1917 0
344.367 22.3804 0
343.017 20.2873 0
344.286 20.2396 0
345.475 18.0508 0
348.012 17.9549 0
348.174 22.2367 0
345.636 22.3326 0
346.744 18.0029 0
348.093 20.0959 0
346.905 22.2847 0
345.555 20.1917 0
346.824 20.1439 0
348.012 17.9549 0
350.55 17.8587 0
350.712 22.1406 0
348.174 22.2367 0
349.281 17.9069 0
350.631 19.9997 0
349.443 22.1887 0
348.093 20.0959 0
349.362 20.0478 0
350.55 17.8587 0
353.088 17.7622 0
353.251 22.044 0
350.712 22.1406 0
351.819 17.8105 0
353.169 19.9032 0
351.982 22.0923 0
350.631 19.9997 0
351.9 19.9515 0
353.088 17.7622 0
355.625 17.6654 0
355.789 21.9472 0
353.251 22.044 0
354.356 17.7139 0
355.707 19.8063 0
354.52 21.9957 0
353.169 19.9032 0
354.438 19.8548 0
355.625 17.6654 0
358.163 17.5683 0
358.327 21.8501 0
355.789 21.9472 0
356.894 17.6169 0
358.245 19.7092 0
357.058 21.8987 0
355.707 19.8063 0
356.976 19.7578 0
358.163 17.5683 0
360.7 17.4708 0
360.865 21.7526 0
358.327 21.8501 0
359.431 17.5196 0
360.782 19.6118 0
359.596 21.8014 0
358.245 19.7092 0
359.514 19.6605 0
360.7 17.4708 0
363.238 17.3731 0
363.403 21.6549 0
360.865 21.7526 0
361.969 17.422 0
363.32 19.514 0
362.134 21.7038 0
360.782 19.6118 0
362.051 19.5629 0
363.238 17.3731 0
365.775 17.2751 0
365.941 21.5568 0
363.403 21.6549 0
364.506 17.3241 0
365.858 19.416 0
364.672 21.6059 0
363.32 19.514 0
364.589 19.465 0
365.775 17.2751 0
368.312 17.1767 0
368.478 21.4585 0
365.941 21.5568 0
367.044 17.2259 0
368.395 19.3177 0
367.209 21.5077 0
365.858 19.416 0
367.127 19.3669 0
368.312 17.1767 0
370.85 17.0781 0
371.016 21.3599 0
368.478 21.4585 0
369.581 17.1275 0
370.933 19.2191 0
369.747 21.4092 0
368.395 19.3177 0
369.664 19.2684 0
370.85 17.0781 0
373.387 16.9793 0
373.554 21.261 0
371.016 21.3599 0
372.118 17.0287 0
373.47 19.1202 0
372.285 21.3105 0
370.933 19.2191 0
372.202 19.1696 0
373.387 16.9793 0
375.924 16.8801 0
376.092 21.1619 0
373.554 21.261 0
374.656 16.9297 0
376.008 19.021 0
374.823 21.2115 0
373.47 19.1202 0
374.739 19.0706 0
375.924 16.8801 0
378.462 16.7807 0
378.629 21.0625 0
376.092 21.1619 0
377.193 16.8304 0
378.545 18.9216 0
377.361 21.1122 0
376.008 19.021 0
377.277 18.9713 0
378.462 16.7807 0
380.999 16.681 0
381.167 20.9628 0
378.629 21.0625 0
379.73 16.7309 0
381.083 18.8219 0
379.898 21.0126 0
378.545 18.9216 0
379.814 18.8718 0
380.999 16.681 0
383.536 16.5811 0
383.705 20.8628 0
381.167 20.9628 0
382.267 16.6311 0
383.62 18.722 0
382.436 20.9128 0
381.083 18.8219 0
382.352 18.772 0
383.536 16.5811 0
386.073 16.4809 0
386.242 20.7627 0
383.705 20.8628 0
384.804 16.531 0
386.158 18.6218 0
384.973 20.8128 0
383.62 18.722 0
384.889 18.6719 0
386.073 16.4809 0
388.61 16.3805 0
388.78 20.6622 0
386.242 20.7627 0
387.342 16.4307 0
388.695 18.5214 0
387.511 20.7125 0
386.158 18.6218 0
387.426 18.5716 0
388.61 16.3805 0
391.147 16.2798 0
391.317 20.5616 0
388.78 20.6622 0
389.879 16.3302 0
391.232 18.4207 0
390.048 20.6119 0
388.695 18.5214 0
389.964 18.4711 0
391.147 16.2798 0
393.684 16.1789 0
393.855 20.4607 0
391.317 20.5616 0
392.416 16.2294 0
393.769 18.3198 0
392.586 20.5112 0
391.232 18.4207 0
392.501 18.3703 0
393.684 16.1789 0
396.221 16.0778 0
396.392 20.3595 0
393.855 20.4607 0
394.953 16.1284 0
396.307 18.2187 0
395.123 20.4101 0
393.769 18.3198 0
395.038 18.2693 0
396.221 16.0778 0
398.758 15.9765 0
398.929 20.2582 0
396.392 20.3595 0
397.49 16.0272 0
398.844 18.1174 0
397.661 20.3089 0
396.307 18.2187 0
397.575 18.1681 0
398.758 15.9765 0
401.295 15.8749 0
401.467 20.1566 0
398.929 20.2582 0
400.027 15.9257 0
401.381 18.0158 0
400.198 20.2074 0
398.844 18.1174 0
400.112 18.0666 0
401.295 15.8749 0
403.832 15.7731 0
404.004 20.0549 0
401.467 20.1566 0
402.564 15.824 0
403.918 17.914 0
402.735 20.1058 0
401.381 18.0158 0
402.649 17.9649 0
403.832 15.7731 0
406.369 15.6712 0
406.541 19.9529 0
404.004 20.0549 0
405.101 15.7222 0
406.455 17.812 0
405.273 20.0039 0
403.918 17.914 0
405.187 17.8631 0
406.369 15.6712 0
408.906 15.569 0
409.078 19.8507 0
406.541 19.9529 0
407.637 15.6201 0
408.992 17.7099 0
407.81 19.9018 0
406.455 17.812 0
407.724 17.761 0
408.906 15.569 0
411.443 15.4666 0
411.616 19.7483 0
409.078 19.8507 0
410.174 15.5178 0
411.529 17.6075 0
410.347 19.7995 0
408.992 17.7099 0
410.261 17.6587 0
411.443 15.4666 0
413.979 15.364 0
414.153 19.6458 0
411.616 19.7483 0
412.711 15.4153 0
414.066 17.5049 0
412.884 19.6971 0
411.529 17.6075 0
412.798 17.5562 0
413.979 15.364 0
416.516 15.2613 0
416.69 19.543 0
414.153 19.6458 0
415.248 15.3127 0
416.603 17.4022 0
415.421 19.5944 0
414.066 17.5049 0
415.335 17.4536 0
416.516 15.2613 0
419.053 15.1584 0
419.227 19.4401 0
416.69 19.543 0
417.785 15.2098 0
419.14 17.2992 0
417.958 19.4916 0
416.603 17.4022 0
417.871 17.3507 0
419.053 15.1584 0
421.59 15.0553 0
421.764 19.337 0
419.227 19.4401 0
420.321 15.1068 0
421.677 17.1961 0
420.495 19.3886 0
419.14 17.2992 0
420.408 17.2477 0
421.59 15.0553 0
424.126 14.952 0
424.301 19.2337 0
421.764 19.337 0
422.858 15.0036 0
424.214 17.0929 0
423.032 19.2854 0
421.677 17.1961 0
422.945 17.1445 0
424.126 14.952 0
426.663 14.8486 0
426.838 19.1303 0
424.301 19.2337 0
425.395 14.9003 0
426.75 16.9895 0
425.569 19.182 0
424.214 17.0929 0
425.482 17.0412 0
426.663 14.8486 0
429.2 14.745 0
429.374 19.0267 0
426.838 19.1303 0
427.931 14.7968 0
429.287 16.8859 0
428.106 19.0785 0
426.75 16.9895 0
428.019 16.9377 0
429.2 14.745 0
431.736 14.6412 0
431.911 18.923 0
429.374 19.0267 0
430.468 14.6931 0
431.824 16.7821 0
430.643 18.9749 0
429.287 16.8859 0
430.555 16.834 0
431.736 14.6412 0
434.273 14.5373 0
434.448 18.8191 0
431.911 18.923 0
433.004 14.5893 0
434.36 16.6782 0
433.18 18.8711 0
431.824 16.7821 0
433.092 16.7302 0
434.273 14.5373 0
436.809 14.4333 0
436.985 18.7151 0
434.448 18.8191 0
435.541 14.4854 0
436.897 16.5742 0
435.717 18.7671 0
434.36 16.6782 0
435.629 16.6262 0
436.809 14.4333 0
439.346 14.3292 0
439.522 18.6109 0
436.985 18.7151 0
438.078 14.3813 0
439.434 16.4701 0
438.253 18.663 0
436.897 16.5742 0
438.165 16.5222 0
439.346 14.3292 0
441.882 14.2249 0
442.058 18.5066 0
439.522 18.6109 0
440.614 14.277 0
441.97 16.3658 0
440.79 18.5588 0
439.434 16.4701 0
440.702 16.4179 0
441.882 14.2249 0
444.419 14.1205 0
444.595 18.4022 0
442.058 18.5066 0
443.15 14.1727 0
444.507 16.2614 0
443.327 18.4545 0
441.97 16.3658 0
443.239 16.3136 0
444.419 14.1205 0
446.955 14.0159 0
447.132 18.2977 0
444.595 18.4022 0
445.687 14.0682 0
447.043 16.1568 0
445.863 18.35 0
444.507 16.2614 0
445.775 16.2091 0
446.955 14.0159 0
449.491 13.9113 0
449.668 18.1931 0
447.132 18.2977 0
448.223 13.9636 0
449.58 16.0522 0
448.4 18.2454 0
447.043 16.1568 0
448.312 16.1045 0
449.491 13.9113 0
452.028 13.8065 0
452.205 18.0883 0
449.668 18.1931 0
450.76 13.8589 0
452.116 15.9474 0
450.936 18.1407 0
449.58 16.0522 0
450.848 15.9998 0
452.028 13.8065 0
454.564 13.7017 0
454.741 17.9835 0
452.205 18.0883 0
453.296 13.7541 0
454.653 15.8426 0
453.473 18.0359 0
452.116 15.9474 0
453.384 15.895 0
454.564 13.7017 0
457.1 13.5967 0
457.278 17.8785 0
454.741 17.9835 0
455.832 13.6492 0
457.189 15.7376 0
456.009 17.931 0
454.653 15.8426 0
455.921 15.7901 0
457.1 13.5967 0
459.637 13.4917 0
459.814 17.7735 0
457.278 17.8785 0
458.369 13.5442 0
459.725 15.6326 0
458.546 17.826 0
457.189 15.7376 0
458.457 15.6851 0
459.637 13.4917 0
462.173 13.3865 0
462.35 17.6684 0
459.814 17.7735 0
460.905 13.4391 0
462.262 15.5275 0
461.082 17.7209 0
459.725 15.6326 0
460.994 15.58 0
462.173 13.3865 0
464.709 13.2813 0
464.887 17.5632 0
462.35 17.6684 0
463.441 13.3339 0
464.798 15.4223 0
463.619 17.6158 0
462.262 15.5275 0
463.53 15.4749 0
464.709 13.2813 0
467.245 13.176 0
467.423 17.4579 0
464.887 17.5632 0
465.977 13.2287 0
467.334 15.317 0
466.155 17.5105 0
464.798 15.4223 0
466.066 15.3696 0
467.245 13.176 0
469.782 13.0707 0
469.959 17.3525 0
467.423 17.4579 0
468.514 13.1234 0
469.871 15.2116 0
468.691 17.4052 0
467.334 15.317 0
468.602 15.2643 0
469.782 13.0707 0
472.318 12.9653 0
472.496 17.2471 0
469.959 17.3525 0
471.05 13.018 0
472.407 15.1062 0
471.228 17.2998 0
469.871 15.2116 0
471.139 15.1589 0
472.318 12.9653 0
474.854 12.8598 0
475.032 17.1417 0
472.496 17.2471 0
473.586 12.9125 0
474.943 15.0007 0
473.764 17.1944 0
472.407 15.1062 0
473.675 15.0535 0
474.854 12.8598 0
477.39 12.7542 0
477.568 17.0361 0
475.032 17.1417 0
476.122 12.807 0
477.479 14.8952 0
476.3 17.0889 0
474.943 15.0007 0
476.211 14.948 0
477.39 12.7542 0
479.926 12.6487 0
480.104 16.9306 0
477.568 17.0361 0
478.658 12.7015 0
480.015 14.7896 0
478.836 16.9833 0
477.479 14.8952 0
478.747 14.8424 0
479.926 12.6487 0
482.462 12.543 0
482.64 16.8249 0
480.104 16.9306 0
481.194 12.5959 0
482.551 14.684 0
481.372 16.8778 0
480.015 14.7896 0
481.283 14.7368 0
482.462 12.543 0
484.998 12.4374 0
485.176 16.7193 0
482.64 16.8249 0
483.73 12.4902 0
485.087 14.5783 0
483.908 16.7721 0
482.551 14.684 0
483.819 14.6312 0
484.998 12.4374 0
487.534 12.3317 0
487.713 16.6136 0
485.176 16.7193 0
486.266 12.3845 0
487.623 14.4727 0
486.444 16.6665 0
485.087 14.5783 0
486.355 14.5255 0
487.534 12.3317 0
490.07 12.226 0
490.249 16.5079 0
487.713 16.6136 0
488.802 12.2788 0
490.159 14.3669 0
488.981 16.5608 0
487.623 14.4727 0
488.891 14.4198 0
490.07 12.226 0
492.606 12.1202 0
492.785 16.4022 0
490.249 16.5079 0
491.338 12.1731 0
492.695 14.2612 0
491.517 16.455 0
490.159 14.3669 0
491.427 14.3141 0
492.606 12.1202 0
495.142 12.0144 0
495.321 16.2964 0
492.785 16.4022 0
493.874 12.0673 0
495.231 14.1554 0
494.053 16.3493 0
492.695 14.2612 0
493.963 14.2083 0
495.142 12.0144 0
497.678 11.9086 0
497.857 16.1905 0
495.321 16.2964 0
496.41 11.9615 0
497.767 14.0495 0
496.589 16.2434 0
495.231 14.1554 0
496.499 14.1025 0
497.678 11.9086 0
500.214 11.8027 0
500.393 16.0842 0
497.857 16.1905 0
498.946 11.8556 0
500.303 13.9434 0
499.125 16.1374 0
497.767 14.0495 0
499.035 13.9965 0
      </DataArray>
    </Points>
    <Cells>
      <DataArray type="Int32" Name="connectivity" format="ascii">
0 1 2 3 4 5 6 7 8 
9 10 11 12 13 14 15 16 17 
18 19 20 21 22 23 24 25 26 
27 28 29 30 31 32 33 34 35 
36 37 38 39 40 41 42 43 44 
45 46 47 48 49 50 51 52 53 
54 55 56 57 58 59 60 61 62 
63 64 65 66 67 68 69 70 71 
72 73 74 75 76 77 78 79 80 
81 82 83 84 85 86 87 88 89 
90 91 92 93 94 95 96 97 98 
99 100 101 102 103 104 105 106 107 
108 109 110 111 112 113 114 115 116 
117 118 119 120 121 122 123 124 125 
126 127 128 129 130 131 132 133 134 
135 136 137 138 139 140 141 142 143 
144 145 146 147 148 149 150 151 152 
153 154 155 156 157 158 159 160 161 
162 163 164 165 166 167 168 169 170 
171 172 173 174 175 176 177 178 179 
180 181 182 183 184 185 186 187 188 
189 190 191 192 193 194 195 196 197 
198 199 200 201 202 203 204 205 206 
207 208 209 210 211 212 213 214 215 
216 217 218 219 220 221 222 223 224 
225 226 227 228 229 230 231 232 233 
234 235 236 237 238 239 240 241 242 
243 244 245 246 247 248 249 250 251 
252 253 254 255 256 257 258 259 260 
261 262 263 264 265 266 267 268 269 
270 271 272 273 274 275 276 277 278 
279 280 281 282 283 284 285 286 287 
288 289 290 291 292 293 294 295 296 
297 298 299 300 301 302 303 304 305 
306 307 308 309 310 311 312 313 314 
315 316 317 318 319 320 321 322 323 
324 325 326 327 328 329 330 331 332 
333 334 335 336 337 338 339 340 341 
342 343 344 345 346 347 348 349 350 
351 352 353 354 355 356 357 358 359 
360 361 362 363 364 365 366 367 368 
369 370 371 372 373 374 375 376 377 
378 379 380 381 382 383 384 385 386 
387 388 389 390 391 392 393 394 395 
396 397 398 399 400 401 402 403 404 
405 406 407 408 409 410 411 412 413 
414 415 416 417 418 419 420 421 422 
423 424 425 426 427 428 429 430 431 
432 433 434 435 436 437 438 439 440 
441 442 443 444 445 446 447 448 449 
450 451 452 453 454 455 456 457 458 
459 460 461 462 463 464 465 466 467 
468 469 470 471 472 473 474 475 476 
477 478 479 480 481 482 483 484 485 
486 487 488 489 490 491 492 493 494 
495 496 497 498 499 500 501 502 503 
504 505 506 507 508 509 510 511 512 
513 514 515 516 517 518 519 520 521 
522 523 524 525 526 527 528 529 530 
531 532 533 534 535 536 537 538 539 
540 541 542 543 544 545 546 547 548 
549 550 551 552 553 554 555 556 557 
558 559 560 561 562 563 564 565 566 
567 568 569 570 571 572 573 574 575 
576 577 578 579 580 581 582 583 584 
585 586 587 588 589 590 591 592 593 
594 595 596 597 598 599 600 601 602 
603 604 605 606 607 608 609 610 611 
612 613 614 615 616 617 618 619 620 
621 622 623 624 625 626 627 628 629 
630 631 632 633 634 635 636 637 638 
639 640 641 642 643 644 645 646 647 
648 649 650 651 652 653 654 655 656 
657 658 659 660 661 662 663 664 665 
666 667 668 669 670 671 672 673 674 
675 676 677 678 679 680 681 682 683 
684 685 686 687 688 689 690 691 692 
693 694 695 696 697 698 699 700 701 
702 703 704 705 706 707 708 709 710 
711 712 713 714 715 716 717 718 719 
720 721 722 723 724 725 726 727 728 
729 730 731 732 733 734 735 736 737 
738 739 740 741 742 743 744 745 746 
747 748 749 750 751 752 753 754 755 
756 757 758 759 760 761 762 763 764 
765 766 767 768 769 770 771 772 773 
774 775 776 777 778 779 780 781 782 
783 784 785 786 787 788 789 790 791 
792 793 794 795 796 797 798 799 800 
801 802 803 804 805 806 807 808 809 
810 811 812 813 814 815 816 817 818 
819 820 821 822 823 824 825 826 827 
828 829 830 831 832 833 834 835 836 
837 838 839 840 841 842 843 844 845 
846 847 848 849 850 851 852 853 854 
855 856 857 858 859 860 861 862 863 
864 865 866 867 868 869 870 871 872 
873 874 875 876 877 878 879 880 881 
882 883 884 885 886 887 888 889 890 
891 892 893 894 895 896 897 898 899 
900 901 902 903 904 905 906 907 908 
909 910 911 912 913 914 915 916 917 
918 919 920 921 922 923 924 925 926 
927 928 929 930 931 932 933 934 935 
936 937 938 939 940 941 942 943 944 
945 946 947 948 949 950 951 952 953 
954 955 956 957 958 959 960 961 962 
963 964 965 966 967 968 969 970 971 
972 973 974 975 976 977 978 979 980 
981 982 983 984 985 986 987 988 989 
990 991 992 993 994 995 996 997 998 
999 1000 1001 1002 1003 1004 1005 1006 1007 
1008 1009 1010 1011 1012 1013 1014 1015 1016 
1017 1018 1019 1020 1021 1022 1023 1024 1025 
1026 1027 1028 1029 1030 1031 1032 1033 1034 
1035 1036 1037 1038 1039 1040 1041 1042 1043 
1044 1045 1046 1047 1048 1049 1050 1051 1052 
1053 1054 1055 1056 1057 1058 1059 1060 1061 
1062 1063 1064 1065 1066 1067 1068 1069 1070 
1071 1072 1073 1074 1075 1076 1077 1078 1079 
1080 1081 1082 1083 1084 1085 1086 1087 1088 
1089 1090 1091 1092 1093 1094 1095 1096 1097 
1098 1099 1100 1101 1102 1103 1104 1105 1106 
1107 1108 1109 1110 1111 1112 1113 1114 1115 
1116 1117 1118 1119 1120 1121 1122 1123 1124 
1125 1126 1127 1128 1129 1130 1131 1132 1133 
1134 1135 1136 1137 1138 1139 1140 1141 1142 
1143 1144 1145 1146 1147 1148 1149 1150 1151 
1152 1153 1154 1155 1156 1157 1158 1159 1160 
1161 1162 1163 1164 1165 1166 1167 1168 1169 
1170 1171 1172 1173 1174 1175 1176 1177 1178 
1179 1180 1181 1182 1183 1184 1185 1186 1187 
1188 1189 1190 1191 1192 1193 1194 1195 1196 
1197 1198 1199 1200 1201 1202 1203 1204 1205 
1206 1207 1208 1209 1210 1211 1212 1213 1214 
1215 1216 1217 1218 1219 1220 1221 1222 1223 
1224 1225 1226 1227 1228 1229 1230 1231 1232 
1233 1234 1235 1236 1237 1238 1239 1240 1241 
1242 1243 1244 1245 1246 1247 1248 1249 1250 
1251 1252 1253 1254 1255 1256 1257 1258 1259 
1260 1261 1262 1263 1264 1265 1266 1267 1268 
1269 1270 1271 1272 1273 1274 1275 1276 1277 
1278 1279 1280 1281 1282 1283 1284 1285 1286 
1287 1288 1289 1290 1291 1292 1293 1294 1295 
1296 1297 1298 1299 1300 1301 1302 1303 1304 
1305 1306 1307 1308 1309 1310 1311 1312 1313 
1314 1315 1316 1317 1318 1319 1320 1321 1322 
1323 1324 1325 1326 1327 1328 1329 1330 1331 
1332 1333 1334 1335 1336 1337 1338 1339 1340 
1341 1342 1343 1344 1345 1346 1347 1348 1349 
1350 1351 1352 1353 1354 1355 1356 1357 1358 
1359 1360 1361 1362 1363 1364 1365 1366 1367 
1368 1369 1370 1371 1372 1373 1374 1375 1376 
1377 1378 1379 1380 1381 1382 1383 1384 1385 
1386 1387 1388 1389 1390 1391 1392 1393 1394 
1395 1396 1397 1398 1399 1400 1401 1402 1403 
1404 1405 1406 1407 1408 1409 1410 1411 1412 
1413 1414 1415 1416 1417 1418 1419 1420 1421 
1422 1423 1424 1425 1426 1427 1428 1429 1430 
1431 1432 1433 1434 1435 1436 1437 1438 1439 
1440 1441 1442 1443 1444 1445 1446 1447 1448 
1449 1450 1451 1452 1453 1454 1455 1456 1457 
1458 1459 1460 1461 1462 1463 1464 1465 1466 
1467 1468 1469 1470 1471 1472 1473 1474 1475 
1476 1477 1478 1479 1480 1481 1482 1483 1484 
1485 1486 1487 1488 1489 1490 1491 1492 1493 
1494 1495 1496 1497 1498 1499 1500 1501 1502 
1503 1504 1505 1506 1507 1508 1509 1510 1511 
1512 1513 1514 1515 1516 1517 1518 1519 1520 
1521 1522 1523 1524 1525 1526 1527 1528 1529 
1530 1531 1532 1533 1534 1535 1536 1537 1538 
1539 1540 1541 1542 1543 1544 1545 1546 1547 
1548 1549 1550 1551 1552 1553 1554 1555 1556 
1557 1558 1559 1560 1561 1562 1563 1564 1565 
1566 1567 1568 1569 1570 1571 1572 1573 1574 
1575 1576 1577 1578 1579 1580 1581 1582 1583 
1584 1585 1586 1587 1588 1589 1590 1591 1592 
1593 1594 1595 1596 1597 1598 1599 1600 1601 
1602 1603 1604 1605 1606 1607 1608 1609 1610 
1611 1612 1613 1614 1615 1616 1617 1618 1619 
1620 1621 1622 1623 1624 1625 1626 1627 1628 
1629 1630 1631 1632 1633 1634 1635 1636 1637 
1638 1639 1640 1641 1642 1643 1644 1645 1646 
1647 1648 1649 1650 1651 1652 1653 1654 1655 
1656 1657 1658 1659 1660 1661 1662 1663 1664 
1665 1666 1667 1668 1669 1670 1671 1672 1673 
1674 1675 1676 1677 1678 1679 1680 1681 1682 
1683 1684 1685 1686 1687 1688 1689 1690 1691 
1692 1693 1694 1695 1696 1697 1698 1699 1700 
1701 1702 1703 1704 1705 1706 1707 1708 1709 
1710 1711 1712 1713 1714 1715 1716 1717 1718 
1719 1720 1721 1722 1723 1724 1725 1726 1727 
1728 1729 1730 1731 1732 1733 1734 1735 1736 
1737 1738 1739 1740 1741 1742 1743 1744 1745 
1746 1747 1748 1749 1750 1751 1752 1753 1754 
1755 1756 1757 1758 1759 1760 1761 1762 1763 
1764 1765 1766 1767 1768 1769 1770 1771 1772 
1773 1774 1775 1776 1777 1778 1779 1780 1781 
1782 1783 1784 1785 1786 1787 1788 1789 1790 
1791 1792 1793 1794 1795 1796 1797 1798 1799 
1800 1801 1802 1803 1804 1805 1806 1807 1808 
1809 1810 1811 1812 1813 1814 1815 1816 1817 
1818 1819 1820 1821 1822 1823 1824 1825 1826 
1827 1828 1829 1830 1831 1832 1833 1834 1835 
1836 1837 1838 1839 1840 1841 1842 1843 1844 
1845 1846 1847 1848 1849 1850 1851 1852 1853 
1854 1855 1856 1857 1858 1859 1860 1861 1862 
1863 1864 1865 1866 1867 1868 1869 1870 1871 
1872 1873 1874 1875 1876 1877 1878 1879 1880 
1881 1882 1883 1884 1885 1886 1887 1888 1889 
1890 1891 1892 1893 1894 1895 1896 1897 1898 
1899 1900 1901 1902 1903 1904 1905 1906 1907 
1908 1909 1910 1911 1912 1913 1914 1915 1916 
1917 1918 1919 1920 1921 1922 1923 1924 1925 
1926 1927 1928 1929 1930 1931 1932 1933 1934 
1935 1936 1937 1938 1939 1940 1941 1942 1943 
1944 1945 1946 1947 1948 1949 1950 1951 1952 
1953 1954 1955 1956 1957 1958 1959 1960 1961 
1962 1963 1964 1965 1966 1967 1968 1969 1970 
1971 1972 1973 1974 1975 1976 1977 1978 1979 
1980 1981 1982 1983 1984 1985 1986 1987 1988 
1989 1990 1991 1992 1993 1994 1995 1996 1997 
1998 1999 2000 2001 2002 2003 2004 2005 2006 
2007 2008 2009 2010 2011 2012 2013 2014 2015 
2016 2017 2018 2019 2020 2021 2022 2023 2024 
2025 2026 2027 2028 2029 2030 2031 2032 2033 
2034 2035 2036 2037 2038 2039 2040 2041 2042 
2043 2044 2045 2046 2047 2048 2049 2050 2051 
2052 2053 2054 2055 2056 2057 2058 2059 2060 
2061 2062 2063 2064 2065 2066 2067 2068 2069 
2070 2071 2072 2073 2074 2075 2076 2077 2078 
2079 2080 2081 2082 2083 2084 2085 2086 2087 
2088 2089 2090 2091 2092 2093 2094 2095 2096 
2097 2098 2099 2100 2101 2102 2103 2104 2105 
2106 2107 2108 2109 2110 2111 2112 2113 2114 
2115 2116 2117 2118 2119 2120 2121 2122 2123 
2124 2125 2126 2127 2128 2129 2130 2131 2132 
2133 2134 2135 2136 2137 2138 2139 2140 2141 
2142 2143 2144 2145 2146 2147 2148 2149 2150 
2151 2152 2153 2154 2155 2156 2157 2158 2159 
2160 2161 2162 2163 2164 2165 2166 2167 2168 
2169 2170 2171 2172 2173 2174 2175 2176 2177 
2178 2179 2180 2181 2182 2183 2184 2185 2186 
2187 2188 2189 2190 2191 2192 2193 2194 2195 
2196 2197 2198 2199 2200 2201 2202 2203 2204 
2205 2206 2207 2208 2209 2210 2211 2212 2213 
2214 2215 2216 2217 2218 2219 2220 2221 2222 
2223 2224 2225 2226 2227 2228 2229 2230 2231 
2232 2233 2234 2235 2236 2237 2238 2239 2240 
2241 2242 2243 2244 2245 2246 2247 2248 2249 
2250 2251 2252 2253 2254 2255 2256 2257 2258 
2259 2260 2261 2262 2263 2264 2265 2266 2267 
2268 2269 2270 2271 2272 2273 2274 2275 2276 
2277 2278 2279 2280 2281 2282 2283 2284 2285 
2286 2287 2288 2289 2290 2291 2292 2293 2294 
2295 2296 2297 2298 2299 2300 2301 2302 2303 
2304 2305 2306 2307 2308 2309 2310 2311 2312 
2313 2314 2315 2316 2317 2318 2319 2320 2321 
2322 2323 2324 2325 2326 2327 2328 2329 2330 
2331 2332 2333 2334 2335 2336 2337 2338 2339 
2340 2341 2342 2343 2344 2345 2346 2347 2348 
2349 2350 2351 2352 2353 2354 2355 2356 2357 
2358 2359 2360 2361 2362 2363 2364 2365 2366 
2367 2368 2369 2370 2371 2372 2373 2374 2375 
2376 2377 2378 2379 2380 2381 2382 2383 2384 
2385 2386 2387 2388 2389 2390 2391 2392 2393 
2394 2395 2396 2397 2398 2399 2400 2401 2402 
2403 2404 2405 2406 2407 2408 2409 2410 2411 
2412 2413 2414 2415 2416 2417 2418 2419 2420 
2421 2422 2423 2424 2425 2426 2427 2428 2429 
2430 2431 2432 2433 2434 2435 2436 2437 2438 
2439 2440 2441 2442 2443 2444 2445 2446 2447 
2448 2449 2450 2451 2452 2453 2454 2455 2456 
2457 2458 2459 2460 2461 2462 2463 2464 2465 
2466 2467 2468 2469 2470 2471 2472 2473 2474 
2475 2476 2477 2478 2479 2480 2481 2482 2483 
2484 2485 2486 2487 2488 2489 2490 2491 2492 
2493 2494 2495 2496 2497 2498 2499 2500 2501 
2502 2503 2504 2505 2506 2507 2508 2509 2510 
2511 2512 2513 2514 2515 2516 2517 2518 2519 
2520 2521 2522 2523 2524 2525 2526 2527 2528 
2529 2530 2531 2532 2533 2534 2535 2536 2537 
2538 2539 2540 2541 2542 2543 2544 2545 2546 
2547 2548 2549 2550 2551 2552 2553 2554 2555 
2556 2557 2558 2559 2560 2561 2562 2563 2564 
2565 2566 2567 2568 2569 2570 2571 2572 2573 
2574 2575 2576 2577 2578 2579 2580 2581 2582 
2583 2584 2585 2586 2587 2588 2589 2590 2591 
2592 2593 2594 2595 2596 2597 2598 2599 2600 
2601 2602 2603 2604 2605 2606 2607 2608 2609 
2610 2611 2612 2613 2614 2615 2616 2617 2618 
2619 2620 2621 2622 2623 2624 2625 2626 2627 
2628 2629 2630 2631 2632 2633 2634 2635 2636 
2637 2638 2639 2640 2641 2642 2643 2644 2645 
2646 2647 2648 2649 2650 2651 2652 2653 2654 
2655 2656 2657 2658 2659 2660 2661 2662 2663 
2664 2665 2666 2667 2668 2669 2670 2671 2672 
2673 2674 2675 2676 2677 2678 2679 2680 2681 
2682 2683 2684 2685 2686 2687 2688 2689 2690 
2691 2692 2693 2694 2695 2696 2697 2698 2699 
2700 2701 2702 2703 2704 2705 2706 2707 2708 
2709 2710 2711 2712 2713 2714 2715 2716 2717 
2718 2719 2720 2721 2722 2723 2724 2725 2726 
2727 2728 2729 2730 2731 2732 2733 2734 2735 
2736 2737 2738 2739 2740 2741 2742 2743 2744 
2745 2746 2747 2748 2749 2750 2751 2752 2753 
2754 2755 2756 2757 2758 2759 2760 2761 2762 
2763 2764 2765 2766 2767 2768 2769 2770 2771 
2772 2773 2774 2775 2776 2777 2778 2779 2780 
2781 2782 2783 2784 2785 2786 2787 2788 2789 
2790 2791 2792 2793 2794 2795 2796 2797 2798 
2799 2800 2801 2802 2803 2804 2805 2806 2807 
2808 2809 2810 2811 2812 2813 2814 2815 2816 
2817 2818 2819 2820 2821 2822 2823 2824 2825 
2826 2827 2828 2829 2830 2831 2832 2833 2834 
2835 2836 2837 2838 2839 2840 2841 2842 2843 
2844 2845 2846 2847 2848 2849 2850 2851 2852 
2853 2854 2855 2856 2857 2858 2859 2860 2861 
2862 2863 2864 2865 2866 2867 2868 2869 2870 
2871 2872 2873 2874 2875 2876 2877 2878 2879 
2880 2881 2882 2883 2884 2885 2886 2887 2888 
2889 2890 2891 2892 2893 2894 2895 2896 2897 
2898 2899 2900 2901 2902 2903 2904 2905 2906 
2907 2908 2909 2910 2911 2912 2913 2914 2915 
2916 2917 2918 2919 2920 2921 2922 2923 2924 
2925 2926 2927 2928 2929 2930 2931 2932 2933 
2934 2935 2936 2937 2938 2939 2940 2941 2942 
2943 2944 2945 2946 2947 2948 2949 2950 2951 
2952 2953 2954 2955 2956 2957 2958 2959 2960 
2961 2962 2963 2964 2965 2966 2967 2968 2969 
2970 2971 2972 2973 2974 2975 2976 2977 2978 
2979 2980 2981 2982 2983 2984 2985 2986 2987 
2988 2989 2990 2991 2992 2993 2994 2995 2996 
2997 2998 2999 3000 3001 3002 3003 3004 3005 
3006 3007 3008 3009 3010 3011 3012 3013 3014 
3015 3016 3017 3018 3019 3020 3021 3022 3023 
3024 3025 3026 3027 3028 3029 3030 3031 3032 
3033 3034 3035 3036 3037 3038 3039 3040 3041 
3042 3043 3044 3045 3046 3047 3048 3049 3050 
3051 3052 3053 3054 3055 3056 3057 3058 3059 
3060 3061 3062 3063 3064 3065 3066 3067 3068 
3069 3070 3071 3072 3073 3074 3075 3076 3077 
3078 3079 3080 3081 3082 3083 3084 3085 3086 
3087 3088 3089 3090 3091 3092 3093 3094 3095 
3096 3097 3098 3099 3100 3101 3102 3103 3104 
3105 3106 3107 3108 3109 3110 3111 3112 3113 
3114 3115 3116 3117 3118 3119 3120 3121 3122 
3123 3124 3125 3126 3127 3128 3129 3130 3131 
3132 3133 3134 3135 3136 3137 3138 3139 3140 
3141 3142 3143 3144 3145 3146 3147 3148 3149 
3150 3151 3152 3153 3154 3155 3156 3157 3158 
3159 3160 3161 3162 3163 3164 3165 3166 3167 
3168 3169 3170 3171 3172 3173 3174 3175 3176 
3177 3178 3179 3180 3181 3182 3183 3184 3185 
3186 3187 3188 3189 3190 3191 3192 3193 3194 
3195 3196 3197 3198 3199 3200 3201 3202 3203 
3204 3205 3206 3207 3208 3209 3210 3211 3212 
3213 3214 3215 3216 3217 3218 3219 3220 3221 
3222 3223 3224 3225 3226 3227 3228 3229 3230 
3231 3232 3233 3234 3235 3236 3237 3238 3239 
3240 3241 3242 3243 3244 3245 3246 3247 3248 
3249 3250 3251 3252 3253 3254 3255 3256 3257 
3258 3259 3260 3261 3262 3263 3264 3265 3266 
3267 3268 3269 3270 3271 3272 3273 3274 3275 
3276 3277 3278 3279 3280 3281 3282 3283 3284 
3285 3286 3287 3288 3289 3290 3291 3292 3293 
3294 3295 3296 3297 3298 3299 3300 3301 3302 
3303 3304 3305 3306 3307 3308 3309 3310 3311 
3312 3313 3314 3315 3316 3317 3318 3319 3320 
3321 3322 3323 3324 3325 3326 3327 3328 3329 
3330 3331 3332 3333 3334 3335 3336 3337 3338 
3339 3340 3341 3342 3343 3344 3345 3346 3347 
3348 3349 3350 3351 3352 3353 3354 3355 3356 
3357 3358 3359 3360 3361 3362 3363 3364 3365 
3366 3367 3368 3369 3370 3371 3372 3373 3374 
3375 3376 3377 3378 3379 3380 3381 3382 3383 
3384 3385 3386 3387 3388 3389 3390 3391 3392 
3393 3394 3395 3396 3397 3398 3399 3400 3401 
3402 3403 3404 3405 3406 3407 3408 3409 3410 
3411 3412 3413 3414 3415 3416 3417 3418 3419 
3420 3421 3422 3423 3424 3425 3426 3427 3428 
3429 3430 3431 3432 3433 3434 3435 3436 3437 
3438 3439 3440 3441 3442 3443 3444 3445 3446 
3447 3448 3449 3450 3451 3452 3453 3454 3455 
3456 3457 3458 3459 3460 3461 3462 3463 3464 
3465 3466 3467 3468 3469 3470 3471 3472 3473 
3474 3475 3476 3477 3478 3479 3480 3481 3482 
3483 3484 3485 3486 3487 3488 3489 3490 3491 
3492 3493 3494 3495 3496 3497 3498 3499 3500 
3501 3502 3503 3504 3505 3506 3507 3508 3509 
3510 3511 3512 3513 3514 3515 3516 3517 3518 
3519 3520 3521 3522 3523 3524 3525 3526 3527 
3528 3529 3530 3531 3532 3533 3534 3535 3536 
3537 3538 3539 3540 3541 3542 3543 3544 3545 
3546 3547 3548 3549 3550 3551 3552 3553 3554 
3555 3556 3557 3558 3559 3560 3561 3562 3563 
3564 3565 3566 3567 3568 3569 3570 3571 3572 
3573 3574 3575 3576 3577 3578 3579 3580 3581 
3582 3583 3584 3585 3586 3587 3588 3589 3590 
3591 3592 3593 3594 3595 3596 3597 3598 3599 
3600 3601 3602 3603 3604 3605 3606 3607 3608 
3609 3610 3611 3612 3613 3614 3615 3616 3617 
3618 3619 3620 3621 3622 3623 3624 3625 3626 
3627 3628 3629 3630 3631 3632 3633 3634 3635 
3636 3637 3638 3639 3640 3641 3642 3643 3644 
3645 3646 3647 3648 3649 3650 3651 3652 3653 
3654 3655 3656 3657 3658 3659 3660 3661 3662 
3663 3664 3665 3666 3667 3668 3669 3670 3671 
3672 3673 3674 3675 3676 3677 3678 3679 3680 
3681 3682 3683 3684 3685 3686 3687 3688 3689 
3690 3691 3692 3693 3694 3695 3696 3697 3698 
3699 3700 3701 3702 3703 3704 3705 3706 3707 
3708 3709 3710 3711 3712 3713 3714 3715 3716 
3717 3718 3719 3720 3721 3722 3723 3724 3725 
3726 3727 3728 3729 3730 3731 3732 3733 3734 
3735 3736 3737 3738 3739 3740 3741 3742 3743 
3744 3745 3746 3747 3748 3749 3750 3751 3752 
3753 3754 3755 3756 3757 3758 3759 3760 3761 
3762 3763 3764 3765 3766 3767 3768 3769 3770 
3771 3772 3773 3774 3775 3776 3777 3778 3779 
3780 3781 3782 3783 3784 3785 3786 3787 3788 
3789 3790 3791 3792 3793 3794 3795 3796 3797 
3798 3799 3800 3801 3802 3803 3804 3805 3806 
3807 3808 3809 3810 3811 3812 3813 3814 3815 
3816 3817 3818 3819 3820 3821 3822 3823 3824 
3825 3826 3827 3828 3829 3830 3831 3832 3833 
3834 3835 3836 3837 3838 3839 3840 3841 3842 
3843 3844 3845 3846 3847 3848 3849 3850 3851 
3852 3853 3854 3855 3856 3857 3858 3859 3860 
3861 3862 3863 3864 3865 3866 3867 3868 3869 
3870 3871 3872 3873 3874 3875 3876 3877 3878 
3879 3880 3881 3882 3883 3884 3885 3886 3887 
3888 3889 3890 3891 3892 3893 3894 3895 3896 
3897 3898 3899 3900 3901 3902 3903 3904 3905 
3906 3907 3908 3909 3910 3911 3912 3913 3914 
3915 3916 3917 3918 3919 3920 3921 3922 3923 
3924 3925 3926 3927 3928 3929 3930 3931 3932 
3933 3934 3935 3936 3937 3938 3939 3940 3941 
3942 3943 3944 3945 3946 3947 3948 3949 3950 
3951 3952 3953 3954 3955 3956 3957 3958 3959 
3960 3961 3962 3963 3964 3965 3966 3967 3968 
3969 3970 3971 3972 3973 3974 3975 3976 3977 
3978 3979 3980 3981 3982 3983 3984 3985 3986 
3987 3988 3989 3990 3991 3992 3993 3994 3995 
3996 3997 3998 3999 4000 4001 4002 4003 4004 
4005 4006 4007 4008 4009 4010 4011 4012 4013 
4014 4015 4016 4017 4018 4019 4020 4021 4022 
4023 4024 4025 4026 4027 4028 4029 4030 4031 
4032 4033 4034 4035 4036 4037 4038 4039 4040 
4041 4042 4043 4044 4045 4046 4047 4048 4049 
4050 4051 4052 4053 4054 4055 4056 4057 4058 
4059 4060 4061 4062 4063 4064 4065 4066 4067 
4068 4069 4070 4071 4072 4073 4074 4075 4076 
4077 4078 4079 4080 4081 4082 4083 4084 4085 
4086 4087 4088 4089 4090 4091 4092 4093 4094 
4095 4096 4097 4098 4099 4100 4101 4102 4103 
4104 4105 4106 4107 4108 4109 4110 4111 4112 
4113 4114 4115 4116 4117 4118 4119 4120 4121 
4122 4123 4124 4125 4126 4127 4128 4129 4130 
4131 4132 4133 4134 4135 4136 4137 4138 4139 
4140 4141 4142 4143 4144 4145 4146 4147 4148 
4149 4150 4151 4152 4153 4154 4155 4156 4157 
4158 4159 4160 4161 4162 4163 4164 4165 4166 
4167 4168 4169 4170 4171 4172 4173 4174 4175 
4176 4177 4178 4179 4180 4181 4182 4183 4184 
4185 4186 4187 4188 4189 4190 4191 4192 4193 
4194 4195 4196 4197 4198 4199 4200 4201 4202 
4203 4204 4205 4206 4207 4208 4209 4210 4211 
4212 4213 4214 4215 4216 4217 4218 4219 4220 
4221 4222 4223 4224 4225 4226 4227 4228 4229 
4230 4231 4232 4233 4234 4235 4236 4237 4238 
4239 4240 4241 4242 4243 4244 4245 4246 4247 
4248 4249 4250 4251 4252 4253 4254 4255 4256 
4257 4258 4259 4260 4261 4262 4263 4264 4265 
4266 4267 4268 4269 4270 4271 4272 4273 4274 
4275 4276 4277 4278 4279 4280 4281 4282 4283 
4284 4285 4286 4287 4288 4289 4290 4291 4292 
4293 4294 4295 4296 4297 4298 4299 4300 4301 
4302 4303 4304 4305 4306 4307 4308 4309 4310 
4311 4312 4313 4314 4315 4316 4317 4318 4319 
4320 4321 4322 4323 4324 4325 4326 4327 4328 
4329 4330 4331 4332 4333 4334 4335 4336 4337 
4338 4339 4340 4341 4342 4343 4344 4345 4346 
4347 4348 4349 4350 4351 4352 4353 4354 4355 
4356 4357 4358 4359 4360 4361 4362 4363 4364 
4365 4366 4367 4368 4369 4370 4371 4372 4373 
4374 4375 4376 4377 4378 4379 4380 4381 4382 
4383 4384 4385 4386 4387 4388 4389 4390 4391 
4392 4393 4394 4395 4396 4397 4398 4399 4400 
4401 4402 4403 4404 4405 4406 4407 4408 4409 
4410 4411 4412 4413 4414 4415 4416 4417 4418 
4419 4420 4421 4422 4423 4424 4425 4426 4427 
4428 4429 4430 4431 4432 4433 4434 4435 4436 
4437 4438 4439 4440 4441 4442 4443 4444 4445 
4446 4447 4448 4449 4450 4451 4452 4453 4454 
4455 4456 4457 4458 4459 4460 4461 4462 4463 
4464 4465 4466 4467 4468 4469 4470 4471 4472 
4473 4474 4475 4476 4477 4478 4479 4480 4481 
4482 4483 4484 4485 4486 4487 4488 4489 4490 
4491 4492 4493 4494 4495 4496 4497 4498 4499 
4500 4501 4502 4503 4504 4505 4506 4507 4508 
4509 4510 4511 4512 4513 4514 4515 4516 4517 
4518 4519 4520 4521 4522 4523 4524 4525 4526 
4527 4528 4529 4530 4531 4532 4533 4534 4535 
4536 4537 4538 4539 4540 4541 4542 4543 4544 
4545 4546 4547 4548 4549 4550 4551 4552 4553 
4554 4555 4556 4557 4558 4559 4560 4561 4562 
4563 4564 4565 4566 4567 4568 4569 4570 4571 
4572 4573 4574 4575 4576 4577 4578 4579 4580 
4581 4582 4583 4584 4585 4586 4587 4588 4589 
4590 4591 4592 4593 4594 4595 4596 4597 4598 
4599 4600 4601 4602 4603 4604 4605 4606 4607 
4608 4609 4610 4611 4612 4613 4614 4615 4616 
4617 4618 4619 4620 4621 4622 4623 4624 4625 
4626 4627 4628 4629 4630 4631 4632 4633 4634 
4635 4636 4637 4638 4639 4640 4641 4642 4643 
4644 4645 4646 4647 4648 4649 4650 4651 4652 
4653 4654 4655 4656 4657 4658 4659 4660 4661 
4662 4663 4664 4665 4666 4667 4668 4669 4670 
4671 4672 4673 4674 4675 4676 4677 4678 4679 
4680 4681 4682 4683 4684 4685 4686 4687 4688 
4689 4690 4691 4692 4693 4694 4695 4696 4697 
4698 4699 4700 4701 4702 4703 4704 4705 4706 
4707 4708 4709 4710 4711 4712 4713 4714 4715 
4716 4717 4718 4719 4720 4721 4722 4723 4724 
4725 4726 4727 4728 4729 4730 4731 4732 4733 
4734 4735 4736 4737 4738 4739 4740 4741 4742 
4743 4744 4745 4746 4747 4748 4749 4750 4751 
4752 4753 4754 4755 4756 4757 4758 4759 4760 
4761 4762 4763 4764 4765 4766 4767 4768 4769 
4770 4771 4772 4773 4774 4775 4776 4777 4778 
4779 4780 4781 4782 4783 4784 4785 4786 4787 
4788 4789 4790 4791 4792 4793 4794 4795 4796 
4797 4798 4799 4800 4801 4802 4803 4804 4805 
4806 4807 4808 4809 4810 4811 4812 4813 4814 
4815 4816 4817 4818 4819 4820 4821 4822 4823 
4824 4825 4826 4827 4828 4829 4830 4831 4832 
4833 4834 4835 4836 4837 4838 4839 4840 4841 
4842 4843 4844 4845 4846 4847 4848 4849 4850 
4851 4852 4853 4854 4855 4856 4857 4858 4859 
4860 4861 4862 4863 4864 4865 4866 4867 4868 
4869 4870 4871 4872 4873 4874 4875 4876 4877 
4878 4879 4880 4881 4882 4883 4884 4885 4886 
4887 4888 4889 4890 4891 4892 4893 4894 4895 
4896 4897 4898 4899 4900 4901 4902 4903 4904 
4905 4906 4907 4908 4909 4910 4911 4912 4913 
4914 4915 4916 4917 4918 4919 4920 4921 4922 
4923 4924 4925 4926 4927 4928 4929 4930 4931 
4932 4933 4934 4935 4936 4937 4938 4939 4940 
4941 4942 4943 4944 4945 4946 4947 4948 4949 
4950 4951 4952 4953 4954 4955 4956 4957 4958 
4959 4960 4961 4962 4963 4964 4965 4966 4967 
4968 4969 4970 4971 4972 4973 4974 4975 4976 
4977 4978 4979 4980 4981 4982 4983 4984 4985 
4986 4987 4988 4989 4990 4991 4992 4993 4994 
4995 4996 4997 4998 4999 5000 5001 5002 5003 
5004 5005 5006 5007 5008 5009 5010 5011 5012 
5013 5014 5015 5016 5017 5018 5019 5020 5021 
5022 5023 5024 5025 5026 5027 5028 5029 5030 
5031 5032 5033 5034 5035 5036 5037 5038 5039 
5040 5041 5042 5043 5044 5045 5046 5047 5048 
5049 5050 5051 5052 5053 5054 5055 5056 5057 
5058 5059 5060 5061 5062 5063 5064 5065 5066 
5067 5068 5069 5070 5071 5072 5073 5074 5075 
5076 5077 5078 5079 5080 5081 5082 5083 5084 
5085 5086 5087 5088 5089 5090 5091 5092 5093 
5094 5095 5096 5097 5098 5099 5100 5101 5102 
5103 5104 5105 5106 5107 5108 5109 5110 5111 
5112 5113 5114 5115 5116 5117 5118 5119 5120 
5121 5122 5123 5124 5125 5126 5127 5128 5129 
5130 5131 5132 5133 5134 5135 5136 5137 5138 
5139 5140 5141 5142 5143 5144 5145 5146 5147 
5148 5149 5150 5151 5152 5153 5154 5155 5156 
5157 5158 5159 5160 5161 5162 5163 5164 5165 
5166 5167 5168 5169 5170 5171 5172 5173 5174 
5175 5176 5177 5178 5179 5180 5181 5182 5183 
5184 5185 5186 5187 5188 5189 5190 5191 5192 
5193 5194 5195 5196 5197 5198 5199 5200 5201 
5202 5203 5204 5205 5206 5207 5208 5209 5210 
5211 5212 5213 5214 5215 5216 5217 5218 5219 
5220 5221 5222 5223 5224 5225 5226 5227 5228 
5229 5230 5231 5232 5233 5234 5235 5236 5237 
5238 5239 5240 5241 5242 5243 5244 5245 5246 
5247 5248 5249 5250 5251 5252 5253 5254 5255 
5256 5257 5258 5259 5260 5261 5262 5263 5264 
5265 5266 5267 5268 5269 5270 5271 5272 5273 
5274 5275 5276 5277 5278 5279 5280 5281 5282 
5283 5284 5285 5286 5287 5288 5289 5290 5291 
5292 5293 5294 5295 5296 5297 5298 5299 5300 
5301 5302 5303 5304 5305 5306 5307 5308 5309 
5310 5311 5312 5313 5314 5315 5316 5317 5318 
5319 5320 5321 5322 5323 5324 5325 5326 5327 
5328 5329 5330 5331 5332 5333 5334 5335 5336 
5337 5338 5339 5340 5341 5342 5343 5344 5345 
5346 5347 5348 5349 5350 5351 5352 5353 5354 
5355 5356 5357 5358 5359 5360 5361 5362 5363 
5364 5365 5366 5367 5368 5369 5370 5371 5372 
5373 5374 5375 5376 5377 5378 5379 5380 5381 
5382 5383 5384 5385 5386 5387 5388 5389 5390 
5391 5392 5393 5394 5395 5396 5397 5398 5399 
5400 5401 5402 5403 5404 5405 5406 5407 5408 
5409 5410 5411 5412 5413 5414 5415 5416 5417 
5418 5419 5420 5421 5422 5423 5424 5425 5426 
5427 5428 5429 5430 5431 5432 5433 5434 5435 
5436 5437 5438 5439 5440 5441 5442 5443 5444 
5445 5446 5447 5448 5449 5450 5451 5452 5453 
5454 5455 5456 5457 5458 5459 5460 5461 5462 
5463 5464 5465 5466 5467 5468 5469 5470 5471 
5472 5473 5474 5475 5476 5477 5478 5479 5480 
5481 5482 5483 5484 5485 5486 5487 5488 5489 
5490 5491 5492 5493 5494 5495 5496 5497 5498 
5499 5500 5501 5502 5503 5504 5505 5506 5507 
5508 5509 5510 5511 5512 5513 5514 5515 5516 
5517 5518 5519 5520 5521 5522 5523 5524 5525 
5526 5527 5528 5529 5530 5531 5532 5533 5534 
5535 5536 5537 5538 5539 5540 5541 5542 5543 
5544 5545 5546 5547 5548 5549 5550 5551 5552 
5553 5554 5555 5556 5557 5558 5559 5560 5561 
5562 5563 5564 5565 5566 5567 5568 5569 5570 
5571 5572 5573 5574 5575 5576 5577 5578 5579 
5580 5581 5582 5583 5584 5585 5586 5587 5588 
5589 5590 5591 5592 5593 5594 5595 5596 5597 
5598 5599 5600 5601 5602 5603 5604 5605 5606 
5607 5608 5609 5610 5611 5612 5613 5614 5615 
5616 5617 5618 5619 5620 5621 5622 5623 5624 
5625 5626 5627 5628 5629 5630 5631 5632 5633 
5634 5635 5636 5637 5638 5639 5640 5641 5642 
5643 5644 5645 5646 5647 5648 5649 5650 5651 
5652 5653 5654 5655 5656 5657 5658 5659 5660 
5661 5662 5663 5664 5665 5666 5667 5668 5669 
5670 5671 5672 5673 5674 5675 5676 5677 5678 
5679 5680 5681 5682 5683 5684 5685 5686 5687 
5688 5689 5690 5691 5692 5693 5694 5695 5696 
5697 5698 5699 5700 5701 5702 5703 5704 5705 
5706 5707 5708 5709 5710 5711 5712 5713 5714 
5715 5716 5717 5718 5719 5720 5721 5722 5723 
5724 5725 5726 5727 5728 5729 5730 5731 5732 
5733 5734 5735 5736 5737 5738 5739 5740 5741 
5742 5743 5744 5745 5746 5747 5748 5749 5750 
5751 5752 5753 5754 5755 5756 5757 5758 5759 
5760 5761 5762 5763 5764 5765 5766 5767 5768 
5769 5770 5771 5772 5773 5774 5775 5776 5777 
5778 5779 5780 5781 5782 5783 5784 5785 5786 
5787 5788 5789 5790 5791 5792 5793 5794 5795 
5796 5797 5798 5799 5800 5801 5802 5803 5804 
5805 5806 5807 5808 5809 5810 5811 5812 5813 
5814 5815 5816 5817 5818 5819 5820 5821 5822 
5823 5824 5825 5826 5827 5828 5829 5830 5831 
5832 5833 5834 5835 5836 5837 5838 5839 5840 
5841 5842 5843 5844 5845 5846 5847 5848 5849 
5850 5851 5852 5853 5854 5855 5856 5857 5858 
5859 5860 5861 5862 5863 5864 5865 5866 5867 
5868 5869 5870 5871 5872 5873 5874 5875 5876 
5877 5878 5879 5880 5881 5882 5883 5884 5885 
5886 5887 5888 5889 5890 5891 5892 5893 5894 
5895 5896 5897 5898 5899 5900 5901 5902 5903 
5904 5905 5906 5907 5908 5909 5910 5911 5912 
5913 5914 5915 5916 5917 5918 5919 5920 5921 
5922 5923 5924 5925 5926 5927 5928 5929 5930 
5931 5932 5933 5934 5935 5936 5937 5938 5939 
5940 5941 5942 5943 5944 5945 5946 5947 5948 
5949 5950 5951 5952 5953 5954 5955 5956 5957 
5958 5959 5960 5961 5962 5963 5964 5965 5966 
5967 5968 5969 5970 5971 5972 5973 5974 5975 
5976 5977 5978 5979 5980 5981 5982 5983 5984 
5985 5986 5987 5988 5989 5990 5991 5992 5993 
5994 5995 5996 5997 5998 5999 6000 6001 6002 
6003 6004 6005 6006 6007 6008 6009 6010 6011 
6012 6013 6014 6015 6016 6017 6018 6019 6020 
6021 6022 6023 6024 6025 6026 6027 6028 6029 
6030 6031 6032 6033 6034 6035 6036 6037 6038 
6039 6040 6041 6042 6043 6044 6045 6046 6047 
6048 6049 6050 6051 6052 6053 6054 6055 6056 
6057 6058 6059 6060 6061 6062 6063 6064 6065 
6066 6067 6068 6069 6070 6071 6072 6073 6074 
6075 6076 6077 6078 6079 6080 6081 6082 6083 
6084 6085 6086 6087 6088 6089 6090 6091 6092 
6093 6094 6095 6096 6097 6098 6099 6100 6101 
6102 6103 6104 6105 6106 6107 6108 6109 6110 
6111 6112 6113 6114 6115 6116 6117 6118 6119 
6120 6121 6122 6123 6124 6125 6126 6127 6128 
6129 6130 6131 6132 6133 6134 6135 6136 6137 
6138 6139 6140 6141 6142 6143 6144 6145 6146 
6147 6148 6149 6150 6151 6152 6153 6154 6155 
6156 6157 6158 6159 6160 6161 6162 6163 6164 
6165 6166 6167 6168 6169 6170 6171 6172 6173 
6174 6175 6176 6177 6178 6179 6180 6181 6182 
6183 6184 6185 6186 6187 6188 6189 6190 6191 
6192 6193 6194 6195 6196 6197 6198 6199 6200 
6201 6202 6203 6204 6205 6206 6207 6208 6209 
6210 6211 6212 6213 6214 6215 6216 6217 6218 
6219 6220 6221 6222 6223 6224 6225 6226 6227 
6228 6229 6230 6231 6232 6233 6234 6235 6236 
6237 6238 6239 6240 6241 6242 6243 6244 6245 
6246 6247 6248 6249 6250 6251 6252 6253 6254 
6255 6256 6257 6258 6259 6260 6261 6262 6263 
6264 6265 6266 6267 6268 6269 6270 6271 6272 
6273 6274 6275 6276 6277 6278 6279 6280 6281 
6282 6283 6284 6285 6286 6287 6288 6289 6290 
6291 6292 6293 6294 6295 6296 6297 6298 6299 
6300 6301 6302 6303 6304 6305 6306 6307 6308 
6309 6310 6311 6312 6313 6314 6315 6316 6317 
6318 6319 6320 6321 6322 6323 6324 6325 6326 
6327 6328 6329 6330 6331 6332 6333 6334 6335 
6336 6337 6338 6339 6340 6341 6342 6343 6344 
6345 6346 6347 6348 6349 6350 6351 6352 6353 
6354 6355 6356 6357 6358 6359 6360 6361 6362 
6363 6364 6365 6366 6367 6368 6369 6370 6371 
6372 6373 6374 6375 6376 6377 6378 6379 6380 
6381 6382 6383 6384 6385 6386 6387 6388 6389 
6390 6391 6392 6393 6394 6395 6396 6397 6398 
6399 6400 6401 6402 6403 6404 6405 6406 6407 
6408 6409 6410 6411 6412 6413 6414 6415 6416 
6417 6418 6419 6420 6421 6422 6423 6424 6425 
6426 6427 6428 6429 6430 6431 6432 6433 6434 
6435 6436 6437 6438 6439 6440 6441 6442 6443 
6444 6445 6446 6447 6448 6449 6450 6451 6452 
6453 6454 6455 6456 6457 6458 6459 6460 6461 
6462 6463 6464 6465 6466 6467 6468 6469 6470 
6471 6472 6473 6474 6475 6476 6477 6478 6479 
6480 6481 6482 6483 6484 6485 6486 6487 6488 
6489 6490 6491 6492 6493 6494 6495 6496 6497 
6498 6499 6500 6501 6502 6503 6504 6505 6506 
6507 6508 6509 6510 6511 6512 6513 6514 6515 
6516 6517 6518 6519 6520 6521 6522 6523 6524 
6525 6526 6527 6528 6529 6530 6531 6532 6533 
6534 6535 6536 6537 6538 6539 6540 6541 6542 
6543 6544 6545 6546 6547 6548 6549 6550 6551 
6552 6553 6554 6555 6556 6557 6558 6559 6560 
6561 6562 6563 6564 6565 6566 6567 6568 6569 
6570 6571 6572 6573 6574 6575 6576 6577 6578 
6579 6580 6581 6582 6583 6584 6585 6586 6587 
6588 6589 6590 6591 6592 6593 6594 6595 6596 
6597 6598 6599 6600 6601 6602 6603 6604 6605 
6606 6607 6608 6609 6610 6611 6612 6613 6614 
6615 6616 6617 6618 6619 6620 6621 6622 6623 
6624 6625 6626 6627 6628 6629 6630 6631 6632 
6633 6634 6635 6636 6637 6638 6639 6640 6641 
6642 6643 6644 6645 6646 6647 6648 6649 6650 
6651 6652 6653 6654 6655 6656 6657 6658 6659 
6660 6661 6662 6663 6664 6665 6666 6667 6668 
6669 6670 6671 6672 6673 6674 6675 6676 6677 
6678 6679 6680 6681 6682 6683 6684 6685 6686 
6687 6688 6689 6690 6691 6692 6693 6694 6695 
6696 6697 6698 6699 6700 6701 6702 6703 6704 
6705 6706 6707 6708 6709 6710 6711 6712 6713 
6714 6715 6716 6717 6718 6719 6720 6721 6722 
6723 6724 6725 6726 6727 6728 6729 6730 6731 
6732 6733 6734 6735 6736 6737 6738 6739 6740 
6741 6742 6743 6744 6745 6746 6747 6748 6749 
6750 6751 6752 6753 6754 6755 6756 6757 6758 
6759 6760 6761 6762 6763 6764 6765 6766 6767 
6768 6769 6770 6771 6772 6773 6774 6775 6776 
6777 6778 6779 6780 6781 6782 6783 6784 6785 
6786 6787 6788 6789 6790 6791 6792 6793 6794 
6795 6796 6797 6798 6799 6800 6801 6802 6803 
6804 6805 6806 6807 6808 6809 6810 6811 6812 
6813 6814 6815 6816 6817 6818 6819 6820 6821 
6822 6823 6824 6825 6826 6827 6828 6829 6830 
6831 6832 6833 6834 6835 6836 6837 6838 6839 
6840 6841 6842 6843 6844 6845 6846 6847 6848 
6849 6850 6851 6852 6853 6854 6855 6856 6857 
6858 6859 6860 6861 6862 6863 6864 6865 6866 
6867 6868 6869 6870 6871 6872 6873 6874 6875 
6876 6877 6878 6879 6880 6881 6882 6883 6884 
6885 6886 6887 6888 6889 6890 6891 6892 6893 
6894 6895 6896 6897 6898 6899 6900 6901 6902 
6903 6904 6905 6906 6907 6908 6909 6910 6911 
6912 6913 6914 6915 6916 6917 6918 6919 6920 
6921 6922 6923 6924 6925 6926 6927 6928 6929 
6930 6931 6932 6933 6934 6935 6936 6937 6938 
6939 6940 6941 6942 6943 6944 6945 6946 6947 
6948 6949 6950 6951 6952 6953 6954 6955 6956 
6957 6958 6959 6960 6961 6962 6963 6964 6965 
6966 6967 6968 6969 6970 6971 6972 6973 6974 
6975 6976 6977 6978 6979 6980 6981 6982 6983 
6984 6985 6986 6987 6988 6989 6990 6991 6992 
6993 6994 6995 6996 6997 6998 6999 7000 7001 
7002 7003 7004 7005 7006 7007 7008 7009 7010 
7011 7012 7013 7014 7015 7016 7017 7018 7019 
7020 7021 7022 7023 7024 7025 7026 7027 7028 
7029 7030 7031 7032 7033 7034 7035 7036 7037 
7038 7039 7040 7041 7042 7043 7044 7045 7046 
7047 7048 7049 7050 7051 7052 7053 7054 7055 
7056 7057 7058 7059 7060 7061 7062 7063 7064 
7065 7066 7067 7068 7069 7070 7071 7072 7073 
7074 7075 7076 7077 7078 7079 7080 7081 7082 
7083 7084 7085 7086 7087 7088 7089 7090 7091 
7092 7093 7094 7095 7096 7097 7098 7099 7100 
7101 7102 7103 7104 7105 7106 7107 7108 7109 
7110 7111 7112 7113 7114 7115 7116 7117 7118 
7119 7120 7121 7122 7123 7124 7125 7126 7127 
7128 7129 7130 7131 7132 7133 7134 7135 7136 
7137 7138 7139 7140 7141 7142 7143 7144 7145 
7146 7147 7148 7149 7150 7151 7152 7153 7154 
7155 7156 7157 7158 7159 7160 7161 7162 7163 
7164 7165 7166 7167 7168 7169 7170 7171 7172 
7173 7174 7175 7176 7177 7178 7179 7180 7181 
7182 7183 7184 7185 7186 7187 7188 7189 7190 
7191 7192 7193 7194 7195 7196 7197 7198 7199 
7200 7201 7202 7203 7204 7205 7206 7207 7208 
7209 7210 7211 7212 7213 7214 7215 7216 7217 
7218 7219 7220 7221 7222 7223 7224 7225 7226 
7227 7228 7229 7230 7231 7232 7233 7234 7235 
7236 7237 7238 7239 7240 7241 7242 7243 7244 
7245 7246 7247 7248 7249 7250 7251 7252 7253 
7254 7255 7256 7257 7258 7259 7260 7261 7262 
7263 7264 7265 7266 7267 7268 7269 7270 7271 
7272 7273 7274 7275 7276 7277 7278 7279 7280 
7281 7282 7283 7284 7285 7286 7287 7288 7289 
7290 7291 7292 7293 7294 7295 7296 7297 7298 
7299 7300 7301 7302 7303 7304 7305 7306 7307 
7308 7309 7310 7311 7312 7313 7314 7315 7316 
7317 7318 7319 7320 7321 7322 7323 7324 7325 
7326 7327 7328 7329 7330 7331 7332 7333 7334 
7335 7336 7337 7338 7339 7340 7341 7342 7343 
7344 7345 7346 7347 7348 7349 7350 7351 7352 
7353 7354 7355 7356 7357 7358 7359 7360 7361 
7362 7363 7364 7365 7366 7367 7368 7369 7370 
7371 7372 7373 7374 7375 7376 7377 7378 7379 
7380 7381 7382 7383 7384 7385 7386 7387 7388 
7389 7390 7391 7392 7393 7394 7395 7396 7397 
7398 7399 7400 7401 7402 7403 7404 7405 7406 
7407 7408 7409 7410 7411 7412 7413 7414 7415 
7416 7417 7418 7419 7420 7421 7422 7423 7424 
7425 7426 7427 7428 7429 7430 7431 7432 7433 
7434 7435 7436 7437 7438 7439 7440 7441 7442 
7443 7444 7445 7446 7447 7448 7449 7450 7451 
7452 7453 7454 7455 7456 7457 7458 7459 7460 
7461 7462 7463 7464 7465 7466 7467 7468 7469 
7470 7471 7472 7473 7474 7475 7476 7477 7478 
7479 7480 7481 7482 7483 7484 7485 7486 7487 
7488 7489 7490 7491 7492 7493 7494 7495 7496 
7497 7498 7499 7500 7501 7502 7503 7504 7505 
7506 7507 7508 7509 7510 7511 7512 7513 7514 
7515 7516 7517 7518 7519 7520 7521 7522 7523 
7524 7525 7526 7527 7528 7529 7530 7531 7532 
7533 7534 7535 7536 7537 7538 7539 7540 7541 
7542 7543 7544 7545 7546 7547 7548 7549 7550 
7551 7552 7553 7554 7555 7556 7557 7558 7559 
7560 7561 7562 7563 7564 7565 7566 7567 7568 
7569 7570 7571 7572 7573 7574 7575 7576 7577 
7578 7579 7580 7581 7582 7583 7584 7585 7586 
7587 7588 7589 7590 7591 7592 7593 7594 7595 
7596 7597 7598 7599 7600 7601 7602 7603 7604 
7605 7606 7607 7608 7609 7610 7611 7612 7613 
7614 7615 7616 7617 7618 7619 7620 7621 7622 
7623 7624 7625 7626 7627 7628 7629 7630 7631 
7632 7633 7634 7635 7636 7637 7638 7639 7640 
7641 7642 7643 7644 7645 7646 7647 7648 7649 
7650 7651 7652 7653 7654 7655 7656 7657 7658 
7659 7660 7661 7662 7663 7664 7665 7666 7667 
7668 7669 7670 7671 7672 7673 7674 7675 7676 
7677 7678 7679 7680 7681 7682 7683 7684 7685 
7686 7687 7688 7689 7690 7691 7692 7693 7694 
7695 7696 7697 7698 7699 7700 7701 7702 7703 
7704 7705 7706 7707 7708 7709 7710 7711 7712 
7713 7714 7715 7716 7717 7718 7719 7720 7721 
7722 7723 7724 7725 7726 7727 7728 7729 7730 
7731 7732 7733 7734 7735 7736 7737 7738 7739 
7740 7741 7742 7743 7744 7745 7746 7747 7748 
7749 7750 7751 7752 7753 7754 7755 7756 7757 
7758 7759 7760 7761 7762 7763 7764 7765 7766 
7767 7768 7769 7770 7771 7772 7773 7774 7775 
7776 7777 7778 7779 7780 7781 7782 7783 7784 
7785 7786 7787 7788 7789 7790 7791 7792 7793 
7794 7795 7796 7797 7798 7799 7800 7801 7802 
7803 7804 7805 7806 7807 7808 7809 7810 7811 
7812 7813 7814 7815 7816 7817 7818 7819 7820 
7821 7822 7823 7824 7825 7826 7827 7828 7829 
7830 7831 7832 7833 7834 7835 7836 7837 7838 
7839 7840 7841 7842 7843 7844 7845 7846 7847 
7848 7849 7850 7851 7852 7853 7854 7855 7856 
7857 7858 7859 7860 7861 7862 7863 7864 7865 
7866 7867 7868 7869 7870 7871 7872 7873 7874 
7875 7876 7877 7878 7879 7880 7881 7882 7883 
7884 7885 7886 7887 7888 7889 7890 7891 7892 
7893 7894 7895 7896 7897 7898 7899 7900 7901 
7902 7903 7904 7905 7906 7907 7908 7909 7910 
7911 7912 7913 7914 7915 7916 7917 7918 7919 
7920 7921 7922 7923 7924 7925 7926 7927 7928 
7929 7930 7931 7932 7933 7934 7935 7936 7937 
7938 7939 7940 7941 7942 7943 7944 7945 7946 
7947 7948 7949 7950 7951 7952 7953 7954 7955 
7956 7957 7958 7959 7960 7961 7962 7963 7964 
7965 7966 7967 7968 7969 7970 7971 7972 7973 
7974 7975 7976 7977 7978 7979 7980 7981 7982 
7983 7984 7985 7986 7987 7988 7989 7990 7991 
7992 7993 7994 7995 7996 7997 7998 7999 8000 
8001 8002 8003 8004 8005 8006 8007 8008 8009 
8010 8011 8012 8013 8014 8015 8016 8017 8018 
8019 8020 8021 8022 8023 8024 8025 8026 8027 
8028 8029 8030 8031 8032 8033 8034 8035 8036 
8037 8038 8039 8040 8041 8042 8043 8044 8045 
8046 8047 8048 8049 8050 8051 8052 8053 8054 
8055 8056 8057 8058 8059 8060 8061 8062 8063 
8064 8065 8066 8067 8068 8069 8070 8071 8072 
8073 8074 8075 8076 8077 8078 8079 8080 8081 
8082 8083 8084 8085 8086 8087 8088 8089 8090 
8091 8092 8093 8094 8095 8096 8097 8098 8099 
8100 8101 8102 8103 8104 8105 8106 8107 8108 
8109 8110 8111 8112 8113 8114 8115 8116 8117 
8118 8119 8120 8121 8122 8123 8124 8125 8126 
8127 8128 8129 8130 8131 8132 8133 8134 8135 
8136 8137 8138 8139 8140 8141 8142 8143 8144 
8145 8146 8147 8148 8149 8150 8151 8152 8153 
8154 8155 8156 8157 8158 8159 8160 8161 8162 
8163 8164 8165 8166 8167 8168 8169 8170 8171 
8172 8173 8174 8175 8176 8177 8178 8179 8180 
8181 8182 8183 8184 8185 8186 8187 8188 8189 
8190 8191 8192 8193 8194 8195 8196 8197 8198 
8199 8200 8201 8202 8203 8204 8205 8206 8207 
8208 8209 8210 8211 8212 8213 8214 8215 8216 
8217 8218 8219 8220 8221 8222 8223 8224 8225 
8226 8227 8228 8229 8230 8231 8232 8233 8234 
8235 8236 8237 8238 8239 8240 8241 8242 8243 
8244 8245 8246 8247 8248 8249 8250 8251 8252 
8253 8254 8255 8256 8257 8258 8259 8260 8261 
8262 8263 8264 8265 8266 8267 8268 8269 8270 
8271 8272 8273 8274 8275 8276 8277 8278 8279 
8280 8281 8282 8283 8284 8285 8286 8287 8288 
8289 8290 8291 8292 8293 8294 8295 8296 8297 
8298 8299 8300 8301 8302 8303 8304 8305 8306 
8307 8308 8309 8310 8311 8312 8313 8314 8315 
8316 8317 8318 8319 8320 8321 8322 8323 8324 
8325 8326 8327 8328 8329 8330 8331 8332 8333 
8334 8335 8336 8337 8338 8339 8340 8341 8342 
8343 8344 8345 8346 8347 8348 8349 8350 8351 
8352 8353 8354 8355 8356 8357 8358 8359 8360 
8361 8362 8363 8364 8365 8366 8367 8368 8369 
8370 8371 8372 8373 8374 8375 8376 8377 8378 
8379 8380 8381 8382 8383 8384 8385 8386 8387 
8388 8389 8390 8391 8392 8393 8394 8395 8396 
8397 8398 8399 8400 8401 8402 8403 8404 8405 
8406 8407 8408 8409 8410 8411 8412 8413 8414 
8415 8416 8417 8418 8419 8420 8421 8422 8423 
8424 8425 8426 8427 8428 8429 8430 8431 8432 
8433 8434 8435 8436 8437 8438 8439 8440 8441 
8442 8443 8444 8445 8446 8447 8448 8449 8450 
8451 8452 8453 8454 8455 8456 8457 8458 8459 
8460 8461 8462 8463 8464 8465 8466 8467 8468 
8469 8470 8471 8472 8473 8474 8475 8476 8477 
8478 8479 8480 8481 8482 8483 8484 8485 8486 
8487 8488 8489 8490 8491 8492 8493 8494 8495 
8496 8497 8498 8499 8500 8501 8502 8503 8504 
8505 8506 8507 8508 8509 8510 8511 8512 8513 
8514 8515 8516 8517 8518 8519 8520 8521 8522 
8523 8524 8525 8526 8527 8528 8529 8530 8531 
8532 8533 8534 8535 8536 8537 8538 8539 8540 
8541 8542 8543 8544 8545 8546 8547 8548 8549 
8550 8551 8552 8553 8554 8555 8556 8557 8558 
8559 8560 8561 8562 8563 8564 8565 8566 8567 
8568 8569 8570 8571 8572 8573 8574 8575 8576 
8577 8578 8579 8580 8581 8582 8583 8584 8585 
8586 8587 8588 8589 8590 8591 8592 8593 8594 
8595 8596 8597 8598 8599 8600 8601 8602 8603 
8604 8605 8606 8607 8608 8609 8610 8611 8612 
8613 8614 8615 8616 8617 8618 8619 8620 8621 
8622 8623 8624 8625 8626 8627 8628 8629 8630 
8631 8632 8633 8634 8635 8636 8637 8638 8639 
8640 8641 8642 8643 8644 8645 8646 8647 8648 
8649 8650 8651 8652 8653 8654 8655 8656 8657 
8658 8659 8660 8661 8662 8663 8664 8665 8666 
8667 8668 8669 8670 8671 8672 8673 8674 8675 
8676 8677 8678 8679 8680 8681 8682 8683 8684 
8685 8686 8687 8688 8689 8690 8691 8692 8693 
8694 8695 8696 8697 8698 8699 8700 8701 8702 
8703 8704 8705 8706 8707 8708 8709 8710 8711 
8712 8713 8714 8715 8716 8717 8718 8719 8720 
8721 8722 8723 8724 8725 8726 8727 8728 8729 
8730 8731 8732 8733 8734 8735 8736 8737 8738 
8739 8740 8741 8742 8743 8744 8745 8746 8747 
8748 8749 8750 8751 8752 8753 8754 8755 8756 
8757 8758 8759 8760 8761 8762 8763 8764 8765 
8766 8767 8768 8769 8770 8771 8772 8773 8774 
8775 8776 8777 8778 8779 8780 8781 8782 8783 
8784 8785 8786 8787 8788 8789 8790 8791 8792 
8793 8794 8795 8796 8797 8798 8799 8800 8801 
8802 8803 8804 8805 8806 8807 8808 8809 8810 
8811 8812 8813 8814 8815 8816 8817 8818 8819 
8820 8821 8822 8823 8824 8825 8826 8827 8828 
8829 8830 8831 8832 8833 8834 8835 8836 8837 
8838 8839 8840 8841 8842 8843 8844 8845 8846 
8847 8848 8849 8850 8851 8852 8853 8854 8855 
8856 8857 8858 8859 8860 8861 8862 8863 8864 
8865 8866 8867 8868 8869 8870 8871 8872 8873 
8874 8875 8876 8877 8878 8879 8880 8881 8882 
8883 8884 8885 8886 8887 8888 8889 8890 8891 
8892 8893 8894 8895 8896 8897 8898 8899 8900 
8901 8902 8903 8904 8905 8906 8907 8908 8909 
8910 8911 8912 8913 8914 8915 8916 8917 8918 
8919 8920 8921 8922 8923 8924 8925 8926 8927 
8928 8929 8930 8931 8932 8933 8934 8935 8936 
8937 8938 8939 8940 8941 8942 8943 8944 8945 
8946 8947 8948 8949 8950 8951 8952 8953 8954 
8955 8956 8957 8958 8959 8960 8961 8962 8963 
8964 8965 8966 8967 8968 8969 8970 8971 8972 
8973 8974 8975 8976 8977 8978 8979 8980 8981 
8982 8983 8984 8985 8986 8987 8988 8989 8990 
8991 8992 8993 8994 8995 8996 8997 8998 8999 
9000 9001 9002 9003 9004 9005 9006 9007 9008 
9009 9010 9011 9012 9013 9014 9015 9016 9017 
9018 9019 9020 9021 9022 9023 9024 9025 9026 
9027 9028 9029 9030 9031 9032 9033 9034 9035 
9036 9037 9038 9039 9040 9041 9042 9043 9044 
9045 9046 9047 9048 9049 9050 9051 9052 9053 
9054 9055 9056 9057 9058 9059 9060 9061 9062 
9063 9064 9065 9066 9067 9068 9069 9070 9071 
9072 9073 9074 9075 9076 9077 9078 9079 9080 
9081 9082 9083 9084 9085 9086 9087 9088 9089 
9090 9091 9092 9093 9094 9095 9096 9097 9098 
9099 9100 9101 9102 9103 9104 9105 9106 9107 
9108 9109 9110 9111 9112 9113 9114 9115 9116 
9117 9118 9119 9120 9121 9122 9123 9124 9125 
9126 9127 9128 9129 9130 9131 9132 9133 9134 
9135 9136 9137 9138 9139 9140 9141 9142 9143 
9144 9145 9146 9147 9148 9149 9150 9151 9152 
9153 9154 9155 9156 9157 9158 9159 9160 9161 
9162 9163 9164 9165 9166 9167 9168 9169 9170 
9171 9172 9173 9174 9175 9176 9177 9178 9179 
9180 9181 9182 9183 9184 9185 9186 9187 9188 
9189 9190 9191 9192 9193 9194 9195 9196 9197 
9198 9199 9200 9201 9202 9203 9204 9205 9206 
9207 9208 9209 9210 9211 9212 9213 9214 9215 
9216 9217 9218 9219 9220 9221 9222 9223 9224 
9225 9226 9227 9228 9229 9230 9231 9232 9233 
9234 9235 9236 9237 9238 9239 9240 9241 9242 
9243 9244 9245 9246 9247 9248 9249 9250 9251 
9252 9253 9254 9255 9256 9257 9258 9259 9260 
9261 9262 9263 9264 9265 9266 9267 9268 9269 
9270 9271 9272 9273 9274 9275 9276 9277 9278 
9279 9280 9281 9282 9283 9284 9285 9286 9287 
9288 9289 9290 9291 9292 9293 9294 9295 9296 
9297 9298 9299 9300 9301 9302 9303 9304 9305 
9306 9307 9308 9309 9310 9311 9312 9313 9314 
9315 9316 9317 9318 9319 9320 9321 9322 9323 
9324 9325 9326 9327 9328 9329 9330 9331 9332 
9333 9334 9335 9336 9337 9338 9339 9340 9341 
9342 9343 9344 9345 9346 9347 9348 9349 9350 
9351 9352 9353 9354 9355 9356 9357 9358 9359 
9360 9361 9362 9363 9364 9365 9366 9367 9368 
9369 9370 9371 9372 9373 9374 9375 9376 9377 
9378 9379 9380 9381 9382 9383 9384 9385 9386 
9387 9388 9389 9390 9391 9392 9393 9394 9395 
9396 9397 9398 9399 9400 9401 9402 9403 9404 
9405 9406 9407 9408 9409 9410 9411 9412 9413 
9414 9415 9416 9417 9418 9419 9420 9421 9422 
9423 9424 9425 9426 9427 9428 9429 9430 9431 
9432 9433 9434 9435 9436 9437 9438 9439 9440 
9441 9442 9443 9444 9445 9446 9447 9448 9449 
9450 9451 9452 9453 9454 9455 9456 9457 9458 
9459 9460 9461 9462 9463 9464 9465 9466 9467 
9468 9469 9470 9471 9472 9473 9474 9475 9476 
9477 9478 9479 9480 9481 9482 9483 9484 9485 
9486 9487 9488 9489 9490 9491 9492 9493 9494 
9495 9496 9497 9498 9499 9500 9501 9502 9503 
9504 9505 9506 9507 9508 9509 9510 9511 9512 
9513 9514 9515 9516 9517 9518 9519 9520 9521 
9522 9523 9524 9525 9526 9527 9528 9529 9530 
9531 9532 9533 9534 9535 9536 9537 9538 9539 
9540 9541 9542 9543 9544 9545 9546 9547 9548 
9549 9550 9551 9552 9553 9554 9555 9556 9557 
9558 9559 9560 9561 9562 9563 9564 9565 9566 
9567 9568 9569 9570 9571 9572 9573 9574 9575 
9576 9577 9578 9579 9580 9581 9582 9583 9584 
9585 9586 9587 9588 9589 9590 9591 9592 9593 
9594 9595 9596 9597 9598 9599 9600 9601 9602 
9603 9604 9605 9606 9607 9608 9609 9610 9611 
9612 9613 9614 9615 9616 9617 9618 9619 9620 
9621 9622 9623 9624 9625 9626 9627 9628 9629 
9630 9631 9632 9633 9634 9635 9636 9637 9638 
9639 9640 9641 9642 9643 9644 9645 9646 9647 
9648 9649 9650 9651 9652 9653 9654 9655 9656 
9657 9658 9659 9660 9661 9662 9663 9664 9665 
9666 9667 9668 9669 9670 9671 9672 9673 9674 
9675 9676 9677 9678 9679 9680 9681 9682 9683 
9684 9685 9686 9687 9688 9689 9690 9691 9692 
9693 9694 9695 9696 9697 9698 9699 9700 9701 
9702 9703 9704 9705 9706 9707 9708 9709 9710 
9711 9712 9713 9714 9715 9716 9717 9718 9719 
9720 9721 9722 9723 9724 9725 9726 9727 9728 
9729 9730 9731 9732 9733 9734 9735 9736 9737 
9738 9739 9740 9741 9742 9743 9744 9745 9746 
9747 9748 9749 9750 9751 9752 9753 9754 9755 
9756 9757 9758 9759 9760 9761 9762 9763 9764 
9765 9766 9767 9768 9769 9770 9771 9772 9773 
9774 9775 9776 9777 9778 9779 9780 9781 9782 
9783 9784 9785 9786 9787 9788 9789 9790 9791 
9792 9793 9794 9795 9796 9797 9798 9799 9800 
9801 9802 9803 9804 9805 9806 9807 9808 9809 
9810 9811 9812 9813 9814 9815 9816 9817 9818 
9819 9820 9821 9822 9823 9824 9825 9826 9827 
9828 9829 9830 9831 9832 9833 9834 9835 9836 
9837 9838 9839 9840 9841 9842 9843 9844 9845 
9846 9847 9848 9849 9850 9851 9852 9853 9854 
9855 9856 9857 9858 9859 9860 9861 9862 9863 
9864 9865 9866 9867 9868 9869 9870 9871 9872 
9873 9874 9875 9876 9877 9878 9879 9880 9881 
9882 9883 9884 9885 9886 9887 9888 9889 9890 
9891 9892 9893 9894 9895 9896 9897 9898 9899 
9900 9901 9902 9903 9904 9905 9906 9907 9908 
9909 9910 9911 9912 9913 9914 9915 9916 9917 
9918 9919 9920 9921 9922 9923 9924 9925 9926 
9927 9928 9929 9930 9931 9932 9933 9934 9935 
9936 9937 9938 9939 9940 9941 9942 9943 9944 
9945 9946 9947 9948 9949 9950 9951 9952 9953 
9954 9955 9956 9957 9958 9959 9960 9961 9962 
9963 9964 9965 9966 9967 9968 9969 9970 9971 
9972 9973 9974 9975 9976 9977 9978 9979 9980 
9981 9982 9983 9984 9985 9986 9987 9988 9989 
9990 9991 9992 9993 9994 9995 9996 9997 9998 
9999 10000 10001 10002 10003 10004 10005 10006 10007 
10008 10009 10010 10011 10012 10013 10014 10015 10016 
10017 10018 10019 10020 10021 10022 10023 10024 10025 
10026 10027 10028 10029 10030 10031 10032 10033 10034 
10035 10036 10037 10038 10039 10040 10041 10042 10043 
10044 10045 10046 10047 10048 10049 10050 10051 10052 
10053 10054 10055 10056 10057 10058 10059 10060 10061 
10062 10063 10064 10065 10066 10067 10068 10069 10070 
10071 10072 10073 10074 10075 10076 10077 10078 10079 
10080 10081 10082 10083 10084 10085 10086 10087 10088 
10089 10090 10091 10092 10093 10094 10095 10096 10097 
10098 10099 10100 10101 10102 10103 10104 10105 10106 
10107 10108 10109 10110 10111 10112 10113 10114 10115 
10116 10117 10118 10119 10120 10121 10122 10123 10124 
10125 10126 10127 10128 10129 10130 10131 10132 10133 
10134 10135 10136 10137 10138 10139 10140 10141 10142 
10143 10144 10145 10146 10147 10148 10149 10150 10151 
10152 10153 10154 10155 10156 10157 10158 10159 10160 
10161 10162 10163 10164 10165 10166 10167 10168 10169 
10170 10171 10172 10173 10174 10175 10176 10177 10178 
10179 10180 10181 10182 10183 10184 10185 10186 10187 
10188 10189 10190 10191 10192 10193 10194 10195 10196 
10197 10198 10199 10200 10201 10202 10203 10204 10205 
10206 10207 10208 10209 10210 10211 10212 10213 10214 
10215 10216 10217 10218 10219 10220 10221 10222 10223 
10224 10225 10226 10227 10228 10229 10230 10231 10232 
10233 10234 10235 10236 10237 10238 10239 10240 10241 
10242 10243 10244 10245 10246 10247 10248 10249 10250 
10251 10252 10253 10254 10255 10256 10257 10258 10259 
10260 10261 10262 10263 10264 10265 10266 10267 10268 
10269 10270 10271 10272 10273 10274 10275 10276 10277 
10278 10279 10280 10281 10282 10283 10284 10285 10286 
10287 10288 10289 10290 10291 10292 10293 10294 10295 
10296 10297 10298 10299 10300 10301 10302 10303 10304 
10305 10306 10307 10308 10309 10310 10311 10312 10313 
10314 10315 10316 10317 10318 10319 10320 10321 10322 
10323 10324 10325 10326 10327 10328 10329 10330 10331 
10332 10333 10334 10335 10336 10337 10338 10339 10340 
10341 10342 10343 10344 10345 10346 10347 10348 10349 
10350 10351 10352 10353 10354 10355 10356 10357 10358 
10359 10360 10361 10362 10363 10364 10365 10366 10367 
10368 10369 10370 10371 10372 10373 10374 10375 10376 
10377 10378 10379 10380 10381 10382 10383 10384 10385 
10386 10387 10388 10389 10390 10391 10392 10393 10394 
10395 10396 10397 10398 10399 10400 10401 10402 10403 
10404 10405 10406 10407 10408 10409 10410 10411 10412 
10413 10414 10415 10416 10417 10418 10419 10420 10421 
10422 10423 10424 10425 10426 10427 10428 10429 10430 
10431 10432 10433 10434 10435 10436 10437 10438 10439 
10440 10441 10442 10443 10444 10445 10446 10447 10448 
10449 10450 10451 10452 10453 10454 10455 10456 10457 
10458 10459 10460 10461 10462 10463 10464 10465 10466 
10467 10468 10469 10470 10471 10472 10473 10474 10475 
10476 10477 10478 10479 10480 10481 10482 10483 10484 
10485 10486 10487 10488 10489 10490 10491 10492 10493 
10494 10495 10496 10497 10498 10499 10500 10501 10502 
10503 10504 10505 10506 10507 10508 10509 10510 10511 
10512 10513 10514 10515 10516 10517 10518 10519 10520 
10521 10522 10523 10524 10525 10526 10527 10528 10529 
10530 10531 10532 10533 10534 10535 10536 10537 10538 
10539 10540 10541 10542 10543 10544 10545 10546 10547 
10548 10549 10550 10551 10552 10553 10554 10555 10556 
10557 10558 10559 10560 10561 10562 10563 10564 10565 
10566 10567 10568 10569 10570 10571 10572 10573 10574 
10575 10576 10577 10578 10579 10580 10581 10582 10583 
10584 10585 10586 10587 10588 10589 10590 10591 10592 
10593 10594 10595 10596 10597 10598 10599 10600 10601 
10602 10603 10604 10605 10606 10607 10608 10609 10610 
10611 10612 10613 10614 10615 10616 10617 10618 10619 
10620 10621 10622 10623 10624 10625 10626 10627 10628 
10629 10630 10631 10632 10633 10634 10635 10636 10637 
10638 10639 10640 10641 10642 10643 10644 10645 10646 
10647 10648 10649 10650 10651 10652 10653 10654 10655 
10656 10657 10658 10659 10660 10661 10662 10663 10664 
10665 10666 10667 10668 10669 10670 10671 10672 10673 
10674 10675 10676 10677 10678 10679 10680 10681 10682 
10683 10684 10685 10686 10687 10688 10689 10690 10691 
10692 10693 10694 10695 10696 10697 10698 10699 10700 
10701 10702 10703 10704 10705 10706 10707 10708 10709 
10710 10711 10712 10713 10714 10715 10716 10717 10718 
10719 10720 10721 10722 10723 10724 10725 10726 10727 
10728 10729 10730 10731 10732 10733 10734 10735 10736 
10737 10738 10739 10740 10741 10742 10743 10744 10745 
10746 10747 10748 10749 10750 10751 10752 10753 10754 
10755 10756 10757 10758 10759 10760 10761 10762 10763 
10764 10765 10766 10767 10768 10769 10770 10771 10772 
10773 10774 10775 10776 10777 10778 10779 10780 10781 
10782 10783 10784 10785 10786 10787 10788 10789 10790 
10791 10792 10793 10794 10795 10796 10797 10798 10799 
10800 10801 10802 10803 10804 10805 10806 10807 10808 
10809 10810 10811 10812 10813 10814 10815 10816 10817 
10818 10819 10820 10821 10822 10823 10824 10825 10826 
10827 10828 10829 10830 10831 10832 10833 10834 10835 
10836 10837 10838 10839 10840 10841 10842 10843 10844 
10845 10846 10847 10848 10849 10850 10851 10852 10853 
10854 10855 10856 10857 10858 10859 10860 10861 10862 
10863 10864 10865 10866 10867 10868 10869 10870 10871 
10872 10873 10874 10875 10876 10877 10878 10879 10880 
10881 10882 10883 10884 10885 10886 10887 10888 10889 
10890 10891 10892 10893 10894 10895 10896 10897 10898 
10899 10900 10901 10902 10903 10904 10905 10906 10907 
10908 10909 10910 10911 10912 10913 10914 10915 10916 
10917 10918 10919 10920 10921 10922 10923 10924 10925 
10926 10927 10928 10929 10930 10931 10932 10933 10934 
10935 10936 10937 10938 10939 10940 10941 10942 10943 
10944 10945 10946 10947 10948 10949 10950 10951 10952 
10953 10954 10955 10956 10957 10958 10959 10960 10961 
10962 10963 10964 10965 10966 10967 10968 10969 10970 
10971 10972 10973 10974 10975 10976 10977 10978 10979 
10980 10981 10982 10983 10984 10985 10986 10987 10988 
10989 10990 10991 10992 10993 10994 10995 10996 10997 
10998 10999 11000 11001 11002 11003 11004 11005 11006 
11007 11008 11009 11010 11011 11012 11013 11014 11015 
11016 11017 11018 11019 11020 11021 11022 11023 11024 
11025 11026 11027 11028 11029 11030 11031 11032 11033 
11034 11035 11036 11037 11038 11039 11040 11041 11042 
11043 11044 11045 11046 11047 11048 11049 11050 11051 
11052 11053 11054 11055 11056 11057 11058 11059 11060 
11061 11062 11063 11064 11065 11066 11067 11068 11069 
11070 11071 11072 11073 11074 11075 11076 11077 11078 
11079 11080 11081 11082 11083 11084 11085 11086 11087 
11088 11089 11090 11091 11092 11093 11094 11095 11096 
11097 11098 11099 11100 11101 11102 11103 11104 11105 
11106 11107 11108 11109 11110 11111 11112 11113 11114 
11115 11116 11117 11118 11119 11120 11121 11122 11123 
11124 11125 11126 11127 11128 11129 11130 11131 11132 
11133 11134 11135 11136 11137 11138 11139 11140 11141 
11142 11143 11144 11145 11146 11147 11148 11149 11150 
11151 11152 11153 11154 11155 11156 11157 11158 11159 
11160 11161 11162 11163 11164 11165 11166 11167 11168 
11169 11170 11171 11172 11173 11174 11175 11176 11177 
11178 11179 11180 11181 11182 11183 11184 11185 11186 
11187 11188 11189 11190 11191 11192 11193 11194 11195 
11196 11197 11198 11199 11200 11201 11202 11203 11204 
11205 11206 11207 11208 11209 11210 11211 11212 11213 
11214 11215 11216 11217 11218 11219 11220 11221 11222 
11223 11224 11225 11226 11227 11228 11229 11230 11231 
11232 11233 11234 11235 11236 11237 11238 11239 11240 
11241 11242 11243 11244 11245 11246 11247 11248 11249 
11250 11251 11252 11253 11254 11255 11256 11257 11258 
11259 11260 11261 11262 11263 11264 11265 11266 11267 
11268 11269 11270 11271 11272 11273 11274 11275 11276 
11277 11278 11279 11280 11281 11282 11283 11284 11285 
11286 11287 11288 11289 11290 11291 11292 11293 11294 
11295 11296 11297 11298 11299 11300 11301 11302 11303 
11304 11305 11306 11307 11308 11309 11310 11311 11312 
11313 11314 11315 11316 11317 11318 11319 11320 11321 
11322 11323 11324 11325 11326 11327 11328 11329 11330 
11331 11332 11333 11334 11335 11336 11337 11338 11339 
11340 11341 11342 11343 11344 11345 11346 11347 11348 
11349 11350 11351 11352 11353 11354 11355 11356 11357 
11358 11359 11360 11361 11362 11363 11364 11365 11366 
11367 11368 11369 11370 11371 11372 11373 11374 11375 
11376 11377 11378 11379 11380 11381 11382 11383 11384 
11385 11386 11387 11388 11389 11390 11391 11392 11393 
11394 11395 11396 11397 11398 11399 11400 11401 11402 
11403 11404 11405 11406 11407 11408 11409 11410 11411 
11412 11413 11414 11415 11416 11417 11418 11419 11420 
11421 11422 11423 11424 11425 11426 11427 11428 11429 
11430 11431 11432 11433 11434 11435 11436 11437 11438 
11439 11440 11441 11442 11443 11444 11445 11446 11447 
11448 11449 11450 11451 11452 11453 11454 11455 11456 
11457 11458 11459 11460 11461 11462 11463 11464 11465 
11466 11467 11468 11469 11470 11471 11472 11473 11474 
11475 11476 11477 11478 11479 11480 11481 11482 11483 
11484 11485 11486 11487 11488 11489 11490 11491 11492 
11493 11494 11495 11496 11497 11498 11499 11500 11501 
11502 11503 11504 11505 11506 11507 11508 11509 11510 
11511 11512 11513 11514 11515 11516 11517 11518 11519 
11520 11521 11522 11523 11524 11525 11526 11527 11528 
11529 11530 11531 11532 11533 11534 11535 11536 11537 
11538 11539 11540 11541 11542 11543 11544 11545 11546 
11547 11548 11549 11550 11551 11552 11553 11554 11555 
11556 11557 11558 11559 11560 11561 11562 11563 11564 
11565 11566 11567 11568 11569 11570 11571 11572 11573 
11574 11575 11576 11577 11578 11579 11580 11581 11582 
11583 11584 11585 11586 11587 11588 11589 11590 11591 
11592 11593 11594 11595 11596 11597 11598 11599 11600 
11601 11602 11603 11604 11605 11606 11607 11608 11609 
11610 11611 11612 11613 11614 11615 11616 11617 11618 
11619 11620 11621 11622 11623 11624 11625 11626 11627 
11628 11629 11630 11631 11632 11633 11634 11635 11636 
11637 11638 11639 11640 11641 11642 11643 11644 11645 
11646 11647 11648 11649 11650 11651 11652 11653 11654 
11655 11656 11657 11658 11659 11660 11661 11662 11663 
11664 11665 11666 11667 11668 11669 11670 11671 11672 
11673 11674 11675 11676 11677 11678 11679 11680 11681 
11682 11683 11684 11685 11686 11687 11688 11689 11690 
11691 11692 11693 11694 11695 11696 11697 11698 11699 
11700 11701 11702 11703 11704 11705 11706 11707 11708 
11709 11710 11711 11712 11713 11714 11715 11716 11717 
11718 11719 11720 11721 11722 11723 11724 11725 11726 
11727 11728 11729 11730 11731 11732 11733 11734 11735 
11736 11737 11738 11739 11740 11741 11742 11743 11744 
11745 11746 11747 11748 11749 11750 11751 11752 11753 
11754 11755 11756 11757 11758 11759 11760 11761 11762 
11763 11764 11765 11766 11767 11768 11769 11770 11771 
11772 11773 11774 11775 11776 11777 11778 11779 11780 
11781 11782 11783 11784 11785 11786 11787 11788 11789 
11790 11791 11792 11793 11794 11795 11796 11797 11798 
11799 11800 11801 11802 11803 11804 11805 11806 11807 
11808 11809 11810 11811 11812 11813 11814 11815 11816 
11817 11818 11819 11820 11821 11822 11823 11824 11825 
11826 11827 11828 11829 11830 11831 11832 11833 11834 
11835 11836 11837 11838 11839 11840 11841 11842 11843 
11844 11845 11846 11847 11848 11849 11850 11851 11852 
11853 11854 11855 11856 11857 11858 11859 11860 11861 
11862 11863 11864 11865 11866 11867 11868 11869 11870 
11871 11872 11873 11874 11875 11876 11877 11878 11879 
11880 11881 11882 11883 11884 11885 11886 11887 11888 
11889 11890 11891 11892 11893 11894 11895 11896 11897 
11898 11899 11900 11901 11902 11903 11904 11905 11906 
11907 11908 11909 11910 11911 11912 11913 11914 11915 
11916 11917 11918 11919 11920 11921 11922 11923 11924 
11925 11926 11927 11928 11929 11930 11931 11932 11933 
11934 11935 11936 11937 11938 11939 11940 11941 11942 
11943 11944 11945 11946 11947 11948 11949 11950 11951 
11952 11953 11954 11955 11956 11957 11958 11959 11960 
11961 11962 11963 11964 11965 11966 11967 11968 11969 
11970 11971 11972 11973 11974 11975 11976 11977 11978 
11979 11980 11981 11982 11983 11984 11985 11986 11987 
11988 11989 11990 11991 11992 11993 11994 11995 11996 
11997 11998 11999 12000 12001 12002 12003 12004 12005 
12006 12007 12008 12009 12010 12011 12012 12013 12014 
12015 12016 12017 12018 12019 12020 12021 12022 12023 
12024 12025 12026 12027 12028 12029 12030 12031 12032 
12033 12034 12035 12036 12037 12038 12039 12040 12041 
12042 12043 12044 12045 12046 12047 12048 12049 12050 
12051 12052 12053 12054 12055 12056 12057 12058 12059 
12060 12061 12062 12063 12064 12065 12066 12067 12068 
12069 12070 12071 12072 12073 12074 12075 12076 12077 
12078 12079 12080 12081 12082 12083 12084 12085 12086 
12087 12088 12089 12090 12091 12092 12093 12094 12095 
12096 12097 12098 12099 12100 12101 12102 12103 12104 
12105 12106 12107 12108 12109 12110 12111 12112 12113 
12114 12115 12116 12117 12118 12119 12120 12121 12122 
12123 12124 12125 12126 12127 12128 12129 12130 12131 
12132 12133 12134 12135 12136 12137 12138 12139 12140 
12141 12142 12143 12144 12145 12146 12147 12148 12149 
12150 12151 12152 12153 12154 12155 12156 12157 12158 
12159 12160 12161 12162 12163 12164 12165 12166 12167 
12168 12169 12170 12171 12172 12173 12174 12175 12176 
12177 12178 12179 12180 12181 12182 12183 12184 12185 
12186 12187 12188 12189 12190 12191 12192 12193 12194 
12195 12196 12197 12198 12199 12200 12201 12202 12203 
12204 12205 12206 12207 12208 12209 12210 12211 12212 
12213 12214 12215 12216 12217 12218 12219 12220 12221 
12222 12223 12224 12225 12226 12227 12228 12229 12230 
12231 12232 12233 12234 12235 12236 12237 12238 12239 
12240 12241 12242 12243 12244 12245 12246 12247 12248 
12249 12250 12251 12252 12253 12254 12255 12256 12257 
12258 12259 12260 12261 12262 12263 12264 12265 12266 
12267 12268 12269 12270 12271 12272 12273 12274 12275 
12276 12277 12278 12279 12280 12281 12282 12283 12284 
12285 12286 12287 12288 12289 12290 12291 12292 12293 
12294 12295 12296 12297 12298 12299 12300 12301 12302 
12303 12304 12305 12306 12307 12308 12309 12310 12311 
12312 12313 12314 12315 12316 12317 12318 12319 12320 
12321 12322 12323 12324 12325 12326 12327 12328 12329 
12330 12331 12332 12333 12334 12335 12336 12337 12338 
12339 12340 12341 12342 12343 12344 12345 12346 12347 
12348 12349 12350 12351 12352 12353 12354 12355 12356 
12357 12358 12359 12360 12361 12362 12363 12364 12365 
12366 12367 12368 12369 12370 12371 12372 12373 12374 
12375 12376 12377 12378 12379 12380 12381 12382 12383 
12384 12385 12386 12387 12388 12389 12390 12391 12392 
12393 12394 12395 12396 12397 12398 12399 12400 12401 
12402 12403 12404 12405 12406 12407 12408 12409 12410 
      </DataArray>
      <DataArray type="Int32" Name="offsets" format="ascii">
9
18
27
36
45
54
63
72
81
90
99
108
117
126
135
144
153
162
171
180
189
198
207
216
225
234
243
252
261
270
279
288
297
306
315
324
333
342
351
360
369
378
387
396
405
414
423
432
441
450
459
468
477
486
495
504
513
522
531
540
549
558
567
576
585
594
603
612
621
630
639
648
657
666
675
684
693
702
711
720
729
738
747
756
765
774
783
792
801
810
819
828
837
846
855
864
873
882
891
900
909
918
927
936
945
954
963
972
981
990
999
1008
1017
1026
1035
1044
1053
1062
1071
1080
1089
1098
1107
1116
1125
1134
1143
1152
1161
1170
1179
1188
1197
1206
1215
1224
1233
1242
1251
1260
1269
1278
1287
1296
1305
1314
1323
1332
1341
1350
1359
1368
1377
1386
1395
1404
1413
1422
1431
1440
1449
1458
1467
1476
1485
1494
1503
1512
1521
1530
1539
1548
1557
1566
1575
1584
1593
1602
1611
1620
1629
1638
1647
1656
1665
1674
1683
1692
1701
1710
1719
1728
1737
1746
1755
1764
1773
1782
1791
1800
1809
1818
1827
1836
1845
1854
1863
1872
1881
1890
1899
1908
1917
1926
1935
1944
1953
1962
1971
1980
1989
1998
2007
2016
2025
2034
2043
2052
2061
2070
2079
2088
2097
2106
2115
2124
2133
2142
2151
2160
2169
2178
2187
2196
2205
2214
2223
2232
2241
2250
2259
2268
2277
2286
2295
2304
2313
2322
2331
2340
2349
2358
2367
2376
2385
2394
2403
2412
2421
2430
2439
2448
2457
2466
2475
2484
2493
2502
2511
2520
2529
2538
2547
2556
2565
2574
2583
2592
2601
2610
2619
2628
2637
2646
2655
2664
2673
2682
2691
2700
2709
2718
2727
2736
2745
2754
2763
2772
2781
2790
2799
2808
2817
2826
2835
2844
2853
2862
2871
2880
2889
2898
2907
2916
2925
2934
2943
2952
2961
2970
2979
2988
2997
3006
3015
3024
3033
3042
3051
3060
3069
3078
3087
3096
3105
3114
3123
3132
3141
3150
3159
3168
3177
3186
3195
3204
3213
3222
3231
3240
3249
3258
3267
3276
3285
3294
3303
3312
3321
3330
3339
3348
3357
3366
3375
3384
3393
3402
3411
3420
3429
3438
3447
3456
3465
3474
3483
3492
3501
3510
3519
3528
3537
3546
3555
3564
3573
3582
3591
3600
3609
3618
3627
3636
3645
3654
3663
3672
3681
3690
3699
3708
3717
3726
3735
3744
3753
3762
3771
3780
3789
3798
3807
3816
3825
3834
3843
3852
3861
3870
3879
3888
3897
3906
3915
3924
3933
3942
3951
3960
3969
3978
3987
3996
4005
4014
4023
4032
4041
4050
4059
4068
4077
4086
4095
4104
4113
4122
4131
4140
4149
4158
4167
4176
4185
4194
4203
4212
4221
4230
4239
4248
4257
4266
4275
4284
4293
4302
4311
4320
4329
4338
4347
4356
4365
4374
4383
4392
4401
4410
4419
4428
4437
4446
4455
4464
4473
4482
4491
4500
4509
4518
4527
4536
4545
4554
4563
4572
4581
4590
4599
4608
4617
4626
4635
4644
4653
4662
4671
4680
4689
4698
4707
4716
4725
4734
4743
4752
4761
4770
4779
4788
4797
4806
4815
4824
4833
4842
4851
4860
4869
4878
4887
4896
4905
4914
4923
4932
4941
4950
4959
4968
4977
4986
4995
5004
5013
5022
5031
5040
5049
5058
5067
5076
5085
5094
5103
5112
5121
5130
5139
5148
5157
5166
5175
5184
5193
5202
5211
5220
5229
5238
5247
5256
5265
5274
5283
5292
5301
5310
5319
5328
5337
5346
5355
5364
5373
5382
5391
5400
5409
5418
5427
5436
5445
5454
5463
5472
5481
5490
5499
5508
5517
5526
5535
5544
5553
5562
5571
5580
5589
5598
5607
5616
5625
5634
5643
5652
5661
5670
5679
5688
5697
5706
5715
5724
5733
5742
5751
5760
5769
5778
5787
5796
5805
5814
5823
5832
5841
5850
5859
5868
5877
5886
5895
5904
5913
5922
5931
5940
5949
5958
5967
5976
5985
5994
6003
6012
6021
6030
6039
6048
6057
6066
6075
6084
6093
6102
6111
6120
6129
6138
6147
6156
6165
6174
6183
6192
6201
6210
6219
6228
6237
6246
6255
6264
6273
6282
6291
6300
6309
6318
6327
6336
6345
6354
6363
6372
6381
6390
6399
6408
6417
6426
6435
6444
6453
6462
6471
6480
6489
6498
6507
6516
6525
6534
6543
6552
6561
6570
6579
6588
6597
6606
6615
6624
6633
6642
6651
6660
6669
6678
6687
6696
6705
6714
6723
6732
6741
6750
6759
6768
6777
6786
6795
6804
6813
6822
6831
6840
6849
6858
6867
6876
6885
6894
6903
6912
6921
6930
6939
6948
6957
6966
6975
6984
6993
7002
7011
7020
7029
7038
7047
7056
7065
7074
7083
7092
7101
7110
7119
7128
7137
7146
7155
7164
7173
7182
7191
7200
7209
7218
7227
7236
7245
7254
7263
7272
7281
7290
7299
7308
7317
7326
7335
7344
7353
7362
7371
7380
7389
7398
7407
7416
7425
7434
7443
7452
7461
7470
7479
7488
7497
7506
7515
7524
7533
7542
7551
7560
7569
7578
7587
7596
7605
7614
7623
7632
7641
7650
7659
7668
7677
7686
7695
7704
7713
7722
7731
7740
7749
7758
7767
7776
7785
7794
7803
7812
7821
7830
7839
7848
7857
7866
7875
7884
7893
7902
7911
7920
7929
7938
7947
7956
7965
7974
7983
7992
8001
8010
8019
8028
8037
8046
8055
8064
8073
8082
8091
8100
8109
8118
8127
8136
8145
8154
8163
8172
8181
8190
8199
8208
8217
8226
8235
8244
8253
8262
8271
8280
8289
8298
8307
8316
8325
8334
8343
8352
8361
8370
8379
8388
8397
8406
8415
8424
8433
8442
8451
8460
8469
8478
8487
8496
8505
8514
8523
8532
8541
8550
8559
8568
8577
8586
8595
8604
8613
8622
8631
8640
8649
8658
8667
8676
8685
8694
8703
8712
8721
8730
8739
8748
8757
8766
8775
8784
8793
8802
8811
8820
8829
8838
8847
8856
8865
8874
8883
8892
8901
8910
8919
8928
8937
8946
8955
8964
8973
8982
8991
9000
9009
9018
9027
9036
9045
9054
9063
9072
9081
9090
9099
9108
9117
9126
9135
9144
9153
9162
9171
9180
9189
9198
9207
9216
9225
9234
9243
9252
9261
9270
9279
9288
9297
9306
9315
9324
9333
9342
9351
9360
9369
9378
9387
9396
9405
9414
9423
9432
9441
9450
9459
9468
9477
9486
9495
9504
9513
9522
9531
9540
9549
9558
9567
9576
9585
9594
9603
9612
9621
9630
9639
9648
9657
9666
9675
9684
9693
9702
9711
9720
9729
9738
9747
9756
9765
9774
9783
9792
9801
9810
9819
9828
9837
9846
9855
9864
9873
9882
9891
9900
9909
9918
9927
9936
9945
9954
9963
9972
9981
9990
9999
10008
10017
10026
10035
10044
10053
10062
10071
10080
10089
10098
10107
10116
10125
10134
10143
10152
10161
10170
10179
10188
10197
10206
10215
10224
10233
10242
10251
10260
10269
10278
10287
10296
10305
10314
10323
10332
10341
10350
10359
10368
10377
10386
10395
10404
10413
10422
10431
10440
10449
10458
10467
10476
10485
10494
10503
10512
10521
10530
10539
10548
10557
10566
10575
10584
10593
10602
10611
10620
10629
10638
10647
10656
10665
10674
10683
10692
10701
10710
10719
10728
10737
10746
10755
10764
10773
10782
10791
10800
10809
10818
10827
10836
10845
10854
10863
10872
10881
10890
10899
10908
10917
10926
10935
10944
10953
10962
10971
10980
10989
10998
11007
11016
11025
11034
11043
11052
11061
11070
11079
11088
11097
11106
11115
11124
11133
11142
11151
11160
11169
11178
11187
11196
11205
11214
11223
11232
11241
11250
11259
11268
11277
11286
11295
11304
11313
11322
11331
11340
11349
11358
11367
11376
11385
11394
11403
11412
11421
11430
11439
11448
11457
11466
11475
11484
11493
11502
11511
11520
11529
11538
11547
11556
11565
11574
11583
11592
11601
11610
11619
11628
11637
11646
11655
11664
11673
11682
11691
11700
11709
11718
11727
11736
11745
11754
11763
11772
11781
11790
11799
11808
11817
11826
11835
11844
11853
11862
11871
11880
11889
11898
11907
11916
11925
11934
11943
11952
11961
11970
11979
11988
11997
12006
12015
12024
12033
12042
12051
12060
12069
12078
12087
12096
12105
12114
12123
12132
12141
12150
12159
12168
12177
12186
12195
12204
12213
12222
12231
12240
12249
12258
12267
12276
12285
12294
12303
12312
12321
12330
12339
12348
12357
12366
12375
12384
12393
12402
12411
      </DataArray>
      <DataArray type="UInt8" Name="types" format="ascii">
70
70
70
70
70
70
70
70
70
70
70
70
70
70
70
70
70
70
70
70
70
70
70
70
70
70
70
70
70
70
70
70
70
70
70
70
70
70
70
70
70
70
70
70
70
70
70
70
70
70
70
70
70
70
70
70
70
70
70
70
70
70
70
70
70
70
70
70
70
70
70
70
70
70
70
70
70
70
70
70
70
70
70
70
70
70
70
70
70
70
70
70
70
70
70
70
70
70
70
70
70
70
70
70
70
70
70
70
70
70
70
70
70
70
70
70
70
70
70
70
70
70
70
70
70
70
70
70
70
70
70
70
70
70
70
70
70
70
70
70
70
70
70
70
70
70
70
70
70
70
70
70
70
70
70
70
70
70
70
70
70
70
70
70
70
70
70
70
70
70
70
70
70
70
70
70
70
70
70
70
70
70
70
70
70
70
70
70
70
70
70
70
70
70
70
70
70
70
70
70
70
70
70
70
70
70
70
70
70
70
70
70
70
70
70
70
70
70
70
70
70
70
70
70
70
70
70
70
70
70
70
70
70
70
70
70
70
70
70
70
70
70
70
70
70
70
70
70
70
70
70
70
70
70
70
70
70
70
70
70
70
70
70
70
70
70
70
70
70
70
70
70
70
70
70
70
70
70
70
70
70
70
70
70
70
70
70
70
70
70
70
70
70
70
70
70
70
70
70
70
70
70
70
70
70
70
70
70
70
70
70
70
70
70
70
70
70
70
70
70
70
70
70
70
70
70
70
70
70
70
70
70
70
70
70
70
70
70
70
70
70
70
70
70
70
70
70
70
70
70
70
70
70
70
70
70
70
70
70
70
70
70
70
70
70
70
70
70
70
70
70
70
70
70
70
70
70
70
70
70
70
70
70
70
70
70
70
70
70
70
70
70
70
70
70
70
70
70
70
70
70
70
70
70
70
70
70
70
70
70
70
70
70
70
70
70
70
70
70
70
70
70
70
70
70
70
70
70
70
70
70
70
70
70
70
70
70
70
70
70
70
70
70
70
70
70
70
70
70
70
70
70
70
70
70
70
70
70
70
70
70
70
70
70
70
70
70
70
70
70
70
70
70
70
70
70
70
70
70
70
70
70
70
70
70
70
70
70
70
70
70
70
70
70
70
70
70
70
70
70
70
70
70
70
70
70
70
70
70
70
70
70
70
70
70
70
70
70
70
70
70
70
70
70
70
70
70
70
70
70
70
70
70
70
70
70
70
70
70
70
70
70
70
70
70
70
70
70
70
70
70
70
70
70
70
70
70
70
70
70
70
70
70
70
70
70
70
70
70
70
70
70
70
70
70
70
70
70
70
70
70
70
70
70
70
70
70
70
70
70
70
70
70
70
70
70
70
70
70
70
70
70
70
70
70
70
70
70
70
70
70
70
70
70
70
70
70
70
70
70
70
70
70
70
70
70
70
70
70
70
70
70
70
70
70
70
70
70
70
70
70
70
70
70
70
70
70
70
70
70
70
70
70
70
70
70
70
70
70
70
70
70
70
70
70
70
70
70
70
70
70
70
70
70
70
70
70
70
70
70
70
70
70
70
70
70
70
70
70
70
70
70
70
70
70
70
70
70
70
70
70
70
70
70
70
70
70
70
70
70
70
70
70
70
70
70
70
70
70
70
70
70
70
70
70
70
70
70
70
70
70
70
70
70
70
70
70
70
70
70
70
70
70
70
70
70
70
70
70
70
70
70
70
70
70
70
70
70
70
70
70
70
70
70
70
70
70
70
70
70
70
70
70
70
70
70
70
70
70
70
70
70
70
70
70
70
70
70
70
70
70
70
70
70
70
70
70
70
70
70
70
70
70
70
70
70
70
70
70
70
70
70
70
70
70
70
70
70
70
70
70
70
70
70
70
70
70
70
70
70
70
70
70
70
70
70
70
70
70
70
70
70
70
70
70
70
70
70
70
70
70
70
70
70
70
70
70
70
70
70
70
70
70
70
70
70
70
70
70
70
70
70
70
70
70
70
70
70
70
70
70
70
70
70
70
70
70
70
70
70
70
70
70
70
70
70
70
70
70
70
70
70
70
70
70
70
70
70
70
70
70
70
70
70
70
70
70
70
70
70
70
70
70
70
70
70
70
70
70
70
70
70
70
70
70
70
70
70
70
70
70
70
70
70
70
70
70
70
70
70
70
70
70
70
70
70
70
70
70
70
70
70
70
70
70
70
70
70
70
70
70
70
70
70
70
70
70
70
70
70
70
70
70
70
70
70
70
70
70
70
70
70
70
70
70
70
70
70
70
70
70
70
70
70
70
70
70
70
70
70
70
70
70
70
70
70
70
70
70
70
70
70
70
70
70
70
70
70
70
70
70
70
70
70
70
70
70
70
70
70
70
70
70
70
70
70
70
70
70
70
70
70
70
70
70
70
70
70
70
70
70
70
70
70
70
70
70
70
70
70
70
70
70
70
70
70
70
70
70
70
70
70
70
70
70
70
70
70
70
70
70
70
70
70
70
70
70
70
70
70
70
70
70
70
70
70
70
70
70
70
70
70
70
70
70
70
70
70
70
70
70
70
70
70
70
70
70
70
70
70
70
70
70
70
70
70
70
70
70
70
70
70
70
70
70
70
70
70
70
70
70
70
70
70
70
70
70
70
70
70
70
70
70
70
70
70
70
70
70
70
70
70
70
70
70
70
70
70
70
70
70
70
70
70
70
70
70
70
70
70
70
70
70
70
70
70
70
70
70
70
70
70
70
70
70
70
70
70
70
70
70
70
70
70
70
70
70
70
70
70
70
70
70
70
70
70
70
70
70
70
70
70
70
70
70
70
70
70
70
70
70
70
70
70
70
70
70
70
70
70
70
70
70
70
70
70
70
70
70
70
70
70
70
70
70
70
70
70
70
70
70
70
70
70
70
70
70
70
70
70
70
70
70
70
70
70
70
70
70
70
70
70
70
70
70
70
70
70
70
70
70
70
70
70
70
70
70
70
70
70
70
70
70
70
70
70
70
70
70
70
70
70
70
70
70
70
70
70
70
70
70
70
70
70
70
70
70
70
70
70
70
70
70
70
70
70
70
70
70
70
70
70
70
70
70
70
70
70
70
70
70
70
70
70
70
70
70
70
70
70
70
70
70
70
70
70
70
70
70
      </DataArray>
    </Cells>
    <PointData>
      <DataArray type="Float64" NumberOfComponents="3" Name="Displacement" format="ascii">
0 0 0
-0.00692567 -0.00345065 -0.00345065
-0.0041298 -0.00116447 -0.00116447
0 0 0
-0.00376898 -0.00215207 -0.00215207
-0.00521649 -0.002085 -0.002085
-0.00200386 -0.000416997 -0.000416997
0 0 0
-0.00248771 -0.000919249 -0.000919249
-0.00692567 -0.00345065 -0.00345065
-0.012918 -0.00599016 -0.00599016
-0.0086019 -0.00336353 -0.00336353
-0.0041298 -0.00116447 -0.00116447
-0.00993044 -0.00467242 -0.00467242
-0.0106516 -0.00454372 -0.00454372
-0.00634456 -0.00215777 -0.00215777
-0.00521649 -0.002085 -0.002085
-0.00794938 -0.00327742 -0.00327742
-0.012918 -0.00599016 -0.00599016
-0.0189644 -0.00905427 -0.00905427
-0.0131145 -0.00638546 -0.00638546
-0.0086019 -0.00336353 -0.00336353
-0.0159304 -0.00743235 -0.00743235
-0.0160075 -0.00761892 -0.00761892
-0.0108608 -0.00476807 -0.00476807
-0.0106516 -0.00454372 -0.00454372
-0.0133364 -0.00598101 -0.00598101
-0.0189644 -0.00905427 -0.00905427
-0.0250613 -0.0129984 -0.0129984
-0.0176051 -0.0103223 -0.0103223
-0.0131145 -0.00638546 -0.00638546
-0.0220083 -0.010907 -0.010907
-0.0213183 -0.0115547 -0.0115547
-0.0153636 -0.00823414 -0.00823414
-0.0160075 -0.00761892 -0.00761892
-0.0186665 -0.0094711 -0.0094711
-0.0250613 -0.0129984 -0.0129984
-0.0311917 -0.0179037 -0.0179037
-0.0220587 -0.0152393 -0.0152393
-0.0176051 -0.0103223 -0.0103223
-0.028124 -0.0153275 -0.0153275
-0.026612 -0.0164668 -0.0164668
-0.0198362 -0.0126555 -0.0126555
-0.0213183 -0.0115547 -0.0115547
-0.0239668 -0.0138851 -0.0138851
-0.0311917 -0.0179037 -0.0179037
-0.0373254 -0.0238255 -0.0238255
-0.0264845 -0.0211742 -0.0211742
-0.0220587 -0.0152393 -0.0152393
-0.0342591 -0.0207363 -0.0207363
-0.0318894 -0.0223919 -0.0223919
-0.0242748 -0.0180784 -0.0180784
-0.026612 -0.0164668 -0.0164668
-0.0292528 -0.0193016 -0.0193016
-0.0373254 -0.0238255 -0.0238255
-0.0434521 -0.0307711 -0.0307711
-0.0308845 -0.0281375 -0.0281375
-0.0264845 -0.0211742 -0.0211742
-0.0403903 -0.02717 -0.02717
-0.0371503 -0.0293458 -0.0293458
-0.0286875 -0.024527 -0.024527
-0.0318894 -0.0223919 -0.0223919
-0.0345221 -0.0257399 -0.0257399
-0.0434521 -0.0307711 -0.0307711
-0.0495608 -0.0387472 -0.0387472
-0.0352627 -0.0361321 -0.0361321
-0.0308845 -0.0281375 -0.0281375
-0.0465091 -0.0346304 -0.0346304
-0.0423916 -0.0373304 -0.0373304
-0.0330762 -0.032006 -0.032006
-0.0371503 -0.0293458 -0.0293458
-0.0397735 -0.0332094 -0.0332094
-0.0495608 -0.0387472 -0.0387472
-0.0556471 -0.0477497 -0.0477497
-0.03962 -0.0451546 -0.0451546
-0.0352627 -0.0361321 -0.0361321
-0.0526069 -0.0431204 -0.0431204
-0.0476121 -0.046343 -0.046343
-0.0374439 -0.0405151 -0.0405151
-0.0423916 -0.0373304 -0.0373304
-0.0450046 -0.0417085 -0.0417085
-0.0556471 -0.0477497 -0.0477497
-0.0617079 -0.057775 -0.057775
-0.0439578 -0.0552006 -0.0552006
-0.03962 -0.0451546 -0.0451546
-0.0586808 -0.0526348 -0.0526348
-0.0528106 -0.0563788 -0.0563788
-0.0417913 -0.05005 -0.05005
-0.0476121 -0.046343 -0.046343
-0.0502142 -0.0512334 -0.0512334
-0.0617079 -0.057775 -0.057775
-0.0677421 -0.0688174 -0.0688174
-0.0482764 -0.0662644 -0.0662644
-0.0439578 -0.0552006 -0.0552006
-0.0647284 -0.0631694 -0.0631694
-0.0579865 -0.0674323 -0.0674323
-0.0461194 -0.0606056 -0.0606056
-0.0528106 -0.0563788 -0.0563788
-0.0554014 -0.0617787 -0.0617787
-0.0677421 -0.0688174 -0.0688174
-0.0737492 -0.0808713 -0.0808713
-0.0525765 -0.0783404 -0.0783404
-0.0482764 -0.0662644 -0.0662644
-0.070749 -0.0747182 -0.0747182
-0.0631398 -0.0794978 -0.0794978
-0.0504287 -0.0721762 -0.0721762
-0.0579865 -0.0674323 -0.0674323
-0.060566 -0.073339 -0.073339
-0.0737492 -0.0808713 -0.0808713
-0.0797292 -0.0939312 -0.0939312
-0.0568585 -0.091423 -0.091423
-0.0525765 -0.0783404 -0.0783404
-0.0767426 -0.0872759 -0.0872759
-0.0682707 -0.0925696 -0.0925696
-0.0547197 -0.0847563 -0.0847563
-0.0631398 -0.0794978 -0.0794978
-0.0657081 -0.0859083 -0.0859083
-0.0797292 -0.0939312 -0.0939312
-0.0856822 -0.107991 -0.107991
-0.0611227 -0.105507 -0.105507
-0.0568585 -0.091423 -0.091423
-0.0827091 -0.100837 -0.100837
-0.0733792 -0.106642 -0.106642
-0.0589928 -0.09834 -0.09834
-0.0682707 -0.0925696 -0.0925696
-0.0708277 -0.0994811 -0.0994811
-0.0856822 -0.107991 -0.107991
-0.0916087 -0.123046 -0.123046
-0.0653696 -0.120586 -0.120586
-0.0611227 -0.105507 -0.105507
-0.0886488 -0.115395 -0.115395
-0.0784659 -0.12171 -0.12171
-0.0632483 -0.112922 -0.112922
-0.0733792 -0.106642 -0.106642
-0.0759253 -0.114052 -0.114052
-0.0916087 -0.123046 -0.123046
-0.0975089 -0.139091 -0.139091
-0.0695995 -0.136654 -0.136654
-0.0653696 -0.120586 -0.120586
-0.0945621 -0.130945 -0.130945
-0.0835308 -0.137767 -0.137767
-0.0674866 -0.128497 -0.128497
-0.0784659 -0.12171 -0.12171
-0.081001 -0.129615 -0.129615
-0.0975089 -0.139091 -0.139091
-0.103383 -0.156119 -0.156119
-0.0738127 -0.153708 -0.153708
-0.0695995 -0.136654 -0.136654
-0.100449 -0.147482 -0.147482
-0.0885746 -0.154808 -0.154808
-0.0717081 -0.145058 -0.145058
-0.0835308 -0.137767 -0.137767
-0.0860553 -0.146165 -0.146165
-0.103383 -0.156119 -0.156119
-0.109232 -0.174126 -0.174126
-0.0780095 -0.17174 -0.17174
-0.0738127 -0.153708 -0.153708
-0.106311 -0.165 -0.165
-0.0935973 -0.172829 -0.172829
-0.0759131 -0.162602 -0.162602
-0.0885746 -0.154808 -0.154808
-0.0910885 -0.163696 -0.163696
-0.109232 -0.174126 -0.174126
-0.115056 -0.193106 -0.193106
-0.0821904 -0.190746 -0.190746
-0.0780095 -0.17174 -0.17174
-0.112147 -0.183494 -0.183494
-0.0985995 -0.191822 -0.191822
-0.080102 -0.181122 -0.181122
-0.0935973 -0.172829 -0.172829
-0.096101 -0.182204 -0.182204
-0.115056 -0.193106 -0.193106
-0.120854 -0.213053 -0.213053
-0.0863557 -0.21072 -0.21072
-0.0821904 -0.190746 -0.190746
-0.117958 -0.202959 -0.202959
-0.103581 -0.211783 -0.211783
-0.084275 -0.200613 -0.200613
-0.0985995 -0.191822 -0.191822
-0.101093 -0.201682 -0.201682
-0.120854 -0.213053 -0.213053
-0.126628 -0.233962 -0.233962
-0.0905056 -0.231657 -0.231657
-0.0863557 -0.21072 -0.21072
-0.123744 -0.223388 -0.223388
-0.108543 -0.232707 -0.232707
-0.0884326 -0.221069 -0.221069
-0.103581 -0.211783 -0.211783
-0.106065 -0.222125 -0.222125
-0.126628 -0.233962 -0.233962
-0.132378 -0.255829 -0.255829
-0.0946406 -0.253552 -0.253552
-0.0905056 -0.231657 -0.231657
-0.129506 -0.244776 -0.244776
-0.113486 -0.254588 -0.254588
-0.092575 -0.242485 -0.242485
-0.108543 -0.232707 -0.232707
-0.111017 -0.243528 -0.243528
-0.132378 -0.255829 -0.255829
-0.138104 -0.278647 -0.278647
-0.0987608 -0.276398 -0.276398
-0.0946406 -0.253552 -0.253552
-0.135244 -0.267119 -0.267119
-0.118409 -0.277421 -0.277421
-0.0967025 -0.264856 -0.264856
-0.113486 -0.254588 -0.254588
-0.11595 -0.265886 -0.265886
-0.138104 -0.278647 -0.278647
-0.143806 -0.30241 -0.30241
-0.102867 -0.30019 -0.30019
-0.0987608 -0.276398 -0.276398
-0.140958 -0.29041 -0.29041
-0.123313 -0.301199 -0.301199
-0.100816 -0.288176 -0.288176
-0.118409 -0.277421 -0.277421
-0.120863 -0.289192 -0.289192
-0.143806 -0.30241 -0.30241
-0.149486 -0.327114 -0.327114
-0.106958 -0.324924 -0.324924
-0.102867 -0.30019 -0.30019
-0.146649 -0.314645 -0.314645
-0.128198 -0.325919 -0.325919
-0.104914 -0.31244 -0.31244
-0.123313 -0.301199 -0.301199
-0.125758 -0.313442 -0.313442
-0.149486 -0.327114 -0.327114
-0.155142 -0.352754 -0.352754
-0.111036 -0.350593 -0.350593
-0.106958 -0.324924 -0.324924
-0.152316 -0.339817 -0.339817
-0.133065 -0.351574 -0.351574
-0.108999 -0.337642 -0.337642
-0.128198 -0.325919 -0.325919
-0.130634 -0.33863 -0.33863
-0.155142 -0.352754 -0.352754
-0.160775 -0.379323 -0.379323
-0.115101 -0.377192 -0.377192
-0.111036 -0.350593 -0.350593
-0.157961 -0.365922 -0.365922
-0.137914 -0.378158 -0.378158
-0.11307 -0.363777 -0.363777
-0.133065 -0.351574 -0.351574
-0.135492 -0.36475 -0.36475
-0.160775 -0.379323 -0.379323
-0.166386 -0.406816 -0.406816
-0.119152 -0.404716 -0.404716
-0.115101 -0.377192 -0.377192
-0.163583 -0.392954 -0.392954
-0.142745 -0.405668 -0.405668
-0.117128 -0.390839 -0.390839
-0.137914 -0.378158 -0.378158
-0.140332 -0.391798 -0.391798
-0.166386 -0.406816 -0.406816
-0.171975 -0.435228 -0.435228
-0.123191 -0.43316 -0.43316
-0.119152 -0.404716 -0.404716
-0.169183 -0.420907 -0.420907
-0.147559 -0.434096 -0.434096
-0.121173 -0.418824 -0.418824
-0.142745 -0.405668 -0.405668
-0.145154 -0.419767 -0.419767
-0.171975 -0.435228 -0.435228
-0.177541 -0.464554 -0.464554
-0.127216 -0.462517 -0.462517
-0.123191 -0.43316 -0.43316
-0.174761 -0.449777 -0.449777
-0.152355 -0.463438 -0.463438
-0.125205 -0.447725 -0.447725
-0.147559 -0.434096 -0.434096
-0.149959 -0.448653 -0.448653
-0.177541 -0.464554 -0.464554
-0.183087 -0.494787 -0.494787
-0.13123 -0.492783 -0.492783
-0.127216 -0.462517 -0.462517
-0.180317 -0.479557 -0.479557
-0.157134 -0.493688 -0.493688
-0.129224 -0.477537 -0.477537
-0.152355 -0.463438 -0.463438
-0.154747 -0.47845 -0.47845
-0.183087 -0.494787 -0.494787
-0.188611 -0.525923 -0.525923
-0.135231 -0.523952 -0.523952
-0.13123 -0.492783 -0.492783
-0.185851 -0.510243 -0.510243
-0.161897 -0.524841 -0.524841
-0.133232 -0.508255 -0.508255
-0.157134 -0.493688 -0.493688
-0.159518 -0.509152 -0.509152
-0.188611 -0.525923 -0.525923
-0.194113 -0.557957 -0.557957
-0.13922 -0.556018 -0.556018
-0.135231 -0.523952 -0.523952
-0.191365 -0.541828 -0.541828
-0.166643 -0.556892 -0.556892
-0.137227 -0.539873 -0.539873
-0.161897 -0.524841 -0.524841
-0.164272 -0.540755 -0.540755
-0.194113 -0.557957 -0.557957
-0.199595 -0.590882 -0.590882
-0.143198 -0.588977 -0.588977
-0.13922 -0.556018 -0.556018
-0.196857 -0.574308 -0.574308
-0.171372 -0.589834 -0.589834
-0.14121 -0.572386 -0.572386
-0.166643 -0.556892 -0.556892
-0.16901 -0.573252 -0.573252
-0.199595 -0.590882 -0.590882
-0.205056 -0.624693 -0.624693
-0.147164 -0.622822 -0.622822
-0.143198 -0.588977 -0.588977
-0.202328 -0.607677 -0.607677
-0.176086 -0.623663 -0.623663
-0.145182 -0.605789 -0.605789
-0.171372 -0.589834 -0.589834
-0.173731 -0.606638 -0.606638
-0.205056 -0.624693 -0.624693
-0.210497 -0.659386 -0.659386
-0.151119 -0.657549 -0.657549
-0.147164 -0.622822 -0.622822
-0.207779 -0.64193 -0.64193
-0.180784 -0.658374 -0.658374
-0.149143 -0.640076 -0.640076
-0.176086 -0.623663 -0.623663
-0.178437 -0.640909 -0.640909
-0.210497 -0.659386 -0.659386
-0.215918 -0.694954 -0.694954
-0.155063 -0.693152 -0.693152
-0.151119 -0.657549 -0.657549
-0.21321 -0.677061 -0.677061
-0.185467 -0.693959 -0.693959
-0.153092 -0.675241 -0.675241
-0.180784 -0.658374 -0.658374
-0.183127 -0.676057 -0.676057
-0.215918 -0.694954 -0.694954
-0.221319 -0.731392 -0.731392
-0.158996 -0.729625 -0.729625
-0.155063 -0.693152 -0.693152
-0.218621 -0.713064 -0.713064
-0.190134 -0.730416 -0.730416
-0.157031 -0.71128 -0.71128
-0.185467 -0.693959 -0.693959
-0.187802 -0.712079 -0.712079
-0.221319 -0.731392 -0.731392
-0.2267 -0.768694 -0.768694
-0.162919 -0.766963 -0.766963
-0.158996 -0.729625 -0.729625
-0.224012 -0.749935 -0.749935
-0.194786 -0.767737 -0.767737
-0.160959 -0.748186 -0.748186
-0.190134 -0.730416 -0.730416
-0.192462 -0.748968 -0.748968
-0.2267 -0.768694 -0.768694
-0.232062 -0.806856 -0.806856
-0.166832 -0.805161 -0.805161
-0.162919 -0.766963 -0.766963
-0.229383 -0.787668 -0.787668
-0.199423 -0.805917 -0.805917
-0.164877 -0.785955 -0.785955
-0.194786 -0.767737 -0.767737
-0.197106 -0.78672 -0.78672
-0.232062 -0.806856 -0.806856
-0.237404 -0.845872 -0.845872
-0.170735 -0.844212 -0.844212
-0.166832 -0.805161 -0.805161
-0.234735 -0.826258 -0.826258
-0.204045 -0.844951 -0.844951
-0.168785 -0.82458 -0.82458
-0.199423 -0.805917 -0.805917
-0.201736 -0.825328 -0.825328
-0.237404 -0.845872 -0.845872
-0.242727 -0.885736 -0.885736
-0.174627 -0.884113 -0.884113
-0.170735 -0.844212 -0.844212
-0.240068 -0.865698 -0.865698
-0.208653 -0.884834 -0.884834
-0.172682 -0.864057 -0.864057
-0.204045 -0.844951 -0.844951
-0.206351 -0.864787 -0.864787
-0.242727 -0.885736 -0.885736
-0.248031 -0.926443 -0.926443
-0.17851 -0.924857 -0.924857
-0.174627 -0.884113 -0.884113
-0.245382 -0.905985 -0.905985
-0.213247 -0.925561 -0.925561
-0.17657 -0.90438 -0.90438
-0.208653 -0.884834 -0.884834
-0.210952 -0.905092 -0.905092
-0.248031 -0.926443 -0.926443
-0.253317 -0.967988 -0.967988
-0.182384 -0.966439 -0.966439
-0.17851 -0.924857 -0.924857
-0.250677 -0.947111 -0.947111
-0.217826 -0.967125 -0.967125
-0.180448 -0.945544 -0.945544
-0.213247 -0.925561 -0.925561
-0.215538 -0.946238 -0.946238
-0.253317 -0.967988 -0.967988
-0.258584 -1.01037 -1.01037
-0.186248 -1.00885 -1.00885
-0.182384 -0.966439 -0.966439
-0.255953 -0.989073 -0.989073
-0.222392 -1.00952 -1.00952
-0.184317 -0.987542 -0.987542
-0.217826 -0.967125 -0.967125
-0.220111 -0.988219 -0.988219
-0.258584 -1.01037 -1.01037
-0.263833 -1.05357 -1.05357
-0.190104 -1.05209 -1.05209
-0.186248 -1.00885 -1.00885
-0.261211 -1.03186 -1.03186
-0.226944 -1.05274 -1.05274
-0.188177 -1.03037 -1.03037
-0.222392 -1.00952 -1.00952
-0.22467 -1.03103 -1.03103
-0.263833 -1.05357 -1.05357
-0.269064 -1.09759 -1.09759
-0.19395 -1.09616 -1.09616
-0.190104 -1.05209 -1.05209
-0.266451 -1.07548 -1.07548
-0.231483 -1.09679 -1.09679
-0.192028 -1.07402 -1.07402
-0.226944 -1.05274 -1.05274
-0.229215 -1.07466 -1.07466
-0.269064 -1.09759 -1.09759
-0.274276 -1.14243 -1.14243
-0.197787 -1.14104 -1.14104
-0.19395 -1.09616 -1.09616
-0.271672 -1.11991 -1.11991
-0.236008 -1.14165 -1.14165
-0.19587 -1.1185 -1.1185
-0.231483 -1.09679 -1.09679
-0.233747 -1.11912 -1.11912
-0.274276 -1.14243 -1.14243
-0.279471 -1.18809 -1.18809
-0.201616 -1.18673 -1.18673
-0.197787 -1.14104 -1.14104
-0.276876 -1.16516 -1.16516
-0.24052 -1.18732 -1.18732
-0.199703 -1.16378 -1.16378
-0.236008 -1.14165 -1.14165
-0.238265 -1.16438 -1.16438
-0.279471 -1.18809 -1.18809
-0.284649 -1.23454 -1.23454
-0.205437 -1.23322 -1.23322
-0.201616 -1.18673 -1.18673
-0.282062 -1.21121 -1.21121
-0.245018 -1.2338 -1.2338
-0.203528 -1.20987 -1.20987
-0.24052 -1.18732 -1.18732
-0.242771 -1.21046 -1.21046
-0.284649 -1.23454 -1.23454
-0.289808 -1.2818 -1.2818
-0.209249 -1.28052 -1.28052
-0.205437 -1.23322 -1.23322
-0.287231 -1.25807 -1.25807
-0.249504 -1.28107 -1.28107
-0.207344 -1.25677 -1.25677
-0.245018 -1.2338 -1.2338
-0.247263 -1.25733 -1.25733
-0.289808 -1.2818 -1.2818
-0.294951 -1.32985 -1.32985
-0.213053 -1.32861 -1.32861
-0.209249 -1.28052 -1.28052
-0.292382 -1.30572 -1.30572
-0.253978 -1.32914 -1.32914
-0.211152 -1.30446 -1.30446
-0.249504 -1.28107 -1.28107
-0.251743 -1.30501 -1.30501
-0.294951 -1.32985 -1.32985
-0.300076 -1.37869 -1.37869
-0.216849 -1.37748 -1.37748
-0.213053 -1.32861 -1.32861
-0.297515 -1.35417 -1.35417
-0.258438 -1.378 -1.378
-0.214952 -1.35295 -1.35295
-0.253978 -1.32914 -1.32914
-0.25621 -1.35347 -1.35347
-0.300076 -1.37869 -1.37869
-0.305184 -1.42831 -1.42831
-0.220638 -1.42715 -1.42715
-0.216849 -1.37748 -1.37748
-0.302632 -1.4034 -1.4034
-0.262887 -1.42764 -1.42764
-0.218744 -1.40222 -1.40222
-0.258438 -1.378 -1.378
-0.260664 -1.40273 -1.40273
-0.305184 -1.42831 -1.42831
-0.310275 -1.47871 -1.47871
-0.224418 -1.47759 -1.47759
-0.220638 -1.42715 -1.42715
-0.307732 -1.45341 -1.45341
-0.267322 -1.47807 -1.47807
-0.222529 -1.45227 -1.45227
-0.262887 -1.42764 -1.42764
-0.265106 -1.45276 -1.45276
-0.310275 -1.47871 -1.47871
-0.31535 -1.52988 -1.52988
-0.228191 -1.5288 -1.5288
-0.224418 -1.47759 -1.47759
-0.312814 -1.5042 -1.5042
-0.271746 -1.52926 -1.52926
-0.226306 -1.5031 -1.5031
-0.267322 -1.47807 -1.47807
-0.269536 -1.50357 -1.50357
-0.31535 -1.52988 -1.52988
-0.320407 -1.58182 -1.58182
-0.231957 -1.58078 -1.58078
-0.228191 -1.5288 -1.5288
-0.31788 -1.55576 -1.55576
-0.276158 -1.58122 -1.58122
-0.230075 -1.55469 -1.55469
-0.271746 -1.52926 -1.52926
-0.273953 -1.55514 -1.55514
-0.320407 -1.58182 -1.58182
-0.325448 -1.63452 -1.63452
-0.235715 -1.63352 -1.63352
-0.231957 -1.58078 -1.58078
-0.32293 -1.60808 -1.60808
-0.280557 -1.63394 -1.63394
-0.233837 -1.60706 -1.60706
-0.276158 -1.58122 -1.58122
-0.278359 -1.60749 -1.60749
-0.325448 -1.63452 -1.63452
-0.330473 -1.68798 -1.68798
-0.239466 -1.68702 -1.68702
-0.235715 -1.63352 -1.63352
-0.327963 -1.66116 -1.66116
-0.284945 -1.68742 -1.68742
-0.237591 -1.66018 -1.66018
-0.280557 -1.63394 -1.63394
-0.282753 -1.66059 -1.66059
-0.330473 -1.68798 -1.68798
-0.335482 -1.74219 -1.74219
-0.24321 -1.74127 -1.74127
-0.239466 -1.68702 -1.68702
-0.332979 -1.71499 -1.71499
-0.289321 -1.74165 -1.74165
-0.241339 -1.71405 -1.71405
-0.284945 -1.68742 -1.68742
-0.287135 -1.71444 -1.71444
-0.335482 -1.74219 -1.74219
-0.340474 -1.79714 -1.79714
-0.246947 -1.79626 -1.79626
-0.24321 -1.74127 -1.74127
-0.33798 -1.76957 -1.76957
-0.293686 -1.79662 -1.79662
-0.245079 -1.76867 -1.76867
-0.289321 -1.74165 -1.74165
-0.291505 -1.76904 -1.76904
-0.340474 -1.79714 -1.79714
-0.34545 -1.85284 -1.85284
-0.250677 -1.852 -1.852
-0.246947 -1.79626 -1.79626
-0.342964 -1.8249 -1.8249
-0.298039 -1.85234 -1.85234
-0.248812 -1.82404 -1.82404
-0.293686 -1.79662 -1.79662
-0.295864 -1.82439 -1.82439
-0.34545 -1.85284 -1.85284
-0.35041 -1.90926 -1.90926
-0.2544 -1.90847 -1.90847
-0.250677 -1.852 -1.852
-0.347932 -1.88096 -1.88096
-0.30238 -1.90879 -1.90879
-0.252539 -1.88014 -1.88014
-0.298039 -1.85234 -1.85234
-0.300211 -1.88047 -1.88047
-0.35041 -1.90926 -1.90926
-0.355354 -1.96642 -1.96642
-0.258116 -1.96567 -1.96567
-0.2544 -1.90847 -1.90847
-0.352884 -1.93775 -1.93775
-0.306711 -1.96597 -1.96597
-0.256259 -1.93698 -1.93698
-0.30238 -1.90879 -1.90879
-0.304547 -1.93729 -1.93729
-0.355354 -1.96642 -1.96642
-0.360282 -2.0243 -2.0243
-0.261826 -2.02359 -2.02359
-0.258116 -1.96567 -1.96567
-0.35782 -1.99527 -1.99527
-0.31103 -2.02387 -2.02387
-0.259972 -1.99454 -1.99454
-0.306711 -1.96597 -1.96597
-0.308872 -1.99483 -1.99483
-0.360282 -2.0243 -2.0243
-0.365195 -2.0829 -2.0829
-0.265529 -2.08223 -2.08223
-0.261826 -2.02359 -2.02359
-0.36274 -2.05351 -2.05351
-0.315338 -2.08249 -2.08249
-0.263678 -2.05282 -2.05282
-0.31103 -2.02387 -2.02387
-0.313185 -2.05309 -2.05309
-0.365195 -2.0829 -2.0829
-0.370091 -2.14221 -2.14221
-0.269226 -2.14159 -2.14159
-0.265529 -2.08223 -2.08223
-0.367645 -2.11247 -2.11247
-0.319634 -2.14183 -2.14183
-0.267378 -2.11182 -2.11182
-0.315338 -2.08249 -2.08249
-0.317487 -2.11207 -2.11207
-0.370091 -2.14221 -2.14221
-0.374973 -2.20223 -2.20223
-0.272916 -2.20165 -2.20165
-0.269226 -2.14159 -2.14159
-0.372534 -2.17214 -2.17214
-0.32392 -2.20187 -2.20187
-0.271072 -2.17153 -2.17153
-0.319634 -2.14183 -2.14183
-0.321779 -2.17176 -2.17176
-0.374973 -2.20223 -2.20223
-0.379838 -2.26296 -2.26296
-0.276601 -2.26241 -2.26241
-0.272916 -2.20165 -2.20165
-0.377407 -2.23251 -2.23251
-0.328195 -2.26261 -2.26261
-0.274759 -2.23194 -2.23194
-0.32392 -2.20187 -2.20187
-0.326059 -2.23215 -2.23215
-0.379838 -2.26296 -2.26296
-0.384688 -2.32437 -2.32437
-0.280278 -2.32387 -2.32387
-0.276601 -2.26241 -2.26241
-0.382265 -2.29358 -2.29358
-0.332459 -2.32405 -2.32405
-0.27844 -2.29306 -2.29306
-0.328195 -2.26261 -2.26261
-0.330328 -2.29324 -2.29324
-0.384688 -2.32437 -2.32437
-0.389523 -2.38648 -2.38648
-0.28395 -2.38602 -2.38602
-0.280278 -2.32387 -2.32387
-0.387108 -2.35534 -2.35534
-0.336712 -2.38618 -2.38618
-0.282115 -2.35486 -2.35486
-0.332459 -2.32405 -2.32405
-0.334587 -2.35503 -2.35503
-0.389523 -2.38648 -2.38648
-0.394342 -2.44928 -2.44928
-0.287615 -2.44886 -2.44886
-0.28395 -2.38602 -2.38602
-0.391935 -2.4178 -2.4178
-0.340954 -2.449 -2.449
-0.285783 -2.41736 -2.41736
-0.336712 -2.38618 -2.38618
-0.338835 -2.4175 -2.4175
-0.394342 -2.44928 -2.44928
-0.399146 -2.51275 -2.51275
-0.291275 -2.51238 -2.51238
-0.287615 -2.44886 -2.44886
-0.396746 -2.48093 -2.48093
-0.345186 -2.5125 -2.5125
-0.289446 -2.48054 -2.48054
-0.340954 -2.449 -2.449
-0.343072 -2.48066 -2.48066
-0.399146 -2.51275 -2.51275
-0.403935 -2.5769 -2.5769
-0.294928 -2.57657 -2.57657
-0.291275 -2.51238 -2.51238
-0.401543 -2.54474 -2.54474
-0.349407 -2.57667 -2.57667
-0.293102 -2.54439 -2.54439
-0.345186 -2.5125 -2.5125
-0.347298 -2.5445 -2.5445
-0.403935 -2.5769 -2.5769
-0.408709 -2.64172 -2.64172
-0.298575 -2.64144 -2.64144
-0.294928 -2.57657 -2.57657
-0.406324 -2.60923 -2.60923
-0.353617 -2.64151 -2.64151
-0.296752 -2.60892 -2.60892
-0.349407 -2.57667 -2.57667
-0.351513 -2.609 -2.609
-0.408709 -2.64172 -2.64172
-0.413467 -2.70721 -2.70721
-0.302216 -2.70696 -2.70696
-0.298575 -2.64144 -2.64144
-0.41109 -2.67438 -2.67438
-0.357817 -2.70701 -2.70701
-0.300396 -2.67412 -2.67412
-0.353617 -2.64151 -2.64151
-0.355719 -2.67418 -2.67418
-0.413467 -2.70721 -2.70721
-0.41821 -2.77335 -2.77335
-0.305852 -2.77315 -2.77315
-0.302216 -2.70696 -2.70696
-0.41584 -2.7402 -2.7402
-0.362006 -2.77318 -2.77318
-0.304035 -2.73997 -2.73997
-0.357817 -2.70701 -2.70701
-0.359913 -2.74001 -2.74001
-0.41821 -2.77335 -2.77335
-0.422938 -2.84014 -2.84014
-0.309481 -2.83999 -2.83999
-0.305852 -2.77315 -2.77315
-0.420576 -2.80667 -2.80667
-0.366185 -2.84 -2.84
-0.307667 -2.80648 -2.80648
-0.362006 -2.77318 -2.77318
-0.364097 -2.80651 -2.80651
-0.422938 -2.84014 -2.84014
-0.427651 -2.90759 -2.90759
-0.313104 -2.90747 -2.90747
-0.309481 -2.83999 -2.83999
-0.425296 -2.87379 -2.87379
-0.370353 -2.90746 -2.90746
-0.311293 -2.87365 -2.87365
-0.366185 -2.84 -2.84
-0.36827 -2.87365 -2.87365
-0.427651 -2.90759 -2.90759
-0.432349 -2.97567 -2.97567
-0.316722 -2.9756 -2.9756
-0.313104 -2.90747 -2.90747
-0.430002 -2.94155 -2.94155
-0.374511 -2.97557 -2.97557
-0.314914 -2.94146 -2.94146
-0.370353 -2.90746 -2.90746
-0.372433 -2.94144 -2.94144
-0.432349 -2.97567 -2.97567
-0.437031 -3.0444 -3.0444
-0.320334 -3.04437 -3.04437
-0.316722 -2.9756 -2.9756
-0.434692 -3.00996 -3.00996
-0.378658 -3.04431 -3.04431
-0.318529 -3.0099 -3.0099
-0.374511 -2.97557 -2.97557
-0.376586 -3.00986 -3.00986
-0.437031 -3.0444 -3.0444
-0.441699 -3.11375 -3.11375
-0.32394 -3.11376 -3.11376
-0.320334 -3.04437 -3.04437
-0.439367 -3.07899 -3.07899
-0.382795 -3.11369 -3.11369
-0.322137 -3.07899 -3.07899
-0.378658 -3.04431 -3.04431
-0.380728 -3.07892 -3.07892
-0.441699 -3.11375 -3.11375
-0.446352 -3.18373 -3.18373
-0.32754 -3.18378 -3.18378
-0.32394 -3.11376 -3.11376
-0.444027 -3.14866 -3.14866
-0.386921 -3.18369 -3.18369
-0.32574 -3.1487 -3.1487
-0.382795 -3.11369 -3.11369
-0.384859 -3.14861 -3.14861
-0.446352 -3.18373 -3.18373
-0.450989 -3.25433 -3.25433
-0.331134 -3.25443 -3.25443
-0.32754 -3.18378 -3.18378
-0.448672 -3.21895 -3.21895
-0.391037 -3.25431 -3.25431
-0.329337 -3.21903 -3.21903
-0.386921 -3.18369 -3.18369
-0.38898 -3.21893 -3.21893
-0.450989 -3.25433 -3.25433
-0.455612 -3.32555 -3.32555
-0.334722 -3.32569 -3.32569
-0.331134 -3.25443 -3.25443
-0.453302 -3.28986 -3.28986
-0.395142 -3.32555 -3.32555
-0.332929 -3.28998 -3.28998
-0.391037 -3.25431 -3.25431
-0.393091 -3.28986 -3.28986
-0.455612 -3.32555 -3.32555
-0.460219 -3.39737 -3.39737
-0.338305 -3.39756 -3.39756
-0.334722 -3.32569 -3.32569
-0.457917 -3.36138 -3.36138
-0.399237 -3.3974 -3.3974
-0.336514 -3.36155 -3.36155
-0.395142 -3.32555 -3.32555
-0.397191 -3.3614 -3.3614
-0.460219 -3.39737 -3.39737
-0.464811 -3.4698 -3.4698
-0.341881 -3.47003 -3.47003
-0.338305 -3.39756 -3.39756
-0.462517 -3.43351 -3.43351
-0.403322 -3.46985 -3.46985
-0.340094 -3.43372 -3.43372
-0.399237 -3.3974 -3.3974
-0.401281 -3.43355 -3.43355
-0.464811 -3.4698 -3.4698
-0.469389 -3.54283 -3.54283
-0.345452 -3.5431 -3.5431
-0.341881 -3.47003 -3.47003
-0.467102 -3.50624 -3.50624
-0.407396 -3.5429 -3.5429
-0.343667 -3.50649 -3.50649
-0.403322 -3.46985 -3.46985
-0.40536 -3.5063 -3.5063
-0.469389 -3.54283 -3.54283
-0.473951 -3.61645 -3.61645
-0.349017 -3.61676 -3.61676
-0.345452 -3.5431 -3.5431
-0.471672 -3.57957 -3.57957
-0.411459 -3.61655 -3.61655
-0.347235 -3.57986 -3.57986
-0.407396 -3.5429 -3.5429
-0.409429 -3.57965 -3.57965
-0.473951 -3.61645 -3.61645
-0.478498 -3.69066 -3.69066
-0.352576 -3.69102 -3.69102
-0.349017 -3.61676 -3.61676
-0.476226 -3.65348 -3.65348
-0.415513 -3.69078 -3.69078
-0.350797 -3.65382 -3.65382
-0.411459 -3.61655 -3.61655
-0.413487 -3.65359 -3.65359
-0.478498 -3.69066 -3.69066
-0.48303 -3.76545 -3.76545
-0.356129 -3.76585 -3.76585
-0.352576 -3.69102 -3.69102
-0.480766 -3.72799 -3.72799
-0.419555 -3.76559 -3.76559
-0.354353 -3.72836 -3.72836
-0.415513 -3.69078 -3.69078
-0.417535 -3.72811 -3.72811
-0.48303 -3.76545 -3.76545
-0.487547 -3.84082 -3.84082
-0.359676 -3.84127 -3.84127
-0.356129 -3.76585 -3.76585
-0.48529 -3.80307 -3.80307
-0.423587 -3.84098 -3.84098
-0.357903 -3.80349 -3.80349
-0.419555 -3.76559 -3.76559
-0.421572 -3.80322 -3.80322
-0.487547 -3.84082 -3.84082
-0.492048 -3.91677 -3.91677
-0.363217 -3.91725 -3.91725
-0.359676 -3.84127 -3.84127
-0.489799 -3.87872 -3.87872
-0.427608 -3.91695 -3.91695
-0.361448 -3.87919 -3.87919
-0.423587 -3.84098 -3.84098
-0.425599 -3.8789 -3.8789
-0.492048 -3.91677 -3.91677
-0.496535 -3.99327 -3.99327
-0.366753 -3.9938 -3.9938
-0.363217 -3.91725 -3.91725
-0.494293 -3.95495 -3.95495
-0.431619 -3.99348 -3.99348
-0.364986 -3.95546 -3.95546
-0.427608 -3.91695 -3.91695
-0.429615 -3.95514 -3.95514
-0.496535 -3.99327 -3.99327
-0.501006 -4.07034 -4.07034
-0.370282 -4.07091 -4.07091
-0.366753 -3.9938 -3.9938
-0.498772 -4.03174 -4.03174
-0.435619 -4.07057 -4.07057
-0.368518 -4.03229 -4.03229
-0.431619 -3.99348 -3.99348
-0.433621 -4.03195 -4.03195
-0.501006 -4.07034 -4.07034
-0.505462 -4.14797 -4.14797
-0.373805 -4.14858 -4.14858
-0.370282 -4.07091 -4.07091
-0.503236 -4.10909 -4.10909
-0.439609 -4.14822 -4.14822
-0.372044 -4.10968 -4.10968
-0.435619 -4.07057 -4.07057
-0.437615 -4.10932 -4.10932
-0.505462 -4.14797 -4.14797
-0.509902 -4.22614 -4.22614
-0.377321 -4.2268 -4.2268
-0.373805 -4.14858 -4.14858
-0.507684 -4.18699 -4.18699
-0.443587 -4.22641 -4.22641
-0.375564 -4.18762 -4.18762
-0.439609 -4.14822 -4.14822
-0.441599 -4.18725 -4.18725
-0.509902 -4.22614 -4.22614
-0.514327 -4.30486 -4.30486
-0.380832 -4.30556 -4.30556
-0.377321 -4.2268 -4.2268
-0.512116 -4.26543 -4.26543
-0.447555 -4.30515 -4.30515
-0.379078 -4.26611 -4.26611
-0.443587 -4.22641 -4.22641
-0.445573 -4.26571 -4.26571
-0.514327 -4.30486 -4.30486
-0.518737 -4.38412 -4.38412
-0.384337 -4.38486 -4.38486
-0.380832 -4.30556 -4.30556
-0.516534 -4.34442 -4.34442
-0.451512 -4.38443 -4.38443
-0.382585 -4.34514 -4.34514
-0.447555 -4.30515 -4.30515
-0.449535 -4.34473 -4.34473
-0.518737 -4.38412 -4.38412
-0.523131 -4.46391 -4.46391
-0.387835 -4.46469 -4.46469
-0.384337 -4.38486 -4.38486
-0.520936 -4.42395 -4.42395
-0.455458 -4.46425 -4.46425
-0.386086 -4.42471 -4.42471
-0.451512 -4.38443 -4.38443
-0.453487 -4.42427 -4.42427
-0.523131 -4.46391 -4.46391
-0.527509 -4.54423 -4.54423
-0.391326 -4.54506 -4.54506
-0.387835 -4.46469 -4.46469
-0.525322 -4.50401 -4.50401
-0.459393 -4.54459 -4.54459
-0.389581 -4.50481 -4.50481
-0.455458 -4.46425 -4.46425
-0.457427 -4.50435 -4.50435
-0.527509 -4.54423 -4.54423
-0.531872 -4.62508 -4.62508
-0.394812 -4.62594 -4.62594
-0.391326 -4.54506 -4.54506
-0.529693 -4.58459 -4.58459
-0.463318 -4.62545 -4.62545
-0.39307 -4.58543 -4.58543
-0.459393 -4.54459 -4.54459
-0.461357 -4.58496 -4.58496
-0.531872 -4.62508 -4.62508
-0.536219 -4.70644 -4.70644
-0.398291 -4.70734 -4.70734
-0.394812 -4.62594 -4.62594
-0.534048 -4.66569 -4.66569
-0.467231 -4.70684 -4.70684
-0.396552 -4.66658 -4.66658
-0.463318 -4.62545 -4.62545
-0.465275 -4.66608 -4.66608
-0.536219 -4.70644 -4.70644
-0.540551 -4.78831 -4.78831
-0.401763 -4.78926 -4.78926
-0.398291 -4.70734 -4.70734
-0.538387 -4.74731 -4.74731
-0.471132 -4.78873 -4.78873
-0.400027 -4.74824 -4.74824
-0.467231 -4.70684 -4.70684
-0.469183 -4.74772 -4.74772
-0.540551 -4.78831 -4.78831
-0.544866 -4.87069 -4.87069
-0.405228 -4.87168 -4.87168
-0.401763 -4.78926 -4.78926
-0.54271 -4.82944 -4.82944
-0.475023 -4.87113 -4.87113
-0.403496 -4.83041 -4.83041
-0.471132 -4.78873 -4.78873
-0.473079 -4.82987 -4.82987
-0.544866 -4.87069 -4.87069
-0.549166 -4.95357 -4.95357
-0.408687 -4.9546 -4.9546
-0.405228 -4.87168 -4.87168
-0.547018 -4.91207 -4.91207
-0.478902 -4.95403 -4.95403
-0.406959 -4.91308 -4.91308
-0.475023 -4.87113 -4.87113
-0.476964 -4.91252 -4.91252
-0.549166 -4.95357 -4.95357
-0.55345 -5.03695 -5.03695
-0.41214 -5.03802 -5.03802
-0.408687 -4.9546 -4.9546
-0.55131 -4.9952 -4.9952
-0.48277 -5.03743 -5.03743
-0.410414 -4.99625 -4.99625
-0.478902 -4.95403 -4.95403
-0.480838 -4.99567 -4.99567
-0.55345 -5.03695 -5.03695
-0.557717 -5.12081 -5.12081
-0.415585 -5.12193 -5.12193
-0.41214 -5.03802 -5.03802
-0.555585 -5.07882 -5.07882
-0.486627 -5.12132 -5.12132
-0.413863 -5.07991 -5.07991
-0.48277 -5.03743 -5.03743
-0.4847 -5.07931 -5.07931
-0.557717 -5.12081 -5.12081
-0.561969 -5.20517 -5.20517
-0.419023 -5.20632 -5.20632
-0.415585 -5.12193 -5.12193
-0.559845 -5.16293 -5.16293
-0.490472 -5.20569 -5.20569
-0.417305 -5.16406 -5.16406
-0.486627 -5.12132 -5.12132
-0.488551 -5.16345 -5.16345
-0.561969 -5.20517 -5.20517
-0.566204 -5.29 -5.29
-0.422454 -5.29119 -5.29119
-0.419023 -5.20632 -5.20632
-0.564088 -5.24752 -5.24752
-0.494305 -5.29054 -5.29054
-0.42074 -5.2487 -5.2487
-0.490472 -5.20569 -5.20569
-0.49239 -5.24806 -5.24806
-0.566204 -5.29 -5.29
-0.570423 -5.3753 -5.3753
-0.425879 -5.37654 -5.37654
-0.422454 -5.29119 -5.29119
-0.568315 -5.33259 -5.33259
-0.498126 -5.37587 -5.37587
-0.424167 -5.33381 -5.33381
-0.494305 -5.29054 -5.29054
-0.496217 -5.33315 -5.33315
-0.570423 -5.3753 -5.3753
-0.574625 -5.46108 -5.46108
-0.429295 -5.46235 -5.46235
-0.425879 -5.37654 -5.37654
-0.572526 -5.41813 -5.41813
-0.501936 -5.46167 -5.46167
-0.427588 -5.41939 -5.41939
-0.498126 -5.37587 -5.37587
-0.500033 -5.41871 -5.41871
-0.574625 -5.46108 -5.46108
-0.578811 -5.54731 -5.54731
-0.432705 -5.54863 -5.54863
-0.429295 -5.46235 -5.46235
-0.57672 -5.50414 -5.50414
-0.505734 -5.54792 -5.54792
-0.431001 -5.50544 -5.50544
-0.501936 -5.46167 -5.46167
-0.503836 -5.50474 -5.50474
-0.578811 -5.54731 -5.54731
-0.58298 -5.63401 -5.63401
-0.436107 -5.63537 -5.63537
-0.432705 -5.54863 -5.54863
-0.580898 -5.5906 -5.5906
-0.509519 -5.63464 -5.63464
-0.434407 -5.59194 -5.59194
-0.505734 -5.54792 -5.54792
-0.507628 -5.59123 -5.59123
-0.58298 -5.63401 -5.63401
-0.587133 -5.72116 -5.72116
-0.439502 -5.72255 -5.72255
-0.436107 -5.63537 -5.63537
-0.585059 -5.67753 -5.67753
-0.513293 -5.72181 -5.72181
-0.437805 -5.6789 -5.6789
-0.509519 -5.63464 -5.63464
-0.511408 -5.67817 -5.67817
-0.587133 -5.72116 -5.72116
-0.591268 -5.80875 -5.80875
-0.442889 -5.81019 -5.81019
-0.439502 -5.72255 -5.72255
-0.589203 -5.7649 -5.7649
-0.517054 -5.80942 -5.80942
-0.441196 -5.76632 -5.76632
-0.513293 -5.72181 -5.72181
-0.515175 -5.76556 -5.76556
-0.591268 -5.80875 -5.80875
-0.595387 -5.89679 -5.89679
-0.446268 -5.89826 -5.89826
-0.442889 -5.81019 -5.81019
-0.59333 -5.85271 -5.85271
-0.520803 -5.89748 -5.89748
-0.444579 -5.85417 -5.85417
-0.517054 -5.80942 -5.80942
-0.51893 -5.8534 -5.8534
-0.595387 -5.89679 -5.89679
-0.599489 -5.98526 -5.98526
-0.449639 -5.98678 -5.98678
-0.446268 -5.89826 -5.89826
-0.59744 -5.94097 -5.94097
-0.52454 -5.98597 -5.98597
-0.447955 -5.94247 -5.94247
-0.520803 -5.89748 -5.89748
-0.522673 -5.94167 -5.94167
-0.599489 -5.98526 -5.98526
-0.603573 -6.07416 -6.07416
-0.453003 -6.07572 -6.07572
-0.449639 -5.98678 -5.98678
-0.601533 -6.02966 -6.02966
-0.528264 -6.07489 -6.07489
-0.451322 -6.03119 -6.03119
-0.52454 -5.98597 -5.98597
-0.526403 -6.03038 -6.03038
-0.603573 -6.07416 -6.07416
-0.60764 -6.16349 -6.16349
-0.456358 -6.16508 -6.16508
-0.453003 -6.07572 -6.07572
-0.605609 -6.11877 -6.11877
-0.531975 -6.16424 -6.16424
-0.454681 -6.12035 -6.12035
-0.528264 -6.07489 -6.07489
-0.530121 -6.11951 -6.11951
-0.60764 -6.16349 -6.16349
-0.61169 -6.25324 -6.25324
-0.459705 -6.25487 -6.25487
-0.456358 -6.16508 -6.16508
-0.609667 -6.20831 -6.20831
-0.535673 -6.25401 -6.25401
-0.458033 -6.20992 -6.20992
-0.531975 -6.16424 -6.16424
-0.533826 -6.20907 -6.20907
-0.61169 -6.25324 -6.25324
-0.615722 -6.3434 -6.3434
-0.463044 -6.34507 -6.34507
-0.459705 -6.25487 -6.25487
-0.613708 -6.29826 -6.29826
-0.539359 -6.34419 -6.34419
-0.461376 -6.29992 -6.29992
-0.535673 -6.25401 -6.25401
-0.537518 -6.29905 -6.29905
-0.615722 -6.3434 -6.3434
-0.619737 -6.43397 -6.43397
-0.466374 -6.43568 -6.43568
-0.463044 -6.34507 -6.34507
-0.617732 -6.38863 -6.38863
-0.543031 -6.43478 -6.43478
-0.46471 -6.39032 -6.39032
-0.539359 -6.34419 -6.34419
-0.541197 -6.38944 -6.38944
-0.619737 -6.43397 -6.43397
-0.623734 -6.52494 -6.52494
-0.469696 -6.52669 -6.52669
-0.466374 -6.43568 -6.43568
-0.621738 -6.4794 -6.4794
-0.546691 -6.52578 -6.52578
-0.468036 -6.48114 -6.48114
-0.543031 -6.43478 -6.43478
-0.544863 -6.48023 -6.48023
-0.623734 -6.52494 -6.52494
-0.627712 -6.61631 -6.61631
-0.473009 -6.6181 -6.6181
-0.469696 -6.52669 -6.52669
-0.625725 -6.57058 -6.57058
-0.550337 -6.61717 -6.61717
-0.471353 -6.57235 -6.57235
-0.546691 -6.52578 -6.52578
-0.548515 -6.57142 -6.57142
-0.627712 -6.61631 -6.61631
-0.631673 -6.70808 -6.70808
-0.476313 -6.7099 -6.7099
-0.473009 -6.6181 -6.6181
-0.629695 -6.66215 -6.66215
-0.553969 -6.70895 -6.70895
-0.474662 -6.66395 -6.66395
-0.550337 -6.61717 -6.61717
-0.552154 -6.66301 -6.66301
-0.631673 -6.70808 -6.70808
-0.635616 -6.80023 -6.80023
-0.479608 -6.80209 -6.80209
-0.476313 -6.7099 -6.7099
-0.633647 -6.75411 -6.75411
-0.557588 -6.80112 -6.80112
-0.477962 -6.75595 -6.75595
-0.553969 -6.70895 -6.70895
-0.55578 -6.75499 -6.75499
-0.635616 -6.80023 -6.80023
-0.63954 -6.89277 -6.89277
-0.482894 -6.89467 -6.89467
-0.479608 -6.80209 -6.80209
-0.63758 -6.84645 -6.84645
-0.561193 -6.89368 -6.89368
-0.481252 -6.84833 -6.84833
-0.557588 -6.80112 -6.80112
-0.559392 -6.84735 -6.84735
-0.63954 -6.89277 -6.89277
-0.643446 -6.98568 -6.98568
-0.486171 -6.98761 -6.98761
-0.482894 -6.89467 -6.89467
-0.641495 -6.93917 -6.93917
-0.564784 -6.98661 -6.98661
-0.484533 -6.94109 -6.94109
-0.561193 -6.89368 -6.89368
-0.56299 -6.94009 -6.94009
-0.643446 -6.98568 -6.98568
-0.647333 -7.07896 -7.07896
-0.489438 -7.08093 -7.08093
-0.486171 -6.98761 -6.98761
-0.645392 -7.03227 -7.03227
-0.568361 -7.07991 -7.07991
-0.487805 -7.03423 -7.03423
-0.564784 -6.98661 -6.98661
-0.566575 -7.03321 -7.03321
-0.647333 -7.07896 -7.07896
-0.651201 -7.1726 -7.1726
-0.492696 -7.17461 -7.17461
-0.489438 -7.08093 -7.08093
-0.649269 -7.12573 -7.12573
-0.571924 -7.17357 -7.17357
-0.491068 -7.12773 -7.12773
-0.568361 -7.07991 -7.07991
-0.570145 -7.12669 -7.12669
-0.651201 -7.1726 -7.1726
-0.655051 -7.26661 -7.26661
-0.495944 -7.26866 -7.26866
-0.492696 -7.17461 -7.17461
-0.653128 -7.21956 -7.21956
-0.575473 -7.2676 -7.2676
-0.494321 -7.22159 -7.22159
-0.571924 -7.17357 -7.17357
-0.573701 -7.22054 -7.22054
-0.655051 -7.26661 -7.26661
-0.658881 -7.36097 -7.36097
-0.499182 -7.36305 -7.36305
-0.495944 -7.26866 -7.26866
-0.656968 -7.31375 -7.31375
-0.579007 -7.36198 -7.36198
-0.497564 -7.31581 -7.31581
-0.575473 -7.2676 -7.2676
-0.577242 -7.31474 -7.31474
-0.658881 -7.36097 -7.36097
-0.662692 -7.45568 -7.45568
-0.50241 -7.4578 -7.4578
-0.499182 -7.36305 -7.36305
-0.660789 -7.40828 -7.40828
-0.582527 -7.4567 -7.4567
-0.500797 -7.41038 -7.41038
-0.579007 -7.36198 -7.36198
-0.580769 -7.4093 -7.4093
-0.662692 -7.45568 -7.45568
-0.666484 -7.55074 -7.55074
-0.505628 -7.55289 -7.55289
-0.50241 -7.4578 -7.4578
-0.664591 -7.50317 -7.50317
-0.586032 -7.55178 -7.55178
-0.50402 -7.5053 -7.5053
-0.582527 -7.4567 -7.4567
-0.584281 -7.5042 -7.5042
-0.666484 -7.55074 -7.55074
-0.670256 -7.64613 -7.64613
-0.508835 -7.64832 -7.64832
-0.505628 -7.55289 -7.55289
-0.668373 -7.59839 -7.59839
-0.589522 -7.64719 -7.64719
-0.507233 -7.60056 -7.60056
-0.586032 -7.55178 -7.55178
-0.587779 -7.59944 -7.59944
-0.670256 -7.64613 -7.64613
-0.674009 -7.74185 -7.74185
-0.512032 -7.74408 -7.74408
-0.508835 -7.64832 -7.64832
-0.672135 -7.69395 -7.69395
-0.592997 -7.74293 -7.74293
-0.510435 -7.69616 -7.69616
-0.589522 -7.64719 -7.64719
-0.591261 -7.69502 -7.69502
-0.674009 -7.74185 -7.74185
-0.677742 -7.83791 -7.83791
-0.515219 -7.84016 -7.84016
-0.512032 -7.74408 -7.74408
-0.675878 -7.78984 -7.78984
-0.596456 -7.839 -7.839
-0.513627 -7.79208 -7.79208
-0.592997 -7.74293 -7.74293
-0.594728 -7.79093 -7.79093
-0.677742 -7.83791 -7.83791
-0.681454 -7.93428 -7.93428
-0.518394 -7.93657 -7.93657
-0.515219 -7.84016 -7.84016
-0.6796 -7.88605 -7.88605
-0.5999 -7.93539 -7.93539
-0.516808 -7.88833 -7.88833
-0.596456 -7.839 -7.839
-0.59818 -7.88716 -7.88716
-0.681454 -7.93428 -7.93428
-0.685147 -8.03097 -8.03097
-0.521559 -8.0333 -8.0333
-0.518394 -7.93657 -7.93657
-0.683303 -7.98259 -7.98259
-0.603329 -8.0321 -8.0321
-0.519978 -7.9849 -7.9849
-0.5999 -7.93539 -7.93539
-0.601617 -7.98371 -7.98371
-0.685147 -8.03097 -8.03097
-0.688819 -8.12797 -8.12797
-0.524713 -8.13034 -8.13034
-0.521559 -8.0333 -8.0333
-0.686985 -8.07943 -8.07943
-0.606742 -8.12912 -8.12912
-0.523137 -8.08178 -8.08178
-0.603329 -8.0321 -8.0321
-0.605037 -8.08058 -8.08058
-0.688819 -8.12797 -8.12797
-0.692471 -8.22528 -8.22528
-0.527855 -8.22768 -8.22768
-0.524713 -8.13034 -8.13034
-0.690647 -8.17659 -8.17659
-0.610139 -8.22645 -8.22645
-0.526285 -8.17897 -8.17897
-0.606742 -8.12912 -8.12912
-0.608442 -8.17775 -8.17775
-0.692471 -8.22528 -8.22528
-0.696102 -8.32289 -8.32289
-0.530985 -8.32532 -8.32532
-0.527855 -8.22768 -8.22768
-0.694289 -8.27405 -8.27405
-0.61352 -8.32408 -8.32408
-0.529422 -8.27646 -8.27646
-0.610139 -8.22645 -8.22645
-0.611831 -8.27523 -8.27523
-0.696102 -8.32289 -8.32289
-0.699712 -8.4208 -8.4208
-0.534104 -8.42326 -8.42326
-0.530985 -8.32532 -8.32532
-0.697909 -8.37181 -8.37181
-0.616884 -8.422 -8.422
-0.532546 -8.37425 -8.37425
-0.61352 -8.32408 -8.32408
-0.615204 -8.373 -8.373
-0.699712 -8.4208 -8.4208
-0.703301 -8.51899 -8.51899
-0.537212 -8.52148 -8.52148
-0.534104 -8.42326 -8.42326
-0.701509 -8.46986 -8.46986
-0.620232 -8.52021 -8.52021
-0.535659 -8.47233 -8.47233
-0.616884 -8.422 -8.422
-0.61856 -8.47106 -8.47106
-0.703301 -8.51899 -8.51899
-0.706869 -8.61746 -8.61746
-0.540307 -8.61999 -8.61999
-0.537212 -8.52148 -8.52148
-0.705087 -8.56819 -8.56819
-0.623564 -8.6187 -8.6187
-0.538761 -8.5707 -8.5707
-0.620232 -8.52021 -8.52021
-0.6219 -8.56942 -8.56942
-0.706869 -8.61746 -8.61746
-0.710415 -8.71622 -8.71622
-0.54339 -8.71878 -8.71878
-0.540307 -8.61999 -8.61999
-0.708644 -8.66681 -8.66681
-0.626879 -8.71747 -8.71747
-0.54185 -8.66935 -8.66935
-0.623564 -8.6187 -8.6187
-0.625223 -8.66805 -8.66805
-0.710415 -8.71622 -8.71622
-0.71394 -8.81525 -8.81525
-0.54646 -8.81784 -8.81784
-0.54339 -8.71878 -8.71878
-0.71218 -8.7657 -8.7657
-0.630176 -8.81652 -8.81652
-0.544926 -8.76827 -8.76827
-0.626879 -8.71747 -8.71747
-0.62853 -8.76696 -8.76696
-0.71394 -8.81525 -8.81525
-0.717443 -8.91455 -8.91455
-0.549518 -8.91717 -8.91717
-0.54646 -8.81784 -8.81784
-0.715694 -8.86486 -8.86486
-0.633457 -8.91583 -8.91583
-0.547991 -8.86747 -8.86747
-0.630176 -8.81652 -8.81652
-0.631819 -8.86614 -8.86614
-0.717443 -8.91455 -8.91455
-0.720924 -9.0141 -9.0141
-0.552563 -9.01676 -9.01676
-0.549518 -8.91717 -8.91717
-0.719186 -8.96429 -8.96429
-0.63672 -9.0154 -9.0154
-0.551042 -8.96693 -8.96693
-0.633457 -8.91583 -8.91583
-0.635091 -8.96558 -8.96558
-0.720924 -9.0141 -9.0141
-0.724383 -9.11392 -9.11392
-0.555596 -9.1166 -9.1166
-0.552563 -9.01676 -9.01676
-0.722656 -9.06398 -9.06398
-0.639966 -9.11524 -9.11524
-0.554081 -9.06665 -9.06665
-0.63672 -9.0154 -9.0154
-0.638345 -9.06529 -9.06529
-0.724383 -9.11392 -9.11392
-0.72782 -9.21399 -9.21399
-0.558615 -9.2167 -9.2167
-0.555596 -9.1166 -9.1166
-0.726104 -9.16392 -9.16392
-0.643194 -9.21532 -9.21532
-0.557107 -9.16662 -9.16662
-0.639966 -9.11524 -9.11524
-0.641582 -9.16525 -9.16525
-0.72782 -9.21399 -9.21399
-0.731234 -9.3143 -9.3143
-0.561621 -9.31704 -9.31704
-0.558615 -9.2167 -9.2167
-0.72953 -9.26411 -9.26411
-0.646404 -9.31565 -9.31565
-0.560119 -9.26684 -9.26684
-0.643194 -9.21532 -9.21532
-0.644801 -9.26545 -9.26545
-0.731234 -9.3143 -9.3143
-0.734626 -9.41485 -9.41485
-0.564613 -9.41763 -9.41763
-0.561621 -9.31704 -9.31704
-0.732933 -9.36455 -9.36455
-0.649596 -9.41622 -9.41622
-0.563118 -9.3673 -9.3673
-0.646404 -9.31565 -9.31565
-0.648002 -9.3659 -9.3659
-0.734626 -9.41485 -9.41485
-0.737994 -9.51564 -9.51564
-0.567592 -9.51844 -9.51844
-0.564613 -9.41763 -9.41763
-0.736313 -9.46522 -9.46522
-0.652769 -9.51702 -9.51702
-0.566104 -9.46801 -9.46801
-0.649596 -9.41622 -9.41622
-0.651185 -9.46659 -9.46659
-0.737994 -9.51564 -9.51564
-0.74134 -9.61666 -9.61666
-0.570556 -9.61949 -9.61949
-0.567592 -9.51844 -9.51844
-0.73967 -9.56612 -9.56612
-0.655924 -9.61805 -9.61805
-0.569076 -9.56894 -9.56894
-0.652769 -9.51702 -9.51702
-0.654349 -9.56751 -9.56751
-0.74134 -9.61666 -9.61666
-0.744662 -9.7179 -9.7179
-0.573507 -9.72076 -9.72076
-0.570556 -9.61949 -9.61949
-0.743004 -9.66725 -9.66725
-0.659061 -9.71931 -9.71931
-0.572033 -9.6701 -9.6701
-0.655924 -9.61805 -9.61805
-0.657495 -9.66865 -9.66865
-0.744662 -9.7179 -9.7179
-0.747961 -9.81936 -9.81936
-0.576443 -9.82225 -9.82225
-0.573507 -9.72076 -9.72076
-0.746314 -9.76861 -9.76861
-0.662178 -9.82079 -9.82079
-0.574977 -9.77148 -9.77148
-0.659061 -9.71931 -9.71931
-0.660622 -9.77002 -9.77002
-0.747961 -9.81936 -9.81936
-0.751236 -9.92104 -9.92104
-0.579365 -9.92396 -9.92396
-0.576443 -9.82225 -9.82225
-0.749601 -9.87017 -9.87017
-0.665277 -9.92248 -9.92248
-0.577906 -9.87308 -9.87308
-0.662178 -9.82079 -9.82079
-0.66373 -9.8716 -9.8716
-0.751236 -9.92104 -9.92104
-0.754487 -10.0229 -10.0229
-0.582272 -10.0259 -10.0259
-0.579365 -9.92396 -9.92396
-0.752864 -9.97195 -9.97195
-0.668356 -10.0244 -10.0244
-0.580821 -9.97488 -9.97488
-0.665277 -9.92248 -9.92248
-0.666819 -9.9734 -9.9734
-0.754487 -10.0229 -10.0229
-0.757714 -10.125 -10.125
-0.585165 -10.128 -10.128
-0.582272 -10.0259 -10.0259
-0.756103 -10.0739 -10.0739
-0.671416 -10.1265 -10.1265
-0.58372 -10.0769 -10.0769
-0.668356 -10.0244 -10.0244
-0.669888 -10.0754 -10.0754
-0.757714 -10.125 -10.125
-0.760917 -10.2273 -10.2273
-0.588042 -10.2303 -10.2303
-0.585165 -10.128 -10.128
-0.759318 -10.1761 -10.1761
-0.674456 -10.2288 -10.2288
-0.586605 -10.1791 -10.1791
-0.671416 -10.1265 -10.1265
-0.672938 -10.1776 -10.1776
-0.760917 -10.2273 -10.2273
-0.764095 -10.3298 -10.3298
-0.590904 -10.3328 -10.3328
-0.588042 -10.2303 -10.2303
-0.762509 -10.2785 -10.2785
-0.677476 -10.3313 -10.3313
-0.589475 -10.2815 -10.2815
-0.674456 -10.2288 -10.2288
-0.675968 -10.28 -10.28
-0.764095 -10.3298 -10.3298
-0.767249 -10.4324 -10.4324
-0.59375 -10.4355 -10.4355
-0.590904 -10.3328 -10.3328
-0.765675 -10.3811 -10.3811
-0.680476 -10.4339 -10.4339
-0.592329 -10.3841 -10.3841
-0.677476 -10.3313 -10.3313
-0.678979 -10.3826 -10.3826
-0.767249 -10.4324 -10.4324
-0.770377 -10.5353 -10.5353
-0.596581 -10.5383 -10.5383
-0.59375 -10.4355 -10.4355
-0.768816 -10.4838 -10.4838
-0.683456 -10.5368 -10.5368
-0.595167 -10.4869 -10.4869
-0.680476 -10.4339 -10.4339
-0.681968 -10.4853 -10.4853
-0.770377 -10.5353 -10.5353
-0.773481 -10.6383 -10.6383
-0.599396 -10.6414 -10.6414
-0.596581 -10.5383 -10.5383
-0.771932 -10.5867 -10.5867
-0.686415 -10.6398 -10.6398
-0.59799 -10.5898 -10.5898
-0.683456 -10.5368 -10.5368
-0.684938 -10.5883 -10.5883
-0.773481 -10.6383 -10.6383
-0.776559 -10.7415 -10.7415
-0.602194 -10.7446 -10.7446
-0.599396 -10.6414 -10.6414
-0.775023 -10.6898 -10.6898
-0.689354 -10.743 -10.743
-0.600797 -10.693 -10.693
-0.686415 -10.6398 -10.6398
-0.687887 -10.6914 -10.6914
-0.776559 -10.7415 -10.7415
-0.779612 -10.8448 -10.8448
-0.604977 -10.848 -10.848
-0.602194 -10.7446 -10.7446
-0.778089 -10.7931 -10.7931
-0.692271 -10.8464 -10.8464
-0.603588 -10.7963 -10.7963
-0.689354 -10.743 -10.743
-0.690815 -10.7947 -10.7947
-0.779612 -10.8448 -10.8448
-0.782639 -10.9483 -10.9483
-0.607742 -10.9515 -10.9515
-0.604977 -10.848 -10.848
-0.781129 -10.8965 -10.8965
-0.695168 -10.9499 -10.9499
-0.606362 -10.8997 -10.8997
-0.692271 -10.8464 -10.8464
-0.693722 -10.8981 -10.8981
-0.782639 -10.9483 -10.9483
-0.78564 -11.052 -11.052
-0.610491 -11.0552 -11.0552
-0.607742 -10.9515 -10.9515
-0.784143 -11.0001 -11.0001
-0.698043 -11.0536 -11.0536
-0.609119 -11.0033 -11.0033
-0.695168 -10.9499 -10.9499
-0.696608 -11.0017 -11.0017
-0.78564 -11.052 -11.052
-0.788615 -11.1558 -11.1558
-0.613223 -11.159 -11.159
-0.610491 -11.0552 -11.0552
-0.787131 -11.1039 -11.1039
-0.700896 -11.1574 -11.1574
-0.61186 -11.1071 -11.1071
-0.698043 -11.0536 -11.0536
-0.699472 -11.1055 -11.1055
-0.788615 -11.1558 -11.1558
-0.791564 -11.2598 -11.2598
-0.615938 -11.263 -11.263
-0.613223 -11.159 -11.159
-0.790093 -11.2078 -11.2078
-0.703728 -11.2614 -11.2614
-0.614583 -11.211 -11.211
-0.700896 -11.1574 -11.1574
-0.702315 -11.2094 -11.2094
-0.791564 -11.2598 -11.2598
-0.794486 -11.3638 -11.3638
-0.618636 -11.3671 -11.3671
-0.615938 -11.263 -11.263
-0.793028 -11.3118 -11.3118
-0.706538 -11.3655 -11.3655
-0.617289 -11.315 -11.315
-0.703728 -11.2614 -11.2614
-0.705135 -11.3134 -11.3134
-0.794486 -11.3638 -11.3638
-0.797381 -11.4681 -11.4681
-0.621316 -11.4714 -11.4714
-0.618636 -11.3671 -11.3671
-0.795937 -11.4159 -11.4159
-0.709325 -11.4697 -11.4697
-0.619978 -11.4192 -11.4192
-0.706538 -11.3655 -11.3655
-0.707934 -11.4176 -11.4176
-0.797381 -11.4681 -11.4681
-0.800249 -11.5724 -11.5724
-0.623978 -11.5757 -11.5757
-0.621316 -11.4714 -11.4714
-0.798818 -11.5202 -11.5202
-0.71209 -11.5741 -11.5741
-0.622649 -11.5235 -11.5235
-0.709325 -11.4697 -11.4697
-0.71071 -11.5219 -11.5219
-0.800249 -11.5724 -11.5724
-0.80309 -11.6769 -11.6769
-0.626622 -11.6802 -11.6802
-0.623978 -11.5757 -11.5757
-0.801673 -11.6246 -11.6246
-0.714833 -11.6785 -11.6785
-0.625302 -11.628 -11.628
-0.71209 -11.5741 -11.5741
-0.713464 -11.6263 -11.6263
-0.80309 -11.6769 -11.6769
-0.805903 -11.7815 -11.7815
-0.629247 -11.7848 -11.7848
-0.626622 -11.6802 -11.6802
-0.8045 -11.7292 -11.7292
-0.717552 -11.7831 -11.7831
-0.627937 -11.7325 -11.7325
-0.714833 -11.6785 -11.6785
-0.716195 -11.7308 -11.7308
-0.805903 -11.7815 -11.7815
-0.808689 -11.8862 -11.8862
-0.631854 -11.8896 -11.8896
-0.629247 -11.7848 -11.7848
-0.8073 -11.8338 -11.8338
-0.720249 -11.8879 -11.8879
-0.630553 -11.8372 -11.8372
-0.717552 -11.7831 -11.7831
-0.718903 -11.8355 -11.8355
-0.808689 -11.8862 -11.8862
-0.811447 -11.991 -11.991
-0.634443 -11.9944 -11.9944
-0.631854 -11.8896 -11.8896
-0.810072 -11.9386 -11.9386
-0.722922 -11.9927 -11.9927
-0.633151 -11.942 -11.942
-0.720249 -11.8879 -11.8879
-0.721588 -11.9402 -11.9402
-0.811447 -11.991 -11.991
-0.814177 -12.0959 -12.0959
-0.637013 -12.0993 -12.0993
-0.634443 -11.9944 -11.9944
-0.812816 -12.0434 -12.0434
-0.725572 -12.0976 -12.0976
-0.63573 -12.0468 -12.0468
-0.722922 -11.9927 -11.9927
-0.72425 -12.0451 -12.0451
-0.814177 -12.0959 -12.0959
-0.816878 -12.2009 -12.2009
-0.639563 -12.2043 -12.2043
-0.637013 -12.0993 -12.0993
-0.815531 -12.1484 -12.1484
-0.728198 -12.2026 -12.2026
-0.63829 -12.1518 -12.1518
-0.725572 -12.0976 -12.0976
-0.726888 -12.1501 -12.1501
-0.816878 -12.2009 -12.2009
-0.819551 -12.3059 -12.3059
-0.642094 -12.3094 -12.3094
-0.639563 -12.2043 -12.2043
-0.818218 -12.2534 -12.2534
-0.7308 -12.3077 -12.3077
-0.640831 -12.2569 -12.2569
-0.728198 -12.2026 -12.2026
-0.729502 -12.2551 -12.2551
-0.819551 -12.3059 -12.3059
-0.822195 -12.4111 -12.4111
-0.644606 -12.4146 -12.4146
-0.642094 -12.3094 -12.3094
-0.820877 -12.3585 -12.3585
-0.733378 -12.4128 -12.4128
-0.643352 -12.362 -12.362
-0.7308 -12.3077 -12.3077
-0.732092 -12.3602 -12.3602
-0.822195 -12.4111 -12.4111
-0.82481 -12.5164 -12.5164
-0.647097 -12.5199 -12.5199
-0.644606 -12.4146 -12.4146
-0.823507 -12.4637 -12.4637
-0.735931 -12.5181 -12.5181
-0.645854 -12.4672 -12.4672
-0.733378 -12.4128 -12.4128
-0.734657 -12.4655 -12.4655
-0.82481 -12.5164 -12.5164
-0.827396 -12.6217 -12.6217
-0.649569 -12.6252 -12.6252
-0.647097 -12.5199 -12.5199
-0.826107 -12.569 -12.569
-0.73846 -12.6234 -12.6234
-0.648336 -12.5725 -12.5725
-0.735931 -12.5181 -12.5181
-0.737198 -12.5708 -12.5708
-0.827396 -12.6217 -12.6217
-0.829953 -12.727 -12.727
-0.65202 -12.7306 -12.7306
-0.649569 -12.6252 -12.6252
-0.828678 -12.6744 -12.6744
-0.740964 -12.7288 -12.7288
-0.650797 -12.6779 -12.6779
-0.73846 -12.6234 -12.6234
-0.739715 -12.6761 -12.6761
-0.829953 -12.727 -12.727
-0.832479 -12.8325 -12.8325
-0.654451 -12.8361 -12.8361
-0.65202 -12.7306 -12.7306
-0.83122 -12.7798 -12.7798
-0.743443 -12.8343 -12.8343
-0.653238 -12.7833 -12.7833
-0.740964 -12.7288 -12.7288
-0.742206 -12.7815 -12.7815
-0.832479 -12.8325 -12.8325
-0.834977 -12.938 -12.938
-0.656861 -12.9416 -12.9416
-0.654451 -12.8361 -12.8361
-0.833732 -12.8852 -12.8852
-0.745896 -12.9398 -12.9398
-0.655659 -12.8888 -12.8888
-0.743443 -12.8343 -12.8343
-0.744673 -12.887 -12.887
-0.834977 -12.938 -12.938
-0.837444 -13.0435 -13.0435
-0.65925 -13.0471 -13.0471
-0.656861 -12.9416 -12.9416
-0.836214 -12.9908 -12.9908
-0.748325 -13.0453 -13.0453
-0.658058 -12.9943 -12.9943
-0.745896 -12.9398 -12.9398
-0.747114 -12.9925 -12.9925
-0.837444 -13.0435 -13.0435
-0.839882 -13.1491 -13.1491
-0.661618 -13.1527 -13.1527
-0.65925 -13.0471 -13.0471
-0.838667 -13.0963 -13.0963
-0.750728 -13.1509 -13.1509
-0.660437 -13.0999 -13.0999
-0.748325 -13.0453 -13.0453
-0.74953 -13.0981 -13.0981
-0.839882 -13.1491 -13.1491
-0.842291 -13.2548 -13.2548
-0.663964 -13.2584 -13.2584
-0.661618 -13.1527 -13.1527
-0.84109 -13.2019 -13.2019
-0.753107 -13.2566 -13.2566
-0.662794 -13.2056 -13.2056
-0.750728 -13.1509 -13.1509
-0.75192 -13.2037 -13.2037
-0.842291 -13.2548 -13.2548
-0.844674 -13.3604 -13.3604
-0.666287 -13.3641 -13.3641
-0.663964 -13.2584 -13.2584
-0.843486 -13.3076 -13.3076
-0.755461 -13.3622 -13.3622
-0.665128 -13.3112 -13.3112
-0.753107 -13.2566 -13.2566
-0.754287 -13.3094 -13.3094
-0.844674 -13.3604 -13.3604
-0.847034 -13.4661 -13.4661
-0.668587 -13.4698 -13.4698
-0.666287 -13.3641 -13.3641
-0.845857 -13.4133 -13.4133
-0.757792 -13.4679 -13.4679
-0.66744 -13.4169 -13.4169
-0.755461 -13.3622 -13.3622
-0.756629 -13.4151 -13.4151
-0.847034 -13.4661 -13.4661
-0.849378 -13.5719 -13.5719
-0.67086 -13.5755 -13.5755
-0.668587 -13.4698 -13.4698
-0.848208 -13.519 -13.519
-0.760101 -13.5737 -13.5737
-0.669727 -13.5227 -13.5227
-0.757792 -13.4679 -13.4679
-0.758949 -13.5208 -13.5208
-0.849378 -13.5719 -13.5719
-0.85172 -13.6776 -13.6776
-0.673105 -13.6813 -13.6813
-0.67086 -13.5755 -13.5755
-0.850548 -13.6247 -13.6247
-0.762386 -13.6795 -13.6795
-0.671986 -13.6284 -13.6284
-0.760101 -13.5737 -13.5737
-0.761246 -13.6266 -13.6266
-0.85172 -13.6776 -13.6776
-0.854092 -13.7835 -13.7835
-0.675324 -13.7872 -13.7872
-0.673105 -13.6813 -13.6813
-0.852899 -13.7305 -13.7305
-0.764639 -13.7853 -13.7853
-0.674216 -13.7342 -13.7342
-0.762386 -13.6795 -13.6795
-0.763518 -13.7324 -13.7324
-0.854092 -13.7835 -13.7835
-0.856496 -13.8898 -13.8898
-0.677563 -13.8931 -13.8931
-0.675324 -13.7872 -13.7872
-0.8553 -13.8365 -13.8365
-0.766873 -13.8914 -13.8914
-0.676436 -13.8401 -13.8401
-0.764639 -13.7853 -13.7853
-0.765749 -13.8383 -13.8383
0 0 0
-0.0041298 -0.00116447 -0.00116447
-0.00240409 -0.000243354 -0.000243354
0 0 0
-0.00200386 -0.000416997 -0.000416997
-0.00323489 -0.000591867 -0.000591867
-0.0011656 7.46215e-05 7.46215e-05
0 0 0
-0.00159281 -0.000124475 -0.000124475
-0.0041298 -0.00116447 -0.00116447
-0.0086019 -0.00336353 -0.00336353
-0.00499172 -0.00185709 -0.00185709
-0.00240409 -0.000243354 -0.000243354
-0.00634456 -0.00215777 -0.00215777
-0.00673572 -0.00248045 -0.00248045
-0.00368174 -0.000895159 -0.000895159
-0.00323489 -0.000591867 -0.000591867
-0.00495726 -0.00139169 -0.00139169
-0.0086019 -0.00336353 -0.00336353
-0.0131145 -0.00638546 -0.00638546
-0.00768746 -0.00465064 -0.00465064
-0.00499172 -0.00185709 -0.00185709
-0.0108608 -0.00476807 -0.00476807
-0.0103477 -0.00539624 -0.00539624
-0.00633132 -0.0031141 -0.0031141
-0.00673572 -0.00248045 -0.00248045
-0.00853713 -0.0038162 -0.0038162
-0.0131145 -0.00638546 -0.00638546
-0.0176051 -0.0103223 -0.0103223
-0.010406 -0.0085194 -0.0085194
-0.00768746 -0.00465064 -0.00465064
-0.0153636 -0.00823414 -0.00823414
-0.0139669 -0.0093076 -0.0093076
-0.00904689 -0.00645354 -0.00645354
-0.0103477 -0.00539624 -0.00539624
-0.0121593 -0.00722641 -0.00722641
-0.0176051 -0.0103223 -0.0103223
-0.0220587 -0.0152393 -0.0152393
-0.0131165 -0.013435 -0.013435
-0.010406 -0.0085194 -0.0085194
-0.0198362 -0.0126555 -0.0126555
-0.0175591 -0.0142266 -0.0142266
-0.0117634 -0.0108471 -0.0108471
-0.0139669 -0.0093076 -0.0093076
-0.0157669 -0.01164 -0.01164
-0.0220587 -0.0152393 -0.0152393
-0.0264845 -0.0211742 -0.0211742
-0.0158036 -0.0193866 -0.0193866
-0.0131165 -0.013435 -0.013435
-0.0242748 -0.0180784 -0.0180784
-0.0211218 -0.020171 -0.020171
-0.0144631 -0.0162816 -0.0162816
-0.0175591 -0.0142266 -0.0142266
-0.019344 -0.01707 -0.01707
-0.0264845 -0.0211742 -0.0211742
-0.0308845 -0.0281375 -0.0281375
-0.0184689 -0.0263723 -0.0263723
-0.0158036 -0.0193866 -0.0193866
-0.0286875 -0.024527 -0.024527
-0.0246579 -0.0271456 -0.0271456
-0.0171388 -0.0227504 -0.0227504
-0.0211218 -0.020171 -0.020171
-0.0228929 -0.0235294 -0.0235294
-0.0308845 -0.0281375 -0.0281375
-0.0352627 -0.0361321 -0.0361321
-0.0211144 -0.0343883 -0.0343883
-0.0184689 -0.0263723 -0.0263723
-0.0330762 -0.032006 -0.032006
-0.0281715 -0.035151 -0.035151
-0.0197939 -0.0302517 -0.0302517
-0.0246579 -0.0271456 -0.0271456
-0.0264173 -0.0310195 -0.0310195
-0.0352627 -0.0361321 -0.0361321
-0.03962 -0.0451546 -0.0451546
-0.0237439 -0.0434312 -0.0434312
-0.0211144 -0.0343883 -0.0343883
-0.0374439 -0.0405151 -0.0405151
-0.0316657 -0.0441838 -0.0441838
-0.0224309 -0.0387817 -0.0387817
-0.0281715 -0.035151 -0.035151
-0.0299209 -0.0395392 -0.0395392
-0.03962 -0.0451546 -0.0451546
-0.0439578 -0.0552006 -0.0552006
-0.0263598 -0.0534963 -0.0534963
-0.0237439 -0.0434312 -0.0434312
-0.0417913 -0.05005 -0.05005
-0.035143 -0.0542396 -0.0542396
-0.0250534 -0.0483363 -0.0483363
-0.0316657 -0.0441838 -0.0441838
-0.0334064 -0.0490842 -0.0490842
-0.0439578 -0.0552006 -0.0552006
-0.0482764 -0.0662644 -0.0662644
-0.0289642 -0.0645786 -0.0645786
-0.0263598 -0.0534963 -0.0534963
-0.0461194 -0.0606056 -0.0606056
-0.0386046 -0.0653131 -0.0653131
-0.0276634 -0.0589106 -0.0589106
-0.035143 -0.0542396 -0.0542396
-0.0368757 -0.0596495 -0.0596495
-0.0482764 -0.0662644 -0.0662644
-0.0525765 -0.0783404 -0.0783404
-0.0315583 -0.0766729 -0.0766729
-0.0289642 -0.0645786 -0.0645786
-0.0504287 -0.0721762 -0.0721762
-0.0420518 -0.0773988 -0.0773988
-0.0302625 -0.0704996 -0.0704996
-0.0386046 -0.0653131 -0.0653131
-0.04033 -0.0712298 -0.0712298
-0.0525765 -0.0783404 -0.0783404
-0.0568585 -0.091423 -0.091423
-0.0341431 -0.089774 -0.089774
-0.0315583 -0.0766729 -0.0766729
-0.0547197 -0.0847563 -0.0847563
-0.0454851 -0.0904912 -0.0904912
-0.0328518 -0.083098 -0.083098
-0.0420518 -0.0773988 -0.0773988
-0.0437701 -0.0838195 -0.0838195
-0.0568585 -0.091423 -0.091423
-0.0611227 -0.105507 -0.105507
-0.036719 -0.103876 -0.103876
-0.0341431 -0.089774 -0.089774
-0.0589928 -0.09834 -0.09834
-0.0489051 -0.104585 -0.104585
-0.0354321 -0.0967003 -0.0967003
-0.0454851 -0.0904912 -0.0904912
-0.0471967 -0.0974131 -0.0974131
-0.0611227 -0.105507 -0.105507
-0.0653696 -0.120586 -0.120586
-0.0392867 -0.118975 -0.118975
-0.036719 -0.103876 -0.103876
-0.0632483 -0.112922 -0.112922
-0.0523124 -0.119674 -0.119674
-0.0380039 -0.111301 -0.111301
-0.0489051 -0.104585 -0.104585
-0.0506103 -0.112005 -0.112005
-0.0653696 -0.120586 -0.120586
-0.0695995 -0.136654 -0.136654
-0.0418466 -0.135063 -0.135063
-0.0392867 -0.118975 -0.118975
-0.0674866 -0.128497 -0.128497
-0.0557072 -0.135753 -0.135753
-0.0405676 -0.126895 -0.126895
-0.0523124 -0.119674 -0.119674
-0.0540113 -0.12759 -0.12759
-0.0695995 -0.136654 -0.136654
-0.0738127 -0.153708 -0.153708
-0.044399 -0.152137 -0.152137
-0.0418466 -0.135063 -0.135063
-0.0717081 -0.145058 -0.145058
-0.05909 -0.152817 -0.152817
-0.0431237 -0.143477 -0.143477
-0.0557072 -0.135753 -0.135753
-0.0574001 -0.144163 -0.144163
-0.0738127 -0.153708 -0.153708
-0.0780095 -0.17174 -0.17174
-0.0469443 -0.17019 -0.17019
-0.044399 -0.152137 -0.152137
-0.0759131 -0.162602 -0.162602
-0.062461 -0.170861 -0.170861
-0.0456725 -0.161042 -0.161042
-0.05909 -0.152817 -0.152817
-0.060777 -0.161717 -0.161717
-0.0780095 -0.17174 -0.17174
-0.0821904 -0.190746 -0.190746
-0.0494829 -0.189218 -0.189218
-0.0469443 -0.17019 -0.17019
-0.080102 -0.181122 -0.181122
-0.0658207 -0.189878 -0.189878
-0.0482144 -0.179583 -0.179583
-0.062461 -0.170861 -0.170861
-0.0641423 -0.180248 -0.180248
-0.0821904 -0.190746 -0.190746
-0.0863557 -0.21072 -0.21072
-0.052015 -0.209214 -0.209214
-0.0494829 -0.189218 -0.189218
-0.084275 -0.200613 -0.200613
-0.0691694 -0.209864 -0.209864
-0.0507497 -0.199095 -0.199095
-0.0658207 -0.189878 -0.189878
-0.0674964 -0.19975 -0.19975
-0.0863557 -0.21072 -0.21072
-0.0905056 -0.231657 -0.231657
-0.054541 -0.230174 -0.230174
-0.052015 -0.209214 -0.209214
-0.0884326 -0.221069 -0.221069
-0.0725074 -0.230813 -0.230813
-0.0532788 -0.219574 -0.219574
-0.0691694 -0.209864 -0.209864
-0.0708397 -0.220218 -0.220218
-0.0905056 -0.231657 -0.231657
-0.0946406 -0.253552 -0.253552
-0.0570613 -0.252091 -0.252091
-0.054541 -0.230174 -0.230174
-0.092575 -0.242485 -0.242485
-0.0758349 -0.252719 -0.252719
-0.0558019 -0.241013 -0.241013
-0.0725074 -0.230813 -0.230813
-0.0741724 -0.241647 -0.241647
-0.0946406 -0.253552 -0.253552
-0.0987608 -0.276398 -0.276398
-0.0595761 -0.274961 -0.274961
-0.0570613 -0.252091 -0.252091
-0.0967025 -0.264856 -0.264856
-0.0791524 -0.275578 -0.275578
-0.0583193 -0.263407 -0.263407
-0.0758349 -0.252719 -0.252719
-0.0774949 -0.26403 -0.26403
-0.0987608 -0.276398 -0.276398
-0.102867 -0.30019 -0.30019
-0.0620857 -0.298777 -0.298777
-0.0595761 -0.274961 -0.274961
-0.100816 -0.288176 -0.288176
-0.0824601 -0.299383 -0.299383
-0.0608315 -0.286751 -0.286751
-0.0791524 -0.275578 -0.275578
-0.0808075 -0.287362 -0.287362
-0.102867 -0.30019 -0.30019
-0.106958 -0.324924 -0.324924
-0.0645905 -0.323536 -0.323536
-0.0620857 -0.298777 -0.298777
-0.104914 -0.31244 -0.31244
-0.0857583 -0.324129 -0.324129
-0.0633387 -0.311039 -0.311039
-0.0824601 -0.299383 -0.299383
-0.0841104 -0.311639 -0.311639
-0.106958 -0.324924 -0.324924
-0.111036 -0.350593 -0.350593
-0.0670906 -0.34923 -0.34923
-0.0645905 -0.323536 -0.323536
-0.108999 -0.337642 -0.337642
-0.0890474 -0.349812 -0.349812
-0.0658411 -0.336266 -0.336266
-0.0857583 -0.324129 -0.324129
-0.087404 -0.336854 -0.336854
-0.111036 -0.350593 -0.350593
-0.115101 -0.377192 -0.377192
-0.0695866 -0.375855 -0.375855
-0.0670906 -0.34923 -0.34923
-0.11307 -0.363777 -0.363777
-0.0923276 -0.376425 -0.376425
-0.0683391 -0.362426 -0.362426
-0.0890474 -0.349812 -0.349812
-0.0906886 -0.363002 -0.363002
-0.115101 -0.377192 -0.377192
-0.119152 -0.404716 -0.404716
-0.0720785 -0.403405 -0.403405
-0.0695866 -0.375855 -0.375855
-0.117128 -0.390839 -0.390839
-0.0955992 -0.403962 -0.403962
-0.070833 -0.389515 -0.389515
-0.0923276 -0.376425 -0.376425
-0.0939644 -0.390078 -0.390078
-0.119152 -0.404716 -0.404716
-0.123191 -0.43316 -0.43316
-0.0745667 -0.431875 -0.431875
-0.0720785 -0.403405 -0.403405
-0.121173 -0.418824 -0.418824
-0.0988624 -0.43242 -0.43242
-0.073323 -0.417526 -0.417526
-0.0955992 -0.403962 -0.403962
-0.0972318 -0.418076 -0.418076
-0.123191 -0.43316 -0.43316
-0.127216 -0.462517 -0.462517
-0.0770514 -0.46126 -0.46126
-0.0745667 -0.431875 -0.431875
-0.125205 -0.447725 -0.447725
-0.102118 -0.461791 -0.461791
-0.0758095 -0.446453 -0.446453
-0.0988624 -0.43242 -0.43242
-0.100491 -0.446991 -0.446991
-0.127216 -0.462517 -0.462517
-0.13123 -0.492783 -0.492783
-0.079533 -0.491553 -0.491553
-0.0770514 -0.46126 -0.46126
-0.129224 -0.477537 -0.477537
-0.105365 -0.492071 -0.492071
-0.0782926 -0.476293 -0.476293
-0.102118 -0.461791 -0.461791
-0.103742 -0.476818 -0.476818
-0.13123 -0.492783 -0.492783
-0.135231 -0.523952 -0.523952
-0.0820116 -0.52275 -0.52275
-0.079533 -0.491553 -0.491553
-0.133232 -0.508255 -0.508255
-0.108605 -0.523255 -0.523255
-0.0807727 -0.507039 -0.507039
-0.105365 -0.492071 -0.492071
-0.106986 -0.50755 -0.50755
-0.135231 -0.523952 -0.523952
-0.13922 -0.556018 -0.556018
-0.0844876 -0.554844 -0.554844
-0.0820116 -0.52275 -0.52275
-0.137227 -0.539873 -0.539873
-0.111837 -0.555336 -0.555336
-0.0832499 -0.538685 -0.538685
-0.108605 -0.523255 -0.523255
-0.110222 -0.539183 -0.539183
-0.13922 -0.556018 -0.556018
-0.143198 -0.588977 -0.588977
-0.0869612 -0.587832 -0.587832
-0.0844876 -0.554844 -0.554844
-0.14121 -0.572386 -0.572386
-0.115063 -0.588309 -0.588309
-0.0857247 -0.571227 -0.571227
-0.111837 -0.555336 -0.555336
-0.113451 -0.571711 -0.571711
-0.143198 -0.588977 -0.588977
-0.147164 -0.622822 -0.622822
-0.0894325 -0.621706 -0.621706
-0.0869612 -0.587832 -0.587832
-0.145182 -0.605789 -0.605789
-0.118282 -0.62217 -0.62217
-0.0881971 -0.604659 -0.604659
-0.115063 -0.588309 -0.588309
-0.116673 -0.605129 -0.605129
-0.147164 -0.622822 -0.622822
-0.151119 -0.657549 -0.657549
-0.091902 -0.656463 -0.656463
-0.0894325 -0.621706 -0.621706
-0.149143 -0.640076 -0.640076
-0.121494 -0.656912 -0.656912
-0.0906675 -0.638975 -0.638975
-0.118282 -0.62217 -0.62217
-0.119889 -0.639431 -0.639431
-0.151119 -0.657549 -0.657549
-0.155063 -0.693152 -0.693152
-0.0943697 -0.692095 -0.692095
-0.091902 -0.656463 -0.656463
-0.153092 -0.675241 -0.675241
-0.1247 -0.69253 -0.69253
-0.093136 -0.67417 -0.67417
-0.121494 -0.656912 -0.656912
-0.123098 -0.674612 -0.674612
-0.155063 -0.693152 -0.693152
-0.158996 -0.729625 -0.729625
-0.0968359 -0.728599 -0.728599
-0.0943697 -0.692095 -0.692095
-0.157031 -0.71128 -0.71128
-0.1279 -0.729019 -0.729019
-0.095603 -0.710238 -0.710238
-0.1247 -0.69253 -0.69253
-0.126301 -0.710666 -0.710666
-0.158996 -0.729625 -0.729625
-0.162919 -0.766963 -0.766963
-0.0993009 -0.765967 -0.765967
-0.0968359 -0.728599 -0.728599
-0.160959 -0.748186 -0.748186
-0.131094 -0.766373 -0.766373
-0.0980685 -0.747175 -0.747175
-0.1279 -0.729019 -0.729019
-0.129497 -0.747588 -0.747588
-0.162919 -0.766963 -0.766963
-0.166832 -0.805161 -0.805161
-0.101765 -0.804196 -0.804196
-0.0993009 -0.765967 -0.765967
-0.164877 -0.785955 -0.785955
-0.134282 -0.804587 -0.804587
-0.100533 -0.784975 -0.784975
-0.131094 -0.766373 -0.766373
-0.132688 -0.785373 -0.785373
-0.166832 -0.805161 -0.805161
-0.170735 -0.844212 -0.844212
-0.104228 -0.843279 -0.843279
-0.101765 -0.804196 -0.804196
-0.168785 -0.82458 -0.82458
-0.137465 -0.843655 -0.843655
-0.102996 -0.823631 -0.823631
-0.134282 -0.804587 -0.804587
-0.135874 -0.824015 -0.824015
-0.170735 -0.844212 -0.844212
-0.174627 -0.884113 -0.884113
-0.10669 -0.883212 -0.883212
-0.104228 -0.843279 -0.843279
-0.172682 -0.864057 -0.864057
-0.140642 -0.883572 -0.883572
-0.105459 -0.86314 -0.86314
-0.137465 -0.843655 -0.843655
-0.139054 -0.863508 -0.863508
-0.174627 -0.884113 -0.884113
-0.17851 -0.924857 -0.924857
-0.109152 -0.923988 -0.923988
-0.10669 -0.883212 -0.883212
-0.17657 -0.90438 -0.90438
-0.143815 -0.924333 -0.924333
-0.107921 -0.903495 -0.903495
-0.140642 -0.883572 -0.883572
-0.142229 -0.903847 -0.903847
-0.17851 -0.924857 -0.924857
-0.182384 -0.966439 -0.966439
-0.111614 -0.965602 -0.965602
-0.109152 -0.923988 -0.923988
-0.180448 -0.945544 -0.945544
-0.146982 -0.965931 -0.965931
-0.110383 -0.94469 -0.94469
-0.143815 -0.924333 -0.924333
-0.145399 -0.945028 -0.945028
-0.182384 -0.966439 -0.966439
-0.186248 -1.00885 -1.00885
-0.114076 -1.00805 -1.00805
-0.111614 -0.965602 -0.965602
-0.184317 -0.987542 -0.987542
-0.150145 -1.00836 -1.00836
-0.112845 -0.986722 -0.986722
-0.146982 -0.965931 -0.965931
-0.148564 -0.987043 -0.987043
-0.186248 -1.00885 -1.00885
-0.190104 -1.05209 -1.05209
-0.116537 -1.05132 -1.05132
-0.114076 -1.00805 -1.00805
-0.188177 -1.03037 -1.03037
-0.153304 -1.05162 -1.05162
-0.115306 -1.02958 -1.02958
-0.150145 -1.00836 -1.00836
-0.151725 -1.02989 -1.02989
-0.190104 -1.05209 -1.05209
-0.19395 -1.09616 -1.09616
-0.118999 -1.09542 -1.09542
-0.116537 -1.05132 -1.05132
-0.192028 -1.07402 -1.07402
-0.156458 -1.0957 -1.0957
-0.117768 -1.07327 -1.07327
-0.153304 -1.05162 -1.05162
-0.154881 -1.07356 -1.07356
-0.19395 -1.09616 -1.09616
-0.197787 -1.14104 -1.14104
-0.121462 -1.14033 -1.14033
-0.118999 -1.09542 -1.09542
-0.19587 -1.1185 -1.1185
-0.159608 -1.1406 -1.1406
-0.120231 -1.11777 -1.11777
-0.156458 -1.0957 -1.0957
-0.158034 -1.11805 -1.11805
-0.197787 -1.14104 -1.14104
-0.201616 -1.18673 -1.18673
-0.123925 -1.18606 -1.18606
-0.121462 -1.14033 -1.14033
-0.199703 -1.16378 -1.16378
-0.162754 -1.1863 -1.1863
-0.122693 -1.16309 -1.16309
-0.159608 -1.1406 -1.1406
-0.161182 -1.16335 -1.16335
-0.201616 -1.18673 -1.18673
-0.205437 -1.23322 -1.23322
-0.126389 -1.23258 -1.23258
-0.123925 -1.18606 -1.18606
-0.203528 -1.20987 -1.20987
-0.165896 -1.23282 -1.23282
-0.125157 -1.20922 -1.20922
-0.162754 -1.1863 -1.1863
-0.164326 -1.20946 -1.20946
-0.205437 -1.23322 -1.23322
-0.209249 -1.28052 -1.28052
-0.128854 -1.27991 -1.27991
-0.126389 -1.23258 -1.23258
-0.207344 -1.25677 -1.25677
-0.169035 -1.28013 -1.28013
-0.127621 -1.25615 -1.25615
-0.165896 -1.23282 -1.23282
-0.167466 -1.25637 -1.25637
-0.209249 -1.28052 -1.28052
-0.213053 -1.32861 -1.32861
-0.13132 -1.32804 -1.32804
-0.128854 -1.27991 -1.27991
-0.211152 -1.30446 -1.30446
-0.17217 -1.32824 -1.32824
-0.130087 -1.30388 -1.30388
-0.169035 -1.28013 -1.28013
-0.170603 -1.30408 -1.30408
-0.213053 -1.32861 -1.32861
-0.216849 -1.37748 -1.37748
-0.133787 -1.37695 -1.37695
-0.13132 -1.32804 -1.32804
-0.214952 -1.35295 -1.35295
-0.175301 -1.37713 -1.37713
-0.132553 -1.3524 -1.3524
-0.17217 -1.32824 -1.32824
-0.173736 -1.35259 -1.35259
-0.216849 -1.37748 -1.37748
-0.220638 -1.42715 -1.42715
-0.136255 -1.42665 -1.42665
-0.133787 -1.37695 -1.37695
-0.218744 -1.40222 -1.40222
-0.17843 -1.42681 -1.42681
-0.135021 -1.4017 -1.4017
-0.175301 -1.37713 -1.37713
-0.176866 -1.40188 -1.40188
-0.220638 -1.42715 -1.42715
-0.224418 -1.47759 -1.47759
-0.138726 -1.47712 -1.47712
-0.136255 -1.42665 -1.42665
-0.222529 -1.45227 -1.45227
-0.181555 -1.47727 -1.47727
-0.13749 -1.45179 -1.45179
-0.17843 -1.42681 -1.42681
-0.179993 -1.45195 -1.45195
-0.224418 -1.47759 -1.47759
-0.228191 -1.5288 -1.5288
-0.141197 -1.52837 -1.52837
-0.138726 -1.47712 -1.47712
-0.226306 -1.5031 -1.5031
-0.184677 -1.5285 -1.5285
-0.139961 -1.50265 -1.50265
-0.181555 -1.47727 -1.47727
-0.183117 -1.50279 -1.50279
-0.228191 -1.5288 -1.5288
-0.231957 -1.58078 -1.58078
-0.143671 -1.58039 -1.58039
-0.141197 -1.52837 -1.52837
-0.230075 -1.55469 -1.55469
-0.187797 -1.5805 -1.5805
-0.142434 -1.55428 -1.55428
-0.184677 -1.5285 -1.5285
-0.186238 -1.55441 -1.55441
-0.231957 -1.58078 -1.58078
-0.235715 -1.63352 -1.63352
-0.146146 -1.63317 -1.63317
-0.143671 -1.58039 -1.58039
-0.233837 -1.60706 -1.60706
-0.190914 -1.63326 -1.63326
-0.144908 -1.60668 -1.60668
-0.187797 -1.5805 -1.5805
-0.189356 -1.60679 -1.60679
-0.235715 -1.63352 -1.63352
-0.239466 -1.68702 -1.68702
-0.148623 -1.6867 -1.6867
-0.146146 -1.63317 -1.63317
-0.237591 -1.66018 -1.66018
-0.194028 -1.68678 -1.68678
-0.147384 -1.65984 -1.65984
-0.190914 -1.63326 -1.63326
-0.192471 -1.65993 -1.65993
-0.239466 -1.68702 -1.68702
-0.24321 -1.74127 -1.74127
-0.151103 -1.74099 -1.74099
-0.148623 -1.6867 -1.6867
-0.241339 -1.71405 -1.71405
-0.197139 -1.74105 -1.74105
-0.149863 -1.71375 -1.71375
-0.194028 -1.68678 -1.68678
-0.195584 -1.71382 -1.71382
-0.24321 -1.74127 -1.74127
-0.246947 -1.79626 -1.79626
-0.153584 -1.79602 -1.79602
-0.151103 -1.74099 -1.74099
-0.245079 -1.76867 -1.76867
-0.200249 -1.79606 -1.79606
-0.152343 -1.76841 -1.76841
-0.197139 -1.74105 -1.74105
-0.198694 -1.76846 -1.76846
-0.246947 -1.79626 -1.79626
-0.250677 -1.852 -1.852
-0.156068 -1.85179 -1.85179
-0.153584 -1.79602 -1.79602
-0.248812 -1.82404 -1.82404
-0.203356 -1.85182 -1.85182
-0.154826 -1.82381 -1.82381
-0.200249 -1.79606 -1.79606
-0.201802 -1.82385 -1.82385
-0.250677 -1.852 -1.852
-0.2544 -1.90847 -1.90847
-0.158555 -1.9083 -1.9083
-0.156068 -1.85179 -1.85179
-0.252539 -1.88014 -1.88014
-0.20646 -1.9083 -1.9083
-0.157311 -1.87995 -1.87995
-0.203356 -1.85182 -1.85182
-0.204908 -1.87997 -1.87997
-0.2544 -1.90847 -1.90847
-0.258116 -1.96567 -1.96567
-0.161044 -1.96553 -1.96553
-0.158555 -1.9083 -1.9083
-0.256259 -1.93698 -1.93698
-0.209563 -1.96552 -1.96552
-0.159799 -1.93682 -1.93682
-0.20646 -1.9083 -1.9083
-0.208012 -1.93682 -1.93682
-0.258116 -1.96567 -1.96567
-0.261826 -2.02359 -2.02359
-0.163535 -2.02349 -2.02349
-0.161044 -1.96553 -1.96553
-0.259972 -1.99454 -1.99454
-0.212664 -2.02346 -2.02346
-0.162289 -1.99442 -1.99442
-0.209563 -1.96552 -1.96552
-0.211114 -1.9944 -1.9944
-0.261826 -2.02359 -2.02359
-0.265529 -2.08223 -2.08223
-0.166029 -2.08217 -2.08217
-0.163535 -2.02349 -2.02349
-0.263678 -2.05282 -2.05282
-0.215762 -2.08213 -2.08213
-0.164782 -2.05274 -2.05274
-0.212664 -2.02346 -2.02346
-0.214213 -2.05271 -2.05271
-0.265529 -2.08223 -2.08223
-0.269226 -2.14159 -2.14159
-0.168526 -2.14156 -2.14156
-0.166029 -2.08217 -2.08217
-0.267378 -2.11182 -2.11182
-0.218859 -2.1415 -2.1415
-0.167277 -2.11178 -2.11178
-0.215762 -2.08213 -2.08213
-0.217311 -2.11172 -2.11172
-0.269226 -2.14159 -2.14159
-0.272916 -2.20165 -2.20165
-0.171026 -2.20166 -2.20166
-0.168526 -2.14156 -2.14156
-0.271072 -2.17153 -2.17153
-0.221954 -2.20158 -2.20158
-0.169775 -2.17152 -2.17152
-0.218859 -2.1415 -2.1415
-0.220407 -2.17145 -2.17145
-0.272916 -2.20165 -2.20165
-0.276601 -2.26241 -2.26241
-0.173528 -2.26246 -2.26246
-0.171026 -2.20166 -2.20166
-0.274759 -2.23194 -2.23194
-0.225047 -2.26236 -2.26236
-0.172277 -2.23197 -2.23197
-0.221954 -2.20158 -2.20158
-0.223501 -2.23188 -2.23188
-0.276601 -2.26241 -2.26241
-0.280278 -2.32387 -2.32387
-0.176034 -2.32396 -2.32396
-0.173528 -2.26246 -2.26246
-0.27844 -2.29306 -2.29306
-0.228139 -2.32384 -2.32384
-0.174781 -2.29312 -2.29312
-0.225047 -2.26236 -2.26236
-0.226593 -2.29302 -2.29302
-0.280278 -2.32387 -2.32387
-0.28395 -2.38602 -2.38602
-0.178542 -2.38615 -2.38615
-0.176034 -2.32396 -2.32396
-0.282115 -2.35486 -2.35486
-0.231229 -2.38601 -2.38601
-0.177288 -2.35497 -2.35497
-0.228139 -2.32384 -2.32384
-0.229684 -2.35484 -2.35484
-0.28395 -2.38602 -2.38602
-0.287615 -2.44886 -2.44886
-0.181054 -2.44903 -2.44903
-0.178542 -2.38615 -2.38615
-0.285783 -2.41736 -2.41736
-0.234318 -2.44887 -2.44887
-0.179798 -2.4175 -2.4175
-0.231229 -2.38601 -2.38601
-0.232774 -2.41736 -2.41736
-0.287615 -2.44886 -2.44886
-0.291275 -2.51238 -2.51238
-0.183568 -2.51258 -2.51258
-0.181054 -2.44903 -2.44903
-0.289446 -2.48054 -2.48054
-0.237405 -2.51241 -2.51241
-0.182311 -2.48072 -2.48072
-0.234318 -2.44887 -2.44887
-0.235861 -2.48056 -2.48056
-0.291275 -2.51238 -2.51238
-0.294928 -2.57657 -2.57657
-0.186086 -2.57681 -2.57681
-0.183568 -2.51258 -2.51258
-0.293102 -2.54439 -2.54439
-0.24049 -2.57662 -2.57662
-0.184827 -2.54461 -2.54461
-0.237405 -2.51241 -2.51241
-0.238947 -2.54443 -2.54443
-0.294928 -2.57657 -2.57657
-0.298575 -2.64144 -2.64144
-0.188607 -2.64171 -2.64171
-0.186086 -2.57681 -2.57681
-0.296752 -2.60892 -2.60892
-0.243574 -2.6415 -2.6415
-0.187346 -2.60918 -2.60918
-0.24049 -2.57662 -2.57662
-0.242032 -2.60898 -2.60898
-0.298575 -2.64144 -2.64144
-0.302216 -2.70696 -2.70696
-0.191131 -2.70728 -2.70728
-0.188607 -2.64171 -2.64171
-0.300396 -2.67412 -2.67412
-0.246657 -2.70705 -2.70705
-0.189869 -2.67441 -2.67441
-0.243574 -2.6415 -2.6415
-0.245116 -2.67419 -2.67419
-0.302216 -2.70696 -2.70696
-0.305852 -2.77315 -2.77315
-0.193659 -2.7735 -2.7735
-0.191131 -2.70728 -2.70728
-0.304035 -2.73997 -2.73997
-0.249738 -2.77325 -2.77325
-0.192395 -2.74031 -2.74031
-0.246657 -2.70705 -2.70705
-0.248198 -2.74007 -2.74007
-0.305852 -2.77315 -2.77315
-0.309481 -2.83999 -2.83999
-0.19619 -2.84038 -2.84038
-0.193659 -2.7735 -2.7735
-0.307667 -2.80648 -2.80648
-0.252818 -2.84011 -2.84011
-0.194924 -2.80686 -2.80686
-0.249738 -2.77325 -2.77325
-0.251278 -2.8066 -2.8066
-0.309481 -2.83999 -2.83999
-0.313104 -2.90747 -2.90747
-0.198724 -2.9079 -2.9079
-0.19619 -2.84038 -2.84038
-0.311293 -2.87365 -2.87365
-0.255897 -2.90762 -2.90762
-0.197456 -2.87406 -2.87406
-0.252818 -2.84011 -2.84011
-0.254358 -2.87378 -2.87378
-0.313104 -2.90747 -2.90747
-0.316722 -2.9756 -2.9756
-0.201261 -2.97607 -2.97607
-0.198724 -2.9079 -2.9079
-0.314914 -2.94146 -2.94146
-0.258975 -2.97577 -2.97577
-0.199992 -2.9419 -2.9419
-0.255897 -2.90762 -2.90762
-0.257436 -2.94161 -2.94161
-0.316722 -2.9756 -2.9756
-0.320334 -3.04437 -3.04437
-0.203802 -3.04487 -3.04487
-0.201261 -2.97607 -2.97607
-0.318529 -3.0099 -3.0099
-0.262051 -3.04455 -3.04455
-0.202531 -3.01039 -3.01039
-0.258975 -2.97577 -2.97577
-0.260513 -3.01008 -3.01008
-0.320334 -3.04437 -3.04437
-0.32394 -3.11376 -3.11376
-0.206346 -3.11431 -3.11431
-0.203802 -3.04487 -3.04487
-0.322137 -3.07899 -3.07899
-0.265126 -3.11397 -3.11397
-0.205073 -3.07951 -3.07951
-0.262051 -3.04455 -3.04455
-0.263588 -3.07918 -3.07918
-0.32394 -3.11376 -3.11376
-0.32754 -3.18378 -3.18378
-0.208893 -3.18437 -3.18437
-0.206346 -3.11431 -3.11431
-0.32574 -3.1487 -3.1487
-0.2682 -3.18401 -3.18401
-0.207619 -3.14926 -3.14926
-0.265126 -3.11397 -3.11397
-0.266663 -3.14891 -3.14891
-0.32754 -3.18378 -3.18378
-0.331134 -3.25443 -3.25443
-0.211444 -3.25505 -3.25505
-0.208893 -3.18437 -3.18437
-0.329337 -3.21903 -3.21903
-0.271272 -3.25467 -3.25467
-0.210168 -3.21963 -3.21963
-0.2682 -3.18401 -3.18401
-0.269736 -3.21926 -3.21926
-0.331134 -3.25443 -3.25443
-0.334722 -3.32569 -3.32569
-0.213998 -3.32635 -3.32635
-0.211444 -3.25505 -3.25505
-0.332929 -3.28998 -3.28998
-0.274343 -3.32595 -3.32595
-0.212721 -3.29062 -3.29062
-0.271272 -3.25467 -3.25467
-0.272808 -3.29024 -3.29024
-0.334722 -3.32569 -3.32569
-0.338305 -3.39756 -3.39756
-0.216556 -3.39825 -3.39825
-0.213998 -3.32635 -3.32635
-0.336514 -3.36155 -3.36155
-0.277413 -3.39784 -3.39784
-0.215277 -3.36222 -3.36222
-0.274343 -3.32595 -3.32595
-0.275879 -3.36182 -3.36182
-0.338305 -3.39756 -3.39756
-0.341881 -3.47003 -3.47003
-0.219117 -3.47076 -3.47076
-0.216556 -3.39825 -3.39825
-0.340094 -3.43372 -3.43372
-0.280482 -3.47033 -3.47033
-0.217836 -3.43443 -3.43443
-0.277413 -3.39784 -3.39784
-0.278948 -3.43401 -3.43401
-0.341881 -3.47003 -3.47003
-0.345452 -3.5431 -3.5431
-0.221681 -3.54387 -3.54387
-0.219117 -3.47076 -3.47076
-0.343667 -3.50649 -3.50649
-0.28355 -3.54342 -3.54342
-0.220399 -3.50724 -3.50724
-0.280482 -3.47033 -3.47033
-0.282016 -3.5068 -3.5068
-0.345452 -3.5431 -3.5431
-0.349017 -3.61676 -3.61676
-0.224249 -3.61758 -3.61758
-0.221681 -3.54387 -3.54387
-0.347235 -3.57986 -3.57986
-0.286616 -3.61711 -3.61711
-0.222965 -3.58065 -3.58065
-0.28355 -3.54342 -3.54342
-0.285083 -3.58019 -3.58019
-0.349017 -3.61676 -3.61676
-0.352576 -3.69102 -3.69102
-0.22682 -3.69187 -3.69187
-0.224249 -3.61758 -3.61758
-0.350797 -3.65382 -3.65382
-0.289681 -3.69138 -3.69138
-0.225534 -3.65465 -3.65465
-0.286616 -3.61711 -3.61711
-0.288149 -3.65417 -3.65417
-0.352576 -3.69102 -3.69102
-0.356129 -3.76585 -3.76585
-0.229394 -3.76674 -3.76674
-0.22682 -3.69187 -3.69187
-0.354353 -3.72836 -3.72836
-0.292745 -3.76624 -3.76624
-0.228106 -3.72923 -3.72923
-0.289681 -3.69138 -3.69138
-0.291213 -3.72874 -3.72874
-0.356129 -3.76585 -3.76585
-0.359676 -3.84127 -3.84127
-0.231971 -3.84219 -3.84219
-0.229394 -3.76674 -3.76674
-0.357903 -3.80349 -3.80349
-0.295807 -3.84167 -3.84167
-0.230682 -3.8044 -3.8044
-0.292745 -3.76624 -3.76624
-0.294276 -3.80388 -3.80388
-0.359676 -3.84127 -3.84127
-0.363217 -3.91725 -3.91725
-0.234552 -3.91822 -3.91822
-0.231971 -3.84219 -3.84219
-0.361448 -3.87919 -3.87919
-0.298868 -3.91767 -3.91767
-0.233261 -3.88013 -3.88013
-0.295807 -3.84167 -3.84167
-0.297338 -3.8796 -3.8796
-0.363217 -3.91725 -3.91725
-0.366753 -3.9938 -3.9938
-0.237136 -3.9948 -3.9948
-0.234552 -3.91822 -3.91822
-0.364986 -3.95546 -3.95546
-0.301927 -3.99424 -3.99424
-0.235844 -3.95644 -3.95644
-0.298868 -3.91767 -3.91767
-0.300398 -3.95589 -3.95589
-0.366753 -3.9938 -3.9938
-0.370282 -4.07091 -4.07091
-0.239723 -4.07195 -4.07195
-0.237136 -3.9948 -3.9948
-0.368518 -4.03229 -4.03229
-0.304985 -4.07137 -4.07137
-0.238429 -4.03331 -4.03331
-0.301927 -3.99424 -3.99424
-0.303457 -4.03274 -4.03274
-0.370282 -4.07091 -4.07091
-0.373805 -4.14858 -4.14858
-0.242313 -4.14966 -4.14966
-0.239723 -4.07195 -4.07195
-0.372044 -4.10968 -4.10968
-0.308042 -4.14906 -4.14906
-0.241018 -4.11074 -4.11074
-0.304985 -4.07137 -4.07137
-0.306514 -4.11015 -4.11015
-0.373805 -4.14858 -4.14858
-0.377321 -4.2268 -4.2268
-0.244906 -4.22791 -4.22791
-0.242313 -4.14966 -4.14966
-0.375564 -4.18762 -4.18762
-0.311097 -4.2273 -4.2273
-0.243609 -4.18872 -4.18872
-0.308042 -4.14906 -4.14906
-0.30957 -4.18811 -4.18811
-0.377321 -4.2268 -4.2268
-0.380832 -4.30556 -4.30556
-0.247502 -4.30671 -4.30671
-0.244906 -4.22791 -4.22791
-0.379078 -4.26611 -4.26611
-0.31415 -4.30608 -4.30608
-0.246204 -4.26725 -4.26725
-0.311097 -4.2273 -4.2273
-0.312624 -4.26662 -4.26662
-0.380832 -4.30556 -4.30556
-0.384337 -4.38486 -4.38486
-0.250102 -4.38605 -4.38605
-0.247502 -4.30671 -4.30671
-0.382585 -4.34514 -4.34514
-0.317202 -4.3854 -4.3854
-0.248802 -4.34631 -4.34631
-0.31415 -4.30608 -4.30608
-0.315677 -4.34567 -4.34567
-0.384337 -4.38486 -4.38486
-0.387835 -4.46469 -4.46469
-0.252704 -4.46592 -4.46592
-0.250102 -4.38605 -4.38605
-0.386086 -4.42471 -4.42471
-0.320252 -4.46525 -4.46525
-0.251402 -4.42592 -4.42592
-0.317202 -4.3854 -4.3854
-0.318727 -4.42526 -4.42526
-0.387835 -4.46469 -4.46469
-0.391326 -4.54506 -4.54506
-0.255309 -4.54632 -4.54632
-0.252704 -4.46592 -4.46592
-0.389581 -4.50481 -4.50481
-0.323301 -4.54563 -4.54563
-0.254006 -4.50606 -4.50606
-0.320252 -4.46525 -4.46525
-0.321777 -4.50538 -4.50538
-0.391326 -4.54506 -4.54506
-0.394812 -4.62594 -4.62594
-0.257916 -4.62725 -4.62725
-0.255309 -4.54632 -4.54632
-0.39307 -4.58543 -4.58543
-0.326347 -4.62654 -4.62654
-0.256612 -4.58672 -4.58672
-0.323301 -4.54563 -4.54563
-0.324824 -4.58602 -4.58602
-0.394812 -4.62594 -4.62594
-0.398291 -4.70734 -4.70734
-0.260527 -4.70868 -4.70868
-0.257916 -4.62725 -4.62725
-0.396552 -4.66658 -4.66658
-0.329392 -4.70796 -4.70796
-0.259221 -4.6679 -4.6679
-0.326347 -4.62654 -4.62654
-0.32787 -4.66718 -4.66718
-0.398291 -4.70734 -4.70734
-0.401763 -4.78926 -4.78926
-0.26314 -4.79064 -4.79064
-0.260527 -4.70868 -4.70868
-0.400027 -4.74824 -4.74824
-0.332434 -4.78989 -4.78989
-0.261833 -4.7496 -4.7496
-0.329392 -4.70796 -4.70796
-0.330913 -4.74886 -4.74886
-0.401763 -4.78926 -4.78926
-0.405228 -4.87168 -4.87168
-0.265755 -4.87309 -4.87309
-0.26314 -4.79064 -4.79064
-0.403496 -4.83041 -4.83041
-0.335475 -4.87233 -4.87233
-0.264447 -4.8318 -4.8318
-0.332434 -4.78989 -4.78989
-0.333955 -4.83105 -4.83105
-0.405228 -4.87168 -4.87168
-0.408687 -4.9546 -4.9546
-0.268374 -4.95605 -4.95605
-0.265755 -4.87309 -4.87309
-0.406959 -4.91308 -4.91308
-0.338514 -4.95528 -4.95528
-0.267064 -4.91451 -4.91451
-0.335475 -4.87233 -4.87233
-0.336995 -4.91374 -4.91374
-0.408687 -4.9546 -4.9546
-0.41214 -5.03802 -5.03802
-0.270994 -5.03951 -5.03951
-0.268374 -4.95605 -4.95605
-0.410414 -4.99625 -4.99625
-0.34155 -5.03871 -5.03871
-0.269684 -4.99772 -4.99772
-0.338514 -4.95528 -4.95528
-0.340032 -4.99693 -4.99693
-0.41214 -5.03802 -5.03802
-0.415585 -5.12193 -5.12193
-0.273617 -5.12345 -5.12345
-0.270994 -5.03951 -5.03951
-0.413863 -5.07991 -5.07991
-0.344584 -5.12264 -5.12264
-0.272305 -5.08142 -5.08142
-0.34155 -5.03871 -5.03871
-0.343067 -5.08061 -5.08061
-0.415585 -5.12193 -5.12193
-0.419023 -5.20632 -5.20632
-0.276242 -5.20788 -5.20788
-0.273617 -5.12345 -5.12345
-0.417305 -5.16406 -5.16406
-0.347616 -5.20705 -5.20705
-0.274929 -5.16561 -5.16561
-0.344584 -5.12264 -5.12264
-0.3461 -5.16478 -5.16478
-0.419023 -5.20632 -5.20632
-0.422454 -5.29119 -5.29119
-0.278869 -5.29279 -5.29279
-0.276242 -5.20788 -5.20788
-0.42074 -5.2487 -5.2487
-0.350645 -5.29194 -5.29194
-0.277556 -5.25028 -5.25028
-0.347616 -5.20705 -5.20705
-0.349131 -5.24944 -5.24944
-0.422454 -5.29119 -5.29119
-0.425879 -5.37654 -5.37654
-0.281499 -5.37817 -5.37817
-0.278869 -5.29279 -5.29279
-0.424167 -5.33381 -5.33381
-0.353672 -5.37731 -5.37731
-0.280184 -5.33542 -5.33542
-0.350645 -5.29194 -5.29194
-0.352159 -5.33457 -5.33457
-0.425879 -5.37654 -5.37654
-0.429295 -5.46235 -5.46235
-0.28413 -5.46402 -5.46402
-0.281499 -5.37817 -5.37817
-0.427588 -5.41939 -5.41939
-0.356696 -5.46314 -5.46314
-0.282814 -5.42104 -5.42104
-0.353672 -5.37731 -5.37731
-0.355184 -5.42016 -5.42016
-0.429295 -5.46235 -5.46235
-0.432705 -5.54863 -5.54863
-0.286763 -5.55034 -5.55034
-0.28413 -5.46402 -5.46402
-0.431001 -5.50544 -5.50544
-0.359717 -5.54944 -5.54944
-0.285446 -5.50712 -5.50712
-0.356696 -5.46314 -5.46314
-0.358207 -5.50623 -5.50623
-0.432705 -5.54863 -5.54863
-0.436107 -5.63537 -5.63537
-0.289398 -5.63711 -5.63711
-0.286763 -5.55034 -5.55034
-0.434407 -5.59194 -5.59194
-0.362736 -5.63619 -5.63619
-0.288081 -5.59366 -5.59366
-0.359717 -5.54944 -5.54944
-0.361227 -5.59276 -5.59276
-0.436107 -5.63537 -5.63537
-0.439502 -5.72255 -5.72255
-0.292035 -5.72433 -5.72433
-0.289398 -5.63711 -5.63711
-0.437805 -5.6789 -5.6789
-0.365752 -5.72339 -5.72339
-0.290716 -5.68066 -5.68066
-0.362736 -5.63619 -5.63619
-0.364244 -5.67974 -5.67974
-0.439502 -5.72255 -5.72255
-0.442889 -5.81019 -5.81019
-0.294673 -5.812 -5.812
-0.292035 -5.72433 -5.72433
-0.441196 -5.76632 -5.76632
-0.368764 -5.81105 -5.81105
-0.293354 -5.76811 -5.76811
-0.365752 -5.72339 -5.72339
-0.367258 -5.76717 -5.76717
-0.442889 -5.81019 -5.81019
-0.446268 -5.89826 -5.89826
-0.297313 -5.90011 -5.90011
-0.294673 -5.812 -5.812
-0.444579 -5.85417 -5.85417
-0.371774 -5.89914 -5.89914
-0.295993 -5.856 -5.856
-0.368764 -5.81105 -5.81105
-0.370269 -5.85504 -5.85504
-0.446268 -5.89826 -5.89826
-0.449639 -5.98678 -5.98678
-0.299954 -5.98866 -5.98866
-0.297313 -5.90011 -5.90011
-0.447955 -5.94247 -5.94247
-0.37478 -5.98767 -5.98767
-0.298633 -5.94433 -5.94433
-0.371774 -5.89914 -5.89914
-0.373277 -5.94335 -5.94335
-0.449639 -5.98678 -5.98678
-0.453003 -6.07572 -6.07572
-0.302596 -6.07763 -6.07763
-0.299954 -5.98866 -5.98866
-0.451322 -6.03119 -6.03119
-0.377783 -6.07663 -6.07663
-0.301275 -6.03309 -6.03309
-0.37478 -5.98767 -5.98767
-0.376282 -6.0321 -6.0321
-0.453003 -6.07572 -6.07572
-0.456358 -6.16508 -6.16508
-0.305239 -6.16703 -6.16703
-0.302596 -6.07763 -6.07763
-0.454681 -6.12035 -6.12035
-0.380782 -6.16601 -6.16601
-0.303917 -6.12228 -6.12228
-0.377783 -6.07663 -6.07663
-0.379283 -6.12127 -6.12127
-0.456358 -6.16508 -6.16508
-0.459705 -6.25487 -6.25487
-0.307884 -6.25685 -6.25685
-0.305239 -6.16703 -6.16703
-0.458033 -6.20992 -6.20992
-0.383778 -6.25582 -6.25582
-0.306561 -6.21189 -6.21189
-0.380782 -6.16601 -6.16601
-0.38228 -6.21086 -6.21086
-0.459705 -6.25487 -6.25487
-0.463044 -6.34507 -6.34507
-0.310529 -6.34709 -6.34709
-0.307884 -6.25685 -6.25685
-0.461376 -6.29992 -6.29992
-0.38677 -6.34604 -6.34604
-0.309206 -6.30192 -6.30192
-0.383778 -6.25582 -6.25582
-0.385274 -6.30088 -6.30088
-0.463044 -6.34507 -6.34507
-0.466374 -6.43568 -6.43568
-0.313175 -6.43773 -6.43773
-0.310529 -6.34709 -6.34709
-0.46471 -6.39032 -6.39032
-0.389758 -6.43666 -6.43666
-0.311852 -6.39236 -6.39236
-0.38677 -6.34604 -6.34604
-0.388264 -6.3913 -6.3913
-0.466374 -6.43568 -6.43568
-0.469696 -6.52669 -6.52669
-0.315821 -6.52878 -6.52878
-0.313175 -6.43773 -6.43773
-0.468036 -6.48114 -6.48114
-0.392742 -6.52769 -6.52769
-0.314498 -6.4832 -6.4832
-0.389758 -6.43666 -6.43666
-0.39125 -6.48213 -6.48213
-0.469696 -6.52669 -6.52669
-0.473009 -6.6181 -6.6181
-0.318468 -6.62022 -6.62022
-0.315821 -6.52878 -6.52878
-0.471353 -6.57235 -6.57235
-0.395722 -6.61912 -6.61912
-0.317145 -6.57445 -6.57445
-0.392742 -6.52769 -6.52769
-0.394232 -6.57336 -6.57336
-0.473009 -6.6181 -6.6181
-0.476313 -6.7099 -6.7099
-0.321115 -6.71206 -6.71206
-0.318468 -6.62022 -6.62022
-0.474662 -6.66395 -6.66395
-0.398698 -6.71094 -6.71094
-0.319792 -6.66609 -6.66609
-0.395722 -6.61912 -6.61912
-0.39721 -6.66498 -6.66498
-0.476313 -6.7099 -6.7099
-0.479608 -6.80209 -6.80209
-0.323763 -6.80428 -6.80428
-0.321115 -6.71206 -6.71206
-0.477962 -6.75595 -6.75595
-0.401669 -6.80315 -6.80315
-0.322439 -6.75812 -6.75812
-0.398698 -6.71094 -6.71094
-0.400184 -6.75699 -6.75699
-0.479608 -6.80209 -6.80209
-0.482894 -6.89467 -6.89467
-0.32641 -6.89688 -6.89688
-0.323763 -6.80428 -6.80428
-0.481252 -6.84833 -6.84833
-0.404636 -6.89573 -6.89573
-0.325087 -6.85053 -6.85053
-0.401669 -6.80315 -6.80315
-0.403153 -6.84939 -6.84939
-0.482894 -6.89467 -6.89467
-0.486171 -6.98761 -6.98761
-0.329058 -6.98986 -6.98986
-0.32641 -6.89688 -6.89688
-0.484533 -6.94109 -6.94109
-0.407598 -6.9887 -6.9887
-0.327734 -6.94333 -6.94333
-0.404636 -6.89573 -6.89573
-0.406117 -6.94217 -6.94217
-0.486171 -6.98761 -6.98761
-0.489438 -7.08093 -7.08093
-0.331705 -7.08321 -7.08321
-0.329058 -6.98986 -6.98986
-0.487805 -7.03423 -7.03423
-0.410555 -7.08203 -7.08203
-0.330382 -7.03649 -7.03649
-0.407598 -6.9887 -6.9887
-0.409077 -7.03532 -7.03532
-0.489438 -7.08093 -7.08093
-0.492696 -7.17461 -7.17461
-0.334352 -7.17693 -7.17693
-0.331705 -7.08321 -7.08321
-0.491068 -7.12773 -7.12773
-0.413507 -7.17573 -7.17573
-0.333029 -7.13002 -7.13002
-0.410555 -7.08203 -7.08203
-0.412032 -7.12884 -7.12884
-0.492696 -7.17461 -7.17461
-0.495944 -7.26866 -7.26866
-0.336998 -7.271 -7.271
-0.334352 -7.17693 -7.17693
-0.494321 -7.22159 -7.22159
-0.416455 -7.26979 -7.26979
-0.335675 -7.22392 -7.22392
-0.413507 -7.17573 -7.17573
-0.414982 -7.22272 -7.22272
-0.495944 -7.26866 -7.26866
-0.499182 -7.36305 -7.36305
-0.339644 -7.36543 -7.36543
-0.336998 -7.271 -7.271
-0.497564 -7.31581 -7.31581
-0.419396 -7.3642 -7.3642
-0.338321 -7.31817 -7.31817
-0.416455 -7.26979 -7.26979
-0.417926 -7.31695 -7.31695
-0.499182 -7.36305 -7.36305
-0.50241 -7.4578 -7.4578
-0.342289 -7.46021 -7.46021
-0.339644 -7.36543 -7.36543
-0.500797 -7.41038 -7.41038
-0.422333 -7.45897 -7.45897
-0.340967 -7.41277 -7.41277
-0.419396 -7.3642 -7.3642
-0.420865 -7.41154 -7.41154
-0.50241 -7.4578 -7.4578
-0.505628 -7.55289 -7.55289
-0.344933 -7.55533 -7.55533
-0.342289 -7.46021 -7.46021
-0.50402 -7.5053 -7.5053
-0.425264 -7.55407 -7.55407
-0.343611 -7.50772 -7.50772
-0.422333 -7.45897 -7.45897
-0.423799 -7.50648 -7.50648
-0.505628 -7.55289 -7.55289
-0.508835 -7.64832 -7.64832
-0.347576 -7.65079 -7.65079
-0.344933 -7.55533 -7.55533
-0.507233 -7.60056 -7.60056
-0.428189 -7.64952 -7.64952
-0.346255 -7.60301 -7.60301
-0.425264 -7.55407 -7.55407
-0.426727 -7.60175 -7.60175
-0.508835 -7.64832 -7.64832
-0.512032 -7.74408 -7.74408
-0.350217 -7.74658 -7.74658
-0.347576 -7.65079 -7.65079
-0.510435 -7.69616 -7.69616
-0.431108 -7.74529 -7.74529
-0.348897 -7.69864 -7.69864
-0.428189 -7.64952 -7.64952
-0.42965 -7.69736 -7.69736
-0.512032 -7.74408 -7.74408
-0.515219 -7.84016 -7.84016
-0.352857 -7.84269 -7.84269
-0.350217 -7.74658 -7.74658
-0.513627 -7.79208 -7.79208
-0.434022 -7.8414 -7.8414
-0.351537 -7.79459 -7.79459
-0.431108 -7.74529 -7.74529
-0.432566 -7.7933 -7.7933
-0.515219 -7.84016 -7.84016
-0.518394 -7.93657 -7.93657
-0.355496 -7.93913 -7.93913
-0.352857 -7.84269 -7.84269
-0.516808 -7.88833 -7.88833
-0.436929 -7.93782 -7.93782
-0.354177 -7.89087 -7.89087
-0.434022 -7.8414 -7.8414
-0.435476 -7.88957 -7.88957
-0.518394 -7.93657 -7.93657
-0.521559 -8.0333 -8.0333
-0.358132 -8.03589 -8.03589
-0.355496 -7.93913 -7.93913
-0.519978 -7.9849 -7.9849
-0.439829 -8.03456 -8.03456
-0.356814 -7.98747 -7.98747
-0.436929 -7.93782 -7.93782
-0.43838 -7.98615 -7.98615
-0.521559 -8.0333 -8.0333
-0.524713 -8.13034 -8.13034
-0.360767 -8.13295 -8.13295
-0.358132 -8.03589 -8.03589
-0.523137 -8.08178 -8.08178
-0.442723 -8.13161 -8.13161
-0.35945 -8.08438 -8.08438
-0.439829 -8.03456 -8.03456
-0.441277 -8.08305 -8.08305
-0.524713 -8.13034 -8.13034
-0.527855 -8.22768 -8.22768
-0.363399 -8.23032 -8.23032
-0.360767 -8.13295 -8.13295
-0.526285 -8.17897 -8.17897
-0.445611 -8.22897 -8.22897
-0.362083 -8.1816 -8.1816
-0.442723 -8.13161 -8.13161
-0.444168 -8.18025 -8.18025
-0.527855 -8.22768 -8.22768
-0.530985 -8.32532 -8.32532
-0.36603 -8.32799 -8.32799
-0.363399 -8.23032 -8.23032
-0.529422 -8.27646 -8.27646
-0.448491 -8.32663 -8.32663
-0.364715 -8.27912 -8.27912
-0.445611 -8.22897 -8.22897
-0.447052 -8.27776 -8.27776
-0.530985 -8.32532 -8.32532
-0.534104 -8.42326 -8.42326
-0.368657 -8.42596 -8.42596
-0.36603 -8.32799 -8.32799
-0.532546 -8.37425 -8.37425
-0.451365 -8.42458 -8.42458
-0.367344 -8.37694 -8.37694
-0.448491 -8.32663 -8.32663
-0.449929 -8.37557 -8.37557
-0.534104 -8.42326 -8.42326
-0.537212 -8.52148 -8.52148
-0.371282 -8.52421 -8.52421
-0.368657 -8.42596 -8.42596
-0.535659 -8.47233 -8.47233
-0.454231 -8.52282 -8.52282
-0.36997 -8.47505 -8.47505
-0.451365 -8.42458 -8.42458
-0.452799 -8.47366 -8.47366
-0.537212 -8.52148 -8.52148
-0.540307 -8.61999 -8.61999
-0.373905 -8.62275 -8.62275
-0.371282 -8.52421 -8.52421
-0.538761 -8.5707 -8.5707
-0.457089 -8.62134 -8.62134
-0.372594 -8.57345 -8.57345
-0.454231 -8.52282 -8.52282
-0.455661 -8.57204 -8.57204
-0.540307 -8.61999 -8.61999
-0.54339 -8.71878 -8.71878
-0.376524 -8.72156 -8.72156
-0.373905 -8.62275 -8.62275
-0.54185 -8.66935 -8.66935
-0.459941 -8.72014 -8.72014
-0.375215 -8.67212 -8.67212
-0.457089 -8.62134 -8.62134
-0.458516 -8.67071 -8.67071
-0.54339 -8.71878 -8.71878
-0.54646 -8.81784 -8.81784
-0.37914 -8.82065 -8.82065
-0.376524 -8.72156 -8.72156
-0.544926 -8.76827 -8.76827
-0.462784 -8.81922 -8.81922
-0.377832 -8.77107 -8.77107
-0.459941 -8.72014 -8.72014
-0.461363 -8.76965 -8.76965
-0.54646 -8.81784 -8.81784
-0.549518 -8.91717 -8.91717
-0.381753 -8.92001 -8.92001
-0.37914 -8.82065 -8.82065
-0.547991 -8.86747 -8.86747
-0.465619 -8.91856 -8.91856
-0.380447 -8.8703 -8.8703
-0.462784 -8.81922 -8.81922
-0.464203 -8.86885 -8.86885
-0.549518 -8.91717 -8.91717
-0.552563 -9.01676 -9.01676
-0.384362 -9.01962 -9.01962
-0.381753 -8.92001 -8.92001
-0.551042 -8.96693 -8.96693
-0.468446 -9.01816 -9.01816
-0.383058 -8.96978 -8.96978
-0.465619 -8.91856 -8.91856
-0.467034 -8.96833 -8.96833
-0.552563 -9.01676 -9.01676
-0.555596 -9.1166 -9.1166
-0.386967 -9.11949 -9.11949
-0.384362 -9.01962 -9.01962
-0.554081 -9.06665 -9.06665
-0.471265 -9.11802 -9.11802
-0.385665 -9.06953 -9.06953
-0.468446 -9.01816 -9.01816
-0.469857 -9.06806 -9.06806
-0.555596 -9.1166 -9.1166
-0.558615 -9.2167 -9.2167
-0.389569 -9.21962 -9.21962
-0.386967 -9.11949 -9.11949
-0.557107 -9.16662 -9.16662
-0.474076 -9.21813 -9.21813
-0.388268 -9.16952 -9.16952
-0.471265 -9.11802 -9.11802
-0.472672 -9.16805 -9.16805
-0.558615 -9.2167 -9.2167
-0.561621 -9.31704 -9.31704
-0.392166 -9.31999 -9.31999
-0.389569 -9.21962 -9.21962
-0.560119 -9.26684 -9.26684
-0.476877 -9.31849 -9.31849
-0.390868 -9.26977 -9.26977
-0.474076 -9.21813 -9.21813
-0.475478 -9.26828 -9.26828
-0.561621 -9.31704 -9.31704
-0.564613 -9.41763 -9.41763
-0.394759 -9.42059 -9.42059
-0.392166 -9.31999 -9.31999
-0.563118 -9.3673 -9.3673
-0.47967 -9.41909 -9.41909
-0.393463 -9.37026 -9.37026
-0.476877 -9.31849 -9.31849
-0.478275 -9.36876 -9.36876
-0.564613 -9.41763 -9.41763
-0.567592 -9.51844 -9.51844
-0.397348 -9.52144 -9.52144
-0.394759 -9.42059 -9.42059
-0.566104 -9.46801 -9.46801
-0.482454 -9.51992 -9.51992
-0.396054 -9.47099 -9.47099
-0.47967 -9.41909 -9.41909
-0.481063 -9.46947 -9.46947
-0.567592 -9.51844 -9.51844
-0.570556 -9.61949 -9.61949
-0.399931 -9.62251 -9.62251
-0.397348 -9.52144 -9.52144
-0.569076 -9.56894 -9.56894
-0.485228 -9.62098 -9.62098
-0.39864 -9.57194 -9.57194
-0.482454 -9.51992 -9.51992
-0.483842 -9.57042 -9.57042
-0.570556 -9.61949 -9.61949
-0.573507 -9.72076 -9.72076
-0.40251 -9.7238 -9.7238
-0.399931 -9.62251 -9.62251
-0.572033 -9.6701 -9.6701
-0.487993 -9.72226 -9.72226
-0.401221 -9.67313 -9.67313
-0.485228 -9.62098 -9.62098
-0.486611 -9.67159 -9.67159
-0.573507 -9.72076 -9.72076
-0.576443 -9.82225 -9.82225
-0.405084 -9.82532 -9.82532
-0.40251 -9.7238 -9.7238
-0.574977 -9.77148 -9.77148
-0.490748 -9.82376 -9.82376
-0.403798 -9.77453 -9.77453
-0.487993 -9.72226 -9.72226
-0.489371 -9.77298 -9.77298
-0.576443 -9.82225 -9.82225
-0.579365 -9.92396 -9.92396
-0.407653 -9.92704 -9.92704
-0.405084 -9.82532 -9.82532
-0.577906 -9.87308 -9.87308
-0.493493 -9.92548 -9.92548
-0.406369 -9.87615 -9.87615
-0.490748 -9.82376 -9.82376
-0.492122 -9.87459 -9.87459
-0.579365 -9.92396 -9.92396
-0.582272 -10.0259 -10.0259
-0.410216 -10.029 -10.029
-0.407653 -9.92704 -9.92704
-0.580821 -9.97488 -9.97488
-0.496228 -10.0274 -10.0274
-0.408935 -9.97798 -9.97798
-0.493493 -9.92548 -9.92548
-0.494862 -9.97641 -9.97641
-0.582272 -10.0259 -10.0259
-0.585165 -10.128 -10.128
-0.412773 -10.1311 -10.1311
-0.410216 -10.029 -10.029
-0.58372 -10.0769 -10.0769
-0.498953 -10.1295 -10.1295
-0.411495 -10.08 -10.08
-0.496228 -10.0274 -10.0274
-0.497592 -10.0784 -10.0784
-0.585165 -10.128 -10.128
-0.588042 -10.2303 -10.2303
-0.415324 -10.2334 -10.2334
-0.412773 -10.1311 -10.1311
-0.586605 -10.1791 -10.1791
-0.501667 -10.2318 -10.2318
-0.414049 -10.1823 -10.1823
-0.498953 -10.1295 -10.1295
-0.500311 -10.1807 -10.1807
-0.588042 -10.2303 -10.2303
-0.590904 -10.3328 -10.3328
-0.41787 -10.336 -10.336
-0.415324 -10.2334 -10.2334
-0.589475 -10.2815 -10.2815
-0.504371 -10.3344 -10.3344
-0.416598 -10.2847 -10.2847
-0.501667 -10.2318 -10.2318
-0.50302 -10.2831 -10.2831
-0.590904 -10.3328 -10.3328
-0.59375 -10.4355 -10.4355
-0.420409 -10.4387 -10.4387
-0.41787 -10.336 -10.336
-0.592329 -10.3841 -10.3841
-0.507064 -10.4371 -10.4371
-0.41914 -10.3873 -10.3873
-0.504371 -10.3344 -10.3344
-0.505719 -10.3857 -10.3857
-0.59375 -10.4355 -10.4355
-0.596581 -10.5383 -10.5383
-0.422941 -10.5416 -10.5416
-0.420409 -10.4387 -10.4387
-0.595167 -10.4869 -10.4869
-0.509745 -10.5399 -10.5399
-0.421676 -10.4901 -10.4901
-0.507064 -10.4371 -10.4371
-0.508406 -10.4885 -10.4885
-0.596581 -10.5383 -10.5383
-0.599396 -10.6414 -10.6414
-0.425467 -10.6446 -10.6446
-0.422941 -10.5416 -10.5416
-0.59799 -10.5898 -10.5898
-0.512415 -10.643 -10.643
-0.424205 -10.5931 -10.5931
-0.509745 -10.5399 -10.5399
-0.511082 -10.5914 -10.5914
-0.599396 -10.6414 -10.6414
-0.602194 -10.7446 -10.7446
-0.427986 -10.7479 -10.7479
-0.425467 -10.6446 -10.6446
-0.600797 -10.693 -10.693
-0.515074 -10.7462 -10.7462
-0.426727 -10.6962 -10.6962
-0.512415 -10.643 -10.643
-0.513746 -10.6946 -10.6946
-0.602194 -10.7446 -10.7446
-0.604977 -10.848 -10.848
-0.430497 -10.8513 -10.8513
-0.427986 -10.7479 -10.7479
-0.603588 -10.7963 -10.7963
-0.517721 -10.8496 -10.8496
-0.429242 -10.7995 -10.7995
-0.515074 -10.7462 -10.7462
-0.516399 -10.7979 -10.7979
-0.604977 -10.848 -10.848
-0.607742 -10.9515 -10.9515
-0.433002 -10.9548 -10.9548
-0.430497 -10.8513 -10.8513
-0.606362 -10.8997 -10.8997
-0.520356 -10.9531 -10.9531
-0.43175 -10.903 -10.903
-0.517721 -10.8496 -10.8496
-0.51904 -10.9013 -10.9013
-0.607742 -10.9515 -10.9515
-0.610491 -11.0552 -11.0552
-0.435498 -11.0585 -11.0585
-0.433002 -10.9548 -10.9548
-0.609119 -11.0033 -11.0033
-0.522979 -11.0568 -11.0568
-0.434251 -11.0066 -11.0066
-0.520356 -10.9531 -10.9531
-0.521669 -11.005 -11.005
-0.610491 -11.0552 -11.0552
-0.613223 -11.159 -11.159
-0.437987 -11.1624 -11.1624
-0.435498 -11.0585 -11.0585
-0.61186 -11.1071 -11.1071
-0.52559 -11.1607 -11.1607
-0.436744 -11.1104 -11.1104
-0.522979 -11.0568 -11.0568
-0.524286 -11.1087 -11.1087
-0.613223 -11.159 -11.159
-0.615938 -11.263 -11.263
-0.440468 -11.2664 -11.2664
-0.437987 -11.1624 -11.1624
-0.614583 -11.211 -11.211
-0.528188 -11.2647 -11.2647
-0.439229 -11.2143 -11.2143
-0.52559 -11.1607 -11.1607
-0.52689 -11.2127 -11.2127
-0.615938 -11.263 -11.263
-0.618636 -11.3671 -11.3671
-0.442941 -11.3705 -11.3705
-0.440468 -11.2664 -11.2664
-0.617289 -11.315 -11.315
-0.530773 -11.3688 -11.3688
-0.441706 -11.3184 -11.3184
-0.528188 -11.2647 -11.2647
-0.529482 -11.3167 -11.3167
-0.618636 -11.3671 -11.3671
-0.621316 -11.4714 -11.4714
-0.445405 -11.4748 -11.4748
-0.442941 -11.3705 -11.3705
-0.619978 -11.4192 -11.4192
-0.533345 -11.4731 -11.4731
-0.444174 -11.4226 -11.4226
-0.530773 -11.3688 -11.3688
-0.53206 -11.4209 -11.4209
-0.621316 -11.4714 -11.4714
-0.623978 -11.5757 -11.5757
-0.447861 -11.5792 -11.5792
-0.445405 -11.4748 -11.4748
-0.622649 -11.5235 -11.5235
-0.535904 -11.5774 -11.5774
-0.446634 -11.5269 -11.5269
-0.533345 -11.4731 -11.4731
-0.534626 -11.5252 -11.5252
-0.623978 -11.5757 -11.5757
-0.626622 -11.6802 -11.6802
-0.450308 -11.6837 -11.6837
-0.447861 -11.5792 -11.5792
-0.625302 -11.628 -11.628
-0.538449 -11.6819 -11.6819
-0.449086 -11.6314 -11.6314
-0.535904 -11.5774 -11.5774
-0.537178 -11.6297 -11.6297
-0.626622 -11.6802 -11.6802
-0.629247 -11.7848 -11.7848
-0.452746 -11.7883 -11.7883
-0.450308 -11.6837 -11.6837
-0.627937 -11.7325 -11.7325
-0.540981 -11.7866 -11.7866
-0.451528 -11.736 -11.736
-0.538449 -11.6819 -11.6819
-0.539717 -11.7342 -11.7342
-0.629247 -11.7848 -11.7848
-0.631854 -11.8896 -11.8896
-0.455174 -11.893 -11.893
-0.452746 -11.7883 -11.7883
-0.630553 -11.8372 -11.8372
-0.543499 -11.8913 -11.8913
-0.453961 -11.8406 -11.8406
-0.540981 -11.7866 -11.7866
-0.542242 -11.8389 -11.8389
-0.631854 -11.8896 -11.8896
-0.634443 -11.9944 -11.9944
-0.457593 -11.9979 -11.9979
-0.455174 -11.893 -11.893
-0.633151 -11.942 -11.942
-0.546002 -11.9961 -11.9961
-0.456385 -11.9454 -11.9454
-0.543499 -11.8913 -11.8913
-0.544752 -11.9437 -11.9437
-0.634443 -11.9944 -11.9944
-0.637013 -12.0993 -12.0993
-0.460002 -12.1028 -12.1028
-0.457593 -11.9979 -11.9979
-0.63573 -12.0468 -12.0468
-0.548492 -12.101 -12.101
-0.458799 -12.0503 -12.0503
-0.546002 -11.9961 -11.9961
-0.547249 -12.0486 -12.0486
-0.637013 -12.0993 -12.0993
-0.639563 -12.2043 -12.2043
-0.462401 -12.2078 -12.2078
-0.460002 -12.1028 -12.1028
-0.63829 -12.1518 -12.1518
-0.550967 -12.2061 -12.2061
-0.461203 -12.1553 -12.1553
-0.548492 -12.101 -12.101
-0.549731 -12.1535 -12.1535
-0.639563 -12.2043 -12.2043
-0.642094 -12.3094 -12.3094
-0.46479 -12.3129 -12.3129
-0.462401 -12.2078 -12.2078
-0.640831 -12.2569 -12.2569
-0.553427 -12.3112 -12.3112
-0.463597 -12.2604 -12.2604
-0.550967 -12.2061 -12.2061
-0.552199 -12.2586 -12.2586
-0.642094 -12.3094 -12.3094
-0.644606 -12.4146 -12.4146
-0.467169 -12.4181 -12.4181
-0.46479 -12.3129 -12.3129
-0.643352 -12.362 -12.362
-0.555872 -12.4164 -12.4164
-0.465981 -12.3655 -12.3655
-0.553427 -12.3112 -12.3112
-0.554651 -12.3638 -12.3638
-0.644606 -12.4146 -12.4146
-0.647097 -12.5199 -12.5199
-0.469537 -12.5234 -12.5234
-0.467169 -12.4181 -12.4181
-0.645854 -12.4672 -12.4672
-0.558302 -12.5216 -12.5216
-0.468354 -12.4708 -12.4708
-0.555872 -12.4164 -12.4164
-0.557089 -12.469 -12.469
-0.647097 -12.5199 -12.5199
-0.649569 -12.6252 -12.6252
-0.471894 -12.6288 -12.6288
-0.469537 -12.5234 -12.5234
-0.648336 -12.5725 -12.5725
-0.560716 -12.627 -12.627
-0.470717 -12.5761 -12.5761
-0.558302 -12.5216 -12.5216
-0.559511 -12.5743 -12.5743
-0.649569 -12.6252 -12.6252
-0.65202 -12.7306 -12.7306
-0.47424 -12.7342 -12.7342
-0.471894 -12.6288 -12.6288
-0.650797 -12.6779 -12.6779
-0.563115 -12.7324 -12.7324
-0.473069 -12.6815 -12.6815
-0.560716 -12.627 -12.627
-0.561918 -12.6797 -12.6797
-0.65202 -12.7306 -12.7306
-0.654451 -12.8361 -12.8361
-0.476575 -12.8397 -12.8397
-0.47424 -12.7342 -12.7342
-0.653238 -12.7833 -12.7833
-0.565498 -12.8378 -12.8378
-0.475409 -12.7869 -12.7869
-0.563115 -12.7324 -12.7324
-0.564308 -12.7851 -12.7851
-0.654451 -12.8361 -12.8361
-0.656861 -12.9416 -12.9416
-0.478897 -12.9452 -12.9452
-0.476575 -12.8397 -12.8397
-0.655659 -12.8888 -12.8888
-0.567864 -12.9434 -12.9434
-0.477738 -12.8924 -12.8924
-0.565498 -12.8378 -12.8378
-0.566683 -12.8906 -12.8906
-0.656861 -12.9416 -12.9416
-0.65925 -13.0471 -13.0471
-0.481208 -13.0508 -13.0508
-0.478897 -12.9452 -12.9452
-0.658058 -12.9943 -12.9943
-0.570214 -13.0489 -13.0489
-0.480054 -12.998 -12.998
-0.567864 -12.9434 -12.9434
-0.569041 -12.9961 -12.9961
-0.65925 -13.0471 -13.0471
-0.661618 -13.1527 -13.1527
-0.483505 -13.1564 -13.1564
-0.481208 -13.0508 -13.0508
-0.660437 -13.0999 -13.0999
-0.572546 -13.1546 -13.1546
-0.482358 -13.1036 -13.1036
-0.570214 -13.0489 -13.0489
-0.571382 -13.1017 -13.1017
-0.661618 -13.1527 -13.1527
-0.663964 -13.2584 -13.2584
-0.485788 -13.262 -13.262
-0.483505 -13.1564 -13.1564
-0.662794 -13.2056 -13.2056
-0.574859 -13.2602 -13.2602
-0.484648 -13.2092 -13.2092
-0.572546 -13.1546 -13.1546
-0.573705 -13.2074 -13.2074
-0.663964 -13.2584 -13.2584
-0.666287 -13.3641 -13.3641
-0.488055 -13.3677 -13.3677
-0.485788 -13.262 -13.262
-0.665128 -13.3112 -13.3112
-0.577153 -13.3659 -13.3659
-0.486923 -13.3149 -13.3149
-0.574859 -13.2602 -13.2602
-0.576009 -13.3131 -13.3131
-0.666287 -13.3641 -13.3641
-0.668587 -13.4698 -13.4698
-0.490305 -13.4735 -13.4735
-0.488055 -13.3677 -13.3677
-0.66744 -13.4169 -13.4169
-0.579426 -13.4716 -13.4716
-0.489182 -13.4206 -13.4206
-0.577153 -13.3659 -13.3659
-0.578292 -13.4188 -13.4188
-0.668587 -13.4698 -13.4698
-0.67086 -13.5755 -13.5755
-0.492538 -13.5792 -13.5792
-0.490305 -13.4735 -13.4735
-0.669727 -13.5227 -13.5227
-0.581674 -13.5774 -13.5774
-0.491423 -13.5263 -13.5263
-0.579426 -13.4716 -13.4716
-0.580553 -13.5245 -13.5245
-0.67086 -13.5755 -13.5755
-0.673105 -13.6813 -13.6813
-0.494756 -13.685 -13.685
-0.492538 -13.5792 -13.5792
-0.671986 -13.6284 -13.6284
-0.5839 -13.6832 -13.6832
-0.493648 -13.6321 -13.6321
-0.581674 -13.5774 -13.5774
-0.58279 -13.6303 -13.6303
-0.673105 -13.6813 -13.6813
-0.675324 -13.7872 -13.7872
-0.496972 -13.7908 -13.7908
-0.494756 -13.685 -13.685
-0.674216 -13.7342 -13.7342
-0.586114 -13.789 -13.789
-0.495864 -13.7379 -13.7379
-0.5839 -13.6832 -13.6832
-0.585006 -13.7361 -13.7361
-0.675324 -13.7872 -13.7872
-0.677563 -13.8931 -13.8931
-0.499197 -13.8965 -13.8965
-0.496972 -13.7908 -13.7908
-0.676436 -13.8401 -13.8401
-0.588354 -13.8948 -13.8948
-0.498083 -13.8436 -13.8436
-0.586114 -13.789 -13.789
-0.58723 -13.8419 -13.8419
0 0 0
-0.00240409 -0.000243354 -0.000243354
-0.00079592 0.000129164 0.000129164
0 0 0
-0.0011656 7.46215e-05 7.46215e-05
-0.00159408 -1.02016e-05 -1.02016e-05
-0.000396293 0.000258425 0.000258425
0 0 0
-0.000773928 0.000196113 0.000196113
-0.00240409 -0.000243354 -0.000243354
-0.00499172 -0.00185709 -0.00185709
-0.00165683 -0.00121053 -0.00121053
-0.00079592 0.000129164 0.000129164
-0.00368174 -0.000895159 -0.000895159
-0.00330904 -0.00144383 -0.00144383
-0.0012184 -0.000368731 -0.000368731
-0.00159408 -1.02016e-05 -1.02016e-05
-0.0024408 -0.000563135 -0.000563135
-0.00499172 -0.00185709 -0.00185709
-0.00768746 -0.00465064 -0.00465064
-0.00254886 -0.00383855 -0.00383855
-0.00165683 -0.00121053 -0.00121053
-0.00633132 -0.0031141 -0.0031141
-0.00509649 -0.00413655 -0.00413655
-0.00210039 -0.00237224 -0.00237224
-0.00330904 -0.00144383 -0.00144383
-0.00419637 -0.00264098 -0.00264098
-0.00768746 -0.00465064 -0.00465064
-0.010406 -0.0085194 -0.0085194
-0.00346106 -0.00763745 -0.00763745
-0.00254886 -0.00383855 -0.00383855
-0.00904689 -0.00645354 -0.00645354
-0.00691154 -0.00796419 -0.00796419
-0.00300356 -0.00559694 -0.00559694
-0.00509649 -0.00413655 -0.00413655
-0.00600279 -0.00591332 -0.00591332
-0.010406 -0.0085194 -0.0085194
-0.0131165 -0.013435 -0.013435
-0.00437326 -0.0125347 -0.0125347
-0.00346106 -0.00763745 -0.00763745
-0.0117634 -0.0108471 -0.0108471
-0.00872611 -0.0128705 -0.0128705
-0.00391768 -0.00995166 -0.00995166
-0.00691154 -0.00796419 -0.00796419
-0.00781992 -0.0102846 -0.0102846
-0.0131165 -0.013435 -0.013435
-0.0158036 -0.0193866 -0.0193866
-0.00528195 -0.0184932 -0.0184932
-0.00437326 -0.0125347 -0.0125347
-0.0144631 -0.0162816 -0.0162816
-0.0105275 -0.0188264 -0.0188264
-0.00482826 -0.0153827 -0.0153827
-0.00872611 -0.0128705 -0.0128705
-0.00962875 -0.0157182 -0.0157182
-0.0158036 -0.0193866 -0.0193866
-0.0184689 -0.0263723 -0.0263723
-0.00618354 -0.0254935 -0.0254935
-0.00528195 -0.0184932 -0.0184932
-0.0171388 -0.0227504 -0.0227504
-0.0123138 -0.0258206 -0.0258206
-0.0057336 -0.0218638 -0.0218638
-0.0105275 -0.0188264 -0.0188264
-0.0114225 -0.0221942 -0.0221942
-0.0184689 -0.0263723 -0.0263723
-0.0211144 -0.0343883 -0.0343883
-0.00707981 -0.033526 -0.033526
-0.00618354 -0.0254935 -0.0254935
-0.0197939 -0.0302517 -0.0302517
-0.0140866 -0.033846 -0.033846
-0.00663226 -0.0293811 -0.0293811
-0.0123138 -0.0258206 -0.0258206
-0.0132017 -0.0297048 -0.0297048
-0.0211144 -0.0343883 -0.0343883
-0.0237439 -0.0434312 -0.0434312
-0.00797177 -0.0425845 -0.0425845
-0.00707981 -0.033526 -0.033526
-0.0224309 -0.0387817 -0.0387817
-0.0158485 -0.0428977 -0.0428977
-0.00752623 -0.0379273 -0.0379273
-0.0140866 -0.033846 -0.033846
-0.0149687 -0.0382439 -0.0382439
-0.0237439 -0.0434312 -0.0434312
-0.0263598 -0.0534963 -0.0534963
-0.00886112 -0.0526643 -0.0526643
-0.00797177 -0.0425845 -0.0425845
-0.0250534 -0.0483363 -0.0483363
-0.0176018 -0.0529709 -0.0529709
-0.00841669 -0.047497 -0.047497
-0.0158485 -0.0428977 -0.0428977
-0.0167261 -0.0478069 -0.0478069
-0.0263598 -0.0534963 -0.0534963
-0.0289642 -0.0645786 -0.0645786
-0.00974891 -0.0637606 -0.0637606
-0.00886112 -0.0526643 -0.0526643
-0.0276634 -0.0589106 -0.0589106
-0.0193482 -0.064061 -0.064061
-0.00930515 -0.0580856 -0.0580856
-0.0176018 -0.0529709 -0.0529709
-0.0184758 -0.0583892 -0.0583892
-0.0289642 -0.0645786 -0.0645786
-0.0315583 -0.0766729 -0.0766729
-0.0106361 -0.0758687 -0.0758687
-0.00974891 -0.0637606 -0.0637606
-0.0302625 -0.0704996 -0.0704996
-0.021089 -0.0761629 -0.0761629
-0.0101925 -0.0696885 -0.0696885
-0.0193482 -0.064061 -0.064061
-0.0202192 -0.0699858 -0.0699858
-0.0315583 -0.0766729 -0.0766729
-0.0341431 -0.089774 -0.089774
-0.0115233 -0.0889835 -0.0889835
-0.0106361 -0.0758687 -0.0758687
-0.0328518 -0.083098 -0.083098
-0.022825 -0.0892714 -0.0892714
-0.0110796 -0.0823006 -0.0823006
-0.021089 -0.0761629 -0.0761629
-0.0219575 -0.0825916 -0.0825916
-0.0341431 -0.089774 -0.089774
-0.036719 -0.103876 -0.103876
-0.012411 -0.1031 -0.1031
-0.0115233 -0.0889835 -0.0889835
-0.0354321 -0.0967003 -0.0967003
-0.0245568 -0.103381 -0.103381
-0.011967 -0.0959169 -0.0959169
-0.022825 -0.0892714 -0.0892714
-0.0236914 -0.0962016 -0.0962016
-0.036719 -0.103876 -0.103876
-0.0392867 -0.118975 -0.118975
-0.0132998 -0.118213 -0.118213
-0.012411 -0.1031 -0.1031
-0.0380039 -0.111301 -0.111301
-0.026285 -0.118488 -0.118488
-0.0128553 -0.110532 -0.110532
-0.0245568 -0.103381 -0.103381
-0.0254213 -0.11081 -0.11081
-0.0392867 -0.118975 -0.118975
-0.0418466 -0.135063 -0.135063
-0.01419 -0.134317 -0.134317
-0.0132998 -0.118213 -0.118213
-0.0405676 -0.126895 -0.126895
-0.02801 -0.134584 -0.134584
-0.0137447 -0.126141 -0.126141
-0.026285 -0.118488 -0.118488
-0.0271479 -0.126413 -0.126413
-0.0418466 -0.135063 -0.135063
-0.044399 -0.152137 -0.152137
-0.0150819 -0.151406 -0.151406
-0.01419 -0.134317 -0.134317
-0.0431237 -0.143477 -0.143477
-0.0297321 -0.151667 -0.151667
-0.0146357 -0.142738 -0.142738
-0.02801 -0.134584 -0.134584
-0.0288714 -0.143003 -0.143003
-0.044399 -0.152137 -0.152137
-0.0469443 -0.17019 -0.17019
-0.0159759 -0.169476 -0.169476
-0.0150819 -0.151406 -0.151406
-0.0456725 -0.161042 -0.161042
-0.0314518 -0.169729 -0.169729
-0.0155286 -0.160319 -0.160319
-0.0297321 -0.151667 -0.151667
-0.0305922 -0.160575 -0.160575
-0.0469443 -0.17019 -0.17019
-0.0494829 -0.189218 -0.189218
-0.0168724 -0.18852 -0.18852
-0.0159759 -0.169476 -0.169476
-0.0482144 -0.179583 -0.179583
-0.0331693 -0.188765 -0.188765
-0.0164239 -0.178876 -0.178876
-0.0314518 -0.169729 -0.169729
-0.0323108 -0.179125 -0.179125
-0.0494829 -0.189218 -0.189218
-0.052015 -0.209214 -0.209214
-0.0177717 -0.208533 -0.208533
-0.0168724 -0.18852 -0.18852
-0.0507497 -0.199095 -0.199095
-0.034885 -0.208771 -0.208771
-0.0173217 -0.198406 -0.198406
-0.0331693 -0.188765 -0.188765
-0.0340273 -0.198647 -0.198647
-0.052015 -0.209214 -0.209214
-0.054541 -0.230174 -0.230174
-0.0186742 -0.229511 -0.229511
-0.0177717 -0.208533 -0.208533
-0.0532788 -0.219574 -0.219574
-0.0365991 -0.22974 -0.22974
-0.0182225 -0.218902 -0.218902
-0.034885 -0.208771 -0.208771
-0.0357422 -0.219135 -0.219135
-0.054541 -0.230174 -0.230174
-0.0570613 -0.252091 -0.252091
-0.01958 -0.251446 -0.251446
-0.0186742 -0.229511 -0.229511
-0.0558019 -0.241013 -0.241013
-0.0383122 -0.251667 -0.251667
-0.0191266 -0.240359 -0.240359
-0.0365991 -0.22974 -0.22974
-0.0374558 -0.240584 -0.240584
-0.0570613 -0.252091 -0.252091
-0.0595761 -0.274961 -0.274961
-0.0204896 -0.274335 -0.274335
-0.01958 -0.251446 -0.251446
-0.0583193 -0.263407 -0.263407
-0.0400243 -0.274546 -0.274546
-0.0200343 -0.262772 -0.262772
-0.0383122 -0.251667 -0.251667
-0.0391683 -0.262988 -0.262988
-0.0595761 -0.274961 -0.274961
-0.0620857 -0.298777 -0.298777
-0.0214032 -0.298171 -0.298171
-0.0204896 -0.274335 -0.274335
-0.0608315 -0.286751 -0.286751
-0.0417359 -0.298374 -0.298374
-0.0209459 -0.286135 -0.286135
-0.0400243 -0.274546 -0.274546
-0.0408802 -0.286342 -0.286342
-0.0620857 -0.298777 -0.298777
-0.0645905 -0.323536 -0.323536
-0.0223212 -0.322949 -0.322949
-0.0214032 -0.298171 -0.298171
-0.0633387 -0.311039 -0.311039
-0.0434472 -0.323142 -0.323142
-0.0218616 -0.310443 -0.310443
-0.0417359 -0.298374 -0.298374
-0.0425916 -0.310641 -0.310641
-0.0645905 -0.323536 -0.323536
-0.0670906 -0.34923 -0.34923
-0.0232438 -0.348664 -0.348664
-0.0223212 -0.322949 -0.322949
-0.0658411 -0.336266 -0.336266
-0.0451586 -0.348847 -0.348847
-0.0227819 -0.33569 -0.33569
-0.0434472 -0.323142 -0.323142
-0.0443029 -0.335878 -0.335878
-0.0670906 -0.34923 -0.34923
-0.0695866 -0.375855 -0.375855
-0.0241714 -0.37531 -0.37531
-0.0232438 -0.348664 -0.348664
-0.0683391 -0.362426 -0.362426
-0.0468703 -0.375484 -0.375484
-0.023707 -0.361871 -0.361871
-0.0451586 -0.348847 -0.348847
-0.0460144 -0.362049 -0.362049
-0.0695866 -0.375855 -0.375855
-0.0720785 -0.403405 -0.403405
-0.0251042 -0.402882 -0.402882
-0.0241714 -0.37531 -0.37531
-0.070833 -0.389515 -0.389515
-0.0485826 -0.403045 -0.403045
-0.0246371 -0.388981 -0.388981
-0.0468703 -0.375484 -0.375484
-0.0477264 -0.389149 -0.389149
-0.0720785 -0.403405 -0.403405
-0.0745667 -0.431875 -0.431875
-0.0260424 -0.431374 -0.431374
-0.0251042 -0.402882 -0.402882
-0.073323 -0.417526 -0.417526
-0.0502959 -0.431527 -0.431527
-0.0255726 -0.417013 -0.417013
-0.0485826 -0.403045 -0.403045
-0.0494391 -0.417171 -0.417171
-0.0745667 -0.431875 -0.431875
-0.0770514 -0.46126 -0.46126
-0.0269865 -0.46078 -0.46078
-0.0260424 -0.431374 -0.431374
-0.0758095 -0.446453 -0.446453
-0.0520102 -0.460923 -0.460923
-0.0265137 -0.445963 -0.445963
-0.0502959 -0.431527 -0.431527
-0.0511529 -0.446111 -0.446111
-0.0770514 -0.46126 -0.46126
-0.079533 -0.491553 -0.491553
-0.0279365 -0.491096 -0.491096
-0.0269865 -0.46078 -0.46078
-0.0782926 -0.476293 -0.476293
-0.053726 -0.491228 -0.491228
-0.0274607 -0.475825 -0.475825
-0.0520102 -0.460923 -0.460923
-0.0528679 -0.475962 -0.475962
-0.079533 -0.491553 -0.491553
-0.0820116 -0.52275 -0.52275
-0.0288929 -0.522316 -0.522316
-0.0279365 -0.491096 -0.491096
-0.0807727 -0.507039 -0.507039
-0.0554435 -0.522437 -0.522437
-0.0284139 -0.506594 -0.506594
-0.053726 -0.491228 -0.491228
-0.0545845 -0.50672 -0.50672
-0.0820116 -0.52275 -0.52275
-0.0844876 -0.554844 -0.554844
-0.0298558 -0.554435 -0.554435
-0.0288929 -0.522316 -0.522316
-0.0832499 -0.538685 -0.538685
-0.0571629 -0.554544 -0.554544
-0.0293735 -0.538264 -0.538264
-0.0554435 -0.522437 -0.522437
-0.0563029 -0.538379 -0.538379
-0.0844876 -0.554844 -0.554844
-0.0869612 -0.587832 -0.587832
-0.0308255 -0.587446 -0.587446
-0.0298558 -0.554435 -0.554435
-0.0857247 -0.571227 -0.571227
-0.0588845 -0.587544 -0.587544
-0.0303398 -0.570829 -0.570829
-0.0571629 -0.554544 -0.554544
-0.0580234 -0.570933 -0.570933
-0.0869612 -0.587832 -0.587832
-0.0894325 -0.621706 -0.621706
-0.0318022 -0.621345 -0.621345
-0.0308255 -0.587446 -0.587446
-0.0881971 -0.604659 -0.604659
-0.0606085 -0.621431 -0.621431
-0.031313 -0.604285 -0.604285
-0.0588845 -0.587544 -0.587544
-0.0597462 -0.604377 -0.604377
-0.0894325 -0.621706 -0.621706
-0.091902 -0.656463 -0.656463
-0.0327862 -0.656126 -0.656126
-0.0318022 -0.621345 -0.621345
-0.0906675 -0.638975 -0.638975
-0.0623352 -0.656201 -0.656201
-0.0322933 -0.638626 -0.638626
-0.0606085 -0.621431 -0.621431
-0.0614715 -0.638706 -0.638706
-0.091902 -0.656463 -0.656463
-0.0943697 -0.692095 -0.692095
-0.0337777 -0.691784 -0.691784
-0.0327862 -0.656126 -0.656126
-0.093136 -0.67417 -0.67417
-0.0640648 -0.691846 -0.691846
-0.033281 -0.673846 -0.673846
-0.0623352 -0.656201 -0.656201
-0.0631996 -0.673914 -0.673914
-0.0943697 -0.692095 -0.692095
-0.0968359 -0.728599 -0.728599
-0.0347769 -0.728313 -0.728313
-0.0337777 -0.691784 -0.691784
-0.095603 -0.710238 -0.710238
-0.0657975 -0.728363 -0.728363
-0.0342763 -0.70994 -0.70994
-0.0640648 -0.691846 -0.691846
-0.0649307 -0.709996 -0.709996
-0.0968359 -0.728599 -0.728599
-0.0993009 -0.765967 -0.765967
-0.0357841 -0.765708 -0.765708
-0.0347769 -0.728313 -0.728313
-0.0980685 -0.747175 -0.747175
-0.0675335 -0.765746 -0.765746
-0.0352795 -0.746903 -0.746903
-0.0657975 -0.728363 -0.728363
-0.0666651 -0.746946 -0.746946
-0.0993009 -0.765967 -0.765967
-0.101765 -0.804196 -0.804196
-0.0367994 -0.803963 -0.803963
-0.0357841 -0.765708 -0.765708
-0.100533 -0.784975 -0.784975
-0.0692731 -0.803988 -0.803988
-0.0362907 -0.784728 -0.784728
-0.0675335 -0.765746 -0.765746
-0.0684029 -0.78476 -0.78476
-0.101765 -0.804196 -0.804196
-0.104228 -0.843279 -0.843279
-0.0378231 -0.843073 -0.843073
-0.0367994 -0.803963 -0.803963
-0.102996 -0.823631 -0.823631
-0.0710165 -0.843085 -0.843085
-0.0373102 -0.823411 -0.823411
-0.0692731 -0.803988 -0.803988
-0.0701443 -0.82343 -0.82343
-0.104228 -0.843279 -0.843279
-0.10669 -0.883212 -0.883212
-0.0388553 -0.883032 -0.883032
-0.0378231 -0.843073 -0.843073
-0.105459 -0.86314 -0.86314
-0.0727638 -0.883032 -0.883032
-0.0383381 -0.862947 -0.862947
-0.0710165 -0.843085 -0.843085
-0.0718896 -0.862953 -0.862953
-0.10669 -0.883212 -0.883212
-0.109152 -0.923988 -0.923988
-0.0398964 -0.923835 -0.923835
-0.0388553 -0.883032 -0.883032
-0.107921 -0.903495 -0.903495
-0.0745153 -0.923822 -0.923822
-0.0393747 -0.903329 -0.903329
-0.0727638 -0.883032 -0.883032
-0.073639 -0.903322 -0.903322
-0.109152 -0.923988 -0.923988
-0.111614 -0.965602 -0.965602
-0.0409463 -0.965477 -0.965477
-0.0398964 -0.923835 -0.923835
-0.110383 -0.94469 -0.94469
-0.0762711 -0.96545 -0.96545
-0.0404202 -0.944552 -0.944552
-0.0745153 -0.923822 -0.923822
-0.0753926 -0.944532 -0.944532
-0.111614 -0.965602 -0.965602
-0.114076 -1.00805 -1.00805
-0.0420055 -1.00795 -1.00795
-0.0409463 -0.965477 -0.965477
-0.112845 -0.986722 -0.986722
-0.0780314 -1.00791 -1.00791
-0.0414747 -0.986611 -0.986611
-0.0762711 -0.96545 -0.96545
-0.0771507 -0.986577 -0.986577
-0.114076 -1.00805 -1.00805
-0.116537 -1.05132 -1.05132
-0.0430739 -1.05125 -1.05125
-0.0420055 -1.00795 -1.00795
-0.115306 -1.02958 -1.02958
-0.0797965 -1.0512 -1.0512
-0.0425385 -1.0295 -1.0295
-0.0780314 -1.00791 -1.00791
-0.0789134 -1.02945 -1.02945
-0.116537 -1.05132 -1.05132
-0.118999 -1.09542 -1.09542
-0.0441518 -1.09538 -1.09538
-0.0430739 -1.05125 -1.05125
-0.117768 -1.07327 -1.07327
-0.0815665 -1.09531 -1.09531
-0.0436117 -1.07321 -1.07321
-0.0797965 -1.0512 -1.0512
-0.0806809 -1.07315 -1.07315
-0.118999 -1.09542 -1.09542
-0.121462 -1.14033 -1.14033
-0.0452395 -1.14032 -1.14032
-0.0441518 -1.09538 -1.09538
-0.120231 -1.11777 -1.11777
-0.0833416 -1.14024 -1.14024
-0.0446944 -1.11775 -1.11775
-0.0815665 -1.09531 -1.09531
-0.0824534 -1.11767 -1.11767
-0.121462 -1.14033 -1.14033
-0.123925 -1.18606 -1.18606
-0.0463369 -1.18607 -1.18607
-0.0452395 -1.14032 -1.14032
-0.122693 -1.16309 -1.16309
-0.0851218 -1.18598 -1.18598
-0.045787 -1.1631 -1.1631
-0.0833416 -1.14024 -1.14024
-0.084231 -1.16301 -1.16301
-0.123925 -1.18606 -1.18606
-0.126389 -1.23258 -1.23258
-0.0474444 -1.23263 -1.23263
-0.0463369 -1.18607 -1.18607
-0.125157 -1.20922 -1.20922
-0.0869075 -1.23252 -1.23252
-0.0468894 -1.20925 -1.20925
-0.0851218 -1.18598 -1.18598
-0.086014 -1.20915 -1.20915
-0.126389 -1.23258 -1.23258
-0.128854 -1.27991 -1.27991
-0.048562 -1.27999 -1.27999
-0.0474444 -1.23263 -1.23263
-0.127621 -1.25615 -1.25615
-0.0886987 -1.27987 -1.27987
-0.0480019 -1.25621 -1.25621
-0.0869075 -1.23252 -1.23252
-0.0878024 -1.2561 -1.2561
-0.128854 -1.27991 -1.27991
-0.13132 -1.32804 -1.32804
-0.0496899 -1.32815 -1.32815
-0.048562 -1.27999 -1.27999
-0.130087 -1.30388 -1.30388
-0.0904956 -1.32801 -1.32801
-0.0491246 -1.30397 -1.30397
-0.0886987 -1.27987 -1.27987
-0.0895964 -1.30384 -1.30384
-0.13132 -1.32804 -1.32804
-0.133787 -1.37695 -1.37695
-0.0508282 -1.37709 -1.37709
-0.0496899 -1.32815 -1.32815
-0.132553 -1.3524 -1.3524
-0.0922984 -1.37694 -1.37694
-0.0502577 -1.35252 -1.35252
-0.0904956 -1.32801 -1.32801
-0.0913963 -1.35237 -1.35237
-0.133787 -1.37695 -1.37695
-0.136255 -1.42665 -1.42665
-0.0519772 -1.42682 -1.42682
-0.0508282 -1.37709 -1.37709
-0.135021 -1.4017 -1.4017
-0.0941071 -1.42665 -1.42665
-0.0514014 -1.40185 -1.40185
-0.0922984 -1.37694 -1.37694
-0.093202 -1.40169 -1.40169
-0.136255 -1.42665 -1.42665
-0.138726 -1.47712 -1.47712
-0.0531368 -1.47732 -1.47732
-0.0519772 -1.42682 -1.42682
-0.13749 -1.45179 -1.45179
-0.0959219 -1.47714 -1.47714
-0.0525556 -1.45197 -1.45197
-0.0941071 -1.42665 -1.42665
-0.0950137 -1.4518 -1.4518
-0.138726 -1.47712 -1.47712
-0.141197 -1.52837 -1.52837
-0.0543073 -1.5286 -1.5286
-0.0531368 -1.47732 -1.47732
-0.139961 -1.50265 -1.50265
-0.097743 -1.5284 -1.5284
-0.0537207 -1.50287 -1.50287
-0.0959219 -1.47714 -1.47714
-0.0968317 -1.50268 -1.50268
-0.141197 -1.52837 -1.52837
-0.143671 -1.58039 -1.58039
-0.0554888 -1.58065 -1.58065
-0.0543073 -1.5286 -1.5286
-0.142434 -1.55428 -1.55428
-0.0995705 -1.58044 -1.58044
-0.0548967 -1.55453 -1.55453
-0.097743 -1.5284 -1.5284
-0.0986559 -1.55432 -1.55432
-0.143671 -1.58039 -1.58039
-0.146146 -1.63317 -1.63317
-0.0566813 -1.63346 -1.63346
-0.0554888 -1.58065 -1.58065
-0.144908 -1.60668 -1.60668
-0.101404 -1.63323 -1.63323
-0.0560837 -1.60696 -1.60696
-0.0995705 -1.58044 -1.58044
-0.100487 -1.60674 -1.60674
-0.146146 -1.63317 -1.63317
-0.148623 -1.6867 -1.6867
-0.0578851 -1.68702 -1.68702
-0.0566813 -1.63346 -1.63346
-0.147384 -1.65984 -1.65984
-0.103245 -1.68678 -1.68678
-0.0572818 -1.66015 -1.66015
-0.101404 -1.63323 -1.63323
-0.102324 -1.65991 -1.65991
-0.148623 -1.6867 -1.6867
-0.151103 -1.74099 -1.74099
-0.0591002 -1.74134 -1.74134
-0.0578851 -1.68702 -1.68702
-0.149863 -1.71375 -1.71375
-0.105092 -1.74108 -1.74108
-0.0584912 -1.71409 -1.71409
-0.103245 -1.68678 -1.68678
-0.104168 -1.71384 -1.71384
-0.151103 -1.74099 -1.74099
-0.153584 -1.79602 -1.79602
-0.0603267 -1.7964 -1.7964
-0.0591002 -1.74134 -1.74134
-0.152343 -1.76841 -1.76841
-0.106946 -1.79613 -1.79613
-0.059712 -1.76878 -1.76878
-0.105092 -1.74108 -1.74108
-0.106018 -1.76851 -1.76851
-0.153584 -1.79602 -1.79602
-0.156068 -1.85179 -1.85179
-0.0615647 -1.85221 -1.85221
-0.0603267 -1.7964 -1.7964
-0.154826 -1.82381 -1.82381
-0.108807 -1.85192 -1.85192
-0.0609443 -1.82421 -1.82421
-0.106946 -1.79613 -1.79613
-0.107876 -1.82393 -1.82393
-0.156068 -1.85179 -1.85179
-0.158555 -1.9083 -1.9083
-0.0628144 -1.90875 -1.90875
-0.0615647 -1.85221 -1.85221
-0.157311 -1.87995 -1.87995
-0.110675 -1.90844 -1.90844
-0.0621881 -1.88038 -1.88038
-0.108807 -1.85192 -1.85192
-0.10974 -1.88009 -1.88009
-0.158555 -1.9083 -1.9083
-0.161044 -1.96553 -1.96553
-0.0640757 -1.96601 -1.96601
-0.0628144 -1.90875 -1.90875
-0.159799 -1.93682 -1.93682
-0.11255 -1.9657 -1.9657
-0.0634436 -1.93729 -1.93729
-0.110675 -1.90844 -1.90844
-0.111612 -1.93698 -1.93698
-0.161044 -1.96553 -1.96553
-0.163535 -2.02349 -2.02349
-0.0653489 -2.02401 -2.02401
-0.0640757 -1.96601 -1.96601
-0.162289 -1.99442 -1.99442
-0.114433 -2.02367 -2.02367
-0.0647108 -1.99492 -1.99492
-0.11255 -1.9657 -1.9657
-0.113491 -1.99459 -1.99459
-0.163535 -2.02349 -2.02349
-0.166029 -2.08217 -2.08217
-0.0666339 -2.08272 -2.08272
-0.0653489 -2.02401 -2.02401
-0.164782 -2.05274 -2.05274
-0.116322 -2.08237 -2.08237
-0.0659899 -2.05327 -2.05327
-0.114433 -2.02367 -2.02367
-0.115376 -2.05293 -2.05293
-0.166029 -2.08217 -2.08217
-0.168526 -2.14156 -2.14156
-0.0679308 -2.14214 -2.14214
-0.0666339 -2.08272 -2.08272
-0.167277 -2.11178 -2.11178
-0.118219 -2.14178 -2.14178
-0.0672809 -2.11234 -2.11234
-0.116322 -2.08237 -2.08237
-0.11727 -2.11198 -2.11198
-0.168526 -2.14156 -2.14156
-0.171026 -2.20166 -2.20166
-0.0692398 -2.20227 -2.20227
-0.0679308 -2.14214 -2.14214
-0.169775 -2.17152 -2.17152
-0.120123 -2.20189 -2.20189
-0.0685838 -2.17212 -2.17212
-0.118219 -2.14178 -2.14178
-0.11917 -2.17175 -2.17175
-0.171026 -2.20166 -2.20166
-0.173528 -2.26246 -2.26246
-0.0705609 -2.26311 -2.26311
-0.0692398 -2.20227 -2.20227
-0.172277 -2.23197 -2.23197
-0.122035 -2.26271 -2.26271
-0.0698989 -2.2326 -2.2326
-0.120123 -2.20189 -2.20189
-0.121078 -2.23221 -2.23221
-0.173528 -2.26246 -2.26246
-0.176034 -2.32396 -2.32396
-0.0718941 -2.32464 -2.32464
-0.0705609 -2.26311 -2.26311
-0.174781 -2.29312 -2.29312
-0.123955 -2.32423 -2.32423
-0.071226 -2.29379 -2.29379
-0.122035 -2.26271 -2.26271
-0.122994 -2.29338 -2.29338
-0.176034 -2.32396 -2.32396
-0.178542 -2.38615 -2.38615
-0.0732396 -2.38686 -2.38686
-0.0718941 -2.32464 -2.32464
-0.177288 -2.35497 -2.35497
-0.125881 -2.38643 -2.38643
-0.0725653 -2.35566 -2.35566
-0.123955 -2.32423 -2.32423
-0.124917 -2.35524 -2.35524
-0.178542 -2.38615 -2.38615
-0.181054 -2.44903 -2.44903
-0.0745973 -2.44977 -2.44977
-0.0732396 -2.38686 -2.38686
-0.179798 -2.4175 -2.4175
-0.127816 -2.44932 -2.44932
-0.0739169 -2.41823 -2.41823
-0.125881 -2.38643 -2.38643
-0.126848 -2.41779 -2.41779
-0.181054 -2.44903 -2.44903
-0.183568 -2.51258 -2.51258
-0.0759673 -2.51336 -2.51336
-0.0745973 -2.44977 -2.44977
-0.182311 -2.48072 -2.48072
-0.129758 -2.5129 -2.5129
-0.0752807 -2.48148 -2.48148
-0.127816 -2.44932 -2.44932
-0.128786 -2.48103 -2.48103
-0.183568 -2.51258 -2.51258
-0.186086 -2.57681 -2.57681
-0.0773496 -2.57762 -2.57762
-0.0759673 -2.51336 -2.51336
-0.184827 -2.54461 -2.54461
-0.131708 -2.57715 -2.57715
-0.0766569 -2.54541 -2.54541
-0.129758 -2.5129 -2.5129
-0.130732 -2.54494 -2.54494
-0.186086 -2.57681 -2.57681
-0.188607 -2.64171 -2.64171
-0.0787444 -2.64256 -2.64256
-0.0773496 -2.57762 -2.57762
-0.187346 -2.60918 -2.60918
-0.133666 -2.64206 -2.64206
-0.0780455 -2.61001 -2.61001
-0.131708 -2.57715 -2.57715
-0.132686 -2.60952 -2.60952
-0.188607 -2.64171 -2.64171
-0.191131 -2.70728 -2.70728
-0.0801516 -2.70815 -2.70815
-0.0787444 -2.64256 -2.64256
-0.189869 -2.67441 -2.67441
-0.135632 -2.70765 -2.70765
-0.0794465 -2.67527 -2.67527
-0.133666 -2.64206 -2.64206
-0.134648 -2.67477 -2.67477
-0.191131 -2.70728 -2.70728
-0.193659 -2.7735 -2.7735
-0.0815713 -2.77441 -2.77441
-0.0801516 -2.70815 -2.70815
-0.192395 -2.74031 -2.74031
-0.137606 -2.77389 -2.77389
-0.0808599 -2.7412 -2.7412
-0.135632 -2.70765 -2.70765
-0.136618 -2.74068 -2.74068
-0.193659 -2.7735 -2.7735
-0.19619 -2.84038 -2.84038
-0.0830035 -2.84132 -2.84132
-0.0815713 -2.77441 -2.77441
-0.194924 -2.80686 -2.80686
-0.139587 -2.84078 -2.84078
-0.0822858 -2.80779 -2.80779
-0.137606 -2.77389 -2.77389
-0.138595 -2.80725 -2.80725
-0.19619 -2.84038 -2.84038
-0.198724 -2.9079 -2.9079
-0.0844482 -2.90888 -2.90888
-0.0830035 -2.84132 -2.84132
-0.197456 -2.87406 -2.87406
-0.141576 -2.90832 -2.90832
-0.0837242 -2.87502 -2.87502
-0.139587 -2.84078 -2.84078
-0.140581 -2.87447 -2.87447
-0.198724 -2.9079 -2.9079
-0.201261 -2.97607 -2.97607
-0.0859054 -2.97708 -2.97708
-0.0844482 -2.90888 -2.90888
-0.199992 -2.9419 -2.9419
-0.143574 -2.97651 -2.97651
-0.0851752 -2.9429 -2.9429
-0.141576 -2.90832 -2.90832
-0.142574 -2.94233 -2.94233
-0.201261 -2.97607 -2.97607
-0.203802 -3.04487 -3.04487
-0.0873752 -3.04592 -3.04592
-0.0859054 -2.97708 -2.97708
-0.202531 -3.01039 -3.01039
-0.145579 -3.04533 -3.04533
-0.0866387 -3.01142 -3.01142
-0.143574 -2.97651 -2.97651
-0.144575 -3.01084 -3.01084
-0.203802 -3.04487 -3.04487
-0.206346 -3.11431 -3.11431
-0.0888575 -3.11539 -3.11539
-0.0873752 -3.04592 -3.04592
-0.205073 -3.07951 -3.07951
-0.147592 -3.11478 -3.11478
-0.0881148 -3.08057 -3.08057
-0.145579 -3.04533 -3.04533
-0.146585 -3.07997 -3.07997
-0.206346 -3.11431 -3.11431
-0.208893 -3.18437 -3.18437
-0.0903524 -3.18548 -3.18548
-0.0888575 -3.11539 -3.11539
-0.207619 -3.14926 -3.14926
-0.149613 -3.18486 -3.18486
-0.0896034 -3.15035 -3.15035
-0.147592 -3.11478 -3.11478
-0.148602 -3.14974 -3.14974
-0.208893 -3.18437 -3.18437
-0.211444 -3.25505 -3.25505
-0.0918599 -3.2562 -3.2562
-0.0903524 -3.18548 -3.18548
-0.210168 -3.21963 -3.21963
-0.151643 -3.25556 -3.25556
-0.0911046 -3.22076 -3.22076
-0.149613 -3.18486 -3.18486
-0.150627 -3.22013 -3.22013
-0.211444 -3.25505 -3.25505
-0.213998 -3.32635 -3.32635
-0.09338 -3.32753 -3.32753
-0.0918599 -3.2562 -3.2562
-0.212721 -3.29062 -3.29062
-0.15368 -3.32687 -3.32687
-0.0926184 -3.29178 -3.29178
-0.151643 -3.25556 -3.25556
-0.15266 -3.29114 -3.29114
-0.213998 -3.32635 -3.32635
-0.216556 -3.39825 -3.39825
-0.0949126 -3.39947 -3.39947
-0.09338 -3.32753 -3.32753
-0.215277 -3.36222 -3.36222
-0.155725 -3.3988 -3.3988
-0.0941447 -3.36342 -3.36342
-0.15368 -3.32687 -3.32687
-0.154701 -3.36276 -3.36276
-0.216556 -3.39825 -3.39825
-0.219117 -3.47076 -3.47076
-0.0964578 -3.47201 -3.47201
-0.0949126 -3.39947 -3.39947
-0.217836 -3.43443 -3.43443
-0.157778 -3.47132 -3.47132
-0.0956837 -3.43566 -3.43566
-0.155725 -3.3988 -3.3988
-0.15675 -3.43498 -3.43498
-0.219117 -3.47076 -3.47076
-0.221681 -3.54387 -3.54387
-0.0980156 -3.54515 -3.54515
-0.0964578 -3.47201 -3.47201
-0.220399 -3.50724 -3.50724
-0.159839 -3.54445 -3.54445
-0.0972351 -3.50851 -3.50851
-0.157778 -3.47132 -3.47132
-0.158807 -3.50781 -3.50781
-0.221681 -3.54387 -3.54387
-0.224249 -3.61758 -3.61758
-0.0995859 -3.61889 -3.61889
-0.0980156 -3.54515 -3.54515
-0.222965 -3.58065 -3.58065
-0.161908 -3.61817 -3.61817
-0.0987992 -3.58195 -3.58195
-0.159839 -3.54445 -3.54445
-0.160872 -3.58124 -3.58124
-0.224249 -3.61758 -3.61758
-0.22682 -3.69187 -3.69187
-0.101169 -3.69322 -3.69322
-0.0995859 -3.61889 -3.61889
-0.225534 -3.65465 -3.65465
-0.163985 -3.69248 -3.69248
-0.100376 -3.65598 -3.65598
-0.161908 -3.61817 -3.61817
-0.162945 -3.65525 -3.65525
-0.22682 -3.69187 -3.69187
-0.229394 -3.76674 -3.76674
-0.102764 -3.76812 -3.76812
-0.101169 -3.69322 -3.69322
-0.228106 -3.72923 -3.72923
-0.16607 -3.76737 -3.76737
-0.101965 -3.7306 -3.7306
-0.163985 -3.69248 -3.69248
-0.165026 -3.72985 -3.72985
-0.229394 -3.76674 -3.76674
-0.231971 -3.84219 -3.84219
-0.104372 -3.84361 -3.84361
-0.102764 -3.76812 -3.76812
-0.230682 -3.8044 -3.8044
-0.168162 -3.84284 -3.84284
-0.103566 -3.80579 -3.80579
-0.16607 -3.76737 -3.76737
-0.167115 -3.80503 -3.80503
-0.231971 -3.84219 -3.84219
-0.234552 -3.91822 -3.91822
-0.105992 -3.91966 -3.91966
-0.104372 -3.84361 -3.84361
-0.233261 -3.88013 -3.88013
-0.170263 -3.91888 -3.91888
-0.10518 -3.88156 -3.88156
-0.168162 -3.84284 -3.84284
-0.169211 -3.88079 -3.88079
-0.234552 -3.91822 -3.91822
-0.237136 -3.9948 -3.9948
-0.107624 -3.99629 -3.99629
-0.105992 -3.91966 -3.91966
-0.235844 -3.95644 -3.95644
-0.172371 -3.99548 -3.99548
-0.106807 -3.9579 -3.9579
-0.170263 -3.91888 -3.91888
-0.171316 -3.95711 -3.95711
-0.237136 -3.9948 -3.9948
-0.239723 -4.07195 -4.07195
-0.109269 -4.07347 -4.07347
-0.107624 -3.99629 -3.99629
-0.238429 -4.03331 -4.03331
-0.174487 -4.07265 -4.07265
-0.108445 -4.03481 -4.03481
-0.172371 -3.99548 -3.99548
-0.173428 -4.034 -4.034
-0.239723 -4.07195 -4.07195
-0.242313 -4.14966 -4.14966
-0.110927 -4.15121 -4.15121
-0.109269 -4.07347 -4.07347
-0.241018 -4.11074 -4.11074
-0.17661 -4.15037 -4.15037
-0.110096 -4.11227 -4.11227
-0.174487 -4.07265 -4.07265
-0.175548 -4.11144 -4.11144
-0.242313 -4.14966 -4.14966
-0.244906 -4.22791 -4.22791
-0.112596 -4.22949 -4.22949
-0.110927 -4.15121 -4.15121
-0.243609 -4.18872 -4.18872
-0.178742 -4.22865 -4.22865
-0.11176 -4.19028 -4.19028
-0.17661 -4.15037 -4.15037
-0.177675 -4.18944 -4.18944
-0.244906 -4.22791 -4.22791
-0.247502 -4.30671 -4.30671
-0.114278 -4.30833 -4.30833
-0.112596 -4.22949 -4.22949
-0.246204 -4.26725 -4.26725
-0.180881 -4.30746 -4.30746
-0.113435 -4.26884 -4.26884
-0.178742 -4.22865 -4.22865
-0.17981 -4.26799 -4.26799
-0.247502 -4.30671 -4.30671
-0.250102 -4.38605 -4.38605
-0.115972 -4.3877 -4.3877
-0.114278 -4.30833 -4.30833
-0.248802 -4.34631 -4.34631
-0.183027 -4.38682 -4.38682
-0.115123 -4.34794 -4.34794
-0.180881 -4.30746 -4.30746
-0.181953 -4.34707 -4.34707
-0.250102 -4.38605 -4.38605
-0.252704 -4.46592 -4.46592
-0.117678 -4.4676 -4.4676
-0.115972 -4.3877 -4.3877
-0.251402 -4.42592 -4.42592
-0.185181 -4.46671 -4.46671
-0.116823 -4.42758 -4.42758
-0.183027 -4.38682 -4.38682
-0.184103 -4.42669 -4.42669
-0.252704 -4.46592 -4.46592
-0.255309 -4.54632 -4.54632
-0.119396 -4.54803 -4.54803
-0.117678 -4.4676 -4.4676
-0.254006 -4.50606 -4.50606
-0.187343 -4.54712 -4.54712
-0.118535 -4.50775 -4.50775
-0.185181 -4.46671 -4.46671
-0.186261 -4.50685 -4.50685
-0.255309 -4.54632 -4.54632
-0.257916 -4.62725 -4.62725
-0.121126 -4.62899 -4.62899
-0.119396 -4.54803 -4.54803
-0.256612 -4.58672 -4.58672
-0.189512 -4.62806 -4.62806
-0.120259 -4.58845 -4.58845
-0.187343 -4.54712 -4.54712
-0.188426 -4.58753 -4.58753
-0.257916 -4.62725 -4.62725
-0.260527 -4.70868 -4.70868
-0.122868 -4.71046 -4.71046
-0.121126 -4.62899 -4.62899
-0.259221 -4.6679 -4.6679
-0.191688 -4.70952 -4.70952
-0.121995 -4.66966 -4.66966
-0.189512 -4.62806 -4.62806
-0.190599 -4.66873 -4.66873
-0.260527 -4.70868 -4.70868
-0.26314 -4.79064 -4.79064
-0.124621 -4.79245 -4.79245
-0.122868 -4.71046 -4.71046
-0.261833 -4.7496 -4.7496
-0.193871 -4.79149 -4.79149
-0.123743 -4.75139 -4.75139
-0.191688 -4.70952 -4.70952
-0.192779 -4.75044 -4.75044
-0.26314 -4.79064 -4.79064
-0.265755 -4.87309 -4.87309
-0.126387 -4.87494 -4.87494
-0.124621 -4.79245 -4.79245
-0.264447 -4.8318 -4.8318
-0.196062 -4.87396 -4.87396
-0.125503 -4.83363 -4.83363
-0.193871 -4.79149 -4.79149
-0.194966 -4.83266 -4.83266
-0.265755 -4.87309 -4.87309
-0.268374 -4.95605 -4.95605
-0.128164 -4.95793 -4.95793
-0.126387 -4.87494 -4.87494
-0.267064 -4.91451 -4.91451
-0.19826 -4.95694 -4.95694
-0.127274 -4.91637 -4.91637
-0.196062 -4.87396 -4.87396
-0.19716 -4.91539 -4.91539
-0.268374 -4.95605 -4.95605
-0.270994 -5.03951 -5.03951
-0.129953 -5.04141 -5.04141
-0.128164 -4.95793 -4.95793
-0.269684 -4.99772 -4.99772
-0.200464 -5.04041 -5.04041
-0.129057 -4.99961 -4.99961
-0.19826 -4.95694 -4.95694
-0.199361 -4.99861 -4.99861
-0.270994 -5.03951 -5.03951
-0.273617 -5.12345 -5.12345
-0.131754 -5.12539 -5.12539
-0.129953 -5.04141 -5.04141
-0.272305 -5.08142 -5.08142
-0.202676 -5.12437 -5.12437
-0.130852 -5.08334 -5.08334
-0.200464 -5.04041 -5.04041
-0.201569 -5.08233 -5.08233
-0.273617 -5.12345 -5.12345
-0.276242 -5.20788 -5.20788
-0.133565 -5.20985 -5.20985
-0.131754 -5.12539 -5.12539
-0.274929 -5.16561 -5.16561
-0.204894 -5.20882 -5.20882
-0.132658 -5.16756 -5.16756
-0.202676 -5.12437 -5.12437
-0.203784 -5.16653 -5.16653
-0.276242 -5.20788 -5.20788
-0.278869 -5.29279 -5.29279
-0.135389 -5.29479 -5.29479
-0.133565 -5.20985 -5.20985
-0.277556 -5.25028 -5.25028
-0.20712 -5.29374 -5.29374
-0.134476 -5.25226 -5.25226
-0.204894 -5.20882 -5.20882
-0.206006 -5.25122 -5.25122
-0.278869 -5.29279 -5.29279
-0.281499 -5.37817 -5.37817
-0.137223 -5.3802 -5.3802
-0.135389 -5.29479 -5.29479
-0.280184 -5.33542 -5.33542
-0.209352 -5.37914 -5.37914
-0.136304 -5.33744 -5.33744
-0.20712 -5.29374 -5.29374
-0.208235 -5.33638 -5.33638
-0.281499 -5.37817 -5.37817
-0.28413 -5.46402 -5.46402
-0.139069 -5.46609 -5.46609
-0.137223 -5.3802 -5.3802
-0.282814 -5.42104 -5.42104
-0.21159 -5.465 -5.465
-0.138144 -5.42309 -5.42309
-0.209352 -5.37914 -5.37914
-0.21047 -5.42201 -5.42201
-0.28413 -5.46402 -5.46402
-0.286763 -5.55034 -5.55034
-0.140925 -5.55243 -5.55243
-0.139069 -5.46609 -5.46609
-0.285446 -5.50712 -5.50712
-0.213835 -5.55133 -5.55133
-0.139996 -5.5092 -5.5092
-0.21159 -5.465 -5.465
-0.212712 -5.50811 -5.50811
-0.286763 -5.55034 -5.55034
-0.289398 -5.63711 -5.63711
-0.142793 -5.63923 -5.63923
-0.140925 -5.55243 -5.55243
-0.288081 -5.59366 -5.59366
-0.216086 -5.63812 -5.63812
-0.141858 -5.59577 -5.59577
-0.213835 -5.55133 -5.55133
-0.21496 -5.59467 -5.59467
-0.289398 -5.63711 -5.63711
-0.292035 -5.72433 -5.72433
-0.144672 -5.72648 -5.72648
-0.142793 -5.63923 -5.63923
-0.290716 -5.68066 -5.68066
-0.218344 -5.72536 -5.72536
-0.143731 -5.6828 -5.6828
-0.216086 -5.63812 -5.63812
-0.217215 -5.68168 -5.68168
-0.292035 -5.72433 -5.72433
-0.294673 -5.812 -5.812
-0.146561 -5.81418 -5.81418
-0.144672 -5.72648 -5.72648
-0.293354 -5.76811 -5.76811
-0.220608 -5.81304 -5.81304
-0.145615 -5.77028 -5.77028
-0.218344 -5.72536 -5.72536
-0.219475 -5.76915 -5.76915
-0.294673 -5.812 -5.812
-0.297313 -5.90011 -5.90011
-0.148461 -5.90232 -5.90232
-0.146561 -5.81418 -5.81418
-0.295993 -5.856 -5.856
-0.222878 -5.90117 -5.90117
-0.14751 -5.8582 -5.8582
-0.220608 -5.81304 -5.81304
-0.221742 -5.85705 -5.85705
-0.297313 -5.90011 -5.90011
-0.299954 -5.98866 -5.98866
-0.150371 -5.9909 -5.9909
-0.148461 -5.90232 -5.90232
-0.298633 -5.94433 -5.94433
-0.225153 -5.98973 -5.98973
-0.149415 -5.94656 -5.94656
-0.222878 -5.90117 -5.90117
-0.224015 -5.9454 -5.9454
-0.299954 -5.98866 -5.98866
-0.302596 -6.07763 -6.07763
-0.152292 -6.07991 -6.07991
-0.150371 -5.9909 -5.9909
-0.301275 -6.03309 -6.03309
-0.227435 -6.07872 -6.07872
-0.151331 -6.03535 -6.03535
-0.225153 -5.98973 -5.98973
-0.226294 -6.03418 -6.03418
-0.302596 -6.07763 -6.07763
-0.305239 -6.16703 -6.16703
-0.154224 -6.16934 -6.16934
-0.152292 -6.07991 -6.07991
-0.303917 -6.12228 -6.12228
-0.229722 -6.16814 -6.16814
-0.153257 -6.12457 -6.12457
-0.227435 -6.07872 -6.07872
-0.228578 -6.12338 -6.12338
-0.305239 -6.16703 -6.16703
-0.307884 -6.25685 -6.25685
-0.156165 -6.25919 -6.25919
-0.154224 -6.16934 -6.16934
-0.306561 -6.21189 -6.21189
-0.232015 -6.25798 -6.25798
-0.155193 -6.21421 -6.21421
-0.229722 -6.16814 -6.16814
-0.230868 -6.21301 -6.21301
-0.307884 -6.25685 -6.25685
-0.310529 -6.34709 -6.34709
-0.158116 -6.34945 -6.34945
-0.156165 -6.25919 -6.25919
-0.309206 -6.30192 -6.30192
-0.234313 -6.34823 -6.34823
-0.15714 -6.30427 -6.30427
-0.232015 -6.25798 -6.25798
-0.233164 -6.30305 -6.30305
-0.310529 -6.34709 -6.34709
-0.313175 -6.43773 -6.43773
-0.160078 -6.44012 -6.44012
-0.158116 -6.34945 -6.34945
-0.311852 -6.39236 -6.39236
-0.236617 -6.43888 -6.43888
-0.159096 -6.39474 -6.39474
-0.234313 -6.34823 -6.34823
-0.235465 -6.3935 -6.3935
-0.313175 -6.43773 -6.43773
-0.315821 -6.52878 -6.52878
-0.162049 -6.5312 -6.5312
-0.160078 -6.44012 -6.44012
-0.314498 -6.4832 -6.4832
-0.238926 -6.52995 -6.52995
-0.161062 -6.48561 -6.48561
-0.236617 -6.43888 -6.43888
-0.237771 -6.48436 -6.48436
-0.315821 -6.52878 -6.52878
-0.318468 -6.62022 -6.62022
-0.16403 -6.62267 -6.62267
-0.162049 -6.5312 -6.5312
-0.317145 -6.57445 -6.57445
-0.24124 -6.6214 -6.6214
-0.163038 -6.57688 -6.57688
-0.238926 -6.52995 -6.52995
-0.240082 -6.57563 -6.57563
-0.318468 -6.62022 -6.62022
-0.321115 -6.71206 -6.71206
-0.16602 -6.71453 -6.71453
-0.16403 -6.62267 -6.62267
-0.319792 -6.66609 -6.66609
-0.243559 -6.71325 -6.71325
-0.165024 -6.66855 -6.66855
-0.24124 -6.6214 -6.6214
-0.242399 -6.66728 -6.66728
-0.321115 -6.71206 -6.71206
-0.323763 -6.80428 -6.80428
-0.16802 -6.80678 -6.80678
-0.16602 -6.71453 -6.71453
-0.322439 -6.75812 -6.75812
-0.245882 -6.80549 -6.80549
-0.167019 -6.76061 -6.76061
-0.243559 -6.71325 -6.71325
-0.24472 -6.75932 -6.75932
-0.323763 -6.80428 -6.80428
-0.32641 -6.89688 -6.89688
-0.170029 -6.89942 -6.89942
-0.16802 -6.80678 -6.80678
-0.325087 -6.85053 -6.85053
-0.248211 -6.89811 -6.89811
-0.169024 -6.85305 -6.85305
-0.245882 -6.80549 -6.80549
-0.247046 -6.85175 -6.85175
-0.32641 -6.89688 -6.89688
-0.329058 -6.98986 -6.98986
-0.172047 -6.99242 -6.99242
-0.170029 -6.89942 -6.89942
-0.327734 -6.94333 -6.94333
-0.250544 -6.9911 -6.9911
-0.171037 -6.94587 -6.94587
-0.248211 -6.89811 -6.89811
-0.249377 -6.94456 -6.94456
-0.329058 -6.98986 -6.98986
-0.331705 -7.08321 -7.08321
-0.174075 -7.0858 -7.0858
-0.172047 -6.99242 -6.99242
-0.330382 -7.03649 -7.03649
-0.252881 -7.08447 -7.08447
-0.17306 -7.03907 -7.03907
-0.250544 -6.9911 -6.9911
-0.251712 -7.03774 -7.03774
-0.331705 -7.08321 -7.08321
-0.334352 -7.17693 -7.17693
-0.17611 -7.17954 -7.17954
-0.174075 -7.0858 -7.0858
-0.333029 -7.13002 -7.13002
-0.255222 -7.1782 -7.1782
-0.175091 -7.13263 -7.13263
-0.252881 -7.08447 -7.08447
-0.254051 -7.13129 -7.13129
-0.334352 -7.17693 -7.17693
-0.336998 -7.271 -7.271
-0.178155 -7.27364 -7.27364
-0.17611 -7.17954 -7.17954
-0.335675 -7.22392 -7.22392
-0.257568 -7.27229 -7.27229
-0.177132 -7.22655 -7.22655
-0.255222 -7.1782 -7.1782
-0.256395 -7.2252 -7.2252
-0.336998 -7.271 -7.271
-0.339644 -7.36543 -7.36543
-0.180208 -7.3681 -7.3681
-0.178155 -7.27364 -7.27364
-0.338321 -7.31817 -7.31817
-0.259917 -7.36673 -7.36673
-0.179181 -7.32083 -7.32083
-0.257568 -7.27229 -7.27229
-0.258742 -7.31946 -7.31946
-0.339644 -7.36543 -7.36543
-0.342289 -7.46021 -7.46021
-0.18227 -7.4629 -7.4629
-0.180208 -7.3681 -7.3681
-0.340967 -7.41277 -7.41277
-0.262271 -7.46152 -7.46152
-0.181238 -7.41546 -7.41546
-0.259917 -7.36673 -7.36673
-0.261093 -7.41408 -7.41408
-0.342289 -7.46021 -7.46021
-0.344933 -7.55533 -7.55533
-0.18434 -7.55805 -7.55805
-0.18227 -7.4629 -7.4629
-0.343611 -7.50772 -7.50772
-0.264627 -7.55665 -7.55665
-0.183304 -7.51043 -7.51043
-0.262271 -7.46152 -7.46152
-0.263449 -7.50904 -7.50904
-0.344933 -7.55533 -7.55533
-0.347576 -7.65079 -7.65079
-0.186417 -7.65353 -7.65353
-0.18434 -7.55805 -7.55805
-0.346255 -7.60301 -7.60301
-0.266988 -7.65212 -7.65212
-0.185378 -7.60575 -7.60575
-0.264627 -7.55665 -7.55665
-0.265807 -7.60435 -7.60435
-0.347576 -7.65079 -7.65079
-0.350217 -7.74658 -7.74658
-0.188503 -7.74935 -7.74935
-0.186417 -7.65353 -7.65353
-0.348897 -7.69864 -7.69864
-0.269351 -7.74793 -7.74793
-0.187459 -7.7014 -7.7014
-0.266988 -7.65212 -7.65212
-0.268169 -7.69999 -7.69999
-0.350217 -7.74658 -7.74658
-0.352857 -7.84269 -7.84269
-0.190597 -7.84549 -7.84549
-0.188503 -7.74935 -7.74935
-0.351537 -7.79459 -7.79459
-0.271718 -7.84406 -7.84406
-0.189549 -7.79738 -7.79738
-0.269351 -7.74793 -7.74793
-0.270534 -7.79595 -7.79595
-0.352857 -7.84269 -7.84269
-0.355496 -7.93913 -7.93913
-0.192698 -7.94196 -7.94196
-0.190597 -7.84549 -7.84549
-0.354177 -7.89087 -7.89087
-0.274088 -7.94051 -7.94051
-0.191646 -7.89369 -7.89369
-0.271718 -7.84406 -7.84406
-0.272903 -7.89225 -7.89225
-0.355496 -7.93913 -7.93913
-0.358132 -8.03589 -8.03589
-0.194806 -8.03874 -8.03874
-0.192698 -7.94196 -7.94196
-0.356814 -7.98747 -7.98747
-0.27646 -8.03728 -8.03728
-0.193751 -7.99031 -7.99031
-0.274088 -7.94051 -7.94051
-0.275274 -7.98886 -7.98886
-0.358132 -8.03589 -8.03589
-0.360767 -8.13295 -8.13295
-0.196922 -8.13583 -8.13583
-0.194806 -8.03874 -8.03874
-0.35945 -8.08438 -8.08438
-0.278836 -8.13436 -8.13436
-0.195863 -8.08724 -8.08724
-0.27646 -8.03728 -8.03728
-0.277648 -8.08578 -8.08578
-0.360767 -8.13295 -8.13295
-0.363399 -8.23032 -8.23032
-0.199044 -8.23322 -8.23322
-0.196922 -8.13583 -8.13583
-0.362083 -8.1816 -8.1816
-0.281213 -8.23174 -8.23174
-0.197982 -8.18449 -8.18449
-0.278836 -8.13436 -8.13436
-0.280024 -8.18301 -8.18301
-0.363399 -8.23032 -8.23032
-0.36603 -8.32799 -8.32799
-0.201174 -8.33092 -8.33092
-0.199044 -8.23322 -8.23322
-0.364715 -8.27912 -8.27912
-0.283593 -8.32942 -8.32942
-0.200108 -8.28203 -8.28203
-0.281213 -8.23174 -8.23174
-0.282403 -8.28055 -8.28055
-0.36603 -8.32799 -8.32799
-0.368657 -8.42596 -8.42596
-0.20331 -8.4289 -8.4289
-0.201174 -8.33092 -8.33092
-0.367344 -8.37694 -8.37694
-0.285975 -8.4274 -8.4274
-0.202241 -8.37987 -8.37987
-0.283593 -8.32942 -8.32942
-0.284784 -8.37838 -8.37838
-0.368657 -8.42596 -8.42596
-0.371282 -8.52421 -8.52421
-0.205453 -8.52718 -8.52718
-0.20331 -8.4289 -8.4289
-0.36997 -8.47505 -8.47505
-0.288359 -8.52567 -8.52567
-0.204381 -8.47801 -8.47801
-0.285975 -8.4274 -8.4274
-0.287167 -8.4765 -8.4765
-0.371282 -8.52421 -8.52421
-0.373905 -8.62275 -8.62275
-0.207602 -8.62574 -8.62574
-0.205453 -8.52718 -8.52718
-0.372594 -8.57345 -8.57345
-0.290745 -8.62422 -8.62422
-0.206527 -8.57643 -8.57643
-0.288359 -8.52567 -8.52567
-0.289552 -8.57491 -8.57491
-0.373905 -8.62275 -8.62275
-0.376524 -8.72156 -8.72156
-0.209758 -8.72458 -8.72458
-0.207602 -8.62574 -8.62574
-0.375215 -8.67212 -8.67212
-0.293132 -8.72304 -8.72304
-0.208679 -8.67513 -8.67513
-0.290745 -8.62422 -8.62422
-0.291938 -8.67359 -8.67359
-0.376524 -8.72156 -8.72156
-0.37914 -8.82065 -8.82065
-0.211919 -8.82369 -8.82369
-0.209758 -8.72458 -8.72458
-0.377832 -8.77107 -8.77107
-0.295521 -8.82214 -8.82214
-0.210838 -8.7741 -8.7741
-0.293132 -8.72304 -8.72304
-0.294326 -8.77256 -8.77256
-0.37914 -8.82065 -8.82065
-0.381753 -8.92001 -8.92001
-0.214087 -8.92306 -8.92306
-0.211919 -8.82369 -8.82369
-0.380447 -8.8703 -8.8703
-0.297911 -8.92151 -8.92151
-0.213002 -8.87334 -8.87334
-0.295521 -8.82214 -8.82214
-0.296716 -8.87179 -8.87179
-0.381753 -8.92001 -8.92001
-0.384362 -9.01962 -9.01962
-0.216259 -9.0227 -9.0227
-0.214087 -8.92306 -8.92306
-0.383058 -8.96978 -8.96978
-0.300302 -9.02114 -9.02114
-0.215172 -8.97285 -8.97285
-0.297911 -8.92151 -8.92151
-0.299106 -8.97129 -8.97129
-0.384362 -9.01962 -9.01962
-0.386967 -9.11949 -9.11949
-0.218438 -9.1226 -9.1226
-0.216259 -9.0227 -9.0227
-0.385665 -9.06953 -9.06953
-0.302694 -9.12102 -9.12102
-0.217348 -9.07262 -9.07262
-0.300302 -9.02114 -9.02114
-0.301498 -9.07105 -9.07105
-0.386967 -9.11949 -9.11949
-0.389569 -9.21962 -9.21962
-0.220621 -9.22274 -9.22274
-0.218438 -9.1226 -9.1226
-0.388268 -9.16952 -9.16952
-0.305086 -9.22115 -9.22115
-0.219529 -9.17264 -9.17264
-0.302694 -9.12102 -9.12102
-0.30389 -9.17105 -9.17105
-0.389569 -9.21962 -9.21962
-0.392166 -9.31999 -9.31999
-0.22281 -9.32313 -9.32313
-0.220621 -9.22274 -9.22274
-0.390868 -9.26977 -9.26977
-0.307479 -9.32153 -9.32153
-0.221715 -9.2729 -9.2729
-0.305086 -9.22115 -9.22115
-0.306283 -9.27131 -9.27131
-0.392166 -9.31999 -9.31999
-0.394759 -9.42059 -9.42059
-0.225004 -9.42376 -9.42376
-0.22281 -9.32313 -9.32313
-0.393463 -9.37026 -9.37026
-0.309873 -9.42215 -9.42215
-0.223906 -9.37341 -9.37341
-0.307479 -9.32153 -9.32153
-0.308676 -9.37181 -9.37181
-0.394759 -9.42059 -9.42059
-0.397348 -9.52144 -9.52144
-0.227202 -9.52462 -9.52462
-0.225004 -9.42376 -9.42376
-0.396054 -9.47099 -9.47099
-0.312266 -9.523 -9.523
-0.226102 -9.47416 -9.47416
-0.309873 -9.42215 -9.42215
-0.311069 -9.47255 -9.47255
-0.397348 -9.52144 -9.52144
-0.399931 -9.62251 -9.62251
-0.229404 -9.62571 -9.62571
-0.227202 -9.52462 -9.52462
-0.39864 -9.57194 -9.57194
-0.314659 -9.62409 -9.62409
-0.228303 -9.57514 -9.57514
-0.312266 -9.523 -9.523
-0.313463 -9.57352 -9.57352
-0.399931 -9.62251 -9.62251
-0.40251 -9.7238 -9.7238
-0.231611 -9.72703 -9.72703
-0.229404 -9.62571 -9.62571
-0.401221 -9.67313 -9.67313
-0.317052 -9.72539 -9.72539
-0.230507 -9.67634 -9.67634
-0.314659 -9.62409 -9.62409
-0.315856 -9.67471 -9.67471
-0.40251 -9.7238 -9.7238
-0.405084 -9.82532 -9.82532
-0.233822 -9.82856 -9.82856
-0.231611 -9.72703 -9.72703
-0.403798 -9.77453 -9.77453
-0.319445 -9.82692 -9.82692
-0.232716 -9.77777 -9.77777
-0.317052 -9.72539 -9.72539
-0.318249 -9.77613 -9.77613
-0.405084 -9.82532 -9.82532
-0.407653 -9.92704 -9.92704
-0.236037 -9.93031 -9.93031
-0.233822 -9.82856 -9.82856
-0.406369 -9.87615 -9.87615
-0.321837 -9.92865 -9.92865
-0.234929 -9.87941 -9.87941
-0.319445 -9.82692 -9.82692
-0.320641 -9.87776 -9.87776
-0.407653 -9.92704 -9.92704
-0.410216 -10.029 -10.029
-0.238256 -10.0323 -10.0323
-0.236037 -9.93031 -9.93031
-0.408935 -9.97798 -9.97798
-0.324227 -10.0306 -10.0306
-0.237146 -9.98126 -9.98126
-0.321837 -9.92865 -9.92865
-0.323032 -9.9796 -9.9796
-0.410216 -10.029 -10.029
-0.412773 -10.1311 -10.1311
-0.240478 -10.1344 -10.1344
-0.238256 -10.0323 -10.0323
-0.411495 -10.08 -10.08
-0.326617 -10.1327 -10.1327
-0.239367 -10.0833 -10.0833
-0.324227 -10.0306 -10.0306
-0.325422 -10.0816 -10.0816
-0.412773 -10.1311 -10.1311
-0.415324 -10.2334 -10.2334
-0.242704 -10.2368 -10.2368
-0.240478 -10.1344 -10.1344
-0.414049 -10.1823 -10.1823
-0.329006 -10.2351 -10.2351
-0.241591 -10.1856 -10.1856
-0.326617 -10.1327 -10.1327
-0.327812 -10.1839 -10.1839
-0.415324 -10.2334 -10.2334
-0.41787 -10.336 -10.336
-0.244932 -10.3393 -10.3393
-0.242704 -10.2368 -10.2368
-0.416598 -10.2847 -10.2847
-0.331393 -10.3376 -10.3376
-0.243818 -10.288 -10.288
-0.329006 -10.2351 -10.2351
-0.330199 -10.2863 -10.2863
-0.41787 -10.336 -10.336
-0.420409 -10.4387 -10.4387
-0.247164 -10.442 -10.442
-0.244932 -10.3393 -10.3393
-0.41914 -10.3873 -10.3873
-0.333778 -10.4403 -10.4403
-0.246048 -10.3906 -10.3906
-0.331393 -10.3376 -10.3376
-0.332585 -10.3889 -10.3889
-0.420409 -10.4387 -10.4387
-0.422941 -10.5416 -10.5416
-0.249398 -10.5449 -10.5449
-0.247164 -10.442 -10.442
-0.421676 -10.4901 -10.4901
-0.336161 -10.5432 -10.5432
-0.24828 -10.4935 -10.4935
-0.333778 -10.4403 -10.4403
-0.33497 -10.4918 -10.4918
-0.422941 -10.5416 -10.5416
-0.425467 -10.6446 -10.6446
-0.251634 -10.648 -10.648
-0.249398 -10.5449 -10.5449
-0.424205 -10.5931 -10.5931
-0.338542 -10.6463 -10.6463
-0.250516 -10.5964 -10.5964
-0.336161 -10.5432 -10.5432
-0.337352 -10.5947 -10.5947
-0.425467 -10.6446 -10.6446
-0.427986 -10.7479 -10.7479
-0.253873 -10.7513 -10.7513
-0.251634 -10.648 -10.648
-0.426727 -10.6962 -10.6962
-0.340921 -10.7495 -10.7495
-0.252753 -10.6996 -10.6996
-0.338542 -10.6463 -10.6463
-0.339732 -10.6979 -10.6979
-0.427986 -10.7479 -10.7479
-0.430497 -10.8513 -10.8513
-0.256114 -10.8547 -10.8547
-0.253873 -10.7513 -10.7513
-0.429242 -10.7995 -10.7995
-0.343297 -10.8529 -10.8529
-0.254993 -10.8029 -10.8029
-0.340921 -10.7495 -10.7495
-0.34211 -10.8012 -10.8012
-0.430497 -10.8513 -10.8513
-0.433002 -10.9548 -10.9548
-0.258356 -10.9582 -10.9582
-0.256114 -10.8547 -10.8547
-0.43175 -10.903 -10.903
-0.345671 -10.9565 -10.9565
-0.257235 -10.9064 -10.9064
-0.343297 -10.8529 -10.8529
-0.344484 -10.9047 -10.9047
-0.433002 -10.9548 -10.9548
-0.435498 -11.0585 -11.0585
-0.260601 -11.062 -11.062
-0.258356 -10.9582 -10.9582
-0.434251 -11.0066 -11.0066
-0.348041 -11.0602 -11.0602
-0.259478 -11.0101 -11.0101
-0.345671 -10.9565 -10.9565
-0.346856 -11.0083 -11.0083
-0.435498 -11.0585 -11.0585
-0.437987 -11.1624 -11.1624
-0.262846 -11.1658 -11.1658
-0.260601 -11.062 -11.062
-0.436744 -11.1104 -11.1104
-0.350409 -11.1641 -11.1641
-0.261723 -11.1139 -11.1139
-0.348041 -11.0602 -11.0602
-0.349225 -11.1121 -11.1121
-0.437987 -11.1624 -11.1624
-0.440468 -11.2664 -11.2664
-0.265093 -11.2698 -11.2698
-0.262846 -11.1658 -11.1658
-0.439229 -11.2143 -11.2143
-0.352773 -11.2681 -11.2681
-0.26397 -11.2178 -11.2178
-0.350409 -11.1641 -11.1641
-0.351591 -11.2161 -11.2161
-0.440468 -11.2664 -11.2664
-0.442941 -11.3705 -11.3705
-0.267341 -11.374 -11.374
-0.265093 -11.2698 -11.2698
-0.441706 -11.3184 -11.3184
-0.355133 -11.3722 -11.3722
-0.266217 -11.3219 -11.3219
-0.352773 -11.2681 -11.2681
-0.353953 -11.3201 -11.3201
-0.442941 -11.3705 -11.3705
-0.445405 -11.4748 -11.4748
-0.26959 -11.4783 -11.4783
-0.267341 -11.374 -11.374
-0.444174 -11.4226 -11.4226
-0.357489 -11.4765 -11.4765
-0.268465 -11.4261 -11.4261
-0.355133 -11.3722 -11.3722
-0.356312 -11.4243 -11.4243
-0.445405 -11.4748 -11.4748
-0.447861 -11.5792 -11.5792
-0.271839 -11.5827 -11.5827
-0.26959 -11.4783 -11.4783
-0.446634 -11.5269 -11.5269
-0.359842 -11.5809 -11.5809
-0.270714 -11.5305 -11.5305
-0.357489 -11.4765 -11.4765
-0.358666 -11.5287 -11.5287
-0.447861 -11.5792 -11.5792
-0.450308 -11.6837 -11.6837
-0.274089 -11.6872 -11.6872
-0.271839 -11.5827 -11.5827
-0.449086 -11.6314 -11.6314
-0.36219 -11.6854 -11.6854
-0.272964 -11.6349 -11.6349
-0.359842 -11.5809 -11.5809
-0.361017 -11.6331 -11.6331
-0.450308 -11.6837 -11.6837
-0.452746 -11.7883 -11.7883
-0.276338 -11.7918 -11.7918
-0.274089 -11.6872 -11.6872
-0.451528 -11.736 -11.736
-0.364534 -11.79 -11.79
-0.275213 -11.7395 -11.7395
-0.36219 -11.6854 -11.6854
-0.363363 -11.7377 -11.7377
-0.452746 -11.7883 -11.7883
-0.455174 -11.893 -11.893
-0.278588 -11.8966 -11.8966
-0.276338 -11.7918 -11.7918
-0.453961 -11.8406 -11.8406
-0.366873 -11.8948 -11.8948
-0.277463 -11.8442 -11.8442
-0.364534 -11.79 -11.79
-0.365704 -11.8424 -11.8424
-0.455174 -11.893 -11.893
-0.457593 -11.9979 -11.9979
-0.280837 -12.0014 -12.0014
-0.278588 -11.8966 -11.8966
-0.456385 -11.9454 -11.9454
-0.369207 -11.9996 -11.9996
-0.279712 -11.949 -11.949
-0.366873 -11.8948 -11.8948
-0.368041 -11.9472 -11.9472
-0.457593 -11.9979 -11.9979
-0.460002 -12.1028 -12.1028
-0.283085 -12.1064 -12.1064
-0.280837 -12.0014 -12.0014
-0.458799 -12.0503 -12.0503
-0.371536 -12.1046 -12.1046
-0.281961 -12.0539 -12.0539
-0.369207 -11.9996 -11.9996
-0.370372 -12.0521 -12.0521
-0.460002 -12.1028 -12.1028
-0.462401 -12.2078 -12.2078
-0.285333 -12.2114 -12.2114
-0.283085 -12.1064 -12.1064
-0.461203 -12.1553 -12.1553
-0.373859 -12.2096 -12.2096
-0.284209 -12.1589 -12.1589
-0.371536 -12.1046 -12.1046
-0.372698 -12.1571 -12.1571
-0.462401 -12.2078 -12.2078
-0.46479 -12.3129 -12.3129
-0.28758 -12.3165 -12.3165
-0.285333 -12.2114 -12.2114
-0.463597 -12.2604 -12.2604
-0.376177 -12.3147 -12.3147
-0.286457 -12.264 -12.264
-0.373859 -12.2096 -12.2096
-0.375019 -12.2622 -12.2622
-0.46479 -12.3129 -12.3129
-0.467169 -12.4181 -12.4181
-0.289826 -12.4217 -12.4217
-0.28758 -12.3165 -12.3165
-0.465981 -12.3655 -12.3655
-0.37849 -12.4199 -12.4199
-0.288703 -12.3691 -12.3691
-0.376177 -12.3147 -12.3147
-0.377334 -12.3673 -12.3673
-0.467169 -12.4181 -12.4181
-0.469537 -12.5234 -12.5234
-0.29207 -12.527 -12.527
-0.289826 -12.4217 -12.4217
-0.468354 -12.4708 -12.4708
-0.380796 -12.5252 -12.5252
-0.290948 -12.4744 -12.4744
-0.37849 -12.4199 -12.4199
-0.379643 -12.4726 -12.4726
-0.469537 -12.5234 -12.5234
-0.471894 -12.6288 -12.6288
-0.294312 -12.6324 -12.6324
-0.29207 -12.527 -12.527
-0.470717 -12.5761 -12.5761
-0.383096 -12.6306 -12.6306
-0.293191 -12.5797 -12.5797
-0.380796 -12.5252 -12.5252
-0.381946 -12.5779 -12.5779
-0.471894 -12.6288 -12.6288
-0.47424 -12.7342 -12.7342
-0.296553 -12.7378 -12.7378
-0.294312 -12.6324 -12.6324
-0.473069 -12.6815 -12.6815
-0.385389 -12.736 -12.736
-0.295433 -12.6851 -12.6851
-0.383096 -12.6306 -12.6306
-0.384243 -12.6833 -12.6833
-0.47424 -12.7342 -12.7342
-0.476575 -12.8397 -12.8397
-0.298792 -12.8433 -12.8433
-0.296553 -12.7378 -12.7378
-0.475409 -12.7869 -12.7869
-0.387675 -12.8415 -12.8415
-0.297673 -12.7905 -12.7905
-0.385389 -12.736 -12.736
-0.386533 -12.7887 -12.7887
-0.476575 -12.8397 -12.8397
-0.478897 -12.9452 -12.9452
-0.301028 -12.9488 -12.9488
-0.298792 -12.8433 -12.8433
-0.477738 -12.8924 -12.8924
-0.389955 -12.947 -12.947
-0.29991 -12.8961 -12.8961
-0.387675 -12.8415 -12.8415
-0.388816 -12.8942 -12.8942
-0.478897 -12.9452 -12.9452
-0.481208 -13.0508 -13.0508
-0.303261 -13.0544 -13.0544
-0.301028 -12.9488 -12.9488
-0.480054 -12.998 -12.998
-0.392226 -13.0526 -13.0526
-0.302144 -13.0016 -13.0016
-0.389955 -12.947 -12.947
-0.391091 -12.9998 -12.9998
-0.481208 -13.0508 -13.0508
-0.483505 -13.1564 -13.1564
-0.30549 -13.1601 -13.1601
-0.303261 -13.0544 -13.0544
-0.482358 -13.1036 -13.1036
-0.394489 -13.1582 -13.1582
-0.304376 -13.1072 -13.1072
-0.392226 -13.0526 -13.0526
-0.393359 -13.1054 -13.1054
-0.483505 -13.1564 -13.1564
-0.485788 -13.262 -13.262
-0.307716 -13.2657 -13.2657
-0.30549 -13.1601 -13.1601
-0.484648 -13.2092 -13.2092
-0.396743 -13.2639 -13.2639
-0.306604 -13.2129 -13.2129
-0.394489 -13.1582 -13.1582
-0.395617 -13.211 -13.211
-0.485788 -13.262 -13.262
-0.488055 -13.3677 -13.3677
-0.309937 -13.3714 -13.3714
-0.307716 -13.2657 -13.2657
-0.486923 -13.3149 -13.3149
-0.398986 -13.3696 -13.3696
-0.308827 -13.3186 -13.3186
-0.396743 -13.2639 -13.2639
-0.397866 -13.3167 -13.3167
-0.488055 -13.3677 -13.3677
-0.490305 -13.4735 -13.4735
-0.312154 -13.4772 -13.4772
-0.309937 -13.3714 -13.3714
-0.489182 -13.4206 -13.4206
-0.401218 -13.4753 -13.4753
-0.311046 -13.4243 -13.4243
-0.398986 -13.3696 -13.3696
-0.400103 -13.4225 -13.4225
-0.490305 -13.4735 -13.4735
-0.492538 -13.5792 -13.5792
-0.314365 -13.5829 -13.5829
-0.312154 -13.4772 -13.4772
-0.491423 -13.5263 -13.5263
-0.403439 -13.5811 -13.5811
-0.31326 -13.53 -13.53
-0.401218 -13.4753 -13.4753
-0.402329 -13.5282 -13.5282
-0.492538 -13.5792 -13.5792
-0.494756 -13.685 -13.685
-0.316573 -13.6887 -13.6887
-0.314365 -13.5829 -13.5829
-0.493648 -13.6321 -13.6321
-0.405652 -13.6868 -13.6868
-0.315469 -13.6358 -13.6358
-0.403439 -13.5811 -13.5811
-0.404546 -13.634 -13.634
-0.494756 -13.685 -13.685
-0.496972 -13.7908 -13.7908
-0.31878 -13.7944 -13.7944
-0.316573 -13.6887 -13.6887
-0.495864 -13.7379 -13.7379
-0.407865 -13.7926 -13.7926
-0.317676 -13.7415 -13.7415
-0.405652 -13.6868 -13.6868
-0.406759 -13.7397 -13.7397
-0.496972 -13.7908 -13.7908
-0.499197 -13.8965 -13.8965
-0.320988 -13.9001 -13.9001
-0.31878 -13.7944 -13.7944
-0.498083 -13.8436 -13.8436
-0.41008 -13.8983 -13.8983
-0.319884 -13.8473 -13.8473
-0.407865 -13.7926 -13.7926
-0.408972 -13.8454 -13.8454
0 0 0
-0.00079592 0.000129164 0.000129164
0.000781162 0.000126149 0.000126149
0 0 0
-0.000396293 0.000258425 0.000258425
-7.4126e-06 0.000174586 0.000174586
0.000388699 0.000256732 0.000256732
0 0 0
-3.83208e-06 0.000277497 0.000277497
-0.00079592 0.000129164 0.000129164
-0.00165683 -0.00121053 -0.00121053
0.00162791 -0.00121625 -0.00121625
0.000781162 0.000126149 0.000126149
-0.0012184 -0.000368731 -0.000368731
-1.44809e-05 -0.0011361 -0.0011361
0.0011966 -0.000373063 -0.000373063
-7.4126e-06 0.000174586 0.000174586
-1.09313e-05 -0.000305804 -0.000305804
-0.00165683 -0.00121053 -0.00121053
-0.00254886 -0.00383855 -0.00383855
0.00250479 -0.00384736 -0.00384736
0.00162791 -0.00121625 -0.00121625
-0.00210039 -0.00237224 -0.00237224
-2.19722e-05 -0.0037431 -0.0037431
0.00206408 -0.00237946 -0.00237946
-1.44809e-05 -0.0011361 -0.0011361
-1.8133e-05 -0.00228653 -0.00228653
-0.00254886 -0.00383855 -0.00383855
-0.00346106 -0.00763745 -0.00763745
0.00339978 -0.00764983 -0.00764983
0.00250479 -0.00384736 -0.00384736
-0.00300356 -0.00559694 -0.00559694
-3.05092e-05 -0.0075331 -0.0075331
0.0029512 -0.00560747 -0.00560747
-2.19722e-05 -0.0037431 -0.0037431
-2.60794e-05 -0.00549561 -0.00549561
-0.00346106 -0.00763745 -0.00763745
-0.00437326 -0.0125347 -0.0125347
0.00429179 -0.0125511 -0.0125511
0.00339978 -0.00764983 -0.00764983
-0.00391768 -0.00995166 -0.00995166
-4.055e-05 -0.0124282 -0.0124282
0.00384674 -0.00996601 -0.00996601
-3.05092e-05 -0.0075331 -0.0075331
-3.53122e-05 -0.00984565 -0.00984565
-0.00437326 -0.0125347 -0.0125347
-0.00528195 -0.0184932 -0.0184932
0.00517632 -0.0185142 -0.0185142
0.00429179 -0.0125511 -0.0125511
-0.00482826 -0.0153827 -0.0153827
-5.25781e-05 -0.018389 -0.018389
0.00473526 -0.0154014 -0.0154014
-4.055e-05 -0.0124282 -0.0124282
-4.62859e-05 -0.015277 -0.015277
-0.00528195 -0.0184932 -0.0184932
-0.00618354 -0.0254935 -0.0254935
0.00604884 -0.0255195 -0.0255195
0.00517632 -0.0185142 -0.0185142
-0.0057336 -0.0218638 -0.0218638
-6.70645e-05 -0.025393 -0.025393
0.00561411 -0.0218873 -0.0218873
-5.25781e-05 -0.018389 -0.018389
-5.94844e-05 -0.0217614 -0.0217614
-0.00618354 -0.0254935 -0.0254935
-0.00707981 -0.033526 -0.033526
0.00691017 -0.0335576 -0.0335576
0.00604884 -0.0255195 -0.0255195
-0.00663226 -0.0293811 -0.0293811
-8.44811e-05 -0.0334298 -0.0334298
0.00648087 -0.0294099 -0.0294099
-6.70645e-05 -0.025393 -0.025393
-7.5378e-05 -0.0292827 -0.0292827
-0.00707981 -0.033526 -0.033526
-0.00797177 -0.0425845 -0.0425845
0.00776043 -0.0426222 -0.0426222
0.00691017 -0.0335576 -0.0335576
-0.00752623 -0.0379273 -0.0379273
-0.000105274 -0.0424926 -0.0424926
0.00733664 -0.0379619 -0.0379619
-8.44811e-05 -0.0334298 -0.0334298
-9.44287e-05 -0.0378333 -0.0378333
-0.00797177 -0.0425845 -0.0425845
-0.00886112 -0.0526643 -0.0526643
0.00860049 -0.0527086 -0.0527086
0.00776043 -0.0426222 -0.0426222
-0.00841669 -0.047497 -0.047497
-0.000129869 -0.0525768 -0.0525768
0.0081817 -0.047538 -0.047538
-0.000105274 -0.0424926 -0.0424926
-0.000117071 -0.0474074 -0.0474074
-0.00886112 -0.0526643 -0.0526643
-0.00974891 -0.0637606 -0.0637606
0.00943057 -0.0638122 -0.0638122
0.00860049 -0.0527086 -0.0527086
-0.00930515 -0.0580856 -0.0580856
-0.000158669 -0.0636776 -0.0636776
0.00901676 -0.0581335 -0.0581335
-0.000129869 -0.0525768 -0.0525768
-0.000143719 -0.0580004 -0.0580004
-0.00974891 -0.0637606 -0.0637606
-0.0106361 -0.0758687 -0.0758687
0.0102509 -0.0759281 -0.0759281
0.00943057 -0.0638122 -0.0638122
-0.0101925 -0.0696885 -0.0696885
-0.000192061 -0.0757904 -0.0757904
0.00984194 -0.0697439 -0.0697439
-0.000158669 -0.0636776 -0.0636776
-0.000174767 -0.0696079 -0.0696079
-0.0106361 -0.0758687 -0.0758687
-0.0115233 -0.0889835 -0.0889835
0.0110612 -0.0890515 -0.0890515
0.0102509 -0.0759281 -0.0759281
-0.0110796 -0.0823006 -0.0823006
-0.000230418 -0.0889102 -0.0889102
0.0106573 -0.0823642 -0.0823642
-0.000192061 -0.0757904 -0.0757904
-0.000210596 -0.0822248 -0.0822248
-0.0115233 -0.0889835 -0.0889835
-0.012411 -0.1031 -0.1031
0.0118615 -0.103177 -0.103177
0.0110612 -0.0890515 -0.0890515
-0.011967 -0.0959169 -0.0959169
-0.000274107 -0.103032 -0.103032
0.0114627 -0.0959893 -0.0959893
-0.000230418 -0.0889102 -0.0889102
-0.000251574 -0.0958462 -0.0958462
-0.012411 -0.1031 -0.1031
-0.0132998 -0.118213 -0.118213
0.0126515 -0.1183 -0.1183
0.0118615 -0.103177 -0.103177
-0.0128553 -0.110532 -0.110532
-0.000323484 -0.11815 -0.11815
0.0122578 -0.110614 -0.110614
-0.000274107 -0.103032 -0.103032
-0.000298063 -0.110467 -0.110467
-0.0132998 -0.118213 -0.118213
-0.01419 -0.134317 -0.134317
0.0134307 -0.134414 -0.134414
0.0126515 -0.1183 -0.1183
-0.0137447 -0.126141 -0.126141
-0.000378902 -0.13426 -0.13426
0.0130424 -0.126233 -0.126233
-0.000323484 -0.11815 -0.11815
-0.000350417 -0.126081 -0.126081
-0.01419 -0.134317 -0.134317
-0.0150819 -0.151406 -0.151406
0.0141989 -0.151514 -0.151514
0.0134307 -0.134414 -0.134414
-0.0146357 -0.142738 -0.142738
-0.000440706 -0.151355 -0.151355
0.0138162 -0.142841 -0.142841
-0.000378902 -0.13426 -0.13426
-0.000408984 -0.142685 -0.142685
-0.0150819 -0.151406 -0.151406
-0.0159759 -0.169476 -0.169476
0.0149559 -0.169595 -0.169595
0.0141989 -0.151514 -0.151514
-0.0155286 -0.160319 -0.160319
-0.000509236 -0.169431 -0.169431
0.0145788 -0.160432 -0.160432
-0.000440706 -0.151355 -0.151355
-0.000474109 -0.160271 -0.160271
-0.0159759 -0.169476 -0.169476
-0.0168724 -0.18852 -0.18852
0.0157011 -0.188651 -0.188651
0.0149559 -0.169595 -0.169595
-0.0164239 -0.178876 -0.178876
-0.000584827 -0.188482 -0.188482
0.01533 -0.179002 -0.179002
-0.000509236 -0.169431 -0.169431
-0.000546128 -0.178835 -0.178835
-0.0168724 -0.18852 -0.18852
-0.0177717 -0.208533 -0.208533
0.0164344 -0.208678 -0.208678
0.0157011 -0.188651 -0.188651
-0.0173217 -0.198406 -0.198406
-0.000667811 -0.208502 -0.208502
0.0160693 -0.198544 -0.198544
-0.000584827 -0.188482 -0.188482
-0.000625375 -0.198371 -0.198371
-0.0177717 -0.208533 -0.208533
-0.0186742 -0.229511 -0.229511
0.0171553 -0.229668 -0.229668
0.0164344 -0.208678 -0.208678
-0.0182225 -0.218902 -0.218902
-0.00075851 -0.229487 -0.229487
0.0167964 -0.219053 -0.219053
-0.000667811 -0.208502 -0.208502
-0.000712176 -0.218874 -0.218874
-0.0186742 -0.229511 -0.229511
-0.01958 -0.251446 -0.251446
0.0178636 -0.251618 -0.251618
0.0171553 -0.229668 -0.229668
-0.0191266 -0.240359 -0.240359
-0.000857243 -0.25143 -0.25143
0.0175111 -0.240523 -0.240523
-0.00075851 -0.229487 -0.229487
-0.000806852 -0.240339 -0.240339
-0.01958 -0.251446 -0.251446
-0.0204896 -0.274335 -0.274335
0.018559 -0.274521 -0.274521
0.0178636 -0.251618 -0.251618
-0.0200343 -0.262772 -0.262772
-0.000964323 -0.274326 -0.274326
0.0182129 -0.26295 -0.26295
-0.000857243 -0.25143 -0.25143
-0.00090972 -0.262759 -0.262759
-0.0204896 -0.274335 -0.274335
-0.0214032 -0.298171 -0.298171
0.0192411 -0.298371 -0.298371
0.018559 -0.274521 -0.274521
-0.0209459 -0.286135 -0.286135
-0.00108006 -0.298171 -0.298171
0.0189017 -0.286328 -0.286328
-0.000964323 -0.274326 -0.274326
-0.00102109 -0.28613 -0.28613
-0.0214032 -0.298171 -0.298171
-0.0223212 -0.322949 -0.322949
0.0199096 -0.323165 -0.323165
0.0192411 -0.298371 -0.298371
-0.0218616 -0.310443 -0.310443
-0.00120474 -0.322957 -0.322957
0.0195771 -0.310651 -0.310651
-0.00108006 -0.298171 -0.298171
-0.00114126 -0.310446 -0.310446
-0.0223212 -0.322949 -0.322949
-0.0232438 -0.348664 -0.348664
0.0205643 -0.348896 -0.348896
0.0199096 -0.323165 -0.323165
-0.0227819 -0.33569 -0.33569
-0.00133868 -0.34868 -0.34868
0.0202387 -0.335913 -0.335913
-0.00120474 -0.322957 -0.322957
-0.00127054 -0.335702 -0.335702
-0.0232438 -0.348664 -0.348664
-0.0241714 -0.37531 -0.37531
0.0212049 -0.375558 -0.375558
0.0205643 -0.348896 -0.348896
-0.023707 -0.361871 -0.361871
-0.00148216 -0.375335 -0.375335
0.0208864 -0.362111 -0.362111
-0.00133868 -0.34868 -0.34868
-0.00140921 -0.361892 -0.361892
-0.0241714 -0.37531 -0.37531
-0.0251042 -0.402882 -0.402882
0.021831 -0.403146 -0.403146
0.0212049 -0.375558 -0.375558
-0.0246371 -0.388981 -0.388981
-0.00163546 -0.402916 -0.402916
0.0215198 -0.389236 -0.389236
-0.00148216 -0.375335 -0.375335
-0.00155756 -0.38901 -0.38901
-0.0251042 -0.402882 -0.402882
-0.0260424 -0.431374 -0.431374
0.0224424 -0.431655 -0.431655
0.021831 -0.403146 -0.403146
-0.0255726 -0.417013 -0.417013
-0.00179885 -0.431417 -0.431417
0.0221386 -0.417286 -0.417286
-0.00163546 -0.402916 -0.402916
-0.00171587 -0.417051 -0.417051
-0.0260424 -0.431374 -0.431374
-0.0269865 -0.46078 -0.46078
0.0230389 -0.461079 -0.461079
0.0224424 -0.431655 -0.431655
-0.0265137 -0.445963 -0.445963
-0.00197262 -0.460833 -0.460833
0.0227425 -0.446253 -0.446253
-0.00179885 -0.431417 -0.431417
-0.00188442 -0.446011 -0.446011
-0.0269865 -0.46078 -0.46078
-0.0279365 -0.491096 -0.491096
0.0236201 -0.491414 -0.491414
0.0230389 -0.461079 -0.461079
-0.0274607 -0.475825 -0.475825
-0.00215702 -0.491158 -0.491158
0.0233314 -0.476133 -0.476133
-0.00197262 -0.460833 -0.460833
-0.00206347 -0.475882 -0.475882
-0.0279365 -0.491096 -0.491096
-0.0288929 -0.522316 -0.522316
0.0241858 -0.522652 -0.522652
0.0236201 -0.491414 -0.491414
-0.0284139 -0.506594 -0.506594
-0.00235231 -0.522388 -0.522388
0.0239049 -0.50692 -0.50692
-0.00215702 -0.491158 -0.491158
-0.00225329 -0.506661 -0.506661
-0.0288929 -0.522316 -0.522316
-0.0298558 -0.554435 -0.554435
0.0247358 -0.554789 -0.554789
0.0241858 -0.522652 -0.522652
-0.0293735 -0.538264 -0.538264
-0.00255875 -0.554517 -0.554517
0.0244628 -0.538609 -0.538609
-0.00235231 -0.522388 -0.522388
-0.00245412 -0.53834 -0.53834
-0.0298558 -0.554435 -0.554435
-0.0308255 -0.587446 -0.587446
0.0252697 -0.58782 -0.58782
0.0247358 -0.554789 -0.554789
-0.0303398 -0.570829 -0.570829
-0.00277659 -0.587538 -0.587538
0.0250048 -0.571193 -0.571193
-0.00255875 -0.554517 -0.554517
-0.00266623 -0.570916 -0.570916
-0.0308255 -0.587446 -0.587446
-0.0318022 -0.621345 -0.621345
0.0257875 -0.621739 -0.621739
0.0252697 -0.58782 -0.58782
-0.031313 -0.604285 -0.604285
-0.00300606 -0.621448 -0.621448
0.0255306 -0.604669 -0.604669
-0.00277659 -0.587538 -0.587538
-0.00288986 -0.604382 -0.604382
-0.0318022 -0.621345 -0.621345
-0.0327862 -0.656126 -0.656126
0.0262887 -0.65654 -0.65654
0.0257875 -0.621739 -0.621739
-0.0322933 -0.638626 -0.638626
-0.00324741 -0.656239 -0.656239
0.0260402 -0.63903 -0.63903
-0.00300606 -0.621448 -0.621448
-0.00312524 -0.638734 -0.638734
-0.0327862 -0.656126 -0.656126
-0.0337777 -0.691784 -0.691784
0.0267732 -0.692218 -0.692218
0.0262887 -0.65654 -0.65654
-0.033281 -0.673846 -0.673846
-0.00350087 -0.691908 -0.691908
0.0265331 -0.67427 -0.67427
-0.00324741 -0.656239 -0.656239
-0.00337261 -0.673965 -0.673965
-0.0337777 -0.691784 -0.691784
-0.0347769 -0.728313 -0.728313
0.0272409 -0.728768 -0.728768
0.0267732 -0.692218 -0.692218
-0.0342763 -0.70994 -0.70994
-0.00376665 -0.728448 -0.728448
0.0270092 -0.710385 -0.710385
-0.00350087 -0.691908 -0.691908
-0.0036322 -0.710069 -0.710069
-0.0347769 -0.728313 -0.728313
-0.0357841 -0.765708 -0.765708
0.0276913 -0.766184 -0.766184
0.0272409 -0.728768 -0.728768
-0.0352795 -0.746903 -0.746903
-0.00404498 -0.765854 -0.765854
0.0274682 -0.747368 -0.747368
-0.00376665 -0.728448 -0.728448
-0.00390423 -0.747043 -0.747043
-0.0357841 -0.765708 -0.765708
-0.0367994 -0.803963 -0.803963
0.0281244 -0.804461 -0.804461
0.0276913 -0.766184 -0.766184
-0.0362907 -0.784728 -0.784728
-0.00433607 -0.80412 -0.80412
0.02791 -0.785215 -0.785215
-0.00404498 -0.765854 -0.765854
-0.00418892 -0.78488 -0.78488
-0.0367994 -0.803963 -0.803963
-0.0378231 -0.843073 -0.843073
0.0285399 -0.843593 -0.843593
0.0281244 -0.804461 -0.804461
-0.0373102 -0.823411 -0.823411
-0.00464014 -0.843242 -0.843242
0.0283344 -0.82392 -0.82392
-0.00433607 -0.80412 -0.80412
-0.00448647 -0.823575 -0.823575
-0.0378231 -0.843073 -0.843073
-0.0388553 -0.883032 -0.883032
0.0289377 -0.883575 -0.883575
0.0285399 -0.843593 -0.843593
-0.0383381 -0.862947 -0.862947
-0.00495737 -0.883213 -0.883213
0.028741 -0.863478 -0.863478
-0.00464014 -0.843242 -0.843242
-0.00479709 -0.863122 -0.863122
-0.0388553 -0.883032 -0.883032
-0.0398964 -0.923835 -0.923835
0.0293174 -0.924401 -0.924401
0.0289377 -0.883575 -0.883575
-0.0393747 -0.903329 -0.903329
-0.00528798 -0.924028 -0.924028
0.0291298 -0.903882 -0.903882
-0.00495737 -0.883213 -0.883213
-0.00512099 -0.903516 -0.903516
-0.0398964 -0.923835 -0.923835
-0.0409463 -0.965477 -0.965477
0.029679 -0.966065 -0.966065
0.0293174 -0.924401 -0.924401
-0.0404202 -0.944552 -0.944552
-0.00563215 -0.965682 -0.965682
0.0295005 -0.945128 -0.945128
-0.00528798 -0.924028 -0.924028
-0.00545836 -0.944751 -0.944751
-0.0409463 -0.965477 -0.965477
-0.0420055 -1.00795 -1.00795
0.0300223 -1.00856 -1.00856
0.029679 -0.966065 -0.966065
-0.0414747 -0.986611 -0.986611
-0.00599006 -1.00817 -1.00817
0.0298529 -0.987211 -0.987211
-0.00563215 -0.965682 -0.965682
-0.00580938 -0.986822 -0.986822
-0.0420055 -1.00795 -1.00795
-0.0430739 -1.05125 -1.05125
0.030347 -1.05189 -1.05189
0.0300223 -1.00856 -1.00856
-0.0425385 -1.0295 -1.0295
-0.00636191 -1.05148 -1.05148
0.030187 -1.03012 -1.03012
-0.00599006 -1.00817 -1.00817
-0.00617424 -1.02972 -1.02972
-0.0430739 -1.05125 -1.05125
-0.0441518 -1.09538 -1.09538
0.030653 -1.09604 -1.09604
0.030347 -1.05189 -1.05189
-0.0436117 -1.07321 -1.07321
-0.00674786 -1.09562 -1.09562
0.0305023 -1.07386 -1.07386
-0.00636191 -1.05148 -1.05148
-0.00655311 -1.07345 -1.07345
-0.0441518 -1.09538 -1.09538
-0.0452395 -1.14032 -1.14032
0.0309401 -1.141 -1.141
0.030653 -1.09604 -1.09604
-0.0446944 -1.11775 -1.11775
-0.00714809 -1.14058 -1.14058
0.0307989 -1.11842 -1.11842
-0.00674786 -1.09562 -1.09562
-0.00694618 -1.118 -1.118
-0.0452395 -1.14032 -1.14032
-0.0463369 -1.18607 -1.18607
0.0312082 -1.18678 -1.18678
0.0309401 -1.141 -1.141
-0.045787 -1.1631 -1.1631
-0.00756276 -1.18634 -1.18634
0.0310766 -1.16379 -1.16379
-0.00714809 -1.14058 -1.14058
-0.00735361 -1.16336 -1.16336
-0.0463369 -1.18607 -1.18607
-0.0474444 -1.23263 -1.23263
0.0314571 -1.23336 -1.23336
0.0312082 -1.18678 -1.18678
-0.0468894 -1.20925 -1.20925
-0.00799203 -1.23291 -1.23291
0.0313351 -1.20997 -1.20997
-0.00756276 -1.18634 -1.18634
-0.00777556 -1.20953 -1.20953
-0.0474444 -1.23263 -1.23263
-0.048562 -1.27999 -1.27999
0.0316866 -1.28075 -1.28075
0.0314571 -1.23336 -1.23336
-0.0480019 -1.25621 -1.25621
-0.00843605 -1.28028 -1.28028
0.0315743 -1.25696 -1.25696
-0.00799203 -1.23291 -1.23291
-0.00821219 -1.2565 -1.2565
-0.048562 -1.27999 -1.27999
-0.0496899 -1.32815 -1.32815
0.0318966 -1.32893 -1.32893
0.0316866 -1.28075 -1.28075
-0.0491246 -1.30397 -1.30397
-0.00889498 -1.32845 -1.32845
0.0317941 -1.30474 -1.30474
-0.00843605 -1.28028 -1.28028
-0.00866364 -1.30427 -1.30427
-0.0496899 -1.32815 -1.32815
-0.0508282 -1.37709 -1.37709
0.032087 -1.3779 -1.3779
0.0318966 -1.32893 -1.32893
-0.0502577 -1.35252 -1.35252
-0.00936896 -1.37741 -1.37741
0.0319943 -1.35331 -1.35331
-0.00889498 -1.32845 -1.32845
-0.00913008 -1.35283 -1.35283
-0.0508282 -1.37709 -1.37709
-0.0519772 -1.42682 -1.42682
0.0322576 -1.42765 -1.42765
0.032087 -1.3779 -1.3779
-0.0514014 -1.40185 -1.40185
-0.00985813 -1.42715 -1.42715
0.0321748 -1.40268 -1.40268
-0.00936896 -1.37741 -1.37741
-0.00961164 -1.40218 -1.40218
-0.0519772 -1.42682 -1.42682
-0.0531368 -1.47732 -1.47732
0.0324082 -1.47818 -1.47818
0.0322576 -1.42765 -1.42765
-0.0525556 -1.45197 -1.45197
-0.0103626 -1.47767 -1.47767
0.0323354 -1.45282 -1.45282
-0.00985813 -1.42715 -1.42715
-0.0101084 -1.45231 -1.45231
-0.0531368 -1.47732 -1.47732
-0.0543073 -1.5286 -1.5286
0.0325388 -1.52949 -1.52949
0.0324082 -1.47818 -1.47818
-0.0537207 -1.50287 -1.50287
-0.0108826 -1.52896 -1.52896
0.032476 -1.50374 -1.50374
-0.0103626 -1.47767 -1.47767
-0.0106206 -1.50322 -1.50322
-0.0543073 -1.5286 -1.5286
-0.0554888 -1.58065 -1.58065
0.0326492 -1.58156 -1.58156
0.0325388 -1.52949 -1.52949
-0.0548967 -1.55453 -1.55453
-0.0114181 -1.58102 -1.58102
0.0325965 -1.55543 -1.55543
-0.0108826 -1.52896 -1.52896
-0.0111484 -1.5549 -1.5549
-0.0554888 -1.58065 -1.58065
-0.0566813 -1.63346 -1.63346
0.0327393 -1.6344 -1.6344
0.0326492 -1.58156 -1.58156
-0.0560837 -1.60696 -1.60696
-0.0119693 -1.63385 -1.63385
0.0326968 -1.60788 -1.60788
-0.0114181 -1.58102 -1.58102
-0.0116917 -1.60734 -1.60734
-0.0566813 -1.63346 -1.63346
-0.0578851 -1.68702 -1.68702
0.032809 -1.68799 -1.68799
0.0327393 -1.6344 -1.6344
-0.0572818 -1.66015 -1.66015
-0.0125363 -1.68743 -1.68743
0.0327767 -1.6611 -1.6611
-0.0119693 -1.63385 -1.63385
-0.0122508 -1.66054 -1.66054
-0.0578851 -1.68702 -1.68702
-0.0591002 -1.74134 -1.74134
0.0328582 -1.74233 -1.74233
0.032809 -1.68799 -1.68799
-0.0584912 -1.71409 -1.71409
-0.0131193 -1.74176 -1.74176
0.0328362 -1.71507 -1.71507
-0.0125363 -1.68743 -1.68743
-0.0128258 -1.7145 -1.7145
-0.0591002 -1.74134 -1.74134
-0.0603267 -1.7964 -1.7964
0.0328868 -1.79742 -1.79742
0.0328582 -1.74233 -1.74233
-0.059712 -1.76878 -1.76878
-0.0137182 -1.79683 -1.79683
0.0328751 -1.76978 -1.76978
-0.0131193 -1.74176 -1.74176
-0.0134167 -1.7692 -1.7692
-0.0603267 -1.7964 -1.7964
-0.0615647 -1.85221 -1.85221
0.0328946 -1.85325 -1.85325
0.0328868 -1.79742 -1.79742
-0.0609443 -1.82421 -1.82421
-0.0143333 -1.85265 -1.85265
0.0328933 -1.82525 -1.82525
-0.0137182 -1.79683 -1.79683
-0.0140237 -1.82465 -1.82465
-0.0615647 -1.85221 -1.85221
-0.0628144 -1.90875 -1.90875
0.0328816 -1.90982 -1.90982
0.0328946 -1.85325 -1.85325
-0.0621881 -1.88038 -1.88038
-0.0149646 -1.9092 -1.9092
0.0328907 -1.88144 -1.88144
-0.0143333 -1.85265 -1.85265
-0.0146469 -1.88084 -1.88084
-0.0628144 -1.90875 -1.90875
-0.0640757 -1.96601 -1.96601
0.0328477 -1.96711 -1.96711
0.0328816 -1.90982 -1.90982
-0.0634436 -1.93729 -1.93729
-0.0156122 -1.96649 -1.96649
0.0328672 -1.93838 -1.93838
-0.0149646 -1.9092 -1.9092
-0.0152864 -1.93775 -1.93775
-0.0640757 -1.96601 -1.96601
-0.0653489 -2.02401 -2.02401
0.0327928 -2.02513 -2.02513
0.0328477 -1.96711 -1.96711
-0.0647108 -1.99492 -1.99492
-0.0162763 -2.02449 -2.02449
0.0328228 -1.99603 -1.99603
-0.0156122 -1.96649 -1.96649
-0.0159422 -1.9954 -1.9954
-0.0653489 -2.02401 -2.02401
-0.0666339 -2.08272 -2.08272
0.0327168 -2.08387 -2.08387
0.0327928 -2.02513 -2.02513
-0.0659899 -2.05327 -2.05327
-0.0169567 -2.08322 -2.08322
0.0327574 -2.05441 -2.05441
-0.0162763 -2.02449 -2.02449
-0.0166144 -2.05377 -2.05377
-0.0666339 -2.08272 -2.08272
-0.0679308 -2.14214 -2.14214
0.0326196 -2.14333 -2.14333
0.0327168 -2.08387 -2.08387
-0.0672809 -2.11234 -2.11234
-0.0176538 -2.14266 -2.14266
0.0326709 -2.11351 -2.11351
-0.0169567 -2.08322 -2.08322
-0.0173032 -2.11285 -2.11285
-0.0679308 -2.14214 -2.14214
-0.0692398 -2.20227 -2.20227
0.0325013 -2.20349 -2.20349
0.0326196 -2.14333 -2.14333
-0.0685838 -2.17212 -2.17212
-0.0183675 -2.2028 -2.2028
0.0325631 -2.17332 -2.17332
-0.0176538 -2.14266 -2.14266
-0.0180085 -2.17264 -2.17264
-0.0692398 -2.20227 -2.20227
-0.0705609 -2.26311 -2.26311
0.0323616 -2.26435 -2.26435
0.0325013 -2.20349 -2.20349
-0.0698989 -2.2326 -2.2326
-0.0190978 -2.26365 -2.26365
0.0324341 -2.23383 -2.23383
-0.0183675 -2.2028 -2.2028
-0.0187306 -2.23314 -2.23314
-0.0705609 -2.26311 -2.26311
-0.0718941 -2.32464 -2.32464
0.0322006 -2.32591 -2.32591
0.0323616 -2.26435 -2.26435
-0.071226 -2.29379 -2.29379
-0.0198449 -2.3252 -2.3252
0.0322838 -2.29504 -2.29504
-0.0190978 -2.26365 -2.26365
-0.0194693 -2.29434 -2.29434
-0.0718941 -2.32464 -2.32464
-0.0732396 -2.38686 -2.38686
0.0320182 -2.38816 -2.38816
0.0322006 -2.32591 -2.32591
-0.0725653 -2.35566 -2.35566
-0.0206089 -2.38744 -2.38744
0.0321121 -2.35695 -2.35695
-0.0198449 -2.3252 -2.3252
-0.0202248 -2.35623 -2.35623
-0.0732396 -2.38686 -2.38686
-0.0745973 -2.44977 -2.44977
0.0318143 -2.4511 -2.4511
0.0320182 -2.38816 -2.38816
-0.0739169 -2.41823 -2.41823
-0.0213897 -2.45036 -2.45036
0.0319189 -2.41954 -2.41954
-0.0206089 -2.38744 -2.38744
-0.0209972 -2.41881 -2.41881
-0.0745973 -2.44977 -2.44977
-0.0759673 -2.51336 -2.51336
0.0315888 -2.51471 -2.51471
0.0318143 -2.4511 -2.4511
-0.0752807 -2.48148 -2.48148
-0.0221874 -2.51396 -2.51396
0.0317042 -2.48282 -2.48282
-0.0213897 -2.45036 -2.45036
-0.0217864 -2.48208 -2.48208
-0.0759673 -2.51336 -2.51336
-0.0773496 -2.57762 -2.57762
0.0313419 -2.57901 -2.57901
0.0315888 -2.51471 -2.51471
-0.0766569 -2.54541 -2.54541
-0.023002 -2.57824 -2.57824
0.031468 -2.54678 -2.54678
-0.0221874 -2.51396 -2.51396
-0.0225926 -2.54602 -2.54602
-0.0773496 -2.57762 -2.57762
-0.0787444 -2.64256 -2.64256
0.0310733 -2.64397 -2.64397
0.0313419 -2.57901 -2.57901
-0.0780455 -2.61001 -2.61001
-0.0238337 -2.64319 -2.64319
0.0312103 -2.6114 -2.6114
-0.023002 -2.57824 -2.57824
-0.0234158 -2.61063 -2.61063
-0.0787444 -2.64256 -2.64256
-0.0801516 -2.70815 -2.70815
0.030783 -2.70959 -2.70959
0.0310733 -2.64397 -2.64397
-0.0794465 -2.67527 -2.67527
-0.0246824 -2.7088 -2.7088
0.0309309 -2.6767 -2.6767
-0.0238337 -2.64319 -2.64319
-0.0242559 -2.67592 -2.67592
-0.0801516 -2.70815 -2.70815
-0.0815713 -2.77441 -2.77441
0.0304711 -2.77588 -2.77588
0.030783 -2.70959 -2.70959
-0.0808599 -2.7412 -2.7412
-0.0255482 -2.77508 -2.77508
0.0306298 -2.74266 -2.74266
-0.0246824 -2.7088 -2.7088
-0.0251132 -2.74186 -2.74186
-0.0815713 -2.77441 -2.77441
-0.0830035 -2.84132 -2.84132
0.0301376 -2.84282 -2.84282
0.0304711 -2.77588 -2.77588
-0.0822858 -2.80779 -2.80779
-0.0264311 -2.842 -2.842
0.0303071 -2.80927 -2.80927
-0.0255482 -2.77508 -2.77508
-0.0259875 -2.80846 -2.80846
-0.0830035 -2.84132 -2.84132
-0.0844482 -2.90888 -2.90888
0.0297822 -2.91041 -2.91041
0.0301376 -2.84282 -2.84282
-0.0837242 -2.87502 -2.87502
-0.0273311 -2.90957 -2.90957
0.0299626 -2.87653 -2.87653
-0.0264311 -2.842 -2.842
-0.026879 -2.87571 -2.87571
-0.0844482 -2.90888 -2.90888
-0.0859054 -2.97708 -2.97708
0.0294052 -2.97864 -2.97864
0.0297822 -2.91041 -2.91041
-0.0851752 -2.9429 -2.9429
-0.0282482 -2.97779 -2.97779
0.0295964 -2.94444 -2.94444
-0.0273311 -2.90957 -2.90957
-0.0277875 -2.9436 -2.9436
-0.0859054 -2.97708 -2.97708
-0.0873752 -3.04592 -3.04592
0.0290064 -3.0475 -3.0475
0.0294052 -2.97864 -2.97864
-0.0866387 -3.01142 -3.01142
-0.0291825 -3.04664 -3.04664
0.0292085 -3.01299 -3.01299
-0.0282482 -2.97779 -2.97779
-0.0287132 -3.01214 -3.01214
-0.0873752 -3.04592 -3.04592
-0.0888575 -3.11539 -3.11539
0.0285858 -3.117 -3.117
0.0290064 -3.0475 -3.0475
-0.0881148 -3.08057 -3.08057
-0.030134 -3.11613 -3.11613
0.0287988 -3.08217 -3.08217
-0.0291825 -3.04664 -3.04664
-0.0296561 -3.0813 -3.0813
-0.0888575 -3.11539 -3.11539
-0.0903524 -3.18548 -3.18548
0.0281434 -3.18712 -3.18712
0.0285858 -3.117 -3.117
-0.0896034 -3.15035 -3.15035
-0.0311026 -3.18624 -3.18624
0.0283673 -3.15198 -3.15198
-0.030134 -3.11613 -3.11613
-0.0306162 -3.1511 -3.1511
-0.0903524 -3.18548 -3.18548
-0.0918599 -3.2562 -3.2562
0.0276793 -3.25787 -3.25787
0.0281434 -3.18712 -3.18712
-0.0911046 -3.22076 -3.22076
-0.0320885 -3.25697 -3.25697
0.0279141 -3.22242 -3.22242
-0.0311026 -3.18624 -3.18624
-0.0315934 -3.22152 -3.22152
-0.0918599 -3.2562 -3.2562
-0.09338 -3.32753 -3.32753
0.0271934 -3.32923 -3.32923
0.0276793 -3.25787 -3.25787
-0.0926184 -3.29178 -3.29178
-0.0330915 -3.32831 -3.32831
0.027439 -3.29347 -3.29347
-0.0320885 -3.25697 -3.25697
-0.0325878 -3.29256 -3.29256
-0.09338 -3.32753 -3.32753
-0.0949126 -3.39947 -3.39947
0.0266857 -3.4012 -3.4012
0.0271934 -3.32923 -3.32923
-0.0941447 -3.36342 -3.36342
-0.0341116 -3.40027 -3.40027
0.0269422 -3.36514 -3.36514
-0.0330915 -3.32831 -3.32831
-0.0335994 -3.36421 -3.36421
-0.0949126 -3.39947 -3.39947
-0.0964578 -3.47201 -3.47201
0.0261562 -3.47377 -3.47377
0.0266857 -3.4012 -3.4012
-0.0956837 -3.43566 -3.43566
-0.0351489 -3.47283 -3.47283
0.0264237 -3.43741 -3.43741
-0.0341116 -3.40027 -3.40027
-0.0346281 -3.43647 -3.43647
-0.0964578 -3.47201 -3.47201
-0.0980156 -3.54515 -3.54515
0.025605 -3.54694 -3.54694
0.0261562 -3.47377 -3.47377
-0.0972351 -3.50851 -3.50851
-0.0362034 -3.54598 -3.54598
0.0258833 -3.51028 -3.51028
-0.0351489 -3.47283 -3.47283
-0.035674 -3.50933 -3.50933
-0.0980156 -3.54515 -3.54515
-0.0995859 -3.61889 -3.61889
0.0250321 -3.62071 -3.62071
0.025605 -3.54694 -3.54694
-0.0987992 -3.58195 -3.58195
-0.037275 -3.61974 -3.61974
0.0253213 -3.58375 -3.58375
-0.0362034 -3.54598 -3.54598
-0.0367371 -3.58279 -3.58279
-0.0995859 -3.61889 -3.61889
-0.101169 -3.69322 -3.69322
0.0244374 -3.69506 -3.69506
0.0250321 -3.62071 -3.62071
-0.100376 -3.65598 -3.65598
-0.0383638 -3.69408 -3.69408
0.0247375 -3.65781 -3.65781
-0.037275 -3.61974 -3.61974
-0.0378173 -3.65683 -3.65683
-0.101169 -3.69322 -3.69322
-0.102764 -3.76812 -3.76812
0.0238211 -3.77 -3.77
0.0244374 -3.69506 -3.69506
-0.101965 -3.7306 -3.7306
-0.0394696 -3.769 -3.769
0.024132 -3.73246 -3.73246
-0.0383638 -3.69408 -3.69408
-0.0389145 -3.73146 -3.73146
-0.102764 -3.76812 -3.76812
-0.104372 -3.84361 -3.84361
0.0231831 -3.84551 -3.84551
0.0238211 -3.77 -3.77
-0.103566 -3.80579 -3.80579
-0.0405925 -3.8445 -3.8445
0.0235048 -3.80768 -3.80768
-0.0394696 -3.769 -3.769
-0.0400289 -3.80668 -3.80668
-0.104372 -3.84361 -3.84361
-0.105992 -3.91966 -3.91966
0.0225234 -3.92159 -3.92159
0.0231831 -3.84551 -3.84551
-0.10518 -3.88156 -3.88156
-0.0417324 -3.92057 -3.92057
0.022856 -3.88348 -3.88348
-0.0405925 -3.8445 -3.8445
-0.0411603 -3.88246 -3.88246
-0.105992 -3.91966 -3.91966
-0.107624 -3.99629 -3.99629
0.0218422 -3.99824 -3.99824
0.0225234 -3.92159 -3.92159
-0.106807 -3.9579 -3.9579
-0.0428893 -3.9972 -3.9972
0.0221855 -3.95985 -3.95985
-0.0417324 -3.92057 -3.92057
-0.0423087 -3.95882 -3.95882
-0.107624 -3.99629 -3.99629
-0.109269 -4.07347 -4.07347
0.0211394 -4.07546 -4.07546
0.0218422 -3.99824 -3.99824
-0.108445 -4.03481 -4.03481
-0.0440631 -4.0744 -4.0744
0.0214935 -4.03678 -4.03678
-0.0428893 -3.9972 -3.9972
-0.0434741 -4.03573 -4.03573
-0.109269 -4.07347 -4.07347
-0.110927 -4.15121 -4.15121
0.0204151 -4.15322 -4.15322
0.0211394 -4.07546 -4.07546
-0.110096 -4.11227 -4.11227
-0.0452539 -4.15216 -4.15216
0.02078 -4.11427 -4.11427
-0.0440631 -4.0744 -4.0744
-0.0446564 -4.11321 -4.11321
-0.110927 -4.15121 -4.15121
-0.112596 -4.22949 -4.22949
0.0196694 -4.23154 -4.23154
0.0204151 -4.15322 -4.15322
-0.11176 -4.19028 -4.19028
-0.0464615 -4.23046 -4.23046
0.0200449 -4.19231 -4.19231
-0.0452539 -4.15216 -4.15216
-0.0458556 -4.19124 -4.19124
-0.112596 -4.22949 -4.22949
-0.114278 -4.30833 -4.30833
0.0189022 -4.3104 -4.3104
0.0196694 -4.23154 -4.23154
-0.113435 -4.26884 -4.26884
-0.047686 -4.3093 -4.3093
0.0192885 -4.2709 -4.2709
-0.0464615 -4.23046 -4.23046
-0.0470716 -4.26981 -4.26981
-0.114278 -4.30833 -4.30833
-0.115972 -4.3877 -4.3877
0.0181137 -4.3898 -4.3898
0.0189022 -4.3104 -4.3104
-0.115123 -4.34794 -4.34794
-0.0489272 -4.38869 -4.38869
0.0185106 -4.35003 -4.35003
-0.047686 -4.3093 -4.3093
-0.0483045 -4.34893 -4.34893
-0.115972 -4.3877 -4.3877
-0.117678 -4.4676 -4.4676
0.0173038 -4.46973 -4.46973
0.0181137 -4.3898 -4.3898
-0.116823 -4.42758 -4.42758
-0.0501851 -4.46861 -4.46861
0.0177114 -4.4297 -4.4297
-0.0489272 -4.38869 -4.38869
-0.0495541 -4.42858 -4.42858
-0.117678 -4.4676 -4.4676
-0.119396 -4.54803 -4.54803
0.0164727 -4.55019 -4.55019
0.0173038 -4.46973 -4.46973
-0.118535 -4.50775 -4.50775
-0.0514597 -4.54906 -4.54906
0.0168909 -4.5099 -4.5099
-0.0501851 -4.46861 -4.46861
-0.0508203 -4.50877 -4.50877
-0.119396 -4.54803 -4.54803
-0.121126 -4.62899 -4.62899
0.0156204 -4.63117 -4.63117
0.0164727 -4.55019 -4.55019
-0.120259 -4.58845 -4.58845
-0.0527508 -4.63003 -4.63003
0.0160492 -4.59062 -4.59062
-0.0514597 -4.54906 -4.54906
-0.0521032 -4.58948 -4.58948
-0.121126 -4.62899 -4.62899
-0.122868 -4.71046 -4.71046
0.0147471 -4.71267 -4.71267
0.0156204 -4.63117 -4.63117
-0.121995 -4.66966 -4.66966
-0.0540585 -4.71151 -4.71151
0.0151864 -4.67186 -4.67186
-0.0527508 -4.63003 -4.63003
-0.0534026 -4.67071 -4.67071
-0.122868 -4.71046 -4.71046
-0.124621 -4.79245 -4.79245
0.0138526 -4.79469 -4.79469
0.0147471 -4.71267 -4.71267
-0.123743 -4.75139 -4.75139
-0.0553826 -4.79351 -4.79351
0.0143025 -4.75362 -4.75362
-0.0540585 -4.71151 -4.71151
-0.0547185 -4.75245 -4.75245
-0.124621 -4.79245 -4.79245
-0.126387 -4.87494 -4.87494
0.0129372 -4.8772 -4.8772
0.0138526 -4.79469 -4.79469
-0.125503 -4.83363 -4.83363
-0.0567231 -4.87602 -4.87602
0.0133975 -4.83588 -4.83588
-0.0553826 -4.79351 -4.79351
-0.0560508 -4.8347 -4.8347
-0.126387 -4.87494 -4.87494
-0.128164 -4.95793 -4.95793
0.0120009 -4.96022 -4.96022
0.0129372 -4.8772 -4.8772
-0.127274 -4.91637 -4.91637
-0.0580799 -4.95902 -4.95902
0.0124717 -4.91865 -4.91865
-0.0567231 -4.87602 -4.87602
-0.0573995 -4.91746 -4.91746
-0.128164 -4.95793 -4.95793
-0.129953 -5.04141 -5.04141
0.0110438 -5.04374 -5.04374
0.0120009 -4.96022 -4.96022
-0.129057 -4.99961 -4.99961
-0.0594529 -5.04252 -5.04252
0.0115249 -5.00192 -5.00192
-0.0580799 -4.95902 -4.95902
-0.0587644 -5.00071 -5.00071
-0.129953 -5.04141 -5.04141
-0.131754 -5.12539 -5.12539
0.0100659 -5.12774 -5.12774
0.0110438 -5.04374 -5.04374
-0.130852 -5.08334 -5.08334
-0.0608421 -5.12651 -5.12651
0.0105574 -5.08568 -5.08568
-0.0594529 -5.04252 -5.04252
-0.0601455 -5.08446 -5.08446
-0.131754 -5.12539 -5.12539
-0.133565 -5.20985 -5.20985
0.00906743 -5.21223 -5.21223
0.0100659 -5.12774 -5.12774
-0.132658 -5.16756 -5.16756
-0.0622472 -5.21099 -5.21099
0.00956925 -5.16992 -5.16992
-0.0608421 -5.12651 -5.12651
-0.0615426 -5.16869 -5.16869
-0.133565 -5.20985 -5.20985
-0.135389 -5.29479 -5.29479
0.00804837 -5.29719 -5.29719
0.00906743 -5.21223 -5.21223
-0.134476 -5.25226 -5.25226
-0.0636684 -5.29594 -5.29594
0.00856047 -5.25465 -5.25465
-0.0622472 -5.21099 -5.21099
-0.0629558 -5.2534 -5.2534
-0.135389 -5.29479 -5.29479
-0.137223 -5.3802 -5.3802
0.00700886 -5.38263 -5.38263
0.00804837 -5.29719 -5.29719
-0.136304 -5.33744 -5.33744
-0.0651054 -5.38137 -5.38137
0.00753117 -5.33986 -5.33986
-0.0636684 -5.29594 -5.29594
-0.0643849 -5.3386 -5.3386
-0.137223 -5.3802 -5.3802
-0.139069 -5.46609 -5.46609
0.00594897 -5.46854 -5.46854
0.00700886 -5.38263 -5.38263
-0.138144 -5.42309 -5.42309
-0.0665582 -5.46726 -5.46726
0.00648145 -5.42553 -5.42553
-0.0651054 -5.38137 -5.38137
-0.0658298 -5.42426 -5.42426
-0.139069 -5.46609 -5.46609
-0.140925 -5.55243 -5.55243
0.00486881 -5.55491 -5.55491
0.00594897 -5.46854 -5.46854
-0.139996 -5.5092 -5.5092
-0.0680266 -5.55362 -5.55362
0.00541142 -5.51167 -5.51167
-0.0665582 -5.46726 -5.46726
-0.0672904 -5.51039 -5.51039
-0.140925 -5.55243 -5.55243
-0.142793 -5.63923 -5.63923
0.00376849 -5.64174 -5.64174
0.00486881 -5.55491 -5.55491
-0.141858 -5.59577 -5.59577
-0.0695106 -5.64044 -5.64044
0.00432117 -5.59827 -5.59827
-0.0680266 -5.55362 -5.55362
-0.0687667 -5.59697 -5.59697
-0.142793 -5.63923 -5.63923
-0.144672 -5.72648 -5.72648
0.0026481 -5.72902 -5.72902
0.00376849 -5.64174 -5.64174
-0.143731 -5.6828 -5.6828
-0.0710101 -5.7277 -5.7277
0.0032108 -5.68532 -5.68532
-0.0695106 -5.64044 -5.64044
-0.0702585 -5.68401 -5.68401
-0.144672 -5.72648 -5.72648
-0.146561 -5.81418 -5.81418
0.00150776 -5.81675 -5.81675
0.0026481 -5.72902 -5.72902
-0.145615 -5.77028 -5.77028
-0.072525 -5.81542 -5.81542
0.00208042 -5.77283 -5.77283
-0.0710101 -5.7277 -5.7277
-0.0717656 -5.77151 -5.77151
-0.146561 -5.81418 -5.81418
-0.148461 -5.90232 -5.90232
0.000347574 -5.90491 -5.90491
0.00150776 -5.81675 -5.81675
-0.14751 -5.8582 -5.8582
-0.0740551 -5.90357 -5.90357
0.000930141 -5.86077 -5.86077
-0.072525 -5.81542 -5.81542
-0.0732881 -5.85944 -5.85944
-0.148461 -5.90232 -5.90232
-0.150371 -5.9909 -5.9909
-0.000832346 -5.99351 -5.99351
0.000347574 -5.90491 -5.90491
-0.149415 -5.94656 -5.94656
-0.0756003 -5.99216 -5.99216
-0.000239927 -5.94916 -5.94916
-0.0740551 -5.90357 -5.90357
-0.0748258 -5.94781 -5.94781
-0.150371 -5.9909 -5.9909
-0.152292 -6.07991 -6.07991
-0.00203188 -6.08254 -6.08254
-0.000832346 -5.99351 -5.99351
-0.151331 -6.03535 -6.03535
-0.0771605 -6.08118 -6.08118
-0.00142967 -6.03798 -6.03798
-0.0756003 -5.99216 -5.99216
-0.0763785 -6.03662 -6.03662
-0.152292 -6.07991 -6.07991
-0.154224 -6.16934 -6.16934
-0.00325092 -6.172 -6.172
-0.00203188 -6.08254 -6.08254
-0.153257 -6.12457 -6.12457
-0.0787357 -6.17062 -6.17062
-0.00263897 -6.12722 -6.12722
-0.0771605 -6.08118 -6.08118
-0.0779462 -6.12585 -6.12585
-0.154224 -6.16934 -6.16934
-0.156165 -6.25919 -6.25919
-0.00448933 -6.26188 -6.26188
-0.00325092 -6.172 -6.172
-0.155193 -6.21421 -6.21421
-0.0803256 -6.26049 -6.26049
-0.00386771 -6.21689 -6.21689
-0.0787357 -6.17062 -6.17062
-0.0795288 -6.2155 -6.2155
-0.156165 -6.25919 -6.25919
-0.158116 -6.34945 -6.34945
-0.00574699 -6.35216 -6.35216
-0.00448933 -6.26188 -6.26188
-0.15714 -6.30427 -6.30427
-0.0819302 -6.35076 -6.35076
-0.00511576 -6.30697 -6.30697
-0.0803256 -6.26049 -6.26049
-0.0811261 -6.30557 -6.30557
-0.158116 -6.34945 -6.34945
-0.160078 -6.44012 -6.44012
-0.00702377 -6.44286 -6.44286
-0.00574699 -6.35216 -6.35216
-0.159096 -6.39474 -6.39474
-0.0835493 -6.44145 -6.44145
-0.006383 -6.39746 -6.39746
-0.0819302 -6.35076 -6.35076
-0.0827379 -6.39606 -6.39606
-0.160078 -6.44012 -6.44012
-0.162049 -6.5312 -6.5312
-0.00831956 -6.53396 -6.53396
-0.00702377 -6.44286 -6.44286
-0.161062 -6.48561 -6.48561
-0.0851828 -6.53254 -6.53254
-0.0076693 -6.48836 -6.48836
-0.0835493 -6.44145 -6.44145
-0.0843642 -6.48694 -6.48694
-0.162049 -6.5312 -6.5312
-0.16403 -6.62267 -6.62267
-0.0096342 -6.62545 -6.62545
-0.00831956 -6.53396 -6.53396
-0.163038 -6.57688 -6.57688
-0.0868305 -6.62402 -6.62402
-0.00897453 -6.57966 -6.57966
-0.0851828 -6.53254 -6.53254
-0.0860049 -6.57823 -6.57823
-0.16403 -6.62267 -6.62267
-0.16602 -6.71453 -6.71453
-0.0109676 -6.71734 -6.71734
-0.0096342 -6.62545 -6.62545
-0.165024 -6.66855 -6.66855
-0.0884925 -6.7159 -6.7159
-0.0102986 -6.67135 -6.67135
-0.0868305 -6.62402 -6.62402
-0.0876597 -6.66991 -6.66991
-0.16602 -6.71453 -6.71453
-0.16802 -6.80678 -6.80678
-0.0123195 -6.80962 -6.80962
-0.0109676 -6.71734 -6.71734
-0.167019 -6.76061 -6.76061
-0.0901683 -6.80816 -6.80816
-0.0116412 -6.76343 -6.76343
-0.0884925 -6.7159 -6.7159
-0.0893287 -6.76198 -6.76198
-0.16802 -6.80678 -6.80678
-0.170029 -6.89942 -6.89942
-0.01369 -6.90227 -6.90227
-0.0123195 -6.80962 -6.80962
-0.169024 -6.85305 -6.85305
-0.0918581 -6.9008 -6.9008
-0.0130025 -6.8559 -6.8559
-0.0901683 -6.80816 -6.80816
-0.0910115 -6.85443 -6.85443
-0.170029 -6.89942 -6.89942
-0.172047 -6.99242 -6.99242
-0.0150787 -6.9953 -6.9953
-0.01369 -6.90227 -6.90227
-0.171037 -6.94587 -6.94587
-0.0935616 -6.99382 -6.99382
-0.014382 -6.94874 -6.94874
-0.0918581 -6.9008 -6.9008
-0.0927081 -6.94727 -6.94727
-0.172047 -6.99242 -6.99242
-0.174075 -7.0858 -7.0858
-0.0164856 -7.0887 -7.0887
-0.0150787 -6.9953 -6.9953
-0.17306 -7.03907 -7.03907
-0.0952786 -7.08721 -7.08721
-0.0157799 -7.04196 -7.04196
-0.0935616 -6.99382 -6.99382
-0.0944184 -7.04047 -7.04047
-0.174075 -7.0858 -7.0858
-0.17611 -7.17954 -7.17954
-0.0179105 -7.18247 -7.18247
-0.0164856 -7.0887 -7.0887
-0.175091 -7.13263 -7.13263
-0.0970091 -7.18097 -7.18097
-0.0171958 -7.13554 -7.13554
-0.0952786 -7.08721 -7.08721
-0.0961422 -7.13404 -7.13404
-0.17611 -7.17954 -7.17954
-0.178155 -7.27364 -7.27364
-0.0193533 -7.27659 -7.27659
-0.0179105 -7.18247 -7.18247
-0.177132 -7.22655 -7.22655
-0.0987528 -7.27508 -7.27508
-0.0186297 -7.22948 -7.22948
-0.0970091 -7.18097 -7.18097
-0.0978793 -7.22798 -7.22798
-0.178155 -7.27364 -7.27364
-0.180208 -7.3681 -7.3681
-0.0208138 -7.37107 -7.37107
-0.0193533 -7.27659 -7.27659
-0.179181 -7.32083 -7.32083
-0.10051 -7.36955 -7.36955
-0.0200813 -7.32378 -7.32378
-0.0987528 -7.27508 -7.27508
-0.0996296 -7.32227 -7.32227
-0.180208 -7.3681 -7.3681
-0.18227 -7.4629 -7.4629
-0.0222918 -7.46589 -7.46589
-0.0208138 -7.37107 -7.37107
-0.181238 -7.41546 -7.41546
-0.102279 -7.46436 -7.46436
-0.0215506 -7.41844 -7.41844
-0.10051 -7.36955 -7.36955
-0.101393 -7.41691 -7.41691
-0.18227 -7.4629 -7.4629
-0.18434 -7.55805 -7.55805
-0.0237873 -7.56106 -7.56106
-0.0222918 -7.46589 -7.46589
-0.183304 -7.51043 -7.51043
-0.104062 -7.55952 -7.55952
-0.0230374 -7.51343 -7.51343
-0.102279 -7.46436 -7.46436
-0.103169 -7.5119 -7.5119
-0.18434 -7.55805 -7.55805
-0.186417 -7.65353 -7.65353
-0.0253 -7.65657 -7.65657
-0.0237873 -7.56106 -7.56106
-0.185378 -7.60575 -7.60575
-0.105857 -7.65501 -7.65501
-0.0245415 -7.60877 -7.60877
-0.104062 -7.55952 -7.55952
-0.104958 -7.60722 -7.60722
-0.186417 -7.65353 -7.65353
-0.188503 -7.74935 -7.74935
-0.0268299 -7.7524 -7.7524
-0.0253 -7.65657 -7.65657
-0.187459 -7.7014 -7.7014
-0.107665 -7.75084 -7.75084
-0.0260628 -7.70444 -7.70444
-0.105857 -7.65501 -7.65501
-0.10676 -7.70289 -7.70289
-0.188503 -7.74935 -7.74935
-0.190597 -7.84549 -7.84549
-0.0283766 -7.84857 -7.84857
-0.0268299 -7.7524 -7.7524
-0.189549 -7.79738 -7.79738
-0.109485 -7.847 -7.847
-0.0276011 -7.80044 -7.80044
-0.107665 -7.75084 -7.75084
-0.108574 -7.79888 -7.79888
-0.190597 -7.84549 -7.84549
-0.192698 -7.94196 -7.94196
-0.0299401 -7.94505 -7.94505
-0.0283766 -7.84857 -7.84857
-0.191646 -7.89369 -7.89369
-0.111318 -7.94347 -7.94347
-0.0291563 -7.89677 -7.89677
-0.109485 -7.847 -7.847
-0.1104 -7.89519 -7.89519
-0.192698 -7.94196 -7.94196
-0.194806 -8.03874 -8.03874
-0.0315202 -8.04185 -8.04185
-0.0299401 -7.94505 -7.94505
-0.193751 -7.99031 -7.99031
-0.113162 -8.04026 -8.04026
-0.0307281 -7.99341 -7.99341
-0.111318 -7.94347 -7.94347
-0.112238 -7.99183 -7.99183
-0.194806 -8.03874 -8.03874
-0.196922 -8.13583 -8.13583
-0.0331167 -8.13896 -8.13896
-0.0315202 -8.04185 -8.04185
-0.195863 -8.08724 -8.08724
-0.115018 -8.13736 -8.13736
-0.0323164 -8.09037 -8.09037
-0.113162 -8.04026 -8.04026
-0.114088 -8.08877 -8.08877
-0.196922 -8.13583 -8.13583
-0.199044 -8.23322 -8.23322
-0.0347295 -8.23637 -8.23637
-0.0331167 -8.13896 -8.13896
-0.197982 -8.18449 -8.18449
-0.116886 -8.23477 -8.23477
-0.0339211 -8.18763 -8.18763
-0.115018 -8.13736 -8.13736
-0.11595 -8.18603 -8.18603
-0.199044 -8.23322 -8.23322
-0.201174 -8.33092 -8.33092
-0.0363584 -8.33409 -8.33409
-0.0347295 -8.23637 -8.23637
-0.200108 -8.28203 -8.28203
-0.118765 -8.33247 -8.33247
-0.0355419 -8.28519 -8.28519
-0.116886 -8.23477 -8.23477
-0.117824 -8.28358 -8.28358
-0.201174 -8.33092 -8.33092
-0.20331 -8.4289 -8.4289
-0.0380031 -8.4321 -8.4321
-0.0363584 -8.33409 -8.33409
-0.202241 -8.37987 -8.37987
-0.120656 -8.43047 -8.43047
-0.0371788 -8.38306 -8.38306
-0.118765 -8.33247 -8.33247
-0.119709 -8.38143 -8.38143
-0.20331 -8.4289 -8.4289
-0.205453 -8.52718 -8.52718
-0.0396637 -8.53039 -8.53039
-0.0380031 -8.4321 -8.4321
-0.204381 -8.47801 -8.47801
-0.122557 -8.52876 -8.52876
-0.0388314 -8.48121 -8.48121
-0.120656 -8.43047 -8.43047
-0.121605 -8.47958 -8.47958
-0.205453 -8.52718 -8.52718
-0.207602 -8.62574 -8.62574
-0.0413397 -8.62897 -8.62897
-0.0396637 -8.53039 -8.53039
-0.206527 -8.57643 -8.57643
-0.12447 -8.62733 -8.62733
-0.0404997 -8.57964 -8.57964
-0.122557 -8.52876 -8.52876
-0.123512 -8.57801 -8.57801
-0.207602 -8.62574 -8.62574
-0.209758 -8.72458 -8.72458
-0.0430311 -8.72782 -8.72782
-0.0413397 -8.62897 -8.62897
-0.208679 -8.67513 -8.67513
-0.126393 -8.72617 -8.72617
-0.0421835 -8.67836 -8.67836
-0.12447 -8.62733 -8.62733
-0.12543 -8.67671 -8.67671
-0.209758 -8.72458 -8.72458
-0.211919 -8.82369 -8.82369
-0.0447378 -8.82695 -8.82695
-0.0430311 -8.72782 -8.72782
-0.210838 -8.7741 -8.7741
-0.128327 -8.82529 -8.82529
-0.0438826 -8.77735 -8.77735
-0.126393 -8.72617 -8.72617
-0.127359 -8.7757 -8.7757
-0.211919 -8.82369 -8.82369
-0.214087 -8.92306 -8.92306
-0.0464594 -8.92635 -8.92635
-0.0447378 -8.82695 -8.82695
-0.213002 -8.87334 -8.87334
-0.130272 -8.92468 -8.92468
-0.0455967 -8.87662 -8.87662
-0.128327 -8.82529 -8.82529
-0.129298 -8.87495 -8.87495
-0.214087 -8.92306 -8.92306
-0.216259 -9.0227 -9.0227
-0.0481959 -9.026 -9.026
-0.0464594 -8.92635 -8.92635
-0.215172 -8.97285 -8.97285
-0.132227 -9.02432 -9.02432
-0.0473258 -8.97614 -8.97614
-0.130272 -8.92468 -8.92468
-0.131248 -8.97447 -8.97447
-0.216259 -9.0227 -9.0227
-0.218438 -9.1226 -9.1226
-0.049947 -9.12591 -9.12591
-0.0481959 -9.026 -9.026
-0.217348 -9.07262 -9.07262
-0.134191 -9.12423 -9.12423
-0.0490696 -9.07592 -9.07592
-0.132227 -9.02432 -9.02432
-0.133208 -9.07424 -9.07424
-0.218438 -9.1226 -9.1226
-0.220621 -9.22274 -9.22274
-0.0517125 -9.22607 -9.22607
-0.049947 -9.12591 -9.12591
-0.219529 -9.17264 -9.17264
-0.136166 -9.22438 -9.22438
-0.0508279 -9.17596 -9.17596
-0.134191 -9.12423 -9.12423
-0.135177 -9.17427 -9.17427
-0.220621 -9.22274 -9.22274
-0.22281 -9.32313 -9.32313
-0.0534923 -9.32648 -9.32648
-0.0517125 -9.22607 -9.22607
-0.221715 -9.2729 -9.2729
-0.13815 -9.32478 -9.32478
-0.0526006 -9.27624 -9.27624
-0.136166 -9.22438 -9.22438
-0.137157 -9.27455 -9.27455
-0.22281 -9.32313 -9.32313
-0.225004 -9.42376 -9.42376
-0.0552862 -9.42712 -9.42712
-0.0534923 -9.32648 -9.32648
-0.223906 -9.37341 -9.37341
-0.140144 -9.42542 -9.42542
-0.0543875 -9.37677 -9.37677
-0.13815 -9.32478 -9.32478
-0.139146 -9.37507 -9.37507
-0.225004 -9.42376 -9.42376
-0.227202 -9.52462 -9.52462
-0.0570939 -9.528 -9.528
-0.0552862 -9.42712 -9.42712
-0.226102 -9.47416 -9.47416
-0.142147 -9.52629 -9.52629
-0.0561883 -9.47753 -9.47753
-0.140144 -9.42542 -9.42542
-0.141144 -9.47582 -9.47582
-0.227202 -9.52462 -9.52462
-0.229404 -9.62571 -9.62571
-0.0589153 -9.62911 -9.62911
-0.0570939 -9.528 -9.528
-0.228303 -9.57514 -9.57514
-0.144159 -9.62739 -9.62739
-0.0580029 -9.57853 -9.57853
-0.142147 -9.52629 -9.52629
-0.143152 -9.57681 -9.57681
-0.229404 -9.62571 -9.62571
-0.231611 -9.72703 -9.72703
-0.0607502 -9.73044 -9.73044
-0.0589153 -9.62911 -9.62911
-0.230507 -9.67634 -9.67634
-0.14618 -9.72871 -9.72871
-0.0598311 -9.67974 -9.67974
-0.144159 -9.62739 -9.62739
-0.145168 -9.67802 -9.67802
-0.231611 -9.72703 -9.72703
-0.233822 -9.82856 -9.82856
-0.0625984 -9.83198 -9.83198
-0.0607502 -9.73044 -9.73044
-0.232716 -9.77777 -9.77777
-0.148209 -9.83025 -9.83025
-0.0616726 -9.78118 -9.78118
-0.14618 -9.72871 -9.72871
-0.147194 -9.77945 -9.77945
-0.233822 -9.82856 -9.82856
-0.236037 -9.93031 -9.93031
-0.0644596 -9.93374 -9.93374
-0.0625984 -9.83198 -9.83198
-0.234929 -9.87941 -9.87941
-0.150248 -9.932 -9.932
-0.0635274 -9.88284 -9.88284
-0.148209 -9.83025 -9.83025
-0.149228 -9.8811 -9.8811
-0.236037 -9.93031 -9.93031
-0.238256 -10.0323 -10.0323
-0.0663337 -10.0357 -10.0357
-0.0644596 -9.93374 -9.93374
-0.237146 -9.98126 -9.98126
-0.152294 -10.034 -10.034
-0.0653951 -9.9847 -9.9847
-0.150248 -9.932 -9.932
-0.15127 -9.98296 -9.98296
-0.238256 -10.0323 -10.0323
-0.240478 -10.1344 -10.1344
-0.0682206 -10.1379 -10.1379
-0.0663337 -10.0357 -10.0357
-0.239367 -10.0833 -10.0833
-0.154349 -10.1361 -10.1361
-0.0672756 -10.0868 -10.0868
-0.152294 -10.034 -10.034
-0.15332 -10.085 -10.085
-0.240478 -10.1344 -10.1344
-0.242704 -10.2368 -10.2368
-0.0701199 -10.2402 -10.2402
-0.0682206 -10.1379 -10.1379
-0.241591 -10.1856 -10.1856
-0.156411 -10.2385 -10.2385
-0.0691687 -10.189 -10.189
-0.154349 -10.1361 -10.1361
-0.155379 -10.1873 -10.1873
-0.242704 -10.2368 -10.2368
-0.244932 -10.3393 -10.3393
-0.0720314 -10.3428 -10.3428
-0.0701199 -10.2402 -10.2402
-0.243818 -10.288 -10.288
-0.158481 -10.341 -10.341
-0.0710741 -10.2915 -10.2915
-0.156411 -10.2385 -10.2385
-0.157445 -10.2897 -10.2897
-0.244932 -10.3393 -10.3393
-0.247164 -10.442 -10.442
-0.073955 -10.4455 -10.4455
-0.0720314 -10.3428 -10.3428
-0.246048 -10.3906 -10.3906
-0.160559 -10.4438 -10.4438
-0.0729917 -10.3941 -10.3941
-0.158481 -10.341 -10.341
-0.159519 -10.3924 -10.3924
-0.247164 -10.442 -10.442
-0.249398 -10.5449 -10.5449
-0.0758905 -10.5484 -10.5484
-0.073955 -10.4455 -10.4455
-0.24828 -10.4935 -10.4935
-0.162643 -10.5467 -10.5467
-0.0749213 -10.497 -10.497
-0.160559 -10.4438 -10.4438
-0.1616 -10.4952 -10.4952
-0.249398 -10.5449 -10.5449
-0.251634 -10.648 -10.648
-0.0778377 -10.6515 -10.6515
-0.0758905 -10.5484 -10.5484
-0.250516 -10.5964 -10.5964
-0.164735 -10.6498 -10.6498
-0.0768627 -10.6 -10.6
-0.162643 -10.5467 -10.5467
-0.163688 -10.5982 -10.5982
-0.251634 -10.648 -10.648
-0.253873 -10.7513 -10.7513
-0.0797963 -10.7548 -10.7548
-0.0778377 -10.6515 -10.6515
-0.252753 -10.6996 -10.6996
-0.166834 -10.753 -10.753
-0.0788156 -10.7031 -10.7031
-0.164735 -10.6498 -10.6498
-0.165784 -10.7014 -10.7014
-0.253873 -10.7513 -10.7513
-0.256114 -10.8547 -10.8547
-0.0817661 -10.8582 -10.8582
-0.0797963 -10.7548 -10.7548
-0.254993 -10.8029 -10.8029
-0.168939 -10.8564 -10.8564
-0.0807798 -10.8065 -10.8065
-0.166834 -10.753 -10.753
-0.167886 -10.8047 -10.8047
-0.256114 -10.8547 -10.8547
-0.258356 -10.9582 -10.9582
-0.0837469 -10.9618 -10.9618
-0.0817661 -10.8582 -10.8582
-0.257235 -10.9064 -10.9064
-0.171051 -10.96 -10.96
-0.0827551 -10.91 -10.91
-0.168939 -10.8564 -10.8564
-0.169994 -10.9082 -10.9082
-0.258356 -10.9582 -10.9582
-0.260601 -11.062 -11.062
-0.0857386 -11.0655 -11.0655
-0.0837469 -10.9618 -10.9618
-0.259478 -11.0101 -11.0101
-0.173169 -11.0637 -11.0637
-0.0847414 -11.0136 -11.0136
-0.171051 -10.96 -10.96
-0.172109 -11.0118 -11.0118
-0.260601 -11.062 -11.062
-0.262846 -11.1658 -11.1658
-0.0877408 -11.1694 -11.1694
-0.0857386 -11.0655 -11.0655
-0.261723 -11.1139 -11.1139
-0.175293 -11.1676 -11.1676
-0.0867384 -11.1175 -11.1175
-0.173169 -11.0637 -11.0637
-0.17423 -11.1156 -11.1156
-0.262846 -11.1658 -11.1658
-0.265093 -11.2698 -11.2698
-0.0897534 -11.2734 -11.2734
-0.0877408 -11.1694 -11.1694
-0.26397 -11.2178 -11.2178
-0.177423 -11.2716 -11.2716
-0.0887458 -11.2214 -11.2214
-0.175293 -11.1676 -11.1676
-0.176357 -11.2196 -11.2196
-0.265093 -11.2698 -11.2698
-0.267341 -11.374 -11.374
-0.0917762 -11.3776 -11.3776
-0.0897534 -11.2734 -11.2734
-0.266217 -11.3219 -11.3219
-0.179558 -11.3758 -11.3758
-0.0907636 -11.3255 -11.3255
-0.177423 -11.2716 -11.2716
-0.17849 -11.3237 -11.3237
-0.267341 -11.374 -11.374
-0.26959 -11.4783 -11.4783
-0.0938089 -11.4819 -11.4819
-0.0917762 -11.3776 -11.3776
-0.268465 -11.4261 -11.4261
-0.181699 -11.4801 -11.4801
-0.0927914 -11.4297 -11.4297
-0.179558 -11.3758 -11.3758
-0.180628 -11.4279 -11.4279
-0.26959 -11.4783 -11.4783
-0.271839 -11.5827 -11.5827
-0.0958514 -11.5863 -11.5863
-0.0938089 -11.4819 -11.4819
-0.270714 -11.5305 -11.5305
-0.183845 -11.5845 -11.5845
-0.094829 -11.5341 -11.5341
-0.181699 -11.4801 -11.4801
-0.182771 -11.5322 -11.5322
-0.271839 -11.5827 -11.5827
-0.274089 -11.6872 -11.6872
-0.0979034 -11.6908 -11.6908
-0.0958514 -11.5863 -11.5863
-0.272964 -11.6349 -11.6349
-0.185995 -11.689 -11.689
-0.0968762 -11.6385 -11.6385
-0.183845 -11.5845 -11.5845
-0.184919 -11.6367 -11.6367
-0.274089 -11.6872 -11.6872
-0.276338 -11.7918 -11.7918
-0.0999647 -11.7955 -11.7955
-0.0979034 -11.6908 -11.6908
-0.275213 -11.7395 -11.7395
-0.188151 -11.7936 -11.7936
-0.0989329 -11.7431 -11.7431
-0.185995 -11.689 -11.689
-0.187073 -11.7413 -11.7413
-0.276338 -11.7918 -11.7918
-0.278588 -11.8966 -11.8966
-0.102035 -11.9002 -11.9002
-0.0999647 -11.7955 -11.7955
-0.277463 -11.8442 -11.8442
-0.190311 -11.8984 -11.8984
-0.100999 -11.8478 -11.8478
-0.188151 -11.7936 -11.7936
-0.18923 -11.846 -11.846
-0.278588 -11.8966 -11.8966
-0.280837 -12.0014 -12.0014
-0.104114 -12.0051 -12.0051
-0.102035 -11.9002 -11.9002
-0.279712 -11.949 -11.949
-0.192475 -12.0032 -12.0032
-0.103074 -11.9526 -11.9526
-0.190311 -11.8984 -11.8984
-0.191392 -11.9508 -11.9508
-0.280837 -12.0014 -12.0014
-0.283085 -12.1064 -12.1064
-0.106202 -12.11 -12.11
-0.104114 -12.0051 -12.0051
-0.281961 -12.0539 -12.0539
-0.194643 -12.1082 -12.1082
-0.105157 -12.0575 -12.0575
-0.192475 -12.0032 -12.0032
-0.193559 -12.0557 -12.0557
-0.283085 -12.1064 -12.1064
-0.285333 -12.2114 -12.2114
-0.108298 -12.2151 -12.2151
-0.106202 -12.11 -12.11
-0.284209 -12.1589 -12.1589
-0.196815 -12.2132 -12.2132
-0.107249 -12.1625 -12.1625
-0.194643 -12.1082 -12.1082
-0.195729 -12.1607 -12.1607
-0.285333 -12.2114 -12.2114
-0.28758 -12.3165 -12.3165
-0.110403 -12.3202 -12.3202
-0.108298 -12.2151 -12.2151
-0.286457 -12.264 -12.264
-0.198991 -12.3184 -12.3184
-0.10935 -12.2676 -12.2676
-0.196815 -12.2132 -12.2132
-0.197903 -12.2658 -12.2658
-0.28758 -12.3165 -12.3165
-0.289826 -12.4217 -12.4217
-0.112515 -12.4254 -12.4254
-0.110403 -12.3202 -12.3202
-0.288703 -12.3691 -12.3691
-0.20117 -12.4236 -12.4236
-0.111458 -12.3728 -12.3728
-0.198991 -12.3184 -12.3184
-0.20008 -12.371 -12.371
-0.289826 -12.4217 -12.4217
-0.29207 -12.527 -12.527
-0.114635 -12.5307 -12.5307
-0.112515 -12.4254 -12.4254
-0.290948 -12.4744 -12.4744
-0.203352 -12.5289 -12.5289
-0.113574 -12.4781 -12.4781
-0.20117 -12.4236 -12.4236
-0.202261 -12.4762 -12.4762
-0.29207 -12.527 -12.527
-0.294312 -12.6324 -12.6324
-0.116763 -12.6361 -12.6361
-0.114635 -12.5307 -12.5307
-0.293191 -12.5797 -12.5797
-0.205538 -12.6342 -12.6342
-0.115698 -12.5834 -12.5834
-0.203352 -12.5289 -12.5289
-0.204445 -12.5815 -12.5815
-0.294312 -12.6324 -12.6324
-0.296553 -12.7378 -12.7378
-0.118898 -12.7415 -12.7415
-0.116763 -12.6361 -12.6361
-0.295433 -12.6851 -12.6851
-0.207725 -12.7397 -12.7397
-0.11783 -12.6888 -12.6888
-0.205538 -12.6342 -12.6342
-0.206631 -12.6869 -12.6869
-0.296553 -12.7378 -12.7378
-0.298792 -12.8433 -12.8433
-0.121041 -12.847 -12.847
-0.118898 -12.7415 -12.7415
-0.297673 -12.7905 -12.7905
-0.209916 -12.8451 -12.8451
-0.119969 -12.7942 -12.7942
-0.207725 -12.7397 -12.7397
-0.20882 -12.7924 -12.7924
-0.298792 -12.8433 -12.8433
-0.301028 -12.9488 -12.9488
-0.12319 -12.9525 -12.9525
-0.121041 -12.847 -12.847
-0.29991 -12.8961 -12.8961
-0.212109 -12.9507 -12.9507
-0.122115 -12.8998 -12.8998
-0.209916 -12.8451 -12.8451
-0.211012 -12.8979 -12.8979
-0.301028 -12.9488 -12.9488
-0.303261 -13.0544 -13.0544
-0.125347 -13.0581 -13.0581
-0.12319 -12.9525 -12.9525
-0.302144 -13.0016 -13.0016
-0.214304 -13.0563 -13.0563
-0.124268 -13.0053 -13.0053
-0.212109 -12.9507 -12.9507
-0.213206 -13.0035 -13.0035
-0.303261 -13.0544 -13.0544
-0.30549 -13.1601 -13.1601
-0.127511 -13.1638 -13.1638
-0.125347 -13.0581 -13.0581
-0.304376 -13.1072 -13.1072
-0.2165 -13.1619 -13.1619
-0.126428 -13.1109 -13.1109
-0.214304 -13.0563 -13.0563
-0.215402 -13.1091 -13.1091
-0.30549 -13.1601 -13.1601
-0.307716 -13.2657 -13.2657
-0.129682 -13.2694 -13.2694
-0.127511 -13.1638 -13.1638
-0.306604 -13.2129 -13.2129
-0.218699 -13.2676 -13.2676
-0.128596 -13.2166 -13.2166
-0.2165 -13.1619 -13.1619
-0.2176 -13.2147 -13.2147
-0.307716 -13.2657 -13.2657
-0.309937 -13.3714 -13.3714
-0.131861 -13.3751 -13.3751
-0.129682 -13.2694 -13.2694
-0.308827 -13.3186 -13.3186
-0.220899 -13.3733 -13.3733
-0.130771 -13.3223 -13.3223
-0.218699 -13.2676 -13.2676
-0.219799 -13.3204 -13.3204
-0.309937 -13.3714 -13.3714
-0.312154 -13.4772 -13.4772
-0.134048 -13.4809 -13.4809
-0.131861 -13.3751 -13.3751
-0.311046 -13.4243 -13.4243
-0.223101 -13.479 -13.479
-0.132953 -13.428 -13.428
-0.220899 -13.3733 -13.3733
-0.222 -13.4261 -13.4261
-0.312154 -13.4772 -13.4772
-0.314365 -13.5829 -13.5829
-0.136241 -13.5866 -13.5866
-0.134048 -13.4809 -13.4809
-0.31326 -13.53 -13.53
-0.225303 -13.5848 -13.5848
-0.135144 -13.5337 -13.5337
-0.223101 -13.479 -13.479
-0.224202 -13.5319 -13.5319
-0.314365 -13.5829 -13.5829
-0.316573 -13.6887 -13.6887
-0.138437 -13.6924 -13.6924
-0.136241 -13.5866 -13.5866
-0.315469 -13.6358 -13.6358
-0.227505 -13.6905 -13.6905
-0.137339 -13.6395 -13.6395
-0.225303 -13.5848 -13.5848
-0.226404 -13.6376 -13.6376
-0.316573 -13.6887 -13.6887
-0.31878 -13.7944 -13.7944
-0.140633 -13.7981 -13.7981
-0.138437 -13.6924 -13.6924
-0.317676 -13.7415 -13.7415
-0.229706 -13.7963 -13.7963
-0.139535 -13.7453 -13.7453
-0.227505 -13.6905 -13.6905
-0.228606 -13.7434 -13.7434
-0.31878 -13.7944 -13.7944
-0.320988 -13.9001 -13.9001
-0.142822 -13.9038 -13.9038
-0.140633 -13.7981 -13.7981
-0.319884 -13.8473 -13.8473
-0.231904 -13.9019 -13.9019
-0.141729 -13.851 -13.851
-0.229706 -13.7963 -13.7963
-0.230806 -13.8491 -13.8491
0 0 0
0.000781162 0.000126149 0.000126149
0.00238995 -0.000251347 -0.000251347
0 0 0
0.000388699 0.000256732 0.000256732
0.00157953 -1.59551e-05 -1.59551e-05
0.00115854 7.05425e-05 7.05425e-05
0 0 0
0.000766543 0.000193123 0.000193123
0.000781162 0.000126149 0.000126149
0.00162791 -0.00121625 -0.00121625
0.00496274 -0.00187306 -0.00187306
0.00238995 -0.000251347 -0.000251347
0.0011966 -0.000373063 -0.000373063
0.00328017 -0.00145503 -0.00145503
0.00366032 -0.000907044 -0.000907044
0.00157953 -1.59551e-05 -1.59551e-05
0.00241917 -0.000571579 -0.000571579
0.00162791 -0.00121625 -0.00121625
0.00250479 -0.00384736 -0.00384736
0.00764222 -0.00467596 -0.00467596
0.00496274 -0.00187306 -0.00187306
0.00206408 -0.00237946 -0.00237946
0.00505202 -0.00415386 -0.00415386
0.00629441 -0.00313453 -0.00313453
0.00328017 -0.00145503 -0.00145503
0.00415992 -0.00265512 -0.00265512
0.00250479 -0.00384736 -0.00384736
0.00339978 -0.00764983 -0.00764983
0.0103426 -0.0085557 -0.0085557
0.00764222 -0.00467596 -0.00467596
0.0029512 -0.00560747 -0.00560747
0.00684948 -0.00798871 -0.00798871
0.00899287 -0.00648416 -0.00648416
0.00505202 -0.00415386 -0.00415386
0.00594983 -0.00593411 -0.00593411
0.00339978 -0.00764983 -0.00764983
0.00429179 -0.0125511 -0.0125511
0.0130321 -0.0134837 -0.0134837
0.0103426 -0.0085557 -0.0085557
0.00384674 -0.00996601 -0.00996601
0.00864352 -0.0129032 -0.0129032
0.01169 -0.0108894 -0.0108894
0.00684948 -0.00798871 -0.00798871
0.00774803 -0.0103131 -0.0103131
0.00429179 -0.0125511 -0.0125511
0.00517632 -0.0185142 -0.0185142
0.0156943 -0.0194489 -0.0194489
0.0130321 -0.0134837 -0.0134837
0.00473526 -0.0154014 -0.0154014
0.0104205 -0.0188682 -0.0188682
0.0143668 -0.0163368 -0.0163368
0.00864352 -0.0129032 -0.0129032
0.00953448 -0.0157553 -0.0157553
0.00517632 -0.0185142 -0.0185142
0.00604884 -0.0255195 -0.0255195
0.0183296 -0.0264495 -0.0264495
0.0156943 -0.0194489 -0.0194489
0.00561411 -0.0218873 -0.0218873
0.0121774 -0.0258725 -0.0258725
0.0170152 -0.0228199 -0.0228199
0.0104205 -0.0188682 -0.0188682
0.0113014 -0.0222409 -0.0222409
0.00604884 -0.0255195 -0.0255195
0.00691017 -0.0335576 -0.0335576
0.0209393 -0.0344821 -0.0344821
0.0183296 -0.0264495 -0.0264495
0.00648087 -0.0294099 -0.0294099
0.0139149 -0.033909 -0.033909
0.0196375 -0.030337 -0.030337
0.0121774 -0.0258725 -0.0258725
0.0130485 -0.0297621 -0.0297621
0.00691017 -0.0335576 -0.0335576
0.00776043 -0.0426222 -0.0426222
0.0235262 -0.0435432 -0.0435432
0.0209393 -0.0344821 -0.0344821
0.00733664 -0.0379619 -0.0379619
0.0156348 -0.0429728 -0.0429728
0.0222354 -0.0388844 -0.0388844
0.0139149 -0.033909 -0.033909
0.0147769 -0.0383128 -0.0383128
0.00776043 -0.0426222 -0.0426222
0.00860049 -0.0527086 -0.0527086
0.026092 -0.0536283 -0.0536283
0.0235262 -0.0435432 -0.0435432
0.0081817 -0.047538 -0.047538
0.0173384 -0.0530593 -0.0530593
0.0248117 -0.048458 -0.048458
0.0156348 -0.0429728 -0.0429728
0.0164886 -0.0478885 -0.0478885
0.00860049 -0.0527086 -0.0527086
0.00943057 -0.0638122 -0.0638122
0.0286379 -0.0647324 -0.0647324
0.026092 -0.0536283 -0.0536283
0.00901676 -0.0581335 -0.0581335
0.0190268 -0.0641639 -0.0641639
0.0273674 -0.0590532 -0.0590532
0.0173384 -0.0530593 -0.0530593
0.0181845 -0.0584847 -0.0584847
0.00943057 -0.0638122 -0.0638122
0.0102509 -0.0759281 -0.0759281
0.0311643 -0.0768504 -0.0768504
0.0286379 -0.0647324 -0.0647324
0.00984194 -0.0697439 -0.0697439
0.0207004 -0.0762815 -0.0762815
0.0299035 -0.070665 -0.070665
0.0190268 -0.0641639 -0.0641639
0.0198655 -0.0700964 -0.0700964
0.0102509 -0.0759281 -0.0759281
0.0110612 -0.0890515 -0.0890515
0.0336714 -0.089977 -0.089977
0.0311643 -0.0768504 -0.0768504
0.0106573 -0.0823642 -0.0823642
0.0223593 -0.0894071 -0.0894071
0.0324203 -0.0832879 -0.0832879
0.0207004 -0.0762815 -0.0762815
0.0215317 -0.0827187 -0.0827187
0.0110612 -0.0890515 -0.0890515
0.0118615 -0.103177 -0.103177
0.0361592 -0.104107 -0.104107
0.0336714 -0.089977 -0.089977
0.0114627 -0.0959893 -0.0959893
0.0240035 -0.103535 -0.103535
0.0349178 -0.0969168 -0.0969168
0.0223593 -0.0894071 -0.0894071
0.0231833 -0.0963463 -0.0963463
0.0118615 -0.103177 -0.103177
0.0126515 -0.1183 -0.1183
0.0386274 -0.119234 -0.119234
0.0361592 -0.104107 -0.104107
0.0122578 -0.110614 -0.110614
0.0256326 -0.118661 -0.118661
0.0373958 -0.111546 -0.111546
0.0240035 -0.103535 -0.103535
0.0248199 -0.110974 -0.110974
0.0126515 -0.1183 -0.1183
0.0134307 -0.134414 -0.134414
0.0410757 -0.135354 -0.135354
0.0386274 -0.119234 -0.119234
0.0130424 -0.126233 -0.126233
0.0272464 -0.134779 -0.134779
0.0398541 -0.12717 -0.12717
0.0256326 -0.118661 -0.118661
0.0264414 -0.126596 -0.126596
0.0134307 -0.134414 -0.134414
0.0141989 -0.151514 -0.151514
0.0435039 -0.152461 -0.152461
0.0410757 -0.135354 -0.135354
0.0138162 -0.142841 -0.142841
0.0288446 -0.151883 -0.151883
0.0422923 -0.143784 -0.143784
0.0272464 -0.134779 -0.134779
0.0280475 -0.143208 -0.143208
0.0141989 -0.151514 -0.151514
0.0149559 -0.169595 -0.169595
0.0459114 -0.170548 -0.170548
0.0435039 -0.152461 -0.152461
0.0145788 -0.160432 -0.160432
0.0304269 -0.169968 -0.169968
0.0447102 -0.161382 -0.161382
0.0288446 -0.151883 -0.151883
0.0296378 -0.160803 -0.160803
0.0149559 -0.169595 -0.169595
0.0157011 -0.188651 -0.188651
0.0482982 -0.189612 -0.189612
0.0459114 -0.170548 -0.170548
0.01533 -0.179002 -0.179002
0.0319929 -0.189028 -0.189028
0.0471074 -0.179959 -0.179959
0.0304269 -0.169968 -0.169968
0.031212 -0.179376 -0.179376
0.0157011 -0.188651 -0.188651
0.0164344 -0.208678 -0.208678
0.0506637 -0.209646 -0.209646
0.0482982 -0.189612 -0.189612
0.0160693 -0.198544 -0.198544
0.0335424 -0.209059 -0.209059
0.0494836 -0.199508 -0.199508
0.0319929 -0.189028 -0.189028
0.0327698 -0.198923 -0.198923
0.0164344 -0.208678 -0.208678
0.0171553 -0.229668 -0.229668
0.0530077 -0.230645 -0.230645
0.0506637 -0.209646 -0.209646
0.0167964 -0.219053 -0.219053
0.0350749 -0.230054 -0.230054
0.0518384 -0.220026 -0.220026
0.0335424 -0.209059 -0.209059
0.0343108 -0.219436 -0.219436
0.0171553 -0.229668 -0.229668
0.0178636 -0.251618 -0.251618
0.0553299 -0.252604 -0.252604
0.0530077 -0.230645 -0.230645
0.0175111 -0.240523 -0.240523
0.0365902 -0.252009 -0.252009
0.0541716 -0.241505 -0.241505
0.0350749 -0.230054 -0.230054
0.0358347 -0.240912 -0.240912
0.0178636 -0.251618 -0.251618
0.018559 -0.274521 -0.274521
0.05763 -0.275516 -0.275516
0.0553299 -0.252604 -0.252604
0.0182129 -0.26295 -0.26295
0.0380879 -0.274917 -0.274917
0.0564827 -0.263941 -0.263941
0.0365902 -0.252009 -0.252009
0.0373413 -0.263344 -0.263344
0.018559 -0.274521 -0.274521
0.0192411 -0.298371 -0.298371
0.0599075 -0.299378 -0.299378
0.05763 -0.275516 -0.275516
0.0189017 -0.286328 -0.286328
0.0395678 -0.298774 -0.298774
0.0587716 -0.287329 -0.287329
0.0380879 -0.274917 -0.274917
0.0388301 -0.286727 -0.286727
0.0192411 -0.298371 -0.298371
0.0199096 -0.323165 -0.323165
0.0621624 -0.324182 -0.324182
0.0599075 -0.299378 -0.299378
0.0195771 -0.310651 -0.310651
0.0410295 -0.323573 -0.323573
0.0610378 -0.311662 -0.311662
0.0395678 -0.298774 -0.298774
0.0403009 -0.311056 -0.311056
0.0199096 -0.323165 -0.323165
0.0205643 -0.348896 -0.348896
0.0643941 -0.349923 -0.349923
0.0621624 -0.324182 -0.324182
0.0202387 -0.335913 -0.335913
0.0424727 -0.34931 -0.34931
0.0632812 -0.336936 -0.336936
0.0410295 -0.323573 -0.323573
0.0417534 -0.336325 -0.336325
0.0205643 -0.348896 -0.348896
0.0212049 -0.375558 -0.375558
0.0666026 -0.376597 -0.376597
0.0643941 -0.349923 -0.349923
0.0208864 -0.362111 -0.362111
0.0438973 -0.375978 -0.375978
0.0655013 -0.363144 -0.363144
0.0424727 -0.34931 -0.34931
0.0431874 -0.362528 -0.362528
0.0212049 -0.375558 -0.375558
0.021831 -0.403146 -0.403146
0.0687873 -0.404198 -0.404198
0.0666026 -0.376597 -0.376597
0.0215198 -0.389236 -0.389236
0.0453028 -0.403573 -0.403573
0.0676979 -0.390282 -0.390282
0.0438973 -0.375978 -0.375978
0.0446024 -0.38966 -0.38966
0.021831 -0.403146 -0.403146
0.0224424 -0.431655 -0.431655
0.0709482 -0.432719 -0.432719
0.0687873 -0.404198 -0.404198
0.0221386 -0.417286 -0.417286
0.0466889 -0.432089 -0.432089
0.0698708 -0.418344 -0.418344
0.0453028 -0.403573 -0.403573
0.0459983 -0.417717 -0.417717
0.0224424 -0.431655 -0.431655
0.0230389 -0.461079 -0.461079
0.073085 -0.462156 -0.462156
0.0709482 -0.432719 -0.432719
0.0227425 -0.446253 -0.446253
0.0480555 -0.461521 -0.461521
0.0720196 -0.447324 -0.447324
0.0466889 -0.432089 -0.432089
0.0473747 -0.446691 -0.446691
0.0230389 -0.461079 -0.461079
0.0236201 -0.491414 -0.491414
0.0751972 -0.492504 -0.492504
0.073085 -0.462156 -0.462156
0.0233314 -0.476133 -0.476133
0.0494023 -0.491862 -0.491862
0.0741442 -0.477217 -0.477217
0.0480555 -0.461521 -0.461521
0.0487314 -0.476578 -0.476578
0.0236201 -0.491414 -0.491414
0.0241858 -0.522652 -0.522652
0.0772848 -0.523756 -0.523756
0.0751972 -0.492504 -0.492504
0.0239049 -0.50692 -0.50692
0.050729 -0.523108 -0.523108
0.0762441 -0.508017 -0.508017
0.0494023 -0.491862 -0.491862
0.0500682 -0.507372 -0.507372
0.0241858 -0.522652 -0.522652
0.0247358 -0.554789 -0.554789
0.0793474 -0.555908 -0.555908
0.0772848 -0.523756 -0.523756
0.0244628 -0.538609 -0.538609
0.0520353 -0.555253 -0.555253
0.0783192 -0.53972 -0.53972
0.050729 -0.523108 -0.523108
0.0513847 -0.539069 -0.539069
0.0247358 -0.554789 -0.554789
0.0252697 -0.58782 -0.58782
0.0813848 -0.588953 -0.588953
0.0793474 -0.555908 -0.555908
0.0250048 -0.571193 -0.571193
0.053321 -0.588292 -0.588292
0.0803693 -0.572319 -0.572319
0.0520353 -0.555253 -0.555253
0.0526808 -0.571661 -0.571661
0.0252697 -0.58782 -0.58782
0.0257875 -0.621739 -0.621739
0.0833968 -0.622887 -0.622887
0.0813848 -0.588953 -0.588953
0.0255306 -0.604669 -0.604669
0.0545859 -0.622219 -0.622219
0.082394 -0.60581 -0.60581
0.053321 -0.588292 -0.588292
0.0539561 -0.605145 -0.605145
0.0257875 -0.621739 -0.621739
0.0262887 -0.65654 -0.65654
0.0853831 -0.657704 -0.657704
0.0833968 -0.622887 -0.622887
0.0260402 -0.63903 -0.63903
0.0558297 -0.657028 -0.657028
0.0843932 -0.640186 -0.640186
0.0545859 -0.622219 -0.622219
0.0552104 -0.639514 -0.639514
0.0262887 -0.65654 -0.65654
0.0267732 -0.692218 -0.692218
0.0873435 -0.693398 -0.693398
0.0853831 -0.657704 -0.657704
0.0265331 -0.67427 -0.67427
0.0570522 -0.692715 -0.692715
0.0863665 -0.675442 -0.675442
0.0558297 -0.657028 -0.657028
0.0564436 -0.674762 -0.674762
0.0267732 -0.692218 -0.692218
0.0272409 -0.728768 -0.728768
0.0892777 -0.729964 -0.729964
0.0873435 -0.693398 -0.693398
0.0270092 -0.710385 -0.710385
0.0582531 -0.729274 -0.729274
0.0883139 -0.711573 -0.711573
0.0570522 -0.692715 -0.692715
0.0576554 -0.710886 -0.710886
0.0272409 -0.728768 -0.728768
0.0276913 -0.766184 -0.766184
0.0911856 -0.767397 -0.767397
0.0892777 -0.729964 -0.729964
0.0274682 -0.747368 -0.747368
0.0594323 -0.766699 -0.766699
0.090235 -0.748573 -0.748573
0.0582531 -0.729274 -0.729274
0.0588455 -0.747878 -0.747878
0.0276913 -0.766184 -0.766184
0.0281244 -0.804461 -0.804461
0.0930669 -0.805691 -0.805691
0.0911856 -0.767397 -0.767397
0.02791 -0.785215 -0.785215
0.0605896 -0.804984 -0.804984
0.0921296 -0.786437 -0.786437
0.0594323 -0.766699 -0.766699
0.0600137 -0.785734 -0.785734
0.0281244 -0.804461 -0.804461
0.0285399 -0.843593 -0.843593
0.0949215 -0.84484 -0.84484
0.0930669 -0.805691 -0.805691
0.0283344 -0.82392 -0.82392
0.0617246 -0.844126 -0.844126
0.0939976 -0.825159 -0.825159
0.0605896 -0.804984 -0.804984
0.0611599 -0.824448 -0.824448
0.0285399 -0.843593 -0.843593
0.0289377 -0.883575 -0.883575
0.0967491 -0.884839 -0.884839
0.0949215 -0.84484 -0.84484
0.028741 -0.863478 -0.863478
0.0628373 -0.884117 -0.884117
0.0958387 -0.864734 -0.864734
0.0617246 -0.844126 -0.844126
0.0622838 -0.864015 -0.864015
0.0289377 -0.883575 -0.883575
0.0293174 -0.924401 -0.924401
0.0985495 -0.925683 -0.925683
0.0967491 -0.884839 -0.884839
0.0291298 -0.903882 -0.903882
0.0639274 -0.924952 -0.924952
0.0976527 -0.905156 -0.905156
0.0628373 -0.884117 -0.884117
0.0633852 -0.904429 -0.904429
0.0293174 -0.924401 -0.924401
0.029679 -0.966065 -0.966065
0.100322 -0.967366 -0.967366
0.0985495 -0.925683 -0.925683
0.0295005 -0.945128 -0.945128
0.0649947 -0.966627 -0.966627
0.0994394 -0.94642 -0.94642
0.0639274 -0.924952 -0.924952
0.0644639 -0.945685 -0.945685
0.029679 -0.966065 -0.966065
0.0300223 -1.00856 -1.00856
0.102068 -1.00988 -1.00988
0.100322 -0.967366 -0.967366
0.0298529 -0.987211 -0.987211
0.0660391 -1.00913 -1.00913
0.101199 -0.988521 -0.988521
0.0649947 -0.966627 -0.966627
0.0655198 -0.987777 -0.987777
0.0300223 -1.00856 -1.00856
0.030347 -1.05189 -1.05189
0.103786 -1.05323 -1.05323
0.102068 -1.00988 -1.00988
0.030187 -1.03012 -1.03012
0.0670603 -1.05247 -1.05247
0.10293 -1.03145 -1.03145
0.0660391 -1.00913 -1.00913
0.0665526 -1.0307 -1.0307
0.030347 -1.05189 -1.05189
0.030653 -1.09604 -1.09604
0.105475 -1.0974 -1.0974
0.103786 -1.05323 -1.05323
0.0305023 -1.07386 -1.07386
0.0680583 -1.09663 -1.09663
0.104634 -1.07521 -1.07521
0.0670603 -1.05247 -1.05247
0.0675622 -1.07445 -1.07445
0.030653 -1.09604 -1.09604
0.0309401 -1.141 -1.141
0.107137 -1.14238 -1.14238
0.105475 -1.0974 -1.0974
0.0307989 -1.11842 -1.11842
0.0690327 -1.14161 -1.14161
0.10631 -1.11979 -1.11979
0.0680583 -1.09663 -1.09663
0.0685484 -1.11902 -1.11902
0.0309401 -1.141 -1.141
0.0312082 -1.18678 -1.18678
0.108771 -1.18818 -1.18818
0.107137 -1.14238 -1.14238
0.0310766 -1.16379 -1.16379
0.0699835 -1.18739 -1.18739
0.107958 -1.16518 -1.16518
0.0690327 -1.14161 -1.14161
0.0695111 -1.1644 -1.1644
0.0312082 -1.18678 -1.18678
0.0314571 -1.23336 -1.23336
0.110376 -1.23478 -1.23478
0.108771 -1.18818 -1.18818
0.0313351 -1.20997 -1.20997
0.0709105 -1.23399 -1.23399
0.109577 -1.21138 -1.21138
0.0699835 -1.18739 -1.18739
0.07045 -1.21059 -1.21059
0.0314571 -1.23336 -1.23336
0.0316866 -1.28075 -1.28075
0.111952 -1.28219 -1.28219
0.110376 -1.23478 -1.23478
0.0315743 -1.25696 -1.25696
0.0718136 -1.28138 -1.28138
0.111168 -1.25838 -1.25838
0.0709105 -1.23399 -1.23399
0.071365 -1.25758 -1.25758
0.0316866 -1.28075 -1.28075
0.0318966 -1.32893 -1.32893
0.1135 -1.33039 -1.33039
0.111952 -1.28219 -1.28219
0.0317941 -1.30474 -1.30474
0.0726925 -1.32957 -1.32957
0.11273 -1.30619 -1.30619
0.0718136 -1.28138 -1.28138
0.072256 -1.30538 -1.30538
0.0318966 -1.32893 -1.32893
0.032087 -1.3779 -1.3779
0.115019 -1.37937 -1.37937
0.1135 -1.33039 -1.33039
0.0319943 -1.35331 -1.35331
0.0735472 -1.37855 -1.37855
0.114263 -1.35478 -1.35478
0.0726925 -1.32957 -1.32957
0.0731229 -1.35396 -1.35396
0.032087 -1.3779 -1.3779
0.0322576 -1.42765 -1.42765
0.116509 -1.42915 -1.42915
0.115019 -1.37937 -1.37937
0.0321748 -1.40268 -1.40268
0.0743774 -1.42832 -1.42832
0.115768 -1.40416 -1.40416
0.0735472 -1.37855 -1.37855
0.0739654 -1.40334 -1.40334
0.0322576 -1.42765 -1.42765
0.0324082 -1.47818 -1.47818
0.11797 -1.4797 -1.4797
0.116509 -1.42915 -1.42915
0.0323354 -1.45282 -1.45282
0.0751832 -1.47886 -1.47886
0.117243 -1.45433 -1.45433
0.0743774 -1.42832 -1.42832
0.0747834 -1.45349 -1.45349
0.0324082 -1.47818 -1.47818
0.0325388 -1.52949 -1.52949
0.119401 -1.53103 -1.53103
0.11797 -1.4797 -1.4797
0.032476 -1.50374 -1.50374
0.0759643 -1.53018 -1.53018
0.118689 -1.50527 -1.50527
0.0751832 -1.47886 -1.47886
0.0755768 -1.50442 -1.50442
0.0325388 -1.52949 -1.52949
0.0326492 -1.58156 -1.58156
0.120804 -1.58312 -1.58312
0.119401 -1.53103 -1.53103
0.0325965 -1.55543 -1.55543
0.0767206 -1.58226 -1.58226
0.120106 -1.55698 -1.55698
0.0759643 -1.53018 -1.53018
0.0763456 -1.55612 -1.55612
0.0326492 -1.58156 -1.58156
0.0327393 -1.6344 -1.6344
0.122176 -1.63598 -1.63598
0.120804 -1.58312 -1.58312
0.0326968 -1.60788 -1.60788
0.077452 -1.63511 -1.63511
0.121494 -1.60946 -1.60946
0.0767206 -1.58226 -1.58226
0.0770894 -1.60859 -1.60859
0.0327393 -1.6344 -1.6344
0.032809 -1.68799 -1.68799
0.123519 -1.6896 -1.6896
0.122176 -1.63598 -1.63598
0.0327767 -1.6611 -1.6611
0.0781584 -1.68871 -1.68871
0.122852 -1.66269 -1.66269
0.077452 -1.63511 -1.63511
0.0778084 -1.66182 -1.66182
0.032809 -1.68799 -1.68799
0.0328582 -1.74233 -1.74233
0.124833 -1.74396 -1.74396
0.123519 -1.6896 -1.6896
0.0328362 -1.71507 -1.71507
0.0788397 -1.74307 -1.74307
0.12418 -1.71669 -1.71669
0.0781584 -1.68871 -1.68871
0.0785022 -1.7158 -1.7158
0.0328582 -1.74233 -1.74233
0.0328868 -1.79742 -1.79742
0.126116 -1.79908 -1.79908
0.124833 -1.74396 -1.74396
0.0328751 -1.76978 -1.76978
0.0794957 -1.79817 -1.79817
0.125478 -1.77143 -1.77143
0.0788397 -1.74307 -1.74307
0.0791709 -1.77053 -1.77053
0.0328868 -1.79742 -1.79742
0.0328946 -1.85325 -1.85325
0.12737 -1.85493 -1.85493
0.126116 -1.79908 -1.79908
0.0328933 -1.82525 -1.82525
0.0801265 -1.85401 -1.85401
0.126747 -1.82691 -1.82691
0.0794957 -1.79817 -1.79817
0.0798143 -1.826 -1.826
0.0328946 -1.85325 -1.85325
0.0328816 -1.90982 -1.90982
0.128593 -1.91152 -1.91152
0.12737 -1.85493 -1.85493
0.0328907 -1.88144 -1.88144
0.0807318 -1.91059 -1.91059
0.127985 -1.88313 -1.88313
0.0801265 -1.85401 -1.85401
0.0804323 -1.88221 -1.88221
0.0328816 -1.90982 -1.90982
0.0328477 -1.96711 -1.96711
0.129787 -1.96884 -1.96884
0.128593 -1.91152 -1.91152
0.0328672 -1.93838 -1.93838
0.0813115 -1.9679 -1.9679
0.129194 -1.94009 -1.94009
0.0807318 -1.91059 -1.91059
0.0810249 -1.93915 -1.93915
0.0328477 -1.96711 -1.96711
0.0327928 -2.02513 -2.02513
0.13095 -2.02688 -2.02688
0.129787 -1.96884 -1.96884
0.0328228 -1.99603 -1.99603
0.0818657 -2.02593 -2.02593
0.130372 -1.99777 -1.99777
0.0813115 -1.9679 -1.9679
0.0815918 -1.99682 -1.99682
0.0327928 -2.02513 -2.02513
0.0327168 -2.08387 -2.08387
0.132083 -2.08564 -2.08564
0.13095 -2.02688 -2.02688
0.0327574 -2.05441 -2.05441
0.0823942 -2.08468 -2.08468
0.13152 -2.05617 -2.05617
0.0818657 -2.02593 -2.02593
0.0821332 -2.05522 -2.05522
0.0327168 -2.08387 -2.08387
0.0326196 -2.14333 -2.14333
0.133186 -2.14512 -2.14512
0.132083 -2.08564 -2.08564
0.0326709 -2.11351 -2.11351
0.082897 -2.14415 -2.14415
0.132638 -2.11529 -2.11529
0.0823942 -2.08468 -2.08468
0.0826488 -2.11432 -2.11432
0.0326196 -2.14333 -2.14333
0.0325013 -2.20349 -2.20349
0.134258 -2.2053 -2.2053
0.133186 -2.14512 -2.14512
0.0325631 -2.17332 -2.17332
0.0833739 -2.20432 -2.20432
0.133726 -2.17512 -2.17512
0.082897 -2.14415 -2.14415
0.0831387 -2.17414 -2.17414
0.0325013 -2.20349 -2.20349
0.0323616 -2.26435 -2.26435
0.1353 -2.26619 -2.26619
0.134258 -2.2053 -2.2053
0.0324341 -2.23383 -2.23383
0.0838249 -2.26519 -2.26519
0.134783 -2.23566 -2.23566
0.0833739 -2.20432 -2.20432
0.0836027 -2.23467 -2.23467
0.0323616 -2.26435 -2.26435
0.0322006 -2.32591 -2.32591
0.136311 -2.32777 -2.32777
0.1353 -2.26619 -2.26619
0.0322838 -2.29504 -2.29504
0.08425 -2.32676 -2.32676
0.135809 -2.29689 -2.29689
0.0838249 -2.26519 -2.26519
0.0840407 -2.29589 -2.29589
0.0322006 -2.32591 -2.32591
0.0320182 -2.38816 -2.38816
0.137291 -2.39004 -2.39004
0.136311 -2.32777 -2.32777
0.0321121 -2.35695 -2.35695
0.0846491 -2.38903 -2.38903
0.136805 -2.35882 -2.35882
0.08425 -2.32676 -2.32676
0.0844528 -2.35781 -2.35781
0.0320182 -2.38816 -2.38816
0.0318143 -2.4511 -2.4511
0.138241 -2.453 -2.453
0.137291 -2.39004 -2.39004
0.0319189 -2.41954 -2.41954
0.085022 -2.45198 -2.45198
0.13777 -2.42144 -2.42144
0.0846491 -2.38903 -2.38903
0.0848388 -2.42042 -2.42042
0.0318143 -2.4511 -2.4511
0.0315888 -2.51471 -2.51471
0.13916 -2.51665 -2.51665
0.138241 -2.453 -2.453
0.0317042 -2.48282 -2.48282
0.0853689 -2.51561 -2.51561
0.138705 -2.48474 -2.48474
0.085022 -2.45198 -2.45198
0.0851987 -2.48371 -2.48371
0.0315888 -2.51471 -2.51471
0.0313419 -2.57901 -2.57901
0.140049 -2.58096 -2.58096
0.13916 -2.51665 -2.51665
0.031468 -2.54678 -2.54678
0.0856896 -2.57991 -2.57991
0.139608 -2.54872 -2.54872
0.0853689 -2.51561 -2.51561
0.0855325 -2.54768 -2.54768
0.0313419 -2.57901 -2.57901
0.0310733 -2.64397 -2.64397
0.140906 -2.64595 -2.64595
0.140049 -2.58096 -2.58096
0.0312103 -2.6114 -2.6114
0.0859841 -2.64489 -2.64489
0.140481 -2.61337 -2.61337
0.0856896 -2.57991 -2.57991
0.0858401 -2.61232 -2.61232
0.0310733 -2.64397 -2.64397
0.030783 -2.70959 -2.70959
0.141733 -2.7116 -2.7116
0.140906 -2.64595 -2.64595
0.0309309 -2.6767 -2.6767
0.0862523 -2.71053 -2.71053
0.141324 -2.67869 -2.67869
0.0859841 -2.64489 -2.64489
0.0861215 -2.67762 -2.67762
0.030783 -2.70959 -2.70959
0.0304711 -2.77588 -2.77588
0.142529 -2.77791 -2.77791
0.141733 -2.7116 -2.7116
0.0306298 -2.74266 -2.74266
0.0864943 -2.77682 -2.77682
0.142135 -2.74467 -2.74467
0.0862523 -2.71053 -2.71053
0.0863766 -2.74359 -2.74359
0.0304711 -2.77588 -2.77588
0.0301376 -2.84282 -2.84282
0.143294 -2.84487 -2.84487
0.142529 -2.77791 -2.77791
0.0303071 -2.80927 -2.80927
0.08671 -2.84378 -2.84378
0.142915 -2.81131 -2.81131
0.0864943 -2.77682 -2.77682
0.0866055 -2.81022 -2.81022
0.0301376 -2.84282 -2.84282
0.0297822 -2.91041 -2.91041
0.144028 -2.91248 -2.91248
0.143294 -2.84487 -2.84487
0.0299626 -2.87653 -2.87653
0.0868994 -2.91138 -2.91138
0.143665 -2.8786 -2.8786
0.08671 -2.84378 -2.84378
0.086808 -2.8775 -2.8775
0.0297822 -2.91041 -2.91041
0.0294052 -2.97864 -2.97864
0.144731 -2.98074 -2.98074
0.144028 -2.91248 -2.91248
0.0295964 -2.94444 -2.94444
0.0870624 -2.97962 -2.97962
0.144383 -2.94653 -2.94653
0.0868994 -2.91138 -2.91138
0.0869842 -2.94542 -2.94542
0.0294052 -2.97864 -2.97864
0.0290064 -3.0475 -3.0475
0.145403 -3.04963 -3.04963
0.144731 -2.98074 -2.98074
0.0292085 -3.01299 -3.01299
0.0871991 -3.0485 -3.0485
0.145071 -3.0151 -3.0151
0.0870624 -2.97962 -2.97962
0.087134 -3.01398 -3.01398
0.0290064 -3.0475 -3.0475
0.0285858 -3.117 -3.117
0.146044 -3.11915 -3.11915
0.145403 -3.04963 -3.04963
0.0287988 -3.08217 -3.08217
0.0873093 -3.11801 -3.11801
0.145728 -3.08431 -3.08431
0.0871991 -3.0485 -3.0485
0.0872575 -3.08317 -3.08317
0.0285858 -3.117 -3.117
0.0281434 -3.18712 -3.18712
0.146654 -3.1893 -3.1893
0.146044 -3.11915 -3.11915
0.0283673 -3.15198 -3.15198
0.0873933 -3.18814 -3.18814
0.146353 -3.15414 -3.15414
0.0873093 -3.11801 -3.11801
0.0873546 -3.153 -3.153
0.0281434 -3.18712 -3.18712
0.0276793 -3.25787 -3.25787
0.147234 -3.26007 -3.26007
0.146654 -3.1893 -3.1893
0.0279141 -3.22242 -3.22242
0.0874508 -3.2589 -3.2589
0.146948 -3.2246 -3.2246
0.0873933 -3.18814 -3.18814
0.0874253 -3.22344 -3.22344
0.0276793 -3.25787 -3.25787
0.0271934 -3.32923 -3.32923
0.147782 -3.33145 -3.33145
0.147234 -3.26007 -3.26007
0.027439 -3.29347 -3.29347
0.087482 -3.33027 -3.33027
0.147512 -3.29568 -3.29568
0.0874508 -3.2589 -3.2589
0.0874697 -3.29451 -3.29451
0.0271934 -3.32923 -3.32923
0.0266857 -3.4012 -3.4012
0.148299 -3.40344 -3.40344
0.147782 -3.33145 -3.33145
0.0269422 -3.36514 -3.36514
0.0874868 -3.40225 -3.40225
0.148044 -3.36737 -3.36737
0.087482 -3.33027 -3.33027
0.0874877 -3.36619 -3.36619
0.0266857 -3.4012 -3.4012
0.0261562 -3.47377 -3.47377
0.148786 -3.47604 -3.47604
0.148299 -3.40344 -3.40344
0.0264237 -3.43741 -3.43741
0.0874652 -3.47484 -3.47484
0.148546 -3.43967 -3.43967
0.0874868 -3.40225 -3.40225
0.0874793 -3.43847 -3.43847
0.0261562 -3.47377 -3.47377
0.025605 -3.54694 -3.54694
0.149241 -3.54924 -3.54924
0.148786 -3.47604 -3.47604
0.0258833 -3.51028 -3.51028
0.0874173 -3.54803 -3.54803
0.149017 -3.51256 -3.51256
0.0874652 -3.47484 -3.47484
0.0874445 -3.51136 -3.51136
0.025605 -3.54694 -3.54694
0.0250321 -3.62071 -3.62071
0.149665 -3.62303 -3.62303
0.149241 -3.54924 -3.54924
0.0253213 -3.58375 -3.58375
0.087343 -3.6218 -3.6218
0.149457 -3.58606 -3.58606
0.0874173 -3.54803 -3.54803
0.0873834 -3.58484 -3.58484
0.0250321 -3.62071 -3.62071
0.0244374 -3.69506 -3.69506
0.150059 -3.6974 -3.6974
0.149665 -3.62303 -3.62303
0.0247375 -3.65781 -3.65781
0.0872424 -3.69617 -3.69617
0.149866 -3.66014 -3.66014
0.087343 -3.6218 -3.6218
0.087296 -3.65891 -3.65891
0.0244374 -3.69506 -3.69506
0.0238211 -3.77 -3.77
0.150421 -3.77236 -3.77236
0.150059 -3.6974 -3.6974
0.024132 -3.73246 -3.73246
0.0871156 -3.77112 -3.77112
0.150244 -3.73481 -3.73481
0.0872424 -3.69617 -3.69617
0.0871823 -3.73357 -3.73357
0.0238211 -3.77 -3.77
0.0231831 -3.84551 -3.84551
0.150753 -3.8479 -3.8479
0.150421 -3.77236 -3.77236
0.0235048 -3.80768 -3.80768
0.0869624 -3.84664 -3.84664
0.150591 -3.81006 -3.81006
0.0871156 -3.77112 -3.77112
0.0870423 -3.80881 -3.80881
0.0231831 -3.84551 -3.84551
0.0225234 -3.92159 -3.92159
0.151054 -3.92401 -3.92401
0.150753 -3.8479 -3.8479
0.022856 -3.88348 -3.88348
0.0867831 -3.92274 -3.92274
0.150908 -3.88588 -3.88588
0.0869624 -3.84664 -3.84664
0.086876 -3.88462 -3.88462
0.0225234 -3.92159 -3.92159
0.0218422 -3.99824 -3.99824
0.151324 -4.00068 -4.00068
0.151054 -3.92401 -3.92401
0.0221855 -3.95985 -3.95985
0.0865776 -3.9994 -3.9994
0.151193 -3.96228 -3.96228
0.0867831 -3.92274 -3.92274
0.0866836 -3.961 -3.961
0.0218422 -3.99824 -3.99824
0.0211394 -4.07546 -4.07546
0.151564 -4.07792 -4.07792
0.151324 -4.00068 -4.00068
0.0214935 -4.03678 -4.03678
0.0863459 -4.07663 -4.07663
0.151448 -4.03923 -4.03923
0.0865776 -3.9994 -3.9994
0.086465 -4.03795 -4.03795
0.0211394 -4.07546 -4.07546
0.0204151 -4.15322 -4.15322
0.151772 -4.15571 -4.15571
0.151564 -4.07792 -4.07792
0.02078 -4.11427 -4.11427
0.086088 -4.15441 -4.15441
0.151672 -4.11675 -4.11675
0.0863459 -4.07663 -4.07663
0.0862202 -4.11545 -4.11545
0.0204151 -4.15322 -4.15322
0.0196694 -4.23154 -4.23154
0.15195 -4.23405 -4.23405
0.151772 -4.15571 -4.15571
0.0200449 -4.19231 -4.19231
0.0858042 -4.23274 -4.23274
0.151865 -4.19481 -4.19481
0.086088 -4.15441 -4.15441
0.0859494 -4.1935 -4.1935
0.0196694 -4.23154 -4.23154
0.0189022 -4.3104 -4.3104
0.152098 -4.31293 -4.31293
0.15195 -4.23405 -4.23405
0.0192885 -4.2709 -4.2709
0.0854943 -4.31161 -4.31161
0.152028 -4.27342 -4.27342
0.0858042 -4.23274 -4.23274
0.0856525 -4.2721 -4.2721
0.0189022 -4.3104 -4.3104
0.0181137 -4.3898 -4.3898
0.152215 -4.39236 -4.39236
0.152098 -4.31293 -4.31293
0.0185106 -4.35003 -4.35003
0.0851584 -4.39102 -4.39102
0.15216 -4.35258 -4.35258
0.0854943 -4.31161 -4.31161
0.0853296 -4.35125 -4.35125
0.0181137 -4.3898 -4.3898
0.0173038 -4.46973 -4.46973
0.152301 -4.47231 -4.47231
0.152215 -4.39236 -4.39236
0.0177114 -4.4297 -4.4297
0.0847967 -4.47096 -4.47096
0.152262 -4.43227 -4.43227
0.0851584 -4.39102 -4.39102
0.0849808 -4.43093 -4.43093
0.0173038 -4.46973 -4.46973
0.0164727 -4.55019 -4.55019
0.152357 -4.5528 -4.5528
0.152301 -4.47231 -4.47231
0.0168909 -4.5099 -4.5099
0.0844091 -4.55144 -4.55144
0.152333 -4.51249 -4.51249
0.0847967 -4.47096 -4.47096
0.0846061 -4.51114 -4.51114
0.0164727 -4.55019 -4.55019
0.0156204 -4.63117 -4.63117
0.152382 -4.6338 -4.6338
0.152357 -4.5528 -4.5528
0.0160492 -4.59062 -4.59062
0.0839957 -4.63243 -4.63243
0.152373 -4.59323 -4.59323
0.0844091 -4.55144 -4.55144
0.0842056 -4.59187 -4.59187
0.0156204 -4.63117 -4.63117
0.0147471 -4.71267 -4.71267
0.152378 -4.71533 -4.71533
0.152382 -4.6338 -4.6338
0.0151864 -4.67186 -4.67186
0.0835566 -4.71395 -4.71395
0.152384 -4.6745 -4.6745
0.0839957 -4.63243 -4.63243
0.0837794 -4.67312 -4.67312
0.0147471 -4.71267 -4.71267
0.0138526 -4.79469 -4.79469
0.152343 -4.79736 -4.79736
0.152378 -4.71533 -4.71533
0.0143025 -4.75362 -4.75362
0.0830919 -4.79597 -4.79597
0.152364 -4.75628 -4.75628
0.0835566 -4.71395 -4.71395
0.0833274 -4.75489 -4.75489
0.0138526 -4.79469 -4.79469
0.0129372 -4.8772 -4.8772
0.152277 -4.8799 -4.8799
0.152343 -4.79736 -4.79736
0.0133975 -4.83588 -4.83588
0.0826015 -4.8785 -4.8785
0.152314 -4.83857 -4.83857
0.0830919 -4.79597 -4.79597
0.0828499 -4.83717 -4.83717
0.0129372 -4.8772 -4.8772
0.0120009 -4.96022 -4.96022
0.152182 -4.96294 -4.96294
0.152277 -4.8799 -4.8799
0.0124717 -4.91865 -4.91865
0.0820857 -4.96153 -4.96153
0.152234 -4.92136 -4.92136
0.0826015 -4.8785 -4.8785
0.0823468 -4.91995 -4.91995
0.0120009 -4.96022 -4.96022
0.0110438 -5.04374 -5.04374
0.152057 -5.04648 -5.04648
0.152182 -4.96294 -4.96294
0.0115249 -5.00192 -5.00192
0.0815445 -5.04505 -5.04505
0.152123 -5.00465 -5.00465
0.0820857 -4.96153 -4.96153
0.0818183 -5.00323 -5.00323
0.0110438 -5.04374 -5.04374
0.0100659 -5.12774 -5.12774
0.151902 -5.1305 -5.1305
0.152057 -5.04648 -5.04648
0.0105574 -5.08568 -5.08568
0.080978 -5.12907 -5.12907
0.151983 -5.08843 -5.08843
0.0815445 -5.04505 -5.04505
0.0812644 -5.087 -5.087
0.0100659 -5.12774 -5.12774
0.00906743 -5.21223 -5.21223
0.151717 -5.21501 -5.21501
0.151902 -5.1305 -5.1305
0.00956925 -5.16992 -5.16992
0.0803862 -5.21357 -5.21357
0.151813 -5.1727 -5.1727
0.080978 -5.12907 -5.12907
0.0806852 -5.17126 -5.17126
0.00906743 -5.21223 -5.21223
0.00804837 -5.29719 -5.29719
0.151502 -5.3 -5.3
0.151717 -5.21501 -5.21501
0.00856047 -5.25465 -5.25465
0.0797692 -5.29855 -5.29855
0.151613 -5.25745 -5.25745
0.0803862 -5.21357 -5.21357
0.0800808 -5.256 -5.256
0.00804837 -5.29719 -5.29719
0.00700886 -5.38263 -5.38263
0.151257 -5.38547 -5.38547
0.151502 -5.3 -5.3
0.00753117 -5.33986 -5.33986
0.0791272 -5.384 -5.384
0.151383 -5.34268 -5.34268
0.0797692 -5.29855 -5.29855
0.0794514 -5.34122 -5.34122
0.00700886 -5.38263 -5.38263
0.00594897 -5.46854 -5.46854
0.150983 -5.4714 -5.4714
0.151257 -5.38547 -5.38547
0.00648145 -5.42553 -5.42553
0.0784602 -5.46992 -5.46992
0.151124 -5.42837 -5.42837
0.0791272 -5.384 -5.384
0.0787968 -5.4269 -5.4269
0.00594897 -5.46854 -5.46854
0.00486881 -5.55491 -5.55491
0.15068 -5.55779 -5.55779
0.150983 -5.4714 -5.4714
0.00541142 -5.51167 -5.51167
0.0777684 -5.5563 -5.5563
0.150835 -5.51453 -5.51453
0.0784602 -5.46992 -5.46992
0.0781174 -5.51305 -5.51305
0.00486881 -5.55491 -5.55491
0.00376849 -5.64174 -5.64174
0.150347 -5.64464 -5.64464
0.15068 -5.55779 -5.55779
0.00432117 -5.59827 -5.59827
0.0770518 -5.64314 -5.64314
0.150517 -5.60116 -5.60116
0.0777684 -5.5563 -5.5563
0.0774132 -5.59966 -5.59966
0.00376849 -5.64174 -5.64174
0.0026481 -5.72902 -5.72902
0.149985 -5.73194 -5.73194
0.150347 -5.64464 -5.64464
0.0032108 -5.68532 -5.68532
0.0763105 -5.73043 -5.73043
0.150169 -5.68823 -5.68823
0.0770518 -5.64314 -5.64314
0.0766842 -5.68673 -5.68673
0.0026481 -5.72902 -5.72902
0.00150776 -5.81675 -5.81675
0.149593 -5.81968 -5.81968
0.149985 -5.73194 -5.73194
0.00208042 -5.77283 -5.77283
0.0755447 -5.81817 -5.81817
0.149793 -5.77576 -5.77576
0.0763105 -5.73043 -5.73043
0.0759307 -5.77424 -5.77424
0.00150776 -5.81675 -5.81675
0.000347574 -5.90491 -5.90491
0.149173 -5.90787 -5.90787
0.149593 -5.81968 -5.81968
0.000930141 -5.86077 -5.86077
0.0747545 -5.90635 -5.90635
0.149387 -5.86372 -5.86372
0.0755447 -5.81817 -5.81817
0.0751526 -5.8622 -5.8622
0.000347574 -5.90491 -5.90491
-0.000832346 -5.99351 -5.99351
0.148724 -5.99649 -5.99649
0.149173 -5.90787 -5.90787
-0.000239927 -5.94916 -5.94916
0.0739399 -5.99496 -5.99496
0.148952 -5.95213 -5.95213
0.0747545 -5.90635 -5.90635
0.0743502 -5.9506 -5.9506
-0.000832346 -5.99351 -5.99351
-0.00203188 -6.08254 -6.08254
0.148246 -6.08555 -6.08555
0.148724 -5.99649 -5.99649
-0.00142967 -6.03798 -6.03798
0.0731011 -6.084 -6.084
0.148488 -6.04097 -6.04097
0.0739399 -5.99496 -5.99496
0.0735235 -6.03943 -6.03943
-0.00203188 -6.08254 -6.08254
-0.00325092 -6.172 -6.172
0.147739 -6.17502 -6.17502
0.148246 -6.08555 -6.08555
-0.00263897 -6.12722 -6.12722
0.0722382 -6.17347 -6.17347
0.147996 -6.13023 -6.13023
0.0731011 -6.084 -6.084
0.0726726 -6.12868 -6.12868
-0.00325092 -6.172 -6.172
-0.00448933 -6.26188 -6.26188
0.147204 -6.26492 -6.26492
0.147739 -6.17502 -6.17502
-0.00386771 -6.21689 -6.21689
0.0713513 -6.26335 -6.26335
0.147475 -6.21992 -6.21992
0.0722382 -6.17347 -6.17347
0.0717977 -6.21836 -6.21836
-0.00448933 -6.26188 -6.26188
-0.00574699 -6.35216 -6.35216
0.14664 -6.35523 -6.35523
0.147204 -6.26492 -6.26492
-0.00511576 -6.30697 -6.30697
0.0704406 -6.35365 -6.35365
0.146925 -6.31002 -6.31002
0.0713513 -6.26335 -6.26335
0.0708989 -6.30845 -6.30845
-0.00574699 -6.35216 -6.35216
-0.00702377 -6.44286 -6.44286
0.146048 -6.44594 -6.44594
0.14664 -6.35523 -6.35523
-0.006383 -6.39746 -6.39746
0.0695061 -6.44436 -6.44436
0.146348 -6.40053 -6.40053
0.0704406 -6.35365 -6.35365
0.0699763 -6.39895 -6.39895
-0.00702377 -6.44286 -6.44286
-0.00831956 -6.53396 -6.53396
0.145428 -6.53706 -6.53706
0.146048 -6.44594 -6.44594
-0.0076693 -6.48836 -6.48836
0.0685481 -6.53547 -6.53547
0.145741 -6.49145 -6.49145
0.0695061 -6.44436 -6.44436
0.0690301 -6.48986 -6.48986
-0.00831956 -6.53396 -6.53396
-0.0096342 -6.62545 -6.62545
0.144779 -6.62858 -6.62858
0.145428 -6.53706 -6.53706
-0.00897453 -6.57966 -6.57966
0.0675666 -6.62697 -6.62697
0.145107 -6.58277 -6.58277
0.0685481 -6.53547 -6.53547
0.0680603 -6.58117 -6.58117
-0.0096342 -6.62545 -6.62545
-0.0109676 -6.71734 -6.71734
0.144103 -6.72048 -6.72048
0.144779 -6.62858 -6.62858
-0.0102986 -6.67135 -6.67135
0.0665618 -6.71887 -6.71887
0.144445 -6.67448 -6.67448
0.0675666 -6.62697 -6.62697
0.0670671 -6.67287 -6.67287
-0.0109676 -6.71734 -6.71734
-0.0123195 -6.80962 -6.80962
0.143399 -6.81277 -6.81277
0.144103 -6.72048 -6.72048
-0.0116412 -6.76343 -6.76343
0.0655338 -6.81115 -6.81115
0.143755 -6.76658 -6.76658
0.0665618 -6.71887 -6.71887
0.0660507 -6.76496 -6.76496
-0.0123195 -6.80962 -6.80962
-0.01369 -6.90227 -6.90227
0.142668 -6.90545 -6.90545
0.143399 -6.81277 -6.81277
-0.0130025 -6.8559 -6.8559
0.0644827 -6.90382 -6.90382
0.143037 -6.85906 -6.85906
0.0655338 -6.81115 -6.81115
0.0650111 -6.85744 -6.85744
-0.01369 -6.90227 -6.90227
-0.0150787 -6.9953 -6.9953
0.141908 -6.9985 -6.9985
0.142668 -6.90545 -6.90545
-0.014382 -6.94874 -6.94874
0.0634088 -6.99686 -6.99686
0.142291 -6.95193 -6.95193
0.0644827 -6.90382 -6.90382
0.0639486 -6.95029 -6.95029
-0.0150787 -6.9953 -6.9953
-0.0164856 -7.0887 -7.0887
0.141122 -7.09192 -7.09192
0.141908 -6.9985 -6.9985
-0.0157799 -7.04196 -7.04196
0.0623121 -7.09027 -7.09027
0.141519 -7.04516 -7.04516
0.0634088 -6.99686 -6.99686
0.0628633 -7.04352 -7.04352
-0.0164856 -7.0887 -7.0887
-0.0179105 -7.18247 -7.18247
0.140308 -7.1857 -7.1857
0.141122 -7.09192 -7.09192
-0.0171958 -7.13554 -7.13554
0.0611927 -7.18404 -7.18404
0.140718 -7.13876 -7.13876
0.0623121 -7.09027 -7.09027
0.0617552 -7.13711 -7.13711
-0.0179105 -7.18247 -7.18247
-0.0193533 -7.27659 -7.27659
0.139467 -7.27984 -7.27984
0.140308 -7.1857 -7.1857
-0.0186297 -7.22948 -7.22948
0.0600509 -7.27818 -7.27818
0.139891 -7.23272 -7.23272
0.0611927 -7.18404 -7.18404
0.0606246 -7.23107 -7.23107
-0.0193533 -7.27659 -7.27659
-0.0208138 -7.37107 -7.37107
0.1386 -7.37433 -7.37433
0.139467 -7.27984 -7.27984
-0.0200813 -7.32378 -7.32378
0.0588868 -7.37266 -7.37266
0.139037 -7.32704 -7.32704
0.0600509 -7.27818 -7.27818
0.0594716 -7.32538 -7.32538
-0.0208138 -7.37107 -7.37107
-0.0222918 -7.46589 -7.46589
0.137705 -7.46918 -7.46918
0.1386 -7.37433 -7.37433
-0.0215506 -7.41844 -7.41844
0.0577005 -7.4675 -7.4675
0.138156 -7.42171 -7.42171
0.0588868 -7.37266 -7.37266
0.0582964 -7.42004 -7.42004
-0.0222918 -7.46589 -7.46589
-0.0237873 -7.56106 -7.56106
0.136784 -7.56436 -7.56436
0.137705 -7.46918 -7.46918
-0.0230374 -7.51343 -7.51343
0.0564923 -7.56267 -7.56267
0.137248 -7.51673 -7.51673
0.0577005 -7.4675 -7.4675
0.0570991 -7.51504 -7.51504
-0.0237873 -7.56106 -7.56106
-0.0253 -7.65657 -7.65657
0.135837 -7.65988 -7.65988
0.136784 -7.56436 -7.56436
-0.0245415 -7.60877 -7.60877
0.0552621 -7.65819 -7.65819
0.136314 -7.61208 -7.61208
0.0564923 -7.56267 -7.56267
0.0558799 -7.61039 -7.61039
-0.0253 -7.65657 -7.65657
-0.0268299 -7.7524 -7.7524
0.134863 -7.75574 -7.75574
0.135837 -7.65988 -7.65988
-0.0260628 -7.70444 -7.70444
0.0540103 -7.75403 -7.75403
0.135353 -7.70777 -7.70777
0.0552621 -7.65819 -7.65819
0.0546389 -7.70607 -7.70607
-0.0268299 -7.7524 -7.7524
-0.0283766 -7.84857 -7.84857
0.133863 -7.85192 -7.85192
0.134863 -7.75574 -7.75574
-0.0276011 -7.80044 -7.80044
0.052737 -7.85021 -7.85021
0.134366 -7.80378 -7.80378
0.0540103 -7.75403 -7.75403
0.0533763 -7.80208 -7.80208
-0.0283766 -7.84857 -7.84857
-0.0299401 -7.94505 -7.94505
0.132837 -7.94842 -7.94842
0.133863 -7.85192 -7.85192
-0.0291563 -7.89677 -7.89677
0.0514423 -7.9467 -7.9467
0.133353 -7.90013 -7.90013
0.052737 -7.85021 -7.85021
0.0520923 -7.89841 -7.89841
-0.0299401 -7.94505 -7.94505
-0.0315202 -8.04185 -8.04185
0.131786 -8.04523 -8.04523
0.132837 -7.94842 -7.94842
-0.0307281 -7.99341 -7.99341
0.0501264 -8.04351 -8.04351
0.132315 -7.99678 -7.99678
0.0514423 -7.9467 -7.9467
0.050787 -7.99506 -7.99506
-0.0315202 -8.04185 -8.04185
-0.0331167 -8.13896 -8.13896
0.130708 -8.14236 -8.14236
0.131786 -8.04523 -8.04523
-0.0323164 -8.09037 -8.09037
0.0487895 -8.14062 -8.14062
0.13125 -8.09375 -8.09375
0.0501264 -8.04351 -8.04351
0.0494606 -8.09203 -8.09203
-0.0331167 -8.13896 -8.13896
-0.0347295 -8.23637 -8.23637
0.129606 -8.23978 -8.23978
0.130708 -8.14236 -8.14236
-0.0339211 -8.18763 -8.18763
0.0474318 -8.23805 -8.23805
0.13016 -8.19103 -8.19103
0.0487895 -8.14062 -8.14062
0.0481132 -8.1893 -8.1893
-0.0347295 -8.23637 -8.23637
-0.0363584 -8.33409 -8.33409
0.128478 -8.33751 -8.33751
0.129606 -8.23978 -8.23978
-0.0355419 -8.28519 -8.28519
0.0460533 -8.33577 -8.33577
0.129045 -8.28861 -8.28861
0.0474318 -8.23805 -8.23805
0.0467451 -8.28687 -8.28687
-0.0363584 -8.33409 -8.33409
-0.0380031 -8.4321 -8.4321
0.127325 -8.43553 -8.43553
0.128478 -8.33751 -8.33751
-0.0371788 -8.38306 -8.38306
0.0446544 -8.43378 -8.43378
0.127904 -8.38649 -8.38649
0.0460533 -8.33577 -8.33577
0.0453564 -8.38474 -8.38474
-0.0380031 -8.4321 -8.4321
-0.0396637 -8.53039 -8.53039
0.126147 -8.53384 -8.53384
0.127325 -8.43553 -8.43553
-0.0388314 -8.48121 -8.48121
0.0432351 -8.53209 -8.53209
0.126739 -8.48465 -8.48465
0.0446544 -8.43378 -8.43378
0.0439473 -8.4829 -8.4829
-0.0396637 -8.53039 -8.53039
-0.0413397 -8.62897 -8.62897
0.124944 -8.63244 -8.63244
0.126147 -8.53384 -8.53384
-0.0404997 -8.57964 -8.57964
0.0417957 -8.63067 -8.63067
0.125548 -8.5831 -8.5831
0.0432351 -8.53209 -8.53209
0.0425179 -8.58134 -8.58134
-0.0413397 -8.62897 -8.62897
-0.0430311 -8.72782 -8.72782
0.123717 -8.7313 -8.7313
0.124944 -8.63244 -8.63244
-0.0421835 -8.67836 -8.67836
0.0403363 -8.72954 -8.72954
0.124333 -8.68184 -8.68184
0.0417957 -8.63067 -8.63067
0.0410685 -8.68007 -8.68007
-0.0430311 -8.72782 -8.72782
-0.0447378 -8.82695 -8.82695
0.122465 -8.83044 -8.83044
0.123717 -8.7313 -8.7313
-0.0438826 -8.77735 -8.77735
0.0388572 -8.82867 -8.82867
0.123094 -8.78084 -8.78084
0.0403363 -8.72954 -8.72954
0.0395992 -8.77907 -8.77907
-0.0447378 -8.82695 -8.82695
-0.0464594 -8.92635 -8.92635
0.121189 -8.92985 -8.92985
0.122465 -8.83044 -8.83044
-0.0455967 -8.87662 -8.87662
0.0373584 -8.92807 -8.92807
0.12183 -8.88012 -8.88012
0.0388572 -8.82867 -8.82867
0.0381102 -8.87834 -8.87834
-0.0464594 -8.92635 -8.92635
-0.0481959 -9.026 -9.026
0.119889 -9.02952 -9.02952
0.121189 -8.92985 -8.92985
-0.0473258 -8.97614 -8.97614
0.0358402 -9.02773 -9.02773
0.120542 -8.97965 -8.97965
0.0373584 -8.92807 -8.92807
0.0366017 -8.97787 -8.97787
-0.0481959 -9.026 -9.026
-0.049947 -9.12591 -9.12591
0.118565 -9.12944 -9.12944
0.119889 -9.02952 -9.02952
-0.0490696 -9.07592 -9.07592
0.0343028 -9.12765 -9.12765
0.11923 -9.07945 -9.07945
0.0358402 -9.02773 -9.02773
0.0350739 -9.07766 -9.07766
-0.049947 -9.12591 -9.12591
-0.0517125 -9.22607 -9.22607
0.117218 -9.22961 -9.22961
0.118565 -9.12944 -9.12944
-0.0508279 -9.17596 -9.17596
0.0327463 -9.22782 -9.22782
0.117895 -9.1795 -9.1795
0.0343028 -9.12765 -9.12765
0.0335269 -9.1777 -9.1777
-0.0517125 -9.22607 -9.22607
-0.0534923 -9.32648 -9.32648
0.115847 -9.33003 -9.33003
0.117218 -9.22961 -9.22961
-0.0526006 -9.27624 -9.27624
0.031171 -9.32823 -9.32823
0.116536 -9.27979 -9.27979
0.0327463 -9.22782 -9.22782
0.031961 -9.27799 -9.27799
-0.0534923 -9.32648 -9.32648
-0.0552862 -9.42712 -9.42712
0.114453 -9.43069 -9.43069
0.115847 -9.33003 -9.33003
-0.0543875 -9.37677 -9.37677
0.0295771 -9.42888 -9.42888
0.115153 -9.38033 -9.38033
0.031171 -9.32823 -9.32823
0.0303764 -9.37852 -9.37852
-0.0552862 -9.42712 -9.42712
-0.0570939 -9.528 -9.528
0.113036 -9.53158 -9.53158
0.114453 -9.43069 -9.43069
-0.0561883 -9.47753 -9.47753
0.0279646 -9.52976 -9.52976
0.113748 -9.4811 -9.4811
0.0295771 -9.42888 -9.42888
0.0287731 -9.47929 -9.47929
-0.0570939 -9.528 -9.528
-0.0589153 -9.62911 -9.62911
0.111596 -9.63269 -9.63269
0.113036 -9.53158 -9.53158
-0.0580029 -9.57853 -9.57853
0.0263339 -9.63088 -9.63088
0.112319 -9.58211 -9.58211
0.0279646 -9.52976 -9.52976
0.0271515 -9.58029 -9.58029
-0.0589153 -9.62911 -9.62911
-0.0607502 -9.73044 -9.73044
0.110134 -9.73403 -9.73403
0.111596 -9.63269 -9.63269
-0.0598311 -9.67974 -9.67974
0.0246851 -9.73221 -9.73221
0.110868 -9.68334 -9.68334
0.0263339 -9.63088 -9.63088
0.0255118 -9.68152 -9.68152
-0.0607502 -9.73044 -9.73044
-0.0625984 -9.83198 -9.83198
0.108649 -9.83559 -9.83559
0.110134 -9.73403 -9.73403
-0.0616726 -9.78118 -9.78118
0.0230185 -9.83376 -9.83376
0.109394 -9.78478 -9.78478
0.0246851 -9.73221 -9.73221
0.023854 -9.78296 -9.78296
-0.0625984 -9.83198 -9.83198
-0.0644596 -9.93374 -9.93374
0.107141 -9.93736 -9.93736
0.108649 -9.83559 -9.83559
-0.0635274 -9.88284 -9.88284
0.0213341 -9.93553 -9.93553
0.107898 -9.88645 -9.88645
0.0230185 -9.83376 -9.83376
0.0221785 -9.88462 -9.88462
-0.0644596 -9.93374 -9.93374
-0.0663337 -10.0357 -10.0357
0.105612 -10.0393 -10.0393
0.107141 -9.93736 -9.93736
-0.0653951 -9.9847 -9.9847
0.0196323 -10.0375 -10.0375
0.106379 -9.98832 -9.98832
0.0213341 -9.93553 -9.93553
0.0204854 -9.98649 -9.98649
-0.0663337 -10.0357 -10.0357
-0.0682206 -10.1379 -10.1379
0.10406 -10.1415 -10.1415
0.105612 -10.0393 -10.0393
-0.0672756 -10.0868 -10.0868
0.0179133 -10.1397 -10.1397
0.104839 -10.0904 -10.0904
0.0196323 -10.0375 -10.0375
0.0187749 -10.0886 -10.0886
-0.0682206 -10.1379 -10.1379
-0.0701199 -10.2402 -10.2402
0.102487 -10.2439 -10.2439
0.10406 -10.1415 -10.1415
-0.0691687 -10.189 -10.189
0.0161771 -10.242 -10.242
0.103277 -10.1927 -10.1927
0.0179133 -10.1397 -10.1397
0.0170473 -10.1908 -10.1908
-0.0701199 -10.2402 -10.2402
-0.0720314 -10.3428 -10.3428
0.100893 -10.3464 -10.3464
0.102487 -10.2439 -10.2439
-0.0710741 -10.2915 -10.2915
0.0144241 -10.3446 -10.3446
0.101693 -10.2951 -10.2951
0.0161771 -10.242 -10.242
0.0153027 -10.2933 -10.2933
-0.0720314 -10.3428 -10.3428
-0.073955 -10.4455 -10.4455
0.0992773 -10.4492 -10.4492
0.100893 -10.3464 -10.3464
-0.0729917 -10.3941 -10.3941
0.0126544 -10.4473 -10.4473
0.100088 -10.3978 -10.3978
0.0144241 -10.3446 -10.3446
0.0135413 -10.3959 -10.3959
-0.073955 -10.4455 -10.4455
-0.0758905 -10.5484 -10.5484
0.0976406 -10.5521 -10.5521
0.0992773 -10.4492 -10.4492
-0.0749213 -10.497 -10.497
0.0108683 -10.5503 -10.5503
0.0984616 -10.5006 -10.5006
0.0126544 -10.4473 -10.4473
0.0117634 -10.4988 -10.4988
-0.0758905 -10.5484 -10.5484
-0.0778377 -10.6515 -10.6515
0.095983 -10.6552 -10.6552
0.0976406 -10.5521 -10.5521
-0.0768627 -10.6 -10.6
0.00906589 -10.6534 -10.6534
0.0968144 -10.6036 -10.6036
0.0108683 -10.5503 -10.5503
0.0099691 -10.6018 -10.6018
-0.0778377 -10.6515 -10.6515
-0.0797963 -10.7548 -10.7548
0.0943048 -10.7585 -10.7585
0.095983 -10.6552 -10.6552
-0.0788156 -10.7031 -10.7031
0.00724748 -10.7566 -10.7566
0.0951465 -10.7068 -10.7068
0.00906589 -10.6534 -10.6534
0.00815867 -10.705 -10.705
-0.0797963 -10.7548 -10.7548
-0.0817661 -10.8582 -10.8582
0.0926062 -10.8619 -10.8619
0.0943048 -10.7585 -10.7585
-0.0807798 -10.8065 -10.8065
0.00541324 -10.86 -10.86
0.0934581 -10.8102 -10.8102
0.00724748 -10.7566 -10.7566
0.00633232 -10.8083 -10.8083
-0.0817661 -10.8582 -10.8582
-0.0837469 -10.9618 -10.9618
0.0908874 -10.9655 -10.9655
0.0926062 -10.8619 -10.8619
-0.0827551 -10.91 -10.91
0.00356338 -10.9636 -10.9636
0.0917493 -10.9137 -10.9137
0.00541324 -10.86 -10.86
0.00449025 -10.9118 -10.9118
-0.0837469 -10.9618 -10.9618
-0.0857386 -11.0655 -11.0655
0.0891486 -11.0692 -11.0692
0.0908874 -10.9655 -10.9655
-0.0847414 -11.0136 -11.0136
0.00169813 -11.0674 -11.0674
0.0900205 -11.0173 -11.0173
0.00356338 -10.9636 -10.9636
0.00263267 -11.0155 -11.0155
-0.0857386 -11.0655 -11.0655
-0.0877408 -11.1694 -11.1694
0.08739 -11.1731 -11.1731
0.0891486 -11.0692 -11.0692
-0.0867384 -11.1175 -11.1175
-0.000182317 -11.1712 -11.1712
0.0882717 -11.1212 -11.1212
0.00169813 -11.0674 -11.0674
0.00075979 -11.1193 -11.1193
-0.0877408 -11.1694 -11.1694
-0.0897534 -11.2734 -11.2734
0.0856118 -11.2771 -11.2771
0.08739 -11.1731 -11.1731
-0.0887458 -11.2214 -11.2214
-0.00207774 -11.2753 -11.2753
0.0865033 -11.2251 -11.2251
-0.000182317 -11.1712 -11.1712
-0.00112817 -11.2232 -11.2232
-0.0897534 -11.2734 -11.2734
-0.0917762 -11.3776 -11.3776
0.0838143 -11.3813 -11.3813
0.0856118 -11.2771 -11.2771
-0.0907636 -11.3255 -11.3255
-0.00398791 -11.3794 -11.3794
0.0847155 -11.3292 -11.3292
-0.00207774 -11.2753 -11.2753
-0.00303099 -11.3273 -11.3273
-0.0917762 -11.3776 -11.3776
-0.0938089 -11.4819 -11.4819
0.0819976 -11.4856 -11.4856
0.0838143 -11.3813 -11.3813
-0.0927914 -11.4297 -11.4297
-0.00591263 -11.4837 -11.4837
0.0829083 -11.4334 -11.4334
-0.00398791 -11.3794 -11.3794
-0.00494847 -11.4316 -11.4316
-0.0938089 -11.4819 -11.4819
-0.0958514 -11.5863 -11.5863
0.0801621 -11.59 -11.59
0.0819976 -11.4856 -11.4856
-0.094829 -11.5341 -11.5341
-0.00785168 -11.5881 -11.5881
0.0810822 -11.5378 -11.5378
-0.00591263 -11.4837 -11.4837
-0.00688038 -11.5359 -11.5359
-0.0958514 -11.5863 -11.5863
-0.0979034 -11.6908 -11.6908
0.0783078 -11.6945 -11.6945
0.0801621 -11.59 -11.59
-0.0968762 -11.6385 -11.6385
-0.00980483 -11.6927 -11.6927
0.0792372 -11.6423 -11.6423
-0.00785168 -11.5881 -11.5881
-0.00882651 -11.6404 -11.6404
-0.0979034 -11.6908 -11.6908
-0.0999647 -11.7955 -11.7955
0.076435 -11.7992 -11.7992
0.0783078 -11.6945 -11.6945
-0.0989329 -11.7431 -11.7431
-0.0117719 -11.7973 -11.7973
0.0773737 -11.7468 -11.7468
-0.00980483 -11.6927 -11.6927
-0.0107866 -11.745 -11.745
-0.0999647 -11.7955 -11.7955
-0.102035 -11.9002 -11.9002
0.074544 -11.9039 -11.9039
0.076435 -11.7992 -11.7992
-0.100999 -11.8478 -11.8478
-0.0137526 -11.9021 -11.9021
0.0754918 -11.8516 -11.8516
-0.0117719 -11.7973 -11.7973
-0.0127605 -11.8497 -11.8497
-0.102035 -11.9002 -11.9002
-0.104114 -12.0051 -12.0051
0.0726349 -12.0088 -12.0088
0.074544 -11.9039 -11.9039
-0.103074 -11.9526 -11.9526
-0.0157468 -12.0069 -12.0069
0.0735917 -11.9564 -11.9564
-0.0137526 -11.9021 -11.9021
-0.014748 -11.9545 -11.9545
-0.104114 -12.0051 -12.0051
-0.106202 -12.11 -12.11
0.070708 -12.1138 -12.1138
0.0726349 -12.0088 -12.0088
-0.105157 -12.0575 -12.0575
-0.0177541 -12.1119 -12.1119
0.0716737 -12.0613 -12.0613
-0.0157468 -12.0069 -12.0069
-0.0167488 -12.0594 -12.0594
-0.106202 -12.11 -12.11
-0.108298 -12.2151 -12.2151
0.0687635 -12.2188 -12.2188
0.070708 -12.1138 -12.1138
-0.107249 -12.1625 -12.1625
-0.0197745 -12.2169 -12.2169
0.069738 -12.1663 -12.1663
-0.0177541 -12.1119 -12.1119
-0.0187627 -12.1644 -12.1644
-0.108298 -12.2151 -12.2151
-0.110403 -12.3202 -12.3202
0.0668017 -12.3239 -12.3239
0.0687635 -12.2188 -12.2188
-0.10935 -12.2676 -12.2676
-0.0218077 -12.3221 -12.3221
0.0677848 -12.2714 -12.2714
-0.0197745 -12.2169 -12.2169
-0.0207896 -12.2695 -12.2695
-0.110403 -12.3202 -12.3202
-0.112515 -12.4254 -12.4254
0.0648226 -12.4292 -12.4292
0.0668017 -12.3239 -12.3239
-0.111458 -12.3728 -12.3728
-0.0238535 -12.4273 -12.4273
0.0658143 -12.3765 -12.3765
-0.0218077 -12.3221 -12.3221
-0.0228291 -12.3747 -12.3747
-0.112515 -12.4254 -12.4254
-0.114635 -12.5307 -12.5307
0.0628267 -12.5344 -12.5344
0.0648226 -12.4292 -12.4292
-0.113574 -12.4781 -12.4781
-0.0259116 -12.5326 -12.5326
0.0638268 -12.4818 -12.4818
-0.0238535 -12.4273 -12.4273
-0.024881 -12.4799 -12.4799
-0.114635 -12.5307 -12.5307
-0.116763 -12.6361 -12.6361
0.0608139 -12.6398 -12.6398
0.0628267 -12.5344 -12.5344
-0.115698 -12.5834 -12.5834
-0.0279819 -12.6379 -12.6379
0.0618224 -12.5871 -12.5871
-0.0259116 -12.5326 -12.5326
-0.0269453 -12.5852 -12.5852
-0.116763 -12.6361 -12.6361
-0.118898 -12.7415 -12.7415
0.0587846 -12.7452 -12.7452
0.0608139 -12.6398 -12.6398
-0.11783 -12.6888 -12.6888
-0.0300642 -12.7434 -12.7434
0.0598013 -12.6925 -12.6925
-0.0279819 -12.6379 -12.6379
-0.0290216 -12.6906 -12.6906
-0.118898 -12.7415 -12.7415
-0.121041 -12.847 -12.847
0.0567388 -12.8507 -12.8507
0.0587846 -12.7452 -12.7452
-0.119969 -12.7942 -12.7942
-0.0321584 -12.8488 -12.8488
0.0577638 -12.798 -12.798
-0.0300642 -12.7434 -12.7434
-0.0311098 -12.7961 -12.7961
-0.121041 -12.847 -12.847
-0.12319 -12.9525 -12.9525
0.0546767 -12.9563 -12.9563
0.0567388 -12.8507 -12.8507
-0.122115 -12.8998 -12.8998
-0.0342644 -12.9544 -12.9544
0.0557098 -12.9035 -12.9035
-0.0321584 -12.8488 -12.8488
-0.0332099 -12.9016 -12.9016
-0.12319 -12.9525 -12.9525
-0.125347 -13.0581 -13.0581
0.0525979 -13.0618 -13.0618
0.0546767 -12.9563 -12.9563
-0.124268 -13.0053 -13.0053
-0.0363824 -13.06 -13.06
0.0536394 -13.009 -13.009
-0.0342644 -12.9544 -12.9544
-0.0353219 -13.0072 -13.0072
-0.125347 -13.0581 -13.0581
-0.127511 -13.1638 -13.1638
0.0505023 -13.1675 -13.1675
0.0525979 -13.0618 -13.0618
-0.126428 -13.1109 -13.1109
-0.0385126 -13.1656 -13.1656
0.0515522 -13.1147 -13.1147
-0.0363824 -13.06 -13.06
-0.0374459 -13.1128 -13.1128
-0.127511 -13.1638 -13.1638
-0.129682 -13.2694 -13.2694
0.0483889 -13.2732 -13.2732
0.0505023 -13.1675 -13.1675
-0.128596 -13.2166 -13.2166
-0.0406557 -13.2713 -13.2713
0.0494478 -13.2203 -13.2203
-0.0385126 -13.1656 -13.1656
-0.0395825 -13.2184 -13.2184
-0.129682 -13.2694 -13.2694
-0.131861 -13.3751 -13.3751
0.0462571 -13.3789 -13.3789
0.0483889 -13.2732 -13.2732
-0.130771 -13.3223 -13.3223
-0.0428123 -13.377 -13.377
0.0473254 -13.326 -13.326
-0.0406557 -13.2713 -13.2713
-0.0417323 -13.3241 -13.3241
-0.131861 -13.3751 -13.3751
-0.134048 -13.4809 -13.4809
0.0441052 -13.4846 -13.4846
0.0462571 -13.3789 -13.3789
-0.132953 -13.428 -13.428
-0.0449829 -13.4827 -13.4827
0.0451836 -13.4317 -13.4317
-0.0428123 -13.377 -13.377
-0.0438959 -13.4299 -13.4299
-0.134048 -13.4809 -13.4809
-0.136241 -13.5866 -13.5866
0.0419339 -13.5903 -13.5903
0.0441052 -13.4846 -13.4846
-0.135144 -13.5337 -13.5337
-0.0471662 -13.5885 -13.5885
0.043022 -13.5375 -13.5375
-0.0449829 -13.4827 -13.4827
-0.0460731 -13.5356 -13.5356
-0.136241 -13.5866 -13.5866
-0.138437 -13.6924 -13.6924
0.0397464 -13.6961 -13.6961
0.0419339 -13.5903 -13.5903
-0.137339 -13.6395 -13.6395
-0.0493578 -13.6942 -13.6942
0.0408414 -13.6432 -13.6432
-0.0471662 -13.5885 -13.5885
-0.0482615 -13.6414 -13.6414
-0.138437 -13.6924 -13.6924
-0.140633 -13.7981 -13.7981
0.0375569 -13.8019 -13.8019
0.0397464 -13.6961 -13.6961
-0.139535 -13.7453 -13.7453
-0.0515485 -13.8 -13.8
0.038651 -13.749 -13.749
-0.0493578 -13.6942 -13.6942
-0.0504537 -13.7471 -13.7471
-0.140633 -13.7981 -13.7981
-0.142822 -13.9038 -13.9038
0.0353793 -13.9076 -13.9076
0.0375569 -13.8019 -13.8019
-0.141729 -13.851 -13.851
-0.0537326 -13.9057 -13.9057
0.0364659 -13.8548 -13.8548
-0.0515485 -13.8 -13.8
-0.0526418 -13.8528 -13.8528
0 0 0
0.00238995 -0.000251347 -0.000251347
0.00411603 -0.0011741 -0.0011741
0 0 0
0.00115854 7.05425e-05 7.05425e-05
0.00322124 -0.000601326 -0.000601326
0.00199765 -0.000421764 -0.000421764
0 0 0
0.00158615 -0.000129489 -0.000129489
0.00238995 -0.000251347 -0.000251347
0.00496274 -0.00187306 -0.00187306
0.0085715 -0.0033865 -0.0033865
0.00411603 -0.0011741 -0.0011741
0.00366032 -0.000907044 -0.000907044
0.00670625 -0.00250019 -0.00250019
0.00632261 -0.0021735 -0.0021735
0.00322124 -0.000601326 -0.000601326
0.00493593 -0.00140596 -0.00140596
0.00496274 -0.00187306 -0.00187306
0.00764222 -0.00467596 -0.00467596
0.0130667 -0.00642517 -0.00642517
0.0085715 -0.0033865 -0.0033865
0.00629441 -0.00313453 -0.00313453
0.0103013 -0.00542896 -0.00542896
0.0108219 -0.00479911 -0.00479911
0.00670625 -0.00250019 -0.00250019
0.00849931 -0.00384213 -0.00384213
0.00764222 -0.00467596 -0.00467596
0.0103426 -0.0085557 -0.0085557
0.0175379 -0.0103806 -0.0103806
0.0130667 -0.00642517 -0.00642517
0.00899287 -0.00648416 -0.00648416
0.0139017 -0.00935518 -0.00935518
0.0153064 -0.00828293 -0.00828293
0.0103013 -0.00542896 -0.00542896
0.0121038 -0.00726637 -0.00726637
0.0103426 -0.0085557 -0.0085557
0.0130321 -0.0134837 -0.0134837
0.0219689 -0.0153179 -0.0153179
0.0175379 -0.0103806 -0.0103806
0.01169 -0.0108894 -0.0108894
0.0174722 -0.0142906 -0.0142906
0.0197582 -0.0127237 -0.0127237
0.0139017 -0.00935518 -0.00935518
0.0156913 -0.0116956 -0.0116956
0.0130321 -0.0134837 -0.0134837
0.0156943 -0.0194489 -0.0194489
0.0263679 -0.0212751 -0.0212751
0.0219689 -0.0153179 -0.0153179
0.0143668 -0.0163368 -0.0163368
0.0210093 -0.020253 -0.020253
0.0241722 -0.0181679 -0.0181679
0.0174722 -0.0142906 -0.0142906
0.0192448 -0.0171428 -0.0171428
0.0156943 -0.0194489 -0.0194489
0.0183296 -0.0264495 -0.0264495
0.0307361 -0.0282631 -0.0282631
0.0263679 -0.0212751 -0.0212751
0.0170152 -0.0228199 -0.0228199
0.0245146 -0.0272475 -0.0272475
0.0285557 -0.0246399 -0.0246399
0.0210093 -0.020253 -0.020253
0.0227657 -0.0236211 -0.0236211
0.0183296 -0.0264495 -0.0264495
0.0209393 -0.0344821 -0.0344821
0.0350766 -0.036285 -0.036285
0.0307361 -0.0282631 -0.0282631
0.0196375 -0.030337 -0.030337
0.0279916 -0.0352749 -0.0352749
0.0329098 -0.0321449 -0.0321449
0.0245146 -0.0272475 -0.0272475
0.0262565 -0.0311322 -0.0311322
0.0209393 -0.0344821 -0.0344821
0.0235262 -0.0435432 -0.0435432
0.0393895 -0.0453378 -0.0453378
0.0350766 -0.036285 -0.036285
0.0222354 -0.0388844 -0.0388844
0.0314425 -0.044332 -0.044332
0.0372364 -0.0406828 -0.0406828
0.0279916 -0.0352749 -0.0352749
0.0297202 -0.039675 -0.039675
0.0235262 -0.0435432 -0.0435432
0.026092 -0.0536283 -0.0536283
0.0436753 -0.0554171 -0.0554171
0.0393895 -0.0453378 -0.0453378
0.0248117 -0.048458 -0.048458
0.0348688 -0.0544144 -0.0544144
0.0415358 -0.0502495 -0.0502495
0.0314425 -0.044332 -0.044332
0.0331586 -0.0492453 -0.0492453
0.026092 -0.0536283 -0.0536283
0.0286379 -0.0647324 -0.0647324
0.0479337 -0.0665174 -0.0665174
0.0436753 -0.0554171 -0.0554171
0.0273674 -0.0590532 -0.0590532
0.0382712 -0.065517 -0.065517
0.0458079 -0.06084 -0.06084
0.0348688 -0.0544144 -0.0544144
0.0365729 -0.0598385 -0.0598385
0.0286379 -0.0647324 -0.0647324
0.0311643 -0.0768504 -0.0768504
0.0521646 -0.078633 -0.078633
0.0479337 -0.0665174 -0.0665174
0.0299035 -0.070665 -0.070665
0.0416499 -0.0776343 -0.0776343
0.0500527 -0.0724486 -0.0724486
0.0382712 -0.065517 -0.065517
0.0399635 -0.0714492 -0.0714492
0.0311643 -0.0768504 -0.0768504
0.0336714 -0.089977 -0.089977
0.0563676 -0.0917583 -0.0917583
0.0521646 -0.078633 -0.078633
0.0324203 -0.0832879 -0.0832879
0.0450051 -0.0907607 -0.0907607
0.0542696 -0.0850698 -0.0850698
0.0416499 -0.0776343 -0.0776343
0.0433305 -0.0840717 -0.0840717
0.0336714 -0.089977 -0.089977
0.0361592 -0.104107 -0.104107
0.0605423 -0.105888 -0.105888
0.0563676 -0.0917583 -0.0917583
0.0349178 -0.0969168 -0.0969168
0.0483364 -0.104891 -0.104891
0.0584585 -0.0986978 -0.0986978
0.0450051 -0.0907607 -0.0907607
0.0466737 -0.0977007 -0.0977007
0.0361592 -0.104107 -0.104107
0.0386274 -0.119234 -0.119234
0.0646884 -0.121016 -0.121016
0.0605423 -0.105888 -0.105888
0.0373958 -0.111546 -0.111546
0.0516435 -0.120019 -0.120019
0.062619 -0.113327 -0.113327
0.0483364 -0.104891 -0.104891
0.049993 -0.112331 -0.112331
0.0386274 -0.119234 -0.119234
0.0410757 -0.135354 -0.135354
0.0688055 -0.137136 -0.137136
0.0646884 -0.121016 -0.121016
0.0398541 -0.12717 -0.12717
0.0549262 -0.13614 -0.13614
0.0667506 -0.128952 -0.128952
0.0516435 -0.120019 -0.120019
0.053288 -0.127956 -0.127956
0.0410757 -0.135354 -0.135354
0.0435039 -0.152461 -0.152461
0.0728932 -0.154245 -0.154245
0.0688055 -0.137136 -0.137136
0.0422923 -0.143784 -0.143784
0.0581842 -0.153248 -0.153248
0.070853 -0.145567 -0.145567
0.0549262 -0.13614 -0.13614
0.0565583 -0.144571 -0.144571
0.0435039 -0.152461 -0.152461
0.0459114 -0.170548 -0.170548
0.0769512 -0.172335 -0.172335
0.0728932 -0.154245 -0.154245
0.0447102 -0.161382 -0.161382
0.061417 -0.171337 -0.171337
0.0749259 -0.163167 -0.163167
0.0581842 -0.153248 -0.153248
0.0598038 -0.16217 -0.16217
0.0459114 -0.170548 -0.170548
0.0482982 -0.189612 -0.189612
0.0809791 -0.191401 -0.191401
0.0769512 -0.172335 -0.172335
0.0471074 -0.179959 -0.179959
0.0646244 -0.190403 -0.190403
0.0789689 -0.181746 -0.181746
0.061417 -0.171337 -0.171337
0.0630239 -0.180749 -0.180749
0.0482982 -0.189612 -0.189612
0.0506637 -0.209646 -0.209646
0.0849766 -0.211439 -0.211439
0.0809791 -0.191401 -0.191401
0.0494836 -0.199508 -0.199508
0.067806 -0.21044 -0.21044
0.0829817 -0.201299 -0.201299
0.0646244 -0.190403 -0.190403
0.0662184 -0.2003 -0.2003
0.0506637 -0.209646 -0.209646
0.0530077 -0.230645 -0.230645
0.0889435 -0.232442 -0.232442
0.0849766 -0.211439 -0.211439
0.0518384 -0.220026 -0.220026
0.0709614 -0.231441 -0.231441
0.0869639 -0.22182 -0.22182
0.067806 -0.21044 -0.21044
0.069387 -0.22082 -0.22082
0.0530077 -0.230645 -0.230645
0.0553299 -0.252604 -0.252604
0.0928793 -0.254405 -0.254405
0.0889435 -0.232442 -0.232442
0.0541716 -0.241505 -0.241505
0.0740905 -0.253403 -0.253403
0.0909153 -0.243304 -0.243304
0.0709614 -0.231441 -0.231441
0.0725293 -0.242302 -0.242302
0.0553299 -0.252604 -0.252604
0.05763 -0.275516 -0.275516
0.0967838 -0.277322 -0.277322
0.0928793 -0.254405 -0.254405
0.0564827 -0.263941 -0.263941
0.0771927 -0.276318 -0.276318
0.0948355 -0.265745 -0.265745
0.0740905 -0.253403 -0.253403
0.075645 -0.264742 -0.264742
0.05763 -0.275516 -0.275516
0.0599075 -0.299378 -0.299378
0.100657 -0.301189 -0.301189
0.0967838 -0.277322 -0.277322
0.0587716 -0.287329 -0.287329
0.080268 -0.300183 -0.300183
0.0987241 -0.289137 -0.289137
0.0771927 -0.276318 -0.276318
0.0787337 -0.288132 -0.288132
0.0599075 -0.299378 -0.299378
0.0621624 -0.324182 -0.324182
0.104497 -0.325999 -0.325999
0.100657 -0.301189 -0.301189
0.0610378 -0.311662 -0.311662
0.0833158 -0.32499 -0.32499
0.102581 -0.313476 -0.313476
0.080268 -0.300183 -0.300183
0.0817953 -0.312469 -0.312469
0.0621624 -0.324182 -0.324182
0.0643941 -0.349923 -0.349923
0.108306 -0.351747 -0.351747
0.104497 -0.325999 -0.325999
0.0632812 -0.336936 -0.336936
0.086336 -0.350736 -0.350736
0.106406 -0.338756 -0.338756
0.0833158 -0.32499 -0.32499
0.0848294 -0.337746 -0.337746
0.0643941 -0.349923 -0.349923
0.0666026 -0.376597 -0.376597
0.112082 -0.378428 -0.378428
0.108306 -0.351747 -0.351747
0.0655013 -0.363144 -0.363144
0.0893283 -0.377414 -0.377414
0.110198 -0.364971 -0.364971
0.086336 -0.350736 -0.350736
0.0878357 -0.363959 -0.363959
0.0666026 -0.376597 -0.376597
0.0687873 -0.404198 -0.404198
0.115825 -0.406036 -0.406036
0.112082 -0.378428 -0.378428
0.0676979 -0.390282 -0.390282
0.0922923 -0.405018 -0.405018
0.113958 -0.392116 -0.392116
0.0893283 -0.377414 -0.377414
0.0908139 -0.3911 -0.3911
0.0687873 -0.404198 -0.404198
0.0709482 -0.432719 -0.432719
0.119535 -0.434565 -0.434565
0.115825 -0.406036 -0.406036
0.0698708 -0.418344 -0.418344
0.0952279 -0.433545 -0.433545
0.117684 -0.420186 -0.420186
0.0922923 -0.405018 -0.405018
0.0937637 -0.419167 -0.419167
0.0709482 -0.432719 -0.432719
0.073085 -0.462156 -0.462156
0.123212 -0.464011 -0.464011
0.119535 -0.434565 -0.434565
0.0720196 -0.447324 -0.447324
0.0981346 -0.462987 -0.462987
0.121378 -0.449174 -0.449174
0.0952279 -0.433545 -0.433545
0.0966849 -0.448151 -0.448151
0.073085 -0.462156 -0.462156
0.0751972 -0.492504 -0.492504
0.126855 -0.494368 -0.494368
0.123212 -0.464011 -0.464011
0.0741442 -0.477217 -0.477217
0.101012 -0.493339 -0.493339
0.125038 -0.479076 -0.479076
0.0981346 -0.462987 -0.462987
0.0995771 -0.478049 -0.478049
0.0751972 -0.492504 -0.492504
0.0772848 -0.523756 -0.523756
0.130464 -0.525629 -0.525629
0.126855 -0.494368 -0.494368
0.0762441 -0.508017 -0.508017
0.103861 -0.524597 -0.524597
0.128664 -0.509885 -0.509885
0.101012 -0.493339 -0.493339
0.10244 -0.508855 -0.508855
0.0772848 -0.523756 -0.523756
0.0793474 -0.555908 -0.555908
0.13404 -0.55779 -0.55779
0.130464 -0.525629 -0.525629
0.0783192 -0.53972 -0.53972
0.10668 -0.556754 -0.556754
0.132256 -0.541598 -0.541598
0.103861 -0.524597 -0.524597
0.105274 -0.540563 -0.540563
0.0793474 -0.555908 -0.555908
0.0813848 -0.588953 -0.588953
0.13758 -0.590846 -0.590846
0.13404 -0.55779 -0.55779
0.0803693 -0.572319 -0.572319
0.109469 -0.589805 -0.589805
0.135814 -0.574207 -0.574207
0.10668 -0.556754 -0.556754
0.108078 -0.573168 -0.573168
0.0813848 -0.588953 -0.588953
0.0833968 -0.622887 -0.622887
0.141086 -0.62479 -0.62479
0.13758 -0.590846 -0.590846
0.082394 -0.60581 -0.60581
0.112228 -0.623744 -0.623744
0.139338 -0.607707 -0.607707
0.109469 -0.589805 -0.589805
0.110852 -0.606664 -0.606664
0.0833968 -0.622887 -0.622887
0.0853831 -0.657704 -0.657704
0.144557 -0.659618 -0.659618
0.141086 -0.62479 -0.62479
0.0843932 -0.640186 -0.640186
0.114956 -0.658567 -0.658567
0.142826 -0.642094 -0.642094
0.112228 -0.623744 -0.623744
0.113596 -0.641046 -0.641046
0.0853831 -0.657704 -0.657704
0.0873435 -0.693398 -0.693398
0.147993 -0.695323 -0.695323
0.144557 -0.659618 -0.659618
0.0863665 -0.675442 -0.675442
0.117655 -0.694268 -0.694268
0.14628 -0.677361 -0.677361
0.114956 -0.658567 -0.658567
0.116309 -0.676308 -0.676308
0.0873435 -0.693398 -0.693398
0.0892777 -0.729964 -0.729964
0.151394 -0.731901 -0.731901
0.147993 -0.695323 -0.695323
0.0883139 -0.711573 -0.711573
0.120322 -0.73084 -0.73084
0.149698 -0.713504 -0.713504
0.117655 -0.694268 -0.694268
0.118992 -0.712445 -0.712445
0.0892777 -0.729964 -0.729964
0.0911856 -0.767397 -0.767397
0.154759 -0.769346 -0.769346
0.151394 -0.731901 -0.731901
0.090235 -0.748573 -0.748573
0.122959 -0.768279 -0.768279
0.153081 -0.750515 -0.750515
0.120322 -0.73084 -0.73084
0.121644 -0.749452 -0.749452
0.0911856 -0.767397 -0.767397
0.0930669 -0.805691 -0.805691
0.158089 -0.807652 -0.807652
0.154759 -0.769346 -0.769346
0.0921296 -0.786437 -0.786437
0.125564 -0.80658 -0.80658
0.156428 -0.788391 -0.788391
0.122959 -0.768279 -0.768279
0.124265 -0.787322 -0.787322
0.0930669 -0.805691 -0.805691
0.0949215 -0.84484 -0.84484
0.161382 -0.846814 -0.846814
0.158089 -0.807652 -0.807652
0.0939976 -0.825159 -0.825159
0.128138 -0.845736 -0.845736
0.15974 -0.827126 -0.827126
0.125564 -0.80658 -0.80658
0.126855 -0.826051 -0.826051
0.0949215 -0.84484 -0.84484
0.0967491 -0.884839 -0.884839
0.164639 -0.886826 -0.886826
0.161382 -0.846814 -0.846814
0.0958387 -0.864734 -0.864734
0.130681 -0.885742 -0.885742
0.163015 -0.866714 -0.866714
0.128138 -0.845736 -0.845736
0.129413 -0.865633 -0.865633
0.0967491 -0.884839 -0.884839
0.0985495 -0.925683 -0.925683
0.16786 -0.927684 -0.927684
0.164639 -0.886826 -0.886826
0.0976527 -0.905156 -0.905156
0.133191 -0.926594 -0.926594
0.166254 -0.90715 -0.90715
0.130681 -0.885742 -0.885742
0.13194 -0.906063 -0.906063
0.0985495 -0.925683 -0.925683
0.100322 -0.967366 -0.967366
0.171044 -0.96938 -0.96938
0.16786 -0.927684 -0.927684
0.0994394 -0.94642 -0.94642
0.13567 -0.968284 -0.968284
0.169457 -0.948427 -0.948427
0.133191 -0.926594 -0.926594
0.134435 -0.947334 -0.947334
0.100322 -0.967366 -0.967366
0.102068 -1.00988 -1.00988
0.174192 -1.01191 -1.01191
0.171044 -0.96938 -0.96938
0.101199 -0.988521 -0.988521
0.138116 -1.01081 -1.01081
0.172623 -0.990542 -0.990542
0.13567 -0.968284 -0.968284
0.136897 -0.989442 -0.989442
0.102068 -1.00988 -1.00988
0.103786 -1.05323 -1.05323
0.177303 -1.05527 -1.05527
0.174192 -1.01191 -1.01191
0.10293 -1.03145 -1.03145
0.140531 -1.05416 -1.05416
0.175752 -1.03349 -1.03349
0.138116 -1.01081 -1.01081
0.139328 -1.03238 -1.03238
0.103786 -1.05323 -1.05323
0.105475 -1.0974 -1.0974
0.180376 -1.09945 -1.09945
0.177303 -1.05527 -1.05527
0.104634 -1.07521 -1.07521
0.142912 -1.09834 -1.09834
0.178844 -1.07726 -1.07726
0.140531 -1.05416 -1.05416
0.141725 -1.07615 -1.07615
0.105475 -1.0974 -1.0974
0.107137 -1.14238 -1.14238
0.183412 -1.14445 -1.14445
0.180376 -1.09945 -1.09945
0.10631 -1.11979 -1.11979
0.145261 -1.14333 -1.14333
0.181899 -1.12185 -1.12185
0.142912 -1.09834 -1.09834
0.144091 -1.12073 -1.12073
0.107137 -1.14238 -1.14238
0.108771 -1.18818 -1.18818
0.186411 -1.19027 -1.19027
0.183412 -1.14445 -1.14445
0.107958 -1.16518 -1.16518
0.147577 -1.18914 -1.18914
0.184916 -1.16726 -1.16726
0.145261 -1.14333 -1.14333
0.146423 -1.16613 -1.16613
0.108771 -1.18818 -1.18818
0.110376 -1.23478 -1.23478
0.189372 -1.23688 -1.23688
0.186411 -1.19027 -1.19027
0.109577 -1.21138 -1.21138
0.14986 -1.23575 -1.23575
0.187896 -1.21347 -1.21347
0.147577 -1.18914 -1.18914
0.148723 -1.21234 -1.21234
0.110376 -1.23478 -1.23478
0.111952 -1.28219 -1.28219
0.192296 -1.2843 -1.2843
0.189372 -1.23688 -1.23688
0.111168 -1.25838 -1.25838
0.15211 -1.28316 -1.28316
0.190839 -1.26049 -1.26049
0.14986 -1.23575 -1.23575
0.15099 -1.25935 -1.25935
0.111952 -1.28219 -1.28219
0.1135 -1.33039 -1.33039
0.195181 -1.33252 -1.33252
0.192296 -1.2843 -1.2843
0.11273 -1.30619 -1.30619
0.154327 -1.33137 -1.33137
0.193743 -1.30831 -1.30831
0.15211 -1.28316 -1.28316
0.153223 -1.30716 -1.30716
0.1135 -1.33039 -1.33039
0.115019 -1.37937 -1.37937
0.198028 -1.38153 -1.38153
0.195181 -1.33252 -1.33252
0.114263 -1.35478 -1.35478
0.15651 -1.38037 -1.38037
0.196609 -1.35692 -1.35692
0.154327 -1.33137 -1.33137
0.155423 -1.35577 -1.35577
0.115019 -1.37937 -1.37937
0.116509 -1.42915 -1.42915
0.200838 -1.43132 -1.43132
0.198028 -1.38153 -1.38153
0.115768 -1.40416 -1.40416
0.15866 -1.43015 -1.43015
0.199438 -1.40632 -1.40632
0.15651 -1.38037 -1.38037
0.157589 -1.40516 -1.40516
0.116509 -1.42915 -1.42915
0.11797 -1.4797 -1.4797
0.203609 -1.48189 -1.48189
0.200838 -1.43132 -1.43132
0.117243 -1.45433 -1.45433
0.160776 -1.48071 -1.48071
0.202228 -1.4565 -1.4565
0.15866 -1.43015 -1.43015
0.159722 -1.45533 -1.45533
0.11797 -1.4797 -1.4797
0.119401 -1.53103 -1.53103
0.206341 -1.53323 -1.53323
0.203609 -1.48189 -1.48189
0.118689 -1.50527 -1.50527
0.162858 -1.53205 -1.53205
0.20498 -1.50746 -1.50746
0.160776 -1.48071 -1.48071
0.161821 -1.50628 -1.50628
0.119401 -1.53103 -1.53103
0.120804 -1.58312 -1.58312
0.209035 -1.58534 -1.58534
0.206341 -1.53323 -1.53323
0.120106 -1.55698 -1.55698
0.164906 -1.58415 -1.58415
0.207693 -1.55919 -1.55919
0.162858 -1.53205 -1.53205
0.163886 -1.558 -1.558
0.120804 -1.58312 -1.58312
0.122176 -1.63598 -1.63598
0.21169 -1.63822 -1.63822
0.209035 -1.58534 -1.58534
0.121494 -1.60946 -1.60946
0.16692 -1.63702 -1.63702
0.210367 -1.61168 -1.61168
0.164906 -1.58415 -1.58415
0.165917 -1.61049 -1.61049
0.122176 -1.63598 -1.63598
0.123519 -1.6896 -1.6896
0.214306 -1.69185 -1.69185
0.21169 -1.63822 -1.63822
0.122852 -1.66269 -1.66269
0.1689 -1.69064 -1.69064
0.213003 -1.66494 -1.66494
0.16692 -1.63702 -1.63702
0.167914 -1.66374 -1.66374
0.123519 -1.6896 -1.6896
0.124833 -1.74396 -1.74396
0.216884 -1.74623 -1.74623
0.214306 -1.69185 -1.69185
0.12418 -1.71669 -1.71669
0.170845 -1.74502 -1.74502
0.2156 -1.71895 -1.71895
0.1689 -1.69064 -1.69064
0.169877 -1.71774 -1.71774
0.124833 -1.74396 -1.74396
0.126116 -1.79908 -1.79908
0.219422 -1.80136 -1.80136
0.216884 -1.74623 -1.74623
0.125478 -1.77143 -1.77143
0.172756 -1.80014 -1.80014
0.218158 -1.7737 -1.7737
0.170845 -1.74502 -1.74502
0.171805 -1.77249 -1.77249
0.126116 -1.79908 -1.79908
0.12737 -1.85493 -1.85493
0.221922 -1.85723 -1.85723
0.219422 -1.80136 -1.80136
0.126747 -1.82691 -1.82691
0.174632 -1.856 -1.856
0.220677 -1.82921 -1.82921
0.172756 -1.80014 -1.80014
0.173699 -1.82798 -1.82798
0.12737 -1.85493 -1.85493
0.128593 -1.91152 -1.91152
0.224382 -1.91384 -1.91384
0.221922 -1.85723 -1.85723
0.127985 -1.88313 -1.88313
0.176474 -1.9126 -1.9126
0.223157 -1.88545 -1.88545
0.174632 -1.856 -1.856
0.175558 -1.88421 -1.88421
0.128593 -1.91152 -1.91152
0.129787 -1.96884 -1.96884
0.226802 -1.97118 -1.97118
0.224382 -1.91384 -1.91384
0.129194 -1.94009 -1.94009
0.178281 -1.96993 -1.96993
0.225597 -1.94242 -1.94242
0.176474 -1.9126 -1.9126
0.177382 -1.94117 -1.94117
0.129787 -1.96884 -1.96884
0.13095 -2.02688 -2.02688
0.229184 -2.02924 -2.02924
0.226802 -1.97118 -1.97118
0.130372 -1.99777 -1.99777
0.180054 -2.02798 -2.02798
0.227998 -2.00012 -2.00012
0.178281 -1.96993 -1.96993
0.179172 -1.99887 -1.99887
0.13095 -2.02688 -2.02688
0.132083 -2.08564 -2.08564
0.231526 -2.08802 -2.08802
0.229184 -2.02924 -2.02924
0.13152 -2.05617 -2.05617
0.181791 -2.08675 -2.08675
0.23036 -2.05854 -2.05854
0.180054 -2.02798 -2.02798
0.180927 -2.05728 -2.05728
0.132083 -2.08564 -2.08564
0.133186 -2.14512 -2.14512
0.233828 -2.14751 -2.14751
0.231526 -2.08802 -2.08802
0.132638 -2.11529 -2.11529
0.183494 -2.14624 -2.14624
0.232682 -2.11768 -2.11768
0.181791 -2.08675 -2.08675
0.182647 -2.11641 -2.11641
0.133186 -2.14512 -2.14512
0.134258 -2.2053 -2.2053
0.236091 -2.20772 -2.20772
0.233828 -2.14751 -2.14751
0.133726 -2.17512 -2.17512
0.185161 -2.20643 -2.20643
0.234964 -2.17753 -2.17753
0.183494 -2.14624 -2.14624
0.184332 -2.17625 -2.17625
0.134258 -2.2053 -2.2053
0.1353 -2.26619 -2.26619
0.238314 -2.26862 -2.26862
0.236091 -2.20772 -2.20772
0.134783 -2.23566 -2.23566
0.186793 -2.26733 -2.26733
0.237207 -2.23808 -2.23808
0.185161 -2.20643 -2.20643
0.185982 -2.23679 -2.23679
0.1353 -2.26619 -2.26619
0.136311 -2.32777 -2.32777
0.240497 -2.33022 -2.33022
0.238314 -2.26862 -2.26862
0.135809 -2.29689 -2.29689
0.188391 -2.32892 -2.32892
0.23941 -2.29933 -2.29933
0.186793 -2.26733 -2.26733
0.187596 -2.29804 -2.29804
0.136311 -2.32777 -2.32777
0.137291 -2.39004 -2.39004
0.24264 -2.39252 -2.39252
0.240497 -2.33022 -2.33022
0.136805 -2.35882 -2.35882
0.189953 -2.39121 -2.39121
0.241574 -2.36128 -2.36128
0.188391 -2.32892 -2.32892
0.189176 -2.35998 -2.35998
0.137291 -2.39004 -2.39004
0.138241 -2.453 -2.453
0.244744 -2.4555 -2.4555
0.24264 -2.39252 -2.39252
0.13777 -2.42144 -2.42144
0.191479 -2.45418 -2.45418
0.243697 -2.42392 -2.42392
0.189953 -2.39121 -2.39121
0.19072 -2.42261 -2.42261
0.138241 -2.453 -2.453
0.13916 -2.51665 -2.51665
0.246808 -2.51916 -2.51916
0.244744 -2.4555 -2.4555
0.138705 -2.48474 -2.48474
0.192971 -2.51783 -2.51783
0.245781 -2.48724 -2.48724
0.191479 -2.45418 -2.45418
0.192229 -2.48592 -2.48592
0.13916 -2.51665 -2.51665
0.140049 -2.58096 -2.58096
0.248831 -2.58349 -2.58349
0.246808 -2.51916 -2.51916
0.139608 -2.54872 -2.54872
0.194427 -2.58216 -2.58216
0.247824 -2.55124 -2.55124
0.192971 -2.51783 -2.51783
0.193703 -2.54991 -2.54991
0.140049 -2.58096 -2.58096
0.140906 -2.64595 -2.64595
0.250815 -2.6485 -2.6485
0.248831 -2.58349 -2.58349
0.140481 -2.61337 -2.61337
0.195847 -2.64715 -2.64715
0.249828 -2.61591 -2.61591
0.194427 -2.58216 -2.58216
0.195142 -2.61457 -2.61457
0.140906 -2.64595 -2.64595
0.141733 -2.7116 -2.7116
0.252759 -2.71417 -2.71417
0.250815 -2.6485 -2.6485
0.141324 -2.67869 -2.67869
0.197233 -2.71281 -2.71281
0.251792 -2.68125 -2.68125
0.195847 -2.64715 -2.64715
0.196544 -2.6799 -2.6799
0.141733 -2.7116 -2.7116
0.142529 -2.77791 -2.77791
0.254662 -2.7805 -2.7805
0.252759 -2.71417 -2.71417
0.142135 -2.74467 -2.74467
0.198582 -2.77913 -2.77913
0.253715 -2.74725 -2.74725
0.197233 -2.71281 -2.71281
0.197912 -2.74589 -2.74589
0.142529 -2.77791 -2.77791
0.143294 -2.84487 -2.84487
0.256526 -2.84748 -2.84748
0.254662 -2.7805 -2.7805
0.142915 -2.81131 -2.81131
0.199897 -2.84611 -2.84611
0.255599 -2.81391 -2.81391
0.198582 -2.77913 -2.77913
0.199244 -2.81254 -2.81254
0.143294 -2.84487 -2.84487
0.144028 -2.91248 -2.91248
0.258349 -2.91511 -2.91511
0.256526 -2.84748 -2.84748
0.143665 -2.8786 -2.8786
0.201175 -2.91373 -2.91373
0.257442 -2.88122 -2.88122
0.199897 -2.84611 -2.84611
0.20054 -2.87984 -2.87984
0.144028 -2.91248 -2.91248
0.144731 -2.98074 -2.98074
0.260132 -2.98338 -2.98338
0.258349 -2.91511 -2.91511
0.144383 -2.94653 -2.94653
0.202418 -2.98199 -2.98199
0.259246 -2.94917 -2.94917
0.201175 -2.91373 -2.91373
0.201801 -2.94778 -2.94778
0.144731 -2.98074 -2.98074
0.145403 -3.04963 -3.04963
0.261875 -3.05229 -3.05229
0.260132 -2.98338 -2.98338
0.145071 -3.0151 -3.0151
0.203626 -3.05089 -3.05089
0.261009 -3.01776 -3.01776
0.202418 -2.98199 -2.98199
0.203027 -3.01636 -3.01636
0.145403 -3.04963 -3.04963
0.146044 -3.11915 -3.11915
0.263578 -3.12184 -3.12184
0.261875 -3.05229 -3.05229
0.145728 -3.08431 -3.08431
0.204798 -3.12042 -3.12042
0.262732 -3.08699 -3.08699
0.203626 -3.05089 -3.05089
0.204217 -3.08558 -3.08558
0.146044 -3.11915 -3.11915
0.146654 -3.1893 -3.1893
0.265241 -3.192 -3.192
0.263578 -3.12184 -3.12184
0.146353 -3.15414 -3.15414
0.205935 -3.19058 -3.19058
0.264415 -3.15684 -3.15684
0.204798 -3.12042 -3.12042
0.205371 -3.15543 -3.15543
0.146654 -3.1893 -3.1893
0.147234 -3.26007 -3.26007
0.266864 -3.26279 -3.26279
0.265241 -3.192 -3.192
0.146948 -3.2246 -3.2246
0.207035 -3.26136 -3.26136
0.266057 -3.22732 -3.22732
0.205935 -3.19058 -3.19058
0.206489 -3.2259 -3.2259
0.147234 -3.26007 -3.26007
0.147782 -3.33145 -3.33145
0.268446 -3.33419 -3.33419
0.266864 -3.26279 -3.26279
0.147512 -3.29568 -3.29568
0.208101 -3.33276 -3.33276
0.26766 -3.29842 -3.29842
0.207035 -3.26136 -3.26136
0.207573 -3.29698 -3.29698
0.147782 -3.33145 -3.33145
0.148299 -3.40344 -3.40344
0.269988 -3.40621 -3.40621
0.268446 -3.33419 -3.33419
0.148044 -3.36737 -3.36737
0.209131 -3.40476 -3.40476
0.269222 -3.37013 -3.37013
0.208101 -3.33276 -3.33276
0.20862 -3.36868 -3.36868
0.148299 -3.40344 -3.40344
0.148786 -3.47604 -3.47604
0.27149 -3.47883 -3.47883
0.269988 -3.40621 -3.40621
0.148546 -3.43967 -3.43967
0.210125 -3.47737 -3.47737
0.270744 -3.44244 -3.44244
0.209131 -3.40476 -3.40476
0.209632 -3.44099 -3.44099
0.148786 -3.47604 -3.47604
0.149241 -3.54924 -3.54924
0.272952 -3.55204 -3.55204
0.27149 -3.47883 -3.47883
0.149017 -3.51256 -3.51256
0.211083 -3.55058 -3.55058
0.272226 -3.51536 -3.51536
0.210125 -3.47737 -3.47737
0.210609 -3.5139 -3.5139
0.149241 -3.54924 -3.54924
0.149665 -3.62303 -3.62303
0.274374 -3.62585 -3.62585
0.272952 -3.55204 -3.55204
0.149457 -3.58606 -3.58606
0.212006 -3.62438 -3.62438
0.273668 -3.58887 -3.58887
0.211083 -3.55058 -3.55058
0.211549 -3.5874 -3.5874
0.149665 -3.62303 -3.62303
0.150059 -3.6974 -3.6974
0.275756 -3.70025 -3.70025
0.274374 -3.62585 -3.62585
0.149866 -3.66014 -3.66014
0.212894 -3.69876 -3.69876
0.27507 -3.66298 -3.66298
0.212006 -3.62438 -3.62438
0.212455 -3.6615 -3.6615
0.150059 -3.6974 -3.6974
0.150421 -3.77236 -3.77236
0.277097 -3.77523 -3.77523
0.275756 -3.70025 -3.70025
0.150244 -3.73481 -3.73481
0.213746 -3.77373 -3.77373
0.276432 -3.73767 -3.73767
0.212894 -3.69876 -3.69876
0.213325 -3.73618 -3.73618
0.150421 -3.77236 -3.77236
0.150753 -3.8479 -3.8479
0.278399 -3.85078 -3.85078
0.277097 -3.77523 -3.77523
0.150591 -3.81006 -3.81006
0.214563 -3.84928 -3.84928
0.277753 -3.81293 -3.81293
0.213746 -3.77373 -3.77373
0.214159 -3.81144 -3.81144
0.150753 -3.8479 -3.8479
0.151054 -3.92401 -3.92401
0.279661 -3.92691 -3.92691
0.278399 -3.85078 -3.85078
0.150908 -3.88588 -3.88588
0.215344 -3.9254 -3.9254
0.279035 -3.88878 -3.88878
0.214563 -3.84928 -3.84928
0.214958 -3.88727 -3.88727
0.151054 -3.92401 -3.92401
0.151324 -4.00068 -4.00068
0.280882 -4.00361 -4.00361
0.279661 -3.92691 -3.92691
0.151193 -3.96228 -3.96228
0.21609 -4.00208 -4.00208
0.280276 -3.96519 -3.96519
0.215344 -3.9254 -3.9254
0.215721 -3.96367 -3.96367
0.151324 -4.00068 -4.00068
0.151564 -4.07792 -4.07792
0.282064 -4.08086 -4.08086
0.280882 -4.00361 -4.00361
0.151448 -4.03923 -4.03923
0.2168 -4.07933 -4.07933
0.281478 -4.04216 -4.04216
0.21609 -4.00208 -4.00208
0.21645 -4.04064 -4.04064
0.151564 -4.07792 -4.07792
0.151772 -4.15571 -4.15571
0.283205 -4.15867 -4.15867
0.282064 -4.08086 -4.08086
0.151672 -4.11675 -4.11675
0.217476 -4.15713 -4.15713
0.28264 -4.1197 -4.1197
0.2168 -4.07933 -4.07933
0.217142 -4.11816 -4.11816
0.151772 -4.15571 -4.15571
0.15195 -4.23405 -4.23405
0.284307 -4.23703 -4.23703
0.283205 -4.15867 -4.15867
0.151865 -4.19481 -4.19481
0.218116 -4.23548 -4.23548
0.283761 -4.19778 -4.19778
0.217476 -4.15713 -4.15713
0.2178 -4.19624 -4.19624
0.15195 -4.23405 -4.23405
0.152098 -4.31293 -4.31293
0.285369 -4.31593 -4.31593
0.284307 -4.23703 -4.23703
0.152028 -4.27342 -4.27342
0.21872 -4.31437 -4.31437
0.284843 -4.27641 -4.27641
0.218116 -4.23548 -4.23548
0.218422 -4.27486 -4.27486
0.152098 -4.31293 -4.31293
0.152215 -4.39236 -4.39236
0.286392 -4.39537 -4.39537
0.285369 -4.31593 -4.31593
0.15216 -4.35258 -4.35258
0.21929 -4.39381 -4.39381
0.285885 -4.35559 -4.35559
0.21872 -4.31437 -4.31437
0.219009 -4.35402 -4.35402
0.152215 -4.39236 -4.39236
0.152301 -4.47231 -4.47231
0.287374 -4.47535 -4.47535
0.286392 -4.39537 -4.39537
0.152262 -4.43227 -4.43227
0.219824 -4.47377 -4.47377
0.286888 -4.43529 -4.43529
0.21929 -4.39381 -4.39381
0.219561 -4.43372 -4.43372
0.152301 -4.47231 -4.47231
0.152357 -4.5528 -4.5528
0.288317 -4.55585 -4.55585
0.287374 -4.47535 -4.47535
0.152333 -4.51249 -4.51249
0.220324 -4.55427 -4.55427
0.287851 -4.51553 -4.51553
0.219824 -4.47377 -4.47377
0.220078 -4.51395 -4.51395
0.152357 -4.5528 -4.5528
0.152382 -4.6338 -4.6338
0.289221 -4.63688 -4.63688
0.288317 -4.55585 -4.55585
0.152373 -4.59323 -4.59323
0.220788 -4.63528 -4.63528
0.288774 -4.5963 -4.5963
0.220324 -4.55427 -4.55427
0.22056 -4.59471 -4.59471
0.152382 -4.6338 -4.6338
0.152378 -4.71533 -4.71533
0.290084 -4.71842 -4.71842
0.289221 -4.63688 -4.63688
0.152384 -4.6745 -4.6745
0.221218 -4.71682 -4.71682
0.289657 -4.67758 -4.67758
0.220788 -4.63528 -4.63528
0.221007 -4.67599 -4.67599
0.152378 -4.71533 -4.71533
0.152343 -4.79736 -4.79736
0.290909 -4.80047 -4.80047
0.290084 -4.71842 -4.71842
0.152364 -4.75628 -4.75628
0.221612 -4.79886 -4.79886
0.290502 -4.75938 -4.75938
0.221218 -4.71682 -4.71682
0.221419 -4.75778 -4.75778
0.152343 -4.79736 -4.79736
0.152277 -4.8799 -4.8799
0.291694 -4.88303 -4.88303
0.290909 -4.80047 -4.80047
0.152314 -4.83857 -4.83857
0.221972 -4.88141 -4.88141
0.291306 -4.84169 -4.84169
0.221612 -4.79886 -4.79886
0.221797 -4.84007 -4.84007
0.152277 -4.8799 -4.8799
0.152182 -4.96294 -4.96294
0.29244 -4.96609 -4.96609
0.291694 -4.88303 -4.88303
0.152234 -4.92136 -4.92136
0.222298 -4.96446 -4.96446
0.292072 -4.9245 -4.9245
0.221972 -4.88141 -4.88141
0.222139 -4.92287 -4.92287
0.152182 -4.96294 -4.96294
0.152057 -5.04648 -5.04648
0.293146 -5.04964 -5.04964
0.29244 -4.96609 -4.96609
0.152123 -5.00465 -5.00465
0.222588 -5.04801 -5.04801
0.292798 -5.0078 -5.0078
0.222298 -4.96446 -4.96446
0.222447 -5.00617 -5.00617
0.152057 -5.04648 -5.04648
0.151902 -5.1305 -5.1305
0.293814 -5.13369 -5.13369
0.293146 -5.04964 -5.04964
0.151983 -5.08843 -5.08843
0.222844 -5.13204 -5.13204
0.293485 -5.0916 -5.0916
0.222588 -5.04801 -5.04801
0.222721 -5.08997 -5.08997
0.151902 -5.1305 -5.1305
0.151717 -5.21501 -5.21501
0.294442 -5.21821 -5.21821
0.293814 -5.13369 -5.13369
0.151813 -5.1727 -5.1727
0.223066 -5.21656 -5.21656
0.294133 -5.17589 -5.17589
0.222844 -5.13204 -5.13204
0.22296 -5.17424 -5.17424
0.151717 -5.21501 -5.21501
0.151502 -5.3 -5.3
0.295032 -5.30322 -5.30322
0.294442 -5.21821 -5.21821
0.151613 -5.25745 -5.25745
0.223253 -5.30156 -5.30156
0.294742 -5.26066 -5.26066
0.223066 -5.21656 -5.21656
0.223164 -5.259 -5.259
0.151502 -5.3 -5.3
0.151257 -5.38547 -5.38547
0.295582 -5.3887 -5.3887
0.295032 -5.30322 -5.30322
0.151383 -5.34268 -5.34268
0.223406 -5.38703 -5.38703
0.295312 -5.3459 -5.3459
0.223253 -5.30156 -5.30156
0.223334 -5.34424 -5.34424
0.151257 -5.38547 -5.38547
0.150983 -5.4714 -5.4714
0.296094 -5.47465 -5.47465
0.295582 -5.3887 -5.3887
0.151124 -5.42837 -5.42837
0.223525 -5.47297 -5.47297
0.295843 -5.43162 -5.43162
0.223406 -5.38703 -5.38703
0.22347 -5.42994 -5.42994
0.150983 -5.4714 -5.4714
0.15068 -5.55779 -5.55779
0.296568 -5.56106 -5.56106
0.296094 -5.47465 -5.47465
0.150835 -5.51453 -5.51453
0.22361 -5.55937 -5.55937
0.296336 -5.5178 -5.5178
0.223525 -5.47297 -5.47297
0.223572 -5.51612 -5.51612
0.15068 -5.55779 -5.55779
0.150347 -5.64464 -5.64464
0.297002 -5.64792 -5.64792
0.296568 -5.56106 -5.56106
0.150517 -5.60116 -5.60116
0.223661 -5.64623 -5.64623
0.29679 -5.60443 -5.60443
0.22361 -5.55937 -5.55937
0.22364 -5.60275 -5.60275
0.150347 -5.64464 -5.64464
0.149985 -5.73194 -5.73194
0.297398 -5.73524 -5.73524
0.297002 -5.64792 -5.64792
0.150169 -5.68823 -5.68823
0.223678 -5.73354 -5.73354
0.297205 -5.69153 -5.69153
0.223661 -5.64623 -5.64623
0.223674 -5.68983 -5.68983
0.149985 -5.73194 -5.73194
0.149593 -5.81968 -5.81968
0.297756 -5.823 -5.823
0.297398 -5.73524 -5.73524
0.149793 -5.77576 -5.77576
0.223661 -5.8213 -5.8213
0.297582 -5.77907 -5.77907
0.223678 -5.73354 -5.73354
0.223674 -5.77736 -5.77736
0.149593 -5.81968 -5.81968
0.149173 -5.90787 -5.90787
0.298076 -5.91121 -5.91121
0.297756 -5.823 -5.823
0.149387 -5.86372 -5.86372
0.223611 -5.90949 -5.90949
0.297921 -5.86705 -5.86705
0.223661 -5.8213 -5.8213
0.223641 -5.86534 -5.86534
0.149173 -5.90787 -5.90787
0.148724 -5.99649 -5.99649
0.298358 -5.99985 -5.99985
0.298076 -5.91121 -5.91121
0.148952 -5.95213 -5.95213
0.223527 -5.99812 -5.99812
0.298222 -5.95547 -5.95547
0.223611 -5.90949 -5.90949
0.223573 -5.95375 -5.95375
0.148724 -5.99649 -5.99649
0.148246 -6.08555 -6.08555
0.298601 -6.08891 -6.08891
0.298358 -5.99985 -5.99985
0.148488 -6.04097 -6.04097
0.22341 -6.08718 -6.08718
0.298484 -6.04433 -6.04433
0.223527 -5.99812 -5.99812
0.223473 -6.0426 -6.0426
0.148246 -6.08555 -6.08555
0.147739 -6.17502 -6.17502
0.298807 -6.17841 -6.17841
0.298601 -6.08891 -6.08891
0.147996 -6.13023 -6.13023
0.223259 -6.17667 -6.17667
0.298709 -6.13361 -6.13361
0.22341 -6.08718 -6.08718
0.223339 -6.13187 -6.13187
0.147739 -6.17502 -6.17502
0.147204 -6.26492 -6.26492
0.298975 -6.26832 -6.26832
0.298807 -6.17841 -6.17841
0.147475 -6.21992 -6.21992
0.223076 -6.26657 -6.26657
0.298895 -6.22331 -6.22331
0.223259 -6.17667 -6.17667
0.223172 -6.22157 -6.22157
0.147204 -6.26492 -6.26492
0.14664 -6.35523 -6.35523
0.299105 -6.35864 -6.35864
0.298975 -6.26832 -6.26832
0.146925 -6.31002 -6.31002
0.222859 -6.35689 -6.35689
0.299045 -6.31343 -6.31343
0.223076 -6.26657 -6.26657
0.222972 -6.31168 -6.31168
0.14664 -6.35523 -6.35523
0.146048 -6.44594 -6.44594
0.299198 -6.44937 -6.44937
0.299105 -6.35864 -6.35864
0.146348 -6.40053 -6.40053
0.222609 -6.44761 -6.44761
0.299156 -6.40395 -6.40395
0.222859 -6.35689 -6.35689
0.222738 -6.4022 -6.4022
0.146048 -6.44594 -6.44594
0.145428 -6.53706 -6.53706
0.299253 -6.5405 -6.5405
0.299198 -6.44937 -6.44937
0.145741 -6.49145 -6.49145
0.222327 -6.53874 -6.53874
0.29923 -6.49489 -6.49489
0.222609 -6.44761 -6.44761
0.222472 -6.49313 -6.49313
0.145428 -6.53706 -6.53706
0.144779 -6.62858 -6.62858
0.299271 -6.63203 -6.63203
0.299253 -6.5405 -6.5405
0.145107 -6.58277 -6.58277
0.222012 -6.63026 -6.63026
0.299267 -6.58622 -6.58622
0.222327 -6.53874 -6.53874
0.222173 -6.58445 -6.58445
0.144779 -6.62858 -6.62858
0.144103 -6.72048 -6.72048
0.299252 -6.72396 -6.72396
0.299271 -6.63203 -6.63203
0.144445 -6.67448 -6.67448
0.221664 -6.72218 -6.72218
0.299266 -6.67795 -6.67795
0.222012 -6.63026 -6.63026
0.221842 -6.67617 -6.67617
0.144103 -6.72048 -6.72048
0.143399 -6.81277 -6.81277
0.299196 -6.81626 -6.81626
0.299252 -6.72396 -6.72396
0.143755 -6.76658 -6.76658
0.221284 -6.81448 -6.81448
0.299229 -6.77006 -6.77006
0.221664 -6.72218 -6.72218
0.221478 -6.76828 -6.76828
0.143399 -6.81277 -6.81277
0.142668 -6.90545 -6.90545
0.299104 -6.90895 -6.90895
0.299196 -6.81626 -6.81626
0.143037 -6.85906 -6.85906
0.220872 -6.90716 -6.90716
0.299155 -6.86256 -6.86256
0.221284 -6.81448 -6.81448
0.221082 -6.86077 -6.86077
0.142668 -6.90545 -6.90545
0.141908 -6.9985 -6.9985
0.298974 -7.00201 -7.00201
0.299104 -6.90895 -6.90895
0.142291 -6.95193 -6.95193
0.220428 -7.00021 -7.00021
0.299043 -6.95543 -6.95543
0.220872 -6.90716 -6.90716
0.220654 -6.95364 -6.95364
0.141908 -6.9985 -6.9985
0.141122 -7.09192 -7.09192
0.298808 -7.09544 -7.09544
0.298974 -7.00201 -7.00201
0.141519 -7.04516 -7.04516
0.219951 -7.09364 -7.09364
0.298896 -7.04868 -7.04868
0.220428 -7.00021 -7.00021
0.220194 -7.04688 -7.04688
0.141122 -7.09192 -7.09192
0.140308 -7.1857 -7.1857
0.298606 -7.18924 -7.18924
0.298808 -7.09544 -7.09544
0.140718 -7.13876 -7.13876
0.219443 -7.18743 -7.18743
0.298711 -7.1423 -7.1423
0.219951 -7.09364 -7.09364
0.219701 -7.14049 -7.14049
0.140308 -7.1857 -7.1857
0.139467 -7.27984 -7.27984
0.298367 -7.28339 -7.28339
0.298606 -7.18924 -7.18924
0.139891 -7.23272 -7.23272
0.218904 -7.28158 -7.28158
0.298491 -7.23627 -7.23627
0.219443 -7.18743 -7.18743
0.219177 -7.23446 -7.23446
0.139467 -7.27984 -7.27984
0.1386 -7.37433 -7.37433
0.298092 -7.3779 -7.3779
0.298367 -7.28339 -7.28339
0.139037 -7.32704 -7.32704
0.218332 -7.37608 -7.37608
0.298234 -7.3306 -7.3306
0.218904 -7.28158 -7.28158
0.218622 -7.32878 -7.32878
0.1386 -7.37433 -7.37433
0.137705 -7.46918 -7.46918
0.297782 -7.47276 -7.47276
0.298092 -7.3779 -7.3779
0.138156 -7.42171 -7.42171
0.21773 -7.47093 -7.47093
0.297941 -7.42528 -7.42528
0.218332 -7.37608 -7.37608
0.218035 -7.42346 -7.42346
0.137705 -7.46918 -7.46918
0.136784 -7.56436 -7.56436
0.297435 -7.56795 -7.56795
0.297782 -7.47276 -7.47276
0.137248 -7.51673 -7.51673
0.217096 -7.56612 -7.56612
0.297613 -7.52031 -7.52031
0.21773 -7.47093 -7.47093
0.217417 -7.51848 -7.51848
0.136784 -7.56436 -7.56436
0.135837 -7.65988 -7.65988
0.297053 -7.66349 -7.66349
0.297435 -7.56795 -7.56795
0.136314 -7.61208 -7.61208
0.216431 -7.66165 -7.66165
0.297248 -7.61568 -7.61568
0.217096 -7.56612 -7.56612
0.216767 -7.61384 -7.61384
0.135837 -7.65988 -7.65988
0.134863 -7.75574 -7.75574
0.296635 -7.75935 -7.75935
0.297053 -7.66349 -7.66349
0.135353 -7.70777 -7.70777
0.215735 -7.75751 -7.75751
0.296849 -7.71138 -7.71138
0.216431 -7.66165 -7.66165
0.216087 -7.70954 -7.70954
0.134863 -7.75574 -7.75574
0.133863 -7.85192 -7.85192
0.296183 -7.85554 -7.85554
0.296635 -7.75935 -7.75935
0.134366 -7.80378 -7.80378
0.215009 -7.85369 -7.85369
0.296413 -7.80741 -7.80741
0.215735 -7.75751 -7.75751
0.215376 -7.80556 -7.80556
0.133863 -7.85192 -7.85192
0.132837 -7.94842 -7.94842
0.295694 -7.95205 -7.95205
0.296183 -7.85554 -7.85554
0.133353 -7.90013 -7.90013
0.214252 -7.9502 -7.9502
0.295943 -7.90376 -7.90376
0.215009 -7.85369 -7.85369
0.214634 -7.90191 -7.90191
0.132837 -7.94842 -7.94842
0.131786 -8.04523 -8.04523
0.295171 -8.04888 -8.04888
0.295694 -7.95205 -7.95205
0.132315 -7.99678 -7.99678
0.213465 -8.04702 -8.04702
0.295437 -8.00043 -8.00043
0.214252 -7.9502 -7.9502
0.213862 -7.99857 -7.99857
0.131786 -8.04523 -8.04523
0.130708 -8.14236 -8.14236
0.294614 -8.14601 -8.14601
0.295171 -8.04888 -8.04888
0.13125 -8.09375 -8.09375
0.212647 -8.14415 -8.14415
0.294897 -8.09741 -8.09741
0.213465 -8.04702 -8.04702
0.21306 -8.09555 -8.09555
0.130708 -8.14236 -8.14236
0.129606 -8.23978 -8.23978
0.294021 -8.24345 -8.24345
0.294614 -8.14601 -8.14601
0.13016 -8.19103 -8.19103
0.2118 -8.24159 -8.24159
0.294322 -8.1947 -8.1947
0.212647 -8.14415 -8.14415
0.212227 -8.19283 -8.19283
0.129606 -8.23978 -8.23978
0.128478 -8.33751 -8.33751
0.293394 -8.34119 -8.34119
0.294021 -8.24345 -8.24345
0.129045 -8.28861 -8.28861
0.210922 -8.33932 -8.33932
0.293712 -8.29229 -8.29229
0.2118 -8.24159 -8.24159
0.211365 -8.29042 -8.29042
0.128478 -8.33751 -8.33751
0.127325 -8.43553 -8.43553
0.292733 -8.43922 -8.43922
0.293394 -8.34119 -8.34119
0.127904 -8.38649 -8.38649
0.210015 -8.43735 -8.43735
0.293068 -8.39017 -8.39017
0.210922 -8.33932 -8.33932
0.210472 -8.3883 -8.3883
0.127325 -8.43553 -8.43553
0.126147 -8.53384 -8.53384
0.292038 -8.53754 -8.53754
0.292733 -8.43922 -8.43922
0.126739 -8.48465 -8.48465
0.209078 -8.53566 -8.53566
0.29239 -8.48835 -8.48835
0.210015 -8.43735 -8.43735
0.20955 -8.48647 -8.48647
0.126147 -8.53384 -8.53384
0.124944 -8.63244 -8.63244
0.291309 -8.63614 -8.63614
0.292038 -8.53754 -8.53754
0.125548 -8.5831 -8.5831
0.208112 -8.63426 -8.63426
0.291677 -8.58681 -8.58681
0.209078 -8.53566 -8.53566
0.208599 -8.58493 -8.58493
0.124944 -8.63244 -8.63244
0.123717 -8.7313 -8.7313
0.290546 -8.73502 -8.73502
0.291309 -8.63614 -8.63614
0.124333 -8.68184 -8.68184
0.207117 -8.73313 -8.73313
0.290931 -8.68555 -8.68555
0.208112 -8.63426 -8.63426
0.207618 -8.68366 -8.68366
0.123717 -8.7313 -8.7313
0.122465 -8.83044 -8.83044
0.289749 -8.83417 -8.83417
0.290546 -8.73502 -8.73502
0.123094 -8.78084 -8.78084
0.206093 -8.83228 -8.83228
0.290151 -8.78456 -8.78456
0.207117 -8.73313 -8.73313
0.206609 -8.78267 -8.78267
0.122465 -8.83044 -8.83044
0.121189 -8.92985 -8.92985
0.288919 -8.93358 -8.93358
0.289749 -8.83417 -8.83417
0.12183 -8.88012 -8.88012
0.20504 -8.93169 -8.93169
0.289338 -8.88384 -8.88384
0.206093 -8.83228 -8.83228
0.20557 -8.88195 -8.88195
0.121189 -8.92985 -8.92985
0.119889 -9.02952 -9.02952
0.288056 -9.03326 -9.03326
0.288919 -8.93358 -8.93358
0.120542 -8.97965 -8.97965
0.203959 -9.03136 -9.03136
0.288492 -8.98339 -8.98339
0.20504 -8.93169 -8.93169
0.204503 -8.98149 -8.98149
0.119889 -9.02952 -9.02952
0.118565 -9.12944 -9.12944
0.28716 -9.13319 -9.13319
0.288056 -9.03326 -9.03326
0.11923 -9.07945 -9.07945
0.202849 -9.13129 -9.13129
0.287612 -9.08319 -9.08319
0.203959 -9.03136 -9.03136
0.203407 -9.08129 -9.08129
0.118565 -9.12944 -9.12944
0.117218 -9.22961 -9.22961
0.286231 -9.23337 -9.23337
0.28716 -9.13319 -9.13319
0.117895 -9.1795 -9.1795
0.20171 -9.23146 -9.23146
0.286699 -9.18325 -9.18325
0.202849 -9.13129 -9.13129
0.202283 -9.18135 -9.18135
0.117218 -9.22961 -9.22961
0.115847 -9.33003 -9.33003
0.285269 -9.33379 -9.33379
0.286231 -9.23337 -9.23337
0.116536 -9.27979 -9.27979
0.200544 -9.33189 -9.33189
0.285754 -9.28355 -9.28355
0.20171 -9.23146 -9.23146
0.201131 -9.28165 -9.28165
0.115847 -9.33003 -9.33003
0.114453 -9.43069 -9.43069
0.284275 -9.43446 -9.43446
0.285269 -9.33379 -9.33379
0.115153 -9.38033 -9.38033
0.19935 -9.43255 -9.43255
0.284776 -9.38409 -9.38409
0.200544 -9.33189 -9.33189
0.199951 -9.38219 -9.38219
0.114453 -9.43069 -9.43069
0.113036 -9.53158 -9.53158
0.283249 -9.53535 -9.53535
0.284275 -9.43446 -9.43446
0.113748 -9.4811 -9.4811
0.198128 -9.53344 -9.53344
0.283766 -9.48487 -9.48487
0.19935 -9.43255 -9.43255
0.198743 -9.48296 -9.48296
0.113036 -9.53158 -9.53158
0.111596 -9.63269 -9.63269
0.282191 -9.63647 -9.63647
0.283249 -9.53535 -9.53535
0.112319 -9.58211 -9.58211
0.196879 -9.63456 -9.63456
0.282724 -9.58588 -9.58588
0.198128 -9.53344 -9.53344
0.197507 -9.58397 -9.58397
0.111596 -9.63269 -9.63269
0.110134 -9.73403 -9.73403
0.2811 -9.73782 -9.73782
0.282191 -9.63647 -9.63647
0.110868 -9.68334 -9.68334
0.195603 -9.7359 -9.7359
0.281649 -9.68712 -9.68712
0.196879 -9.63456 -9.63456
0.196244 -9.6852 -9.6852
0.110134 -9.73403 -9.73403
0.108649 -9.83559 -9.83559
0.279978 -9.83938 -9.83938
0.2811 -9.73782 -9.73782
0.109394 -9.78478 -9.78478
0.194299 -9.83746 -9.83746
0.280543 -9.78857 -9.78857
0.195603 -9.7359 -9.7359
0.194954 -9.78666 -9.78666
0.108649 -9.83559 -9.83559
0.107141 -9.93736 -9.93736
0.278825 -9.94115 -9.94115
0.279978 -9.83938 -9.83938
0.107898 -9.88645 -9.88645
0.192969 -9.93923 -9.93923
0.279406 -9.89024 -9.89024
0.194299 -9.83746 -9.83746
0.193638 -9.88832 -9.88832
0.107141 -9.93736 -9.93736
0.105612 -10.0393 -10.0393
0.277641 -10.0431 -10.0431
0.278825 -9.94115 -9.94115
0.106379 -9.98832 -9.98832
0.191612 -10.0412 -10.0412
0.278237 -9.99212 -9.99212
0.192969 -9.93923 -9.93923
0.192294 -9.9902 -9.9902
0.105612 -10.0393 -10.0393
0.10406 -10.1415 -10.1415
0.276425 -10.1453 -10.1453
0.277641 -10.0431 -10.0431
0.104839 -10.0904 -10.0904
0.190228 -10.1434 -10.1434
0.277037 -10.0942 -10.0942
0.191612 -10.0412 -10.0412
0.190924 -10.0923 -10.0923
0.10406 -10.1415 -10.1415
0.102487 -10.2439 -10.2439
0.275179 -10.2477 -10.2477
0.276425 -10.1453 -10.1453
0.103277 -10.1927 -10.1927
0.188819 -10.2458 -10.2458
0.275806 -10.1965 -10.1965
0.190228 -10.1434 -10.1434
0.189527 -10.1946 -10.1946
0.102487 -10.2439 -10.2439
0.100893 -10.3464 -10.3464
0.273901 -10.3503 -10.3503
0.275179 -10.2477 -10.2477
0.101693 -10.2951 -10.2951
0.187383 -10.3483 -10.3483
0.274544 -10.2989 -10.2989
0.188819 -10.2458 -10.2458
0.188104 -10.297 -10.297
0.100893 -10.3464 -10.3464
0.0992773 -10.4492 -10.4492
0.272594 -10.453 -10.453
0.273901 -10.3503 -10.3503
0.100088 -10.3978 -10.3978
0.185921 -10.4511 -10.4511
0.273251 -10.4016 -10.4016
0.187383 -10.3483 -10.3483
0.186655 -10.3997 -10.3997
0.0992773 -10.4492 -10.4492
0.0976406 -10.5521 -10.5521
0.271256 -10.5559 -10.5559
0.272594 -10.453 -10.453
0.0984616 -10.5006 -10.5006
0.184434 -10.554 -10.554
0.271929 -10.5044 -10.5044
0.185921 -10.4511 -10.4511
0.185181 -10.5025 -10.5025
0.0976406 -10.5521 -10.5521
0.095983 -10.6552 -10.6552
0.269888 -10.659 -10.659
0.271256 -10.5559 -10.5559
0.0968144 -10.6036 -10.6036
0.182921 -10.6571 -10.6571
0.270576 -10.6075 -10.6075
0.184434 -10.554 -10.554
0.183681 -10.6055 -10.6055
0.095983 -10.6552 -10.6552
0.0943048 -10.7585 -10.7585
0.268491 -10.7623 -10.7623
0.269888 -10.659 -10.659
0.0951465 -10.7068 -10.7068
0.181383 -10.7604 -10.7604
0.269193 -10.7106 -10.7106
0.182921 -10.6571 -10.6571
0.182155 -10.7087 -10.7087
0.0943048 -10.7585 -10.7585
0.0926062 -10.8619 -10.8619
0.267063 -10.8657 -10.8657
0.268491 -10.7623 -10.7623
0.0934581 -10.8102 -10.8102
0.17982 -10.8638 -10.8638
0.267781 -10.814 -10.814
0.181383 -10.7604 -10.7604
0.180605 -10.8121 -10.8121
0.0926062 -10.8619 -10.8619
0.0908874 -10.9655 -10.9655
0.265607 -10.9693 -10.9693
0.267063 -10.8657 -10.8657
0.0917493 -10.9137 -10.9137
0.178233 -10.9674 -10.9674
0.266339 -10.9175 -10.9175
0.17982 -10.8638 -10.8638
0.17903 -10.9156 -10.9156
0.0908874 -10.9655 -10.9655
0.0891486 -11.0692 -11.0692
0.264121 -11.0731 -11.0731
0.265607 -10.9693 -10.9693
0.0900205 -11.0173 -11.0173
0.17662 -11.0711 -11.0711
0.264867 -11.0212 -11.0212
0.178233 -10.9674 -10.9674
0.17743 -11.0192 -11.0192
0.0891486 -11.0692 -11.0692
0.08739 -11.1731 -11.1731
0.262606 -11.1769 -11.1769
0.264121 -11.0731 -11.0731
0.0882717 -11.1212 -11.1212
0.174984 -11.175 -11.175
0.263367 -11.125 -11.125
0.17662 -11.0711 -11.0711
0.175805 -11.123 -11.123
0.08739 -11.1731 -11.1731
0.0856118 -11.2771 -11.2771
0.261063 -11.281 -11.281
0.262606 -11.1769 -11.1769
0.0865033 -11.2251 -11.2251
0.173323 -11.279 -11.279
0.261838 -11.2289 -11.2289
0.174984 -11.175 -11.175
0.174156 -11.227 -11.227
0.0856118 -11.2771 -11.2771
0.0838143 -11.3813 -11.3813
0.259491 -11.3851 -11.3851
0.261063 -11.281 -11.281
0.0847155 -11.3292 -11.3292
0.171638 -11.3832 -11.3832
0.26028 -11.333 -11.333
0.173323 -11.279 -11.279
0.172483 -11.3311 -11.3311
0.0838143 -11.3813 -11.3813
0.0819976 -11.4856 -11.4856
0.25789 -11.4894 -11.4894
0.259491 -11.3851 -11.3851
0.0829083 -11.4334 -11.4334
0.169929 -11.4875 -11.4875
0.258694 -11.4373 -11.4373
0.171638 -11.3832 -11.3832
0.170787 -11.4353 -11.4353
0.0819976 -11.4856 -11.4856
0.0801621 -11.59 -11.59
0.256262 -11.5938 -11.5938
0.25789 -11.4894 -11.4894
0.0810822 -11.5378 -11.5378
0.168197 -11.5919 -11.5919
0.257079 -11.5416 -11.5416
0.169929 -11.4875 -11.4875
0.169066 -11.5397 -11.5397
0.0801621 -11.59 -11.59
0.0783078 -11.6945 -11.6945
0.254605 -11.6984 -11.6984
0.256262 -11.5938 -11.5938
0.0792372 -11.6423 -11.6423
0.166442 -11.6964 -11.6964
0.255437 -11.6461 -11.6461
0.168197 -11.5919 -11.5919
0.167323 -11.6442 -11.6442
0.0783078 -11.6945 -11.6945
0.076435 -11.7992 -11.7992
0.252921 -11.803 -11.803
0.254605 -11.6984 -11.6984
0.0773737 -11.7468 -11.7468
0.164664 -11.8011 -11.8011
0.253767 -11.7507 -11.7507
0.166442 -11.6964 -11.6964
0.165556 -11.7487 -11.7487
0.076435 -11.7992 -11.7992
0.074544 -11.9039 -11.9039
0.25121 -11.9078 -11.9078
0.252921 -11.803 -11.803
0.0754918 -11.8516 -11.8516
0.162862 -11.9058 -11.9058
0.252069 -11.8554 -11.8554
0.164664 -11.8011 -11.8011
0.163766 -11.8535 -11.8535
0.074544 -11.9039 -11.9039
0.0726349 -12.0088 -12.0088
0.249471 -12.0126 -12.0126
0.25121 -11.9078 -11.9078
0.0735917 -11.9564 -11.9564
0.161038 -12.0107 -12.0107
0.250344 -11.9602 -11.9602
0.162862 -11.9058 -11.9058
0.161953 -11.9583 -11.9583
0.0726349 -12.0088 -12.0088
0.070708 -12.1138 -12.1138
0.247705 -12.1176 -12.1176
0.249471 -12.0126 -12.0126
0.0716737 -12.0613 -12.0613
0.159192 -12.1157 -12.1157
0.248591 -12.0651 -12.0651
0.161038 -12.0107 -12.0107
0.160118 -12.0632 -12.0632
0.070708 -12.1138 -12.1138
0.0687635 -12.2188 -12.2188
0.245913 -12.2226 -12.2226
0.247705 -12.1176 -12.1176
0.069738 -12.1663 -12.1663
0.157323 -12.2207 -12.2207
0.246812 -12.1701 -12.1701
0.159192 -12.1157 -12.1157
0.15826 -12.1682 -12.1682
0.0687635 -12.2188 -12.2188
0.0668017 -12.3239 -12.3239
0.244094 -12.3278 -12.3278
0.245913 -12.2226 -12.2226
0.0677848 -12.2714 -12.2714
0.155433 -12.3258 -12.3258
0.245006 -12.2752 -12.2752
0.157323 -12.2207 -12.2207
0.156381 -12.2733 -12.2733
0.0668017 -12.3239 -12.3239
0.0648226 -12.4292 -12.4292
0.242248 -12.433 -12.433
0.244094 -12.3278 -12.3278
0.0658143 -12.3765 -12.3765
0.153521 -12.4311 -12.4311
0.243174 -12.3803 -12.3803
0.155433 -12.3258 -12.3258
0.15448 -12.3784 -12.3784
0.0648226 -12.4292 -12.4292
0.0628267 -12.5344 -12.5344
0.240377 -12.5383 -12.5383
0.242248 -12.433 -12.433
0.0638268 -12.4818 -12.4818
0.151587 -12.5363 -12.5363
0.241316 -12.4856 -12.4856
0.153521 -12.4311 -12.4311
0.152556 -12.4837 -12.4837
0.0628267 -12.5344 -12.5344
0.0608139 -12.6398 -12.6398
0.238479 -12.6436 -12.6436
0.240377 -12.5383 -12.5383
0.0618224 -12.5871 -12.5871
0.149632 -12.6417 -12.6417
0.239431 -12.5909 -12.5909
0.151587 -12.5363 -12.5363
0.150612 -12.589 -12.589
0.0608139 -12.6398 -12.6398
0.0587846 -12.7452 -12.7452
0.236556 -12.749 -12.749
0.238479 -12.6436 -12.6436
0.0598013 -12.6925 -12.6925
0.147656 -12.7471 -12.7471
0.237521 -12.6963 -12.6963
0.149632 -12.6417 -12.6417
0.148646 -12.6944 -12.6944
0.0587846 -12.7452 -12.7452
0.0567388 -12.8507 -12.8507
0.234608 -12.8545 -12.8545
0.236556 -12.749 -12.749
0.0577638 -12.798 -12.798
0.145658 -12.8526 -12.8526
0.235585 -12.8018 -12.8018
0.147656 -12.7471 -12.7471
0.14666 -12.7999 -12.7999
0.0567388 -12.8507 -12.8507
0.0546767 -12.9563 -12.9563
0.232634 -12.96 -12.96
0.234608 -12.8545 -12.8545
0.0557098 -12.9035 -12.9035
0.14364 -12.9581 -12.9581
0.233624 -12.9073 -12.9073
0.145658 -12.8526 -12.8526
0.144652 -12.9054 -12.9054
0.0546767 -12.9563 -12.9563
0.0525979 -13.0618 -13.0618
0.230635 -13.0656 -13.0656
0.232634 -12.96 -12.96
0.0536394 -13.009 -13.009
0.141601 -13.0637 -13.0637
0.231638 -13.0128 -13.0128
0.14364 -12.9581 -12.9581
0.142624 -13.0109 -13.0109
0.0525979 -13.0618 -13.0618
0.0505023 -13.1675 -13.1675
0.228612 -13.1712 -13.1712
0.230635 -13.0656 -13.0656
0.0515522 -13.1147 -13.1147
0.139541 -13.1694 -13.1694
0.229626 -13.1184 -13.1184
0.141601 -13.0637 -13.0637
0.140574 -13.1165 -13.1165
0.0505023 -13.1675 -13.1675
0.0483889 -13.2732 -13.2732
0.226563 -13.2769 -13.2769
0.228612 -13.1712 -13.1712
0.0494478 -13.2203 -13.2203
0.13746 -13.275 -13.275
0.22759 -13.2241 -13.2241
0.139541 -13.1694 -13.1694
0.138503 -13.2222 -13.2222
0.0483889 -13.2732 -13.2732
0.0462571 -13.3789 -13.3789
0.224489 -13.3826 -13.3826
0.226563 -13.2769 -13.2769
0.0473254 -13.326 -13.326
0.135356 -13.3807 -13.3807
0.225529 -13.3297 -13.3297
0.13746 -13.275 -13.275
0.136411 -13.3279 -13.3279
0.0462571 -13.3789 -13.3789
0.0441052 -13.4846 -13.4846
0.22239 -13.4883 -13.4883
0.224489 -13.3826 -13.3826
0.0451836 -13.4317 -13.4317
0.133227 -13.4864 -13.4864
0.223443 -13.4355 -13.4355
0.135356 -13.3807 -13.3807
0.134295 -13.4336 -13.4336
0.0441052 -13.4846 -13.4846
0.0419339 -13.5903 -13.5903
0.220261 -13.5941 -13.5941
0.22239 -13.4883 -13.4883
0.043022 -13.5375 -13.5375
0.131073 -13.5922 -13.5922
0.221329 -13.5412 -13.5412
0.133227 -13.4864 -13.4864
0.132153 -13.5393 -13.5393
0.0419339 -13.5903 -13.5903
0.0397464 -13.6961 -13.6961
0.218101 -13.6999 -13.6999
0.220261 -13.5941 -13.5941
0.0408414 -13.6432 -13.6432
0.128892 -13.698 -13.698
0.219185 -13.647 -13.647
0.131073 -13.5922 -13.5922
0.129985 -13.6451 -13.6451
0.0397464 -13.6961 -13.6961
0.0375569 -13.8019 -13.8019
0.215909 -13.8057 -13.8057
0.218101 -13.6999 -13.6999
0.038651 -13.749 -13.749
0.126698 -13.8038 -13.8038
0.217007 -13.7528 -13.7528
0.128892 -13.698 -13.698
0.127794 -13.7509 -13.7509
0.0375569 -13.8019 -13.8019
0.0353793 -13.9076 -13.9076
0.213733 -13.9116 -13.9116
0.215909 -13.8057 -13.8057
0.0364659 -13.8548 -13.8548
0.124532 -13.9096 -13.9096
0.214813 -13.8587 -13.8587
0.126698 -13.8038 -13.8038
0.125609 -13.8567 -13.8567
0 0 0
0.00411603 -0.0011741 -0.0011741
0.00690905 -0.00346139 -0.00346139
0 0 0
0.00199765 -0.000421764 -0.000421764
0.00520149 -0.0020938 -0.0020938
0.0037576 -0.00215486 -0.00215486
0 0 0
0.00248122 -0.000922196 -0.000922196
0.00411603 -0.0011741 -0.0011741
0.0085715 -0.0033865 -0.0033865
0.0128881 -0.0060202 -0.0060202
0.00690905 -0.00346139 -0.00346139
0.00632261 -0.0021735 -0.0021735
0.0106203 -0.00457 -0.00457
0.00990799 -0.00469246 -0.00469246
0.00520149 -0.0020938 -0.0020938
0.00792614 -0.00329431 -0.00329431
0.0085715 -0.0033865 -0.0033865
0.0130667 -0.00642517 -0.00642517
0.018916 -0.00910647 -0.00910647
0.0128881 -0.0060202 -0.0060202
0.0108219 -0.00479911 -0.00479911
0.0159586 -0.00766529 -0.00766529
0.0158918 -0.00747317 -0.00747317
0.0106203 -0.00457 -0.00457
0.0132967 -0.00601715 -0.00601715
0.0130667 -0.00642517 -0.00642517
0.0175379 -0.0103806 -0.0103806
0.0249904 -0.0130748 -0.0130748
0.018916 -0.00910647 -0.00910647
0.0153064 -0.00828293 -0.00828293
0.0212491 -0.0116229 -0.0116229
0.0219491 -0.0109711 -0.0109711
0.0159586 -0.00766529 -0.00766529
0.018608 -0.00952813 -0.00952813
0.0175379 -0.0103806 -0.0103806
0.0219689 -0.0153179 -0.0153179
0.0310945 -0.0180073 -0.0180073
0.0249904 -0.0130748 -0.0130748
0.0197582 -0.0127237 -0.0127237
0.0265189 -0.0165588 -0.0165588
0.0280405 -0.0154171 -0.0154171
0.0212491 -0.0116229 -0.0116229
0.0238862 -0.0139649 -0.0139649
0.0219689 -0.0153179 -0.0153179
0.0263679 -0.0212751 -0.0212751
0.0371978 -0.0239595 -0.0239595
0.0310945 -0.0180073 -0.0180073
0.0241722 -0.0181679 -0.0181679
0.031768 -0.0225103 -0.0225103
0.0341473 -0.0208546 -0.0208546
0.0265189 -0.0165588 -0.0165588
0.0291461 -0.0194064 -0.0194064
0.0263679 -0.0212751 -0.0212751
0.0307361 -0.0282631 -0.0282631
0.0432893 -0.0309394 -0.0309394
0.0371978 -0.0239595 -0.0239595
0.0285557 -0.0246399 -0.0246399
0.0369955 -0.0294936 -0.0294936
0.0402458 -0.0273206 -0.0273206
0.031768 -0.0225103 -0.0225103
0.0343846 -0.0258726 -0.0258726
0.0307361 -0.0282631 -0.0282631
0.0350766 -0.036285 -0.036285
0.0493572 -0.0389537 -0.0389537
0.0432893 -0.0309394 -0.0309394
0.0329098 -0.0321449 -0.0321449
0.0421977 -0.037511 -0.037511
0.0463267 -0.0348173 -0.0348173
0.0369955 -0.0294936 -0.0294936
0.0395999 -0.0333732 -0.0333732
0.0350766 -0.036285 -0.036285
0.0393895 -0.0453378 -0.0453378
0.0553963 -0.0479988 -0.0479988
0.0493572 -0.0389537 -0.0389537
0.0372364 -0.0406828 -0.0406828
0.0473725 -0.04656 -0.04656
0.0523806 -0.0433477 -0.0433477
0.0421977 -0.037511 -0.037511
0.0447886 -0.0419068 -0.0419068
0.0393895 -0.0453378 -0.0453378
0.0436753 -0.0554171 -0.0554171
0.0614027 -0.0580711 -0.0580711
0.0553963 -0.0479988 -0.0479988
0.0415358 -0.0502495 -0.0502495
0.0525178 -0.0566359 -0.0566359
0.0584038 -0.0529069 -0.0529069
0.0473725 -0.04656 -0.04656
0.0499489 -0.0514699 -0.0514699
0.0436753 -0.0554171 -0.0554171
0.0479337 -0.0665174 -0.0665174
0.0673745 -0.0691647 -0.0691647
0.0614027 -0.0580711 -0.0580711
0.0458079 -0.06084 -0.06084
0.0576325 -0.0677333 -0.0677333
0.064393 -0.0634906 -0.0634906
0.0525178 -0.0566359 -0.0566359
0.0550791 -0.0620573 -0.0620573
0.0479337 -0.0665174 -0.0665174
0.0521646 -0.078633 -0.078633
0.0733102 -0.0812745 -0.0812745
0.0673745 -0.0691647 -0.0691647
0.0500527 -0.0724486 -0.0724486
0.0627156 -0.0798464 -0.0798464
0.0703469 -0.0750929 -0.0750929
0.0576325 -0.0677333 -0.0677333
0.0601781 -0.0736632 -0.0736632
0.0521646 -0.078633 -0.078633
0.0563676 -0.0917583 -0.0917583
0.0792092 -0.0943944 -0.0943944
0.0733102 -0.0812745 -0.0812745
0.0542696 -0.0850698 -0.0850698
0.0677665 -0.0929696 -0.0929696
0.0762644 -0.0877085 -0.0877085
0.0627156 -0.0798464 -0.0798464
0.0652451 -0.0862821 -0.0862821
0.0563676 -0.0917583 -0.0917583
0.0605423 -0.105888 -0.105888
0.0850708 -0.108519 -0.108519
0.0792092 -0.0943944 -0.0943944
0.0584585 -0.0986978 -0.0986978
0.0727846 -0.107097 -0.107097
0.0821447 -0.101332 -0.101332
0.0677665 -0.0929696 -0.0929696
0.0702797 -0.0999082 -0.0999082
0.0605423 -0.105888 -0.105888
0.0646884 -0.121016 -0.121016
0.0908947 -0.123643 -0.123643
0.0850708 -0.108519 -0.108519
0.062619 -0.113327 -0.113327
0.0777696 -0.122224 -0.122224
0.0879875 -0.115956 -0.115956
0.0727846 -0.107097 -0.107097
0.0752813 -0.114536 -0.114536
0.0646884 -0.121016 -0.121016
0.0688055 -0.137136 -0.137136
0.0966803 -0.13976 -0.13976
0.0908947 -0.123643 -0.123643
0.0667506 -0.128952 -0.128952
0.0827209 -0.138343 -0.138343
0.0937923 -0.131578 -0.131578
0.0777696 -0.122224 -0.122224
0.0802495 -0.13016 -0.13016
0.0688055 -0.137136 -0.137136
0.0728932 -0.154245 -0.154245
0.102427 -0.156866 -0.156866
0.0966803 -0.13976 -0.13976
0.070853 -0.145567 -0.145567
0.0876384 -0.15545 -0.15545
0.0995586 -0.14819 -0.14819
0.0827209 -0.138343 -0.138343
0.0851839 -0.146774 -0.146774
0.0728932 -0.154245 -0.154245
0.0769512 -0.172335 -0.172335
0.108135 -0.174953 -0.174953
0.102427 -0.156866 -0.156866
0.0749259 -0.163167 -0.163167
0.0925214 -0.17354 -0.17354
0.105286 -0.165787 -0.165787
0.0876384 -0.15545 -0.15545
0.0900842 -0.164373 -0.164373
0.0769512 -0.172335 -0.172335
0.0809791 -0.191401 -0.191401
0.113804 -0.194018 -0.194018
0.108135 -0.174953 -0.174953
0.0789689 -0.181746 -0.181746
0.0973699 -0.192606 -0.192606
0.110975 -0.184364 -0.184364
0.0925214 -0.17354 -0.17354
0.09495 -0.182951 -0.182951
0.0809791 -0.191401 -0.191401
0.0849766 -0.211439 -0.211439
0.119434 -0.214055 -0.214055
0.113804 -0.194018 -0.194018
0.0829817 -0.201299 -0.201299
0.102183 -0.212644 -0.212644
0.116624 -0.203915 -0.203915
0.0973699 -0.192606 -0.192606
0.099781 -0.202504 -0.202504
0.0849766 -0.211439 -0.211439
0.0889435 -0.232442 -0.232442
0.125023 -0.235057 -0.235057
0.119434 -0.214055 -0.214055
0.0869639 -0.22182 -0.22182
0.106961 -0.233647 -0.233647
0.122233 -0.224435 -0.224435
0.102183 -0.212644 -0.212644
0.104577 -0.223025 -0.223025
0.0889435 -0.232442 -0.232442
0.0928793 -0.254405 -0.254405
0.130572 -0.25702 -0.25702
0.125023 -0.235057 -0.235057
0.0909153 -0.243304 -0.243304
0.111704 -0.255611 -0.255611
0.127803 -0.245919 -0.245919
0.106961 -0.233647 -0.233647
0.109337 -0.244509 -0.244509
0.0928793 -0.254405 -0.254405
0.0967838 -0.277322 -0.277322
0.136081 -0.279938 -0.279938
0.130572 -0.25702 -0.25702
0.0948355 -0.265745 -0.265745
0.116411 -0.278529 -0.278529
0.133332 -0.26836 -0.26836
0.111704 -0.255611 -0.255611
0.114062 -0.266951 -0.266951
0.0967838 -0.277322 -0.277322
0.100657 -0.301189 -0.301189
0.141549 -0.303805 -0.303805
0.136081 -0.279938 -0.279938
0.0987241 -0.289137 -0.289137
0.121081 -0.302397 -0.302397
0.13882 -0.291753 -0.291753
0.116411 -0.278529 -0.278529
0.11875 -0.290344 -0.290344
0.100657 -0.301189 -0.301189
0.104497 -0.325999 -0.325999
0.146975 -0.328617 -0.328617
0.141549 -0.303805 -0.303805
0.102581 -0.313476 -0.313476
0.125715 -0.327208 -0.327208
0.144267 -0.316093 -0.316093
0.121081 -0.302397 -0.302397
0.123402 -0.314685 -0.314685
0.104497 -0.325999 -0.325999
0.108306 -0.351747 -0.351747
0.15236 -0.354367 -0.354367
0.146975 -0.328617 -0.328617
0.106406 -0.338756 -0.338756
0.130312 -0.352958 -0.352958
0.149673 -0.341375 -0.341375
0.125715 -0.327208 -0.327208
0.128018 -0.339966 -0.339966
0.108306 -0.351747 -0.351747
0.112082 -0.378428 -0.378428
0.157704 -0.38105 -0.38105
0.15236 -0.354367 -0.354367
0.110198 -0.364971 -0.364971
0.134871 -0.37964 -0.37964
0.155037 -0.367592 -0.367592
0.130312 -0.352958 -0.352958
0.132596 -0.366183 -0.366183
0.112082 -0.378428 -0.378428
0.115825 -0.406036 -0.406036
0.163005 -0.408661 -0.408661
0.157704 -0.38105 -0.38105
0.113958 -0.392116 -0.392116
0.139394 -0.40725 -0.40725
0.16036 -0.39474 -0.39474
0.134871 -0.37964 -0.37964
0.137137 -0.39333 -0.39333
0.115825 -0.406036 -0.406036
0.119535 -0.434565 -0.434565
0.168264 -0.437194 -0.437194
0.163005 -0.408661 -0.408661
0.117684 -0.420186 -0.420186
0.143878 -0.435782 -0.435782
0.16564 -0.422812 -0.422812
0.139394 -0.40725 -0.40725
0.141641 -0.421401 -0.421401
0.119535 -0.434565 -0.434565
0.123212 -0.464011 -0.464011
0.173481 -0.466643 -0.466643
0.168264 -0.437194 -0.437194
0.121378 -0.449174 -0.449174
0.148325 -0.46523 -0.46523
0.170878 -0.451804 -0.451804
0.143878 -0.435782 -0.435782
0.146106 -0.450392 -0.450392
0.123212 -0.464011 -0.464011
0.126855 -0.494368 -0.494368
0.178655 -0.497004 -0.497004
0.173481 -0.466643 -0.466643
0.125038 -0.479076 -0.479076
0.152734 -0.495589 -0.495589
0.176073 -0.48171 -0.48171
0.148325 -0.46523 -0.46523
0.150534 -0.480296 -0.480296
0.126855 -0.494368 -0.494368
0.130464 -0.525629 -0.525629
0.183785 -0.52827 -0.52827
0.178655 -0.497004 -0.497004
0.128664 -0.509885 -0.509885
0.157103 -0.526854 -0.526854
0.181225 -0.512524 -0.512524
0.152734 -0.495589 -0.495589
0.154923 -0.511109 -0.511109
0.130464 -0.525629 -0.525629
0.13404 -0.55779 -0.55779
0.188873 -0.560437 -0.560437
0.183785 -0.52827 -0.52827
0.132256 -0.541598 -0.541598
0.161435 -0.559018 -0.559018
0.186334 -0.544241 -0.544241
0.157103 -0.526854 -0.526854
0.159274 -0.542824 -0.542824
0.13404 -0.55779 -0.55779
0.13758 -0.590846 -0.590846
0.193916 -0.593498 -0.593498
0.188873 -0.560437 -0.560437
0.135814 -0.574207 -0.574207
0.165727 -0.592077 -0.592077
0.1914 -0.576856 -0.576856
0.161435 -0.559018 -0.559018
0.163586 -0.575436 -0.575436
0.13758 -0.590846 -0.590846
0.141086 -0.62479 -0.62479
0.198916 -0.627448 -0.627448
0.193916 -0.593498 -0.593498
0.139338 -0.607707 -0.607707
0.16998 -0.626025 -0.626025
0.196422 -0.610362 -0.610362
0.165727 -0.592077 -0.592077
0.167858 -0.60894 -0.60894
0.141086 -0.62479 -0.62479
0.144557 -0.659618 -0.659618
0.203872 -0.662282 -0.662282
0.198916 -0.627448 -0.627448
0.142826 -0.642094 -0.642094
0.174193 -0.660856 -0.660856
0.2014 -0.644755 -0.644755
0.16998 -0.626025 -0.626025
0.172092 -0.64333 -0.64333
0.144557 -0.659618 -0.659618
0.147993 -0.695323 -0.695323
0.208783 -0.697994 -0.697994
0.203872 -0.662282 -0.662282
0.14628 -0.677361 -0.677361
0.178367 -0.696565 -0.696565
0.206333 -0.680028 -0.680028
0.174193 -0.660856 -0.660856
0.176285 -0.678601 -0.678601
0.147993 -0.695323 -0.695323
0.151394 -0.731901 -0.731901
0.21365 -0.734579 -0.734579
0.208783 -0.697994 -0.697994
0.149698 -0.713504 -0.713504
0.182501 -0.733147 -0.733147
0.211223 -0.716178 -0.716178
0.178367 -0.696565 -0.696565
0.180439 -0.714748 -0.714748
0.151394 -0.731901 -0.731901
0.154759 -0.769346 -0.769346
0.218473 -0.772031 -0.772031
0.21365 -0.734579 -0.734579
0.153081 -0.750515 -0.750515
0.186595 -0.770596 -0.770596
0.216067 -0.753197 -0.753197
0.182501 -0.733147 -0.733147
0.184553 -0.751764 -0.751764
0.154759 -0.769346 -0.769346
0.158089 -0.807652 -0.807652
0.22325 -0.810345 -0.810345
0.218473 -0.772031 -0.772031
0.156428 -0.788391 -0.788391
0.190648 -0.808907 -0.808907
0.220867 -0.79108 -0.79108
0.186595 -0.770596 -0.770596
0.188626 -0.789644 -0.789644
0.158089 -0.807652 -0.807652
0.161382 -0.846814 -0.846814
0.227982 -0.849515 -0.849515
0.22325 -0.810345 -0.810345
0.15974 -0.827126 -0.827126
0.194661 -0.848073 -0.848073
0.225622 -0.829823 -0.829823
0.190648 -0.808907 -0.808907
0.19266 -0.828383 -0.828383
0.161382 -0.846814 -0.846814
0.164639 -0.886826 -0.886826
0.232669 -0.889536 -0.889536
0.227982 -0.849515 -0.849515
0.163015 -0.866714 -0.866714
0.198633 -0.888091 -0.888091
0.230331 -0.869419 -0.869419
0.194661 -0.848073 -0.848073
0.196652 -0.867976 -0.867976
0.164639 -0.886826 -0.886826
0.16786 -0.927684 -0.927684
0.23731 -0.930402 -0.930402
0.232669 -0.889536 -0.889536
0.166254 -0.90715 -0.90715
0.202564 -0.928953 -0.928953
0.234995 -0.909863 -0.909863
0.198633 -0.888091 -0.888091
0.200603 -0.908416 -0.908416
0.16786 -0.927684 -0.927684
0.171044 -0.96938 -0.96938
0.241905 -0.972108 -0.972108
0.23731 -0.930402 -0.930402
0.169457 -0.948427 -0.948427
0.206454 -0.970655 -0.970655
0.239613 -0.95115 -0.95115
0.202564 -0.928953 -0.928953
0.204514 -0.949699 -0.949699
0.171044 -0.96938 -0.96938
0.174192 -1.01191 -1.01191
0.246455 -1.01465 -1.01465
0.241905 -0.972108 -0.972108
0.172623 -0.990542 -0.990542
0.210302 -1.01319 -1.01319
0.244186 -0.993274 -0.993274
0.206454 -0.970655 -0.970655
0.208383 -0.991819 -0.991819
0.174192 -1.01191 -1.01191
0.177303 -1.05527 -1.05527
0.250958 -1.05802 -1.05802
0.246455 -1.01465 -1.01465
0.175752 -1.03349 -1.03349
0.214109 -1.05656 -1.05656
0.248712 -1.03623 -1.03623
0.210302 -1.01319 -1.01319
0.212211 -1.03477 -1.03477
0.177303 -1.05527 -1.05527
0.180376 -1.09945 -1.09945
0.255415 -1.10221 -1.10221
0.250958 -1.05802 -1.05802
0.178844 -1.07726 -1.07726
0.217874 -1.10074 -1.10074
0.253192 -1.08001 -1.08001
0.214109 -1.05656 -1.05656
0.215997 -1.07855 -1.07855
0.180376 -1.09945 -1.09945
0.183412 -1.14445 -1.14445
0.259826 -1.14722 -1.14722
0.255415 -1.10221 -1.10221
0.181899 -1.12185 -1.12185
0.221598 -1.14575 -1.14575
0.257626 -1.12461 -1.12461
0.217874 -1.10074 -1.10074
0.219741 -1.12314 -1.12314
0.183412 -1.14445 -1.14445
0.186411 -1.19027 -1.19027
0.264189 -1.19304 -1.19304
0.259826 -1.14722 -1.14722
0.184916 -1.16726 -1.16726
0.225279 -1.19157 -1.19157
0.262013 -1.17003 -1.17003
0.221598 -1.14575 -1.14575
0.223444 -1.16856 -1.16856
0.186411 -1.19027 -1.19027
0.189372 -1.23688 -1.23688
0.268506 -1.23967 -1.23967
0.264189 -1.19304 -1.19304
0.187896 -1.21347 -1.21347
0.228918 -1.23819 -1.23819
0.266354 -1.21626 -1.21626
0.225279 -1.19157 -1.19157
0.227104 -1.21478 -1.21478
0.189372 -1.23688 -1.23688
0.192296 -1.2843 -1.2843
0.272777 -1.2871 -1.2871
0.268506 -1.23967 -1.23967
0.190839 -1.26049 -1.26049
0.232515 -1.28562 -1.28562
0.270647 -1.26329 -1.26329
0.228918 -1.23819 -1.23819
0.230722 -1.26181 -1.26181
0.192296 -1.2843 -1.2843
0.195181 -1.33252 -1.33252
0.277 -1.33533 -1.33533
0.272777 -1.2871 -1.2871
0.193743 -1.30831 -1.30831
0.236069 -1.33384 -1.33384
0.274894 -1.31112 -1.31112
0.232515 -1.28562 -1.28562
0.234298 -1.30963 -1.30963
0.195181 -1.33252 -1.33252
0.198028 -1.38153 -1.38153
0.281175 -1.38435 -1.38435
0.277 -1.33533 -1.33533
0.196609 -1.35692 -1.35692
0.239581 -1.38285 -1.38285
0.279093 -1.35974 -1.35974
0.236069 -1.33384 -1.33384
0.23783 -1.35825 -1.35825
0.198028 -1.38153 -1.38153
0.200838 -1.43132 -1.43132
0.285304 -1.43415 -1.43415
0.281175 -1.38435 -1.38435
0.199438 -1.40632 -1.40632
0.24305 -1.43265 -1.43265
0.283246 -1.40915 -1.40915
0.239581 -1.38285 -1.38285
0.241321 -1.40765 -1.40765
0.200838 -1.43132 -1.43132
0.203609 -1.48189 -1.48189
0.289385 -1.48473 -1.48473
0.285304 -1.43415 -1.43415
0.202228 -1.4565 -1.4565
0.246476 -1.48323 -1.48323
0.28735 -1.45934 -1.45934
0.24305 -1.43265 -1.43265
0.244768 -1.45784 -1.45784
0.203609 -1.48189 -1.48189
0.206341 -1.53323 -1.53323
0.293418 -1.53609 -1.53609
0.289385 -1.48473 -1.48473
0.20498 -1.50746 -1.50746
0.249859 -1.53458 -1.53458
0.291407 -1.51031 -1.51031
0.246476 -1.48323 -1.48323
0.248173 -1.5088 -1.5088
0.206341 -1.53323 -1.53323
0.209035 -1.58534 -1.58534
0.297403 -1.58821 -1.58821
0.293418 -1.53609 -1.53609
0.207693 -1.55919 -1.55919
0.253198 -1.58669 -1.58669
0.295417 -1.56205 -1.56205
0.249859 -1.53458 -1.53458
0.251534 -1.56054 -1.56054
0.209035 -1.58534 -1.58534
0.21169 -1.63822 -1.63822
0.301341 -1.6411 -1.6411
0.297403 -1.58821 -1.58821
0.210367 -1.61168 -1.61168
0.256495 -1.63958 -1.63958
0.299378 -1.61456 -1.61456
0.253198 -1.58669 -1.58669
0.254852 -1.61304 -1.61304
0.21169 -1.63822 -1.63822
0.214306 -1.69185 -1.69185
0.305231 -1.69474 -1.69474
0.301341 -1.6411 -1.6411
0.213003 -1.66494 -1.66494
0.259748 -1.69322 -1.69322
0.303292 -1.66783 -1.66783
0.256495 -1.63958 -1.63958
0.258127 -1.6663 -1.6663
0.214306 -1.69185 -1.69185
0.216884 -1.74623 -1.74623
0.309072 -1.74914 -1.74914
0.305231 -1.69474 -1.69474
0.2156 -1.71895 -1.71895
0.262957 -1.74761 -1.74761
0.307157 -1.72185 -1.72185
0.259748 -1.69322 -1.69322
0.261358 -1.72032 -1.72032
0.216884 -1.74623 -1.74623
0.219422 -1.80136 -1.80136
0.312865 -1.80428 -1.80428
0.309072 -1.74914 -1.74914
0.218158 -1.7737 -1.7737
0.266123 -1.80274 -1.80274
0.310975 -1.77662 -1.77662
0.262957 -1.74761 -1.74761
0.264545 -1.77508 -1.77508
0.219422 -1.80136 -1.80136
0.221922 -1.85723 -1.85723
0.31661 -1.86017 -1.86017
0.312865 -1.80428 -1.80428
0.220677 -1.82921 -1.82921
0.269245 -1.85862 -1.85862
0.314744 -1.83213 -1.83213
0.266123 -1.80274 -1.80274
0.267689 -1.83059 -1.83059
0.221922 -1.85723 -1.85723
0.224382 -1.91384 -1.91384
0.320307 -1.91679 -1.91679
0.31661 -1.86017 -1.86017
0.223157 -1.88545 -1.88545
0.272323 -1.91524 -1.91524
0.318464 -1.88839 -1.88839
0.269245 -1.85862 -1.85862
0.27079 -1.88684 -1.88684
0.224382 -1.91384 -1.91384
0.226802 -1.97118 -1.97118
0.323955 -1.97414 -1.97414
0.320307 -1.91679 -1.91679
0.225597 -1.94242 -1.94242
0.275358 -1.97258 -1.97258
0.322137 -1.94537 -1.94537
0.272323 -1.91524 -1.91524
0.273846 -1.94382 -1.94382
0.226802 -1.97118 -1.97118
0.229184 -2.02924 -2.02924
0.327554 -2.03222 -2.03222
0.323955 -1.97414 -1.97414
0.227998 -2.00012 -2.00012
0.278348 -2.03065 -2.03065
0.32576 -2.00309 -2.00309
0.275358 -1.97258 -1.97258
0.276858 -2.00153 -2.00153
0.229184 -2.02924 -2.02924
0.231526 -2.08802 -2.08802
0.331105 -2.09101 -2.09101
0.327554 -2.03222 -2.03222
0.23036 -2.05854 -2.05854
0.281294 -2.08944 -2.08944
0.329335 -2.06152 -2.06152
0.278348 -2.03065 -2.03065
0.279827 -2.05995 -2.05995
0.231526 -2.08802 -2.08802
0.233828 -2.14751 -2.14751
0.334607 -2.15052 -2.15052
0.331105 -2.09101 -2.09101
0.232682 -2.11768 -2.11768
0.284196 -2.14894 -2.14894
0.332862 -2.12068 -2.12068
0.281294 -2.08944 -2.08944
0.282751 -2.1191 -2.1191
0.233828 -2.14751 -2.14751
0.236091 -2.20772 -2.20772
0.33806 -2.21073 -2.21073
0.334607 -2.15052 -2.15052
0.234964 -2.17753 -2.17753
0.287054 -2.20915 -2.20915
0.336339 -2.18054 -2.18054
0.284196 -2.14894 -2.14894
0.285631 -2.17896 -2.17896
0.236091 -2.20772 -2.20772
0.238314 -2.26862 -2.26862
0.341464 -2.27165 -2.27165
0.33806 -2.21073 -2.21073
0.237207 -2.23808 -2.23808
0.289868 -2.27006 -2.27006
0.339768 -2.24111 -2.24111
0.287054 -2.20915 -2.20915
0.288467 -2.23952 -2.23952
0.238314 -2.26862 -2.26862
0.240497 -2.33022 -2.33022
0.344819 -2.33327 -2.33327
0.341464 -2.27165 -2.27165
0.23941 -2.29933 -2.29933
0.292637 -2.33167 -2.33167
0.343148 -2.30237 -2.30237
0.289868 -2.27006 -2.27006
0.291258 -2.30078 -2.30078
0.240497 -2.33022 -2.33022
0.24264 -2.39252 -2.39252
0.348126 -2.39558 -2.39558
0.344819 -2.33327 -2.33327
0.241574 -2.36128 -2.36128
0.295362 -2.39397 -2.39397
0.346479 -2.36434 -2.36434
0.292637 -2.33167 -2.33167
0.294005 -2.36274 -2.36274
0.24264 -2.39252 -2.39252
0.244744 -2.4555 -2.4555
0.351383 -2.45857 -2.45857
0.348126 -2.39558 -2.39558
0.243697 -2.42392 -2.42392
0.298043 -2.45696 -2.45696
0.34976 -2.42699 -2.42699
0.295362 -2.39397 -2.39397
0.296708 -2.42538 -2.42538
0.244744 -2.4555 -2.4555
0.246808 -2.51916 -2.51916
0.354591 -2.52225 -2.52225
0.351383 -2.45857 -2.45857
0.245781 -2.48724 -2.48724
0.300679 -2.52063 -2.52063
0.352993 -2.49033 -2.49033
0.298043 -2.45696 -2.45696
0.299366 -2.48871 -2.48871
0.246808 -2.51916 -2.51916
0.248831 -2.58349 -2.58349
0.35775 -2.5866 -2.5866
0.354591 -2.52225 -2.52225
0.247824 -2.55124 -2.55124
0.30327 -2.58497 -2.58497
0.356177 -2.55434 -2.55434
0.300679 -2.52063 -2.52063
0.30198 -2.55272 -2.55272
0.248831 -2.58349 -2.58349
0.250815 -2.6485 -2.6485
0.36086 -2.65162 -2.65162
0.35775 -2.5866 -2.5866
0.249828 -2.61591 -2.61591
0.305817 -2.64999 -2.64999
0.359311 -2.61903 -2.61903
0.30327 -2.58497 -2.58497
0.304549 -2.6174 -2.6174
0.250815 -2.6485 -2.6485
0.252759 -2.71417 -2.71417
0.36392 -2.7173 -2.7173
0.36086 -2.65162 -2.65162
0.251792 -2.68125 -2.68125
0.308319 -2.71567 -2.71567
0.362396 -2.68438 -2.68438
0.305817 -2.64999 -2.64999
0.307073 -2.68274 -2.68274
0.252759 -2.71417 -2.71417
0.254662 -2.7805 -2.7805
0.366932 -2.78365 -2.78365
0.36392 -2.7173 -2.7173
0.253715 -2.74725 -2.74725
0.310776 -2.782 -2.782
0.365432 -2.75039 -2.75039
0.308319 -2.71567 -2.71567
0.309553 -2.74875 -2.74875
0.254662 -2.7805 -2.7805
0.256526 -2.84748 -2.84748
0.369894 -2.85065 -2.85065
0.366932 -2.78365 -2.78365
0.255599 -2.81391 -2.81391
0.313189 -2.84899 -2.84899
0.368419 -2.81707 -2.81707
0.310776 -2.782 -2.782
0.311988 -2.81542 -2.81542
0.256526 -2.84748 -2.84748
0.258349 -2.91511 -2.91511
0.372806 -2.91829 -2.91829
0.369894 -2.85065 -2.85065
0.257442 -2.88122 -2.88122
0.315557 -2.91663 -2.91663
0.371356 -2.88439 -2.88439
0.313189 -2.84899 -2.84899
0.314379 -2.88273 -2.88273
0.258349 -2.91511 -2.91511
0.260132 -2.98338 -2.98338
0.37567 -2.98658 -2.98658
0.372806 -2.91829 -2.91829
0.259246 -2.94917 -2.94917
0.31788 -2.98491 -2.98491
0.374244 -2.95236 -2.95236
0.315557 -2.91663 -2.91663
0.316724 -2.95069 -2.95069
0.260132 -2.98338 -2.98338
0.261875 -3.05229 -3.05229
0.378484 -3.0555 -3.0555
0.37567 -2.98658 -2.98658
0.261009 -3.01776 -3.01776
0.320159 -3.05383 -3.05383
0.377083 -3.02096 -3.02096
0.31788 -2.98491 -2.98491
0.319025 -3.01929 -3.01929
0.261875 -3.05229 -3.05229
0.263578 -3.12184 -3.12184
0.381248 -3.12506 -3.12506
0.378484 -3.0555 -3.0555
0.262732 -3.08699 -3.08699
0.322393 -3.12338 -3.12338
0.379872 -3.0902 -3.0902
0.320159 -3.05383 -3.05383
0.321281 -3.08853 -3.08853
0.263578 -3.12184 -3.12184
0.265241 -3.192 -3.192
0.383964 -3.19524 -3.19524
0.381248 -3.12506 -3.12506
0.264415 -3.15684 -3.15684
0.324582 -3.19356 -3.19356
0.382612 -3.16007 -3.16007
0.322393 -3.12338 -3.12338
0.323493 -3.15839 -3.15839
0.265241 -3.192 -3.192
0.266864 -3.26279 -3.26279
0.38663 -3.26605 -3.26605
0.383964 -3.19524 -3.19524
0.266057 -3.22732 -3.22732
0.326726 -3.26435 -3.26435
0.385303 -3.23057 -3.23057
0.324582 -3.19356 -3.19356
0.325659 -3.22888 -3.22888
0.266864 -3.26279 -3.26279
0.268446 -3.33419 -3.33419
0.389246 -3.33747 -3.33747
0.38663 -3.26605 -3.26605
0.26766 -3.29842 -3.29842
0.328825 -3.33576 -3.33576
0.387944 -3.30168 -3.30168
0.326726 -3.26435 -3.26435
0.327781 -3.29998 -3.29998
0.268446 -3.33419 -3.33419
0.269988 -3.40621 -3.40621
0.391813 -3.40949 -3.40949
0.389246 -3.33747 -3.33747
0.269222 -3.37013 -3.37013
0.33088 -3.40779 -3.40779
0.390536 -3.3734 -3.3734
0.328825 -3.33576 -3.33576
0.329858 -3.3717 -3.3717
0.269988 -3.40621 -3.40621
0.27149 -3.47883 -3.47883
0.394331 -3.48213 -3.48213
0.391813 -3.40949 -3.40949
0.270744 -3.44244 -3.44244
0.33289 -3.48041 -3.48041
0.393078 -3.44573 -3.44573
0.33088 -3.40779 -3.40779
0.331891 -3.44402 -3.44402
0.27149 -3.47883 -3.47883
0.272952 -3.55204 -3.55204
0.3968 -3.55536 -3.55536
0.394331 -3.48213 -3.48213
0.272226 -3.51536 -3.51536
0.334855 -3.55364 -3.55364
0.395572 -3.51867 -3.51867
0.33289 -3.48041 -3.48041
0.333878 -3.51695 -3.51695
0.272952 -3.55204 -3.55204
0.274374 -3.62585 -3.62585
0.399219 -3.62918 -3.62918
0.3968 -3.55536 -3.55536
0.273668 -3.58887 -3.58887
0.336776 -3.62745 -3.62745
0.398016 -3.5922 -3.5922
0.334855 -3.55364 -3.55364
0.335821 -3.59047 -3.59047
0.274374 -3.62585 -3.62585
0.275756 -3.70025 -3.70025
0.401589 -3.70359 -3.70359
0.399219 -3.62918 -3.62918
0.27507 -3.66298 -3.66298
0.338652 -3.70186 -3.70186
0.40041 -3.66631 -3.66631
0.336776 -3.62745 -3.62745
0.337719 -3.66458 -3.66458
0.275756 -3.70025 -3.70025
0.277097 -3.77523 -3.77523
0.40391 -3.77859 -3.77859
0.401589 -3.70359 -3.70359
0.276432 -3.73767 -3.73767
0.340483 -3.77685 -3.77685
0.402755 -3.74102 -3.74102
0.338652 -3.70186 -3.70186
0.339573 -3.73928 -3.73928
0.277097 -3.77523 -3.77523
0.278399 -3.85078 -3.85078
0.406181 -3.85416 -3.85416
0.40391 -3.77859 -3.77859
0.277753 -3.81293 -3.81293
0.342269 -3.85241 -3.85241
0.405051 -3.8163 -3.8163
0.340483 -3.77685 -3.77685
0.341382 -3.81456 -3.81456
0.278399 -3.85078 -3.85078
0.279661 -3.92691 -3.92691
0.408403 -3.9303 -3.9303
0.406181 -3.85416 -3.85416
0.279035 -3.88878 -3.88878
0.344011 -3.92855 -3.92855
0.407298 -3.89216 -3.89216
0.342269 -3.85241 -3.85241
0.343146 -3.89041 -3.89041
0.279661 -3.92691 -3.92691
0.280882 -4.00361 -4.00361
0.410576 -4.00701 -4.00701
0.408403 -3.9303 -3.9303
0.280276 -3.96519 -3.96519
0.345708 -4.00525 -4.00525
0.409496 -3.96859 -3.96859
0.344011 -3.92855 -3.92855
0.344865 -3.96683 -3.96683
0.280882 -4.00361 -4.00361
0.282064 -4.08086 -4.08086
0.4127 -4.08428 -4.08428
0.410576 -4.00701 -4.00701
0.281478 -4.04216 -4.04216
0.347361 -4.08251 -4.08251
0.411644 -4.04558 -4.04558
0.345708 -4.00525 -4.00525
0.34654 -4.04381 -4.04381
0.282064 -4.08086 -4.08086
0.283205 -4.15867 -4.15867
0.414775 -4.1621 -4.1621
0.4127 -4.08428 -4.08428
0.28264 -4.1197 -4.1197
0.348969 -4.16033 -4.16033
0.413743 -4.12312 -4.12312
0.347361 -4.08251 -4.08251
0.348171 -4.12135 -4.12135
0.283205 -4.15867 -4.15867
0.284307 -4.23703 -4.23703
0.4168 -4.24048 -4.24048
0.414775 -4.1621 -4.1621
0.283761 -4.19778 -4.19778
0.350533 -4.23869 -4.23869
0.415794 -4.20122 -4.20122
0.348969 -4.16033 -4.16033
0.349757 -4.19944 -4.19944
0.284307 -4.23703 -4.23703
0.285369 -4.31593 -4.31593
0.418777 -4.31939 -4.31939
0.4168 -4.24048 -4.24048
0.284843 -4.27641 -4.27641
0.352052 -4.3176 -4.3176
0.417795 -4.27987 -4.27987
0.350533 -4.23869 -4.23869
0.351298 -4.27808 -4.27808
0.285369 -4.31593 -4.31593
0.286392 -4.39537 -4.39537
0.420705 -4.39885 -4.39885
0.418777 -4.31939 -4.31939
0.285885 -4.35559 -4.35559
0.353527 -4.39705 -4.39705
0.419747 -4.35906 -4.35906
0.352052 -4.3176 -4.3176
0.352795 -4.35726 -4.35726
0.286392 -4.39537 -4.39537
0.287374 -4.47535 -4.47535
0.422584 -4.47884 -4.47884
0.420705 -4.39885 -4.39885
0.286888 -4.43529 -4.43529
0.354958 -4.47704 -4.47704
0.42165 -4.43878 -4.43878
0.353527 -4.39705 -4.39705
0.354248 -4.43698 -4.43698
0.287374 -4.47535 -4.47535
0.288317 -4.55585 -4.55585
0.424414 -4.55936 -4.55936
0.422584 -4.47884 -4.47884
0.287851 -4.51553 -4.51553
0.356345 -4.55755 -4.55755
0.423505 -4.51903 -4.51903
0.354958 -4.47704 -4.47704
0.355657 -4.51723 -4.51723
0.288317 -4.55585 -4.55585
0.289221 -4.63688 -4.63688
0.426195 -4.6404 -4.6404
0.424414 -4.55936 -4.55936
0.288774 -4.5963 -4.5963
0.357687 -4.63858 -4.63858
0.425311 -4.59981 -4.59981
0.356345 -4.55755 -4.55755
0.357021 -4.598 -4.598
0.289221 -4.63688 -4.63688
0.290084 -4.71842 -4.71842
0.427928 -4.72195 -4.72195
0.426195 -4.6404 -4.6404
0.289657 -4.67758 -4.67758
0.358985 -4.72013 -4.72013
0.427068 -4.68111 -4.68111
0.357687 -4.63858 -4.63858
0.358342 -4.67929 -4.67929
0.290084 -4.71842 -4.71842
0.290909 -4.80047 -4.80047
0.429612 -4.80402 -4.80402
0.427928 -4.72195 -4.72195
0.290502 -4.75938 -4.75938
0.360239 -4.80219 -4.80219
0.428776 -4.76292 -4.76292
0.358985 -4.72013 -4.72013
0.359618 -4.7611 -4.7611
0.290909 -4.80047 -4.80047
0.291694 -4.88303 -4.88303
0.431247 -4.88659 -4.88659
0.429612 -4.80402 -4.80402
0.291306 -4.84169 -4.84169
0.36145 -4.88476 -4.88476
0.430436 -4.84524 -4.84524
0.360239 -4.80219 -4.80219
0.36085 -4.84341 -4.84341
0.291694 -4.88303 -4.88303
0.29244 -4.96609 -4.96609
0.432834 -4.96966 -4.96966
0.431247 -4.88659 -4.88659
0.292072 -4.9245 -4.9245
0.362616 -4.96782 -4.96782
0.432047 -4.92806 -4.92806
0.36145 -4.88476 -4.88476
0.362038 -4.92623 -4.92623
0.29244 -4.96609 -4.96609
0.293146 -5.04964 -5.04964
0.434373 -5.05323 -5.05323
0.432834 -4.96966 -4.96966
0.292798 -5.0078 -5.0078
0.363739 -5.05138 -5.05138
0.433609 -5.01139 -5.01139
0.362616 -4.96782 -4.96782
0.363183 -5.00954 -5.00954
0.293146 -5.04964 -5.04964
0.293814 -5.13369 -5.13369
0.435863 -5.13729 -5.13729
0.434373 -5.05323 -5.05323
0.293485 -5.0916 -5.0916
0.364817 -5.13544 -5.13544
0.435124 -5.0952 -5.0952
0.363739 -5.05138 -5.05138
0.364284 -5.09335 -5.09335
0.293814 -5.13369 -5.13369
0.294442 -5.21821 -5.21821
0.437305 -5.22183 -5.22183
0.435863 -5.13729 -5.13729
0.294133 -5.17589 -5.17589
0.365853 -5.21997 -5.21997
0.43659 -5.1795 -5.1795
0.364817 -5.13544 -5.13544
0.365341 -5.17764 -5.17764
0.294442 -5.21821 -5.21821
0.295032 -5.30322 -5.30322
0.438699 -5.30685 -5.30685
0.437305 -5.22183 -5.22183
0.294742 -5.26066 -5.26066
0.366844 -5.30498 -5.30498
0.438008 -5.26428 -5.26428
0.365853 -5.21997 -5.21997
0.366354 -5.26242 -5.26242
0.295032 -5.30322 -5.30322
0.295582 -5.3887 -5.3887
0.440045 -5.39234 -5.39234
0.438699 -5.30685 -5.30685
0.295312 -5.3459 -5.3459
0.367793 -5.39047 -5.39047
0.439378 -5.34954 -5.34954
0.366844 -5.30498 -5.30498
0.367324 -5.34767 -5.34767
0.295582 -5.3887 -5.3887
0.296094 -5.47465 -5.47465
0.441343 -5.4783 -5.4783
0.440045 -5.39234 -5.39234
0.295843 -5.43162 -5.43162
0.368698 -5.47642 -5.47642
0.4407 -5.43526 -5.43526
0.367793 -5.39047 -5.39047
0.368251 -5.43339 -5.43339
0.296094 -5.47465 -5.47465
0.296568 -5.56106 -5.56106
0.442593 -5.56472 -5.56472
0.441343 -5.4783 -5.4783
0.296336 -5.5178 -5.5178
0.369559 -5.56284 -5.56284
0.441974 -5.52145 -5.52145
0.368698 -5.47642 -5.47642
0.369134 -5.51957 -5.51957
0.296568 -5.56106 -5.56106
0.297002 -5.64792 -5.64792
0.443795 -5.6516 -5.6516
0.442593 -5.56472 -5.56472
0.29679 -5.60443 -5.60443
0.370378 -5.64971 -5.64971
0.4432 -5.6081 -5.6081
0.369559 -5.56284 -5.56284
0.369974 -5.60622 -5.60622
0.297002 -5.64792 -5.64792
0.297398 -5.73524 -5.73524
0.44495 -5.73893 -5.73893
0.443795 -5.6516 -5.6516
0.297205 -5.69153 -5.69153
0.371153 -5.73704 -5.73704
0.444378 -5.69521 -5.69521
0.370378 -5.64971 -5.64971
0.370771 -5.69332 -5.69332
0.297398 -5.73524 -5.73524
0.297756 -5.823 -5.823
0.446057 -5.8267 -5.8267
0.44495 -5.73893 -5.73893
0.297582 -5.77907 -5.77907
0.371886 -5.82481 -5.82481
0.445509 -5.78276 -5.78276
0.371153 -5.73704 -5.73704
0.371525 -5.78087 -5.78087
0.297756 -5.823 -5.823
0.298076 -5.91121 -5.91121
0.447117 -5.91492 -5.91492
0.446057 -5.8267 -5.8267
0.297921 -5.86705 -5.86705
0.372575 -5.91302 -5.91302
0.446593 -5.87076 -5.87076
0.371886 -5.82481 -5.82481
0.372236 -5.86886 -5.86886
0.298076 -5.91121 -5.91121
0.298358 -5.99985 -5.99985
0.448129 -6.00357 -6.00357
0.447117 -5.91492 -5.91492
0.298222 -5.95547 -5.95547
0.373222 -6.00166 -6.00166
0.447629 -5.95919 -5.95919
0.372575 -5.91302 -5.91302
0.372904 -5.95728 -5.95728
0.298358 -5.99985 -5.99985
0.298601 -6.08891 -6.08891
0.449094 -6.09265 -6.09265
0.448129 -6.00357 -6.00357
0.298484 -6.04433 -6.04433
0.373827 -6.09074 -6.09074
0.448618 -6.04806 -6.04806
0.373222 -6.00166 -6.00166
0.37353 -6.04614 -6.04614
0.298601 -6.08891 -6.08891
0.298807 -6.17841 -6.17841
0.450012 -6.18215 -6.18215
0.449094 -6.09265 -6.09265
0.298709 -6.13361 -6.13361
0.374389 -6.18023 -6.18023
0.449559 -6.13735 -6.13735
0.373827 -6.09074 -6.09074
0.374113 -6.13543 -6.13543
0.298807 -6.17841 -6.17841
0.298975 -6.26832 -6.26832
0.450884 -6.27207 -6.27207
0.450012 -6.18215 -6.18215
0.298895 -6.22331 -6.22331
0.374908 -6.27015 -6.27015
0.450454 -6.22706 -6.22706
0.374389 -6.18023 -6.18023
0.374654 -6.22514 -6.22514
0.298975 -6.26832 -6.26832
0.299105 -6.35864 -6.35864
0.451708 -6.36241 -6.36241
0.450884 -6.27207 -6.27207
0.299045 -6.31343 -6.31343
0.375385 -6.36048 -6.36048
0.451302 -6.31719 -6.31719
0.374908 -6.27015 -6.27015
0.375152 -6.31526 -6.31526
0.299105 -6.35864 -6.35864
0.299198 -6.44937 -6.44937
0.452486 -6.45315 -6.45315
0.451708 -6.36241 -6.36241
0.299156 -6.40395 -6.40395
0.375821 -6.45122 -6.45122
0.452103 -6.40773 -6.40773
0.375385 -6.36048 -6.36048
0.375608 -6.4058 -6.4058
0.299198 -6.44937 -6.44937
0.299253 -6.5405 -6.5405
0.453217 -6.54429 -6.54429
0.452486 -6.45315 -6.45315
0.29923 -6.49489 -6.49489
0.376214 -6.54236 -6.54236
0.452857 -6.49867 -6.49867
0.375821 -6.45122 -6.45122
0.376023 -6.49674 -6.49674
0.299253 -6.5405 -6.5405
0.299271 -6.63203 -6.63203
0.453902 -6.63583 -6.63583
0.453217 -6.54429 -6.54429
0.299267 -6.58622 -6.58622
0.376565 -6.63389 -6.63389
0.453565 -6.59001 -6.59001
0.376214 -6.54236 -6.54236
0.376395 -6.58807 -6.58807
0.299271 -6.63203 -6.63203
0.299252 -6.72396 -6.72396
0.45454 -6.72776 -6.72776
0.453902 -6.63583 -6.63583
0.299266 -6.67795 -6.67795
0.376875 -6.72582 -6.72582
0.454227 -6.68175 -6.68175
0.376565 -6.63389 -6.63389
0.376725 -6.67981 -6.67981
0.299252 -6.72396 -6.72396
0.299196 -6.81626 -6.81626
0.455132 -6.82008 -6.82008
0.45454 -6.72776 -6.72776
0.299229 -6.77006 -6.77006
0.377143 -6.81813 -6.81813
0.454842 -6.77387 -6.77387
0.376875 -6.72582 -6.72582
0.377014 -6.77193 -6.77193
0.299196 -6.81626 -6.81626
0.299104 -6.90895 -6.90895
0.455679 -6.91278 -6.91278
0.455132 -6.82008 -6.82008
0.299155 -6.86256 -6.86256
0.37737 -6.91082 -6.91082
0.455411 -6.86638 -6.86638
0.377143 -6.81813 -6.81813
0.377262 -6.86443 -6.86443
0.299104 -6.90895 -6.90895
0.298974 -7.00201 -7.00201
0.456179 -7.00585 -7.00585
0.455679 -6.91278 -6.91278
0.299043 -6.95543 -6.95543
0.377555 -7.00389 -7.00389
0.455934 -6.95927 -6.95927
0.37737 -6.91082 -6.91082
0.377468 -6.95731 -6.95731
0.298974 -7.00201 -7.00201
0.298808 -7.09544 -7.09544
0.456634 -7.09929 -7.09929
0.456179 -7.00585 -7.00585
0.298896 -7.04868 -7.04868
0.3777 -7.09733 -7.09733
0.456412 -7.05252 -7.05252
0.377555 -7.00389 -7.00389
0.377633 -7.05056 -7.05056
0.298808 -7.09544 -7.09544
0.298606 -7.18924 -7.18924
0.457043 -7.19309 -7.19309
0.456634 -7.09929 -7.09929
0.298711 -7.1423 -7.1423
0.377803 -7.19113 -7.19113
0.456844 -7.14615 -7.14615
0.3777 -7.09733 -7.09733
0.377756 -7.14418 -7.14418
0.298606 -7.18924 -7.18924
0.298367 -7.28339 -7.28339
0.457406 -7.28726 -7.28726
0.457043 -7.19309 -7.19309
0.298491 -7.23627 -7.23627
0.377865 -7.28529 -7.28529
0.45723 -7.24013 -7.24013
0.377803 -7.19113 -7.19113
0.377839 -7.23816 -7.23816
0.298367 -7.28339 -7.28339
0.298092 -7.3779 -7.3779
0.457724 -7.38177 -7.38177
0.457406 -7.28726 -7.28726
0.298234 -7.3306 -7.3306
0.377887 -7.3798 -7.3798
0.457571 -7.33447 -7.33447
0.377865 -7.28529 -7.28529
0.377881 -7.3325 -7.3325
0.298092 -7.3779 -7.3779
0.297782 -7.47276 -7.47276
0.457998 -7.47663 -7.47663
0.457724 -7.38177 -7.38177
0.297941 -7.42528 -7.42528
0.377868 -7.47466 -7.47466
0.457867 -7.42916 -7.42916
0.377887 -7.3798 -7.3798
0.377883 -7.42718 -7.42718
0.297782 -7.47276 -7.47276
0.297435 -7.56795 -7.56795
0.458226 -7.57184 -7.57184
0.457998 -7.47663 -7.47663
0.297613 -7.52031 -7.52031
0.377809 -7.56986 -7.56986
0.458117 -7.52419 -7.52419
0.377868 -7.47466 -7.47466
0.377844 -7.52222 -7.52222
0.297435 -7.56795 -7.56795
0.297053 -7.66349 -7.66349
0.458409 -7.66738 -7.66738
0.458226 -7.57184 -7.57184
0.297248 -7.61568 -7.61568
0.37771 -7.6654 -7.6654
0.458323 -7.61957 -7.61957
0.377809 -7.56986 -7.56986
0.377765 -7.61759 -7.61759
0.297053 -7.66349 -7.66349
0.296635 -7.75935 -7.75935
0.458548 -7.76325 -7.76325
0.458409 -7.66738 -7.66738
0.296849 -7.71138 -7.71138
0.37757 -7.76127 -7.76127
0.458484 -7.71527 -7.71527
0.37771 -7.6654 -7.6654
0.377645 -7.71329 -7.71329
0.296635 -7.75935 -7.75935
0.296183 -7.85554 -7.85554
0.458642 -7.85945 -7.85945
0.458548 -7.76325 -7.76325
0.296413 -7.80741 -7.80741
0.377391 -7.85746 -7.85746
0.458601 -7.81131 -7.81131
0.37757 -7.76127 -7.76127
0.377486 -7.80932 -7.80932
0.296183 -7.85554 -7.85554
0.295694 -7.95205 -7.95205
0.458692 -7.95597 -7.95597
0.458642 -7.85945 -7.85945
0.295943 -7.90376 -7.90376
0.377172 -7.95398 -7.95398
0.458673 -7.90767 -7.90767
0.377391 -7.85746 -7.85746
0.377286 -7.90568 -7.90568
0.295694 -7.95205 -7.95205
0.295171 -8.04888 -8.04888
0.458698 -8.0528 -8.0528
0.458692 -7.95597 -7.95597
0.295437 -8.00043 -8.00043
0.376913 -8.0508 -8.0508
0.4587 -8.00434 -8.00434
0.377172 -7.95398 -7.95398
0.377048 -8.00235 -8.00235
0.295171 -8.04888 -8.04888
0.294614 -8.14601 -8.14601
0.45866 -8.14994 -8.14994
0.458698 -8.0528 -8.0528
0.294897 -8.09741 -8.09741
0.376615 -8.14794 -8.14794
0.458684 -8.10133 -8.10133
0.376913 -8.0508 -8.0508
0.376769 -8.09934 -8.09934
0.294614 -8.14601 -8.14601
0.294021 -8.24345 -8.24345
0.458578 -8.24739 -8.24739
0.45866 -8.14994 -8.14994
0.294322 -8.1947 -8.1947
0.376278 -8.24539 -8.24539
0.458624 -8.19862 -8.19862
0.376615 -8.14794 -8.14794
0.376452 -8.19663 -8.19663
0.294021 -8.24345 -8.24345
0.293394 -8.34119 -8.34119
0.458452 -8.34513 -8.34513
0.458578 -8.24739 -8.24739
0.293712 -8.29229 -8.29229
0.375902 -8.34313 -8.34313
0.45852 -8.29622 -8.29622
0.376278 -8.24539 -8.24539
0.376095 -8.29422 -8.29422
0.293394 -8.34119 -8.34119
0.292733 -8.43922 -8.43922
0.458283 -8.44316 -8.44316
0.458452 -8.34513 -8.34513
0.293068 -8.39017 -8.39017
0.375486 -8.44116 -8.44116
0.458373 -8.39411 -8.39411
0.375902 -8.34313 -8.34313
0.375699 -8.39211 -8.39211
0.292733 -8.43922 -8.43922
0.292038 -8.53754 -8.53754
0.45807 -8.54149 -8.54149
0.458283 -8.44316 -8.44316
0.29239 -8.48835 -8.48835
0.375033 -8.53948 -8.53948
0.458182 -8.49229 -8.49229
0.375486 -8.44116 -8.44116
0.375264 -8.49029 -8.49029
0.292038 -8.53754 -8.53754
0.291309 -8.63614 -8.63614
0.457815 -8.64009 -8.64009
0.45807 -8.54149 -8.54149
0.291677 -8.58681 -8.58681
0.37454 -8.63809 -8.63809
0.457948 -8.59076 -8.59076
0.375033 -8.53948 -8.53948
0.374791 -8.58875 -8.58875
0.291309 -8.63614 -8.63614
0.290546 -8.73502 -8.73502
0.457516 -8.73897 -8.73897
0.457815 -8.64009 -8.64009
0.290931 -8.68555 -8.68555
0.374009 -8.73697 -8.73697
0.457671 -8.6895 -8.6895
0.37454 -8.63809 -8.63809
0.37428 -8.68749 -8.68749
0.290546 -8.73502 -8.73502
0.289749 -8.83417 -8.83417
0.457175 -8.83813 -8.83813
0.457516 -8.73897 -8.73897
0.290151 -8.78456 -8.78456
0.37344 -8.83612 -8.83612
0.457351 -8.78852 -8.78852
0.374009 -8.73697 -8.73697
0.37373 -8.78651 -8.78651
0.289749 -8.83417 -8.83417
0.288919 -8.93358 -8.93358
0.456791 -8.93755 -8.93755
0.457175 -8.83813 -8.83813
0.289338 -8.88384 -8.88384
0.372833 -8.93554 -8.93554
0.456988 -8.8878 -8.8878
0.37344 -8.83612 -8.83612
0.373142 -8.88579 -8.88579
0.288919 -8.93358 -8.93358
0.288056 -9.03326 -9.03326
0.456365 -9.03722 -9.03722
0.456791 -8.93755 -8.93755
0.288492 -8.98339 -8.98339
0.372189 -9.03521 -9.03521
0.456583 -8.98735 -8.98735
0.372833 -8.93554 -8.93554
0.372516 -8.98534 -8.98534
0.288056 -9.03326 -9.03326
0.28716 -9.13319 -9.13319
0.455896 -9.13716 -9.13716
0.456365 -9.03722 -9.03722
0.287612 -9.08319 -9.08319
0.371506 -9.13515 -9.13515
0.456136 -9.08716 -9.08716
0.372189 -9.03521 -9.03521
0.371852 -9.08515 -9.08515
0.28716 -9.13319 -9.13319
0.286231 -9.23337 -9.23337
0.455386 -9.23734 -9.23734
0.455896 -9.13716 -9.13716
0.286699 -9.18325 -9.18325
0.370787 -9.23533 -9.23533
0.455646 -9.18722 -9.18722
0.371506 -9.13515 -9.13515
0.371151 -9.18521 -9.18521
0.286231 -9.23337 -9.23337
0.285269 -9.33379 -9.33379
0.454834 -9.33777 -9.33777
0.455386 -9.23734 -9.23734
0.285754 -9.28355 -9.28355
0.37003 -9.33575 -9.33575
0.455115 -9.28752 -9.28752
0.370787 -9.23533 -9.23533
0.370413 -9.28551 -9.28551
0.285269 -9.33379 -9.33379
0.284275 -9.43446 -9.43446
0.45424 -9.43843 -9.43843
0.454834 -9.33777 -9.33777
0.284776 -9.38409 -9.38409
0.369236 -9.43642 -9.43642
0.454542 -9.38807 -9.38807
0.37003 -9.33575 -9.33575
0.369637 -9.38605 -9.38605
0.284275 -9.43446 -9.43446
0.283249 -9.53535 -9.53535
0.453604 -9.53933 -9.53933
0.45424 -9.43843 -9.43843
0.283766 -9.48487 -9.48487
0.368405 -9.53731 -9.53731
0.453927 -9.48885 -9.48885
0.369236 -9.43642 -9.43642
0.368825 -9.48684 -9.48684
0.283249 -9.53535 -9.53535
0.282191 -9.63647 -9.63647
0.452928 -9.64045 -9.64045
0.453604 -9.53933 -9.53933
0.282724 -9.58588 -9.58588
0.367538 -9.63844 -9.63844
0.453271 -9.58986 -9.58986
0.368405 -9.53731 -9.53731
0.367976 -9.58785 -9.58785
0.282191 -9.63647 -9.63647
0.2811 -9.73782 -9.73782
0.45221 -9.7418 -9.7418
0.452928 -9.64045 -9.64045
0.281649 -9.68712 -9.68712
0.366634 -9.73978 -9.73978
0.452574 -9.6911 -9.6911
0.367538 -9.63844 -9.63844
0.36709 -9.68908 -9.68908
0.2811 -9.73782 -9.73782
0.279978 -9.83938 -9.83938
0.451452 -9.84336 -9.84336
0.45221 -9.7418 -9.7418
0.280543 -9.78857 -9.78857
0.365693 -9.84135 -9.84135
0.451836 -9.79255 -9.79255
0.366634 -9.73978 -9.73978
0.366168 -9.79054 -9.79054
0.279978 -9.83938 -9.83938
0.278825 -9.94115 -9.94115
0.450653 -9.94513 -9.94513
0.451452 -9.84336 -9.84336
0.279406 -9.89024 -9.89024
0.364717 -9.94312 -9.94312
0.451057 -9.89422 -9.89422
0.365693 -9.84135 -9.84135
0.36521 -9.89221 -9.89221
0.278825 -9.94115 -9.94115
0.277641 -10.0431 -10.0431
0.449813 -10.0471 -10.0471
0.450653 -9.94513 -9.94513
0.278237 -9.99212 -9.99212
0.363705 -10.0451 -10.0451
0.450238 -9.9961 -9.9961
0.364717 -9.94312 -9.94312
0.364216 -9.99409 -9.99409
0.277641 -10.0431 -10.0431
0.276425 -10.1453 -10.1453
0.448933 -10.1493 -10.1493
0.449813 -10.0471 -10.0471
0.277037 -10.0942 -10.0942
0.362657 -10.1473 -10.1473
0.449378 -10.0982 -10.0982
0.363705 -10.0451 -10.0451
0.363186 -10.0962 -10.0962
0.276425 -10.1453 -10.1453
0.275179 -10.2477 -10.2477
0.448014 -10.2517 -10.2517
0.448933 -10.1493 -10.1493
0.275806 -10.1965 -10.1965
0.361574 -10.2497 -10.2497
0.448478 -10.2005 -10.2005
0.362657 -10.1473 -10.1473
0.36212 -10.1984 -10.1984
0.275179 -10.2477 -10.2477
0.273901 -10.3503 -10.3503
0.447054 -10.3542 -10.3542
0.448014 -10.2517 -10.2517
0.274544 -10.2989 -10.2989
0.360456 -10.3522 -10.3522
0.447539 -10.3029 -10.3029
0.361574 -10.2497 -10.2497
0.361019 -10.3009 -10.3009
0.273901 -10.3503 -10.3503
0.272594 -10.453 -10.453
0.446055 -10.457 -10.457
0.447054 -10.3542 -10.3542
0.273251 -10.4016 -10.4016
0.359302 -10.455 -10.455
0.446559 -10.4056 -10.4056
0.360456 -10.3522 -10.3522
0.359884 -10.4036 -10.4036
0.272594 -10.453 -10.453
0.271256 -10.5559 -10.5559
0.445016 -10.5599 -10.5599
0.446055 -10.457 -10.457
0.271929 -10.5044 -10.5044
0.358114 -10.5579 -10.5579
0.44554 -10.5084 -10.5084
0.359302 -10.455 -10.455
0.358713 -10.5064 -10.5064
0.271256 -10.5559 -10.5559
0.269888 -10.659 -10.659
0.443938 -10.663 -10.663
0.445016 -10.5599 -10.5599
0.270576 -10.6075 -10.6075
0.356891 -10.661 -10.661
0.444482 -10.6114 -10.6114
0.358114 -10.5579 -10.5579
0.357507 -10.6094 -10.6094
0.269888 -10.659 -10.659
0.268491 -10.7623 -10.7623
0.442821 -10.7663 -10.7663
0.443938 -10.663 -10.663
0.269193 -10.7106 -10.7106
0.355634 -10.7643 -10.7643
0.443385 -10.7146 -10.7146
0.356891 -10.661 -10.661
0.356267 -10.7126 -10.7126
0.268491 -10.7623 -10.7623
0.267063 -10.8657 -10.8657
0.441666 -10.8697 -10.8697
0.442821 -10.7663 -10.7663
0.267781 -10.814 -10.814
0.354343 -10.8677 -10.8677
0.442248 -10.818 -10.818
0.355634 -10.7643 -10.7643
0.354993 -10.816 -10.816
0.267063 -10.8657 -10.8657
0.265607 -10.9693 -10.9693
0.440471 -10.9733 -10.9733
0.441666 -10.8697 -10.8697
0.266339 -10.9175 -10.9175
0.353017 -10.9713 -10.9713
0.441073 -10.9215 -10.9215
0.354343 -10.8677 -10.8677
0.353684 -10.9195 -10.9195
0.265607 -10.9693 -10.9693
0.264121 -11.0731 -11.0731
0.439239 -11.077 -11.077
0.440471 -10.9733 -10.9733
0.264867 -11.0212 -11.0212
0.351658 -11.075 -11.075
0.43986 -11.0251 -11.0251
0.353017 -10.9713 -10.9713
0.352342 -11.0231 -11.0231
0.264121 -11.0731 -11.0731
0.262606 -11.1769 -11.1769
0.437968 -11.1809 -11.1809
0.439239 -11.077 -11.077
0.263367 -11.125 -11.125
0.350265 -11.1789 -11.1789
0.438608 -11.1289 -11.1289
0.351658 -11.075 -11.075
0.350966 -11.1269 -11.1269
0.262606 -11.1769 -11.1769
0.261063 -11.281 -11.281
0.436659 -11.2849 -11.2849
0.437968 -11.1809 -11.1809
0.261838 -11.2289 -11.2289
0.348839 -11.2829 -11.2829
0.437318 -11.2329 -11.2329
0.350265 -11.1789 -11.1789
0.349556 -11.2309 -11.2309
0.261063 -11.281 -11.281
0.259491 -11.3851 -11.3851
0.435313 -11.3891 -11.3891
0.436659 -11.2849 -11.2849
0.26028 -11.333 -11.333
0.34738 -11.3871 -11.3871
0.435991 -11.337 -11.337
0.348839 -11.2829 -11.2829
0.348113 -11.335 -11.335
0.259491 -11.3851 -11.3851
0.25789 -11.4894 -11.4894
0.433929 -11.4934 -11.4934
0.435313 -11.3891 -11.3891
0.258694 -11.4373 -11.4373
0.345887 -11.4914 -11.4914
0.434626 -11.4412 -11.4412
0.34738 -11.3871 -11.3871
0.346638 -11.4392 -11.4392
0.25789 -11.4894 -11.4894
0.256262 -11.5938 -11.5938
0.432508 -11.5978 -11.5978
0.433929 -11.4934 -11.4934
0.257079 -11.5416 -11.5416
0.344363 -11.5958 -11.5958
0.433223 -11.5455 -11.5455
0.345887 -11.4914 -11.4914
0.345129 -11.5436 -11.5436
0.256262 -11.5938 -11.5938
0.254605 -11.6984 -11.6984
0.431049 -11.7023 -11.7023
0.432508 -11.5978 -11.5978
0.255437 -11.6461 -11.6461
0.342805 -11.7003 -11.7003
0.431783 -11.65 -11.65
0.344363 -11.5958 -11.5958
0.343588 -11.648 -11.648
0.254605 -11.6984 -11.6984
0.252921 -11.803 -11.803
0.429554 -11.8069 -11.8069
0.431049 -11.7023 -11.7023
0.253767 -11.7507 -11.7507
0.341216 -11.805 -11.805
0.430306 -11.7546 -11.7546
0.342805 -11.7003 -11.7003
0.342014 -11.7526 -11.7526
0.252921 -11.803 -11.803
0.25121 -11.9078 -11.9078
0.428022 -11.9117 -11.9117
0.429554 -11.8069 -11.8069
0.252069 -11.8554 -11.8554
0.339594 -11.9097 -11.9097
0.428793 -11.8593 -11.8593
0.341216 -11.805 -11.805
0.340409 -11.8573 -11.8573
0.25121 -11.9078 -11.9078
0.249471 -12.0126 -12.0126
0.426454 -12.0165 -12.0165
0.428022 -11.9117 -11.9117
0.250344 -11.9602 -11.9602
0.33794 -12.0146 -12.0146
0.427243 -11.9641 -11.9641
0.339594 -11.9097 -11.9097
0.338771 -11.9621 -11.9621
0.249471 -12.0126 -12.0126
0.247705 -12.1176 -12.1176
0.42485 -12.1215 -12.1215
0.426454 -12.0165 -12.0165
0.248591 -12.0651 -12.0651
0.336255 -12.1195 -12.1195
0.425656 -12.069 -12.069
0.33794 -12.0146 -12.0146
0.337102 -12.067 -12.067
0.247705 -12.1176 -12.1176
0.245913 -12.2226 -12.2226
0.423209 -12.2265 -12.2265
0.42485 -12.1215 -12.1215
0.246812 -12.1701 -12.1701
0.334539 -12.2246 -12.2246
0.424034 -12.174 -12.174
0.336255 -12.1195 -12.1195
0.335401 -12.172 -12.172
0.245913 -12.2226 -12.2226
0.244094 -12.3278 -12.3278
0.421533 -12.3316 -12.3316
0.423209 -12.2265 -12.2265
0.245006 -12.2752 -12.2752
0.332791 -12.3297 -12.3297
0.422376 -12.2791 -12.2791
0.334539 -12.2246 -12.2246
0.333669 -12.2771 -12.2771
0.244094 -12.3278 -12.3278
0.242248 -12.433 -12.433
0.419821 -12.4368 -12.4368
0.421533 -12.3316 -12.3316
0.243174 -12.3803 -12.3803
0.331013 -12.4349 -12.4349
0.420682 -12.3842 -12.3842
0.332791 -12.3297 -12.3297
0.331906 -12.3823 -12.3823
0.242248 -12.433 -12.433
0.240377 -12.5383 -12.5383
0.418074 -12.5421 -12.5421
0.419821 -12.4368 -12.4368
0.241316 -12.4856 -12.4856
0.329203 -12.5402 -12.5402
0.418952 -12.4895 -12.4895
0.331013 -12.4349 -12.4349
0.330112 -12.4875 -12.4875
0.240377 -12.5383 -12.5383
0.238479 -12.6436 -12.6436
0.416292 -12.6475 -12.6475
0.418074 -12.5421 -12.5421
0.239431 -12.5909 -12.5909
0.327364 -12.6455 -12.6455
0.417188 -12.5948 -12.5948
0.329203 -12.5402 -12.5402
0.328287 -12.5928 -12.5928
0.238479 -12.6436 -12.6436
0.236556 -12.749 -12.749
0.414476 -12.7529 -12.7529
0.416292 -12.6475 -12.6475
0.237521 -12.6963 -12.6963
0.325494 -12.7509 -12.7509
0.415388 -12.7002 -12.7002
0.327364 -12.6455 -12.6455
0.326432 -12.6982 -12.6982
0.236556 -12.749 -12.749
0.234608 -12.8545 -12.8545
0.412624 -12.8583 -12.8583
0.414476 -12.7529 -12.7529
0.235585 -12.8018 -12.8018
0.323594 -12.8564 -12.8564
0.413554 -12.8056 -12.8056
0.325494 -12.7509 -12.7509
0.324547 -12.8037 -12.8037
0.234608 -12.8545 -12.8545
0.232634 -12.96 -12.96
0.410739 -12.9639 -12.9639
0.412624 -12.8583 -12.8583
0.233624 -12.9073 -12.9073
0.321664 -12.962 -12.962
0.411686 -12.9111 -12.9111
0.323594 -12.8564 -12.8564
0.322633 -12.9092 -12.9092
0.232634 -12.96 -12.96
0.230635 -13.0656 -13.0656
0.408819 -13.0694 -13.0694
0.410739 -12.9639 -12.9639
0.231638 -13.0128 -13.0128
0.319706 -13.0675 -13.0675
0.409783 -13.0167 -13.0167
0.321664 -12.962 -12.962
0.320688 -13.0147 -13.0147
0.230635 -13.0656 -13.0656
0.228612 -13.1712 -13.1712
0.406868 -13.1751 -13.1751
0.408819 -13.0694 -13.0694
0.229626 -13.1184 -13.1184
0.317718 -13.1731 -13.1731
0.407847 -13.1222 -13.1222
0.319706 -13.0675 -13.0675
0.318715 -13.1203 -13.1203
0.228612 -13.1712 -13.1712
0.226563 -13.2769 -13.2769
0.404884 -13.2807 -13.2807
0.406868 -13.1751 -13.1751
0.22759 -13.2241 -13.2241
0.315703 -13.2788 -13.2788
0.40588 -13.2279 -13.2279
0.317718 -13.1731 -13.1731
0.316714 -13.226 -13.226
0.226563 -13.2769 -13.2769
0.224489 -13.3826 -13.3826
0.402872 -13.3864 -13.3864
0.404884 -13.2807 -13.2807
0.225529 -13.3297 -13.3297
0.313662 -13.3845 -13.3845
0.403882 -13.3335 -13.3335
0.315703 -13.2788 -13.2788
0.314686 -13.3316 -13.3316
0.224489 -13.3826 -13.3826
0.22239 -13.4883 -13.4883
0.400835 -13.4921 -13.4921
0.402872 -13.3864 -13.3864
0.223443 -13.4355 -13.4355
0.311595 -13.4902 -13.4902
0.401857 -13.4392 -13.4392
0.313662 -13.3845 -13.3845
0.312631 -13.4373 -13.4373
0.22239 -13.4883 -13.4883
0.220261 -13.5941 -13.5941
0.398781 -13.5978 -13.5978
0.400835 -13.4921 -13.4921
0.221329 -13.5412 -13.5412
0.309504 -13.5959 -13.5959
0.39981 -13.545 -13.545
0.311595 -13.4902 -13.4902
0.310552 -13.5431 -13.5431
0.220261 -13.5941 -13.5941
0.218101 -13.6999 -13.6999
0.396722 -13.7036 -13.7036
0.398781 -13.5978 -13.5978
0.219185 -13.647 -13.647
0.307386 -13.7017 -13.7017
0.397751 -13.6507 -13.6507
0.309504 -13.5959 -13.5959
0.308448 -13.6488 -13.6488
0.218101 -13.6999 -13.6999
0.215909 -13.8057 -13.8057
0.394688 -13.8095 -13.8095
0.396722 -13.7036 -13.7036
0.217007 -13.7528 -13.7528
0.305229 -13.8076 -13.8076
0.395699 -13.7566 -13.7566
0.307386 -13.7017 -13.7017
0.306315 -13.7547 -13.7547
0.215909 -13.8057 -13.8057
0.213733 -13.9116 -13.9116
0.392658 -13.9158 -13.9158
0.394688 -13.8095 -13.8095
0.214813 -13.8587 -13.8587
0.303034 -13.9137 -13.9137
0.393688 -13.8626 -13.8626
0.305229 -13.8076 -13.8076
0.304127 -13.8606 -13.8606
      </DataArray> 
      <DataArray type="Float64" NumberOfComponents="4" Name="CauchyStress" format="ascii">
-7327.67 -2205.16 0 -1733.86
-4728.76 89.1086 0 72.0594
-3535.22 -383.303 0 -193.057
-3339.7 -1004.92 0 -132.34
-5257.3 105.001 0 -239.368
-4403.63 -271.369 0 -249.323
-3469.52 -722.386 0 -225.249
-3922.78 -1180.59 0 -422.424
-4348.98 -595.398 0 -394.158
-4728.76 89.1086 0 72.0594
-4686.32 50.951 0 25.9002
-3587.48 -115.298 0 -89.1198
-3535.22 -383.303 0 -193.057
-4692.07 -16.9426 0 34.046
-4237.66 -40.1763 0 -37.5669
-3584.64 -197.69 0 -137.674
-4403.63 -271.369 0 -249.323
-4290.96 -97.8338 0 -98.1093
-4686.32 50.951 0 25.9002
-4773.57 -16.8217 0 16.1642
-3542.18 -22.5211 0 -29.556
-3587.48 -115.298 0 -89.1198
-4736.6 32.8108 0 26.8082
-4182.21 -2.12162 0 1.59951
-3560.26 -57.8581 0 -50.1826
-4237.66 -40.1763 0 -37.5669
-4207.45 -15.7042 0 -15.2185
-4773.57 -16.8217 0 16.1642
-4794.38 4.80807 0 7.2284
-3511.28 -2.64839 0 -15.4547
-3542.18 -22.5211 0 -29.556
-4785.32 -15.4419 0 5.45915
-4156.55 2.83921 0 8.43405
-3528.48 -8.01008 0 -20.2706
-4182.21 -2.12162 0 1.59951
-4164.45 3.07566 0 9.40814
-4794.38 4.80807 0 7.2284
-4811.36 -5.61199 0 11.0116
-3480.38 4.72185 0 -13.704
-3511.28 -2.64839 0 -15.4547
-4806.6 3.32963 0 11.1703
-4144.64 2.36925 0 4.28931
-3493.32 2.11543 0 -13.2991
-4156.55 2.83921 0 8.43405
-4151.82 2.13242 0 5.52735
-4811.36 -5.61199 0 11.0116
-4804.02 0.72694 0 11.5151
-3459.04 3.37384 0 -16.885
-3480.38 4.72185 0 -13.704
-4808.15 -4.0926 0 10.0519
-4129.9 1.36479 0 0.672309
-3470.05 4.43157 0 -15.4161
-4144.64 2.36925 0 4.28931
-4136.84 2.18711 0 2.76652
-4804.02 0.72694 0 11.5151
-4792.75 -1.27404 0 14.1566
-3438.39 2.05338 0 -19.3121
-3459.04 3.37384 0 -16.885
-4799.79 0.548528 0 13.3819
-4114.23 0.250929 0 -1.81111
-3448.08 2.74677 0 -18.1069
-4129.9 1.36479 0 0.672309
-4122.7 0.625417 0 -0.962465
-4792.75 -1.27404 0 14.1566
-4773.21 0.137124 0 15.7821
-3420.01 0.278835 0 -21.0333
-3438.39 2.05338 0 -19.3121
-4783.25 -0.893758 0 14.6892
-4095.87 -0.364516 0 -2.84133
-3429.31 1.10704 0 -20.3737
-4114.23 0.250929 0 -1.81111
-4105.1 -0.0291548 0 -2.41707
-4773.21 0.137124 0 15.7821
-4751.71 -0.253913 0 17.8296
-3401.62 -0.782764 0 -21.563
-3420.01 0.278835 0 -21.0333
-4762.87 0.117208 0 16.9447
-4076.37 -0.829975 0 -2.81504
-3410.68 -0.30382 0 -21.388
-4095.87 -0.364516 0 -2.84133
-4086.36 -0.654854 0 -2.96402
-4751.71 -0.253913 0 17.8296
-4727.87 0.0209194 0 19.6092
-3383.63 -1.52836 0 -21.4233
-3401.62 -0.782764 0 -21.563
-4739.89 -0.181228 0 18.6582
-4055.76 -1.04495 0 -2.14905
-3392.66 -1.20769 0 -21.5827
-4076.37 -0.829975 0 -2.81504
-4066.11 -0.941094 0 -2.53698
-4727.87 0.0209194 0 19.6092
-4703.4 -0.0637188 0 21.4395
-3365.57 -1.91659 0 -20.7618
-3383.63 -1.52836 0 -21.4233
-4715.73 0.0157405 0 20.5607
-4034.69 -1.18144 0 -1.07651
-3374.58 -1.7508 0 -21.1332
-4055.76 -1.04495 0 -2.14905
-4045.3 -1.13039 0 -1.65203
-4703.4 -0.0637188 0 21.4395
-4678.37 -0.028979 0 23.188
-3347.55 -2.12633 0 -19.8419
-3365.57 -1.91659 0 -20.7618
-4690.91 -0.0591509 0 22.3036
-4013.27 -1.23265 0 0.190518
-3356.57 -2.04243 0 -20.3297
-4034.69 -1.18144 0 -1.07651
-4023.99 -1.20966 0 -0.459659
-4678.37 -0.028979 0 23.188
-4653.2 -0.0601011 0 24.917
-3329.49 -2.20916 0 -18.7669
-3347.55 -2.12633 0 -19.8419
-4665.8 -0.0368485 0 24.0637
-3991.71 -1.25656 0 1.56143
-3338.52 -2.17783 0 -19.3155
-4013.27 -1.23265 0 0.190518
-4002.51 -1.2493 0 0.86812
-4653.2 -0.0601011 0 24.917
-4627.93 -0.0725765 0 26.6061
-3311.43 -2.23049 0 -17.6305
-3329.49 -2.20916 0 -18.7669
-4640.57 -0.0687825 0 25.7626
-3970.07 -1.25754 0 2.96455
-3320.47 -2.22614 0 -18.2041
-3991.71 -1.25656 0 1.56143
-3980.9 -1.25774 0 2.26121
-4627.93 -0.0725765 0 26.6061
-4602.65 -0.0960397 0 28.2657
-3293.35 -2.21619 0 -16.4707
-3311.43 -2.23049 0 -17.6305
-4615.29 -0.0827549 0 27.4412
-3948.4 -1.25178 0 4.37228
-3302.39 -2.22604 0 -17.0512
-3970.07 -1.25754 0 2.96455
-3959.24 -1.25571 0 3.66935
-4602.65 -0.0960397 0 28.2657
-4577.35 -0.117665 0 29.8942
-3275.27 -2.18641 0 -15.3139
-3293.35 -2.21619 0 -16.4707
-4590 -0.107238 0 29.0832
-3926.72 -1.24171 0 5.76565
-3284.31 -2.20273 0 -15.8912
-3948.4 -1.25178 0 4.37228
-3937.56 -1.24675 0 5.07131
-4577.35 -0.117665 0 29.8942
-4552.07 -0.141255 0 31.4928
-3257.18 -2.1494 0 -14.1703
-3275.27 -2.18641 0 -15.3139
-4564.71 -0.129116 0 30.6975
-3905.03 -1.2311 0 7.13826
-3266.23 -2.16836 0 -14.7399
-3926.72 -1.24171 0 5.76565
-3915.87 -1.23651 0 6.45488
-4552.07 -0.141255 0 31.4928
-4526.78 -0.16544 0 33.062
-3239.09 -2.11029 0 -13.0458
-3257.18 -2.1494 0 -14.1703
-4539.42 -0.153333 0 32.281
-3883.34 -1.22068 0 8.48637
-3248.14 -2.12998 0 -13.6055
-3905.03 -1.2311 0 7.13826
-3894.18 -1.22576 0 7.81547
-4526.78 -0.16544 0 33.062
-4501.5 -0.190432 0 34.6019
-3221 -2.07101 0 -11.9419
-3239.09 -2.11029 0 -13.0458
-4514.14 -0.177806 0 33.8356
-3861.65 -1.21111 0 9.8092
-3230.05 -2.09058 0 -12.4912
-3883.34 -1.22068 0 8.48637
-3872.5 -1.21581 0 9.15098
-4501.5 -0.190432 0 34.6019
-4476.22 -0.216257 0 36.1129
-3202.91 -2.03252 0 -10.8595
-3221 -2.07101 0 -11.9419
-4488.86 -0.203259 0 35.361
-3839.96 -1.20248 0 11.1065
-3211.96 -2.05165 0 -11.398
-3861.65 -1.21111 0 9.8092
-3850.81 -1.20666 0 10.461
-4476.22 -0.216257 0 36.1129
-4450.94 -0.242807 0 37.5951
-3184.82 -1.99508 0 -9.79839
-3202.91 -2.03252 0 -10.8595
-4463.58 -0.229436 0 36.8576
-3818.28 -1.19483 0 12.3785
-3193.87 -2.01366 0 -10.3263
-3839.96 -1.20248 0 11.1065
-3829.12 -1.19854 0 11.7456
-4450.94 -0.242807 0 37.5951
-4425.66 -0.270141 0 39.0486
-3166.73 -1.95873 0 -8.75834
-3184.82 -1.99508 0 -9.79839
-4438.3 -0.256383 0 38.3254
-3796.59 -1.1881 0 13.6255
-3175.78 -1.97677 0 -9.27575
-3818.28 -1.19483 0 12.3785
-3807.43 -1.19135 0 13.0051
-4425.66 -0.270141 0 39.0486
-4400.38 -0.29818 0 40.4737
-3148.64 -1.92341 0 -7.73904
-3166.73 -1.95873 0 -8.75834
-4413.02 -0.284073 0 39.7647
-3774.9 -1.18224 0 14.8478
-3157.69 -1.94095 0 -8.24611
-3796.59 -1.1881 0 13.6255
-3785.74 -1.18506 0 14.2397
-4400.38 -0.29818 0 40.4737
-4375.1 -0.326923 0 41.8704
-3130.55 -1.88905 0 -6.74025
-3148.64 -1.92341 0 -7.73904
-4387.74 -0.312467 0 41.1755
-3753.21 -1.17719 0 16.0456
-3139.59 -1.90612 0 -7.2371
-3774.9 -1.18224 0 14.8478
-3764.05 -1.17961 0 15.4497
-4375.1 -0.326923 0 41.8704
-4349.82 -0.356319 0 43.2389
-3112.45 -1.85556 0 -5.76174
-3130.55 -1.88905 0 -6.74025
-4362.46 -0.341542 0 42.5582
-3731.52 -1.17291 0 17.2192
-3121.5 -1.8722 0 -6.24847
-3753.21 -1.17719 0 16.0456
-3742.36 -1.17496 0 16.6354
-4349.82 -0.356319 0 43.2389
-4324.54 -0.386342 0 44.5795
-3094.36 -1.8229 0 -4.80332
-3112.45 -1.85556 0 -5.76174
-4337.18 -0.371255 0 43.9127
-3709.82 -1.16935 0 18.3687
-3103.4 -1.83913 0 -5.28003
-3731.52 -1.17291 0 17.2192
-3720.67 -1.17105 0 17.7969
-4324.54 -0.386342 0 44.5795
-4299.25 -0.416949 0 45.8922
-3076.26 -1.79099 0 -3.86484
-3094.36 -1.8229 0 -4.80332
-4311.89 -0.401575 0 45.2393
-3688.13 -1.16648 0 19.4943
-3085.31 -1.80685 0 -4.3316
-3709.82 -1.16935 0 18.3687
-3698.98 -1.16783 0 18.9345
-4299.25 -0.416949 0 45.8922
-4273.96 -0.448108 0 47.1772
-3058.17 -1.75981 0 -2.94615
-3076.26 -1.79099 0 -3.86484
-4286.61 -0.432462 0 46.5381
-3666.44 -1.16425 0 20.5962
-3067.21 -1.77531 0 -3.40303
-3688.13 -1.16648 0 19.4943
-3677.28 -1.16528 0 20.0482
-4273.96 -0.448108 0 47.1772
-4248.68 -0.47978 0 48.4347
-3040.07 -1.72932 0 -2.04713
-3058.17 -1.75981 0 -2.94615
-4261.32 -0.463882 0 47.8093
-3644.74 -1.16263 0 21.6745
-3049.12 -1.74448 0 -2.49419
-3666.44 -1.16425 0 20.5962
-3655.59 -1.16336 0 21.1383
-4248.68 -0.47978 0 48.4347
-4223.39 -0.51193 0 49.6648
-3021.97 -1.69949 0 -1.16765
-3040.07 -1.72932 0 -2.04713
-4236.03 -0.495797 0 49.0531
-3623.05 -1.16159 0 22.7293
-3031.02 -1.71432 0 -1.60495
-3644.74 -1.16263 0 21.6745
-3633.89 -1.16204 0 22.2048
-4223.39 -0.51193 0 49.6648
-4198.1 -0.544522 0 50.8677
-3003.88 -1.67029 0 -0.307601
-3021.97 -1.69949 0 -1.16765
-4210.74 -0.528173 0 50.2696
-3601.35 -1.16111 0 23.7608
-3012.92 -1.68481 0 -0.735204
-3623.05 -1.16159 0 22.7293
-3612.2 -1.16128 0 23.248
-4198.1 -0.544522 0 50.8677
-4172.81 -0.577522 0 52.0436
-2985.78 -1.64169 0 0.533135
-3003.88 -1.67029 0 -0.307601
-4185.45 -0.560973 0 51.459
-3579.65 -1.16114 0 24.7692
-2994.83 -1.65591 0 0.115174
-3601.35 -1.16111 0 23.7608
-3590.5 -1.16106 0 24.2679
-4172.81 -0.577522 0 52.0436
-4147.52 -0.610896 0 53.1926
-2967.68 -1.61367 0 1.35467
-2985.78 -1.64169 0 0.533135
-4160.16 -0.594165 0 52.6214
-3557.95 -1.16166 0 25.7545
-2976.73 -1.62761 0 0.946297
-3579.65 -1.16114 0 24.7692
-3568.8 -1.16134 0 25.2647
-4147.52 -0.610896 0 53.1926
-4122.22 -0.644609 0 54.3149
-2949.58 -1.58621 0 2.15713
-2967.68 -1.61367 0 1.35467
-4134.87 -0.627712 0 53.7571
-3536.26 -1.16264 0 26.7169
-2958.63 -1.59987 0 1.75828
-3557.95 -1.16166 0 25.7545
-3547.11 -1.16209 0 26.2385
-4122.22 -0.644609 0 54.3149
-4096.93 -0.678629 0 55.4107
-2931.48 -1.55928 0 2.94062
-2949.58 -1.58621 0 2.15713
-4109.58 -0.661583 0 54.8661
-3514.56 -1.16406 0 27.6565
-2940.53 -1.57268 0 2.55124
-3536.26 -1.16264 0 26.7169
-3525.41 -1.1633 0 27.1896
-4096.93 -0.678629 0 55.4107
-4071.64 -0.712923 0 56.48
-2913.38 -1.53286 0 3.70525
-2931.48 -1.55928 0 2.94062
-4084.28 -0.695744 0 55.9486
-3492.86 -1.16588 0 28.5736
-2922.43 -1.54601 0 3.32528
-3514.56 -1.16406 0 27.6565
-3503.71 -1.16492 0 28.1179
-4071.64 -0.712923 0 56.48
-4046.34 -0.747459 0 57.5232
-2895.28 -1.50693 0 4.45115
-2913.38 -1.53286 0 3.70525
-4058.99 -0.730163 0 57.0049
-3471.16 -1.16808 0 29.4681
-2904.33 -1.51984 0 4.08054
-3492.86 -1.16588 0 28.5736
-3482.01 -1.16693 0 29.0236
-4046.34 -0.747459 0 57.5232
-4021.04 -0.782206 0 58.5402
-2877.18 -1.48147 0 5.17842
-2895.28 -1.50693 0 4.45115
-4033.69 -0.764808 0 58.0349
-3449.45 -1.17063 0 30.3403
-2886.23 -1.49414 0 4.81711
-3471.16 -1.16808 0 29.4681
-3460.31 -1.16931 0 29.907
-4021.04 -0.782206 0 58.5402
-3995.75 -0.817133 0 59.5314
-2859.08 -1.45644 0 5.88719
-2877.18 -1.48147 0 5.17842
-4008.4 -0.799649 0 59.039
-3427.75 -1.1735 0 31.1903
-2868.13 -1.4689 0 5.53511
-3449.45 -1.17063 0 30.3403
-3438.6 -1.17202 0 30.7681
-3995.75 -0.817133 0 59.5314
-3970.45 -0.85221 0 60.4968
-2840.98 -1.43184 0 6.57757
-2859.08 -1.45644 0 5.88719
-3983.1 -0.834654 0 60.0173
-3406.05 -1.17667 0 32.0182
-2850.03 -1.44409 0 6.23467
-3427.75 -1.1735 0 31.1903
-3416.9 -1.17505 0 31.607
-3970.45 -0.85221 0 60.4968
-3945.15 -0.887406 0 61.4367
-2822.87 -1.40764 0 7.24967
-2840.98 -1.43184 0 6.57757
-3957.8 -0.869795 0 60.9699
-3384.35 -1.18012 0 32.8242
-2831.92 -1.41969 0 6.91589
-3406.05 -1.17667 0 32.0182
-3395.2 -1.17836 0 32.424
-3945.15 -0.887406 0 61.4367
-3919.85 -0.922694 0 62.3511
-2804.77 -1.38381 0 7.90361
-2822.87 -1.40764 0 7.24967
-3932.5 -0.905041 0 61.8971
-3362.64 -1.18381 0 33.6084
-2813.82 -1.39568 0 7.5789
-3384.35 -1.18012 0 32.8242
-3373.5 -1.18194 0 33.219
-3919.85 -0.922694 0 62.3511
-3894.55 -0.958044 0 63.2403
-2786.67 -1.36035 0 8.53951
-2804.77 -1.38381 0 7.90361
-3907.2 -0.940363 0 62.7989
-3340.94 -1.18773 0 34.371
-2795.72 -1.37204 0 8.2238
-3362.64 -1.18381 0 33.6084
-3351.79 -1.18575 0 33.9924
-3894.55 -0.958044 0 63.2403
-3869.25 -0.993428 0 64.1044
-2768.57 -1.33723 0 9.15748
-2786.67 -1.36035 0 8.53951
-3881.9 -0.975733 0 63.6755
-3319.24 -1.19185 0 35.1121
-2777.62 -1.34875 0 8.85072
-3340.94 -1.18773 0 34.371
-3330.09 -1.18977 0 34.7442
-3869.25 -0.993428 0 64.1044
-3843.95 -1.02882 0 64.9436
-2750.46 -1.31442 0 9.75764
-2768.57 -1.33723 0 9.15748
-3856.6 -1.01112 0 64.5271
-3297.53 -1.19615 0 35.8317
-2759.51 -1.32578 0 9.45978
-3319.24 -1.19185 0 35.1121
-3308.38 -1.19398 0 35.4746
-3843.95 -1.02882 0 64.9436
-3818.65 -1.06419 0 65.7581
-2732.36 -1.29192 0 10.3401
-2750.46 -1.31442 0 9.75764
-3831.3 -1.04651 0 65.3539
-3275.83 -1.20059 0 36.5302
-2741.41 -1.30313 0 10.0511
-3297.53 -1.19615 0 35.8317
-3286.68 -1.19835 0 36.1836
-3818.65 -1.06419 0 65.7581
-3793.35 -1.09951 0 66.5479
-2714.26 -1.26969 0 10.905
-2732.36 -1.29192 0 10.3401
-3806 -1.08186 0 66.156
-3254.12 -1.20517 0 37.2076
-2723.31 -1.28077 0 10.6247
-3275.83 -1.20059 0 36.5302
-3264.97 -1.20287 0 36.8715
-3793.35 -1.09951 0 66.5479
-3768.04 -1.13476 0 67.3133
-2696.15 -1.24773 0 11.4524
-2714.26 -1.26969 0 10.905
-3780.69 -1.11715 0 66.9336
-3232.42 -1.20986 0 37.864
-2705.21 -1.25868 0 11.1809
-3254.12 -1.20517 0 37.2076
-3243.27 -1.2075 0 37.5384
-3768.04 -1.13476 0 67.3133
-3742.74 -1.16991 0 68.0544
-2678.05 -1.22602 0 11.9825
-2696.15 -1.24773 0 11.4524
-3755.39 -1.15235 0 67.6868
-3210.71 -1.21463 0 38.4996
-2687.1 -1.23685 0 11.7196
-3232.42 -1.20986 0 37.864
-3221.56 -1.21223 0 38.1844
-3742.74 -1.16991 0 68.0544
-3717.44 -1.20494 0 68.7714
-2659.95 -1.20453 0 12.4953
-2678.05 -1.22602 0 11.9825
-3730.09 -1.18745 0 68.4159
-3189 -1.21947 0 39.1145
-2669 -1.21524 0 12.2411
-3210.71 -1.21463 0 38.4996
-3199.86 -1.21704 0 38.8096
-3717.44 -1.20494 0 68.7714
-3692.13 -1.23983 0 69.4644
-2641.84 -1.18325 0 12.9911
-2659.95 -1.20453 0 12.4953
-3704.78 -1.2224 0 69.1209
-3167.3 -1.22435 0 39.7089
-2650.89 -1.19386 0 12.7453
-3189 -1.21947 0 39.1145
-3178.15 -1.2219 0 39.4143
-3692.13 -1.23983 0 69.4644
-3666.83 -1.27454 0 70.1337
-2623.74 -1.16216 0 13.4698
-2641.84 -1.18325 0 12.9911
-3679.48 -1.2572 0 69.802
-3145.59 -1.22925 0 40.2829
-2632.79 -1.17268 0 13.2326
-3167.3 -1.22435 0 39.7089
-3156.44 -1.2268 0 39.9985
-3666.83 -1.27454 0 70.1337
-3641.52 -1.30905 0 70.7793
-2605.63 -1.14125 0 13.9317
-2623.74 -1.16216 0 13.4698
-3654.18 -1.29182 0 70.4595
-3123.88 -1.23416 0 40.8367
-2614.69 -1.15168 0 13.7028
-3145.59 -1.22925 0 40.2829
-3134.74 -1.23171 0 40.5623
-3641.52 -1.30905 0 70.7793
-3616.22 -1.34335 0 71.4015
-2587.53 -1.1205 0 14.3768
-2605.63 -1.14125 0 13.9317
-3628.87 -1.32623 0 71.0933
-3102.18 -1.23905 0 41.3703
-2596.58 -1.13086 0 14.1563
-3123.88 -1.23416 0 40.8367
-3113.03 -1.23661 0 41.106
-3616.22 -1.34335 0 71.4015
-3590.91 -1.37741 0 72.0004
-2569.43 -1.09989 0 14.8052
-2587.53 -1.1205 0 14.3768
-3603.56 -1.36041 0 71.7039
-3080.47 -1.24391 0 41.884
-2578.48 -1.11018 0 14.5931
-3102.18 -1.23905 0 41.3703
-3091.32 -1.24149 0 41.6297
-3590.91 -1.37741 0 72.0004
-3565.61 -1.41121 0 72.5762
-2551.32 -1.07941 0 15.2171
-2569.43 -1.09989 0 14.8052
-3578.26 -1.39434 0 72.2912
-3058.76 -1.24871 0 42.3778
-2560.37 -1.08963 0 15.0132
-3080.47 -1.24391 0 41.884
-3069.61 -1.24632 0 42.1334
-3565.61 -1.41121 0 72.5762
-3540.3 -1.44472 0 73.1289
-2533.22 -1.05904 0 15.6126
-2551.32 -1.07941 0 15.2171
-3552.95 -1.428 0 72.8554
-3037.05 -1.25344 0 42.852
-2542.27 -1.06921 0 15.4169
-3058.76 -1.24871 0 42.3778
-3047.91 -1.25109 0 42.6174
-3540.3 -1.44472 0 73.1289
-3514.99 -1.47793 0 73.6589
-2515.11 -1.03877 0 15.9918
-2533.22 -1.05904 0 15.6126
-3527.65 -1.46136 0 73.3968
-3015.35 -1.25809 0 43.3066
-2524.17 -1.0489 0 15.8043
-3037.05 -1.25344 0 42.852
-3026.2 -1.25578 0 43.0817
-3514.99 -1.47793 0 73.6589
-3489.69 -1.51081 0 74.1662
-2497.01 -1.01858 0 16.3548
-2515.11 -1.03877 0 15.9918
-3502.34 -1.49441 0 73.9154
-2993.64 -1.26262 0 43.7417
-2506.06 -1.02867 0 16.1753
-3015.35 -1.25809 0 43.3066
-3004.49 -1.26037 0 43.5266
-3489.69 -1.51081 0 74.1662
-3464.38 -1.54335 0 74.6511
-2478.9 -0.998467 0 16.7018
-2497.01 -1.01858 0 16.3548
-3477.03 -1.52713 0 74.4115
-2971.93 -1.26703 0 44.1576
-2487.96 -1.00852 0 16.5303
-2993.64 -1.26262 0 43.7417
-2982.78 -1.26484 0 43.9521
-3464.38 -1.54335 0 74.6511
-3439.07 -1.57553 0 75.1136
-2460.8 -0.978404 0 17.0328
-2478.9 -0.998467 0 16.7018
-3451.73 -1.55949 0 74.8851
-2950.22 -1.2713 0 44.5544
-2469.85 -0.988429 0 16.8693
-2971.93 -1.26703 0 44.1576
-2961.08 -1.26918 0 44.3584
-3439.07 -1.57553 0 75.1136
-3413.77 -1.60733 0 75.554
-2442.7 -0.958383 0 17.348
-2460.8 -0.978404 0 17.0328
-3426.42 -1.59148 0 75.3366
-2928.51 -1.27541 0 44.9322
-2451.75 -0.968389 0 17.1924
-2950.22 -1.2713 0 44.5544
-2939.37 -1.27337 0 44.7457
-3413.77 -1.60733 0 75.554
-3388.46 -1.63872 0 75.9724
-2424.59 -0.938391 0 17.6474
-2442.7 -0.958383 0 17.348
-3401.11 -1.62308 0 75.7659
-2906.81 -1.27934 0 45.2911
-2433.64 -0.948384 0 17.4996
-2928.51 -1.27541 0 44.9322
-2917.66 -1.2774 0 45.114
-3388.46 -1.63872 0 75.9724
-3363.15 -1.6697 0 76.3689
-2406.49 -0.918414 0 17.9313
-2424.59 -0.938391 0 17.6474
-3375.8 -1.65426 0 76.1734
-2885.1 -1.28309 0 45.6313
-2415.54 -0.928401 0 17.7913
-2906.81 -1.27934 0 45.2911
-2895.95 -1.28124 0 45.4635
-3363.15 -1.6697 0 76.3689
-3337.84 -1.70023 0 76.7438
-2388.39 -0.89844 0 18.1996
-2406.49 -0.918414 0 17.9313
-3350.5 -1.68502 0 76.559
-2863.39 -1.28664 0 45.9529
-2397.44 -0.908427 0 18.0674
-2885.1 -1.28309 0 45.6313
-2874.24 -1.28489 0 45.7944
-3337.84 -1.70023 0 76.7438
-3312.53 -1.73032 0 77.0972
-2370.28 -0.878457 0 18.4526
-2388.39 -0.89844 0 18.1996
-3325.19 -1.71533 0 76.9232
-2841.68 -1.28997 0 46.2561
-2379.33 -0.888451 0 18.328
-2863.39 -1.28664 0 45.9529
-2852.54 -1.28833 0 46.1068
-3312.53 -1.73032 0 77.0972
-3287.23 -1.75993 0 77.4292
-2352.18 -0.858454 0 18.6904
-2370.28 -0.878457 0 18.4526
-3299.88 -1.74519 0 77.2658
-2819.97 -1.29306 0 46.541
-2361.23 -0.868459 0 18.5734
-2841.68 -1.28997 0 46.2561
-2830.83 -1.29154 0 46.4008
-3287.23 -1.75993 0 77.4292
-3261.92 -1.78906 0 77.7401
-2334.07 -0.838418 0 18.913
-2352.18 -0.858454 0 18.6904
-3274.57 -1.77456 0 77.5873
-2798.27 -1.29591 0 46.8077
-2343.13 -0.84844 0 18.8036
-2819.97 -1.29306 0 46.541
-2809.12 -1.29452 0 46.6766
-3261.92 -1.78906 0 77.7401
-3236.61 -1.81769 0 78.0299
-2315.97 -0.818338 0 19.1206
-2334.07 -0.838418 0 18.913
-3249.26 -1.80344 0 77.8876
-2776.56 -1.2985 0 47.0564
-2325.02 -0.828384 0 19.0187
-2798.27 -1.29591 0 46.8077
-2787.41 -1.29724 0 46.9343
-3236.61 -1.81769 0 78.0299
-3211.3 -1.8458 0 78.2989
-2297.87 -0.798204 0 19.3133
-2315.97 -0.818338 0 19.1206
-3223.96 -1.83181 0 78.167
-2754.85 -1.30081 0 47.2872
-2306.92 -0.808278 0 19.2188
-2776.56 -1.2985 0 47.0564
-2765.7 -1.29969 0 47.174
-3211.3 -1.8458 0 78.2989
-3185.99 -1.87338 0 78.5472
-2279.77 -0.778005 0 19.4912
-2297.87 -0.798204 0 19.3133
-3198.65 -1.85965 0 78.4256
-2733.14 -1.30284 0 47.5003
-2288.82 -0.788113 0 19.4041
-2754.85 -1.30081 0 47.2872
-2744 -1.30186 0 47.396
-3185.99 -1.87338 0 78.5472
-3160.69 -1.90041 0 78.775
-2261.66 -0.757731 0 19.6544
-2279.77 -0.778005 0 19.4912
-3173.34 -1.88696 0 78.6636
-2711.44 -1.30458 0 47.6958
-2270.71 -0.767878 0 19.5746
-2733.14 -1.30284 0 47.5003
-2722.29 -1.30375 0 47.6002
-3160.69 -1.90041 0 78.775
-3135.38 -1.92688 0 78.9824
-2243.56 -0.737371 0 19.8031
-2261.66 -0.757731 0 19.6544
-3148.03 -1.91371 0 78.8812
-2689.73 -1.306 0 47.8738
-2252.61 -0.747562 0 19.7306
-2711.44 -1.30458 0 47.6958
-2700.58 -1.30533 0 47.787
-3135.38 -1.92688 0 78.9824
-3110.07 -1.95278 0 79.1696
-2225.46 -0.716917 0 19.9374
-2243.56 -0.737371 0 19.8031
-3122.72 -1.9399 0 79.0785
-2668.02 -1.3071 0 48.0346
-2234.51 -0.727157 0 19.8721
-2689.73 -1.306 0 47.8738
-2678.87 -1.30659 0 47.9563
-3110.07 -1.95278 0 79.1696
-3084.76 -1.97809 0 79.3368
-2207.36 -0.696359 0 20.0573
-2225.46 -0.716917 0 19.9374
-3097.42 -1.96551 0 79.2557
-2646.31 -1.30787 0 48.1781
-2216.41 -0.706652 0 19.9991
-2668.02 -1.3071 0 48.0346
-2657.17 -1.30753 0 48.1085
-3084.76 -1.97809 0 79.3368
-3059.45 -2.0028 0 79.4841
-2189.25 -0.675688 0 20.1631
-2207.36 -0.696359 0 20.0573
-3072.11 -1.99052 0 79.4129
-2624.61 -1.3083 0 48.3046
-2198.31 -0.686038 0 20.112
-2646.31 -1.30787 0 48.1781
-2635.46 -1.30813 0 48.2435
-3059.45 -2.0028 0 79.4841
-3034.15 -2.0269 0 79.6116
-2171.15 -0.654895 0 20.2547
-2189.25 -0.675688 0 20.1631
-3046.8 -2.01493 0 79.5503
-2602.9 -1.30837 0 48.4142
-2180.2 -0.665307 0 20.2106
-2624.61 -1.3083 0 48.3046
-2613.75 -1.30838 0 48.3615
-3034.15 -2.0269 0 79.6116
-3008.84 -2.05038 0 79.7197
-2153.05 -0.633972 0 20.3324
-2171.15 -0.654895 0 20.2547
-3021.49 -2.03872 0 79.6681
-2581.19 -1.30808 0 48.507
-2162.1 -0.64445 0 20.2953
-2602.9 -1.30837 0 48.4142
-2592.05 -1.30827 0 48.4627
-3008.84 -2.05038 0 79.7197
-2983.53 -2.07322 0 79.8083
-2134.95 -0.61291 0 20.3962
-2153.05 -0.633972 0 20.3324
-2996.18 -2.06188 0 79.7664
-2559.49 -1.30742 0 48.5832
-2144 -0.623459 0 20.366
-2581.19 -1.30808 0 48.507
-2570.34 -1.3078 0 48.5472
-2983.53 -2.07322 0 79.8083
-2958.22 -2.09542 0 79.8778
-2116.85 -0.591703 0 20.4463
-2134.95 -0.61291 0 20.3962
-2970.88 -2.0844 0 79.8455
-2537.78 -1.30637 0 48.643
-2125.9 -0.602325 0 20.4229
-2559.49 -1.30742 0 48.5832
-2548.63 -1.30694 0 48.6152
-2958.22 -2.09542 0 79.8778
-2932.91 -2.11696 0 79.9282
-2098.75 -0.570342 0 20.4827
-2116.85 -0.591703 0 20.4463
-2945.57 -2.10627 0 79.9053
-2516.07 -1.30494 0 48.6864
-2107.8 -0.581042 0 20.4662
-2537.78 -1.30637 0 48.643
-2526.93 -1.3057 0 48.6667
-2932.91 -2.11696 0 79.9282
-2907.61 -2.13783 0 79.9596
-2080.65 -0.548821 0 20.5057
-2098.75 -0.570342 0 20.4827
-2920.26 -2.12748 0 79.9463
-2494.37 -1.3031 0 48.7136
-2089.7 -0.559602 0 20.4959
-2516.07 -1.30494 0 48.6864
-2505.22 -1.30407 0 48.702
-2907.61 -2.13783 0 79.9596
-2882.3 -2.15803 0 79.9724
-2062.55 -0.527132 0 20.5153
-2080.65 -0.548821 0 20.5057
-2894.95 -2.14802 0 79.9684
-2472.66 -1.30085 0 48.7247
-2071.6 -0.537998 0 20.5122
-2494.37 -1.3031 0 48.7136
-2483.52 -1.30203 0 48.7212
-2882.3 -2.15803 0 79.9724
-2856.99 -2.17755 0 79.9666
-2044.45 -0.505269 0 20.5116
-2062.55 -0.527132 0 20.5153
-2869.64 -2.16788 0 79.9718
-2450.96 -1.29819 0 48.72
-2053.5 -0.516223 0 20.5151
-2472.66 -1.30085 0 48.7247
-2461.81 -1.29957 0 48.7243
-2856.99 -2.17755 0 79.9666
-2831.68 -2.19637 0 79.9424
-2026.35 -0.483225 0 20.4947
-2044.45 -0.505269 0 20.5116
-2844.34 -2.18705 0 79.9568
-2429.25 -1.2951 0 48.6994
-2035.4 -0.49427 0 20.5048
-2450.96 -1.29819 0 48.72
-2440.1 -1.2967 0 48.7116
-2831.68 -2.19637 0 79.9424
-2806.38 -2.21449 0 79.8999
-2008.25 -0.460995 0 20.4648
-2026.35 -0.483225 0 20.4947
-2819.03 -2.20552 0 79.9234
-2407.55 -1.29158 0 48.6632
-2017.3 -0.472134 0 20.4814
-2429.25 -1.2951 0 48.6994
-2418.4 -1.2934 0 48.6832
-2806.38 -2.21449 0 79.8999
-2781.07 -2.2319 0 79.8393
-1990.15 -0.438572 0 20.422
-2008.25 -0.460995 0 20.4648
-2793.72 -2.22328 0 79.8719
-2385.84 -1.28763 0 48.6115
-1999.2 -0.449808 0 20.4451
-2407.55 -1.29158 0 48.6632
-2396.69 -1.28966 0 48.6393
-2781.07 -2.2319 0 79.8393
-2755.76 -2.24859 0 79.7609
-1972.05 -0.415951 0 20.3664
-1990.15 -0.438572 0 20.422
-2768.42 -2.24033 0 79.8023
-2364.14 -1.28322 0 48.5444
-1981.1 -0.427287 0 20.3958
-2385.84 -1.28763 0 48.6115
-2374.99 -1.28548 0 48.5799
-2755.76 -2.24859 0 79.7609
-2730.46 -2.26455 0 79.6647
-1953.96 -0.393128 0 20.2981
-1972.05 -0.415951 0 20.3664
-2743.11 -2.25666 0 79.715
-2342.43 -1.27837 0 48.4621
-1963.01 -0.404565 0 20.3338
-2364.14 -1.28322 0 48.5444
-2353.29 -1.28085 0 48.5052
-2730.46 -2.26455 0 79.6647
-2705.15 -2.27979 0 79.5508
-1935.86 -0.370096 0 20.2172
-1953.96 -0.393128 0 20.2981
-2717.8 -2.27226 0 79.6099
-2320.73 -1.27306 0 48.3648
-1944.91 -0.381638 0 20.2592
-2342.43 -1.27837 0 48.4621
-2331.58 -1.27577 0 48.4153
-2705.15 -2.27979 0 79.5508
-2679.84 -2.29428 0 79.4196
-1917.76 -0.346851 0 20.1239
-1935.86 -0.370096 0 20.2172
-2692.5 -2.28713 0 79.4874
-2299.03 -1.26729 0 48.2524
-1926.81 -0.3585 0 20.1721
-2320.73 -1.27306 0 48.3648
-2309.88 -1.27023 0 48.3105
-2679.84 -2.29428 0 79.4196
-2654.54 -2.30803 0 79.2711
-1899.66 -0.323389 0 20.0182
-1917.76 -0.346851 0 20.1239
-2667.19 -2.30125 0 79.3475
-2277.32 -1.26105 0 48.1253
-1908.71 -0.335148 0 20.0726
-2299.03 -1.26729 0 48.2524
-2288.17 -1.26423 0 48.1907
-2654.54 -2.30803 0 79.2711
-2629.23 -2.32102 0 79.1055
-1881.57 -0.299706 0 19.9003
-1899.66 -0.323389 0 20.0182
-2641.88 -2.31462 0 79.1904
-2255.62 -1.25433 0 47.9836
-1890.62 -0.311576 0 19.9608
-2277.32 -1.26105 0 48.1253
-2266.47 -1.25775 0 48.0563
-2629.23 -2.32102 0 79.1055
-2603.93 -2.33327 0 78.923
-1863.47 -0.275798 0 19.7704
-1881.57 -0.299706 0 19.9003
-2616.58 -2.32724 0 79.0163
-2233.92 -1.24714 0 47.8273
-1872.52 -0.28778 0 19.8369
-2255.62 -1.25433 0 47.9836
-2244.77 -1.2508 0 47.9072
-2603.93 -2.33327 0 78.923
-2578.62 -2.34475 0 78.7236
-1845.38 -0.25166 0 19.6284
-1863.47 -0.275798 0 19.7704
-2591.27 -2.3391 0 78.8254
-2212.21 -1.23947 0 47.6566
-1854.42 -0.263758 0 19.7008
-2233.92 -1.24714 0 47.8273
-2223.07 -1.24336 0 47.7437
-2578.62 -2.34475 0 78.7236
-2553.32 -2.35546 0 78.5077
-1827.28 -0.22729 0 19.4745
-1845.38 -0.25166 0 19.6284
-2565.97 -2.3502 0 78.6177
-2190.51 -1.23131 0 47.4716
-1836.33 -0.239505 0 19.5529
-2212.21 -1.23947 0 47.6566
-2201.36 -1.23545 0 47.5659
-2553.32 -2.35546 0 78.5077
-2528.01 -2.3654 0 78.2753
-1809.18 -0.202685 0 19.3089
-1827.28 -0.227291 0 19.4745
-2540.66 -2.36053 0 78.3936
-2168.81 -1.22266 0 47.2726
-1818.23 -0.215018 0 19.3932
-2190.51 -1.23131 0 47.4716
-2179.66 -1.22704 0 47.3739
-2528.01 -2.3654 0 78.2753
-2502.71 -2.37457 0 78.0267
-1791.09 -0.177842 0 19.1316
-1809.18 -0.202685 0 19.3089
-2515.36 -2.37008 0 78.153
-2147.11 -1.21351 0 47.0596
-1800.14 -0.190294 0 19.2217
-2168.81 -1.22266 0 47.2726
-2157.96 -1.21815 0 47.1678
-2502.71 -2.37457 0 78.0267
-2477.4 -2.38296 0 77.7619
-1773 -0.152758 0 18.9428
-1791.09 -0.177842 0 19.1316
-2490.05 -2.37886 0 77.8963
-2125.41 -1.20387 0 46.8328
-1782.04 -0.16533 0 19.0387
-2147.11 -1.21351 0 47.0596
-2136.26 -1.20876 0 46.9479
-2477.4 -2.38296 0 77.7619
-2452.1 -2.39057 0 77.4811
-1754.9 -0.12743 0 18.7426
-1773 -0.152758 0 18.9428
-2464.75 -2.38686 0 77.6235
-2103.71 -1.19373 0 46.5923
-1763.95 -0.140125 0 18.8442
-2125.41 -1.20387 0 46.8328
-2114.56 -1.19887 0 46.7142
-2452.1 -2.39057 0 77.4811
-2426.79 -2.39739 0 77.1846
-1736.81 -0.101857 0 18.5312
-1754.9 -0.12743 0 18.7426
-2439.44 -2.39408 0 77.3348
-2082.01 -1.18309 0 46.3382
-1745.85 -0.114675 0 18.6383
-2103.71 -1.19373 0 46.5923
-2092.86 -1.18848 0 46.4669
-2426.79 -2.39739 0 77.1846
-2401.49 -2.40342 0 76.8724
-1718.71 -0.0760371 0 18.3085
-1736.81 -0.101857 0 18.5312
-2414.14 -2.4005 0 77.0304
-2060.31 -1.17195 0 46.0708
-1727.76 -0.0889783 0 18.4212
-2082.01 -1.18309 0 46.3382
-2071.16 -1.17758 0 46.2062
-2401.49 -2.40342 0 76.8724
-2376.18 -2.40867 0 76.5447
-1700.62 -0.0499679 0 18.0748
-1718.71 -0.0760371 0 18.3085
-2388.84 -2.40615 0 76.7105
-2038.61 -1.16029 0 45.7901
-1709.67 -0.0630337 0 18.193
-2060.31 -1.17195 0 46.0708
-2049.46 -1.16618 0 45.9321
-2376.18 -2.40867 0 76.5447
-2350.88 -2.41312 0 76.2018
-1682.53 -0.0236483 0 17.8301
-1700.62 -0.0499679 0 18.0748
-2363.53 -2.411 0 76.3751
-2016.91 -1.14813 0 45.4962
-1691.57 -0.0368395 0 17.9538
-2038.61 -1.16029 0 45.7901
-2027.76 -1.15428 0 45.6448
-2350.88 -2.41312 0 76.2018
-2325.58 -2.41678 0 75.8436
-1664.44 0.00292287 0 17.5747
-1682.53 -0.0236483 0 17.8301
-2338.23 -2.41505 0 76.0246
-1995.21 -1.13546 0 45.1894
-1673.48 -0.0103942 0 17.7037
-2016.91 -1.14813 0 45.4962
-2006.06 -1.14186 0 45.3444
-2325.58 -2.41678 0 75.8436
-2300.28 -2.41965 0 75.4705
-1646.34 0.0297466 0 17.3085
-1664.44 0.00292288 0 17.5747
-2312.93 -2.41832 0 75.659
-1973.51 -1.12228 0 44.8697
-1655.39 0.0163031 0 17.4429
-1995.21 -1.13546 0 45.1894
-1984.36 -1.12894 0 45.0311
-2300.28 -2.41965 0 75.4705
-2274.97 -2.42172 0 75.0826
-1628.25 0.0568235 0 17.0317
-1646.34 0.0297466 0 17.3085
-2287.62 -2.42079 0 75.2784
-1951.81 -1.10859 0 44.5373
-1637.3 0.0432534 0 17.1714
-1973.51 -1.12228 0 44.8697
-1962.66 -1.1155 0 44.7051
-2274.97 -2.42172 0 75.0826
-2249.67 -2.423 0 74.6801
-1610.16 0.0841542 0 16.7444
-1628.25 0.0568235 0 17.0317
-2262.32 -2.42246 0 74.8832
-1930.11 -1.09439 0 44.1924
-1619.21 0.0704571 0 16.8893
-1951.81 -1.10859 0 44.5373
-1940.96 -1.10155 0 44.3664
-2249.67 -2.423 0 74.6801
-2224.37 -2.42347 0 74.263
-1592.07 0.111739 0 16.4468
-1610.16 0.0841541 0 16.7444
-2237.02 -2.42333 0 74.4733
-1908.41 -1.07967 0 43.835
-1601.11 0.0979147 0 16.5969
-1930.11 -1.09439 0 44.1924
-1919.26 -1.08709 0 44.0152
-2224.37 -2.42347 0 74.263
-2199.07 -2.42315 0 73.8316
-1573.98 0.139578 0 16.1389
-1592.07 0.111739 0 16.4468
-2211.72 -2.42341 0 74.0491
-1886.71 -1.06444 0 43.4653
-1583.02 0.125626 0 16.2941
-1908.41 -1.07967 0 43.835
-1897.56 -1.07212 0 43.6517
-2199.07 -2.42315 0 73.8316
-2173.76 -2.42204 0 73.386
-1555.89 0.16767 0 15.8209
-1573.98 0.139578 0 16.1389
-2186.41 -2.42269 0 73.6106
-1865.02 -1.0487 0 43.0835
-1564.93 0.153592 0 15.9812
-1886.71 -1.06444 0 43.4653
-1875.87 -1.05664 0 43.2759
-2173.76 -2.42204 0 73.386
-2148.46 -2.42012 0 72.9264
-1537.8 0.196016 0 15.4929
-1555.89 0.16767 0 15.8209
-2161.11 -2.42118 0 73.158
-1843.32 -1.03245 0 42.6897
-1546.84 0.181812 0 15.6582
-1865.02 -1.0487 0 43.0835
-1854.17 -1.04064 0 42.8881
-2148.46 -2.42012 0 72.9264
-2123.16 -2.41742 0 72.453
-1519.71 0.224615 0 15.155
-1537.8 0.196016 0 15.4929
-2135.81 -2.41887 0 72.6915
-1821.62 -1.01569 0 42.284
-1528.75 0.210284 0 15.3252
-1843.32 -1.03245 0 42.6897
-1832.47 -1.02413 0 42.4883
-2123.16 -2.41742 0 72.453
-2097.86 -2.41391 0 71.9659
-1501.62 0.253466 0 14.8074
-1519.71 0.224615 0 15.155
-2110.51 -2.41576 0 72.2112
-1799.93 -0.998415 0 41.8665
-1510.66 0.239009 0 14.9824
-1821.62 -1.01569 0 42.284
-1810.77 -1.00712 0 42.0767
-2097.86 -2.41391 0 71.9659
-2072.56 -2.40962 0 71.4653
-1483.53 0.282568 0 14.45
-1501.62 0.253466 0 14.8074
-2085.21 -2.41187 0 71.7173
-1778.23 -0.980633 0 41.4375
-1492.58 0.267986 0 14.6299
-1799.93 -0.998415 0 41.8665
-1789.08 -0.989587 0 41.6535
-2072.56 -2.40962 0 71.4653
-2047.26 -2.40453 0 70.9513
-1465.44 0.31192 0 14.0831
-1483.53 0.282568 0 14.45
-2059.91 -2.40718 0 71.21
-1756.53 -0.962343 0 40.9971
-1474.49 0.297213 0 14.2678
-1778.23 -0.980633 0 41.4375
-1767.38 -0.971551 0 41.2187
-2047.26 -2.40453 0 70.9513
-2021.96 -2.39866 0 70.4242
-1447.35 0.341521 0 13.7068
-1465.44 0.31192 0 14.0831
-2034.61 -2.4017 0 70.6894
-1734.84 -0.943548 0 40.5453
-1456.4 0.32669 0 13.8961
-1756.53 -0.962343 0 40.9971
-1745.69 -0.953009 0 40.7726
-2021.96 -2.39866 0 70.4242
-1996.66 -2.392 0 69.884
-1429.27 0.371368 0 13.3212
-1447.35 0.341521 0 13.7068
-2009.31 -2.39543 0 70.1557
-1713.14 -0.92425 0 40.0823
-1438.31 0.356414 0 13.5152
-1734.84 -0.943548 0 40.5453
-1723.99 -0.933962 0 40.3152
-1996.66 -2.392 0 69.884
-1971.36 -2.38455 0 69.3309
-1411.18 0.40146 0 12.9264
-1429.27 0.371368 0 13.3212
-1984.01 -2.38837 0 69.6091
-1691.45 -0.90445 0 39.6084
-1420.22 0.386384 0 13.1249
-1713.14 -0.92425 0 40.0823
-1702.3 -0.914412 0 39.8467
-1971.36 -2.38455 0 69.3309
-1946.06 -2.37633 0 68.7652
-1393.09 0.431795 0 12.5225
-1411.18 0.40146 0 12.9264
-1958.71 -2.38054 0 69.0496
-1669.75 -0.88415 0 39.1235
-1402.14 0.416597 0 12.7255
-1691.45 -0.90445 0 39.6084
-1680.6 -0.894362 0 39.3673
-1946.06 -2.37633 0 68.7652
-1920.76 -2.36732 0 68.1869
-1375.01 0.462371 0 12.1096
-1393.09 0.431795 0 12.5225
-1933.41 -2.37192 0 68.4776
-1648.06 -0.863355 0 38.6279
-1384.05 0.447053 0 12.3171
-1669.75 -0.88415 0 39.1235
-1658.91 -0.873814 0 38.877
-1920.76 -2.36732 0 68.1869
-1895.46 -2.35754 0 67.5962
-1356.92 0.493185 0 11.6879
-1375.01 0.462371 0 12.1096
-1908.11 -2.36253 0 67.8931
-1626.36 -0.842066 0 38.1216
-1365.96 0.477748 0 11.8998
-1648.06 -0.863355 0 38.6279
-1637.21 -0.852772 0 38.3761
-1895.46 -2.35754 0 67.5962
-1870.16 -2.34699 0 66.9933
-1338.83 0.524234 0 11.2574
-1356.92 0.493185 0 11.6879
-1882.81 -2.35236 0 67.2963
-1604.67 -0.820286 0 37.6049
-1347.88 0.50868 0 11.4737
-1626.36 -0.842066 0 38.1216
-1615.52 -0.831237 0 37.8646
-1870.16 -2.34699 0 66.9933
-1844.86 -2.33567 0 66.3784
-1320.75 0.555517 0 10.8184
-1338.83 0.524234 0 11.2574
-1857.51 -2.34143 0 66.6873
-1582.98 -0.79802 0 37.0779
-1329.79 0.539847 0 11.039
-1604.67 -0.820286 0 37.6049
-1593.82 -0.809214 0 37.3427
-1844.86 -2.33567 0 66.3784
-1819.56 -2.32359 0 65.7515
-1302.66 0.587029 0 10.3708
-1320.75 0.555517 0 10.8184
-1832.21 -2.32973 0 66.0664
-1561.28 -0.77527 0 36.5406
-1311.71 0.571244 0 10.5956
-1582.98 -0.79802 0 37.0779
-1572.13 -0.786705 0 36.8105
-1819.56 -2.32359 0 65.7515
-1794.26 -2.31075 0 65.113
-1284.58 0.618768 0 9.91484
-1302.66 0.587029 0 10.3708
-1806.91 -2.31727 0 65.4337
-1539.59 -0.752041 0 35.9933
-1293.62 0.60287 0 10.1439
-1561.28 -0.77527 0 36.5406
-1550.44 -0.763715 0 36.2682
-1794.26 -2.31075 0 65.113
-1768.96 -2.29716 0 64.4629
-1266.49 0.650731 0 9.45062
-1284.58 0.618768 0 9.91484
-1781.61 -2.30405 0 64.7894
-1517.9 -0.728336 0 35.4361
-1275.54 0.634722 0 9.68376
-1539.59 -0.752041 0 35.9933
-1528.74 -0.740248 0 35.7159
-1768.96 -2.29716 0 64.4629
-1743.66 -2.28281 0 63.8013
-1248.41 0.682913 0 8.97826
-1266.49 0.650731 0 9.45062
-1756.31 -2.29008 0 64.1335
-1496.21 -0.704159 0 34.8691
-1257.45 0.666795 0 9.21545
-1517.9 -0.728336 0 35.4361
-1507.05 -0.716306 0 35.1538
-1743.66 -2.28281 0 63.8013
-1718.37 -2.26773 0 63.1286
-1230.32 0.715312 0 8.49786
-1248.41 0.682913 0 8.97826
-1731.02 -2.27536 0 63.4664
-1474.51 -0.679516 0 34.2925
-1239.37 0.699085 0 8.73905
-1496.21 -0.704159 0 34.8691
-1485.36 -0.691896 0 34.582
-1718.37 -2.26773 0 63.1286
-1693.07 -2.2519 0 62.4447
-1212.24 0.747922 0 8.00954
-1230.32 0.715312 0 8.49786
-1705.72 -2.25991 0 62.788
-1452.82 -0.65441 0 33.7064
-1221.28 0.731591 0 8.25468
-1474.51 -0.679516 0 34.2925
-1463.67 -0.667021 0 34.0006
-1693.07 -2.2519 0 62.4447
-1667.77 -2.23534 0 61.75
-1194.16 0.780742 0 7.51342
-1212.24 0.747922 0 8.00954
-1680.42 -2.24371 0 62.0987
-1431.13 -0.628847 0 33.1109
-1203.2 0.764306 0 7.76245
-1452.82 -0.65441 0 33.7064
-1441.98 -0.641685 0 33.4098
-1667.77 -2.23534 0 61.75
-1642.47 -2.21806 0 61.0445
-1176.07 0.813765 0 7.00961
-1194.16 0.780742 0 7.51342
-1655.12 -2.22679 0 61.3986
-1409.44 -0.602831 0 32.5062
-1185.12 0.797228 0 7.26247
-1431.13 -0.628847 0 33.1109
-1420.28 -0.615895 0 32.8097
-1642.47 -2.21806 0 61.0445
-1617.18 -2.20005 0 60.3284
-1157.99 0.846988 0 6.49823
-1176.07 0.813765 0 7.00961
-1629.82 -2.20914 0 60.6877
-1387.75 -0.576368 0 31.8924
-1167.03 0.830352 0 6.75486
-1409.44 -0.602831 0 32.5062
-1398.59 -0.589655 0 32.2004
-1617.18 -2.20005 0 60.3284
-1591.88 -2.18133 0 59.6019
-1139.91 0.880406 0 5.97941
-1157.99 0.846988 0 6.49823
-1604.53 -2.19078 0 59.9664
-1366.06 -0.549463 0 31.2697
-1148.95 0.863673 0 6.23974
-1387.75 -0.576368 0 31.8924
-1376.9 -0.56297 0 31.5822
-1591.88 -2.18133 0 59.6019
-1566.58 -2.1619 0 58.8651
-1121.83 0.914015 0 5.45324
-1139.91 0.880406 0 5.97941
-1579.23 -2.1717 0 59.2348
-1344.36 -0.522122 0 30.6382
-1130.87 0.897187 0 5.71723
-1366.06 -0.549463 0 31.2697
-1355.21 -0.535847 0 30.955
-1566.58 -2.1619 0 58.8651
-1541.28 -2.14177 0 58.1182
-1103.75 0.947809 0 4.91985
-1121.83 0.914015 0 5.45324
-1553.93 -2.15192 0 58.4929
-1322.67 -0.49435 0 29.998
-1112.79 0.930889 0 5.18744
-1344.36 -0.522122 0 30.6382
-1333.52 -0.508289 0 30.3192
-1541.28 -2.14177 0 58.1182
-1515.99 -2.12095 0 57.3614
-1085.66 0.981785 0 4.37936
-1103.75 0.947809 0 4.91985
-1528.63 -2.13144 0 57.741
-1300.98 -0.466154 0 29.3493
-1094.7 0.964775 0 4.65048
-1322.67 -0.49435 0 29.998
-1311.83 -0.480305 0 29.6747
-1515.99 -2.12095 0 57.3614
-1490.69 -2.09943 0 56.5948
-1067.58 1.01594 0 3.83187
-1085.66 0.981785 0 4.37936
-1503.34 -2.11027 0 56.9793
-1279.29 -0.43754 0 28.6922
-1076.62 0.998838 0 4.10648
-1300.98 -0.466154 0 29.3493
-1290.14 -0.451899 0 29.0218
-1490.69 -2.09943 0 56.5948
-1465.39 -2.07724 0 55.8186
-1049.5 1.05026 0 3.27752
-1067.58 1.01594 0 3.83187
-1478.04 -2.08842 0 56.2079
-1257.6 -0.408514 0 28.0269
-1058.54 1.03307 0 3.55555
-1279.29 -0.43754 0 28.6922
-1268.45 -0.423078 0 28.3606
-1465.39 -2.07724 0 55.8186
-1440.09 -2.05438 0 55.0329
-1031.42 1.08474 0 2.71641
-1049.5 1.05026 0 3.27752
-1452.74 -2.06589 0 55.4269
-1235.91 -0.379082 0 27.3535
-1040.46 1.06748 0 2.9978
-1257.6 -0.408514 0 28.0269
-1246.76 -0.393848 0 27.6912
-1440.09 -2.05438 0 55.0329
-1414.8 -2.03085 0 54.238
-1013.34 1.11939 0 2.14866
-1031.42 1.08474 0 2.71641
-1427.45 -2.0427 0 54.6366
-1214.22 -0.349252 0 26.6721
-1022.38 1.10205 0 2.43336
-1235.91 -0.379082 0 27.3535
-1225.07 -0.364216 0 27.0138
-1414.8 -2.03085 0 54.238
-1389.5 -2.00666 0 53.4339
-995.259 1.15419 0 1.57438
-1013.34 1.11939 0 2.14866
-1402.15 -2.01884 0 53.8371
-1192.53 -0.31903 0 25.9829
-1004.3 1.13677 0 1.86233
-1214.22 -0.349252 0 26.6721
-1203.38 -0.334189 0 26.3284
-1389.5 -2.00666 0 53.4339
-1364.2 -1.98183 0 52.6209
-977.179 1.18913 0 0.993696
-995.259 1.15419 0 1.57438
-1376.85 -1.99433 0 53.0285
-1170.84 -0.288423 0 25.2859
-986.219 1.17164 0 1.28483
-1192.53 -0.31903 0 25.9829
-1181.69 -0.303774 0 25.6354
-1364.2 -1.98183 0 52.6209
-1338.91 -1.95636 0 51.7991
-959.099 1.22422 0 0.40672
-977.179 1.18913 0 0.993696
-1351.56 -1.96918 0 52.2111
-1149.15 -0.257439 0 24.5815
-968.139 1.20666 0 0.700987
-1170.84 -0.288423 0 25.2859
-1160 -0.272977 0 24.9347
-1338.91 -1.95636 0 51.7991
-1313.61 -1.93026 0 50.9686
-941.019 1.25944 0 -0.186433
-959.099 1.22422 0 0.40672
-1326.26 -1.94339 0 51.3849
-1127.47 -0.226084 0 23.8696
-950.059 1.24182 0 0.110908
-1149.15 -0.257439 0 24.5815
-1138.31 -0.241807 0 24.2265
-1313.61 -1.93026 0 50.9686
-1288.31 -1.90353 0 50.1297
-922.939 1.2948 0 -0.785645
-941.019 1.25944 0 -0.186433
-1300.96 -1.91697 0 50.5502
-1105.78 -0.194367 0 23.1505
-931.979 1.2771 0 -0.485289
-1127.47 -0.226084 0 23.8696
-1116.62 -0.21027 0 23.511
-1288.31 -1.90353 0 50.1297
-1263.02 -1.87619 0 49.2824
-904.86 1.33027 0 -1.3908
-922.939 1.2948 0 -0.785645
-1275.66 -1.88994 0 49.7071
-1084.09 -0.162294 0 22.4243
-913.9 1.31252 0 -1.08749
-1105.78 -0.194367 0 23.1505
-1094.93 -0.178374 0 22.7883
-1263.02 -1.87619 0 49.2824
-1237.72 -1.84825 0 48.427
-886.781 1.36586 0 -2.00178
-904.86 1.33027 0 -1.3908
-1250.37 -1.8623 0 48.8558
-1062.4 -0.129875 0 21.691
-895.82 1.34805 0 -1.69557
-1084.09 -0.162294 0 22.4243
-1073.24 -0.146128 0 22.0585
-1237.72 -1.84825 0 48.427
-1212.42 -1.81971 0 47.5637
-868.702 1.40156 0 -2.61848
-886.781 1.36586 0 -2.00178
-1225.07 -1.83405 0 47.9963
-1040.71 -0.0971164 0 20.951
-877.741 1.3837 0 -2.30943
-1062.4 -0.129875 0 21.691
-1051.55 -0.113538 0 21.3218
-1212.42 -1.81971 0 47.5637
-1187.13 -1.79059 0 46.6925
-850.623 1.43737 0 -3.24077
-868.702 1.40156 0 -2.61848
-1199.77 -1.80522 0 47.129
-1019.02 -0.0640267 0 20.2042
-859.662 1.41945 0 -2.92893
-1040.71 -0.0971164 0 20.951
-1029.87 -0.0806124 0 20.5784
-1187.13 -1.79059 0 46.6925
-1161.83 -1.76089 0 45.8136
-832.544 1.47327 0 -3.86854
-850.623 1.43737 0 -3.24077
-1174.48 -1.77581 0 46.254
-997.333 -0.0306141 0 19.4508
-841.584 1.45531 0 -3.55398
-1019.02 -0.0640266 0 20.2042
-1008.18 -0.0473602 0 19.8283
-1161.83 -1.76089 0 45.8136
-1136.53 -1.73062 0 44.9272
-814.466 1.50926 0 -4.50167
-832.544 1.47327 0 -3.86854
-1149.18 -1.74583 0 45.3713
-975.644 0.00311276 0 18.691
-823.505 1.49125 0 -4.18444
-997.333 -0.0306141 0 19.4508
-986.488 -0.0137894 0 19.0717
-1136.53 -1.73062 0 44.9272
-1111.23 -1.6998 0 44.0335
-796.388 1.54533 0 -5.14006
-814.466 1.50926 0 -4.50167
-1123.88 -1.71528 0 44.4813
-953.956 0.0371455 0 17.9249
-805.427 1.52728 0 -4.82022
-975.644 0.00311276 0 18.691
-964.8 0.0200914 0 18.3087
-1111.23 -1.6998 0 44.0335
-1085.94 -1.66844 0 43.1326
-778.309 1.58148 0 -5.78357
-796.388 1.54533 0 -5.14006
-1098.59 -1.68419 0 43.584
-932.267 0.0714754 0 17.1527
-787.349 1.56339 0 -5.46118
-953.956 0.0371455 0 17.9249
-943.111 0.0542739 0 17.5395
-1085.94 -1.66844 0 43.1326
-1060.64 -1.63653 0 42.2247
-760.231 1.61769 0 -6.4321
-778.309 1.58148 0 -5.78357
-1073.29 -1.65255 0 42.6795
-910.579 0.106094 0 16.3744
-769.27 1.59957 0 -6.10721
-932.267 0.0714754 0 17.1527
-921.423 0.0887491 0 16.7643
-1060.64 -1.63653 0 42.2247
-1035.34 -1.6041 0 41.31
-742.153 1.65396 0 -7.08552
-760.231 1.61769 0 -6.4321
-1047.99 -1.62038 0 41.7682
-888.891 0.140991 0 15.5903
-751.192 1.63582 0 -6.7582
-910.579 0.106094 0 16.3744
-899.735 0.123508 0 15.9831
-1035.34 -1.6041 0 41.31
-1010.05 -1.57116 0 40.3886
-724.076 1.69029 0 -7.74373
-742.153 1.65396 0 -7.08552
-1022.69 -1.5877 0 40.8501
-867.202 0.176159 0 14.8004
-733.115 1.67212 0 -7.41404
-888.891 0.140991 0 15.5903
-878.046 0.158542 0 15.196
-1010.05 -1.57116 0 40.3886
-984.748 -1.53772 0 39.4606
-705.998 1.72666 0 -8.40661
-724.076 1.69029 0 -7.74373
-997.397 -1.5545 0 39.9254
-845.514 0.211589 0 14.0049
-715.037 1.70847 0 -8.07459
-867.202 0.176159 0 14.8004
-856.358 0.193842 0 14.4034
-984.748 -1.53772 0 39.4606
-959.45 -1.50378 0 38.5263
-687.92 1.76306 0 -9.07404
-705.998 1.72666 0 -8.40661
-972.099 -1.52081 0 38.9942
-823.826 0.24727 0 13.204
-696.959 1.74486 0 -8.73976
-845.514 0.211589 0 14.0049
-834.67 0.229398 0 13.6051
-959.45 -1.50378 0 38.5263
-934.152 -1.46936 0 37.5858
-669.843 1.7995 0 -9.7459
-687.92 1.76306 0 -9.07404
-946.801 -1.48663 0 38.0568
-802.137 0.283193 0 12.3978
-678.882 1.78128 0 -9.40942
-823.826 0.24727 0 13.204
-812.981 0.265202 0 12.8016
-934.152 -1.46936 0 37.5858
-908.854 -1.43446 0 36.6392
-651.766 1.83596 0 -10.4221
-669.843 1.7995 0 -9.7459
-921.503 -1.45197 0 37.1133
-780.449 0.319349 0 11.5864
-660.804 1.81773 0 -10.0835
-802.137 0.283193 0 12.3978
-791.293 0.301243 0 11.9927
-908.854 -1.43446 0 36.6392
-883.556 -1.39911 0 35.6868
-633.688 1.87243 0 -11.1025
-651.766 1.83596 0 -10.4221
-896.205 -1.41684 0 36.1637
-758.76 0.355729 0 10.7699
-642.727 1.85419 0 -10.7618
-780.449 0.319349 0 11.5864
-769.605 0.337512 0 11.1788
-883.556 -1.39911 0 35.6868
-858.257 -1.36331 0 34.7287
-615.611 1.9089 0 -11.7869
-633.688 1.87243 0 -11.1025
-870.907 -1.38127 0 35.2084
-737.072 0.392322 0 9.94856
-624.65 1.89066 0 -11.4442
-758.76 0.355729 0 10.7699
-747.916 0.373999 0 10.3598
-858.257 -1.36331 0 34.7287
-832.959 -1.32707 0 33.765
-597.534 1.94537 0 -12.4754
-615.611 1.9089 0 -11.7869
-845.608 -1.34525 0 34.2475
-715.384 0.429118 0 9.12245
-606.572 1.92713 0 -12.1307
-737.072 0.392322 0 9.94856
-726.228 0.410695 0 9.53609
-832.959 -1.32707 0 33.765
-807.66 -1.29041 0 32.7959
-579.456 1.98183 0 -13.1677
-597.534 1.94537 0 -12.4754
-820.309 -1.30879 0 33.2811
-693.695 0.466107 0 8.29172
-588.495 1.9636 0 -12.821
-715.384 0.429118 0 9.12245
-704.539 0.447589 0 8.70765
-807.66 -1.29041 0 32.7959
-782.361 -1.25334 0 31.8216
-561.379 2.01826 0 -13.8637
-579.456 1.98183 0 -13.1677
-795.01 -1.27192 0 32.3094
-672.006 0.50328 0 7.45651
-570.418 2.00005 0 -13.5152
-693.695 0.466107 0 8.29172
-682.851 0.484671 0 7.87466
-782.361 -1.25334 0 31.8216
-757.061 -1.21586 0 30.8422
-543.302 2.05467 0 -14.5633
-561.379 2.01826 0 -13.8637
-769.711 -1.23465 0 31.3326
-650.317 0.540625 0 6.61696
-552.341 2.03647 0 -14.2131
-672.006 0.50328 0 7.45651
-661.162 0.521932 0 7.03727
-757.061 -1.21586 0 30.8422
-731.762 -1.17799 0 29.858
-525.225 2.09103 0 -15.2665
-543.302 2.05467 0 -14.5633
-744.412 -1.19697 0 30.3507
-628.629 0.578132 0 5.77321
-534.264 2.07285 0 -14.9145
-650.317 0.540625 0 6.61696
-639.473 0.559359 0 6.1956
-731.762 -1.17799 0 29.858
-706.462 -1.13975 0 28.869
-507.148 2.12734 0 -15.973
-525.225 2.09103 0 -15.2665
-719.112 -1.15892 0 29.3641
-606.94 0.615791 0 4.9254
-516.186 2.10919 0 -15.6193
-628.629 0.578132 0 5.77321
-617.784 0.596944 0 5.3498
-706.462 -1.13975 0 28.869
-681.162 -1.10114 0 27.8754
-489.071 2.1636 0 -16.6828
-507.148 2.12734 0 -15.973
-693.812 -1.12049 0 28.3728
-585.251 0.653591 0 4.07368
-498.109 2.14548 0 -16.3275
-606.94 0.615791 0 4.9254
-596.095 0.634674 0 4.50002
-681.162 -1.10114 0 27.8754
-655.861 -1.06217 0 26.8774
-470.994 2.19979 0 -17.3957
-489.071 2.1636 0 -16.6828
-668.512 -1.0817 0 27.377
-563.561 0.69152 0 3.21818
-480.032 2.1817 0 -17.0389
-585.251 0.653591 0 4.07368
-574.406 0.67254 0 3.64639
-655.861 -1.06217 0 26.8774
-630.561 -1.02287 0 25.8752
-452.917 2.2359 0 -18.1117
-470.994 2.19979 0 -17.3957
-643.211 -1.04256 0 26.3768
-541.872 0.729568 0 2.35905
-461.955 2.21786 0 -17.7533
-563.561 0.69152 0 3.21818
-552.717 0.71053 0 2.78906
-630.561 -1.02287 0 25.8752
-605.26 -0.983236 0 24.8689
-434.839 2.27193 0 -18.8305
-452.917 2.2359 0 -18.1117
-617.91 -1.00309 0 25.3726
-520.183 0.767727 0 1.49643
-443.878 2.25393 0 -18.4708
-541.872 0.729568 0 2.35905
-531.027 0.748634 0 1.92817
-605.26 -0.983236 0 24.8689
-579.958 -0.943289 0 23.8587
-416.762 2.30788 0 -19.5522
-434.839 2.27193 0 -18.8305
-592.609 -0.963301 0 24.3643
-498.493 0.805986 0 0.630451
-425.801 2.28992 0 -19.191
-520.183 0.767727 0 1.49643
-509.338 0.786844 0 1.06385
-579.958 -0.943289 0 23.8587
-554.657 -0.903037 0 22.8447
-398.685 2.34375 0 -20.2765
-416.762 2.30788 0 -19.5522
-567.308 -0.9232 0 23.3521
-476.803 0.84434 0 -0.238751
-407.724 2.32583 0 -19.914
-498.493 0.805986 0 0.630451
-487.648 0.825151 0 0.196245
-554.657 -0.903037 0 22.8447
-529.355 -0.862501 0 21.8271
-380.608 2.37956 0 -21.0035
-398.685 2.34375 0 -20.2765
-542.006 -0.882804 0 22.3363
-455.113 0.882786 0 -1.11106
-389.647 2.36166 0 -20.6397
-476.803 0.84434 0 -0.238751
-465.958 0.863551 0 -0.674524
-529.355 -0.862501 0 21.8271
-504.053 -0.821686 0 20.8061
-362.531 2.41532 0 -21.733
-380.608 2.37956 0 -21.0035
-516.704 -0.842126 0 21.317
-433.423 0.921326 0 -1.98637
-371.569 2.39744 0 -21.3679
-455.113 0.882786 0 -1.11106
-444.268 0.902044 0 -1.54834
-504.053 -0.821686 0 20.8061
-478.751 -0.780624 0 19.7818
-344.453 2.45107 0 -22.4649
-362.531 2.41532 0 -21.733
-491.402 -0.801184 0 20.2943
-411.733 0.959968 0 -2.8646
-353.492 2.43319 0 -22.0986
-433.423 0.921326 0 -1.98637
-422.578 0.940632 0 -2.42512
-478.751 -0.780624 0 19.7818
-453.447 -0.739318 0 18.7544
-326.376 2.48681 0 -23.1994
-344.453 2.45107 0 -22.4649
-466.099 -0.760002 0 19.2685
-390.042 0.998715 0 -3.7457
-335.415 2.46894 0 -22.8318
-411.733 0.959968 0 -2.8646
-400.888 0.97933 0 -3.3048
-453.447 -0.739318 0 18.7544
-428.143 -0.697803 0 17.724
-308.299 2.5225 0 -23.9362
-326.376 2.48681 0 -23.1994
-440.795 -0.718574 0 18.2395
-368.351 1.03758 0 -4.62961
-317.337 2.50468 0 -23.5675
-390.042 0.998715 0 -3.7457
-379.197 1.01813 0 -4.18731
-428.143 -0.697803 0 17.724
-402.837 -0.656129 0 16.6907
-290.221 2.55791 0 -24.6754
-308.299 2.5225 0 -23.9362
-415.49 -0.677015 0 17.2077
-346.659 1.07647 0 -5.51622
-299.26 2.54026 0 -24.3055
-368.351 1.03758 0 -4.62961
-357.505 1.05703 0 -5.07259
-402.837 -0.656129 0 16.6907
-377.528 -0.614154 0 15.6547
-272.144 2.59233 0 -25.4162
-290.221 2.55791 0 -24.6754
-390.183 -0.635097 0 16.173
-324.966 1.1153 0 -6.4051
-281.182 2.57534 0 -25.0456
-346.659 1.07647 0 -5.51622
-335.813 1.09589 0 -5.9604
-377.528 -0.614154 0 15.6547
-352.218 -0.572431 0 14.6159
-254.066 2.62432 0 -26.1573
-272.144 2.59233 0 -25.4162
-364.873 -0.593485 0 15.1358
-303.274 1.15344 0 -7.2954
-263.105 2.60876 0 -25.7868
-324.966 1.1153 0 -6.4051
-314.12 1.13453 0 -6.85018
-352.218 -0.572431 0 14.6159
-326.904 -0.529252 0 13.5749
-235.99 2.65013 0 -26.895
-254.066 2.62432 0 -26.1573
-339.561 -0.550529 0 14.0954
-281.582 1.19017 0 -8.18431
-245.028 2.63837 0 -26.527
-303.274 1.15344 0 -7.2954
-292.428 1.17199 0 -7.74022
-326.904 -0.529252 0 13.5749
-301.598 -0.48871 0 12.5304
-217.913 2.66387 0 -27.623
-235.99 2.65013 0 -26.895
-314.249 -0.50999 0 13.0537
-259.9 1.22253 0 -9.06696
-226.952 2.65907 0 -27.2608
-281.582 1.19017 0 -8.18431
-270.739 1.20727 0 -8.62707
-301.598 -0.48871 0 12.5304
-276.303 -0.439167 0 11.4862
-199.84 2.6509 0 -28.3244
-217.913 2.66387 0 -27.623
-288.949 -0.462246 0 12.0069
-238.234 1.24735 0 -9.93077
-208.875 2.66197 0 -27.9787
-259.9 1.22253 0 -9.06696
-249.065 1.2358 0 -9.50193
-276.303 -0.439167 0 11.4862
-251.082 -0.405709 0 10.4349
-181.758 2.59408 0 -28.9771
-199.84 2.6509 0 -28.3244
-263.678 -0.42772 0 10.964
-216.618 1.25368 0 -10.755
-190.803 2.62988 0 -28.6585
-238.234 1.24735 0 -9.93077
-227.415 1.25457 0 -10.3508
-251.082 -0.405709 0 10.4349
-225.956 -0.322173 0 9.39757
-163.682 2.44526 0 -29.5243
-181.758 2.59408 0 -28.9771
-238.505 -0.354892 0 9.90877
-195.081 1.23057 0 -11.4965
-172.715 2.534 0 -29.2697
-216.618 1.25368 0 -10.755
-205.84 1.24445 0 -11.1375
-225.956 -0.322173 0 9.39757
-201.211 -0.325088 0 8.33815
-145.538 2.17763 0 -29.9111
-163.682 2.44526 0 -29.5243
-213.514 -0.350638 0 8.88105
-173.744 1.14476 0 -12.0831
-154.631 2.33216 0 -29.741
-195.081 1.23057 0 -11.4965
-184.371 1.20362 0 -11.8216
-201.211 -0.325088 0 8.33815
-176.897 -0.0738992 0 7.35314
-127.373 1.65497 0 -29.9882
-145.538 2.17763 0 -29.9111
-188.99 -0.151617 0 7.81041
-152.665 0.964144 0 -12.4036
-136.443 1.94863 0 -30.0039
-173.744 1.14476 0 -12.0831
-163.182 1.0558 0 -12.2737
-176.897 -0.0738992 0 7.35314
-154.078 -0.24945 0 6.28512
-108.817 0.955577 0 -29.709
-127.373 1.65497 0 -29.9882
-165.235 -0.297388 0 6.87682
-132.221 0.607116 0 -12.2429
-118.197 1.34464 0 -29.8906
-152.665 0.964144 0 -12.4036
-142.304 0.844188 0 -12.4326
-154.078 -0.24945 0 6.28512
-132.789 0.777842 0 5.53116
-89.9615 -0.227317 0 -28.8506
-108.817 0.955577 0 -29.709
-143.184 0.511658 0 5.74585
-112.306 0.000955023 0 -11.461
-99.3802 0.379484 0 -29.3765
-132.221 0.607116 0 -12.2429
-122.278 0.275045 0 -11.8791
-132.789 0.777842 0 5.53116
-116.408 -0.185895 0 4.4816
-69.2123 -0.820592 0 -27.922
-89.9615 -0.227317 0 -28.8506
-123.89 -0.362749 0 5.26931
-93.8765 -0.979614 0 -9.55645
-80.0336 -0.558387 0 -28.3311
-112.306 0.000955023 0 -11.461
-102.69 -0.292234 0 -10.8312
-116.408 -0.185895 0 4.4816
-105.226 3.70766 0 5.16213
-46.7926 -0.766201 0 -27.7127
-69.2123 -0.820592 0 -27.922
-109.669 3.15024 0 3.89875
-74.7051 -2.24554 0 -7.47306
-58.0788 -1.2968 0 -27.6302
-93.8765 -0.979614 0 -9.55645
-84.9067 -1.86633 0 -8.1574
-105.226 3.70766 0 5.16213
-112.652 -3.99055 0 8.16426
-18.64 8.8434 0 -33.4412
-46.7926 -0.766201 0 -27.7127
-106.669 -2.74194 0 6.92415
-53.8209 -1.74078 0 -6.58571
-33.9604 2.53848 0 -29.3001
-74.7051 -2.24554 0 -7.47306
-64.0599 -2.06553 0 -7.26604
-112.652 -3.99055 0 8.16426
-155.031 -19.5011 0 33.6373
2.91223 46.9497 0 -50.6508
-18.64 8.8434 0 -33.4412
-124.161 4.33145 0 12.9456
-5.76628 26.5844 0 -29.3008
-5.88605 19.0248 0 -39.9663
-53.8209 -1.74078 0 -6.58571
-37.4194 3.23235 0 -11.2672
-155.031 -19.5011 0 33.6373
-24.9674 243.495 0 -132.059
-4.20742 183.769 0 -44.8935
2.91223 46.9497 0 -50.6508
-162.044 -41.9884 0 16.8578
13.4112 233.837 0 -75.5836
5.69915 104.129 0 -57.5209
-5.76628 26.5844 0 -29.3008
15.0938 82.8072 0 -53.5601
-3339.7 -1004.92 0 -132.34
-3535.22 -383.303 0 -193.057
-2094.86 -368.103 0 -4.80037
-1929.61 -579.82 0 177.418
-3469.52 -722.386 0 -225.249
-2770.94 -423.354 0 -79.4159
-2041.87 -466.704 0 67.281
-2736.6 -823.029 0 28.8267
-2707.83 -587.154 0 -24.6665
-3535.22 -383.303 0 -193.057
-3587.48 -115.298 0 -89.1198
-2134.29 -162.936 0 -60.8081
-2094.86 -368.103 0 -4.80037
-3584.64 -197.69 0 -137.674
-2869.36 -167.044 0 -91.7314
-2112.45 -257.968 0 -41.0651
-2770.94 -423.354 0 -79.4159
-2847.09 -285.536 0 -104.062
-3587.48 -115.298 0 -89.1198
-3542.18 -22.5211 0 -29.556
-2154.38 -59.7415 0 -70.8464
-2134.29 -162.936 0 -60.8081
-3560.26 -57.8581 0 -50.1826
-2862.28 -50.5577 0 -59.5512
-2153.54 -100.86 0 -70.2758
-2869.36 -167.044 0 -91.7314
-2867.74 -91.8034 0 -71.3338
-3542.18 -22.5211 0 -29.556
-3511.28 -2.64839 0 -15.4547
-2137.98 -12.1223 0 -64.4835
-2154.38 -59.7415 0 -70.8464
-3528.48 -8.01008 0 -20.2706
-2835 -6.09594 0 -43.3313
-2145.41 -30.2129 0 -67.3231
-2862.28 -50.5577 0 -59.5512
-2850.58 -23.3783 0 -50.8629
-3511.28 -2.64839 0 -15.4547
-3480.38 4.72185 0 -13.704
-2118.83 1.58126 0 -59.9675
-2137.98 -12.1223 0 -64.4835
-3493.32 2.11543 0 -13.2991
-2805.79 4.52338 0 -37.6185
-2130 -2.96863 0 -62.236
-2835 -6.09594 0 -43.3313
-2819.13 2.09346 0 -38.8819
-3480.38 4.72185 0 -13.704
-3459.04 3.37384 0 -16.885
-2096.77 4.82677 0 -56.7076
-2118.83 1.58126 0 -59.9675
-3470.05 4.43157 0 -15.4161
-2781.51 5.79068 0 -37.0053
-2106.73 4.19484 0 -57.9449
-2805.79 4.52338 0 -37.6185
-2793.39 5.55877 0 -37.3028
-3459.04 3.37384 0 -16.885
-3438.39 2.05338 0 -19.3121
-2078.98 3.03324 0 -55.1896
-2096.77 4.82677 0 -56.7076
-3448.08 2.74677 0 -18.1069
-2760.72 3.44198 0 -37.6652
-2087.9 4.11812 0 -55.9137
-2781.51 5.79068 0 -37.0053
-2770.56 4.89707 0 -37.1489
-3438.39 2.05338 0 -19.3121
-3420.01 0.278835 0 -21.0333
-2062.95 0.932883 0 -54.0952
-2078.98 3.03324 0 -55.1896
-3429.31 1.10704 0 -20.3737
-2742.7 1.19475 0 -38.2976
-2070.46 2.01128 0 -54.5553
-2760.72 3.44198 0 -37.6652
-2751.51 2.20494 0 -38.0963
-3420.01 0.278835 0 -21.0333
-3401.62 -0.782764 0 -21.563
-2049.33 -1.00895 0 -53.3391
-2062.95 0.932883 0 -54.0952
-3410.68 -0.30382 0 -21.388
-2726.26 -0.640656 0 -38.4945
-2056.04 -0.128276 0 -53.7212
-2742.7 1.19475 0 -38.2976
-2734.3 0.22563 0 -38.4264
-3401.62 -0.782764 0 -21.563
-3383.63 -1.52836 0 -21.4233
-2036.77 -2.24571 0 -52.6053
-2049.33 -1.00895 0 -53.3391
-3392.66 -1.20769 0 -21.5827
-2710.78 -1.78176 0 -38.2564
-2042.87 -1.69086 0 -52.9603
-2726.26 -0.640656 0 -38.4945
-2718.44 -1.29741 0 -38.4378
-3383.63 -1.52836 0 -21.4233
-3365.57 -1.91659 0 -20.7618
-2025.08 -3.02044 0 -51.9028
-2036.77 -2.24571 0 -52.6053
-3374.58 -1.7508 0 -21.1332
-2695.8 -2.46845 0 -37.7084
-2030.88 -2.69328 0 -52.2589
-2710.78 -1.78176 0 -38.2564
-2703.24 -2.16934 0 -38.0079
-3365.57 -1.91659 0 -20.7618
-3347.55 -2.12633 0 -19.8419
-2013.77 -3.4131 0 -51.1844
-2025.08 -3.02044 0 -51.9028
-3356.57 -2.04243 0 -20.3297
-2681.09 -2.81658 0 -36.961
-2019.38 -3.25023 0 -51.5426
-2695.8 -2.46845 0 -37.7084
-2688.43 -2.67746 0 -37.3562
-3347.55 -2.12633 0 -19.8419
-3329.49 -2.20916 0 -18.7669
-2002.71 -3.59247 0 -50.4671
-2013.77 -3.4131 0 -51.1844
-3338.52 -2.17783 0 -19.3155
-2666.52 -2.97395 0 -36.1061
-2008.23 -3.52575 0 -50.8269
-2681.09 -2.81658 0 -36.961
-2673.79 -2.91268 0 -36.5417
-3329.49 -2.20916 0 -18.7669
-3311.43 -2.23049 0 -17.6305
-1991.75 -3.63628 0 -49.7493
-2002.71 -3.59247 0 -50.4671
-3320.47 -2.22614 0 -18.2041
-2652 -3.01654 0 -35.1984
-1997.22 -3.62579 0 -50.1073
-2666.52 -2.97395 0 -36.1061
-2659.25 -3.00606 0 -35.6569
-3311.43 -2.23049 0 -17.6305
-3293.35 -2.21619 0 -16.4707
-1980.84 -3.6122 0 -49.039
-1991.75 -3.63628 0 -49.7493
-3302.39 -2.22604 0 -17.0512
-2637.5 -3.00113 0 -34.273
-1986.29 -3.63085 0 -49.3933
-2652 -3.01654 0 -35.1984
-2644.75 -3.01381 0 -34.7363
-3293.35 -2.21619 0 -16.4707
-3275.27 -2.18641 0 -15.3139
-1969.96 -3.55145 0 -48.3381
-1980.84 -3.6122 0 -49.039
-3284.31 -2.20273 0 -15.8912
-2623.02 -2.95578 0 -33.3479
-1975.4 -3.58469 0 -48.6871
-2637.5 -3.00113 0 -34.273
-2630.26 -2.98103 0 -33.8098
-3275.27 -2.18641 0 -15.3139
-3257.18 -2.1494 0 -14.1703
-1959.08 -3.47499 0 -47.6492
-1969.96 -3.55145 0 -48.3381
-3266.23 -2.16836 0 -14.7399
-2608.53 -2.89757 0 -32.433
-1964.52 -3.51459 0 -47.9921
-2623.02 -2.95578 0 -33.3479
-2615.77 -2.92765 0 -32.8888
-3257.18 -2.1494 0 -14.1703
-3239.09 -2.11029 0 -13.0458
-1948.2 -3.39187 0 -46.9728
-1959.08 -3.47499 0 -47.6492
-3248.14 -2.12998 0 -13.6055
-2594.05 -2.83428 0 -31.5327
-1953.64 -3.43383 0 -47.3093
-2608.53 -2.89757 0 -32.433
-2601.29 -2.86627 0 -31.9809
-3239.09 -2.11029 0 -13.0458
-3221 -2.07101 0 -11.9419
-1937.33 -3.30722 0 -46.3094
-1948.2 -3.39187 0 -46.9728
-3230.05 -2.09058 0 -12.4912
-2579.56 -2.76996 0 -30.6489
-1942.76 -3.3496 0 -46.6395
-2594.05 -2.83428 0 -31.5327
-2586.81 -2.80212 0 -31.0887
-3221 -2.07101 0 -11.9419
-3202.91 -2.03252 0 -10.8595
-1926.45 -3.22291 0 -45.659
-1937.33 -3.30722 0 -46.3094
-3211.96 -2.05165 0 -11.398
-2565.08 -2.70615 0 -29.7822
-1931.89 -3.26494 0 -45.9826
-2579.56 -2.76996 0 -30.6489
-2572.32 -2.73794 0 -30.2134
-3202.91 -2.03252 0 -10.8595
-3184.82 -1.99508 0 -9.79839
-1915.57 -3.13979 0 -45.0214
-1926.45 -3.22291 0 -45.659
-3193.87 -2.01366 0 -10.3263
-2550.59 -2.64348 0 -28.9326
-1921.01 -3.18119 0 -45.3386
-2565.08 -2.70615 0 -29.7822
-2557.83 -2.67466 0 -29.3553
-3184.82 -1.99508 0 -9.79839
-3166.73 -1.95873 0 -8.75834
-1904.69 -3.05798 0 -44.3965
-1915.57 -3.13979 0 -45.0214
-3175.78 -1.97677 0 -9.27575
-2536.1 -2.58206 0 -28.0999
-1910.13 -3.09872 0 -44.7074
-2550.59 -2.64348 0 -28.9326
-2543.34 -2.61262 0 -28.5142
-3166.73 -1.95873 0 -8.75834
-3148.64 -1.92341 0 -7.73904
-1893.81 -2.97745 0 -43.784
-1904.69 -3.05798 0 -44.3965
-3157.69 -1.94095 0 -8.24611
-2521.61 -2.52182 0 -27.2839
-1899.25 -3.01757 0 -44.0887
-2536.1 -2.58206 0 -28.0999
-2528.85 -2.55179 0 -27.6899
-3148.64 -1.92341 0 -7.73904
-3130.55 -1.88905 0 -6.74025
-1882.93 -2.89807 0 -43.1839
-1893.81 -2.97745 0 -43.784
-3139.59 -1.90612 0 -7.2371
-2507.12 -2.46265 0 -26.4844
-1888.37 -2.93763 0 -43.4824
-2521.61 -2.52182 0 -27.2839
-2514.36 -2.49211 0 -26.8821
-3130.55 -1.88905 0 -6.74025
-3112.45 -1.85556 0 -5.76174
-1872.05 -2.81972 0 -42.596
-1882.93 -2.89807 0 -43.1839
-3121.5 -1.8722 0 -6.24847
-2492.63 -2.40447 0 -25.7011
-1877.49 -2.85878 0 -42.8884
-2507.12 -2.46265 0 -26.4844
-2499.87 -2.43344 0 -26.0907
-3112.45 -1.85556 0 -5.76174
-3094.36 -1.8229 0 -4.80332
-1861.16 -2.74231 0 -42.0201
-1872.05 -2.81972 0 -42.596
-3103.4 -1.83913 0 -5.28003
-2478.14 -2.34717 0 -24.9338
-1866.61 -2.7809 0 -42.3065
-2492.63 -2.40447 0 -25.7011
-2485.38 -2.37571 0 -25.3154
-3094.36 -1.8229 0 -4.80332
-3076.26 -1.79099 0 -3.86484
-1850.28 -2.66575 0 -41.4562
-1861.16 -2.74231 0 -42.0201
-3085.31 -1.80685 0 -4.3316
-2463.65 -2.29071 0 -24.1826
-1855.72 -2.70393 0 -41.7367
-2478.14 -2.34717 0 -24.9338
-2470.89 -2.31884 0 -24.5562
-3076.26 -1.79099 0 -3.86484
-3058.17 -1.75981 0 -2.94615
-1839.4 -2.59 0 -40.9042
-1850.28 -2.66575 0 -41.4562
-3067.21 -1.77531 0 -3.40303
-2449.15 -2.23502 0 -23.4472
-1844.84 -2.62778 0 -41.1787
-2463.65 -2.29071 0 -24.1826
-2456.4 -2.26277 0 -23.8129
-3058.17 -1.75981 0 -2.94615
-3040.07 -1.72932 0 -2.04713
-1828.52 -2.51501 0 -40.3639
-1839.4 -2.59 0 -40.9042
-3049.12 -1.74448 0 -2.49419
-2434.66 -2.18007 0 -22.7275
-1833.96 -2.55241 0 -40.6326
-2449.15 -2.23502 0 -23.4472
-2441.91 -2.20745 0 -23.0854
-3040.07 -1.72932 0 -2.04713
-3021.97 -1.69949 0 -1.16765
-1817.64 -2.44077 0 -39.8354
-1828.52 -2.51501 0 -40.3639
-3031.02 -1.71432 0 -1.60495
-2420.17 -2.12584 0 -22.0235
-1823.08 -2.4778 0 -40.0982
-2434.66 -2.18007 0 -22.7275
-2427.42 -2.15287 0 -22.3735
-3021.97 -1.69949 0 -1.16765
-3003.88 -1.67029 0 -0.307601
-1806.75 -2.36724 0 -39.3186
-1817.64 -2.44077 0 -39.8354
-3012.92 -1.68481 0 -0.735204
-2405.68 -2.07229 0 -21.335
-1812.19 -2.40391 0 -39.5755
-2420.17 -2.12584 0 -22.0235
-2412.92 -2.09898 0 -21.6773
-3003.88 -1.67029 0 -0.307601
-2985.78 -1.64169 0 0.533135
-1795.87 -2.2944 0 -38.8133
-1806.75 -2.36724 0 -39.3186
-2994.83 -1.65591 0 0.115174
-2391.18 -2.0194 0 -20.6619
-1801.31 -2.33073 0 -39.0645
-2405.68 -2.07229 0 -21.335
-2398.43 -2.04576 0 -20.9965
-2985.78 -1.64169 0 0.533135
-2967.68 -1.61367 0 1.35467
-1784.99 -2.22225 0 -38.3195
-1795.87 -2.2944 0 -38.8133
-2976.73 -1.62761 0 0.946297
-2376.69 -1.96716 0 -20.0042
-1790.43 -2.25824 0 -38.565
-2391.18 -2.0194 0 -20.6619
-2383.94 -1.9932 0 -20.3311
-2967.68 -1.61367 0 1.35467
-2949.58 -1.58621 0 2.15713
-1774.1 -2.15076 0 -37.8372
-1784.99 -2.22225 0 -38.3195
-2958.63 -1.59987 0 1.75828
-2362.2 -1.91554 0 -19.3618
-1779.54 -2.18642 0 -38.077
-2376.69 -1.96716 0 -20.0042
-2369.44 -1.94127 0 -19.6811
-2949.58 -1.58621 0 2.15713
-2931.48 -1.55928 0 2.94062
-1763.22 -2.07993 0 -37.3663
-1774.1 -2.15076 0 -37.8372
-2940.53 -1.57268 0 2.55124
-2347.7 -1.86453 0 -18.7345
-1768.66 -2.11526 0 -37.6003
-2362.2 -1.91554 0 -19.3618
-2354.95 -1.88996 0 -19.0463
-2931.48 -1.55928 0 2.94062
-2913.38 -1.53286 0 3.70525
-1752.34 -2.00973 0 -36.9067
-1763.22 -2.07993 0 -37.3663
-2922.43 -1.54601 0 3.32528
-2333.21 -1.81411 0 -18.1223
-1757.78 -2.04475 0 -37.1351
-2347.7 -1.86453 0 -18.7345
-2340.45 -1.83924 0 -18.4266
-2913.38 -1.53286 0 3.70525
-2895.28 -1.50693 0 4.45115
-1741.45 -1.94016 0 -36.4583
-1752.34 -2.00973 0 -36.9067
-2904.33 -1.51984 0 4.08054
-2318.71 -1.76425 0 -17.5252
-1746.89 -1.97487 0 -36.6811
-2333.21 -1.81411 0 -18.1223
-2325.96 -1.78911 0 -17.8219
-2895.28 -1.50693 0 4.45115
-2877.18 -1.48147 0 5.17842
-1730.57 -1.87121 0 -36.0211
-1741.45 -1.94016 0 -36.4583
-2886.23 -1.49414 0 4.81711
-2304.22 -1.71495 0 -16.9429
-1736.01 -1.90561 0 -36.2383
-2318.71 -1.76425 0 -17.5252
-2311.46 -1.73953 0 -17.2322
-2877.18 -1.48147 0 5.17842
-2859.08 -1.45644 0 5.88719
-1719.68 -1.80285 0 -35.595
-1730.57 -1.87121 0 -36.0211
-2868.13 -1.4689 0 5.53511
-2289.72 -1.66618 0 -16.3754
-1725.13 -1.83696 0 -35.8066
-2304.22 -1.71495 0 -16.9429
-2296.97 -1.6905 0 -16.6573
-2859.08 -1.45644 0 5.88719
-2840.98 -1.43184 0 6.57757
-1708.8 -1.73509 0 -35.1799
-1719.68 -1.80285 0 -35.595
-2850.03 -1.44409 0 6.23467
-2275.23 -1.61793 0 -15.8226
-1714.24 -1.7689 0 -35.386
-2289.72 -1.66618 0 -16.3754
-2282.47 -1.64199 0 -16.0972
-2840.98 -1.43184 0 6.57757
-2822.87 -1.40764 0 7.24967
-1697.92 -1.6679 0 -34.7758
-1708.8 -1.73509 0 -35.1799
-2831.92 -1.41969 0 6.91589
-2260.73 -1.57018 0 -15.2845
-1703.36 -1.70142 0 -34.9765
-2275.23 -1.61793 0 -15.8226
-2267.98 -1.594 0 -15.5517
-2822.87 -1.40764 0 7.24967
-2804.77 -1.38381 0 7.90361
-1687.03 -1.60127 0 -34.3825
-1697.92 -1.6679 0 -34.7758
-2813.82 -1.39568 0 7.5789
-2246.23 -1.52292 0 -14.7609
-1692.47 -1.63451 0 -34.5778
-2260.73 -1.57018 0 -15.2845
-2253.48 -1.54649 0 -15.0209
-2804.77 -1.38381 0 7.90361
-2786.67 -1.36035 0 8.53951
-1676.15 -1.53519 0 -34.0002
-1687.03 -1.60127 0 -34.3825
-2795.72 -1.37204 0 8.2238
-2231.74 -1.47613 0 -14.2517
-1681.59 -1.56816 0 -34.19
-2246.23 -1.52292 0 -14.7609
-2238.99 -1.49947 0 -14.5045
-2786.67 -1.36035 0 8.53951
-2768.57 -1.33723 0 9.15748
-1665.26 -1.46966 0 -33.6285
-1676.15 -1.53519 0 -34.0002
-2777.62 -1.34875 0 8.85072
-2217.24 -1.42978 0 -13.7569
-1670.71 -1.50236 0 -33.813
-2231.74 -1.47613 0 -14.2517
-2224.49 -1.4529 0 -14.0025
-2768.57 -1.33723 0 9.15748
-2750.46 -1.31442 0 9.75764
-1654.38 -1.40465 0 -33.2676
-1665.26 -1.46966 0 -33.6285
-2759.51 -1.32578 0 9.45978
-2202.75 -1.38388 0 -13.2763
-1659.82 -1.43709 0 -33.4467
-2217.24 -1.42978 0 -13.7569
-2209.99 -1.40678 0 -13.5148
-2750.46 -1.31442 0 9.75764
-2732.36 -1.29192 0 10.3401
-1643.5 -1.34015 0 -32.9172
-1654.38 -1.40465 0 -33.2676
-2741.41 -1.30313 0 10.0511
-2188.25 -1.33839 0 -12.8099
-1648.94 -1.37234 0 -33.0911
-2202.75 -1.38388 0 -13.2763
-2195.5 -1.36108 0 -13.0413
-2732.36 -1.29192 0 10.3401
-2714.26 -1.26969 0 10.905
-1632.61 -1.27617 0 -32.5774
-1643.5 -1.34015 0 -32.9172
-2723.31 -1.28077 0 10.6247
-2173.75 -1.29331 0 -12.3575
-1638.05 -1.3081 0 -32.746
-2188.25 -1.33839 0 -12.8099
-2181 -1.3158 0 -12.5819
-2714.26 -1.26969 0 10.905
-2696.15 -1.24773 0 11.4524
-1621.73 -1.21267 0 -32.2481
-1632.61 -1.27617 0 -32.5774
-2705.21 -1.25868 0 11.1809
-2159.26 -1.24862 0 -11.9191
-1627.17 -1.24436 0 -32.4115
-2173.75 -1.29331 0 -12.3575
-2166.51 -1.27092 0 -12.1365
-2696.15 -1.24773 0 11.4524
-2678.05 -1.22602 0 11.9825
-1610.85 -1.14966 0 -31.9292
-1621.73 -1.21267 0 -32.2481
-2687.1 -1.23685 0 11.7196
-2144.76 -1.20431 0 -11.4946
-1616.29 -1.18111 0 -32.0874
-2159.26 -1.24862 0 -11.9191
-2152.01 -1.22642 0 -11.7051
-2678.05 -1.22602 0 11.9825
-2659.95 -1.20453 0 12.4953
-1599.96 -1.08712 0 -31.6207
-1610.85 -1.14966 0 -31.9292
-2669 -1.21524 0 12.2411
-2130.27 -1.16037 0 -11.0838
-1605.4 -1.11833 0 -31.7737
-2144.76 -1.20431 0 -11.4946
-2137.51 -1.1823 0 -11.2875
-2659.95 -1.20453 0 12.4953
-2641.84 -1.18325 0 12.9911
-1589.08 -1.02504 0 -31.3224
-1599.96 -1.08712 0 -31.6207
-2650.89 -1.19386 0 12.7453
-2115.77 -1.11677 0 -10.6868
-1594.52 -1.05602 0 -31.4703
-2130.27 -1.16037 0 -11.0838
-2123.02 -1.13852 0 -10.8836
-2641.84 -1.18325 0 12.9911
-2623.74 -1.16216 0 13.4698
-1578.19 -0.963416 0 -31.0343
-1589.08 -1.02504 0 -31.3224
-2632.79 -1.17268 0 13.2326
-2101.27 -1.0735 0 -10.3034
-1583.64 -0.994173 0 -31.1771
-2115.77 -1.11677 0 -10.6868
-2108.52 -1.09509 0 -10.4934
-2623.74 -1.16216 0 13.4698
-2605.63 -1.14125 0 13.9317
-1567.31 -0.902231 0 -30.7563
-1578.19 -0.963416 0 -31.0343
-2614.69 -1.15168 0 13.7028
-2086.78 -1.03056 0 -9.93344
-1572.75 -0.932769 0 -30.894
-2101.27 -1.0735 0 -10.3034
-2094.02 -1.05199 0 -10.1167
-2605.63 -1.14125 0 13.9317
-2587.53 -1.1205 0 14.3768
-1556.43 -0.841478 0 -30.4884
-1567.31 -0.902231 0 -30.7563
-2596.58 -1.13086 0 14.1563
-2072.28 -0.987926 0 -9.57692
-1561.87 -0.871801 0 -30.6211
-2086.78 -1.03056 0 -9.93344
-2079.53 -1.00921 0 -9.75351
-2587.53 -1.1205 0 14.3768
-2569.43 -1.09989 0 14.8052
-1545.54 -0.781147 0 -30.2305
-1556.43 -0.841478 0 -30.4884
-2578.48 -1.11018 0 14.5931
-2057.78 -0.945588 0 -9.23372
-1550.99 -0.81126 0 -30.3582
-2072.28 -0.987926 0 -9.57692
-2065.03 -0.966721 0 -9.40366
-2569.43 -1.09989 0 14.8052
-2551.32 -1.07941 0 15.2171
-1534.66 -0.721229 0 -29.9825
-1545.54 -0.781147 0 -30.2305
-2560.37 -1.08963 0 15.0132
-2043.29 -0.903534 0 -8.90374
-1540.1 -0.751137 0 -30.1053
-2057.78 -0.945588 0 -9.23372
-2050.54 -0.924526 0 -9.06708
-2551.32 -1.07941 0 15.2171
-2533.22 -1.05904 0 15.6126
-1523.78 -0.661715 0 -29.7444
-1534.66 -0.721229 0 -29.9825
-2542.27 -1.06921 0 15.4169
-2028.79 -0.861751 0 -8.58691
-1529.22 -0.691422 0 -29.8622
-2043.29 -0.903534 0 -8.90374
-2036.04 -0.882609 0 -8.74369
-2533.22 -1.05904 0 15.6126
-2515.11 -1.03877 0 15.9918
-1512.89 -0.602595 0 -29.516
-1523.78 -0.661715 0 -29.7444
-2524.17 -1.0489 0 15.8043
-2014.3 -0.820227 0 -8.28311
-1518.34 -0.632106 0 -29.629
-2028.79 -0.861751 0 -8.58691
-2021.54 -0.840957 0 -8.43338
-2515.11 -1.03877 0 15.9918
-2497.01 -1.01858 0 16.3548
-1502.01 -0.543862 0 -29.2973
-1512.89 -0.602595 0 -29.516
-2506.06 -1.02867 0 16.1753
-1999.8 -0.778951 0 -7.99226
-1507.45 -0.573181 0 -29.4055
-2014.3 -0.820227 0 -8.28311
-2007.05 -0.799559 0 -8.13607
-2497.01 -1.01858 0 16.3548
-2478.9 -0.998467 0 16.7018
-1491.13 -0.485506 0 -29.0883
-1502.01 -0.543862 0 -29.2973
-2487.96 -1.00852 0 16.5303
-1985.3 -0.737911 0 -7.71426
-1496.57 -0.514637 0 -29.1916
-1999.8 -0.778951 0 -7.99226
-1992.55 -0.758402 0 -7.85166
-2478.9 -0.998467 0 16.7018
-2460.8 -0.978404 0 17.0328
-1480.25 -0.42752 0 -28.8889
-1491.13 -0.485506 0 -29.0883
-2469.85 -0.988429 0 16.8693
-1970.81 -0.697097 0 -7.44903
-1485.69 -0.456467 0 -28.9874
-1985.3 -0.737911 0 -7.71426
-1978.06 -0.717477 0 -7.58006
-2460.8 -0.978404 0 17.0328
-2442.7 -0.958383 0 17.348
-1469.36 -0.369894 0 -28.699
-1480.25 -0.42752 0 -28.8889
-2451.75 -0.968389 0 17.1924
-1956.31 -0.656497 0 -7.19647
-1474.81 -0.398662 0 -28.7927
-1970.81 -0.697097 0 -7.44903
-1963.56 -0.676771 0 -7.32117
-2442.7 -0.958383 0 17.348
-2424.59 -0.938391 0 17.6474
-1458.48 -0.312622 0 -28.5185
-1469.36 -0.369894 0 -28.699
-2433.64 -0.948384 0 17.4996
-1941.82 -0.616101 0 -6.95648
-1463.92 -0.341215 0 -28.6075
-1956.31 -0.656497 0 -7.19647
-1949.07 -0.636274 0 -7.0749
-2424.59 -0.938391 0 17.6474
-2406.49 -0.918414 0 17.9313
-1447.6 -0.255696 0 -28.3473
-1458.48 -0.312622 0 -28.5185
-2415.54 -0.928401 0 17.7913
-1927.32 -0.575899 0 -6.72897
-1453.04 -0.284117 0 -28.4317
-1941.82 -0.616101 0 -6.95648
-1934.57 -0.595977 0 -6.84117
-2406.49 -0.918414 0 17.9313
-2388.39 -0.89844 0 18.1996
-1436.72 -0.199108 0 -28.1855
-1447.6 -0.255696 0 -28.3473
-2397.44 -0.908427 0 18.0674
-1912.83 -0.535881 0 -6.51385
-1442.16 -0.22736 0 -28.2652
-1927.32 -0.575899 0 -6.72897
-1920.08 -0.555868 0 -6.61987
-2388.39 -0.89844 0 18.1996
-2370.28 -0.878457 0 18.4526
-1425.84 -0.14285 0 -28.0328
-1436.72 -0.199108 0 -28.1855
-2379.33 -0.888451 0 18.328
-1898.33 -0.496037 0 -6.31103
-1431.28 -0.170938 0 -28.108
-1912.83 -0.535881 0 -6.51385
-1905.58 -0.515938 0 -6.41091
-2370.28 -0.878457 0 18.4526
-2352.18 -0.858454 0 18.6904
-1414.96 -0.0869169 0 -27.8894
-1425.84 -0.14285 0 -28.0328
-2361.23 -0.868459 0 18.5734
-1883.84 -0.456357 0 -6.12041
-1420.4 -0.114844 0 -27.96
-1898.33 -0.496037 0 -6.31103
-1891.09 -0.476177 0 -6.2142
-2352.18 -0.858454 0 18.6904
-2334.07 -0.838418 0 18.913
-1404.08 -0.0313001 0 -27.755
-1414.96 -0.0869169 0 -27.8894
-2343.13 -0.84844 0 18.8036
-1869.34 -0.416832 0 -5.9419
-1409.52 -0.0590693 0 -27.821
-1883.84 -0.456357 0 -6.12041
-1876.59 -0.436576 0 -6.02965
-2334.07 -0.838418 0 18.913
-2315.97 -0.818338 0 19.1206
-1393.2 0.0240066 0 -27.6296
-1404.08 -0.0313001 0 -27.755
-2325.02 -0.828384 0 19.0187
-1854.85 -0.377454 0 -5.77541
-1398.64 -0.00360839 0 -27.6912
-1869.34 -0.416832 0 -5.9419
-1862.1 -0.397126 0 -5.85716
-2315.97 -0.818338 0 19.1206
-2297.87 -0.798204 0 19.3133
-1382.31 0.0790096 0 -27.5132
-1393.2 0.0240066 0 -27.6296
-2306.92 -0.808278 0 19.2188
-1840.36 -0.338214 0 -5.62084
-1387.76 0.0515456 0 -27.5703
-1854.85 -0.377454 0 -5.77541
-1847.6 -0.357817 0 -5.69664
-2297.87 -0.798204 0 19.3133
-2279.77 -0.778005 0 19.4912
-1371.43 0.133715 0 -27.4056
-1382.31 0.0790096 0 -27.5132
-2288.82 -0.788113 0 19.4041
-1825.86 -0.299103 0 -5.4781
-1376.87 0.106399 0 -27.4583
-1840.36 -0.338214 0 -5.62084
-1833.11 -0.318643 0 -5.548
-2279.77 -0.778005 0 19.4912
-2261.66 -0.757731 0 19.6544
-1360.55 0.18813 0 -27.3068
-1371.43 0.133715 0 -27.4056
-2270.71 -0.767878 0 19.5746
-1811.37 -0.260113 0 -5.3471
-1365.99 0.160959 0 -27.3551
-1825.86 -0.299103 0 -5.4781
-1818.62 -0.279593 0 -5.41114
-2261.66 -0.757731 0 19.6544
-2243.56 -0.737371 0 19.8031
-1349.68 0.242259 0 -27.2168
-1360.55 0.18813 0 -27.3068
-2252.61 -0.747562 0 19.7306
-1796.88 -0.221236 0 -5.22775
-1355.11 0.21523 0 -27.2607
-1811.37 -0.260113 0 -5.3471
-1804.12 -0.24066 0 -5.28598
-2243.56 -0.737371 0 19.8031
-2225.46 -0.716917 0 19.9374
-1338.8 0.296109 0 -27.1355
-1349.68 0.242259 0 -27.2168
-2234.51 -0.727157 0 19.8721
-1782.38 -0.182464 0 -5.11994
-1344.24 0.269218 0 -27.1751
-1796.88 -0.221236 0 -5.22775
-1789.63 -0.201837 0 -5.17241
-2225.46 -0.716917 0 19.9374
-2207.36 -0.696359 0 20.0573
-1327.92 0.349684 0 -27.0627
-1338.8 0.296109 0 -27.1355
-2216.41 -0.706652 0 19.9991
-1767.89 -0.143791 0 -5.0236
-1333.36 0.32293 0 -27.098
-1782.38 -0.182464 0 -5.11994
-1775.14 -0.163116 0 -5.07034
-2207.36 -0.696359 0 20.0573
-2189.25 -0.675688 0 20.1631
-1317.04 0.402992 0 -26.9985
-1327.92 0.349684 0 -27.0627
-2198.31 -0.686038 0 20.112
-1753.4 -0.105208 0 -4.93861
-1322.48 0.376371 0 -27.0295
-1767.89 -0.143791 0 -5.0236
-1760.64 -0.124488 0 -4.97969
-2189.25 -0.675688 0 20.1631
-2171.15 -0.654895 0 20.2547
-1306.16 0.456036 0 -26.9427
-1317.04 0.402992 0 -26.9985
-2180.2 -0.665307 0 20.2106
-1738.91 -0.0667092 0 -4.8649
-1311.6 0.429546 0 -26.9695
-1753.4 -0.105208 0 -4.93861
-1746.15 -0.0859485 0 -4.90035
-2171.15 -0.654895 0 20.2547
-2153.05 -0.633972 0 20.3324
-1295.28 0.508821 0 -26.8953
-1306.16 0.456036 0 -26.9427
-2162.1 -0.64445 0 20.2953
-1724.41 -0.0282877 0 -4.80237
-1300.72 0.48246 0 -26.9179
-1738.91 -0.0667092 0 -4.8649
-1731.66 -0.0474892 0 -4.83224
-2153.05 -0.633972 0 20.3324
-2134.95 -0.61291 0 20.3962
-1284.4 0.561353 0 -26.8562
-1295.28 0.508821 0 -26.8953
-2144 -0.623459 0 20.366
-1709.92 0.0100632 0 -4.75092
-1289.84 0.535119 0 -26.8747
-1724.41 -0.0282877 0 -4.80237
-1717.17 -0.00910378 0 -4.77526
-2134.95 -0.61291 0 20.3962
-2116.85 -0.591703 0 20.4463
-1273.53 0.613637 0 -26.8254
-1284.4 0.561353 0 -26.8562
-2125.9 -0.602326 0 20.4229
-1695.43 0.0483495 0 -4.71047
-1278.96 0.587526 0 -26.8398
-1709.92 0.0100632 0 -4.75092
-1702.68 0.029214 0 -4.72932
-2116.85 -0.591703 0 20.4463
-2098.75 -0.570342 0 20.4827
-1262.65 0.665676 0 -26.8027
-1273.53 0.613637 0 -26.8254
-2107.8 -0.581042 0 20.4662
-1680.94 0.0865773 0 -4.68091
-1268.09 0.639686 0 -26.813
-1695.43 0.0483495 0 -4.71047
-1688.19 0.0674704 0 -4.69433
-2098.75 -0.570342 0 20.4827
-2080.65 -0.548821 0 20.5057
-1251.77 0.717475 0 -26.7882
-1262.65 0.665676 0 -26.8027
-2089.7 -0.559602 0 20.4959
-1666.45 0.124752 0 -4.66216
-1257.21 0.691605 0 -26.7944
-1680.94 0.0865773 0 -4.68091
-1673.7 0.105671 0 -4.67019
-2080.65 -0.548821 0 20.5057
-2062.55 -0.527132 0 20.5153
-1240.89 0.769038 0 -26.7816
-1251.77 0.717475 0 -26.7882
-2071.6 -0.537998 0 20.5122
-1651.96 0.16288 0 -4.65412
-1246.33 0.743285 0 -26.7839
-1666.45 0.124752 0 -4.66216
-1659.21 0.143822 0 -4.65681
-2062.55 -0.527132 0 20.5153
-2044.45 -0.505269 0 20.5116
-1230.02 0.820369 0 -26.7831
-1240.89 0.769038 0 -26.7816
-2053.5 -0.516223 0 20.5151
-1637.47 0.200966 0 -4.6567
-1235.46 0.794732 0 -26.7814
-1651.96 0.16288 0 -4.65412
-1644.72 0.181928 0 -4.65409
-2044.45 -0.505269 0 20.5116
-2026.35 -0.483225 0 20.4947
-1219.14 0.871472 0 -26.7925
-1230.02 0.820369 0 -26.7831
-2035.4 -0.49427 0 20.5048
-1622.98 0.239015 0 -4.66981
-1224.58 0.845949 0 -26.7868
-1637.47 0.200966 0 -4.6567
-1630.23 0.219995 0 -4.66195
-2026.35 -0.483225 0 20.4947
-2008.25 -0.460995 0 20.4648
-1208.27 0.922351 0 -26.8096
-1219.14 0.871472 0 -26.7925
-2017.3 -0.472134 0 20.4814
-1608.49 0.277032 0 -4.69335
-1213.7 0.896939 0 -26.8001
-1622.98 0.239015 0 -4.66981
-1615.74 0.258027 0 -4.68028
-2008.25 -0.460995 0 20.4648
-1990.15 -0.438572 0 20.422
-1197.39 0.973008 0 -26.8346
-1208.27 0.922351 0 -26.8096
-1999.2 -0.449808 0 20.4451
-1594 0.315022 0 -4.72723
-1202.83 0.947707 0 -26.8211
-1608.49 0.277032 0 -4.69335
-1601.25 0.29603 0 -4.709
-1990.15 -0.438572 0 20.422
-1972.05 -0.415951 0 20.3664
-1186.52 1.02345 0 -26.8672
-1197.39 0.973008 0 -26.8346
-1981.1 -0.427287 0 20.3958
-1579.51 0.352989 0 -4.77136
-1191.95 0.998255 0 -26.8499
-1594 0.315022 0 -4.72723
-1586.76 0.334008 0 -4.74802
-1972.05 -0.415951 0 20.3664
-1953.96 -0.393128 0 20.2981
-1175.64 1.07367 0 -26.9074
-1186.52 1.02345 0 -26.8672
-1963.01 -0.404565 0 20.3338
-1565.03 0.390936 0 -4.82564
-1181.08 1.04859 0 -26.8864
-1579.51 0.352989 0 -4.77136
-1572.27 0.371965 0 -4.79724
-1953.96 -0.393128 0 20.2981
-1935.86 -0.370096 0 20.2172
-1164.77 1.12369 0 -26.9552
-1175.64 1.07367 0 -26.9074
-1944.91 -0.381638 0 20.2592
-1550.54 0.428869 0 -4.88998
-1170.2 1.09871 0 -26.9304
-1565.03 0.390936 0 -4.82564
-1557.78 0.409905 0 -4.85656
-1935.86 -0.370096 0 20.2172
-1917.76 -0.346851 0 20.1239
-1153.89 1.17349 0 -27.0105
-1164.77 1.12369 0 -26.9552
-1926.81 -0.3585 0 20.1721
-1536.05 0.466791 0 -4.96429
-1159.33 1.14862 0 -26.9819
-1550.54 0.428869 0 -4.88998
-1543.29 0.447832 0 -4.9259
-1917.76 -0.346851 0 20.1239
-1899.66 -0.323389 0 20.0182
-1143.02 1.22309 0 -27.0731
-1153.89 1.17349 0 -27.0105
-1908.71 -0.335148 0 20.0726
-1521.56 0.504706 0 -5.04848
-1148.46 1.19832 0 -27.0409
-1536.05 0.466791 0 -4.96429
-1528.81 0.485749 0 -5.00516
-1899.66 -0.323389 0 20.0182
-1881.57 -0.299706 0 19.9003
-1132.15 1.27249 0 -27.1432
-1143.02 1.22309 0 -27.0731
-1890.62 -0.311576 0 19.9608
-1507.08 0.542616 0 -5.14244
-1137.58 1.24781 0 -27.1072
-1521.56 0.504706 0 -5.04848
-1514.32 0.523661 0 -5.09424
-1881.57 -0.299706 0 19.9003
-1863.47 -0.275798 0 19.7704
-1121.27 1.32168 0 -27.2204
-1132.15 1.27249 0 -27.1432
-1872.52 -0.28778 0 19.8369
-1492.59 0.580525 0 -5.2461
-1126.71 1.29711 0 -27.1809
-1507.08 0.542616 0 -5.14244
-1499.83 0.56157 0 -5.19307
-1863.47 -0.275798 0 19.7704
-1845.38 -0.25166 0 19.6284
-1110.4 1.37067 0 -27.3049
-1121.27 1.32168 0 -27.2204
-1854.42 -0.263758 0 19.7008
-1478.1 0.618435 0 -5.35935
-1115.84 1.3462 0 -27.2618
-1492.59 0.580525 0 -5.2461
-1485.35 0.59948 0 -5.30153
-1845.38 -0.25166 0 19.6284
-1827.28 -0.22729 0 19.4745
-1099.53 1.41947 0 -27.3965
-1110.4 1.37067 0 -27.3049
-1836.33 -0.239505 0 19.5529
-1463.62 0.656351 0 -5.4821
-1104.96 1.3951 0 -27.3498
-1478.1 0.618435 0 -5.35935
-1470.86 0.637392 0 -5.41954
-1827.28 -0.227291 0 19.4745
-1809.18 -0.202685 0 19.3089
-1088.66 1.46807 0 -27.4952
-1099.53 1.41947 0 -27.3965
-1818.23 -0.215018 0 19.3932
-1449.13 0.694273 0 -5.61426
-1094.09 1.4438 0 -27.445
-1463.62 0.656351 0 -5.4821
-1456.38 0.675311 0 -5.54701
-1809.18 -0.202685 0 19.3089
-1791.09 -0.177842 0 19.1316
-1077.78 1.51648 0 -27.6009
-1088.66 1.46807 0 -27.4952
-1800.14 -0.190294 0 19.2217
-1434.65 0.732204 0 -5.75573
-1083.22 1.4923 0 -27.5472
-1449.13 0.694273 0 -5.61426
-1441.89 0.713237 0 -5.68384
-1791.09 -0.177842 0 19.1316
-1773 -0.152758 0 18.9428
-1066.91 1.5647 0 -27.7134
-1077.78 1.51648 0 -27.6009
-1782.04 -0.16533 0 19.0387
-1420.16 0.770147 0 -5.90643
-1072.35 1.54061 0 -27.6563
-1434.65 0.732204 0 -5.75573
-1427.41 0.751174 0 -5.82993
-1773 -0.152758 0 18.9428
-1754.9 -0.12743 0 18.7426
-1056.04 1.61272 0 -27.8329
-1066.91 1.5647 0 -27.7134
-1763.95 -0.140125 0 18.8442
-1405.68 0.808104 0 -6.06626
-1061.48 1.58873 0 -27.7723
-1420.16 0.770147 0 -5.90643
-1412.92 0.789124 0 -5.98521
-1754.9 -0.12743 0 18.7426
-1736.81 -0.101857 0 18.5312
-1045.17 1.66056 0 -27.9591
-1056.04 1.61272 0 -27.8329
-1745.85 -0.114675 0 18.6383
-1391.2 0.846075 0 -6.23512
-1050.61 1.63667 0 -27.8951
-1405.68 0.808104 0 -6.06626
-1398.44 0.827087 0 -6.14957
-1736.81 -0.101857 0 18.5312
-1718.71 -0.0760371 0 18.3085
-1034.3 1.70821 0 -28.092
-1045.17 1.66056 0 -27.9591
-1727.76 -0.0889783 0 18.4212
-1376.71 0.884062 0 -6.41293
-1039.74 1.68441 0 -28.0247
-1391.2 0.846075 0 -6.23512
-1383.95 0.865066 0 -6.32291
-1718.71 -0.0760371 0 18.3085
-1700.62 -0.0499679 0 18.0748
-1023.43 1.75567 0 -28.2316
-1034.3 1.70821 0 -28.092
-1709.67 -0.0630337 0 18.193
-1362.23 0.922068 0 -6.59958
-1028.87 1.73196 0 -28.1609
-1376.71 0.884062 0 -6.41293
-1369.47 0.903063 0 -6.50516
-1700.62 -0.0499679 0 18.0748
-1682.53 -0.0236483 0 17.8301
-1012.56 1.80295 0 -28.3777
-1023.43 1.75567 0 -28.2316
-1691.57 -0.0368395 0 17.9538
-1347.75 0.960092 0 -6.795
-1018 1.77933 0 -28.3038
-1362.23 0.922068 0 -6.59958
-1354.99 0.941078 0 -6.6962
-1682.53 -0.0236483 0 17.8301
-1664.44 0.00292288 0 17.5747
-1001.69 1.85004 0 -28.5303
-1012.56 1.80295 0 -28.3777
-1673.48 -0.0103942 0 17.7037
-1333.26 0.998137 0 -6.99908
-1007.13 1.82651 0 -28.4532
-1347.75 0.960092 0 -6.795
-1340.51 0.979112 0 -6.89596
-1664.44 0.00292288 0 17.5747
-1646.34 0.0297466 0 17.3085
-990.825 1.89694 0 -28.6894
-1001.69 1.85004 0 -28.5303
-1655.39 0.0163031 0 17.4429
-1318.78 1.0362 0 -7.21172
-996.26 1.87351 0 -28.6091
-1333.26 0.998137 0 -6.99908
-1326.02 1.01717 0 -7.10433
-1646.34 0.0297466 0 17.3085
-1628.25 0.0568235 0 17.0317
-979.957 1.94366 0 -28.8548
-990.825 1.89694 0 -28.6894
-1637.3 0.0432534 0 17.1714
-1304.3 1.07429 0 -7.43285
-985.391 1.92032 0 -28.7713
-1318.78 1.0362 0 -7.21172
-1311.54 1.05524 0 -7.32123
-1628.25 0.0568235 0 17.0317
-1610.16 0.0841542 0 16.7444
-969.089 1.9902 0 -29.0265
-979.957 1.94366 0 -28.8548
-1619.21 0.0704571 0 16.8893
-1289.82 1.1124 0 -7.66236
-974.523 1.96695 0 -28.9399
-1304.3 1.07429 0 -7.43285
-1297.06 1.09334 0 -7.54657
-1610.16 0.0841542 0 16.7444
-1592.07 0.111739 0 16.4468
-958.222 2.03655 0 -29.2045
-969.089 1.9902 0 -29.0265
-1601.11 0.0979147 0 16.5969
-1275.34 1.15053 0 -7.90017
-963.655 2.01339 0 -29.1147
-1289.82 1.1124 0 -7.66236
-1282.58 1.13146 0 -7.78023
-1592.07 0.111739 0 16.4468
-1573.98 0.139578 0 16.1389
-947.354 2.08271 0 -29.3886
-958.222 2.03655 0 -29.2045
-1583.02 0.125626 0 16.2941
-1260.86 1.18868 0 -8.14617
-952.788 2.05965 0 -29.2958
-1275.34 1.15053 0 -7.90017
-1268.1 1.1696 0 -8.02215
-1573.98 0.139578 0 16.1389
-1555.89 0.16767 0 15.8209
-936.488 2.1287 0 -29.5787
-947.354 2.08271 0 -29.3886
-1564.93 0.153592 0 15.9812
-1246.38 1.22685 0 -8.40028
-941.921 2.10573 0 -29.4829
-1260.86 1.18868 0 -8.14617
-1253.62 1.20776 0 -8.27221
-1555.89 0.16767 0 15.8209
-1537.8 0.196016 0 15.4929
-925.621 2.1745 0 -29.7749
-936.488 2.1287 0 -29.5787
-1546.84 0.181812 0 15.6582
-1231.9 1.26504 0 -8.6624
-931.054 2.15162 0 -29.6761
-1246.38 1.22685 0 -8.40028
-1239.14 1.24594 0 -8.53034
-1537.8 0.196016 0 15.4929
-1519.71 0.224615 0 15.155
-914.755 2.22011 0 -29.9771
-925.621 2.1745 0 -29.7749
-1528.75 0.210284 0 15.3252
-1217.42 1.30326 0 -8.93244
-920.188 2.19733 0 -29.8753
-1231.9 1.26504 0 -8.6624
-1224.66 1.28415 0 -8.79643
-1519.71 0.224615 0 15.155
-1501.62 0.253466 0 14.8074
-903.889 2.26554 0 -30.1851
-914.755 2.22011 0 -29.9771
-1510.66 0.239009 0 14.9824
-1202.94 1.3415 0 -9.2103
-909.322 2.24285 0 -30.0803
-1217.42 1.30326 0 -8.93244
-1210.18 1.32238 0 -9.0704
-1501.62 0.253466 0 14.8074
-1483.53 0.282568 0 14.45
-893.024 2.31078 0 -30.3989
-903.889 2.26554 0 -30.1851
-1492.58 0.267986 0 14.6299
-1188.46 1.37975 0 -9.4959
-898.457 2.28818 0 -30.2913
-1202.94 1.3415 0 -9.2103
-1195.7 1.36062 0 -9.35214
-1483.53 0.282568 0 14.45
-1465.44 0.31192 0 14.0831
-882.159 2.35584 0 -30.6184
-893.024 2.31078 0 -30.3989
-1474.49 0.297213 0 14.2678
-1173.98 1.41803 0 -9.78914
-887.592 2.33333 0 -30.508
-1188.46 1.37975 0 -9.4959
-1181.22 1.39889 0 -9.64157
-1465.44 0.31192 0 14.0831
-1447.35 0.341521 0 13.7068
-871.295 2.4007 0 -30.8437
-882.159 2.35584 0 -30.6184
-1456.4 0.32669 0 13.8961
-1159.51 1.45632 0 -10.0899
-876.727 2.37829 0 -30.7303
-1173.98 1.41803 0 -9.78914
-1166.75 1.43717 0 -9.9386
-1447.35 0.341521 0 13.7068
-1429.27 0.371368 0 13.3212
-860.43 2.44538 0 -31.0745
-871.295 2.4007 0 -30.8437
-1438.31 0.356414 0 13.5152
-1145.03 1.49462 0 -10.3982
-865.862 2.42307 0 -30.9584
-1159.51 1.45632 0 -10.0899
-1152.27 1.47547 0 -10.2431
-1429.27 0.371368 0 13.3212
-1411.18 0.40146 0 12.9264
-849.566 2.48987 0 -31.3108
-860.43 2.44538 0 -31.0745
-1420.22 0.386384 0 13.1249
-1130.55 1.53295 0 -10.7138
-854.998 2.46765 0 -31.1919
-1145.03 1.49462 0 -10.3982
-1137.79 1.51378 0 -10.5551
-1411.18 0.40146 0 12.9264
-1393.09 0.431795 0 12.5225
-838.703 2.53417 0 -31.5526
-849.566 2.48987 0 -31.3108
-1402.14 0.416597 0 12.7255
-1116.08 1.57128 0 -11.0366
-844.135 2.51205 0 -31.431
-1130.55 1.53295 0 -10.7138
-1123.31 1.55211 0 -10.8743
-1393.09 0.431795 0 12.5225
-1375.01 0.462371 0 12.1096
-827.84 2.57828 0 -31.7998
-838.703 2.53417 0 -31.5526
-1384.05 0.447053 0 12.3171
-1101.6 1.60963 0 -11.3667
-833.271 2.55625 0 -31.6755
-1116.08 1.57128 0 -11.0366
-1108.84 1.59045 0 -11.2008
-1375.01 0.462371 0 12.1096
-1356.92 0.493185 0 11.6879
-816.977 2.62219 0 -32.0522
-827.84 2.57828 0 -31.7998
-1365.96 0.477748 0 11.8998
-1087.12 1.64798 0 -11.7038
-822.408 2.60026 0 -31.9253
-1101.6 1.60963 0 -11.3667
-1094.36 1.6288 0 -11.5344
-1356.92 0.493185 0 11.6879
-1338.83 0.524234 0 11.2574
-806.114 2.66591 0 -32.31
-816.977 2.62219 0 -32.0522
-1347.88 0.50868 0 11.4737
-1072.65 1.68634 0 -12.0479
-811.545 2.64408 0 -32.1805
-1087.12 1.64798 0 -11.7038
-1079.89 1.66716 0 -11.875
-1338.83 0.524234 0 11.2574
-1320.75 0.555517 0 10.8184
-795.252 2.70943 0 -32.5729
-806.114 2.66591 0 -32.31
-1329.79 0.539847 0 11.039
-1058.17 1.72471 0 -12.399
-800.683 2.6877 0 -32.4408
-1072.65 1.68634 0 -12.0479
-1065.41 1.70553 0 -12.2226
-1320.75 0.555517 0 10.8184
-1302.66 0.587029 0 10.3708
-784.39 2.75275 0 -32.8409
-795.252 2.70943 0 -32.5729
-1311.71 0.571244 0 10.5956
-1043.7 1.76308 0 -12.7568
-789.821 2.73112 0 -32.7063
-1058.17 1.72471 0 -12.399
-1050.94 1.7439 0 -12.577
-1302.66 0.587029 0 10.3708
-1284.58 0.618768 0 9.91484
-773.529 2.79588 0 -33.114
-784.39 2.75275 0 -32.8409
-1293.62 0.60287 0 10.1439
-1029.22 1.80145 0 -13.1213
-778.96 2.77434 0 -32.9768
-1043.7 1.76308 0 -12.7568
-1036.46 1.78227 0 -12.9382
-1284.58 0.618768 0 9.91484
-1266.49 0.650731 0 9.45062
-762.668 2.8388 0 -33.392
-773.529 2.79588 0 -33.114
-1275.54 0.634722 0 9.68376
-1014.75 1.83982 0 -13.4925
-768.098 2.81736 0 -33.2524
-1029.22 1.80145 0 -13.1213
-1021.99 1.82063 0 -13.3061
-1266.49 0.650731 0 9.45062
-1248.41 0.682913 0 8.97826
-751.807 2.88151 0 -33.6749
-762.668 2.8388 0 -33.392
-1257.45 0.666795 0 9.21545
-1000.28 1.87818 0 -13.8701
-757.237 2.86018 0 -33.5328
-1014.75 1.83982 0 -13.4925
-1007.51 1.859 0 -13.6805
-1248.41 0.682913 0 8.97826
-1230.32 0.715312 0 8.49786
-740.946 2.92402 0 -33.9627
-751.807 2.88151 0 -33.6749
-1239.37 0.699085 0 8.73905
-985.802 1.91653 0 -14.2542
-746.377 2.90279 0 -33.8182
-1000.28 1.87818 0 -13.8701
-993.039 1.89736 0 -14.0614
-1230.32 0.715312 0 8.49786
-1212.24 0.747922 0 8.00954
-730.086 2.96632 0 -34.2552
-740.946 2.92402 0 -33.9627
-1221.28 0.731591 0 8.25468
-971.329 1.95487 0 -14.6447
-735.516 2.94519 0 -34.1083
-985.802 1.91653 0 -14.2542
-978.566 1.9357 0 -14.4487
-1212.24 0.747922 0 8.00954
-1194.16 0.780742 0 7.51342
-719.227 3.0084 0 -34.5524
-730.086 2.96632 0 -34.2552
-1203.2 0.764306 0 7.76245
-956.857 1.9932 0 -15.0414
-724.656 2.98739 0 -34.4032
-971.329 1.95487 0 -14.6447
-964.093 1.97404 0 -14.8422
-1194.16 0.780742 0 7.51342
-1176.07 0.813765 0 7.00961
-708.367 3.05028 0 -34.8542
-719.227 3.0084 0 -34.5524
-1185.12 0.797228 0 7.26247
-942.384 2.03151 0 -15.4442
-713.797 3.02937 0 -34.7027
-956.857 1.9932 0 -15.0414
-949.62 2.01236 0 -15.242
-1176.07 0.813765 0 7.00961
-1157.99 0.846988 0 6.49823
-697.508 3.09193 0 -35.1606
-708.367 3.05028 0 -34.8542
-1167.03 0.830352 0 6.75486
-927.912 2.0698 0 -15.8531
-702.938 3.07113 0 -35.0068
-942.384 2.03151 0 -15.4442
-935.148 2.05066 0 -15.6479
-1157.99 0.846988 0 6.49823
-1139.91 0.880406 0 5.97941
-686.649 3.13337 0 -35.4714
-697.508 3.09193 0 -35.1606
-1148.95 0.863673 0 6.23974
-913.44 2.10806 0 -16.268
-692.079 3.11268 0 -35.3154
-927.912 2.0698 0 -15.8531
-920.676 2.08893 0 -16.0598
-1139.91 0.880406 0 5.97941
-1121.83 0.914015 0 5.45324
-675.791 3.17458 0 -35.7867
-686.649 3.13337 0 -35.4714
-1130.87 0.897187 0 5.71723
-898.969 2.14629 0 -16.6887
-681.22 3.154 0 -35.6285
-913.44 2.10806 0 -16.268
-906.205 2.12718 0 -16.4776
-1121.83 0.914015 0 5.45324
-1103.75 0.947809 0 4.91985
-664.932 3.21557 0 -36.1063
-675.791 3.17458 0 -35.7867
-1112.79 0.930889 0 5.18744
-884.498 2.18449 0 -17.1152
-670.362 3.19511 0 -35.9459
-898.969 2.14629 0 -16.6887
-891.733 2.1654 0 -16.9013
-1103.75 0.947809 0 4.91985
-1085.66 0.981785 0 4.37936
-654.075 3.25633 0 -36.4301
-664.932 3.21557 0 -36.1063
-1094.7 0.964775 0 4.65048
-870.027 2.22265 0 -17.5474
-659.504 3.23598 0 -36.2677
-884.498 2.18449 0 -17.1152
-877.262 2.20358 0 -17.3306
-1085.66 0.981785 0 4.37936
-1067.58 1.01594 0 3.83187
-643.217 3.29686 0 -36.7582
-654.075 3.25633 0 -36.4301
-1076.62 0.998838 0 4.10648
-855.557 2.26078 0 -17.9853
-648.646 3.27663 0 -36.5937
-870.027 2.22265 0 -17.5474
-862.792 2.24172 0 -17.7657
-1067.58 1.01594 0 3.83187
-1049.5 1.05026 0 3.27752
-632.36 3.33716 0 -37.0904
-643.217 3.29686 0 -36.7582
-1058.54 1.03307 0 3.55555
-841.086 2.29885 0 -18.4286
-637.788 3.31704 0 -36.9238
-855.557 2.26078 0 -17.9853
-848.321 2.27982 0 -18.2062
-1049.5 1.05026 0 3.27752
-1031.42 1.08474 0 2.71641
-621.503 3.37722 0 -37.4267
-632.36 3.33716 0 -37.0904
-1040.46 1.06748 0 2.9978
-826.616 2.33688 0 -18.8773
-626.931 3.35722 0 -37.258
-841.086 2.29885 0 -18.4286
-833.851 2.31787 0 -18.6523
-1031.42 1.08474 0 2.71641
-1013.34 1.11939 0 2.14866
-610.646 3.41703 0 -37.7669
-621.503 3.37722 0 -37.4267
-1022.38 1.10205 0 2.43336
-812.147 2.37485 0 -19.3313
-616.074 3.39715 0 -37.5963
-826.616 2.33688 0 -18.8773
-819.382 2.35588 0 -19.1036
-1013.34 1.11939 0 2.14866
-995.259 1.15419 0 1.57438
-599.79 3.4566 0 -38.1111
-610.646 3.41703 0 -37.7669
-1004.3 1.13677 0 1.86233
-797.677 2.41277 0 -19.7906
-605.218 3.43685 0 -37.9385
-812.147 2.37485 0 -19.3313
-804.912 2.39382 0 -19.5603
-995.259 1.15419 0 1.57438
-977.179 1.18913 0 0.993696
-588.934 3.49593 0 -38.4592
-599.79 3.4566 0 -38.1111
-986.219 1.17164 0 1.28483
-783.208 2.45062 0 -20.255
-594.362 3.4763 0 -38.2847
-797.677 2.41277 0 -19.7906
-790.443 2.4317 0 -20.0221
-977.179 1.18913 0 0.993696
-959.099 1.22422 0 0.40672
-578.078 3.535 0 -38.811
-588.934 3.49593 0 -38.4592
-968.139 1.20666 0 0.700987
-768.74 2.4884 0 -20.7244
-583.506 3.5155 0 -38.6346
-783.208 2.45062 0 -20.255
-775.974 2.46952 0 -20.4891
-959.099 1.22422 0 0.40672
-941.019 1.25944 0 -0.186433
-567.222 3.57382 0 -39.1665
-578.078 3.535 0 -38.811
-950.059 1.24182 0 0.110908
-754.271 2.52612 0 -21.1988
-572.65 3.55444 0 -38.9883
-768.74 2.4884 0 -20.7244
-761.505 2.50727 0 -20.961
-941.019 1.25944 0 -0.186433
-922.939 1.2948 0 -0.785645
-556.367 3.61238 0 -39.5257
-567.222 3.57382 0 -39.1665
-931.979 1.2771 0 -0.485289
-739.803 2.56375 0 -21.678
-561.795 3.59313 0 -39.3456
-754.271 2.52612 0 -21.1988
-747.037 2.54494 0 -21.4378
-922.939 1.2948 0 -0.785645
-904.86 1.33027 0 -1.3908
-545.512 3.65067 0 -39.8884
-556.367 3.61238 0 -39.5257
-913.9 1.31252 0 -1.08749
-725.335 2.6013 0 -22.162
-550.939 3.63156 0 -39.7066
-739.803 2.56375 0 -21.678
-732.569 2.58253 0 -21.9194
-904.86 1.33027 0 -1.3908
-886.781 1.36586 0 -2.00178
-534.657 3.6887 0 -40.2547
-545.512 3.65067 0 -39.8884
-895.82 1.34805 0 -1.69557
-710.867 2.63876 0 -22.6506
-540.084 3.66972 0 -40.0711
-725.335 2.6013 0 -22.162
-718.101 2.62004 0 -22.4057
-886.781 1.36586 0 -2.00178
-868.702 1.40156 0 -2.61848
-523.803 3.72646 0 -40.6244
-534.657 3.6887 0 -40.2547
-877.741 1.3837 0 -2.30943
-696.399 2.67613 0 -23.1439
-529.23 3.70761 0 -40.4391
-710.867 2.63876 0 -22.6506
-703.633 2.65745 0 -22.8967
-868.702 1.40156 0 -2.61848
-850.623 1.43737 0 -3.24077
-512.948 3.76394 0 -40.9974
-523.803 3.72646 0 -40.6244
-859.662 1.41945 0 -2.92893
-681.932 2.71339 0 -23.6416
-518.376 3.74523 0 -40.8105
-696.399 2.67613 0 -23.1439
-689.166 2.69477 0 -23.3922
-850.623 1.43737 0 -3.24077
-832.544 1.47327 0 -3.86854
-502.094 3.80114 0 -41.3738
-512.948 3.76394 0 -40.9974
-841.584 1.45531 0 -3.55398
-667.465 2.75056 0 -24.1437
-507.521 3.78257 0 -41.1852
-681.932 2.71339 0 -23.6416
-674.698 2.73199 0 -23.8921
-832.544 1.47327 0 -3.86854
-814.466 1.50926 0 -4.50167
-491.241 3.83806 0 -41.7534
-502.094 3.80114 0 -41.3738
-823.505 1.49125 0 -4.18444
-652.998 2.78761 0 -24.65
-496.668 3.81964 0 -41.5632
-667.465 2.75056 0 -24.1437
-660.231 2.7691 0 -24.3963
-814.466 1.50926 0 -4.50167
-796.388 1.54533 0 -5.14006
-480.387 3.87469 0 -42.1361
-491.241 3.83806 0 -41.7534
-805.427 1.52728 0 -4.82022
-638.531 2.82455 0 -25.1606
-485.814 3.85641 0 -41.9444
-652.998 2.78761 0 -24.65
-645.765 2.80609 0 -24.9048
-796.388 1.54533 0 -5.14006
-778.309 1.58148 0 -5.78357
-469.534 3.91103 0 -42.5219
-480.387 3.87469 0 -42.1361
-787.349 1.56339 0 -5.46118
-624.065 2.86136 0 -25.6753
-474.96 3.8929 0 -42.3287
-638.531 2.82455 0 -25.1606
-631.298 2.84297 0 -25.4175
-778.309 1.58148 0 -5.78357
-760.231 1.61769 0 -6.4321
-458.681 3.94708 0 -42.9108
-469.534 3.91103 0 -42.5219
-769.27 1.59957 0 -6.10721
-609.599 2.89805 0 -26.1941
-464.107 3.92909 0 -42.716
-624.065 2.86136 0 -25.6753
-616.832 2.87972 0 -25.9342
-760.231 1.61769 0 -6.4321
-742.153 1.65396 0 -7.08552
-447.828 3.98282 0 -43.3026
-458.681 3.94708 0 -42.9108
-751.192 1.63582 0 -6.7582
-595.132 2.93461 0 -26.7167
-453.254 3.96499 0 -43.1063
-609.599 2.89805 0 -26.1941
-602.365 2.91635 0 -26.4549
-742.153 1.65396 0 -7.08552
-724.076 1.69029 0 -7.74373
-436.975 4.01826 0 -43.6973
-447.828 3.98282 0 -43.3026
-733.115 1.67212 0 -7.41404
-580.667 2.97102 0 -27.2432
-442.402 4.00058 0 -43.4996
-595.132 2.93461 0 -26.7167
-587.9 2.95283 0 -26.9795
-724.076 1.69029 0 -7.74373
-705.998 1.72666 0 -8.40661
-426.123 4.05339 0 -44.0947
-436.975 4.01826 0 -43.6973
-715.037 1.70847 0 -8.07459
-566.201 3.00729 0 -27.7734
-431.549 4.03586 0 -43.8957
-580.667 2.97102 0 -27.2432
-573.434 2.98918 0 -27.5078
-705.998 1.72666 0 -8.40661
-687.92 1.76306 0 -9.07404
-415.271 4.0882 0 -44.495
-426.123 4.05339 0 -44.0947
-696.959 1.74486 0 -8.73976
-551.735 3.04341 0 -28.3072
-420.697 4.07084 0 -44.2945
-566.201 3.00729 0 -27.7734
-558.968 3.02537 0 -28.0399
-687.92 1.76306 0 -9.07404
-669.843 1.7995 0 -9.7459
-404.419 4.1227 0 -44.8979
-415.271 4.0882 0 -44.495
-678.882 1.78128 0 -9.40942
-537.27 3.07937 0 -28.8446
-409.845 4.10549 0 -44.6961
-551.735 3.04341 0 -28.3072
-544.503 3.06141 0 -28.5755
-669.843 1.7995 0 -9.7459
-651.766 1.83596 0 -10.4221
-393.567 4.15687 0 -45.3033
-404.419 4.1227 0 -44.8979
-660.804 1.81773 0 -10.0835
-522.805 3.11516 0 -29.3855
-398.993 4.13982 0 -45.1003
-537.27 3.07937 0 -28.8446
-530.037 3.09729 0 -29.1147
-651.766 1.83596 0 -10.4221
-633.688 1.87243 0 -11.1025
-382.715 4.19071 0 -45.7114
-393.567 4.15687 0 -45.3033
-642.727 1.85419 0 -10.7618
-508.34 3.15078 0 -29.9297
-388.141 4.17383 0 -45.507
-522.805 3.11516 0 -29.3855
-515.572 3.133 0 -29.6572
-633.688 1.87243 0 -11.1025
-615.611 1.9089 0 -11.7869
-371.864 4.22422 0 -46.1218
-382.715 4.19071 0 -45.7114
-624.65 1.89066 0 -11.4442
-493.875 3.18623 0 -30.4773
-377.29 4.2075 0 -45.9163
-508.34 3.15078 0 -29.9297
-501.107 3.16853 0 -30.2031
-615.611 1.9089 0 -11.7869
-597.534 1.94537 0 -12.4754
-361.013 4.25738 0 -46.5347
-371.864 4.22422 0 -46.1218
-606.572 1.92713 0 -12.1307
-479.41 3.22149 0 -31.0279
-366.438 4.24084 0 -46.328
-493.875 3.18623 0 -30.4773
-486.642 3.20388 0 -30.7522
-597.534 1.94537 0 -12.4754
-579.456 1.98183 0 -13.1677
-350.162 4.2902 0 -46.9499
-361.013 4.25738 0 -46.5347
-588.495 1.9636 0 -12.821
-464.945 3.25655 0 -31.5817
-355.587 4.27383 0 -46.742
-479.41 3.22149 0 -31.0279
-472.177 3.23905 0 -31.3045
-579.456 1.98183 0 -13.1677
-561.379 2.01826 0 -13.8637
-339.311 4.32266 0 -47.3674
-350.162 4.2902 0 -46.9499
-570.418 2.00005 0 -13.5152
-450.481 3.29142 0 -32.1385
-344.736 4.30648 0 -47.1584
-464.945 3.25655 0 -31.5817
-457.713 3.27401 0 -31.8597
-561.379 2.01826 0 -13.8637
-543.302 2.05467 0 -14.5633
-328.46 4.35477 0 -47.787
-339.311 4.32266 0 -47.3674
-552.341 2.03647 0 -14.2131
-436.016 3.32608 0 -32.6982
-333.885 4.33876 0 -47.5769
-450.481 3.29142 0 -32.1385
-443.248 3.30878 0 -32.418
-543.302 2.05467 0 -14.5633
-525.225 2.09103 0 -15.2665
-317.609 4.38651 0 -48.2087
-328.46 4.35477 0 -47.787
-534.264 2.07285 0 -14.9145
-421.552 3.36052 0 -33.2606
-323.035 4.37069 0 -47.9976
-436.016 3.32608 0 -32.6982
-428.784 3.34333 0 -32.979
-525.225 2.09103 0 -15.2665
-507.148 2.12734 0 -15.973
-306.759 4.41787 0 -48.6325
-317.609 4.38651 0 -48.2087
-516.186 2.10919 0 -15.6193
-407.088 3.39473 0 -33.8258
-312.184 4.40224 0 -48.4203
-421.552 3.36052 0 -33.2606
-414.32 3.37766 0 -33.5429
-507.148 2.12734 0 -15.973
-489.071 2.1636 0 -16.6828
-295.909 4.44886 0 -49.0582
-306.759 4.41787 0 -48.6325
-498.109 2.14548 0 -16.3275
-392.623 3.42872 0 -34.3936
-301.334 4.43342 0 -48.8451
-407.088 3.39473 0 -33.8258
-399.855 3.41176 0 -34.1094
-489.071 2.1636 0 -16.6828
-470.994 2.19979 0 -17.3957
-285.058 4.47946 0 -49.4858
-295.909 4.44886 0 -49.0582
-480.032 2.1817 0 -17.0389
-378.159 3.46246 0 -34.9639
-290.483 4.46421 0 -49.2717
-392.623 3.42872 0 -34.3936
-385.391 3.44562 0 -34.6784
-470.994 2.19979 0 -17.3957
-452.917 2.2359 0 -18.1117
-274.208 4.50967 0 -49.9152
-285.058 4.47946 0 -49.4858
-461.955 2.21786 0 -17.7533
-363.695 3.49596 0 -35.5366
-279.633 4.49461 0 -49.7003
-378.159 3.46246 0 -34.9639
-370.927 3.47924 0 -35.2499
-452.917 2.2359 0 -18.1117
-434.839 2.27193 0 -18.8305
-263.358 4.5395 0 -50.3464
-274.208 4.50967 0 -49.9152
-443.878 2.25393 0 -18.4708
-349.231 3.52921 0 -36.1116
-268.783 4.52463 0 -50.1306
-363.695 3.49596 0 -35.5366
-356.463 3.51262 0 -35.8238
-434.839 2.27193 0 -18.8305
-416.762 2.30788 0 -19.5522
-252.508 4.56895 0 -50.7792
-263.358 4.5395 0 -50.3464
-425.801 2.28992 0 -19.191
-334.767 3.56223 0 -36.6889
-257.933 4.55427 0 -50.5626
-349.231 3.52921 0 -36.1116
-341.999 3.54575 0 -36.4
-416.762 2.30788 0 -19.5522
-398.685 2.34375 0 -20.2765
-241.659 4.59805 0 -51.2136
-252.508 4.56895 0 -50.7792
-407.724 2.32583 0 -19.914
-320.303 3.59502 0 -37.2683
-247.084 4.58354 0 -50.9962
-334.767 3.56223 0 -36.6889
-327.535 3.57865 0 -36.9783
-398.685 2.34375 0 -20.2765
-380.608 2.37956 0 -21.0035
-230.809 4.62686 0 -51.6496
-241.659 4.59805 0 -51.2136
-389.647 2.36166 0 -20.6397
-305.84 3.62761 0 -37.8498
-236.234 4.61249 0 -51.4314
-320.303 3.59502 0 -37.2683
-313.072 3.61134 0 -37.5588
-380.608 2.37956 0 -21.0035
-362.531 2.41532 0 -21.733
-219.96 4.65541 0 -52.0871
-230.809 4.62686 0 -51.6496
-371.569 2.39744 0 -21.3679
-291.376 3.66006 0 -38.4333
-225.384 4.64116 0 -51.8682
-305.84 3.62761 0 -37.8498
-298.608 3.64385 0 -38.1413
-362.531 2.41532 0 -21.733
-344.453 2.45107 0 -22.4649
-209.11 4.6838 0 -52.5261
-219.96 4.65541 0 -52.0871
-353.492 2.43319 0 -22.0986
-276.912 3.69241 0 -39.0189
-214.535 4.66962 0 -52.3064
-291.376 3.66006 0 -38.4333
-284.144 3.67625 0 -38.7258
-344.453 2.45107 0 -22.4649
-326.376 2.48681 0 -23.1994
-198.261 4.71204 0 -52.9665
-209.11 4.6838 0 -52.5261
-335.415 2.46894 0 -22.8318
-262.449 3.72468 0 -39.6064
-203.686 4.69794 0 -52.7461
-276.912 3.69241 0 -39.0189
-269.681 3.70856 0 -39.3124
-326.376 2.48681 0 -23.1994
-308.299 2.5225 0 -23.9362
-187.413 4.74007 0 -53.4085
-198.261 4.71204 0 -52.9665
-317.337 2.50468 0 -23.5675
-247.986 3.75678 0 -40.1959
-192.837 4.7261 0 -53.1873
-262.449 3.72468 0 -39.6064
-255.217 3.74077 0 -39.9009
-308.299 2.5225 0 -23.9362
-290.221 2.55791 0 -24.6754
-176.565 4.76737 0 -53.8521
-187.413 4.74007 0 -53.4085
-299.26 2.54026 0 -24.3055
-233.523 3.78829 0 -40.7872
-181.989 4.75387 0 -53.6301
-247.986 3.75678 0 -40.1959
-240.754 3.77266 0 -40.4913
-290.221 2.55791 0 -24.6754
-272.144 2.59233 0 -25.4162
-165.716 4.79279 0 -54.2975
-176.565 4.76737 0 -53.8521
-281.182 2.57534 0 -25.0456
-219.06 3.81813 0 -41.38
-171.14 4.78044 0 -54.0746
-233.523 3.78829 0 -40.7872
-226.291 3.80356 0 -41.0835
-272.144 2.59233 0 -25.4162
-254.066 2.62432 0 -26.1573
-154.865 4.81311 0 -54.7448
-165.716 4.79279 0 -54.2975
-263.105 2.60876 0 -25.7868
-204.596 3.84353 0 -41.9732
-160.291 4.80393 0 -54.5209
-219.06 3.81813 0 -41.38
-211.828 3.8316 0 -41.6766
-254.066 2.62432 0 -26.1573
-235.99 2.65013 0 -26.895
-144.007 4.82275 0 -55.1945
-154.865 4.81311 0 -54.7448
-245.028 2.63837 0 -26.527
-190.128 3.85929 0 -42.5643
-149.438 4.81984 0 -54.9693
-204.596 3.84353 0 -41.9732
-197.363 3.85329 0 -42.2693
-235.99 2.65013 0 -26.895
-217.913 2.66387 0 -27.623
-133.135 4.80862 0 -55.6467
-144.007 4.82275 0 -55.1945
-226.952 2.65907 0 -27.2608
-175.652 3.85392 0 -43.1481
-138.573 4.81989 0 -55.4204
-190.128 3.85929 0 -42.5643
-182.892 3.85999 0 -42.8574
-217.913 2.66387 0 -27.623
-199.84 2.6509 0 -28.3244
-122.221 4.75214 0 -56.1037
-133.135 4.80862 0 -55.6467
-208.875 2.66197 0 -27.9787
-161.152 3.80929 0 -43.7152
-127.686 4.78749 0 -55.8742
-175.652 3.85392 0 -43.1481
-168.406 3.83901 0 -43.4351
-199.84 2.6509 0 -28.3244
-181.758 2.59408 0 -28.9771
-111.238 4.61249 0 -56.5655
-122.221 4.75214 0 -56.1037
-190.803 2.62988 0 -28.6585
-146.604 3.68818 0 -44.2482
-116.739 4.69603 0 -56.3344
-161.152 3.80929 0 -43.7152
-153.887 3.75978 0 -43.9864
-181.758 2.59408 0 -28.9771
-163.682 2.44526 0 -29.5243
-100.089 4.34878 0 -57.0447
-111.238 4.61249 0 -56.5655
-172.715 2.534 0 -29.2697
-131.956 3.44531 0 -44.7198
-105.695 4.50015 0 -56.801
-146.604 3.68818 0 -44.2482
-139.295 3.5898 0 -44.4963
-163.682 2.44526 0 -29.5243
-145.538 2.17763 0 -29.9111
-88.6949 3.86852 0 -57.545
-100.089 4.34878 0 -57.0447
-154.631 2.33216 0 -29.741
-117.105 2.98898 0 -45.0939
-94.422 4.14058 0 -57.2934
-131.956 3.44531 0 -44.7198
-124.568 3.24228 0 -44.9172
-145.538 2.17763 0 -29.9111
-127.373 1.65497 0 -29.9882
-76.7679 3.1663 0 -58.131
-88.6949 3.86852 0 -57.545
-136.443 1.94863 0 -30.0039
-101.9 2.27062 0 -45.3281
-82.8327 3.5471 0 -57.8184
-117.105 2.98898 0 -45.0939
-109.551 2.68312 0 -45.2412
-127.373 1.65497 0 -29.9882
-108.817 0.955577 0 -29.709
-64.2072 2.16884 0 -58.8404
-76.7679 3.1663 0 -58.131
-118.197 1.34464 0 -29.8906
-86.0035 1.1761 0 -45.4384
-70.5505 2.69103 0 -58.4719
-101.9 2.27062 0 -45.3281
-94.0838 1.73575 0 -45.3745
-108.817 0.955577 0 -29.709
-89.9615 -0.227317 0 -28.8506
-50.4134 1.41919 0 -59.9541
-64.2072 2.16884 0 -58.8404
-99.3802 0.379484 0 -29.3765
-69.0884 0.0260788 0 -45.5416
-57.5511 1.72391 0 -59.311
-86.0035 1.1761 0 -45.4384
-77.6582 0.642993 0 -45.517
-89.9615 -0.227317 0 -28.8506
-69.2123 -0.820592 0 -27.922
-35.9012 1.59467 0 -61.6046
-50.4134 1.41919 0 -59.9541
-80.0336 -0.558387 0 -28.3311
-50.2629 -0.60655 0 -46.258
-43.1266 1.23785 0 -60.7168
-69.0884 0.0260788 0 -45.5416
-60.0769 -0.597724 0 -45.6761
-69.2123 -0.820592 0 -27.922
-46.7926 -0.766201 0 -27.7127
-20.5914 6.33652 0 -64.2884
-35.9012 1.59467 0 -61.6046
-58.0788 -1.2968 0 -27.6302
-29.7407 2.75655 0 -48.7447
-28.4673 3.12886 0 -62.7649
-50.2629 -0.60655 0 -46.258
-40.0121 0.442842 0 -47.3288
-46.7926 -0.766201 0 -27.7127
-18.64 8.8434 0 -33.4412
-9.09744 20.3456 0 -65.8034
-20.5914 6.33652 0 -64.2884
-33.9604 2.53848 0 -29.3001
-7.98181 17.7776 0 -55.2109
-13.7902 11.45 0 -65.5024
-29.7407 2.75655 0 -48.7447
-19.3454 7.31622 0 -51.024
-18.64 8.8434 0 -33.4412
2.91223 46.9497 0 -50.6508
-1.96806 54.4302 0 -59.1023
-9.09744 20.3456 0 -65.8034
-5.88605 19.0248 0 -39.9663
-0.597944 61.6718 0 -58.4458
-5.2605 35.1409 0 -64.3048
-7.98181 17.7776 0 -55.2109
-0.0944277 35.9933 0 -58.9822
2.91223 46.9497 0 -50.6508
-4.20742 183.769 0 -44.8935
1.19407 91.4076 0 -28.706
-1.96806 54.4302 0 -59.1023
5.69915 104.129 0 -57.5209
-6.69032 130.442 0 -25.1514
0.576325 75.1404 0 -47.6461
-0.597944 61.6718 0 -58.4458
-3.91182 95.4038 0 -48.6716
-1929.61 -579.82 0 177.418
-2094.86 -368.103 0 -4.80037
-681.092 -118.134 0 92.168
-698.043 -209.346 0 277.454
-2041.87 -466.704 0 67.281
-1387.95 -242.898 0 54.8655
-669.248 -164.389 0 175.061
-1285.62 -385.971 0 253.559
-1358.38 -325.184 0 125.913
-2094.86 -368.103 0 -4.80037
-2134.29 -162.936 0 -60.8081
-717.352 -73.0616 0 -18.5213
-681.092 -118.134 0 92.168
-2112.45 -257.968 0 -41.0651
-1420.68 -128.175 0 -33.4953
-709.135 -93.0669 0 27.0549
-1387.95 -242.898 0 54.8655
-1402.74 -176.442 0 6.96369
-2134.29 -162.936 0 -60.8081
-2154.38 -59.7415 0 -70.8464
-719.741 -32.0687 0 -68.4833
-717.352 -73.0616 0 -18.5213
-2153.54 -100.86 0 -70.2758
-1437.63 -53.5652 0 -71.1191
-716.005 -50.4209 0 -48.6793
-1420.68 -128.175 0 -33.4953
-1433.85 -87.2247 0 -59.61
-2154.38 -59.7415 0 -70.8464
-2137.98 -12.1223 0 -64.4835
-721.708 -13.0547 0 -86.1019
-719.741 -32.0687 0 -68.4833
-2145.41 -30.2129 0 -67.3231
-1433.11 -16.8836 0 -78.9803
-723.881 -20.9089 0 -80.3359
-1437.63 -53.5652 0 -71.1191
-1436.51 -30.9402 0 -76.1205
-2137.98 -12.1223 0 -64.4835
-2118.83 1.58126 0 -59.9675
-713.976 -3.24293 0 -87.7246
-721.708 -13.0547 0 -86.1019
-2130 -2.96863 0 -62.236
-1420.03 -1.47795 0 -77.1563
-716.905 -6.81713 0 -87.9073
-1433.11 -16.8836 0 -78.9803
-1427.34 -7.39997 0 -79.0618
-2118.83 1.58126 0 -59.9675
-2096.77 4.82677 0 -56.7076
-707.495 -1.51787 0 -84.2916
-713.976 -3.24293 0 -87.7246
-2106.73 4.19484 0 -57.9449
-1405.05 1.98324 0 -73.3021
-711.441 -1.96171 0 -86.3304
-1420.03 -1.47795 0 -77.1563
-1412.29 1.28592 0 -74.9997
-2096.77 4.82677 0 -56.7076
-2078.98 3.03324 0 -55.1896
-699.904 -1.49909 0 -79.94
-707.495 -1.51787 0 -84.2916
-2087.9 4.11812 0 -55.9137
-1391.54 1.48213 0 -69.817
-703.204 -1.27625 0 -82.0307
-1405.05 1.98324 0 -73.3021
-1398.09 1.95179 0 -71.5728
-2078.98 3.03324 0 -55.1896
-2062.95 0.932883 0 -54.0952
-694.077 -2.56851 0 -76.4345
-699.904 -1.49909 0 -79.94
-2070.46 2.01128 0 -54.5553
-1379.95 -0.27943 0 -67.2174
-697.061 -2.04585 0 -78.0661
-1391.54 1.48213 0 -69.817
-1385.48 0.666542 0 -68.3462
-2062.95 0.932883 0 -54.0952
-2049.33 -1.00895 0 -53.3391
-688.712 -3.35177 0 -73.9296
-694.077 -2.56851 0 -76.4345
-2056.04 -0.128276 0 -53.7212
-1370.02 -1.81457 0 -65.376
-691.193 -2.96953 0 -75.0504
-1379.95 -0.27943 0 -67.2174
-1374.82 -1.11126 0 -66.2419
-2049.33 -1.00895 0 -53.3391
-2036.77 -2.24571 0 -52.6053
-684.223 -3.97294 0 -72.292
-688.712 -3.35177 0 -73.9296
-2042.87 -1.69086 0 -52.9603
-1361.22 -2.92689 0 -64.0894
-686.454 -3.70731 0 -73.0237
-1370.02 -1.81457 0 -65.376
-1365.5 -2.42403 0 -64.664
-2036.77 -2.24571 0 -52.6053
-2025.08 -3.02044 0 -51.9028
-680.042 -4.28784 0 -71.2337
-684.223 -3.97294 0 -72.292
-2030.88 -2.69328 0 -52.2589
-1353.13 -3.58576 0 -63.147
-682.067 -4.15343 0 -71.703
-1361.22 -2.92689 0 -64.0894
-1357.11 -3.30754 0 -63.5911
-2025.08 -3.02044 0 -51.9028
-2013.77 -3.4131 0 -51.1844
-676.165 -4.44051 0 -70.5461
-680.042 -4.28784 0 -71.2337
-2019.38 -3.25023 0 -51.5426
-1345.45 -3.9348 0 -62.417
-678.094 -4.38596 0 -70.8558
-1353.13 -3.58576 0 -63.147
-1349.26 -3.79142 0 -62.7594
-2013.77 -3.4131 0 -51.1844
-2002.71 -3.59247 0 -50.4671
-672.394 -4.46132 0 -70.0716
-676.165 -4.44051 0 -70.5461
-2008.23 -3.52575 0 -50.8269
-1338 -4.07568 0 -61.8059
-674.262 -4.4612 0 -70.2888
-1345.45 -3.9348 0 -62.417
-1341.71 -4.02573 0 -62.1018
-2002.71 -3.59247 0 -50.4671
-1991.75 -3.63628 0 -49.7493
-668.707 -4.41754 0 -69.7174
-672.394 -4.46132 0 -70.0716
-1997.22 -3.62579 0 -50.1073
-1330.65 -4.09783 0 -61.2639
-670.548 -4.44663 0 -69.884
-1338 -4.07568 0 -61.8059
-1334.31 -4.09774 0 -61.528
-1991.75 -3.63628 0 -49.7493
-1980.84 -3.6122 0 -49.039
-665.045 -4.33324 0 -69.427
-668.707 -4.41754 0 -69.7174
-1986.29 -3.63085 0 -49.3933
-1323.36 -4.05332 0 -60.7605
-666.872 -4.37841 0 -69.5665
-1330.65 -4.09783 0 -61.2639
-1327 -4.08161 0 -61.0089
-1980.84 -3.6122 0 -49.039
-1969.96 -3.55145 0 -48.3381
-661.399 -4.23163 0 -69.1706
-665.045 -4.33324 0 -69.427
-1975.4 -3.58469 0 -48.6871
-1316.08 -3.97571 0 -60.2808
-663.222 -4.28414 0 -69.2959
-1323.36 -4.05332 0 -60.7605
-1319.72 -4.01733 0 -60.5182
-1969.96 -3.55145 0 -48.3381
-1959.08 -3.47499 0 -47.6492
-657.756 -4.12152 0 -68.932
-661.399 -4.23163 0 -69.1706
-1964.52 -3.51459 0 -47.9921
-1308.82 -3.88257 0 -59.8164
-659.577 -4.17707 0 -69.0497
-1316.08 -3.97571 0 -60.2808
-1312.45 -3.93038 0 -60.047
-1959.08 -3.47499 0 -47.6492
-1948.2 -3.39187 0 -46.9728
-654.115 -4.00922 0 -68.7037
-657.756 -4.12152 0 -68.932
-1953.64 -3.43383 0 -47.3093
-1301.56 -3.78349 0 -59.3639
-655.936 -4.06552 0 -68.8169
-1308.82 -3.88257 0 -59.8164
-1305.19 -3.83342 0 -59.5888
-1948.2 -3.39187 0 -46.9728
-1937.33 -3.30722 0 -46.3094
-650.473 -3.8969 0 -68.4818
-654.115 -4.00922 0 -68.7037
-1942.76 -3.3496 0 -46.6395
-1294.3 -3.68291 0 -58.9211
-652.294 -3.95295 0 -68.592
-1301.56 -3.78349 0 -59.3639
-1297.93 -3.73323 0 -59.1413
-1937.33 -3.30722 0 -46.3094
-1926.45 -3.22291 0 -45.659
-646.83 -3.78577 0 -68.2648
-650.473 -3.8969 0 -68.4818
-1931.89 -3.26494 0 -45.9826
-1287.03 -3.58286 0 -58.4873
-648.651 -3.84117 0 -68.3727
-1294.3 -3.68291 0 -58.9211
-1290.66 -3.63276 0 -58.7031
-1926.45 -3.22291 0 -45.659
-1915.57 -3.13979 0 -45.0214
-643.185 -3.67603 0 -68.0522
-646.83 -3.78577 0 -68.2648
-1921.01 -3.18119 0 -45.3386
-1279.77 -3.48403 0 -58.0621
-645.008 -3.73072 0 -68.158
-1287.03 -3.58286 0 -58.4873
-1283.4 -3.53328 0 -58.2736
-1915.57 -3.13979 0 -45.0214
-1904.69 -3.05798 0 -44.3965
-639.541 -3.5677 0 -67.8435
-643.185 -3.67603 0 -68.0522
-1910.13 -3.09872 0 -44.7074
-1272.5 -3.38657 0 -57.6452
-641.363 -3.6217 0 -67.9473
-1279.77 -3.48403 0 -58.0621
-1276.14 -3.43513 0 -57.8526
-1904.69 -3.05798 0 -44.3965
-1893.81 -2.97745 0 -43.784
-635.895 -3.46063 0 -67.6389
-639.541 -3.5677 0 -67.8435
-1899.25 -3.01757 0 -44.0887
-1265.24 -3.29041 0 -57.2366
-637.718 -3.51402 0 -67.7407
-1272.5 -3.38657 0 -57.6452
-1268.87 -3.33833 0 -57.4399
-1893.81 -2.97745 0 -43.784
-1882.93 -2.89807 0 -43.1839
-632.25 -3.35467 0 -67.4382
-635.895 -3.46063 0 -67.6389
-1888.37 -2.93763 0 -43.4824
-1257.97 -3.19541 0 -56.8361
-634.073 -3.40752 0 -67.5381
-1265.24 -3.29041 0 -57.2366
-1261.6 -3.24277 0 -57.0353
-1882.93 -2.89807 0 -43.1839
-1872.05 -2.81972 0 -42.596
-628.605 -3.24969 0 -67.2415
-632.25 -3.35467 0 -67.4382
-1877.49 -2.85878 0 -42.8884
-1250.71 -3.10146 0 -56.4437
-630.427 -3.30206 0 -67.3394
-1257.97 -3.19541 0 -56.8361
-1254.34 -3.14831 0 -56.6389
-1872.05 -2.81972 0 -42.596
-1861.16 -2.74231 0 -42.0201
-624.959 -3.14559 0 -67.0488
-628.605 -3.24969 0 -67.2415
-1866.61 -2.7809 0 -42.3065
-1243.44 -3.00844 0 -56.0593
-626.782 -3.19754 0 -67.1446
-1250.71 -3.10146 0 -56.4437
-1247.07 -3.05484 0 -56.2505
-1861.16 -2.74231 0 -42.0201
-1850.28 -2.66575 0 -41.4562
-621.314 -3.0423 0 -66.86
-624.959 -3.14559 0 -67.0488
-1855.72 -2.70393 0 -41.7367
-1236.17 -2.91627 0 -55.6829
-623.136 -3.09385 0 -66.9539
-1243.44 -3.00844 0 -56.0593
-1239.81 -2.96225 0 -55.8701
-1850.28 -2.66575 0 -41.4562
-1839.4 -2.59 0 -40.9042
-617.668 -2.93978 0 -66.6751
-621.314 -3.0423 0 -66.86
-1844.84 -2.62778 0 -41.1787
-1228.91 -2.8249 0 -55.3144
-619.491 -2.99095 0 -66.767
-1236.17 -2.91627 0 -55.6829
-1232.54 -2.87049 0 -55.4977
-1839.4 -2.59 0 -40.9042
-1828.52 -2.51501 0 -40.3639
-614.023 -2.83798 0 -66.4941
-617.668 -2.93978 0 -66.6751
-1833.96 -2.55241 0 -40.6326
-1221.64 -2.7343 0 -54.9537
-615.845 -2.88879 0 -66.5841
-1228.91 -2.8249 0 -55.3144
-1225.27 -2.77951 0 -55.1331
-1828.52 -2.51501 0 -40.3639
-1817.64 -2.44077 0 -39.8354
-610.377 -2.73689 0 -66.3171
-614.023 -2.83798 0 -66.4941
-1823.08 -2.4778 0 -40.0982
-1214.37 -2.64443 0 -54.6009
-612.2 -2.78735 0 -66.4051
-1221.64 -2.7343 0 -54.9537
-1218 -2.68928 0 -54.7763
-1817.64 -2.44077 0 -39.8354
-1806.75 -2.36724 0 -39.3186
-606.732 -2.63649 0 -66.1438
-610.377 -2.73689 0 -66.3171
-1812.19 -2.40391 0 -39.5755
-1207.1 -2.55529 0 -54.2558
-608.554 -2.68661 0 -66.23
-1214.37 -2.64443 0 -54.6009
-1210.74 -2.59977 0 -54.4273
-1806.75 -2.36724 0 -39.3186
-1795.87 -2.2944 0 -38.8133
-603.086 -2.53678 0 -65.9745
-606.732 -2.63649 0 -66.1438
-1801.31 -2.33073 0 -39.0645
-1199.84 -2.46684 0 -53.9184
-604.909 -2.58655 0 -66.0587
-1207.1 -2.55529 0 -54.2558
-1203.47 -2.51098 0 -54.0861
-1795.87 -2.2944 0 -38.8133
-1784.99 -2.22225 0 -38.3195
-599.441 -2.43774 0 -65.8089
-603.086 -2.53678 0 -65.9745
-1790.43 -2.25824 0 -38.565
-1192.57 -2.37909 0 -53.5887
-601.264 -2.48718 0 -65.8912
-1199.84 -2.46684 0 -53.9184
-1196.2 -2.42288 0 -53.7526
-1784.99 -2.22225 0 -38.3195
-1774.1 -2.15076 0 -37.8372
-595.796 -2.33938 0 -65.6472
-599.441 -2.43774 0 -65.8089
-1779.54 -2.18642 0 -38.077
-1185.3 -2.29202 0 -53.2666
-597.619 -2.38848 0 -65.7276
-1192.57 -2.37909 0 -53.5887
-1188.94 -2.33547 0 -53.4267
-1774.1 -2.15076 0 -37.8372
-1763.22 -2.07993 0 -37.3663
-592.151 -2.24169 0 -65.4892
-595.796 -2.33938 0 -65.6472
-1768.66 -2.11526 0 -37.6003
-1178.04 -2.20563 0 -52.9521
-593.973 -2.29045 0 -65.5677
-1185.3 -2.29202 0 -53.2666
-1181.67 -2.24874 0 -53.1084
-1763.22 -2.07993 0 -37.3663
-1752.34 -2.00973 0 -36.9067
-588.506 -2.14466 0 -65.335
-592.151 -2.24169 0 -65.4892
-1757.78 -2.04475 0 -37.1351
-1170.77 -2.1199 0 -52.6451
-590.328 -2.19309 0 -65.4117
-1178.04 -2.20563 0 -52.9521
-1174.4 -2.16268 0 -52.7976
-1752.34 -2.00973 0 -36.9067
-1741.45 -1.94016 0 -36.4583
-584.861 -2.04829 0 -65.1845
-588.506 -2.14466 0 -65.335
-1746.89 -1.97487 0 -36.6811
-1163.5 -2.03482 0 -52.3456
-586.683 -2.09639 0 -65.2593
-1170.77 -2.1199 0 -52.6451
-1167.14 -2.07728 0 -52.4944
-1741.45 -1.94016 0 -36.4583
-1730.57 -1.87121 0 -36.0211
-581.216 -1.95258 0 -65.0378
-584.861 -2.04829 0 -65.1845
-1736.01 -1.90561 0 -36.2383
-1156.24 -1.9504 0 -52.0536
-583.038 -2.00035 0 -65.1107
-1163.5 -2.03482 0 -52.3456
-1159.87 -1.99253 0 -52.1986
-1730.57 -1.87121 0 -36.0211
-1719.68 -1.80285 0 -35.595
-577.571 -1.85752 0 -64.8947
-581.216 -1.95258 0 -65.0378
-1725.13 -1.83696 0 -35.8066
-1148.97 -1.86661 0 -51.7689
-579.394 -1.90497 0 -64.9658
-1156.24 -1.9504 0 -52.0536
-1152.6 -1.90843 0 -51.9103
-1719.68 -1.80285 0 -35.595
-1708.8 -1.73509 0 -35.1799
-573.926 -1.76312 0 -64.7553
-577.571 -1.85752 0 -64.8947
-1714.24 -1.7689 0 -35.386
-1141.7 -1.78346 0 -51.4916
-575.749 -1.81024 0 -64.8245
-1148.97 -1.86661 0 -51.7689
-1145.33 -1.82496 0 -51.6293
-1708.8 -1.73509 0 -35.1799
-1697.92 -1.6679 0 -34.7758
-570.282 -1.66935 0 -64.6195
-573.926 -1.76312 0 -64.7553
-1703.36 -1.70142 0 -34.9765
-1134.43 -1.70093 0 -51.2216
-572.104 -1.71615 0 -64.6869
-1141.7 -1.78346 0 -51.4916
-1138.07 -1.74212 0 -51.3557
-1697.92 -1.6679 0 -34.7758
-1687.03 -1.60127 0 -34.3825
-566.637 -1.57623 0 -64.4874
-570.282 -1.66935 0 -64.6195
-1692.47 -1.63451 0 -34.5778
-1127.17 -1.61902 0 -50.9589
-568.459 -1.62271 0 -64.553
-1134.43 -1.70093 0 -51.2216
-1130.8 -1.6599 0 -51.0893
-1687.03 -1.60127 0 -34.3825
-1676.15 -1.53519 0 -34.0002
-562.993 -1.48375 0 -64.3588
-566.637 -1.57623 0 -64.4874
-1681.59 -1.56816 0 -34.19
-1119.9 -1.53771 0 -50.7034
-564.815 -1.52991 0 -64.4226
-1127.17 -1.61902 0 -50.9589
-1123.53 -1.57829 0 -50.8302
-1676.15 -1.53519 0 -34.0002
-1665.26 -1.46966 0 -33.6285
-559.348 -1.39191 0 -64.2338
-562.993 -1.48375 0 -64.3588
-1670.71 -1.50236 0 -33.813
-1112.63 -1.45701 0 -50.455
-561.171 -1.43775 0 -64.2959
-1119.9 -1.53771 0 -50.7034
-1116.27 -1.49729 0 -50.5783
-1665.26 -1.46966 0 -33.6285
-1654.38 -1.40465 0 -33.2676
-555.704 -1.30069 0 -64.1124
-559.348 -1.39191 0 -64.2338
-1659.82 -1.43709 0 -33.4467
-1105.37 -1.3769 0 -50.2138
-557.526 -1.34622 0 -64.1727
-1112.63 -1.45701 0 -50.455
-1109 -1.41688 0 -50.3335
-1654.38 -1.40465 0 -33.2676
-1643.5 -1.34015 0 -32.9172
-552.06 -1.2101 0 -63.9945
-555.704 -1.30069 0 -64.1124
-1648.94 -1.37234 0 -33.0911
-1098.1 -1.29737 0 -49.9796
-553.882 -1.25532 0 -64.053
-1105.37 -1.3769 0 -50.2138
-1101.73 -1.33706 0 -50.0958
-1643.5 -1.34015 0 -32.9172
-1632.61 -1.27617 0 -32.5774
-548.416 -1.12014 0 -63.8801
-552.06 -1.2101 0 -63.9945
-1638.05 -1.3081 0 -32.746
-1090.83 -1.21842 0 -49.7525
-550.238 -1.16504 0 -63.9369
-1098.1 -1.29737 0 -49.9796
-1094.47 -1.25782 0 -49.8652
-1632.61 -1.27617 0 -32.5774
-1621.73 -1.21267 0 -32.2481
-544.772 -1.03079 0 -63.7692
-548.416 -1.12014 0 -63.8801
-1627.17 -1.24436 0 -32.4115
-1083.57 -1.14004 0 -49.5323
-546.594 -1.07539 0 -63.8242
-1090.83 -1.21842 0 -49.7525
-1087.2 -1.17916 0 -49.6415
-1621.73 -1.21267 0 -32.2481
-1610.85 -1.14966 0 -31.9292
-541.128 -0.942063 0 -63.6618
-544.772 -1.03079 0 -63.7692
-1616.29 -1.18111 0 -32.0874
-1076.3 -1.06222 0 -49.3191
-542.95 -0.986351 0 -63.7151
-1083.57 -1.14004 0 -49.5323
-1079.93 -1.10106 0 -49.4248
-1610.85 -1.14966 0 -31.9292
-1599.96 -1.08712 0 -31.6207
-537.485 -0.853946 0 -63.5578
-541.128 -0.942063 0 -63.6618
-1605.4 -1.11833 0 -31.7737
-1069.03 -0.984956 0 -49.1128
-539.306 -0.897928 0 -63.6093
-1076.3 -1.06222 0 -49.3191
-1072.67 -1.02352 0 -49.2151
-1599.96 -1.08712 0 -31.6207
-1589.08 -1.02504 0 -31.3224
-533.841 -0.766438 0 -63.4572
-537.485 -0.853946 0 -63.5578
-1594.52 -1.05602 0 -31.4703
-1061.77 -0.908242 0 -48.9133
-535.663 -0.810116 0 -63.507
-1069.03 -0.984956 0 -49.1128
-1065.4 -0.946531 0 -49.0122
-1589.08 -1.02504 0 -31.3224
-1578.19 -0.963416 0 -31.0343
-530.198 -0.679536 0 -63.36
-533.841 -0.766438 0 -63.4572
-1583.64 -0.994173 0 -31.1771
-1054.5 -0.832069 0 -48.7206
-532.019 -0.722911 0 -63.4081
-1061.77 -0.908242 0 -48.9133
-1058.14 -0.870088 0 -48.8161
-1578.19 -0.963416 0 -31.0343
-1567.31 -0.902231 0 -30.7563
-526.554 -0.593236 0 -63.2661
-530.198 -0.679536 0 -63.36
-1572.75 -0.932769 0 -30.894
-1047.24 -0.756432 0 -48.5347
-528.376 -0.636311 0 -63.3126
-1054.5 -0.832069 0 -48.7206
-1050.87 -0.794184 0 -48.6268
-1567.31 -0.902231 0 -30.7563
-1556.43 -0.841478 0 -30.4884
-522.911 -0.507535 0 -63.1756
-526.554 -0.593236 0 -63.2661
-1561.87 -0.871801 0 -30.6211
-1039.97 -0.681323 0 -48.3554
-524.733 -0.550311 0 -63.2205
-1047.24 -0.756432 0 -48.5347
-1043.6 -0.718812 0 -48.4442
-1556.43 -0.841478 0 -30.4884
-1545.54 -0.781147 0 -30.2305
-519.268 -0.422431 0 -63.0885
-522.911 -0.507535 0 -63.1756
-1550.99 -0.81126 0 -30.3582
-1032.71 -0.606736 0 -48.1829
-521.09 -0.464909 0 -63.1316
-1039.97 -0.681323 0 -48.3554
-1036.34 -0.643965 0 -48.2683
-1545.54 -0.781147 0 -30.2305
-1534.66 -0.721229 0 -29.9825
-515.625 -0.337919 0 -63.0046
-519.268 -0.422431 0 -63.0885
-1540.1 -0.751137 0 -30.1053
-1025.44 -0.532666 0 -48.0169
-517.447 -0.380101 0 -63.0461
-1032.71 -0.606736 0 -48.1829
-1029.07 -0.569637 0 -48.099
-1534.66 -0.721229 0 -29.9825
-1523.78 -0.661715 0 -29.7444
-511.983 -0.253998 0 -62.924
-515.625 -0.337919 0 -63.0046
-1529.22 -0.691422 0 -29.8622
-1018.17 -0.459105 0 -47.8575
-513.804 -0.295885 0 -62.9639
-1025.44 -0.532666 0 -48.0169
-1021.81 -0.495822 0 -47.9364
-1523.78 -0.661715 0 -29.7444
-1512.89 -0.602595 0 -29.516
-508.34 -0.170663 0 -62.8467
-511.983 -0.253998 0 -62.924
-1518.34 -0.632106 0 -29.629
-1010.91 -0.386048 0 -47.7046
-510.161 -0.212257 0 -62.8849
-1018.17 -0.459105 0 -47.8575
-1014.54 -0.422514 0 -47.7802
-1512.89 -0.602595 0 -29.516
-1502.01 -0.543862 0 -29.2973
-504.698 -0.0879125 0 -62.7726
-508.34 -0.170663 0 -62.8467
-1507.45 -0.573181 0 -29.4055
-1003.64 -0.31349 0 -47.5582
-506.519 -0.129215 0 -62.8092
-1010.91 -0.386048 0 -47.7046
-1007.28 -0.349707 0 -47.6306
-1502.01 -0.543862 0 -29.2973
-1491.13 -0.485506 0 -29.0883
-501.056 -0.00574331 0 -62.7017
-504.698 -0.0879125 0 -62.7726
-1496.57 -0.514637 0 -29.1916
-996.38 -0.241424 0 -47.4182
-502.877 -0.0467554 0 -62.7367
-1003.64 -0.31349 0 -47.5582
-1000.01 -0.277396 0 -47.4874
-1491.13 -0.485506 0 -29.0883
-1480.25 -0.42752 0 -28.8889
-497.414 0.0758472 0 -62.6339
-501.056 -0.00574331 0 -62.7017
-1485.69 -0.456467 0 -28.9874
-989.115 -0.169845 0 -47.2846
-499.235 0.0351241 0 -62.6674
-996.38 -0.241424 0 -47.4182
-992.747 -0.205574 0 -47.3506
-1480.25 -0.42752 0 -28.8889
-1469.36 -0.369894 0 -28.699
-493.772 0.156862 0 -62.5694
-497.414 0.0758472 0 -62.6339
-1474.81 -0.398662 0 -28.7927
-981.851 -0.0987484 0 -47.1573
-495.593 0.116426 0 -62.6013
-989.115 -0.169845 0 -47.2846
-985.483 -0.134237 0 -47.2202
-1469.36 -0.369894 0 -28.699
-1458.48 -0.312622 0 -28.5185
-490.13 0.237303 0 -62.508
-493.772 0.156862 0 -62.5694
-1463.92 -0.341215 0 -28.6075
-974.587 -0.0281278 0 -47.0363
-491.951 0.197154 0 -62.5383
-981.851 -0.0987484 0 -47.1573
-978.219 -0.0633788 0 -47.0961
-1458.48 -0.312622 0 -28.5185
-1447.6 -0.255696 0 -28.3473
-486.488 0.317174 0 -62.4497
-490.13 0.237303 0 -62.508
-1453.04 -0.284117 0 -28.4317
-967.323 0.0420216 0 -46.9216
-488.309 0.27731 0 -62.4785
-974.587 -0.0281278 0 -47.0363
-970.955 0.00700551 0 -46.9782
-1447.6 -0.255696 0 -28.3473
-1436.72 -0.199108 0 -28.1855
-482.847 0.396476 0 -62.3945
-486.488 0.317174 0 -62.4497
-1442.16 -0.22736 0 -28.2652
-960.059 0.111705 0 -46.8131
-484.668 0.356896 0 -62.4217
-967.323 0.0420216 0 -46.9216
-963.691 0.076921 0 -46.8666
-1436.72 -0.199108 0 -28.1855
-1425.84 -0.14285 0 -28.0328
-479.206 0.475212 0 -62.3424
-482.847 0.396476 0 -62.3945
-1431.28 -0.170938 0 -28.108
-952.795 0.180926 0 -46.7107
-481.026 0.435915 0 -62.368
-960.059 0.111705 0 -46.8131
-956.427 0.146373 0 -46.7611
-1425.84 -0.14285 0 -28.0328
-1414.96 -0.0869169 0 -27.8894
-475.565 0.553385 0 -62.2933
-479.206 0.475212 0 -62.3424
-1420.4 -0.114844 0 -27.96
-945.532 0.249691 0 -46.6143
-477.385 0.514369 0 -62.3174
-952.795 0.180926 0 -46.7107
-949.164 0.215365 0 -46.6617
-1414.96 -0.0869169 0 -27.8894
-1404.08 -0.0313001 0 -27.755
-471.924 0.630996 0 -62.2472
-475.565 0.553385 0 -62.2933
-1409.52 -0.0590693 0 -27.821
-938.269 0.318003 0 -46.5241
-473.744 0.592261 0 -62.2699
-945.532 0.249691 0 -46.6143
-941.901 0.283903 0 -46.5685
-1404.08 -0.0313001 0 -27.755
-1393.2 0.0240066 0 -27.6296
-468.283 0.708049 0 -62.2042
-471.924 0.630996 0 -62.2472
-1398.64 -0.00360839 0 -27.6912
-931.006 0.385868 0 -46.4399
-470.104 0.669592 0 -62.2253
-938.269 0.318003 0 -46.5241
-934.638 0.351991 0 -46.4812
-1393.2 0.0240066 0 -27.6296
-1382.31 0.0790096 0 -27.5132
-464.643 0.784544 0 -62.1641
-468.283 0.708049 0 -62.2042
-1387.76 0.0515456 0 -27.5703
-923.744 0.45329 0 -46.3616
-466.463 0.746366 0 -62.1838
-931.006 0.385868 0 -46.4399
-927.375 0.419634 0 -46.4
-1382.31 0.0790096 0 -27.5132
-1371.43 0.133715 0 -27.4056
-461.003 0.860484 0 -62.127
-464.643 0.784544 0 -62.1641
-1376.87 0.106399 0 -27.4583
-916.481 0.520272 0 -46.2892
-462.823 0.822583 0 -62.1452
-923.744 0.45329 0 -46.3616
-920.112 0.486835 0 -46.3247
-1371.43 0.133715 0 -27.4056
-1360.55 0.18813 0 -27.3068
-457.363 0.935872 0 -62.0928
-461.003 0.860484 0 -62.127
-1365.99 0.160959 0 -27.3551
-909.219 0.586819 0 -46.2227
-459.183 0.898247 0 -62.1095
-916.481 0.520272 0 -46.2892
-912.85 0.553599 0 -46.2553
-1360.55 0.18813 0 -27.3068
-1349.68 0.242259 0 -27.2168
-453.723 1.01071 0 -62.0615
-457.363 0.935872 0 -62.0928
-1355.11 0.21523 0 -27.2607
-901.957 0.652935 0 -46.1621
-455.543 0.973359 0 -62.0768
-909.219 0.586819 0 -46.2227
-905.588 0.61993 0 -46.1917
-1349.68 0.242259 0 -27.2168
-1338.8 0.296109 0 -27.1355
-450.083 1.085 0 -62.0331
-453.723 1.01071 0 -62.0615
-1344.24 0.269218 0 -27.1751
-894.696 0.718623 0 -46.1072
-451.903 1.04792 0 -62.0469
-901.957 0.652935 0 -46.1621
-898.326 0.685832 0 -46.1339
-1338.8 0.296109 0 -27.1355
-1327.92 0.349684 0 -27.0627
-446.444 1.15874 0 -62.0076
-450.083 1.085 0 -62.0331
-1333.36 0.32293 0 -27.098
-887.434 0.783888 0 -46.058
-448.263 1.12194 0 -62.02
-894.696 0.718623 0 -46.1072
-891.065 0.751309 0 -46.0819
-1327.92 0.349684 0 -27.0627
-1317.04 0.402992 0 -26.9985
-442.804 1.23193 0 -61.9849
-446.444 1.15874 0 -62.0076
-1322.48 0.376371 0 -27.0295
-880.173 0.848733 0 -46.0145
-444.624 1.1954 0 -61.9959
-887.434 0.783888 0 -46.058
-883.804 0.816363 0 -46.0356
-1317.04 0.402992 0 -26.9985
-1306.16 0.456036 0 -26.9427
-439.165 1.30458 0 -61.965
-442.804 1.23193 0 -61.9849
-1311.6 0.429546 0 -26.9695
-872.912 0.913161 0 -45.9767
-440.985 1.26833 0 -61.9746
-880.173 0.848733 0 -46.0145
-876.543 0.880999 0 -45.9949
-1306.16 0.456036 0 -26.9427
-1295.28 0.508821 0 -26.8953
-435.526 1.37669 0 -61.9479
-439.165 1.30458 0 -61.965
-1300.72 0.48246 0 -26.9179
-865.652 0.977176 0 -45.9445
-437.346 1.34071 0 -61.9561
-872.912 0.913161 0 -45.9767
-869.282 0.94522 0 -45.9599
-1295.28 0.508821 0 -26.8953
-1284.4 0.561353 0 -26.8562
-431.888 1.44826 0 -61.9336
-435.526 1.37669 0 -61.9479
-1289.84 0.535119 0 -26.8747
-858.391 1.04078 0 -45.9178
-433.707 1.41255 0 -61.9405
-865.652 0.977176 0 -45.9445
-862.021 1.00903 0 -45.9304
-1284.4 0.561353 0 -26.8562
-1273.53 0.613637 0 -26.8254
-428.249 1.51929 0 -61.9221
-431.888 1.44826 0 -61.9336
-1278.96 0.587526 0 -26.8398
-851.131 1.10398 0 -45.8965
-430.068 1.48385 0 -61.9275
-858.391 1.04078 0 -45.9178
-854.761 1.07243 0 -45.9065
-1273.53 0.613637 0 -26.8254
-1262.65 0.665676 0 -26.8027
-424.611 1.58979 0 -61.9133
-428.249 1.51929 0 -61.9221
-1268.09 0.639686 0 -26.813
-843.871 1.16677 0 -45.8808
-426.43 1.55461 0 -61.9173
-851.131 1.10398 0 -45.8965
-847.501 1.13543 0 -45.888
-1262.65 0.665676 0 -26.8027
-1251.77 0.717475 0 -26.7882
-420.973 1.65974 0 -61.9071
-424.611 1.58979 0 -61.9133
-1257.21 0.691605 0 -26.7944
-836.612 1.22917 0 -45.8704
-422.792 1.62483 0 -61.9099
-843.871 1.16677 0 -45.8808
-840.242 1.19802 0 -45.8749
-1251.77 0.717475 0 -26.7882
-1240.89 0.769038 0 -26.7816
-417.335 1.72917 0 -61.9037
-420.973 1.65974 0 -61.9071
-1246.33 0.743285 0 -26.7839
-829.353 1.29116 0 -45.8655
-419.154 1.69452 0 -61.9051
-836.612 1.22917 0 -45.8704
-832.982 1.26021 0 -45.8673
-1240.89 0.769038 0 -26.7816
-1230.02 0.820369 0 -26.7831
-413.697 1.79806 0 -61.9029
-417.335 1.72917 0 -61.9037
-1235.46 0.794732 0 -26.7814
-822.094 1.35276 0 -45.8658
-415.516 1.76368 0 -61.903
-829.353 1.29116 0 -45.8655
-825.723 1.32201 0 -45.865
-1230.02 0.820369 0 -26.7831
-1219.14 0.871472 0 -26.7925
-410.06 1.86641 0 -61.9048
-413.697 1.79806 0 -61.9029
-1224.58 0.845949 0 -26.7868
-814.835 1.41397 0 -45.8714
-411.879 1.8323 0 -61.9035
-822.094 1.35276 0 -45.8658
-818.464 1.38341 0 -45.8679
-1219.14 0.871472 0 -26.7925
-1208.27 0.922351 0 -26.8096
-406.423 1.93424 0 -61.9092
-410.06 1.86641 0 -61.9048
-1213.7 0.896939 0 -26.8001
-807.577 1.47478 0 -45.8822
-408.241 1.90039 0 -61.9067
-814.835 1.41397 0 -45.8714
-811.206 1.44442 0 -45.8761
-1208.27 0.922351 0 -26.8096
-1197.39 0.973008 0 -26.8346
-402.786 2.00154 0 -61.9163
-406.423 1.93424 0 -61.9092
-1202.83 0.947707 0 -26.8211
-800.319 1.53521 0 -45.8982
-404.604 1.96795 0 -61.9124
-807.577 1.47478 0 -45.8822
-803.948 1.50504 0 -45.8895
-1197.39 0.973008 0 -26.8346
-1186.52 1.02345 0 -26.8672
-399.149 2.0683 0 -61.9259
-402.786 2.00154 0 -61.9163
-1191.95 0.998255 0 -26.8499
-793.061 1.59525 0 -45.9193
-400.967 2.03499 0 -61.9207
-800.319 1.53521 0 -45.8982
-796.69 1.56528 0 -45.9081
-1186.52 1.02345 0 -26.8672
-1175.64 1.07367 0 -26.9074
-395.512 2.13454 0 -61.938
-399.149 2.0683 0 -61.9259
-1181.08 1.04859 0 -26.8864
-785.803 1.6549 0 -45.9455
-397.331 2.10149 0 -61.9316
-793.061 1.59525 0 -45.9193
-789.432 1.62512 0 -45.9317
-1175.64 1.07367 0 -26.9074
-1164.77 1.12369 0 -26.9552
-391.876 2.20026 0 -61.9527
-395.512 2.13454 0 -61.938
-1170.2 1.09871 0 -26.9304
-778.546 1.71418 0 -45.9767
-393.694 2.16747 0 -61.945
-785.803 1.6549 0 -45.9455
-782.175 1.68459 0 -45.9604
-1164.77 1.12369 0 -26.9552
-1153.89 1.17349 0 -27.0105
-388.24 2.26545 0 -61.9699
-391.876 2.20026 0 -61.9527
-1159.33 1.14862 0 -26.9819
-771.289 1.77307 0 -46.0129
-390.058 2.23292 0 -61.961
-778.546 1.71418 0 -45.9767
-774.918 1.74367 0 -45.9942
-1153.89 1.17349 0 -27.0105
-1143.02 1.22309 0 -27.0731
-384.604 2.33011 0 -61.9895
-388.24 2.26545 0 -61.9699
-1148.46 1.19832 0 -27.0409
-764.033 1.83159 0 -46.0541
-386.422 2.29784 0 -61.9794
-771.289 1.77307 0 -46.0129
-767.661 1.80238 0 -46.0329
-1143.02 1.22309 0 -27.0731
-1132.15 1.27249 0 -27.1432
-380.968 2.39425 0 -62.0116
-384.604 2.33011 0 -61.9895
-1137.58 1.24781 0 -27.1072
-756.776 1.88972 0 -46.1001
-382.786 2.36225 0 -62.0002
-764.033 1.83159 0 -46.0541
-760.405 1.8607 0 -46.0765
-1132.15 1.27249 0 -27.1432
-1121.27 1.32168 0 -27.2204
-377.333 2.45787 0 -62.0361
-380.968 2.39425 0 -62.0116
-1126.71 1.29711 0 -27.1809
-749.52 1.94749 0 -46.151
-379.151 2.42612 0 -62.0235
-756.776 1.88972 0 -46.1001
-753.148 1.91865 0 -46.1249
-1121.27 1.32168 0 -27.2204
-1110.4 1.37067 0 -27.3049
-373.698 2.52096 0 -62.063
-377.333 2.45787 0 -62.0361
-1115.84 1.3462 0 -27.2618
-742.265 2.00488 0 -46.2067
-375.515 2.48948 0 -62.0493
-749.52 1.94749 0 -46.151
-745.893 1.97623 0 -46.1783
-1110.4 1.37067 0 -27.3049
-1099.53 1.41947 0 -27.3965
-370.063 2.58353 0 -62.0923
-373.698 2.52096 0 -62.063
-1104.96 1.3951 0 -27.3498
-735.009 2.06189 0 -46.2672
-371.88 2.55231 0 -62.0774
-742.265 2.00488 0 -46.2067
-738.637 2.03343 0 -46.2363
-1099.53 1.41947 0 -27.3965
-1088.66 1.46807 0 -27.4952
-366.428 2.64558 0 -62.124
-370.063 2.58353 0 -62.0923
-1094.09 1.4438 0 -27.445
-727.754 2.11854 0 -46.3323
-368.245 2.61462 0 -62.1079
-735.009 2.06189 0 -46.2672
-731.382 2.09026 0 -46.2991
-1088.66 1.46807 0 -27.4952
-1077.78 1.51648 0 -27.6009
-362.793 2.70711 0 -62.158
-366.428 2.64558 0 -62.124
-1083.22 1.4923 0 -27.5472
-720.5 2.17481 0 -46.4021
-364.611 2.67641 0 -62.1407
-727.754 2.11854 0 -46.3323
-724.127 2.14672 0 -46.3666
-1077.78 1.51648 0 -27.6009
-1066.91 1.5647 0 -27.7134
-359.159 2.76812 0 -62.1943
-362.793 2.70711 0 -62.158
-1072.35 1.54061 0 -27.6563
-713.245 2.23072 0 -46.4766
-360.976 2.73768 0 -62.1759
-720.5 2.17481 0 -46.4021
-716.872 2.20281 0 -46.4388
-1066.91 1.5647 0 -27.7134
-1056.04 1.61272 0 -27.8329
-355.525 2.82861 0 -62.2329
-359.159 2.76812 0 -62.1943
-1061.48 1.58873 0 -27.7723
-705.991 2.28625 0 -46.5556
-357.342 2.79843 0 -62.2133
-713.245 2.23072 0 -46.4766
-709.618 2.25853 0 -46.5155
-1056.04 1.61272 0 -27.8329
-1045.17 1.66056 0 -27.9591
-351.891 2.88858 0 -62.2737
-355.525 2.82861 0 -62.2329
-1050.61 1.63667 0 -27.8951
-698.737 2.34142 0 -46.6391
-353.708 2.85866 0 -62.253
-705.991 2.28625 0 -46.5556
-702.364 2.31389 0 -46.5968
-1045.17 1.66056 0 -27.9591
-1034.3 1.70821 0 -28.092
-348.257 2.94804 0 -62.3169
-351.891 2.88858 0 -62.2737
-1039.74 1.68441 0 -28.0247
-691.484 2.39623 0 -46.7271
-350.074 2.91838 0 -62.295
-698.737 2.34142 0 -46.6391
-695.11 2.36887 0 -46.6826
-1034.3 1.70821 0 -28.092
-1023.43 1.75567 0 -28.2316
-344.624 3.00697 0 -62.3622
-348.257 2.94804 0 -62.3169
-1028.87 1.73196 0 -28.1609
-684.231 2.45067 0 -46.8196
-346.441 2.97757 0 -62.3392
-691.484 2.39623 0 -46.7271
-687.857 2.42349 0 -46.7728
-1023.43 1.75567 0 -28.2316
-1012.56 1.80295 0 -28.3777
-340.991 3.06539 0 -62.4097
-344.624 3.00697 0 -62.3622
-1018 1.77933 0 -28.3038
-676.978 2.50474 0 -46.9164
-342.807 3.03624 0 -62.3857
-684.231 2.45067 0 -46.8196
-680.604 2.47775 0 -46.8675
-1012.56 1.80295 0 -28.3777
-1001.69 1.85004 0 -28.5303
-337.358 3.12328 0 -62.4594
-340.991 3.06539 0 -62.4097
-1007.13 1.82651 0 -28.4532
-669.725 2.55844 0 -47.0176
-339.174 3.0944 0 -62.4343
-676.978 2.50474 0 -46.9164
-673.351 2.53164 0 -46.9665
-1001.69 1.85004 0 -28.5303
-990.825 1.89694 0 -28.6894
-333.725 3.18066 0 -62.5112
-337.358 3.12328 0 -62.4594
-996.26 1.87351 0 -28.6091
-662.473 2.61179 0 -47.123
-335.542 3.15204 0 -62.485
-669.725 2.55844 0 -47.0176
-666.099 2.58516 0 -47.0698
-990.825 1.89694 0 -28.6894
-979.957 1.94366 0 -28.8548
-330.093 3.23752 0 -62.5652
-333.725 3.18066 0 -62.5112
-985.391 1.92032 0 -28.7713
-655.221 2.66476 0 -47.2328
-331.909 3.20916 0 -62.538
-662.473 2.61179 0 -47.123
-658.847 2.63832 0 -47.1774
-979.957 1.94366 0 -28.8548
-969.089 1.9902 0 -29.0265
-326.46 3.29387 0 -62.6213
-330.093 3.23752 0 -62.5652
-974.523 1.96695 0 -28.9399
-647.969 2.71738 0 -47.3467
-328.277 3.26576 0 -62.593
-655.221 2.66476 0 -47.2328
-651.595 2.69112 0 -47.2892
-969.089 1.9902 0 -29.0265
-958.222 2.03655 0 -29.2045
-322.828 3.34969 0 -62.6794
-326.46 3.29387 0 -62.6213
-963.655 2.01339 0 -29.1147
-640.718 2.76963 0 -47.4647
-324.644 3.32185 0 -62.6501
-647.969 2.71738 0 -47.3467
-644.344 2.74355 0 -47.4052
-958.222 2.03655 0 -29.2045
-947.354 2.08271 0 -29.3886
-319.197 3.405 0 -62.7396
-322.828 3.34969 0 -62.6794
-952.788 2.05965 0 -29.2958
-633.467 2.82152 0 -47.5869
-321.012 3.37741 0 -62.7093
-640.718 2.76963 0 -47.4647
-637.093 2.79562 0 -47.5253
-947.354 2.08271 0 -29.3886
-936.488 2.1287 0 -29.5787
-315.565 3.45979 0 -62.8019
-319.197 3.405 0 -62.7396
-941.921 2.10573 0 -29.4829
-626.216 2.87304 0 -47.7131
-317.381 3.43246 0 -62.7705
-633.467 2.82152 0 -47.5869
-629.842 2.84732 0 -47.6495
-936.488 2.1287 0 -29.5787
-925.621 2.1745 0 -29.7749
-311.934 3.51407 0 -62.8662
-315.565 3.45979 0 -62.8019
-931.054 2.15162 0 -29.6761
-618.966 2.9242 0 -47.8433
-313.749 3.487 0 -62.8338
-626.216 2.87304 0 -47.7131
-622.591 2.89866 0 -47.7777
-925.621 2.1745 0 -29.7749
-914.755 2.22011 0 -29.9771
-308.303 3.56782 0 -62.9324
-311.934 3.51407 0 -62.8662
-920.188 2.19733 0 -29.8753
-611.716 2.97499 0 -47.9775
-310.118 3.54101 0 -62.899
-618.966 2.9242 0 -47.8433
-615.341 2.94964 0 -47.9099
-914.755 2.22011 0 -29.9771
-903.889 2.26554 0 -30.1851
-304.672 3.62106 0 -63.0006
-308.303 3.56782 0 -62.9324
-909.322 2.24285 0 -30.0803
-604.466 3.02542 0 -48.1156
-306.487 3.59451 0 -62.9663
-611.716 2.97499 0 -47.9775
-608.091 3.00025 0 -48.0461
-903.889 2.26554 0 -30.1851
-893.024 2.31078 0 -30.3989
-301.041 3.67378 0 -63.0708
-304.672 3.62106 0 -63.0006
-898.457 2.28818 0 -30.2913
-597.217 3.07548 0 -48.2576
-302.856 3.64749 0 -63.0355
-604.466 3.02542 0 -48.1156
-600.842 3.0505 0 -48.1862
-893.024 2.31078 0 -30.3989
-882.159 2.35584 0 -30.6184
-297.41 3.72598 0 -63.1429
-301.041 3.67378 0 -63.0708
-887.592 2.33333 0 -30.508
-589.968 3.12518 0 -48.4035
-299.226 3.69995 0 -63.1066
-597.217 3.07548 0 -48.2576
-593.592 3.10038 0 -48.3301
-882.159 2.35584 0 -30.6184
-871.295 2.4007 0 -30.8437
-293.78 3.77766 0 -63.2168
-297.41 3.72598 0 -63.1429
-876.727 2.37829 0 -30.7303
-582.719 3.17451 0 -48.5531
-295.595 3.75189 0 -63.1796
-589.968 3.12518 0 -48.4035
-586.343 3.14989 0 -48.4778
-871.295 2.4007 0 -30.8437
-860.43 2.44538 0 -31.0745
-290.15 3.82883 0 -63.2927
-293.78 3.77766 0 -63.2168
-865.862 2.42307 0 -30.9584
-575.471 3.22348 0 -48.7064
-291.965 3.80331 0 -63.2545
-582.719 3.17451 0 -48.5531
-579.095 3.19904 0 -48.6293
-860.43 2.44538 0 -31.0745
-849.566 2.48987 0 -31.3108
-286.521 3.87947 0 -63.3704
-290.15 3.82883 0 -63.2927
-854.998 2.46765 0 -31.1919
-568.222 3.27207 0 -48.8634
-288.335 3.85421 0 -63.3313
-575.471 3.22348 0 -48.7064
-571.846 3.24782 0 -48.7845
-849.566 2.48987 0 -31.3108
-838.703 2.53417 0 -31.5526
-282.891 3.9296 0 -63.4499
-286.521 3.87947 0 -63.3704
-844.135 2.51205 0 -31.431
-560.975 3.3203 0 -49.0241
-284.706 3.9046 0 -63.4099
-568.222 3.27207 0 -48.8634
-564.598 3.29623 0 -48.9433
-838.703 2.53417 0 -31.5526
-827.84 2.57828 0 -31.7998
-279.262 3.9792 0 -63.5313
-282.891 3.9296 0 -63.4499
-833.271 2.55625 0 -31.6755
-553.727 3.36816 0 -49.1884
-281.076 3.95446 0 -63.4904
-560.975 3.3203 0 -49.0241
-557.351 3.34428 0 -49.1058
-827.84 2.57828 0 -31.7998
-816.977 2.62219 0 -32.0522
-275.633 4.02828 0 -63.6144
-279.262 3.9792 0 -63.5313
-822.408 2.60026 0 -31.9253
-546.48 3.41565 0 -49.3562
-277.447 4.00381 0 -63.5726
-553.727 3.36816 0 -49.1884
-550.103 3.39195 0 -49.2718
-816.977 2.62219 0 -32.0522
-806.114 2.66591 0 -32.31
-272.004 4.07684 0 -63.6993
-275.633 4.02828 0 -63.6144
-811.545 2.64408 0 -32.1805
-539.233 3.46277 0 -49.5275
-273.818 4.05263 0 -63.6566
-546.48 3.41565 0 -49.3562
-542.856 3.43926 0 -49.4414
-806.114 2.66591 0 -32.31
-795.252 2.70943 0 -32.5729
-268.375 4.12488 0 -63.7859
-272.004 4.07684 0 -63.6993
-800.683 2.6877 0 -32.4408
-531.986 3.50951 0 -49.7023
-270.189 4.10093 0 -63.7424
-539.233 3.46277 0 -49.5275
-535.609 3.48619 0 -49.6144
-795.252 2.70943 0 -32.5729
-784.39 2.75275 0 -32.8409
-264.747 4.1724 0 -63.8742
-268.375 4.12488 0 -63.7859
-789.821 2.73112 0 -32.7063
-524.74 3.55588 0 -49.8804
-266.561 4.14871 0 -63.8298
-531.986 3.50951 0 -49.7023
-528.363 3.53275 0 -49.7909
-784.39 2.75275 0 -32.8409
-773.529 2.79588 0 -33.114
-261.118 4.2194 0 -63.9642
-264.747 4.1724 0 -63.8742
-778.96 2.77434 0 -32.9768
-517.494 3.60188 0 -50.062
-262.933 4.19596 0 -63.919
-524.74 3.55588 0 -49.8804
-521.117 3.57893 0 -49.9708
-773.529 2.79588 0 -33.114
-762.668 2.8388 0 -33.392
-257.49 4.26587 0 -64.0559
-261.118 4.2194 0 -63.9642
-768.098 2.81736 0 -33.2524
-510.248 3.6475 0 -50.2469
-259.304 4.2427 0 -64.0098
-517.494 3.60188 0 -50.062
-513.871 3.62474 0 -50.154
-762.668 2.8388 0 -33.392
-751.807 2.88151 0 -33.6749
-253.863 4.31181 0 -64.1492
-257.49 4.26587 0 -64.0559
-757.237 2.86018 0 -33.5328
-503.003 3.69274 0 -50.435
-255.677 4.2889 0 -64.1024
-510.248 3.6475 0 -50.2469
-506.625 3.67017 0 -50.3405
-751.807 2.88151 0 -33.6749
-740.946 2.92402 0 -33.9627
-250.235 4.35723 0 -64.2442
-253.863 4.31181 0 -64.1492
-746.377 2.90279 0 -33.8182
-495.757 3.73761 0 -50.6263
-252.049 4.33459 0 -64.1965
-503.003 3.69274 0 -50.435
-499.38 3.71522 0 -50.5303
-740.946 2.92402 0 -33.9627
-730.086 2.96632 0 -34.2552
-246.608 4.40213 0 -64.3407
-250.235 4.35723 0 -64.2442
-735.516 2.94519 0 -34.1083
-488.512 3.78209 0 -50.8209
-248.421 4.37975 0 -64.2922
-495.757 3.73761 0 -50.6263
-492.135 3.7599 0 -50.7232
-730.086 2.96632 0 -34.2552
-719.227 3.0084 0 -34.5524
-242.981 4.4465 0 -64.4388
-246.608 4.40213 0 -64.3407
-724.656 2.98739 0 -34.4032
-481.268 3.82619 0 -51.0186
-244.794 4.42438 0 -64.3896
-488.512 3.78209 0 -50.8209
-484.89 3.80419 0 -50.9193
-719.227 3.0084 0 -34.5524
-708.367 3.05028 0 -34.8542
-239.354 4.49034 0 -64.5385
-242.981 4.4465 0 -64.4388
-713.797 3.02937 0 -34.7027
-474.024 3.86991 0 -51.2193
-241.167 4.46848 0 -64.4885
-481.268 3.82619 0 -51.0186
-477.646 3.8481 0 -51.1185
-708.367 3.05028 0 -34.8542
-697.508 3.09193 0 -35.1606
-235.727 4.53365 0 -64.6397
-239.354 4.49034 0 -64.5385
-702.938 3.07113 0 -35.0068
-466.78 3.91324 0 -51.4231
-237.54 4.51206 0 -64.5889
-474.024 3.86991 0 -51.2193
-470.402 3.89162 0 -51.3208
-697.508 3.09193 0 -35.1606
-686.649 3.13337 0 -35.4714
-232.101 4.57643 0 -64.7424
-235.727 4.53365 0 -64.6397
-692.079 3.11268 0 -35.3154
-459.536 3.95618 0 -51.6299
-233.914 4.55511 0 -64.6908
-466.78 3.91324 0 -51.4231
-463.158 3.93476 0 -51.5261
-686.649 3.13337 0 -35.4714
-675.791 3.17458 0 -35.7867
-228.474 4.61868 0 -64.8466
-232.101 4.57643 0 -64.7424
-681.22 3.154 0 -35.6285
-452.292 3.99874 0 -51.8396
-230.288 4.59762 0 -64.7943
-459.536 3.95618 0 -51.6299
-455.914 3.97751 0 -51.7344
-675.791 3.17458 0 -35.7867
-664.932 3.21557 0 -36.1063
-224.848 4.6604 0 -64.9522
-228.474 4.61868 0 -64.8466
-670.362 3.19511 0 -35.9459
-445.049 4.0409 0 -52.0523
-226.661 4.63961 0 -64.8992
-452.292 3.99874 0 -51.8396
-448.671 4.01987 0 -51.9456
-664.932 3.21557 0 -36.1063
-654.075 3.25633 0 -36.4301
-221.223 4.70159 0 -65.0593
-224.848 4.6604 0 -64.9522
-659.504 3.23598 0 -36.2677
-437.806 4.08267 0 -52.2677
-223.035 4.68106 0 -65.0056
-445.049 4.0409 0 -52.0523
-441.428 4.06183 0 -52.1596
-654.075 3.25633 0 -36.4301
-643.217 3.29686 0 -36.7582
-217.597 4.74225 0 -65.1678
-221.223 4.70159 0 -65.0593
-648.646 3.27663 0 -36.5937
-430.564 4.12404 0 -52.486
-219.41 4.72199 0 -65.1133
-437.806 4.08267 0 -52.2677
-434.185 4.1034 0 -52.3765
-643.217 3.29686 0 -36.7582
-632.36 3.33716 0 -37.0904
-213.972 4.78237 0 -65.2776
-217.597 4.74225 0 -65.1678
-637.788 3.31704 0 -36.9238
-423.321 4.16502 0 -52.7071
-215.784 4.76237 0 -65.2225
-430.564 4.12404 0 -52.486
-426.943 4.14458 0 -52.5962
-632.36 3.33716 0 -37.0904
-621.503 3.37722 0 -37.4267
-210.346 4.82195 0 -65.3889
-213.972 4.78237 0 -65.2776
-626.931 3.35722 0 -37.258
-416.079 4.20559 0 -52.9309
-212.159 4.80223 0 -65.3331
-423.321 4.16502 0 -52.7071
-419.7 4.18536 0 -52.8186
-621.503 3.37722 0 -37.4267
-610.646 3.41703 0 -37.7669
-206.721 4.861 0 -65.5015
-210.346 4.82195 0 -65.3889
-616.074 3.39715 0 -37.5963
-408.838 4.24577 0 -53.1573
-208.534 4.84154 0 -65.445
-416.079 4.20559 0 -52.9309
-412.458 4.22573 0 -53.0437
-610.646 3.41703 0 -37.7669
-599.79 3.4566 0 -38.1111
-203.097 4.89951 0 -65.6154
-206.721 4.861 0 -65.5015
-605.218 3.43685 0 -37.9385
-401.596 4.28554 0 -53.3864
-204.909 4.88032 0 -65.5583
-408.838 4.24577 0 -53.1573
-405.217 4.2657 0 -53.2715
-599.79 3.4566 0 -38.1111
-588.934 3.49593 0 -38.4592
-199.472 4.93748 0 -65.7306
-203.097 4.89951 0 -65.6154
-594.362 3.4763 0 -38.2847
-394.355 4.3249 0 -53.618
-201.284 4.91857 0 -65.6728
-401.596 4.28554 0 -53.3864
-397.975 4.30527 0 -53.5019
-588.934 3.49593 0 -38.4592
-578.078 3.535 0 -38.811
-195.848 4.97492 0 -65.8471
-199.472 4.93748 0 -65.7306
-583.506 3.5155 0 -38.6346
-387.114 4.36386 0 -53.8522
-197.66 4.95627 0 -65.7887
-394.355 4.3249 0 -53.618
-390.734 4.34443 0 -53.7348
-578.078 3.535 0 -38.811
-567.222 3.57382 0 -39.1665
-192.223 5.01181 0 -65.9648
-195.848 4.97492 0 -65.8471
-572.65 3.55444 0 -38.9883
-379.873 4.4024 0 -54.0888
-194.035 4.99343 0 -65.9058
-387.114 4.36386 0 -53.8522
-383.493 4.38318 0 -53.9702
-567.222 3.57382 0 -39.1665
-556.367 3.61238 0 -39.5257
-188.599 5.04816 0 -66.0838
-192.223 5.01181 0 -65.9648
-561.795 3.59313 0 -39.3456
-372.632 4.44053 0 -54.3279
-190.411 5.03005 0 -66.0241
-379.873 4.4024 0 -54.0888
-376.253 4.42152 0 -54.208
-556.367 3.61238 0 -39.5257
-545.512 3.65067 0 -39.8884
-184.976 5.08396 0 -66.2039
-188.599 5.04816 0 -66.0838
-550.939 3.63156 0 -39.7066
-365.392 4.47824 0 -54.5694
-186.787 5.06613 0 -66.1437
-372.632 4.44053 0 -54.3279
-369.012 4.45944 0 -54.4483
-545.512 3.65067 0 -39.8884
-534.657 3.6887 0 -40.2547
-181.352 5.11922 0 -66.3253
-184.976 5.08396 0 -66.2039
-540.084 3.66972 0 -40.0711
-358.152 4.51554 0 -54.8132
-183.164 5.10166 0 -66.2645
-365.392 4.47824 0 -54.5694
-361.772 4.49694 0 -54.691
-534.657 3.6887 0 -40.2547
-523.803 3.72646 0 -40.6244
-177.729 5.15393 0 -66.4478
-181.352 5.11922 0 -66.3253
-529.23 3.70761 0 -40.4391
-350.912 4.55241 0 -55.0593
-179.54 5.13664 0 -66.3864
-358.152 4.51554 0 -54.8132
-354.532 4.53402 0 -54.9359
-523.803 3.72646 0 -40.6244
-512.948 3.76394 0 -40.9974
-174.105 5.1881 0 -66.5714
-177.729 5.15393 0 -66.4478
-518.376 3.74523 0 -40.8105
-343.673 4.58886 0 -55.3077
-175.917 5.17108 0 -66.5095
-350.912 4.55241 0 -55.0593
-347.293 4.57068 0 -55.1832
-512.948 3.76394 0 -40.9974
-502.094 3.80114 0 -41.3738
-170.482 5.22171 0 -66.6962
-174.105 5.1881 0 -66.5714
-507.521 3.78257 0 -41.1852
-336.434 4.62488 0 -55.5582
-172.294 5.20497 0 -66.6337
-343.673 4.58886 0 -55.3077
-340.053 4.60692 0 -55.4327
-502.094 3.80114 0 -41.3738
-491.241 3.83806 0 -41.7534
-166.86 5.25478 0 -66.822
-170.482 5.22171 0 -66.6962
-496.668 3.81964 0 -41.5632
-329.194 4.66047 0 -55.811
-168.671 5.23831 0 -66.759
-336.434 4.62488 0 -55.5582
-332.814 4.64272 0 -55.6843
-491.241 3.83806 0 -41.7534
-480.387 3.87469 0 -42.1361
-163.237 5.28729 0 -66.9489
-166.86 5.25478 0 -66.822
-485.814 3.85641 0 -41.9444
-321.956 4.69562 0 -56.0658
-165.048 5.2711 0 -66.8853
-329.194 4.66047 0 -55.811
-325.575 4.6781 0 -55.9381
-480.387 3.87469 0 -42.1361
-469.534 3.91103 0 -42.5219
-159.614 5.31925 0 -67.0769
-163.237 5.28729 0 -66.9489
-474.96 3.8929 0 -42.3287
-314.717 4.73034 0 -56.3227
-161.426 5.30334 0 -67.0128
-321.956 4.69562 0 -56.0658
-318.336 4.71304 0 -56.194
-469.534 3.91103 0 -42.5219
-458.681 3.94708 0 -42.9108
-155.992 5.35065 0 -67.2058
-159.614 5.31925 0 -67.0769
-464.107 3.92909 0 -42.716
-307.479 4.76463 0 -56.5816
-157.803 5.33502 0 -67.1412
-314.717 4.73034 0 -56.3227
-311.098 4.74754 0 -56.4519
-458.681 3.94708 0 -42.9108
-447.828 3.98282 0 -43.3026
-152.37 5.3815 0 -67.3358
-155.992 5.35065 0 -67.2058
-453.254 3.96499 0 -43.1063
-300.24 4.79847 0 -56.8425
-154.181 5.36615 0 -67.2707
-307.479 4.76463 0 -56.5816
-303.859 4.7816 0 -56.7118
-447.828 3.98282 0 -43.3026
-436.975 4.01826 0 -43.6973
-148.748 5.41179 0 -67.4668
-152.37 5.3815 0 -67.3358
-442.402 4.00058 0 -43.4996
-293.002 4.83187 0 -57.1053
-150.559 5.39672 0 -67.4012
-300.24 4.79847 0 -56.8425
-296.621 4.81522 0 -56.9737
-436.975 4.01826 0 -43.6973
-426.123 4.05339 0 -44.0947
-145.126 5.44152 0 -67.5987
-148.748 5.41179 0 -67.4668
-431.549 4.03586 0 -43.8957
-285.765 4.86481 0 -57.37
-146.937 5.42673 0 -67.5326
-293.002 4.83187 0 -57.1053
-289.384 4.8484 0 -57.2375
-426.123 4.05339 0 -44.0947
-415.271 4.0882 0 -44.495
-141.505 5.47069 0 -67.7315
-145.126 5.44152 0 -67.5987
-420.697 4.07084 0 -44.2945
-278.527 4.89731 0 -57.6366
-143.316 5.45618 0 -67.665
-285.765 4.86481 0 -57.37
-282.146 4.88112 0 -57.5031
-415.271 4.0882 0 -44.495
-404.419 4.1227 0 -44.8979
-137.883 5.4993 0 -67.8652
-141.505 5.47069 0 -67.7315
-409.845 4.10549 0 -44.6961
-271.29 4.92936 0 -57.9049
-139.694 5.48506 0 -67.7982
-278.527 4.89731 0 -57.6366
-274.908 4.91339 0 -57.7705
-404.419 4.1227 0 -44.8979
-393.567 4.15687 0 -45.3033
-134.262 5.52734 0 -67.9998
-137.883 5.4993 0 -67.8652
-398.993 4.13982 0 -45.1003
-264.053 4.96094 0 -58.175
-136.073 5.51339 0 -67.9324
-271.29 4.92936 0 -57.9049
-267.671 4.94521 0 -58.0397
-393.567 4.15687 0 -45.3033
-382.715 4.19071 0 -45.7114
-130.641 5.55481 0 -68.1353
-134.262 5.52734 0 -67.9998
-388.141 4.17383 0 -45.507
-256.816 4.99207 0 -58.4467
-132.452 5.54115 0 -68.0674
-264.053 4.96094 0 -58.175
-260.434 4.97656 0 -58.3106
-382.715 4.19071 0 -45.7114
-371.864 4.22422 0 -46.1218
-127.02 5.58172 0 -68.2716
-130.641 5.55481 0 -68.1353
-377.29 4.2075 0 -45.9163
-249.579 5.02272 0 -58.7201
-128.831 5.56834 0 -68.2033
-256.816 4.99207 0 -58.4467
-253.197 5.00745 0 -58.5832
-371.864 4.22422 0 -46.1218
-361.013 4.25738 0 -46.5347
-123.4 5.60805 0 -68.4087
-127.02 5.58172 0 -68.2716
-366.438 4.24084 0 -46.328
-242.343 5.05291 0 -58.9952
-125.21 5.59496 0 -68.34
-249.579 5.02272 0 -58.7201
-245.961 5.03788 0 -58.8574
-361.013 4.25738 0 -46.5347
-350.162 4.2902 0 -46.9499
-119.779 5.63381 0 -68.5466
-123.4 5.60805 0 -68.4087
-355.587 4.27383 0 -46.742
-235.106 5.08263 0 -59.2717
-121.589 5.621 0 -68.4775
-242.343 5.05291 0 -58.9952
-238.724 5.06783 0 -59.1332
-350.162 4.2902 0 -46.9499
-339.311 4.32266 0 -47.3674
-116.159 5.65899 0 -68.6853
-119.779 5.63381 0 -68.5466
-344.736 4.30648 0 -47.1584
-227.87 5.11187 0 -59.5498
-117.969 5.64647 0 -68.6158
-235.106 5.08263 0 -59.2717
-231.488 5.09731 0 -59.4106
-339.311 4.32266 0 -47.3674
-328.46 4.35477 0 -47.787
-112.538 5.68359 0 -68.8247
-116.159 5.65899 0 -68.6853
-333.885 4.33876 0 -47.5769
-220.634 5.14062 0 -59.8293
-114.349 5.67136 0 -68.7549
-227.87 5.11187 0 -59.5498
-224.252 5.1263 0 -59.6894
-328.46 4.35477 0 -47.787
-317.609 4.38651 0 -48.2087
-108.918 5.7076 0 -68.9648
-112.538 5.68359 0 -68.8247
-323.035 4.37069 0 -47.9976
-213.398 5.16888 0 -60.1103
-110.728 5.69567 0 -68.8946
-220.634 5.14062 0 -59.8293
-217.016 5.15481 0 -59.9696
-317.609 4.38651 0 -48.2087
-306.759 4.41787 0 -48.6325
-105.298 5.73102 0 -69.1056
-108.918 5.7076 0 -68.9648
-312.184 4.40224 0 -48.4203
-206.162 5.19664 0 -60.3926
-107.108 5.71938 0 -69.0351
-213.398 5.16888 0 -60.1103
-209.78 5.18282 0 -60.2512
-306.759 4.41787 0 -48.6325
-295.909 4.44886 0 -49.0582
-101.679 5.75384 0 -69.2471
-105.298 5.73102 0 -69.1056
-301.334 4.43342 0 -48.8451
-198.927 5.22391 0 -60.6762
-103.489 5.74251 0 -69.1763
-206.162 5.19664 0 -60.3926
-202.545 5.21034 0 -60.5342
-295.909 4.44886 0 -49.0582
-285.058 4.47946 0 -49.4858
-98.059 5.77607 0 -69.3892
-101.679 5.75384 0 -69.2471
-290.483 4.46421 0 -49.2717
-191.691 5.25067 0 -60.961
-99.8688 5.76503 0 -69.3181
-198.927 5.22391 0 -60.6762
-195.309 5.23735 0 -60.8185
-285.058 4.47946 0 -49.4858
-274.208 4.50967 0 -49.9152
-94.4394 5.7977 0 -69.532
-98.059 5.77607 0 -69.3892
-279.633 4.49461 0 -49.7003
-184.456 5.27692 0 -61.2471
-96.2492 5.78696 0 -69.4605
-191.691 5.25067 0 -60.961
-188.074 5.26386 0 -61.1039
-274.208 4.50967 0 -49.9152
-263.358 4.5395 0 -50.3464
-90.82 5.81873 0 -69.6753
-94.4394 5.7977 0 -69.532
-268.783 4.52463 0 -50.1306
-177.221 5.30267 0 -61.5344
-92.6297 5.80829 0 -69.6036
-184.456 5.27692 0 -61.2471
-180.839 5.28986 0 -61.3906
-263.358 4.5395 0 -50.3464
-252.508 4.56895 0 -50.7792
-87.2006 5.83919 0 -69.8192
-90.82 5.81873 0 -69.6753
-257.933 4.55427 0 -50.5626
-169.986 5.32794 0 -61.8228
-89.0103 5.82903 0 -69.7472
-177.221 5.30267 0 -61.5344
-173.604 5.31537 0 -61.6784
-252.508 4.56895 0 -50.7792
-241.659 4.59805 0 -51.2136
-83.5814 5.85911 0 -69.9636
-87.2006 5.83919 0 -69.8192
-247.084 4.58354 0 -50.9962
-162.751 5.35276 0 -62.1122
-85.391 5.84922 0 -69.8913
-169.986 5.32794 0 -61.8228
-166.369 5.34041 0 -61.9673
-241.659 4.59805 0 -51.2136
-230.809 4.62686 0 -51.6496
-79.9622 5.87854 0 -70.1084
-83.5814 5.85911 0 -69.9636
-236.234 4.61249 0 -51.4314
-155.516 5.37717 0 -62.4026
-81.7718 5.86888 0 -70.0359
-162.751 5.35276 0 -62.1122
-159.134 5.36501 0 -62.2573
-230.809 4.62686 0 -51.6496
-219.96 4.65541 0 -52.0871
-76.3432 5.89757 0 -70.2538
-79.9622 5.87854 0 -70.1084
-225.384 4.64116 0 -51.8682
-148.282 5.40126 0 -62.694
-78.1527 5.8881 0 -70.181
-155.516 5.37717 0 -62.4026
-151.899 5.38925 0 -62.5482
-219.96 4.65541 0 -52.0871
-209.11 4.6838 0 -52.5261
-72.7244 5.91631 0 -70.3995
-76.3432 5.89757 0 -70.2538
-214.535 4.66962 0 -52.3064
-141.048 5.42512 0 -62.9864
-74.5338 5.90697 0 -70.3266
-148.282 5.40126 0 -62.694
-144.665 5.41321 0 -62.8401
-209.11 4.6838 0 -52.5261
-198.261 4.71204 0 -52.9665
-69.1059 5.93492 0 -70.5457
-72.7244 5.91631 0 -70.3995
-203.686 4.69794 0 -52.7461
-133.814 5.44881 0 -63.2797
-70.9151 5.92562 0 -70.4725
-141.048 5.42512 0 -62.9864
-137.431 5.43698 0 -63.1329
-198.261 4.71204 0 -52.9665
-187.413 4.74007 0 -53.4085
-65.4879 5.9535 0 -70.6925
-69.1059 5.93492 0 -70.5457
-192.837 4.7261 0 -53.1873
-126.58 5.4723 0 -63.5741
-67.2968 5.94421 0 -70.619
-133.814 5.44881 0 -63.2797
-130.197 5.46059 0 -63.4267
-187.413 4.74007 0 -53.4085
-176.565 4.76737 0 -53.8521
-61.8702 5.97214 0 -70.8404
-65.4879 5.9535 0 -70.6925
-181.989 4.75387 0 -53.6301
-119.347 5.49526 0 -63.87
-63.679 5.96281 0 -70.7663
-126.58 5.4723 0 -63.5741
-122.963 5.4839 0 -63.7218
-176.565 4.76737 0 -53.8521
-165.716 4.79279 0 -54.2975
-58.2532 5.99046 0 -70.9908
-61.8702 5.97214 0 -70.8404
-171.14 4.78044 0 -54.0746
-112.114 5.51662 0 -64.1681
-60.0616 5.9814 0 -70.9152
-119.347 5.49526 0 -63.87
-115.73 5.50625 0 -64.0187
-165.716 4.79279 0 -54.2975
-154.865 4.81311 0 -54.7448
-54.6355 6.00778 0 -71.1465
-58.2532 5.99046 0 -70.9908
-160.291 4.80393 0 -54.5209
-104.879 5.53392 0 -64.4702
-56.4447 5.99933 0 -71.0677
-112.114 5.51662 0 -64.1681
-108.496 5.52607 0 -64.3185
-154.865 4.81311 0 -54.7448
-144.007 4.82275 0 -55.1945
-51.0168 6.02122 0 -71.3133
-54.6355 6.00778 0 -71.1465
-149.438 4.81984 0 -54.9693
-97.6377 5.54172 0 -64.7798
-52.8261 6.01528 0 -71.228
-104.879 5.53392 0 -64.4702
-101.259 5.53948 0 -64.6236
-144.007 4.82275 0 -55.1945
-133.135 4.80862 0 -55.6467
-47.3894 6.02737 0 -71.503
-51.0168 6.02122 0 -71.3133
-138.573 4.81989 0 -55.4204
-90.3818 5.53026 0 -65.1041
-49.2052 6.0256 0 -71.4042
-97.6377 5.54172 0 -64.7798
-94.0123 5.53953 0 -64.9397
-133.135 4.80862 0 -55.6467
-122.221 4.75214 0 -56.1037
-43.75 6.01491 0 -71.7366
-47.3894 6.02737 0 -71.503
-127.686 4.78749 0 -55.8742
-83.0925 5.48072 0 -65.4559
-45.5706 6.02441 0 -71.6126
-90.3818 5.53026 0 -65.1041
-86.7429 5.51155 0 -65.2749
-122.221 4.75214 0 -56.1037
-111.238 4.61249 0 -56.5655
-40.0677 5.97554 0 -72.0531
-43.75 6.01491 0 -71.7366
-116.739 4.69603 0 -56.3344
-75.7336 5.36608 0 -65.8591
-41.9184 5.99962 0 -71.881
-83.0925 5.48072 0 -65.4559
-79.4244 5.43483 0 -65.6502
-111.238 4.61249 0 -56.5655
-100.089 4.34878 0 -57.0447
-36.3336 5.87733 0 -72.5122
-40.0677 5.97554 0 -72.0531
-105.695 4.50015 0 -56.801
-68.2412 5.14039 0 -66.354
-38.2044 5.93558 0 -72.2603
-75.7336 5.36608 0 -65.8591
-72.0096 5.2686 0 -66.0896
-100.089 4.34878 0 -57.0447
-88.6949 3.86852 0 -57.545
-32.4479 5.7231 0 -73.2114
-36.3336 5.87733 0 -72.5122
-94.422 4.14058 0 -57.2934
-60.5106 4.76608 0 -67.0051
-34.4239 5.80809 0 -72.8233
-68.2412 5.14039 0 -66.354
-64.4125 4.97823 0 -66.6593
-88.6949 3.86852 0 -57.545
-76.7679 3.1663 0 -58.131
-28.4222 5.45798 0 -74.2605
-32.4479 5.7231 0 -73.2114
-82.8327 3.5471 0 -57.8184
-52.381 4.20077 0 -67.9082
-30.4391 5.60269 0 -73.6861
-60.5106 4.76608 0 -67.0051
-56.5109 4.49779 0 -67.4086
-76.7679 3.1663 0 -58.131
-64.2072 2.16884 0 -58.8404
-24.0168 5.23738 0 -75.7802
-28.4222 5.45798 0 -74.2605
-70.5505 2.69103 0 -58.4719
-43.6753 3.57583 0 -69.1766
-26.3077 5.33339 0 -74.952
-52.381 4.20077 0 -67.9082
-48.1059 3.8953 0 -68.5065
-64.2072 2.16884 0 -58.8404
-50.4134 1.41919 0 -59.9541
-19.4875 5.1062 0 -77.6907
-24.0168 5.23738 0 -75.7802
-57.5511 1.72391 0 -59.311
-34.2273 3.20988 0 -70.9045
-21.706 5.12714 0 -76.7068
-43.6753 3.57583 0 -69.1766
-39.0702 3.27796 0 -69.9453
-50.4134 1.41919 0 -59.9541
-35.9012 1.59467 0 -61.6046
-14.5126 6.01379 0 -79.5399
-19.4875 5.1062 0 -77.6907
-43.1266 1.23785 0 -60.7168
-24.3203 4.34835 0 -72.9392
-17.1488 5.37701 0 -78.6663
-34.2273 3.20988 0 -70.9045
-29.2684 3.53236 0 -71.9697
-35.9012 1.59467 0 -61.6046
-20.5914 6.33652 0 -64.2884
-10.3538 8.42442 0 -79.6612
-14.5126 6.01379 0 -79.5399
-28.4673 3.12886 0 -62.7649
-14.8076 8.82924 0 -74.346
-12.1128 6.92157 0 -79.992
-24.3203 4.34835 0 -72.9392
-19.5042 5.87415 0 -73.7138
-20.5914 6.33652 0 -64.2884
-9.09744 20.3456 0 -65.8034
-6.17902 14.3711 0 -75.0658
-10.3538 8.42442 0 -79.6612
-13.7902 11.45 0 -65.5024
-8.27977 19.733 0 -71.7036
-8.52062 11.0552 0 -78.1759
-14.8076 8.82924 0 -74.346
-10.8074 13.5995 0 -74.0827
-9.09744 20.3456 0 -65.8034
-1.96806 54.4302 0 -59.1023
-4.45693 20.0925 0 -60.9574
-6.17902 14.3711 0 -75.0658
-5.2605 35.1409 0 -64.3048
-3.9634 36.4501 0 -58.8557
-4.51569 17.3986 0 -69.539
-8.27977 19.733 0 -71.7036
-6.31496 27.2352 0 -66.6314
-1.96806 54.4302 0 -59.1023
1.19407 91.4076 0 -28.706
-3.84636 27.1352 0 -34.2249
-4.45693 20.0925 0 -60.9574
0.576325 75.1404 0 -47.6461
-0.15344 56.9576 0 -33.4381
-4.6403 23.2447 0 -49.2424
-3.9634 36.4501 0 -58.8557
-1.63325 47.0007 0 -48.0357
-698.043 -209.346 0 277.454
-681.092 -118.134 0 92.168
669.045 111.71 0 91.3853
685.264 205.65 0 276.727
-669.248 -164.389 0 175.061
-6.39799 -3.28514 0 104.046
656.892 159.097 0 174.447
-6.82942 -1.84084 0 282.843
-6.54213 -2.75454 0 195.669
-681.092 -118.134 0 92.168
-717.352 -73.0616 0 -18.5213
705.668 65.3071 0 -19.8966
669.045 111.71 0 91.3853
-709.135 -93.0669 0 27.0549
-6.25331 -3.95192 0 -13.3821
697.304 85.8598 0 25.9749
-6.39799 -3.28514 0 104.046
-6.33355 -3.66215 0 31.7468
-717.352 -73.0616 0 -18.5213
-719.741 -32.0687 0 -68.4833
708.268 23.5554 0 -70.5037
705.668 65.3071 0 -19.8966
-716.005 -50.4209 0 -48.6793
-6.16774 -4.38259 0 -67.8041
704.425 42.2508 0 -50.3697
-6.25331 -3.95192 0 -13.3821
-6.19245 -4.18888 0 -44.311
-719.741 -32.0687 0 -68.4833
-721.708 -13.0547 0 -86.1019
710.428 3.92842 0 -88.7267
708.268 23.5554 0 -70.5037
-723.881 -20.9089 0 -80.3359
-6.09778 -4.67492 0 -88.8298
712.506 12.0769 0 -82.67
-6.16774 -4.38259 0 -67.8041
-6.14439 -4.54 0 -82.2506
-721.708 -13.0547 0 -86.1019
-713.976 -3.24293 0 -87.7246
702.865 -6.37157 0 -90.8875
710.428 3.92842 0 -88.7267
-716.905 -6.81713 0 -87.9073
-6.01524 -4.91052 0 -92.4174
705.714 -2.57182 0 -90.8079
-6.09778 -4.67492 0 -88.8298
-6.0509 -4.8005 0 -91.5067
-713.976 -3.24293 0 -87.7246
-707.495 -1.51787 0 -84.2916
696.501 -8.431 0 -87.9465
702.865 -6.37157 0 -90.8875
-711.441 -1.96171 0 -86.3304
-5.94932 -5.06811 0 -89.3063
700.397 -7.84042 0 -89.7429
-6.01524 -4.91052 0 -92.4174
-5.98221 -4.99907 0 -91.4713
-707.495 -1.51787 0 -84.2916
-699.904 -1.49909 0 -79.94
688.969 -8.6182 0 -84.0794
696.501 -8.431 0 -87.9465
-703.204 -1.27625 0 -82.0307
-5.90826 -5.15437 0 -84.9017
692.246 -8.77713 0 -85.927
-5.94932 -5.06811 0 -89.3063
-5.92379 -5.12051 0 -86.9571
-699.904 -1.49909 0 -79.94
-694.077 -2.56851 0 -76.4345
683.156 -7.57312 0 -81.0648
688.969 -8.6182 0 -84.0794
-697.061 -2.04585 0 -78.0661
-5.8918 -5.16805 0 -81.1797
686.137 -8.09957 0 -82.4498
-5.90826 -5.15437 0 -84.9017
-5.89828 -5.16931 0 -82.9585
-694.077 -2.56851 0 -76.4345
-688.712 -3.35177 0 -73.9296
677.778 -6.70393 0 -79.0616
683.156 -7.57312 0 -81.0648
-691.193 -2.96953 0 -75.0504
-5.8916 -5.12775 0 -78.5903
680.268 -7.14087 0 -79.9303
-5.8918 -5.16805 0 -81.1797
-5.88981 -5.1538 0 -79.7163
-688.712 -3.35177 0 -73.9296
-684.223 -3.97294 0 -72.292
673.264 -5.92082 0 -77.9322
677.778 -6.70393 0 -79.0616
-686.454 -3.70731 0 -73.0237
-5.8994 -5.04738 0 -76.9593
675.508 -6.27498 0 -78.4094
-5.8916 -5.12775 0 -78.5903
-5.89521 -5.09157 0 -77.6849
-684.223 -3.97294 0 -72.292
-680.042 -4.28784 0 -71.2337
669.057 -5.39653 0 -77.3834
673.264 -5.92082 0 -77.9322
-682.067 -4.15343 0 -71.703
-5.90885 -4.94236 0 -76.0119
671.094 -5.64015 0 -77.598
-5.8994 -5.04738 0 -76.9593
-5.90415 -4.99726 0 -76.411
-680.042 -4.28784 0 -71.2337
-676.165 -4.44051 0 -70.5461
665.161 -5.00792 0 -77.202
669.057 -5.39653 0 -77.3834
-678.094 -4.38596 0 -70.8558
-5.91593 -4.82286 0 -75.4904
667.099 -5.18274 0 -77.2593
-5.90885 -4.94236 0 -76.0119
-5.91292 -4.88388 0 -75.7136
-676.165 -4.44051 0 -70.5461
-672.394 -4.46132 0 -70.0716
661.381 -4.73881 0 -77.2273
665.161 -5.00792 0 -77.202
-674.262 -4.4612 0 -70.2888
-5.91878 -4.69661 0 -75.2209
663.252 -4.864 0 -77.1956
-5.91593 -4.82286 0 -75.4904
-5.91793 -4.76025 0 -75.3313
-672.394 -4.46132 0 -70.0716
-668.707 -4.41754 0 -69.7174
657.693 -4.53063 0 -77.3643
661.381 -4.73881 0 -77.2273
-670.548 -4.44663 0 -69.884
-5.91687 -4.56812 0 -75.0882
659.533 -4.6276 0 -77.2864
-5.91878 -4.69661 0 -75.2209
-5.91843 -4.63244 0 -75.1431
-668.707 -4.41754 0 -69.7174
-665.045 -4.33324 0 -69.427
654.039 -4.36427 0 -77.5557
657.693 -4.53063 0 -77.3643
-666.872 -4.37841 0 -69.5665
-5.91053 -4.44014 0 -75.0276
655.861 -4.44408 0 -77.4556
-5.91687 -4.56812 0 -75.0882
-5.91421 -4.50396 0 -75.0515
-665.045 -4.33324 0 -69.427
-661.399 -4.23163 0 -69.1706
650.409 -4.21891 0 -77.7712
654.039 -4.36427 0 -77.5557
-663.222 -4.28414 0 -69.2959
-5.90045 -4.31395 0 -75.0019
652.223 -4.28934 0 -77.6618
-5.91053 -4.44014 0 -75.0276
-5.90591 -4.37677 0 -75.0121
-661.399 -4.23163 0 -69.1706
-657.756 -4.12152 0 -68.932
646.787 -4.08664 0 -77.9948
650.409 -4.21891 0 -77.7712
-659.577 -4.17707 0 -69.0497
-5.88746 -4.1901 0 -74.9924
648.597 -4.15169 0 -77.8826
-5.90045 -4.31395 0 -75.0019
-5.89427 -4.25172 0 -74.9958
-657.756 -4.12152 0 -68.932
-654.115 -4.00922 0 -68.7037
643.171 -3.96116 0 -78.2189
646.787 -4.08664 0 -77.9948
-655.936 -4.06552 0 -68.8169
-5.87231 -4.0686 0 -74.9895
644.979 -4.02319 0 -78.1071
-5.88746 -4.1901 0 -74.9924
-5.88011 -4.12906 0 -74.9905
-654.115 -4.00922 0 -68.7037
-650.473 -3.8969 0 -68.4818
639.556 -3.83991 0 -78.4402
643.171 -3.96116 0 -78.2189
-652.294 -3.95295 0 -68.592
-5.85565 -3.94927 0 -74.989
641.363 -3.90016 0 -78.33
-5.87231 -4.0686 0 -74.9895
-5.86413 -4.00868 0 -74.9891
-650.473 -3.8969 0 -68.4818
-646.83 -3.78577 0 -68.2648
635.942 -3.72115 0 -78.6574
639.556 -3.83991 0 -78.4402
-648.651 -3.84117 0 -68.3727
-5.838 -3.83185 0 -74.989
637.749 -3.78027 0 -78.5494
-5.85565 -3.94927 0 -74.989
-5.84692 -3.89034 0 -74.989
-646.83 -3.78577 0 -68.2648
-643.185 -3.67603 0 -68.0522
632.329 -3.60411 0 -78.87
635.942 -3.72115 0 -78.6574
-645.008 -3.73072 0 -68.158
-5.81974 -3.71604 0 -74.989
634.136 -3.66246 0 -78.7643
-5.838 -3.83185 0 -74.989
-5.82893 -3.77376 0 -74.989
-643.185 -3.67603 0 -68.0522
-639.541 -3.5677 0 -67.8435
628.716 -3.48829 0 -79.0781
632.329 -3.60411 0 -78.87
-641.363 -3.6217 0 -67.9473
-5.80113 -3.60159 0 -74.9887
630.522 -3.54607 0 -78.9746
-5.81974 -3.71604 0 -74.989
-5.81046 -3.65866 0 -74.9889
-639.541 -3.5677 0 -67.8435
-635.895 -3.46063 0 -67.6389
625.102 -3.37345 0 -79.2818
628.716 -3.48829 0 -79.0781
-637.718 -3.51402 0 -67.7407
-5.78237 -3.4883 0 -74.9882
626.909 -3.43076 0 -79.1805
-5.80113 -3.60159 0 -74.9887
-5.79176 -3.54481 0 -74.9885
-635.895 -3.46063 0 -67.6389
-632.25 -3.35467 0 -67.4382
621.488 -3.25941 0 -79.4811
625.102 -3.37345 0 -79.2818
-634.073 -3.40752 0 -67.5381
-5.76358 -3.37599 0 -74.9875
623.295 -3.31633 0 -79.382
-5.78237 -3.4883 0 -74.9882
-5.77298 -3.43203 0 -74.9878
-632.25 -3.35467 0 -67.4382
-628.605 -3.24969 0 -67.2415
617.874 -3.14608 0 -79.6762
621.488 -3.25941 0 -79.4811
-630.427 -3.30206 0 -67.3394
-5.74483 -3.26455 0 -74.9866
619.681 -3.20266 0 -79.5792
-5.76358 -3.37599 0 -74.9875
-5.7542 -3.32017 0 -74.987
-628.605 -3.24969 0 -67.2415
-624.959 -3.14559 0 -67.0488
614.26 -3.0334 0 -79.8672
617.874 -3.14608 0 -79.6762
-626.782 -3.19754 0 -67.1446
-5.72617 -3.1539 0 -74.9856
616.067 -3.08966 0 -79.7722
-5.74483 -3.26455 0 -74.9866
-5.73549 -3.20914 0 -74.9861
-624.959 -3.14559 0 -67.0488
-621.314 -3.0423 0 -66.86
610.646 -2.92132 0 -80.0541
614.26 -3.0334 0 -79.8672
-623.136 -3.09385 0 -66.9539
-5.70762 -3.04398 0 -74.9846
612.453 -2.97729 0 -79.9612
-5.72617 -3.1539 0 -74.9856
-5.71688 -3.09885 0 -74.9851
-621.314 -3.0423 0 -66.86
-617.668 -2.93978 0 -66.6751
607.032 -2.80983 0 -80.237
610.646 -2.92132 0 -80.0541
-619.491 -2.99095 0 -66.767
-5.68918 -2.93475 0 -74.9836
608.839 -2.86551 0 -80.1461
-5.70762 -3.04398 0 -74.9846
-5.69838 -2.98928 0 -74.9841
-617.668 -2.93978 0 -66.6751
-614.023 -2.83798 0 -66.4941
603.417 -2.69891 0 -80.416
607.032 -2.80983 0 -80.237
-615.845 -2.88879 0 -66.5841
-5.67087 -2.82618 0 -74.9824
605.224 -2.7543 0 -80.327
-5.68918 -2.93475 0 -74.9836
-5.68001 -2.88038 0 -74.983
-614.023 -2.83798 0 -66.4941
-610.377 -2.73689 0 -66.3171
599.802 -2.58856 0 -80.5909
603.417 -2.69891 0 -80.416
-612.2 -2.78735 0 -66.4051
-5.65269 -2.71826 0 -74.9813
601.61 -2.64367 0 -80.5039
-5.67087 -2.82618 0 -74.9824
-5.66177 -2.77213 0 -74.9819
-610.377 -2.73689 0 -66.3171
-606.732 -2.63649 0 -66.1438
596.187 -2.47877 0 -80.762
599.802 -2.58856 0 -80.5909
-608.554 -2.68661 0 -66.23
-5.63462 -2.61098 0 -74.9801
597.995 -2.53359 0 -80.6769
-5.65269 -2.71826 0 -74.9813
-5.64364 -2.66454 0 -74.9807
-606.732 -2.63649 0 -66.1438
-603.086 -2.53678 0 -65.9745
592.572 -2.36954 0 -80.9291
596.187 -2.47877 0 -80.762
-604.909 -2.58655 0 -66.0587
-5.61667 -2.50434 0 -74.9789
594.38 -2.42408 0 -80.846
-5.63462 -2.61098 0 -74.9801
-5.62563 -2.55758 0 -74.9795
-603.086 -2.53678 0 -65.9745
-599.441 -2.43774 0 -65.8089
588.957 -2.26089 0 -81.0923
592.572 -2.36954 0 -80.9291
-601.264 -2.48718 0 -65.8912
-5.59884 -2.39833 0 -74.9777
590.765 -2.31514 0 -81.0112
-5.61667 -2.50434 0 -74.9789
-5.60774 -2.45126 0 -74.9783
-599.441 -2.43774 0 -65.8089
-595.796 -2.33938 0 -65.6472
585.342 -2.1528 0 -81.2517
588.957 -2.26089 0 -81.0923
-597.619 -2.38848 0 -65.7276
-5.58112 -2.29297 0 -74.9764
587.149 -2.20677 0 -81.1725
-5.59884 -2.39833 0 -74.9777
-5.58996 -2.34557 0 -74.9771
-595.796 -2.33938 0 -65.6472
-592.151 -2.24169 0 -65.4892
581.726 -2.0453 0 -81.4073
585.342 -2.1528 0 -81.2517
-593.973 -2.29045 0 -65.5677
-5.5635 -2.18824 0 -74.9752
583.534 -2.09898 0 -81.33
-5.58112 -2.29297 0 -74.9764
-5.5723 -2.24052 0 -74.9758
-592.151 -2.24169 0 -65.4892
-588.506 -2.14466 0 -65.335
578.111 -1.93839 0 -81.559
581.726 -2.0453 0 -81.4073
-590.328 -2.19309 0 -65.4117
-5.54599 -2.08415 0 -74.9739
579.918 -1.99177 0 -81.4836
-5.5635 -2.18824 0 -74.9752
-5.55473 -2.13611 0 -74.9745
-588.506 -2.14466 0 -65.335
-584.861 -2.04829 0 -65.1845
574.495 -1.83207 0 -81.707
578.111 -1.93839 0 -81.559
-586.683 -2.09639 0 -65.2593
-5.52859 -1.98069 0 -74.9725
576.303 -1.88515 0 -81.6335
-5.54599 -2.08415 0 -74.9739
-5.53728 -2.03234 0 -74.9732
-584.861 -2.04829 0 -65.1845
-581.216 -1.95258 0 -65.0378
570.879 -1.72634 0 -81.8512
574.495 -1.83207 0 -81.707
-583.038 -2.00035 0 -65.1107
-5.5113 -1.87788 0 -74.9712
572.687 -1.77913 0 -81.7796
-5.52859 -1.98069 0 -74.9725
-5.51993 -1.92921 0 -74.9719
-581.216 -1.95258 0 -65.0378
-577.571 -1.85752 0 -64.8947
567.263 -1.62121 0 -81.9917
570.879 -1.72634 0 -81.8512
-579.394 -1.90497 0 -64.9658
-5.49411 -1.77571 0 -74.9698
569.071 -1.6737 0 -81.9219
-5.5113 -1.87788 0 -74.9712
-5.50269 -1.82672 0 -74.9705
-577.571 -1.85752 0 -64.8947
-573.926 -1.76312 0 -64.7553
563.647 -1.5167 0 -82.1284
567.263 -1.62121 0 -81.9917
-575.749 -1.81024 0 -64.8245
-5.47702 -1.67418 0 -74.9684
565.455 -1.56888 0 -82.0605
-5.49411 -1.77571 0 -74.9698
-5.48555 -1.72487 0 -74.9691
-573.926 -1.76312 0 -64.7553
-570.282 -1.66935 0 -64.6195
560.031 -1.41279 0 -82.2615
563.647 -1.5167 0 -82.1284
-572.104 -1.71615 0 -64.6869
-5.46004 -1.57329 0 -74.967
561.839 -1.46467 0 -82.1954
-5.47702 -1.67418 0 -74.9684
-5.46851 -1.62366 0 -74.9677
-570.282 -1.66935 0 -64.6195
-566.637 -1.57623 0 -64.4874
556.415 -1.3095 0 -82.3909
560.031 -1.41279 0 -82.2615
-568.459 -1.62271 0 -64.553
-5.44316 -1.47305 0 -74.9655
558.223 -1.36107 0 -82.3266
-5.46004 -1.57329 0 -74.967
-5.45158 -1.52309 0 -74.9663
-566.637 -1.57623 0 -64.4874
-562.993 -1.48375 0 -64.3588
552.799 -1.20683 0 -82.5166
556.415 -1.3095 0 -82.3909
-564.815 -1.52991 0 -64.4226
-5.42638 -1.37345 0 -74.9641
554.607 -1.25809 0 -82.4542
-5.44316 -1.47305 0 -74.9655
-5.43476 -1.42317 0 -74.9648
-562.993 -1.48375 0 -64.3588
-559.348 -1.39191 0 -64.2338
549.183 -1.10478 0 -82.6388
552.799 -1.20683 0 -82.5166
-561.171 -1.43775 0 -64.2959
-5.40971 -1.27449 0 -74.9626
550.991 -1.15573 0 -82.5781
-5.42638 -1.37345 0 -74.9641
-5.41803 -1.32388 0 -74.9633
-559.348 -1.39191 0 -64.2338
-555.704 -1.30069 0 -64.1124
545.566 -1.00337 0 -82.7573
549.183 -1.10478 0 -82.6388
-557.526 -1.34622 0 -64.1727
-5.39314 -1.17617 0 -74.9611
547.375 -1.054 0 -82.6985
-5.40971 -1.27449 0 -74.9626
-5.40141 -1.22525 0 -74.9618
-555.704 -1.30069 0 -64.1124
-552.06 -1.2101 0 -63.9945
541.95 -0.902582 0 -82.8723
545.566 -1.00337 0 -82.7573
-553.882 -1.25532 0 -64.053
-5.37668 -1.07849 0 -74.9595
543.758 -0.952894 0 -82.8152
-5.39314 -1.17617 0 -74.9611
-5.3849 -1.12725 0 -74.9603
-552.06 -1.2101 0 -63.9945
-548.416 -1.12014 0 -63.8801
538.334 -0.802434 0 -82.9837
541.95 -0.902582 0 -82.8723
-550.238 -1.16504 0 -63.9369
-5.36032 -0.981463 0 -74.958
540.142 -0.852428 0 -82.9284
-5.37668 -1.07849 0 -74.9595
-5.36849 -1.0299 0 -74.9588
-548.416 -1.12014 0 -63.8801
-544.772 -1.03079 0 -63.7692
534.717 -0.702927 0 -83.0916
538.334 -0.802434 0 -82.9837
-546.594 -1.07539 0 -63.8242
-5.34407 -0.885075 0 -74.9564
536.525 -0.7526 0 -83.0381
-5.36032 -0.981463 0 -74.958
-5.35218 -0.933188 0 -74.9572
-544.772 -1.03079 0 -63.7692
-541.128 -0.942063 0 -63.6618
531.101 -0.604064 0 -83.196
534.717 -0.702927 0 -83.0916
-542.95 -0.986351 0 -63.7151
-5.32792 -0.78933 0 -74.9549
532.909 -0.653415 0 -83.1442
-5.34407 -0.885075 0 -74.9564
-5.33598 -0.837122 0 -74.9557
-541.128 -0.942063 0 -63.6618
-537.485 -0.853946 0 -63.5578
527.484 -0.505849 0 -83.2969
531.101 -0.604064 0 -83.196
-539.306 -0.897928 0 -63.6093
-5.31187 -0.694229 0 -74.9533
529.292 -0.554876 0 -83.2469
-5.32792 -0.78933 0 -74.9549
-5.31988 -0.741699 0 -74.9541
-537.485 -0.853946 0 -63.5578
-533.841 -0.766438 0 -63.4572
523.867 -0.408285 0 -83.3944
527.484 -0.505849 0 -83.2969
-535.663 -0.810116 0 -63.507
-5.29593 -0.599771 0 -74.9517
525.676 -0.456986 0 -83.3461
-5.31187 -0.694229 0 -74.9533
-5.30389 -0.646919 0 -74.9525
-533.841 -0.766438 0 -63.4572
-530.198 -0.679536 0 -63.36
520.251 -0.311377 0 -83.4885
523.867 -0.408285 0 -83.3944
-532.019 -0.722911 0 -63.4081
-5.28009 -0.505956 0 -74.95
522.059 -0.359749 0 -83.4419
-5.29593 -0.599771 0 -74.9517
-5.288 -0.552783 0 -74.9508
-530.198 -0.679536 0 -63.36
-526.554 -0.593236 0 -63.2661
516.634 -0.215126 0 -83.5791
520.251 -0.311377 0 -83.4885
-528.376 -0.636311 0 -63.3126
-5.26436 -0.412785 0 -74.9484
518.442 -0.263169 0 -83.5342
-5.28009 -0.505956 0 -74.95
-5.27221 -0.45929 0 -74.9492
-526.554 -0.593236 0 -63.2661
-522.911 -0.507535 0 -63.1756
513.017 -0.119537 0 -83.6664
516.634 -0.215126 0 -83.5791
-524.733 -0.550311 0 -63.2205
-5.24873 -0.320257 0 -74.9467
514.825 -0.167249 0 -83.6232
-5.26436 -0.412785 0 -74.9484
-5.25653 -0.366441 0 -74.9476
-522.911 -0.507535 0 -63.1756
-519.268 -0.422431 0 -63.0885
509.4 -0.0246127 0 -83.7503
513.017 -0.119537 0 -83.6664
-521.09 -0.464909 0 -63.1316
-5.23321 -0.228373 0 -74.945
511.209 -0.0719915 0 -83.7088
-5.24873 -0.320257 0 -74.9467
-5.24096 -0.274235 0 -74.9459
-519.268 -0.422431 0 -63.0885
-515.625 -0.337919 0 -63.0046
505.783 0.0696436 0 -83.8309
509.4 -0.0246127 0 -83.7503
-517.447 -0.380101 0 -63.0461
-5.21779 -0.137133 0 -74.9434
507.592 0.0225992 0 -83.791
-5.23321 -0.228373 0 -74.945
-5.22549 -0.182673 0 -74.9442
-515.625 -0.337919 0 -63.0046
-511.983 -0.253998 0 -62.924
502.167 0.163229 0 -83.9082
505.783 0.0696436 0 -83.8309
-513.804 -0.295885 0 -62.9639
-5.20248 -0.0465365 0 -74.9417
503.975 0.11652 0 -83.87
-5.21779 -0.137133 0 -74.9434
-5.21012 -0.0917543 0 -74.9425
-511.983 -0.253998 0 -62.924
-508.34 -0.170663 0 -62.8467
498.55 0.25614 0 -83.9822
502.167 0.163229 0 -83.9082
-510.161 -0.212257 0 -62.8849
-5.18727 0.0434164 0 -74.94
500.358 0.209769 0 -83.9456
-5.20248 -0.0465365 0 -74.9417
-5.19486 -0.00147956 0 -74.9408
-508.34 -0.170663 0 -62.8467
-504.698 -0.0879125 0 -62.7726
494.933 0.348373 0 -84.053
498.55 0.25614 0 -83.9822
-506.519 -0.129215 0 -62.8092
-5.17217 0.132726 0 -74.9382
496.741 0.302341 0 -84.018
-5.18727 0.0434164 0 -74.94
-5.1797 0.0881515 0 -74.9391
-504.698 -0.0879125 0 -62.7726
-501.056 -0.00574331 0 -62.7017
491.316 0.439927 0 -84.1205
494.933 0.348373 0 -84.053
-502.877 -0.0467554 0 -62.7367
-5.15717 0.221391 0 -74.9365
493.124 0.394235 0 -84.0871
-5.17217 0.132726 0 -74.9382
-5.16465 0.177139 0 -74.9374
-501.056 -0.00574331 0 -62.7017
-497.414 0.0758472 0 -62.6339
487.699 0.530798 0 -84.1848
491.316 0.439927 0 -84.1205
-499.235 0.0351241 0 -62.6674
-5.14228 0.309412 0 -74.9347
489.507 0.485448 0 -84.1531
-5.15717 0.221391 0 -74.9365
-5.14971 0.265482 0 -74.9356
-497.414 0.0758472 0 -62.6339
-493.772 0.156862 0 -62.5694
484.082 0.620983 0 -84.2459
487.699 0.530798 0 -84.1848
-495.593 0.116426 0 -62.6013
-5.12749 0.39679 0 -74.933
485.89 0.575976 0 -84.2158
-5.14228 0.309412 0 -74.9347
-5.13487 0.353181 0 -74.9339
-493.772 0.156862 0 -62.5694
-490.13 0.237303 0 -62.508
480.465 0.71048 0 -84.3039
484.082 0.620983 0 -84.2459
-491.951 0.197154 0 -62.5383
-5.11281 0.483523 0 -74.9312
482.273 0.665818 0 -84.2753
-5.12749 0.39679 0 -74.933
-5.12013 0.440237 0 -74.9321
-490.13 0.237303 0 -62.508
-486.488 0.317174 0 -62.4497
476.848 0.799286 0 -84.3587
480.465 0.71048 0 -84.3039
-488.309 0.27731 0 -62.4785
-5.09823 0.569613 0 -74.9294
478.657 0.754969 0 -84.3317
-5.11281 0.483523 0 -74.9312
-5.1055 0.526648 0 -74.9303
-486.488 0.317174 0 -62.4497
-482.847 0.396476 0 -62.3945
473.231 0.887398 0 -84.4104
476.848 0.799286 0 -84.3587
-484.668 0.356896 0 -62.4217
-5.08376 0.655058 0 -74.9277
475.04 0.843429 0 -84.385
-5.09823 0.569613 0 -74.9294
-5.09098 0.612416 0 -74.9286
-482.847 0.396476 0 -62.3945
-479.206 0.475212 0 -62.3424
469.614 0.974814 0 -84.459
473.231 0.887398 0 -84.4104
-481.026 0.435915 0 -62.368
-5.06939 0.739859 0 -74.9259
471.423 0.931193 0 -84.4351
-5.08376 0.655058 0 -74.9277
-5.07656 0.697539 0 -74.9268
-479.206 0.475212 0 -62.3424
-475.565 0.553385 0 -62.2933
465.997 1.06153 0 -84.5046
469.614 0.974814 0 -84.459
-477.385 0.514369 0 -62.3174
-5.05513 0.824017 0 -74.9241
467.806 1.01826 0 -84.4822
-5.06939 0.739859 0 -74.9259
-5.06225 0.782019 0 -74.925
-475.565 0.553385 0 -62.2933
-471.924 0.630996 0 -62.2472
462.38 1.14755 0 -84.5471
465.997 1.06153 0 -84.5046
-473.744 0.592261 0 -62.2699
-5.04098 0.90753 0 -74.9223
464.189 1.10463 0 -84.5262
-5.05513 0.824017 0 -74.9241
-5.04804 0.865854 0 -74.9232
-471.924 0.630996 0 -62.2472
-468.283 0.708049 0 -62.2042
458.763 1.23286 0 -84.5866
462.38 1.14755 0 -84.5471
-470.104 0.669592 0 -62.2253
-5.02693 0.990399 0 -74.9204
460.572 1.19029 0 -84.5672
-5.04098 0.90753 0 -74.9223
-5.03394 0.949045 0 -74.9213
-468.283 0.708049 0 -62.2042
-464.643 0.784544 0 -62.1641
455.146 1.31747 0 -84.6231
458.763 1.23286 0 -84.5866
-466.463 0.746366 0 -62.1838
-5.01299 1.07262 0 -74.9186
456.955 1.27526 0 -84.6052
-5.02693 0.990399 0 -74.9204
-5.01995 1.03159 0 -74.9195
-464.643 0.784544 0 -62.1641
-461.003 0.860484 0 -62.127
451.529 1.40137 0 -84.6567
455.146 1.31747 0 -84.6231
-462.823 0.822583 0 -62.1452
-4.99915 1.1542 0 -74.9168
453.338 1.35951 0 -84.6403
-5.01299 1.07262 0 -74.9186
-5.00606 1.11349 0 -74.9177
-461.003 0.860484 0 -62.127
-457.363 0.935872 0 -62.0928
447.913 1.48457 0 -84.6872
451.529 1.40137 0 -84.6567
-459.183 0.898247 0 -62.1095
-4.98542 1.23514 0 -74.9149
449.721 1.44306 0 -84.6723
-4.99915 1.1542 0 -74.9168
-4.99227 1.19475 0 -74.9159
-457.363 0.935872 0 -62.0928
-453.723 1.01071 0 -62.0615
444.296 1.56705 0 -84.7149
447.913 1.48457 0 -84.6872
-455.543 0.973359 0 -62.0768
-4.97179 1.31543 0 -74.9131
446.104 1.52589 0 -84.7014
-4.98542 1.23514 0 -74.9149
-4.97859 1.27537 0 -74.914
-453.723 1.01071 0 -62.0615
-450.083 1.085 0 -62.0331
440.679 1.64881 0 -84.7397
444.296 1.56705 0 -84.7149
-451.903 1.04792 0 -62.0469
-4.95828 1.39508 0 -74.9113
442.487 1.60802 0 -84.7276
-4.97179 1.31543 0 -74.9131
-4.96502 1.35534 0 -74.9122
-450.083 1.085 0 -62.0331
-446.444 1.15874 0 -62.0076
437.062 1.72986 0 -84.7616
440.679 1.64881 0 -84.7397
-448.263 1.12194 0 -62.02
-4.94486 1.47408 0 -74.9094
438.87 1.68943 0 -84.751
-4.95828 1.39508 0 -74.9113
-4.95156 1.43466 0 -74.9103
-446.444 1.15874 0 -62.0076
-442.804 1.23193 0 -61.9849
433.445 1.8102 0 -84.7806
437.062 1.72986 0 -84.7616
-444.624 1.1954 0 -61.9959
-4.93156 1.55244 0 -74.9076
435.254 1.77012 0 -84.7714
-4.94486 1.47408 0 -74.9094
-4.9382 1.51334 0 -74.9085
-442.804 1.23193 0 -61.9849
-439.165 1.30458 0 -61.965
429.828 1.88981 0 -84.7968
433.445 1.8102 0 -84.7806
-440.985 1.26833 0 -61.9746
-4.91836 1.63015 0 -74.9057
431.637 1.8501 0 -84.7891
-4.93156 1.55244 0 -74.9076
-4.92494 1.59138 0 -74.9066
-439.165 1.30458 0 -61.965
-435.526 1.37669 0 -61.9479
426.212 1.96871 0 -84.8102
429.828 1.88981 0 -84.7968
-437.346 1.34071 0 -61.9561
-4.90526 1.70722 0 -74.9039
428.02 1.92935 0 -84.8039
-4.91836 1.63015 0 -74.9057
-4.9118 1.66877 0 -74.9048
-435.526 1.37669 0 -61.9479
-431.888 1.44826 0 -61.9336
422.595 2.04688 0 -84.8209
426.212 1.96871 0 -84.8102
-433.707 1.41255 0 -61.9405
-4.89228 1.78365 0 -74.902
424.403 2.00788 0 -84.8159
-4.90526 1.70722 0 -74.9039
-4.89876 1.74552 0 -74.9029
-431.888 1.44826 0 -61.9336
-428.249 1.51929 0 -61.9221
418.978 2.12433 0 -84.8288
422.595 2.04688 0 -84.8209
-430.068 1.48385 0 -61.9275
-4.8794 1.85943 0 -74.9001
420.786 2.08569 0 -84.8252
-4.89228 1.78365 0 -74.902
-4.88582 1.82162 0 -74.9011
-428.249 1.51929 0 -61.9221
-424.611 1.58979 0 -61.9133
415.361 2.20105 0 -84.8339
418.978 2.12433 0 -84.8288
-426.43 1.55461 0 -61.9173
-4.86662 1.93456 0 -74.8983
417.17 2.16278 0 -84.8317
-4.8794 1.85943 0 -74.9001
-4.873 1.89708 0 -74.8992
-424.611 1.58979 0 -61.9133
-420.973 1.65974 0 -61.9071
411.745 2.27705 0 -84.8364
415.361 2.20105 0 -84.8339
-422.792 1.62483 0 -61.9099
-4.85396 2.00906 0 -74.8964
413.553 2.23914 0 -84.8355
-4.86662 1.93456 0 -74.8983
-4.86028 1.97189 0 -74.8973
-420.973 1.65974 0 -61.9071
-417.335 1.72917 0 -61.9037
408.128 2.35231 0 -84.8361
411.745 2.27705 0 -84.8364
-419.154 1.69452 0 -61.9051
-4.8414 2.0829 0 -74.8945
409.936 2.31477 0 -84.8366
-4.85396 2.00906 0 -74.8964
-4.84766 2.04606 0 -74.8955
-417.335 1.72917 0 -61.9037
-413.697 1.79806 0 -61.9029
404.511 2.42685 0 -84.8333
408.128 2.35231 0 -84.8361
-415.516 1.76368 0 -61.903
-4.82894 2.1561 0 -74.8927
406.32 2.38967 0 -84.835
-4.8414 2.0829 0 -74.8945
-4.83516 2.11958 0 -74.8936
-413.697 1.79806 0 -61.9029
-410.06 1.86641 0 -61.9048
400.895 2.50066 0 -84.8277
404.511 2.42685 0 -84.8333
-411.879 1.8323 0 -61.9035
-4.8166 2.22866 0 -74.8908
402.703 2.46384 0 -84.8308
-4.82894 2.1561 0 -74.8927
-4.82276 2.19246 0 -74.8917
-410.06 1.86641 0 -61.9048
-406.423 1.93424 0 -61.9092
397.278 2.57373 0 -84.8196
400.895 2.50066 0 -84.8277
-408.241 1.90039 0 -61.9067
-4.80436 2.30057 0 -74.8889
399.087 2.53728 0 -84.824
-4.8166 2.22866 0 -74.8908
-4.81046 2.2647 0 -74.8899
-406.423 1.93424 0 -61.9092
-402.786 2.00154 0 -61.9163
393.662 2.64607 0 -84.8089
397.278 2.57373 0 -84.8196
-404.604 1.96795 0 -61.9124
-4.79222 2.37184 0 -74.8871
395.47 2.60999 0 -84.8145
-4.80436 2.30057 0 -74.8889
-4.79828 2.33629 0 -74.888
-402.786 2.00154 0 -61.9163
-399.149 2.0683 0 -61.9259
390.045 2.71768 0 -84.7956
393.662 2.64607 0 -84.8089
-400.967 2.03499 0 -61.9207
-4.7802 2.44247 0 -74.8852
391.854 2.68197 0 -84.8025
-4.79222 2.37184 0 -74.8871
-4.7862 2.40724 0 -74.8862
-399.149 2.0683 0 -61.9259
-395.512 2.13454 0 -61.938
386.429 2.78855 0 -84.7797
390.045 2.71768 0 -84.7956
-397.331 2.10149 0 -61.9316
-4.76828 2.51244 0 -74.8834
388.237 2.7532 0 -84.788
-4.7802 2.44247 0 -74.8852
-4.77423 2.47754 0 -74.8843
-395.512 2.13454 0 -61.938
-391.876 2.20026 0 -61.9527
382.813 2.85868 0 -84.7614
386.429 2.78855 0 -84.7797
-393.694 2.16747 0 -61.945
-4.75647 2.58178 0 -74.8815
384.621 2.82371 0 -84.7709
-4.76828 2.51244 0 -74.8834
-4.76236 2.54719 0 -74.8824
-391.876 2.20026 0 -61.9527
-388.24 2.26545 0 -61.9699
379.196 2.92808 0 -84.7406
382.813 2.85868 0 -84.7614
-390.058 2.23292 0 -61.961
-4.74476 2.65047 0 -74.8797
381.004 2.89347 0 -84.7513
-4.75647 2.58178 0 -74.8815
-4.7506 2.6162 0 -74.8806
-388.24 2.26545 0 -61.9699
-384.604 2.33011 0 -61.9895
375.58 2.99673 0 -84.7173
379.196 2.92808 0 -84.7406
-386.422 2.29784 0 -61.9794
-4.73317 2.71851 0 -74.8778
377.388 2.9625 0 -84.7292
-4.74476 2.65047 0 -74.8797
-4.73895 2.68457 0 -74.8787
-384.604 2.33011 0 -61.9895
-380.968 2.39425 0 -62.0116
371.964 3.06465 0 -84.6915
375.58 2.99673 0 -84.7173
-382.786 2.36225 0 -62.0002
-4.72168 2.78591 0 -74.876
373.772 3.03078 0 -84.7047
-4.73317 2.71851 0 -74.8778
-4.72741 2.75229 0 -74.8769
-380.968 2.39425 0 -62.0116
-377.333 2.45787 0 -62.0361
368.347 3.13183 0 -84.6634
371.964 3.06465 0 -84.6915
-379.151 2.42612 0 -62.0235
-4.7103 2.85267 0 -74.8741
370.156 3.09833 0 -84.6777
-4.72168 2.78591 0 -74.876
-4.71597 2.81937 0 -74.875
-377.333 2.45787 0 -62.0361
-373.698 2.52096 0 -62.063
364.731 3.19827 0 -84.6328
368.347 3.13183 0 -84.6634
-375.515 2.48948 0 -62.0493
-4.69902 2.91878 0 -74.8723
366.539 3.16514 0 -84.6484
-4.7103 2.85267 0 -74.8741
-4.70465 2.8858 0 -74.8732
-373.698 2.52096 0 -62.063
-370.063 2.58353 0 -62.0923
361.115 3.26396 0 -84.5999
364.731 3.19827 0 -84.6328
-371.88 2.55231 0 -62.0774
-4.68786 2.98424 0 -74.8704
362.923 3.23121 0 -84.6166
-4.69902 2.91878 0 -74.8723
-4.69343 2.95159 0 -74.8714
-370.063 2.58353 0 -62.0923
-366.428 2.64558 0 -62.124
357.499 3.32891 0 -84.5646
361.115 3.26396 0 -84.5999
-368.245 2.61462 0 -62.1079
-4.6768 3.04906 0 -74.8686
359.307 3.29653 0 -84.5825
-4.68786 2.98424 0 -74.8704
-4.68231 3.01673 0 -74.8695
-366.428 2.64558 0 -62.124
-362.793 2.70711 0 -62.158
353.883 3.39312 0 -84.527
357.499 3.32891 0 -84.5646
-364.611 2.67641 0 -62.1407
-4.66585 3.11324 0 -74.8668
355.691 3.36111 0 -84.5461
-4.6768 3.04906 0 -74.8686
-4.67131 3.08123 0 -74.8677
-362.793 2.70711 0 -62.158
-359.159 2.76812 0 -62.1943
350.267 3.45659 0 -84.4871
353.883 3.39312 0 -84.527
-360.976 2.73768 0 -62.1759
-4.655 3.17677 0 -74.865
352.075 3.42495 0 -84.5073
-4.66585 3.11324 0 -74.8668
-4.66041 3.14508 0 -74.8659
-359.159 2.76812 0 -62.1943
-355.525 2.82861 0 -62.2329
346.651 3.51931 0 -84.4449
350.267 3.45659 0 -84.4871
-357.342 2.79843 0 -62.2133
-4.64427 3.23965 0 -74.8632
348.459 3.48805 0 -84.4663
-4.655 3.17677 0 -74.865
-4.64962 3.20829 0 -74.8641
-355.525 2.82861 0 -62.2329
-351.891 2.88858 0 -62.2737
343.035 3.58129 0 -84.4005
346.651 3.51931 0 -84.4449
-353.708 2.85866 0 -62.253
-4.63364 3.30189 0 -74.8614
344.843 3.5504 0 -84.423
-4.64427 3.23965 0 -74.8632
-4.63894 3.27085 0 -74.8623
-351.891 2.88858 0 -62.2737
-348.257 2.94804 0 -62.3169
339.419 3.64253 0 -84.3538
343.035 3.58129 0 -84.4005
-350.074 2.91838 0 -62.295
-4.62312 3.36349 0 -74.8596
341.227 3.612 0 -84.3774
-4.63364 3.30189 0 -74.8614
-4.62837 3.33277 0 -74.8605
-348.257 2.94804 0 -62.3169
-344.624 3.00697 0 -62.3622
335.803 3.70301 0 -84.3049
339.419 3.64253 0 -84.3538
-346.441 2.97757 0 -62.3392
-4.61271 3.42444 0 -74.8578
337.611 3.67286 0 -84.3296
-4.62312 3.36349 0 -74.8596
-4.6179 3.39404 0 -74.8587
-344.624 3.00697 0 -62.3622
-340.991 3.06539 0 -62.4097
332.188 3.76276 0 -84.2539
335.803 3.70301 0 -84.3049
-342.807 3.03624 0 -62.3857
-4.60241 3.48474 0 -74.856
333.996 3.73298 0 -84.2797
-4.61271 3.42444 0 -74.8578
-4.60755 3.45467 0 -74.8569
-340.991 3.06539 0 -62.4097
-337.358 3.12328 0 -62.4594
328.572 3.82175 0 -84.2007
332.188 3.76276 0 -84.2539
-339.174 3.0944 0 -62.4343
-4.59221 3.5444 0 -74.8542
330.38 3.79235 0 -84.2275
-4.60241 3.48474 0 -74.856
-4.5973 3.51465 0 -74.8551
-337.358 3.12328 0 -62.4594
-333.725 3.18066 0 -62.5112
324.956 3.88001 0 -84.1453
328.572 3.82175 0 -84.2007
-335.542 3.15204 0 -62.485
-4.58213 3.60342 0 -74.8525
326.764 3.85097 0 -84.1732
-4.59221 3.5444 0 -74.8542
-4.58716 3.57399 0 -74.8534
-333.725 3.18066 0 -62.5112
-330.093 3.23752 0 -62.5652
321.341 3.93751 0 -84.0878
324.956 3.88001 0 -84.1453
-331.909 3.20916 0 -62.538
-4.57215 3.66179 0 -74.8507
323.148 3.90885 0 -84.1168
-4.58213 3.60342 0 -74.8525
-4.57712 3.63269 0 -74.8516
-330.093 3.23752 0 -62.5652
-326.46 3.29387 0 -62.6213
317.725 3.99427 0 -84.0283
321.341 3.93751 0 -84.0878
-328.277 3.26576 0 -62.593
-4.56228 3.71952 0 -74.849
319.533 3.96599 0 -84.0583
-4.57215 3.66179 0 -74.8507
-4.5672 3.69073 0 -74.8498
-326.46 3.29387 0 -62.6213
-322.828 3.34969 0 -62.6794
314.11 4.05029 0 -83.9667
317.725 3.99427 0 -84.0283
-324.644 3.32185 0 -62.6501
-4.55252 3.7766 0 -74.8472
315.917 4.02237 0 -83.9978
-4.56228 3.71952 0 -74.849
-4.55738 3.74814 0 -74.8481
-322.828 3.34969 0 -62.6794
-319.197 3.405 0 -62.7396
310.494 4.10555 0 -83.9031
314.11 4.05029 0 -83.9667
-321.012 3.37741 0 -62.7093
-4.54286 3.83303 0 -74.8455
312.302 4.07801 0 -83.9351
-4.55252 3.7766 0 -74.8472
-4.54768 3.8049 0 -74.8464
-319.197 3.405 0 -62.7396
-315.565 3.45979 0 -62.8019
306.879 4.16007 0 -83.8374
310.494 4.10555 0 -83.9031
-317.381 3.43246 0 -62.7705
-4.53332 3.88882 0 -74.8438
308.686 4.13291 0 -83.8705
-4.54286 3.83303 0 -74.8455
-4.53808 3.86101 0 -74.8446
-315.565 3.45979 0 -62.8019
-311.934 3.51407 0 -62.8662
303.263 4.21385 0 -83.7697
306.879 4.16007 0 -83.8374
-313.749 3.487 0 -62.8338
-4.52388 3.94397 0 -74.8421
305.071 4.18705 0 -83.8038
-4.53332 3.88882 0 -74.8438
-4.52859 3.91648 0 -74.8429
-311.934 3.51407 0 -62.8662
-308.303 3.56782 0 -62.9324
299.648 4.26688 0 -83.7001
303.263 4.21385 0 -83.7697
-310.118 3.54101 0 -62.899
-4.51455 3.99847 0 -74.8404
301.455 4.24046 0 -83.7352
-4.52388 3.94397 0 -74.8421
-4.5192 3.9713 0 -74.8412
-308.303 3.56782 0 -62.9324
-304.672 3.62106 0 -63.0006
296.033 4.31916 0 -83.6286
299.648 4.26688 0 -83.7001
-306.487 3.59451 0 -62.9663
-4.50534 4.05233 0 -74.8387
297.84 4.29311 0 -83.6646
-4.51455 3.99847 0 -74.8404
-4.50993 4.02548 0 -74.8396
-304.672 3.62106 0 -63.0006
-301.041 3.67378 0 -63.0708
292.417 4.3707 0 -83.5551
296.033 4.31916 0 -83.6286
-302.856 3.64749 0 -63.0355
-4.49623 4.10554 0 -74.837
294.225 4.34502 0 -83.592
-4.50534 4.05233 0 -74.8387
-4.50077 4.07901 0 -74.8379
-301.041 3.67378 0 -63.0708
-297.41 3.72598 0 -63.1429
288.802 4.42149 0 -83.4797
292.417 4.3707 0 -83.5551
-299.226 3.69995 0 -63.1066
-4.48722 4.1581 0 -74.8354
290.61 4.39619 0 -83.5176
-4.49623 4.10554 0 -74.837
-4.49171 4.1319 0 -74.8362
-297.41 3.72598 0 -63.1429
-293.78 3.77766 0 -63.2168
285.187 4.47154 0 -83.4024
288.802 4.42149 0 -83.4797
-295.595 3.75189 0 -63.1796
-4.47833 4.21002 0 -74.8337
286.994 4.44661 0 -83.4413
-4.48722 4.1581 0 -74.8354
-4.48276 4.18414 0 -74.8346
-293.78 3.77766 0 -63.2168
-290.15 3.82883 0 -63.2927
281.572 4.52084 0 -83.3233
285.187 4.47154 0 -83.4024
-291.965 3.80331 0 -63.2545
-4.46955 4.2613 0 -74.8321
283.379 4.49628 0 -83.3631
-4.47833 4.21002 0 -74.8337
-4.47393 4.23574 0 -74.8329
-290.15 3.82883 0 -63.2927
-286.521 3.87947 0 -63.3704
277.957 4.5694 0 -83.2424
281.572 4.52084 0 -83.3233
-288.335 3.85421 0 -63.3313
-4.46087 4.31193 0 -74.8305
279.764 4.54521 0 -83.2831
-4.46955 4.2613 0 -74.8321
-4.4652 4.28669 0 -74.8313
-286.521 3.87947 0 -63.3704
-282.891 3.9296 0 -63.4499
274.342 4.61721 0 -83.1596
277.957 4.5694 0 -83.2424
-284.706 3.9046 0 -63.4099
-4.45231 4.36191 0 -74.8289
276.149 4.5934 0 -83.2012
-4.46087 4.31193 0 -74.8305
-4.45658 4.337 0 -74.8297
-282.891 3.9296 0 -63.4499
-279.262 3.9792 0 -63.5313
270.727 4.66428 0 -83.0751
274.342 4.61721 0 -83.1596
-281.076 3.95446 0 -63.4904
-4.44385 4.41126 0 -74.8273
272.534 4.64084 0 -83.1176
-4.45231 4.36191 0 -74.8289
-4.44807 4.38667 0 -74.8281
-279.262 3.9792 0 -63.5313
-275.633 4.02828 0 -63.6144
267.112 4.71061 0 -82.9889
270.727 4.66428 0 -83.0751
-277.447 4.00381 0 -63.5726
-4.43551 4.45995 0 -74.8257
268.919 4.68754 0 -83.0322
-4.44385 4.41126 0 -74.8273
-4.43967 4.43568 0 -74.8265
-275.633 4.02828 0 -63.6144
-272.004 4.07684 0 -63.6993
263.497 4.7562 0 -82.9009
267.112 4.71061 0 -82.9889
-273.818 4.05263 0 -63.6566
-4.42727 4.508 0 -74.8241
265.304 4.7335 0 -82.9451
-4.43551 4.45995 0 -74.8257
-4.43137 4.48406 0 -74.8249
-272.004 4.07684 0 -63.6993
-268.375 4.12488 0 -63.7859
259.882 4.80104 0 -82.8112
263.497 4.7562 0 -82.9009
-270.189 4.10093 0 -63.7424
-4.41914 4.55541 0 -74.8226
261.689 4.77871 0 -82.8562
-4.42727 4.508 0 -74.8241
-4.42319 4.53178 0 -74.8233
-268.375 4.12488 0 -63.7859
-264.747 4.1724 0 -63.8742
256.267 4.84514 0 -82.7198
259.882 4.80104 0 -82.8112
-266.561 4.14871 0 -63.8298
-4.41112 4.60217 0 -74.821
258.074 4.82318 0 -82.7657
-4.41914 4.55541 0 -74.8226
-4.41512 4.57887 0 -74.8218
-264.747 4.1724 0 -63.8742
-261.118 4.2194 0 -63.9642
252.652 4.8885 0 -82.6267
256.267 4.84514 0 -82.7198
-262.933 4.19596 0 -63.919
-4.40321 4.64828 0 -74.8195
254.459 4.86692 0 -82.6734
-4.41112 4.60217 0 -74.821
-4.40715 4.62531 0 -74.8203
-261.118 4.2194 0 -63.9642
-257.49 4.26587 0 -64.0559
249.037 4.93112 0 -82.532
252.652 4.8885 0 -82.6267
-259.304 4.2427 0 -64.0098
-4.39541 4.69375 0 -74.818
250.845 4.90991 0 -82.5796
-4.40321 4.64828 0 -74.8195
-4.3993 4.6711 0 -74.8187
-257.49 4.26587 0 -64.0559
-253.863 4.31181 0 -64.1492
245.423 4.97301 0 -82.4357
249.037 4.93112 0 -82.532
-255.677 4.2889 0 -64.1024
-4.38772 4.73858 0 -74.8165
247.23 4.95216 0 -82.4841
-4.39541 4.69375 0 -74.818
-4.39155 4.71625 0 -74.8172
-253.863 4.31181 0 -64.1492
-250.235 4.35723 0 -64.2442
241.808 5.01415 0 -82.3378
245.423 4.97301 0 -82.4357
-252.049 4.33459 0 -64.1965
-4.38014 4.78276 0 -74.815
243.615 4.99367 0 -82.387
-4.38772 4.73858 0 -74.8165
-4.38392 4.76075 0 -74.8158
-250.235 4.35723 0 -64.2442
-246.608 4.40213 0 -64.3407
238.193 5.05455 0 -82.2384
241.808 5.01415 0 -82.3378
-248.421 4.37975 0 -64.2922
-4.37267 4.82629 0 -74.8136
240 5.03444 0 -82.2883
-4.38014 4.78276 0 -74.815
-4.37639 4.80461 0 -74.8143
-246.608 4.40213 0 -64.3407
-242.981 4.4465 0 -64.4388
234.578 5.09422 0 -82.1374
238.193 5.05455 0 -82.2384
-244.794 4.42438 0 -64.3896
-4.3653 4.86918 0 -74.8121
236.386 5.07448 0 -82.1881
-4.37267 4.82629 0 -74.8136
-4.36897 4.84782 0 -74.8128
-242.981 4.4465 0 -64.4388
-239.354 4.49034 0 -64.5385
230.964 5.13315 0 -82.0348
234.578 5.09422 0 -82.1374
-241.167 4.46848 0 -64.4885
-4.35805 4.91143 0 -74.8107
232.771 5.11378 0 -82.0863
-4.3653 4.86918 0 -74.8121
-4.36166 4.89039 0 -74.8114
-239.354 4.49034 0 -64.5385
-235.727 4.53365 0 -64.6397
227.349 5.17135 0 -81.9308
230.964 5.13315 0 -82.0348
-237.54 4.51206 0 -64.5889
-4.35091 4.95303 0 -74.8093
229.157 5.15234 0 -81.983
-4.35805 4.91143 0 -74.8107
-4.35447 4.93231 0 -74.81
-235.727 4.53365 0 -64.6397
-232.101 4.57643 0 -64.7424
223.735 5.20881 0 -81.8253
227.349 5.17135 0 -81.9308
-233.914 4.55511 0 -64.6908
-4.34388 4.99398 0 -74.8079
225.542 5.19017 0 -81.8783
-4.35091 4.95303 0 -74.8093
-4.34738 4.97359 0 -74.8086
-232.101 4.57643 0 -64.7424
-228.474 4.61868 0 -64.8466
220.12 5.24554 0 -81.7184
223.735 5.20881 0 -81.8253
-230.288 4.59762 0 -64.7943
-4.33695 5.0343 0 -74.8065
221.927 5.22727 0 -81.772
-4.34388 4.99398 0 -74.8079
-4.3404 5.01422 0 -74.8072
-228.474 4.61868 0 -64.8466
-224.848 4.6604 0 -64.9522
216.506 5.28154 0 -81.61
220.12 5.24554 0 -81.7184
-226.661 4.63961 0 -64.8992
-4.33014 5.07396 0 -74.8051
218.313 5.26363 0 -81.6644
-4.33695 5.0343 0 -74.8065
-4.33353 5.05421 0 -74.8058
-224.848 4.6604 0 -64.9522
-221.223 4.70159 0 -65.0593
212.891 5.3168 0 -81.5003
216.506 5.28154 0 -81.61
-223.035 4.68106 0 -65.0056
-4.32343 5.11298 0 -74.8038
214.698 5.29926 0 -81.5553
-4.33014 5.07396 0 -74.8051
-4.32677 5.09355 0 -74.8044
-221.223 4.70159 0 -65.0593
-217.597 4.74225 0 -65.1678
209.277 5.35133 0 -81.3891
212.891 5.3168 0 -81.5003
-219.41 4.72199 0 -65.1133
-4.31684 5.15136 0 -74.8024
211.084 5.33416 0 -81.4449
-4.32343 5.11298 0 -74.8038
-4.32012 5.13225 0 -74.8031
-217.597 4.74225 0 -65.1678
-213.972 4.78237 0 -65.2776
205.662 5.38514 0 -81.2766
209.277 5.35133 0 -81.3891
-215.784 4.76237 0 -65.2225
-4.31036 5.18909 0 -74.8011
207.469 5.36833 0 -81.3331
-4.31684 5.15136 0 -74.8024
-4.31359 5.1703 0 -74.8018
-213.972 4.78237 0 -65.2776
-210.346 4.82195 0 -65.3889
202.048 5.41821 0 -81.1628
205.662 5.38514 0 -81.2766
-212.159 4.80223 0 -65.3331
-4.30398 5.22617 0 -74.7998
203.855 5.40177 0 -81.2199
-4.31036 5.18909 0 -74.8011
-4.30716 5.20771 0 -74.8005
-210.346 4.82195 0 -65.3889
-206.721 4.861 0 -65.5015
198.433 5.45056 0 -81.0477
202.048 5.41821 0 -81.1628
-208.534 4.84154 0 -65.445
-4.29772 5.26261 0 -74.7986
200.241 5.43448 0 -81.1054
-4.30398 5.22617 0 -74.7998
-4.30084 5.24447 0 -74.7992
-206.721 4.861 0 -65.5015
-203.097 4.89951 0 -65.6154
194.819 5.48219 0 -80.9313
198.433 5.45056 0 -81.0477
-204.909 4.88032 0 -65.5583
-4.29157 5.2984 0 -74.7973
196.626 5.46646 0 -80.9896
-4.29772 5.26261 0 -74.7986
-4.29463 5.28059 0 -74.7979
-203.097 4.89951 0 -65.6154
-199.472 4.93748 0 -65.7306
191.205 5.51308 0 -80.8136
194.819 5.48219 0 -80.9313
-201.284 4.91857 0 -65.6728
-4.28552 5.33355 0 -74.7961
193.012 5.49772 0 -80.8726
-4.29157 5.2984 0 -74.7973
-4.28853 5.31606 0 -74.7967
-199.472 4.93748 0 -65.7306
-195.848 4.97492 0 -65.8471
187.59 5.54326 0 -80.6947
191.205 5.51308 0 -80.8136
-197.66 4.95627 0 -65.7887
-4.27959 5.36806 0 -74.7949
189.398 5.52826 0 -80.7543
-4.28552 5.33355 0 -74.7961
-4.28254 5.35089 0 -74.7955
-195.848 4.97492 0 -65.8471
-192.223 5.01181 0 -65.9648
183.976 5.57271 0 -80.5746
187.59 5.54326 0 -80.6947
-194.035 4.99343 0 -65.9058
-4.27377 5.40192 0 -74.7937
185.783 5.55807 0 -80.6348
-4.27959 5.36806 0 -74.7949
-4.27666 5.38507 0 -74.7943
-192.223 5.01181 0 -65.9648
-188.599 5.04816 0 -66.0838
180.362 5.60144 0 -80.4533
183.976 5.57271 0 -80.5746
-190.411 5.03005 0 -66.0241
-4.26805 5.43513 0 -74.7925
182.169 5.58716 0 -80.5141
-4.27377 5.40192 0 -74.7937
-4.2709 5.41861 0 -74.7931
-188.599 5.04816 0 -66.0838
-184.976 5.08396 0 -66.2039
176.747 5.62945 0 -80.3308
180.362 5.60144 0 -80.4533
-186.787 5.06613 0 -66.1437
-4.26245 5.4677 0 -74.7913
178.555 5.61553 0 -80.3922
-4.26805 5.43513 0 -74.7925
-4.26524 5.4515 0 -74.7919
-184.976 5.08396 0 -66.2039
-181.352 5.11922 0 -66.3253
173.133 5.65674 0 -80.2072
176.747 5.62945 0 -80.3308
-183.164 5.10166 0 -66.2645
-4.25696 5.49963 0 -74.7902
174.94 5.64319 0 -80.2691
-4.26245 5.4677 0 -74.7913
-4.25969 5.48375 0 -74.7908
-181.352 5.11922 0 -66.3253
-177.729 5.15393 0 -66.4478
169.519 5.68332 0 -80.0824
173.133 5.65674 0 -80.2072
-179.54 5.13664 0 -66.3864
-4.25158 5.53091 0 -74.7891
171.326 5.67012 0 -80.1449
-4.25696 5.49963 0 -74.7902
-4.25425 5.51535 0 -74.7896
-177.729 5.15393 0 -66.4478
-174.105 5.1881 0 -66.5714
165.904 5.70917 0 -79.9566
169.519 5.68332 0 -80.0824
-175.917 5.17108 0 -66.5095
-4.2463 5.56154 0 -74.788
167.712 5.69633 0 -80.0196
-4.25158 5.53091 0 -74.7891
-4.24893 5.54631 0 -74.7885
-174.105 5.1881 0 -66.5714
-170.482 5.22171 0 -66.6962
162.29 5.73432 0 -79.8297
165.904 5.70917 0 -79.9566
-172.294 5.20497 0 -66.6337
-4.24114 5.59153 0 -74.7869
164.097 5.72184 0 -79.8933
-4.2463 5.56154 0 -74.788
-4.24371 5.57662 0 -74.7874
-170.482 5.22171 0 -66.6962
-166.86 5.25478 0 -66.822
158.676 5.75875 0 -79.7017
162.29 5.73432 0 -79.8297
-168.671 5.23831 0 -66.759
-4.23609 5.62088 0 -74.7858
160.483 5.74662 0 -79.7658
-4.24114 5.59153 0 -74.7869
-4.23861 5.60629 0 -74.7864
-166.86 5.25478 0 -66.822
-163.237 5.28729 0 -66.9489
155.062 5.78247 0 -79.5727
158.676 5.75875 0 -79.7017
-165.048 5.2711 0 -66.8853
-4.23115 5.64958 0 -74.7848
156.869 5.7707 0 -79.6374
-4.23609 5.62088 0 -74.7858
-4.23361 5.63531 0 -74.7853
-163.237 5.28729 0 -66.9489
-159.614 5.31925 0 -67.0769
151.447 5.80548 0 -79.4427
155.062 5.78247 0 -79.5727
-161.426 5.30334 0 -67.0128
-4.22632 5.67763 0 -74.7838
153.254 5.79406 0 -79.5079
-4.23115 5.64958 0 -74.7848
-4.22873 5.66369 0 -74.7843
-159.614 5.31925 0 -67.0769
-155.992 5.35065 0 -67.2058
147.833 5.82778 0 -79.3118
151.447 5.80548 0 -79.4427
-157.803 5.33502 0 -67.1412
-4.22161 5.70504 0 -74.7828
149.64 5.81672 0 -79.3774
-4.22632 5.67763 0 -74.7838
-4.22395 5.69142 0 -74.7833
-155.992 5.35065 0 -67.2058
-152.37 5.3815 0 -67.3358
144.219 5.84937 0 -79.1799
147.833 5.82778 0 -79.3118
-154.181 5.36615 0 -67.2707
-4.217 5.73181 0 -74.7818
146.026 5.83866 0 -79.2459
-4.22161 5.70504 0 -74.7828
-4.21929 5.71851 0 -74.7823
-152.37 5.3815 0 -67.3358
-148.748 5.41179 0 -67.4668
140.604 5.87026 0 -79.047
144.219 5.84937 0 -79.1799
-150.559 5.39672 0 -67.4012
-4.2125 5.75793 0 -74.7809
142.412 5.8599 0 -79.1136
-4.217 5.73181 0 -74.7818
-4.21473 5.74495 0 -74.7813
-148.748 5.41179 0 -67.4668
-145.126 5.44152 0 -67.5987
136.99 5.89044 0 -78.9133
140.604 5.87026 0 -79.047
-146.937 5.42673 0 -67.5326
-4.20811 5.7834 0 -74.7799
138.797 5.88044 0 -78.9803
-4.2125 5.75793 0 -74.7809
-4.21029 5.77075 0 -74.7804
-145.126 5.44152 0 -67.5987
-141.505 5.47069 0 -67.7315
133.376 5.90992 0 -78.7786
136.99 5.89044 0 -78.9133
-143.316 5.45618 0 -67.665
-4.20384 5.80823 0 -74.779
135.183 5.90027 0 -78.8461
-4.20811 5.7834 0 -74.7799
-4.20596 5.7959 0 -74.7795
-141.505 5.47069 0 -67.7315
-137.883 5.4993 0 -67.8652
129.761 5.9287 0 -78.6431
133.376 5.90992 0 -78.7786
-139.694 5.48506 0 -67.7982
-4.19967 5.83242 0 -74.7781
131.569 5.9194 0 -78.711
-4.20384 5.80823 0 -74.779
-4.20174 5.82041 0 -74.7786
-137.883 5.4993 0 -67.8652
-134.262 5.52734 0 -67.9998
126.147 5.94678 0 -78.5068
129.761 5.9287 0 -78.6431
-136.073 5.51339 0 -67.9324
-4.19562 5.85596 0 -74.7773
127.954 5.93783 0 -78.5751
-4.19967 5.83242 0 -74.7781
-4.19763 5.84427 0 -74.7777
-134.262 5.52734 0 -67.9998
-130.641 5.55481 0 -68.1353
122.533 5.96416 0 -78.3696
126.147 5.94678 0 -78.5068
-132.452 5.54115 0 -68.0674
-4.19168 5.87885 0 -74.7764
124.34 5.95556 0 -78.4383
-4.19562 5.85596 0 -74.7773
-4.19363 5.86748 0 -74.7769
-130.641 5.55481 0 -68.1353
-127.02 5.58172 0 -68.2716
118.918 5.98084 0 -78.2317
122.533 5.96416 0 -78.3696
-128.831 5.56834 0 -68.2033
-4.18784 5.9011 0 -74.7756
120.726 5.97259 0 -78.3008
-4.19168 5.87885 0 -74.7764
-4.18975 5.89005 0 -74.776
-127.02 5.58172 0 -68.2716
-123.4 5.60805 0 -68.4087
115.304 5.99683 0 -78.093
118.918 5.98084 0 -78.2317
-125.21 5.59496 0 -68.34
-4.18412 5.92269 0 -74.7748
117.111 5.98892 0 -78.1624
-4.18784 5.9011 0 -74.7756
-4.18597 5.91198 0 -74.7752
-123.4 5.60805 0 -68.4087
-119.779 5.63381 0 -68.5466
111.689 6.01212 0 -77.9535
115.304 5.99683 0 -78.093
-121.589 5.621 0 -68.4775
-4.18051 5.94364 0 -74.774
113.497 6.00456 0 -78.0233
-4.18412 5.92269 0 -74.7748
-4.1823 5.93325 0 -74.7744
-119.779 5.63381 0 -68.5466
-116.159 5.65899 0 -68.6853
108.075 6.02671 0 -77.8134
111.689 6.01212 0 -77.9535
-117.969 5.64647 0 -68.6158
-4.177 5.96394 0 -74.7733
109.882 6.0195 0 -77.8835
-4.18051 5.94364 0 -74.774
-4.17874 5.95387 0 -74.7737
-116.159 5.65899 0 -68.6853
-112.538 5.68359 0 -68.8247
104.461 6.0406 0 -77.6725
108.075 6.02671 0 -77.8134
-114.349 5.67136 0 -68.7549
-4.1736 5.98358 0 -74.7726
106.268 6.03374 0 -77.743
-4.177 5.96394 0 -74.7733
-4.17529 5.97384 0 -74.7729
-112.538 5.68359 0 -68.8247
-108.918 5.7076 0 -68.9648
100.846 6.05379 0 -77.531
104.461 6.0406 0 -77.6725
-110.728 5.69567 0 -68.8946
-4.1703 6.00257 0 -74.7719
102.653 6.04728 0 -77.6018
-4.1736 5.98358 0 -74.7726
-4.17194 5.99316 0 -74.7722
-108.918 5.7076 0 -68.9648
-105.298 5.73102 0 -69.1056
97.2316 6.06629 0 -77.3888
100.846 6.05379 0 -77.531
-107.108 5.71938 0 -69.0351
-4.1671 6.0209 0 -74.7712
99.0388 6.06013 0 -77.4599
-4.1703 6.00257 0 -74.7719
-4.16869 6.01182 0 -74.7715
-105.298 5.73102 0 -69.1056
-101.679 5.75384 0 -69.2471
93.617 6.07808 0 -77.246
97.2316 6.06629 0 -77.3888
-103.489 5.74251 0 -69.1763
-4.16398 6.03857 0 -74.7705
95.4243 6.07227 0 -77.3174
-4.1671 6.0209 0 -74.7712
-4.16553 6.02982 0 -74.7708
-101.679 5.75384 0 -69.2471
-98.059 5.77607 0 -69.3892
90.0025 6.08917 0 -77.1026
93.617 6.07808 0 -77.246
-99.8688 5.76503 0 -69.3181
-4.16095 6.05557 0 -74.7699
91.8098 6.08371 0 -77.1743
-4.16398 6.03857 0 -74.7705
-4.16246 6.04715 0 -74.7702
-98.059 5.77607 0 -69.3892
-94.4394 5.7977 0 -69.532
86.388 6.09956 0 -76.9586
90.0025 6.08917 0 -77.1026
-96.2492 5.78696 0 -69.4605
-4.15799 6.07191 0 -74.7693
88.1953 6.09445 0 -77.0307
-4.16095 6.05557 0 -74.7699
-4.15946 6.06382 0 -74.7696
-94.4394 5.7977 0 -69.532
-90.82 5.81873 0 -69.6753
82.7735 6.10925 0 -76.8141
86.388 6.09956 0 -76.9586
-92.6297 5.80829 0 -69.6036
-4.15509 6.08759 0 -74.7687
84.5807 6.10449 0 -76.8864
-4.15799 6.07191 0 -74.7693
-4.15654 6.07983 0 -74.769
-90.82 5.81873 0 -69.6753
-87.2006 5.83919 0 -69.8192
79.159 6.11826 0 -76.669
82.7735 6.10925 0 -76.8141
-89.0103 5.82903 0 -69.7472
-4.15224 6.10262 0 -74.768
80.9662 6.11384 0 -76.7416
-4.15509 6.08759 0 -74.7687
-4.15366 6.09518 0 -74.7684
-87.2006 5.83919 0 -69.8192
-83.5814 5.85911 0 -69.9636
75.5446 6.1266 0 -76.5234
79.159 6.11826 0 -76.669
-85.391 5.84922 0 -69.8913
-4.14942 6.11705 0 -74.7674
77.3518 6.12251 0 -76.5963
-4.15224 6.10262 0 -74.768
-4.15083 6.10991 0 -74.7677
-83.5814 5.85911 0 -69.9636
-79.9622 5.87854 0 -70.1084
71.9302 6.13433 0 -76.3772
75.5446 6.1266 0 -76.5234
-81.7718 5.86888 0 -70.0359
-4.14664 6.13091 0 -74.7668
73.7374 6.13054 0 -76.4504
-4.14942 6.11705 0 -74.7674
-4.14803 6.12405 0 -74.7671
-79.9622 5.87854 0 -70.1084
-76.3432 5.89757 0 -70.2538
68.3159 6.14151 0 -76.2305
71.9302 6.13433 0 -76.3772
-78.1527 5.8881 0 -70.181
-4.1439 6.1443 0 -74.766
70.1231 6.13798 0 -76.3039
-4.14664 6.13091 0 -74.7668
-4.14526 6.13766 0 -74.7664
-76.3432 5.89757 0 -70.2538
-72.7244 5.91631 0 -70.3995
64.7018 6.14832 0 -76.0832
68.3159 6.14151 0 -76.2305
-74.5338 5.90697 0 -70.3266
-4.14124 6.15736 0 -74.7652
66.5088 6.14495 0 -76.1569
-4.1439 6.1443 0 -74.766
-4.14256 6.15086 0 -74.7656
-72.7244 5.91631 0 -70.3995
-69.1059 5.93492 0 -70.5457
61.0876 6.155 0 -75.9352
64.7018 6.14832 0 -76.0832
-70.9151 5.92562 0 -70.4725
-4.13876 6.1703 0 -74.7643
62.8947 6.15165 0 -76.0093
-4.14124 6.15736 0 -74.7652
-4.13998 6.16383 0 -74.7647
-69.1059 5.93492 0 -70.5457
-65.4879 5.9535 0 -70.6925
57.4732 6.16205 0 -75.7867
61.0876 6.155 0 -75.9352
-67.2968 5.94421 0 -70.619
-4.13664 6.18346 0 -74.7634
59.2804 6.15843 0 -75.861
-4.13876 6.1703 0 -74.7643
-4.13764 6.17683 0 -74.7638
-65.4879 5.9535 0 -70.6925
-61.8702 5.97214 0 -70.8404
53.8581 6.1703 0 -75.6379
57.4732 6.16205 0 -75.7867
-63.679 5.96281 0 -70.7663
-4.13519 6.1973 0 -74.7631
55.6659 6.16595 0 -75.7123
-4.13664 6.18346 0 -74.7634
-4.1358 6.19025 0 -74.7631
-61.8702 5.97214 0 -70.8404
-58.2532 5.99046 0 -70.9908
50.2415 6.18144 0 -75.4897
53.8581 6.1703 0 -75.6379
-60.0616 5.9814 0 -70.9152
-4.13498 6.21254 0 -74.7648
52.05 6.17535 0 -75.5636
-4.13519 6.1973 0 -74.7631
-4.13489 6.20469 0 -74.7636
-58.2532 5.99046 0 -70.9908
-54.6355 6.00778 0 -71.1465
46.6203 6.19802 0 -75.3442
50.2415 6.18144 0 -75.4897
-56.4447 5.99933 0 -71.0677
-4.13697 6.23019 0 -74.7713
48.4318 6.18882 0 -75.4164
-4.13498 6.21254 0 -74.7648
-4.13562 6.22098 0 -74.7671
-54.6355 6.00778 0 -71.1465
-51.0168 6.02122 0 -71.3133
42.9915 6.2256 0 -75.2061
46.6203 6.19802 0 -75.3442
-52.8261 6.01528 0 -71.228
-4.14271 6.25172 0 -74.7894
44.8069 6.20994 0 -75.2738
-4.13697 6.23019 0 -74.7713
-4.13926 6.24036 0 -74.7785
-51.0168 6.02122 0 -71.3133
-47.3894 6.02737 0 -71.503
39.3429 6.27143 0 -75.0854
42.9915 6.2256 0 -75.2061
-49.2052 6.0256 0 -71.4042
-4.15472 6.27927 0 -74.8316
41.1711 6.24554 0 -75.1427
-4.14271 6.25172 0 -74.7894
-4.14771 6.26456 0 -74.8061
-47.3894 6.02737 0 -71.503
-43.75 6.01491 0 -71.7366
35.6643 6.35217 0 -75.0002
39.3429 6.27143 0 -75.0854
-45.5706 6.02441 0 -71.6126
-4.17696 6.31584 0 -74.922
37.5073 6.30609 0 -75.0368
-4.15472 6.27927 0 -74.8316
-4.16429 6.29622 0 -74.8693
-43.75 6.01491 0 -71.7366
-40.0677 5.97554 0 -72.0531
31.9138 6.48381 0 -74.9847
35.6643 6.35217 0 -75.0002
-41.9184 5.99962 0 -71.881
-4.21547 6.36576 0 -75.102
33.8031 6.41001 0 -74.9808
-4.17696 6.31584 0 -74.922
-4.1936 6.33874 0 -74.9962
-40.0677 5.97554 0 -72.0531
-36.3336 5.87733 0 -72.5122
28.0672 6.70803 0 -75.0932
31.9138 6.48381 0 -74.9847
-38.2044 5.93558 0 -72.2603
-4.27904 6.43459 0 -75.4403
30.001 6.58191 0 -75.019
-4.21547 6.36576 0 -75.102
-4.24365 6.39756 0 -75.2481
-36.3336 5.87733 0 -72.5122
-32.4479 5.7231 0 -73.2114
24.0025 7.03463 0 -75.414
28.0672 6.70803 0 -75.0932
-34.4239 5.80809 0 -72.8233
-4.37946 6.52927 0 -76.037
26.0781 6.85674 0 -75.2199
-4.27904 6.43459 0 -75.4403
-4.32333 6.47797 0 -75.694
-32.4479 5.7231 0 -73.2114
-28.4222 5.45798 0 -74.2605
19.7074 7.52803 0 -76.0527
24.0025 7.03463 0 -75.414
-30.4391 5.60269 0 -73.6861
-4.52986 6.65468 0 -77.0158
21.8717 7.262 0 -75.6862
-4.37946 6.52927 0 -76.037
-4.44839 6.58856 0 -76.4791
-28.4222 5.45798 0 -74.2605
-24.0168 5.23738 0 -75.7802
14.9184 8.03386 0 -77.1278
19.7074 7.52803 0 -76.0527
-26.3077 5.33339 0 -74.952
-4.73929 6.80912 0 -78.4698
17.4169 7.7885 0 -76.5283
-4.52986 6.65468 0 -77.0158
-4.62524 6.72778 0 -77.6626
-24.0168 5.23738 0 -75.7802
-19.4875 5.1062 0 -77.6907
9.90699 8.46275 0 -78.5959
14.9184 8.03386 0 -77.1278
-21.706 5.12714 0 -76.7068
-4.99495 6.96373 0 -80.2999
12.3756 8.29723 0 -77.8239
-4.73929 6.80912 0 -78.4698
-4.86633 6.89193 0 -79.3882
-19.4875 5.1062 0 -77.6907
-14.5126 6.01379 0 -79.5399
4.43738 7.73711 0 -80.0856
9.90699 8.46275 0 -78.5959
-17.1488 5.37701 0 -78.6663
-5.23205 7.03745 0 -81.8627
7.31391 8.30951 0 -79.3823
-4.99495 6.96373 0 -80.2999
-5.11703 7.01442 0 -81.1247
-14.5126 6.01379 0 -79.5399
-10.3538 8.42442 0 -79.6612
0.0771761 5.04945 0 -80.1181
4.43738 7.73711 0 -80.0856
-12.1128 6.92157 0 -79.992
-5.28165 6.8468 0 -81.4578
1.86965 6.78095 0 -80.4284
-5.23205 7.03745 0 -81.8627
-5.30523 6.99867 0 -82.167
-10.3538 8.42442 0 -79.6612
-6.17902 14.3711 0 -75.0658
-3.46632 -2.20687 0 -75.8567
0.0771761 5.04945 0 -80.1181
-8.52062 11.0552 0 -78.1759
-4.88356 6.12478 0 -76.2313
-1.58737 1.93479 0 -78.7743
-5.28165 6.8468 0 -81.4578
-5.14011 6.55556 0 -79.4691
-6.17902 14.3711 0 -75.0658
-4.45693 20.0925 0 -60.9574
-2.86164 -11.0526 0 -62.444
-3.46632 -2.20687 0 -75.8567
-4.51569 17.3986 0 -69.539
-3.70426 4.55445 0 -62.5454
-4.23734 -6.52757 0 -70.5979
-4.88356 6.12478 0 -76.2313
-4.44285 5.49333 0 -71.013
-4.45693 20.0925 0 -60.9574
-3.84636 27.1352 0 -34.2249
1.09061 -23.3247 0 -36.4485
-2.86164 -11.0526 0 -62.444
-4.6403 23.2447 0 -49.2424
-1.13357 1.94732 0 -34.321
-0.691345 -16.5655 0 -51.1728
-3.70426 4.55445 0 -62.5454
-2.61905 3.30184 0 -50.3038
685.264 205.65 0 276.727
669.045 111.71 0 91.3853
2089.16 362.71 0 -7.65449
1922.46 575.811 0 175.754
656.892 159.097 0 174.447
1378.27 236.872 0 53.0901
2035.6 461.643 0 65.0418
1275.03 382.231 0 252.488
1348.27 320.143 0 124.53
669.045 111.71 0 91.3853
705.668 65.3071 0 -19.8966
2129.38 157.105 0 -65.3773
2089.16 362.71 0 -7.65449
697.304 85.8598 0 25.9749
1411.49 121.039 0 -36.3276
2107.12 252.381 0 -44.6837
1378.27 236.872 0 53.0901
1393.39 169.762 0 4.71582
705.668 65.3071 0 -19.8966
708.268 23.5554 0 -70.5037
2150.1 53.0258 0 -77.2306
2129.38 157.105 0 -65.3773
704.425 42.2508 0 -50.3697
1428.79 45.7422 0 -75.2374
2148.99 94.6243 0 -75.7982
1411.49 121.039 0 -36.3276
1424.8 79.7289 0 -63.0882
708.268 23.5554 0 -70.5037
710.428 3.92842 0 -88.7267
2134.04 4.5854 0 -72.4322
2150.1 53.0258 0 -77.2306
712.506 12.0769 0 -82.67
1424.57 8.37392 0 -84.2571
2141.34 23.0577 0 -74.5107
1428.79 45.7422 0 -75.2374
1427.86 22.7687 0 -80.8405
710.428 3.92842 0 -88.7267
702.865 -6.37157 0 -90.8875
2114.99 -9.70643 0 -69.3535
2134.04 4.5854 0 -72.4322
705.714 -2.57182 0 -90.8079
1411.66 -7.55572 0 -83.4629
2126.13 -4.89435 0 -70.9115
1424.57 8.37392 0 -84.2571
1418.89 -1.39617 0 -84.8648
702.865 -6.37157 0 -90.8875
696.501 -8.431 0 -87.9465
2092.88 -13.2694 0 -67.5268
2114.99 -9.70643 0 -69.3535
700.397 -7.84042 0 -89.7429
1396.75 -11.3658 0 -80.5775
2102.88 -12.5102 0 -68.0425
1411.66 -7.55572 0 -83.4629
1403.98 -10.5179 0 -81.7936
696.501 -8.431 0 -87.9465
688.969 -8.6182 0 -84.0794
2075 -11.5934 0 -67.4804
2092.88 -13.2694 0 -67.5268
692.246 -8.77713 0 -85.927
1383.23 -11.0165 0 -78.0636
2083.96 -12.6398 0 -67.4634
1396.75 -11.3658 0 -80.5775
1389.79 -11.4321 0 -79.3313
688.969 -8.6182 0 -84.0794
683.156 -7.57312 0 -81.0648
2058.86 -9.47076 0 -67.8996
2075 -11.5934 0 -67.4804
686.137 -8.09957 0 -82.4498
1371.61 -9.26574 0 -76.4554
2066.42 -10.5748 0 -67.5981
1383.23 -11.0165 0 -78.0636
1377.16 -10.2217 0 -77.0855
683.156 -7.57312 0 -81.0648
677.778 -6.70393 0 -79.0616
2045.14 -7.41835 0 -68.6837
2058.86 -9.47076 0 -67.8996
680.268 -7.14087 0 -79.9303
1361.62 -7.63379 0 -75.6261
2051.9 -8.36259 0 -68.2937
1371.61 -9.26574 0 -76.4554
1366.45 -8.39629 0 -75.9838
677.778 -6.70393 0 -79.0616
673.264 -5.92082 0 -77.9322
2032.5 -6.01858 0 -69.4985
2045.14 -7.41835 0 -68.6837
675.508 -6.27498 0 -78.4094
1352.78 -6.35858 0 -75.362
2038.65 -6.65995 0 -69.0791
1361.62 -7.63379 0 -75.6261
1357.08 -6.94941 0 -75.4247
673.264 -5.92082 0 -77.9322
669.057 -5.39653 0 -77.3834
2020.75 -5.052 0 -70.3379
2032.5 -6.01858 0 -69.4985
671.094 -5.64015 0 -77.598
1344.65 -5.49553 0 -75.4423
2026.58 -5.47753 0 -69.9248
1352.78 -6.35858 0 -75.362
1348.64 -5.8796 0 -75.3757
669.057 -5.39653 0 -77.3834
665.161 -5.00792 0 -77.202
2009.39 -4.45376 0 -71.1439
2020.75 -5.052 0 -70.3379
667.099 -5.18274 0 -77.2593
1336.93 -4.92132 0 -75.7265
2015.02 -4.72052 0 -70.7426
1344.65 -5.49553 0 -75.4423
1340.75 -5.17908 0 -75.5634
665.161 -5.00792 0 -77.202
661.381 -4.73881 0 -77.2273
1998.29 -4.06394 0 -71.9265
2009.39 -4.45376 0 -71.1439
663.252 -4.864 0 -77.1956
1329.45 -4.54577 0 -76.1152
2003.82 -4.2361 0 -71.5397
1336.93 -4.92132 0 -75.7265
1333.17 -4.71369 0 -75.9133
661.381 -4.73881 0 -77.2273
657.693 -4.53063 0 -77.3643
1987.29 -3.80983 0 -72.6808
1998.29 -4.06394 0 -71.9265
659.533 -4.6276 0 -77.2864
1322.09 -4.28707 0 -76.5554
1992.78 -3.92527 0 -72.3064
1329.45 -4.54577 0 -76.1152
1325.76 -4.40539 0 -76.3308
657.693 -4.53063 0 -77.3643
654.039 -4.36427 0 -77.5557
1976.36 -3.62624 0 -73.4132
1987.29 -3.80983 0 -72.6808
655.861 -4.44408 0 -77.4556
1314.8 -4.09691 0 -77.0149
1981.83 -3.711 0 -73.0498
1322.09 -4.28707 0 -76.5554
1318.44 -4.18557 0 -76.7843
654.039 -4.36427 0 -77.5557
650.409 -4.21891 0 -77.7712
1965.45 -3.48297 0 -74.1254
1976.36 -3.62624 0 -73.4132
652.223 -4.28934 0 -77.6618
1307.53 -3.94364 0 -77.4784
1970.91 -3.55126 0 -73.7715
1314.8 -4.09691 0 -77.0149
1311.16 -4.01693 0 -77.2467
650.409 -4.21891 0 -77.7712
646.787 -4.08664 0 -77.9948
1954.56 -3.35926 0 -74.8205
1965.45 -3.48297 0 -74.1254
648.597 -4.15169 0 -77.8826
1300.27 -3.81024 0 -77.9377
1960.01 -3.41927 0 -74.475
1307.53 -3.94364 0 -77.4784
1303.9 -3.87515 0 -77.7089
646.787 -4.08664 0 -77.9948
643.171 -3.96116 0 -78.2189
1943.66 -3.2458 0 -75.4997
1954.56 -3.35926 0 -74.8205
644.979 -4.02319 0 -78.1071
1293.01 -3.68702 0 -78.3897
1949.11 -3.3017 0 -75.162
1300.27 -3.81024 0 -77.9377
1296.64 -3.74772 0 -78.1647
643.171 -3.96116 0 -78.2189
639.556 -3.83991 0 -78.4402
1932.77 -3.13706 0 -76.1645
1943.66 -3.2458 0 -75.4997
641.363 -3.90016 0 -78.33
1285.76 -3.56913 0 -78.8329
1938.22 -3.19099 0 -75.8339
1293.01 -3.68702 0 -78.3897
1289.39 -3.6276 0 -78.6125
639.556 -3.83991 0 -78.4402
635.942 -3.72115 0 -78.6574
1921.87 -3.0307 0 -76.8155
1932.77 -3.13706 0 -76.1645
637.749 -3.78027 0 -78.5494
1278.51 -3.45403 0 -79.2672
1927.32 -3.08369 0 -76.4917
1285.76 -3.56913 0 -78.8329
1282.14 -3.51132 0 -79.0512
635.942 -3.72115 0 -78.6574
632.329 -3.60411 0 -78.87
1910.98 -2.92549 0 -77.4533
1921.87 -3.0307 0 -76.8155
634.136 -3.66246 0 -78.7643
1271.26 -3.34053 0 -79.6924
1916.43 -2.97799 0 -77.136
1278.51 -3.45403 0 -79.2672
1274.89 -3.39713 0 -79.4809
632.329 -3.60411 0 -78.87
628.716 -3.48829 0 -79.0781
1900.08 -2.82092 0 -78.0782
1910.98 -2.92549 0 -77.4533
630.522 -3.54607 0 -78.9746
1264.01 -3.22803 0 -80.1089
1905.53 -2.87315 0 -77.7673
1271.26 -3.34053 0 -79.6924
1267.64 -3.28418 0 -79.9017
628.716 -3.48829 0 -79.0781
625.102 -3.37345 0 -79.2818
1889.19 -2.71677 0 -78.6905
1900.08 -2.82092 0 -78.0782
626.909 -3.43076 0 -79.1805
1256.76 -3.11625 0 -80.5168
1894.63 -2.7688 0 -78.3859
1264.01 -3.22803 0 -80.1089
1260.38 -3.17206 0 -80.3139
625.102 -3.37345 0 -79.2818
621.488 -3.25941 0 -79.4811
1878.29 -2.61295 0 -79.2904
1889.19 -2.71677 0 -78.6905
623.295 -3.31633 0 -79.382
1249.51 -3.00505 0 -80.9163
1883.74 -2.66483 0 -78.992
1256.76 -3.11625 0 -80.5168
1253.13 -3.06058 0 -80.7176
621.488 -3.25941 0 -79.4811
617.874 -3.14608 0 -79.6762
1867.39 -2.50943 0 -79.878
1878.29 -2.61295 0 -79.2904
619.681 -3.20266 0 -79.5792
1242.25 -2.89437 0 -81.3076
1872.84 -2.56116 0 -79.5857
1249.51 -3.00505 0 -80.9163
1245.88 -2.94965 0 -81.113
617.874 -3.14608 0 -79.6762
614.26 -3.0334 0 -79.8672
1856.5 -2.40619 0 -80.4534
1867.39 -2.50943 0 -79.878
616.067 -3.08966 0 -79.7722
1235 -2.78416 0 -81.6907
1861.94 -2.45777 0 -80.1672
1242.25 -2.89437 0 -81.3076
1238.63 -2.83921 0 -81.5002
614.26 -3.0334 0 -79.8672
610.646 -2.92132 0 -80.0541
1845.6 -2.30324 0 -81.0168
1856.5 -2.40619 0 -80.4534
612.453 -2.97729 0 -79.9612
1227.75 -2.67441 0 -82.0658
1851.05 -2.35468 0 -80.7366
1235 -2.78416 0 -81.6907
1231.37 -2.72923 0 -81.8793
610.646 -2.92132 0 -80.0541
607.032 -2.80983 0 -80.237
1834.7 -2.20058 0 -81.5683
1845.6 -2.30324 0 -81.0168
608.839 -2.86551 0 -80.1461
1220.49 -2.56512 0 -82.4329
1840.15 -2.25187 0 -81.294
1227.75 -2.67441 0 -82.0658
1224.12 -2.61971 0 -82.2503
607.032 -2.80983 0 -80.237
603.417 -2.69891 0 -80.416
1823.8 -2.09823 0 -82.1078
1834.7 -2.20058 0 -81.5683
605.224 -2.7543 0 -80.327
1213.24 -2.45627 0 -82.792
1829.25 -2.14937 0 -81.8395
1220.49 -2.56512 0 -82.4329
1216.87 -2.51064 0 -82.6134
603.417 -2.69891 0 -80.416
599.802 -2.58856 0 -80.5909
1812.9 -1.99619 0 -82.6356
1823.8 -2.09823 0 -82.1078
601.61 -2.64367 0 -80.5039
1205.99 -2.34788 0 -83.1432
1818.35 -2.04717 0 -82.3732
1213.24 -2.45627 0 -82.792
1209.61 -2.40202 0 -82.9686
599.802 -2.58856 0 -80.5909
596.187 -2.47877 0 -80.762
1802.01 -1.89449 0 -83.1516
1812.9 -1.99619 0 -82.6356
597.995 -2.53359 0 -80.6769
1198.73 -2.23994 0 -83.4867
1807.46 -1.9453 0 -82.895
1205.99 -2.34788 0 -83.1432
1202.36 -2.29385 0 -83.3159
596.187 -2.47877 0 -80.762
592.572 -2.36954 0 -80.9291
1791.11 -1.79312 0 -83.6559
1802.01 -1.89449 0 -83.1516
594.38 -2.42408 0 -80.846
1191.48 -2.13247 0 -83.8223
1796.56 -1.84376 0 -83.4052
1198.73 -2.23994 0 -83.4867
1195.11 -2.18615 0 -83.6554
592.572 -2.36954 0 -80.9291
588.957 -2.26089 0 -81.0923
1780.21 -1.69211 0 -84.1487
1791.11 -1.79312 0 -83.6559
590.765 -2.31514 0 -81.0112
1184.23 -2.02548 0 -84.1502
1785.66 -1.74257 0 -83.9037
1191.48 -2.13247 0 -83.8223
1187.85 -2.07892 0 -83.9872
588.957 -2.26089 0 -81.0923
585.342 -2.1528 0 -81.2517
1769.31 -1.59148 0 -84.6299
1780.21 -1.69211 0 -84.1487
587.149 -2.20677 0 -81.1725
1176.97 -1.91898 0 -84.4704
1774.76 -1.64175 0 -84.3907
1184.23 -2.02548 0 -84.1502
1180.6 -1.97217 0 -84.3113
585.342 -2.1528 0 -81.2517
581.726 -2.0453 0 -81.4073
1758.41 -1.49123 0 -85.0996
1769.31 -1.59148 0 -84.6299
583.534 -2.09898 0 -81.33
1169.72 -1.81297 0 -84.783
1763.86 -1.54131 0 -84.8662
1176.97 -1.91898 0 -84.4704
1173.35 -1.86591 0 -84.6276
581.726 -2.0453 0 -81.4073
578.111 -1.93839 0 -81.559
1747.52 -1.39139 0 -85.558
1758.41 -1.49123 0 -85.0996
579.918 -1.99177 0 -81.4836
1162.46 -1.70747 0 -85.0879
1752.97 -1.44126 0 -85.3303
1169.72 -1.81297 0 -84.783
1166.09 -1.76016 0 -84.9364
578.111 -1.93839 0 -81.559
574.495 -1.83207 0 -81.707
1736.62 -1.29197 0 -86.0051
1747.52 -1.39139 0 -85.558
576.303 -1.88515 0 -81.6335
1155.21 -1.60249 0 -85.3854
1742.07 -1.34163 0 -85.783
1162.46 -1.70747 0 -85.0879
1158.84 -1.65492 0 -85.2376
574.495 -1.83207 0 -81.707
570.879 -1.72634 0 -81.8512
1725.72 -1.19297 0 -86.4409
1736.62 -1.29197 0 -86.0051
572.687 -1.77913 0 -81.7796
1147.96 -1.49804 0 -85.6753
1731.17 -1.24241 0 -86.2244
1155.21 -1.60249 0 -85.3854
1151.58 -1.5502 0 -85.5313
570.879 -1.72634 0 -81.8512
567.263 -1.62121 0 -81.9917
1714.82 -1.09442 0 -86.8656
1725.72 -1.19297 0 -86.4409
569.071 -1.6737 0 -81.9219
1140.7 -1.39412 0 -85.9578
1720.27 -1.14364 0 -86.6546
1147.96 -1.49804 0 -85.6753
1144.33 -1.44601 0 -85.8175
567.263 -1.62121 0 -81.9917
563.647 -1.5167 0 -82.1284
1703.92 -0.996333 0 -87.2791
1714.82 -1.09442 0 -86.8656
565.455 -1.56888 0 -82.0605
1133.45 -1.29075 0 -86.2328
1709.37 -1.04532 0 -87.0737
1140.7 -1.39412 0 -85.9578
1137.07 -1.34236 0 -86.0962
563.647 -1.5167 0 -82.1284
560.031 -1.41279 0 -82.2615
1693.02 -0.898714 0 -87.6816
1703.92 -0.996333 0 -87.2791
561.839 -1.46467 0 -82.1954
1126.19 -1.18793 0 -86.5005
1698.47 -0.947463 0 -87.4817
1133.45 -1.29075 0 -86.2328
1129.82 -1.23927 0 -86.3676
560.031 -1.41279 0 -82.2615
556.415 -1.3095 0 -82.3909
1682.13 -0.80158 0 -88.0731
1693.02 -0.898714 0 -87.6816
558.223 -1.36107 0 -82.3266
1118.94 -1.08568 0 -86.7609
1687.58 -0.850086 0 -87.8787
1126.19 -1.18793 0 -86.5005
1122.57 -1.13673 0 -86.6316
556.415 -1.3095 0 -82.3909
552.799 -1.20683 0 -82.5166
1671.23 -0.704943 0 -88.4538
1682.13 -0.80158 0 -88.0731
554.607 -1.25809 0 -82.4542
1111.68 -0.983995 0 -87.014
1676.68 -0.753199 0 -88.2648
1118.94 -1.08568 0 -86.7609
1115.31 -1.03476 0 -86.8884
552.799 -1.20683 0 -82.5166
549.183 -1.10478 0 -82.6388
1660.33 -0.608816 0 -88.8236
1671.23 -0.704943 0 -88.4538
550.991 -1.15573 0 -82.5781
1104.43 -0.882893 0 -87.2599
1665.78 -0.656815 0 -88.6401
1111.68 -0.983995 0 -87.014
1108.06 -0.933371 0 -87.1379
549.183 -1.10478 0 -82.6388
545.566 -1.00337 0 -82.7573
1649.43 -0.51321 0 -89.1827
1660.33 -0.608816 0 -88.8236
547.375 -1.054 0 -82.6985
1097.18 -0.78238 0 -87.4987
1654.88 -0.560947 0 -89.0045
1104.43 -0.882893 0 -87.2599
1100.8 -0.832562 0 -87.3802
545.566 -1.00337 0 -82.7573
541.95 -0.902582 0 -82.8723
1638.54 -0.418137 0 -89.5311
1649.43 -0.51321 0 -89.1827
543.758 -0.952894 0 -82.8152
1089.92 -0.682462 0 -87.7303
1643.98 -0.465606 0 -89.3582
1097.18 -0.78238 0 -87.4987
1093.55 -0.732346 0 -87.6153
541.95 -0.902582 0 -82.8723
538.334 -0.802434 0 -82.9837
1627.64 -0.323609 0 -89.8689
1638.54 -0.418137 0 -89.5311
540.142 -0.852428 0 -82.9284
1082.67 -0.583149 0 -87.9548
1633.09 -0.370804 0 -89.7013
1089.92 -0.682462 0 -87.7303
1086.29 -0.63273 0 -87.8434
538.334 -0.802434 0 -82.9837
534.717 -0.702927 0 -83.0916
1616.74 -0.229636 0 -90.1962
1627.64 -0.323609 0 -89.8689
536.525 -0.7526 0 -83.0381
1075.41 -0.484447 0 -88.1723
1622.19 -0.276552 0 -90.0338
1082.67 -0.583149 0 -87.9548
1079.04 -0.533721 0 -88.0644
534.717 -0.702927 0 -83.0916
531.101 -0.604064 0 -83.196
1605.84 -0.136231 0 -90.5129
1616.74 -0.229636 0 -90.1962
532.909 -0.653415 0 -83.1442
1068.16 -0.386364 0 -88.3828
1611.29 -0.182862 0 -90.3559
1075.41 -0.484447 0 -88.1723
1071.78 -0.435327 0 -88.2784
531.101 -0.604064 0 -83.196
527.484 -0.505849 0 -83.2969
1594.95 -0.0434036 0 -90.8193
1605.84 -0.136231 0 -90.5129
529.292 -0.554876 0 -83.2469
1060.9 -0.288906 0 -88.5864
1600.39 -0.0897446 0 -90.6674
1068.16 -0.386364 0 -88.3828
1064.53 -0.337556 0 -88.4855
527.484 -0.505849 0 -83.2969
523.867 -0.408285 0 -83.3944
1584.05 0.0488359 0 -91.1154
1594.95 -0.0434036 0 -90.8193
525.676 -0.456986 0 -83.3461
1053.65 -0.192082 0 -88.7831
1589.5 0.0027904 0 -90.9687
1060.9 -0.288906 0 -88.5864
1057.28 -0.240414 0 -88.6856
523.867 -0.408285 0 -83.3944
520.251 -0.311377 0 -83.4885
1573.15 0.140476 0 -91.4012
1584.05 0.0488359 0 -91.1154
522.059 -0.359749 0 -83.4419
1046.39 -0.0958973 0 -88.973
1578.6 0.0947316 0 -91.2596
1053.65 -0.192082 0 -88.7831
1050.02 -0.143909 0 -88.8789
520.251 -0.311377 0 -83.4885
516.634 -0.215126 0 -83.5791
1562.26 0.231508 0 -91.6769
1573.15 0.140477 0 -91.4012
518.442 -0.263169 0 -83.5342
1039.14 -0.000359526 0 -89.1561
1567.7 0.186069 0 -91.5403
1046.39 -0.0958973 0 -88.973
1042.77 -0.0480472 0 -89.0654
516.634 -0.215126 0 -83.5791
513.017 -0.119537 0 -83.6664
1551.36 0.321922 0 -91.9424
1562.26 0.231508 0 -91.6769
514.825 -0.167249 0 -83.6232
1031.89 0.094525 0 -89.3324
1556.81 0.276793 0 -91.8109
1039.14 -0.000359527 0 -89.1561
1035.51 0.0471648 0 -89.2451
513.017 -0.119537 0 -83.6664
509.4 -0.0246127 0 -83.7503
1540.46 0.411707 0 -92.1979
1551.36 0.321922 0 -91.9424
511.209 -0.0719915 0 -83.7088
1024.63 0.18875 0 -89.502
1545.91 0.366893 0 -92.0714
1031.89 0.094525 0 -89.3324
1028.26 0.14172 0 -89.4181
509.4 -0.0246127 0 -83.7503
505.783 0.0696436 0 -83.8309
1529.57 0.500854 0 -92.4434
1540.46 0.411707 0 -92.1979
507.592 0.0225992 0 -83.791
1017.38 0.282308 0 -89.665
1535.02 0.45636 0 -92.3219
1024.63 0.18875 0 -89.502
1021.01 0.235613 0 -89.5844
505.783 0.0696436 0 -83.8309
502.167 0.163229 0 -83.9082
1518.67 0.589354 0 -92.6791
1529.57 0.500854 0 -92.4434
503.975 0.11652 0 -83.87
1010.12 0.375195 0 -89.8214
1524.12 0.545185 0 -92.5625
1017.38 0.282308 0 -89.665
1013.75 0.328836 0 -89.7441
502.167 0.163229 0 -83.9082
498.55 0.25614 0 -83.9822
1507.78 0.677197 0 -92.9049
1518.67 0.589354 0 -92.6791
500.358 0.209769 0 -83.9456
1002.87 0.467403 0 -89.9713
1513.22 0.633358 0 -92.7932
1010.12 0.375195 0 -89.8214
1006.5 0.421384 0 -89.8972
498.55 0.25614 0 -83.9822
494.933 0.348373 0 -84.053
1496.88 0.764376 0 -93.1209
1507.78 0.677197 0 -92.9049
496.741 0.302341 0 -84.018
995.617 0.558927 0 -90.1146
1502.33 0.720871 0 -93.0141
1002.87 0.467403 0 -89.9713
999.244 0.513251 0 -90.0438
494.933 0.348373 0 -84.053
491.316 0.439927 0 -84.1205
1485.99 0.850882 0 -93.3273
1496.88 0.764376 0 -93.1209
493.124 0.394235 0 -84.0871
988.364 0.649761 0 -90.2515
1491.43 0.807714 0 -93.2253
995.617 0.558927 0 -90.1146
991.99 0.60443 0 -90.1839
491.316 0.439927 0 -84.1205
487.699 0.530798 0 -84.1848
1475.09 0.936705 0 -93.524
1485.99 0.850882 0 -93.3273
489.507 0.485448 0 -84.1531
981.11 0.739899 0 -90.382
1480.54 0.893879 0 -93.4268
988.364 0.649761 0 -90.2515
984.737 0.694917 0 -90.3175
487.699 0.530798 0 -84.1848
484.082 0.620983 0 -84.2459
1464.2 1.02184 0 -93.7112
1475.09 0.936705 0 -93.524
485.89 0.575976 0 -84.2158
973.857 0.829336 0 -90.5061
1469.64 0.979359 0 -93.6188
981.11 0.739899 0 -90.382
977.484 0.784706 0 -90.4448
484.082 0.620983 0 -84.2459
480.465 0.71048 0 -84.3039
1453.3 1.10627 0 -93.889
1464.2 1.02184 0 -93.7112
482.273 0.665818 0 -84.2753
966.604 0.918067 0 -90.6239
1458.75 1.06414 0 -93.8013
973.857 0.829336 0 -90.5061
970.23 0.87379 0 -90.5657
480.465 0.71048 0 -84.3039
476.848 0.799286 0 -84.3587
1442.41 1.19 0 -94.0573
1453.3 1.10627 0 -93.889
478.657 0.754969 0 -84.3317
959.351 1.00609 0 -90.7354
1447.86 1.14823 0 -93.9743
966.604 0.918067 0 -90.6239
962.977 0.962166 0 -90.6804
476.848 0.799286 0 -84.3587
473.231 0.887398 0 -84.4104
1431.52 1.27302 0 -94.2163
1442.41 1.19 0 -94.0573
475.04 0.843429 0 -84.385
952.098 1.09339 0 -90.8407
1436.96 1.2316 0 -94.138
959.351 1.00609 0 -90.7354
955.724 1.04983 0 -90.7888
473.231 0.887398 0 -84.4104
469.614 0.974814 0 -84.459
1420.62 1.35531 0 -94.3661
1431.52 1.27302 0 -94.2163
471.423 0.931193 0 -84.4351
944.845 1.17997 0 -90.9398
1426.07 1.31426 0 -94.2924
952.098 1.09339 0 -90.8407
948.471 1.13677 0 -90.891
469.614 0.974814 0 -84.459
465.997 1.06153 0 -84.5046
1409.73 1.43688 0 -94.5066
1420.62 1.35531 0 -94.3661
467.806 1.01826 0 -84.4822
937.592 1.26582 0 -91.0328
1415.18 1.39619 0 -94.4375
944.845 1.17997 0 -90.9398
941.219 1.22299 0 -90.9871
465.997 1.06153 0 -84.5046
462.38 1.14755 0 -84.5471
1398.84 1.51771 0 -94.6381
1409.73 1.43688 0 -94.5066
464.189 1.10463 0 -84.5262
930.34 1.35095 0 -91.1198
1404.28 1.47739 0 -94.5735
937.592 1.26582 0 -91.0328
933.966 1.30848 0 -91.077
462.38 1.14755 0 -84.5471
458.763 1.23286 0 -84.5866
1387.95 1.5978 0 -94.7605
1398.84 1.51771 0 -94.6381
460.572 1.19029 0 -84.5672
923.088 1.43534 0 -91.2007
1393.39 1.55785 0 -94.7004
930.34 1.35095 0 -91.1198
926.714 1.39323 0 -91.161
458.763 1.23286 0 -84.5866
455.146 1.31747 0 -84.6231
1377.05 1.67714 0 -94.8739
1387.95 1.5978 0 -94.7605
456.955 1.27526 0 -84.6052
915.835 1.51898 0 -91.2756
1382.5 1.63756 0 -94.8183
923.088 1.43534 0 -91.2007
919.461 1.47725 0 -91.2389
455.146 1.31747 0 -84.6231
451.529 1.40137 0 -84.6567
1366.16 1.75573 0 -94.9785
1377.05 1.67714 0 -94.8739
453.338 1.35951 0 -84.6403
908.583 1.60189 0 -91.3446
1371.61 1.71653 0 -94.9273
915.835 1.51898 0 -91.2756
912.209 1.56053 0 -91.3108
451.529 1.40137 0 -84.6567
447.913 1.48457 0 -84.6872
1355.27 1.83355 0 -95.0742
1366.16 1.75573 0 -94.9785
449.721 1.44306 0 -84.6723
901.332 1.68404 0 -91.4076
1360.72 1.79474 0 -95.0274
908.583 1.60189 0 -91.3446
904.957 1.64306 0 -91.3768
447.913 1.48457 0 -84.6872
444.296 1.56705 0 -84.7149
1344.38 1.91061 0 -95.1611
1355.27 1.83355 0 -95.0742
446.104 1.52589 0 -84.7014
894.08 1.76544 0 -91.4649
1349.83 1.87218 0 -95.1187
901.332 1.68404 0 -91.4076
897.706 1.72484 0 -91.437
444.296 1.56705 0 -84.7149
440.679 1.64881 0 -84.7397
1333.49 1.9869 0 -95.2394
1344.38 1.91061 0 -95.1611
442.487 1.60802 0 -84.7276
886.828 1.84609 0 -91.5164
1338.94 1.94885 0 -95.2013
894.08 1.76544 0 -91.4649
890.454 1.80586 0 -91.4914
440.679 1.64881 0 -84.7397
437.062 1.72986 0 -84.7616
1322.6 2.0624 0 -95.309
1333.49 1.9869 0 -95.2394
438.87 1.68943 0 -84.751
879.577 1.92598 0 -91.5621
1328.05 2.02475 0 -95.2753
886.828 1.84609 0 -91.5164
883.203 1.88613 0 -91.5399
437.062 1.72986 0 -84.7616
433.445 1.8102 0 -84.7806
1311.71 2.13712 0 -95.3701
1322.6 2.0624 0 -95.309
435.254 1.77012 0 -84.7714
872.326 2.0051 0 -91.6021
1317.16 2.09986 0 -95.3406
879.577 1.92598 0 -91.5621
875.952 1.96563 0 -91.5828
433.445 1.8102 0 -84.7806
429.828 1.88981 0 -84.7968
1300.82 2.21106 0 -95.4227
1311.71 2.13712 0 -95.3701
431.637 1.8501 0 -84.7891
865.075 2.08345 0 -91.6365
1306.27 2.17419 0 -95.3975
872.326 2.0051 0 -91.6021
868.701 2.04437 0 -91.62
429.828 1.88981 0 -84.7968
426.212 1.96871 0 -84.8102
1289.93 2.2842 0 -95.4669
1300.82 2.21106 0 -95.4227
428.02 1.92935 0 -84.8039
857.824 2.16104 0 -91.6652
1295.38 2.24773 0 -95.4459
865.075 2.08345 0 -91.6365
861.45 2.12234 0 -91.6516
426.212 1.96871 0 -84.8102
422.595 2.04688 0 -84.8209
1279.05 2.35654 0 -95.5028
1289.93 2.2842 0 -95.4669
424.403 2.00788 0 -84.8159
850.574 2.23785 0 -91.6885
1284.49 2.32047 0 -95.4859
857.824 2.16104 0 -91.6652
854.199 2.19954 0 -91.6775
422.595 2.04688 0 -84.8209
418.978 2.12433 0 -84.8288
1268.16 2.42807 0 -95.5304
1279.05 2.35654 0 -95.5028
420.786 2.08569 0 -84.8252
843.323 2.31388 0 -91.7062
1273.6 2.3924 0 -95.5176
850.574 2.23785 0 -91.6885
846.949 2.27596 0 -91.698
418.978 2.12433 0 -84.8288
415.361 2.20105 0 -84.8339
1257.27 2.4988 0 -95.5498
1268.16 2.42807 0 -95.5304
417.17 2.16278 0 -84.8317
836.073 2.38913 0 -91.7184
1262.71 2.46354 0 -95.5411
843.323 2.31388 0 -91.7062
839.698 2.3516 0 -91.713
415.361 2.20105 0 -84.8339
411.745 2.27705 0 -84.8364
1246.38 2.56871 0 -95.5611
1257.27 2.4988 0 -95.5498
413.553 2.23914 0 -84.8355
828.823 2.4636 0 -91.7252
1251.83 2.53386 0 -95.5565
836.073 2.38913 0 -91.7184
832.448 2.42647 0 -91.7225
411.745 2.27705 0 -84.8364
408.128 2.35231 0 -84.8361
1235.5 2.63781 0 -95.5644
1246.38 2.56871 0 -95.5611
409.936 2.31477 0 -84.8366
821.574 2.53729 0 -91.7267
1240.94 2.60336 0 -95.5637
828.823 2.4636 0 -91.7252
825.198 2.50054 0 -91.7266
408.128 2.35231 0 -84.8361
404.511 2.42685 0 -84.8333
1224.61 2.70608 0 -95.5596
1235.5 2.63781 0 -95.5644
406.32 2.38967 0 -84.835
814.324 2.61018 0 -91.7228
1230.05 2.67205 0 -95.563
821.574 2.53729 0 -91.7267
817.949 2.57383 0 -91.7254
404.511 2.42685 0 -84.8333
400.895 2.50066 0 -84.8277
1213.72 2.77353 0 -95.547
1224.61 2.70608 0 -95.5596
402.703 2.46384 0 -84.8308
807.075 2.68228 0 -91.7137
1219.17 2.73991 0 -95.5543
814.324 2.61018 0 -91.7228
810.699 2.64633 0 -91.7189
400.895 2.50066 0 -84.8277
397.278 2.57373 0 -84.8196
1202.84 2.84015 0 -95.5265
1213.72 2.77353 0 -95.547
399.087 2.53728 0 -84.824
799.826 2.7536 0 -91.6994
1208.28 2.80695 0 -95.5377
807.075 2.68228 0 -91.7137
803.45 2.71804 0 -91.7072
397.278 2.57373 0 -84.8196
393.662 2.64607 0 -84.8089
1191.95 2.90594 0 -95.4983
1202.84 2.84015 0 -95.5265
395.47 2.60999 0 -84.8145
792.577 2.82411 0 -91.6798
1197.4 2.87315 0 -95.5133
799.826 2.7536 0 -91.6994
796.201 2.78895 0 -91.6902
393.662 2.64607 0 -84.8089
390.045 2.71768 0 -84.7956
1181.07 2.9709 0 -95.4623
1191.95 2.90594 0 -95.4983
391.854 2.68197 0 -84.8025
785.328 2.89383 0 -91.6552
1186.51 2.93853 0 -95.4812
792.577 2.82411 0 -91.6798
788.952 2.85907 0 -91.6681
390.045 2.71768 0 -84.7956
386.429 2.78855 0 -84.7797
1170.18 3.03501 0 -95.4187
1181.07 2.9709 0 -95.4623
388.237 2.7532 0 -84.788
778.079 2.96274 0 -91.6254
1175.63 3.00306 0 -95.4415
785.328 2.89383 0 -91.6552
781.704 2.92838 0 -91.6409
386.429 2.78855 0 -84.7797
382.813 2.85868 0 -84.7614
1159.3 3.09829 0 -95.3676
1170.18 3.03501 0 -95.4187
384.621 2.82371 0 -84.7709
770.831 3.03085 0 -91.5907
1164.74 3.06676 0 -95.3941
778.079 2.96274 0 -91.6254
774.455 2.9969 0 -91.6087
382.813 2.85868 0 -84.7614
379.196 2.92808 0 -84.7406
1148.42 3.16072 0 -95.309
1159.3 3.09829 0 -95.3676
381.004 2.89347 0 -84.7513
763.583 3.09816 0 -91.5509
1153.86 3.12961 0 -95.3392
770.831 3.03085 0 -91.5907
767.207 3.06461 0 -91.5714
379.196 2.92808 0 -84.7406
375.58 2.99673 0 -84.7173
1137.53 3.2223 0 -95.243
1148.42 3.16072 0 -95.309
377.388 2.9625 0 -84.7292
756.335 3.16467 0 -91.5062
1142.97 3.19161 0 -95.2769
763.583 3.09816 0 -91.5509
759.959 3.13152 0 -91.5292
375.58 2.99673 0 -84.7173
371.964 3.06465 0 -84.6915
1126.65 3.28303 0 -95.1696
1137.53 3.2223 0 -95.243
373.772 3.03078 0 -84.7047
749.088 3.23036 0 -91.4566
1132.09 3.25277 0 -95.2072
756.335 3.16467 0 -91.5062
752.712 3.19762 0 -91.482
371.964 3.06465 0 -84.6915
368.347 3.13183 0 -84.6634
1115.77 3.34291 0 -95.089
1126.65 3.28303 0 -95.1696
370.156 3.09833 0 -84.6777
741.84 3.29525 0 -91.4022
1121.21 3.31308 0 -95.1302
749.088 3.23036 0 -91.4566
745.464 3.26291 0 -91.43
368.347 3.13183 0 -84.6634
364.731 3.19827 0 -84.6328
1104.89 3.40193 0 -95.0011
1115.77 3.34291 0 -95.089
366.539 3.16514 0 -84.6484
734.593 3.35932 0 -91.343
1110.33 3.37253 0 -95.046
741.84 3.29525 0 -91.4022
738.217 3.32739 0 -91.3732
364.731 3.19827 0 -84.6328
361.115 3.26396 0 -84.5999
1094.01 3.4601 0 -94.9062
1104.89 3.40193 0 -95.0011
362.923 3.23121 0 -84.6166
727.346 3.42259 0 -91.279
1099.45 3.43113 0 -94.9545
734.593 3.35932 0 -91.343
730.97 3.39106 0 -91.3116
361.115 3.26396 0 -84.5999
357.499 3.32891 0 -84.5646
1083.13 3.51741 0 -94.8042
1094.01 3.4601 0 -94.9062
359.307 3.29653 0 -84.5825
720.1 3.48504 0 -91.2103
1088.57 3.48887 0 -94.856
727.346 3.42259 0 -91.279
723.723 3.45391 0 -91.2452
357.499 3.32891 0 -84.5646
353.883 3.39312 0 -84.527
1072.25 3.57386 0 -94.6951
1083.13 3.51741 0 -94.8042
355.691 3.36111 0 -84.5461
712.853 3.54667 0 -91.137
1077.69 3.54575 0 -94.7505
720.1 3.48504 0 -91.2103
716.476 3.51596 0 -91.1742
353.883 3.39312 0 -84.527
350.267 3.45659 0 -84.4871
1061.37 3.62945 0 -94.5792
1072.25 3.57386 0 -94.6951
352.075 3.42495 0 -84.5073
705.607 3.60749 0 -91.059
1066.81 3.60177 0 -94.638
712.853 3.54667 0 -91.137
709.23 3.57718 0 -91.0986
350.267 3.45659 0 -84.4871
346.651 3.51931 0 -84.4449
1050.49 3.68418 0 -94.4564
1061.37 3.62945 0 -94.5792
348.459 3.48805 0 -84.4663
698.361 3.66749 0 -90.9765
1055.93 3.65692 0 -94.5187
705.607 3.60749 0 -91.059
701.984 3.63759 0 -91.0183
346.651 3.51931 0 -84.4449
343.035 3.58129 0 -84.4005
1039.61 3.73804 0 -94.3269
1050.49 3.68418 0 -94.4564
344.843 3.5504 0 -84.423
691.115 3.72668 0 -90.8895
1045.05 3.71122 0 -94.3925
698.361 3.66749 0 -90.9765
694.738 3.69719 0 -90.9335
343.035 3.58129 0 -84.4005
339.419 3.64253 0 -84.3538
1028.73 3.79103 0 -94.1906
1039.61 3.73804 0 -94.3269
341.227 3.612 0 -84.3774
683.87 3.78505 0 -90.798
1034.17 3.76464 0 -94.2596
691.115 3.72668 0 -90.8895
687.493 3.75596 0 -90.8443
339.419 3.64253 0 -84.3538
335.803 3.70301 0 -84.3049
1017.85 3.84316 0 -94.0477
1028.73 3.79103 0 -94.1906
337.611 3.67286 0 -84.3296
676.625 3.84259 0 -90.7021
1023.29 3.81721 0 -94.12
683.87 3.78505 0 -90.798
680.247 3.81392 0 -90.7506
335.803 3.70301 0 -84.3049
332.188 3.76276 0 -84.2539
1006.97 3.89442 0 -93.8983
1017.85 3.84316 0 -94.0477
333.996 3.73298 0 -84.2797
669.38 3.89932 0 -90.6018
1012.41 3.8689 0 -93.9738
676.625 3.84259 0 -90.7021
673.002 3.87106 0 -90.6525
332.188 3.76276 0 -84.2539
328.572 3.82175 0 -84.2007
996.096 3.94482 0 -93.7423
1006.97 3.89442 0 -93.8983
330.38 3.79235 0 -84.2275
662.135 3.95523 0 -90.4972
1001.53 3.91973 0 -93.8211
669.38 3.89932 0 -90.6018
665.757 3.92738 0 -90.55
328.572 3.82175 0 -84.2007
324.956 3.88001 0 -84.1453
985.22 3.99434 0 -93.5799
996.096 3.94482 0 -93.7423
326.764 3.85097 0 -84.1732
654.89 4.01032 0 -90.3883
990.658 3.96969 0 -93.6619
662.135 3.95523 0 -90.4972
658.512 3.98288 0 -90.4433
324.956 3.88001 0 -84.1453
321.341 3.93751 0 -84.0878
974.344 4.043 0 -93.4112
985.22 3.99434 0 -93.5799
323.148 3.90885 0 -84.1168
647.646 4.06458 0 -90.2752
979.782 4.01878 0 -93.4964
654.89 4.01032 0 -90.3883
651.268 4.03755 0 -90.3322
321.341 3.93751 0 -84.0878
317.725 3.99427 0 -84.0283
963.468 4.09078 0 -93.2362
974.344 4.043 0 -93.4112
319.533 3.96599 0 -84.0583
640.402 4.11803 0 -90.1579
968.906 4.067 0 -93.3245
647.646 4.06458 0 -90.2752
644.024 4.09141 0 -90.217
317.725 3.99427 0 -84.0283
314.11 4.05029 0 -83.9667
952.593 4.1377 0 -93.055
963.468 4.09078 0 -93.2362
315.917 4.02237 0 -83.9978
633.158 4.17066 0 -90.0364
958.03 4.11435 0 -93.1464
640.402 4.11803 0 -90.1579
636.78 4.14445 0 -90.0977
314.11 4.05029 0 -83.9667
310.494 4.10555 0 -83.9031
941.718 4.18374 0 -92.8676
952.593 4.1377 0 -93.055
312.302 4.07801 0 -83.9351
625.914 4.22246 0 -89.9109
947.155 4.16083 0 -92.9621
633.158 4.17066 0 -90.0364
629.536 4.19666 0 -89.9742
310.494 4.10555 0 -83.9031
306.879 4.16007 0 -83.8374
930.844 4.22892 0 -92.6742
941.718 4.18374 0 -92.8676
308.686 4.13291 0 -83.8705
618.671 4.27344 0 -89.7813
936.281 4.20644 0 -92.7717
625.914 4.22246 0 -89.9109
622.293 4.24805 0 -89.8466
306.879 4.16007 0 -83.8374
303.263 4.21385 0 -83.7697
919.97 4.27323 0 -92.4748
930.844 4.22892 0 -92.6742
305.071 4.18705 0 -83.8038
611.428 4.3236 0 -89.6478
925.407 4.25118 0 -92.5752
618.671 4.27344 0 -89.7813
615.049 4.29863 0 -89.715
303.263 4.21385 0 -83.7697
299.648 4.26688 0 -83.7001
909.097 4.31667 0 -92.2694
919.97 4.27323 0 -92.4748
301.455 4.24046 0 -83.7352
604.185 4.37295 0 -89.5102
914.533 4.29506 0 -92.3728
611.428 4.3236 0 -89.6478
607.806 4.34838 0 -89.5795
299.648 4.26688 0 -83.7001
296.033 4.31916 0 -83.6286
898.224 4.35923 0 -92.0582
909.097 4.31667 0 -92.2694
297.84 4.29311 0 -83.6646
596.942 4.42147 0 -89.3688
903.66 4.33806 0 -92.1645
604.185 4.37295 0 -89.5102
600.563 4.39731 0 -89.44
296.033 4.31916 0 -83.6286
292.417 4.3707 0 -83.5551
887.351 4.40094 0 -91.8412
898.224 4.35923 0 -92.0582
294.225 4.34502 0 -83.592
589.7 4.46917 0 -89.2236
892.787 4.38019 0 -91.9504
596.942 4.42147 0 -89.3688
593.321 4.44542 0 -89.2967
292.417 4.3707 0 -83.5551
288.802 4.42149 0 -83.4797
876.479 4.44177 0 -91.6185
887.351 4.40094 0 -91.8412
290.61 4.39619 0 -83.5176
582.457 4.51605 0 -89.0745
881.915 4.42146 0 -91.7306
589.7 4.46917 0 -89.2236
586.078 4.49271 0 -89.1495
288.802 4.42149 0 -83.4797
285.187 4.47154 0 -83.4024
865.608 4.48174 0 -91.3901
876.479 4.44177 0 -91.6185
286.994 4.44661 0 -83.4413
575.215 4.56211 0 -88.9216
871.043 4.46186 0 -91.505
582.457 4.51605 0 -89.0745
578.836 4.53918 0 -88.9985
285.187 4.47154 0 -83.4024
281.572 4.52084 0 -83.3233
854.736 4.52084 0 -91.1562
865.608 4.48174 0 -91.3901
283.379 4.49628 0 -83.3631
567.974 4.60736 0 -88.7651
860.172 4.5014 0 -91.2738
575.215 4.56211 0 -88.9216
571.594 4.58484 0 -88.8438
281.572 4.52084 0 -83.3233
277.957 4.5694 0 -83.2424
843.866 4.55908 0 -90.9167
854.736 4.52084 0 -91.1562
279.764 4.54521 0 -83.2831
560.732 4.65178 0 -88.6049
849.301 4.54007 0 -91.0371
567.974 4.60736 0 -88.7651
564.353 4.62967 0 -88.6854
277.957 4.5694 0 -83.2424
274.342 4.61721 0 -83.1596
832.995 4.59645 0 -90.6718
843.866 4.55908 0 -90.9167
276.149 4.5934 0 -83.2012
553.491 4.69539 0 -88.441
838.431 4.57787 0 -90.795
560.732 4.65178 0 -88.6049
557.111 4.67369 0 -88.5234
274.342 4.61721 0 -83.1596
270.727 4.66428 0 -83.0751
822.126 4.63296 0 -90.4216
832.995 4.59645 0 -90.6718
272.534 4.64084 0 -83.1176
546.25 4.73819 0 -88.2736
827.561 4.61482 0 -90.5474
553.491 4.69539 0 -88.441
549.87 4.71689 0 -88.3578
270.727 4.66428 0 -83.0751
267.112 4.71061 0 -82.9889
811.256 4.66862 0 -90.166
822.126 4.63296 0 -90.4216
268.919 4.68754 0 -83.0322
539.009 4.78017 0 -88.1027
816.691 4.6509 0 -90.2945
546.25 4.73819 0 -88.2736
542.629 4.75928 0 -88.1886
267.112 4.71061 0 -82.9889
263.497 4.7562 0 -82.9009
800.387 4.70341 0 -89.9053
811.256 4.66862 0 -90.166
265.304 4.7335 0 -82.9451
531.768 4.82133 0 -87.9283
805.822 4.68612 0 -90.0363
539.009 4.78017 0 -88.1027
535.388 4.80085 0 -88.0159
263.497 4.7562 0 -82.9009
259.882 4.80104 0 -82.8112
789.519 4.73735 0 -89.6394
800.387 4.70341 0 -89.9053
261.689 4.77871 0 -82.8562
524.528 4.86169 0 -87.7505
794.953 4.72049 0 -89.773
531.768 4.82133 0 -87.9283
528.148 4.84161 0 -87.8398
259.882 4.80104 0 -82.8112
256.267 4.84514 0 -82.7198
778.651 4.77043 0 -89.3684
789.519 4.73735 0 -89.6394
258.074 4.82318 0 -82.7657
517.287 4.90123 0 -87.5693
784.085 4.75399 0 -89.5045
524.528 4.86169 0 -87.7505
520.908 4.88156 0 -87.6603
256.267 4.84514 0 -82.7198
252.652 4.8885 0 -82.6267
767.783 4.80266 0 -89.0923
778.651 4.77043 0 -89.3684
254.459 4.86692 0 -82.6734
510.047 4.93996 0 -87.3847
773.217 4.78665 0 -89.231
517.287 4.90123 0 -87.5693
513.667 4.9207 0 -87.4774
252.652 4.8885 0 -82.6267
249.037 4.93112 0 -82.532
756.916 4.83403 0 -88.8114
767.783 4.80266 0 -89.0923
250.845 4.90991 0 -82.5796
502.808 4.97788 0 -87.1969
762.35 4.81845 0 -88.9525
510.047 4.93996 0 -87.3847
506.428 4.95902 0 -87.2912
249.037 4.93112 0 -82.532
245.423 4.97301 0 -82.4357
746.049 4.86456 0 -88.5256
756.916 4.83403 0 -88.8114
247.23 4.95216 0 -82.4841
495.568 5.015 0 -87.0058
751.483 4.8494 0 -88.6691
502.808 4.97788 0 -87.1969
499.188 4.99654 0 -87.1017
245.423 4.97301 0 -82.4357
241.808 5.01415 0 -82.3378
735.183 4.89424 0 -88.2349
746.049 4.86456 0 -88.5256
243.615 4.99367 0 -82.387
488.329 5.05131 0 -86.8115
740.616 4.8795 0 -88.3808
495.568 5.015 0 -87.0058
491.948 5.03325 0 -86.909
241.808 5.01415 0 -82.3378
238.193 5.05455 0 -82.2384
724.317 4.92307 0 -87.9396
735.183 4.89424 0 -88.2349
240 5.03444 0 -82.2883
481.09 5.08681 0 -86.6141
729.75 4.90876 0 -88.0878
488.329 5.05131 0 -86.8115
484.709 5.06916 0 -86.7132
238.193 5.05455 0 -82.2384
234.578 5.09422 0 -82.1374
713.452 4.95107 0 -87.6395
724.317 4.92307 0 -87.9396
236.386 5.07448 0 -82.1881
473.851 5.12151 0 -86.4135
718.884 4.93717 0 -87.7901
481.09 5.08681 0 -86.6141
477.47 5.10426 0 -86.5142
234.578 5.09422 0 -82.1374
230.964 5.13315 0 -82.0348
702.586 4.97822 0 -87.3349
713.452 4.95107 0 -87.6395
232.771 5.11378 0 -82.0863
466.612 5.15541 0 -86.2099
708.019 4.96475 0 -87.4878
473.851 5.12151 0 -86.4135
470.231 5.13856 0 -86.3121
230.964 5.13315 0 -82.0348
227.349 5.17135 0 -81.9308
691.722 5.00453 0 -87.0258
702.586 4.97822 0 -87.3349
229.157 5.15234 0 -81.983
459.373 5.18852 0 -86.0033
697.154 4.99148 0 -87.1809
466.612 5.15541 0 -86.2099
462.993 5.17206 0 -86.107
227.349 5.17135 0 -81.9308
223.735 5.20881 0 -81.8253
680.858 5.03001 0 -86.7122
691.722 5.00453 0 -87.0258
225.542 5.19017 0 -81.8783
452.135 5.22082 0 -85.7938
686.29 5.01738 0 -86.8695
459.373 5.18852 0 -86.0033
455.754 5.20477 0 -85.8989
223.735 5.20881 0 -81.8253
220.12 5.24554 0 -81.7184
669.994 5.05466 0 -86.3942
680.858 5.03001 0 -86.7122
221.927 5.22727 0 -81.772
444.897 5.25233 0 -85.5813
675.426 5.04244 0 -86.5538
452.135 5.22082 0 -85.7938
448.516 5.23667 0 -85.6879
220.12 5.24554 0 -81.7184
216.506 5.28154 0 -81.61
659.13 5.07848 0 -86.072
669.994 5.05466 0 -86.3942
218.313 5.26363 0 -81.6644
437.659 5.28304 0 -85.366
664.562 5.06668 0 -86.2336
444.897 5.25233 0 -85.5813
441.278 5.26778 0 -85.474
216.506 5.28154 0 -81.61
212.891 5.3168 0 -81.5003
648.267 5.10148 0 -85.7454
659.13 5.07848 0 -86.072
214.698 5.29926 0 -81.5553
430.421 5.31296 0 -85.1478
653.699 5.09008 0 -85.9092
437.659 5.28304 0 -85.366
434.04 5.2981 0 -85.2572
212.891 5.3168 0 -81.5003
209.277 5.35133 0 -81.3891
637.404 5.12365 0 -85.4148
648.267 5.10148 0 -85.7454
211.084 5.33416 0 -81.4449
423.184 5.3421 0 -84.9269
642.836 5.11267 0 -85.5806
430.421 5.31296 0 -85.1478
426.802 5.32763 0 -85.0377
209.277 5.35133 0 -81.3891
205.662 5.38514 0 -81.2766
626.542 5.145 0 -85.08
637.404 5.12365 0 -85.4148
207.469 5.36833 0 -81.3331
415.946 5.37044 0 -84.7032
631.973 5.13443 0 -85.2479
423.184 5.3421 0 -84.9269
419.565 5.35637 0 -84.8154
205.662 5.38514 0 -81.2766
202.048 5.41821 0 -81.1628
615.68 5.16554 0 -84.7412
626.542 5.145 0 -85.08
203.855 5.40177 0 -81.2199
408.709 5.398 0 -84.4769
621.111 5.15537 0 -84.9111
415.946 5.37044 0 -84.7032
412.328 5.38432 0 -84.5904
202.048 5.41821 0 -81.1628
198.433 5.45056 0 -81.0477
604.819 5.18526 0 -84.3984
615.68 5.16554 0 -84.7412
200.241 5.43448 0 -81.1054
401.472 5.42478 0 -84.2479
610.249 5.1755 0 -84.5703
408.709 5.398 0 -84.4769
405.091 5.41149 0 -84.3627
198.433 5.45056 0 -81.0477
194.819 5.48219 0 -80.9313
593.958 5.20418 0 -84.0517
604.819 5.18526 0 -84.3984
196.626 5.46646 0 -80.9896
394.235 5.45077 0 -84.0164
599.388 5.19482 0 -84.2255
401.472 5.42478 0 -84.2479
397.854 5.43787 0 -84.1325
194.819 5.48219 0 -80.9313
191.205 5.51308 0 -80.8136
583.097 5.22228 0 -83.7013
593.958 5.20418 0 -84.0517
193.012 5.49772 0 -80.8726
386.999 5.47599 0 -83.7823
588.527 5.21333 0 -83.877
394.235 5.45077 0 -84.0164
390.617 5.46348 0 -83.8996
191.205 5.51308 0 -80.8136
187.59 5.54326 0 -80.6947
572.236 5.23959 0 -83.347
583.097 5.22228 0 -83.7013
189.398 5.52826 0 -80.7543
379.762 5.50043 0 -83.5457
577.667 5.23104 0 -83.5246
386.999 5.47599 0 -83.7823
383.38 5.48831 0 -83.6643
187.59 5.54326 0 -80.6947
183.976 5.57271 0 -80.5746
561.376 5.2561 0 -82.9891
572.236 5.23959 0 -83.347
185.783 5.55807 0 -80.6348
372.526 5.5241 0 -83.3067
566.806 5.24794 0 -83.1685
379.762 5.50043 0 -83.5457
376.144 5.51236 0 -83.4265
183.976 5.57271 0 -80.5746
180.362 5.60144 0 -80.4533
550.517 5.27181 0 -82.6276
561.376 5.2561 0 -82.9891
182.169 5.58716 0 -80.5141
365.29 5.54699 0 -83.0652
555.947 5.26405 0 -82.8088
372.526 5.5241 0 -83.3067
368.908 5.53564 0 -83.1862
180.362 5.60144 0 -80.4533
176.747 5.62945 0 -80.3308
539.657 5.28673 0 -82.2626
550.517 5.27181 0 -82.6276
178.555 5.61553 0 -80.3922
358.054 5.56912 0 -82.8215
545.087 5.27937 0 -82.4455
365.29 5.54699 0 -83.0652
361.672 5.55815 0 -82.9436
176.747 5.62945 0 -80.3308
173.133 5.65674 0 -80.2072
528.798 5.30086 0 -81.8941
539.657 5.28673 0 -82.2626
174.94 5.64319 0 -80.2691
350.818 5.59048 0 -82.5754
534.228 5.29389 0 -82.0787
358.054 5.56912 0 -82.8215
354.436 5.5799 0 -82.6987
173.133 5.65674 0 -80.2072
169.519 5.68332 0 -80.0824
517.94 5.31421 0 -81.5221
528.798 5.30086 0 -81.8941
171.326 5.67012 0 -80.1449
343.582 5.61108 0 -82.327
523.369 5.30763 0 -81.7085
350.818 5.59048 0 -82.5754
347.2 5.60087 0 -82.4515
169.519 5.68332 0 -80.0824
165.904 5.70917 0 -79.9566
507.081 5.32678 0 -81.1469
517.94 5.31421 0 -81.5221
167.712 5.69633 0 -80.0196
336.347 5.63092 0 -82.0765
512.511 5.3206 0 -81.3349
343.582 5.61108 0 -82.327
339.965 5.62109 0 -82.202
165.904 5.70917 0 -79.9566
162.29 5.73432 0 -79.8297
496.224 5.33858 0 -80.7684
507.081 5.32678 0 -81.1469
164.097 5.72184 0 -79.8933
329.112 5.65 0 -81.8237
501.652 5.33278 0 -80.9581
336.347 5.63092 0 -82.0765
332.729 5.64055 0 -81.9504
162.29 5.73432 0 -79.8297
158.676 5.75875 0 -79.7017
485.366 5.34961 0 -80.3867
496.224 5.33858 0 -80.7684
160.483 5.74662 0 -79.7658
321.876 5.66832 0 -81.5689
490.795 5.34419 0 -80.578
329.112 5.65 0 -81.8237
325.494 5.65925 0 -81.6966
158.676 5.75875 0 -79.7017
155.062 5.78247 0 -79.5727
474.509 5.35987 0 -80.0019
485.366 5.34961 0 -80.3867
156.869 5.7707 0 -79.6374
314.641 5.68589 0 -81.312
479.937 5.35483 0 -80.1947
321.876 5.66832 0 -81.5689
318.259 5.6772 0 -81.4407
155.062 5.78247 0 -79.5727
151.447 5.80548 0 -79.4427
463.652 5.36937 0 -79.6141
474.509 5.35987 0 -80.0019
153.254 5.79406 0 -79.5079
307.407 5.70272 0 -81.0531
469.08 5.36471 0 -79.8084
314.641 5.68589 0 -81.312
311.024 5.6944 0 -81.1828
151.447 5.80548 0 -79.4427
147.833 5.82778 0 -79.3118
452.795 5.37811 0 -79.2232
463.652 5.36937 0 -79.6141
149.64 5.81672 0 -79.3774
300.172 5.71879 0 -80.7922
458.223 5.37383 0 -79.419
307.407 5.70272 0 -81.0531
303.789 5.71085 0 -80.9229
147.833 5.82778 0 -79.3118
144.219 5.84937 0 -79.1799
441.939 5.38609 0 -78.8295
452.795 5.37811 0 -79.2232
146.026 5.83866 0 -79.2459
292.937 5.73413 0 -80.5293
447.367 5.38219 0 -79.0267
300.172 5.71879 0 -80.7922
296.554 5.72655 0 -80.661
144.219 5.84937 0 -79.1799
140.604 5.87026 0 -79.047
431.083 5.39333 0 -78.4329
441.939 5.38609 0 -78.8295
142.412 5.8599 0 -79.1136
285.703 5.74872 0 -80.2646
436.51 5.38981 0 -78.6316
292.937 5.73413 0 -80.5293
289.32 5.74152 0 -80.3972
140.604 5.87026 0 -79.047
136.99 5.89044 0 -78.9133
420.227 5.39983 0 -78.0336
431.083 5.39333 0 -78.4329
138.797 5.88044 0 -78.9803
278.468 5.76258 0 -79.998
425.655 5.39667 0 -78.2336
285.703 5.74872 0 -80.2646
282.085 5.75574 0 -80.1315
136.99 5.89044 0 -78.9133
133.376 5.90992 0 -78.7786
409.371 5.40558 0 -77.6315
420.227 5.39983 0 -78.0336
135.183 5.90027 0 -78.8461
271.234 5.7757 0 -79.7297
414.799 5.4028 0 -77.8329
278.468 5.76258 0 -79.998
274.851 5.76923 0 -79.8641
133.376 5.90992 0 -78.7786
129.761 5.9287 0 -78.6431
398.516 5.4106 0 -77.2269
409.371 5.40558 0 -77.6315
131.569 5.9194 0 -78.711
264 5.78809 0 -79.4596
403.944 5.40818 0 -77.4295
271.234 5.7757 0 -79.7297
267.617 5.78198 0 -79.5948
129.761 5.9287 0 -78.6431
126.147 5.94678 0 -78.5068
387.661 5.41489 0 -76.8197
398.516 5.4106 0 -77.2269
127.954 5.93783 0 -78.5751
256.766 5.79975 0 -79.1878
393.089 5.41284 0 -77.0236
264 5.78809 0 -79.4596
260.383 5.79401 0 -79.3239
126.147 5.94678 0 -78.5068
122.533 5.96416 0 -78.3696
376.807 5.41846 0 -76.4099
387.661 5.41489 0 -76.8197
124.34 5.95556 0 -78.4383
249.532 5.81069 0 -78.9143
382.234 5.41676 0 -76.6151
256.766 5.79975 0 -79.1878
253.149 5.80531 0 -79.0513
122.533 5.96416 0 -78.3696
118.918 5.98084 0 -78.2317
365.952 5.4213 0 -75.9978
376.807 5.41846 0 -76.4099
120.726 5.97259 0 -78.3008
242.298 5.8209 0 -78.6393
371.379 5.41997 0 -76.2042
249.532 5.81069 0 -78.9143
245.915 5.81588 0 -78.777
118.918 5.98084 0 -78.2317
115.304 5.99683 0 -78.093
355.098 5.42343 0 -75.5833
365.952 5.4213 0 -75.9978
117.111 5.98892 0 -78.1624
235.065 5.8304 0 -78.3627
360.525 5.42245 0 -75.7909
242.298 5.8209 0 -78.6393
238.681 5.82574 0 -78.5012
115.304 5.99683 0 -78.093
111.689 6.01212 0 -77.9535
344.244 5.42484 0 -75.1666
355.098 5.42343 0 -75.5833
113.497 6.00456 0 -78.0233
227.831 5.83917 0 -78.0846
349.671 5.42422 0 -75.3753
235.065 5.8304 0 -78.3627
231.448 5.83487 0 -78.2238
111.689 6.01212 0 -77.9535
108.075 6.02671 0 -77.8134
333.391 5.42554 0 -74.7477
344.244 5.42484 0 -75.1666
109.882 6.0195 0 -77.8835
220.598 5.84723 0 -77.805
338.817 5.42528 0 -74.9574
227.831 5.83917 0 -78.0846
224.214 5.84329 0 -77.9449
108.075 6.02671 0 -77.8134
104.461 6.0406 0 -77.6725
322.537 5.42554 0 -74.3266
333.391 5.42554 0 -74.7477
106.268 6.03374 0 -77.743
213.364 5.85457 0 -77.524
327.964 5.42563 0 -74.5374
220.598 5.84723 0 -77.805
216.981 5.85099 0 -77.6647
104.461 6.0406 0 -77.6725
100.846 6.05379 0 -77.531
311.684 5.42484 0 -73.9034
322.537 5.42554 0 -74.3266
102.653 6.04728 0 -77.6018
206.131 5.86121 0 -77.2416
317.111 5.42528 0 -74.1152
213.364 5.85457 0 -77.524
209.747 5.85798 0 -77.383
100.846 6.05379 0 -77.531
97.2316 6.06629 0 -77.3888
300.831 5.42344 0 -73.4783
311.684 5.42484 0 -73.9034
99.0388 6.06013 0 -77.4599
198.898 5.86712 0 -76.958
306.258 5.42423 0 -73.6911
206.131 5.86121 0 -77.2416
202.514 5.86425 0 -77.1
97.2316 6.06629 0 -77.3888
93.617 6.07808 0 -77.246
289.979 5.42134 0 -73.0513
300.831 5.42344 0 -73.4783
95.4243 6.07227 0 -77.3174
191.665 5.87233 0 -76.673
295.405 5.42248 0 -73.265
198.898 5.86712 0 -76.958
195.281 5.86981 0 -76.8157
93.617 6.07808 0 -77.246
90.0025 6.08917 0 -77.1026
279.126 5.41855 0 -72.6224
289.979 5.42134 0 -73.0513
91.8098 6.08371 0 -77.1743
184.432 5.87682 0 -76.3869
284.552 5.42003 0 -72.837
191.665 5.87233 0 -76.673
188.048 5.87466 0 -76.5301
90.0025 6.08917 0 -77.1026
86.388 6.09956 0 -76.9586
268.274 5.41506 0 -72.1917
279.126 5.41855 0 -72.6224
88.1953 6.09445 0 -77.0307
177.199 5.8806 0 -76.0996
273.7 5.41689 0 -72.4073
184.432 5.87682 0 -76.3869
180.815 5.8788 0 -76.2434
86.388 6.09956 0 -76.9586
82.7735 6.10925 0 -76.8141
257.422 5.41089 0 -71.7594
268.274 5.41506 0 -72.1917
84.5807 6.10449 0 -76.8864
169.966 5.88367 0 -75.8111
262.848 5.41306 0 -71.9758
177.199 5.8806 0 -76.0996
173.582 5.88222 0 -75.9555
82.7735 6.10925 0 -76.8141
79.159 6.11826 0 -76.669
246.57 5.40603 0 -71.3254
257.422 5.41089 0 -71.7594
80.9662 6.11384 0 -76.7416
162.733 5.88604 0 -75.5216
251.996 5.40855 0 -71.5426
169.966 5.88367 0 -75.8111
166.349 5.88494 0 -75.6665
79.159 6.11826 0 -76.669
75.5446 6.1266 0 -76.5234
235.719 5.40051 0 -70.8899
246.57 5.40603 0 -71.3254
77.3518 6.12251 0 -76.5963
155.501 5.88773 0 -75.231
241.145 5.40335 0 -71.1079
162.733 5.88604 0 -75.5216
159.117 5.88697 0 -75.3764
75.5446 6.1266 0 -76.5234
71.9302 6.13433 0 -76.3772
224.868 5.39433 0 -70.4529
235.719 5.40051 0 -70.8899
73.7374 6.13054 0 -76.4504
148.268 5.88876 0 -74.9394
230.293 5.39749 0 -70.6716
155.501 5.88773 0 -75.231
151.884 5.88832 0 -75.0854
71.9302 6.13433 0 -76.3772
68.3159 6.14151 0 -76.2305
214.017 5.38754 0 -70.0145
224.868 5.39433 0 -70.4529
70.1231 6.13798 0 -76.3039
141.036 5.88922 0 -74.6468
219.443 5.391 0 -70.2339
148.268 5.88876 0 -74.9394
144.652 5.88906 0 -74.7932
68.3159 6.14151 0 -76.2305
64.7018 6.14832 0 -76.0832
203.167 5.38026 0 -69.5745
214.017 5.38754 0 -70.0145
66.5088 6.14495 0 -76.1569
133.804 5.88924 0 -74.3531
208.592 5.38396 0 -69.7947
141.036 5.88922 0 -74.6468
137.42 5.88927 0 -74.5001
64.7018 6.14832 0 -76.0832
61.0876 6.155 0 -75.9352
192.317 5.37272 0 -69.133
203.167 5.38026 0 -69.5745
62.8947 6.15165 0 -76.0093
126.573 5.88909 0 -74.0583
197.742 5.3765 0 -69.3539
133.804 5.88924 0 -74.3531
130.189 5.88915 0 -74.2058
61.0876 6.155 0 -75.9352
57.4732 6.16205 0 -75.7867
181.468 5.36538 0 -68.6897
192.317 5.37272 0 -69.133
59.2804 6.15843 0 -75.861
119.341 5.88933 0 -73.7622
186.892 5.36898 0 -68.9116
126.573 5.88909 0 -74.0583
122.957 5.88911 0 -73.9104
57.4732 6.16205 0 -75.7867
53.8581 6.1703 0 -75.6379
170.619 5.35927 0 -68.2443
181.468 5.36538 0 -68.6897
55.6659 6.16595 0 -75.7123
112.11 5.89106 0 -73.4649
176.043 5.36206 0 -68.4673
119.341 5.88933 0 -73.7622
115.726 5.8899 0 -73.6137
53.8581 6.1703 0 -75.6379
50.2415 6.18144 0 -75.4897
159.769 5.35629 0 -67.796
170.619 5.35927 0 -68.2443
52.05 6.17535 0 -75.5636
104.877 5.8964 0 -73.1663
165.194 5.3572 0 -68.0206
112.11 5.89106 0 -73.4649
108.494 5.89308 0 -73.3157
50.2415 6.18144 0 -75.4897
46.6203 6.19802 0 -75.3442
148.918 5.36055 0 -67.3437
159.769 5.35629 0 -67.796
48.4318 6.18882 0 -75.4164
97.6394 5.90928 0 -72.8671
154.344 5.35711 0 -67.5705
104.877 5.8964 0 -73.1663
101.259 5.90149 0 -73.0168
46.6203 6.19802 0 -75.3442
42.9915 6.2256 0 -75.2061
138.058 5.3788 0 -66.8854
148.918 5.36055 0 -67.3437
44.8069 6.20994 0 -75.2738
90.3921 5.93717 0 -72.5688
143.489 5.36727 0 -67.1154
97.6394 5.90928 0 -72.8671
94.0175 5.92071 0 -72.7176
42.9915 6.2256 0 -75.2061
39.3429 6.27143 0 -75.0854
127.182 5.4253 0 -66.4176
138.058 5.3788 0 -66.8854
41.1711 6.24554 0 -75.1427
83.1227 5.99254 0 -72.2751
132.622 5.39723 0 -66.6531
90.3921 5.93717 0 -72.5688
86.7611 5.96012 0 -72.4213
39.3429 6.27143 0 -75.0854
35.6643 6.35217 0 -75.0002
116.261 5.52012 0 -65.9365
127.182 5.4253 0 -66.4176
37.5073 6.30609 0 -75.0368
75.8081 6.09795 0 -71.9941
121.73 5.46474 0 -66.1789
83.1227 5.99254 0 -72.2751
79.473 6.03736 0 -72.1318
35.6643 6.35217 0 -75.0002
31.9138 6.48381 0 -74.9847
105.267 5.70482 0 -65.4334
116.261 5.52012 0 -65.9365
33.8031 6.41001 0 -74.9808
68.4051 6.28517 0 -71.7418
110.774 5.59795 0 -65.6886
75.8081 6.09795 0 -71.9941
72.1206 6.17782 0 -71.864
31.9138 6.48381 0 -74.9847
28.0672 6.70803 0 -75.0932
94.0982 6.02208 0 -64.9068
105.267 5.70482 0 -65.4334
30.001 6.58191 0 -75.019
60.8388 6.60681 0 -71.5469
99.7161 5.84266 0 -65.1726
68.4051 6.28517 0 -71.7418
64.6491 6.42696 0 -71.6323
28.0672 6.70803 0 -75.0932
24.0025 7.03463 0 -75.414
82.6725 6.56346 0 -64.3439
94.0982 6.02208 0 -64.9068
26.0781 6.85674 0 -75.2199
52.9891 7.10783 0 -71.4605
88.417 6.26026 0 -64.6316
60.8388 6.60681 0 -71.5469
56.9566 6.82855 0 -71.4906
24.0025 7.03463 0 -75.414
19.7074 7.52803 0 -76.0527
70.6852 7.33984 0 -63.785
82.6725 6.56346 0 -64.3439
21.8717 7.262 0 -75.6862
44.673 7.84036 0 -71.5624
76.7856 6.91937 0 -64.0579
52.9891 7.10783 0 -71.4605
48.9081 7.4529 0 -71.4718
19.7074 7.52803 0 -76.0527
14.9184 8.03386 0 -77.1278
58.0223 8.42382 0 -63.2579
70.6852 7.33984 0 -63.785
17.4169 7.7885 0 -76.5283
35.6881 8.67634 0 -71.9682
64.4224 7.85768 0 -63.5162
44.673 7.84036 0 -71.5624
40.2683 8.24832 0 -71.7367
14.9184 8.03386 0 -77.1278
9.90699 8.46275 0 -78.5959
44.0195 9.30244 0 -63.0533
58.0223 8.42382 0 -63.2579
12.3756 8.29723 0 -77.8239
25.8433 9.29154 0 -72.8013
51.2825 8.92347 0 -63.0822
35.6881 8.67634 0 -71.9682
30.9074 9.09067 0 -72.2874
9.90699 8.46275 0 -78.5959
4.43738 7.73711 0 -80.0856
29.1472 9.30429 0 -63.4332
44.0195 9.30244 0 -63.0533
7.31391 8.30951 0 -79.3823
15.4403 8.37269 0 -74.0711
36.5732 9.56862 0 -63.149
25.8433 9.29154 0 -72.8013
20.6335 9.0992 0 -73.4542
4.43738 7.73711 0 -80.0856
0.0771761 5.04945 0 -80.1181
13.1931 4.82246 0 -65.2476
29.1472 9.30429 0 -63.4332
1.86965 6.78095 0 -80.4284
5.47852 3.8707 0 -75.1237
21.4392 7.88645 0 -64.0923
15.4403 8.37269 0 -74.0711
10.3986 6.87191 0 -74.5879
0.0771761 5.04945 0 -80.1181
-3.46632 -2.20687 0 -75.8567
1.10784 -9.28694 0 -67.1608
13.1931 4.82246 0 -65.2476
-1.58737 1.93479 0 -78.7743
-0.847879 -7.94785 0 -73.0793
6.0423 -0.23475 0 -66.3843
5.47852 3.8707 0 -75.1237
1.39644 -1.15022 0 -75.0146
-3.46632 -2.20687 0 -75.8567
-2.86164 -11.0526 0 -62.444
-5.42116 -45.299 0 -63.0849
1.10784 -9.28694 0 -67.1608
-4.23734 -6.52757 0 -70.5979
-3.25608 -27.5458 0 -61.6558
-2.72043 -24.6498 0 -66.7512
-0.847879 -7.94785 0 -73.0793
-2.08213 -16.641 0 -68.653
-2.86164 -11.0526 0 -62.444
1.09061 -23.3247 0 -36.4485
-4.15615 -88.9305 0 -36.066
-5.42116 -45.299 0 -63.0849
-0.691345 -16.5655 0 -51.1728
-3.36979 -53.6063 0 -38.0369
-6.37596 -68.633 0 -53.4022
-3.25608 -27.5458 0 -61.6558
-3.96033 -40.3717 0 -51.7272
1922.46 575.811 0 175.754
2089.16 362.71 0 -7.65449
3543.52 381.761 0 -199.638
3345.95 1000.79 0 -136.657
2035.6 461.643 0 65.0418
2770.84 419.246 0 -83.532
3476.37 719.912 0 -230.328
2735.3 818.556 0 25.5874
2707.1 582.695 0 -27.8722
2089.16 362.71 0 -7.65449
2129.38 157.105 0 -65.3773
3597.67 112.598 0 -98.1496
3543.52 381.761 0 -199.638
2107.12 252.381 0 -44.6837
2870.73 162.784 0 -98.4273
3594.25 195.901 0 -145.709
2770.84 419.246 0 -83.532
2847.68 281.483 0 -109.522
2129.38 157.105 0 -65.3773
2150.1 53.0258 0 -77.2306
3552.76 18.5988 0 -40.3696
3597.67 112.598 0 -98.1496
2148.99 94.6243 0 -75.7982
2864.55 45.2052 0 -68.2701
3570.74 54.4531 0 -60.0754
2870.73 162.784 0 -98.4273
2869.73 87.0557 0 -79.1005
2150.1 53.0258 0 -77.2306
2134.04 4.5854 0 -72.4322
3521.61 -2.11279 0 -28.2684
3552.76 18.5988 0 -40.3696
2141.34 23.0577 0 -74.5107
2837.47 -0.15298 0 -53.8562
3538.98 3.62211 0 -32.051
2864.55 45.2052 0 -68.2701
2852.99 17.5257 0 -60.4892
2134.04 4.5854 0 -72.4322
2114.99 -9.70643 0 -69.3535
3490.36 -9.8514 0 -28.8163
3521.61 -2.11279 0 -28.2684
2126.13 -4.89435 0 -70.9115
2808.14 -11.3564 0 -49.9584
3503.47 -7.10889 0 -27.2252
2837.47 -0.15298 0 -53.8562
2821.57 -8.67409 0 -50.3039
2114.99 -9.70643 0 -69.3535
2092.88 -13.2694 0 -67.5268
3468.71 -8.64621 0 -34.4965
3490.36 -9.8514 0 -28.8163
2102.88 -12.5102 0 -68.0425
2783.66 -12.8733 0 -51.2698
3479.86 -9.65165 0 -31.7614
2808.14 -11.3564 0 -49.9584
2795.64 -12.55 0 -50.5913
2092.88 -13.2694 0 -67.5268
2075 -11.5934 0 -67.4804
3447.84 -7.32203 0 -39.5286
3468.71 -8.64621 0 -34.4965
2083.96 -12.6398 0 -67.4634
2762.67 -10.5946 0 -53.9379
3457.63 -8.03159 0 -37.0116
2783.66 -12.8733 0 -51.2698
2772.61 -12.0325 0 -52.4089
2075 -11.5934 0 -67.4804
2058.86 -9.47076 0 -67.8996
3429.29 -5.4731 0 -43.8958
3447.84 -7.32203 0 -39.5286
2066.42 -10.5748 0 -67.5981
2744.49 -8.2908 0 -56.6354
3438.67 -6.34364 0 -41.9114
2762.67 -10.5946 0 -53.9379
2753.38 -9.3407 0 -55.3967
2058.86 -9.47076 0 -67.8996
2045.14 -7.41835 0 -68.6837
3410.79 -4.30276 0 -47.072
3429.29 -5.4731 0 -43.8958
2051.9 -8.36259 0 -68.2937
2727.92 -6.33836 0 -58.9187
3419.9 -4.83932 0 -45.5755
2744.49 -8.2908 0 -56.6354
2736.03 -7.26874 0 -57.8064
2045.14 -7.41835 0 -68.6837
2032.5 -6.01858 0 -69.4985
3392.7 -3.43321 0 -49.5546
3410.79 -4.30276 0 -47.072
2038.65 -6.65995 0 -69.0791
2712.34 -5.04383 0 -60.7648
3401.78 -3.81664 0 -48.407
2727.92 -6.33836 0 -58.9187
2720.06 -5.6079 0 -59.9056
2032.5 -6.01858 0 -69.4985
2020.75 -5.052 0 -70.3379
3374.55 -2.91667 0 -51.4775
3392.7 -3.43321 0 -49.5546
2026.58 -5.47753 0 -69.9248
2697.29 -4.18907 0 -62.2813
3383.6 -3.14696 0 -50.5621
2712.34 -5.04383 0 -60.7648
2704.77 -4.57339 0 -61.5518
2020.75 -5.052 0 -70.3379
2009.39 -4.45376 0 -71.1439
3356.44 -2.57817 0 -53.0967
3374.55 -2.91667 0 -51.4775
2015.02 -4.72052 0 -70.7426
2682.51 -3.66634 0 -63.568
3365.51 -2.72623 0 -52.3209
2697.29 -4.18907 0 -62.2813
2689.88 -3.89312 0 -62.9504
2009.39 -4.45376 0 -71.1439
1998.29 -4.06394 0 -71.9265
3338.29 -2.36848 0 -54.5126
3356.44 -2.57817 0 -53.0967
2003.82 -4.2361 0 -71.5397
2667.87 -3.33406 0 -64.7112
3347.36 -2.46299 0 -53.8219
2682.51 -3.66634 0 -63.568
2675.18 -3.48265 0 -64.1525
1998.29 -4.06394 0 -71.9265
1987.29 -3.80983 0 -72.6808
3320.13 -2.22263 0 -55.818
3338.29 -2.36848 0 -54.5126
1992.78 -3.92527 0 -72.3064
2653.29 -3.11832 0 -65.7628
3329.22 -2.28891 0 -55.1768
2667.87 -3.33406 0 -64.7112
2660.58 -3.21506 0 -65.2465
1987.29 -3.80983 0 -72.6808
1976.36 -3.62624 0 -73.4132
3301.95 -2.11487 0 -57.0512
3320.13 -2.22263 0 -55.818
1981.83 -3.711 0 -73.0498
2638.74 -2.96365 0 -66.7573
3311.04 -2.16576 0 -56.4412
2653.29 -3.11832 0 -65.7628
2646.02 -3.03561 0 -66.2655
1976.36 -3.62624 0 -73.4132
1965.45 -3.48297 0 -74.1254
3283.77 -2.02484 0 -58.24
3301.95 -2.11487 0 -57.0512
1970.91 -3.55126 0 -73.7715
2624.2 -2.84209 0 -67.713
3292.86 -2.06816 0 -57.6504
2638.74 -2.96365 0 -66.7573
2631.47 -2.8999 0 -67.2393
1965.45 -3.48297 0 -74.1254
1954.56 -3.35926 0 -74.8205
3265.57 -1.94401 0 -59.3955
3283.77 -2.02484 0 -58.24
1960.01 -3.41927 0 -74.475
2609.66 -2.73649 0 -68.6407
3274.67 -1.98375 0 -58.8213
2624.2 -2.84209 0 -67.713
2616.93 -2.78795 0 -68.1799
1954.56 -3.35926 0 -74.8205
1943.66 -3.2458 0 -75.4997
3247.38 -1.86697 0 -60.5249
3265.57 -1.94401 0 -59.3955
1949.11 -3.3017 0 -75.162
2595.12 -2.6387 0 -69.546
3256.47 -1.90516 0 -59.9633
2609.66 -2.73649 0 -68.6407
2602.39 -2.68693 0 -69.096
1943.66 -3.2458 0 -75.4997
1932.77 -3.13706 0 -76.1645
3229.17 -1.79155 0 -61.6309
3247.38 -1.86697 0 -60.5249
1938.22 -3.19099 0 -75.8339
2580.57 -2.54432 0 -70.4317
3238.28 -1.82917 0 -61.0807
2595.12 -2.6387 0 -69.546
2587.84 -2.59124 0 -69.9912
1932.77 -3.13706 0 -76.1645
1921.87 -3.0307 0 -76.8155
3210.97 -1.71657 0 -62.7151
3229.17 -1.79155 0 -61.6309
1927.32 -3.08369 0 -76.4917
2566.03 -2.45143 0 -71.2993
3220.07 -1.75403 0 -62.1757
2580.57 -2.54432 0 -70.4317
2573.3 -2.49776 0 -70.8677
1921.87 -3.0307 0 -76.8155
1910.98 -2.92549 0 -77.4533
3192.77 -1.6416 0 -63.7781
3210.97 -1.71657 0 -62.7151
1916.43 -2.97799 0 -77.136
2551.48 -2.35913 0 -72.1496
3201.87 -1.6791 0 -63.2492
2566.03 -2.45143 0 -71.2993
2558.75 -2.40524 0 -71.7266
1910.98 -2.92549 0 -77.4533
1900.08 -2.82092 0 -78.0782
3174.57 -1.56647 0 -64.8204
3192.77 -1.6416 0 -63.7781
1905.53 -2.87315 0 -77.7673
2536.94 -2.26705 0 -72.983
3183.67 -1.60405 0 -64.3018
2551.48 -2.35913 0 -72.1496
2544.21 -2.31307 0 -72.5684
1900.08 -2.82092 0 -78.0782
1889.19 -2.71677 0 -78.6905
3156.36 -1.49113 0 -65.8421
3174.57 -1.56647 0 -64.8204
1894.63 -2.7688 0 -78.3859
2522.39 -2.17507 0 -73.7999
3165.47 -1.52883 0 -65.3338
2536.94 -2.26705 0 -72.983
2529.66 -2.22105 0 -73.3935
1889.19 -2.71677 0 -78.6905
1878.29 -2.61295 0 -79.2904
3138.16 -1.41561 0 -66.8433
3156.36 -1.49113 0 -65.8421
1883.74 -2.66483 0 -78.992
2507.84 -2.08315 0 -74.6003
3147.26 -1.4534 0 -66.3452
2522.39 -2.17507 0 -73.7999
2515.11 -2.1291 0 -74.2021
1878.29 -2.61295 0 -79.2904
1867.39 -2.50943 0 -79.878
3119.96 -1.33992 0 -67.8243
3138.16 -1.41561 0 -66.8433
1872.84 -2.56116 0 -79.5857
2493.29 -1.99129 0 -75.3845
3129.06 -1.37778 0 -67.3364
2507.84 -2.08315 0 -74.6003
2500.57 -2.03721 0 -74.9944
1867.39 -2.50943 0 -79.878
1856.5 -2.40619 0 -80.4534
3101.75 -1.26409 0 -68.7852
3119.96 -1.33992 0 -67.8243
1861.94 -2.45777 0 -80.1672
2478.75 -1.89952 0 -76.1525
3110.85 -1.30202 0 -68.3073
2493.29 -1.99129 0 -75.3845
2486.02 -1.94539 0 -75.7705
1856.5 -2.40619 0 -80.4534
1845.6 -2.30324 0 -81.0168
3083.55 -1.18814 0 -69.726
3101.75 -1.26409 0 -68.7852
1851.05 -2.35468 0 -80.7366
2464.2 -1.80783 0 -76.9045
3092.65 -1.22613 0 -69.2581
2478.75 -1.89952 0 -76.1525
2471.47 -1.85366 0 -76.5305
1845.6 -2.30324 0 -81.0168
1834.7 -2.20058 0 -81.5683
3065.34 -1.11211 0 -70.6469
3083.55 -1.18814 0 -69.726
1840.15 -2.25187 0 -81.294
2449.65 -1.71627 0 -77.6405
3074.45 -1.15013 0 -70.1889
2464.2 -1.80783 0 -76.9045
2456.92 -1.76203 0 -77.2745
1834.7 -2.20058 0 -81.5683
1823.8 -2.09823 0 -82.1078
3047.14 -1.03602 0 -71.548
3065.34 -1.11211 0 -70.6469
1829.25 -2.14937 0 -81.8395
2435.1 -1.62483 0 -78.3607
3056.24 -1.07407 0 -71.0999
2449.65 -1.71627 0 -77.6405
2442.38 -1.67053 0 -78.0026
1823.8 -2.09823 0 -82.1078
1812.9 -1.99619 0 -82.6356
3028.94 -0.959894 0 -72.4295
3047.14 -1.03602 0 -71.548
1818.35 -2.04717 0 -82.3732
2420.55 -1.53355 0 -79.0652
3038.04 -0.997959 0 -71.9912
2435.1 -1.62483 0 -78.3607
2427.83 -1.57917 0 -78.7149
1812.9 -1.99619 0 -82.6356
1802.01 -1.89449 0 -83.1516
3010.73 -0.883762 0 -73.2913
3028.94 -0.959894 0 -72.4295
1807.46 -1.9453 0 -82.895
2406.01 -1.44244 0 -79.754
3019.83 -0.921827 0 -72.8628
2420.55 -1.53355 0 -79.0652
2413.28 -1.48797 0 -79.4116
1802.01 -1.89449 0 -83.1516
1791.11 -1.79312 0 -83.6559
2992.53 -0.807646 0 -74.1338
3010.73 -0.883762 0 -73.2913
1796.56 -1.84376 0 -83.4052
2391.46 -1.35153 0 -80.4273
3001.63 -0.8457 0 -73.715
2406.01 -1.44244 0 -79.754
2398.73 -1.39696 0 -80.0926
1791.11 -1.79312 0 -83.6559
1780.21 -1.69211 0 -84.1487
2974.32 -0.731572 0 -74.9569
2992.53 -0.807646 0 -74.1338
1785.66 -1.74257 0 -83.9037
2376.91 -1.26083 0 -81.0851
2983.43 -0.769602 0 -74.5477
2391.46 -1.35153 0 -80.4273
2384.18 -1.30615 0 -80.7581
1780.21 -1.69211 0 -84.1487
1769.31 -1.59148 0 -84.6299
2956.12 -0.655565 0 -75.7607
2974.32 -0.731572 0 -74.9569
1774.76 -1.64175 0 -84.3907
2362.36 -1.17036 0 -81.7275
2965.22 -0.693559 0 -75.3612
2376.91 -1.26083 0 -81.0851
2369.64 -1.21556 0 -81.4082
1769.31 -1.59148 0 -84.6299
1758.41 -1.49123 0 -85.0996
2937.92 -0.579649 0 -76.5455
2956.12 -0.655565 0 -75.7607
1763.86 -1.54131 0 -84.8662
2347.81 -1.08014 0 -82.3547
2947.02 -0.617594 0 -76.1555
2362.36 -1.17036 0 -81.7275
2355.09 -1.12522 0 -82.043
1758.41 -1.49123 0 -85.0996
1747.52 -1.39139 0 -85.558
2919.71 -0.503847 0 -77.3114
2937.92 -0.579649 0 -76.5455
1752.97 -1.44126 0 -85.3303
2333.27 -0.990196 0 -82.9667
2928.82 -0.541732 0 -76.9308
2347.81 -1.08014 0 -82.3547
2340.54 -1.03513 0 -82.6626
1747.52 -1.39139 0 -85.558
1736.62 -1.29197 0 -86.0051
2901.51 -0.428183 0 -78.0583
2919.71 -0.503847 0 -77.3114
1742.07 -1.34163 0 -85.783
2318.72 -0.900543 0 -83.5636
2910.61 -0.465996 0 -77.6872
2333.27 -0.990196 0 -82.9667
2325.99 -0.945332 0 -83.267
1736.62 -1.29197 0 -86.0051
1725.72 -1.19297 0 -86.4409
2883.31 -0.352679 0 -78.7865
2901.51 -0.428183 0 -78.0583
1731.17 -1.24241 0 -86.2244
2304.17 -0.811199 0 -84.1455
2892.41 -0.390409 0 -78.4248
2318.72 -0.900543 0 -83.5636
2311.44 -0.855831 0 -83.8564
1725.72 -1.19297 0 -86.4409
1714.82 -1.09442 0 -86.8656
2865.11 -0.277359 0 -79.4961
2883.31 -0.352679 0 -78.7865
1720.27 -1.14364 0 -86.6546
2289.62 -0.722182 0 -84.7125
2874.21 -0.314995 0 -79.1436
2304.17 -0.811199 0 -84.1455
2296.9 -0.766648 0 -84.4309
1714.82 -1.09442 0 -86.8656
1703.92 -0.996333 0 -87.2791
2846.9 -0.202243 0 -80.1872
2865.11 -0.277359 0 -79.4961
1709.37 -1.04532 0 -87.0737
2275.07 -0.63351 0 -85.2647
2856 -0.239774 0 -79.844
2289.62 -0.722182 0 -84.7125
2282.35 -0.677801 0 -84.9905
1703.92 -0.996333 0 -87.2791
1693.02 -0.898714 0 -87.6816
2828.7 -0.127354 0 -80.8599
2846.9 -0.202243 0 -80.1872
1698.47 -0.947463 0 -87.4817
2260.53 -0.5452 0 -85.8022
2837.8 -0.164769 0 -80.5258
2275.07 -0.63351 0 -85.2647
2267.8 -0.589309 0 -85.5353
1693.02 -0.898714 0 -87.6816
1682.13 -0.80158 0 -88.0731
2810.5 -0.0527128 0 -81.5143
2828.7 -0.127354 0 -80.8599
1687.58 -0.850086 0 -87.8787
2245.98 -0.45727 0 -86.3251
2819.6 -0.0900012 0 -81.1894
2260.53 -0.5452 0 -85.8022
2253.25 -0.501187 0 -86.0655
1682.13 -0.80158 0 -88.0731
1671.23 -0.704943 0 -88.4538
2792.3 0.0216602 0 -82.1506
2810.5 -0.0527128 0 -81.5143
1676.68 -0.753199 0 -88.2648
2231.43 -0.369736 0 -86.8335
2801.4 -0.0154915 0 -81.8347
2245.98 -0.45727 0 -86.3251
2238.71 -0.413452 0 -86.5811
1671.23 -0.704943 0 -88.4538
1660.33 -0.608816 0 -88.8236
2774.1 0.0957445 0 -82.7688
2792.3 0.0216602 0 -82.1506
1665.78 -0.656815 0 -88.6401
2216.89 -0.282614 0 -87.3274
2783.2 0.0587397 0 -82.462
2231.43 -0.369736 0 -86.8335
2224.16 -0.326122 0 -87.0822
1660.33 -0.608816 0 -88.8236
1649.43 -0.51321 0 -89.1827
2755.9 0.16952 0 -83.3691
2774.1 0.0957445 0 -82.7688
1654.88 -0.560947 0 -89.0045
2202.34 -0.19592 0 -87.807
2765 0.132672 0 -83.0712
2216.89 -0.282614 0 -87.3274
2209.61 -0.239212 0 -87.569
1649.43 -0.51321 0 -89.1827
1638.54 -0.418137 0 -89.5311
2737.7 0.242968 0 -83.9517
2755.9 0.16952 0 -83.3691
1643.98 -0.465606 0 -89.3582
2187.79 -0.10967 0 -88.2724
2746.8 0.206286 0 -83.6626
2202.34 -0.19592 0 -87.807
2195.07 -0.152738 0 -88.0415
1638.54 -0.418137 0 -89.5311
1627.64 -0.323609 0 -89.8689
2719.5 0.316069 0 -84.5165
2737.7 0.242968 0 -83.9517
1633.09 -0.370804 0 -89.7013
2173.25 -0.023879 0 -88.7236
2728.6 0.279563 0 -84.2363
2187.79 -0.10967 0 -88.2724
2180.52 -0.0667161 0 -88.4998
1627.64 -0.323609 0 -89.8689
1616.74 -0.229636 0 -90.1962
2701.3 0.388804 0 -85.0638
2719.5 0.316069 0 -84.5165
1622.19 -0.276552 0 -90.0338
2158.7 0.0614379 0 -89.1608
2710.4 0.352483 0 -84.7923
2173.25 -0.023879 0 -88.7236
2165.98 0.0188396 0 -88.9439
1616.74 -0.229636 0 -90.1962
1605.84 -0.136231 0 -90.5129
2683.1 0.461154 0 -85.5936
2701.3 0.388804 0 -85.0638
1611.29 -0.182862 0 -90.3559
2144.16 0.146266 0 -89.584
2692.2 0.425028 0 -85.3309
2158.7 0.0614379 0 -89.1608
2151.43 0.103914 0 -89.3741
1605.84 -0.136231 0 -90.5129
1594.95 -0.0434036 0 -90.8193
2664.91 0.533103 0 -86.1061
2683.1 0.461154 0 -85.5936
1600.39 -0.0897446 0 -90.6674
2129.61 0.230591 0 -89.9934
2674 0.49718 0 -85.852
2144.16 0.146266 0 -89.584
2136.89 0.188492 0 -89.7904
1594.95 -0.0434036 0 -90.8193
1584.05 0.0488359 0 -91.1154
2646.71 0.604632 0 -86.6014
2664.91 0.533103 0 -86.1061
1589.5 0.0027904 0 -90.9687
2115.07 0.314399 0 -90.389
2655.81 0.568921 0 -86.3559
2129.61 0.230591 0 -89.9934
2122.34 0.27256 0 -90.1929
1584.05 0.0488359 0 -91.1154
1573.15 0.140476 0 -91.4012
2628.51 0.675724 0 -87.0797
2646.71 0.604632 0 -86.6014
1578.6 0.0947316 0 -91.2596
2100.52 0.397675 0 -90.7709
2637.61 0.640233 0 -86.8427
2115.07 0.314399 0 -90.389
2107.8 0.356104 0 -90.5816
1573.15 0.140477 0 -91.4012
1562.26 0.231508 0 -91.6769
2610.32 0.746362 0 -87.5409
2628.51 0.675724 0 -87.0797
1567.7 0.186069 0 -91.5403
2085.98 0.480407 0 -91.1393
2619.41 0.7111 0 -87.3124
2100.52 0.397675 0 -90.7709
2093.25 0.43911 0 -90.9568
1562.26 0.231508 0 -91.6769
1551.36 0.321922 0 -91.9424
2592.12 0.816529 0 -87.9853
2610.32 0.746362 0 -87.5409
1556.81 0.276793 0 -91.8109
2071.44 0.562582 0 -91.4941
2601.22 0.781505 0 -87.7652
2085.98 0.480407 0 -91.1393
2078.71 0.521565 0 -91.3184
1551.36 0.321922 0 -91.9424
1540.46 0.411707 0 -92.1979
2573.93 0.886211 0 -88.413
2592.12 0.816529 0 -87.9853
1545.91 0.366893 0 -92.0714
2056.89 0.644186 0 -91.8356
2583.02 0.851432 0 -88.2012
2071.44 0.562582 0 -91.4941
2064.17 0.603456 0 -91.6666
1540.46 0.411707 0 -92.1979
1529.57 0.500854 0 -92.4434
2555.73 0.95539 0 -88.824
2573.93 0.886211 0 -88.413
1535.02 0.45636 0 -92.3219
2042.35 0.725207 0 -92.1638
2564.83 0.920864 0 -88.6206
2056.89 0.644186 0 -91.8356
2049.62 0.68477 0 -92.0014
1529.57 0.500854 0 -92.4434
1518.67 0.589354 0 -92.6791
2537.54 1.02405 0 -89.2186
2555.73 0.95539 0 -88.824
1524.12 0.545185 0 -92.5625
2027.81 0.805632 0 -92.4788
2546.63 0.989786 0 -89.0234
2042.35 0.725207 0 -92.1638
2035.08 0.765495 0 -92.323
1518.67 0.589354 0 -92.6791
1507.78 0.677197 0 -92.9049
2519.34 1.09218 0 -89.5967
2537.54 1.02405 0 -89.2186
1513.22 0.633358 0 -92.7932
2013.27 0.88545 0 -92.7808
2528.44 1.05818 0 -89.4097
2027.81 0.805632 0 -92.4788
2020.54 0.845617 0 -92.6314
1507.78 0.677197 0 -92.9049
1496.88 0.764376 0 -93.1209
2501.15 1.15976 0 -89.9587
2519.34 1.09218 0 -89.5967
1502.33 0.720871 0 -93.0141
1998.73 0.964648 0 -93.0697
2510.25 1.12604 0 -89.7797
2013.27 0.88545 0 -92.7808
2006 0.925127 0 -92.9268
1496.88 0.764376 0 -93.1209
1485.99 0.850882 0 -93.3273
2482.96 1.22678 0 -90.3044
2501.15 1.15976 0 -89.9587
1491.43 0.807714 0 -93.2253
1984.19 1.04322 0 -93.3456
2492.06 1.19334 0 -90.1336
1998.73 0.964648 0 -93.0697
1991.46 1.00401 0 -93.2093
1485.99 0.850882 0 -93.3273
1475.09 0.936705 0 -93.524
2464.77 1.29323 0 -90.6342
2482.96 1.22678 0 -90.3044
1480.54 0.893879 0 -93.4268
1969.64 1.12114 0 -93.6088
2473.86 1.26008 0 -90.4713
1984.19 1.04322 0 -93.3456
1976.92 1.08226 0 -93.4788
1475.09 0.936705 0 -93.524
1464.2 1.02184 0 -93.7112
2446.58 1.35908 0 -90.948
2464.77 1.29323 0 -90.6342
1469.64 0.979359 0 -93.6188
1955.1 1.19841 0 -93.8593
2455.67 1.32623 0 -90.7931
1969.64 1.12114 0 -93.6088
1962.37 1.15986 0 -93.7356
1464.2 1.02184 0 -93.7112
1453.3 1.10627 0 -93.889
2428.39 1.42433 0 -91.2461
2446.58 1.35908 0 -90.948
1458.75 1.06414 0 -93.8013
1940.57 1.27502 0 -94.0971
2437.48 1.39178 0 -91.099
1955.1 1.19841 0 -93.8593
1947.84 1.2368 0 -93.9797
1453.3 1.10627 0 -93.889
1442.41 1.19 0 -94.0573
2410.2 1.48897 0 -91.5284
2428.39 1.42433 0 -91.2461
1447.86 1.14823 0 -93.9743
1926.03 1.35096 0 -94.3224
2419.3 1.45673 0 -91.3892
1940.57 1.27502 0 -94.0971
1933.3 1.31308 0 -94.2113
1442.41 1.19 0 -94.0573
1431.52 1.27302 0 -94.2163
2392.01 1.55298 0 -91.7953
2410.2 1.48897 0 -91.5284
1436.96 1.2316 0 -94.138
1911.49 1.42621 0 -94.5352
2401.11 1.52105 0 -91.6638
1926.03 1.35096 0 -94.3224
1918.76 1.38867 0 -94.4303
1431.52 1.27302 0 -94.2163
1420.62 1.35531 0 -94.3661
2373.83 1.61635 0 -92.0467
2392.01 1.55298 0 -91.7953
1426.07 1.31426 0 -94.2924
1896.95 1.50077 0 -94.7357
2382.92 1.58474 0 -91.9229
1911.49 1.42621 0 -94.5352
1904.22 1.46357 0 -94.637
1420.62 1.35531 0 -94.3661
1409.73 1.43688 0 -94.5066
2355.64 1.67906 0 -92.2828
2373.83 1.61635 0 -92.0467
1415.18 1.39619 0 -94.4375
1882.41 1.57462 0 -94.924
2364.73 1.64779 0 -92.1666
1896.95 1.50077 0 -94.7357
1889.68 1.53778 0 -94.8314
1409.73 1.43688 0 -94.5066
1398.84 1.51771 0 -94.6381
2337.45 1.74111 0 -92.5037
2355.64 1.67906 0 -92.2828
1404.28 1.47739 0 -94.5735
1867.88 1.64776 0 -95.1001
2346.55 1.71017 0 -92.3951
1882.41 1.57462 0 -94.924
1875.14 1.61128 0 -95.0136
1398.84 1.51771 0 -94.6381
1387.95 1.5978 0 -94.7605
2319.27 1.80249 0 -92.7095
2337.45 1.74111 0 -92.5037
1393.39 1.55785 0 -94.7004
1853.34 1.72018 0 -95.2641
2328.36 1.77189 0 -92.6084
1867.88 1.64776 0 -95.1001
1860.61 1.68406 0 -95.1836
1387.95 1.5978 0 -94.7605
1377.05 1.67714 0 -94.8739
2301.08 1.86318 0 -92.9003
2319.27 1.80249 0 -92.7095
1382.5 1.63756 0 -94.8183
1838.8 1.79187 0 -95.4162
2310.18 1.83292 0 -92.8068
1853.34 1.72018 0 -95.2641
1846.07 1.75612 0 -95.3417
1377.05 1.67714 0 -94.8739
1366.16 1.75573 0 -94.9785
2282.9 1.92317 0 -93.0763
2301.08 1.86318 0 -92.9003
1371.61 1.71653 0 -94.9273
1824.27 1.86282 0 -95.5564
2291.99 1.89326 0 -92.9902
1838.8 1.79187 0 -95.4162
1831.54 1.82744 0 -95.4878
1366.16 1.75573 0 -94.9785
1355.27 1.83355 0 -95.0742
2264.72 1.98246 0 -93.2376
2282.9 1.92317 0 -93.0763
1360.72 1.79474 0 -95.0274
1809.73 1.93302 0 -95.6848
2273.81 1.9529 0 -93.1588
1824.27 1.86282 0 -95.5564
1817 1.89801 0 -95.6221
1355.27 1.83355 0 -95.0742
1344.38 1.91061 0 -95.1611
2246.54 2.04103 0 -93.3843
2264.72 1.98246 0 -93.2376
1349.83 1.87218 0 -95.1187
1795.2 2.00247 0 -95.8016
2255.63 2.01183 0 -93.3128
1809.73 1.93302 0 -95.6848
1802.47 1.96784 0 -95.7447
1344.38 1.91061 0 -95.1611
1333.49 1.9869 0 -95.2394
2228.36 2.09887 0 -93.5165
2246.54 2.04103 0 -93.3843
1338.94 1.94885 0 -95.2013
1780.67 2.07115 0 -95.9067
2237.45 2.07004 0 -93.4522
1795.2 2.00247 0 -95.8016
1787.93 2.0369 0 -95.8556
1333.49 1.9869 0 -95.2394
1322.6 2.0624 0 -95.309
2210.18 2.15597 0 -93.6343
2228.36 2.09887 0 -93.5165
1328.05 2.02475 0 -95.2753
1766.13 2.13906 0 -96.0004
2219.27 2.12751 0 -93.5772
1780.67 2.07115 0 -95.9067
1773.4 2.1052 0 -95.955
1322.6 2.0624 0 -95.309
1311.71 2.13712 0 -95.3701
2192 2.21233 0 -93.7379
2210.18 2.15597 0 -93.6343
1317.16 2.09986 0 -95.3406
1751.6 2.2062 0 -96.0827
2201.09 2.18424 0 -93.6879
1766.13 2.13906 0 -96.0004
1758.87 2.17273 0 -96.043
1311.71 2.13712 0 -95.3701
1300.82 2.21106 0 -95.4227
2173.82 2.26793 0 -93.8273
2192 2.21233 0 -93.7379
1306.27 2.17419 0 -95.3975
1737.07 2.27255 0 -96.1536
2182.91 2.24023 0 -93.7844
1751.6 2.2062 0 -96.0827
1744.34 2.23947 0 -96.1196
1300.82 2.21106 0 -95.4227
1289.93 2.2842 0 -95.4669
2155.64 2.32277 0 -93.9027
2173.82 2.26793 0 -93.8273
1295.38 2.24773 0 -95.4459
1722.54 2.3381 0 -96.2134
2164.73 2.29545 0 -93.8668
1737.07 2.27255 0 -96.1536
1729.8 2.30542 0 -96.1849
1289.93 2.2842 0 -95.4669
1279.05 2.35654 0 -95.5028
2137.47 2.37685 0 -93.9643
2155.64 2.32277 0 -93.9027
1284.49 2.32047 0 -95.4859
1708.01 2.40286 0 -96.262
2146.55 2.34991 0 -93.9352
1722.54 2.3381 0 -96.2134
1715.27 2.37058 0 -96.2391
1279.05 2.35654 0 -95.5028
1268.16 2.42807 0 -95.5304
2119.29 2.43014 0 -94.012
2137.47 2.37685 0 -93.9643
1273.6 2.3924 0 -95.5176
1693.48 2.46682 0 -96.2996
2128.38 2.40359 0 -93.9899
1708.01 2.40286 0 -96.262
1700.74 2.43494 0 -96.2822
1268.16 2.42807 0 -95.5304
1257.27 2.4988 0 -95.5498
2101.12 2.48264 0 -94.0461
2119.29 2.43014 0 -94.012
1262.71 2.46354 0 -95.5411
1678.95 2.52996 0 -96.3263
2110.2 2.45649 0 -94.0308
1693.48 2.46682 0 -96.2996
1686.21 2.49849 0 -96.3144
1257.27 2.4988 0 -95.5498
1246.38 2.56871 0 -95.5611
2082.94 2.53435 0 -94.0666
2101.12 2.48264 0 -94.0461
1251.83 2.53386 0 -95.5565
1664.42 2.59229 0 -96.3422
2092.03 2.5086 0 -94.0581
1678.95 2.52996 0 -96.3263
1671.69 2.56123 0 -96.3356
1246.38 2.56871 0 -95.5611
1235.5 2.63781 0 -95.5644
2064.77 2.58526 0 -94.0738
2082.94 2.53435 0 -94.0666
1240.94 2.60336 0 -95.5637
1649.89 2.6538 0 -96.3473
2073.86 2.55991 0 -94.0719
1664.42 2.59229 0 -96.3422
1657.16 2.62315 0 -96.3461
1235.5 2.63781 0 -95.5644
1224.61 2.70608 0 -95.5596
2046.6 2.63537 0 -94.0676
2064.77 2.58526 0 -94.0738
1230.05 2.67205 0 -95.563
1635.37 2.71447 0 -96.3418
2055.68 2.61042 0 -94.0723
1649.89 2.6538 0 -96.3473
1642.63 2.68424 0 -96.3459
1224.61 2.70608 0 -95.5596
1213.72 2.77353 0 -95.547
2028.43 2.68466 0 -94.0482
2046.6 2.63537 0 -94.0676
1219.17 2.73991 0 -95.5543
1620.84 2.77432 0 -96.3257
2037.51 2.66012 0 -94.0595
1635.37 2.71447 0 -96.3418
1628.1 2.7445 0 -96.3351
1213.72 2.77353 0 -95.547
1202.84 2.84015 0 -95.5265
2010.26 2.73313 0 -94.0158
2028.43 2.68466 0 -94.0482
1208.28 2.80695 0 -95.5377
1606.32 2.83333 0 -96.2992
2019.34 2.709 0 -94.0336
1620.84 2.77432 0 -96.3257
1613.58 2.80393 0 -96.3138
1202.84 2.84015 0 -95.5265
1191.95 2.90594 0 -95.4983
1992.09 2.78077 0 -93.9704
2010.26 2.73313 0 -94.0158
1197.4 2.87315 0 -95.5133
1591.79 2.89149 0 -96.2623
2001.17 2.75705 0 -93.9947
1606.32 2.83333 0 -96.2992
1599.05 2.86252 0 -96.2821
1191.95 2.90594 0 -95.4983
1181.07 2.9709 0 -95.4623
1973.92 2.82758 0 -93.9121
1992.09 2.78077 0 -93.9704
1186.51 2.93853 0 -95.4812
1577.27 2.94881 0 -96.2152
1983.01 2.80428 0 -93.9428
1591.79 2.89149 0 -96.2623
1584.53 2.92026 0 -96.2401
1181.07 2.9709 0 -95.4623
1170.18 3.03501 0 -95.4187
1955.75 2.87356 0 -93.8412
1973.92 2.82758 0 -93.9121
1175.63 3.00306 0 -95.4415
1562.74 3.00528 0 -96.1579
1964.84 2.85068 0 -93.8782
1577.27 2.94881 0 -96.2152
1570 2.97715 0 -96.1878
1170.18 3.03501 0 -95.4187
1159.3 3.09829 0 -95.3676
1937.59 2.91869 0 -93.7576
1955.75 2.87356 0 -93.8412
1164.74 3.06676 0 -95.3941
1548.22 3.0609 0 -96.0905
1946.67 2.89623 0 -93.801
1562.74 3.00528 0 -96.1579
1555.48 3.0332 0 -96.1254
1159.3 3.09829 0 -95.3676
1148.42 3.16072 0 -95.309
1919.42 2.96298 0 -93.6616
1937.59 2.91869 0 -93.7576
1153.86 3.12961 0 -95.3392
1533.7 3.11565 0 -96.0131
1928.51 2.94095 0 -93.7112
1548.22 3.0609 0 -96.0905
1540.96 3.08838 0 -96.0531
1148.42 3.16072 0 -95.309
1137.53 3.2223 0 -95.243
1901.26 3.00642 0 -93.5532
1919.42 2.96298 0 -93.6616
1142.97 3.19161 0 -95.2769
1519.17 3.16954 0 -95.9259
1910.34 2.98481 0 -93.6089
1533.7 3.11565 0 -96.0131
1526.44 3.14271 0 -95.9707
1137.53 3.2223 0 -95.243
1126.65 3.28303 0 -95.1696
1883.1 3.049 0 -93.4326
1901.26 3.00642 0 -93.5532
1132.09 3.25277 0 -95.2072
1504.65 3.22257 0 -95.8288
1892.18 3.02782 0 -93.4944
1519.17 3.16954 0 -95.9259
1511.91 3.19617 0 -95.8786
1126.65 3.28303 0 -95.1696
1115.77 3.34291 0 -95.089
1864.93 3.09073 0 -93.2998
1883.1 3.049 0 -93.4326
1121.21 3.31308 0 -95.1302
1490.13 3.27473 0 -95.7221
1874.02 3.06997 0 -93.3677
1504.65 3.22257 0 -95.8288
1497.39 3.24876 0 -95.7766
1115.77 3.34291 0 -95.089
1104.89 3.40193 0 -95.0011
1846.77 3.13159 0 -93.155
1864.93 3.09073 0 -93.2998
1110.33 3.37253 0 -95.046
1475.61 3.32602 0 -95.6057
1855.85 3.11126 0 -93.2289
1490.13 3.27473 0 -95.7221
1482.87 3.30048 0 -95.6651
1104.89 3.40193 0 -95.0011
1094.01 3.4601 0 -94.9062
1828.61 3.17158 0 -92.9984
1846.77 3.13159 0 -93.155
1099.45 3.43113 0 -94.9545
1461.1 3.37643 0 -95.4798
1837.69 3.15169 0 -93.0782
1475.61 3.32602 0 -95.6057
1468.35 3.35133 0 -95.544
1094.01 3.4601 0 -94.9062
1083.13 3.51741 0 -94.8042
1810.45 3.21071 0 -92.8299
1828.61 3.17158 0 -92.9984
1088.57 3.48887 0 -94.856
1446.58 3.42596 0 -95.3446
1819.53 3.19125 0 -92.9156
1461.1 3.37643 0 -95.4798
1453.84 3.40131 0 -95.4134
1083.13 3.51741 0 -94.8042
1072.25 3.57386 0 -94.6951
1792.3 3.24896 0 -92.6498
1810.45 3.21071 0 -92.8299
1077.69 3.54575 0 -94.7505
1432.06 3.47462 0 -95.2
1801.38 3.22994 0 -92.7413
1446.58 3.42596 0 -95.3446
1439.32 3.4504 0 -95.2734
1072.25 3.57386 0 -94.6951
1061.37 3.62945 0 -94.5792
1774.14 3.28634 0 -92.4582
1792.3 3.24896 0 -92.6498
1066.81 3.60177 0 -94.638
1417.54 3.5224 0 -95.0461
1783.22 3.26776 0 -92.5554
1432.06 3.47462 0 -95.2
1424.8 3.49862 0 -95.1242
1061.37 3.62945 0 -94.5792
1050.49 3.68418 0 -94.4564
1755.98 3.32284 0 -92.2551
1774.14 3.28634 0 -92.4582
1055.93 3.65692 0 -94.5187
1403.03 3.56929 0 -94.8832
1765.06 3.3047 0 -92.3581
1417.54 3.5224 0 -95.0461
1410.28 3.54595 0 -94.9658
1050.49 3.68418 0 -94.4564
1039.61 3.73804 0 -94.3269
1737.83 3.35846 0 -92.0408
1755.98 3.32284 0 -92.2551
1045.05 3.71122 0 -94.3925
1388.51 3.61529 0 -94.7112
1746.91 3.34076 0 -92.1493
1403.03 3.56929 0 -94.8832
1395.77 3.5924 0 -94.7983
1039.61 3.73804 0 -94.3269
1028.73 3.79103 0 -94.1906
1719.67 3.3932 0 -91.8152
1737.83 3.35846 0 -92.0408
1034.17 3.76464 0 -94.2596
1374 3.66041 0 -94.5302
1728.75 3.37594 0 -91.9294
1388.51 3.61529 0 -94.7112
1381.25 3.63796 0 -94.6218
1028.73 3.79103 0 -94.1906
1017.85 3.84316 0 -94.0477
1701.52 3.42706 0 -91.5786
1719.67 3.3932 0 -91.8152
1023.29 3.81721 0 -94.12
1359.48 3.70465 0 -94.3404
1710.6 3.41024 0 -91.6983
1374 3.66041 0 -94.5302
1366.74 3.68264 0 -94.4364
1017.85 3.84316 0 -94.0477
1006.97 3.89442 0 -93.8983
1683.37 3.46003 0 -91.331
1701.52 3.42706 0 -91.5786
1012.41 3.8689 0 -93.9738
1344.97 3.74799 0 -94.1418
1692.45 3.44365 0 -91.4562
1359.48 3.70465 0 -94.3404
1352.23 3.72643 0 -94.2422
1006.97 3.89442 0 -93.8983
996.096 3.94482 0 -93.7423
1665.22 3.49212 0 -91.0726
1683.37 3.46003 0 -91.331
1001.53 3.91973 0 -93.8211
1330.46 3.79044 0 -93.9346
1674.29 3.47618 0 -91.2032
1344.97 3.74799 0 -94.1418
1337.71 3.76933 0 -94.0393
996.096 3.94482 0 -93.7423
985.22 3.99434 0 -93.5799
1647.07 3.52332 0 -90.8035
1665.22 3.49212 0 -91.0726
990.658 3.96969 0 -93.6619
1315.95 3.832 0 -93.7188
1656.14 3.50783 0 -90.9394
1330.46 3.79044 0 -93.9346
1323.2 3.81133 0 -93.8278
985.22 3.99434 0 -93.5799
974.344 4.043 0 -93.4112
1628.92 3.55363 0 -90.5238
1647.07 3.52332 0 -90.8035
979.782 4.01878 0 -93.4964
1301.43 3.87267 0 -93.4946
1637.99 3.53859 0 -90.665
1315.95 3.832 0 -93.7188
1308.69 3.85245 0 -93.6078
974.344 4.043 0 -93.4112
963.468 4.09078 0 -93.2362
1610.77 3.58306 0 -90.2336
1628.92 3.55363 0 -90.5238
968.906 4.067 0 -93.3245
1286.92 3.91245 0 -93.2619
1619.85 3.56845 0 -90.38
1301.43 3.87267 0 -93.4946
1294.18 3.89267 0 -93.3793
963.468 4.09078 0 -93.2362
952.593 4.1377 0 -93.055
1592.62 3.61159 0 -89.9331
1610.77 3.58306 0 -90.2336
958.03 4.11435 0 -93.1464
1272.41 3.95134 0 -93.021
1601.7 3.59744 0 -90.0846
1286.92 3.91245 0 -93.2619
1279.67 3.93201 0 -93.1425
952.593 4.1377 0 -93.055
941.718 4.18374 0 -92.8676
1574.48 3.63924 0 -89.6223
1592.62 3.61159 0 -89.9331
947.155 4.16083 0 -92.9621
1257.91 3.98933 0 -92.7719
1583.55 3.62553 0 -89.7789
1272.41 3.95134 0 -93.021
1265.16 3.97045 0 -92.8975
941.718 4.18374 0 -92.8676
930.844 4.22892 0 -92.6742
1556.33 3.666 0 -89.3014
1574.48 3.63924 0 -89.6223
936.281 4.20644 0 -92.7717
1243.4 4.02643 0 -92.5147
1565.41 3.65273 0 -89.4631
1257.91 3.98933 0 -92.7719
1250.65 4.00799 0 -92.6443
930.844 4.22892 0 -92.6742
919.97 4.27323 0 -92.4748
1538.19 3.69188 0 -88.9704
1556.33 3.666 0 -89.3014
925.407 4.25118 0 -92.5752
1228.89 4.06264 0 -92.2494
1547.26 3.67905 0 -89.1371
1243.4 4.02643 0 -92.5147
1236.14 4.04465 0 -92.3831
919.97 4.27323 0 -92.4748
909.097 4.31667 0 -92.2694
1520.05 3.71686 0 -88.6296
1538.19 3.69188 0 -88.9704
914.533 4.29506 0 -92.3728
1214.38 4.09796 0 -91.9763
1529.12 3.70448 0 -88.8012
1228.89 4.06264 0 -92.2494
1221.64 4.08042 0 -92.1139
909.097 4.31667 0 -92.2694
898.224 4.35923 0 -92.0582
1501.9 3.74096 0 -88.279
1520.05 3.71686 0 -88.6296
903.66 4.33806 0 -92.1645
1199.88 4.13239 0 -91.6954
1510.98 3.72902 0 -88.4555
1214.38 4.09796 0 -91.9763
1207.13 4.11529 0 -91.8368
898.224 4.35923 0 -92.0582
887.351 4.40094 0 -91.8412
1483.76 3.76417 0 -87.9187
1501.9 3.74096 0 -88.279
892.787 4.38019 0 -91.9504
1185.37 4.16593 0 -91.4067
1492.83 3.75268 0 -88.1001
1199.88 4.13239 0 -91.6954
1192.62 4.14927 0 -91.552
887.351 4.40094 0 -91.8412
876.479 4.44177 0 -91.6185
1465.62 3.7865 0 -87.5489
1483.76 3.76417 0 -87.9187
881.915 4.42146 0 -91.7306
1170.87 4.19858 0 -91.1104
1474.69 3.77545 0 -87.735
1185.37 4.16593 0 -91.4067
1178.12 4.18237 0 -91.2595
876.479 4.44177 0 -91.6185
865.608 4.48174 0 -91.3901
1447.48 3.80795 0 -87.1697
1465.62 3.7865 0 -87.5489
871.043 4.46186 0 -91.505
1156.36 4.23034 0 -90.8066
1456.55 3.79734 0 -87.3605
1170.87 4.19858 0 -91.1104
1163.62 4.21457 0 -90.9594
865.608 4.48174 0 -91.3901
854.736 4.52084 0 -91.1562
1429.35 3.82852 0 -86.7812
1447.48 3.80795 0 -87.1697
860.172 4.5014 0 -91.2738
1141.86 4.26122 0 -90.4953
1438.42 3.81834 0 -86.9766
1156.36 4.23034 0 -90.8066
1149.11 4.24589 0 -90.6519
854.736 4.52084 0 -91.1562
843.866 4.55908 0 -90.9167
1411.21 3.8482 0 -86.3835
1429.35 3.82852 0 -86.7812
849.301 4.54007 0 -91.0371
1127.36 4.29121 0 -90.1767
1420.28 3.83847 0 -86.5835
1141.86 4.26122 0 -90.4953
1134.61 4.27632 0 -90.3369
843.866 4.55908 0 -90.9167
832.995 4.59645 0 -90.6718
1393.07 3.86701 0 -85.9767
1411.21 3.8482 0 -86.3835
838.431 4.57787 0 -90.795
1112.86 4.32032 0 -89.8508
1402.14 3.85772 0 -86.1812
1127.36 4.29121 0 -90.1767
1120.11 4.30587 0 -90.0146
832.995 4.59645 0 -90.6718
822.126 4.63296 0 -90.4216
1374.94 3.88495 0 -85.561
1393.07 3.86701 0 -85.9767
827.561 4.61482 0 -90.5474
1098.36 4.34854 0 -89.5178
1384.01 3.87609 0 -85.7699
1112.86 4.32032 0 -89.8508
1105.61 4.33454 0 -89.6852
822.126 4.63296 0 -90.4216
811.256 4.66862 0 -90.166
1356.8 3.90201 0 -85.1364
1374.94 3.88495 0 -85.561
816.691 4.6509 0 -90.2945
1083.85 4.37589 0 -89.1777
1365.87 3.89359 0 -85.3498
1098.36 4.34854 0 -89.5178
1091.1 4.36233 0 -89.3486
811.256 4.66862 0 -90.166
800.387 4.70341 0 -89.9053
1338.67 3.9182 0 -84.7031
1356.8 3.90201 0 -85.1364
805.822 4.68612 0 -90.0363
1069.35 4.40236 0 -88.8306
1347.74 3.91021 0 -84.9208
1083.85 4.37589 0 -89.1777
1076.6 4.38923 0 -89.005
800.387 4.70341 0 -89.9053
789.519 4.73735 0 -89.6394
1320.54 3.93353 0 -84.2612
1338.67 3.9182 0 -84.7031
794.953 4.72049 0 -89.773
1054.86 4.42795 0 -88.4767
1329.6 3.92597 0 -84.4832
1069.35 4.40236 0 -88.8306
1062.11 4.41526 0 -88.6545
789.519 4.73735 0 -89.6394
778.651 4.77043 0 -89.3684
1302.41 3.94799 0 -83.8108
1320.54 3.93353 0 -84.2612
784.085 4.75399 0 -89.5045
1040.36 4.45267 0 -88.1159
1311.47 3.94087 0 -84.0371
1054.86 4.42795 0 -88.4767
1047.61 4.44042 0 -88.2971
778.651 4.77043 0 -89.3684
767.783 4.80266 0 -89.0923
1284.28 3.96159 0 -83.3521
1302.41 3.94799 0 -83.8108
773.217 4.78665 0 -89.231
1025.86 4.47652 0 -87.7485
1293.34 3.95489 0 -83.5825
1040.36 4.45267 0 -88.1159
1033.11 4.46471 0 -87.9331
767.783 4.80266 0 -89.0923
756.916 4.83403 0 -88.8114
1266.15 3.97433 0 -82.8851
1284.28 3.96159 0 -83.3521
762.35 4.81845 0 -88.9525
1011.36 4.4995 0 -87.3745
1275.21 3.96806 0 -83.1196
1025.86 4.47652 0 -87.7485
1018.61 4.48812 0 -87.5623
756.916 4.83403 0 -88.8114
746.049 4.86456 0 -88.5256
1248.02 3.98622 0 -82.41
1266.15 3.97433 0 -82.8851
751.483 4.8494 0 -88.6691
996.866 4.52162 0 -86.994
1257.08 3.98038 0 -82.6485
1011.36 4.4995 0 -87.3745
1004.11 4.51067 0 -87.185
746.049 4.86456 0 -88.5256
735.183 4.89424 0 -88.2349
1229.89 3.99725 0 -81.9268
1248.02 3.98622 0 -82.41
740.616 4.8795 0 -88.3808
982.371 4.54288 0 -86.6071
1238.96 3.99184 0 -82.1694
996.866 4.52162 0 -86.994
989.619 4.53236 0 -86.8013
735.183 4.89424 0 -88.2349
724.317 4.92307 0 -87.9396
1211.77 4.00744 0 -81.4358
1229.89 3.99725 0 -81.9268
729.75 4.90876 0 -88.0878
967.876 4.56327 0 -86.2138
1220.83 4.00245 0 -81.6823
982.371 4.54288 0 -86.6071
975.123 4.55318 0 -86.4112
724.317 4.92307 0 -87.9396
713.452 4.95107 0 -87.6395
1193.64 4.01679 0 -80.9369
1211.77 4.00744 0 -81.4358
718.884 4.93717 0 -87.7901
953.381 4.58281 0 -85.8144
1202.7 4.01222 0 -81.1873
967.876 4.56327 0 -86.2138
960.629 4.57315 0 -86.0149
713.452 4.95107 0 -87.6395
702.586 4.97822 0 -87.3349
1175.52 4.0253 0 -80.4305
1193.64 4.01679 0 -80.9369
708.019 4.96475 0 -87.4878
938.888 4.6015 0 -85.4088
1184.58 4.02115 0 -80.6846
953.381 4.58281 0 -85.8144
946.135 4.59226 0 -85.6123
702.586 4.97822 0 -87.3349
691.722 5.00453 0 -87.0258
1157.39 4.03297 0 -79.9164
1175.52 4.0253 0 -80.4305
697.154 4.99148 0 -87.1809
924.395 4.61934 0 -84.9972
1166.45 4.02924 0 -80.1744
938.888 4.6015 0 -85.4088
931.641 4.61053 0 -85.2037
691.722 5.00453 0 -87.0258
680.858 5.03001 0 -86.7122
1139.27 4.03982 0 -79.395
1157.39 4.03297 0 -79.9164
686.29 5.01738 0 -86.8695
909.902 4.63634 0 -84.5796
1148.33 4.0365 0 -79.6566
924.395 4.61934 0 -84.9972
917.149 4.62794 0 -84.7891
680.858 5.03001 0 -86.7122
669.994 5.05466 0 -86.3942
1121.15 4.04584 0 -78.8662
1139.27 4.03982 0 -79.395
675.426 5.04244 0 -86.5538
895.411 4.65249 0 -84.1562
1130.21 4.04293 0 -79.1315
909.902 4.63634 0 -84.5796
902.656 4.64452 0 -84.3686
669.994 5.05466 0 -86.3942
659.13 5.07848 0 -86.072
1103.03 4.05104 0 -78.3302
1121.15 4.04584 0 -78.8662
664.562 5.06668 0 -86.2336
880.92 4.66781 0 -83.727
1112.09 4.04854 0 -78.5991
895.411 4.65249 0 -84.1562
888.165 4.66025 0 -83.9423
659.13 5.07848 0 -86.072
648.267 5.10148 0 -85.7454
1084.91 4.05543 0 -77.7871
1103.03 4.05104 0 -78.3302
653.699 5.09008 0 -85.9092
866.429 4.68229 0 -83.2922
1093.97 4.05334 0 -78.0596
880.92 4.66781 0 -83.727
873.674 4.67515 0 -83.5103
648.267 5.10148 0 -85.7454
637.404 5.12365 0 -85.4148
1066.79 4.059 0 -77.2371
1084.91 4.05543 0 -77.7871
642.836 5.11267 0 -85.5806
851.939 4.69594 0 -82.8518
1075.85 4.05732 0 -77.513
866.429 4.68229 0 -83.2922
859.184 4.68922 0 -83.0727
637.404 5.12365 0 -85.4148
626.542 5.145 0 -85.08
1048.67 4.06177 0 -76.6803
1066.79 4.059 0 -77.2371
631.973 5.13443 0 -85.2479
837.45 4.70877 0 -82.406
1057.73 4.06049 0 -76.9595
851.939 4.69594 0 -82.8518
844.695 4.70246 0 -82.6296
626.542 5.145 0 -85.08
615.68 5.16554 0 -84.7412
1030.55 4.06375 0 -76.1167
1048.67 4.06177 0 -76.6803
621.111 5.15537 0 -84.9111
822.962 4.72077 0 -81.9547
1039.61 4.06286 0 -76.3993
837.45 4.70877 0 -82.406
830.206 4.71487 0 -82.181
615.68 5.16554 0 -84.7412
604.819 5.18526 0 -84.3984
1012.44 4.06492 0 -75.5465
1030.55 4.06375 0 -76.1167
610.249 5.1755 0 -84.5703
808.474 4.73196 0 -81.4982
1021.5 4.06443 0 -75.8324
822.962 4.72077 0 -81.9547
815.717 4.72647 0 -81.7271
604.819 5.18526 0 -84.3984
593.958 5.20418 0 -84.0517
994.321 4.06531 0 -74.9698
1012.44 4.06492 0 -75.5465
599.388 5.19482 0 -84.2255
793.986 4.74234 0 -81.0365
1003.38 4.06522 0 -75.2589
808.474 4.73196 0 -81.4982
801.23 4.73725 0 -81.268
593.958 5.20418 0 -84.0517
583.097 5.22228 0 -83.7013
976.207 4.06492 0 -74.3867
994.321 4.06531 0 -74.9698
588.527 5.21333 0 -83.877
779.499 4.75191 0 -80.5697
985.264 4.06522 0 -74.679
793.986 4.74234 0 -81.0365
786.743 4.74723 0 -80.8037
583.097 5.22228 0 -83.7013
572.236 5.23959 0 -83.347
958.093 4.06376 0 -73.7974
976.207 4.06492 0 -74.3867
577.667 5.23104 0 -83.5246
765.013 4.76068 0 -80.0979
967.15 4.06444 0 -74.0928
779.499 4.75191 0 -80.5697
772.256 4.7564 0 -80.3344
572.236 5.23959 0 -83.347
561.376 5.2561 0 -82.9891
939.98 4.06182 0 -73.2019
958.093 4.06376 0 -73.7974
566.806 5.24794 0 -83.1685
750.528 4.76866 0 -79.6212
949.037 4.06288 0 -73.5004
765.013 4.76068 0 -80.0979
757.77 4.76477 0 -79.8601
561.376 5.2561 0 -82.9891
550.517 5.27181 0 -82.6276
921.868 4.05912 0 -72.6004
939.98 4.06182 0 -73.2019
555.947 5.26405 0 -82.8088
736.043 4.77583 0 -79.1396
930.924 4.06056 0 -72.9019
750.528 4.76866 0 -79.6212
743.285 4.77234 0 -79.381
550.517 5.27181 0 -82.6276
539.657 5.28673 0 -82.2626
903.757 4.05566 0 -71.993
921.868 4.05912 0 -72.6004
545.087 5.27937 0 -82.4455
721.558 4.78223 0 -78.6533
912.812 4.05748 0 -72.2974
736.043 4.77583 0 -79.1396
728.8 4.77913 0 -78.8971
539.657 5.28673 0 -82.2626
528.798 5.30086 0 -81.8941
885.646 4.05145 0 -71.3798
903.757 4.05566 0 -71.993
534.228 5.29389 0 -82.0787
707.074 4.78784 0 -78.1624
894.702 4.05365 0 -71.6871
721.558 4.78223 0 -78.6533
714.316 4.78513 0 -78.4085
528.798 5.30086 0 -81.8941
517.94 5.31421 0 -81.5221
867.537 4.0465 0 -70.7609
885.646 4.05145 0 -71.3798
523.369 5.30763 0 -81.7085
692.591 4.79267 0 -77.667
876.591 4.04907 0 -71.071
707.074 4.78784 0 -78.1624
699.833 4.79035 0 -77.9153
517.94 5.31421 0 -81.5221
507.081 5.32678 0 -81.1469
849.428 4.04081 0 -70.1364
867.537 4.0465 0 -70.7609
512.511 5.3206 0 -81.3349
678.108 4.79673 0 -77.1671
858.482 4.04375 0 -70.4493
692.591 4.79267 0 -77.667
685.35 4.7948 0 -77.4176
507.081 5.32678 0 -81.1469
496.224 5.33858 0 -80.7684
831.32 4.03439 0 -69.5065
849.428 4.04081 0 -70.1364
501.652 5.33278 0 -80.9581
663.626 4.80003 0 -76.6629
840.374 4.03769 0 -69.8222
678.108 4.79673 0 -77.1671
670.867 4.79848 0 -76.9156
496.224 5.33858 0 -80.7684
485.366 5.34961 0 -80.3867
813.213 4.02725 0 -68.8713
831.32 4.03439 0 -69.5065
490.795 5.34419 0 -80.578
649.145 4.80257 0 -76.1544
822.266 4.03091 0 -69.1896
663.626 4.80003 0 -76.6629
656.385 4.80139 0 -76.4092
485.366 5.34961 0 -80.3867
474.509 5.35987 0 -80.0019
795.106 4.01939 0 -68.2309
813.213 4.02725 0 -68.8713
479.937 5.35483 0 -80.1947
634.663 4.80435 0 -75.6418
804.159 4.02341 0 -68.5517
649.145 4.80257 0 -76.1544
641.904 4.80355 0 -75.8986
474.509 5.35987 0 -80.0019
463.652 5.36937 0 -79.6141
777.001 4.01082 0 -67.5854
795.106 4.01939 0 -68.2309
469.08 5.36471 0 -79.8084
620.183 4.80538 0 -75.1251
786.053 4.0152 0 -67.9088
634.663 4.80435 0 -75.6418
627.423 4.80496 0 -75.3839
463.652 5.36937 0 -79.6141
452.795 5.37811 0 -79.2232
758.896 4.00156 0 -66.9349
777.001 4.01082 0 -67.5854
458.223 5.37383 0 -79.419
605.703 4.80568 0 -74.6044
767.948 4.00628 0 -67.2607
620.183 4.80538 0 -75.1251
612.943 4.80562 0 -74.8652
452.795 5.37811 0 -79.2232
441.939 5.38609 0 -78.8295
740.792 3.99159 0 -66.2795
758.896 4.00156 0 -66.9349
447.367 5.38219 0 -79.0267
591.223 4.80523 0 -74.0798
749.844 3.99666 0 -66.6078
605.703 4.80568 0 -74.6044
598.463 4.80555 0 -74.3425
441.939 5.38609 0 -78.8295
431.083 5.39333 0 -78.4329
722.688 3.98094 0 -65.6194
740.792 3.99159 0 -66.2795
436.51 5.38981 0 -78.6316
576.744 4.80405 0 -73.5514
731.74 3.98635 0 -65.95
591.223 4.80523 0 -74.0798
583.984 4.80473 0 -73.8161
431.083 5.39333 0 -78.4329
420.227 5.39983 0 -78.0336
704.586 3.96962 0 -64.9547
722.688 3.98094 0 -65.6194
425.655 5.39667 0 -78.2336
562.266 4.80215 0 -73.0193
713.637 3.97536 0 -65.2876
576.744 4.80405 0 -73.5514
569.505 4.80319 0 -73.2858
420.227 5.39983 0 -78.0336
409.371 5.40558 0 -77.6315
686.484 3.95762 0 -64.2854
704.586 3.96962 0 -64.9547
414.799 5.4028 0 -77.8329
547.788 4.79954 0 -72.4837
695.535 3.9637 0 -64.6206
562.266 4.80215 0 -73.0193
555.027 4.80093 0 -72.7519
409.371 5.40558 0 -77.6315
398.516 5.4106 0 -77.2269
668.383 3.94496 0 -63.6118
686.484 3.95762 0 -64.2854
403.944 5.40818 0 -77.4295
533.31 4.7962 0 -71.9445
677.433 3.95137 0 -63.9491
547.788 4.79954 0 -72.4837
540.549 4.79796 0 -72.2145
398.516 5.4106 0 -77.2269
387.661 5.41489 0 -76.8197
650.282 3.93164 0 -62.9339
668.383 3.94496 0 -63.6118
393.089 5.41284 0 -77.0236
518.833 4.79217 0 -71.4019
659.332 3.93838 0 -63.2734
533.31 4.7962 0 -71.9445
526.072 4.79427 0 -71.6736
387.661 5.41489 0 -76.8197
376.807 5.41846 0 -76.4099
632.183 3.91767 0 -62.2518
650.282 3.93164 0 -62.9339
382.234 5.41676 0 -76.6151
504.357 4.78743 0 -70.856
641.232 3.92474 0 -62.5933
518.833 4.79217 0 -71.4019
511.595 4.78989 0 -71.1293
376.807 5.41846 0 -76.4099
365.952 5.4213 0 -75.9978
614.083 3.90307 0 -61.5657
632.183 3.91767 0 -62.2518
371.379 5.41997 0 -76.2042
489.88 4.782 0 -70.3068
623.133 3.91045 0 -61.9092
504.357 4.78743 0 -70.856
497.118 4.7848 0 -70.5818
365.952 5.4213 0 -75.9978
355.098 5.42343 0 -75.5833
595.985 3.88784 0 -60.8756
614.083 3.90307 0 -61.5657
360.525 5.42245 0 -75.7909
475.405 4.77589 0 -69.7545
605.034 3.89553 0 -61.2211
489.88 4.782 0 -70.3068
482.643 4.77903 0 -70.031
355.098 5.42343 0 -75.5833
344.244 5.42484 0 -75.1666
577.887 3.87198 0 -60.1818
595.985 3.88784 0 -60.8756
349.671 5.42422 0 -75.3753
460.93 4.76909 0 -69.1992
586.936 3.87998 0 -60.5292
475.405 4.77589 0 -69.7545
468.167 4.77257 0 -69.4772
344.244 5.42484 0 -75.1666
333.391 5.42554 0 -74.7477
559.79 3.8555 0 -59.4842
577.887 3.87198 0 -60.1818
338.817 5.42528 0 -74.9574
446.455 4.76162 0 -68.6409
568.839 3.86382 0 -59.8335
460.93 4.76909 0 -69.1992
453.692 4.76544 0 -68.9204
333.391 5.42554 0 -74.7477
322.537 5.42554 0 -74.3266
541.694 3.83842 0 -58.7831
559.79 3.8555 0 -59.4842
327.964 5.42563 0 -74.5374
431.98 4.75347 0 -68.0798
550.742 3.84704 0 -59.1341
446.455 4.76162 0 -68.6409
439.218 4.75763 0 -68.3607
322.537 5.42554 0 -74.3266
311.684 5.42484 0 -73.9034
523.598 3.82074 0 -58.0785
541.694 3.83842 0 -58.7831
317.111 5.42528 0 -74.1152
417.506 4.74467 0 -67.5159
532.646 3.82966 0 -58.4312
431.98 4.75347 0 -68.0798
424.743 4.74915 0 -67.7982
311.684 5.42484 0 -73.9034
300.831 5.42344 0 -73.4783
505.503 3.80247 0 -57.3706
523.598 3.82074 0 -58.0785
306.258 5.42423 0 -73.6911
403.033 4.7352 0 -66.9493
514.551 3.81168 0 -57.725
417.506 4.74467 0 -67.5159
410.27 4.74002 0 -67.2329
300.831 5.42344 0 -73.4783
289.979 5.42134 0 -73.0513
487.409 3.78362 0 -56.6595
505.503 3.80247 0 -57.3706
295.405 5.42248 0 -73.265
388.56 4.72509 0 -66.3802
496.456 3.79312 0 -57.0155
403.033 4.7352 0 -66.9493
395.796 4.73023 0 -66.6651
289.979 5.42134 0 -73.0513
279.126 5.41855 0 -72.6224
469.315 3.76419 0 -55.9453
487.409 3.78362 0 -56.6595
284.552 5.42003 0 -72.837
374.087 4.71432 0 -65.8086
478.361 3.77398 0 -56.3028
388.56 4.72509 0 -66.3802
381.323 4.71978 0 -66.0947
279.126 5.41855 0 -72.6224
268.274 5.41506 0 -72.1917
451.221 3.74419 0 -55.2281
469.315 3.76419 0 -55.9453
273.7 5.41689 0 -72.4073
359.615 4.70291 0 -65.2347
460.268 3.75426 0 -55.587
374.087 4.71432 0 -65.8086
366.851 4.7087 0 -65.522
268.274 5.41506 0 -72.1917
257.422 5.41089 0 -71.7594
433.128 3.72363 0 -54.508
451.221 3.74419 0 -55.2281
262.848 5.41306 0 -71.9758
345.143 4.69086 0 -64.6585
442.175 3.73398 0 -54.8684
359.615 4.70291 0 -65.2347
352.379 4.69697 0 -64.9469
257.422 5.41089 0 -71.7594
246.57 5.40603 0 -71.3254
415.036 3.70252 0 -53.7853
433.128 3.72363 0 -54.508
251.996 5.40855 0 -71.5426
330.671 4.67818 0 -64.0801
424.082 3.71314 0 -54.147
345.143 4.69086 0 -64.6585
337.907 4.6846 0 -64.3696
246.57 5.40603 0 -71.3254
235.719 5.40051 0 -70.8899
396.944 3.68085 0 -53.06
415.036 3.70252 0 -53.7853
241.145 5.40335 0 -71.1079
316.2 4.66486 0 -63.4997
405.99 3.69175 0 -53.4229
330.671 4.67818 0 -64.0801
323.436 4.6716 0 -63.7902
235.719 5.40051 0 -70.8899
224.868 5.39433 0 -70.4529
378.853 3.65866 0 -52.3321
396.944 3.68085 0 -53.06
230.293 5.39749 0 -70.6716
301.729 4.65093 0 -62.9173
387.899 3.66982 0 -52.6963
316.2 4.66486 0 -63.4997
308.965 4.65797 0 -63.2088
224.868 5.39433 0 -70.4529
214.017 5.38754 0 -70.0145
360.763 3.63594 0 -51.602
378.853 3.65866 0 -52.3321
219.443 5.391 0 -70.2339
287.259 4.63642 0 -62.333
369.808 3.64736 0 -51.9673
301.729 4.65093 0 -62.9173
294.494 4.64375 0 -62.6254
214.017 5.38754 0 -70.0145
203.167 5.38026 0 -69.5745
342.672 3.61273 0 -50.8696
360.763 3.63594 0 -51.602
208.592 5.38396 0 -69.7947
272.789 4.62138 0 -61.7468
351.717 3.62439 0 -51.2361
287.259 4.63642 0 -62.333
280.024 4.62896 0 -62.0402
203.167 5.38026 0 -69.5745
192.317 5.37272 0 -69.133
324.583 3.58911 0 -50.1349
342.672 3.61273 0 -50.8696
197.742 5.3765 0 -69.3539
258.32 4.60597 0 -61.1588
333.628 3.60097 0 -50.5025
272.789 4.62138 0 -61.7468
265.555 4.61371 0 -61.453
192.317 5.37272 0 -69.133
181.468 5.36538 0 -68.6897
306.495 3.56526 0 -49.398
324.583 3.58911 0 -50.1349
186.892 5.36898 0 -68.9116
243.852 4.59052 0 -60.5686
315.539 3.5772 0 -49.7668
258.32 4.60597 0 -61.1588
251.086 4.59822 0 -60.864
181.468 5.36538 0 -68.6897
170.619 5.35927 0 -68.2443
288.408 3.54154 0 -48.6584
306.495 3.56526 0 -49.398
176.043 5.36206 0 -68.4673
229.385 4.57578 0 -59.9757
297.451 3.55335 0 -49.0286
243.852 4.59052 0 -60.5686
236.618 4.583 0 -60.2725
170.619 5.35927 0 -68.2443
159.769 5.35629 0 -67.796
270.323 3.51878 0 -47.9149
288.408 3.54154 0 -48.6584
165.194 5.3572 0 -68.0206
214.919 4.56321 0 -59.3791
279.365 3.52995 0 -48.2872
229.385 4.57578 0 -59.9757
222.152 4.56905 0 -59.678
159.769 5.35629 0 -67.796
148.918 5.36055 0 -67.3437
252.241 3.49852 0 -47.1656
270.323 3.51878 0 -47.9149
154.344 5.35711 0 -67.5705
200.453 4.55596 0 -58.7762
261.282 3.50821 0 -47.5412
214.919 4.56321 0 -59.3791
207.686 4.55867 0 -59.0786
148.918 5.36055 0 -67.3437
138.058 5.3788 0 -66.8854
234.166 3.48417 0 -46.4051
252.241 3.49852 0 -47.1656
143.489 5.36727 0 -67.1154
185.987 4.55952 0 -58.1628
243.202 3.49027 0 -46.7872
200.453 4.55596 0 -58.7762
193.221 4.55572 0 -58.4714
138.058 5.3788 0 -66.8854
127.182 5.4253 0 -66.4176
216.099 3.48097 0 -45.6252
234.166 3.48417 0 -46.4051
132.622 5.39723 0 -66.6531
171.516 4.58534 0 -57.5301
225.132 3.48069 0 -46.0183
185.987 4.55952 0 -58.1628
178.753 4.56891 0 -57.8494
127.182 5.4253 0 -66.4176
116.261 5.52012 0 -65.9365
198.049 3.50122 0 -44.8062
216.099 3.48097 0 -45.6252
121.73 5.46474 0 -66.1789
157.028 4.65059 0 -56.8637
207.07 3.48717 0 -45.2224
171.516 4.58534 0 -57.5301
164.274 4.6107 0 -57.203
116.261 5.52012 0 -65.9365
105.267 5.70482 0 -65.4334
180.011 3.55857 0 -43.921
198.049 3.50122 0 -44.8062
110.774 5.59795 0 -65.6886
142.502 4.79035 0 -56.1382
189.03 3.52362 0 -44.3741
157.028 4.65059 0 -56.8637
149.772 4.70977 0 -56.5094
105.267 5.70482 0 -65.4334
94.0982 6.02208 0 -64.9068
162.014 3.69217 0 -42.9075
180.011 3.55857 0 -43.921
99.7161 5.84266 0 -65.1726
127.891 5.04512 0 -55.3151
171.002 3.61397 0 -43.4362
142.502 4.79035 0 -56.1382
135.208 4.89621 0 -55.7445
94.0982 6.02208 0 -64.9068
82.6725 6.56346 0 -64.3439
143.997 3.919 0 -41.6998
162.014 3.69217 0 -42.9075
88.417 6.26026 0 -64.6316
113.1 5.50034 0 -54.3396
153.019 3.78863 0 -42.3328
127.891 5.04512 0 -55.3151
120.53 5.24916 0 -54.8455
82.6725 6.56346 0 -64.3439
70.6852 7.33984 0 -63.785
126.037 4.35134 0 -40.1387
143.997 3.919 0 -41.6998
76.7856 6.91937 0 -64.0579
97.9809 6.19467 0 -53.1511
134.992 4.11164 0 -40.978
113.1 5.50034 0 -54.3396
105.583 5.79899 0 -53.7868
70.6852 7.33984 0 -63.785
58.0223 8.42382 0 -63.2579
107.77 4.8993 0 -38.1525
126.037 4.35134 0 -40.1387
64.4224 7.85768 0 -63.5162
82.1889 7.24282 0 -51.7298
116.996 4.59321 0 -39.2023
97.9809 6.19467 0 -53.1511
90.2201 6.70602 0 -52.446
58.0223 8.42382 0 -63.2579
44.0195 9.30244 0 -63.0533
89.3271 5.83738 0 -35.4995
107.77 4.8993 0 -38.1525
51.2825 8.92347 0 -63.0822
65.3635 8.33605 0 -50.1992
98.5209 5.36879 0 -36.9259
82.1889 7.24282 0 -51.7298
73.8858 7.75245 0 -51.0052
44.0195 9.30244 0 -63.0533
29.1472 9.30429 0 -63.4332
68.9911 6.1607 0 -32.6466
89.3271 5.83738 0 -35.4995
36.5732 9.56862 0 -63.149
46.4677 8.99753 0 -49.17
79.6189 6.02612 0 -34.0556
65.3635 8.33605 0 -50.1992
56.3681 8.94195 0 -49.4667
29.1472 9.30429 0 -63.4332
13.1931 4.82246 0 -65.2476
46.8087 5.95799 0 -30.4122
68.9911 6.1607 0 -32.6466
21.4392 7.88645 0 -64.0923
25.4549 5.91726 0 -50.1484
58.0211 6.53274 0 -31.3065
46.4677 8.99753 0 -49.17
36.0173 8.06622 0 -49.4251
13.1931 4.82246 0 -65.2476
1.10784 -9.28694 0 -67.1608
17.6445 -2.88528 0 -34.4526
46.8087 5.95799 0 -30.4122
6.0423 -0.23475 0 -66.3843
2.24743 -8.29722 0 -56.1083
33.7306 2.83669 0 -31.132
25.4549 5.91726 0 -50.1484
14.5577 1.63897 0 -51.9441
1.10784 -9.28694 0 -67.1608
-5.42116 -45.299 0 -63.0849
-7.31748 -38.4442 0 -53.1972
17.6445 -2.88528 0 -34.4526
-2.72043 -24.6498 0 -66.7512
-6.32011 -52.352 0 -62.772
3.6401 -12.0832 0 -40.7554
2.24743 -8.29722 0 -56.1083
-6.58228 -26.1401 0 -60.8747
-5.42116 -45.299 0 -63.0849
-4.15615 -88.9305 0 -36.066
-0.373273 -177.908 0 -60.3763
-7.31748 -38.4442 0 -53.1972
-6.37596 -68.633 0 -53.4022
5.2979 -128.156 0 -36.2115
-11.7887 -94.9803 0 -64.935
-6.32011 -52.352 0 -62.772
-1.59444 -88.4482 0 -56.3788
3345.95 1000.79 0 -136.657
3543.52 381.761 0 -199.638
4764.42 -88.4631 0 61.8765
7383.13 2208.19 0 -1766.53
3476.37 719.912 0 -230.328
4424.73 271.761 0 -259.395
5300.56 -99.6971 0 -254.141
3936.7 1177.27 0 -427.55
4367.83 595.337 0 -403.064
3543.52 381.761 0 -199.638
3597.67 112.598 0 -98.1496
4716.05 -50.8261 0 15.7714
4764.42 -88.4631 0 61.8765
3594.25 195.901 0 -145.709
4258.7 39.0695 0 -48.1763
4723.12 15.8231 0 24.7297
4424.73 271.761 0 -259.395
4312.42 97.6483 0 -108.296
3597.67 112.598 0 -98.1496
3552.76 18.5988 0 -40.3696
4802.2 16.3504 0 3.17446
4716.05 -50.8261 0 15.7714
3570.74 54.4531 0 -60.0754
4202.13 -0.111583 0 -10.7129
4765.8 -32.7165 0 15.3809
4258.7 39.0695 0 -48.1763
4227.87 13.911 0 -26.5527
3552.76 18.5988 0 -40.3696
3521.61 -2.11279 0 -28.2684
4823 -4.72224 0 -9.50644
4802.2 16.3504 0 3.17446
3538.98 3.62211 0 -32.051
4175.73 -5.58853 0 -6.37519
4813.82 15.1633 0 -9.34229
4202.13 -0.111583 0 -10.7129
4183.95 -5.62147 0 -4.06696
3521.61 -2.11279 0 -28.2684
3490.36 -9.8514 0 -28.8163
4840.09 5.52838 0 -9.57794
4823 -4.72224 0 -9.50644
3503.47 -7.10889 0 -27.2252
4163.42 -5.27869 0 -13.5075
4835.3 -3.27977 0 -7.50021
4175.73 -5.58853 0 -6.37519
4170.76 -4.98955 0 -10.7427
3490.36 -9.8514 0 -28.8163
3468.71 -8.64621 0 -34.4965
4832.98 -0.681656 0 -12.9633
4840.09 5.52838 0 -9.57794
3479.86 -9.65165 0 -31.7614
4148.48 -4.30045 0 -20.2891
4836.99 4.06117 0 -12.4752
4163.42 -5.27869 0 -13.5075
4155.5 -5.12037 0 -16.5963
3468.71 -8.64621 0 -34.4965
3447.84 -7.32203 0 -39.5286
4821.86 1.26469 0 -14.1682
4832.98 -0.681656 0 -12.9633
3457.63 -8.03159 0 -37.0116
4132.69 -3.14691 0 -26.0113
4828.83 -0.523722 0 -13.0326
4148.48 -4.30045 0 -20.2891
4141.21 -3.54605 0 -23.5421
3447.84 -7.32203 0 -39.5286
3429.29 -5.4731 0 -43.8958
4802.41 -0.118355 0 -16.3246
4821.86 1.26469 0 -14.1682
3438.67 -6.34364 0 -41.9114
4114.26 -2.46561 0 -30.2725
4812.41 0.896954 0 -15.532
4132.69 -3.14691 0 -26.0113
4123.52 -2.83557 0 -28.2347
3429.29 -5.4731 0 -43.8958
3410.79 -4.30276 0 -47.072
4780.93 0.25694 0 -17.9906
4802.41 -0.118355 0 -16.3246
3419.9 -4.83932 0 -45.5755
4094.7 -1.92722 0 -33.4453
4792.08 -0.105513 0 -17.0296
4114.26 -2.46561 0 -30.2725
4104.72 -2.13913 0 -32.001
3410.79 -4.30276 0 -47.072
3392.7 -3.43321 0 -49.5546
4757.04 -0.0124797 0 -19.8531
4780.93 0.25694 0 -17.9906
3401.78 -3.81664 0 -48.407
4074.01 -1.63753 0 -35.9267
4769.09 0.18679 0 -18.9907
4094.7 -1.92722 0 -33.4453
4084.4 -1.77855 0 -34.7474
3392.7 -3.43321 0 -49.5546
3374.55 -2.91667 0 -51.4775
4732.46 0.067679 0 -21.5982
4757.04 -0.0124797 0 -19.8531
3383.6 -3.14696 0 -50.5621
4052.85 -1.42876 0 -37.946
4744.85 -0.00949893 0 -20.6982
4074.01 -1.63753 0 -35.9267
4063.5 -1.51567 0 -36.983
3374.55 -2.91667 0 -51.4775
3356.44 -2.57817 0 -53.0967
4707.28 0.0337511 0 -23.3595
4732.46 0.067679 0 -21.5982
3365.51 -2.72623 0 -52.3209
4031.31 -1.30723 0 -39.7119
4719.9 0.0634585 0 -22.4968
4052.85 -1.42876 0 -37.946
4042.1 -1.36506 0 -38.8528
3356.44 -2.57817 0 -53.0967
3338.29 -2.36848 0 -54.5126
4681.93 0.0636505 0 -25.0777
4707.28 0.0337511 0 -23.3595
3347.36 -2.46299 0 -53.8219
4009.63 -1.21533 0 -41.316
4694.63 0.0409872 0 -24.2153
4031.31 -1.30723 0 -39.7119
4020.49 -1.25636 0 -40.5291
3338.29 -2.36848 0 -54.5126
3320.13 -2.22263 0 -55.818
4656.45 0.0762617 0 -26.774
4681.93 0.0636505 0 -25.0777
3329.22 -2.28891 0 -55.1768
3987.84 -1.148 0 -42.8305
4669.19 0.0723598 0 -25.9324
4009.63 -1.21533 0 -41.316
3998.74 -1.18078 0 -42.0821
3320.13 -2.22263 0 -55.818
3301.95 -2.11487 0 -57.0512
4630.93 0.099513 0 -28.4394
4656.45 0.0762617 0 -26.774
3311.04 -2.16576 0 -56.4412
3966.02 -1.08883 0 -44.2844
4643.69 0.0863175 0 -27.609
3987.84 -1.148 0 -42.8305
3976.93 -1.11722 0 -43.5634
3301.95 -2.11487 0 -57.0512
3283.77 -2.02484 0 -58.24
4605.4 0.121305 0 -30.0761
4630.93 0.099513 0 -28.4394
3292.86 -2.06816 0 -57.6504
3944.17 -1.03501 0 -45.698
4618.17 0.110771 0 -29.2619
3966.02 -1.08883 0 -44.2844
3955.09 -1.0618 0 -44.9956
3283.77 -2.02484 0 -58.24
3265.57 -1.94401 0 -59.3955
4579.86 0.145034 0 -31.6834
4605.4 0.121305 0 -30.0761
3274.67 -1.98375 0 -58.8213
3922.31 -0.982575 0 -47.0788
4592.63 0.132816 0 -30.8832
3944.17 -1.03501 0 -45.698
3933.24 -1.00859 0 -46.3921
3265.57 -1.94401 0 -59.3955
3247.38 -1.86697 0 -60.5249
4554.32 0.169479 0 -33.2612
4579.86 0.145034 0 -31.6834
3256.47 -1.90516 0 -59.9633
3900.44 -0.930649 0 -48.4317
4567.09 0.15723 0 -32.476
3922.31 -0.982575 0 -47.0788
3911.38 -0.956668 0 -47.7586
3247.38 -1.86697 0 -60.5249
3229.17 -1.79155 0 -61.6309
4528.78 0.194749 0 -34.8097
4554.32 0.169479 0 -33.2612
3238.28 -1.82917 0 -61.0807
3878.58 -0.878455 0 -49.7582
4541.55 0.181978 0 -34.0391
3900.44 -0.930649 0 -48.4317
3889.51 -0.904578 0 -49.0982
3229.17 -1.79155 0 -61.6309
3210.97 -1.71657 0 -62.7151
4503.25 0.220897 0 -36.329
4528.78 0.194749 0 -34.8097
3220.07 -1.75403 0 -62.1757
3856.71 -0.825826 0 -51.0595
4516.01 0.207731 0 -35.573
3878.58 -0.878455 0 -49.7582
3867.65 -0.852216 0 -50.412
3210.97 -1.71657 0 -62.7151
3192.77 -1.6416 0 -63.7781
4477.71 0.247788 0 -37.8193
4503.25 0.220897 0 -36.329
3201.87 -1.6791 0 -63.2492
3834.85 -0.772676 0 -52.3357
4490.48 0.234243 0 -37.0778
3856.71 -0.825826 0 -51.0595
3845.78 -0.799312 0 -51.7007
3192.77 -1.6416 0 -63.7781
3174.57 -1.56647 0 -64.8204
4452.17 0.275485 0 -39.2807
4477.71 0.247788 0 -37.8193
3183.67 -1.60405 0 -64.3018
3812.98 -0.719012 0 -53.5872
4464.94 0.261542 0 -38.5536
3834.85 -0.772676 0 -52.3357
3823.91 -0.745909 0 -52.9646
3174.57 -1.56647 0 -64.8204
3156.36 -1.49113 0 -65.8421
4426.64 0.303899 0 -40.7134
4452.17 0.275485 0 -39.2807
3165.47 -1.52883 0 -65.3338
3791.11 -0.664864 0 -54.8142
4439.41 0.289603 0 -40.0006
3812.98 -0.719012 0 -53.5872
3802.05 -0.691995 0 -54.2038
3156.36 -1.49113 0 -65.8421
3138.16 -1.41561 0 -66.8433
4401.1 0.333031 0 -42.1175
4426.64 0.303899 0 -40.7134
3147.26 -1.4534 0 -66.3452
3769.25 -0.610266 0 -56.0167
4413.87 0.318378 0 -41.419
3791.11 -0.664864 0 -54.8142
3780.18 -0.637619 0 -55.4185
3138.16 -1.41561 0 -66.8433
3119.96 -1.33992 0 -67.8243
4375.57 0.362826 0 -43.4932
4401.1 0.333031 0 -42.1175
3129.06 -1.37778 0 -67.3364
3747.38 -0.555256 0 -57.1948
4388.34 0.347848 0 -42.8088
3769.25 -0.610266 0 -56.0167
3758.31 -0.58281 0 -56.6088
3119.96 -1.33992 0 -67.8243
3101.75 -1.26409 0 -68.7852
4350.03 0.393258 0 -44.8406
4375.57 0.362826 0 -43.4932
3110.85 -1.30202 0 -68.3073
3725.51 -0.499869 0 -58.3488
4362.8 0.377965 0 -44.1704
3747.38 -0.555256 0 -57.1948
3736.45 -0.527607 0 -57.7748
3101.75 -1.26409 0 -68.7852
3083.55 -1.18814 0 -69.726
4324.5 0.424284 0 -46.16
4350.03 0.393258 0 -44.8406
3092.65 -1.22613 0 -69.2581
3703.65 -0.44414 0 -59.4787
4337.27 0.408699 0 -45.5038
3725.51 -0.499869 0 -58.3488
3714.58 -0.472045 0 -58.9168
3083.55 -1.18814 0 -69.726
3065.34 -1.11211 0 -70.6469
4298.97 0.455869 0 -47.4515
4324.5 0.424284 0 -46.16
3074.45 -1.15013 0 -70.1889
3681.78 -0.388101 0 -60.5848
4311.73 0.440009 0 -46.8092
3703.65 -0.44414 0 -59.4787
3692.71 -0.416157 0 -60.0347
3065.34 -1.11211 0 -70.6469
3047.14 -1.03602 0 -71.548
4273.43 0.487977 0 -48.7152
4298.97 0.455869 0 -47.4515
3056.24 -1.07407 0 -71.0999
3659.92 -0.331784 0 -61.6671
4286.2 0.47186 0 -48.0868
3681.78 -0.388101 0 -60.5848
3670.85 -0.359975 0 -61.1289
3047.14 -1.03602 0 -71.548
3028.94 -0.959894 0 -72.4295
4247.9 0.520571 0 -49.9514
4273.43 0.487977 0 -48.7152
3038.04 -0.997959 0 -71.9912
3638.05 -0.275221 0 -62.7257
4260.67 0.504215 0 -49.3367
3659.92 -0.331784 0 -61.6671
3648.98 -0.303531 0 -62.1993
3028.94 -0.959894 0 -72.4295
3010.73 -0.883762 0 -73.2913
4222.37 0.553615 0 -51.1601
4247.9 0.520571 0 -49.9514
3019.83 -0.921827 0 -72.8628
3616.18 -0.218442 0 -63.7609
4235.13 0.537039 0 -50.5592
3638.05 -0.275221 0 -62.7257
3627.12 -0.246856 0 -63.2462
3010.73 -0.883762 0 -73.2913
2992.53 -0.807646 0 -74.1338
4196.83 0.587074 0 -52.3416
4222.37 0.553615 0 -51.1601
3001.63 -0.8457 0 -73.715
3594.32 -0.161477 0 -64.7727
4209.6 0.570295 0 -51.7543
3616.18 -0.218442 0 -63.7609
3605.25 -0.189981 0 -64.2697
2992.53 -0.807646 0 -74.1338
2974.32 -0.731572 0 -74.9569
4171.3 0.620914 0 -53.4961
4196.83 0.587074 0 -52.3416
2983.43 -0.769602 0 -74.5477
3572.45 -0.104356 0 -65.7614
4184.07 0.603948 0 -52.9222
3594.32 -0.161477 0 -64.7727
3583.39 -0.132934 0 -65.2699
2974.32 -0.731572 0 -74.9569
2956.12 -0.655565 0 -75.7607
4145.77 0.6551 0 -54.6236
4171.3 0.620914 0 -53.4961
2965.22 -0.693559 0 -75.3612
3550.59 -0.0471094 0 -66.7269
4158.54 0.637966 0 -54.0632
3572.45 -0.104356 0 -65.7614
3561.52 -0.0757469 0 -66.247
2956.12 -0.655565 0 -75.7607
2937.92 -0.579649 0 -76.5455
4120.24 0.6896 0 -55.7243
4145.77 0.6551 0 -54.6236
2947.02 -0.617594 0 -76.1555
3528.73 0.0102355 0 -67.6696
4133.01 0.672313 0 -55.1773
3550.59 -0.0471094 0 -66.7269
3539.66 -0.0184474 0 -67.2011
2937.92 -0.579649 0 -76.5455
2919.71 -0.503847 0 -77.3114
4094.71 0.724381 0 -56.7985
4120.24 0.6896 0 -55.7243
2928.82 -0.541732 0 -76.9308
3506.86 0.0676498 0 -68.5895
4107.48 0.706957 0 -56.2648
3528.73 0.0102355 0 -67.6696
3517.79 0.0389357 0 -68.1324
2919.71 -0.503847 0 -77.3114
2901.51 -0.428183 0 -78.0583
4069.18 0.759409 0 -57.8463
4094.71 0.724381 0 -56.7985
2910.61 -0.465996 0 -77.6872
3485 0.125106 0 -69.4867
4081.95 0.741866 0 -57.3257
3506.86 0.0676498 0 -68.5895
3495.93 0.0963744 0 -69.0409
2901.51 -0.428183 0 -78.0583
2883.31 -0.352679 0 -78.7865
4043.65 0.794654 0 -58.8678
4069.18 0.759409 0 -57.8463
2892.41 -0.390409 0 -78.4248
3463.14 0.182577 0 -70.3615
4056.42 0.777006 0 -58.3603
3485 0.125106 0 -69.4867
3474.07 0.153841 0 -69.9269
2883.31 -0.352679 0 -78.7865
2865.11 -0.277359 0 -79.4961
4018.12 0.830084 0 -59.8632
4043.65 0.794654 0 -58.8678
2874.21 -0.314995 0 -79.1436
3441.27 0.240035 0 -71.2139
4030.89 0.812348 0 -59.3688
3463.14 0.182577 0 -70.3615
3452.2 0.211309 0 -70.7904
2865.11 -0.277359 0 -79.4961
2846.9 -0.202243 0 -80.1872
3992.6 0.865669 0 -60.8328
4018.12 0.830084 0 -59.8632
2856 -0.239774 0 -79.844
3419.41 0.297456 0 -72.044
4005.36 0.847859 0 -60.3512
3441.27 0.240035 0 -71.2139
3430.34 0.268752 0 -71.6317
2846.9 -0.202243 0 -80.1872
2828.7 -0.127354 0 -80.8599
3967.07 0.901379 0 -61.7765
3992.6 0.865669 0 -60.8328
2837.8 -0.164769 0 -80.5258
3397.55 0.354812 0 -72.8521
3979.83 0.88351 0 -61.3078
3419.41 0.297456 0 -72.044
3408.48 0.326143 0 -72.4508
2828.7 -0.127354 0 -80.8599
2810.5 -0.0527128 0 -81.5143
3941.54 0.937184 0 -62.6947
3967.07 0.901379 0 -61.7765
2819.6 -0.0900012 0 -81.1894
3375.69 0.412078 0 -73.6383
3954.31 0.919272 0 -62.2388
3397.55 0.354812 0 -72.8521
3386.62 0.383458 0 -73.248
2810.5 -0.0527128 0 -81.5143
2792.3 0.0216602 0 -82.1506
3916.02 0.973056 0 -63.5874
3941.54 0.937184 0 -62.6947
2801.4 -0.0154915 0 -81.8347
3353.83 0.46923 0 -74.4027
3928.78 0.955113 0 -63.1442
3375.69 0.412078 0 -73.6383
3364.76 0.44067 0 -74.0232
2792.3 0.0216602 0 -82.1506
2774.1 0.0957445 0 -82.7688
3890.49 1.00897 0 -64.4549
3916.02 0.973056 0 -63.5874
2783.2 0.0587397 0 -82.462
3331.97 0.526244 0 -75.1455
3903.26 0.991008 0 -64.0243
3353.83 0.46923 0 -74.4027
3342.9 0.497756 0 -74.7768
2774.1 0.0957445 0 -82.7688
2755.9 0.16952 0 -83.3691
3864.97 1.04489 0 -65.2973
3890.49 1.00897 0 -64.4549
2765 0.132672 0 -83.0712
3310.11 0.583096 0 -75.8667
3877.73 1.02693 0 -64.8792
3331.97 0.526244 0 -75.1455
3321.04 0.554692 0 -75.5088
2755.9 0.16952 0 -83.3691
2737.7 0.242968 0 -83.9517
3839.45 1.08079 0 -66.1148
3864.97 1.04489 0 -65.2973
2746.8 0.206286 0 -83.6626
3288.25 0.639761 0 -76.5666
3852.21 1.06284 0 -65.7091
3310.11 0.583096 0 -75.8667
3299.18 0.611453 0 -76.2193
2737.7 0.242968 0 -83.9517
2719.5 0.316069 0 -84.5165
3813.93 1.11665 0 -66.9075
3839.45 1.08079 0 -66.1148
2728.6 0.279563 0 -84.2363
3266.39 0.696218 0 -77.2452
3826.69 1.09872 0 -66.5142
3288.25 0.639761 0 -76.5666
3277.32 0.668017 0 -76.9086
2719.5 0.316069 0 -84.5165
2701.3 0.388804 0 -85.0638
3788.41 1.15244 0 -67.6756
3813.93 1.11665 0 -66.9075
2710.4 0.352483 0 -84.7923
3244.54 0.752444 0 -77.9028
3801.17 1.13455 0 -67.2946
3266.39 0.696218 0 -77.2452
3255.46 0.724361 0 -77.5767
2701.3 0.388804 0 -85.0638
2683.1 0.461154 0 -85.5936
3762.89 1.18813 0 -68.4192
3788.41 1.15244 0 -67.6756
2692.2 0.425028 0 -85.3309
3222.68 0.808416 0 -78.5395
3775.65 1.1703 0 -68.0504
3244.54 0.752444 0 -77.9028
3233.61 0.780463 0 -78.2238
2683.1 0.461154 0 -85.5936
2664.91 0.533103 0 -86.1061
3737.37 1.2237 0 -69.1386
3762.89 1.18813 0 -68.4192
2674 0.49718 0 -85.852
3200.82 0.864114 0 -79.1553
3750.13 1.20593 0 -68.782
3222.68 0.808416 0 -78.5395
3211.75 0.836301 0 -78.85
2664.91 0.533103 0 -86.1061
2646.71 0.604632 0 -86.6014
3711.85 1.25913 0 -69.834
3737.37 1.2237 0 -69.1386
2655.81 0.568921 0 -86.3559
3178.97 0.919516 0 -79.7505
3724.61 1.24143 0 -69.4893
3200.82 0.864114 0 -79.1553
3189.9 0.891854 0 -79.4555
2646.71 0.604632 0 -86.6014
2628.51 0.675724 0 -87.0797
3686.33 1.29438 0 -70.5053
3711.85 1.25913 0 -69.834
2637.61 0.640233 0 -86.8427
3157.11 0.974602 0 -80.3252
3699.09 1.27678 0 -70.1726
3178.97 0.919516 0 -79.7505
3168.04 0.9471 0 -80.0404
2628.51 0.675724 0 -87.0797
2610.32 0.746362 0 -87.5409
3660.82 1.32945 0 -71.1529
3686.33 1.29438 0 -70.5053
2619.41 0.7111 0 -87.3124
3135.26 1.02935 0 -80.8796
3673.58 1.31194 0 -70.8321
3157.11 0.974602 0 -80.3252
3146.19 1.00202 0 -80.6049
2610.32 0.746362 0 -87.5409
2592.12 0.816529 0 -87.9853
3635.3 1.3643 0 -71.7769
3660.82 1.32945 0 -71.1529
2601.22 0.781505 0 -87.7652
3113.41 1.08374 0 -81.4137
3648.06 1.3469 0 -71.4679
3135.26 1.02935 0 -80.8796
3124.33 1.05659 0 -81.1491
2592.12 0.816529 0 -87.9853
2573.93 0.886211 0 -88.413
3609.79 1.39891 0 -72.3775
3635.3 1.3643 0 -71.7769
2583.02 0.851432 0 -88.2012
3091.56 1.13776 0 -81.9277
3622.55 1.38163 0 -72.0801
3113.41 1.08374 0 -81.4137
3102.48 1.1108 0 -81.6732
2573.93 0.886211 0 -88.413
2555.73 0.95539 0 -88.824
3584.28 1.43325 0 -72.9548
3609.79 1.39891 0 -72.3775
2564.83 0.920864 0 -88.6206
3069.71 1.19138 0 -82.4217
3597.03 1.41611 0 -72.6691
3091.56 1.13776 0 -81.9277
3080.63 1.16462 0 -82.1772
2555.73 0.95539 0 -88.824
2537.54 1.02405 0 -89.2186
3558.77 1.46732 0 -73.509
3584.28 1.43325 0 -72.9548
2546.63 0.989786 0 -89.0234
3047.86 1.24459 0 -82.896
3571.52 1.45032 0 -73.2348
3069.71 1.19138 0 -82.4217
3058.78 1.21804 0 -82.6613
2537.54 1.02405 0 -89.2186
2519.34 1.09218 0 -89.5967
3533.26 1.50108 0 -74.0402
3558.77 1.46732 0 -73.509
2528.44 1.05818 0 -89.4097
3026.01 1.29737 0 -83.3506
3546.01 1.48424 0 -73.7775
3047.86 1.24459 0 -82.896
3036.93 1.27103 0 -83.1258
2519.34 1.09218 0 -89.5967
2501.15 1.15976 0 -89.9587
3507.75 1.53452 0 -74.5487
3533.26 1.50108 0 -74.0402
2510.25 1.12604 0 -89.7797
3004.16 1.3497 0 -83.7857
3520.5 1.51784 0 -74.2973
3026.01 1.29737 0 -83.3506
3015.08 1.32359 0 -83.5706
2501.15 1.15976 0 -89.9587
2482.96 1.22678 0 -90.3044
3482.24 1.56761 0 -75.0346
3507.75 1.53452 0 -74.5487
2492.06 1.19334 0 -90.1336
2982.31 1.40156 0 -84.2015
3495 1.55111 0 -74.7945
3004.16 1.3497 0 -83.7857
2993.24 1.37569 0 -83.996
2482.96 1.22678 0 -90.3044
2464.77 1.29323 0 -90.6342
3456.74 1.60034 0 -75.498
3482.24 1.56761 0 -75.0346
2473.86 1.26008 0 -90.4713
2960.47 1.45294 0 -84.5979
3469.49 1.58402 0 -75.2691
2982.31 1.40156 0 -84.2015
2971.39 1.42731 0 -84.4021
2464.77 1.29323 0 -90.6342
2446.58 1.35908 0 -90.948
3431.23 1.63269 0 -75.9391
3456.74 1.60034 0 -75.498
2455.67 1.32623 0 -90.7931
2938.62 1.50382 0 -84.9753
3443.98 1.61656 0 -75.7213
2960.47 1.45294 0 -84.5979
2949.54 1.47844 0 -84.789
2446.58 1.35908 0 -90.948
2428.39 1.42433 0 -91.2461
3405.73 1.66463 0 -76.3582
3431.23 1.63269 0 -75.9391
2437.48 1.39178 0 -91.099
2916.78 1.55418 0 -85.3338
3418.48 1.64871 0 -76.1514
2938.62 1.50382 0 -84.9753
2927.7 1.52906 0 -85.1569
2428.39 1.42433 0 -91.2461
2410.2 1.48897 0 -91.5284
3380.23 1.69616 0 -76.7553
3405.73 1.66463 0 -76.3582
2419.3 1.45673 0 -91.3892
2894.93 1.60401 0 -85.6734
3392.98 1.68045 0 -76.5594
2916.78 1.55418 0 -85.3338
2905.86 1.57917 0 -85.506
2410.2 1.48897 0 -91.5284
2392.01 1.55298 0 -91.7953
3354.73 1.72725 0 -77.1306
3380.23 1.69616 0 -76.7553
2401.11 1.52105 0 -91.6638
2873.09 1.6533 0 -85.9944
3367.48 1.71176 0 -76.9456
2894.93 1.60401 0 -85.6734
2884.01 1.62873 0 -85.8363
2392.01 1.55298 0 -91.7953
2373.83 1.61635 0 -92.0467
3329.23 1.75788 0 -77.4842
3354.73 1.72725 0 -77.1306
2382.92 1.58474 0 -91.9229
2851.25 1.70203 0 -86.2969
3341.98 1.74262 0 -77.3101
2873.09 1.6533 0 -85.9944
2862.17 1.67774 0 -86.1479
2373.83 1.61635 0 -92.0467
2355.64 1.67906 0 -92.2828
3303.73 1.78805 0 -77.8165
3329.23 1.75788 0 -77.4842
2364.73 1.64779 0 -92.1666
2829.41 1.75018 0 -86.5809
3316.48 1.77302 0 -77.653
2851.25 1.70203 0 -86.2969
2840.33 1.72618 0 -86.4412
2355.64 1.67906 0 -92.2828
2337.45 1.74111 0 -92.5037
3278.23 1.81772 0 -78.1274
3303.73 1.78805 0 -77.8165
2346.55 1.71017 0 -92.3951
2807.57 1.79774 0 -86.8468
3290.98 1.80295 0 -77.9746
2829.41 1.75018 0 -86.5809
2818.49 1.77404 0 -86.7161
2337.45 1.74111 0 -92.5037
2319.27 1.80249 0 -92.7095
3252.74 1.84689 0 -78.4172
3278.23 1.81772 0 -78.1274
2328.36 1.77189 0 -92.6084
2785.73 1.8447 0 -87.0945
3265.48 1.83237 0 -78.275
2807.57 1.79774 0 -86.8468
2796.65 1.8213 0 -86.9729
2319.27 1.80249 0 -92.7095
2301.08 1.86318 0 -92.9003
3227.24 1.87554 0 -78.6861
3252.74 1.84689 0 -78.4172
2310.18 1.83292 0 -92.8068
2763.9 1.89105 0 -87.3243
3239.99 1.86128 0 -78.5543
2785.73 1.8447 0 -87.0945
2774.82 1.86795 0 -87.2116
2301.08 1.86318 0 -92.9003
2282.9 1.92317 0 -93.0763
3201.75 1.90366 0 -78.9342
3227.24 1.87554 0 -78.6861
2291.99 1.89326 0 -92.9902
2742.06 1.93676 0 -87.5363
3214.5 1.88967 0 -78.8128
2763.9 1.89105 0 -87.3243
2752.98 1.91399 0 -87.4325
2282.9 1.92317 0 -93.0763
2264.72 1.98246 0 -93.2376
3176.26 1.93123 0 -79.1617
3201.75 1.90366 0 -78.9342
2273.81 1.9529 0 -93.1588
2720.23 1.98184 0 -87.7305
3189 1.91752 0 -79.0505
2742.06 1.93676 0 -87.5363
2731.14 1.95938 0 -87.6356
2264.72 1.98246 0 -93.2376
2246.54 2.04103 0 -93.3843
3150.77 1.95824 0 -79.3687
3176.26 1.93123 0 -79.1617
2255.63 2.01183 0 -93.3128
2698.39 2.02626 0 -87.9073
3163.51 1.94481 0 -79.2677
2720.23 1.98184 0 -87.7305
2709.31 2.00413 0 -87.8211
2246.54 2.04103 0 -93.3843
2228.36 2.09887 0 -93.5165
3125.28 1.98468 0 -79.5554
3150.77 1.95824 0 -79.3687
2237.45 2.07004 0 -93.4522
2676.56 2.07002 0 -88.0667
3138.03 1.97153 0 -79.4646
2698.39 2.02626 0 -87.9073
2687.48 2.04822 0 -87.9892
2228.36 2.09887 0 -93.5165
2210.18 2.15597 0 -93.6343
3099.79 2.01052 0 -79.722
3125.28 1.98468 0 -79.5554
2219.27 2.12751 0 -93.5772
2654.73 2.1131 0 -88.2088
3112.54 1.99767 0 -79.6412
2676.56 2.07002 0 -88.0667
2665.65 2.09164 0 -88.1399
2210.18 2.15597 0 -93.6343
2192 2.21233 0 -93.7379
3074.31 2.03576 0 -79.8686
3099.79 2.01052 0 -79.722
2201.09 2.18424 0 -93.6879
2632.9 2.15549 0 -88.3338
3087.05 2.02322 0 -79.7978
2654.73 2.1131 0 -88.2088
2643.82 2.13438 0 -88.2734
2192 2.21233 0 -93.7379
2173.82 2.26793 0 -93.8273
3048.83 2.06039 0 -79.9954
3074.31 2.03576 0 -79.8686
2182.91 2.24023 0 -93.7844
2611.07 2.19719 0 -88.4419
3061.57 2.04815 0 -79.9345
2632.9 2.15549 0 -88.3338
2621.99 2.17643 0 -88.39
2173.82 2.26793 0 -93.8273
2155.64 2.32277 0 -93.9027
3023.34 2.08439 0 -80.1026
3048.83 2.06039 0 -79.9954
2164.73 2.29545 0 -93.8668
2589.24 2.23818 0 -88.5331
3036.09 2.07247 0 -80.0515
2611.07 2.19719 0 -88.4419
2600.16 2.21778 0 -88.4896
2155.64 2.32277 0 -93.9027
2137.47 2.37685 0 -93.9643
2997.86 2.10776 0 -80.1904
3023.34 2.08439 0 -80.1026
2146.55 2.34991 0 -93.9352
2567.42 2.27845 0 -88.6077
3010.6 2.09616 0 -80.1489
2589.24 2.23818 0 -88.5331
2578.33 2.25841 0 -88.5725
2137.47 2.37685 0 -93.9643
2119.29 2.43014 0 -94.012
2972.39 2.13047 0 -80.2588
2997.86 2.10776 0 -80.1904
2128.38 2.40359 0 -93.9899
2545.59 2.318 0 -88.6657
2985.12 2.1192 0 -80.227
2567.42 2.27845 0 -88.6077
2556.51 2.29832 0 -88.6387
2119.29 2.43014 0 -94.012
2101.12 2.48264 0 -94.0461
2946.91 2.15253 0 -80.3081
2972.39 2.13047 0 -80.2588
2110.2 2.45649 0 -94.0308
2523.77 2.35681 0 -88.7073
2959.65 2.14159 0 -80.2858
2545.59 2.318 0 -88.6657
2534.68 2.3375 0 -88.6885
2101.12 2.48264 0 -94.0461
2082.94 2.53435 0 -94.0666
2921.43 2.17392 0 -80.3384
2946.91 2.15253 0 -80.3081
2092.03 2.5086 0 -94.0581
2501.95 2.39487 0 -88.7327
2934.17 2.16331 0 -80.3256
2523.77 2.35681 0 -88.7073
2512.86 2.37594 0 -88.722
2082.94 2.53435 0 -94.0666
2064.77 2.58526 0 -94.0738
2895.96 2.19463 0 -80.3499
2921.43 2.17392 0 -80.3384
2073.86 2.55991 0 -94.0719
2480.12 2.43219 0 -88.7419
2908.7 2.18436 0 -80.3465
2501.95 2.39487 0 -88.7327
2491.04 2.41363 0 -88.7393
2064.77 2.58526 0 -94.0738
2046.6 2.63537 0 -94.0676
2870.49 2.21465 0 -80.3428
2895.96 2.19463 0 -80.3499
2055.68 2.61042 0 -94.0723
2458.3 2.46874 0 -88.7352
2883.22 2.20473 0 -80.3487
2480.12 2.43219 0 -88.7419
2469.21 2.45056 0 -88.7405
2046.6 2.63537 0 -94.0676
2028.43 2.68466 0 -94.0482
2845.01 2.23398 0 -80.3172
2870.49 2.21465 0 -80.3428
2037.51 2.66012 0 -94.0595
2436.49 2.50452 0 -88.7126
2857.75 2.2244 0 -80.3323
2458.3 2.46874 0 -88.7352
2447.4 2.48673 0 -88.7259
2028.43 2.68466 0 -94.0482
2010.26 2.73313 0 -94.0158
2819.55 2.2526 0 -80.2733
2845.01 2.23398 0 -80.3172
2019.34 2.709 0 -94.0336
2414.67 2.53953 0 -88.6744
2832.28 2.24338 0 -80.2975
2436.49 2.50452 0 -88.7126
2425.58 2.52212 0 -88.6954
2010.26 2.73313 0 -94.0158
1992.09 2.78077 0 -93.9704
2794.08 2.2705 0 -80.2113
2819.55 2.2526 0 -80.2733
2001.17 2.75705 0 -93.9947
2392.85 2.57375 0 -88.6206
2806.81 2.26164 0 -80.2446
2414.67 2.53953 0 -88.6744
2403.76 2.55674 0 -88.6494
1992.09 2.78077 0 -93.9704
1973.92 2.82758 0 -93.9121
2768.61 2.28768 0 -80.1312
2794.08 2.2705 0 -80.2113
1983.01 2.80428 0 -93.9428
2371.04 2.60719 0 -88.5514
2781.34 2.27918 0 -80.1735
2392.85 2.57375 0 -88.6206
2381.94 2.59057 0 -88.5879
1973.92 2.82758 0 -93.9121
1955.75 2.87356 0 -93.8412
2743.15 2.30414 0 -80.0334
2768.61 2.28768 0 -80.1312
1964.84 2.85068 0 -93.8782
2349.22 2.63982 0 -88.4669
2755.88 2.296 0 -80.0845
2371.04 2.60719 0 -88.5514
2360.13 2.6236 0 -88.5111
1955.75 2.87356 0 -93.8412
1937.59 2.91869 0 -93.7576
2717.68 2.31986 0 -79.9179
2743.15 2.30414 0 -80.0334
1946.67 2.89623 0 -93.801
2327.41 2.67166 0 -88.3673
2730.42 2.31209 0 -79.9779
2349.22 2.63982 0 -88.4669
2338.32 2.65584 0 -88.419
1937.59 2.91869 0 -93.7576
1919.42 2.96298 0 -93.6616
2692.22 2.33483 0 -79.785
2717.68 2.31986 0 -79.9179
1928.51 2.94095 0 -93.7112
2305.6 2.70269 0 -88.2528
2704.95 2.32744 0 -79.8536
2327.41 2.67166 0 -88.3673
2316.5 2.68727 0 -88.3119
1919.42 2.96298 0 -93.6616
1901.26 3.00642 0 -93.5532
2666.76 2.34906 0 -79.6347
2692.22 2.33483 0 -79.785
1910.34 2.98481 0 -93.6089
2283.79 2.7329 0 -88.1234
2679.49 2.34204 0 -79.712
2305.6 2.70269 0 -88.2528
2294.69 2.7179 0 -88.1899
1901.26 3.00642 0 -93.5532
1883.1 3.049 0 -93.4326
2641.31 2.36253 0 -79.4672
2666.76 2.34906 0 -79.6347
1892.18 3.02782 0 -93.4944
2261.98 2.7623 0 -87.9792
2654.03 2.35589 0 -79.5531
2283.79 2.7329 0 -88.1234
2272.88 2.7477 0 -88.0531
1883.1 3.049 0 -93.4326
1864.93 3.09073 0 -93.2998
2615.85 2.37524 0 -79.2828
2641.31 2.36253 0 -79.4672
1874.02 3.06997 0 -93.3677
2240.17 2.79087 0 -87.8206
2628.58 2.36898 0 -79.3771
2261.98 2.7623 0 -87.9792
2251.08 2.77669 0 -87.9017
1864.93 3.09073 0 -93.2998
1846.77 3.13159 0 -93.155
2590.4 2.38718 0 -79.0815
2615.85 2.37524 0 -79.2828
1855.85 3.11126 0 -93.2289
2218.37 2.81862 0 -87.6475
2603.12 2.38131 0 -79.1843
2240.17 2.79087 0 -87.8206
2229.27 2.80485 0 -87.7358
1846.77 3.13159 0 -93.155
1828.61 3.17158 0 -92.9984
2564.94 2.39836 0 -78.8636
2590.4 2.38718 0 -79.0815
1837.69 3.15169 0 -93.0782
2196.56 2.84553 0 -87.4601
2577.67 2.39287 0 -78.9747
2218.37 2.81862 0 -87.6475
2207.46 2.83218 0 -87.5556
1828.61 3.17158 0 -92.9984
1810.45 3.21071 0 -92.8299
2539.49 2.40876 0 -78.6292
2564.94 2.39836 0 -78.8636
1819.53 3.19125 0 -92.9156
2174.76 2.87161 0 -87.2587
2552.22 2.40366 0 -78.7485
2196.56 2.84553 0 -87.4601
2185.66 2.85868 0 -87.3612
1810.45 3.21071 0 -92.8299
1792.3 3.24896 0 -92.6498
2514.04 2.41838 0 -78.3785
2539.49 2.40876 0 -78.6292
1801.38 3.22994 0 -92.7413
2152.96 2.89685 0 -87.0432
2526.77 2.41367 0 -78.5059
2174.76 2.87161 0 -87.2587
2163.86 2.88434 0 -87.1527
1792.3 3.24896 0 -92.6498
1774.14 3.28634 0 -92.4582
2488.59 2.42722 0 -78.1116
2514.04 2.41838 0 -78.3785
1783.22 3.26776 0 -92.5554
2131.16 2.92125 0 -86.8138
2501.32 2.4229 0 -78.2471
2152.96 2.89685 0 -87.0432
2142.06 2.90916 0 -86.9302
1774.14 3.28634 0 -92.4582
1755.98 3.32284 0 -92.2551
2463.15 2.43527 0 -77.8287
2488.59 2.42722 0 -78.1116
1765.06 3.3047 0 -92.3581
2109.36 2.94481 0 -86.5708
2475.87 2.43134 0 -77.9721
2131.16 2.92125 0 -86.8138
2120.26 2.93314 0 -86.694
1755.98 3.32284 0 -92.2551
1737.83 3.35846 0 -92.0408
2437.7 2.44253 0 -77.53
2463.15 2.43527 0 -77.8287
1746.91 3.34076 0 -92.1493
2087.56 2.96752 0 -86.3142
2450.43 2.439 0 -77.6813
2109.36 2.94481 0 -86.5708
2098.46 2.95627 0 -86.4442
1737.83 3.35846 0 -92.0408
1719.67 3.3932 0 -91.8152
2412.26 2.449 0 -77.2156
2437.7 2.44253 0 -77.53
1728.75 3.37594 0 -91.9294
2065.76 2.98937 0 -86.0442
2424.98 2.44587 0 -77.3747
2087.56 2.96752 0 -86.3142
2076.66 2.97855 0 -86.1808
1719.67 3.3932 0 -91.8152
1701.52 3.42706 0 -91.5786
2386.82 2.45468 0 -76.8857
2412.26 2.449 0 -77.2156
1710.6 3.41024 0 -91.6983
2043.97 3.01038 0 -85.7608
2399.54 2.45194 0 -77.0525
2065.76 2.98937 0 -86.0442
2054.86 2.99998 0 -85.9042
1701.52 3.42706 0 -91.5786
1683.37 3.46003 0 -91.331
2361.38 2.45956 0 -76.5404
2386.82 2.45468 0 -76.8857
1692.45 3.44365 0 -91.4562
2022.17 3.03053 0 -85.4644
2374.1 2.45722 0 -76.7149
2043.97 3.01038 0 -85.7608
2033.07 3.02056 0 -85.6142
1683.37 3.46003 0 -91.331
1665.22 3.49212 0 -91.0726
2335.94 2.46364 0 -76.18
2361.38 2.45956 0 -76.5404
1674.29 3.47618 0 -91.2032
2000.38 3.04983 0 -85.1549
2348.66 2.4617 0 -76.3621
2022.17 3.03053 0 -85.4644
2011.28 3.04029 0 -85.3113
1665.22 3.49212 0 -91.0726
1647.07 3.52332 0 -90.8035
2310.51 2.46692 0 -75.8046
2335.94 2.46364 0 -76.18
1656.14 3.50783 0 -90.9394
1978.59 3.06827 0 -84.8326
2323.22 2.46538 0 -75.9941
2000.38 3.04983 0 -85.1549
1989.48 3.05915 0 -84.9953
1647.07 3.52332 0 -90.8035
1628.92 3.55363 0 -90.5238
2285.07 2.46941 0 -75.4143
2310.51 2.46692 0 -75.8046
1637.99 3.53859 0 -90.665
1956.8 3.08585 0 -84.4975
2297.79 2.46827 0 -75.6113
1978.59 3.06827 0 -84.8326
1967.69 3.07717 0 -84.6666
1628.92 3.55363 0 -90.5238
1610.77 3.58306 0 -90.2336
2259.64 2.47109 0 -75.0093
2285.07 2.46941 0 -75.4143
1619.85 3.56845 0 -90.38
1935.01 3.10258 0 -84.1499
2272.36 2.47035 0 -75.2136
1956.8 3.08585 0 -84.4975
1945.9 3.09432 0 -84.3253
1610.77 3.58306 0 -90.2336
1592.62 3.61159 0 -89.9331
2234.21 2.47197 0 -74.5898
2259.64 2.47109 0 -75.0093
1601.7 3.59744 0 -90.0846
1913.22 3.11845 0 -83.7898
2246.92 2.47163 0 -74.8014
1935.01 3.10258 0 -84.1499
1924.12 3.11062 0 -83.9714
1592.62 3.61159 0 -89.9331
1574.48 3.63924 0 -89.6223
2208.78 2.47205 0 -74.156
2234.21 2.47197 0 -74.5898
1583.55 3.62553 0 -89.7789
1891.44 3.13346 0 -83.4174
2221.49 2.47211 0 -74.3747
1913.22 3.11845 0 -83.7898
1902.33 3.12606 0 -83.6052
1574.48 3.63924 0 -89.6223
1556.33 3.666 0 -89.3014
2183.35 2.47133 0 -73.708
2208.78 2.47205 0 -74.156
1565.41 3.65273 0 -89.4631
1869.65 3.14761 0 -83.0329
2196.07 2.47179 0 -73.9338
1891.44 3.13346 0 -83.4174
1880.54 3.14064 0 -83.2267
1556.33 3.666 0 -89.3014
1538.19 3.69188 0 -88.9704
2157.93 2.4698 0 -73.246
2183.35 2.47133 0 -73.708
1547.26 3.67905 0 -89.1371
1847.87 3.1609 0 -82.6364
2170.64 2.47067 0 -73.4787
1869.65 3.14761 0 -83.0329
1858.76 3.15436 0 -82.8361
1538.19 3.69188 0 -88.9704
1520.05 3.71686 0 -88.6296
2132.5 2.46748 0 -72.7701
2157.93 2.4698 0 -73.246
1529.12 3.70448 0 -88.8012
1826.09 3.17334 0 -82.2279
2145.21 2.46874 0 -73.0097
1847.87 3.1609 0 -82.6364
1836.98 3.16723 0 -82.4336
1520.05 3.71686 0 -88.6296
1501.9 3.74096 0 -88.279
2107.08 2.46436 0 -72.2805
2132.5 2.46748 0 -72.7701
1510.98 3.72902 0 -88.4555
1804.3 3.18492 0 -81.8078
2119.79 2.46602 0 -72.527
1826.09 3.17334 0 -82.2279
1815.19 3.17924 0 -82.0193
1501.9 3.74096 0 -88.279
1483.76 3.76417 0 -87.9187
2081.66 2.46044 0 -71.7773
2107.08 2.46436 0 -72.2805
1492.83 3.75268 0 -88.1001
1782.53 3.19565 0 -81.376
2094.37 2.4625 0 -72.0306
1804.3 3.18492 0 -81.8078
1793.41 3.19039 0 -81.5934
1483.76 3.76417 0 -87.9187
1465.62 3.7865 0 -87.5489
2056.24 2.45572 0 -71.2608
2081.66 2.46044 0 -71.7773
1474.69 3.77545 0 -87.735
1760.75 3.20553 0 -80.9328
2068.95 2.45818 0 -71.5207
1782.53 3.19565 0 -81.376
1771.64 3.20069 0 -81.1559
1465.62 3.7865 0 -87.5489
1447.48 3.80795 0 -87.1697
2030.82 2.45021 0 -70.7312
2056.24 2.45572 0 -71.2608
1456.55 3.79734 0 -87.3605
1738.97 3.21455 0 -80.4783
2043.53 2.45307 0 -70.9976
1760.75 3.20553 0 -80.9328
1749.86 3.21014 0 -80.707
1447.48 3.80795 0 -87.1697
1429.35 3.82852 0 -86.7812
2005.41 2.44391 0 -70.1884
2030.82 2.45021 0 -70.7312
1438.42 3.81834 0 -86.9766
1717.19 3.22272 0 -80.0126
2018.11 2.44716 0 -70.4614
1738.97 3.21455 0 -80.4783
1728.08 3.21874 0 -80.2469
1429.35 3.82852 0 -86.7812
1411.21 3.8482 0 -86.3835
1979.99 2.43682 0 -69.6328
2005.41 2.44391 0 -70.1884
1420.28 3.83847 0 -86.5835
1695.42 3.23005 0 -79.5359
1992.7 2.44047 0 -69.9122
1717.19 3.22272 0 -80.0126
1706.31 3.22649 0 -79.7757
1411.21 3.8482 0 -86.3835
1393.07 3.86701 0 -85.9767
1954.58 2.42895 0 -69.0645
1979.99 2.43682 0 -69.6328
1402.14 3.85772 0 -86.1812
1673.65 3.23653 0 -79.0483
1967.29 2.43298 0 -69.3502
1695.42 3.23005 0 -79.5359
1684.53 3.2334 0 -79.2935
1393.07 3.86701 0 -85.9767
1374.94 3.88495 0 -85.561
1929.17 2.42029 0 -68.4837
1954.58 2.42895 0 -69.0645
1384.01 3.87609 0 -85.7699
1651.88 3.24217 0 -78.55
1941.87 2.42472 0 -68.7756
1673.65 3.23653 0 -79.0483
1662.76 3.23946 0 -78.8005
1374.94 3.88495 0 -85.561
1356.8 3.90201 0 -85.1364
1903.76 2.41085 0 -67.8904
1929.17 2.42029 0 -68.4837
1365.87 3.89359 0 -85.3498
1630.11 3.24697 0 -78.041
1916.46 2.41567 0 -68.1886
1651.88 3.24217 0 -78.55
1640.99 3.24467 0 -78.2968
1356.8 3.90201 0 -85.1364
1338.67 3.9182 0 -84.7031
1878.35 2.40064 0 -67.285
1903.76 2.41085 0 -67.8904
1347.74 3.91021 0 -84.9208
1608.34 3.25093 0 -77.5216
1891.06 2.40584 0 -67.5892
1630.11 3.24697 0 -78.041
1619.22 3.24906 0 -77.7826
1338.67 3.9182 0 -84.7031
1320.54 3.93353 0 -84.2612
1852.95 2.38965 0 -66.6675
1878.35 2.40064 0 -67.285
1329.6 3.92597 0 -84.4832
1586.57 3.25407 0 -76.9918
1865.65 2.39524 0 -66.9777
1608.34 3.25093 0 -77.5216
1597.45 3.2526 0 -77.258
1320.54 3.93353 0 -84.2612
1302.41 3.94799 0 -83.8108
1827.54 2.3779 0 -66.0381
1852.95 2.38965 0 -66.6675
1311.47 3.94087 0 -84.0371
1564.8 3.25637 0 -76.4519
1840.24 2.38387 0 -66.3543
1586.57 3.25407 0 -76.9918
1575.69 3.25532 0 -76.7231
1302.41 3.94799 0 -83.8108
1284.28 3.96159 0 -83.3521
1802.14 2.36538 0 -65.397
1827.54 2.3779 0 -66.0381
1293.34 3.95489 0 -83.5825
1543.04 3.25784 0 -75.9019
1814.84 2.37173 0 -65.719
1564.8 3.25637 0 -76.4519
1553.92 3.25721 0 -76.1782
1284.28 3.96159 0 -83.3521
1266.15 3.97433 0 -82.8851
1776.74 2.3521 0 -64.7443
1802.14 2.36538 0 -65.397
1275.21 3.96806 0 -83.1196
1521.27 3.2585 0 -75.342
1789.44 2.35883 0 -65.0721
1543.04 3.25784 0 -75.9019
1532.16 3.25827 0 -75.6232
1266.15 3.97433 0 -82.8851
1248.02 3.98622 0 -82.41
1751.34 2.33807 0 -64.0802
1776.74 2.3521 0 -64.7443
1257.08 3.98038 0 -82.6485
1499.51 3.25834 0 -74.7724
1764.04 2.34518 0 -64.4137
1521.27 3.2585 0 -75.342
1510.39 3.25852 0 -75.0584
1248.02 3.98622 0 -82.41
1229.89 3.99725 0 -81.9268
1725.94 2.32329 0 -63.4049
1751.34 2.33807 0 -64.0802
1238.96 3.99184 0 -82.1694
1477.75 3.25736 0 -74.1931
1738.64 2.33077 0 -63.744
1499.51 3.25834 0 -74.7724
1488.63 3.25795 0 -74.4839
1229.89 3.99725 0 -81.9268
1211.77 4.00744 0 -81.4358
1700.55 2.30777 0 -62.7186
1725.94 2.32329 0 -63.4049
1220.83 4.00245 0 -81.6823
1455.99 3.25558 0 -73.6044
1713.24 2.31562 0 -63.0631
1477.75 3.25736 0 -74.1931
1466.87 3.25657 0 -73.8999
1211.77 4.00744 0 -81.4358
1193.64 4.01679 0 -80.9369
1675.15 2.29151 0 -62.0213
1700.55 2.30777 0 -62.7186
1202.7 4.01222 0 -81.1873
1434.23 3.25299 0 -73.0063
1687.85 2.29973 0 -62.3713
1455.99 3.25558 0 -73.6044
1445.11 3.25438 0 -73.3065
1193.64 4.01679 0 -80.9369
1175.52 4.0253 0 -80.4305
1649.76 2.27451 0 -61.3133
1675.15 2.29151 0 -62.0213
1184.58 4.02115 0 -80.6846
1412.47 3.24961 0 -72.399
1662.45 2.2831 0 -61.6686
1434.23 3.25299 0 -73.0063
1423.35 3.2514 0 -72.7038
1175.52 4.0253 0 -80.4305
1157.39 4.03297 0 -79.9164
1624.37 2.25679 0 -60.5947
1649.76 2.27451 0 -61.3133
1166.45 4.02924 0 -80.1744
1390.72 3.24543 0 -71.7826
1637.06 2.26574 0 -60.9553
1412.47 3.24961 0 -72.399
1401.59 3.24762 0 -72.0919
1157.39 4.03297 0 -79.9164
1139.27 4.03982 0 -79.395
1598.98 2.23836 0 -59.8657
1624.37 2.25679 0 -60.5947
1148.33 4.0365 0 -79.6566
1368.96 3.24046 0 -71.1573
1611.67 2.24766 0 -60.2315
1390.72 3.24543 0 -71.7826
1379.84 3.24304 0 -71.4711
1139.27 4.03982 0 -79.395
1121.15 4.04584 0 -78.8662
1573.59 2.2192 0 -59.1264
1598.98 2.23836 0 -59.8657
1130.21 4.04293 0 -79.1315
1347.21 3.23471 0 -70.5233
1586.28 2.22887 0 -59.4973
1368.96 3.24046 0 -71.1573
1358.08 3.23769 0 -70.8414
1121.15 4.04584 0 -78.8662
1103.03 4.05104 0 -78.3302
1548.2 2.19935 0 -58.3771
1573.59 2.2192 0 -59.1264
1112.09 4.04854 0 -78.5991
1325.46 3.22819 0 -69.8805
1560.9 2.20936 0 -58.753
1347.21 3.23471 0 -70.5233
1336.33 3.23155 0 -70.203
1103.03 4.05104 0 -78.3302
1084.91 4.05543 0 -77.7871
1522.82 2.17879 0 -57.6179
1548.2 2.19935 0 -58.3771
1093.97 4.05334 0 -78.0596
1303.7 3.2209 0 -69.2293
1535.51 2.18916 0 -57.9987
1325.46 3.22819 0 -69.8805
1314.58 3.22464 0 -69.556
1084.91 4.05543 0 -77.7871
1066.79 4.059 0 -77.2371
1497.43 2.15754 0 -56.8489
1522.82 2.17879 0 -57.6179
1075.85 4.05732 0 -77.513
1281.95 3.21284 0 -68.5698
1510.13 2.16825 0 -57.2346
1303.7 3.2209 0 -69.2293
1292.83 3.21696 0 -68.9006
1066.79 4.059 0 -77.2371
1048.67 4.06177 0 -76.6803
1472.05 2.13561 0 -56.0703
1497.43 2.15754 0 -56.8489
1057.73 4.06049 0 -76.9595
1260.2 3.20402 0 -67.902
1484.74 2.14666 0 -56.4607
1281.95 3.21284 0 -68.5698
1271.08 3.20852 0 -68.2369
1048.67 4.06177 0 -76.6803
1030.55 4.06375 0 -76.1167
1446.67 2.113 0 -55.2822
1472.05 2.13561 0 -56.0703
1039.61 4.06286 0 -76.3993
1238.46 3.19446 0 -67.2261
1459.36 2.12439 0 -55.6774
1260.2 3.20402 0 -67.902
1249.33 3.19933 0 -67.5651
1030.55 4.06375 0 -76.1167
1012.44 4.06492 0 -75.5465
1421.29 2.08972 0 -54.4849
1446.67 2.113 0 -55.2822
1021.5 4.06443 0 -75.8324
1216.71 3.18414 0 -66.5423
1433.98 2.10144 0 -54.8847
1238.46 3.19446 0 -67.2261
1227.58 3.18939 0 -66.8852
1012.44 4.06492 0 -75.5465
994.321 4.06531 0 -74.9698
1395.91 2.06578 0 -53.6785
1421.29 2.08972 0 -54.4849
1003.38 4.06522 0 -75.2589
1194.96 3.17309 0 -65.8507
1408.6 2.07783 0 -54.0829
1216.71 3.18414 0 -66.5423
1205.84 3.17871 0 -66.1975
994.321 4.06531 0 -74.9698
976.207 4.06492 0 -74.3867
1370.54 2.04119 0 -52.8632
1395.91 2.06578 0 -53.6785
985.264 4.06522 0 -74.679
1173.22 3.16132 0 -65.1515
1383.23 2.05357 0 -53.272
1194.96 3.17309 0 -65.8507
1184.09 3.1673 0 -65.5021
976.207 4.06492 0 -74.3867
958.093 4.06376 0 -73.7974
1345.16 2.01595 0 -52.0391
1370.54 2.04119 0 -52.8632
967.15 4.06444 0 -74.0928
1151.48 3.14881 0 -64.4447
1357.85 2.02865 0 -52.4522
1173.22 3.16132 0 -65.1515
1162.35 3.15515 0 -64.799
958.093 4.06376 0 -73.7974
939.98 4.06182 0 -73.2019
1319.79 1.99008 0 -51.2064
1345.16 2.01595 0 -52.0391
949.037 4.06288 0 -73.5004
1129.73 3.13559 0 -63.7306
1332.48 2.0031 0 -51.6238
1151.48 3.14881 0 -64.4447
1140.61 3.14229 0 -64.0886
939.98 4.06182 0 -73.2019
921.868 4.05912 0 -72.6004
1294.42 1.96358 0 -50.3652
1319.79 1.99008 0 -51.2064
930.924 4.06056 0 -72.9019
1107.99 3.12167 0 -63.0092
1307.11 1.97691 0 -50.7868
1129.73 3.13559 0 -63.7306
1118.86 3.12872 0 -63.3708
921.868 4.05912 0 -72.6004
903.757 4.05566 0 -71.993
1269.05 1.93646 0 -49.5157
1294.42 1.96358 0 -50.3652
912.812 4.05748 0 -72.2974
1086.25 3.10704 0 -62.2807
1281.73 1.9501 0 -49.9415
1107.99 3.12167 0 -63.0092
1097.12 3.11444 0 -62.6458
903.757 4.05566 0 -71.993
885.646 4.05145 0 -71.3798
1243.68 1.90874 0 -48.6581
1269.05 1.93646 0 -49.5157
894.702 4.05365 0 -71.6871
1064.52 3.09172 0 -61.5452
1256.37 1.92268 0 -49.0879
1086.25 3.10704 0 -62.2807
1075.38 3.09946 0 -61.9138
885.646 4.05145 0 -71.3798
867.537 4.0465 0 -70.7609
1218.31 1.88041 0 -47.7926
1243.68 1.90874 0 -48.6581
876.591 4.04907 0 -71.071
1042.78 3.07571 0 -60.803
1231 1.89465 0 -48.2264
1064.52 3.09172 0 -61.5452
1053.65 3.0838 0 -61.175
867.537 4.0465 0 -70.7609
849.428 4.04081 0 -70.1364
1192.95 1.85149 0 -46.9193
1218.31 1.88041 0 -47.7926
858.482 4.04375 0 -70.4493
1021.04 3.05903 0 -60.054
1205.63 1.86603 0 -47.3569
1042.78 3.07571 0 -60.803
1031.91 3.06746 0 -60.4293
849.428 4.04081 0 -70.1364
831.32 4.03439 0 -69.5065
1167.58 1.822 0 -46.0383
1192.95 1.85149 0 -46.9193
840.374 4.03769 0 -69.8222
999.306 3.04168 0 -59.2986
1180.27 1.83682 0 -46.4797
1021.04 3.05903 0 -60.054
1010.17 3.05044 0 -59.6771
831.32 4.03439 0 -69.5065
813.213 4.02725 0 -68.8713
1142.22 1.79193 0 -45.1499
1167.58 1.822 0 -46.0383
822.266 4.03091 0 -69.1896
977.571 3.02367 0 -58.5367
1154.9 1.80703 0 -45.595
999.306 3.04168 0 -59.2986
988.438 3.03276 0 -58.9184
813.213 4.02725 0 -68.8713
795.106 4.01939 0 -68.2309
1116.86 1.7613 0 -44.2542
1142.22 1.79193 0 -45.1499
804.159 4.02341 0 -68.5517
955.838 3.00501 0 -57.7686
1129.54 1.77669 0 -44.7029
977.571 3.02367 0 -58.5367
966.705 3.01442 0 -58.1534
795.106 4.01939 0 -68.2309
777.001 4.01082 0 -67.5854
1091.5 1.73012 0 -43.3513
1116.86 1.7613 0 -44.2542
786.053 4.0152 0 -67.9088
934.106 2.9857 0 -56.9943
1104.18 1.74578 0 -43.8036
955.838 3.00501 0 -57.7686
944.972 2.99543 0 -57.3822
777.001 4.01082 0 -67.5854
758.896 4.00156 0 -66.9349
1066.14 1.69841 0 -42.4414
1091.5 1.73012 0 -43.3513
767.948 4.00628 0 -67.2607
912.375 2.96576 0 -56.2141
1078.82 1.71433 0 -42.8972
934.106 2.9857 0 -56.9943
923.24 2.97581 0 -56.605
758.896 4.00156 0 -66.9349
740.792 3.99159 0 -66.2795
1040.78 1.66616 0 -41.5248
1066.14 1.69841 0 -42.4414
749.844 3.99666 0 -66.6078
890.645 2.9452 0 -55.428
1053.46 1.68235 0 -41.984
912.375 2.96576 0 -56.2141
901.51 2.95556 0 -55.8218
740.792 3.99159 0 -66.2795
722.688 3.98094 0 -65.6194
1015.43 1.63339 0 -40.6015
1040.78 1.66616 0 -41.5248
731.74 3.98635 0 -65.95
868.916 2.92402 0 -54.6363
1028.1 1.64984 0 -41.064
890.645 2.9452 0 -55.428
879.78 2.93468 0 -55.0329
722.688 3.98094 0 -65.6194
704.586 3.96962 0 -64.9547
990.071 1.60011 0 -39.6717
1015.43 1.63339 0 -40.6015
713.637 3.97536 0 -65.2876
847.187 2.90223 0 -53.839
1002.75 1.61681 0 -40.1374
868.916 2.92402 0 -54.6363
858.051 2.9132 0 -54.2383
704.586 3.96962 0 -64.9547
686.484 3.95762 0 -64.2854
964.718 1.56634 0 -38.7355
990.071 1.60011 0 -39.6717
695.535 3.9637 0 -64.6206
825.46 2.87985 0 -53.0362
977.394 1.58329 0 -39.2044
847.187 2.90223 0 -53.839
836.324 2.89111 0 -53.4383
686.484 3.95762 0 -64.2854
668.383 3.94496 0 -63.6118
939.366 1.53208 0 -37.7933
964.718 1.56634 0 -38.7355
677.433 3.95137 0 -63.9491
803.734 2.85688 0 -52.2282
952.042 1.54927 0 -38.2652
825.46 2.87985 0 -53.0362
814.597 2.86843 0 -52.6329
668.383 3.94496 0 -63.6118
650.282 3.93164 0 -62.9339
914.015 1.49734 0 -36.845
939.366 1.53208 0 -37.7933
659.332 3.93838 0 -63.2734
782.009 2.83333 0 -51.4151
926.69 1.51477 0 -37.3199
803.734 2.85688 0 -52.2282
792.872 2.84517 0 -51.8223
650.282 3.93164 0 -62.9339
632.183 3.91767 0 -62.2518
888.665 1.46215 0 -35.8909
914.015 1.49734 0 -36.845
641.232 3.92474 0 -62.5933
760.285 2.80921 0 -50.5969
901.339 1.4798 0 -36.3686
782.009 2.83333 0 -51.4151
771.147 2.82134 0 -51.0066
632.183 3.91767 0 -62.2518
614.083 3.90307 0 -61.5657
863.316 1.42649 0 -34.9311
888.665 1.46215 0 -35.8909
623.133 3.91045 0 -61.9092
738.562 2.78453 0 -49.7739
875.99 1.44437 0 -35.4117
760.285 2.80921 0 -50.5969
749.423 2.79694 0 -50.186
614.083 3.90307 0 -61.5657
595.985 3.88784 0 -60.8756
837.969 1.3904 0 -33.9658
863.316 1.42649 0 -34.9311
605.034 3.89553 0 -61.2211
716.84 2.7593 0 -48.9462
850.643 1.4085 0 -34.4491
738.562 2.78453 0 -49.7739
727.701 2.77198 0 -49.3607
595.985 3.88784 0 -60.8756
577.887 3.87198 0 -60.1818
812.623 1.35388 0 -32.9951
837.969 1.3904 0 -33.9658
586.936 3.87998 0 -60.5292
695.118 2.73353 0 -48.1139
825.296 1.37219 0 -33.4811
716.84 2.7593 0 -48.9462
705.979 2.74648 0 -48.5306
577.887 3.87198 0 -60.1818
559.79 3.8555 0 -59.4842
787.278 1.31694 0 -32.0193
812.623 1.35388 0 -32.9951
568.839 3.86382 0 -59.8335
673.398 2.70724 0 -47.2772
799.95 1.33546 0 -32.5078
695.118 2.73353 0 -48.1139
684.258 2.72045 0 -47.6961
559.79 3.8555 0 -59.4842
541.694 3.83842 0 -58.7831
761.935 1.27959 0 -31.0384
787.278 1.31694 0 -32.0193
550.742 3.84704 0 -59.1341
651.678 2.68042 0 -46.4362
774.606 1.29831 0 -31.5295
673.398 2.70724 0 -47.2772
662.538 2.69389 0 -46.8572
541.694 3.83842 0 -58.7831
523.598 3.82074 0 -58.0785
736.592 1.24185 0 -30.0527
761.935 1.27959 0 -31.0384
532.646 3.82966 0 -58.4312
629.96 2.6531 0 -45.591
749.263 1.26077 0 -30.5462
651.678 2.68042 0 -46.4362
640.819 2.66682 0 -46.0141
523.598 3.82074 0 -58.0785
505.503 3.80247 0 -57.3706
711.251 1.20372 0 -29.0623
736.592 1.24185 0 -30.0527
514.551 3.81168 0 -57.725
608.242 2.62527 0 -44.7418
723.921 1.22283 0 -29.5581
629.96 2.6531 0 -45.591
619.101 2.63925 0 -45.1669
505.503 3.80247 0 -57.3706
487.409 3.78362 0 -56.6595
685.911 1.16523 0 -28.0674
711.251 1.20372 0 -29.0623
496.456 3.79312 0 -57.0155
586.525 2.59696 0 -43.8887
698.581 1.18452 0 -28.5654
608.242 2.62527 0 -44.7418
597.384 2.61118 0 -44.3157
487.409 3.78362 0 -56.6595
469.315 3.76419 0 -55.9453
660.572 1.12638 0 -27.0681
685.911 1.16523 0 -28.0674
478.361 3.77398 0 -56.3028
564.809 2.56817 0 -43.0319
673.241 1.14585 0 -27.5683
586.525 2.59696 0 -43.8887
575.667 2.58263 0 -43.4607
469.315 3.76419 0 -55.9453
451.221 3.74419 0 -55.2281
635.234 1.08719 0 -26.0646
660.572 1.12638 0 -27.0681
460.268 3.75426 0 -55.587
543.094 2.53891 0 -42.1715
647.903 1.10683 0 -26.5669
564.809 2.56817 0 -43.0319
553.951 2.5536 0 -42.6021
451.221 3.74419 0 -55.2281
433.128 3.72363 0 -54.508
609.897 1.04766 0 -25.0571
635.234 1.08719 0 -26.0646
442.175 3.73398 0 -54.8684
521.379 2.5092 0 -41.3077
622.565 1.06747 0 -25.5613
543.094 2.53891 0 -42.1715
532.237 2.52411 0 -41.74
433.128 3.72363 0 -54.508
415.036 3.70252 0 -53.7853
584.561 1.00782 0 -24.0456
609.897 1.04766 0 -25.0571
424.082 3.71314 0 -54.147
499.666 2.47903 0 -40.4406
597.229 1.02778 0 -24.5518
521.379 2.5092 0 -41.3077
510.522 2.49417 0 -40.8745
415.036 3.70252 0 -53.7853
396.944 3.68085 0 -53.06
559.226 0.967665 0 -23.0305
584.561 1.00782 0 -24.0456
405.99 3.69175 0 -53.4229
477.953 2.44843 0 -39.5703
571.893 0.987778 0 -23.5385
499.666 2.47903 0 -40.4406
488.809 2.46379 0 -40.0058
396.944 3.68085 0 -53.06
378.853 3.65866 0 -52.3321
533.891 0.927224 0 -22.0117
559.226 0.967665 0 -23.0305
387.899 3.66982 0 -52.6963
456.24 2.4174 0 -38.6971
546.558 0.94748 0 -22.5215
477.953 2.44843 0 -39.5703
467.096 2.43297 0 -39.134
378.853 3.65866 0 -52.3321
360.763 3.63594 0 -51.602
508.558 0.886503 0 -20.9896
533.891 0.927224 0 -22.0117
369.808 3.64736 0 -51.9673
434.528 2.38596 0 -37.821
521.224 0.906897 0 -21.5011
456.24 2.4174 0 -38.6971
445.384 2.40173 0 -38.2594
360.763 3.63594 0 -51.602
342.672 3.61273 0 -50.8696
483.224 0.845529 0 -19.9642
508.558 0.886503 0 -20.9896
351.717 3.62439 0 -51.2361
412.817 2.35411 0 -36.9422
495.891 0.866046 0 -20.4773
434.528 2.38596 0 -37.821
423.673 2.37008 0 -37.3819
342.672 3.61273 0 -50.8696
324.583 3.58911 0 -50.1349
457.892 0.804309 0 -18.9357
483.224 0.845529 0 -19.9642
333.628 3.60097 0 -50.5025
391.106 2.32188 0 -36.0608
470.558 0.824951 0 -19.4503
412.817 2.35411 0 -36.9422
401.962 2.33804 0 -36.5018
324.583 3.58911 0 -50.1349
306.495 3.56526 0 -49.398
432.559 0.762872 0 -17.9043
457.892 0.804309 0 -18.9357
315.539 3.5772 0 -49.7668
369.396 2.28929 0 -35.177
445.225 0.783607 0 -18.4204
391.106 2.32188 0 -36.0608
380.251 2.30563 0 -35.6192
306.495 3.56526 0 -49.398
288.408 3.54154 0 -48.6584
407.226 0.721278 0 -16.8702
432.559 0.762872 0 -17.9043
297.451 3.55335 0 -49.0286
347.687 2.25647 0 -34.2905
419.892 0.742121 0 -17.3875
369.396 2.28929 0 -35.177
358.541 2.2729 0 -34.7341
288.408 3.54154 0 -48.6584
270.323 3.51878 0 -47.9149
381.893 0.679358 0 -15.8334
407.226 0.721278 0 -16.8702
279.365 3.52995 0 -48.2872
325.98 2.22351 0 -33.4009
394.559 0.700287 0 -16.3522
347.687 2.25647 0 -34.2905
336.833 2.24001 0 -33.8461
270.323 3.51878 0 -47.9149
252.241 3.49852 0 -47.1656
356.562 0.637741 0 -14.7946
381.893 0.679358 0 -15.8334
261.282 3.50821 0 -47.5412
304.277 2.19097 0 -32.5071
369.227 0.658717 0 -15.3141
325.98 2.22351 0 -33.4009
315.127 2.20712 0 -32.9546
252.241 3.49852 0 -47.1656
234.166 3.48417 0 -46.4051
331.234 0.594554 0 -13.7535
356.562 0.637741 0 -14.7946
243.202 3.49027 0 -46.7872
282.582 2.15919 0 -31.6058
343.897 0.615892 0 -14.2746
304.277 2.19097 0 -32.5071
293.428 2.175 0 -32.0576
234.166 3.48417 0 -46.4051
216.099 3.48097 0 -45.6252
305.924 0.554332 0 -12.7126
331.234 0.594554 0 -13.7535
225.132 3.48069 0 -46.0183
260.906 2.13046 0 -30.6919
318.576 0.575324 0 -13.2322
282.582 2.15919 0 -31.6058
271.74 2.14417 0 -31.1511
216.099 3.48097 0 -45.6252
198.049 3.50122 0 -44.8062
280.642 0.504549 0 -11.6697
305.924 0.554332 0 -12.7126
207.07 3.48717 0 -45.2224
239.264 2.10603 0 -29.7521
293.279 0.528005 0 -12.1928
260.906 2.13046 0 -30.6919
250.081 2.11792 0 -30.226
198.049 3.50122 0 -44.8062
180.011 3.55857 0 -43.921
255.457 0.472471 0 -10.6363
280.642 0.504549 0 -11.6697
189.03 3.52362 0 -44.3741
217.699 2.09359 0 -28.7664
268.032 0.493221 0 -11.1482
239.264 2.10603 0 -29.7521
228.467 2.09701 0 -29.2679
180.011 3.55857 0 -43.921
162.014 3.69217 0 -42.9075
230.404 0.387594 0 -9.59925
255.457 0.472471 0 -10.6363
171.002 3.61397 0 -43.4362
196.254 2.09735 0 -27.6917
242.91 0.422125 0 -10.125
217.699 2.09359 0 -28.7664
206.962 2.09513 0 -28.2417
162.014 3.69217 0 -42.9075
143.997 3.919 0 -41.6998
205.78 0.396128 0 -8.60812
230.404 0.387594 0 -9.59925
153.019 3.78863 0 -42.3328
175.074 2.13902 0 -26.4615
218.018 0.416493 0 -9.0825
196.254 2.09735 0 -27.6917
185.612 2.10715 0 -27.1079
143.997 3.919 0 -41.6998
126.037 4.35134 0 -40.1387
181.669 0.138159 0 -7.60067
205.78 0.396128 0 -8.60812
134.992 4.11164 0 -40.978
154.246 2.23347 0 -24.9655
193.645 0.22434 0 -8.13822
175.074 2.13902 0 -26.4615
164.626 2.19003 0 -25.7438
126.037 4.35134 0 -40.1387
107.77 4.8993 0 -38.1525
159.14 0.334061 0 -6.76729
181.669 0.138159 0 -7.60067
116.996 4.59321 0 -39.2023
134.199 2.42816 0 -23.0109
170.149 0.361959 0 -7.09331
154.246 2.23347 0 -24.9655
144.055 2.28891 0 -24.0931
107.77 4.8993 0 -38.1525
89.3271 5.83738 0 -35.4995
138.319 -0.726144 0 -5.85539
159.14 0.334061 0 -6.76729
98.5209 5.36879 0 -36.9259
114.861 2.77546 0 -20.4407
148.43 -0.420345 0 -6.47325
134.199 2.42816 0 -23.0109
124.532 2.6359 0 -21.7539
89.3271 5.83738 0 -35.4995
68.9911 6.1607 0 -32.6466
122.545 0.297114 0 -5.48784
138.319 -0.726144 0 -5.85539
79.6189 6.02612 0 -34.0556
97.3031 3.32509 0 -16.8148
129.751 0.403422 0 -5.29099
114.861 2.77546 0 -20.4407
105.607 2.90135 0 -18.9379
68.9911 6.1607 0 -32.6466
46.8087 5.95799 0 -30.4122
112.505 -3.84107 0 -4.26007
122.545 0.297114 0 -5.48784
58.0211 6.53274 0 -31.3065
79.1125 4.14329 0 -12.8824
116.16 -3.02574 0 -5.81949
97.3031 3.32509 0 -16.8148
88.8845 3.93115 0 -14.5281
46.8087 5.95799 0 -30.4122
17.6445 -2.88528 0 -34.4526
122.001 3.40263 0 -1.28389
112.505 -3.84107 0 -4.26007
33.7306 2.83669 0 -31.132
59.1101 3.443 0 -10.0732
114.996 2.35603 0 -2.09674
79.1125 4.14329 0 -12.8824
68.8406 3.88721 0 -11.7062
17.6445 -2.88528 0 -34.4526
-7.31748 -38.4442 0 -53.1972
172.147 15.1615 0 22.2808
122.001 3.40263 0 -1.28389
3.6401 -12.0832 0 -40.7554
7.22205 -21.3451 0 -30.8577
135.49 -5.70793 0 1.82541
59.1101 3.443 0 -10.0732
42.144 -0.802798 0 -13.662
-7.31748 -38.4442 0 -53.1972
-0.373273 -177.908 0 -60.3763
20.5476 -220.983 0 -152.193
172.147 15.1615 0 22.2808
-11.7887 -94.9803 0 -64.935
-23.0993 -223.432 0 -93.5421
179.962 41.2104 0 7.50639
7.22205 -21.3451 0 -30.8577
-18.6104 -73.964 0 -58.1537
      </DataArray> 
      <DataArray type="Float64" NumberOfComponents="4" Name="GreenStrain" format="ascii">
-0.00334531 -1.11022e-16 0.0014337 -0.00113789
-0.00238525 0.00075605 0.000698227 4.39119e-05
-0.00171375 0.000339956 0.000588767 -0.000126974
-0.00152188 0 0.000652235 -8.63968e-05
-0.00265326 0.000843313 0.000775691 -0.000159893
-0.00216694 0.000526728 0.00070295 -0.000164649
-0.00162964 0.000160698 0.000629546 -0.000147394
-0.00178807 0 0.000766314 -0.000275986
-0.0020905 0.000356597 0.0007431 -0.000258504
-0.00238525 0.00075605 0.000698227 4.39119e-05
-0.00235807 0.000730555 0.000697507 1.34949e-05
-0.00178044 0.000481705 0.0005566 -6.0262e-05
-0.00171375 0.000339956 0.000588767 -0.000126974
-0.00235072 0.000697559 0.000708497 1.90913e-05
-0.00211858 0.000617305 0.000643403 -2.73096e-05
-0.00176657 0.00044011 0.000568482 -9.1428e-05
-0.00216694 0.000526728 0.00070295 -0.000164649
-0.00213661 0.000596504 0.000660047 -6.63845e-05
-0.00235807 0.000730555 0.000697507 1.34949e-05
-0.00239172 0.000709902 0.000720779 6.27579e-06
-0.00177173 0.000521257 0.000535919 -2.23378e-05
-0.00178044 0.000481705 0.0005566 -6.0262e-05
-0.00238063 0.000729098 0.0007078 1.36984e-05
-0.0020965 0.000627985 0.000629362 -2.69888e-06
-0.00177546 0.000506318 0.00054392 -3.53304e-05
-0.00211858 0.000617305 0.000643403 -2.73096e-05
-0.00210711 0.000624989 0.000635196 -1.31959e-05
-0.00239172 0.000709902 0.000720779 6.27579e-06
-0.00240544 0.000723818 0.000720696 -7.46028e-07
-0.00175923 0.000526536 0.000528296 -1.40237e-05
-0.00177173 0.000521257 0.000535919 -2.23378e-05
-0.00239782 0.000712344 0.000722347 -1.28243e-06
-0.00208436 0.000626604 0.000624753 7.73868e-07
-0.00176705 0.000526447 0.000531688 -1.673e-05
-0.0020965 0.000627985 0.000629362 -2.69888e-06
-0.00208837 0.000627915 0.000625908 1.9122e-06
-0.00240544 0.000723818 0.000720696 -7.46028e-07
-0.00241242 0.000721191 0.000724811 4.865e-07
-0.00174481 0.000525553 0.000522539 -1.37552e-05
-0.00175923 0.000526536 0.000528296 -1.40237e-05
-0.00241138 0.000724935 0.000722761 1.20829e-06
-0.00207829 0.000624562 0.000623027 -2.97573e-06
-0.00175092 0.000526208 0.000524878 -1.3052e-05
-0.00208436 0.000626604 0.000624753 7.73868e-07
-0.00208187 0.000625531 0.000624145 -1.64313e-06
-0.00241242 0.000721191 0.000724811 4.865e-07
-0.00240969 0.000723249 0.00072276 -4.51032e-07
-0.00173386 0.000521642 0.000519524 -1.67029e-05
-0.00174481 0.000525553 0.000522539 -1.37552e-05
-0.00241103 0.000721463 0.000724101 -7.70463e-07
-0.00207072 0.000621824 0.000620954 -6.38859e-06
-0.00173956 0.00052384 0.000521025 -1.53103e-05
-0.00207829 0.000624562 0.000623027 -2.97573e-06
-0.00207434 0.000623289 0.000621877 -4.4946e-06
-0.00240969 0.000723249 0.00072276 -4.51032e-07
-0.00240373 0.000720559 0.000721357 2.5085e-08
-0.00172327 0.000517848 0.000516609 -1.91537e-05
-0.00173386 0.000521642 0.000519524 -1.67029e-05
-0.00240754 0.000722527 0.000722147 1.39678e-07
-0.00206265 0.000618889 0.000618756 -9.06425e-06
-0.00172825 0.000519666 0.000517966 -1.79336e-05
-0.00207072 0.000621824 0.000620954 -6.38859e-06
-0.00206698 0.00062036 0.000619978 -7.98406e-06
-0.00240373 0.000720559 0.000721357 2.5085e-08
-0.00239411 0.000718319 0.000718197 -1.45662e-07
-0.00171375 0.000514169 0.000514105 -2.11377e-05
-0.00172327 0.000517848 0.000516609 -1.91537e-05
-0.002399 0.000719315 0.000719865 -2.45e-07
-0.00205332 0.000615801 0.00061608 -1.07796e-05
-0.00171856 0.000515995 0.000515383 -2.02783e-05
-0.00206265 0.000618889 0.000618756 -9.06425e-06
-0.00205802 0.000617366 0.000617421 -9.98268e-06
-0.00239411 0.000718319 0.000718197 -1.45662e-07
-0.00238325 0.000714889 0.00071501 -1.65303e-08
-0.00170433 0.000510849 0.000511493 -2.23344e-05
-0.00171375 0.000514169 0.000514105 -2.11377e-05
-0.00238891 0.000716753 0.000716638 6.15627e-09
-0.00204344 0.00061262 0.000613209 -1.17919e-05
-0.00170897 0.000512463 0.000512787 -2.17957e-05
-0.00205332 0.000615801 0.00061608 -1.07796e-05
-0.00204849 0.000614217 0.000614689 -1.13765e-05
-0.00238325 0.000714889 0.00071501 -1.65303e-08
-0.0023713 0.000711437 0.000711371 -4.03757e-08
-0.00169517 0.00050775 0.000508895 -2.30832e-05
-0.00170433 0.000510849 0.000511493 -2.23344e-05
-0.00237731 0.000713146 0.000713215 -7.09378e-08
-0.00203304 0.000609398 0.000610133 -1.23698e-05
-0.00169976 0.000509279 0.000510208 -2.27688e-05
-0.00204344 0.00061262 0.000613209 -1.17919e-05
-0.00203826 0.000611013 0.000611678 -1.21187e-05
-0.0023713 0.000711437 0.000711371 -4.03757e-08
-0.00235899 0.000707712 0.00070769 -8.79168e-09
-0.00168603 0.00050482 0.000506232 -2.3479e-05
-0.00169517 0.00050775 0.000508895 -2.30832e-05
-0.0023652 0.000709608 0.000709539 -3.68883e-09
-0.00202243 0.000606149 0.000606976 -1.26656e-05
-0.00169058 0.000506267 0.000507564 -2.33092e-05
-0.00203304 0.000609398 0.000610133 -1.23698e-05
-0.00202777 0.000607776 0.000608568 -1.25455e-05
-0.00235899 0.000707712 0.00070769 -8.79168e-09
-0.00234642 0.000703963 0.000703908 -9.64293e-09
-0.00167693 0.000501988 0.000503548 -2.36929e-05
-0.00168603 0.00050482 0.000506232 -2.3479e-05
-0.00235271 0.000705835 0.000705805 -1.83938e-08
-0.00201165 0.000602891 0.000603753 -1.28171e-05
-0.00168148 0.000503395 0.000504895 -2.36058e-05
-0.00202243 0.000606149 0.000606976 -1.26656e-05
-0.00201704 0.000604521 0.000605367 -1.27543e-05
-0.00234642 0.000703963 0.000703908 -9.64293e-09
-0.00233376 0.000700161 0.000700114 -2.65758e-09
-0.00166784 0.000499214 0.00050084 -2.37922e-05
-0.00167693 0.000501988 0.000503548 -2.36929e-05
-0.0023401 0.000702069 0.000702012 -1.39585e-09
-0.00200081 0.000599628 0.000600506 -1.28839e-05
-0.00167238 0.000500596 0.000502195 -2.37515e-05
-0.00201165 0.000602891 0.000603753 -1.28171e-05
-0.00200624 0.00060126 0.000602133 -1.28577e-05
-0.00233376 0.000700161 0.000700114 -2.65758e-09
-0.00232106 0.000696354 0.000696302 -1.80818e-09
-0.00165876 0.000496472 0.000498122 -2.38377e-05
-0.00166784 0.000499214 0.00050084 -2.37922e-05
-0.00232741 0.000698257 0.000698209 -4.03322e-09
-0.00198993 0.000596365 0.000597243 -1.29126e-05
-0.0016633 0.000497841 0.000499482 -2.38202e-05
-0.00200081 0.000599628 0.000600506 -1.28839e-05
-0.00199537 0.000597997 0.000598875 -1.29015e-05
-0.00232106 0.000696354 0.000696302 -1.80818e-09
-0.00230835 0.00069254 0.00069249 -4.87934e-10
-0.00164967 0.000493747 0.000495396 -2.38541e-05
-0.00165876 0.000496472 0.000498122 -2.38377e-05
-0.00231471 0.000694448 0.000694396 -1.41796e-10
-0.00197904 0.000593102 0.000593975 -1.29216e-05
-0.00165421 0.000495108 0.000496759 -2.3848e-05
-0.00198993 0.000596365 0.000597243 -1.29126e-05
-0.00198449 0.000594733 0.00059561 -1.29186e-05
-0.00230835 0.00069254 0.00069249 -4.87934e-10
-0.00229564 0.000688727 0.000688676 -1.4479e-10
-0.00164059 0.000491029 0.000492668 -2.38587e-05
-0.00164967 0.000493747 0.000495396 -2.38541e-05
-0.00230199 0.000690633 0.000690583 -6.23473e-10
-0.00196815 0.000589839 0.000590704 -1.29234e-05
-0.00164513 0.000492387 0.000494032 -2.38574e-05
-0.00197904 0.000593102 0.000593975 -1.29216e-05
-0.0019736 0.000591471 0.00059234 -1.2923e-05
-0.00229564 0.000688727 0.000688676 -1.4479e-10
-0.00228293 0.000684914 0.000684864 2.43617e-11
-0.0016315 0.000488315 0.000489937 -2.38582e-05
-0.00164059 0.000491029 0.000492668 -2.38587e-05
-0.00228928 0.00068682 0.00068677 1.31464e-10
-0.00195725 0.000586577 0.000587433 -1.29221e-05
-0.00163604 0.000489672 0.000491303 -2.38588e-05
-0.00196815 0.000589839 0.000590704 -1.29234e-05
-0.0019627 0.000588208 0.000589069 -1.29229e-05
-0.00228293 0.000684914 0.000684864 2.43617e-11
-0.00227022 0.000681102 0.000681052 9.51019e-11
-0.00162242 0.000485602 0.000487207 -2.38565e-05
-0.0016315 0.000488315 0.000489937 -2.38582e-05
-0.00227658 0.000683008 0.000682958 1.81738e-11
-0.00194636 0.000583316 0.000584161 -1.29205e-05
-0.00162696 0.000486958 0.000488572 -2.38574e-05
-0.00195725 0.000586577 0.000587433 -1.29221e-05
-0.00195181 0.000584947 0.000585797 -1.29213e-05
-0.00227022 0.000681102 0.000681052 9.51019e-11
-0.00225752 0.000677291 0.000677242 8.31239e-11
-0.00161333 0.00048289 0.000484476 -2.38547e-05
-0.00162242 0.000485602 0.000487207 -2.38565e-05
-0.00226387 0.000679196 0.000679147 1.1946e-10
-0.00193546 0.000580055 0.00058089 -1.2919e-05
-0.00161788 0.000484246 0.000485841 -2.38555e-05
-0.00194636 0.000583316 0.000584161 -1.29205e-05
-0.00194091 0.000581685 0.000582526 -1.29197e-05
-0.00225752 0.000677291 0.000677242 8.31239e-11
-0.00224482 0.00067348 0.000673431 8.39753e-11
-0.00160425 0.000480178 0.000481745 -2.38533e-05
-0.00161333 0.00048289 0.000484476 -2.38547e-05
-0.00225117 0.000675385 0.000675336 8.03709e-11
-0.00192457 0.000576794 0.000577619 -1.2918e-05
-0.00160879 0.000481534 0.000483111 -2.3854e-05
-0.00193546 0.000580055 0.00058089 -1.2919e-05
-0.00193002 0.000578424 0.000579255 -1.29185e-05
-0.00224482 0.00067348 0.000673431 8.39753e-11
-0.00223212 0.00066967 0.000669621 6.42256e-11
-0.00159517 0.000477466 0.000479015 -2.38524e-05
-0.00160425 0.000480178 0.000481745 -2.38533e-05
-0.00223847 0.000671575 0.000671526 7.68827e-11
-0.00191368 0.000573533 0.000574348 -1.29174e-05
-0.00159971 0.000478822 0.00048038 -2.38528e-05
-0.00192457 0.000576794 0.000577619 -1.2918e-05
-0.00191913 0.000575163 0.000575984 -1.29177e-05
-0.00223212 0.00066967 0.000669621 6.42256e-11
-0.00221942 0.00066586 0.000665811 5.73606e-11
-0.00158608 0.000474753 0.000476284 -2.38519e-05
-0.00159517 0.000477466 0.000479015 -2.38524e-05
-0.00222577 0.000667765 0.000667716 6.10883e-11
-0.00190279 0.000570272 0.000571078 -1.29171e-05
-0.00159062 0.00047611 0.000477649 -2.38521e-05
-0.00191368 0.000573533 0.000574348 -1.29174e-05
-0.00190823 0.000571902 0.000572713 -1.29172e-05
-0.00221942 0.00066586 0.000665811 5.73606e-11
-0.00220672 0.00066205 0.000662002 4.77016e-11
-0.001577 0.000472041 0.000473554 -2.38517e-05
-0.00158608 0.000474753 0.000476284 -2.38519e-05
-0.00221307 0.000663955 0.000663906 5.19594e-11
-0.0018919 0.000567011 0.000567807 -1.29169e-05
-0.00158154 0.000473397 0.000474919 -2.38518e-05
-0.00190279 0.000570272 0.000571078 -1.29171e-05
-0.00189734 0.000568641 0.000569443 -1.2917e-05
-0.00220672 0.00066205 0.000662002 4.77016e-11
-0.00219402 0.00065824 0.000658192 4.37686e-11
-0.00156792 0.000469328 0.000470824 -2.38516e-05
-0.001577 0.000472041 0.000473554 -2.38517e-05
-0.00220037 0.000660145 0.000660097 4.5839e-11
-0.001881 0.00056375 0.000564537 -1.29169e-05
-0.00157246 0.000470685 0.000472189 -2.38516e-05
-0.0018919 0.000567011 0.000567807 -1.29169e-05
-0.00188645 0.000565381 0.000566172 -1.29169e-05
-0.00219402 0.00065824 0.000658192 4.37719e-11
-0.00218132 0.00065443 0.000654382 4.01535e-11
-0.00155883 0.000466616 0.000468093 -2.38516e-05
-0.00156792 0.000469328 0.000470824 -2.38516e-05
-0.00218767 0.000656335 0.000656287 4.14784e-11
-0.00187011 0.000560489 0.000561267 -1.29169e-05
-0.00156338 0.000467972 0.000469459 -2.38516e-05
-0.001881 0.00056375 0.000564537 -1.29169e-05
-0.00187556 0.00056212 0.000562902 -1.29169e-05
-0.00218132 0.00065443 0.000654382 4.01535e-11
-0.00216862 0.00065062 0.000650573 3.85977e-11
-0.00154975 0.000463903 0.000465363 -2.38516e-05
-0.00155883 0.000466616 0.000468093 -2.38516e-05
-0.00217497 0.000652525 0.000652478 3.93349e-11
-0.00185922 0.000557228 0.000557997 -1.29169e-05
-0.00155429 0.00046526 0.000466728 -2.38516e-05
-0.00187011 0.000560489 0.000561267 -1.29169e-05
-0.00186467 0.000558859 0.000559632 -1.29169e-05
-0.00216862 0.00065062 0.000650573 3.86052e-11
-0.00215592 0.00064681 0.000646763 3.74259e-11
-0.00154067 0.000461191 0.000462633 -2.38517e-05
-0.00154975 0.000463903 0.000465363 -2.38516e-05
-0.00216227 0.000648715 0.000648668 3.78015e-11
-0.00184833 0.000553968 0.000554727 -1.2917e-05
-0.00154521 0.000462547 0.000463998 -2.38517e-05
-0.00185922 0.000557228 0.000557997 -1.29169e-05
-0.00185378 0.000555598 0.000556362 -1.2917e-05
-0.00215592 0.00064681 0.000646763 3.74259e-11
-0.00214323 0.000643001 0.000642954 3.68865e-11
-0.00153159 0.000458478 0.000459903 -2.38518e-05
-0.00154067 0.000461191 0.000462633 -2.38517e-05
-0.00214957 0.000644906 0.000644858 3.71075e-11
-0.00183744 0.000550707 0.000551457 -1.2917e-05
-0.00153613 0.000459834 0.000461268 -2.38517e-05
-0.00184833 0.000553968 0.000554727 -1.2917e-05
-0.00184288 0.000552337 0.000553092 -1.2917e-05
-0.00214323 0.000643001 0.000642954 3.68865e-11
-0.00213053 0.000639191 0.000639144 3.65017e-11
-0.0015225 0.000455765 0.000457174 -2.38519e-05
-0.00153159 0.000458478 0.000459903 -2.38518e-05
-0.00213688 0.000641096 0.000641049 3.66086e-11
-0.00182655 0.000547446 0.000548187 -1.29171e-05
-0.00152704 0.000457122 0.000458539 -2.38518e-05
-0.00183744 0.000550707 0.000551457 -1.2917e-05
-0.00183199 0.000549076 0.000549822 -1.29171e-05
-0.00213053 0.000639191 0.000639144 3.65017e-11
-0.00211783 0.000635381 0.000635335 3.62856e-11
-0.00151342 0.000453052 0.000454444 -2.38519e-05
-0.0015225 0.000455765 0.000457174 -2.38519e-05
-0.00212418 0.000637286 0.000637239 3.63655e-11
-0.00181566 0.000544185 0.000544917 -1.29172e-05
-0.00151796 0.000454409 0.000455809 -2.38519e-05
-0.00182655 0.000547446 0.000548187 -1.29171e-05
-0.0018211 0.000545816 0.000546552 -1.29171e-05
-0.00211783 0.000635381 0.000635335 3.62831e-11
-0.00210513 0.000631572 0.000631525 3.60991e-11
-0.00150434 0.00045034 0.000451714 -2.3852e-05
-0.00151342 0.000453052 0.000454444 -2.38519e-05
-0.00211148 0.000633476 0.00063343 3.61548e-11
-0.00180477 0.000540924 0.000541647 -1.29172e-05
-0.00150888 0.000451696 0.000453079 -2.3852e-05
-0.00181566 0.000544185 0.000544917 -1.29172e-05
-0.00181021 0.000542555 0.000543282 -1.29172e-05
-0.00210513 0.000631572 0.000631525 3.60991e-11
-0.00209243 0.000627762 0.000627716 3.59319e-11
-0.00149526 0.000447627 0.000448985 -2.3852e-05
-0.00150434 0.00045034 0.000451714 -2.3852e-05
-0.00209878 0.000629667 0.00062962 3.59982e-11
-0.00179388 0.000537663 0.000538377 -1.29173e-05
-0.0014998 0.000448983 0.000450349 -2.3852e-05
-0.00180477 0.000540924 0.000541647 -1.29172e-05
-0.00179932 0.000539294 0.000540012 -1.29172e-05
-0.00209243 0.000627762 0.000627716 3.59328e-11
-0.00207973 0.000623952 0.000623906 3.57672e-11
-0.00148618 0.000444914 0.000446255 -2.38521e-05
-0.00149526 0.000447627 0.000448985 -2.3852e-05
-0.00208608 0.000625857 0.000625811 3.58343e-11
-0.00178299 0.000534403 0.000535107 -1.29173e-05
-0.00149072 0.00044627 0.00044762 -2.38521e-05
-0.00179388 0.000537663 0.000538377 -1.29173e-05
-0.00178843 0.000536033 0.000536742 -1.29173e-05
-0.00207973 0.000623952 0.000623906 3.57672e-11
-0.00206704 0.000620143 0.000620097 3.56014e-11
-0.00147709 0.000442201 0.000443526 -2.38521e-05
-0.00148618 0.000444914 0.000446255 -2.38521e-05
-0.00207338 0.000622048 0.000622001 3.56739e-11
-0.0017721 0.000531142 0.000531837 -1.29173e-05
-0.00148163 0.000443558 0.00044489 -2.38521e-05
-0.00178299 0.000534403 0.000535107 -1.29173e-05
-0.00177754 0.000532772 0.000533472 -1.29173e-05
-0.00206704 0.000620143 0.000620097 3.55948e-11
-0.00205434 0.000616333 0.000616287 3.54068e-11
-0.00146801 0.000439488 0.000440796 -2.38522e-05
-0.00147709 0.000442201 0.000443526 -2.38521e-05
-0.00206069 0.000618238 0.000618192 3.54962e-11
-0.00176121 0.000527881 0.000528568 -1.29174e-05
-0.00147255 0.000440845 0.000442161 -2.38521e-05
-0.0017721 0.000531142 0.000531837 -1.29173e-05
-0.00176665 0.000529511 0.000530202 -1.29174e-05
-0.00205434 0.000616333 0.000616287 3.54068e-11
-0.00204164 0.000612524 0.000612478 3.52105e-11
-0.00145893 0.000436775 0.000438067 -2.38522e-05
-0.00146801 0.000439488 0.000440796 -2.38522e-05
-0.00204799 0.000614429 0.000614383 3.53137e-11
-0.00175032 0.00052462 0.000525298 -1.29174e-05
-0.00146347 0.000438132 0.000439431 -2.38522e-05
-0.00176121 0.000527881 0.000528568 -1.29174e-05
-0.00175576 0.00052625 0.000526933 -1.29174e-05
-0.00204164 0.000612524 0.000612478 3.52204e-11
-0.00202894 0.000608714 0.000608669 3.50208e-11
-0.00144985 0.000434062 0.000435338 -2.38522e-05
-0.00145893 0.000436775 0.000438067 -2.38522e-05
-0.00203529 0.000610619 0.000610573 3.51026e-11
-0.00173943 0.000521359 0.000522028 -1.29174e-05
-0.00145439 0.000435419 0.000436702 -2.38522e-05
-0.00175032 0.00052462 0.000525298 -1.29174e-05
-0.00174487 0.00052299 0.000523663 -1.29174e-05
-0.00202894 0.000608714 0.000608669 3.50208e-11
-0.00201624 0.000604905 0.00060486 3.48057e-11
-0.00144077 0.000431349 0.000432608 -2.38522e-05
-0.00144985 0.000434062 0.000435338 -2.38522e-05
-0.00202259 0.00060681 0.000606764 3.49135e-11
-0.00172854 0.000518098 0.000518759 -1.29175e-05
-0.00144531 0.000432706 0.000433973 -2.38522e-05
-0.00173943 0.000521359 0.000522028 -1.29174e-05
-0.00173398 0.000519729 0.000520394 -1.29175e-05
-0.00201624 0.000604905 0.00060486 3.48024e-11
-0.00200355 0.000601096 0.00060105 3.45734e-11
-0.00143169 0.000428636 0.000429879 -2.38523e-05
-0.00144077 0.000431349 0.000432608 -2.38522e-05
-0.0020099 0.000603 0.000602955 3.46765e-11
-0.00171765 0.000514838 0.000515489 -1.29175e-05
-0.00143623 0.000429993 0.000431244 -2.38523e-05
-0.00172854 0.000518098 0.000518759 -1.29175e-05
-0.00172309 0.000516468 0.000517124 -1.29175e-05
-0.00200355 0.000601096 0.00060105 3.45734e-11
-0.00199085 0.000597286 0.000597241 3.43829e-11
-0.00142261 0.000425923 0.00042715 -2.38523e-05
-0.00143169 0.000428636 0.000429879 -2.38523e-05
-0.0019972 0.000599191 0.000599146 3.44746e-11
-0.00170676 0.000511577 0.00051222 -1.29175e-05
-0.00142715 0.00042728 0.000428515 -2.38523e-05
-0.00171765 0.000514838 0.000515489 -1.29175e-05
-0.0017122 0.000513207 0.000513855 -1.29175e-05
-0.00199085 0.000597286 0.000597241 3.43829e-11
-0.00197815 0.000593477 0.000593432 3.41462e-11
-0.00141353 0.00042321 0.000424421 -2.38523e-05
-0.00142261 0.000425923 0.00042715 -2.38523e-05
-0.0019845 0.000595382 0.000595337 3.42557e-11
-0.00169587 0.000508316 0.000508951 -1.29176e-05
-0.00141807 0.000424567 0.000425786 -2.38523e-05
-0.00170676 0.000511577 0.00051222 -1.29175e-05
-0.00170131 0.000509946 0.000510585 -1.29175e-05
-0.00197815 0.000593477 0.000593432 3.41396e-11
-0.00196545 0.000589668 0.000589623 3.39287e-11
-0.00140445 0.000420497 0.000421692 -2.38523e-05
-0.00141353 0.00042321 0.000424421 -2.38523e-05
-0.0019718 0.000591572 0.000591527 3.40317e-11
-0.00168498 0.000505055 0.000505681 -1.29176e-05
-0.00140899 0.000421854 0.000423057 -2.38523e-05
-0.00169587 0.000508316 0.000508951 -1.29176e-05
-0.00169042 0.000506686 0.000507316 -1.29176e-05
-0.00196545 0.000589668 0.000589623 3.39287e-11
-0.00195276 0.000585858 0.000585814 3.37052e-11
-0.00139537 0.000417784 0.000418964 -2.38523e-05
-0.00140445 0.000420497 0.000421692 -2.38523e-05
-0.00195911 0.000587763 0.000587718 3.38142e-11
-0.00167409 0.000501794 0.000502412 -1.29176e-05
-0.00139991 0.000419141 0.000420328 -2.38523e-05
-0.00168498 0.000505055 0.000505681 -1.29176e-05
-0.00167953 0.000503425 0.000504047 -1.29176e-05
-0.00195276 0.000585858 0.000585814 3.36994e-11
-0.00194006 0.000582049 0.000582005 3.34851e-11
-0.00138629 0.000415071 0.000416235 -2.38524e-05
-0.00139537 0.000417784 0.000418964 -2.38523e-05
-0.00194641 0.000583954 0.000583909 3.35735e-11
-0.0016632 0.000498534 0.000499143 -1.29176e-05
-0.00139083 0.000416428 0.000417599 -2.38524e-05
-0.00167409 0.000501794 0.000502412 -1.29176e-05
-0.00166864 0.000500164 0.000500777 -1.29176e-05
-0.00194006 0.000582049 0.000582005 3.34851e-11
-0.00192736 0.00057824 0.000578196 3.32484e-11
-0.00137721 0.000412358 0.000413506 -2.38524e-05
-0.00138629 0.000415071 0.000416235 -2.38524e-05
-0.00193371 0.000580145 0.0005801 3.3365e-11
-0.00165231 0.000495273 0.000495874 -1.29176e-05
-0.00138175 0.000413715 0.000414871 -2.38524e-05
-0.0016632 0.000498534 0.000499143 -1.29176e-05
-0.00165776 0.000496903 0.000497508 -1.29176e-05
-0.00192736 0.00057824 0.000578196 3.32566e-11
-0.00191467 0.000574431 0.000574387 3.30329e-11
-0.00136813 0.000409645 0.000410778 -2.38524e-05
-0.00137721 0.000412358 0.000413506 -2.38524e-05
-0.00192102 0.000576336 0.000576291 3.3134e-11
-0.00164142 0.000492012 0.000492605 -1.29177e-05
-0.00137267 0.000411001 0.000412142 -2.38524e-05
-0.00165231 0.000495273 0.000495874 -1.29176e-05
-0.00164687 0.000493642 0.000494239 -1.29177e-05
-0.00191467 0.000574431 0.000574387 3.30329e-11
-0.00190197 0.000570622 0.000570578 3.27936e-11
-0.00135905 0.000406932 0.000408049 -2.38524e-05
-0.00136813 0.000409645 0.000410778 -2.38524e-05
-0.00190832 0.000572526 0.000572482 3.29189e-11
-0.00163053 0.000488751 0.000489336 -1.29177e-05
-0.00136359 0.000408288 0.000409413 -2.38524e-05
-0.00164142 0.000492012 0.000492605 -1.29177e-05
-0.00163598 0.000490382 0.00049097 -1.29177e-05
-0.00190197 0.000570622 0.000570578 3.27936e-11
-0.00188927 0.000566813 0.000566769 3.25717e-11
-0.00134997 0.000404219 0.000405321 -2.38524e-05
-0.00135905 0.000406932 0.000408049 -2.38524e-05
-0.00189562 0.000568717 0.000568673 3.26454e-11
-0.00161965 0.00048549 0.000486067 -1.29177e-05
-0.00135451 0.000405575 0.000406685 -2.38524e-05
-0.00163053 0.000488751 0.000489336 -1.29177e-05
-0.00162509 0.000487121 0.000487701 -1.29177e-05
-0.00188927 0.000566813 0.000566769 3.25717e-11
-0.00187658 0.000563004 0.00056296 3.23841e-11
-0.00134089 0.000401505 0.000402593 -2.38524e-05
-0.00134997 0.000404219 0.000405321 -2.38524e-05
-0.00188293 0.000564908 0.000564864 3.24889e-11
-0.00160876 0.00048223 0.000482798 -1.29177e-05
-0.00134543 0.000402862 0.000403957 -2.38524e-05
-0.00161965 0.00048549 0.000486067 -1.29177e-05
-0.0016142 0.00048386 0.000484432 -1.29177e-05
-0.00187658 0.000563004 0.00056296 3.23841e-11
-0.00186388 0.000559195 0.000559151 3.20932e-11
-0.00133181 0.000398792 0.000399864 -2.38524e-05
-0.00134089 0.000401505 0.000402593 -2.38524e-05
-0.00187023 0.000561099 0.000561056 3.22393e-11
-0.00159787 0.000478969 0.000479529 -1.29177e-05
-0.00133635 0.000400149 0.000401228 -2.38524e-05
-0.00160876 0.00048223 0.000482798 -1.29177e-05
-0.00160331 0.000480599 0.000481163 -1.29177e-05
-0.00186388 0.000559195 0.000559151 3.20932e-11
-0.00185119 0.000555386 0.000555342 3.19034e-11
-0.00132273 0.000396079 0.000397136 -2.38524e-05
-0.00133181 0.000398792 0.000399864 -2.38524e-05
-0.00185753 0.00055729 0.000557247 3.19793e-11
-0.00158698 0.000475708 0.00047626 -1.29178e-05
-0.00132727 0.000397435 0.0003985 -2.38524e-05
-0.00159787 0.000478969 0.000479529 -1.29177e-05
-0.00159243 0.000477339 0.000477895 -1.29178e-05
-0.00185119 0.000555386 0.000555342 3.19034e-11
-0.00183849 0.000551577 0.000551534 3.16757e-11
-0.00131365 0.000393366 0.000394408 -2.38524e-05
-0.00132273 0.000396079 0.000397136 -2.38524e-05
-0.00184484 0.000553482 0.000553438 3.18063e-11
-0.00157609 0.000472447 0.000472992 -1.29178e-05
-0.00131819 0.000394722 0.000395772 -2.38524e-05
-0.00158698 0.000475708 0.00047626 -1.29178e-05
-0.00158154 0.000474078 0.000474626 -1.29178e-05
-0.00183849 0.000551577 0.000551534 3.16774e-11
-0.00182579 0.000547768 0.000547725 3.14393e-11
-0.00130457 0.000390652 0.00039168 -2.38524e-05
-0.00131365 0.000393366 0.000394408 -2.38524e-05
-0.00183214 0.000549673 0.000549629 3.155e-11
-0.00156521 0.000469187 0.000469723 -1.29178e-05
-0.00130911 0.000392009 0.000393044 -2.38524e-05
-0.00157609 0.000472447 0.000472992 -1.29178e-05
-0.00157065 0.000470817 0.000471357 -1.29178e-05
-0.00182579 0.000547768 0.000547725 3.14475e-11
-0.0018131 0.000543959 0.000543916 3.12286e-11
-0.00129549 0.000387939 0.000388952 -2.38524e-05
-0.00130457 0.000390652 0.00039168 -2.38524e-05
-0.00181945 0.000545864 0.000545821 3.13377e-11
-0.00155432 0.000465926 0.000466454 -1.29178e-05
-0.00130003 0.000389296 0.000390316 -2.38524e-05
-0.00156521 0.000469187 0.000469723 -1.29178e-05
-0.00155976 0.000467556 0.000468089 -1.29178e-05
-0.0018131 0.000543959 0.000543916 3.12286e-11
-0.0018004 0.000540151 0.000540108 3.10023e-11
-0.00128642 0.000385226 0.000386224 -2.38524e-05
-0.00129549 0.000387939 0.000388952 -2.38524e-05
-0.00180675 0.000542055 0.000542012 3.11006e-11
-0.00154343 0.000462665 0.000463186 -1.29178e-05
-0.00129095 0.000386582 0.000387588 -2.38524e-05
-0.00155432 0.000465926 0.000466454 -1.29178e-05
-0.00154888 0.000464296 0.00046482 -1.29178e-05
-0.0018004 0.000540151 0.000540108 3.10023e-11
-0.00178771 0.000536342 0.000536299 3.07805e-11
-0.00127734 0.000382512 0.000383496 -2.38524e-05
-0.00128642 0.000385226 0.000386224 -2.38524e-05
-0.00179405 0.000538246 0.000538203 3.08866e-11
-0.00153255 0.000459404 0.000459917 -1.29178e-05
-0.00128188 0.000383869 0.00038486 -2.38524e-05
-0.00154343 0.000462665 0.000463186 -1.29178e-05
-0.00153799 0.000461035 0.000461552 -1.29178e-05
-0.00178771 0.000536342 0.000536299 3.07821e-11
-0.00177501 0.000532533 0.000532491 3.05542e-11
-0.00126826 0.000379799 0.000380769 -2.38524e-05
-0.00127734 0.000382512 0.000383496 -2.38524e-05
-0.00178136 0.000534438 0.000534395 3.06631e-11
-0.00152166 0.000456144 0.000456649 -1.29178e-05
-0.0012728 0.000381156 0.000382133 -2.38524e-05
-0.00153255 0.000459404 0.000459917 -1.29178e-05
-0.0015271 0.000457774 0.000458283 -1.29178e-05
-0.00177501 0.000532533 0.000532491 3.05542e-11
-0.00176232 0.000528725 0.000528682 3.03416e-11
-0.00125918 0.000377085 0.000378041 -2.38524e-05
-0.00126826 0.000379799 0.000380769 -2.38524e-05
-0.00176866 0.000530629 0.000530586 3.04433e-11
-0.00151077 0.000452883 0.000453381 -1.29179e-05
-0.00126372 0.000378442 0.000379405 -2.38524e-05
-0.00152166 0.000456144 0.000456649 -1.29178e-05
-0.00151621 0.000454513 0.000455015 -1.29179e-05
-0.00176232 0.000528725 0.000528682 3.03416e-11
-0.00174962 0.000524916 0.000524874 3.01166e-11
-0.0012501 0.000374372 0.000375314 -2.38524e-05
-0.00125918 0.000377085 0.000378041 -2.38524e-05
-0.00175597 0.00052682 0.000526778 3.02172e-11
-0.00149988 0.000449622 0.000450112 -1.29179e-05
-0.00125464 0.000375729 0.000376677 -2.38524e-05
-0.00151077 0.000452883 0.000453381 -1.29179e-05
-0.00150533 0.000451253 0.000451746 -1.29179e-05
-0.00174962 0.000524916 0.000524874 3.01166e-11
-0.00173693 0.000521108 0.000521065 2.98842e-11
-0.00124103 0.000371659 0.000372586 -2.38524e-05
-0.0012501 0.000374372 0.000375314 -2.38524e-05
-0.00174327 0.000523012 0.000522969 2.99886e-11
-0.001489 0.000446362 0.000446844 -1.29179e-05
-0.00124557 0.000373015 0.00037395 -2.38524e-05
-0.00149988 0.000449622 0.000450112 -1.29179e-05
-0.00149444 0.000447992 0.000448478 -1.29179e-05
-0.00173693 0.000521108 0.000521065 2.98842e-11
-0.00172423 0.000517299 0.000517257 2.9658e-11
-0.00123195 0.000368945 0.000369859 -2.38524e-05
-0.00124103 0.000371659 0.000372586 -2.38524e-05
-0.00173058 0.000519203 0.000519161 2.97651e-11
-0.00147811 0.000443101 0.000443576 -1.29179e-05
-0.00123649 0.000370302 0.000371223 -2.38524e-05
-0.001489 0.000446362 0.000446844 -1.29179e-05
-0.00148355 0.000444731 0.00044521 -1.29179e-05
-0.00172423 0.000517299 0.000517257 2.96712e-11
-0.00171154 0.000513491 0.000513448 2.94346e-11
-0.00122287 0.000366232 0.000367132 -2.38524e-05
-0.00123195 0.000368945 0.000369859 -2.38524e-05
-0.00171788 0.000515395 0.000515353 2.95452e-11
-0.00146723 0.00043984 0.000440308 -1.29179e-05
-0.00122741 0.000367588 0.000368495 -2.38524e-05
-0.00147811 0.000443101 0.000443576 -1.29179e-05
-0.00147267 0.000441471 0.000441942 -1.29179e-05
-0.00171154 0.000513491 0.000513448 2.94346e-11
-0.00169884 0.000509682 0.00050964 2.92105e-11
-0.0012138 0.000363518 0.000364404 -2.38523e-05
-0.00122287 0.000366232 0.000367132 -2.38524e-05
-0.00170519 0.000511586 0.000511544 2.93164e-11
-0.00145634 0.00043658 0.00043704 -1.29179e-05
-0.00121833 0.000364875 0.000365768 -2.38523e-05
-0.00146723 0.00043984 0.000440308 -1.29179e-05
-0.00146178 0.00043821 0.000438674 -1.29179e-05
-0.00169884 0.000509682 0.00050964 2.92105e-11
-0.00168615 0.000505874 0.000505832 2.90009e-11
-0.00120472 0.000360805 0.000361677 -2.38523e-05
-0.0012138 0.000363518 0.000364404 -2.38523e-05
-0.0016925 0.000507778 0.000507736 2.90943e-11
-0.00144545 0.000433319 0.000433772 -1.29179e-05
-0.00120926 0.000362161 0.000363041 -2.38523e-05
-0.00145634 0.00043658 0.00043704 -1.29179e-05
-0.0014509 0.000434949 0.000435406 -1.29179e-05
-0.00168615 0.000505874 0.000505832 2.89827e-11
-0.00167345 0.000502065 0.000502024 2.87658e-11
-0.00119564 0.000358091 0.00035895 -2.38523e-05
-0.00120472 0.000360805 0.000361677 -2.38523e-05
-0.0016798 0.00050397 0.000503928 2.88644e-11
-0.00143457 0.000430058 0.000430504 -1.29179e-05
-0.00120018 0.000359448 0.000360314 -2.38523e-05
-0.00144545 0.000433319 0.000433772 -1.29179e-05
-0.00144001 0.000431689 0.000432138 -1.29179e-05
-0.00167345 0.000502065 0.000502024 2.87657e-11
-0.00166076 0.000498257 0.000498216 2.85516e-11
-0.00118657 0.000355378 0.000356223 -2.38523e-05
-0.00119564 0.000358091 0.00035895 -2.38523e-05
-0.00166711 0.000500161 0.00050012 2.86558e-11
-0.00142368 0.000426798 0.000427236 -1.29179e-05
-0.0011911 0.000356734 0.000357587 -2.38523e-05
-0.00143457 0.000430058 0.000430504 -1.29179e-05
-0.00142913 0.000428428 0.00042887 -1.29179e-05
-0.00166076 0.000498257 0.000498216 2.85516e-11
-0.00164807 0.000494449 0.000494407 2.8319e-11
-0.00117749 0.000352664 0.000353496 -2.38523e-05
-0.00118657 0.000355378 0.000356223 -2.38523e-05
-0.00165441 0.000496353 0.000496311 2.84276e-11
-0.0014128 0.000423537 0.000423968 -1.2918e-05
-0.00118203 0.000354021 0.00035486 -2.38523e-05
-0.00142368 0.000426798 0.000427236 -1.29179e-05
-0.00141824 0.000425167 0.000425602 -1.29179e-05
-0.00164807 0.000494449 0.000494407 2.8319e-11
-0.00163537 0.000490641 0.000490599 2.81018e-11
-0.00116841 0.00034995 0.00035077 -2.38523e-05
-0.00117749 0.000352664 0.000353496 -2.38523e-05
-0.00164172 0.000492545 0.000492503 2.81976e-11
-0.00140191 0.000420277 0.000420701 -1.2918e-05
-0.00117295 0.000351307 0.000352133 -2.38523e-05
-0.0014128 0.000423537 0.000423968 -1.2918e-05
-0.00140735 0.000421907 0.000422335 -1.2918e-05
-0.00163537 0.000490641 0.000490599 2.80952e-11
-0.00162268 0.000486832 0.000486791 2.78808e-11
-0.00115934 0.000347237 0.000348043 -2.38523e-05
-0.00116841 0.00034995 0.00035077 -2.38523e-05
-0.00162903 0.000488736 0.000488695 2.79764e-11
-0.00139103 0.000417016 0.000417433 -1.2918e-05
-0.00116387 0.000348594 0.000349406 -2.38523e-05
-0.00140191 0.000420277 0.000420701 -1.2918e-05
-0.00139647 0.000418646 0.000419067 -1.2918e-05
-0.00162268 0.000486832 0.000486791 2.78758e-11
-0.00160999 0.000483024 0.000482983 2.76411e-11
-0.00115026 0.000344523 0.000345316 -2.38522e-05
-0.00115934 0.000347237 0.000348043 -2.38523e-05
-0.00161633 0.000484928 0.000484887 2.77751e-11
-0.00138014 0.000413755 0.000414166 -1.2918e-05
-0.0011548 0.00034588 0.00034668 -2.38523e-05
-0.00139103 0.000417016 0.000417433 -1.2918e-05
-0.00138558 0.000415386 0.000415799 -1.2918e-05
-0.00160999 0.000483024 0.000482983 2.76411e-11
-0.00159729 0.000479216 0.000479175 2.74187e-11
-0.00114119 0.000341809 0.00034259 -2.38522e-05
-0.00115026 0.000344523 0.000345316 -2.38522e-05
-0.00160364 0.00048112 0.000481079 2.75145e-11
-0.00136926 0.000410495 0.000410898 -1.2918e-05
-0.00114572 0.000343166 0.000343953 -2.38522e-05
-0.00138014 0.000413755 0.000414166 -1.2918e-05
-0.0013747 0.000412125 0.000412532 -1.2918e-05
-0.00159729 0.000479216 0.000479175 2.74187e-11
-0.0015846 0.000475408 0.000475367 2.72115e-11
-0.00113211 0.000339096 0.000339863 -2.38522e-05
-0.00114119 0.000341809 0.00034259 -2.38522e-05
-0.00159095 0.000477312 0.000477271 2.73243e-11
-0.00135837 0.000407234 0.000407631 -1.2918e-05
-0.00113665 0.000340453 0.000341226 -2.38522e-05
-0.00136926 0.000410495 0.000410898 -1.2918e-05
-0.00136381 0.000408864 0.000409264 -1.2918e-05
-0.0015846 0.000475408 0.000475367 2.72198e-11
-0.00157191 0.0004716 0.000471559 2.69812e-11
-0.00112303 0.000336382 0.000337137 -2.38522e-05
-0.00113211 0.000339096 0.000339863 -2.38522e-05
-0.00157825 0.000473504 0.000473463 2.70893e-11
-0.00134749 0.000403974 0.000404363 -1.2918e-05
-0.00112757 0.000337739 0.0003385 -2.38522e-05
-0.00135837 0.000407234 0.000407631 -1.2918e-05
-0.00135293 0.000405604 0.000405997 -1.2918e-05
-0.00157191 0.0004716 0.000471559 2.69879e-11
-0.00155921 0.000467792 0.000467752 2.67533e-11
-0.00111396 0.000333668 0.000334411 -2.38522e-05
-0.00112303 0.000336382 0.000337137 -2.38522e-05
-0.00156556 0.000469696 0.000469655 2.68564e-11
-0.0013366 0.000400713 0.000401096 -1.2918e-05
-0.0011185 0.000335025 0.000335774 -2.38522e-05
-0.00134749 0.000403974 0.000404363 -1.2918e-05
-0.00134205 0.000402343 0.00040273 -1.2918e-05
-0.00155921 0.000467792 0.000467752 2.67533e-11
-0.00154652 0.000463984 0.000463944 2.65321e-11
-0.00110488 0.000330954 0.000331684 -2.38522e-05
-0.00111396 0.000333668 0.000334411 -2.38522e-05
-0.00155287 0.000465888 0.000465848 2.6641e-11
-0.00132572 0.000397452 0.000397829 -1.2918e-05
-0.00110942 0.000332311 0.000333047 -2.38522e-05
-0.0013366 0.000400713 0.000401096 -1.2918e-05
-0.00133116 0.000399083 0.000399462 -1.2918e-05
-0.00154652 0.000463984 0.000463944 2.65321e-11
-0.00153383 0.000460176 0.000460136 2.63102e-11
-0.00109581 0.000328241 0.000328958 -2.38521e-05
-0.00110488 0.000330954 0.000331684 -2.38522e-05
-0.00154017 0.00046208 0.00046204 2.64156e-11
-0.00131484 0.000394192 0.000394561 -1.2918e-05
-0.00110035 0.000329598 0.000330321 -2.38522e-05
-0.00132572 0.000397452 0.000397829 -1.2918e-05
-0.00132028 0.000395822 0.000396195 -1.2918e-05
-0.00153383 0.000460176 0.000460136 2.62986e-11
-0.00152113 0.000456368 0.000456328 2.60777e-11
-0.00108674 0.000325527 0.000326232 -2.38521e-05
-0.00109581 0.000328241 0.000328958 -2.38521e-05
-0.00152748 0.000458272 0.000458232 2.61921e-11
-0.00130395 0.000390931 0.000391294 -1.2918e-05
-0.00109127 0.000326884 0.000327595 -2.38521e-05
-0.00131484 0.000394192 0.000394561 -1.2918e-05
-0.00130939 0.000392562 0.000392928 -1.2918e-05
-0.00152113 0.000456368 0.000456328 2.60709e-11
-0.00150844 0.000452561 0.000452521 2.5869e-11
-0.00107766 0.000322813 0.000323506 -2.38521e-05
-0.00108674 0.000325527 0.000326232 -2.38521e-05
-0.00151479 0.000454465 0.000454424 2.59679e-11
-0.00129307 0.000387671 0.000388027 -1.2918e-05
-0.0010822 0.00032417 0.000324869 -2.38521e-05
-0.00130395 0.000390931 0.000391294 -1.2918e-05
-0.00129851 0.000389301 0.000389661 -1.2918e-05
-0.00150844 0.000452561 0.000452521 2.5869e-11
-0.00149575 0.000448753 0.000448713 2.56482e-11
-0.00106859 0.000320099 0.00032078 -2.38521e-05
-0.00107766 0.000322813 0.000323506 -2.38521e-05
-0.0015021 0.000450657 0.000450617 2.57407e-11
-0.00128218 0.00038441 0.00038476 -1.2918e-05
-0.00107312 0.000321456 0.000322143 -2.38521e-05
-0.00129307 0.000387671 0.000388027 -1.2918e-05
-0.00128763 0.000386041 0.000386394 -1.2918e-05
-0.00149575 0.000448753 0.000448713 2.56482e-11
-0.00148306 0.000444945 0.000444905 2.54121e-11
-0.00105951 0.000317385 0.000318054 -2.38521e-05
-0.00106859 0.000320099 0.00032078 -2.38521e-05
-0.0014894 0.000446849 0.000446809 2.55255e-11
-0.0012713 0.00038115 0.000381493 -1.2918e-05
-0.00106405 0.000318742 0.000319417 -2.38521e-05
-0.00128218 0.00038441 0.00038476 -1.2918e-05
-0.00127674 0.00038278 0.000383127 -1.2918e-05
-0.00148306 0.000444945 0.000444905 2.54121e-11
-0.00147037 0.000441138 0.000441098 2.51917e-11
-0.00105044 0.000314672 0.000315329 -2.38521e-05
-0.00105951 0.000317385 0.000318054 -2.38521e-05
-0.00147671 0.000443041 0.000443002 2.53211e-11
-0.00126042 0.000377889 0.000378226 -1.2918e-05
-0.00105498 0.000316029 0.000316692 -2.38521e-05
-0.0012713 0.00038115 0.000381493 -1.2918e-05
-0.00126586 0.00037952 0.00037986 -1.2918e-05
-0.00147037 0.000441138 0.000441098 2.51935e-11
-0.00145767 0.00043733 0.00043729 2.49722e-11
-0.00104136 0.000311958 0.000312603 -2.3852e-05
-0.00105044 0.000314672 0.000315329 -2.38521e-05
-0.00146402 0.000439234 0.000439194 2.50901e-11
-0.00124953 0.000374629 0.00037496 -1.2918e-05
-0.0010459 0.000313315 0.000313966 -2.3852e-05
-0.00126042 0.000377889 0.000378226 -1.2918e-05
-0.00125498 0.000376259 0.000376593 -1.2918e-05
-0.00145767 0.00043733 0.00043729 2.49722e-11
-0.00144498 0.000433522 0.000433483 2.47571e-11
-0.00103229 0.000309244 0.000309877 -2.3852e-05
-0.00104136 0.000311958 0.000312603 -2.3852e-05
-0.00145133 0.000435426 0.000435387 2.48709e-11
-0.00123865 0.000371368 0.000371693 -1.29181e-05
-0.00103683 0.000310601 0.00031124 -2.3852e-05
-0.00124953 0.000374629 0.00037496 -1.2918e-05
-0.00124409 0.000372999 0.000373326 -1.2918e-05
-0.00144498 0.000433522 0.000433483 2.47571e-11
-0.00143229 0.000429715 0.000429675 2.45557e-11
-0.00102322 0.00030653 0.000307152 -2.3852e-05
-0.00103229 0.000309244 0.000309877 -2.3852e-05
-0.00143864 0.000431619 0.000431579 2.46534e-11
-0.00122777 0.000368108 0.000368426 -1.29181e-05
-0.00102775 0.000307887 0.000308515 -2.3852e-05
-0.00123865 0.000371368 0.000371693 -1.29181e-05
-0.00123321 0.000369738 0.00037006 -1.29181e-05
-0.00143229 0.000429715 0.000429675 2.4544e-11
-0.0014196 0.000425907 0.000425868 2.43177e-11
-0.00101414 0.000303816 0.000304427 -2.3852e-05
-0.00102322 0.00030653 0.000307152 -2.3852e-05
-0.00142595 0.000427811 0.000427772 2.44276e-11
-0.00121689 0.000364847 0.00036516 -1.29181e-05
-0.00101868 0.000305173 0.000305789 -2.3852e-05
-0.00122777 0.000368108 0.000368426 -1.29181e-05
-0.00122233 0.000366478 0.000366793 -1.29181e-05
-0.0014196 0.000425907 0.000425868 2.43128e-11
-0.00140691 0.0004221 0.000422061 2.41008e-11
-0.00100507 0.000301102 0.000301701 -2.3852e-05
-0.00101414 0.000303816 0.000304427 -2.3852e-05
-0.00141325 0.000424004 0.000423964 2.42258e-11
-0.001206 0.000361587 0.000361893 -1.29181e-05
-0.00100961 0.000302459 0.000303064 -2.3852e-05
-0.00121689 0.000364847 0.00036516 -1.29181e-05
-0.00121145 0.000363217 0.000363526 -1.29181e-05
-0.00140691 0.0004221 0.000422061 2.41008e-11
-0.00139422 0.000418292 0.000418253 2.3885e-11
-0.000995999 0.000298388 0.000298976 -2.38519e-05
-0.00100507 0.000301102 0.000301701 -2.3852e-05
-0.00140056 0.000420196 0.000420157 2.39946e-11
-0.00119512 0.000358326 0.000358627 -1.29181e-05
-0.00100053 0.000299745 0.000300339 -2.38519e-05
-0.001206 0.000361587 0.000361893 -1.29181e-05
-0.00120056 0.000359957 0.00036026 -1.29181e-05
-0.00139422 0.000418292 0.000418253 2.3885e-11
-0.00138153 0.000414485 0.000414446 2.36552e-11
-0.000986926 0.000295674 0.000296251 -2.38519e-05
-0.000995999 0.000298388 0.000298976 -2.38519e-05
-0.00138787 0.000416389 0.00041635 2.37415e-11
-0.00118424 0.000355066 0.00035536 -1.29181e-05
-0.000991462 0.000297031 0.000297613 -2.38519e-05
-0.00119512 0.000358326 0.000358627 -1.29181e-05
-0.00118968 0.000356696 0.000356993 -1.29181e-05
-0.00138153 0.000414485 0.000414446 2.36436e-11
-0.00136884 0.000410678 0.000410639 2.34283e-11
-0.000977853 0.00029296 0.000293526 -2.38519e-05
-0.000986926 0.000295674 0.000296251 -2.38519e-05
-0.00137518 0.000412581 0.000412543 2.35286e-11
-0.00117336 0.000351806 0.000352094 -1.29181e-05
-0.00098239 0.000294317 0.000294888 -2.38519e-05
-0.00118424 0.000355066 0.00035536 -1.29181e-05
-0.0011788 0.000353436 0.000353727 -1.29181e-05
-0.00136884 0.000410678 0.000410639 2.34431e-11
-0.00135614 0.00040687 0.000406832 2.32193e-11
-0.000968781 0.000290246 0.000290801 -2.38519e-05
-0.000977853 0.00029296 0.000293526 -2.38519e-05
-0.00136249 0.000408774 0.000408735 2.33339e-11
-0.00116248 0.000348545 0.000348828 -1.29181e-05
-0.000973317 0.000291603 0.000292163 -2.38519e-05
-0.00117336 0.000351806 0.000352094 -1.29181e-05
-0.00116792 0.000350175 0.000350461 -1.29181e-05
-0.00135614 0.00040687 0.000406832 2.32193e-11
-0.00134345 0.000403063 0.000403025 2.29815e-11
-0.000959709 0.000287532 0.000288076 -2.38519e-05
-0.000968781 0.000290246 0.000290801 -2.38519e-05
-0.0013498 0.000404967 0.000404928 2.31094e-11
-0.00115159 0.000345285 0.000345561 -1.29181e-05
-0.000964245 0.000288889 0.000289438 -2.38519e-05
-0.00116248 0.000348545 0.000348828 -1.29181e-05
-0.00115704 0.000346915 0.000347194 -1.29181e-05
-0.00134345 0.000403063 0.000403025 2.29815e-11
-0.00133076 0.000399256 0.000399218 2.27664e-11
-0.000950637 0.000284818 0.000285351 -2.38518e-05
-0.000959709 0.000287532 0.000288076 -2.38519e-05
-0.00133711 0.00040116 0.000401121 2.29007e-11
-0.00114071 0.000342024 0.000342295 -1.29181e-05
-0.000955173 0.000286175 0.000286713 -2.38519e-05
-0.00115159 0.000345285 0.000345561 -1.29181e-05
-0.00114615 0.000343654 0.000343928 -1.29181e-05
-0.00133076 0.000399256 0.000399218 2.27664e-11
-0.00131807 0.000395449 0.000395411 2.25389e-11
-0.000941565 0.000282104 0.000282626 -2.38518e-05
-0.000950637 0.000284818 0.000285351 -2.38518e-05
-0.00132442 0.000397352 0.000397314 2.26502e-11
-0.00112983 0.000338764 0.000339029 -1.29181e-05
-0.000946101 0.000283461 0.000283989 -2.38518e-05
-0.00114071 0.000342024 0.000342295 -1.29181e-05
-0.00113527 0.000340394 0.000340662 -1.29181e-05
-0.00131807 0.000395449 0.000395411 2.25521e-11
-0.00130538 0.000391642 0.000391604 2.2316e-11
-0.000932493 0.000279389 0.000279902 -2.38518e-05
-0.000941565 0.000282104 0.000282626 -2.38518e-05
-0.00131173 0.000393545 0.000393507 2.24547e-11
-0.00111895 0.000335503 0.000335763 -1.29181e-05
-0.000937029 0.000280747 0.000281264 -2.38518e-05
-0.00112983 0.000338764 0.000339029 -1.29181e-05
-0.00112439 0.000337134 0.000337396 -1.29181e-05
-0.00130538 0.000391642 0.000391604 2.2316e-11
-0.00129269 0.000387835 0.000387797 2.21293e-11
-0.000923422 0.000276675 0.000277177 -2.38518e-05
-0.000932493 0.000279389 0.000279902 -2.38518e-05
-0.00129904 0.000389738 0.0003897 2.22031e-11
-0.00110807 0.000332243 0.000332497 -1.29181e-05
-0.000927957 0.000278032 0.000278539 -2.38518e-05
-0.00111895 0.000335503 0.000335763 -1.29181e-05
-0.00111351 0.000333873 0.00033413 -1.29181e-05
-0.00129269 0.000387835 0.000387797 2.21293e-11
-0.00128 0.000384028 0.00038399 2.18789e-11
-0.00091435 0.000273961 0.000274452 -2.38518e-05
-0.000923422 0.000276675 0.000277177 -2.38518e-05
-0.00128635 0.000385931 0.000385893 2.20036e-11
-0.00109719 0.000328983 0.000329231 -1.29181e-05
-0.000918886 0.000275318 0.000275815 -2.38518e-05
-0.00110807 0.000332243 0.000332497 -1.29181e-05
-0.00110263 0.000330613 0.000330864 -1.29181e-05
-0.00128 0.000384028 0.00038399 2.18674e-11
-0.00126731 0.000380221 0.000380183 2.16452e-11
-0.000905279 0.000271247 0.000271728 -2.38518e-05
-0.00091435 0.000273961 0.000274452 -2.38518e-05
-0.00127366 0.000382124 0.000382086 2.17599e-11
-0.00108631 0.000325722 0.000325965 -1.29181e-05
-0.000909815 0.000272604 0.00027309 -2.38518e-05
-0.00109719 0.000328983 0.000329231 -1.29181e-05
-0.00109175 0.000327353 0.000327598 -1.29181e-05
-0.00126731 0.000380221 0.000380183 2.16535e-11
-0.00125462 0.000376414 0.000376376 2.14262e-11
-0.000896208 0.000268533 0.000269004 -2.38517e-05
-0.000905279 0.000271247 0.000271728 -2.38518e-05
-0.00126097 0.000378317 0.000378279 2.15311e-11
-0.00107543 0.000322462 0.0003227 -1.29181e-05
-0.000900744 0.00026989 0.000270366 -2.38518e-05
-0.00108631 0.000325722 0.000325965 -1.29181e-05
-0.00108087 0.000324092 0.000324332 -1.29181e-05
-0.00125462 0.000376414 0.000376376 2.14262e-11
-0.00124193 0.000372607 0.000372569 2.12256e-11
-0.000887137 0.000265818 0.000266279 -2.38517e-05
-0.000896208 0.000268533 0.000269004 -2.38517e-05
-0.00124828 0.00037451 0.000374473 2.13153e-11
-0.00106455 0.000319202 0.000319434 -1.29182e-05
-0.000891673 0.000267176 0.000267642 -2.38517e-05
-0.00107543 0.000322462 0.0003227 -1.29181e-05
-0.00106999 0.000320832 0.000321067 -1.29181e-05
-0.00124193 0.000372607 0.000372569 2.12256e-11
-0.00122925 0.0003688 0.000368762 2.09815e-11
-0.000878067 0.000263104 0.000263555 -2.38517e-05
-0.000887137 0.000265818 0.000266279 -2.38517e-05
-0.00123559 0.000370703 0.000370666 2.11109e-11
-0.00105367 0.000315941 0.000316168 -1.29182e-05
-0.000882602 0.000264461 0.000264917 -2.38517e-05
-0.00106455 0.000319202 0.000319434 -1.29182e-05
-0.00105911 0.000317571 0.000317801 -1.29182e-05
-0.00122925 0.0003688 0.000368762 2.10045e-11
-0.00121656 0.000364993 0.000364956 2.07809e-11
-0.000868996 0.00026039 0.000260831 -2.38517e-05
-0.000878067 0.000263104 0.000263555 -2.38517e-05
-0.0012229 0.000366896 0.000366859 2.08919e-11
-0.00104279 0.000312681 0.000312903 -1.29182e-05
-0.000873531 0.000261747 0.000262193 -2.38517e-05
-0.00105367 0.000315941 0.000316168 -1.29182e-05
-0.00104823 0.000314311 0.000314535 -1.29182e-05
-0.00121656 0.000364993 0.000364956 2.07808e-11
-0.00120387 0.000361186 0.000361149 2.0541e-11
-0.000859926 0.000257676 0.000258107 -2.38517e-05
-0.000868996 0.00026039 0.000260831 -2.38517e-05
-0.00121021 0.00036309 0.000363052 2.0653e-11
-0.00103191 0.000309421 0.000309637 -1.29182e-05
-0.000864461 0.000259033 0.000259469 -2.38517e-05
-0.00104279 0.000312681 0.000312903 -1.29182e-05
-0.00103735 0.000311051 0.00031127 -1.29182e-05
-0.00120387 0.000361186 0.000361149 2.0541e-11
-0.00119118 0.000357379 0.000357342 2.03404e-11
-0.000850856 0.000254961 0.000255383 -2.38517e-05
-0.000859926 0.000257676 0.000258107 -2.38517e-05
-0.00119752 0.000359283 0.000359246 2.0425e-11
-0.00102103 0.00030616 0.000306372 -1.29182e-05
-0.000855391 0.000256318 0.000256745 -2.38517e-05
-0.00103191 0.000309421 0.000309637 -1.29182e-05
-0.00102647 0.00030779 0.000308004 -1.29182e-05
-0.00119118 0.000357379 0.000357342 2.03404e-11
-0.00117849 0.000353573 0.000353536 2.01191e-11
-0.000841786 0.000252247 0.000252659 -2.38517e-05
-0.000850856 0.000254961 0.000255383 -2.38517e-05
-0.00118483 0.000355476 0.000355439 2.02224e-11
-0.00101015 0.0003029 0.000303106 -1.29182e-05
-0.000846321 0.000253604 0.000254021 -2.38517e-05
-0.00102103 0.00030616 0.000306372 -1.29182e-05
-0.00101559 0.00030453 0.000304739 -1.29182e-05
-0.00117849 0.000353573 0.000353536 2.01191e-11
-0.0011658 0.000349766 0.000349729 1.98917e-11
-0.000832716 0.000249533 0.000249936 -2.38517e-05
-0.000841786 0.000252247 0.000252659 -2.38517e-05
-0.00117215 0.000351669 0.000351633 1.99976e-11
-0.000999268 0.00029964 0.000299841 -1.29182e-05
-0.000837251 0.00025089 0.000251298 -2.38517e-05
-0.00101015 0.0003029 0.000303106 -1.29182e-05
-0.00100471 0.00030127 0.000301473 -1.29182e-05
-0.0011658 0.000349766 0.000349729 1.99049e-11
-0.00115311 0.000345959 0.000345923 1.96764e-11
-0.000823646 0.000246818 0.000247212 -2.38516e-05
-0.000832716 0.000249533 0.000249936 -2.38517e-05
-0.00115946 0.000347863 0.000347826 1.97651e-11
-0.000988389 0.000296379 0.000296576 -1.29182e-05
-0.000828181 0.000248175 0.000248574 -2.38517e-05
-0.000999268 0.00029964 0.000299841 -1.29182e-05
-0.000993829 0.00029801 0.000298208 -1.29182e-05
-0.00115311 0.000345959 0.000345923 1.96764e-11
-0.00114042 0.000342153 0.000342116 1.94609e-11
-0.000814577 0.000244104 0.000244488 -2.38516e-05
-0.000823646 0.000246818 0.000247212 -2.38516e-05
-0.00114677 0.000344056 0.00034402 1.95618e-11
-0.00097751 0.000293119 0.00029331 -1.29182e-05
-0.000819111 0.000245461 0.00024585 -2.38516e-05
-0.000988389 0.000296379 0.000296576 -1.29182e-05
-0.000982949 0.000294749 0.000294943 -1.29182e-05
-0.00114042 0.000342153 0.000342116 1.94609e-11
-0.00112774 0.000338346 0.00033831 1.92292e-11
-0.000805507 0.000241389 0.000241765 -2.38516e-05
-0.000814577 0.000244104 0.000244488 -2.38516e-05
-0.00113408 0.00034025 0.000340213 1.93333e-11
-0.000966631 0.000289859 0.000290045 -1.29182e-05
-0.000810042 0.000242747 0.000243127 -2.38516e-05
-0.00097751 0.000293119 0.00029331 -1.29182e-05
-0.00097207 0.000291489 0.000291678 -1.29182e-05
-0.00112774 0.000338346 0.00033831 1.92393e-11
-0.00111505 0.00033454 0.000334504 1.90341e-11
-0.000796438 0.000238675 0.000239041 -2.38516e-05
-0.000805507 0.000241389 0.000241765 -2.38516e-05
-0.00112139 0.000336443 0.000336407 1.91302e-11
-0.000955752 0.000286599 0.00028678 -1.29182e-05
-0.000800973 0.000240032 0.000240403 -2.38516e-05
-0.000966631 0.000289859 0.000290045 -1.29182e-05
-0.000961192 0.000288229 0.000288413 -1.29182e-05
-0.00111505 0.00033454 0.000334504 1.90341e-11
-0.00110236 0.000330733 0.000330697 1.87995e-11
-0.000787369 0.00023596 0.000236318 -2.38516e-05
-0.000796438 0.000238675 0.000239041 -2.38516e-05
-0.0011087 0.000332637 0.0003326 1.89293e-11
-0.000944874 0.000283338 0.000283515 -1.29183e-05
-0.000791904 0.000237318 0.00023768 -2.38516e-05
-0.000955752 0.000286599 0.00028678 -1.29182e-05
-0.000950313 0.000284968 0.000285148 -1.29183e-05
-0.00110236 0.000330733 0.000330697 1.87995e-11
-0.00108967 0.000326927 0.000326891 1.85797e-11
-0.0007783 0.000233246 0.000233595 -2.38516e-05
-0.000787369 0.00023596 0.000236318 -2.38516e-05
-0.00109602 0.00032883 0.000328794 1.86849e-11
-0.000933995 0.000280078 0.00028025 -1.29183e-05
-0.000782835 0.000234603 0.000234956 -2.38516e-05
-0.000944874 0.000283338 0.000283515 -1.29183e-05
-0.000939434 0.000281708 0.000281883 -1.29183e-05
-0.00108967 0.000326927 0.000326891 1.85797e-11
-0.00107698 0.000323121 0.000323085 1.83479e-11
-0.000769232 0.000230531 0.000230872 -2.38516e-05
-0.0007783 0.000233246 0.000233595 -2.38516e-05
-0.00108333 0.000325024 0.000324988 1.84504e-11
-0.000923117 0.000276818 0.000276985 -1.29183e-05
-0.000773766 0.000231889 0.000232233 -2.38516e-05
-0.000933995 0.000280078 0.00028025 -1.29183e-05
-0.000928556 0.000278448 0.000278618 -1.29183e-05
-0.00107698 0.000323121 0.000323085 1.83479e-11
-0.0010643 0.000319314 0.000319279 1.81455e-11
-0.000760163 0.000227817 0.000228148 -2.38516e-05
-0.000769232 0.000230531 0.000230872 -2.38516e-05
-0.00107064 0.000321217 0.000321182 1.82398e-11
-0.000912239 0.000273558 0.00027372 -1.29183e-05
-0.000764697 0.000229174 0.00022951 -2.38516e-05
-0.000923117 0.000276818 0.000276985 -1.29183e-05
-0.000917678 0.000275188 0.000275353 -1.29183e-05
-0.0010643 0.000319314 0.000319279 1.81388e-11
-0.00105161 0.000315508 0.000315472 1.79465e-11
-0.000751095 0.000225102 0.000225425 -2.38516e-05
-0.000760163 0.000227817 0.000228148 -2.38516e-05
-0.00105795 0.000317411 0.000317375 1.80318e-11
-0.000901361 0.000270297 0.000270456 -1.29183e-05
-0.000755629 0.00022646 0.000226787 -2.38516e-05
-0.000912239 0.000273558 0.00027372 -1.29183e-05
-0.0009068 0.000271927 0.000272088 -1.29183e-05
-0.00105161 0.000315508 0.000315472 1.79465e-11
-0.00103892 0.000311702 0.000311666 1.77048e-11
-0.000742027 0.000222388 0.000222702 -2.38516e-05
-0.000751095 0.000225102 0.000225425 -2.38516e-05
-0.00104527 0.000313605 0.000313569 1.78122e-11
-0.000890483 0.000267037 0.000267191 -1.29183e-05
-0.000746561 0.000223745 0.000224064 -2.38516e-05
-0.000901361 0.000270297 0.000270456 -1.29183e-05
-0.000895922 0.000268667 0.000268823 -1.29183e-05
-0.00103892 0.000311702 0.000311666 1.77048e-11
-0.00102624 0.000307895 0.00030786 1.74901e-11
-0.000732959 0.000219673 0.00021998 -2.38516e-05
-0.000742027 0.000222388 0.000222702 -2.38516e-05
-0.00103258 0.000309799 0.000309763 1.75993e-11
-0.000879605 0.000263777 0.000263926 -1.29183e-05
-0.000737493 0.00022103 0.000221341 -2.38516e-05
-0.000890483 0.000267037 0.000267191 -1.29183e-05
-0.000885044 0.000265407 0.000265559 -1.29183e-05
-0.00102624 0.000307895 0.00030786 1.75167e-11
-0.00101355 0.000304089 0.000304054 1.72663e-11
-0.000723891 0.000216959 0.000217257 -2.38516e-05
-0.000732959 0.000219673 0.00021998 -2.38516e-05
-0.00101989 0.000305992 0.000305957 1.73749e-11
-0.000868727 0.000260517 0.000260662 -1.29184e-05
-0.000728425 0.000218316 0.000218618 -2.38516e-05
-0.000879605 0.000263777 0.000263926 -1.29183e-05
-0.000874166 0.000262147 0.000262294 -1.29184e-05
-0.00101355 0.000304089 0.000304054 1.72664e-11
-0.00100086 0.000300283 0.000300248 1.70202e-11
-0.000714823 0.000214244 0.000214534 -2.38516e-05
-0.000723891 0.000216959 0.000217257 -2.38516e-05
-0.00100721 0.000302186 0.000302151 1.71494e-11
-0.00085785 0.000257256 0.000257397 -1.29184e-05
-0.000719357 0.000215601 0.000215895 -2.38516e-05
-0.000868727 0.000260517 0.000260662 -1.29184e-05
-0.000863289 0.000258886 0.000259029 -1.29184e-05
-0.00100086 0.000300283 0.000300248 1.70202e-11
-0.000988175 0.000296477 0.000296442 1.68266e-11
-0.000705756 0.000211529 0.000211811 -2.38516e-05
-0.000714823 0.000214244 0.000214534 -2.38516e-05
-0.000994518 0.00029838 0.000298345 1.69331e-11
-0.000846973 0.000253996 0.000254133 -1.29184e-05
-0.00071029 0.000212887 0.000213173 -2.38516e-05
-0.00085785 0.000257256 0.000257397 -1.29184e-05
-0.000852411 0.000255626 0.000255765 -1.29184e-05
-0.000988175 0.000296477 0.000296442 1.68266e-11
-0.000975489 0.000292671 0.000292636 1.66004e-11
-0.000696689 0.000208815 0.000209089 -2.38516e-05
-0.000705756 0.000211529 0.000211811 -2.38516e-05
-0.000981832 0.000294574 0.000294539 1.66959e-11
-0.000836095 0.000250736 0.000250868 -1.29184e-05
-0.000701222 0.000210172 0.00021045 -2.38516e-05
-0.000846973 0.000253996 0.000254133 -1.29184e-05
-0.000841534 0.000252366 0.000252501 -1.29184e-05
-0.000975489 0.000292671 0.000292636 1.66001e-11
-0.000962802 0.000288865 0.00028883 1.63775e-11
-0.000687621 0.0002061 0.000206366 -2.38516e-05
-0.000696689 0.000208815 0.000209089 -2.38516e-05
-0.000969145 0.000290768 0.000290733 1.64982e-11
-0.000825218 0.000247476 0.000247604 -1.29184e-05
-0.000692155 0.000207457 0.000207728 -2.38516e-05
-0.000836095 0.000250736 0.000250868 -1.29184e-05
-0.000830657 0.000249106 0.000249236 -1.29184e-05
-0.000962802 0.000288865 0.00028883 1.64138e-11
-0.000950116 0.000285059 0.000285024 1.61504e-11
-0.000678554 0.000203385 0.000203644 -2.38516e-05
-0.000687621 0.0002061 0.000206366 -2.38516e-05
-0.000956459 0.000286962 0.000286927 1.62976e-11
-0.000814342 0.000244216 0.00024434 -1.29184e-05
-0.000683088 0.000204742 0.000205005 -2.38516e-05
-0.000825218 0.000247476 0.000247604 -1.29184e-05
-0.00081978 0.000245846 0.000245972 -1.29184e-05
-0.000950116 0.000285059 0.000285024 1.61504e-11
-0.00093743 0.000281253 0.000281219 1.59465e-11
-0.000669488 0.00020067 0.000200922 -2.38516e-05
-0.000678554 0.000203385 0.000203644 -2.38516e-05
-0.000943773 0.000283156 0.000283122 1.60731e-11
-0.000803465 0.000240955 0.000241076 -1.29185e-05
-0.000674021 0.000202028 0.000202283 -2.38516e-05
-0.000814342 0.000244216 0.00024434 -1.29184e-05
-0.000808903 0.000242585 0.000242708 -1.29185e-05
-0.00093743 0.000281253 0.000281219 1.59465e-11
-0.000924744 0.000277447 0.000277413 1.57086e-11
-0.000660421 0.000197955 0.000198199 -2.38516e-05
-0.000669488 0.00020067 0.000200922 -2.38516e-05
-0.000931087 0.00027935 0.000279316 1.58211e-11
-0.000792588 0.000237695 0.000237811 -1.29185e-05
-0.000664954 0.000199313 0.000199561 -2.38516e-05
-0.000803465 0.000240955 0.000241076 -1.29185e-05
-0.000798027 0.000239325 0.000239443 -1.29185e-05
-0.000924744 0.000277447 0.000277413 1.57086e-11
-0.000912058 0.000273641 0.000273607 1.55184e-11
-0.000651354 0.000195241 0.000195477 -2.38516e-05
-0.000660421 0.000197955 0.000198199 -2.38516e-05
-0.000918401 0.000275544 0.00027551 1.56139e-11
-0.000781712 0.000234435 0.000234547 -1.29185e-05
-0.000655888 0.000196598 0.000196838 -2.38516e-05
-0.000792588 0.000237695 0.000237811 -1.29185e-05
-0.00078715 0.000236065 0.000236179 -1.29185e-05
-0.000912058 0.000273641 0.000273607 1.55185e-11
-0.000899372 0.000269835 0.000269801 1.52665e-11
-0.000642288 0.000192526 0.000192755 -2.38516e-05
-0.000651354 0.000195241 0.000195477 -2.38516e-05
-0.000905715 0.000271738 0.000271704 1.5386e-11
-0.000770836 0.000231175 0.000231283 -1.29185e-05
-0.000646821 0.000193883 0.000194116 -2.38516e-05
-0.000781712 0.000234435 0.000234547 -1.29185e-05
-0.000776274 0.000232805 0.000232915 -1.29185e-05
-0.000899372 0.000269835 0.000269801 1.52665e-11
-0.000886686 0.000266029 0.000265996 1.50712e-11
-0.000633222 0.000189811 0.000190033 -2.38517e-05
-0.000642288 0.000192526 0.000192755 -2.38516e-05
-0.000893029 0.000267932 0.000267899 1.51663e-11
-0.00075996 0.000227915 0.000228019 -1.29185e-05
-0.000637755 0.000191168 0.000191394 -2.38516e-05
-0.000770836 0.000231175 0.000231283 -1.29185e-05
-0.000765398 0.000229545 0.000229651 -1.29185e-05
-0.000886686 0.000266029 0.000265996 1.50712e-11
-0.000874001 0.000262224 0.00026219 1.48449e-11
-0.000624156 0.000187096 0.000187311 -2.38517e-05
-0.000633222 0.000189811 0.000190033 -2.38517e-05
-0.000880343 0.000264127 0.000264093 1.49597e-11
-0.000749084 0.000224654 0.000224755 -1.29186e-05
-0.000628689 0.000188454 0.000188672 -2.38517e-05
-0.00075996 0.000227915 0.000228019 -1.29185e-05
-0.000754522 0.000226285 0.000226387 -1.29186e-05
-0.000874001 0.000262224 0.00026219 1.48449e-11
-0.000861315 0.000258418 0.000258385 1.4657e-11
-0.00061509 0.000184381 0.000184589 -2.38517e-05
-0.000624156 0.000187096 0.000187311 -2.38517e-05
-0.000867658 0.000260321 0.000260287 1.47551e-11
-0.000738208 0.000221394 0.000221492 -1.29186e-05
-0.000619623 0.000185739 0.00018595 -2.38517e-05
-0.000749084 0.000224654 0.000224755 -1.29186e-05
-0.000743646 0.000223024 0.000223123 -1.29186e-05
-0.000861315 0.000258418 0.000258385 1.46437e-11
-0.00084863 0.000254612 0.000254579 1.44275e-11
-0.000606024 0.000181666 0.000181868 -2.38517e-05
-0.00061509 0.000184381 0.000184589 -2.38517e-05
-0.000854972 0.000256515 0.000256482 1.45304e-11
-0.000727332 0.000218134 0.000218228 -1.29186e-05
-0.000610557 0.000183024 0.000183229 -2.38517e-05
-0.000738208 0.000221394 0.000221492 -1.29186e-05
-0.00073277 0.000219764 0.00021986 -1.29186e-05
-0.00084863 0.000254612 0.000254579 1.44275e-11
-0.000835945 0.000250807 0.000250773 1.41953e-11
-0.000596959 0.000178951 0.000179146 -2.38517e-05
-0.000606024 0.000181666 0.000181868 -2.38517e-05
-0.000842287 0.000252709 0.000252676 1.42889e-11
-0.000716457 0.000214874 0.000214964 -1.29186e-05
-0.000601491 0.000180309 0.000180507 -2.38517e-05
-0.000727332 0.000218134 0.000218228 -1.29186e-05
-0.000721894 0.000216504 0.000216596 -1.29186e-05
-0.000835945 0.000250807 0.000250773 1.41953e-11
-0.00082326 0.000247001 0.000246968 1.39946e-11
-0.000587893 0.000176236 0.000176424 -2.38517e-05
-0.000596959 0.000178951 0.000179146 -2.38517e-05
-0.000829602 0.000248904 0.000248871 1.40802e-11
-0.000705581 0.000211614 0.0002117 -1.29187e-05
-0.000592426 0.000177594 0.000177785 -2.38517e-05
-0.000716457 0.000214874 0.000214964 -1.29186e-05
-0.000711019 0.000213244 0.000213332 -1.29187e-05
-0.00082326 0.000247001 0.000246968 1.39915e-11
-0.000810575 0.000243195 0.000243163 1.37461e-11
-0.000578828 0.000173521 0.000173703 -2.38518e-05
-0.000587893 0.000176236 0.000176424 -2.38517e-05
-0.000816917 0.000245098 0.000245065 1.38936e-11
-0.000694706 0.000208354 0.000208437 -1.29187e-05
-0.000583361 0.000174879 0.000175064 -2.38517e-05
-0.000705581 0.000211614 0.0002117 -1.29187e-05
-0.000700144 0.000209984 0.000210069 -1.29187e-05
-0.000810575 0.000243195 0.000243163 1.37461e-11
-0.00079789 0.00023939 0.000239357 1.35535e-11
-0.000569763 0.000170806 0.000170981 -2.38518e-05
-0.000578828 0.000173521 0.000173703 -2.38518e-05
-0.000804232 0.000241292 0.00024126 1.36507e-11
-0.000683831 0.000205093 0.000205173 -1.29187e-05
-0.000574295 0.000172164 0.000172342 -2.38518e-05
-0.000694706 0.000208354 0.000208437 -1.29187e-05
-0.000689268 0.000206724 0.000206805 -1.29187e-05
-0.00079789 0.00023939 0.000239357 1.35535e-11
-0.000785205 0.000235584 0.000235552 1.33086e-11
-0.000560698 0.000168091 0.00016826 -2.38518e-05
-0.000569763 0.000170806 0.000170981 -2.38518e-05
-0.000791547 0.000237487 0.000237454 1.3443e-11
-0.000672956 0.000201833 0.00020191 -1.29188e-05
-0.00056523 0.000169449 0.000169621 -2.38518e-05
-0.000683831 0.000205093 0.000205173 -1.29187e-05
-0.000678393 0.000203463 0.000203541 -1.29187e-05
-0.000785205 0.000235584 0.000235552 1.33086e-11
-0.00077252 0.000231779 0.000231746 1.31021e-11
-0.000551633 0.000165376 0.000165539 -2.38518e-05
-0.000560698 0.000168091 0.00016826 -2.38518e-05
-0.000778863 0.000233681 0.000233649 1.32265e-11
-0.000662081 0.000198573 0.000198646 -1.29188e-05
-0.000556166 0.000166734 0.000166899 -2.38518e-05
-0.000672956 0.000201833 0.00020191 -1.29188e-05
-0.000667519 0.000200203 0.000200278 -1.29188e-05
-0.00077252 0.000231779 0.000231746 1.31024e-11
-0.000759836 0.000227973 0.000227941 1.29055e-11
-0.000542569 0.000162661 0.000162818 -2.38519e-05
-0.000551633 0.000165376 0.000165539 -2.38518e-05
-0.000766178 0.000229876 0.000229844 1.30024e-11
-0.000651206 0.000195313 0.000195383 -1.29188e-05
-0.000547101 0.000164018 0.000164178 -2.38518e-05
-0.000662081 0.000198573 0.000198646 -1.29188e-05
-0.000656644 0.000196943 0.000197015 -1.29188e-05
-0.000759836 0.000227973 0.000227941 1.29284e-11
-0.000747152 0.000224168 0.000224136 1.27133e-11
-0.000533504 0.000159946 0.000160096 -2.38519e-05
-0.000542569 0.000162661 0.000162818 -2.38519e-05
-0.000753494 0.000226071 0.000226039 1.28044e-11
-0.000640332 0.000192053 0.00019212 -1.29188e-05
-0.000538036 0.000161303 0.000161457 -2.38519e-05
-0.000651206 0.000195313 0.000195383 -1.29188e-05
-0.000645769 0.000193683 0.000193751 -1.29188e-05
-0.000747152 0.000224168 0.000224136 1.27133e-11
-0.000734467 0.000220362 0.000220331 1.24393e-11
-0.00052444 0.000157231 0.000157375 -2.38519e-05
-0.000533504 0.000159946 0.000160096 -2.38519e-05
-0.000740809 0.000222265 0.000222233 1.25365e-11
-0.000629458 0.000188793 0.000188856 -1.29189e-05
-0.000528972 0.000158588 0.000158736 -2.38519e-05
-0.000640332 0.000192053 0.00019212 -1.29188e-05
-0.000634895 0.000190423 0.000190488 -1.29189e-05
-0.000734467 0.000220362 0.000220331 1.24393e-11
-0.000721783 0.000216557 0.000216525 1.22617e-11
-0.000515376 0.000154515 0.000154654 -2.38519e-05
-0.00052444 0.000157231 0.000157375 -2.38519e-05
-0.000728125 0.00021846 0.000218428 1.23382e-11
-0.000618583 0.000185533 0.000185593 -1.29189e-05
-0.000519908 0.000155873 0.000156015 -2.38519e-05
-0.000629458 0.000188793 0.000188856 -1.29189e-05
-0.00062402 0.000187163 0.000187225 -1.29189e-05
-0.000721783 0.000216557 0.000216525 1.22318e-11
-0.000709099 0.000212752 0.00021272 1.20213e-11
-0.000506312 0.0001518 0.000151933 -2.3852e-05
-0.000515376 0.000154515 0.000154654 -2.38519e-05
-0.000715441 0.000214654 0.000214623 1.21546e-11
-0.000607709 0.000182272 0.00018233 -1.29189e-05
-0.000510844 0.000153158 0.000153294 -2.3852e-05
-0.000618583 0.000185533 0.000185593 -1.29189e-05
-0.000613146 0.000183902 0.000183962 -1.29189e-05
-0.000709099 0.000212752 0.00021272 1.20211e-11
-0.000696415 0.000208946 0.000208915 1.18071e-11
-0.000497248 0.000149085 0.000149213 -2.3852e-05
-0.000506312 0.0001518 0.000151933 -2.3852e-05
-0.000702757 0.000210849 0.000210818 1.19315e-11
-0.000596835 0.000179012 0.000179067 -1.2919e-05
-0.00050178 0.000150443 0.000150573 -2.3852e-05
-0.000607709 0.000182272 0.00018233 -1.29189e-05
-0.000602272 0.000180642 0.000180698 -1.2919e-05
-0.000696415 0.000208946 0.000208915 1.18071e-11
-0.000683732 0.000205141 0.00020511 1.15829e-11
-0.000488184 0.00014637 0.000146492 -2.3852e-05
-0.000497248 0.000149085 0.000149213 -2.3852e-05
-0.000690073 0.000207044 0.000207013 1.17277e-11
-0.000585961 0.000175752 0.000175804 -1.2919e-05
-0.000492716 0.000147727 0.000147852 -2.3852e-05
-0.000596835 0.000179012 0.000179067 -1.2919e-05
-0.000591398 0.000177382 0.000177435 -1.2919e-05
-0.000683732 0.000205141 0.00020511 1.15829e-11
-0.000671048 0.000201336 0.000201305 1.13895e-11
-0.00047912 0.000143654 0.000143771 -2.38521e-05
-0.000488184 0.00014637 0.000146492 -2.3852e-05
-0.00067739 0.000203239 0.000203208 1.14337e-11
-0.000575087 0.000172492 0.000172541 -1.2919e-05
-0.000483652 0.000145012 0.000145132 -2.38521e-05
-0.000585961 0.000175752 0.000175804 -1.2919e-05
-0.000580524 0.000174122 0.000174172 -1.2919e-05
-0.000671048 0.000201336 0.000201305 1.13895e-11
-0.000658364 0.000197531 0.0001975 1.11232e-11
-0.000470057 0.000140939 0.000141051 -2.38521e-05
-0.00047912 0.000143654 0.000143771 -2.38521e-05
-0.000664706 0.000199433 0.000199403 1.12583e-11
-0.000564214 0.000169232 0.000169278 -1.29191e-05
-0.000474589 0.000142297 0.000142411 -2.38521e-05
-0.000575087 0.000172492 0.000172541 -1.2919e-05
-0.000569651 0.000170862 0.000170909 -1.29191e-05
-0.000658364 0.000197531 0.0001975 1.11197e-11
-0.000645681 0.000193726 0.000193695 1.09887e-11
-0.000460994 0.000138224 0.00013833 -2.38522e-05
-0.000470057 0.000140939 0.000141051 -2.38521e-05
-0.000652023 0.000195628 0.000195598 1.10533e-11
-0.00055334 0.000165972 0.000166015 -1.29191e-05
-0.000465525 0.000139581 0.00013969 -2.38521e-05
-0.000564214 0.000169232 0.000169278 -1.29191e-05
-0.000558777 0.000167602 0.000167647 -1.29191e-05
-0.000645681 0.000193726 0.000193695 1.09887e-11
-0.000632998 0.00018992 0.00018989 1.07333e-11
-0.000451931 0.000135508 0.00013561 -2.38522e-05
-0.000460994 0.000138224 0.00013833 -2.38522e-05
-0.000639339 0.000191823 0.000191793 1.08344e-11
-0.000542467 0.000162712 0.000162752 -1.29192e-05
-0.000456462 0.000136866 0.00013697 -2.38522e-05
-0.00055334 0.000165972 0.000166015 -1.29191e-05
-0.000547904 0.000164342 0.000164384 -1.29191e-05
-0.000632998 0.00018992 0.00018989 1.07368e-11
-0.000620314 0.000186115 0.000186085 1.04974e-11
-0.000442868 0.000132793 0.000132889 -2.38522e-05
-0.000451931 0.000135508 0.00013561 -2.38522e-05
-0.000626656 0.000188018 0.000187988 1.06366e-11
-0.000531594 0.000159451 0.00015949 -1.29192e-05
-0.000447399 0.000134151 0.000134249 -2.38522e-05
-0.000542467 0.000162712 0.000162752 -1.29192e-05
-0.00053703 0.000161081 0.000161121 -1.29192e-05
-0.000620314 0.000186115 0.000186085 1.04974e-11
-0.000607631 0.00018231 0.00018228 1.03053e-11
-0.000433805 0.000130077 0.000130169 -2.38523e-05
-0.000442868 0.000132793 0.000132889 -2.38522e-05
-0.000613973 0.000184213 0.000184183 1.04251e-11
-0.000520721 0.000156191 0.000156227 -1.29192e-05
-0.000438336 0.000131435 0.000131529 -2.38523e-05
-0.000531594 0.000159451 0.00015949 -1.29192e-05
-0.000526157 0.000157821 0.000157858 -1.29192e-05
-0.000607631 0.00018231 0.00018228 1.03053e-11
-0.000594948 0.000178505 0.000178475 1.00523e-11
-0.000424742 0.000127362 0.000127449 -2.38523e-05
-0.000433805 0.000130077 0.000130169 -2.38523e-05
-0.00060129 0.000180408 0.000180378 1.01846e-11
-0.000509848 0.000152931 0.000152964 -1.29193e-05
-0.000429274 0.00012872 0.000128809 -2.38523e-05
-0.000520721 0.000156191 0.000156227 -1.29192e-05
-0.000515284 0.000154561 0.000154596 -1.29193e-05
-0.000594948 0.000178505 0.000178475 1.00525e-11
-0.000582265 0.0001747 0.000174671 9.83977e-12
-0.00041568 0.000124646 0.000124729 -2.38524e-05
-0.000424742 0.000127362 0.000127449 -2.38523e-05
-0.000588607 0.000176603 0.000176573 9.94991e-12
-0.000498975 0.000149671 0.000149702 -1.29193e-05
-0.000420211 0.000126004 0.000126089 -2.38524e-05
-0.000509848 0.000152931 0.000152964 -1.29193e-05
-0.000504411 0.000151301 0.000151333 -1.29193e-05
-0.000582265 0.0001747 0.000174671 9.85329e-12
-0.000569582 0.000170895 0.000170866 9.63618e-12
-0.000406617 0.000121931 0.000122008 -2.38524e-05
-0.00041568 0.000124646 0.000124729 -2.38524e-05
-0.000575924 0.000172798 0.000172768 9.74554e-12
-0.000488102 0.000146411 0.000146439 -1.29194e-05
-0.000411149 0.000123289 0.000123369 -2.38524e-05
-0.000498975 0.000149671 0.000149702 -1.29193e-05
-0.000493539 0.000148041 0.00014807 -1.29193e-05
-0.000569582 0.000170895 0.000170866 9.63618e-12
-0.0005569 0.00016709 0.000167061 9.44263e-12
-0.000397555 0.000119215 0.000119288 -2.38525e-05
-0.000406617 0.000121931 0.000122008 -2.38524e-05
-0.000563241 0.000168993 0.000168964 9.52352e-12
-0.00047723 0.000143151 0.000143177 -1.29194e-05
-0.000402086 0.000120573 0.000120648 -2.38525e-05
-0.000488102 0.000146411 0.000146439 -1.29194e-05
-0.000482666 0.000144781 0.000144808 -1.29194e-05
-0.0005569 0.00016709 0.000167061 9.44263e-12
-0.000544217 0.000163285 0.000163256 9.22273e-12
-0.000388493 0.0001165 0.000116569 -2.38526e-05
-0.000397555 0.000119215 0.000119288 -2.38525e-05
-0.000550558 0.000165188 0.000165159 9.28332e-12
-0.000466357 0.00013989 0.000139914 -1.29195e-05
-0.000393024 0.000117858 0.000117929 -2.38525e-05
-0.00047723 0.000143151 0.000143177 -1.29194e-05
-0.000471793 0.000141521 0.000141546 -1.29194e-05
-0.000544217 0.000163285 0.000163256 9.19295e-12
-0.000531535 0.000159481 0.000159452 9.02105e-12
-0.000379431 0.000113784 0.000113849 -2.38526e-05
-0.000388493 0.0001165 0.000116569 -2.38526e-05
-0.000537876 0.000161383 0.000161354 9.07538e-12
-0.000455485 0.00013663 0.000136652 -1.29195e-05
-0.000383962 0.000115142 0.000115209 -2.38526e-05
-0.000466357 0.00013989 0.000139914 -1.29195e-05
-0.000460921 0.00013826 0.000138283 -1.29195e-05
-0.000531535 0.000159481 0.000159452 9.02123e-12
-0.000518852 0.000155676 0.000155647 8.8109e-12
-0.000370369 0.000111068 0.000111129 -2.38527e-05
-0.000379431 0.000113784 0.000113849 -2.38526e-05
-0.000525193 0.000157578 0.000157549 8.87043e-12
-0.000444613 0.00013337 0.00013339 -1.29196e-05
-0.0003749 0.000112426 0.000112489 -2.38526e-05
-0.000455485 0.00013663 0.000136652 -1.29195e-05
-0.000450049 0.000135 0.000135021 -1.29195e-05
-0.000518852 0.000155676 0.000155647 8.8109e-12
-0.00050617 0.000151871 0.000151842 8.58596e-12
-0.000361308 0.000108353 0.000108409 -2.38527e-05
-0.000370369 0.000111068 0.000111129 -2.38527e-05
-0.000512511 0.000153773 0.000153745 8.71791e-12
-0.000433741 0.00013011 0.000130127 -1.29196e-05
-0.000365838 0.000109711 0.000109769 -2.38527e-05
-0.000444613 0.00013337 0.00013339 -1.29196e-05
-0.000439177 0.00013174 0.000131759 -1.29196e-05
-0.00050617 0.000151871 0.000151842 8.58596e-12
-0.000493488 0.000148066 0.000148038 8.33465e-12
-0.000352246 0.000105637 0.00010569 -2.38528e-05
-0.000361308 0.000108353 0.000108409 -2.38527e-05
-0.000499829 0.000149968 0.00014994 8.46523e-12
-0.000422869 0.00012685 0.000126865 -1.29197e-05
-0.000356777 0.000106995 0.000107049 -2.38528e-05
-0.000433741 0.00013011 0.000130127 -1.29196e-05
-0.000428305 0.00012848 0.000128496 -1.29196e-05
-0.000493488 0.000148066 0.000148038 8.33465e-12
-0.000480806 0.000144261 0.000144233 8.12621e-12
-0.000343185 0.000102921 0.00010297 -2.38529e-05
-0.000352246 0.000105637 0.00010569 -2.38528e-05
-0.000487147 0.000146164 0.000146136 8.25359e-12
-0.000411997 0.00012359 0.000123603 -1.29197e-05
-0.000347715 0.000104279 0.00010433 -2.38528e-05
-0.000422869 0.00012685 0.000126865 -1.29197e-05
-0.000417433 0.00012522 0.000125234 -1.29197e-05
-0.000480806 0.000144261 0.000144233 8.14943e-12
-0.000468124 0.000140457 0.000140429 7.92609e-12
-0.000334124 0.000100206 0.000100251 -2.38529e-05
-0.000343185 0.000102921 0.00010297 -2.38529e-05
-0.000474465 0.000142359 0.000142331 8.06162e-12
-0.000401125 0.000120329 0.000120341 -1.29198e-05
-0.000338654 0.000101563 0.00010161 -2.38529e-05
-0.000411997 0.00012359 0.000123603 -1.29197e-05
-0.000406561 0.00012196 0.000121972 -1.29197e-05
-0.000468124 0.000140457 0.000140429 7.92609e-12
-0.000455442 0.000136652 0.000136624 7.71068e-12
-0.000325062 9.74897e-05 9.75312e-05 -2.3853e-05
-0.000334124 0.000100206 0.000100251 -2.38529e-05
-0.000461783 0.000138554 0.000138526 7.83094e-12
-0.000390254 0.000117069 0.000117079 -1.29198e-05
-0.000329593 9.88476e-05 9.88909e-05 -2.3853e-05
-0.000401125 0.000120329 0.000120341 -1.29198e-05
-0.000395689 0.000118699 0.00011871 -1.29198e-05
-0.000455442 0.000136652 0.000136624 7.71068e-12
-0.00044276 0.000132847 0.00013282 7.4534e-12
-0.000316001 9.47739e-05 9.48118e-05 -2.38531e-05
-0.000325062 9.74897e-05 9.75312e-05 -2.3853e-05
-0.000449101 0.000134749 0.000134722 7.59131e-12
-0.000379382 0.000113809 0.000113817 -1.29199e-05
-0.000320532 9.61318e-05 9.61715e-05 -2.3853e-05
-0.000390254 0.000117069 0.000117079 -1.29198e-05
-0.000384818 0.000115439 0.000115448 -1.29198e-05
-0.00044276 0.000132847 0.00013282 7.49316e-12
-0.000430078 0.000129042 0.000129015 7.23968e-12
-0.000306941 9.2058e-05 9.20926e-05 -2.38531e-05
-0.000316001 9.47739e-05 9.48118e-05 -2.38531e-05
-0.000436419 0.000130945 0.000130917 7.35503e-12
-0.000368511 0.000110549 0.000110555 -1.29199e-05
-0.000311471 9.3416e-05 9.34522e-05 -2.38531e-05
-0.000379382 0.000113809 0.000113817 -1.29199e-05
-0.000373946 0.000112179 0.000112186 -1.29199e-05
-0.000430078 0.000129042 0.000129015 7.24008e-12
-0.000417396 0.000125238 0.000125211 7.00136e-12
-0.00029788 8.93421e-05 8.93734e-05 -2.38532e-05
-0.000306941 9.2058e-05 9.20926e-05 -2.38531e-05
-0.000423737 0.00012714 0.000127113 7.08152e-12
-0.00035764 0.000107289 0.000107293 -1.292e-05
-0.00030241 9.07001e-05 9.0733e-05 -2.38532e-05
-0.000368511 0.000110549 0.000110555 -1.29199e-05
-0.000363075 0.000108919 0.000108924 -1.29199e-05
-0.000417396 0.000125238 0.000125211 7.00136e-12
-0.000404715 0.000121433 0.000121406 6.7142e-12
-0.000288819 8.66262e-05 8.66542e-05 -2.38533e-05
-0.00029788 8.93421e-05 8.93734e-05 -2.38532e-05
-0.000411056 0.000123336 0.000123309 6.87346e-12
-0.000346768 0.000104029 0.000104031 -1.292e-05
-0.00029335 8.79842e-05 8.80138e-05 -2.38532e-05
-0.00035764 0.000107289 0.000107293 -1.292e-05
-0.000352204 0.000105659 0.000105662 -1.292e-05
-0.000404715 0.000121433 0.000121406 6.7142e-12
-0.000392033 0.000117629 0.000117602 6.46188e-12
-0.000279759 8.39102e-05 8.39352e-05 -2.38534e-05
-0.000288819 8.66262e-05 8.66542e-05 -2.38533e-05
-0.000398374 0.000119531 0.000119504 6.55449e-12
-0.000335897 0.000100768 0.00010077 -1.29201e-05
-0.000284289 8.52682e-05 8.52947e-05 -2.38533e-05
-0.000346768 0.000104029 0.000104031 -1.292e-05
-0.000341333 0.000102398 0.0001024 -1.29201e-05
-0.000392033 0.000117629 0.000117602 6.46229e-12
-0.000379352 0.000113824 0.000113798 6.18397e-12
-0.000270699 8.11942e-05 8.12162e-05 -2.38534e-05
-0.000279759 8.39102e-05 8.39352e-05 -2.38534e-05
-0.000385693 0.000115726 0.0001157 6.32922e-12
-0.000325027 9.75081e-05 9.75079e-05 -1.29201e-05
-0.000275229 8.25522e-05 8.25757e-05 -2.38534e-05
-0.000335897 0.000100768 0.00010077 -1.29201e-05
-0.000330462 9.91382e-05 9.91387e-05 -1.29201e-05
-0.000379352 0.000113824 0.000113798 6.22357e-12
-0.000366671 0.00011002 0.000109993 5.82865e-12
-0.000261639 7.84782e-05 7.84973e-05 -2.38535e-05
-0.000270699 8.11942e-05 8.12162e-05 -2.38534e-05
-0.000373011 0.000111922 0.000111896 5.96089e-12
-0.000314156 9.42479e-05 9.42462e-05 -1.29202e-05
-0.000266169 7.98362e-05 7.98568e-05 -2.38535e-05
-0.000325027 9.75081e-05 9.75079e-05 -1.29201e-05
-0.000319591 9.5878e-05 9.5877e-05 -1.29202e-05
-0.000366671 0.00011002 0.000109993 5.82865e-12
-0.00035399 0.000106215 0.000106189 5.50531e-12
-0.000252579 7.57621e-05 7.57785e-05 -2.38536e-05
-0.000261639 7.84782e-05 7.84973e-05 -2.38535e-05
-0.00036033 0.000108117 0.000108091 5.69474e-12
-0.000303285 9.09877e-05 9.09846e-05 -1.29202e-05
-0.000257109 7.71202e-05 7.71379e-05 -2.38535e-05
-0.000314156 9.42479e-05 9.42462e-05 -1.29202e-05
-0.00030872 9.26178e-05 9.26154e-05 -1.29202e-05
-0.00035399 0.000106215 0.000106189 5.50531e-12
-0.000341309 0.000102411 0.000102385 5.14375e-12
-0.000243519 7.3046e-05 7.30597e-05 -2.38536e-05
-0.000252579 7.57621e-05 7.57785e-05 -2.38536e-05
-0.000347649 0.000104313 0.000104287 5.32701e-12
-0.000292415 8.77275e-05 8.7723e-05 -1.29203e-05
-0.000248049 7.44041e-05 7.44191e-05 -2.38536e-05
-0.000303285 9.09877e-05 9.09846e-05 -1.29202e-05
-0.00029785 8.93576e-05 8.93538e-05 -1.29203e-05
-0.000341309 0.000102411 0.000102385 5.17008e-12
-0.000328628 9.86061e-05 9.85806e-05 4.81248e-12
-0.000234459 7.03299e-05 7.03411e-05 -2.38537e-05
-0.000243519 7.3046e-05 7.30597e-05 -2.38536e-05
-0.000334968 0.000100508 0.000100483 4.931e-12
-0.000281544 8.44673e-05 8.44615e-05 -1.29203e-05
-0.000238989 7.1688e-05 7.17004e-05 -2.38537e-05
-0.000292415 8.77275e-05 8.7723e-05 -1.29203e-05
-0.000286979 8.60974e-05 8.60923e-05 -1.29203e-05
-0.000328628 9.86061e-05 9.85806e-05 4.81249e-12
-0.000315947 9.48017e-05 9.47765e-05 4.49232e-12
-0.000225399 6.76137e-05 6.76224e-05 -2.38537e-05
-0.000234459 7.03299e-05 7.03411e-05 -2.38537e-05
-0.000322287 9.67039e-05 9.66785e-05 4.65937e-12
-0.000270674 8.1207e-05 8.12001e-05 -1.29204e-05
-0.000229929 6.89718e-05 6.89817e-05 -2.38537e-05
-0.000281544 8.44673e-05 8.44615e-05 -1.29203e-05
-0.000276109 8.28371e-05 8.28308e-05 -1.29203e-05
-0.000315947 9.48017e-05 9.47765e-05 4.49232e-12
-0.000303266 9.09973e-05 9.09723e-05 4.51673e-12
-0.00021634 6.48976e-05 6.49039e-05 -2.38537e-05
-0.000225399 6.76137e-05 6.76224e-05 -2.38537e-05
-0.000309606 9.28995e-05 9.28744e-05 4.42581e-12
-0.000259804 7.79468e-05 7.79387e-05 -1.29204e-05
-0.00022087 6.62557e-05 6.62632e-05 -2.38537e-05
-0.000270674 8.1207e-05 8.12001e-05 -1.29204e-05
-0.000265239 7.95769e-05 7.95694e-05 -1.29204e-05
-0.000303266 9.09973e-05 9.09723e-05 4.51673e-12
-0.000290585 8.7193e-05 8.71682e-05 4.64153e-12
-0.000207281 6.21813e-05 6.21855e-05 -2.38538e-05
-0.00021634 6.48976e-05 6.49039e-05 -2.38537e-05
-0.000296926 8.90952e-05 8.90702e-05 4.48702e-12
-0.000248934 7.46866e-05 7.46774e-05 -1.29204e-05
-0.00021181 6.35394e-05 6.35447e-05 -2.38538e-05
-0.000259804 7.79468e-05 7.79387e-05 -1.29204e-05
-0.000254369 7.63167e-05 7.6308e-05 -1.29204e-05
-0.000290585 8.7193e-05 8.71682e-05 4.64147e-12
-0.000277905 8.33887e-05 8.33641e-05 5.8659e-12
-0.000198222 5.94651e-05 5.94671e-05 -2.38538e-05
-0.000207281 6.21813e-05 6.21855e-05 -2.38538e-05
-0.000284245 8.52908e-05 8.52662e-05 5.02225e-12
-0.000238064 7.14264e-05 7.14161e-05 -1.29204e-05
-0.000202751 6.08232e-05 6.08262e-05 -2.38538e-05
-0.000248934 7.46866e-05 7.46774e-05 -1.29204e-05
-0.000243499 7.30565e-05 7.30467e-05 -1.29204e-05
-0.000277905 8.33887e-05 8.33641e-05 5.89219e-12
-0.000265225 7.95844e-05 7.95601e-05 7.35973e-12
-0.000189163 5.67489e-05 5.67487e-05 -2.38538e-05
-0.000198222 5.94651e-05 5.94671e-05 -2.38538e-05
-0.000271565 8.14865e-05 8.14621e-05 6.33012e-12
-0.000227194 6.81661e-05 6.81549e-05 -1.29205e-05
-0.000193692 5.8107e-05 5.81079e-05 -2.38538e-05
-0.000238064 7.14264e-05 7.14161e-05 -1.29204e-05
-0.000232629 6.97963e-05 6.97855e-05 -1.29204e-05
-0.000265225 7.95844e-05 7.95601e-05 7.35973e-12
-0.000252544 7.57802e-05 7.57561e-05 1.18462e-11
-0.000180104 5.40326e-05 5.40305e-05 -2.38539e-05
-0.000189163 5.67489e-05 5.67487e-05 -2.38538e-05
-0.000258885 7.76823e-05 7.76581e-05 9.80289e-12
-0.000216325 6.49059e-05 6.48937e-05 -1.29205e-05
-0.000184633 5.53907e-05 5.53896e-05 -2.38539e-05
-0.000227194 6.81661e-05 6.81549e-05 -1.29205e-05
-0.000221759 6.6536e-05 6.65243e-05 -1.29205e-05
-0.000252544 7.57802e-05 7.57561e-05 1.18462e-11
-0.000239864 7.1976e-05 7.19521e-05 1.56779e-11
-0.000171045 5.13164e-05 5.13123e-05 -2.38541e-05
-0.000180104 5.40326e-05 5.40305e-05 -2.38539e-05
-0.000246204 7.38781e-05 7.38541e-05 1.27086e-11
-0.000205455 6.16457e-05 6.16326e-05 -1.29207e-05
-0.000175574 5.26745e-05 5.26714e-05 -2.3854e-05
-0.000216325 6.49059e-05 6.48937e-05 -1.29205e-05
-0.00021089 6.32758e-05 6.32631e-05 -1.29206e-05
-0.000239864 7.1976e-05 7.19521e-05 1.56878e-11
-0.000227184 6.81717e-05 6.81481e-05 2.34686e-11
-0.000161987 4.86002e-05 4.85941e-05 -2.38545e-05
-0.000171045 5.13164e-05 5.13123e-05 -2.38541e-05
-0.000233524 7.00738e-05 7.00501e-05 2.35566e-11
-0.000194586 5.83855e-05 5.83714e-05 -1.2921e-05
-0.000166516 4.99583e-05 4.99532e-05 -2.38543e-05
-0.000205455 6.16457e-05 6.16326e-05 -1.29207e-05
-0.00020002 6.00156e-05 6.0002e-05 -1.29208e-05
-0.000227184 6.81717e-05 6.81481e-05 2.34686e-11
-0.000214503 6.43674e-05 6.4344e-05 2.67858e-11
-0.000152928 4.5884e-05 4.58761e-05 -2.3855e-05
-0.000161987 4.86002e-05 4.85941e-05 -2.38545e-05
-0.000220844 6.62695e-05 6.62461e-05 1.87712e-11
-0.000183716 5.51253e-05 5.51103e-05 -1.29214e-05
-0.000157457 4.72421e-05 4.72351e-05 -2.38547e-05
-0.000194586 5.83855e-05 5.83714e-05 -1.2921e-05
-0.000189151 5.67554e-05 5.67409e-05 -1.29212e-05
-0.000214503 6.43674e-05 6.4344e-05 2.67858e-11
-0.000201822 6.05628e-05 6.05398e-05 1.39125e-11
-0.00014387 4.31677e-05 4.31581e-05 -2.38558e-05
-0.000152928 4.5884e-05 4.58761e-05 -2.3855e-05
-0.000208163 6.24651e-05 6.2442e-05 4.66419e-11
-0.000172846 5.18649e-05 5.18492e-05 -1.2922e-05
-0.000148399 4.45259e-05 4.45171e-05 -2.38554e-05
-0.000183716 5.51253e-05 5.51103e-05 -1.29214e-05
-0.000178281 5.34951e-05 5.34797e-05 -1.29217e-05
-0.000201822 6.05628e-05 6.05398e-05 1.39125e-11
-0.00018914 5.6758e-05 5.67353e-05 -4.4106e-12
-0.000134812 4.0451e-05 4.04403e-05 -2.38564e-05
-0.00014387 4.31677e-05 4.31581e-05 -2.38558e-05
-0.000195482 5.86605e-05 5.86376e-05 -3.23553e-11
-0.000161976 4.86045e-05 4.8588e-05 -1.29227e-05
-0.000139341 4.18094e-05 4.17992e-05 -2.38561e-05
-0.000172846 5.18649e-05 5.18492e-05 -1.2922e-05
-0.000167411 5.02347e-05 5.02186e-05 -1.29224e-05
-0.00018914 5.6758e-05 5.67353e-05 -4.4106e-12
-0.000176458 5.29528e-05 5.29307e-05 -1.99212e-10
-0.000125754 3.77332e-05 3.7723e-05 -2.3856e-05
-0.000134812 4.0451e-05 4.04403e-05 -2.38564e-05
-0.000182799 5.48553e-05 5.4833e-05 3.2424e-11
-0.000151107 4.53438e-05 4.53271e-05 -1.29228e-05
-0.000130283 3.90923e-05 3.90816e-05 -2.38564e-05
-0.000161976 4.86045e-05 4.8588e-05 -1.29227e-05
-0.000156542 4.69742e-05 4.69575e-05 -1.29229e-05
-0.000176458 5.29528e-05 5.29307e-05 -1.99232e-10
-0.000163774 4.91478e-05 4.91255e-05 -2.98328e-10
-0.000116696 3.50129e-05 3.50069e-05 -2.38522e-05
-0.000125754 3.77332e-05 3.7723e-05 -2.3856e-05
-0.000170116 5.10505e-05 5.1028e-05 -4.50145e-10
-0.000140238 4.20828e-05 4.20666e-05 -1.29209e-05
-0.000121224 3.63735e-05 3.63647e-05 -2.38548e-05
-0.000151107 4.53438e-05 4.53271e-05 -1.29228e-05
-0.000145673 4.37133e-05 4.36968e-05 -1.29222e-05
-0.000163774 4.91478e-05 4.91255e-05 -2.98328e-10
-0.000151094 4.53426e-05 4.53219e-05 -1.44336e-09
-0.000107636 3.22871e-05 3.22924e-05 -2.38407e-05
-0.000116696 3.50129e-05 3.50069e-05 -2.38522e-05
-0.000157433 4.72445e-05 4.72235e-05 -2.62327e-10
-0.000129374 3.88214e-05 3.88083e-05 -1.29137e-05
-0.000112166 3.3651e-05 3.36494e-05 -2.38478e-05
-0.000140238 4.20828e-05 4.20666e-05 -1.29209e-05
-0.000134805 4.04522e-05 4.0437e-05 -1.29183e-05
-0.000151094 4.53426e-05 4.53219e-05 -1.44336e-09
-0.000138421 4.15437e-05 4.15188e-05 -1.60271e-09
-9.85766e-05 2.95502e-05 2.95827e-05 -2.38106e-05
-0.000107636 3.22871e-05 3.22924e-05 -2.38407e-05
-0.000144757 4.34436e-05 4.34198e-05 -2.53696e-09
-0.000118518 3.55599e-05 3.55536e-05 -1.28936e-05
-0.000103106 3.09205e-05 3.09366e-05 -2.38291e-05
-0.000129374 3.88214e-05 3.88083e-05 -1.29137e-05
-0.000123945 3.71906e-05 3.71805e-05 -1.29057e-05
-0.000138421 4.15437e-05 4.15188e-05 -1.60274e-09
-0.000125783 3.77475e-05 3.77294e-05 -6.78516e-09
-8.95086e-05 2.67929e-05 2.68782e-05 -2.37466e-05
-9.85766e-05 2.95502e-05 2.95827e-05 -2.38106e-05
-0.000132094 3.96409e-05 3.96227e-05 -1.58702e-09
-0.000107687 3.22989e-05 3.23093e-05 -1.28476e-05
-9.40451e-05 2.81754e-05 2.82299e-05 -2.3784e-05
-0.000118518 3.55599e-05 3.55536e-05 -1.28936e-05
-0.000113098 3.39294e-05 3.39293e-05 -1.28757e-05
-0.000125783 3.77475e-05 3.77294e-05 -6.78516e-09
-0.000113201 3.39913e-05 3.39468e-05 -5.79165e-09
-8.04365e-05 2.39965e-05 2.41886e-05 -2.36112e-05
-8.95086e-05 2.67929e-05 2.68782e-05 -2.37466e-05
-0.000119486 3.58715e-05 3.58346e-05 -1.11261e-08
-9.6896e-05 2.90396e-05 2.90813e-05 -1.27485e-05
-8.49711e-05 2.54e-05 2.55305e-05 -2.36915e-05
-0.000107687 3.22989e-05 3.23093e-05 -1.28476e-05
-0.000102287 3.06684e-05 3.06936e-05 -1.28056e-05
-0.000113201 3.39913e-05 3.39468e-05 -5.79165e-09
-0.000100794 3.02476e-05 3.02343e-05 -2.60835e-08
-7.13215e-05 2.11395e-05 2.15066e-05 -2.33662e-05
-8.04365e-05 2.39965e-05 2.41886e-05 -2.36112e-05
-0.000106959 3.20964e-05 3.20842e-05 -4.89807e-09
-8.6204e-05 2.57873e-05 2.58929e-05 -1.25519e-05
-7.58911e-05 2.25801e-05 2.28476e-05 -2.35049e-05
-9.6896e-05 2.90396e-05 2.90813e-05 -1.27485e-05
-9.153e-05 2.74135e-05 2.74785e-05 -1.26702e-05
-0.000100794 3.02476e-05 3.02343e-05 -2.60835e-08
-8.86459e-05 2.6699e-05 2.65486e-05 -1.58776e-08
-6.2175e-05 1.8169e-05 1.88597e-05 -2.29124e-05
-7.13215e-05 2.11395e-05 2.15066e-05 -2.33662e-05
-9.46936e-05 2.84858e-05 2.83748e-05 -4.34818e-08
-7.56416e-05 2.25408e-05 2.27575e-05 -1.21867e-05
-6.67439e-05 1.96656e-05 2.01764e-05 -2.31751e-05
-8.6204e-05 2.57873e-05 2.58929e-05 -1.25519e-05
-8.09104e-05 2.41598e-05 2.43217e-05 -1.23885e-05
-8.86459e-05 2.6699e-05 2.65486e-05 -1.58776e-08
-7.7176e-05 2.31559e-05 2.31515e-05 -8.76618e-08
-5.28265e-05 1.50716e-05 1.61807e-05 -2.22121e-05
-6.2175e-05 1.8169e-05 1.88597e-05 -2.29124e-05
-8.27678e-05 2.48252e-05 2.48325e-05 -3.97862e-09
-6.53958e-05 1.93268e-05 1.97438e-05 -1.15216e-05
-5.75555e-05 1.66529e-05 1.75297e-05 -2.25934e-05
-7.56416e-05 2.25408e-05 2.27575e-05 -1.21867e-05
-7.0452e-05 2.09363e-05 2.1221e-05 -1.19229e-05
-7.7176e-05 2.31559e-05 2.31515e-05 -8.76618e-08
-6.66658e-05 2.04577e-05 1.98035e-05 -2.93229e-08
-4.32886e-05 1.172e-05 1.35294e-05 -2.1115e-05
-5.28265e-05 1.50716e-05 1.61807e-05 -2.22121e-05
-7.18241e-05 2.18842e-05 2.14028e-05 -1.63609e-07
-5.54109e-05 1.61012e-05 1.6847e-05 -1.04612e-05
-4.80502e-05 1.33969e-05 1.48514e-05 -2.17264e-05
-6.53958e-05 1.93268e-05 1.97438e-05 -1.15216e-05
-6.04048e-05 1.77002e-05 1.8302e-05 -1.10086e-05
-6.66658e-05 2.04577e-05 1.98035e-05 -2.93229e-08
-5.82918e-05 1.74809e-05 1.74904e-05 -2.41025e-07
-3.28977e-05 8.38442e-06 1.05057e-05 -1.99367e-05
-4.32886e-05 1.172e-05 1.35294e-05 -2.1115e-05
-6.20416e-05 1.85495e-05 1.86395e-05 7.21034e-08
-4.61725e-05 1.29708e-05 1.42293e-05 -8.70325e-06
-3.83138e-05 1.01045e-05 1.20897e-05 -2.05013e-05
-5.54109e-05 1.61012e-05 1.6847e-05 -1.04612e-05
-5.06036e-05 1.45572e-05 1.54485e-05 -9.7856e-06
-5.82918e-05 1.74809e-05 1.74904e-05 -2.41025e-07
-5.33291e-05 1.77951e-05 1.52289e-05 3.96039e-07
-2.17312e-05 5.08442e-06 7.13432e-06 -1.91964e-05
-3.28977e-05 8.38442e-06 1.05057e-05 -1.99367e-05
-5.53949e-05 1.81103e-05 1.59791e-05 -5.27012e-07
-3.65314e-05 9.59738e-06 1.15431e-05 -6.80152e-06
-2.72877e-05 6.50478e-06 8.90695e-06 -1.94338e-05
-4.61725e-05 1.29708e-05 1.42293e-05 -8.70325e-06
-4.16407e-05 1.12685e-05 1.30167e-05 -7.53071e-06
-5.33291e-05 1.77951e-05 1.52289e-05 3.96039e-07
-5.6051e-05 1.52232e-05 1.74976e-05 2.3462e-06
-8.80621e-06 5.3762e-06 1.47e-06 -2.24052e-05
-2.17312e-05 5.08442e-06 7.13432e-06 -1.91964e-05
-5.31845e-05 1.48881e-05 1.64128e-05 1.67221e-06
-2.62348e-05 6.78762e-06 8.33453e-06 -5.67592e-06
-1.57351e-05 4.73633e-06 4.71376e-06 -1.99669e-05
-3.65314e-05 9.59738e-06 1.15431e-05 -6.80152e-06
-3.12582e-05 8.11333e-06 9.91921e-06 -6.38459e-06
-5.6051e-05 1.52232e-05 1.74976e-05 2.3462e-06
-7.62692e-05 1.51777e-05 2.61821e-05 1.81142e-05
-2.79512e-06 2.0244e-05 -7.4781e-06 -3.39997e-05
-8.80621e-06 5.3762e-06 1.47e-06 -2.24052e-05
-6.32916e-05 2.13473e-05 1.79761e-05 4.90434e-06
-5.24644e-06 1.25318e-05 -3.12228e-06 -1.98556e-05
-3.60578e-06 8.20274e-06 -1.97013e-06 -2.65619e-05
-2.62348e-05 6.78762e-06 8.33453e-06 -5.67592e-06
-1.85388e-05 6.57286e-06 5.12826e-06 -8.39939e-06
-7.62692e-05 1.51777e-05 2.61821e-05 1.81142e-05
-4.14963e-05 0.000117949 -3.27654e-05 -9.28488e-05
-2.70249e-05 8.98615e-05 -2.693e-05 -3.4163e-05
-2.79512e-06 2.0244e-05 -7.4781e-06 -3.39997e-05
-7.55105e-05 4.09571e-06 3.06063e-05 7.65627e-06
-2.40153e-05 0.000110536 -3.70803e-05 -5.49301e-05
-9.54472e-06 4.79793e-05 -1.6472e-05 -3.99205e-05
-5.24644e-06 1.25318e-05 -3.12228e-06 -1.98556e-05
-1.89303e-06 3.61547e-05 -1.46836e-05 -3.65266e-05
-0.00152188 0 0.000652235 -8.63968e-05
-0.00171375 0.000339956 0.000588767 -0.000126974
-0.000993453 0.000130736 0.000369736 -3.55731e-06
-0.000878745 0 0.000376605 0.000115612
-0.00162964 0.000160698 0.000629546 -0.000147394
-0.00132414 0.000204875 0.000479686 -5.24175e-05
-0.000952065 7.34932e-05 0.000376531 4.36518e-05
-0.00124671 0 0.000534303 1.88044e-05
-0.00126783 0.000113558 0.000494688 -1.6368e-05
-0.00171375 0.000339956 0.000588767 -0.000126974
-0.00178044 0.000481705 0.0005566 -6.0262e-05
-0.00104404 0.000239123 0.000344965 -4.06578e-05
-0.000993453 0.000130736 0.000369736 -3.55731e-06
-0.00176657 0.00044011 0.000568482 -9.1428e-05
-0.00141209 0.000347675 0.000456178 -6.13241e-05
-0.00101882 0.000188388 0.000355899 -2.74711e-05
-0.00132414 0.000204875 0.000479686 -5.24175e-05
-0.00138308 0.00028515 0.000470541 -6.89176e-05
-0.00178044 0.000481705 0.0005566 -6.0262e-05
-0.00177173 0.000521257 0.000535919 -2.23378e-05
-0.0010696 0.000293647 0.00033255 -4.78485e-05
-0.00104404 0.000239123 0.000344965 -4.06578e-05
-0.00177546 0.000506318 0.00054392 -3.53304e-05
-0.00142609 0.000404791 0.000437701 -4.11692e-05
-0.00106301 0.000273 0.000338574 -4.71582e-05
-0.00141209 0.000347675 0.000456178 -6.13241e-05
-0.00142262 0.000385015 0.000444688 -4.84468e-05
-0.00177173 0.000521257 0.000535919 -2.23378e-05
-0.00175923 0.000526536 0.000528296 -1.40237e-05
-0.00106851 0.000314941 0.000322959 -4.43095e-05
-0.0010696 0.000293647 0.00033255 -4.78485e-05
-0.00176705 0.000526447 0.000531688 -1.673e-05
-0.0014191 0.00042289 0.000426949 -3.13672e-05
-0.00106953 0.000307035 0.000326783 -4.58598e-05
-0.00142609 0.000404791 0.000437701 -4.11692e-05
-0.00142432 0.000416603 0.000431877 -3.5898e-05
-0.00175923 0.000526536 0.000528296 -1.40237e-05
-0.00174481 0.000525553 0.000522539 -1.37552e-05
-0.00106095 0.000318882 0.000318028 -4.19328e-05
-0.00106851 0.000314941 0.000322959 -4.43095e-05
-0.00175092 0.000526208 0.000524878 -1.3052e-05
-0.00140603 0.000423785 0.000420963 -2.83648e-05
-0.00106587 0.0003183 0.000320388 -4.31342e-05
-0.0014191 0.00042289 0.000426949 -3.13672e-05
-0.00141237 0.000424589 0.000423335 -2.88312e-05
-0.00174481 0.000525553 0.000522539 -1.37552e-05
-0.00173386 0.000521642 0.000519524 -1.67029e-05
-0.00105035 0.000317161 0.000314224 -4.03446e-05
-0.00106095 0.000318882 0.000318028 -4.19328e-05
-0.00173956 0.00052384 0.000521025 -1.53103e-05
-0.00139402 0.000420741 0.000417118 -2.86702e-05
-0.00105527 0.000318357 0.000315818 -4.08844e-05
-0.00140603 0.000423785 0.000420963 -2.83648e-05
-0.00139996 0.000422426 0.000418943 -2.85134e-05
-0.00173386 0.000521642 0.000519524 -1.67029e-05
-0.00172327 0.000517848 0.000516609 -1.91537e-05
-0.00104114 0.000313562 0.000311817 -3.98765e-05
-0.00105035 0.000317161 0.000314224 -4.03446e-05
-0.00172825 0.000519666 0.000517966 -1.79336e-05
-0.00138321 0.000416413 0.00041434 -2.97915e-05
-0.00104578 0.000315459 0.000312996 -4.00898e-05
-0.00139402 0.000420741 0.000417118 -2.86702e-05
-0.00138838 0.000418635 0.000415604 -2.91106e-05
-0.00172327 0.000517848 0.000516609 -1.91537e-05
-0.00171375 0.000514169 0.000514105 -2.11377e-05
-0.00103275 0.000310074 0.00030972 -3.96743e-05
-0.00104114 0.000313562 0.000311817 -3.98765e-05
-0.00171856 0.000515995 0.000515383 -2.02783e-05
-0.0013738 0.000412551 0.000411963 -3.08881e-05
-0.0010367 0.000311757 0.000310689 -3.97192e-05
-0.00138321 0.000416413 0.00041434 -2.97915e-05
-0.00137838 0.000414395 0.000413138 -3.04156e-05
-0.00171375 0.000514169 0.000514105 -2.11377e-05
-0.00170433 0.000510849 0.000511493 -2.23344e-05
-0.00102561 0.000307028 0.000307962 -3.96868e-05
-0.00103275 0.000310074 0.00030972 -3.96743e-05
-0.00170897 0.000512463 0.000512787 -2.17957e-05
-0.00136524 0.000409133 0.000409762 -3.16926e-05
-0.00102912 0.000308491 0.00030884 -3.96842e-05
-0.0013738 0.000412551 0.000411963 -3.08881e-05
-0.00136942 0.000410789 0.000410843 -3.13111e-05
-0.00170433 0.000510849 0.000511493 -2.23344e-05
-0.00169517 0.00050775 0.000508895 -2.30832e-05
-0.00101909 0.000304492 0.000306258 -3.97077e-05
-0.00102561 0.000307028 0.000307962 -3.96868e-05
-0.00169976 0.000509279 0.000510208 -2.27688e-05
-0.00135728 0.000406209 0.000407602 -3.22059e-05
-0.00102225 0.000305702 0.000307093 -3.96901e-05
-0.00136524 0.000409133 0.000409762 -3.16926e-05
-0.00136121 0.000407617 0.000408684 -3.1991e-05
-0.00169517 0.00050775 0.000508895 -2.30832e-05
-0.00168603 0.00050482 0.000506232 -2.3479e-05
-0.00101309 0.00030232 0.000304616 -3.97431e-05
-0.00101909 0.000304492 0.000306258 -3.97077e-05
-0.00169058 0.000506267 0.000507564 -2.33092e-05
-0.00134964 0.000403589 0.000405451 -3.25081e-05
-0.00101606 0.000303369 0.000305439 -3.97294e-05
-0.00135728 0.000406209 0.000407602 -3.22059e-05
-0.00135343 0.000404869 0.000406526 -3.23748e-05
-0.00168603 0.00050482 0.000506232 -2.3479e-05
-0.00167693 0.000501988 0.000503548 -2.36929e-05
-0.00100733 0.000300395 0.000302973 -3.97613e-05
-0.00101309 0.00030232 0.000304616 -3.97431e-05
-0.00168148 0.000503395 0.000504895 -2.36058e-05
-0.00134219 0.00040118 0.000403289 -3.26706e-05
-0.00101018 0.000301333 0.000303792 -3.97524e-05
-0.00134964 0.000403589 0.000405451 -3.25081e-05
-0.0013459 0.000402364 0.000404372 -3.26046e-05
-0.00167693 0.000501988 0.000503548 -2.36929e-05
-0.00166784 0.000499214 0.00050084 -2.37922e-05
-0.00100173 0.000298616 0.000301337 -3.9773e-05
-0.00100733 0.000300395 0.000302973 -3.97613e-05
-0.00167238 0.000500596 0.000502195 -2.37515e-05
-0.00133483 0.000398887 0.000401118 -3.27529e-05
-0.00100452 0.000299492 0.000302157 -3.97688e-05
-0.00134219 0.00040118 0.000403289 -3.26706e-05
-0.0013385 0.000400023 0.000402205 -3.27184e-05
-0.00166784 0.000499214 0.00050084 -2.37922e-05
-0.00165876 0.000496472 0.000498122 -2.38377e-05
-0.000996207 0.000296919 0.000299695 -3.97767e-05
-0.00100173 0.000298616 0.000301337 -3.9773e-05
-0.0016633 0.000497841 0.000499482 -2.38202e-05
-0.00132752 0.000396662 0.000398939 -3.27901e-05
-0.000998963 0.00029776 0.000300516 -3.97752e-05
-0.00133483 0.000398887 0.000401118 -3.27529e-05
-0.00133117 0.000397769 0.00040003 -3.27758e-05
-0.00165876 0.000496472 0.000498122 -2.38377e-05
-0.00164967 0.000493747 0.000495396 -2.38541e-05
-0.000990719 0.000295266 0.000298051 -3.97773e-05
-0.000996207 0.000296919 0.000299695 -3.97767e-05
-0.00165421 0.000495108 0.000496759 -2.3848e-05
-0.00132023 0.00039447 0.000396755 -3.28049e-05
-0.000993461 0.000296089 0.000298874 -3.97774e-05
-0.00132752 0.000396662 0.000398939 -3.27901e-05
-0.00132387 0.000395563 0.000397848 -3.27992e-05
-0.00164967 0.000493747 0.000495396 -2.38541e-05
-0.00164059 0.000491029 0.000492668 -2.38587e-05
-0.000985246 0.000293634 0.000296405 -3.97761e-05
-0.000990719 0.000295266 0.000298051 -3.97773e-05
-0.00164513 0.000492387 0.000494032 -2.38574e-05
-0.00131295 0.000392294 0.000394568 -3.28091e-05
-0.000987981 0.000294449 0.000297228 -3.97768e-05
-0.00132023 0.00039447 0.000396755 -3.28049e-05
-0.00131659 0.000393381 0.000395662 -3.28079e-05
-0.00164059 0.000491029 0.000492668 -2.38587e-05
-0.0016315 0.000488315 0.000489937 -2.38582e-05
-0.000979781 0.000292012 0.000294758 -3.97744e-05
-0.000985246 0.000293634 0.000296405 -3.97761e-05
-0.00163604 0.000489672 0.000491303 -2.38588e-05
-0.00130568 0.000390126 0.000392379 -3.2809e-05
-0.000982513 0.000292823 0.000295582 -3.97753e-05
-0.00131295 0.000392294 0.000394568 -3.28091e-05
-0.00130932 0.00039121 0.000393474 -3.28093e-05
-0.0016315 0.000488315 0.000489937 -2.38582e-05
-0.00162242 0.000485602 0.000487207 -2.38565e-05
-0.000974317 0.000290394 0.00029311 -3.97728e-05
-0.000979781 0.000292012 0.000294758 -3.97744e-05
-0.00162696 0.000486958 0.000488572 -2.38574e-05
-0.0012984 0.000387961 0.00039019 -3.28075e-05
-0.000977049 0.000291203 0.000293934 -3.97736e-05
-0.00130568 0.000390126 0.000392379 -3.2809e-05
-0.00130204 0.000389044 0.000391285 -3.28083e-05
-0.00162242 0.000485602 0.000487207 -2.38565e-05
-0.00161333 0.00048289 0.000484476 -2.38547e-05
-0.000968854 0.000288777 0.000291461 -3.97716e-05
-0.000974317 0.000290394 0.00029311 -3.97728e-05
-0.00161788 0.000484246 0.000485841 -2.38555e-05
-0.00129113 0.000385797 0.000388 -3.28059e-05
-0.000971586 0.000289586 0.000292286 -3.97721e-05
-0.0012984 0.000387961 0.00039019 -3.28075e-05
-0.00129477 0.000386879 0.000389095 -3.28066e-05
-0.00161333 0.00048289 0.000484476 -2.38547e-05
-0.00160425 0.000480178 0.000481745 -2.38533e-05
-0.000963391 0.000287161 0.000289813 -3.97706e-05
-0.000968854 0.000288777 0.000291461 -3.97716e-05
-0.00160879 0.000481534 0.000483111 -2.3854e-05
-0.00128386 0.000383633 0.00038581 -3.28046e-05
-0.000966123 0.000287969 0.000290637 -3.97711e-05
-0.00129113 0.000385797 0.000388 -3.28059e-05
-0.00128749 0.000384715 0.000386905 -3.28052e-05
-0.00160425 0.000480178 0.000481745 -2.38533e-05
-0.00159517 0.000477466 0.000479015 -2.38524e-05
-0.000957928 0.000285543 0.000288165 -3.977e-05
-0.000963391 0.000287161 0.000289813 -3.97706e-05
-0.00159971 0.000478822 0.00048038 -2.38528e-05
-0.00127658 0.000381469 0.00038362 -3.28037e-05
-0.000960659 0.000286352 0.000288989 -3.97703e-05
-0.00128386 0.000383633 0.00038581 -3.28046e-05
-0.00128022 0.000382551 0.000384715 -3.28041e-05
-0.00159517 0.000477466 0.000479015 -2.38524e-05
-0.00158608 0.000474753 0.000476284 -2.38519e-05
-0.000952464 0.000283926 0.000286516 -3.97697e-05
-0.000957928 0.000285543 0.000288165 -3.977e-05
-0.00159062 0.00047611 0.000477649 -2.38521e-05
-0.00126931 0.000379305 0.00038143 -3.28032e-05
-0.000955196 0.000284735 0.00028734 -3.97698e-05
-0.00127658 0.000381469 0.00038362 -3.28037e-05
-0.00127295 0.000380387 0.000382525 -3.28034e-05
-0.00158608 0.000474753 0.000476284 -2.38519e-05
-0.001577 0.000472041 0.000473554 -2.38517e-05
-0.000947 0.000282308 0.000284868 -3.97695e-05
-0.000952464 0.000283926 0.000286516 -3.97697e-05
-0.00158154 0.000473397 0.000474919 -2.38518e-05
-0.00126204 0.00037714 0.000379241 -3.2803e-05
-0.000949732 0.000283117 0.000285692 -3.97695e-05
-0.00126931 0.000379305 0.00038143 -3.28032e-05
-0.00126567 0.000378222 0.000380336 -3.28031e-05
-0.001577 0.000472041 0.000473554 -2.38517e-05
-0.00156792 0.000469328 0.000470824 -2.38516e-05
-0.000941537 0.00028069 0.00028322 -3.97694e-05
-0.000947 0.000282308 0.000284868 -3.97695e-05
-0.00157246 0.000470685 0.000472189 -2.38516e-05
-0.00125476 0.000374975 0.000377051 -3.28028e-05
-0.000944268 0.000281499 0.000284044 -3.97694e-05
-0.00126204 0.00037714 0.000379241 -3.2803e-05
-0.0012584 0.000376057 0.000378146 -3.28029e-05
-0.00156792 0.000469328 0.000470824 -2.38516e-05
-0.00155883 0.000466616 0.000468093 -2.38516e-05
-0.000936073 0.000279071 0.000281572 -3.97693e-05
-0.000941537 0.00028069 0.00028322 -3.97694e-05
-0.00156338 0.000467972 0.000469459 -2.38516e-05
-0.00124749 0.00037281 0.000374862 -3.28028e-05
-0.000938805 0.00027988 0.000282396 -3.97693e-05
-0.00125476 0.000374975 0.000377051 -3.28028e-05
-0.00125112 0.000373892 0.000375957 -3.28028e-05
-0.00155883 0.000466616 0.000468093 -2.38516e-05
-0.00154975 0.000463903 0.000465363 -2.38516e-05
-0.000930609 0.000277453 0.000279924 -3.97693e-05
-0.000936073 0.000279071 0.000281572 -3.97693e-05
-0.00155429 0.00046526 0.000466728 -2.38516e-05
-0.00124021 0.000370645 0.000372673 -3.28028e-05
-0.000933341 0.000278262 0.000280748 -3.97693e-05
-0.00124749 0.00037281 0.000374862 -3.28028e-05
-0.00124385 0.000371727 0.000373767 -3.28028e-05
-0.00154975 0.000463903 0.000465363 -2.38516e-05
-0.00154067 0.000461191 0.000462633 -2.38517e-05
-0.000925146 0.000275834 0.000278277 -3.97693e-05
-0.000930609 0.000277453 0.000279924 -3.97693e-05
-0.00154521 0.000462547 0.000463998 -2.38517e-05
-0.00123294 0.000368479 0.000370483 -3.28029e-05
-0.000927878 0.000276643 0.0002791 -3.97693e-05
-0.00124021 0.000370645 0.000372673 -3.28028e-05
-0.00123658 0.000369562 0.000371578 -3.28029e-05
-0.00154067 0.000461191 0.000462633 -2.38517e-05
-0.00153159 0.000458478 0.000459903 -2.38518e-05
-0.000919683 0.000274215 0.000276629 -3.97693e-05
-0.000925146 0.000275834 0.000278277 -3.97693e-05
-0.00153613 0.000459834 0.000461268 -2.38517e-05
-0.00122567 0.000366314 0.000368294 -3.28029e-05
-0.000922415 0.000275025 0.000277453 -3.97693e-05
-0.00123294 0.000368479 0.000370483 -3.28029e-05
-0.0012293 0.000367397 0.000369389 -3.28029e-05
-0.00153159 0.000458478 0.000459903 -2.38518e-05
-0.0015225 0.000455765 0.000457174 -2.38519e-05
-0.00091422 0.000272597 0.000274981 -3.97693e-05
-0.000919683 0.000274215 0.000276629 -3.97693e-05
-0.00152704 0.000457122 0.000458539 -2.38518e-05
-0.00121839 0.000364149 0.000366105 -3.2803e-05
-0.000916951 0.000273406 0.000275805 -3.97693e-05
-0.00122567 0.000366314 0.000368294 -3.28029e-05
-0.00122203 0.000365231 0.0003672 -3.2803e-05
-0.0015225 0.000455765 0.000457174 -2.38519e-05
-0.00151342 0.000453052 0.000454444 -2.38519e-05
-0.000908757 0.000270978 0.000273334 -3.97693e-05
-0.00091422 0.000272597 0.000274981 -3.97693e-05
-0.00151796 0.000454409 0.000455809 -2.38519e-05
-0.00121112 0.000361983 0.000363916 -3.2803e-05
-0.000911489 0.000271787 0.000274158 -3.97693e-05
-0.00121839 0.000364149 0.000366105 -3.2803e-05
-0.00121476 0.000363066 0.000365011 -3.2803e-05
-0.00151342 0.000453052 0.000454444 -2.38519e-05
-0.00150434 0.00045034 0.000451714 -2.3852e-05
-0.000903295 0.000269359 0.000271687 -3.97693e-05
-0.000908757 0.000270978 0.000273334 -3.97693e-05
-0.00150888 0.000451696 0.000453079 -2.3852e-05
-0.00120385 0.000359818 0.000361728 -3.28031e-05
-0.000906026 0.000270168 0.00027251 -3.97693e-05
-0.00121112 0.000361983 0.000363916 -3.2803e-05
-0.00120749 0.0003609 0.000362822 -3.28031e-05
-0.00150434 0.00045034 0.000451714 -2.3852e-05
-0.00149526 0.000447627 0.000448985 -2.3852e-05
-0.000897832 0.00026774 0.00027004 -3.97693e-05
-0.000903295 0.000269359 0.000271687 -3.97693e-05
-0.0014998 0.000448983 0.000450349 -2.3852e-05
-0.00119658 0.000357652 0.000359539 -3.28031e-05
-0.000900563 0.000268549 0.000270863 -3.97693e-05
-0.00120385 0.000359818 0.000361728 -3.28031e-05
-0.00120021 0.000358735 0.000360633 -3.28031e-05
-0.00149526 0.000447627 0.000448985 -2.3852e-05
-0.00148618 0.000444914 0.000446255 -2.38521e-05
-0.00089237 0.000266121 0.000268392 -3.97693e-05
-0.000897832 0.00026774 0.00027004 -3.97693e-05
-0.00149072 0.00044627 0.00044762 -2.38521e-05
-0.0011893 0.000355487 0.00035735 -3.28031e-05
-0.000895101 0.00026693 0.000269216 -3.97693e-05
-0.00119658 0.000357652 0.000359539 -3.28031e-05
-0.00119294 0.000356569 0.000358444 -3.28031e-05
-0.00148618 0.000444914 0.000446255 -2.38521e-05
-0.00147709 0.000442201 0.000443526 -2.38521e-05
-0.000886908 0.000264501 0.000266745 -3.97693e-05
-0.00089237 0.000266121 0.000268392 -3.97693e-05
-0.00148163 0.000443558 0.00044489 -2.38521e-05
-0.00118203 0.000353321 0.000355162 -3.28032e-05
-0.000889639 0.000265311 0.000267569 -3.97693e-05
-0.0011893 0.000355487 0.00035735 -3.28031e-05
-0.00118567 0.000354404 0.000356256 -3.28031e-05
-0.00147709 0.000442201 0.000443526 -2.38521e-05
-0.00146801 0.000439488 0.000440796 -2.38522e-05
-0.000881446 0.000262882 0.000265099 -3.97692e-05
-0.000886908 0.000264501 0.000266745 -3.97693e-05
-0.00147255 0.000440845 0.000442161 -2.38521e-05
-0.00117476 0.000351155 0.000352973 -3.28032e-05
-0.000884177 0.000263692 0.000265922 -3.97692e-05
-0.00118203 0.000353321 0.000355162 -3.28032e-05
-0.0011784 0.000352238 0.000354067 -3.28032e-05
-0.00146801 0.000439488 0.000440796 -2.38522e-05
-0.00145893 0.000436775 0.000438067 -2.38522e-05
-0.000875984 0.000261263 0.000263452 -3.97692e-05
-0.000881446 0.000262882 0.000265099 -3.97692e-05
-0.00146347 0.000438132 0.000439431 -2.38522e-05
-0.00116749 0.00034899 0.000350785 -3.28032e-05
-0.000878715 0.000262073 0.000264275 -3.97692e-05
-0.00117476 0.000351155 0.000352973 -3.28032e-05
-0.00117112 0.000350072 0.000351879 -3.28032e-05
-0.00145893 0.000436775 0.000438067 -2.38522e-05
-0.00144985 0.000434062 0.000435338 -2.38522e-05
-0.000870522 0.000259644 0.000261805 -3.97691e-05
-0.000875984 0.000261263 0.000263452 -3.97692e-05
-0.00145439 0.000435419 0.000436702 -2.38522e-05
-0.00116022 0.000346824 0.000348596 -3.28032e-05
-0.000873253 0.000260453 0.000262628 -3.97692e-05
-0.00116749 0.00034899 0.000350785 -3.28032e-05
-0.00116385 0.000347907 0.000349691 -3.28032e-05
-0.00144985 0.000434062 0.000435338 -2.38522e-05
-0.00144077 0.000431349 0.000432608 -2.38522e-05
-0.000865061 0.000258024 0.000260159 -3.97691e-05
-0.000870522 0.000259644 0.000261805 -3.97691e-05
-0.00144531 0.000432706 0.000433973 -2.38522e-05
-0.00115294 0.000344658 0.000346408 -3.28032e-05
-0.000867791 0.000258834 0.000260982 -3.97691e-05
-0.00116022 0.000346824 0.000348596 -3.28032e-05
-0.00115658 0.000345741 0.000347502 -3.28032e-05
-0.00144077 0.000431349 0.000432608 -2.38522e-05
-0.00143169 0.000428636 0.000429879 -2.38523e-05
-0.000859599 0.000256405 0.000258512 -3.9769e-05
-0.000865061 0.000258024 0.000260159 -3.97691e-05
-0.00143623 0.000429993 0.000431244 -2.38523e-05
-0.00114567 0.000342492 0.00034422 -3.28032e-05
-0.00086233 0.000257214 0.000259335 -3.9769e-05
-0.00115294 0.000344658 0.000346408 -3.28032e-05
-0.00114931 0.000343575 0.000345314 -3.28032e-05
-0.00143169 0.000428636 0.000429879 -2.38523e-05
-0.00142261 0.000425923 0.00042715 -2.38523e-05
-0.000854138 0.000254785 0.000256866 -3.9769e-05
-0.000859599 0.000256405 0.000258512 -3.9769e-05
-0.00142715 0.00042728 0.000428515 -2.38523e-05
-0.0011384 0.000340326 0.000342032 -3.28031e-05
-0.000856869 0.000255595 0.000257689 -3.9769e-05
-0.00114567 0.000342492 0.00034422 -3.28032e-05
-0.00114204 0.000341409 0.000343126 -3.28031e-05
-0.00142261 0.000425923 0.00042715 -2.38523e-05
-0.00141353 0.00042321 0.000424421 -2.38523e-05
-0.000848677 0.000253166 0.000255219 -3.97689e-05
-0.000854138 0.000254785 0.000256866 -3.9769e-05
-0.00141807 0.000424567 0.000425786 -2.38523e-05
-0.00113113 0.00033816 0.000339844 -3.28031e-05
-0.000851408 0.000253975 0.000256042 -3.97689e-05
-0.0011384 0.000340326 0.000342032 -3.28031e-05
-0.00113477 0.000339243 0.000340938 -3.28031e-05
-0.00141353 0.00042321 0.000424421 -2.38523e-05
-0.00140445 0.000420497 0.000421692 -2.38523e-05
-0.000843217 0.000251546 0.000253573 -3.97688e-05
-0.000848677 0.000253166 0.000255219 -3.97689e-05
-0.00140899 0.000421854 0.000423057 -2.38523e-05
-0.00112386 0.000335994 0.000337656 -3.28031e-05
-0.000845947 0.000252356 0.000254396 -3.97689e-05
-0.00113113 0.00033816 0.000339844 -3.28031e-05
-0.00112749 0.000337077 0.00033875 -3.28031e-05
-0.00140445 0.000420497 0.000421692 -2.38523e-05
-0.00139537 0.000417784 0.000418964 -2.38523e-05
-0.000837756 0.000249926 0.000251927 -3.97687e-05
-0.000843217 0.000251546 0.000253573 -3.97688e-05
-0.00139991 0.000419141 0.000420328 -2.38523e-05
-0.00111659 0.000333828 0.000335469 -3.28031e-05
-0.000840486 0.000250736 0.00025275 -3.97688e-05
-0.00112386 0.000335994 0.000337656 -3.28031e-05
-0.00112022 0.000334911 0.000336563 -3.28031e-05
-0.00139537 0.000417784 0.000418964 -2.38523e-05
-0.00138629 0.000415071 0.000416235 -2.38524e-05
-0.000832296 0.000248306 0.000250281 -3.97687e-05
-0.000837756 0.000249926 0.000251927 -3.97687e-05
-0.00139083 0.000416428 0.000417599 -2.38524e-05
-0.00110932 0.000331662 0.000333281 -3.28031e-05
-0.000835026 0.000249116 0.000251104 -3.97687e-05
-0.00111659 0.000333828 0.000335469 -3.28031e-05
-0.00111295 0.000332745 0.000334375 -3.28031e-05
-0.00138629 0.000415071 0.000416235 -2.38524e-05
-0.00137721 0.000412358 0.000413506 -2.38524e-05
-0.000826835 0.000246687 0.000248635 -3.97686e-05
-0.000832296 0.000248306 0.000250281 -3.97687e-05
-0.00138175 0.000413715 0.000414871 -2.38524e-05
-0.00110205 0.000329496 0.000331093 -3.2803e-05
-0.000829566 0.000247496 0.000249458 -3.97686e-05
-0.00110932 0.000331662 0.000333281 -3.28031e-05
-0.00110568 0.000330579 0.000332187 -3.28031e-05
-0.00137721 0.000412358 0.000413506 -2.38524e-05
-0.00136813 0.000409645 0.000410778 -2.38524e-05
-0.000821375 0.000245067 0.000246989 -3.97685e-05
-0.000826835 0.000246687 0.000248635 -3.97686e-05
-0.00137267 0.000411001 0.000412142 -2.38524e-05
-0.00109478 0.00032733 0.000328906 -3.2803e-05
-0.000824105 0.000245877 0.000247812 -3.97686e-05
-0.00110205 0.000329496 0.000331093 -3.2803e-05
-0.00109841 0.000328413 0.00033 -3.2803e-05
-0.00136813 0.000409645 0.000410778 -2.38524e-05
-0.00135905 0.000406932 0.000408049 -2.38524e-05
-0.000815915 0.000243447 0.000245344 -3.97684e-05
-0.000821375 0.000245067 0.000246989 -3.97685e-05
-0.00136359 0.000408288 0.000409413 -2.38524e-05
-0.00108751 0.000325164 0.000326719 -3.2803e-05
-0.000818645 0.000244257 0.000246167 -3.97685e-05
-0.00109478 0.00032733 0.000328906 -3.2803e-05
-0.00109114 0.000326247 0.000327812 -3.2803e-05
-0.00135905 0.000406932 0.000408049 -2.38524e-05
-0.00134997 0.000404219 0.000405321 -2.38524e-05
-0.000810456 0.000241827 0.000243698 -3.97683e-05
-0.000815915 0.000243447 0.000245344 -3.97684e-05
-0.00135451 0.000405575 0.000406685 -2.38524e-05
-0.00108024 0.000322997 0.000324531 -3.2803e-05
-0.000813186 0.000242637 0.000244521 -3.97684e-05
-0.00108751 0.000325164 0.000326719 -3.2803e-05
-0.00108387 0.00032408 0.000325625 -3.2803e-05
-0.00134997 0.000404219 0.000405321 -2.38524e-05
-0.00134089 0.000401505 0.000402593 -2.38524e-05
-0.000804996 0.000240206 0.000242053 -3.97683e-05
-0.000810456 0.000241827 0.000243698 -3.97683e-05
-0.00134543 0.000402862 0.000403957 -2.38524e-05
-0.00107297 0.000320831 0.000322344 -3.28029e-05
-0.000807726 0.000241016 0.000242875 -3.97683e-05
-0.00108024 0.000322997 0.000324531 -3.2803e-05
-0.0010766 0.000321914 0.000323438 -3.28029e-05
-0.00134089 0.000401505 0.000402593 -2.38524e-05
-0.00133181 0.000398792 0.000399864 -2.38524e-05
-0.000799537 0.000238586 0.000240407 -3.97682e-05
-0.000804996 0.000240206 0.000242053 -3.97683e-05
-0.00133635 0.000400149 0.000401228 -2.38524e-05
-0.0010657 0.000318665 0.000320157 -3.28029e-05
-0.000802267 0.000239396 0.00024123 -3.97682e-05
-0.00107297 0.000320831 0.000322344 -3.28029e-05
-0.00106933 0.000319748 0.000321251 -3.28029e-05
-0.00133181 0.000398792 0.000399864 -2.38524e-05
-0.00132273 0.000396079 0.000397136 -2.38524e-05
-0.000794078 0.000236966 0.000238762 -3.97681e-05
-0.000799537 0.000238586 0.000240407 -3.97682e-05
-0.00132727 0.000397435 0.0003985 -2.38524e-05
-0.00105843 0.000316498 0.00031797 -3.28029e-05
-0.000796807 0.000237776 0.000239585 -3.97681e-05
-0.0010657 0.000318665 0.000320157 -3.28029e-05
-0.00106206 0.000317581 0.000319064 -3.28029e-05
-0.00132273 0.000396079 0.000397136 -2.38524e-05
-0.00131365 0.000393366 0.000394408 -2.38524e-05
-0.000788619 0.000235346 0.000237117 -3.9768e-05
-0.000794078 0.000236966 0.000238762 -3.97681e-05
-0.00131819 0.000394722 0.000395772 -2.38524e-05
-0.00105116 0.000314332 0.000315783 -3.28028e-05
-0.000791348 0.000236156 0.00023794 -3.9768e-05
-0.00105843 0.000316498 0.00031797 -3.28029e-05
-0.00105479 0.000315415 0.000316877 -3.28028e-05
-0.00131365 0.000393366 0.000394408 -2.38524e-05
-0.00130457 0.000390652 0.00039168 -2.38524e-05
-0.00078316 0.000233725 0.000235472 -3.97679e-05
-0.000788619 0.000235346 0.000237117 -3.9768e-05
-0.00130911 0.000392009 0.000393044 -2.38524e-05
-0.00104389 0.000312165 0.000313596 -3.28028e-05
-0.000785889 0.000234535 0.000236294 -3.97679e-05
-0.00105116 0.000314332 0.000315783 -3.28028e-05
-0.00104752 0.000313248 0.00031469 -3.28028e-05
-0.00130457 0.000390652 0.00039168 -2.38524e-05
-0.00129549 0.000387939 0.000388952 -2.38524e-05
-0.000777701 0.000232105 0.000233827 -3.97678e-05
-0.00078316 0.000233725 0.000235472 -3.97679e-05
-0.00130003 0.000389296 0.000390316 -2.38524e-05
-0.00103662 0.000309999 0.00031141 -3.28027e-05
-0.000780431 0.000232915 0.00023465 -3.97678e-05
-0.00104389 0.000312165 0.000313596 -3.28028e-05
-0.00104026 0.000311082 0.000312503 -3.28028e-05
-0.00129549 0.000387939 0.000388952 -2.38524e-05
-0.00128642 0.000385226 0.000386224 -2.38524e-05
-0.000772243 0.000230484 0.000232182 -3.97677e-05
-0.000777701 0.000232105 0.000233827 -3.97678e-05
-0.00129095 0.000386582 0.000387588 -2.38524e-05
-0.00102935 0.000307832 0.000309223 -3.28027e-05
-0.000774972 0.000231295 0.000233005 -3.97677e-05
-0.00103662 0.000309999 0.00031141 -3.28027e-05
-0.00103299 0.000308915 0.000310316 -3.28027e-05
-0.00128642 0.000385226 0.000386224 -2.38524e-05
-0.00127734 0.000382512 0.000383496 -2.38524e-05
-0.000766785 0.000228864 0.000230537 -3.97676e-05
-0.000772243 0.000230484 0.000232182 -3.97677e-05
-0.00128188 0.000383869 0.00038486 -2.38524e-05
-0.00102208 0.000305665 0.000307037 -3.28027e-05
-0.000769514 0.000229674 0.00023136 -3.97676e-05
-0.00102935 0.000307832 0.000309223 -3.28027e-05
-0.00102572 0.000306749 0.00030813 -3.28027e-05
-0.00127734 0.000382512 0.000383496 -2.38524e-05
-0.00126826 0.000379799 0.000380769 -2.38524e-05
-0.000761326 0.000227243 0.000228893 -3.97675e-05
-0.000766785 0.000228864 0.000230537 -3.97676e-05
-0.0012728 0.000381156 0.000382133 -2.38524e-05
-0.00101482 0.000303499 0.00030485 -3.28026e-05
-0.000764055 0.000228053 0.000229715 -3.97675e-05
-0.00102208 0.000305665 0.000307037 -3.28027e-05
-0.00101845 0.000304582 0.000305943 -3.28026e-05
-0.00126826 0.000379799 0.000380769 -2.38524e-05
-0.00125918 0.000377085 0.000378041 -2.38524e-05
-0.000755869 0.000225622 0.000227248 -3.97674e-05
-0.000761326 0.000227243 0.000228893 -3.97675e-05
-0.00126372 0.000378442 0.000379405 -2.38524e-05
-0.00100755 0.000301332 0.000302664 -3.28026e-05
-0.000758597 0.000226433 0.000228071 -3.97674e-05
-0.00101482 0.000303499 0.00030485 -3.28026e-05
-0.00101118 0.000302415 0.000303757 -3.28026e-05
-0.00125918 0.000377085 0.000378041 -2.38524e-05
-0.0012501 0.000374372 0.000375314 -2.38524e-05
-0.000750411 0.000224002 0.000225604 -3.97673e-05
-0.000755869 0.000225622 0.000227248 -3.97674e-05
-0.00125464 0.000375729 0.000376677 -2.38524e-05
-0.00100028 0.000299165 0.000300478 -3.28025e-05
-0.00075314 0.000224812 0.000226426 -3.97673e-05
-0.00100755 0.000301332 0.000302664 -3.28026e-05
-0.00100391 0.000300248 0.000301571 -3.28025e-05
-0.0012501 0.000374372 0.000375314 -2.38524e-05
-0.00124103 0.000371659 0.000372586 -2.38524e-05
-0.000744953 0.000222381 0.00022396 -3.97672e-05
-0.000750411 0.000224002 0.000225604 -3.97673e-05
-0.00124557 0.000373015 0.00037395 -2.38524e-05
-0.000993012 0.000296998 0.000298291 -3.28025e-05
-0.000747682 0.000223191 0.000224782 -3.97672e-05
-0.00100028 0.000299165 0.000300478 -3.28025e-05
-0.000996645 0.000298082 0.000299384 -3.28025e-05
-0.00124103 0.000371659 0.000372586 -2.38524e-05
-0.00123195 0.000368945 0.000369859 -2.38524e-05
-0.000739496 0.00022076 0.000222315 -3.9767e-05
-0.000744953 0.000222381 0.00022396 -3.97672e-05
-0.00123649 0.000370302 0.000371223 -2.38524e-05
-0.000985744 0.000294831 0.000296105 -3.28024e-05
-0.000742224 0.00022157 0.000223138 -3.97671e-05
-0.000993012 0.000296998 0.000298291 -3.28025e-05
-0.000989378 0.000295915 0.000297198 -3.28024e-05
-0.00123195 0.000368945 0.000369859 -2.38524e-05
-0.00122287 0.000366232 0.000367132 -2.38524e-05
-0.000734039 0.000219139 0.000220671 -3.97669e-05
-0.000739496 0.00022076 0.000222315 -3.9767e-05
-0.00122741 0.000367588 0.000368495 -2.38524e-05
-0.000978476 0.000292664 0.000293919 -3.28023e-05
-0.000736767 0.000219949 0.000221493 -3.9767e-05
-0.000985744 0.000294831 0.000296105 -3.28024e-05
-0.00098211 0.000293748 0.000295012 -3.28024e-05
-0.00122287 0.000366232 0.000367132 -2.38524e-05
-0.0012138 0.000363518 0.000364404 -2.38523e-05
-0.000728582 0.000217518 0.000219027 -3.97668e-05
-0.000734039 0.000219139 0.000220671 -3.97669e-05
-0.00121833 0.000364875 0.000365768 -2.38523e-05
-0.000971209 0.000290498 0.000291734 -3.28023e-05
-0.00073131 0.000218328 0.000219849 -3.97669e-05
-0.000978476 0.000292664 0.000293919 -3.28023e-05
-0.000974843 0.000291581 0.000292826 -3.28023e-05
-0.0012138 0.000363518 0.000364404 -2.38523e-05
-0.00120472 0.000360805 0.000361677 -2.38523e-05
-0.000723125 0.000215897 0.000217383 -3.97667e-05
-0.000728582 0.000217518 0.000219027 -3.97668e-05
-0.00120926 0.000362161 0.000363041 -2.38523e-05
-0.000963942 0.000288331 0.000289548 -3.28022e-05
-0.000725853 0.000216707 0.000218205 -3.97668e-05
-0.000971209 0.000290498 0.000291734 -3.28023e-05
-0.000967575 0.000289414 0.000290641 -3.28023e-05
-0.00120472 0.000360805 0.000361677 -2.38523e-05
-0.00119564 0.000358091 0.00035895 -2.38523e-05
-0.000717668 0.000214276 0.00021574 -3.97666e-05
-0.000723125 0.000215897 0.000217383 -3.97667e-05
-0.00120018 0.000359448 0.000360314 -2.38523e-05
-0.000956675 0.000286163 0.000287362 -3.28022e-05
-0.000720396 0.000215086 0.000216562 -3.97666e-05
-0.000963942 0.000288331 0.000289548 -3.28022e-05
-0.000960308 0.000287247 0.000288455 -3.28022e-05
-0.00119564 0.000358091 0.00035895 -2.38523e-05
-0.00118657 0.000355378 0.000356223 -2.38523e-05
-0.000712212 0.000212654 0.000214096 -3.97665e-05
-0.000717668 0.000214276 0.00021574 -3.97666e-05
-0.0011911 0.000356734 0.000357587 -2.38523e-05
-0.000949408 0.000283996 0.000285177 -3.28021e-05
-0.00071494 0.000213465 0.000214918 -3.97665e-05
-0.000956675 0.000286163 0.000287362 -3.28022e-05
-0.000953042 0.00028508 0.000286269 -3.28022e-05
-0.00118657 0.000355378 0.000356223 -2.38523e-05
-0.00117749 0.000352664 0.000353496 -2.38523e-05
-0.000706755 0.000211033 0.000212452 -3.97663e-05
-0.000712212 0.000212654 0.000214096 -3.97665e-05
-0.00118203 0.000354021 0.00035486 -2.38523e-05
-0.000942142 0.000281829 0.000282991 -3.28021e-05
-0.000709483 0.000211844 0.000213274 -3.97664e-05
-0.000949408 0.000283996 0.000285177 -3.28021e-05
-0.000945775 0.000282913 0.000284084 -3.28021e-05
-0.00117749 0.000352664 0.000353496 -2.38523e-05
-0.00116841 0.00034995 0.00035077 -2.38523e-05
-0.000701299 0.000209412 0.000210809 -3.97662e-05
-0.000706755 0.000211033 0.000212452 -3.97663e-05
-0.00117295 0.000351307 0.000352133 -2.38523e-05
-0.000934875 0.000279662 0.000280806 -3.2802e-05
-0.000704027 0.000210222 0.000211631 -3.97663e-05
-0.000942142 0.000281829 0.000282991 -3.28021e-05
-0.000938508 0.000280746 0.000281898 -3.2802e-05
-0.00116841 0.00034995 0.00035077 -2.38523e-05
-0.00115934 0.000347237 0.000348043 -2.38523e-05
-0.000695843 0.00020779 0.000209166 -3.97661e-05
-0.000701299 0.000209412 0.000210809 -3.97662e-05
-0.00116387 0.000348594 0.000349406 -2.38523e-05
-0.000927609 0.000277495 0.00027862 -3.28019e-05
-0.000698571 0.000208601 0.000209987 -3.97662e-05
-0.000934875 0.000279662 0.000280806 -3.2802e-05
-0.000931242 0.000278578 0.000279713 -3.2802e-05
-0.00115934 0.000347237 0.000348043 -2.38523e-05
-0.00115026 0.000344523 0.000345316 -2.38522e-05
-0.000690388 0.000206169 0.000207522 -3.9766e-05
-0.000695843 0.00020779 0.000209166 -3.97661e-05
-0.0011548 0.00034588 0.00034668 -2.38523e-05
-0.000920343 0.000275328 0.000276435 -3.28019e-05
-0.000693115 0.00020698 0.000208344 -3.9766e-05
-0.000927609 0.000277495 0.00027862 -3.28019e-05
-0.000923976 0.000276411 0.000277528 -3.28019e-05
-0.00115026 0.000344523 0.000345316 -2.38522e-05
-0.00114119 0.000341809 0.00034259 -2.38522e-05
-0.000684932 0.000204547 0.000205879 -3.97659e-05
-0.000690388 0.000206169 0.000207522 -3.9766e-05
-0.00114572 0.000343166 0.000343953 -2.38522e-05
-0.000913077 0.00027316 0.00027425 -3.28018e-05
-0.00068766 0.000205358 0.000206701 -3.97659e-05
-0.000920343 0.000275328 0.000276435 -3.28019e-05
-0.00091671 0.000274244 0.000275343 -3.28019e-05
-0.00114119 0.000341809 0.00034259 -2.38522e-05
-0.00113211 0.000339096 0.000339863 -2.38522e-05
-0.000679477 0.000202926 0.000204236 -3.97657e-05
-0.000684932 0.000204547 0.000205879 -3.97659e-05
-0.00113665 0.000340453 0.000341226 -2.38522e-05
-0.000905811 0.000270993 0.000272065 -3.28018e-05
-0.000682204 0.000203736 0.000205058 -3.97658e-05
-0.000913077 0.00027316 0.00027425 -3.28018e-05
-0.000909444 0.000272077 0.000273158 -3.28018e-05
-0.00113211 0.000339096 0.000339863 -2.38522e-05
-0.00112303 0.000336382 0.000337137 -2.38522e-05
-0.000674021 0.000201304 0.000202593 -3.97656e-05
-0.000679477 0.000202926 0.000204236 -3.97657e-05
-0.00112757 0.000337739 0.0003385 -2.38522e-05
-0.000898546 0.000268825 0.00026988 -3.28017e-05
-0.000676749 0.000202115 0.000203415 -3.97657e-05
-0.000905811 0.000270993 0.000272065 -3.28018e-05
-0.000902178 0.000269909 0.000270973 -3.28017e-05
-0.00112303 0.000336382 0.000337137 -2.38522e-05
-0.00111396 0.000333668 0.000334411 -2.38522e-05
-0.000668566 0.000199682 0.00020095 -3.97655e-05
-0.000674021 0.000201304 0.000202593 -3.97656e-05
-0.0011185 0.000335025 0.000335774 -2.38522e-05
-0.00089128 0.000266658 0.000267695 -3.28016e-05
-0.000671294 0.000200493 0.000201772 -3.97655e-05
-0.000898546 0.000268825 0.00026988 -3.28017e-05
-0.000894913 0.000267742 0.000268788 -3.28017e-05
-0.00111396 0.000333668 0.000334411 -2.38522e-05
-0.00110488 0.000330954 0.000331684 -2.38522e-05
-0.000663112 0.00019806 0.000199308 -3.97654e-05
-0.000668566 0.000199682 0.00020095 -3.97655e-05
-0.00110942 0.000332311 0.000333047 -2.38522e-05
-0.000884015 0.00026449 0.000265511 -3.28016e-05
-0.000665839 0.000198871 0.000200129 -3.97654e-05
-0.00089128 0.000266658 0.000267695 -3.28016e-05
-0.000887648 0.000265574 0.000266603 -3.28016e-05
-0.00110488 0.000330954 0.000331684 -2.38522e-05
-0.00109581 0.000328241 0.000328958 -2.38521e-05
-0.000657657 0.000196439 0.000197665 -3.97652e-05
-0.000663112 0.00019806 0.000199308 -3.97654e-05
-0.00110035 0.000329598 0.000330321 -2.38522e-05
-0.00087675 0.000262323 0.000263326 -3.28015e-05
-0.000660384 0.000197249 0.000198486 -3.97653e-05
-0.000884015 0.00026449 0.000265511 -3.28016e-05
-0.000880383 0.000263407 0.000264418 -3.28015e-05
-0.00109581 0.000328241 0.000328958 -2.38521e-05
-0.00108674 0.000325527 0.000326232 -2.38521e-05
-0.000652202 0.000194817 0.000196023 -3.97651e-05
-0.000657657 0.000196439 0.000197665 -3.97652e-05
-0.00109127 0.000326884 0.000327595 -2.38521e-05
-0.000869485 0.000260155 0.000261141 -3.28014e-05
-0.00065493 0.000195628 0.000196844 -3.97652e-05
-0.00087675 0.000262323 0.000263326 -3.28015e-05
-0.000873118 0.000261239 0.000262234 -3.28015e-05
-0.00108674 0.000325527 0.000326232 -2.38521e-05
-0.00107766 0.000322813 0.000323506 -2.38521e-05
-0.000646748 0.000193195 0.00019438 -3.9765e-05
-0.000652202 0.000194817 0.000196023 -3.97651e-05
-0.0010822 0.00032417 0.000324869 -2.38521e-05
-0.000862221 0.000257988 0.000258957 -3.28014e-05
-0.000649475 0.000194006 0.000195201 -3.9765e-05
-0.000869485 0.000260155 0.000261141 -3.28014e-05
-0.000865853 0.000259072 0.000260049 -3.28014e-05
-0.00107766 0.000322813 0.000323506 -2.38521e-05
-0.00106859 0.000320099 0.00032078 -2.38521e-05
-0.000641294 0.000191573 0.000192738 -3.97648e-05
-0.000646748 0.000193195 0.00019438 -3.9765e-05
-0.00107312 0.000321456 0.000322143 -2.38521e-05
-0.000854956 0.00025582 0.000256773 -3.28013e-05
-0.000644021 0.000192384 0.000193559 -3.97649e-05
-0.000862221 0.000257988 0.000258957 -3.28014e-05
-0.000858589 0.000256904 0.000257865 -3.28013e-05
-0.00106859 0.000320099 0.00032078 -2.38521e-05
-0.00105951 0.000317385 0.000318054 -2.38521e-05
-0.00063584 0.00018995 0.000191096 -3.97647e-05
-0.000641294 0.000191573 0.000192738 -3.97648e-05
-0.00106405 0.000318742 0.000319417 -2.38521e-05
-0.000847692 0.000253652 0.000254588 -3.28012e-05
-0.000638567 0.000190761 0.000191917 -3.97648e-05
-0.000854956 0.00025582 0.000256773 -3.28013e-05
-0.000851324 0.000254736 0.000255681 -3.28013e-05
-0.00105951 0.000317385 0.000318054 -2.38521e-05
-0.00105044 0.000314672 0.000315329 -2.38521e-05
-0.000630386 0.000188328 0.000189454 -3.97646e-05
-0.00063584 0.00018995 0.000191096 -3.97647e-05
-0.00105498 0.000316029 0.000316692 -2.38521e-05
-0.000840428 0.000251485 0.000252404 -3.28012e-05
-0.000633113 0.000189139 0.000190275 -3.97647e-05
-0.000847692 0.000253652 0.000254588 -3.28012e-05
-0.00084406 0.000252568 0.000253496 -3.28012e-05
-0.00105044 0.000314672 0.000315329 -2.38521e-05
-0.00104136 0.000311958 0.000312603 -2.3852e-05
-0.000624933 0.000186706 0.000187812 -3.97645e-05
-0.000630386 0.000188328 0.000189454 -3.97646e-05
-0.0010459 0.000313315 0.000313966 -2.3852e-05
-0.000833164 0.000249317 0.00025022 -3.28011e-05
-0.00062766 0.000187517 0.000188633 -3.97645e-05
-0.000840428 0.000251485 0.000252404 -3.28012e-05
-0.000836796 0.000250401 0.000251312 -3.28011e-05
-0.00104136 0.000311958 0.000312603 -2.3852e-05
-0.00103229 0.000309244 0.000309877 -2.3852e-05
-0.00061948 0.000185084 0.00018617 -3.97643e-05
-0.000624933 0.000186706 0.000187812 -3.97645e-05
-0.00103683 0.000310601 0.00031124 -2.3852e-05
-0.0008259 0.000247149 0.000248036 -3.2801e-05
-0.000622206 0.000185895 0.000186991 -3.97644e-05
-0.000833164 0.000249317 0.00025022 -3.28011e-05
-0.000829532 0.000248233 0.000249128 -3.28011e-05
-0.00103229 0.000309244 0.000309877 -2.3852e-05
-0.00102322 0.00030653 0.000307152 -2.3852e-05
-0.000614026 0.000183461 0.000184528 -3.97642e-05
-0.00061948 0.000185084 0.00018617 -3.97643e-05
-0.00102775 0.000307887 0.000308515 -2.3852e-05
-0.000818637 0.000244981 0.000245852 -3.2801e-05
-0.000616753 0.000184272 0.000185349 -3.97643e-05
-0.0008259 0.000247149 0.000248036 -3.2801e-05
-0.000822269 0.000246065 0.000246944 -3.2801e-05
-0.00102322 0.00030653 0.000307152 -2.3852e-05
-0.00101414 0.000303816 0.000304427 -2.3852e-05
-0.000608573 0.000181839 0.000182886 -3.97641e-05
-0.000614026 0.000183461 0.000184528 -3.97642e-05
-0.00101868 0.000305173 0.000305789 -2.3852e-05
-0.000811373 0.000242813 0.000243669 -3.28009e-05
-0.0006113 0.00018265 0.000183707 -3.97641e-05
-0.000818637 0.000244981 0.000245852 -3.2801e-05
-0.000815005 0.000243897 0.000244761 -3.28009e-05
-0.00101414 0.000303816 0.000304427 -2.3852e-05
-0.00100507 0.000301102 0.000301701 -2.3852e-05
-0.00060312 0.000180216 0.000181245 -3.97639e-05
-0.000608573 0.000181839 0.000182886 -3.97641e-05
-0.00100961 0.000302459 0.000303064 -2.3852e-05
-0.00080411 0.000240645 0.000241485 -3.28008e-05
-0.000605847 0.000181028 0.000182065 -3.9764e-05
-0.000811373 0.000242813 0.000243669 -3.28009e-05
-0.000807742 0.000241729 0.000242577 -3.28009e-05
-0.00100507 0.000301102 0.000301701 -2.3852e-05
-0.000995999 0.000298388 0.000298976 -2.38519e-05
-0.000597668 0.000178594 0.000179603 -3.97638e-05
-0.00060312 0.000180216 0.000181245 -3.97639e-05
-0.00100053 0.000299745 0.000300339 -2.38519e-05
-0.000796847 0.000238477 0.000239302 -3.28008e-05
-0.000600394 0.000179405 0.000180424 -3.97639e-05
-0.00080411 0.000240645 0.000241485 -3.28008e-05
-0.000800479 0.000239561 0.000240393 -3.28008e-05
-0.000995999 0.000298388 0.000298976 -2.38519e-05
-0.000986926 0.000295674 0.000296251 -2.38519e-05
-0.000592215 0.000176971 0.000177962 -3.97637e-05
-0.000597668 0.000178594 0.000179603 -3.97638e-05
-0.000991462 0.000297031 0.000297613 -2.38519e-05
-0.000789584 0.000236309 0.000237118 -3.28007e-05
-0.000594942 0.000177782 0.000178783 -3.97638e-05
-0.000796847 0.000238477 0.000239302 -3.28008e-05
-0.000793216 0.000237393 0.00023821 -3.28007e-05
-0.000986926 0.000295674 0.000296251 -2.38519e-05
-0.000977853 0.00029296 0.000293526 -2.38519e-05
-0.000586763 0.000175348 0.000176321 -3.97636e-05
-0.000592215 0.000176971 0.000177962 -3.97637e-05
-0.00098239 0.000294317 0.000294888 -2.38519e-05
-0.000782322 0.000234141 0.000234935 -3.28006e-05
-0.000589489 0.00017616 0.000177141 -3.97636e-05
-0.000789584 0.000236309 0.000237118 -3.28007e-05
-0.000785953 0.000235225 0.000236026 -3.28007e-05
-0.000977853 0.00029296 0.000293526 -2.38519e-05
-0.000968781 0.000290246 0.000290801 -2.38519e-05
-0.000581311 0.000173726 0.000174679 -3.97634e-05
-0.000586763 0.000175348 0.000176321 -3.97636e-05
-0.000973317 0.000291603 0.000292163 -2.38519e-05
-0.000775059 0.000231973 0.000232751 -3.28006e-05
-0.000584037 0.000174537 0.0001755 -3.97635e-05
-0.000782322 0.000234141 0.000234935 -3.28006e-05
-0.00077869 0.000233057 0.000233843 -3.28006e-05
-0.000968781 0.000290246 0.000290801 -2.38519e-05
-0.000959709 0.000287532 0.000288076 -2.38519e-05
-0.000575859 0.000172103 0.000173038 -3.97633e-05
-0.000581311 0.000173726 0.000174679 -3.97634e-05
-0.000964245 0.000288889 0.000289438 -2.38519e-05
-0.000767797 0.000229804 0.000230568 -3.28005e-05
-0.000578585 0.000172914 0.000173859 -3.97634e-05
-0.000775059 0.000231973 0.000232751 -3.28006e-05
-0.000771428 0.000230889 0.00023166 -3.28006e-05
-0.000959709 0.000287532 0.000288076 -2.38519e-05
-0.000950637 0.000284818 0.000285351 -2.38518e-05
-0.000570407 0.00017048 0.000171398 -3.97632e-05
-0.000575859 0.000172103 0.000173038 -3.97633e-05
-0.000955173 0.000286175 0.000286713 -2.38519e-05
-0.000760535 0.000227636 0.000228385 -3.28005e-05
-0.000573133 0.000171291 0.000172218 -3.97632e-05
-0.000767797 0.000229804 0.000230568 -3.28005e-05
-0.000764166 0.00022872 0.000229477 -3.28005e-05
-0.000950637 0.000284818 0.000285351 -2.38518e-05
-0.000941565 0.000282104 0.000282626 -2.38518e-05
-0.000564956 0.000168857 0.000169757 -3.97631e-05
-0.000570407 0.00017048 0.000171398 -3.97632e-05
-0.000946101 0.000283461 0.000283989 -2.38518e-05
-0.000753273 0.000225468 0.000226202 -3.28004e-05
-0.000567682 0.000169668 0.000170577 -3.97631e-05
-0.000760535 0.000227636 0.000228385 -3.28005e-05
-0.000756904 0.000226552 0.000227294 -3.28004e-05
-0.000941565 0.000282104 0.000282626 -2.38518e-05
-0.000932493 0.000279389 0.000279902 -2.38518e-05
-0.000559505 0.000167234 0.000168116 -3.97629e-05
-0.000564956 0.000168857 0.000169757 -3.97631e-05
-0.000937029 0.000280747 0.000281264 -2.38518e-05
-0.000746011 0.0002233 0.000224019 -3.28003e-05
-0.00056223 0.000168045 0.000168936 -3.9763e-05
-0.000753273 0.000225468 0.000226202 -3.28004e-05
-0.000749642 0.000224384 0.000225111 -3.28004e-05
-0.000932493 0.000279389 0.000279902 -2.38518e-05
-0.000923422 0.000276675 0.000277177 -2.38518e-05
-0.000554053 0.000165611 0.000166475 -3.97628e-05
-0.000559505 0.000167234 0.000168116 -3.97629e-05
-0.000927957 0.000278032 0.000278539 -2.38518e-05
-0.00073875 0.000221131 0.000221836 -3.28003e-05
-0.000556779 0.000166422 0.000167296 -3.97629e-05
-0.000746011 0.0002233 0.000224019 -3.28003e-05
-0.00074238 0.000222215 0.000222928 -3.28003e-05
-0.000923422 0.000276675 0.000277177 -2.38518e-05
-0.00091435 0.000273961 0.000274452 -2.38518e-05
-0.000548602 0.000163988 0.000164835 -3.97627e-05
-0.000554053 0.000165611 0.000166475 -3.97628e-05
-0.000918886 0.000275318 0.000275815 -2.38518e-05
-0.000731488 0.000218963 0.000219654 -3.28002e-05
-0.000551328 0.000164799 0.000165655 -3.97627e-05
-0.00073875 0.000221131 0.000221836 -3.28003e-05
-0.000735119 0.000220047 0.000220745 -3.28002e-05
-0.00091435 0.000273961 0.000274452 -2.38518e-05
-0.000905279 0.000271247 0.000271728 -2.38518e-05
-0.000543152 0.000162364 0.000163195 -3.97626e-05
-0.000548602 0.000163988 0.000164835 -3.97627e-05
-0.000909815 0.000272604 0.00027309 -2.38518e-05
-0.000724227 0.000216794 0.000217471 -3.28001e-05
-0.000545877 0.000163176 0.000164015 -3.97626e-05
-0.000731488 0.000218963 0.000219654 -3.28002e-05
-0.000727858 0.000217878 0.000218562 -3.28002e-05
-0.000905279 0.000271247 0.000271728 -2.38518e-05
-0.000896208 0.000268533 0.000269004 -2.38517e-05
-0.000537701 0.000160741 0.000161554 -3.97624e-05
-0.000543152 0.000162364 0.000163195 -3.97626e-05
-0.000900744 0.00026989 0.000270366 -2.38518e-05
-0.000716966 0.000214626 0.000215289 -3.28001e-05
-0.000540426 0.000161553 0.000162374 -3.97625e-05
-0.000724227 0.000216794 0.000217471 -3.28001e-05
-0.000720596 0.00021571 0.00021638 -3.28001e-05
-0.000896208 0.000268533 0.000269004 -2.38517e-05
-0.000887137 0.000265818 0.000266279 -2.38517e-05
-0.000532251 0.000159118 0.000159914 -3.97623e-05
-0.000537701 0.000160741 0.000161554 -3.97624e-05
-0.000891673 0.000267176 0.000267642 -2.38517e-05
-0.000709705 0.000212457 0.000213106 -3.28e-05
-0.000534976 0.000159929 0.000160734 -3.97624e-05
-0.000716966 0.000214626 0.000215289 -3.28001e-05
-0.000713335 0.000213541 0.000214197 -3.28001e-05
-0.000887137 0.000265818 0.000266279 -2.38517e-05
-0.000878067 0.000263104 0.000263555 -2.38517e-05
-0.0005268 0.000157494 0.000158274 -3.97622e-05
-0.000532251 0.000159118 0.000159914 -3.97623e-05
-0.000882602 0.000264461 0.000264917 -2.38517e-05
-0.000702444 0.000210289 0.000210924 -3.28e-05
-0.000529525 0.000158306 0.000159094 -3.97623e-05
-0.000709705 0.000212457 0.000213106 -3.28e-05
-0.000706075 0.000211373 0.000212015 -3.28e-05
-0.000878067 0.000263104 0.000263555 -2.38517e-05
-0.000868996 0.00026039 0.000260831 -2.38517e-05
-0.00052135 0.000155871 0.000156634 -3.97621e-05
-0.0005268 0.000157494 0.000158274 -3.97622e-05
-0.000873531 0.000261747 0.000262193 -2.38517e-05
-0.000695184 0.00020812 0.000208742 -3.27999e-05
-0.000524075 0.000156683 0.000157454 -3.97621e-05
-0.000702444 0.000210289 0.000210924 -3.28e-05
-0.000698814 0.000209204 0.000209833 -3.27999e-05
-0.000868996 0.00026039 0.000260831 -2.38517e-05
-0.000859926 0.000257676 0.000258107 -2.38517e-05
-0.0005159 0.000154247 0.000154994 -3.9762e-05
-0.00052135 0.000155871 0.000156634 -3.97621e-05
-0.000864461 0.000259033 0.000259469 -2.38517e-05
-0.000687923 0.000205951 0.00020656 -3.27998e-05
-0.000518625 0.000155059 0.000155814 -3.9762e-05
-0.000695184 0.00020812 0.000208742 -3.27999e-05
-0.000691554 0.000207036 0.000207651 -3.27999e-05
-0.000859926 0.000257676 0.000258107 -2.38517e-05
-0.000850856 0.000254961 0.000255383 -2.38517e-05
-0.000510451 0.000152624 0.000153354 -3.97618e-05
-0.0005159 0.000154247 0.000154994 -3.9762e-05
-0.000855391 0.000256318 0.000256745 -2.38517e-05
-0.000680663 0.000203782 0.000204378 -3.27998e-05
-0.000513175 0.000153435 0.000154174 -3.97619e-05
-0.000687923 0.000205951 0.00020656 -3.27998e-05
-0.000684293 0.000204867 0.000205469 -3.27998e-05
-0.000850856 0.000254961 0.000255383 -2.38517e-05
-0.000841786 0.000252247 0.000252659 -2.38517e-05
-0.000505001 0.000151 0.000151715 -3.97617e-05
-0.000510451 0.000152624 0.000153354 -3.97618e-05
-0.000846321 0.000253604 0.000254021 -2.38517e-05
-0.000673403 0.000201614 0.000202196 -3.27997e-05
-0.000507726 0.000151812 0.000152535 -3.97618e-05
-0.000680663 0.000203782 0.000204378 -3.27998e-05
-0.000677033 0.000202698 0.000203287 -3.27998e-05
-0.000841786 0.000252247 0.000252659 -2.38517e-05
-0.000832716 0.000249533 0.000249936 -2.38517e-05
-0.000499552 0.000149376 0.000150075 -3.97616e-05
-0.000505001 0.000151 0.000151715 -3.97617e-05
-0.000837251 0.00025089 0.000251298 -2.38517e-05
-0.000666144 0.000199445 0.000200014 -3.27997e-05
-0.000502276 0.000150188 0.000150895 -3.97617e-05
-0.000673403 0.000201614 0.000202196 -3.27997e-05
-0.000669773 0.000200529 0.000201105 -3.27997e-05
-0.000832716 0.000249533 0.000249936 -2.38517e-05
-0.000823646 0.000246818 0.000247212 -2.38516e-05
-0.000494103 0.000147752 0.000148436 -3.97615e-05
-0.000499552 0.000149376 0.000150075 -3.97616e-05
-0.000828181 0.000248175 0.000248574 -2.38517e-05
-0.000658884 0.000197276 0.000197832 -3.27996e-05
-0.000496827 0.000148564 0.000149255 -3.97616e-05
-0.000666144 0.000199445 0.000200014 -3.27997e-05
-0.000662514 0.00019836 0.000198923 -3.27997e-05
-0.000823646 0.000246818 0.000247212 -2.38516e-05
-0.000814577 0.000244104 0.000244488 -2.38516e-05
-0.000488654 0.000146128 0.000146796 -3.97614e-05
-0.000494103 0.000147752 0.000148436 -3.97615e-05
-0.000819111 0.000245461 0.00024585 -2.38516e-05
-0.000651625 0.000195107 0.00019565 -3.27996e-05
-0.000491378 0.00014694 0.000147616 -3.97614e-05
-0.000658884 0.000197276 0.000197832 -3.27996e-05
-0.000655254 0.000196191 0.000196741 -3.27996e-05
-0.000814577 0.000244104 0.000244488 -2.38516e-05
-0.000805507 0.000241389 0.000241765 -2.38516e-05
-0.000483205 0.000144505 0.000145157 -3.97613e-05
-0.000488654 0.000146128 0.000146796 -3.97614e-05
-0.000810042 0.000242747 0.000243127 -2.38516e-05
-0.000644365 0.000192938 0.000193469 -3.27995e-05
-0.000485929 0.000145317 0.000145977 -3.97613e-05
-0.000651625 0.000195107 0.00019565 -3.27996e-05
-0.000647995 0.000194022 0.00019456 -3.27995e-05
-0.000805507 0.000241389 0.000241765 -2.38516e-05
-0.000796438 0.000238675 0.000239041 -2.38516e-05
-0.000477756 0.000142881 0.000143518 -3.97612e-05
-0.000483205 0.000144505 0.000145157 -3.97613e-05
-0.000800973 0.000240032 0.000240403 -2.38516e-05
-0.000637106 0.000190769 0.000191287 -3.27995e-05
-0.00048048 0.000143693 0.000144338 -3.97612e-05
-0.000644365 0.000192938 0.000193469 -3.27995e-05
-0.000640736 0.000191853 0.000192378 -3.27995e-05
-0.000796438 0.000238675 0.000239041 -2.38516e-05
-0.000787369 0.00023596 0.000236318 -2.38516e-05
-0.000472308 0.000141256 0.000141879 -3.97611e-05
-0.000477756 0.000142881 0.000143518 -3.97612e-05
-0.000791904 0.000237318 0.00023768 -2.38516e-05
-0.000629847 0.0001886 0.000189106 -3.27994e-05
-0.000475032 0.000142069 0.000142699 -3.97611e-05
-0.000637106 0.000190769 0.000191287 -3.27995e-05
-0.000633477 0.000189684 0.000190197 -3.27994e-05
-0.000787369 0.00023596 0.000236318 -2.38516e-05
-0.0007783 0.000233246 0.000233595 -2.38516e-05
-0.000466859 0.000139632 0.00014024 -3.9761e-05
-0.000472308 0.000141256 0.000141879 -3.97611e-05
-0.000782835 0.000234603 0.000234956 -2.38516e-05
-0.000622589 0.000186431 0.000186925 -3.27994e-05
-0.000469584 0.000140444 0.00014106 -3.9761e-05
-0.000629847 0.0001886 0.000189106 -3.27994e-05
-0.000626218 0.000187515 0.000188015 -3.27994e-05
-0.0007783 0.000233246 0.000233595 -2.38516e-05
-0.000769232 0.000230531 0.000230872 -2.38516e-05
-0.000461411 0.000138008 0.000138601 -3.97609e-05
-0.000466859 0.000139632 0.00014024 -3.9761e-05
-0.000773766 0.000231889 0.000232233 -2.38516e-05
-0.00061533 0.000184262 0.000184744 -3.27993e-05
-0.000464135 0.00013882 0.000139421 -3.97609e-05
-0.000622589 0.000186431 0.000186925 -3.27994e-05
-0.000618959 0.000185346 0.000185834 -3.27993e-05
-0.000769232 0.000230531 0.000230872 -2.38516e-05
-0.000760163 0.000227817 0.000228148 -2.38516e-05
-0.000455963 0.000136384 0.000136963 -3.97607e-05
-0.000461411 0.000138008 0.000138601 -3.97609e-05
-0.000764697 0.000229174 0.00022951 -2.38516e-05
-0.000608072 0.000182092 0.000182563 -3.27993e-05
-0.000458687 0.000137196 0.000137782 -3.97608e-05
-0.00061533 0.000184262 0.000184744 -3.27993e-05
-0.000611701 0.000183177 0.000183653 -3.27993e-05
-0.000760163 0.000227817 0.000228148 -2.38516e-05
-0.000751095 0.000225102 0.000225425 -2.38516e-05
-0.000450516 0.00013476 0.000135324 -3.97606e-05
-0.000455963 0.000136384 0.000136963 -3.97607e-05
-0.000755629 0.00022646 0.000226787 -2.38516e-05
-0.000600813 0.000179923 0.000180382 -3.27992e-05
-0.00045324 0.000135572 0.000136143 -3.97607e-05
-0.000608072 0.000182092 0.000182563 -3.27993e-05
-0.000604442 0.000181008 0.000181472 -3.27993e-05
-0.000751095 0.000225102 0.000225425 -2.38516e-05
-0.000742027 0.000222388 0.000222702 -2.38516e-05
-0.000445068 0.000133135 0.000133686 -3.97605e-05
-0.000450516 0.00013476 0.000135324 -3.97606e-05
-0.000746561 0.000223745 0.000224064 -2.38516e-05
-0.000593555 0.000177754 0.000178201 -3.27992e-05
-0.000447792 0.000133947 0.000134505 -3.97606e-05
-0.000600813 0.000179923 0.000180382 -3.27992e-05
-0.000597184 0.000178838 0.000179291 -3.27992e-05
-0.000742027 0.000222388 0.000222702 -2.38516e-05
-0.000732959 0.000219673 0.00021998 -2.38516e-05
-0.000439621 0.000131511 0.000132047 -3.97604e-05
-0.000445068 0.000133135 0.000133686 -3.97605e-05
-0.000737493 0.00022103 0.000221341 -2.38516e-05
-0.000586297 0.000175584 0.00017602 -3.27992e-05
-0.000442344 0.000132323 0.000132866 -3.97605e-05
-0.000593555 0.000177754 0.000178201 -3.27992e-05
-0.000589926 0.000176669 0.00017711 -3.27992e-05
-0.000732959 0.000219673 0.00021998 -2.38516e-05
-0.000723891 0.000216959 0.000217257 -2.38516e-05
-0.000434174 0.000129886 0.000130409 -3.97604e-05
-0.000439621 0.000131511 0.000132047 -3.97604e-05
-0.000728425 0.000218316 0.000218618 -2.38516e-05
-0.00057904 0.000173415 0.000173839 -3.27991e-05
-0.000436897 0.000130698 0.000131228 -3.97604e-05
-0.000586297 0.000175584 0.00017602 -3.27992e-05
-0.000582669 0.0001745 0.00017493 -3.27991e-05
-0.000723891 0.000216959 0.000217257 -2.38516e-05
-0.000714823 0.000214244 0.000214534 -2.38516e-05
-0.000428727 0.000128261 0.000128771 -3.97603e-05
-0.000434174 0.000129886 0.000130409 -3.97604e-05
-0.000719357 0.000215601 0.000215895 -2.38516e-05
-0.000571782 0.000171246 0.000171659 -3.27991e-05
-0.00043145 0.000129074 0.00012959 -3.97603e-05
-0.00057904 0.000173415 0.000173839 -3.27991e-05
-0.000575411 0.00017233 0.000172749 -3.27991e-05
-0.000714823 0.000214244 0.000214534 -2.38516e-05
-0.000705756 0.000211529 0.000211811 -2.38516e-05
-0.00042328 0.000126637 0.000127133 -3.97602e-05
-0.000428727 0.000128261 0.000128771 -3.97603e-05
-0.00071029 0.000212887 0.000213173 -2.38516e-05
-0.000564525 0.000169076 0.000169478 -3.2799e-05
-0.000426003 0.000127449 0.000127952 -3.97602e-05
-0.000571782 0.000171246 0.000171659 -3.27991e-05
-0.000568154 0.000170161 0.000170568 -3.27991e-05
-0.000705756 0.000211529 0.000211811 -2.38516e-05
-0.000696689 0.000208815 0.000209089 -2.38516e-05
-0.000417833 0.000125012 0.000125495 -3.97601e-05
-0.00042328 0.000126637 0.000127133 -3.97602e-05
-0.000701222 0.000210172 0.00021045 -2.38516e-05
-0.000557268 0.000166907 0.000167298 -3.2799e-05
-0.000420556 0.000125824 0.000126314 -3.97601e-05
-0.000564525 0.000169076 0.000169478 -3.2799e-05
-0.000560896 0.000167991 0.000168388 -3.2799e-05
-0.000696689 0.000208815 0.000209089 -2.38516e-05
-0.000687621 0.0002061 0.000206366 -2.38516e-05
-0.000412387 0.000123387 0.000123857 -3.976e-05
-0.000417833 0.000125012 0.000125495 -3.97601e-05
-0.000692155 0.000207457 0.000207728 -2.38516e-05
-0.000550011 0.000164737 0.000165117 -3.2799e-05
-0.00041511 0.0001242 0.000124676 -3.976e-05
-0.000557268 0.000166907 0.000167298 -3.2799e-05
-0.000553639 0.000165822 0.000166207 -3.2799e-05
-0.000687621 0.0002061 0.000206366 -2.38516e-05
-0.000678554 0.000203385 0.000203644 -2.38516e-05
-0.00040694 0.000121762 0.000122219 -3.97599e-05
-0.000412387 0.000123387 0.000123857 -3.976e-05
-0.000683088 0.000204742 0.000205005 -2.38516e-05
-0.000542754 0.000162567 0.000162937 -3.27989e-05
-0.000409664 0.000122575 0.000123038 -3.97599e-05
-0.000550011 0.000164737 0.000165117 -3.2799e-05
-0.000546382 0.000163652 0.000164027 -3.2799e-05
-0.000678554 0.000203385 0.000203644 -2.38516e-05
-0.000669488 0.00020067 0.000200922 -2.38516e-05
-0.000401494 0.000120137 0.000120582 -3.97598e-05
-0.00040694 0.000121762 0.000122219 -3.97599e-05
-0.000674021 0.000202028 0.000202283 -2.38516e-05
-0.000535497 0.000160398 0.000160757 -3.27989e-05
-0.000404217 0.00012095 0.0001214 -3.97599e-05
-0.000542754 0.000162567 0.000162937 -3.27989e-05
-0.000539126 0.000161482 0.000161847 -3.27989e-05
-0.000669488 0.00020067 0.000200922 -2.38516e-05
-0.000660421 0.000197955 0.000198199 -2.38516e-05
-0.000396048 0.000118512 0.000118944 -3.97597e-05
-0.000401494 0.000120137 0.000120582 -3.97598e-05
-0.000664954 0.000199313 0.000199561 -2.38516e-05
-0.000528241 0.000158228 0.000158577 -3.27989e-05
-0.000398771 0.000119325 0.000119763 -3.97598e-05
-0.000535497 0.000160398 0.000160757 -3.27989e-05
-0.000531869 0.000159313 0.000159667 -3.27989e-05
-0.000660421 0.000197955 0.000198199 -2.38516e-05
-0.000651354 0.000195241 0.000195477 -2.38516e-05
-0.000390603 0.000116887 0.000117307 -3.97596e-05
-0.000396048 0.000118512 0.000118944 -3.97597e-05
-0.000655888 0.000196598 0.000196838 -2.38516e-05
-0.000520985 0.000156058 0.000156397 -3.27989e-05
-0.000393325 0.0001177 0.000118125 -3.97597e-05
-0.000528241 0.000158228 0.000158577 -3.27989e-05
-0.000524613 0.000157143 0.000157487 -3.27989e-05
-0.000651354 0.000195241 0.000195477 -2.38516e-05
-0.000642288 0.000192526 0.000192755 -2.38516e-05
-0.000385157 0.000115262 0.000115669 -3.97596e-05
-0.000390603 0.000116887 0.000117307 -3.97596e-05
-0.000646821 0.000193883 0.000194116 -2.38516e-05
-0.000513728 0.000153888 0.000154217 -3.27988e-05
-0.00038788 0.000116075 0.000116488 -3.97596e-05
-0.000520985 0.000156058 0.000156397 -3.27989e-05
-0.000517356 0.000154973 0.000155307 -3.27988e-05
-0.000642288 0.000192526 0.000192755 -2.38516e-05
-0.000633222 0.000189811 0.000190033 -2.38517e-05
-0.000379712 0.000113637 0.000114032 -3.97595e-05
-0.000385157 0.000115262 0.000115669 -3.97596e-05
-0.000637755 0.000191168 0.000191394 -2.38516e-05
-0.000506472 0.000151718 0.000152037 -3.27988e-05
-0.000382434 0.00011445 0.000114851 -3.97595e-05
-0.000513728 0.000153888 0.000154217 -3.27988e-05
-0.0005101 0.000152803 0.000153127 -3.27988e-05
-0.000633222 0.000189811 0.000190033 -2.38517e-05
-0.000624156 0.000187096 0.000187311 -2.38517e-05
-0.000374266 0.000112012 0.000112395 -3.97594e-05
-0.000379712 0.000113637 0.000114032 -3.97595e-05
-0.000628689 0.000188454 0.000188672 -2.38517e-05
-0.000499217 0.000149549 0.000149858 -3.27988e-05
-0.000376989 0.000112824 0.000113213 -3.97595e-05
-0.000506472 0.000151718 0.000152037 -3.27988e-05
-0.000502845 0.000150633 0.000150948 -3.27988e-05
-0.000624156 0.000187096 0.000187311 -2.38517e-05
-0.00061509 0.000184381 0.000184589 -2.38517e-05
-0.000368821 0.000110386 0.000110758 -3.97593e-05
-0.000374266 0.000112012 0.000112395 -3.97594e-05
-0.000619623 0.000185739 0.00018595 -2.38517e-05
-0.000491961 0.000147379 0.000147678 -3.27988e-05
-0.000371544 0.000111199 0.000111576 -3.97594e-05
-0.000499217 0.000149549 0.000149858 -3.27988e-05
-0.000495589 0.000148464 0.000148768 -3.27988e-05
-0.00061509 0.000184381 0.000184589 -2.38517e-05
-0.000606024 0.000181666 0.000181868 -2.38517e-05
-0.000363377 0.000108761 0.000109121 -3.97593e-05
-0.000368821 0.000110386 0.000110758 -3.97593e-05
-0.000610557 0.000183024 0.000183229 -2.38517e-05
-0.000484706 0.000145209 0.000145499 -3.27987e-05
-0.000366099 0.000109574 0.000109939 -3.97593e-05
-0.000491961 0.000147379 0.000147678 -3.27988e-05
-0.000488333 0.000146294 0.000146588 -3.27988e-05
-0.000606024 0.000181666 0.000181868 -2.38517e-05
-0.000596959 0.000178951 0.000179146 -2.38517e-05
-0.000357932 0.000107136 0.000107484 -3.97592e-05
-0.000363377 0.000108761 0.000109121 -3.97593e-05
-0.000601491 0.000180309 0.000180507 -2.38517e-05
-0.00047745 0.000143038 0.000143319 -3.27987e-05
-0.000360654 0.000107948 0.000108302 -3.97592e-05
-0.000484706 0.000145209 0.000145499 -3.27987e-05
-0.000481078 0.000144124 0.000144409 -3.27987e-05
-0.000596959 0.000178951 0.000179146 -2.38517e-05
-0.000587893 0.000176236 0.000176424 -2.38517e-05
-0.000352487 0.00010551 0.000105847 -3.97591e-05
-0.000357932 0.000107136 0.000107484 -3.97592e-05
-0.000592426 0.000177594 0.000177785 -2.38517e-05
-0.000470195 0.000140868 0.00014114 -3.27987e-05
-0.00035521 0.000106323 0.000106666 -3.97592e-05
-0.00047745 0.000143038 0.000143319 -3.27987e-05
-0.000473823 0.000141953 0.00014223 -3.27987e-05
-0.000587893 0.000176236 0.000176424 -2.38517e-05
-0.000578828 0.000173521 0.000173703 -2.38518e-05
-0.000347043 0.000103884 0.000104211 -3.97591e-05
-0.000352487 0.00010551 0.000105847 -3.97591e-05
-0.000583361 0.000174879 0.000175064 -2.38517e-05
-0.00046294 0.000138698 0.000138961 -3.27987e-05
-0.000349765 0.000104697 0.000105029 -3.97591e-05
-0.000470195 0.000140868 0.00014114 -3.27987e-05
-0.000466568 0.000139783 0.00014005 -3.27987e-05
-0.000578828 0.000173521 0.000173703 -2.38518e-05
-0.000569763 0.000170806 0.000170981 -2.38518e-05
-0.000341599 0.000102259 0.000102574 -3.9759e-05
-0.000347043 0.000103884 0.000104211 -3.97591e-05
-0.000574295 0.000172164 0.000172342 -2.38518e-05
-0.000455685 0.000136528 0.000136782 -3.27987e-05
-0.000344321 0.000103072 0.000103393 -3.97591e-05
-0.00046294 0.000138698 0.000138961 -3.27987e-05
-0.000459313 0.000137613 0.000137871 -3.27987e-05
-0.000569763 0.000170806 0.000170981 -2.38518e-05
-0.000560698 0.000168091 0.00016826 -2.38518e-05
-0.000336155 0.000100633 0.000100938 -3.9759e-05
-0.000341599 0.000102259 0.000102574 -3.9759e-05
-0.00056523 0.000169449 0.000169621 -2.38518e-05
-0.000448431 0.000134358 0.000134603 -3.27987e-05
-0.000338877 0.000101446 0.000101756 -3.9759e-05
-0.000455685 0.000136528 0.000136782 -3.27987e-05
-0.000452058 0.000135443 0.000135692 -3.27987e-05
-0.000560698 0.000168091 0.00016826 -2.38518e-05
-0.000551633 0.000165376 0.000165539 -2.38518e-05
-0.000330711 9.90072e-05 9.93016e-05 -3.97589e-05
-0.000336155 0.000100633 0.000100938 -3.9759e-05
-0.000556166 0.000166734 0.000166899 -2.38518e-05
-0.000441176 0.000132187 0.000132424 -3.27987e-05
-0.000333433 9.98201e-05 0.00010012 -3.97589e-05
-0.000448431 0.000134358 0.000134603 -3.27987e-05
-0.000444804 0.000133273 0.000133513 -3.27987e-05
-0.000551633 0.000165376 0.000165539 -2.38518e-05
-0.000542569 0.000162661 0.000162818 -2.38519e-05
-0.000325267 9.73813e-05 9.76654e-05 -3.97589e-05
-0.000330711 9.90072e-05 9.93016e-05 -3.97589e-05
-0.000547101 0.000164018 0.000164178 -2.38518e-05
-0.000433922 0.000130017 0.000130245 -3.27987e-05
-0.000327989 9.81942e-05 9.84835e-05 -3.97589e-05
-0.000441176 0.000132187 0.000132424 -3.27987e-05
-0.000437549 0.000131102 0.000131334 -3.27987e-05
-0.000542569 0.000162661 0.000162818 -2.38519e-05
-0.000533504 0.000159946 0.000160096 -2.38519e-05
-0.000319824 9.57553e-05 9.60293e-05 -3.97588e-05
-0.000325267 9.73813e-05 9.76654e-05 -3.97589e-05
-0.000538036 0.000161303 0.000161457 -2.38519e-05
-0.000426668 0.000127847 0.000128066 -3.27987e-05
-0.000322546 9.65683e-05 9.68474e-05 -3.97588e-05
-0.000433922 0.000130017 0.000130245 -3.27987e-05
-0.000430295 0.000128932 0.000129156 -3.27987e-05
-0.000533504 0.000159946 0.000160096 -2.38519e-05
-0.00052444 0.000157231 0.000157375 -2.38519e-05
-0.00031438 9.41293e-05 9.43934e-05 -3.97588e-05
-0.000319824 9.57553e-05 9.60293e-05 -3.97588e-05
-0.000528972 0.000158588 0.000158736 -2.38519e-05
-0.000419414 0.000125676 0.000125888 -3.27987e-05
-0.000317102 9.49423e-05 9.52113e-05 -3.97588e-05
-0.000426668 0.000127847 0.000128066 -3.27987e-05
-0.000423041 0.000126761 0.000126977 -3.27987e-05
-0.00052444 0.000157231 0.000157375 -2.38519e-05
-0.000515376 0.000154515 0.000154654 -2.38519e-05
-0.000308937 9.25032e-05 9.27575e-05 -3.97587e-05
-0.00031438 9.41293e-05 9.43934e-05 -3.97588e-05
-0.000519908 0.000155873 0.000156015 -2.38519e-05
-0.00041216 0.000123506 0.000123709 -3.27987e-05
-0.000311659 9.33163e-05 9.35754e-05 -3.97587e-05
-0.000419414 0.000125676 0.000125888 -3.27987e-05
-0.000415787 0.000124591 0.000124798 -3.27987e-05
-0.000515376 0.000154515 0.000154654 -2.38519e-05
-0.000506312 0.0001518 0.000151933 -2.3852e-05
-0.000303494 9.08771e-05 9.11217e-05 -3.97587e-05
-0.000308937 9.25032e-05 9.27575e-05 -3.97587e-05
-0.000510844 0.000153158 0.000153294 -2.3852e-05
-0.000404907 0.000121335 0.000121531 -3.27987e-05
-0.000306216 9.16902e-05 9.19396e-05 -3.97587e-05
-0.00041216 0.000123506 0.000123709 -3.27987e-05
-0.000408533 0.00012242 0.00012262 -3.27987e-05
-0.000506312 0.0001518 0.000151933 -2.3852e-05
-0.000497248 0.000149085 0.000149213 -2.3852e-05
-0.000298052 8.92509e-05 8.9486e-05 -3.97586e-05
-0.000303494 9.08771e-05 9.11217e-05 -3.97587e-05
-0.00050178 0.000150443 0.000150573 -2.3852e-05
-0.000397653 0.000119164 0.000119352 -3.27987e-05
-0.000300773 9.0064e-05 9.03039e-05 -3.97587e-05
-0.000404907 0.000121335 0.000121531 -3.27987e-05
-0.00040128 0.00012025 0.000120441 -3.27987e-05
-0.000497248 0.000149085 0.000149213 -2.3852e-05
-0.000488184 0.00014637 0.000146492 -2.3852e-05
-0.000292609 8.76246e-05 8.78505e-05 -3.97586e-05
-0.000298052 8.92509e-05 8.9486e-05 -3.97586e-05
-0.000492716 0.000147727 0.000147852 -2.3852e-05
-0.0003904 0.000116994 0.000117174 -3.27987e-05
-0.00029533 8.84377e-05 8.86682e-05 -3.97586e-05
-0.000397653 0.000119164 0.000119352 -3.27987e-05
-0.000394027 0.000118079 0.000118263 -3.27987e-05
-0.000488184 0.00014637 0.000146492 -2.3852e-05
-0.00047912 0.000143654 0.000143771 -2.38521e-05
-0.000287167 8.59982e-05 8.6215e-05 -3.97586e-05
-0.000292609 8.76246e-05 8.78505e-05 -3.97586e-05
-0.000483652 0.000145012 0.000145132 -2.38521e-05
-0.000383147 0.000114823 0.000114996 -3.27987e-05
-0.000289888 8.68114e-05 8.70327e-05 -3.97586e-05
-0.0003904 0.000116994 0.000117174 -3.27987e-05
-0.000386773 0.000115908 0.000116085 -3.27987e-05
-0.00047912 0.000143654 0.000143771 -2.38521e-05
-0.000470057 0.000140939 0.000141051 -2.38521e-05
-0.000281724 8.43718e-05 8.45796e-05 -3.97585e-05
-0.000287167 8.59982e-05 8.6215e-05 -3.97586e-05
-0.000474589 0.000142297 0.000142411 -2.38521e-05
-0.000375894 0.000112652 0.000112818 -3.27987e-05
-0.000284445 8.5185e-05 8.53973e-05 -3.97586e-05
-0.000383147 0.000114823 0.000114996 -3.27987e-05
-0.00037952 0.000113738 0.000113907 -3.27987e-05
-0.000470057 0.000140939 0.000141051 -2.38521e-05
-0.000460994 0.000138224 0.00013833 -2.38522e-05
-0.000276282 8.27453e-05 8.29444e-05 -3.97585e-05
-0.000281724 8.43718e-05 8.45796e-05 -3.97585e-05
-0.000465525 0.000139581 0.00013969 -2.38521e-05
-0.000368641 0.000110482 0.00011064 -3.27987e-05
-0.000279003 8.35585e-05 8.3762e-05 -3.97585e-05
-0.000375894 0.000112652 0.000112818 -3.27987e-05
-0.000372267 0.000111567 0.000111729 -3.27987e-05
-0.000460994 0.000138224 0.00013833 -2.38522e-05
-0.000451931 0.000135508 0.00013561 -2.38522e-05
-0.00027084 8.11187e-05 8.13092e-05 -3.97585e-05
-0.000276282 8.27453e-05 8.29444e-05 -3.97585e-05
-0.000456462 0.000136866 0.00013697 -2.38522e-05
-0.000361388 0.000108311 0.000108462 -3.27988e-05
-0.000273561 8.1932e-05 8.21268e-05 -3.97585e-05
-0.000368641 0.000110482 0.00011064 -3.27987e-05
-0.000365015 0.000109396 0.000109551 -3.27988e-05
-0.000451931 0.000135508 0.00013561 -2.38522e-05
-0.000442868 0.000132793 0.000132889 -2.38523e-05
-0.000265398 7.9492e-05 7.96742e-05 -3.97585e-05
-0.00027084 8.11187e-05 8.13092e-05 -3.97585e-05
-0.000447399 0.000134151 0.000134249 -2.38522e-05
-0.000354136 0.00010614 0.000106284 -3.27988e-05
-0.000268119 8.03054e-05 8.04917e-05 -3.97585e-05
-0.000361388 0.000108311 0.000108462 -3.27988e-05
-0.000357762 0.000107225 0.000107373 -3.27988e-05
-0.000442868 0.000132793 0.000132889 -2.38523e-05
-0.000433805 0.000130077 0.000130169 -2.38523e-05
-0.000259957 7.78653e-05 7.80392e-05 -3.97584e-05
-0.000265398 7.9492e-05 7.96742e-05 -3.97585e-05
-0.000438336 0.000131435 0.000131529 -2.38523e-05
-0.000346884 0.000103969 0.000104106 -3.27988e-05
-0.000262678 7.86787e-05 7.88567e-05 -3.97585e-05
-0.000354136 0.00010614 0.000106284 -3.27988e-05
-0.00035051 0.000105054 0.000105195 -3.27988e-05
-0.000433805 0.000130077 0.000130169 -2.38523e-05
-0.000424742 0.000127362 0.000127449 -2.38523e-05
-0.000254515 7.62385e-05 7.64044e-05 -3.97584e-05
-0.000259957 7.78653e-05 7.80392e-05 -3.97584e-05
-0.000429274 0.00012872 0.000128809 -2.38523e-05
-0.000339631 0.000101798 0.000101929 -3.27988e-05
-0.000257236 7.70519e-05 7.72218e-05 -3.97584e-05
-0.000346884 0.000103969 0.000104106 -3.27988e-05
-0.000343258 0.000102883 0.000103018 -3.27988e-05
-0.000424742 0.000127362 0.000127449 -2.38523e-05
-0.00041568 0.000124646 0.000124729 -2.38524e-05
-0.000249074 7.46117e-05 7.47696e-05 -3.97584e-05
-0.000254515 7.62385e-05 7.64044e-05 -3.97584e-05
-0.000420211 0.000126004 0.000126089 -2.38524e-05
-0.000332379 9.96267e-05 9.97512e-05 -3.27989e-05
-0.000251795 7.54251e-05 7.5587e-05 -3.97584e-05
-0.000339631 0.000101798 0.000101929 -3.27988e-05
-0.000336005 0.000100712 0.00010084 -3.27989e-05
-0.00041568 0.000124646 0.000124729 -2.38524e-05
-0.000406617 0.000121931 0.000122008 -2.38524e-05
-0.000243633 7.29848e-05 7.3135e-05 -3.97584e-05
-0.000249074 7.46117e-05 7.47696e-05 -3.97584e-05
-0.000411149 0.000123289 0.000123369 -2.38524e-05
-0.000325128 9.74555e-05 9.75738e-05 -3.27989e-05
-0.000246354 7.37982e-05 7.39523e-05 -3.97584e-05
-0.000332379 9.96267e-05 9.97512e-05 -3.27989e-05
-0.000328754 9.85411e-05 9.86625e-05 -3.27989e-05
-0.000406617 0.000121931 0.000122008 -2.38524e-05
-0.000397555 0.000119215 0.000119288 -2.38525e-05
-0.000238192 7.13578e-05 7.15004e-05 -3.97584e-05
-0.000243633 7.29848e-05 7.3135e-05 -3.97584e-05
-0.000402086 0.000120573 0.000120648 -2.38525e-05
-0.000317876 9.52844e-05 9.53964e-05 -3.27989e-05
-0.000240913 7.21713e-05 7.23177e-05 -3.97584e-05
-0.000325128 9.74555e-05 9.75738e-05 -3.27989e-05
-0.000321502 9.637e-05 9.64851e-05 -3.27989e-05
-0.000397555 0.000119215 0.000119288 -2.38525e-05
-0.000388493 0.0001165 0.000116569 -2.38526e-05
-0.000232751 6.97307e-05 6.9866e-05 -3.97584e-05
-0.000238192 7.13578e-05 7.15004e-05 -3.97584e-05
-0.000393024 0.000117858 0.000117929 -2.38525e-05
-0.000310624 9.31131e-05 9.32191e-05 -3.2799e-05
-0.000235472 7.05443e-05 7.06832e-05 -3.97584e-05
-0.000317876 9.52844e-05 9.53964e-05 -3.27989e-05
-0.00031425 9.41988e-05 9.43078e-05 -3.27989e-05
-0.000388493 0.0001165 0.000116569 -2.38526e-05
-0.000379431 0.000113784 0.000113849 -2.38526e-05
-0.000227311 6.81036e-05 6.82317e-05 -3.97584e-05
-0.000232751 6.97307e-05 6.9866e-05 -3.97584e-05
-0.000383962 0.000115142 0.000115209 -2.38526e-05
-0.000303373 9.09419e-05 9.10419e-05 -3.2799e-05
-0.000230031 6.89172e-05 6.90488e-05 -3.97584e-05
-0.000310624 9.31131e-05 9.32191e-05 -3.2799e-05
-0.000306999 9.20275e-05 9.21305e-05 -3.2799e-05
-0.000379431 0.000113784 0.000113849 -2.38526e-05
-0.000370369 0.000111068 0.000111129 -2.38527e-05
-0.00022187 6.64764e-05 6.65974e-05 -3.97584e-05
-0.000227311 6.81036e-05 6.82317e-05 -3.97584e-05
-0.0003749 0.000112426 0.000112489 -2.38526e-05
-0.000296122 8.87705e-05 8.88649e-05 -3.2799e-05
-0.000224591 6.729e-05 6.74145e-05 -3.97584e-05
-0.000303373 9.09419e-05 9.10419e-05 -3.2799e-05
-0.000299747 8.98562e-05 8.99534e-05 -3.2799e-05
-0.000370369 0.000111068 0.000111129 -2.38527e-05
-0.000361308 0.000108353 0.000108409 -2.38527e-05
-0.00021643 6.48491e-05 6.49633e-05 -3.97584e-05
-0.00022187 6.64764e-05 6.65974e-05 -3.97584e-05
-0.000365838 0.000109711 0.000109769 -2.38527e-05
-0.000288871 8.65991e-05 8.66879e-05 -3.27991e-05
-0.00021915 6.56628e-05 6.57803e-05 -3.97584e-05
-0.000296122 8.87705e-05 8.88649e-05 -3.2799e-05
-0.000292496 8.76848e-05 8.77763e-05 -3.27991e-05
-0.000361308 0.000108353 0.000108409 -2.38527e-05
-0.000352246 0.000105637 0.00010569 -2.38528e-05
-0.00021099 6.32218e-05 6.33292e-05 -3.97584e-05
-0.00021643 6.48491e-05 6.49633e-05 -3.97584e-05
-0.000356777 0.000106995 0.000107049 -2.38528e-05
-0.00028162 8.44277e-05 8.45109e-05 -3.27991e-05
-0.00021371 6.40354e-05 6.41463e-05 -3.97584e-05
-0.000288871 8.65991e-05 8.66879e-05 -3.27991e-05
-0.000285245 8.55134e-05 8.55994e-05 -3.27991e-05
-0.000352246 0.000105637 0.00010569 -2.38528e-05
-0.000343185 0.000102921 0.00010297 -2.38529e-05
-0.00020555 6.15943e-05 6.16953e-05 -3.97584e-05
-0.00021099 6.32218e-05 6.33292e-05 -3.97584e-05
-0.000347715 0.000104279 0.00010433 -2.38528e-05
-0.000274369 8.22562e-05 8.23341e-05 -3.27992e-05
-0.00020827 6.24081e-05 6.25123e-05 -3.97584e-05
-0.00028162 8.44277e-05 8.45109e-05 -3.27991e-05
-0.000277995 8.3342e-05 8.34225e-05 -3.27992e-05
-0.000343185 0.000102921 0.00010297 -2.38529e-05
-0.000334124 0.000100206 0.000100251 -2.38529e-05
-0.00020011 5.99669e-05 6.00615e-05 -3.97584e-05
-0.00020555 6.15943e-05 6.16953e-05 -3.97584e-05
-0.000338654 0.000101563 0.00010161 -2.38529e-05
-0.000267119 8.00847e-05 8.01574e-05 -3.27992e-05
-0.00020283 6.07806e-05 6.08784e-05 -3.97584e-05
-0.000274369 8.22562e-05 8.23341e-05 -3.27992e-05
-0.000270744 8.11704e-05 8.12458e-05 -3.27992e-05
-0.000334124 0.000100206 0.000100251 -2.38529e-05
-0.000325062 9.74897e-05 9.75312e-05 -2.3853e-05
-0.000194671 5.83393e-05 5.84277e-05 -3.97585e-05
-0.00020011 5.99669e-05 6.00615e-05 -3.97584e-05
-0.000329593 9.88476e-05 9.88909e-05 -2.3853e-05
-0.000259868 7.79131e-05 7.79808e-05 -3.27993e-05
-0.00019739 5.91531e-05 5.92446e-05 -3.97584e-05
-0.000267119 8.00847e-05 8.01574e-05 -3.27992e-05
-0.000263493 7.89989e-05 7.90691e-05 -3.27993e-05
-0.000325062 9.74897e-05 9.75312e-05 -2.3853e-05
-0.000316001 9.47739e-05 9.48118e-05 -2.38531e-05
-0.000189231 5.67117e-05 5.67941e-05 -3.97585e-05
-0.000194671 5.83393e-05 5.84277e-05 -3.97585e-05
-0.000320532 9.61318e-05 9.61715e-05 -2.3853e-05
-0.000252618 7.57414e-05 7.58042e-05 -3.27994e-05
-0.000191951 5.75255e-05 5.76109e-05 -3.97585e-05
-0.000259868 7.79131e-05 7.79808e-05 -3.27993e-05
-0.000256243 7.68272e-05 7.68925e-05 -3.27993e-05
-0.000316001 9.47739e-05 9.48118e-05 -2.38531e-05
-0.000306941 9.2058e-05 9.20926e-05 -2.38531e-05
-0.000183792 5.5084e-05 5.51606e-05 -3.97585e-05
-0.000189231 5.67117e-05 5.67941e-05 -3.97585e-05
-0.000311471 9.3416e-05 9.34522e-05 -2.38531e-05
-0.000245368 7.35697e-05 7.36277e-05 -3.27994e-05
-0.000186512 5.58978e-05 5.59773e-05 -3.97585e-05
-0.000252618 7.57414e-05 7.58042e-05 -3.27994e-05
-0.000248993 7.46556e-05 7.4716e-05 -3.27994e-05
-0.000306941 9.2058e-05 9.20926e-05 -2.38531e-05
-0.00029788 8.93421e-05 8.93734e-05 -2.38532e-05
-0.000178353 5.34562e-05 5.35272e-05 -3.97585e-05
-0.000183792 5.5084e-05 5.51606e-05 -3.97585e-05
-0.00030241 9.07001e-05 9.0733e-05 -2.38532e-05
-0.000238118 7.13979e-05 7.14514e-05 -3.27995e-05
-0.000181072 5.42701e-05 5.43439e-05 -3.97585e-05
-0.000245368 7.35697e-05 7.36277e-05 -3.27994e-05
-0.000241743 7.24838e-05 7.25395e-05 -3.27994e-05
-0.00029788 8.93421e-05 8.93734e-05 -2.38532e-05
-0.000288819 8.66262e-05 8.66542e-05 -2.38533e-05
-0.000172914 5.18283e-05 5.18938e-05 -3.97586e-05
-0.000178353 5.34562e-05 5.35272e-05 -3.97585e-05
-0.00029335 8.79842e-05 8.80138e-05 -2.38532e-05
-0.000230868 6.92261e-05 6.92751e-05 -3.27995e-05
-0.000175633 5.26423e-05 5.27105e-05 -3.97585e-05
-0.000238118 7.13979e-05 7.14514e-05 -3.27995e-05
-0.000234493 7.0312e-05 7.03632e-05 -3.27995e-05
-0.000288819 8.66262e-05 8.66542e-05 -2.38533e-05
-0.000279759 8.39102e-05 8.39352e-05 -2.38534e-05
-0.000167475 5.02004e-05 5.02606e-05 -3.97586e-05
-0.000172914 5.18283e-05 5.18938e-05 -3.97586e-05
-0.000284289 8.52682e-05 8.52947e-05 -2.38533e-05
-0.000223618 6.70542e-05 6.70989e-05 -3.27996e-05
-0.000170195 5.10144e-05 5.10772e-05 -3.97586e-05
-0.000230868 6.92261e-05 6.92751e-05 -3.27995e-05
-0.000227243 6.81402e-05 6.8187e-05 -3.27996e-05
-0.000279759 8.39102e-05 8.39352e-05 -2.38534e-05
-0.000270699 8.11942e-05 8.12162e-05 -2.38534e-05
-0.000162037 4.85724e-05 4.86275e-05 -3.97586e-05
-0.000167475 5.02004e-05 5.02606e-05 -3.97586e-05
-0.000275229 8.25522e-05 8.25757e-05 -2.38534e-05
-0.000216369 6.48823e-05 6.49228e-05 -3.27997e-05
-0.000164756 4.93864e-05 4.9444e-05 -3.97586e-05
-0.000223618 6.70542e-05 6.70989e-05 -3.27996e-05
-0.000219993 6.59683e-05 6.60108e-05 -3.27996e-05
-0.000270699 8.11942e-05 8.12162e-05 -2.38534e-05
-0.000261639 7.84782e-05 7.84973e-05 -2.38535e-05
-0.000156598 4.69443e-05 4.69944e-05 -3.97586e-05
-0.000162037 4.85724e-05 4.86275e-05 -3.97586e-05
-0.000266169 7.98362e-05 7.98568e-05 -2.38535e-05
-0.000209119 6.27103e-05 6.27467e-05 -3.27997e-05
-0.000159317 4.77584e-05 4.78109e-05 -3.97586e-05
-0.000216369 6.48823e-05 6.49228e-05 -3.27997e-05
-0.000212744 6.37963e-05 6.38347e-05 -3.27997e-05
-0.000261639 7.84782e-05 7.84973e-05 -2.38535e-05
-0.000252579 7.57621e-05 7.57785e-05 -2.38536e-05
-0.00015116 4.53162e-05 4.53615e-05 -3.97587e-05
-0.000156598 4.69443e-05 4.69944e-05 -3.97586e-05
-0.000257109 7.71202e-05 7.71379e-05 -2.38535e-05
-0.00020187 6.05383e-05 6.05708e-05 -3.27998e-05
-0.000153879 4.61303e-05 4.6178e-05 -3.97586e-05
-0.000209119 6.27103e-05 6.27467e-05 -3.27997e-05
-0.000205495 6.16243e-05 6.16588e-05 -3.27997e-05
-0.000252579 7.57621e-05 7.57785e-05 -2.38536e-05
-0.000243519 7.3046e-05 7.30597e-05 -2.38536e-05
-0.000145722 4.3688e-05 4.37287e-05 -3.97587e-05
-0.00015116 4.53162e-05 4.53615e-05 -3.97587e-05
-0.000248049 7.44041e-05 7.44191e-05 -2.38536e-05
-0.000194621 5.83662e-05 5.8395e-05 -3.27998e-05
-0.000148441 4.45021e-05 4.45451e-05 -3.97587e-05
-0.00020187 6.05383e-05 6.05708e-05 -3.27998e-05
-0.000198246 5.94522e-05 5.94829e-05 -3.27998e-05
-0.000243519 7.3046e-05 7.30597e-05 -2.38536e-05
-0.000234459 7.03299e-05 7.03411e-05 -2.38537e-05
-0.000140284 4.20596e-05 4.2096e-05 -3.97587e-05
-0.000145722 4.3688e-05 4.37287e-05 -3.97587e-05
-0.000238989 7.1688e-05 7.17004e-05 -2.38537e-05
-0.000187372 5.6194e-05 5.62192e-05 -3.27999e-05
-0.000143003 4.28738e-05 4.29123e-05 -3.97587e-05
-0.000194621 5.83662e-05 5.8395e-05 -3.27998e-05
-0.000190997 5.72801e-05 5.73071e-05 -3.27998e-05
-0.000234459 7.03299e-05 7.03411e-05 -2.38537e-05
-0.000225399 6.76137e-05 6.76224e-05 -2.38537e-05
-0.000134846 4.04313e-05 4.04633e-05 -3.97587e-05
-0.000140284 4.20596e-05 4.2096e-05 -3.97587e-05
-0.000229929 6.89718e-05 6.89817e-05 -2.38537e-05
-0.000180123 5.40218e-05 5.40435e-05 -3.27999e-05
-0.000137565 4.12455e-05 4.12796e-05 -3.97587e-05
-0.000187372 5.6194e-05 5.62192e-05 -3.27999e-05
-0.000183748 5.51079e-05 5.51314e-05 -3.27999e-05
-0.000225399 6.76137e-05 6.76224e-05 -2.38537e-05
-0.00021634 6.48976e-05 6.49039e-05 -2.38537e-05
-0.000129408 3.88028e-05 3.88308e-05 -3.97587e-05
-0.000134846 4.04313e-05 4.04633e-05 -3.97587e-05
-0.00022087 6.62557e-05 6.62632e-05 -2.38537e-05
-0.000172875 5.18495e-05 5.18679e-05 -3.27999e-05
-0.000132127 3.9617e-05 3.96471e-05 -3.97587e-05
-0.000180123 5.40218e-05 5.40435e-05 -3.27999e-05
-0.000176499 5.29357e-05 5.29557e-05 -3.27999e-05
-0.00021634 6.48976e-05 6.49039e-05 -2.38537e-05
-0.000207281 6.21813e-05 6.21855e-05 -2.38538e-05
-0.00012397 3.71743e-05 3.71984e-05 -3.97586e-05
-0.000129408 3.88028e-05 3.88308e-05 -3.97587e-05
-0.00021181 6.35394e-05 6.35447e-05 -2.38538e-05
-0.000165626 4.96772e-05 4.96925e-05 -3.27999e-05
-0.000126689 3.79885e-05 3.80146e-05 -3.97587e-05
-0.000172875 5.18495e-05 5.18679e-05 -3.27999e-05
-0.00016925 5.07634e-05 5.07802e-05 -3.27999e-05
-0.000207281 6.21813e-05 6.21855e-05 -2.38538e-05
-0.000198222 5.94651e-05 5.94671e-05 -2.38538e-05
-0.000118533 3.55457e-05 3.5566e-05 -3.97586e-05
-0.00012397 3.71743e-05 3.71984e-05 -3.97586e-05
-0.000202751 6.08232e-05 6.08262e-05 -2.38538e-05
-0.000158378 4.75049e-05 4.7517e-05 -3.27999e-05
-0.000121252 3.636e-05 3.63822e-05 -3.97586e-05
-0.000165626 4.96772e-05 4.96925e-05 -3.27999e-05
-0.000162002 4.85911e-05 4.86047e-05 -3.27999e-05
-0.000198222 5.94651e-05 5.94671e-05 -2.38538e-05
-0.000189163 5.67489e-05 5.67487e-05 -2.38538e-05
-0.000113096 3.39171e-05 3.39338e-05 -3.97586e-05
-0.000118533 3.55457e-05 3.5566e-05 -3.97586e-05
-0.000193692 5.8107e-05 5.81079e-05 -2.38538e-05
-0.00015113 4.53325e-05 4.53417e-05 -3.27999e-05
-0.000115814 3.47314e-05 3.47499e-05 -3.97586e-05
-0.000158378 4.75049e-05 4.7517e-05 -3.27999e-05
-0.000154754 4.64187e-05 4.64294e-05 -3.27999e-05
-0.000189163 5.67489e-05 5.67487e-05 -2.38538e-05
-0.000180104 5.40326e-05 5.40305e-05 -2.38539e-05
-0.000107659 3.22885e-05 3.23016e-05 -3.97586e-05
-0.000113096 3.39171e-05 3.39338e-05 -3.97586e-05
-0.000184633 5.53907e-05 5.53896e-05 -2.38539e-05
-0.000143882 4.31602e-05 4.31665e-05 -3.28e-05
-0.000110377 3.31028e-05 3.31177e-05 -3.97586e-05
-0.00015113 4.53325e-05 4.53417e-05 -3.27999e-05
-0.000147506 4.42463e-05 4.42541e-05 -3.27999e-05
-0.000180104 5.40326e-05 5.40305e-05 -2.38539e-05
-0.000171045 5.13164e-05 5.13123e-05 -2.38541e-05
-0.000102222 3.066e-05 3.06695e-05 -3.97586e-05
-0.000107659 3.22885e-05 3.23016e-05 -3.97586e-05
-0.000175574 5.26745e-05 5.26714e-05 -2.3854e-05
-0.000136634 4.09878e-05 4.09913e-05 -3.28001e-05
-0.000104941 3.14743e-05 3.14856e-05 -3.97586e-05
-0.000143882 4.31602e-05 4.31665e-05 -3.28e-05
-0.000140258 4.2074e-05 4.20789e-05 -3.28001e-05
-0.000171045 5.13164e-05 5.13123e-05 -2.38541e-05
-0.000161987 4.86002e-05 4.85941e-05 -2.38545e-05
-9.67858e-05 2.90316e-05 2.90375e-05 -3.97588e-05
-0.000102222 3.066e-05 3.06695e-05 -3.97586e-05
-0.000166516 4.99583e-05 4.99532e-05 -2.38543e-05
-0.000129387 3.88156e-05 3.88162e-05 -3.28004e-05
-9.9504e-05 2.98458e-05 2.98535e-05 -3.97587e-05
-0.000136634 4.09878e-05 4.09913e-05 -3.28001e-05
-0.00013301 3.99017e-05 3.99037e-05 -3.28003e-05
-0.000161987 4.86002e-05 4.85941e-05 -2.38545e-05
-0.000152928 4.5884e-05 4.58761e-05 -2.3855e-05
-9.13497e-05 2.74032e-05 2.74056e-05 -3.97591e-05
-9.67858e-05 2.90316e-05 2.90375e-05 -3.97588e-05
-0.000157457 4.72421e-05 4.72351e-05 -2.38547e-05
-0.000122139 3.66434e-05 3.66412e-05 -3.28009e-05
-9.40677e-05 2.82174e-05 2.82216e-05 -3.97589e-05
-0.000129387 3.88156e-05 3.88162e-05 -3.28004e-05
-0.000125763 3.77295e-05 3.77287e-05 -3.28007e-05
-0.000152928 4.5884e-05 4.58761e-05 -2.3855e-05
-0.00014387 4.31677e-05 4.31581e-05 -2.38558e-05
-8.59138e-05 2.57746e-05 2.57739e-05 -3.97597e-05
-9.13497e-05 2.74032e-05 2.74056e-05 -3.97591e-05
-0.000148399 4.45259e-05 4.45171e-05 -2.38554e-05
-0.000114892 3.4471e-05 3.44663e-05 -3.28016e-05
-8.86317e-05 2.6589e-05 2.65897e-05 -3.97594e-05
-0.000122139 3.66434e-05 3.66412e-05 -3.28009e-05
-0.000118516 3.55572e-05 3.55537e-05 -3.28012e-05
-0.00014387 4.31677e-05 4.31581e-05 -2.38558e-05
-0.000134812 4.0451e-05 4.04403e-05 -2.38564e-05
-8.04775e-05 2.41451e-05 2.41424e-05 -3.97606e-05
-8.59138e-05 2.57746e-05 2.57739e-05 -3.97597e-05
-0.000139341 4.18094e-05 4.17992e-05 -2.38561e-05
-0.000107645 3.22978e-05 3.22918e-05 -3.28022e-05
-8.31958e-05 2.49601e-05 2.49582e-05 -3.97601e-05
-0.000114892 3.4471e-05 3.44663e-05 -3.28016e-05
-0.000111269 3.33846e-05 3.3379e-05 -3.28019e-05
-0.000134812 4.0451e-05 4.04403e-05 -2.38564e-05
-0.000125754 3.77332e-05 3.7723e-05 -2.3856e-05
-7.50398e-05 2.25129e-05 2.25115e-05 -3.9762e-05
-8.04775e-05 2.41451e-05 2.41424e-05 -3.97606e-05
-0.000130283 3.90923e-05 3.90816e-05 -2.38564e-05
-0.000100397 3.01225e-05 3.01178e-05 -3.28019e-05
-7.77589e-05 2.33295e-05 2.33269e-05 -3.97613e-05
-0.000107645 3.22978e-05 3.22918e-05 -3.28022e-05
-0.000104022 3.12106e-05 3.12047e-05 -3.28022e-05
-0.000125754 3.77332e-05 3.7723e-05 -2.3856e-05
-0.000116696 3.50129e-05 3.50069e-05 -2.38522e-05
-6.95968e-05 2.08744e-05 2.08811e-05 -3.97637e-05
-7.50398e-05 2.25129e-05 2.25115e-05 -3.9762e-05
-0.000121224 3.63735e-05 3.63647e-05 -2.38548e-05
-9.31466e-05 2.79421e-05 2.79448e-05 -3.27991e-05
-7.23194e-05 2.16948e-05 2.16962e-05 -3.97628e-05
-0.000100397 3.01225e-05 3.01178e-05 -3.28019e-05
-9.67725e-05 2.90333e-05 2.90311e-05 -3.28011e-05
-0.000116696 3.50129e-05 3.50069e-05 -2.38522e-05
-0.000107636 3.22871e-05 3.22924e-05 -2.38407e-05
-6.41432e-05 1.92218e-05 1.9252e-05 -3.97655e-05
-6.95968e-05 2.08744e-05 2.08811e-05 -3.97637e-05
-0.000112166 3.3651e-05 3.36494e-05 -2.38478e-05
-8.58886e-05 2.57504e-05 2.57735e-05 -3.279e-05
-6.68716e-05 2.00505e-05 2.00662e-05 -3.97647e-05
-9.31466e-05 2.79421e-05 2.79448e-05 -3.27991e-05
-8.95189e-05 2.68481e-05 2.68589e-05 -3.27956e-05
-0.000107636 3.22871e-05 3.22924e-05 -2.38407e-05
-9.85766e-05 2.95502e-05 2.95827e-05 -2.38106e-05
-5.86626e-05 1.75419e-05 1.76232e-05 -3.97676e-05
-6.41432e-05 1.92218e-05 1.9252e-05 -3.97655e-05
-0.000103106 3.09205e-05 3.09366e-05 -2.38291e-05
-7.86149e-05 2.35368e-05 2.36049e-05 -3.27677e-05
-6.1408e-05 1.83867e-05 1.84377e-05 -3.97664e-05
-8.58886e-05 2.57504e-05 2.57735e-05 -3.279e-05
-8.22544e-05 2.46476e-05 2.46886e-05 -3.27815e-05
-9.85766e-05 2.95502e-05 2.95827e-05 -2.38106e-05
-8.95086e-05 2.67929e-05 2.68782e-05 -2.37466e-05
-5.31352e-05 1.58102e-05 1.59964e-05 -3.97681e-05
-5.86626e-05 1.75419e-05 1.76232e-05 -3.97676e-05
-9.40451e-05 2.81754e-05 2.82299e-05 -2.3784e-05
-7.13072e-05 2.12798e-05 2.14403e-05 -3.27193e-05
-5.59055e-05 1.66843e-05 1.68091e-05 -3.97684e-05
-7.86149e-05 2.35368e-05 2.36049e-05 -3.27677e-05
-7.49669e-05 2.24149e-05 2.25223e-05 -3.27472e-05
-8.95086e-05 2.67929e-05 2.68782e-05 -2.37466e-05
-8.04365e-05 2.39965e-05 2.41886e-05 -2.36112e-05
-4.75055e-05 1.3991e-05 1.43633e-05 -3.97717e-05
-5.31352e-05 1.58102e-05 1.59964e-05 -3.97681e-05
-8.49711e-05 2.54e-05 2.55305e-05 -2.36915e-05
-6.39354e-05 1.89507e-05 1.92792e-05 -3.26244e-05
-5.03393e-05 1.49153e-05 1.51817e-05 -3.97687e-05
-7.13072e-05 2.12798e-05 2.14403e-05 -3.27193e-05
-6.76315e-05 2.01283e-05 2.03585e-05 -3.26809e-05
-8.04365e-05 2.39965e-05 2.41886e-05 -2.36112e-05
-7.13215e-05 2.11395e-05 2.15066e-05 -2.33662e-05
-4.17207e-05 1.20265e-05 1.27261e-05 -3.97761e-05
-4.75055e-05 1.3991e-05 1.43633e-05 -3.97717e-05
-7.58911e-05 2.25801e-05 2.28476e-05 -2.35049e-05
-5.64363e-05 1.64904e-05 1.71196e-05 -3.24547e-05
-4.46329e-05 1.30292e-05 1.35444e-05 -3.97747e-05
-6.39354e-05 1.89507e-05 1.92792e-05 -3.26244e-05
-6.02075e-05 1.77381e-05 1.82012e-05 -3.2548e-05
-7.13215e-05 2.11395e-05 2.15066e-05 -2.33662e-05
-6.2175e-05 1.8169e-05 1.88597e-05 -2.29124e-05
-3.56325e-05 9.86741e-06 1.10422e-05 -3.98151e-05
-4.17207e-05 1.20265e-05 1.27261e-05 -3.97761e-05
-6.67439e-05 1.96656e-05 2.01764e-05 -2.31751e-05
-4.87291e-05 1.38544e-05 1.49463e-05 -3.21771e-05
-3.87326e-05 1.09779e-05 1.18949e-05 -3.97865e-05
-5.64363e-05 1.64904e-05 1.71196e-05 -3.24547e-05
-5.2613e-05 1.52045e-05 1.60322e-05 -3.23383e-05
-6.2175e-05 1.8169e-05 1.88597e-05 -2.29124e-05
-5.28265e-05 1.50716e-05 1.61807e-05 -2.22121e-05
-2.91778e-05 7.4602e-06 9.30754e-06 -3.99088e-05
-3.56325e-05 9.86741e-06 1.10422e-05 -3.98151e-05
-5.75555e-05 1.66529e-05 1.75297e-05 -2.25934e-05
-4.06278e-05 1.09346e-05 1.27256e-05 -3.179e-05
-3.24408e-05 8.68561e-06 1.01808e-05 -3.98554e-05
-4.87291e-05 1.38544e-05 1.49463e-05 -3.21771e-05
-4.47466e-05 1.24208e-05 1.38539e-05 -3.19819e-05
-5.28265e-05 1.50716e-05 1.61807e-05 -2.22121e-05
-4.32886e-05 1.172e-05 1.35294e-05 -2.1115e-05
-2.21232e-05 4.97132e-06 7.35079e-06 -4.02372e-05
-2.91778e-05 7.4602e-06 9.30754e-06 -3.99088e-05
-4.80502e-05 1.33969e-05 1.48514e-05 -2.17264e-05
-3.20108e-05 7.83606e-06 1.03606e-05 -3.13689e-05
-2.57648e-05 6.22129e-06 8.3758e-06 -4.00218e-05
-4.06278e-05 1.09346e-05 1.27256e-05 -3.179e-05
-3.63801e-05 9.42147e-06 1.15537e-05 -3.16012e-05
-4.32886e-05 1.172e-05 1.35294e-05 -2.1115e-05
-3.28977e-05 8.38442e-06 1.05057e-05 -1.99367e-05
-1.48192e-05 2.80816e-06 5.1476e-06 -4.09187e-05
-2.21232e-05 4.97132e-06 7.35079e-06 -4.02372e-05
-3.83138e-05 1.01045e-05 1.20897e-05 -2.05013e-05
-2.2485e-05 4.67817e-06 7.63149e-06 -3.1307e-05
-1.84192e-05 3.7543e-06 6.28495e-06 -4.05294e-05
-3.20108e-05 7.83606e-06 1.03606e-05 -3.13689e-05
-2.74144e-05 6.17555e-06 9.10235e-06 -3.11957e-05
-3.28977e-05 8.38442e-06 1.05057e-05 -1.99367e-05
-2.17312e-05 5.08442e-06 7.13432e-06 -1.91964e-05
-7.74167e-06 2.74855e-06 2.13991e-06 -4.23711e-05
-1.48192e-05 2.80816e-06 5.1476e-06 -4.09187e-05
-2.72877e-05 6.50478e-06 8.90695e-06 -1.94338e-05
-1.26122e-05 3.16533e-06 4.04865e-06 -3.24536e-05
-1.12759e-05 2.40364e-06 3.8024e-06 -4.15106e-05
-2.2485e-05 4.67817e-06 7.63149e-06 -3.1307e-05
-1.74689e-05 3.61723e-06 5.93641e-06 -3.17518e-05
-2.17312e-05 5.08442e-06 7.13432e-06 -1.91964e-05
-8.80621e-06 5.3762e-06 1.47e-06 -2.24052e-05
-4.01105e-06 7.94376e-06 -1.68545e-06 -4.34197e-05
-7.74167e-06 2.74855e-06 2.13991e-06 -4.23711e-05
-1.57351e-05 4.73633e-06 4.71376e-06 -1.99669e-05
-3.64319e-06 7.0688e-06 -1.46812e-06 -3.64591e-05
-5.04417e-06 4.22109e-06 3.52752e-07 -4.31115e-05
-1.26122e-05 3.16533e-06 4.04865e-06 -3.24536e-05
-7.98146e-06 3.7687e-06 1.80547e-06 -3.37719e-05
-8.80621e-06 5.3762e-06 1.47e-06 -2.24052e-05
-2.79512e-06 2.0244e-05 -7.4781e-06 -3.39997e-05
-5.89081e-06 2.42487e-05 -7.86765e-06 -3.98067e-05
-4.01105e-06 7.94376e-06 -1.68545e-06 -4.34197e-05
-3.60578e-06 8.20274e-06 -1.97013e-06 -2.65619e-05
-6.31898e-06 2.76908e-05 -9.15937e-06 -3.95408e-05
-4.38054e-06 1.48345e-05 -4.48028e-06 -4.27447e-05
-3.64319e-06 7.0688e-06 -1.46812e-06 -3.64591e-05
-2.21611e-06 1.47772e-05 -5.38334e-06 -3.91806e-05
-2.79512e-06 2.0244e-05 -7.4781e-06 -3.39997e-05
-2.70249e-05 8.98615e-05 -2.693e-05 -3.4163e-05
-1.14605e-05 4.38685e-05 -1.38891e-05 -2.10311e-05
-5.89081e-06 2.42487e-05 -7.86765e-06 -3.98067e-05
-9.54472e-06 4.79793e-05 -1.6472e-05 -3.99205e-05
-2.13957e-05 6.47039e-05 -1.85606e-05 -1.99981e-05
-8.32363e-06 3.48212e-05 -1.13561e-05 -3.28766e-05
-6.31898e-06 2.76908e-05 -9.15937e-06 -3.95408e-05
-1.35222e-05 4.554e-05 -1.37219e-05 -3.42109e-05
-0.000878745 0 0.000376605 0.000115612
-0.000993453 0.000130736 0.000369736 -3.55731e-06
-0.000322998 4.31891e-05 0.000119918 5.98269e-05
-0.000317711 -1.11022e-16 0.000136162 0.000180509
-0.000952065 7.34932e-05 0.000376531 4.36518e-05
-0.000658109 8.70118e-05 0.000244756 3.54473e-05
-0.000310112 1.82534e-05 0.000125082 0.00011383
-0.0005853 0 0.000250843 0.00016509
-0.000630926 4.14202e-05 0.000252646 8.18694e-05
-0.000993453 0.000130736 0.000369736 -3.55731e-06
-0.00104404 0.000239123 0.000344965 -4.06578e-05
-0.000347853 7.11133e-05 0.000118603 -1.23718e-05
-0.000322998 4.31891e-05 0.000119918 5.98269e-05
-0.00101882 0.000188388 0.000355899 -2.74711e-05
-0.000691692 0.000149212 0.000232491 -2.24655e-05
-0.000340775 5.99169e-05 0.000120368 1.73749e-05
-0.000658109 8.70118e-05 0.000244756 3.54473e-05
-0.000675492 0.000122434 0.000237025 4.07578e-06
-0.00104404 0.000239123 0.000344965 -4.06578e-05
-0.0010696 0.000293647 0.00033255 -4.78485e-05
-0.000355116 9.18702e-05 0.000112819 -4.50847e-05
-0.000347853 7.11133e-05 0.000118603 -1.23718e-05
-0.00106301 0.000273 0.000338574 -4.71582e-05
-0.000711321 0.000188962 0.000223868 -4.73927e-05
-0.000350535 8.21826e-05 0.000115008 -3.20925e-05
-0.000691692 0.000149212 0.000232491 -2.24655e-05
-0.000704402 0.00017161 0.000228339 -3.96825e-05
-0.0010696 0.000293647 0.00033255 -4.78485e-05
-0.00106851 0.000314941 0.000322959 -4.43095e-05
-0.000358879 0.000101591 0.000110266 -5.67579e-05
-0.000355116 9.18702e-05 0.000112819 -4.50847e-05
-0.00106953 0.000307035 0.000326783 -4.58598e-05
-0.000714513 0.000206553 0.000217697 -5.29252e-05
-0.000358822 9.80272e-05 0.000111769 -5.29043e-05
-0.000711321 0.000188962 0.000223868 -4.73927e-05
-0.000714133 0.000200069 0.000220313 -5.08595e-05
-0.00106851 0.000314941 0.000322959 -4.43095e-05
-0.00106095 0.000318882 0.000318028 -4.19328e-05
-0.000356431 0.000105282 0.000107635 -5.80098e-05
-0.000358879 0.000101591 0.000110266 -5.67579e-05
-0.00106587 0.0003183 0.000320388 -4.31342e-05
-0.000710237 0.000212246 0.000213425 -5.21269e-05
-0.000357384 0.000103959 0.00010861 -5.8031e-05
-0.000714513 0.000206553 0.000217697 -5.29252e-05
-0.000713027 0.000210403 0.00021541 -5.31763e-05
-0.00106095 0.000318882 0.000318028 -4.19328e-05
-0.00105035 0.000317161 0.000314224 -4.03446e-05
-0.000353409 0.000105134 0.000106403 -5.59613e-05
-0.000356431 0.000105282 0.000107635 -5.80098e-05
-0.00105527 0.000318357 0.000315818 -4.08844e-05
-0.000703223 0.000211694 0.000210655 -4.99809e-05
-0.000355334 0.000105522 0.000107062 -5.71975e-05
-0.000710237 0.000212246 0.000213425 -5.21269e-05
-0.000706763 0.00021245 0.000211849 -5.0907e-05
-0.00105035 0.000317161 0.000314224 -4.03446e-05
-0.00104114 0.000313562 0.000311817 -3.98765e-05
-0.000349583 0.000103975 0.000105261 -5.33053e-05
-0.000353409 0.000105134 0.000106403 -5.59613e-05
-0.00104578 0.000315459 0.000312996 -4.00898e-05
-0.000696354 0.000209386 0.0002087 -4.80616e-05
-0.000351282 0.000104596 0.000105723 -5.45782e-05
-0.000703223 0.000211694 0.000210655 -4.99809e-05
-0.000699719 0.000210619 0.000209615 -4.90312e-05
-0.00104114 0.000313562 0.000311817 -3.98765e-05
-0.00103275 0.000310074 0.00030972 -3.96743e-05
-0.000346477 0.000102537 0.000104546 -5.11955e-05
-0.000349583 0.000103975 0.000105261 -5.33053e-05
-0.0010367 0.000311757 0.000310689 -3.97192e-05
-0.000690256 0.000206737 0.000207222 -4.67097e-05
-0.000348063 0.000103261 0.000104915 -5.21724e-05
-0.000696354 0.000209386 0.0002087 -4.80616e-05
-0.000693181 0.000208054 0.000207911 -4.72751e-05
-0.00103275 0.000310074 0.00030972 -3.96743e-05
-0.00102561 0.000307028 0.000307962 -3.96868e-05
-0.000343645 0.000101311 0.000103858 -4.97334e-05
-0.000346477 0.000102537 0.000104546 -5.11955e-05
-0.00102912 0.000308491 0.00030884 -3.96842e-05
-0.000685021 0.000204448 0.00020596 -4.58465e-05
-0.00034496 0.00010189 0.000104173 -5.03789e-05
-0.000690256 0.000206737 0.000207222 -4.67097e-05
-0.000687546 0.000205536 0.000206576 -4.62429e-05
-0.00102561 0.000307028 0.000307962 -3.96868e-05
-0.00101909 0.000304492 0.000306258 -3.97077e-05
-0.000341274 0.000100296 0.000103277 -4.88338e-05
-0.000343645 0.000101311 0.000103858 -4.97334e-05
-0.00102225 0.000305702 0.000307093 -3.96901e-05
-0.000680417 0.000202541 0.000204804 -4.53405e-05
-0.000342447 0.000100779 0.000103572 -4.92273e-05
-0.000685021 0.000204448 0.00020596 -4.58465e-05
-0.000682653 0.000203451 0.000205372 -4.55493e-05
-0.00101909 0.000304492 0.000306258 -3.97077e-05
-0.00101309 0.00030232 0.000304616 -3.97431e-05
-0.000339102 9.94776e-05 0.000102696 -4.83089e-05
-0.000341274 0.000100296 0.000103277 -4.88338e-05
-0.00101606 0.000303369 0.000305439 -3.97294e-05
-0.000676236 0.000200965 0.000203687 -4.50548e-05
-0.000340152 9.98655e-05 0.00010298 -4.85326e-05
-0.000680417 0.000202541 0.000204804 -4.53405e-05
-0.000678286 0.000201718 0.000204244 -4.51805e-05
-0.00101309 0.00030232 0.000304616 -3.97431e-05
-0.00100733 0.000300395 0.000302973 -3.97613e-05
-0.000337104 9.87852e-05 0.000102137 -4.80234e-05
-0.000339102 9.94776e-05 0.000102696 -4.83089e-05
-0.00101018 0.000301333 0.000303792 -3.97524e-05
-0.000672306 0.000199606 0.000202586 -4.49032e-05
-0.000338095 9.91193e-05 0.000102418 -4.81443e-05
-0.000676236 0.000200965 0.000203687 -4.50548e-05
-0.000674248 0.000200265 0.000203136 -4.49649e-05
-0.00100733 0.000300395 0.000302973 -3.97613e-05
-0.00100173 0.000298616 0.000301337 -3.9773e-05
-0.00033518 9.8174e-05 0.000101574 -4.78742e-05
-0.000337104 9.87852e-05 0.000102137 -4.80234e-05
-0.00100452 0.000299492 0.000302157 -3.97688e-05
-0.000668517 0.000198383 0.000201486 -4.48243e-05
-0.000336131 9.84719e-05 0.000101854 -4.7936e-05
-0.000672306 0.000199606 0.000202586 -4.49032e-05
-0.000670399 0.000198982 0.000202036 -4.48581e-05
-0.00100173 0.000298616 0.000301337 -3.9773e-05
-0.000996207 0.000296919 0.000299695 -3.97767e-05
-0.000333306 9.76073e-05 0.000101014 -4.78009e-05
-0.00033518 9.8174e-05 0.000101574 -4.78742e-05
-0.000998963 0.00029776 0.000300516 -3.97752e-05
-0.000664803 0.000197237 0.000200385 -4.47855e-05
-0.00033424 9.78867e-05 0.000101294 -4.7831e-05
-0.000668517 0.000198383 0.000201486 -4.48243e-05
-0.000666654 0.000197803 0.000200936 -4.48011e-05
-0.000996207 0.000296919 0.000299695 -3.97767e-05
-0.000990719 0.000295266 0.000298051 -3.97773e-05
-0.000331451 9.70645e-05 0.000100451 -4.77665e-05
-0.000333306 9.76073e-05 0.000101014 -4.78009e-05
-0.000993461 0.000296089 0.000298874 -3.97774e-05
-0.000661125 0.000196132 0.000199283 -4.47666e-05
-0.000332376 9.73338e-05 0.000100732 -4.77803e-05
-0.000664803 0.000197237 0.000200385 -4.47855e-05
-0.000662961 0.000196681 0.000199834 -4.47746e-05
-0.000990719 0.000295266 0.000298051 -3.97773e-05
-0.000985246 0.000293634 0.000296405 -3.97761e-05
-0.000329606 9.6533e-05 9.98886e-05 -4.77516e-05
-0.000331451 9.70645e-05 0.000100451 -4.77665e-05
-0.000987981 0.000294449 0.000297228 -3.97768e-05
-0.000657464 0.000195048 0.000198178 -4.47579e-05
-0.000330528 9.67978e-05 0.00010017 -4.77575e-05
-0.000661125 0.000196132 0.000199283 -4.47666e-05
-0.000659294 0.000195588 0.000198731 -4.47613e-05
-0.000985246 0.000293634 0.000296405 -3.97761e-05
-0.000979781 0.000292012 0.000294758 -3.97744e-05
-0.000327765 9.60064e-05 9.93252e-05 -4.77456e-05
-0.000329606 9.6533e-05 9.98886e-05 -4.77516e-05
-0.000982513 0.000292823 0.000295582 -3.97753e-05
-0.00065381 0.000193973 0.000197073 -4.47537e-05
-0.000328685 9.62693e-05 9.96069e-05 -4.77479e-05
-0.000657464 0.000195048 0.000198178 -4.47579e-05
-0.000655637 0.00019451 0.000197626 -4.47555e-05
-0.000979781 0.000292012 0.000294758 -3.97744e-05
-0.000974317 0.000290394 0.00029311 -3.97728e-05
-0.000325925 9.54813e-05 9.87617e-05 -4.77436e-05
-0.000327765 9.60064e-05 9.93252e-05 -4.77456e-05
-0.000977049 0.000291203 0.000293934 -3.97736e-05
-0.000650158 0.000192901 0.000195967 -4.47518e-05
-0.000326845 9.57438e-05 9.90435e-05 -4.77443e-05
-0.00065381 0.000193973 0.000197073 -4.47537e-05
-0.000651984 0.000193437 0.00019652 -4.47526e-05
-0.000974317 0.000290394 0.00029311 -3.97728e-05
-0.000968854 0.000288777 0.000291461 -3.97716e-05
-0.000324085 9.49563e-05 9.81981e-05 -4.7743e-05
-0.000325925 9.54813e-05 9.87617e-05 -4.77436e-05
-0.000971586 0.000289586 0.000292286 -3.97721e-05
-0.000646506 0.00019183 0.000194861 -4.47509e-05
-0.000325005 9.52188e-05 9.84799e-05 -4.77432e-05
-0.000650158 0.000192901 0.000195967 -4.47518e-05
-0.000648332 0.000192366 0.000195414 -4.47513e-05
-0.000968854 0.000288777 0.000291461 -3.97716e-05
-0.000963391 0.000287161 0.000289813 -3.97706e-05
-0.000322245 9.44309e-05 9.76345e-05 -4.7743e-05
-0.000324085 9.49563e-05 9.81981e-05 -4.7743e-05
-0.000966123 0.000287969 0.000290637 -3.97711e-05
-0.000642854 0.00019076 0.000193755 -4.47504e-05
-0.000323165 9.46937e-05 9.79163e-05 -4.7743e-05
-0.000646506 0.00019183 0.000194861 -4.47509e-05
-0.00064468 0.000191295 0.000194308 -4.47506e-05
-0.000963391 0.000287161 0.000289813 -3.97706e-05
-0.000957928 0.000285543 0.000288165 -3.977e-05
-0.000320404 9.39049e-05 9.70709e-05 -4.77431e-05
-0.000322245 9.44309e-05 9.76345e-05 -4.7743e-05
-0.000960659 0.000286352 0.000288989 -3.97703e-05
-0.000639201 0.000189689 0.000192648 -4.47502e-05
-0.000321324 9.4168e-05 9.73527e-05 -4.77431e-05
-0.000642854 0.00019076 0.000193755 -4.47504e-05
-0.000641027 0.000190224 0.000193201 -4.47503e-05
-0.000957928 0.000285543 0.000288165 -3.977e-05
-0.000952464 0.000283926 0.000286516 -3.97697e-05
-0.000318563 9.33785e-05 9.65075e-05 -4.77432e-05
-0.000320404 9.39049e-05 9.70709e-05 -4.77431e-05
-0.000955196 0.000284735 0.00028734 -3.97698e-05
-0.000635549 0.000188617 0.000191542 -4.475e-05
-0.000319483 9.36418e-05 9.67892e-05 -4.77432e-05
-0.000639201 0.000189689 0.000192648 -4.47502e-05
-0.000637375 0.000189153 0.000192095 -4.47501e-05
-0.000952464 0.000283926 0.000286516 -3.97697e-05
-0.000947 0.000282308 0.000284868 -3.97695e-05
-0.000316721 9.28516e-05 9.59442e-05 -4.77432e-05
-0.000318563 9.33785e-05 9.65075e-05 -4.77432e-05
-0.000949732 0.000283117 0.000285692 -3.97695e-05
-0.000631896 0.000187545 0.000190436 -4.475e-05
-0.000317642 9.31151e-05 9.62259e-05 -4.77432e-05
-0.000635549 0.000188617 0.000191542 -4.475e-05
-0.000633722 0.000188081 0.000190989 -4.475e-05
-0.000947 0.000282308 0.000284868 -3.97695e-05
-0.000941537 0.00028069 0.00028322 -3.97694e-05
-0.00031488 9.23244e-05 9.53811e-05 -4.77432e-05
-0.000316721 9.28516e-05 9.59442e-05 -4.77432e-05
-0.000944268 0.000281499 0.000284044 -3.97694e-05
-0.000628243 0.000186473 0.00018933 -4.47499e-05
-0.000315801 9.2588e-05 9.56626e-05 -4.77432e-05
-0.000631896 0.000187545 0.000190436 -4.475e-05
-0.000630069 0.000187009 0.000189883 -4.47499e-05
-0.000941537 0.00028069 0.00028322 -3.97694e-05
-0.000936073 0.000279071 0.000281572 -3.97693e-05
-0.000313039 9.1797e-05 9.48181e-05 -4.77431e-05
-0.00031488 9.23244e-05 9.53811e-05 -4.77432e-05
-0.000938805 0.00027988 0.000282396 -3.97693e-05
-0.00062459 0.0001854 0.000188224 -4.47498e-05
-0.00031396 9.20607e-05 9.50996e-05 -4.77432e-05
-0.000628243 0.000186473 0.00018933 -4.47499e-05
-0.000626417 0.000185937 0.000188777 -4.47499e-05
-0.000936073 0.000279071 0.000281572 -3.97693e-05
-0.000930609 0.000277453 0.000279924 -3.97693e-05
-0.000311198 9.12694e-05 9.42552e-05 -4.77431e-05
-0.000313039 9.1797e-05 9.48181e-05 -4.77431e-05
-0.000933341 0.000278262 0.000280748 -3.97693e-05
-0.000620938 0.000184328 0.000187119 -4.47498e-05
-0.000312119 9.15332e-05 9.45366e-05 -4.77431e-05
-0.00062459 0.0001854 0.000188224 -4.47498e-05
-0.000622764 0.000184864 0.000187671 -4.47498e-05
-0.000930609 0.000277453 0.000279924 -3.97693e-05
-0.000925146 0.000275834 0.000278277 -3.97693e-05
-0.000309357 9.07416e-05 9.36924e-05 -4.77429e-05
-0.000311198 9.12694e-05 9.42552e-05 -4.77431e-05
-0.000927878 0.000276643 0.0002791 -3.97693e-05
-0.000617285 0.000183255 0.000186013 -4.47498e-05
-0.000310278 9.10055e-05 9.39738e-05 -4.7743e-05
-0.000620938 0.000184328 0.000187119 -4.47498e-05
-0.000619111 0.000183791 0.000186566 -4.47498e-05
-0.000925146 0.000275834 0.000278277 -3.97693e-05
-0.000919683 0.000274215 0.000276629 -3.97693e-05
-0.000307517 9.02137e-05 9.31298e-05 -4.77428e-05
-0.000309357 9.07416e-05 9.36924e-05 -4.77429e-05
-0.000922415 0.000275025 0.000277453 -3.97693e-05
-0.000613633 0.000182182 0.000184908 -4.47497e-05
-0.000308437 9.04777e-05 9.34111e-05 -4.77429e-05
-0.000617285 0.000183255 0.000186013 -4.47498e-05
-0.000615459 0.000182718 0.00018546 -4.47497e-05
-0.000919683 0.000274215 0.000276629 -3.97693e-05
-0.00091422 0.000272597 0.000274981 -3.97693e-05
-0.000305676 8.96858e-05 9.25673e-05 -4.77427e-05
-0.000307517 9.02137e-05 9.31298e-05 -4.77428e-05
-0.000916951 0.000273406 0.000275805 -3.97693e-05
-0.000609981 0.000181109 0.000183802 -4.47497e-05
-0.000306596 8.99498e-05 9.28485e-05 -4.77428e-05
-0.000613633 0.000182182 0.000184908 -4.47497e-05
-0.000611807 0.000181645 0.000184355 -4.47497e-05
-0.00091422 0.000272597 0.000274981 -3.97693e-05
-0.000908757 0.000270978 0.000273334 -3.97693e-05
-0.000303836 8.91577e-05 9.20048e-05 -4.77426e-05
-0.000305676 8.96858e-05 9.25673e-05 -4.77427e-05
-0.000911489 0.000271787 0.000274158 -3.97693e-05
-0.000606329 0.000180036 0.000182697 -4.47496e-05
-0.000304756 8.94217e-05 9.2286e-05 -4.77426e-05
-0.000609981 0.000181109 0.000183802 -4.47497e-05
-0.000608155 0.000180572 0.00018325 -4.47496e-05
-0.000908757 0.000270978 0.000273334 -3.97693e-05
-0.000903295 0.000269359 0.000271687 -3.97693e-05
-0.000301996 8.86295e-05 9.14426e-05 -4.77424e-05
-0.000303836 8.91577e-05 9.20048e-05 -4.77426e-05
-0.000906026 0.000270168 0.00027251 -3.97693e-05
-0.000602677 0.000178963 0.000181592 -4.47495e-05
-0.000302916 8.88936e-05 9.17237e-05 -4.77425e-05
-0.000606329 0.000180036 0.000182697 -4.47496e-05
-0.000604503 0.000179499 0.000182144 -4.47496e-05
-0.000903295 0.000269359 0.000271687 -3.97693e-05
-0.000897832 0.00026774 0.00027004 -3.97693e-05
-0.000300156 8.81013e-05 9.08804e-05 -4.77423e-05
-0.000301996 8.86295e-05 9.14426e-05 -4.77424e-05
-0.000900563 0.000268549 0.000270863 -3.97693e-05
-0.000599025 0.000177889 0.000180487 -4.47494e-05
-0.000301075 8.83654e-05 9.11615e-05 -4.77424e-05
-0.000602677 0.000178963 0.000181592 -4.47495e-05
-0.000600851 0.000178426 0.000181039 -4.47495e-05
-0.000897832 0.00026774 0.00027004 -3.97693e-05
-0.00089237 0.000266121 0.000268392 -3.97693e-05
-0.000298316 8.7573e-05 9.03183e-05 -4.77421e-05
-0.000300156 8.81013e-05 9.08804e-05 -4.77423e-05
-0.000895101 0.00026693 0.000269216 -3.97693e-05
-0.000595374 0.000176816 0.000179382 -4.47494e-05
-0.000299236 8.78371e-05 9.05993e-05 -4.77422e-05
-0.000599025 0.000177889 0.000180487 -4.47494e-05
-0.000597199 0.000177353 0.000179934 -4.47494e-05
-0.00089237 0.000266121 0.000268392 -3.97693e-05
-0.000886908 0.000264501 0.000266745 -3.97693e-05
-0.000296476 8.70446e-05 8.97564e-05 -4.7742e-05
-0.000298316 8.7573e-05 9.03183e-05 -4.77421e-05
-0.000889639 0.000265311 0.000267569 -3.97693e-05
-0.000591722 0.000175743 0.000178277 -4.47493e-05
-0.000297396 8.73088e-05 9.00373e-05 -4.7742e-05
-0.000595374 0.000176816 0.000179382 -4.47494e-05
-0.000593548 0.000176279 0.000178829 -4.47493e-05
-0.000886908 0.000264501 0.000266745 -3.97693e-05
-0.000881446 0.000262882 0.000265099 -3.97692e-05
-0.000294637 8.65161e-05 8.91945e-05 -4.77418e-05
-0.000296476 8.70446e-05 8.97564e-05 -4.7742e-05
-0.000884177 0.000263692 0.000265922 -3.97692e-05
-0.000588071 0.000174669 0.000177172 -4.47492e-05
-0.000295556 8.67803e-05 8.94754e-05 -4.77419e-05
-0.000591722 0.000175743 0.000178277 -4.47493e-05
-0.000589897 0.000175206 0.000177725 -4.47492e-05
-0.000881446 0.000262882 0.000265099 -3.97692e-05
-0.000875984 0.000261263 0.000263452 -3.97692e-05
-0.000292797 8.59875e-05 8.86328e-05 -4.77416e-05
-0.000294637 8.65161e-05 8.91945e-05 -4.77418e-05
-0.000878715 0.000262073 0.000264275 -3.97692e-05
-0.00058442 0.000173596 0.000176068 -4.47491e-05
-0.000293717 8.62518e-05 8.89136e-05 -4.77417e-05
-0.000588071 0.000174669 0.000177172 -4.47492e-05
-0.000586246 0.000174132 0.00017662 -4.47491e-05
-0.000875984 0.000261263 0.000263452 -3.97692e-05
-0.000870522 0.000259644 0.000261805 -3.97691e-05
-0.000290958 8.54588e-05 8.80712e-05 -4.77414e-05
-0.000292797 8.59875e-05 8.86328e-05 -4.77416e-05
-0.000873253 0.000260453 0.000262628 -3.97692e-05
-0.00058077 0.000172522 0.000174963 -4.47489e-05
-0.000291878 8.57231e-05 8.8352e-05 -4.77415e-05
-0.00058442 0.000173596 0.000176068 -4.47491e-05
-0.000582595 0.000173059 0.000175516 -4.4749e-05
-0.000870522 0.000259644 0.000261805 -3.97691e-05
-0.000865061 0.000258024 0.000260159 -3.97691e-05
-0.000289119 8.493e-05 8.75097e-05 -4.77413e-05
-0.000290958 8.54588e-05 8.80712e-05 -4.77414e-05
-0.000867791 0.000258834 0.000260982 -3.97691e-05
-0.000577119 0.000171448 0.000173859 -4.47488e-05
-0.000290039 8.51944e-05 8.77904e-05 -4.77414e-05
-0.00058077 0.000172522 0.000174963 -4.47489e-05
-0.000578944 0.000171985 0.000174411 -4.47489e-05
-0.000865061 0.000258024 0.000260159 -3.97691e-05
-0.000859599 0.000256405 0.000258512 -3.9769e-05
-0.000287281 8.44012e-05 8.69483e-05 -4.77411e-05
-0.000289119 8.493e-05 8.75097e-05 -4.77413e-05
-0.00086233 0.000257214 0.000259335 -3.9769e-05
-0.000573469 0.000170374 0.000172755 -4.47487e-05
-0.0002882 8.46656e-05 8.7229e-05 -4.77412e-05
-0.000577119 0.000171448 0.000173859 -4.47488e-05
-0.000575294 0.000170911 0.000173307 -4.47488e-05
-0.000859599 0.000256405 0.000258512 -3.9769e-05
-0.000854138 0.000254785 0.000256866 -3.9769e-05
-0.000285442 8.38722e-05 8.6387e-05 -4.77409e-05
-0.000287281 8.44012e-05 8.69483e-05 -4.77411e-05
-0.000856869 0.000255595 0.000257689 -3.9769e-05
-0.000569819 0.000169301 0.000171651 -4.47486e-05
-0.000286361 8.41367e-05 8.66676e-05 -4.7741e-05
-0.000573469 0.000170374 0.000172755 -4.47487e-05
-0.000571644 0.000169837 0.000172203 -4.47486e-05
-0.000854138 0.000254785 0.000256866 -3.9769e-05
-0.000848677 0.000253166 0.000255219 -3.97689e-05
-0.000283603 8.33432e-05 8.58258e-05 -4.77407e-05
-0.000285442 8.38722e-05 8.6387e-05 -4.77409e-05
-0.000851408 0.000253975 0.000256042 -3.97689e-05
-0.000566169 0.000168227 0.000170547 -4.47485e-05
-0.000284523 8.36077e-05 8.61064e-05 -4.77408e-05
-0.000569819 0.000169301 0.000171651 -4.47486e-05
-0.000567994 0.000168764 0.000171099 -4.47485e-05
-0.000848677 0.000253166 0.000255219 -3.97689e-05
-0.000843217 0.000251546 0.000253573 -3.97688e-05
-0.000281765 8.28141e-05 8.52648e-05 -4.77405e-05
-0.000283603 8.33432e-05 8.58258e-05 -4.77407e-05
-0.000845947 0.000252356 0.000254396 -3.97689e-05
-0.000562519 0.000167153 0.000169443 -4.47483e-05
-0.000282684 8.30786e-05 8.55453e-05 -4.77406e-05
-0.000566169 0.000168227 0.000170547 -4.47485e-05
-0.000564344 0.00016769 0.000169995 -4.47484e-05
-0.000843217 0.000251546 0.000253573 -3.97688e-05
-0.000837756 0.000249926 0.000251927 -3.97687e-05
-0.000279927 8.22848e-05 8.47039e-05 -4.77403e-05
-0.000281765 8.28141e-05 8.52648e-05 -4.77405e-05
-0.000840486 0.000250736 0.00025275 -3.97688e-05
-0.000558869 0.000166078 0.000168339 -4.47482e-05
-0.000280846 8.25495e-05 8.49843e-05 -4.77404e-05
-0.000562519 0.000167153 0.000169443 -4.47483e-05
-0.000560694 0.000166615 0.000168891 -4.47483e-05
-0.000837756 0.000249926 0.000251927 -3.97687e-05
-0.000832296 0.000248306 0.000250281 -3.97687e-05
-0.000278089 8.17555e-05 8.4143e-05 -4.77401e-05
-0.000279927 8.22848e-05 8.47039e-05 -4.77403e-05
-0.000835026 0.000249116 0.000251104 -3.97687e-05
-0.000555219 0.000165004 0.000167235 -4.47481e-05
-0.000279008 8.20202e-05 8.44234e-05 -4.77402e-05
-0.000558869 0.000166078 0.000168339 -4.47482e-05
-0.000557044 0.000165541 0.000167787 -4.47481e-05
-0.000832296 0.000248306 0.000250281 -3.97687e-05
-0.000826835 0.000246687 0.000248635 -3.97686e-05
-0.000276252 8.12261e-05 8.35823e-05 -4.77399e-05
-0.000278089 8.17555e-05 8.4143e-05 -4.77401e-05
-0.000829566 0.000247496 0.000249458 -3.97686e-05
-0.00055157 0.00016393 0.000166132 -4.47479e-05
-0.00027717 8.14908e-05 8.38627e-05 -4.774e-05
-0.000555219 0.000165004 0.000167235 -4.47481e-05
-0.000553395 0.000164467 0.000166683 -4.4748e-05
-0.000826835 0.000246687 0.000248635 -3.97686e-05
-0.000821375 0.000245067 0.000246989 -3.97685e-05
-0.000274414 8.06966e-05 8.30217e-05 -4.77397e-05
-0.000276252 8.12261e-05 8.35823e-05 -4.77399e-05
-0.000824105 0.000245877 0.000247812 -3.97686e-05
-0.000547921 0.000162856 0.000165028 -4.47478e-05
-0.000275333 8.09614e-05 8.3302e-05 -4.77398e-05
-0.00055157 0.00016393 0.000166132 -4.47479e-05
-0.000549746 0.000163393 0.00016558 -4.47478e-05
-0.000821375 0.000245067 0.000246989 -3.97685e-05
-0.000815915 0.000243447 0.000245344 -3.97684e-05
-0.000272577 8.01671e-05 8.24612e-05 -4.77395e-05
-0.000274414 8.06966e-05 8.30217e-05 -4.77397e-05
-0.000818645 0.000244257 0.000246167 -3.97685e-05
-0.000544272 0.000161781 0.000163925 -4.47476e-05
-0.000273495 8.04319e-05 8.27415e-05 -4.77396e-05
-0.000547921 0.000162856 0.000165028 -4.47478e-05
-0.000546096 0.000162318 0.000164476 -4.47477e-05
-0.000815915 0.000243447 0.000245344 -3.97684e-05
-0.000810456 0.000241827 0.000243698 -3.97683e-05
-0.000270739 7.96374e-05 8.19009e-05 -4.77392e-05
-0.000272577 8.01671e-05 8.24612e-05 -4.77395e-05
-0.000813186 0.000242637 0.000244521 -3.97684e-05
-0.000540623 0.000160707 0.000162821 -4.47475e-05
-0.000271658 7.99022e-05 8.2181e-05 -4.77393e-05
-0.000544272 0.000161781 0.000163925 -4.47476e-05
-0.000542448 0.000161244 0.000163373 -4.47475e-05
-0.000810456 0.000241827 0.000243698 -3.97683e-05
-0.000804996 0.000240206 0.000242053 -3.97683e-05
-0.000268902 7.91076e-05 8.13406e-05 -4.7739e-05
-0.000270739 7.96374e-05 8.19009e-05 -4.77392e-05
-0.000807726 0.000241016 0.000242875 -3.97683e-05
-0.000536975 0.000159632 0.000161718 -4.47473e-05
-0.000269821 7.93725e-05 8.16207e-05 -4.77391e-05
-0.000540623 0.000160707 0.000162821 -4.47475e-05
-0.000538799 0.000160169 0.00016227 -4.47474e-05
-0.000804996 0.000240206 0.000242053 -3.97683e-05
-0.000799537 0.000238586 0.000240407 -3.97682e-05
-0.000267066 7.85778e-05 8.07805e-05 -4.77388e-05
-0.000268902 7.91076e-05 8.13406e-05 -4.7739e-05
-0.000802267 0.000239396 0.00024123 -3.97682e-05
-0.000533326 0.000158557 0.000160615 -4.47472e-05
-0.000267984 7.88427e-05 8.10605e-05 -4.77389e-05
-0.000536975 0.000159632 0.000161718 -4.47473e-05
-0.00053515 0.000159095 0.000161167 -4.47472e-05
-0.000799537 0.000238586 0.000240407 -3.97682e-05
-0.000794078 0.000236966 0.000238762 -3.97681e-05
-0.000265229 7.80479e-05 8.02204e-05 -4.77386e-05
-0.000267066 7.85778e-05 8.07805e-05 -4.77388e-05
-0.000796807 0.000237776 0.000239585 -3.97681e-05
-0.000529678 0.000157483 0.000159512 -4.4747e-05
-0.000266147 7.83128e-05 8.05004e-05 -4.77387e-05
-0.000533326 0.000158557 0.000160615 -4.47472e-05
-0.000531502 0.00015802 0.000160064 -4.47471e-05
-0.000794078 0.000236966 0.000238762 -3.97681e-05
-0.000788619 0.000235346 0.000237117 -3.9768e-05
-0.000263392 7.75178e-05 7.96605e-05 -4.77383e-05
-0.000265229 7.80479e-05 8.02204e-05 -4.77386e-05
-0.000791348 0.000236156 0.00023794 -3.9768e-05
-0.00052603 0.000156408 0.000158409 -4.47468e-05
-0.000264311 7.77829e-05 7.99404e-05 -4.77385e-05
-0.000529678 0.000157483 0.000159512 -4.4747e-05
-0.000527854 0.000156945 0.000158961 -4.47469e-05
-0.000788619 0.000235346 0.000237117 -3.9768e-05
-0.00078316 0.000233725 0.000235472 -3.97679e-05
-0.000261556 7.69877e-05 7.91007e-05 -4.77381e-05
-0.000263392 7.75178e-05 7.96605e-05 -4.77383e-05
-0.000785889 0.000234535 0.000236294 -3.97679e-05
-0.000522382 0.000155333 0.000157307 -4.47467e-05
-0.000262474 7.72528e-05 7.93806e-05 -4.77382e-05
-0.00052603 0.000156408 0.000158409 -4.47468e-05
-0.000524206 0.00015587 0.000157858 -4.47468e-05
-0.00078316 0.000233725 0.000235472 -3.97679e-05
-0.000777701 0.000232105 0.000233827 -3.97678e-05
-0.00025972 7.64575e-05 7.8541e-05 -4.77379e-05
-0.000261556 7.69877e-05 7.91007e-05 -4.77381e-05
-0.000780431 0.000232915 0.00023465 -3.97678e-05
-0.000518734 0.000154258 0.000156204 -4.47465e-05
-0.000260638 7.67226e-05 7.88208e-05 -4.7738e-05
-0.000522382 0.000155333 0.000157307 -4.47467e-05
-0.000520558 0.000154795 0.000156755 -4.47466e-05
-0.000777701 0.000232105 0.000233827 -3.97678e-05
-0.000772243 0.000230484 0.000232182 -3.97677e-05
-0.000257884 7.59272e-05 7.79814e-05 -4.77376e-05
-0.00025972 7.64575e-05 7.8541e-05 -4.77379e-05
-0.000774972 0.000231295 0.000233005 -3.97677e-05
-0.000515087 0.000153183 0.000155102 -4.47463e-05
-0.000258802 7.61924e-05 7.82612e-05 -4.77378e-05
-0.000518734 0.000154258 0.000156204 -4.47465e-05
-0.00051691 0.00015372 0.000155653 -4.47464e-05
-0.000772243 0.000230484 0.000232182 -3.97677e-05
-0.000766785 0.000228864 0.000230537 -3.97676e-05
-0.000256048 7.53968e-05 7.7422e-05 -4.77374e-05
-0.000257884 7.59272e-05 7.79814e-05 -4.77376e-05
-0.000769514 0.000229674 0.00023136 -3.97676e-05
-0.000511439 0.000152108 0.000153999 -4.47462e-05
-0.000256966 7.5662e-05 7.77017e-05 -4.77375e-05
-0.000515087 0.000153183 0.000155102 -4.47463e-05
-0.000513263 0.000152645 0.00015455 -4.47463e-05
-0.000766785 0.000228864 0.000230537 -3.97676e-05
-0.000761326 0.000227243 0.000228893 -3.97675e-05
-0.000254212 7.48663e-05 7.68626e-05 -4.77372e-05
-0.000256048 7.53968e-05 7.7422e-05 -4.77374e-05
-0.000764055 0.000228053 0.000229715 -3.97675e-05
-0.000507792 0.000151032 0.000152897 -4.4746e-05
-0.00025513 7.51316e-05 7.71423e-05 -4.77373e-05
-0.000511439 0.000152108 0.000153999 -4.47462e-05
-0.000509616 0.00015157 0.000153448 -4.47461e-05
-0.000761326 0.000227243 0.000228893 -3.97675e-05
-0.000755869 0.000225622 0.000227248 -3.97674e-05
-0.000252377 7.43358e-05 7.63034e-05 -4.77369e-05
-0.000254212 7.48663e-05 7.68626e-05 -4.77372e-05
-0.000758597 0.000226433 0.000228071 -3.97674e-05
-0.000504145 0.000149957 0.000151795 -4.47458e-05
-0.000253295 7.4601e-05 7.6583e-05 -4.7737e-05
-0.000507792 0.000151032 0.000152897 -4.4746e-05
-0.000505969 0.000150495 0.000152346 -4.47459e-05
-0.000755869 0.000225622 0.000227248 -3.97674e-05
-0.000750411 0.000224002 0.000225604 -3.97673e-05
-0.000250542 7.38051e-05 7.57442e-05 -4.77367e-05
-0.000252377 7.43358e-05 7.63034e-05 -4.77369e-05
-0.00075314 0.000224812 0.000226426 -3.97673e-05
-0.000500498 0.000148882 0.000150693 -4.47456e-05
-0.000251459 7.40704e-05 7.60238e-05 -4.77368e-05
-0.000504145 0.000149957 0.000151795 -4.47458e-05
-0.000502322 0.000149419 0.000151244 -4.47457e-05
-0.000750411 0.000224002 0.000225604 -3.97673e-05
-0.000744953 0.000222381 0.00022396 -3.97672e-05
-0.000248707 7.32743e-05 7.51852e-05 -4.77364e-05
-0.000250542 7.38051e-05 7.57442e-05 -4.77367e-05
-0.000747682 0.000223191 0.000224782 -3.97672e-05
-0.000496852 0.000147806 0.000149591 -4.47455e-05
-0.000249624 7.35397e-05 7.54647e-05 -4.77365e-05
-0.000500498 0.000148882 0.000150693 -4.47456e-05
-0.000498675 0.000148344 0.000150142 -4.47456e-05
-0.000744953 0.000222381 0.00022396 -3.97672e-05
-0.000739496 0.00022076 0.000222315 -3.9767e-05
-0.000246872 7.27435e-05 7.46263e-05 -4.77362e-05
-0.000248707 7.32743e-05 7.51852e-05 -4.77364e-05
-0.000742224 0.00022157 0.000223138 -3.97671e-05
-0.000493205 0.000146731 0.000148489 -4.47453e-05
-0.000247789 7.30089e-05 7.49058e-05 -4.77363e-05
-0.000496852 0.000147806 0.000149591 -4.47455e-05
-0.000495028 0.000147268 0.00014904 -4.47454e-05
-0.000739496 0.00022076 0.000222315 -3.9767e-05
-0.000734039 0.000219139 0.000220671 -3.97669e-05
-0.000245037 7.22126e-05 7.40676e-05 -4.77359e-05
-0.000246872 7.27435e-05 7.46263e-05 -4.77362e-05
-0.000736767 0.000219949 0.000221493 -3.9767e-05
-0.000489559 0.000145655 0.000147387 -4.47451e-05
-0.000245954 7.2478e-05 7.43469e-05 -4.7736e-05
-0.000493205 0.000146731 0.000148489 -4.47453e-05
-0.000491382 0.000146193 0.000147938 -4.47452e-05
-0.000734039 0.000219139 0.000220671 -3.97669e-05
-0.000728582 0.000217518 0.000219027 -3.97668e-05
-0.000243202 7.16815e-05 7.35089e-05 -4.77357e-05
-0.000245037 7.22126e-05 7.40676e-05 -4.77359e-05
-0.00073131 0.000218328 0.000219849 -3.97669e-05
-0.000485913 0.000144579 0.000146286 -4.47449e-05
-0.00024412 7.19471e-05 7.37882e-05 -4.77358e-05
-0.000489559 0.000145655 0.000147387 -4.47451e-05
-0.000487736 0.000145117 0.000146837 -4.4745e-05
-0.000728582 0.000217518 0.000219027 -3.97668e-05
-0.000723125 0.000215897 0.000217383 -3.97667e-05
-0.000241368 7.11504e-05 7.29503e-05 -4.77354e-05
-0.000243202 7.16815e-05 7.35089e-05 -4.77357e-05
-0.000725853 0.000216707 0.000218205 -3.97668e-05
-0.000482267 0.000143503 0.000145184 -4.47447e-05
-0.000242285 7.1416e-05 7.32296e-05 -4.77355e-05
-0.000485913 0.000144579 0.000146286 -4.47449e-05
-0.00048409 0.000144041 0.000145735 -4.47448e-05
-0.000723125 0.000215897 0.000217383 -3.97667e-05
-0.000717668 0.000214276 0.00021574 -3.97666e-05
-0.000239534 7.06192e-05 7.23919e-05 -4.77351e-05
-0.000241368 7.11504e-05 7.29503e-05 -4.77354e-05
-0.000720396 0.000215086 0.000216562 -3.97666e-05
-0.000478621 0.000142427 0.000144083 -4.47446e-05
-0.000240451 7.08848e-05 7.26711e-05 -4.77353e-05
-0.000482267 0.000143503 0.000145184 -4.47447e-05
-0.000480444 0.000142965 0.000144634 -4.47446e-05
-0.000717668 0.000214276 0.00021574 -3.97666e-05
-0.000712212 0.000212654 0.000214096 -3.97665e-05
-0.0002377 7.00879e-05 7.18336e-05 -4.77349e-05
-0.000239534 7.06192e-05 7.23919e-05 -4.77351e-05
-0.00071494 0.000213465 0.000214918 -3.97665e-05
-0.000474975 0.000141352 0.000142982 -4.47444e-05
-0.000238617 7.03536e-05 7.21127e-05 -4.7735e-05
-0.000478621 0.000142427 0.000144083 -4.47446e-05
-0.000476798 0.000141889 0.000143532 -4.47445e-05
-0.000712212 0.000212654 0.000214096 -3.97665e-05
-0.000706755 0.000211033 0.000212452 -3.97663e-05
-0.000235866 6.95566e-05 7.12754e-05 -4.77346e-05
-0.0002377 7.00879e-05 7.18336e-05 -4.77349e-05
-0.000709483 0.000211844 0.000213274 -3.97664e-05
-0.00047133 0.000140275 0.000141881 -4.47442e-05
-0.000236783 6.98223e-05 7.15544e-05 -4.77348e-05
-0.000474975 0.000141352 0.000142982 -4.47444e-05
-0.000473153 0.000140813 0.000142431 -4.47443e-05
-0.000706755 0.000211033 0.000212452 -3.97663e-05
-0.000701299 0.000209412 0.000210809 -3.97662e-05
-0.000234032 6.90251e-05 7.07173e-05 -4.77344e-05
-0.000235866 6.95566e-05 7.12754e-05 -4.77346e-05
-0.000704027 0.000210222 0.000211631 -3.97663e-05
-0.000467685 0.000139199 0.000140779 -4.4744e-05
-0.000234949 6.92908e-05 7.09963e-05 -4.77345e-05
-0.00047133 0.000140275 0.000141881 -4.47442e-05
-0.000469507 0.000139737 0.00014133 -4.47441e-05
-0.000701299 0.000209412 0.000210809 -3.97662e-05
-0.000695843 0.00020779 0.000209166 -3.97661e-05
-0.000232198 6.84935e-05 7.01593e-05 -4.77341e-05
-0.000234032 6.90251e-05 7.07173e-05 -4.77344e-05
-0.000698571 0.000208601 0.000209987 -3.97662e-05
-0.00046404 0.000138123 0.000139679 -4.47438e-05
-0.000233115 6.87593e-05 7.04382e-05 -4.77342e-05
-0.000467685 0.000139199 0.000140779 -4.4744e-05
-0.000465862 0.000138661 0.000140229 -4.47439e-05
-0.000695843 0.00020779 0.000209166 -3.97661e-05
-0.000690388 0.000206169 0.000207522 -3.9766e-05
-0.000230365 6.79619e-05 6.96014e-05 -4.77338e-05
-0.000232198 6.84935e-05 7.01593e-05 -4.77341e-05
-0.000693115 0.00020698 0.000208344 -3.9766e-05
-0.000460395 0.000137047 0.000138578 -4.47436e-05
-0.000231282 6.82277e-05 6.98803e-05 -4.7734e-05
-0.00046404 0.000138123 0.000139679 -4.47438e-05
-0.000462217 0.000137585 0.000139128 -4.47437e-05
-0.000690388 0.000206169 0.000207522 -3.9766e-05
-0.000684932 0.000204547 0.000205879 -3.97659e-05
-0.000228532 6.74301e-05 6.90436e-05 -4.77336e-05
-0.000230365 6.79619e-05 6.96014e-05 -4.77338e-05
-0.00068766 0.000205358 0.000206701 -3.97659e-05
-0.00045675 0.000135971 0.000137477 -4.47434e-05
-0.000229449 6.7696e-05 6.93225e-05 -4.77337e-05
-0.000460395 0.000137047 0.000138578 -4.47436e-05
-0.000458573 0.000136509 0.000138027 -4.47435e-05
-0.000684932 0.000204547 0.000205879 -3.97659e-05
-0.000679477 0.000202926 0.000204236 -3.97657e-05
-0.000226699 6.68983e-05 6.8486e-05 -4.77333e-05
-0.000228532 6.74301e-05 6.90436e-05 -4.77336e-05
-0.000682204 0.000203736 0.000205058 -3.97658e-05
-0.000453106 0.000134894 0.000136376 -4.47432e-05
-0.000227615 6.71642e-05 6.87648e-05 -4.77334e-05
-0.00045675 0.000135971 0.000137477 -4.47434e-05
-0.000454928 0.000135432 0.000136927 -4.47433e-05
-0.000679477 0.000202926 0.000204236 -3.97657e-05
-0.000674021 0.000201304 0.000202593 -3.97656e-05
-0.000224866 6.63664e-05 6.79285e-05 -4.7733e-05
-0.000226699 6.68983e-05 6.8486e-05 -4.77333e-05
-0.000676749 0.000202115 0.000203415 -3.97657e-05
-0.000449462 0.000133818 0.000135276 -4.4743e-05
-0.000225783 6.66323e-05 6.82072e-05 -4.77332e-05
-0.000453106 0.000134894 0.000136376 -4.47432e-05
-0.000451284 0.000134356 0.000135826 -4.47431e-05
-0.000674021 0.000201304 0.000202593 -3.97656e-05
-0.000668566 0.000199682 0.00020095 -3.97655e-05
-0.000223033 6.58343e-05 6.73711e-05 -4.77328e-05
-0.000224866 6.63664e-05 6.79285e-05 -4.7733e-05
-0.000671294 0.000200493 0.000201772 -3.97655e-05
-0.000445817 0.000132741 0.000134176 -4.47428e-05
-0.00022395 6.61004e-05 6.76498e-05 -4.77329e-05
-0.000449462 0.000133818 0.000135276 -4.4743e-05
-0.000447639 0.000133279 0.000134726 -4.47429e-05
-0.000668566 0.000199682 0.00020095 -3.97655e-05
-0.000663112 0.00019806 0.000199308 -3.97654e-05
-0.000221201 6.53022e-05 6.68138e-05 -4.77325e-05
-0.000223033 6.58343e-05 6.73711e-05 -4.77328e-05
-0.000665839 0.000198871 0.000200129 -3.97654e-05
-0.000442173 0.000131664 0.000133075 -4.47426e-05
-0.000222117 6.55683e-05 6.70924e-05 -4.77326e-05
-0.000445817 0.000132741 0.000134176 -4.47428e-05
-0.000443995 0.000132203 0.000133625 -4.47427e-05
-0.000663112 0.00019806 0.000199308 -3.97654e-05
-0.000657657 0.000196439 0.000197665 -3.97652e-05
-0.000219369 6.477e-05 6.62566e-05 -4.77322e-05
-0.000221201 6.53022e-05 6.68138e-05 -4.77325e-05
-0.000660384 0.000197249 0.000198486 -3.97653e-05
-0.00043853 0.000130588 0.000131975 -4.47424e-05
-0.000220285 6.50361e-05 6.65352e-05 -4.77324e-05
-0.000442173 0.000131664 0.000133075 -4.47426e-05
-0.000440352 0.000131126 0.000132525 -4.47425e-05
-0.000657657 0.000196439 0.000197665 -3.97652e-05
-0.000652202 0.000194817 0.000196023 -3.97651e-05
-0.000217537 6.42378e-05 6.56995e-05 -4.7732e-05
-0.000219369 6.477e-05 6.62566e-05 -4.77322e-05
-0.00065493 0.000195628 0.000196844 -3.97652e-05
-0.000434886 0.000129511 0.000130875 -4.47422e-05
-0.000218453 6.45039e-05 6.5978e-05 -4.77321e-05
-0.00043853 0.000130588 0.000131975 -4.47424e-05
-0.000436708 0.000130049 0.000131425 -4.47423e-05
-0.000652202 0.000194817 0.000196023 -3.97651e-05
-0.000646748 0.000193195 0.00019438 -3.9765e-05
-0.000215705 6.37054e-05 6.51426e-05 -4.77317e-05
-0.000217537 6.42378e-05 6.56995e-05 -4.7732e-05
-0.000649475 0.000194006 0.000195201 -3.9765e-05
-0.000431243 0.000128434 0.000129775 -4.4742e-05
-0.000216621 6.39716e-05 6.5421e-05 -4.77318e-05
-0.000434886 0.000129511 0.000130875 -4.47422e-05
-0.000433064 0.000128972 0.000130325 -4.47421e-05
-0.000646748 0.000193195 0.00019438 -3.9765e-05
-0.000641294 0.000191573 0.000192738 -3.97648e-05
-0.000213873 6.31729e-05 6.45857e-05 -4.77314e-05
-0.000215705 6.37054e-05 6.51426e-05 -4.77317e-05
-0.000644021 0.000192384 0.000193559 -3.97649e-05
-0.0004276 0.000127357 0.000128675 -4.47418e-05
-0.000214789 6.34392e-05 6.48641e-05 -4.77316e-05
-0.000431243 0.000128434 0.000129775 -4.4742e-05
-0.000429421 0.000127895 0.000129225 -4.47419e-05
-0.000641294 0.000191573 0.000192738 -3.97648e-05
-0.00063584 0.00018995 0.000191096 -3.97647e-05
-0.000212041 6.26404e-05 6.4029e-05 -4.77312e-05
-0.000213873 6.31729e-05 6.45857e-05 -4.77314e-05
-0.000638567 0.000190761 0.000191917 -3.97648e-05
-0.000423957 0.00012628 0.000127576 -4.47416e-05
-0.000212957 6.29066e-05 6.43073e-05 -4.77313e-05
-0.0004276 0.000127357 0.000128675 -4.47418e-05
-0.000425778 0.000126818 0.000128126 -4.47417e-05
-0.00063584 0.00018995 0.000191096 -3.97647e-05
-0.000630386 0.000188328 0.000189454 -3.97646e-05
-0.00021021 6.21077e-05 6.34724e-05 -4.77309e-05
-0.000212041 6.26404e-05 6.4029e-05 -4.77312e-05
-0.000633113 0.000189139 0.000190275 -3.97647e-05
-0.000420314 0.000125203 0.000126476 -4.47414e-05
-0.000211126 6.2374e-05 6.37507e-05 -4.7731e-05
-0.000423957 0.00012628 0.000127576 -4.47416e-05
-0.000422135 0.000125741 0.000127026 -4.47415e-05
-0.000630386 0.000188328 0.000189454 -3.97646e-05
-0.000624933 0.000186706 0.000187812 -3.97645e-05
-0.000208379 6.1575e-05 6.29159e-05 -4.77306e-05
-0.00021021 6.21077e-05 6.34724e-05 -4.77309e-05
-0.00062766 0.000187517 0.000188633 -3.97645e-05
-0.000416671 0.000124125 0.000125377 -4.47412e-05
-0.000209294 6.18413e-05 6.31941e-05 -4.77308e-05
-0.000420314 0.000125203 0.000126476 -4.47414e-05
-0.000418492 0.000124664 0.000125926 -4.47413e-05
-0.000624933 0.000186706 0.000187812 -3.97645e-05
-0.00061948 0.000185084 0.00018617 -3.97643e-05
-0.000206548 6.10421e-05 6.23595e-05 -4.77304e-05
-0.000208379 6.1575e-05 6.29159e-05 -4.77306e-05
-0.000622206 0.000185895 0.000186991 -3.97644e-05
-0.000413029 0.000123048 0.000124277 -4.4741e-05
-0.000207463 6.13086e-05 6.26377e-05 -4.77305e-05
-0.000416671 0.000124125 0.000125377 -4.47412e-05
-0.00041485 0.000123587 0.000124827 -4.47411e-05
-0.00061948 0.000185084 0.00018617 -3.97643e-05
-0.000614026 0.000183461 0.000184528 -3.97642e-05
-0.000204717 6.05092e-05 6.18032e-05 -4.77301e-05
-0.000206548 6.10421e-05 6.23595e-05 -4.77304e-05
-0.000616753 0.000184272 0.000185349 -3.97643e-05
-0.000409386 0.000121971 0.000123178 -4.47408e-05
-0.000205632 6.07757e-05 6.20813e-05 -4.77302e-05
-0.000413029 0.000123048 0.000124277 -4.4741e-05
-0.000411207 0.000122509 0.000123728 -4.47409e-05
-0.000614026 0.000183461 0.000184528 -3.97642e-05
-0.000608573 0.000181839 0.000182886 -3.97641e-05
-0.000202886 5.99762e-05 6.12471e-05 -4.77298e-05
-0.000204717 6.05092e-05 6.18032e-05 -4.77301e-05
-0.0006113 0.00018265 0.000183707 -3.97641e-05
-0.000405744 0.000120893 0.000122079 -4.47407e-05
-0.000203801 6.02427e-05 6.15251e-05 -4.773e-05
-0.000409386 0.000121971 0.000123178 -4.47408e-05
-0.000407565 0.000121432 0.000122629 -4.47407e-05
-0.000608573 0.000181839 0.000182886 -3.97641e-05
-0.00060312 0.000180216 0.000181245 -3.97639e-05
-0.000201056 5.94431e-05 6.0691e-05 -4.77296e-05
-0.000202886 5.99762e-05 6.12471e-05 -4.77298e-05
-0.000605847 0.000181028 0.000182065 -3.9764e-05
-0.000402102 0.000119816 0.00012098 -4.47405e-05
-0.000201971 5.97097e-05 6.0969e-05 -4.77297e-05
-0.000405744 0.000120893 0.000122079 -4.47407e-05
-0.000403923 0.000120354 0.000121529 -4.47406e-05
-0.00060312 0.000180216 0.000181245 -3.97639e-05
-0.000597668 0.000178594 0.000179603 -3.97638e-05
-0.000199225 5.89099e-05 6.01351e-05 -4.77293e-05
-0.000201056 5.94431e-05 6.0691e-05 -4.77296e-05
-0.000600394 0.000179405 0.000180424 -3.97639e-05
-0.000398461 0.000118738 0.000119881 -4.47403e-05
-0.00020014 5.91765e-05 6.0413e-05 -4.77294e-05
-0.000402102 0.000119816 0.00012098 -4.47405e-05
-0.000400281 0.000119277 0.000120431 -4.47404e-05
-0.000597668 0.000178594 0.000179603 -3.97638e-05
-0.000592215 0.000176971 0.000177962 -3.97637e-05
-0.000197395 5.83766e-05 5.95793e-05 -4.7729e-05
-0.000199225 5.89099e-05 6.01351e-05 -4.77293e-05
-0.000594942 0.000177782 0.000178783 -3.97638e-05
-0.000394819 0.00011766 0.000118782 -4.47401e-05
-0.00019831 5.86433e-05 5.98572e-05 -4.77292e-05
-0.000398461 0.000118738 0.000119881 -4.47403e-05
-0.00039664 0.000118199 0.000119332 -4.47402e-05
-0.000592215 0.000176971 0.000177962 -3.97637e-05
-0.000586763 0.000175348 0.000176321 -3.97636e-05
-0.000195565 5.78433e-05 5.90236e-05 -4.77287e-05
-0.000197395 5.83766e-05 5.95793e-05 -4.7729e-05
-0.000589489 0.00017616 0.000177141 -3.97636e-05
-0.000391178 0.000116582 0.000117684 -4.47399e-05
-0.00019648 5.811e-05 5.93014e-05 -4.77289e-05
-0.000394819 0.00011766 0.000118782 -4.47401e-05
-0.000392998 0.000117121 0.000118233 -4.474e-05
-0.000586763 0.000175348 0.000176321 -3.97636e-05
-0.000581311 0.000173726 0.000174679 -3.97634e-05
-0.000193735 5.73098e-05 5.8468e-05 -4.77285e-05
-0.000195565 5.78433e-05 5.90236e-05 -4.77287e-05
-0.000584037 0.000174537 0.0001755 -3.97635e-05
-0.000387536 0.000115505 0.000116585 -4.47397e-05
-0.00019465 5.75765e-05 5.87458e-05 -4.77286e-05
-0.000391178 0.000116582 0.000117684 -4.47399e-05
-0.000389357 0.000116044 0.000117134 -4.47398e-05
-0.000581311 0.000173726 0.000174679 -3.97634e-05
-0.000575859 0.000172103 0.000173038 -3.97633e-05
-0.000191906 5.67762e-05 5.79125e-05 -4.77282e-05
-0.000193735 5.73098e-05 5.8468e-05 -4.77285e-05
-0.000578585 0.000172914 0.000173859 -3.97634e-05
-0.000383895 0.000114427 0.000115487 -4.47395e-05
-0.00019282 5.7043e-05 5.81903e-05 -4.77283e-05
-0.000387536 0.000115505 0.000116585 -4.47397e-05
-0.000385716 0.000114966 0.000116036 -4.47396e-05
-0.000575859 0.000172103 0.000173038 -3.97633e-05
-0.000570407 0.00017048 0.000171398 -3.97632e-05
-0.000190076 5.62426e-05 5.73572e-05 -4.77279e-05
-0.000191906 5.67762e-05 5.79125e-05 -4.77282e-05
-0.000573133 0.000171291 0.000172218 -3.97632e-05
-0.000380255 0.000113349 0.000114388 -4.47393e-05
-0.000190991 5.65094e-05 5.76349e-05 -4.77281e-05
-0.000383895 0.000114427 0.000115487 -4.47395e-05
-0.000382075 0.000113888 0.000114937 -4.47394e-05
-0.000570407 0.00017048 0.000171398 -3.97632e-05
-0.000564956 0.000168857 0.000169757 -3.97631e-05
-0.000188247 5.57089e-05 5.6802e-05 -4.77277e-05
-0.000190076 5.62426e-05 5.73572e-05 -4.77279e-05
-0.000567682 0.000169668 0.000170577 -3.97631e-05
-0.000376614 0.00011227 0.00011329 -4.47391e-05
-0.000189161 5.59758e-05 5.70796e-05 -4.77278e-05
-0.000380255 0.000113349 0.000114388 -4.47393e-05
-0.000378434 0.00011281 0.000113839 -4.47392e-05
-0.000564956 0.000168857 0.000169757 -3.97631e-05
-0.000559505 0.000167234 0.000168116 -3.97629e-05
-0.000186418 5.5175e-05 5.62468e-05 -4.77274e-05
-0.000188247 5.57089e-05 5.6802e-05 -4.77277e-05
-0.00056223 0.000168045 0.000168936 -3.9763e-05
-0.000372973 0.000111192 0.000112192 -4.47389e-05
-0.000187332 5.5442e-05 5.65244e-05 -4.77275e-05
-0.000376614 0.00011227 0.00011329 -4.47391e-05
-0.000374794 0.000111731 0.000112741 -4.4739e-05
-0.000559505 0.000167234 0.000168116 -3.97629e-05
-0.000554053 0.000165611 0.000166475 -3.97628e-05
-0.000184589 5.46411e-05 5.56918e-05 -4.77271e-05
-0.000186418 5.5175e-05 5.62468e-05 -4.77274e-05
-0.000556779 0.000166422 0.000167296 -3.97629e-05
-0.000369333 0.000110114 0.000111094 -4.47387e-05
-0.000185503 5.49081e-05 5.59693e-05 -4.77273e-05
-0.000372973 0.000111192 0.000112192 -4.47389e-05
-0.000371153 0.000110653 0.000111643 -4.47388e-05
-0.000554053 0.000165611 0.000166475 -3.97628e-05
-0.000548602 0.000163988 0.000164835 -3.97627e-05
-0.00018276 5.41071e-05 5.51369e-05 -4.77269e-05
-0.000184589 5.46411e-05 5.56918e-05 -4.77271e-05
-0.000551328 0.000164799 0.000165655 -3.97627e-05
-0.000365693 0.000109036 0.000109996 -4.47385e-05
-0.000183674 5.43741e-05 5.54144e-05 -4.7727e-05
-0.000369333 0.000110114 0.000111094 -4.47387e-05
-0.000367513 0.000109575 0.000110545 -4.47386e-05
-0.000548602 0.000163988 0.000164835 -3.97627e-05
-0.000543152 0.000162364 0.000163195 -3.97626e-05
-0.000180931 5.3573e-05 5.45821e-05 -4.77266e-05
-0.00018276 5.41071e-05 5.51369e-05 -4.77269e-05
-0.000545877 0.000163176 0.000164015 -3.97626e-05
-0.000362053 0.000107957 0.000108898 -4.47383e-05
-0.000181846 5.38401e-05 5.48595e-05 -4.77268e-05
-0.000365693 0.000109036 0.000109996 -4.47385e-05
-0.000363873 0.000108496 0.000109447 -4.47384e-05
-0.000543152 0.000162364 0.000163195 -3.97626e-05
-0.000537701 0.000160741 0.000161554 -3.97624e-05
-0.000179103 5.30388e-05 5.40275e-05 -4.77264e-05
-0.000180931 5.3573e-05 5.45821e-05 -4.77266e-05
-0.000540426 0.000161553 0.000162374 -3.97625e-05
-0.000358413 0.000106879 0.000107801 -4.47381e-05
-0.000180017 5.33059e-05 5.43048e-05 -4.77265e-05
-0.000362053 0.000107957 0.000108898 -4.47383e-05
-0.000360233 0.000107418 0.000108349 -4.47382e-05
-0.000537701 0.000160741 0.000161554 -3.97624e-05
-0.000532251 0.000159118 0.000159914 -3.97623e-05
-0.000177275 5.25046e-05 5.34729e-05 -4.77261e-05
-0.000179103 5.30388e-05 5.40275e-05 -4.77264e-05
-0.000534976 0.000159929 0.000160734 -3.97624e-05
-0.000354774 0.0001058 0.000106703 -4.47379e-05
-0.000178189 5.27717e-05 5.37502e-05 -4.77262e-05
-0.000358413 0.000106879 0.000107801 -4.47381e-05
-0.000356594 0.000106339 0.000107252 -4.4738e-05
-0.000532251 0.000159118 0.000159914 -3.97623e-05
-0.0005268 0.000157494 0.000158274 -3.97622e-05
-0.000175447 5.19702e-05 5.29185e-05 -4.77258e-05
-0.000177275 5.25046e-05 5.34729e-05 -4.77261e-05
-0.000529525 0.000158306 0.000159094 -3.97623e-05
-0.000351134 0.000104721 0.000105606 -4.47377e-05
-0.000176361 5.22374e-05 5.31957e-05 -4.7726e-05
-0.000354774 0.0001058 0.000106703 -4.47379e-05
-0.000352954 0.000105261 0.000106154 -4.47378e-05
-0.0005268 0.000157494 0.000158274 -3.97622e-05
-0.00052135 0.000155871 0.000156634 -3.97621e-05
-0.000173619 5.14357e-05 5.23642e-05 -4.77256e-05
-0.000175447 5.19702e-05 5.29185e-05 -4.77258e-05
-0.000524075 0.000156683 0.000157454 -3.97621e-05
-0.000347495 0.000103643 0.000104508 -4.47375e-05
-0.000174533 5.1703e-05 5.26413e-05 -4.77257e-05
-0.000351134 0.000104721 0.000105606 -4.47377e-05
-0.000349315 0.000104182 0.000105057 -4.47376e-05
-0.00052135 0.000155871 0.000156634 -3.97621e-05
-0.0005159 0.000154247 0.000154994 -3.9762e-05
-0.000171791 5.09012e-05 5.181e-05 -4.77253e-05
-0.000173619 5.14357e-05 5.23642e-05 -4.77256e-05
-0.000518625 0.000155059 0.000155814 -3.9762e-05
-0.000343856 0.000102564 0.000103411 -4.47374e-05
-0.000172705 5.11685e-05 5.2087e-05 -4.77255e-05
-0.000347495 0.000103643 0.000104508 -4.47375e-05
-0.000345676 0.000103103 0.00010396 -4.47374e-05
-0.0005159 0.000154247 0.000154994 -3.9762e-05
-0.000510451 0.000152624 0.000153354 -3.97618e-05
-0.000169964 5.03665e-05 5.12559e-05 -4.77251e-05
-0.000171791 5.09012e-05 5.181e-05 -4.77253e-05
-0.000513175 0.000153435 0.000154174 -3.97619e-05
-0.000340217 0.000101485 0.000102314 -4.47372e-05
-0.000170877 5.06339e-05 5.15329e-05 -4.77252e-05
-0.000343856 0.000102564 0.000103411 -4.47374e-05
-0.000342037 0.000102024 0.000102862 -4.47373e-05
-0.000510451 0.000152624 0.000153354 -3.97618e-05
-0.000505001 0.000151 0.000151715 -3.97617e-05
-0.000168136 4.98318e-05 5.07019e-05 -4.77248e-05
-0.000169964 5.03665e-05 5.12559e-05 -4.77251e-05
-0.000507726 0.000151812 0.000152535 -3.97618e-05
-0.000336579 0.000100406 0.000101217 -4.4737e-05
-0.00016905 5.00992e-05 5.09789e-05 -4.77249e-05
-0.000340217 0.000101485 0.000102314 -4.47372e-05
-0.000338398 0.000100945 0.000101765 -4.47371e-05
-0.000505001 0.000151 0.000151715 -3.97617e-05
-0.000499552 0.000149376 0.000150075 -3.97616e-05
-0.000166309 4.9297e-05 5.0148e-05 -4.77246e-05
-0.000168136 4.98318e-05 5.07019e-05 -4.77248e-05
-0.000502276 0.000150188 0.000150895 -3.97617e-05
-0.00033294 9.93269e-05 0.00010012 -4.47368e-05
-0.000167223 4.95644e-05 5.04249e-05 -4.77247e-05
-0.000336579 0.000100406 0.000101217 -4.4737e-05
-0.000334759 9.98665e-05 0.000100668 -4.47369e-05
-0.000499552 0.000149376 0.000150075 -3.97616e-05
-0.000494103 0.000147752 0.000148436 -3.97615e-05
-0.000164482 4.87621e-05 4.95943e-05 -4.77243e-05
-0.000166309 4.9297e-05 5.0148e-05 -4.77246e-05
-0.000496827 0.000148564 0.000149255 -3.97616e-05
-0.000329302 9.82478e-05 9.90232e-05 -4.47366e-05
-0.000165396 4.90295e-05 4.98711e-05 -4.77244e-05
-0.00033294 9.93269e-05 0.00010012 -4.47368e-05
-0.000331121 9.87873e-05 9.95716e-05 -4.47367e-05
-0.000494103 0.000147752 0.000148436 -3.97615e-05
-0.000488654 0.000146128 0.000146796 -3.97614e-05
-0.000162655 4.82271e-05 4.90406e-05 -4.77241e-05
-0.000164482 4.87621e-05 4.95943e-05 -4.77243e-05
-0.000491378 0.00014694 0.000147616 -3.97614e-05
-0.000325664 9.71685e-05 9.79265e-05 -4.47364e-05
-0.000163569 4.84946e-05 4.93174e-05 -4.77242e-05
-0.000329302 9.82478e-05 9.90232e-05 -4.47366e-05
-0.000327483 9.77082e-05 9.84749e-05 -4.47365e-05
-0.000488654 0.000146128 0.000146796 -3.97614e-05
-0.000483205 0.000144505 0.000145157 -3.97613e-05
-0.000160829 4.7692e-05 4.84871e-05 -4.77238e-05
-0.000162655 4.82271e-05 4.90406e-05 -4.77241e-05
-0.000485929 0.000145317 0.000145977 -3.97613e-05
-0.000322026 9.60892e-05 9.683e-05 -4.47363e-05
-0.000161742 4.79595e-05 4.87639e-05 -4.77239e-05
-0.000325664 9.71685e-05 9.79265e-05 -4.47364e-05
-0.000323845 9.66289e-05 9.73783e-05 -4.47363e-05
-0.000483205 0.000144505 0.000145157 -3.97613e-05
-0.000477756 0.000142881 0.000143518 -3.97612e-05
-0.000159002 4.71568e-05 4.79337e-05 -4.77236e-05
-0.000160829 4.7692e-05 4.84871e-05 -4.77238e-05
-0.00048048 0.000143693 0.000144338 -3.97612e-05
-0.000318388 9.50098e-05 9.57336e-05 -4.47361e-05
-0.000159915 4.74244e-05 4.82104e-05 -4.77237e-05
-0.000322026 9.60892e-05 9.683e-05 -4.47363e-05
-0.000320207 9.55495e-05 9.62818e-05 -4.47362e-05
-0.000477756 0.000142881 0.000143518 -3.97612e-05
-0.000472308 0.000141256 0.000141879 -3.97611e-05
-0.000157176 4.66215e-05 4.73804e-05 -4.77233e-05
-0.000159002 4.71568e-05 4.79337e-05 -4.77236e-05
-0.000475032 0.000142069 0.000142699 -3.97611e-05
-0.000314751 9.39303e-05 9.46372e-05 -4.47359e-05
-0.000158089 4.68891e-05 4.76571e-05 -4.77234e-05
-0.000318388 9.50098e-05 9.57336e-05 -4.47361e-05
-0.000316569 9.44701e-05 9.51854e-05 -4.4736e-05
-0.000472308 0.000141256 0.000141879 -3.97611e-05
-0.000466859 0.000139632 0.00014024 -3.9761e-05
-0.00015535 4.60861e-05 4.68272e-05 -4.77231e-05
-0.000157176 4.66215e-05 4.73804e-05 -4.77233e-05
-0.000469584 0.000140444 0.00014106 -3.9761e-05
-0.000311113 9.28508e-05 9.3541e-05 -4.47357e-05
-0.000156263 4.63538e-05 4.71038e-05 -4.77232e-05
-0.000314751 9.39303e-05 9.46372e-05 -4.47359e-05
-0.000312932 9.33906e-05 9.40891e-05 -4.47358e-05
-0.000466859 0.000139632 0.00014024 -3.9761e-05
-0.000461411 0.000138008 0.000138601 -3.97609e-05
-0.000153524 4.55507e-05 4.62742e-05 -4.77228e-05
-0.00015535 4.60861e-05 4.68272e-05 -4.77231e-05
-0.000464135 0.00013882 0.000139421 -3.97609e-05
-0.000307476 9.17711e-05 9.24449e-05 -4.47356e-05
-0.000154437 4.58184e-05 4.65507e-05 -4.7723e-05
-0.000311113 9.28508e-05 9.3541e-05 -4.47357e-05
-0.000309295 9.2311e-05 9.2993e-05 -4.47356e-05
-0.000461411 0.000138008 0.000138601 -3.97609e-05
-0.000455963 0.000136384 0.000136963 -3.97607e-05
-0.000151698 4.50151e-05 4.57212e-05 -4.77226e-05
-0.000153524 4.55507e-05 4.62742e-05 -4.77228e-05
-0.000458687 0.000137196 0.000137782 -3.97608e-05
-0.000303839 9.06914e-05 9.13489e-05 -4.47354e-05
-0.000152611 4.52829e-05 4.59977e-05 -4.77227e-05
-0.000307476 9.17711e-05 9.24449e-05 -4.47356e-05
-0.000305657 9.12313e-05 9.18969e-05 -4.47355e-05
-0.000455963 0.000136384 0.000136963 -3.97607e-05
-0.000450516 0.00013476 0.000135324 -3.97606e-05
-0.000149872 4.44795e-05 4.51684e-05 -4.77224e-05
-0.000151698 4.50151e-05 4.57212e-05 -4.77226e-05
-0.00045324 0.000135572 0.000136143 -3.97607e-05
-0.000300202 8.96116e-05 9.02531e-05 -4.47352e-05
-0.000150785 4.47473e-05 4.54448e-05 -4.77225e-05
-0.000303839 9.06914e-05 9.13489e-05 -4.47354e-05
-0.00030202 9.01515e-05 9.0801e-05 -4.47353e-05
-0.000450516 0.00013476 0.000135324 -3.97606e-05
-0.000445068 0.000133135 0.000133686 -3.97605e-05
-0.000148047 4.39437e-05 4.46157e-05 -4.77221e-05
-0.000149872 4.44795e-05 4.51684e-05 -4.77224e-05
-0.000447792 0.000133947 0.000134505 -3.97606e-05
-0.000296565 8.85317e-05 8.91573e-05 -4.47351e-05
-0.00014896 4.42116e-05 4.4892e-05 -4.77222e-05
-0.000300202 8.96116e-05 9.02531e-05 -4.47352e-05
-0.000298384 8.90717e-05 8.97052e-05 -4.47351e-05
-0.000445068 0.000133135 0.000133686 -3.97605e-05
-0.000439621 0.000131511 0.000132047 -3.97604e-05
-0.000146222 4.34079e-05 4.40631e-05 -4.77219e-05
-0.000148047 4.39437e-05 4.46157e-05 -4.77221e-05
-0.000442344 0.000132323 0.000132866 -3.97605e-05
-0.000292929 8.74518e-05 8.80616e-05 -4.47349e-05
-0.000147134 4.36758e-05 4.43394e-05 -4.7722e-05
-0.000296565 8.85317e-05 8.91573e-05 -4.47351e-05
-0.000294747 8.79918e-05 8.86094e-05 -4.4735e-05
-0.000439621 0.000131511 0.000132047 -3.97604e-05
-0.000434174 0.000129886 0.000130409 -3.97604e-05
-0.000144397 4.2872e-05 4.35106e-05 -4.77217e-05
-0.000146222 4.34079e-05 4.40631e-05 -4.77219e-05
-0.000436897 0.000130698 0.000131228 -3.97604e-05
-0.000289293 8.63717e-05 8.69661e-05 -4.47347e-05
-0.000145309 4.314e-05 4.37868e-05 -4.77218e-05
-0.000292929 8.74518e-05 8.80616e-05 -4.47349e-05
-0.000291111 8.69118e-05 8.75139e-05 -4.47348e-05
-0.000434174 0.000129886 0.000130409 -3.97604e-05
-0.000428727 0.000128261 0.000128771 -3.97603e-05
-0.000142572 4.2336e-05 4.29582e-05 -4.77214e-05
-0.000144397 4.2872e-05 4.35106e-05 -4.77217e-05
-0.00043145 0.000129074 0.00012959 -3.97603e-05
-0.000285656 8.52916e-05 8.58707e-05 -4.47346e-05
-0.000143484 4.2604e-05 4.32344e-05 -4.77215e-05
-0.000289293 8.63717e-05 8.69661e-05 -4.47347e-05
-0.000287475 8.58317e-05 8.64184e-05 -4.47346e-05
-0.000428727 0.000128261 0.000128771 -3.97603e-05
-0.00042328 0.000126637 0.000127133 -3.97602e-05
-0.000140747 4.17999e-05 4.2406e-05 -4.77212e-05
-0.000142572 4.2336e-05 4.29582e-05 -4.77214e-05
-0.000426003 0.000127449 0.000127952 -3.97602e-05
-0.000282021 8.42114e-05 8.47753e-05 -4.47344e-05
-0.000141659 4.20679e-05 4.26821e-05 -4.77213e-05
-0.000285656 8.52916e-05 8.58707e-05 -4.47346e-05
-0.000283838 8.47515e-05 8.5323e-05 -4.47345e-05
-0.00042328 0.000126637 0.000127133 -3.97602e-05
-0.000417833 0.000125012 0.000125495 -3.97601e-05
-0.000138923 4.12637e-05 4.18538e-05 -4.7721e-05
-0.000140747 4.17999e-05 4.2406e-05 -4.77212e-05
-0.000420556 0.000125824 0.000126314 -3.97601e-05
-0.000278385 8.31311e-05 8.36801e-05 -4.47343e-05
-0.000139835 4.15318e-05 4.21299e-05 -4.77211e-05
-0.000282021 8.42114e-05 8.47753e-05 -4.47344e-05
-0.000280203 8.36713e-05 8.42277e-05 -4.47343e-05
-0.000417833 0.000125012 0.000125495 -3.97601e-05
-0.000412387 0.000123387 0.000123857 -3.976e-05
-0.000137098 4.07274e-05 4.13018e-05 -4.77208e-05
-0.000138923 4.12637e-05 4.18538e-05 -4.7721e-05
-0.00041511 0.0001242 0.000124676 -3.976e-05
-0.000274749 8.20507e-05 8.2585e-05 -4.47341e-05
-0.00013801 4.09956e-05 4.15778e-05 -4.77209e-05
-0.000278385 8.31311e-05 8.36801e-05 -4.47343e-05
-0.000276567 8.25909e-05 8.31326e-05 -4.47342e-05
-0.000412387 0.000123387 0.000123857 -3.976e-05
-0.00040694 0.000121762 0.000122219 -3.97599e-05
-0.000135274 4.0191e-05 4.07499e-05 -4.77205e-05
-0.000137098 4.07274e-05 4.13018e-05 -4.77208e-05
-0.000409664 0.000122575 0.000123038 -3.97599e-05
-0.000271114 8.09703e-05 8.14901e-05 -4.47339e-05
-0.000136186 4.04592e-05 4.10258e-05 -4.77206e-05
-0.000274749 8.20507e-05 8.2585e-05 -4.47341e-05
-0.000272931 8.15105e-05 8.20375e-05 -4.4734e-05
-0.00040694 0.000121762 0.000122219 -3.97599e-05
-0.000401494 0.000120137 0.000120582 -3.97598e-05
-0.00013345 3.96546e-05 4.0198e-05 -4.77203e-05
-0.000135274 4.0191e-05 4.07499e-05 -4.77205e-05
-0.000404217 0.00012095 0.0001214 -3.97599e-05
-0.000267479 7.98898e-05 8.03952e-05 -4.47338e-05
-0.000134362 3.99228e-05 4.04739e-05 -4.77204e-05
-0.000271114 8.09703e-05 8.14901e-05 -4.47339e-05
-0.000269296 8.043e-05 8.09426e-05 -4.47339e-05
-0.000401494 0.000120137 0.000120582 -3.97598e-05
-0.000396048 0.000118512 0.000118944 -3.97597e-05
-0.000131626 3.9118e-05 3.96464e-05 -4.77201e-05
-0.00013345 3.96546e-05 4.0198e-05 -4.77203e-05
-0.000398771 0.000119325 0.000119763 -3.97598e-05
-0.000263843 7.88092e-05 7.93004e-05 -4.47336e-05
-0.000132538 3.93863e-05 3.99222e-05 -4.77202e-05
-0.000267479 7.98898e-05 8.03952e-05 -4.47338e-05
-0.000265661 7.93495e-05 7.98478e-05 -4.47337e-05
-0.000396048 0.000118512 0.000118944 -3.97597e-05
-0.000390603 0.000116887 0.000117307 -3.97596e-05
-0.000129803 3.85813e-05 3.90948e-05 -4.77199e-05
-0.000131626 3.9118e-05 3.96464e-05 -4.77201e-05
-0.000393325 0.0001177 0.000118125 -3.97597e-05
-0.000260209 7.77285e-05 7.82058e-05 -4.47335e-05
-0.000130714 3.88497e-05 3.93706e-05 -4.772e-05
-0.000263843 7.88092e-05 7.93004e-05 -4.47336e-05
-0.000262026 7.82688e-05 7.87531e-05 -4.47336e-05
-0.000390603 0.000116887 0.000117307 -3.97596e-05
-0.000385157 0.000115262 0.000115669 -3.97596e-05
-0.000127979 3.80446e-05 3.85433e-05 -4.77197e-05
-0.000129803 3.85813e-05 3.90948e-05 -4.77199e-05
-0.00038788 0.000116075 0.000116488 -3.97596e-05
-0.000256574 7.66477e-05 7.71112e-05 -4.47334e-05
-0.000128891 3.8313e-05 3.8819e-05 -4.77198e-05
-0.000260209 7.77285e-05 7.82058e-05 -4.47335e-05
-0.000258391 7.71881e-05 7.76585e-05 -4.47334e-05
-0.000385157 0.000115262 0.000115669 -3.97596e-05
-0.000379712 0.000113637 0.000114032 -3.97595e-05
-0.000126156 3.75078e-05 3.7992e-05 -4.77195e-05
-0.000127979 3.80446e-05 3.85433e-05 -4.77197e-05
-0.000382434 0.00011445 0.000114851 -3.97595e-05
-0.000252939 7.55668e-05 7.60168e-05 -4.47332e-05
-0.000127067 3.77762e-05 3.82676e-05 -4.77196e-05
-0.000256574 7.66477e-05 7.71112e-05 -4.47334e-05
-0.000254757 7.61073e-05 7.6564e-05 -4.47333e-05
-0.000379712 0.000113637 0.000114032 -3.97595e-05
-0.000374266 0.000112012 0.000112395 -3.97594e-05
-0.000124333 3.69708e-05 3.74407e-05 -4.77193e-05
-0.000126156 3.75078e-05 3.7992e-05 -4.77195e-05
-0.000376989 0.000112824 0.000113213 -3.97595e-05
-0.000249305 7.44859e-05 7.49225e-05 -4.47331e-05
-0.000125244 3.72393e-05 3.77163e-05 -4.77194e-05
-0.000252939 7.55668e-05 7.60168e-05 -4.47332e-05
-0.000251122 7.50264e-05 7.54696e-05 -4.47332e-05
-0.000374266 0.000112012 0.000112395 -3.97594e-05
-0.000368821 0.000110386 0.000110758 -3.97593e-05
-0.00012251 3.64338e-05 3.68896e-05 -4.77191e-05
-0.000124333 3.69708e-05 3.74407e-05 -4.77193e-05
-0.000371544 0.000111199 0.000111576 -3.97594e-05
-0.000245671 7.34049e-05 7.38283e-05 -4.47329e-05
-0.000123421 3.67023e-05 3.71652e-05 -4.77192e-05
-0.000249305 7.44859e-05 7.49225e-05 -4.47331e-05
-0.000247488 7.39454e-05 7.43754e-05 -4.4733e-05
-0.000368821 0.000110386 0.000110758 -3.97593e-05
-0.000363377 0.000108761 0.000109121 -3.97593e-05
-0.000120687 3.58967e-05 3.63386e-05 -4.77189e-05
-0.00012251 3.64338e-05 3.68896e-05 -4.77191e-05
-0.000366099 0.000109574 0.000109939 -3.97593e-05
-0.000242037 7.23238e-05 7.27342e-05 -4.47328e-05
-0.000121598 3.61653e-05 3.66141e-05 -4.7719e-05
-0.000245671 7.34049e-05 7.38283e-05 -4.47329e-05
-0.000243854 7.28643e-05 7.32812e-05 -4.47329e-05
-0.000363377 0.000108761 0.000109121 -3.97593e-05
-0.000357932 0.000107136 0.000107484 -3.97592e-05
-0.000118864 3.53595e-05 3.57877e-05 -4.77187e-05
-0.000120687 3.58967e-05 3.63386e-05 -4.77189e-05
-0.000360654 0.000107948 0.000108302 -3.97592e-05
-0.000238403 7.12426e-05 7.16402e-05 -4.47327e-05
-0.000119775 3.56281e-05 3.60632e-05 -4.77188e-05
-0.000242037 7.23238e-05 7.27342e-05 -4.47328e-05
-0.00024022 7.17832e-05 7.21872e-05 -4.47328e-05
-0.000357932 0.000107136 0.000107484 -3.97592e-05
-0.000352487 0.00010551 0.000105847 -3.97591e-05
-0.000117042 3.48222e-05 3.5237e-05 -4.77185e-05
-0.000118864 3.53595e-05 3.57877e-05 -4.77187e-05
-0.00035521 0.000106323 0.000106666 -3.97592e-05
-0.000234769 7.01613e-05 7.05464e-05 -4.47326e-05
-0.000117953 3.50909e-05 3.55123e-05 -4.77186e-05
-0.000238403 7.12426e-05 7.16402e-05 -4.47327e-05
-0.000236586 7.0702e-05 7.10933e-05 -4.47326e-05
-0.000352487 0.00010551 0.000105847 -3.97591e-05
-0.000347043 0.000103884 0.000104211 -3.97591e-05
-0.00011522 3.42848e-05 3.46863e-05 -4.77183e-05
-0.000117042 3.48222e-05 3.5237e-05 -4.77185e-05
-0.000349765 0.000104697 0.000105029 -3.97591e-05
-0.000231136 6.908e-05 6.94526e-05 -4.47324e-05
-0.000116131 3.45535e-05 3.49616e-05 -4.77184e-05
-0.000234769 7.01613e-05 7.05464e-05 -4.47326e-05
-0.000232953 6.96206e-05 6.99995e-05 -4.47325e-05
-0.000347043 0.000103884 0.000104211 -3.97591e-05
-0.000341599 0.000102259 0.000102574 -3.9759e-05
-0.000113397 3.37474e-05 3.41357e-05 -4.77181e-05
-0.00011522 3.42848e-05 3.46863e-05 -4.77183e-05
-0.000344321 0.000103072 0.000103393 -3.97591e-05
-0.000227503 6.79985e-05 6.8359e-05 -4.47323e-05
-0.000114308 3.40161e-05 3.4411e-05 -4.77182e-05
-0.000231136 6.908e-05 6.94526e-05 -4.47324e-05
-0.000229319 6.85393e-05 6.89058e-05 -4.47324e-05
-0.000341599 0.000102259 0.000102574 -3.9759e-05
-0.000336155 0.000100633 0.000100938 -3.9759e-05
-0.000111576 3.32098e-05 3.35853e-05 -4.77179e-05
-0.000113397 3.37474e-05 3.41357e-05 -4.77181e-05
-0.000338877 0.000101446 0.000101756 -3.9759e-05
-0.00022387 6.6917e-05 6.72654e-05 -4.47322e-05
-0.000112486 3.34786e-05 3.38605e-05 -4.7718e-05
-0.000227503 6.79985e-05 6.8359e-05 -4.47323e-05
-0.000225686 6.74578e-05 6.78122e-05 -4.47323e-05
-0.000336155 0.000100633 0.000100938 -3.9759e-05
-0.000330711 9.90072e-05 9.93016e-05 -3.97589e-05
-0.000109754 3.26721e-05 3.3035e-05 -4.77177e-05
-0.000111576 3.32098e-05 3.35853e-05 -4.77179e-05
-0.000333433 9.98201e-05 0.00010012 -3.97589e-05
-0.000220237 6.58354e-05 6.6172e-05 -4.47321e-05
-0.000110665 3.2941e-05 3.33101e-05 -4.77178e-05
-0.00022387 6.6917e-05 6.72654e-05 -4.47322e-05
-0.000222053 6.63762e-05 6.67187e-05 -4.47321e-05
-0.000330711 9.90072e-05 9.93016e-05 -3.97589e-05
-0.000325267 9.73813e-05 9.76654e-05 -3.97589e-05
-0.000107932 3.21344e-05 3.24848e-05 -4.77176e-05
-0.000109754 3.26721e-05 3.3035e-05 -4.77177e-05
-0.000327989 9.81942e-05 9.84835e-05 -3.97589e-05
-0.000216604 6.47537e-05 6.50787e-05 -4.4732e-05
-0.000108843 3.24033e-05 3.27599e-05 -4.77176e-05
-0.000220237 6.58354e-05 6.6172e-05 -4.47321e-05
-0.00021842 6.52946e-05 6.56253e-05 -4.4732e-05
-0.000325267 9.73813e-05 9.76654e-05 -3.97589e-05
-0.000319824 9.57553e-05 9.60293e-05 -3.97588e-05
-0.000106111 3.15965e-05 3.19347e-05 -4.77174e-05
-0.000107932 3.21344e-05 3.24848e-05 -4.77176e-05
-0.000322546 9.65683e-05 9.68474e-05 -3.97588e-05
-0.000212971 6.3672e-05 6.39855e-05 -4.47319e-05
-0.000107021 3.18655e-05 3.22097e-05 -4.77175e-05
-0.000216604 6.47537e-05 6.50787e-05 -4.4732e-05
-0.000214788 6.42129e-05 6.45321e-05 -4.47319e-05
-0.000319824 9.57553e-05 9.60293e-05 -3.97588e-05
-0.00031438 9.41293e-05 9.43934e-05 -3.97588e-05
-0.00010429 3.10586e-05 3.13847e-05 -4.77172e-05
-0.000106111 3.15965e-05 3.19347e-05 -4.77174e-05
-0.000317102 9.49423e-05 9.52113e-05 -3.97588e-05
-0.000209339 6.25901e-05 6.28924e-05 -4.47317e-05
-0.0001052 3.13276e-05 3.16597e-05 -4.77173e-05
-0.000212971 6.3672e-05 6.39855e-05 -4.47319e-05
-0.000211155 6.31311e-05 6.34389e-05 -4.47318e-05
-0.00031438 9.41293e-05 9.43934e-05 -3.97588e-05
-0.000308937 9.25032e-05 9.27575e-05 -3.97587e-05
-0.000102469 3.05206e-05 3.08348e-05 -4.7717e-05
-0.00010429 3.10586e-05 3.13847e-05 -4.77172e-05
-0.000311659 9.33163e-05 9.35754e-05 -3.97587e-05
-0.000205707 6.15082e-05 6.17994e-05 -4.47316e-05
-0.000103379 3.07896e-05 3.11098e-05 -4.77171e-05
-0.000209339 6.25901e-05 6.28924e-05 -4.47317e-05
-0.000207523 6.20492e-05 6.23459e-05 -4.47317e-05
-0.000308937 9.25032e-05 9.27575e-05 -3.97587e-05
-0.000303494 9.08771e-05 9.11217e-05 -3.97587e-05
-0.000100648 2.99824e-05 3.02851e-05 -4.77169e-05
-0.000102469 3.05206e-05 3.08348e-05 -4.7717e-05
-0.000306216 9.16902e-05 9.19396e-05 -3.97587e-05
-0.000202075 6.04262e-05 6.07065e-05 -4.47315e-05
-0.000101558 3.02515e-05 3.056e-05 -4.7717e-05
-0.000205707 6.15082e-05 6.17994e-05 -4.47316e-05
-0.000203891 6.09672e-05 6.12529e-05 -4.47316e-05
-0.000303494 9.08771e-05 9.11217e-05 -3.97587e-05
-0.000298052 8.92509e-05 8.9486e-05 -3.97586e-05
-9.8827e-05 2.94442e-05 2.97355e-05 -4.77167e-05
-0.000100648 2.99824e-05 3.02851e-05 -4.77169e-05
-0.000300773 9.0064e-05 9.03039e-05 -3.97587e-05
-0.000198443 5.93441e-05 5.96138e-05 -4.47314e-05
-9.97373e-05 2.97133e-05 3.00103e-05 -4.77168e-05
-0.000202075 6.04262e-05 6.07065e-05 -4.47315e-05
-0.000200259 5.98851e-05 6.01601e-05 -4.47315e-05
-0.000298052 8.92509e-05 8.9486e-05 -3.97586e-05
-0.000292609 8.76246e-05 8.78505e-05 -3.97586e-05
-9.70064e-05 2.89059e-05 2.91859e-05 -4.77166e-05
-9.8827e-05 2.94442e-05 2.97355e-05 -4.77167e-05
-0.00029533 8.84377e-05 8.86682e-05 -3.97586e-05
-0.000194811 5.82619e-05 5.85211e-05 -4.47314e-05
-9.79167e-05 2.91751e-05 2.94607e-05 -4.77166e-05
-0.000198443 5.93441e-05 5.96138e-05 -4.47314e-05
-0.000196627 5.8803e-05 5.90674e-05 -4.47314e-05
-0.000292609 8.76246e-05 8.78505e-05 -3.97586e-05
-0.000287167 8.59982e-05 8.6215e-05 -3.97586e-05
-9.51861e-05 2.83675e-05 2.86365e-05 -4.77164e-05
-9.70064e-05 2.89059e-05 2.91859e-05 -4.77166e-05
-0.000289888 8.68114e-05 8.70327e-05 -3.97586e-05
-0.00019118 5.71797e-05 5.74286e-05 -4.47313e-05
-9.60962e-05 2.86367e-05 2.89112e-05 -4.77165e-05
-0.000194811 5.82619e-05 5.85211e-05 -4.47314e-05
-0.000192995 5.77208e-05 5.79748e-05 -4.47313e-05
-0.000287167 8.59982e-05 8.6215e-05 -3.97586e-05
-0.000281724 8.43718e-05 8.45796e-05 -3.97585e-05
-9.33659e-05 2.7829e-05 2.80872e-05 -4.77162e-05
-9.51861e-05 2.83675e-05 2.86365e-05 -4.77164e-05
-0.000284445 8.5185e-05 8.53973e-05 -3.97586e-05
-0.000187548 5.60973e-05 5.63361e-05 -4.47312e-05
-9.4276e-05 2.80983e-05 2.83619e-05 -4.77163e-05
-0.00019118 5.71797e-05 5.74286e-05 -4.47313e-05
-0.000189364 5.66385e-05 5.68823e-05 -4.47312e-05
-0.000281724 8.43718e-05 8.45796e-05 -3.97585e-05
-0.000276282 8.27453e-05 8.29444e-05 -3.97585e-05
-9.15459e-05 2.72904e-05 2.75381e-05 -4.77161e-05
-9.33659e-05 2.7829e-05 2.80872e-05 -4.77162e-05
-0.000279003 8.35585e-05 8.3762e-05 -3.97585e-05
-0.000183917 5.50149e-05 5.52438e-05 -4.47311e-05
-9.24559e-05 2.75597e-05 2.78126e-05 -4.77162e-05
-0.000187548 5.60973e-05 5.63361e-05 -4.47312e-05
-0.000185733 5.55561e-05 5.579e-05 -4.47311e-05
-0.000276282 8.27453e-05 8.29444e-05 -3.97585e-05
-0.00027084 8.11187e-05 8.13092e-05 -3.97585e-05
-8.9726e-05 2.67517e-05 2.6989e-05 -4.7716e-05
-9.15459e-05 2.72904e-05 2.75381e-05 -4.77161e-05
-0.000273561 8.1932e-05 8.21268e-05 -3.97585e-05
-0.000180286 5.39324e-05 5.41516e-05 -4.4731e-05
-9.06359e-05 2.70211e-05 2.72635e-05 -4.7716e-05
-0.000183917 5.50149e-05 5.52438e-05 -4.47311e-05
-0.000182102 5.44736e-05 5.46977e-05 -4.4731e-05
-0.00027084 8.11187e-05 8.13092e-05 -3.97585e-05
-0.000265398 7.9492e-05 7.96742e-05 -3.97585e-05
-8.79064e-05 2.6213e-05 2.644e-05 -4.77158e-05
-8.9726e-05 2.67517e-05 2.6989e-05 -4.7716e-05
-0.000268119 8.03054e-05 8.04917e-05 -3.97585e-05
-0.000176655 5.28498e-05 5.30595e-05 -4.47309e-05
-8.88162e-05 2.64824e-05 2.67145e-05 -4.77159e-05
-0.000180286 5.39324e-05 5.41516e-05 -4.4731e-05
-0.000178471 5.33911e-05 5.36055e-05 -4.4731e-05
-0.000265398 7.9492e-05 7.96742e-05 -3.97585e-05
-0.000259957 7.78653e-05 7.80392e-05 -3.97584e-05
-8.60869e-05 2.56741e-05 2.58912e-05 -4.77157e-05
-8.79064e-05 2.6213e-05 2.644e-05 -4.77158e-05
-0.000262678 7.86787e-05 7.88567e-05 -3.97585e-05
-0.000173025 5.17671e-05 5.19675e-05 -4.47308e-05
-8.69966e-05 2.59436e-05 2.61656e-05 -4.77157e-05
-0.000176655 5.28498e-05 5.30595e-05 -4.47309e-05
-0.00017484 5.23085e-05 5.25135e-05 -4.47309e-05
-0.000259957 7.78653e-05 7.80392e-05 -3.97584e-05
-0.000254515 7.62385e-05 7.64044e-05 -3.97584e-05
-8.42676e-05 2.51352e-05 2.53425e-05 -4.77155e-05
-8.60869e-05 2.56741e-05 2.58912e-05 -4.77157e-05
-0.000257236 7.70519e-05 7.72218e-05 -3.97584e-05
-0.000169394 5.06843e-05 5.08756e-05 -4.47308e-05
-8.51772e-05 2.54046e-05 2.56168e-05 -4.77156e-05
-0.000173025 5.17671e-05 5.19675e-05 -4.47308e-05
-0.000171209 5.12257e-05 5.14215e-05 -4.47308e-05
-0.000254515 7.62385e-05 7.64044e-05 -3.97584e-05
-0.000249074 7.46117e-05 7.47696e-05 -3.97584e-05
-8.24484e-05 2.45961e-05 2.47938e-05 -4.77154e-05
-8.42676e-05 2.51352e-05 2.53425e-05 -4.77155e-05
-0.000251795 7.54251e-05 7.5587e-05 -3.97584e-05
-0.000165764 4.96015e-05 4.97838e-05 -4.47307e-05
-8.3358e-05 2.48656e-05 2.50681e-05 -4.77155e-05
-0.000169394 5.06843e-05 5.08756e-05 -4.47308e-05
-0.000167579 5.01429e-05 5.03297e-05 -4.47307e-05
-0.000249074 7.46117e-05 7.47696e-05 -3.97584e-05
-0.000243633 7.29848e-05 7.3135e-05 -3.97584e-05
-8.06294e-05 2.4057e-05 2.42453e-05 -4.77153e-05
-8.24484e-05 2.45961e-05 2.47938e-05 -4.77154e-05
-0.000246354 7.37982e-05 7.39523e-05 -3.97584e-05
-0.000162134 4.85186e-05 4.86922e-05 -4.47306e-05
-8.15389e-05 2.43265e-05 2.45196e-05 -4.77153e-05
-0.000165764 4.96015e-05 4.97838e-05 -4.47307e-05
-0.000163949 4.906e-05 4.9238e-05 -4.47307e-05
-0.000243633 7.29848e-05 7.3135e-05 -3.97584e-05
-0.000238192 7.13578e-05 7.15004e-05 -3.97584e-05
-7.88106e-05 2.35177e-05 2.3697e-05 -4.77152e-05
-8.06294e-05 2.4057e-05 2.42453e-05 -4.77153e-05
-0.000240913 7.21713e-05 7.23177e-05 -3.97584e-05
-0.000158504 4.74356e-05 4.76006e-05 -4.47306e-05
-7.972e-05 2.37874e-05 2.39711e-05 -4.77152e-05
-0.000162134 4.85186e-05 4.86922e-05 -4.47306e-05
-0.000160319 4.79771e-05 4.81464e-05 -4.47306e-05
-0.000238192 7.13578e-05 7.15004e-05 -3.97584e-05
-0.000232751 6.97307e-05 6.9866e-05 -3.97584e-05
-7.6992e-05 2.29784e-05 2.31487e-05 -4.7715e-05
-7.88106e-05 2.35177e-05 2.3697e-05 -4.77152e-05
-0.000235472 7.05443e-05 7.06832e-05 -3.97584e-05
-0.000154874 4.63525e-05 4.65092e-05 -4.47305e-05
-7.79013e-05 2.32481e-05 2.34228e-05 -4.77151e-05
-0.000158504 4.74356e-05 4.76006e-05 -4.47306e-05
-0.000156689 4.6894e-05 4.70549e-05 -4.47305e-05
-0.000232751 6.97307e-05 6.9866e-05 -3.97584e-05
-0.000227311 6.81036e-05 6.82317e-05 -3.97584e-05
-7.51735e-05 2.2439e-05 2.26005e-05 -4.77149e-05
-7.6992e-05 2.29784e-05 2.31487e-05 -4.7715e-05
-0.000230031 6.89172e-05 6.90488e-05 -3.97584e-05
-0.000151244 4.52693e-05 4.54179e-05 -4.47305e-05
-7.60827e-05 2.27087e-05 2.28746e-05 -4.7715e-05
-0.000154874 4.63525e-05 4.65092e-05 -4.47305e-05
-0.000153059 4.58109e-05 4.59635e-05 -4.47305e-05
-0.000227311 6.81036e-05 6.82317e-05 -3.97584e-05
-0.00022187 6.64764e-05 6.65974e-05 -3.97584e-05
-7.33552e-05 2.18995e-05 2.20525e-05 -4.77148e-05
-7.51735e-05 2.2439e-05 2.26005e-05 -4.77149e-05
-0.000224591 6.729e-05 6.74145e-05 -3.97584e-05
-0.000147615 4.4186e-05 4.43266e-05 -4.47304e-05
-7.42644e-05 2.21692e-05 2.23265e-05 -4.77149e-05
-0.000151244 4.52693e-05 4.54179e-05 -4.47305e-05
-0.00014943 4.47277e-05 4.48722e-05 -4.47304e-05
-0.00022187 6.64764e-05 6.65974e-05 -3.97584e-05
-0.00021643 6.48491e-05 6.49633e-05 -3.97584e-05
-7.15371e-05 2.13599e-05 2.15045e-05 -4.77147e-05
-7.33552e-05 2.18995e-05 2.20525e-05 -4.77148e-05
-0.00021915 6.56628e-05 6.57803e-05 -3.97584e-05
-0.000143986 4.31027e-05 4.32355e-05 -4.47304e-05
-7.24462e-05 2.16297e-05 2.17785e-05 -4.77148e-05
-0.000147615 4.4186e-05 4.43266e-05 -4.47304e-05
-0.0001458 4.36444e-05 4.37811e-05 -4.47304e-05
-0.00021643 6.48491e-05 6.49633e-05 -3.97584e-05
-0.00021099 6.32218e-05 6.33292e-05 -3.97584e-05
-6.97192e-05 2.08202e-05 2.09567e-05 -4.77146e-05
-7.15371e-05 2.13599e-05 2.15045e-05 -4.77147e-05
-0.00021371 6.40354e-05 6.41463e-05 -3.97584e-05
-0.000140356 4.20192e-05 4.21445e-05 -4.47303e-05
-7.06281e-05 2.109e-05 2.12306e-05 -4.77146e-05
-0.000143986 4.31027e-05 4.32355e-05 -4.47304e-05
-0.000142171 4.2561e-05 4.269e-05 -4.47303e-05
-0.00021099 6.32218e-05 6.33292e-05 -3.97584e-05
-0.00020555 6.15943e-05 6.16953e-05 -3.97584e-05
-6.79014e-05 2.02804e-05 2.0409e-05 -4.77145e-05
-6.97192e-05 2.08202e-05 2.09567e-05 -4.77146e-05
-0.00020827 6.24081e-05 6.25123e-05 -3.97584e-05
-0.000136727 4.09357e-05 4.10536e-05 -4.47303e-05
-6.88103e-05 2.05503e-05 2.06829e-05 -4.77145e-05
-0.000140356 4.20192e-05 4.21445e-05 -4.47303e-05
-0.000138542 4.14775e-05 4.1599e-05 -4.47303e-05
-0.00020555 6.15943e-05 6.16953e-05 -3.97584e-05
-0.00020011 5.99669e-05 6.00615e-05 -3.97584e-05
-6.60838e-05 1.97405e-05 1.98614e-05 -4.77144e-05
-6.79014e-05 2.02804e-05 2.0409e-05 -4.77145e-05
-0.00020283 6.07806e-05 6.08784e-05 -3.97584e-05
-0.000133099 3.98521e-05 3.99628e-05 -4.47302e-05
-6.69926e-05 2.00104e-05 2.01352e-05 -4.77144e-05
-0.000136727 4.09357e-05 4.10536e-05 -4.47303e-05
-0.000134913 4.03939e-05 4.05082e-05 -4.47303e-05
-0.00020011 5.99669e-05 6.00615e-05 -3.97584e-05
-0.000194671 5.83393e-05 5.84277e-05 -3.97585e-05
-6.42664e-05 1.92005e-05 1.93139e-05 -4.77143e-05
-6.60838e-05 1.97405e-05 1.98614e-05 -4.77144e-05
-0.00019739 5.91531e-05 5.92446e-05 -3.97584e-05
-0.00012947 3.87684e-05 3.88721e-05 -4.47302e-05
-6.51751e-05 1.94705e-05 1.95877e-05 -4.77143e-05
-0.000133099 3.98521e-05 3.99628e-05 -4.47302e-05
-0.000131284 3.93103e-05 3.94175e-05 -4.47302e-05
-0.000194671 5.83393e-05 5.84277e-05 -3.97585e-05
-0.000189231 5.67117e-05 5.67941e-05 -3.97585e-05
-6.24491e-05 1.86604e-05 1.87666e-05 -4.77142e-05
-6.42664e-05 1.92005e-05 1.93139e-05 -4.77143e-05
-0.000191951 5.75255e-05 5.76109e-05 -3.97585e-05
-0.000125842 3.76847e-05 3.77816e-05 -4.47302e-05
-6.33577e-05 1.89305e-05 1.90402e-05 -4.77143e-05
-0.00012947 3.87684e-05 3.88721e-05 -4.47302e-05
-0.000127656 3.82266e-05 3.83268e-05 -4.47302e-05
-0.000189231 5.67117e-05 5.67941e-05 -3.97585e-05
-0.000183792 5.5084e-05 5.51606e-05 -3.97585e-05
-6.0632e-05 1.81202e-05 1.82193e-05 -4.77141e-05
-6.24491e-05 1.86604e-05 1.87666e-05 -4.77142e-05
-0.000186512 5.58978e-05 5.59773e-05 -3.97585e-05
-0.000122213 3.66008e-05 3.66911e-05 -4.47302e-05
-6.15405e-05 1.83903e-05 1.84929e-05 -4.77142e-05
-0.000125842 3.76847e-05 3.77816e-05 -4.47302e-05
-0.000124028 3.71427e-05 3.72363e-05 -4.47302e-05
-0.000183792 5.5084e-05 5.51606e-05 -3.97585e-05
-0.000178353 5.34562e-05 5.35272e-05 -3.97585e-05
-5.88151e-05 1.758e-05 1.76722e-05 -4.7714e-05
-6.0632e-05 1.81202e-05 1.82193e-05 -4.77141e-05
-0.000181072 5.42701e-05 5.43439e-05 -3.97585e-05
-0.000118585 3.55169e-05 3.56008e-05 -4.47301e-05
-5.97235e-05 1.78501e-05 1.79457e-05 -4.77141e-05
-0.000122213 3.66008e-05 3.66911e-05 -4.47302e-05
-0.000120399 3.60588e-05 3.61459e-05 -4.47301e-05
-0.000178353 5.34562e-05 5.35272e-05 -3.97585e-05
-0.000172914 5.18283e-05 5.18938e-05 -3.97586e-05
-5.69983e-05 1.70396e-05 1.71252e-05 -4.7714e-05
-5.88151e-05 1.758e-05 1.76722e-05 -4.7714e-05
-0.000175633 5.26423e-05 5.27105e-05 -3.97585e-05
-0.000114957 3.44328e-05 3.45105e-05 -4.47301e-05
-5.79067e-05 1.73098e-05 1.73987e-05 -4.7714e-05
-0.000118585 3.55169e-05 3.56008e-05 -4.47301e-05
-0.000116771 3.49749e-05 3.50556e-05 -4.47301e-05
-0.000172914 5.18283e-05 5.18938e-05 -3.97586e-05
-0.000167475 5.02004e-05 5.02606e-05 -3.97586e-05
-5.51817e-05 1.64992e-05 1.65782e-05 -4.77139e-05
-5.69983e-05 1.70396e-05 1.71252e-05 -4.7714e-05
-0.000170195 5.10144e-05 5.10772e-05 -3.97586e-05
-0.00011133 3.33487e-05 3.34204e-05 -4.47301e-05
-5.609e-05 1.67694e-05 1.68517e-05 -4.77139e-05
-0.000114957 3.44328e-05 3.45105e-05 -4.47301e-05
-0.000113143 3.38908e-05 3.39654e-05 -4.47301e-05
-0.000167475 5.02004e-05 5.02606e-05 -3.97586e-05
-0.000162037 4.85724e-05 4.86275e-05 -3.97586e-05
-5.33653e-05 1.59586e-05 1.60314e-05 -4.77138e-05
-5.51817e-05 1.64992e-05 1.65782e-05 -4.77139e-05
-0.000164756 4.93864e-05 4.9444e-05 -3.97586e-05
-0.000107702 3.22645e-05 3.23304e-05 -4.47301e-05
-5.42735e-05 1.62289e-05 1.63048e-05 -4.77138e-05
-0.00011133 3.33487e-05 3.34204e-05 -4.47301e-05
-0.000109516 3.28066e-05 3.28754e-05 -4.47301e-05
-0.000162037 4.85724e-05 4.86275e-05 -3.97586e-05
-0.000156598 4.69443e-05 4.69944e-05 -3.97586e-05
-5.1549e-05 1.5418e-05 1.54848e-05 -4.77137e-05
-5.33653e-05 1.59586e-05 1.60314e-05 -4.77138e-05
-0.000159317 4.77584e-05 4.78109e-05 -3.97586e-05
-0.000104075 3.11802e-05 3.12405e-05 -4.473e-05
-5.24571e-05 1.56883e-05 1.57581e-05 -4.77138e-05
-0.000107702 3.22645e-05 3.23304e-05 -4.47301e-05
-0.000105888 3.17224e-05 3.17854e-05 -4.47301e-05
-0.000156598 4.69443e-05 4.69944e-05 -3.97586e-05
-0.00015116 4.53162e-05 4.53615e-05 -3.97587e-05
-4.97329e-05 1.48772e-05 1.49382e-05 -4.77137e-05
-5.1549e-05 1.5418e-05 1.54848e-05 -4.77137e-05
-0.000153879 4.61303e-05 4.6178e-05 -3.97586e-05
-0.000100447 3.00958e-05 3.01506e-05 -4.473e-05
-5.0641e-05 1.51476e-05 1.52114e-05 -4.77137e-05
-0.000104075 3.11802e-05 3.12405e-05 -4.473e-05
-0.000102261 3.0638e-05 3.06955e-05 -4.473e-05
-0.00015116 4.53162e-05 4.53615e-05 -3.97587e-05
-0.000145722 4.3688e-05 4.37287e-05 -3.97587e-05
-4.7917e-05 1.43363e-05 1.43917e-05 -4.77136e-05
-4.97329e-05 1.48772e-05 1.49382e-05 -4.77137e-05
-0.000148441 4.45021e-05 4.45451e-05 -3.97587e-05
-9.68202e-05 2.90113e-05 2.90609e-05 -4.473e-05
-4.88249e-05 1.46068e-05 1.46649e-05 -4.77136e-05
-0.000100447 3.00958e-05 3.01506e-05 -4.473e-05
-9.86337e-05 2.95536e-05 2.96058e-05 -4.473e-05
-0.000145722 4.3688e-05 4.37287e-05 -3.97587e-05
-0.000140284 4.20596e-05 4.2096e-05 -3.97587e-05
-4.61012e-05 1.37954e-05 1.38454e-05 -4.77135e-05
-4.7917e-05 1.43363e-05 1.43917e-05 -4.77136e-05
-0.000143003 4.28738e-05 4.29123e-05 -3.97587e-05
-9.31932e-05 2.79267e-05 2.79714e-05 -4.473e-05
-4.70091e-05 1.40659e-05 1.41185e-05 -4.77136e-05
-9.68202e-05 2.90113e-05 2.90609e-05 -4.473e-05
-9.50067e-05 2.8469e-05 2.85161e-05 -4.473e-05
-0.000140284 4.20596e-05 4.2096e-05 -3.97587e-05
-0.000134846 4.04313e-05 4.04633e-05 -3.97587e-05
-4.42856e-05 1.32543e-05 1.32991e-05 -4.77134e-05
-4.61012e-05 1.37954e-05 1.38454e-05 -4.77135e-05
-0.000137565 4.12455e-05 4.12796e-05 -3.97587e-05
-8.95664e-05 2.68421e-05 2.68819e-05 -4.47299e-05
-4.51934e-05 1.35248e-05 1.35722e-05 -4.77135e-05
-9.31932e-05 2.79267e-05 2.79714e-05 -4.473e-05
-9.13798e-05 2.73844e-05 2.74266e-05 -4.47299e-05
-0.000134846 4.04313e-05 4.04633e-05 -3.97587e-05
-0.000129408 3.88028e-05 3.88308e-05 -3.97587e-05
-4.24701e-05 1.27131e-05 1.2753e-05 -4.77133e-05
-4.42856e-05 1.32543e-05 1.32991e-05 -4.77134e-05
-0.000132127 3.9617e-05 3.96471e-05 -3.97587e-05
-8.59398e-05 2.57573e-05 2.57925e-05 -4.47299e-05
-4.33778e-05 1.29837e-05 1.3026e-05 -4.77134e-05
-8.95664e-05 2.68421e-05 2.68819e-05 -4.47299e-05
-8.77531e-05 2.62997e-05 2.63372e-05 -4.47299e-05
-0.000129408 3.88028e-05 3.88308e-05 -3.97587e-05
-0.00012397 3.71743e-05 3.71984e-05 -3.97586e-05
-4.06547e-05 1.21718e-05 1.2207e-05 -4.77132e-05
-4.24701e-05 1.27131e-05 1.2753e-05 -4.77133e-05
-0.000126689 3.79885e-05 3.80146e-05 -3.97587e-05
-8.23133e-05 2.46725e-05 2.47032e-05 -4.47298e-05
-4.15624e-05 1.24425e-05 1.248e-05 -4.77133e-05
-8.59398e-05 2.57573e-05 2.57925e-05 -4.47299e-05
-8.41265e-05 2.52149e-05 2.52478e-05 -4.47298e-05
-0.00012397 3.71743e-05 3.71984e-05 -3.97586e-05
-0.000118533 3.55457e-05 3.5566e-05 -3.97586e-05
-3.88396e-05 1.16305e-05 1.1661e-05 -4.77131e-05
-4.06547e-05 1.21718e-05 1.2207e-05 -4.77132e-05
-0.000121252 3.636e-05 3.63822e-05 -3.97586e-05
-7.86869e-05 2.35876e-05 2.3614e-05 -4.47297e-05
-3.97471e-05 1.19012e-05 1.1934e-05 -4.77132e-05
-8.23133e-05 2.46725e-05 2.47032e-05 -4.47298e-05
-8.05001e-05 2.413e-05 2.41586e-05 -4.47298e-05
-0.000118533 3.55457e-05 3.5566e-05 -3.97586e-05
-0.000113096 3.39171e-05 3.39338e-05 -3.97586e-05
-3.70245e-05 1.10891e-05 1.11152e-05 -4.7713e-05
-3.88396e-05 1.16305e-05 1.1661e-05 -4.77131e-05
-0.000115814 3.47314e-05 3.47499e-05 -3.97586e-05
-7.50608e-05 2.25026e-05 2.25249e-05 -4.47296e-05
-3.7932e-05 1.13598e-05 1.13881e-05 -4.7713e-05
-7.86869e-05 2.35876e-05 2.3614e-05 -4.47297e-05
-7.68738e-05 2.30451e-05 2.30695e-05 -4.47297e-05
-0.000113096 3.39171e-05 3.39338e-05 -3.97586e-05
-0.000107659 3.22885e-05 3.23016e-05 -3.97586e-05
-3.52097e-05 1.05477e-05 1.05694e-05 -4.77128e-05
-3.70245e-05 1.10891e-05 1.11152e-05 -4.7713e-05
-0.000110377 3.31028e-05 3.31177e-05 -3.97586e-05
-7.14349e-05 2.14177e-05 2.14359e-05 -4.47295e-05
-3.61171e-05 1.08184e-05 1.08423e-05 -4.77129e-05
-7.50608e-05 2.25026e-05 2.25249e-05 -4.47296e-05
-7.32478e-05 2.19602e-05 2.19804e-05 -4.47296e-05
-0.000107659 3.22885e-05 3.23016e-05 -3.97586e-05
-0.000102222 3.066e-05 3.06695e-05 -3.97586e-05
-3.33952e-05 1.00064e-05 1.00238e-05 -4.77125e-05
-3.52097e-05 1.05477e-05 1.05694e-05 -4.77128e-05
-0.000104941 3.14743e-05 3.14856e-05 -3.97586e-05
-6.78092e-05 2.03329e-05 2.0347e-05 -4.47294e-05
-3.43024e-05 1.0277e-05 1.02966e-05 -4.77127e-05
-7.14349e-05 2.14177e-05 2.14359e-05 -4.47295e-05
-6.9622e-05 2.08753e-05 2.08915e-05 -4.47295e-05
-0.000102222 3.066e-05 3.06695e-05 -3.97586e-05
-9.67858e-05 2.90316e-05 2.90375e-05 -3.97588e-05
-3.15809e-05 9.46524e-06 9.47814e-06 -4.77123e-05
-3.33952e-05 1.00064e-05 1.00238e-05 -4.77125e-05
-9.9504e-05 2.98458e-05 2.98535e-05 -3.97587e-05
-6.41839e-05 1.92481e-05 1.92582e-05 -4.47294e-05
-3.2488e-05 9.73579e-06 9.75094e-06 -4.77124e-05
-6.78092e-05 2.03329e-05 2.0347e-05 -4.47294e-05
-6.59965e-05 1.97905e-05 1.98026e-05 -4.47294e-05
-9.67858e-05 2.90316e-05 2.90375e-05 -3.97588e-05
-9.13497e-05 2.74032e-05 2.74056e-05 -3.97591e-05
-2.9767e-05 8.92431e-06 8.9326e-06 -4.77123e-05
-3.15809e-05 9.46524e-06 9.47814e-06 -4.77123e-05
-9.40677e-05 2.82174e-05 2.82216e-05 -3.97589e-05
-6.05589e-05 1.81635e-05 1.81694e-05 -4.47295e-05
-3.06739e-05 9.19474e-06 9.20536e-06 -4.77123e-05
-6.41839e-05 1.92481e-05 1.92582e-05 -4.47294e-05
-6.23713e-05 1.87058e-05 1.87138e-05 -4.47294e-05
-9.13497e-05 2.74032e-05 2.74056e-05 -3.97591e-05
-8.59138e-05 2.57746e-05 2.57739e-05 -3.97597e-05
-2.79536e-05 8.38361e-06 8.38712e-06 -4.77127e-05
-2.9767e-05 8.92431e-06 8.9326e-06 -4.77123e-05
-8.86317e-05 2.6589e-05 2.65897e-05 -3.97594e-05
-5.69341e-05 1.70788e-05 1.70809e-05 -4.47301e-05
-2.88603e-05 8.65394e-06 8.65986e-06 -4.77124e-05
-6.05589e-05 1.81635e-05 1.81694e-05 -4.47295e-05
-5.87465e-05 1.76212e-05 1.76251e-05 -4.47297e-05
-8.59138e-05 2.57746e-05 2.57739e-05 -3.97597e-05
-8.04775e-05 2.41451e-05 2.41424e-05 -3.97606e-05
-2.61404e-05 7.84293e-06 7.84178e-06 -4.77145e-05
-2.79536e-05 8.38361e-06 8.38712e-06 -4.77127e-05
-8.31958e-05 2.49601e-05 2.49582e-05 -3.97601e-05
-5.33092e-05 1.59934e-05 1.59925e-05 -4.47316e-05
-2.70469e-05 8.1133e-06 8.11441e-06 -4.77133e-05
-5.69341e-05 1.70788e-05 1.70809e-05 -4.47301e-05
-5.51217e-05 1.65362e-05 1.65366e-05 -4.47307e-05
-8.04775e-05 2.41451e-05 2.41424e-05 -3.97606e-05
-7.50398e-05 2.25129e-05 2.25115e-05 -3.9762e-05
-2.43267e-05 7.30158e-06 7.29649e-06 -4.77194e-05
-2.61404e-05 7.84293e-06 7.84178e-06 -4.77145e-05
-7.77589e-05 2.33295e-05 2.33269e-05 -3.97613e-05
-4.96828e-05 1.49056e-05 1.49045e-05 -4.4735e-05
-2.52338e-05 7.57243e-06 7.56915e-06 -4.77164e-05
-5.33092e-05 1.59934e-05 1.59925e-05 -4.47316e-05
-5.14963e-05 1.54499e-05 1.54484e-05 -4.4733e-05
-7.50398e-05 2.25129e-05 2.25115e-05 -3.9762e-05
-6.95968e-05 2.08744e-05 2.08811e-05 -3.97637e-05
-2.25115e-05 6.75773e-06 6.75163e-06 -4.77312e-05
-2.43267e-05 7.30158e-06 7.29649e-06 -4.77194e-05
-7.23194e-05 2.16948e-05 2.16962e-05 -3.97628e-05
-4.60519e-05 1.38121e-05 1.38171e-05 -4.47425e-05
-2.34193e-05 7.03011e-06 7.02394e-06 -4.77241e-05
-4.96828e-05 1.49056e-05 1.49045e-05 -4.4735e-05
-4.78681e-05 1.43599e-05 1.43607e-05 -4.4738e-05
-6.95968e-05 2.08744e-05 2.08811e-05 -3.97637e-05
-6.41432e-05 1.92218e-05 1.9252e-05 -3.97655e-05
-2.06899e-05 6.20794e-06 6.20658e-06 -4.77572e-05
-2.25115e-05 6.75773e-06 6.75163e-06 -4.77312e-05
-6.68716e-05 2.00505e-05 2.00662e-05 -3.97647e-05
-4.24101e-05 1.27061e-05 1.27303e-05 -4.47582e-05
-2.16022e-05 6.48399e-06 6.47923e-06 -4.77417e-05
-4.60519e-05 1.38121e-05 1.38171e-05 -4.47425e-05
-4.42329e-05 1.32613e-05 1.32735e-05 -4.47492e-05
-6.41432e-05 1.92218e-05 1.9252e-05 -3.97655e-05
-5.86626e-05 1.75419e-05 1.76232e-05 -3.97676e-05
-1.88574e-05 5.6449e-06 5.66251e-06 -4.78107e-05
-2.06899e-05 6.20794e-06 6.20658e-06 -4.77572e-05
-6.1408e-05 1.83867e-05 1.84377e-05 -3.97664e-05
-3.87446e-05 1.15748e-05 1.16442e-05 -4.47894e-05
-1.9775e-05 5.92855e-06 5.93419e-06 -4.77794e-05
-4.24101e-05 1.27061e-05 1.27303e-05 -4.47582e-05
-4.05814e-05 1.21446e-05 1.21872e-05 -4.47709e-05
-5.86626e-05 1.75419e-05 1.76232e-05 -3.97676e-05
-5.31352e-05 1.58102e-05 1.59964e-05 -3.97681e-05
-1.69953e-05 5.05779e-06 5.11606e-06 -4.79157e-05
-1.88574e-05 5.6449e-06 5.66251e-06 -4.78107e-05
-5.59055e-05 1.66843e-05 1.68091e-05 -3.97684e-05
-3.50323e-05 1.03982e-05 1.05575e-05 -4.485e-05
-1.79325e-05 5.35568e-06 5.39006e-06 -4.78546e-05
-3.87446e-05 1.15748e-05 1.16442e-05 -4.47894e-05
-3.68962e-05 1.09943e-05 1.11008e-05 -4.48156e-05
-5.31352e-05 1.58102e-05 1.59964e-05 -3.97681e-05
-4.75055e-05 1.3991e-05 1.43633e-05 -3.97717e-05
-1.5091e-05 4.42609e-06 4.57067e-06 -4.811e-05
-1.69953e-05 5.05779e-06 5.11606e-06 -4.79157e-05
-5.03393e-05 1.49153e-05 1.51817e-05 -3.97687e-05
-3.1232e-05 9.1415e-06 9.46736e-06 -4.49631e-05
-1.60475e-05 4.74824e-06 4.84255e-06 -4.79988e-05
-3.50323e-05 1.03982e-05 1.05575e-05 -4.485e-05
-3.31464e-05 9.78171e-06 1.00134e-05 -4.48966e-05
-4.75055e-05 1.3991e-05 1.43633e-05 -3.97717e-05
-4.17207e-05 1.20265e-05 1.27261e-05 -3.97761e-05
-1.309e-05 3.7311e-06 4.01095e-06 -4.84542e-05
-1.5091e-05 4.42609e-06 4.57067e-06 -4.811e-05
-4.46329e-05 1.30292e-05 1.35444e-05 -3.97747e-05
-2.72826e-05 7.76696e-06 8.36385e-06 -4.51665e-05
-1.41103e-05 4.08952e-06 4.2946e-06 -4.82583e-05
-3.1232e-05 9.1415e-06 9.46736e-06 -4.49631e-05
-2.92803e-05 8.47321e-06 8.91734e-06 -4.50534e-05
-4.17207e-05 1.20265e-05 1.27261e-05 -3.97761e-05
-3.56325e-05 9.86741e-06 1.10422e-05 -3.98151e-05
-1.0984e-05 2.94122e-06 3.44689e-06 -4.9018e-05
-1.309e-05 3.7311e-06 4.01095e-06 -4.84542e-05
-3.87326e-05 1.09779e-05 1.18949e-05 -3.97865e-05
-2.30923e-05 6.22429e-06 7.22914e-06 -4.55171e-05
-1.20435e-05 3.34549e-06 3.7277e-06 -4.87043e-05
-2.72826e-05 7.76696e-06 8.36385e-06 -4.51665e-05
-2.52246e-05 7.01506e-06 7.80411e-06 -4.53129e-05
-3.56325e-05 9.86741e-06 1.10422e-05 -3.98151e-05
-2.91778e-05 7.4602e-06 9.30754e-06 -3.99088e-05
-8.67e-06 2.09176e-06 2.81924e-06 -4.98775e-05
-1.0984e-05 2.94122e-06 3.44689e-06 -4.9018e-05
-3.24408e-05 8.68561e-06 1.01808e-05 -3.98554e-05
-1.85862e-05 4.54654e-06 6.01701e-06 -4.60868e-05
-9.87249e-06 2.52616e-06 3.14843e-06 -4.94055e-05
-2.30923e-05 6.22429e-06 7.22914e-06 -4.55171e-05
-2.0881e-05 5.4024e-06 6.63368e-06 -4.5781e-05
-2.91778e-05 7.4602e-06 9.30754e-06 -3.99088e-05
-2.21232e-05 4.97132e-06 7.35079e-06 -4.02372e-05
-6.28664e-06 1.24754e-06 2.15961e-06 -5.09891e-05
-8.67e-06 2.09176e-06 2.81924e-06 -4.98775e-05
-2.57648e-05 6.22129e-06 8.3758e-06 -4.00218e-05
-1.37238e-05 2.86281e-06 4.65471e-06 -4.69409e-05
-7.45016e-06 1.64203e-06 2.4892e-06 -5.04123e-05
-1.85862e-05 4.54654e-06 6.01701e-06 -4.60868e-05
-1.62024e-05 3.6702e-06 5.37092e-06 -4.64523e-05
-2.21232e-05 4.97132e-06 7.35079e-06 -4.02372e-05
-1.48192e-05 2.80816e-06 5.1476e-06 -4.09187e-05
-3.83922e-06 8.58771e-07 1.27734e-06 -5.20769e-05
-6.28664e-06 1.24754e-06 2.15961e-06 -5.09891e-05
-1.84192e-05 3.7543e-06 6.28495e-06 -4.05294e-05
-8.8401e-06 1.84489e-06 2.99795e-06 -4.80217e-05
-5.10711e-06 9.81219e-07 1.76824e-06 -5.15651e-05
-1.37238e-05 2.86281e-06 4.65471e-06 -4.69409e-05
-1.12399e-05 2.22734e-06 3.86253e-06 -4.75055e-05
-1.48192e-05 2.80816e-06 5.1476e-06 -4.09187e-05
-7.74167e-06 2.74855e-06 2.13991e-06 -4.23711e-05
-2.11633e-06 1.43521e-06 2.91913e-07 -5.2108e-05
-3.83922e-06 8.58771e-07 1.27734e-06 -5.20769e-05
-1.12759e-05 2.40364e-06 3.8024e-06 -4.15106e-05
-4.68497e-06 2.58738e-06 8.98965e-07 -4.87966e-05
-2.75247e-06 9.29618e-07 7.81222e-07 -5.23293e-05
-8.8401e-06 1.84489e-06 2.99795e-06 -4.80217e-05
-6.62242e-06 1.84683e-06 2.04668e-06 -4.84343e-05
-7.74167e-06 2.74855e-06 2.13991e-06 -4.23711e-05
-4.01105e-06 7.94376e-06 -1.68545e-06 -4.34197e-05
-1.16706e-06 4.02906e-06 -1.22657e-06 -4.91789e-05
-2.11633e-06 1.43521e-06 2.91913e-07 -5.2108e-05
-5.04417e-06 4.22109e-06 3.52752e-07 -4.31115e-05
-3.19429e-06 7.19806e-06 -1.7159e-06 -4.72027e-05
-1.67361e-06 2.55507e-06 -3.77769e-07 -5.11673e-05
-4.68497e-06 2.58738e-06 8.98965e-07 -4.87966e-05
-3.41363e-06 4.38574e-06 -4.16619e-07 -4.86465e-05
-4.01105e-06 7.94376e-06 -1.68545e-06 -4.34197e-05
-5.89081e-06 2.42487e-05 -7.86765e-06 -3.98067e-05
-1.92195e-06 7.39087e-06 -2.34382e-06 -4.01481e-05
-1.16706e-06 4.02906e-06 -1.22657e-06 -4.91789e-05
-4.38054e-06 1.48345e-05 -4.48028e-06 -4.27447e-05
-4.22387e-06 1.55907e-05 -4.87149e-06 -3.92151e-05
-1.08657e-06 5.59108e-06 -1.93051e-06 -4.56357e-05
-3.19429e-06 7.19806e-06 -1.7159e-06 -4.72027e-05
-3.60502e-06 1.09228e-05 -3.13619e-06 -4.40666e-05
-5.89081e-06 2.42487e-05 -7.86765e-06 -3.98067e-05
-1.14605e-05 4.38685e-05 -1.38891e-05 -2.10311e-05
-4.11003e-06 1.22598e-05 -3.49277e-06 -2.30058e-05
-1.92195e-06 7.39087e-06 -2.34382e-06 -4.01481e-05
-8.32363e-06 3.48212e-05 -1.13561e-05 -3.28766e-05
-6.7495e-06 2.66292e-05 -8.51988e-06 -2.32017e-05
-3.11564e-06 9.6248e-06 -2.78964e-06 -3.26498e-05
-4.22387e-06 1.55907e-05 -4.87149e-06 -3.92151e-05
-5.21675e-06 2.10927e-05 -6.80398e-06 -3.24284e-05
-0.000317711 0 0.000136162 0.000180509
-0.000322998 4.31891e-05 0.000119918 5.98269e-05
0.000317598 -4.44123e-05 -0.00011708 5.94827e-05
0.000311698 0 -0.000133585 0.000179712
-0.000310112 1.82534e-05 0.000125082 0.00011383
-2.75166e-06 -6.47288e-07 1.45669e-06 6.76297e-05
0.000304439 -1.89269e-05 -0.000122362 0.000113352
-3.1074e-06 0 1.33174e-06 0.000183849
-2.89006e-06 -3.98619e-07 1.40943e-06 0.000127186
-0.000322998 4.31891e-05 0.000119918 5.98269e-05
-0.000347853 7.11133e-05 0.000118603 -1.23718e-05
0.000342907 -7.31591e-05 -0.000115606 -1.26017e-05
0.000317598 -4.44123e-05 -0.00011708 5.94827e-05
-0.000340775 5.99169e-05 0.000120368 1.73749e-05
-2.52048e-06 -1.05152e-06 1.53085e-06 -8.69954e-06
0.000335611 -6.15888e-05 -0.000117438 1.70933e-05
-2.75166e-06 -6.47288e-07 1.45669e-06 6.76297e-05
-2.64026e-06 -8.59148e-07 1.49975e-06 2.06346e-05
-0.000347853 7.11133e-05 0.000118603 -1.23718e-05
-0.000355116 9.18702e-05 0.000112819 -4.50847e-05
0.000350551 -9.4524e-05 -0.000109726 -4.52594e-05
0.000342907 -7.31591e-05 -0.000115606 -1.26017e-05
-0.000350535 8.21826e-05 0.000115008 -3.20925e-05
-2.32089e-06 -1.37591e-06 1.58434e-06 -4.40743e-05
0.000345785 -8.45504e-05 -0.000111958 -3.22917e-05
-2.52048e-06 -1.05152e-06 1.53085e-06 -8.69954e-06
-2.4112e-06 -1.22405e-06 1.55796e-06 -2.88036e-05
-0.000355116 9.18702e-05 0.000112819 -4.50847e-05
-0.000358879 0.000101591 0.000110266 -5.67579e-05
0.000354648 -0.000104744 -0.000107102 -5.6883e-05
0.000350551 -9.4524e-05 -0.000109726 -4.52594e-05
-0.000358822 9.80272e-05 0.000111769 -5.29043e-05
-2.15988e-06 -1.61775e-06 1.61898e-06 -5.7741e-05
0.00035443 -0.000100943 -0.000108637 -5.30521e-05
-2.32089e-06 -1.37591e-06 1.58434e-06 -4.40743e-05
-2.24017e-06 -1.50553e-06 1.6053e-06 -5.34645e-05
-0.000358879 0.000101591 0.000110266 -5.67579e-05
-0.000356431 0.000105282 0.000107635 -5.80098e-05
0.000352467 -0.000108816 -0.000104422 -5.80898e-05
0.000354648 -0.000104744 -0.000107102 -5.6883e-05
-0.000357384 0.000103959 0.00010861 -5.8031e-05
-2.02499e-06 -1.8068e-06 1.64219e-06 -6.00727e-05
0.000353297 -0.000107318 -0.000105419 -5.81359e-05
-2.15988e-06 -1.61775e-06 1.61898e-06 -5.7741e-05
-2.08677e-06 -1.71884e-06 1.63098e-06 -5.94809e-05
-0.000356431 0.000105282 0.000107635 -5.80098e-05
-0.000353409 0.000105134 0.000106403 -5.59613e-05
0.000349635 -0.000108931 -0.000103159 -5.59945e-05
0.000352467 -0.000108816 -0.000104422 -5.80898e-05
-0.000355334 0.000105522 0.000107062 -5.71975e-05
-1.92817e-06 -1.93519e-06 1.65573e-06 -5.80502e-05
0.000351475 -0.000109202 -0.000103831 -5.72515e-05
-2.02499e-06 -1.8068e-06 1.64219e-06 -6.00727e-05
-1.9728e-06 -1.87826e-06 1.65045e-06 -5.94576e-05
-0.000353409 0.000105134 0.000106403 -5.59613e-05
-0.000349583 0.000103975 0.000105261 -5.33053e-05
0.000345933 -0.000107927 -0.000102002 -5.33078e-05
0.000349635 -0.000108931 -0.000103159 -5.59945e-05
-0.000351282 0.000104596 0.000105723 -5.45782e-05
-1.86325e-06 -2.01523e-06 1.66221e-06 -5.5187e-05
0.000347578 -0.000108482 -0.00010247 -5.45951e-05
-1.92817e-06 -1.93519e-06 1.65573e-06 -5.80502e-05
-1.89167e-06 -1.98071e-06 1.65959e-06 -5.65231e-05
-0.000349583 0.000103975 0.000105261 -5.33053e-05
-0.000346477 0.000102537 0.000104546 -5.11955e-05
0.000342903 -0.000106563 -0.000101288 -5.11792e-05
0.000345933 -0.000107927 -0.000102002 -5.33078e-05
-0.000348063 0.000103261 0.000104915 -5.21724e-05
-1.82371e-06 -2.05323e-06 1.66155e-06 -5.27676e-05
0.000344456 -0.000107258 -0.000101656 -5.21632e-05
-1.86325e-06 -2.01523e-06 1.66221e-06 -5.5187e-05
-1.84118e-06 -2.03874e-06 1.66282e-06 -5.39238e-05
-0.000346477 0.000102537 0.000104546 -5.11955e-05
-0.000343645 0.000101311 0.000103858 -4.97334e-05
0.000340118 -0.000105354 -0.000100613 -4.9711e-05
0.000342903 -0.000106563 -0.000101288 -5.11792e-05
-0.00034496 0.00010189 0.000104173 -5.03789e-05
-1.79926e-06 -2.06313e-06 1.65531e-06 -5.10845e-05
0.000341411 -0.00010593 -0.000100921 -5.03586e-05
-1.82371e-06 -2.05323e-06 1.66155e-06 -5.27676e-05
-1.81004e-06 -2.061e-06 1.65902e-06 -5.18164e-05
-0.000343645 0.000101311 0.000103858 -4.97334e-05
-0.000341274 0.000100296 0.000103277 -4.88338e-05
0.000337779 -0.00010432 -0.000100054 -4.88122e-05
0.000340118 -0.000105354 -0.000100613 -4.9711e-05
-0.000342447 0.000100779 0.000103572 -4.92273e-05
-1.78271e-06 -2.05405e-06 1.64433e-06 -5.00245e-05
0.000338936 -0.000104816 -0.000100337 -4.92044e-05
-1.79926e-06 -2.06313e-06 1.65531e-06 -5.10845e-05
-1.79045e-06 -2.06042e-06 1.65037e-06 -5.0496e-05
-0.000341274 0.000100296 0.000103277 -4.88338e-05
-0.000339102 9.94776e-05 0.000102696 -4.83089e-05
0.000335635 -0.000103463 -9.95024e-05 -4.82927e-05
0.000337779 -0.00010432 -0.000100054 -4.88122e-05
-0.000340152 9.98655e-05 0.00010298 -4.85326e-05
-1.76865e-06 -2.03453e-06 1.62994e-06 -4.94089e-05
0.000336671 -0.000103872 -9.97712e-05 -4.85134e-05
-1.78271e-06 -2.05405e-06 1.64433e-06 -5.00245e-05
-1.7756e-06 -2.04521e-06 1.63749e-06 -4.96682e-05
-0.000339102 9.94776e-05 0.000102696 -4.83089e-05
-0.000337104 9.87852e-05 0.000102137 -4.80234e-05
0.000333668 -0.000102722 -9.89769e-05 -4.80139e-05
0.000335635 -0.000103463 -9.95024e-05 -4.82927e-05
-0.000338095 9.91193e-05 0.000102418 -4.81443e-05
-1.75407e-06 -2.00969e-06 1.61304e-06 -4.90702e-05
0.000334643 -0.000103081 -9.9241e-05 -4.81313e-05
-1.76865e-06 -2.03453e-06 1.62994e-06 -4.94089e-05
-1.76157e-06 -2.02253e-06 1.62176e-06 -4.92152e-05
-0.000337104 9.87852e-05 0.000102137 -4.80234e-05
-0.00033518 9.8174e-05 0.000101574 -4.78742e-05
0.000331777 -0.000102059 -9.84507e-05 -4.78716e-05
0.000333668 -0.000102722 -9.89769e-05 -4.80139e-05
-0.000336131 9.84719e-05 0.000101854 -4.7936e-05
-1.73743e-06 -1.98311e-06 1.59452e-06 -4.88954e-05
0.000332711 -0.000102383 -9.87123e-05 -4.79301e-05
-1.75407e-06 -2.00969e-06 1.61304e-06 -4.90702e-05
-1.74606e-06 -1.99647e-06 1.60394e-06 -4.89669e-05
-0.00033518 9.8174e-05 0.000101574 -4.78742e-05
-0.000333306 9.76073e-05 0.000101014 -4.78009e-05
0.000329942 -0.000101441 -9.79293e-05 -4.78044e-05
0.000331777 -0.000102059 -9.84507e-05 -4.78716e-05
-0.00033424 9.78867e-05 0.000101294 -4.7831e-05
-1.7182e-06 -1.95667e-06 1.57495e-06 -4.88095e-05
0.000330857 -0.000101746 -9.81905e-05 -4.78316e-05
-1.73743e-06 -1.98311e-06 1.59452e-06 -4.88954e-05
-1.72815e-06 -1.9698e-06 1.58483e-06 -4.8845e-05
-0.000333306 9.76073e-05 0.000101014 -4.78009e-05
-0.000331451 9.70645e-05 0.000100451 -4.77665e-05
0.000328131 -0.000100849 -9.74066e-05 -4.7775e-05
0.000329942 -0.000101441 -9.79293e-05 -4.78044e-05
-0.000332376 9.73338e-05 0.000100732 -4.77803e-05
-1.69647e-06 -1.93138e-06 1.5548e-06 -4.87705e-05
0.000329034 -0.000101142 -9.76677e-05 -4.77864e-05
-1.7182e-06 -1.95667e-06 1.57495e-06 -4.88095e-05
-1.70764e-06 -1.94385e-06 1.56492e-06 -4.87858e-05
-0.000331451 9.70645e-05 0.000100451 -4.77665e-05
-0.000329606 9.6533e-05 9.98886e-05 -4.77516e-05
0.000326335 -0.000100271 -9.68844e-05 -4.77639e-05
0.000328131 -0.000100849 -9.74066e-05 -4.7775e-05
-0.000330528 9.67978e-05 0.00010017 -4.77575e-05
-1.67258e-06 -1.90758e-06 1.53436e-06 -4.87542e-05
0.000327232 -0.000100559 -9.71457e-05 -4.7768e-05
-1.69647e-06 -1.93138e-06 1.5548e-06 -4.87705e-05
-1.68477e-06 -1.91929e-06 1.5446e-06 -4.87606e-05
-0.000329606 9.6533e-05 9.98886e-05 -4.77516e-05
-0.000327765 9.60064e-05 9.93252e-05 -4.77456e-05
0.000324545 -9.97014e-05 -9.63614e-05 -4.77608e-05
0.000326335 -0.000100271 -9.68844e-05 -4.77639e-05
-0.000328685 9.62693e-05 9.96069e-05 -4.77479e-05
-1.64697e-06 -1.88529e-06 1.51383e-06 -4.87483e-05
0.000325439 -9.99856e-05 -9.66229e-05 -4.77617e-05
-1.67258e-06 -1.90758e-06 1.53436e-06 -4.87542e-05
-1.65996e-06 -1.89626e-06 1.52409e-06 -4.87504e-05
-0.000327765 9.60064e-05 9.93252e-05 -4.77456e-05
-0.000325925 9.54813e-05 9.87617e-05 -4.77436e-05
0.000322758 -9.91356e-05 -9.58383e-05 -4.77607e-05
0.000324545 -9.97014e-05 -9.63614e-05 -4.77608e-05
-0.000326845 9.57438e-05 9.90435e-05 -4.77443e-05
-1.62008e-06 -1.86435e-06 1.49333e-06 -4.87468e-05
0.000323651 -9.94181e-05 -9.60999e-05 -4.77605e-05
-1.64697e-06 -1.88529e-06 1.51383e-06 -4.87483e-05
-1.63366e-06 -1.87467e-06 1.50357e-06 -4.87473e-05
-0.000325925 9.54813e-05 9.87617e-05 -4.77436e-05
-0.000324085 9.49563e-05 9.81981e-05 -4.7743e-05
0.000320973 -9.85721e-05 -9.53147e-05 -4.77615e-05
0.000322758 -9.91356e-05 -9.58383e-05 -4.77607e-05
-0.000325005 9.52188e-05 9.84799e-05 -4.77432e-05
-1.59231e-06 -1.84454e-06 1.47293e-06 -4.87469e-05
0.000321866 -9.88537e-05 -9.55765e-05 -4.77611e-05
-1.62008e-06 -1.86435e-06 1.49333e-06 -4.87468e-05
-1.60629e-06 -1.85432e-06 1.48312e-06 -4.87468e-05
-0.000324085 9.49563e-05 9.81981e-05 -4.7743e-05
-0.000322245 9.44309e-05 9.76345e-05 -4.7743e-05
0.000319189 -9.80099e-05 -9.47909e-05 -4.77623e-05
0.000320973 -9.85721e-05 -9.53147e-05 -4.77615e-05
-0.000323165 9.46937e-05 9.79163e-05 -4.7743e-05
-1.56395e-06 -1.82562e-06 1.45267e-06 -4.87474e-05
0.000320081 -9.82909e-05 -9.50529e-05 -4.77619e-05
-1.59231e-06 -1.84454e-06 1.47293e-06 -4.87469e-05
-1.57818e-06 -1.83498e-06 1.46278e-06 -4.87471e-05
-0.000322245 9.44309e-05 9.76345e-05 -4.7743e-05
-0.000320404 9.39049e-05 9.70709e-05 -4.77431e-05
0.000317405 -9.74484e-05 -9.42669e-05 -4.77629e-05
0.000319189 -9.80099e-05 -9.47909e-05 -4.77623e-05
-0.000321324 9.4168e-05 9.73527e-05 -4.77431e-05
-1.53526e-06 -1.80739e-06 1.43256e-06 -4.87478e-05
0.000318297 -9.77291e-05 -9.45289e-05 -4.77627e-05
-1.56395e-06 -1.82562e-06 1.45267e-06 -4.87474e-05
-1.54963e-06 -1.81643e-06 1.4426e-06 -4.87476e-05
-0.000320404 9.39049e-05 9.70709e-05 -4.77431e-05
-0.000318563 9.33785e-05 9.65075e-05 -4.77432e-05
0.00031562 -9.68874e-05 -9.37427e-05 -4.77632e-05
0.000317405 -9.74484e-05 -9.42669e-05 -4.77629e-05
-0.000319483 9.36418e-05 9.67892e-05 -4.77432e-05
-1.5064e-06 -1.78967e-06 1.4126e-06 -4.8748e-05
0.000316512 -9.71679e-05 -9.40048e-05 -4.77631e-05
-1.53526e-06 -1.80739e-06 1.43256e-06 -4.87478e-05
-1.52084e-06 -1.79847e-06 1.42256e-06 -4.87479e-05
-0.000318563 9.33785e-05 9.65075e-05 -4.77432e-05
-0.000316721 9.28516e-05 9.59442e-05 -4.77432e-05
0.000313836 -9.63267e-05 -9.32184e-05 -4.77633e-05
0.00031562 -9.68874e-05 -9.37427e-05 -4.77632e-05
-0.000317642 9.31151e-05 9.62259e-05 -4.77432e-05
-1.4775e-06 -1.77235e-06 1.39279e-06 -4.87481e-05
0.000314728 -9.6607e-05 -9.34806e-05 -4.77633e-05
-1.5064e-06 -1.78967e-06 1.4126e-06 -4.8748e-05
-1.49195e-06 -1.78097e-06 1.40268e-06 -4.87481e-05
-0.000316721 9.28516e-05 9.59442e-05 -4.77432e-05
-0.00031488 9.23244e-05 9.53811e-05 -4.77432e-05
0.000312052 -9.57663e-05 -9.26938e-05 -4.77633e-05
0.000313836 -9.63267e-05 -9.32184e-05 -4.77633e-05
-0.000315801 9.2588e-05 9.56626e-05 -4.77432e-05
-1.44865e-06 -1.75532e-06 1.37313e-06 -4.87481e-05
0.000312944 -9.60465e-05 -9.29561e-05 -4.77633e-05
-1.4775e-06 -1.77235e-06 1.39279e-06 -4.87481e-05
-1.46307e-06 -1.7638e-06 1.38294e-06 -4.87481e-05
-0.00031488 9.23244e-05 9.53811e-05 -4.77432e-05
-0.000313039 9.1797e-05 9.48181e-05 -4.77431e-05
0.000310268 -9.5206e-05 -9.21692e-05 -4.77631e-05
0.000312052 -9.57663e-05 -9.26938e-05 -4.77633e-05
-0.00031396 9.20607e-05 9.50996e-05 -4.77432e-05
-1.4199e-06 -1.7385e-06 1.3536e-06 -4.8748e-05
0.00031116 -9.54861e-05 -9.24315e-05 -4.77632e-05
-1.44865e-06 -1.75532e-06 1.37313e-06 -4.87481e-05
-1.43426e-06 -1.74688e-06 1.36335e-06 -4.8748e-05
-0.000313039 9.1797e-05 9.48181e-05 -4.77431e-05
-0.000311198 9.12694e-05 9.42552e-05 -4.77431e-05
0.000308483 -9.46459e-05 -9.16444e-05 -4.77629e-05
0.000310268 -9.5206e-05 -9.21692e-05 -4.77631e-05
-0.000312119 9.15332e-05 9.45366e-05 -4.77431e-05
-1.39129e-06 -1.72185e-06 1.3342e-06 -4.87478e-05
0.000309375 -9.4926e-05 -9.19068e-05 -4.7763e-05
-1.4199e-06 -1.7385e-06 1.3536e-06 -4.8748e-05
-1.40558e-06 -1.73016e-06 1.34389e-06 -4.87479e-05
-0.000311198 9.12694e-05 9.42552e-05 -4.77431e-05
-0.000309357 9.07416e-05 9.36924e-05 -4.77429e-05
0.000306698 -9.40859e-05 -9.11195e-05 -4.77627e-05
0.000308483 -9.46459e-05 -9.16444e-05 -4.77629e-05
-0.000310278 9.10055e-05 9.39738e-05 -4.7743e-05
-1.36284e-06 -1.70534e-06 1.31493e-06 -4.87477e-05
0.000307591 -9.43659e-05 -9.1382e-05 -4.77628e-05
-1.39129e-06 -1.72185e-06 1.3342e-06 -4.87478e-05
-1.37704e-06 -1.71358e-06 1.32455e-06 -4.87478e-05
-0.000309357 9.07416e-05 9.36924e-05 -4.77429e-05
-0.000307517 9.02137e-05 9.31298e-05 -4.77428e-05
0.000304913 -9.3526e-05 -9.05945e-05 -4.77624e-05
0.000306698 -9.40859e-05 -9.11195e-05 -4.77627e-05
-0.000308437 9.04777e-05 9.34111e-05 -4.77429e-05
-1.33455e-06 -1.68894e-06 1.29578e-06 -4.87475e-05
0.000305806 -9.3806e-05 -9.0857e-05 -4.77626e-05
-1.36284e-06 -1.70534e-06 1.31493e-06 -4.87477e-05
-1.34867e-06 -1.69713e-06 1.30534e-06 -4.87476e-05
-0.000307517 9.02137e-05 9.31298e-05 -4.77428e-05
-0.000305676 8.96858e-05 9.25673e-05 -4.77427e-05
0.000303128 -9.29663e-05 -9.00694e-05 -4.77622e-05
0.000304913 -9.3526e-05 -9.05945e-05 -4.77624e-05
-0.000306596 8.99498e-05 9.28485e-05 -4.77428e-05
-1.30643e-06 -1.67265e-06 1.27675e-06 -4.87473e-05
0.000304021 -9.32461e-05 -9.0332e-05 -4.77623e-05
-1.33455e-06 -1.68894e-06 1.29578e-06 -4.87475e-05
-1.32047e-06 -1.68079e-06 1.28625e-06 -4.87474e-05
-0.000305676 8.96858e-05 9.25673e-05 -4.77427e-05
-0.000303836 8.91577e-05 9.20048e-05 -4.77426e-05
0.000301343 -9.24066e-05 -8.95442e-05 -4.77619e-05
0.000303128 -9.29663e-05 -9.00694e-05 -4.77622e-05
-0.000304756 8.94217e-05 9.2286e-05 -4.77426e-05
-1.27849e-06 -1.65646e-06 1.25783e-06 -4.87471e-05
0.000302236 -9.26864e-05 -8.98068e-05 -4.7762e-05
-1.30643e-06 -1.67265e-06 1.27675e-06 -4.87473e-05
-1.29244e-06 -1.66454e-06 1.26728e-06 -4.87472e-05
-0.000303836 8.91577e-05 9.20048e-05 -4.77426e-05
-0.000301996 8.86295e-05 9.14426e-05 -4.77424e-05
0.000299558 -9.1847e-05 -8.90188e-05 -4.77616e-05
0.000301343 -9.24066e-05 -8.95442e-05 -4.77619e-05
-0.000302916 8.88936e-05 9.17237e-05 -4.77425e-05
-1.25072e-06 -1.64035e-06 1.23903e-06 -4.87469e-05
0.00030045 -9.21268e-05 -8.92815e-05 -4.77618e-05
-1.27849e-06 -1.65646e-06 1.25783e-06 -4.87471e-05
-1.26459e-06 -1.64839e-06 1.24842e-06 -4.8747e-05
-0.000301996 8.86295e-05 9.14426e-05 -4.77424e-05
-0.000300156 8.81013e-05 9.08804e-05 -4.77423e-05
0.000297772 -9.12875e-05 -8.84934e-05 -4.77613e-05
0.000299558 -9.1847e-05 -8.90188e-05 -4.77616e-05
-0.000301075 8.83654e-05 9.11615e-05 -4.77424e-05
-1.22313e-06 -1.62434e-06 1.22035e-06 -4.87466e-05
0.000298665 -9.15672e-05 -8.87561e-05 -4.77615e-05
-1.25072e-06 -1.64035e-06 1.23903e-06 -4.87469e-05
-1.2369e-06 -1.63234e-06 1.22968e-06 -4.87468e-05
-0.000300156 8.81013e-05 9.08804e-05 -4.77423e-05
-0.000298316 8.7573e-05 9.03183e-05 -4.77421e-05
0.000295986 -9.07281e-05 -8.79678e-05 -4.77611e-05
0.000297772 -9.12875e-05 -8.84934e-05 -4.77613e-05
-0.000299236 8.78371e-05 9.05993e-05 -4.77422e-05
-1.1957e-06 -1.60842e-06 1.20177e-06 -4.87464e-05
0.000296879 -9.10078e-05 -8.82306e-05 -4.77612e-05
-1.22313e-06 -1.62434e-06 1.22035e-06 -4.87466e-05
-1.2094e-06 -1.61637e-06 1.21104e-06 -4.87465e-05
-0.000298316 8.7573e-05 9.03183e-05 -4.77421e-05
-0.000296476 8.70446e-05 8.97564e-05 -4.7742e-05
0.0002942 -9.01687e-05 -8.74421e-05 -4.77608e-05
0.000295986 -9.07281e-05 -8.79678e-05 -4.77611e-05
-0.000297396 8.73088e-05 9.00373e-05 -4.7742e-05
-1.16845e-06 -1.5926e-06 1.18331e-06 -4.87462e-05
0.000295093 -9.04484e-05 -8.7705e-05 -4.77609e-05
-1.1957e-06 -1.60842e-06 1.20177e-06 -4.87464e-05
-1.18206e-06 -1.6005e-06 1.19252e-06 -4.87463e-05
-0.000296476 8.70446e-05 8.97564e-05 -4.7742e-05
-0.000294637 8.65161e-05 8.91945e-05 -4.77418e-05
0.000292414 -8.96095e-05 -8.69164e-05 -4.77605e-05
0.0002942 -9.01687e-05 -8.74421e-05 -4.77608e-05
-0.000295556 8.67803e-05 8.94754e-05 -4.77419e-05
-1.14137e-06 -1.57686e-06 1.16495e-06 -4.8746e-05
0.000293307 -8.98891e-05 -8.71793e-05 -4.77606e-05
-1.16845e-06 -1.5926e-06 1.18331e-06 -4.87462e-05
-1.15489e-06 -1.58472e-06 1.17412e-06 -4.87461e-05
-0.000294637 8.65161e-05 8.91945e-05 -4.77418e-05
-0.000292797 8.59875e-05 8.86328e-05 -4.77416e-05
0.000290628 -8.90504e-05 -8.63905e-05 -4.77602e-05
0.000292414 -8.96095e-05 -8.69164e-05 -4.77605e-05
-0.000293717 8.62518e-05 8.89136e-05 -4.77417e-05
-1.11445e-06 -1.56122e-06 1.14671e-06 -4.87457e-05
0.000291521 -8.93299e-05 -8.66534e-05 -4.77603e-05
-1.14137e-06 -1.57686e-06 1.16495e-06 -4.8746e-05
-1.12789e-06 -1.56903e-06 1.15582e-06 -4.87458e-05
-0.000292797 8.59875e-05 8.86328e-05 -4.77416e-05
-0.000290958 8.54588e-05 8.80712e-05 -4.77414e-05
0.000288842 -8.84913e-05 -8.58645e-05 -4.77599e-05
0.000290628 -8.90504e-05 -8.63905e-05 -4.77602e-05
-0.000291878 8.57231e-05 8.8352e-05 -4.77415e-05
-1.0877e-06 -1.54567e-06 1.12859e-06 -4.87455e-05
0.000289735 -8.87709e-05 -8.61275e-05 -4.77601e-05
-1.11445e-06 -1.56122e-06 1.14671e-06 -4.87457e-05
-1.10106e-06 -1.55343e-06 1.13764e-06 -4.87456e-05
-0.000290958 8.54588e-05 8.80712e-05 -4.77414e-05
-0.000289119 8.493e-05 8.75097e-05 -4.77413e-05
0.000287055 -8.79324e-05 -8.53384e-05 -4.77596e-05
0.000288842 -8.84913e-05 -8.58645e-05 -4.77599e-05
-0.000290039 8.51944e-05 8.77904e-05 -4.77414e-05
-1.06112e-06 -1.53021e-06 1.11057e-06 -4.87452e-05
0.000287949 -8.82119e-05 -8.56014e-05 -4.77598e-05
-1.0877e-06 -1.54567e-06 1.12859e-06 -4.87455e-05
-1.07439e-06 -1.53793e-06 1.11956e-06 -4.87454e-05
-0.000289119 8.493e-05 8.75097e-05 -4.77413e-05
-0.000287281 8.44012e-05 8.69483e-05 -4.77411e-05
0.000285269 -8.73736e-05 -8.48122e-05 -4.77593e-05
0.000287055 -8.79324e-05 -8.53384e-05 -4.77596e-05
-0.0002882 8.46656e-05 8.7229e-05 -4.77412e-05
-1.0347e-06 -1.51485e-06 1.09267e-06 -4.8745e-05
0.000286162 -8.7653e-05 -8.50753e-05 -4.77595e-05
-1.06112e-06 -1.53021e-06 1.11057e-06 -4.87452e-05
-1.04789e-06 -1.52252e-06 1.1016e-06 -4.87451e-05
-0.000287281 8.44012e-05 8.69483e-05 -4.77411e-05
-0.000285442 8.38722e-05 8.6387e-05 -4.77409e-05
0.000283482 -8.68148e-05 -8.42859e-05 -4.7759e-05
0.000285269 -8.73736e-05 -8.48122e-05 -4.77593e-05
-0.000286361 8.41367e-05 8.66676e-05 -4.7741e-05
-1.00845e-06 -1.49959e-06 1.07487e-06 -4.87447e-05
0.000284375 -8.70942e-05 -8.4549e-05 -4.77592e-05
-1.0347e-06 -1.51485e-06 1.09267e-06 -4.8745e-05
-1.02156e-06 -1.50721e-06 1.08376e-06 -4.87449e-05
-0.000285442 8.38722e-05 8.6387e-05 -4.77409e-05
-0.000283603 8.33432e-05 8.58258e-05 -4.77407e-05
0.000281695 -8.62561e-05 -8.37594e-05 -4.77587e-05
0.000283482 -8.68148e-05 -8.42859e-05 -4.7759e-05
-0.000284523 8.36077e-05 8.61064e-05 -4.77408e-05
-9.82367e-07 -1.48442e-06 1.05719e-06 -4.87445e-05
0.000282588 -8.65355e-05 -8.40227e-05 -4.77588e-05
-1.00845e-06 -1.49959e-06 1.07487e-06 -4.87447e-05
-9.95388e-07 -1.49199e-06 1.06602e-06 -4.87446e-05
-0.000283603 8.33432e-05 8.58258e-05 -4.77407e-05
-0.000281765 8.28141e-05 8.52648e-05 -4.77405e-05
0.000279908 -8.56976e-05 -8.32329e-05 -4.77584e-05
0.000281695 -8.62561e-05 -8.37594e-05 -4.77587e-05
-0.000282684 8.30786e-05 8.55453e-05 -4.77406e-05
-9.56447e-07 -1.46934e-06 1.03962e-06 -4.87442e-05
0.000280801 -8.59768e-05 -8.34962e-05 -4.77585e-05
-9.82367e-07 -1.48442e-06 1.05719e-06 -4.87445e-05
-9.69386e-07 -1.47687e-06 1.04839e-06 -4.87444e-05
-0.000281765 8.28141e-05 8.52648e-05 -4.77405e-05
-0.000279927 8.22848e-05 8.47039e-05 -4.77403e-05
0.00027812 -8.51391e-05 -8.27063e-05 -4.77581e-05
0.000279908 -8.56976e-05 -8.32329e-05 -4.77584e-05
-0.000280846 8.25495e-05 8.49843e-05 -4.77404e-05
-9.30694e-07 -1.45436e-06 1.02217e-06 -4.8744e-05
0.000279014 -8.54183e-05 -8.29696e-05 -4.77582e-05
-9.56447e-07 -1.46934e-06 1.03962e-06 -4.87442e-05
-9.4355e-07 -1.46184e-06 1.03088e-06 -4.87441e-05
-0.000279927 8.22848e-05 8.47039e-05 -4.77403e-05
-0.000278089 8.17555e-05 8.4143e-05 -4.77401e-05
0.000276333 -8.45807e-05 -8.21795e-05 -4.77577e-05
0.00027812 -8.51391e-05 -8.27063e-05 -4.77581e-05
-0.000279008 8.20202e-05 8.44234e-05 -4.77402e-05
-9.05106e-07 -1.43948e-06 1.00482e-06 -4.87437e-05
0.000277227 -8.48599e-05 -8.24429e-05 -4.77579e-05
-9.30694e-07 -1.45436e-06 1.02217e-06 -4.8744e-05
-9.1788e-07 -1.44691e-06 1.01348e-06 -4.87438e-05
-0.000278089 8.17555e-05 8.4143e-05 -4.77401e-05
-0.000276252 8.12261e-05 8.35823e-05 -4.77399e-05
0.000274545 -8.40225e-05 -8.16527e-05 -4.77574e-05
0.000276333 -8.45807e-05 -8.21795e-05 -4.77577e-05
-0.00027717 8.14908e-05 8.38627e-05 -4.774e-05
-8.79684e-07 -1.42469e-06 9.8759e-07 -4.87434e-05
0.000275439 -8.43016e-05 -8.19161e-05 -4.77576e-05
-9.05106e-07 -1.43948e-06 1.00482e-06 -4.87437e-05
-8.92375e-07 -1.43207e-06 9.96192e-07 -4.87436e-05
-0.000276252 8.12261e-05 8.35823e-05 -4.77399e-05
-0.000274414 8.06966e-05 8.30217e-05 -4.77397e-05
0.000272758 -8.34643e-05 -8.11257e-05 -4.77571e-05
0.000274545 -8.40225e-05 -8.16527e-05 -4.77574e-05
-0.000275333 8.09614e-05 8.3302e-05 -4.77398e-05
-8.54428e-07 -1.41e-06 9.70469e-07 -4.87431e-05
0.000273652 -8.37434e-05 -8.13892e-05 -4.77573e-05
-8.79684e-07 -1.42469e-06 9.8759e-07 -4.87434e-05
-8.67035e-07 -1.41733e-06 9.79016e-07 -4.87433e-05
-0.000274414 8.06966e-05 8.30217e-05 -4.77397e-05
-0.000272577 8.01671e-05 8.24612e-05 -4.77395e-05
0.00027097 -8.29062e-05 -8.05987e-05 -4.77568e-05
0.000272758 -8.34643e-05 -8.11257e-05 -4.77571e-05
-0.000273495 8.04319e-05 8.27415e-05 -4.77396e-05
-8.29337e-07 -1.39541e-06 9.53461e-07 -4.87429e-05
0.000271864 -8.31853e-05 -8.08622e-05 -4.77569e-05
-8.54428e-07 -1.41e-06 9.70469e-07 -4.87431e-05
-8.41862e-07 -1.40269e-06 9.61951e-07 -4.8743e-05
-0.000272577 8.01671e-05 8.24612e-05 -4.77395e-05
-0.000270739 7.96374e-05 8.19009e-05 -4.77392e-05
0.000269182 -8.23482e-05 -8.00715e-05 -4.77564e-05
0.00027097 -8.29062e-05 -8.05987e-05 -4.77568e-05
-0.000271658 7.99022e-05 8.2181e-05 -4.77393e-05
-8.04412e-07 -1.38091e-06 9.36564e-07 -4.87426e-05
0.000270076 -8.26272e-05 -8.03351e-05 -4.77566e-05
-8.29337e-07 -1.39541e-06 9.53461e-07 -4.87429e-05
-8.16854e-07 -1.38814e-06 9.44999e-07 -4.87427e-05
-0.000270739 7.96374e-05 8.19009e-05 -4.77392e-05
-0.000268902 7.91076e-05 8.13406e-05 -4.7739e-05
0.000267394 -8.17904e-05 -7.95442e-05 -4.77561e-05
0.000269182 -8.23482e-05 -8.00715e-05 -4.77564e-05
-0.000269821 7.93725e-05 8.16207e-05 -4.77391e-05
-7.79652e-07 -1.3665e-06 9.1978e-07 -4.87423e-05
0.000268288 -8.20693e-05 -7.98079e-05 -4.77563e-05
-8.04412e-07 -1.38091e-06 9.36564e-07 -4.87426e-05
-7.92011e-07 -1.37369e-06 9.28158e-07 -4.87424e-05
-0.000268902 7.91076e-05 8.13406e-05 -4.7739e-05
-0.000267066 7.85778e-05 8.07805e-05 -4.77388e-05
0.000265605 -8.12326e-05 -7.90168e-05 -4.77557e-05
0.000267394 -8.17904e-05 -7.95442e-05 -4.77561e-05
-0.000267984 7.88427e-05 8.10605e-05 -4.77389e-05
-7.55058e-07 -1.35219e-06 9.03108e-07 -4.8742e-05
0.000266499 -8.15115e-05 -7.92806e-05 -4.77559e-05
-7.79652e-07 -1.3665e-06 9.1978e-07 -4.87423e-05
-7.67335e-07 -1.35934e-06 9.1143e-07 -4.87422e-05
-0.000267066 7.85778e-05 8.07805e-05 -4.77388e-05
-0.000265229 7.80479e-05 8.02204e-05 -4.77386e-05
0.000263817 -8.06749e-05 -7.84894e-05 -4.77554e-05
0.000265605 -8.12326e-05 -7.90168e-05 -4.77557e-05
-0.000266147 7.83128e-05 8.05004e-05 -4.77387e-05
-7.30631e-07 -1.33798e-06 8.86548e-07 -4.87417e-05
0.000264711 -8.09537e-05 -7.87531e-05 -4.77556e-05
-7.55058e-07 -1.35219e-06 9.03108e-07 -4.8742e-05
-7.42824e-07 -1.34508e-06 8.94814e-07 -4.87419e-05
-0.000265229 7.80479e-05 8.02204e-05 -4.77386e-05
-0.000263392 7.75178e-05 7.96605e-05 -4.77383e-05
0.000262028 -8.01173e-05 -7.79618e-05 -4.77551e-05
0.000263817 -8.06749e-05 -7.84894e-05 -4.77554e-05
-0.000264311 7.77829e-05 7.99404e-05 -4.77385e-05
-7.06368e-07 -1.32387e-06 8.701e-07 -4.87414e-05
0.000262922 -8.03961e-05 -7.82256e-05 -4.77552e-05
-7.30631e-07 -1.33798e-06 8.86548e-07 -4.87417e-05
-7.18479e-07 -1.33091e-06 8.7831e-07 -4.87416e-05
-0.000263392 7.75178e-05 7.96605e-05 -4.77383e-05
-0.000261556 7.69877e-05 7.91007e-05 -4.77381e-05
0.000260239 -7.95598e-05 -7.74341e-05 -4.77547e-05
0.000262028 -8.01173e-05 -7.79618e-05 -4.77551e-05
-0.000262474 7.72528e-05 7.93806e-05 -4.77382e-05
-6.82272e-07 -1.30985e-06 8.53765e-07 -4.87411e-05
0.000261134 -7.98385e-05 -7.76979e-05 -4.77549e-05
-7.06368e-07 -1.32387e-06 8.701e-07 -4.87414e-05
-6.943e-07 -1.31684e-06 8.61918e-07 -4.87413e-05
-0.000261556 7.69877e-05 7.91007e-05 -4.77381e-05
-0.00025972 7.64575e-05 7.8541e-05 -4.77379e-05
0.00025845 -7.90024e-05 -7.69062e-05 -4.77544e-05
0.000260239 -7.95598e-05 -7.74341e-05 -4.77547e-05
-0.000260638 7.67226e-05 7.88208e-05 -4.7738e-05
-6.58342e-07 -1.29592e-06 8.37541e-07 -4.87408e-05
0.000259345 -7.92811e-05 -7.71702e-05 -4.77545e-05
-6.82272e-07 -1.30985e-06 8.53765e-07 -4.87411e-05
-6.70286e-07 -1.30287e-06 8.45639e-07 -4.8741e-05
-0.00025972 7.64575e-05 7.8541e-05 -4.77379e-05
-0.000257884 7.59272e-05 7.79814e-05 -4.77376e-05
0.000256661 -7.84451e-05 -7.63783e-05 -4.7754e-05
0.00025845 -7.90024e-05 -7.69062e-05 -4.77544e-05
-0.000258802 7.61924e-05 7.82612e-05 -4.77378e-05
-6.34577e-07 -1.28209e-06 8.2143e-07 -4.87405e-05
0.000257556 -7.87237e-05 -7.66423e-05 -4.77542e-05
-6.58342e-07 -1.29592e-06 8.37541e-07 -4.87408e-05
-6.46439e-07 -1.289e-06 8.29472e-07 -4.87407e-05
-0.000257884 7.59272e-05 7.79814e-05 -4.77376e-05
-0.000256048 7.53968e-05 7.7422e-05 -4.77374e-05
0.000254872 -7.78879e-05 -7.58503e-05 -4.77537e-05
0.000256661 -7.84451e-05 -7.63783e-05 -4.7754e-05
-0.000256966 7.5662e-05 7.77017e-05 -4.77375e-05
-6.10979e-07 -1.26836e-06 8.05432e-07 -4.87402e-05
0.000255767 -7.81665e-05 -7.61143e-05 -4.77538e-05
-6.34577e-07 -1.28209e-06 8.2143e-07 -4.87405e-05
-6.22757e-07 -1.27522e-06 8.13417e-07 -4.87404e-05
-0.000256048 7.53968e-05 7.7422e-05 -4.77374e-05
-0.000254212 7.48663e-05 7.68626e-05 -4.77372e-05
0.000253083 -7.73308e-05 -7.53222e-05 -4.77533e-05
0.000254872 -7.78879e-05 -7.58503e-05 -4.77537e-05
-0.00025513 7.51316e-05 7.71423e-05 -4.77373e-05
-5.87546e-07 -1.25473e-06 7.89545e-07 -4.87399e-05
0.000253977 -7.76093e-05 -7.55862e-05 -4.77535e-05
-6.10979e-07 -1.26836e-06 8.05432e-07 -4.87402e-05
-5.99242e-07 -1.26153e-06 7.97474e-07 -4.87401e-05
-0.000254212 7.48663e-05 7.68626e-05 -4.77372e-05
-0.000252377 7.43358e-05 7.63034e-05 -4.77369e-05
0.000251293 -7.67738e-05 -7.47939e-05 -4.77529e-05
0.000253083 -7.73308e-05 -7.53222e-05 -4.77533e-05
-0.000253295 7.4601e-05 7.6583e-05 -4.7737e-05
-5.64279e-07 -1.24119e-06 7.73771e-07 -4.87396e-05
0.000252188 -7.70523e-05 -7.50581e-05 -4.77531e-05
-5.87546e-07 -1.25473e-06 7.89545e-07 -4.87399e-05
-5.75892e-07 -1.24794e-06 7.81644e-07 -4.87398e-05
-0.000252377 7.43358e-05 7.63034e-05 -4.77369e-05
-0.000250542 7.38051e-05 7.57442e-05 -4.77367e-05
0.000249503 -7.62169e-05 -7.42656e-05 -4.77526e-05
0.000251293 -7.67738e-05 -7.47939e-05 -4.77529e-05
-0.000251459 7.40704e-05 7.60238e-05 -4.77368e-05
-5.41178e-07 -1.22774e-06 7.58109e-07 -4.87393e-05
0.000250398 -7.64953e-05 -7.45298e-05 -4.77528e-05
-5.64279e-07 -1.24119e-06 7.73771e-07 -4.87396e-05
-5.52708e-07 -1.23445e-06 7.65926e-07 -4.87395e-05
-0.000250542 7.38051e-05 7.57442e-05 -4.77367e-05
-0.000248707 7.32743e-05 7.51852e-05 -4.77364e-05
0.000247713 -7.56601e-05 -7.37371e-05 -4.77522e-05
0.000249503 -7.62169e-05 -7.42656e-05 -4.77526e-05
-0.000249624 7.35397e-05 7.54647e-05 -4.77365e-05
-5.18243e-07 -1.2144e-06 7.4256e-07 -4.8739e-05
0.000248608 -7.59384e-05 -7.40014e-05 -4.77524e-05
-5.41178e-07 -1.22774e-06 7.58109e-07 -4.87393e-05
-5.2969e-07 -1.22106e-06 7.5032e-07 -4.87391e-05
-0.000248707 7.32743e-05 7.51852e-05 -4.77364e-05
-0.000246872 7.27435e-05 7.46263e-05 -4.77362e-05
0.000245923 -7.51033e-05 -7.32086e-05 -4.77518e-05
0.000247713 -7.56601e-05 -7.37371e-05 -4.77522e-05
-0.000247789 7.30089e-05 7.49058e-05 -4.77363e-05
-4.95474e-07 -1.20114e-06 7.27122e-07 -4.87387e-05
0.000246818 -7.53817e-05 -7.34729e-05 -4.7752e-05
-5.18243e-07 -1.2144e-06 7.42559e-07 -4.8739e-05
-5.06838e-07 -1.20776e-06 7.34827e-07 -4.87388e-05
-0.000246872 7.27435e-05 7.46263e-05 -4.77362e-05
-0.000245037 7.22126e-05 7.40676e-05 -4.77359e-05
0.000244133 -7.45467e-05 -7.26799e-05 -4.77515e-05
0.000245923 -7.51033e-05 -7.32086e-05 -4.77518e-05
-0.000245954 7.2478e-05 7.43469e-05 -4.7736e-05
-4.72871e-07 -1.18799e-06 7.11798e-07 -4.87384e-05
0.000245028 -7.4825e-05 -7.29442e-05 -4.77517e-05
-4.95474e-07 -1.20114e-06 7.27122e-07 -4.87387e-05
-4.84152e-07 -1.19455e-06 7.19446e-07 -4.87385e-05
-0.000245037 7.22126e-05 7.40676e-05 -4.77359e-05
-0.000243202 7.16815e-05 7.35089e-05 -4.77357e-05
0.000242343 -7.39902e-05 -7.21511e-05 -4.77511e-05
0.000244133 -7.45467e-05 -7.26799e-05 -4.77515e-05
-0.00024412 7.19471e-05 7.37882e-05 -4.77358e-05
-4.50435e-07 -1.17493e-06 6.96585e-07 -4.8738e-05
0.000243238 -7.42684e-05 -7.24155e-05 -4.77513e-05
-4.72871e-07 -1.18799e-06 7.11798e-07 -4.87384e-05
-4.61632e-07 -1.18145e-06 7.04177e-07 -4.87382e-05
-0.000243202 7.16815e-05 7.35089e-05 -4.77357e-05
-0.000241368 7.11504e-05 7.29503e-05 -4.77354e-05
0.000240552 -7.34338e-05 -7.16222e-05 -4.77507e-05
0.000242343 -7.39902e-05 -7.21511e-05 -4.77511e-05
-0.000242285 7.1416e-05 7.32296e-05 -4.77355e-05
-4.28164e-07 -1.16197e-06 6.81485e-07 -4.87377e-05
0.000241448 -7.3712e-05 -7.18867e-05 -4.77509e-05
-4.50435e-07 -1.17493e-06 6.96585e-07 -4.8738e-05
-4.39279e-07 -1.16844e-06 6.89021e-07 -4.87379e-05
-0.000241368 7.11504e-05 7.29503e-05 -4.77354e-05
-0.000239534 7.06192e-05 7.23919e-05 -4.77351e-05
0.000238762 -7.28774e-05 -7.10933e-05 -4.77504e-05
0.000240552 -7.34338e-05 -7.16222e-05 -4.77507e-05
-0.000240451 7.08848e-05 7.26711e-05 -4.77353e-05
-4.06059e-07 -1.1491e-06 6.66498e-07 -4.87374e-05
0.000239657 -7.31556e-05 -7.13578e-05 -4.77506e-05
-4.28164e-07 -1.16197e-06 6.81485e-07 -4.87377e-05
-4.17091e-07 -1.15552e-06 6.73977e-07 -4.87376e-05
-0.000239534 7.06192e-05 7.23919e-05 -4.77351e-05
-0.0002377 7.00879e-05 7.18336e-05 -4.77349e-05
0.000236971 -7.23212e-05 -7.05642e-05 -4.775e-05
0.000238762 -7.28774e-05 -7.10933e-05 -4.77504e-05
-0.000238617 7.03536e-05 7.21127e-05 -4.7735e-05
-3.84121e-07 -1.13633e-06 6.51623e-07 -4.87371e-05
0.000237866 -7.25993e-05 -7.08287e-05 -4.77502e-05
-4.06059e-07 -1.1491e-06 6.66498e-07 -4.87374e-05
-3.95069e-07 -1.14271e-06 6.59046e-07 -4.87372e-05
-0.0002377 7.00879e-05 7.18336e-05 -4.77349e-05
-0.000235866 6.95566e-05 7.12754e-05 -4.77346e-05
0.00023518 -7.17651e-05 -7.0035e-05 -4.77496e-05
0.000236971 -7.23212e-05 -7.05642e-05 -4.775e-05
-0.000236783 6.98223e-05 7.15544e-05 -4.77348e-05
-3.62348e-07 -1.12366e-06 6.3686e-07 -4.87368e-05
0.000236075 -7.20431e-05 -7.02996e-05 -4.77498e-05
-3.84121e-07 -1.13633e-06 6.51623e-07 -4.87371e-05
-3.73214e-07 -1.12998e-06 6.44227e-07 -4.87369e-05
-0.000235866 6.95566e-05 7.12754e-05 -4.77346e-05
-0.000234032 6.90251e-05 7.07173e-05 -4.77344e-05
0.000233389 -7.12091e-05 -6.95057e-05 -4.77492e-05
0.00023518 -7.17651e-05 -7.0035e-05 -4.77496e-05
-0.000234949 6.92908e-05 7.09963e-05 -4.77345e-05
-3.40742e-07 -1.11108e-06 6.2221e-07 -4.87364e-05
0.000234284 -7.14871e-05 -6.97703e-05 -4.77494e-05
-3.62348e-07 -1.12366e-06 6.3686e-07 -4.87368e-05
-3.51524e-07 -1.11736e-06 6.29521e-07 -4.87366e-05
-0.000234032 6.90251e-05 7.07173e-05 -4.77344e-05
-0.000232198 6.84935e-05 7.01593e-05 -4.77341e-05
0.000231598 -7.06531e-05 -6.89762e-05 -4.77489e-05
0.000233389 -7.12091e-05 -6.95057e-05 -4.77492e-05
-0.000233115 6.87593e-05 7.04382e-05 -4.77342e-05
-3.19302e-07 -1.0986e-06 6.07672e-07 -4.87361e-05
0.000232493 -7.09311e-05 -6.9241e-05 -4.77491e-05
-3.40742e-07 -1.11108e-06 6.2221e-07 -4.87364e-05
-3.30001e-07 -1.10483e-06 6.14927e-07 -4.87363e-05
-0.000232198 6.84935e-05 7.01593e-05 -4.77341e-05
-0.000230365 6.79619e-05 6.96014e-05 -4.77338e-05
0.000229806 -7.00973e-05 -6.84467e-05 -4.77485e-05
0.000231598 -7.06531e-05 -6.89762e-05 -4.77489e-05
-0.000231282 6.82277e-05 6.98803e-05 -4.7734e-05
-2.98027e-07 -1.08622e-06 5.93247e-07 -4.87358e-05
0.000230702 -7.03752e-05 -6.87115e-05 -4.77487e-05
-3.19302e-07 -1.0986e-06 6.07672e-07 -4.87361e-05
-3.08644e-07 -1.0924e-06 6.00446e-07 -4.87359e-05
-0.000230365 6.79619e-05 6.96014e-05 -4.77338e-05
-0.000228532 6.74301e-05 6.90436e-05 -4.77336e-05
0.000228015 -6.95415e-05 -6.79171e-05 -4.77481e-05
0.000229806 -7.00973e-05 -6.84467e-05 -4.77485e-05
-0.000229449 6.7696e-05 6.93225e-05 -4.77337e-05
-2.7692e-07 -1.07393e-06 5.78935e-07 -4.87354e-05
0.000228911 -6.98194e-05 -6.81819e-05 -4.77483e-05
-2.98027e-07 -1.08622e-06 5.93247e-07 -4.87358e-05
-2.87453e-07 -1.08006e-06 5.86077e-07 -4.87356e-05
-0.000228532 6.74301e-05 6.90436e-05 -4.77336e-05
-0.000226699 6.68983e-05 6.8486e-05 -4.77333e-05
0.000226223 -6.89859e-05 -6.73874e-05 -4.77477e-05
0.000228015 -6.95415e-05 -6.79171e-05 -4.77481e-05
-0.000227615 6.71642e-05 6.87648e-05 -4.77334e-05
-2.55978e-07 -1.06174e-06 5.64735e-07 -4.87351e-05
0.000227119 -6.92637e-05 -6.76522e-05 -4.77479e-05
-2.7692e-07 -1.07393e-06 5.78935e-07 -4.87354e-05
-2.66428e-07 -1.06782e-06 5.7182e-07 -4.87353e-05
-0.000226699 6.68983e-05 6.8486e-05 -4.77333e-05
-0.000224866 6.63664e-05 6.79285e-05 -4.7733e-05
0.000224431 -6.84304e-05 -6.68575e-05 -4.77473e-05
0.000226223 -6.89859e-05 -6.73874e-05 -4.77477e-05
-0.000225783 6.66323e-05 6.82072e-05 -4.77332e-05
-2.35203e-07 -1.04964e-06 5.50647e-07 -4.87348e-05
0.000225327 -6.87081e-05 -6.71224e-05 -4.77475e-05
-2.55978e-07 -1.06174e-06 5.64735e-07 -4.87351e-05
-2.4557e-07 -1.05568e-06 5.57677e-07 -4.8735e-05
-0.000224866 6.63664e-05 6.79285e-05 -4.7733e-05
-0.000223033 6.58343e-05 6.73711e-05 -4.77328e-05
0.000222639 -6.78749e-05 -6.63276e-05 -4.7747e-05
0.000224431 -6.84304e-05 -6.68575e-05 -4.77473e-05
-0.00022395 6.61004e-05 6.76498e-05 -4.77329e-05
-2.14593e-07 -1.03764e-06 5.36672e-07 -4.87345e-05
0.000223535 -6.81526e-05 -6.65925e-05 -4.77472e-05
-2.35203e-07 -1.04964e-06 5.50647e-07 -4.87348e-05
-2.24877e-07 -1.04363e-06 5.43646e-07 -4.87346e-05
-0.000223033 6.58343e-05 6.73711e-05 -4.77328e-05
-0.000221201 6.53022e-05 6.68138e-05 -4.77325e-05
0.000220847 -6.73196e-05 -6.57975e-05 -4.77466e-05
0.000222639 -6.78749e-05 -6.63276e-05 -4.7747e-05
-0.000222117 6.55683e-05 6.70924e-05 -4.77326e-05
-1.9415e-07 -1.02574e-06 5.2281e-07 -4.87341e-05
0.000221743 -6.75972e-05 -6.60625e-05 -4.77468e-05
-2.14593e-07 -1.03764e-06 5.36672e-07 -4.87345e-05
-2.04351e-07 -1.03168e-06 5.29727e-07 -4.87343e-05
-0.000221201 6.53022e-05 6.68138e-05 -4.77325e-05
-0.000219369 6.477e-05 6.62566e-05 -4.77322e-05
0.000219055 -6.67643e-05 -6.52673e-05 -4.77462e-05
0.000220847 -6.73196e-05 -6.57975e-05 -4.77466e-05
-0.000220285 6.50361e-05 6.65352e-05 -4.77324e-05
-1.73874e-07 -1.01393e-06 5.0906e-07 -4.87338e-05
0.000219951 -6.70419e-05 -6.55324e-05 -4.77464e-05
-1.9415e-07 -1.02574e-06 5.2281e-07 -4.87341e-05
-1.83991e-07 -1.01982e-06 5.15921e-07 -4.8734e-05
-0.000219369 6.477e-05 6.62566e-05 -4.77322e-05
-0.000217537 6.42378e-05 6.56995e-05 -4.7732e-05
0.000217262 -6.62092e-05 -6.47371e-05 -4.77458e-05
0.000219055 -6.67643e-05 -6.52673e-05 -4.77462e-05
-0.000218453 6.45039e-05 6.5978e-05 -4.77321e-05
-1.53763e-07 -1.00222e-06 4.95423e-07 -4.87335e-05
0.000218159 -6.64867e-05 -6.50022e-05 -4.7746e-05
-1.73874e-07 -1.01393e-06 5.0906e-07 -4.87338e-05
-1.63798e-07 -1.00807e-06 5.02227e-07 -4.87336e-05
-0.000217537 6.42378e-05 6.56995e-05 -4.7732e-05
-0.000215705 6.37054e-05 6.51426e-05 -4.77317e-05
0.00021547 -6.56541e-05 -6.42067e-05 -4.77454e-05
0.000217262 -6.62092e-05 -6.47371e-05 -4.77458e-05
-0.000216621 6.39716e-05 6.5421e-05 -4.77318e-05
-1.33819e-07 -9.9061e-07 4.81898e-07 -4.87331e-05
0.000216366 -6.59316e-05 -6.44719e-05 -4.77456e-05
-1.53763e-07 -1.00222e-06 4.95423e-07 -4.87335e-05
-1.43771e-07 -9.96405e-07 4.88647e-07 -4.87333e-05
-0.000215705 6.37054e-05 6.51426e-05 -4.77317e-05
-0.000213873 6.31729e-05 6.45857e-05 -4.77314e-05
0.000213677 -6.50992e-05 -6.36762e-05 -4.7745e-05
0.00021547 -6.56541e-05 -6.42067e-05 -4.77454e-05
-0.000214789 6.34392e-05 6.48641e-05 -4.77316e-05
-1.14042e-07 -9.79094e-07 4.68487e-07 -4.87328e-05
0.000214573 -6.53766e-05 -6.39415e-05 -4.77452e-05
-1.33819e-07 -9.9061e-07 4.81898e-07 -4.87331e-05
-1.2391e-07 -9.8484e-07 4.75179e-07 -4.8733e-05
-0.000213873 6.31729e-05 6.45857e-05 -4.77314e-05
-0.000212041 6.26404e-05 6.4029e-05 -4.77312e-05
0.000211884 -6.45443e-05 -6.31456e-05 -4.77447e-05
0.000213677 -6.50992e-05 -6.36762e-05 -4.7745e-05
-0.000212957 6.29066e-05 6.43073e-05 -4.77313e-05
-9.44302e-08 -9.67674e-07 4.55188e-07 -4.87325e-05
0.000212781 -6.48217e-05 -6.34109e-05 -4.77449e-05
-1.14042e-07 -9.79094e-07 4.68487e-07 -4.87328e-05
-1.04215e-07 -9.73372e-07 4.61823e-07 -4.87326e-05
-0.000212041 6.26404e-05 6.4029e-05 -4.77312e-05
-0.00021021 6.21077e-05 6.34724e-05 -4.77309e-05
0.000210091 -6.39895e-05 -6.26149e-05 -4.77443e-05
0.000211884 -6.45443e-05 -6.31456e-05 -4.77447e-05
-0.000211126 6.2374e-05 6.37507e-05 -4.7731e-05
-7.49851e-08 -9.56351e-07 4.42001e-07 -4.87321e-05
0.000210988 -6.42669e-05 -6.28803e-05 -4.77445e-05
-9.44302e-08 -9.67674e-07 4.55188e-07 -4.87325e-05
-8.4687e-08 -9.62e-07 4.4858e-07 -4.87323e-05
-0.00021021 6.21077e-05 6.34724e-05 -4.77309e-05
-0.000208379 6.1575e-05 6.29159e-05 -4.77306e-05
0.000208298 -6.34349e-05 -6.20841e-05 -4.77439e-05
0.000210091 -6.39895e-05 -6.26149e-05 -4.77443e-05
-0.000209294 6.18413e-05 6.31941e-05 -4.77308e-05
-5.57065e-08 -9.45124e-07 4.28927e-07 -4.87318e-05
0.000209194 -6.37122e-05 -6.23495e-05 -4.77441e-05
-7.49852e-08 -9.56351e-07 4.42001e-07 -4.87321e-05
-6.53251e-08 -9.50725e-07 4.3545e-07 -4.8732e-05
-0.000208379 6.1575e-05 6.29159e-05 -4.77306e-05
-0.000206548 6.10421e-05 6.23595e-05 -4.77304e-05
0.000206504 -6.28803e-05 -6.15532e-05 -4.77435e-05
0.000208298 -6.34349e-05 -6.20841e-05 -4.77439e-05
-0.000207463 6.13086e-05 6.26377e-05 -4.77305e-05
-3.65942e-08 -9.33994e-07 4.15966e-07 -4.87315e-05
0.000207401 -6.31576e-05 -6.18187e-05 -4.77437e-05
-5.57065e-08 -9.45124e-07 4.28927e-07 -4.87318e-05
-4.61296e-08 -9.39547e-07 4.22433e-07 -4.87316e-05
-0.000206548 6.10421e-05 6.23595e-05 -4.77304e-05
-0.000204717 6.05092e-05 6.18032e-05 -4.77301e-05
0.000204711 -6.23259e-05 -6.10222e-05 -4.77431e-05
0.000206504 -6.28803e-05 -6.15532e-05 -4.77435e-05
-0.000205632 6.07757e-05 6.20813e-05 -4.77302e-05
-1.76483e-08 -9.2296e-07 4.03118e-07 -4.87311e-05
0.000205608 -6.26031e-05 -6.12877e-05 -4.77433e-05
-3.65942e-08 -9.33994e-07 4.15966e-07 -4.87315e-05
-2.71005e-08 -9.28465e-07 4.09528e-07 -4.87313e-05
-0.000204717 6.05092e-05 6.18032e-05 -4.77301e-05
-0.000202886 5.99762e-05 6.12471e-05 -4.77298e-05
0.000202917 -6.17715e-05 -6.04911e-05 -4.77427e-05
0.000204711 -6.23259e-05 -6.10222e-05 -4.77431e-05
-0.000203801 6.02427e-05 6.15251e-05 -4.773e-05
1.13119e-09 -9.12023e-07 3.90382e-07 -4.87308e-05
0.000203814 -6.20487e-05 -6.07566e-05 -4.77429e-05
-1.76483e-08 -9.2296e-07 4.03118e-07 -4.87311e-05
-8.23786e-09 -9.17479e-07 3.96736e-07 -4.8731e-05
-0.000202886 5.99762e-05 6.12471e-05 -4.77298e-05
-0.000201056 5.94431e-05 6.0691e-05 -4.77296e-05
0.000201123 -6.12172e-05 -5.99598e-05 -4.77424e-05
0.000202917 -6.17715e-05 -6.04911e-05 -4.77427e-05
-0.000201971 5.97097e-05 6.0969e-05 -4.77297e-05
1.97442e-08 -9.01183e-07 3.77759e-07 -4.87305e-05
0.00020202 -6.14943e-05 -6.02255e-05 -4.77425e-05
1.13119e-09 -9.12023e-07 3.90382e-07 -4.87308e-05
1.04584e-08 -9.06591e-07 3.84057e-07 -4.87306e-05
-0.000201056 5.94431e-05 6.0691e-05 -4.77296e-05
-0.000199225 5.89099e-05 6.01351e-05 -4.77293e-05
0.000199329 -6.0663e-05 -5.94285e-05 -4.7742e-05
0.000201123 -6.12172e-05 -5.99598e-05 -4.77424e-05
-0.00020014 5.91765e-05 6.0413e-05 -4.77294e-05
3.81908e-08 -8.90439e-07 3.65249e-07 -4.87301e-05
0.000200226 -6.09401e-05 -5.96942e-05 -4.77422e-05
1.97442e-08 -9.01183e-07 3.77759e-07 -4.87305e-05
2.89882e-08 -8.95799e-07 3.7149e-07 -4.87303e-05
-0.000199225 5.89099e-05 6.01351e-05 -4.77293e-05
-0.000197395 5.83766e-05 5.95793e-05 -4.7729e-05
0.000197535 -6.0109e-05 -5.8897e-05 -4.77416e-05
0.000199329 -6.0663e-05 -5.94285e-05 -4.7742e-05
-0.00019831 5.86433e-05 5.98572e-05 -4.77292e-05
5.6471e-08 -8.79792e-07 3.52852e-07 -4.87298e-05
0.000198432 -6.0386e-05 -5.91628e-05 -4.77418e-05
3.81908e-08 -8.90439e-07 3.65249e-07 -4.87301e-05
4.73516e-08 -8.85103e-07 3.59036e-07 -4.873e-05
-0.000197395 5.83766e-05 5.95793e-05 -4.7729e-05
-0.000195565 5.78433e-05 5.90236e-05 -4.77287e-05
0.000195741 -5.9555e-05 -5.83655e-05 -4.77412e-05
0.000197535 -6.0109e-05 -5.8897e-05 -4.77416e-05
-0.00019648 5.811e-05 5.93014e-05 -4.77289e-05
7.45847e-08 -8.69242e-07 3.40567e-07 -4.87295e-05
0.000196638 -5.9832e-05 -5.86313e-05 -4.77414e-05
5.6471e-08 -8.79792e-07 3.52852e-07 -4.87298e-05
6.55485e-08 -8.74505e-07 3.46696e-07 -4.87296e-05
-0.000195565 5.78433e-05 5.90236e-05 -4.77287e-05
-0.000193735 5.73098e-05 5.8468e-05 -4.77285e-05
0.000193947 -5.90011e-05 -5.78338e-05 -4.77408e-05
0.000195741 -5.9555e-05 -5.83655e-05 -4.77412e-05
-0.00019465 5.75765e-05 5.87458e-05 -4.77286e-05
9.25319e-08 -8.58788e-07 3.28396e-07 -4.87291e-05
0.000194844 -5.9278e-05 -5.80997e-05 -4.7741e-05
7.45847e-08 -8.69242e-07 3.40567e-07 -4.87295e-05
8.3579e-08 -8.64003e-07 3.34467e-07 -4.87293e-05
-0.000193735 5.73098e-05 5.8468e-05 -4.77285e-05
-0.000191906 5.67762e-05 5.79125e-05 -4.77282e-05
0.000192152 -5.84473e-05 -5.7302e-05 -4.77404e-05
0.000193947 -5.90011e-05 -5.78338e-05 -4.77408e-05
-0.00019282 5.7043e-05 5.81903e-05 -4.77283e-05
1.10313e-07 -8.48431e-07 3.16337e-07 -4.87288e-05
0.000193049 -5.87242e-05 -5.75679e-05 -4.77406e-05
9.25319e-08 -8.58788e-07 3.28396e-07 -4.87291e-05
1.01443e-07 -8.53598e-07 3.22352e-07 -4.8729e-05
-0.000191906 5.67762e-05 5.79125e-05 -4.77282e-05
-0.000190076 5.62426e-05 5.73572e-05 -4.77279e-05
0.000190357 -5.78937e-05 -5.67702e-05 -4.77401e-05
0.000192152 -5.84473e-05 -5.7302e-05 -4.77404e-05
-0.000190991 5.65094e-05 5.76349e-05 -4.77281e-05
1.27927e-07 -8.38171e-07 3.0439e-07 -4.87285e-05
0.000191255 -5.81705e-05 -5.70361e-05 -4.77402e-05
1.10313e-07 -8.48431e-07 3.16337e-07 -4.87288e-05
1.1914e-07 -8.43289e-07 3.10349e-07 -4.87286e-05
-0.000190076 5.62426e-05 5.73572e-05 -4.77279e-05
-0.000188247 5.57089e-05 5.6802e-05 -4.77277e-05
0.000188563 -5.73401e-05 -5.62382e-05 -4.77397e-05
0.000190357 -5.78937e-05 -5.67702e-05 -4.77401e-05
-0.000189161 5.59758e-05 5.70796e-05 -4.77278e-05
1.45374e-07 -8.28008e-07 2.92557e-07 -4.87281e-05
0.00018946 -5.76169e-05 -5.65042e-05 -4.77399e-05
1.27927e-07 -8.38171e-07 3.0439e-07 -4.87285e-05
1.36671e-07 -8.33077e-07 2.9846e-07 -4.87283e-05
-0.000188247 5.57089e-05 5.6802e-05 -4.77277e-05
-0.000186418 5.5175e-05 5.62468e-05 -4.77274e-05
0.000186767 -5.67866e-05 -5.57061e-05 -4.77393e-05
0.000188563 -5.73401e-05 -5.62382e-05 -4.77397e-05
-0.000187332 5.5442e-05 5.65244e-05 -4.77275e-05
1.62655e-07 -8.17941e-07 2.80837e-07 -4.87278e-05
0.000187665 -5.70633e-05 -5.59722e-05 -4.77395e-05
1.45374e-07 -8.28008e-07 2.92557e-07 -4.87281e-05
1.54036e-07 -8.22962e-07 2.86683e-07 -4.8728e-05
-0.000186418 5.5175e-05 5.62468e-05 -4.77274e-05
-0.000184589 5.46411e-05 5.56918e-05 -4.77271e-05
0.000184972 -5.62332e-05 -5.51739e-05 -4.77389e-05
0.000186767 -5.67866e-05 -5.57061e-05 -4.77393e-05
-0.000185503 5.49081e-05 5.59693e-05 -4.77273e-05
1.7977e-07 -8.07971e-07 2.69229e-07 -4.87275e-05
0.00018587 -5.65099e-05 -5.544e-05 -4.77391e-05
1.62655e-07 -8.17941e-07 2.80837e-07 -4.87278e-05
1.71233e-07 -8.12944e-07 2.75019e-07 -4.87276e-05
-0.000184589 5.46411e-05 5.56918e-05 -4.77271e-05
-0.00018276 5.41071e-05 5.51369e-05 -4.77269e-05
0.000183177 -5.56799e-05 -5.46416e-05 -4.77385e-05
0.000184972 -5.62332e-05 -5.51739e-05 -4.77389e-05
-0.000183674 5.43741e-05 5.54144e-05 -4.7727e-05
1.96718e-07 -7.98098e-07 2.57734e-07 -4.87271e-05
0.000184075 -5.59566e-05 -5.49078e-05 -4.77387e-05
1.7977e-07 -8.07971e-07 2.69229e-07 -4.87275e-05
1.88265e-07 -8.03023e-07 2.63468e-07 -4.87273e-05
-0.00018276 5.41071e-05 5.51369e-05 -4.77269e-05
-0.000180931 5.3573e-05 5.45821e-05 -4.77266e-05
0.000181381 -5.51267e-05 -5.41092e-05 -4.77381e-05
0.000183177 -5.56799e-05 -5.46416e-05 -4.77385e-05
-0.000181846 5.38401e-05 5.48595e-05 -4.77268e-05
2.13499e-07 -7.88322e-07 2.46353e-07 -4.87268e-05
0.000182279 -5.54033e-05 -5.43754e-05 -4.77383e-05
1.96718e-07 -7.98098e-07 2.57734e-07 -4.87271e-05
2.05129e-07 -7.93198e-07 2.52029e-07 -4.8727e-05
-0.000180931 5.3573e-05 5.45821e-05 -4.77266e-05
-0.000179103 5.30388e-05 5.40275e-05 -4.77264e-05
0.000179586 -5.45737e-05 -5.35767e-05 -4.77378e-05
0.000181381 -5.51267e-05 -5.41092e-05 -4.77381e-05
-0.000180017 5.33059e-05 5.43048e-05 -4.77265e-05
2.30114e-07 -7.78643e-07 2.35084e-07 -4.87265e-05
0.000180484 -5.48502e-05 -5.38429e-05 -4.7738e-05
2.13499e-07 -7.88322e-07 2.46353e-07 -4.87268e-05
2.21828e-07 -7.8347e-07 2.40704e-07 -4.87266e-05
-0.000179103 5.30388e-05 5.40275e-05 -4.77264e-05
-0.000177275 5.25046e-05 5.34729e-05 -4.77261e-05
0.00017779 -5.40207e-05 -5.3044e-05 -4.77374e-05
0.000179586 -5.45737e-05 -5.35767e-05 -4.77378e-05
-0.000178189 5.27717e-05 5.37502e-05 -4.77262e-05
2.46562e-07 -7.6906e-07 2.23928e-07 -4.87262e-05
0.000178688 -5.42971e-05 -5.33104e-05 -4.77376e-05
2.30114e-07 -7.78643e-07 2.35084e-07 -4.87265e-05
2.38359e-07 -7.73839e-07 2.29492e-07 -4.87263e-05
-0.000177275 5.25046e-05 5.34729e-05 -4.77261e-05
-0.000175447 5.19702e-05 5.29185e-05 -4.77258e-05
0.000175994 -5.34678e-05 -5.25113e-05 -4.7737e-05
0.00017779 -5.40207e-05 -5.3044e-05 -4.77374e-05
-0.000176361 5.22374e-05 5.31957e-05 -4.7726e-05
2.62844e-07 -7.59574e-07 2.12884e-07 -4.87258e-05
0.000176892 -5.37442e-05 -5.27777e-05 -4.77372e-05
2.46562e-07 -7.6906e-07 2.23928e-07 -4.87262e-05
2.54724e-07 -7.64305e-07 2.18392e-07 -4.8726e-05
-0.000175447 5.19702e-05 5.29185e-05 -4.77258e-05
-0.000173619 5.14357e-05 5.23642e-05 -4.77256e-05
0.000174198 -5.2915e-05 -5.19785e-05 -4.77366e-05
0.000175994 -5.34678e-05 -5.25113e-05 -4.7737e-05
-0.000174533 5.1703e-05 5.26413e-05 -4.77257e-05
2.78959e-07 -7.50186e-07 2.01954e-07 -4.87255e-05
0.000175096 -5.31914e-05 -5.22449e-05 -4.77368e-05
2.62844e-07 -7.59574e-07 2.12884e-07 -4.87258e-05
2.70922e-07 -7.54868e-07 2.07405e-07 -4.87257e-05
-0.000173619 5.14357e-05 5.23642e-05 -4.77256e-05
-0.000171791 5.09012e-05 5.181e-05 -4.77253e-05
0.000172402 -5.23623e-05 -5.14455e-05 -4.77363e-05
0.000174198 -5.2915e-05 -5.19785e-05 -4.77366e-05
-0.000172705 5.11685e-05 5.2087e-05 -4.77255e-05
2.94907e-07 -7.40894e-07 1.91137e-07 -4.87252e-05
0.0001733 -5.26386e-05 -5.1712e-05 -4.77365e-05
2.78959e-07 -7.50186e-07 2.01954e-07 -4.87255e-05
2.86954e-07 -7.45527e-07 1.96532e-07 -4.87254e-05
-0.000171791 5.09012e-05 5.181e-05 -4.77253e-05
-0.000169964 5.03665e-05 5.12559e-05 -4.77251e-05
0.000170605 -5.18097e-05 -5.09125e-05 -4.77359e-05
0.000172402 -5.23623e-05 -5.14455e-05 -4.77363e-05
-0.000170877 5.06339e-05 5.15329e-05 -4.77252e-05
3.10689e-07 -7.31699e-07 1.80433e-07 -4.87249e-05
0.000171504 -5.2086e-05 -5.1179e-05 -4.77361e-05
2.94907e-07 -7.40894e-07 1.91137e-07 -4.87252e-05
3.02819e-07 -7.36284e-07 1.85771e-07 -4.8725e-05
-0.000169964 5.03665e-05 5.12559e-05 -4.77251e-05
-0.000168136 4.98318e-05 5.07019e-05 -4.77248e-05
0.000168809 -5.12572e-05 -5.03793e-05 -4.77355e-05
0.000170605 -5.18097e-05 -5.09125e-05 -4.77359e-05
-0.00016905 5.00992e-05 5.09789e-05 -4.77249e-05
3.26304e-07 -7.226e-07 1.69841e-07 -4.87246e-05
0.000169707 -5.15334e-05 -5.06459e-05 -4.77357e-05
3.10689e-07 -7.31699e-07 1.80433e-07 -4.87249e-05
3.18517e-07 -7.27137e-07 1.75123e-07 -4.87247e-05
-0.000168136 4.98318e-05 5.07019e-05 -4.77248e-05
-0.000166309 4.9297e-05 5.0148e-05 -4.77246e-05
0.000167012 -5.07048e-05 -4.9846e-05 -4.77352e-05
0.000168809 -5.12572e-05 -5.03793e-05 -4.77355e-05
-0.000167223 4.95644e-05 5.04249e-05 -4.77247e-05
3.41752e-07 -7.13599e-07 1.59363e-07 -4.87242e-05
0.000167911 -5.0981e-05 -5.01127e-05 -4.77353e-05
3.26304e-07 -7.226e-07 1.69841e-07 -4.87246e-05
3.34049e-07 -7.18088e-07 1.64588e-07 -4.87244e-05
-0.000166309 4.9297e-05 5.0148e-05 -4.77246e-05
-0.000164482 4.87621e-05 4.95943e-05 -4.77243e-05
0.000165215 -5.01525e-05 -4.93126e-05 -4.77348e-05
0.000167012 -5.07048e-05 -4.9846e-05 -4.77352e-05
-0.000165396 4.90295e-05 4.98711e-05 -4.77244e-05
3.57034e-07 -7.04695e-07 1.48998e-07 -4.87239e-05
0.000166114 -5.04286e-05 -4.95793e-05 -4.7735e-05
3.41752e-07 -7.13599e-07 1.59363e-07 -4.87242e-05
3.49414e-07 -7.09135e-07 1.54166e-07 -4.87241e-05
-0.000164482 4.87621e-05 4.95943e-05 -4.77243e-05
-0.000162655 4.82271e-05 4.90406e-05 -4.77241e-05
0.000163418 -4.96003e-05 -4.87791e-05 -4.77344e-05
0.000165215 -5.01525e-05 -4.93126e-05 -4.77348e-05
-0.000163569 4.84946e-05 4.93174e-05 -4.77242e-05
3.72149e-07 -6.95887e-07 1.38745e-07 -4.87236e-05
0.000164317 -4.98764e-05 -4.90459e-05 -4.77346e-05
3.57034e-07 -7.04695e-07 1.48998e-07 -4.87239e-05
3.64612e-07 -7.00279e-07 1.43857e-07 -4.87238e-05
-0.000162655 4.82271e-05 4.90406e-05 -4.77241e-05
-0.000160829 4.7692e-05 4.84871e-05 -4.77238e-05
0.000161621 -4.90482e-05 -4.82456e-05 -4.77341e-05
0.000163418 -4.96003e-05 -4.87791e-05 -4.77344e-05
-0.000161742 4.79595e-05 4.87639e-05 -4.77239e-05
3.87097e-07 -6.87177e-07 1.28606e-07 -4.87233e-05
0.00016252 -4.93242e-05 -4.85124e-05 -4.77343e-05
3.72149e-07 -6.95887e-07 1.38745e-07 -4.87236e-05
3.79644e-07 -6.9152e-07 1.33661e-07 -4.87234e-05
-0.000160829 4.7692e-05 4.84871e-05 -4.77238e-05
-0.000159002 4.71568e-05 4.79337e-05 -4.77236e-05
0.000159824 -4.84962e-05 -4.77119e-05 -4.77337e-05
0.000161621 -4.90482e-05 -4.82456e-05 -4.77341e-05
-0.000159915 4.74244e-05 4.82104e-05 -4.77237e-05
4.01878e-07 -6.78564e-07 1.18579e-07 -4.8723e-05
0.000160722 -4.87722e-05 -4.79787e-05 -4.77339e-05
3.87097e-07 -6.87177e-07 1.28606e-07 -4.87233e-05
3.94508e-07 -6.82858e-07 1.23578e-07 -4.87231e-05
-0.000159002 4.71568e-05 4.79337e-05 -4.77236e-05
-0.000157176 4.66215e-05 4.73804e-05 -4.77233e-05
0.000158026 -4.79442e-05 -4.7178e-05 -4.77333e-05
0.000159824 -4.84962e-05 -4.77119e-05 -4.77337e-05
-0.000158089 4.68891e-05 4.76571e-05 -4.77234e-05
4.16493e-07 -6.70047e-07 1.08666e-07 -4.87227e-05
0.000158925 -4.82202e-05 -4.7445e-05 -4.77335e-05
4.01878e-07 -6.78564e-07 1.18579e-07 -4.8723e-05
4.09207e-07 -6.74293e-07 1.13609e-07 -4.87228e-05
-0.000157176 4.66215e-05 4.73804e-05 -4.77233e-05
-0.00015535 4.60861e-05 4.68272e-05 -4.77231e-05
0.000156229 -4.73924e-05 -4.66441e-05 -4.7733e-05
0.000158026 -4.79442e-05 -4.7178e-05 -4.77333e-05
-0.000156263 4.63538e-05 4.71038e-05 -4.77232e-05
4.30941e-07 -6.61628e-07 9.88657e-08 -4.87224e-05
0.000157128 -4.76683e-05 -4.69111e-05 -4.77332e-05
4.16493e-07 -6.70047e-07 1.08666e-07 -4.87227e-05
4.23738e-07 -6.65825e-07 1.03752e-07 -4.87225e-05
-0.00015535 4.60861e-05 4.68272e-05 -4.77231e-05
-0.000153524 4.55507e-05 4.62742e-05 -4.77228e-05
0.000154431 -4.68407e-05 -4.61101e-05 -4.77326e-05
0.000156229 -4.73924e-05 -4.66441e-05 -4.7733e-05
-0.000154437 4.58184e-05 4.65507e-05 -4.7723e-05
4.45222e-07 -6.53305e-07 8.91784e-08 -4.87221e-05
0.00015533 -4.71166e-05 -4.63771e-05 -4.77328e-05
4.30941e-07 -6.61628e-07 9.88657e-08 -4.87224e-05
4.38103e-07 -6.57454e-07 9.40079e-08 -4.87222e-05
-0.000153524 4.55507e-05 4.62742e-05 -4.77228e-05
-0.000151698 4.50151e-05 4.57212e-05 -4.77226e-05
0.000152633 -4.62891e-05 -4.5576e-05 -4.77323e-05
0.000154431 -4.68407e-05 -4.61101e-05 -4.77326e-05
-0.000152611 4.52829e-05 4.59977e-05 -4.77227e-05
4.59337e-07 -6.4508e-07 7.96041e-08 -4.87218e-05
0.000153532 -4.65649e-05 -4.58431e-05 -4.77325e-05
4.45222e-07 -6.53305e-07 8.91784e-08 -4.87221e-05
4.523e-07 -6.4918e-07 8.43772e-08 -4.87219e-05
-0.000151698 4.50151e-05 4.57212e-05 -4.77226e-05
-0.000149872 4.44795e-05 4.51684e-05 -4.77224e-05
0.000150835 -4.57376e-05 -4.50417e-05 -4.77319e-05
0.000152633 -4.62891e-05 -4.5576e-05 -4.77323e-05
-0.000150785 4.47473e-05 4.54448e-05 -4.77225e-05
4.73285e-07 -6.36952e-07 7.01429e-08 -4.87215e-05
0.000151734 -4.60133e-05 -4.53089e-05 -4.77321e-05
4.59337e-07 -6.4508e-07 7.96041e-08 -4.87218e-05
4.66332e-07 -6.41004e-07 7.48594e-08 -4.87216e-05
-0.000149872 4.44795e-05 4.51684e-05 -4.77224e-05
-0.000148047 4.39437e-05 4.46157e-05 -4.77221e-05
0.000149037 -4.51862e-05 -4.45074e-05 -4.77316e-05
0.000150835 -4.57376e-05 -4.50417e-05 -4.77319e-05
-0.00014896 4.42116e-05 4.4892e-05 -4.77222e-05
4.87066e-07 -6.2892e-07 6.07948e-08 -4.87212e-05
0.000149936 -4.54619e-05 -4.47746e-05 -4.77317e-05
4.73285e-07 -6.36952e-07 7.01429e-08 -4.87215e-05
4.80196e-07 -6.32924e-07 6.54548e-08 -4.87213e-05
-0.000148047 4.39437e-05 4.46157e-05 -4.77221e-05
-0.000146222 4.34079e-05 4.40631e-05 -4.77219e-05
0.000147238 -4.46349e-05 -4.39729e-05 -4.77312e-05
0.000149037 -4.51862e-05 -4.45074e-05 -4.77316e-05
-0.000147134 4.36758e-05 4.43394e-05 -4.7722e-05
5.0068e-07 -6.20986e-07 5.15598e-08 -4.87209e-05
0.000148138 -4.49105e-05 -4.42402e-05 -4.77314e-05
4.87066e-07 -6.2892e-07 6.07948e-08 -4.87212e-05
4.93893e-07 -6.24941e-07 5.61632e-08 -4.8721e-05
-0.000146222 4.34079e-05 4.40631e-05 -4.77219e-05
-0.000144397 4.2872e-05 4.35106e-05 -4.77217e-05
0.00014544 -4.40836e-05 -4.34384e-05 -4.77309e-05
0.000147238 -4.46349e-05 -4.39729e-05 -4.77312e-05
-0.000145309 4.314e-05 4.37868e-05 -4.77218e-05
5.14127e-07 -6.13149e-07 4.24378e-08 -4.87206e-05
0.000146339 -4.43592e-05 -4.37057e-05 -4.77311e-05
5.0068e-07 -6.20986e-07 5.15598e-08 -4.87209e-05
5.07424e-07 -6.17055e-07 4.69847e-08 -4.87207e-05
-0.000144397 4.2872e-05 4.35106e-05 -4.77217e-05
-0.000142572 4.2336e-05 4.29582e-05 -4.77214e-05
0.000143641 -4.35325e-05 -4.29037e-05 -4.77305e-05
0.00014544 -4.40836e-05 -4.34384e-05 -4.77309e-05
-0.000143484 4.2604e-05 4.32344e-05 -4.77215e-05
5.27408e-07 -6.05409e-07 3.34289e-08 -4.87203e-05
0.00014454 -4.38081e-05 -4.3171e-05 -4.77307e-05
5.14127e-07 -6.13149e-07 4.24378e-08 -4.87206e-05
5.20788e-07 -6.09266e-07 3.79193e-08 -4.87204e-05
-0.000142572 4.2336e-05 4.29582e-05 -4.77214e-05
-0.000140747 4.17999e-05 4.2406e-05 -4.77212e-05
0.000141842 -4.29815e-05 -4.23689e-05 -4.77302e-05
0.000143641 -4.35325e-05 -4.29037e-05 -4.77305e-05
-0.000141659 4.20679e-05 4.26821e-05 -4.77213e-05
5.40521e-07 -5.97765e-07 2.45332e-08 -4.872e-05
0.000142742 -4.3257e-05 -4.26363e-05 -4.77304e-05
5.27408e-07 -6.05409e-07 3.34289e-08 -4.87203e-05
5.33985e-07 -6.01575e-07 2.89669e-08 -4.87201e-05
-0.000140747 4.17999e-05 4.2406e-05 -4.77212e-05
-0.000138923 4.12637e-05 4.18538e-05 -4.7721e-05
0.000140043 -4.24305e-05 -4.1834e-05 -4.77299e-05
0.000141842 -4.29815e-05 -4.23689e-05 -4.77302e-05
-0.000139835 4.15318e-05 4.21299e-05 -4.77211e-05
5.53468e-07 -5.9022e-07 1.57505e-08 -4.87197e-05
0.000140943 -4.2706e-05 -4.21015e-05 -4.773e-05
5.40521e-07 -5.97765e-07 2.45332e-08 -4.872e-05
5.47016e-07 -5.9398e-07 2.01277e-08 -4.87198e-05
-0.000138923 4.12637e-05 4.18538e-05 -4.7721e-05
-0.000137098 4.07274e-05 4.13018e-05 -4.77208e-05
0.000138244 -4.18797e-05 -4.1299e-05 -4.77295e-05
0.000140043 -4.24305e-05 -4.1834e-05 -4.77299e-05
-0.00013801 4.09956e-05 4.15778e-05 -4.77209e-05
5.66248e-07 -5.82771e-07 7.08099e-09 -4.87194e-05
0.000139144 -4.21551e-05 -4.15665e-05 -4.77297e-05
5.53468e-07 -5.9022e-07 1.57505e-08 -4.87197e-05
5.59879e-07 -5.86483e-07 1.14016e-08 -4.87196e-05
-0.000137098 4.07274e-05 4.13018e-05 -4.77208e-05
-0.000135274 4.0191e-05 4.07499e-05 -4.77205e-05
0.000136445 -4.1329e-05 -4.07639e-05 -4.77292e-05
0.000138244 -4.18797e-05 -4.1299e-05 -4.77295e-05
-0.000136186 4.04592e-05 4.10258e-05 -4.77206e-05
5.78862e-07 -5.75419e-07 -1.4754e-09 -4.87191e-05
0.000137344 -4.16043e-05 -4.10315e-05 -4.77293e-05
5.66248e-07 -5.82771e-07 7.08099e-09 -4.87194e-05
5.72576e-07 -5.79083e-07 2.78868e-09 -4.87193e-05
-0.000135274 4.0191e-05 4.07499e-05 -4.77205e-05
-0.00013345 3.96546e-05 4.0198e-05 -4.77203e-05
0.000134645 -4.07784e-05 -4.02287e-05 -4.77288e-05
0.000136445 -4.1329e-05 -4.07639e-05 -4.77292e-05
-0.000134362 3.99228e-05 4.04739e-05 -4.77204e-05
5.91308e-07 -5.68164e-07 -9.91867e-09 -4.87188e-05
0.000135545 -4.10537e-05 -4.04963e-05 -4.7729e-05
5.78862e-07 -5.75419e-07 -1.4754e-09 -4.87191e-05
5.85105e-07 -5.71779e-07 -5.71115e-09 -4.8719e-05
-0.00013345 3.96546e-05 4.0198e-05 -4.77203e-05
-0.000131626 3.9118e-05 3.96464e-05 -4.77201e-05
0.000132846 -4.02278e-05 -3.96934e-05 -4.77285e-05
0.000134645 -4.07784e-05 -4.02287e-05 -4.77288e-05
-0.000132538 3.93863e-05 3.99222e-05 -4.77202e-05
6.03587e-07 -5.61007e-07 -1.82488e-08 -4.87186e-05
0.000133746 -4.05031e-05 -3.99611e-05 -4.77287e-05
5.91308e-07 -5.68164e-07 -9.91867e-09 -4.87188e-05
5.97468e-07 -5.64573e-07 -1.40979e-08 -4.87187e-05
-0.000131626 3.9118e-05 3.96464e-05 -4.77201e-05
-0.000129803 3.85813e-05 3.90948e-05 -4.77199e-05
0.000131046 -3.96774e-05 -3.9158e-05 -4.77282e-05
0.000132846 -4.02278e-05 -3.96934e-05 -4.77285e-05
-0.000130714 3.88497e-05 3.93706e-05 -4.772e-05
6.157e-07 -5.53946e-07 -2.64658e-08 -4.87183e-05
0.000131946 -3.99526e-05 -3.94257e-05 -4.77284e-05
6.03587e-07 -5.61007e-07 -1.82488e-08 -4.87186e-05
6.09664e-07 -5.57464e-07 -2.23714e-08 -4.87184e-05
-0.000129803 3.85813e-05 3.90948e-05 -4.77199e-05
-0.000127979 3.80446e-05 3.85433e-05 -4.77197e-05
0.000129246 -3.9127e-05 -3.86224e-05 -4.77279e-05
0.000131046 -3.96774e-05 -3.9158e-05 -4.77282e-05
-0.000128891 3.8313e-05 3.8819e-05 -4.77198e-05
6.27646e-07 -5.46983e-07 -3.45696e-08 -4.8718e-05
0.000130146 -3.94022e-05 -3.88902e-05 -4.7728e-05
6.157e-07 -5.53946e-07 -2.64658e-08 -4.87183e-05
6.21694e-07 -5.50453e-07 -3.05318e-08 -4.87182e-05
-0.000127979 3.80446e-05 3.85433e-05 -4.77197e-05
-0.000126156 3.75078e-05 3.7992e-05 -4.77195e-05
0.000127446 -3.85768e-05 -3.80868e-05 -4.77275e-05
0.000129246 -3.9127e-05 -3.86224e-05 -4.77279e-05
-0.000127067 3.77762e-05 3.82676e-05 -4.77196e-05
6.39424e-07 -5.40117e-07 -4.25602e-08 -4.87177e-05
0.000128346 -3.88519e-05 -3.83546e-05 -4.77277e-05
6.27646e-07 -5.46983e-07 -3.45696e-08 -4.8718e-05
6.33556e-07 -5.43538e-07 -3.8579e-08 -4.87179e-05
-0.000126156 3.75078e-05 3.7992e-05 -4.77195e-05
-0.000124333 3.69708e-05 3.74407e-05 -4.77193e-05
0.000125646 -3.80266e-05 -3.7551e-05 -4.77272e-05
0.000127446 -3.85768e-05 -3.80868e-05 -4.77275e-05
-0.000125244 3.72393e-05 3.77163e-05 -4.77194e-05
6.51036e-07 -5.33348e-07 -5.04377e-08 -4.87175e-05
0.000126546 -3.83017e-05 -3.78189e-05 -4.77274e-05
6.39424e-07 -5.40117e-07 -4.25602e-08 -4.87177e-05
6.45251e-07 -5.36721e-07 -4.65131e-08 -4.87176e-05
-0.000124333 3.69708e-05 3.74407e-05 -4.77193e-05
-0.00012251 3.64338e-05 3.68896e-05 -4.77191e-05
0.000123845 -3.74766e-05 -3.70152e-05 -4.77269e-05
0.000125646 -3.80266e-05 -3.7551e-05 -4.77272e-05
-0.000123421 3.67023e-05 3.71652e-05 -4.77192e-05
6.62481e-07 -5.26677e-07 -5.8202e-08 -4.87172e-05
0.000124746 -3.77516e-05 -3.72831e-05 -4.77271e-05
6.51036e-07 -5.33348e-07 -5.04377e-08 -4.87175e-05
6.5678e-07 -5.3e-07 -5.43339e-08 -4.87173e-05
-0.00012251 3.64338e-05 3.68896e-05 -4.77191e-05
-0.000120687 3.58967e-05 3.63386e-05 -4.77189e-05
0.000122045 -3.69267e-05 -3.64792e-05 -4.77266e-05
0.000123845 -3.74766e-05 -3.70152e-05 -4.77269e-05
-0.000121598 3.61653e-05 3.66141e-05 -4.7719e-05
6.7376e-07 -5.20102e-07 -6.58531e-08 -4.8717e-05
0.000122945 -3.72016e-05 -3.67472e-05 -4.77267e-05
6.62481e-07 -5.26677e-07 -5.8202e-08 -4.87172e-05
6.68141e-07 -5.23377e-07 -6.20416e-08 -4.87171e-05
-0.000120687 3.58967e-05 3.63386e-05 -4.77189e-05
-0.000118864 3.53595e-05 3.57877e-05 -4.77187e-05
0.000120244 -3.63768e-05 -3.59431e-05 -4.77263e-05
0.000122045 -3.69267e-05 -3.64792e-05 -4.77266e-05
-0.000119775 3.56281e-05 3.60632e-05 -4.77188e-05
6.84871e-07 -5.13625e-07 -7.3391e-08 -4.87167e-05
0.000121144 -3.66517e-05 -3.62112e-05 -4.77264e-05
6.7376e-07 -5.20102e-07 -6.58531e-08 -4.8717e-05
6.79336e-07 -5.16852e-07 -6.96361e-08 -4.87168e-05
-0.000118864 3.53595e-05 3.57877e-05 -4.77187e-05
-0.000117042 3.48222e-05 3.5237e-05 -4.77185e-05
0.000118443 -3.5827e-05 -3.5407e-05 -4.7726e-05
0.000120244 -3.63768e-05 -3.59431e-05 -4.77263e-05
-0.000117953 3.50909e-05 3.55123e-05 -4.77186e-05
6.95815e-07 -5.07245e-07 -8.08157e-08 -4.87164e-05
0.000119344 -3.61019e-05 -3.56751e-05 -4.77261e-05
6.84871e-07 -5.13625e-07 -7.3391e-08 -4.87167e-05
6.90364e-07 -5.10423e-07 -7.71174e-08 -4.87166e-05
-0.000117042 3.48222e-05 3.5237e-05 -4.77185e-05
-0.00011522 3.42848e-05 3.46863e-05 -4.77183e-05
0.000116642 -3.52774e-05 -3.48707e-05 -4.77257e-05
0.000118443 -3.5827e-05 -3.5407e-05 -4.7726e-05
-0.000116131 3.45535e-05 3.49616e-05 -4.77184e-05
7.06592e-07 -5.00962e-07 -8.81271e-08 -4.87162e-05
0.000117543 -3.55522e-05 -3.51388e-05 -4.77258e-05
6.95815e-07 -5.07245e-07 -8.08157e-08 -4.87164e-05
7.01224e-07 -5.04092e-07 -8.44855e-08 -4.87163e-05
-0.00011522 3.42848e-05 3.46863e-05 -4.77183e-05
-0.000113397 3.37474e-05 3.41357e-05 -4.77181e-05
0.000114841 -3.47278e-05 -3.43343e-05 -4.77254e-05
0.000116642 -3.52774e-05 -3.48707e-05 -4.77257e-05
-0.000114308 3.40161e-05 3.4411e-05 -4.77182e-05
7.17203e-07 -4.94777e-07 -9.53254e-08 -4.87159e-05
0.000115742 -3.50026e-05 -3.46025e-05 -4.77255e-05
7.06592e-07 -5.00962e-07 -8.81271e-08 -4.87162e-05
7.11918e-07 -4.97857e-07 -9.17404e-08 -4.87161e-05
-0.000113397 3.37474e-05 3.41357e-05 -4.77181e-05
-0.000111576 3.32098e-05 3.35853e-05 -4.77179e-05
0.00011304 -3.41784e-05 -3.37977e-05 -4.77251e-05
0.000114841 -3.47278e-05 -3.43343e-05 -4.77254e-05
-0.000112486 3.34786e-05 3.38605e-05 -4.7718e-05
7.27646e-07 -4.88688e-07 -1.0241e-07 -4.87157e-05
0.00011394 -3.44531e-05 -3.4066e-05 -4.77252e-05
7.17203e-07 -4.94777e-07 -9.53254e-08 -4.87159e-05
7.22445e-07 -4.9172e-07 -9.88821e-08 -4.87158e-05
-0.000111576 3.32098e-05 3.35853e-05 -4.77179e-05
-0.000109754 3.26721e-05 3.3035e-05 -4.77177e-05
0.000111238 -3.3629e-05 -3.32611e-05 -4.77248e-05
0.00011304 -3.41784e-05 -3.37977e-05 -4.77251e-05
-0.000110665 3.2941e-05 3.33101e-05 -4.77178e-05
7.37923e-07 -4.82697e-07 -1.09382e-07 -4.87154e-05
0.000112139 -3.39037e-05 -3.35295e-05 -4.77249e-05
7.27646e-07 -4.88688e-07 -1.0241e-07 -4.87157e-05
7.32805e-07 -4.85681e-07 -1.0591e-07 -4.87156e-05
-0.000109754 3.26721e-05 3.3035e-05 -4.77177e-05
-0.000107932 3.21344e-05 3.24848e-05 -4.77176e-05
0.000109437 -3.30798e-05 -3.27244e-05 -4.77245e-05
0.000111238 -3.3629e-05 -3.32611e-05 -4.77248e-05
-0.000108843 3.24033e-05 3.27599e-05 -4.77176e-05
7.48032e-07 -4.76803e-07 -1.16241e-07 -4.87152e-05
0.000110338 -3.33544e-05 -3.29928e-05 -4.77246e-05
7.37923e-07 -4.82697e-07 -1.09382e-07 -4.87154e-05
7.42998e-07 -4.79738e-07 -1.12826e-07 -4.87153e-05
-0.000107932 3.21344e-05 3.24848e-05 -4.77176e-05
-0.000106111 3.15965e-05 3.19347e-05 -4.77174e-05
0.000107635 -3.25306e-05 -3.21876e-05 -4.77242e-05
0.000109437 -3.30798e-05 -3.27244e-05 -4.77245e-05
-0.000107021 3.18655e-05 3.22097e-05 -4.77175e-05
7.57975e-07 -4.71007e-07 -1.22986e-07 -4.8715e-05
0.000108536 -3.28052e-05 -3.2456e-05 -4.77243e-05
7.48032e-07 -4.76803e-07 -1.16241e-07 -4.87152e-05
7.53024e-07 -4.73893e-07 -1.19628e-07 -4.87151e-05
-0.000106111 3.15965e-05 3.19347e-05 -4.77174e-05
-0.00010429 3.10586e-05 3.13847e-05 -4.77172e-05
0.000105833 -3.19815e-05 -3.16506e-05 -4.77239e-05
0.000107635 -3.25306e-05 -3.21876e-05 -4.77242e-05
-0.0001052 3.13276e-05 3.16597e-05 -4.77173e-05
7.6775e-07 -4.65308e-07 -1.29618e-07 -4.87147e-05
0.000106734 -3.2256e-05 -3.19191e-05 -4.7724e-05
7.57975e-07 -4.71007e-07 -1.22986e-07 -4.8715e-05
7.62883e-07 -4.68145e-07 -1.26316e-07 -4.87148e-05
-0.00010429 3.10586e-05 3.13847e-05 -4.77172e-05
-0.000102469 3.05206e-05 3.08348e-05 -4.7717e-05
0.000104031 -3.14325e-05 -3.11136e-05 -4.77236e-05
0.000105833 -3.19815e-05 -3.16506e-05 -4.77239e-05
-0.000103379 3.07896e-05 3.11098e-05 -4.77171e-05
7.77359e-07 -4.59706e-07 -1.36137e-07 -4.87145e-05
0.000104932 -3.1707e-05 -3.13821e-05 -4.77238e-05
7.6775e-07 -4.65308e-07 -1.29618e-07 -4.87147e-05
7.72575e-07 -4.62494e-07 -1.32892e-07 -4.87146e-05
-0.000102469 3.05206e-05 3.08348e-05 -4.7717e-05
-0.000100648 2.99824e-05 3.02851e-05 -4.77169e-05
0.000102229 -3.08837e-05 -3.05764e-05 -4.77233e-05
0.000104031 -3.14325e-05 -3.11136e-05 -4.77236e-05
-0.000101558 3.02515e-05 3.056e-05 -4.7717e-05
7.868e-07 -4.54201e-07 -1.42543e-07 -4.87143e-05
0.00010313 -3.11581e-05 -3.0845e-05 -4.77235e-05
7.77359e-07 -4.59706e-07 -1.36137e-07 -4.87145e-05
7.821e-07 -4.56941e-07 -1.39354e-07 -4.87144e-05
-0.000100648 2.99824e-05 3.02851e-05 -4.77169e-05
-9.8827e-05 2.94442e-05 2.97355e-05 -4.77167e-05
0.000100426 -3.03349e-05 -3.00391e-05 -4.77231e-05
0.000102229 -3.08837e-05 -3.05764e-05 -4.77233e-05
-9.97373e-05 2.97133e-05 3.00103e-05 -4.77168e-05
7.96075e-07 -4.48793e-07 -1.48835e-07 -4.8714e-05
0.000101327 -3.06093e-05 -3.03078e-05 -4.77232e-05
7.868e-07 -4.54201e-07 -1.42543e-07 -4.87143e-05
7.91458e-07 -4.51485e-07 -1.45703e-07 -4.87142e-05
-9.8827e-05 2.94442e-05 2.97355e-05 -4.77167e-05
-9.70064e-05 2.89059e-05 2.91859e-05 -4.77166e-05
9.86237e-05 -2.97862e-05 -2.95018e-05 -4.77228e-05
0.000100426 -3.03349e-05 -3.00391e-05 -4.77231e-05
-9.79167e-05 2.91751e-05 2.94607e-05 -4.77166e-05
8.05183e-07 -4.43483e-07 -1.55014e-07 -4.87138e-05
9.9525e-05 -3.00605e-05 -2.97705e-05 -4.77229e-05
7.96075e-07 -4.48793e-07 -1.48835e-07 -4.8714e-05
8.00649e-07 -4.46126e-07 -1.51939e-07 -4.87139e-05
-9.70064e-05 2.89059e-05 2.91859e-05 -4.77166e-05
-9.51861e-05 2.83675e-05 2.86365e-05 -4.77164e-05
9.68209e-05 -2.92376e-05 -2.89643e-05 -4.77225e-05
9.86237e-05 -2.97862e-05 -2.95018e-05 -4.77228e-05
-9.60962e-05 2.86367e-05 2.89112e-05 -4.77165e-05
8.14123e-07 -4.3827e-07 -1.6108e-07 -4.87136e-05
9.77223e-05 -2.95119e-05 -2.9233e-05 -4.77226e-05
8.05183e-07 -4.43483e-07 -1.55014e-07 -4.87138e-05
8.09674e-07 -4.40865e-07 -1.58061e-07 -4.87137e-05
-9.51861e-05 2.83675e-05 2.86365e-05 -4.77164e-05
-9.33659e-05 2.7829e-05 2.80872e-05 -4.77162e-05
9.50181e-05 -2.86892e-05 -2.84267e-05 -4.77222e-05
9.68209e-05 -2.92376e-05 -2.89643e-05 -4.77225e-05
-9.4276e-05 2.80983e-05 2.83619e-05 -4.77163e-05
8.22897e-07 -4.33155e-07 -1.67032e-07 -4.87134e-05
9.59195e-05 -2.89634e-05 -2.86955e-05 -4.77224e-05
8.14123e-07 -4.3827e-07 -1.6108e-07 -4.87136e-05
8.18531e-07 -4.35701e-07 -1.6407e-07 -4.87135e-05
-9.33659e-05 2.7829e-05 2.80872e-05 -4.77162e-05
-9.15459e-05 2.72904e-05 2.75381e-05 -4.77161e-05
9.3215e-05 -2.81408e-05 -2.7889e-05 -4.7722e-05
9.50181e-05 -2.86892e-05 -2.84267e-05 -4.77222e-05
-9.24559e-05 2.75597e-05 2.78126e-05 -4.77162e-05
8.31503e-07 -4.28137e-07 -1.72871e-07 -4.87132e-05
9.41166e-05 -2.84149e-05 -2.81578e-05 -4.77221e-05
8.22897e-07 -4.33155e-07 -1.67032e-07 -4.87134e-05
8.27221e-07 -4.30634e-07 -1.69966e-07 -4.87133e-05
-9.15459e-05 2.72904e-05 2.75381e-05 -4.77161e-05
-8.9726e-05 2.67517e-05 2.6989e-05 -4.7716e-05
9.14118e-05 -2.75925e-05 -2.73512e-05 -4.77217e-05
9.3215e-05 -2.81408e-05 -2.7889e-05 -4.7722e-05
-9.06359e-05 2.70211e-05 2.72635e-05 -4.7716e-05
8.39943e-07 -4.23216e-07 -1.78597e-07 -4.8713e-05
9.23134e-05 -2.78666e-05 -2.76201e-05 -4.77218e-05
8.31503e-07 -4.28137e-07 -1.72871e-07 -4.87132e-05
8.35744e-07 -4.25664e-07 -1.75748e-07 -4.87131e-05
-8.9726e-05 2.67517e-05 2.6989e-05 -4.7716e-05
-8.79064e-05 2.6213e-05 2.644e-05 -4.77158e-05
8.96085e-05 -2.70443e-05 -2.68132e-05 -4.77215e-05
9.14118e-05 -2.75925e-05 -2.73512e-05 -4.77217e-05
-8.88162e-05 2.64824e-05 2.67145e-05 -4.77159e-05
8.48215e-07 -4.18392e-07 -1.8421e-07 -4.87128e-05
9.05102e-05 -2.73184e-05 -2.70822e-05 -4.77216e-05
8.39943e-07 -4.23216e-07 -1.78597e-07 -4.8713e-05
8.441e-07 -4.20792e-07 -1.81418e-07 -4.87129e-05
-8.79064e-05 2.6213e-05 2.644e-05 -4.77158e-05
-8.60869e-05 2.56741e-05 2.58912e-05 -4.77157e-05
8.7805e-05 -2.64962e-05 -2.62752e-05 -4.77212e-05
8.96085e-05 -2.70443e-05 -2.68132e-05 -4.77215e-05
-8.69966e-05 2.59436e-05 2.61656e-05 -4.77157e-05
8.56321e-07 -4.13666e-07 -1.89709e-07 -4.87126e-05
8.87068e-05 -2.67702e-05 -2.65442e-05 -4.77213e-05
8.48215e-07 -4.18392e-07 -1.8421e-07 -4.87128e-05
8.52289e-07 -4.16017e-07 -1.86974e-07 -4.87127e-05
-8.60869e-05 2.56741e-05 2.58912e-05 -4.77157e-05
-8.42676e-05 2.51352e-05 2.53425e-05 -4.77155e-05
8.60013e-05 -2.59482e-05 -2.57371e-05 -4.7721e-05
8.7805e-05 -2.64962e-05 -2.62752e-05 -4.77212e-05
-8.51772e-05 2.54046e-05 2.56168e-05 -4.77156e-05
8.64259e-07 -4.09037e-07 -1.95095e-07 -4.87124e-05
8.69032e-05 -2.62222e-05 -2.60061e-05 -4.77211e-05
8.56321e-07 -4.13666e-07 -1.89709e-07 -4.87126e-05
8.60311e-07 -4.1134e-07 -1.92416e-07 -4.87125e-05
-8.42676e-05 2.51352e-05 2.53425e-05 -4.77155e-05
-8.24484e-05 2.45961e-05 2.47938e-05 -4.77154e-05
8.41975e-05 -2.54003e-05 -2.51988e-05 -4.77207e-05
8.60013e-05 -2.59482e-05 -2.57371e-05 -4.7721e-05
-8.3358e-05 2.48656e-05 2.50681e-05 -4.77155e-05
8.7203e-07 -4.04506e-07 -2.00368e-07 -4.87122e-05
8.50994e-05 -2.56742e-05 -2.54679e-05 -4.77208e-05
8.64259e-07 -4.09037e-07 -1.95095e-07 -4.87124e-05
8.68165e-07 -4.06759e-07 -1.97745e-07 -4.87123e-05
-8.24484e-05 2.45961e-05 2.47938e-05 -4.77154e-05
-8.06294e-05 2.4057e-05 2.42453e-05 -4.77153e-05
8.23935e-05 -2.48525e-05 -2.46604e-05 -4.77205e-05
8.41975e-05 -2.54003e-05 -2.51988e-05 -4.77207e-05
-8.15389e-05 2.43265e-05 2.45196e-05 -4.77153e-05
8.79635e-07 -4.00072e-07 -2.05527e-07 -4.8712e-05
8.32955e-05 -2.51264e-05 -2.49296e-05 -4.77206e-05
8.7203e-07 -4.04506e-07 -2.00368e-07 -4.87122e-05
8.75853e-07 -4.02276e-07 -2.02961e-07 -4.87121e-05
-8.06294e-05 2.4057e-05 2.42453e-05 -4.77153e-05
-7.88106e-05 2.35177e-05 2.3697e-05 -4.77152e-05
8.05894e-05 -2.43048e-05 -2.4122e-05 -4.77202e-05
8.23935e-05 -2.48525e-05 -2.46604e-05 -4.77205e-05
-7.972e-05 2.37874e-05 2.39711e-05 -4.77152e-05
8.87072e-07 -3.95735e-07 -2.10573e-07 -4.87118e-05
8.14915e-05 -2.45786e-05 -2.43912e-05 -4.77203e-05
8.79635e-07 -4.00072e-07 -2.05527e-07 -4.8712e-05
8.83374e-07 -3.97891e-07 -2.08064e-07 -4.87119e-05
-7.88106e-05 2.35177e-05 2.3697e-05 -4.77152e-05
-7.6992e-05 2.29784e-05 2.31487e-05 -4.7715e-05
7.87851e-05 -2.37572e-05 -2.35834e-05 -4.772e-05
8.05894e-05 -2.43048e-05 -2.4122e-05 -4.77202e-05
-7.79013e-05 2.32481e-05 2.34228e-05 -4.77151e-05
8.94342e-07 -3.91495e-07 -2.15506e-07 -4.87116e-05
7.96873e-05 -2.4031e-05 -2.38527e-05 -4.77201e-05
8.87072e-07 -3.95735e-07 -2.10573e-07 -4.87118e-05
8.90727e-07 -3.93603e-07 -2.13053e-07 -4.87117e-05
-7.6992e-05 2.29784e-05 2.31487e-05 -4.7715e-05
-7.51735e-05 2.2439e-05 2.26005e-05 -4.77149e-05
7.69806e-05 -2.32097e-05 -2.30447e-05 -4.77198e-05
7.87851e-05 -2.37572e-05 -2.35834e-05 -4.772e-05
-7.60827e-05 2.27087e-05 2.28746e-05 -4.7715e-05
9.01445e-07 -3.87353e-07 -2.20325e-07 -4.87115e-05
7.78829e-05 -2.34834e-05 -2.33141e-05 -4.77199e-05
8.94342e-07 -3.91495e-07 -2.15506e-07 -4.87116e-05
8.97914e-07 -3.89412e-07 -2.17929e-07 -4.87115e-05
-7.51735e-05 2.2439e-05 2.26005e-05 -4.77149e-05
-7.33552e-05 2.18995e-05 2.20525e-05 -4.77148e-05
7.5176e-05 -2.26623e-05 -2.25059e-05 -4.77195e-05
7.69806e-05 -2.32097e-05 -2.30447e-05 -4.77198e-05
-7.42644e-05 2.21692e-05 2.23265e-05 -4.77149e-05
9.0838e-07 -3.83308e-07 -2.25031e-07 -4.87113e-05
7.60784e-05 -2.2936e-05 -2.27753e-05 -4.77196e-05
9.01445e-07 -3.87353e-07 -2.20325e-07 -4.87115e-05
9.04933e-07 -3.85318e-07 -2.22692e-07 -4.87114e-05
-7.33552e-05 2.18995e-05 2.20525e-05 -4.77148e-05
-7.15371e-05 2.13599e-05 2.15045e-05 -4.77147e-05
7.33713e-05 -2.21149e-05 -2.1967e-05 -4.77193e-05
7.5176e-05 -2.26623e-05 -2.25059e-05 -4.77195e-05
-7.24462e-05 2.16297e-05 2.17785e-05 -4.77148e-05
9.15149e-07 -3.79361e-07 -2.29624e-07 -4.87111e-05
7.42737e-05 -2.23886e-05 -2.22365e-05 -4.77194e-05
9.0838e-07 -3.83308e-07 -2.25031e-07 -4.87113e-05
9.11786e-07 -3.81322e-07 -2.27341e-07 -4.87112e-05
-7.15371e-05 2.13599e-05 2.15045e-05 -4.77147e-05
-6.97192e-05 2.08202e-05 2.09567e-05 -4.77146e-05
7.15663e-05 -2.15677e-05 -2.1428e-05 -4.77191e-05
7.33713e-05 -2.21149e-05 -2.1967e-05 -4.77193e-05
-7.06281e-05 2.109e-05 2.12306e-05 -4.77146e-05
9.21751e-07 -3.75511e-07 -2.34103e-07 -4.87109e-05
7.24688e-05 -2.18413e-05 -2.16975e-05 -4.77192e-05
9.15149e-07 -3.79361e-07 -2.29624e-07 -4.87111e-05
9.18471e-07 -3.77423e-07 -2.31877e-07 -4.8711e-05
-6.97192e-05 2.08202e-05 2.09567e-05 -4.77146e-05
-6.79014e-05 2.02804e-05 2.0409e-05 -4.77145e-05
6.97613e-05 -2.10206e-05 -2.08888e-05 -4.77189e-05
7.15663e-05 -2.15677e-05 -2.1428e-05 -4.77191e-05
-6.88103e-05 2.05503e-05 2.06829e-05 -4.77145e-05
9.28185e-07 -3.71758e-07 -2.38469e-07 -4.87108e-05
7.06638e-05 -2.12942e-05 -2.11584e-05 -4.7719e-05
9.21751e-07 -3.75511e-07 -2.34103e-07 -4.87109e-05
9.24988e-07 -3.73622e-07 -2.363e-07 -4.87109e-05
-6.79014e-05 2.02804e-05 2.0409e-05 -4.77145e-05
-6.60838e-05 1.97405e-05 1.98614e-05 -4.77144e-05
6.7956e-05 -2.04736e-05 -2.03496e-05 -4.77187e-05
6.97613e-05 -2.10206e-05 -2.08888e-05 -4.77189e-05
-6.69926e-05 2.00104e-05 2.01352e-05 -4.77144e-05
9.34452e-07 -3.68103e-07 -2.42721e-07 -4.87106e-05
6.88586e-05 -2.07471e-05 -2.06192e-05 -4.77188e-05
9.28185e-07 -3.71758e-07 -2.38469e-07 -4.87108e-05
9.31339e-07 -3.69918e-07 -2.40609e-07 -4.87107e-05
-6.60838e-05 1.97405e-05 1.98614e-05 -4.77144e-05
-6.42664e-05 1.92005e-05 1.93139e-05 -4.77143e-05
6.61506e-05 -1.99267e-05 -1.98103e-05 -4.77184e-05
6.7956e-05 -2.04736e-05 -2.03496e-05 -4.77187e-05
-6.51751e-05 1.94705e-05 1.95877e-05 -4.77143e-05
9.40552e-07 -3.64546e-07 -2.4686e-07 -4.87105e-05
6.70533e-05 -2.02001e-05 -2.008e-05 -4.77185e-05
9.34452e-07 -3.68103e-07 -2.42721e-07 -4.87106e-05
9.37523e-07 -3.66312e-07 -2.44805e-07 -4.87105e-05
-6.42664e-05 1.92005e-05 1.93139e-05 -4.77143e-05
-6.24491e-05 1.86604e-05 1.87666e-05 -4.77142e-05
6.4345e-05 -1.93798e-05 -1.92708e-05 -4.77182e-05
6.61506e-05 -1.99267e-05 -1.98103e-05 -4.77184e-05
-6.33577e-05 1.89305e-05 1.90402e-05 -4.77143e-05
9.46485e-07 -3.61086e-07 -2.50885e-07 -4.87103e-05
6.52478e-05 -1.96532e-05 -1.95406e-05 -4.77183e-05
9.40552e-07 -3.64546e-07 -2.4686e-07 -4.87105e-05
9.4354e-07 -3.62804e-07 -2.48887e-07 -4.87104e-05
-6.24491e-05 1.86604e-05 1.87666e-05 -4.77142e-05
-6.0632e-05 1.81202e-05 1.82193e-05 -4.77141e-05
6.25393e-05 -1.88331e-05 -1.87312e-05 -4.7718e-05
6.4345e-05 -1.93798e-05 -1.92708e-05 -4.77182e-05
-6.15405e-05 1.83903e-05 1.84929e-05 -4.77142e-05
9.52252e-07 -3.57725e-07 -2.54797e-07 -4.87102e-05
6.34422e-05 -1.91064e-05 -1.9001e-05 -4.77181e-05
9.46485e-07 -3.61086e-07 -2.50885e-07 -4.87103e-05
9.49389e-07 -3.59393e-07 -2.52855e-07 -4.87102e-05
-6.0632e-05 1.81202e-05 1.82193e-05 -4.77141e-05
-5.88151e-05 1.758e-05 1.76722e-05 -4.7714e-05
6.07334e-05 -1.82865e-05 -1.81916e-05 -4.77178e-05
6.25393e-05 -1.88331e-05 -1.87312e-05 -4.7718e-05
-5.97235e-05 1.78501e-05 1.79457e-05 -4.77141e-05
9.57852e-07 -3.54463e-07 -2.58595e-07 -4.871e-05
6.16364e-05 -1.85598e-05 -1.84614e-05 -4.77179e-05
9.52252e-07 -3.57725e-07 -2.54797e-07 -4.87102e-05
9.55073e-07 -3.56082e-07 -2.5671e-07 -4.87101e-05
-5.88151e-05 1.758e-05 1.76722e-05 -4.7714e-05
-5.69983e-05 1.70396e-05 1.71252e-05 -4.7714e-05
5.89274e-05 -1.77399e-05 -1.76518e-05 -4.77176e-05
6.07334e-05 -1.82865e-05 -1.81916e-05 -4.77178e-05
-5.79067e-05 1.73098e-05 1.73987e-05 -4.7714e-05
9.63287e-07 -3.51301e-07 -2.6228e-07 -4.87099e-05
5.98304e-05 -1.80132e-05 -1.79217e-05 -4.77177e-05
9.57852e-07 -3.54463e-07 -2.58595e-07 -4.871e-05
9.6059e-07 -3.5287e-07 -2.60452e-07 -4.871e-05
-5.69983e-05 1.70396e-05 1.71252e-05 -4.7714e-05
-5.51817e-05 1.64992e-05 1.65782e-05 -4.77139e-05
5.71212e-05 -1.71935e-05 -1.71119e-05 -4.77175e-05
5.89274e-05 -1.77399e-05 -1.76518e-05 -4.77176e-05
-5.609e-05 1.67694e-05 1.68517e-05 -4.77139e-05
9.68558e-07 -3.48241e-07 -2.6585e-07 -4.87097e-05
5.80243e-05 -1.74667e-05 -1.73818e-05 -4.77176e-05
9.63287e-07 -3.51301e-07 -2.6228e-07 -4.87099e-05
9.65943e-07 -3.49758e-07 -2.64079e-07 -4.87098e-05
-5.51817e-05 1.64992e-05 1.65782e-05 -4.77139e-05
-5.33653e-05 1.59586e-05 1.60314e-05 -4.77138e-05
5.53149e-05 -1.66471e-05 -1.65719e-05 -4.77173e-05
5.71212e-05 -1.71935e-05 -1.71119e-05 -4.77175e-05
-5.42735e-05 1.62289e-05 1.63048e-05 -4.77138e-05
9.73666e-07 -3.45282e-07 -2.69307e-07 -4.87096e-05
5.62181e-05 -1.69203e-05 -1.68419e-05 -4.77174e-05
9.68558e-07 -3.48241e-07 -2.6585e-07 -4.87097e-05
9.71132e-07 -3.46749e-07 -2.67593e-07 -4.87097e-05
-5.33653e-05 1.59586e-05 1.60314e-05 -4.77138e-05
-5.1549e-05 1.5418e-05 1.54848e-05 -4.77137e-05
5.35084e-05 -1.61009e-05 -1.60318e-05 -4.77171e-05
5.53149e-05 -1.66471e-05 -1.65719e-05 -4.77173e-05
-5.24571e-05 1.56883e-05 1.57581e-05 -4.77138e-05
9.78613e-07 -3.42429e-07 -2.7265e-07 -4.87095e-05
5.44116e-05 -1.6374e-05 -1.63018e-05 -4.77172e-05
9.73666e-07 -3.45282e-07 -2.69307e-07 -4.87096e-05
9.76159e-07 -3.43842e-07 -2.70993e-07 -4.87096e-05
-5.1549e-05 1.5418e-05 1.54848e-05 -4.77137e-05
-4.97329e-05 1.48772e-05 1.49382e-05 -4.77137e-05
5.17017e-05 -1.55548e-05 -1.54915e-05 -4.77169e-05
5.35084e-05 -1.61009e-05 -1.60318e-05 -4.77171e-05
-5.0641e-05 1.51476e-05 1.52114e-05 -4.77137e-05
9.83402e-07 -3.39682e-07 -2.7588e-07 -4.87094e-05
5.2605e-05 -1.58278e-05 -1.57617e-05 -4.7717e-05
9.78613e-07 -3.42429e-07 -2.7265e-07 -4.87095e-05
9.81027e-07 -3.41042e-07 -2.74279e-07 -4.87094e-05
-4.97329e-05 1.48772e-05 1.49382e-05 -4.77137e-05
-4.7917e-05 1.43363e-05 1.43917e-05 -4.77136e-05
4.98949e-05 -1.50088e-05 -1.49512e-05 -4.77168e-05
5.17017e-05 -1.55548e-05 -1.54915e-05 -4.77169e-05
-4.88249e-05 1.46068e-05 1.46649e-05 -4.77136e-05
9.88037e-07 -3.37044e-07 -2.78997e-07 -4.87092e-05
5.07983e-05 -1.52818e-05 -1.52214e-05 -4.77169e-05
9.83402e-07 -3.39682e-07 -2.7588e-07 -4.87094e-05
9.85738e-07 -3.38349e-07 -2.77453e-07 -4.87093e-05
-4.7917e-05 1.43363e-05 1.43917e-05 -4.77136e-05
-4.61012e-05 1.37954e-05 1.38454e-05 -4.77135e-05
4.8088e-05 -1.44629e-05 -1.44107e-05 -4.77166e-05
4.98949e-05 -1.50088e-05 -1.49512e-05 -4.77168e-05
-4.70091e-05 1.40659e-05 1.41185e-05 -4.77136e-05
9.92522e-07 -3.34518e-07 -2.82002e-07 -4.87091e-05
4.89914e-05 -1.47358e-05 -1.4681e-05 -4.77167e-05
9.88037e-07 -3.37044e-07 -2.78997e-07 -4.87092e-05
9.90298e-07 -3.35767e-07 -2.80513e-07 -4.87092e-05
-4.61012e-05 1.37954e-05 1.38454e-05 -4.77135e-05
-4.42856e-05 1.32543e-05 1.32991e-05 -4.77134e-05
4.62809e-05 -1.39171e-05 -1.38702e-05 -4.77165e-05
4.8088e-05 -1.44629e-05 -1.44107e-05 -4.77166e-05
-4.51934e-05 1.35248e-05 1.35722e-05 -4.77135e-05
9.96862e-07 -3.32104e-07 -2.84897e-07 -4.8709e-05
4.71844e-05 -1.419e-05 -1.41405e-05 -4.77165e-05
9.92522e-07 -3.34518e-07 -2.82002e-07 -4.87091e-05
9.9471e-07 -3.33297e-07 -2.83463e-07 -4.87091e-05
-4.42856e-05 1.32543e-05 1.32991e-05 -4.77134e-05
-4.24701e-05 1.27131e-05 1.2753e-05 -4.77133e-05
4.44736e-05 -1.33714e-05 -1.33295e-05 -4.77163e-05
4.62809e-05 -1.39171e-05 -1.38702e-05 -4.77165e-05
-4.33778e-05 1.29837e-05 1.3026e-05 -4.77134e-05
1.00106e-06 -3.29801e-07 -2.87684e-07 -4.87089e-05
4.53773e-05 -1.36442e-05 -1.35999e-05 -4.77164e-05
9.96862e-07 -3.32104e-07 -2.84897e-07 -4.8709e-05
9.9898e-07 -3.30939e-07 -2.86303e-07 -4.8709e-05
-4.24701e-05 1.27131e-05 1.2753e-05 -4.77133e-05
-4.06547e-05 1.21718e-05 1.2207e-05 -4.77132e-05
4.26663e-05 -1.28258e-05 -1.27888e-05 -4.77162e-05
4.44736e-05 -1.33714e-05 -1.33295e-05 -4.77163e-05
-4.15624e-05 1.24425e-05 1.248e-05 -4.77133e-05
1.00513e-06 -3.27603e-07 -2.90367e-07 -4.87088e-05
4.357e-05 -1.30986e-05 -1.30592e-05 -4.77163e-05
1.00106e-06 -3.29801e-07 -2.87684e-07 -4.87089e-05
1.00311e-06 -3.28689e-07 -2.89038e-07 -4.87088e-05
-4.06547e-05 1.21718e-05 1.2207e-05 -4.77132e-05
-3.88396e-05 1.16305e-05 1.1661e-05 -4.77131e-05
4.08589e-05 -1.22804e-05 -1.22479e-05 -4.7716e-05
4.26663e-05 -1.28258e-05 -1.27888e-05 -4.77162e-05
-3.97471e-05 1.19012e-05 1.1934e-05 -4.77132e-05
1.00905e-06 -3.25495e-07 -2.92953e-07 -4.87086e-05
4.17626e-05 -1.25531e-05 -1.25184e-05 -4.77161e-05
1.00513e-06 -3.27603e-07 -2.90367e-07 -4.87088e-05
1.00711e-06 -3.26539e-07 -2.91672e-07 -4.87087e-05
-3.88396e-05 1.16305e-05 1.1661e-05 -4.77131e-05
-3.70245e-05 1.10891e-05 1.11152e-05 -4.7713e-05
3.90513e-05 -1.1735e-05 -1.1707e-05 -4.77158e-05
4.08589e-05 -1.22804e-05 -1.22479e-05 -4.7716e-05
-3.7932e-05 1.13598e-05 1.13881e-05 -4.7713e-05
1.01284e-06 -3.23451e-07 -2.9545e-07 -4.87084e-05
3.99551e-05 -1.20077e-05 -1.19775e-05 -4.77159e-05
1.00905e-06 -3.25495e-07 -2.92953e-07 -4.87086e-05
1.01096e-06 -3.24468e-07 -2.94212e-07 -4.87085e-05
-3.70245e-05 1.10891e-05 1.11152e-05 -4.7713e-05
-3.52097e-05 1.05477e-05 1.05694e-05 -4.77128e-05
3.72436e-05 -1.11896e-05 -1.1166e-05 -4.77156e-05
3.90513e-05 -1.1735e-05 -1.1707e-05 -4.77158e-05
-3.61171e-05 1.08184e-05 1.08423e-05 -4.77129e-05
1.01645e-06 -3.21424e-07 -2.9787e-07 -4.87082e-05
3.81474e-05 -1.14623e-05 -1.14365e-05 -4.77157e-05
1.01284e-06 -3.23451e-07 -2.9545e-07 -4.87084e-05
1.01467e-06 -3.2244e-07 -2.96669e-07 -4.87083e-05
-3.52097e-05 1.05477e-05 1.05694e-05 -4.77128e-05
-3.33952e-05 1.00064e-05 1.00238e-05 -4.77125e-05
3.54357e-05 -1.06443e-05 -1.06249e-05 -4.77152e-05
3.72436e-05 -1.11896e-05 -1.1166e-05 -4.77156e-05
-3.43024e-05 1.0277e-05 1.02966e-05 -4.77127e-05
1.01986e-06 -3.19335e-07 -3.00227e-07 -4.87078e-05
3.63397e-05 -1.0917e-05 -1.08955e-05 -4.77154e-05
1.01645e-06 -3.21424e-07 -2.9787e-07 -4.87082e-05
1.01819e-06 -3.20394e-07 -2.99055e-07 -4.8708e-05
-3.33952e-05 1.00064e-05 1.00238e-05 -4.77125e-05
-3.15809e-05 9.46524e-06 9.47814e-06 -4.77123e-05
3.36277e-05 -1.00987e-05 -1.00838e-05 -4.77147e-05
3.54357e-05 -1.06443e-05 -1.06249e-05 -4.77152e-05
-3.2488e-05 9.73579e-06 9.75094e-06 -4.77124e-05
1.02299e-06 -3.17064e-07 -3.02541e-07 -4.87075e-05
3.45317e-05 -1.03715e-05 -1.03544e-05 -4.7715e-05
1.01986e-06 -3.19335e-07 -3.00227e-07 -4.87078e-05
1.02147e-06 -3.18232e-07 -3.01388e-07 -4.87077e-05
-3.15809e-05 9.46524e-06 9.47814e-06 -4.77123e-05
-2.9767e-05 8.92431e-06 8.9326e-06 -4.77123e-05
3.18192e-05 -9.55271e-06 -9.5428e-06 -4.77142e-05
3.36277e-05 -1.00987e-05 -1.00838e-05 -4.77147e-05
-3.06739e-05 9.19474e-06 9.20536e-06 -4.77123e-05
1.02571e-06 -3.1443e-07 -3.04833e-07 -4.87071e-05
3.27235e-05 -9.82579e-06 -9.81331e-06 -4.77145e-05
1.02299e-06 -3.17064e-07 -3.02541e-07 -4.87075e-05
1.02441e-06 -3.15807e-07 -3.03687e-07 -4.87073e-05
-2.9767e-05 8.92431e-06 8.9326e-06 -4.77123e-05
-2.79536e-05 8.38361e-06 8.38712e-06 -4.77127e-05
3.001e-05 -9.00578e-06 -9.00181e-06 -4.77137e-05
3.18192e-05 -9.55271e-06 -9.5428e-06 -4.77142e-05
-2.88603e-05 8.65394e-06 8.65986e-06 -4.77124e-05
1.0278e-06 -3.11171e-07 -3.07127e-07 -4.87072e-05
3.09148e-05 -9.27941e-06 -9.2723e-06 -4.77139e-05
1.02571e-06 -3.1443e-07 -3.04833e-07 -4.87071e-05
1.02685e-06 -3.12899e-07 -3.05978e-07 -4.87071e-05
-2.79536e-05 8.38361e-06 8.38712e-06 -4.77127e-05
-2.61404e-05 7.84293e-06 7.84178e-06 -4.77145e-05
2.81994e-05 -8.457e-06 -8.46103e-06 -4.7714e-05
3.001e-05 -9.00578e-06 -9.00181e-06 -4.77137e-05
-2.70469e-05 8.1133e-06 8.11441e-06 -4.77133e-05
1.02896e-06 -3.06927e-07 -3.09443e-07 -4.87087e-05
2.91049e-05 -8.73169e-06 -8.73137e-06 -4.77137e-05
1.0278e-06 -3.11171e-07 -3.07127e-07 -4.87072e-05
1.02852e-06 -3.092e-07 -3.0828e-07 -4.87077e-05
-2.61404e-05 7.84293e-06 7.84178e-06 -4.77145e-05
-2.43267e-05 7.30158e-06 7.29649e-06 -4.77194e-05
2.63857e-05 -7.90477e-06 -7.92038e-06 -4.77166e-05
2.81994e-05 -8.457e-06 -8.46103e-06 -4.7714e-05
-2.52338e-05 7.57243e-06 7.56915e-06 -4.77164e-05
1.02873e-06 -3.01212e-07 -3.11793e-07 -4.87134e-05
2.72931e-05 -8.18147e-06 -8.19071e-06 -4.77149e-05
1.02896e-06 -3.06927e-07 -3.09443e-07 -4.87087e-05
1.02905e-06 -3.04289e-07 -3.10613e-07 -4.87104e-05
-2.43267e-05 7.30158e-06 7.29649e-06 -4.77194e-05
-2.25115e-05 6.75773e-06 6.75163e-06 -4.77312e-05
2.45666e-05 -7.3461e-06 -7.38023e-06 -4.77248e-05
2.63857e-05 -7.90477e-06 -7.92038e-06 -4.77166e-05
-2.34193e-05 7.03011e-06 7.02394e-06 -4.77241e-05
1.02645e-06 -2.93412e-07 -3.1416e-07 -4.87258e-05
2.54769e-05 -7.62647e-06 -7.65017e-06 -4.77197e-05
1.02873e-06 -3.01212e-07 -3.11793e-07 -4.87134e-05
1.02789e-06 -2.97618e-07 -3.12975e-07 -4.87184e-05
-2.25115e-05 6.75773e-06 6.75163e-06 -4.77312e-05
-2.06899e-05 6.20794e-06 6.20658e-06 -4.77572e-05
2.27358e-05 -6.77613e-06 -6.83984e-06 -4.77453e-05
2.45666e-05 -7.3461e-06 -7.38023e-06 -4.77248e-05
-2.16022e-05 6.48399e-06 6.47923e-06 -4.77417e-05
1.02125e-06 -2.82775e-07 -3.16488e-07 -4.87542e-05
2.36534e-05 -7.06303e-06 -7.11017e-06 -4.77329e-05
1.02645e-06 -2.93412e-07 -3.1416e-07 -4.87258e-05
1.02428e-06 -2.88496e-07 -3.15335e-07 -4.87371e-05
-2.06899e-05 6.20794e-06 6.20658e-06 -4.77572e-05
-1.88574e-05 5.6449e-06 5.66251e-06 -4.78107e-05
2.08864e-05 -6.18597e-06 -6.30019e-06 -4.77909e-05
2.27358e-05 -6.77613e-06 -6.83984e-06 -4.77453e-05
-1.9775e-05 5.92855e-06 5.93419e-06 -4.77794e-05
1.01198e-06 -2.68502e-07 -3.18632e-07 -4.88143e-05
2.18135e-05 -6.48414e-06 -6.56972e-06 -4.77639e-05
1.02125e-06 -2.82775e-07 -3.16488e-07 -4.87542e-05
1.0172e-06 -2.76149e-07 -3.17593e-07 -4.87793e-05
-1.88574e-05 5.6449e-06 5.66251e-06 -4.78107e-05
-1.69953e-05 5.05779e-06 5.11606e-06 -4.79157e-05
1.89972e-05 -5.56329e-06 -5.75739e-06 -4.7885e-05
2.08864e-05 -6.18597e-06 -6.30019e-06 -4.77909e-05
-1.79325e-05 5.35568e-06 5.39006e-06 -4.78546e-05
9.97232e-07 -2.49787e-07 -3.20334e-07 -4.89333e-05
1.99494e-05 -5.8801e-06 -6.0297e-06 -4.78298e-05
1.01198e-06 -2.68502e-07 -3.18632e-07 -4.88143e-05
1.00539e-06 -2.5973e-07 -3.19567e-07 -4.88634e-05
-1.69953e-05 5.05779e-06 5.11606e-06 -4.79157e-05
-1.5091e-05 4.42609e-06 4.57067e-06 -4.811e-05
1.70527e-05 -4.88661e-06 -5.21404e-06 -4.80647e-05
1.89972e-05 -5.56329e-06 -5.75739e-06 -4.7885e-05
-1.60475e-05 4.74824e-06 4.84255e-06 -4.79988e-05
9.75496e-07 -2.26257e-07 -3.21102e-07 -4.91559e-05
1.80312e-05 -5.23244e-06 -5.48518e-06 -4.79613e-05
9.97232e-07 -2.49787e-07 -3.20334e-07 -4.89333e-05
9.8733e-07 -2.38643e-07 -3.20866e-07 -4.90295e-05
-1.5091e-05 4.42609e-06 4.57067e-06 -4.811e-05
-1.309e-05 3.7311e-06 4.01095e-06 -4.84542e-05
1.49954e-05 -4.13766e-06 -4.65332e-06 -4.83908e-05
1.70527e-05 -4.88661e-06 -5.21404e-06 -4.80647e-05
-1.41103e-05 4.08952e-06 4.2946e-06 -4.82583e-05
9.45259e-07 -1.98115e-07 -3.20204e-07 -4.95476e-05
1.6046e-05 -4.52406e-06 -4.93799e-06 -4.82043e-05
9.75496e-07 -2.26257e-07 -3.21102e-07 -4.91559e-05
9.61537e-07 -2.12653e-07 -3.2095e-07 -4.93226e-05
-1.309e-05 3.7311e-06 4.01095e-06 -4.84542e-05
-1.0984e-05 2.94122e-06 3.44689e-06 -4.9018e-05
1.28153e-05 -3.28819e-06 -4.08304e-06 -4.89336e-05
1.49954e-05 -4.13766e-06 -4.65332e-06 -4.83908e-05
-1.20435e-05 3.34549e-06 3.7277e-06 -4.87043e-05
9.05932e-07 -1.67671e-07 -3.16397e-07 -5.01891e-05
1.39141e-05 -3.72255e-06 -4.3678e-06 -4.86307e-05
9.45259e-07 -1.98115e-07 -3.20204e-07 -4.95476e-05
9.26708e-07 -1.82999e-07 -3.18733e-07 -4.98375e-05
-1.0984e-05 2.94122e-06 3.44689e-06 -4.9018e-05
-8.67e-06 2.09176e-06 2.81924e-06 -4.98775e-05
1.04103e-05 -2.38242e-06 -3.44052e-06 -4.97729e-05
1.28153e-05 -3.28819e-06 -4.08304e-06 -4.89336e-05
-9.87249e-06 2.52616e-06 3.14843e-06 -4.94055e-05
8.58272e-07 -1.39465e-07 -3.0806e-07 -5.11408e-05
1.16603e-05 -2.8437e-06 -3.77852e-06 -4.93105e-05
9.05932e-07 -1.67671e-07 -3.16397e-07 -5.01891e-05
8.83072e-07 -1.52703e-07 -3.13015e-07 -5.06126e-05
-8.67e-06 2.09176e-06 2.81924e-06 -4.98775e-05
-6.28664e-06 1.24754e-06 2.15961e-06 -5.09891e-05
7.92676e-06 -1.50297e-06 -2.75305e-06 -5.08709e-05
1.04103e-05 -2.38242e-06 -3.44052e-06 -4.97729e-05
-7.45016e-06 1.64203e-06 2.4892e-06 -5.04123e-05
8.07592e-07 -1.24422e-07 -2.92787e-07 -5.23373e-05
9.1407e-06 -1.91074e-06 -3.09856e-06 -5.02996e-05
8.58272e-07 -1.39465e-07 -3.0806e-07 -5.11408e-05
8.32717e-07 -1.29524e-07 -3.01368e-07 -5.17413e-05
-6.28664e-06 1.24754e-06 2.15961e-06 -5.09891e-05
-3.83922e-06 8.58771e-07 1.27734e-06 -5.20769e-05
5.38741e-06 -1.13217e-06 -1.82367e-06 -5.19641e-05
7.92676e-06 -1.50297e-06 -2.75305e-06 -5.08709e-05
-5.10711e-06 9.81219e-07 1.76824e-06 -5.15651e-05
7.63513e-07 -1.37755e-07 -2.68182e-07 -5.3358e-05
6.69886e-06 -1.2364e-06 -2.34106e-06 -5.14462e-05
8.07592e-07 -1.24422e-07 -2.92787e-07 -5.23373e-05
7.84117e-07 -1.26053e-07 -2.82028e-07 -5.28762e-05
-3.83922e-06 8.58771e-07 1.27734e-06 -5.20769e-05
-2.11633e-06 1.43521e-06 2.91913e-07 -5.2108e-05
3.61457e-06 -1.82609e-06 -7.66489e-07 -5.20306e-05
5.38741e-06 -1.13217e-06 -1.82367e-06 -5.19641e-05
-2.75247e-06 9.29618e-07 7.81222e-07 -5.23293e-05
7.45717e-07 -2.03986e-07 -2.3217e-07 -5.30919e-05
4.26758e-06 -1.24576e-06 -1.29506e-06 -5.22298e-05
7.63513e-07 -1.37755e-07 -2.68182e-07 -5.3358e-05
7.4948e-07 -1.62954e-07 -2.51368e-07 -5.35561e-05
-2.11633e-06 1.43521e-06 2.91913e-07 -5.2108e-05
-1.16706e-06 4.02906e-06 -1.22657e-06 -4.91789e-05
2.69704e-06 -4.68789e-06 8.53223e-07 -4.91703e-05
3.61457e-06 -1.82609e-06 -7.66489e-07 -5.20306e-05
-1.67361e-06 2.55507e-06 -3.77769e-07 -5.11673e-05
7.6964e-07 -3.40528e-07 -1.83905e-07 -4.96762e-05
3.17538e-06 -3.05943e-06 -4.96921e-08 -5.11211e-05
7.45717e-07 -2.03986e-07 -2.3217e-07 -5.30919e-05
7.5238e-07 -2.62753e-07 -2.0984e-07 -5.17921e-05
-1.16706e-06 4.02906e-06 -1.22657e-06 -4.91789e-05
-1.92195e-06 7.39087e-06 -2.34382e-06 -4.01481e-05
3.59096e-06 -8.46449e-06 2.08866e-06 -4.02271e-05
2.69704e-06 -4.68789e-06 8.53223e-07 -4.91703e-05
-1.08657e-06 5.59108e-06 -1.93051e-06 -4.56357e-05
8.52331e-07 -5.58339e-07 -1.25997e-07 -4.07369e-05
2.67155e-06 -6.4438e-06 1.61668e-06 -4.56681e-05
7.6964e-07 -3.40528e-07 -1.83905e-07 -4.96762e-05
8.0158e-07 -4.38522e-07 -1.55596e-07 -4.62671e-05
-1.92195e-06 7.39087e-06 -2.34382e-06 -4.01481e-05
-4.11003e-06 1.22598e-05 -3.49277e-06 -2.30058e-05
5.98526e-06 -1.37685e-05 3.33569e-06 -2.29503e-05
3.59096e-06 -8.46449e-06 2.08866e-06 -4.02271e-05
-3.11564e-06 9.6248e-06 -2.78964e-06 -3.26498e-05
9.98259e-07 -7.14522e-07 -1.21602e-07 -2.23147e-05
4.88545e-06 -1.09278e-05 2.58958e-06 -3.27186e-05
8.52331e-07 -5.58339e-07 -1.25997e-07 -4.07369e-05
9.18879e-07 -6.82211e-07 -1.01429e-07 -3.27442e-05
0.000311698 0 -0.000133585 0.000179712
0.000317598 -4.44123e-05 -0.00011708 5.94827e-05
0.000988949 -0.000131469 -0.000367491 -4.53543e-06
0.000873955 0 -0.000374552 0.000113956
0.000304439 -1.89269e-05 -0.000122362 0.000113352
0.000653043 -8.80412e-05 -0.000242143 3.47249e-05
0.000947431 -7.39607e-05 -0.000374344 4.23621e-05
0.000579802 0 -0.000248487 0.000163846
0.000625609 -4.19187e-05 -0.000250153 8.09208e-05
0.000317598 -4.44123e-05 -0.00011708 5.94827e-05
0.000342907 -7.31591e-05 -0.000115606 -1.26017e-05
0.0010398 -0.000240417 -0.000342592 -4.13603e-05
0.000988949 -0.000131469 -0.000367491 -4.53543e-06
0.000335611 -6.15888e-05 -0.000117438 1.70933e-05
0.00068702 -0.000151014 -0.000229717 -2.29196e-05
0.00101442 -0.000189381 -0.000353589 -2.82633e-05
0.000653043 -8.80412e-05 -0.000242143 3.47249e-05
0.000670653 -0.00012389 -0.000234327 3.51616e-06
0.000342907 -7.31591e-05 -0.000115606 -1.26017e-05
0.000350551 -9.4524e-05 -0.000109726 -4.52594e-05
0.00106575 -0.000295656 -0.00033004 -4.83979e-05
0.0010398 -0.000240417 -0.000342592 -4.13603e-05
0.000345785 -8.45504e-05 -0.000111958 -3.22917e-05
0.000707003 -0.000191357 -0.000220991 -4.77393e-05
0.00105895 -0.000274649 -0.000336129 -4.7787e-05
0.00068702 -0.000151014 -0.000229717 -2.29196e-05
0.000699889 -0.000173719 -0.000225501 -4.00718e-05
0.000350551 -9.4524e-05 -0.000109726 -4.52594e-05
0.000354648 -0.000104744 -0.000107102 -5.6883e-05
0.00106501 -0.000317526 -0.000320351 -4.46803e-05
0.00106575 -0.000295656 -0.00033004 -4.83979e-05
0.00035443 -0.000100943 -0.000108637 -5.30521e-05
0.000710551 -0.000209482 -0.000214744 -5.31786e-05
0.00106587 -0.000309358 -0.000324221 -4.63277e-05
0.000707003 -0.000191357 -0.000220991 -4.77393e-05
0.000710008 -0.000202743 -0.000217399 -5.11651e-05
0.000354648 -0.000104744 -0.000107102 -5.6883e-05
0.000352467 -0.000108816 -0.000104422 -5.80898e-05
0.00105768 -0.000321856 -0.000315351 -4.21188e-05
0.00106501 -0.000317526 -0.000320351 -4.46803e-05
0.000353297 -0.000107318 -0.000105419 -5.81359e-05
0.000706534 -0.000215561 -0.000210417 -5.2274e-05
0.0010625 -0.000321101 -0.000317742 -4.34055e-05
0.000710551 -0.000209482 -0.000214744 -5.31786e-05
0.000709203 -0.000213544 -0.000212425 -5.3375e-05
0.000352467 -0.000108816 -0.000104422 -5.80898e-05
0.000349635 -0.000108931 -0.000103159 -5.59945e-05
0.00104721 -0.000320361 -0.000311509 -4.03993e-05
0.00105768 -0.000321856 -0.000315351 -4.21188e-05
0.000351475 -0.000109202 -0.000103831 -5.72515e-05
0.000699695 -0.000215268 -0.000207612 -5.00382e-05
0.00105207 -0.000321461 -0.000313118 -4.09996e-05
0.000706534 -0.000215561 -0.000210417 -5.2274e-05
0.000703159 -0.000215909 -0.000208821 -5.10066e-05
0.000349635 -0.000108931 -0.000103159 -5.59945e-05
0.000345933 -0.000107927 -0.000102002 -5.33078e-05
0.00103808 -0.000316879 -0.000309085 -3.98493e-05
0.00104721 -0.000320361 -0.000311509 -4.03993e-05
0.000347578 -0.000108482 -0.00010247 -5.45951e-05
0.00069293 -0.000213101 -0.000205641 -4.80574e-05
0.00104269 -0.000318728 -0.000310269 -4.00961e-05
0.000699695 -0.000215268 -0.000207612 -5.00382e-05
0.000696249 -0.000214276 -0.00020656 -4.90534e-05
0.000345933 -0.000107927 -0.000102002 -5.33078e-05
0.000342903 -0.000106563 -0.000101288 -5.11792e-05
0.00102975 -0.000313436 -0.00030699 -3.96113e-05
0.00103808 -0.000316879 -0.000309085 -3.98493e-05
0.000344456 -0.000107258 -0.000101656 -5.21632e-05
0.000686897 -0.000210516 -0.000204163 -4.66736e-05
0.00103367 -0.000315104 -0.000307956 -3.96701e-05
0.00069293 -0.000213101 -0.000205641 -4.80574e-05
0.000689794 -0.000211809 -0.000204851 -4.72518e-05
0.000342903 -0.000106563 -0.000101288 -5.11792e-05
0.000340118 -0.000105354 -0.000100613 -4.9711e-05
0.00102264 -0.000310394 -0.000305247 -3.96161e-05
0.00102975 -0.000313436 -0.00030699 -3.96113e-05
0.000341411 -0.00010593 -0.000100921 -5.03586e-05
0.000681704 -0.000208238 -0.000202914 -4.58004e-05
0.00102613 -0.000311859 -0.000306116 -3.96141e-05
0.000686897 -0.000210516 -0.000204163 -4.66736e-05
0.00068421 -0.000209326 -0.000203522 -4.61995e-05
0.000340118 -0.000105354 -0.000100613 -4.9711e-05
0.000337779 -0.00010432 -0.000100054 -4.88122e-05
0.00101616 -0.000307838 -0.000303566 -3.9647e-05
0.00102264 -0.000310394 -0.000305247 -3.96161e-05
0.000338936 -0.000104816 -0.000100337 -4.92044e-05
0.000677132 -0.000206311 -0.000201781 -4.52982e-05
0.0010193 -0.00030906 -0.000304389 -3.96231e-05
0.000681704 -0.000208238 -0.000202914 -4.58004e-05
0.000679353 -0.000207234 -0.000202337 -4.55038e-05
0.000337779 -0.00010432 -0.000100054 -4.88122e-05
0.000335635 -0.000103463 -9.95024e-05 -4.82927e-05
0.00101019 -0.000305633 -0.000301954 -3.96998e-05
0.00101616 -0.000307838 -0.000303566 -3.9647e-05
0.000336671 -0.000103872 -9.97712e-05 -4.85134e-05
0.000672982 -0.000204698 -0.000200693 -4.50235e-05
0.00101314 -0.0003067 -0.000302762 -3.96768e-05
0.000677132 -0.000206311 -0.000201781 -4.52982e-05
0.000675017 -0.000205471 -0.000201234 -4.51432e-05
0.000335635 -0.000103463 -9.95024e-05 -4.82927e-05
0.000333668 -0.000102722 -9.89769e-05 -4.80139e-05
0.00100447 -0.00030367 -0.000300344 -3.97378e-05
0.00101019 -0.000305633 -0.000301954 -3.96998e-05
0.000334643 -0.000103081 -9.9241e-05 -4.81313e-05
0.000669085 -0.000203294 -0.000199624 -4.48854e-05
0.0010073 -0.000304628 -0.000301146 -3.97191e-05
0.000672982 -0.000204698 -0.000200693 -4.50235e-05
0.00067101 -0.000203976 -0.000200157 -4.49402e-05
0.000333668 -0.000102722 -9.89769e-05 -4.80139e-05
0.000331777 -0.000102059 -9.84507e-05 -4.78716e-05
0.000998916 -0.000301851 -0.000298742 -3.97679e-05
0.00100447 -0.00030367 -0.000300344 -3.97378e-05
0.000332711 -0.000102383 -9.87123e-05 -4.79301e-05
0.000665333 -0.000202024 -0.000198561 -4.48197e-05
0.00100168 -0.000302747 -0.000299544 -3.97548e-05
0.000669085 -0.000203294 -0.000199624 -4.48854e-05
0.000667196 -0.000202646 -0.000199093 -4.4847e-05
0.000331777 -0.000102059 -9.84507e-05 -4.78716e-05
0.000329942 -0.000101441 -9.79293e-05 -4.78044e-05
0.000993431 -0.000300116 -0.000297135 -3.97872e-05
0.000998916 -0.000301851 -0.000298742 -3.97679e-05
0.000330857 -0.000101746 -9.81905e-05 -4.78316e-05
0.00066166 -0.000200832 -0.000197498 -4.47925e-05
0.000996165 -0.000300976 -0.000297938 -3.97784e-05
0.000665333 -0.000202024 -0.000198561 -4.48197e-05
0.00066349 -0.000201421 -0.000198029 -4.48025e-05
0.000329942 -0.000101441 -9.79293e-05 -4.78044e-05
0.000328131 -0.000100849 -9.74066e-05 -4.7775e-05
0.00098799 -0.000298426 -0.000295527 -3.98003e-05
0.000993431 -0.000300116 -0.000297135 -3.97872e-05
0.000329034 -0.000101142 -9.76677e-05 -4.77864e-05
0.000658027 -0.000199682 -0.000196433 -4.4783e-05
0.000990708 -0.000299267 -0.000296332 -3.97946e-05
0.00066166 -0.000200832 -0.000197498 -4.47925e-05
0.00065984 -0.000200253 -0.000196966 -4.47865e-05
0.000328131 -0.000100849 -9.74066e-05 -4.7775e-05
0.000326335 -0.000100271 -9.68844e-05 -4.77639e-05
0.000982565 -0.00029676 -0.000293917 -3.98085e-05
0.00098799 -0.000298426 -0.000295527 -3.98003e-05
0.000327232 -0.000100559 -9.71457e-05 -4.7768e-05
0.000654414 -0.000198556 -0.000195368 -4.47814e-05
0.000985275 -0.000297591 -0.000294722 -3.98048e-05
0.000658027 -0.000199682 -0.000196433 -4.4783e-05
0.000656219 -0.000199117 -0.000195901 -4.47815e-05
0.000326335 -0.000100271 -9.68844e-05 -4.77639e-05
0.000324545 -9.97014e-05 -9.63614e-05 -4.77608e-05
0.000977149 -0.000295104 -0.000292305 -3.98136e-05
0.000982565 -0.00029676 -0.000293917 -3.98085e-05
0.000325439 -9.99856e-05 -9.66229e-05 -4.77617e-05
0.00065081 -0.000197441 -0.000194301 -4.47825e-05
0.000979856 -0.000295931 -0.000293111 -3.98113e-05
0.000654414 -0.000198556 -0.000195368 -4.47814e-05
0.000652611 -0.000197998 -0.000194834 -4.47818e-05
0.000324545 -9.97014e-05 -9.63614e-05 -4.77608e-05
0.000322758 -9.91356e-05 -9.58383e-05 -4.77607e-05
0.000971735 -0.000293455 -0.000290692 -3.98166e-05
0.000977149 -0.000295104 -0.000292305 -3.98136e-05
0.000323651 -9.94181e-05 -9.60999e-05 -4.77605e-05
0.00064721 -0.000196332 -0.000193233 -4.47842e-05
0.000974442 -0.000294279 -0.000291498 -3.98153e-05
0.00065081 -0.000197441 -0.000194301 -4.47825e-05
0.000649009 -0.000196886 -0.000193767 -4.47833e-05
0.000322758 -9.91356e-05 -9.58383e-05 -4.77607e-05
0.000320973 -9.85721e-05 -9.53147e-05 -4.77615e-05
0.000966323 -0.000291808 -0.000289078 -3.98184e-05
0.000971735 -0.000293455 -0.000290692 -3.98166e-05
0.000321866 -9.88537e-05 -9.55765e-05 -4.77611e-05
0.000643611 -0.000195227 -0.000192165 -4.47857e-05
0.000969029 -0.000292631 -0.000289885 -3.98176e-05
0.00064721 -0.000196332 -0.000193233 -4.47842e-05
0.000645411 -0.000195779 -0.000192699 -4.4785e-05
0.000320973 -9.85721e-05 -9.53147e-05 -4.77615e-05
0.000319189 -9.80099e-05 -9.47909e-05 -4.77623e-05
0.000960911 -0.000290162 -0.000287464 -3.98193e-05
0.000966323 -0.000291808 -0.000289078 -3.98184e-05
0.000320081 -9.82909e-05 -9.50529e-05 -4.77619e-05
0.000640014 -0.000194122 -0.000191096 -4.47867e-05
0.000963617 -0.000290985 -0.000288271 -3.98189e-05
0.000643611 -0.000195227 -0.000192165 -4.47857e-05
0.000641812 -0.000194674 -0.000191631 -4.47863e-05
0.000319189 -9.80099e-05 -9.47909e-05 -4.77623e-05
0.000317405 -9.74484e-05 -9.42669e-05 -4.77629e-05
0.000955499 -0.000288517 -0.000285849 -3.98198e-05
0.000960911 -0.000290162 -0.000287464 -3.98193e-05
0.000318297 -9.77291e-05 -9.45289e-05 -4.77627e-05
0.000636416 -0.000193018 -0.000190028 -4.47873e-05
0.000958205 -0.000289339 -0.000286657 -3.98196e-05
0.000640014 -0.000194122 -0.000191096 -4.47867e-05
0.000638215 -0.00019357 -0.000190562 -4.47871e-05
0.000317405 -9.74484e-05 -9.42669e-05 -4.77629e-05
0.00031562 -9.68874e-05 -9.37427e-05 -4.77632e-05
0.000950086 -0.000286872 -0.000284235 -3.98199e-05
0.000955499 -0.000288517 -0.000285849 -3.98198e-05
0.000316512 -9.71679e-05 -9.40048e-05 -4.77631e-05
0.000632818 -0.000191915 -0.000188958 -4.47876e-05
0.000952792 -0.000287694 -0.000285042 -3.98199e-05
0.000636416 -0.000193018 -0.000190028 -4.47873e-05
0.000634617 -0.000192466 -0.000189493 -4.47875e-05
0.00031562 -9.68874e-05 -9.37427e-05 -4.77632e-05
0.000313836 -9.63267e-05 -9.32184e-05 -4.77633e-05
0.000944673 -0.000285227 -0.00028262 -3.98198e-05
0.000950086 -0.000286872 -0.000284235 -3.98199e-05
0.000314728 -9.6607e-05 -9.34806e-05 -4.77633e-05
0.00062922 -0.000190811 -0.000187889 -4.47876e-05
0.00094738 -0.000286049 -0.000283427 -3.98199e-05
0.000632818 -0.000191915 -0.000188958 -4.47876e-05
0.000631019 -0.000191363 -0.000188424 -4.47877e-05
0.000313836 -9.63267e-05 -9.32184e-05 -4.77633e-05
0.000312052 -9.57663e-05 -9.26938e-05 -4.77633e-05
0.00093926 -0.000283582 -0.000281005 -3.98196e-05
0.000944673 -0.000285227 -0.00028262 -3.98198e-05
0.000312944 -9.60465e-05 -9.29561e-05 -4.77633e-05
0.000625622 -0.000189708 -0.00018682 -4.47875e-05
0.000941967 -0.000284404 -0.000281813 -3.98197e-05
0.00062922 -0.000190811 -0.000187889 -4.47876e-05
0.000627421 -0.00019026 -0.000187355 -4.47876e-05
0.000312052 -9.57663e-05 -9.26938e-05 -4.77633e-05
0.000310268 -9.5206e-05 -9.21692e-05 -4.77631e-05
0.000933847 -0.000281937 -0.00027939 -3.98193e-05
0.00093926 -0.000283582 -0.000281005 -3.98196e-05
0.00031116 -9.54861e-05 -9.24315e-05 -4.77632e-05
0.000622023 -0.000188606 -0.00018575 -4.47873e-05
0.000936554 -0.000282759 -0.000280198 -3.98195e-05
0.000625622 -0.000189708 -0.00018682 -4.47875e-05
0.000623822 -0.000189157 -0.000186285 -4.47874e-05
0.000310268 -9.5206e-05 -9.21692e-05 -4.77631e-05
0.000308483 -9.46459e-05 -9.16444e-05 -4.77629e-05
0.000928433 -0.000280292 -0.000277775 -3.9819e-05
0.000933847 -0.000281937 -0.00027939 -3.98193e-05
0.000309375 -9.4926e-05 -9.19068e-05 -4.7763e-05
0.000618425 -0.000187503 -0.000184681 -4.47871e-05
0.00093114 -0.000281115 -0.000278582 -3.98192e-05
0.000622023 -0.000188606 -0.00018575 -4.47873e-05
0.000620224 -0.000188054 -0.000185216 -4.47872e-05
0.000308483 -9.46459e-05 -9.16444e-05 -4.77629e-05
0.000306698 -9.40859e-05 -9.11195e-05 -4.77627e-05
0.00092302 -0.000278648 -0.00027616 -3.98187e-05
0.000928433 -0.000280292 -0.000277775 -3.9819e-05
0.000307591 -9.43659e-05 -9.1382e-05 -4.77628e-05
0.000614826 -0.0001864 -0.000183611 -4.47868e-05
0.000925727 -0.00027947 -0.000276967 -3.98188e-05
0.000618425 -0.000187503 -0.000184681 -4.47871e-05
0.000616625 -0.000186951 -0.000184146 -4.47869e-05
0.000306698 -9.40859e-05 -9.11195e-05 -4.77627e-05
0.000304913 -9.3526e-05 -9.05945e-05 -4.77624e-05
0.000917606 -0.000277003 -0.000274544 -3.98183e-05
0.00092302 -0.000278648 -0.00027616 -3.98187e-05
0.000305806 -9.3806e-05 -9.0857e-05 -4.77626e-05
0.000611227 -0.000185297 -0.000182541 -4.47865e-05
0.000920313 -0.000277825 -0.000275352 -3.98185e-05
0.000614826 -0.0001864 -0.000183611 -4.47868e-05
0.000613026 -0.000185849 -0.000183076 -4.47866e-05
0.000304913 -9.3526e-05 -9.05945e-05 -4.77624e-05
0.000303128 -9.29663e-05 -9.00694e-05 -4.77622e-05
0.000912193 -0.000275359 -0.000272929 -3.9818e-05
0.000917606 -0.000277003 -0.000274544 -3.98183e-05
0.000304021 -9.32461e-05 -9.0332e-05 -4.77623e-05
0.000607628 -0.000184195 -0.000181471 -4.47861e-05
0.000914899 -0.000276181 -0.000273737 -3.98182e-05
0.000611227 -0.000185297 -0.000182541 -4.47865e-05
0.000609427 -0.000184746 -0.000182006 -4.47863e-05
0.000303128 -9.29663e-05 -9.00694e-05 -4.77622e-05
0.000301343 -9.24066e-05 -8.95442e-05 -4.77619e-05
0.000906779 -0.000273714 -0.000271313 -3.98177e-05
0.000912193 -0.000275359 -0.000272929 -3.9818e-05
0.000302236 -9.26864e-05 -8.98068e-05 -4.7762e-05
0.000604029 -0.000183093 -0.000180401 -4.47858e-05
0.000909486 -0.000274536 -0.000272121 -3.98178e-05
0.000607628 -0.000184195 -0.000181471 -4.47861e-05
0.000605828 -0.000183644 -0.000180936 -4.4786e-05
0.000301343 -9.24066e-05 -8.95442e-05 -4.77619e-05
0.000299558 -9.1847e-05 -8.90188e-05 -4.77616e-05
0.000901365 -0.00027207 -0.000269698 -3.98173e-05
0.000906779 -0.000273714 -0.000271313 -3.98177e-05
0.00030045 -9.21268e-05 -8.92815e-05 -4.77618e-05
0.000600429 -0.00018199 -0.000179331 -4.47855e-05
0.000904072 -0.000272892 -0.000270505 -3.98175e-05
0.000604029 -0.000183093 -0.000180401 -4.47858e-05
0.000602229 -0.000182541 -0.000179866 -4.47857e-05
0.000299558 -9.1847e-05 -8.90188e-05 -4.77616e-05
0.000297772 -9.12875e-05 -8.84934e-05 -4.77613e-05
0.00089595 -0.000270426 -0.000268082 -3.9817e-05
0.000901365 -0.00027207 -0.000269698 -3.98173e-05
0.000298665 -9.15672e-05 -8.87561e-05 -4.77615e-05
0.00059683 -0.000180888 -0.000178261 -4.47852e-05
0.000898657 -0.000271248 -0.00026889 -3.98171e-05
0.000600429 -0.00018199 -0.000179331 -4.47855e-05
0.00059863 -0.000181439 -0.000178796 -4.47853e-05
0.000297772 -9.12875e-05 -8.84934e-05 -4.77613e-05
0.000295986 -9.07281e-05 -8.79678e-05 -4.77611e-05
0.000890536 -0.000268782 -0.000266466 -3.98166e-05
0.00089595 -0.000270426 -0.000268082 -3.9817e-05
0.000296879 -9.10078e-05 -8.82306e-05 -4.77612e-05
0.00059323 -0.000179786 -0.00017719 -4.47849e-05
0.000893243 -0.000269604 -0.000267274 -3.98168e-05
0.00059683 -0.000180888 -0.000178261 -4.47852e-05
0.00059503 -0.000180337 -0.000177726 -4.4785e-05
0.000295986 -9.07281e-05 -8.79678e-05 -4.77611e-05
0.0002942 -9.01687e-05 -8.74421e-05 -4.77608e-05
0.000885122 -0.000267138 -0.00026485 -3.98163e-05
0.000890536 -0.000268782 -0.000266466 -3.98166e-05
0.000295093 -9.04484e-05 -8.7705e-05 -4.77609e-05
0.00058963 -0.000178684 -0.00017612 -4.47845e-05
0.000887829 -0.00026796 -0.000265658 -3.98165e-05
0.00059323 -0.000179786 -0.00017719 -4.47849e-05
0.00059143 -0.000179235 -0.000176655 -4.47847e-05
0.0002942 -9.01687e-05 -8.74421e-05 -4.77608e-05
0.000292414 -8.96095e-05 -8.69164e-05 -4.77605e-05
0.000879707 -0.000265494 -0.000263234 -3.9816e-05
0.000885122 -0.000267138 -0.00026485 -3.98163e-05
0.000293307 -8.98891e-05 -8.71793e-05 -4.77606e-05
0.000586031 -0.000177582 -0.000175049 -4.47842e-05
0.000882414 -0.000266316 -0.000264042 -3.98161e-05
0.00058963 -0.000178684 -0.00017612 -4.47845e-05
0.000587831 -0.000178133 -0.000175585 -4.47844e-05
0.000292414 -8.96095e-05 -8.69164e-05 -4.77605e-05
0.000290628 -8.90504e-05 -8.63905e-05 -4.77602e-05
0.000874292 -0.00026385 -0.000261618 -3.98156e-05
0.000879707 -0.000265494 -0.000263234 -3.9816e-05
0.000291521 -8.93299e-05 -8.66534e-05 -4.77603e-05
0.00058243 -0.00017648 -0.000173979 -4.47839e-05
0.000877 -0.000264672 -0.000262426 -3.98158e-05
0.000586031 -0.000177582 -0.000175049 -4.47842e-05
0.000584231 -0.000177031 -0.000174514 -4.4784e-05
0.000290628 -8.90504e-05 -8.63905e-05 -4.77602e-05
0.000288842 -8.84913e-05 -8.58645e-05 -4.77599e-05
0.000868878 -0.000262206 -0.000260002 -3.98153e-05
0.000874292 -0.00026385 -0.000261618 -3.98156e-05
0.000289735 -8.87709e-05 -8.61275e-05 -4.77601e-05
0.00057883 -0.000175378 -0.000172908 -4.47836e-05
0.000871585 -0.000263028 -0.00026081 -3.98155e-05
0.00058243 -0.00017648 -0.000173979 -4.47839e-05
0.00058063 -0.000175929 -0.000173443 -4.47837e-05
0.000288842 -8.84913e-05 -8.58645e-05 -4.77599e-05
0.000287055 -8.79324e-05 -8.53384e-05 -4.77596e-05
0.000863463 -0.000260562 -0.000258386 -3.98149e-05
0.000868878 -0.000262206 -0.000260002 -3.98153e-05
0.000287949 -8.82119e-05 -8.56014e-05 -4.77598e-05
0.00057523 -0.000174276 -0.000171837 -4.47832e-05
0.00086617 -0.000261384 -0.000259194 -3.98151e-05
0.00057883 -0.000175378 -0.000172908 -4.47836e-05
0.00057703 -0.000174827 -0.000172373 -4.47834e-05
0.000287055 -8.79324e-05 -8.53384e-05 -4.77596e-05
0.000285269 -8.73736e-05 -8.48122e-05 -4.77593e-05
0.000858048 -0.000258919 -0.00025677 -3.98146e-05
0.000863463 -0.000260562 -0.000258386 -3.98149e-05
0.000286162 -8.7653e-05 -8.50753e-05 -4.77595e-05
0.000571629 -0.000173175 -0.000170766 -4.47829e-05
0.000860755 -0.00025974 -0.000257578 -3.98148e-05
0.00057523 -0.000174276 -0.000171837 -4.47832e-05
0.00057343 -0.000173726 -0.000171302 -4.47831e-05
0.000285269 -8.73736e-05 -8.48122e-05 -4.77593e-05
0.000283482 -8.68148e-05 -8.42859e-05 -4.7759e-05
0.000852633 -0.000257275 -0.000255153 -3.98142e-05
0.000858048 -0.000258919 -0.00025677 -3.98146e-05
0.000284375 -8.70942e-05 -8.4549e-05 -4.77592e-05
0.000568029 -0.000172073 -0.000169695 -4.47825e-05
0.00085534 -0.000258097 -0.000255961 -3.98144e-05
0.000571629 -0.000173175 -0.000170766 -4.47829e-05
0.000569829 -0.000172624 -0.000170231 -4.47827e-05
0.000283482 -8.68148e-05 -8.42859e-05 -4.7759e-05
0.000281695 -8.62561e-05 -8.37594e-05 -4.77587e-05
0.000847217 -0.000255632 -0.000253537 -3.98139e-05
0.000852633 -0.000257275 -0.000255153 -3.98142e-05
0.000282588 -8.65355e-05 -8.40227e-05 -4.77588e-05
0.000564428 -0.000170972 -0.000168624 -4.47822e-05
0.000849925 -0.000256453 -0.000254345 -3.98141e-05
0.000568029 -0.000172073 -0.000169695 -4.47825e-05
0.000566229 -0.000171523 -0.00016916 -4.47824e-05
0.000281695 -8.62561e-05 -8.37594e-05 -4.77587e-05
0.000279908 -8.56976e-05 -8.32329e-05 -4.77584e-05
0.000841802 -0.000253988 -0.00025192 -3.98135e-05
0.000847217 -0.000255632 -0.000253537 -3.98139e-05
0.000280801 -8.59768e-05 -8.34962e-05 -4.77585e-05
0.000560827 -0.000169871 -0.000167553 -4.47818e-05
0.00084451 -0.00025481 -0.000252729 -3.98137e-05
0.000564428 -0.000170972 -0.000168624 -4.47822e-05
0.000562628 -0.000170421 -0.000168088 -4.4782e-05
0.000279908 -8.56976e-05 -8.32329e-05 -4.77584e-05
0.00027812 -8.51391e-05 -8.27063e-05 -4.77581e-05
0.000836387 -0.000252345 -0.000250304 -3.98132e-05
0.000841802 -0.000253988 -0.00025192 -3.98135e-05
0.000279014 -8.54183e-05 -8.29696e-05 -4.77582e-05
0.000557226 -0.000168769 -0.000166482 -4.47815e-05
0.000839094 -0.000253167 -0.000251112 -3.98133e-05
0.000560827 -0.000169871 -0.000167553 -4.47818e-05
0.000559027 -0.00016932 -0.000167017 -4.47817e-05
0.00027812 -8.51391e-05 -8.27063e-05 -4.77581e-05
0.000276333 -8.45807e-05 -8.21795e-05 -4.77577e-05
0.000830971 -0.000250702 -0.000248687 -3.98128e-05
0.000836387 -0.000252345 -0.000250304 -3.98132e-05
0.000277227 -8.48599e-05 -8.24429e-05 -4.77579e-05
0.000553625 -0.000167668 -0.00016541 -4.47811e-05
0.000833679 -0.000251523 -0.000249495 -3.9813e-05
0.000557226 -0.000168769 -0.000166482 -4.47815e-05
0.000555426 -0.000168219 -0.000165946 -4.47813e-05
0.000276333 -8.45807e-05 -8.21795e-05 -4.77577e-05
0.000274545 -8.40225e-05 -8.16527e-05 -4.77574e-05
0.000825555 -0.000249059 -0.00024707 -3.98124e-05
0.000830971 -0.000250702 -0.000248687 -3.98128e-05
0.000275439 -8.43016e-05 -8.19161e-05 -4.77576e-05
0.000550024 -0.000166567 -0.000164339 -4.47808e-05
0.000828263 -0.00024988 -0.000247878 -3.98126e-05
0.000553625 -0.000167668 -0.00016541 -4.47811e-05
0.000551824 -0.000167118 -0.000164874 -4.4781e-05
0.000274545 -8.40225e-05 -8.16527e-05 -4.77574e-05
0.000272758 -8.34643e-05 -8.11257e-05 -4.77571e-05
0.00082014 -0.000247416 -0.000245453 -3.98121e-05
0.000825555 -0.000249059 -0.00024707 -3.98124e-05
0.000273652 -8.37434e-05 -8.13892e-05 -4.77573e-05
0.000546422 -0.000165466 -0.000163267 -4.47804e-05
0.000822847 -0.000248237 -0.000246262 -3.98123e-05
0.000550024 -0.000166567 -0.000164339 -4.47808e-05
0.000548223 -0.000166017 -0.000163803 -4.47806e-05
0.000272758 -8.34643e-05 -8.11257e-05 -4.77571e-05
0.00027097 -8.29062e-05 -8.05987e-05 -4.77568e-05
0.000814724 -0.000245773 -0.000243836 -3.98117e-05
0.00082014 -0.000247416 -0.000245453 -3.98121e-05
0.000271864 -8.31853e-05 -8.08622e-05 -4.77569e-05
0.000542821 -0.000164365 -0.000162195 -4.47801e-05
0.000817432 -0.000246594 -0.000244645 -3.98119e-05
0.000546422 -0.000165466 -0.000163267 -4.47804e-05
0.000544622 -0.000164916 -0.000162731 -4.47802e-05
0.00027097 -8.29062e-05 -8.05987e-05 -4.77568e-05
0.000269182 -8.23482e-05 -8.00715e-05 -4.77564e-05
0.000809308 -0.00024413 -0.000242219 -3.98113e-05
0.000814724 -0.000245773 -0.000243836 -3.98117e-05
0.000270076 -8.26272e-05 -8.03351e-05 -4.77566e-05
0.000539219 -0.000163265 -0.000161123 -4.47797e-05
0.000812016 -0.000244951 -0.000243028 -3.98115e-05
0.000542821 -0.000164365 -0.000162195 -4.47801e-05
0.00054102 -0.000163815 -0.000161659 -4.47799e-05
0.000269182 -8.23482e-05 -8.00715e-05 -4.77564e-05
0.000267394 -8.17904e-05 -7.95442e-05 -4.77561e-05
0.000803891 -0.000242487 -0.000240602 -3.98109e-05
0.000809308 -0.00024413 -0.000242219 -3.98113e-05
0.000268288 -8.20693e-05 -7.98079e-05 -4.77563e-05
0.000535617 -0.000162164 -0.000160051 -4.47793e-05
0.000806599 -0.000243308 -0.000241411 -3.98111e-05
0.000539219 -0.000163265 -0.000161123 -4.47797e-05
0.000537418 -0.000162714 -0.000160587 -4.47795e-05
0.000267394 -8.17904e-05 -7.95442e-05 -4.77561e-05
0.000265605 -8.12326e-05 -7.90168e-05 -4.77557e-05
0.000798475 -0.000240844 -0.000238985 -3.98106e-05
0.000803891 -0.000242487 -0.000240602 -3.98109e-05
0.000266499 -8.15115e-05 -7.92806e-05 -4.77559e-05
0.000532015 -0.000161063 -0.000158979 -4.4779e-05
0.000801183 -0.000241666 -0.000239793 -3.98108e-05
0.000535617 -0.000162164 -0.000160051 -4.47793e-05
0.000533816 -0.000161614 -0.000159515 -4.47791e-05
0.000265605 -8.12326e-05 -7.90168e-05 -4.77557e-05
0.000263817 -8.06749e-05 -7.84894e-05 -4.77554e-05
0.000793059 -0.000239202 -0.000237367 -3.98102e-05
0.000798475 -0.000240844 -0.000238985 -3.98106e-05
0.000264711 -8.09537e-05 -7.87531e-05 -4.77556e-05
0.000528413 -0.000159963 -0.000157907 -4.47786e-05
0.000795767 -0.000240023 -0.000238176 -3.98104e-05
0.000532015 -0.000161063 -0.000158979 -4.4779e-05
0.000530214 -0.000160513 -0.000158443 -4.47788e-05
0.000263817 -8.06749e-05 -7.84894e-05 -4.77554e-05
0.000262028 -8.01173e-05 -7.79618e-05 -4.77551e-05
0.000787642 -0.000237559 -0.00023575 -3.98098e-05
0.000793059 -0.000239202 -0.000237367 -3.98102e-05
0.000262922 -8.03961e-05 -7.82256e-05 -4.77552e-05
0.000524811 -0.000158862 -0.000156835 -4.47782e-05
0.000790351 -0.00023838 -0.000236559 -3.981e-05
0.000528413 -0.000159963 -0.000157907 -4.47786e-05
0.000526612 -0.000159413 -0.000157371 -4.47784e-05
0.000262028 -8.01173e-05 -7.79618e-05 -4.77551e-05
0.000260239 -7.95598e-05 -7.74341e-05 -4.77547e-05
0.000782226 -0.000235917 -0.000234132 -3.98094e-05
0.000787642 -0.000237559 -0.00023575 -3.98098e-05
0.000261134 -7.98385e-05 -7.76979e-05 -4.77549e-05
0.000521209 -0.000157762 -0.000155763 -4.47778e-05
0.000784934 -0.000236738 -0.000234941 -3.98096e-05
0.000524811 -0.000158862 -0.000156835 -4.47782e-05
0.00052301 -0.000158312 -0.000156299 -4.4778e-05
0.000260239 -7.95598e-05 -7.74341e-05 -4.77547e-05
0.00025845 -7.90024e-05 -7.69062e-05 -4.77544e-05
0.000776809 -0.000234274 -0.000232515 -3.9809e-05
0.000782226 -0.000235917 -0.000234132 -3.98094e-05
0.000259345 -7.92811e-05 -7.71702e-05 -4.77545e-05
0.000517606 -0.000156662 -0.00015469 -4.47774e-05
0.000779517 -0.000235095 -0.000233324 -3.98092e-05
0.000521209 -0.000157762 -0.000155763 -4.47778e-05
0.000519407 -0.000157212 -0.000155227 -4.47776e-05
0.00025845 -7.90024e-05 -7.69062e-05 -4.77544e-05
0.000256661 -7.84451e-05 -7.63783e-05 -4.7754e-05
0.000771392 -0.000232632 -0.000230897 -3.98086e-05
0.000776809 -0.000234274 -0.000232515 -3.9809e-05
0.000257556 -7.87237e-05 -7.66423e-05 -4.77542e-05
0.000514003 -0.000155562 -0.000153618 -4.47771e-05
0.000774101 -0.000233453 -0.000231706 -3.98088e-05
0.000517606 -0.000156662 -0.00015469 -4.47774e-05
0.000515805 -0.000156112 -0.000154154 -4.47772e-05
0.000256661 -7.84451e-05 -7.63783e-05 -4.7754e-05
0.000254872 -7.78879e-05 -7.58503e-05 -4.77537e-05
0.000765975 -0.00023099 -0.000229279 -3.98082e-05
0.000771392 -0.000232632 -0.000230897 -3.98086e-05
0.000255767 -7.81665e-05 -7.61143e-05 -4.77538e-05
0.000510401 -0.000154462 -0.000152545 -4.47767e-05
0.000768684 -0.000231811 -0.000230088 -3.98084e-05
0.000514003 -0.000155562 -0.000153618 -4.47771e-05
0.000512202 -0.000155012 -0.000153082 -4.47769e-05
0.000254872 -7.78879e-05 -7.58503e-05 -4.77537e-05
0.000253083 -7.73308e-05 -7.53222e-05 -4.77533e-05
0.000760558 -0.000229348 -0.000227662 -3.98079e-05
0.000765975 -0.00023099 -0.000229279 -3.98082e-05
0.000253977 -7.76093e-05 -7.55862e-05 -4.77535e-05
0.000506798 -0.000153362 -0.000151473 -4.47763e-05
0.000763267 -0.000230169 -0.000228471 -3.9808e-05
0.000510401 -0.000154462 -0.000152545 -4.47767e-05
0.000508599 -0.000153912 -0.000152009 -4.47765e-05
0.000253083 -7.73308e-05 -7.53222e-05 -4.77533e-05
0.000251293 -7.67738e-05 -7.47939e-05 -4.77529e-05
0.000755141 -0.000227706 -0.000226044 -3.98075e-05
0.000760558 -0.000229348 -0.000227662 -3.98079e-05
0.000252188 -7.70523e-05 -7.50581e-05 -4.77531e-05
0.000503195 -0.000152262 -0.0001504 -4.47759e-05
0.00075785 -0.000228527 -0.000226853 -3.98077e-05
0.000506798 -0.000153362 -0.000151473 -4.47763e-05
0.000504996 -0.000152812 -0.000150936 -4.47761e-05
0.000251293 -7.67738e-05 -7.47939e-05 -4.77529e-05
0.000249503 -7.62169e-05 -7.42656e-05 -4.77526e-05
0.000749724 -0.000226064 -0.000224426 -3.98071e-05
0.000755141 -0.000227706 -0.000226044 -3.98075e-05
0.000250398 -7.64953e-05 -7.45298e-05 -4.77528e-05
0.000499592 -0.000151162 -0.000149327 -4.47755e-05
0.000752432 -0.000226885 -0.000225235 -3.98073e-05
0.000503195 -0.000152262 -0.0001504 -4.47759e-05
0.000501393 -0.000151712 -0.000149863 -4.47757e-05
0.000249503 -7.62169e-05 -7.42656e-05 -4.77526e-05
0.000247713 -7.56601e-05 -7.37371e-05 -4.77522e-05
0.000744306 -0.000224422 -0.000222808 -3.98067e-05
0.000749724 -0.000226064 -0.000224426 -3.98071e-05
0.000248608 -7.59384e-05 -7.40014e-05 -4.77524e-05
0.000495988 -0.000150063 -0.000148254 -4.47751e-05
0.000747015 -0.000225243 -0.000223617 -3.98069e-05
0.000499592 -0.000151162 -0.000149327 -4.47755e-05
0.00049779 -0.000150612 -0.00014879 -4.47753e-05
0.000247713 -7.56601e-05 -7.37371e-05 -4.77522e-05
0.000245923 -7.51033e-05 -7.32086e-05 -4.77518e-05
0.000738889 -0.00022278 -0.000221189 -3.98063e-05
0.000744306 -0.000224422 -0.000222808 -3.98067e-05
0.000246818 -7.53817e-05 -7.34729e-05 -4.7752e-05
0.000492385 -0.000148963 -0.000147181 -4.47747e-05
0.000741598 -0.000223601 -0.000221999 -3.98065e-05
0.000495988 -0.000150063 -0.000148254 -4.47751e-05
0.000494187 -0.000149513 -0.000147717 -4.47749e-05
0.000245923 -7.51033e-05 -7.32086e-05 -4.77518e-05
0.000244133 -7.45467e-05 -7.26799e-05 -4.77515e-05
0.000733471 -0.000221138 -0.000219571 -3.98059e-05
0.000738889 -0.00022278 -0.000221189 -3.98063e-05
0.000245028 -7.4825e-05 -7.29442e-05 -4.77517e-05
0.000488781 -0.000147864 -0.000146108 -4.47743e-05
0.00073618 -0.000221959 -0.00022038 -3.98061e-05
0.000492385 -0.000148963 -0.000147181 -4.47747e-05
0.000490583 -0.000148413 -0.000146644 -4.47745e-05
0.000244133 -7.45467e-05 -7.26799e-05 -4.77515e-05
0.000242343 -7.39902e-05 -7.21511e-05 -4.77511e-05
0.000728054 -0.000219497 -0.000217953 -3.98055e-05
0.000733471 -0.000221138 -0.000219571 -3.98059e-05
0.000243238 -7.42684e-05 -7.24155e-05 -4.77513e-05
0.000485177 -0.000146764 -0.000145034 -4.47739e-05
0.000730762 -0.000220318 -0.000218762 -3.98057e-05
0.000488781 -0.000147864 -0.000146108 -4.47743e-05
0.000486979 -0.000147314 -0.000145571 -4.47741e-05
0.000242343 -7.39902e-05 -7.21511e-05 -4.77511e-05
0.000240552 -7.34338e-05 -7.16222e-05 -4.77507e-05
0.000722636 -0.000217855 -0.000216334 -3.9805e-05
0.000728054 -0.000219497 -0.000217953 -3.98055e-05
0.000241448 -7.3712e-05 -7.18867e-05 -4.77509e-05
0.000481574 -0.000145665 -0.000143961 -4.47735e-05
0.000725345 -0.000218676 -0.000217144 -3.98053e-05
0.000485177 -0.000146764 -0.000145034 -4.47739e-05
0.000483376 -0.000146215 -0.000144498 -4.47737e-05
0.000240552 -7.34338e-05 -7.16222e-05 -4.77507e-05
0.000238762 -7.28774e-05 -7.10933e-05 -4.77504e-05
0.000717218 -0.000216214 -0.000214716 -3.98046e-05
0.000722636 -0.000217855 -0.000216334 -3.9805e-05
0.000239657 -7.31556e-05 -7.13578e-05 -4.77506e-05
0.00047797 -0.000144566 -0.000142887 -4.47731e-05
0.000719927 -0.000217035 -0.000215525 -3.98048e-05
0.000481574 -0.000145665 -0.000143961 -4.47735e-05
0.000479772 -0.000145115 -0.000143424 -4.47733e-05
0.000238762 -7.28774e-05 -7.10933e-05 -4.77504e-05
0.000236971 -7.23212e-05 -7.05642e-05 -4.775e-05
0.0007118 -0.000214573 -0.000213097 -3.98042e-05
0.000717218 -0.000216214 -0.000214716 -3.98046e-05
0.000237866 -7.25993e-05 -7.08287e-05 -4.77502e-05
0.000474366 -0.000143467 -0.000141814 -4.47727e-05
0.000714509 -0.000215393 -0.000213907 -3.98044e-05
0.00047797 -0.000144566 -0.000142887 -4.47731e-05
0.000476168 -0.000144016 -0.000142351 -4.47729e-05
0.000236971 -7.23212e-05 -7.05642e-05 -4.775e-05
0.00023518 -7.17651e-05 -7.0035e-05 -4.77496e-05
0.000706382 -0.000212931 -0.000211479 -3.98038e-05
0.0007118 -0.000214573 -0.000213097 -3.98042e-05
0.000236075 -7.20431e-05 -7.02996e-05 -4.77498e-05
0.000470761 -0.000142368 -0.00014074 -4.47723e-05
0.000709091 -0.000213752 -0.000212288 -3.9804e-05
0.000474366 -0.000143467 -0.000141814 -4.47727e-05
0.000472563 -0.000142917 -0.000141277 -4.47725e-05
0.00023518 -7.17651e-05 -7.0035e-05 -4.77496e-05
0.000233389 -7.12091e-05 -6.95057e-05 -4.77492e-05
0.000700963 -0.00021129 -0.00020986 -3.98034e-05
0.000706382 -0.000212931 -0.000211479 -3.98038e-05
0.000234284 -7.14871e-05 -6.97703e-05 -4.77494e-05
0.000467157 -0.000141269 -0.000139666 -4.47719e-05
0.000703672 -0.000212111 -0.000210669 -3.98036e-05
0.000470761 -0.000142368 -0.00014074 -4.47723e-05
0.000468959 -0.000141818 -0.000140203 -4.47721e-05
0.000233389 -7.12091e-05 -6.95057e-05 -4.77492e-05
0.000231598 -7.06531e-05 -6.89762e-05 -4.77489e-05
0.000695545 -0.000209649 -0.000208241 -3.9803e-05
0.000700963 -0.00021129 -0.00020986 -3.98034e-05
0.000232493 -7.09311e-05 -6.9241e-05 -4.77491e-05
0.000463552 -0.00014017 -0.000138592 -4.47715e-05
0.000698254 -0.00021047 -0.00020905 -3.98032e-05
0.000467157 -0.000141269 -0.000139666 -4.47719e-05
0.000465355 -0.000140719 -0.000139129 -4.47717e-05
0.000231598 -7.06531e-05 -6.89762e-05 -4.77489e-05
0.000229806 -7.00973e-05 -6.84467e-05 -4.77485e-05
0.000690127 -0.000208008 -0.000206622 -3.98026e-05
0.000695545 -0.000209649 -0.000208241 -3.9803e-05
0.000230702 -7.03752e-05 -6.87115e-05 -4.77487e-05
0.000459948 -0.000139071 -0.000137519 -4.47711e-05
0.000692836 -0.000208829 -0.000207432 -3.98028e-05
0.000463552 -0.00014017 -0.000138592 -4.47715e-05
0.00046175 -0.000139621 -0.000138056 -4.47713e-05
0.000229806 -7.00973e-05 -6.84467e-05 -4.77485e-05
0.000228015 -6.95415e-05 -6.79171e-05 -4.77481e-05
0.000684708 -0.000206367 -0.000205003 -3.98022e-05
0.000690127 -0.000208008 -0.000206622 -3.98026e-05
0.000228911 -6.98194e-05 -6.81819e-05 -4.77483e-05
0.000456343 -0.000137973 -0.000136444 -4.47707e-05
0.000687417 -0.000207188 -0.000205813 -3.98024e-05
0.000459948 -0.000139071 -0.000137519 -4.47711e-05
0.000458145 -0.000138522 -0.000136981 -4.47709e-05
0.000228015 -6.95415e-05 -6.79171e-05 -4.77481e-05
0.000226223 -6.89859e-05 -6.73874e-05 -4.77477e-05
0.000679289 -0.000204726 -0.000203384 -3.98018e-05
0.000684708 -0.000206367 -0.000205003 -3.98022e-05
0.000227119 -6.92637e-05 -6.76522e-05 -4.77479e-05
0.000452738 -0.000136874 -0.00013537 -4.47702e-05
0.000681999 -0.000205547 -0.000204194 -3.9802e-05
0.000456343 -0.000137973 -0.000136444 -4.47707e-05
0.000454541 -0.000137423 -0.000135907 -4.47705e-05
0.000226223 -6.89859e-05 -6.73874e-05 -4.77477e-05
0.000224431 -6.84304e-05 -6.68575e-05 -4.77473e-05
0.00067387 -0.000203086 -0.000201765 -3.98014e-05
0.000679289 -0.000204726 -0.000203384 -3.98018e-05
0.000225327 -6.87081e-05 -6.71224e-05 -4.77475e-05
0.000449133 -0.000135776 -0.000134296 -4.47698e-05
0.00067658 -0.000203906 -0.000202574 -3.98016e-05
0.000452738 -0.000136874 -0.00013537 -4.47702e-05
0.000450936 -0.000136325 -0.000134833 -4.477e-05
0.000224431 -6.84304e-05 -6.68575e-05 -4.77473e-05
0.000222639 -6.78749e-05 -6.63276e-05 -4.7747e-05
0.000668452 -0.000201445 -0.000200146 -3.98009e-05
0.00067387 -0.000203086 -0.000201765 -3.98014e-05
0.000223535 -6.81526e-05 -6.65925e-05 -4.77472e-05
0.000445528 -0.000134677 -0.000133222 -4.47694e-05
0.000671161 -0.000202265 -0.000200955 -3.98012e-05
0.000449133 -0.000135776 -0.000134296 -4.47698e-05
0.000447331 -0.000135227 -0.000133759 -4.47696e-05
0.000222639 -6.78749e-05 -6.63276e-05 -4.7747e-05
0.000220847 -6.73196e-05 -6.57975e-05 -4.77466e-05
0.000663033 -0.000199805 -0.000198526 -3.98005e-05
0.000668452 -0.000201445 -0.000200146 -3.98009e-05
0.000221743 -6.75972e-05 -6.60625e-05 -4.77468e-05
0.000441923 -0.000133579 -0.000132147 -4.4769e-05
0.000665742 -0.000200625 -0.000199336 -3.98007e-05
0.000445528 -0.000134677 -0.000133222 -4.47694e-05
0.000443725 -0.000134128 -0.000132684 -4.47692e-05
0.000220847 -6.73196e-05 -6.57975e-05 -4.77466e-05
0.000219055 -6.67643e-05 -6.52673e-05 -4.77462e-05
0.000657613 -0.000198164 -0.000196907 -3.98001e-05
0.000663033 -0.000199805 -0.000198526 -3.98005e-05
0.000219951 -6.70419e-05 -6.55324e-05 -4.77464e-05
0.000438317 -0.000132481 -0.000131073 -4.47686e-05
0.000660323 -0.000198984 -0.000197717 -3.98003e-05
0.000441923 -0.000133579 -0.000132147 -4.4769e-05
0.00044012 -0.00013303 -0.00013161 -4.47688e-05
0.000219055 -6.67643e-05 -6.52673e-05 -4.77462e-05
0.000217262 -6.62092e-05 -6.47371e-05 -4.77458e-05
0.000652194 -0.000196524 -0.000195287 -3.97997e-05
0.000657613 -0.000198164 -0.000196907 -3.98001e-05
0.000218159 -6.64867e-05 -6.50022e-05 -4.7746e-05
0.000434712 -0.000131383 -0.000129998 -4.47682e-05
0.000654904 -0.000197344 -0.000196097 -3.97999e-05
0.000438317 -0.000132481 -0.000131073 -4.47686e-05
0.000436514 -0.000131932 -0.000130535 -4.47684e-05
0.000217262 -6.62092e-05 -6.47371e-05 -4.77458e-05
0.00021547 -6.56541e-05 -6.42067e-05 -4.77454e-05
0.000646775 -0.000194883 -0.000193668 -3.97993e-05
0.000652194 -0.000196524 -0.000195287 -3.97997e-05
0.000216366 -6.59316e-05 -6.44719e-05 -4.77456e-05
0.000431106 -0.000130285 -0.000128923 -4.47678e-05
0.000649485 -0.000195704 -0.000194478 -3.97995e-05
0.000434712 -0.000131383 -0.000129998 -4.47682e-05
0.000432909 -0.000130834 -0.000129461 -4.4768e-05
0.00021547 -6.56541e-05 -6.42067e-05 -4.77454e-05
0.000213677 -6.50992e-05 -6.36762e-05 -4.7745e-05
0.000641355 -0.000193243 -0.000192048 -3.97989e-05
0.000646775 -0.000194883 -0.000193668 -3.97993e-05
0.000214573 -6.53766e-05 -6.39415e-05 -4.77452e-05
0.0004275 -0.000129187 -0.000127848 -4.47674e-05
0.000644065 -0.000194063 -0.000192858 -3.97991e-05
0.000431106 -0.000130285 -0.000128923 -4.47678e-05
0.000429303 -0.000129736 -0.000128386 -4.47676e-05
0.000213677 -6.50992e-05 -6.36762e-05 -4.7745e-05
0.000211884 -6.45443e-05 -6.31456e-05 -4.77447e-05
0.000635936 -0.000191603 -0.000190428 -3.97984e-05
0.000641355 -0.000193243 -0.000192048 -3.97989e-05
0.000212781 -6.48217e-05 -6.34109e-05 -4.77449e-05
0.000423894 -0.000128089 -0.000126773 -4.47669e-05
0.000638646 -0.000192423 -0.000191238 -3.97987e-05
0.0004275 -0.000129187 -0.000127848 -4.47674e-05
0.000425697 -0.000128638 -0.000127311 -4.47671e-05
0.000211884 -6.45443e-05 -6.31456e-05 -4.77447e-05
0.000210091 -6.39895e-05 -6.26149e-05 -4.77443e-05
0.000630516 -0.000189963 -0.000188808 -3.9798e-05
0.000635936 -0.000191603 -0.000190428 -3.97984e-05
0.000210988 -6.42669e-05 -6.28803e-05 -4.77445e-05
0.000420288 -0.000126992 -0.000125698 -4.47665e-05
0.000633226 -0.000190783 -0.000189618 -3.97982e-05
0.000423894 -0.000128089 -0.000126773 -4.47669e-05
0.000422091 -0.000127541 -0.000126236 -4.47667e-05
0.000210091 -6.39895e-05 -6.26149e-05 -4.77443e-05
0.000208298 -6.34349e-05 -6.20841e-05 -4.77439e-05
0.000625096 -0.000188323 -0.000187189 -3.97976e-05
0.000630516 -0.000189963 -0.000188808 -3.9798e-05
0.000209194 -6.37122e-05 -6.23495e-05 -4.77441e-05
0.000416682 -0.000125894 -0.000124623 -4.47661e-05
0.000627806 -0.000189143 -0.000187998 -3.97978e-05
0.000420288 -0.000126992 -0.000125698 -4.47665e-05
0.000418485 -0.000126443 -0.000125161 -4.47663e-05
0.000208298 -6.34349e-05 -6.20841e-05 -4.77439e-05
0.000206504 -6.28803e-05 -6.15532e-05 -4.77435e-05
0.000619677 -0.000186683 -0.000185568 -3.97972e-05
0.000625096 -0.000188323 -0.000187189 -3.97976e-05
0.000207401 -6.31576e-05 -6.18187e-05 -4.77437e-05
0.000413075 -0.000124797 -0.000123548 -4.47657e-05
0.000622386 -0.000187503 -0.000186379 -3.97974e-05
0.000416682 -0.000125894 -0.000124623 -4.47661e-05
0.000414879 -0.000125346 -0.000124086 -4.47659e-05
0.000206504 -6.28803e-05 -6.15532e-05 -4.77435e-05
0.000204711 -6.23259e-05 -6.10222e-05 -4.77431e-05
0.000614257 -0.000185044 -0.000183948 -3.97968e-05
0.000619677 -0.000186683 -0.000185568 -3.97972e-05
0.000205608 -6.26031e-05 -6.12877e-05 -4.77433e-05
0.000409469 -0.000123699 -0.000122473 -4.47653e-05
0.000616967 -0.000185863 -0.000184758 -3.9797e-05
0.000413075 -0.000124797 -0.000123548 -4.47657e-05
0.000411272 -0.000124248 -0.00012301 -4.47655e-05
0.000204711 -6.23259e-05 -6.10222e-05 -4.77431e-05
0.000202917 -6.17715e-05 -6.04911e-05 -4.77427e-05
0.000608836 -0.000183404 -0.000182328 -3.97964e-05
0.000614257 -0.000185044 -0.000183948 -3.97968e-05
0.000203814 -6.20487e-05 -6.07566e-05 -4.77429e-05
0.000405862 -0.000122602 -0.000121397 -4.47649e-05
0.000611546 -0.000184224 -0.000183138 -3.97966e-05
0.000409469 -0.000123699 -0.000122473 -4.47653e-05
0.000407666 -0.000123151 -0.000121935 -4.47651e-05
0.000202917 -6.17715e-05 -6.04911e-05 -4.77427e-05
0.000201123 -6.12172e-05 -5.99598e-05 -4.77424e-05
0.000603416 -0.000181764 -0.000180708 -3.97959e-05
0.000608836 -0.000183404 -0.000182328 -3.97964e-05
0.00020202 -6.14943e-05 -6.02255e-05 -4.77425e-05
0.000402256 -0.000121505 -0.000120322 -4.47644e-05
0.000606126 -0.000182584 -0.000181518 -3.97962e-05
0.000405862 -0.000122602 -0.000121397 -4.47649e-05
0.000404059 -0.000122054 -0.000120859 -4.47647e-05
0.000201123 -6.12172e-05 -5.99598e-05 -4.77424e-05
0.000199329 -6.0663e-05 -5.94285e-05 -4.7742e-05
0.000597996 -0.000180125 -0.000179088 -3.97955e-05
0.000603416 -0.000181764 -0.000180708 -3.97959e-05
0.000200226 -6.09401e-05 -5.96942e-05 -4.77422e-05
0.000398649 -0.000120408 -0.000119246 -4.4764e-05
0.000600706 -0.000180945 -0.000179898 -3.97957e-05
0.000402256 -0.000121505 -0.000120322 -4.47644e-05
0.000400452 -0.000120956 -0.000119784 -4.47642e-05
0.000199329 -6.0663e-05 -5.94285e-05 -4.7742e-05
0.000197535 -6.0109e-05 -5.8897e-05 -4.77416e-05
0.000592575 -0.000178485 -0.000177467 -3.97951e-05
0.000597996 -0.000180125 -0.000179088 -3.97955e-05
0.000198432 -6.0386e-05 -5.91628e-05 -4.77418e-05
0.000395042 -0.000119311 -0.00011817 -4.47636e-05
0.000595286 -0.000179305 -0.000178277 -3.97953e-05
0.000398649 -0.000120408 -0.000119246 -4.4764e-05
0.000396845 -0.000119859 -0.000118708 -4.47638e-05
0.000197535 -6.0109e-05 -5.8897e-05 -4.77416e-05
0.000195741 -5.9555e-05 -5.83655e-05 -4.77412e-05
0.000587155 -0.000176846 -0.000175847 -3.97947e-05
0.000592575 -0.000178485 -0.000177467 -3.97951e-05
0.000196638 -5.9832e-05 -5.86313e-05 -4.77414e-05
0.000391435 -0.000118214 -0.000117095 -4.47632e-05
0.000589865 -0.000177666 -0.000176657 -3.97949e-05
0.000395042 -0.000119311 -0.00011817 -4.47636e-05
0.000393238 -0.000118762 -0.000117632 -4.47634e-05
0.000195741 -5.9555e-05 -5.83655e-05 -4.77412e-05
0.000193947 -5.90011e-05 -5.78338e-05 -4.77408e-05
0.000581734 -0.000175207 -0.000174226 -3.97943e-05
0.000587155 -0.000176846 -0.000175847 -3.97947e-05
0.000194844 -5.9278e-05 -5.80997e-05 -4.7741e-05
0.000387827 -0.000117117 -0.000116019 -4.47628e-05
0.000584445 -0.000176027 -0.000175036 -3.97945e-05
0.000391435 -0.000118214 -0.000117095 -4.47632e-05
0.000389631 -0.000117666 -0.000116557 -4.4763e-05
0.000193947 -5.90011e-05 -5.78338e-05 -4.77408e-05
0.000192152 -5.84473e-05 -5.7302e-05 -4.77404e-05
0.000576314 -0.000173568 -0.000172605 -3.97939e-05
0.000581734 -0.000175207 -0.000174226 -3.97943e-05
0.000193049 -5.87242e-05 -5.75679e-05 -4.77406e-05
0.00038422 -0.00011602 -0.000114943 -4.47624e-05
0.000579024 -0.000174387 -0.000173416 -3.97941e-05
0.000387827 -0.000117117 -0.000116019 -4.47628e-05
0.000386024 -0.000116569 -0.000115481 -4.47626e-05
0.000192152 -5.84473e-05 -5.7302e-05 -4.77404e-05
0.000190357 -5.78937e-05 -5.67702e-05 -4.77401e-05
0.000570893 -0.000171929 -0.000170985 -3.97935e-05
0.000576314 -0.000173568 -0.000172605 -3.97939e-05
0.000191255 -5.81705e-05 -5.70361e-05 -4.77402e-05
0.000380612 -0.000114924 -0.000113866 -4.4762e-05
0.000573603 -0.000172748 -0.000171795 -3.97937e-05
0.00038422 -0.00011602 -0.000114943 -4.47624e-05
0.000382416 -0.000115472 -0.000114405 -4.47622e-05
0.000190357 -5.78937e-05 -5.67702e-05 -4.77401e-05
0.000188563 -5.73401e-05 -5.62382e-05 -4.77397e-05
0.000565472 -0.00017029 -0.000169364 -3.9793e-05
0.000570893 -0.000171929 -0.000170985 -3.97935e-05
0.00018946 -5.76169e-05 -5.65042e-05 -4.77399e-05
0.000377005 -0.000113827 -0.00011279 -4.47616e-05
0.000568182 -0.000171109 -0.000170174 -3.97932e-05
0.000380612 -0.000114924 -0.000113866 -4.4762e-05
0.000378809 -0.000114376 -0.000113328 -4.47618e-05
0.000188563 -5.73401e-05 -5.62382e-05 -4.77397e-05
0.000186767 -5.67866e-05 -5.57061e-05 -4.77393e-05
0.000560051 -0.000168651 -0.000167743 -3.97926e-05
0.000565472 -0.00017029 -0.000169364 -3.9793e-05
0.000187665 -5.70633e-05 -5.59722e-05 -4.77395e-05
0.000373397 -0.000112731 -0.000111714 -4.47611e-05
0.000562761 -0.00016947 -0.000168553 -3.97928e-05
0.000377005 -0.000113827 -0.00011279 -4.47616e-05
0.000375201 -0.000113279 -0.000112252 -4.47613e-05
0.000186767 -5.67866e-05 -5.57061e-05 -4.77393e-05
0.000184972 -5.62332e-05 -5.51739e-05 -4.77389e-05
0.00055463 -0.000167012 -0.000166122 -3.97922e-05
0.000560051 -0.000168651 -0.000167743 -3.97926e-05
0.00018587 -5.65099e-05 -5.544e-05 -4.77391e-05
0.000369789 -0.000111635 -0.000110638 -4.47607e-05
0.00055734 -0.000167831 -0.000166932 -3.97924e-05
0.000373397 -0.000112731 -0.000111714 -4.47611e-05
0.000371593 -0.000112183 -0.000111176 -4.47609e-05
0.000184972 -5.62332e-05 -5.51739e-05 -4.77389e-05
0.000183177 -5.56799e-05 -5.46416e-05 -4.77385e-05
0.000549208 -0.000165373 -0.000164501 -3.97918e-05
0.00055463 -0.000167012 -0.000166122 -3.97922e-05
0.000184075 -5.59566e-05 -5.49078e-05 -4.77387e-05
0.000366181 -0.000110538 -0.000109561 -4.47603e-05
0.000551919 -0.000166193 -0.000165311 -3.9792e-05
0.000369789 -0.000111635 -0.000110638 -4.47607e-05
0.000367985 -0.000111086 -0.000110099 -4.47605e-05
0.000183177 -5.56799e-05 -5.46416e-05 -4.77385e-05
0.000181381 -5.51267e-05 -5.41092e-05 -4.77381e-05
0.000543787 -0.000163735 -0.000162879 -3.97914e-05
0.000549208 -0.000165373 -0.000164501 -3.97918e-05
0.000182279 -5.54033e-05 -5.43754e-05 -4.77383e-05
0.000362573 -0.000109442 -0.000108484 -4.47599e-05
0.000546498 -0.000164554 -0.00016369 -3.97916e-05
0.000366181 -0.000110538 -0.000109561 -4.47603e-05
0.000364377 -0.00010999 -0.000109023 -4.47601e-05
0.000181381 -5.51267e-05 -5.41092e-05 -4.77381e-05
0.000179586 -5.45737e-05 -5.35767e-05 -4.77378e-05
0.000538365 -0.000162096 -0.000161258 -3.9791e-05
0.000543787 -0.000163735 -0.000162879 -3.97914e-05
0.000180484 -5.48502e-05 -5.38429e-05 -4.7738e-05
0.000358964 -0.000108346 -0.000107408 -4.47595e-05
0.000541076 -0.000162915 -0.000162069 -3.97912e-05
0.000362573 -0.000109442 -0.000108484 -4.47599e-05
0.000360768 -0.000108894 -0.000107946 -4.47597e-05
0.000179586 -5.45737e-05 -5.35767e-05 -4.77378e-05
0.00017779 -5.40207e-05 -5.3044e-05 -4.77374e-05
0.000532944 -0.000160458 -0.000159637 -3.97906e-05
0.000538365 -0.000162096 -0.000161258 -3.9791e-05
0.000178688 -5.42971e-05 -5.33104e-05 -4.77376e-05
0.000355356 -0.00010725 -0.000106331 -4.47591e-05
0.000535655 -0.000161277 -0.000160448 -3.97908e-05
0.000358964 -0.000108346 -0.000107408 -4.47595e-05
0.00035716 -0.000107798 -0.000106869 -4.47593e-05
0.00017779 -5.40207e-05 -5.3044e-05 -4.77374e-05
0.000175994 -5.34678e-05 -5.25113e-05 -4.7737e-05
0.000527522 -0.000158819 -0.000158015 -3.97902e-05
0.000532944 -0.000160458 -0.000159637 -3.97906e-05
0.000176892 -5.37442e-05 -5.27777e-05 -4.77372e-05
0.000351747 -0.000106154 -0.000105254 -4.47587e-05
0.000530233 -0.000159639 -0.000158826 -3.97904e-05
0.000355356 -0.00010725 -0.000106331 -4.47591e-05
0.000353552 -0.000106702 -0.000105793 -4.47589e-05
0.000175994 -5.34678e-05 -5.25113e-05 -4.7737e-05
0.000174198 -5.2915e-05 -5.19785e-05 -4.77366e-05
0.0005221 -0.000157181 -0.000156394 -3.97898e-05
0.000527522 -0.000158819 -0.000158015 -3.97902e-05
0.000175096 -5.31914e-05 -5.22449e-05 -4.77368e-05
0.000348138 -0.000105059 -0.000104177 -4.47583e-05
0.000524811 -0.000158 -0.000157205 -3.979e-05
0.000351747 -0.000106154 -0.000105254 -4.47587e-05
0.000349943 -0.000105606 -0.000104716 -4.47585e-05
0.000174198 -5.2915e-05 -5.19785e-05 -4.77366e-05
0.000172402 -5.23623e-05 -5.14455e-05 -4.77363e-05
0.000516678 -0.000155543 -0.000154772 -3.97893e-05
0.0005221 -0.000157181 -0.000156394 -3.97898e-05
0.0001733 -5.26386e-05 -5.1712e-05 -4.77365e-05
0.00034453 -0.000103963 -0.0001031 -4.47579e-05
0.000519389 -0.000156362 -0.000155583 -3.97895e-05
0.000348138 -0.000105059 -0.000104177 -4.47583e-05
0.000346334 -0.000104511 -0.000103639 -4.47581e-05
0.000172402 -5.23623e-05 -5.14455e-05 -4.77363e-05
0.000170605 -5.18097e-05 -5.09125e-05 -4.77359e-05
0.000511256 -0.000153905 -0.000153151 -3.97889e-05
0.000516678 -0.000155543 -0.000154772 -3.97893e-05
0.000171504 -5.2086e-05 -5.1179e-05 -4.77361e-05
0.000340921 -0.000102867 -0.000102023 -4.47575e-05
0.000513967 -0.000154724 -0.000153961 -3.97891e-05
0.00034453 -0.000103963 -0.0001031 -4.47579e-05
0.000342725 -0.000103415 -0.000102561 -4.47577e-05
0.000170605 -5.18097e-05 -5.09125e-05 -4.77359e-05
0.000168809 -5.12572e-05 -5.03793e-05 -4.77355e-05
0.000505834 -0.000152267 -0.000151529 -3.97885e-05
0.000511256 -0.000153905 -0.000153151 -3.97889e-05
0.000169707 -5.15334e-05 -5.06459e-05 -4.77357e-05
0.000337311 -0.000101772 -0.000100945 -4.47571e-05
0.000508545 -0.000153086 -0.00015234 -3.97887e-05
0.000340921 -0.000102867 -0.000102023 -4.47575e-05
0.000339116 -0.00010232 -0.000101484 -4.47573e-05
0.000168809 -5.12572e-05 -5.03793e-05 -4.77355e-05
0.000167012 -5.07048e-05 -4.9846e-05 -4.77352e-05
0.000500412 -0.000150629 -0.000149907 -3.97881e-05
0.000505834 -0.000152267 -0.000151529 -3.97885e-05
0.000167911 -5.0981e-05 -5.01127e-05 -4.77353e-05
0.000333702 -0.000100677 -9.98681e-05 -4.47567e-05
0.000503123 -0.000151448 -0.000150718 -3.97883e-05
0.000337311 -0.000101772 -0.000100945 -4.47571e-05
0.000335507 -0.000101224 -0.000100407 -4.47569e-05
0.000167012 -5.07048e-05 -4.9846e-05 -4.77352e-05
0.000165215 -5.01525e-05 -4.93126e-05 -4.77348e-05
0.000494989 -0.000148991 -0.000148285 -3.97877e-05
0.000500412 -0.000150629 -0.000149907 -3.97881e-05
0.000166114 -5.04286e-05 -4.95793e-05 -4.7735e-05
0.000330093 -9.95813e-05 -9.87906e-05 -4.47563e-05
0.000497701 -0.00014981 -0.000149096 -3.97879e-05
0.000333702 -0.000100677 -9.98681e-05 -4.47567e-05
0.000331897 -0.000100129 -9.93294e-05 -4.47565e-05
0.000165215 -5.01525e-05 -4.93126e-05 -4.77348e-05
0.000163418 -4.96003e-05 -4.87791e-05 -4.77344e-05
0.000489567 -0.000147353 -0.000146663 -3.97873e-05
0.000494989 -0.000148991 -0.000148285 -3.97877e-05
0.000164317 -4.98764e-05 -4.90459e-05 -4.77346e-05
0.000326483 -9.84861e-05 -9.7713e-05 -4.47559e-05
0.000492278 -0.000148172 -0.000147474 -3.97875e-05
0.000330093 -9.95813e-05 -9.87906e-05 -4.47563e-05
0.000328288 -9.90337e-05 -9.82518e-05 -4.47561e-05
0.000163418 -4.96003e-05 -4.87791e-05 -4.77344e-05
0.000161621 -4.90482e-05 -4.82456e-05 -4.77341e-05
0.000484144 -0.000145716 -0.000145041 -3.97869e-05
0.000489567 -0.000147353 -0.000146663 -3.97873e-05
0.00016252 -4.93242e-05 -4.85124e-05 -4.77343e-05
0.000322874 -9.7391e-05 -9.66354e-05 -4.47555e-05
0.000486856 -0.000146534 -0.000145852 -3.97871e-05
0.000326483 -9.84861e-05 -9.7713e-05 -4.47559e-05
0.000324678 -9.79385e-05 -9.71742e-05 -4.47557e-05
0.000161621 -4.90482e-05 -4.82456e-05 -4.77341e-05
0.000159824 -4.84962e-05 -4.77119e-05 -4.77337e-05
0.000478721 -0.000144078 -0.000143419 -3.97865e-05
0.000484144 -0.000145716 -0.000145041 -3.97869e-05
0.000160722 -4.87722e-05 -4.79787e-05 -4.77339e-05
0.000319264 -9.6296e-05 -9.55576e-05 -4.47551e-05
0.000481433 -0.000144897 -0.00014423 -3.97867e-05
0.000322874 -9.7391e-05 -9.66354e-05 -4.47555e-05
0.000321069 -9.68435e-05 -9.60965e-05 -4.47553e-05
0.000159824 -4.84962e-05 -4.77119e-05 -4.77337e-05
0.000158026 -4.79442e-05 -4.7178e-05 -4.77333e-05
0.000473299 -0.000142441 -0.000141796 -3.97861e-05
0.000478721 -0.000144078 -0.000143419 -3.97865e-05
0.000158925 -4.82202e-05 -4.7445e-05 -4.77335e-05
0.000315654 -9.52011e-05 -9.44797e-05 -4.47547e-05
0.00047601 -0.000143259 -0.000142607 -3.97863e-05
0.000319264 -9.6296e-05 -9.55576e-05 -4.47551e-05
0.000317459 -9.57485e-05 -9.50187e-05 -4.47549e-05
0.000158026 -4.79442e-05 -4.7178e-05 -4.77333e-05
0.000156229 -4.73924e-05 -4.66441e-05 -4.7733e-05
0.000467876 -0.000140803 -0.000140174 -3.97857e-05
0.000473299 -0.000142441 -0.000141796 -3.97861e-05
0.000157128 -4.76683e-05 -4.69111e-05 -4.77332e-05
0.000312044 -9.41063e-05 -9.34017e-05 -4.47543e-05
0.000470587 -0.000141622 -0.000140985 -3.97859e-05
0.000315654 -9.52011e-05 -9.44797e-05 -4.47547e-05
0.000313849 -9.46537e-05 -9.39407e-05 -4.47545e-05
0.000156229 -4.73924e-05 -4.66441e-05 -4.7733e-05
0.000154431 -4.68407e-05 -4.61101e-05 -4.77326e-05
0.000462453 -0.000139166 -0.000138551 -3.97853e-05
0.000467876 -0.000140803 -0.000140174 -3.97857e-05
0.00015533 -4.71166e-05 -4.63771e-05 -4.77328e-05
0.000308433 -9.30116e-05 -9.23237e-05 -4.47539e-05
0.000465164 -0.000139984 -0.000139363 -3.97855e-05
0.000312044 -9.41063e-05 -9.34017e-05 -4.47543e-05
0.000310239 -9.35589e-05 -9.28627e-05 -4.47541e-05
0.000154431 -4.68407e-05 -4.61101e-05 -4.77326e-05
0.000152633 -4.62891e-05 -4.5576e-05 -4.77323e-05
0.000457029 -0.000137529 -0.000136929 -3.9785e-05
0.000462453 -0.000139166 -0.000138551 -3.97853e-05
0.000153532 -4.65649e-05 -4.58431e-05 -4.77325e-05
0.000304823 -9.1917e-05 -9.12455e-05 -4.47535e-05
0.000459741 -0.000138347 -0.00013774 -3.97852e-05
0.000308433 -9.30116e-05 -9.23237e-05 -4.47539e-05
0.000306628 -9.24643e-05 -9.17846e-05 -4.47537e-05
0.000152633 -4.62891e-05 -4.5576e-05 -4.77323e-05
0.000150835 -4.57376e-05 -4.50417e-05 -4.77319e-05
0.000451606 -0.000135891 -0.000135306 -3.97846e-05
0.000457029 -0.000137529 -0.000136929 -3.9785e-05
0.000151734 -4.60133e-05 -4.53089e-05 -4.77321e-05
0.000301213 -9.08224e-05 -9.01672e-05 -4.47532e-05
0.000454318 -0.00013671 -0.000136118 -3.97848e-05
0.000304823 -9.1917e-05 -9.12455e-05 -4.47535e-05
0.000303018 -9.13697e-05 -9.07064e-05 -4.47534e-05
0.000150835 -4.57376e-05 -4.50417e-05 -4.77319e-05
0.000149037 -4.51862e-05 -4.45074e-05 -4.77316e-05
0.000446183 -0.000134254 -0.000133684 -3.97842e-05
0.000451606 -0.000135891 -0.000135306 -3.97846e-05
0.000149936 -4.54619e-05 -4.47746e-05 -4.77317e-05
0.000297602 -8.9728e-05 -8.90888e-05 -4.47528e-05
0.000448895 -0.000135073 -0.000134495 -3.97844e-05
0.000301213 -9.08224e-05 -9.01672e-05 -4.47532e-05
0.000299407 -9.02752e-05 -8.9628e-05 -4.4753e-05
0.000149037 -4.51862e-05 -4.45074e-05 -4.77316e-05
0.000147238 -4.46349e-05 -4.39729e-05 -4.77312e-05
0.000440759 -0.000132617 -0.000132061 -3.97838e-05
0.000446183 -0.000134254 -0.000133684 -3.97842e-05
0.000148138 -4.49105e-05 -4.42402e-05 -4.77314e-05
0.000293991 -8.86337e-05 -8.80104e-05 -4.47524e-05
0.000443471 -0.000133436 -0.000132872 -3.9784e-05
0.000297602 -8.9728e-05 -8.90888e-05 -4.47528e-05
0.000295797 -8.91808e-05 -8.85496e-05 -4.47526e-05
0.000147238 -4.46349e-05 -4.39729e-05 -4.77312e-05
0.00014544 -4.40836e-05 -4.34384e-05 -4.77309e-05
0.000435336 -0.000130981 -0.000130438 -3.97834e-05
0.000440759 -0.000132617 -0.000132061 -3.97838e-05
0.000146339 -4.43592e-05 -4.37057e-05 -4.77311e-05
0.00029038 -8.75394e-05 -8.69318e-05 -4.4752e-05
0.000438048 -0.000131799 -0.000131249 -3.97836e-05
0.000293991 -8.86337e-05 -8.80104e-05 -4.47524e-05
0.000292186 -8.80866e-05 -8.74711e-05 -4.47522e-05
0.00014544 -4.40836e-05 -4.34384e-05 -4.77309e-05
0.000143641 -4.35325e-05 -4.29037e-05 -4.77305e-05
0.000429912 -0.000129344 -0.000128815 -3.9783e-05
0.000435336 -0.000130981 -0.000130438 -3.97834e-05
0.00014454 -4.38081e-05 -4.3171e-05 -4.77307e-05
0.000286769 -8.64453e-05 -8.58532e-05 -4.47516e-05
0.000432624 -0.000130162 -0.000129626 -3.97832e-05
0.00029038 -8.75394e-05 -8.69318e-05 -4.4752e-05
0.000288575 -8.69924e-05 -8.63925e-05 -4.47518e-05
0.000143641 -4.35325e-05 -4.29037e-05 -4.77305e-05
0.000141842 -4.29815e-05 -4.23689e-05 -4.77302e-05
0.000424488 -0.000127707 -0.000127192 -3.97826e-05
0.000429912 -0.000129344 -0.000128815 -3.9783e-05
0.000142742 -4.3257e-05 -4.26363e-05 -4.77304e-05
0.000283158 -8.53513e-05 -8.47744e-05 -4.47513e-05
0.0004272 -0.000128525 -0.000128003 -3.97828e-05
0.000286769 -8.64453e-05 -8.58532e-05 -4.47516e-05
0.000284964 -8.58983e-05 -8.53138e-05 -4.47515e-05
0.000141842 -4.29815e-05 -4.23689e-05 -4.77302e-05
0.000140043 -4.24305e-05 -4.1834e-05 -4.77299e-05
0.000419064 -0.00012607 -0.000125569 -3.97823e-05
0.000424488 -0.000127707 -0.000127192 -3.97826e-05
0.000140943 -4.2706e-05 -4.21015e-05 -4.773e-05
0.000279547 -8.42573e-05 -8.36955e-05 -4.47509e-05
0.000421776 -0.000126889 -0.00012638 -3.97825e-05
0.000283158 -8.53513e-05 -8.47744e-05 -4.47513e-05
0.000281353 -8.48043e-05 -8.4235e-05 -4.47511e-05
0.000140043 -4.24305e-05 -4.1834e-05 -4.77299e-05
0.000138244 -4.18797e-05 -4.1299e-05 -4.77295e-05
0.00041364 -0.000124434 -0.000123946 -3.97819e-05
0.000419064 -0.00012607 -0.000125569 -3.97823e-05
0.000139144 -4.21551e-05 -4.15665e-05 -4.77297e-05
0.000275935 -8.31634e-05 -8.26166e-05 -4.47505e-05
0.000416352 -0.000125252 -0.000124757 -3.97821e-05
0.000279547 -8.42573e-05 -8.36955e-05 -4.47509e-05
0.000277741 -8.37104e-05 -8.31561e-05 -4.47507e-05
0.000138244 -4.18797e-05 -4.1299e-05 -4.77295e-05
0.000136445 -4.1329e-05 -4.07639e-05 -4.77292e-05
0.000408216 -0.000122797 -0.000122322 -3.97815e-05
0.00041364 -0.000124434 -0.000123946 -3.97819e-05
0.000137344 -4.16043e-05 -4.10315e-05 -4.77293e-05
0.000272324 -8.20697e-05 -8.15375e-05 -4.47502e-05
0.000410928 -0.000123616 -0.000123134 -3.97817e-05
0.000275935 -8.31634e-05 -8.26166e-05 -4.47505e-05
0.00027413 -8.26165e-05 -8.2077e-05 -4.47503e-05
0.000136445 -4.1329e-05 -4.07639e-05 -4.77292e-05
0.000134645 -4.07784e-05 -4.02287e-05 -4.77288e-05
0.000402792 -0.000121161 -0.000120699 -3.97811e-05
0.000408216 -0.000122797 -0.000122322 -3.97815e-05
0.000135545 -4.10537e-05 -4.04963e-05 -4.7729e-05
0.000268712 -8.0976e-05 -8.04583e-05 -4.47498e-05
0.000405504 -0.000121979 -0.000121511 -3.97813e-05
0.000272324 -8.20697e-05 -8.15375e-05 -4.47502e-05
0.000270518 -8.15228e-05 -8.09979e-05 -4.475e-05
0.000134645 -4.07784e-05 -4.02287e-05 -4.77288e-05
0.000132846 -4.02278e-05 -3.96934e-05 -4.77285e-05
0.000397367 -0.000119525 -0.000119075 -3.97808e-05
0.000402792 -0.000121161 -0.000120699 -3.97811e-05
0.000133746 -4.05031e-05 -3.99611e-05 -4.77287e-05
0.0002651 -7.98824e-05 -7.93791e-05 -4.47494e-05
0.000400079 -0.000120343 -0.000119887 -3.9781e-05
0.000268712 -8.0976e-05 -8.04583e-05 -4.47498e-05
0.000266906 -8.04292e-05 -7.99187e-05 -4.47496e-05
0.000132846 -4.02278e-05 -3.96934e-05 -4.77285e-05
0.000131046 -3.96774e-05 -3.9158e-05 -4.77282e-05
0.000391943 -0.000117889 -0.000117452 -3.97804e-05
0.000397367 -0.000119525 -0.000119075 -3.97808e-05
0.000131946 -3.99526e-05 -3.94257e-05 -4.77284e-05
0.000261488 -7.87889e-05 -7.82997e-05 -4.47491e-05
0.000394655 -0.000118707 -0.000118264 -3.97806e-05
0.0002651 -7.98824e-05 -7.93791e-05 -4.47494e-05
0.000263294 -7.93357e-05 -7.88394e-05 -4.47492e-05
0.000131046 -3.96774e-05 -3.9158e-05 -4.77282e-05
0.000129246 -3.9127e-05 -3.86224e-05 -4.77279e-05
0.000386518 -0.000116252 -0.000115828 -3.978e-05
0.000391943 -0.000117889 -0.000117452 -3.97804e-05
0.000130146 -3.94022e-05 -3.88902e-05 -4.7728e-05
0.000257876 -7.76956e-05 -7.72203e-05 -4.47487e-05
0.00038923 -0.000117071 -0.00011664 -3.97802e-05
0.000261488 -7.87889e-05 -7.82997e-05 -4.47491e-05
0.000259682 -7.82422e-05 -7.776e-05 -4.47489e-05
0.000129246 -3.9127e-05 -3.86224e-05 -4.77279e-05
0.000127446 -3.85768e-05 -3.80868e-05 -4.77275e-05
0.000381093 -0.000114616 -0.000114204 -3.97797e-05
0.000386518 -0.000116252 -0.000115828 -3.978e-05
0.000128346 -3.88519e-05 -3.83546e-05 -4.77277e-05
0.000254264 -7.66023e-05 -7.61407e-05 -4.47483e-05
0.000383806 -0.000115434 -0.000115016 -3.97798e-05
0.000257876 -7.76956e-05 -7.72203e-05 -4.47487e-05
0.00025607 -7.71489e-05 -7.66805e-05 -4.47485e-05
0.000127446 -3.85768e-05 -3.80868e-05 -4.77275e-05
0.000125646 -3.80266e-05 -3.7551e-05 -4.77272e-05
0.000375668 -0.000112981 -0.000112581 -3.97793e-05
0.000381093 -0.000114616 -0.000114204 -3.97797e-05
0.000126546 -3.83017e-05 -3.78189e-05 -4.77274e-05
0.000250652 -7.55091e-05 -7.50611e-05 -4.4748e-05
0.000378381 -0.000113798 -0.000113392 -3.97795e-05
0.000254264 -7.66023e-05 -7.61407e-05 -4.47483e-05
0.000252458 -7.60556e-05 -7.56009e-05 -4.47482e-05
0.000125646 -3.80266e-05 -3.7551e-05 -4.77272e-05
0.000123845 -3.74766e-05 -3.70152e-05 -4.77269e-05
0.000370243 -0.000111345 -0.000110957 -3.97789e-05
0.000375668 -0.000112981 -0.000112581 -3.97793e-05
0.000124746 -3.77516e-05 -3.72831e-05 -4.77271e-05
0.000247039 -7.4416e-05 -7.39813e-05 -4.47476e-05
0.000372956 -0.000112163 -0.000111769 -3.97791e-05
0.000250652 -7.55091e-05 -7.50611e-05 -4.4748e-05
0.000248845 -7.49625e-05 -7.45212e-05 -4.47478e-05
0.000123845 -3.74766e-05 -3.70152e-05 -4.77269e-05
0.000122045 -3.69267e-05 -3.64792e-05 -4.77266e-05
0.000364818 -0.000109709 -0.000109333 -3.97786e-05
0.000370243 -0.000111345 -0.000110957 -3.97789e-05
0.000122945 -3.72016e-05 -3.67472e-05 -4.77267e-05
0.000243426 -7.33229e-05 -7.29015e-05 -4.47473e-05
0.000367531 -0.000110527 -0.000110145 -3.97788e-05
0.000247039 -7.4416e-05 -7.39813e-05 -4.47476e-05
0.000245233 -7.38694e-05 -7.34414e-05 -4.47475e-05
0.000122045 -3.69267e-05 -3.64792e-05 -4.77266e-05
0.000120244 -3.63768e-05 -3.59431e-05 -4.77263e-05
0.000359393 -0.000108073 -0.000107709 -3.97782e-05
0.000364818 -0.000109709 -0.000109333 -3.97786e-05
0.000121144 -3.66517e-05 -3.62112e-05 -4.77264e-05
0.000239814 -7.223e-05 -7.18215e-05 -4.47469e-05
0.000362106 -0.000108891 -0.000108521 -3.97784e-05
0.000243426 -7.33229e-05 -7.29015e-05 -4.47473e-05
0.00024162 -7.27765e-05 -7.23615e-05 -4.47471e-05
0.000120244 -3.63768e-05 -3.59431e-05 -4.77263e-05
0.000118443 -3.5827e-05 -3.5407e-05 -4.7726e-05
0.000353968 -0.000106438 -0.000106084 -3.97779e-05
0.000359393 -0.000108073 -0.000107709 -3.97782e-05
0.000119344 -3.61019e-05 -3.56751e-05 -4.77261e-05
0.000236201 -7.11372e-05 -7.07415e-05 -4.47466e-05
0.00035668 -0.000107255 -0.000106896 -3.97781e-05
0.000239814 -7.223e-05 -7.18215e-05 -4.47469e-05
0.000238007 -7.16836e-05 -7.12815e-05 -4.47468e-05
0.000118443 -3.5827e-05 -3.5407e-05 -4.7726e-05
0.000116642 -3.52774e-05 -3.48707e-05 -4.77257e-05
0.000348542 -0.000104802 -0.00010446 -3.97775e-05
0.000353968 -0.000106438 -0.000106084 -3.97779e-05
0.000117543 -3.55522e-05 -3.51388e-05 -4.77258e-05
0.000232588 -7.00445e-05 -6.96613e-05 -4.47463e-05
0.000351255 -0.00010562 -0.000105272 -3.97777e-05
0.000236201 -7.11372e-05 -7.07415e-05 -4.47466e-05
0.000234394 -7.05908e-05 -7.02014e-05 -4.47464e-05
0.000116642 -3.52774e-05 -3.48707e-05 -4.77257e-05
0.000114841 -3.47278e-05 -3.43343e-05 -4.77254e-05
0.000343117 -0.000103167 -0.000102836 -3.97772e-05
0.000348542 -0.000104802 -0.00010446 -3.97775e-05
0.000115742 -3.50026e-05 -3.46025e-05 -4.77255e-05
0.000228974 -6.89518e-05 -6.85811e-05 -4.47459e-05
0.00034583 -0.000103984 -0.000103648 -3.97774e-05
0.000232588 -7.00445e-05 -6.96613e-05 -4.47463e-05
0.000230781 -6.94981e-05 -6.91212e-05 -4.47461e-05
0.000114841 -3.47278e-05 -3.43343e-05 -4.77254e-05
0.00011304 -3.41784e-05 -3.37977e-05 -4.77251e-05
0.000337691 -0.000101531 -0.000101211 -3.97768e-05
0.000343117 -0.000103167 -0.000102836 -3.97772e-05
0.00011394 -3.44531e-05 -3.4066e-05 -4.77252e-05
0.000225361 -6.78593e-05 -6.75007e-05 -4.47456e-05
0.000340404 -0.000102349 -0.000102024 -3.9777e-05
0.000228974 -6.89518e-05 -6.85811e-05 -4.47459e-05
0.000227168 -6.84055e-05 -6.80409e-05 -4.47458e-05
0.00011304 -3.41784e-05 -3.37977e-05 -4.77251e-05
0.000111238 -3.3629e-05 -3.32611e-05 -4.77248e-05
0.000332265 -9.98961e-05 -9.95867e-05 -3.97765e-05
0.000337691 -0.000101531 -0.000101211 -3.97768e-05
0.000112139 -3.39037e-05 -3.35295e-05 -4.77249e-05
0.000221747 -6.67668e-05 -6.64202e-05 -4.47453e-05
0.000334978 -0.000100714 -0.000100399 -3.97767e-05
0.000225361 -6.78593e-05 -6.75007e-05 -4.47456e-05
0.000223554 -6.7313e-05 -6.69605e-05 -4.47454e-05
0.000111238 -3.3629e-05 -3.32611e-05 -4.77248e-05
0.000109437 -3.30798e-05 -3.27244e-05 -4.77245e-05
0.000326839 -9.82609e-05 -9.79621e-05 -3.97762e-05
0.000332265 -9.98961e-05 -9.95867e-05 -3.97765e-05
0.000110338 -3.33544e-05 -3.29928e-05 -4.77246e-05
0.000218134 -6.56745e-05 -6.53397e-05 -4.47449e-05
0.000329552 -9.90785e-05 -9.87744e-05 -3.97763e-05
0.000221747 -6.67668e-05 -6.64202e-05 -4.47453e-05
0.000219941 -6.62206e-05 -6.588e-05 -4.47451e-05
0.000109437 -3.30798e-05 -3.27244e-05 -4.77245e-05
0.000107635 -3.25306e-05 -3.21876e-05 -4.77242e-05
0.000321413 -9.66259e-05 -9.63374e-05 -3.97758e-05
0.000326839 -9.82609e-05 -9.79621e-05 -3.97762e-05
0.000108536 -3.28052e-05 -3.2456e-05 -4.77243e-05
0.00021452 -6.45822e-05 -6.4259e-05 -4.47446e-05
0.000324126 -9.74434e-05 -9.71498e-05 -3.9776e-05
0.000218134 -6.56745e-05 -6.53397e-05 -4.47449e-05
0.000216327 -6.51283e-05 -6.47994e-05 -4.47448e-05
0.000107635 -3.25306e-05 -3.21876e-05 -4.77242e-05
0.000105833 -3.19815e-05 -3.16506e-05 -4.77239e-05
0.000315987 -9.49909e-05 -9.47126e-05 -3.97755e-05
0.000321413 -9.66259e-05 -9.63374e-05 -3.97758e-05
0.000106734 -3.2256e-05 -3.19191e-05 -4.7724e-05
0.000210906 -6.349e-05 -6.31783e-05 -4.47443e-05
0.0003187 -9.58084e-05 -9.5525e-05 -3.97756e-05
0.00021452 -6.45822e-05 -6.4259e-05 -4.47446e-05
0.000212713 -6.40361e-05 -6.37187e-05 -4.47444e-05
0.000105833 -3.19815e-05 -3.16506e-05 -4.77239e-05
0.000104031 -3.14325e-05 -3.11136e-05 -4.77236e-05
0.000310561 -9.33559e-05 -9.30878e-05 -3.97751e-05
0.000315987 -9.49909e-05 -9.47126e-05 -3.97755e-05
0.000104932 -3.1707e-05 -3.13821e-05 -4.77238e-05
0.000207292 -6.2398e-05 -6.20974e-05 -4.4744e-05
0.000313274 -9.41734e-05 -9.39002e-05 -3.97753e-05
0.000210906 -6.349e-05 -6.31783e-05 -4.47443e-05
0.000209099 -6.2944e-05 -6.26379e-05 -4.47441e-05
0.000104031 -3.14325e-05 -3.11136e-05 -4.77236e-05
0.000102229 -3.08837e-05 -3.05764e-05 -4.77233e-05
0.000305134 -9.17211e-05 -9.14628e-05 -3.97748e-05
0.000310561 -9.33559e-05 -9.30878e-05 -3.97751e-05
0.00010313 -3.11581e-05 -3.0845e-05 -4.77235e-05
0.000203678 -6.1306e-05 -6.10165e-05 -4.47436e-05
0.000307848 -9.25385e-05 -9.22753e-05 -3.9775e-05
0.000207292 -6.2398e-05 -6.20974e-05 -4.4744e-05
0.000205485 -6.1852e-05 -6.1557e-05 -4.47438e-05
0.000102229 -3.08837e-05 -3.05764e-05 -4.77233e-05
0.000100426 -3.03349e-05 -3.00391e-05 -4.77231e-05
0.000299708 -9.00864e-05 -8.98377e-05 -3.97745e-05
0.000305134 -9.17211e-05 -9.14628e-05 -3.97748e-05
0.000101327 -3.06093e-05 -3.03078e-05 -4.77232e-05
0.000200063 -6.02141e-05 -5.99354e-05 -4.47433e-05
0.000302421 -9.09037e-05 -9.06503e-05 -3.97747e-05
0.000203678 -6.1306e-05 -6.10165e-05 -4.47436e-05
0.000201871 -6.076e-05 -6.0476e-05 -4.47435e-05
0.000100426 -3.03349e-05 -3.00391e-05 -4.77231e-05
9.86237e-05 -2.97862e-05 -2.95018e-05 -4.77228e-05
0.000294281 -8.84517e-05 -8.82126e-05 -3.97742e-05
0.000299708 -9.00864e-05 -8.98377e-05 -3.97745e-05
9.9525e-05 -3.00605e-05 -2.97705e-05 -4.77229e-05
0.000196449 -5.91223e-05 -5.88543e-05 -4.4743e-05
0.000296994 -8.9269e-05 -8.90252e-05 -3.97743e-05
0.000200063 -6.02141e-05 -5.99354e-05 -4.47433e-05
0.000198256 -5.96682e-05 -5.93949e-05 -4.47432e-05
9.86237e-05 -2.97862e-05 -2.95018e-05 -4.77228e-05
9.68209e-05 -2.92376e-05 -2.89643e-05 -4.77225e-05
0.000288854 -8.68171e-05 -8.65874e-05 -3.97738e-05
0.000294281 -8.84517e-05 -8.82126e-05 -3.97742e-05
9.77223e-05 -2.95119e-05 -2.9233e-05 -4.77226e-05
0.000192834 -5.80306e-05 -5.7773e-05 -4.47427e-05
0.000291568 -8.76344e-05 -8.74e-05 -3.9774e-05
0.000196449 -5.91223e-05 -5.88543e-05 -4.4743e-05
0.000194642 -5.85764e-05 -5.83137e-05 -4.47429e-05
9.68209e-05 -2.92376e-05 -2.89643e-05 -4.77225e-05
9.50181e-05 -2.86892e-05 -2.84267e-05 -4.77222e-05
0.000283427 -8.51826e-05 -8.49621e-05 -3.97735e-05
0.000288854 -8.68171e-05 -8.65874e-05 -3.97738e-05
9.59195e-05 -2.89634e-05 -2.86955e-05 -4.77224e-05
0.00018922 -5.6939e-05 -5.66917e-05 -4.47424e-05
0.000286141 -8.59999e-05 -8.57747e-05 -3.97737e-05
0.000192834 -5.80306e-05 -5.7773e-05 -4.47427e-05
0.000191027 -5.74848e-05 -5.72324e-05 -4.47426e-05
9.50181e-05 -2.86892e-05 -2.84267e-05 -4.77222e-05
9.3215e-05 -2.81408e-05 -2.7889e-05 -4.7722e-05
0.000278 -8.35482e-05 -8.33367e-05 -3.97732e-05
0.000283427 -8.51826e-05 -8.49621e-05 -3.97735e-05
9.41166e-05 -2.84149e-05 -2.81578e-05 -4.77221e-05
0.000185605 -5.58475e-05 -5.56102e-05 -4.47421e-05
0.000280714 -8.43654e-05 -8.41494e-05 -3.97734e-05
0.00018922 -5.6939e-05 -5.66917e-05 -4.47424e-05
0.000187412 -5.63932e-05 -5.6151e-05 -4.47423e-05
9.3215e-05 -2.81408e-05 -2.7889e-05 -4.7722e-05
9.14118e-05 -2.75925e-05 -2.73512e-05 -4.77217e-05
0.000272573 -8.19139e-05 -8.17112e-05 -3.97729e-05
0.000278 -8.35482e-05 -8.33367e-05 -3.97732e-05
9.23134e-05 -2.78666e-05 -2.76201e-05 -4.77218e-05
0.00018199 -5.47561e-05 -5.45287e-05 -4.47418e-05
0.000275287 -8.27311e-05 -8.25239e-05 -3.9773e-05
0.000185605 -5.58475e-05 -5.56102e-05 -4.47421e-05
0.000183797 -5.53018e-05 -5.50695e-05 -4.4742e-05
9.14118e-05 -2.75925e-05 -2.73512e-05 -4.77217e-05
8.96085e-05 -2.70443e-05 -2.68132e-05 -4.77215e-05
0.000267146 -8.02797e-05 -8.00856e-05 -3.97726e-05
0.000272573 -8.19139e-05 -8.17112e-05 -3.97729e-05
9.05102e-05 -2.73184e-05 -2.70822e-05 -4.77216e-05
0.000178374 -5.36647e-05 -5.3447e-05 -4.47415e-05
0.00026986 -8.10968e-05 -8.08984e-05 -3.97727e-05
0.00018199 -5.47561e-05 -5.45287e-05 -4.47418e-05
0.000180182 -5.42104e-05 -5.39879e-05 -4.47417e-05
8.96085e-05 -2.70443e-05 -2.68132e-05 -4.77215e-05
8.7805e-05 -2.64962e-05 -2.62752e-05 -4.77212e-05
0.000261719 -7.86455e-05 -7.84599e-05 -3.97723e-05
0.000267146 -8.02797e-05 -8.00856e-05 -3.97726e-05
8.87068e-05 -2.67702e-05 -2.65442e-05 -4.77213e-05
0.000174759 -5.25735e-05 -5.23653e-05 -4.47412e-05
0.000264432 -7.94626e-05 -7.92728e-05 -3.97724e-05
0.000178374 -5.36647e-05 -5.3447e-05 -4.47415e-05
0.000176567 -5.31191e-05 -5.29061e-05 -4.47414e-05
8.7805e-05 -2.64962e-05 -2.62752e-05 -4.77212e-05
8.60013e-05 -2.59482e-05 -2.57371e-05 -4.7721e-05
0.000256291 -7.70114e-05 -7.68341e-05 -3.9772e-05
0.000261719 -7.86455e-05 -7.84599e-05 -3.97723e-05
8.69032e-05 -2.62222e-05 -2.60061e-05 -4.77211e-05
0.000171144 -5.14823e-05 -5.12834e-05 -4.47409e-05
0.000259005 -7.78285e-05 -7.7647e-05 -3.97721e-05
0.000174759 -5.25735e-05 -5.23653e-05 -4.47412e-05
0.000172951 -5.20279e-05 -5.18243e-05 -4.47411e-05
8.60013e-05 -2.59482e-05 -2.57371e-05 -4.7721e-05
8.41975e-05 -2.54003e-05 -2.51988e-05 -4.77207e-05
0.000250863 -7.53774e-05 -7.52083e-05 -3.97717e-05
0.000256291 -7.70114e-05 -7.68341e-05 -3.9772e-05
8.50994e-05 -2.56742e-05 -2.54679e-05 -4.77208e-05
0.000167528 -5.03913e-05 -5.02014e-05 -4.47406e-05
0.000253577 -7.61944e-05 -7.60212e-05 -3.97718e-05
0.000171144 -5.14823e-05 -5.12834e-05 -4.47409e-05
0.000169336 -5.09368e-05 -5.07424e-05 -4.47408e-05
8.41975e-05 -2.54003e-05 -2.51988e-05 -4.77207e-05
8.23935e-05 -2.48525e-05 -2.46604e-05 -4.77205e-05
0.000245436 -7.37435e-05 -7.35824e-05 -3.97714e-05
0.000250863 -7.53774e-05 -7.52083e-05 -3.97717e-05
8.32955e-05 -2.51264e-05 -2.49296e-05 -4.77206e-05
0.000163912 -4.93003e-05 -4.91194e-05 -4.47404e-05
0.00024815 -7.45605e-05 -7.43953e-05 -3.97715e-05
0.000167528 -5.03913e-05 -5.02014e-05 -4.47406e-05
0.00016572 -4.98458e-05 -4.96604e-05 -4.47405e-05
8.23935e-05 -2.48525e-05 -2.46604e-05 -4.77205e-05
8.05894e-05 -2.43048e-05 -2.4122e-05 -4.77202e-05
0.000240008 -7.21097e-05 -7.19563e-05 -3.97711e-05
0.000245436 -7.37435e-05 -7.35824e-05 -3.97714e-05
8.14915e-05 -2.45786e-05 -2.43912e-05 -4.77203e-05
0.000160296 -4.82095e-05 -4.80372e-05 -4.47401e-05
0.000242722 -7.29266e-05 -7.27694e-05 -3.97712e-05
0.000163912 -4.93003e-05 -4.91194e-05 -4.47404e-05
0.000162104 -4.87549e-05 -4.85783e-05 -4.47402e-05
8.05894e-05 -2.43048e-05 -2.4122e-05 -4.77202e-05
7.87851e-05 -2.37572e-05 -2.35834e-05 -4.772e-05
0.00023458 -7.0476e-05 -7.03302e-05 -3.97708e-05
0.000240008 -7.21097e-05 -7.19563e-05 -3.97711e-05
7.96873e-05 -2.4031e-05 -2.38527e-05 -4.77201e-05
0.00015668 -4.71187e-05 -4.6955e-05 -4.47398e-05
0.000237294 -7.12928e-05 -7.11433e-05 -3.97709e-05
0.000160296 -4.82095e-05 -4.80372e-05 -4.47401e-05
0.000158488 -4.76641e-05 -4.74961e-05 -4.47399e-05
7.87851e-05 -2.37572e-05 -2.35834e-05 -4.772e-05
7.69806e-05 -2.32097e-05 -2.30447e-05 -4.77198e-05
0.000229152 -6.88423e-05 -6.8704e-05 -3.97705e-05
0.00023458 -7.0476e-05 -7.03302e-05 -3.97708e-05
7.78829e-05 -2.34834e-05 -2.33141e-05 -4.77199e-05
0.000153064 -4.6028e-05 -4.58726e-05 -4.47395e-05
0.000231866 -6.96591e-05 -6.95171e-05 -3.97706e-05
0.00015668 -4.71187e-05 -4.6955e-05 -4.47398e-05
0.000154872 -4.65733e-05 -4.64138e-05 -4.47397e-05
7.69806e-05 -2.32097e-05 -2.30447e-05 -4.77198e-05
7.5176e-05 -2.26623e-05 -2.25059e-05 -4.77195e-05
0.000223723 -6.72087e-05 -6.70777e-05 -3.97702e-05
0.000229152 -6.88423e-05 -6.8704e-05 -3.97705e-05
7.60784e-05 -2.2936e-05 -2.27753e-05 -4.77196e-05
0.000149448 -4.49374e-05 -4.47901e-05 -4.47393e-05
0.000226438 -6.80255e-05 -6.78909e-05 -3.97704e-05
0.000153064 -4.6028e-05 -4.58726e-05 -4.47395e-05
0.000151256 -4.54827e-05 -4.53314e-05 -4.47394e-05
7.5176e-05 -2.26623e-05 -2.25059e-05 -4.77195e-05
7.33713e-05 -2.21149e-05 -2.1967e-05 -4.77193e-05
0.000218295 -6.55752e-05 -6.54513e-05 -3.97699e-05
0.000223723 -6.72087e-05 -6.70777e-05 -3.97702e-05
7.42737e-05 -2.23886e-05 -2.22365e-05 -4.77194e-05
0.000145831 -4.38469e-05 -4.37076e-05 -4.4739e-05
0.000221009 -6.6392e-05 -6.62645e-05 -3.97701e-05
0.000149448 -4.49374e-05 -4.47901e-05 -4.47393e-05
0.000147639 -4.43921e-05 -4.42489e-05 -4.47391e-05
7.33713e-05 -2.21149e-05 -2.1967e-05 -4.77193e-05
7.15663e-05 -2.15677e-05 -2.1428e-05 -4.77191e-05
0.000212866 -6.39418e-05 -6.38248e-05 -3.97696e-05
0.000218295 -6.55752e-05 -6.54513e-05 -3.97699e-05
7.24688e-05 -2.18413e-05 -2.16975e-05 -4.77192e-05
0.000142215 -4.27565e-05 -4.26249e-05 -4.47387e-05
0.000215581 -6.47585e-05 -6.46381e-05 -3.97698e-05
0.000145831 -4.38469e-05 -4.37076e-05 -4.4739e-05
0.000144023 -4.33017e-05 -4.31662e-05 -4.47389e-05
7.15663e-05 -2.15677e-05 -2.1428e-05 -4.77191e-05
6.97613e-05 -2.10206e-05 -2.08888e-05 -4.77189e-05
0.000207438 -6.23085e-05 -6.21983e-05 -3.97694e-05
0.000212866 -6.39418e-05 -6.38248e-05 -3.97696e-05
7.06638e-05 -2.12942e-05 -2.11584e-05 -4.7719e-05
0.000138598 -4.16662e-05 -4.15421e-05 -4.47385e-05
0.000210152 -6.31251e-05 -6.30116e-05 -3.97695e-05
0.000142215 -4.27565e-05 -4.26249e-05 -4.47387e-05
0.000140406 -4.22113e-05 -4.20835e-05 -4.47386e-05
6.97613e-05 -2.10206e-05 -2.08888e-05 -4.77189e-05
6.7956e-05 -2.04736e-05 -2.03496e-05 -4.77187e-05
0.000202009 -6.06752e-05 -6.05716e-05 -3.97691e-05
0.000207438 -6.23085e-05 -6.21983e-05 -3.97694e-05
6.88586e-05 -2.07471e-05 -2.06192e-05 -4.77188e-05
0.000134981 -4.0576e-05 -4.04592e-05 -4.47382e-05
0.000204723 -6.14918e-05 -6.1385e-05 -3.97692e-05
0.000138598 -4.16662e-05 -4.15421e-05 -4.47385e-05
0.000136789 -4.11211e-05 -4.10007e-05 -4.47384e-05
6.7956e-05 -2.04736e-05 -2.03496e-05 -4.77187e-05
6.61506e-05 -1.99267e-05 -1.98103e-05 -4.77184e-05
0.00019658 -5.90421e-05 -5.89449e-05 -3.97688e-05
0.000202009 -6.06752e-05 -6.05716e-05 -3.97691e-05
6.70533e-05 -2.02001e-05 -2.008e-05 -4.77185e-05
0.000131364 -3.94858e-05 -3.93763e-05 -4.4738e-05
0.000199295 -5.98586e-05 -5.97583e-05 -3.9769e-05
0.000134981 -4.0576e-05 -4.04592e-05 -4.47382e-05
0.000133172 -4.00309e-05 -3.99178e-05 -4.47381e-05
6.61506e-05 -1.99267e-05 -1.98103e-05 -4.77184e-05
6.4345e-05 -1.93798e-05 -1.92708e-05 -4.77182e-05
0.000191151 -5.7409e-05 -5.7318e-05 -3.97686e-05
0.00019658 -5.90421e-05 -5.89449e-05 -3.97688e-05
6.52478e-05 -1.96532e-05 -1.95406e-05 -4.77183e-05
0.000127747 -3.83958e-05 -3.82932e-05 -4.47377e-05
0.000193866 -5.82255e-05 -5.81315e-05 -3.97687e-05
0.000131364 -3.94858e-05 -3.93763e-05 -4.4738e-05
0.000129555 -3.89408e-05 -3.88347e-05 -4.47379e-05
6.4345e-05 -1.93798e-05 -1.92708e-05 -4.77182e-05
6.25393e-05 -1.88331e-05 -1.87312e-05 -4.7718e-05
0.000185722 -5.5776e-05 -5.56911e-05 -3.97683e-05
0.000191151 -5.7409e-05 -5.7318e-05 -3.97686e-05
6.34422e-05 -1.91064e-05 -1.9001e-05 -4.77181e-05
0.000124129 -3.73058e-05 -3.721e-05 -4.47375e-05
0.000188436 -5.65925e-05 -5.65046e-05 -3.97684e-05
0.000127747 -3.83958e-05 -3.82932e-05 -4.47377e-05
0.000125938 -3.78508e-05 -3.77516e-05 -4.47376e-05
6.25393e-05 -1.88331e-05 -1.87312e-05 -4.7718e-05
6.07334e-05 -1.82865e-05 -1.81916e-05 -4.77178e-05
0.000180293 -5.41431e-05 -5.40641e-05 -3.9768e-05
0.000185722 -5.5776e-05 -5.56911e-05 -3.97683e-05
6.16364e-05 -1.85598e-05 -1.84614e-05 -4.77179e-05
0.000120512 -3.6216e-05 -3.61267e-05 -4.47373e-05
0.000183007 -5.49595e-05 -5.48776e-05 -3.97682e-05
0.000124129 -3.73058e-05 -3.721e-05 -4.47375e-05
0.00012232 -3.67609e-05 -3.66684e-05 -4.47374e-05
6.07334e-05 -1.82865e-05 -1.81916e-05 -4.77178e-05
5.89274e-05 -1.77399e-05 -1.76518e-05 -4.77176e-05
0.000174863 -5.25102e-05 -5.2437e-05 -3.97678e-05
0.000180293 -5.41431e-05 -5.40641e-05 -3.9768e-05
5.98304e-05 -1.80132e-05 -1.79217e-05 -4.77177e-05
0.000116894 -3.51262e-05 -3.50433e-05 -4.4737e-05
0.000177578 -5.33266e-05 -5.32505e-05 -3.97679e-05
0.000120512 -3.6216e-05 -3.61267e-05 -4.47373e-05
0.000118703 -3.56711e-05 -3.5585e-05 -4.47371e-05
5.89274e-05 -1.77399e-05 -1.76518e-05 -4.77176e-05
5.71212e-05 -1.71935e-05 -1.71119e-05 -4.77175e-05
0.000169434 -5.08775e-05 -5.08098e-05 -3.97675e-05
0.000174863 -5.25102e-05 -5.2437e-05 -3.97678e-05
5.80243e-05 -1.74667e-05 -1.73818e-05 -4.77176e-05
0.000113276 -3.40366e-05 -3.39599e-05 -4.47368e-05
0.000172148 -5.16938e-05 -5.16234e-05 -3.97677e-05
0.000116894 -3.51262e-05 -3.50433e-05 -4.4737e-05
0.000115085 -3.45814e-05 -3.45016e-05 -4.47369e-05
5.71212e-05 -1.71935e-05 -1.71119e-05 -4.77175e-05
5.53149e-05 -1.66471e-05 -1.65719e-05 -4.77173e-05
0.000164004 -4.92448e-05 -4.91825e-05 -3.97673e-05
0.000169434 -5.08775e-05 -5.08098e-05 -3.97675e-05
5.62181e-05 -1.69203e-05 -1.68419e-05 -4.77174e-05
0.000109658 -3.2947e-05 -3.28763e-05 -4.47366e-05
0.000166719 -5.00611e-05 -4.99961e-05 -3.97674e-05
0.000113276 -3.40366e-05 -3.39599e-05 -4.47368e-05
0.000111467 -3.34918e-05 -3.34181e-05 -4.47367e-05
5.53149e-05 -1.66471e-05 -1.65719e-05 -4.77173e-05
5.35084e-05 -1.61009e-05 -1.60318e-05 -4.77171e-05
0.000158574 -4.76122e-05 -4.75551e-05 -3.97671e-05
0.000164004 -4.92448e-05 -4.91825e-05 -3.97673e-05
5.44116e-05 -1.6374e-05 -1.63018e-05 -4.77172e-05
0.00010604 -3.18575e-05 -3.17926e-05 -4.47364e-05
0.000161289 -4.84285e-05 -4.83688e-05 -3.97672e-05
0.000109658 -3.2947e-05 -3.28763e-05 -4.47366e-05
0.000107849 -3.24022e-05 -3.23344e-05 -4.47365e-05
5.35084e-05 -1.61009e-05 -1.60318e-05 -4.77171e-05
5.17017e-05 -1.55548e-05 -1.54915e-05 -4.77169e-05
0.000153144 -4.59797e-05 -4.59276e-05 -3.97668e-05
0.000158574 -4.76122e-05 -4.75551e-05 -3.97671e-05
5.2605e-05 -1.58278e-05 -1.57617e-05 -4.7717e-05
0.000102422 -3.07681e-05 -3.07088e-05 -4.47362e-05
0.000155859 -4.6796e-05 -4.67414e-05 -3.97669e-05
0.00010604 -3.18575e-05 -3.17926e-05 -4.47364e-05
0.000104231 -3.13128e-05 -3.12507e-05 -4.47363e-05
5.17017e-05 -1.55548e-05 -1.54915e-05 -4.77169e-05
4.98949e-05 -1.50088e-05 -1.49512e-05 -4.77168e-05
0.000147714 -4.43473e-05 -4.43e-05 -3.97666e-05
0.000153144 -4.59797e-05 -4.59276e-05 -3.97668e-05
5.07983e-05 -1.52818e-05 -1.52214e-05 -4.77169e-05
9.88036e-05 -2.96789e-05 -2.96249e-05 -4.4736e-05
0.000150429 -4.51635e-05 -4.51138e-05 -3.97667e-05
0.000102422 -3.07681e-05 -3.07088e-05 -4.47362e-05
0.000100613 -3.02235e-05 -3.01668e-05 -4.47361e-05
4.98949e-05 -1.50088e-05 -1.49512e-05 -4.77168e-05
4.8088e-05 -1.44629e-05 -1.44107e-05 -4.77166e-05
0.000142284 -4.2715e-05 -4.26724e-05 -3.97664e-05
0.000147714 -4.43473e-05 -4.43e-05 -3.97666e-05
4.89914e-05 -1.47358e-05 -1.4681e-05 -4.77167e-05
9.51851e-05 -2.85897e-05 -2.85409e-05 -4.47358e-05
0.000144999 -4.35311e-05 -4.34862e-05 -3.97665e-05
9.88036e-05 -2.96789e-05 -2.96249e-05 -4.4736e-05
9.69943e-05 -2.91343e-05 -2.90829e-05 -4.47359e-05
4.8088e-05 -1.44629e-05 -1.44107e-05 -4.77166e-05
4.62809e-05 -1.39171e-05 -1.38702e-05 -4.77165e-05
0.000136854 -4.10828e-05 -4.10446e-05 -3.97663e-05
0.000142284 -4.2715e-05 -4.26724e-05 -3.97664e-05
4.71844e-05 -1.419e-05 -1.41405e-05 -4.77165e-05
9.15664e-05 -2.75006e-05 -2.74568e-05 -4.47356e-05
0.000139569 -4.18989e-05 -4.18585e-05 -3.97663e-05
9.51851e-05 -2.85897e-05 -2.85409e-05 -4.47358e-05
9.33758e-05 -2.80452e-05 -2.79988e-05 -4.47357e-05
4.62809e-05 -1.39171e-05 -1.38702e-05 -4.77165e-05
4.44736e-05 -1.33714e-05 -1.33295e-05 -4.77163e-05
0.000131423 -3.94507e-05 -3.94168e-05 -3.97661e-05
0.000136854 -4.10828e-05 -4.10446e-05 -3.97663e-05
4.53773e-05 -1.36442e-05 -1.35999e-05 -4.77164e-05
8.79477e-05 -2.64117e-05 -2.63726e-05 -4.47355e-05
0.000134138 -4.02667e-05 -4.02307e-05 -3.97662e-05
9.15664e-05 -2.75006e-05 -2.74568e-05 -4.47356e-05
8.97571e-05 -2.69562e-05 -2.69147e-05 -4.47355e-05
4.44736e-05 -1.33714e-05 -1.33295e-05 -4.77163e-05
4.26663e-05 -1.28258e-05 -1.27888e-05 -4.77162e-05
0.000125993 -3.78186e-05 -3.77888e-05 -3.9766e-05
0.000131423 -3.94507e-05 -3.94168e-05 -3.97661e-05
4.357e-05 -1.30986e-05 -1.30592e-05 -4.77163e-05
8.43288e-05 -2.53228e-05 -2.52883e-05 -4.47353e-05
0.000128708 -3.86346e-05 -3.86028e-05 -3.9766e-05
8.79477e-05 -2.64117e-05 -2.63726e-05 -4.47355e-05
8.61382e-05 -2.58673e-05 -2.58304e-05 -4.47354e-05
4.26663e-05 -1.28258e-05 -1.27888e-05 -4.77162e-05
4.08589e-05 -1.22804e-05 -1.22479e-05 -4.7716e-05
0.000120562 -3.61867e-05 -3.61608e-05 -3.97659e-05
0.000125993 -3.78186e-05 -3.77888e-05 -3.9766e-05
4.17626e-05 -1.25531e-05 -1.25184e-05 -4.77161e-05
8.07098e-05 -2.42341e-05 -2.42039e-05 -4.47352e-05
0.000123277 -3.70027e-05 -3.69748e-05 -3.97659e-05
8.43288e-05 -2.53228e-05 -2.52883e-05 -4.47353e-05
8.25193e-05 -2.47785e-05 -2.47461e-05 -4.47352e-05
4.08589e-05 -1.22804e-05 -1.22479e-05 -4.7716e-05
3.90513e-05 -1.1735e-05 -1.1707e-05 -4.77158e-05
0.000115131 -3.45549e-05 -3.45327e-05 -3.97657e-05
0.000120562 -3.61867e-05 -3.61608e-05 -3.97659e-05
3.99551e-05 -1.20077e-05 -1.19775e-05 -4.77159e-05
7.70907e-05 -2.31455e-05 -2.31194e-05 -4.4735e-05
0.000117847 -3.53708e-05 -3.53468e-05 -3.97658e-05
8.07098e-05 -2.42341e-05 -2.42039e-05 -4.47352e-05
7.89003e-05 -2.36898e-05 -2.36616e-05 -4.47351e-05
3.90513e-05 -1.1735e-05 -1.1707e-05 -4.77158e-05
3.72436e-05 -1.11896e-05 -1.1166e-05 -4.77156e-05
0.0001097 -3.29231e-05 -3.29046e-05 -3.97656e-05
0.000115131 -3.45549e-05 -3.45327e-05 -3.97657e-05
3.81474e-05 -1.14623e-05 -1.14365e-05 -4.77157e-05
7.34716e-05 -2.20569e-05 -2.20349e-05 -4.47348e-05
0.000112416 -3.3739e-05 -3.37186e-05 -3.97657e-05
7.70907e-05 -2.31455e-05 -2.31194e-05 -4.4735e-05
7.52812e-05 -2.26012e-05 -2.25771e-05 -4.47349e-05
3.72436e-05 -1.11896e-05 -1.1166e-05 -4.77156e-05
3.54357e-05 -1.06443e-05 -1.06249e-05 -4.77152e-05
0.00010427 -3.12914e-05 -3.12764e-05 -3.97654e-05
0.0001097 -3.29231e-05 -3.29046e-05 -3.97656e-05
3.63397e-05 -1.0917e-05 -1.08955e-05 -4.77154e-05
6.98524e-05 -2.09683e-05 -2.09503e-05 -4.47345e-05
0.000106985 -3.21073e-05 -3.20905e-05 -3.97655e-05
7.34716e-05 -2.20569e-05 -2.20349e-05 -4.47348e-05
7.1662e-05 -2.15126e-05 -2.14926e-05 -4.47346e-05
3.54357e-05 -1.06443e-05 -1.06249e-05 -4.77152e-05
3.36277e-05 -1.00987e-05 -1.00838e-05 -4.77147e-05
9.88388e-05 -2.96596e-05 -2.96482e-05 -3.9765e-05
0.00010427 -3.12914e-05 -3.12764e-05 -3.97654e-05
3.45317e-05 -1.03715e-05 -1.03544e-05 -4.7715e-05
6.6233e-05 -1.98796e-05 -1.98657e-05 -4.4734e-05
0.000101554 -3.04755e-05 -3.04623e-05 -3.97653e-05
6.98524e-05 -2.09683e-05 -2.09503e-05 -4.47345e-05
6.80427e-05 -2.0424e-05 -2.0408e-05 -4.47343e-05
3.36277e-05 -1.00987e-05 -1.00838e-05 -4.77147e-05
3.18192e-05 -9.55271e-06 -9.5428e-06 -4.77142e-05
9.34078e-05 -2.80275e-05 -2.80201e-05 -3.97644e-05
9.88388e-05 -2.96596e-05 -2.96482e-05 -3.9765e-05
3.27235e-05 -9.82579e-06 -9.81331e-06 -4.77145e-05
6.26134e-05 -1.87905e-05 -1.87812e-05 -4.47333e-05
9.61233e-05 -2.88437e-05 -2.88341e-05 -3.97648e-05
6.6233e-05 -1.98796e-05 -1.98657e-05 -4.4734e-05
6.44232e-05 -1.93351e-05 -1.93235e-05 -4.47337e-05
3.18192e-05 -9.55271e-06 -9.5428e-06 -4.77142e-05
3.001e-05 -9.00578e-06 -9.00181e-06 -4.77137e-05
8.79765e-05 -2.63946e-05 -2.63922e-05 -3.97631e-05
9.34078e-05 -2.80275e-05 -2.80201e-05 -3.97644e-05
3.09148e-05 -9.27941e-06 -9.2723e-06 -4.77139e-05
5.89931e-05 -1.77002e-05 -1.76969e-05 -4.47323e-05
9.06922e-05 -2.72112e-05 -2.72061e-05 -3.97638e-05
6.26134e-05 -1.87905e-05 -1.87812e-05 -4.47333e-05
6.08033e-05 -1.82455e-05 -1.82391e-05 -4.47328e-05
3.001e-05 -9.00578e-06 -9.00181e-06 -4.77137e-05
2.81994e-05 -8.457e-06 -8.46103e-06 -4.7714e-05
8.2544e-05 -2.47596e-05 -2.47647e-05 -3.97608e-05
8.79765e-05 -2.63946e-05 -2.63922e-05 -3.97631e-05
2.91049e-05 -8.73169e-06 -8.73137e-06 -4.77137e-05
5.53712e-05 -1.66078e-05 -1.66129e-05 -4.47311e-05
8.52605e-05 -2.55775e-05 -2.55784e-05 -3.97621e-05
5.89931e-05 -1.77002e-05 -1.76969e-05 -4.47323e-05
5.71824e-05 -1.71544e-05 -1.71549e-05 -4.47317e-05
2.81994e-05 -8.457e-06 -8.46103e-06 -4.7714e-05
2.63857e-05 -7.90477e-06 -7.92038e-06 -4.77166e-05
7.71089e-05 -2.31203e-05 -2.3138e-05 -3.97568e-05
8.2544e-05 -2.47596e-05 -2.47647e-05 -3.97608e-05
2.72931e-05 -8.18147e-06 -8.19071e-06 -4.77149e-05
5.17459e-05 -1.55106e-05 -1.55294e-05 -4.47303e-05
7.98269e-05 -2.39407e-05 -2.39512e-05 -3.97591e-05
5.53712e-05 -1.66078e-05 -1.66129e-05 -4.47311e-05
5.35592e-05 -1.606e-05 -1.60711e-05 -4.47307e-05
2.63857e-05 -7.90477e-06 -7.92038e-06 -4.77166e-05
2.45666e-05 -7.3461e-06 -7.38023e-06 -4.77248e-05
7.1667e-05 -2.14723e-05 -2.1512e-05 -3.97502e-05
7.71089e-05 -2.31203e-05 -2.3138e-05 -3.97568e-05
2.54769e-05 -7.62647e-06 -7.65017e-06 -4.77197e-05
4.81132e-05 -1.44044e-05 -1.44466e-05 -4.47312e-05
7.43893e-05 -2.22979e-05 -2.23249e-05 -3.97539e-05
5.17459e-05 -1.55106e-05 -1.55294e-05 -4.47303e-05
4.99308e-05 -1.4959e-05 -1.49879e-05 -4.47304e-05
2.45666e-05 -7.3461e-06 -7.38023e-06 -4.77248e-05
2.27358e-05 -6.77613e-06 -6.83984e-06 -4.77453e-05
6.62121e-05 -1.98071e-05 -1.98879e-05 -3.97392e-05
7.1667e-05 -2.14723e-05 -2.1512e-05 -3.97502e-05
2.36534e-05 -7.06303e-06 -7.11017e-06 -4.77329e-05
4.44654e-05 -1.32812e-05 -1.33647e-05 -4.47368e-05
6.89415e-05 -2.06425e-05 -2.06995e-05 -3.97455e-05
4.81132e-05 -1.44044e-05 -1.44466e-05 -4.47312e-05
4.62919e-05 -1.38457e-05 -1.39055e-05 -4.47333e-05
2.27358e-05 -6.77613e-06 -6.83984e-06 -4.77453e-05
2.08864e-05 -6.18597e-06 -6.30019e-06 -4.77909e-05
6.07269e-05 -1.81102e-05 -1.82643e-05 -3.97227e-05
6.62121e-05 -1.98071e-05 -1.98879e-05 -3.97392e-05
2.18135e-05 -6.48414e-06 -6.56972e-06 -4.77639e-05
4.07881e-05 -1.21268e-05 -1.22834e-05 -4.47535e-05
6.34751e-05 -1.8964e-05 -1.90762e-05 -3.97316e-05
4.44654e-05 -1.32812e-05 -1.33647e-05 -4.47368e-05
4.26316e-05 -1.27089e-05 -1.2824e-05 -4.47429e-05
2.08864e-05 -6.18597e-06 -6.30019e-06 -4.77909e-05
1.89972e-05 -5.56329e-06 -5.75739e-06 -4.7885e-05
5.51903e-05 -1.63562e-05 -1.66432e-05 -3.96968e-05
6.07269e-05 -1.81102e-05 -1.82643e-05 -3.97227e-05
1.99494e-05 -5.8801e-06 -6.0297e-06 -4.78298e-05
3.70558e-05 -1.09198e-05 -1.12012e-05 -4.47938e-05
5.79659e-05 -1.72422e-05 -1.7453e-05 -3.97114e-05
4.07881e-05 -1.21268e-05 -1.22834e-05 -4.47535e-05
3.89308e-05 -1.1532e-05 -1.17423e-05 -4.47704e-05
1.89972e-05 -5.56329e-06 -5.75739e-06 -4.7885e-05
1.70527e-05 -4.88661e-06 -5.21404e-06 -4.80647e-05
4.95451e-05 -1.45085e-05 -1.50156e-05 -3.96645e-05
5.51903e-05 -1.63562e-05 -1.66432e-05 -3.96968e-05
1.80312e-05 -5.23244e-06 -5.48518e-06 -4.79613e-05
3.32249e-05 -9.62428e-06 -1.01146e-05 -4.48797e-05
5.23876e-05 -1.54479e-05 -1.58313e-05 -3.96807e-05
3.70558e-05 -1.09198e-05 -1.12012e-05 -4.47938e-05
3.51561e-05 -1.02849e-05 -1.06591e-05 -4.48277e-05
1.70527e-05 -4.88661e-06 -5.21404e-06 -4.80647e-05
1.49954e-05 -4.13766e-06 -4.65332e-06 -4.83908e-05
4.37362e-05 -1.25087e-05 -1.33832e-05 -3.9622e-05
4.95451e-05 -1.45085e-05 -1.50156e-05 -3.96645e-05
1.6046e-05 -4.52406e-06 -4.93799e-06 -4.82043e-05
2.92316e-05 -8.20278e-06 -9.01235e-06 -4.50486e-05
4.66616e-05 -1.35299e-05 -1.41993e-05 -3.96455e-05
3.32249e-05 -9.62428e-06 -1.01146e-05 -4.48797e-05
3.12531e-05 -8.93354e-06 -9.56553e-06 -4.49536e-05
1.49954e-05 -4.13766e-06 -4.65332e-06 -4.83908e-05
1.28153e-05 -3.28819e-06 -4.08304e-06 -4.89336e-05
3.76122e-05 -1.03081e-05 -1.17018e-05 -3.96041e-05
4.37362e-05 -1.25087e-05 -1.33832e-05 -3.9622e-05
1.39141e-05 -3.72255e-06 -4.3678e-06 -4.86307e-05
2.4981e-05 -6.60634e-06 -7.87487e-06 -4.53585e-05
4.07319e-05 -1.144e-05 -1.25537e-05 -3.9605e-05
2.92316e-05 -8.20278e-06 -9.01235e-06 -4.50486e-05
2.71458e-05 -7.42447e-06 -8.45199e-06 -4.51752e-05
1.28153e-05 -3.28819e-06 -4.08304e-06 -4.89336e-05
1.04103e-05 -2.38242e-06 -3.44052e-06 -4.97729e-05
3.11069e-05 -7.85491e-06 -9.96512e-06 -3.96337e-05
3.76122e-05 -1.03081e-05 -1.17018e-05 -3.96041e-05
1.16603e-05 -2.8437e-06 -3.77852e-06 -4.93105e-05
2.03976e-05 -4.87497e-06 -6.65257e-06 -4.58865e-05
3.43971e-05 -9.10349e-06 -1.08401e-05 -3.96129e-05
2.4981e-05 -6.60634e-06 -7.87487e-06 -4.53585e-05
2.27331e-05 -5.7572e-06 -7.27538e-06 -4.56013e-05
1.04103e-05 -2.38242e-06 -3.44052e-06 -4.97729e-05
7.92676e-06 -1.50297e-06 -2.75305e-06 -5.08709e-05
2.39808e-05 -5.32202e-06 -7.99662e-06 -3.99031e-05
3.11069e-05 -7.85491e-06 -9.96512e-06 -3.96337e-05
9.1407e-06 -1.91074e-06 -3.09856e-06 -5.02996e-05
1.5441e-05 -3.14867e-06 -5.26813e-06 -4.67087e-05
2.76614e-05 -6.59335e-06 -9.02917e-06 -3.97153e-05
2.03976e-05 -4.87497e-06 -6.65257e-06 -4.58865e-05
1.79689e-05 -3.97443e-06 -5.99762e-06 -4.62336e-05
7.92676e-06 -1.50297e-06 -2.75305e-06 -5.08709e-05
5.38741e-06 -1.13217e-06 -1.82367e-06 -5.19641e-05
1.65828e-05 -3.12856e-06 -5.76612e-06 -4.05513e-05
2.39808e-05 -5.32202e-06 -7.99662e-06 -3.99031e-05
6.69886e-06 -1.2364e-06 -2.34106e-06 -5.14462e-05
1.04575e-05 -2.12798e-06 -3.56981e-06 -4.77877e-05
2.02322e-05 -4.08638e-06 -6.91965e-06 -4.01736e-05
1.5441e-05 -3.14867e-06 -5.26813e-06 -4.67087e-05
1.29064e-05 -2.50486e-06 -4.45779e-06 -4.72672e-05
5.38741e-06 -1.13217e-06 -1.82367e-06 -5.19641e-05
3.61457e-06 -1.82609e-06 -7.66489e-07 -5.20306e-05
9.38981e-06 -3.08827e-06 -2.70066e-06 -4.20372e-05
1.65828e-05 -3.12856e-06 -5.76612e-06 -4.05513e-05
4.26758e-06 -1.24576e-06 -1.29506e-06 -5.22298e-05
6.21554e-06 -2.94845e-06 -1.40018e-06 -4.86175e-05
1.29847e-05 -2.72446e-06 -4.39723e-06 -4.11485e-05
1.04575e-05 -2.12798e-06 -3.56981e-06 -4.77877e-05
8.19403e-06 -2.15442e-06 -2.58841e-06 -4.82183e-05
3.61457e-06 -1.82609e-06 -7.66489e-07 -5.20306e-05
2.69704e-06 -4.68789e-06 8.53223e-07 -4.91703e-05
5.56507e-06 -8.43188e-06 1.22863e-06 -4.32223e-05
9.38981e-06 -3.08827e-06 -2.70066e-06 -4.20372e-05
3.17538e-06 -3.05943e-06 -4.96921e-08 -5.11211e-05
4.70867e-06 -7.79205e-06 1.32145e-06 -4.71453e-05
6.63703e-06 -4.60841e-06 -8.6941e-07 -4.28303e-05
6.21554e-06 -2.94845e-06 -1.40018e-06 -4.86175e-05
4.92082e-06 -4.83976e-06 -3.47378e-08 -4.85217e-05
2.69704e-06 -4.68789e-06 8.53223e-07 -4.91703e-05
3.59096e-06 -8.46449e-06 2.08866e-06 -4.02271e-05
7.449e-06 -2.5205e-05 7.60973e-06 -3.97862e-05
5.56507e-06 -8.43188e-06 1.22863e-06 -4.32223e-05
2.67155e-06 -6.4438e-06 1.61668e-06 -4.56681e-05
5.80772e-06 -1.6592e-05 4.62182e-06 -3.92817e-05
5.92027e-06 -1.5504e-05 4.10733e-06 -4.26457e-05
4.70867e-06 -7.79205e-06 1.32145e-06 -4.71453e-05
5.14799e-06 -1.17054e-05 2.81033e-06 -4.40768e-05
3.59096e-06 -8.46449e-06 2.08866e-06 -4.02271e-05
5.98526e-06 -1.37685e-05 3.33569e-06 -2.29503e-05
1.3116e-05 -4.56991e-05 1.39642e-05 -2.10717e-05
7.449e-06 -2.5205e-05 7.60973e-06 -3.97862e-05
4.88545e-06 -1.09278e-05 2.58958e-06 -3.27186e-05
8.35467e-06 -2.82982e-05 8.54722e-06 -2.32819e-05
9.92345e-06 -3.61801e-05 1.12528e-05 -3.29098e-05
5.80772e-06 -1.6592e-05 4.62182e-06 -3.92817e-05
6.8294e-06 -2.23483e-05 6.65098e-06 -3.25232e-05
0.000873955 0 -0.000374552 0.000113956
0.000988949 -0.000131469 -0.000367491 -4.53543e-06
0.00171089 -0.000339335 -0.000587808 -0.000128269
0.0015201 2.22045e-16 -0.000651471 -8.84432e-05
0.000947431 -7.39607e-05 -0.000374344 4.23621e-05
0.00132037 -0.000205102 -0.000477973 -5.34936e-05
0.00162698 -0.000160048 -0.000628685 -0.000148724
0.00124302 0 -0.000532721 1.6573e-05
0.00126417 -0.000113766 -0.000493031 -1.77765e-05
0.000988949 -0.000131469 -0.000367491 -4.53543e-06
0.0010398 -0.000240417 -0.000342592 -4.13603e-05
0.00177797 -0.000482134 -0.000555358 -6.14488e-05
0.00171089 -0.000339335 -0.000587808 -0.000128269
0.00101442 -0.000189381 -0.000353589 -2.82633e-05
0.0014085 -0.000348437 -0.000454311 -6.22722e-05
0.00176386 -0.000439941 -0.000567393 -9.27593e-05
0.00132037 -0.000205102 -0.000477973 -5.34936e-05
0.00137927 -0.000285568 -0.00046873 -6.99061e-05
0.0010398 -0.000240417 -0.000342592 -4.13603e-05
0.00106575 -0.000295656 -0.00033004 -4.83979e-05
0.00176959 -0.000522441 -0.00053449 -2.3096e-05
0.00177797 -0.000482134 -0.000555358 -6.14488e-05
0.00105895 -0.000274649 -0.000336129 -4.7787e-05
0.00142298 -0.000406369 -0.00043569 -4.19049e-05
0.00177321 -0.000507193 -0.000542578 -3.6321e-05
0.0014085 -0.000348437 -0.000454311 -6.22722e-05
0.0014193 -0.000386191 -0.000442763 -4.9327e-05
0.00106575 -0.000295656 -0.00033004 -4.83979e-05
0.00106501 -0.000317526 -0.000320351 -4.46803e-05
0.00175716 -0.000528153 -0.000526719 -1.43757e-05
0.00176959 -0.000522441 -0.00053449 -2.3096e-05
0.00106587 -0.000309358 -0.000324221 -4.63277e-05
0.00141626 -0.00042503 -0.000424814 -3.17925e-05
0.00176495 -0.000527876 -0.000530176 -1.72598e-05
0.00142298 -0.000406369 -0.00043569 -4.19049e-05
0.00142135 -0.000418499 -0.000429794 -3.64698e-05
0.00106501 -0.000317526 -0.000320351 -4.46803e-05
0.00105768 -0.000321856 -0.000315351 -4.21188e-05
0.00174278 -0.000527375 -0.000520887 -1.38598e-05
0.00175716 -0.000528153 -0.000526719 -1.43757e-05
0.0010625 -0.000321101 -0.000317742 -4.34055e-05
0.00140334 -0.000426271 -0.000418744 -2.85458e-05
0.00174888 -0.000527949 -0.000523257 -1.32669e-05
0.00141626 -0.00042503 -0.000424814 -3.17925e-05
0.00140962 -0.000426924 -0.000421156 -2.91262e-05
0.00105768 -0.000321856 -0.000315351 -4.21188e-05
0.00104721 -0.000320361 -0.000311509 -4.03993e-05
0.00173185 -0.000523568 -0.000517836 -1.66691e-05
0.00174278 -0.000527375 -0.000520887 -1.38598e-05
0.00105207 -0.000321461 -0.000313118 -4.09996e-05
0.0013914 -0.000423398 -0.000414857 -2.86922e-05
0.00173754 -0.000525722 -0.00051935 -1.53305e-05
0.00140334 -0.000426271 -0.000418744 -2.85458e-05
0.00139731 -0.000425014 -0.000416697 -2.86024e-05
0.00104721 -0.000320361 -0.000311509 -4.03993e-05
0.00103808 -0.000316879 -0.000309085 -3.98493e-05
0.00172129 -0.00051982 -0.000514918 -1.90638e-05
0.00173185 -0.000523568 -0.000517836 -1.66691e-05
0.00104269 -0.000318728 -0.000310269 -4.00961e-05
0.00138064 -0.000419154 -0.000412064 -2.97322e-05
0.00172626 -0.000521621 -0.000516273 -1.7866e-05
0.0013914 -0.000423398 -0.000414857 -2.86922e-05
0.00138579 -0.000421342 -0.000413333 -2.90846e-05
0.00103808 -0.000316879 -0.000309085 -3.98493e-05
0.00102975 -0.000313436 -0.00030699 -3.96113e-05
0.00171182 -0.000516159 -0.000512427 -2.10342e-05
0.00172129 -0.00051982 -0.000514918 -1.90638e-05
0.00103367 -0.000315104 -0.000307956 -3.96701e-05
0.00137127 -0.000415319 -0.000409693 -3.07981e-05
0.0017166 -0.000517979 -0.000513696 -2.01765e-05
0.00138064 -0.000419154 -0.000412064 -2.97322e-05
0.00137584 -0.000417155 -0.000410863 -3.03356e-05
0.00102975 -0.000313436 -0.00030699 -3.96113e-05
0.00102264 -0.000310394 -0.000305247 -3.96161e-05
0.00170247 -0.000512842 -0.000509839 -2.22431e-05
0.00171182 -0.000516159 -0.000512427 -2.10342e-05
0.00102613 -0.000311859 -0.000306116 -3.96141e-05
0.00136276 -0.000411901 -0.00040751 -3.16037e-05
0.00170707 -0.000514456 -0.000511121 -2.16968e-05
0.00137127 -0.000415319 -0.000409693 -3.07981e-05
0.00136692 -0.00041356 -0.000408581 -3.1219e-05
0.00102264 -0.000310394 -0.000305247 -3.96161e-05
0.00101616 -0.000307838 -0.000303566 -3.9647e-05
0.00169337 -0.000509737 -0.00050727 -2.30139e-05
0.00170247 -0.000512842 -0.000509839 -2.22431e-05
0.0010193 -0.00030906 -0.000304389 -3.96231e-05
0.00135484 -0.00040896 -0.000405376 -3.21338e-05
0.00169793 -0.000511269 -0.000508568 -2.26876e-05
0.00136276 -0.000411901 -0.00040751 -3.16037e-05
0.00135875 -0.000410378 -0.000406444 -3.19091e-05
0.00101616 -0.000307838 -0.000303566 -3.9647e-05
0.00101019 -0.000305633 -0.000301954 -3.96998e-05
0.00168428 -0.000506797 -0.000504636 -2.34347e-05
0.00169337 -0.000509737 -0.00050727 -2.30139e-05
0.00101314 -0.0003067 -0.000302762 -3.96768e-05
0.00134724 -0.000406316 -0.000403254 -3.24593e-05
0.00168881 -0.00050825 -0.000505954 -2.32525e-05
0.00135484 -0.00040896 -0.000405376 -3.21338e-05
0.00135101 -0.000407609 -0.000404314 -3.2314e-05
0.00101019 -0.000305633 -0.000301954 -3.96998e-05
0.00100447 -0.00030367 -0.000300344 -3.97378e-05
0.00167525 -0.000503952 -0.000501983 -2.3672e-05
0.00168428 -0.000506797 -0.000504636 -2.34347e-05
0.0010073 -0.000304628 -0.000301146 -3.97191e-05
0.00133984 -0.00040388 -0.000401124 -3.26454e-05
0.00167977 -0.000505366 -0.000503315 -2.35736e-05
0.00134724 -0.000406316 -0.000403254 -3.24593e-05
0.00134352 -0.000405078 -0.000402192 -3.25678e-05
0.00100447 -0.00030367 -0.000300344 -3.97378e-05
0.000998916 -0.000301851 -0.000298742 -3.97679e-05
0.00166621 -0.000501165 -0.000499304 -2.37912e-05
0.00167525 -0.000503952 -0.000501983 -2.3672e-05
0.00100168 -0.000302747 -0.000299544 -3.97548e-05
0.00133253 -0.000401559 -0.000398986 -3.27489e-05
0.00167072 -0.000502553 -0.000500645 -2.37411e-05
0.00133984 -0.00040388 -0.000401124 -3.26454e-05
0.00133617 -0.000402709 -0.000400056 -3.27042e-05
0.000998916 -0.000301851 -0.000298742 -3.97679e-05
0.000993431 -0.000300116 -0.000297135 -3.97872e-05
0.00165717 -0.000498408 -0.000496614 -2.38525e-05
0.00166621 -0.000501165 -0.000499304 -2.37912e-05
0.000996165 -0.000300976 -0.000297938 -3.97784e-05
0.00132526 -0.000399305 -0.000396839 -3.28035e-05
0.00166169 -0.000499784 -0.00049796 -2.38276e-05
0.00133253 -0.000401559 -0.000398986 -3.27489e-05
0.00132889 -0.000400426 -0.000397914 -3.2781e-05
0.000993431 -0.000300116 -0.000297135 -3.97872e-05
0.00098799 -0.000298426 -0.000295527 -3.98003e-05
0.00164814 -0.000495668 -0.000493915 -2.38809e-05
0.00165717 -0.000498408 -0.000496614 -2.38525e-05
0.000990708 -0.000299267 -0.000296332 -3.97946e-05
0.00131802 -0.000397086 -0.000394687 -3.28319e-05
0.00165265 -0.000497037 -0.000495265 -2.38693e-05
0.00132526 -0.000399305 -0.000396839 -3.28035e-05
0.00132164 -0.000398193 -0.000395764 -3.28199e-05
0.00098799 -0.000298426 -0.000295527 -3.98003e-05
0.000982565 -0.00029676 -0.000293917 -3.98085e-05
0.0016391 -0.000492935 -0.000491212 -2.38943e-05
0.00164814 -0.000495668 -0.000493915 -2.38809e-05
0.000985275 -0.000297591 -0.000294722 -3.98048e-05
0.00131079 -0.000394885 -0.000392531 -3.28461e-05
0.00164362 -0.000494301 -0.000492564 -2.3889e-05
0.00131802 -0.000397086 -0.000394687 -3.28319e-05
0.00131441 -0.000395984 -0.000393609 -3.28404e-05
0.000982565 -0.00029676 -0.000293917 -3.98085e-05
0.000977149 -0.000295104 -0.000292305 -3.98136e-05
0.00163005 -0.000490206 -0.000488506 -2.38998e-05
0.0016391 -0.000492935 -0.000491212 -2.38943e-05
0.000979856 -0.000295931 -0.000293111 -3.98113e-05
0.00130356 -0.000392692 -0.000390373 -3.28532e-05
0.00163458 -0.000491571 -0.000489859 -2.38976e-05
0.00131079 -0.000394885 -0.000392531 -3.28461e-05
0.00130718 -0.000393788 -0.000391452 -3.28502e-05
0.000977149 -0.000295104 -0.000292305 -3.98136e-05
0.000971735 -0.000293455 -0.000290692 -3.98166e-05
0.00162101 -0.000487479 -0.0004858 -2.39021e-05
0.00163005 -0.000490206 -0.000488506 -2.38998e-05
0.000974442 -0.000294279 -0.000291498 -3.98153e-05
0.00129634 -0.000390504 -0.000388214 -3.28565e-05
0.00162553 -0.000488843 -0.000487153 -2.39012e-05
0.00130356 -0.000392692 -0.000390373 -3.28532e-05
0.00129995 -0.000391598 -0.000389294 -3.28552e-05
0.000971735 -0.000293455 -0.000290692 -3.98166e-05
0.000966323 -0.000291808 -0.000289078 -3.98184e-05
0.00161197 -0.000484753 -0.000483093 -2.39028e-05
0.00162101 -0.000487479 -0.0004858 -2.39021e-05
0.000969029 -0.000292631 -0.000289885 -3.98176e-05
0.00128911 -0.000388316 -0.000386054 -3.2858e-05
0.00161649 -0.000486116 -0.000484446 -2.39025e-05
0.00129634 -0.000390504 -0.000388214 -3.28565e-05
0.00129272 -0.00038941 -0.000387134 -3.28574e-05
0.000966323 -0.000291808 -0.000289078 -3.98184e-05
0.000960911 -0.000290162 -0.000287464 -3.98193e-05
0.00160292 -0.000482026 -0.000480385 -2.39029e-05
0.00161197 -0.000484753 -0.000483093 -2.39028e-05
0.000963617 -0.000290985 -0.000288271 -3.98189e-05
0.00128188 -0.00038613 -0.000383893 -3.28586e-05
0.00160745 -0.000483389 -0.000481739 -2.39029e-05
0.00128911 -0.000388316 -0.000386054 -3.2858e-05
0.0012855 -0.000387223 -0.000384974 -3.28584e-05
0.000960911 -0.000290162 -0.000287464 -3.98193e-05
0.000955499 -0.000288517 -0.000285849 -3.98198e-05
0.00159388 -0.0004793 -0.000477677 -2.39027e-05
0.00160292 -0.000482026 -0.000480385 -2.39029e-05
0.000958205 -0.000289339 -0.000286657 -3.98196e-05
0.00127465 -0.000383944 -0.000381733 -3.28587e-05
0.0015984 -0.000480663 -0.000479031 -2.39028e-05
0.00128188 -0.00038613 -0.000383893 -3.28586e-05
0.00127827 -0.000385037 -0.000382813 -3.28587e-05
0.000955499 -0.000288517 -0.000285849 -3.98198e-05
0.000950086 -0.000286872 -0.000284235 -3.98199e-05
0.00158483 -0.000476574 -0.000474969 -2.39025e-05
0.00159388 -0.0004793 -0.000477677 -2.39027e-05
0.000952792 -0.000287694 -0.000285042 -3.98199e-05
0.00126742 -0.000381758 -0.000379572 -3.28586e-05
0.00158936 -0.000477937 -0.000476323 -2.39026e-05
0.00127465 -0.000383944 -0.000381733 -3.28587e-05
0.00127104 -0.000382851 -0.000380652 -3.28587e-05
0.000950086 -0.000286872 -0.000284235 -3.98199e-05
0.000944673 -0.000285227 -0.00028262 -3.98198e-05
0.00157579 -0.000473847 -0.000472261 -2.39022e-05
0.00158483 -0.000476574 -0.000474969 -2.39025e-05
0.00094738 -0.000286049 -0.000283427 -3.98199e-05
0.0012602 -0.000379572 -0.000377411 -3.28584e-05
0.00158031 -0.00047521 -0.000473615 -2.39024e-05
0.00126742 -0.000381758 -0.000379572 -3.28586e-05
0.00126381 -0.000380665 -0.000378491 -3.28586e-05
0.000944673 -0.000285227 -0.00028262 -3.98198e-05
0.00093926 -0.000283582 -0.000281005 -3.98196e-05
0.00156674 -0.000471121 -0.000469553 -2.39019e-05
0.00157579 -0.000473847 -0.000472261 -2.39022e-05
0.000941967 -0.000284404 -0.000281813 -3.98197e-05
0.00125297 -0.000377386 -0.000375249 -3.28582e-05
0.00157127 -0.000472484 -0.000470907 -2.39021e-05
0.0012602 -0.000379572 -0.000377411 -3.28584e-05
0.00125658 -0.000378479 -0.00037633 -3.28583e-05
0.00093926 -0.000283582 -0.000281005 -3.98196e-05
0.000933847 -0.000281937 -0.00027939 -3.98193e-05
0.0015577 -0.000468395 -0.000466845 -2.39016e-05
0.00156674 -0.000471121 -0.000469553 -2.39019e-05
0.000936554 -0.000282759 -0.000280198 -3.98195e-05
0.00124574 -0.0003752 -0.000373088 -3.28578e-05
0.00156222 -0.000469758 -0.000468199 -2.39018e-05
0.00125297 -0.000377386 -0.000375249 -3.28582e-05
0.00124935 -0.000376293 -0.000374169 -3.2858e-05
0.000933847 -0.000281937 -0.00027939 -3.98193e-05
0.000928433 -0.000280292 -0.000277775 -3.9819e-05
0.00154865 -0.000465669 -0.000464136 -2.39013e-05
0.0015577 -0.000468395 -0.000466845 -2.39016e-05
0.00093114 -0.000281115 -0.000278582 -3.98192e-05
0.00123851 -0.000373014 -0.000370927 -3.28575e-05
0.00155318 -0.000467032 -0.00046549 -2.39015e-05
0.00124574 -0.0003752 -0.000373088 -3.28578e-05
0.00124212 -0.000374107 -0.000372007 -3.28577e-05
0.000928433 -0.000280292 -0.000277775 -3.9819e-05
0.00092302 -0.000278648 -0.00027616 -3.98187e-05
0.00153961 -0.000462943 -0.000461428 -2.3901e-05
0.00154865 -0.000465669 -0.000464136 -2.39013e-05
0.000925727 -0.00027947 -0.000276967 -3.98188e-05
0.00123128 -0.000370829 -0.000368765 -3.28572e-05
0.00154413 -0.000464306 -0.000462782 -2.39012e-05
0.00123851 -0.000373014 -0.000370927 -3.28575e-05
0.0012349 -0.000371921 -0.000369846 -3.28573e-05
0.00092302 -0.000278648 -0.00027616 -3.98187e-05
0.000917606 -0.000277003 -0.000274544 -3.98183e-05
0.00153056 -0.000460217 -0.00045872 -2.39008e-05
0.00153961 -0.000462943 -0.000461428 -2.3901e-05
0.000920313 -0.000277825 -0.000275352 -3.98185e-05
0.00122405 -0.000368643 -0.000366604 -3.28568e-05
0.00153509 -0.00046158 -0.000460074 -2.39009e-05
0.00123128 -0.000370829 -0.000368765 -3.28572e-05
0.00122767 -0.000369736 -0.000367684 -3.2857e-05
0.000917606 -0.000277003 -0.000274544 -3.98183e-05
0.000912193 -0.000275359 -0.000272929 -3.9818e-05
0.00152152 -0.000457491 -0.000456011 -2.39005e-05
0.00153056 -0.000460217 -0.00045872 -2.39008e-05
0.000914899 -0.000276181 -0.000273737 -3.98182e-05
0.00121682 -0.000366457 -0.000364442 -3.28565e-05
0.00152604 -0.000458854 -0.000457365 -2.39006e-05
0.00122405 -0.000368643 -0.000366604 -3.28568e-05
0.00122044 -0.00036755 -0.000365523 -3.28567e-05
0.000912193 -0.000275359 -0.000272929 -3.9818e-05
0.000906779 -0.000273714 -0.000271313 -3.98177e-05
0.00151247 -0.000454765 -0.000453303 -2.39002e-05
0.00152152 -0.000457491 -0.000456011 -2.39005e-05
0.000909486 -0.000274536 -0.000272121 -3.98178e-05
0.00120959 -0.000364272 -0.00036228 -3.28562e-05
0.00151699 -0.000456128 -0.000454657 -2.39003e-05
0.00121682 -0.000366457 -0.000364442 -3.28565e-05
0.00121321 -0.000365364 -0.000363361 -3.28564e-05
0.000906779 -0.000273714 -0.000271313 -3.98177e-05
0.000901365 -0.00027207 -0.000269698 -3.98173e-05
0.00150343 -0.000452039 -0.000450594 -2.38999e-05
0.00151247 -0.000454765 -0.000453303 -2.39002e-05
0.000904072 -0.000272892 -0.000270505 -3.98175e-05
0.00120236 -0.000362086 -0.000360119 -3.28559e-05
0.00150795 -0.000453402 -0.000451948 -2.39001e-05
0.00120959 -0.000364272 -0.00036228 -3.28562e-05
0.00120598 -0.000363179 -0.0003612 -3.2856e-05
0.000901365 -0.00027207 -0.000269698 -3.98173e-05
0.00089595 -0.000270426 -0.000268082 -3.9817e-05
0.00149438 -0.000449313 -0.000447886 -2.38997e-05
0.00150343 -0.000452039 -0.000450594 -2.38999e-05
0.000898657 -0.000271248 -0.00026889 -3.98171e-05
0.00119513 -0.000359901 -0.000357957 -3.28555e-05
0.0014989 -0.000450676 -0.00044924 -2.38998e-05
0.00120236 -0.000362086 -0.000360119 -3.28559e-05
0.00119875 -0.000360993 -0.000359038 -3.28557e-05
0.00089595 -0.000270426 -0.000268082 -3.9817e-05
0.000890536 -0.000268782 -0.000266466 -3.98166e-05
0.00148533 -0.000446587 -0.000445177 -2.38994e-05
0.00149438 -0.000449313 -0.000447886 -2.38997e-05
0.000893243 -0.000269604 -0.000267274 -3.98168e-05
0.0011879 -0.000357715 -0.000355795 -3.28552e-05
0.00148986 -0.00044795 -0.000446531 -2.38995e-05
0.00119513 -0.000359901 -0.000357957 -3.28555e-05
0.00119152 -0.000358808 -0.000356876 -3.28554e-05
0.000890536 -0.000268782 -0.000266466 -3.98166e-05
0.000885122 -0.000267138 -0.00026485 -3.98163e-05
0.00147629 -0.000443861 -0.000442468 -2.38991e-05
0.00148533 -0.000446587 -0.000445177 -2.38994e-05
0.000887829 -0.00026796 -0.000265658 -3.98165e-05
0.00118067 -0.00035553 -0.000353633 -3.28549e-05
0.00148081 -0.000445224 -0.000443823 -2.38993e-05
0.0011879 -0.000357715 -0.000355795 -3.28552e-05
0.00118429 -0.000356623 -0.000354714 -3.28551e-05
0.000885122 -0.000267138 -0.00026485 -3.98163e-05
0.000879707 -0.000265494 -0.000263234 -3.9816e-05
0.00146724 -0.000441136 -0.00043976 -2.38989e-05
0.00147629 -0.000443861 -0.000442468 -2.38991e-05
0.000882414 -0.000266316 -0.000264042 -3.98161e-05
0.00117344 -0.000353345 -0.000351471 -3.28546e-05
0.00147176 -0.000442498 -0.000441114 -2.3899e-05
0.00118067 -0.00035553 -0.000353633 -3.28549e-05
0.00117706 -0.000354438 -0.000352552 -3.28547e-05
0.000879707 -0.000265494 -0.000263234 -3.9816e-05
0.000874292 -0.00026385 -0.000261618 -3.98156e-05
0.0014582 -0.00043841 -0.000437051 -2.38986e-05
0.00146724 -0.000441136 -0.00043976 -2.38989e-05
0.000877 -0.000264672 -0.000262426 -3.98158e-05
0.00116621 -0.00035116 -0.000349309 -3.28543e-05
0.00146272 -0.000439773 -0.000438405 -2.38988e-05
0.00117344 -0.000353345 -0.000351471 -3.28546e-05
0.00116983 -0.000352252 -0.00035039 -3.28544e-05
0.000874292 -0.00026385 -0.000261618 -3.98156e-05
0.000868878 -0.000262206 -0.000260002 -3.98153e-05
0.00144915 -0.000435684 -0.000434342 -2.38984e-05
0.0014582 -0.00043841 -0.000437051 -2.38986e-05
0.000871585 -0.000263028 -0.00026081 -3.98155e-05
0.00115898 -0.000348975 -0.000347147 -3.28539e-05
0.00145367 -0.000437047 -0.000435697 -2.38985e-05
0.00116621 -0.00035116 -0.000349309 -3.28543e-05
0.0011626 -0.000350067 -0.000348228 -3.28541e-05
0.000868878 -0.000262206 -0.000260002 -3.98153e-05
0.000863463 -0.000260562 -0.000258386 -3.98149e-05
0.0014401 -0.000432959 -0.000431633 -2.38981e-05
0.00144915 -0.000435684 -0.000434342 -2.38984e-05
0.00086617 -0.000261384 -0.000259194 -3.98151e-05
0.00115175 -0.00034679 -0.000344985 -3.28536e-05
0.00144463 -0.000434322 -0.000432988 -2.38982e-05
0.00115898 -0.000348975 -0.000347147 -3.28539e-05
0.00115537 -0.000347882 -0.000346066 -3.28538e-05
0.000863463 -0.000260562 -0.000258386 -3.98149e-05
0.000858048 -0.000258919 -0.00025677 -3.98146e-05
0.00143106 -0.000430233 -0.000428924 -2.38978e-05
0.0014401 -0.000432959 -0.000431633 -2.38981e-05
0.000860755 -0.00025974 -0.000257578 -3.98148e-05
0.00114452 -0.000344605 -0.000342822 -3.28533e-05
0.00143558 -0.000431596 -0.000430279 -2.3898e-05
0.00115175 -0.00034679 -0.000344985 -3.28536e-05
0.00114814 -0.000345697 -0.000343903 -3.28534e-05
0.000858048 -0.000258919 -0.00025677 -3.98146e-05
0.000852633 -0.000257275 -0.000255153 -3.98142e-05
0.00142201 -0.000427508 -0.000426215 -2.38976e-05
0.00143106 -0.000430233 -0.000428924 -2.38978e-05
0.00085534 -0.000258097 -0.000255961 -3.98144e-05
0.00113729 -0.00034242 -0.00034066 -3.2853e-05
0.00142653 -0.000428871 -0.00042757 -2.38977e-05
0.00114452 -0.000344605 -0.000342822 -3.28533e-05
0.00114091 -0.000343512 -0.000341741 -3.28531e-05
0.000852633 -0.000257275 -0.000255153 -3.98142e-05
0.000847217 -0.000255632 -0.000253537 -3.98139e-05
0.00141296 -0.000424783 -0.000423506 -2.38973e-05
0.00142201 -0.000427508 -0.000426215 -2.38976e-05
0.000849925 -0.000256453 -0.000254345 -3.98141e-05
0.00113006 -0.000340235 -0.000338498 -3.28526e-05
0.00141749 -0.000426145 -0.000424861 -2.38974e-05
0.00113729 -0.00034242 -0.00034066 -3.2853e-05
0.00113368 -0.000341328 -0.000339579 -3.28528e-05
0.000847217 -0.000255632 -0.000253537 -3.98139e-05
0.000841802 -0.000253988 -0.00025192 -3.98135e-05
0.00140392 -0.000422057 -0.000420797 -2.3897e-05
0.00141296 -0.000424783 -0.000423506 -2.38973e-05
0.00084451 -0.00025481 -0.000252729 -3.98137e-05
0.00112283 -0.00033805 -0.000336335 -3.28523e-05
0.00140844 -0.00042342 -0.000422152 -2.38972e-05
0.00113006 -0.000340235 -0.000338498 -3.28526e-05
0.00112645 -0.000339143 -0.000337416 -3.28525e-05
0.000841802 -0.000253988 -0.00025192 -3.98135e-05
0.000836387 -0.000252345 -0.000250304 -3.98132e-05
0.00139487 -0.000419332 -0.000418088 -2.38967e-05
0.00140392 -0.000422057 -0.000420797 -2.3897e-05
0.000839094 -0.000253167 -0.000251112 -3.98133e-05
0.0011156 -0.000335866 -0.000334172 -3.28519e-05
0.00139939 -0.000420695 -0.000419443 -2.38969e-05
0.00112283 -0.00033805 -0.000336335 -3.28523e-05
0.00111922 -0.000336958 -0.000335254 -3.28521e-05
0.000836387 -0.000252345 -0.000250304 -3.98132e-05
0.000830971 -0.000250702 -0.000248687 -3.98128e-05
0.00138582 -0.000416607 -0.000415379 -2.38965e-05
0.00139487 -0.000419332 -0.000418088 -2.38967e-05
0.000833679 -0.000251523 -0.000249495 -3.9813e-05
0.00110837 -0.000333681 -0.00033201 -3.28516e-05
0.00139035 -0.000417969 -0.000416734 -2.38966e-05
0.0011156 -0.000335866 -0.000334172 -3.28519e-05
0.00111199 -0.000334774 -0.000333091 -3.28518e-05
0.000830971 -0.000250702 -0.000248687 -3.98128e-05
0.000825555 -0.000249059 -0.00024707 -3.98124e-05
0.00137678 -0.000413882 -0.00041267 -2.38962e-05
0.00138582 -0.000416607 -0.000415379 -2.38965e-05
0.000828263 -0.00024988 -0.000247878 -3.98126e-05
0.00110114 -0.000331497 -0.000329847 -3.28513e-05
0.0013813 -0.000415244 -0.000414024 -2.38963e-05
0.00110837 -0.000333681 -0.00033201 -3.28516e-05
0.00110476 -0.000332589 -0.000330928 -3.28514e-05
0.000825555 -0.000249059 -0.00024707 -3.98124e-05
0.00082014 -0.000247416 -0.000245453 -3.98121e-05
0.00136773 -0.000411156 -0.000409961 -2.38959e-05
0.00137678 -0.000413882 -0.00041267 -2.38962e-05
0.000822847 -0.000248237 -0.000246262 -3.98123e-05
0.00109391 -0.000329312 -0.000327684 -3.28509e-05
0.00137225 -0.000412519 -0.000411315 -2.38961e-05
0.00110114 -0.000331497 -0.000329847 -3.28513e-05
0.00109752 -0.000330405 -0.000328766 -3.28511e-05
0.00082014 -0.000247416 -0.000245453 -3.98121e-05
0.000814724 -0.000245773 -0.000243836 -3.98117e-05
0.00135868 -0.000408431 -0.000407251 -2.38956e-05
0.00136773 -0.000411156 -0.000409961 -2.38959e-05
0.000817432 -0.000246594 -0.000244645 -3.98119e-05
0.00108668 -0.000327128 -0.000325522 -3.28506e-05
0.00136321 -0.000409794 -0.000408606 -2.38958e-05
0.00109391 -0.000329312 -0.000327684 -3.28509e-05
0.00109029 -0.00032822 -0.000326603 -3.28508e-05
0.000814724 -0.000245773 -0.000243836 -3.98117e-05
0.000809308 -0.00024413 -0.000242219 -3.98113e-05
0.00134964 -0.000405706 -0.000404542 -2.38954e-05
0.00135868 -0.000408431 -0.000407251 -2.38956e-05
0.000812016 -0.000244951 -0.000243028 -3.98115e-05
0.00107945 -0.000324944 -0.000323359 -3.28502e-05
0.00135416 -0.000407069 -0.000405897 -2.38955e-05
0.00108668 -0.000327128 -0.000325522 -3.28506e-05
0.00108306 -0.000326036 -0.00032444 -3.28504e-05
0.000809308 -0.00024413 -0.000242219 -3.98113e-05
0.000803891 -0.000242487 -0.000240602 -3.98109e-05
0.00134059 -0.000402981 -0.000401833 -2.38951e-05
0.00134964 -0.000405706 -0.000404542 -2.38954e-05
0.000806599 -0.000243308 -0.000241411 -3.98111e-05
0.00107222 -0.000322759 -0.000321196 -3.28499e-05
0.00134511 -0.000404344 -0.000403187 -2.38952e-05
0.00107945 -0.000324944 -0.000323359 -3.28502e-05
0.00107583 -0.000323852 -0.000322277 -3.28501e-05
0.000803891 -0.000242487 -0.000240602 -3.98109e-05
0.000798475 -0.000240844 -0.000238985 -3.98106e-05
0.00133154 -0.000400256 -0.000399123 -2.38948e-05
0.00134059 -0.000402981 -0.000401833 -2.38951e-05
0.000801183 -0.000241666 -0.000239793 -3.98108e-05
0.00106498 -0.000320575 -0.000319033 -3.28495e-05
0.00133607 -0.000401619 -0.000400478 -2.38949e-05
0.00107222 -0.000322759 -0.000321196 -3.28499e-05
0.0010686 -0.000321667 -0.000320114 -3.28497e-05
0.000798475 -0.000240844 -0.000238985 -3.98106e-05
0.000793059 -0.000239202 -0.000237367 -3.98102e-05
0.0013225 -0.000397532 -0.000396414 -2.38945e-05
0.00133154 -0.000400256 -0.000399123 -2.38948e-05
0.000795767 -0.000240023 -0.000238176 -3.98104e-05
0.00105775 -0.000318391 -0.000316869 -3.28492e-05
0.00132702 -0.000398894 -0.000397768 -2.38946e-05
0.00106498 -0.000320575 -0.000319033 -3.28495e-05
0.00106137 -0.000319483 -0.000317951 -3.28494e-05
0.000793059 -0.000239202 -0.000237367 -3.98102e-05
0.000787642 -0.000237559 -0.00023575 -3.98098e-05
0.00131345 -0.000394807 -0.000393704 -2.38942e-05
0.0013225 -0.000397532 -0.000396414 -2.38945e-05
0.000790351 -0.00023838 -0.000236559 -3.981e-05
0.00105052 -0.000316207 -0.000314706 -3.28488e-05
0.00131797 -0.000396169 -0.000395059 -2.38944e-05
0.00105775 -0.000318391 -0.000316869 -3.28492e-05
0.00105414 -0.000317299 -0.000315788 -3.2849e-05
0.000787642 -0.000237559 -0.00023575 -3.98098e-05
0.000782226 -0.000235917 -0.000234132 -3.98094e-05
0.0013044 -0.000392082 -0.000390995 -2.38939e-05
0.00131345 -0.000394807 -0.000393704 -2.38942e-05
0.000784934 -0.000236738 -0.000234941 -3.98096e-05
0.00104329 -0.000314023 -0.000312543 -3.28485e-05
0.00130893 -0.000393444 -0.000392349 -2.38941e-05
0.00105052 -0.000316207 -0.000314706 -3.28488e-05
0.00104691 -0.000315115 -0.000313625 -3.28486e-05
0.000782226 -0.000235917 -0.000234132 -3.98094e-05
0.000776809 -0.000234274 -0.000232515 -3.9809e-05
0.00129536 -0.000389357 -0.000388285 -2.38936e-05
0.0013044 -0.000392082 -0.000390995 -2.38939e-05
0.000779517 -0.000235095 -0.000233324 -3.98092e-05
0.00103606 -0.000311839 -0.00031038 -3.28481e-05
0.00129988 -0.00039072 -0.00038964 -2.38938e-05
0.00104329 -0.000314023 -0.000312543 -3.28485e-05
0.00103967 -0.000312931 -0.000311461 -3.28483e-05
0.000776809 -0.000234274 -0.000232515 -3.9809e-05
0.000771392 -0.000232632 -0.000230897 -3.98086e-05
0.00128631 -0.000386633 -0.000385575 -2.38933e-05
0.00129536 -0.000389357 -0.000388285 -2.38936e-05
0.000774101 -0.000233453 -0.000231706 -3.98088e-05
0.00102883 -0.000309656 -0.000308216 -3.28477e-05
0.00129083 -0.000387995 -0.00038693 -2.38935e-05
0.00103606 -0.000311839 -0.00031038 -3.28481e-05
0.00103244 -0.000310748 -0.000309298 -3.28479e-05
0.000771392 -0.000232632 -0.000230897 -3.98086e-05
0.000765975 -0.00023099 -0.000229279 -3.98082e-05
0.00127726 -0.000383908 -0.000382866 -2.3893e-05
0.00128631 -0.000386633 -0.000385575 -2.38933e-05
0.000768684 -0.000231811 -0.000230088 -3.98084e-05
0.0010216 -0.000307472 -0.000306053 -3.28474e-05
0.00128179 -0.000385271 -0.000384221 -2.38932e-05
0.00102883 -0.000309656 -0.000308216 -3.28477e-05
0.00102521 -0.000308564 -0.000307135 -3.28476e-05
0.000765975 -0.00023099 -0.000229279 -3.98082e-05
0.000760558 -0.000229348 -0.000227662 -3.98079e-05
0.00126821 -0.000381184 -0.000380156 -2.38928e-05
0.00127726 -0.000383908 -0.000382866 -2.3893e-05
0.000763267 -0.000230169 -0.000228471 -3.9808e-05
0.00101436 -0.000305288 -0.000303889 -3.2847e-05
0.00127274 -0.000382546 -0.000381511 -2.38929e-05
0.0010216 -0.000307472 -0.000306053 -3.28474e-05
0.00101798 -0.00030638 -0.000304971 -3.28472e-05
0.000760558 -0.000229348 -0.000227662 -3.98079e-05
0.000755141 -0.000227706 -0.000226044 -3.98075e-05
0.00125917 -0.000378459 -0.000377446 -2.38925e-05
0.00126821 -0.000381184 -0.000380156 -2.38928e-05
0.00075785 -0.000228527 -0.000226853 -3.98077e-05
0.00100713 -0.000303105 -0.000301726 -3.28466e-05
0.00126369 -0.000379822 -0.000378801 -2.38926e-05
0.00101436 -0.000305288 -0.000303889 -3.2847e-05
0.00101075 -0.000304197 -0.000302808 -3.28468e-05
0.000755141 -0.000227706 -0.000226044 -3.98075e-05
0.000749724 -0.000226064 -0.000224426 -3.98071e-05
0.00125012 -0.000375735 -0.000374736 -2.38922e-05
0.00125917 -0.000378459 -0.000377446 -2.38925e-05
0.000752432 -0.000226885 -0.000225235 -3.98073e-05
0.0009999 -0.000300921 -0.000299562 -3.28463e-05
0.00125464 -0.000377097 -0.000376091 -2.38923e-05
0.00100713 -0.000303105 -0.000301726 -3.28466e-05
0.00100352 -0.000302013 -0.000300644 -3.28465e-05
0.000749724 -0.000226064 -0.000224426 -3.98071e-05
0.000744306 -0.000224422 -0.000222808 -3.98067e-05
0.00124107 -0.000373011 -0.000372026 -2.38919e-05
0.00125012 -0.000375735 -0.000374736 -2.38922e-05
0.000747015 -0.000225243 -0.000223617 -3.98069e-05
0.000992668 -0.000298738 -0.000297398 -3.28459e-05
0.0012456 -0.000374373 -0.000373381 -2.3892e-05
0.0009999 -0.000300921 -0.000299562 -3.28463e-05
0.000996284 -0.00029983 -0.00029848 -3.28461e-05
0.000744306 -0.000224422 -0.000222808 -3.98067e-05
0.000738889 -0.00022278 -0.000221189 -3.98063e-05
0.00123202 -0.000370286 -0.000369316 -2.38916e-05
0.00124107 -0.000373011 -0.000372026 -2.38919e-05
0.000741598 -0.000223601 -0.000221999 -3.98065e-05
0.000985435 -0.000296555 -0.000295235 -3.28455e-05
0.00123655 -0.000371648 -0.000370671 -2.38917e-05
0.000992668 -0.000298738 -0.000297398 -3.28459e-05
0.000989052 -0.000297646 -0.000296317 -3.28457e-05
0.000738889 -0.00022278 -0.000221189 -3.98063e-05
0.000733471 -0.000221138 -0.000219571 -3.98059e-05
0.00122298 -0.000367562 -0.000366606 -2.38913e-05
0.00123202 -0.000370286 -0.000369316 -2.38916e-05
0.00073618 -0.000221959 -0.00022038 -3.98061e-05
0.000978203 -0.000294371 -0.000293071 -3.28452e-05
0.0012275 -0.000368924 -0.000367961 -2.38914e-05
0.000985435 -0.000296555 -0.000295235 -3.28455e-05
0.000981819 -0.000295463 -0.000294153 -3.28454e-05
0.000733471 -0.000221138 -0.000219571 -3.98059e-05
0.000728054 -0.000219497 -0.000217953 -3.98055e-05
0.00121393 -0.000364838 -0.000363896 -2.3891e-05
0.00122298 -0.000367562 -0.000366606 -2.38913e-05
0.000730762 -0.000220318 -0.000218762 -3.98057e-05
0.000970971 -0.000292188 -0.000290907 -3.28448e-05
0.00121845 -0.0003662 -0.000365251 -2.38911e-05
0.000978203 -0.000294371 -0.000293071 -3.28452e-05
0.000974587 -0.00029328 -0.000291989 -3.2845e-05
0.000728054 -0.000219497 -0.000217953 -3.98055e-05
0.000722636 -0.000217855 -0.000216334 -3.9805e-05
0.00120488 -0.000362114 -0.000361186 -2.38907e-05
0.00121393 -0.000364838 -0.000363896 -2.3891e-05
0.000725345 -0.000218676 -0.000217144 -3.98053e-05
0.000963738 -0.000290005 -0.000288743 -3.28444e-05
0.00120941 -0.000363476 -0.000362541 -2.38908e-05
0.000970971 -0.000292188 -0.000290907 -3.28448e-05
0.000967355 -0.000291097 -0.000289825 -3.28446e-05
0.000722636 -0.000217855 -0.000216334 -3.9805e-05
0.000717218 -0.000216214 -0.000214716 -3.98046e-05
0.00119583 -0.00035939 -0.000358476 -2.38904e-05
0.00120488 -0.000362114 -0.000361186 -2.38907e-05
0.000719927 -0.000217035 -0.000215525 -3.98048e-05
0.000956506 -0.000287822 -0.000286579 -3.28441e-05
0.00120036 -0.000360752 -0.000359831 -2.38905e-05
0.000963738 -0.000290005 -0.000288743 -3.28444e-05
0.000960122 -0.000288913 -0.000287661 -3.28442e-05
0.000717218 -0.000216214 -0.000214716 -3.98046e-05
0.0007118 -0.000214573 -0.000213097 -3.98042e-05
0.00118679 -0.000356666 -0.000355766 -2.38901e-05
0.00119583 -0.00035939 -0.000358476 -2.38904e-05
0.000714509 -0.000215393 -0.000213907 -3.98044e-05
0.000949273 -0.000285639 -0.000284415 -3.28437e-05
0.00119131 -0.000358028 -0.000357121 -2.38902e-05
0.000956506 -0.000287822 -0.000286579 -3.28441e-05
0.00095289 -0.00028673 -0.000285497 -3.28439e-05
0.0007118 -0.000214573 -0.000213097 -3.98042e-05
0.000706382 -0.000212931 -0.000211479 -3.98038e-05
0.00117774 -0.000353942 -0.000353056 -2.38898e-05
0.00118679 -0.000356666 -0.000355766 -2.38901e-05
0.000709091 -0.000213752 -0.000212288 -3.9804e-05
0.000942041 -0.000283456 -0.000282251 -3.28433e-05
0.00118226 -0.000355304 -0.000354411 -2.38899e-05
0.000949273 -0.000285639 -0.000284415 -3.28437e-05
0.000945657 -0.000284548 -0.000283333 -3.28435e-05
0.000706382 -0.000212931 -0.000211479 -3.98038e-05
0.000700963 -0.00021129 -0.00020986 -3.98034e-05
0.00116869 -0.000351218 -0.000350346 -2.38895e-05
0.00117774 -0.000353942 -0.000353056 -2.38898e-05
0.000703672 -0.000212111 -0.000210669 -3.98036e-05
0.000934808 -0.000281273 -0.000280086 -3.28429e-05
0.00117321 -0.00035258 -0.000351701 -2.38896e-05
0.000942041 -0.000283456 -0.000282251 -3.28433e-05
0.000938424 -0.000282365 -0.000281168 -3.28431e-05
0.000700963 -0.00021129 -0.00020986 -3.98034e-05
0.000695545 -0.000209649 -0.000208241 -3.9803e-05
0.00115964 -0.000348494 -0.000347635 -2.38892e-05
0.00116869 -0.000351218 -0.000350346 -2.38895e-05
0.000698254 -0.00021047 -0.00020905 -3.98032e-05
0.000927575 -0.000279091 -0.000277922 -3.28425e-05
0.00116417 -0.000349856 -0.00034899 -2.38893e-05
0.000934808 -0.000281273 -0.000280086 -3.28429e-05
0.000931192 -0.000280182 -0.000279004 -3.28427e-05
0.000695545 -0.000209649 -0.000208241 -3.9803e-05
0.000690127 -0.000208008 -0.000206622 -3.98026e-05
0.0011506 -0.00034577 -0.000344925 -2.38889e-05
0.00115964 -0.000348494 -0.000347635 -2.38892e-05
0.000692836 -0.000208829 -0.000207432 -3.98028e-05
0.000920342 -0.000276908 -0.000275758 -3.28422e-05
0.00115512 -0.000347132 -0.00034628 -2.3889e-05
0.000927575 -0.000279091 -0.000277922 -3.28425e-05
0.000923959 -0.000277999 -0.00027684 -3.28424e-05
0.000690127 -0.000208008 -0.000206622 -3.98026e-05
0.000684708 -0.000206367 -0.000205003 -3.98022e-05
0.00114155 -0.000343047 -0.000342215 -2.38886e-05
0.0011506 -0.00034577 -0.000344925 -2.38889e-05
0.000687417 -0.000207188 -0.000205813 -3.98024e-05
0.000913109 -0.000274725 -0.000273593 -3.28418e-05
0.00114607 -0.000344408 -0.00034357 -2.38887e-05
0.000920342 -0.000276908 -0.000275758 -3.28422e-05
0.000916726 -0.000275817 -0.000274675 -3.2842e-05
0.000684708 -0.000206367 -0.000205003 -3.98022e-05
0.000679289 -0.000204726 -0.000203384 -3.98018e-05
0.0011325 -0.000340323 -0.000339504 -2.38882e-05
0.00114155 -0.000343047 -0.000342215 -2.38886e-05
0.000681999 -0.000205547 -0.000204194 -3.9802e-05
0.000905876 -0.000272543 -0.000271429 -3.28414e-05
0.00113702 -0.000341685 -0.000340859 -2.38884e-05
0.000913109 -0.000274725 -0.000273593 -3.28418e-05
0.000909493 -0.000273634 -0.000272511 -3.28416e-05
0.000679289 -0.000204726 -0.000203384 -3.98018e-05
0.00067387 -0.000203086 -0.000201765 -3.98014e-05
0.00112345 -0.000337599 -0.000336794 -2.38879e-05
0.0011325 -0.000340323 -0.000339504 -2.38882e-05
0.00067658 -0.000203906 -0.000202574 -3.98016e-05
0.000898643 -0.00027036 -0.000269264 -3.2841e-05
0.00112798 -0.000338961 -0.000338149 -2.38881e-05
0.000905876 -0.000272543 -0.000271429 -3.28414e-05
0.00090226 -0.000271452 -0.000270346 -3.28412e-05
0.00067387 -0.000203086 -0.000201765 -3.98014e-05
0.000668452 -0.000201445 -0.000200146 -3.98009e-05
0.0011144 -0.000334876 -0.000334083 -2.38876e-05
0.00112345 -0.000337599 -0.000336794 -2.38879e-05
0.000671161 -0.000202265 -0.000200955 -3.98012e-05
0.00089141 -0.000268178 -0.000267099 -3.28406e-05
0.00111893 -0.000336238 -0.000335438 -2.38878e-05
0.000898643 -0.00027036 -0.000269264 -3.2841e-05
0.000895027 -0.000269269 -0.000268182 -3.28408e-05
0.000668452 -0.000201445 -0.000200146 -3.98009e-05
0.000663033 -0.000199805 -0.000198526 -3.98005e-05
0.00110536 -0.000332152 -0.000331373 -2.38873e-05
0.0011144 -0.000334876 -0.000334083 -2.38876e-05
0.000665742 -0.000200625 -0.000199336 -3.98007e-05
0.000884177 -0.000265996 -0.000264935 -3.28403e-05
0.00110988 -0.000333514 -0.000332728 -2.38875e-05
0.00089141 -0.000268178 -0.000267099 -3.28406e-05
0.000887793 -0.000267087 -0.000266017 -3.28405e-05
0.000663033 -0.000199805 -0.000198526 -3.98005e-05
0.000657613 -0.000198164 -0.000196907 -3.98001e-05
0.00109631 -0.000329429 -0.000328662 -2.3887e-05
0.00110536 -0.000332152 -0.000331373 -2.38873e-05
0.000660323 -0.000198984 -0.000197717 -3.98003e-05
0.000876943 -0.000263813 -0.00026277 -3.28399e-05
0.00110083 -0.000330791 -0.000330017 -2.38872e-05
0.000884177 -0.000265996 -0.000264935 -3.28403e-05
0.00088056 -0.000264905 -0.000263852 -3.28401e-05
0.000657613 -0.000198164 -0.000196907 -3.98001e-05
0.000652194 -0.000196524 -0.000195287 -3.97997e-05
0.00108726 -0.000326706 -0.000325951 -2.38867e-05
0.00109631 -0.000329429 -0.000328662 -2.3887e-05
0.000654904 -0.000197344 -0.000196097 -3.97999e-05
0.00086971 -0.000261631 -0.000260605 -3.28395e-05
0.00109178 -0.000328067 -0.000327307 -2.38869e-05
0.000876943 -0.000263813 -0.00026277 -3.28399e-05
0.000873327 -0.000262722 -0.000261688 -3.28397e-05
0.000652194 -0.000196524 -0.000195287 -3.97997e-05
0.000646775 -0.000194883 -0.000193668 -3.97993e-05
0.00107821 -0.000323982 -0.000323241 -2.38864e-05
0.00108726 -0.000326706 -0.000325951 -2.38867e-05
0.000649485 -0.000195704 -0.000194478 -3.97995e-05
0.000862476 -0.000259449 -0.00025844 -3.28391e-05
0.00108273 -0.000325344 -0.000324596 -2.38866e-05
0.00086971 -0.000261631 -0.000260605 -3.28395e-05
0.000866093 -0.00026054 -0.000259523 -3.28393e-05
0.000646775 -0.000194883 -0.000193668 -3.97993e-05
0.000641355 -0.000193243 -0.000192048 -3.97989e-05
0.00106916 -0.000321259 -0.00032053 -2.38861e-05
0.00107821 -0.000323982 -0.000323241 -2.38864e-05
0.000644065 -0.000194063 -0.000192858 -3.97991e-05
0.000855243 -0.000257267 -0.000256275 -3.28387e-05
0.00107369 -0.000322621 -0.000321885 -2.38863e-05
0.000862476 -0.000259449 -0.00025844 -3.28391e-05
0.00085886 -0.000258358 -0.000257358 -3.28389e-05
0.000641355 -0.000193243 -0.000192048 -3.97989e-05
0.000635936 -0.000191603 -0.000190428 -3.97984e-05
0.00106011 -0.000318536 -0.000317819 -2.38858e-05
0.00106916 -0.000321259 -0.00032053 -2.38861e-05
0.000638646 -0.000192423 -0.000191238 -3.97987e-05
0.000848009 -0.000255085 -0.00025411 -3.28383e-05
0.00106464 -0.000319897 -0.000319174 -2.38859e-05
0.000855243 -0.000257267 -0.000256275 -3.28387e-05
0.000851626 -0.000256176 -0.000255193 -3.28385e-05
0.000635936 -0.000191603 -0.000190428 -3.97984e-05
0.000630516 -0.000189963 -0.000188808 -3.9798e-05
0.00105107 -0.000315813 -0.000315108 -2.38855e-05
0.00106011 -0.000318536 -0.000317819 -2.38858e-05
0.000633226 -0.000190783 -0.000189618 -3.97982e-05
0.000840775 -0.000252903 -0.000251945 -3.2838e-05
0.00105559 -0.000317174 -0.000316464 -2.38856e-05
0.000848009 -0.000255085 -0.00025411 -3.28383e-05
0.000844392 -0.000253994 -0.000253028 -3.28382e-05
0.000630516 -0.000189963 -0.000188808 -3.9798e-05
0.000625096 -0.000188323 -0.000187189 -3.97976e-05
0.00104202 -0.00031309 -0.000312397 -2.38852e-05
0.00105107 -0.000315813 -0.000315108 -2.38855e-05
0.000627806 -0.000189143 -0.000187998 -3.97978e-05
0.000833541 -0.000250722 -0.00024978 -3.28376e-05
0.00104654 -0.000314451 -0.000313753 -2.38853e-05
0.000840775 -0.000252903 -0.000251945 -3.2838e-05
0.000837158 -0.000251813 -0.000250862 -3.28378e-05
0.000625096 -0.000188323 -0.000187189 -3.97976e-05
0.000619677 -0.000186683 -0.000185568 -3.97972e-05
0.00103297 -0.000310367 -0.000309686 -2.38849e-05
0.00104202 -0.00031309 -0.000312397 -2.38852e-05
0.000622386 -0.000187503 -0.000186379 -3.97974e-05
0.000826307 -0.00024854 -0.000247615 -3.28372e-05
0.00103749 -0.000311728 -0.000311042 -2.3885e-05
0.000833541 -0.000250722 -0.00024978 -3.28376e-05
0.000829924 -0.000249631 -0.000248697 -3.28374e-05
0.000619677 -0.000186683 -0.000185568 -3.97972e-05
0.000614257 -0.000185044 -0.000183948 -3.97968e-05
0.00102392 -0.000307644 -0.000306975 -2.38846e-05
0.00103297 -0.000310367 -0.000309686 -2.38849e-05
0.000616967 -0.000185863 -0.000184758 -3.9797e-05
0.000819073 -0.000246358 -0.000245449 -3.28368e-05
0.00102844 -0.000309005 -0.000308331 -2.38847e-05
0.000826307 -0.00024854 -0.000247615 -3.28372e-05
0.00082269 -0.000247449 -0.000246532 -3.2837e-05
0.000614257 -0.000185044 -0.000183948 -3.97968e-05
0.000608836 -0.000183404 -0.000182328 -3.97964e-05
0.00101487 -0.000304921 -0.000304264 -2.38843e-05
0.00102392 -0.000307644 -0.000306975 -2.38846e-05
0.000611546 -0.000184224 -0.000183138 -3.97966e-05
0.000811839 -0.000244177 -0.000243284 -3.28364e-05
0.0010194 -0.000306282 -0.00030562 -2.38844e-05
0.000819073 -0.000246358 -0.000245449 -3.28368e-05
0.000815456 -0.000245268 -0.000244367 -3.28366e-05
0.000608836 -0.000183404 -0.000182328 -3.97964e-05
0.000603416 -0.000181764 -0.000180708 -3.97959e-05
0.00100582 -0.000302198 -0.000301553 -2.38839e-05
0.00101487 -0.000304921 -0.000304264 -2.38843e-05
0.000606126 -0.000182584 -0.000181518 -3.97962e-05
0.000804605 -0.000241995 -0.000241118 -3.2836e-05
0.00101035 -0.000303559 -0.000302909 -2.38841e-05
0.000811839 -0.000244177 -0.000243284 -3.28364e-05
0.000808222 -0.000243086 -0.000242201 -3.28362e-05
0.000603416 -0.000181764 -0.000180708 -3.97959e-05
0.000597996 -0.000180125 -0.000179088 -3.97955e-05
0.000996774 -0.000299475 -0.000298842 -2.38836e-05
0.00100582 -0.000302198 -0.000301553 -2.38839e-05
0.000600706 -0.000180945 -0.000179898 -3.97957e-05
0.000797371 -0.000239814 -0.000238953 -3.28357e-05
0.0010013 -0.000300837 -0.000300198 -2.38838e-05
0.000804605 -0.000241995 -0.000241118 -3.2836e-05
0.000800988 -0.000240905 -0.000240036 -3.28359e-05
0.000597996 -0.000180125 -0.000179088 -3.97955e-05
0.000592575 -0.000178485 -0.000177467 -3.97951e-05
0.000987725 -0.000296752 -0.000296131 -2.38833e-05
0.000996774 -0.000299475 -0.000298842 -2.38836e-05
0.000595286 -0.000179305 -0.000178277 -3.97953e-05
0.000790137 -0.000237633 -0.000236787 -3.28353e-05
0.000992249 -0.000298114 -0.000297487 -2.38835e-05
0.000797371 -0.000239814 -0.000238953 -3.28357e-05
0.000793754 -0.000238723 -0.00023787 -3.28355e-05
0.000592575 -0.000178485 -0.000177467 -3.97951e-05
0.000587155 -0.000176846 -0.000175847 -3.97947e-05
0.000978676 -0.00029403 -0.00029342 -2.3883e-05
0.000987725 -0.000296752 -0.000296131 -2.38833e-05
0.000589865 -0.000177666 -0.000176657 -3.97949e-05
0.000782902 -0.000235451 -0.000234622 -3.28349e-05
0.000983201 -0.000295391 -0.000294776 -2.38832e-05
0.000790137 -0.000237633 -0.000236787 -3.28353e-05
0.000786519 -0.000236542 -0.000235705 -3.28351e-05
0.000587155 -0.000176846 -0.000175847 -3.97947e-05
0.000581734 -0.000175207 -0.000174226 -3.97943e-05
0.000969627 -0.000291307 -0.000290709 -2.38827e-05
0.000978676 -0.00029403 -0.00029342 -2.3883e-05
0.000584445 -0.000176027 -0.000175036 -3.97945e-05
0.000775668 -0.00023327 -0.000232456 -3.28345e-05
0.000974152 -0.000292668 -0.000292064 -2.38829e-05
0.000782902 -0.000235451 -0.000234622 -3.28349e-05
0.000779285 -0.000234361 -0.000233539 -3.28347e-05
0.000581734 -0.000175207 -0.000174226 -3.97943e-05
0.000576314 -0.000173568 -0.000172605 -3.97939e-05
0.000960579 -0.000288585 -0.000287997 -2.38824e-05
0.000969627 -0.000291307 -0.000290709 -2.38827e-05
0.000579024 -0.000174387 -0.000173416 -3.97941e-05
0.000768433 -0.000231089 -0.00023029 -3.28341e-05
0.000965103 -0.000289946 -0.000289353 -2.38826e-05
0.000775668 -0.00023327 -0.000232456 -3.28345e-05
0.00077205 -0.00023218 -0.000231373 -3.28343e-05
0.000576314 -0.000173568 -0.000172605 -3.97939e-05
0.000570893 -0.000171929 -0.000170985 -3.97935e-05
0.00095153 -0.000285862 -0.000285286 -2.38821e-05
0.000960579 -0.000288585 -0.000287997 -2.38824e-05
0.000573603 -0.000172748 -0.000171795 -3.97937e-05
0.000761199 -0.000228908 -0.000228124 -3.28338e-05
0.000956054 -0.000287223 -0.000286642 -2.38823e-05
0.000768433 -0.000231089 -0.00023029 -3.28341e-05
0.000764816 -0.000229999 -0.000229207 -3.28339e-05
0.000570893 -0.000171929 -0.000170985 -3.97935e-05
0.000565472 -0.00017029 -0.000169364 -3.9793e-05
0.000942481 -0.00028314 -0.000282575 -2.38818e-05
0.00095153 -0.000285862 -0.000285286 -2.38821e-05
0.000568182 -0.000171109 -0.000170174 -3.97932e-05
0.000753964 -0.000226727 -0.000225959 -3.28334e-05
0.000947005 -0.000284501 -0.00028393 -2.3882e-05
0.000761199 -0.000228908 -0.000228124 -3.28338e-05
0.000757581 -0.000227818 -0.000227042 -3.28336e-05
0.000565472 -0.00017029 -0.000169364 -3.9793e-05
0.000560051 -0.000168651 -0.000167743 -3.97926e-05
0.000933432 -0.000280417 -0.000279863 -2.38815e-05
0.000942481 -0.00028314 -0.000282575 -2.38818e-05
0.000562761 -0.00016947 -0.000168553 -3.97928e-05
0.000746729 -0.000224546 -0.000223793 -3.2833e-05
0.000937956 -0.000281778 -0.000281219 -2.38816e-05
0.000753964 -0.000226727 -0.000225959 -3.28334e-05
0.000750346 -0.000225637 -0.000224876 -3.28332e-05
0.000560051 -0.000168651 -0.000167743 -3.97926e-05
0.00055463 -0.000167012 -0.000166122 -3.97922e-05
0.000924383 -0.000277695 -0.000277152 -2.38812e-05
0.000933432 -0.000280417 -0.000279863 -2.38815e-05
0.00055734 -0.000167831 -0.000166932 -3.97924e-05
0.000739494 -0.000222366 -0.000221627 -3.28326e-05
0.000928907 -0.000279056 -0.000278508 -2.38813e-05
0.000746729 -0.000224546 -0.000223793 -3.2833e-05
0.000743112 -0.000223456 -0.00022271 -3.28328e-05
0.00055463 -0.000167012 -0.000166122 -3.97922e-05
0.000549208 -0.000165373 -0.000164501 -3.97918e-05
0.000915334 -0.000274973 -0.00027444 -2.38809e-05
0.000924383 -0.000277695 -0.000277152 -2.38812e-05
0.000551919 -0.000166193 -0.000165311 -3.9792e-05
0.000732259 -0.000220185 -0.00021946 -3.28322e-05
0.000919858 -0.000276334 -0.000275796 -2.3881e-05
0.000739494 -0.000222366 -0.000221627 -3.28326e-05
0.000735877 -0.000221275 -0.000220543 -3.28324e-05
0.000549208 -0.000165373 -0.000164501 -3.97918e-05
0.000543787 -0.000163735 -0.000162879 -3.97914e-05
0.000906284 -0.000272251 -0.000271729 -2.38806e-05
0.000915334 -0.000274973 -0.00027444 -2.38809e-05
0.000546498 -0.000164554 -0.00016369 -3.97916e-05
0.000725024 -0.000218004 -0.000217294 -3.28319e-05
0.000910809 -0.000273612 -0.000273085 -2.38807e-05
0.000732259 -0.000220185 -0.00021946 -3.28322e-05
0.000728642 -0.000219094 -0.000218377 -3.2832e-05
0.000543787 -0.000163735 -0.000162879 -3.97914e-05
0.000538365 -0.000162096 -0.000161258 -3.9791e-05
0.000897235 -0.000269528 -0.000269017 -2.38803e-05
0.000906284 -0.000272251 -0.000271729 -2.38806e-05
0.000541076 -0.000162915 -0.000162069 -3.97912e-05
0.000717789 -0.000215824 -0.000215128 -3.28315e-05
0.00090176 -0.000270889 -0.000270373 -2.38804e-05
0.000725024 -0.000218004 -0.000217294 -3.28319e-05
0.000721407 -0.000216914 -0.000216211 -3.28317e-05
0.000538365 -0.000162096 -0.000161258 -3.9791e-05
0.000532944 -0.000160458 -0.000159637 -3.97906e-05
0.000888186 -0.000266806 -0.000266306 -2.388e-05
0.000897235 -0.000269528 -0.000269017 -2.38803e-05
0.000535655 -0.000161277 -0.000160448 -3.97908e-05
0.000710554 -0.000213643 -0.000212962 -3.28311e-05
0.000892711 -0.000268167 -0.000267661 -2.38801e-05
0.000717789 -0.000215824 -0.000215128 -3.28315e-05
0.000714171 -0.000214733 -0.000214045 -3.28313e-05
0.000532944 -0.000160458 -0.000159637 -3.97906e-05
0.000527522 -0.000158819 -0.000158015 -3.97902e-05
0.000879137 -0.000264084 -0.000263594 -2.38797e-05
0.000888186 -0.000266806 -0.000266306 -2.388e-05
0.000530233 -0.000159639 -0.000158826 -3.97904e-05
0.000703318 -0.000211463 -0.000210795 -3.28307e-05
0.000883661 -0.000265445 -0.00026495 -2.38798e-05
0.000710554 -0.000213643 -0.000212962 -3.28311e-05
0.000706936 -0.000212553 -0.000211879 -3.28309e-05
0.000527522 -0.000158819 -0.000158015 -3.97902e-05
0.0005221 -0.000157181 -0.000156394 -3.97898e-05
0.000870087 -0.000261362 -0.000260882 -2.38794e-05
0.000879137 -0.000264084 -0.000263594 -2.38797e-05
0.000524811 -0.000158 -0.000157205 -3.979e-05
0.000696083 -0.000209282 -0.000208629 -3.28303e-05
0.000874612 -0.000262723 -0.000262238 -2.38795e-05
0.000703318 -0.000211463 -0.000210795 -3.28307e-05
0.000699701 -0.000210372 -0.000209712 -3.28305e-05
0.0005221 -0.000157181 -0.000156394 -3.97898e-05
0.000516678 -0.000155543 -0.000154772 -3.97893e-05
0.000861038 -0.00025864 -0.00025817 -2.38791e-05
0.000870087 -0.000261362 -0.000260882 -2.38794e-05
0.000519389 -0.000156362 -0.000155583 -3.97895e-05
0.000688848 -0.000207102 -0.000206462 -3.283e-05
0.000865563 -0.000260001 -0.000259526 -2.38792e-05
0.000696083 -0.000209282 -0.000208629 -3.28303e-05
0.000692465 -0.000208192 -0.000207546 -3.28302e-05
0.000516678 -0.000155543 -0.000154772 -3.97893e-05
0.000511256 -0.000153905 -0.000153151 -3.97889e-05
0.000851988 -0.000255919 -0.000255459 -2.38788e-05
0.000861038 -0.00025864 -0.00025817 -2.38791e-05
0.000513967 -0.000154724 -0.000153961 -3.97891e-05
0.000681612 -0.000204922 -0.000204296 -3.28296e-05
0.000856513 -0.000257279 -0.000256814 -2.38789e-05
0.000688848 -0.000207102 -0.000206462 -3.283e-05
0.00068523 -0.000206012 -0.000205379 -3.28298e-05
0.000511256 -0.000153905 -0.000153151 -3.97889e-05
0.000505834 -0.000152267 -0.000151529 -3.97885e-05
0.000842939 -0.000253197 -0.000252747 -2.38785e-05
0.000851988 -0.000255919 -0.000255459 -2.38788e-05
0.000508545 -0.000153086 -0.00015234 -3.97887e-05
0.000674376 -0.000202742 -0.000202129 -3.28292e-05
0.000847464 -0.000254558 -0.000254103 -2.38786e-05
0.000681612 -0.000204922 -0.000204296 -3.28296e-05
0.000677994 -0.000203832 -0.000203212 -3.28294e-05
0.000505834 -0.000152267 -0.000151529 -3.97885e-05
0.000500412 -0.000150629 -0.000149907 -3.97881e-05
0.000833889 -0.000250475 -0.000250035 -2.38782e-05
0.000842939 -0.000253197 -0.000252747 -2.38785e-05
0.000503123 -0.000151448 -0.000150718 -3.97883e-05
0.000667141 -0.000200562 -0.000199962 -3.28288e-05
0.000838414 -0.000251836 -0.000251391 -2.38783e-05
0.000674376 -0.000202742 -0.000202129 -3.28292e-05
0.000670759 -0.000201652 -0.000201046 -3.2829e-05
0.000500412 -0.000150629 -0.000149907 -3.97881e-05
0.000494989 -0.000148991 -0.000148285 -3.97877e-05
0.00082484 -0.000247753 -0.000247323 -2.38779e-05
0.000833889 -0.000250475 -0.000250035 -2.38782e-05
0.000497701 -0.00014981 -0.000149096 -3.97879e-05
0.000659905 -0.000198382 -0.000197796 -3.28285e-05
0.000829365 -0.000249114 -0.000248679 -2.3878e-05
0.000667141 -0.000200562 -0.000199962 -3.28288e-05
0.000663523 -0.000199472 -0.000198879 -3.28287e-05
0.000494989 -0.000148991 -0.000148285 -3.97877e-05
0.000489567 -0.000147353 -0.000146663 -3.97873e-05
0.00081579 -0.000245032 -0.000244611 -2.38776e-05
0.00082484 -0.000247753 -0.000247323 -2.38779e-05
0.000492278 -0.000148172 -0.000147474 -3.97875e-05
0.000652669 -0.000196202 -0.000195629 -3.28281e-05
0.000820315 -0.000246393 -0.000245967 -2.38777e-05
0.000659905 -0.000198382 -0.000197796 -3.28285e-05
0.000656287 -0.000197292 -0.000196712 -3.28283e-05
0.000489567 -0.000147353 -0.000146663 -3.97873e-05
0.000484144 -0.000145716 -0.000145041 -3.97869e-05
0.00080674 -0.00024231 -0.000241899 -2.38773e-05
0.00081579 -0.000245032 -0.000244611 -2.38776e-05
0.000486856 -0.000146534 -0.000145852 -3.97871e-05
0.000645433 -0.000194022 -0.000193462 -3.28277e-05
0.000811265 -0.000243671 -0.000243255 -2.38774e-05
0.000652669 -0.000196202 -0.000195629 -3.28281e-05
0.000649051 -0.000195112 -0.000194545 -3.28279e-05
0.000484144 -0.000145716 -0.000145041 -3.97869e-05
0.000478721 -0.000144078 -0.000143419 -3.97865e-05
0.000797691 -0.000239589 -0.000239187 -2.3877e-05
0.00080674 -0.00024231 -0.000241899 -2.38773e-05
0.000481433 -0.000144897 -0.00014423 -3.97867e-05
0.000638197 -0.000191842 -0.000191295 -3.28274e-05
0.000802216 -0.000240949 -0.000240543 -2.38771e-05
0.000645433 -0.000194022 -0.000193462 -3.28277e-05
0.000641815 -0.000192932 -0.000192378 -3.28276e-05
0.000478721 -0.000144078 -0.000143419 -3.97865e-05
0.000473299 -0.000142441 -0.000141796 -3.97861e-05
0.000788641 -0.000236867 -0.000236474 -2.38767e-05
0.000797691 -0.000239589 -0.000239187 -2.3877e-05
0.00047601 -0.000143259 -0.000142607 -3.97863e-05
0.000630961 -0.000189663 -0.000189128 -3.2827e-05
0.000793166 -0.000238228 -0.000237831 -2.38768e-05
0.000638197 -0.000191842 -0.000191295 -3.28274e-05
0.000634579 -0.000190752 -0.000190211 -3.28272e-05
0.000473299 -0.000142441 -0.000141796 -3.97861e-05
0.000467876 -0.000140803 -0.000140174 -3.97857e-05
0.000779591 -0.000234146 -0.000233762 -2.38764e-05
0.000788641 -0.000236867 -0.000236474 -2.38767e-05
0.000470587 -0.000141622 -0.000140985 -3.97859e-05
0.000623725 -0.000187483 -0.000186961 -3.28266e-05
0.000784116 -0.000235506 -0.000235118 -2.38765e-05
0.000630961 -0.000189663 -0.000189128 -3.2827e-05
0.000627343 -0.000188573 -0.000188044 -3.28268e-05
0.000467876 -0.000140803 -0.000140174 -3.97857e-05
0.000462453 -0.000139166 -0.000138551 -3.97853e-05
0.000770541 -0.000231424 -0.00023105 -2.38761e-05
0.000779591 -0.000234146 -0.000233762 -2.38764e-05
0.000465164 -0.000139984 -0.000139363 -3.97855e-05
0.000616489 -0.000185303 -0.000184794 -3.28263e-05
0.000775066 -0.000232785 -0.000232406 -2.38762e-05
0.000623725 -0.000187483 -0.000186961 -3.28266e-05
0.000620107 -0.000186393 -0.000185877 -3.28265e-05
0.000462453 -0.000139166 -0.000138551 -3.97853e-05
0.000457029 -0.000137529 -0.000136929 -3.9785e-05
0.000761491 -0.000228703 -0.000228338 -2.38758e-05
0.000770541 -0.000231424 -0.00023105 -2.38761e-05
0.000459741 -0.000138347 -0.00013774 -3.97852e-05
0.000609252 -0.000183124 -0.000182626 -3.28259e-05
0.000766016 -0.000230064 -0.000229694 -2.38759e-05
0.000616489 -0.000185303 -0.000184794 -3.28263e-05
0.00061287 -0.000184214 -0.00018371 -3.28261e-05
0.000457029 -0.000137529 -0.000136929 -3.9785e-05
0.000451606 -0.000135891 -0.000135306 -3.97846e-05
0.000752441 -0.000225982 -0.000225625 -2.38755e-05
0.000761491 -0.000228703 -0.000228338 -2.38758e-05
0.000454318 -0.00013671 -0.000136118 -3.97848e-05
0.000602016 -0.000180945 -0.000180459 -3.28256e-05
0.000756966 -0.000227343 -0.000226982 -2.38757e-05
0.000609252 -0.000183124 -0.000182626 -3.28259e-05
0.000605634 -0.000182034 -0.000181543 -3.28257e-05
0.000451606 -0.000135891 -0.000135306 -3.97846e-05
0.000446183 -0.000134254 -0.000133684 -3.97842e-05
0.000743391 -0.000223261 -0.000222913 -2.38752e-05
0.000752441 -0.000225982 -0.000225625 -2.38755e-05
0.000448895 -0.000135073 -0.000134495 -3.97844e-05
0.000594779 -0.000178765 -0.000178292 -3.28252e-05
0.000747916 -0.000224621 -0.000224269 -2.38754e-05
0.000602016 -0.000180945 -0.000180459 -3.28256e-05
0.000598397 -0.000179855 -0.000179375 -3.28254e-05
0.000446183 -0.000134254 -0.000133684 -3.97842e-05
0.000440759 -0.000132617 -0.000132061 -3.97838e-05
0.000734341 -0.00022054 -0.000220201 -2.38749e-05
0.000743391 -0.000223261 -0.000222913 -2.38752e-05
0.000443471 -0.000133436 -0.000132872 -3.9784e-05
0.000587543 -0.000176586 -0.000176124 -3.28248e-05
0.000738866 -0.0002219 -0.000221557 -2.38751e-05
0.000594779 -0.000178765 -0.000178292 -3.28252e-05
0.000591161 -0.000177676 -0.000177208 -3.2825e-05
0.000440759 -0.000132617 -0.000132061 -3.97838e-05
0.000435336 -0.000130981 -0.000130438 -3.97834e-05
0.000725291 -0.000217819 -0.000217488 -2.38746e-05
0.000734341 -0.00022054 -0.000220201 -2.38749e-05
0.000438048 -0.000131799 -0.000131249 -3.97836e-05
0.000580306 -0.000174407 -0.000173957 -3.28245e-05
0.000729816 -0.000219179 -0.000218844 -2.38748e-05
0.000587543 -0.000176586 -0.000176124 -3.28248e-05
0.000583924 -0.000175497 -0.00017504 -3.28247e-05
0.000435336 -0.000130981 -0.000130438 -3.97834e-05
0.000429912 -0.000129344 -0.000128815 -3.9783e-05
0.000716241 -0.000215098 -0.000214776 -2.38744e-05
0.000725291 -0.000217819 -0.000217488 -2.38746e-05
0.000432624 -0.000130162 -0.000129626 -3.97832e-05
0.000573069 -0.000172228 -0.000171789 -3.28241e-05
0.000720766 -0.000216458 -0.000216132 -2.38745e-05
0.000580306 -0.000174407 -0.000173957 -3.28245e-05
0.000576687 -0.000173317 -0.000172873 -3.28243e-05
0.000429912 -0.000129344 -0.000128815 -3.9783e-05
0.000424488 -0.000127707 -0.000127192 -3.97826e-05
0.00070719 -0.000212377 -0.000212063 -2.38741e-05
0.000716241 -0.000215098 -0.000214776 -2.38744e-05
0.0004272 -0.000128525 -0.000128003 -3.97828e-05
0.000565832 -0.000170049 -0.000169621 -3.28238e-05
0.000711715 -0.000213737 -0.000213419 -2.38742e-05
0.000573069 -0.000172228 -0.000171789 -3.28241e-05
0.000569451 -0.000171138 -0.000170705 -3.28239e-05
0.000424488 -0.000127707 -0.000127192 -3.97826e-05
0.000419064 -0.00012607 -0.000125569 -3.97823e-05
0.00069814 -0.000209656 -0.00020935 -2.38738e-05
0.00070719 -0.000212377 -0.000212063 -2.38741e-05
0.000421776 -0.000126889 -0.00012638 -3.97825e-05
0.000558595 -0.00016787 -0.000167454 -3.28234e-05
0.000702665 -0.000211016 -0.000210707 -2.38739e-05
0.000565832 -0.000170049 -0.000169621 -3.28238e-05
0.000562214 -0.000168959 -0.000168538 -3.28236e-05
0.000419064 -0.00012607 -0.000125569 -3.97823e-05
0.00041364 -0.000124434 -0.000123946 -3.97819e-05
0.00068909 -0.000206935 -0.000206638 -2.38735e-05
0.00069814 -0.000209656 -0.00020935 -2.38738e-05
0.000416352 -0.000125252 -0.000124757 -3.97821e-05
0.000551358 -0.000165691 -0.000165286 -3.28231e-05
0.000693615 -0.000208295 -0.000207994 -2.38736e-05
0.000558595 -0.00016787 -0.000167454 -3.28234e-05
0.000554977 -0.00016678 -0.00016637 -3.28232e-05
0.00041364 -0.000124434 -0.000123946 -3.97819e-05
0.000408216 -0.000122797 -0.000122322 -3.97815e-05
0.000680039 -0.000204214 -0.000203925 -2.38732e-05
0.00068909 -0.000206935 -0.000206638 -2.38735e-05
0.000410928 -0.000123616 -0.000123134 -3.97817e-05
0.000544121 -0.000163512 -0.000163118 -3.28227e-05
0.000684564 -0.000205575 -0.000205281 -2.38734e-05
0.000551358 -0.000165691 -0.000165286 -3.28231e-05
0.00054774 -0.000164602 -0.000164202 -3.28229e-05
0.000408216 -0.000122797 -0.000122322 -3.97815e-05
0.000402792 -0.000121161 -0.000120699 -3.97811e-05
0.000670989 -0.000201493 -0.000201212 -2.38729e-05
0.000680039 -0.000204214 -0.000203925 -2.38732e-05
0.000405504 -0.000121979 -0.000121511 -3.97813e-05
0.000536884 -0.000161334 -0.00016095 -3.28224e-05
0.000675514 -0.000202854 -0.000202569 -2.38731e-05
0.000544121 -0.000163512 -0.000163118 -3.28227e-05
0.000540502 -0.000162423 -0.000162034 -3.28225e-05
0.000402792 -0.000121161 -0.000120699 -3.97811e-05
0.000397367 -0.000119525 -0.000119075 -3.97808e-05
0.000661938 -0.000198773 -0.000198499 -2.38727e-05
0.000670989 -0.000201493 -0.000201212 -2.38729e-05
0.000400079 -0.000120343 -0.000119887 -3.9781e-05
0.000529646 -0.000159155 -0.000158782 -3.2822e-05
0.000666463 -0.000200133 -0.000199856 -2.38728e-05
0.000536884 -0.000161334 -0.00016095 -3.28224e-05
0.000533265 -0.000160244 -0.000159866 -3.28222e-05
0.000397367 -0.000119525 -0.000119075 -3.97808e-05
0.000391943 -0.000117889 -0.000117452 -3.97804e-05
0.000652887 -0.000196052 -0.000195787 -2.38724e-05
0.000661938 -0.000198773 -0.000198499 -2.38727e-05
0.000394655 -0.000118707 -0.000118264 -3.97806e-05
0.000522409 -0.000156976 -0.000156614 -3.28217e-05
0.000657413 -0.000197412 -0.000197143 -2.38725e-05
0.000529646 -0.000159155 -0.000158782 -3.2822e-05
0.000526028 -0.000158066 -0.000157698 -3.28218e-05
0.000391943 -0.000117889 -0.000117452 -3.97804e-05
0.000386518 -0.000116252 -0.000115828 -3.978e-05
0.000643837 -0.000193332 -0.000193074 -2.38721e-05
0.000652887 -0.000196052 -0.000195787 -2.38724e-05
0.00038923 -0.000117071 -0.00011664 -3.97802e-05
0.000515172 -0.000154798 -0.000154446 -3.28213e-05
0.000648362 -0.000194692 -0.00019443 -2.38722e-05
0.000522409 -0.000156976 -0.000156614 -3.28217e-05
0.00051879 -0.000155887 -0.00015553 -3.28215e-05
0.000386518 -0.000116252 -0.000115828 -3.978e-05
0.000381093 -0.000114616 -0.000114204 -3.97797e-05
0.000634786 -0.000190611 -0.000190361 -2.38718e-05
0.000643837 -0.000193332 -0.000193074 -2.38721e-05
0.000383806 -0.000115434 -0.000115016 -3.97798e-05
0.000507934 -0.000152619 -0.000152278 -3.2821e-05
0.000639311 -0.000191971 -0.000191717 -2.3872e-05
0.000515172 -0.000154798 -0.000154446 -3.28213e-05
0.000511553 -0.000153709 -0.000153362 -3.28212e-05
0.000381093 -0.000114616 -0.000114204 -3.97797e-05
0.000375668 -0.000112981 -0.000112581 -3.97793e-05
0.000625735 -0.000187891 -0.000187648 -2.38715e-05
0.000634786 -0.000190611 -0.000190361 -2.38718e-05
0.000378381 -0.000113798 -0.000113392 -3.97795e-05
0.000500696 -0.000150441 -0.000150109 -3.28207e-05
0.000630261 -0.000189251 -0.000189004 -2.38717e-05
0.000507934 -0.000152619 -0.000152278 -3.2821e-05
0.000504315 -0.00015153 -0.000151194 -3.28208e-05
0.000375668 -0.000112981 -0.000112581 -3.97793e-05
0.000370243 -0.000111345 -0.000110957 -3.97789e-05
0.000616684 -0.00018517 -0.000184935 -2.38713e-05
0.000625735 -0.000187891 -0.000187648 -2.38715e-05
0.000372956 -0.000112163 -0.000111769 -3.97791e-05
0.000493459 -0.000148263 -0.000147941 -3.28203e-05
0.00062121 -0.00018653 -0.000186291 -2.38714e-05
0.000500696 -0.000150441 -0.000150109 -3.28207e-05
0.000497077 -0.000149352 -0.000149025 -3.28205e-05
0.000370243 -0.000111345 -0.000110957 -3.97789e-05
0.000364818 -0.000109709 -0.000109333 -3.97786e-05
0.000607633 -0.00018245 -0.000182222 -2.3871e-05
0.000616684 -0.00018517 -0.000184935 -2.38713e-05
0.000367531 -0.000110527 -0.000110145 -3.97788e-05
0.000486221 -0.000146085 -0.000145773 -3.282e-05
0.000612159 -0.00018381 -0.000183578 -2.38711e-05
0.000493459 -0.000148263 -0.000147941 -3.28203e-05
0.00048984 -0.000147174 -0.000146857 -3.28202e-05
0.000364818 -0.000109709 -0.000109333 -3.97786e-05
0.000359393 -0.000108073 -0.000107709 -3.97782e-05
0.000598582 -0.00017973 -0.000179508 -2.38707e-05
0.000607633 -0.00018245 -0.000182222 -2.3871e-05
0.000362106 -0.000108891 -0.000108521 -3.97784e-05
0.000478983 -0.000143906 -0.000143604 -3.28197e-05
0.000603108 -0.00018109 -0.000180865 -2.38709e-05
0.000486221 -0.000146085 -0.000145773 -3.282e-05
0.000482602 -0.000144996 -0.000144688 -3.28198e-05
0.000359393 -0.000108073 -0.000107709 -3.97782e-05
0.000353968 -0.000106438 -0.000106084 -3.97779e-05
0.000589531 -0.000177009 -0.000176795 -2.38705e-05
0.000598582 -0.00017973 -0.000179508 -2.38707e-05
0.00035668 -0.000107255 -0.000106896 -3.97781e-05
0.000471745 -0.000141728 -0.000141436 -3.28193e-05
0.000594057 -0.00017837 -0.000178152 -2.38706e-05
0.000478983 -0.000143906 -0.000143604 -3.28197e-05
0.000475364 -0.000142817 -0.00014252 -3.28195e-05
0.000353968 -0.000106438 -0.000106084 -3.97779e-05
0.000348542 -0.000104802 -0.00010446 -3.97775e-05
0.00058048 -0.000174289 -0.000174082 -2.38702e-05
0.000589531 -0.000177009 -0.000176795 -2.38705e-05
0.000351255 -0.00010562 -0.000105272 -3.97777e-05
0.000464507 -0.00013955 -0.000139267 -3.2819e-05
0.000585006 -0.000175649 -0.000175439 -2.38703e-05
0.000471745 -0.000141728 -0.000141436 -3.28193e-05
0.000468126 -0.000140639 -0.000140351 -3.28192e-05
0.000348542 -0.000104802 -0.00010446 -3.97775e-05
0.000343117 -0.000103167 -0.000102836 -3.97772e-05
0.000571429 -0.000171569 -0.000171369 -2.38699e-05
0.00058048 -0.000174289 -0.000174082 -2.38702e-05
0.00034583 -0.000103984 -0.000103648 -3.97774e-05
0.000457268 -0.000137372 -0.000137098 -3.28187e-05
0.000575955 -0.000172929 -0.000172725 -2.38701e-05
0.000464507 -0.00013955 -0.000139267 -3.2819e-05
0.000460887 -0.000138461 -0.000138183 -3.28188e-05
0.000343117 -0.000103167 -0.000102836 -3.97772e-05
0.000337691 -0.000101531 -0.000101211 -3.97768e-05
0.000562378 -0.000168849 -0.000168655 -2.38697e-05
0.000571429 -0.000171569 -0.000171369 -2.38699e-05
0.000340404 -0.000102349 -0.000102024 -3.9777e-05
0.00045003 -0.000135195 -0.000134929 -3.28183e-05
0.000566904 -0.000170209 -0.000170012 -2.38698e-05
0.000457268 -0.000137372 -0.000137098 -3.28187e-05
0.000453649 -0.000136284 -0.000136014 -3.28185e-05
0.000337691 -0.000101531 -0.000101211 -3.97768e-05
0.000332265 -9.98961e-05 -9.95867e-05 -3.97765e-05
0.000553327 -0.000166129 -0.000165942 -2.38694e-05
0.000562378 -0.000168849 -0.000168655 -2.38697e-05
0.000334978 -0.000100714 -0.000100399 -3.97767e-05
0.000442792 -0.000133017 -0.000132761 -3.2818e-05
0.000557852 -0.000167489 -0.000167299 -2.38695e-05
0.00045003 -0.000135195 -0.000134929 -3.28183e-05
0.000446411 -0.000134106 -0.000133845 -3.28182e-05
0.000332265 -9.98961e-05 -9.95867e-05 -3.97765e-05
0.000326839 -9.82609e-05 -9.79621e-05 -3.97762e-05
0.000544275 -0.000163409 -0.000163228 -2.38691e-05
0.000553327 -0.000166129 -0.000165942 -2.38694e-05
0.000329552 -9.90785e-05 -9.87744e-05 -3.97763e-05
0.000435553 -0.000130839 -0.000130592 -3.28177e-05
0.000548801 -0.000164769 -0.000164585 -2.38693e-05
0.000442792 -0.000133017 -0.000132761 -3.2818e-05
0.000439172 -0.000131928 -0.000131676 -3.28179e-05
0.000326839 -9.82609e-05 -9.79621e-05 -3.97762e-05
0.000321413 -9.66259e-05 -9.63374e-05 -3.97758e-05
0.000535224 -0.000160689 -0.000160515 -2.38689e-05
0.000544275 -0.000163409 -0.000163228 -2.38691e-05
0.000324126 -9.74434e-05 -9.71498e-05 -3.9776e-05
0.000428315 -0.000128662 -0.000128423 -3.28174e-05
0.00053975 -0.000162049 -0.000161872 -2.3869e-05
0.000435553 -0.000130839 -0.000130592 -3.28177e-05
0.000431934 -0.00012975 -0.000129507 -3.28175e-05
0.000321413 -9.66259e-05 -9.63374e-05 -3.97758e-05
0.000315987 -9.49909e-05 -9.47126e-05 -3.97755e-05
0.000526172 -0.000157969 -0.000157801 -2.38686e-05
0.000535224 -0.000160689 -0.000160515 -2.38689e-05
0.0003187 -9.58084e-05 -9.5525e-05 -3.97756e-05
0.000421076 -0.000126484 -0.000126254 -3.28171e-05
0.000530698 -0.000159329 -0.000159158 -2.38687e-05
0.000428315 -0.000128662 -0.000128423 -3.28174e-05
0.000424695 -0.000127573 -0.000127338 -3.28172e-05
0.000315987 -9.49909e-05 -9.47126e-05 -3.97755e-05
0.000310561 -9.33559e-05 -9.30878e-05 -3.97751e-05
0.000517121 -0.00015525 -0.000155088 -2.38684e-05
0.000526172 -0.000157969 -0.000157801 -2.38686e-05
0.000313274 -9.41734e-05 -9.39002e-05 -3.97753e-05
0.000413837 -0.000124306 -0.000124085 -3.28167e-05
0.000521647 -0.000156609 -0.000156445 -2.38685e-05
0.000421076 -0.000126484 -0.000126254 -3.28171e-05
0.000417456 -0.000125395 -0.000125169 -3.28169e-05
0.000310561 -9.33559e-05 -9.30878e-05 -3.97751e-05
0.000305134 -9.17211e-05 -9.14628e-05 -3.97748e-05
0.000508069 -0.00015253 -0.000152374 -2.38681e-05
0.000517121 -0.00015525 -0.000155088 -2.38684e-05
0.000307848 -9.25385e-05 -9.22753e-05 -3.9775e-05
0.000406598 -0.000122129 -0.000121915 -3.28164e-05
0.000512595 -0.00015389 -0.000153731 -2.38682e-05
0.000413837 -0.000124306 -0.000124085 -3.28167e-05
0.000410218 -0.000123218 -0.000123 -3.28166e-05
0.000305134 -9.17211e-05 -9.14628e-05 -3.97748e-05
0.000299708 -9.00864e-05 -8.98377e-05 -3.97745e-05
0.000499018 -0.00014981 -0.00014966 -2.38679e-05
0.000508069 -0.00015253 -0.000152374 -2.38681e-05
0.000302421 -9.09037e-05 -9.06503e-05 -3.97747e-05
0.000399359 -0.000119952 -0.000119746 -3.28161e-05
0.000503543 -0.00015117 -0.000151017 -2.3868e-05
0.000406598 -0.000122129 -0.000121915 -3.28164e-05
0.000402979 -0.00012104 -0.000120831 -3.28163e-05
0.000299708 -9.00864e-05 -8.98377e-05 -3.97745e-05
0.000294281 -8.84517e-05 -8.82126e-05 -3.97742e-05
0.000489966 -0.00014709 -0.000146947 -2.38676e-05
0.000499018 -0.00014981 -0.00014966 -2.38679e-05
0.000296994 -8.9269e-05 -8.90252e-05 -3.97743e-05
0.00039212 -0.000117774 -0.000117577 -3.28158e-05
0.000494492 -0.00014845 -0.000148303 -2.38677e-05
0.000399359 -0.000119952 -0.000119746 -3.28161e-05
0.00039574 -0.000118863 -0.000118661 -3.2816e-05
0.000294281 -8.84517e-05 -8.82126e-05 -3.97742e-05
0.000288854 -8.68171e-05 -8.65874e-05 -3.97738e-05
0.000480914 -0.000144371 -0.000144233 -2.38674e-05
0.000489966 -0.00014709 -0.000146947 -2.38676e-05
0.000291568 -8.76344e-05 -8.74e-05 -3.9774e-05
0.000384881 -0.000115597 -0.000115407 -3.28155e-05
0.00048544 -0.000145731 -0.00014559 -2.38675e-05
0.00039212 -0.000117774 -0.000117577 -3.28158e-05
0.000388501 -0.000116686 -0.000116492 -3.28157e-05
0.000288854 -8.68171e-05 -8.65874e-05 -3.97738e-05
0.000283427 -8.51826e-05 -8.49621e-05 -3.97735e-05
0.000471862 -0.000141651 -0.000141519 -2.38671e-05
0.000480914 -0.000144371 -0.000144233 -2.38674e-05
0.000286141 -8.59999e-05 -8.57747e-05 -3.97737e-05
0.000377642 -0.00011342 -0.000113238 -3.28152e-05
0.000476388 -0.000143011 -0.000142876 -2.38672e-05
0.000384881 -0.000115597 -0.000115407 -3.28155e-05
0.000381261 -0.000114509 -0.000114323 -3.28154e-05
0.000283427 -8.51826e-05 -8.49621e-05 -3.97735e-05
0.000278 -8.35482e-05 -8.33367e-05 -3.97732e-05
0.00046281 -0.000138932 -0.000138805 -2.38669e-05
0.000471862 -0.000141651 -0.000141519 -2.38671e-05
0.000280714 -8.43654e-05 -8.41494e-05 -3.97734e-05
0.000370402 -0.000111243 -0.000111068 -3.28149e-05
0.000467336 -0.000140292 -0.000140162 -2.3867e-05
0.000377642 -0.00011342 -0.000113238 -3.28152e-05
0.000374022 -0.000112332 -0.000112153 -3.28151e-05
0.000278 -8.35482e-05 -8.33367e-05 -3.97732e-05
0.000272573 -8.19139e-05 -8.17112e-05 -3.97729e-05
0.000453758 -0.000136212 -0.000136091 -2.38666e-05
0.00046281 -0.000138932 -0.000138805 -2.38669e-05
0.000275287 -8.27311e-05 -8.25239e-05 -3.9773e-05
0.000363163 -0.000109066 -0.000108899 -3.28146e-05
0.000458284 -0.000137572 -0.000137448 -2.38667e-05
0.000370402 -0.000111243 -0.000111068 -3.28149e-05
0.000366783 -0.000110155 -0.000109983 -3.28148e-05
0.000272573 -8.19139e-05 -8.17112e-05 -3.97729e-05
0.000267146 -8.02797e-05 -8.00856e-05 -3.97726e-05
0.000444706 -0.000133493 -0.000133377 -2.38664e-05
0.000453758 -0.000136212 -0.000136091 -2.38666e-05
0.00026986 -8.10968e-05 -8.08984e-05 -3.97727e-05
0.000355923 -0.000106889 -0.000106729 -3.28143e-05
0.000449232 -0.000134853 -0.000134734 -2.38665e-05
0.000363163 -0.000109066 -0.000108899 -3.28146e-05
0.000359543 -0.000107978 -0.000107814 -3.28145e-05
0.000267146 -8.02797e-05 -8.00856e-05 -3.97726e-05
0.000261719 -7.86455e-05 -7.84599e-05 -3.97723e-05
0.000435654 -0.000130774 -0.000130663 -2.38661e-05
0.000444706 -0.000133493 -0.000133377 -2.38664e-05
0.000264432 -7.94626e-05 -7.92728e-05 -3.97724e-05
0.000348684 -0.000104712 -0.000104559 -3.2814e-05
0.00044018 -0.000132133 -0.00013202 -2.38662e-05
0.000355923 -0.000106889 -0.000106729 -3.28143e-05
0.000352303 -0.000105801 -0.000105644 -3.28142e-05
0.000261719 -7.86455e-05 -7.84599e-05 -3.97723e-05
0.000256291 -7.70114e-05 -7.68341e-05 -3.9772e-05
0.000426602 -0.000128054 -0.000127949 -2.38659e-05
0.000435654 -0.000130774 -0.000130663 -2.38661e-05
0.000259005 -7.78285e-05 -7.7647e-05 -3.97721e-05
0.000341444 -0.000102535 -0.000102389 -3.28137e-05
0.000431128 -0.000129414 -0.000129306 -2.3866e-05
0.000348684 -0.000104712 -0.000104559 -3.2814e-05
0.000345064 -0.000103624 -0.000103474 -3.28139e-05
0.000256291 -7.70114e-05 -7.68341e-05 -3.9772e-05
0.000250863 -7.53774e-05 -7.52083e-05 -3.97717e-05
0.000417549 -0.000125335 -0.000125235 -2.38656e-05
0.000426602 -0.000128054 -0.000127949 -2.38659e-05
0.000253577 -7.61944e-05 -7.60212e-05 -3.97718e-05
0.000334204 -0.000100359 -0.000100219 -3.28134e-05
0.000422075 -0.000126695 -0.000126592 -2.38658e-05
0.000341444 -0.000102535 -0.000102389 -3.28137e-05
0.000337824 -0.000101447 -0.000101304 -3.28136e-05
0.000250863 -7.53774e-05 -7.52083e-05 -3.97717e-05
0.000245436 -7.37435e-05 -7.35824e-05 -3.97714e-05
0.000408497 -0.000122616 -0.00012252 -2.38654e-05
0.000417549 -0.000125335 -0.000125235 -2.38656e-05
0.00024815 -7.45605e-05 -7.43953e-05 -3.97715e-05
0.000326964 -9.81821e-05 -9.80494e-05 -3.28132e-05
0.000413023 -0.000123976 -0.000123878 -2.38655e-05
0.000334204 -0.000100359 -0.000100219 -3.28134e-05
0.000330584 -9.92704e-05 -9.91344e-05 -3.28133e-05
0.000245436 -7.37435e-05 -7.35824e-05 -3.97714e-05
0.000240008 -7.21097e-05 -7.19563e-05 -3.97711e-05
0.000399444 -0.000119897 -0.000119806 -2.38652e-05
0.000408497 -0.000122616 -0.00012252 -2.38654e-05
0.000242722 -7.29266e-05 -7.27694e-05 -3.97712e-05
0.000319724 -9.60055e-05 -9.58793e-05 -3.28129e-05
0.000403971 -0.000121256 -0.000121163 -2.38653e-05
0.000326964 -9.81821e-05 -9.80494e-05 -3.28132e-05
0.000323344 -9.70938e-05 -9.69643e-05 -3.2813e-05
0.000240008 -7.21097e-05 -7.19563e-05 -3.97711e-05
0.00023458 -7.0476e-05 -7.03302e-05 -3.97708e-05
0.000390392 -0.000117178 -0.000117092 -2.38649e-05
0.000399444 -0.000119897 -0.000119806 -2.38652e-05
0.000237294 -7.12928e-05 -7.11433e-05 -3.97709e-05
0.000312484 -9.3829e-05 -9.37091e-05 -3.28126e-05
0.000394918 -0.000118537 -0.000118449 -2.38651e-05
0.000319724 -9.60055e-05 -9.58793e-05 -3.28129e-05
0.000316104 -9.49173e-05 -9.47942e-05 -3.28127e-05
0.00023458 -7.0476e-05 -7.03302e-05 -3.97708e-05
0.000229152 -6.88423e-05 -6.8704e-05 -3.97705e-05
0.000381339 -0.000114459 -0.000114377 -2.38647e-05
0.000390392 -0.000117178 -0.000117092 -2.38649e-05
0.000231866 -6.96591e-05 -6.95171e-05 -3.97706e-05
0.000305243 -9.16526e-05 -9.15389e-05 -3.28123e-05
0.000385866 -0.000115818 -0.000115735 -2.38648e-05
0.000312484 -9.3829e-05 -9.37091e-05 -3.28126e-05
0.000308864 -9.27408e-05 -9.2624e-05 -3.28125e-05
0.000229152 -6.88423e-05 -6.8704e-05 -3.97705e-05
0.000223723 -6.72087e-05 -6.70777e-05 -3.97702e-05
0.000372287 -0.00011174 -0.000111663 -2.38645e-05
0.000381339 -0.000114459 -0.000114377 -2.38647e-05
0.000226438 -6.80255e-05 -6.78909e-05 -3.97704e-05
0.000298003 -8.94762e-05 -8.93686e-05 -3.2812e-05
0.000376813 -0.000113099 -0.00011302 -2.38646e-05
0.000305243 -9.16526e-05 -9.15389e-05 -3.28123e-05
0.000301623 -9.05644e-05 -9.04538e-05 -3.28122e-05
0.000223723 -6.72087e-05 -6.70777e-05 -3.97702e-05
0.000218295 -6.55752e-05 -6.54513e-05 -3.97699e-05
0.000363234 -0.000109021 -0.000108948 -2.38643e-05
0.000372287 -0.00011174 -0.000111663 -2.38645e-05
0.000221009 -6.6392e-05 -6.62645e-05 -3.97701e-05
0.000290763 -8.72999e-05 -8.71983e-05 -3.28118e-05
0.00036776 -0.00011038 -0.000110306 -2.38644e-05
0.000298003 -8.94762e-05 -8.93686e-05 -3.2812e-05
0.000294383 -8.8388e-05 -8.82835e-05 -3.28119e-05
0.000218295 -6.55752e-05 -6.54513e-05 -3.97699e-05
0.000212866 -6.39418e-05 -6.38248e-05 -3.97696e-05
0.000354181 -0.000106302 -0.000106234 -2.3864e-05
0.000363234 -0.000109021 -0.000108948 -2.38643e-05
0.000215581 -6.47585e-05 -6.46381e-05 -3.97698e-05
0.000283522 -8.51236e-05 -8.50278e-05 -3.28115e-05
0.000358707 -0.000107661 -0.000107591 -2.38641e-05
0.000290763 -8.72999e-05 -8.71983e-05 -3.28118e-05
0.000287142 -8.62118e-05 -8.61131e-05 -3.28116e-05
0.000212866 -6.39418e-05 -6.38248e-05 -3.97696e-05
0.000207438 -6.23085e-05 -6.21983e-05 -3.97694e-05
0.000345128 -0.000103583 -0.000103519 -2.38638e-05
0.000354181 -0.000106302 -0.000106234 -2.3864e-05
0.000210152 -6.31251e-05 -6.30116e-05 -3.97695e-05
0.000276281 -8.29475e-05 -8.28573e-05 -3.28112e-05
0.000349655 -0.000104943 -0.000104877 -2.38639e-05
0.000283522 -8.51236e-05 -8.50278e-05 -3.28115e-05
0.000279902 -8.40356e-05 -8.39426e-05 -3.28114e-05
0.000207438 -6.23085e-05 -6.21983e-05 -3.97694e-05
0.000202009 -6.06752e-05 -6.05716e-05 -3.97691e-05
0.000336075 -0.000100864 -0.000100805 -2.38636e-05
0.000345128 -0.000103583 -0.000103519 -2.38638e-05
0.000204723 -6.14918e-05 -6.1385e-05 -3.97692e-05
0.00026904 -8.07714e-05 -8.06867e-05 -3.2811e-05
0.000340602 -0.000102224 -0.000102162 -2.38637e-05
0.000276281 -8.29475e-05 -8.28573e-05 -3.28112e-05
0.000272661 -8.18594e-05 -8.1772e-05 -3.28111e-05
0.000202009 -6.06752e-05 -6.05716e-05 -3.97691e-05
0.00019658 -5.90421e-05 -5.89449e-05 -3.97688e-05
0.000327022 -9.81457e-05 -9.80898e-05 -2.38634e-05
0.000336075 -0.000100864 -0.000100805 -2.38636e-05
0.000199295 -5.98586e-05 -5.97583e-05 -3.9769e-05
0.000261799 -7.85953e-05 -7.85161e-05 -3.28107e-05
0.000331549 -9.9505e-05 -9.94472e-05 -2.38635e-05
0.00026904 -8.07714e-05 -8.06867e-05 -3.2811e-05
0.00026542 -7.96834e-05 -7.96014e-05 -3.28108e-05
0.00019658 -5.90421e-05 -5.89449e-05 -3.97688e-05
0.000191151 -5.7409e-05 -5.7318e-05 -3.97686e-05
0.000317969 -9.5427e-05 -9.53751e-05 -2.38631e-05
0.000327022 -9.81457e-05 -9.80898e-05 -2.38634e-05
0.000193866 -5.82255e-05 -5.81315e-05 -3.97687e-05
0.000254558 -7.64194e-05 -7.63453e-05 -3.28104e-05
0.000322495 -9.67863e-05 -9.67325e-05 -2.38633e-05
0.000261799 -7.85953e-05 -7.85161e-05 -3.28107e-05
0.000258179 -7.75074e-05 -7.74307e-05 -3.28106e-05
0.000191151 -5.7409e-05 -5.7318e-05 -3.97686e-05
0.000185722 -5.5776e-05 -5.56911e-05 -3.97683e-05
0.000308916 -9.27084e-05 -9.26602e-05 -2.38629e-05
0.000317969 -9.5427e-05 -9.53751e-05 -2.38631e-05
0.000188436 -5.65925e-05 -5.65046e-05 -3.97684e-05
0.000247317 -7.42435e-05 -7.41745e-05 -3.28102e-05
0.000313442 -9.40677e-05 -9.40177e-05 -2.3863e-05
0.000254558 -7.64194e-05 -7.63453e-05 -3.28104e-05
0.000250938 -7.53314e-05 -7.52599e-05 -3.28103e-05
0.000185722 -5.5776e-05 -5.56911e-05 -3.97683e-05
0.000180293 -5.41431e-05 -5.40641e-05 -3.9768e-05
0.000299862 -8.99898e-05 -8.99453e-05 -2.38627e-05
0.000308916 -9.27084e-05 -9.26602e-05 -2.38629e-05
0.000183007 -5.49595e-05 -5.48776e-05 -3.97682e-05
0.000240076 -7.20677e-05 -7.20036e-05 -3.28099e-05
0.000304389 -9.13491e-05 -9.13028e-05 -2.38628e-05
0.000247317 -7.42435e-05 -7.41745e-05 -3.28102e-05
0.000243697 -7.31556e-05 -7.30891e-05 -3.28101e-05
0.000180293 -5.41431e-05 -5.40641e-05 -3.9768e-05
0.000174863 -5.25102e-05 -5.2437e-05 -3.97678e-05
0.000290809 -8.72712e-05 -8.72304e-05 -2.38625e-05
0.000299862 -8.99898e-05 -8.99453e-05 -2.38627e-05
0.000177578 -5.33266e-05 -5.32505e-05 -3.97679e-05
0.000232835 -6.98919e-05 -6.98327e-05 -3.28097e-05
0.000295336 -8.86305e-05 -8.85879e-05 -2.38626e-05
0.000240076 -7.20677e-05 -7.20036e-05 -3.28099e-05
0.000236455 -7.09798e-05 -7.09181e-05 -3.28098e-05
0.000174863 -5.25102e-05 -5.2437e-05 -3.97678e-05
0.000169434 -5.08775e-05 -5.08098e-05 -3.97675e-05
0.000281755 -8.45527e-05 -8.45154e-05 -2.38623e-05
0.000290809 -8.72712e-05 -8.72304e-05 -2.38625e-05
0.000172148 -5.16938e-05 -5.16234e-05 -3.97677e-05
0.000225593 -6.77162e-05 -6.76616e-05 -3.28094e-05
0.000286282 -8.5912e-05 -8.58729e-05 -2.38624e-05
0.000232835 -6.98919e-05 -6.98327e-05 -3.28097e-05
0.000229214 -6.8804e-05 -6.87471e-05 -3.28096e-05
0.000169434 -5.08775e-05 -5.08098e-05 -3.97675e-05
0.000164004 -4.92448e-05 -4.91825e-05 -3.97673e-05
0.000272702 -8.18343e-05 -8.18003e-05 -2.38621e-05
0.000281755 -8.45527e-05 -8.45154e-05 -2.38623e-05
0.000166719 -5.00611e-05 -4.99961e-05 -3.97674e-05
0.000218352 -6.55406e-05 -6.54905e-05 -3.28092e-05
0.000277229 -8.31935e-05 -8.31579e-05 -2.38622e-05
0.000225593 -6.77162e-05 -6.76616e-05 -3.28094e-05
0.000221973 -6.66284e-05 -6.65761e-05 -3.28093e-05
0.000164004 -4.92448e-05 -4.91825e-05 -3.97673e-05
0.000158574 -4.76122e-05 -4.75551e-05 -3.97671e-05
0.000263648 -7.91159e-05 -7.90852e-05 -2.38619e-05
0.000272702 -8.18343e-05 -8.18003e-05 -2.38621e-05
0.000161289 -4.84285e-05 -4.83688e-05 -3.97672e-05
0.00021111 -6.3365e-05 -6.33193e-05 -3.2809e-05
0.000268175 -8.04751e-05 -8.04428e-05 -2.3862e-05
0.000218352 -6.55406e-05 -6.54905e-05 -3.28092e-05
0.000214731 -6.44528e-05 -6.44049e-05 -3.28091e-05
0.000158574 -4.76122e-05 -4.75551e-05 -3.97671e-05
0.000153144 -4.59797e-05 -4.59276e-05 -3.97668e-05
0.000254594 -7.63976e-05 -7.637e-05 -2.38617e-05
0.000263648 -7.91159e-05 -7.90852e-05 -2.38619e-05
0.000155859 -4.6796e-05 -4.67414e-05 -3.97669e-05
0.000203868 -6.11895e-05 -6.1148e-05 -3.28088e-05
0.000259121 -7.77567e-05 -7.77276e-05 -2.38618e-05
0.00021111 -6.3365e-05 -6.33193e-05 -3.2809e-05
0.000207489 -6.22773e-05 -6.22337e-05 -3.28089e-05
0.000153144 -4.59797e-05 -4.59276e-05 -3.97668e-05
0.000147714 -4.43473e-05 -4.43e-05 -3.97666e-05
0.00024554 -7.36793e-05 -7.36548e-05 -2.38615e-05
0.000254594 -7.63976e-05 -7.637e-05 -2.38617e-05
0.000150429 -4.51635e-05 -4.51138e-05 -3.97667e-05
0.000196626 -5.90141e-05 -5.89767e-05 -3.28085e-05
0.000250067 -7.50384e-05 -7.50124e-05 -2.38616e-05
0.000203868 -6.11895e-05 -6.1148e-05 -3.28088e-05
0.000200247 -6.01018e-05 -6.00624e-05 -3.28086e-05
0.000147714 -4.43473e-05 -4.43e-05 -3.97666e-05
0.000142284 -4.2715e-05 -4.26724e-05 -3.97664e-05
0.000236486 -7.0961e-05 -7.09395e-05 -2.38614e-05
0.00024554 -7.36793e-05 -7.36548e-05 -2.38615e-05
0.000144999 -4.35311e-05 -4.34862e-05 -3.97665e-05
0.000189384 -5.68388e-05 -5.68052e-05 -3.28084e-05
0.000241013 -7.23201e-05 -7.22971e-05 -2.38615e-05
0.000196626 -5.90141e-05 -5.89767e-05 -3.28085e-05
0.000193005 -5.79264e-05 -5.7891e-05 -3.28085e-05
0.000142284 -4.2715e-05 -4.26724e-05 -3.97664e-05
0.000136854 -4.10828e-05 -4.10446e-05 -3.97663e-05
0.000227432 -6.82428e-05 -6.82241e-05 -2.38612e-05
0.000236486 -7.0961e-05 -7.09395e-05 -2.38614e-05
0.000139569 -4.18989e-05 -4.18585e-05 -3.97663e-05
0.000182142 -5.46635e-05 -5.46337e-05 -3.28082e-05
0.000231959 -6.96019e-05 -6.95818e-05 -2.38613e-05
0.000189384 -5.68388e-05 -5.68052e-05 -3.28084e-05
0.000185763 -5.57511e-05 -5.57195e-05 -3.28083e-05
0.000136854 -4.10828e-05 -4.10446e-05 -3.97663e-05
0.000131423 -3.94507e-05 -3.94168e-05 -3.97661e-05
0.000218378 -6.55247e-05 -6.55087e-05 -2.38611e-05
0.000227432 -6.82428e-05 -6.82241e-05 -2.38612e-05
0.000134138 -4.02667e-05 -4.02307e-05 -3.97662e-05
0.0001749 -5.24883e-05 -5.24621e-05 -3.28081e-05
0.000222905 -6.68837e-05 -6.68664e-05 -2.38612e-05
0.000182142 -5.46635e-05 -5.46337e-05 -3.28082e-05
0.000178521 -5.35759e-05 -5.35479e-05 -3.28081e-05
0.000131423 -3.94507e-05 -3.94168e-05 -3.97661e-05
0.000125993 -3.78186e-05 -3.77888e-05 -3.9766e-05
0.000209324 -6.28066e-05 -6.27932e-05 -2.38611e-05
0.000218378 -6.55247e-05 -6.55087e-05 -2.38611e-05
0.000128708 -3.86346e-05 -3.86028e-05 -3.9766e-05
0.000167658 -5.03132e-05 -5.02905e-05 -3.28079e-05
0.000213851 -6.41656e-05 -6.41509e-05 -2.38611e-05
0.0001749 -5.24883e-05 -5.24621e-05 -3.28081e-05
0.000171279 -5.14007e-05 -5.13763e-05 -3.2808e-05
0.000125993 -3.78186e-05 -3.77888e-05 -3.9766e-05
0.000120562 -3.61867e-05 -3.61608e-05 -3.97659e-05
0.00020027 -6.00885e-05 -6.00776e-05 -2.3861e-05
0.000209324 -6.28066e-05 -6.27932e-05 -2.38611e-05
0.000123277 -3.70027e-05 -3.69748e-05 -3.97659e-05
0.000160415 -4.81382e-05 -4.81187e-05 -3.28079e-05
0.000204797 -6.14475e-05 -6.14354e-05 -2.3861e-05
0.000167658 -5.03132e-05 -5.02905e-05 -3.28079e-05
0.000164036 -4.92257e-05 -4.92046e-05 -3.28079e-05
0.000120562 -3.61867e-05 -3.61608e-05 -3.97659e-05
0.000115131 -3.45549e-05 -3.45327e-05 -3.97657e-05
0.000191215 -5.73705e-05 -5.7362e-05 -2.3861e-05
0.00020027 -6.00885e-05 -6.00776e-05 -2.3861e-05
0.000117847 -3.53708e-05 -3.53468e-05 -3.97658e-05
0.000153173 -4.59632e-05 -4.59469e-05 -3.28078e-05
0.000195742 -5.87295e-05 -5.87198e-05 -2.3861e-05
0.000160415 -4.81382e-05 -4.81187e-05 -3.28079e-05
0.000156794 -4.70507e-05 -4.70328e-05 -3.28078e-05
0.000115131 -3.45549e-05 -3.45327e-05 -3.97657e-05
0.0001097 -3.29231e-05 -3.29046e-05 -3.97656e-05
0.000182161 -5.46525e-05 -5.46463e-05 -2.38611e-05
0.000191215 -5.73705e-05 -5.7362e-05 -2.3861e-05
0.000112416 -3.3739e-05 -3.37186e-05 -3.97657e-05
0.00014593 -4.37883e-05 -4.3775e-05 -3.28078e-05
0.000186688 -5.60115e-05 -5.60042e-05 -2.3861e-05
0.000153173 -4.59632e-05 -4.59469e-05 -3.28078e-05
0.000149551 -4.48758e-05 -4.4861e-05 -3.28078e-05
0.0001097 -3.29231e-05 -3.29046e-05 -3.97656e-05
0.00010427 -3.12914e-05 -3.12764e-05 -3.97654e-05
0.000173106 -5.19346e-05 -5.19306e-05 -2.38611e-05
0.000182161 -5.46525e-05 -5.46463e-05 -2.38611e-05
0.000106985 -3.21073e-05 -3.20905e-05 -3.97655e-05
0.000138687 -4.16135e-05 -4.16031e-05 -3.28077e-05
0.000177633 -5.32936e-05 -5.32884e-05 -2.38611e-05
0.00014593 -4.37883e-05 -4.3775e-05 -3.28078e-05
0.000142309 -4.27009e-05 -4.26891e-05 -3.28078e-05
0.00010427 -3.12914e-05 -3.12764e-05 -3.97654e-05
9.88388e-05 -2.96596e-05 -2.96482e-05 -3.9765e-05
0.000164051 -4.92167e-05 -4.92148e-05 -2.38612e-05
0.000173106 -5.19346e-05 -5.19306e-05 -2.38611e-05
0.000101554 -3.04755e-05 -3.04623e-05 -3.97653e-05
0.000131445 -3.94387e-05 -3.94312e-05 -3.28076e-05
0.000168579 -5.05756e-05 -5.05727e-05 -2.38612e-05
0.000138687 -4.16135e-05 -4.16031e-05 -3.28077e-05
0.000135066 -4.05261e-05 -4.05172e-05 -3.28077e-05
9.88388e-05 -2.96596e-05 -2.96482e-05 -3.9765e-05
9.34078e-05 -2.80275e-05 -2.80201e-05 -3.97644e-05
0.000154997 -4.64988e-05 -4.64991e-05 -2.38611e-05
0.000164051 -4.92167e-05 -4.92148e-05 -2.38612e-05
9.61233e-05 -2.88437e-05 -2.88341e-05 -3.97648e-05
0.000124202 -3.72637e-05 -3.72594e-05 -3.28071e-05
0.000159524 -4.78577e-05 -4.78569e-05 -2.38612e-05
0.000131445 -3.94387e-05 -3.94312e-05 -3.28076e-05
0.000127824 -3.83513e-05 -3.83453e-05 -3.28074e-05
9.34078e-05 -2.80275e-05 -2.80201e-05 -3.97644e-05
8.79765e-05 -2.63946e-05 -2.63922e-05 -3.97631e-05
0.000145942 -4.37807e-05 -4.37835e-05 -2.38605e-05
0.000154997 -4.64988e-05 -4.64991e-05 -2.38611e-05
9.06922e-05 -2.72112e-05 -2.72061e-05 -3.97638e-05
0.00011696 -3.50883e-05 -3.50878e-05 -3.2806e-05
0.000150469 -4.51398e-05 -4.51413e-05 -2.38609e-05
0.000124202 -3.72637e-05 -3.72594e-05 -3.28071e-05
0.000120581 -3.61761e-05 -3.61735e-05 -3.28067e-05
8.79765e-05 -2.63946e-05 -2.63922e-05 -3.97631e-05
8.2544e-05 -2.47596e-05 -2.47647e-05 -3.97608e-05
0.000136888 -4.10621e-05 -4.10684e-05 -2.38586e-05
0.000145942 -4.37807e-05 -4.37835e-05 -2.38605e-05
8.52605e-05 -2.55775e-05 -2.55784e-05 -3.97621e-05
0.000109717 -3.29115e-05 -3.29166e-05 -3.28034e-05
0.000141415 -4.24215e-05 -4.24259e-05 -2.38598e-05
0.00011696 -3.50883e-05 -3.50878e-05 -3.2806e-05
0.000113338 -3.40001e-05 -3.40021e-05 -3.28049e-05
8.2544e-05 -2.47596e-05 -2.47647e-05 -3.97608e-05
7.71089e-05 -2.31203e-05 -2.3138e-05 -3.97568e-05
0.000127835 -3.83422e-05 -3.83541e-05 -2.38541e-05
0.000136888 -4.10621e-05 -4.10684e-05 -2.38586e-05
7.98269e-05 -2.39407e-05 -2.39512e-05 -3.97591e-05
0.000102473 -3.07316e-05 -3.07463e-05 -3.27978e-05
0.000132362 -3.97024e-05 -3.97111e-05 -2.38568e-05
0.000109717 -3.29115e-05 -3.29166e-05 -3.28034e-05
0.000106095 -3.18221e-05 -3.18313e-05 -3.2801e-05
7.71089e-05 -2.31203e-05 -2.3138e-05 -3.97568e-05
7.1667e-05 -2.14723e-05 -2.1512e-05 -3.97502e-05
0.000118783 -3.56196e-05 -3.56415e-05 -2.38433e-05
0.000127835 -3.83422e-05 -3.83541e-05 -2.38541e-05
7.43893e-05 -2.22979e-05 -2.23249e-05 -3.97539e-05
9.52263e-05 -2.85455e-05 -2.85775e-05 -3.27865e-05
0.000123309 -3.69814e-05 -3.69975e-05 -2.38498e-05
0.000102473 -3.07316e-05 -3.07463e-05 -3.27978e-05
9.88502e-05 -2.96397e-05 -2.96616e-05 -3.27932e-05
7.1667e-05 -2.14723e-05 -2.1512e-05 -3.97502e-05
6.62121e-05 -1.98071e-05 -1.98879e-05 -3.97392e-05
0.000109732 -3.28913e-05 -3.29317e-05 -2.38211e-05
0.000118783 -3.56196e-05 -3.56415e-05 -2.38433e-05
6.89415e-05 -2.06425e-05 -2.06995e-05 -3.97455e-05
8.79723e-05 -2.63463e-05 -2.64111e-05 -3.27643e-05
0.000114258 -3.42565e-05 -3.42862e-05 -2.38341e-05
9.52263e-05 -2.85455e-05 -2.85775e-05 -3.27865e-05
9.16006e-05 -2.7448e-05 -2.7494e-05 -3.27771e-05
6.62121e-05 -1.98071e-05 -1.98879e-05 -3.97392e-05
6.07269e-05 -1.81102e-05 -1.82643e-05 -3.97227e-05
0.000100684 -3.01518e-05 -3.02281e-05 -2.37746e-05
0.000109732 -3.28913e-05 -3.29317e-05 -2.38211e-05
6.34751e-05 -1.8964e-05 -1.90762e-05 -3.97316e-05
8.07024e-05 -2.4123e-05 -2.42483e-05 -3.27225e-05
0.000105207 -3.15233e-05 -3.15787e-05 -2.38021e-05
8.79723e-05 -2.63463e-05 -2.64111e-05 -3.27643e-05
8.434e-05 -2.5239e-05 -2.5329e-05 -3.27469e-05
6.07269e-05 -1.81102e-05 -1.82643e-05 -3.97227e-05
5.51903e-05 -1.63562e-05 -1.66432e-05 -3.96968e-05
9.1632e-05 -2.73916e-05 -2.75316e-05 -2.36868e-05
0.000100684 -3.01518e-05 -3.02281e-05 -2.37746e-05
5.79659e-05 -1.72422e-05 -1.7453e-05 -3.97114e-05
7.33983e-05 -2.18533e-05 -2.20907e-05 -3.26461e-05
9.61598e-05 -2.87755e-05 -2.8879e-05 -2.37372e-05
8.07024e-05 -2.4123e-05 -2.42483e-05 -3.27225e-05
7.70562e-05 -2.29951e-05 -2.3169e-05 -3.26891e-05
5.51903e-05 -1.63562e-05 -1.66432e-05 -3.96968e-05
4.95451e-05 -1.45085e-05 -1.50156e-05 -3.96645e-05
8.25822e-05 -2.45925e-05 -2.48527e-05 -2.35175e-05
9.1632e-05 -2.73916e-05 -2.75316e-05 -2.36868e-05
5.23876e-05 -1.54479e-05 -1.58313e-05 -3.96807e-05
6.60298e-05 -1.95083e-05 -1.99378e-05 -3.25124e-05
8.71047e-05 -2.59974e-05 -2.61889e-05 -2.36162e-05
7.33983e-05 -2.18533e-05 -2.20907e-05 -3.26461e-05
6.97243e-05 -2.06943e-05 -2.10128e-05 -3.25898e-05
4.95451e-05 -1.45085e-05 -1.50156e-05 -3.96645e-05
4.37362e-05 -1.25087e-05 -1.33832e-05 -3.9622e-05
7.34976e-05 -2.17332e-05 -2.21847e-05 -2.32262e-05
8.25822e-05 -2.45925e-05 -2.48527e-05 -2.35175e-05
4.66616e-05 -1.35299e-05 -1.41993e-05 -3.96455e-05
5.85326e-05 -1.7028e-05 -1.77877e-05 -3.2291e-05
7.8051e-05 -2.3175e-05 -2.35183e-05 -2.33898e-05
6.60298e-05 -1.95083e-05 -1.99378e-05 -3.25124e-05
6.23031e-05 -1.82861e-05 -1.88644e-05 -3.24118e-05
4.37362e-05 -1.25087e-05 -1.33832e-05 -3.9622e-05
3.76122e-05 -1.03081e-05 -1.17018e-05 -3.96041e-05
6.43915e-05 -1.87605e-05 -1.95561e-05 -2.27106e-05
7.34976e-05 -2.17332e-05 -2.21847e-05 -2.32262e-05
4.07319e-05 -1.144e-05 -1.25537e-05 -3.9605e-05
5.08249e-05 -1.43679e-05 -1.56244e-05 -3.19473e-05
6.89388e-05 -2.02581e-05 -2.08632e-05 -2.30064e-05
5.85326e-05 -1.7028e-05 -1.77877e-05 -3.2291e-05
5.47095e-05 -1.57307e-05 -1.67052e-05 -3.21434e-05
3.76122e-05 -1.03081e-05 -1.17018e-05 -3.96041e-05
3.11069e-05 -7.85491e-06 -9.96512e-06 -3.96337e-05
5.5092e-05 -1.56615e-05 -1.68988e-05 -2.19316e-05
6.43915e-05 -1.87605e-05 -1.95561e-05 -2.27106e-05
3.43971e-05 -9.10349e-06 -1.08401e-05 -3.96129e-05
4.27157e-05 -1.14184e-05 -1.34132e-05 -3.14811e-05
5.97958e-05 -1.72439e-05 -1.82365e-05 -2.23544e-05
5.08249e-05 -1.43679e-05 -1.56244e-05 -3.19473e-05
4.684e-05 -1.29199e-05 -1.45372e-05 -3.17138e-05
3.11069e-05 -7.85491e-06 -9.96512e-06 -3.96337e-05
2.39808e-05 -5.32202e-06 -7.99662e-06 -3.99031e-05
4.56101e-05 -1.23053e-05 -1.42735e-05 -2.07365e-05
5.5092e-05 -1.56615e-05 -1.68988e-05 -2.19316e-05
2.76614e-05 -6.59335e-06 -9.02917e-06 -3.97153e-05
3.40782e-05 -8.28642e-06 -1.10536e-05 -3.09736e-05
5.03426e-05 -1.39844e-05 -1.55821e-05 -2.13994e-05
4.27157e-05 -1.14184e-05 -1.34132e-05 -3.14811e-05
3.84594e-05 -9.88939e-06 -1.22443e-05 -3.12497e-05
2.39808e-05 -5.32202e-06 -7.99662e-06 -3.99031e-05
1.65828e-05 -3.12856e-06 -5.76612e-06 -4.05513e-05
3.52642e-05 -8.963e-06 -1.1272e-05 -1.94467e-05
4.56101e-05 -1.23053e-05 -1.42735e-05 -2.07365e-05
2.02322e-05 -4.08638e-06 -6.91965e-06 -4.01736e-05
2.4499e-05 -5.08865e-06 -8.31871e-06 -3.08355e-05
4.06616e-05 -1.06881e-05 -1.28458e-05 -2.00685e-05
3.40782e-05 -8.28642e-06 -1.10536e-05 -3.09736e-05
2.94616e-05 -6.60584e-06 -9.79533e-06 -3.07586e-05
1.65828e-05 -3.12856e-06 -5.76612e-06 -4.05513e-05
9.38981e-06 -3.08827e-06 -2.70066e-06 -4.20372e-05
2.41088e-05 -5.64171e-06 -7.91448e-06 -1.85936e-05
3.52642e-05 -8.963e-06 -1.1272e-05 -1.94467e-05
1.29847e-05 -2.72446e-06 -4.39723e-06 -4.11485e-05
1.45288e-05 -3.55092e-06 -4.7048e-06 -3.19544e-05
2.96645e-05 -7.07218e-06 -9.68243e-06 -1.88852e-05
2.4499e-05 -5.08865e-06 -8.31871e-06 -3.08355e-05
1.94386e-05 -4.01175e-06 -6.61151e-06 -3.12582e-05
9.38981e-06 -3.08827e-06 -2.70066e-06 -4.20372e-05
5.56507e-06 -8.43188e-06 1.22863e-06 -4.32223e-05
1.1096e-05 -5.9314e-06 -2.21338e-06 -2.17606e-05
2.41088e-05 -5.64171e-06 -7.91448e-06 -1.85936e-05
6.63703e-06 -4.60841e-06 -8.6941e-07 -4.28303e-05
5.39038e-06 -7.5107e-06 9.08708e-07 -3.60588e-05
1.80888e-05 -5.29131e-06 -5.48463e-06 -1.93292e-05
1.45288e-05 -3.55092e-06 -4.7048e-06 -3.19544e-05
9.82692e-06 -4.16057e-06 -2.42844e-06 -3.32968e-05
5.56507e-06 -8.43188e-06 1.22863e-06 -4.32223e-05
7.449e-06 -2.5205e-05 7.60973e-06 -3.97862e-05
4.95228e-06 -2.09717e-05 6.86545e-06 -3.36162e-05
1.1096e-05 -5.9314e-06 -2.21338e-06 -2.17606e-05
5.92027e-06 -1.5504e-05 4.10733e-06 -4.26457e-05
8.03557e-06 -2.85749e-05 8.80256e-06 -3.94165e-05
5.82046e-06 -8.77712e-06 1.26714e-06 -2.59735e-05
5.39038e-06 -7.5107e-06 9.08708e-07 -3.60588e-05
3.89975e-06 -1.5356e-05 4.90984e-06 -3.8903e-05
7.449e-06 -2.5205e-05 7.60973e-06 -3.97862e-05
1.3116e-05 -4.56991e-05 1.39642e-05 -2.10717e-05
2.95693e-05 -9.19781e-05 2.67466e-05 -3.43068e-05
4.95228e-06 -2.09717e-05 6.86545e-06 -3.36162e-05
9.92345e-06 -3.61801e-05 1.12528e-05 -3.29098e-05
2.36814e-05 -6.66872e-05 1.8431e-05 -1.98487e-05
1.17742e-05 -4.91488e-05 1.60177e-05 -3.98114e-05
8.03557e-06 -2.85749e-05 8.80256e-06 -3.94165e-05
1.54215e-05 -4.6941e-05 1.35084e-05 -3.41719e-05
0.0015201 2.22045e-16 -0.000651471 -8.84432e-05
0.00171089 -0.000339335 -0.000587808 -0.000128269
0.00238797 -0.000756714 -0.00069911 4.31756e-05
0.00334814 -1.11022e-16 -0.00143492 -0.00113736
0.00162698 -0.000160048 -0.000628685 -0.000148724
0.00216579 -0.000525974 -0.000702777 -0.000165999
0.00265637 -0.000842716 -0.000777281 -0.000160862
0.001788 0 -0.000766288 -0.000276495
0.00208931 -0.000355569 -0.000743033 -0.00025968
0.00171089 -0.000339335 -0.000587808 -0.000128269
0.00177797 -0.000482134 -0.000555358 -6.14488e-05
0.00235838 -0.000730694 -0.000697581 1.3622e-05
0.00238797 -0.000756714 -0.00069911 4.31756e-05
0.00176386 -0.000439941 -0.000567393 -9.27593e-05
0.00211773 -0.000617538 -0.000642939 -2.83994e-05
0.00235196 -0.000698342 -0.000708694 1.91426e-05
0.00216579 -0.000525974 -0.000702777 -0.000165999
0.00213577 -0.000596271 -0.000659783 -6.77569e-05
0.00177797 -0.000482134 -0.000555358 -6.14488e-05
0.00176959 -0.000522441 -0.00053449 -2.3096e-05
0.00239121 -0.000709891 -0.000720564 6.32826e-06
0.00235838 -0.000730694 -0.000697581 1.3622e-05
0.00177321 -0.000507193 -0.000542578 -3.6321e-05
0.00209539 -0.000628677 -0.00062859 -3.19831e-06
0.00238041 -0.000729035 -0.000707732 1.37566e-05
0.00211773 -0.000617538 -0.000642939 -2.83994e-05
0.00210612 -0.000625517 -0.000634546 -1.39302e-05
0.00176959 -0.000522441 -0.00053449 -2.3096e-05
0.00175716 -0.000528153 -0.000526719 -1.43757e-05
0.0024047 -0.000723575 -0.000720484 -6.9709e-07
0.00239121 -0.000709891 -0.000720564 6.32826e-06
0.00176495 -0.000527876 -0.000530176 -1.72598e-05
0.00208307 -0.000627474 -0.000623825 5.93796e-07
0.00239718 -0.000712241 -0.000722116 -1.20611e-06
0.00209539 -0.000628677 -0.00062859 -3.19831e-06
0.00208716 -0.000628713 -0.000625047 1.5875e-06
0.00175716 -0.000528153 -0.000526719 -1.43757e-05
0.00174278 -0.000527375 -0.000520887 -1.38598e-05
0.00241167 -0.000720986 -0.000724579 4.88571e-07
0.0024047 -0.000723575 -0.000720484 -6.9709e-07
0.00174888 -0.000527949 -0.000523257 -1.32669e-05
0.00207692 -0.000625502 -0.000622036 -2.9833e-06
0.0024106 -0.000724681 -0.000722535 1.21761e-06
0.00208307 -0.000627474 -0.000623825 5.93796e-07
0.00208052 -0.000626444 -0.000623175 -1.7158e-06
0.00174278 -0.000527375 -0.000520887 -1.38598e-05
0.00173185 -0.000523568 -0.000517836 -1.66691e-05
0.00240907 -0.000723049 -0.000722582 -4.41063e-07
0.00241167 -0.000720986 -0.000724579 4.88571e-07
0.00173754 -0.000525722 -0.00051935 -1.53305e-05
0.00206937 -0.000622806 -0.000619954 -6.32541e-06
0.00241035 -0.000721267 -0.000723894 -7.58612e-07
0.00207692 -0.000625502 -0.000622036 -2.9833e-06
0.00207297 -0.000624251 -0.000620878 -4.45997e-06
0.00173185 -0.000523568 -0.000517836 -1.66691e-05
0.00172129 -0.00051982 -0.000514918 -1.90638e-05
0.00240326 -0.000720419 -0.000721217 2.34811e-08
0.00240907 -0.000723049 -0.000722582 -4.41063e-07
0.00172626 -0.000521621 -0.000516273 -1.7866e-05
0.00206137 -0.000619901 -0.000617773 -8.97887e-06
0.00240699 -0.000722351 -0.000721987 1.40028e-07
0.00206937 -0.000622806 -0.000619954 -6.32541e-06
0.00206565 -0.000621359 -0.000618984 -7.90482e-06
0.00172129 -0.00051982 -0.000514918 -1.90638e-05
0.00171182 -0.000516159 -0.000512427 -2.10342e-05
0.00239381 -0.000718223 -0.000718109 -1.43757e-07
0.00240326 -0.000720419 -0.000721217 2.34811e-08
0.0017166 -0.000517979 -0.000513696 -2.01765e-05
0.00205213 -0.000616835 -0.000615126 -1.06981e-05
0.00239862 -0.0007192 -0.000719752 -2.4319e-07
0.00206137 -0.000619901 -0.000617773 -8.97887e-06
0.00205678 -0.000618389 -0.000616452 -9.89712e-06
0.00171182 -0.000516159 -0.000512427 -2.10342e-05
0.00170247 -0.000512842 -0.000509839 -2.22431e-05
0.00238309 -0.00071484 -0.000714963 -1.76662e-08
0.00239381 -0.000718223 -0.000718109 -1.43757e-07
0.00170707 -0.000514456 -0.000511121 -2.16968e-05
0.00204234 -0.00061367 -0.000612288 -1.1726e-05
0.00238868 -0.00071668 -0.000716572 5.44746e-09
0.00205213 -0.000616835 -0.000615126 -1.06981e-05
0.00204734 -0.000615259 -0.000613751 -1.1302e-05
0.00170247 -0.000512842 -0.000509839 -2.22431e-05
0.00169337 -0.000509737 -0.00050727 -2.30139e-05
0.00237127 -0.000711424 -0.000711362 -4.03944e-08
0.00238309 -0.00071484 -0.000714963 -1.76662e-08
0.00169793 -0.000511269 -0.000508568 -2.26876e-05
0.00203203 -0.000610461 -0.000609245 -1.2323e-05
0.00237722 -0.000713116 -0.000713188 -7.10592e-08
0.00204234 -0.00061367 -0.000612288 -1.1726e-05
0.00203721 -0.00061207 -0.000610773 -1.20622e-05
0.00169337 -0.000509737 -0.00050727 -2.30139e-05
0.00168428 -0.000506797 -0.000504636 -2.34347e-05
0.00235905 -0.000707729 -0.000707709 -9.51476e-09
0.00237127 -0.000711424 -0.000711362 -4.03944e-08
0.00168881 -0.00050825 -0.000505954 -2.32525e-05
0.0020215 -0.00060722 -0.000606118 -1.26376e-05
0.00236521 -0.00070961 -0.000709545 -4.38133e-09
0.00203203 -0.000610461 -0.000609245 -1.2323e-05
0.0020268 -0.000608843 -0.000607695 -1.25084e-05
0.00168428 -0.000506797 -0.000504636 -2.34347e-05
0.00167525 -0.000503952 -0.000501983 -2.3672e-05
0.00234656 -0.000704004 -0.00070395 -1.00036e-08
0.00235905 -0.000707729 -0.000707709 -9.51476e-09
0.00167977 -0.000505366 -0.000503315 -2.35736e-05
0.00201079 -0.000603967 -0.000602923 -1.28054e-05
0.00235282 -0.000705865 -0.000705836 -1.88204e-08
0.0020215 -0.00060722 -0.000606118 -1.26376e-05
0.00201615 -0.000605594 -0.000604523 -1.27348e-05
0.00167525 -0.000503952 -0.000501983 -2.3672e-05
0.00166621 -0.000501165 -0.000499304 -2.37912e-05
0.00233396 -0.00070022 -0.000700174 -3.12521e-09
0.00234656 -0.000704004 -0.00070395 -1.00036e-08
0.00167072 -0.000502553 -0.000500645 -2.37411e-05
0.00200001 -0.000600707 -0.000599701 -1.28853e-05
0.00234027 -0.000702119 -0.000702064 -1.90244e-09
0.00201079 -0.000603967 -0.000602923 -1.28054e-05
0.00200541 -0.000602337 -0.000601316 -1.2853e-05
0.00166621 -0.000501165 -0.000499304 -2.37912e-05
0.00165717 -0.000498408 -0.000496614 -2.38525e-05
0.00232131 -0.000696428 -0.000696377 -2.13001e-09
0.00233396 -0.00070022 -0.000700174 -3.12521e-09
0.00166169 -0.000499784 -0.00049796 -2.38276e-05
0.00198918 -0.000597443 -0.00059646 -1.29243e-05
0.00232764 -0.000698324 -0.000698277 -4.4019e-09
0.00200001 -0.000600707 -0.000599701 -1.28853e-05
0.0019946 -0.000599075 -0.000598081 -1.29084e-05
0.00165717 -0.000498408 -0.000496614 -2.38525e-05
0.00164814 -0.000495668 -0.000493915 -2.38809e-05
0.00230864 -0.000692625 -0.000692576 -7.87988e-10
0.00232131 -0.000696428 -0.000696377 -2.13001e-09
0.00165265 -0.000497037 -0.000495265 -2.38693e-05
0.00197834 -0.000594178 -0.000593212 -1.29408e-05
0.00231497 -0.000694528 -0.000694477 -4.78051e-10
0.00198918 -0.000597443 -0.00059646 -1.29243e-05
0.00198376 -0.000595811 -0.000594837 -1.29343e-05
0.00164814 -0.000495668 -0.000493915 -2.38809e-05
0.0016391 -0.000492935 -0.000491212 -2.38943e-05
0.00229596 -0.000688821 -0.000688772 -3.7191e-10
0.00230864 -0.000692625 -0.000692576 -7.87988e-10
0.00164362 -0.000494301 -0.000492564 -2.3889e-05
0.00196748 -0.000590913 -0.000589959 -1.29478e-05
0.0023023 -0.000690723 -0.000690674 -8.81346e-10
0.00197834 -0.000594178 -0.000593212 -1.29408e-05
0.00197291 -0.000592546 -0.000591586 -1.29451e-05
0.0016391 -0.000492935 -0.000491212 -2.38943e-05
0.00163005 -0.000490206 -0.000488506 -2.38998e-05
0.00228327 -0.000685016 -0.000684968 -1.68621e-10
0.00229596 -0.000688821 -0.000688772 -3.7191e-10
0.00163458 -0.000491571 -0.000489859 -2.38976e-05
0.00195663 -0.000587647 -0.000586705 -1.29502e-05
0.00228962 -0.000686919 -0.00068687 -8.47435e-11
0.00196748 -0.000590913 -0.000589959 -1.29478e-05
0.00196206 -0.00058928 -0.000588332 -1.29493e-05
0.00163005 -0.000490206 -0.000488506 -2.38998e-05
0.00162101 -0.000487479 -0.0004858 -2.39021e-05
0.00227059 -0.000681211 -0.000681163 -5.87745e-11
0.00228327 -0.000685016 -0.000684968 -1.68621e-10
0.00162553 -0.000488843 -0.000487153 -2.39012e-05
0.00194576 -0.000584382 -0.00058345 -1.29509e-05
0.00227693 -0.000683113 -0.000683065 -1.53484e-10
0.00195663 -0.000587647 -0.000586705 -1.29502e-05
0.0019512 -0.000586015 -0.000585077 -1.29506e-05
0.00162101 -0.000487479 -0.0004858 -2.39021e-05
0.00161197 -0.000484753 -0.000483093 -2.39028e-05
0.00225791 -0.000677406 -0.000677359 -4.71973e-11
0.00227059 -0.000681211 -0.000681163 -5.87745e-11
0.00161649 -0.000486116 -0.000484446 -2.39025e-05
0.0019349 -0.000581116 -0.000580194 -1.29508e-05
0.00226425 -0.000679309 -0.000679261 -2.35861e-11
0.00194576 -0.000584382 -0.00058345 -1.29509e-05
0.00194033 -0.000582749 -0.000581822 -1.29509e-05
0.00161197 -0.000484753 -0.000483093 -2.39028e-05
0.00160292 -0.000482026 -0.000480385 -2.39029e-05
0.00224523 -0.000673601 -0.000673554 -2.61466e-11
0.00225791 -0.000677406 -0.000677359 -4.71973e-11
0.00160745 -0.000483389 -0.000481739 -2.39029e-05
0.00192404 -0.00057785 -0.000576939 -1.29506e-05
0.00225157 -0.000675504 -0.000675456 -3.88661e-11
0.0019349 -0.000581116 -0.000580194 -1.29508e-05
0.00192947 -0.000579483 -0.000578566 -1.29507e-05
0.00160292 -0.000482026 -0.000480385 -2.39029e-05
0.00159388 -0.0004793 -0.000477677 -2.39027e-05
0.00223255 -0.000669797 -0.00066975 -3.30209e-11
0.00224523 -0.000673601 -0.000673554 -2.61466e-11
0.0015984 -0.000480663 -0.000479031 -2.39028e-05
0.00191318 -0.000574584 -0.000573683 -1.29503e-05
0.00223889 -0.000671699 -0.000671652 -2.65299e-11
0.00192404 -0.00057785 -0.000576939 -1.29506e-05
0.00191861 -0.000576217 -0.000575311 -1.29504e-05
0.00159388 -0.0004793 -0.000477677 -2.39027e-05
0.00158483 -0.000476574 -0.000474969 -2.39025e-05
0.00221987 -0.000665992 -0.000665946 -3.02692e-11
0.00223255 -0.000669797 -0.00066975 -3.30209e-11
0.00158936 -0.000477937 -0.000476323 -2.39026e-05
0.00190231 -0.000571318 -0.000570427 -1.29501e-05
0.00222621 -0.000667894 -0.000667848 -3.06865e-11
0.00191318 -0.000574584 -0.000573683 -1.29503e-05
0.00190775 -0.000572951 -0.000572055 -1.29502e-05
0.00158483 -0.000476574 -0.000474969 -2.39025e-05
0.00157579 -0.000473847 -0.000472261 -2.39022e-05
0.00220718 -0.000662188 -0.000662142 -3.38438e-11
0.00221987 -0.000665992 -0.000665946 -3.02692e-11
0.00158031 -0.00047521 -0.000473615 -2.39024e-05
0.00189145 -0.000568053 -0.000567171 -1.29498e-05
0.00221352 -0.00066409 -0.000664044 -3.22421e-11
0.00190231 -0.000571318 -0.000570427 -1.29501e-05
0.00189688 -0.000569685 -0.000568799 -1.29499e-05
0.00157579 -0.000473847 -0.000472261 -2.39022e-05
0.00156674 -0.000471121 -0.000469553 -2.39019e-05
0.0021945 -0.000658383 -0.000658337 -3.36079e-11
0.00220718 -0.000662188 -0.000662142 -3.38438e-11
0.00157127 -0.000472484 -0.000470907 -2.39021e-05
0.00188059 -0.000564787 -0.000563915 -1.29496e-05
0.00220084 -0.000660285 -0.000660239 -3.32114e-11
0.00189145 -0.000568053 -0.000567171 -1.29498e-05
0.00188602 -0.00056642 -0.000565543 -1.29497e-05
0.00156674 -0.000471121 -0.000469553 -2.39019e-05
0.0015577 -0.000468395 -0.000466845 -2.39016e-05
0.00218182 -0.000654579 -0.000654533 -3.46599e-11
0.0021945 -0.000658383 -0.000658337 -3.36079e-11
0.00156222 -0.000469758 -0.000468199 -2.39018e-05
0.00186973 -0.000561521 -0.00056066 -1.29494e-05
0.00218816 -0.000656481 -0.000656435 -3.43505e-11
0.00188059 -0.000564787 -0.000563915 -1.29496e-05
0.00187516 -0.000563154 -0.000562288 -1.29495e-05
0.0015577 -0.000468395 -0.000466845 -2.39016e-05
0.00154865 -0.000465669 -0.000464136 -2.39013e-05
0.00216914 -0.000650774 -0.000650729 -3.45674e-11
0.00218182 -0.000654579 -0.000654533 -3.46599e-11
0.00155318 -0.000467032 -0.00046549 -2.39015e-05
0.00185886 -0.000558255 -0.000557404 -1.29492e-05
0.00217548 -0.000652676 -0.000652631 -3.44317e-11
0.00186973 -0.000561521 -0.00056066 -1.29494e-05
0.0018643 -0.000559888 -0.000559032 -1.29493e-05
0.00154865 -0.000465669 -0.000464136 -2.39013e-05
0.00153961 -0.000462943 -0.000461428 -2.3901e-05
0.00215646 -0.00064697 -0.000646925 -3.47446e-11
0.00216914 -0.000650774 -0.000650729 -3.45674e-11
0.00154413 -0.000464306 -0.000462782 -2.39012e-05
0.001848 -0.00055499 -0.000554148 -1.29491e-05
0.0021628 -0.000648872 -0.000648827 -3.47247e-11
0.00185886 -0.000558255 -0.000557404 -1.29492e-05
0.00185343 -0.000556622 -0.000555776 -1.29491e-05
0.00153961 -0.000462943 -0.000461428 -2.3901e-05
0.00153056 -0.000460217 -0.00045872 -2.39008e-05
0.00214378 -0.000643165 -0.000643121 -3.46289e-11
0.00215646 -0.00064697 -0.000646925 -3.47446e-11
0.00153509 -0.00046158 -0.000460074 -2.39009e-05
0.00183714 -0.000551724 -0.000550892 -1.29489e-05
0.00215012 -0.000645067 -0.000645023 -3.46301e-11
0.001848 -0.00055499 -0.000554148 -1.29491e-05
0.00184257 -0.000553357 -0.00055252 -1.2949e-05
0.00153056 -0.000460217 -0.00045872 -2.39008e-05
0.00152152 -0.000457491 -0.000456011 -2.39005e-05
0.0021311 -0.000639361 -0.000639317 -3.4582e-11
0.00214378 -0.000643165 -0.000643121 -3.46349e-11
0.00152604 -0.000458854 -0.000457365 -2.39006e-05
0.00182628 -0.000548458 -0.000547636 -1.29487e-05
0.00213744 -0.000641263 -0.000641219 -3.46173e-11
0.00183714 -0.000551724 -0.000550892 -1.29489e-05
0.00183171 -0.000550091 -0.000549264 -1.29488e-05
0.00152152 -0.000457491 -0.000456011 -2.39005e-05
0.00151247 -0.000454765 -0.000453303 -2.39002e-05
0.00211842 -0.000635556 -0.000635513 -3.44615e-11
0.0021311 -0.000639361 -0.000639317 -3.4582e-11
0.00151699 -0.000456128 -0.000454657 -2.39003e-05
0.00181541 -0.000545193 -0.00054438 -1.29485e-05
0.00212476 -0.000637459 -0.000637415 -3.45061e-11
0.00182628 -0.000548458 -0.000547636 -1.29487e-05
0.00182084 -0.000546826 -0.000546008 -1.29486e-05
0.00151247 -0.000454765 -0.000453303 -2.39002e-05
0.00150343 -0.000452039 -0.000450594 -2.38999e-05
0.00210574 -0.000631752 -0.000631709 -3.43519e-11
0.00211842 -0.000635556 -0.000635513 -3.44649e-11
0.00150795 -0.000453402 -0.000451948 -2.39001e-05
0.00180455 -0.000541927 -0.000541124 -1.29484e-05
0.00211208 -0.000633654 -0.000633611 -3.44161e-11
0.00181541 -0.000545193 -0.00054438 -1.29485e-05
0.00180998 -0.00054356 -0.000542752 -1.29485e-05
0.00150343 -0.000452039 -0.000450594 -2.38999e-05
0.00149438 -0.000449313 -0.000447886 -2.38997e-05
0.00209306 -0.000627948 -0.000627905 -3.42194e-11
0.00210574 -0.000631752 -0.000631709 -3.43519e-11
0.0014989 -0.000450676 -0.00044924 -2.38998e-05
0.00179369 -0.000538662 -0.000537868 -1.29482e-05
0.0020994 -0.00062985 -0.000629807 -3.42873e-11
0.00180455 -0.000541927 -0.000541124 -1.29484e-05
0.00179912 -0.000540295 -0.000539496 -1.29483e-05
0.00149438 -0.000449313 -0.000447886 -2.38997e-05
0.00148533 -0.000446587 -0.000445177 -2.38994e-05
0.00208038 -0.000624143 -0.000624101 -3.40811e-11
0.00209306 -0.000627948 -0.000627905 -3.42252e-11
0.00148986 -0.00044795 -0.000446531 -2.38995e-05
0.00178282 -0.000535396 -0.000534612 -1.29481e-05
0.00208672 -0.000626045 -0.000626003 -3.41642e-11
0.00179369 -0.000538662 -0.000537868 -1.29482e-05
0.00178826 -0.000537029 -0.00053624 -1.29481e-05
0.00148533 -0.000446587 -0.000445177 -2.38994e-05
0.00147629 -0.000443861 -0.000442468 -2.38991e-05
0.0020677 -0.000620339 -0.000620297 -3.39178e-11
0.00208038 -0.000624143 -0.000624101 -3.40811e-11
0.00148081 -0.000445224 -0.000443823 -2.38993e-05
0.00177196 -0.000532131 -0.000531356 -1.29479e-05
0.00207404 -0.000622241 -0.000622199 -3.40008e-11
0.00178282 -0.000535396 -0.000534612 -1.29481e-05
0.00177739 -0.000533764 -0.000532984 -1.2948e-05
0.00147629 -0.000443861 -0.000442468 -2.38991e-05
0.00146724 -0.000441136 -0.00043976 -2.38989e-05
0.00205502 -0.000616534 -0.000616493 -3.37477e-11
0.0020677 -0.000620339 -0.000620297 -3.39181e-11
0.00147176 -0.000442498 -0.000441114 -2.3899e-05
0.0017611 -0.000528865 -0.0005281 -1.29478e-05
0.00206136 -0.000618437 -0.000618395 -3.38452e-11
0.00177196 -0.000532131 -0.000531356 -1.29479e-05
0.00176653 -0.000530498 -0.000529728 -1.29478e-05
0.00146724 -0.000441136 -0.00043976 -2.38989e-05
0.0014582 -0.00043841 -0.000437051 -2.38986e-05
0.00204234 -0.00061273 -0.000612689 -3.35808e-11
0.00205502 -0.000616534 -0.000616493 -3.37477e-11
0.00146272 -0.000439773 -0.000438405 -2.38988e-05
0.00175024 -0.0005256 -0.000524844 -1.29476e-05
0.00204868 -0.000614632 -0.000614591 -3.3676e-11
0.0017611 -0.000528865 -0.0005281 -1.29478e-05
0.00175567 -0.000527233 -0.000526472 -1.29477e-05
0.0014582 -0.00043841 -0.000437051 -2.38986e-05
0.00144915 -0.000435684 -0.000434342 -2.38984e-05
0.00202966 -0.000608926 -0.000608885 -3.33905e-11
0.00204234 -0.00061273 -0.000612689 -3.35812e-11
0.00145367 -0.000437047 -0.000435697 -2.38985e-05
0.00173937 -0.000522335 -0.000521588 -1.29474e-05
0.002036 -0.000610828 -0.000610787 -3.3498e-11
0.00175024 -0.0005256 -0.000524844 -1.29476e-05
0.0017448 -0.000523967 -0.000523216 -1.29475e-05
0.00144915 -0.000435684 -0.000434342 -2.38984e-05
0.0014401 -0.000432959 -0.000431633 -2.38981e-05
0.00201698 -0.000605121 -0.000605081 -3.31955e-11
0.00202966 -0.000608926 -0.000608885 -3.33905e-11
0.00144463 -0.000434322 -0.000432988 -2.38982e-05
0.00172851 -0.000519069 -0.000518332 -1.29473e-05
0.00202332 -0.000607023 -0.000606983 -3.33024e-11
0.00173937 -0.000522335 -0.000521588 -1.29474e-05
0.00173394 -0.000520702 -0.00051996 -1.29474e-05
0.0014401 -0.000432959 -0.000431633 -2.38981e-05
0.00143106 -0.000430233 -0.000428924 -2.38978e-05
0.0020043 -0.000601317 -0.000601276 -3.30194e-11
0.00201698 -0.000605121 -0.000605081 -3.31918e-11
0.00143558 -0.000431596 -0.000430279 -2.3898e-05
0.00171765 -0.000515804 -0.000515076 -1.29471e-05
0.00201064 -0.000603219 -0.000603178 -3.31249e-11
0.00172851 -0.000519069 -0.000518332 -1.29473e-05
0.00172308 -0.000517437 -0.000516704 -1.29472e-05
0.00143106 -0.000430233 -0.000428924 -2.38978e-05
0.00142201 -0.000427508 -0.000426215 -2.38976e-05
0.00199161 -0.000597512 -0.000597472 -3.27882e-11
0.0020043 -0.000601317 -0.000601276 -3.30194e-11
0.00142653 -0.000428871 -0.00042757 -2.38977e-05
0.00170678 -0.000512539 -0.00051182 -1.2947e-05
0.00199795 -0.000599415 -0.000599374 -3.29165e-11
0.00171765 -0.000515804 -0.000515076 -1.29471e-05
0.00171222 -0.000514171 -0.000513448 -1.2947e-05
0.00142201 -0.000427508 -0.000426215 -2.38976e-05
0.00141296 -0.000424783 -0.000423506 -2.38973e-05
0.00197893 -0.000593708 -0.000593668 -3.25881e-11
0.00199161 -0.000597512 -0.000597472 -3.27882e-11
0.00141749 -0.000426145 -0.000424861 -2.38974e-05
0.00169592 -0.000509273 -0.000508563 -1.29468e-05
0.00198527 -0.00059561 -0.00059557 -3.26998e-11
0.00170678 -0.000512539 -0.00051182 -1.2947e-05
0.00170135 -0.000510906 -0.000510191 -1.29469e-05
0.00141296 -0.000424783 -0.000423506 -2.38973e-05
0.00140392 -0.000422057 -0.000420797 -2.3897e-05
0.00196625 -0.000589904 -0.000589864 -3.23896e-11
0.00197893 -0.000593708 -0.000593668 -3.26022e-11
0.00140844 -0.00042342 -0.000422152 -2.38972e-05
0.00168506 -0.000506008 -0.000505307 -1.29466e-05
0.00197259 -0.000591806 -0.000591766 -3.25096e-11
0.00169592 -0.000509273 -0.000508563 -1.29468e-05
0.00169049 -0.000507641 -0.000506935 -1.29467e-05
0.00140392 -0.000422057 -0.000420797 -2.3897e-05
0.00139487 -0.000419332 -0.000418088 -2.38967e-05
0.00195357 -0.000586099 -0.00058606 -3.21837e-11
0.00196625 -0.000589904 -0.000589864 -3.23896e-11
0.00139939 -0.000420695 -0.000419443 -2.38969e-05
0.0016742 -0.000502743 -0.000502051 -1.29465e-05
0.00195991 -0.000588001 -0.000587962 -3.22955e-11
0.00168506 -0.000506008 -0.000505307 -1.29466e-05
0.00167963 -0.000504376 -0.000503679 -1.29465e-05
0.00139487 -0.000419332 -0.000418088 -2.38967e-05
0.00138582 -0.000416607 -0.000415379 -2.38965e-05
0.00194089 -0.000582295 -0.000582256 -3.19785e-11
0.00195357 -0.000586099 -0.00058606 -3.21904e-11
0.00139035 -0.000417969 -0.000416734 -2.38966e-05
0.00166333 -0.000499478 -0.000498795 -1.29463e-05
0.00194723 -0.000584197 -0.000584158 -3.20926e-11
0.0016742 -0.000502743 -0.000502051 -1.29465e-05
0.00166876 -0.00050111 -0.000500423 -1.29464e-05
0.00138582 -0.000416607 -0.000415379 -2.38965e-05
0.00137678 -0.000413882 -0.00041267 -2.38962e-05
0.00192821 -0.00057849 -0.000578452 -3.178e-11
0.00194089 -0.000582295 -0.000582256 -3.19785e-11
0.0013813 -0.000415244 -0.000414024 -2.38963e-05
0.00165247 -0.000496213 -0.000495538 -1.29461e-05
0.00193455 -0.000580393 -0.000580354 -3.18747e-11
0.00166333 -0.000499478 -0.000498795 -1.29463e-05
0.0016579 -0.000497845 -0.000497166 -1.29462e-05
0.00137678 -0.000413882 -0.00041267 -2.38962e-05
0.00136773 -0.000411156 -0.000409961 -2.38959e-05
0.00191553 -0.000574686 -0.000574648 -3.15716e-11
0.00192821 -0.00057849 -0.000578452 -3.17667e-11
0.00137225 -0.000412519 -0.000411315 -2.38961e-05
0.00164161 -0.000492948 -0.000492282 -1.2946e-05
0.00192187 -0.000576588 -0.00057655 -3.16691e-11
0.00165247 -0.000496213 -0.000495538 -1.29461e-05
0.00164704 -0.00049458 -0.00049391 -1.29461e-05
0.00136773 -0.000411156 -0.000409961 -2.38959e-05
0.00135868 -0.000408431 -0.000407251 -2.38956e-05
0.00190285 -0.000570882 -0.000570845 -3.13759e-11
0.00191553 -0.000574686 -0.000574648 -3.15716e-11
0.00136321 -0.000409794 -0.000408606 -2.38958e-05
0.00163074 -0.000489683 -0.000489026 -1.29458e-05
0.00190919 -0.000572784 -0.000572746 -3.14648e-11
0.00164161 -0.000492948 -0.000492282 -1.2946e-05
0.00163617 -0.000491315 -0.000490654 -1.29459e-05
0.00135868 -0.000408431 -0.000407251 -2.38956e-05
0.00134964 -0.000405706 -0.000404542 -2.38954e-05
0.00189017 -0.000567077 -0.000567041 -3.11648e-11
0.00190285 -0.000570882 -0.000570845 -3.13623e-11
0.00135416 -0.000407069 -0.000405897 -2.38955e-05
0.00161988 -0.000486418 -0.000485769 -1.29456e-05
0.00189651 -0.00056898 -0.000568943 -3.12839e-11
0.00163074 -0.000489683 -0.000489026 -1.29458e-05
0.00162531 -0.00048805 -0.000487397 -1.29457e-05
0.00134964 -0.000405706 -0.000404542 -2.38954e-05
0.00134059 -0.000402981 -0.000401833 -2.38951e-05
0.00187749 -0.000563273 -0.000563237 -3.09153e-11
0.00189017 -0.000567077 -0.000567041 -3.11648e-11
0.00134511 -0.000404344 -0.000403187 -2.38952e-05
0.00160902 -0.000483153 -0.000482513 -1.29455e-05
0.00188383 -0.000565175 -0.000565139 -3.10272e-11
0.00161988 -0.000486418 -0.000485769 -1.29456e-05
0.00161445 -0.000484785 -0.000484141 -1.29456e-05
0.00134059 -0.000402981 -0.000401833 -2.38951e-05
0.00133154 -0.000400256 -0.000399123 -2.38948e-05
0.00186481 -0.000559469 -0.000559433 -3.07776e-11
0.00187749 -0.000563273 -0.000563237 -3.09157e-11
0.00133607 -0.000401619 -0.000400478 -2.38949e-05
0.00159815 -0.000479888 -0.000479257 -1.29453e-05
0.00187115 -0.000561371 -0.000561335 -3.08493e-11
0.00160902 -0.000483153 -0.000482513 -1.29455e-05
0.00160358 -0.00048152 -0.000480885 -1.29454e-05
0.00133154 -0.000400256 -0.000399123 -2.38948e-05
0.0013225 -0.000397532 -0.000396414 -2.38945e-05
0.00185213 -0.000555664 -0.000555629 -3.05255e-11
0.00186481 -0.000559469 -0.000559433 -3.07776e-11
0.00132702 -0.000398894 -0.000397768 -2.38946e-05
0.00158729 -0.000476623 -0.000476 -1.29451e-05
0.00185847 -0.000557566 -0.000557531 -3.06736e-11
0.00159815 -0.000479888 -0.000479257 -1.29453e-05
0.00159272 -0.000478255 -0.000477628 -1.29452e-05
0.0013225 -0.000397532 -0.000396414 -2.38945e-05
0.00131345 -0.000394807 -0.000393704 -2.38942e-05
0.00183945 -0.00055186 -0.000551825 -3.0306e-11
0.00185213 -0.000555664 -0.000555629 -3.05255e-11
0.00131797 -0.000396169 -0.000395059 -2.38944e-05
0.00157643 -0.000473358 -0.000472744 -1.2945e-05
0.00184579 -0.000553762 -0.000553727 -3.04044e-11
0.00158729 -0.000476623 -0.000476 -1.29451e-05
0.00158186 -0.00047499 -0.000474372 -1.2945e-05
0.00131345 -0.000394807 -0.000393704 -2.38942e-05
0.0013044 -0.000392082 -0.000390995 -2.38939e-05
0.00182677 -0.000548056 -0.000548021 -3.01117e-11
0.00183945 -0.00055186 -0.000551825 -3.03077e-11
0.00130893 -0.000393444 -0.000392349 -2.38941e-05
0.00156556 -0.000470093 -0.000469487 -1.29448e-05
0.00183311 -0.000549958 -0.000549923 -3.02335e-11
0.00157643 -0.000473358 -0.000472744 -1.2945e-05
0.00157099 -0.000471725 -0.000471115 -1.29449e-05
0.0013044 -0.000392082 -0.000390995 -2.38939e-05
0.00129536 -0.000389357 -0.000388285 -2.38936e-05
0.00181409 -0.000544251 -0.000544217 -2.99152e-11
0.00182677 -0.000548056 -0.000548021 -3.012e-11
0.00129988 -0.00039072 -0.00038964 -2.38938e-05
0.0015547 -0.000466828 -0.000466231 -1.29446e-05
0.00182043 -0.000546153 -0.000546119 -3.00097e-11
0.00156556 -0.000470093 -0.000469487 -1.29448e-05
0.00156013 -0.000468461 -0.000467859 -1.29447e-05
0.00129536 -0.000389357 -0.000388285 -2.38936e-05
0.00128631 -0.000386633 -0.000385575 -2.38933e-05
0.00180141 -0.000540447 -0.000540413 -2.96921e-11
0.00181409 -0.000544251 -0.000544217 -2.99152e-11
0.00129083 -0.000387995 -0.00038693 -2.38935e-05
0.00154384 -0.000463563 -0.000462974 -1.29444e-05
0.00180775 -0.000542349 -0.000542315 -2.98138e-11
0.0015547 -0.000466828 -0.000466231 -1.29446e-05
0.00154927 -0.000465196 -0.000464602 -1.29445e-05
0.00128631 -0.000386633 -0.000385575 -2.38933e-05
0.00127726 -0.000383908 -0.000382866 -2.3893e-05
0.00178873 -0.000536643 -0.000536609 -2.95008e-11
0.00180141 -0.000540447 -0.000540413 -2.96921e-11
0.00128179 -0.000385271 -0.000384221 -2.38932e-05
0.00153297 -0.000460299 -0.000459718 -1.29443e-05
0.00179507 -0.000538545 -0.000538511 -2.96e-11
0.00154384 -0.000463563 -0.000462974 -1.29444e-05
0.0015384 -0.000461931 -0.000461346 -1.29444e-05
0.00127726 -0.000383908 -0.000382866 -2.3893e-05
0.00126821 -0.000381184 -0.000380156 -2.38928e-05
0.00177605 -0.000532838 -0.000532805 -2.92953e-11
0.00178873 -0.000536643 -0.000536609 -2.95008e-11
0.00127274 -0.000382546 -0.000381511 -2.38929e-05
0.00152211 -0.000457034 -0.000456461 -1.29441e-05
0.00178239 -0.000534741 -0.000534707 -2.94094e-11
0.00153297 -0.000460299 -0.000459718 -1.29443e-05
0.00152754 -0.000458666 -0.000458089 -1.29442e-05
0.00126821 -0.000381184 -0.000380156 -2.38928e-05
0.00125917 -0.000378459 -0.000377446 -2.38925e-05
0.00176337 -0.000529034 -0.000529001 -2.9083e-11
0.00177605 -0.000532838 -0.000532805 -2.92883e-11
0.00126369 -0.000379822 -0.000378801 -2.38926e-05
0.00151125 -0.000453769 -0.000453205 -1.29439e-05
0.00176971 -0.000530936 -0.000530903 -2.91889e-11
0.00152211 -0.000457034 -0.000456461 -1.29441e-05
0.00151668 -0.000455401 -0.000454833 -1.2944e-05
0.00125917 -0.000378459 -0.000377446 -2.38925e-05
0.00125012 -0.000375735 -0.000374736 -2.38922e-05
0.00175069 -0.00052523 -0.000525197 -2.88663e-11
0.00176337 -0.000529034 -0.000529001 -2.9083e-11
0.00125464 -0.000377097 -0.000376091 -2.38923e-05
0.00150038 -0.000450504 -0.000449948 -1.29437e-05
0.00175703 -0.000527132 -0.000527099 -2.89952e-11
0.00151125 -0.000453769 -0.000453205 -1.29439e-05
0.00150581 -0.000452137 -0.000451576 -1.29438e-05
0.00125012 -0.000375735 -0.000374736 -2.38922e-05
0.00124107 -0.000373011 -0.000372026 -2.38919e-05
0.00173801 -0.000521426 -0.000521393 -2.86736e-11
0.00175069 -0.00052523 -0.000525197 -2.88663e-11
0.0012456 -0.000374373 -0.000373381 -2.3892e-05
0.00148952 -0.00044724 -0.000446691 -1.29436e-05
0.00174435 -0.000523328 -0.000523295 -2.87892e-11
0.00150038 -0.000450504 -0.000449948 -1.29437e-05
0.00149495 -0.000448872 -0.00044832 -1.29436e-05
0.00124107 -0.000373011 -0.000372026 -2.38919e-05
0.00123202 -0.000370286 -0.000369316 -2.38916e-05
0.00172533 -0.000517621 -0.00051759 -2.84565e-11
0.00173801 -0.000521426 -0.000521393 -2.86653e-11
0.00123655 -0.000371648 -0.000370671 -2.38917e-05
0.00147866 -0.000443975 -0.000443435 -1.29434e-05
0.00173167 -0.000519523 -0.000519492 -2.85702e-11
0.00148952 -0.00044724 -0.000446691 -1.29436e-05
0.00148409 -0.000445608 -0.000445063 -1.29435e-05
0.00123202 -0.000370286 -0.000369316 -2.38916e-05
0.00122298 -0.000367562 -0.000366606 -2.38913e-05
0.00171265 -0.000513817 -0.000513786 -2.82661e-11
0.00172533 -0.000517621 -0.00051759 -2.84649e-11
0.0012275 -0.000368924 -0.000367961 -2.38914e-05
0.00146779 -0.000440711 -0.000440178 -1.29432e-05
0.00171899 -0.000515719 -0.000515688 -2.8361e-11
0.00147866 -0.000443975 -0.000443435 -1.29434e-05
0.00147322 -0.000442343 -0.000441806 -1.29433e-05
0.00122298 -0.000367562 -0.000366606 -2.38913e-05
0.00121393 -0.000364838 -0.000363896 -2.3891e-05
0.00169997 -0.000510013 -0.000509982 -2.80471e-11
0.00171265 -0.000513817 -0.000513786 -2.82661e-11
0.00121845 -0.0003662 -0.000365251 -2.38911e-05
0.00145693 -0.000437446 -0.000436921 -1.2943e-05
0.00170631 -0.000511915 -0.000511884 -2.81558e-11
0.00146779 -0.000440711 -0.000440178 -1.29432e-05
0.00146236 -0.000439078 -0.00043855 -1.29431e-05
0.00121393 -0.000364838 -0.000363896 -2.3891e-05
0.00120488 -0.000362114 -0.000361186 -2.38907e-05
0.00168729 -0.000506209 -0.000506178 -2.78427e-11
0.00169997 -0.000510013 -0.000509982 -2.80471e-11
0.00120941 -0.000363476 -0.000362541 -2.38908e-05
0.00144607 -0.000434182 -0.000433665 -1.29429e-05
0.00169363 -0.000508111 -0.00050808 -2.79378e-11
0.00145693 -0.000437446 -0.000436921 -1.2943e-05
0.0014515 -0.000435814 -0.000435293 -1.29429e-05
0.00120488 -0.000362114 -0.000361186 -2.38907e-05
0.00119583 -0.00035939 -0.000358476 -2.38904e-05
0.00167461 -0.000502404 -0.000502374 -2.76223e-11
0.00168729 -0.000506209 -0.000506178 -2.7838e-11
0.00120036 -0.000360752 -0.000359831 -2.38905e-05
0.0014352 -0.000430917 -0.000430408 -1.29427e-05
0.00168095 -0.000504306 -0.000504276 -2.77412e-11
0.00144607 -0.000434182 -0.000433665 -1.29429e-05
0.00144063 -0.000432549 -0.000432036 -1.29428e-05
0.00119583 -0.00035939 -0.000358476 -2.38904e-05
0.00118679 -0.000356666 -0.000355766 -2.38901e-05
0.00166193 -0.0004986 -0.00049857 -2.74173e-11
0.00167461 -0.000502404 -0.000502374 -2.76353e-11
0.00119131 -0.000358028 -0.000357121 -2.38902e-05
0.00142434 -0.000427653 -0.000427151 -1.29425e-05
0.00166827 -0.000500502 -0.000500472 -2.75239e-11
0.0014352 -0.000430917 -0.000430408 -1.29427e-05
0.00142977 -0.000429285 -0.00042878 -1.29426e-05
0.00118679 -0.000356666 -0.000355766 -2.38901e-05
0.00117774 -0.000353942 -0.000353056 -2.38898e-05
0.00164925 -0.000494796 -0.000494767 -2.72176e-11
0.00166193 -0.0004986 -0.00049857 -2.74173e-11
0.00118226 -0.000355304 -0.000354411 -2.38899e-05
0.00141348 -0.000424388 -0.000423895 -1.29423e-05
0.00165559 -0.000496698 -0.000496669 -2.73253e-11
0.00142434 -0.000427653 -0.000427151 -1.29425e-05
0.00141891 -0.000426021 -0.000425523 -1.29424e-05
0.00117774 -0.000353942 -0.000353056 -2.38898e-05
0.00116869 -0.000351218 -0.000350346 -2.38895e-05
0.00163657 -0.000490992 -0.000490963 -2.70001e-11
0.00164925 -0.000494796 -0.000494767 -2.72176e-11
0.00117321 -0.00035258 -0.000351701 -2.38896e-05
0.00140261 -0.000421124 -0.000420638 -1.29421e-05
0.00164291 -0.000492894 -0.000492865 -2.7104e-11
0.00141348 -0.000424388 -0.000423895 -1.29423e-05
0.00140804 -0.000422756 -0.000422266 -1.29422e-05
0.00116869 -0.000351218 -0.000350346 -2.38895e-05
0.00115964 -0.000348494 -0.000347635 -2.38892e-05
0.00162389 -0.000487187 -0.000487159 -2.67931e-11
0.00163657 -0.000490992 -0.000490963 -2.70064e-11
0.00116417 -0.000349856 -0.00034899 -2.38893e-05
0.00139175 -0.00041786 -0.000417381 -1.2942e-05
0.00163023 -0.00048909 -0.000489061 -2.69222e-11
0.00140261 -0.000421124 -0.000420638 -1.29421e-05
0.00139718 -0.000419492 -0.000419009 -1.2942e-05
0.00115964 -0.000348494 -0.000347635 -2.38892e-05
0.0011506 -0.00034577 -0.000344925 -2.38889e-05
0.00161121 -0.000483383 -0.000483355 -2.65999e-11
0.00162389 -0.000487187 -0.000487159 -2.67999e-11
0.00115512 -0.000347132 -0.00034628 -2.3889e-05
0.00138089 -0.000414595 -0.000414124 -1.29418e-05
0.00161755 -0.000485285 -0.000485257 -2.67038e-11
0.00139175 -0.00041786 -0.000417381 -1.2942e-05
0.00138632 -0.000416228 -0.000415753 -1.29419e-05
0.0011506 -0.00034577 -0.000344925 -2.38889e-05
0.00114155 -0.000343047 -0.000342215 -2.38886e-05
0.00159853 -0.000479579 -0.000479552 -2.63767e-11
0.00161121 -0.000483383 -0.000483355 -2.65999e-11
0.00114607 -0.000344408 -0.00034357 -2.38887e-05
0.00137002 -0.000411331 -0.000410867 -1.29416e-05
0.00160487 -0.000481481 -0.000481453 -2.64871e-11
0.00138089 -0.000414595 -0.000414124 -1.29418e-05
0.00137545 -0.000412963 -0.000412496 -1.29417e-05
0.00114155 -0.000343047 -0.000342215 -2.38886e-05
0.0011325 -0.000340323 -0.000339504 -2.38882e-05
0.00158585 -0.000475775 -0.000475748 -2.61659e-11
0.00159853 -0.000479579 -0.000479552 -2.63767e-11
0.00113702 -0.000341685 -0.000340859 -2.38884e-05
0.00135916 -0.000408067 -0.00040761 -1.29414e-05
0.00159219 -0.000477677 -0.00047765 -2.6285e-11
0.00137002 -0.000411331 -0.000410867 -1.29416e-05
0.00136459 -0.000409699 -0.000409239 -1.29415e-05
0.0011325 -0.000340323 -0.000339504 -2.38882e-05
0.00112345 -0.000337599 -0.000336794 -2.38879e-05
0.00157317 -0.000471971 -0.000471944 -2.59598e-11
0.00158585 -0.000475775 -0.000475748 -2.61613e-11
0.00112798 -0.000338961 -0.000338149 -2.38881e-05
0.00134829 -0.000404803 -0.000404354 -1.29412e-05
0.00157951 -0.000473873 -0.000473846 -2.60764e-11
0.00135916 -0.000408067 -0.00040761 -1.29414e-05
0.00135373 -0.000406435 -0.000405982 -1.29413e-05
0.00112345 -0.000337599 -0.000336794 -2.38879e-05
0.0011144 -0.000334876 -0.000334083 -2.38876e-05
0.00156049 -0.000468167 -0.00046814 -2.57625e-11
0.00157317 -0.000471971 -0.000471944 -2.59745e-11
0.00111893 -0.000336238 -0.000335438 -2.38878e-05
0.00133743 -0.000401539 -0.000401097 -1.29411e-05
0.00156683 -0.000470069 -0.000470042 -2.58711e-11
0.00134829 -0.000404803 -0.000404354 -1.29412e-05
0.00134286 -0.000403171 -0.000402725 -1.29411e-05
0.0011144 -0.000334876 -0.000334083 -2.38876e-05
0.00110536 -0.000332152 -0.000331373 -2.38873e-05
0.00154781 -0.000464362 -0.000464337 -2.55679e-11
0.00156049 -0.000468167 -0.00046814 -2.57625e-11
0.00110988 -0.000333514 -0.000332728 -2.38875e-05
0.00132657 -0.000398275 -0.00039784 -1.29409e-05
0.00155415 -0.000466265 -0.000466238 -2.56805e-11
0.00133743 -0.000401539 -0.000401097 -1.29411e-05
0.001332 -0.000399907 -0.000399468 -1.2941e-05
0.00110536 -0.000332152 -0.000331373 -2.38873e-05
0.00109631 -0.000329429 -0.000328662 -2.3887e-05
0.00153513 -0.000460558 -0.000460533 -2.53426e-11
0.00154781 -0.000464362 -0.000464337 -2.55679e-11
0.00110083 -0.000330791 -0.000330017 -2.38872e-05
0.0013157 -0.000395011 -0.000394583 -1.29407e-05
0.00154147 -0.00046246 -0.000462435 -2.54779e-11
0.00132657 -0.000398275 -0.00039784 -1.29409e-05
0.00132114 -0.000396643 -0.000396211 -1.29408e-05
0.00109631 -0.000329429 -0.000328662 -2.3887e-05
0.00108726 -0.000326706 -0.000325951 -2.38867e-05
0.00152246 -0.000456754 -0.000456729 -2.51295e-11
0.00153513 -0.000460558 -0.000460533 -2.53513e-11
0.00109178 -0.000328067 -0.000327307 -2.38869e-05
0.00130484 -0.000391747 -0.000391326 -1.29405e-05
0.0015288 -0.000458656 -0.000458631 -2.52425e-11
0.0013157 -0.000395011 -0.000394583 -1.29407e-05
0.00131027 -0.000393379 -0.000392954 -1.29406e-05
0.00108726 -0.000326706 -0.000325951 -2.38867e-05
0.00107821 -0.000323982 -0.000323241 -2.38864e-05
0.00150978 -0.00045295 -0.000452925 -2.49362e-11
0.00152246 -0.000456754 -0.000456729 -2.51495e-11
0.00108273 -0.000325344 -0.000324596 -2.38866e-05
0.00129398 -0.000388483 -0.000388069 -1.29403e-05
0.00151612 -0.000454852 -0.000454827 -2.5021e-11
0.00130484 -0.000391747 -0.000391326 -1.29405e-05
0.00129941 -0.000390115 -0.000389697 -1.29404e-05
0.00107821 -0.000323982 -0.000323241 -2.38864e-05
0.00106916 -0.000321259 -0.00032053 -2.38861e-05
0.0014971 -0.000449146 -0.000449122 -2.47184e-11
0.00150978 -0.00045295 -0.000452925 -2.49362e-11
0.00107369 -0.000322621 -0.000321885 -2.38863e-05
0.00128311 -0.000385219 -0.000384812 -1.29401e-05
0.00150344 -0.000451048 -0.000451024 -2.48291e-11
0.00129398 -0.000388483 -0.000388069 -1.29403e-05
0.00128855 -0.000386851 -0.000386441 -1.29402e-05
0.00106916 -0.000321259 -0.00032053 -2.38861e-05
0.00106011 -0.000318536 -0.000317819 -2.38858e-05
0.00148442 -0.000445342 -0.000445318 -2.45107e-11
0.0014971 -0.000449146 -0.000449122 -2.47184e-11
0.00106464 -0.000319897 -0.000319174 -2.38859e-05
0.00127225 -0.000381955 -0.000381555 -1.294e-05
0.00149076 -0.000447244 -0.00044722 -2.46277e-11
0.00128311 -0.000385219 -0.000384812 -1.29401e-05
0.00127768 -0.000383587 -0.000383184 -1.29401e-05
0.00106011 -0.000318536 -0.000317819 -2.38858e-05
0.00105107 -0.000315813 -0.000315108 -2.38855e-05
0.00147174 -0.000441538 -0.000441514 -2.43078e-11
0.00148442 -0.000445342 -0.000445318 -2.45127e-11
0.00105559 -0.000317174 -0.000316464 -2.38856e-05
0.00126139 -0.000378691 -0.000378298 -1.29398e-05
0.00147808 -0.00044344 -0.000443416 -2.44329e-11
0.00127225 -0.000381955 -0.000381555 -1.294e-05
0.00126682 -0.000380323 -0.000379927 -1.29399e-05
0.00105107 -0.000315813 -0.000315108 -2.38855e-05
0.00104202 -0.00031309 -0.000312397 -2.38852e-05
0.00145906 -0.000437734 -0.000437711 -2.41067e-11
0.00147174 -0.000441538 -0.000441514 -2.43092e-11
0.00104654 -0.000314451 -0.000313753 -2.38853e-05
0.00125052 -0.000375427 -0.000375041 -1.29396e-05
0.0014654 -0.000439636 -0.000439613 -2.42018e-11
0.00126139 -0.000378691 -0.000378298 -1.29398e-05
0.00125595 -0.000377059 -0.000376669 -1.29397e-05
0.00104202 -0.00031309 -0.000312397 -2.38852e-05
0.00103297 -0.000310367 -0.000309686 -2.38849e-05
0.00144638 -0.00043393 -0.000433907 -2.39131e-11
0.00145906 -0.000437734 -0.000437711 -2.41067e-11
0.00103749 -0.000311728 -0.000311042 -2.3885e-05
0.00123966 -0.000372163 -0.000371784 -1.29394e-05
0.00145272 -0.000435832 -0.000435809 -2.40005e-11
0.00125052 -0.000375427 -0.000375041 -1.29396e-05
0.00124509 -0.000373795 -0.000373412 -1.29395e-05
0.00103297 -0.000310367 -0.000309686 -2.38849e-05
0.00102392 -0.000307644 -0.000306975 -2.38846e-05
0.0014337 -0.000430126 -0.000430103 -2.37013e-11
0.00144638 -0.00043393 -0.000433907 -2.39131e-11
0.00102844 -0.000309005 -0.000308331 -2.38847e-05
0.0012288 -0.000368899 -0.000368527 -1.29392e-05
0.00144004 -0.000432028 -0.000432005 -2.37963e-11
0.00123966 -0.000372163 -0.000371784 -1.29394e-05
0.00123423 -0.000370531 -0.000370155 -1.29393e-05
0.00102392 -0.000307644 -0.000306975 -2.38846e-05
0.00101487 -0.000304921 -0.000304264 -2.38843e-05
0.00142102 -0.000426322 -0.0004263 -2.34846e-11
0.0014337 -0.000430126 -0.000430103 -2.36968e-11
0.0010194 -0.000306282 -0.00030562 -2.38844e-05
0.00121793 -0.000365636 -0.00036527 -1.2939e-05
0.00142736 -0.000428224 -0.000428202 -2.35775e-11
0.0012288 -0.000368899 -0.000368527 -1.29392e-05
0.00122336 -0.000367268 -0.000366898 -1.29391e-05
0.00101487 -0.000304921 -0.000304264 -2.38843e-05
0.00100582 -0.000302198 -0.000301553 -2.38839e-05
0.00140834 -0.000422518 -0.000422496 -2.32795e-11
0.00142102 -0.000426322 -0.0004263 -2.34779e-11
0.00101035 -0.000303559 -0.000302909 -2.38841e-05
0.00120707 -0.000362372 -0.000362013 -1.29389e-05
0.00141468 -0.00042442 -0.000424398 -2.33876e-11
0.00121793 -0.000365636 -0.00036527 -1.2939e-05
0.0012125 -0.000364004 -0.000363641 -1.2939e-05
0.00100582 -0.000302198 -0.000301553 -2.38839e-05
0.000996774 -0.000299475 -0.000298842 -2.38836e-05
0.00139566 -0.000418714 -0.000418693 -2.30763e-11
0.00140834 -0.000422518 -0.000422496 -2.32795e-11
0.0010013 -0.000300837 -0.000300198 -2.38838e-05
0.0011962 -0.000359108 -0.000358755 -1.29387e-05
0.001402 -0.000420616 -0.000420594 -2.31824e-11
0.00120707 -0.000362372 -0.000362013 -1.29389e-05
0.00120164 -0.00036074 -0.000360384 -1.29388e-05
0.000996774 -0.000299475 -0.000298842 -2.38836e-05
0.000987725 -0.000296752 -0.000296131 -2.38833e-05
0.00138298 -0.00041491 -0.000414889 -2.28648e-11
0.00139566 -0.000418714 -0.000418693 -2.30763e-11
0.000992249 -0.000298114 -0.000297487 -2.38835e-05
0.00118534 -0.000355845 -0.000355498 -1.29385e-05
0.00138932 -0.000416812 -0.000416791 -2.29815e-11
0.0011962 -0.000359108 -0.000358755 -1.29387e-05
0.00119077 -0.000357477 -0.000357127 -1.29386e-05
0.000987725 -0.000296752 -0.000296131 -2.38833e-05
0.000978676 -0.00029403 -0.00029342 -2.3883e-05
0.0013703 -0.000411106 -0.000411085 -2.26616e-11
0.00138298 -0.00041491 -0.000414889 -2.28643e-11
0.000983201 -0.000295391 -0.000294776 -2.38832e-05
0.00117448 -0.000352581 -0.000352241 -1.29383e-05
0.00137664 -0.000413008 -0.000412987 -2.27775e-11
0.00118534 -0.000355845 -0.000355498 -1.29385e-05
0.00117991 -0.000354213 -0.00035387 -1.29384e-05
0.000978676 -0.00029403 -0.00029342 -2.3883e-05
0.000969627 -0.000291307 -0.000290709 -2.38827e-05
0.00135763 -0.000407302 -0.000407282 -2.24315e-11
0.0013703 -0.000411106 -0.000411085 -2.26681e-11
0.000974152 -0.000292668 -0.000292064 -2.38829e-05
0.00116361 -0.000349318 -0.000348984 -1.29381e-05
0.00136397 -0.000409204 -0.000409184 -2.25557e-11
0.00117448 -0.000352581 -0.000352241 -1.29383e-05
0.00116905 -0.000350949 -0.000350613 -1.29382e-05
0.000969627 -0.000291307 -0.000290709 -2.38827e-05
0.000960579 -0.000288585 -0.000287997 -2.38824e-05
0.00134495 -0.000403498 -0.000403478 -2.22354e-11
0.00135763 -0.000407302 -0.000407282 -2.24315e-11
0.000965103 -0.000289946 -0.000289353 -2.38826e-05
0.00115275 -0.000346054 -0.000345727 -1.2938e-05
0.00135129 -0.0004054 -0.00040538 -2.23516e-11
0.00116361 -0.000349318 -0.000348984 -1.29381e-05
0.00115818 -0.000347686 -0.000347355 -1.2938e-05
0.000960579 -0.000288585 -0.000287997 -2.38824e-05
0.00095153 -0.000285862 -0.000285286 -2.38821e-05
0.00133227 -0.000399694 -0.000399675 -2.20324e-11
0.00134495 -0.000403498 -0.000403478 -2.22354e-11
0.000956054 -0.000287223 -0.000286642 -2.38823e-05
0.00114189 -0.000342791 -0.00034247 -1.29378e-05
0.00133861 -0.000401596 -0.000401577 -2.21447e-11
0.00115275 -0.000346054 -0.000345727 -1.2938e-05
0.00114732 -0.000344422 -0.000344098 -1.29379e-05
0.00095153 -0.000285862 -0.000285286 -2.38821e-05
0.000942481 -0.00028314 -0.000282575 -2.38818e-05
0.00131959 -0.00039589 -0.000395871 -2.18195e-11
0.00133227 -0.000399694 -0.000399675 -2.20194e-11
0.000947005 -0.000284501 -0.00028393 -2.3882e-05
0.00113102 -0.000339527 -0.000339212 -1.29376e-05
0.00132593 -0.000397792 -0.000397773 -2.19195e-11
0.00114189 -0.000342791 -0.00034247 -1.29378e-05
0.00113645 -0.000341159 -0.000340841 -1.29377e-05
0.000942481 -0.00028314 -0.000282575 -2.38818e-05
0.000933432 -0.000280417 -0.000279863 -2.38815e-05
0.00130691 -0.000392086 -0.000392068 -2.16245e-11
0.00131959 -0.00039589 -0.000395871 -2.18409e-11
0.000937956 -0.000281778 -0.000281219 -2.38816e-05
0.00112016 -0.000336264 -0.000335955 -1.29374e-05
0.00131325 -0.000393988 -0.000393969 -2.17209e-11
0.00113102 -0.000339527 -0.000339212 -1.29376e-05
0.00112559 -0.000337895 -0.000337584 -1.29375e-05
0.000933432 -0.000280417 -0.000279863 -2.38815e-05
0.000924383 -0.000277695 -0.000277152 -2.38812e-05
0.00129423 -0.000388282 -0.000388264 -2.14068e-11
0.00130691 -0.000392086 -0.000392068 -2.16245e-11
0.000928907 -0.000279056 -0.000278508 -2.38813e-05
0.0011093 -0.000333 -0.000332698 -1.29372e-05
0.00130057 -0.000390184 -0.000390166 -2.15162e-11
0.00112016 -0.000336264 -0.000335955 -1.29374e-05
0.00111473 -0.000334632 -0.000334326 -1.29373e-05
0.000924383 -0.000277695 -0.000277152 -2.38812e-05
0.000915334 -0.000274973 -0.00027444 -2.38809e-05
0.00128155 -0.000384478 -0.000384461 -2.11978e-11
0.00129423 -0.000388282 -0.000388264 -2.14068e-11
0.000919858 -0.000276334 -0.000275796 -2.3881e-05
0.00109843 -0.000329737 -0.00032944 -1.29371e-05
0.00128789 -0.00038638 -0.000386362 -2.13031e-11
0.0011093 -0.000333 -0.000332698 -1.29372e-05
0.00110386 -0.000331369 -0.000331069 -1.29371e-05
0.000915334 -0.000274973 -0.00027444 -2.38809e-05
0.000906284 -0.000272251 -0.000271729 -2.38806e-05
0.00126887 -0.000380674 -0.000380657 -2.09988e-11
0.00128155 -0.000384478 -0.000384461 -2.11864e-11
0.000910809 -0.000273612 -0.000273085 -2.38807e-05
0.00108757 -0.000326474 -0.000326183 -1.29369e-05
0.00127521 -0.000382576 -0.000382559 -2.10917e-11
0.00109843 -0.000329737 -0.00032944 -1.29371e-05
0.001093 -0.000328105 -0.000327812 -1.2937e-05
0.000906284 -0.000272251 -0.000271729 -2.38806e-05
0.000897235 -0.000269528 -0.000269017 -2.38803e-05
0.0012562 -0.00037687 -0.000376854 -2.07899e-11
0.00126887 -0.000380674 -0.000380657 -2.1005e-11
0.00090176 -0.000270889 -0.000270373 -2.38804e-05
0.0010767 -0.000323211 -0.000322926 -1.29367e-05
0.00126253 -0.000378772 -0.000378755 -2.08763e-11
0.00108757 -0.000326474 -0.000326183 -1.29369e-05
0.00108214 -0.000324842 -0.000324554 -1.29368e-05
0.000897235 -0.000269528 -0.000269017 -2.38803e-05
0.000888186 -0.000266806 -0.000266306 -2.388e-05
0.00124352 -0.000373066 -0.00037305 -2.05834e-11
0.0012562 -0.00037687 -0.000376854 -2.07899e-11
0.000892711 -0.000268167 -0.000267661 -2.38801e-05
0.00106584 -0.000319947 -0.000319668 -1.29365e-05
0.00124986 -0.000374968 -0.000374952 -2.06766e-11
0.0010767 -0.000323211 -0.000322926 -1.29367e-05
0.00107127 -0.000321579 -0.000321297 -1.29366e-05
0.000888186 -0.000266806 -0.000266306 -2.388e-05
0.000879137 -0.000264084 -0.000263594 -2.38797e-05
0.00123084 -0.000369262 -0.000369247 -2.03692e-11
0.00124352 -0.000373066 -0.00037305 -2.05834e-11
0.000883661 -0.000265445 -0.00026495 -2.38798e-05
0.00105498 -0.000316684 -0.000316411 -1.29363e-05
0.00123718 -0.000371164 -0.000371148 -2.04865e-11
0.00106584 -0.000319947 -0.000319668 -1.29365e-05
0.00106041 -0.000318316 -0.00031804 -1.29364e-05
0.000879137 -0.000264084 -0.000263594 -2.38797e-05
0.000870087 -0.000261362 -0.000260882 -2.38794e-05
0.00121816 -0.000365458 -0.000365443 -2.01397e-11
0.00123084 -0.000369262 -0.000369247 -2.03554e-11
0.000874612 -0.000262723 -0.000262238 -2.38795e-05
0.00104411 -0.000313421 -0.000313154 -1.29362e-05
0.0012245 -0.00036736 -0.000367345 -2.02635e-11
0.00105498 -0.000316684 -0.000316411 -1.29363e-05
0.00104954 -0.000315053 -0.000314782 -1.29362e-05
0.000870087 -0.000261362 -0.000260882 -2.38794e-05
0.000861038 -0.00025864 -0.00025817 -2.38791e-05
0.00120548 -0.000361654 -0.00036164 -1.99515e-11
0.00121816 -0.000365458 -0.000365443 -2.01396e-11
0.000865563 -0.000260001 -0.000259526 -2.38792e-05
0.00103325 -0.000310158 -0.000309896 -1.2936e-05
0.00121182 -0.000363556 -0.000363541 -2.00362e-11
0.00104411 -0.000313421 -0.000313154 -1.29362e-05
0.00103868 -0.000311789 -0.000311525 -1.29361e-05
0.000861038 -0.00025864 -0.00025817 -2.38791e-05
0.000851988 -0.000255919 -0.000255459 -2.38788e-05
0.0011928 -0.000357851 -0.000357836 -1.97368e-11
0.00120548 -0.000361654 -0.00036164 -1.99515e-11
0.000856513 -0.000257279 -0.000256814 -2.38789e-05
0.00102238 -0.000306895 -0.000306639 -1.29358e-05
0.00119914 -0.000359753 -0.000359738 -1.98761e-11
0.00103325 -0.000310158 -0.000309896 -1.2936e-05
0.00102782 -0.000308526 -0.000308267 -1.29359e-05
0.000851988 -0.000255919 -0.000255459 -2.38788e-05
0.000842939 -0.000253197 -0.000252747 -2.38785e-05
0.00118012 -0.000354047 -0.000354033 -1.95417e-11
0.0011928 -0.000357851 -0.000357836 -1.97368e-11
0.000847464 -0.000254558 -0.000254103 -2.38786e-05
0.00101152 -0.000303632 -0.000303381 -1.29356e-05
0.00118646 -0.000355949 -0.000355935 -1.96632e-11
0.00102238 -0.000306895 -0.000306639 -1.29358e-05
0.00101695 -0.000305263 -0.00030501 -1.29357e-05
0.000842939 -0.000253197 -0.000252747 -2.38785e-05
0.000833889 -0.000250475 -0.000250035 -2.38782e-05
0.00116744 -0.000350243 -0.000350229 -1.93214e-11
0.00118012 -0.000354047 -0.000354033 -1.95417e-11
0.000838414 -0.000251836 -0.000251391 -2.38783e-05
0.00100066 -0.000300369 -0.000300124 -1.29354e-05
0.00117378 -0.000352145 -0.000352131 -1.94494e-11
0.00101152 -0.000303632 -0.000303381 -1.29356e-05
0.00100609 -0.000302 -0.000301752 -1.29355e-05
0.000833889 -0.000250475 -0.000250035 -2.38782e-05
0.00082484 -0.000247753 -0.000247323 -2.38779e-05
0.00115477 -0.000346439 -0.000346426 -1.91315e-11
0.00116744 -0.000350243 -0.000350229 -1.93343e-11
0.000829365 -0.000249114 -0.000248679 -2.3878e-05
0.000989794 -0.000297106 -0.000296866 -1.29353e-05
0.00116111 -0.000348341 -0.000348328 -1.92133e-11
0.00100066 -0.000300369 -0.000300124 -1.29354e-05
0.000995225 -0.000298737 -0.000298495 -1.29354e-05
0.00082484 -0.000247753 -0.000247323 -2.38779e-05
0.00081579 -0.000245032 -0.000244611 -2.38776e-05
0.00114209 -0.000342635 -0.000342623 -1.89001e-11
0.00115477 -0.000346439 -0.000346426 -1.91315e-11
0.000820315 -0.000246393 -0.000245967 -2.38777e-05
0.00097893 -0.000293843 -0.000293609 -1.29351e-05
0.00114843 -0.000344537 -0.000344524 -1.90268e-11
0.000989794 -0.000297106 -0.000296866 -1.29353e-05
0.000984362 -0.000295474 -0.000295237 -1.29352e-05
0.00081579 -0.000245032 -0.000244611 -2.38776e-05
0.00080674 -0.00024231 -0.000241899 -2.38773e-05
0.00112941 -0.000338831 -0.000338819 -1.87105e-11
0.00114209 -0.000342635 -0.000342623 -1.89001e-11
0.000811265 -0.000243671 -0.000243255 -2.38774e-05
0.000968066 -0.00029058 -0.000290351 -1.29349e-05
0.00113575 -0.000340733 -0.000340721 -1.87999e-11
0.00097893 -0.000293843 -0.000293609 -1.29351e-05
0.000973498 -0.000292211 -0.00029198 -1.2935e-05
0.00080674 -0.00024231 -0.000241899 -2.38773e-05
0.000797691 -0.000239589 -0.000239187 -2.3877e-05
0.00111673 -0.000335028 -0.000335016 -1.85052e-11
0.00112941 -0.000338831 -0.000338819 -1.87063e-11
0.000802216 -0.000240949 -0.000240543 -2.38771e-05
0.000957202 -0.000287317 -0.000287094 -1.29347e-05
0.00112307 -0.00033693 -0.000336917 -1.86036e-11
0.000968066 -0.00029058 -0.000290351 -1.29349e-05
0.000962634 -0.000288949 -0.000288722 -1.29348e-05
0.000797691 -0.000239589 -0.000239187 -2.3877e-05
0.000788641 -0.000236867 -0.000236474 -2.38767e-05
0.00110405 -0.000331224 -0.000331212 -1.83162e-11
0.00111673 -0.000335028 -0.000335016 -1.8505e-11
0.000793166 -0.000238228 -0.000237831 -2.38768e-05
0.000946338 -0.000284054 -0.000283836 -1.29346e-05
0.00111039 -0.000333126 -0.000333114 -1.84133e-11
0.000957202 -0.000287317 -0.000287094 -1.29347e-05
0.00095177 -0.000285686 -0.000285465 -1.29346e-05
0.000788641 -0.000236867 -0.000236474 -2.38767e-05
0.000779591 -0.000234146 -0.000233762 -2.38764e-05
0.00109137 -0.00032742 -0.000327409 -1.80774e-11
0.00110405 -0.000331224 -0.000331212 -1.83162e-11
0.000784116 -0.000235506 -0.000235118 -2.38765e-05
0.000935474 -0.000280791 -0.000280578 -1.29344e-05
0.00109771 -0.000329322 -0.000329311 -1.81853e-11
0.000946338 -0.000284054 -0.000283836 -1.29346e-05
0.000940906 -0.000282423 -0.000282207 -1.29345e-05
0.000779591 -0.000234146 -0.000233762 -2.38764e-05
0.000770541 -0.000231424 -0.00023105 -2.38761e-05
0.0010787 -0.000323616 -0.000323606 -1.78684e-11
0.00109137 -0.00032742 -0.000327409 -1.80774e-11
0.000775066 -0.000232785 -0.000232406 -2.38762e-05
0.00092461 -0.000277529 -0.000277321 -1.29342e-05
0.00108504 -0.000325518 -0.000325507 -1.79772e-11
0.000935474 -0.000280791 -0.000280578 -1.29344e-05
0.000930042 -0.00027916 -0.000278949 -1.29343e-05
0.000770541 -0.000231424 -0.00023105 -2.38761e-05
0.000761491 -0.000228703 -0.000228338 -2.38758e-05
0.00106602 -0.000319812 -0.000319802 -1.76603e-11
0.0010787 -0.000323616 -0.000323606 -1.78682e-11
0.000766016 -0.000230064 -0.000229694 -2.38759e-05
0.000913746 -0.000274266 -0.000274063 -1.2934e-05
0.00107236 -0.000321714 -0.000321704 -1.77595e-11
0.00092461 -0.000277529 -0.000277321 -1.29342e-05
0.000919178 -0.000275897 -0.000275692 -1.29341e-05
0.000761491 -0.000228703 -0.000228338 -2.38758e-05
0.000752441 -0.000225982 -0.000225625 -2.38755e-05
0.00105334 -0.000316009 -0.000315999 -1.74565e-11
0.00106602 -0.000319812 -0.000319802 -1.76829e-11
0.000756966 -0.000227343 -0.000226982 -2.38757e-05
0.000902882 -0.000271003 -0.000270805 -1.29339e-05
0.00105968 -0.000317911 -0.000317901 -1.75766e-11
0.000913746 -0.000274266 -0.000274063 -1.2934e-05
0.000908314 -0.000272635 -0.000272434 -1.29339e-05
0.000752441 -0.000225982 -0.000225625 -2.38755e-05
0.000743391 -0.000223261 -0.000222913 -2.38752e-05
0.00104066 -0.000312205 -0.000312196 -1.72485e-11
0.00105334 -0.000316009 -0.000315999 -1.74565e-11
0.000747916 -0.000224621 -0.000224269 -2.38754e-05
0.000892018 -0.000267741 -0.000267548 -1.29337e-05
0.001047 -0.000314107 -0.000314097 -1.73409e-11
0.000902882 -0.000271003 -0.000270805 -1.29339e-05
0.00089745 -0.000269372 -0.000269176 -1.29338e-05
0.000743391 -0.000223261 -0.000222913 -2.38752e-05
0.000734341 -0.00022054 -0.000220201 -2.38749e-05
0.00102798 -0.000308401 -0.000308392 -1.70239e-11
0.00104066 -0.000312205 -0.000312196 -1.72485e-11
0.000738866 -0.0002219 -0.000221557 -2.38751e-05
0.000881154 -0.000264478 -0.00026429 -1.29335e-05
0.00103432 -0.000310303 -0.000310294 -1.71454e-11
0.000892018 -0.000267741 -0.000267548 -1.29337e-05
0.000886586 -0.000266109 -0.000265919 -1.29336e-05
0.000734341 -0.00022054 -0.000220201 -2.38749e-05
0.000725291 -0.000217819 -0.000217488 -2.38746e-05
0.0010153 -0.000304597 -0.000304589 -1.68367e-11
0.00102798 -0.000308401 -0.000308392 -1.70463e-11
0.000729816 -0.000219179 -0.000218844 -2.38748e-05
0.00087029 -0.000261215 -0.000261032 -1.29333e-05
0.00102164 -0.000306499 -0.00030649 -1.69306e-11
0.000881154 -0.000264478 -0.00026429 -1.29335e-05
0.000875722 -0.000262847 -0.000262661 -1.29334e-05
0.000725291 -0.000217819 -0.000217488 -2.38746e-05
0.000716241 -0.000215098 -0.000214776 -2.38744e-05
0.00100263 -0.000300794 -0.000300785 -1.66222e-11
0.0010153 -0.000304597 -0.000304589 -1.68369e-11
0.000720766 -0.000216458 -0.000216132 -2.38745e-05
0.000859426 -0.000257953 -0.000257774 -1.29332e-05
0.00100897 -0.000302696 -0.000302687 -1.67274e-11
0.00087029 -0.000261215 -0.000261032 -1.29333e-05
0.000864858 -0.000259584 -0.000259403 -1.29333e-05
0.000716241 -0.000215098 -0.000214776 -2.38744e-05
0.00070719 -0.000212377 -0.000212063 -2.38741e-05
0.000989948 -0.00029699 -0.000296982 -1.64188e-11
0.00100263 -0.000300794 -0.000300785 -1.66222e-11
0.000711715 -0.000213737 -0.000213419 -2.38742e-05
0.000848562 -0.00025469 -0.000254517 -1.2933e-05
0.000996287 -0.000298892 -0.000298884 -1.65162e-11
0.000859426 -0.000257953 -0.000257774 -1.29332e-05
0.000853994 -0.000256322 -0.000256145 -1.29331e-05
0.00070719 -0.000212377 -0.000212063 -2.38741e-05
0.00069814 -0.000209656 -0.00020935 -2.38738e-05
0.00097727 -0.000293186 -0.000293179 -1.61976e-11
0.000989948 -0.00029699 -0.000296982 -1.64188e-11
0.000702665 -0.000211016 -0.000210707 -2.38739e-05
0.000837698 -0.000251428 -0.000251259 -1.29328e-05
0.000983609 -0.000295088 -0.000295081 -1.6303e-11
0.000848562 -0.00025469 -0.000254517 -1.2933e-05
0.00084313 -0.000253059 -0.000252888 -1.29329e-05
0.00069814 -0.000209656 -0.00020935 -2.38738e-05
0.00068909 -0.000206935 -0.000206638 -2.38735e-05
0.000964592 -0.000289383 -0.000289376 -1.5996e-11
0.00097727 -0.000293186 -0.000293179 -1.61976e-11
0.000693615 -0.000208295 -0.000207994 -2.38736e-05
0.000826834 -0.000248165 -0.000248001 -1.29327e-05
0.000970931 -0.000291284 -0.000291277 -1.61077e-11
0.000837698 -0.000251428 -0.000251259 -1.29328e-05
0.000832266 -0.000249797 -0.00024963 -1.29327e-05
0.00068909 -0.000206935 -0.000206638 -2.38735e-05
0.000680039 -0.000204214 -0.000203925 -2.38732e-05
0.000951914 -0.000285579 -0.000285572 -1.57883e-11
0.000964592 -0.000289383 -0.000289376 -1.59956e-11
0.000684564 -0.000205575 -0.000205281 -2.38734e-05
0.00081597 -0.000244903 -0.000244743 -1.29325e-05
0.000958253 -0.000287481 -0.000287474 -1.58991e-11
0.000826834 -0.000248165 -0.000248001 -1.29327e-05
0.000821402 -0.000246534 -0.000246372 -1.29326e-05
0.000680039 -0.000204214 -0.000203925 -2.38732e-05
0.000670989 -0.000201493 -0.000201212 -2.38729e-05
0.000939236 -0.000281775 -0.000281769 -1.55593e-11
0.000951914 -0.000285579 -0.000285572 -1.57883e-11
0.000675514 -0.000202854 -0.000202569 -2.38731e-05
0.000805106 -0.000241641 -0.000241485 -1.29323e-05
0.000945575 -0.000283677 -0.000283671 -1.56824e-11
0.00081597 -0.000244903 -0.000244743 -1.29325e-05
0.000810538 -0.000243272 -0.000243114 -1.29324e-05
0.000670989 -0.000201493 -0.000201212 -2.38729e-05
0.000661938 -0.000198773 -0.000198499 -2.38727e-05
0.000926558 -0.000277971 -0.000277966 -1.53415e-11
0.000939236 -0.000281775 -0.000281769 -1.55593e-11
0.000666463 -0.000200133 -0.000199856 -2.38728e-05
0.000794242 -0.000238378 -0.000238227 -1.29322e-05
0.000932897 -0.000279873 -0.000279867 -1.54672e-11
0.000805106 -0.000241641 -0.000241485 -1.29323e-05
0.000799674 -0.000240009 -0.000239856 -1.29322e-05
0.000661938 -0.000198773 -0.000198499 -2.38727e-05
0.000652887 -0.000196052 -0.000195787 -2.38724e-05
0.00091388 -0.000274168 -0.000274162 -1.51729e-11
0.000926558 -0.000277971 -0.000277966 -1.53511e-11
0.000657413 -0.000197412 -0.000197143 -2.38725e-05
0.000783378 -0.000235116 -0.000234969 -1.2932e-05
0.000920219 -0.00027607 -0.000276064 -1.52542e-11
0.000794242 -0.000238378 -0.000238227 -1.29322e-05
0.00078881 -0.000236747 -0.000236598 -1.29321e-05
0.000652887 -0.000196052 -0.000195787 -2.38724e-05
0.000643837 -0.000193332 -0.000193074 -2.38721e-05
0.000901202 -0.000270364 -0.000270359 -1.49712e-11
0.00091388 -0.000274168 -0.000274162 -1.51726e-11
0.000648362 -0.000194692 -0.00019443 -2.38722e-05
0.000772513 -0.000231854 -0.000231711 -1.29318e-05
0.000907541 -0.000272266 -0.000272261 -1.50626e-11
0.000783378 -0.000235116 -0.000234969 -1.2932e-05
0.000777946 -0.000233485 -0.00023334 -1.29319e-05
0.000643837 -0.000193332 -0.000193074 -2.38721e-05
0.000634786 -0.000190611 -0.000190361 -2.38718e-05
0.000888524 -0.00026656 -0.000266556 -1.47613e-11
0.000901202 -0.000270364 -0.000270359 -1.49712e-11
0.000639311 -0.000191971 -0.000191717 -2.3872e-05
0.000761649 -0.000228591 -0.000228453 -1.29317e-05
0.000894863 -0.000268462 -0.000268457 -1.48571e-11
0.000772513 -0.000231854 -0.000231711 -1.29318e-05
0.000767081 -0.000230223 -0.000230082 -1.29317e-05
0.000634786 -0.000190611 -0.000190361 -2.38718e-05
0.000625735 -0.000187891 -0.000187648 -2.38715e-05
0.000875846 -0.000262757 -0.000262752 -1.4551e-11
0.000888524 -0.00026656 -0.000266556 -1.47613e-11
0.000630261 -0.000189251 -0.000189004 -2.38717e-05
0.000750785 -0.000225329 -0.000225195 -1.29315e-05
0.000882185 -0.000264659 -0.000264654 -1.46522e-11
0.000761649 -0.000228591 -0.000228453 -1.29317e-05
0.000756217 -0.00022696 -0.000226824 -1.29316e-05
0.000625735 -0.000187891 -0.000187648 -2.38715e-05
0.000616684 -0.00018517 -0.000184935 -2.38713e-05
0.000863168 -0.000258953 -0.000258949 -1.43444e-11
0.000875846 -0.000262757 -0.000262752 -1.45512e-11
0.00062121 -0.00018653 -0.000186291 -2.38714e-05
0.000739921 -0.000222067 -0.000221937 -1.29313e-05
0.000869507 -0.000260855 -0.000260851 -1.44463e-11
0.000750785 -0.000225329 -0.000225195 -1.29315e-05
0.000745353 -0.000223698 -0.000223566 -1.29314e-05
0.000616684 -0.00018517 -0.000184935 -2.38713e-05
0.000607633 -0.00018245 -0.000182222 -2.3871e-05
0.00085049 -0.000255149 -0.000255146 -1.41275e-11
0.000863168 -0.000258953 -0.000258949 -1.43275e-11
0.000612159 -0.00018381 -0.000183578 -2.38711e-05
0.000729057 -0.000218805 -0.000218679 -1.29312e-05
0.000856829 -0.000257051 -0.000257048 -1.42407e-11
0.000739921 -0.000222067 -0.000221937 -1.29313e-05
0.000734489 -0.000220436 -0.000220308 -1.29313e-05
0.000607633 -0.00018245 -0.000182222 -2.3871e-05
0.000598582 -0.00017973 -0.000179508 -2.38707e-05
0.000837812 -0.000251346 -0.000251343 -1.39153e-11
0.00085049 -0.000255149 -0.000255146 -1.41275e-11
0.000603108 -0.00018109 -0.000180865 -2.38709e-05
0.000718192 -0.000215543 -0.000215421 -1.2931e-05
0.000844151 -0.000253248 -0.000253244 -1.40206e-11
0.000729057 -0.000218805 -0.000218679 -1.29312e-05
0.000723624 -0.000217174 -0.00021705 -1.29311e-05
0.000598582 -0.00017973 -0.000179508 -2.38707e-05
0.000589531 -0.000177009 -0.000176795 -2.38705e-05
0.000825134 -0.000247542 -0.000247539 -1.37112e-11
0.000837812 -0.000251346 -0.000251343 -1.39153e-11
0.000594057 -0.00017837 -0.000178152 -2.38706e-05
0.000707328 -0.000212281 -0.000212163 -1.29308e-05
0.000831473 -0.000249444 -0.000249441 -1.38041e-11
0.000718192 -0.000215543 -0.000215421 -1.2931e-05
0.00071276 -0.000213912 -0.000213792 -1.29309e-05
0.000589531 -0.000177009 -0.000176795 -2.38705e-05
0.00058048 -0.000174289 -0.000174082 -2.38702e-05
0.000812456 -0.000243738 -0.000243736 -1.34793e-11
0.000825134 -0.000247542 -0.000247539 -1.3721e-11
0.000585006 -0.000175649 -0.000175439 -2.38703e-05
0.000696464 -0.000209019 -0.000208905 -1.29307e-05
0.000818795 -0.00024564 -0.000245638 -1.36232e-11
0.000707328 -0.000212281 -0.000212163 -1.29308e-05
0.000701896 -0.00021065 -0.000210534 -1.29308e-05
0.00058048 -0.000174289 -0.000174082 -2.38702e-05
0.000571429 -0.000171569 -0.000171369 -2.38699e-05
0.000799778 -0.000239935 -0.000239933 -1.32946e-11
0.000812456 -0.000243738 -0.000243736 -1.34796e-11
0.000575955 -0.000172929 -0.000172725 -2.38701e-05
0.000685599 -0.000205757 -0.000205647 -1.29305e-05
0.000806117 -0.000241837 -0.000241835 -1.33884e-11
0.000696464 -0.000209019 -0.000208905 -1.29307e-05
0.000691031 -0.000207388 -0.000207276 -1.29306e-05
0.000571429 -0.000171569 -0.000171369 -2.38699e-05
0.000562378 -0.000168849 -0.000168655 -2.38697e-05
0.0007871 -0.000236131 -0.00023613 -1.30598e-11
0.000799778 -0.000239935 -0.000239933 -1.32946e-11
0.000566904 -0.000170209 -0.000170012 -2.38698e-05
0.000674735 -0.000202495 -0.000202389 -1.29304e-05
0.000793439 -0.000238033 -0.000238031 -1.31508e-11
0.000685599 -0.000205757 -0.000205647 -1.29305e-05
0.000680167 -0.000204126 -0.000204018 -1.29304e-05
0.000562378 -0.000168849 -0.000168655 -2.38697e-05
0.000553327 -0.000166129 -0.000165942 -2.38694e-05
0.000774422 -0.000232328 -0.000232326 -1.28781e-11
0.0007871 -0.000236131 -0.00023613 -1.30598e-11
0.000557852 -0.000167489 -0.000167299 -2.38695e-05
0.00066387 -0.000199233 -0.00019913 -1.29302e-05
0.000780761 -0.000234229 -0.000234228 -1.29538e-11
0.000674735 -0.000202495 -0.000202389 -1.29304e-05
0.000669303 -0.000200864 -0.00020076 -1.29303e-05
0.000553327 -0.000166129 -0.000165942 -2.38694e-05
0.000544275 -0.000163409 -0.000163228 -2.38691e-05
0.000761745 -0.000228524 -0.000228523 -1.26786e-11
0.000774422 -0.000232328 -0.000232326 -1.28783e-11
0.000548801 -0.000164769 -0.000164585 -2.38693e-05
0.000653006 -0.000195971 -0.000195872 -1.29301e-05
0.000768084 -0.000230426 -0.000230425 -1.27617e-11
0.00066387 -0.000199233 -0.00019913 -1.29302e-05
0.000658438 -0.000197602 -0.000197501 -1.29301e-05
0.000544275 -0.000163409 -0.000163228 -2.38691e-05
0.000535224 -0.000160689 -0.000160515 -2.38689e-05
0.000749067 -0.00022472 -0.00022472 -1.24449e-11
0.000761745 -0.000228524 -0.000228523 -1.26749e-11
0.00053975 -0.000162049 -0.000161872 -2.3869e-05
0.000642141 -0.000192709 -0.000192614 -1.29299e-05
0.000755406 -0.000226622 -0.000226622 -1.25579e-11
0.000653006 -0.000195971 -0.000195872 -1.29301e-05
0.000647574 -0.00019434 -0.000194243 -1.293e-05
0.000535224 -0.000160689 -0.000160515 -2.38689e-05
0.000526172 -0.000157969 -0.000157801 -2.38686e-05
0.000736389 -0.000220917 -0.000220917 -1.2228e-11
0.000749067 -0.00022472 -0.00022472 -1.24449e-11
0.000530698 -0.000159329 -0.000159158 -2.38687e-05
0.000631277 -0.000189447 -0.000189356 -1.29297e-05
0.000742728 -0.000222819 -0.000222818 -1.23248e-11
0.000642141 -0.000192709 -0.000192614 -1.29299e-05
0.000636709 -0.000191078 -0.000190985 -1.29298e-05
0.000526172 -0.000157969 -0.000157801 -2.38686e-05
0.000517121 -0.00015525 -0.000155088 -2.38684e-05
0.000723711 -0.000217113 -0.000217113 -1.20342e-11
0.000736389 -0.000220917 -0.000220917 -1.2228e-11
0.000521647 -0.000156609 -0.000156445 -2.38685e-05
0.000620412 -0.000186185 -0.000186097 -1.29296e-05
0.00073005 -0.000219015 -0.000219015 -1.21058e-11
0.000631277 -0.000189447 -0.000189356 -1.29297e-05
0.000625844 -0.000187816 -0.000187726 -1.29297e-05
0.000517121 -0.00015525 -0.000155088 -2.38684e-05
0.000508069 -0.00015253 -0.000152374 -2.38681e-05
0.000711033 -0.000213309 -0.00021331 -1.18165e-11
0.000723711 -0.000217113 -0.000217113 -1.20173e-11
0.000512595 -0.00015389 -0.000153731 -2.38682e-05
0.000609548 -0.000182923 -0.000182839 -1.29294e-05
0.000717372 -0.000215211 -0.000215212 -1.19193e-11
0.000620412 -0.000186185 -0.000186097 -1.29296e-05
0.00061498 -0.000184554 -0.000184468 -1.29295e-05
0.000508069 -0.00015253 -0.000152374 -2.38681e-05
0.000499018 -0.00014981 -0.00014966 -2.38679e-05
0.000698355 -0.000209506 -0.000209507 -1.163e-11
0.000711033 -0.000213309 -0.00021331 -1.18166e-11
0.000503543 -0.00015117 -0.000151017 -2.3868e-05
0.000598683 -0.000179661 -0.000179581 -1.29293e-05
0.000704694 -0.000211408 -0.000211409 -1.17129e-11
0.000609548 -0.000182923 -0.000182839 -1.29294e-05
0.000604115 -0.000181292 -0.00018121 -1.29294e-05
0.000499018 -0.00014981 -0.00014966 -2.38679e-05
0.000489966 -0.00014709 -0.000146947 -2.38676e-05
0.000685677 -0.000205702 -0.000205704 -1.14008e-11
0.000698355 -0.000209506 -0.000209507 -1.163e-11
0.000494492 -0.00014845 -0.000148303 -2.38677e-05
0.000587818 -0.0001764 -0.000176322 -1.29291e-05
0.000692016 -0.000207604 -0.000207605 -1.15197e-11
0.000598683 -0.000179661 -0.000179581 -1.29293e-05
0.000593251 -0.000178031 -0.000177951 -1.29292e-05
0.000489966 -0.00014709 -0.000146947 -2.38676e-05
0.000480914 -0.000144371 -0.000144233 -2.38674e-05
0.000673 -0.000201899 -0.0002019 -1.11893e-11
0.000685677 -0.000205702 -0.000205704 -1.14008e-11
0.00048544 -0.000145731 -0.00014559 -2.38675e-05
0.000576954 -0.000173138 -0.000173064 -1.2929e-05
0.000679339 -0.0002038 -0.000203802 -1.12828e-11
0.000587818 -0.0001764 -0.000176322 -1.29291e-05
0.000582386 -0.000174769 -0.000174693 -1.2929e-05
0.000480914 -0.000144371 -0.000144233 -2.38674e-05
0.000471862 -0.000141651 -0.000141519 -2.38671e-05
0.000660322 -0.000198095 -0.000198097 -1.09893e-11
0.000673 -0.000201899 -0.0002019 -1.11887e-11
0.000476388 -0.000143011 -0.000142876 -2.38672e-05
0.000566089 -0.000169876 -0.000169805 -1.29288e-05
0.000666661 -0.000199997 -0.000199999 -1.11021e-11
0.000576954 -0.000173138 -0.000173064 -1.2929e-05
0.000571521 -0.000171507 -0.000171435 -1.29289e-05
0.000471862 -0.000141651 -0.000141519 -2.38671e-05
0.00046281 -0.000138932 -0.000138805 -2.38669e-05
0.000647644 -0.000194291 -0.000194294 -1.07677e-11
0.000660322 -0.000198095 -0.000198097 -1.10021e-11
0.000467336 -0.000140292 -0.000140162 -2.3867e-05
0.000555224 -0.000166615 -0.000166547 -1.29287e-05
0.000653983 -0.000196193 -0.000196196 -1.08662e-11
0.000566089 -0.000169876 -0.000169805 -1.29288e-05
0.000560656 -0.000168245 -0.000168176 -1.29287e-05
0.00046281 -0.000138932 -0.000138805 -2.38669e-05
0.000453758 -0.000136212 -0.000136091 -2.38666e-05
0.000634966 -0.000190488 -0.000190491 -1.05519e-11
0.000647644 -0.000194291 -0.000194294 -1.07677e-11
0.000458284 -0.000137572 -0.000137448 -2.38667e-05
0.000544359 -0.000163353 -0.000163288 -1.29285e-05
0.000641305 -0.00019239 -0.000192392 -1.06886e-11
0.000555224 -0.000166615 -0.000166547 -1.29287e-05
0.000549792 -0.000164984 -0.000164918 -1.29286e-05
0.000453758 -0.000136212 -0.000136091 -2.38666e-05
0.000444706 -0.000133493 -0.000133377 -2.38664e-05
0.000622288 -0.000186684 -0.000186687 -1.03773e-11
0.000634966 -0.000190488 -0.000190491 -1.05252e-11
0.000449232 -0.000134853 -0.000134734 -2.38665e-05
0.000533494 -0.000160091 -0.00016003 -1.29284e-05
0.000628627 -0.000188586 -0.000188589 -1.04603e-11
0.000544359 -0.000163353 -0.000163288 -1.29285e-05
0.000538927 -0.000161722 -0.000161659 -1.29285e-05
0.000444706 -0.000133493 -0.000133377 -2.38664e-05
0.000435654 -0.000130774 -0.000130663 -2.38661e-05
0.00060961 -0.000182881 -0.000182884 -1.01242e-11
0.000622288 -0.000186684 -0.000186687 -1.03773e-11
0.00044018 -0.000132133 -0.00013202 -2.38662e-05
0.00052263 -0.00015683 -0.000156771 -1.29282e-05
0.000615949 -0.000184782 -0.000184786 -1.02816e-11
0.000533494 -0.000160091 -0.00016003 -1.29284e-05
0.000528062 -0.000158461 -0.000158401 -1.29283e-05
0.000435654 -0.000130774 -0.000130663 -2.38661e-05
0.000426602 -0.000128054 -0.000127949 -2.38659e-05
0.000596933 -0.000179077 -0.000179081 -9.93668e-12
0.00060961 -0.000182881 -0.000182884 -1.01242e-11
0.000431128 -0.000129414 -0.000129306 -2.3866e-05
0.000511765 -0.000153568 -0.000153513 -1.29281e-05
0.000603272 -0.000180979 -0.000180983 -1.00344e-11
0.00052263 -0.00015683 -0.000156771 -1.29282e-05
0.000517197 -0.000155199 -0.000155142 -1.29282e-05
0.000426602 -0.000128054 -0.000127949 -2.38659e-05
0.000417549 -0.000125335 -0.000125235 -2.38656e-05
0.000584255 -0.000175273 -0.000175278 -9.7245e-12
0.000596933 -0.000179077 -0.000179081 -9.93704e-12
0.000422075 -0.000126695 -0.000126592 -2.38658e-05
0.0005009 -0.000150307 -0.000150254 -1.29279e-05
0.000590594 -0.000177175 -0.000177179 -9.82705e-12
0.000511765 -0.000153568 -0.000153513 -1.29281e-05
0.000506332 -0.000151938 -0.000151883 -1.2928e-05
0.000417549 -0.000125335 -0.000125235 -2.38656e-05
0.000408497 -0.000122616 -0.00012252 -2.38654e-05
0.000571577 -0.00017147 -0.000171475 -9.53207e-12
0.000584255 -0.000175273 -0.000175278 -9.72078e-12
0.000413023 -0.000123976 -0.000123878 -2.38655e-05
0.000490035 -0.000147045 -0.000146995 -1.29278e-05
0.000577916 -0.000173372 -0.000173376 -9.6056e-12
0.0005009 -0.000150307 -0.000150254 -1.29279e-05
0.000495467 -0.000148676 -0.000148625 -1.29279e-05
0.000408497 -0.000122616 -0.00012252 -2.38654e-05
0.000399444 -0.000119897 -0.000119806 -2.38652e-05
0.000558899 -0.000167666 -0.000167671 -9.32187e-12
0.000571577 -0.00017147 -0.000171475 -9.53207e-12
0.000403971 -0.000121256 -0.000121163 -2.38653e-05
0.00047917 -0.000143784 -0.000143737 -1.29277e-05
0.000565238 -0.000169568 -0.000169573 -9.39304e-12
0.000490035 -0.000147045 -0.000146995 -1.29278e-05
0.000484602 -0.000145415 -0.000145366 -1.29277e-05
0.000399444 -0.000119897 -0.000119806 -2.38652e-05
0.000390392 -0.000117178 -0.000117092 -2.38649e-05
0.000546221 -0.000163863 -0.000163868 -9.10825e-12
0.000558899 -0.000167666 -0.000167671 -9.32187e-12
0.000394918 -0.000118537 -0.000118449 -2.38651e-05
0.000468304 -0.000140522 -0.000140478 -1.29275e-05
0.00055256 -0.000165764 -0.00016577 -9.16844e-12
0.00047917 -0.000143784 -0.000143737 -1.29277e-05
0.000473737 -0.000142153 -0.000142107 -1.29276e-05
0.000390392 -0.000117178 -0.000117092 -2.38649e-05
0.000381339 -0.000114459 -0.000114377 -2.38647e-05
0.000533543 -0.000160059 -0.000160065 -8.89201e-12
0.000546221 -0.000163863 -0.000163868 -9.10802e-12
0.000385866 -0.000115818 -0.000115735 -2.38648e-05
0.000457439 -0.000137261 -0.000137219 -1.29274e-05
0.000539882 -0.000161961 -0.000161966 -9.01106e-12
0.000468304 -0.000140522 -0.000140478 -1.29275e-05
0.000462872 -0.000138892 -0.000138849 -1.29274e-05
0.000381339 -0.000114459 -0.000114377 -2.38647e-05
0.000372287 -0.00011174 -0.000111663 -2.38645e-05
0.000520866 -0.000156255 -0.000156261 -8.70739e-12
0.000533543 -0.000160059 -0.000160065 -8.89236e-12
0.000376813 -0.000113099 -0.00011302 -2.38646e-05
0.000446574 -0.000134 -0.000133961 -1.29272e-05
0.000527204 -0.000158157 -0.000158163 -8.79422e-12
0.000457439 -0.000137261 -0.000137219 -1.29274e-05
0.000452007 -0.00013563 -0.00013559 -1.29273e-05
0.000372287 -0.00011174 -0.000111663 -2.38645e-05
0.000363234 -0.000109021 -0.000108948 -2.38643e-05
0.000508188 -0.000152452 -0.000152458 -8.46598e-12
0.000520866 -0.000156255 -0.000156261 -8.70739e-12
0.00036776 -0.00011038 -0.000110306 -2.38644e-05
0.000435709 -0.000130738 -0.000130702 -1.29271e-05
0.000514527 -0.000154354 -0.00015436 -8.53379e-12
0.000446574 -0.000134 -0.000133961 -1.29272e-05
0.000441142 -0.000132369 -0.000132331 -1.29272e-05
0.000363234 -0.000109021 -0.000108948 -2.38643e-05
0.000354181 -0.000106302 -0.000106234 -2.3864e-05
0.00049551 -0.000148648 -0.000148655 -8.21711e-12
0.000508188 -0.000152452 -0.000152458 -8.46598e-12
0.000358707 -0.000107661 -0.000107591 -2.38641e-05
0.000424844 -0.000127477 -0.000127443 -1.2927e-05
0.000501849 -0.00015055 -0.000150557 -8.35104e-12
0.000435709 -0.000130738 -0.000130702 -1.29271e-05
0.000430276 -0.000129108 -0.000129072 -1.2927e-05
0.000354181 -0.000106302 -0.000106234 -2.3864e-05
0.000345128 -0.000103583 -0.000103519 -2.38638e-05
0.000482832 -0.000144845 -0.000144852 -8.05842e-12
0.00049551 -0.000148648 -0.000148655 -8.21711e-12
0.000349655 -0.000104943 -0.000104877 -2.38639e-05
0.000413978 -0.000124216 -0.000124184 -1.29268e-05
0.000489171 -0.000146746 -0.000146753 -8.15849e-12
0.000424844 -0.000127477 -0.000127443 -1.2927e-05
0.000419411 -0.000125846 -0.000125813 -1.29269e-05
0.000345128 -0.000103583 -0.000103519 -2.38638e-05
0.000336075 -0.000100864 -0.000100805 -2.38636e-05
0.000470154 -0.000141041 -0.000141048 -7.81689e-12
0.000482832 -0.000144845 -0.000144852 -8.05462e-12
0.000340602 -0.000102224 -0.000102162 -2.38637e-05
0.000403113 -0.000120954 -0.000120925 -1.29267e-05
0.000476493 -0.000142943 -0.00014295 -7.95309e-12
0.000413978 -0.000124216 -0.000124184 -1.29268e-05
0.000408546 -0.000122585 -0.000122555 -1.29267e-05
0.000336075 -0.000100864 -0.000100805 -2.38636e-05
0.000327022 -9.81457e-05 -9.80898e-05 -2.38634e-05
0.000457476 -0.000137237 -0.000137245 -7.59495e-12
0.000470154 -0.000141041 -0.000141048 -7.81689e-12
0.000331549 -9.9505e-05 -9.94472e-05 -2.38635e-05
0.000392247 -0.000117693 -0.000117666 -1.29265e-05
0.000463815 -0.000139139 -0.000139147 -7.72434e-12
0.000403113 -0.000120954 -0.000120925 -1.29267e-05
0.00039768 -0.000119324 -0.000119296 -1.29266e-05
0.000327022 -9.81457e-05 -9.80898e-05 -2.38634e-05
0.000317969 -9.5427e-05 -9.53751e-05 -2.38631e-05
0.000444798 -0.000133434 -0.000133442 -7.41952e-12
0.000457476 -0.000137237 -0.000137245 -7.59495e-12
0.000322495 -9.67863e-05 -9.67325e-05 -2.38633e-05
0.000381382 -0.000114432 -0.000114407 -1.29264e-05
0.000451137 -0.000135336 -0.000135344 -7.51041e-12
0.000392247 -0.000117693 -0.000117666 -1.29265e-05
0.000386815 -0.000116062 -0.000116037 -1.29265e-05
0.000317969 -9.5427e-05 -9.53751e-05 -2.38631e-05
0.000308916 -9.27084e-05 -9.26602e-05 -2.38629e-05
0.00043212 -0.00012963 -0.000129639 -7.18566e-12
0.000444798 -0.000133434 -0.000133442 -7.39237e-12
0.000313442 -9.40677e-05 -9.40177e-05 -2.3863e-05
0.000370516 -0.000111171 -0.000111148 -1.29263e-05
0.000438459 -0.000131532 -0.00013154 -7.31352e-12
0.000381382 -0.000114432 -0.000114407 -1.29264e-05
0.000375949 -0.000112801 -0.000112778 -1.29263e-05
0.000308916 -9.27084e-05 -9.26602e-05 -2.38629e-05
0.000299862 -8.99898e-05 -8.99453e-05 -2.38627e-05
0.000419442 -0.000125826 -0.000125835 -6.93538e-12
0.00043212 -0.00012963 -0.000129639 -7.18566e-12
0.000304389 -9.13491e-05 -9.13028e-05 -2.38628e-05
0.000359651 -0.000107909 -0.000107889 -1.29261e-05
0.000425781 -0.000127728 -0.000127737 -7.0837e-12
0.000370516 -0.000111171 -0.000111148 -1.29263e-05
0.000365084 -0.00010954 -0.000109519 -1.29262e-05
0.000299862 -8.99898e-05 -8.99453e-05 -2.38627e-05
0.000290809 -8.72712e-05 -8.72304e-05 -2.38625e-05
0.000406764 -0.000122023 -0.000122032 -6.68175e-12
0.000419442 -0.000125826 -0.000125835 -6.93538e-12
0.000295336 -8.86305e-05 -8.85879e-05 -2.38626e-05
0.000348785 -0.000104648 -0.00010463 -1.2926e-05
0.000413103 -0.000123925 -0.000123934 -6.88091e-12
0.000359651 -0.000107909 -0.000107889 -1.29261e-05
0.000354218 -0.000106279 -0.00010626 -1.29261e-05
0.000290809 -8.72712e-05 -8.72304e-05 -2.38625e-05
0.000281755 -8.45527e-05 -8.45154e-05 -2.38623e-05
0.000394086 -0.000118219 -0.000118229 -6.42306e-12
0.000406764 -0.000122023 -0.000122032 -6.68175e-12
0.000286282 -8.5912e-05 -8.58729e-05 -2.38624e-05
0.00033792 -0.000101387 -0.000101371 -1.29259e-05
0.000400425 -0.000120121 -0.00012013 -6.5496e-12
0.000348785 -0.000104648 -0.00010463 -1.2926e-05
0.000343352 -0.000103018 -0.000103001 -1.2926e-05
0.000281755 -8.45527e-05 -8.45154e-05 -2.38623e-05
0.000272702 -8.18343e-05 -8.18003e-05 -2.38621e-05
0.000381408 -0.000114416 -0.000114425 -6.16856e-12
0.000394086 -0.000118219 -0.000118229 -6.42306e-12
0.000277229 -8.31935e-05 -8.31579e-05 -2.38622e-05
0.000327054 -9.8126e-05 -9.8112e-05 -1.29258e-05
0.000387747 -0.000116317 -0.000116327 -6.29856e-12
0.00033792 -0.000101387 -0.000101371 -1.29259e-05
0.000332487 -9.97565e-05 -9.97415e-05 -1.29258e-05
0.000272702 -8.18343e-05 -8.18003e-05 -2.38621e-05
0.000263648 -7.91159e-05 -7.90852e-05 -2.38619e-05
0.00036873 -0.000110612 -0.000110622 -5.77799e-12
0.000381408 -0.000114416 -0.000114425 -6.13799e-12
0.000268175 -8.04751e-05 -8.04428e-05 -2.3862e-05
0.000316188 -9.48649e-05 -9.48528e-05 -1.29256e-05
0.000375069 -0.000112514 -0.000112524 -6.03292e-12
0.000327054 -9.8126e-05 -9.8112e-05 -1.29258e-05
0.000321621 -9.64954e-05 -9.64824e-05 -1.29257e-05
0.000263648 -7.91159e-05 -7.90852e-05 -2.38619e-05
0.000254594 -7.63976e-05 -7.637e-05 -2.38617e-05
0.000356052 -0.000106808 -0.000106819 -5.45026e-12
0.00036873 -0.000110612 -0.000110622 -5.77799e-12
0.000259121 -7.77567e-05 -7.77276e-05 -2.38618e-05
0.000305322 -9.16038e-05 -9.15936e-05 -1.29255e-05
0.000362391 -0.00010871 -0.00010872 -5.63716e-12
0.000316188 -9.48649e-05 -9.48528e-05 -1.29256e-05
0.000310755 -9.32343e-05 -9.32232e-05 -1.29256e-05
0.000254594 -7.63976e-05 -7.637e-05 -2.38617e-05
0.00024554 -7.36793e-05 -7.36548e-05 -2.38615e-05
0.000343374 -0.000103005 -0.000103015 -5.02583e-12
0.000356052 -0.000106808 -0.000106819 -5.45026e-12
0.000250067 -7.50384e-05 -7.50124e-05 -2.38616e-05
0.000294456 -8.83428e-05 -8.83344e-05 -1.29254e-05
0.000349713 -0.000104906 -0.000104917 -5.22326e-12
0.000305322 -9.16038e-05 -9.15936e-05 -1.29255e-05
0.000299889 -8.99733e-05 -8.9964e-05 -1.29255e-05
0.00024554 -7.36793e-05 -7.36548e-05 -2.38615e-05
0.000236486 -7.0961e-05 -7.09395e-05 -2.38614e-05
0.000330696 -9.92009e-05 -9.92121e-05 -4.45621e-12
0.000343374 -0.000103005 -0.000103015 -4.99533e-12
0.000241013 -7.23201e-05 -7.22971e-05 -2.38615e-05
0.00028359 -8.50817e-05 -8.50751e-05 -1.29253e-05
0.000337035 -0.000101103 -0.000101114 -4.73251e-12
0.000294456 -8.83428e-05 -8.83344e-05 -1.29254e-05
0.000289023 -8.67122e-05 -8.67047e-05 -1.29254e-05
0.000236486 -7.0961e-05 -7.09395e-05 -2.38614e-05
0.000227432 -6.82428e-05 -6.82241e-05 -2.38612e-05
0.000318017 -9.53972e-05 -9.54087e-05 -3.85679e-12
0.000330696 -9.92009e-05 -9.92121e-05 -4.45656e-12
0.000231959 -6.96019e-05 -6.95818e-05 -2.38613e-05
0.000272724 -8.18207e-05 -8.18158e-05 -1.29252e-05
0.000324357 -9.7299e-05 -9.73104e-05 -4.1081e-12
0.00028359 -8.50817e-05 -8.50751e-05 -1.29253e-05
0.000278157 -8.34512e-05 -8.34454e-05 -1.29253e-05
0.000227432 -6.82428e-05 -6.82241e-05 -2.38612e-05
0.000218378 -6.55247e-05 -6.55087e-05 -2.38611e-05
0.000305339 -9.15935e-05 -9.16053e-05 -2.99367e-12
0.000318017 -9.53972e-05 -9.54087e-05 -3.85679e-12
0.000222905 -6.68837e-05 -6.68664e-05 -2.38612e-05
0.000261858 -7.85597e-05 -7.85564e-05 -1.29252e-05
0.000311678 -9.34953e-05 -9.3507e-05 -3.43553e-12
0.000272724 -8.18207e-05 -8.18158e-05 -1.29252e-05
0.000267291 -8.01902e-05 -8.01861e-05 -1.29252e-05
0.000218378 -6.55247e-05 -6.55087e-05 -2.38611e-05
0.000209324 -6.28066e-05 -6.27932e-05 -2.38611e-05
0.000292661 -8.77897e-05 -8.78019e-05 -2.16386e-12
0.000305339 -9.15935e-05 -9.16053e-05 -2.99367e-12
0.000213851 -6.41656e-05 -6.41509e-05 -2.38611e-05
0.000250992 -7.52987e-05 -7.5297e-05 -1.29251e-05
0.000299 -8.96916e-05 -8.97036e-05 -2.50404e-12
0.000261858 -7.85597e-05 -7.85564e-05 -1.29252e-05
0.000256425 -7.69292e-05 -7.69267e-05 -1.29251e-05
0.000209324 -6.28066e-05 -6.27932e-05 -2.38611e-05
0.00020027 -6.00885e-05 -6.00776e-05 -2.3861e-05
0.000279982 -8.3986e-05 -8.39984e-05 -5.6368e-13
0.000292661 -8.77897e-05 -8.78019e-05 -2.16385e-12
0.000204797 -6.14475e-05 -6.14354e-05 -2.3861e-05
0.000240125 -7.20377e-05 -7.20375e-05 -1.29251e-05
0.000286322 -8.58878e-05 -8.59002e-05 -1.3026e-12
0.000250992 -7.52987e-05 -7.5297e-05 -1.29251e-05
0.000245559 -7.36682e-05 -7.36673e-05 -1.29251e-05
0.00020027 -6.00885e-05 -6.00776e-05 -2.3861e-05
0.000191215 -5.73705e-05 -5.7362e-05 -2.3861e-05
0.000267304 -8.01821e-05 -8.01949e-05 4.67653e-13
0.000279982 -8.3986e-05 -8.39984e-05 -5.73594e-13
0.000195742 -5.87295e-05 -5.87198e-05 -2.3861e-05
0.000229259 -6.87768e-05 -6.8778e-05 -1.29251e-05
0.000273643 -8.2084e-05 -8.20967e-05 9.9575e-14
0.000240125 -7.20377e-05 -7.20375e-05 -1.29251e-05
0.000234692 -7.04073e-05 -7.04078e-05 -1.29251e-05
0.000191215 -5.73705e-05 -5.7362e-05 -2.3861e-05
0.000182161 -5.46525e-05 -5.46463e-05 -2.38611e-05
0.000254625 -7.63782e-05 -7.63913e-05 2.98156e-12
0.000267304 -8.01821e-05 -8.01949e-05 4.67653e-13
0.000186688 -5.60115e-05 -5.60042e-05 -2.3861e-05
0.000218392 -6.55158e-05 -6.55184e-05 -1.29252e-05
0.000260964 -7.82802e-05 -7.82931e-05 2.50259e-12
0.000229259 -6.87768e-05 -6.8778e-05 -1.29251e-05
0.000223825 -6.71463e-05 -6.71482e-05 -1.29252e-05
0.000182161 -5.46525e-05 -5.46463e-05 -2.38611e-05
0.000173106 -5.19346e-05 -5.19306e-05 -2.38611e-05
0.000241945 -7.25742e-05 -7.25877e-05 2.75841e-12
0.000254625 -7.63782e-05 -7.63913e-05 2.98156e-12
0.000177633 -5.32936e-05 -5.32884e-05 -2.38611e-05
0.000207525 -6.22548e-05 -6.22587e-05 -1.29253e-05
0.000248285 -7.44762e-05 -7.44895e-05 2.48133e-12
0.000218392 -6.55158e-05 -6.55184e-05 -1.29252e-05
0.000212959 -6.38853e-05 -6.38886e-05 -1.29253e-05
0.000173106 -5.19346e-05 -5.19306e-05 -2.38611e-05
0.000164051 -4.92167e-05 -4.92148e-05 -2.38612e-05
0.000229266 -6.87701e-05 -6.87839e-05 2.31884e-12
0.000241945 -7.25742e-05 -7.25877e-05 2.73551e-12
0.000168579 -5.05756e-05 -5.05727e-05 -2.38612e-05
0.000196658 -5.89938e-05 -5.8999e-05 -1.29255e-05
0.000235606 -7.06722e-05 -7.06858e-05 7.72755e-12
0.000207525 -6.22548e-05 -6.22587e-05 -1.29253e-05
0.000202092 -6.06243e-05 -6.06289e-05 -1.29254e-05
0.000164051 -4.92167e-05 -4.92148e-05 -2.38612e-05
0.000154997 -4.64988e-05 -4.64991e-05 -2.38611e-05
0.000216586 -6.49658e-05 -6.49799e-05 -7.00559e-12
0.000229266 -6.87701e-05 -6.87839e-05 2.31884e-12
0.000159524 -4.78577e-05 -4.78569e-05 -2.38612e-05
0.000185791 -5.57328e-05 -5.57392e-05 -1.29256e-05
0.000222926 -6.6868e-05 -6.68819e-05 -7.62542e-12
0.000196658 -5.89938e-05 -5.8999e-05 -1.29255e-05
0.000191224 -5.73633e-05 -5.73691e-05 -1.29256e-05
0.000154997 -4.64988e-05 -4.64991e-05 -2.38611e-05
0.000145942 -4.37807e-05 -4.37835e-05 -2.38605e-05
0.000203905 -6.11613e-05 -6.11759e-05 -4.27398e-11
0.000216586 -6.49658e-05 -6.49799e-05 -7.00559e-12
0.000150469 -4.51398e-05 -4.51413e-05 -2.38609e-05
0.000174924 -5.24717e-05 -5.24794e-05 -1.29256e-05
0.000210245 -6.30636e-05 -6.30779e-05 3.57644e-12
0.000185791 -5.57328e-05 -5.57392e-05 -1.29256e-05
0.000180357 -5.41022e-05 -5.41093e-05 -1.29257e-05
0.000145942 -4.37807e-05 -4.37835e-05 -2.38605e-05
0.000136888 -4.10621e-05 -4.10684e-05 -2.38586e-05
0.000191224 -5.73567e-05 -5.73716e-05 -9.08201e-11
0.000203905 -6.11613e-05 -6.11759e-05 -4.27398e-11
0.000141415 -4.24215e-05 -4.24259e-05 -2.38598e-05
0.000164057 -4.92107e-05 -4.92198e-05 -1.2925e-05
0.000197564 -5.92591e-05 -5.92737e-05 -1.02911e-10
0.000174924 -5.24717e-05 -5.24794e-05 -1.29256e-05
0.00016949 -5.08412e-05 -5.08496e-05 -1.29254e-05
0.000136888 -4.10621e-05 -4.10684e-05 -2.38586e-05
0.000127835 -3.83422e-05 -3.83541e-05 -2.38541e-05
0.000178543 -5.3552e-05 -5.35675e-05 -3.38944e-10
0.000191224 -5.73567e-05 -5.73716e-05 -9.08199e-11
0.000132362 -3.97024e-05 -3.97111e-05 -2.38568e-05
0.000153192 -4.59498e-05 -4.59608e-05 -1.29229e-05
0.000184883 -5.54543e-05 -5.54695e-05 -7.71512e-11
0.000164057 -4.92107e-05 -4.92198e-05 -1.2925e-05
0.000158624 -4.75802e-05 -4.75902e-05 -1.29242e-05
0.000127835 -3.83422e-05 -3.83541e-05 -2.38541e-05
0.000118783 -3.56196e-05 -3.56415e-05 -2.38433e-05
0.000165863 -4.97484e-05 -4.97636e-05 -4.95071e-10
0.000178543 -5.3552e-05 -5.35675e-05 -3.3894e-10
0.000123309 -3.69814e-05 -3.69975e-05 -2.38498e-05
0.00014233 -4.26891e-05 -4.27031e-05 -1.2917e-05
0.000172203 -5.16503e-05 -5.16654e-05 -6.1991e-10
0.000153192 -4.59498e-05 -4.59608e-05 -1.29229e-05
0.00014776 -4.43194e-05 -4.43318e-05 -1.29206e-05
0.000118783 -3.56196e-05 -3.56415e-05 -2.38433e-05
0.000109732 -3.28913e-05 -3.29317e-05 -2.38211e-05
0.000153192 -4.59457e-05 -4.59627e-05 -1.75261e-09
0.000165863 -4.97484e-05 -4.97636e-05 -4.95071e-10
0.000114258 -3.42565e-05 -3.42862e-05 -2.38341e-05
0.000131476 -3.9429e-05 -3.94486e-05 -1.29037e-05
0.000159526 -4.78461e-05 -4.78628e-05 -5.0917e-10
0.00014233 -4.26891e-05 -4.27031e-05 -1.2917e-05
0.000136901 -4.10589e-05 -4.10752e-05 -1.29118e-05
0.000109732 -3.28913e-05 -3.29317e-05 -2.38211e-05
0.000100684 -3.01518e-05 -3.02281e-05 -2.37746e-05
0.000140535 -4.21517e-05 -4.21642e-05 -1.9996e-09
0.000153192 -4.59457e-05 -4.59627e-05 -1.75261e-09
0.000105207 -3.15233e-05 -3.15787e-05 -2.38021e-05
0.000120636 -3.61701e-05 -3.61997e-05 -1.2874e-05
0.000146862 -4.40489e-05 -4.40626e-05 -2.90247e-09
0.000131476 -3.9429e-05 -3.94486e-05 -1.29037e-05
0.000126054 -3.77993e-05 -3.78235e-05 -1.28914e-05
0.000100684 -3.01518e-05 -3.02281e-05 -2.37746e-05
9.1632e-05 -2.73916e-05 -2.75316e-05 -2.36868e-05
0.000127924 -3.83638e-05 -3.8383e-05 -7.40693e-09
0.000140535 -4.21517e-05 -4.21642e-05 -1.9996e-09
9.61598e-05 -2.87755e-05 -2.8879e-05 -2.37372e-05
0.00010983 -3.29141e-05 -3.29641e-05 -1.28137e-05
0.00013422 -4.02525e-05 -4.02717e-05 -2.07781e-09
0.000120636 -3.61701e-05 -3.61997e-05 -1.2874e-05
0.000115227 -3.45418e-05 -3.45793e-05 -1.28497e-05
9.1632e-05 -2.73916e-05 -2.75316e-05 -2.36868e-05
8.25822e-05 -2.45925e-05 -2.48527e-05 -2.35175e-05
0.000115387 -3.46216e-05 -3.46136e-05 -6.51839e-09
0.000127924 -3.83638e-05 -3.8383e-05 -7.40693e-09
8.71047e-05 -2.59974e-05 -2.61889e-05 -2.36162e-05
9.90768e-05 -2.9663e-05 -2.97488e-05 -1.26939e-05
0.000121647 -3.6494e-05 -3.64941e-05 -1.18602e-08
0.00010983 -3.29141e-05 -3.29641e-05 -1.28137e-05
0.000104447 -3.12872e-05 -3.13541e-05 -1.27623e-05
8.25822e-05 -2.45925e-05 -2.48527e-05 -2.35175e-05
7.34976e-05 -2.17332e-05 -2.21847e-05 -2.32262e-05
0.000103051 -3.08989e-05 -3.09223e-05 -2.727e-08
0.000115387 -3.46216e-05 -3.46136e-05 -6.51839e-09
7.8051e-05 -2.3175e-05 -2.35183e-05 -2.33898e-05
8.84408e-05 -2.64237e-05 -2.65788e-05 -1.24681e-05
0.000109177 -3.27358e-05 -3.27605e-05 -5.74686e-09
9.90768e-05 -2.9663e-05 -2.97488e-05 -1.26939e-05
9.37362e-05 -2.80428e-05 -2.81543e-05 -1.26023e-05
7.34976e-05 -2.17332e-05 -2.21847e-05 -2.32262e-05
6.43915e-05 -1.87605e-05 -1.95561e-05 -2.27106e-05
9.10096e-05 -2.73846e-05 -2.72679e-05 -1.72267e-08
0.000103051 -3.08989e-05 -3.09223e-05 -2.727e-08
6.89388e-05 -2.02581e-05 -2.08632e-05 -2.30064e-05
7.7958e-05 -2.3196e-05 -2.34694e-05 -1.20627e-05
9.69988e-05 -2.91531e-05 -2.90767e-05 -4.50566e-08
8.84408e-05 -2.64237e-05 -2.65788e-05 -1.24681e-05
8.31838e-05 -2.48046e-05 -2.50196e-05 -1.2286e-05
6.43915e-05 -1.87605e-05 -1.95561e-05 -2.27106e-05
5.5092e-05 -1.56615e-05 -1.68988e-05 -2.19316e-05
7.96989e-05 -2.38886e-05 -2.39187e-05 -9.01037e-08
9.10096e-05 -2.73846e-05 -2.72679e-05 -1.72267e-08
5.97958e-05 -1.72439e-05 -1.82365e-05 -2.23544e-05
6.78249e-05 -2.00097e-05 -2.04922e-05 -1.13425e-05
8.52032e-05 -2.55309e-05 -2.55738e-05 -5.17461e-09
7.7958e-05 -2.3196e-05 -2.34694e-05 -1.20627e-05
7.28197e-05 -2.16045e-05 -2.19494e-05 -1.17739e-05
5.5092e-05 -1.56615e-05 -1.68988e-05 -2.19316e-05
4.56101e-05 -1.23053e-05 -1.42735e-05 -2.07365e-05
6.94219e-05 -2.1269e-05 -2.0637e-05 -3.25769e-08
7.96989e-05 -2.38886e-05 -2.39187e-05 -9.01037e-08
5.03426e-05 -1.39844e-05 -1.55821e-05 -2.13994e-05
5.79886e-05 -1.68192e-05 -1.7644e-05 -1.0209e-05
7.44531e-05 -2.26549e-05 -2.21992e-05 -1.68189e-07
6.78249e-05 -2.00097e-05 -2.04922e-05 -1.13425e-05
6.29043e-05 -1.83993e-05 -1.90736e-05 -1.07948e-05
4.56101e-05 -1.23053e-05 -1.42735e-05 -2.07365e-05
3.52642e-05 -8.963e-06 -1.1272e-05 -1.94467e-05
6.13822e-05 -1.83908e-05 -1.84249e-05 -2.47725e-07
6.94219e-05 -2.1269e-05 -2.0637e-05 -3.25769e-08
4.06616e-05 -1.06881e-05 -1.28458e-05 -2.00685e-05
4.89532e-05 -1.37356e-05 -1.50933e-05 -8.34936e-06
6.49501e-05 -1.93997e-05 -1.95216e-05 7.12761e-08
5.79886e-05 -1.68192e-05 -1.7644e-05 -1.0209e-05
5.32731e-05 -1.52979e-05 -1.62751e-05 -9.48886e-06
3.52642e-05 -8.963e-06 -1.1272e-05 -1.94467e-05
2.41088e-05 -5.64171e-06 -7.91448e-06 -1.85936e-05
5.69237e-05 -1.88944e-05 -1.62983e-05 3.88886e-07
6.13822e-05 -1.83908e-05 -1.84249e-05 -2.47725e-07
2.96645e-05 -7.07218e-06 -9.68243e-06 -1.88852e-05
3.95452e-05 -1.04071e-05 -1.24878e-05 -6.31568e-06
5.87096e-05 -1.9116e-05 -1.69687e-05 -5.44879e-07
4.89532e-05 -1.37356e-05 -1.50933e-05 -8.34936e-06
4.45402e-05 -1.20565e-05 -1.39216e-05 -7.11189e-06
2.41088e-05 -5.64171e-06 -7.91448e-06 -1.85936e-05
1.1096e-05 -5.9314e-06 -2.21338e-06 -2.17606e-05
6.04208e-05 -1.65328e-05 -1.88092e-05 2.37964e-06
5.69237e-05 -1.88944e-05 -1.62983e-05 3.88886e-07
1.80888e-05 -5.29131e-06 -5.48463e-06 -1.93292e-05
2.952e-05 -7.6272e-06 -9.38263e-06 -5.01754e-06
5.71266e-05 -1.60563e-05 -1.76015e-05 1.69057e-06
3.95452e-05 -1.04071e-05 -1.24878e-05 -6.31568e-06
3.4396e-05 -8.94233e-06 -1.09087e-05 -5.82439e-06
1.1096e-05 -5.9314e-06 -2.21338e-06 -2.17606e-05
4.95228e-06 -2.09717e-05 6.86545e-06 -3.36162e-05
8.24037e-05 -1.68516e-05 -2.80937e-05 1.86879e-05
6.04208e-05 -1.65328e-05 -1.88092e-05 2.37964e-06
5.82046e-06 -8.77712e-06 1.26714e-06 -2.59735e-05
8.45268e-06 -1.33968e-05 2.1189e-06 -1.92136e-05
6.83364e-05 -2.29172e-05 -1.94654e-05 5.0078e-06
2.952e-05 -7.6272e-06 -9.38263e-06 -5.01754e-06
2.18832e-05 -7.41441e-06 -6.20093e-06 -7.68599e-06
4.95228e-06 -2.09717e-05 6.86545e-06 -3.36162e-05
2.95693e-05 -9.19781e-05 2.67466e-05 -3.43068e-05
5.14479e-05 -0.000121635 3.00801e-05 -9.19937e-05
8.24037e-05 -1.68516e-05 -2.80937e-05 1.86879e-05
1.17742e-05 -4.91488e-05 1.60177e-05 -3.98114e-05
2.68176e-05 -0.000113121 3.6987e-05 -5.51621e-05
8.32243e-05 -5.81854e-06 -3.31739e-05 8.63358e-06
8.45268e-06 -1.33968e-05 2.1189e-06 -1.92136e-05
4.88056e-06 -3.72853e-05 1.38878e-05 -3.61689e-05
      </DataArray> 
    </PointData>
    <CellData>
      <DataArray type="Float64" NumberOfComponents="1" Name="Process" format="ascii">
3
3
3
3
3
3
3
3
3
3
3
3
3
3
3
3
3
3
3
3
3
3
3
3
3
2
2
2
2
2
2
2
2
2
2
2
2
2
2
2
2
2
2
2
2
2
2
2
2
1
1
1
1
1
1
1
1
1
1
1
1
1
1
1
1
1
1
1
1
1
1
1
1
1
0
0
0
0
0
0
0
0
0
0
0
0
0
0
0
0
0
0
0
0
0
0
0
0
0
5
5
5
5
5
5
5
5
5
5
5
5
5
5
5
5
5
5
5
5
5
5
5
5
5
4
4
4
4
4
4
4
4
4
4
4
4
4
4
4
4
4
4
4
4
4
4
4
4
7
7
7
7
7
7
7
7
7
7
7
7
7
7
7
7
7
7
7
7
7
7
7
7
7
6
6
6
6
6
6
6
6
6
6
6
6
6
6
6
6
6
6
6
6
6
6
6
6
3
3
3
3
3
3
3
3
3
3
3
3
3
3
3
3
3
3
3
3
3
3
3
3
3
2
2
2
2
2
2
2
2
2
2
2
2
2
2
2
2
2
2
2
2
2
2
2
2
1
1
1
1
1
1
1
1
1
1
1
1
1
1
1
1
1
1
1
1
1
1
1
1
1
0
0
0
0
0
0
0
0
0
0
0
0
0
0
0
0
0
0
0
0
0
0
0
0
0
5
5
5
5
5
5
5
5
5
5
5
5
5
5
5
5
5
5
5
5
5
5
5
5
5
4
4
4
4
4
4
4
4
4
4
4
4
4
4
4
4
4
4
4
4
4
4
4
4
7
7
7
7
7
7
7
7
7
7
7
7
7
7
7
7
7
7
7
7
7
7
7
7
7
6
6
6
6
6
6
6
6
6
6
6
6
6
6
6
6
6
6
6
6
6
6
6
6
3
3
3
3
3
3
3
3
3
3
3
3
3
3
3
3
3
3
3
3
3
3
3
3
3
2
2
2
2
2
2
2
2
2
2
2
2
2
2
2
2
2
2
2
2
2
2
2
2
1
1
1
1
1
1
1
1
1
1
1
1
1
1
1
1
1
1
1
1
1
1
1
1
1
0
0
0
0
0
0
0
0
0
0
0
0
0
0
0
0
0
0
0
0
0
0
0
0
0
5
5
5
5
5
5
5
5
5
5
5
5
5
5
5
5
5
5
5
5
5
5
5
5
5
4
4
4
4
4
4
4
4
4
4
4
4
4
4
4
4
4
4
4
4
4
4
4
4
7
7
7
7
7
7
7
7
7
7
7
7
7
7
7
7
7
7
7
7
7
7
7
7
7
6
6
6
6
6
6
6
6
6
6
6
6
6
6
6
6
6
6
6
6
6
6
6
6
3
3
3
3
3
3
3
3
3
3
3
3
3
3
3
3
3
3
3
3
3
3
3
3
3
2
2
2
2
2
2
2
2
2
2
2
2
2
2
2
2
2
2
2
2
2
2
2
2
1
1
1
1
1
1
1
1
1
1
1
1
1
1
1
1
1
1
1
1
1
1
1
1
1
0
0
0
0
0
0
0
0
0
0
0
0
0
0
0
0
0
0
0
0
0
0
0
0
0
5
5
5
5
5
5
5
5
5
5
5
5
5
5
5
5
5
5
5
5
5
5
5
5
5
4
4
4
4
4
4
4
4
4
4
4
4
4
4
4
4
4
4
4
4
4
4
4
4
7
7
7
7
7
7
7
7
7
7
7
7
7
7
7
7
7
7
7
7
7
7
7
7
7
6
6
6
6
6
6
6
6
6
6
6
6
6
6
6
6
6
6
6
6
6
6
6
6
3
3
3
3
3
3
3
3
3
3
3
3
3
3
3
3
3
3
3
3
3
3
3
3
3
2
2
2
2
2
2
2
2
2
2
2
2
2
2
2
2
2
2
2
2
2
2
2
2
1
1
1
1
1
1
1
1
1
1
1
1
1
1
1
1
1
1
1
1
1
1
1
1
1
0
0
0
0
0
0
0
0
0
0
0
0
0
0
0
0
0
0
0
0
0
0
0
0
0
5
5
5
5
5
5
5
5
5
5
5
5
5
5
5
5
5
5
5
5
5
5
5
5
5
4
4
4
4
4
4
4
4
4
4
4
4
4
4
4
4
4
4
4
4
4
4
4
4
7
7
7
7
7
7
7
7
7
7
7
7
7
7
7
7
7
7
7
7
7
7
7
7
7
6
6
6
6
6
6
6
6
6
6
6
6
6
6
6
6
6
6
6
6
6
6
6
6
3
3
3
3
3
3
3
3
3
3
3
3
3
3
3
3
3
3
3
3
3
3
3
3
3
2
2
2
2
2
2
2
2
2
2
2
2
2
2
2
2
2
2
2
2
2
2
2
2
1
1
1
1
1
1
1
1
1
1
1
1
1
1
1
1
1
1
1
1
1
1
1
1
1
0
0
0
0
0
0
0
0
0
0
0
0
0
0
0
0
0
0
0
0
0
0
0
0
0
5
5
5
5
5
5
5
5
5
5
5
5
5
5
5
5
5
5
5
5
5
5
5
5
5
4
4
4
4
4
4
4
4
4
4
4
4
4
4
4
4
4
4
4
4
4
4
4
4
7
7
7
7
7
7
7
7
7
7
7
7
7
7
7
7
7
7
7
7
7
7
7
7
7
6
6
6
6
6
6
6
6
6
6
6
6
6
6
6
6
6
6
6
6
6
6
6
6
3
3
3
3
3
3
3
3
3
3
3
3
3
3
3
3
3
3
3
3
3
3
3
3
3
2
2
2
2
2
2
2
2
2
2
2
2
2
2
2
2
2
2
2
2
2
2
2
2
1
1
1
1
1
1
1
1
1
1
1
1
1
1
1
1
1
1
1
1
1
1
1
1
1
0
0
0
0
0
0
0
0
0
0
0
0
0
0
0
0
0
0
0
0
0
0
0
0
0
5
5
5
5
5
5
5
5
5
5
5
5
5
5
5
5
5
5
5
5
5
5
5
5
5
4
4
4
4
4
4
4
4
4
4
4
4
4
4
4
4
4
4
4
4
4
4
4
4
7
7
7
7
7
7
7
7
7
7
7
7
7
7
7
7
7
7
7
7
7
7
7
7
7
6
6
6
6
6
6
6
6
6
6
6
6
6
6
6
6
6
6
6
6
6
6
6
6
      </DataArray> 
    </CellData>
  </Piece>
  </UnstructuredGrid>
</VTKFile>
