<?xml version="1.0"?>
<VTKFile type="UnstructuredGrid">
  <UnstructuredGrid>
  <Piece NumberOfPoints="12411"  NumberOfCells="1379">
    <Points>
      <DataArray type="Float64" NumberOfComponents="3" format="ascii">
0 0 0
2.52576 -0.0061212 0
2.53073 4.28365 0
0 4.28571 0
1.26233 -0.00382029 0
2.5288 2.13916 0
1.26547 4.28498 0
0 2.14286 0
1.26461 2.14123 0
2.52576 -0.0061212 0
5.05318 -0.0106184 0
5.06084 4.27976 0
2.53073 4.28365 0
3.78945 -0.00828479 0
5.0572 2.13481 0
3.79582 4.28189 0
2.5288 2.13916 0
3.79297 2.13705 0
5.05318 -0.0106184 0
7.5805 -0.0160453 0
7.59089 4.2744 0
5.06084 4.27976 0
6.31686 -0.0131724 0
7.58575 2.12936 0
6.32586 4.27727 0
5.0572 2.13481 0
6.32146 2.13226 0
7.5805 -0.0160453 0
10.1077 -0.0230336 0
10.121 4.26742 0
7.59089 4.2744 0
8.84412 -0.0193278 0
10.1144 2.12238 0
8.85592 4.27112 0
7.58575 2.12936 0
8.85006 2.12607 0
10.1077 -0.0230336 0
12.6349 -0.0317272 0
12.6511 4.2587 0
10.121 4.26742 0
11.3713 -0.0271613 0
12.643 2.11367 0
11.386 4.26328 0
10.1144 2.12238 0
11.3787 2.11825 0
12.6349 -0.0317272 0
15.162 -0.0422236 0
15.1813 4.24818 0
12.6511 4.2587 0
13.8985 -0.0367478 0
15.1717 2.10317 0
13.9162 4.25367 0
12.643 2.11367 0
13.9074 2.10865 0
15.162 -0.0422236 0
17.6892 -0.0545357 0
17.7115 4.23583 0
15.1813 4.24818 0
16.4256 -0.0481521 0
17.7004 2.09084 0
16.4464 4.24223 0
15.1717 2.10317 0
16.4361 2.09723 0
17.6892 -0.0545357 0
20.2164 -0.0686751 0
20.2418 4.22165 0
17.7115 4.23583 0
18.9528 -0.0613771 0
20.2291 2.07668 0
18.9767 4.22896 0
17.7004 2.09084 0
18.9648 2.08399 0
20.2164 -0.0686751 0
22.7436 -0.0846345 0
22.7721 4.20564 0
20.2418 4.22165 0
21.48 -0.0764278 0
22.7579 2.0607 0
21.507 4.21387 0
20.2291 2.07668 0
21.4935 2.06892 0
22.7436 -0.0846345 0
25.2709 -0.102407 0
25.3024 4.18782 0
22.7721 4.20564 0
24.0073 -0.0932948 0
25.2867 2.0429 0
24.0373 4.19696 0
22.7579 2.0607 0
24.0223 2.05203 0
25.2709 -0.102407 0
27.7982 -0.121983 0
27.8328 4.1682 0
25.3024 4.18782 0
26.5346 -0.11197 0
27.8156 2.0233 0
26.5676 4.17824 0
25.2867 2.0429 0
26.5511 2.03333 0
27.7982 -0.121983 0
30.3256 -0.143352 0
30.3632 4.14678 0
27.8328 4.1682 0
29.0619 -0.132444 0
30.3444 2.00191 0
29.098 4.15771 0
27.8156 2.0233 0
29.08 2.01283 0
30.3256 -0.143352 0
32.853 -0.166505 0
32.8936 4.12357 0
30.3632 4.14678 0
31.5893 -0.154707 0
32.8733 1.97873 0
31.6284 4.1354 0
30.3444 2.00191 0
31.6089 1.99054 0
32.853 -0.166505 0
35.3804 -0.191431 0
35.424 4.09859 0
32.8936 4.12357 0
34.1167 -0.178747 0
35.4023 1.95377 0
34.1588 4.11131 0
32.8733 1.97873 0
34.1378 1.96647 0
35.3804 -0.191431 0
37.9079 -0.218121 0
37.9545 4.07185 0
35.424 4.09859 0
36.6441 -0.204556 0
37.9312 1.92705 0
36.6893 4.08544 0
35.4023 1.95377 0
36.6667 1.94063 0
37.9079 -0.218121 0
40.4354 -0.246565 0
40.485 4.04335 0
37.9545 4.07185 0
39.1716 -0.232125 0
40.4602 1.89858 0
39.2197 4.05782 0
37.9312 1.92705 0
39.1957 1.91303 0
40.4354 -0.246565 0
42.9629 -0.276754 0
43.0155 4.0131 0
40.485 4.04335 0
41.6992 -0.261442 0
42.9893 1.86836 0
41.7502 4.02844 0
40.4602 1.89858 0
41.7247 1.88369 0
42.9629 -0.276754 0
45.4905 -0.308677 0
45.546 3.98111 0
43.0155 4.0131 0
44.2267 -0.292499 0
45.5183 1.8364 0
44.2807 3.99732 0
42.9893 1.86836 0
44.2538 1.8526 0
45.4905 -0.308677 0
48.0182 -0.342325 0
48.0766 3.9474 0
45.546 3.98111 0
46.7543 -0.325286 0
48.0474 1.80272 0
46.8113 3.96447 0
45.5183 1.8364 0
46.7829 1.81978 0
48.0182 -0.342325 0
50.5458 -0.377688 0
50.6071 3.91197 0
48.0766 3.9474 0
49.282 -0.359793 0
50.5765 1.76733 0
49.3418 3.9299 0
48.0474 1.80272 0
49.3119 1.78524 0
50.5458 -0.377688 0
53.0735 -0.414758 0
53.1377 3.87484 0
50.6071 3.91197 0
51.8097 -0.39601 0
53.1056 1.73022 0
51.8724 3.89362 0
50.5765 1.76733 0
51.8411 1.74899 0
53.0735 -0.414758 0
55.6012 -0.453524 0
55.6683 3.836 0
53.1377 3.87484 0
54.3374 -0.433929 0
55.6348 1.69142 0
54.403 3.85563 0
53.1056 1.73022 0
54.3702 1.71103 0
55.6012 -0.453524 0
58.129 -0.493977 0
58.1989 3.79548 0
55.6683 3.836 0
56.8651 -0.47354 0
58.164 1.65093 0
56.9336 3.81595 0
55.6348 1.69142 0
56.8994 1.67139 0
58.129 -0.493977 0
60.6568 -0.536107 0
60.7295 3.75328 0
58.1989 3.79548 0
59.3929 -0.514833 0
60.6932 1.60876 0
59.4642 3.77459 0
58.164 1.65093 0
59.4286 1.63006 0
60.6568 -0.536107 0
63.1846 -0.579904 0
63.2601 3.70941 0
60.7295 3.75328 0
61.9207 -0.557798 0
63.2224 1.56493 0
61.9948 3.73155 0
60.6932 1.60876 0
61.9578 1.58705 0
63.1846 -0.579904 0
65.7124 -0.62536 0
65.7908 3.66387 0
63.2601 3.70941 0
64.4485 -0.602425 0
65.7516 1.51943 0
64.5255 3.68685 0
63.2224 1.56493 0
64.487 1.54239 0
65.7124 -0.62536 0
68.2403 -0.672464 0
68.3214 3.61669 0
65.7908 3.66387 0
66.9764 -0.648706 0
68.2809 1.47229 0
67.0561 3.64049 0
65.7516 1.51943 0
67.0163 1.49607 0
68.2403 -0.672464 0
70.7682 -0.721206 0
70.8521 3.56787 0
68.3214 3.61669 0
69.5042 -0.696631 0
70.8102 1.42351 0
69.5868 3.59249 0
68.2809 1.47229 0
69.5455 1.4481 0
70.7682 -0.721206 0
73.2961 -0.771578 0
73.3828 3.51742 0
70.8521 3.56787 0
72.0321 -0.746189 0
73.3395 1.3731 0
72.1174 3.54285 0
70.8102 1.42351 0
72.0748 1.39851 0
73.2961 -0.771578 0
75.8241 -0.82357 0
75.9135 3.46535 0
73.3828 3.51742 0
74.5601 -0.797372 0
75.8688 1.32106 0
74.6481 3.49159 0
73.3395 1.3731 0
74.6041 1.34728 0
75.8241 -0.82357 0
78.352 -0.877172 0
78.4442 3.41166 0
75.9135 3.46535 0
77.088 -0.85017 0
78.3981 1.26742 0
77.1788 3.43871 0
75.8688 1.32106 0
77.1335 1.29444 0
78.352 -0.877172 0
80.88 -0.932374 0
80.9748 3.35638 0
78.4442 3.41166 0
79.616 -0.904573 0
80.9275 1.21217 0
79.7095 3.38422 0
78.3981 1.26742 0
79.6628 1.24 0
80.88 -0.932374 0
83.408 -0.989167 0
83.5056 3.2995 0
80.9748 3.35638 0
82.144 -0.960572 0
83.4568 1.15534 0
82.2402 3.32814 0
80.9275 1.21217 0
82.1922 1.18395 0
83.408 -0.989167 0
85.9361 -1.04754 0
86.0363 3.24104 0
83.5056 3.2995 0
84.672 -1.01816 0
85.9862 1.09692 0
84.7709 3.27047 0
83.4568 1.15534 0
84.7215 1.12632 0
85.9361 -1.04754 0
88.4641 -1.10749 0
88.567 3.18101 0
86.0363 3.24104 0
87.2001 -1.07732 0
88.5156 1.03693 0
87.3016 3.21122 0
85.9862 1.09692 0
87.2509 1.06712 0
88.4641 -1.10749 0
90.9922 -1.16899 0
91.0977 3.11941 0
88.567 3.18101 0
89.7282 -1.13805 0
91.045 0.975374 0
89.8323 3.1504 0
88.5156 1.03693 0
89.7803 1.00635 0
90.9922 -1.16899 0
93.5203 -1.23206 0
93.6284 3.05626 0
91.0977 3.11941 0
92.2562 -1.20033 0
93.5744 0.912268 0
92.363 3.08803 0
91.045 0.975374 0
92.3097 0.944014 0
93.5203 -1.23206 0
96.0484 -1.29666 0
96.1591 2.99157 0
93.6284 3.05626 0
94.7844 -1.26416 0
96.1038 0.847618 0
94.8938 3.0241 0
93.5744 0.912268 0
94.8391 0.880135 0
96.0484 -1.29666 0
98.5765 -1.36279 0
98.6899 2.92534 0
96.1591 2.99157 0
97.3125 -1.32954 0
98.6332 0.781434 0
97.4245 2.95864 0
96.1038 0.847618 0
97.3685 0.814717 0
98.5765 -1.36279 0
101.105 -1.43045 0
101.221 2.85758 0
98.6899 2.92534 0
99.8406 -1.39643 0
101.163 0.713726 0
99.9552 2.89165 0
98.6332 0.781434 0
99.898 0.74777 0
101.105 -1.43045 0
103.633 -1.49963 0
103.751 2.78831 0
101.221 2.85758 0
102.369 -1.46485 0
103.692 0.644504 0
102.486 2.82314 0
101.163 0.713726 0
102.427 0.679304 0
103.633 -1.49963 0
106.161 -1.57031 0
106.282 2.71754 0
103.751 2.78831 0
104.897 -1.53478 0
106.222 0.573776 0
105.017 2.75311 0
103.692 0.644504 0
104.957 0.609328 0
106.161 -1.57031 0
108.689 -1.64248 0
108.813 2.64527 0
106.282 2.71754 0
107.425 -1.60621 0
108.751 0.501554 0
107.547 2.68159 0
106.222 0.573776 0
107.486 0.537851 0
108.689 -1.64248 0
111.217 -1.71614 0
111.343 2.57151 0
108.813 2.64527 0
109.953 -1.67912 0
111.281 0.427845 0
110.078 2.60858 0
108.751 0.501554 0
110.016 0.464885 0
111.217 -1.71614 0
113.746 -1.79127 0
113.874 2.49628 0
111.343 2.57151 0
112.482 -1.75352 0
113.81 0.352661 0
112.609 2.53408 0
111.281 0.427845 0
112.545 0.390437 0
113.746 -1.79127 0
116.274 -1.86787 0
116.405 2.41958 0
113.874 2.49628 0
115.01 -1.82939 0
116.339 0.27601 0
115.14 2.45811 0
113.81 0.352661 0
115.075 0.314518 0
116.274 -1.86787 0
118.802 -1.94593 0
118.936 2.34142 0
116.405 2.41958 0
117.538 -1.90672 0
118.869 0.197902 0
117.67 2.38068 0
116.339 0.27601 0
117.604 0.237137 0
118.802 -1.94593 0
121.33 -2.02543 0
121.466 2.26182 0
118.936 2.34142 0
120.066 -1.9855 0
121.398 0.118347 0
120.201 2.3018 0
118.869 0.197902 0
120.134 0.158305 0
121.33 -2.02543 0
123.859 -2.10637 0
123.997 2.18078 0
121.466 2.26182 0
122.595 -2.06572 0
123.928 0.037354 0
122.732 2.22148 0
121.398 0.118347 0
122.663 0.0780295 0
123.859 -2.10637 0
126.387 -2.18874 0
126.528 2.09831 0
123.997 2.18078 0
125.123 -2.14738 0
126.457 -0.0450667 0
125.262 2.13972 0
123.928 0.037354 0
125.193 -0.00367845 0
126.387 -2.18874 0
128.915 -2.27253 0
129.058 2.01442 0
126.528 2.09831 0
127.651 -2.23046 0
128.987 -0.128906 0
127.793 2.05654 0
126.457 -0.0450667 0
127.722 -0.0868095 0
128.915 -2.27253 0
131.444 -2.35772 0
131.589 1.92912 0
129.058 2.01442 0
130.179 -2.31495 0
131.516 -0.214154 0
130.324 1.97194 0
128.987 -0.128906 0
130.252 -0.171354 0
131.444 -2.35772 0
133.972 -2.44431 0
134.12 1.84242 0
131.589 1.92912 0
132.708 -2.40084 0
134.046 -0.300801 0
132.854 1.88594 0
131.516 -0.214154 0
132.781 -0.257303 0
133.972 -2.44431 0
136.5 -2.5323 0
136.65 1.75433 0
134.12 1.84242 0
135.236 -2.48813 0
136.575 -0.388837 0
135.385 1.79855 0
134.046 -0.300801 0
135.311 -0.344646 0
136.5 -2.5323 0
139.029 -2.62166 0
139.181 1.66486 0
136.65 1.75433 0
137.764 -2.57681 0
139.105 -0.478253 0
137.916 1.70977 0
136.575 -0.388837 0
137.84 -0.433373 0
139.029 -2.62166 0
141.557 -2.71239 0
141.712 1.57402 0
139.181 1.66486 0
140.293 -2.66685 0
141.634 -0.56904 0
140.446 1.61961 0
139.105 -0.478253 0
140.37 -0.523476 0
141.557 -2.71239 0
144.085 -2.80448 0
144.242 1.48182 0
141.712 1.57402 0
142.821 -2.75827 0
144.164 -0.661187 0
142.977 1.52809 0
141.634 -0.56904 0
142.899 -0.614944 0
144.085 -2.80448 0
146.614 -2.89793 0
146.773 1.38827 0
144.242 1.48182 0
145.35 -2.85104 0
146.693 -0.754685 0
145.508 1.43521 0
144.164 -0.661187 0
145.429 -0.707768 0
146.614 -2.89793 0
149.142 -2.99271 0
149.304 1.29338 0
146.773 1.38827 0
147.878 -2.94515 0
149.223 -0.849525 0
148.038 1.34099 0
146.693 -0.754685 0
147.958 -0.801938 0
149.142 -2.99271 0
151.67 -3.08882 0
151.834 1.19715 0
149.304 1.29338 0
150.406 -3.0406 0
151.752 -0.945696 0
150.569 1.24543 0
149.223 -0.849525 0
150.488 -0.897445 0
151.67 -3.08882 0
154.199 -3.18626 0
154.365 1.0996 0
151.834 1.19715 0
152.935 -3.13738 0
154.282 -1.04319 0
153.1 1.14854 0
151.752 -0.945696 0
153.017 -0.994278 0
154.199 -3.18626 0
156.727 -3.28501 0
156.896 1.00074 0
154.365 1.0996 0
155.463 -3.23547 0
156.811 -1.142 0
155.63 1.05034 0
154.282 -1.04319 0
155.547 -1.09243 0
156.727 -3.28501 0
159.256 -3.38506 0
159.426 0.900579 0
156.896 1.00074 0
157.991 -3.33487 0
159.341 -1.2421 0
158.161 0.950823 0
156.811 -1.142 0
158.076 -1.19189 0
159.256 -3.38506 0
161.784 -3.48641 0
161.957 0.799122 0
159.426 0.900579 0
160.52 -3.43557 0
161.87 -1.34351 0
160.691 0.850011 0
159.341 -1.2421 0
160.606 -1.29264 0
161.784 -3.48641 0
164.312 -3.58904 0
164.487 0.696381 0
161.957 0.799122 0
163.048 -3.53756 0
164.4 -1.44619 0
163.222 0.747911 0
161.87 -1.34351 0
163.135 -1.39469 0
164.312 -3.58904 0
166.841 -3.69294 0
167.018 0.592366 0
164.487 0.696381 0
165.577 -3.64083 0
166.929 -1.55015 0
165.753 0.644532 0
164.4 -1.44619 0
165.665 -1.49801 0
166.841 -3.69294 0
169.369 -3.7981 0
169.548 0.487086 0
167.018 0.592366 0
168.105 -3.74536 0
169.459 -1.65538 0
168.283 0.539883 0
166.929 -1.55015 0
168.194 -1.60261 0
169.369 -3.7981 0
171.898 -3.90453 0
172.079 0.380551 0
169.548 0.487086 0
170.633 -3.85116 0
171.988 -1.76185 0
170.814 0.433975 0
169.459 -1.65538 0
170.724 -1.70846 0
171.898 -3.90453 0
174.426 -4.01219 0
174.609 0.272771 0
172.079 0.380551 0
173.162 -3.9582 0
174.518 -1.86958 0
173.344 0.326816 0
171.988 -1.76185 0
173.253 -1.81556 0
174.426 -4.01219 0
176.955 -4.12109 0
177.14 0.163756 0
174.609 0.272771 0
175.69 -4.06649 0
177.047 -1.97854 0
175.875 0.218417 0
174.518 -1.86958 0
175.783 -1.9239 0
176.955 -4.12109 0
179.483 -4.23122 0
179.67 0.0535141 0
177.14 0.163756 0
178.219 -4.176 0
179.577 -2.08872 0
178.405 0.108788 0
177.047 -1.97854 0
178.312 -2.03348 0
179.483 -4.23122 0
182.011 -4.34256 0
182.201 -0.057944 0
179.67 0.0535141 0
180.747 -4.28674 0
182.106 -2.20013 0
180.936 -0.00206349 0
179.577 -2.08872 0
180.842 -2.14427 0
182.011 -4.34256 0
184.54 -4.45511 0
184.731 -0.170609 0
182.201 -0.057944 0
183.276 -4.39869 0
184.636 -2.31273 0
183.466 -0.114126 0
182.106 -2.20013 0
183.371 -2.25628 0
184.54 -4.45511 0
187.068 -4.56886 0
187.262 -0.284471 0
184.731 -0.170609 0
185.804 -4.51184 0
187.165 -2.42654 0
185.997 -0.227391 0
184.636 -2.31273 0
185.9 -2.36949 0
187.068 -4.56886 0
189.597 -4.68379 0
189.792 -0.39952 0
187.262 -0.284471 0
188.333 -4.62618 0
189.695 -2.54153 0
188.527 -0.341848 0
187.165 -2.42654 0
188.43 -2.48389 0
189.597 -4.68379 0
192.125 -4.7999 0
192.323 -0.515747 0
189.792 -0.39952 0
190.861 -4.7417 0
192.224 -2.6577 0
191.058 -0.457487 0
189.695 -2.54153 0
190.959 -2.59947 0
192.125 -4.7999 0
194.654 -4.91718 0
194.853 -0.633143 0
192.323 -0.515747 0
193.389 -4.8584 0
194.754 -2.77504 0
193.588 -0.5743 0
192.224 -2.6577 0
193.489 -2.71623 0
194.654 -4.91718 0
197.182 -5.03562 0
197.384 -0.751697 0
194.853 -0.633143 0
195.918 -4.97626 0
197.283 -2.89354 0
196.118 -0.692275 0
194.754 -2.77504 0
196.018 -2.83415 0
197.182 -5.03562 0
199.711 -5.15521 0
199.914 -0.8714 0
197.384 -0.751697 0
198.446 -5.09527 0
199.812 -3.01318 0
198.649 -0.811405 0
197.283 -2.89354 0
198.548 -2.95322 0
199.711 -5.15521 0
202.239 -5.27593 0
202.444 -0.992242 0
199.914 -0.8714 0
200.975 -5.21543 0
202.342 -3.13397 0
201.179 -0.931679 0
199.812 -3.01318 0
201.077 -3.07343 0
202.239 -5.27593 0
204.768 -5.39779 0
204.975 -1.11421 0
202.444 -0.992242 0
203.503 -5.33672 0
204.871 -3.25588 0
203.71 -1.05309 0
202.342 -3.13397 0
203.607 -3.19479 0
204.768 -5.39779 0
207.296 -5.52077 0
207.505 -1.23731 0
204.975 -1.11421 0
206.032 -5.45914 0
207.401 -3.37892 0
206.24 -1.17562 0
204.871 -3.25588 0
206.136 -3.31726 0
207.296 -5.52077 0
209.825 -5.64485 0
210.036 -1.36151 0
207.505 -1.23731 0
208.56 -5.58267 0
209.93 -3.50306 0
208.77 -1.29927 0
207.401 -3.37892 0
208.665 -3.44085 0
209.825 -5.64485 0
212.353 -5.77004 0
212.566 -1.48681 0
210.036 -1.36151 0
211.089 -5.70731 0
212.46 -3.62831 0
211.301 -1.42402 0
209.93 -3.50306 0
211.195 -3.56555 0
212.353 -5.77004 0
214.882 -5.89632 0
215.096 -1.61321 0
212.566 -1.48681 0
213.617 -5.83304 0
214.989 -3.75465 0
213.831 -1.54987 0
212.46 -3.62831 0
213.724 -3.69134 0
214.882 -5.89632 0
217.41 -6.02368 0
217.627 -1.74068 0
215.096 -1.61321 0
216.146 -5.95986 0
217.518 -3.88207 0
216.361 -1.67681 0
214.989 -3.75465 0
216.254 -3.81822 0
217.41 -6.02368 0
219.939 -6.15211 0
220.157 -1.86923 0
217.627 -1.74068 0
218.674 -6.08776 0
220.048 -4.01056 0
218.892 -1.80482 0
217.518 -3.88207 0
218.783 -3.94618 0
219.939 -6.15211 0
222.467 -6.2816 0
222.687 -1.99884 0
220.157 -1.86923 0
221.203 -6.21672 0
222.577 -4.14011 0
221.422 -1.9339 0
220.048 -4.01056 0
221.312 -4.0752 0
222.467 -6.2816 0
224.996 -6.41215 0
225.217 -2.1295 0
222.687 -1.99884 0
223.731 -6.34674 0
225.107 -4.27071 0
223.952 -2.06404 0
222.577 -4.14011 0
223.842 -4.20528 0
224.996 -6.41215 0
227.524 -6.54374 0
227.748 -2.26121 0
225.217 -2.1295 0
226.26 -6.47781 0
227.636 -4.40236 0
226.482 -2.19522 0
225.107 -4.27071 0
226.371 -4.33641 0
227.524 -6.54374 0
230.053 -6.67636 0
230.278 -2.39394 0
227.748 -2.26121 0
228.788 -6.60992 0
230.165 -4.53504 0
229.013 -2.32745 0
227.636 -4.40236 0
228.901 -4.46857 0
230.053 -6.67636 0
232.581 -6.81001 0
232.808 -2.52771 0
230.278 -2.39394 0
231.317 -6.74305 0
232.695 -4.66875 0
231.543 -2.4607 0
230.165 -4.53504 0
231.43 -4.60177 0
232.581 -6.81001 0
235.11 -6.94467 0
235.338 -2.66248 0
232.808 -2.52771 0
233.845 -6.87721 0
235.224 -4.80347 0
234.073 -2.59497 0
232.695 -4.66875 0
233.959 -4.73598 0
235.11 -6.94467 0
237.638 -7.08033 0
237.869 -2.79826 0
235.338 -2.66248 0
236.374 -7.01237 0
237.753 -4.93919 0
236.603 -2.73025 0
235.224 -4.80347 0
236.489 -4.87121 0
237.638 -7.08033 0
240.167 -7.21699 0
240.399 -2.93504 0
237.869 -2.79826 0
238.902 -7.14854 0
240.283 -5.07591 0
239.134 -2.86653 0
237.753 -4.93919 0
239.018 -5.00743 0
240.167 -7.21699 0
242.695 -7.35464 0
242.929 -3.0728 0
240.399 -2.93504 0
241.431 -7.28569 0
242.812 -5.21362 0
241.664 -3.0038 0
240.283 -5.07591 0
241.547 -5.14464 0
242.695 -7.35464 0
245.224 -7.49326 0
245.459 -3.21153 0
242.929 -3.0728 0
243.959 -7.42383 0
245.341 -5.3523 0
244.194 -3.14205 0
242.812 -5.21362 0
244.077 -5.28283 0
245.224 -7.49326 0
247.752 -7.63285 0
247.989 -3.35124 0
245.459 -3.21153 0
246.488 -7.56293 0
247.871 -5.49194 0
246.724 -3.28127 0
245.341 -5.3523 0
246.606 -5.422 0
247.752 -7.63285 0
250.281 -7.77339 0
250.519 -3.49189 0
247.989 -3.35124 0
249.016 -7.703 0
250.4 -5.63254 0
249.254 -3.42145 0
247.871 -5.49194 0
249.135 -5.56212 0
250.281 -7.77339 0
252.809 -7.91488 0
253.05 -3.6335 0
250.519 -3.49189 0
251.545 -7.84402 0
252.929 -5.77409 0
251.784 -3.56258 0
250.4 -5.63254 0
251.665 -5.7032 0
252.809 -7.91488 0
255.338 -8.05731 0
255.58 -3.77604 0
253.05 -3.6335 0
254.074 -7.98598 0
255.459 -5.91658 0
254.315 -3.70465 0
252.929 -5.77409 0
254.194 -5.84522 0
255.338 -8.05731 0
257.866 -8.20067 0
258.11 -3.91951 0
255.58 -3.77604 0
256.602 -8.12887 0
257.988 -6.05999 0
256.845 -3.84766 0
255.459 -5.91658 0
256.723 -5.98817 0
257.866 -8.20067 0
260.395 -8.34494 0
260.64 -4.0639 0
258.11 -3.91951 0
259.131 -8.27269 0
260.517 -6.20432 0
259.375 -3.99159 0
257.988 -6.05999 0
259.253 -6.13204 0
260.395 -8.34494 0
262.924 -8.49012 0
263.17 -4.20919 0
260.64 -4.0639 0
261.659 -8.41742 0
263.047 -6.34956 0
261.905 -4.13643 0
260.517 -6.20432 0
261.782 -6.27683 0
262.924 -8.49012 0
265.452 -8.6362 0
265.7 -4.35539 0
263.17 -4.20919 0
264.188 -8.56305 0
265.576 -6.4957 0
264.435 -4.28218 0
263.047 -6.34956 0
264.311 -6.42252 0
265.452 -8.6362 0
267.981 -8.78317 0
268.23 -4.50247 0
265.7 -4.35539 0
266.716 -8.70958 0
268.105 -6.64273 0
266.965 -4.42882 0
265.576 -6.4957 0
266.841 -6.5691 0
267.981 -8.78317 0
270.509 -8.93103 0
270.76 -4.65043 0
268.23 -4.50247 0
269.245 -8.85699 0
270.635 -6.79064 0
269.495 -4.57634 0
268.105 -6.64273 0
269.37 -6.71657 0
270.509 -8.93103 0
273.038 -9.07975 0
273.29 -4.79926 0
270.76 -4.65043 0
271.774 -9.00528 0
273.164 -6.93941 0
272.025 -4.72474 0
270.635 -6.79064 0
271.899 -6.86492 0
273.038 -9.07975 0
275.566 -9.22933 0
275.82 -4.94895 0
273.29 -4.79926 0
274.302 -9.15443 0
275.693 -7.08905 0
274.555 -4.874 0
273.164 -6.93941 0
274.429 -7.01412 0
275.566 -9.22933 0
278.095 -9.37976 0
278.35 -5.09949 0
275.82 -4.94895 0
276.831 -9.30444 0
278.223 -7.23954 0
277.085 -5.02411 0
275.693 -7.08905 0
276.958 -7.16419 0
278.095 -9.37976 0
280.624 -9.53103 0
280.88 -5.25087 0
278.35 -5.09949 0
279.359 -9.45529 0
280.752 -7.39086 0
279.615 -5.17508 0
278.223 -7.23954 0
279.487 -7.3151 0
280.624 -9.53103 0
283.152 -9.68313 0
283.41 -5.40308 0
280.88 -5.25087 0
281.888 -9.60698 0
283.281 -7.54302 0
282.145 -5.32688 0
280.752 -7.39086 0
282.017 -7.46684 0
283.152 -9.68313 0
285.681 -9.83606 0
285.94 -5.55612 0
283.41 -5.40308 0
284.417 -9.75949 0
285.811 -7.69601 0
284.675 -5.4795 0
283.281 -7.54302 0
284.546 -7.61941 0
285.681 -9.83606 0
288.21 -9.9898 0
288.47 -5.70996 0
285.94 -5.55612 0
286.945 -9.91283 0
288.34 -7.8498 0
287.205 -5.63294 0
285.811 -7.69601 0
287.075 -7.7728 0
288.21 -9.9898 0
290.738 -10.1443 0
291 -5.86461 0
288.47 -5.70996 0
289.474 -10.067 0
290.869 -8.00439 0
289.735 -5.78719 0
288.34 -7.8498 0
289.605 -7.927 0
290.738 -10.1443 0
293.267 -10.2997 0
293.53 -6.02005 0
291 -5.86461 0
292.003 -10.2219 0
293.399 -8.15978 0
292.265 -5.94223 0
290.869 -8.00439 0
292.134 -8.08199 0
293.267 -10.2997 0
295.796 -10.4558 0
296.06 -6.17628 0
293.53 -6.02005 0
294.531 -10.3776 0
295.928 -8.31595 0
294.795 -6.09807 0
293.399 -8.15978 0
294.663 -8.23777 0
295.796 -10.4558 0
298.324 -10.6127 0
298.59 -6.33327 0
296.06 -6.17628 0
297.06 -10.5341 0
298.457 -8.4729 0
297.325 -6.25468 0
295.928 -8.31595 0
297.193 -8.39433 0
298.324 -10.6127 0
300.853 -10.7703 0
301.12 -6.49103 0
298.59 -6.33327 0
299.589 -10.6914 0
300.987 -8.63061 0
299.855 -6.41206 0
298.457 -8.4729 0
299.722 -8.55166 0
300.853 -10.7703 0
303.382 -10.9287 0
303.65 -6.64955 0
301.12 -6.49103 0
302.117 -10.8494 0
303.516 -8.78907 0
302.385 -6.5702 0
300.987 -8.63061 0
302.251 -8.70975 0
303.382 -10.9287 0
305.91 -11.0879 0
306.18 -6.80881 0
303.65 -6.64955 0
304.646 -11.0082 0
306.045 -8.94828 0
304.915 -6.72908 0
303.516 -8.78907 0
304.781 -8.86858 0
305.91 -11.0879 0
308.439 -11.2478 0
308.71 -6.9688 0
306.18 -6.80881 0
307.175 -11.1678 0
308.575 -9.10822 0
307.445 -6.88871 0
306.045 -8.94828 0
307.31 -9.02816 0
308.439 -11.2478 0
310.968 -11.4084 0
311.24 -7.12952 0
308.71 -6.9688 0
309.703 -11.328 0
311.104 -9.26889 0
309.975 -7.04907 0
308.575 -9.10822 0
309.839 -9.18847 0
310.968 -11.4084 0
313.496 -11.5697 0
313.77 -7.29095 0
311.24 -7.12952 0
312.232 -11.489 0
313.633 -9.43027 0
312.505 -7.21015 0
311.104 -9.26889 0
312.369 -9.34949 0
313.496 -11.5697 0
316.025 -11.7318 0
316.3 -7.45309 0
313.77 -7.29095 0
314.761 -11.6507 0
316.163 -9.59236 0
315.035 -7.37193 0
313.633 -9.43027 0
314.898 -9.51123 0
316.025 -11.7318 0
318.554 -11.8945 0
318.83 -7.61593 0
316.3 -7.45309 0
317.29 -11.8131 0
318.692 -9.75515 0
317.565 -7.53442 0
316.163 -9.59236 0
317.427 -9.67367 0
318.554 -11.8945 0
321.083 -12.0579 0
321.36 -7.77945 0
318.83 -7.61593 0
319.818 -11.9761 0
321.221 -9.91863 0
320.095 -7.6976 0
318.692 -9.75515 0
319.957 -9.8368 0
321.083 -12.0579 0
323.612 -12.222 0
323.89 -7.94365 0
321.36 -7.77945 0
322.347 -12.1399 0
323.751 -10.0828 0
322.625 -7.86146 0
321.221 -9.91863 0
322.486 -10.0006 0
323.612 -12.222 0
326.14 -12.3868 0
326.419 -8.10851 0
323.89 -7.94365 0
324.876 -12.3043 0
326.28 -10.2476 0
325.154 -8.026 0
323.751 -10.0828 0
325.015 -10.1651 0
326.14 -12.3868 0
328.669 -12.5522 0
328.949 -8.27404 0
326.419 -8.10851 0
327.405 -12.4694 0
328.809 -10.4131 0
327.684 -8.1912 0
326.28 -10.2476 0
327.545 -10.3303 0
328.669 -12.5522 0
331.198 -12.7183 0
331.479 -8.44021 0
328.949 -8.27404 0
329.934 -12.6352 0
331.339 -10.5792 0
330.214 -8.35705 0
328.809 -10.4131 0
330.074 -10.4961 0
331.198 -12.7183 0
333.727 -12.885 0
334.009 -8.60702 0
331.479 -8.44021 0
332.462 -12.8016 0
333.868 -10.746 0
332.744 -8.52354 0
331.339 -10.5792 0
332.603 -10.6625 0
333.727 -12.885 0
336.256 -13.0524 0
336.539 -8.77446 0
334.009 -8.60702 0
334.991 -12.9686 0
336.397 -10.9134 0
335.274 -8.69066 0
333.868 -10.746 0
335.133 -10.8296 0
336.256 -13.0524 0
338.785 -13.2203 0
339.069 -8.94252 0
336.539 -8.77446 0
337.52 -13.1363 0
338.927 -11.0814 0
337.804 -8.85842 0
336.397 -10.9134 0
337.662 -10.9973 0
338.785 -13.2203 0
341.313 -13.3889 0
341.599 -9.11119 0
339.069 -8.94252 0
340.049 -13.3046 0
341.456 -11.25 0
340.334 -9.02678 0
338.927 -11.0814 0
340.192 -11.1656 0
341.313 -13.3889 0
343.842 -13.5581 0
344.129 -9.28046 0
341.599 -9.11119 0
342.578 -13.4734 0
343.986 -11.4192 0
342.864 -9.19575 0
341.456 -11.25 0
342.721 -11.3345 0
343.842 -13.5581 0
346.371 -13.7279 0
346.659 -9.45032 0
344.129 -9.28046 0
345.107 -13.6429 0
346.515 -11.589 0
345.394 -9.36531 0
343.986 -11.4192 0
345.25 -11.5041 0
346.371 -13.7279 0
348.9 -13.8982 0
349.189 -9.62076 0
346.659 -9.45032 0
347.636 -13.813 0
349.044 -11.7594 0
347.924 -9.53546 0
346.515 -11.589 0
347.78 -11.6742 0
348.9 -13.8982 0
351.429 -14.0691 0
351.719 -9.79177 0
349.189 -9.62076 0
350.165 -13.9836 0
351.574 -11.9304 0
350.454 -9.70619 0
349.044 -11.7594 0
350.309 -11.8448 0
351.429 -14.0691 0
353.958 -14.2406 0
354.248 -9.96334 0
351.719 -9.79177 0
352.694 -14.1548 0
354.103 -12.1019 0
352.984 -9.87748 0
351.574 -11.9304 0
352.839 -12.0161 0
353.958 -14.2406 0
356.487 -14.4127 0
356.778 -10.1355 0
354.248 -9.96334 0
355.223 -14.3266 0
356.633 -12.274 0
355.513 -10.0493 0
354.103 -12.1019 0
355.368 -12.1879 0
356.487 -14.4127 0
359.016 -14.5852 0
359.308 -10.3081 0
356.778 -10.1355 0
357.752 -14.4989 0
359.162 -12.4466 0
358.043 -10.2217 0
356.633 -12.274 0
357.898 -12.3602 0
359.016 -14.5852 0
361.545 -14.7583 0
361.838 -10.4813 0
359.308 -10.3081 0
360.281 -14.6717 0
361.692 -12.6198 0
360.573 -10.3947 0
359.162 -12.4466 0
360.427 -12.5331 0
361.545 -14.7583 0
364.074 -14.932 0
364.368 -10.655 0
361.838 -10.4813 0
362.81 -14.8451 0
364.221 -12.7935 0
363.103 -10.5681 0
361.692 -12.6198 0
362.957 -12.7066 0
364.074 -14.932 0
366.603 -15.1061 0
366.898 -10.8293 0
364.368 -10.655 0
365.339 -15.019 0
366.751 -12.9677 0
365.633 -10.7421 0
364.221 -12.7935 0
365.486 -12.8805 0
366.603 -15.1061 0
369.133 -15.2808 0
369.428 -11.004 0
366.898 -10.8293 0
367.868 -15.1934 0
369.28 -13.1424 0
368.163 -10.9166 0
366.751 -12.9677 0
368.016 -13.0549 0
369.133 -15.2808 0
371.662 -15.4559 0
371.958 -11.1793 0
369.428 -11.004 0
370.397 -15.3683 0
371.81 -13.3176 0
370.693 -11.0916 0
369.28 -13.1424 0
370.545 -13.2299 0
371.662 -15.4559 0
374.191 -15.6316 0
374.488 -11.355 0
371.958 -11.1793 0
372.926 -15.5437 0
374.339 -13.4932 0
373.223 -11.2671 0
371.81 -13.3176 0
373.075 -13.4053 0
374.191 -15.6316 0
376.72 -15.8077 0
377.018 -11.5312 0
374.488 -11.355 0
375.455 -15.7196 0
376.869 -13.6694 0
375.753 -11.443 0
374.339 -13.4932 0
375.604 -13.5812 0
376.72 -15.8077 0
379.249 -15.9843 0
379.548 -11.7078 0
377.018 -11.5312 0
377.985 -15.8959 0
379.399 -13.846 0
378.283 -11.6194 0
376.869 -13.6694 0
378.134 -13.7576 0
379.249 -15.9843 0
381.778 -16.1613 0
382.078 -11.8849 0
379.548 -11.7078 0
380.514 -16.0727 0
381.928 -14.0231 0
380.813 -11.7963 0
379.399 -13.846 0
380.663 -13.9345 0
381.778 -16.1613 0
384.308 -16.3388 0
384.608 -12.0625 0
382.078 -11.8849 0
383.043 -16.25 0
384.458 -14.2006 0
383.343 -11.9737 0
381.928 -14.0231 0
383.193 -14.1118 0
384.308 -16.3388 0
386.837 -16.5167 0
387.138 -12.2405 0
384.608 -12.0625 0
385.572 -16.4277 0
386.988 -14.3786 0
385.873 -12.1514 0
384.458 -14.2006 0
385.723 -14.2895 0
386.837 -16.5167 0
389.366 -16.6951 0
389.668 -12.4189 0
387.138 -12.2405 0
388.102 -16.6058 0
389.517 -14.5569 0
388.403 -12.3296 0
386.988 -14.3786 0
388.252 -14.4677 0
389.366 -16.6951 0
391.896 -16.8738 0
392.198 -12.5977 0
389.668 -12.4189 0
390.631 -16.7844 0
392.047 -14.7357 0
390.933 -12.5083 0
389.517 -14.5569 0
390.782 -14.6463 0
391.896 -16.8738 0
394.425 -17.053 0
394.728 -12.777 0
392.198 -12.5977 0
393.16 -16.9634 0
394.577 -14.915 0
393.463 -12.6873 0
392.047 -14.7357 0
393.312 -14.8253 0
394.425 -17.053 0
396.954 -17.2326 0
397.258 -12.9566 0
394.728 -12.777 0
395.69 -17.1427 0
397.106 -15.0946 0
395.993 -12.8668 0
394.577 -14.915 0
395.841 -15.0047 0
396.954 -17.2326 0
399.484 -17.4125 0
399.788 -13.1367 0
397.258 -12.9566 0
398.219 -17.3225 0
399.636 -15.2746 0
398.523 -13.0466 0
397.106 -15.0946 0
398.371 -15.1845 0
399.484 -17.4125 0
402.013 -17.5929 0
402.318 -13.3171 0
399.788 -13.1367 0
400.749 -17.5026 0
402.166 -15.4549 0
401.053 -13.2268 0
399.636 -15.2746 0
400.901 -15.3647 0
402.013 -17.5929 0
404.543 -17.7736 0
404.848 -13.4979 0
402.318 -13.3171 0
403.278 -17.6832 0
404.696 -15.6357 0
403.583 -13.4074 0
402.166 -15.4549 0
403.431 -15.5453 0
404.543 -17.7736 0
407.072 -17.9546 0
407.378 -13.679 0
404.848 -13.4979 0
405.808 -17.8641 0
407.225 -15.8168 0
406.113 -13.5884 0
404.696 -15.6357 0
405.961 -15.7262 0
407.072 -17.9546 0
409.602 -18.1361 0
409.909 -13.8605 0
407.378 -13.679 0
408.337 -18.0453 0
409.755 -15.9982 0
408.644 -13.7697 0
407.225 -15.8168 0
408.49 -15.9075 0
409.602 -18.1361 0
412.131 -18.3178 0
412.439 -14.0423 0
409.909 -13.8605 0
410.867 -18.2269 0
412.285 -16.18 0
411.174 -13.9514 0
409.755 -15.9982 0
411.02 -16.0891 0
412.131 -18.3178 0
414.661 -18.4999 0
414.969 -14.2245 0
412.439 -14.0423 0
413.396 -18.4088 0
414.815 -16.3622 0
413.704 -14.1334 0
412.285 -16.18 0
413.55 -16.2711 0
414.661 -18.4999 0
417.191 -18.6823 0
417.499 -14.407 0
414.969 -14.2245 0
415.926 -18.5911 0
417.345 -16.5446 0
416.234 -14.3157 0
414.815 -16.3622 0
416.08 -16.4534 0
417.191 -18.6823 0
419.72 -18.8651 0
420.029 -14.5897 0
417.499 -14.407 0
418.456 -18.7737 0
419.875 -16.7274 0
418.764 -14.4983 0
417.345 -16.5446 0
418.61 -16.636 0
419.72 -18.8651 0
422.25 -19.0481 0
422.56 -14.7728 0
420.029 -14.5897 0
420.985 -18.9566 0
422.405 -16.9104 0
421.294 -14.6813 0
419.875 -16.7274 0
421.14 -16.8189 0
422.25 -19.0481 0
424.78 -19.2314 0
425.09 -14.9562 0
422.56 -14.7728 0
423.515 -19.1397 0
424.935 -17.0938 0
423.825 -14.8645 0
422.405 -16.9104 0
423.67 -17.0021 0
424.78 -19.2314 0
427.31 -19.415 0
427.62 -15.1399 0
425.09 -14.9562 0
426.045 -19.3232 0
427.465 -17.2774 0
426.355 -15.048 0
424.935 -17.0938 0
426.2 -17.1856 0
427.31 -19.415 0
429.84 -19.5989 0
430.15 -15.3238 0
427.62 -15.1399 0
428.575 -19.5069 0
429.995 -17.4613 0
428.885 -15.2318 0
427.465 -17.2774 0
428.73 -17.3694 0
429.84 -19.5989 0
432.369 -19.7831 0
432.681 -15.508 0
430.15 -15.3238 0
431.104 -19.691 0
432.525 -17.6455 0
431.415 -15.4159 0
429.995 -17.4613 0
431.26 -17.5534 0
432.369 -19.7831 0
434.899 -19.9675 0
435.211 -15.6925 0
432.681 -15.508 0
433.634 -19.8752 0
435.055 -17.83 0
433.946 -15.6002 0
432.525 -17.6455 0
433.79 -17.7377 0
434.899 -19.9675 0
437.429 -20.1521 0
437.741 -15.8772 0
435.211 -15.6925 0
436.164 -20.0598 0
437.585 -18.0146 0
436.476 -15.7848 0
435.055 -17.83 0
436.32 -17.9223 0
437.429 -20.1521 0
439.959 -20.337 0
440.272 -16.0621 0
437.741 -15.8772 0
438.694 -20.2445 0
440.115 -18.1995 0
439.006 -15.9696 0
437.585 -18.0146 0
438.85 -18.1071 0
439.959 -20.337 0
442.489 -20.5221 0
442.802 -16.2473 0
440.272 -16.0621 0
441.224 -20.4295 0
442.646 -18.3847 0
441.537 -16.1547 0
440.115 -18.1995 0
441.381 -18.2921 0
442.489 -20.5221 0
445.019 -20.7074 0
445.332 -16.4326 0
442.802 -16.2473 0
443.754 -20.6147 0
445.176 -18.57 0
444.067 -16.3399 0
442.646 -18.3847 0
443.911 -18.4773 0
445.019 -20.7074 0
447.549 -20.893 0
447.863 -16.6182 0
445.332 -16.4326 0
446.284 -20.8002 0
447.706 -18.7556 0
446.598 -16.5254 0
445.176 -18.57 0
446.441 -18.6628 0
447.549 -20.893 0
450.08 -21.0787 0
450.393 -16.804 0
447.863 -16.6182 0
448.815 -20.9858 0
450.237 -18.9413 0
449.128 -16.7111 0
447.706 -18.7556 0
448.971 -18.8484 0
450.08 -21.0787 0
452.61 -21.2646 0
452.924 -16.99 0
450.393 -16.804 0
451.345 -21.1716 0
452.767 -19.1273 0
451.659 -16.897 0
450.237 -18.9413 0
451.502 -19.0343 0
452.61 -21.2646 0
455.14 -21.4507 0
455.454 -17.1761 0
452.924 -16.99 0
453.875 -21.3576 0
455.297 -19.3134 0
454.189 -17.083 0
452.767 -19.1273 0
454.032 -19.2203 0
455.14 -21.4507 0
457.67 -21.6369 0
457.985 -17.3624 0
455.454 -17.1761 0
456.405 -21.5438 0
457.828 -19.4997 0
456.72 -17.2692 0
455.297 -19.3134 0
456.562 -19.4065 0
457.67 -21.6369 0
460.201 -21.8234 0
460.516 -17.5489 0
457.985 -17.3624 0
458.936 -21.7301 0
460.358 -19.6861 0
459.25 -17.4556 0
457.828 -19.4997 0
459.093 -19.5929 0
460.201 -21.8234 0
462.731 -22.0099 0
463.046 -17.7355 0
460.516 -17.5489 0
461.466 -21.9166 0
462.889 -19.8727 0
461.781 -17.6421 0
460.358 -19.6861 0
461.623 -19.7794 0
462.731 -22.0099 0
465.262 -22.1966 0
465.577 -17.9222 0
463.046 -17.7355 0
463.996 -22.1033 0
465.419 -20.0594 0
464.312 -17.8288 0
462.889 -19.8727 0
464.154 -19.966 0
465.262 -22.1966 0
467.792 -22.3835 0
468.108 -18.1091 0
465.577 -17.9222 0
466.527 -22.29 0
467.95 -20.2463 0
466.842 -18.0156 0
465.419 -20.0594 0
466.684 -20.1528 0
467.792 -22.3835 0
470.323 -22.5704 0
470.638 -18.2961 0
468.108 -18.1091 0
469.057 -22.4769 0
470.48 -20.4332 0
469.373 -18.2026 0
467.95 -20.2463 0
469.215 -20.3397 0
470.323 -22.5704 0
472.853 -22.7575 0
473.169 -18.4832 0
470.638 -18.2961 0
471.588 -22.6639 0
473.011 -20.6203 0
471.904 -18.3896 0
470.48 -20.4332 0
471.746 -20.5268 0
472.853 -22.7575 0
475.384 -22.9446 0
475.7 -18.6704 0
473.169 -18.4832 0
474.118 -22.8511 0
475.542 -20.8075 0
474.434 -18.5768 0
473.011 -20.6203 0
474.276 -20.7139 0
475.384 -22.9446 0
477.914 -23.1319 0
478.231 -18.8577 0
475.7 -18.6704 0
476.649 -23.0383 0
478.073 -20.9948 0
476.965 -18.764 0
475.542 -20.8075 0
476.807 -20.9011 0
477.914 -23.1319 0
480.445 -23.3192 0
480.761 -19.045 0
478.231 -18.8577 0
479.18 -23.2256 0
480.603 -21.1821 0
479.496 -18.9513 0
478.073 -20.9948 0
479.338 -21.0884 0
480.445 -23.3192 0
482.976 -23.5066 0
483.292 -19.2325 0
480.761 -19.045 0
481.71 -23.4129 0
483.134 -21.3696 0
482.027 -19.1388 0
480.603 -21.1821 0
481.869 -21.2758 0
482.976 -23.5066 0
485.507 -23.6941 0
485.823 -19.42 0
483.292 -19.2325 0
484.241 -23.6004 0
485.665 -21.557 0
484.558 -19.3262 0
483.134 -21.3696 0
484.4 -21.4633 0
485.507 -23.6941 0
488.038 -23.8816 0
488.354 -19.6075 0
485.823 -19.42 0
486.772 -23.7879 0
488.196 -21.7446 0
487.089 -19.5138 0
485.665 -21.557 0
486.93 -21.6508 0
488.038 -23.8816 0
490.568 -24.0692 0
490.885 -19.7952 0
488.354 -19.6075 0
489.303 -23.9754 0
490.727 -21.9322 0
489.62 -19.7013 0
488.196 -21.7446 0
489.461 -21.8384 0
490.568 -24.0692 0
493.099 -24.2569 0
493.416 -19.9828 0
490.885 -19.7952 0
491.834 -24.163 0
493.258 -22.1199 0
492.151 -19.889 0
490.727 -21.9322 0
491.992 -22.026 0
493.099 -24.2569 0
495.63 -24.4447 0
495.947 -20.1706 0
493.416 -19.9828 0
494.365 -24.3508 0
495.789 -22.3077 0
494.682 -20.0767 0
493.258 -22.1199 0
494.523 -22.2137 0
495.63 -24.4447 0
498.161 -24.6333 0
498.478 -20.3585 0
495.947 -20.1706 0
496.896 -24.5388 0
498.32 -22.4959 0
497.213 -20.2646 0
495.789 -22.3077 0
497.054 -22.4017 0
0 4.28571 0
2.53073 4.28365 0
2.53379 8.571 0
0 8.57143 0
1.26547 4.28498 0
2.53232 6.42753 0
1.26696 8.57156 0
0 6.42857 0
1.2662 6.42835 0
2.53073 4.28365 0
5.06084 4.27976 0
5.06726 8.56814 0
2.53379 8.571 0
3.79582 4.28189 0
5.06416 6.42418 0
3.80055 8.56985 0
2.53232 6.42753 0
3.79829 6.42611 0
5.06084 4.27976 0
7.59089 4.2744 0
7.60053 8.56319 0
5.06726 8.56814 0
6.32586 4.27727 0
7.5958 6.41901 0
6.33391 8.56591 0
5.06416 6.42418 0
6.32999 6.42181 0
7.59089 4.2744 0
10.121 4.26742 0
10.1338 8.55632 0
7.60053 8.56319 0
8.85592 4.27112 0
10.1274 6.41207 0
8.86714 8.55999 0
7.5958 6.41901 0
8.86162 6.41576 0
10.121 4.26742 0
12.6511 4.2587 0
12.667 8.5476 0
10.1338 8.55632 0
11.386 4.26328 0
12.6591 6.40335 0
11.4004 8.55219 0
10.1274 6.41207 0
11.3933 6.40794 0
12.6511 4.2587 0
15.1813 4.24818 0
15.2003 8.53704 0
12.667 8.5476 0
13.9162 4.25367 0
15.1908 6.3928 0
13.9336 8.54255 0
12.6591 6.40335 0
13.925 6.3983 0
15.1813 4.24818 0
17.7115 4.23583 0
17.7336 8.52464 0
15.2003 8.53704 0
16.4464 4.24223 0
17.7226 6.38043 0
16.4669 8.53107 0
15.1908 6.3928 0
16.4567 6.38684 0
17.7115 4.23583 0
20.2418 4.22165 0
20.2669 8.51042 0
17.7336 8.52464 0
18.9767 4.22896 0
20.2544 6.36623 0
19.0003 8.51776 0
17.7226 6.38043 0
18.9885 6.37356 0
20.2418 4.22165 0
22.7721 4.20564 0
22.8003 8.49437 0
20.2669 8.51042 0
21.507 4.21387 0
22.7862 6.3502 0
21.5336 8.50262 0
20.2544 6.36623 0
21.5203 6.35844 0
22.7721 4.20564 0
25.3024 4.18782 0
25.3337 8.47651 0
22.8003 8.49437 0
24.0373 4.19696 0
25.3181 6.33236 0
24.067 8.48566 0
22.7862 6.3502 0
24.0522 6.34151 0
25.3024 4.18782 0
27.8328 4.1682 0
27.8671 8.45684 0
25.3337 8.47651 0
26.5676 4.17824 0
27.85 6.31271 0
26.6004 8.4669 0
25.3181 6.33236 0
26.584 6.32276 0
27.8328 4.1682 0
30.3632 4.14678 0
30.4005 8.43538 0
27.8671 8.45684 0
29.098 4.15771 0
30.3819 6.29127 0
29.1338 8.44633 0
27.85 6.31271 0
29.1159 6.30222 0
30.3632 4.14678 0
32.8936 4.12357 0
32.934 8.41213 0
30.4005 8.43538 0
31.6284 4.1354 0
32.9138 6.26804 0
31.6672 8.42397 0
30.3819 6.29127 0
31.6479 6.27988 0
32.8936 4.12357 0
35.424 4.09859 0
35.4674 8.3871 0
32.934 8.41213 0
34.1588 4.11131 0
35.4457 6.24304 0
34.2007 8.39983 0
32.9138 6.26804 0
34.1798 6.25576 0
35.424 4.09859 0
37.9545 4.07185 0
38.0008 8.36031 0
35.4674 8.3871 0
36.6893 4.08544 0
37.9777 6.21627 0
36.7341 8.37392 0
35.4457 6.24304 0
36.7117 6.22987 0
37.9545 4.07185 0
40.485 4.04335 0
40.5343 8.33175 0
38.0008 8.36031 0
39.2197 4.05782 0
40.5097 6.18774 0
39.2676 8.34625 0
37.9777 6.21627 0
39.2437 6.20222 0
40.485 4.04335 0
43.0155 4.0131 0
43.0677 8.30145 0
40.5343 8.33175 0
41.7502 4.02844 0
43.0416 6.15746 0
41.801 8.31682 0
40.5097 6.18774 0
41.7757 6.17282 0
43.0155 4.0131 0
45.546 3.98111 0
45.6012 8.26942 0
43.0677 8.30145 0
44.2807 3.99732 0
45.5736 6.12545 0
44.3345 8.28565 0
43.0416 6.15746 0
44.3076 6.14167 0
45.546 3.98111 0
48.0766 3.9474 0
48.1347 8.23565 0
45.6012 8.26942 0
46.8113 3.96447 0
48.1056 6.09171 0
46.8679 8.25275 0
45.5736 6.12545 0
46.8396 6.1088 0
48.0766 3.9474 0
50.6071 3.91197 0
50.6681 8.20016 0
48.1347 8.23565 0
49.3418 3.9299 0
50.6376 6.05625 0
49.4014 8.21812 0
48.1056 6.09171 0
49.3716 6.0742 0
50.6071 3.91197 0
53.1377 3.87484 0
53.2016 8.16297 0
50.6681 8.20016 0
51.8724 3.89362 0
53.1697 6.01909 0
51.9348 8.18178 0
50.6376 6.05625 0
51.9037 6.03788 0
53.1377 3.87484 0
55.6683 3.836 0
55.735 8.12407 0
53.2016 8.16297 0
54.403 3.85563 0
55.7017 5.98022 0
54.4683 8.14373 0
53.1697 6.01909 0
54.4357 5.99986 0
55.6683 3.836 0
58.1989 3.79548 0
58.2685 8.08349 0
55.735 8.12407 0
56.9336 3.81595 0
58.2337 5.93966 0
57.0018 8.10399 0
55.7017 5.98022 0
56.9677 5.96015 0
58.1989 3.79548 0
60.7295 3.75328 0
60.8019 8.04122 0
58.2685 8.08349 0
59.4642 3.77459 0
60.7658 5.89743 0
59.5352 8.06257 0
58.2337 5.93966 0
59.4997 5.91876 0
60.7295 3.75328 0
63.2601 3.70941 0
63.3354 7.99729 0
60.8019 8.04122 0
61.9948 3.73155 0
63.2978 5.85352 0
62.0687 8.01946 0
60.7658 5.89743 0
62.0318 5.87569 0
63.2601 3.70941 0
65.7908 3.66387 0
65.8688 7.95169 0
63.3354 7.99729 0
64.5255 3.68685 0
65.8298 5.80796 0
64.6021 7.9747 0
63.2978 5.85352 0
64.5638 5.83095 0
65.7908 3.66387 0
68.3214 3.61669 0
68.4023 7.90444 0
65.8688 7.95169 0
67.0561 3.64049 0
68.3619 5.76074 0
67.1356 7.92827 0
65.8298 5.80796 0
67.0959 5.78456 0
68.3214 3.61669 0
70.8521 3.56787 0
70.9357 7.85555 0
68.4023 7.90444 0
69.5868 3.59249 0
70.8939 5.71189 0
69.669 7.8802 0
68.3619 5.76074 0
69.6279 5.73652 0
70.8521 3.56787 0
73.3828 3.51742 0
73.4692 7.80503 0
70.9357 7.85555 0
72.1174 3.54285 0
73.426 5.6614 0
72.2024 7.83049 0
70.8939 5.71189 0
72.16 5.68685 0
73.3828 3.51742 0
75.9135 3.46535 0
76.0026 7.75288 0
73.4692 7.80503 0
74.6481 3.49159 0
75.958 5.60929 0
74.7359 7.77916 0
73.426 5.6614 0
74.692 5.63555 0
75.9135 3.46535 0
78.4442 3.41166 0
78.536 7.69913 0
76.0026 7.75288 0
77.1788 3.43871 0
78.4901 5.55557 0
77.2693 7.72621 0
75.958 5.60929 0
77.2241 5.58263 0
78.4442 3.41166 0
80.9748 3.35638 0
81.0694 7.64377 0
78.536 7.69913 0
79.7095 3.38422 0
81.0221 5.50024 0
79.8027 7.67165 0
78.4901 5.55557 0
79.7561 5.5281 0
80.9748 3.35638 0
83.5056 3.2995 0
83.6028 7.58681 0
81.0694 7.64377 0
82.2402 3.32814 0
83.5542 5.44333 0
82.3361 7.61549 0
81.0221 5.50024 0
82.2882 5.47198 0
83.5056 3.2995 0
86.0363 3.24104 0
86.1362 7.52827 0
83.6028 7.58681 0
84.7709 3.27047 0
86.0862 5.38482 0
84.8695 7.55774 0
83.5542 5.44333 0
84.8202 5.41427 0
86.0363 3.24104 0
88.567 3.18101 0
88.6695 7.46816 0
86.1362 7.52827 0
87.3016 3.21122 0
88.6183 5.32475 0
87.4028 7.49841 0
86.0862 5.38482 0
87.3523 5.35498 0
88.567 3.18101 0
91.0977 3.11941 0
91.2029 7.40648 0
88.6695 7.46816 0
89.8323 3.1504 0
91.1503 5.26311 0
89.9362 7.43752 0
88.6183 5.32475 0
89.8843 5.29413 0
91.0977 3.11941 0
93.6284 3.05626 0
93.7362 7.34325 0
91.2029 7.40648 0
92.363 3.08803 0
93.6823 5.19992 0
92.4695 7.37506 0
91.1503 5.26311 0
92.4163 5.23171 0
93.6284 3.05626 0
96.1591 2.99157 0
96.2695 7.27847 0
93.7362 7.34325 0
94.8938 3.0241 0
96.2144 5.13518 0
95.0029 7.31105 0
93.6823 5.19992 0
94.9484 5.16774 0
96.1591 2.99157 0
98.6899 2.92534 0
98.8029 7.21216 0
96.2695 7.27847 0
97.4245 2.95864 0
98.7464 5.06891 0
97.5362 7.24551 0
96.2144 5.13518 0
97.4804 5.10224 0
98.6899 2.92534 0
101.221 2.85758 0
101.336 7.14432 0
98.8029 7.21216 0
99.9552 2.89165 0
101.278 5.00111 0
100.069 7.17843 0
98.7464 5.06891 0
100.012 5.0352 0
101.221 2.85758 0
103.751 2.78831 0
103.869 7.07497 0
101.336 7.14432 0
102.486 2.82314 0
103.81 4.9318 0
102.603 7.10983 0
101.278 5.00111 0
102.544 4.96665 0
103.751 2.78831 0
106.282 2.71754 0
106.403 7.00411 0
103.869 7.07497 0
105.017 2.75311 0
106.342 4.86098 0
105.136 7.03972 0
103.81 4.9318 0
105.076 4.89658 0
106.282 2.71754 0
108.813 2.64527 0
108.936 6.93175 0
106.403 7.00411 0
107.547 2.68159 0
108.874 4.78867 0
107.669 6.96811 0
106.342 4.86098 0
107.608 4.82501 0
108.813 2.64527 0
111.343 2.57151 0
111.469 6.8579 0
108.936 6.93175 0
110.078 2.60858 0
111.406 4.71487 0
110.203 6.89501 0
108.874 4.78867 0
110.14 4.75195 0
111.343 2.57151 0
113.874 2.49628 0
114.002 6.78258 0
111.469 6.8579 0
112.609 2.53408 0
113.938 4.63959 0
112.736 6.82042 0
111.406 4.71487 0
112.672 4.67741 0
113.874 2.49628 0
116.405 2.41958 0
116.536 6.70579 0
114.002 6.78258 0
115.14 2.45811 0
116.47 4.56284 0
115.269 6.74437 0
113.938 4.63959 0
115.204 4.6014 0
116.405 2.41958 0
118.936 2.34142 0
119.069 6.62754 0
116.536 6.70579 0
117.67 2.38068 0
119.002 4.48464 0
117.802 6.66685 0
116.47 4.56284 0
117.736 4.52392 0
118.936 2.34142 0
121.466 2.26182 0
121.602 6.54784 0
119.069 6.62754 0
120.201 2.3018 0
121.534 4.40498 0
120.335 6.58787 0
119.002 4.48464 0
120.268 4.44499 0
121.466 2.26182 0
123.997 2.18078 0
124.135 6.4667 0
121.602 6.54784 0
122.732 2.22148 0
124.066 4.32389 0
122.868 6.50745 0
121.534 4.40498 0
122.8 4.36462 0
123.997 2.18078 0
126.528 2.09831 0
126.668 6.38414 0
124.135 6.4667 0
125.262 2.13972 0
126.598 4.24137 0
125.402 6.4256 0
124.066 4.32389 0
125.332 4.28281 0
126.528 2.09831 0
129.058 2.01442 0
129.201 6.30015 0
126.668 6.38414 0
127.793 2.05654 0
129.13 4.15743 0
127.935 6.34232 0
126.598 4.24137 0
127.864 4.19958 0
129.058 2.01442 0
131.589 1.92912 0
131.734 6.21476 0
129.201 6.30015 0
130.324 1.97194 0
131.662 4.07209 0
130.468 6.25763 0
129.13 4.15743 0
130.396 4.11494 0
131.589 1.92912 0
134.12 1.84242 0
134.267 6.12796 0
131.734 6.21476 0
132.854 1.88594 0
134.194 3.98534 0
133.001 6.17153 0
131.662 4.07209 0
132.928 4.02889 0
134.12 1.84242 0
136.65 1.75433 0
136.8 6.03978 0
134.267 6.12796 0
135.385 1.79855 0
136.725 3.8972 0
135.534 6.08404 0
134.194 3.98534 0
135.459 3.94144 0
136.65 1.75433 0
139.181 1.66486 0
139.333 5.95021 0
136.8 6.03978 0
137.916 1.70977 0
139.257 3.80768 0
138.067 5.99516 0
136.725 3.8972 0
137.991 3.85261 0
139.181 1.66486 0
141.712 1.57402 0
141.866 5.85927 0
139.333 5.95021 0
140.446 1.61961 0
141.789 3.71679 0
140.6 5.90491 0
139.257 3.80768 0
140.523 3.76241 0
141.712 1.57402 0
144.242 1.48182 0
144.399 5.76697 0
141.866 5.85927 0
142.977 1.52809 0
144.321 3.62454 0
143.133 5.81329 0
141.789 3.71679 0
143.055 3.67084 0
144.242 1.48182 0
146.773 1.38827 0
146.932 5.67332 0
144.399 5.76697 0
145.508 1.43521 0
146.853 3.53094 0
145.666 5.72031 0
144.321 3.62454 0
145.587 3.57791 0
146.773 1.38827 0
149.304 1.29338 0
149.465 5.57832 0
146.932 5.67332 0
148.038 1.34099 0
149.384 3.43599 0
148.199 5.62599 0
146.853 3.53094 0
148.119 3.48363 0
149.304 1.29338 0
151.834 1.19715 0
151.998 5.482 0
149.465 5.57832 0
150.569 1.24543 0
151.916 3.33972 0
150.731 5.53033 0
149.384 3.43599 0
150.65 3.38802 0
151.834 1.19715 0
154.365 1.0996 0
154.531 5.38435 0
151.998 5.482 0
153.1 1.14854 0
154.448 3.24212 0
153.264 5.43334 0
151.916 3.33972 0
153.182 3.29108 0
154.365 1.0996 0
156.896 1.00074 0
157.064 5.28539 0
154.531 5.38435 0
155.63 1.05034 0
156.98 3.1432 0
155.797 5.33503 0
154.448 3.24212 0
155.714 3.19282 0
156.896 1.00074 0
159.426 0.900579 0
159.596 5.18512 0
157.064 5.28539 0
158.161 0.950823 0
159.511 3.04299 0
158.33 5.23541 0
156.98 3.1432 0
158.245 3.09326 0
159.426 0.900579 0
161.957 0.799122 0
162.129 5.08356 0
159.596 5.18512 0
160.691 0.850011 0
162.043 2.94148 0
160.863 5.1345 0
159.511 3.04299 0
160.777 2.99239 0
161.957 0.799122 0
164.487 0.696381 0
164.662 4.98071 0
162.129 5.08356 0
163.222 0.747911 0
164.575 2.83868 0
163.395 5.0323 0
162.043 2.94148 0
163.309 2.89024 0
164.487 0.696381 0
167.018 0.592366 0
167.195 4.87659 0
164.662 4.98071 0
165.753 0.644532 0
167.106 2.73461 0
165.928 4.92881 0
164.575 2.83868 0
165.84 2.78681 0
167.018 0.592366 0
169.548 0.487086 0
169.727 4.77121 0
167.195 4.87659 0
168.283 0.539883 0
169.638 2.62928 0
168.461 4.82406 0
167.106 2.73461 0
168.372 2.68211 0
169.548 0.487086 0
172.079 0.380551 0
172.26 4.66457 0
169.727 4.77121 0
170.814 0.433975 0
172.169 2.52269 0
170.994 4.71805 0
169.638 2.62928 0
170.904 2.57614 0
172.079 0.380551 0
174.609 0.272771 0
174.792 4.55668 0
172.26 4.66457 0
173.344 0.326816 0
174.701 2.41486 0
173.526 4.61078 0
172.169 2.52269 0
173.435 2.46893 0
174.609 0.272771 0
177.14 0.163756 0
177.325 4.44756 0
174.792 4.55668 0
175.875 0.218417 0
177.233 2.30579 0
176.059 4.50228 0
174.701 2.41486 0
175.967 2.36048 0
177.14 0.163756 0
179.67 0.0535141 0
179.858 4.33721 0
177.325 4.44756 0
178.405 0.108788 0
179.764 2.19549 0
178.591 4.39254 0
177.233 2.30579 0
178.498 2.25079 0
179.67 0.0535141 0
182.201 -0.057944 0
182.39 4.22565 0
179.858 4.33721 0
180.936 -0.00206349 0
182.296 2.08398 0
181.124 4.28158 0
179.764 2.19549 0
181.03 2.13989 0
182.201 -0.057944 0
184.731 -0.170609 0
184.923 4.11288 0
182.39 4.22565 0
183.466 -0.114126 0
184.827 1.97126 0
183.656 4.16941 0
182.296 2.08398 0
183.561 2.02777 0
184.731 -0.170609 0
187.262 -0.284471 0
187.455 3.99891 0
184.923 4.11288 0
185.997 -0.227391 0
187.359 1.85735 0
186.189 4.05604 0
184.827 1.97126 0
186.093 1.91445 0
187.262 -0.284471 0
189.792 -0.39952 0
189.988 3.88375 0
187.455 3.99891 0
188.527 -0.341848 0
189.89 1.74224 0
188.721 3.94148 0
187.359 1.85735 0
188.624 1.79994 0
189.792 -0.39952 0
192.323 -0.515747 0
192.52 3.76742 0
189.988 3.88375 0
191.058 -0.457487 0
192.421 1.62596 0
191.254 3.82573 0
189.89 1.74224 0
191.156 1.68425 0
192.323 -0.515747 0
194.853 -0.633143 0
195.052 3.64992 0
192.52 3.76742 0
193.588 -0.5743 0
194.953 1.50851 0
193.786 3.70881 0
192.421 1.62596 0
193.687 1.56738 0
194.853 -0.633143 0
197.384 -0.751697 0
197.585 3.53125 0
195.052 3.64992 0
196.118 -0.692275 0
197.484 1.3899 0
196.319 3.59073 0
194.953 1.50851 0
196.219 1.44935 0
197.384 -0.751697 0
199.914 -0.8714 0
200.117 3.41144 0
197.585 3.53125 0
198.649 -0.811405 0
200.016 1.27014 0
198.851 3.47149 0
197.484 1.3899 0
198.75 1.33016 0
199.914 -0.8714 0
202.444 -0.992242 0
202.649 3.29049 0
200.117 3.41144 0
201.179 -0.931679 0
202.547 1.14925 0
201.383 3.35111 0
200.016 1.27014 0
201.281 1.20984 0
202.444 -0.992242 0
204.975 -1.11421 0
205.182 3.16841 0
202.649 3.29049 0
203.71 -1.05309 0
205.078 1.02722 0
203.916 3.22959 0
202.547 1.14925 0
203.813 1.08837 0
204.975 -1.11421 0
207.505 -1.23731 0
207.714 3.04521 0
205.182 3.16841 0
206.24 -1.17562 0
207.61 0.904072 0
206.448 3.10695 0
205.078 1.02722 0
206.344 0.965785 0
207.505 -1.23731 0
210.036 -1.36151 0
210.246 2.9209 0
207.714 3.04521 0
208.77 -1.29927 0
210.141 0.779815 0
208.98 2.9832 0
207.61 0.904072 0
208.875 0.842082 0
210.036 -1.36151 0
212.566 -1.48681 0
212.778 2.79549 0
210.246 2.9209 0
211.301 -1.42402 0
212.672 0.654457 0
211.512 2.85834 0
210.141 0.779815 0
211.407 0.717273 0
212.566 -1.48681 0
215.096 -1.61321 0
215.311 2.66899 0
212.778 2.79549 0
213.831 -1.54987 0
215.203 0.528008 0
214.044 2.73238 0
212.672 0.654457 0
213.938 0.591368 0
215.096 -1.61321 0
217.627 -1.74068 0
217.843 2.54141 0
215.311 2.66899 0
216.361 -1.67681 0
217.735 0.400477 0
216.577 2.60533 0
215.203 0.528008 0
216.469 0.464377 0
217.627 -1.74068 0
220.157 -1.86923 0
220.375 2.41275 0
217.843 2.54141 0
218.892 -1.80482 0
220.266 0.271874 0
219.109 2.47721 0
217.735 0.400477 0
219 0.336309 0
220.157 -1.86923 0
222.687 -1.99884 0
222.907 2.28303 0
220.375 2.41275 0
221.422 -1.9339 0
222.797 0.14221 0
221.641 2.34803 0
220.266 0.271874 0
221.531 0.207174 0
222.687 -1.99884 0
225.217 -2.1295 0
225.439 2.15226 0
222.907 2.28303 0
223.952 -2.06404 0
225.328 0.0114927 0
224.173 2.21778 0
222.797 0.14221 0
224.063 0.0769822 0
225.217 -2.1295 0
227.748 -2.26121 0
227.971 2.02045 0
225.439 2.15226 0
226.482 -2.19522 0
227.859 -0.120267 0
226.705 2.08649 0
225.328 0.0114927 0
226.594 -0.0542575 0
227.748 -2.26121 0
230.278 -2.39394 0
230.503 1.88761 0
227.971 2.02045 0
229.013 -2.32745 0
230.39 -0.253061 0
229.237 1.95416 0
227.859 -0.120267 0
229.125 -0.186535 0
230.278 -2.39394 0
232.808 -2.52771 0
233.035 1.75374 0
230.503 1.88761 0
231.543 -2.4607 0
232.921 -0.386877 0
231.769 1.8208 0
230.39 -0.253061 0
231.656 -0.319842 0
232.808 -2.52771 0
235.338 -2.66248 0
235.567 1.61885 0
233.035 1.75374 0
234.073 -2.59497 0
235.453 -0.521708 0
234.301 1.68642 0
232.921 -0.386877 0
234.187 -0.454167 0
235.338 -2.66248 0
237.869 -2.79826 0
238.099 1.48297 0
235.567 1.61885 0
236.603 -2.73025 0
237.984 -0.657543 0
236.833 1.55103 0
235.453 -0.521708 0
236.718 -0.589501 0
237.869 -2.79826 0
240.399 -2.93504 0
240.631 1.34608 0
238.099 1.48297 0
239.134 -2.86653 0
240.515 -0.794373 0
239.365 1.41465 0
237.984 -0.657543 0
239.249 -0.725834 0
240.399 -2.93504 0
242.929 -3.0728 0
243.162 1.20822 0
240.631 1.34608 0
241.664 -3.0038 0
243.046 -0.932188 0
241.896 1.27727 0
240.515 -0.794373 0
241.78 -0.863158 0
242.929 -3.0728 0
245.459 -3.21153 0
245.694 1.06938 0
243.162 1.20822 0
244.194 -3.14205 0
245.577 -1.07098 0
244.428 1.13892 0
243.046 -0.932188 0
244.311 -1.00146 0
245.459 -3.21153 0
247.989 -3.35124 0
248.226 0.929568 0
245.694 1.06938 0
246.724 -3.28127 0
248.108 -1.21073 0
246.96 0.999592 0
245.577 -1.07098 0
246.842 -1.14074 0
247.989 -3.35124 0
250.519 -3.49189 0
250.758 0.788804 0
248.226 0.929568 0
249.254 -3.42145 0
250.639 -1.35145 0
249.492 0.859305 0
248.108 -1.21073 0
249.373 -1.28097 0
250.519 -3.49189 0
253.05 -3.6335 0
253.289 0.647094 0
250.758 0.788804 0
251.784 -3.56258 0
253.169 -1.4931 0
252.024 0.718067 0
250.639 -1.35145 0
251.904 -1.42216 0
253.05 -3.6335 0
255.58 -3.77604 0
255.821 0.504447 0
253.289 0.647094 0
254.315 -3.70465 0
255.7 -1.6357 0
254.555 0.575887 0
253.169 -1.4931 0
254.435 -1.56429 0
255.58 -3.77604 0
258.11 -3.91951 0
258.353 0.360874 0
255.821 0.504447 0
256.845 -3.84766 0
258.231 -1.77922 0
257.087 0.432776 0
255.7 -1.6357 0
256.966 -1.70735 0
258.11 -3.91951 0
260.64 -4.0639 0
260.884 0.216383 0
258.353 0.360874 0
259.375 -3.99159 0
260.762 -1.92366 0
259.619 0.288742 0
258.231 -1.77922 0
259.497 -1.85133 0
260.64 -4.0639 0
263.17 -4.20919 0
263.416 0.0709843 0
260.884 0.216383 0
261.905 -4.13643 0
263.293 -2.06901 0
262.15 0.143796 0
260.762 -1.92366 0
262.028 -1.99622 0
263.17 -4.20919 0
265.7 -4.35539 0
265.948 -0.0753123 0
263.416 0.0709843 0
264.435 -4.28218 0
265.824 -2.21526 0
264.682 -0.00205233 0
263.293 -2.06901 0
264.558 -2.14202 0
265.7 -4.35539 0
268.23 -4.50247 0
268.479 -0.222497 0
265.948 -0.0753123 0
266.965 -4.42882 0
268.355 -2.36239 0
267.213 -0.148794 0
265.824 -2.21526 0
267.089 -2.28871 0
268.23 -4.50247 0
270.76 -4.65043 0
271.011 -0.370561 0
268.479 -0.222497 0
269.495 -4.57634 0
270.885 -2.5104 0
269.745 -0.29642 0
268.355 -2.36239 0
269.62 -2.43629 0
270.76 -4.65043 0
273.29 -4.79926 0
273.542 -0.519494 0
271.011 -0.370561 0
272.025 -4.72474 0
273.416 -2.65929 0
272.276 -0.444919 0
270.885 -2.5104 0
272.151 -2.58474 0
273.29 -4.79926 0
275.82 -4.94895 0
276.074 -0.669286 0
273.542 -0.519494 0
274.555 -4.874 0
275.947 -2.80903 0
274.808 -0.594283 0
273.416 -2.65929 0
274.682 -2.73405 0
275.82 -4.94895 0
278.35 -5.09949 0
278.605 -0.819928 0
276.074 -0.669286 0
277.085 -5.02411 0
278.478 -2.95962 0
277.339 -0.744502 0
275.947 -2.80903 0
277.212 -2.88422 0
278.35 -5.09949 0
280.88 -5.25087 0
281.137 -0.971411 0
278.605 -0.819928 0
279.615 -5.17508 0
281.008 -3.11105 0
279.871 -0.895565 0
278.478 -2.95962 0
279.743 -3.03523 0
280.88 -5.25087 0
283.41 -5.40308 0
283.668 -1.12372 0
281.137 -0.971411 0
282.145 -5.32688 0
283.539 -3.26332 0
282.402 -1.04746 0
281.008 -3.11105 0
282.274 -3.18708 0
283.41 -5.40308 0
285.94 -5.55612 0
286.199 -1.27686 0
283.668 -1.12372 0
284.675 -5.4795 0
286.07 -3.4164 0
284.934 -1.20019 0
283.539 -3.26332 0
284.805 -3.33976 0
285.94 -5.55612 0
288.47 -5.70996 0
288.731 -1.4308 0
286.199 -1.27686 0
287.205 -5.63294 0
288.601 -3.5703 0
287.465 -1.35373 0
286.07 -3.4164 0
287.335 -3.49325 0
288.47 -5.70996 0
291 -5.86461 0
291.262 -1.58555 0
288.731 -1.4308 0
289.735 -5.78719 0
291.131 -3.725 0
289.996 -1.50808 0
288.601 -3.5703 0
289.866 -3.64755 0
291 -5.86461 0
293.53 -6.02005 0
293.793 -1.74109 0
291.262 -1.58555 0
292.265 -5.94223 0
293.662 -3.88049 0
292.528 -1.66322 0
291.131 -3.725 0
292.397 -3.80264 0
293.53 -6.02005 0
296.06 -6.17628 0
296.325 -1.89741 0
293.793 -1.74109 0
294.795 -6.09807 0
296.192 -4.03676 0
295.059 -1.81915 0
293.662 -3.88049 0
294.927 -3.95853 0
296.06 -6.17628 0
298.59 -6.33327 0
298.856 -2.0545 0
296.325 -1.89741 0
297.325 -6.25468 0
298.723 -4.19381 0
297.59 -1.97586 0
296.192 -4.03676 0
297.458 -4.11519 0
298.59 -6.33327 0
301.12 -6.49103 0
301.387 -2.21236 0
298.856 -2.0545 0
299.855 -6.41206 0
301.254 -4.35162 0
300.121 -2.13333 0
298.723 -4.19381 0
299.988 -4.27262 0
301.12 -6.49103 0
303.65 -6.64955 0
303.918 -2.37097 0
301.387 -2.21236 0
302.385 -6.5702 0
303.784 -4.51018 0
302.653 -2.29157 0
301.254 -4.35162 0
302.519 -4.4308 0
303.65 -6.64955 0
306.18 -6.80881 0
306.45 -2.53032 0
303.918 -2.37097 0
304.915 -6.72908 0
306.315 -4.66949 0
305.184 -2.45055 0
303.784 -4.51018 0
305.05 -4.58974 0
306.18 -6.80881 0
308.71 -6.9688 0
308.981 -2.69041 0
306.45 -2.53032 0
307.445 -6.88871 0
308.845 -4.82953 0
307.715 -2.61027 0
306.315 -4.66949 0
307.58 -4.74941 0
308.71 -6.9688 0
311.24 -7.12952 0
311.512 -2.85122 0
308.981 -2.69041 0
309.975 -7.04907 0
311.376 -4.99029 0
310.246 -2.77072 0
308.845 -4.82953 0
310.111 -4.90982 0
311.24 -7.12952 0
313.77 -7.29095 0
314.043 -3.01274 0
311.512 -2.85122 0
312.505 -7.21015 0
313.906 -5.15177 0
312.777 -2.93189 0
311.376 -4.99029 0
312.641 -5.07094 0
313.77 -7.29095 0
316.3 -7.45309 0
316.574 -3.17498 0
314.043 -3.01274 0
315.035 -7.37193 0
316.437 -5.31396 0
315.309 -3.09377 0
313.906 -5.15177 0
315.172 -5.23278 0
316.3 -7.45309 0
318.83 -7.61593 0
319.105 -3.3379 0
316.574 -3.17498 0
317.565 -7.53442 0
318.967 -5.47684 0
317.84 -3.25635 0
316.437 -5.31396 0
317.702 -5.39532 0
318.83 -7.61593 0
321.36 -7.77945 0
321.636 -3.50152 0
319.105 -3.3379 0
320.095 -7.6976 0
321.498 -5.64041 0
320.371 -3.41962 0
318.967 -5.47684 0
320.233 -5.55854 0
321.36 -7.77945 0
323.89 -7.94365 0
324.167 -3.66581 0
321.636 -3.50152 0
322.625 -7.86146 0
324.028 -5.80466 0
322.902 -3.58358 0
321.498 -5.64041 0
322.763 -5.72245 0
323.89 -7.94365 0
326.419 -8.10851 0
326.698 -3.83076 0
324.167 -3.66581 0
325.154 -8.026 0
326.559 -5.96957 0
325.433 -3.7482 0
324.028 -5.80466 0
325.294 -5.88703 0
326.419 -8.10851 0
328.949 -8.27404 0
329.229 -3.99637 0
326.698 -3.83076 0
327.684 -8.1912 0
329.089 -6.13514 0
327.964 -3.91349 0
326.559 -5.96957 0
327.824 -6.05227 0
328.949 -8.27404 0
331.479 -8.44021 0
331.76 -4.16263 0
329.229 -3.99637 0
330.214 -8.35705 0
331.62 -6.30136 0
330.495 -4.07942 0
329.089 -6.13514 0
330.355 -6.21817 0
331.479 -8.44021 0
334.009 -8.60702 0
334.291 -4.32953 0
331.76 -4.16263 0
332.744 -8.52354 0
334.15 -6.46821 0
333.026 -4.246 0
331.62 -6.30136 0
332.885 -6.3847 0
334.009 -8.60702 0
336.539 -8.77446 0
336.822 -4.49706 0
334.291 -4.32953 0
335.274 -8.69066 0
336.681 -6.6357 0
335.557 -4.41322 0
334.15 -6.46821 0
335.415 -6.55188 0
336.539 -8.77446 0
339.069 -8.94252 0
339.353 -4.6652 0
336.822 -4.49706 0
337.804 -8.85842 0
339.211 -6.8038 0
338.088 -4.58105 0
336.681 -6.6357 0
337.946 -6.71967 0
339.069 -8.94252 0
341.599 -9.11119 0
341.884 -4.83395 0
339.353 -4.6652 0
340.334 -9.02678 0
341.742 -6.97251 0
340.619 -4.7495 0
339.211 -6.8038 0
340.476 -6.88808 0
341.599 -9.11119 0
344.129 -9.28046 0
344.415 -5.00331 0
341.884 -4.83395 0
342.864 -9.19575 0
344.272 -7.14182 0
343.15 -4.91856 0
341.742 -6.97251 0
343.007 -7.05709 0
344.129 -9.28046 0
346.659 -9.45032 0
346.946 -5.17325 0
344.415 -5.00331 0
345.394 -9.36531 0
346.802 -7.31172 0
345.68 -5.0882 0
344.272 -7.14182 0
345.537 -7.2267 0
346.659 -9.45032 0
349.189 -9.62076 0
349.477 -5.34377 0
346.946 -5.17325 0
347.924 -9.53546 0
349.333 -7.4822 0
348.211 -5.25844 0
346.802 -7.31172 0
348.068 -7.39689 0
349.189 -9.62076 0
351.719 -9.79177 0
352.008 -5.51486 0
349.477 -5.34377 0
350.454 -9.70619 0
351.863 -7.65326 0
350.742 -5.42924 0
349.333 -7.4822 0
350.598 -7.56766 0
351.719 -9.79177 0
354.248 -9.96334 0
354.539 -5.68651 0
352.008 -5.51486 0
352.984 -9.87748 0
354.394 -7.82487 0
353.273 -5.60062 0
351.863 -7.65326 0
353.128 -7.73899 0
354.248 -9.96334 0
356.778 -10.1355 0
357.069 -5.85871 0
354.539 -5.68651 0
355.513 -10.0493 0
356.924 -7.99703 0
355.804 -5.77254 0
354.394 -7.82487 0
355.659 -7.91088 0
356.778 -10.1355 0
359.308 -10.3081 0
359.6 -6.03146 0
357.069 -5.85871 0
358.043 -10.2217 0
359.454 -8.16974 0
358.335 -5.94502 0
356.924 -7.99703 0
358.189 -8.08332 0
359.308 -10.3081 0
361.838 -10.4813 0
362.131 -6.20473 0
359.6 -6.03146 0
360.573 -10.3947 0
361.985 -8.34298 0
360.866 -6.11803 0
359.454 -8.16974 0
360.719 -8.25629 0
361.838 -10.4813 0
364.368 -10.655 0
364.662 -6.37853 0
362.131 -6.20473 0
363.103 -10.5681 0
364.515 -8.51674 0
363.396 -6.29157 0
361.985 -8.34298 0
363.25 -8.42979 0
364.368 -10.655 0
366.898 -10.8293 0
367.193 -6.55284 0
364.662 -6.37853 0
365.633 -10.7421 0
367.045 -8.69101 0
365.927 -6.46562 0
364.515 -8.51674 0
365.78 -8.60381 0
366.898 -10.8293 0
369.428 -11.004 0
369.723 -6.72765 0
367.193 -6.55284 0
368.163 -10.9166 0
369.576 -8.86579 0
368.458 -6.64019 0
367.045 -8.69101 0
368.311 -8.77834 0
369.428 -11.004 0
371.958 -11.1793 0
372.254 -6.90296 0
369.723 -6.72765 0
370.693 -11.0916 0
372.106 -9.04106 0
370.989 -6.81525 0
369.576 -8.86579 0
370.841 -8.95336 0
371.958 -11.1793 0
374.488 -11.355 0
374.785 -7.07875 0
372.254 -6.90296 0
373.223 -11.2671 0
374.637 -9.21681 0
373.52 -6.99079 0
372.106 -9.04106 0
373.371 -9.12887 0
374.488 -11.355 0
377.018 -11.5312 0
377.316 -7.25501 0
374.785 -7.07875 0
375.753 -11.443 0
377.167 -9.39304 0
376.05 -7.16682 0
374.637 -9.21681 0
375.902 -9.30487 0
377.018 -11.5312 0
379.548 -11.7078 0
379.846 -7.43174 0
377.316 -7.25501 0
378.283 -11.6194 0
379.697 -9.56973 0
378.581 -7.34332 0
377.167 -9.39304 0
378.432 -9.48133 0
379.548 -11.7078 0
382.078 -11.8849 0
382.377 -7.60892 0
379.846 -7.43174 0
380.813 -11.7963 0
382.228 -9.74688 0
381.112 -7.52027 0
379.697 -9.56973 0
380.962 -9.65825 0
382.078 -11.8849 0
384.608 -12.0625 0
384.908 -7.78655 0
382.377 -7.60892 0
383.343 -11.9737 0
384.758 -9.92448 0
383.643 -7.69768 0
382.228 -9.74688 0
383.493 -9.83562 0
384.608 -12.0625 0
387.138 -12.2405 0
387.439 -7.96461 0
384.908 -7.78655 0
385.873 -12.1514 0
387.288 -10.1025 0
386.173 -7.87553 0
384.758 -9.92448 0
386.023 -10.0134 0
387.138 -12.2405 0
389.668 -12.4189 0
389.969 -8.1431 0
387.439 -7.96461 0
388.403 -12.3296 0
389.819 -10.281 0
388.704 -8.0538 0
387.288 -10.1025 0
388.554 -10.1917 0
389.668 -12.4189 0
392.198 -12.5977 0
392.5 -8.322 0
389.969 -8.1431 0
390.933 -12.5083 0
392.349 -10.4598 0
391.235 -8.2325 0
389.819 -10.281 0
391.084 -10.3703 0
392.198 -12.5977 0
394.728 -12.777 0
395.031 -8.50131 0
392.5 -8.322 0
393.463 -12.6873 0
394.879 -10.6391 0
393.765 -8.41161 0
392.349 -10.4598 0
393.614 -10.5494 0
394.728 -12.777 0
397.258 -12.9566 0
397.562 -8.68102 0
395.031 -8.50131 0
395.993 -12.8668 0
397.41 -10.8188 0
396.296 -8.59112 0
394.879 -10.6391 0
396.145 -10.7289 0
397.258 -12.9566 0
399.788 -13.1367 0
400.092 -8.86111 0
397.562 -8.68102 0
398.523 -13.0466 0
399.94 -10.9989 0
398.827 -8.77102 0
397.41 -10.8188 0
398.675 -10.9088 0
399.788 -13.1367 0
402.318 -13.3171 0
402.623 -9.04158 0
400.092 -8.86111 0
401.053 -13.2268 0
402.471 -11.1793 0
401.358 -8.9513 0
399.94 -10.9989 0
401.205 -11.089 0
402.318 -13.3171 0
404.848 -13.4979 0
405.154 -9.22242 0
402.623 -9.04158 0
403.583 -13.4074 0
405.001 -11.3601 0
403.888 -9.13196 0
402.471 -11.1793 0
403.736 -11.2697 0
404.848 -13.4979 0
407.378 -13.679 0
407.684 -9.40362 0
405.154 -9.22242 0
406.113 -13.5884 0
407.531 -11.5413 0
406.419 -9.31298 0
405.001 -11.3601 0
406.266 -11.4506 0
407.378 -13.679 0
409.909 -13.8605 0
410.215 -9.58517 0
407.684 -9.40362 0
408.644 -13.7697 0
410.062 -11.7228 0
408.95 -9.49435 0
407.531 -11.5413 0
408.797 -11.632 0
409.909 -13.8605 0
412.439 -14.0423 0
412.746 -9.76705 0
410.215 -9.58517 0
411.174 -13.9514 0
412.592 -11.9047 0
411.48 -9.67607 0
410.062 -11.7228 0
411.327 -11.8137 0
412.439 -14.0423 0
414.969 -14.2245 0
415.277 -9.94927 0
412.746 -9.76705 0
413.704 -14.1334 0
415.123 -12.0868 0
414.011 -9.85812 0
412.592 -11.9047 0
413.858 -11.9957 0
414.969 -14.2245 0
417.499 -14.407 0
417.807 -10.1318 0
415.277 -9.94927 0
416.234 -14.3157 0
417.653 -12.2693 0
416.542 -10.0405 0
415.123 -12.0868 0
416.388 -12.1781 0
417.499 -14.407 0
420.029 -14.5897 0
420.338 -10.3146 0
417.807 -10.1318 0
418.764 -14.4983 0
420.184 -12.4522 0
419.073 -10.2232 0
417.653 -12.2693 0
418.918 -12.3607 0
420.029 -14.5897 0
422.56 -14.7728 0
422.869 -10.4978 0
420.338 -10.3146 0
421.294 -14.6813 0
422.714 -12.6353 0
421.603 -10.4062 0
420.184 -12.4522 0
421.449 -12.5437 0
422.56 -14.7728 0
425.09 -14.9562 0
425.399 -10.6812 0
422.869 -10.4978 0
423.825 -14.8645 0
425.245 -12.8187 0
424.134 -10.5895 0
422.714 -12.6353 0
423.979 -12.727 0
425.09 -14.9562 0
427.62 -15.1399 0
427.93 -10.8649 0
425.399 -10.6812 0
426.355 -15.048 0
427.775 -13.0024 0
426.665 -10.7731 0
425.245 -12.8187 0
426.51 -12.9105 0
427.62 -15.1399 0
430.15 -15.3238 0
430.461 -11.0489 0
427.93 -10.8649 0
428.885 -15.2318 0
430.306 -13.1864 0
429.195 -10.9569 0
427.775 -13.0024 0
429.04 -13.0943 0
430.15 -15.3238 0
432.681 -15.508 0
432.992 -11.2332 0
430.461 -11.0489 0
431.415 -15.4159 0
432.836 -13.3706 0
431.726 -11.141 0
430.306 -13.1864 0
431.571 -13.2784 0
432.681 -15.508 0
435.211 -15.6925 0
435.522 -11.4177 0
432.992 -11.2332 0
433.946 -15.6002 0
435.367 -13.5551 0
434.257 -11.3254 0
432.836 -13.3706 0
434.101 -13.4628 0
435.211 -15.6925 0
437.741 -15.8772 0
438.053 -11.6024 0
435.522 -11.4177 0
436.476 -15.7848 0
437.897 -13.7398 0
436.788 -11.51 0
435.367 -13.5551 0
436.632 -13.6474 0
437.741 -15.8772 0
440.272 -16.0621 0
440.584 -11.7874 0
438.053 -11.6024 0
439.006 -15.9696 0
440.428 -13.9247 0
439.318 -11.6949 0
437.897 -13.7398 0
439.162 -13.8322 0
440.272 -16.0621 0
442.802 -16.2473 0
443.115 -11.9726 0
440.584 -11.7874 0
441.537 -16.1547 0
442.958 -14.1099 0
441.849 -11.88 0
440.428 -13.9247 0
441.693 -14.0173 0
442.802 -16.2473 0
445.332 -16.4326 0
445.645 -12.158 0
443.115 -11.9726 0
444.067 -16.3399 0
445.489 -14.2953 0
444.38 -12.0653 0
442.958 -14.1099 0
444.224 -14.2026 0
445.332 -16.4326 0
447.863 -16.6182 0
448.176 -12.3436 0
445.645 -12.158 0
446.598 -16.5254 0
448.02 -14.4809 0
446.911 -12.2508 0
445.489 -14.2953 0
446.754 -14.3881 0
447.863 -16.6182 0
450.393 -16.804 0
450.707 -12.5295 0
448.176 -12.3436 0
449.128 -16.7111 0
450.55 -14.6667 0
449.441 -12.4365 0
448.02 -14.4809 0
449.285 -14.5738 0
450.393 -16.804 0
452.924 -16.99 0
453.238 -12.7155 0
450.707 -12.5295 0
451.659 -16.897 0
453.081 -14.8527 0
451.972 -12.6224 0
450.55 -14.6667 0
451.815 -14.7597 0
452.924 -16.99 0
455.454 -17.1761 0
455.768 -12.9016 0
453.238 -12.7155 0
454.189 -17.083 0
455.611 -15.0388 0
454.503 -12.8085 0
453.081 -14.8527 0
454.346 -14.9457 0
455.454 -17.1761 0
457.985 -17.3624 0
458.299 -13.088 0
455.768 -12.9016 0
456.72 -17.2692 0
458.142 -15.2252 0
457.034 -12.9948 0
455.611 -15.0388 0
456.877 -15.132 0
457.985 -17.3624 0
460.516 -17.5489 0
460.83 -13.2745 0
458.299 -13.088 0
459.25 -17.4556 0
460.673 -15.4116 0
459.565 -13.1812 0
458.142 -15.2252 0
459.408 -15.3184 0
460.516 -17.5489 0
463.046 -17.7355 0
463.361 -13.4611 0
460.83 -13.2745 0
461.781 -17.6421 0
463.204 -15.5983 0
462.096 -13.3678 0
460.673 -15.4116 0
461.938 -15.5049 0
463.046 -17.7355 0
465.577 -17.9222 0
465.892 -13.6479 0
463.361 -13.4611 0
464.312 -17.8288 0
465.734 -15.785 0
464.626 -13.5545 0
463.204 -15.5983 0
464.469 -15.6916 0
465.577 -17.9222 0
468.108 -18.1091 0
468.423 -13.8348 0
465.892 -13.6479 0
466.842 -18.0156 0
468.265 -15.9719 0
467.157 -13.7413 0
465.734 -15.785 0
467 -15.8785 0
468.108 -18.1091 0
470.638 -18.2961 0
470.954 -14.0218 0
468.423 -13.8348 0
469.373 -18.2026 0
470.796 -16.1589 0
469.688 -13.9283 0
468.265 -15.9719 0
469.531 -16.0654 0
470.638 -18.2961 0
473.169 -18.4832 0
473.485 -14.2089 0
470.954 -14.0218 0
471.904 -18.3896 0
473.327 -16.3461 0
472.219 -14.1154 0
470.796 -16.1589 0
472.061 -16.2525 0
473.169 -18.4832 0
475.7 -18.6704 0
476.016 -14.3962 0
473.485 -14.2089 0
474.434 -18.5768 0
475.858 -16.5333 0
474.75 -14.3025 0
473.327 -16.3461 0
474.592 -16.4396 0
475.7 -18.6704 0
478.231 -18.8577 0
478.546 -14.5835 0
476.016 -14.3962 0
476.965 -18.764 0
478.389 -16.7206 0
477.281 -14.4898 0
475.858 -16.5333 0
477.123 -16.6269 0
478.231 -18.8577 0
480.761 -19.045 0
481.077 -14.7709 0
478.546 -14.5835 0
479.496 -18.9513 0
480.919 -16.908 0
479.812 -14.6772 0
478.389 -16.7206 0
479.654 -16.8143 0
480.761 -19.045 0
483.292 -19.2325 0
483.608 -14.9584 0
481.077 -14.7709 0
482.027 -19.1388 0
483.45 -17.0954 0
482.343 -14.8646 0
480.919 -16.908 0
482.185 -17.0017 0
483.292 -19.2325 0
485.823 -19.42 0
486.139 -15.1459 0
483.608 -14.9584 0
484.558 -19.3262 0
485.981 -17.2829 0
484.874 -15.0521 0
483.45 -17.0954 0
484.716 -17.1892 0
485.823 -19.42 0
488.354 -19.6075 0
488.67 -15.3335 0
486.139 -15.1459 0
487.089 -19.5138 0
488.512 -17.4705 0
487.405 -15.2397 0
485.981 -17.2829 0
487.247 -17.3767 0
488.354 -19.6075 0
490.885 -19.7952 0
491.202 -15.5211 0
488.67 -15.3335 0
489.62 -19.7013 0
491.043 -17.6581 0
489.936 -15.4273 0
488.512 -17.4705 0
489.778 -17.5643 0
490.885 -19.7952 0
493.416 -19.9828 0
493.733 -15.7088 0
491.202 -15.5211 0
492.151 -19.889 0
493.575 -17.8458 0
492.467 -15.6149 0
491.043 -17.6581 0
492.309 -17.752 0
493.416 -19.9828 0
495.947 -20.1706 0
496.264 -15.8964 0
493.733 -15.7088 0
494.682 -20.0767 0
496.106 -18.0335 0
494.998 -15.8026 0
493.575 -17.8458 0
494.84 -17.9397 0
495.947 -20.1706 0
498.478 -20.3585 0
498.795 -16.084 0
496.264 -15.8964 0
497.213 -20.2646 0
498.637 -18.2212 0
497.529 -15.9902 0
496.106 -18.0335 0
497.371 -18.1274 0
0 8.57143 0
2.53379 8.571 0
2.53665 12.8574 0
0 12.8571 0
1.26696 8.57156 0
2.53523 10.7143 0
1.26833 12.8576 0
0 10.7143 0
1.26766 10.7146 0
2.53379 8.571 0
5.06726 8.56814 0
5.07318 12.855 0
2.53665 12.8574 0
3.80055 8.56985 0
5.07025 10.7117 0
3.80493 12.8565 0
2.53523 10.7143 0
3.80276 10.7133 0
5.06726 8.56814 0
7.60053 8.56319 0
7.60966 12.8503 0
5.07318 12.855 0
6.33391 8.56591 0
7.60513 10.707 0
6.34142 12.8529 0
5.07025 10.7117 0
6.3377 10.7096 0
7.60053 8.56319 0
10.1338 8.55632 0
10.1461 12.8436 0
7.60966 12.8503 0
8.86714 8.55999 0
10.14 10.7002 0
8.87788 12.8472 0
7.60513 10.707 0
8.87255 10.7038 0
10.1338 8.55632 0
12.667 8.5476 0
12.6825 12.8349 0
10.1461 12.8436 0
11.4004 8.55219 0
12.6748 10.6914 0
11.4143 12.8395 0
10.14 10.7002 0
11.4074 10.696 0
12.667 8.5476 0
15.2003 8.53704 0
15.219 12.8243 0
12.6825 12.8349 0
13.9336 8.54255 0
15.2097 10.6809 0
13.9508 12.8298 0
12.6748 10.6914 0
13.9422 10.6864 0
15.2003 8.53704 0
17.7336 8.52464 0
17.7554 12.8119 0
15.219 12.8243 0
16.4669 8.53107 0
17.7445 10.6685 0
16.4872 12.8183 0
15.2097 10.6809 0
16.4771 10.6749 0
17.7336 8.52464 0
20.2669 8.51042 0
20.2919 12.7976 0
17.7554 12.8119 0
19.0003 8.51776 0
20.2794 10.6542 0
19.0236 12.805 0
17.7445 10.6685 0
19.012 10.6616 0
20.2669 8.51042 0
22.8003 8.49437 0
22.8283 12.7815 0
20.2919 12.7976 0
21.5336 8.50262 0
22.8143 10.6381 0
21.5601 12.7898 0
20.2794 10.6542 0
21.5469 10.6464 0
22.8003 8.49437 0
25.3337 8.47651 0
25.3648 12.7636 0
22.8283 12.7815 0
24.067 8.48566 0
25.3493 10.6203 0
24.0966 12.7728 0
22.8143 10.6381 0
24.0818 10.6294 0
25.3337 8.47651 0
27.8671 8.45684 0
27.9012 12.7439 0
25.3648 12.7636 0
26.6004 8.4669 0
27.8842 10.6006 0
26.633 12.754 0
25.3493 10.6203 0
26.6167 10.6106 0
27.8671 8.45684 0
30.4005 8.43538 0
30.4377 12.7224 0
27.9012 12.7439 0
29.1338 8.44633 0
30.4191 10.5791 0
29.1695 12.7334 0
27.8842 10.6006 0
29.1517 10.5901 0
30.4005 8.43538 0
32.934 8.41213 0
32.9741 12.6992 0
30.4377 12.7224 0
31.6672 8.42397 0
32.9541 10.5558 0
31.7059 12.711 0
30.4191 10.5791 0
31.6866 10.5677 0
32.934 8.41213 0
35.4674 8.3871 0
35.5106 12.6741 0
32.9741 12.6992 0
34.2007 8.39983 0
35.489 10.5308 0
34.2424 12.6868 0
32.9541 10.5558 0
34.2215 10.5435 0
35.4674 8.3871 0
38.0008 8.36031 0
38.047 12.6473 0
35.5106 12.6741 0
36.7341 8.37392 0
38.0239 10.504 0
36.7788 12.6609 0
35.489 10.5308 0
36.7565 10.5176 0
38.0008 8.36031 0
40.5343 8.33175 0
40.5834 12.6187 0
38.047 12.6473 0
39.2676 8.34625 0
40.5589 10.4754 0
39.3152 12.6332 0
38.0239 10.504 0
39.2914 10.4899 0
40.5343 8.33175 0
43.0677 8.30145 0
43.1198 12.5883 0
40.5834 12.6187 0
41.801 8.31682 0
43.0938 10.4451 0
41.8516 12.6037 0
40.5589 10.4754 0
41.8263 10.4605 0
43.0677 8.30145 0
45.6012 8.26942 0
45.6562 12.5562 0
43.1198 12.5883 0
44.3345 8.28565 0
45.6287 10.413 0
44.388 12.5725 0
43.0938 10.4451 0
44.3613 10.4293 0
45.6012 8.26942 0
48.1347 8.23565 0
48.1926 12.5224 0
45.6562 12.5562 0
46.8679 8.25275 0
48.1636 10.3792 0
46.9244 12.5395 0
45.6287 10.413 0
46.8962 10.3963 0
48.1347 8.23565 0
50.6681 8.20016 0
50.7289 12.4869 0
48.1926 12.5224 0
49.4014 8.21812 0
50.6985 10.3437 0
49.4608 12.5049 0
48.1636 10.3792 0
49.4311 10.3617 0
50.6681 8.20016 0
53.2016 8.16297 0
53.2653 12.4496 0
50.7289 12.4869 0
51.9348 8.18178 0
53.2334 10.3065 0
51.9971 12.4685 0
50.6985 10.3437 0
51.966 10.3253 0
53.2016 8.16297 0
55.735 8.12407 0
55.8016 12.4107 0
53.2653 12.4496 0
54.4683 8.14373 0
55.7683 10.2676 0
54.5334 12.4304 0
53.2334 10.3065 0
54.5009 10.2872 0
55.735 8.12407 0
58.2685 8.08349 0
58.3379 12.3701 0
55.8016 12.4107 0
57.0018 8.10399 0
58.3032 10.227 0
57.0698 12.3906 0
55.7683 10.2676 0
57.0358 10.2475 0
58.2685 8.08349 0
60.8019 8.04122 0
60.8742 12.3277 0
58.3379 12.3701 0
59.5352 8.06257 0
60.8381 10.1847 0
59.6061 12.3491 0
58.3032 10.227 0
59.5707 10.206 0
60.8019 8.04122 0
63.3354 7.99729 0
63.4105 12.2837 0
60.8742 12.3277 0
62.0687 8.01946 0
63.373 10.1407 0
62.1423 12.306 0
60.8381 10.1847 0
62.1055 10.1629 0
63.3354 7.99729 0
65.8688 7.95169 0
65.9467 12.2381 0
63.4105 12.2837 0
64.6021 7.9747 0
65.9078 10.0951 0
64.6786 12.2611 0
63.373 10.1407 0
64.6404 10.1181 0
65.8688 7.95169 0
68.4023 7.90444 0
68.483 12.1908 0
65.9467 12.2381 0
67.1356 7.92827 0
68.4426 10.0478 0
67.2148 12.2146 0
65.9078 10.0951 0
67.1752 10.0716 0
68.4023 7.90444 0
70.9357 7.85555 0
71.0192 12.1418 0
68.483 12.1908 0
69.669 7.8802 0
70.9775 9.99887 0
69.7511 12.1665 0
68.4426 10.0478 0
69.71 10.0235 0
70.9357 7.85555 0
73.4692 7.80503 0
73.5553 12.0912 0
71.0192 12.1418 0
72.2024 7.83049 0
73.5123 9.94831 0
72.2872 12.1167 0
70.9775 9.99887 0
72.2449 9.97379 0
73.4692 7.80503 0
76.0026 7.75288 0
76.0915 12.039 0
73.5553 12.0912 0
74.7359 7.77916 0
76.047 9.89613 0
74.8234 12.0653 0
73.5123 9.94831 0
74.7797 9.92243 0
76.0026 7.75288 0
78.536 7.69913 0
78.6276 11.9852 0
76.0915 12.039 0
77.2693 7.72621 0
78.5818 9.84234 0
77.3596 12.0123 0
76.047 9.89613 0
77.3144 9.86944 0
78.536 7.69913 0
81.0694 7.64377 0
81.1637 11.9298 0
78.6276 11.9852 0
79.8027 7.67165 0
81.1166 9.78695 0
79.8957 11.9577 0
78.5818 9.84234 0
79.8492 9.81484 0
81.0694 7.64377 0
83.6028 7.58681 0
83.6998 11.8728 0
81.1637 11.9298 0
82.3361 7.61549 0
83.6513 9.72996 0
82.4318 11.9015 0
81.1166 9.78695 0
82.3839 9.75865 0
83.6028 7.58681 0
86.1362 7.52827 0
86.2358 11.8142 0
83.6998 11.8728 0
84.8695 7.55774 0
86.186 9.67138 0
84.9678 11.8437 0
83.6513 9.72996 0
84.9187 9.70087 0
86.1362 7.52827 0
88.6695 7.46816 0
88.7719 11.754 0
86.2358 11.8142 0
87.4028 7.49841 0
88.7207 9.61123 0
87.5039 11.7843 0
86.186 9.67138 0
87.4534 9.6415 0
88.6695 7.46816 0
91.2029 7.40648 0
91.3079 11.6922 0
88.7719 11.754 0
89.9362 7.43752 0
91.2554 9.54952 0
90.0399 11.7233 0
88.7207 9.61123 0
89.9881 9.58057 0
91.2029 7.40648 0
93.7362 7.34325 0
93.8438 11.6289 0
91.3079 11.6922 0
92.4695 7.37506 0
93.79 9.48625 0
92.5758 11.6608 0
91.2554 9.54952 0
92.5227 9.51808 0
93.7362 7.34325 0
96.2695 7.27847 0
96.3798 11.5641 0
93.8438 11.6289 0
95.0029 7.31105 0
96.3247 9.42143 0
95.1118 11.5967 0
93.79 9.48625 0
95.0574 9.45404 0
96.2695 7.27847 0
98.8029 7.21216 0
98.9157 11.4977 0
96.3798 11.5641 0
97.5362 7.24551 0
98.8593 9.35508 0
97.6477 11.5311 0
96.3247 9.42143 0
97.592 9.38845 0
98.8029 7.21216 0
101.336 7.14432 0
101.452 11.4298 0
98.9157 11.4977 0
100.069 7.17843 0
101.394 9.28721 0
100.184 11.4639 0
98.8593 9.35508 0
100.127 9.32133 0
101.336 7.14432 0
103.869 7.07497 0
103.987 11.3603 0
101.452 11.4298 0
102.603 7.10983 0
103.928 9.21781 0
102.719 11.3952 0
101.394 9.28721 0
102.661 9.2527 0
103.869 7.07497 0
106.403 7.00411 0
106.523 11.2894 0
103.987 11.3603 0
105.136 7.03972 0
106.463 9.14691 0
105.255 11.325 0
103.928 9.21781 0
105.196 9.18255 0
106.403 7.00411 0
108.936 6.93175 0
109.059 11.217 0
106.523 11.2894 0
107.669 6.96811 0
108.997 9.07451 0
107.791 11.2534 0
106.463 9.14691 0
107.73 9.1109 0
108.936 6.93175 0
111.469 6.8579 0
111.595 11.143 0
109.059 11.217 0
110.203 6.89501 0
111.532 9.00062 0
110.327 11.1802 0
108.997 9.07451 0
110.265 9.03775 0
111.469 6.8579 0
114.002 6.78258 0
114.13 11.0676 0
111.595 11.143 0
112.736 6.82042 0
114.066 8.92526 0
112.863 11.1055 0
111.532 9.00062 0
112.799 8.96312 0
114.002 6.78258 0
116.536 6.70579 0
116.666 10.9907 0
114.13 11.0676 0
115.269 6.74437 0
116.601 8.84842 0
115.398 11.0294 0
114.066 8.92526 0
115.334 8.88702 0
116.536 6.70579 0
119.069 6.62754 0
119.202 10.9124 0
116.666 10.9907 0
117.802 6.66685 0
119.135 8.77013 0
117.934 10.9518 0
116.601 8.84842 0
117.868 8.80946 0
119.069 6.62754 0
121.602 6.54784 0
121.737 10.8326 0
119.202 10.9124 0
120.335 6.58787 0
121.67 8.69039 0
120.469 10.8727 0
119.135 8.77013 0
120.402 8.73044 0
121.602 6.54784 0
124.135 6.4667 0
124.273 10.7514 0
121.737 10.8326 0
122.868 6.50745 0
124.204 8.60921 0
123.005 10.7922 0
121.67 8.69039 0
122.937 8.64998 0
124.135 6.4667 0
126.668 6.38414 0
126.808 10.6688 0
124.273 10.7514 0
125.402 6.4256 0
126.738 8.5266 0
125.541 10.7103 0
124.204 8.60921 0
125.471 8.56808 0
126.668 6.38414 0
129.201 6.30015 0
129.344 10.5847 0
126.808 10.6688 0
127.935 6.34232 0
129.272 8.44257 0
128.076 10.6269 0
126.738 8.5266 0
128.005 8.48476 0
129.201 6.30015 0
131.734 6.21476 0
131.879 10.4992 0
129.344 10.5847 0
130.468 6.25763 0
131.807 8.35713 0
130.611 10.5421 0
129.272 8.44257 0
130.54 8.40003 0
131.734 6.21476 0
134.267 6.12796 0
134.415 10.4123 0
131.879 10.4992 0
133.001 6.17153 0
134.341 8.27029 0
133.147 10.4559 0
131.807 8.35713 0
133.074 8.31388 0
134.267 6.12796 0
136.8 6.03978 0
136.95 10.324 0
134.415 10.4123 0
135.534 6.08404 0
136.875 8.18206 0
135.682 10.3684 0
134.341 8.27029 0
135.608 8.22635 0
136.8 6.03978 0
139.333 5.95021 0
139.485 10.2344 0
136.95 10.324 0
138.067 5.99516 0
139.409 8.09244 0
138.218 10.2794 0
136.875 8.18206 0
138.142 8.13742 0
139.333 5.95021 0
141.866 5.85927 0
142.021 10.1434 0
139.485 10.2344 0
140.6 5.90491 0
141.943 8.00146 0
140.753 10.189 0
139.409 8.09244 0
140.676 8.04712 0
141.866 5.85927 0
144.399 5.76697 0
144.556 10.051 0
142.021 10.1434 0
143.133 5.81329 0
144.478 7.90911 0
143.288 10.0973 0
141.943 8.00146 0
143.21 7.95546 0
144.399 5.76697 0
146.932 5.67332 0
147.091 9.95722 0
144.556 10.051 0
145.666 5.72031 0
147.012 7.81541 0
145.823 10.0043 0
144.478 7.90911 0
145.745 7.86243 0
146.932 5.67332 0
149.465 5.57832 0
149.626 9.86214 0
147.091 9.95722 0
148.199 5.62599 0
149.546 7.72037 0
148.359 9.90985 0
147.012 7.81541 0
148.279 7.76806 0
149.465 5.57832 0
151.998 5.482 0
152.161 9.76572 0
149.626 9.86214 0
150.731 5.53033 0
152.08 7.624 0
150.894 9.81409 0
149.546 7.72037 0
150.813 7.67235 0
151.998 5.482 0
154.531 5.38435 0
154.696 9.66797 0
152.161 9.76572 0
153.264 5.43334 0
154.614 7.5263 0
153.429 9.71701 0
152.08 7.624 0
153.347 7.57531 0
154.531 5.38435 0
157.064 5.28539 0
157.231 9.56892 0
154.696 9.66797 0
155.797 5.33503 0
157.147 7.42729 0
155.964 9.61861 0
154.614 7.5263 0
155.881 7.47696 0
157.064 5.28539 0
159.596 5.18512 0
159.766 9.46855 0
157.231 9.56892 0
158.33 5.23541 0
159.681 7.32697 0
158.499 9.5189 0
157.147 7.42729 0
158.414 7.37729 0
159.596 5.18512 0
162.129 5.08356 0
162.301 9.3669 0
159.766 9.46855 0
160.863 5.1345 0
162.215 7.22537 0
161.034 9.41789 0
159.681 7.32697 0
160.948 7.27633 0
162.129 5.08356 0
164.662 4.98071 0
164.836 9.26396 0
162.301 9.3669 0
163.395 5.0323 0
164.749 7.12247 0
163.569 9.31559 0
162.215 7.22537 0
163.482 7.17408 0
164.662 4.98071 0
167.195 4.87659 0
167.371 9.15974 0
164.836 9.26396 0
165.928 4.92881 0
167.283 7.0183 0
166.104 9.21201 0
164.749 7.12247 0
166.016 7.07055 0
167.195 4.87659 0
169.727 4.77121 0
169.906 9.05426 0
167.371 9.15974 0
168.461 4.82406 0
169.817 6.91287 0
168.638 9.10716 0
167.283 7.0183 0
168.55 6.96574 0
169.727 4.77121 0
172.26 4.66457 0
172.441 8.94752 0
169.906 9.05426 0
170.994 4.71805 0
172.35 6.80618 0
171.173 9.00105 0
169.817 6.91287 0
171.083 6.85968 0
172.26 4.66457 0
174.792 4.55668 0
174.975 8.83954 0
172.441 8.94752 0
173.526 4.61078 0
174.884 6.69824 0
173.708 8.89369 0
172.35 6.80618 0
173.617 6.75237 0
174.792 4.55668 0
177.325 4.44756 0
177.51 8.73032 0
174.975 8.83954 0
176.059 4.50228 0
177.418 6.58907 0
176.243 8.78509 0
174.884 6.69824 0
176.151 6.64381 0
177.325 4.44756 0
179.858 4.33721 0
180.045 8.61988 0
177.51 8.73032 0
178.591 4.39254 0
179.951 6.47868 0
178.777 8.67525 0
177.418 6.58907 0
178.684 6.53403 0
179.858 4.33721 0
182.39 4.22565 0
182.579 8.50822 0
180.045 8.61988 0
181.124 4.28158 0
182.485 6.36706 0
181.312 8.5642 0
179.951 6.47868 0
181.218 6.42302 0
182.39 4.22565 0
184.923 4.11288 0
185.114 8.39535 0
182.579 8.50822 0
183.656 4.16941 0
185.018 6.25424 0
183.846 8.45193 0
182.485 6.36706 0
183.751 6.3108 0
184.923 4.11288 0
187.455 3.99891 0
187.648 8.28128 0
185.114 8.39535 0
186.189 4.05604 0
187.552 6.14022 0
186.381 8.33846 0
185.018 6.25424 0
186.285 6.19738 0
187.455 3.99891 0
189.988 3.88375 0
190.183 8.16602 0
187.648 8.28128 0
188.721 3.94148 0
190.085 6.02501 0
188.915 8.2238 0
187.552 6.14022 0
188.818 6.08277 0
189.988 3.88375 0
192.52 3.76742 0
192.717 8.04959 0
190.183 8.16602 0
191.254 3.82573 0
192.619 5.90863 0
191.45 8.10795 0
190.085 6.02501 0
191.352 5.96697 0
192.52 3.76742 0
195.052 3.64992 0
195.251 7.93199 0
192.717 8.04959 0
193.786 3.70881 0
195.152 5.79108 0
193.984 7.99093 0
192.619 5.90863 0
193.885 5.85 0
195.052 3.64992 0
197.585 3.53125 0
197.786 7.81323 0
195.251 7.93199 0
196.319 3.59073 0
197.685 5.67236 0
196.519 7.87275 0
195.152 5.79108 0
196.419 5.73186 0
197.585 3.53125 0
200.117 3.41144 0
200.32 7.69332 0
197.786 7.81323 0
198.851 3.47149 0
200.219 5.5525 0
199.053 7.75342 0
197.685 5.67236 0
198.952 5.61258 0
200.117 3.41144 0
202.649 3.29049 0
202.854 7.57227 0
200.32 7.69332 0
201.383 3.35111 0
202.752 5.4315 0
201.587 7.63293 0
200.219 5.5525 0
201.485 5.49214 0
202.649 3.29049 0
205.182 3.16841 0
205.388 7.45009 0
202.854 7.57227 0
203.916 3.22959 0
205.285 5.30937 0
204.121 7.51132 0
202.752 5.4315 0
204.018 5.37058 0
205.182 3.16841 0
207.714 3.04521 0
207.923 7.32679 0
205.388 7.45009 0
206.448 3.10695 0
207.818 5.18612 0
206.656 7.38858 0
205.285 5.30937 0
206.552 5.24788 0
207.714 3.04521 0
210.246 2.9209 0
210.457 7.20238 0
207.923 7.32679 0
208.98 2.9832 0
210.351 5.06176 0
209.19 7.26472 0
207.818 5.18612 0
209.085 5.12408 0
210.246 2.9209 0
212.778 2.79549 0
212.991 7.07687 0
210.457 7.20238 0
211.512 2.85834 0
212.885 4.9363 0
211.724 7.13976 0
210.351 5.06176 0
211.618 4.99917 0
212.778 2.79549 0
215.311 2.66899 0
215.525 6.95027 0
212.991 7.07687 0
214.044 2.73238 0
215.418 4.80974 0
214.258 7.0137 0
212.885 4.9363 0
214.151 4.87316 0
215.311 2.66899 0
217.843 2.54141 0
218.059 6.82259 0
215.525 6.95027 0
216.577 2.60533 0
217.951 4.68211 0
216.792 6.88656 0
215.418 4.80974 0
216.684 4.74606 0
217.843 2.54141 0
220.375 2.41275 0
220.593 6.69383 0
218.059 6.82259 0
219.109 2.47721 0
220.484 4.5534 0
219.326 6.75834 0
217.951 4.68211 0
219.217 4.61789 0
220.375 2.41275 0
222.907 2.28303 0
223.126 6.56401 0
220.593 6.69383 0
221.641 2.34803 0
223.017 4.42364 0
221.859 6.62905 0
220.484 4.5534 0
221.75 4.48865 0
222.907 2.28303 0
225.439 2.15226 0
225.66 6.43314 0
223.126 6.56401 0
224.173 2.21778 0
225.55 4.29282 0
224.393 6.49871 0
223.017 4.42364 0
224.283 4.35836 0
225.439 2.15226 0
227.971 2.02045 0
228.194 6.30123 0
225.66 6.43314 0
226.705 2.08649 0
228.082 4.16095 0
226.927 6.36732 0
225.55 4.29282 0
226.816 4.22701 0
227.971 2.02045 0
230.503 1.88761 0
230.728 6.16829 0
228.194 6.30123 0
229.237 1.95416 0
230.615 4.02806 0
229.461 6.23489 0
228.082 4.16095 0
229.349 4.09463 0
230.503 1.88761 0
233.035 1.75374 0
233.261 6.03432 0
230.728 6.16829 0
231.769 1.8208 0
233.148 3.89414 0
231.995 6.10143 0
230.615 4.02806 0
231.882 3.96122 0
233.035 1.75374 0
235.567 1.61885 0
235.795 5.89934 0
233.261 6.03432 0
234.301 1.68642 0
235.681 3.7592 0
234.528 5.96695 0
233.148 3.89414 0
234.414 3.8268 0
235.567 1.61885 0
238.099 1.48297 0
238.329 5.76335 0
235.795 5.89934 0
236.833 1.55103 0
238.214 3.62326 0
237.062 5.83147 0
235.681 3.7592 0
236.947 3.69136 0
238.099 1.48297 0
240.631 1.34608 0
240.862 5.62637 0
238.329 5.76335 0
239.365 1.41465 0
240.746 3.48633 0
239.595 5.69499 0
238.214 3.62326 0
239.48 3.55492 0
240.631 1.34608 0
243.162 1.20822 0
243.396 5.48841 0
240.862 5.62637 0
241.896 1.27727 0
243.279 3.34842 0
242.129 5.55751 0
240.746 3.48633 0
242.013 3.4175 0
243.162 1.20822 0
245.694 1.06938 0
245.929 5.34947 0
243.396 5.48841 0
244.428 1.13892 0
245.812 3.20952 0
244.662 5.41906 0
243.279 3.34842 0
244.545 3.27909 0
245.694 1.06938 0
248.226 0.929568 0
248.462 5.20956 0
245.929 5.34947 0
246.96 0.999592 0
248.344 3.06967 0
247.196 5.27963 0
245.812 3.20952 0
247.078 3.13972 0
248.226 0.929568 0
250.758 0.788804 0
250.996 5.0687 0
248.462 5.20956 0
249.492 0.859305 0
250.877 2.92885 0
249.729 5.13925 0
248.344 3.06967 0
249.61 2.99938 0
250.758 0.788804 0
253.289 0.647094 0
253.529 4.92689 0
250.996 5.0687 0
252.024 0.718067 0
253.409 2.78709 0
252.262 4.99792 0
250.877 2.92885 0
252.143 2.85809 0
253.289 0.647094 0
255.821 0.504447 0
256.062 4.78415 0
253.529 4.92689 0
254.555 0.575887 0
255.942 2.6444 0
254.796 4.85564 0
253.409 2.78709 0
254.676 2.71586 0
255.821 0.504447 0
258.353 0.360874 0
258.596 4.64048 0
256.062 4.78415 0
257.087 0.432776 0
258.474 2.50078 0
257.329 4.71243 0
255.942 2.6444 0
257.208 2.5727 0
258.353 0.360874 0
260.884 0.216383 0
261.129 4.49589 0
258.596 4.64048 0
259.619 0.288742 0
261.007 2.35624 0
259.862 4.5683 0
258.474 2.50078 0
259.74 2.42862 0
260.884 0.216383 0
263.416 0.0709843 0
263.662 4.3504 0
261.129 4.49589 0
262.15 0.143796 0
263.539 2.21079 0
262.395 4.42326 0
261.007 2.35624 0
262.273 2.28362 0
263.416 0.0709843 0
265.948 -0.0753123 0
266.195 4.20401 0
263.662 4.3504 0
264.682 -0.00205233 0
266.071 2.06444 0
264.928 4.27732 0
263.539 2.21079 0
264.805 2.13773 0
265.948 -0.0753123 0
268.479 -0.222497 0
268.728 4.05673 0
266.195 4.20401 0
267.213 -0.148794 0
268.604 1.91721 0
267.462 4.13048 0
266.071 2.06444 0
267.337 1.99094 0
268.479 -0.222497 0
271.011 -0.370561 0
271.261 3.90857 0
268.728 4.05673 0
269.745 -0.29642 0
271.136 1.7691 0
269.995 3.98276 0
268.604 1.91721 0
269.87 1.84326 0
271.011 -0.370561 0
273.542 -0.519494 0
273.794 3.75954 0
271.261 3.90857 0
272.276 -0.444919 0
273.668 1.62012 0
272.528 3.83417 0
271.136 1.7691 0
272.402 1.69472 0
273.542 -0.519494 0
276.074 -0.669286 0
276.327 3.60966 0
273.794 3.75954 0
274.808 -0.594283 0
276.2 1.47028 0
275.06 3.68471 0
273.668 1.62012 0
274.934 1.5453 0
276.074 -0.669286 0
278.605 -0.819928 0
278.86 3.45892 0
276.327 3.60966 0
277.339 -0.744502 0
278.732 1.31959 0
277.593 3.5344 0
276.2 1.47028 0
277.466 1.39504 0
278.605 -0.819928 0
281.137 -0.971411 0
281.393 3.30735 0
278.86 3.45892 0
279.871 -0.895565 0
281.265 1.16806 0
280.126 3.38324 0
278.732 1.31959 0
279.999 1.24393 0
281.137 -0.971411 0
283.668 -1.12372 0
283.925 3.15495 0
281.393 3.30735 0
282.402 -1.04746 0
283.797 1.0157 0
282.659 3.23125 0
281.265 1.16806 0
282.531 1.09198 0
283.668 -1.12372 0
286.199 -1.27686 0
286.458 3.00172 0
283.925 3.15495 0
284.934 -1.20019 0
286.329 0.862518 0
285.192 3.07844 0
283.797 1.0157 0
285.063 0.93921 0
286.199 -1.27686 0
288.731 -1.4308 0
288.991 2.84769 0
286.458 3.00172 0
287.465 -1.35373 0
288.861 0.708527 0
287.725 2.9248 0
286.329 0.862518 0
287.595 0.785623 0
288.731 -1.4308 0
291.262 -1.58555 0
291.524 2.69285 0
288.991 2.84769 0
289.996 -1.50808 0
291.393 0.553734 0
290.257 2.77037 0
288.861 0.708527 0
290.127 0.63123 0
291.262 -1.58555 0
293.793 -1.74109 0
294.056 2.53722 0
291.524 2.69285 0
292.528 -1.66322 0
293.925 0.39815 0
292.79 2.61513 0
291.393 0.553734 0
292.659 0.47604 0
293.793 -1.74109 0
296.325 -1.89741 0
296.589 2.38081 0
294.056 2.53722 0
295.059 -1.81915 0
296.457 0.241784 0
295.323 2.45911 0
293.925 0.39815 0
295.191 0.320064 0
296.325 -1.89741 0
298.856 -2.0545 0
299.121 2.22363 0
296.589 2.38081 0
297.59 -1.97586 0
298.989 0.0846456 0
297.855 2.30232 0
296.457 0.241784 0
297.723 0.163311 0
298.856 -2.0545 0
301.387 -2.21236 0
301.654 2.06569 0
299.121 2.22363 0
300.121 -2.13333 0
301.521 -0.0732555 0
300.388 2.14475 0
298.989 0.0846456 0
300.255 0.0057898 0
301.387 -2.21236 0
303.918 -2.37097 0
304.186 1.90699 0
301.654 2.06569 0
302.653 -2.29157 0
304.052 -0.23191 0
302.92 1.98643 0
301.521 -0.0732555 0
302.786 -0.152489 0
303.918 -2.37097 0
306.45 -2.53032 0
306.719 1.74755 0
304.186 1.90699 0
305.184 -2.45055 0
306.584 -0.391307 0
305.453 1.82736 0
304.052 -0.23191 0
305.318 -0.311516 0
306.45 -2.53032 0
308.981 -2.69041 0
309.251 1.58738 0
306.719 1.74755 0
307.715 -2.61027 0
309.116 -0.551438 0
307.985 1.66755 0
306.584 -0.391307 0
307.85 -0.471282 0
308.981 -2.69041 0
311.512 -2.85122 0
311.784 1.42648 0
309.251 1.58738 0
310.246 -2.77072 0
311.648 -0.712294 0
310.517 1.50702 0
309.116 -0.551438 0
310.382 -0.631776 0
311.512 -2.85122 0
314.043 -3.01274 0
314.316 1.26487 0
311.784 1.42648 0
312.777 -2.93189 0
314.179 -0.873863 0
313.05 1.34576 0
311.648 -0.712294 0
312.914 -0.79299 0
314.043 -3.01274 0
316.574 -3.17498 0
316.848 1.10255 0
314.316 1.26487 0
315.309 -3.09377 0
316.711 -1.03614 0
315.582 1.1838 0
314.179 -0.873863 0
315.445 -0.954913 0
316.574 -3.17498 0
319.105 -3.3379 0
319.38 0.939544 0
316.848 1.10255 0
317.84 -3.25635 0
319.243 -1.19911 0
318.114 1.02113 0
316.711 -1.03614 0
317.977 -1.11754 0
319.105 -3.3379 0
321.636 -3.50152 0
321.913 0.775848 0
319.38 0.939544 0
320.371 -3.41962 0
321.774 -1.36276 0
320.647 0.857781 0
319.243 -1.19911 0
320.509 -1.28085 0
321.636 -3.50152 0
324.167 -3.66581 0
324.445 0.611478 0
321.913 0.775848 0
322.902 -3.58358 0
324.306 -1.52709 0
323.179 0.693747 0
321.774 -1.36276 0
323.04 -1.44484 0
324.167 -3.66581 0
326.698 -3.83076 0
326.977 0.446441 0
324.445 0.611478 0
325.433 -3.7482 0
326.838 -1.69209 0
325.711 0.529042 0
324.306 -1.52709 0
325.572 -1.60951 0
326.698 -3.83076 0
329.229 -3.99637 0
329.509 0.280749 0
326.977 0.446441 0
327.964 -3.91349 0
329.369 -1.85774 0
328.243 0.363677 0
326.838 -1.69209 0
328.103 -1.77484 0
329.229 -3.99637 0
331.76 -4.16263 0
332.041 0.11441 0
329.509 0.280749 0
330.495 -4.07942 0
331.901 -2.02404 0
330.775 0.197659 0
329.369 -1.85774 0
330.635 -1.94081 0
331.76 -4.16263 0
334.291 -4.32953 0
334.573 -0.0525663 0
332.041 0.11441 0
333.026 -4.246 0
334.432 -2.19098 0
333.307 0.0310007 0
331.901 -2.02404 0
333.166 -2.10743 0
334.291 -4.32953 0
336.822 -4.49706 0
337.105 -0.220169 0
334.573 -0.0525663 0
335.557 -4.41322 0
336.964 -2.35855 0
335.839 -0.13629 0
334.432 -2.19098 0
335.698 -2.27469 0
336.822 -4.49706 0
339.353 -4.6652 0
339.637 -0.38839 0
337.105 -0.220169 0
338.088 -4.58105 0
339.495 -2.52673 0
338.371 -0.304203 0
336.964 -2.35855 0
338.229 -2.44256 0
339.353 -4.6652 0
341.884 -4.83395 0
342.169 -0.557219 0
339.637 -0.38839 0
340.619 -4.7495 0
342.027 -2.69552 0
340.903 -0.472729 0
339.495 -2.52673 0
340.761 -2.61105 0
341.884 -4.83395 0
344.415 -5.00331 0
344.701 -0.726646 0
342.169 -0.557219 0
343.15 -4.91856 0
344.558 -2.86491 0
343.435 -0.641858 0
342.027 -2.69552 0
343.292 -2.78014 0
344.415 -5.00331 0
346.946 -5.17325 0
347.233 -0.896661 0
344.701 -0.726646 0
345.68 -5.0882 0
347.089 -3.03489 0
345.967 -0.81158 0
344.558 -2.86491 0
345.824 -2.94983 0
346.946 -5.17325 0
349.477 -5.34377 0
349.765 -1.06726 0
347.233 -0.896661 0
348.211 -5.25844 0
349.621 -3.20545 0
348.499 -0.981886 0
347.089 -3.03489 0
348.355 -3.1201 0
349.477 -5.34377 0
352.008 -5.51486 0
352.297 -1.23842 0
349.765 -1.06726 0
350.742 -5.42924 0
352.152 -3.37658 0
351.031 -1.15277 0
349.621 -3.20545 0
350.886 -3.29095 0
352.008 -5.51486 0
354.539 -5.68651 0
354.828 -1.41014 0
352.297 -1.23842 0
353.273 -5.60062 0
354.683 -3.54827 0
353.562 -1.32421 0
352.152 -3.37658 0
353.418 -3.46236 0
354.539 -5.68651 0
357.069 -5.85871 0
357.36 -1.58242 0
354.828 -1.41014 0
355.804 -5.77254 0
357.215 -3.72051 0
356.094 -1.49621 0
354.683 -3.54827 0
355.949 -3.63432 0
357.069 -5.85871 0
359.6 -6.03146 0
359.892 -1.75523 0
357.36 -1.58242 0
358.335 -5.94502 0
359.746 -3.89329 0
358.626 -1.66876 0
357.215 -3.72051 0
358.48 -3.80683 0
359.6 -6.03146 0
362.131 -6.20473 0
362.424 -1.92857 0
359.892 -1.75523 0
360.866 -6.11803 0
362.277 -4.0666 0
361.158 -1.84184 0
359.746 -3.89329 0
361.012 -3.97988 0
362.131 -6.20473 0
364.662 -6.37853 0
364.955 -2.10244 0
362.424 -1.92857 0
363.396 -6.29157 0
364.809 -4.24043 0
363.689 -2.01544 0
362.277 -4.0666 0
363.543 -4.15345 0
364.662 -6.37853 0
367.193 -6.55284 0
367.487 -2.27682 0
364.955 -2.10244 0
365.927 -6.46562 0
367.34 -4.41478 0
366.221 -2.18956 0
364.809 -4.24043 0
366.074 -4.32754 0
367.193 -6.55284 0
369.723 -6.72765 0
370.019 -2.4517 0
367.487 -2.27682 0
368.458 -6.64019 0
369.871 -4.58962 0
368.753 -2.36419 0
367.34 -4.41478 0
368.605 -4.50214 0
369.723 -6.72765 0
372.254 -6.90296 0
372.55 -2.62707 0
370.019 -2.4517 0
370.989 -6.81525 0
372.402 -4.76496 0
371.284 -2.53932 0
369.871 -4.58962 0
371.137 -4.67723 0
372.254 -6.90296 0
374.785 -7.07875 0
375.082 -2.80292 0
372.55 -2.62707 0
373.52 -6.99079 0
374.933 -4.94078 0
373.816 -2.71493 0
372.402 -4.76496 0
373.668 -4.85281 0
374.785 -7.07875 0
377.316 -7.25501 0
377.613 -2.97925 0
375.082 -2.80292 0
376.05 -7.16682 0
377.464 -5.11708 0
376.347 -2.89102 0
374.933 -4.94078 0
376.199 -5.02887 0
377.316 -7.25501 0
379.846 -7.43174 0
380.145 -3.15604 0
377.613 -2.97925 0
378.581 -7.34332 0
379.996 -5.29384 0
378.879 -3.06758 0
377.464 -5.11708 0
378.73 -5.2054 0
379.846 -7.43174 0
382.377 -7.60892 0
382.676 -3.33328 0
380.145 -3.15604 0
381.112 -7.52027 0
382.527 -5.47105 0
381.411 -3.2446 0
379.996 -5.29384 0
381.261 -5.38239 0
382.377 -7.60892 0
384.908 -7.78655 0
385.208 -3.51096 0
382.676 -3.33328 0
383.643 -7.69768 0
385.058 -5.64871 0
383.942 -3.42207 0
382.527 -5.47105 0
383.792 -5.55983 0
384.908 -7.78655 0
387.439 -7.96461 0
387.739 -3.68909 0
385.208 -3.51096 0
386.173 -7.87553 0
387.589 -5.8268 0
386.473 -3.59997 0
385.058 -5.64871 0
386.323 -5.7377 0
387.439 -7.96461 0
389.969 -8.1431 0
390.271 -3.86763 0
387.739 -3.68909 0
388.704 -8.0538 0
390.12 -6.00532 0
389.005 -3.77831 0
387.589 -5.8268 0
388.854 -5.91601 0
389.969 -8.1431 0
392.5 -8.322 0
392.802 -4.04659 0
390.271 -3.86763 0
391.235 -8.2325 0
392.651 -6.18425 0
391.536 -3.95706 0
390.12 -6.00532 0
391.386 -6.09474 0
392.5 -8.322 0
395.031 -8.50131 0
395.333 -4.22596 0
392.802 -4.04659 0
393.765 -8.41161 0
395.182 -6.36359 0
394.068 -4.13623 0
392.651 -6.18425 0
393.917 -6.27387 0
395.031 -8.50131 0
397.562 -8.68102 0
397.865 -4.40572 0
395.333 -4.22596 0
396.296 -8.59112 0
397.713 -6.54333 0
396.599 -4.31579 0
395.182 -6.36359 0
396.448 -6.45341 0
397.562 -8.68102 0
400.092 -8.86111 0
400.396 -4.58587 0
397.865 -4.40572 0
398.827 -8.77102 0
400.244 -6.72345 0
399.13 -4.49575 0
397.713 -6.54333 0
398.979 -6.63334 0
400.092 -8.86111 0
402.623 -9.04158 0
402.928 -4.76639 0
400.396 -4.58587 0
401.358 -8.9513 0
402.775 -6.90395 0
401.662 -4.67608 0
400.244 -6.72345 0
401.51 -6.81365 0
402.623 -9.04158 0
405.154 -9.22242 0
405.459 -4.94728 0
402.928 -4.76639 0
403.888 -9.13196 0
405.306 -7.08482 0
404.193 -4.85679 0
402.775 -6.90395 0
404.041 -6.99434 0
405.154 -9.22242 0
407.684 -9.40362 0
407.99 -5.12853 0
405.459 -4.94728 0
406.419 -9.31298 0
407.837 -7.26604 0
406.724 -5.03786 0
405.306 -7.08482 0
406.572 -7.17538 0
407.684 -9.40362 0
410.215 -9.58517 0
410.521 -5.31013 0
407.99 -5.12853 0
408.95 -9.49435 0
410.368 -7.44761 0
409.256 -5.21929 0
407.837 -7.26604 0
409.103 -7.35678 0
410.215 -9.58517 0
412.746 -9.76705 0
413.053 -5.49206 0
410.521 -5.31013 0
411.48 -9.67607 0
412.899 -7.62952 0
411.787 -5.40105 0
410.368 -7.44761 0
411.634 -7.53853 0
412.746 -9.76705 0
415.277 -9.94927 0
415.584 -5.67432 0
413.053 -5.49206 0
414.011 -9.85812 0
415.43 -7.81176 0
414.318 -5.58315 0
412.899 -7.62952 0
414.165 -7.7206 0
415.277 -9.94927 0
417.807 -10.1318 0
418.115 -5.8569 0
415.584 -5.67432 0
416.542 -10.0405 0
417.961 -7.99432 0
416.85 -5.76557 0
415.43 -7.81176 0
416.696 -7.903 0
417.807 -10.1318 0
420.338 -10.3146 0
420.646 -6.03979 0
418.115 -5.8569 0
419.073 -10.2232 0
420.492 -8.17719 0
419.381 -5.94831 0
417.961 -7.99432 0
419.227 -8.08572 0
420.338 -10.3146 0
422.869 -10.4978 0
423.178 -6.22298 0
420.646 -6.03979 0
421.603 -10.4062 0
423.023 -8.36036 0
421.912 -6.13135 0
420.492 -8.17719 0
421.758 -8.26874 0
422.869 -10.4978 0
425.399 -10.6812 0
425.709 -6.40646 0
423.178 -6.22298 0
424.134 -10.5895 0
425.554 -8.54381 0
424.443 -6.31469 0
423.023 -8.36036 0
424.289 -8.45205 0
425.399 -10.6812 0
427.93 -10.8649 0
428.24 -6.59022 0
425.709 -6.40646 0
426.665 -10.7731 0
428.085 -8.72755 0
426.974 -6.49831 0
425.554 -8.54381 0
426.82 -8.63565 0
427.93 -10.8649 0
430.461 -11.0489 0
430.771 -6.77425 0
428.24 -6.59022 0
429.195 -10.9569 0
430.616 -8.91156 0
429.506 -6.6822 0
428.085 -8.72755 0
429.351 -8.81952 0
430.461 -11.0489 0
432.992 -11.2332 0
433.302 -6.95854 0
430.771 -6.77425 0
431.726 -11.141 0
433.147 -9.09583 0
432.037 -6.86636 0
430.616 -8.91156 0
431.881 -9.00367 0
432.992 -11.2332 0
435.522 -11.4177 0
435.833 -7.14308 0
433.302 -6.95854 0
434.257 -11.3254 0
435.678 -9.28036 0
434.568 -7.05078 0
433.147 -9.09583 0
434.412 -9.18806 0
435.522 -11.4177 0
438.053 -11.6024 0
438.365 -7.32786 0
435.833 -7.14308 0
436.788 -11.51 0
438.209 -9.46512 0
437.099 -7.23544 0
435.678 -9.28036 0
436.943 -9.37271 0
438.053 -11.6024 0
440.584 -11.7874 0
440.896 -7.51287 0
438.365 -7.32786 0
439.318 -11.6949 0
440.74 -9.65012 0
439.63 -7.42034 0
438.209 -9.46512 0
439.474 -9.55759 0
440.584 -11.7874 0
443.115 -11.9726 0
443.427 -7.69811 0
440.896 -7.51287 0
441.849 -11.88 0
443.271 -9.83534 0
442.161 -7.60547 0
440.74 -9.65012 0
442.005 -9.7427 0
443.115 -11.9726 0
445.645 -12.158 0
445.958 -7.88356 0
443.427 -7.69811 0
444.38 -12.0653 0
445.802 -10.0208 0
444.692 -7.79081 0
443.271 -9.83534 0
444.536 -9.92803 0
445.645 -12.158 0
448.176 -12.3436 0
448.489 -8.06921 0
445.958 -7.88356 0
446.911 -12.2508 0
448.333 -10.2064 0
447.224 -7.97636 0
445.802 -10.0208 0
447.067 -10.1136 0
448.176 -12.3436 0
450.707 -12.5295 0
451.02 -8.25506 0
448.489 -8.06921 0
449.441 -12.4365 0
450.864 -10.3922 0
449.755 -8.16211 0
448.333 -10.2064 0
449.598 -10.2993 0
450.707 -12.5295 0
453.238 -12.7155 0
453.551 -8.44109 0
451.02 -8.25506 0
451.972 -12.6224 0
453.395 -10.5783 0
452.286 -8.34805 0
450.864 -10.3922 0
452.129 -10.4852 0
453.238 -12.7155 0
455.768 -12.9016 0
456.082 -8.62729 0
453.551 -8.44109 0
454.503 -12.8085 0
455.925 -10.7644 0
454.817 -8.53417 0
453.395 -10.5783 0
454.66 -10.6713 0
455.768 -12.9016 0
458.299 -13.088 0
458.613 -8.81366 0
456.082 -8.62729 0
457.034 -12.9948 0
458.456 -10.9508 0
457.348 -8.72045 0
455.925 -10.7644 0
457.191 -10.8576 0
458.299 -13.088 0
460.83 -13.2745 0
461.145 -9.00018 0
458.613 -8.81366 0
459.565 -13.1812 0
460.987 -11.1373 0
459.879 -8.9069 0
458.456 -10.9508 0
459.722 -11.044 0
460.83 -13.2745 0
463.361 -13.4611 0
463.676 -9.18685 0
461.145 -9.00018 0
462.096 -13.3678 0
463.518 -11.324 0
462.41 -9.09349 0
460.987 -11.1373 0
462.253 -11.2306 0
463.361 -13.4611 0
465.892 -13.6479 0
466.207 -9.37365 0
463.676 -9.18685 0
464.626 -13.5545 0
466.049 -11.5108 0
464.941 -9.28023 0
463.518 -11.324 0
464.784 -11.4173 0
465.892 -13.6479 0
468.423 -13.8348 0
468.738 -9.56058 0
466.207 -9.37365 0
467.157 -13.7413 0
468.58 -11.6977 0
467.472 -9.4671 0
466.049 -11.5108 0
467.315 -11.6042 0
468.423 -13.8348 0
470.954 -14.0218 0
471.269 -9.74762 0
468.738 -9.56058 0
469.688 -13.9283 0
471.111 -11.8847 0
470.003 -9.65409 0
468.58 -11.6977 0
469.846 -11.7912 0
470.954 -14.0218 0
473.485 -14.2089 0
473.8 -9.93477 0
471.269 -9.74762 0
472.219 -14.1154 0
473.642 -12.0718 0
472.534 -9.84119 0
471.111 -11.8847 0
472.377 -11.9783 0
473.485 -14.2089 0
476.016 -14.3962 0
476.331 -10.122 0
473.8 -9.93477 0
474.75 -14.3025 0
476.173 -12.2591 0
475.066 -10.0284 0
473.642 -12.0718 0
474.908 -12.1655 0
476.016 -14.3962 0
478.546 -14.5835 0
478.862 -10.3094 0
476.331 -10.122 0
477.281 -14.4898 0
478.704 -12.4464 0
477.597 -10.2157 0
476.173 -12.2591 0
477.439 -12.3527 0
478.546 -14.5835 0
481.077 -14.7709 0
481.393 -10.4968 0
478.862 -10.3094 0
479.812 -14.6772 0
481.235 -12.6338 0
480.128 -10.4031 0
478.704 -12.4464 0
479.97 -12.5401 0
481.077 -14.7709 0
483.608 -14.9584 0
483.924 -10.6843 0
481.393 -10.4968 0
482.343 -14.8646 0
483.766 -12.8213 0
482.659 -10.5905 0
481.235 -12.6338 0
482.501 -12.7276 0
483.608 -14.9584 0
486.139 -15.1459 0
486.455 -10.8718 0
483.924 -10.6843 0
484.874 -15.0521 0
486.297 -13.0089 0
485.19 -10.778 0
483.766 -12.8213 0
485.032 -12.9151 0
486.139 -15.1459 0
488.67 -15.3335 0
488.987 -11.0594 0
486.455 -10.8718 0
487.405 -15.2397 0
488.829 -13.1964 0
487.721 -10.9656 0
486.297 -13.0089 0
487.563 -13.1026 0
488.67 -15.3335 0
491.202 -15.5211 0
491.518 -11.2471 0
488.987 -11.0594 0
489.936 -15.4273 0
491.36 -13.3841 0
490.252 -11.1532 0
488.829 -13.1964 0
490.094 -13.2903 0
491.202 -15.5211 0
493.733 -15.7088 0
494.049 -11.4347 0
491.518 -11.2471 0
492.467 -15.6149 0
493.891 -13.5717 0
492.783 -11.3409 0
491.36 -13.3841 0
492.625 -13.4779 0
493.733 -15.7088 0
496.264 -15.8964 0
496.58 -11.6223 0
494.049 -11.4347 0
494.998 -15.8026 0
496.422 -13.7593 0
495.314 -11.5285 0
493.891 -13.5717 0
495.156 -13.6655 0
496.264 -15.8964 0
498.795 -16.084 0
499.111 -11.8098 0
496.58 -11.6223 0
497.529 -15.9902 0
498.953 -13.9469 0
497.846 -11.716 0
496.422 -13.7593 0
497.687 -13.8531 0
0 12.8571 0
2.53665 12.8574 0
2.53945 17.1431 0
0 17.1429 0
1.26833 12.8576 0
2.53805 15.0003 0
1.26972 17.1433 0
0 15 0
1.26902 15.0005 0
2.53665 12.8574 0
5.07318 12.855 0
5.07901 17.1407 0
2.53945 17.1431 0
3.80493 12.8565 0
5.0761 14.998 0
3.80922 17.1422 0
2.53805 15.0003 0
3.80707 14.9995 0
5.07318 12.855 0
7.60966 12.8503 0
7.61863 17.136 0
5.07901 17.1407 0
6.34142 12.8529 0
7.61414 14.9934 0
6.34882 17.1386 0
5.0761 14.998 0
6.34512 14.9959 0
7.60966 12.8503 0
10.1461 12.8436 0
10.1583 17.1293 0
7.61863 17.136 0
8.87788 12.8472 0
10.1522 14.9866 0
8.88845 17.1329 0
7.61414 14.9934 0
8.88317 14.9902 0
10.1461 12.8436 0
12.6825 12.8349 0
12.6979 17.1206 0
10.1583 17.1293 0
11.4143 12.8395 0
12.6902 14.9779 0
11.4281 17.1251 0
10.1522 14.9866 0
11.4212 14.9825 0
12.6825 12.8349 0
15.219 12.8243 0
15.2375 17.11 0
12.6979 17.1206 0
13.9508 12.8298 0
15.2283 14.9673 0
13.9677 17.1155 0
12.6902 14.9779 0
13.9592 14.9729 0
15.219 12.8243 0
17.7554 12.8119 0
17.7771 17.0975 0
15.2375 17.11 0
16.4872 12.8183 0
17.7663 14.9549 0
16.5074 17.104 0
15.2283 14.9673 0
16.4973 14.9613 0
17.7554 12.8119 0
20.2919 12.7976 0
20.3167 17.0832 0
17.7771 17.0975 0
19.0236 12.805 0
20.3043 14.9406 0
19.0469 17.0906 0
17.7663 14.9549 0
19.0353 14.948 0
20.2919 12.7976 0
22.8283 12.7815 0
22.8563 17.0671 0
20.3167 17.0832 0
21.5601 12.7898 0
22.8423 14.9245 0
21.5865 17.0754 0
20.3043 14.9406 0
21.5733 14.9328 0
22.8283 12.7815 0
25.3648 12.7636 0
25.3958 17.0492 0
22.8563 17.0671 0
24.0966 12.7728 0
25.3803 14.9066 0
24.126 17.0584 0
22.8423 14.9245 0
24.1113 14.9158 0
25.3648 12.7636 0
27.9012 12.7439 0
27.9353 17.0295 0
25.3958 17.0492 0
26.633 12.754 0
27.9183 14.8869 0
26.6656 17.0396 0
25.3803 14.9066 0
26.6493 14.897 0
27.9012 12.7439 0
30.4377 12.7224 0
30.4748 17.008 0
27.9353 17.0295 0
29.1695 12.7334 0
30.4562 14.8654 0
29.2051 17.019 0
27.9183 14.8869 0
29.1873 14.8764 0
30.4377 12.7224 0
32.9741 12.6992 0
33.0142 16.9847 0
30.4748 17.008 0
31.7059 12.711 0
32.9942 14.8421 0
31.7445 16.9965 0
30.4562 14.8654 0
31.7252 14.854 0
32.9741 12.6992 0
35.5106 12.6741 0
35.5537 16.9596 0
33.0142 16.9847 0
34.2424 12.6868 0
35.5321 14.817 0
34.284 16.9723 0
32.9942 14.8421 0
34.2632 14.8298 0
35.5106 12.6741 0
38.047 12.6473 0
38.0931 16.9327 0
35.5537 16.9596 0
36.7788 12.6609 0
38.07 14.7902 0
36.8234 16.9463 0
35.5321 14.817 0
36.8011 14.8038 0
38.047 12.6473 0
40.5834 12.6187 0
40.6325 16.9041 0
38.0931 16.9327 0
39.3152 12.6332 0
40.6079 14.7616 0
39.3628 16.9186 0
38.07 14.7902 0
39.339 14.7761 0
40.5834 12.6187 0
43.1198 12.5883 0
43.1718 16.8737 0
40.6325 16.9041 0
41.8516 12.6037 0
43.1458 14.7312 0
41.9021 16.8891 0
40.6079 14.7616 0
41.8769 14.7466 0
43.1198 12.5883 0
45.6562 12.5562 0
45.7111 16.8416 0
43.1718 16.8737 0
44.388 12.5725 0
45.6837 14.6991 0
44.4415 16.8578 0
43.1458 14.7312 0
44.4147 14.7154 0
45.6562 12.5562 0
48.1926 12.5224 0
48.2504 16.8077 0
45.7111 16.8416 0
46.9244 12.5395 0
48.2215 14.6653 0
46.9808 16.8249 0
45.6837 14.6991 0
46.9526 14.6824 0
48.1926 12.5224 0
50.7289 12.4869 0
50.7897 16.7721 0
48.2504 16.8077 0
49.4608 12.5049 0
50.7593 14.6297 0
49.5201 16.7901 0
48.2215 14.6653 0
49.4904 14.6477 0
50.7289 12.4869 0
53.2653 12.4496 0
53.3289 16.7349 0
50.7897 16.7721 0
51.9971 12.4685 0
53.2971 14.5924 0
52.0593 16.7537 0
50.7593 14.6297 0
52.0282 14.6113 0
53.2653 12.4496 0
55.8016 12.4107 0
55.8681 16.6959 0
53.3289 16.7349 0
54.5334 12.4304 0
55.8349 14.5535 0
54.5985 16.7156 0
53.2971 14.5924 0
54.566 14.5732 0
55.8016 12.4107 0
58.3379 12.3701 0
58.4073 16.6552 0
55.8681 16.6959 0
57.0698 12.3906 0
58.3726 14.5128 0
57.1377 16.6757 0
55.8349 14.5535 0
57.1037 14.5333 0
58.3379 12.3701 0
60.8742 12.3277 0
60.9464 16.6128 0
58.4073 16.6552 0
59.6061 12.3491 0
60.9103 14.4705 0
59.6768 16.6342 0
58.3726 14.5128 0
59.6414 14.4918 0
60.8742 12.3277 0
63.4105 12.2837 0
63.4855 16.5688 0
60.9464 16.6128 0
62.1423 12.306 0
63.448 14.4264 0
62.2159 16.591 0
60.9103 14.4705 0
62.1791 14.4487 0
63.4105 12.2837 0
65.9467 12.2381 0
66.0245 16.5231 0
63.4855 16.5688 0
64.6786 12.2611 0
65.9856 14.3808 0
64.755 16.5461 0
63.448 14.4264 0
64.7168 14.4038 0
65.9467 12.2381 0
68.483 12.1908 0
68.5635 16.4757 0
66.0245 16.5231 0
67.2148 12.2146 0
68.5232 14.3334 0
67.294 16.4996 0
65.9856 14.3808 0
67.2544 14.3573 0
68.483 12.1908 0
71.0192 12.1418 0
71.1025 16.4267 0
68.5635 16.4757 0
69.7511 12.1665 0
71.0608 14.2844 0
69.833 16.4514 0
68.5232 14.3334 0
69.792 14.3091 0
71.0192 12.1418 0
73.5553 12.0912 0
73.6414 16.3761 0
71.1025 16.4267 0
72.2872 12.1167 0
73.5984 14.2338 0
72.372 16.4016 0
71.0608 14.2844 0
72.3296 14.2593 0
73.5553 12.0912 0
76.0915 12.039 0
76.1803 16.3238 0
73.6414 16.3761 0
74.8234 12.0653 0
76.1359 14.1816 0
74.9109 16.3501 0
73.5984 14.2338 0
74.8672 14.2079 0
76.0915 12.039 0
78.6276 11.9852 0
78.7192 16.2699 0
76.1803 16.3238 0
77.3596 12.0123 0
78.6734 14.1277 0
77.4498 16.2971 0
76.1359 14.1816 0
77.4047 14.1549 0
78.6276 11.9852 0
81.1637 11.9298 0
81.258 16.2144 0
78.7192 16.2699 0
79.8957 11.9577 0
81.2109 14.0723 0
79.9886 16.2424 0
78.6734 14.1277 0
79.9421 14.1002 0
81.1637 11.9298 0
83.6998 11.8728 0
83.7967 16.1574 0
81.258 16.2144 0
82.4318 11.9015 0
83.7483 14.0152 0
82.5274 16.1861 0
81.2109 14.0723 0
82.4796 14.044 0
83.6998 11.8728 0
86.2358 11.8142 0
86.3355 16.0987 0
83.7967 16.1574 0
84.9678 11.8437 0
86.2857 13.9566 0
85.0661 16.1282 0
83.7483 14.0152 0
85.017 13.9861 0
86.2358 11.8142 0
88.7719 11.754 0
88.8741 16.0384 0
86.3355 16.0987 0
87.5039 11.7843 0
88.823 13.8964 0
87.6048 16.0688 0
86.2857 13.9566 0
87.5543 13.9267 0
88.7719 11.754 0
91.3079 11.6922 0
91.4128 15.9766 0
88.8741 16.0384 0
90.0399 11.7233 0
91.3603 13.8346 0
90.1435 16.0077 0
88.823 13.8964 0
90.0917 13.8657 0
91.3079 11.6922 0
93.8438 11.6289 0
93.9513 15.9133 0
91.4128 15.9766 0
92.5758 11.6608 0
93.8976 13.7713 0
92.6821 15.9451 0
91.3603 13.8346 0
92.629 13.8031 0
93.8438 11.6289 0
96.3798 11.5641 0
96.4899 15.8483 0
93.9513 15.9133 0
95.1118 11.5967 0
96.4348 13.7064 0
95.2206 15.881 0
93.8976 13.7713 0
95.1662 13.739 0
96.3798 11.5641 0
98.9157 11.4977 0
99.0284 15.7819 0
96.4899 15.8483 0
97.6477 11.5311 0
98.972 13.6399 0
97.7591 15.8153 0
96.4348 13.7064 0
97.7034 13.6734 0
98.9157 11.4977 0
101.452 11.4298 0
101.567 15.7139 0
99.0284 15.7819 0
100.184 11.4639 0
101.509 13.572 0
100.298 15.7481 0
98.972 13.6399 0
100.241 13.6062 0
101.452 11.4298 0
103.987 11.3603 0
104.105 15.6444 0
101.567 15.7139 0
102.719 11.3952 0
104.046 13.5025 0
102.836 15.6793 0
101.509 13.572 0
102.778 13.5375 0
103.987 11.3603 0
106.523 11.2894 0
106.644 15.5734 0
104.105 15.6444 0
105.255 11.325 0
106.583 13.4316 0
105.374 15.6091 0
104.046 13.5025 0
105.315 13.4672 0
106.523 11.2894 0
109.059 11.217 0
109.182 15.5009 0
106.644 15.5734 0
107.791 11.2534 0
109.12 13.3591 0
107.913 15.5373 0
106.583 13.4316 0
107.852 13.3955 0
109.059 11.217 0
111.595 11.143 0
111.72 15.4269 0
109.182 15.5009 0
110.327 11.1802 0
111.657 13.2851 0
110.451 15.4641 0
109.12 13.3591 0
110.389 13.3223 0
111.595 11.143 0
114.13 11.0676 0
114.258 15.3514 0
111.72 15.4269 0
112.863 11.1055 0
114.194 13.2097 0
112.989 15.3893 0
111.657 13.2851 0
112.926 13.2476 0
114.13 11.0676 0
116.666 10.9907 0
116.796 15.2745 0
114.258 15.3514 0
115.398 11.0294 0
116.731 13.1328 0
115.527 15.3131 0
114.194 13.2097 0
115.463 13.1714 0
116.666 10.9907 0
119.202 10.9124 0
119.334 15.1961 0
116.796 15.2745 0
117.934 10.9518 0
119.268 13.0544 0
118.065 15.2354 0
116.731 13.1328 0
118 13.0938 0
119.202 10.9124 0
121.737 10.8326 0
121.872 15.1162 0
119.334 15.1961 0
120.469 10.8727 0
121.805 12.9746 0
120.603 15.1563 0
119.268 13.0544 0
120.536 13.0147 0
121.737 10.8326 0
124.273 10.7514 0
124.41 15.0349 0
121.872 15.1162 0
123.005 10.7922 0
124.342 12.8933 0
123.141 15.0757 0
121.805 12.9746 0
123.073 12.9341 0
124.273 10.7514 0
126.808 10.6688 0
126.948 14.9522 0
124.41 15.0349 0
125.541 10.7103 0
126.878 12.8106 0
125.679 14.9937 0
124.342 12.8933 0
125.61 12.8521 0
126.808 10.6688 0
129.344 10.5847 0
129.486 14.868 0
126.948 14.9522 0
128.076 10.6269 0
129.415 12.7265 0
128.217 14.9103 0
126.878 12.8106 0
128.147 12.7687 0
129.344 10.5847 0
131.879 10.4992 0
132.024 14.7825 0
129.486 14.868 0
130.611 10.5421 0
131.952 12.641 0
130.755 14.8254 0
129.415 12.7265 0
130.683 12.6839 0
131.879 10.4992 0
134.415 10.4123 0
134.562 14.6955 0
132.024 14.7825 0
133.147 10.4559 0
134.488 12.5541 0
133.293 14.7391 0
131.952 12.641 0
133.22 12.5977 0
134.415 10.4123 0
136.95 10.324 0
137.1 14.6071 0
134.562 14.6955 0
135.682 10.3684 0
137.025 12.4657 0
135.831 14.6515 0
134.488 12.5541 0
135.756 12.5101 0
136.95 10.324 0
139.485 10.2344 0
139.637 14.5174 0
137.1 14.6071 0
138.218 10.2794 0
139.561 12.376 0
138.368 14.5624 0
137.025 12.4657 0
138.293 12.4211 0
139.485 10.2344 0
142.021 10.1434 0
142.175 14.4263 0
139.637 14.5174 0
140.753 10.189 0
142.098 12.285 0
140.906 14.472 0
139.561 12.376 0
140.829 12.3307 0
142.021 10.1434 0
144.556 10.051 0
144.712 14.3338 0
142.175 14.4263 0
143.288 10.0973 0
144.634 12.1925 0
143.444 14.3802 0
142.098 12.285 0
143.366 12.2389 0
144.556 10.051 0
147.091 9.95722 0
147.25 14.24 0
144.712 14.3338 0
145.823 10.0043 0
147.17 12.0987 0
145.981 14.2871 0
144.634 12.1925 0
145.902 12.1458 0
147.091 9.95722 0
149.626 9.86214 0
149.787 14.1448 0
147.25 14.24 0
148.359 9.90985 0
149.707 12.0036 0
148.518 14.1926 0
147.17 12.0987 0
148.439 12.0513 0
149.626 9.86214 0
152.161 9.76572 0
152.325 14.0483 0
149.787 14.1448 0
150.894 9.81409 0
152.243 11.9072 0
151.056 14.0967 0
149.707 12.0036 0
150.975 11.9555 0
152.161 9.76572 0
154.696 9.66797 0
154.862 13.9505 0
152.325 14.0483 0
153.429 9.71701 0
154.779 11.8094 0
153.593 13.9996 0
152.243 11.9072 0
153.511 11.8584 0
154.696 9.66797 0
157.231 9.56892 0
157.399 13.8513 0
154.862 13.9505 0
155.964 9.61861 0
157.315 11.7103 0
156.13 13.9011 0
154.779 11.8094 0
156.047 11.76 0
157.231 9.56892 0
159.766 9.46855 0
159.936 13.7509 0
157.399 13.8513 0
158.499 9.5189 0
159.851 11.6099 0
158.668 13.8013 0
157.315 11.7103 0
158.583 11.6602 0
159.766 9.46855 0
162.301 9.3669 0
162.473 13.6491 0
159.936 13.7509 0
161.034 9.41789 0
162.387 11.5082 0
161.205 13.7002 0
159.851 11.6099 0
161.119 11.5592 0
162.301 9.3669 0
164.836 9.26396 0
165.01 13.5461 0
162.473 13.6491 0
163.569 9.31559 0
164.923 11.4052 0
163.742 13.5978 0
162.387 11.5082 0
163.655 11.4568 0
164.836 9.26396 0
167.371 9.15974 0
167.547 13.4418 0
165.01 13.5461 0
166.104 9.21201 0
167.459 11.3009 0
166.279 13.4941 0
164.923 11.4052 0
166.191 11.3532 0
167.371 9.15974 0
169.906 9.05426 0
170.084 13.3362 0
167.547 13.4418 0
168.638 9.10716 0
169.995 11.1954 0
168.816 13.3892 0
167.459 11.3009 0
168.727 11.2483 0
169.906 9.05426 0
172.441 8.94752 0
172.621 13.2294 0
170.084 13.3362 0
171.173 9.00105 0
172.531 11.0886 0
171.353 13.283 0
169.995 11.1954 0
171.263 11.1422 0
172.441 8.94752 0
174.975 8.83954 0
175.158 13.1213 0
172.621 13.2294 0
173.708 8.89369 0
175.067 10.9806 0
173.89 13.1755 0
172.531 11.0886 0
173.799 11.0347 0
174.975 8.83954 0
177.51 8.73032 0
177.695 13.012 0
175.158 13.1213 0
176.243 8.78509 0
177.602 10.8713 0
176.426 13.0668 0
175.067 10.9806 0
176.335 10.9261 0
177.51 8.73032 0
180.045 8.61988 0
180.231 12.9015 0
177.695 13.012 0
178.777 8.67525 0
180.138 10.7608 0
178.963 12.9569 0
177.602 10.8713 0
178.87 10.8162 0
180.045 8.61988 0
182.579 8.50822 0
182.768 12.7897 0
180.231 12.9015 0
181.312 8.5642 0
182.674 10.6491 0
181.5 12.8458 0
180.138 10.7608 0
181.406 10.7051 0
182.579 8.50822 0
185.114 8.39535 0
185.305 12.6768 0
182.768 12.7897 0
183.846 8.45193 0
185.209 10.5362 0
184.036 12.7334 0
182.674 10.6491 0
183.941 10.5928 0
185.114 8.39535 0
187.648 8.28128 0
187.841 12.5626 0
185.305 12.6768 0
186.381 8.33846 0
187.745 10.4221 0
186.573 12.6199 0
185.209 10.5362 0
186.477 10.4793 0
187.648 8.28128 0
190.183 8.16602 0
190.378 12.4473 0
187.841 12.5626 0
188.915 8.2238 0
190.28 10.3068 0
189.109 12.5051 0
187.745 10.4221 0
189.012 10.3646 0
190.183 8.16602 0
192.717 8.04959 0
192.914 12.3308 0
190.378 12.4473 0
191.45 8.10795 0
192.816 10.1903 0
191.646 12.3892 0
190.28 10.3068 0
191.548 10.2487 0
192.717 8.04959 0
195.251 7.93199 0
195.45 12.2131 0
192.914 12.3308 0
193.984 7.99093 0
195.351 10.0727 0
194.182 12.2721 0
192.816 10.1903 0
194.083 10.1316 0
195.251 7.93199 0
197.786 7.81323 0
197.987 12.0942 0
195.45 12.2131 0
196.519 7.87275 0
197.886 9.95385 0
196.718 12.1538 0
195.351 10.0727 0
196.619 10.0134 0
197.786 7.81323 0
200.32 7.69332 0
200.523 11.9742 0
197.987 12.0942 0
199.053 7.75342 0
200.421 9.83389 0
199.255 12.0344 0
197.886 9.95385 0
199.154 9.89401 0
200.32 7.69332 0
202.854 7.57227 0
203.059 11.8531 0
200.523 11.9742 0
201.587 7.63293 0
202.957 9.71279 0
201.791 11.9138 0
200.421 9.83389 0
201.689 9.77348 0
202.854 7.57227 0
205.388 7.45009 0
205.595 11.7308 0
203.059 11.8531 0
204.121 7.51132 0
205.492 9.59057 0
204.327 11.7921 0
202.957 9.71279 0
204.224 9.65182 0
205.388 7.45009 0
207.923 7.32679 0
208.131 11.6074 0
205.595 11.7308 0
206.656 7.38858 0
208.027 9.46722 0
206.863 11.6693 0
205.492 9.59057 0
206.759 9.52903 0
207.923 7.32679 0
210.457 7.20238 0
210.667 11.4829 0
208.131 11.6074 0
209.19 7.26472 0
210.562 9.34277 0
209.399 11.5453 0
208.027 9.46722 0
209.294 9.40513 0
210.457 7.20238 0
212.991 7.07687 0
213.203 11.3573 0
210.667 11.4829 0
211.724 7.13976 0
213.097 9.21721 0
211.935 11.4203 0
210.562 9.34277 0
211.829 9.28012 0
212.991 7.07687 0
215.525 6.95027 0
215.739 11.2306 0
213.203 11.3573 0
214.258 7.0137 0
215.632 9.09056 0
214.471 11.2941 0
213.097 9.21721 0
214.364 9.15402 0
215.525 6.95027 0
218.059 6.82259 0
218.274 11.1028 0
215.739 11.2306 0
216.792 6.88656 0
218.167 8.96283 0
217.007 11.1669 0
215.632 9.09056 0
216.899 9.02683 0
218.059 6.82259 0
220.593 6.69383 0
220.81 10.974 0
218.274 11.1028 0
219.326 6.75834 0
220.701 8.83403 0
219.542 11.0386 0
218.167 8.96283 0
219.434 8.89856 0
220.593 6.69383 0
223.126 6.56401 0
223.346 10.8441 0
220.81 10.974 0
221.859 6.62905 0
223.236 8.70417 0
222.078 10.9092 0
220.701 8.83403 0
221.969 8.76923 0
223.126 6.56401 0
225.66 6.43314 0
225.881 10.7131 0
223.346 10.8441 0
224.393 6.49871 0
225.771 8.57325 0
224.614 10.7787 0
223.236 8.70417 0
224.503 8.63884 0
225.66 6.43314 0
228.194 6.30123 0
228.417 10.5811 0
225.881 10.7131 0
226.927 6.36732 0
228.305 8.44129 0
227.149 10.6473 0
225.771 8.57325 0
227.038 8.5074 0
228.194 6.30123 0
230.728 6.16829 0
230.952 10.4481 0
228.417 10.5811 0
229.461 6.23489 0
230.84 8.3083 0
229.685 10.5147 0
228.305 8.44129 0
229.573 8.37493 0
230.728 6.16829 0
233.261 6.03432 0
233.488 10.314 0
230.952 10.4481 0
231.995 6.10143 0
233.375 8.17429 0
232.22 10.3812 0
230.84 8.3083 0
232.107 8.24142 0
233.261 6.03432 0
235.795 5.89934 0
236.023 10.179 0
233.488 10.314 0
234.528 5.96695 0
235.909 8.03926 0
234.755 10.2466 0
233.375 8.17429 0
234.642 8.1069 0
235.795 5.89934 0
238.329 5.76335 0
238.558 10.0429 0
236.023 10.179 0
237.062 5.83147 0
238.443 7.90323 0
237.291 10.1111 0
235.909 8.03926 0
237.176 7.97137 0
238.329 5.76335 0
240.862 5.62637 0
241.094 9.90582 0
238.558 10.0429 0
239.595 5.69499 0
240.978 7.7662 0
239.826 9.97448 0
238.443 7.90323 0
239.711 7.83484 0
240.862 5.62637 0
243.396 5.48841 0
243.629 9.76776 0
241.094 9.90582 0
242.129 5.55751 0
243.512 7.62819 0
242.361 9.83691 0
240.978 7.7662 0
242.245 7.69732 0
243.396 5.48841 0
245.929 5.34947 0
246.164 9.62874 0
243.629 9.76776 0
244.662 5.41906 0
246.046 7.4892 0
244.896 9.69837 0
243.512 7.62819 0
244.779 7.55882 0
245.929 5.34947 0
248.462 5.20956 0
248.699 9.48874 0
246.164 9.62874 0
247.196 5.27963 0
248.581 7.34925 0
247.431 9.55886 0
246.046 7.4892 0
247.314 7.41935 0
248.462 5.20956 0
250.996 5.0687 0
251.234 9.34779 0
248.699 9.48874 0
249.729 5.13925 0
251.115 7.20835 0
249.966 9.41839 0
248.581 7.34925 0
249.848 7.27892 0
250.996 5.0687 0
253.529 4.92689 0
253.769 9.2059 0
251.234 9.34779 0
252.262 4.99792 0
253.649 7.0665 0
252.501 9.27696 0
251.115 7.20835 0
252.382 7.13754 0
253.529 4.92689 0
256.062 4.78415 0
256.304 9.06307 0
253.769 9.2059 0
254.796 4.85564 0
256.183 6.92371 0
255.036 9.1346 0
253.649 7.0665 0
254.916 6.99522 0
256.062 4.78415 0
258.596 4.64048 0
258.838 8.91931 0
256.304 9.06307 0
257.329 4.71243 0
258.717 6.77999 0
257.571 8.9913 0
256.183 6.92371 0
257.45 6.85197 0
258.596 4.64048 0
261.129 4.49589 0
261.373 8.77463 0
258.838 8.91931 0
259.862 4.5683 0
261.251 6.63536 0
260.106 8.84708 0
258.717 6.77999 0
259.984 6.70779 0
261.129 4.49589 0
263.662 4.3504 0
263.908 8.62905 0
261.373 8.77463 0
262.395 4.42326 0
263.785 6.48982 0
262.64 8.70196 0
261.251 6.63536 0
262.518 6.5627 0
263.662 4.3504 0
266.195 4.20401 0
266.442 8.48257 0
263.908 8.62905 0
264.928 4.27732 0
266.319 6.34339 0
265.175 8.55592 0
263.785 6.48982 0
265.052 6.41672 0
266.195 4.20401 0
268.728 4.05673 0
268.977 8.33521 0
266.442 8.48257 0
267.462 4.13048 0
268.852 6.19606 0
267.71 8.409 0
266.319 6.34339 0
267.586 6.26983 0
268.728 4.05673 0
271.261 3.90857 0
271.511 8.18696 0
268.977 8.33521 0
269.995 3.98276 0
271.386 6.04786 0
270.244 8.26119 0
268.852 6.19606 0
270.119 6.12207 0
271.261 3.90857 0
273.794 3.75954 0
274.046 8.03785 0
271.511 8.18696 0
272.528 3.83417 0
273.92 5.89879 0
272.779 8.11252 0
271.386 6.04786 0
272.653 5.97343 0
273.794 3.75954 0
276.327 3.60966 0
276.58 7.88788 0
274.046 8.03785 0
275.06 3.68471 0
276.454 5.74886 0
275.313 7.96297 0
273.92 5.89879 0
275.187 5.82393 0
276.327 3.60966 0
278.86 3.45892 0
279.114 7.73706 0
276.58 7.88788 0
277.593 3.5344 0
278.987 5.59808 0
277.847 7.81258 0
276.454 5.74886 0
277.72 5.67358 0
278.86 3.45892 0
281.393 3.30735 0
281.649 7.5854 0
279.114 7.73706 0
280.126 3.38324 0
281.521 5.44647 0
280.382 7.66134 0
278.987 5.59808 0
280.254 5.52238 0
281.393 3.30735 0
283.925 3.15495 0
284.183 7.43292 0
281.649 7.5854 0
282.659 3.23125 0
284.054 5.29402 0
282.916 7.50926 0
281.521 5.44647 0
282.787 5.37034 0
283.925 3.15495 0
286.458 3.00172 0
286.717 7.27961 0
284.183 7.43292 0
285.192 3.07844 0
286.588 5.14075 0
285.45 7.35636 0
284.054 5.29402 0
285.321 5.21749 0
286.458 3.00172 0
288.991 2.84769 0
289.251 7.12549 0
286.717 7.27961 0
287.725 2.9248 0
289.121 4.98667 0
287.984 7.20265 0
286.588 5.14075 0
287.854 5.06381 0
288.991 2.84769 0
291.524 2.69285 0
291.785 6.97057 0
289.251 7.12549 0
290.257 2.77037 0
291.654 4.83179 0
290.518 7.04813 0
289.121 4.98667 0
290.388 4.90933 0
291.524 2.69285 0
294.056 2.53722 0
294.319 6.81486 0
291.785 6.97057 0
292.79 2.61513 0
294.188 4.67613 0
293.052 6.89282 0
291.654 4.83179 0
292.921 4.75406 0
294.056 2.53722 0
296.589 2.38081 0
296.853 6.65837 0
294.319 6.81486 0
295.323 2.45911 0
296.721 4.51967 0
295.586 6.73671 0
294.188 4.67613 0
295.454 4.598 0
296.589 2.38081 0
299.121 2.22363 0
299.387 6.50111 0
296.853 6.65837 0
297.855 2.30232 0
299.254 4.36245 0
298.12 6.57984 0
296.721 4.51967 0
297.987 4.44116 0
299.121 2.22363 0
301.654 2.06569 0
301.921 6.34309 0
299.387 6.50111 0
300.388 2.14475 0
301.787 4.20447 0
300.654 6.42219 0
299.254 4.36245 0
300.521 4.28355 0
301.654 2.06569 0
304.186 1.90699 0
304.454 6.18431 0
301.921 6.34309 0
302.92 1.98643 0
304.32 4.04573 0
303.187 6.26379 0
301.787 4.20447 0
303.054 4.12519 0
304.186 1.90699 0
306.719 1.74755 0
306.988 6.02479 0
304.454 6.18431 0
305.453 1.82736 0
306.853 3.88625 0
305.721 6.10465 0
304.32 4.04573 0
305.587 3.96608 0
306.719 1.74755 0
309.251 1.58738 0
309.522 5.86454 0
306.988 6.02479 0
307.985 1.66755 0
309.386 3.72604 0
308.255 5.94476 0
306.853 3.88625 0
308.12 3.80624 0
309.251 1.58738 0
311.784 1.42648 0
312.055 5.70357 0
309.522 5.86454 0
310.517 1.50702 0
311.919 3.5651 0
310.788 5.78415 0
309.386 3.72604 0
310.653 3.64566 0
311.784 1.42648 0
314.316 1.26487 0
314.589 5.54188 0
312.055 5.70357 0
313.05 1.34576 0
314.452 3.40345 0
313.322 5.62282 0
311.919 3.5651 0
313.186 3.48437 0
314.316 1.26487 0
316.848 1.10255 0
317.122 5.37949 0
314.589 5.54188 0
315.582 1.1838 0
316.985 3.2411 0
315.855 5.46078 0
314.452 3.40345 0
315.719 3.32236 0
316.848 1.10255 0
319.38 0.939544 0
319.656 5.21641 0
317.122 5.37949 0
318.114 1.02113 0
319.518 3.07805 0
318.389 5.29804 0
316.985 3.2411 0
318.252 3.15966 0
319.38 0.939544 0
321.913 0.775848 0
322.189 5.05264 0
319.656 5.21641 0
320.647 0.857781 0
322.051 2.91432 0
320.922 5.13461 0
319.518 3.07805 0
320.784 2.99627 0
321.913 0.775848 0
324.445 0.611478 0
324.722 4.8882 0
322.189 5.05264 0
323.179 0.693747 0
324.584 2.74991 0
323.456 4.9705 0
322.051 2.91432 0
323.317 2.8322 0
324.445 0.611478 0
326.977 0.446441 0
327.256 4.72309 0
324.722 4.8882 0
325.711 0.529042 0
327.116 2.58483 0
325.989 4.80572 0
324.584 2.74991 0
325.85 2.66745 0
326.977 0.446441 0
329.509 0.280749 0
329.789 4.55732 0
327.256 4.72309 0
328.243 0.363677 0
329.649 2.4191 0
328.522 4.64029 0
327.116 2.58483 0
328.383 2.50205 0
329.509 0.280749 0
332.041 0.11441 0
332.322 4.39091 0
329.789 4.55732 0
330.775 0.197659 0
332.182 2.25273 0
331.055 4.4742 0
329.649 2.4191 0
330.915 2.336 0
332.041 0.11441 0
334.573 -0.0525663 0
334.855 4.22387 0
332.322 4.39091 0
333.307 0.0310007 0
334.714 2.08572 0
333.588 4.30747 0
332.182 2.25273 0
333.448 2.1693 0
334.573 -0.0525663 0
337.105 -0.220169 0
337.388 4.05619 0
334.855 4.22387 0
335.839 -0.13629 0
337.247 1.91808 0
336.122 4.14011 0
334.714 2.08572 0
335.98 2.00198 0
337.105 -0.220169 0
339.637 -0.38839 0
339.921 3.8879 0
337.388 4.05619 0
338.371 -0.304203 0
339.779 1.74982 0
338.655 3.97213 0
337.247 1.91808 0
338.513 1.83403 0
339.637 -0.38839 0
342.169 -0.557219 0
342.454 3.71901 0
339.921 3.8879 0
340.903 -0.472729 0
342.312 1.58096 0
341.188 3.80353 0
339.779 1.74982 0
341.045 1.66547 0
342.169 -0.557219 0
344.701 -0.726646 0
344.987 3.54951 0
342.454 3.71901 0
343.435 -0.641858 0
344.844 1.4115 0
343.72 3.63434 0
342.312 1.58096 0
343.578 1.4963 0
344.701 -0.726646 0
347.233 -0.896661 0
347.52 3.37943 0
344.987 3.54951 0
345.967 -0.81158 0
347.376 1.24145 0
346.253 3.46455 0
344.844 1.4115 0
346.11 1.32655 0
347.233 -0.896661 0
349.765 -1.06726 0
350.053 3.20877 0
347.52 3.37943 0
348.499 -0.981886 0
349.909 1.07082 0
348.786 3.29418 0
347.376 1.24145 0
348.643 1.15621 0
349.765 -1.06726 0
352.297 -1.23842 0
352.585 3.03755 0
350.053 3.20877 0
351.031 -1.15277 0
352.441 0.899623 0
351.319 3.12323 0
349.909 1.07082 0
351.175 0.985292 0
352.297 -1.23842 0
354.828 -1.41014 0
355.118 2.86576 0
352.585 3.03755 0
353.562 -1.32421 0
354.973 0.727867 0
353.852 2.95172 0
352.441 0.899623 0
353.707 0.813814 0
354.828 -1.41014 0
357.36 -1.58242 0
357.651 2.69342 0
355.118 2.86576 0
356.094 -1.49621 0
357.505 0.555562 0
356.384 2.77966 0
354.973 0.727867 0
356.239 0.641782 0
357.36 -1.58242 0
359.892 -1.75523 0
360.183 2.52055 0
357.651 2.69342 0
358.626 -1.66876 0
360.038 0.382716 0
358.917 2.60705 0
357.505 0.555562 0
358.772 0.469206 0
359.892 -1.75523 0
362.424 -1.92857 0
362.716 2.34714 0
360.183 2.52055 0
361.158 -1.84184 0
362.57 0.20934 0
361.45 2.43391 0
360.038 0.382716 0
361.304 0.296094 0
362.424 -1.92857 0
364.955 -2.10244 0
365.249 2.17322 0
362.716 2.34714 0
363.689 -2.01544 0
365.102 0.035444 0
363.982 2.26025 0
362.57 0.20934 0
363.836 0.122457 0
364.955 -2.10244 0
367.487 -2.27682 0
367.781 1.99878 0
365.249 2.17322 0
366.221 -2.18956 0
367.634 -0.138963 0
366.515 2.08606 0
365.102 0.035444 0
366.368 -0.0516964 0
367.487 -2.27682 0
370.019 -2.4517 0
370.314 1.82385 0
367.781 1.99878 0
368.753 -2.36419 0
370.166 -0.313872 0
369.047 1.91138 0
367.634 -0.138963 0
368.9 -0.226356 0
370.019 -2.4517 0
372.55 -2.62707 0
372.846 1.64842 0
370.314 1.82385 0
371.284 -2.53932 0
372.698 -0.489272 0
371.58 1.73619 0
370.166 -0.313872 0
371.432 -0.401511 0
372.55 -2.62707 0
375.082 -2.80292 0
375.378 1.47251 0
372.846 1.64842 0
373.816 -2.71493 0
375.23 -0.665154 0
374.112 1.56052 0
372.698 -0.489272 0
373.964 -0.577154 0
375.082 -2.80292 0
377.613 -2.97925 0
377.911 1.29613 0
375.378 1.47251 0
376.347 -2.89102 0
377.762 -0.841509 0
376.645 1.38438 0
375.23 -0.665154 0
376.496 -0.753273 0
377.613 -2.97925 0
380.145 -3.15604 0
380.443 1.11929 0
377.911 1.29613 0
378.879 -3.06758 0
380.294 -1.01833 0
379.177 1.20776 0
377.762 -0.841509 0
379.028 -0.929861 0
380.145 -3.15604 0
382.676 -3.33328 0
382.975 0.94199 0
380.443 1.11929 0
381.411 -3.2446 0
382.826 -1.1956 0
381.709 1.03069 0
380.294 -1.01833 0
381.56 -1.10691 0
382.676 -3.33328 0
385.208 -3.51096 0
385.507 0.764251 0
382.975 0.94199 0
383.942 -3.42207 0
385.358 -1.37331 0
384.241 0.853175 0
382.826 -1.1956 0
384.092 -1.2844 0
385.208 -3.51096 0
387.739 -3.68909 0
388.04 0.586079 0
385.507 0.764251 0
386.473 -3.59997 0
387.889 -1.55146 0
386.774 0.675218 0
385.358 -1.37331 0
386.624 -1.46233 0
387.739 -3.68909 0
390.271 -3.86763 0
390.572 0.407483 0
388.04 0.586079 0
389.005 -3.77831 0
390.421 -1.73003 0
389.306 0.496834 0
387.889 -1.55146 0
389.155 -1.64069 0
390.271 -3.86763 0
392.802 -4.04659 0
393.104 0.228474 0
390.572 0.407483 0
391.536 -3.95706 0
392.953 -1.90902 0
391.838 0.31803 0
390.421 -1.73003 0
391.687 -1.81947 0
392.802 -4.04659 0
395.333 -4.22596 0
395.636 0.0490601 0
393.104 0.228474 0
394.068 -4.13623 0
395.485 -2.08841 0
394.37 0.138817 0
392.953 -1.90902 0
394.219 -1.99866 0
395.333 -4.22596 0
397.865 -4.40572 0
398.168 -0.130748 0
395.636 0.0490601 0
396.599 -4.31579 0
398.016 -2.26819 0
396.902 -0.0407954 0
395.485 -2.08841 0
396.751 -2.17825 0
397.865 -4.40572 0
400.396 -4.58587 0
400.7 -0.310942 0
398.168 -0.130748 0
399.13 -4.49575 0
400.548 -2.44837 0
399.434 -0.220798 0
398.016 -2.26819 0
399.282 -2.35823 0
400.396 -4.58587 0
402.928 -4.76639 0
403.232 -0.491511 0
400.7 -0.310942 0
401.662 -4.67608 0
403.08 -2.62891 0
401.966 -0.40118 0
400.548 -2.44837 0
401.814 -2.53859 0
402.928 -4.76639 0
405.459 -4.94728 0
405.764 -0.672445 0
403.232 -0.491511 0
404.193 -4.85679 0
405.611 -2.80983 0
404.498 -0.581933 0
403.08 -2.62891 0
404.346 -2.71932 0
405.459 -4.94728 0
407.99 -5.12853 0
408.296 -0.853736 0
405.764 -0.672445 0
406.724 -5.03786 0
408.143 -2.9911 0
407.03 -0.763047 0
405.611 -2.80983 0
406.877 -2.90042 0
407.99 -5.12853 0
410.521 -5.31013 0
410.828 -1.03537 0
408.296 -0.853736 0
409.256 -5.21929 0
410.675 -3.17271 0
409.562 -0.944512 0
408.143 -2.9911 0
409.409 -3.08186 0
410.521 -5.31013 0
413.053 -5.49206 0
413.359 -1.21735 0
410.828 -1.03537 0
411.787 -5.40105 0
413.206 -3.35467 0
412.094 -1.12632 0
410.675 -3.17271 0
411.94 -3.26365 0
413.053 -5.49206 0
415.584 -5.67432 0
415.891 -1.39965 0
413.359 -1.21735 0
414.318 -5.58315 0
415.738 -3.53695 0
414.625 -1.30846 0
413.206 -3.35467 0
414.472 -3.44577 0
415.584 -5.67432 0
418.115 -5.8569 0
418.423 -1.58227 0
415.891 -1.39965 0
416.85 -5.76557 0
418.269 -3.71955 0
417.157 -1.49092 0
415.738 -3.53695 0
417.003 -3.62821 0
418.115 -5.8569 0
420.646 -6.03979 0
420.955 -1.76519 0
418.423 -1.58227 0
419.381 -5.94831 0
420.801 -3.90246 0
419.689 -1.67369 0
418.269 -3.71955 0
419.535 -3.81097 0
420.646 -6.03979 0
423.178 -6.22298 0
423.486 -1.94842 0
420.955 -1.76519 0
421.912 -6.13135 0
423.332 -4.08567 0
422.221 -1.85677 0
420.801 -3.90246 0
422.066 -3.99403 0
423.178 -6.22298 0
425.709 -6.40646 0
426.018 -2.13193 0
423.486 -1.94842 0
424.443 -6.31469 0
425.863 -4.26917 0
424.752 -2.04014 0
423.332 -4.08567 0
424.598 -4.17738 0
425.709 -6.40646 0
428.24 -6.59022 0
428.55 -2.31572 0
426.018 -2.13193 0
426.974 -6.49831 0
428.395 -4.45294 0
427.284 -2.22379 0
425.863 -4.26917 0
427.129 -4.36102 0
428.24 -6.59022 0
430.771 -6.77425 0
431.081 -2.49978 0
428.55 -2.31572 0
429.506 -6.6822 0
430.926 -4.63699 0
429.816 -2.40772 0
428.395 -4.45294 0
429.661 -4.54493 0
430.771 -6.77425 0
433.302 -6.95854 0
433.613 -2.6841 0
431.081 -2.49978 0
432.037 -6.86636 0
433.458 -4.82129 0
432.347 -2.59191 0
430.926 -4.63699 0
432.192 -4.72911 0
433.302 -6.95854 0
435.833 -7.14308 0
436.145 -2.86868 0
433.613 -2.6841 0
434.568 -7.05078 0
435.989 -5.00585 0
434.879 -2.77636 0
433.458 -4.82129 0
434.723 -4.91354 0
435.833 -7.14308 0
438.365 -7.32786 0
438.676 -3.05349 0
436.145 -2.86868 0
437.099 -7.23544 0
438.52 -5.19065 0
437.41 -2.96105 0
435.989 -5.00585 0
437.255 -5.09822 0
438.365 -7.32786 0
440.896 -7.51287 0
441.208 -3.23853 0
438.676 -3.05349 0
439.63 -7.42034 0
441.052 -5.37568 0
439.942 -3.14598 0
438.52 -5.19065 0
439.786 -5.28314 0
440.896 -7.51287 0
443.427 -7.69811 0
443.739 -3.42379 0
441.208 -3.23853 0
442.161 -7.60547 0
443.583 -5.56093 0
442.473 -3.33113 0
441.052 -5.37568 0
442.317 -5.46828 0
443.427 -7.69811 0
445.958 -7.88356 0
446.271 -3.60927 0
443.739 -3.42379 0
444.692 -7.79081 0
446.114 -5.74639 0
445.005 -3.5165 0
443.583 -5.56093 0
444.849 -5.65363 0
445.958 -7.88356 0
448.489 -8.06921 0
448.802 -3.79494 0
446.271 -3.60927 0
447.224 -7.97636 0
448.646 -5.93206 0
447.536 -3.70208 0
446.114 -5.74639 0
447.38 -5.8392 0
448.489 -8.06921 0
451.02 -8.25506 0
451.333 -3.98081 0
448.802 -3.79494 0
449.755 -8.16211 0
451.177 -6.11791 0
450.068 -3.88785 0
448.646 -5.93206 0
449.911 -6.02496 0
451.02 -8.25506 0
453.551 -8.44109 0
453.865 -4.16686 0
451.333 -3.98081 0
452.286 -8.34805 0
453.708 -6.30396 0
452.599 -4.07381 0
451.177 -6.11791 0
452.442 -6.21091 0
453.551 -8.44109 0
456.082 -8.62729 0
456.396 -4.35309 0
453.865 -4.16686 0
454.817 -8.53417 0
456.239 -6.49017 0
455.131 -4.25995 0
453.708 -6.30396 0
454.974 -6.39704 0
456.082 -8.62729 0
458.613 -8.81366 0
458.928 -4.53947 0
456.396 -4.35309 0
457.348 -8.72045 0
458.771 -6.67655 0
457.662 -4.44626 0
456.239 -6.49017 0
457.505 -6.58334 0
458.613 -8.81366 0
461.145 -9.00018 0
461.459 -4.72601 0
458.928 -4.53947 0
459.879 -8.9069 0
461.302 -6.86308 0
460.193 -4.63272 0
458.771 -6.67655 0
460.036 -6.7698 0
461.145 -9.00018 0
463.676 -9.18685 0
463.99 -4.9127 0
461.459 -4.72601 0
462.41 -9.09349 0
463.833 -7.04976 0
462.725 -4.81934 0
461.302 -6.86308 0
462.567 -6.9564 0
463.676 -9.18685 0
466.207 -9.37365 0
466.522 -5.09952 0
463.99 -4.9127 0
464.941 -9.28023 0
466.364 -7.23657 0
465.256 -5.00609 0
463.833 -7.04976 0
465.099 -7.14315 0
466.207 -9.37365 0
468.738 -9.56058 0
469.053 -5.28646 0
466.522 -5.09952 0
467.472 -9.4671 0
468.895 -7.42351 0
467.787 -5.19297 0
466.364 -7.23657 0
467.63 -7.33002 0
468.738 -9.56058 0
471.269 -9.74762 0
471.584 -5.47352 0
469.053 -5.28646 0
470.003 -9.65409 0
471.427 -7.61056 0
470.319 -5.37998 0
468.895 -7.42351 0
470.161 -7.51702 0
471.269 -9.74762 0
473.8 -9.93477 0
474.115 -5.66068 0
471.584 -5.47352 0
472.534 -9.84119 0
473.958 -7.79772 0
472.85 -5.56709 0
471.427 -7.61056 0
472.692 -7.70413 0
473.8 -9.93477 0
476.331 -10.122 0
476.647 -5.84794 0
474.115 -5.66068 0
475.066 -10.0284 0
476.489 -7.98498 0
475.381 -5.7543 0
473.958 -7.79772 0
475.223 -7.89134 0
476.331 -10.122 0
478.862 -10.3094 0
479.178 -6.03529 0
476.647 -5.84794 0
477.597 -10.2157 0
479.02 -8.17232 0
477.912 -5.94161 0
476.489 -7.98498 0
477.754 -8.07864 0
478.862 -10.3094 0
481.393 -10.4968 0
481.709 -6.22272 0
479.178 -6.03529 0
480.128 -10.4031 0
481.551 -8.35974 0
480.443 -6.129 0
479.02 -8.17232 0
480.286 -8.26602 0
481.393 -10.4968 0
483.924 -10.6843 0
484.24 -6.41022 0
481.709 -6.22272 0
482.659 -10.5905 0
484.082 -8.54724 0
482.975 -6.31646 0
481.551 -8.35974 0
482.817 -8.45348 0
483.924 -10.6843 0
486.455 -10.8718 0
486.771 -6.59777 0
484.24 -6.41022 0
485.19 -10.778 0
486.613 -8.73479 0
485.506 -6.50399 0
484.082 -8.54724 0
485.348 -8.64101 0
486.455 -10.8718 0
488.987 -11.0594 0
489.303 -6.78537 0
486.771 -6.59777 0
487.721 -10.9656 0
489.145 -8.92239 0
488.037 -6.69157 0
486.613 -8.73479 0
487.879 -8.82859 0
488.987 -11.0594 0
491.518 -11.2471 0
491.834 -6.97301 0
489.303 -6.78537 0
490.252 -11.1532 0
491.676 -9.11003 0
490.568 -6.87919 0
489.145 -8.92239 0
490.41 -9.01621 0
491.518 -11.2471 0
494.049 -11.4347 0
494.365 -7.16065 0
491.834 -6.97301 0
492.783 -11.3409 0
494.207 -9.29766 0
493.099 -7.06683 0
491.676 -9.11003 0
492.941 -9.20384 0
494.049 -11.4347 0
496.58 -11.6223 0
496.896 -7.34825 0
494.365 -7.16065 0
495.314 -11.5285 0
496.738 -9.48525 0
495.63 -7.25445 0
494.207 -9.29766 0
495.472 -9.39146 0
496.58 -11.6223 0
499.111 -11.8098 0
499.427 -7.53574 0
496.896 -7.34825 0
497.846 -11.716 0
499.269 -9.67273 0
498.162 -7.44201 0
496.738 -9.48525 0
498.004 -9.57901 0
0 17.1429 0
2.53945 17.1431 0
2.54231 21.4281 0
0 21.4286 0
1.26972 17.1433 0
2.54087 19.2857 0
1.27109 21.4287 0
0 19.2857 0
1.27039 19.2861 0
2.53945 17.1431 0
5.07901 17.1407 0
5.08494 21.4252 0
2.54231 21.4281 0
3.80922 17.1422 0
5.08195 19.2831 0
3.81359 21.427 0
2.54087 19.2857 0
3.81139 19.2847 0
5.07901 17.1407 0
7.61863 17.136 0
7.62775 21.4202 0
5.08494 21.4252 0
6.34882 17.1386 0
7.62315 19.2783 0
6.35633 21.423 0
5.08195 19.2831 0
6.35254 19.281 0
7.61863 17.136 0
10.1583 17.1293 0
10.1706 21.4134 0
7.62775 21.4202 0
8.88845 17.1329 0
10.1644 19.2715 0
8.89918 21.417 0
7.62315 19.2783 0
8.89378 19.2752 0
10.1583 17.1293 0
12.6979 17.1206 0
12.7134 21.4046 0
10.1706 21.4134 0
11.4281 17.1251 0
12.7056 19.2628 0
11.442 21.4092 0
10.1644 19.2715 0
11.435 19.2674 0
12.6979 17.1206 0
15.2375 17.11 0
15.2562 21.394 0
12.7134 21.4046 0
13.9677 17.1155 0
15.2469 19.2522 0
13.9848 21.3995 0
12.7056 19.2628 0
13.9763 19.2577 0
15.2375 17.11 0
17.7771 17.0975 0
17.799 21.3815 0
15.2562 21.394 0
16.5074 17.104 0
17.788 19.2397 0
16.5276 21.388 0
15.2469 19.2522 0
16.5174 19.2462 0
17.7771 17.0975 0
20.3167 17.0832 0
20.3416 21.3673 0
17.799 21.3815 0
19.0469 17.0906 0
20.3292 19.2254 0
19.0703 21.3746 0
17.788 19.2397 0
19.0586 19.2328 0
20.3167 17.0832 0
22.8563 17.0671 0
22.8843 21.3512 0
20.3416 21.3673 0
21.5865 17.0754 0
22.8703 19.2093 0
21.613 21.3594 0
20.3292 19.2254 0
21.5997 19.2176 0
22.8563 17.0671 0
25.3958 17.0492 0
25.4269 21.3332 0
22.8843 21.3512 0
24.126 17.0584 0
25.4113 19.1914 0
24.1556 21.3424 0
22.8703 19.2093 0
24.1408 19.2006 0
25.3958 17.0492 0
27.9353 17.0295 0
27.9694 21.3135 0
25.4269 21.3332 0
26.6656 17.0396 0
27.9524 19.1717 0
26.6981 21.3236 0
25.4113 19.1914 0
26.6818 19.1818 0
27.9353 17.0295 0
30.4748 17.008 0
30.5119 21.292 0
27.9694 21.3135 0
29.2051 17.019 0
30.4933 19.1502 0
29.2407 21.303 0
27.9524 19.1717 0
29.2229 19.1611 0
30.4748 17.008 0
33.0142 16.9847 0
33.0544 21.2686 0
30.5119 21.292 0
31.7445 16.9965 0
33.0343 19.1268 0
31.7832 21.2805 0
30.4933 19.1502 0
31.7638 19.1387 0
33.0142 16.9847 0
35.5537 16.9596 0
35.5968 21.2435 0
33.0544 21.2686 0
34.284 16.9723 0
35.5752 19.1017 0
34.3256 21.2563 0
33.0343 19.1268 0
34.3048 19.1145 0
35.5537 16.9596 0
38.0931 16.9327 0
38.1392 21.2166 0
35.5968 21.2435 0
36.8234 16.9463 0
38.1161 19.0749 0
36.868 21.2303 0
35.5752 19.1017 0
36.8457 19.0885 0
38.0931 16.9327 0
40.6325 16.9041 0
40.6816 21.188 0
38.1392 21.2166 0
39.3628 16.9186 0
40.657 19.0462 0
39.4104 21.2025 0
38.1161 19.0749 0
39.3866 19.0608 0
40.6325 16.9041 0
43.1718 16.8737 0
43.2239 21.1576 0
40.6816 21.188 0
41.9021 16.8891 0
43.1978 19.0158 0
41.9527 21.173 0
40.657 19.0462 0
41.9274 19.0312 0
43.1718 16.8737 0
45.7111 16.8416 0
45.7661 21.1254 0
43.2239 21.1576 0
44.4415 16.8578 0
45.7386 18.9837 0
44.495 21.1417 0
43.1978 19.0158 0
44.4682 19 0
45.7111 16.8416 0
48.2504 16.8077 0
48.3083 21.0915 0
45.7661 21.1254 0
46.9808 16.8249 0
48.2794 18.9498 0
47.0372 21.1087 0
45.7386 18.9837 0
47.009 18.967 0
48.2504 16.8077 0
50.7897 16.7721 0
50.8505 21.0559 0
48.3083 21.0915 0
49.5201 16.7901 0
50.8201 18.9142 0
49.5794 21.074 0
48.2794 18.9498 0
49.5497 18.9322 0
50.7897 16.7721 0
53.3289 16.7349 0
53.3926 21.0186 0
50.8505 21.0559 0
52.0593 16.7537 0
53.3607 18.8769 0
52.1215 21.0375 0
50.8201 18.9142 0
52.0904 18.8958 0
53.3289 16.7349 0
55.8681 16.6959 0
55.9346 20.9796 0
53.3926 21.0186 0
54.5985 16.7156 0
55.9014 18.8379 0
54.6636 20.9993 0
53.3607 18.8769 0
54.631 18.8576 0
55.8681 16.6959 0
58.4073 16.6552 0
58.4766 20.9389 0
55.9346 20.9796 0
57.1377 16.6757 0
58.4419 18.7972 0
57.2056 20.9595 0
55.9014 18.8379 0
57.1717 18.8178 0
58.4073 16.6552 0
60.9464 16.6128 0
61.0186 20.8965 0
58.4766 20.9389 0
59.6768 16.6342 0
60.9825 18.7548 0
59.7476 20.9179 0
58.4419 18.7972 0
59.7122 18.7762 0
60.9464 16.6128 0
63.4855 16.5688 0
63.5605 20.8524 0
61.0186 20.8965 0
62.2159 16.591 0
63.523 18.7108 0
62.2896 20.8746 0
60.9825 18.7548 0
62.2527 18.733 0
63.4855 16.5688 0
66.0245 16.5231 0
66.1023 20.8066 0
63.5605 20.8524 0
64.755 16.5461 0
66.0634 18.665 0
64.8314 20.8297 0
63.523 18.7108 0
64.7932 18.6881 0
66.0245 16.5231 0
68.5635 16.4757 0
68.6441 20.7592 0
66.1023 20.8066 0
67.294 16.4996 0
68.6038 18.6177 0
67.3732 20.7832 0
66.0634 18.665 0
67.3336 18.6416 0
68.5635 16.4757 0
71.1025 16.4267 0
71.1859 20.7102 0
68.6441 20.7592 0
69.833 16.4514 0
71.1442 18.5686 0
69.915 20.7349 0
68.6038 18.6177 0
69.874 18.5933 0
71.1025 16.4267 0
73.6414 16.3761 0
73.7276 20.6595 0
71.1859 20.7102 0
72.372 16.4016 0
73.6845 18.518 0
72.4567 20.6851 0
71.1442 18.5686 0
72.4143 18.5435 0
73.6414 16.3761 0
76.1803 16.3238 0
76.2692 20.6072 0
73.7276 20.6595 0
74.9109 16.3501 0
76.2247 18.4657 0
74.9984 20.6336 0
73.6845 18.518 0
74.9546 18.492 0
76.1803 16.3238 0
78.7192 16.2699 0
78.8108 20.5533 0
76.2692 20.6072 0
77.4498 16.2971 0
78.765 18.4118 0
77.54 20.5804 0
76.2247 18.4657 0
77.4949 18.4389 0
78.7192 16.2699 0
81.258 16.2144 0
81.3523 20.4977 0
78.8108 20.5533 0
79.9886 16.2424 0
81.3051 18.3563 0
80.0815 20.5257 0
78.765 18.4118 0
80.035 18.3842 0
81.258 16.2144 0
83.7967 16.1574 0
83.8937 20.4406 0
81.3523 20.4977 0
82.5274 16.1861 0
83.8452 18.2991 0
82.623 20.4694 0
81.3051 18.3563 0
82.5752 18.3279 0
83.7967 16.1574 0
86.3355 16.0987 0
86.4351 20.3819 0
83.8937 20.4406 0
85.0661 16.1282 0
86.3853 18.2405 0
85.1644 20.4114 0
83.8452 18.2991 0
85.1152 18.27 0
86.3355 16.0987 0
88.8741 16.0384 0
88.9764 20.3216 0
86.4351 20.3819 0
87.6048 16.0688 0
88.9253 18.1802 0
87.7058 20.3519 0
86.3853 18.2405 0
87.6553 18.2105 0
88.8741 16.0384 0
91.4128 15.9766 0
91.5177 20.2597 0
88.9764 20.3216 0
90.1435 16.0077 0
91.4652 18.1183 0
90.2471 20.2908 0
88.9253 18.1802 0
90.1952 18.1495 0
91.4128 15.9766 0
93.9513 15.9133 0
94.0589 20.1963 0
91.5177 20.2597 0
92.6821 15.9451 0
94.0051 18.0549 0
92.7883 20.2282 0
91.4652 18.1183 0
92.7352 18.0868 0
93.9513 15.9133 0
96.4899 15.8483 0
96.6 20.1313 0
94.0589 20.1963 0
95.2206 15.881 0
96.5449 17.99 0
95.3295 20.164 0
94.0051 18.0549 0
95.275 18.0227 0
96.4899 15.8483 0
99.0284 15.7819 0
99.1411 20.0648 0
96.6 20.1313 0
97.7591 15.8153 0
99.0847 17.9235 0
97.8706 20.0982 0
96.5449 17.99 0
97.8148 17.9569 0
99.0284 15.7819 0
101.567 15.7139 0
101.682 19.9968 0
99.1411 20.0648 0
100.298 15.7481 0
101.624 17.8555 0
100.412 20.031 0
99.0847 17.9235 0
100.355 17.8897 0
101.567 15.7139 0
104.105 15.6444 0
104.223 19.9272 0
101.682 19.9968 0
102.836 15.6793 0
104.164 17.786 0
102.953 19.9622 0
101.624 17.8555 0
102.894 17.8209 0
104.105 15.6444 0
106.644 15.5734 0
106.764 19.8561 0
104.223 19.9272 0
105.374 15.6091 0
106.704 17.7149 0
105.493 19.8918 0
104.164 17.786 0
105.434 17.7506 0
106.644 15.5734 0
109.182 15.5009 0
109.305 19.7835 0
106.764 19.8561 0
107.913 15.5373 0
109.243 17.6424 0
108.034 19.82 0
106.704 17.7149 0
107.974 17.6788 0
109.182 15.5009 0
111.72 15.4269 0
111.845 19.7095 0
109.305 19.7835 0
110.451 15.4641 0
111.783 17.5683 0
110.575 19.7467 0
109.243 17.6424 0
110.513 17.6055 0
111.72 15.4269 0
114.258 15.3514 0
114.386 19.6339 0
111.845 19.7095 0
112.989 15.3893 0
114.322 17.4928 0
113.116 19.6719 0
111.783 17.5683 0
113.052 17.5308 0
114.258 15.3514 0
116.796 15.2745 0
116.927 19.5569 0
114.386 19.6339 0
115.527 15.3131 0
116.862 17.4158 0
115.656 19.5956 0
114.322 17.4928 0
115.592 17.4545 0
116.796 15.2745 0
119.334 15.1961 0
119.467 19.4784 0
116.927 19.5569 0
118.065 15.2354 0
119.401 17.3374 0
118.197 19.5179 0
116.862 17.4158 0
118.131 17.3768 0
119.334 15.1961 0
121.872 15.1162 0
122.008 19.3985 0
119.467 19.4784 0
120.603 15.1563 0
121.94 17.2575 0
120.738 19.4387 0
119.401 17.3374 0
120.671 17.2976 0
121.872 15.1162 0
124.41 15.0349 0
124.548 19.3172 0
122.008 19.3985 0
123.141 15.0757 0
124.479 17.1762 0
123.278 19.358 0
121.94 17.2575 0
123.21 17.217 0
124.41 15.0349 0
126.948 14.9522 0
127.089 19.2344 0
124.548 19.3172 0
125.679 14.9937 0
127.018 17.0934 0
125.818 19.2759 0
124.479 17.1762 0
125.749 17.135 0
126.948 14.9522 0
129.486 14.868 0
129.629 19.1501 0
127.089 19.2344 0
128.217 14.9103 0
129.557 17.0092 0
128.359 19.1924 0
127.018 17.0934 0
128.288 17.0515 0
129.486 14.868 0
132.024 14.7825 0
132.169 19.0645 0
129.629 19.1501 0
130.755 14.8254 0
132.096 16.9236 0
130.899 19.1075 0
129.557 17.0092 0
130.827 16.9666 0
132.024 14.7825 0
134.562 14.6955 0
134.709 18.9775 0
132.169 19.0645 0
133.293 14.7391 0
134.635 16.8366 0
133.439 19.0212 0
132.096 16.9236 0
133.366 16.8803 0
134.562 14.6955 0
137.1 14.6071 0
137.249 18.889 0
134.709 18.9775 0
135.831 14.6515 0
137.174 16.7482 0
135.979 18.9334 0
134.635 16.8366 0
135.905 16.7926 0
137.1 14.6071 0
139.637 14.5174 0
139.789 18.7992 0
137.249 18.889 0
138.368 14.5624 0
139.713 16.6585 0
138.519 18.8443 0
137.174 16.7482 0
138.444 16.7035 0
139.637 14.5174 0
142.175 14.4263 0
142.329 18.708 0
139.789 18.7992 0
140.906 14.472 0
142.252 16.5673 0
141.059 18.7538 0
139.713 16.6585 0
140.982 16.613 0
142.175 14.4263 0
144.712 14.3338 0
144.869 18.6155 0
142.329 18.708 0
143.444 14.3802 0
144.791 16.4748 0
143.599 18.6619 0
142.252 16.5673 0
143.521 16.5212 0
144.712 14.3338 0
147.25 14.24 0
147.409 18.5216 0
144.869 18.6155 0
145.981 14.2871 0
147.329 16.3809 0
146.139 18.5687 0
144.791 16.4748 0
146.06 16.428 0
147.25 14.24 0
149.787 14.1448 0
149.948 18.4263 0
147.409 18.5216 0
148.518 14.1926 0
149.868 16.2857 0
148.678 18.4741 0
147.329 16.3809 0
148.598 16.3335 0
149.787 14.1448 0
152.325 14.0483 0
152.488 18.3298 0
149.948 18.4263 0
151.056 14.0967 0
152.406 16.1892 0
151.218 18.3782 0
149.868 16.2857 0
151.137 16.2376 0
152.325 14.0483 0
154.862 13.9505 0
155.027 18.2319 0
152.488 18.3298 0
153.593 13.9996 0
154.945 16.0913 0
153.758 18.281 0
152.406 16.1892 0
153.675 16.1404 0
154.862 13.9505 0
157.399 13.8513 0
157.567 18.1326 0
155.027 18.2319 0
156.13 13.9011 0
157.483 15.9921 0
156.297 18.1824 0
154.945 16.0913 0
156.214 16.0419 0
157.399 13.8513 0
159.936 13.7509 0
160.106 18.0321 0
157.567 18.1326 0
158.668 13.8013 0
160.021 15.8916 0
158.836 18.0825 0
157.483 15.9921 0
158.752 15.942 0
159.936 13.7509 0
162.473 13.6491 0
162.645 17.9303 0
160.106 18.0321 0
161.205 13.7002 0
162.559 15.7898 0
161.376 17.9814 0
160.021 15.8916 0
161.29 15.8409 0
162.473 13.6491 0
165.01 13.5461 0
165.185 17.8272 0
162.645 17.9303 0
163.742 13.5978 0
165.098 15.6868 0
163.915 17.8789 0
162.559 15.7898 0
163.828 15.7385 0
165.01 13.5461 0
167.547 13.4418 0
167.724 17.7228 0
165.185 17.8272 0
166.279 13.4941 0
167.636 15.5824 0
166.454 17.7751 0
165.098 15.6868 0
166.367 15.6348 0
167.547 13.4418 0
170.084 13.3362 0
170.263 17.6171 0
167.724 17.7228 0
168.816 13.3892 0
170.174 15.4768 0
168.993 17.6701 0
167.636 15.5824 0
168.905 15.5298 0
170.084 13.3362 0
172.621 13.2294 0
172.802 17.5102 0
170.263 17.6171 0
171.353 13.283 0
172.712 15.37 0
171.532 17.5638 0
170.174 15.4768 0
171.443 15.4236 0
172.621 13.2294 0
175.158 13.1213 0
175.341 17.4021 0
172.802 17.5102 0
173.89 13.1755 0
175.249 15.2618 0
174.071 17.4563 0
172.712 15.37 0
173.98 15.3161 0
175.158 13.1213 0
177.695 13.012 0
177.88 17.2927 0
175.341 17.4021 0
176.426 13.0668 0
177.787 15.1525 0
176.61 17.3475 0
175.249 15.2618 0
176.518 15.2073 0
177.695 13.012 0
180.231 12.9015 0
180.418 17.1821 0
177.88 17.2927 0
178.963 12.9569 0
180.325 15.0419 0
179.149 17.2375 0
177.787 15.1525 0
179.056 15.0974 0
180.231 12.9015 0
182.768 12.7897 0
182.957 17.0702 0
180.418 17.1821 0
181.5 12.8458 0
182.863 14.9301 0
181.688 17.1263 0
180.325 15.0419 0
181.594 14.9862 0
182.768 12.7897 0
185.305 12.6768 0
185.496 16.9572 0
182.957 17.0702 0
184.036 12.7334 0
185.4 14.8171 0
184.226 17.0139 0
182.863 14.9301 0
184.131 14.8738 0
185.305 12.6768 0
187.841 12.5626 0
188.034 16.843 0
185.496 16.9572 0
186.573 12.6199 0
187.938 14.7029 0
186.765 16.9002 0
185.4 14.8171 0
186.669 14.7602 0
187.841 12.5626 0
190.378 12.4473 0
190.573 16.7275 0
188.034 16.843 0
189.109 12.5051 0
190.475 14.5875 0
189.303 16.7854 0
187.938 14.7029 0
189.206 14.6454 0
190.378 12.4473 0
192.914 12.3308 0
193.111 16.6109 0
190.573 16.7275 0
191.646 12.3892 0
193.012 14.471 0
191.842 16.6694 0
190.475 14.5875 0
191.744 14.5294 0
192.914 12.3308 0
195.45 12.2131 0
195.649 16.4932 0
193.111 16.6109 0
194.182 12.2721 0
195.55 14.3532 0
194.38 16.5522 0
193.012 14.471 0
194.281 14.4123 0
195.45 12.2131 0
197.987 12.0942 0
198.187 16.3742 0
195.649 16.4932 0
196.718 12.1538 0
198.087 14.2343 0
196.918 16.4338 0
195.55 14.3532 0
196.818 14.2939 0
197.987 12.0942 0
200.523 11.9742 0
200.726 16.2541 0
198.187 16.3742 0
199.255 12.0344 0
200.624 14.1143 0
199.457 16.3143 0
198.087 14.2343 0
199.356 14.1745 0
200.523 11.9742 0
203.059 11.8531 0
203.264 16.1329 0
200.726 16.2541 0
201.791 11.9138 0
203.161 13.9931 0
201.995 16.1937 0
200.624 14.1143 0
201.893 14.0539 0
203.059 11.8531 0
205.595 11.7308 0
205.802 16.0106 0
203.264 16.1329 0
204.327 11.7921 0
205.698 13.8708 0
204.533 16.0719 0
203.161 13.9931 0
204.43 13.9321 0
205.595 11.7308 0
208.131 11.6074 0
208.34 15.8871 0
205.802 16.0106 0
206.863 11.6693 0
208.235 13.7474 0
207.071 15.949 0
205.698 13.8708 0
206.967 13.8092 0
208.131 11.6074 0
210.667 11.4829 0
210.877 15.7625 0
208.34 15.8871 0
209.399 11.5453 0
210.772 13.6228 0
209.608 15.8249 0
208.235 13.7474 0
209.504 13.6852 0
210.667 11.4829 0
213.203 11.3573 0
213.415 15.6368 0
210.877 15.7625 0
211.935 11.4203 0
213.309 13.4972 0
212.146 15.6998 0
210.772 13.6228 0
212.041 13.5601 0
213.203 11.3573 0
215.739 11.2306 0
215.953 15.51 0
213.415 15.6368 0
214.471 11.2941 0
215.846 13.3705 0
214.684 15.5736 0
213.309 13.4972 0
214.577 13.434 0
215.739 11.2306 0
218.274 11.1028 0
218.49 15.3822 0
215.953 15.51 0
217.007 11.1669 0
218.382 13.2426 0
217.222 15.4463 0
215.846 13.3705 0
217.114 13.3067 0
218.274 11.1028 0
220.81 10.974 0
221.028 15.2533 0
218.49 15.3822 0
219.542 11.0386 0
220.919 13.1137 0
219.759 15.3179 0
218.382 13.2426 0
219.651 13.1783 0
220.81 10.974 0
223.346 10.8441 0
223.565 15.1233 0
221.028 15.2533 0
222.078 10.9092 0
223.456 12.9838 0
222.297 15.1884 0
220.919 13.1137 0
222.187 13.0489 0
223.346 10.8441 0
225.881 10.7131 0
226.103 14.9922 0
223.565 15.1233 0
224.614 10.7787 0
225.992 12.8528 0
224.834 15.0579 0
223.456 12.9838 0
224.724 12.9184 0
225.881 10.7131 0
228.417 10.5811 0
228.64 14.8601 0
226.103 14.9922 0
227.149 10.6473 0
228.528 12.7207 0
227.371 14.9263 0
225.992 12.8528 0
227.26 12.7869 0
228.417 10.5811 0
230.952 10.4481 0
231.177 14.727 0
228.64 14.8601 0
229.685 10.5147 0
231.065 12.5877 0
229.908 14.7937 0
228.528 12.7207 0
229.797 12.6543 0
230.952 10.4481 0
233.488 10.314 0
233.714 14.5929 0
231.177 14.727 0
232.22 10.3812 0
233.601 12.4536 0
232.446 14.6601 0
231.065 12.5877 0
232.333 12.5207 0
233.488 10.314 0
236.023 10.179 0
236.251 14.4577 0
233.714 14.5929 0
234.755 10.2466 0
236.137 12.3185 0
234.983 14.5254 0
233.601 12.4536 0
234.869 12.3861 0
236.023 10.179 0
238.558 10.0429 0
238.788 14.3216 0
236.251 14.4577 0
237.291 10.1111 0
238.673 12.1823 0
237.52 14.3898 0
236.137 12.3185 0
237.405 12.2505 0
238.558 10.0429 0
241.094 9.90582 0
241.325 14.1844 0
238.788 14.3216 0
239.826 9.97448 0
241.209 12.0452 0
240.057 14.2531 0
238.673 12.1823 0
239.941 12.1139 0
241.094 9.90582 0
243.629 9.76776 0
243.862 14.0463 0
241.325 14.1844 0
242.361 9.83691 0
243.745 11.9071 0
242.593 14.1155 0
241.209 12.0452 0
242.477 11.9763 0
243.629 9.76776 0
246.164 9.62874 0
246.399 13.9072 0
243.862 14.0463 0
244.896 9.69837 0
246.281 11.7681 0
245.13 13.9769 0
243.745 11.9071 0
245.013 11.8377 0
246.164 9.62874 0
248.699 9.48874 0
248.935 13.7671 0
246.399 13.9072 0
247.431 9.55886 0
248.817 11.628 0
247.667 13.8373 0
246.281 11.7681 0
247.549 11.6982 0
248.699 9.48874 0
251.234 9.34779 0
251.472 13.6261 0
248.935 13.7671 0
249.966 9.41839 0
251.353 11.487 0
250.203 13.6967 0
248.817 11.628 0
250.085 11.5576 0
251.234 9.34779 0
253.769 9.2059 0
254.008 13.4841 0
251.472 13.6261 0
252.501 9.27696 0
253.888 11.3451 0
252.74 13.5552 0
251.353 11.487 0
252.621 11.4162 0
253.769 9.2059 0
256.304 9.06307 0
256.545 13.3412 0
254.008 13.4841 0
255.036 9.1346 0
256.424 11.2022 0
255.276 13.4128 0
253.888 11.3451 0
255.156 11.2738 0
256.304 9.06307 0
258.838 8.91931 0
259.081 13.1973 0
256.545 13.3412 0
257.571 8.9913 0
258.96 11.0584 0
257.813 13.2694 0
256.424 11.2022 0
257.692 11.1304 0
258.838 8.91931 0
261.373 8.77463 0
261.617 13.0526 0
259.081 13.1973 0
260.106 8.84708 0
261.495 10.9137 0
260.349 13.1251 0
258.96 11.0584 0
260.227 10.9862 0
261.373 8.77463 0
263.908 8.62905 0
264.153 12.9069 0
261.617 13.0526 0
262.64 8.70196 0
264.031 10.7681 0
262.885 12.9799 0
261.495 10.9137 0
262.763 10.841 0
263.908 8.62905 0
266.442 8.48257 0
266.69 12.7604 0
264.153 12.9069 0
265.175 8.55592 0
266.566 10.6216 0
265.422 12.8338 0
264.031 10.7681 0
265.298 10.6949 0
266.442 8.48257 0
268.977 8.33521 0
269.226 12.6129 0
266.69 12.7604 0
267.71 8.409 0
269.101 10.4742 0
267.958 12.6868 0
266.566 10.6216 0
267.834 10.548 0
268.977 8.33521 0
271.511 8.18696 0
271.762 12.4646 0
269.226 12.6129 0
270.244 8.26119 0
271.636 10.3259 0
270.494 12.5389 0
269.101 10.4742 0
270.369 10.4001 0
271.511 8.18696 0
274.046 8.03785 0
274.297 12.3154 0
271.762 12.4646 0
272.779 8.11252 0
274.172 10.1767 0
273.029 12.3901 0
271.636 10.3259 0
272.904 10.2514 0
274.046 8.03785 0
276.58 7.88788 0
276.833 12.1654 0
274.297 12.3154 0
275.313 7.96297 0
276.707 10.0267 0
275.565 12.2405 0
274.172 10.1767 0
275.439 10.1018 0
276.58 7.88788 0
279.114 7.73706 0
279.369 12.0145 0
276.833 12.1654 0
277.847 7.81258 0
279.242 9.87586 0
278.101 12.09 0
276.707 10.0267 0
277.974 9.9514 0
279.114 7.73706 0
281.649 7.5854 0
281.905 11.8627 0
279.369 12.0145 0
280.382 7.66134 0
281.777 9.72416 0
280.637 11.9387 0
279.242 9.87586 0
280.509 9.80012 0
281.649 7.5854 0
284.183 7.43292 0
284.44 11.7102 0
281.905 11.8627 0
282.916 7.50926 0
284.311 9.57164 0
283.172 11.7866 0
281.777 9.72416 0
283.044 9.648 0
284.183 7.43292 0
286.717 7.27961 0
286.976 11.5568 0
284.44 11.7102 0
285.45 7.35636 0
286.846 9.41829 0
285.708 11.6336 0
284.311 9.57164 0
285.579 9.49507 0
286.717 7.27961 0
289.251 7.12549 0
289.511 11.4026 0
286.976 11.5568 0
287.984 7.20265 0
289.381 9.26413 0
288.243 11.4798 0
286.846 9.41829 0
288.114 9.34131 0
289.251 7.12549 0
291.785 6.97057 0
292.047 11.2476 0
289.511 11.4026 0
290.518 7.04813 0
291.916 9.10918 0
290.779 11.3252 0
289.381 9.26413 0
290.648 9.18676 0
291.785 6.97057 0
294.319 6.81486 0
294.582 11.0918 0
292.047 11.2476 0
293.052 6.89282 0
294.45 8.95343 0
293.314 11.1698 0
291.916 9.10918 0
293.183 9.0314 0
294.319 6.81486 0
296.853 6.65837 0
297.117 10.9353 0
294.582 11.0918 0
295.586 6.73671 0
296.985 8.7969 0
295.849 11.0136 0
294.45 8.95343 0
295.718 8.87527 0
296.853 6.65837 0
299.387 6.50111 0
299.652 10.7779 0
297.117 10.9353 0
298.12 6.57984 0
299.519 8.63961 0
298.385 10.8567 0
296.985 8.7969 0
298.252 8.71835 0
299.387 6.50111 0
301.921 6.34309 0
302.187 10.6198 0
299.652 10.7779 0
300.654 6.42219 0
302.054 8.48155 0
300.92 10.699 0
299.519 8.63961 0
300.787 8.56067 0
301.921 6.34309 0
304.454 6.18431 0
304.722 10.461 0
302.187 10.6198 0
303.187 6.26379 0
304.588 8.32273 0
303.455 10.5405 0
302.054 8.48155 0
303.321 8.40223 0
304.454 6.18431 0
306.988 6.02479 0
307.257 10.3014 0
304.722 10.461 0
305.721 6.10465 0
307.123 8.16318 0
305.99 10.3813 0
304.588 8.32273 0
305.855 8.24305 0
306.988 6.02479 0
309.522 5.86454 0
309.792 10.1411 0
307.257 10.3014 0
308.255 5.94476 0
309.657 8.00289 0
308.525 10.2213 0
307.123 8.16318 0
308.39 8.08313 0
309.522 5.86454 0
312.055 5.70357 0
312.327 9.98005 0
309.792 10.1411 0
310.788 5.78415 0
312.191 7.84189 0
311.059 10.0607 0
309.657 8.00289 0
310.924 7.92248 0
312.055 5.70357 0
314.589 5.54188 0
314.862 9.81829 0
312.327 9.98005 0
313.322 5.62282 0
314.725 7.68016 0
313.594 9.89926 0
312.191 7.84189 0
313.458 7.76111 0
314.589 5.54188 0
317.122 5.37949 0
317.396 9.65583 0
314.862 9.81829 0
315.855 5.46078 0
317.259 7.51774 0
316.129 9.73715 0
314.725 7.68016 0
315.992 7.59904 0
317.122 5.37949 0
319.656 5.21641 0
319.931 9.49268 0
317.396 9.65583 0
318.389 5.29804 0
319.793 7.35462 0
318.663 9.57434 0
317.259 7.51774 0
318.526 7.43627 0
319.656 5.21641 0
322.189 5.05264 0
322.465 9.32885 0
319.931 9.49268 0
320.922 5.13461 0
322.327 7.19082 0
321.198 9.41085 0
319.793 7.35462 0
321.06 7.2728 0
322.189 5.05264 0
324.722 4.8882 0
325 9.16434 0
322.465 9.32885 0
323.456 4.9705 0
324.861 7.02634 0
323.732 9.24668 0
322.327 7.19082 0
323.594 7.10866 0
324.722 4.8882 0
327.256 4.72309 0
327.534 8.99917 0
325 9.16434 0
325.989 4.80572 0
327.395 6.8612 0
326.267 9.08184 0
324.861 7.02634 0
326.128 6.94385 0
327.256 4.72309 0
329.789 4.55732 0
330.068 8.83334 0
327.534 8.99917 0
328.522 4.64029 0
329.929 6.6954 0
328.801 8.91633 0
327.395 6.8612 0
328.662 6.77838 0
329.789 4.55732 0
332.322 4.39091 0
332.603 8.66687 0
330.068 8.83334 0
331.055 4.4742 0
332.462 6.52896 0
331.336 8.75018 0
329.929 6.6954 0
331.195 6.61226 0
332.322 4.39091 0
334.855 4.22387 0
335.137 8.49976 0
332.603 8.66687 0
333.588 4.30747 0
334.996 6.36188 0
333.87 8.58339 0
332.462 6.52896 0
333.729 6.4455 0
334.855 4.22387 0
337.388 4.05619 0
337.671 8.33203 0
335.137 8.49976 0
336.122 4.14011 0
337.529 6.19418 0
336.404 8.41597 0
334.996 6.36188 0
336.263 6.27811 0
337.388 4.05619 0
339.921 3.8879 0
340.205 8.16368 0
337.671 8.33203 0
338.655 3.97213 0
340.063 6.02586 0
338.938 8.24793 0
337.529 6.19418 0
338.796 6.11009 0
339.921 3.8879 0
342.454 3.71901 0
342.739 7.99472 0
340.205 8.16368 0
341.188 3.80353 0
342.596 5.85693 0
341.472 8.07927 0
340.063 6.02586 0
341.33 5.94147 0
342.454 3.71901 0
344.987 3.54951 0
345.273 7.82517 0
342.739 7.99472 0
343.72 3.63434 0
345.13 5.68741 0
344.006 7.91002 0
342.596 5.85693 0
343.863 5.77224 0
344.987 3.54951 0
347.52 3.37943 0
347.807 7.65503 0
345.273 7.82517 0
346.253 3.46455 0
347.663 5.51729 0
346.54 7.74017 0
345.13 5.68741 0
346.397 5.60242 0
347.52 3.37943 0
350.053 3.20877 0
350.341 7.48431 0
347.807 7.65503 0
348.786 3.29418 0
350.197 5.34661 0
349.074 7.56974 0
347.663 5.51729 0
348.93 5.43202 0
350.053 3.20877 0
352.585 3.03755 0
352.874 7.31303 0
350.341 7.48431 0
351.319 3.12323 0
352.73 5.17535 0
351.607 7.39874 0
350.197 5.34661 0
351.463 5.26105 0
352.585 3.03755 0
355.118 2.86576 0
355.408 7.14119 0
352.874 7.31303 0
353.852 2.95172 0
355.263 5.00353 0
354.141 7.22718 0
352.73 5.17535 0
353.996 5.08951 0
355.118 2.86576 0
357.651 2.69342 0
357.941 6.9688 0
355.408 7.14119 0
356.384 2.77966 0
357.796 4.83117 0
356.675 7.05506 0
355.263 5.00353 0
356.53 4.91742 0
357.651 2.69342 0
360.183 2.52055 0
360.475 6.79587 0
357.941 6.9688 0
358.917 2.60705 0
360.329 4.65827 0
359.208 6.8824 0
357.796 4.83117 0
359.063 4.74478 0
360.183 2.52055 0
362.716 2.34714 0
363.009 6.62241 0
360.475 6.79587 0
361.45 2.43391 0
362.862 4.48483 0
361.742 6.70921 0
360.329 4.65827 0
361.596 4.57162 0
362.716 2.34714 0
365.249 2.17322 0
365.542 6.44844 0
363.009 6.62241 0
363.982 2.26025 0
365.395 4.31088 0
364.275 6.53549 0
362.862 4.48483 0
364.129 4.39792 0
365.249 2.17322 0
367.781 1.99878 0
368.075 6.27395 0
365.542 6.44844 0
366.515 2.08606 0
367.928 4.13642 0
366.809 6.36126 0
365.395 4.31088 0
366.662 4.22371 0
367.781 1.99878 0
370.314 1.82385 0
370.609 6.09896 0
368.075 6.27395 0
369.047 1.91138 0
370.461 3.96146 0
369.342 6.18652 0
367.928 4.13642 0
369.195 4.049 0
370.314 1.82385 0
372.846 1.64842 0
373.142 5.92349 0
370.609 6.09896 0
371.58 1.73619 0
372.994 3.78601 0
371.875 6.01129 0
370.461 3.96146 0
371.727 3.87379 0
372.846 1.64842 0
375.378 1.47251 0
375.675 5.74753 0
373.142 5.92349 0
374.112 1.56052 0
375.527 3.61007 0
374.408 5.83557 0
372.994 3.78601 0
374.26 3.6981 0
375.378 1.47251 0
377.911 1.29613 0
378.208 5.5711 0
375.675 5.74753 0
376.645 1.38438 0
378.059 3.43367 0
376.942 5.65938 0
375.527 3.61007 0
376.793 3.52193 0
377.911 1.29613 0
380.443 1.11929 0
380.741 5.39421 0
378.208 5.5711 0
379.177 1.20776 0
380.592 3.2568 0
379.475 5.48272 0
378.059 3.43367 0
379.326 3.34529 0
380.443 1.11929 0
382.975 0.94199 0
383.274 5.21687 0
380.741 5.39421 0
381.709 1.03069 0
383.125 3.07948 0
382.008 5.3056 0
380.592 3.2568 0
381.858 3.1682 0
382.975 0.94199 0
385.507 0.764251 0
385.807 5.03909 0
383.274 5.21687 0
384.241 0.853175 0
385.657 2.90172 0
384.541 5.12804 0
383.125 3.07948 0
384.391 2.99065 0
385.507 0.764251 0
388.04 0.586079 0
388.34 4.86088 0
385.807 5.03909 0
386.774 0.675218 0
388.19 2.72352 0
387.074 4.95004 0
385.657 2.90172 0
386.924 2.81268 0
388.04 0.586079 0
390.572 0.407483 0
390.873 4.68224 0
388.34 4.86088 0
389.306 0.496834 0
390.722 2.54491 0
389.607 4.77161 0
388.19 2.72352 0
389.456 2.63427 0
390.572 0.407483 0
393.104 0.228474 0
393.406 4.50319 0
390.873 4.68224 0
391.838 0.31803 0
393.255 2.36588 0
392.139 4.59277 0
390.722 2.54491 0
391.989 2.45544 0
393.104 0.228474 0
395.636 0.0490601 0
395.938 4.32374 0
393.406 4.50319 0
394.37 0.138817 0
395.787 2.18644 0
394.672 4.41351 0
393.255 2.36588 0
394.521 2.27621 0
395.636 0.0490601 0
398.168 -0.130748 0
398.471 4.14389 0
395.938 4.32374 0
396.902 -0.0407954 0
398.32 2.00661 0
397.205 4.23386 0
395.787 2.18644 0
397.053 2.09658 0
398.168 -0.130748 0
400.7 -0.310942 0
401.004 3.96366 0
398.471 4.14389 0
399.434 -0.220798 0
400.852 1.8264 0
399.738 4.05382 0
398.32 2.00661 0
399.586 1.91655 0
400.7 -0.310942 0
403.232 -0.491511 0
403.536 3.78305 0
401.004 3.96366 0
401.966 -0.40118 0
403.384 1.64581 0
402.27 3.8734 0
400.852 1.8264 0
402.118 1.73615 0
403.232 -0.491511 0
405.764 -0.672445 0
406.069 3.60208 0
403.536 3.78305 0
404.498 -0.581933 0
405.916 1.46486 0
404.803 3.69261 0
403.384 1.64581 0
404.65 1.55538 0
405.764 -0.672445 0
408.296 -0.853736 0
408.601 3.42076 0
406.069 3.60208 0
407.03 -0.763047 0
408.449 1.28355 0
407.335 3.51147 0
405.916 1.46486 0
407.183 1.37425 0
408.296 -0.853736 0
410.828 -1.03537 0
411.134 3.23909 0
408.601 3.42076 0
409.562 -0.944512 0
410.981 1.1019 0
409.868 3.32997 0
408.449 1.28355 0
409.715 1.19277 0
410.828 -1.03537 0
413.359 -1.21735 0
413.666 3.05708 0
411.134 3.23909 0
412.094 -1.12632 0
413.513 0.919904 0
412.4 3.14813 0
410.981 1.1019 0
412.247 1.01094 0
413.359 -1.21735 0
415.891 -1.39965 0
416.199 2.87475 0
413.666 3.05708 0
414.625 -1.30846 0
416.045 0.737587 0
414.932 2.96596 0
413.513 0.919904 0
414.779 0.828786 0
415.891 -1.39965 0
418.423 -1.58227 0
418.731 2.6921 0
416.199 2.87475 0
417.157 -1.49092 0
418.577 0.554952 0
417.465 2.78347 0
416.045 0.737587 0
417.311 0.646309 0
418.423 -1.58227 0
420.955 -1.76519 0
421.263 2.50915 0
418.731 2.6921 0
419.689 -1.67369 0
421.109 0.372011 0
419.997 2.60066 0
418.577 0.554952 0
419.843 0.463519 0
420.955 -1.76519 0
423.486 -1.94842 0
423.795 2.3259 0
421.263 2.50915 0
422.221 -1.85677 0
423.641 0.188771 0
422.529 2.41756 0
421.109 0.372011 0
422.375 0.280428 0
423.486 -1.94842 0
426.018 -2.13193 0
426.328 2.14236 0
423.795 2.3259 0
424.752 -2.04014 0
426.173 0.00524399 0
425.061 2.23416 0
423.641 0.188771 0
424.907 0.0970431 0
426.018 -2.13193 0
428.55 -2.31572 0
428.86 1.95854 0
426.328 2.14236 0
427.284 -2.22379 0
428.705 -0.178562 0
427.594 2.05048 0
426.173 0.00524399 0
427.439 -0.0866247 0
428.55 -2.31572 0
431.081 -2.49978 0
431.392 1.77445 0
428.86 1.95854 0
429.816 -2.40772 0
431.237 -0.362636 0
430.126 1.86653 0
428.705 -0.178562 0
429.971 -0.270566 0
431.081 -2.49978 0
433.613 -2.6841 0
433.924 1.59011 0
431.392 1.77445 0
432.347 -2.59191 0
433.768 -0.54697 0
432.658 1.68231 0
431.237 -0.362636 0
432.502 -0.454771 0
433.613 -2.6841 0
436.145 -2.86868 0
436.456 1.40552 0
433.924 1.59011 0
434.879 -2.77636 0
436.3 -0.731553 0
435.19 1.49784 0
433.768 -0.54697 0
435.034 -0.639231 0
436.145 -2.86868 0
438.676 -3.05349 0
438.988 1.22069 0
436.456 1.40552 0
437.41 -2.96105 0
438.832 -0.916375 0
437.722 1.31313 0
436.3 -0.731553 0
437.566 -0.823935 0
438.676 -3.05349 0
441.208 -3.23853 0
441.52 1.03562 0
438.988 1.22069 0
439.942 -3.14598 0
441.364 -1.10143 0
440.254 1.12818 0
438.832 -0.916375 0
440.098 -1.00887 0
441.208 -3.23853 0
443.739 -3.42379 0
444.051 0.850342 0
441.52 1.03562 0
442.473 -3.33113 0
443.895 -1.2867 0
442.785 0.94301 0
441.364 -1.10143 0
442.629 -1.19404 0
443.739 -3.42379 0
446.271 -3.60927 0
446.583 0.66485 0
444.051 0.850342 0
445.005 -3.5165 0
446.427 -1.47219 0
445.317 0.757622 0
443.895 -1.2867 0
445.161 -1.37942 0
446.271 -3.60927 0
448.802 -3.79494 0
449.115 0.479158 0
446.583 0.66485 0
447.536 -3.70208 0
448.959 -1.65787 0
447.849 0.572029 0
446.427 -1.47219 0
447.693 -1.565 0
448.802 -3.79494 0
451.333 -3.98081 0
451.647 0.293274 0
449.115 0.479158 0
450.068 -3.88785 0
451.49 -1.84375 0
450.381 0.386239 0
448.959 -1.65787 0
450.224 -1.75079 0
451.333 -3.98081 0
453.865 -4.16686 0
454.178 0.10721 0
451.647 0.293274 0
452.599 -4.07381 0
454.022 -2.02981 0
452.913 0.200264 0
451.49 -1.84375 0
452.756 -1.93676 0
453.865 -4.16686 0
456.396 -4.35309 0
456.71 -0.0790266 0
454.178 0.10721 0
455.131 -4.25995 0
456.553 -2.21604 0
455.444 0.0141124 0
454.022 -2.02981 0
455.287 -2.1229 0
456.396 -4.35309 0
458.928 -4.53947 0
459.242 -0.265425 0
456.71 -0.0790266 0
457.662 -4.44626 0
459.085 -2.40243 0
457.976 -0.172206 0
456.553 -2.21604 0
457.819 -2.30921 0
458.928 -4.53947 0
461.459 -4.72601 0
461.773 -0.451976 0
459.242 -0.265425 0
460.193 -4.63272 0
461.616 -2.58898 0
460.508 -0.358682 0
459.085 -2.40243 0
460.35 -2.49569 0
461.459 -4.72601 0
463.99 -4.9127 0
464.305 -0.638669 0
461.773 -0.451976 0
462.725 -4.81934 0
464.148 -2.77567 0
463.039 -0.545305 0
461.616 -2.58898 0
462.882 -2.68231 0
463.99 -4.9127 0
466.522 -5.09952 0
466.836 -0.825496 0
464.305 -0.638669 0
465.256 -5.00609 0
466.679 -2.96249 0
465.571 -0.732067 0
464.148 -2.77567 0
465.413 -2.86906 0
466.522 -5.09952 0
469.053 -5.28646 0
469.368 -1.01245 0
466.836 -0.825496 0
467.787 -5.19297 0
469.21 -3.14944 0
468.102 -0.918956 0
466.679 -2.96249 0
467.945 -3.05595 0
469.053 -5.28646 0
471.584 -5.47352 0
471.899 -1.19951 0
469.368 -1.01245 0
470.319 -5.37998 0
471.742 -3.3365 0
470.634 -1.10596 0
469.21 -3.14944 0
470.476 -3.24296 0
471.584 -5.47352 0
474.115 -5.66068 0
474.431 -1.38668 0
471.899 -1.19951 0
472.85 -5.56709 0
474.273 -3.52367 0
473.165 -1.29308 0
471.742 -3.3365 0
473.007 -3.43007 0
474.115 -5.66068 0
476.647 -5.84794 0
476.962 -1.57394 0
474.431 -1.38668 0
475.381 -5.7543 0
476.804 -3.71093 0
475.697 -1.4803 0
474.273 -3.52367 0
475.539 -3.61729 0
476.647 -5.84794 0
479.178 -6.03529 0
479.494 -1.76129 0
476.962 -1.57394 0
477.912 -5.94161 0
479.336 -3.89828 0
478.228 -1.6676 0
476.804 -3.71093 0
478.07 -3.8046 0
479.178 -6.03529 0
481.709 -6.22272 0
482.025 -1.94871 0
479.494 -1.76129 0
480.443 -6.129 0
481.867 -4.08571 0
480.759 -1.85499 0
479.336 -3.89828 0
480.601 -3.99199 0
481.709 -6.22272 0
484.24 -6.41022 0
484.556 -2.1362 0
482.025 -1.94871 0
482.975 -6.31646 0
484.398 -4.2732 0
483.291 -2.04245 0
481.867 -4.08571 0
483.133 -4.17945 0
484.24 -6.41022 0
486.771 -6.59777 0
487.087 -2.32375 0
484.556 -2.1362 0
485.506 -6.50399 0
486.929 -4.46075 0
485.822 -2.22997 0
484.398 -4.2732 0
485.664 -4.36697 0
486.771 -6.59777 0
489.303 -6.78537 0
489.619 -2.51135 0
487.087 -2.32375 0
488.037 -6.69157 0
489.461 -4.64836 0
488.353 -2.41754 0
486.929 -4.46075 0
488.195 -4.55455 0
489.303 -6.78537 0
491.834 -6.97301 0
492.15 -2.69899 0
489.619 -2.51135 0
490.568 -6.87919 0
491.992 -4.836 0
490.884 -2.60516 0
489.461 -4.64836 0
490.726 -4.74217 0
491.834 -6.97301 0
494.365 -7.16065 0
494.681 -2.88667 0
492.15 -2.69899 0
493.099 -7.06683 0
494.523 -5.02365 0
493.415 -2.79283 0
491.992 -4.836 0
493.257 -4.92982 0
494.365 -7.16065 0
496.896 -7.34825 0
497.212 -3.07434 0
494.681 -2.88667 0
495.63 -7.25445 0
497.054 -5.21127 0
495.947 -2.98051 0
494.523 -5.02365 0
495.789 -5.11747 0
496.896 -7.34825 0
499.427 -7.53574 0
499.743 -3.26193 0
497.212 -3.07434 0
498.162 -7.44201 0
499.585 -5.3988 0
498.478 -3.16815 0
497.054 -5.21127 0
498.32 -5.30506 0
0 21.4286 0
2.54231 21.4281 0
2.54537 25.7122 0
0 25.7143 0
1.27109 21.4287 0
2.54378 23.5704 0
1.27258 25.7135 0
0 23.5714 0
1.27185 23.5712 0
2.54231 21.4281 0
5.08494 21.4252 0
5.09134 25.7083 0
2.54537 25.7122 0
3.81359 21.427 0
5.08803 23.567 0
3.81832 25.7104 0
2.54378 23.5704 0
3.81586 23.5689 0
5.08494 21.4252 0
7.62775 21.4202 0
7.63739 25.7028 0
5.09134 25.7083 0
6.35633 21.423 0
7.63248 23.5618 0
6.36437 25.7057 0
5.08803 23.567 0
6.36025 23.5646 0
7.62775 21.4202 0
10.1706 21.4134 0
10.1834 25.6958 0
7.63739 25.7028 0
8.89918 21.417 0
10.1769 23.5548 0
8.91039 25.6995 0
7.63248 23.5618 0
8.90471 23.5585 0
10.1706 21.4134 0
12.7134 21.4046 0
12.7293 25.687 0
10.1834 25.6958 0
11.442 21.4092 0
12.7213 23.546 0
11.4564 25.6916 0
10.1769 23.5548 0
11.4491 23.5506 0
12.7134 21.4046 0
15.2562 21.394 0
15.2752 25.6764 0
12.7293 25.687 0
13.9848 21.3995 0
15.2657 23.5354 0
14.0023 25.682 0
12.7213 23.546 0
13.9935 23.5409 0
15.2562 21.394 0
17.799 21.3815 0
17.821 25.664 0
15.2752 25.6764 0
16.5276 21.388 0
17.8099 23.523 0
16.5481 25.6704 0
15.2657 23.5354 0
16.5378 23.5294 0
17.799 21.3815 0
20.3416 21.3673 0
20.3667 25.6497 0
17.821 25.664 0
19.0703 21.3746 0
20.3542 23.5087 0
19.0939 25.6571 0
17.8099 23.523 0
19.0821 23.5161 0
20.3416 21.3673 0
22.8843 21.3512 0
22.9124 25.6336 0
20.3667 25.6497 0
21.613 21.3594 0
22.8983 23.4926 0
21.6396 25.6419 0
20.3542 23.5087 0
21.6262 23.5009 0
22.8843 21.3512 0
25.4269 21.3332 0
25.4581 25.6157 0
22.9124 25.6336 0
24.1556 21.3424 0
25.4424 23.4747 0
24.1853 25.6249 0
22.8983 23.4926 0
24.1704 23.4839 0
25.4269 21.3332 0
27.9694 21.3135 0
28.0037 25.596 0
25.4581 25.6157 0
26.6981 21.3236 0
27.9865 23.4549 0
26.7309 25.6061 0
25.4424 23.4747 0
26.7145 23.465 0
27.9694 21.3135 0
30.5119 21.292 0
30.5492 25.5744 0
28.0037 25.596 0
29.2407 21.303 0
30.5305 23.4334 0
29.2765 25.5854 0
27.9865 23.4549 0
29.2585 23.4444 0
30.5119 21.292 0
33.0544 21.2686 0
33.0947 25.5511 0
30.5492 25.5744 0
31.7832 21.2805 0
33.0745 23.41 0
31.822 25.563 0
30.5305 23.4334 0
31.8025 23.4219 0
33.0544 21.2686 0
35.5968 21.2435 0
35.6401 25.526 0
33.0947 25.5511 0
34.3256 21.2563 0
35.6184 23.3849 0
34.3674 25.5387 0
33.0745 23.41 0
34.3465 23.3977 0
35.5968 21.2435 0
38.1392 21.2166 0
38.1855 25.4991 0
35.6401 25.526 0
36.868 21.2303 0
38.1623 23.358 0
36.9128 25.5127 0
35.6184 23.3849 0
36.8904 23.3717 0
38.1392 21.2166 0
40.6816 21.188 0
40.7308 25.4704 0
38.1855 25.4991 0
39.4104 21.2025 0
40.7061 23.3294 0
39.4581 25.485 0
38.1623 23.358 0
39.4342 23.3439 0
40.6816 21.188 0
43.2239 21.1576 0
43.276 25.44 0
40.7308 25.4704 0
41.9527 21.173 0
43.2499 23.299 0
42.0034 25.4554 0
40.7061 23.3294 0
41.978 23.3144 0
43.2239 21.1576 0
45.7661 21.1254 0
45.8212 25.4078 0
43.276 25.44 0
44.495 21.1417 0
45.7936 23.2668 0
44.5486 25.4241 0
43.2499 23.299 0
44.5218 23.2831 0
45.7661 21.1254 0
48.3083 21.0915 0
48.3663 25.3739 0
45.8212 25.4078 0
47.0372 21.1087 0
48.3373 23.2329 0
47.0938 25.3911 0
45.7936 23.2668 0
47.0655 23.2501 0
48.3083 21.0915 0
50.8505 21.0559 0
50.9114 25.3383 0
48.3663 25.3739 0
49.5794 21.074 0
50.8809 23.1973 0
49.6389 25.3563 0
48.3373 23.2329 0
49.6091 23.2153 0
50.8505 21.0559 0
53.3926 21.0186 0
53.4564 25.3009 0
50.9114 25.3383 0
52.1215 21.0375 0
53.4244 23.16 0
52.1839 25.3198 0
50.8809 23.1973 0
52.1527 23.1788 0
53.3926 21.0186 0
55.9346 20.9796 0
56.0013 25.2619 0
53.4564 25.3009 0
54.6636 20.9993 0
55.9679 23.1209 0
54.7288 25.2816 0
53.4244 23.16 0
54.6962 23.1407 0
55.9346 20.9796 0
58.4766 20.9389 0
58.5461 25.2211 0
56.0013 25.2619 0
57.2056 20.9595 0
58.5114 23.0802 0
57.2737 25.2417 0
55.9679 23.1209 0
57.2397 23.1008 0
58.4766 20.9389 0
61.0186 20.8965 0
61.0909 25.1787 0
58.5461 25.2211 0
59.7476 20.9179 0
61.0547 23.0378 0
59.8186 25.2001 0
58.5114 23.0802 0
59.7831 23.0592 0
61.0186 20.8965 0
63.5605 20.8524 0
63.6357 25.1346 0
61.0909 25.1787 0
62.2896 20.8746 0
63.5981 22.9937 0
62.3633 25.1569 0
61.0547 23.0378 0
62.3264 23.0159 0
63.5605 20.8524 0
66.1023 20.8066 0
66.1803 25.0888 0
63.6357 25.1346 0
64.8314 20.8297 0
66.1413 22.9479 0
64.908 25.1119 0
63.5981 22.9937 0
64.8697 22.971 0
66.1023 20.8066 0
68.6441 20.7592 0
68.7249 25.0414 0
66.1803 25.0888 0
67.3732 20.7832 0
68.6845 22.9005 0
67.4526 25.0653 0
66.1413 22.9479 0
67.4129 22.9244 0
68.6441 20.7592 0
71.1859 20.7102 0
71.2694 24.9923 0
68.7249 25.0414 0
69.915 20.7349 0
71.2276 22.8514 0
69.9971 25.017 0
68.6845 22.9005 0
69.9561 22.8762 0
71.1859 20.7102 0
73.7276 20.6595 0
73.8138 24.9416 0
71.2694 24.9923 0
72.4567 20.6851 0
73.7707 22.8007 0
72.5416 24.9671 0
71.2276 22.8514 0
72.4991 22.8263 0
73.7276 20.6595 0
76.2692 20.6072 0
76.3582 24.8892 0
73.8138 24.9416 0
74.9984 20.6336 0
76.3137 22.7484 0
75.086 24.9156 0
73.7707 22.8007 0
75.0422 22.7747 0
76.2692 20.6072 0
78.8108 20.5533 0
78.9025 24.8352 0
76.3582 24.8892 0
77.54 20.5804 0
78.8566 22.6944 0
77.6303 24.8624 0
76.3137 22.7484 0
77.5851 22.7216 0
78.8108 20.5533 0
81.3523 20.4977 0
81.4467 24.7797 0
78.9025 24.8352 0
80.0815 20.5257 0
81.3994 22.6389 0
80.1746 24.8077 0
78.8566 22.6944 0
80.128 22.6668 0
81.3523 20.4977 0
83.8937 20.4406 0
83.9908 24.7225 0
81.4467 24.7797 0
82.623 20.4694 0
83.9422 22.5817 0
82.7187 24.7513 0
81.3994 22.6389 0
82.6708 22.6105 0
83.8937 20.4406 0
86.4351 20.3819 0
86.5349 24.6637 0
83.9908 24.7225 0
85.1644 20.4114 0
86.485 22.523 0
85.2628 24.6933 0
83.9422 22.5817 0
85.2136 22.5525 0
86.4351 20.3819 0
88.9764 20.3216 0
89.0788 24.6034 0
86.5349 24.6637 0
87.7058 20.3519 0
89.0276 22.4626 0
87.8069 24.6337 0
86.485 22.523 0
87.7563 22.493 0
88.9764 20.3216 0
91.5177 20.2597 0
91.6227 24.5415 0
89.0788 24.6034 0
90.2471 20.2908 0
91.5702 22.4008 0
90.3508 24.5726 0
89.0276 22.4626 0
90.2989 22.4319 0
91.5177 20.2597 0
94.0589 20.1963 0
94.1666 24.478 0
91.6227 24.5415 0
92.7883 20.2282 0
94.1127 22.3373 0
92.8947 24.5099 0
91.5702 22.4008 0
92.8415 22.3692 0
94.0589 20.1963 0
96.6 20.1313 0
96.7103 24.413 0
94.1666 24.478 0
95.3295 20.164 0
96.6551 22.2723 0
95.4384 24.4457 0
94.1127 22.3373 0
95.3839 22.305 0
96.6 20.1313 0
99.1411 20.0648 0
99.254 24.3464 0
96.7103 24.413 0
97.8706 20.0982 0
99.1975 22.2058 0
97.9821 24.3799 0
96.6551 22.2723 0
97.9263 22.2392 0
99.1411 20.0648 0
101.682 19.9968 0
101.798 24.2783 0
99.254 24.3464 0
100.412 20.031 0
101.74 22.1377 0
100.526 24.3125 0
99.1975 22.2058 0
100.469 22.1719 0
101.682 19.9968 0
104.223 19.9272 0
104.341 24.2087 0
101.798 24.2783 0
102.953 19.9622 0
104.282 22.0681 0
103.069 24.2437 0
101.74 22.1377 0
103.011 22.1031 0
104.223 19.9272 0
106.764 19.8561 0
106.884 24.1376 0
104.341 24.2087 0
105.493 19.8918 0
106.824 21.997 0
105.613 24.1733 0
104.282 22.0681 0
105.553 22.0327 0
106.764 19.8561 0
109.305 19.7835 0
109.428 24.0649 0
106.884 24.1376 0
108.034 19.82 0
109.366 21.9244 0
108.156 24.1014 0
106.824 21.997 0
108.095 21.9609 0
109.305 19.7835 0
111.845 19.7095 0
111.971 23.9908 0
109.428 24.0649 0
110.575 19.7467 0
111.908 21.8503 0
110.699 24.0281 0
109.366 21.9244 0
110.637 21.8875 0
111.845 19.7095 0
114.386 19.6339 0
114.514 23.9152 0
111.971 23.9908 0
113.116 19.6719 0
114.45 21.7747 0
113.243 23.9532 0
111.908 21.8503 0
113.179 21.8127 0
114.386 19.6339 0
116.927 19.5569 0
117.057 23.8381 0
114.514 23.9152 0
115.656 19.5956 0
116.992 21.6977 0
115.786 23.8769 0
114.45 21.7747 0
115.721 21.7364 0
116.927 19.5569 0
119.467 19.4784 0
119.6 23.7596 0
117.057 23.8381 0
118.197 19.5179 0
119.534 21.6192 0
118.329 23.7991 0
116.992 21.6977 0
118.263 21.6586 0
119.467 19.4784 0
122.008 19.3985 0
122.143 23.6796 0
119.6 23.7596 0
120.738 19.4387 0
122.075 21.5392 0
120.872 23.7198 0
119.534 21.6192 0
120.805 21.5794 0
122.008 19.3985 0
124.548 19.3172 0
124.686 23.5982 0
122.143 23.6796 0
123.278 19.358 0
124.617 21.4578 0
123.415 23.6391 0
122.075 21.5392 0
123.346 21.4987 0
124.548 19.3172 0
127.089 19.2344 0
127.229 23.5153 0
124.686 23.5982 0
125.818 19.2759 0
127.159 21.375 0
125.957 23.5569 0
124.617 21.4578 0
125.888 21.4166 0
127.089 19.2344 0
129.629 19.1501 0
129.771 23.431 0
127.229 23.5153 0
128.359 19.1924 0
129.7 21.2907 0
128.5 23.4734 0
127.159 21.375 0
128.429 21.333 0
129.629 19.1501 0
132.169 19.0645 0
132.314 23.3453 0
129.771 23.431 0
130.899 19.1075 0
132.241 21.2051 0
131.043 23.3884 0
129.7 21.2907 0
130.971 21.2481 0
132.169 19.0645 0
134.709 18.9775 0
134.856 23.2582 0
132.314 23.3453 0
133.439 19.0212 0
134.783 21.118 0
133.585 23.302 0
132.241 21.2051 0
133.512 21.1617 0
134.709 18.9775 0
137.249 18.889 0
137.399 23.1698 0
134.856 23.2582 0
135.979 18.9334 0
137.324 21.0295 0
136.128 23.2142 0
134.783 21.118 0
136.053 21.0739 0
137.249 18.889 0
139.789 18.7992 0
139.941 23.0799 0
137.399 23.1698 0
138.519 18.8443 0
139.865 20.9397 0
138.67 23.125 0
137.324 21.0295 0
138.594 20.9848 0
139.789 18.7992 0
142.329 18.708 0
142.483 22.9886 0
139.941 23.0799 0
141.059 18.7538 0
142.406 20.8485 0
141.212 23.0344 0
139.865 20.9397 0
141.136 20.8943 0
142.329 18.708 0
144.869 18.6155 0
145.025 22.896 0
142.483 22.9886 0
143.599 18.6619 0
144.947 20.7559 0
143.754 22.9425 0
142.406 20.8485 0
143.677 20.8024 0
144.869 18.6155 0
147.409 18.5216 0
147.567 22.802 0
145.025 22.896 0
146.139 18.5687 0
147.488 20.662 0
146.296 22.8492 0
144.947 20.7559 0
146.218 20.7091 0
147.409 18.5216 0
149.948 18.4263 0
150.109 22.7067 0
147.567 22.802 0
148.678 18.4741 0
150.029 20.5667 0
148.838 22.7545 0
147.488 20.662 0
148.758 20.6145 0
149.948 18.4263 0
152.488 18.3298 0
152.651 22.6101 0
150.109 22.7067 0
151.218 18.3782 0
152.569 20.4701 0
151.38 22.6586 0
150.029 20.5667 0
151.299 20.5185 0
152.488 18.3298 0
155.027 18.2319 0
155.193 22.5121 0
152.651 22.6101 0
153.758 18.281 0
155.11 20.3721 0
153.922 22.5613 0
152.569 20.4701 0
153.84 20.4213 0
155.027 18.2319 0
157.567 18.1326 0
157.735 22.4128 0
155.193 22.5121 0
156.297 18.1824 0
157.651 20.2729 0
156.464 22.4626 0
155.11 20.3721 0
156.38 20.3227 0
157.567 18.1326 0
160.106 18.0321 0
160.276 22.3122 0
157.735 22.4128 0
158.836 18.0825 0
160.191 20.1723 0
159.005 22.3627 0
157.651 20.2729 0
158.921 20.2227 0
160.106 18.0321 0
162.645 17.9303 0
162.818 22.2103 0
160.276 22.3122 0
161.376 17.9814 0
162.732 20.0704 0
161.547 22.2614 0
160.191 20.1723 0
161.461 20.1215 0
162.645 17.9303 0
165.185 17.8272 0
165.359 22.1071 0
162.818 22.2103 0
163.915 17.8789 0
165.272 19.9673 0
164.088 22.1589 0
162.732 20.0704 0
164.002 20.019 0
165.185 17.8272 0
167.724 17.7228 0
167.9 22.0027 0
165.359 22.1071 0
166.454 17.7751 0
167.812 19.8629 0
166.63 22.0551 0
165.272 19.9673 0
166.542 19.9152 0
167.724 17.7228 0
170.263 17.6171 0
170.442 21.897 0
167.9 22.0027 0
168.993 17.6701 0
170.352 19.7572 0
169.171 21.95 0
167.812 19.8629 0
169.082 19.8102 0
170.263 17.6171 0
172.802 17.5102 0
172.983 21.79 0
170.442 21.897 0
171.532 17.5638 0
172.892 19.6503 0
171.712 21.8436 0
170.352 19.7572 0
171.622 19.7039 0
172.802 17.5102 0
175.341 17.4021 0
175.524 21.6818 0
172.983 21.79 0
174.071 17.4563 0
175.432 19.5421 0
174.253 21.736 0
172.892 19.6503 0
174.162 19.5963 0
175.341 17.4021 0
177.88 17.2927 0
178.065 21.5723 0
175.524 21.6818 0
176.61 17.3475 0
177.972 19.4326 0
176.794 21.6272 0
175.432 19.5421 0
176.702 19.4875 0
177.88 17.2927 0
180.418 17.1821 0
180.605 21.4616 0
178.065 21.5723 0
179.149 17.2375 0
180.512 19.322 0
179.335 21.5171 0
177.972 19.4326 0
179.242 19.3775 0
180.418 17.1821 0
182.957 17.0702 0
183.146 21.3497 0
180.605 21.4616 0
181.688 17.1263 0
183.052 19.2101 0
181.876 21.4058 0
180.512 19.322 0
181.782 19.2662 0
182.957 17.0702 0
185.496 16.9572 0
185.687 21.2366 0
183.146 21.3497 0
184.226 17.0139 0
185.591 19.097 0
184.416 21.2933 0
183.052 19.2101 0
184.321 19.1537 0
185.496 16.9572 0
188.034 16.843 0
188.227 21.1223 0
185.687 21.2366 0
186.765 16.9002 0
188.131 18.9828 0
186.957 21.1796 0
185.591 19.097 0
186.861 19.04 0
188.034 16.843 0
190.573 16.7275 0
190.768 21.0068 0
188.227 21.1223 0
189.303 16.7854 0
190.67 18.8673 0
189.497 21.0647 0
188.131 18.9828 0
189.4 18.9252 0
190.573 16.7275 0
193.111 16.6109 0
193.308 20.8901 0
190.768 21.0068 0
191.842 16.6694 0
193.209 18.7506 0
192.038 20.9486 0
190.67 18.8673 0
191.94 18.8091 0
193.111 16.6109 0
195.649 16.4932 0
195.848 20.7723 0
193.308 20.8901 0
194.38 16.5522 0
195.749 18.6328 0
194.578 20.8313 0
193.209 18.7506 0
194.479 18.6919 0
195.649 16.4932 0
198.187 16.3742 0
198.388 20.6532 0
195.848 20.7723 0
196.918 16.4338 0
198.288 18.5139 0
197.118 20.7129 0
195.749 18.6328 0
197.018 18.5735 0
198.187 16.3742 0
200.726 16.2541 0
200.929 20.5331 0
198.388 20.6532 0
199.457 16.3143 0
200.827 18.3937 0
199.658 20.5933 0
198.288 18.5139 0
199.558 18.4539 0
200.726 16.2541 0
203.264 16.1329 0
203.468 20.4118 0
200.929 20.5331 0
201.995 16.1937 0
203.366 18.2725 0
202.199 20.4726 0
200.827 18.3937 0
202.097 18.3332 0
203.264 16.1329 0
205.802 16.0106 0
206.008 20.2894 0
203.468 20.4118 0
204.533 16.0719 0
205.905 18.1501 0
204.738 20.3507 0
203.366 18.2725 0
204.636 18.2114 0
205.802 16.0106 0
208.34 15.8871 0
208.548 20.1658 0
206.008 20.2894 0
207.071 15.949 0
208.444 18.0266 0
207.278 20.2277 0
205.905 18.1501 0
207.174 18.0885 0
208.34 15.8871 0
210.877 15.7625 0
211.088 20.0412 0
208.548 20.1658 0
209.608 15.8249 0
210.983 17.902 0
209.818 20.1036 0
208.444 18.0266 0
209.713 17.9644 0
210.877 15.7625 0
213.415 15.6368 0
213.627 19.9154 0
211.088 20.0412 0
212.146 15.6998 0
213.521 17.7762 0
212.358 19.9784 0
210.983 17.902 0
212.252 17.8392 0
213.415 15.6368 0
215.953 15.51 0
216.167 19.7885 0
213.627 19.9154 0
214.684 15.5736 0
216.06 17.6494 0
214.897 19.8521 0
213.521 17.7762 0
214.791 17.713 0
215.953 15.51 0
218.49 15.3822 0
218.706 19.6606 0
216.167 19.7885 0
217.222 15.4463 0
218.598 17.5215 0
217.437 19.7247 0
216.06 17.6494 0
217.329 17.5856 0
218.49 15.3822 0
221.028 15.2533 0
221.246 19.5316 0
218.706 19.6606 0
219.759 15.3179 0
221.137 17.3926 0
219.976 19.5962 0
218.598 17.5215 0
219.868 17.4572 0
221.028 15.2533 0
223.565 15.1233 0
223.785 19.4015 0
221.246 19.5316 0
222.297 15.1884 0
223.675 17.2625 0
222.515 19.4667 0
221.137 17.3926 0
222.406 17.3277 0
223.565 15.1233 0
226.103 14.9922 0
226.324 19.2704 0
223.785 19.4015 0
224.834 15.0579 0
226.213 17.1314 0
225.054 19.3361 0
223.675 17.2625 0
224.944 17.1971 0
226.103 14.9922 0
228.64 14.8601 0
228.863 19.1383 0
226.324 19.2704 0
227.371 14.9263 0
228.751 16.9993 0
227.593 19.2045 0
226.213 17.1314 0
227.482 17.0655 0
228.64 14.8601 0
231.177 14.727 0
231.402 19.0051 0
228.863 19.1383 0
229.908 14.7937 0
231.289 16.8662 0
230.132 19.0718 0
228.751 16.9993 0
230.02 16.9329 0
231.177 14.727 0
233.714 14.5929 0
233.941 18.8709 0
231.402 19.0051 0
232.446 14.6601 0
233.827 16.732 0
232.671 18.9381 0
231.289 16.8662 0
232.558 16.7992 0
233.714 14.5929 0
236.251 14.4577 0
236.479 18.7356 0
233.941 18.8709 0
234.983 14.5254 0
236.365 16.5968 0
235.21 18.8034 0
233.827 16.732 0
235.096 16.6645 0
236.251 14.4577 0
238.788 14.3216 0
239.018 18.5994 0
236.479 18.7356 0
237.52 14.3898 0
238.903 16.4606 0
237.749 18.6676 0
236.365 16.5968 0
237.634 16.5288 0
238.788 14.3216 0
241.325 14.1844 0
241.557 18.4622 0
239.018 18.5994 0
240.057 14.2531 0
241.441 16.3234 0
240.287 18.5309 0
238.903 16.4606 0
240.172 16.3921 0
241.325 14.1844 0
243.862 14.0463 0
244.095 18.324 0
241.557 18.4622 0
242.593 14.1155 0
243.978 16.1852 0
242.826 18.3932 0
241.441 16.3234 0
242.71 16.2544 0
243.862 14.0463 0
246.399 13.9072 0
246.633 18.1848 0
244.095 18.324 0
245.13 13.9769 0
246.516 16.0461 0
245.364 18.2545 0
243.978 16.1852 0
245.247 16.1158 0
246.399 13.9072 0
248.935 13.7671 0
249.172 18.0446 0
246.633 18.1848 0
247.667 13.8373 0
249.053 15.906 0
247.903 18.1148 0
246.516 16.0461 0
247.785 15.9761 0
248.935 13.7671 0
251.472 13.6261 0
251.71 17.9035 0
249.172 18.0446 0
250.203 13.6967 0
251.591 15.7649 0
250.441 17.9742 0
249.053 15.906 0
250.322 15.8356 0
251.472 13.6261 0
254.008 13.4841 0
254.248 17.7615 0
251.71 17.9035 0
252.74 13.5552 0
254.128 15.6229 0
252.979 17.8326 0
251.591 15.7649 0
252.859 15.694 0
254.008 13.4841 0
256.545 13.3412 0
256.786 17.6185 0
254.248 17.7615 0
255.276 13.4128 0
256.665 15.4799 0
255.517 17.6901 0
254.128 15.6229 0
255.397 15.5515 0
256.545 13.3412 0
259.081 13.1973 0
259.324 17.4746 0
256.786 17.6185 0
257.813 13.2694 0
259.202 15.3361 0
258.055 17.5467 0
256.665 15.4799 0
257.934 15.4081 0
259.081 13.1973 0
261.617 13.0526 0
261.862 17.3298 0
259.324 17.4746 0
260.349 13.1251 0
261.739 15.1913 0
260.593 17.4023 0
259.202 15.3361 0
260.471 15.2638 0
261.617 13.0526 0
264.153 12.9069 0
264.399 17.184 0
261.862 17.3298 0
262.885 12.9799 0
264.276 15.0456 0
263.131 17.257 0
261.739 15.1913 0
263.008 15.1185 0
264.153 12.9069 0
266.69 12.7604 0
266.937 17.0374 0
264.399 17.184 0
265.422 12.8338 0
266.813 14.899 0
265.668 17.1108 0
264.276 15.0456 0
265.545 14.9724 0
266.69 12.7604 0
269.226 12.6129 0
269.474 16.8899 0
266.937 17.0374 0
267.958 12.6868 0
269.35 14.7515 0
268.206 16.9638 0
266.813 14.899 0
268.082 14.8254 0
269.226 12.6129 0
271.762 12.4646 0
272.012 16.7415 0
269.474 16.8899 0
270.494 12.5389 0
271.887 14.6032 0
270.743 16.8158 0
269.35 14.7515 0
270.618 14.6774 0
271.762 12.4646 0
274.297 12.3154 0
274.549 16.5922 0
272.012 16.7415 0
273.029 12.3901 0
274.423 14.4539 0
273.281 16.667 0
271.887 14.6032 0
273.155 14.5286 0
274.297 12.3154 0
276.833 12.1654 0
277.087 16.4421 0
274.549 16.5922 0
275.565 12.2405 0
276.96 14.3038 0
275.818 16.5173 0
274.423 14.4539 0
275.692 14.379 0
276.833 12.1654 0
279.369 12.0145 0
279.624 16.2912 0
277.087 16.4421 0
278.101 12.09 0
279.496 14.1529 0
278.355 16.3668 0
276.96 14.3038 0
278.228 14.2285 0
279.369 12.0145 0
281.905 11.8627 0
282.161 16.1394 0
279.624 16.2912 0
280.637 11.9387 0
282.033 14.0011 0
280.892 16.2154 0
279.496 14.1529 0
280.764 14.0771 0
281.905 11.8627 0
284.44 11.7102 0
284.698 15.9867 0
282.161 16.1394 0
283.172 11.7866 0
284.569 13.8485 0
283.429 16.0632 0
282.033 14.0011 0
283.301 13.925 0
284.44 11.7102 0
286.976 11.5568 0
287.235 15.8333 0
284.698 15.9867 0
285.708 11.6336 0
287.105 13.6951 0
285.966 15.9101 0
284.569 13.8485 0
285.837 13.7719 0
286.976 11.5568 0
289.511 11.4026 0
289.771 15.679 0
287.235 15.8333 0
288.243 11.4798 0
289.641 13.5409 0
288.503 15.7563 0
287.105 13.6951 0
288.373 13.6181 0
289.511 11.4026 0
292.047 11.2476 0
292.308 15.524 0
289.771 15.679 0
290.779 11.3252 0
292.177 13.3859 0
291.04 15.6016 0
289.641 13.5409 0
290.909 13.4635 0
292.047 11.2476 0
294.582 11.0918 0
294.845 15.3681 0
292.308 15.524 0
293.314 11.1698 0
294.713 13.2301 0
293.576 15.4461 0
292.177 13.3859 0
293.445 13.3081 0
294.582 11.0918 0
297.117 10.9353 0
297.381 15.2115 0
294.845 15.3681 0
295.849 11.0136 0
297.249 13.0735 0
296.113 15.2899 0
294.713 13.2301 0
295.981 13.1519 0
297.117 10.9353 0
299.652 10.7779 0
299.918 15.0541 0
297.381 15.2115 0
298.385 10.8567 0
299.785 12.9161 0
298.649 15.1329 0
297.249 13.0735 0
298.517 12.9949 0
299.652 10.7779 0
302.187 10.6198 0
302.454 14.8959 0
299.918 15.0541 0
300.92 10.699 0
302.321 12.758 0
301.186 14.9751 0
299.785 12.9161 0
301.053 12.8371 0
302.187 10.6198 0
304.722 10.461 0
304.99 14.737 0
302.454 14.8959 0
303.455 10.5405 0
304.856 12.5991 0
303.722 14.8166 0
302.321 12.758 0
303.588 12.6786 0
304.722 10.461 0
307.257 10.3014 0
307.526 14.5774 0
304.99 14.737 0
305.99 10.3813 0
307.392 12.4395 0
306.258 14.6573 0
304.856 12.5991 0
306.124 12.5194 0
307.257 10.3014 0
309.792 10.1411 0
310.063 14.417 0
307.526 14.5774 0
308.525 10.2213 0
309.927 12.2791 0
308.795 14.4973 0
307.392 12.4395 0
308.66 12.3594 0
309.792 10.1411 0
312.327 9.98005 0
312.599 14.2559 0
310.063 14.417 0
311.059 10.0607 0
312.463 12.1181 0
311.331 14.3365 0
309.927 12.2791 0
311.195 12.1987 0
312.327 9.98005 0
314.862 9.81829 0
315.134 14.0941 0
312.599 14.2559 0
313.594 9.89926 0
314.998 11.9563 0
313.867 14.1751 0
312.463 12.1181 0
313.73 12.0372 0
314.862 9.81829 0
317.396 9.65583 0
317.67 13.9316 0
315.134 14.0941 0
316.129 9.73715 0
317.533 11.7938 0
316.402 14.0129 0
314.998 11.9563 0
316.266 11.8751 0
317.396 9.65583 0
319.931 9.49268 0
320.206 13.7684 0
317.67 13.9316 0
318.663 9.57434 0
320.068 11.6306 0
318.938 13.8501 0
317.533 11.7938 0
318.801 11.7123 0
319.931 9.49268 0
322.465 9.32885 0
322.742 13.6045 0
320.206 13.7684 0
321.198 9.41085 0
322.603 11.4667 0
321.474 13.6865 0
320.068 11.6306 0
321.336 11.5488 0
322.465 9.32885 0
325 9.16434 0
325.277 13.4399 0
322.742 13.6045 0
323.732 9.24668 0
325.138 11.3022 0
324.01 13.5223 0
322.603 11.4667 0
323.871 11.3845 0
325 9.16434 0
327.534 8.99917 0
327.813 13.2747 0
325.277 13.4399 0
326.267 9.08184 0
327.673 11.137 0
326.545 13.3574 0
325.138 11.3022 0
326.406 11.2197 0
327.534 8.99917 0
330.068 8.83334 0
330.348 13.1088 0
327.813 13.2747 0
328.801 8.91633 0
330.208 10.9711 0
329.08 13.1918 0
327.673 11.137 0
328.941 11.0541 0
330.068 8.83334 0
332.603 8.66687 0
332.884 12.9423 0
330.348 13.1088 0
331.336 8.75018 0
332.743 10.8046 0
331.616 13.0256 0
330.208 10.9711 0
331.476 10.888 0
332.603 8.66687 0
335.137 8.49976 0
335.419 12.7751 0
332.884 12.9423 0
333.87 8.58339 0
335.278 10.6375 0
334.151 12.8588 0
332.743 10.8046 0
334.01 10.7211 0
335.137 8.49976 0
337.671 8.33203 0
337.954 12.6073 0
335.419 12.7751 0
336.404 8.41597 0
337.812 10.4697 0
336.686 12.6913 0
335.278 10.6375 0
336.545 10.5537 0
337.671 8.33203 0
340.205 8.16368 0
340.489 12.4389 0
337.954 12.6073 0
338.938 8.24793 0
340.347 10.3014 0
339.221 12.5232 0
337.812 10.4697 0
339.08 10.3856 0
340.205 8.16368 0
342.739 7.99472 0
343.024 12.2699 0
340.489 12.4389 0
341.472 8.07927 0
342.881 10.1324 0
341.757 12.3545 0
340.347 10.3014 0
341.614 10.2169 0
342.739 7.99472 0
345.273 7.82517 0
345.559 12.1003 0
343.024 12.2699 0
344.006 7.91002 0
345.416 9.9628 0
344.291 12.1852 0
342.881 10.1324 0
344.149 10.0477 0
345.273 7.82517 0
347.807 7.65503 0
348.094 11.9301 0
345.559 12.1003 0
346.54 7.74017 0
347.95 9.79264 0
346.826 12.0153 0
345.416 9.9628 0
346.683 9.87779 0
347.807 7.65503 0
350.341 7.48431 0
350.629 11.7594 0
348.094 11.9301 0
349.074 7.56974 0
350.484 9.6219 0
349.361 11.8448 0
347.95 9.79264 0
349.217 9.70734 0
350.341 7.48431 0
352.874 7.31303 0
353.163 11.588 0
350.629 11.7594 0
351.607 7.39874 0
353.019 9.45059 0
351.896 11.6738 0
350.484 9.6219 0
351.752 9.53631 0
352.874 7.31303 0
355.408 7.14119 0
355.698 11.4161 0
353.163 11.588 0
354.141 7.22718 0
355.553 9.27872 0
354.431 11.5021 0
353.019 9.45059 0
354.286 9.36472 0
355.408 7.14119 0
357.941 6.9688 0
358.232 11.2437 0
355.698 11.4161 0
356.675 7.05506 0
358.087 9.10631 0
356.965 11.33 0
355.553 9.27872 0
356.82 9.19258 0
357.941 6.9688 0
360.475 6.79587 0
360.767 11.0707 0
358.232 11.2437 0
359.208 6.8824 0
360.621 8.93336 0
359.5 11.1573 0
358.087 9.10631 0
359.354 9.0199 0
360.475 6.79587 0
363.009 6.62241 0
363.301 10.8972 0
360.767 11.0707 0
361.742 6.70921 0
363.155 8.75988 0
362.034 10.984 0
360.621 8.93336 0
361.888 8.84668 0
363.009 6.62241 0
365.542 6.44844 0
365.835 10.7232 0
363.301 10.8972 0
364.275 6.53549 0
365.689 8.58588 0
364.568 10.8103 0
363.155 8.75988 0
364.422 8.67294 0
365.542 6.44844 0
368.075 6.27395 0
368.37 10.5487 0
365.835 10.7232 0
366.809 6.36126 0
368.222 8.41137 0
367.103 10.636 0
365.689 8.58588 0
366.956 8.49869 0
368.075 6.27395 0
370.609 6.09896 0
370.904 10.3736 0
368.37 10.5487 0
369.342 6.18652 0
370.756 8.23636 0
369.637 10.4612 0
368.222 8.41137 0
369.489 8.32393 0
370.609 6.09896 0
373.142 5.92349 0
373.438 10.1981 0
370.904 10.3736 0
371.875 6.01129 0
373.29 8.06086 0
372.171 10.286 0
370.756 8.23636 0
372.023 8.14867 0
373.142 5.92349 0
375.675 5.74753 0
375.972 10.0221 0
373.438 10.1981 0
374.408 5.83557 0
375.823 7.88489 0
374.705 10.1102 0
373.29 8.06086 0
374.557 7.97293 0
375.675 5.74753 0
378.208 5.5711 0
378.506 9.84567 0
375.972 10.0221 0
376.942 5.65938 0
378.357 7.70844 0
377.239 9.93396 0
375.823 7.88489 0
377.09 7.79672 0
378.208 5.5711 0
380.741 5.39421 0
381.04 9.66875 0
378.506 9.84567 0
379.475 5.48272 0
380.89 7.53153 0
379.773 9.75727 0
378.357 7.70844 0
379.624 7.62004 0
380.741 5.39421 0
383.274 5.21687 0
383.573 9.49137 0
381.04 9.66875 0
382.008 5.3056 0
383.424 7.35417 0
382.306 9.58011 0
380.89 7.53153 0
382.157 7.44291 0
383.274 5.21687 0
385.807 5.03909 0
386.107 9.31355 0
383.573 9.49137 0
384.541 5.12804 0
385.957 7.17637 0
384.84 9.40251 0
383.424 7.35417 0
384.69 7.26532 0
385.807 5.03909 0
388.34 4.86088 0
388.641 9.1353 0
386.107 9.31355 0
387.074 4.95004 0
388.49 6.99814 0
387.374 9.22448 0
385.957 7.17637 0
387.224 7.08731 0
388.34 4.86088 0
390.873 4.68224 0
391.174 8.95663 0
388.641 9.1353 0
389.607 4.77161 0
391.024 6.81948 0
389.907 9.04602 0
388.49 6.99814 0
389.757 6.90886 0
390.873 4.68224 0
393.406 4.50319 0
393.708 8.77755 0
391.174 8.95663 0
392.139 4.59277 0
393.557 6.64042 0
392.441 8.86714 0
391.024 6.81948 0
392.29 6.73 0
393.406 4.50319 0
395.938 4.32374 0
396.241 8.59807 0
393.708 8.77755 0
394.672 4.41351 0
396.09 6.46095 0
394.974 8.68786 0
393.557 6.64042 0
394.823 6.55073 0
395.938 4.32374 0
398.471 4.14389 0
398.775 8.41819 0
396.241 8.59807 0
397.205 4.23386 0
398.623 6.28108 0
397.508 8.50818 0
396.09 6.46095 0
397.356 6.37106 0
398.471 4.14389 0
401.004 3.96366 0
401.308 8.23793 0
398.775 8.41819 0
399.738 4.05382 0
401.156 6.10084 0
400.041 8.32811 0
398.623 6.28108 0
399.889 6.19101 0
401.004 3.96366 0
403.536 3.78305 0
403.841 8.05729 0
401.308 8.23793 0
402.27 3.8734 0
403.689 5.92022 0
402.574 8.14766 0
401.156 6.10084 0
402.422 6.01057 0
403.536 3.78305 0
406.069 3.60208 0
406.374 7.8763 0
403.841 8.05729 0
404.803 3.69261 0
406.222 5.73923 0
405.108 7.96684 0
403.689 5.92022 0
404.955 5.82977 0
406.069 3.60208 0
408.601 3.42076 0
408.907 7.69495 0
406.374 7.8763 0
407.335 3.51147 0
408.754 5.55789 0
407.641 7.78567 0
406.222 5.73923 0
407.488 5.64861 0
408.601 3.42076 0
411.134 3.23909 0
411.44 7.51325 0
408.907 7.69495 0
409.868 3.32997 0
411.287 5.37621 0
410.174 7.60414 0
408.754 5.55789 0
410.021 5.46709 0
411.134 3.23909 0
413.666 3.05708 0
413.973 7.33122 0
411.44 7.51325 0
412.4 3.14813 0
413.82 5.19419 0
412.707 7.42228 0
411.287 5.37621 0
412.553 5.28524 0
413.666 3.05708 0
416.199 2.87475 0
416.506 7.14887 0
413.973 7.33122 0
414.932 2.96596 0
416.352 5.01185 0
415.24 7.24009 0
413.82 5.19419 0
415.086 5.10306 0
416.199 2.87475 0
418.731 2.6921 0
419.039 6.9662 0
416.506 7.14887 0
417.465 2.78347 0
418.885 4.82919 0
417.773 7.05757 0
416.352 5.01185 0
417.619 4.92055 0
418.731 2.6921 0
421.263 2.50915 0
421.572 6.78322 0
419.039 6.9662 0
419.997 2.60066 0
421.417 4.64622 0
420.305 6.87475 0
418.885 4.82919 0
420.151 4.73774 0
421.263 2.50915 0
423.795 2.3259 0
424.104 6.59995 0
421.572 6.78322 0
422.529 2.41756 0
423.95 4.46296 0
422.838 6.69162 0
421.417 4.64622 0
422.684 4.55462 0
423.795 2.3259 0
426.328 2.14236 0
426.637 6.41639 0
424.104 6.59995 0
425.061 2.23416 0
426.482 4.27941 0
425.371 6.50821 0
423.95 4.46296 0
425.216 4.37122 0
426.328 2.14236 0
428.86 1.95854 0
429.17 6.23256 0
426.637 6.41639 0
427.594 2.05048 0
429.015 4.09558 0
427.903 6.32451 0
426.482 4.27941 0
427.748 4.18753 0
428.86 1.95854 0
431.392 1.77445 0
431.702 6.04846 0
429.17 6.23256 0
430.126 1.86653 0
431.547 3.91149 0
430.436 6.14054 0
429.015 4.09558 0
430.281 4.00357 0
431.392 1.77445 0
433.924 1.59011 0
434.235 5.8641 0
431.702 6.04846 0
432.658 1.68231 0
434.079 3.72713 0
432.968 5.95631 0
431.547 3.91149 0
432.813 3.81934 0
433.924 1.59011 0
436.456 1.40552 0
436.767 5.67949 0
434.235 5.8641 0
435.19 1.49784 0
436.611 3.54253 0
435.501 5.77183 0
434.079 3.72713 0
435.345 3.63486 0
436.456 1.40552 0
438.988 1.22069 0
439.299 5.49465 0
436.767 5.67949 0
437.722 1.31313 0
439.143 3.35769 0
438.033 5.5871 0
436.611 3.54253 0
437.877 3.45014 0
438.988 1.22069 0
441.52 1.03562 0
441.832 5.30957 0
439.299 5.49465 0
440.254 1.12818 0
441.676 3.17262 0
440.565 5.40214 0
439.143 3.35769 0
440.41 3.26519 0
441.52 1.03562 0
444.051 0.850342 0
444.364 5.12428 0
441.832 5.30957 0
442.785 0.94301 0
444.208 2.98734 0
443.098 5.21696 0
441.676 3.17262 0
442.942 3.08001 0
444.051 0.850342 0
446.583 0.66485 0
446.896 4.93878 0
444.364 5.12428 0
445.317 0.757622 0
446.74 2.80184 0
445.63 5.03156 0
444.208 2.98734 0
445.474 2.89461 0
446.583 0.66485 0
449.115 0.479158 0
449.428 4.75308 0
446.896 4.93878 0
447.849 0.572029 0
449.272 2.61614 0
448.162 4.84596 0
446.74 2.80184 0
448.006 2.70902 0
449.115 0.479158 0
451.647 0.293274 0
451.96 4.56719 0
449.428 4.75308 0
450.381 0.386239 0
451.803 2.43025 0
450.694 4.66016 0
449.272 2.61614 0
450.538 2.52322 0
451.647 0.293274 0
454.178 0.10721 0
454.492 4.38112 0
451.96 4.56719 0
452.913 0.200264 0
454.335 2.24419 0
453.226 4.47418 0
451.803 2.43025 0
453.069 2.33724 0
454.178 0.10721 0
456.71 -0.0790266 0
457.024 4.19488 0
454.492 4.38112 0
455.444 0.0141124 0
456.867 2.05795 0
455.758 4.28802 0
454.335 2.24419 0
455.601 2.15109 0
456.71 -0.0790266 0
459.242 -0.265425 0
459.556 4.00848 0
457.024 4.19488 0
457.976 -0.172206 0
459.399 1.87155 0
458.29 4.1017 0
456.867 2.05795 0
458.133 1.96477 0
459.242 -0.265425 0
461.773 -0.451976 0
462.088 3.82193 0
459.556 4.00848 0
460.508 -0.358682 0
461.931 1.68499 0
460.822 3.91522 0
459.399 1.87155 0
460.665 1.77829 0
461.773 -0.451976 0
464.305 -0.638669 0
464.62 3.63523 0
462.088 3.82193 0
463.039 -0.545305 0
464.462 1.4983 0
463.354 3.7286 0
461.931 1.68499 0
463.196 1.59166 0
464.305 -0.638669 0
466.836 -0.825496 0
467.151 3.44841 0
464.62 3.63523 0
465.571 -0.732067 0
466.994 1.31147 0
465.886 3.54183 0
464.462 1.4983 0
465.728 1.4049 0
466.836 -0.825496 0
469.368 -1.01245 0
469.683 3.26146 0
467.151 3.44841 0
468.102 -0.918956 0
469.526 1.12452 0
468.417 3.35495 0
466.994 1.31147 0
468.26 1.21801 0
469.368 -1.01245 0
471.899 -1.19951 0
472.215 3.0744 0
469.683 3.26146 0
470.634 -1.10596 0
472.057 0.937457 0
470.949 3.16794 0
469.526 1.12452 0
470.791 1.031 0
471.899 -1.19951 0
474.431 -1.38668 0
474.746 2.88723 0
472.215 3.0744 0
473.165 -1.29308 0
474.589 0.75029 0
473.481 2.98083 0
472.057 0.937457 0
473.323 0.843886 0
474.431 -1.38668 0
476.962 -1.57394 0
477.278 2.69998 0
474.746 2.88723 0
475.697 -1.4803 0
477.12 0.56303 0
476.012 2.79362 0
474.589 0.75029 0
475.854 0.656671 0
476.962 -1.57394 0
479.494 -1.76129 0
479.809 2.51264 0
477.278 2.69998 0
478.228 -1.6676 0
479.651 0.375685 0
478.544 2.60632 0
477.12 0.56303 0
478.386 0.469367 0
479.494 -1.76129 0
482.025 -1.94871 0
482.341 2.32522 0
479.809 2.51264 0
480.759 -1.85499 0
482.183 0.188267 0
481.075 2.41894 0
479.651 0.375685 0
480.917 0.281985 0
482.025 -1.94871 0
484.556 -2.1362 0
484.872 2.13775 0
482.341 2.32522 0
483.291 -2.04245 0
484.714 0.000783051 0
483.607 2.23149 0
482.183 0.188267 0
483.449 0.0945325 0
484.556 -2.1362 0
487.087 -2.32375 0
487.404 1.95022 0
484.872 2.13775 0
485.822 -2.22997 0
487.246 -0.186758 0
486.138 2.04399 0
484.714 0.000783051 0
485.98 -0.0929807 0
487.087 -2.32375 0
489.619 -2.51135 0
489.935 1.76263 0
487.404 1.95022 0
488.353 -2.41754 0
489.777 -0.37435 0
488.669 1.85643 0
487.246 -0.186758 0
488.511 -0.280547 0
489.619 -2.51135 0
492.15 -2.69899 0
492.466 1.575 0
489.935 1.76263 0
490.884 -2.60516 0
492.308 -0.561991 0
491.201 1.66882 0
489.777 -0.37435 0
491.042 -0.468164 0
492.15 -2.69899 0
494.681 -2.88667 0
494.997 1.38729 0
492.466 1.575 0
493.415 -2.79283 0
494.839 -0.749686 0
493.732 1.48116 0
492.308 -0.561991 0
493.574 -0.655831 0
494.681 -2.88667 0
497.212 -3.07434 0
497.529 1.19947 0
494.997 1.38729 0
495.947 -2.98051 0
497.37 -0.937433 0
496.263 1.2934 0
494.839 -0.749686 0
496.105 -0.843556 0
497.212 -3.07434 0
499.743 -3.26193 0
500.06 1.01157 0
497.529 1.19947 0
498.478 -3.16815 0
499.902 -1.12514 0
498.794 1.10551 0
497.37 -0.937433 0
498.636 -1.0313 0
0 25.7143 0
2.54537 25.7122 0
2.55033 29.9938 0
0 30 0
1.27258 25.7135 0
2.5473 27.8534 0
1.2757 29.9962 0
0 27.8571 0
1.27344 27.8555 0
2.54537 25.7122 0
5.09134 25.7083 0
5.09901 29.9893 0
2.55033 29.9938 0
3.81832 25.7104 0
5.09498 27.849 0
3.82469 29.9917 0
2.5473 27.8534 0
3.82117 27.8513 0
5.09134 25.7083 0
7.63739 25.7028 0
7.64778 29.9838 0
5.09901 29.9893 0
6.36437 25.7057 0
7.64252 27.8435 0
6.37338 29.9867 0
5.09498 27.849 0
6.36877 27.8464 0
7.63739 25.7028 0
10.1834 25.6958 0
10.1966 29.9767 0
7.64778 29.9838 0
8.91039 25.6995 0
10.19 27.8365 0
8.92219 29.9805 0
7.64252 27.8435 0
8.91626 27.8402 0
10.1834 25.6958 0
12.7293 25.687 0
12.7455 29.9679 0
10.1966 29.9767 0
11.4564 25.6916 0
12.7374 27.8277 0
11.4711 29.9726 0
10.19 27.8365 0
11.4637 27.8323 0
12.7293 25.687 0
15.2752 25.6764 0
15.2944 29.9574 0
12.7455 29.9679 0
14.0023 25.682 0
15.2848 27.8171 0
14.02 29.9629 0
12.7374 27.8277 0
14.0111 27.8226 0
15.2752 25.6764 0
17.821 25.664 0
17.8433 29.9449 0
15.2944 29.9574 0
16.5481 25.6704 0
17.8321 27.8047 0
16.5688 29.9514 0
15.2848 27.8171 0
16.5584 27.8111 0
17.821 25.664 0
20.3667 25.6497 0
20.3921 29.9307 0
17.8433 29.9449 0
19.0939 25.6571 0
20.3794 27.7904 0
19.1177 29.938 0
17.8321 27.8047 0
19.1057 27.7978 0
20.3667 25.6497 0
22.9124 25.6336 0
22.9409 29.9146 0
20.3921 29.9307 0
21.6396 25.6419 0
22.9266 27.7743 0
21.6665 29.9229 0
20.3794 27.7904 0
21.653 27.7826 0
22.9124 25.6336 0
25.4581 25.6157 0
25.4896 29.8967 0
22.9409 29.9146 0
24.1853 25.6249 0
25.4738 27.7564 0
24.2152 29.9058 0
22.9266 27.7743 0
24.2002 27.7656 0
25.4581 25.6157 0
28.0037 25.596 0
28.0382 29.8769 0
25.4896 29.8967 0
26.7309 25.6061 0
28.0209 27.7366 0
26.7639 29.887 0
25.4738 27.7564 0
26.7473 27.7467 0
28.0037 25.596 0
30.5492 25.5744 0
30.5867 29.8554 0
28.0382 29.8769 0
29.2765 25.5854 0
30.5679 27.7151 0
29.3125 29.8664 0
28.0209 27.7366 0
29.2944 27.7261 0
30.5492 25.5744 0
33.0947 25.5511 0
33.1352 29.832 0
30.5867 29.8554 0
31.822 25.563 0
33.1149 27.6918 0
31.861 29.8439 0
30.5679 27.7151 0
31.8414 27.7036 0
33.0947 25.5511 0
35.6401 25.526 0
35.6837 29.8069 0
33.1352 29.832 0
34.3674 25.5387 0
35.6618 27.6666 0
34.4095 29.8197 0
33.1149 27.6918 0
34.3884 27.6794 0
35.6401 25.526 0
38.1855 25.4991 0
38.232 29.78 0
35.6837 29.8069 0
36.9128 25.5127 0
38.2087 27.6397 0
36.9578 29.7937 0
35.6618 27.6666 0
36.9353 27.6534 0
38.1855 25.4991 0
40.7308 25.4704 0
40.7803 29.7513 0
38.232 29.78 0
39.4581 25.485 0
40.7555 27.611 0
39.5061 29.7659 0
38.2087 27.6397 0
39.4821 27.6256 0
40.7308 25.4704 0
43.276 25.44 0
43.3285 29.7209 0
40.7803 29.7513 0
42.0034 25.4554 0
43.3022 27.5806 0
42.0544 29.7363 0
40.7555 27.611 0
42.0289 27.5961 0
43.276 25.44 0
45.8212 25.4078 0
45.8766 29.6887 0
43.3285 29.7209 0
44.5486 25.4241 0
45.8488 27.5484 0
44.6025 29.705 0
43.3022 27.5806 0
44.5755 27.5648 0
45.8212 25.4078 0
48.3663 25.3739 0
48.4246 29.6548 0
45.8766 29.6887 0
47.0938 25.3911 0
48.3954 27.5145 0
47.1506 29.672 0
45.8488 27.5484 0
47.1221 27.5317 0
48.3663 25.3739 0
50.9114 25.3383 0
50.9725 29.6192 0
48.4246 29.6548 0
49.6389 25.3563 0
50.9419 27.4789 0
49.6986 29.6372 0
48.3954 27.5145 0
49.6687 27.4969 0
50.9114 25.3383 0
53.4564 25.3009 0
53.5204 29.5818 0
50.9725 29.6192 0
52.1839 25.3198 0
53.4884 27.4415 0
52.2465 29.6007 0
50.9419 27.4789 0
52.2151 27.4604 0
53.4564 25.3009 0
56.0013 25.2619 0
56.0682 29.5427 0
53.5204 29.5818 0
54.7288 25.2816 0
56.0347 27.4025 0
54.7943 29.5625 0
53.4884 27.4415 0
54.7615 27.4222 0
56.0013 25.2619 0
58.5461 25.2211 0
58.6159 29.502 0
56.0682 29.5427 0
57.2737 25.2417 0
58.581 27.3617 0
57.3421 29.5225 0
56.0347 27.4025 0
57.3079 27.3823 0
58.5461 25.2211 0
61.0909 25.1787 0
61.1635 29.4595 0
58.6159 29.502 0
59.8186 25.2001 0
61.1272 27.3193 0
59.8897 29.4809 0
58.581 27.3617 0
59.8541 27.3407 0
61.0909 25.1787 0
63.6357 25.1346 0
63.7111 29.4154 0
61.1635 29.4595 0
62.3633 25.1569 0
63.6733 27.2751 0
62.4373 29.4376 0
61.1272 27.3193 0
62.4003 27.2974 0
63.6357 25.1346 0
66.1803 25.0888 0
66.2585 29.3696 0
63.7111 29.4154 0
64.908 25.1119 0
66.2194 27.2294 0
64.9848 29.3927 0
63.6733 27.2751 0
64.9464 27.2525 0
66.1803 25.0888 0
68.7249 25.0414 0
68.8059 29.3221 0
66.2585 29.3696 0
67.4526 25.0653 0
68.7653 27.1819 0
67.5322 29.346 0
66.2194 27.2294 0
67.4924 27.2058 0
68.7249 25.0414 0
71.2694 24.9923 0
71.3531 29.273 0
68.8059 29.3221 0
69.9971 25.017 0
71.3112 27.1328 0
70.0795 29.2977 0
68.7653 27.1819 0
70.0383 27.1576 0
71.2694 24.9923 0
73.8138 24.9416 0
73.9003 29.2222 0
71.3531 29.273 0
72.5416 24.9671 0
73.857 27.0821 0
72.6267 29.2478 0
71.3112 27.1328 0
72.5841 27.1076 0
73.8138 24.9416 0
76.3582 24.8892 0
76.4474 29.1698 0
73.9003 29.2222 0
75.086 24.9156 0
76.4028 27.0297 0
75.1739 29.1962 0
73.857 27.0821 0
75.1299 27.0561 0
76.3582 24.8892 0
78.9025 24.8352 0
78.9944 29.1158 0
76.4474 29.1698 0
77.6303 24.8624 0
78.9484 26.9757 0
77.7209 29.143 0
76.4028 27.0297 0
77.6756 27.0029 0
78.9025 24.8352 0
81.4467 24.7797 0
81.5413 29.0602 0
78.9944 29.1158 0
80.1746 24.8077 0
81.494 26.9201 0
80.2679 29.0882 0
78.9484 26.9757 0
80.2212 26.9481 0
81.4467 24.7797 0
83.9908 24.7225 0
84.0881 29.003 0
81.5413 29.0602 0
82.7187 24.7513 0
84.0394 26.8629 0
82.8147 29.0318 0
81.494 26.9201 0
82.7667 26.8917 0
83.9908 24.7225 0
86.5349 24.6637 0
86.6349 28.9442 0
84.0881 29.003 0
85.2628 24.6933 0
86.5848 26.8041 0
85.3615 28.9738 0
84.0394 26.8629 0
85.3121 26.8337 0
86.5349 24.6637 0
89.0788 24.6034 0
89.1815 28.8838 0
86.6349 28.9442 0
87.8069 24.6337 0
89.1301 26.7438 0
87.9082 28.9142 0
86.5848 26.8041 0
87.8575 26.7741 0
89.0788 24.6034 0
91.6227 24.5415 0
91.728 28.8219 0
89.1815 28.8838 0
90.3508 24.5726 0
91.6753 26.6818 0
90.4548 28.853 0
89.1301 26.7438 0
90.4027 26.713 0
91.6227 24.5415 0
94.1666 24.478 0
94.2745 28.7584 0
91.728 28.8219 0
92.8947 24.5099 0
94.2205 26.6183 0
93.0013 28.7903 0
91.6753 26.6818 0
92.9479 26.6503 0
94.1666 24.478 0
96.7103 24.413 0
96.8208 28.6933 0
94.2745 28.7584 0
95.4384 24.4457 0
96.7655 26.5533 0
95.5476 28.726 0
94.2205 26.6183 0
95.493 26.586 0
96.7103 24.413 0
99.254 24.3464 0
99.367 28.6267 0
96.8208 28.6933 0
97.9821 24.3799 0
99.3105 26.4867 0
98.0939 28.6602 0
96.7655 26.5533 0
98.038 26.5202 0
99.254 24.3464 0
101.798 24.2783 0
101.913 28.5585 0
99.367 28.6267 0
100.526 24.3125 0
101.855 26.4186 0
100.64 28.5928 0
99.3105 26.4867 0
100.583 26.4528 0
101.798 24.2783 0
104.341 24.2087 0
104.459 28.4889 0
101.913 28.5585 0
103.069 24.2437 0
104.4 26.3489 0
103.186 28.5239 0
101.855 26.4186 0
103.128 26.384 0
104.341 24.2087 0
106.884 24.1376 0
107.005 28.4177 0
104.459 28.4889 0
105.613 24.1733 0
106.945 26.2778 0
105.732 28.4535 0
104.4 26.3489 0
105.672 26.3136 0
106.884 24.1376 0
109.428 24.0649 0
109.551 28.345 0
107.005 28.4177 0
108.156 24.1014 0
109.489 26.2051 0
108.278 28.3816 0
106.945 26.2778 0
108.217 26.2417 0
109.428 24.0649 0
111.971 23.9908 0
112.097 28.2709 0
109.551 28.345 0
110.699 24.0281 0
112.034 26.131 0
110.824 28.3081 0
109.489 26.2051 0
110.762 26.1683 0
111.971 23.9908 0
114.514 23.9152 0
114.642 28.1952 0
112.097 28.2709 0
113.243 23.9532 0
114.578 26.0554 0
113.37 28.2332 0
112.034 26.131 0
113.306 26.0934 0
114.514 23.9152 0
117.057 23.8381 0
117.188 28.1181 0
114.642 28.1952 0
115.786 23.8769 0
117.123 25.9783 0
115.915 28.1568 0
114.578 26.0554 0
115.85 26.017 0
117.057 23.8381 0
119.6 23.7596 0
119.733 28.0395 0
117.188 28.1181 0
118.329 23.7991 0
119.667 25.8997 0
118.461 28.079 0
117.123 25.9783 0
118.395 25.9392 0
119.6 23.7596 0
122.143 23.6796 0
122.279 27.9595 0
119.733 28.0395 0
120.872 23.7198 0
122.211 25.8197 0
121.006 27.9997 0
119.667 25.8997 0
120.939 25.8599 0
122.143 23.6796 0
124.686 23.5982 0
124.824 27.878 0
122.279 27.9595 0
123.415 23.6391 0
124.755 25.7382 0
123.551 27.9189 0
122.211 25.8197 0
123.483 25.7792 0
124.686 23.5982 0
127.229 23.5153 0
127.369 27.7951 0
124.824 27.878 0
125.957 23.5569 0
127.299 25.6554 0
126.097 27.8367 0
124.755 25.7382 0
126.027 25.697 0
127.229 23.5153 0
129.771 23.431 0
129.914 27.7107 0
127.369 27.7951 0
128.5 23.4734 0
129.843 25.571 0
128.642 27.7531 0
127.299 25.6554 0
128.571 25.6134 0
129.771 23.431 0
132.314 23.3453 0
132.459 27.625 0
129.914 27.7107 0
131.043 23.3884 0
132.387 25.4853 0
131.187 27.668 0
129.843 25.571 0
131.115 25.5284 0
132.314 23.3453 0
134.856 23.2582 0
135.004 27.5378 0
132.459 27.625 0
133.585 23.302 0
134.93 25.3982 0
133.732 27.5816 0
132.387 25.4853 0
133.658 25.4419 0
134.856 23.2582 0
137.399 23.1698 0
137.549 27.4493 0
135.004 27.5378 0
136.128 23.2142 0
137.474 25.3097 0
136.276 27.4937 0
134.93 25.3982 0
136.202 25.3541 0
137.399 23.1698 0
139.941 23.0799 0
140.093 27.3594 0
137.549 27.4493 0
138.67 23.125 0
140.017 25.2198 0
138.821 27.4045 0
137.474 25.3097 0
138.745 25.2649 0
139.941 23.0799 0
142.483 22.9886 0
142.638 27.268 0
140.093 27.3594 0
141.212 23.0344 0
142.561 25.1285 0
141.366 27.3139 0
140.017 25.2198 0
141.289 25.1743 0
142.483 22.9886 0
145.025 22.896 0
145.182 27.1754 0
142.638 27.268 0
143.754 22.9425 0
145.104 25.0358 0
143.91 27.2219 0
142.561 25.1285 0
143.832 25.0823 0
145.025 22.896 0
147.567 22.802 0
147.727 27.0813 0
145.182 27.1754 0
146.296 22.8492 0
147.647 24.9418 0
146.454 27.1285 0
145.104 25.0358 0
146.375 24.989 0
147.567 22.802 0
150.109 22.7067 0
150.271 26.986 0
147.727 27.0813 0
148.838 22.7545 0
150.19 24.8465 0
148.999 27.0338 0
147.647 24.9418 0
148.918 24.8943 0
150.109 22.7067 0
152.651 22.6101 0
152.815 26.8893 0
150.271 26.986 0
151.38 22.6586 0
152.733 24.7498 0
151.543 26.9378 0
150.19 24.8465 0
151.461 24.7983 0
152.651 22.6101 0
155.193 22.5121 0
155.359 26.7912 0
152.815 26.8893 0
153.922 22.5613 0
155.276 24.6518 0
154.087 26.8404 0
152.733 24.7498 0
154.004 24.701 0
155.193 22.5121 0
157.735 22.4128 0
157.903 26.6919 0
155.359 26.7912 0
156.464 22.4626 0
157.819 24.5525 0
156.631 26.7417 0
155.276 24.6518 0
156.547 24.6023 0
157.735 22.4128 0
160.276 22.3122 0
160.446 26.5912 0
157.903 26.6919 0
159.005 22.3627 0
160.361 24.4519 0
159.175 26.6417 0
157.819 24.5525 0
159.09 24.5023 0
160.276 22.3122 0
162.818 22.2103 0
162.99 26.4893 0
160.446 26.5912 0
161.547 22.2614 0
162.904 24.3499 0
161.718 26.5404 0
160.361 24.4519 0
161.633 24.4011 0
162.818 22.2103 0
165.359 22.1071 0
165.534 26.386 0
162.99 26.4893 0
164.088 22.1589 0
165.446 24.2467 0
164.262 26.4378 0
162.904 24.3499 0
164.175 24.2985 0
165.359 22.1071 0
167.9 22.0027 0
168.077 26.2815 0
165.534 26.386 0
166.63 22.0551 0
167.989 24.1422 0
166.805 26.3339 0
165.446 24.2467 0
166.717 24.1946 0
167.9 22.0027 0
170.442 21.897 0
170.62 26.1757 0
168.077 26.2815 0
169.171 21.95 0
170.531 24.0365 0
169.349 26.2288 0
167.989 24.1422 0
169.26 24.0895 0
170.442 21.897 0
172.983 21.79 0
173.164 26.0687 0
170.62 26.1757 0
171.712 21.8436 0
173.073 23.9295 0
171.892 26.1224 0
170.531 24.0365 0
171.802 23.9831 0
172.983 21.79 0
175.524 21.6818 0
175.707 25.9604 0
173.164 26.0687 0
174.253 21.736 0
175.615 23.8212 0
174.435 26.0147 0
173.073 23.9295 0
174.344 23.8755 0
175.524 21.6818 0
178.065 21.5723 0
178.25 25.8509 0
175.707 25.9604 0
176.794 21.6272 0
178.157 23.7117 0
176.978 25.9058 0
175.615 23.8212 0
176.886 23.7666 0
178.065 21.5723 0
180.605 21.4616 0
180.793 25.7401 0
178.25 25.8509 0
179.335 21.5171 0
180.699 23.601 0
179.521 25.7956 0
178.157 23.7117 0
179.428 23.6565 0
180.605 21.4616 0
183.146 21.3497 0
183.335 25.6281 0
180.793 25.7401 0
181.876 21.4058 0
183.241 23.4891 0
182.064 25.6843 0
180.699 23.601 0
181.97 23.5452 0
183.146 21.3497 0
185.687 21.2366 0
185.878 25.515 0
183.335 25.6281 0
184.416 21.2933 0
185.782 23.3759 0
184.607 25.5717 0
183.241 23.4891 0
184.512 23.4326 0
185.687 21.2366 0
188.227 21.1223 0
188.421 25.4006 0
185.878 25.515 0
186.957 21.1796 0
188.324 23.2616 0
187.149 25.4579 0
185.782 23.3759 0
187.053 23.3189 0
188.227 21.1223 0
190.768 21.0068 0
190.963 25.285 0
188.421 25.4006 0
189.497 21.0647 0
190.865 23.146 0
189.692 25.3429 0
188.324 23.2616 0
189.595 23.2039 0
190.768 21.0068 0
193.308 20.8901 0
193.505 25.1683 0
190.963 25.285 0
192.038 20.9486 0
193.407 23.0293 0
192.234 25.2268 0
190.865 23.146 0
192.136 23.0878 0
193.308 20.8901 0
195.848 20.7723 0
196.048 25.0503 0
193.505 25.1683 0
194.578 20.8313 0
195.948 22.9114 0
194.776 25.1095 0
193.407 23.0293 0
194.677 22.9705 0
195.848 20.7723 0
198.388 20.6532 0
198.59 24.9313 0
196.048 25.0503 0
197.118 20.7129 0
198.489 22.7924 0
197.319 24.991 0
195.948 22.9114 0
197.218 22.852 0
198.388 20.6532 0
200.929 20.5331 0
201.132 24.811 0
198.59 24.9313 0
199.658 20.5933 0
201.03 22.6722 0
199.861 24.8713 0
198.489 22.7924 0
199.76 22.7324 0
200.929 20.5331 0
203.468 20.4118 0
203.674 24.6897 0
201.132 24.811 0
202.199 20.4726 0
203.571 22.5509 0
202.403 24.7505 0
201.03 22.6722 0
202.301 22.6117 0
203.468 20.4118 0
206.008 20.2894 0
206.215 24.5672 0
203.674 24.6897 0
204.738 20.3507 0
206.112 22.4284 0
204.944 24.6286 0
203.571 22.5509 0
204.841 22.4898 0
206.008 20.2894 0
208.548 20.1658 0
208.757 24.4436 0
206.215 24.5672 0
207.278 20.2277 0
208.653 22.3048 0
207.486 24.5055 0
206.112 22.4284 0
207.382 22.3667 0
208.548 20.1658 0
211.088 20.0412 0
211.299 24.3188 0
208.757 24.4436 0
209.818 20.1036 0
211.193 22.1801 0
210.028 24.3814 0
208.653 22.3048 0
209.923 22.2426 0
211.088 20.0412 0
213.627 19.9154 0
213.84 24.193 0
211.299 24.3188 0
212.358 19.9784 0
213.734 22.0543 0
212.569 24.2561 0
211.193 22.1801 0
212.463 22.1174 0
213.627 19.9154 0
216.167 19.7885 0
216.381 24.0661 0
213.84 24.193 0
214.897 19.8521 0
216.274 21.9274 0
215.111 24.1297 0
213.734 22.0543 0
215.004 21.991 0
216.167 19.7885 0
218.706 19.6606 0
218.922 23.9381 0
216.381 24.0661 0
217.437 19.7247 0
218.814 21.7995 0
217.652 24.0022 0
216.274 21.9274 0
217.544 21.8636 0
218.706 19.6606 0
221.246 19.5316 0
221.464 23.809 0
218.922 23.9381 0
219.976 19.5962 0
221.355 21.6704 0
220.193 23.8737 0
218.814 21.7995 0
220.084 21.7351 0
221.246 19.5316 0
223.785 19.4015 0
224.005 23.6789 0
221.464 23.809 0
222.515 19.4667 0
223.895 21.5403 0
222.734 23.7441 0
221.355 21.6704 0
222.625 21.6055 0
223.785 19.4015 0
226.324 19.2704 0
226.545 23.5477 0
224.005 23.6789 0
225.054 19.3361 0
226.435 21.4092 0
225.275 23.6134 0
223.895 21.5403 0
225.165 21.4749 0
226.324 19.2704 0
228.863 19.1383 0
229.086 23.4155 0
226.545 23.5477 0
227.593 19.2045 0
228.975 21.277 0
227.816 23.4817 0
226.435 21.4092 0
227.705 21.3432 0
228.863 19.1383 0
231.402 19.0051 0
231.627 23.2822 0
229.086 23.4155 0
230.132 19.0718 0
231.514 21.1438 0
230.357 23.349 0
228.975 21.277 0
230.244 21.2105 0
231.402 19.0051 0
233.941 18.8709 0
234.167 23.148 0
231.627 23.2822 0
232.671 18.9381 0
234.054 21.0095 0
232.897 23.2152 0
231.514 21.1438 0
232.784 21.0768 0
233.941 18.8709 0
236.479 18.7356 0
236.708 23.0127 0
234.167 23.148 0
235.21 18.8034 0
236.594 20.8743 0
235.438 23.0804 0
234.054 21.0095 0
235.324 20.942 0
236.479 18.7356 0
239.018 18.5994 0
239.248 22.8764 0
236.708 23.0127 0
237.749 18.6676 0
239.133 20.738 0
237.978 22.9446 0
236.594 20.8743 0
237.863 20.8063 0
239.018 18.5994 0
241.557 18.4622 0
241.788 22.7391 0
239.248 22.8764 0
240.287 18.5309 0
241.673 20.6007 0
240.518 22.8078 0
239.133 20.738 0
240.403 20.6695 0
241.557 18.4622 0
244.095 18.324 0
244.329 22.6008 0
241.788 22.7391 0
242.826 18.3932 0
244.212 20.4625 0
243.059 22.6701 0
241.673 20.6007 0
242.942 20.5317 0
244.095 18.324 0
246.633 18.1848 0
246.869 22.4616 0
244.329 22.6008 0
245.364 18.2545 0
246.751 20.3233 0
245.599 22.5313 0
244.212 20.4625 0
245.481 20.393 0
246.633 18.1848 0
249.172 18.0446 0
249.408 22.3213 0
246.869 22.4616 0
247.903 18.1148 0
249.29 20.1831 0
248.139 22.3916 0
246.751 20.3233 0
248.021 20.2533 0
249.172 18.0446 0
251.71 17.9035 0
251.948 22.1802 0
249.408 22.3213 0
250.441 17.9742 0
251.829 20.042 0
250.678 22.2509 0
249.29 20.1831 0
250.56 20.1126 0
251.71 17.9035 0
254.248 17.7615 0
254.488 22.0381 0
251.948 22.1802 0
252.979 17.8326 0
254.368 19.8999 0
253.218 22.1092 0
251.829 20.042 0
253.098 19.971 0
254.248 17.7615 0
256.786 17.6185 0
257.027 21.895 0
254.488 22.0381 0
255.517 17.6901 0
256.907 19.7569 0
255.758 21.9667 0
254.368 19.8999 0
255.637 19.8285 0
256.786 17.6185 0
259.324 17.4746 0
259.567 21.751 0
257.027 21.895 0
258.055 17.5467 0
259.445 19.6129 0
258.297 21.8231 0
256.907 19.7569 0
258.176 19.685 0
259.324 17.4746 0
261.862 17.3298 0
262.106 21.6062 0
259.567 21.751 0
260.593 17.4023 0
261.984 19.4681 0
260.837 21.6787 0
259.445 19.6129 0
260.715 19.5406 0
261.862 17.3298 0
264.399 17.184 0
264.645 21.4604 0
262.106 21.6062 0
263.131 17.257 0
264.522 19.3223 0
263.376 21.5334 0
261.984 19.4681 0
263.253 19.3953 0
264.399 17.184 0
266.937 17.0374 0
267.185 21.3137 0
264.645 21.4604 0
265.668 17.1108 0
267.061 19.1756 0
265.915 21.3871 0
264.522 19.3223 0
265.792 19.2491 0
266.937 17.0374 0
269.474 16.8899 0
269.724 21.1661 0
267.185 21.3137 0
268.206 16.9638 0
269.599 19.0281 0
268.454 21.24 0
267.061 19.1756 0
268.33 19.102 0
269.474 16.8899 0
272.012 16.7415 0
272.263 21.0176 0
269.724 21.1661 0
270.743 16.8158 0
272.137 18.8797 0
270.993 21.092 0
269.599 19.0281 0
270.868 18.954 0
272.012 16.7415 0
274.549 16.5922 0
274.801 20.8683 0
272.263 21.0176 0
273.281 16.667 0
274.675 18.7304 0
273.532 20.9431 0
272.137 18.8797 0
273.406 18.8051 0
274.549 16.5922 0
277.087 16.4421 0
277.34 20.7182 0
274.801 20.8683 0
275.818 16.5173 0
277.213 18.5802 0
276.071 20.7933 0
274.675 18.7304 0
275.944 18.6554 0
277.087 16.4421 0
279.624 16.2912 0
279.879 20.5671 0
277.34 20.7182 0
278.355 16.3668 0
279.751 18.4292 0
278.609 20.6427 0
277.213 18.5802 0
278.482 18.5048 0
279.624 16.2912 0
282.161 16.1394 0
282.417 20.4153 0
279.879 20.5671 0
280.892 16.2154 0
282.289 18.2774 0
281.148 20.4913 0
279.751 18.4292 0
281.02 18.3534 0
282.161 16.1394 0
284.698 15.9867 0
284.955 20.2626 0
282.417 20.4153 0
283.429 16.0632 0
284.827 18.1247 0
283.686 20.339 0
282.289 18.2774 0
283.558 18.2012 0
284.698 15.9867 0
287.235 15.8333 0
287.494 20.1091 0
284.955 20.2626 0
285.966 15.9101 0
287.364 17.9713 0
286.225 20.1859 0
284.827 18.1247 0
286.095 18.0481 0
287.235 15.8333 0
289.771 15.679 0
290.032 19.9548 0
287.494 20.1091 0
288.503 15.7563 0
289.902 17.817 0
288.763 20.032 0
287.364 17.9713 0
288.633 17.8942 0
289.771 15.679 0
292.308 15.524 0
292.57 19.7996 0
290.032 19.9548 0
291.04 15.6016 0
292.439 17.6619 0
291.301 19.8773 0
289.902 17.817 0
291.17 17.7395 0
292.308 15.524 0
294.845 15.3681 0
295.108 19.6437 0
292.57 19.7996 0
293.576 15.4461 0
294.976 17.506 0
293.839 19.7218 0
292.439 17.6619 0
293.708 17.5841 0
294.845 15.3681 0
297.381 15.2115 0
297.646 19.4871 0
295.108 19.6437 0
296.113 15.2899 0
297.513 17.3494 0
296.377 19.5655 0
294.976 17.506 0
296.245 17.4278 0
297.381 15.2115 0
299.918 15.0541 0
300.183 19.3296 0
297.646 19.4871 0
298.649 15.1329 0
300.051 17.1919 0
298.915 19.4084 0
297.513 17.3494 0
298.782 17.2707 0
299.918 15.0541 0
302.454 14.8959 0
302.721 19.1714 0
300.183 19.3296 0
301.186 14.9751 0
302.588 17.0337 0
301.452 19.2506 0
300.051 17.1919 0
301.319 17.1129 0
302.454 14.8959 0
304.99 14.737 0
305.259 19.0124 0
302.721 19.1714 0
303.722 14.8166 0
305.124 16.8748 0
303.99 19.092 0
302.588 17.0337 0
303.856 16.9544 0
304.99 14.737 0
307.526 14.5774 0
307.796 18.8527 0
305.259 19.0124 0
306.258 14.6573 0
307.661 16.7151 0
306.527 18.9327 0
305.124 16.8748 0
306.393 16.7951 0
307.526 14.5774 0
310.063 14.417 0
310.333 18.6923 0
307.796 18.8527 0
308.795 14.4973 0
310.198 16.5547 0
309.065 18.7726 0
307.661 16.7151 0
308.93 16.635 0
310.063 14.417 0
312.599 14.2559 0
312.871 18.5311 0
310.333 18.6923 0
311.331 14.3365 0
312.735 16.3936 0
311.602 18.6118 0
310.198 16.5547 0
311.466 16.4743 0
312.599 14.2559 0
315.134 14.0941 0
315.408 18.3693 0
312.871 18.5311 0
313.867 14.1751 0
315.271 16.2318 0
314.139 18.4503 0
312.735 16.3936 0
314.003 16.3128 0
315.134 14.0941 0
317.67 13.9316 0
317.945 18.2067 0
315.408 18.3693 0
316.402 14.0129 0
317.807 16.0692 0
316.676 18.2881 0
315.271 16.2318 0
316.539 16.1506 0
317.67 13.9316 0
320.206 13.7684 0
320.482 18.0434 0
317.945 18.2067 0
318.938 13.8501 0
320.344 15.906 0
319.213 18.1252 0
317.807 16.0692 0
319.076 15.9877 0
320.206 13.7684 0
322.742 13.6045 0
323.018 17.8795 0
320.482 18.0434 0
321.474 13.6865 0
322.88 15.7421 0
321.75 17.9616 0
320.344 15.906 0
321.612 15.8241 0
322.742 13.6045 0
325.277 13.4399 0
325.555 17.7149 0
323.018 17.8795 0
324.01 13.5223 0
325.416 15.5775 0
324.287 17.7973 0
322.88 15.7421 0
324.148 15.6598 0
325.277 13.4399 0
327.813 13.2747 0
328.092 17.5496 0
325.555 17.7149 0
326.545 13.3574 0
327.952 15.4122 0
326.823 17.6323 0
325.416 15.5775 0
326.684 15.4949 0
327.813 13.2747 0
330.348 13.1088 0
330.628 17.3837 0
328.092 17.5496 0
329.08 13.1918 0
330.488 15.2463 0
329.36 17.4667 0
327.952 15.4122 0
329.22 15.3293 0
330.348 13.1088 0
332.884 12.9423 0
333.165 17.2171 0
330.628 17.3837 0
331.616 13.0256 0
333.024 15.0798 0
331.896 17.3005 0
330.488 15.2463 0
331.756 15.1631 0
332.884 12.9423 0
335.419 12.7751 0
335.701 17.0499 0
333.165 17.2171 0
334.151 12.8588 0
335.56 14.9126 0
334.433 17.1336 0
333.024 15.0798 0
334.292 14.9962 0
335.419 12.7751 0
337.954 12.6073 0
338.237 16.8821 0
335.701 17.0499 0
336.686 12.6913 0
338.096 14.7448 0
336.969 16.9661 0
335.56 14.9126 0
336.828 14.8287 0
337.954 12.6073 0
340.489 12.4389 0
340.773 16.7136 0
338.237 16.8821 0
339.221 12.5232 0
340.631 14.5763 0
339.505 16.7979 0
338.096 14.7448 0
339.363 14.6606 0
340.489 12.4389 0
343.024 12.2699 0
343.309 16.5446 0
340.773 16.7136 0
341.757 12.3545 0
343.167 14.4073 0
342.041 16.6292 0
340.631 14.5763 0
341.899 14.4919 0
343.024 12.2699 0
345.559 12.1003 0
345.845 16.3749 0
343.309 16.5446 0
344.291 12.1852 0
345.702 14.2377 0
344.577 16.4598 0
343.167 14.4073 0
344.434 14.3226 0
345.559 12.1003 0
348.094 11.9301 0
348.381 16.2047 0
345.845 16.3749 0
346.826 12.0153 0
348.237 14.0675 0
347.113 16.2899 0
345.702 14.2377 0
346.97 14.1527 0
348.094 11.9301 0
350.629 11.7594 0
350.917 16.0339 0
348.381 16.2047 0
349.361 11.8448 0
350.773 13.8967 0
349.649 16.1194 0
348.237 14.0675 0
349.505 13.9822 0
350.629 11.7594 0
353.163 11.588 0
353.452 15.8625 0
350.917 16.0339 0
351.896 11.6738 0
353.308 13.7253 0
352.185 15.9483 0
350.773 13.8967 0
352.04 13.8111 0
353.163 11.588 0
355.698 11.4161 0
355.988 15.6906 0
353.452 15.8625 0
354.431 11.5021 0
355.843 13.5534 0
354.72 15.7766 0
353.308 13.7253 0
354.575 13.6395 0
355.698 11.4161 0
358.232 11.2437 0
358.523 15.5181 0
355.988 15.6906 0
356.965 11.33 0
358.378 13.381 0
357.256 15.6044 0
355.843 13.5534 0
357.11 13.4673 0
358.232 11.2437 0
360.767 11.0707 0
361.059 15.3451 0
358.523 15.5181 0
359.5 11.1573 0
360.913 13.208 0
359.791 15.4317 0
358.378 13.381 0
359.645 13.2945 0
360.767 11.0707 0
363.301 10.8972 0
363.594 15.1716 0
361.059 15.3451 0
362.034 10.984 0
363.448 13.0345 0
362.326 15.2584 0
360.913 13.208 0
362.18 13.1213 0
363.301 10.8972 0
365.835 10.7232 0
366.129 14.9975 0
363.594 15.1716 0
364.568 10.8103 0
365.982 12.8604 0
364.862 15.0846 0
363.448 13.0345 0
364.715 12.9475 0
365.835 10.7232 0
368.37 10.5487 0
368.664 14.823 0
366.129 14.9975 0
367.103 10.636 0
368.517 12.6859 0
367.397 14.9103 0
365.982 12.8604 0
367.25 12.7732 0
368.37 10.5487 0
370.904 10.3736 0
371.199 14.6479 0
368.664 14.823 0
369.637 10.4612 0
371.051 12.5108 0
369.932 14.7355 0
368.517 12.6859 0
369.784 12.5984 0
370.904 10.3736 0
373.438 10.1981 0
373.734 14.4723 0
371.199 14.6479 0
372.171 10.286 0
373.586 12.3353 0
372.467 14.5602 0
371.051 12.5108 0
372.319 12.4231 0
373.438 10.1981 0
375.972 10.0221 0
376.269 14.2963 0
373.734 14.4723 0
374.705 10.1102 0
376.12 12.1593 0
375.001 14.3844 0
373.586 12.3353 0
374.853 12.2473 0
375.972 10.0221 0
378.506 9.84567 0
378.804 14.1198 0
376.269 14.2963 0
377.239 9.93396 0
378.655 11.9828 0
377.536 14.2081 0
376.12 12.1593 0
377.387 12.0711 0
378.506 9.84567 0
381.04 9.66875 0
381.338 13.9429 0
378.804 14.1198 0
379.773 9.75727 0
381.189 11.8059 0
380.071 14.0314 0
378.655 11.9828 0
379.922 11.8944 0
381.04 9.66875 0
383.573 9.49137 0
383.873 13.7655 0
381.338 13.9429 0
382.306 9.58011 0
383.723 11.6285 0
382.605 13.8542 0
381.189 11.8059 0
382.456 11.7172 0
383.573 9.49137 0
386.107 9.31355 0
386.407 13.5876 0
383.873 13.7655 0
384.84 9.40251 0
386.257 11.4506 0
385.14 13.6766 0
383.723 11.6285 0
384.99 11.5396 0
386.107 9.31355 0
388.641 9.1353 0
388.942 13.4093 0
386.407 13.5876 0
387.374 9.22448 0
388.791 11.2724 0
387.674 13.4985 0
386.257 11.4506 0
387.524 11.3616 0
388.641 9.1353 0
391.174 8.95663 0
391.476 13.2307 0
388.942 13.4093 0
389.907 9.04602 0
391.325 11.0937 0
390.209 13.3201 0
388.791 11.2724 0
390.058 11.1831 0
391.174 8.95663 0
393.708 8.77755 0
394.01 13.0515 0
391.476 13.2307 0
392.441 8.86714 0
393.859 10.9146 0
392.743 13.1411 0
391.325 11.0937 0
392.592 11.0042 0
393.708 8.77755 0
396.241 8.59807 0
396.544 12.872 0
394.01 13.0515 0
394.974 8.68786 0
396.393 10.7351 0
395.277 12.9618 0
393.859 10.9146 0
395.126 10.8249 0
396.241 8.59807 0
398.775 8.41819 0
399.078 12.6921 0
396.544 12.872 0
397.508 8.50818 0
398.926 10.5552 0
397.811 12.7821 0
396.393 10.7351 0
397.659 10.6452 0
398.775 8.41819 0
401.308 8.23793 0
401.612 12.5119 0
399.078 12.6921 0
400.041 8.32811 0
401.46 10.3749 0
400.345 12.602 0
398.926 10.5552 0
400.193 10.4651 0
401.308 8.23793 0
403.841 8.05729 0
404.146 12.3312 0
401.612 12.5119 0
402.574 8.14766 0
403.993 10.1943 0
402.879 12.4216 0
401.46 10.3749 0
402.727 10.2847 0
403.841 8.05729 0
406.374 7.8763 0
406.68 12.1502 0
404.146 12.3312 0
405.108 7.96684 0
406.527 10.0133 0
405.413 12.2407 0
403.993 10.1943 0
405.26 10.1038 0
406.374 7.8763 0
408.907 7.69495 0
409.213 11.9688 0
406.68 12.1502 0
407.641 7.78567 0
409.06 9.83192 0
407.947 12.0595 0
406.527 10.0133 0
407.794 9.92265 0
408.907 7.69495 0
411.44 7.51325 0
411.747 11.7871 0
409.213 11.9688 0
410.174 7.60414 0
411.594 9.65022 0
410.48 11.878 0
409.06 9.83192 0
410.327 9.74111 0
411.44 7.51325 0
413.973 7.33122 0
414.28 11.6051 0
411.747 11.7871 0
412.707 7.42228 0
414.127 9.46818 0
413.014 11.6961 0
411.594 9.65022 0
412.86 9.55924 0
413.973 7.33122 0
416.506 7.14887 0
416.814 11.4227 0
414.28 11.6051 0
415.24 7.24009 0
416.66 9.28582 0
415.547 11.5139 0
414.127 9.46818 0
415.393 9.37704 0
416.506 7.14887 0
419.039 6.9662 0
419.347 11.24 0
416.814 11.4227 0
417.773 7.05757 0
419.193 9.10314 0
418.081 11.3314 0
416.66 9.28582 0
417.927 9.19452 0
419.039 6.9662 0
421.572 6.78322 0
421.881 11.057 0
419.347 11.24 0
420.305 6.87475 0
421.726 8.92016 0
420.614 11.1486 0
419.193 9.10314 0
420.46 9.01169 0
421.572 6.78322 0
424.104 6.59995 0
424.414 10.8737 0
421.881 11.057 0
422.838 6.69162 0
424.259 8.73688 0
423.147 10.9654 0
421.726 8.92016 0
422.993 8.82855 0
424.104 6.59995 0
426.637 6.41639 0
426.947 10.6902 0
424.414 10.8737 0
425.371 6.50821 0
426.792 8.55332 0
425.68 10.782 0
424.259 8.73688 0
425.525 8.64513 0
426.637 6.41639 0
429.17 6.23256 0
429.48 10.5063 0
426.947 10.6902 0
427.903 6.32451 0
429.325 8.36948 0
428.213 10.5983 0
426.792 8.55332 0
428.058 8.46143 0
429.17 6.23256 0
431.702 6.04846 0
432.013 10.3222 0
429.48 10.5063 0
430.436 6.14054 0
431.857 8.18537 0
430.746 10.4143 0
429.325 8.36948 0
430.591 8.27746 0
431.702 6.04846 0
434.235 5.8641 0
434.546 10.1379 0
432.013 10.3222 0
432.968 5.95631 0
434.39 8.00101 0
433.279 10.2301 0
431.857 8.18537 0
433.124 8.09322 0
434.235 5.8641 0
436.767 5.67949 0
437.079 9.95324 0
434.546 10.1379 0
435.501 5.77183 0
436.923 7.8164 0
435.812 10.0456 0
434.39 8.00101 0
435.656 7.90873 0
436.767 5.67949 0
439.299 5.49465 0
439.611 9.76839 0
437.079 9.95324 0
438.033 5.5871 0
439.455 7.63155 0
438.345 9.86085 0
436.923 7.8164 0
438.189 7.724 0
439.299 5.49465 0
441.832 5.30957 0
442.144 9.58332 0
439.611 9.76839 0
440.565 5.40214 0
441.988 7.44647 0
440.878 9.67588 0
439.455 7.63155 0
440.722 7.53904 0
441.832 5.30957 0
444.364 5.12428 0
444.677 9.39802 0
442.144 9.58332 0
443.098 5.21696 0
444.52 7.26118 0
443.41 9.4907 0
441.988 7.44647 0
443.254 7.35385 0
444.364 5.12428 0
446.896 4.93878 0
447.209 9.21252 0
444.677 9.39802 0
445.63 5.03156 0
447.053 7.07568 0
445.943 9.3053 0
444.52 7.26118 0
445.786 7.16845 0
446.896 4.93878 0
449.428 4.75308 0
449.742 9.02682 0
447.209 9.21252 0
448.162 4.84596 0
449.585 6.88998 0
448.475 9.1197 0
447.053 7.07568 0
448.319 6.98285 0
449.428 4.75308 0
451.96 4.56719 0
452.274 8.84093 0
449.742 9.02682 0
450.694 4.66016 0
452.117 6.70408 0
451.008 8.9339 0
449.585 6.88998 0
450.851 6.79705 0
451.96 4.56719 0
454.492 4.38112 0
454.806 8.65487 0
452.274 8.84093 0
453.226 4.47418 0
454.649 6.51801 0
453.54 8.74792 0
452.117 6.70408 0
453.383 6.61107 0
454.492 4.38112 0
457.024 4.19488 0
457.338 8.46863 0
454.806 8.65487 0
455.758 4.28802 0
457.181 6.33178 0
456.072 8.56177 0
454.649 6.51801 0
455.915 6.42492 0
457.024 4.19488 0
459.556 4.00848 0
459.871 8.28223 0
457.338 8.46863 0
458.29 4.1017 0
459.713 6.14537 0
458.605 8.37545 0
457.181 6.33178 0
458.447 6.23859 0
459.556 4.00848 0
462.088 3.82193 0
462.403 8.09569 0
459.871 8.28223 0
460.822 3.91522 0
462.245 5.95882 0
461.137 8.18898 0
459.713 6.14537 0
460.979 6.05212 0
462.088 3.82193 0
464.62 3.63523 0
464.935 7.909 0
462.403 8.09569 0
463.354 3.7286 0
464.777 5.77213 0
463.669 8.00236 0
462.245 5.95882 0
463.511 5.8655 0
464.62 3.63523 0
467.151 3.44841 0
467.467 7.72218 0
464.935 7.909 0
465.886 3.54183 0
467.309 5.58531 0
466.201 7.8156 0
464.777 5.77213 0
466.043 5.67874 0
467.151 3.44841 0
469.683 3.26146 0
469.999 7.53524 0
467.467 7.72218 0
468.417 3.35495 0
469.841 5.39836 0
468.733 7.62873 0
467.309 5.58531 0
468.575 5.49185 0
469.683 3.26146 0
472.215 3.0744 0
472.53 7.34819 0
469.999 7.53524 0
470.949 3.16794 0
472.373 5.21131 0
471.265 7.44173 0
469.841 5.39836 0
471.107 5.30485 0
472.215 3.0744 0
474.746 2.88723 0
475.062 7.16104 0
472.53 7.34819 0
473.481 2.98083 0
474.904 5.02415 0
473.796 7.25463 0
472.373 5.21131 0
473.638 5.11774 0
474.746 2.88723 0
477.278 2.69998 0
477.594 6.9738 0
475.062 7.16104 0
476.012 2.79362 0
477.436 4.8369 0
476.328 7.06743 0
474.904 5.02415 0
476.17 4.93054 0
477.278 2.69998 0
479.809 2.51264 0
480.126 6.78647 0
477.594 6.9738 0
478.544 2.60632 0
479.967 4.64957 0
478.86 6.88014 0
477.436 4.8369 0
478.702 4.74324 0
479.809 2.51264 0
482.341 2.32522 0
482.657 6.59907 0
480.126 6.78647 0
481.075 2.41894 0
482.499 4.46216 0
481.391 6.69278 0
479.967 4.64957 0
481.233 4.55587 0
482.341 2.32522 0
484.872 2.13775 0
485.189 6.41161 0
482.657 6.59907 0
483.607 2.23149 0
485.03 4.27469 0
483.923 6.50535 0
482.499 4.46216 0
483.765 4.36843 0
484.872 2.13775 0
487.404 1.95022 0
487.72 6.2241 0
485.189 6.41161 0
486.138 2.04399 0
487.562 4.08717 0
486.454 6.31786 0
485.03 4.27469 0
486.296 4.18094 0
487.404 1.95022 0
489.935 1.76263 0
490.252 6.03653 0
487.72 6.2241 0
488.669 1.85643 0
490.093 3.89959 0
488.986 6.13032 0
487.562 4.08717 0
488.828 3.99339 0
489.935 1.76263 0
492.466 1.575 0
492.783 5.8489 0
490.252 6.03653 0
491.201 1.66882 0
492.625 3.71197 0
491.517 5.94272 0
490.093 3.89959 0
491.359 3.80579 0
492.466 1.575 0
494.997 1.38729 0
495.314 5.6612 0
492.783 5.8489 0
493.732 1.48116 0
495.156 3.52426 0
494.049 5.75507 0
492.625 3.71197 0
493.89 3.61812 0
494.997 1.38729 0
497.529 1.19947 0
497.846 5.47331 0
495.314 5.6612 0
496.263 1.2934 0
497.687 3.3364 0
496.58 5.56729 0
495.156 3.52426 0
496.422 3.43036 0
497.529 1.19947 0
500.06 1.01157 0
500.377 5.28465 0
497.846 5.47331 0
498.794 1.10551 0
500.218 3.14816 0
499.112 5.3792 0
497.687 3.3364 0
498.953 3.24233 0
      </DataArray>
    </Points>
    <Cells>
      <DataArray type="Int32" Name="connectivity" format="ascii">
0 1 2 3 4 5 6 7 8 
9 10 11 12 13 14 15 16 17 
18 19 20 21 22 23 24 25 26 
27 28 29 30 31 32 33 34 35 
36 37 38 39 40 41 42 43 44 
45 46 47 48 49 50 51 52 53 
54 55 56 57 58 59 60 61 62 
63 64 65 66 67 68 69 70 71 
72 73 74 75 76 77 78 79 80 
81 82 83 84 85 86 87 88 89 
90 91 92 93 94 95 96 97 98 
99 100 101 102 103 104 105 106 107 
108 109 110 111 112 113 114 115 116 
117 118 119 120 121 122 123 124 125 
126 127 128 129 130 131 132 133 134 
135 136 137 138 139 140 141 142 143 
144 145 146 147 148 149 150 151 152 
153 154 155 156 157 158 159 160 161 
162 163 164 165 166 167 168 169 170 
171 172 173 174 175 176 177 178 179 
180 181 182 183 184 185 186 187 188 
189 190 191 192 193 194 195 196 197 
198 199 200 201 202 203 204 205 206 
207 208 209 210 211 212 213 214 215 
216 217 218 219 220 221 222 223 224 
225 226 227 228 229 230 231 232 233 
234 235 236 237 238 239 240 241 242 
243 244 245 246 247 248 249 250 251 
252 253 254 255 256 257 258 259 260 
261 262 263 264 265 266 267 268 269 
270 271 272 273 274 275 276 277 278 
279 280 281 282 283 284 285 286 287 
288 289 290 291 292 293 294 295 296 
297 298 299 300 301 302 303 304 305 
306 307 308 309 310 311 312 313 314 
315 316 317 318 319 320 321 322 323 
324 325 326 327 328 329 330 331 332 
333 334 335 336 337 338 339 340 341 
342 343 344 345 346 347 348 349 350 
351 352 353 354 355 356 357 358 359 
360 361 362 363 364 365 366 367 368 
369 370 371 372 373 374 375 376 377 
378 379 380 381 382 383 384 385 386 
387 388 389 390 391 392 393 394 395 
396 397 398 399 400 401 402 403 404 
405 406 407 408 409 410 411 412 413 
414 415 416 417 418 419 420 421 422 
423 424 425 426 427 428 429 430 431 
432 433 434 435 436 437 438 439 440 
441 442 443 444 445 446 447 448 449 
450 451 452 453 454 455 456 457 458 
459 460 461 462 463 464 465 466 467 
468 469 470 471 472 473 474 475 476 
477 478 479 480 481 482 483 484 485 
486 487 488 489 490 491 492 493 494 
495 496 497 498 499 500 501 502 503 
504 505 506 507 508 509 510 511 512 
513 514 515 516 517 518 519 520 521 
522 523 524 525 526 527 528 529 530 
531 532 533 534 535 536 537 538 539 
540 541 542 543 544 545 546 547 548 
549 550 551 552 553 554 555 556 557 
558 559 560 561 562 563 564 565 566 
567 568 569 570 571 572 573 574 575 
576 577 578 579 580 581 582 583 584 
585 586 587 588 589 590 591 592 593 
594 595 596 597 598 599 600 601 602 
603 604 605 606 607 608 609 610 611 
612 613 614 615 616 617 618 619 620 
621 622 623 624 625 626 627 628 629 
630 631 632 633 634 635 636 637 638 
639 640 641 642 643 644 645 646 647 
648 649 650 651 652 653 654 655 656 
657 658 659 660 661 662 663 664 665 
666 667 668 669 670 671 672 673 674 
675 676 677 678 679 680 681 682 683 
684 685 686 687 688 689 690 691 692 
693 694 695 696 697 698 699 700 701 
702 703 704 705 706 707 708 709 710 
711 712 713 714 715 716 717 718 719 
720 721 722 723 724 725 726 727 728 
729 730 731 732 733 734 735 736 737 
738 739 740 741 742 743 744 745 746 
747 748 749 750 751 752 753 754 755 
756 757 758 759 760 761 762 763 764 
765 766 767 768 769 770 771 772 773 
774 775 776 777 778 779 780 781 782 
783 784 785 786 787 788 789 790 791 
792 793 794 795 796 797 798 799 800 
801 802 803 804 805 806 807 808 809 
810 811 812 813 814 815 816 817 818 
819 820 821 822 823 824 825 826 827 
828 829 830 831 832 833 834 835 836 
837 838 839 840 841 842 843 844 845 
846 847 848 849 850 851 852 853 854 
855 856 857 858 859 860 861 862 863 
864 865 866 867 868 869 870 871 872 
873 874 875 876 877 878 879 880 881 
882 883 884 885 886 887 888 889 890 
891 892 893 894 895 896 897 898 899 
900 901 902 903 904 905 906 907 908 
909 910 911 912 913 914 915 916 917 
918 919 920 921 922 923 924 925 926 
927 928 929 930 931 932 933 934 935 
936 937 938 939 940 941 942 943 944 
945 946 947 948 949 950 951 952 953 
954 955 956 957 958 959 960 961 962 
963 964 965 966 967 968 969 970 971 
972 973 974 975 976 977 978 979 980 
981 982 983 984 985 986 987 988 989 
990 991 992 993 994 995 996 997 998 
999 1000 1001 1002 1003 1004 1005 1006 1007 
1008 1009 1010 1011 1012 1013 1014 1015 1016 
1017 1018 1019 1020 1021 1022 1023 1024 1025 
1026 1027 1028 1029 1030 1031 1032 1033 1034 
1035 1036 1037 1038 1039 1040 1041 1042 1043 
1044 1045 1046 1047 1048 1049 1050 1051 1052 
1053 1054 1055 1056 1057 1058 1059 1060 1061 
1062 1063 1064 1065 1066 1067 1068 1069 1070 
1071 1072 1073 1074 1075 1076 1077 1078 1079 
1080 1081 1082 1083 1084 1085 1086 1087 1088 
1089 1090 1091 1092 1093 1094 1095 1096 1097 
1098 1099 1100 1101 1102 1103 1104 1105 1106 
1107 1108 1109 1110 1111 1112 1113 1114 1115 
1116 1117 1118 1119 1120 1121 1122 1123 1124 
1125 1126 1127 1128 1129 1130 1131 1132 1133 
1134 1135 1136 1137 1138 1139 1140 1141 1142 
1143 1144 1145 1146 1147 1148 1149 1150 1151 
1152 1153 1154 1155 1156 1157 1158 1159 1160 
1161 1162 1163 1164 1165 1166 1167 1168 1169 
1170 1171 1172 1173 1174 1175 1176 1177 1178 
1179 1180 1181 1182 1183 1184 1185 1186 1187 
1188 1189 1190 1191 1192 1193 1194 1195 1196 
1197 1198 1199 1200 1201 1202 1203 1204 1205 
1206 1207 1208 1209 1210 1211 1212 1213 1214 
1215 1216 1217 1218 1219 1220 1221 1222 1223 
1224 1225 1226 1227 1228 1229 1230 1231 1232 
1233 1234 1235 1236 1237 1238 1239 1240 1241 
1242 1243 1244 1245 1246 1247 1248 1249 1250 
1251 1252 1253 1254 1255 1256 1257 1258 1259 
1260 1261 1262 1263 1264 1265 1266 1267 1268 
1269 1270 1271 1272 1273 1274 1275 1276 1277 
1278 1279 1280 1281 1282 1283 1284 1285 1286 
1287 1288 1289 1290 1291 1292 1293 1294 1295 
1296 1297 1298 1299 1300 1301 1302 1303 1304 
1305 1306 1307 1308 1309 1310 1311 1312 1313 
1314 1315 1316 1317 1318 1319 1320 1321 1322 
1323 1324 1325 1326 1327 1328 1329 1330 1331 
1332 1333 1334 1335 1336 1337 1338 1339 1340 
1341 1342 1343 1344 1345 1346 1347 1348 1349 
1350 1351 1352 1353 1354 1355 1356 1357 1358 
1359 1360 1361 1362 1363 1364 1365 1366 1367 
1368 1369 1370 1371 1372 1373 1374 1375 1376 
1377 1378 1379 1380 1381 1382 1383 1384 1385 
1386 1387 1388 1389 1390 1391 1392 1393 1394 
1395 1396 1397 1398 1399 1400 1401 1402 1403 
1404 1405 1406 1407 1408 1409 1410 1411 1412 
1413 1414 1415 1416 1417 1418 1419 1420 1421 
1422 1423 1424 1425 1426 1427 1428 1429 1430 
1431 1432 1433 1434 1435 1436 1437 1438 1439 
1440 1441 1442 1443 1444 1445 1446 1447 1448 
1449 1450 1451 1452 1453 1454 1455 1456 1457 
1458 1459 1460 1461 1462 1463 1464 1465 1466 
1467 1468 1469 1470 1471 1472 1473 1474 1475 
1476 1477 1478 1479 1480 1481 1482 1483 1484 
1485 1486 1487 1488 1489 1490 1491 1492 1493 
1494 1495 1496 1497 1498 1499 1500 1501 1502 
1503 1504 1505 1506 1507 1508 1509 1510 1511 
1512 1513 1514 1515 1516 1517 1518 1519 1520 
1521 1522 1523 1524 1525 1526 1527 1528 1529 
1530 1531 1532 1533 1534 1535 1536 1537 1538 
1539 1540 1541 1542 1543 1544 1545 1546 1547 
1548 1549 1550 1551 1552 1553 1554 1555 1556 
1557 1558 1559 1560 1561 1562 1563 1564 1565 
1566 1567 1568 1569 1570 1571 1572 1573 1574 
1575 1576 1577 1578 1579 1580 1581 1582 1583 
1584 1585 1586 1587 1588 1589 1590 1591 1592 
1593 1594 1595 1596 1597 1598 1599 1600 1601 
1602 1603 1604 1605 1606 1607 1608 1609 1610 
1611 1612 1613 1614 1615 1616 1617 1618 1619 
1620 1621 1622 1623 1624 1625 1626 1627 1628 
1629 1630 1631 1632 1633 1634 1635 1636 1637 
1638 1639 1640 1641 1642 1643 1644 1645 1646 
1647 1648 1649 1650 1651 1652 1653 1654 1655 
1656 1657 1658 1659 1660 1661 1662 1663 1664 
1665 1666 1667 1668 1669 1670 1671 1672 1673 
1674 1675 1676 1677 1678 1679 1680 1681 1682 
1683 1684 1685 1686 1687 1688 1689 1690 1691 
1692 1693 1694 1695 1696 1697 1698 1699 1700 
1701 1702 1703 1704 1705 1706 1707 1708 1709 
1710 1711 1712 1713 1714 1715 1716 1717 1718 
1719 1720 1721 1722 1723 1724 1725 1726 1727 
1728 1729 1730 1731 1732 1733 1734 1735 1736 
1737 1738 1739 1740 1741 1742 1743 1744 1745 
1746 1747 1748 1749 1750 1751 1752 1753 1754 
1755 1756 1757 1758 1759 1760 1761 1762 1763 
1764 1765 1766 1767 1768 1769 1770 1771 1772 
1773 1774 1775 1776 1777 1778 1779 1780 1781 
1782 1783 1784 1785 1786 1787 1788 1789 1790 
1791 1792 1793 1794 1795 1796 1797 1798 1799 
1800 1801 1802 1803 1804 1805 1806 1807 1808 
1809 1810 1811 1812 1813 1814 1815 1816 1817 
1818 1819 1820 1821 1822 1823 1824 1825 1826 
1827 1828 1829 1830 1831 1832 1833 1834 1835 
1836 1837 1838 1839 1840 1841 1842 1843 1844 
1845 1846 1847 1848 1849 1850 1851 1852 1853 
1854 1855 1856 1857 1858 1859 1860 1861 1862 
1863 1864 1865 1866 1867 1868 1869 1870 1871 
1872 1873 1874 1875 1876 1877 1878 1879 1880 
1881 1882 1883 1884 1885 1886 1887 1888 1889 
1890 1891 1892 1893 1894 1895 1896 1897 1898 
1899 1900 1901 1902 1903 1904 1905 1906 1907 
1908 1909 1910 1911 1912 1913 1914 1915 1916 
1917 1918 1919 1920 1921 1922 1923 1924 1925 
1926 1927 1928 1929 1930 1931 1932 1933 1934 
1935 1936 1937 1938 1939 1940 1941 1942 1943 
1944 1945 1946 1947 1948 1949 1950 1951 1952 
1953 1954 1955 1956 1957 1958 1959 1960 1961 
1962 1963 1964 1965 1966 1967 1968 1969 1970 
1971 1972 1973 1974 1975 1976 1977 1978 1979 
1980 1981 1982 1983 1984 1985 1986 1987 1988 
1989 1990 1991 1992 1993 1994 1995 1996 1997 
1998 1999 2000 2001 2002 2003 2004 2005 2006 
2007 2008 2009 2010 2011 2012 2013 2014 2015 
2016 2017 2018 2019 2020 2021 2022 2023 2024 
2025 2026 2027 2028 2029 2030 2031 2032 2033 
2034 2035 2036 2037 2038 2039 2040 2041 2042 
2043 2044 2045 2046 2047 2048 2049 2050 2051 
2052 2053 2054 2055 2056 2057 2058 2059 2060 
2061 2062 2063 2064 2065 2066 2067 2068 2069 
2070 2071 2072 2073 2074 2075 2076 2077 2078 
2079 2080 2081 2082 2083 2084 2085 2086 2087 
2088 2089 2090 2091 2092 2093 2094 2095 2096 
2097 2098 2099 2100 2101 2102 2103 2104 2105 
2106 2107 2108 2109 2110 2111 2112 2113 2114 
2115 2116 2117 2118 2119 2120 2121 2122 2123 
2124 2125 2126 2127 2128 2129 2130 2131 2132 
2133 2134 2135 2136 2137 2138 2139 2140 2141 
2142 2143 2144 2145 2146 2147 2148 2149 2150 
2151 2152 2153 2154 2155 2156 2157 2158 2159 
2160 2161 2162 2163 2164 2165 2166 2167 2168 
2169 2170 2171 2172 2173 2174 2175 2176 2177 
2178 2179 2180 2181 2182 2183 2184 2185 2186 
2187 2188 2189 2190 2191 2192 2193 2194 2195 
2196 2197 2198 2199 2200 2201 2202 2203 2204 
2205 2206 2207 2208 2209 2210 2211 2212 2213 
2214 2215 2216 2217 2218 2219 2220 2221 2222 
2223 2224 2225 2226 2227 2228 2229 2230 2231 
2232 2233 2234 2235 2236 2237 2238 2239 2240 
2241 2242 2243 2244 2245 2246 2247 2248 2249 
2250 2251 2252 2253 2254 2255 2256 2257 2258 
2259 2260 2261 2262 2263 2264 2265 2266 2267 
2268 2269 2270 2271 2272 2273 2274 2275 2276 
2277 2278 2279 2280 2281 2282 2283 2284 2285 
2286 2287 2288 2289 2290 2291 2292 2293 2294 
2295 2296 2297 2298 2299 2300 2301 2302 2303 
2304 2305 2306 2307 2308 2309 2310 2311 2312 
2313 2314 2315 2316 2317 2318 2319 2320 2321 
2322 2323 2324 2325 2326 2327 2328 2329 2330 
2331 2332 2333 2334 2335 2336 2337 2338 2339 
2340 2341 2342 2343 2344 2345 2346 2347 2348 
2349 2350 2351 2352 2353 2354 2355 2356 2357 
2358 2359 2360 2361 2362 2363 2364 2365 2366 
2367 2368 2369 2370 2371 2372 2373 2374 2375 
2376 2377 2378 2379 2380 2381 2382 2383 2384 
2385 2386 2387 2388 2389 2390 2391 2392 2393 
2394 2395 2396 2397 2398 2399 2400 2401 2402 
2403 2404 2405 2406 2407 2408 2409 2410 2411 
2412 2413 2414 2415 2416 2417 2418 2419 2420 
2421 2422 2423 2424 2425 2426 2427 2428 2429 
2430 2431 2432 2433 2434 2435 2436 2437 2438 
2439 2440 2441 2442 2443 2444 2445 2446 2447 
2448 2449 2450 2451 2452 2453 2454 2455 2456 
2457 2458 2459 2460 2461 2462 2463 2464 2465 
2466 2467 2468 2469 2470 2471 2472 2473 2474 
2475 2476 2477 2478 2479 2480 2481 2482 2483 
2484 2485 2486 2487 2488 2489 2490 2491 2492 
2493 2494 2495 2496 2497 2498 2499 2500 2501 
2502 2503 2504 2505 2506 2507 2508 2509 2510 
2511 2512 2513 2514 2515 2516 2517 2518 2519 
2520 2521 2522 2523 2524 2525 2526 2527 2528 
2529 2530 2531 2532 2533 2534 2535 2536 2537 
2538 2539 2540 2541 2542 2543 2544 2545 2546 
2547 2548 2549 2550 2551 2552 2553 2554 2555 
2556 2557 2558 2559 2560 2561 2562 2563 2564 
2565 2566 2567 2568 2569 2570 2571 2572 2573 
2574 2575 2576 2577 2578 2579 2580 2581 2582 
2583 2584 2585 2586 2587 2588 2589 2590 2591 
2592 2593 2594 2595 2596 2597 2598 2599 2600 
2601 2602 2603 2604 2605 2606 2607 2608 2609 
2610 2611 2612 2613 2614 2615 2616 2617 2618 
2619 2620 2621 2622 2623 2624 2625 2626 2627 
2628 2629 2630 2631 2632 2633 2634 2635 2636 
2637 2638 2639 2640 2641 2642 2643 2644 2645 
2646 2647 2648 2649 2650 2651 2652 2653 2654 
2655 2656 2657 2658 2659 2660 2661 2662 2663 
2664 2665 2666 2667 2668 2669 2670 2671 2672 
2673 2674 2675 2676 2677 2678 2679 2680 2681 
2682 2683 2684 2685 2686 2687 2688 2689 2690 
2691 2692 2693 2694 2695 2696 2697 2698 2699 
2700 2701 2702 2703 2704 2705 2706 2707 2708 
2709 2710 2711 2712 2713 2714 2715 2716 2717 
2718 2719 2720 2721 2722 2723 2724 2725 2726 
2727 2728 2729 2730 2731 2732 2733 2734 2735 
2736 2737 2738 2739 2740 2741 2742 2743 2744 
2745 2746 2747 2748 2749 2750 2751 2752 2753 
2754 2755 2756 2757 2758 2759 2760 2761 2762 
2763 2764 2765 2766 2767 2768 2769 2770 2771 
2772 2773 2774 2775 2776 2777 2778 2779 2780 
2781 2782 2783 2784 2785 2786 2787 2788 2789 
2790 2791 2792 2793 2794 2795 2796 2797 2798 
2799 2800 2801 2802 2803 2804 2805 2806 2807 
2808 2809 2810 2811 2812 2813 2814 2815 2816 
2817 2818 2819 2820 2821 2822 2823 2824 2825 
2826 2827 2828 2829 2830 2831 2832 2833 2834 
2835 2836 2837 2838 2839 2840 2841 2842 2843 
2844 2845 2846 2847 2848 2849 2850 2851 2852 
2853 2854 2855 2856 2857 2858 2859 2860 2861 
2862 2863 2864 2865 2866 2867 2868 2869 2870 
2871 2872 2873 2874 2875 2876 2877 2878 2879 
2880 2881 2882 2883 2884 2885 2886 2887 2888 
2889 2890 2891 2892 2893 2894 2895 2896 2897 
2898 2899 2900 2901 2902 2903 2904 2905 2906 
2907 2908 2909 2910 2911 2912 2913 2914 2915 
2916 2917 2918 2919 2920 2921 2922 2923 2924 
2925 2926 2927 2928 2929 2930 2931 2932 2933 
2934 2935 2936 2937 2938 2939 2940 2941 2942 
2943 2944 2945 2946 2947 2948 2949 2950 2951 
2952 2953 2954 2955 2956 2957 2958 2959 2960 
2961 2962 2963 2964 2965 2966 2967 2968 2969 
2970 2971 2972 2973 2974 2975 2976 2977 2978 
2979 2980 2981 2982 2983 2984 2985 2986 2987 
2988 2989 2990 2991 2992 2993 2994 2995 2996 
2997 2998 2999 3000 3001 3002 3003 3004 3005 
3006 3007 3008 3009 3010 3011 3012 3013 3014 
3015 3016 3017 3018 3019 3020 3021 3022 3023 
3024 3025 3026 3027 3028 3029 3030 3031 3032 
3033 3034 3035 3036 3037 3038 3039 3040 3041 
3042 3043 3044 3045 3046 3047 3048 3049 3050 
3051 3052 3053 3054 3055 3056 3057 3058 3059 
3060 3061 3062 3063 3064 3065 3066 3067 3068 
3069 3070 3071 3072 3073 3074 3075 3076 3077 
3078 3079 3080 3081 3082 3083 3084 3085 3086 
3087 3088 3089 3090 3091 3092 3093 3094 3095 
3096 3097 3098 3099 3100 3101 3102 3103 3104 
3105 3106 3107 3108 3109 3110 3111 3112 3113 
3114 3115 3116 3117 3118 3119 3120 3121 3122 
3123 3124 3125 3126 3127 3128 3129 3130 3131 
3132 3133 3134 3135 3136 3137 3138 3139 3140 
3141 3142 3143 3144 3145 3146 3147 3148 3149 
3150 3151 3152 3153 3154 3155 3156 3157 3158 
3159 3160 3161 3162 3163 3164 3165 3166 3167 
3168 3169 3170 3171 3172 3173 3174 3175 3176 
3177 3178 3179 3180 3181 3182 3183 3184 3185 
3186 3187 3188 3189 3190 3191 3192 3193 3194 
3195 3196 3197 3198 3199 3200 3201 3202 3203 
3204 3205 3206 3207 3208 3209 3210 3211 3212 
3213 3214 3215 3216 3217 3218 3219 3220 3221 
3222 3223 3224 3225 3226 3227 3228 3229 3230 
3231 3232 3233 3234 3235 3236 3237 3238 3239 
3240 3241 3242 3243 3244 3245 3246 3247 3248 
3249 3250 3251 3252 3253 3254 3255 3256 3257 
3258 3259 3260 3261 3262 3263 3264 3265 3266 
3267 3268 3269 3270 3271 3272 3273 3274 3275 
3276 3277 3278 3279 3280 3281 3282 3283 3284 
3285 3286 3287 3288 3289 3290 3291 3292 3293 
3294 3295 3296 3297 3298 3299 3300 3301 3302 
3303 3304 3305 3306 3307 3308 3309 3310 3311 
3312 3313 3314 3315 3316 3317 3318 3319 3320 
3321 3322 3323 3324 3325 3326 3327 3328 3329 
3330 3331 3332 3333 3334 3335 3336 3337 3338 
3339 3340 3341 3342 3343 3344 3345 3346 3347 
3348 3349 3350 3351 3352 3353 3354 3355 3356 
3357 3358 3359 3360 3361 3362 3363 3364 3365 
3366 3367 3368 3369 3370 3371 3372 3373 3374 
3375 3376 3377 3378 3379 3380 3381 3382 3383 
3384 3385 3386 3387 3388 3389 3390 3391 3392 
3393 3394 3395 3396 3397 3398 3399 3400 3401 
3402 3403 3404 3405 3406 3407 3408 3409 3410 
3411 3412 3413 3414 3415 3416 3417 3418 3419 
3420 3421 3422 3423 3424 3425 3426 3427 3428 
3429 3430 3431 3432 3433 3434 3435 3436 3437 
3438 3439 3440 3441 3442 3443 3444 3445 3446 
3447 3448 3449 3450 3451 3452 3453 3454 3455 
3456 3457 3458 3459 3460 3461 3462 3463 3464 
3465 3466 3467 3468 3469 3470 3471 3472 3473 
3474 3475 3476 3477 3478 3479 3480 3481 3482 
3483 3484 3485 3486 3487 3488 3489 3490 3491 
3492 3493 3494 3495 3496 3497 3498 3499 3500 
3501 3502 3503 3504 3505 3506 3507 3508 3509 
3510 3511 3512 3513 3514 3515 3516 3517 3518 
3519 3520 3521 3522 3523 3524 3525 3526 3527 
3528 3529 3530 3531 3532 3533 3534 3535 3536 
3537 3538 3539 3540 3541 3542 3543 3544 3545 
3546 3547 3548 3549 3550 3551 3552 3553 3554 
3555 3556 3557 3558 3559 3560 3561 3562 3563 
3564 3565 3566 3567 3568 3569 3570 3571 3572 
3573 3574 3575 3576 3577 3578 3579 3580 3581 
3582 3583 3584 3585 3586 3587 3588 3589 3590 
3591 3592 3593 3594 3595 3596 3597 3598 3599 
3600 3601 3602 3603 3604 3605 3606 3607 3608 
3609 3610 3611 3612 3613 3614 3615 3616 3617 
3618 3619 3620 3621 3622 3623 3624 3625 3626 
3627 3628 3629 3630 3631 3632 3633 3634 3635 
3636 3637 3638 3639 3640 3641 3642 3643 3644 
3645 3646 3647 3648 3649 3650 3651 3652 3653 
3654 3655 3656 3657 3658 3659 3660 3661 3662 
3663 3664 3665 3666 3667 3668 3669 3670 3671 
3672 3673 3674 3675 3676 3677 3678 3679 3680 
3681 3682 3683 3684 3685 3686 3687 3688 3689 
3690 3691 3692 3693 3694 3695 3696 3697 3698 
3699 3700 3701 3702 3703 3704 3705 3706 3707 
3708 3709 3710 3711 3712 3713 3714 3715 3716 
3717 3718 3719 3720 3721 3722 3723 3724 3725 
3726 3727 3728 3729 3730 3731 3732 3733 3734 
3735 3736 3737 3738 3739 3740 3741 3742 3743 
3744 3745 3746 3747 3748 3749 3750 3751 3752 
3753 3754 3755 3756 3757 3758 3759 3760 3761 
3762 3763 3764 3765 3766 3767 3768 3769 3770 
3771 3772 3773 3774 3775 3776 3777 3778 3779 
3780 3781 3782 3783 3784 3785 3786 3787 3788 
3789 3790 3791 3792 3793 3794 3795 3796 3797 
3798 3799 3800 3801 3802 3803 3804 3805 3806 
3807 3808 3809 3810 3811 3812 3813 3814 3815 
3816 3817 3818 3819 3820 3821 3822 3823 3824 
3825 3826 3827 3828 3829 3830 3831 3832 3833 
3834 3835 3836 3837 3838 3839 3840 3841 3842 
3843 3844 3845 3846 3847 3848 3849 3850 3851 
3852 3853 3854 3855 3856 3857 3858 3859 3860 
3861 3862 3863 3864 3865 3866 3867 3868 3869 
3870 3871 3872 3873 3874 3875 3876 3877 3878 
3879 3880 3881 3882 3883 3884 3885 3886 3887 
3888 3889 3890 3891 3892 3893 3894 3895 3896 
3897 3898 3899 3900 3901 3902 3903 3904 3905 
3906 3907 3908 3909 3910 3911 3912 3913 3914 
3915 3916 3917 3918 3919 3920 3921 3922 3923 
3924 3925 3926 3927 3928 3929 3930 3931 3932 
3933 3934 3935 3936 3937 3938 3939 3940 3941 
3942 3943 3944 3945 3946 3947 3948 3949 3950 
3951 3952 3953 3954 3955 3956 3957 3958 3959 
3960 3961 3962 3963 3964 3965 3966 3967 3968 
3969 3970 3971 3972 3973 3974 3975 3976 3977 
3978 3979 3980 3981 3982 3983 3984 3985 3986 
3987 3988 3989 3990 3991 3992 3993 3994 3995 
3996 3997 3998 3999 4000 4001 4002 4003 4004 
4005 4006 4007 4008 4009 4010 4011 4012 4013 
4014 4015 4016 4017 4018 4019 4020 4021 4022 
4023 4024 4025 4026 4027 4028 4029 4030 4031 
4032 4033 4034 4035 4036 4037 4038 4039 4040 
4041 4042 4043 4044 4045 4046 4047 4048 4049 
4050 4051 4052 4053 4054 4055 4056 4057 4058 
4059 4060 4061 4062 4063 4064 4065 4066 4067 
4068 4069 4070 4071 4072 4073 4074 4075 4076 
4077 4078 4079 4080 4081 4082 4083 4084 4085 
4086 4087 4088 4089 4090 4091 4092 4093 4094 
4095 4096 4097 4098 4099 4100 4101 4102 4103 
4104 4105 4106 4107 4108 4109 4110 4111 4112 
4113 4114 4115 4116 4117 4118 4119 4120 4121 
4122 4123 4124 4125 4126 4127 4128 4129 4130 
4131 4132 4133 4134 4135 4136 4137 4138 4139 
4140 4141 4142 4143 4144 4145 4146 4147 4148 
4149 4150 4151 4152 4153 4154 4155 4156 4157 
4158 4159 4160 4161 4162 4163 4164 4165 4166 
4167 4168 4169 4170 4171 4172 4173 4174 4175 
4176 4177 4178 4179 4180 4181 4182 4183 4184 
4185 4186 4187 4188 4189 4190 4191 4192 4193 
4194 4195 4196 4197 4198 4199 4200 4201 4202 
4203 4204 4205 4206 4207 4208 4209 4210 4211 
4212 4213 4214 4215 4216 4217 4218 4219 4220 
4221 4222 4223 4224 4225 4226 4227 4228 4229 
4230 4231 4232 4233 4234 4235 4236 4237 4238 
4239 4240 4241 4242 4243 4244 4245 4246 4247 
4248 4249 4250 4251 4252 4253 4254 4255 4256 
4257 4258 4259 4260 4261 4262 4263 4264 4265 
4266 4267 4268 4269 4270 4271 4272 4273 4274 
4275 4276 4277 4278 4279 4280 4281 4282 4283 
4284 4285 4286 4287 4288 4289 4290 4291 4292 
4293 4294 4295 4296 4297 4298 4299 4300 4301 
4302 4303 4304 4305 4306 4307 4308 4309 4310 
4311 4312 4313 4314 4315 4316 4317 4318 4319 
4320 4321 4322 4323 4324 4325 4326 4327 4328 
4329 4330 4331 4332 4333 4334 4335 4336 4337 
4338 4339 4340 4341 4342 4343 4344 4345 4346 
4347 4348 4349 4350 4351 4352 4353 4354 4355 
4356 4357 4358 4359 4360 4361 4362 4363 4364 
4365 4366 4367 4368 4369 4370 4371 4372 4373 
4374 4375 4376 4377 4378 4379 4380 4381 4382 
4383 4384 4385 4386 4387 4388 4389 4390 4391 
4392 4393 4394 4395 4396 4397 4398 4399 4400 
4401 4402 4403 4404 4405 4406 4407 4408 4409 
4410 4411 4412 4413 4414 4415 4416 4417 4418 
4419 4420 4421 4422 4423 4424 4425 4426 4427 
4428 4429 4430 4431 4432 4433 4434 4435 4436 
4437 4438 4439 4440 4441 4442 4443 4444 4445 
4446 4447 4448 4449 4450 4451 4452 4453 4454 
4455 4456 4457 4458 4459 4460 4461 4462 4463 
4464 4465 4466 4467 4468 4469 4470 4471 4472 
4473 4474 4475 4476 4477 4478 4479 4480 4481 
4482 4483 4484 4485 4486 4487 4488 4489 4490 
4491 4492 4493 4494 4495 4496 4497 4498 4499 
4500 4501 4502 4503 4504 4505 4506 4507 4508 
4509 4510 4511 4512 4513 4514 4515 4516 4517 
4518 4519 4520 4521 4522 4523 4524 4525 4526 
4527 4528 4529 4530 4531 4532 4533 4534 4535 
4536 4537 4538 4539 4540 4541 4542 4543 4544 
4545 4546 4547 4548 4549 4550 4551 4552 4553 
4554 4555 4556 4557 4558 4559 4560 4561 4562 
4563 4564 4565 4566 4567 4568 4569 4570 4571 
4572 4573 4574 4575 4576 4577 4578 4579 4580 
4581 4582 4583 4584 4585 4586 4587 4588 4589 
4590 4591 4592 4593 4594 4595 4596 4597 4598 
4599 4600 4601 4602 4603 4604 4605 4606 4607 
4608 4609 4610 4611 4612 4613 4614 4615 4616 
4617 4618 4619 4620 4621 4622 4623 4624 4625 
4626 4627 4628 4629 4630 4631 4632 4633 4634 
4635 4636 4637 4638 4639 4640 4641 4642 4643 
4644 4645 4646 4647 4648 4649 4650 4651 4652 
4653 4654 4655 4656 4657 4658 4659 4660 4661 
4662 4663 4664 4665 4666 4667 4668 4669 4670 
4671 4672 4673 4674 4675 4676 4677 4678 4679 
4680 4681 4682 4683 4684 4685 4686 4687 4688 
4689 4690 4691 4692 4693 4694 4695 4696 4697 
4698 4699 4700 4701 4702 4703 4704 4705 4706 
4707 4708 4709 4710 4711 4712 4713 4714 4715 
4716 4717 4718 4719 4720 4721 4722 4723 4724 
4725 4726 4727 4728 4729 4730 4731 4732 4733 
4734 4735 4736 4737 4738 4739 4740 4741 4742 
4743 4744 4745 4746 4747 4748 4749 4750 4751 
4752 4753 4754 4755 4756 4757 4758 4759 4760 
4761 4762 4763 4764 4765 4766 4767 4768 4769 
4770 4771 4772 4773 4774 4775 4776 4777 4778 
4779 4780 4781 4782 4783 4784 4785 4786 4787 
4788 4789 4790 4791 4792 4793 4794 4795 4796 
4797 4798 4799 4800 4801 4802 4803 4804 4805 
4806 4807 4808 4809 4810 4811 4812 4813 4814 
4815 4816 4817 4818 4819 4820 4821 4822 4823 
4824 4825 4826 4827 4828 4829 4830 4831 4832 
4833 4834 4835 4836 4837 4838 4839 4840 4841 
4842 4843 4844 4845 4846 4847 4848 4849 4850 
4851 4852 4853 4854 4855 4856 4857 4858 4859 
4860 4861 4862 4863 4864 4865 4866 4867 4868 
4869 4870 4871 4872 4873 4874 4875 4876 4877 
4878 4879 4880 4881 4882 4883 4884 4885 4886 
4887 4888 4889 4890 4891 4892 4893 4894 4895 
4896 4897 4898 4899 4900 4901 4902 4903 4904 
4905 4906 4907 4908 4909 4910 4911 4912 4913 
4914 4915 4916 4917 4918 4919 4920 4921 4922 
4923 4924 4925 4926 4927 4928 4929 4930 4931 
4932 4933 4934 4935 4936 4937 4938 4939 4940 
4941 4942 4943 4944 4945 4946 4947 4948 4949 
4950 4951 4952 4953 4954 4955 4956 4957 4958 
4959 4960 4961 4962 4963 4964 4965 4966 4967 
4968 4969 4970 4971 4972 4973 4974 4975 4976 
4977 4978 4979 4980 4981 4982 4983 4984 4985 
4986 4987 4988 4989 4990 4991 4992 4993 4994 
4995 4996 4997 4998 4999 5000 5001 5002 5003 
5004 5005 5006 5007 5008 5009 5010 5011 5012 
5013 5014 5015 5016 5017 5018 5019 5020 5021 
5022 5023 5024 5025 5026 5027 5028 5029 5030 
5031 5032 5033 5034 5035 5036 5037 5038 5039 
5040 5041 5042 5043 5044 5045 5046 5047 5048 
5049 5050 5051 5052 5053 5054 5055 5056 5057 
5058 5059 5060 5061 5062 5063 5064 5065 5066 
5067 5068 5069 5070 5071 5072 5073 5074 5075 
5076 5077 5078 5079 5080 5081 5082 5083 5084 
5085 5086 5087 5088 5089 5090 5091 5092 5093 
5094 5095 5096 5097 5098 5099 5100 5101 5102 
5103 5104 5105 5106 5107 5108 5109 5110 5111 
5112 5113 5114 5115 5116 5117 5118 5119 5120 
5121 5122 5123 5124 5125 5126 5127 5128 5129 
5130 5131 5132 5133 5134 5135 5136 5137 5138 
5139 5140 5141 5142 5143 5144 5145 5146 5147 
5148 5149 5150 5151 5152 5153 5154 5155 5156 
5157 5158 5159 5160 5161 5162 5163 5164 5165 
5166 5167 5168 5169 5170 5171 5172 5173 5174 
5175 5176 5177 5178 5179 5180 5181 5182 5183 
5184 5185 5186 5187 5188 5189 5190 5191 5192 
5193 5194 5195 5196 5197 5198 5199 5200 5201 
5202 5203 5204 5205 5206 5207 5208 5209 5210 
5211 5212 5213 5214 5215 5216 5217 5218 5219 
5220 5221 5222 5223 5224 5225 5226 5227 5228 
5229 5230 5231 5232 5233 5234 5235 5236 5237 
5238 5239 5240 5241 5242 5243 5244 5245 5246 
5247 5248 5249 5250 5251 5252 5253 5254 5255 
5256 5257 5258 5259 5260 5261 5262 5263 5264 
5265 5266 5267 5268 5269 5270 5271 5272 5273 
5274 5275 5276 5277 5278 5279 5280 5281 5282 
5283 5284 5285 5286 5287 5288 5289 5290 5291 
5292 5293 5294 5295 5296 5297 5298 5299 5300 
5301 5302 5303 5304 5305 5306 5307 5308 5309 
5310 5311 5312 5313 5314 5315 5316 5317 5318 
5319 5320 5321 5322 5323 5324 5325 5326 5327 
5328 5329 5330 5331 5332 5333 5334 5335 5336 
5337 5338 5339 5340 5341 5342 5343 5344 5345 
5346 5347 5348 5349 5350 5351 5352 5353 5354 
5355 5356 5357 5358 5359 5360 5361 5362 5363 
5364 5365 5366 5367 5368 5369 5370 5371 5372 
5373 5374 5375 5376 5377 5378 5379 5380 5381 
5382 5383 5384 5385 5386 5387 5388 5389 5390 
5391 5392 5393 5394 5395 5396 5397 5398 5399 
5400 5401 5402 5403 5404 5405 5406 5407 5408 
5409 5410 5411 5412 5413 5414 5415 5416 5417 
5418 5419 5420 5421 5422 5423 5424 5425 5426 
5427 5428 5429 5430 5431 5432 5433 5434 5435 
5436 5437 5438 5439 5440 5441 5442 5443 5444 
5445 5446 5447 5448 5449 5450 5451 5452 5453 
5454 5455 5456 5457 5458 5459 5460 5461 5462 
5463 5464 5465 5466 5467 5468 5469 5470 5471 
5472 5473 5474 5475 5476 5477 5478 5479 5480 
5481 5482 5483 5484 5485 5486 5487 5488 5489 
5490 5491 5492 5493 5494 5495 5496 5497 5498 
5499 5500 5501 5502 5503 5504 5505 5506 5507 
5508 5509 5510 5511 5512 5513 5514 5515 5516 
5517 5518 5519 5520 5521 5522 5523 5524 5525 
5526 5527 5528 5529 5530 5531 5532 5533 5534 
5535 5536 5537 5538 5539 5540 5541 5542 5543 
5544 5545 5546 5547 5548 5549 5550 5551 5552 
5553 5554 5555 5556 5557 5558 5559 5560 5561 
5562 5563 5564 5565 5566 5567 5568 5569 5570 
5571 5572 5573 5574 5575 5576 5577 5578 5579 
5580 5581 5582 5583 5584 5585 5586 5587 5588 
5589 5590 5591 5592 5593 5594 5595 5596 5597 
5598 5599 5600 5601 5602 5603 5604 5605 5606 
5607 5608 5609 5610 5611 5612 5613 5614 5615 
5616 5617 5618 5619 5620 5621 5622 5623 5624 
5625 5626 5627 5628 5629 5630 5631 5632 5633 
5634 5635 5636 5637 5638 5639 5640 5641 5642 
5643 5644 5645 5646 5647 5648 5649 5650 5651 
5652 5653 5654 5655 5656 5657 5658 5659 5660 
5661 5662 5663 5664 5665 5666 5667 5668 5669 
5670 5671 5672 5673 5674 5675 5676 5677 5678 
5679 5680 5681 5682 5683 5684 5685 5686 5687 
5688 5689 5690 5691 5692 5693 5694 5695 5696 
5697 5698 5699 5700 5701 5702 5703 5704 5705 
5706 5707 5708 5709 5710 5711 5712 5713 5714 
5715 5716 5717 5718 5719 5720 5721 5722 5723 
5724 5725 5726 5727 5728 5729 5730 5731 5732 
5733 5734 5735 5736 5737 5738 5739 5740 5741 
5742 5743 5744 5745 5746 5747 5748 5749 5750 
5751 5752 5753 5754 5755 5756 5757 5758 5759 
5760 5761 5762 5763 5764 5765 5766 5767 5768 
5769 5770 5771 5772 5773 5774 5775 5776 5777 
5778 5779 5780 5781 5782 5783 5784 5785 5786 
5787 5788 5789 5790 5791 5792 5793 5794 5795 
5796 5797 5798 5799 5800 5801 5802 5803 5804 
5805 5806 5807 5808 5809 5810 5811 5812 5813 
5814 5815 5816 5817 5818 5819 5820 5821 5822 
5823 5824 5825 5826 5827 5828 5829 5830 5831 
5832 5833 5834 5835 5836 5837 5838 5839 5840 
5841 5842 5843 5844 5845 5846 5847 5848 5849 
5850 5851 5852 5853 5854 5855 5856 5857 5858 
5859 5860 5861 5862 5863 5864 5865 5866 5867 
5868 5869 5870 5871 5872 5873 5874 5875 5876 
5877 5878 5879 5880 5881 5882 5883 5884 5885 
5886 5887 5888 5889 5890 5891 5892 5893 5894 
5895 5896 5897 5898 5899 5900 5901 5902 5903 
5904 5905 5906 5907 5908 5909 5910 5911 5912 
5913 5914 5915 5916 5917 5918 5919 5920 5921 
5922 5923 5924 5925 5926 5927 5928 5929 5930 
5931 5932 5933 5934 5935 5936 5937 5938 5939 
5940 5941 5942 5943 5944 5945 5946 5947 5948 
5949 5950 5951 5952 5953 5954 5955 5956 5957 
5958 5959 5960 5961 5962 5963 5964 5965 5966 
5967 5968 5969 5970 5971 5972 5973 5974 5975 
5976 5977 5978 5979 5980 5981 5982 5983 5984 
5985 5986 5987 5988 5989 5990 5991 5992 5993 
5994 5995 5996 5997 5998 5999 6000 6001 6002 
6003 6004 6005 6006 6007 6008 6009 6010 6011 
6012 6013 6014 6015 6016 6017 6018 6019 6020 
6021 6022 6023 6024 6025 6026 6027 6028 6029 
6030 6031 6032 6033 6034 6035 6036 6037 6038 
6039 6040 6041 6042 6043 6044 6045 6046 6047 
6048 6049 6050 6051 6052 6053 6054 6055 6056 
6057 6058 6059 6060 6061 6062 6063 6064 6065 
6066 6067 6068 6069 6070 6071 6072 6073 6074 
6075 6076 6077 6078 6079 6080 6081 6082 6083 
6084 6085 6086 6087 6088 6089 6090 6091 6092 
6093 6094 6095 6096 6097 6098 6099 6100 6101 
6102 6103 6104 6105 6106 6107 6108 6109 6110 
6111 6112 6113 6114 6115 6116 6117 6118 6119 
6120 6121 6122 6123 6124 6125 6126 6127 6128 
6129 6130 6131 6132 6133 6134 6135 6136 6137 
6138 6139 6140 6141 6142 6143 6144 6145 6146 
6147 6148 6149 6150 6151 6152 6153 6154 6155 
6156 6157 6158 6159 6160 6161 6162 6163 6164 
6165 6166 6167 6168 6169 6170 6171 6172 6173 
6174 6175 6176 6177 6178 6179 6180 6181 6182 
6183 6184 6185 6186 6187 6188 6189 6190 6191 
6192 6193 6194 6195 6196 6197 6198 6199 6200 
6201 6202 6203 6204 6205 6206 6207 6208 6209 
6210 6211 6212 6213 6214 6215 6216 6217 6218 
6219 6220 6221 6222 6223 6224 6225 6226 6227 
6228 6229 6230 6231 6232 6233 6234 6235 6236 
6237 6238 6239 6240 6241 6242 6243 6244 6245 
6246 6247 6248 6249 6250 6251 6252 6253 6254 
6255 6256 6257 6258 6259 6260 6261 6262 6263 
6264 6265 6266 6267 6268 6269 6270 6271 6272 
6273 6274 6275 6276 6277 6278 6279 6280 6281 
6282 6283 6284 6285 6286 6287 6288 6289 6290 
6291 6292 6293 6294 6295 6296 6297 6298 6299 
6300 6301 6302 6303 6304 6305 6306 6307 6308 
6309 6310 6311 6312 6313 6314 6315 6316 6317 
6318 6319 6320 6321 6322 6323 6324 6325 6326 
6327 6328 6329 6330 6331 6332 6333 6334 6335 
6336 6337 6338 6339 6340 6341 6342 6343 6344 
6345 6346 6347 6348 6349 6350 6351 6352 6353 
6354 6355 6356 6357 6358 6359 6360 6361 6362 
6363 6364 6365 6366 6367 6368 6369 6370 6371 
6372 6373 6374 6375 6376 6377 6378 6379 6380 
6381 6382 6383 6384 6385 6386 6387 6388 6389 
6390 6391 6392 6393 6394 6395 6396 6397 6398 
6399 6400 6401 6402 6403 6404 6405 6406 6407 
6408 6409 6410 6411 6412 6413 6414 6415 6416 
6417 6418 6419 6420 6421 6422 6423 6424 6425 
6426 6427 6428 6429 6430 6431 6432 6433 6434 
6435 6436 6437 6438 6439 6440 6441 6442 6443 
6444 6445 6446 6447 6448 6449 6450 6451 6452 
6453 6454 6455 6456 6457 6458 6459 6460 6461 
6462 6463 6464 6465 6466 6467 6468 6469 6470 
6471 6472 6473 6474 6475 6476 6477 6478 6479 
6480 6481 6482 6483 6484 6485 6486 6487 6488 
6489 6490 6491 6492 6493 6494 6495 6496 6497 
6498 6499 6500 6501 6502 6503 6504 6505 6506 
6507 6508 6509 6510 6511 6512 6513 6514 6515 
6516 6517 6518 6519 6520 6521 6522 6523 6524 
6525 6526 6527 6528 6529 6530 6531 6532 6533 
6534 6535 6536 6537 6538 6539 6540 6541 6542 
6543 6544 6545 6546 6547 6548 6549 6550 6551 
6552 6553 6554 6555 6556 6557 6558 6559 6560 
6561 6562 6563 6564 6565 6566 6567 6568 6569 
6570 6571 6572 6573 6574 6575 6576 6577 6578 
6579 6580 6581 6582 6583 6584 6585 6586 6587 
6588 6589 6590 6591 6592 6593 6594 6595 6596 
6597 6598 6599 6600 6601 6602 6603 6604 6605 
6606 6607 6608 6609 6610 6611 6612 6613 6614 
6615 6616 6617 6618 6619 6620 6621 6622 6623 
6624 6625 6626 6627 6628 6629 6630 6631 6632 
6633 6634 6635 6636 6637 6638 6639 6640 6641 
6642 6643 6644 6645 6646 6647 6648 6649 6650 
6651 6652 6653 6654 6655 6656 6657 6658 6659 
6660 6661 6662 6663 6664 6665 6666 6667 6668 
6669 6670 6671 6672 6673 6674 6675 6676 6677 
6678 6679 6680 6681 6682 6683 6684 6685 6686 
6687 6688 6689 6690 6691 6692 6693 6694 6695 
6696 6697 6698 6699 6700 6701 6702 6703 6704 
6705 6706 6707 6708 6709 6710 6711 6712 6713 
6714 6715 6716 6717 6718 6719 6720 6721 6722 
6723 6724 6725 6726 6727 6728 6729 6730 6731 
6732 6733 6734 6735 6736 6737 6738 6739 6740 
6741 6742 6743 6744 6745 6746 6747 6748 6749 
6750 6751 6752 6753 6754 6755 6756 6757 6758 
6759 6760 6761 6762 6763 6764 6765 6766 6767 
6768 6769 6770 6771 6772 6773 6774 6775 6776 
6777 6778 6779 6780 6781 6782 6783 6784 6785 
6786 6787 6788 6789 6790 6791 6792 6793 6794 
6795 6796 6797 6798 6799 6800 6801 6802 6803 
6804 6805 6806 6807 6808 6809 6810 6811 6812 
6813 6814 6815 6816 6817 6818 6819 6820 6821 
6822 6823 6824 6825 6826 6827 6828 6829 6830 
6831 6832 6833 6834 6835 6836 6837 6838 6839 
6840 6841 6842 6843 6844 6845 6846 6847 6848 
6849 6850 6851 6852 6853 6854 6855 6856 6857 
6858 6859 6860 6861 6862 6863 6864 6865 6866 
6867 6868 6869 6870 6871 6872 6873 6874 6875 
6876 6877 6878 6879 6880 6881 6882 6883 6884 
6885 6886 6887 6888 6889 6890 6891 6892 6893 
6894 6895 6896 6897 6898 6899 6900 6901 6902 
6903 6904 6905 6906 6907 6908 6909 6910 6911 
6912 6913 6914 6915 6916 6917 6918 6919 6920 
6921 6922 6923 6924 6925 6926 6927 6928 6929 
6930 6931 6932 6933 6934 6935 6936 6937 6938 
6939 6940 6941 6942 6943 6944 6945 6946 6947 
6948 6949 6950 6951 6952 6953 6954 6955 6956 
6957 6958 6959 6960 6961 6962 6963 6964 6965 
6966 6967 6968 6969 6970 6971 6972 6973 6974 
6975 6976 6977 6978 6979 6980 6981 6982 6983 
6984 6985 6986 6987 6988 6989 6990 6991 6992 
6993 6994 6995 6996 6997 6998 6999 7000 7001 
7002 7003 7004 7005 7006 7007 7008 7009 7010 
7011 7012 7013 7014 7015 7016 7017 7018 7019 
7020 7021 7022 7023 7024 7025 7026 7027 7028 
7029 7030 7031 7032 7033 7034 7035 7036 7037 
7038 7039 7040 7041 7042 7043 7044 7045 7046 
7047 7048 7049 7050 7051 7052 7053 7054 7055 
7056 7057 7058 7059 7060 7061 7062 7063 7064 
7065 7066 7067 7068 7069 7070 7071 7072 7073 
7074 7075 7076 7077 7078 7079 7080 7081 7082 
7083 7084 7085 7086 7087 7088 7089 7090 7091 
7092 7093 7094 7095 7096 7097 7098 7099 7100 
7101 7102 7103 7104 7105 7106 7107 7108 7109 
7110 7111 7112 7113 7114 7115 7116 7117 7118 
7119 7120 7121 7122 7123 7124 7125 7126 7127 
7128 7129 7130 7131 7132 7133 7134 7135 7136 
7137 7138 7139 7140 7141 7142 7143 7144 7145 
7146 7147 7148 7149 7150 7151 7152 7153 7154 
7155 7156 7157 7158 7159 7160 7161 7162 7163 
7164 7165 7166 7167 7168 7169 7170 7171 7172 
7173 7174 7175 7176 7177 7178 7179 7180 7181 
7182 7183 7184 7185 7186 7187 7188 7189 7190 
7191 7192 7193 7194 7195 7196 7197 7198 7199 
7200 7201 7202 7203 7204 7205 7206 7207 7208 
7209 7210 7211 7212 7213 7214 7215 7216 7217 
7218 7219 7220 7221 7222 7223 7224 7225 7226 
7227 7228 7229 7230 7231 7232 7233 7234 7235 
7236 7237 7238 7239 7240 7241 7242 7243 7244 
7245 7246 7247 7248 7249 7250 7251 7252 7253 
7254 7255 7256 7257 7258 7259 7260 7261 7262 
7263 7264 7265 7266 7267 7268 7269 7270 7271 
7272 7273 7274 7275 7276 7277 7278 7279 7280 
7281 7282 7283 7284 7285 7286 7287 7288 7289 
7290 7291 7292 7293 7294 7295 7296 7297 7298 
7299 7300 7301 7302 7303 7304 7305 7306 7307 
7308 7309 7310 7311 7312 7313 7314 7315 7316 
7317 7318 7319 7320 7321 7322 7323 7324 7325 
7326 7327 7328 7329 7330 7331 7332 7333 7334 
7335 7336 7337 7338 7339 7340 7341 7342 7343 
7344 7345 7346 7347 7348 7349 7350 7351 7352 
7353 7354 7355 7356 7357 7358 7359 7360 7361 
7362 7363 7364 7365 7366 7367 7368 7369 7370 
7371 7372 7373 7374 7375 7376 7377 7378 7379 
7380 7381 7382 7383 7384 7385 7386 7387 7388 
7389 7390 7391 7392 7393 7394 7395 7396 7397 
7398 7399 7400 7401 7402 7403 7404 7405 7406 
7407 7408 7409 7410 7411 7412 7413 7414 7415 
7416 7417 7418 7419 7420 7421 7422 7423 7424 
7425 7426 7427 7428 7429 7430 7431 7432 7433 
7434 7435 7436 7437 7438 7439 7440 7441 7442 
7443 7444 7445 7446 7447 7448 7449 7450 7451 
7452 7453 7454 7455 7456 7457 7458 7459 7460 
7461 7462 7463 7464 7465 7466 7467 7468 7469 
7470 7471 7472 7473 7474 7475 7476 7477 7478 
7479 7480 7481 7482 7483 7484 7485 7486 7487 
7488 7489 7490 7491 7492 7493 7494 7495 7496 
7497 7498 7499 7500 7501 7502 7503 7504 7505 
7506 7507 7508 7509 7510 7511 7512 7513 7514 
7515 7516 7517 7518 7519 7520 7521 7522 7523 
7524 7525 7526 7527 7528 7529 7530 7531 7532 
7533 7534 7535 7536 7537 7538 7539 7540 7541 
7542 7543 7544 7545 7546 7547 7548 7549 7550 
7551 7552 7553 7554 7555 7556 7557 7558 7559 
7560 7561 7562 7563 7564 7565 7566 7567 7568 
7569 7570 7571 7572 7573 7574 7575 7576 7577 
7578 7579 7580 7581 7582 7583 7584 7585 7586 
7587 7588 7589 7590 7591 7592 7593 7594 7595 
7596 7597 7598 7599 7600 7601 7602 7603 7604 
7605 7606 7607 7608 7609 7610 7611 7612 7613 
7614 7615 7616 7617 7618 7619 7620 7621 7622 
7623 7624 7625 7626 7627 7628 7629 7630 7631 
7632 7633 7634 7635 7636 7637 7638 7639 7640 
7641 7642 7643 7644 7645 7646 7647 7648 7649 
7650 7651 7652 7653 7654 7655 7656 7657 7658 
7659 7660 7661 7662 7663 7664 7665 7666 7667 
7668 7669 7670 7671 7672 7673 7674 7675 7676 
7677 7678 7679 7680 7681 7682 7683 7684 7685 
7686 7687 7688 7689 7690 7691 7692 7693 7694 
7695 7696 7697 7698 7699 7700 7701 7702 7703 
7704 7705 7706 7707 7708 7709 7710 7711 7712 
7713 7714 7715 7716 7717 7718 7719 7720 7721 
7722 7723 7724 7725 7726 7727 7728 7729 7730 
7731 7732 7733 7734 7735 7736 7737 7738 7739 
7740 7741 7742 7743 7744 7745 7746 7747 7748 
7749 7750 7751 7752 7753 7754 7755 7756 7757 
7758 7759 7760 7761 7762 7763 7764 7765 7766 
7767 7768 7769 7770 7771 7772 7773 7774 7775 
7776 7777 7778 7779 7780 7781 7782 7783 7784 
7785 7786 7787 7788 7789 7790 7791 7792 7793 
7794 7795 7796 7797 7798 7799 7800 7801 7802 
7803 7804 7805 7806 7807 7808 7809 7810 7811 
7812 7813 7814 7815 7816 7817 7818 7819 7820 
7821 7822 7823 7824 7825 7826 7827 7828 7829 
7830 7831 7832 7833 7834 7835 7836 7837 7838 
7839 7840 7841 7842 7843 7844 7845 7846 7847 
7848 7849 7850 7851 7852 7853 7854 7855 7856 
7857 7858 7859 7860 7861 7862 7863 7864 7865 
7866 7867 7868 7869 7870 7871 7872 7873 7874 
7875 7876 7877 7878 7879 7880 7881 7882 7883 
7884 7885 7886 7887 7888 7889 7890 7891 7892 
7893 7894 7895 7896 7897 7898 7899 7900 7901 
7902 7903 7904 7905 7906 7907 7908 7909 7910 
7911 7912 7913 7914 7915 7916 7917 7918 7919 
7920 7921 7922 7923 7924 7925 7926 7927 7928 
7929 7930 7931 7932 7933 7934 7935 7936 7937 
7938 7939 7940 7941 7942 7943 7944 7945 7946 
7947 7948 7949 7950 7951 7952 7953 7954 7955 
7956 7957 7958 7959 7960 7961 7962 7963 7964 
7965 7966 7967 7968 7969 7970 7971 7972 7973 
7974 7975 7976 7977 7978 7979 7980 7981 7982 
7983 7984 7985 7986 7987 7988 7989 7990 7991 
7992 7993 7994 7995 7996 7997 7998 7999 8000 
8001 8002 8003 8004 8005 8006 8007 8008 8009 
8010 8011 8012 8013 8014 8015 8016 8017 8018 
8019 8020 8021 8022 8023 8024 8025 8026 8027 
8028 8029 8030 8031 8032 8033 8034 8035 8036 
8037 8038 8039 8040 8041 8042 8043 8044 8045 
8046 8047 8048 8049 8050 8051 8052 8053 8054 
8055 8056 8057 8058 8059 8060 8061 8062 8063 
8064 8065 8066 8067 8068 8069 8070 8071 8072 
8073 8074 8075 8076 8077 8078 8079 8080 8081 
8082 8083 8084 8085 8086 8087 8088 8089 8090 
8091 8092 8093 8094 8095 8096 8097 8098 8099 
8100 8101 8102 8103 8104 8105 8106 8107 8108 
8109 8110 8111 8112 8113 8114 8115 8116 8117 
8118 8119 8120 8121 8122 8123 8124 8125 8126 
8127 8128 8129 8130 8131 8132 8133 8134 8135 
8136 8137 8138 8139 8140 8141 8142 8143 8144 
8145 8146 8147 8148 8149 8150 8151 8152 8153 
8154 8155 8156 8157 8158 8159 8160 8161 8162 
8163 8164 8165 8166 8167 8168 8169 8170 8171 
8172 8173 8174 8175 8176 8177 8178 8179 8180 
8181 8182 8183 8184 8185 8186 8187 8188 8189 
8190 8191 8192 8193 8194 8195 8196 8197 8198 
8199 8200 8201 8202 8203 8204 8205 8206 8207 
8208 8209 8210 8211 8212 8213 8214 8215 8216 
8217 8218 8219 8220 8221 8222 8223 8224 8225 
8226 8227 8228 8229 8230 8231 8232 8233 8234 
8235 8236 8237 8238 8239 8240 8241 8242 8243 
8244 8245 8246 8247 8248 8249 8250 8251 8252 
8253 8254 8255 8256 8257 8258 8259 8260 8261 
8262 8263 8264 8265 8266 8267 8268 8269 8270 
8271 8272 8273 8274 8275 8276 8277 8278 8279 
8280 8281 8282 8283 8284 8285 8286 8287 8288 
8289 8290 8291 8292 8293 8294 8295 8296 8297 
8298 8299 8300 8301 8302 8303 8304 8305 8306 
8307 8308 8309 8310 8311 8312 8313 8314 8315 
8316 8317 8318 8319 8320 8321 8322 8323 8324 
8325 8326 8327 8328 8329 8330 8331 8332 8333 
8334 8335 8336 8337 8338 8339 8340 8341 8342 
8343 8344 8345 8346 8347 8348 8349 8350 8351 
8352 8353 8354 8355 8356 8357 8358 8359 8360 
8361 8362 8363 8364 8365 8366 8367 8368 8369 
8370 8371 8372 8373 8374 8375 8376 8377 8378 
8379 8380 8381 8382 8383 8384 8385 8386 8387 
8388 8389 8390 8391 8392 8393 8394 8395 8396 
8397 8398 8399 8400 8401 8402 8403 8404 8405 
8406 8407 8408 8409 8410 8411 8412 8413 8414 
8415 8416 8417 8418 8419 8420 8421 8422 8423 
8424 8425 8426 8427 8428 8429 8430 8431 8432 
8433 8434 8435 8436 8437 8438 8439 8440 8441 
8442 8443 8444 8445 8446 8447 8448 8449 8450 
8451 8452 8453 8454 8455 8456 8457 8458 8459 
8460 8461 8462 8463 8464 8465 8466 8467 8468 
8469 8470 8471 8472 8473 8474 8475 8476 8477 
8478 8479 8480 8481 8482 8483 8484 8485 8486 
8487 8488 8489 8490 8491 8492 8493 8494 8495 
8496 8497 8498 8499 8500 8501 8502 8503 8504 
8505 8506 8507 8508 8509 8510 8511 8512 8513 
8514 8515 8516 8517 8518 8519 8520 8521 8522 
8523 8524 8525 8526 8527 8528 8529 8530 8531 
8532 8533 8534 8535 8536 8537 8538 8539 8540 
8541 8542 8543 8544 8545 8546 8547 8548 8549 
8550 8551 8552 8553 8554 8555 8556 8557 8558 
8559 8560 8561 8562 8563 8564 8565 8566 8567 
8568 8569 8570 8571 8572 8573 8574 8575 8576 
8577 8578 8579 8580 8581 8582 8583 8584 8585 
8586 8587 8588 8589 8590 8591 8592 8593 8594 
8595 8596 8597 8598 8599 8600 8601 8602 8603 
8604 8605 8606 8607 8608 8609 8610 8611 8612 
8613 8614 8615 8616 8617 8618 8619 8620 8621 
8622 8623 8624 8625 8626 8627 8628 8629 8630 
8631 8632 8633 8634 8635 8636 8637 8638 8639 
8640 8641 8642 8643 8644 8645 8646 8647 8648 
8649 8650 8651 8652 8653 8654 8655 8656 8657 
8658 8659 8660 8661 8662 8663 8664 8665 8666 
8667 8668 8669 8670 8671 8672 8673 8674 8675 
8676 8677 8678 8679 8680 8681 8682 8683 8684 
8685 8686 8687 8688 8689 8690 8691 8692 8693 
8694 8695 8696 8697 8698 8699 8700 8701 8702 
8703 8704 8705 8706 8707 8708 8709 8710 8711 
8712 8713 8714 8715 8716 8717 8718 8719 8720 
8721 8722 8723 8724 8725 8726 8727 8728 8729 
8730 8731 8732 8733 8734 8735 8736 8737 8738 
8739 8740 8741 8742 8743 8744 8745 8746 8747 
8748 8749 8750 8751 8752 8753 8754 8755 8756 
8757 8758 8759 8760 8761 8762 8763 8764 8765 
8766 8767 8768 8769 8770 8771 8772 8773 8774 
8775 8776 8777 8778 8779 8780 8781 8782 8783 
8784 8785 8786 8787 8788 8789 8790 8791 8792 
8793 8794 8795 8796 8797 8798 8799 8800 8801 
8802 8803 8804 8805 8806 8807 8808 8809 8810 
8811 8812 8813 8814 8815 8816 8817 8818 8819 
8820 8821 8822 8823 8824 8825 8826 8827 8828 
8829 8830 8831 8832 8833 8834 8835 8836 8837 
8838 8839 8840 8841 8842 8843 8844 8845 8846 
8847 8848 8849 8850 8851 8852 8853 8854 8855 
8856 8857 8858 8859 8860 8861 8862 8863 8864 
8865 8866 8867 8868 8869 8870 8871 8872 8873 
8874 8875 8876 8877 8878 8879 8880 8881 8882 
8883 8884 8885 8886 8887 8888 8889 8890 8891 
8892 8893 8894 8895 8896 8897 8898 8899 8900 
8901 8902 8903 8904 8905 8906 8907 8908 8909 
8910 8911 8912 8913 8914 8915 8916 8917 8918 
8919 8920 8921 8922 8923 8924 8925 8926 8927 
8928 8929 8930 8931 8932 8933 8934 8935 8936 
8937 8938 8939 8940 8941 8942 8943 8944 8945 
8946 8947 8948 8949 8950 8951 8952 8953 8954 
8955 8956 8957 8958 8959 8960 8961 8962 8963 
8964 8965 8966 8967 8968 8969 8970 8971 8972 
8973 8974 8975 8976 8977 8978 8979 8980 8981 
8982 8983 8984 8985 8986 8987 8988 8989 8990 
8991 8992 8993 8994 8995 8996 8997 8998 8999 
9000 9001 9002 9003 9004 9005 9006 9007 9008 
9009 9010 9011 9012 9013 9014 9015 9016 9017 
9018 9019 9020 9021 9022 9023 9024 9025 9026 
9027 9028 9029 9030 9031 9032 9033 9034 9035 
9036 9037 9038 9039 9040 9041 9042 9043 9044 
9045 9046 9047 9048 9049 9050 9051 9052 9053 
9054 9055 9056 9057 9058 9059 9060 9061 9062 
9063 9064 9065 9066 9067 9068 9069 9070 9071 
9072 9073 9074 9075 9076 9077 9078 9079 9080 
9081 9082 9083 9084 9085 9086 9087 9088 9089 
9090 9091 9092 9093 9094 9095 9096 9097 9098 
9099 9100 9101 9102 9103 9104 9105 9106 9107 
9108 9109 9110 9111 9112 9113 9114 9115 9116 
9117 9118 9119 9120 9121 9122 9123 9124 9125 
9126 9127 9128 9129 9130 9131 9132 9133 9134 
9135 9136 9137 9138 9139 9140 9141 9142 9143 
9144 9145 9146 9147 9148 9149 9150 9151 9152 
9153 9154 9155 9156 9157 9158 9159 9160 9161 
9162 9163 9164 9165 9166 9167 9168 9169 9170 
9171 9172 9173 9174 9175 9176 9177 9178 9179 
9180 9181 9182 9183 9184 9185 9186 9187 9188 
9189 9190 9191 9192 9193 9194 9195 9196 9197 
9198 9199 9200 9201 9202 9203 9204 9205 9206 
9207 9208 9209 9210 9211 9212 9213 9214 9215 
9216 9217 9218 9219 9220 9221 9222 9223 9224 
9225 9226 9227 9228 9229 9230 9231 9232 9233 
9234 9235 9236 9237 9238 9239 9240 9241 9242 
9243 9244 9245 9246 9247 9248 9249 9250 9251 
9252 9253 9254 9255 9256 9257 9258 9259 9260 
9261 9262 9263 9264 9265 9266 9267 9268 9269 
9270 9271 9272 9273 9274 9275 9276 9277 9278 
9279 9280 9281 9282 9283 9284 9285 9286 9287 
9288 9289 9290 9291 9292 9293 9294 9295 9296 
9297 9298 9299 9300 9301 9302 9303 9304 9305 
9306 9307 9308 9309 9310 9311 9312 9313 9314 
9315 9316 9317 9318 9319 9320 9321 9322 9323 
9324 9325 9326 9327 9328 9329 9330 9331 9332 
9333 9334 9335 9336 9337 9338 9339 9340 9341 
9342 9343 9344 9345 9346 9347 9348 9349 9350 
9351 9352 9353 9354 9355 9356 9357 9358 9359 
9360 9361 9362 9363 9364 9365 9366 9367 9368 
9369 9370 9371 9372 9373 9374 9375 9376 9377 
9378 9379 9380 9381 9382 9383 9384 9385 9386 
9387 9388 9389 9390 9391 9392 9393 9394 9395 
9396 9397 9398 9399 9400 9401 9402 9403 9404 
9405 9406 9407 9408 9409 9410 9411 9412 9413 
9414 9415 9416 9417 9418 9419 9420 9421 9422 
9423 9424 9425 9426 9427 9428 9429 9430 9431 
9432 9433 9434 9435 9436 9437 9438 9439 9440 
9441 9442 9443 9444 9445 9446 9447 9448 9449 
9450 9451 9452 9453 9454 9455 9456 9457 9458 
9459 9460 9461 9462 9463 9464 9465 9466 9467 
9468 9469 9470 9471 9472 9473 9474 9475 9476 
9477 9478 9479 9480 9481 9482 9483 9484 9485 
9486 9487 9488 9489 9490 9491 9492 9493 9494 
9495 9496 9497 9498 9499 9500 9501 9502 9503 
9504 9505 9506 9507 9508 9509 9510 9511 9512 
9513 9514 9515 9516 9517 9518 9519 9520 9521 
9522 9523 9524 9525 9526 9527 9528 9529 9530 
9531 9532 9533 9534 9535 9536 9537 9538 9539 
9540 9541 9542 9543 9544 9545 9546 9547 9548 
9549 9550 9551 9552 9553 9554 9555 9556 9557 
9558 9559 9560 9561 9562 9563 9564 9565 9566 
9567 9568 9569 9570 9571 9572 9573 9574 9575 
9576 9577 9578 9579 9580 9581 9582 9583 9584 
9585 9586 9587 9588 9589 9590 9591 9592 9593 
9594 9595 9596 9597 9598 9599 9600 9601 9602 
9603 9604 9605 9606 9607 9608 9609 9610 9611 
9612 9613 9614 9615 9616 9617 9618 9619 9620 
9621 9622 9623 9624 9625 9626 9627 9628 9629 
9630 9631 9632 9633 9634 9635 9636 9637 9638 
9639 9640 9641 9642 9643 9644 9645 9646 9647 
9648 9649 9650 9651 9652 9653 9654 9655 9656 
9657 9658 9659 9660 9661 9662 9663 9664 9665 
9666 9667 9668 9669 9670 9671 9672 9673 9674 
9675 9676 9677 9678 9679 9680 9681 9682 9683 
9684 9685 9686 9687 9688 9689 9690 9691 9692 
9693 9694 9695 9696 9697 9698 9699 9700 9701 
9702 9703 9704 9705 9706 9707 9708 9709 9710 
9711 9712 9713 9714 9715 9716 9717 9718 9719 
9720 9721 9722 9723 9724 9725 9726 9727 9728 
9729 9730 9731 9732 9733 9734 9735 9736 9737 
9738 9739 9740 9741 9742 9743 9744 9745 9746 
9747 9748 9749 9750 9751 9752 9753 9754 9755 
9756 9757 9758 9759 9760 9761 9762 9763 9764 
9765 9766 9767 9768 9769 9770 9771 9772 9773 
9774 9775 9776 9777 9778 9779 9780 9781 9782 
9783 9784 9785 9786 9787 9788 9789 9790 9791 
9792 9793 9794 9795 9796 9797 9798 9799 9800 
9801 9802 9803 9804 9805 9806 9807 9808 9809 
9810 9811 9812 9813 9814 9815 9816 9817 9818 
9819 9820 9821 9822 9823 9824 9825 9826 9827 
9828 9829 9830 9831 9832 9833 9834 9835 9836 
9837 9838 9839 9840 9841 9842 9843 9844 9845 
9846 9847 9848 9849 9850 9851 9852 9853 9854 
9855 9856 9857 9858 9859 9860 9861 9862 9863 
9864 9865 9866 9867 9868 9869 9870 9871 9872 
9873 9874 9875 9876 9877 9878 9879 9880 9881 
9882 9883 9884 9885 9886 9887 9888 9889 9890 
9891 9892 9893 9894 9895 9896 9897 9898 9899 
9900 9901 9902 9903 9904 9905 9906 9907 9908 
9909 9910 9911 9912 9913 9914 9915 9916 9917 
9918 9919 9920 9921 9922 9923 9924 9925 9926 
9927 9928 9929 9930 9931 9932 9933 9934 9935 
9936 9937 9938 9939 9940 9941 9942 9943 9944 
9945 9946 9947 9948 9949 9950 9951 9952 9953 
9954 9955 9956 9957 9958 9959 9960 9961 9962 
9963 9964 9965 9966 9967 9968 9969 9970 9971 
9972 9973 9974 9975 9976 9977 9978 9979 9980 
9981 9982 9983 9984 9985 9986 9987 9988 9989 
9990 9991 9992 9993 9994 9995 9996 9997 9998 
9999 10000 10001 10002 10003 10004 10005 10006 10007 
10008 10009 10010 10011 10012 10013 10014 10015 10016 
10017 10018 10019 10020 10021 10022 10023 10024 10025 
10026 10027 10028 10029 10030 10031 10032 10033 10034 
10035 10036 10037 10038 10039 10040 10041 10042 10043 
10044 10045 10046 10047 10048 10049 10050 10051 10052 
10053 10054 10055 10056 10057 10058 10059 10060 10061 
10062 10063 10064 10065 10066 10067 10068 10069 10070 
10071 10072 10073 10074 10075 10076 10077 10078 10079 
10080 10081 10082 10083 10084 10085 10086 10087 10088 
10089 10090 10091 10092 10093 10094 10095 10096 10097 
10098 10099 10100 10101 10102 10103 10104 10105 10106 
10107 10108 10109 10110 10111 10112 10113 10114 10115 
10116 10117 10118 10119 10120 10121 10122 10123 10124 
10125 10126 10127 10128 10129 10130 10131 10132 10133 
10134 10135 10136 10137 10138 10139 10140 10141 10142 
10143 10144 10145 10146 10147 10148 10149 10150 10151 
10152 10153 10154 10155 10156 10157 10158 10159 10160 
10161 10162 10163 10164 10165 10166 10167 10168 10169 
10170 10171 10172 10173 10174 10175 10176 10177 10178 
10179 10180 10181 10182 10183 10184 10185 10186 10187 
10188 10189 10190 10191 10192 10193 10194 10195 10196 
10197 10198 10199 10200 10201 10202 10203 10204 10205 
10206 10207 10208 10209 10210 10211 10212 10213 10214 
10215 10216 10217 10218 10219 10220 10221 10222 10223 
10224 10225 10226 10227 10228 10229 10230 10231 10232 
10233 10234 10235 10236 10237 10238 10239 10240 10241 
10242 10243 10244 10245 10246 10247 10248 10249 10250 
10251 10252 10253 10254 10255 10256 10257 10258 10259 
10260 10261 10262 10263 10264 10265 10266 10267 10268 
10269 10270 10271 10272 10273 10274 10275 10276 10277 
10278 10279 10280 10281 10282 10283 10284 10285 10286 
10287 10288 10289 10290 10291 10292 10293 10294 10295 
10296 10297 10298 10299 10300 10301 10302 10303 10304 
10305 10306 10307 10308 10309 10310 10311 10312 10313 
10314 10315 10316 10317 10318 10319 10320 10321 10322 
10323 10324 10325 10326 10327 10328 10329 10330 10331 
10332 10333 10334 10335 10336 10337 10338 10339 10340 
10341 10342 10343 10344 10345 10346 10347 10348 10349 
10350 10351 10352 10353 10354 10355 10356 10357 10358 
10359 10360 10361 10362 10363 10364 10365 10366 10367 
10368 10369 10370 10371 10372 10373 10374 10375 10376 
10377 10378 10379 10380 10381 10382 10383 10384 10385 
10386 10387 10388 10389 10390 10391 10392 10393 10394 
10395 10396 10397 10398 10399 10400 10401 10402 10403 
10404 10405 10406 10407 10408 10409 10410 10411 10412 
10413 10414 10415 10416 10417 10418 10419 10420 10421 
10422 10423 10424 10425 10426 10427 10428 10429 10430 
10431 10432 10433 10434 10435 10436 10437 10438 10439 
10440 10441 10442 10443 10444 10445 10446 10447 10448 
10449 10450 10451 10452 10453 10454 10455 10456 10457 
10458 10459 10460 10461 10462 10463 10464 10465 10466 
10467 10468 10469 10470 10471 10472 10473 10474 10475 
10476 10477 10478 10479 10480 10481 10482 10483 10484 
10485 10486 10487 10488 10489 10490 10491 10492 10493 
10494 10495 10496 10497 10498 10499 10500 10501 10502 
10503 10504 10505 10506 10507 10508 10509 10510 10511 
10512 10513 10514 10515 10516 10517 10518 10519 10520 
10521 10522 10523 10524 10525 10526 10527 10528 10529 
10530 10531 10532 10533 10534 10535 10536 10537 10538 
10539 10540 10541 10542 10543 10544 10545 10546 10547 
10548 10549 10550 10551 10552 10553 10554 10555 10556 
10557 10558 10559 10560 10561 10562 10563 10564 10565 
10566 10567 10568 10569 10570 10571 10572 10573 10574 
10575 10576 10577 10578 10579 10580 10581 10582 10583 
10584 10585 10586 10587 10588 10589 10590 10591 10592 
10593 10594 10595 10596 10597 10598 10599 10600 10601 
10602 10603 10604 10605 10606 10607 10608 10609 10610 
10611 10612 10613 10614 10615 10616 10617 10618 10619 
10620 10621 10622 10623 10624 10625 10626 10627 10628 
10629 10630 10631 10632 10633 10634 10635 10636 10637 
10638 10639 10640 10641 10642 10643 10644 10645 10646 
10647 10648 10649 10650 10651 10652 10653 10654 10655 
10656 10657 10658 10659 10660 10661 10662 10663 10664 
10665 10666 10667 10668 10669 10670 10671 10672 10673 
10674 10675 10676 10677 10678 10679 10680 10681 10682 
10683 10684 10685 10686 10687 10688 10689 10690 10691 
10692 10693 10694 10695 10696 10697 10698 10699 10700 
10701 10702 10703 10704 10705 10706 10707 10708 10709 
10710 10711 10712 10713 10714 10715 10716 10717 10718 
10719 10720 10721 10722 10723 10724 10725 10726 10727 
10728 10729 10730 10731 10732 10733 10734 10735 10736 
10737 10738 10739 10740 10741 10742 10743 10744 10745 
10746 10747 10748 10749 10750 10751 10752 10753 10754 
10755 10756 10757 10758 10759 10760 10761 10762 10763 
10764 10765 10766 10767 10768 10769 10770 10771 10772 
10773 10774 10775 10776 10777 10778 10779 10780 10781 
10782 10783 10784 10785 10786 10787 10788 10789 10790 
10791 10792 10793 10794 10795 10796 10797 10798 10799 
10800 10801 10802 10803 10804 10805 10806 10807 10808 
10809 10810 10811 10812 10813 10814 10815 10816 10817 
10818 10819 10820 10821 10822 10823 10824 10825 10826 
10827 10828 10829 10830 10831 10832 10833 10834 10835 
10836 10837 10838 10839 10840 10841 10842 10843 10844 
10845 10846 10847 10848 10849 10850 10851 10852 10853 
10854 10855 10856 10857 10858 10859 10860 10861 10862 
10863 10864 10865 10866 10867 10868 10869 10870 10871 
10872 10873 10874 10875 10876 10877 10878 10879 10880 
10881 10882 10883 10884 10885 10886 10887 10888 10889 
10890 10891 10892 10893 10894 10895 10896 10897 10898 
10899 10900 10901 10902 10903 10904 10905 10906 10907 
10908 10909 10910 10911 10912 10913 10914 10915 10916 
10917 10918 10919 10920 10921 10922 10923 10924 10925 
10926 10927 10928 10929 10930 10931 10932 10933 10934 
10935 10936 10937 10938 10939 10940 10941 10942 10943 
10944 10945 10946 10947 10948 10949 10950 10951 10952 
10953 10954 10955 10956 10957 10958 10959 10960 10961 
10962 10963 10964 10965 10966 10967 10968 10969 10970 
10971 10972 10973 10974 10975 10976 10977 10978 10979 
10980 10981 10982 10983 10984 10985 10986 10987 10988 
10989 10990 10991 10992 10993 10994 10995 10996 10997 
10998 10999 11000 11001 11002 11003 11004 11005 11006 
11007 11008 11009 11010 11011 11012 11013 11014 11015 
11016 11017 11018 11019 11020 11021 11022 11023 11024 
11025 11026 11027 11028 11029 11030 11031 11032 11033 
11034 11035 11036 11037 11038 11039 11040 11041 11042 
11043 11044 11045 11046 11047 11048 11049 11050 11051 
11052 11053 11054 11055 11056 11057 11058 11059 11060 
11061 11062 11063 11064 11065 11066 11067 11068 11069 
11070 11071 11072 11073 11074 11075 11076 11077 11078 
11079 11080 11081 11082 11083 11084 11085 11086 11087 
11088 11089 11090 11091 11092 11093 11094 11095 11096 
11097 11098 11099 11100 11101 11102 11103 11104 11105 
11106 11107 11108 11109 11110 11111 11112 11113 11114 
11115 11116 11117 11118 11119 11120 11121 11122 11123 
11124 11125 11126 11127 11128 11129 11130 11131 11132 
11133 11134 11135 11136 11137 11138 11139 11140 11141 
11142 11143 11144 11145 11146 11147 11148 11149 11150 
11151 11152 11153 11154 11155 11156 11157 11158 11159 
11160 11161 11162 11163 11164 11165 11166 11167 11168 
11169 11170 11171 11172 11173 11174 11175 11176 11177 
11178 11179 11180 11181 11182 11183 11184 11185 11186 
11187 11188 11189 11190 11191 11192 11193 11194 11195 
11196 11197 11198 11199 11200 11201 11202 11203 11204 
11205 11206 11207 11208 11209 11210 11211 11212 11213 
11214 11215 11216 11217 11218 11219 11220 11221 11222 
11223 11224 11225 11226 11227 11228 11229 11230 11231 
11232 11233 11234 11235 11236 11237 11238 11239 11240 
11241 11242 11243 11244 11245 11246 11247 11248 11249 
11250 11251 11252 11253 11254 11255 11256 11257 11258 
11259 11260 11261 11262 11263 11264 11265 11266 11267 
11268 11269 11270 11271 11272 11273 11274 11275 11276 
11277 11278 11279 11280 11281 11282 11283 11284 11285 
11286 11287 11288 11289 11290 11291 11292 11293 11294 
11295 11296 11297 11298 11299 11300 11301 11302 11303 
11304 11305 11306 11307 11308 11309 11310 11311 11312 
11313 11314 11315 11316 11317 11318 11319 11320 11321 
11322 11323 11324 11325 11326 11327 11328 11329 11330 
11331 11332 11333 11334 11335 11336 11337 11338 11339 
11340 11341 11342 11343 11344 11345 11346 11347 11348 
11349 11350 11351 11352 11353 11354 11355 11356 11357 
11358 11359 11360 11361 11362 11363 11364 11365 11366 
11367 11368 11369 11370 11371 11372 11373 11374 11375 
11376 11377 11378 11379 11380 11381 11382 11383 11384 
11385 11386 11387 11388 11389 11390 11391 11392 11393 
11394 11395 11396 11397 11398 11399 11400 11401 11402 
11403 11404 11405 11406 11407 11408 11409 11410 11411 
11412 11413 11414 11415 11416 11417 11418 11419 11420 
11421 11422 11423 11424 11425 11426 11427 11428 11429 
11430 11431 11432 11433 11434 11435 11436 11437 11438 
11439 11440 11441 11442 11443 11444 11445 11446 11447 
11448 11449 11450 11451 11452 11453 11454 11455 11456 
11457 11458 11459 11460 11461 11462 11463 11464 11465 
11466 11467 11468 11469 11470 11471 11472 11473 11474 
11475 11476 11477 11478 11479 11480 11481 11482 11483 
11484 11485 11486 11487 11488 11489 11490 11491 11492 
11493 11494 11495 11496 11497 11498 11499 11500 11501 
11502 11503 11504 11505 11506 11507 11508 11509 11510 
11511 11512 11513 11514 11515 11516 11517 11518 11519 
11520 11521 11522 11523 11524 11525 11526 11527 11528 
11529 11530 11531 11532 11533 11534 11535 11536 11537 
11538 11539 11540 11541 11542 11543 11544 11545 11546 
11547 11548 11549 11550 11551 11552 11553 11554 11555 
11556 11557 11558 11559 11560 11561 11562 11563 11564 
11565 11566 11567 11568 11569 11570 11571 11572 11573 
11574 11575 11576 11577 11578 11579 11580 11581 11582 
11583 11584 11585 11586 11587 11588 11589 11590 11591 
11592 11593 11594 11595 11596 11597 11598 11599 11600 
11601 11602 11603 11604 11605 11606 11607 11608 11609 
11610 11611 11612 11613 11614 11615 11616 11617 11618 
11619 11620 11621 11622 11623 11624 11625 11626 11627 
11628 11629 11630 11631 11632 11633 11634 11635 11636 
11637 11638 11639 11640 11641 11642 11643 11644 11645 
11646 11647 11648 11649 11650 11651 11652 11653 11654 
11655 11656 11657 11658 11659 11660 11661 11662 11663 
11664 11665 11666 11667 11668 11669 11670 11671 11672 
11673 11674 11675 11676 11677 11678 11679 11680 11681 
11682 11683 11684 11685 11686 11687 11688 11689 11690 
11691 11692 11693 11694 11695 11696 11697 11698 11699 
11700 11701 11702 11703 11704 11705 11706 11707 11708 
11709 11710 11711 11712 11713 11714 11715 11716 11717 
11718 11719 11720 11721 11722 11723 11724 11725 11726 
11727 11728 11729 11730 11731 11732 11733 11734 11735 
11736 11737 11738 11739 11740 11741 11742 11743 11744 
11745 11746 11747 11748 11749 11750 11751 11752 11753 
11754 11755 11756 11757 11758 11759 11760 11761 11762 
11763 11764 11765 11766 11767 11768 11769 11770 11771 
11772 11773 11774 11775 11776 11777 11778 11779 11780 
11781 11782 11783 11784 11785 11786 11787 11788 11789 
11790 11791 11792 11793 11794 11795 11796 11797 11798 
11799 11800 11801 11802 11803 11804 11805 11806 11807 
11808 11809 11810 11811 11812 11813 11814 11815 11816 
11817 11818 11819 11820 11821 11822 11823 11824 11825 
11826 11827 11828 11829 11830 11831 11832 11833 11834 
11835 11836 11837 11838 11839 11840 11841 11842 11843 
11844 11845 11846 11847 11848 11849 11850 11851 11852 
11853 11854 11855 11856 11857 11858 11859 11860 11861 
11862 11863 11864 11865 11866 11867 11868 11869 11870 
11871 11872 11873 11874 11875 11876 11877 11878 11879 
11880 11881 11882 11883 11884 11885 11886 11887 11888 
11889 11890 11891 11892 11893 11894 11895 11896 11897 
11898 11899 11900 11901 11902 11903 11904 11905 11906 
11907 11908 11909 11910 11911 11912 11913 11914 11915 
11916 11917 11918 11919 11920 11921 11922 11923 11924 
11925 11926 11927 11928 11929 11930 11931 11932 11933 
11934 11935 11936 11937 11938 11939 11940 11941 11942 
11943 11944 11945 11946 11947 11948 11949 11950 11951 
11952 11953 11954 11955 11956 11957 11958 11959 11960 
11961 11962 11963 11964 11965 11966 11967 11968 11969 
11970 11971 11972 11973 11974 11975 11976 11977 11978 
11979 11980 11981 11982 11983 11984 11985 11986 11987 
11988 11989 11990 11991 11992 11993 11994 11995 11996 
11997 11998 11999 12000 12001 12002 12003 12004 12005 
12006 12007 12008 12009 12010 12011 12012 12013 12014 
12015 12016 12017 12018 12019 12020 12021 12022 12023 
12024 12025 12026 12027 12028 12029 12030 12031 12032 
12033 12034 12035 12036 12037 12038 12039 12040 12041 
12042 12043 12044 12045 12046 12047 12048 12049 12050 
12051 12052 12053 12054 12055 12056 12057 12058 12059 
12060 12061 12062 12063 12064 12065 12066 12067 12068 
12069 12070 12071 12072 12073 12074 12075 12076 12077 
12078 12079 12080 12081 12082 12083 12084 12085 12086 
12087 12088 12089 12090 12091 12092 12093 12094 12095 
12096 12097 12098 12099 12100 12101 12102 12103 12104 
12105 12106 12107 12108 12109 12110 12111 12112 12113 
12114 12115 12116 12117 12118 12119 12120 12121 12122 
12123 12124 12125 12126 12127 12128 12129 12130 12131 
12132 12133 12134 12135 12136 12137 12138 12139 12140 
12141 12142 12143 12144 12145 12146 12147 12148 12149 
12150 12151 12152 12153 12154 12155 12156 12157 12158 
12159 12160 12161 12162 12163 12164 12165 12166 12167 
12168 12169 12170 12171 12172 12173 12174 12175 12176 
12177 12178 12179 12180 12181 12182 12183 12184 12185 
12186 12187 12188 12189 12190 12191 12192 12193 12194 
12195 12196 12197 12198 12199 12200 12201 12202 12203 
12204 12205 12206 12207 12208 12209 12210 12211 12212 
12213 12214 12215 12216 12217 12218 12219 12220 12221 
12222 12223 12224 12225 12226 12227 12228 12229 12230 
12231 12232 12233 12234 12235 12236 12237 12238 12239 
12240 12241 12242 12243 12244 12245 12246 12247 12248 
12249 12250 12251 12252 12253 12254 12255 12256 12257 
12258 12259 12260 12261 12262 12263 12264 12265 12266 
12267 12268 12269 12270 12271 12272 12273 12274 12275 
12276 12277 12278 12279 12280 12281 12282 12283 12284 
12285 12286 12287 12288 12289 12290 12291 12292 12293 
12294 12295 12296 12297 12298 12299 12300 12301 12302 
12303 12304 12305 12306 12307 12308 12309 12310 12311 
12312 12313 12314 12315 12316 12317 12318 12319 12320 
12321 12322 12323 12324 12325 12326 12327 12328 12329 
12330 12331 12332 12333 12334 12335 12336 12337 12338 
12339 12340 12341 12342 12343 12344 12345 12346 12347 
12348 12349 12350 12351 12352 12353 12354 12355 12356 
12357 12358 12359 12360 12361 12362 12363 12364 12365 
12366 12367 12368 12369 12370 12371 12372 12373 12374 
12375 12376 12377 12378 12379 12380 12381 12382 12383 
12384 12385 12386 12387 12388 12389 12390 12391 12392 
12393 12394 12395 12396 12397 12398 12399 12400 12401 
12402 12403 12404 12405 12406 12407 12408 12409 12410 
      </DataArray>
      <DataArray type="Int32" Name="offsets" format="ascii">
9
18
27
36
45
54
63
72
81
90
99
108
117
126
135
144
153
162
171
180
189
198
207
216
225
234
243
252
261
270
279
288
297
306
315
324
333
342
351
360
369
378
387
396
405
414
423
432
441
450
459
468
477
486
495
504
513
522
531
540
549
558
567
576
585
594
603
612
621
630
639
648
657
666
675
684
693
702
711
720
729
738
747
756
765
774
783
792
801
810
819
828
837
846
855
864
873
882
891
900
909
918
927
936
945
954
963
972
981
990
999
1008
1017
1026
1035
1044
1053
1062
1071
1080
1089
1098
1107
1116
1125
1134
1143
1152
1161
1170
1179
1188
1197
1206
1215
1224
1233
1242
1251
1260
1269
1278
1287
1296
1305
1314
1323
1332
1341
1350
1359
1368
1377
1386
1395
1404
1413
1422
1431
1440
1449
1458
1467
1476
1485
1494
1503
1512
1521
1530
1539
1548
1557
1566
1575
1584
1593
1602
1611
1620
1629
1638
1647
1656
1665
1674
1683
1692
1701
1710
1719
1728
1737
1746
1755
1764
1773
1782
1791
1800
1809
1818
1827
1836
1845
1854
1863
1872
1881
1890
1899
1908
1917
1926
1935
1944
1953
1962
1971
1980
1989
1998
2007
2016
2025
2034
2043
2052
2061
2070
2079
2088
2097
2106
2115
2124
2133
2142
2151
2160
2169
2178
2187
2196
2205
2214
2223
2232
2241
2250
2259
2268
2277
2286
2295
2304
2313
2322
2331
2340
2349
2358
2367
2376
2385
2394
2403
2412
2421
2430
2439
2448
2457
2466
2475
2484
2493
2502
2511
2520
2529
2538
2547
2556
2565
2574
2583
2592
2601
2610
2619
2628
2637
2646
2655
2664
2673
2682
2691
2700
2709
2718
2727
2736
2745
2754
2763
2772
2781
2790
2799
2808
2817
2826
2835
2844
2853
2862
2871
2880
2889
2898
2907
2916
2925
2934
2943
2952
2961
2970
2979
2988
2997
3006
3015
3024
3033
3042
3051
3060
3069
3078
3087
3096
3105
3114
3123
3132
3141
3150
3159
3168
3177
3186
3195
3204
3213
3222
3231
3240
3249
3258
3267
3276
3285
3294
3303
3312
3321
3330
3339
3348
3357
3366
3375
3384
3393
3402
3411
3420
3429
3438
3447
3456
3465
3474
3483
3492
3501
3510
3519
3528
3537
3546
3555
3564
3573
3582
3591
3600
3609
3618
3627
3636
3645
3654
3663
3672
3681
3690
3699
3708
3717
3726
3735
3744
3753
3762
3771
3780
3789
3798
3807
3816
3825
3834
3843
3852
3861
3870
3879
3888
3897
3906
3915
3924
3933
3942
3951
3960
3969
3978
3987
3996
4005
4014
4023
4032
4041
4050
4059
4068
4077
4086
4095
4104
4113
4122
4131
4140
4149
4158
4167
4176
4185
4194
4203
4212
4221
4230
4239
4248
4257
4266
4275
4284
4293
4302
4311
4320
4329
4338
4347
4356
4365
4374
4383
4392
4401
4410
4419
4428
4437
4446
4455
4464
4473
4482
4491
4500
4509
4518
4527
4536
4545
4554
4563
4572
4581
4590
4599
4608
4617
4626
4635
4644
4653
4662
4671
4680
4689
4698
4707
4716
4725
4734
4743
4752
4761
4770
4779
4788
4797
4806
4815
4824
4833
4842
4851
4860
4869
4878
4887
4896
4905
4914
4923
4932
4941
4950
4959
4968
4977
4986
4995
5004
5013
5022
5031
5040
5049
5058
5067
5076
5085
5094
5103
5112
5121
5130
5139
5148
5157
5166
5175
5184
5193
5202
5211
5220
5229
5238
5247
5256
5265
5274
5283
5292
5301
5310
5319
5328
5337
5346
5355
5364
5373
5382
5391
5400
5409
5418
5427
5436
5445
5454
5463
5472
5481
5490
5499
5508
5517
5526
5535
5544
5553
5562
5571
5580
5589
5598
5607
5616
5625
5634
5643
5652
5661
5670
5679
5688
5697
5706
5715
5724
5733
5742
5751
5760
5769
5778
5787
5796
5805
5814
5823
5832
5841
5850
5859
5868
5877
5886
5895
5904
5913
5922
5931
5940
5949
5958
5967
5976
5985
5994
6003
6012
6021
6030
6039
6048
6057
6066
6075
6084
6093
6102
6111
6120
6129
6138
6147
6156
6165
6174
6183
6192
6201
6210
6219
6228
6237
6246
6255
6264
6273
6282
6291
6300
6309
6318
6327
6336
6345
6354
6363
6372
6381
6390
6399
6408
6417
6426
6435
6444
6453
6462
6471
6480
6489
6498
6507
6516
6525
6534
6543
6552
6561
6570
6579
6588
6597
6606
6615
6624
6633
6642
6651
6660
6669
6678
6687
6696
6705
6714
6723
6732
6741
6750
6759
6768
6777
6786
6795
6804
6813
6822
6831
6840
6849
6858
6867
6876
6885
6894
6903
6912
6921
6930
6939
6948
6957
6966
6975
6984
6993
7002
7011
7020
7029
7038
7047
7056
7065
7074
7083
7092
7101
7110
7119
7128
7137
7146
7155
7164
7173
7182
7191
7200
7209
7218
7227
7236
7245
7254
7263
7272
7281
7290
7299
7308
7317
7326
7335
7344
7353
7362
7371
7380
7389
7398
7407
7416
7425
7434
7443
7452
7461
7470
7479
7488
7497
7506
7515
7524
7533
7542
7551
7560
7569
7578
7587
7596
7605
7614
7623
7632
7641
7650
7659
7668
7677
7686
7695
7704
7713
7722
7731
7740
7749
7758
7767
7776
7785
7794
7803
7812
7821
7830
7839
7848
7857
7866
7875
7884
7893
7902
7911
7920
7929
7938
7947
7956
7965
7974
7983
7992
8001
8010
8019
8028
8037
8046
8055
8064
8073
8082
8091
8100
8109
8118
8127
8136
8145
8154
8163
8172
8181
8190
8199
8208
8217
8226
8235
8244
8253
8262
8271
8280
8289
8298
8307
8316
8325
8334
8343
8352
8361
8370
8379
8388
8397
8406
8415
8424
8433
8442
8451
8460
8469
8478
8487
8496
8505
8514
8523
8532
8541
8550
8559
8568
8577
8586
8595
8604
8613
8622
8631
8640
8649
8658
8667
8676
8685
8694
8703
8712
8721
8730
8739
8748
8757
8766
8775
8784
8793
8802
8811
8820
8829
8838
8847
8856
8865
8874
8883
8892
8901
8910
8919
8928
8937
8946
8955
8964
8973
8982
8991
9000
9009
9018
9027
9036
9045
9054
9063
9072
9081
9090
9099
9108
9117
9126
9135
9144
9153
9162
9171
9180
9189
9198
9207
9216
9225
9234
9243
9252
9261
9270
9279
9288
9297
9306
9315
9324
9333
9342
9351
9360
9369
9378
9387
9396
9405
9414
9423
9432
9441
9450
9459
9468
9477
9486
9495
9504
9513
9522
9531
9540
9549
9558
9567
9576
9585
9594
9603
9612
9621
9630
9639
9648
9657
9666
9675
9684
9693
9702
9711
9720
9729
9738
9747
9756
9765
9774
9783
9792
9801
9810
9819
9828
9837
9846
9855
9864
9873
9882
9891
9900
9909
9918
9927
9936
9945
9954
9963
9972
9981
9990
9999
10008
10017
10026
10035
10044
10053
10062
10071
10080
10089
10098
10107
10116
10125
10134
10143
10152
10161
10170
10179
10188
10197
10206
10215
10224
10233
10242
10251
10260
10269
10278
10287
10296
10305
10314
10323
10332
10341
10350
10359
10368
10377
10386
10395
10404
10413
10422
10431
10440
10449
10458
10467
10476
10485
10494
10503
10512
10521
10530
10539
10548
10557
10566
10575
10584
10593
10602
10611
10620
10629
10638
10647
10656
10665
10674
10683
10692
10701
10710
10719
10728
10737
10746
10755
10764
10773
10782
10791
10800
10809
10818
10827
10836
10845
10854
10863
10872
10881
10890
10899
10908
10917
10926
10935
10944
10953
10962
10971
10980
10989
10998
11007
11016
11025
11034
11043
11052
11061
11070
11079
11088
11097
11106
11115
11124
11133
11142
11151
11160
11169
11178
11187
11196
11205
11214
11223
11232
11241
11250
11259
11268
11277
11286
11295
11304
11313
11322
11331
11340
11349
11358
11367
11376
11385
11394
11403
11412
11421
11430
11439
11448
11457
11466
11475
11484
11493
11502
11511
11520
11529
11538
11547
11556
11565
11574
11583
11592
11601
11610
11619
11628
11637
11646
11655
11664
11673
11682
11691
11700
11709
11718
11727
11736
11745
11754
11763
11772
11781
11790
11799
11808
11817
11826
11835
11844
11853
11862
11871
11880
11889
11898
11907
11916
11925
11934
11943
11952
11961
11970
11979
11988
11997
12006
12015
12024
12033
12042
12051
12060
12069
12078
12087
12096
12105
12114
12123
12132
12141
12150
12159
12168
12177
12186
12195
12204
12213
12222
12231
12240
12249
12258
12267
12276
12285
12294
12303
12312
12321
12330
12339
12348
12357
12366
12375
12384
12393
12402
12411
      </DataArray>
      <DataArray type="UInt8" Name="types" format="ascii">
70
70
70
70
70
70
70
70
70
70
70
70
70
70
70
70
70
70
70
70
70
70
70
70
70
70
70
70
70
70
70
70
70
70
70
70
70
70
70
70
70
70
70
70
70
70
70
70
70
70
70
70
70
70
70
70
70
70
70
70
70
70
70
70
70
70
70
70
70
70
70
70
70
70
70
70
70
70
70
70
70
70
70
70
70
70
70
70
70
70
70
70
70
70
70
70
70
70
70
70
70
70
70
70
70
70
70
70
70
70
70
70
70
70
70
70
70
70
70
70
70
70
70
70
70
70
70
70
70
70
70
70
70
70
70
70
70
70
70
70
70
70
70
70
70
70
70
70
70
70
70
70
70
70
70
70
70
70
70
70
70
70
70
70
70
70
70
70
70
70
70
70
70
70
70
70
70
70
70
70
70
70
70
70
70
70
70
70
70
70
70
70
70
70
70
70
70
70
70
70
70
70
70
70
70
70
70
70
70
70
70
70
70
70
70
70
70
70
70
70
70
70
70
70
70
70
70
70
70
70
70
70
70
70
70
70
70
70
70
70
70
70
70
70
70
70
70
70
70
70
70
70
70
70
70
70
70
70
70
70
70
70
70
70
70
70
70
70
70
70
70
70
70
70
70
70
70
70
70
70
70
70
70
70
70
70
70
70
70
70
70
70
70
70
70
70
70
70
70
70
70
70
70
70
70
70
70
70
70
70
70
70
70
70
70
70
70
70
70
70
70
70
70
70
70
70
70
70
70
70
70
70
70
70
70
70
70
70
70
70
70
70
70
70
70
70
70
70
70
70
70
70
70
70
70
70
70
70
70
70
70
70
70
70
70
70
70
70
70
70
70
70
70
70
70
70
70
70
70
70
70
70
70
70
70
70
70
70
70
70
70
70
70
70
70
70
70
70
70
70
70
70
70
70
70
70
70
70
70
70
70
70
70
70
70
70
70
70
70
70
70
70
70
70
70
70
70
70
70
70
70
70
70
70
70
70
70
70
70
70
70
70
70
70
70
70
70
70
70
70
70
70
70
70
70
70
70
70
70
70
70
70
70
70
70
70
70
70
70
70
70
70
70
70
70
70
70
70
70
70
70
70
70
70
70
70
70
70
70
70
70
70
70
70
70
70
70
70
70
70
70
70
70
70
70
70
70
70
70
70
70
70
70
70
70
70
70
70
70
70
70
70
70
70
70
70
70
70
70
70
70
70
70
70
70
70
70
70
70
70
70
70
70
70
70
70
70
70
70
70
70
70
70
70
70
70
70
70
70
70
70
70
70
70
70
70
70
70
70
70
70
70
70
70
70
70
70
70
70
70
70
70
70
70
70
70
70
70
70
70
70
70
70
70
70
70
70
70
70
70
70
70
70
70
70
70
70
70
70
70
70
70
70
70
70
70
70
70
70
70
70
70
70
70
70
70
70
70
70
70
70
70
70
70
70
70
70
70
70
70
70
70
70
70
70
70
70
70
70
70
70
70
70
70
70
70
70
70
70
70
70
70
70
70
70
70
70
70
70
70
70
70
70
70
70
70
70
70
70
70
70
70
70
70
70
70
70
70
70
70
70
70
70
70
70
70
70
70
70
70
70
70
70
70
70
70
70
70
70
70
70
70
70
70
70
70
70
70
70
70
70
70
70
70
70
70
70
70
70
70
70
70
70
70
70
70
70
70
70
70
70
70
70
70
70
70
70
70
70
70
70
70
70
70
70
70
70
70
70
70
70
70
70
70
70
70
70
70
70
70
70
70
70
70
70
70
70
70
70
70
70
70
70
70
70
70
70
70
70
70
70
70
70
70
70
70
70
70
70
70
70
70
70
70
70
70
70
70
70
70
70
70
70
70
70
70
70
70
70
70
70
70
70
70
70
70
70
70
70
70
70
70
70
70
70
70
70
70
70
70
70
70
70
70
70
70
70
70
70
70
70
70
70
70
70
70
70
70
70
70
70
70
70
70
70
70
70
70
70
70
70
70
70
70
70
70
70
70
70
70
70
70
70
70
70
70
70
70
70
70
70
70
70
70
70
70
70
70
70
70
70
70
70
70
70
70
70
70
70
70
70
70
70
70
70
70
70
70
70
70
70
70
70
70
70
70
70
70
70
70
70
70
70
70
70
70
70
70
70
70
70
70
70
70
70
70
70
70
70
70
70
70
70
70
70
70
70
70
70
70
70
70
70
70
70
70
70
70
70
70
70
70
70
70
70
70
70
70
70
70
70
70
70
70
70
70
70
70
70
70
70
70
70
70
70
70
70
70
70
70
70
70
70
70
70
70
70
70
70
70
70
70
70
70
70
70
70
70
70
70
70
70
70
70
70
70
70
70
70
70
70
70
70
70
70
70
70
70
70
70
70
70
70
70
70
70
70
70
70
70
70
70
70
70
70
70
70
70
70
70
70
70
70
70
70
70
70
70
70
70
70
70
70
70
70
70
70
70
70
70
70
70
70
70
70
70
70
70
70
70
70
70
70
70
70
70
70
70
70
70
70
70
70
70
70
70
70
70
70
70
70
70
70
70
70
70
70
70
70
70
70
70
70
70
70
70
70
70
70
70
70
70
70
70
70
70
70
70
70
70
70
70
70
70
70
70
70
70
70
70
70
70
70
70
70
70
70
70
70
70
70
70
70
70
70
70
70
70
70
70
70
70
70
70
70
70
70
70
70
70
70
70
70
70
70
70
70
70
70
70
70
70
70
70
70
70
70
70
70
70
70
70
70
70
70
70
70
70
70
70
70
70
70
70
70
70
70
70
70
70
70
70
70
70
70
70
70
70
70
70
70
70
70
70
70
70
70
70
70
70
70
70
70
70
70
70
70
70
70
70
70
70
70
70
70
70
70
70
70
70
70
70
70
70
70
70
70
70
70
70
70
70
70
70
70
70
70
70
70
70
70
70
70
70
70
70
70
70
70
70
70
70
70
70
70
70
70
70
70
70
70
70
70
70
70
70
70
70
70
70
70
70
70
70
70
70
70
70
70
70
70
70
70
70
70
70
70
70
70
70
70
70
70
70
70
70
70
70
70
70
70
70
70
70
70
70
70
70
70
70
70
70
70
70
70
70
70
70
70
70
70
70
70
70
70
70
70
70
70
70
70
70
70
70
70
70
70
70
70
      </DataArray>
    </Cells>
    <PointData>
      <DataArray type="Float64" NumberOfComponents="3" Name="Displacement" format="ascii">
0 0 0
-0.0123118 -0.0061212 -0.0061212
-0.0073441 -0.00206171 -0.00206171
0 0 0
-0.00670178 -0.00382029 -0.00382029
-0.00927501 -0.00369715 -0.00369715
-0.00356317 -0.000737421 -0.000737421
0 0 0
-0.00442273 -0.00163068 -0.00163068
-0.0123118 -0.0061212 -0.0061212
-0.0229635 -0.0106184 -0.0106184
-0.0152981 -0.00595836 -0.00595836
-0.0073441 -0.00206171 -0.00206171
-0.0176523 -0.00828479 -0.00828479
-0.0189391 -0.00805209 -0.00805209
-0.0112832 -0.00382178 -0.00382178
-0.00927501 -0.00369715 -0.00369715
-0.0141344 -0.00580946 -0.00580946
-0.0229635 -0.0106184 -0.0106184
-0.0337149 -0.0160453 -0.0160453
-0.0233245 -0.0113141 -0.0113141
-0.0152981 -0.00595836 -0.00595836
-0.0283196 -0.0131724 -0.0131724
-0.0284633 -0.0135001 -0.0135001
-0.0193159 -0.00844743 -0.00844743
-0.0189391 -0.00805209 -0.00805209
-0.0237133 -0.0105981 -0.0105981
-0.0337149 -0.0160453 -0.0160453
-0.0445585 -0.0230336 -0.0230336
-0.0313133 -0.0182935 -0.0182935
-0.0233245 -0.0113141 -0.0113141
-0.0391283 -0.0193278 -0.0193278
-0.0379093 -0.0204755 -0.0204755
-0.0273254 -0.0145913 -0.0145913
-0.0284633 -0.0135001 -0.0135001
-0.0331926 -0.0167824 -0.0167824
-0.0445585 -0.0230336 -0.0230336
-0.055464 -0.0317272 -0.0317272
-0.0392383 -0.0270125 -0.0270125
-0.0313133 -0.0182935 -0.0182935
-0.0500065 -0.0271613 -0.0271613
-0.0473276 -0.0291833 -0.0291833
-0.0352832 -0.0224306 -0.0224306
-0.0379093 -0.0204755 -0.0204755
-0.0426211 -0.0246064 -0.0246064
-0.055464 -0.0317272 -0.0317272
-0.0663784 -0.0422236 -0.0422236
-0.0471169 -0.0375379 -0.0375379
-0.0392383 -0.0270125 -0.0270125
-0.0609218 -0.0367478 -0.0367478
-0.0567196 -0.0396885 -0.0396885
-0.0431829 -0.0320475 -0.0320475
-0.0473276 -0.0291833 -0.0291833
-0.0520269 -0.0342092 -0.0342092
-0.0663784 -0.0422236 -0.0422236
-0.0772835 -0.0545357 -0.0545357
-0.0549532 -0.0498881 -0.0498881
-0.0471169 -0.0375379 -0.0375379
-0.0718333 -0.0481521 -0.0481521
-0.0660858 -0.0520186 -0.0520186
-0.0510399 -0.0434844 -0.0434844
-0.0567196 -0.0396885 -0.0396885
-0.0614062 -0.0456248 -0.0456248
-0.0772835 -0.0545357 -0.0545357
-0.0881604 -0.0686751 -0.0686751
-0.0627547 -0.0640678 -0.0640678
-0.0549532 -0.0498881 -0.0498881
-0.0827262 -0.0613771 -0.0613771
-0.0754212 -0.0661769 -0.0661769
-0.0588581 -0.0567495 -0.0567495
-0.0660858 -0.0520186 -0.0520186
-0.0707575 -0.0588695 -0.0588695
-0.0881604 -0.0686751 -0.0686751
-0.0990018 -0.0846345 -0.0846345
-0.0705236 -0.0800712 -0.0800712
-0.0627547 -0.0640678 -0.0640678
-0.0935859 -0.0764278 -0.0764278
-0.084724 -0.0821585 -0.0821585
-0.0666431 -0.0718421 -0.0718421
-0.0754212 -0.0661769 -0.0661769
-0.0800768 -0.0739403 -0.0739403
-0.0990018 -0.0846345 -0.0846345
-0.109803 -0.102407 -0.102407
-0.0782629 -0.0978901 -0.0978901
-0.0705236 -0.0800712 -0.0800712
-0.104408 -0.0932948 -0.0932948
-0.0939926 -0.0999546 -0.0999546
-0.0743969 -0.0887543 -0.0887543
-0.084724 -0.0821585 -0.0821585
-0.0893626 -0.0908303 -0.0908303
-0.109803 -0.102407 -0.102407
-0.120562 -0.121983 -0.121983
-0.0859739 -0.117514 -0.117514
-0.0782629 -0.0978901 -0.0978901
-0.115188 -0.11197 -0.11197
-0.103227 -0.119556 -0.119556
-0.0821218 -0.107477 -0.107477
-0.0939926 -0.0999546 -0.0999546
-0.098614 -0.10953 -0.10953
-0.120562 -0.121983 -0.121983
-0.131279 -0.143352 -0.143352
-0.0936581 -0.138934 -0.138934
-0.0859739 -0.117514 -0.117514
-0.125926 -0.132444 -0.132444
-0.112427 -0.140951 -0.140951
-0.0898192 -0.128001 -0.128001
-0.103227 -0.119556 -0.119556
-0.107831 -0.13003 -0.13003
-0.131279 -0.143352 -0.143352
-0.141955 -0.166505 -0.166505
-0.101317 -0.162139 -0.162139
-0.0936581 -0.138934 -0.138934
-0.136622 -0.154707 -0.154707
-0.121594 -0.164131 -0.164131
-0.0974906 -0.150314 -0.150314
-0.112427 -0.140951 -0.140951
-0.117014 -0.152319 -0.152319
-0.141955 -0.166505 -0.166505
-0.15259 -0.191431 -0.191431
-0.108951 -0.18712 -0.18712
-0.101317 -0.162139 -0.162139
-0.147277 -0.178747 -0.178747
-0.130728 -0.189085 -0.189085
-0.105137 -0.174408 -0.174408
-0.121594 -0.164131 -0.164131
-0.126165 -0.176387 -0.176387
-0.15259 -0.191431 -0.191431
-0.163185 -0.218121 -0.218121
-0.116562 -0.213866 -0.213866
-0.108951 -0.18712 -0.18712
-0.157892 -0.204556 -0.204556
-0.139831 -0.215805 -0.215805
-0.11276 -0.200273 -0.200273
-0.130728 -0.189085 -0.189085
-0.135284 -0.202225 -0.202225
-0.163185 -0.218121 -0.218121
-0.173742 -0.246565 -0.246565
-0.124152 -0.242368 -0.242368
-0.116562 -0.213866 -0.213866
-0.168468 -0.232125 -0.232125
-0.148904 -0.244279 -0.244279
-0.12036 -0.227898 -0.227898
-0.139831 -0.215805 -0.215805
-0.144371 -0.229823 -0.229823
-0.173742 -0.246565 -0.246565
-0.184261 -0.276754 -0.276754
-0.13172 -0.272616 -0.272616
-0.124152 -0.242368 -0.242368
-0.179006 -0.261442 -0.261442
-0.157948 -0.274498 -0.274498
-0.127938 -0.257275 -0.257275
-0.148904 -0.244279 -0.244279
-0.153429 -0.259171 -0.259171
-0.184261 -0.276754 -0.276754
-0.194744 -0.308677 -0.308677
-0.139268 -0.304601 -0.304601
-0.13172 -0.272616 -0.272616
-0.189507 -0.292499 -0.292499
-0.166963 -0.306453 -0.306453
-0.135497 -0.288392 -0.288392
-0.157948 -0.274498 -0.274498
-0.162459 -0.290259 -0.290259
-0.194744 -0.308677 -0.308677
-0.205191 -0.342325 -0.342325
-0.146798 -0.338313 -0.338313
-0.139268 -0.304601 -0.304601
-0.199972 -0.325286 -0.325286
-0.175952 -0.340134 -0.340134
-0.143035 -0.321242 -0.321242
-0.166963 -0.306453 -0.306453
-0.171461 -0.323078 -0.323078
-0.205191 -0.342325 -0.342325
-0.215605 -0.377688 -0.377688
-0.15431 -0.373742 -0.373742
-0.146798 -0.338313 -0.338313
-0.210402 -0.359793 -0.359793
-0.184915 -0.375531 -0.375531
-0.150556 -0.355813 -0.355813
-0.175952 -0.340134 -0.340134
-0.180436 -0.357619 -0.357619
-0.215605 -0.377688 -0.377688
-0.225986 -0.414758 -0.414758
-0.161805 -0.410878 -0.410878
-0.15431 -0.373742 -0.373742
-0.220799 -0.39601 -0.39601
-0.193852 -0.412635 -0.412635
-0.15806 -0.392097 -0.392097
-0.184915 -0.375531 -0.375531
-0.189387 -0.393871 -0.393871
-0.225986 -0.414758 -0.414758
-0.236334 -0.453524 -0.453524
-0.169285 -0.449713 -0.449713
-0.161805 -0.410878 -0.410878
-0.231164 -0.433929 -0.433929
-0.202766 -0.451437 -0.451437
-0.165547 -0.430084 -0.430084
-0.193852 -0.412635 -0.412635
-0.198312 -0.431825 -0.431825
-0.236334 -0.453524 -0.453524
-0.246651 -0.493977 -0.493977
-0.17675 -0.490236 -0.490236
-0.169285 -0.449713 -0.449713
-0.241496 -0.47354 -0.47354
-0.211657 -0.491926 -0.491926
-0.173019 -0.469764 -0.469764
-0.202766 -0.451437 -0.451437
-0.207214 -0.471471 -0.471471
-0.246651 -0.493977 -0.493977
-0.256938 -0.536107 -0.536107
-0.184201 -0.532438 -0.532438
-0.17675 -0.490236 -0.490236
-0.251798 -0.514833 -0.514833
-0.220526 -0.534093 -0.534093
-0.180477 -0.511128 -0.511128
-0.211657 -0.491926 -0.491926
-0.216094 -0.5128 -0.5128
-0.256938 -0.536107 -0.536107
-0.267196 -0.579904 -0.579904
-0.191639 -0.576309 -0.576309
-0.184201 -0.532438 -0.532438
-0.262071 -0.557798 -0.557798
-0.229374 -0.577928 -0.577928
-0.187922 -0.554166 -0.554166
-0.220526 -0.534093 -0.534093
-0.224953 -0.555803 -0.555803
-0.267196 -0.579904 -0.579904
-0.277425 -0.62536 -0.62536
-0.199066 -0.62184 -0.62184
-0.191639 -0.576309 -0.576309
-0.272314 -0.602425 -0.602425
-0.238202 -0.623422 -0.623422
-0.195354 -0.598868 -0.598868
-0.229374 -0.577928 -0.577928
-0.233791 -0.600469 -0.600469
-0.277425 -0.62536 -0.62536
-0.287627 -0.672464 -0.672464
-0.206481 -0.66902 -0.66902
-0.199066 -0.62184 -0.62184
-0.28253 -0.648706 -0.648706
-0.247011 -0.670566 -0.670566
-0.202775 -0.645224 -0.645224
-0.238202 -0.623422 -0.623422
-0.242609 -0.646789 -0.646789
-0.287627 -0.672464 -0.672464
-0.297803 -0.721206 -0.721206
-0.213887 -0.717841 -0.717841
-0.206481 -0.66902 -0.66902
-0.292719 -0.696631 -0.696631
-0.255801 -0.719349 -0.719349
-0.210185 -0.693226 -0.693226
-0.247011 -0.670566 -0.670566
-0.251408 -0.694753 -0.694753
-0.297803 -0.721206 -0.721206
-0.307953 -0.771578 -0.771578
-0.221283 -0.768293 -0.768293
-0.213887 -0.717841 -0.717841
-0.302881 -0.746189 -0.746189
-0.264574 -0.769762 -0.769762
-0.217586 -0.742864 -0.742864
-0.255801 -0.719349 -0.719349
-0.26019 -0.744352 -0.744352
-0.307953 -0.771578 -0.771578
-0.318078 -0.82357 -0.82357
-0.228671 -0.820365 -0.820365
-0.221283 -0.768293 -0.768293
-0.313019 -0.797372 -0.797372
-0.273331 -0.821795 -0.821795
-0.224978 -0.794127 -0.794127
-0.264574 -0.769762 -0.769762
-0.268955 -0.795576 -0.795576
-0.318078 -0.82357 -0.82357
-0.32818 -0.877172 -0.877172
-0.236052 -0.87405 -0.87405
-0.228671 -0.820365 -0.820365
-0.323132 -0.85017 -0.85017
-0.282072 -0.875439 -0.875439
-0.232362 -0.847007 -0.847007
-0.273331 -0.821795 -0.821795
-0.277703 -0.848416 -0.848416
-0.32818 -0.877172 -0.877172
-0.338258 -0.932374 -0.932374
-0.243426 -0.929335 -0.929335
-0.236052 -0.87405 -0.87405
-0.333222 -0.904573 -0.904573
-0.290798 -0.930684 -0.930684
-0.23974 -0.901493 -0.901493
-0.282072 -0.875439 -0.875439
-0.286437 -0.902862 -0.902862
-0.338258 -0.932374 -0.932374
-0.348314 -0.989167 -0.989167
-0.250794 -0.986213 -0.986213
-0.243426 -0.929335 -0.929335
-0.343289 -0.960572 -0.960572
-0.29951 -0.98752 -0.98752
-0.24711 -0.957576 -0.957576
-0.290798 -0.930684 -0.930684
-0.295155 -0.958904 -0.958904
-0.348314 -0.989167 -0.989167
-0.358348 -1.04754 -1.04754
-0.258157 -1.04467 -1.04467
-0.250794 -0.986213 -0.986213
-0.353334 -1.01816 -1.01816
-0.308208 -1.04594 -1.04594
-0.254476 -1.01525 -1.01525
-0.29951 -0.98752 -0.98752
-0.303861 -1.01653 -1.01653
-0.358348 -1.04754 -1.04754
-0.368362 -1.10749 -1.10749
-0.265515 -1.10471 -1.10471
-0.258157 -1.04467 -1.04467
-0.363358 -1.07732 -1.07732
-0.316894 -1.10593 -1.10593
-0.261836 -1.07449 -1.07449
-0.308208 -1.04594 -1.04594
-0.312553 -1.07574 -1.07574
-0.368362 -1.10749 -1.10749
-0.378356 -1.16899 -1.16899
-0.27287 -1.1663 -1.1663
-0.265515 -1.10471 -1.10471
-0.373361 -1.13805 -1.13805
-0.325568 -1.16748 -1.16748
-0.269193 -1.13531 -1.13531
-0.316894 -1.10593 -1.10593
-0.321233 -1.13651 -1.13651
-0.378356 -1.16899 -1.16899
-0.38833 -1.23206 -1.23206
-0.280222 -1.22945 -1.22945
-0.27287 -1.1663 -1.1663
-0.383345 -1.20033 -1.20033
-0.334232 -1.23059 -1.23059
-0.276547 -1.19769 -1.19769
-0.325568 -1.16748 -1.16748
-0.329901 -1.19884 -1.19884
-0.38833 -1.23206 -1.23206
-0.398286 -1.29666 -1.29666
-0.287572 -1.29415 -1.29415
-0.280222 -1.22945 -1.22945
-0.39331 -1.26416 -1.26416
-0.342884 -1.29524 -1.29524
-0.283898 -1.26161 -1.26161
-0.334232 -1.23059 -1.23059
-0.338559 -1.26272 -1.26272
-0.398286 -1.29666 -1.29666
-0.408223 -1.36279 -1.36279
-0.294921 -1.36038 -1.36038
-0.287572 -1.29415 -1.29415
-0.403257 -1.32954 -1.32954
-0.351528 -1.36142 -1.36142
-0.291247 -1.32707 -1.32707
-0.342884 -1.29524 -1.29524
-0.347207 -1.32814 -1.32814
-0.408223 -1.36279 -1.36279
-0.418144 -1.43045 -1.43045
-0.302269 -1.42813 -1.42813
-0.294921 -1.36038 -1.36038
-0.413186 -1.39643 -1.39643
-0.360162 -1.42913 -1.42913
-0.298595 -1.39406 -1.39406
-0.351528 -1.36142 -1.36142
-0.355846 -1.39509 -1.39509
-0.418144 -1.43045 -1.43045
-0.428048 -1.49963 -1.49963
-0.309616 -1.4974 -1.4974
-0.302269 -1.42813 -1.42813
-0.423098 -1.46485 -1.46485
-0.368787 -1.49835 -1.49835
-0.305942 -1.46258 -1.46258
-0.360162 -1.42913 -1.42913
-0.364476 -1.46355 -1.46355
-0.428048 -1.49963 -1.49963
-0.437936 -1.57031 -1.57031
-0.316964 -1.56817 -1.56817
-0.309616 -1.4974 -1.4974
-0.432994 -1.53478 -1.53478
-0.377405 -1.56908 -1.56908
-0.31329 -1.5326 -1.5326
-0.368787 -1.49835 -1.49835
-0.373097 -1.53353 -1.53353
-0.437936 -1.57031 -1.57031
-0.447809 -1.64248 -1.64248
-0.324314 -1.64044 -1.64044
-0.316964 -1.56817 -1.56817
-0.442875 -1.60621 -1.60621
-0.386016 -1.6413 -1.6413
-0.320639 -1.60412 -1.60412
-0.377405 -1.56908 -1.56908
-0.381712 -1.60501 -1.60501
-0.447809 -1.64248 -1.64248
-0.457667 -1.71614 -1.71614
-0.331665 -1.7142 -1.7142
-0.324314 -1.64044 -1.64044
-0.45274 -1.67912 -1.67912
-0.394621 -1.71501 -1.71501
-0.327989 -1.67714 -1.67714
-0.386016 -1.6413 -1.6413
-0.390319 -1.67797 -1.67797
-0.457667 -1.71614 -1.71614
-0.467511 -1.79127 -1.79127
-0.339018 -1.78943 -1.78943
-0.331665 -1.7142 -1.7142
-0.462591 -1.75352 -1.75352
-0.40322 -1.7902 -1.7902
-0.335341 -1.75163 -1.75163
-0.394621 -1.71501 -1.71501
-0.398921 -1.75242 -1.75242
-0.467511 -1.79127 -1.79127
-0.477342 -1.86787 -1.86787
-0.346374 -1.86613 -1.86613
-0.339018 -1.78943 -1.78943
-0.472428 -1.82939 -1.82939
-0.411813 -1.86685 -1.86685
-0.342696 -1.8276 -1.8276
-0.40322 -1.7902 -1.7902
-0.407517 -1.82834 -1.82834
-0.477342 -1.86787 -1.86787
-0.487159 -1.94593 -1.94593
-0.353734 -1.94429 -1.94429
-0.346374 -1.86613 -1.86613
-0.482252 -1.90672 -1.90672
-0.420401 -1.94496 -1.94496
-0.350054 -1.90503 -1.90503
-0.411813 -1.86685 -1.86685
-0.416108 -1.90572 -1.90572
-0.487159 -1.94593 -1.94593
-0.496964 -2.02543 -2.02543
-0.361098 -2.0239 -2.0239
-0.353734 -1.94429 -1.94429
-0.492063 -1.9855 -1.9855
-0.428986 -2.02451 -2.02451
-0.357415 -1.98391 -1.98391
-0.420401 -1.94496 -1.94496
-0.424694 -1.98455 -1.98455
-0.496964 -2.02543 -2.02543
-0.506758 -2.10637 -2.10637
-0.368466 -2.10494 -2.10494
-0.361098 -2.0239 -2.0239
-0.501862 -2.06572 -2.06572
-0.437566 -2.1055 -2.1055
-0.364781 -2.06424 -2.06424
-0.428986 -2.02451 -2.02451
-0.433277 -2.06483 -2.06483
-0.506758 -2.10637 -2.10637
-0.516539 -2.18874 -2.18874
-0.375839 -2.18741 -2.18741
-0.368466 -2.10494 -2.10494
-0.51165 -2.14738 -2.14738
-0.446144 -2.18792 -2.18792
-0.372152 -2.146 -2.146
-0.437566 -2.1055 -2.1055
-0.441855 -2.14654 -2.14654
-0.516539 -2.18874 -2.18874
-0.52631 -2.27253 -2.27253
-0.383218 -2.2713 -2.2713
-0.375839 -2.18741 -2.18741
-0.521426 -2.23046 -2.23046
-0.454719 -2.27176 -2.27176
-0.379528 -2.22918 -2.22918
-0.446144 -2.18792 -2.18792
-0.450431 -2.22967 -2.22967
-0.52631 -2.27253 -2.27253
-0.53607 -2.35772 -2.35772
-0.390602 -2.3566 -2.3566
-0.383218 -2.2713 -2.2713
-0.531192 -2.31495 -2.31495
-0.463291 -2.35701 -2.35701
-0.386909 -2.31377 -2.31377
-0.454719 -2.27176 -2.27176
-0.459005 -2.31421 -2.31421
-0.53607 -2.35772 -2.35772
-0.545821 -2.44431 -2.44431
-0.397993 -2.4433 -2.4433
-0.390602 -2.3566 -2.3566
-0.540947 -2.40084 -2.40084
-0.471862 -2.44366 -2.44366
-0.394297 -2.39977 -2.39977
-0.463291 -2.35701 -2.35701
-0.467577 -2.40016 -2.40016
-0.545821 -2.44431 -2.44431
-0.555562 -2.5323 -2.5323
-0.405391 -2.53139 -2.53139
-0.397993 -2.4433 -2.4433
-0.550692 -2.48813 -2.48813
-0.480431 -2.53169 -2.53169
-0.401692 -2.48717 -2.48717
-0.471862 -2.44366 -2.44366
-0.476147 -2.4875 -2.4875
-0.555562 -2.5323 -2.5323
-0.565293 -2.62166 -2.62166
-0.412797 -2.62085 -2.62085
-0.405391 -2.53139 -2.53139
-0.560429 -2.57681 -2.57681
-0.489 -2.62111 -2.62111
-0.409093 -2.57595 -2.57595
-0.480431 -2.53169 -2.53169
-0.484715 -2.57623 -2.57623
-0.565293 -2.62166 -2.62166
-0.575016 -2.71239 -2.71239
-0.42021 -2.71169 -2.71169
-0.412797 -2.62085 -2.62085
-0.570156 -2.66685 -2.66685
-0.497568 -2.7119 -2.7119
-0.416502 -2.6661 -2.6661
-0.489 -2.62111 -2.62111
-0.493284 -2.66633 -2.66633
-0.575016 -2.71239 -2.71239
-0.584731 -2.80448 -2.80448
-0.427631 -2.80389 -2.80389
-0.42021 -2.71169 -2.71169
-0.579875 -2.75827 -2.75827
-0.506135 -2.80404 -2.80404
-0.423919 -2.75762 -2.75762
-0.497568 -2.7119 -2.7119
-0.501851 -2.7578 -2.7578
-0.584731 -2.80448 -2.80448
-0.594438 -2.89793 -2.89793
-0.43506 -2.89745 -2.89745
-0.427631 -2.80389 -2.80389
-0.589585 -2.85104 -2.85104
-0.514703 -2.89754 -2.89754
-0.431345 -2.8505 -2.8505
-0.506135 -2.80404 -2.80404
-0.510419 -2.85062 -2.85062
-0.594438 -2.89793 -2.89793
-0.604137 -2.99271 -2.99271
-0.442499 -2.99234 -2.99234
-0.43506 -2.89745 -2.89745
-0.599288 -2.94515 -2.94515
-0.523272 -2.99238 -2.99238
-0.438779 -2.94472 -2.94472
-0.514703 -2.89754 -2.89754
-0.518988 -2.9448 -2.9448
-0.604137 -2.99271 -2.99271
-0.613829 -3.08882 -3.08882
-0.449946 -3.08856 -3.08856
-0.442499 -2.99234 -2.99234
-0.608984 -3.0406 -3.0406
-0.531842 -3.08855 -3.08855
-0.446221 -3.04029 -3.04029
-0.523272 -2.99238 -2.99238
-0.527557 -3.0403 -3.0403
-0.613829 -3.08882 -3.08882
-0.623514 -3.18626 -3.18626
-0.457404 -3.18611 -3.18611
-0.449946 -3.08856 -3.08856
-0.618672 -3.13738 -3.13738
-0.540413 -3.18605 -3.18605
-0.453674 -3.13717 -3.13717
-0.531842 -3.08855 -3.08855
-0.536127 -3.13714 -3.13714
-0.623514 -3.18626 -3.18626
-0.633192 -3.28501 -3.28501
-0.464871 -3.28497 -3.28497
-0.457404 -3.18611 -3.18611
-0.628354 -3.23547 -3.23547
-0.548986 -3.28485 -3.28485
-0.461136 -3.23538 -3.23538
-0.540413 -3.18605 -3.18605
-0.544699 -3.23529 -3.23529
-0.633192 -3.28501 -3.28501
-0.642864 -3.38506 -3.38506
-0.472348 -3.38514 -3.38514
-0.464871 -3.28497 -3.28497
-0.638029 -3.33487 -3.33487
-0.55756 -3.38496 -3.38496
-0.468608 -3.33489 -3.33489
-0.548986 -3.28485 -3.28485
-0.553273 -3.33474 -3.33474
-0.642864 -3.38506 -3.38506
-0.65253 -3.48641 -3.48641
-0.479835 -3.48659 -3.48659
-0.472348 -3.38514 -3.38514
-0.647698 -3.43557 -3.43557
-0.566137 -3.48636 -3.48636
-0.47609 -3.4357 -3.4357
-0.55756 -3.38496 -3.38496
-0.561848 -3.4355 -3.4355
-0.65253 -3.48641 -3.48641
-0.662191 -3.58904 -3.58904
-0.487333 -3.58933 -3.58933
-0.479835 -3.48659 -3.48659
-0.657361 -3.53756 -3.53756
-0.574716 -3.58905 -3.58905
-0.483583 -3.5378 -3.5378
-0.566137 -3.48636 -3.48636
-0.570426 -3.53755 -3.53755
-0.662191 -3.58904 -3.58904
-0.671846 -3.69294 -3.69294
-0.494842 -3.69335 -3.69335
-0.487333 -3.58933 -3.58933
-0.667019 -3.64083 -3.64083
-0.583298 -3.69301 -3.69301
-0.491087 -3.64118 -3.64118
-0.574716 -3.58905 -3.58905
-0.579007 -3.64087 -3.64087
-0.671846 -3.69294 -3.69294
-0.681495 -3.7981 -3.7981
-0.502363 -3.79863 -3.79863
-0.494842 -3.69335 -3.69335
-0.676671 -3.74536 -3.74536
-0.591883 -3.79823 -3.79823
-0.498601 -3.74583 -3.74583
-0.583298 -3.69301 -3.69301
-0.58759 -3.74546 -3.74546
-0.681495 -3.7981 -3.7981
-0.69114 -3.90453 -3.90453
-0.509895 -3.90516 -3.90516
-0.502363 -3.79863 -3.79863
-0.686318 -3.85116 -3.85116
-0.600471 -3.90471 -3.90471
-0.506127 -3.85174 -3.85174
-0.591883 -3.79823 -3.79823
-0.596177 -3.85132 -3.85132
-0.69114 -3.90453 -3.90453
-0.70078 -4.01219 -4.01219
-0.517438 -4.01294 -4.01294
-0.509895 -3.90516 -3.90516
-0.695961 -3.9582 -3.9582
-0.609063 -4.01244 -4.01244
-0.513665 -3.9589 -3.9589
-0.600471 -3.90471 -3.90471
-0.604767 -3.95842 -3.95842
-0.70078 -4.01219 -4.01219
-0.710415 -4.12109 -4.12109
-0.524993 -4.12196 -4.12196
-0.517438 -4.01294 -4.01294
-0.705598 -4.06649 -4.06649
-0.617658 -4.1214 -4.1214
-0.521214 -4.0673 -4.0673
-0.609063 -4.01244 -4.01244
-0.61336 -4.06676 -4.06676
-0.710415 -4.12109 -4.12109
-0.720046 -4.23122 -4.23122
-0.53256 -4.2322 -4.2322
-0.524993 -4.12196 -4.12196
-0.715231 -4.176 -4.176
-0.626258 -4.23158 -4.23158
-0.528775 -4.17693 -4.17693
-0.617658 -4.1214 -4.1214
-0.621957 -4.17634 -4.17634
-0.720046 -4.23122 -4.23122
-0.729673 -4.34256 -4.34256
-0.54014 -4.34366 -4.34366
-0.53256 -4.2322 -4.2322
-0.72486 -4.28674 -4.28674
-0.634861 -4.34298 -4.34298
-0.536349 -4.28778 -4.28778
-0.626258 -4.23158 -4.23158
-0.630559 -4.28713 -4.28713
-0.729673 -4.34256 -4.34256
-0.739296 -4.45511 -4.45511
-0.547732 -4.45632 -4.45632
-0.54014 -4.34366 -4.34366
-0.734485 -4.39869 -4.39869
-0.643468 -4.45559 -4.45559
-0.543934 -4.39984 -4.39984
-0.634861 -4.34298 -4.34298
-0.639164 -4.39914 -4.39914
-0.739296 -4.45511 -4.45511
-0.748915 -4.56886 -4.56886
-0.555336 -4.57018 -4.57018
-0.547732 -4.45632 -4.45632
-0.744106 -4.51184 -4.51184
-0.652079 -4.5694 -4.5694
-0.551532 -4.5131 -4.5131
-0.643468 -4.45559 -4.45559
-0.647773 -4.51234 -4.51234
-0.748915 -4.56886 -4.56886
-0.75853 -4.68379 -4.68379
-0.562953 -4.68523 -4.68523
-0.555336 -4.57018 -4.57018
-0.753723 -4.62618 -4.62618
-0.660695 -4.68439 -4.68439
-0.559143 -4.62756 -4.62756
-0.652079 -4.5694 -4.5694
-0.656387 -4.62674 -4.62674
-0.75853 -4.68379 -4.68379
-0.768141 -4.7999 -4.7999
-0.570583 -4.80146 -4.80146
-0.562953 -4.68523 -4.68523
-0.763336 -4.7417 -4.7417
-0.669316 -4.80056 -4.80056
-0.566766 -4.7432 -4.7432
-0.660695 -4.68439 -4.68439
-0.665005 -4.74233 -4.74233
-0.768141 -4.7999 -4.7999
-0.777749 -4.91718 -4.91718
-0.578225 -4.91886 -4.91886
-0.570583 -4.80146 -4.80146
-0.772945 -4.8584 -4.8584
-0.677941 -4.9179 -4.9179
-0.574402 -4.86001 -4.86001
-0.669316 -4.80056 -4.80056
-0.673628 -4.85908 -4.85908
-0.777749 -4.91718 -4.91718
-0.787353 -5.03562 -5.03562
-0.58588 -5.03741 -5.03741
-0.578225 -4.91886 -4.91886
-0.782551 -4.97626 -4.97626
-0.686571 -5.03639 -5.03639
-0.582051 -4.97799 -4.97799
-0.677941 -4.9179 -4.9179
-0.682255 -4.977 -4.977
-0.787353 -5.03562 -5.03562
-0.796954 -5.15521 -5.15521
-0.593549 -5.15711 -5.15711
-0.58588 -5.03741 -5.03741
-0.792154 -5.09527 -5.09527
-0.695205 -5.15604 -5.15604
-0.589713 -5.09712 -5.09712
-0.686571 -5.03639 -5.03639
-0.690887 -5.09607 -5.09607
-0.796954 -5.15521 -5.15521
-0.806551 -5.27593 -5.27593
-0.60123 -5.27796 -5.27796
-0.593549 -5.15711 -5.15711
-0.801753 -5.21543 -5.21543
-0.703845 -5.27683 -5.27683
-0.597388 -5.21739 -5.21739
-0.695205 -5.15604 -5.15604
-0.699525 -5.21629 -5.21629
-0.806551 -5.27593 -5.27593
-0.816146 -5.39779 -5.39779
-0.608925 -5.39993 -5.39993
-0.60123 -5.27796 -5.27796
-0.811349 -5.33672 -5.33672
-0.712489 -5.39874 -5.39874
-0.605076 -5.3388 -5.3388
-0.703845 -5.27683 -5.27683
-0.708166 -5.33764 -5.33764
-0.816146 -5.39779 -5.39779
-0.825737 -5.52077 -5.52077
-0.616633 -5.52302 -5.52302
-0.608925 -5.39993 -5.39993
-0.820942 -5.45914 -5.45914
-0.721139 -5.52178 -5.52178
-0.612777 -5.46133 -5.46133
-0.712489 -5.39874 -5.39874
-0.716813 -5.46012 -5.46012
-0.825737 -5.52077 -5.52077
-0.835325 -5.64485 -5.64485
-0.624354 -5.64722 -5.64722
-0.616633 -5.52302 -5.52302
-0.830531 -5.58267 -5.58267
-0.729793 -5.64592 -5.64592
-0.620491 -5.58498 -5.58498
-0.721139 -5.52178 -5.52178
-0.725465 -5.58371 -5.58371
-0.835325 -5.64485 -5.64485
-0.844909 -5.77004 -5.77004
-0.632088 -5.77253 -5.77253
-0.624354 -5.64722 -5.64722
-0.840117 -5.70731 -5.70731
-0.738453 -5.77117 -5.77117
-0.628219 -5.70974 -5.70974
-0.729793 -5.64592 -5.64592
-0.734122 -5.70841 -5.70841
-0.844909 -5.77004 -5.77004
-0.854491 -5.89632 -5.89632
-0.639835 -5.89892 -5.89892
-0.632088 -5.77253 -5.77253
-0.8497 -5.83304 -5.83304
-0.747117 -5.8975 -5.8975
-0.63596 -5.83559 -5.83559
-0.738453 -5.77117 -5.77117
-0.742784 -5.8342 -5.8342
-0.854491 -5.89632 -5.89632
-0.864069 -6.02368 -6.02368
-0.647596 -6.0264 -6.0264
-0.639835 -5.89892 -5.89892
-0.85928 -5.95986 -5.95986
-0.755786 -6.02492 -6.02492
-0.643714 -5.96252 -5.96252
-0.747117 -5.8975 -5.8975
-0.751451 -5.96108 -5.96108
-0.864069 -6.02368 -6.02368
-0.873644 -6.15211 -6.15211
-0.655369 -6.15494 -6.15494
-0.647596 -6.0264 -6.0264
-0.868857 -6.08776 -6.08776
-0.764461 -6.15341 -6.15341
-0.651481 -6.09054 -6.09054
-0.755786 -6.02492 -6.02492
-0.760123 -6.08903 -6.08903
-0.873644 -6.15211 -6.15211
-0.883216 -6.2816 -6.2816
-0.663156 -6.28455 -6.28455
-0.655369 -6.15494 -6.15494
-0.87843 -6.21672 -6.21672
-0.77314 -6.28297 -6.28297
-0.659261 -6.21962 -6.21962
-0.764461 -6.15341 -6.15341
-0.7688 -6.21806 -6.21806
-0.883216 -6.2816 -6.2816
-0.892784 -6.41215 -6.41215
-0.670956 -6.41521 -6.41521
-0.663156 -6.28455 -6.28455
-0.888 -6.34674 -6.34674
-0.781824 -6.41357 -6.41357
-0.667054 -6.34975 -6.34975
-0.77314 -6.28297 -6.28297
-0.777481 -6.34814 -6.34814
-0.892784 -6.41215 -6.41215
-0.902349 -6.54374 -6.54374
-0.678769 -6.54692 -6.54692
-0.670956 -6.41521 -6.41521
-0.897567 -6.47781 -6.47781
-0.790513 -6.54522 -6.54522
-0.674861 -6.48094 -6.48094
-0.781824 -6.41357 -6.41357
-0.786168 -6.47927 -6.47927
-0.902349 -6.54374 -6.54374
-0.911911 -6.67636 -6.67636
-0.686595 -6.67966 -6.67966
-0.678769 -6.54692 -6.54692
-0.90713 -6.60992 -6.60992
-0.799207 -6.6779 -6.6779
-0.68268 -6.61316 -6.61316
-0.790513 -6.54522 -6.54522
-0.794859 -6.61143 -6.61143
-0.911911 -6.67636 -6.67636
-0.921469 -6.81001 -6.81001
-0.694433 -6.81342 -6.81342
-0.686595 -6.67966 -6.67966
-0.91669 -6.74305 -6.74305
-0.807905 -6.81161 -6.81161
-0.690512 -6.74641 -6.74641
-0.799207 -6.6779 -6.6779
-0.803555 -6.74463 -6.74463
-0.921469 -6.81001 -6.81001
-0.931023 -6.94467 -6.94467
-0.702285 -6.9482 -6.9482
-0.694433 -6.81342 -6.81342
-0.926246 -6.87721 -6.87721
-0.816608 -6.94633 -6.94633
-0.698357 -6.88068 -6.88068
-0.807905 -6.81161 -6.81161
-0.812256 -6.87884 -6.87884
-0.931023 -6.94467 -6.94467
-0.940574 -7.08033 -7.08033
-0.710149 -7.08398 -7.08398
-0.702285 -6.9482 -6.9482
-0.935799 -7.01237 -7.01237
-0.825315 -7.08205 -7.08205
-0.706215 -7.01596 -7.01596
-0.816608 -6.94633 -6.94633
-0.820961 -7.01406 -7.01406
-0.940574 -7.08033 -7.08033
-0.950121 -7.21699 -7.21699
-0.718025 -7.22075 -7.22075
-0.710149 -7.08398 -7.08398
-0.945348 -7.14854 -7.14854
-0.834027 -7.21877 -7.21877
-0.714085 -7.15224 -7.15224
-0.825315 -7.08205 -7.08205
-0.829671 -7.15029 -7.15029
-0.950121 -7.21699 -7.21699
-0.959664 -7.35464 -7.35464
-0.725914 -7.35851 -7.35851
-0.718025 -7.22075 -7.22075
-0.954893 -7.28569 -7.28569
-0.842743 -7.35647 -7.35647
-0.721968 -7.28951 -7.28951
-0.834027 -7.21877 -7.21877
-0.838384 -7.2875 -7.2875
-0.959664 -7.35464 -7.35464
-0.969202 -7.49326 -7.49326
-0.733815 -7.49725 -7.49725
-0.725914 -7.35851 -7.35851
-0.964433 -7.42383 -7.42383
-0.851463 -7.49515 -7.49515
-0.729863 -7.42776 -7.42776
-0.842743 -7.35647 -7.35647
-0.847102 -7.42569 -7.42569
-0.969202 -7.49326 -7.49326
-0.978737 -7.63285 -7.63285
-0.741728 -7.63695 -7.63695
-0.733815 -7.49725 -7.49725
-0.97397 -7.56293 -7.56293
-0.860187 -7.6348 -7.6348
-0.73777 -7.56698 -7.56698
-0.851463 -7.49515 -7.49515
-0.855824 -7.56486 -7.56486
-0.978737 -7.63285 -7.63285
-0.988267 -7.77339 -7.77339
-0.749654 -7.77761 -7.77761
-0.741728 -7.63695 -7.63695
-0.983502 -7.703 -7.703
-0.868914 -7.7754 -7.7754
-0.74569 -7.70716 -7.70716
-0.860187 -7.6348 -7.6348
-0.86455 -7.70498 -7.70498
-0.988267 -7.77339 -7.77339
-0.997792 -7.91488 -7.91488
-0.757591 -7.91921 -7.91921
-0.749654 -7.77761 -7.77761
-0.99303 -7.84402 -7.84402
-0.877645 -7.91695 -7.91695
-0.753621 -7.84829 -7.84829
-0.868914 -7.7754 -7.7754
-0.873279 -7.84606 -7.84606
-0.997792 -7.91488 -7.91488
-1.00731 -8.05731 -8.05731
-0.765539 -8.06176 -8.06176
-0.757591 -7.91921 -7.91921
-1.00255 -7.98598 -7.98598
-0.88638 -8.05944 -8.05944
-0.761563 -7.99037 -7.99037
-0.877645 -7.91695 -7.91695
-0.882012 -7.98808 -7.98808
-1.00731 -8.05731 -8.05731
-1.01683 -8.20067 -8.20067
-0.773499 -8.20522 -8.20522
-0.765539 -8.06176 -8.06176
-1.01207 -8.12887 -8.12887
-0.895118 -8.20285 -8.20285
-0.769518 -8.13337 -8.13337
-0.88638 -8.05944 -8.05944
-0.890749 -8.13103 -8.13103
-1.01683 -8.20067 -8.20067
-1.02634 -8.34494 -8.34494
-0.78147 -8.34961 -8.34961
-0.773499 -8.20522 -8.20522
-1.02158 -8.27269 -8.27269
-0.903858 -8.34718 -8.34718
-0.777483 -8.2773 -8.2773
-0.895118 -8.20285 -8.20285
-0.899488 -8.2749 -8.2749
-1.02634 -8.34494 -8.34494
-1.03584 -8.49012 -8.49012
-0.789452 -8.49491 -8.49491
-0.78147 -8.34961 -8.34961
-1.03109 -8.41742 -8.41742
-0.912602 -8.49242 -8.49242
-0.78546 -8.42215 -8.42215
-0.903858 -8.34718 -8.34718
-0.90823 -8.41969 -8.41969
-1.03584 -8.49012 -8.49012
-1.04534 -8.6362 -8.6362
-0.797445 -8.6411 -8.6411
-0.789452 -8.49491 -8.49491
-1.04059 -8.56305 -8.56305
-0.921348 -8.63856 -8.63856
-0.793447 -8.56789 -8.56789
-0.912602 -8.49242 -8.49242
-0.916975 -8.56538 -8.56538
-1.04534 -8.6362 -8.6362
-1.05484 -8.78317 -8.78317
-0.805448 -8.78818 -8.78818
-0.797445 -8.6411 -8.6411
-1.05009 -8.70958 -8.70958
-0.930096 -8.78559 -8.78559
-0.801445 -8.71453 -8.71453
-0.921348 -8.63856 -8.63856
-0.925722 -8.71196 -8.71196
-1.05484 -8.78317 -8.78317
-1.06432 -8.93103 -8.93103
-0.813461 -8.93614 -8.93614
-0.805448 -8.78818 -8.78818
-1.05958 -8.85699 -8.85699
-0.938847 -8.93349 -8.93349
-0.809453 -8.86205 -8.86205
-0.930096 -8.78559 -8.78559
-0.934471 -8.85943 -8.85943
-1.06432 -8.93103 -8.93103
-1.0738 -9.07975 -9.07975
-0.821484 -9.08497 -9.08497
-0.813461 -8.93614 -8.93614
-1.06906 -9.00528 -9.00528
-0.947599 -9.08227 -9.08227
-0.817472 -9.01045 -9.01045
-0.938847 -8.93349 -8.93349
-0.943222 -9.00777 -9.00777
-1.0738 -9.07975 -9.07975
-1.08328 -9.22933 -9.22933
-0.829517 -9.23466 -9.23466
-0.821484 -9.08497 -9.08497
-1.07854 -9.15443 -9.15443
-0.956352 -9.23191 -9.23191
-0.8255 -9.15971 -9.15971
-0.947599 -9.08227 -9.08227
-0.951975 -9.15698 -9.15698
-1.08328 -9.22933 -9.22933
-1.09275 -9.37976 -9.37976
-0.83756 -9.38521 -9.38521
-0.829517 -9.23466 -9.23466
-1.08801 -9.30444 -9.30444
-0.965107 -9.38239 -9.38239
-0.833538 -9.30983 -9.30983
-0.956352 -9.23191 -9.23191
-0.96073 -9.30704 -9.30704
-1.09275 -9.37976 -9.37976
-1.10221 -9.53103 -9.53103
-0.845611 -9.53659 -9.53659
-0.83756 -9.38521 -9.38521
-1.09748 -9.45529 -9.45529
-0.973863 -9.53372 -9.53372
-0.841585 -9.46079 -9.46079
-0.965107 -9.38239 -9.38239
-0.969485 -9.45795 -9.45795
-1.10221 -9.53103 -9.53103
-1.11166 -9.68313 -9.68313
-0.853672 -9.6888 -9.6888
-0.845611 -9.53659 -9.53659
-1.10693 -9.60698 -9.60698
-0.982619 -9.68588 -9.68588
-0.849641 -9.61259 -9.61259
-0.973863 -9.53372 -9.53372
-0.978241 -9.6097 -9.6097
-1.11166 -9.68313 -9.68313
-1.1211 -9.83606 -9.83606
-0.861741 -9.84183 -9.84183
-0.853672 -9.6888 -9.6888
-1.11638 -9.75949 -9.75949
-0.991376 -9.83886 -9.83886
-0.857705 -9.76521 -9.76521
-0.982619 -9.68588 -9.68588
-0.986998 -9.76227 -9.76227
-1.1211 -9.83606 -9.83606
-1.13054 -9.9898 -9.9898
-0.869818 -9.99568 -9.99568
-0.861741 -9.84183 -9.84183
-1.12582 -9.91283 -9.91283
-1.00013 -9.99266 -9.99266
-0.865778 -9.91866 -9.91866
-0.991376 -9.83886 -9.83886
-0.995755 -9.91566 -9.91566
-1.13054 -9.9898 -9.9898
-1.13997 -10.1443 -10.1443
-0.877903 -10.1503 -10.1503
-0.869818 -9.99568 -9.99568
-1.13525 -10.067 -10.067
-1.00889 -10.1473 -10.1473
-0.873859 -10.0729 -10.0729
-1.00013 -9.99266 -9.99266
-1.00451 -10.0699 -10.0699
-1.13997 -10.1443 -10.1443
-1.14939 -10.2997 -10.2997
-0.885995 -10.3058 -10.3058
-0.877903 -10.1503 -10.1503
-1.14468 -10.2219 -10.2219
-1.01765 -10.3026 -10.3026
-0.881948 -10.2279 -10.2279
-1.00889 -10.1473 -10.1473
-1.01327 -10.2248 -10.2248
-1.14939 -10.2997 -10.2997
-1.1588 -10.4558 -10.4558
-0.894095 -10.462 -10.462
-0.885995 -10.3058 -10.3058
-1.15409 -10.3776 -10.3776
-1.0264 -10.4588 -10.4588
-0.890044 -10.3838 -10.3838
-1.01765 -10.3026 -10.3026
-1.02202 -10.3806 -10.3806
-1.1588 -10.4558 -10.4558
-1.1682 -10.6127 -10.6127
-0.902202 -10.619 -10.619
-0.894095 -10.462 -10.462
-1.1635 -10.5341 -10.5341
-1.03515 -10.6158 -10.6158
-0.898148 -10.5404 -10.5404
-1.0264 -10.4588 -10.4588
-1.03078 -10.5372 -10.5372
-1.1682 -10.6127 -10.6127
-1.17759 -10.7703 -10.7703
-0.910315 -10.7767 -10.7767
-0.902202 -10.619 -10.619
-1.17289 -10.6914 -10.6914
-1.04391 -10.7735 -10.7735
-0.906257 -10.6978 -10.6978
-1.03515 -10.6158 -10.6158
-1.03953 -10.6945 -10.6945
-1.17759 -10.7703 -10.7703
-1.18697 -10.9287 -10.9287
-0.918434 -10.9353 -10.9353
-0.910315 -10.7767 -10.7767
-1.18228 -10.8494 -10.8494
-1.05266 -10.9319 -10.9319
-0.914374 -10.8559 -10.8559
-1.04391 -10.7735 -10.7735
-1.04828 -10.8526 -10.8526
-1.18697 -10.9287 -10.9287
-1.19634 -11.0879 -11.0879
-0.926559 -11.0945 -11.0945
-0.918434 -10.9353 -10.9353
-1.19165 -11.0082 -11.0082
-1.0614 -11.0911 -11.0911
-0.922496 -11.0148 -11.0148
-1.05266 -10.9319 -10.9319
-1.05703 -11.0114 -11.0114
-1.19634 -11.0879 -11.0879
-1.2057 -11.2478 -11.2478
-0.934689 -11.2545 -11.2545
-0.926559 -11.0945 -11.0945
-1.20102 -11.1678 -11.1678
-1.07015 -11.2511 -11.2511
-0.930623 -11.1744 -11.1744
-1.0614 -11.0911 -11.0911
-1.06578 -11.171 -11.171
-1.2057 -11.2478 -11.2478
-1.21504 -11.4084 -11.4084
-0.942824 -11.4152 -11.4152
-0.934689 -11.2545 -11.2545
-1.21037 -11.328 -11.328
-1.07889 -11.4117 -11.4117
-0.938756 -11.3348 -11.3348
-1.07015 -11.2511 -11.2511
-1.07452 -11.3313 -11.3313
-1.21504 -11.4084 -11.4084
-1.22438 -11.5697 -11.5697
-0.950964 -11.5767 -11.5767
-0.942824 -11.4152 -11.4152
-1.21971 -11.489 -11.489
-1.08763 -11.5731 -11.5731
-0.946894 -11.4959 -11.4959
-1.07889 -11.4117 -11.4117
-1.08326 -11.4924 -11.4924
-1.22438 -11.5697 -11.5697
-1.2337 -11.7318 -11.7318
-0.959108 -11.7388 -11.7388
-0.950964 -11.5767 -11.5767
-1.22904 -11.6507 -11.6507
-1.09636 -11.7352 -11.7352
-0.955035 -11.6576 -11.6576
-1.08763 -11.5731 -11.5731
-1.09199 -11.6541 -11.6541
-1.2337 -11.7318 -11.7318
-1.24301 -11.8945 -11.8945
-0.967255 -11.9016 -11.9016
-0.959108 -11.7388 -11.7388
-1.23836 -11.8131 -11.8131
-1.10509 -11.898 -11.898
-0.963181 -11.8201 -11.8201
-1.09636 -11.7352 -11.7352
-1.10073 -11.8165 -11.8165
-1.24301 -11.8945 -11.8945
-1.25231 -12.0579 -12.0579
-0.975406 -12.0652 -12.0652
-0.967255 -11.9016 -11.9016
-1.24766 -11.9761 -11.9761
-1.11381 -12.0615 -12.0615
-0.97133 -11.9833 -11.9833
-1.10509 -11.898 -11.898
-1.10945 -11.9797 -11.9797
-1.25231 -12.0579 -12.0579
-1.2616 -12.222 -12.222
-0.98356 -12.2294 -12.2294
-0.975406 -12.0652 -12.0652
-1.25696 -12.1399 -12.1399
-1.12253 -12.2256 -12.2256
-0.979483 -12.1472 -12.1472
-1.11381 -12.0615 -12.0615
-1.11817 -12.1435 -12.1435
-1.2616 -12.222 -12.222
-1.27087 -12.3868 -12.3868
-0.991716 -12.3942 -12.3942
-0.98356 -12.2294 -12.2294
-1.26623 -12.3043 -12.3043
-1.13125 -12.3905 -12.3905
-0.987638 -12.3117 -12.3117
-1.12253 -12.2256 -12.2256
-1.12689 -12.308 -12.308
-1.27087 -12.3868 -12.3868
-1.28012 -12.5522 -12.5522
-0.999874 -12.5598 -12.5598
-0.991716 -12.3942 -12.3942
-1.2755 -12.4694 -12.4694
-1.13995 -12.5559 -12.5559
-0.995795 -12.4769 -12.4769
-1.13125 -12.3905 -12.3905
-1.1356 -12.4731 -12.4731
-1.28012 -12.5522 -12.5522
-1.28936 -12.7183 -12.7183
-1.00803 -12.7259 -12.7259
-0.999874 -12.5598 -12.5598
-1.28474 -12.6352 -12.6352
-1.14865 -12.7221 -12.7221
-1.00395 -12.6428 -12.6428
-1.13995 -12.5559 -12.5559
-1.1443 -12.6389 -12.6389
-1.28936 -12.7183 -12.7183
-1.29859 -12.885 -12.885
-1.01619 -12.8927 -12.8927
-1.00803 -12.7259 -12.7259
-1.29398 -12.8016 -12.8016
-1.15735 -12.8888 -12.8888
-1.01211 -12.8093 -12.8093
-1.14865 -12.7221 -12.7221
-1.153 -12.8054 -12.8054
-1.29859 -12.885 -12.885
-1.3078 -13.0524 -13.0524
-1.02435 -13.0602 -13.0602
-1.01619 -12.8927 -12.8927
-1.3032 -12.9686 -12.9686
-1.16603 -13.0562 -13.0562
-1.02027 -12.9764 -12.9764
-1.15735 -12.8888 -12.8888
-1.16169 -12.9724 -12.9724
-1.3078 -13.0524 -13.0524
-1.31699 -13.2203 -13.2203
-1.03252 -13.2282 -13.2282
-1.02435 -13.0602 -13.0602
-1.3124 -13.1363 -13.1363
-1.17471 -13.2242 -13.2242
-1.02844 -13.1441 -13.1441
-1.16603 -13.0562 -13.0562
-1.17037 -13.1401 -13.1401
-1.31699 -13.2203 -13.2203
-1.32617 -13.3889 -13.3889
-1.04068 -13.3969 -13.3969
-1.03252 -13.2282 -13.2282
-1.32158 -13.3046 -13.3046
-1.18338 -13.3929 -13.3929
-1.0366 -13.3125 -13.3125
-1.17471 -13.2242 -13.2242
-1.17905 -13.3085 -13.3085
-1.32617 -13.3889 -13.3889
-1.33533 -13.5581 -13.5581
-1.04884 -13.5662 -13.5662
-1.04068 -13.3969 -13.3969
-1.33075 -13.4734 -13.4734
-1.19204 -13.5621 -13.5621
-1.04476 -13.4815 -13.4815
-1.18338 -13.3929 -13.3929
-1.18771 -13.4774 -13.4774
-1.33533 -13.5581 -13.5581
-1.34447 -13.7279 -13.7279
-1.05699 -13.736 -13.736
-1.04884 -13.5662 -13.5662
-1.3399 -13.6429 -13.6429
-1.20069 -13.7319 -13.7319
-1.05292 -13.651 -13.651
-1.19204 -13.5621 -13.5621
-1.19636 -13.6469 -13.6469
-1.34447 -13.7279 -13.7279
-1.3536 -13.8982 -13.8982
-1.06515 -13.9065 -13.9065
-1.05699 -13.736 -13.736
-1.34904 -13.813 -13.813
-1.20933 -13.9023 -13.9023
-1.06107 -13.8212 -13.8212
-1.20069 -13.7319 -13.7319
-1.20501 -13.817 -13.817
-1.3536 -13.8982 -13.8982
-1.3627 -14.0691 -14.0691
-1.0733 -14.0775 -14.0775
-1.06515 -13.9065 -13.9065
-1.35815 -13.9836 -13.9836
-1.21796 -14.0733 -14.0733
-1.06923 -13.9919 -13.9919
-1.20933 -13.9023 -13.9023
-1.21364 -13.9877 -13.9877
-1.3627 -14.0691 -14.0691
-1.37179 -14.2406 -14.2406
-1.08146 -14.2491 -14.2491
-1.0733 -14.0775 -14.0775
-1.36725 -14.1548 -14.1548
-1.22658 -14.2448 -14.2448
-1.07738 -14.1632 -14.1632
-1.21796 -14.0733 -14.0733
-1.22227 -14.1589 -14.1589
-1.37179 -14.2406 -14.2406
-1.38085 -14.4127 -14.4127
-1.0896 -14.4212 -14.4212
-1.08146 -14.2491 -14.2491
-1.37632 -14.3266 -14.3266
-1.23518 -14.4169 -14.4169
-1.08553 -14.335 -14.335
-1.22658 -14.2448 -14.2448
-1.23088 -14.3308 -14.3308
-1.38085 -14.4127 -14.4127
-1.3899 -14.5852 -14.5852
-1.09775 -14.5938 -14.5938
-1.0896 -14.4212 -14.4212
-1.38538 -14.4989 -14.4989
-1.24378 -14.5895 -14.5895
-1.09368 -14.5074 -14.5074
-1.23518 -14.4169 -14.4169
-1.23948 -14.5031 -14.5031
-1.3899 -14.5852 -14.5852
-1.39892 -14.7583 -14.7583
-1.10589 -14.767 -14.767
-1.09775 -14.5938 -14.5938
-1.39441 -14.6717 -14.6717
-1.25236 -14.7626 -14.7626
-1.10182 -14.6804 -14.6804
-1.24378 -14.5895 -14.5895
-1.24807 -14.676 -14.676
-1.39892 -14.7583 -14.7583
-1.40792 -14.932 -14.932
-1.11402 -14.9408 -14.9408
-1.10589 -14.767 -14.767
-1.40343 -14.8451 -14.8451
-1.26093 -14.9363 -14.9363
-1.10995 -14.8538 -14.8538
-1.25236 -14.7626 -14.7626
-1.25665 -14.8494 -14.8494
-1.40792 -14.932 -14.932
-1.41691 -15.1061 -15.1061
-1.12215 -15.115 -15.115
-1.11402 -14.9408 -14.9408
-1.41242 -15.019 -15.019
-1.26948 -15.1105 -15.1105
-1.11808 -15.0278 -15.0278
-1.26093 -14.9363 -14.9363
-1.26521 -15.0234 -15.0234
-1.41691 -15.1061 -15.1061
-1.42586 -15.2808 -15.2808
-1.13027 -15.2897 -15.2897
-1.12215 -15.115 -15.115
-1.42139 -15.1934 -15.1934
-1.27802 -15.2852 -15.2852
-1.12621 -15.2023 -15.2023
-1.26948 -15.1105 -15.1105
-1.27375 -15.1978 -15.1978
-1.42586 -15.2808 -15.2808
-1.4348 -15.4559 -15.4559
-1.13838 -15.465 -15.465
-1.13027 -15.2897 -15.2897
-1.43034 -15.3683 -15.3683
-1.28655 -15.4604 -15.4604
-1.13433 -15.3773 -15.3773
-1.27802 -15.2852 -15.2852
-1.28229 -15.3728 -15.3728
-1.4348 -15.4559 -15.4559
-1.44371 -15.6316 -15.6316
-1.14649 -15.6407 -15.6407
-1.13838 -15.465 -15.465
-1.43926 -15.5437 -15.5437
-1.29506 -15.6361 -15.6361
-1.14244 -15.5528 -15.5528
-1.28655 -15.4604 -15.4604
-1.29081 -15.5482 -15.5482
-1.44371 -15.6316 -15.6316
-1.4526 -15.8077 -15.8077
-1.15459 -15.8169 -15.8169
-1.14649 -15.6407 -15.6407
-1.44816 -15.7196 -15.7196
-1.30355 -15.8122 -15.8122
-1.15054 -15.7287 -15.7287
-1.29506 -15.6361 -15.6361
-1.29931 -15.7241 -15.7241
-1.4526 -15.8077 -15.8077
-1.46146 -15.9843 -15.9843
-1.16268 -15.9935 -15.9935
-1.15459 -15.8169 -15.8169
-1.45703 -15.8959 -15.8959
-1.31203 -15.9889 -15.9889
-1.15864 -15.9051 -15.9051
-1.30355 -15.8122 -15.8122
-1.30779 -15.9005 -15.9005
-1.46146 -15.9843 -15.9843
-1.4703 -16.1613 -16.1613
-1.17076 -16.1706 -16.1706
-1.16268 -15.9935 -15.9935
-1.46588 -16.0727 -16.0727
-1.32049 -16.1659 -16.1659
-1.16672 -16.082 -16.082
-1.31203 -15.9889 -15.9889
-1.31626 -16.0773 -16.0773
-1.4703 -16.1613 -16.1613
-1.47911 -16.3388 -16.3388
-1.17884 -16.3482 -16.3482
-1.17076 -16.1706 -16.1706
-1.47471 -16.25 -16.25
-1.32893 -16.3435 -16.3435
-1.1748 -16.2594 -16.2594
-1.32049 -16.1659 -16.1659
-1.32471 -16.2546 -16.2546
-1.47911 -16.3388 -16.3388
-1.4879 -16.5167 -16.5167
-1.1869 -16.5262 -16.5262
-1.17884 -16.3482 -16.3482
-1.48351 -16.4277 -16.4277
-1.33735 -16.5214 -16.5214
-1.18287 -16.4371 -16.4371
-1.32893 -16.3435 -16.3435
-1.33314 -16.4324 -16.4324
-1.4879 -16.5167 -16.5167
-1.49665 -16.6951 -16.6951
-1.19495 -16.7046 -16.7046
-1.1869 -16.5262 -16.5262
-1.49228 -16.6058 -16.6058
-1.34576 -16.6998 -16.6998
-1.19092 -16.6154 -16.6154
-1.33735 -16.5214 -16.5214
-1.34156 -16.6106 -16.6106
-1.49665 -16.6951 -16.6951
-1.50538 -16.8738 -16.8738
-1.20299 -16.8835 -16.8835
-1.19495 -16.7046 -16.7046
-1.50102 -16.7844 -16.7844
-1.35414 -16.8786 -16.8786
-1.19897 -16.794 -16.794
-1.34576 -16.6998 -16.6998
-1.34995 -16.7891 -16.7891
-1.50538 -16.8738 -16.8738
-1.51408 -17.053 -17.053
-1.21102 -17.0627 -17.0627
-1.20299 -16.8835 -16.8835
-1.50974 -16.9634 -16.9634
-1.36251 -17.0578 -17.0578
-1.207 -16.973 -16.973
-1.35414 -16.8786 -16.8786
-1.35833 -16.9682 -16.9682
-1.51408 -17.053 -17.053
-1.52276 -17.2326 -17.2326
-1.21903 -17.2424 -17.2424
-1.21102 -17.0627 -17.0627
-1.51842 -17.1427 -17.1427
-1.37085 -17.2374 -17.2374
-1.21502 -17.1525 -17.1525
-1.36251 -17.0578 -17.0578
-1.36668 -17.1476 -17.1476
-1.52276 -17.2326 -17.2326
-1.5314 -17.4125 -17.4125
-1.22703 -17.4224 -17.4224
-1.21903 -17.2424 -17.2424
-1.52708 -17.3225 -17.3225
-1.37917 -17.4174 -17.4174
-1.22303 -17.3323 -17.3323
-1.37085 -17.2374 -17.2374
-1.37501 -17.3274 -17.3274
-1.5314 -17.4125 -17.4125
-1.54001 -17.5929 -17.5929
-1.23502 -17.6028 -17.6028
-1.22703 -17.4224 -17.4224
-1.53571 -17.5026 -17.5026
-1.38747 -17.5978 -17.5978
-1.23103 -17.5125 -17.5125
-1.37917 -17.4174 -17.4174
-1.38332 -17.5076 -17.5076
-1.54001 -17.5929 -17.5929
-1.54859 -17.7736 -17.7736
-1.24299 -17.7836 -17.7836
-1.23502 -17.6028 -17.6028
-1.54431 -17.6832 -17.6832
-1.39575 -17.7785 -17.7785
-1.23901 -17.6931 -17.6931
-1.38747 -17.5978 -17.5978
-1.39161 -17.6881 -17.6881
-1.54859 -17.7736 -17.7736
-1.55714 -17.9546 -17.9546
-1.25095 -17.9647 -17.9647
-1.24299 -17.7836 -17.7836
-1.55287 -17.8641 -17.8641
-1.404 -17.9596 -17.9596
-1.24697 -17.8741 -17.8741
-1.39575 -17.7785 -17.7785
-1.39988 -17.869 -17.869
-1.55714 -17.9546 -17.9546
-1.56566 -18.1361 -18.1361
-1.25889 -18.1462 -18.1462
-1.25095 -17.9647 -17.9647
-1.5614 -18.0453 -18.0453
-1.41223 -18.1411 -18.1411
-1.25492 -18.0554 -18.0554
-1.404 -17.9596 -17.9596
-1.40812 -18.0503 -18.0503
-1.56566 -18.1361 -18.1361
-1.57414 -18.3178 -18.3178
-1.26682 -18.328 -18.328
-1.25889 -18.1462 -18.1462
-1.56991 -18.2269 -18.2269
-1.42044 -18.3229 -18.3229
-1.26286 -18.2371 -18.2371
-1.41223 -18.1411 -18.1411
-1.41634 -18.232 -18.232
-1.57414 -18.3178 -18.3178
-1.5826 -18.4999 -18.4999
-1.27472 -18.5102 -18.5102
-1.26682 -18.328 -18.328
-1.57837 -18.4088 -18.4088
-1.42862 -18.505 -18.505
-1.27077 -18.4191 -18.4191
-1.42044 -18.3229 -18.3229
-1.42453 -18.4139 -18.4139
-1.5826 -18.4999 -18.4999
-1.59101 -18.6823 -18.6823
-1.28261 -18.6927 -18.6927
-1.27472 -18.5102 -18.5102
-1.58681 -18.5911 -18.5911
-1.43677 -18.6875 -18.6875
-1.27867 -18.6014 -18.6014
-1.42862 -18.505 -18.505
-1.4327 -18.5962 -18.5962
-1.59101 -18.6823 -18.6823
-1.59939 -18.8651 -18.8651
-1.29048 -18.8755 -18.8755
-1.28261 -18.6927 -18.6927
-1.59521 -18.7737 -18.7737
-1.4449 -18.8702 -18.8702
-1.28655 -18.784 -18.784
-1.43677 -18.6875 -18.6875
-1.44084 -18.7788 -18.7788
-1.59939 -18.8651 -18.8651
-1.60774 -19.0481 -19.0481
-1.29834 -19.0585 -19.0585
-1.29048 -18.8755 -18.8755
-1.60357 -18.9566 -18.9566
-1.453 -19.0533 -19.0533
-1.29441 -18.967 -18.967
-1.4449 -18.8702 -18.8702
-1.44895 -18.9617 -18.9617
-1.60774 -19.0481 -19.0481
-1.61605 -19.2314 -19.2314
-1.30617 -19.2419 -19.2419
-1.29834 -19.0585 -19.0585
-1.6119 -19.1397 -19.1397
-1.46107 -19.2367 -19.2367
-1.30226 -19.1502 -19.1502
-1.453 -19.0533 -19.0533
-1.45704 -19.1449 -19.1449
-1.61605 -19.2314 -19.2314
-1.62433 -19.415 -19.415
-1.31398 -19.4256 -19.4256
-1.30617 -19.2419 -19.2419
-1.62019 -19.3232 -19.3232
-1.46911 -19.4203 -19.4203
-1.31008 -19.3337 -19.3337
-1.46107 -19.2367 -19.2367
-1.46509 -19.3284 -19.3284
-1.62433 -19.415 -19.415
-1.63256 -19.5989 -19.5989
-1.32177 -19.6095 -19.6095
-1.31398 -19.4256 -19.4256
-1.62845 -19.5069 -19.5069
-1.47713 -19.6042 -19.6042
-1.31788 -19.5175 -19.5175
-1.46911 -19.4203 -19.4203
-1.47312 -19.5122 -19.5122
-1.63256 -19.5989 -19.5989
-1.64076 -19.7831 -19.7831
-1.32954 -19.7937 -19.7937
-1.32177 -19.6095 -19.6095
-1.63667 -19.691 -19.691
-1.48511 -19.7884 -19.7884
-1.32566 -19.7016 -19.7016
-1.47713 -19.6042 -19.6042
-1.48112 -19.6963 -19.6963
-1.64076 -19.7831 -19.7831
-1.64892 -19.9675 -19.9675
-1.33729 -19.9782 -19.9782
-1.32954 -19.7937 -19.7937
-1.64485 -19.8752 -19.8752
-1.49306 -19.9728 -19.9728
-1.33342 -19.8859 -19.8859
-1.48511 -19.7884 -19.7884
-1.48909 -19.8806 -19.8806
-1.64892 -19.9675 -19.9675
-1.65704 -20.1521 -20.1521
-1.34501 -20.1629 -20.1629
-1.33729 -19.9782 -19.9782
-1.65299 -20.0598 -20.0598
-1.50098 -20.1575 -20.1575
-1.34115 -20.0705 -20.0705
-1.49306 -19.9728 -19.9728
-1.49703 -20.0651 -20.0651
-1.65704 -20.1521 -20.1521
-1.66512 -20.337 -20.337
-1.35271 -20.3478 -20.3478
-1.34501 -20.1629 -20.1629
-1.66109 -20.2445 -20.2445
-1.50887 -20.3424 -20.3424
-1.34886 -20.2553 -20.2553
-1.50098 -20.1575 -20.1575
-1.50493 -20.2499 -20.2499
-1.66512 -20.337 -20.337
-1.67316 -20.5221 -20.5221
-1.36039 -20.533 -20.533
-1.35271 -20.3478 -20.3478
-1.66915 -20.4295 -20.4295
-1.51673 -20.5275 -20.5275
-1.35655 -20.4404 -20.4404
-1.50887 -20.3424 -20.3424
-1.51281 -20.4349 -20.4349
-1.67316 -20.5221 -20.5221
-1.68116 -20.7074 -20.7074
-1.36804 -20.7184 -20.7184
-1.36039 -20.533 -20.533
-1.67717 -20.6147 -20.6147
-1.52456 -20.7129 -20.7129
-1.36421 -20.6256 -20.6256
-1.51673 -20.5275 -20.5275
-1.52065 -20.6202 -20.6202
-1.68116 -20.7074 -20.7074
-1.68912 -20.893 -20.893
-1.37566 -20.9039 -20.9039
-1.36804 -20.7184 -20.7184
-1.68514 -20.8002 -20.8002
-1.53235 -20.8984 -20.8984
-1.37185 -20.8111 -20.8111
-1.52456 -20.7129 -20.7129
-1.52846 -20.8056 -20.8056
-1.68912 -20.893 -20.893
-1.69703 -21.0787 -21.0787
-1.38326 -21.0897 -21.0897
-1.37566 -20.9039 -20.9039
-1.69308 -20.9858 -20.9858
-1.5401 -21.0842 -21.0842
-1.37946 -20.9968 -20.9968
-1.53235 -20.8984 -20.8984
-1.53623 -20.9913 -20.9913
-1.69703 -21.0787 -21.0787
-1.7049 -21.2646 -21.2646
-1.39083 -21.2757 -21.2757
-1.38326 -21.0897 -21.0897
-1.70097 -21.1716 -21.1716
-1.54782 -21.2701 -21.2701
-1.38705 -21.1827 -21.1827
-1.5401 -21.0842 -21.0842
-1.54397 -21.1771 -21.1771
-1.7049 -21.2646 -21.2646
-1.71272 -21.4507 -21.4507
-1.39837 -21.4618 -21.4618
-1.39083 -21.2757 -21.2757
-1.70882 -21.3576 -21.3576
-1.5555 -21.4562 -21.4562
-1.3946 -21.3687 -21.3687
-1.54782 -21.2701 -21.2701
-1.55167 -21.3632 -21.3632
-1.71272 -21.4507 -21.4507
-1.7205 -21.6369 -21.6369
-1.40588 -21.6481 -21.6481
-1.39837 -21.4618 -21.4618
-1.71662 -21.5438 -21.5438
-1.56315 -21.6425 -21.6425
-1.40213 -21.5549 -21.5549
-1.5555 -21.4562 -21.4562
-1.55933 -21.5494 -21.5494
-1.7205 -21.6369 -21.6369
-1.72824 -21.8234 -21.8234
-1.41337 -21.8346 -21.8346
-1.40588 -21.6481 -21.6481
-1.72438 -21.7301 -21.7301
-1.57076 -21.829 -21.829
-1.40963 -21.7413 -21.7413
-1.56315 -21.6425 -21.6425
-1.56696 -21.7357 -21.7357
-1.72824 -21.8234 -21.8234
-1.73593 -22.0099 -22.0099
-1.42082 -22.0212 -22.0212
-1.41337 -21.8346 -21.8346
-1.73209 -21.9166 -21.9166
-1.57833 -22.0155 -22.0155
-1.4171 -21.9279 -21.9279
-1.57076 -21.829 -21.829
-1.57455 -21.9222 -21.9222
-1.73593 -22.0099 -22.0099
-1.74357 -22.1966 -22.1966
-1.42824 -22.2079 -22.2079
-1.42082 -22.0212 -22.0212
-1.73975 -22.1033 -22.1033
-1.58586 -22.2023 -22.2023
-1.42454 -22.1145 -22.1145
-1.57833 -22.0155 -22.0155
-1.5821 -22.1089 -22.1089
-1.74357 -22.1966 -22.1966
-1.75116 -22.3835 -22.3835
-1.43564 -22.3948 -22.3948
-1.42824 -22.2079 -22.2079
-1.74737 -22.29 -22.29
-1.59336 -22.3891 -22.3891
-1.43194 -22.3013 -22.3013
-1.58586 -22.2023 -22.2023
-1.58962 -22.2957 -22.2957
-1.75116 -22.3835 -22.3835
-1.75871 -22.5704 -22.5704
-1.443 -22.5818 -22.5818
-1.43564 -22.3948 -22.3948
-1.75494 -22.4769 -22.4769
-1.60081 -22.5761 -22.5761
-1.43932 -22.4883 -22.4883
-1.59336 -22.3891 -22.3891
-1.59709 -22.4826 -22.4826
-1.75871 -22.5704 -22.5704
-1.7662 -22.7575 -22.7575
-1.45032 -22.7689 -22.7689
-1.443 -22.5818 -22.5818
-1.76246 -22.6639 -22.6639
-1.60822 -22.7632 -22.7632
-1.44666 -22.6753 -22.6753
-1.60081 -22.5761 -22.5761
-1.60452 -22.6696 -22.6696
-1.7662 -22.7575 -22.7575
-1.77365 -22.9446 -22.9446
-1.45762 -22.9561 -22.9561
-1.45032 -22.7689 -22.7689
-1.76993 -22.8511 -22.8511
-1.61559 -22.9504 -22.9504
-1.45397 -22.8625 -22.8625
-1.60822 -22.7632 -22.7632
-1.61191 -22.8568 -22.8568
-1.77365 -22.9446 -22.9446
-1.78104 -23.1319 -23.1319
-1.46488 -23.1434 -23.1434
-1.45762 -22.9561 -22.9561
-1.77735 -23.0383 -23.0383
-1.62292 -23.1376 -23.1376
-1.46125 -23.0497 -23.0497
-1.61559 -22.9504 -22.9504
-1.61926 -23.044 -23.044
-1.78104 -23.1319 -23.1319
-1.78839 -23.3192 -23.3192
-1.4721 -23.3308 -23.3308
-1.46488 -23.1434 -23.1434
-1.78472 -23.2256 -23.2256
-1.63021 -23.325 -23.325
-1.46849 -23.2371 -23.2371
-1.62292 -23.1376 -23.1376
-1.62657 -23.2313 -23.2313
-1.78839 -23.3192 -23.3192
-1.79569 -23.5066 -23.5066
-1.47929 -23.5182 -23.5182
-1.4721 -23.3308 -23.3308
-1.79205 -23.4129 -23.4129
-1.63745 -23.5124 -23.5124
-1.4757 -23.4245 -23.4245
-1.63021 -23.325 -23.325
-1.63383 -23.4187 -23.4187
-1.79569 -23.5066 -23.5066
-1.80294 -23.6941 -23.6941
-1.48643 -23.7057 -23.7057
-1.47929 -23.5182 -23.5182
-1.79932 -23.6004 -23.6004
-1.64465 -23.6999 -23.6999
-1.48286 -23.6119 -23.6119
-1.63745 -23.5124 -23.5124
-1.64106 -23.6061 -23.6061
-1.80294 -23.6941 -23.6941
-1.81015 -23.8816 -23.8816
-1.49354 -23.8933 -23.8933
-1.48643 -23.7057 -23.7057
-1.80655 -23.7879 -23.7879
-1.65181 -23.8874 -23.8874
-1.48999 -23.7995 -23.7995
-1.64465 -23.6999 -23.6999
-1.64824 -23.7937 -23.7937
-1.81015 -23.8816 -23.8816
-1.81734 -24.0692 -24.0692
-1.5006 -24.0809 -24.0809
-1.49354 -23.8933 -23.8933
-1.81375 -23.9754 -23.9754
-1.65894 -24.075 -24.075
-1.49708 -23.9871 -23.9871
-1.65181 -23.8874 -23.8874
-1.65538 -23.9812 -23.9812
-1.81734 -24.0692 -24.0692
-1.82452 -24.2569 -24.2569
-1.50762 -24.2686 -24.2686
-1.5006 -24.0809 -24.0809
-1.82093 -24.163 -24.163
-1.66602 -24.2627 -24.2627
-1.50412 -24.1747 -24.1747
-1.65894 -24.075 -24.075
-1.66249 -24.1689 -24.1689
-1.82452 -24.2569 -24.2569
-1.83176 -24.4447 -24.4447
-1.51459 -24.4564 -24.4564
-1.50762 -24.2686 -24.2686
-1.82813 -24.3508 -24.3508
-1.67306 -24.4505 -24.4505
-1.51111 -24.3624 -24.3624
-1.66602 -24.2627 -24.2627
-1.66955 -24.3566 -24.3566
-1.83176 -24.4447 -24.4447
-1.83908 -24.6333 -24.6333
-1.5216 -24.6442 -24.6442
-1.51459 -24.4564 -24.4564
-1.83543 -24.5388 -24.5388
-1.68007 -24.6387 -24.6387
-1.51809 -24.5503 -24.5503
-1.67306 -24.4505 -24.4505
-1.67655 -24.5446 -24.5446
0 0 0
-0.0073441 -0.00206171 -0.00206171
-0.00427945 -0.000426962 -0.000426962
0 0 0
-0.00356317 -0.000737421 -0.000737421
-0.00575462 -0.0010449 -0.0010449
-0.002075 0.000135209 0.000135209
0 0 0
-0.00283344 -0.000217735 -0.000217735
-0.0073441 -0.00206171 -0.00206171
-0.0152981 -0.00595836 -0.00595836
-0.00888533 -0.00328778 -0.00328778
-0.00427945 -0.000426962 -0.000426962
-0.0112832 -0.00382178 -0.00382178
-0.0119831 -0.00439227 -0.00439227
-0.00655358 -0.00158204 -0.00158204
-0.00575462 -0.0010449 -0.0010449
-0.00881888 -0.00246223 -0.00246223
-0.0152981 -0.00595836 -0.00595836
-0.0233245 -0.0113141 -0.0113141
-0.0136842 -0.00824304 -0.00824304
-0.00888533 -0.00328778 -0.00328778
-0.0193159 -0.00844743 -0.00844743
-0.0184097 -0.0095621 -0.0095621
-0.0112699 -0.00551732 -0.00551732
-0.0119831 -0.00439227 -0.00439227
-0.0151881 -0.00676046 -0.00676046
-0.0233245 -0.0113141 -0.0113141
-0.0313133 -0.0182935 -0.0182935
-0.0185248 -0.0151068 -0.0151068
-0.0136842 -0.00824304 -0.00824304
-0.0273254 -0.0145913 -0.0145913
-0.0248503 -0.0164988 -0.0164988
-0.0161046 -0.0114415 -0.0114415
-0.0184097 -0.0095621 -0.0095621
-0.0216334 -0.0128077 -0.0128077
-0.0313133 -0.0182935 -0.0182935
-0.0392383 -0.0270125 -0.0270125
-0.0233532 -0.0238288 -0.0238288
-0.0185248 -0.0151068 -0.0151068
-0.0352832 -0.0224306 -0.0224306
-0.0312449 -0.0252239 -0.0252239
-0.0209425 -0.0192369 -0.0192369
-0.0248503 -0.0164988 -0.0164988
-0.0280542 -0.0206359 -0.0206359
-0.0392383 -0.0270125 -0.0270125
-0.0471169 -0.0375379 -0.0375379
-0.0281426 -0.0343898 -0.0343898
-0.0233532 -0.0238288 -0.0238288
-0.0431829 -0.0320475 -0.0320475
-0.0375899 -0.0357692 -0.0357692
-0.0257529 -0.0288799 -0.0288799
-0.0312449 -0.0252239 -0.0252239
-0.0344232 -0.0302681 -0.0302681
-0.0471169 -0.0375379 -0.0375379
-0.0549532 -0.0498881 -0.0498881
-0.0328966 -0.0467864 -0.0467864
-0.0281426 -0.0343898 -0.0343898
-0.0510399 -0.0434844 -0.0434844
-0.043891 -0.0481427 -0.0481427
-0.0305237 -0.040359 -0.040359
-0.0375899 -0.0357692 -0.0357692
-0.0407455 -0.0417272 -0.0417272
-0.0549532 -0.0498881 -0.0498881
-0.0627547 -0.0640678 -0.0640678
-0.0376196 -0.0610118 -0.0610118
-0.0328966 -0.0467864 -0.0467864
-0.0588581 -0.0567495 -0.0567495
-0.0501563 -0.0623455 -0.0623455
-0.0352616 -0.0536709 -0.0536709
-0.043891 -0.0481427 -0.0481427
-0.0470277 -0.0550157 -0.0550157
-0.0627547 -0.0640678 -0.0640678
-0.0705236 -0.0800712 -0.0800712
-0.0423188 -0.0770597 -0.0770597
-0.0376196 -0.0610118 -0.0610118
-0.0666431 -0.0718421 -0.0718421
-0.0563918 -0.0783714 -0.0783714
-0.0399718 -0.0688085 -0.0688085
-0.0501563 -0.0623455 -0.0623455
-0.0532774 -0.070131 -0.070131
-0.0705236 -0.0800712 -0.0800712
-0.0782629 -0.0978901 -0.0978901
-0.0469991 -0.0949217 -0.0949217
-0.0423188 -0.0770597 -0.0770597
-0.0743969 -0.0887543 -0.0887543
-0.0626022 -0.0962124 -0.0962124
-0.044661 -0.0857645 -0.0857645
-0.0563918 -0.0783714 -0.0783714
-0.0594999 -0.0870656 -0.0870656
-0.0782629 -0.0978901 -0.0978901
-0.0859739 -0.117514 -0.117514
-0.0516646 -0.114589 -0.114589
-0.0469991 -0.0949217 -0.0949217
-0.0821218 -0.107477 -0.107477
-0.0687906 -0.115859 -0.115859
-0.0493335 -0.10453 -0.10453
-0.0626022 -0.0962124 -0.0962124
-0.065699 -0.105811 -0.105811
-0.0859739 -0.117514 -0.117514
-0.0936581 -0.138934 -0.138934
-0.0563181 -0.136052 -0.136052
-0.0516646 -0.114589 -0.114589
-0.0898192 -0.128001 -0.128001
-0.0749595 -0.137301 -0.137301
-0.0539927 -0.125097 -0.125097
-0.0687906 -0.115859 -0.115859
-0.0718774 -0.126356 -0.126356
-0.0936581 -0.138934 -0.138934
-0.101317 -0.162139 -0.162139
-0.0609617 -0.159302 -0.159302
-0.0563181 -0.136052 -0.136052
-0.0974906 -0.150314 -0.150314
-0.0811105 -0.16053 -0.16053
-0.058641 -0.147454 -0.147454
-0.0749595 -0.137301 -0.137301
-0.0780371 -0.148693 -0.148693
-0.101317 -0.162139 -0.162139
-0.108951 -0.18712 -0.18712
-0.0655969 -0.184329 -0.184329
-0.0609617 -0.159302 -0.159302
-0.105137 -0.174408 -0.174408
-0.0872452 -0.185534 -0.185534
-0.0632802 -0.171594 -0.171594
-0.0811105 -0.16053 -0.16053
-0.0841798 -0.172811 -0.172811
-0.108951 -0.18712 -0.18712
-0.116562 -0.213866 -0.213866
-0.0702253 -0.211123 -0.211123
-0.0655969 -0.184329 -0.184329
-0.11276 -0.200273 -0.200273
-0.0933649 -0.212306 -0.212306
-0.0679119 -0.197505 -0.197505
-0.0872452 -0.185534 -0.185534
-0.0903069 -0.1987 -0.1987
-0.116562 -0.213866 -0.213866
-0.124152 -0.242368 -0.242368
-0.0748481 -0.239674 -0.239674
-0.0702253 -0.211123 -0.211123
-0.12036 -0.227898 -0.227898
-0.0994707 -0.240833 -0.240833
-0.0725373 -0.225179 -0.225179
-0.0933649 -0.212306 -0.212306
-0.0964195 -0.22635 -0.22635
-0.124152 -0.242368 -0.242368
-0.13172 -0.272616 -0.272616
-0.0794663 -0.269974 -0.269974
-0.0748481 -0.239674 -0.239674
-0.127938 -0.257275 -0.257275
-0.105564 -0.271108 -0.271108
-0.0771577 -0.254606 -0.254606
-0.0994707 -0.240833 -0.240833
-0.102519 -0.255753 -0.255753
-0.13172 -0.272616 -0.272616
-0.139268 -0.304601 -0.304601
-0.0840811 -0.302012 -0.302012
-0.0794663 -0.269974 -0.269974
-0.135497 -0.288392 -0.288392
-0.111645 -0.303121 -0.303121
-0.0817741 -0.285776 -0.285776
-0.105564 -0.271108 -0.271108
-0.108606 -0.286898 -0.286898
-0.139268 -0.304601 -0.304601
-0.146798 -0.338313 -0.338313
-0.0886936 -0.335778 -0.335778
-0.0840811 -0.302012 -0.302012
-0.143035 -0.321242 -0.321242
-0.117716 -0.336861 -0.336861
-0.0863876 -0.31868 -0.31868
-0.111645 -0.303121 -0.303121
-0.114682 -0.319776 -0.319776
-0.146798 -0.338313 -0.338313
-0.15431 -0.373742 -0.373742
-0.0933048 -0.371264 -0.371264
-0.0886936 -0.335778 -0.335778
-0.150556 -0.355813 -0.355813
-0.123778 -0.372319 -0.372319
-0.0909993 -0.353307 -0.353307
-0.117716 -0.336861 -0.336861
-0.120748 -0.354376 -0.354376
-0.15431 -0.373742 -0.373742
-0.161805 -0.410878 -0.410878
-0.0979158 -0.408459 -0.408459
-0.0933048 -0.371264 -0.371264
-0.15806 -0.392097 -0.392097
-0.129831 -0.409486 -0.409486
-0.0956103 -0.389649 -0.389649
-0.123778 -0.372319 -0.372319
-0.126805 -0.39069 -0.39069
-0.161805 -0.410878 -0.410878
-0.169285 -0.449713 -0.449713
-0.102527 -0.447354 -0.447354
-0.0979158 -0.408459 -0.408459
-0.165547 -0.430084 -0.430084
-0.135876 -0.448352 -0.448352
-0.100221 -0.427695 -0.427695
-0.129831 -0.409486 -0.409486
-0.132854 -0.428707 -0.428707
-0.169285 -0.449713 -0.449713
-0.17675 -0.490236 -0.490236
-0.107141 -0.487939 -0.487939
-0.102527 -0.447354 -0.447354
-0.173019 -0.469764 -0.469764
-0.141915 -0.488907 -0.488907
-0.104834 -0.467436 -0.467436
-0.135876 -0.448352 -0.448352
-0.138897 -0.468419 -0.468419
-0.17675 -0.490236 -0.490236
-0.184201 -0.532438 -0.532438
-0.111757 -0.530204 -0.530204
-0.107141 -0.487939 -0.487939
-0.180477 -0.511128 -0.511128
-0.147949 -0.531142 -0.531142
-0.109449 -0.508862 -0.508862
-0.141915 -0.488907 -0.488907
-0.144933 -0.509815 -0.509815
-0.184201 -0.532438 -0.532438
-0.191639 -0.576309 -0.576309
-0.116377 -0.57414 -0.57414
-0.111757 -0.530204 -0.530204
-0.187922 -0.554166 -0.554166
-0.153978 -0.575046 -0.575046
-0.114066 -0.551964 -0.551964
-0.147949 -0.531142 -0.531142
-0.150964 -0.552886 -0.552886
-0.191639 -0.576309 -0.576309
-0.199066 -0.62184 -0.62184
-0.121001 -0.619737 -0.619737
-0.116377 -0.57414 -0.57414
-0.195354 -0.598868 -0.598868
-0.160003 -0.620611 -0.620611
-0.118688 -0.596732 -0.596732
-0.153978 -0.575046 -0.575046
-0.156991 -0.597622 -0.597622
-0.199066 -0.62184 -0.62184
-0.206481 -0.66902 -0.66902
-0.125631 -0.666986 -0.666986
-0.121001 -0.619737 -0.619737
-0.202775 -0.645224 -0.645224
-0.166026 -0.667827 -0.667827
-0.123315 -0.643156 -0.643156
-0.160003 -0.620611 -0.620611
-0.163015 -0.644014 -0.644014
-0.206481 -0.66902 -0.66902
-0.213887 -0.717841 -0.717841
-0.130267 -0.715876 -0.715876
-0.125631 -0.666986 -0.666986
-0.210185 -0.693226 -0.693226
-0.172047 -0.716684 -0.716684
-0.127948 -0.691227 -0.691227
-0.166026 -0.667827 -0.667827
-0.169036 -0.692051 -0.692051
-0.213887 -0.717841 -0.717841
-0.221283 -0.768293 -0.768293
-0.13491 -0.766399 -0.766399
-0.130267 -0.715876 -0.715876
-0.217586 -0.742864 -0.742864
-0.178066 -0.767172 -0.767172
-0.132588 -0.740934 -0.740934
-0.172047 -0.716684 -0.716684
-0.175057 -0.741725 -0.741725
-0.221283 -0.768293 -0.768293
-0.228671 -0.820365 -0.820365
-0.139562 -0.818544 -0.818544
-0.13491 -0.766399 -0.766399
-0.224978 -0.794127 -0.794127
-0.184086 -0.819282 -0.819282
-0.137235 -0.792269 -0.792269
-0.178066 -0.767172 -0.767172
-0.181076 -0.793025 -0.793025
-0.228671 -0.820365 -0.820365
-0.236052 -0.87405 -0.87405
-0.144222 -0.872302 -0.872302
-0.139562 -0.818544 -0.818544
-0.232362 -0.847007 -0.847007
-0.190106 -0.873004 -0.873004
-0.141891 -0.845222 -0.845222
-0.184086 -0.819282 -0.819282
-0.187096 -0.845942 -0.845942
-0.236052 -0.87405 -0.87405
-0.243426 -0.929335 -0.929335
-0.148892 -0.927663 -0.927663
-0.144222 -0.872302 -0.872302
-0.23974 -0.901493 -0.901493
-0.196128 -0.928329 -0.928329
-0.146556 -0.899783 -0.899783
-0.190106 -0.873004 -0.873004
-0.193117 -0.900467 -0.900467
-0.243426 -0.929335 -0.929335
-0.250794 -0.986213 -0.986213
-0.153573 -0.984618 -0.984618
-0.148892 -0.927663 -0.927663
-0.24711 -0.957576 -0.957576
-0.202153 -0.985246 -0.985246
-0.151231 -0.955942 -0.955942
-0.196128 -0.928329 -0.928329
-0.19914 -0.956589 -0.956589
-0.250794 -0.986213 -0.986213
-0.258157 -1.04467 -1.04467
-0.158265 -1.04316 -1.04316
-0.153573 -0.984618 -0.984618
-0.254476 -1.01525 -1.01525
-0.20818 -1.04375 -1.04375
-0.155918 -1.01369 -1.01369
-0.202153 -0.985246 -0.985246
-0.205166 -1.0143 -1.0143
-0.258157 -1.04467 -1.04467
-0.265515 -1.10471 -1.10471
-0.162969 -1.10327 -1.10327
-0.158265 -1.04316 -1.04316
-0.261836 -1.07449 -1.07449
-0.214211 -1.10382 -1.10382
-0.160616 -1.07302 -1.07302
-0.20818 -1.04375 -1.04375
-0.211195 -1.07359 -1.07359
-0.265515 -1.10471 -1.10471
-0.27287 -1.1663 -1.1663
-0.167686 -1.16495 -1.16495
-0.162969 -1.10327 -1.10327
-0.269193 -1.13531 -1.13531
-0.220247 -1.16546 -1.16546
-0.165326 -1.13391 -1.13391
-0.214211 -1.10382 -1.10382
-0.217229 -1.13444 -1.13444
-0.27287 -1.1663 -1.1663
-0.280222 -1.22945 -1.22945
-0.172417 -1.22818 -1.22818
-0.167686 -1.16495 -1.16495
-0.276547 -1.19769 -1.19769
-0.226289 -1.22865 -1.22865
-0.17005 -1.19637 -1.19637
-0.220247 -1.16546 -1.16546
-0.223267 -1.19686 -1.19686
-0.280222 -1.22945 -1.22945
-0.287572 -1.29415 -1.29415
-0.177162 -1.29295 -1.29295
-0.172417 -1.22818 -1.22818
-0.283898 -1.26161 -1.26161
-0.232336 -1.29339 -1.29339
-0.174788 -1.26037 -1.26037
-0.226289 -1.22865 -1.22865
-0.229311 -1.26083 -1.26083
-0.287572 -1.29415 -1.29415
-0.294921 -1.36038 -1.36038
-0.181922 -1.35927 -1.35927
-0.177162 -1.29295 -1.29295
-0.291247 -1.32707 -1.32707
-0.23839 -1.35966 -1.35966
-0.17954 -1.32592 -1.32592
-0.232336 -1.29339 -1.29339
-0.235362 -1.32633 -1.32633
-0.294921 -1.36038 -1.36038
-0.302269 -1.42813 -1.42813
-0.186697 -1.42711 -1.42711
-0.181922 -1.35927 -1.35927
-0.298595 -1.39406 -1.39406
-0.244451 -1.42746 -1.42746
-0.184307 -1.393 -1.393
-0.23839 -1.35966 -1.35966
-0.24142 -1.39337 -1.39337
-0.302269 -1.42813 -1.42813
-0.309616 -1.4974 -1.4974
-0.191489 -1.49646 -1.49646
-0.186697 -1.42711 -1.42711
-0.305942 -1.46258 -1.46258
-0.250521 -1.49677 -1.49677
-0.189091 -1.46159 -1.46159
-0.244451 -1.42746 -1.42746
-0.247485 -1.46192 -1.46192
-0.309616 -1.4974 -1.4974
-0.316964 -1.56817 -1.56817
-0.196297 -1.56732 -1.56732
-0.191489 -1.49646 -1.49646
-0.31329 -1.5326 -1.5326
-0.256599 -1.56759 -1.56759
-0.193891 -1.5317 -1.5317
-0.250521 -1.49677 -1.49677
-0.253559 -1.53199 -1.53199
-0.316964 -1.56817 -1.56817
-0.324314 -1.64044 -1.64044
-0.201124 -1.63968 -1.63968
-0.196297 -1.56732 -1.56732
-0.320639 -1.60412 -1.60412
-0.262687 -1.6399 -1.6399
-0.198708 -1.60332 -1.60332
-0.256599 -1.56759 -1.56759
-0.259642 -1.60356 -1.60356
-0.324314 -1.64044 -1.64044
-0.331665 -1.7142 -1.7142
-0.205968 -1.71353 -1.71353
-0.201124 -1.63968 -1.63968
-0.327989 -1.67714 -1.67714
-0.268785 -1.71371 -1.71371
-0.203543 -1.67642 -1.67642
-0.262687 -1.6399 -1.6399
-0.265735 -1.67662 -1.67662
-0.331665 -1.7142 -1.7142
-0.339018 -1.78943 -1.78943
-0.210831 -1.78885 -1.78885
-0.205968 -1.71353 -1.71353
-0.335341 -1.75163 -1.75163
-0.274893 -1.78898 -1.78898
-0.208397 -1.751 -1.751
-0.268785 -1.71371 -1.71371
-0.271837 -1.75116 -1.75116
-0.339018 -1.78943 -1.78943
-0.346374 -1.86613 -1.86613
-0.215713 -1.86564 -1.86564
-0.210831 -1.78885 -1.78885
-0.342696 -1.8276 -1.8276
-0.281012 -1.86573 -1.86573
-0.21327 -1.82706 -1.82706
-0.274893 -1.78898 -1.78898
-0.277951 -1.82717 -1.82717
-0.346374 -1.86613 -1.86613
-0.353734 -1.94429 -1.94429
-0.220616 -1.94389 -1.94389
-0.215713 -1.86564 -1.86564
-0.350054 -1.90503 -1.90503
-0.287143 -1.94394 -1.94394
-0.218162 -1.90458 -1.90458
-0.281012 -1.86573 -1.86573
-0.284076 -1.90465 -1.90465
-0.353734 -1.94429 -1.94429
-0.361098 -2.0239 -2.0239
-0.225538 -2.02359 -2.02359
-0.220616 -1.94389 -1.94389
-0.357415 -1.98391 -1.98391
-0.293286 -2.02359 -2.02359
-0.223075 -1.98356 -1.98356
-0.287143 -1.94394 -1.94394
-0.290213 -1.98358 -1.98358
-0.361098 -2.0239 -2.0239
-0.368466 -2.10494 -2.10494
-0.230482 -2.10472 -2.10472
-0.225538 -2.02359 -2.02359
-0.364781 -2.06424 -2.06424
-0.299442 -2.10468 -2.10468
-0.228008 -2.06398 -2.06398
-0.293286 -2.02359 -2.02359
-0.296363 -2.06395 -2.06395
-0.368466 -2.10494 -2.10494
-0.375839 -2.18741 -2.18741
-0.235447 -2.18729 -2.18729
-0.230482 -2.10472 -2.10472
-0.372152 -2.146 -2.146
-0.305611 -2.1872 -2.1872
-0.232962 -2.14583 -2.14583
-0.299442 -2.10468 -2.10468
-0.302525 -2.14576 -2.14576
-0.375839 -2.18741 -2.18741
-0.383218 -2.2713 -2.2713
-0.240434 -2.27127 -2.27127
-0.235447 -2.18729 -2.18729
-0.379528 -2.22918 -2.22918
-0.311794 -2.27114 -2.27114
-0.237938 -2.22911 -2.22911
-0.305611 -2.1872 -2.1872
-0.308701 -2.22899 -2.22899
-0.383218 -2.2713 -2.2713
-0.390602 -2.3566 -2.3566
-0.245444 -2.35667 -2.35667
-0.240434 -2.27127 -2.27127
-0.386909 -2.31377 -2.31377
-0.317991 -2.35648 -2.35648
-0.242936 -2.3138 -2.3138
-0.311794 -2.27114 -2.27114
-0.314891 -2.31364 -2.31364
-0.390602 -2.3566 -2.3566
-0.397993 -2.4433 -2.4433
-0.250476 -2.44347 -2.44347
-0.245444 -2.35667 -2.35667
-0.394297 -2.39977 -2.39977
-0.324203 -2.44323 -2.44323
-0.247957 -2.39989 -2.39989
-0.317991 -2.35648 -2.35648
-0.321095 -2.39968 -2.39968
-0.397993 -2.4433 -2.4433
-0.405391 -2.53139 -2.53139
-0.255531 -2.53165 -2.53165
-0.250476 -2.44347 -2.44347
-0.401692 -2.48717 -2.48717
-0.330429 -2.53137 -2.53137
-0.253001 -2.48739 -2.48739
-0.324203 -2.44323 -2.44323
-0.327314 -2.48713 -2.48713
-0.405391 -2.53139 -2.53139
-0.412797 -2.62085 -2.62085
-0.260611 -2.62122 -2.62122
-0.255531 -2.53165 -2.53165
-0.409093 -2.57595 -2.57595
-0.336672 -2.62089 -2.62089
-0.258068 -2.57626 -2.57626
-0.330429 -2.53137 -2.53137
-0.333548 -2.57596 -2.57596
-0.412797 -2.62085 -2.62085
-0.42021 -2.71169 -2.71169
-0.265714 -2.71216 -2.71216
-0.260611 -2.62122 -2.62122
-0.416502 -2.6661 -2.6661
-0.34293 -2.71178 -2.71178
-0.263159 -2.66652 -2.66652
-0.336672 -2.62089 -2.62089
-0.339799 -2.66616 -2.66616
-0.42021 -2.71169 -2.71169
-0.427631 -2.80389 -2.80389
-0.270842 -2.80446 -2.80446
-0.265714 -2.71216 -2.71216
-0.423919 -2.75762 -2.75762
-0.349204 -2.80403 -2.80403
-0.268275 -2.75814 -2.75814
-0.34293 -2.71178 -2.71178
-0.346065 -2.75774 -2.75774
-0.427631 -2.80389 -2.80389
-0.43506 -2.89745 -2.89745
-0.275994 -2.89811 -2.89811
-0.270842 -2.80446 -2.80446
-0.431345 -2.8505 -2.8505
-0.355495 -2.89763 -2.89763
-0.273415 -2.85112 -2.85112
-0.349204 -2.80403 -2.80403
-0.352348 -2.85066 -2.85066
-0.43506 -2.89745 -2.89745
-0.442499 -2.99234 -2.99234
-0.281172 -2.9931 -2.9931
-0.275994 -2.89811 -2.89811
-0.438779 -2.94472 -2.94472
-0.361803 -2.99258 -2.99258
-0.27858 -2.94544 -2.94544
-0.355495 -2.89763 -2.89763
-0.358647 -2.94494 -2.94494
-0.442499 -2.99234 -2.99234
-0.449946 -3.08856 -3.08856
-0.286376 -3.08943 -3.08943
-0.281172 -2.9931 -2.9931
-0.446221 -3.04029 -3.04029
-0.368129 -3.08886 -3.08886
-0.283771 -3.0411 -3.0411
-0.361803 -2.99258 -2.99258
-0.364964 -3.04055 -3.04055
-0.449946 -3.08856 -3.08856
-0.457404 -3.18611 -3.18611
-0.291606 -3.18708 -3.18708
-0.286376 -3.08943 -3.08943
-0.453674 -3.13717 -3.13717
-0.374472 -3.18646 -3.18646
-0.288988 -3.13809 -3.13809
-0.368129 -3.08886 -3.08886
-0.371298 -3.13749 -3.13749
-0.457404 -3.18611 -3.18611
-0.464871 -3.28497 -3.28497
-0.296861 -3.28604 -3.28604
-0.291606 -3.18708 -3.18708
-0.461136 -3.23538 -3.23538
-0.380834 -3.28537 -3.28537
-0.29423 -3.2364 -3.2364
-0.374472 -3.18646 -3.18646
-0.377651 -3.23575 -3.23575
-0.464871 -3.28497 -3.28497
-0.472348 -3.38514 -3.38514
-0.302144 -3.38631 -3.38631
-0.296861 -3.28604 -3.28604
-0.468608 -3.33489 -3.33489
-0.387213 -3.38558 -3.38558
-0.299499 -3.33601 -3.33601
-0.380834 -3.28537 -3.28537
-0.384021 -3.33531 -3.33531
-0.472348 -3.38514 -3.38514
-0.479835 -3.48659 -3.48659
-0.307453 -3.48787 -3.48787
-0.302144 -3.38631 -3.38631
-0.47609 -3.4357 -3.4357
-0.393611 -3.48709 -3.48709
-0.304795 -3.43693 -3.43693
-0.387213 -3.38558 -3.38558
-0.39041 -3.43618 -3.43618
-0.479835 -3.48659 -3.48659
-0.487333 -3.58933 -3.58933
-0.312789 -3.59072 -3.59072
-0.307453 -3.48787 -3.48787
-0.483583 -3.5378 -3.5378
-0.400029 -3.58989 -3.58989
-0.310117 -3.53913 -3.53913
-0.393611 -3.48709 -3.48709
-0.396818 -3.53833 -3.53833
-0.487333 -3.58933 -3.58933
-0.494842 -3.69335 -3.69335
-0.318152 -3.69484 -3.69484
-0.312789 -3.59072 -3.59072
-0.491087 -3.64118 -3.64118
-0.406465 -3.69396 -3.69396
-0.315467 -3.64262 -3.64262
-0.400029 -3.58989 -3.58989
-0.403244 -3.64176 -3.64176
-0.494842 -3.69335 -3.69335
-0.502363 -3.79863 -3.79863
-0.323544 -3.80022 -3.80022
-0.318152 -3.69484 -3.69484
-0.498601 -3.74583 -3.74583
-0.412921 -3.79929 -3.79929
-0.320845 -3.74737 -3.74737
-0.406465 -3.69396 -3.69396
-0.40969 -3.74647 -3.74647
-0.502363 -3.79863 -3.79863
-0.509895 -3.90516 -3.90516
-0.328963 -3.90686 -3.90686
-0.323544 -3.80022 -3.80022
-0.506127 -3.85174 -3.85174
-0.419396 -3.90588 -3.90588
-0.32625 -3.85338 -3.85338
-0.412921 -3.79929 -3.79929
-0.416156 -3.85243 -3.85243
-0.509895 -3.90516 -3.90516
-0.517438 -4.01294 -4.01294
-0.33441 -4.01475 -4.01475
-0.328963 -3.90686 -3.90686
-0.513665 -3.9589 -3.9589
-0.425891 -4.01371 -4.01371
-0.331683 -3.96065 -3.96065
-0.419396 -3.90588 -3.90588
-0.422641 -3.95964 -3.95964
-0.517438 -4.01294 -4.01294
-0.524993 -4.12196 -4.12196
-0.339885 -4.12387 -4.12387
-0.33441 -4.01475 -4.01475
-0.521214 -4.0673 -4.0673
-0.432406 -4.12278 -4.12278
-0.337144 -4.06915 -4.06915
-0.425891 -4.01371 -4.01371
-0.429146 -4.06809 -4.06809
-0.524993 -4.12196 -4.12196
-0.53256 -4.2322 -4.2322
-0.345389 -4.23421 -4.23421
-0.339885 -4.12387 -4.12387
-0.528775 -4.17693 -4.17693
-0.438942 -4.23308 -4.23308
-0.342633 -4.17889 -4.17889
-0.432406 -4.12278 -4.12278
-0.435672 -4.17778 -4.17778
-0.53256 -4.2322 -4.2322
-0.54014 -4.34366 -4.34366
-0.350921 -4.34578 -4.34578
-0.345389 -4.23421 -4.23421
-0.536349 -4.28778 -4.28778
-0.445498 -4.34459 -4.34459
-0.348151 -4.28984 -4.28984
-0.438942 -4.23308 -4.23308
-0.442217 -4.28868 -4.28868
-0.54014 -4.34366 -4.34366
-0.547732 -4.45632 -4.45632
-0.356482 -4.45855 -4.45855
-0.350921 -4.34578 -4.34578
-0.543934 -4.39984 -4.39984
-0.452074 -4.45731 -4.45731
-0.353698 -4.40201 -4.40201
-0.445498 -4.34459 -4.34459
-0.448783 -4.4008 -4.4008
-0.547732 -4.45632 -4.45632
-0.555336 -4.57018 -4.57018
-0.362072 -4.57252 -4.57252
-0.356482 -4.45855 -4.45855
-0.551532 -4.5131 -4.5131
-0.458671 -4.57123 -4.57123
-0.359273 -4.51539 -4.51539
-0.452074 -4.45731 -4.45731
-0.45537 -4.51412 -4.51412
-0.555336 -4.57018 -4.57018
-0.562953 -4.68523 -4.68523
-0.36769 -4.68768 -4.68768
-0.362072 -4.57252 -4.57252
-0.559143 -4.62756 -4.62756
-0.465289 -4.68633 -4.68633
-0.364877 -4.62995 -4.62995
-0.458671 -4.57123 -4.57123
-0.461978 -4.62863 -4.62863
-0.562953 -4.68523 -4.68523
-0.570583 -4.80146 -4.80146
-0.373339 -4.80401 -4.80401
-0.36769 -4.68768 -4.68768
-0.566766 -4.7432 -4.7432
-0.471928 -4.80261 -4.80261
-0.370511 -4.7457 -4.7457
-0.465289 -4.68633 -4.68633
-0.468606 -4.74432 -4.74432
-0.570583 -4.80146 -4.80146
-0.578225 -4.91886 -4.91886
-0.379016 -4.92151 -4.92151
-0.373339 -4.80401 -4.80401
-0.574402 -4.86001 -4.86001
-0.478588 -4.92006 -4.92006
-0.376173 -4.86262 -4.86262
-0.471928 -4.80261 -4.80261
-0.475255 -4.86119 -4.86119
-0.578225 -4.91886 -4.91886
-0.58588 -5.03741 -5.03741
-0.384722 -5.04017 -5.04017
-0.379016 -4.92151 -4.92151
-0.582051 -4.97799 -4.97799
-0.485269 -5.03867 -5.03867
-0.381865 -4.9807 -4.9807
-0.478588 -4.92006 -4.92006
-0.481926 -4.97922 -4.97922
-0.58588 -5.03741 -5.03741
-0.593549 -5.15711 -5.15711
-0.390458 -5.15998 -5.15998
-0.384722 -5.04017 -5.04017
-0.589713 -5.09712 -5.09712
-0.491971 -5.15843 -5.15843
-0.387587 -5.09994 -5.09994
-0.485269 -5.03867 -5.03867
-0.488617 -5.09841 -5.09841
-0.593549 -5.15711 -5.15711
-0.60123 -5.27796 -5.27796
-0.396224 -5.28093 -5.28093
-0.390458 -5.15998 -5.15998
-0.597388 -5.21739 -5.21739
-0.498694 -5.27933 -5.27933
-0.393337 -5.22032 -5.22032
-0.491971 -5.15843 -5.15843
-0.49533 -5.21874 -5.21874
-0.60123 -5.27796 -5.27796
-0.608925 -5.39993 -5.39993
-0.402019 -5.40301 -5.40301
-0.396224 -5.28093 -5.28093
-0.605076 -5.3388 -5.3388
-0.505439 -5.40135 -5.40135
-0.399117 -5.34183 -5.34183
-0.498694 -5.27933 -5.27933
-0.502064 -5.3402 -5.3402
-0.608925 -5.39993 -5.39993
-0.616633 -5.52302 -5.52302
-0.407843 -5.52621 -5.52621
-0.402019 -5.40301 -5.40301
-0.612777 -5.46133 -5.46133
-0.512205 -5.5245 -5.5245
-0.404927 -5.46448 -5.46448
-0.505439 -5.40135 -5.40135
-0.50882 -5.46279 -5.46279
-0.616633 -5.52302 -5.52302
-0.624354 -5.64722 -5.64722
-0.413697 -5.65052 -5.65052
-0.407843 -5.52621 -5.52621
-0.620491 -5.58498 -5.58498
-0.518993 -5.64876 -5.64876
-0.410766 -5.58823 -5.58823
-0.512205 -5.5245 -5.5245
-0.515596 -5.58649 -5.58649
-0.624354 -5.64722 -5.64722
-0.632088 -5.77253 -5.77253
-0.419581 -5.77594 -5.77594
-0.413697 -5.65052 -5.65052
-0.628219 -5.70974 -5.70974
-0.525802 -5.77411 -5.77411
-0.416635 -5.71309 -5.71309
-0.518993 -5.64876 -5.64876
-0.522394 -5.7113 -5.7113
-0.632088 -5.77253 -5.77253
-0.639835 -5.89892 -5.89892
-0.425494 -5.90244 -5.90244
-0.419581 -5.77594 -5.77594
-0.63596 -5.83559 -5.83559
-0.532632 -5.90056 -5.90056
-0.422534 -5.83905 -5.83905
-0.525802 -5.77411 -5.77411
-0.529214 -5.8372 -5.8372
-0.639835 -5.89892 -5.89892
-0.647596 -6.0264 -6.0264
-0.431437 -6.03002 -6.03002
-0.425494 -5.90244 -5.90244
-0.643714 -5.96252 -5.96252
-0.539483 -6.02809 -6.02809
-0.428462 -5.96609 -5.96609
-0.532632 -5.90056 -5.90056
-0.536055 -5.96419 -5.96419
-0.647596 -6.0264 -6.0264
-0.655369 -6.15494 -6.15494
-0.437409 -6.15868 -6.15868
-0.431437 -6.03002 -6.03002
-0.651481 -6.09054 -6.09054
-0.546356 -6.1567 -6.1567
-0.434419 -6.09422 -6.09422
-0.539483 -6.02809 -6.02809
-0.542917 -6.09226 -6.09226
-0.655369 -6.15494 -6.15494
-0.663156 -6.28455 -6.28455
-0.443411 -6.28839 -6.28839
-0.437409 -6.15868 -6.15868
-0.659261 -6.21962 -6.21962
-0.553251 -6.28636 -6.28636
-0.440406 -6.2234 -6.2234
-0.546356 -6.1567 -6.1567
-0.549801 -6.2214 -6.2214
-0.663156 -6.28455 -6.28455
-0.670956 -6.41521 -6.41521
-0.449442 -6.41916 -6.41916
-0.443411 -6.28839 -6.28839
-0.667054 -6.34975 -6.34975
-0.560166 -6.41708 -6.41708
-0.446423 -6.35365 -6.35365
-0.553251 -6.28636 -6.28636
-0.556706 -6.35159 -6.35159
-0.670956 -6.41521 -6.41521
-0.678769 -6.54692 -6.54692
-0.455502 -6.55098 -6.55098
-0.449442 -6.41916 -6.41916
-0.674861 -6.48094 -6.48094
-0.567103 -6.54884 -6.54884
-0.452469 -6.48494 -6.48494
-0.560166 -6.41708 -6.41708
-0.563632 -6.48283 -6.48283
-0.678769 -6.54692 -6.54692
-0.686595 -6.67966 -6.67966
-0.461592 -6.68382 -6.68382
-0.455502 -6.55098 -6.55098
-0.68268 -6.61316 -6.61316
-0.574061 -6.68163 -6.68163
-0.458544 -6.61727 -6.61727
-0.567103 -6.54884 -6.54884
-0.570579 -6.61511 -6.61511
-0.686595 -6.67966 -6.67966
-0.694433 -6.81342 -6.81342
-0.467711 -6.81769 -6.81769
-0.461592 -6.68382 -6.68382
-0.690512 -6.74641 -6.74641
-0.58104 -6.81545 -6.81545
-0.464648 -6.75063 -6.75063
-0.574061 -6.68163 -6.68163
-0.577548 -6.74841 -6.74841
-0.694433 -6.81342 -6.81342
-0.702285 -6.9482 -6.9482
-0.47386 -6.95257 -6.95257
-0.467711 -6.81769 -6.81769
-0.698357 -6.88068 -6.88068
-0.58804 -6.95028 -6.95028
-0.470782 -6.88501 -6.88501
-0.58104 -6.81545 -6.81545
-0.584537 -6.88274 -6.88274
-0.702285 -6.9482 -6.9482
-0.710149 -7.08398 -7.08398
-0.480037 -7.08846 -7.08846
-0.47386 -6.95257 -6.95257
-0.706215 -7.01596 -7.01596
-0.59506 -7.08611 -7.08611
-0.476945 -7.02039 -7.02039
-0.58804 -6.95028 -6.95028
-0.591547 -7.01807 -7.01807
-0.710149 -7.08398 -7.08398
-0.718025 -7.22075 -7.22075
-0.486243 -7.22534 -7.22534
-0.480037 -7.08846 -7.08846
-0.714085 -7.15224 -7.15224
-0.602102 -7.22294 -7.22294
-0.483136 -7.15678 -7.15678
-0.59506 -7.08611 -7.08611
-0.598578 -7.15441 -7.15441
-0.718025 -7.22075 -7.22075
-0.725914 -7.35851 -7.35851
-0.492478 -7.36321 -7.36321
-0.486243 -7.22534 -7.22534
-0.721968 -7.28951 -7.28951
-0.609163 -7.36076 -7.36076
-0.489357 -7.29416 -7.29416
-0.602102 -7.22294 -7.22294
-0.60563 -7.29173 -7.29173
-0.725914 -7.35851 -7.35851
-0.733815 -7.49725 -7.49725
-0.498741 -7.50205 -7.50205
-0.492478 -7.36321 -7.36321
-0.729863 -7.42776 -7.42776
-0.616246 -7.49955 -7.49955
-0.495606 -7.43251 -7.43251
-0.609163 -7.36076 -7.36076
-0.612702 -7.43003 -7.43003
-0.733815 -7.49725 -7.49725
-0.741728 -7.63695 -7.63695
-0.505033 -7.64186 -7.64186
-0.498741 -7.50205 -7.50205
-0.73777 -7.56698 -7.56698
-0.623348 -7.63931 -7.63931
-0.501884 -7.57184 -7.57184
-0.616246 -7.49955 -7.49955
-0.619795 -7.56931 -7.56931
-0.741728 -7.63695 -7.63695
-0.749654 -7.77761 -7.77761
-0.511354 -7.78262 -7.78262
-0.505033 -7.64186 -7.64186
-0.74569 -7.70716 -7.70716
-0.630471 -7.78002 -7.78002
-0.50819 -7.71212 -7.71212
-0.623348 -7.63931 -7.63931
-0.626907 -7.70954 -7.70954
-0.749654 -7.77761 -7.77761
-0.757591 -7.91921 -7.91921
-0.517702 -7.92433 -7.92433
-0.511354 -7.78262 -7.78262
-0.753621 -7.84829 -7.84829
-0.637614 -7.92168 -7.92168
-0.514524 -7.85336 -7.85336
-0.630471 -7.78002 -7.78002
-0.63404 -7.85073 -7.85073
-0.757591 -7.91921 -7.91921
-0.765539 -8.06176 -8.06176
-0.524078 -8.06698 -8.06698
-0.517702 -7.92433 -7.92433
-0.761563 -7.99037 -7.99037
-0.644776 -8.06427 -8.06427
-0.520887 -7.99554 -7.99554
-0.637614 -7.92168 -7.92168
-0.641193 -7.99286 -7.99286
-0.765539 -8.06176 -8.06176
-0.773499 -8.20522 -8.20522
-0.530482 -8.21055 -8.21055
-0.524078 -8.06698 -8.06698
-0.769518 -8.13337 -8.13337
-0.651958 -8.20779 -8.20779
-0.527277 -8.13865 -8.13865
-0.644776 -8.06427 -8.06427
-0.648365 -8.13592 -8.13592
-0.773499 -8.20522 -8.20522
-0.78147 -8.34961 -8.34961
-0.536914 -8.35505 -8.35505
-0.530482 -8.21055 -8.21055
-0.777483 -8.2773 -8.2773
-0.65916 -8.35223 -8.35223
-0.533695 -8.28269 -8.28269
-0.651958 -8.20779 -8.20779
-0.655556 -8.2799 -8.2799
-0.78147 -8.34961 -8.34961
-0.789452 -8.49491 -8.49491
-0.543373 -8.50044 -8.50044
-0.536914 -8.35505 -8.35505
-0.78546 -8.42215 -8.42215
-0.66638 -8.49758 -8.49758
-0.54014 -8.42763 -8.42763
-0.65916 -8.35223 -8.35223
-0.662767 -8.42479 -8.42479
-0.789452 -8.49491 -8.49491
-0.797445 -8.6411 -8.6411
-0.549858 -8.64674 -8.64674
-0.543373 -8.50044 -8.50044
-0.793447 -8.56789 -8.56789
-0.673619 -8.64383 -8.64383
-0.546612 -8.57348 -8.57348
-0.66638 -8.49758 -8.49758
-0.669997 -8.57059 -8.57059
-0.797445 -8.6411 -8.6411
-0.805448 -8.78818 -8.78818
-0.556371 -8.79393 -8.79393
-0.549858 -8.64674 -8.64674
-0.801445 -8.71453 -8.71453
-0.680877 -8.79096 -8.79096
-0.553111 -8.72022 -8.72022
-0.673619 -8.64383 -8.64383
-0.677246 -8.71728 -8.71728
-0.805448 -8.78818 -8.78818
-0.813461 -8.93614 -8.93614
-0.56291 -8.94199 -8.94199
-0.556371 -8.79393 -8.79393
-0.809453 -8.86205 -8.86205
-0.688154 -8.93897 -8.93897
-0.559637 -8.86785 -8.86785
-0.680877 -8.79096 -8.79096
-0.684513 -8.86486 -8.86486
-0.813461 -8.93614 -8.93614
-0.821484 -9.08497 -9.08497
-0.569476 -9.09092 -9.09092
-0.56291 -8.94199 -8.94199
-0.817472 -9.01045 -9.01045
-0.695448 -9.08786 -9.08786
-0.56619 -9.01635 -9.01635
-0.688154 -8.93897 -8.93897
-0.691799 -9.01331 -9.01331
-0.821484 -9.08497 -9.08497
-0.829517 -9.23466 -9.23466
-0.576068 -9.24071 -9.24071
-0.569476 -9.09092 -9.09092
-0.8255 -9.15971 -9.15971
-0.70276 -9.2376 -9.2376
-0.572769 -9.16571 -9.16571
-0.695448 -9.08786 -9.08786
-0.699102 -9.16262 -9.16262
-0.829517 -9.23466 -9.23466
-0.83756 -9.38521 -9.38521
-0.582685 -9.39136 -9.39136
-0.576068 -9.24071 -9.24071
-0.833538 -9.30983 -9.30983
-0.71009 -9.38819 -9.38819
-0.579373 -9.31593 -9.31593
-0.70276 -9.2376 -9.2376
-0.706423 -9.31279 -9.31279
-0.83756 -9.38521 -9.38521
-0.845611 -9.53659 -9.53659
-0.589328 -9.54284 -9.54284
-0.582685 -9.39136 -9.39136
-0.841585 -9.46079 -9.46079
-0.717438 -9.53963 -9.53963
-0.586003 -9.46699 -9.46699
-0.71009 -9.38819 -9.38819
-0.713762 -9.4638 -9.4638
-0.845611 -9.53659 -9.53659
-0.853672 -9.6888 -9.6888
-0.595996 -9.69515 -9.69515
-0.589328 -9.54284 -9.54284
-0.849641 -9.61259 -9.61259
-0.724802 -9.69189 -9.69189
-0.592659 -9.61889 -9.61889
-0.717438 -9.53963 -9.53963
-0.721118 -9.61565 -9.61565
-0.853672 -9.6888 -9.6888
-0.861741 -9.84183 -9.84183
-0.602689 -9.84829 -9.84829
-0.595996 -9.69515 -9.69515
-0.857705 -9.76521 -9.76521
-0.732183 -9.84497 -9.84497
-0.599339 -9.77162 -9.77162
-0.724802 -9.69189 -9.69189
-0.72849 -9.76833 -9.76833
-0.861741 -9.84183 -9.84183
-0.869818 -9.99568 -9.99568
-0.609406 -10.0022 -10.0022
-0.602689 -9.84829 -9.84829
-0.865778 -9.91866 -9.91866
-0.73958 -9.99887 -9.99887
-0.606044 -9.92516 -9.92516
-0.732183 -9.84497 -9.84497
-0.735879 -9.92182 -9.92182
-0.869818 -9.99568 -9.99568
-0.877903 -10.1503 -10.1503
-0.616148 -10.157 -10.157
-0.609406 -10.0022 -10.0022
-0.873859 -10.0729 -10.0729
-0.746993 -10.1536 -10.1536
-0.612774 -10.0795 -10.0795
-0.73958 -9.99887 -9.99887
-0.743285 -10.0761 -10.0761
-0.877903 -10.1503 -10.1503
-0.885995 -10.3058 -10.3058
-0.622913 -10.3125 -10.3125
-0.616148 -10.157 -10.157
-0.881948 -10.2279 -10.2279
-0.754423 -10.3091 -10.3091
-0.619528 -10.2346 -10.2346
-0.746993 -10.1536 -10.1536
-0.750706 -10.2312 -10.2312
-0.885995 -10.3058 -10.3058
-0.894095 -10.462 -10.462
-0.629703 -10.4688 -10.4688
-0.622913 -10.3125 -10.3125
-0.890044 -10.3838 -10.3838
-0.761867 -10.4653 -10.4653
-0.626305 -10.3906 -10.3906
-0.754423 -10.3091 -10.3091
-0.758143 -10.3871 -10.3871
-0.894095 -10.462 -10.462
-0.902202 -10.619 -10.619
-0.636515 -10.6259 -10.6259
-0.629703 -10.4688 -10.4688
-0.898148 -10.5404 -10.5404
-0.769326 -10.6224 -10.6224
-0.633106 -10.5473 -10.5473
-0.761867 -10.4653 -10.4653
-0.765595 -10.5438 -10.5438
-0.902202 -10.619 -10.619
-0.910315 -10.7767 -10.7767
-0.64335 -10.7838 -10.7838
-0.636515 -10.6259 -10.6259
-0.906257 -10.6978 -10.6978
-0.776801 -10.7802 -10.7802
-0.63993 -10.7048 -10.7048
-0.769326 -10.6224 -10.6224
-0.773062 -10.7012 -10.7012
-0.910315 -10.7767 -10.7767
-0.918434 -10.9353 -10.9353
-0.650207 -10.9424 -10.9424
-0.64335 -10.7838 -10.7838
-0.914374 -10.8559 -10.8559
-0.784289 -10.9387 -10.9387
-0.646776 -10.863 -10.863
-0.776801 -10.7802 -10.7802
-0.780543 -10.8594 -10.8594
-0.918434 -10.9353 -10.9353
-0.926559 -11.0945 -11.0945
-0.657087 -11.1017 -11.1017
-0.650207 -10.9424 -10.9424
-0.922496 -11.0148 -11.0148
-0.791791 -11.0981 -11.0981
-0.653644 -11.022 -11.022
-0.784289 -10.9387 -10.9387
-0.788038 -11.0183 -11.0183
-0.926559 -11.0945 -11.0945
-0.934689 -11.2545 -11.2545
-0.663988 -11.2618 -11.2618
-0.657087 -11.1017 -11.1017
-0.930623 -11.1744 -11.1744
-0.799307 -11.2581 -11.2581
-0.660535 -11.1817 -11.1817
-0.791791 -11.0981 -11.0981
-0.795547 -11.178 -11.178
-0.934689 -11.2545 -11.2545
-0.942824 -11.4152 -11.4152
-0.670911 -11.4226 -11.4226
-0.663988 -11.2618 -11.2618
-0.938756 -11.3348 -11.3348
-0.806836 -11.4189 -11.4189
-0.667447 -11.3422 -11.3422
-0.799307 -11.2581 -11.2581
-0.80307 -11.3384 -11.3384
-0.942824 -11.4152 -11.4152
-0.950964 -11.5767 -11.5767
-0.677854 -11.5842 -11.5842
-0.670911 -11.4226 -11.4226
-0.946894 -11.4959 -11.4959
-0.814377 -11.5803 -11.5803
-0.67438 -11.5033 -11.5033
-0.806836 -11.4189 -11.4189
-0.810605 -11.4995 -11.4995
-0.950964 -11.5767 -11.5767
-0.959108 -11.7388 -11.7388
-0.684818 -11.7464 -11.7464
-0.677854 -11.5842 -11.5842
-0.955035 -11.6576 -11.6576
-0.821931 -11.7425 -11.7425
-0.681334 -11.6652 -11.6652
-0.814377 -11.5803 -11.5803
-0.818153 -11.6614 -11.6614
-0.959108 -11.7388 -11.7388
-0.967255 -11.9016 -11.9016
-0.691802 -11.9093 -11.9093
-0.684818 -11.7464 -11.7464
-0.963181 -11.8201 -11.8201
-0.829497 -11.9054 -11.9054
-0.688307 -11.8278 -11.8278
-0.821931 -11.7425 -11.7425
-0.825713 -11.8239 -11.8239
-0.967255 -11.9016 -11.9016
-0.975406 -12.0652 -12.0652
-0.698805 -12.0729 -12.0729
-0.691802 -11.9093 -11.9093
-0.97133 -11.9833 -11.9833
-0.837074 -12.069 -12.069
-0.695301 -11.9911 -11.9911
-0.829497 -11.9054 -11.9054
-0.833284 -11.9871 -11.9871
-0.975406 -12.0652 -12.0652
-0.98356 -12.2294 -12.2294
-0.705828 -12.2372 -12.2372
-0.698805 -12.0729 -12.0729
-0.979483 -12.1472 -12.1472
-0.844662 -12.2332 -12.2332
-0.702314 -12.155 -12.155
-0.837074 -12.069 -12.069
-0.840867 -12.151 -12.151
-0.98356 -12.2294 -12.2294
-0.991716 -12.3942 -12.3942
-0.712869 -12.4022 -12.4022
-0.705828 -12.2372 -12.2372
-0.987638 -12.3117 -12.3117
-0.852261 -12.3981 -12.3981
-0.709346 -12.3196 -12.3196
-0.844662 -12.2332 -12.2332
-0.848461 -12.3156 -12.3156
-0.991716 -12.3942 -12.3942
-0.999874 -12.5598 -12.5598
-0.719929 -12.5678 -12.5678
-0.712869 -12.4022 -12.4022
-0.995795 -12.4769 -12.4769
-0.85987 -12.5637 -12.5637
-0.716397 -12.4849 -12.4849
-0.852261 -12.3981 -12.3981
-0.856064 -12.4808 -12.4808
-0.999874 -12.5598 -12.5598
-1.00803 -12.7259 -12.7259
-0.727006 -12.7341 -12.7341
-0.719929 -12.5678 -12.5678
-1.00395 -12.6428 -12.6428
-0.867489 -12.7299 -12.7299
-0.723466 -12.6509 -12.6509
-0.85987 -12.5637 -12.5637
-0.863678 -12.6467 -12.6467
-1.00803 -12.7259 -12.7259
-1.01619 -12.8927 -12.8927
-0.734101 -12.901 -12.901
-0.727006 -12.7341 -12.7341
-1.01211 -12.8093 -12.8093
-0.875116 -12.8968 -12.8968
-0.730552 -12.8174 -12.8174
-0.867489 -12.7299 -12.7299
-0.871301 -12.8133 -12.8133
-1.01619 -12.8927 -12.8927
-1.02435 -13.0602 -13.0602
-0.741213 -13.0685 -13.0685
-0.734101 -12.901 -12.901
-1.02027 -12.9764 -12.9764
-0.882753 -13.0643 -13.0643
-0.737655 -12.9846 -12.9846
-0.875116 -12.8968 -12.8968
-0.878933 -12.9804 -12.9804
-1.02435 -13.0602 -13.0602
-1.03252 -13.2282 -13.2282
-0.748341 -13.2366 -13.2366
-0.741213 -13.0685 -13.0685
-1.02844 -13.1441 -13.1441
-0.890397 -13.2324 -13.2324
-0.744775 -13.1525 -13.1525
-0.882753 -13.0643 -13.0643
-0.886574 -13.1482 -13.1482
-1.03252 -13.2282 -13.2282
-1.04068 -13.3969 -13.3969
-0.755485 -13.4054 -13.4054
-0.748341 -13.2366 -13.2366
-1.0366 -13.3125 -13.3125
-0.89805 -13.4011 -13.4011
-0.751911 -13.3209 -13.3209
-0.890397 -13.2324 -13.2324
-0.894222 -13.3166 -13.3166
-1.04068 -13.3969 -13.3969
-1.04884 -13.5662 -13.5662
-0.762644 -13.5747 -13.5747
-0.755485 -13.4054 -13.4054
-1.04476 -13.4815 -13.4815
-0.905709 -13.5704 -13.5704
-0.759062 -13.49 -13.49
-0.89805 -13.4011 -13.4011
-0.901878 -13.4857 -13.4857
-1.04884 -13.5662 -13.5662
-1.05699 -13.736 -13.736
-0.769818 -13.7447 -13.7447
-0.762644 -13.5747 -13.5747
-1.05292 -13.651 -13.651
-0.913375 -13.7403 -13.7403
-0.766229 -13.6596 -13.6596
-0.905709 -13.5704 -13.5704
-0.909541 -13.6553 -13.6553
-1.05699 -13.736 -13.736
-1.06515 -13.9065 -13.9065
-0.777007 -13.9152 -13.9152
-0.769818 -13.7447 -13.7447
-1.06107 -13.8212 -13.8212
-0.921048 -13.9108 -13.9108
-0.773411 -13.8299 -13.8299
-0.913375 -13.7403 -13.7403
-0.917211 -13.8255 -13.8255
-1.06515 -13.9065 -13.9065
-1.0733 -14.0775 -14.0775
-0.784209 -14.0863 -14.0863
-0.777007 -13.9152 -13.9152
-1.06923 -13.9919 -13.9919
-0.928726 -14.0818 -14.0818
-0.780606 -14.0007 -14.0007
-0.921048 -13.9108 -13.9108
-0.924886 -13.9962 -13.9962
-1.0733 -14.0775 -14.0775
-1.08146 -14.2491 -14.2491
-0.791425 -14.2579 -14.2579
-0.784209 -14.0863 -14.0863
-1.07738 -14.1632 -14.1632
-0.93641 -14.2534 -14.2534
-0.787815 -14.172 -14.172
-0.928726 -14.0818 -14.0818
-0.932567 -14.1676 -14.1676
-1.08146 -14.2491 -14.2491
-1.0896 -14.4212 -14.4212
-0.798653 -14.4301 -14.4301
-0.791425 -14.2579 -14.2579
-1.08553 -14.335 -14.335
-0.944098 -14.4256 -14.4256
-0.795037 -14.344 -14.344
-0.93641 -14.2534 -14.2534
-0.940253 -14.3395 -14.3395
-1.0896 -14.4212 -14.4212
-1.09775 -14.5938 -14.5938
-0.805894 -14.6029 -14.6029
-0.798653 -14.4301 -14.4301
-1.09368 -14.5074 -14.5074
-0.95179 -14.5983 -14.5983
-0.802272 -14.5164 -14.5164
-0.944098 -14.4256 -14.4256
-0.947943 -14.5119 -14.5119
-1.09775 -14.5938 -14.5938
-1.10589 -14.767 -14.767
-0.813147 -14.7762 -14.7762
-0.805894 -14.6029 -14.6029
-1.10182 -14.6804 -14.6804
-0.959485 -14.7715 -14.7715
-0.809519 -14.6895 -14.6895
-0.95179 -14.5983 -14.5983
-0.955637 -14.6849 -14.6849
-1.10589 -14.767 -14.767
-1.11402 -14.9408 -14.9408
-0.82041 -14.95 -14.95
-0.813147 -14.7762 -14.7762
-1.10995 -14.8538 -14.8538
-0.967184 -14.9453 -14.9453
-0.816777 -14.863 -14.863
-0.959485 -14.7715 -14.7715
-0.963334 -14.8584 -14.8584
-1.11402 -14.9408 -14.9408
-1.12215 -15.115 -15.115
-0.827685 -15.1243 -15.1243
-0.82041 -14.95 -14.95
-1.11808 -15.0278 -15.0278
-0.974885 -15.1196 -15.1196
-0.824046 -15.0371 -15.0371
-0.967184 -14.9453 -14.9453
-0.971034 -15.0324 -15.0324
-1.12215 -15.115 -15.115
-1.13027 -15.2897 -15.2897
-0.834969 -15.2991 -15.2991
-0.827685 -15.1243 -15.1243
-1.12621 -15.2023 -15.2023
-0.982589 -15.2944 -15.2944
-0.831326 -15.2116 -15.2116
-0.974885 -15.1196 -15.1196
-0.978737 -15.2069 -15.2069
-1.13027 -15.2897 -15.2897
-1.13838 -15.465 -15.465
-0.842263 -15.4744 -15.4744
-0.834969 -15.2991 -15.2991
-1.13433 -15.3773 -15.3773
-0.990293 -15.4696 -15.4696
-0.838615 -15.3867 -15.3867
-0.982589 -15.2944 -15.2944
-0.986441 -15.3819 -15.3819
-1.13838 -15.465 -15.465
-1.14649 -15.6407 -15.6407
-0.849566 -15.6502 -15.6502
-0.842263 -15.4744 -15.4744
-1.14244 -15.5528 -15.5528
-0.997998 -15.6454 -15.6454
-0.845913 -15.5622 -15.5622
-0.990293 -15.4696 -15.4696
-0.994146 -15.5574 -15.5574
-1.14649 -15.6407 -15.6407
-1.15459 -15.8169 -15.8169
-0.856877 -15.8264 -15.8264
-0.849566 -15.6502 -15.6502
-1.15054 -15.7287 -15.7287
-1.0057 -15.8216 -15.8216
-0.85322 -15.7383 -15.7383
-0.997998 -15.6454 -15.6454
-1.00185 -15.7334 -15.7334
-1.15459 -15.8169 -15.8169
-1.16268 -15.9935 -15.9935
-0.864196 -16.0032 -16.0032
-0.856877 -15.8264 -15.8264
-1.15864 -15.9051 -15.9051
-1.01341 -15.9983 -15.9983
-0.860535 -15.9147 -15.9147
-1.0057 -15.8216 -15.8216
-1.00956 -15.9099 -15.9099
-1.16268 -15.9935 -15.9935
-1.17076 -16.1706 -16.1706
-0.871522 -16.1803 -16.1803
-0.864196 -16.0032 -16.0032
-1.16672 -16.082 -16.082
-1.02111 -16.1755 -16.1755
-0.867858 -16.0917 -16.0917
-1.01341 -15.9983 -15.9983
-1.01726 -16.0868 -16.0868
-1.17076 -16.1706 -16.1706
-1.17884 -16.3482 -16.3482
-0.878855 -16.358 -16.358
-0.871522 -16.1803 -16.1803
-1.1748 -16.2594 -16.2594
-1.02882 -16.353 -16.353
-0.875187 -16.2691 -16.2691
-1.02111 -16.1755 -16.1755
-1.02496 -16.2642 -16.2642
-1.17884 -16.3482 -16.3482
-1.1869 -16.5262 -16.5262
-0.886193 -16.536 -16.536
-0.878855 -16.358 -16.358
-1.18287 -16.4371 -16.4371
-1.03652 -16.5311 -16.5311
-0.882523 -16.447 -16.447
-1.02882 -16.353 -16.353
-1.03267 -16.442 -16.442
-1.1869 -16.5262 -16.5262
-1.19495 -16.7046 -16.7046
-0.893537 -16.7145 -16.7145
-0.886193 -16.536 -16.536
-1.19092 -16.6154 -16.6154
-1.04421 -16.7095 -16.7095
-0.889865 -16.6252 -16.6252
-1.03652 -16.5311 -16.5311
-1.04036 -16.6203 -16.6203
-1.19495 -16.7046 -16.7046
-1.20299 -16.8835 -16.8835
-0.900886 -16.8934 -16.8934
-0.893537 -16.7145 -16.7145
-1.19897 -16.794 -16.794
-1.05191 -16.8884 -16.8884
-0.897211 -16.8039 -16.8039
-1.04421 -16.7095 -16.7095
-1.04806 -16.7989 -16.7989
-1.20299 -16.8835 -16.8835
-1.21102 -17.0627 -17.0627
-0.908239 -17.0727 -17.0727
-0.900886 -16.8934 -16.8934
-1.207 -16.973 -16.973
-1.0596 -17.0677 -17.0677
-0.904562 -16.983 -16.983
-1.05191 -16.8884 -16.8884
-1.05575 -16.978 -16.978
-1.21102 -17.0627 -17.0627
-1.21903 -17.2424 -17.2424
-0.915596 -17.2524 -17.2524
-0.908239 -17.0727 -17.0727
-1.21502 -17.1525 -17.1525
-1.06728 -17.2474 -17.2474
-0.911917 -17.1625 -17.1625
-1.0596 -17.0677 -17.0677
-1.06344 -17.1575 -17.1575
-1.21903 -17.2424 -17.2424
-1.22703 -17.4224 -17.4224
-0.922955 -17.4325 -17.4325
-0.915596 -17.2524 -17.2524
-1.22303 -17.3323 -17.3323
-1.07496 -17.4274 -17.4274
-0.919275 -17.3424 -17.3424
-1.06728 -17.2474 -17.2474
-1.07112 -17.3373 -17.3373
-1.22703 -17.4224 -17.4224
-1.23502 -17.6028 -17.6028
-0.930317 -17.613 -17.613
-0.922955 -17.4325 -17.4325
-1.23103 -17.5125 -17.5125
-1.08264 -17.6079 -17.6079
-0.926636 -17.5227 -17.5227
-1.07496 -17.4274 -17.4274
-1.0788 -17.5176 -17.5176
-1.23502 -17.6028 -17.6028
-1.24299 -17.7836 -17.7836
-0.93768 -17.7939 -17.7939
-0.930317 -17.613 -17.613
-1.23901 -17.6931 -17.6931
-1.09031 -17.7887 -17.7887
-0.933998 -17.7034 -17.7034
-1.08264 -17.6079 -17.6079
-1.08647 -17.6982 -17.6982
-1.24299 -17.7836 -17.7836
-1.25095 -17.9647 -17.9647
-0.945045 -17.9751 -17.9751
-0.93768 -17.7939 -17.7939
-1.24697 -17.8741 -17.8741
-1.09797 -17.9698 -17.9698
-0.941362 -17.8844 -17.8844
-1.09031 -17.7887 -17.7887
-1.09414 -17.8792 -17.8792
-1.25095 -17.9647 -17.9647
-1.25889 -18.1462 -18.1462
-0.95241 -18.1566 -18.1566
-0.945045 -17.9751 -17.9751
-1.25492 -18.0554 -18.0554
-1.10562 -18.1514 -18.1514
-0.948727 -18.0658 -18.0658
-1.09797 -17.9698 -17.9698
-1.1018 -18.0606 -18.0606
-1.25889 -18.1462 -18.1462
-1.26682 -18.328 -18.328
-0.959774 -18.3385 -18.3385
-0.95241 -18.1566 -18.1566
-1.26286 -18.2371 -18.2371
-1.11327 -18.3332 -18.3332
-0.956092 -18.2475 -18.2475
-1.10562 -18.1514 -18.1514
-1.10944 -18.2423 -18.2423
-1.26682 -18.328 -18.328
-1.27472 -18.5102 -18.5102
-0.967138 -18.5207 -18.5207
-0.959774 -18.3385 -18.3385
-1.27077 -18.4191 -18.4191
-1.1209 -18.5154 -18.5154
-0.963456 -18.4295 -18.4295
-1.11327 -18.3332 -18.3332
-1.11708 -18.4243 -18.4243
-1.27472 -18.5102 -18.5102
-1.28261 -18.6927 -18.6927
-0.9745 -18.7032 -18.7032
-0.967138 -18.5207 -18.5207
-1.27867 -18.6014 -18.6014
-1.12853 -18.6979 -18.6979
-0.970819 -18.6119 -18.6119
-1.1209 -18.5154 -18.5154
-1.12472 -18.6066 -18.6066
-1.28261 -18.6927 -18.6927
-1.29048 -18.8755 -18.8755
-0.98186 -18.8861 -18.8861
-0.9745 -18.7032 -18.7032
-1.28655 -18.784 -18.784
-1.13614 -18.8807 -18.8807
-0.97818 -18.7946 -18.7946
-1.12853 -18.6979 -18.6979
-1.13234 -18.7893 -18.7893
-1.29048 -18.8755 -18.8755
-1.29834 -19.0585 -19.0585
-0.989217 -19.0692 -19.0692
-0.98186 -18.8861 -18.8861
-1.29441 -18.967 -18.967
-1.14375 -19.0639 -19.0639
-0.985539 -18.9776 -18.9776
-1.13614 -18.8807 -18.8807
-1.13995 -18.9723 -18.9723
-1.29834 -19.0585 -19.0585
-1.30617 -19.2419 -19.2419
-0.996571 -19.2527 -19.2527
-0.989217 -19.0692 -19.0692
-1.30226 -19.1502 -19.1502
-1.15134 -19.2473 -19.2473
-0.992894 -19.1609 -19.1609
-1.14375 -19.0639 -19.0639
-1.14755 -19.1555 -19.1555
-1.30617 -19.2419 -19.2419
-1.31398 -19.4256 -19.4256
-1.00392 -19.4364 -19.4364
-0.996571 -19.2527 -19.2527
-1.31008 -19.3337 -19.3337
-1.15892 -19.431 -19.431
-1.00025 -19.3445 -19.3445
-1.15134 -19.2473 -19.2473
-1.15513 -19.3391 -19.3391
-1.31398 -19.4256 -19.4256
-1.32177 -19.6095 -19.6095
-1.01126 -19.6204 -19.6204
-1.00392 -19.4364 -19.4364
-1.31788 -19.5175 -19.5175
-1.16649 -19.6149 -19.6149
-1.00759 -19.5283 -19.5283
-1.15892 -19.431 -19.431
-1.16271 -19.5229 -19.5229
-1.32177 -19.6095 -19.6095
-1.32954 -19.7937 -19.7937
-1.0186 -19.8046 -19.8046
-1.01126 -19.6204 -19.6204
-1.32566 -19.7016 -19.7016
-1.17404 -19.7992 -19.7992
-1.01493 -19.7125 -19.7125
-1.16649 -19.6149 -19.6149
-1.17027 -19.707 -19.707
-1.32954 -19.7937 -19.7937
-1.33729 -19.9782 -19.9782
-1.02594 -19.9891 -19.9891
-1.0186 -19.8046 -19.8046
-1.33342 -19.8859 -19.8859
-1.18158 -19.9836 -19.9836
-1.02227 -19.8968 -19.8968
-1.17404 -19.7992 -19.7992
-1.17782 -19.8914 -19.8914
-1.33729 -19.9782 -19.9782
-1.34501 -20.1629 -20.1629
-1.03326 -20.1739 -20.1739
-1.02594 -19.9891 -19.9891
-1.34115 -20.0705 -20.0705
-1.18911 -20.1684 -20.1684
-1.0296 -20.0815 -20.0815
-1.18158 -19.9836 -19.9836
-1.18535 -20.076 -20.076
-1.34501 -20.1629 -20.1629
-1.35271 -20.3478 -20.3478
-1.04058 -20.3588 -20.3588
-1.03326 -20.1739 -20.1739
-1.34886 -20.2553 -20.2553
-1.19662 -20.3533 -20.3533
-1.03692 -20.2663 -20.2663
-1.18911 -20.1684 -20.1684
-1.19286 -20.2608 -20.2608
-1.35271 -20.3478 -20.3478
-1.36039 -20.533 -20.533
-1.04789 -20.544 -20.544
-1.04058 -20.3588 -20.3588
-1.35655 -20.4404 -20.4404
-1.20411 -20.5385 -20.5385
-1.04424 -20.4514 -20.4514
-1.19662 -20.3533 -20.3533
-1.20037 -20.4459 -20.4459
-1.36039 -20.533 -20.533
-1.36804 -20.7184 -20.7184
-1.05519 -20.7295 -20.7295
-1.04789 -20.544 -20.544
-1.36421 -20.6256 -20.6256
-1.21159 -20.7239 -20.7239
-1.05154 -20.6367 -20.6367
-1.20411 -20.5385 -20.5385
-1.20785 -20.6312 -20.6312
-1.36804 -20.7184 -20.7184
-1.37566 -20.9039 -20.9039
-1.06248 -20.9151 -20.9151
-1.05519 -20.7295 -20.7295
-1.37185 -20.8111 -20.8111
-1.21904 -20.9095 -20.9095
-1.05884 -20.8222 -20.8222
-1.21159 -20.7239 -20.7239
-1.21532 -20.8167 -20.8167
-1.37566 -20.9039 -20.9039
-1.38326 -21.0897 -21.0897
-1.06976 -21.1009 -21.1009
-1.06248 -20.9151 -20.9151
-1.37946 -20.9968 -20.9968
-1.22648 -21.0953 -21.0953
-1.06613 -21.008 -21.008
-1.21904 -20.9095 -20.9095
-1.22277 -21.0024 -21.0024
-1.38326 -21.0897 -21.0897
-1.39083 -21.2757 -21.2757
-1.07704 -21.2869 -21.2869
-1.06976 -21.1009 -21.1009
-1.38705 -21.1827 -21.1827
-1.2339 -21.2813 -21.2813
-1.0734 -21.1939 -21.1939
-1.22648 -21.0953 -21.0953
-1.2302 -21.1882 -21.1882
-1.39083 -21.2757 -21.2757
-1.39837 -21.4618 -21.4618
-1.08429 -21.4731 -21.4731
-1.07704 -21.2869 -21.2869
-1.3946 -21.3687 -21.3687
-1.2413 -21.4674 -21.4674
-1.08067 -21.3799 -21.3799
-1.2339 -21.2813 -21.2813
-1.23761 -21.3743 -21.3743
-1.39837 -21.4618 -21.4618
-1.40588 -21.6481 -21.6481
-1.09154 -21.6594 -21.6594
-1.08429 -21.4731 -21.4731
-1.40213 -21.5549 -21.5549
-1.24868 -21.6537 -21.6537
-1.08792 -21.5662 -21.5662
-1.2413 -21.4674 -21.4674
-1.245 -21.5606 -21.5606
-1.40588 -21.6481 -21.6481
-1.41337 -21.8346 -21.8346
-1.09877 -21.8459 -21.8459
-1.09154 -21.6594 -21.6594
-1.40963 -21.7413 -21.7413
-1.25604 -21.8402 -21.8402
-1.09516 -21.7526 -21.7526
-1.24868 -21.6537 -21.6537
-1.25237 -21.747 -21.747
-1.41337 -21.8346 -21.8346
-1.42082 -22.0212 -22.0212
-1.10599 -22.0325 -22.0325
-1.09877 -21.8459 -21.8459
-1.4171 -21.9279 -21.9279
-1.26338 -22.0268 -22.0268
-1.10238 -21.9392 -21.9392
-1.25604 -21.8402 -21.8402
-1.25971 -21.9335 -21.9335
-1.42082 -22.0212 -22.0212
-1.42824 -22.2079 -22.2079
-1.1132 -22.2193 -22.2193
-1.10599 -22.0325 -22.0325
-1.42454 -22.1145 -22.1145
-1.27069 -22.2136 -22.2136
-1.1096 -22.1259 -22.1259
-1.26338 -22.0268 -22.0268
-1.26704 -22.1202 -22.1202
-1.42824 -22.2079 -22.2079
-1.43564 -22.3948 -22.3948
-1.12039 -22.4062 -22.4062
-1.1132 -22.2193 -22.2193
-1.43194 -22.3013 -22.3013
-1.27798 -22.4005 -22.4005
-1.11679 -22.3127 -22.3127
-1.27069 -22.2136 -22.2136
-1.27434 -22.307 -22.307
-1.43564 -22.3948 -22.3948
-1.443 -22.5818 -22.5818
-1.12756 -22.5932 -22.5932
-1.12039 -22.4062 -22.4062
-1.43932 -22.4883 -22.4883
-1.28525 -22.5875 -22.5875
-1.12398 -22.4997 -22.4997
-1.27798 -22.4005 -22.4005
-1.28162 -22.494 -22.494
-1.443 -22.5818 -22.5818
-1.45032 -22.7689 -22.7689
-1.13472 -22.7804 -22.7804
-1.12756 -22.5932 -22.5932
-1.44666 -22.6753 -22.6753
-1.29249 -22.7746 -22.7746
-1.13114 -22.6868 -22.6868
-1.28525 -22.5875 -22.5875
-1.28888 -22.6811 -22.6811
-1.45032 -22.7689 -22.7689
-1.45762 -22.9561 -22.9561
-1.14186 -22.9676 -22.9676
-1.13472 -22.7804 -22.7804
-1.45397 -22.8625 -22.8625
-1.29971 -22.9618 -22.9618
-1.13829 -22.874 -22.874
-1.29249 -22.7746 -22.7746
-1.2961 -22.8682 -22.8682
-1.45762 -22.9561 -22.9561
-1.46488 -23.1434 -23.1434
-1.14898 -23.1549 -23.1549
-1.14186 -22.9676 -22.9676
-1.46125 -23.0497 -23.0497
-1.3069 -23.1491 -23.1491
-1.14542 -23.0612 -23.0612
-1.29971 -22.9618 -22.9618
-1.30331 -23.0555 -23.0555
-1.46488 -23.1434 -23.1434
-1.4721 -23.3308 -23.3308
-1.15608 -23.3423 -23.3423
-1.14898 -23.1549 -23.1549
-1.46849 -23.2371 -23.2371
-1.31406 -23.3365 -23.3365
-1.15253 -23.2486 -23.2486
-1.3069 -23.1491 -23.1491
-1.31048 -23.2428 -23.2428
-1.4721 -23.3308 -23.3308
-1.47929 -23.5182 -23.5182
-1.16315 -23.5298 -23.5298
-1.15608 -23.3423 -23.3423
-1.4757 -23.4245 -23.4245
-1.32119 -23.524 -23.524
-1.15962 -23.436 -23.436
-1.31406 -23.3365 -23.3365
-1.31763 -23.4302 -23.4302
-1.47929 -23.5182 -23.5182
-1.48643 -23.7057 -23.7057
-1.1702 -23.7173 -23.7173
-1.16315 -23.5298 -23.5298
-1.48286 -23.6119 -23.6119
-1.32829 -23.7115 -23.7115
-1.16668 -23.6235 -23.6235
-1.32119 -23.524 -23.524
-1.32474 -23.6177 -23.6177
-1.48643 -23.7057 -23.7057
-1.49354 -23.8933 -23.8933
-1.17722 -23.9049 -23.9049
-1.1702 -23.7173 -23.7173
-1.48999 -23.7995 -23.7995
-1.33535 -23.8991 -23.8991
-1.17372 -23.8111 -23.8111
-1.32829 -23.7115 -23.7115
-1.33182 -23.8053 -23.8053
-1.49354 -23.8933 -23.8933
-1.5006 -24.0809 -24.0809
-1.18422 -24.0925 -24.0925
-1.17722 -23.9049 -23.9049
-1.49708 -23.9871 -23.9871
-1.34237 -24.0867 -24.0867
-1.18072 -23.9987 -23.9987
-1.33535 -23.8991 -23.8991
-1.33886 -23.9929 -23.9929
-1.5006 -24.0809 -24.0809
-1.50762 -24.2686 -24.2686
-1.19119 -24.2802 -24.2802
-1.18422 -24.0925 -24.0925
-1.50412 -24.1747 -24.1747
-1.34935 -24.2744 -24.2744
-1.1877 -24.1864 -24.1864
-1.34237 -24.0867 -24.0867
-1.34586 -24.1805 -24.1805
-1.50762 -24.2686 -24.2686
-1.51459 -24.4564 -24.4564
-1.19815 -24.4679 -24.4679
-1.19119 -24.2802 -24.2802
-1.51111 -24.3624 -24.3624
-1.35631 -24.4621 -24.4621
-1.19467 -24.374 -24.374
-1.34935 -24.2744 -24.2744
-1.35283 -24.3682 -24.3682
-1.51459 -24.4564 -24.4564
-1.5216 -24.6442 -24.6442
-1.20513 -24.6554 -24.6554
-1.19815 -24.4679 -24.4679
-1.51809 -24.5503 -24.5503
-1.36332 -24.6498 -24.6498
-1.20164 -24.5617 -24.5617
-1.35631 -24.4621 -24.4621
-1.35981 -24.556 -24.556
0 0 0
-0.00427945 -0.000426962 -0.000426962
-0.00142373 0.000231188 0.000231188
0 0 0
-0.002075 0.000135209 0.000135209
-0.00284112 -1.44329e-05 -1.44329e-05
-0.000709053 0.000459991 0.000459991
0 0 0
-0.00137959 0.000350223 0.000350223
-0.00427945 -0.000426962 -0.000426962
-0.00888533 -0.00328778 -0.00328778
-0.00296249 -0.00214655 -0.00214655
-0.00142373 0.000231188 0.000231188
-0.00655358 -0.00158204 -0.00158204
-0.00589678 -0.00255713 -0.00255713
-0.00217891 -0.00065232 -0.00065232
-0.00284112 -1.44329e-05 -1.44329e-05
-0.0043498 -0.000994745 -0.000994745
-0.00888533 -0.00328778 -0.00328778
-0.0136842 -0.00824304 -0.00824304
-0.00455716 -0.00681215 -0.00681215
-0.00296249 -0.00214655 -0.00214655
-0.0112699 -0.00551732 -0.00551732
-0.00908205 -0.00733553 -0.00733553
-0.00375532 -0.0042089 -0.0042089
-0.00589678 -0.00255713 -0.00255713
-0.00747792 -0.00468142 -0.00468142
-0.0136842 -0.00824304 -0.00824304
-0.0185248 -0.0151068 -0.0151068
-0.00618908 -0.0135569 -0.0135569
-0.00455716 -0.00681215 -0.00681215
-0.0161046 -0.0114415 -0.0114415
-0.0123177 -0.0141288 -0.0141288
-0.00537041 -0.00993405 -0.00993405
-0.00908205 -0.00733553 -0.00733553
-0.0106975 -0.0104889 -0.0104889
-0.0185248 -0.0151068 -0.0151068
-0.0233532 -0.0238288 -0.0238288
-0.00782306 -0.022252 -0.022252
-0.00618908 -0.0135569 -0.0135569
-0.0209425 -0.0192369 -0.0192369
-0.0155545 -0.0228372 -0.0228372
-0.0070067 -0.0176658 -0.0176658
-0.0123177 -0.0141288 -0.0141288
-0.0139378 -0.0182474 -0.0182474
-0.0233532 -0.0238288 -0.0238288
-0.0281426 -0.0343898 -0.0343898
-0.00945352 -0.0328315 -0.0328315
-0.00782306 -0.022252 -0.022252
-0.0257529 -0.0288799 -0.0288799
-0.0187706 -0.0334089 -0.0334089
-0.00863906 -0.0273088 -0.0273088
-0.0155545 -0.0228372 -0.0228372
-0.0171656 -0.0278918 -0.0278918
-0.0281426 -0.0343898 -0.0343898
-0.0328966 -0.0467864 -0.0467864
-0.0110748 -0.045261 -0.045261
-0.00945352 -0.0328315 -0.0328315
-0.0305237 -0.040359 -0.040359
-0.0219633 -0.0458242 -0.0458242
-0.0102652 -0.0388163 -0.0388163
-0.0187706 -0.0334089 -0.0334089
-0.0203697 -0.039387 -0.039387
-0.0328966 -0.0467864 -0.0467864
-0.0376196 -0.0610118 -0.0610118
-0.0126906 -0.0595233 -0.0595233
-0.0110748 -0.045261 -0.045261
-0.0352616 -0.0536709 -0.0536709
-0.0251359 -0.06007 -0.06007
-0.0118831 -0.0521638 -0.0521638
-0.0219633 -0.0458242 -0.0458242
-0.0235518 -0.0527189 -0.0527189
-0.0376196 -0.0610118 -0.0610118
-0.0423188 -0.0770597 -0.0770597
-0.0143034 -0.0756073 -0.0756073
-0.0126906 -0.0595233 -0.0595233
-0.0399718 -0.0688085 -0.0688085
-0.0282939 -0.0761377 -0.0761377
-0.0134971 -0.0673381 -0.0673381
-0.0251359 -0.06007 -0.06007
-0.0267164 -0.0678767 -0.0678767
-0.0423188 -0.0770597 -0.0770597
-0.0469991 -0.0949217 -0.0949217
-0.0159168 -0.0935046 -0.0935046
-0.0143034 -0.0756073 -0.0756073
-0.044661 -0.0857645 -0.0857645
-0.0314418 -0.0940188 -0.0940188
-0.0151098 -0.0843298 -0.0843298
-0.0282939 -0.0761377 -0.0761377
-0.0298689 -0.0848521 -0.0848521
-0.0469991 -0.0949217 -0.0949217
-0.0516646 -0.114589 -0.114589
-0.0175332 -0.113207 -0.113207
-0.0159168 -0.0935046 -0.0935046
-0.0493335 -0.10453 -0.10453
-0.0345833 -0.113705 -0.113705
-0.0167244 -0.103131 -0.103131
-0.0314418 -0.0940188 -0.0940188
-0.0330132 -0.103637 -0.103637
-0.0516646 -0.114589 -0.114589
-0.0563181 -0.136052 -0.136052
-0.0191548 -0.134705 -0.134705
-0.0175332 -0.113207 -0.113207
-0.0539927 -0.125097 -0.125097
-0.037721 -0.135187 -0.135187
-0.0183432 -0.123732 -0.123732
-0.0345833 -0.113705 -0.113705
-0.0361525 -0.124222 -0.124222
-0.0563181 -0.136052 -0.136052
-0.0609617 -0.159302 -0.159302
-0.0207832 -0.157991 -0.157991
-0.0191548 -0.134705 -0.134705
-0.058641 -0.147454 -0.147454
-0.040857 -0.158456 -0.158456
-0.019968 -0.146125 -0.146125
-0.037721 -0.135187 -0.135187
-0.0392891 -0.146599 -0.146599
-0.0609617 -0.159302 -0.159302
-0.0655969 -0.184329 -0.184329
-0.02242 -0.183056 -0.183056
-0.0207832 -0.157991 -0.157991
-0.0632802 -0.171594 -0.171594
-0.043993 -0.183503 -0.183503
-0.0216005 -0.170302 -0.170302
-0.040857 -0.158456 -0.158456
-0.0424249 -0.170758 -0.170758
-0.0655969 -0.184329 -0.184329
-0.0702253 -0.211123 -0.211123
-0.0240665 -0.209889 -0.209889
-0.02242 -0.183056 -0.183056
-0.0679119 -0.197505 -0.197505
-0.0471303 -0.210317 -0.210317
-0.023242 -0.196252 -0.196252
-0.043993 -0.183503 -0.183503
-0.0455614 -0.19669 -0.19669
-0.0702253 -0.211123 -0.211123
-0.0748481 -0.239674 -0.239674
-0.0257237 -0.238482 -0.238482
-0.0240665 -0.209889 -0.209889
-0.0725373 -0.225179 -0.225179
-0.0502702 -0.238891 -0.238891
-0.0248936 -0.223966 -0.223966
-0.0471303 -0.210317 -0.210317
-0.0486998 -0.224385 -0.224385
-0.0748481 -0.239674 -0.239674
-0.0794663 -0.269974 -0.269974
-0.0273928 -0.268824 -0.268824
-0.0257237 -0.238482 -0.238482
-0.0771577 -0.254606 -0.254606
-0.0534137 -0.269213 -0.269213
-0.0265567 -0.253435 -0.253435
-0.0502702 -0.238891 -0.238891
-0.0518414 -0.253834 -0.253834
-0.0794663 -0.269974 -0.269974
-0.0840811 -0.302012 -0.302012
-0.0290749 -0.300907 -0.300907
-0.0273928 -0.268824 -0.268824
-0.0817741 -0.285776 -0.285776
-0.0565621 -0.301274 -0.301274
-0.0282322 -0.284649 -0.284649
-0.0534137 -0.269213 -0.269213
-0.0549872 -0.285026 -0.285026
-0.0840811 -0.302012 -0.302012
-0.0886936 -0.335778 -0.335778
-0.0307712 -0.33472 -0.33472
-0.0290749 -0.300907 -0.300907
-0.0863876 -0.31868 -0.31868
-0.0597163 -0.335065 -0.335065
-0.0299212 -0.317598 -0.317598
-0.0565621 -0.301274 -0.301274
-0.0581384 -0.317954 -0.317954
-0.0886936 -0.335778 -0.335778
-0.0933048 -0.371264 -0.371264
-0.0324825 -0.370254 -0.370254
-0.0307712 -0.33472 -0.33472
-0.0909993 -0.353307 -0.353307
-0.0628775 -0.370576 -0.370576
-0.0316249 -0.352272 -0.352272
-0.0597163 -0.335065 -0.335065
-0.061296 -0.352606 -0.352606
-0.0933048 -0.371264 -0.371264
-0.0979158 -0.408459 -0.408459
-0.03421 -0.407499 -0.407499
-0.0324825 -0.370254 -0.370254
-0.0956103 -0.389649 -0.389649
-0.0660466 -0.407797 -0.407797
-0.0333441 -0.388663 -0.388663
-0.0628775 -0.370576 -0.370576
-0.064461 -0.388973 -0.388973
-0.0979158 -0.408459 -0.408459
-0.102527 -0.447354 -0.447354
-0.0359546 -0.446445 -0.446445
-0.03421 -0.407499 -0.407499
-0.100221 -0.427695 -0.427695
-0.0692247 -0.446718 -0.446718
-0.0350801 -0.42676 -0.42676
-0.0660466 -0.407797 -0.407797
-0.0676344 -0.427046 -0.427046
-0.102527 -0.447354 -0.447354
-0.107141 -0.487939 -0.487939
-0.0377173 -0.487083 -0.487083
-0.0359546 -0.446445 -0.446445
-0.104834 -0.467436 -0.467436
-0.0724126 -0.487331 -0.487331
-0.0368336 -0.466553 -0.466553
-0.0692247 -0.446718 -0.446718
-0.0708173 -0.466814 -0.466814
-0.107141 -0.487939 -0.487939
-0.111757 -0.530204 -0.530204
-0.0394992 -0.529404 -0.529404
-0.0377173 -0.487083 -0.487083
-0.109449 -0.508862 -0.508862
-0.0756115 -0.529625 -0.529625
-0.0386058 -0.508034 -0.508034
-0.0724126 -0.487331 -0.487331
-0.0740106 -0.508268 -0.508268
-0.111757 -0.530204 -0.530204
-0.116377 -0.57414 -0.57414
-0.0413011 -0.573396 -0.573396
-0.0394992 -0.529404 -0.529404
-0.114066 -0.551964 -0.551964
-0.0788222 -0.57359 -0.57359
-0.0403975 -0.551191 -0.551191
-0.0756115 -0.529625 -0.529625
-0.0772153 -0.551399 -0.551399
-0.116377 -0.57414 -0.57414
-0.121001 -0.619737 -0.619737
-0.0431239 -0.619051 -0.619051
-0.0413011 -0.573396 -0.573396
-0.118688 -0.596732 -0.596732
-0.0820457 -0.619217 -0.619217
-0.0422098 -0.596017 -0.596017
-0.0788222 -0.57359 -0.57359
-0.0804323 -0.596197 -0.596197
-0.121001 -0.619737 -0.619737
-0.125631 -0.666986 -0.666986
-0.0449687 -0.66636 -0.66636
-0.0431239 -0.619051 -0.619051
-0.123315 -0.643156 -0.643156
-0.0852829 -0.666497 -0.666497
-0.0440435 -0.6425 -0.6425
-0.0820457 -0.619217 -0.619217
-0.0836625 -0.642651 -0.642651
-0.125631 -0.666986 -0.666986
-0.130267 -0.715876 -0.715876
-0.0468362 -0.715311 -0.715311
-0.0449687 -0.66636 -0.66636
-0.127948 -0.691227 -0.691227
-0.0885346 -0.715419 -0.715419
-0.0458995 -0.690631 -0.690631
-0.0852829 -0.666497 -0.666497
-0.0869069 -0.690753 -0.690753
-0.130267 -0.715876 -0.715876
-0.13491 -0.766399 -0.766399
-0.0487273 -0.765896 -0.765896
-0.0468362 -0.715311 -0.715311
-0.132588 -0.740934 -0.740934
-0.0918018 -0.765974 -0.765974
-0.0477787 -0.7404 -0.7404
-0.0885346 -0.715419 -0.715419
-0.0901662 -0.740493 -0.740493
-0.13491 -0.766399 -0.766399
-0.139562 -0.818544 -0.818544
-0.050643 -0.818105 -0.818105
-0.0487273 -0.765896 -0.765896
-0.137235 -0.792269 -0.792269
-0.0950853 -0.818152 -0.818152
-0.0496821 -0.791798 -0.791798
-0.0918018 -0.765974 -0.765974
-0.0934415 -0.791861 -0.791861
-0.139562 -0.818544 -0.818544
-0.144222 -0.872302 -0.872302
-0.052584 -0.871929 -0.871929
-0.050643 -0.818105 -0.818105
-0.141891 -0.845222 -0.845222
-0.0983859 -0.871944 -0.871944
-0.0516103 -0.844816 -0.844816
-0.0950853 -0.818152 -0.818152
-0.0967334 -0.844847 -0.844847
-0.144222 -0.872302 -0.872302
-0.148892 -0.927663 -0.927663
-0.0545512 -0.927356 -0.927356
-0.052584 -0.871929 -0.871929
-0.146556 -0.899783 -0.899783
-0.101705 -0.927339 -0.927339
-0.0535643 -0.899443 -0.899443
-0.0983859 -0.871944 -0.871944
-0.100043 -0.899441 -0.899441
-0.148892 -0.927663 -0.927663
-0.153573 -0.984618 -0.984618
-0.0565453 -0.984379 -0.984379
-0.0545512 -0.927356 -0.927356
-0.151231 -0.955942 -0.955942
-0.105042 -0.984329 -0.984329
-0.0555448 -0.955669 -0.955669
-0.101705 -0.927339 -0.927339
-0.103371 -0.955635 -0.955635
-0.153573 -0.984618 -0.984618
-0.158265 -1.04316 -1.04316
-0.0585672 -1.04299 -1.04299
-0.0565453 -0.984379 -0.984379
-0.155918 -1.01369 -1.01369
-0.108399 -1.0429 -1.0429
-0.0575527 -1.01349 -1.01349
-0.105042 -0.984329 -0.984329
-0.106718 -1.01342 -1.01342
-0.158265 -1.04316 -1.04316
-0.162969 -1.10327 -1.10327
-0.0606175 -1.10317 -1.10317
-0.0585672 -1.04299 -1.04299
-0.160616 -1.07302 -1.07302
-0.111776 -1.10305 -1.10305
-0.0595887 -1.07288 -1.07288
-0.108399 -1.0429 -1.0429
-0.110085 -1.07278 -1.07278
-0.162969 -1.10327 -1.10327
-0.167686 -1.16495 -1.16495
-0.0626971 -1.16492 -1.16492
-0.0606175 -1.10317 -1.10317
-0.165326 -1.13391 -1.13391
-0.115174 -1.16477 -1.16477
-0.0616536 -1.13385 -1.13385
-0.111776 -1.10305 -1.10305
-0.113472 -1.13371 -1.13371
-0.167686 -1.16495 -1.16495
-0.172417 -1.22818 -1.22818
-0.0648067 -1.22822 -1.22822
-0.0626971 -1.16492 -1.16492
-0.17005 -1.19637 -1.19637
-0.118594 -1.22804 -1.22804
-0.0637481 -1.19638 -1.19638
-0.115174 -1.16477 -1.16477
-0.116881 -1.19621 -1.19621
-0.172417 -1.22818 -1.22818
-0.177162 -1.29295 -1.29295
-0.0669469 -1.29308 -1.29308
-0.0648067 -1.22822 -1.22822
-0.174788 -1.26037 -1.26037
-0.122037 -1.29285 -1.29285
-0.0658729 -1.26046 -1.26046
-0.118594 -1.22804 -1.22804
-0.120312 -1.26025 -1.26025
-0.177162 -1.29295 -1.29295
-0.181922 -1.35927 -1.35927
-0.0691185 -1.35946 -1.35946
-0.0669469 -1.29308 -1.29308
-0.17954 -1.32592 -1.32592
-0.125502 -1.3592 -1.3592
-0.0680288 -1.32608 -1.32608
-0.122037 -1.29285 -1.29285
-0.123766 -1.32584 -1.32584
-0.181922 -1.35927 -1.35927
-0.186697 -1.42711 -1.42711
-0.0713222 -1.42738 -1.42738
-0.0691185 -1.35946 -1.35946
-0.184307 -1.393 -1.393
-0.128992 -1.42708 -1.42708
-0.0702163 -1.39323 -1.39323
-0.125502 -1.3592 -1.3592
-0.127244 -1.39295 -1.39295
-0.186697 -1.42711 -1.42711
-0.191489 -1.49646 -1.49646
-0.0735585 -1.49681 -1.49681
-0.0713222 -1.42738 -1.42738
-0.189091 -1.46159 -1.46159
-0.132506 -1.49648 -1.49648
-0.0724362 -1.46191 -1.46191
-0.128992 -1.42708 -1.42708
-0.130746 -1.46159 -1.46159
-0.191489 -1.49646 -1.49646
-0.196297 -1.56732 -1.56732
-0.0758282 -1.56775 -1.56775
-0.0735585 -1.49681 -1.49681
-0.193891 -1.5317 -1.5317
-0.136045 -1.56738 -1.56738
-0.0746892 -1.53209 -1.53209
-0.132506 -1.49648 -1.49648
-0.134272 -1.53174 -1.53174
-0.196297 -1.56732 -1.56732
-0.201124 -1.63968 -1.63968
-0.0781319 -1.64019 -1.64019
-0.0758282 -1.56775 -1.56775
-0.198708 -1.60332 -1.60332
-0.13961 -1.63978 -1.63978
-0.0769758 -1.60378 -1.60378
-0.136045 -1.56738 -1.56738
-0.137824 -1.60339 -1.60339
-0.201124 -1.63968 -1.63968
-0.205968 -1.71353 -1.71353
-0.0804701 -1.71412 -1.71412
-0.0781319 -1.64019 -1.64019
-0.203543 -1.67642 -1.67642
-0.143201 -1.71366 -1.71366
-0.0792966 -1.67697 -1.67697
-0.13961 -1.63978 -1.63978
-0.141402 -1.67653 -1.67653
-0.205968 -1.71353 -1.71353
-0.210831 -1.78885 -1.78885
-0.0828435 -1.78952 -1.78952
-0.0804701 -1.71412 -1.71412
-0.208397 -1.751 -1.751
-0.146819 -1.78903 -1.78903
-0.0816524 -1.75163 -1.75163
-0.143201 -1.71366 -1.71366
-0.145007 -1.75116 -1.75116
-0.210831 -1.78885 -1.78885
-0.215713 -1.86564 -1.86564
-0.0852526 -1.86639 -1.86639
-0.0828435 -1.78952 -1.78952
-0.21327 -1.82706 -1.82706
-0.150465 -1.86586 -1.86586
-0.0840435 -1.82777 -1.82777
-0.146819 -1.78903 -1.78903
-0.148638 -1.82726 -1.82726
-0.215713 -1.86564 -1.86564
-0.220616 -1.94389 -1.94389
-0.0876979 -1.94473 -1.94473
-0.0852526 -1.86639 -1.86639
-0.218162 -1.90458 -1.90458
-0.154138 -1.94415 -1.94415
-0.0864707 -1.90538 -1.90538
-0.150465 -1.86586 -1.86586
-0.152298 -1.90483 -1.90483
-0.220616 -1.94389 -1.94389
-0.225538 -2.02359 -2.02359
-0.0901801 -2.02451 -2.02451
-0.0876979 -1.94473 -1.94473
-0.223075 -1.98356 -1.98356
-0.157841 -2.02389 -2.02389
-0.0889344 -1.98444 -1.98444
-0.154138 -1.94415 -1.94415
-0.155986 -1.98384 -1.98384
-0.225538 -2.02359 -2.02359
-0.230482 -2.10472 -2.10472
-0.0926996 -2.10573 -2.10573
-0.0901801 -2.02451 -2.02451
-0.228008 -2.06398 -2.06398
-0.161572 -2.10507 -2.10507
-0.0914351 -2.06494 -2.06494
-0.157841 -2.02389 -2.02389
-0.159703 -2.06431 -2.06431
-0.230482 -2.10472 -2.10472
-0.235447 -2.18729 -2.18729
-0.0952569 -2.18838 -2.18838
-0.0926996 -2.10573 -2.10573
-0.232962 -2.14583 -2.14583
-0.165334 -2.18768 -2.18768
-0.0939735 -2.14688 -2.14688
-0.161572 -2.10507 -2.10507
-0.163449 -2.1462 -2.1462
-0.235447 -2.18729 -2.18729
-0.240434 -2.27127 -2.27127
-0.0978526 -2.27246 -2.27246
-0.0952569 -2.18838 -2.18838
-0.237938 -2.22911 -2.22911
-0.169125 -2.27171 -2.27171
-0.0965499 -2.23024 -2.23024
-0.165334 -2.18768 -2.18768
-0.167225 -2.22952 -2.22952
-0.240434 -2.27127 -2.27127
-0.245444 -2.35667 -2.35667
-0.100487 -2.35794 -2.35794
-0.0978526 -2.27246 -2.27246
-0.242936 -2.3138 -2.3138
-0.172947 -2.35716 -2.35716
-0.0991649 -2.31502 -2.31502
-0.169125 -2.27171 -2.27171
-0.171032 -2.31426 -2.31426
-0.245444 -2.35667 -2.35667
-0.250476 -2.44347 -2.44347
-0.103161 -2.44482 -2.44482
-0.100487 -2.35794 -2.35794
-0.247957 -2.39989 -2.39989
-0.1768 -2.444 -2.444
-0.101819 -2.40121 -2.40121
-0.172947 -2.35716 -2.35716
-0.174869 -2.4004 -2.4004
-0.250476 -2.44347 -2.44347
-0.255531 -2.53165 -2.53165
-0.105874 -2.5331 -2.5331
-0.103161 -2.44482 -2.44482
-0.253001 -2.48739 -2.48739
-0.180684 -2.53223 -2.53223
-0.104512 -2.48879 -2.48879
-0.1768 -2.444 -2.444
-0.178738 -2.48794 -2.48794
-0.255531 -2.53165 -2.53165
-0.260611 -2.62122 -2.62122
-0.108628 -2.62276 -2.62276
-0.105874 -2.5331 -2.5331
-0.258068 -2.57626 -2.57626
-0.1846 -2.62184 -2.62184
-0.107246 -2.57776 -2.57776
-0.180684 -2.53223 -2.53223
-0.182638 -2.57686 -2.57686
-0.260611 -2.62122 -2.62122
-0.265714 -2.71216 -2.71216
-0.111422 -2.71378 -2.71378
-0.108628 -2.62276 -2.62276
-0.263159 -2.66652 -2.66652
-0.188549 -2.71283 -2.71283
-0.11002 -2.6681 -2.6681
-0.1846 -2.62184 -2.62184
-0.186571 -2.66716 -2.66716
-0.265714 -2.71216 -2.71216
-0.270842 -2.80446 -2.80446
-0.114257 -2.80618 -2.80618
-0.111422 -2.71378 -2.71378
-0.268275 -2.75814 -2.75814
-0.19253 -2.80517 -2.80517
-0.112834 -2.75981 -2.75981
-0.188549 -2.71283 -2.71283
-0.190536 -2.75883 -2.75883
-0.270842 -2.80446 -2.80446
-0.275994 -2.89811 -2.89811
-0.117133 -2.89992 -2.89992
-0.114257 -2.80618 -2.80618
-0.273415 -2.85112 -2.85112
-0.196545 -2.89887 -2.89887
-0.115689 -2.85288 -2.85288
-0.19253 -2.80517 -2.80517
-0.194533 -2.85185 -2.85185
-0.275994 -2.89811 -2.89811
-0.281172 -2.9931 -2.9931
-0.120051 -2.99501 -2.99501
-0.117133 -2.89992 -2.89992
-0.27858 -2.94544 -2.94544
-0.200593 -2.99391 -2.99391
-0.118586 -2.9473 -2.9473
-0.196545 -2.89887 -2.89887
-0.198564 -2.94623 -2.94623
-0.281172 -2.9931 -2.9931
-0.286376 -3.08943 -3.08943
-0.12301 -3.09143 -3.09143
-0.120051 -2.99501 -2.99501
-0.283771 -3.0411 -3.0411
-0.204674 -3.09029 -3.09029
-0.121525 -3.04305 -3.04305
-0.200593 -2.99391 -2.99391
-0.202629 -3.04193 -3.04193
-0.286376 -3.08943 -3.08943
-0.291606 -3.18708 -3.18708
-0.126013 -3.18917 -3.18917
-0.12301 -3.09143 -3.09143
-0.288988 -3.13809 -3.13809
-0.20879 -3.18799 -3.18799
-0.124506 -3.14013 -3.14013
-0.204674 -3.09029 -3.09029
-0.206728 -3.13897 -3.13897
-0.291606 -3.18708 -3.18708
-0.296861 -3.28604 -3.28604
-0.129057 -3.28823 -3.28823
-0.126013 -3.18917 -3.18917
-0.29423 -3.2364 -3.2364
-0.21294 -3.287 -3.287
-0.12753 -3.23854 -3.23854
-0.20879 -3.18799 -3.18799
-0.210861 -3.23733 -3.23733
-0.296861 -3.28604 -3.28604
-0.302144 -3.38631 -3.38631
-0.132145 -3.38859 -3.38859
-0.129057 -3.28823 -3.28823
-0.299499 -3.33601 -3.33601
-0.217125 -3.38731 -3.38731
-0.130596 -3.33825 -3.33825
-0.21294 -3.287 -3.287
-0.215028 -3.33699 -3.33699
-0.302144 -3.38631 -3.38631
-0.307453 -3.48787 -3.48787
-0.135276 -3.49024 -3.49024
-0.132145 -3.38859 -3.38859
-0.304795 -3.43693 -3.43693
-0.221345 -3.48892 -3.48892
-0.133705 -3.43926 -3.43926
-0.217125 -3.38731 -3.38731
-0.219231 -3.43795 -3.43795
-0.307453 -3.48787 -3.48787
-0.312789 -3.59072 -3.59072
-0.13845 -3.59318 -3.59318
-0.135276 -3.49024 -3.49024
-0.310117 -3.53913 -3.53913
-0.225601 -3.59181 -3.59181
-0.136858 -3.54155 -3.54155
-0.221345 -3.48892 -3.48892
-0.223469 -3.54021 -3.54021
-0.312789 -3.59072 -3.59072
-0.318152 -3.69484 -3.69484
-0.141669 -3.6974 -3.6974
-0.13845 -3.59318 -3.59318
-0.315467 -3.64262 -3.64262
-0.229891 -3.69598 -3.69598
-0.140054 -3.64513 -3.64513
-0.225601 -3.59181 -3.59181
-0.227742 -3.64374 -3.64374
-0.318152 -3.69484 -3.69484
-0.323544 -3.80022 -3.80022
-0.144931 -3.80288 -3.80288
-0.141669 -3.6974 -3.6974
-0.320845 -3.74737 -3.74737
-0.234218 -3.80142 -3.80142
-0.143294 -3.74998 -3.74998
-0.229891 -3.69598 -3.69598
-0.23205 -3.74854 -3.74854
-0.323544 -3.80022 -3.80022
-0.328963 -3.90686 -3.90686
-0.148237 -3.90962 -3.90962
-0.144931 -3.80288 -3.80288
-0.32625 -3.85338 -3.85338
-0.238581 -3.90811 -3.90811
-0.146578 -3.85609 -3.85609
-0.234218 -3.80142 -3.80142
-0.236395 -3.8546 -3.8546
-0.328963 -3.90686 -3.90686
-0.33441 -4.01475 -4.01475
-0.151588 -4.0176 -4.0176
-0.148237 -3.90962 -3.90962
-0.331683 -3.96065 -3.96065
-0.24298 -4.01604 -4.01604
-0.149907 -3.96345 -3.96345
-0.238581 -3.90811 -3.90811
-0.240776 -3.96192 -3.96192
-0.33441 -4.01475 -4.01475
-0.339885 -4.12387 -4.12387
-0.154983 -4.12682 -4.12682
-0.151588 -4.0176 -4.0176
-0.337144 -4.06915 -4.06915
-0.247415 -4.12521 -4.12521
-0.15328 -4.07206 -4.07206
-0.24298 -4.01604 -4.01604
-0.245193 -4.07047 -4.07047
-0.339885 -4.12387 -4.12387
-0.345389 -4.23421 -4.23421
-0.158423 -4.23726 -4.23726
-0.154983 -4.12682 -4.12682
-0.342633 -4.17889 -4.17889
-0.251887 -4.23561 -4.23561
-0.156698 -4.18189 -4.18189
-0.247415 -4.12521 -4.12521
-0.249646 -4.18026 -4.18026
-0.345389 -4.23421 -4.23421
-0.350921 -4.34578 -4.34578
-0.161909 -4.34893 -4.34893
-0.158423 -4.23726 -4.23726
-0.348151 -4.28984 -4.28984
-0.256396 -4.34722 -4.34722
-0.16016 -4.29294 -4.29294
-0.251887 -4.23561 -4.23561
-0.254137 -4.29127 -4.29127
-0.350921 -4.34578 -4.34578
-0.356482 -4.45855 -4.45855
-0.165439 -4.4618 -4.4618
-0.161909 -4.34893 -4.34893
-0.353698 -4.40201 -4.40201
-0.260941 -4.46005 -4.46005
-0.163668 -4.40521 -4.40521
-0.256396 -4.34722 -4.34722
-0.258664 -4.40348 -4.40348
-0.356482 -4.45855 -4.45855
-0.362072 -4.57252 -4.57252
-0.169014 -4.57586 -4.57586
-0.165439 -4.4618 -4.4618
-0.359273 -4.51539 -4.51539
-0.265524 -4.57406 -4.57406
-0.167221 -4.51868 -4.51868
-0.260941 -4.46005 -4.46005
-0.263228 -4.51691 -4.51691
-0.362072 -4.57252 -4.57252
-0.36769 -4.68768 -4.68768
-0.172635 -4.69112 -4.69112
-0.169014 -4.57586 -4.57586
-0.364877 -4.62995 -4.62995
-0.270144 -4.68927 -4.68927
-0.170819 -4.63334 -4.63334
-0.265524 -4.57406 -4.57406
-0.267829 -4.63152 -4.63152
-0.36769 -4.68768 -4.68768
-0.373339 -4.80401 -4.80401
-0.176302 -4.80755 -4.80755
-0.172635 -4.69112 -4.69112
-0.370511 -4.7457 -4.7457
-0.274801 -4.80566 -4.80566
-0.174463 -4.74919 -4.74919
-0.270144 -4.68927 -4.68927
-0.272468 -4.74732 -4.74732
-0.373339 -4.80401 -4.80401
-0.379016 -4.92151 -4.92151
-0.180014 -4.92515 -4.92515
-0.176302 -4.80755 -4.80755
-0.376173 -4.86262 -4.86262
-0.279496 -4.92321 -4.92321
-0.178152 -4.86621 -4.86621
-0.274801 -4.80566 -4.80566
-0.277144 -4.86429 -4.86429
-0.379016 -4.92151 -4.92151
-0.384722 -5.04017 -5.04017
-0.183772 -5.04392 -5.04392
-0.180014 -4.92515 -4.92515
-0.381865 -4.9807 -4.9807
-0.284228 -5.04192 -5.04192
-0.181887 -4.98439 -4.98439
-0.279496 -4.92321 -4.92321
-0.281857 -4.98242 -4.98242
-0.384722 -5.04017 -5.04017
-0.390458 -5.15998 -5.15998
-0.187575 -5.16383 -5.16383
-0.183772 -5.04392 -5.04392
-0.387587 -5.09994 -5.09994
-0.288998 -5.16178 -5.16178
-0.185668 -5.10373 -5.10373
-0.284228 -5.04192 -5.04192
-0.286608 -5.10171 -5.10171
-0.390458 -5.15998 -5.15998
-0.396224 -5.28093 -5.28093
-0.191425 -5.28487 -5.28487
-0.187575 -5.16383 -5.16383
-0.393337 -5.22032 -5.22032
-0.293805 -5.28278 -5.28278
-0.189494 -5.22421 -5.22421
-0.288998 -5.16178 -5.16178
-0.291397 -5.22214 -5.22214
-0.396224 -5.28093 -5.28093
-0.402019 -5.40301 -5.40301
-0.19532 -5.40705 -5.40705
-0.191425 -5.28487 -5.28487
-0.399117 -5.34183 -5.34183
-0.29865 -5.40491 -5.40491
-0.193367 -5.34582 -5.34582
-0.293805 -5.28278 -5.28278
-0.296223 -5.34371 -5.34371
-0.402019 -5.40301 -5.40301
-0.407843 -5.52621 -5.52621
-0.199261 -5.53035 -5.53035
-0.19532 -5.40705 -5.40705
-0.404927 -5.46448 -5.46448
-0.303533 -5.52817 -5.52817
-0.197285 -5.46856 -5.46856
-0.29865 -5.40491 -5.40491
-0.301087 -5.4664 -5.4664
-0.407843 -5.52621 -5.52621
-0.413697 -5.65052 -5.65052
-0.203248 -5.65476 -5.65476
-0.199261 -5.53035 -5.53035
-0.410766 -5.58823 -5.58823
-0.308453 -5.65253 -5.65253
-0.201249 -5.59242 -5.59242
-0.303533 -5.52817 -5.52817
-0.305988 -5.59021 -5.59021
-0.413697 -5.65052 -5.65052
-0.419581 -5.77594 -5.77594
-0.207281 -5.78027 -5.78027
-0.203248 -5.65476 -5.65476
-0.416635 -5.71309 -5.71309
-0.313412 -5.77799 -5.77799
-0.205259 -5.71738 -5.71738
-0.308453 -5.65253 -5.65253
-0.310928 -5.71512 -5.71512
-0.419581 -5.77594 -5.77594
-0.425494 -5.90244 -5.90244
-0.21136 -5.90687 -5.90687
-0.207281 -5.78027 -5.78027
-0.422534 -5.83905 -5.83905
-0.318408 -5.90454 -5.90454
-0.209315 -5.84344 -5.84344
-0.313412 -5.77799 -5.77799
-0.315905 -5.84113 -5.84113
-0.425494 -5.90244 -5.90244
-0.431437 -6.03002 -6.03002
-0.215485 -6.03456 -6.03456
-0.21136 -5.90687 -5.90687
-0.428462 -5.96609 -5.96609
-0.323442 -6.03218 -6.03218
-0.213417 -5.97058 -5.97058
-0.318408 -5.90454 -5.90454
-0.32092 -5.96822 -5.96822
-0.431437 -6.03002 -6.03002
-0.437409 -6.15868 -6.15868
-0.219656 -6.16331 -6.16331
-0.215485 -6.03456 -6.03456
-0.434419 -6.09422 -6.09422
-0.328513 -6.16088 -6.16088
-0.217565 -6.0988 -6.0988
-0.323442 -6.03218 -6.03218
-0.325973 -6.09639 -6.09639
-0.437409 -6.15868 -6.15868
-0.443411 -6.28839 -6.28839
-0.223873 -6.29313 -6.29313
-0.219656 -6.16331 -6.16331
-0.440406 -6.2234 -6.2234
-0.333622 -6.29065 -6.29065
-0.221759 -6.22809 -6.22809
-0.328513 -6.16088 -6.16088
-0.331063 -6.22563 -6.22563
-0.443411 -6.28839 -6.28839
-0.449442 -6.41916 -6.41916
-0.228135 -6.424 -6.424
-0.223873 -6.29313 -6.29313
-0.446423 -6.35365 -6.35365
-0.338769 -6.42147 -6.42147
-0.225998 -6.35843 -6.35843
-0.333622 -6.29065 -6.29065
-0.336191 -6.35593 -6.35593
-0.449442 -6.41916 -6.41916
-0.455502 -6.55098 -6.55098
-0.232443 -6.55591 -6.55591
-0.228135 -6.424 -6.424
-0.452469 -6.48494 -6.48494
-0.343954 -6.55333 -6.55333
-0.230284 -6.48982 -6.48982
-0.338769 -6.42147 -6.42147
-0.341357 -6.48727 -6.48727
-0.455502 -6.55098 -6.55098
-0.461592 -6.68382 -6.68382
-0.236797 -6.68885 -6.68885
-0.232443 -6.55591 -6.55591
-0.458544 -6.61727 -6.61727
-0.349176 -6.68623 -6.68623
-0.234615 -6.62225 -6.62225
-0.343954 -6.55333 -6.55333
-0.34656 -6.61965 -6.61965
-0.461592 -6.68382 -6.68382
-0.467711 -6.81769 -6.81769
-0.241197 -6.82282 -6.82282
-0.236797 -6.68885 -6.68885
-0.464648 -6.75063 -6.75063
-0.354435 -6.82015 -6.82015
-0.238991 -6.75571 -6.75571
-0.349176 -6.68623 -6.68623
-0.351801 -6.75306 -6.75306
-0.467711 -6.81769 -6.81769
-0.47386 -6.95257 -6.95257
-0.245642 -6.9578 -6.9578
-0.241197 -6.82282 -6.82282
-0.470782 -6.88501 -6.88501
-0.359732 -6.95508 -6.95508
-0.243414 -6.89019 -6.89019
-0.354435 -6.82015 -6.82015
-0.357079 -6.88749 -6.88749
-0.47386 -6.95257 -6.95257
-0.480037 -7.08846 -7.08846
-0.250132 -7.09379 -7.09379
-0.245642 -6.9578 -6.9578
-0.476945 -7.02039 -7.02039
-0.365065 -7.09102 -7.09102
-0.247881 -7.02567 -7.02567
-0.359732 -6.95508 -6.95508
-0.362394 -7.02293 -7.02293
-0.480037 -7.08846 -7.08846
-0.486243 -7.22534 -7.22534
-0.254668 -7.23077 -7.23077
-0.250132 -7.09379 -7.09379
-0.483136 -7.15678 -7.15678
-0.370436 -7.22795 -7.22795
-0.252394 -7.16216 -7.16216
-0.365065 -7.09102 -7.09102
-0.367746 -7.15936 -7.15936
-0.486243 -7.22534 -7.22534
-0.492478 -7.36321 -7.36321
-0.259248 -7.36874 -7.36874
-0.254668 -7.23077 -7.23077
-0.489357 -7.29416 -7.29416
-0.375844 -7.36587 -7.36587
-0.256953 -7.29963 -7.29963
-0.370436 -7.22795 -7.22795
-0.373136 -7.29679 -7.29679
-0.492478 -7.36321 -7.36321
-0.498741 -7.50205 -7.50205
-0.263874 -7.50768 -7.50768
-0.259248 -7.36874 -7.36874
-0.495606 -7.43251 -7.43251
-0.381289 -7.50476 -7.50476
-0.261556 -7.43808 -7.43808
-0.375844 -7.36587 -7.36587
-0.378562 -7.43519 -7.43519
-0.498741 -7.50205 -7.50205
-0.505033 -7.64186 -7.64186
-0.268545 -7.64758 -7.64758
-0.263874 -7.50768 -7.50768
-0.501884 -7.57184 -7.57184
-0.38677 -7.64462 -7.64462
-0.266204 -7.57751 -7.57751
-0.381289 -7.50476 -7.50476
-0.384025 -7.57457 -7.57457
-0.505033 -7.64186 -7.64186
-0.511354 -7.78262 -7.78262
-0.27326 -7.78844 -7.78844
-0.268545 -7.64758 -7.64758
-0.50819 -7.71212 -7.71212
-0.392288 -7.78543 -7.78543
-0.270897 -7.71789 -7.71789
-0.38677 -7.64462 -7.64462
-0.389524 -7.71491 -7.71491
-0.511354 -7.78262 -7.78262
-0.517702 -7.92433 -7.92433
-0.278019 -7.93025 -7.93025
-0.27326 -7.78844 -7.78844
-0.514524 -7.85336 -7.85336
-0.397842 -7.92719 -7.92719
-0.275634 -7.85923 -7.85923
-0.392288 -7.78543 -7.78543
-0.39506 -7.85619 -7.85619
-0.517702 -7.92433 -7.92433
-0.524078 -8.06698 -8.06698
-0.282823 -8.07299 -8.07299
-0.278019 -7.93025 -7.93025
-0.520887 -7.99554 -7.99554
-0.403432 -8.06989 -8.06989
-0.280416 -8.0015 -8.0015
-0.397842 -7.92719 -7.92719
-0.400632 -7.99842 -7.99842
-0.524078 -8.06698 -8.06698
-0.530482 -8.21055 -8.21055
-0.287671 -8.21666 -8.21666
-0.282823 -8.07299 -8.07299
-0.527277 -8.13865 -8.13865
-0.409058 -8.21351 -8.21351
-0.285242 -8.14471 -8.14471
-0.403432 -8.06989 -8.06989
-0.40624 -8.14158 -8.14158
-0.530482 -8.21055 -8.21055
-0.536914 -8.35505 -8.35505
-0.292563 -8.36125 -8.36125
-0.287671 -8.21666 -8.21666
-0.533695 -8.28269 -8.28269
-0.414719 -8.35805 -8.35805
-0.290112 -8.28884 -8.28884
-0.409058 -8.21351 -8.21351
-0.411884 -8.28567 -8.28567
-0.536914 -8.35505 -8.35505
-0.543373 -8.50044 -8.50044
-0.297498 -8.50674 -8.50674
-0.292563 -8.36125 -8.36125
-0.54014 -8.42763 -8.42763
-0.420417 -8.5035 -8.5035
-0.295025 -8.43388 -8.43388
-0.414719 -8.35805 -8.35805
-0.417564 -8.43066 -8.43066
-0.543373 -8.50044 -8.50044
-0.549858 -8.64674 -8.64674
-0.302477 -8.65313 -8.65313
-0.297498 -8.50674 -8.50674
-0.546612 -8.57348 -8.57348
-0.426149 -8.64984 -8.64984
-0.299982 -8.57983 -8.57983
-0.420417 -8.5035 -8.5035
-0.423278 -8.57656 -8.57656
-0.549858 -8.64674 -8.64674
-0.556371 -8.79393 -8.79393
-0.307499 -8.80041 -8.80041
-0.302477 -8.65313 -8.65313
-0.553111 -8.72022 -8.72022
-0.431916 -8.79708 -8.79708
-0.304983 -8.72666 -8.72666
-0.426149 -8.64984 -8.64984
-0.429028 -8.72335 -8.72335
-0.556371 -8.79393 -8.79393
-0.56291 -8.94199 -8.94199
-0.312564 -8.94857 -8.94857
-0.307499 -8.80041 -8.80041
-0.559637 -8.86785 -8.86785
-0.437718 -8.94519 -8.94519
-0.310026 -8.87438 -8.87438
-0.431916 -8.79708 -8.79708
-0.434813 -8.87102 -8.87102
-0.56291 -8.94199 -8.94199
-0.569476 -9.09092 -9.09092
-0.317672 -9.0976 -9.0976
-0.312564 -8.94857 -8.94857
-0.56619 -9.01635 -9.01635
-0.443555 -9.09417 -9.09417
-0.315113 -9.02298 -9.02298
-0.437718 -8.94519 -8.94519
-0.440632 -9.01957 -9.01957
-0.569476 -9.09092 -9.09092
-0.576068 -9.24071 -9.24071
-0.322822 -9.24748 -9.24748
-0.317672 -9.0976 -9.0976
-0.572769 -9.16571 -9.16571
-0.449426 -9.24401 -9.24401
-0.320241 -9.17243 -9.17243
-0.443555 -9.09417 -9.09417
-0.446486 -9.16898 -9.16898
-0.576068 -9.24071 -9.24071
-0.582685 -9.39136 -9.39136
-0.328014 -9.39822 -9.39822
-0.322822 -9.24748 -9.24748
-0.579373 -9.31593 -9.31593
-0.455331 -9.3947 -9.3947
-0.325413 -9.32275 -9.32275
-0.449426 -9.24401 -9.24401
-0.452374 -9.31925 -9.31925
-0.582685 -9.39136 -9.39136
-0.589328 -9.54284 -9.54284
-0.333248 -9.54979 -9.54979
-0.328014 -9.39822 -9.39822
-0.586003 -9.46699 -9.46699
-0.461269 -9.54623 -9.54623
-0.330626 -9.4739 -9.4739
-0.455331 -9.3947 -9.3947
-0.458296 -9.47036 -9.47036
-0.589328 -9.54284 -9.54284
-0.595996 -9.69515 -9.69515
-0.338523 -9.7022 -9.7022
-0.333248 -9.54979 -9.54979
-0.592659 -9.61889 -9.61889
-0.467241 -9.69859 -9.69859
-0.33588 -9.62589 -9.62589
-0.461269 -9.54623 -9.54623
-0.464251 -9.6223 -9.6223
-0.595996 -9.69515 -9.69515
-0.602689 -9.84829 -9.84829
-0.34384 -9.85542 -9.85542
-0.338523 -9.7022 -9.7022
-0.599339 -9.77162 -9.77162
-0.473246 -9.85177 -9.85177
-0.341176 -9.77871 -9.77871
-0.467241 -9.69859 -9.69859
-0.470239 -9.77508 -9.77508
-0.602689 -9.84829 -9.84829
-0.609406 -10.0022 -10.0022
-0.349197 -10.0095 -10.0095
-0.34384 -9.85542 -9.85542
-0.606044 -9.92516 -9.92516
-0.479283 -10.0058 -10.0058
-0.346513 -9.93234 -9.93234
-0.473246 -9.85177 -9.85177
-0.47626 -9.92866 -9.92866
-0.609406 -10.0022 -10.0022
-0.616148 -10.157 -10.157
-0.354595 -10.1643 -10.1643
-0.349197 -10.0095 -10.0095
-0.612774 -10.0795 -10.0795
-0.485353 -10.1606 -10.1606
-0.351891 -10.0868 -10.0868
-0.479283 -10.0058 -10.0058
-0.482314 -10.0831 -10.0831
-0.616148 -10.157 -10.157
-0.622913 -10.3125 -10.3125
-0.360033 -10.3199 -10.3199
-0.354595 -10.1643 -10.1643
-0.619528 -10.2346 -10.2346
-0.491455 -10.3161 -10.3161
-0.357309 -10.242 -10.242
-0.485353 -10.1606 -10.1606
-0.4884 -10.2382 -10.2382
-0.622913 -10.3125 -10.3125
-0.629703 -10.4688 -10.4688
-0.365512 -10.4763 -10.4763
-0.360033 -10.3199 -10.3199
-0.626305 -10.3906 -10.3906
-0.497589 -10.4725 -10.4725
-0.362768 -10.398 -10.398
-0.491455 -10.3161 -10.3161
-0.494518 -10.3942 -10.3942
-0.629703 -10.4688 -10.4688
-0.636515 -10.6259 -10.6259
-0.371029 -10.6335 -10.6335
-0.365512 -10.4763 -10.4763
-0.633106 -10.5473 -10.5473
-0.503754 -10.6296 -10.6296
-0.368265 -10.5548 -10.5548
-0.497589 -10.4725 -10.4725
-0.500667 -10.551 -10.551
-0.636515 -10.6259 -10.6259
-0.64335 -10.7838 -10.7838
-0.376586 -10.7915 -10.7915
-0.371029 -10.6335 -10.6335
-0.63993 -10.7048 -10.7048
-0.509949 -10.7875 -10.7875
-0.373803 -10.7124 -10.7124
-0.503754 -10.6296 -10.6296
-0.506848 -10.7085 -10.7085
-0.64335 -10.7838 -10.7838
-0.650207 -10.9424 -10.9424
-0.382181 -10.9502 -10.9502
-0.376586 -10.7915 -10.7915
-0.646776 -10.863 -10.863
-0.516176 -10.9462 -10.9462
-0.379379 -10.8707 -10.8707
-0.509949 -10.7875 -10.7875
-0.513059 -10.8668 -10.8668
-0.650207 -10.9424 -10.9424
-0.657087 -11.1017 -11.1017
-0.387815 -11.1096 -11.1096
-0.382181 -10.9502 -10.9502
-0.653644 -11.022 -11.022
-0.522433 -11.1056 -11.1056
-0.384994 -11.0298 -11.0298
-0.516176 -10.9462 -10.9462
-0.519301 -11.0258 -11.0258
-0.657087 -11.1017 -11.1017
-0.663988 -11.2618 -11.2618
-0.393487 -11.2698 -11.2698
-0.387815 -11.1096 -11.1096
-0.660535 -11.1817 -11.1817
-0.528719 -11.2657 -11.2657
-0.390647 -11.1896 -11.1896
-0.522433 -11.1056 -11.1056
-0.525572 -11.1856 -11.1856
-0.663988 -11.2618 -11.2618
-0.670911 -11.4226 -11.4226
-0.399197 -11.4307 -11.4307
-0.393487 -11.2698 -11.2698
-0.667447 -11.3422 -11.3422
-0.535036 -11.4266 -11.4266
-0.396337 -11.3501 -11.3501
-0.528719 -11.2657 -11.2657
-0.531874 -11.3461 -11.3461
-0.670911 -11.4226 -11.4226
-0.677854 -11.5842 -11.5842
-0.404944 -11.5923 -11.5923
-0.399197 -11.4307 -11.4307
-0.67438 -11.5033 -11.5033
-0.541381 -11.5881 -11.5881
-0.402066 -11.5114 -11.5114
-0.535036 -11.4266 -11.4266
-0.538204 -11.5073 -11.5073
-0.677854 -11.5842 -11.5842
-0.684818 -11.7464 -11.7464
-0.410727 -11.7546 -11.7546
-0.404944 -11.5923 -11.5923
-0.681334 -11.6652 -11.6652
-0.547754 -11.7504 -11.7504
-0.407831 -11.6733 -11.6733
-0.541381 -11.5881 -11.5881
-0.544564 -11.6692 -11.6692
-0.684818 -11.7464 -11.7464
-0.691802 -11.9093 -11.9093
-0.416547 -11.9176 -11.9176
-0.410727 -11.7546 -11.7546
-0.688307 -11.8278 -11.8278
-0.554156 -11.9134 -11.9134
-0.413632 -11.836 -11.836
-0.547754 -11.7504 -11.7504
-0.550952 -11.8318 -11.8318
-0.691802 -11.9093 -11.9093
-0.698805 -12.0729 -12.0729
-0.422403 -12.0813 -12.0813
-0.416547 -11.9176 -11.9176
-0.695301 -11.9911 -11.9911
-0.560586 -12.077 -12.077
-0.41947 -11.9994 -11.9994
-0.554156 -11.9134 -11.9134
-0.557368 -11.9951 -11.9951
-0.698805 -12.0729 -12.0729
-0.705828 -12.2372 -12.2372
-0.428294 -12.2457 -12.2457
-0.422403 -12.0813 -12.0813
-0.702314 -12.155 -12.155
-0.567043 -12.2414 -12.2414
-0.425344 -12.1634 -12.1634
-0.560586 -12.077 -12.077
-0.563811 -12.1591 -12.1591
-0.705828 -12.2372 -12.2372
-0.712869 -12.4022 -12.4022
-0.43422 -12.4107 -12.4107
-0.428294 -12.2457 -12.2457
-0.709346 -12.3196 -12.3196
-0.573527 -12.4064 -12.4064
-0.431253 -12.3281 -12.3281
-0.567043 -12.2414 -12.2414
-0.570282 -12.3238 -12.3238
-0.712869 -12.4022 -12.4022
-0.719929 -12.5678 -12.5678
-0.440181 -12.5764 -12.5764
-0.43422 -12.4107 -12.4107
-0.716397 -12.4849 -12.4849
-0.580037 -12.572 -12.572
-0.437196 -12.4935 -12.4935
-0.573527 -12.4064 -12.4064
-0.576779 -12.4891 -12.4891
-0.719929 -12.5678 -12.5678
-0.727006 -12.7341 -12.7341
-0.446176 -12.7427 -12.7427
-0.440181 -12.5764 -12.5764
-0.723466 -12.6509 -12.6509
-0.586573 -12.7383 -12.7383
-0.443174 -12.6595 -12.6595
-0.580037 -12.572 -12.572
-0.583302 -12.6551 -12.6551
-0.727006 -12.7341 -12.7341
-0.734101 -12.901 -12.901
-0.452205 -12.9097 -12.9097
-0.446176 -12.7427 -12.7427
-0.730552 -12.8174 -12.8174
-0.593135 -12.9053 -12.9053
-0.449186 -12.8261 -12.8261
-0.586573 -12.7383 -12.7383
-0.589851 -12.8217 -12.8217
-0.734101 -12.901 -12.901
-0.741213 -13.0685 -13.0685
-0.458266 -13.0773 -13.0773
-0.452205 -12.9097 -12.9097
-0.737655 -12.9846 -12.9846
-0.599722 -13.0728 -13.0728
-0.455231 -12.9934 -12.9934
-0.593135 -12.9053 -12.9053
-0.596425 -12.989 -12.989
-0.741213 -13.0685 -13.0685
-0.748341 -13.2366 -13.2366
-0.464361 -13.2455 -13.2455
-0.458266 -13.0773 -13.0773
-0.744775 -13.1525 -13.1525
-0.606333 -13.241 -13.241
-0.46131 -13.1613 -13.1613
-0.599722 -13.0728 -13.0728
-0.603024 -13.1568 -13.1568
-0.748341 -13.2366 -13.2366
-0.755485 -13.4054 -13.4054
-0.470488 -13.4144 -13.4144
-0.464361 -13.2455 -13.2455
-0.751911 -13.3209 -13.3209
-0.612968 -13.4098 -13.4098
-0.46742 -13.3299 -13.3299
-0.606333 -13.241 -13.241
-0.609648 -13.3253 -13.3253
-0.755485 -13.4054 -13.4054
-0.762644 -13.5747 -13.5747
-0.476646 -13.5838 -13.5838
-0.470488 -13.4144 -13.4144
-0.759062 -13.49 -13.49
-0.619627 -13.5792 -13.5792
-0.473563 -13.499 -13.499
-0.612968 -13.4098 -13.4098
-0.616295 -13.4944 -13.4944
-0.762644 -13.5747 -13.5747
-0.769818 -13.7447 -13.7447
-0.482835 -13.7538 -13.7538
-0.476646 -13.5838 -13.5838
-0.766229 -13.6596 -13.6596
-0.626309 -13.7492 -13.7492
-0.479737 -13.6687 -13.6687
-0.619627 -13.5792 -13.5792
-0.622965 -13.6641 -13.6641
-0.769818 -13.7447 -13.7447
-0.777007 -13.9152 -13.9152
-0.489056 -13.9244 -13.9244
-0.482835 -13.7538 -13.7538
-0.773411 -13.8299 -13.8299
-0.633014 -13.9197 -13.9197
-0.485942 -13.839 -13.839
-0.626309 -13.7492 -13.7492
-0.629659 -13.8344 -13.8344
-0.777007 -13.9152 -13.9152
-0.784209 -14.0863 -14.0863
-0.495306 -14.0956 -14.0956
-0.489056 -13.9244 -13.9244
-0.780606 -14.0007 -14.0007
-0.63974 -14.0909 -14.0909
-0.492177 -14.0099 -14.0099
-0.633014 -13.9197 -13.9197
-0.636374 -14.0052 -14.0052
-0.784209 -14.0863 -14.0863
-0.791425 -14.2579 -14.2579
-0.501586 -14.2673 -14.2673
-0.495306 -14.0956 -14.0956
-0.787815 -14.172 -14.172
-0.646488 -14.2626 -14.2626
-0.498443 -14.1814 -14.1814
-0.63974 -14.0909 -14.0909
-0.643111 -14.1766 -14.1766
-0.791425 -14.2579 -14.2579
-0.798653 -14.4301 -14.4301
-0.507895 -14.4396 -14.4396
-0.501586 -14.2673 -14.2673
-0.795037 -14.344 -14.344
-0.653257 -14.4348 -14.4348
-0.504737 -14.3534 -14.3534
-0.646488 -14.2626 -14.2626
-0.64987 -14.3486 -14.3486
-0.798653 -14.4301 -14.4301
-0.805894 -14.6029 -14.6029
-0.514233 -14.6124 -14.6124
-0.507895 -14.4396 -14.4396
-0.802272 -14.5164 -14.5164
-0.660046 -14.6076 -14.6076
-0.511061 -14.5259 -14.5259
-0.653257 -14.4348 -14.4348
-0.656649 -14.5211 -14.5211
-0.805894 -14.6029 -14.6029
-0.813147 -14.7762 -14.7762
-0.520599 -14.7857 -14.7857
-0.514233 -14.6124 -14.6124
-0.809519 -14.6895 -14.6895
-0.666856 -14.7809 -14.7809
-0.517413 -14.699 -14.699
-0.660046 -14.6076 -14.6076
-0.663448 -14.6942 -14.6942
-0.813147 -14.7762 -14.7762
-0.82041 -14.95 -14.95
-0.526992 -14.9596 -14.9596
-0.520599 -14.7857 -14.7857
-0.816777 -14.863 -14.863
-0.673684 -14.9547 -14.9547
-0.523792 -14.8726 -14.8726
-0.666856 -14.7809 -14.7809
-0.670267 -14.8677 -14.8677
-0.82041 -14.95 -14.95
-0.827685 -15.1243 -15.1243
-0.533412 -15.134 -15.134
-0.526992 -14.9596 -14.9596
-0.824046 -15.0371 -15.0371
-0.680531 -15.1291 -15.1291
-0.530199 -15.0467 -15.0467
-0.673684 -14.9547 -14.9547
-0.677105 -15.0418 -15.0418
-0.827685 -15.1243 -15.1243
-0.834969 -15.2991 -15.2991
-0.539859 -15.3088 -15.3088
-0.533412 -15.134 -15.134
-0.831326 -15.2116 -15.2116
-0.687397 -15.3039 -15.3039
-0.536632 -15.2213 -15.2213
-0.680531 -15.1291 -15.1291
-0.683962 -15.2164 -15.2164
-0.834969 -15.2991 -15.2991
-0.842263 -15.4744 -15.4744
-0.546331 -15.4842 -15.4842
-0.539859 -15.3088 -15.3088
-0.838615 -15.3867 -15.3867
-0.69428 -15.4792 -15.4792
-0.543092 -15.3965 -15.3965
-0.687397 -15.3039 -15.3039
-0.690836 -15.3915 -15.3915
-0.842263 -15.4744 -15.4744
-0.849566 -15.6502 -15.6502
-0.552829 -15.6601 -15.6601
-0.546331 -15.4842 -15.4842
-0.845913 -15.5622 -15.5622
-0.70118 -15.6551 -15.6551
-0.549577 -15.5721 -15.5721
-0.69428 -15.4792 -15.4792
-0.697728 -15.5671 -15.5671
-0.849566 -15.6502 -15.6502
-0.856877 -15.8264 -15.8264
-0.559351 -15.8364 -15.8364
-0.552829 -15.6601 -15.6601
-0.85322 -15.7383 -15.7383
-0.708097 -15.8314 -15.8314
-0.556087 -15.7482 -15.7482
-0.70118 -15.6551 -15.6551
-0.704637 -15.7432 -15.7432
-0.856877 -15.8264 -15.8264
-0.864196 -16.0032 -16.0032
-0.565897 -16.0132 -16.0132
-0.559351 -15.8364 -15.8364
-0.860535 -15.9147 -15.9147
-0.71503 -16.0081 -16.0081
-0.562621 -15.9247 -15.9247
-0.708097 -15.8314 -15.8314
-0.711561 -15.9197 -15.9197
-0.864196 -16.0032 -16.0032
-0.871522 -16.1803 -16.1803
-0.572467 -16.1904 -16.1904
-0.565897 -16.0132 -16.0132
-0.867858 -16.0917 -16.0917
-0.721978 -16.1853 -16.1853
-0.569179 -16.1017 -16.1017
-0.71503 -16.0081 -16.0081
-0.718502 -16.0967 -16.0967
-0.871522 -16.1803 -16.1803
-0.878855 -16.358 -16.358
-0.579059 -16.3681 -16.3681
-0.572467 -16.1904 -16.1904
-0.875187 -16.2691 -16.2691
-0.72894 -16.363 -16.363
-0.57576 -16.2792 -16.2792
-0.721978 -16.1853 -16.1853
-0.725457 -16.2741 -16.2741
-0.878855 -16.358 -16.358
-0.886193 -16.536 -16.536
-0.585674 -16.5462 -16.5462
-0.579059 -16.3681 -16.3681
-0.882523 -16.447 -16.447
-0.735917 -16.5411 -16.5411
-0.582364 -16.4571 -16.4571
-0.72894 -16.363 -16.363
-0.732427 -16.452 -16.452
-0.886193 -16.536 -16.536
-0.893537 -16.7145 -16.7145
-0.592311 -16.7248 -16.7248
-0.585674 -16.5462 -16.5462
-0.889865 -16.6252 -16.6252
-0.742908 -16.7196 -16.7196
-0.58899 -16.6354 -16.6354
-0.735917 -16.5411 -16.5411
-0.739411 -16.6303 -16.6303
-0.893537 -16.7145 -16.7145
-0.900886 -16.8934 -16.8934
-0.598968 -16.9037 -16.9037
-0.592311 -16.7248 -16.7248
-0.897211 -16.8039 -16.8039
-0.749911 -16.8985 -16.8985
-0.595637 -16.8142 -16.8142
-0.742908 -16.7196 -16.7196
-0.746408 -16.809 -16.809
-0.900886 -16.8934 -16.8934
-0.908239 -17.0727 -17.0727
-0.605647 -17.0831 -17.0831
-0.598968 -16.9037 -16.9037
-0.904562 -16.983 -16.983
-0.756926 -17.0779 -17.0779
-0.602305 -16.9934 -16.9934
-0.749911 -16.8985 -16.8985
-0.753417 -16.9882 -16.9882
-0.908239 -17.0727 -17.0727
-0.915596 -17.2524 -17.2524
-0.612344 -17.2629 -17.2629
-0.605647 -17.0831 -17.0831
-0.911917 -17.1625 -17.1625
-0.763954 -17.2576 -17.2576
-0.608993 -17.1729 -17.1729
-0.756926 -17.0779 -17.0779
-0.760439 -17.1677 -17.1677
-0.915596 -17.2524 -17.2524
-0.922955 -17.4325 -17.4325
-0.619062 -17.443 -17.443
-0.612344 -17.2629 -17.2629
-0.919275 -17.3424 -17.3424
-0.770992 -17.4377 -17.4377
-0.615701 -17.3529 -17.3529
-0.763954 -17.2576 -17.2576
-0.767472 -17.3476 -17.3476
-0.922955 -17.4325 -17.4325
-0.930317 -17.613 -17.613
-0.625797 -17.6235 -17.6235
-0.619062 -17.443 -17.443
-0.926636 -17.5227 -17.5227
-0.778041 -17.6182 -17.6182
-0.622427 -17.5332 -17.5332
-0.770992 -17.4377 -17.4377
-0.774515 -17.5279 -17.5279
-0.930317 -17.613 -17.613
-0.93768 -17.7939 -17.7939
-0.632551 -17.8044 -17.8044
-0.625797 -17.6235 -17.6235
-0.933998 -17.7034 -17.7034
-0.785099 -17.7991 -17.7991
-0.629172 -17.7139 -17.7139
-0.778041 -17.6182 -17.6182
-0.781569 -17.7086 -17.7086
-0.93768 -17.7939 -17.7939
-0.945045 -17.9751 -17.9751
-0.639322 -17.9857 -17.9857
-0.632551 -17.8044 -17.8044
-0.941362 -17.8844 -17.8844
-0.792167 -17.9803 -17.9803
-0.635934 -17.895 -17.895
-0.785099 -17.7991 -17.7991
-0.788632 -17.8897 -17.8897
-0.945045 -17.9751 -17.9751
-0.95241 -18.1566 -18.1566
-0.64611 -18.1673 -18.1673
-0.639322 -17.9857 -17.9857
-0.948727 -18.0658 -18.0658
-0.799244 -18.1619 -18.1619
-0.642714 -18.0764 -18.0764
-0.792167 -17.9803 -17.9803
-0.795704 -18.0711 -18.0711
-0.95241 -18.1566 -18.1566
-0.959774 -18.3385 -18.3385
-0.652913 -18.3492 -18.3492
-0.64611 -18.1673 -18.1673
-0.956092 -18.2475 -18.2475
-0.806328 -18.3438 -18.3438
-0.649509 -18.2582 -18.2582
-0.799244 -18.1619 -18.1619
-0.802785 -18.2528 -18.2528
-0.959774 -18.3385 -18.3385
-0.967138 -18.5207 -18.5207
-0.659732 -18.5315 -18.5315
-0.652913 -18.3492 -18.3492
-0.963456 -18.4295 -18.4295
-0.813419 -18.526 -18.526
-0.656321 -18.4403 -18.4403
-0.806328 -18.3438 -18.3438
-0.809873 -18.4349 -18.4349
-0.967138 -18.5207 -18.5207
-0.9745 -18.7032 -18.7032
-0.666566 -18.714 -18.714
-0.659732 -18.5315 -18.5315
-0.970819 -18.6119 -18.6119
-0.820517 -18.7086 -18.7086
-0.663147 -18.6227 -18.6227
-0.813419 -18.526 -18.526
-0.816967 -18.6173 -18.6173
-0.9745 -18.7032 -18.7032
-0.98186 -18.8861 -18.8861
-0.673414 -18.8969 -18.8969
-0.666566 -18.714 -18.714
-0.97818 -18.7946 -18.7946
-0.827621 -18.8915 -18.8915
-0.669988 -18.8055 -18.8055
-0.820517 -18.7086 -18.7086
-0.824069 -18.8 -18.8
-0.98186 -18.8861 -18.8861
-0.989217 -19.0692 -19.0692
-0.680275 -19.0801 -19.0801
-0.673414 -18.8969 -18.8969
-0.985539 -18.9776 -18.9776
-0.834731 -19.0746 -19.0746
-0.676843 -18.9885 -18.9885
-0.827621 -18.8915 -18.8915
-0.831175 -18.983 -18.983
-0.989217 -19.0692 -19.0692
-0.996571 -19.2527 -19.2527
-0.687149 -19.2636 -19.2636
-0.680275 -19.0801 -19.0801
-0.992894 -19.1609 -19.1609
-0.841844 -19.2581 -19.2581
-0.683711 -19.1718 -19.1718
-0.834731 -19.0746 -19.0746
-0.838287 -19.1663 -19.1663
-0.996571 -19.2527 -19.2527
-1.00392 -19.4364 -19.4364
-0.694036 -19.4474 -19.4474
-0.687149 -19.2636 -19.2636
-1.00025 -19.3445 -19.3445
-0.848962 -19.4418 -19.4418
-0.690591 -19.3554 -19.3554
-0.841844 -19.2581 -19.2581
-0.845403 -19.3499 -19.3499
-1.00392 -19.4364 -19.4364
-1.01126 -19.6204 -19.6204
-0.700933 -19.6314 -19.6314
-0.694036 -19.4474 -19.4474
-1.00759 -19.5283 -19.5283
-0.856083 -19.6258 -19.6258
-0.697483 -19.5393 -19.5393
-0.848962 -19.4418 -19.4418
-0.852522 -19.5338 -19.5338
-1.01126 -19.6204 -19.6204
-1.0186 -19.8046 -19.8046
-0.707841 -19.8157 -19.8157
-0.700933 -19.6314 -19.6314
-1.01493 -19.7125 -19.7125
-0.863207 -19.8101 -19.8101
-0.704386 -19.7235 -19.7235
-0.856083 -19.6258 -19.6258
-0.859645 -19.718 -19.718
-1.0186 -19.8046 -19.8046
-1.02594 -19.9891 -19.9891
-0.71476 -20.0002 -20.0002
-0.707841 -19.8157 -19.8157
-1.02227 -19.8968 -19.8968
-0.870333 -19.9946 -19.9946
-0.711299 -19.9079 -19.9079
-0.863207 -19.8101 -19.8101
-0.86677 -19.9023 -19.9023
-1.02594 -19.9891 -19.9891
-1.03326 -20.1739 -20.1739
-0.721688 -20.185 -20.185
-0.71476 -20.0002 -20.0002
-1.0296 -20.0815 -20.0815
-0.87746 -20.1794 -20.1794
-0.718223 -20.0926 -20.0926
-0.870333 -19.9946 -19.9946
-0.873896 -20.087 -20.087
-1.03326 -20.1739 -20.1739
-1.04058 -20.3588 -20.3588
-0.728624 -20.37 -20.37
-0.721688 -20.185 -20.185
-1.03692 -20.2663 -20.2663
-0.884587 -20.3644 -20.3644
-0.725155 -20.2775 -20.2775
-0.87746 -20.1794 -20.1794
-0.881024 -20.2719 -20.2719
-1.04058 -20.3588 -20.3588
-1.04789 -20.544 -20.544
-0.735569 -20.5553 -20.5553
-0.728624 -20.37 -20.37
-1.04424 -20.4514 -20.4514
-0.891715 -20.5496 -20.5496
-0.732096 -20.4626 -20.4626
-0.884587 -20.3644 -20.3644
-0.888151 -20.457 -20.457
-1.04789 -20.544 -20.544
-1.05519 -20.7295 -20.7295
-0.742521 -20.7407 -20.7407
-0.735569 -20.5553 -20.5553
-1.05154 -20.6367 -20.6367
-0.898841 -20.7351 -20.7351
-0.739044 -20.648 -20.648
-0.891715 -20.5496 -20.5496
-0.895278 -20.6423 -20.6423
-1.05519 -20.7295 -20.7295
-1.06248 -20.9151 -20.9151
-0.74948 -20.9264 -20.9264
-0.742521 -20.7407 -20.7407
-1.05884 -20.8222 -20.8222
-0.905967 -20.9207 -20.9207
-0.745999 -20.8335 -20.8335
-0.898841 -20.7351 -20.7351
-0.902404 -20.8279 -20.8279
-1.06248 -20.9151 -20.9151
-1.06976 -21.1009 -21.1009
-0.756444 -21.1122 -21.1122
-0.74948 -20.9264 -20.9264
-1.06613 -21.008 -21.008
-0.91309 -21.1065 -21.1065
-0.752961 -21.0193 -21.0193
-0.905967 -20.9207 -20.9207
-0.909528 -21.0136 -21.0136
-1.06976 -21.1009 -21.1009
-1.07704 -21.2869 -21.2869
-0.763414 -21.2982 -21.2982
-0.756444 -21.1122 -21.1122
-1.0734 -21.1939 -21.1939
-0.92021 -21.2925 -21.2925
-0.759928 -21.2052 -21.2052
-0.91309 -21.1065 -21.1065
-0.91665 -21.1995 -21.1995
-1.07704 -21.2869 -21.2869
-1.08429 -21.4731 -21.4731
-0.770388 -21.4844 -21.4844
-0.763414 -21.2982 -21.2982
-1.08067 -21.3799 -21.3799
-0.927327 -21.4787 -21.4787
-0.766901 -21.3913 -21.3913
-0.92021 -21.2925 -21.2925
-0.923769 -21.3856 -21.3856
-1.08429 -21.4731 -21.4731
-1.09154 -21.6594 -21.6594
-0.777367 -21.6708 -21.6708
-0.770388 -21.4844 -21.4844
-1.08792 -21.5662 -21.5662
-0.934439 -21.6651 -21.6651
-0.773877 -21.5776 -21.5776
-0.927327 -21.4787 -21.4787
-0.930883 -21.5719 -21.5719
-1.09154 -21.6594 -21.6594
-1.09877 -21.8459 -21.8459
-0.784348 -21.8573 -21.8573
-0.777367 -21.6708 -21.6708
-1.09516 -21.7526 -21.7526
-0.941546 -21.8516 -21.8516
-0.780857 -21.764 -21.764
-0.934439 -21.6651 -21.6651
-0.937993 -21.7583 -21.7583
-1.09877 -21.8459 -21.8459
-1.10599 -22.0325 -22.0325
-0.791333 -22.044 -22.044
-0.784348 -21.8573 -21.8573
-1.10238 -21.9392 -21.9392
-0.948648 -22.0382 -22.0382
-0.78784 -21.9506 -21.9506
-0.941546 -21.8516 -21.8516
-0.945098 -21.9449 -21.9449
-1.10599 -22.0325 -22.0325
-1.1132 -22.2193 -22.2193
-0.798318 -22.2308 -22.2308
-0.791333 -22.044 -22.044
-1.1096 -22.1259 -22.1259
-0.955744 -22.225 -22.225
-0.794825 -22.1374 -22.1374
-0.948648 -22.0382 -22.0382
-0.952197 -22.1316 -22.1316
-1.1132 -22.2193 -22.2193
-1.12039 -22.4062 -22.4062
-0.805306 -22.4177 -22.4177
-0.798318 -22.2308 -22.2308
-1.11679 -22.3127 -22.3127
-0.962832 -22.412 -22.412
-0.801812 -22.3242 -22.3242
-0.955744 -22.225 -22.225
-0.959289 -22.3185 -22.3185
-1.12039 -22.4062 -22.4062
-1.12756 -22.5932 -22.5932
-0.812293 -22.6048 -22.6048
-0.805306 -22.4177 -22.4177
-1.12398 -22.4997 -22.4997
-0.969913 -22.599 -22.599
-0.808799 -22.5112 -22.5112
-0.962832 -22.412 -22.412
-0.966373 -22.5055 -22.5055
-1.12756 -22.5932 -22.5932
-1.13472 -22.7804 -22.7804
-0.81928 -22.7919 -22.7919
-0.812293 -22.6048 -22.6048
-1.13114 -22.6868 -22.6868
-0.976985 -22.7861 -22.7861
-0.815787 -22.6983 -22.6983
-0.969913 -22.599 -22.599
-0.97345 -22.6926 -22.6926
-1.13472 -22.7804 -22.7804
-1.14186 -22.9676 -22.9676
-0.826266 -22.9792 -22.9792
-0.81928 -22.7919 -22.7919
-1.13829 -22.874 -22.874
-0.984047 -22.9734 -22.9734
-0.822773 -22.8855 -22.8855
-0.976985 -22.7861 -22.7861
-0.980517 -22.8797 -22.8797
-1.14186 -22.9676 -22.9676
-1.14898 -23.1549 -23.1549
-0.833249 -23.1665 -23.1665
-0.826266 -22.9792 -22.9792
-1.14542 -23.0612 -23.0612
-0.991098 -23.1607 -23.1607
-0.829758 -23.0728 -23.0728
-0.984047 -22.9734 -22.9734
-0.987574 -23.067 -23.067
-1.14898 -23.1549 -23.1549
-1.15608 -23.3423 -23.3423
-0.84023 -23.3539 -23.3539
-0.833249 -23.1665 -23.1665
-1.15253 -23.2486 -23.2486
-0.998137 -23.3481 -23.3481
-0.83674 -23.2602 -23.2602
-0.991098 -23.1607 -23.1607
-0.99462 -23.2544 -23.2544
-1.15608 -23.3423 -23.3423
-1.16315 -23.5298 -23.5298
-0.847206 -23.5414 -23.5414
-0.84023 -23.3539 -23.3539
-1.15962 -23.436 -23.436
-1.00516 -23.5356 -23.5356
-0.843718 -23.4477 -23.4477
-0.998137 -23.3481 -23.3481
-1.00165 -23.4418 -23.4418
-1.16315 -23.5298 -23.5298
-1.1702 -23.7173 -23.7173
-0.854175 -23.729 -23.729
-0.847206 -23.5414 -23.5414
-1.16668 -23.6235 -23.6235
-1.01217 -23.7231 -23.7231
-0.850691 -23.6352 -23.6352
-1.00516 -23.5356 -23.5356
-1.00867 -23.6294 -23.6294
-1.1702 -23.7173 -23.7173
-1.17722 -23.9049 -23.9049
-0.861138 -23.9166 -23.9166
-0.854175 -23.729 -23.729
-1.17372 -23.8111 -23.8111
-1.01916 -23.9107 -23.9107
-0.857658 -23.8228 -23.8228
-1.01217 -23.7231 -23.7231
-1.01567 -23.8169 -23.8169
-1.17722 -23.9049 -23.9049
-1.18422 -24.0925 -24.0925
-0.868093 -24.1042 -24.1042
-0.861138 -23.9166 -23.9166
-1.18072 -23.9987 -23.9987
-1.02613 -24.0984 -24.0984
-0.864616 -24.0104 -24.0104
-1.01916 -23.9107 -23.9107
-1.02265 -24.0045 -24.0045
-1.18422 -24.0925 -24.0925
-1.19119 -24.2802 -24.2802
-0.875043 -24.2918 -24.2918
-0.868093 -24.1042 -24.1042
-1.1877 -24.1864 -24.1864
-1.03309 -24.286 -24.286
-0.871569 -24.198 -24.198
-1.02613 -24.0984 -24.0984
-1.02961 -24.1922 -24.1922
-1.19119 -24.2802 -24.2802
-1.19815 -24.4679 -24.4679
-0.881989 -24.4794 -24.4794
-0.875043 -24.2918 -24.2918
-1.19467 -24.374 -24.374
-1.04005 -24.4736 -24.4736
-0.878516 -24.3856 -24.3856
-1.03309 -24.286 -24.286
-1.03657 -24.3798 -24.3798
-1.19815 -24.4679 -24.4679
-1.20513 -24.6554 -24.6554
-0.888934 -24.6669 -24.6669
-0.881989 -24.4794 -24.4794
-1.20164 -24.5617 -24.5617
-1.04701 -24.6611 -24.6611
-0.885461 -24.5732 -24.5732
-1.04005 -24.4736 -24.4736
-1.04353 -24.5674 -24.5674
0 0 0
-0.00142373 0.000231188 0.000231188
0.00137718 0.000221679 0.000221679
0 0 0
-0.000709053 0.000459991 0.000459991
-2.33816e-05 0.000309779 0.000309779
0.000685102 0.000454653 0.000454653
0 0 0
-1.20875e-05 0.000492696 0.000492696
-0.00142373 0.000231188 0.000231188
-0.00296249 -0.00214655 -0.00214655
0.00287124 -0.00216462 -0.00216462
0.00137718 0.000221679 0.000221679
-0.00217891 -0.00065232 -0.00065232
-4.56772e-05 -0.00201832 -0.00201832
0.00211014 -0.000665985 -0.000665985
-2.33816e-05 0.000309779 0.000309779
-3.44806e-05 -0.00054355 -0.00054355
-0.00296249 -0.00214655 -0.00214655
-0.00455716 -0.00681215 -0.00681215
0.00441815 -0.00683995 -0.00683995
0.00287124 -0.00216462 -0.00216462
-0.00375532 -0.0042089 -0.0042089
-6.93075e-05 -0.00664871 -0.00664871
0.0036408 -0.00423167 -0.00423167
-4.56772e-05 -0.00201832 -0.00201832
-5.71974e-05 -0.00406165 -0.00406165
-0.00455716 -0.00681215 -0.00681215
-0.00618908 -0.0135569 -0.0135569
0.00599579 -0.013596 -0.013596
0.00441815 -0.00683995 -0.00683995
-0.00537041 -0.00993405 -0.00993405
-9.6236e-05 -0.0133801 -0.0133801
0.00520526 -0.00996726 -0.00996726
-6.93075e-05 -0.00664871 -0.00664871
-8.2263e-05 -0.00976135 -0.00976135
-0.00618908 -0.0135569 -0.0135569
-0.00782306 -0.022252 -0.022252
0.00756606 -0.0223039 -0.0223039
0.00599579 -0.013596 -0.013596
-0.0070067 -0.0176658 -0.0176658
-0.000127908 -0.0220742 -0.0220742
0.00678292 -0.0177111 -0.0177111
-9.6236e-05 -0.0133801 -0.0133801
-0.000111386 -0.0174874 -0.0174874
-0.00782306 -0.022252 -0.022252
-0.00945352 -0.0328315 -0.0328315
0.00912032 -0.0328978 -0.0328978
0.00756606 -0.0223039 -0.0223039
-0.00863906 -0.0273088 -0.0273088
-0.000165849 -0.032661 -0.032661
0.00834572 -0.0273677 -0.0273677
-0.000127908 -0.0220742 -0.0220742
-0.000146001 -0.0271339 -0.0271339
-0.00945352 -0.0328315 -0.0328315
-0.0110748 -0.045261 -0.045261
0.0106498 -0.0453431 -0.0453431
0.00912032 -0.0328978 -0.0328978
-0.0102652 -0.0388163 -0.0388163
-0.000211543 -0.0451004 -0.0451004
0.00988827 -0.0388903 -0.0388903
-0.000165849 -0.032661 -0.032661
-0.000187633 -0.0386506 -0.0386506
-0.0110748 -0.045261 -0.045261
-0.0126906 -0.0595233 -0.0595233
0.0121554 -0.0596229 -0.0596229
0.0106498 -0.0453431 -0.0453431
-0.0118831 -0.0521638 -0.0521638
-0.00026648 -0.0593741 -0.0593741
0.0114056 -0.0522545 -0.0522545
-0.000211543 -0.0451004 -0.0451004
-0.000237767 -0.0520088 -0.0520088
-0.0126906 -0.0595233 -0.0595233
-0.0143034 -0.0756073 -0.0756073
0.0136367 -0.0757261 -0.0757261
0.0121554 -0.0596229 -0.0596229
-0.0134971 -0.0673381 -0.0673381
-0.000332068 -0.0754701 -0.0754701
0.0128991 -0.0674471 -0.0674471
-0.00026648 -0.0593741 -0.0593741
-0.000297858 -0.0671949 -0.0671949
-0.0143034 -0.0756073 -0.0756073
-0.0159168 -0.0935046 -0.0935046
0.0150946 -0.0936444 -0.0936444
0.0136367 -0.0757261 -0.0757261
-0.0151098 -0.0843298 -0.0843298
-0.000409647 -0.0933798 -0.0933798
0.0143686 -0.0844589 -0.0844589
-0.000332068 -0.0754701 -0.0754701
-0.000369278 -0.0841987 -0.0841987
-0.0159168 -0.0935046 -0.0935046
-0.0175332 -0.113207 -0.113207
0.016529 -0.113369 -0.113369
0.0150946 -0.0936444 -0.0936444
-0.0167244 -0.103131 -0.103131
-0.000500488 -0.113095 -0.113095
0.0158148 -0.103282 -0.103282
-0.000409647 -0.0933798 -0.0933798
-0.000453332 -0.103012 -0.103012
-0.0175332 -0.113207 -0.113207
-0.0191548 -0.134705 -0.134705
0.0179397 -0.134893 -0.134893
0.016529 -0.113369 -0.113369
-0.0183432 -0.123732 -0.123732
-0.000605811 -0.134607 -0.134607
0.0172373 -0.123907 -0.123907
-0.000500488 -0.113095 -0.113095
-0.000551265 -0.123627 -0.123627
-0.0191548 -0.134705 -0.134705
-0.0207832 -0.157991 -0.157991
0.0193259 -0.158206 -0.158206
0.0179397 -0.134893 -0.134893
-0.019968 -0.146125 -0.146125
-0.000726799 -0.157908 -0.157908
0.0186359 -0.146326 -0.146326
-0.000605811 -0.134607 -0.134607
-0.000664275 -0.146035 -0.146035
-0.0207832 -0.157991 -0.157991
-0.02242 -0.183056 -0.183056
0.0206868 -0.183299 -0.183299
0.0193259 -0.158206 -0.158206
-0.0216005 -0.170302 -0.170302
-0.0008646 -0.182988 -0.182988
0.0200096 -0.17053 -0.17053
-0.000726799 -0.157908 -0.157908
-0.000793527 -0.170226 -0.170226
-0.02242 -0.183056 -0.183056
-0.0240665 -0.209889 -0.209889
0.0220215 -0.210163 -0.210163
0.0206868 -0.183299 -0.183299
-0.023242 -0.196252 -0.196252
-0.00102034 -0.209838 -0.209838
0.0213575 -0.19651 -0.19651
-0.0008646 -0.182988 -0.182988
-0.000940159 -0.196192 -0.196192
-0.0240665 -0.209889 -0.209889
-0.0257237 -0.238482 -0.238482
0.0233288 -0.238788 -0.238788
0.0220215 -0.210163 -0.210163
-0.0248936 -0.223966 -0.223966
-0.00119514 -0.238448 -0.238448
0.0226786 -0.224256 -0.224256
-0.00102034 -0.209838 -0.209838
-0.00110529 -0.223923 -0.223923
-0.0257237 -0.238482 -0.238482
-0.0273928 -0.268824 -0.268824
0.0246078 -0.269165 -0.269165
0.0233288 -0.238788 -0.238788
-0.0265567 -0.253435 -0.253435
-0.00139007 -0.268808 -0.268808
0.0239719 -0.253758 -0.253758
-0.00119514 -0.238448 -0.238448
-0.00129002 -0.25341 -0.25341
-0.0273928 -0.268824 -0.268824
-0.0290749 -0.300907 -0.300907
0.0258574 -0.301284 -0.301284
0.0246078 -0.269165 -0.269165
-0.0282322 -0.284649 -0.284649
-0.00160622 -0.30091 -0.30091
0.0252364 -0.285007 -0.285007
-0.00139007 -0.268808 -0.268808
-0.00149543 -0.284642 -0.284642
-0.0290749 -0.300907 -0.300907
-0.0307712 -0.33472 -0.33472
0.0270766 -0.335135 -0.335135
0.0258574 -0.301284 -0.301284
-0.0299212 -0.317598 -0.317598
-0.00184464 -0.334743 -0.334743
0.0264709 -0.317994 -0.317994
-0.00160622 -0.30091 -0.30091
-0.00172258 -0.317611 -0.317611
-0.0307712 -0.33472 -0.33472
-0.0324825 -0.370254 -0.370254
0.0282643 -0.370709 -0.370709
0.0270766 -0.335135 -0.335135
-0.0316249 -0.352272 -0.352272
-0.00210637 -0.370298 -0.370298
0.0276744 -0.352707 -0.352707
-0.00184464 -0.334743 -0.334743
-0.00197253 -0.352306 -0.352306
-0.0324825 -0.370254 -0.370254
-0.03421 -0.407499 -0.407499
0.0294194 -0.407995 -0.407995
0.0282643 -0.370709 -0.370709
-0.0333441 -0.388663 -0.388663
-0.00239244 -0.407565 -0.407565
0.0288459 -0.389139 -0.389139
-0.00210637 -0.370298 -0.370298
-0.0022463 -0.388718 -0.388718
-0.03421 -0.407499 -0.407499
-0.0359546 -0.446445 -0.446445
0.030541 -0.446985 -0.446985
0.0294194 -0.407995 -0.407995
-0.0350801 -0.42676 -0.42676
-0.00270384 -0.446534 -0.446534
0.0299844 -0.427278 -0.427278
-0.00239244 -0.407565 -0.407565
-0.00254491 -0.426837 -0.426837
-0.0359546 -0.446445 -0.446445
-0.0377173 -0.487083 -0.487083
0.0316281 -0.487668 -0.487668
0.030541 -0.446985 -0.446985
-0.0368336 -0.466553 -0.466553
-0.00304157 -0.487196 -0.487196
0.0310889 -0.467116 -0.467116
-0.00270384 -0.446534 -0.446534
-0.00286935 -0.466654 -0.466654
-0.0377173 -0.487083 -0.487083
-0.0394992 -0.529404 -0.529404
0.0326797 -0.530035 -0.530035
0.0316281 -0.487668 -0.487668
-0.0386058 -0.508034 -0.508034
-0.00340658 -0.52954 -0.52954
0.0321584 -0.508642 -0.508642
-0.00304157 -0.487196 -0.487196
-0.0032206 -0.508158 -0.508158
-0.0394992 -0.529404 -0.529404
-0.0413011 -0.573396 -0.573396
0.0336949 -0.574076 -0.574076
0.0326797 -0.530035 -0.530035
-0.0403975 -0.551191 -0.551191
-0.00379984 -0.573558 -0.573558
0.0331919 -0.551847 -0.551847
-0.00340658 -0.52954 -0.52954
-0.00359962 -0.551341 -0.551341
-0.0413011 -0.573396 -0.573396
-0.0431239 -0.619051 -0.619051
0.0346727 -0.619781 -0.619781
0.0336949 -0.574076 -0.574076
-0.0422098 -0.596017 -0.596017
-0.00422226 -0.619239 -0.619239
0.0341885 -0.596721 -0.596721
-0.00379984 -0.573558 -0.573558
-0.00400735 -0.596191 -0.596191
-0.0431239 -0.619051 -0.619051
-0.0449687 -0.66636 -0.66636
0.0356122 -0.66714 -0.66714
0.0346727 -0.619781 -0.619781
-0.0440435 -0.6425 -0.6425
-0.00467477 -0.666574 -0.666574
0.0351473 -0.643254 -0.643254
-0.00422226 -0.619239 -0.619239
-0.0044447 -0.642701 -0.642701
-0.0449687 -0.66636 -0.66636
-0.0468362 -0.715311 -0.715311
0.0365126 -0.716144 -0.716144
0.0356122 -0.66714 -0.66714
-0.0458995 -0.690631 -0.690631
-0.00515824 -0.715553 -0.715553
0.0360674 -0.691437 -0.691437
-0.00467477 -0.666574 -0.666574
-0.00491258 -0.690859 -0.690859
-0.0468362 -0.715311 -0.715311
-0.0487273 -0.765896 -0.765896
0.0373729 -0.766784 -0.766784
0.0365126 -0.716144 -0.716144
-0.0477787 -0.7404 -0.7404
-0.00567356 -0.766166 -0.766166
0.0369478 -0.74126 -0.74126
-0.00515824 -0.715553 -0.715553
-0.00541187 -0.740656 -0.740656
-0.0487273 -0.765896 -0.765896
-0.050643 -0.818105 -0.818105
0.0381924 -0.819048 -0.819048
0.0373729 -0.766784 -0.766784
-0.0496821 -0.791798 -0.791798
-0.00622158 -0.818404 -0.818404
0.0377878 -0.792714 -0.792714
-0.00567356 -0.766166 -0.766166
-0.00594343 -0.792083 -0.792083
-0.050643 -0.818105 -0.818105
-0.052584 -0.871929 -0.871929
0.0389701 -0.872929 -0.872929
0.0381924 -0.819048 -0.819048
-0.0516103 -0.844816 -0.844816
-0.00680314 -0.872257 -0.872257
0.0385865 -0.845787 -0.845787
-0.00622158 -0.818404 -0.818404
-0.00650812 -0.845129 -0.845129
-0.052584 -0.871929 -0.871929
-0.0545512 -0.927356 -0.927356
0.0397053 -0.928415 -0.928415
0.0389701 -0.872929 -0.872929
-0.0535643 -0.899443 -0.899443
-0.00741905 -0.927715 -0.927715
0.0393431 -0.900472 -0.900472
-0.00680314 -0.872257 -0.872257
-0.00710675 -0.899786 -0.899786
-0.0545512 -0.927356 -0.927356
-0.0565453 -0.984379 -0.984379
0.0403971 -0.985497 -0.985497
0.0397053 -0.928415 -0.928415
-0.0555448 -0.955669 -0.955669
-0.00807011 -0.984769 -0.984769
0.0400567 -0.956757 -0.956757
-0.00741905 -0.927715 -0.927715
-0.00774014 -0.956043 -0.956043
-0.0565453 -0.984379 -0.984379
-0.0585672 -1.04299 -1.04299
0.0410448 -1.04417 -1.04417
0.0403971 -0.985497 -0.985497
-0.0575527 -1.01349 -1.01349
-0.00875711 -1.04341 -1.04341
0.0407265 -1.01463 -1.01463
-0.00807011 -0.984769 -0.984769
-0.00840907 -1.01389 -1.01389
-0.0585672 -1.04299 -1.04299
-0.0606175 -1.10317 -1.10317
0.0416476 -1.10441 -1.10441
0.0410448 -1.04417 -1.04417
-0.0595887 -1.07288 -1.07288
-0.0094808 -1.10362 -1.10362
0.0413519 -1.07409 -1.07409
-0.00875711 -1.04341 -1.04341
-0.00911432 -1.07332 -1.07332
-0.0606175 -1.10317 -1.10317
-0.0626971 -1.16492 -1.16492
0.0422048 -1.16622 -1.16622
0.0416476 -1.10441 -1.10441
-0.0616536 -1.13385 -1.13385
-0.0102419 -1.16541 -1.16541
0.041932 -1.13512 -1.13512
-0.0094808 -1.10362 -1.10362
-0.00985664 -1.13432 -1.13432
-0.0626971 -1.16492 -1.16492
-0.0648067 -1.22822 -1.22822
0.0427156 -1.22959 -1.22959
0.0422048 -1.16622 -1.16622
-0.0637481 -1.19638 -1.19638
-0.0110412 -1.22874 -1.22874
0.0424661 -1.19772 -1.19772
-0.0102419 -1.16541 -1.16541
-0.0106368 -1.19688 -1.19688
-0.0648067 -1.22822 -1.22822
-0.0669469 -1.29308 -1.29308
0.0431794 -1.29451 -1.29451
0.0427156 -1.22959 -1.22959
-0.0658729 -1.26046 -1.26046
-0.0118794 -1.29363 -1.29363
0.0429534 -1.26186 -1.26186
-0.0110412 -1.22874 -1.22874
-0.0114554 -1.26099 -1.26099
-0.0669469 -1.29308 -1.29308
-0.0691185 -1.35946 -1.35946
0.0435954 -1.36097 -1.36097
0.0431794 -1.29451 -1.29451
-0.0680288 -1.32608 -1.32608
-0.0127571 -1.36005 -1.36005
0.0433934 -1.32755 -1.32755
-0.0118794 -1.29363 -1.29363
-0.0123133 -1.32665 -1.32665
-0.0691185 -1.35946 -1.35946
-0.0713222 -1.42738 -1.42738
0.0439629 -1.42895 -1.42895
0.0435954 -1.36097 -1.36097
-0.0702163 -1.39323 -1.39323
-0.0136751 -1.428 -1.428
0.0437853 -1.39477 -1.39477
-0.0127571 -1.36005 -1.36005
-0.0132111 -1.39384 -1.39384
-0.0713222 -1.42738 -1.42738
-0.0735585 -1.49681 -1.49681
0.0442814 -1.49845 -1.49845
0.0439629 -1.42895 -1.42895
-0.0724362 -1.46191 -1.46191
-0.014634 -1.49747 -1.49747
0.0441284 -1.46351 -1.46351
-0.0136751 -1.428 -1.428
-0.0141494 -1.46255 -1.46255
-0.0735585 -1.49681 -1.49681
-0.0758282 -1.56775 -1.56775
0.0445502 -1.56946 -1.56946
0.0442814 -1.49845 -1.49845
-0.0746892 -1.53209 -1.53209
-0.0156344 -1.56845 -1.56845
0.044422 -1.53377 -1.53377
-0.014634 -1.49747 -1.49747
-0.015129 -1.53277 -1.53277
-0.0758282 -1.56775 -1.56775
-0.0781319 -1.64019 -1.64019
0.0447686 -1.64197 -1.64197
0.0445502 -1.56946 -1.56946
-0.0769758 -1.60378 -1.60378
-0.016677 -1.64092 -1.64092
0.0446657 -1.60553 -1.60553
-0.0156344 -1.56845 -1.56845
-0.0161504 -1.6045 -1.6045
-0.0781319 -1.64019 -1.64019
-0.0804701 -1.71412 -1.71412
0.044936 -1.71597 -1.71597
0.0447686 -1.64197 -1.64197
-0.0792966 -1.67697 -1.67697
-0.0177623 -1.71488 -1.71488
0.0448587 -1.67879 -1.67879
-0.016677 -1.64092 -1.64092
-0.0172143 -1.67772 -1.67772
-0.0804701 -1.71412 -1.71412
-0.0828435 -1.78952 -1.78952
0.0450519 -1.79145 -1.79145
0.044936 -1.71597 -1.71597
-0.0816524 -1.75163 -1.75163
-0.018891 -1.79033 -1.79033
0.0450004 -1.75353 -1.75353
-0.0177623 -1.71488 -1.71488
-0.0183212 -1.75242 -1.75242
-0.0828435 -1.78952 -1.78952
-0.0852526 -1.86639 -1.86639
0.0451157 -1.8684 -1.8684
0.0450519 -1.79145 -1.79145
-0.0840435 -1.82777 -1.82777
-0.0200636 -1.86724 -1.86724
0.0450903 -1.82974 -1.82974
-0.018891 -1.79033 -1.79033
-0.0194717 -1.8286 -1.8286
-0.0852526 -1.86639 -1.86639
-0.0876979 -1.94473 -1.94473
0.0451268 -1.9468 -1.9468
0.0451157 -1.8684 -1.8684
-0.0864707 -1.90538 -1.90538
-0.0212806 -1.94561 -1.94561
0.0451279 -1.90742 -1.90742
-0.0200636 -1.86724 -1.86724
-0.0206665 -1.90624 -1.90624
-0.0876979 -1.94473 -1.94473
-0.0901801 -2.02451 -2.02451
0.0450847 -2.02666 -2.02666
0.0451268 -1.9468 -1.9468
-0.0889344 -1.98444 -1.98444
-0.0225427 -2.02543 -2.02543
0.0451125 -1.98655 -1.98655
-0.0212806 -1.94561 -1.94561
-0.021906 -1.98534 -1.98534
-0.0901801 -2.02451 -2.02451
-0.0926996 -2.10573 -2.10573
0.044989 -2.10796 -2.10796
0.0450847 -2.02666 -2.02666
-0.0914351 -2.06494 -2.06494
-0.0238503 -2.10669 -2.10669
0.0450436 -2.06713 -2.06713
-0.0225427 -2.02543 -2.02543
-0.0231908 -2.06588 -2.06588
-0.0926996 -2.10573 -2.10573
-0.0952569 -2.18838 -2.18838
0.0448389 -2.19069 -2.19069
0.044989 -2.10796 -2.10796
-0.0939735 -2.14688 -2.14688
-0.0252039 -2.18939 -2.18939
0.0449208 -2.14915 -2.14915
-0.0238503 -2.10669 -2.10669
-0.0245213 -2.14786 -2.14786
-0.0952569 -2.18838 -2.18838
-0.0978526 -2.27246 -2.27246
0.0446342 -2.27484 -2.27484
0.0448389 -2.19069 -2.19069
-0.0965499 -2.23024 -2.23024
-0.026604 -2.2735 -2.2735
0.0447435 -2.23259 -2.23259
-0.0252039 -2.18939 -2.18939
-0.0258981 -2.23127 -2.23127
-0.0978526 -2.27246 -2.27246
-0.100487 -2.35794 -2.35794
0.0443743 -2.36041 -2.36041
0.0446342 -2.27484 -2.27484
-0.0991649 -2.31502 -2.31502
-0.0280512 -2.35902 -2.35902
0.0445112 -2.31745 -2.31745
-0.026604 -2.2735 -2.2735
-0.0273217 -2.31608 -2.31608
-0.100487 -2.35794 -2.35794
-0.103161 -2.44482 -2.44482
0.0440588 -2.44737 -2.44737
0.0443743 -2.36041 -2.36041
-0.101819 -2.40121 -2.40121
-0.0295457 -2.44595 -2.44595
0.0442235 -2.40371 -2.40371
-0.0280512 -2.35902 -2.35902
-0.0287925 -2.40231 -2.40231
-0.103161 -2.44482 -2.44482
-0.105874 -2.5331 -2.5331
0.0436872 -2.53573 -2.53573
0.0440588 -2.44737 -2.44737
-0.104512 -2.48879 -2.48879
-0.0310882 -2.53426 -2.53426
0.04388 -2.49138 -2.49138
-0.0295457 -2.44595 -2.44595
-0.0303109 -2.48993 -2.48993
-0.105874 -2.5331 -2.5331
-0.108628 -2.62276 -2.62276
0.0432591 -2.62547 -2.62547
0.0436872 -2.53573 -2.53573
-0.107246 -2.57776 -2.57776
-0.0326789 -2.62396 -2.62396
0.0434802 -2.58042 -2.58042
-0.0310882 -2.53426 -2.53426
-0.0318775 -2.57894 -2.57894
-0.108628 -2.62276 -2.62276
-0.111422 -2.71378 -2.71378
0.0427741 -2.71658 -2.71658
0.0432591 -2.62547 -2.62547
-0.11002 -2.6681 -2.6681
-0.0343184 -2.71504 -2.71504
0.0430237 -2.67085 -2.67085
-0.0326789 -2.62396 -2.62396
-0.0334926 -2.66933 -2.66933
-0.111422 -2.71378 -2.71378
-0.114257 -2.80618 -2.80618
0.0422318 -2.80905 -2.80905
0.0427741 -2.71658 -2.71658
-0.112834 -2.75981 -2.75981
-0.036007 -2.80747 -2.80747
0.0425101 -2.76264 -2.76264
-0.0343184 -2.71504 -2.71504
-0.0351565 -2.76108 -2.76108
-0.114257 -2.80618 -2.80618
-0.117133 -2.89992 -2.89992
0.0416318 -2.90288 -2.90288
0.0422318 -2.80905 -2.80905
-0.115689 -2.85288 -2.85288
-0.037745 -2.90126 -2.90126
0.0419391 -2.8558 -2.8558
-0.036007 -2.80747 -2.80747
-0.0368698 -2.85419 -2.85419
-0.117133 -2.89992 -2.89992
-0.120051 -2.99501 -2.99501
0.0409739 -2.99805 -2.99805
0.0416318 -2.90288 -2.90288
-0.118586 -2.9473 -2.9473
-0.0395329 -2.99639 -2.99639
0.0413101 -2.9503 -2.9503
-0.037745 -2.90126 -2.90126
-0.0386327 -2.94865 -2.94865
-0.120051 -2.99501 -2.99501
-0.12301 -3.09143 -3.09143
0.0402575 -3.09455 -3.09455
0.0409739 -2.99805 -2.99805
-0.121525 -3.04305 -3.04305
-0.0413709 -3.09285 -3.09285
0.040623 -3.04614 -3.04614
-0.0395329 -2.99639 -2.99639
-0.0404456 -3.04445 -3.04445
-0.12301 -3.09143 -3.09143
-0.126013 -3.18917 -3.18917
0.0394824 -3.19238 -3.19238
0.0402575 -3.09455 -3.09455
-0.124506 -3.14013 -3.14013
-0.0432595 -3.19064 -3.19064
0.0398773 -3.1433 -3.1433
-0.0413709 -3.09285 -3.09285
-0.0423089 -3.14158 -3.14158
-0.126013 -3.18917 -3.18917
-0.129057 -3.28823 -3.28823
0.0386484 -3.29153 -3.29153
0.0394824 -3.19238 -3.19238
-0.12753 -3.23854 -3.23854
-0.0451989 -3.28974 -3.28974
0.0390728 -3.24179 -3.24179
-0.0432595 -3.19064 -3.19064
-0.0442228 -3.24002 -3.24002
-0.129057 -3.28823 -3.28823
-0.132145 -3.38859 -3.38859
0.037755 -3.39197 -3.39197
0.0386484 -3.29153 -3.29153
-0.130596 -3.33825 -3.33825
-0.0471894 -3.39014 -3.39014
0.0382091 -3.34159 -3.34159
-0.0451989 -3.28974 -3.28974
-0.0461878 -3.33978 -3.33978
-0.132145 -3.38859 -3.38859
-0.135276 -3.49024 -3.49024
0.036802 -3.49372 -3.49372
0.037755 -3.39197 -3.39197
-0.133705 -3.43926 -3.43926
-0.0492314 -3.49184 -3.49184
0.037286 -3.44268 -3.44268
-0.0471894 -3.39014 -3.39014
-0.048204 -3.44083 -3.44083
-0.135276 -3.49024 -3.49024
-0.13845 -3.59318 -3.59318
0.0357892 -3.59674 -3.59674
0.036802 -3.49372 -3.49372
-0.136858 -3.54155 -3.54155
-0.051325 -3.59483 -3.59483
0.0363031 -3.54507 -3.54507
-0.0492314 -3.49184 -3.49184
-0.0502717 -3.54318 -3.54318
-0.13845 -3.59318 -3.59318
-0.141669 -3.6974 -3.6974
0.0347162 -3.70105 -3.70105
0.0357892 -3.59674 -3.59674
-0.140054 -3.64513 -3.64513
-0.0534705 -3.69909 -3.69909
0.0352602 -3.64874 -3.64874
-0.051325 -3.59483 -3.59483
-0.0523912 -3.6468 -3.6468
-0.141669 -3.6974 -3.6974
-0.144931 -3.80288 -3.80288
0.0335829 -3.80662 -3.80662
0.0347162 -3.70105 -3.70105
-0.143294 -3.74998 -3.74998
-0.0556682 -3.80461 -3.80461
0.0341571 -3.75367 -3.75367
-0.0534705 -3.69909 -3.69909
-0.0545628 -3.75169 -3.75169
-0.144931 -3.80288 -3.80288
-0.148237 -3.90962 -3.90962
0.032389 -3.91344 -3.91344
0.0335829 -3.80662 -3.80662
-0.146578 -3.85609 -3.85609
-0.0579183 -3.9114 -3.9114
0.0329935 -3.85987 -3.85987
-0.0556682 -3.80461 -3.80461
-0.0567867 -3.85785 -3.85785
-0.148237 -3.90962 -3.90962
-0.151588 -4.0176 -4.0176
0.0311343 -4.02151 -4.02151
0.032389 -3.91344 -3.91344
-0.149907 -3.96345 -3.96345
-0.0602211 -4.01942 -4.01942
0.0317692 -3.96732 -3.96732
-0.0579183 -3.9114 -3.9114
-0.0590631 -3.96526 -3.96526
-0.151588 -4.0176 -4.0176
-0.154983 -4.12682 -4.12682
0.0298186 -4.13082 -4.13082
0.0311343 -4.02151 -4.02151
-0.15328 -4.07206 -4.07206
-0.0625766 -4.12869 -4.12869
0.030484 -4.07601 -4.07601
-0.0602211 -4.01942 -4.01942
-0.0613922 -4.0739 -4.0739
-0.154983 -4.12682 -4.12682
-0.158423 -4.23726 -4.23726
0.0284417 -4.24136 -4.24136
0.0298186 -4.13082 -4.13082
-0.156698 -4.18189 -4.18189
-0.0649851 -4.23918 -4.23918
0.0291378 -4.18593 -4.18593
-0.0625766 -4.12869 -4.12869
-0.0637742 -4.18378 -4.18378
-0.158423 -4.23726 -4.23726
-0.161909 -4.34893 -4.34893
0.0270035 -4.35311 -4.35311
0.0284417 -4.24136 -4.24136
-0.16016 -4.29294 -4.29294
-0.0674468 -4.35089 -4.35089
0.0277303 -4.29708 -4.29708
-0.0649851 -4.23918 -4.23918
-0.0662093 -4.29488 -4.29488
-0.161909 -4.34893 -4.34893
-0.165439 -4.4618 -4.4618
0.0255038 -4.46607 -4.46607
0.0270035 -4.35311 -4.35311
-0.163668 -4.40521 -4.40521
-0.0699618 -4.4638 -4.4638
0.0262613 -4.40944 -4.40944
-0.0674468 -4.35089 -4.35089
-0.0686976 -4.4072 -4.4072
-0.165439 -4.4618 -4.4618
-0.169014 -4.57586 -4.57586
0.0239424 -4.58022 -4.58022
0.0255038 -4.46607 -4.46607
-0.167221 -4.51868 -4.51868
-0.0725302 -4.57792 -4.57792
0.0247308 -4.523 -4.523
-0.0699618 -4.4638 -4.4638
-0.0712393 -4.52071 -4.52071
-0.169014 -4.57586 -4.57586
-0.172635 -4.69112 -4.69112
0.0223193 -4.69557 -4.69557
0.0239424 -4.58022 -4.58022
-0.170819 -4.63334 -4.63334
-0.0751522 -4.69322 -4.69322
0.0231386 -4.63775 -4.63775
-0.0725302 -4.57792 -4.57792
-0.0738345 -4.63542 -4.63542
-0.172635 -4.69112 -4.69112
-0.176302 -4.80755 -4.80755
0.0206343 -4.81209 -4.81209
0.0223193 -4.69557 -4.69557
-0.174463 -4.74919 -4.74919
-0.077828 -4.8097 -4.8097
0.0214846 -4.75369 -4.75369
-0.0751522 -4.69322 -4.69322
-0.0764834 -4.75131 -4.75131
-0.176302 -4.80755 -4.80755
-0.180014 -4.92515 -4.92515
0.0188873 -4.92979 -4.92979
0.0206343 -4.81209 -4.81209
-0.178152 -4.86621 -4.86621
-0.0805575 -4.92735 -4.92735
0.0197686 -4.87079 -4.87079
-0.077828 -4.8097 -4.8097
-0.079186 -4.86838 -4.86838
-0.180014 -4.92515 -4.92515
-0.183772 -5.04392 -5.04392
0.0170783 -5.04864 -5.04864
0.0188873 -4.92979 -4.92979
-0.181887 -4.98439 -4.98439
-0.0833409 -5.04615 -5.04615
0.0179906 -4.98907 -4.98907
-0.0805575 -4.92735 -4.92735
-0.0819424 -4.98661 -4.98661
-0.183772 -5.04392 -5.04392
-0.187575 -5.16383 -5.16383
0.0152071 -5.16864 -5.16864
0.0170783 -5.04864 -5.04864
-0.185668 -5.10373 -5.10373
-0.0861782 -5.16611 -5.16611
0.0161505 -5.1085 -5.1085
-0.0833409 -5.04615 -5.04615
-0.0847528 -5.10599 -5.10599
-0.187575 -5.16383 -5.16383
-0.191425 -5.28487 -5.28487
0.0132738 -5.28978 -5.28978
0.0152071 -5.16864 -5.16864
-0.189494 -5.22421 -5.22421
-0.0890696 -5.28721 -5.28721
0.0142482 -5.22907 -5.22907
-0.0861782 -5.16611 -5.16611
-0.0876171 -5.22652 -5.22652
-0.191425 -5.28487 -5.28487
-0.19532 -5.40705 -5.40705
0.0112782 -5.41205 -5.41205
0.0132738 -5.28978 -5.28978
-0.193367 -5.34582 -5.34582
-0.092015 -5.40943 -5.40943
0.0122837 -5.35077 -5.35077
-0.0890696 -5.28721 -5.28721
-0.0905355 -5.34818 -5.34818
-0.19532 -5.40705 -5.40705
-0.199261 -5.53035 -5.53035
0.00922027 -5.53544 -5.53544
0.0112782 -5.41205 -5.41205
-0.197285 -5.46856 -5.46856
-0.0950145 -5.53278 -5.53278
0.010257 -5.47361 -5.47361
-0.092015 -5.40943 -5.40943
-0.093508 -5.47097 -5.47097
-0.199261 -5.53035 -5.53035
-0.203248 -5.65476 -5.65476
0.00710008 -5.65994 -5.65994
0.00922027 -5.53544 -5.53544
-0.201249 -5.59242 -5.59242
-0.0980682 -5.65723 -5.65723
0.00816796 -5.59755 -5.59755
-0.0950145 -5.53278 -5.53278
-0.0965346 -5.59487 -5.59487
-0.203248 -5.65476 -5.65476
-0.207281 -5.78027 -5.78027
0.00491758 -5.78554 -5.78554
0.00710008 -5.65994 -5.65994
-0.205259 -5.71738 -5.71738
-0.101176 -5.78279 -5.78279
0.00601661 -5.7226 -5.7226
-0.0980682 -5.65723 -5.65723
-0.0996153 -5.71988 -5.71988
-0.207281 -5.78027 -5.78027
-0.21136 -5.90687 -5.90687
0.00267277 -5.91223 -5.91223
0.00491758 -5.78554 -5.78554
-0.209315 -5.84344 -5.84344
-0.104338 -5.90944 -5.90944
0.00380296 -5.84875 -5.84875
-0.101176 -5.78279 -5.78279
-0.10275 -5.84598 -5.84598
-0.21136 -5.90687 -5.90687
-0.215485 -6.03456 -6.03456
0.000365684 -6.04001 -6.04001
0.00267277 -5.91223 -5.91223
-0.213417 -5.97058 -5.97058
-0.107554 -6.03717 -6.03717
0.00152701 -5.97599 -5.97599
-0.104338 -5.90944 -5.90944
-0.105939 -5.97317 -5.97317
-0.215485 -6.03456 -6.03456
-0.219656 -6.16331 -6.16331
-0.00200366 -6.16885 -6.16885
0.000365684 -6.04001 -6.04001
-0.217565 -6.0988 -6.0988
-0.110824 -6.16597 -6.16597
-0.00081121 -6.1043 -6.1043
-0.107554 -6.03717 -6.03717
-0.109182 -6.10144 -6.10144
-0.219656 -6.16331 -6.16331
-0.223873 -6.29313 -6.29313
-0.00443523 -6.29876 -6.29876
-0.00200366 -6.16885 -6.16885
-0.221759 -6.22809 -6.22809
-0.114148 -6.29583 -6.29583
-0.00321167 -6.23368 -6.23368
-0.110824 -6.16597 -6.16597
-0.112479 -6.23077 -6.23077
-0.223873 -6.29313 -6.29313
-0.228135 -6.424 -6.424
-0.00692896 -6.42972 -6.42972
-0.00443523 -6.29876 -6.29876
-0.225998 -6.35843 -6.35843
-0.117526 -6.42675 -6.42675
-0.00567433 -6.36411 -6.36411
-0.114148 -6.29583 -6.29583
-0.11583 -6.36116 -6.36116
-0.228135 -6.424 -6.424
-0.232443 -6.55591 -6.55591
-0.00948479 -6.56173 -6.56173
-0.00692896 -6.42972 -6.42972
-0.230284 -6.48982 -6.48982
-0.120958 -6.55871 -6.55871
-0.00819911 -6.49559 -6.49559
-0.117526 -6.42675 -6.42675
-0.119236 -6.4926 -6.4926
-0.232443 -6.55591 -6.55591
-0.236797 -6.68885 -6.68885
-0.0121026 -6.69476 -6.69476
-0.00948479 -6.56173 -6.56173
-0.234615 -6.62225 -6.62225
-0.124444 -6.6917 -6.6917
-0.010786 -6.62811 -6.62811
-0.120958 -6.55871 -6.55871
-0.122695 -6.62507 -6.62507
-0.236797 -6.68885 -6.68885
-0.241197 -6.82282 -6.82282
-0.0147824 -6.82882 -6.82882
-0.0121026 -6.69476 -6.69476
-0.238991 -6.75571 -6.75571
-0.127984 -6.82571 -6.82571
-0.0134348 -6.76166 -6.76166
-0.124444 -6.6917 -6.6917
-0.126207 -6.75858 -6.75858
-0.241197 -6.82282 -6.82282
-0.245642 -6.9578 -6.9578
-0.017524 -6.96389 -6.96389
-0.0147824 -6.82882 -6.82882
-0.243414 -6.89019 -6.89019
-0.131577 -6.96074 -6.96074
-0.0161455 -6.89623 -6.89623
-0.127984 -6.82571 -6.82571
-0.129774 -6.8931 -6.8931
-0.245642 -6.9578 -6.9578
-0.250132 -7.09379 -7.09379
-0.0203274 -7.09997 -7.09997
-0.017524 -6.96389 -6.96389
-0.247881 -7.02567 -7.02567
-0.135224 -7.09677 -7.09677
-0.018918 -7.0318 -7.0318
-0.131577 -6.96074 -6.96074
-0.133394 -7.02863 -7.02863
-0.250132 -7.09379 -7.09379
-0.254668 -7.23077 -7.23077
-0.0231923 -7.23704 -7.23704
-0.0203274 -7.09997 -7.09997
-0.252394 -7.16216 -7.16216
-0.138924 -7.2338 -7.2338
-0.0217521 -7.16838 -7.16838
-0.135224 -7.09677 -7.09677
-0.137067 -7.16516 -7.16516
-0.254668 -7.23077 -7.23077
-0.259248 -7.36874 -7.36874
-0.0261187 -7.37509 -7.37509
-0.0231923 -7.23704 -7.23704
-0.256953 -7.29963 -7.29963
-0.142678 -7.37181 -7.37181
-0.0246478 -7.30594 -7.30594
-0.138924 -7.2338 -7.2338
-0.140794 -7.30268 -7.30268
-0.259248 -7.36874 -7.36874
-0.263874 -7.50768 -7.50768
-0.0291064 -7.51412 -7.51412
-0.0261187 -7.37509 -7.37509
-0.261556 -7.43808 -7.43808
-0.146485 -7.5108 -7.5108
-0.0276049 -7.44449 -7.44449
-0.142678 -7.37181 -7.37181
-0.144575 -7.44118 -7.44118
-0.263874 -7.50768 -7.50768
-0.268545 -7.64758 -7.64758
-0.0321552 -7.65412 -7.65412
-0.0291064 -7.51412 -7.51412
-0.266204 -7.57751 -7.57751
-0.150344 -7.65075 -7.65075
-0.0306232 -7.584 -7.584
-0.146485 -7.5108 -7.5108
-0.148408 -7.58065 -7.58065
-0.268545 -7.64758 -7.64758
-0.27326 -7.78844 -7.78844
-0.035265 -7.79507 -7.79507
-0.0321552 -7.65412 -7.65412
-0.270897 -7.71789 -7.71789
-0.154257 -7.79165 -7.79165
-0.0337025 -7.72447 -7.72447
-0.150344 -7.65075 -7.65075
-0.152294 -7.72108 -7.72108
-0.27326 -7.78844 -7.78844
-0.278019 -7.93025 -7.93025
-0.0384357 -7.93696 -7.93696
-0.035265 -7.79507 -7.79507
-0.275634 -7.85923 -7.85923
-0.158222 -7.9335 -7.9335
-0.0368428 -7.8659 -7.8659
-0.154257 -7.79165 -7.79165
-0.156233 -7.86246 -7.86246
-0.278019 -7.93025 -7.93025
-0.282823 -8.07299 -8.07299
-0.041667 -8.07979 -8.07979
-0.0384357 -7.93696 -7.93696
-0.280416 -8.0015 -8.0015
-0.162239 -8.07629 -8.07629
-0.0400438 -8.00826 -8.00826
-0.158222 -7.9335 -7.9335
-0.160224 -8.00478 -8.00478
-0.282823 -8.07299 -8.07299
-0.287671 -8.21666 -8.21666
-0.0449586 -8.22355 -8.22355
-0.041667 -8.07979 -8.07979
-0.285242 -8.14471 -8.14471
-0.166309 -8.22001 -8.22001
-0.0433053 -8.15156 -8.15156
-0.162239 -8.07629 -8.07629
-0.164268 -8.14803 -8.14803
-0.287671 -8.21666 -8.21666
-0.292563 -8.36125 -8.36125
-0.0483105 -8.36822 -8.36822
-0.0449586 -8.22355 -8.22355
-0.290112 -8.28884 -8.28884
-0.170431 -8.36464 -8.36464
-0.0466271 -8.29577 -8.29577
-0.166309 -8.22001 -8.22001
-0.168364 -8.29221 -8.29221
-0.292563 -8.36125 -8.36125
-0.297498 -8.50674 -8.50674
-0.0517224 -8.51381 -8.51381
-0.0483105 -8.36822 -8.36822
-0.295025 -8.43388 -8.43388
-0.174605 -8.51018 -8.51018
-0.050009 -8.4409 -8.4409
-0.170431 -8.36464 -8.36464
-0.172511 -8.4373 -8.4373
-0.297498 -8.50674 -8.50674
-0.302477 -8.65313 -8.65313
-0.055194 -8.66028 -8.66028
-0.0517224 -8.51381 -8.51381
-0.299982 -8.57983 -8.57983
-0.17883 -8.65661 -8.65661
-0.0534507 -8.58693 -8.58693
-0.174605 -8.51018 -8.51018
-0.176711 -8.58328 -8.58328
-0.302477 -8.65313 -8.65313
-0.307499 -8.80041 -8.80041
-0.0587251 -8.80765 -8.80765
-0.055194 -8.66028 -8.66028
-0.304983 -8.72666 -8.72666
-0.183107 -8.80394 -8.80394
-0.0569521 -8.73386 -8.73386
-0.17883 -8.65661 -8.65661
-0.180962 -8.73017 -8.73017
-0.307499 -8.80041 -8.80041
-0.312564 -8.94857 -8.94857
-0.0623155 -8.95589 -8.95589
-0.0587251 -8.80765 -8.80765
-0.310026 -8.87438 -8.87438
-0.187434 -8.95214 -8.95214
-0.0605129 -8.88166 -8.88166
-0.183107 -8.80394 -8.80394
-0.185264 -8.87793 -8.87793
-0.312564 -8.94857 -8.94857
-0.317672 -9.0976 -9.0976
-0.0659648 -9.10501 -9.10501
-0.0623155 -8.95589 -8.95589
-0.315113 -9.02298 -9.02298
-0.191813 -9.10121 -9.10121
-0.0641328 -9.03034 -9.03034
-0.187434 -8.95214 -8.95214
-0.189617 -9.02657 -9.02657
-0.317672 -9.0976 -9.0976
-0.322822 -9.24748 -9.24748
-0.0696729 -9.25498 -9.25498
-0.0659648 -9.10501 -9.10501
-0.320241 -9.17243 -9.17243
-0.196242 -9.25114 -9.25114
-0.0678115 -9.17988 -9.17988
-0.191813 -9.10121 -9.10121
-0.194021 -9.17607 -9.17607
-0.322822 -9.24748 -9.24748
-0.328014 -9.39822 -9.39822
-0.0734394 -9.4058 -9.4058
-0.0696729 -9.25498 -9.25498
-0.325413 -9.32275 -9.32275
-0.200721 -9.40192 -9.40192
-0.0715489 -9.33028 -9.33028
-0.196242 -9.25114 -9.25114
-0.198475 -9.32642 -9.32642
-0.328014 -9.39822 -9.39822
-0.333248 -9.54979 -9.54979
-0.077264 -9.55745 -9.55745
-0.0734394 -9.4058 -9.4058
-0.330626 -9.4739 -9.4739
-0.20525 -9.55353 -9.55353
-0.0753445 -9.48152 -9.48152
-0.200721 -9.40192 -9.40192
-0.20298 -9.47762 -9.47762
-0.333248 -9.54979 -9.54979
-0.338523 -9.7022 -9.7022
-0.0811465 -9.70994 -9.70994
-0.077264 -9.55745 -9.55745
-0.33588 -9.62589 -9.62589
-0.209829 -9.70598 -9.70598
-0.0791981 -9.63359 -9.63359
-0.20525 -9.55353 -9.55353
-0.207534 -9.62966 -9.62966
-0.338523 -9.7022 -9.7022
-0.34384 -9.85542 -9.85542
-0.0850866 -9.86325 -9.86325
-0.0811465 -9.70994 -9.70994
-0.341176 -9.77871 -9.77871
-0.214458 -9.85925 -9.85925
-0.0831094 -9.78649 -9.78649
-0.209829 -9.70598 -9.70598
-0.212137 -9.78251 -9.78251
-0.34384 -9.85542 -9.85542
-0.349197 -10.0095 -10.0095
-0.0890838 -10.0174 -10.0174
-0.0850866 -9.86325 -9.86325
-0.346513 -9.93234 -9.93234
-0.219135 -10.0133 -10.0133
-0.087078 -9.94021 -9.94021
-0.214458 -9.85925 -9.85925
-0.21679 -9.93619 -9.93619
-0.349197 -10.0095 -10.0095
-0.354595 -10.1643 -10.1643
-0.0931379 -10.1723 -10.1723
-0.0890838 -10.0174 -10.0174
-0.351891 -10.0868 -10.0868
-0.223861 -10.1682 -10.1682
-0.0911037 -10.0947 -10.0947
-0.219135 -10.0133 -10.0133
-0.221492 -10.0907 -10.0907
-0.354595 -10.1643 -10.1643
-0.360033 -10.3199 -10.3199
-0.0972485 -10.328 -10.328
-0.0931379 -10.1723 -10.1723
-0.357309 -10.242 -10.242
-0.228636 -10.3239 -10.3239
-0.0951862 -10.25 -10.25
-0.223861 -10.1682 -10.1682
-0.226243 -10.2459 -10.2459
-0.360033 -10.3199 -10.3199
-0.365512 -10.4763 -10.4763
-0.101415 -10.4845 -10.4845
-0.0972485 -10.328 -10.328
-0.362768 -10.398 -10.398
-0.233458 -10.4803 -10.4803
-0.0993249 -10.4061 -10.4061
-0.228636 -10.3239 -10.3239
-0.231041 -10.402 -10.402
-0.365512 -10.4763 -10.4763
-0.371029 -10.6335 -10.6335
-0.105638 -10.6417 -10.6417
-0.101415 -10.4845 -10.4845
-0.368265 -10.5548 -10.5548
-0.238328 -10.6375 -10.6375
-0.10352 -10.563 -10.563
-0.233458 -10.4803 -10.4803
-0.235887 -10.5588 -10.5588
-0.371029 -10.6335 -10.6335
-0.376586 -10.7915 -10.7915
-0.109916 -10.7998 -10.7998
-0.105638 -10.6417 -10.6417
-0.373803 -10.7124 -10.7124
-0.243246 -10.7955 -10.7955
-0.10777 -10.7207 -10.7207
-0.238328 -10.6375 -10.6375
-0.240781 -10.7164 -10.7164
-0.376586 -10.7915 -10.7915
-0.382181 -10.9502 -10.9502
-0.114249 -10.9585 -10.9585
-0.109916 -10.7998 -10.7998
-0.379379 -10.8707 -10.8707
-0.24821 -10.9543 -10.9543
-0.112076 -10.8791 -10.8791
-0.243246 -10.7955 -10.7955
-0.245722 -10.8748 -10.8748
-0.382181 -10.9502 -10.9502
-0.387815 -11.1096 -11.1096
-0.118637 -11.1181 -11.1181
-0.114249 -10.9585 -10.9585
-0.384994 -11.0298 -11.0298
-0.253221 -11.1137 -11.1137
-0.116436 -11.0382 -11.0382
-0.24821 -10.9543 -10.9543
-0.25071 -11.0339 -11.0339
-0.387815 -11.1096 -11.1096
-0.393487 -11.2698 -11.2698
-0.12308 -11.2783 -11.2783
-0.118637 -11.1181 -11.1181
-0.390647 -11.1896 -11.1896
-0.258278 -11.274 -11.274
-0.120852 -11.1981 -11.1981
-0.253221 -11.1137 -11.1137
-0.255744 -11.1938 -11.1938
-0.393487 -11.2698 -11.2698
-0.399197 -11.4307 -11.4307
-0.127576 -11.4393 -11.4393
-0.12308 -11.2783 -11.2783
-0.396337 -11.3501 -11.3501
-0.263381 -11.4349 -11.4349
-0.125321 -11.3587 -11.3587
-0.258278 -11.274 -11.274
-0.260824 -11.3543 -11.3543
-0.399197 -11.4307 -11.4307
-0.404944 -11.5923 -11.5923
-0.132125 -11.601 -11.601
-0.127576 -11.4393 -11.4393
-0.402066 -11.5114 -11.5114
-0.26853 -11.5965 -11.5965
-0.129844 -11.52 -11.52
-0.263381 -11.4349 -11.4349
-0.26595 -11.5156 -11.5156
-0.404944 -11.5923 -11.5923
-0.410727 -11.7546 -11.7546
-0.136728 -11.7634 -11.7634
-0.132125 -11.601 -11.601
-0.407831 -11.6733 -11.6733
-0.273723 -11.7589 -11.7589
-0.13442 -11.6821 -11.6821
-0.26853 -11.5965 -11.5965
-0.271121 -11.6776 -11.6776
-0.410727 -11.7546 -11.7546
-0.416547 -11.9176 -11.9176
-0.141383 -11.9264 -11.9264
-0.136728 -11.7634 -11.7634
-0.413632 -11.836 -11.836
-0.27896 -11.922 -11.922
-0.139049 -11.8448 -11.8448
-0.273723 -11.7589 -11.7589
-0.276336 -11.8403 -11.8403
-0.416547 -11.9176 -11.9176
-0.422403 -12.0813 -12.0813
-0.146091 -12.0902 -12.0902
-0.141383 -11.9264 -11.9264
-0.41947 -11.9994 -11.9994
-0.284242 -12.0857 -12.0857
-0.143731 -12.0082 -12.0082
-0.27896 -11.922 -11.922
-0.281596 -12.0037 -12.0037
-0.422403 -12.0813 -12.0813
-0.428294 -12.2457 -12.2457
-0.150851 -12.2547 -12.2547
-0.146091 -12.0902 -12.0902
-0.425344 -12.1634 -12.1634
-0.289568 -12.2501 -12.2501
-0.148464 -12.1724 -12.1724
-0.284242 -12.0857 -12.0857
-0.286899 -12.1678 -12.1678
-0.428294 -12.2457 -12.2457
-0.43422 -12.4107 -12.4107
-0.155661 -12.4198 -12.4198
-0.150851 -12.2547 -12.2547
-0.431253 -12.3281 -12.3281
-0.294936 -12.4152 -12.4152
-0.15325 -12.3371 -12.3371
-0.289568 -12.2501 -12.2501
-0.292246 -12.3325 -12.3325
-0.43422 -12.4107 -12.4107
-0.440181 -12.5764 -12.5764
-0.160523 -12.5855 -12.5855
-0.155661 -12.4198 -12.4198
-0.437196 -12.4935 -12.4935
-0.300347 -12.5809 -12.5809
-0.158086 -12.5026 -12.5026
-0.294936 -12.4152 -12.4152
-0.297636 -12.4979 -12.4979
-0.440181 -12.5764 -12.5764
-0.446176 -12.7427 -12.7427
-0.165435 -12.7519 -12.7519
-0.160523 -12.5855 -12.5855
-0.443174 -12.6595 -12.6595
-0.305801 -12.7473 -12.7473
-0.162973 -12.6687 -12.6687
-0.300347 -12.5809 -12.5809
-0.303069 -12.664 -12.664
-0.446176 -12.7427 -12.7427
-0.452205 -12.9097 -12.9097
-0.170397 -12.919 -12.919
-0.165435 -12.7519 -12.7519
-0.449186 -12.8261 -12.8261
-0.311296 -12.9143 -12.9143
-0.16791 -12.8354 -12.8354
-0.305801 -12.7473 -12.7473
-0.308544 -12.8307 -12.8307
-0.452205 -12.9097 -12.9097
-0.458266 -13.0773 -13.0773
-0.175409 -13.0867 -13.0867
-0.170397 -12.919 -12.919
-0.455231 -12.9934 -12.9934
-0.316833 -13.0819 -13.0819
-0.172897 -13.0027 -13.0027
-0.311296 -12.9143 -12.9143
-0.31406 -12.998 -12.998
-0.458266 -13.0773 -13.0773
-0.464361 -13.2455 -13.2455
-0.180469 -13.255 -13.255
-0.175409 -13.0867 -13.0867
-0.46131 -13.1613 -13.1613
-0.322411 -13.2502 -13.2502
-0.177933 -13.1707 -13.1707
-0.316833 -13.0819 -13.0819
-0.319617 -13.166 -13.166
-0.464361 -13.2455 -13.2455
-0.470488 -13.4144 -13.4144
-0.185578 -13.4238 -13.4238
-0.180469 -13.255 -13.255
-0.46742 -13.3299 -13.3299
-0.328029 -13.419 -13.419
-0.183018 -13.3393 -13.3393
-0.322411 -13.2502 -13.2502
-0.325215 -13.3345 -13.3345
-0.470488 -13.4144 -13.4144
-0.476646 -13.5838 -13.5838
-0.190735 -13.5933 -13.5933
-0.185578 -13.4238 -13.4238
-0.473563 -13.499 -13.499
-0.333686 -13.5885 -13.5885
-0.188151 -13.5085 -13.5085
-0.328029 -13.419 -13.419
-0.330853 -13.5037 -13.5037
-0.476646 -13.5838 -13.5838
-0.482835 -13.7538 -13.7538
-0.19594 -13.7634 -13.7634
-0.190735 -13.5933 -13.5933
-0.479737 -13.6687 -13.6687
-0.339383 -13.7586 -13.7586
-0.193332 -13.6783 -13.6783
-0.333686 -13.5885 -13.5885
-0.33653 -13.6735 -13.6735
-0.482835 -13.7538 -13.7538
-0.489056 -13.9244 -13.9244
-0.201191 -13.9341 -13.9341
-0.19594 -13.7634 -13.7634
-0.485942 -13.839 -13.839
-0.345119 -13.9292 -13.9292
-0.19856 -13.8487 -13.8487
-0.339383 -13.7586 -13.7586
-0.342247 -13.8438 -13.8438
-0.489056 -13.9244 -13.9244
-0.495306 -14.0956 -14.0956
-0.206489 -14.1053 -14.1053
-0.201191 -13.9341 -13.9341
-0.492177 -14.0099 -14.0099
-0.350894 -14.1004 -14.1004
-0.203835 -14.0196 -14.0196
-0.345119 -13.9292 -13.9292
-0.348002 -14.0147 -14.0147
-0.495306 -14.0956 -14.0956
-0.501586 -14.2673 -14.2673
-0.211833 -14.2771 -14.2771
-0.206489 -14.1053 -14.1053
-0.498443 -14.1814 -14.1814
-0.356706 -14.2721 -14.2721
-0.209156 -14.1911 -14.1911
-0.350894 -14.1004 -14.1004
-0.353795 -14.1862 -14.1862
-0.501586 -14.2673 -14.2673
-0.507895 -14.4396 -14.4396
-0.217223 -14.4494 -14.4494
-0.211833 -14.2771 -14.2771
-0.504737 -14.3534 -14.3534
-0.362555 -14.4444 -14.4444
-0.214522 -14.3632 -14.3632
-0.356706 -14.2721 -14.2721
-0.359626 -14.3582 -14.3582
-0.507895 -14.4396 -14.4396
-0.514233 -14.6124 -14.6124
-0.222657 -14.6223 -14.6223
-0.217223 -14.4494 -14.4494
-0.511061 -14.5259 -14.5259
-0.368441 -14.6173 -14.6173
-0.219934 -14.5358 -14.5358
-0.362555 -14.4444 -14.4444
-0.365493 -14.5308 -14.5308
-0.514233 -14.6124 -14.6124
-0.520599 -14.7857 -14.7857
-0.228135 -14.7957 -14.7957
-0.222657 -14.6223 -14.6223
-0.517413 -14.699 -14.699
-0.374363 -14.7907 -14.7907
-0.225391 -14.7089 -14.7089
-0.368441 -14.6173 -14.6173
-0.371398 -14.7039 -14.7039
-0.520599 -14.7857 -14.7857
-0.526992 -14.9596 -14.9596
-0.233658 -14.9696 -14.9696
-0.228135 -14.7957 -14.7957
-0.523792 -14.8726 -14.8726
-0.380321 -14.9646 -14.9646
-0.230891 -14.8826 -14.8826
-0.374363 -14.7907 -14.7907
-0.377338 -14.8775 -14.8775
-0.526992 -14.9596 -14.9596
-0.533412 -15.134 -15.134
-0.239223 -15.1441 -15.1441
-0.233658 -14.9696 -14.9696
-0.530199 -15.0467 -15.0467
-0.386314 -15.139 -15.139
-0.236435 -15.0568 -15.0568
-0.380321 -14.9646 -14.9646
-0.383313 -15.0517 -15.0517
-0.533412 -15.134 -15.134
-0.539859 -15.3088 -15.3088
-0.244831 -15.319 -15.319
-0.239223 -15.1441 -15.1441
-0.536632 -15.2213 -15.2213
-0.392341 -15.3139 -15.3139
-0.242022 -15.2315 -15.2315
-0.386314 -15.139 -15.139
-0.389323 -15.2264 -15.2264
-0.539859 -15.3088 -15.3088
-0.546331 -15.4842 -15.4842
-0.250482 -15.4944 -15.4944
-0.244831 -15.319 -15.319
-0.543092 -15.3965 -15.3965
-0.398403 -15.4893 -15.4893
-0.247651 -15.4067 -15.4067
-0.392341 -15.3139 -15.3139
-0.395368 -15.4015 -15.4015
-0.546331 -15.4842 -15.4842
-0.552829 -15.6601 -15.6601
-0.256173 -15.6703 -15.6703
-0.250482 -15.4944 -15.4944
-0.549577 -15.5721 -15.5721
-0.404497 -15.6652 -15.6652
-0.253322 -15.5823 -15.5823
-0.398403 -15.4893 -15.4893
-0.401446 -15.5772 -15.5772
-0.552829 -15.6601 -15.6601
-0.559351 -15.8364 -15.8364
-0.261906 -15.8467 -15.8467
-0.256173 -15.6703 -15.6703
-0.556087 -15.7482 -15.7482
-0.410625 -15.8415 -15.8415
-0.259035 -15.7585 -15.7585
-0.404497 -15.6652 -15.6652
-0.407557 -15.7533 -15.7533
-0.559351 -15.8364 -15.8364
-0.565897 -16.0132 -16.0132
-0.267679 -16.0236 -16.0236
-0.261906 -15.8467 -15.8467
-0.562621 -15.9247 -15.9247
-0.416785 -16.0183 -16.0183
-0.264788 -15.9351 -15.9351
-0.410625 -15.8415 -15.8415
-0.413701 -15.9299 -15.9299
-0.565897 -16.0132 -16.0132
-0.572467 -16.1904 -16.1904
-0.273492 -16.2009 -16.2009
-0.267679 -16.0236 -16.0236
-0.569179 -16.1017 -16.1017
-0.422976 -16.1956 -16.1956
-0.270581 -16.1122 -16.1122
-0.416785 -16.0183 -16.0183
-0.419876 -16.1069 -16.1069
-0.572467 -16.1904 -16.1904
-0.579059 -16.3681 -16.3681
-0.279344 -16.3786 -16.3786
-0.273492 -16.2009 -16.2009
-0.57576 -16.2792 -16.2792
-0.429198 -16.3733 -16.3733
-0.276413 -16.2897 -16.2897
-0.422976 -16.1956 -16.1956
-0.426083 -16.2844 -16.2844
-0.579059 -16.3681 -16.3681
-0.585674 -16.5462 -16.5462
-0.285235 -16.5568 -16.5568
-0.279344 -16.3786 -16.3786
-0.582364 -16.4571 -16.4571
-0.435451 -16.5515 -16.5515
-0.282284 -16.4676 -16.4676
-0.429198 -16.3733 -16.3733
-0.432321 -16.4623 -16.4623
-0.585674 -16.5462 -16.5462
-0.592311 -16.7248 -16.7248
-0.291163 -16.7354 -16.7354
-0.285235 -16.5568 -16.5568
-0.58899 -16.6354 -16.6354
-0.441734 -16.73 -16.73
-0.288194 -16.646 -16.646
-0.435451 -16.5515 -16.5515
-0.438589 -16.6407 -16.6407
-0.592311 -16.7248 -16.7248
-0.598968 -16.9037 -16.9037
-0.297129 -16.9144 -16.9144
-0.291163 -16.7354 -16.7354
-0.595637 -16.8142 -16.8142
-0.448046 -16.909 -16.909
-0.294141 -16.8248 -16.8248
-0.441734 -16.73 -16.73
-0.444886 -16.8195 -16.8195
-0.598968 -16.9037 -16.9037
-0.605647 -17.0831 -17.0831
-0.303132 -17.0938 -17.0938
-0.297129 -16.9144 -16.9144
-0.602305 -16.9934 -16.9934
-0.454386 -17.0884 -17.0884
-0.300126 -17.004 -17.004
-0.448046 -16.909 -16.909
-0.451212 -16.9987 -16.9987
-0.605647 -17.0831 -17.0831
-0.612344 -17.2629 -17.2629
-0.30917 -17.2736 -17.2736
-0.303132 -17.0938 -17.0938
-0.608993 -17.1729 -17.1729
-0.460754 -17.2682 -17.2682
-0.306146 -17.1837 -17.1837
-0.454386 -17.0884 -17.0884
-0.457567 -17.1783 -17.1783
-0.612344 -17.2629 -17.2629
-0.619062 -17.443 -17.443
-0.315245 -17.4538 -17.4538
-0.30917 -17.2736 -17.2736
-0.615701 -17.3529 -17.3529
-0.46715 -17.4484 -17.4484
-0.312203 -17.3637 -17.3637
-0.460754 -17.2682 -17.2682
-0.463949 -17.3582 -17.3582
-0.619062 -17.443 -17.443
-0.625797 -17.6235 -17.6235
-0.321354 -17.6344 -17.6344
-0.315245 -17.4538 -17.4538
-0.622427 -17.5332 -17.5332
-0.473573 -17.6289 -17.6289
-0.318295 -17.544 -17.544
-0.46715 -17.4484 -17.4484
-0.470358 -17.5386 -17.5386
-0.625797 -17.6235 -17.6235
-0.632551 -17.8044 -17.8044
-0.327497 -17.8153 -17.8153
-0.321354 -17.6344 -17.6344
-0.629172 -17.7139 -17.7139
-0.480021 -17.8098 -17.8098
-0.324421 -17.7248 -17.7248
-0.473573 -17.6289 -17.6289
-0.476794 -17.7193 -17.7193
-0.632551 -17.8044 -17.8044
-0.639322 -17.9857 -17.9857
-0.333674 -17.9966 -17.9966
-0.327497 -17.8153 -17.8153
-0.635934 -17.895 -17.895
-0.486495 -17.9911 -17.9911
-0.330581 -17.9059 -17.9059
-0.480021 -17.8098 -17.8098
-0.483255 -17.9004 -17.9004
-0.639322 -17.9857 -17.9857
-0.64611 -18.1673 -18.1673
-0.339884 -18.1782 -18.1782
-0.333674 -17.9966 -17.9966
-0.642714 -18.0764 -18.0764
-0.492994 -18.1727 -18.1727
-0.336775 -18.0874 -18.0874
-0.486495 -17.9911 -17.9911
-0.489742 -18.0819 -18.0819
-0.64611 -18.1673 -18.1673
-0.652913 -18.3492 -18.3492
-0.346126 -18.3602 -18.3602
-0.339884 -18.1782 -18.1782
-0.649509 -18.2582 -18.2582
-0.499517 -18.3547 -18.3547
-0.343001 -18.2692 -18.2692
-0.492994 -18.1727 -18.1727
-0.496253 -18.2637 -18.2637
-0.652913 -18.3492 -18.3492
-0.659732 -18.5315 -18.5315
-0.3524 -18.5425 -18.5425
-0.346126 -18.3602 -18.3602
-0.656321 -18.4403 -18.4403
-0.506064 -18.537 -18.537
-0.349259 -18.4513 -18.4513
-0.499517 -18.3547 -18.3547
-0.502787 -18.4458 -18.4458
-0.659732 -18.5315 -18.5315
-0.666566 -18.714 -18.714
-0.358705 -18.7251 -18.7251
-0.3524 -18.5425 -18.5425
-0.663147 -18.6227 -18.6227
-0.512633 -18.7196 -18.7196
-0.355549 -18.6338 -18.6338
-0.506064 -18.537 -18.537
-0.509346 -18.6282 -18.6282
-0.666566 -18.714 -18.714
-0.673414 -18.8969 -18.8969
-0.36504 -18.9081 -18.9081
-0.358705 -18.7251 -18.7251
-0.669988 -18.8055 -18.8055
-0.519225 -18.9025 -18.9025
-0.361869 -18.8165 -18.8165
-0.512633 -18.7196 -18.7196
-0.515926 -18.811 -18.811
-0.673414 -18.8969 -18.8969
-0.680275 -19.0801 -19.0801
-0.371405 -19.0913 -19.0913
-0.36504 -18.9081 -18.9081
-0.676843 -18.9885 -18.9885
-0.525838 -19.0857 -19.0857
-0.368219 -18.9996 -18.9996
-0.519225 -18.9025 -18.9025
-0.522529 -18.994 -18.994
-0.680275 -19.0801 -19.0801
-0.687149 -19.2636 -19.2636
-0.377799 -19.2748 -19.2748
-0.371405 -19.0913 -19.0913
-0.683711 -19.1718 -19.1718
-0.532472 -19.2692 -19.2692
-0.374598 -19.183 -19.183
-0.525838 -19.0857 -19.0857
-0.529152 -19.1774 -19.1774
-0.687149 -19.2636 -19.2636
-0.694036 -19.4474 -19.4474
-0.384221 -19.4586 -19.4586
-0.377799 -19.2748 -19.2748
-0.690591 -19.3554 -19.3554
-0.539126 -19.4529 -19.4529
-0.381007 -19.3666 -19.3666
-0.532472 -19.2692 -19.2692
-0.535797 -19.361 -19.361
-0.694036 -19.4474 -19.4474
-0.700933 -19.6314 -19.6314
-0.390672 -19.6426 -19.6426
-0.384221 -19.4586 -19.4586
-0.697483 -19.5393 -19.5393
-0.5458 -19.637 -19.637
-0.387443 -19.5506 -19.5506
-0.539126 -19.4529 -19.4529
-0.542461 -19.5449 -19.5449
-0.700933 -19.6314 -19.6314
-0.707841 -19.8157 -19.8157
-0.397149 -19.827 -19.827
-0.390672 -19.6426 -19.6426
-0.704386 -19.7235 -19.7235
-0.552493 -19.8213 -19.8213
-0.393907 -19.7348 -19.7348
-0.5458 -19.637 -19.637
-0.549144 -19.7291 -19.7291
-0.707841 -19.8157 -19.8157
-0.71476 -20.0002 -20.0002
-0.403652 -20.0115 -20.0115
-0.397149 -19.827 -19.827
-0.711299 -19.9079 -19.9079
-0.559204 -20.0059 -20.0059
-0.400397 -19.9192 -19.9192
-0.552493 -19.8213 -19.8213
-0.555846 -19.9135 -19.9135
-0.71476 -20.0002 -20.0002
-0.721688 -20.185 -20.185
-0.410181 -20.1963 -20.1963
-0.403652 -20.0115 -20.0115
-0.718223 -20.0926 -20.0926
-0.565933 -20.1906 -20.1906
-0.406914 -20.1039 -20.1039
-0.559204 -20.0059 -20.0059
-0.562566 -20.0982 -20.0982
-0.721688 -20.185 -20.185
-0.728624 -20.37 -20.37
-0.416735 -20.3814 -20.3814
-0.410181 -20.1963 -20.1963
-0.725155 -20.2775 -20.2775
-0.572678 -20.3757 -20.3757
-0.413455 -20.2888 -20.2888
-0.565933 -20.1906 -20.1906
-0.569303 -20.2831 -20.2831
-0.728624 -20.37 -20.37
-0.735569 -20.5553 -20.5553
-0.423314 -20.5666 -20.5666
-0.416735 -20.3814 -20.3814
-0.732096 -20.4626 -20.4626
-0.57944 -20.5609 -20.5609
-0.420022 -20.474 -20.474
-0.572678 -20.3757 -20.3757
-0.576057 -20.4683 -20.4683
-0.735569 -20.5553 -20.5553
-0.742521 -20.7407 -20.7407
-0.429916 -20.7521 -20.7521
-0.423314 -20.5666 -20.5666
-0.739044 -20.648 -20.648
-0.586217 -20.7464 -20.7464
-0.426612 -20.6594 -20.6594
-0.57944 -20.5609 -20.5609
-0.582826 -20.6536 -20.6536
-0.742521 -20.7407 -20.7407
-0.74948 -20.9264 -20.9264
-0.436541 -20.9378 -20.9378
-0.429916 -20.7521 -20.7521
-0.745999 -20.8335 -20.8335
-0.593009 -20.9321 -20.9321
-0.433226 -20.8449 -20.8449
-0.586217 -20.7464 -20.7464
-0.589611 -20.8392 -20.8392
-0.74948 -20.9264 -20.9264
-0.756444 -21.1122 -21.1122
-0.443188 -21.1237 -21.1237
-0.436541 -20.9378 -20.9378
-0.752961 -21.0193 -21.0193
-0.599815 -21.1179 -21.1179
-0.439862 -21.0307 -21.0307
-0.593009 -20.9321 -20.9321
-0.59641 -21.025 -21.025
-0.756444 -21.1122 -21.1122
-0.763414 -21.2982 -21.2982
-0.449857 -21.3097 -21.3097
-0.443188 -21.1237 -21.1237
-0.759928 -21.2052 -21.2052
-0.606634 -21.304 -21.304
-0.44652 -21.2167 -21.2167
-0.599815 -21.1179 -21.1179
-0.603223 -21.2109 -21.2109
-0.763414 -21.2982 -21.2982
-0.770388 -21.4844 -21.4844
-0.456547 -21.4959 -21.4959
-0.449857 -21.3097 -21.3097
-0.766901 -21.3913 -21.3913
-0.613466 -21.4902 -21.4902
-0.4532 -21.4028 -21.4028
-0.606634 -21.304 -21.304
-0.610049 -21.397 -21.397
-0.770388 -21.4844 -21.4844
-0.777367 -21.6708 -21.6708
-0.463257 -21.6823 -21.6823
-0.456547 -21.4959 -21.4959
-0.773877 -21.5776 -21.5776
-0.620311 -21.6765 -21.6765
-0.459899 -21.5891 -21.5891
-0.613466 -21.4902 -21.4902
-0.616887 -21.5833 -21.5833
-0.777367 -21.6708 -21.6708
-0.784348 -21.8573 -21.8573
-0.469986 -21.8689 -21.8689
-0.463257 -21.6823 -21.6823
-0.780857 -21.764 -21.764
-0.627166 -21.8631 -21.8631
-0.466619 -21.7756 -21.7756
-0.620311 -21.6765 -21.6765
-0.623737 -21.7698 -21.7698
-0.784348 -21.8573 -21.8573
-0.791333 -22.044 -22.044
-0.476734 -22.0556 -22.0556
-0.469986 -21.8689 -21.8689
-0.78784 -21.9506 -21.9506
-0.634032 -22.0498 -22.0498
-0.473358 -21.9622 -21.9622
-0.627166 -21.8631 -21.8631
-0.630598 -21.9564 -21.9564
-0.791333 -22.044 -22.044
-0.798318 -22.2308 -22.2308
-0.483501 -22.2424 -22.2424
-0.476734 -22.0556 -22.0556
-0.794825 -22.1374 -22.1374
-0.640909 -22.2366 -22.2366
-0.480115 -22.1489 -22.1489
-0.634032 -22.0498 -22.0498
-0.637469 -22.1431 -22.1431
-0.798318 -22.2308 -22.2308
-0.805306 -22.4177 -22.4177
-0.490284 -22.4293 -22.4293
-0.483501 -22.2424 -22.2424
-0.801812 -22.3242 -22.3242
-0.647794 -22.4235 -22.4235
-0.48689 -22.3358 -22.3358
-0.640909 -22.2366 -22.2366
-0.64435 -22.33 -22.33
-0.805306 -22.4177 -22.4177
-0.812293 -22.6048 -22.6048
-0.497085 -22.6164 -22.6164
-0.490284 -22.4293 -22.4293
-0.808799 -22.5112 -22.5112
-0.654688 -22.6106 -22.6106
-0.493683 -22.5228 -22.5228
-0.647794 -22.4235 -22.4235
-0.65124 -22.517 -22.517
-0.812293 -22.6048 -22.6048
-0.81928 -22.7919 -22.7919
-0.503902 -22.8035 -22.8035
-0.497085 -22.6164 -22.6164
-0.815787 -22.6983 -22.6983
-0.66159 -22.7977 -22.7977
-0.500491 -22.7099 -22.7099
-0.654688 -22.6106 -22.6106
-0.658138 -22.7041 -22.7041
-0.81928 -22.7919 -22.7919
-0.826266 -22.9792 -22.9792
-0.510735 -22.9908 -22.9908
-0.503902 -22.8035 -22.8035
-0.822773 -22.8855 -22.8855
-0.6685 -22.985 -22.985
-0.507316 -22.8972 -22.8972
-0.66159 -22.7977 -22.7977
-0.665044 -22.8913 -22.8913
-0.826266 -22.9792 -22.9792
-0.833249 -23.1665 -23.1665
-0.517583 -23.1782 -23.1782
-0.510735 -22.9908 -22.9908
-0.829758 -23.0728 -23.0728
-0.675416 -23.1723 -23.1723
-0.514157 -23.0845 -23.0845
-0.6685 -22.985 -22.985
-0.671957 -23.0786 -23.0786
-0.833249 -23.1665 -23.1665
-0.84023 -23.3539 -23.3539
-0.524447 -23.3656 -23.3656
-0.517583 -23.1782 -23.1782
-0.83674 -23.2602 -23.2602
-0.682338 -23.3597 -23.3597
-0.521013 -23.2719 -23.2719
-0.675416 -23.1723 -23.1723
-0.678876 -23.266 -23.266
-0.84023 -23.3539 -23.3539
-0.847206 -23.5414 -23.5414
-0.531326 -23.5531 -23.5531
-0.524447 -23.3656 -23.3656
-0.843718 -23.4477 -23.4477
-0.689266 -23.5472 -23.5472
-0.527884 -23.4593 -23.4593
-0.682338 -23.3597 -23.3597
-0.685801 -23.4535 -23.4535
-0.847206 -23.5414 -23.5414
-0.854175 -23.729 -23.729
-0.538221 -23.7406 -23.7406
-0.531326 -23.5531 -23.5531
-0.850691 -23.6352 -23.6352
-0.696198 -23.7348 -23.7348
-0.534771 -23.6468 -23.6468
-0.689266 -23.5472 -23.5472
-0.692731 -23.641 -23.641
-0.854175 -23.729 -23.729
-0.861138 -23.9166 -23.9166
-0.545131 -23.9282 -23.9282
-0.538221 -23.7406 -23.7406
-0.857658 -23.8228 -23.8228
-0.703135 -23.9224 -23.9224
-0.541674 -23.8344 -23.8344
-0.696198 -23.7348 -23.7348
-0.699666 -23.8286 -23.8286
-0.861138 -23.9166 -23.9166
-0.868093 -24.1042 -24.1042
-0.552054 -24.1159 -24.1159
-0.545131 -23.9282 -23.9282
-0.864616 -24.0104 -24.0104
-0.710074 -24.11 -24.11
-0.548591 -24.022 -24.022
-0.703135 -23.9224 -23.9224
-0.706604 -24.0162 -24.0162
-0.868093 -24.1042 -24.1042
-0.875043 -24.2918 -24.2918
-0.558983 -24.3035 -24.3035
-0.552054 -24.1159 -24.1159
-0.871569 -24.198 -24.198
-0.717013 -24.2977 -24.2977
-0.555518 -24.2097 -24.2097
-0.710074 -24.11 -24.11
-0.713544 -24.2038 -24.2038
-0.875043 -24.2918 -24.2918
-0.881989 -24.4794 -24.4794
-0.56591 -24.4911 -24.4911
-0.558983 -24.3035 -24.3035
-0.878516 -24.3856 -24.3856
-0.723948 -24.4852 -24.4852
-0.562447 -24.3973 -24.3973
-0.717013 -24.2977 -24.2977
-0.720481 -24.3915 -24.3915
-0.881989 -24.4794 -24.4794
-0.888934 -24.6669 -24.6669
-0.57282 -24.6786 -24.6786
-0.56591 -24.4911 -24.4911
-0.885461 -24.5732 -24.5732
-0.730875 -24.6727 -24.6727
-0.569367 -24.5849 -24.5849
-0.723948 -24.4852 -24.4852
-0.727413 -24.579 -24.579
0 0 0
0.00137718 0.000221679 0.000221679
0.00423483 -0.000452174 -0.000452174
0 0 0
0.000685102 0.000454653 0.000454653
0.00279525 -3.25815e-05 -3.25815e-05
0.00205272 0.000122342 0.000122342
0 0 0
0.0013563 0.00034079 0.00034079
0.00137718 0.000221679 0.000221679
0.00287124 -0.00216462 -0.00216462
0.0087939 -0.00333815 -0.00333815
0.00423483 -0.000452174 -0.000452174
0.00211014 -0.000665985 -0.000665985
0.00580571 -0.00259245 -0.00259245
0.00648602 -0.00161953 -0.00161953
0.00279525 -3.25815e-05 -3.25815e-05
0.00428156 -0.00102138 -0.00102138
0.00287124 -0.00216462 -0.00216462
0.00441815 -0.00683995 -0.00683995
0.0135415 -0.0083229 -0.0083229
0.0087939 -0.00333815 -0.00333815
0.0036408 -0.00423167 -0.00423167
0.00894178 -0.00739015 -0.00739015
0.0111535 -0.00558177 -0.00558177
0.00580571 -0.00259245 -0.00259245
0.00736292 -0.004726 -0.004726
0.00441815 -0.00683995 -0.00683995
0.00599579 -0.013596 -0.013596
0.0183249 -0.0152212 -0.0152212
0.0135415 -0.0083229 -0.0083229
0.00520526 -0.00996726 -0.00996726
0.0121219 -0.0142062 -0.0142062
0.0159342 -0.0115381 -0.0115381
0.00894178 -0.00739015 -0.00739015
0.0105304 -0.0105544 -0.0105544
0.00599579 -0.013596 -0.013596
0.00756606 -0.0223039 -0.0223039
0.0230869 -0.0239822 -0.0239822
0.0183249 -0.0152212 -0.0152212
0.00678292 -0.0177111 -0.0177111
0.015294 -0.0229403 -0.0229403
0.0207108 -0.0193703 -0.0193703
0.0121219 -0.0142062 -0.0142062
0.013711 -0.0183373 -0.0183373
0.00756606 -0.0223039 -0.0223039
0.00912032 -0.0328978 -0.0328978
0.0277976 -0.0345862 -0.0345862
0.0230869 -0.0239822 -0.0239822
0.00834572 -0.0273677 -0.0273677
0.018433 -0.0335408 -0.0335408
0.0254491 -0.0290542 -0.0290542
0.015294 -0.0229403 -0.0229403
0.0168683 -0.028009 -0.028009
0.00912032 -0.0328978 -0.0328978
0.0106498 -0.0453431 -0.0453431
0.0324573 -0.0470301 -0.0470301
0.0277976 -0.0345862 -0.0345862
0.00988827 -0.0388903 -0.0388903
0.0215329 -0.0459878 -0.0459878
0.0301337 -0.0405784 -0.0405784
0.018433 -0.0335408 -0.0335408
0.0199879 -0.0395344 -0.0395344
0.0106498 -0.0453431 -0.0453431
0.0121554 -0.0596229 -0.0596229
0.0370672 -0.0613077 -0.0613077
0.0324573 -0.0470301 -0.0470301
0.0114056 -0.0522545 -0.0522545
0.0245944 -0.0602685 -0.0602685
0.0347682 -0.05394 -0.05394
0.0215329 -0.0459878 -0.0459878
0.0230683 -0.0528996 -0.0528996
0.0121554 -0.0596229 -0.0596229
0.0136367 -0.0757261 -0.0757261
0.0416321 -0.077413 -0.077413
0.0370672 -0.0613077 -0.0613077
0.0128991 -0.0674471 -0.0674471
0.0276198 -0.0763746 -0.0763746
0.0393551 -0.0691324 -0.0691324
0.0245944 -0.0602685 -0.0602685
0.0261114 -0.0680939 -0.0680939
0.0136367 -0.0757261 -0.0757261
0.0150946 -0.0936444 -0.0936444
0.0461542 -0.095338 -0.095338
0.0416321 -0.077413 -0.077413
0.0143686 -0.0844589 -0.0844589
0.0306112 -0.0942976 -0.0942976
0.0438984 -0.0861486 -0.0861486
0.0276198 -0.0763746 -0.0763746
0.0291196 -0.0851095 -0.0851095
0.0150946 -0.0936444 -0.0936444
0.016529 -0.113369 -0.113369
0.0506351 -0.115074 -0.115074
0.0461542 -0.095338 -0.095338
0.0158148 -0.103282 -0.103282
0.0335697 -0.114029 -0.114029
0.0483998 -0.10498 -0.10498
0.0306112 -0.0942976 -0.0942976
0.0320945 -0.103938 -0.103938
0.016529 -0.113369 -0.113369
0.0179397 -0.134893 -0.134893
0.0550751 -0.136612 -0.136612
0.0506351 -0.115074 -0.115074
0.0172373 -0.123907 -0.123907
0.0364955 -0.135561 -0.135561
0.0528602 -0.125618 -0.125618
0.0335697 -0.114029 -0.114029
0.0350367 -0.124571 -0.124571
0.0179397 -0.134893 -0.134893
0.0193259 -0.158206 -0.158206
0.0594741 -0.159942 -0.159942
0.0550751 -0.136612 -0.136612
0.0186359 -0.146326 -0.146326
0.0393884 -0.158884 -0.158884
0.0572798 -0.148054 -0.148054
0.0364955 -0.135561 -0.135561
0.0379461 -0.146999 -0.146999
0.0193259 -0.158206 -0.158206
0.0206868 -0.183299 -0.183299
0.0638313 -0.185055 -0.185055
0.0594741 -0.159942 -0.159942
0.0200096 -0.17053 -0.17053
0.0422476 -0.183988 -0.183988
0.061658 -0.172277 -0.172277
0.0393884 -0.158884 -0.158884
0.0408222 -0.171214 -0.171214
0.0206868 -0.183299 -0.183299
0.0220215 -0.210163 -0.210163
0.0681458 -0.211942 -0.211942
0.0638313 -0.185055 -0.185055
0.0213575 -0.19651 -0.19651
0.0450724 -0.210864 -0.210864
0.0659939 -0.198277 -0.198277
0.0422476 -0.183988 -0.183988
0.0436644 -0.197205 -0.197205
0.0220215 -0.210163 -0.210163
0.0233288 -0.238788 -0.238788
0.0724167 -0.240591 -0.240591
0.0681458 -0.211942 -0.211942
0.0226786 -0.224256 -0.224256
0.0478616 -0.239503 -0.239503
0.0702868 -0.226046 -0.226046
0.0450724 -0.210864 -0.210864
0.0464715 -0.224964 -0.224964
0.0233288 -0.238788 -0.238788
0.0246078 -0.269165 -0.269165
0.0766429 -0.270994 -0.270994
0.0724167 -0.240591 -0.240591
0.0239719 -0.253758 -0.253758
0.0506144 -0.269894 -0.269894
0.0745354 -0.255574 -0.255574
0.0478616 -0.239503 -0.239503
0.0492426 -0.25448 -0.25448
0.0246078 -0.269165 -0.269165
0.0258574 -0.301284 -0.301284
0.0808233 -0.303141 -0.303141
0.0766429 -0.270994 -0.270994
0.0252364 -0.285007 -0.285007
0.0533295 -0.302028 -0.302028
0.0787389 -0.28685 -0.28685
0.0506144 -0.269894 -0.269894
0.0519767 -0.285743 -0.285743
0.0258574 -0.301284 -0.301284
0.0270766 -0.335135 -0.335135
0.0849569 -0.337022 -0.337022
0.0808233 -0.303141 -0.303141
0.0264709 -0.317994 -0.317994
0.056006 -0.335895 -0.335895
0.082896 -0.319865 -0.319865
0.0533295 -0.302028 -0.302028
0.0546726 -0.318745 -0.318745
0.0270766 -0.335135 -0.335135
0.0282643 -0.370709 -0.370709
0.0890427 -0.372627 -0.372627
0.0849569 -0.337022 -0.337022
0.0276744 -0.352707 -0.352707
0.0586428 -0.371485 -0.371485
0.0870059 -0.35461 -0.35461
0.056006 -0.335895 -0.335895
0.0573294 -0.353475 -0.353475
0.0282643 -0.370709 -0.370709
0.0294194 -0.407995 -0.407995
0.0930796 -0.409947 -0.409947
0.0890427 -0.372627 -0.372627
0.0288459 -0.389139 -0.389139
0.0612389 -0.40879 -0.40879
0.0910673 -0.391074 -0.391074
0.0586428 -0.371485 -0.371485
0.059946 -0.389924 -0.389924
0.0294194 -0.407995 -0.407995
0.030541 -0.446985 -0.446985
0.0970666 -0.448972 -0.448972
0.0930796 -0.409947 -0.409947
0.0299844 -0.427278 -0.427278
0.0637933 -0.447798 -0.447798
0.0950794 -0.429247 -0.429247
0.0612389 -0.40879 -0.40879
0.0625214 -0.428081 -0.428081
0.030541 -0.446985 -0.446985
0.0316281 -0.487668 -0.487668
0.101003 -0.489692 -0.489692
0.0970666 -0.448972 -0.448972
0.0310889 -0.467116 -0.467116
0.066305 -0.4885 -0.4885
0.099041 -0.469121 -0.469121
0.0637933 -0.447798 -0.447798
0.0650546 -0.467938 -0.467938
0.0316281 -0.487668 -0.487668
0.0326797 -0.530035 -0.530035
0.104887 -0.532097 -0.532097
0.101003 -0.489692 -0.489692
0.0321584 -0.508642 -0.508642
0.068773 -0.530887 -0.530887
0.102951 -0.510684 -0.510684
0.066305 -0.4885 -0.4885
0.0675445 -0.509484 -0.509484
0.0326797 -0.530035 -0.530035
0.0336949 -0.574076 -0.574076
0.108718 -0.576178 -0.576178
0.104887 -0.532097 -0.532097
0.0331919 -0.551847 -0.551847
0.0711965 -0.574949 -0.574949
0.106809 -0.553929 -0.553929
0.068773 -0.530887 -0.530887
0.0699904 -0.552709 -0.552709
0.0336949 -0.574076 -0.574076
0.0346727 -0.619781 -0.619781
0.112496 -0.621924 -0.621924
0.108718 -0.576178 -0.576178
0.0341885 -0.596721 -0.596721
0.0735743 -0.620676 -0.620676
0.110614 -0.598843 -0.598843
0.0711965 -0.574949 -0.574949
0.0723911 -0.597605 -0.597605
0.0346727 -0.619781 -0.619781
0.0356122 -0.66714 -0.66714
0.116219 -0.669327 -0.669327
0.112496 -0.621924 -0.621924
0.0351473 -0.643254 -0.643254
0.0759057 -0.668058 -0.668058
0.114365 -0.645419 -0.645419
0.0735743 -0.620676 -0.620676
0.0747459 -0.64416 -0.64416
0.0356122 -0.66714 -0.66714
0.0365126 -0.716144 -0.716144
0.119887 -0.718375 -0.718375
0.116219 -0.669327 -0.669327
0.0360674 -0.691437 -0.691437
0.0781898 -0.717085 -0.717085
0.11806 -0.693646 -0.693646
0.0759057 -0.668058 -0.668058
0.0770537 -0.692366 -0.692366
0.0365126 -0.716144 -0.716144
0.0373729 -0.766784 -0.766784
0.123498 -0.769061 -0.769061
0.119887 -0.718375 -0.718375
0.0369478 -0.74126 -0.74126
0.0804256 -0.767749 -0.767749
0.121699 -0.743514 -0.743514
0.0781898 -0.717085 -0.717085
0.0793138 -0.742213 -0.742213
0.0373729 -0.766784 -0.766784
0.0381924 -0.819048 -0.819048
0.127052 -0.821373 -0.821373
0.123498 -0.769061 -0.769061
0.0377878 -0.792714 -0.792714
0.0826124 -0.820038 -0.820038
0.125282 -0.795014 -0.795014
0.0804256 -0.767749 -0.767749
0.0815252 -0.793691 -0.793691
0.0381924 -0.819048 -0.819048
0.0389701 -0.872929 -0.872929
0.130547 -0.875302 -0.875302
0.127052 -0.821373 -0.821373
0.0385865 -0.845787 -0.845787
0.0847492 -0.873944 -0.873944
0.128807 -0.848136 -0.848136
0.0826124 -0.820038 -0.820038
0.0836871 -0.846789 -0.846789
0.0389701 -0.872929 -0.872929
0.0397053 -0.928415 -0.928415
0.133984 -0.930838 -0.930838
0.130547 -0.875302 -0.875302
0.0393431 -0.900472 -0.900472
0.0868353 -0.929456 -0.929456
0.132273 -0.902869 -0.902869
0.0847492 -0.873944 -0.873944
0.0857986 -0.9015 -0.9015
0.0397053 -0.928415 -0.928415
0.0403971 -0.985497 -0.985497
0.137361 -0.987972 -0.987972
0.133984 -0.930838 -0.930838
0.0400567 -0.956757 -0.956757
0.0888698 -0.986565 -0.986565
0.13568 -0.959206 -0.959206
0.0868353 -0.929456 -0.929456
0.087859 -0.957811 -0.957811
0.0403971 -0.985497 -0.985497
0.0410448 -1.04417 -1.04417
0.140678 -1.04669 -1.04669
0.137361 -0.987972 -0.987972
0.0407265 -1.01463 -1.01463
0.0908521 -1.04526 -1.04526
0.139027 -1.01713 -1.01713
0.0888698 -0.986565 -0.986565
0.0898675 -1.01572 -1.01572
0.0410448 -1.04417 -1.04417
0.0416476 -1.10441 -1.10441
0.143933 -1.10699 -1.10699
0.140678 -1.04669 -1.04669
0.0413519 -1.07409 -1.07409
0.0927812 -1.10553 -1.10553
0.142313 -1.07665 -1.07665
0.0908521 -1.04526 -1.04526
0.0918233 -1.0752 -1.0752
0.0416476 -1.10441 -1.10441
0.0422048 -1.16622 -1.16622
0.147127 -1.16886 -1.16886
0.143933 -1.10699 -1.10699
0.041932 -1.13512 -1.13512
0.0946566 -1.16738 -1.16738
0.145538 -1.13773 -1.13773
0.0927812 -1.10553 -1.10553
0.0937257 -1.13626 -1.13626
0.0422048 -1.16622 -1.16622
0.0427156 -1.22959 -1.22959
0.150257 -1.23229 -1.23229
0.147127 -1.16886 -1.16886
0.0424661 -1.19772 -1.19772
0.0964774 -1.23078 -1.23078
0.1487 -1.20038 -1.20038
0.0946566 -1.16738 -1.16738
0.0955738 -1.19888 -1.19888
0.0427156 -1.22959 -1.22959
0.0431794 -1.29451 -1.29451
0.153324 -1.29726 -1.29726
0.150257 -1.23229 -1.23229
0.0429534 -1.26186 -1.26186
0.0982429 -1.29572 -1.29572
0.151799 -1.26458 -1.26458
0.0964774 -1.23078 -1.23078
0.0973671 -1.26306 -1.26306
0.0431794 -1.29451 -1.29451
0.0435954 -1.36097 -1.36097
0.156328 -1.36378 -1.36378
0.153324 -1.29726 -1.29726
0.0433934 -1.32755 -1.32755
0.0999525 -1.36221 -1.36221
0.154834 -1.33033 -1.33033
0.0982429 -1.29572 -1.29572
0.0991047 -1.32877 -1.32877
0.0435954 -1.36097 -1.36097
0.0439629 -1.42895 -1.42895
0.159266 -1.43182 -1.43182
0.156328 -1.36378 -1.36378
0.0437853 -1.39477 -1.39477
0.101605 -1.43022 -1.43022
0.157805 -1.39761 -1.39761
0.0999525 -1.36221 -1.36221
0.100786 -1.39602 -1.39602
0.0439629 -1.42895 -1.42895
0.0442814 -1.49845 -1.49845
0.162138 -1.50138 -1.50138
0.159266 -1.43182 -1.43182
0.0441284 -1.46351 -1.46351
0.103201 -1.49976 -1.49976
0.16071 -1.46641 -1.46641
0.101605 -1.43022 -1.43022
0.10241 -1.4648 -1.4648
0.0442814 -1.49845 -1.49845
0.0445502 -1.56946 -1.56946
0.164945 -1.57246 -1.57246
0.162138 -1.50138 -1.50138
0.044422 -1.53377 -1.53377
0.104739 -1.5708 -1.5708
0.16355 -1.53673 -1.53673
0.103201 -1.49976 -1.49976
0.103977 -1.53509 -1.53509
0.0445502 -1.56946 -1.56946
0.0447686 -1.64197 -1.64197
0.167685 -1.64503 -1.64503
0.164945 -1.57246 -1.57246
0.0446657 -1.60553 -1.60553
0.106218 -1.64334 -1.64334
0.166323 -1.60855 -1.60855
0.104739 -1.5708 -1.5708
0.105486 -1.60688 -1.60688
0.0447686 -1.64197 -1.64197
0.044936 -1.71597 -1.71597
0.170358 -1.71909 -1.71909
0.167685 -1.64503 -1.64503
0.0448587 -1.67879 -1.67879
0.107638 -1.71737 -1.71737
0.16903 -1.68187 -1.68187
0.106218 -1.64334 -1.64334
0.106936 -1.68017 -1.68017
0.044936 -1.71597 -1.71597
0.0450519 -1.79145 -1.79145
0.172962 -1.79463 -1.79463
0.170358 -1.71909 -1.71909
0.0450004 -1.75353 -1.75353
0.108999 -1.79288 -1.79288
0.171669 -1.75668 -1.75668
0.107638 -1.71737 -1.71737
0.108326 -1.75494 -1.75494
0.0450519 -1.79145 -1.79145
0.0451157 -1.8684 -1.8684
0.175499 -1.87165 -1.87165
0.172962 -1.79463 -1.79463
0.0450903 -1.82974 -1.82974
0.110299 -1.86987 -1.86987
0.174239 -1.83296 -1.83296
0.108999 -1.79288 -1.79288
0.109656 -1.83119 -1.83119
0.0451157 -1.8684 -1.8684
0.0451268 -1.9468 -1.9468
0.177966 -1.95012 -1.95012
0.175499 -1.87165 -1.87165
0.0451279 -1.90742 -1.90742
0.111538 -1.94831 -1.94831
0.176741 -1.9107 -1.9107
0.110299 -1.86987 -1.86987
0.110926 -1.90891 -1.90891
0.0451268 -1.9468 -1.9468
0.0450847 -2.02666 -2.02666
0.180363 -2.03005 -2.03005
0.177966 -1.95012 -1.95012
0.0451125 -1.98655 -1.98655
0.112716 -2.0282 -2.0282
0.179173 -1.98991 -1.98991
0.111538 -1.94831 -1.94831
0.112134 -1.98807 -1.98807
0.0450847 -2.02666 -2.02666
0.044989 -2.10796 -2.10796
0.182691 -2.11142 -2.11142
0.180363 -2.03005 -2.03005
0.0450436 -2.06713 -2.06713
0.113832 -2.10954 -2.10954
0.181536 -2.07055 -2.07055
0.112716 -2.0282 -2.0282
0.113281 -2.06869 -2.06869
0.044989 -2.10796 -2.10796
0.0448389 -2.19069 -2.19069
0.184948 -2.19422 -2.19422
0.182691 -2.11142 -2.11142
0.0449208 -2.14915 -2.14915
0.114885 -2.1923 -2.1923
0.183828 -2.15264 -2.15264
0.113832 -2.10954 -2.10954
0.114366 -2.15074 -2.15074
0.0448389 -2.19069 -2.19069
0.0446342 -2.27484 -2.27484
0.187134 -2.27844 -2.27844
0.184948 -2.19422 -2.19422
0.0447435 -2.23259 -2.23259
0.115876 -2.27649 -2.27649
0.18605 -2.23615 -2.23615
0.114885 -2.1923 -2.1923
0.115388 -2.23422 -2.23422
0.0446342 -2.27484 -2.27484
0.0443743 -2.36041 -2.36041
0.189248 -2.36407 -2.36407
0.187134 -2.27844 -2.27844
0.0445112 -2.31745 -2.31745
0.116803 -2.36209 -2.36209
0.1882 -2.32108 -2.32108
0.115876 -2.27649 -2.27649
0.116347 -2.31911 -2.31911
0.0443743 -2.36041 -2.36041
0.0440588 -2.44737 -2.44737
0.19129 -2.45111 -2.45111
0.189248 -2.36407 -2.36407
0.0442235 -2.40371 -2.40371
0.117666 -2.44909 -2.44909
0.190278 -2.40742 -2.40742
0.116803 -2.36209 -2.36209
0.117243 -2.40541 -2.40541
0.0440588 -2.44737 -2.44737
0.0436872 -2.53573 -2.53573
0.19326 -2.53954 -2.53954
0.19129 -2.45111 -2.45111
0.04388 -2.49138 -2.49138
0.118465 -2.53748 -2.53748
0.192284 -2.49515 -2.49515
0.117666 -2.44909 -2.44909
0.118074 -2.49311 -2.49311
0.0436872 -2.53573 -2.53573
0.0432591 -2.62547 -2.62547
0.195157 -2.62935 -2.62935
0.19326 -2.53954 -2.53954
0.0434802 -2.58042 -2.58042
0.1192 -2.62726 -2.62726
0.194217 -2.58427 -2.58427
0.118465 -2.53748 -2.53748
0.118841 -2.5822 -2.5822
0.0432591 -2.62547 -2.62547
0.0427741 -2.71658 -2.71658
0.196981 -2.72054 -2.72054
0.195157 -2.62935 -2.62935
0.0430237 -2.67085 -2.67085
0.119869 -2.71841 -2.71841
0.196078 -2.67477 -2.67477
0.1192 -2.62726 -2.62726
0.119543 -2.67266 -2.67266
0.0427741 -2.71658 -2.71658
0.0422318 -2.80905 -2.80905
0.198731 -2.81308 -2.81308
0.196981 -2.72054 -2.72054
0.0425101 -2.76264 -2.76264
0.120473 -2.81092 -2.81092
0.197865 -2.76664 -2.76664
0.119869 -2.71841 -2.71841
0.120179 -2.7645 -2.7645
0.0422318 -2.80905 -2.80905
0.0416318 -2.90288 -2.90288
0.200407 -2.90699 -2.90699
0.198731 -2.81308 -2.81308
0.0419391 -2.8558 -2.8558
0.121011 -2.90479 -2.90479
0.199578 -2.85987 -2.85987
0.120473 -2.81092 -2.81092
0.12075 -2.85769 -2.85769
0.0416318 -2.90288 -2.90288
0.0409739 -2.99805 -2.99805
0.202008 -3.00223 -3.00223
0.200407 -2.90699 -2.90699
0.0413101 -2.9503 -2.9503
0.121483 -3 -3
0.201217 -2.95444 -2.95444
0.121011 -2.90479 -2.90479
0.121255 -2.95223 -2.95223
0.0409739 -2.99805 -2.99805
0.0402575 -3.09455 -3.09455
0.203535 -3.09881 -3.09881
0.202008 -3.00223 -3.00223
0.040623 -3.04614 -3.04614
0.121888 -3.09654 -3.09654
0.202781 -3.05036 -3.05036
0.121483 -3 -3
0.121694 -3.0481 -3.0481
0.0402575 -3.09455 -3.09455
0.0394824 -3.19238 -3.19238
0.204987 -3.19672 -3.19672
0.203535 -3.09881 -3.09881
0.0398773 -3.1433 -3.1433
0.122227 -3.19441 -3.19441
0.20427 -3.1476 -3.1476
0.121888 -3.09654 -3.09654
0.122066 -3.14531 -3.14531
0.0394824 -3.19238 -3.19238
0.0386484 -3.29153 -3.29153
0.206363 -3.29594 -3.29594
0.204987 -3.19672 -3.19672
0.0390728 -3.24179 -3.24179
0.122498 -3.29359 -3.29359
0.205684 -3.24617 -3.24617
0.122227 -3.19441 -3.19441
0.122371 -3.24384 -3.24384
0.0386484 -3.29153 -3.29153
0.037755 -3.39197 -3.39197
0.207664 -3.39647 -3.39647
0.206363 -3.29594 -3.29594
0.0382091 -3.34159 -3.34159
0.122702 -3.39408 -3.39408
0.207023 -3.34604 -3.34604
0.122498 -3.29359 -3.29359
0.122608 -3.34368 -3.34368
0.037755 -3.39197 -3.39197
0.036802 -3.49372 -3.49372
0.208889 -3.49829 -3.49829
0.207664 -3.39647 -3.39647
0.037286 -3.44268 -3.44268
0.122838 -3.49586 -3.49586
0.208286 -3.44722 -3.44722
0.122702 -3.39408 -3.39408
0.122778 -3.44481 -3.44481
0.036802 -3.49372 -3.49372
0.0357892 -3.59674 -3.59674
0.210037 -3.60139 -3.60139
0.208889 -3.49829 -3.49829
0.0363031 -3.54507 -3.54507
0.122905 -3.59893 -3.59893
0.209472 -3.54968 -3.54968
0.122838 -3.49586 -3.49586
0.12288 -3.54724 -3.54724
0.0357892 -3.59674 -3.59674
0.0347162 -3.70105 -3.70105
0.211109 -3.70578 -3.70578
0.210037 -3.60139 -3.60139
0.0352602 -3.64874 -3.64874
0.122905 -3.70328 -3.70328
0.210583 -3.65343 -3.65343
0.122905 -3.59893 -3.59893
0.122914 -3.65095 -3.65095
0.0347162 -3.70105 -3.70105
0.0335829 -3.80662 -3.80662
0.212104 -3.81143 -3.81143
0.211109 -3.70578 -3.70578
0.0341571 -3.75367 -3.75367
0.122836 -3.80889 -3.80889
0.211616 -3.75844 -3.75844
0.122905 -3.70328 -3.70328
0.122879 -3.75592 -3.75592
0.0335829 -3.80662 -3.80662
0.032389 -3.91344 -3.91344
0.213023 -3.91833 -3.91833
0.212104 -3.81143 -3.81143
0.0329935 -3.85987 -3.85987
0.122698 -3.91575 -3.91575
0.212573 -3.86472 -3.86472
0.122836 -3.80889 -3.80889
0.122776 -3.86216 -3.86216
0.032389 -3.91344 -3.91344
0.0311343 -4.02151 -4.02151
0.213864 -4.02648 -4.02648
0.213023 -3.91833 -3.91833
0.0317692 -3.96732 -3.96732
0.122491 -4.02387 -4.02387
0.213453 -3.97225 -3.97225
0.122698 -3.91575 -3.91575
0.122603 -3.96965 -3.96965
0.0311343 -4.02151 -4.02151
0.0298186 -4.13082 -4.13082
0.214628 -4.13587 -4.13587
0.213864 -4.02648 -4.02648
0.030484 -4.07601 -4.07601
0.122216 -4.13321 -4.13321
0.214256 -4.08102 -4.08102
0.122491 -4.02387 -4.02387
0.122362 -4.07839 -4.07839
0.0298186 -4.13082 -4.13082
0.0284417 -4.24136 -4.24136
0.215314 -4.24649 -4.24649
0.214628 -4.13587 -4.13587
0.0291378 -4.18593 -4.18593
0.12187 -4.24379 -4.24379
0.214981 -4.19103 -4.19103
0.122216 -4.13321 -4.13321
0.122052 -4.18835 -4.18835
0.0284417 -4.24136 -4.24136
0.0270035 -4.35311 -4.35311
0.215923 -4.35832 -4.35832
0.215314 -4.24649 -4.24649
0.0277303 -4.29708 -4.29708
0.121456 -4.35558 -4.35558
0.215628 -4.30225 -4.30225
0.12187 -4.24379 -4.24379
0.121672 -4.29954 -4.29954
0.0270035 -4.35311 -4.35311
0.0255038 -4.46607 -4.46607
0.216454 -4.47136 -4.47136
0.215923 -4.35832 -4.35832
0.0262613 -4.40944 -4.40944
0.120971 -4.46859 -4.46859
0.216198 -4.41469 -4.41469
0.121456 -4.35558 -4.35558
0.121222 -4.41194 -4.41194
0.0255038 -4.46607 -4.46607
0.0239424 -4.58022 -4.58022
0.216906 -4.5856 -4.5856
0.216454 -4.47136 -4.47136
0.0247308 -4.523 -4.523
0.120417 -4.58279 -4.58279
0.21669 -4.52833 -4.52833
0.120971 -4.46859 -4.46859
0.120703 -4.52554 -4.52554
0.0239424 -4.58022 -4.58022
0.0223193 -4.69557 -4.69557
0.217281 -4.70103 -4.70103
0.216906 -4.5856 -4.5856
0.0231386 -4.63775 -4.63775
0.119793 -4.69817 -4.69817
0.217103 -4.64317 -4.64317
0.120417 -4.58279 -4.58279
0.120113 -4.64033 -4.64033
0.0223193 -4.69557 -4.69557
0.0206343 -4.81209 -4.81209
0.217577 -4.81764 -4.81764
0.217281 -4.70103 -4.70103
0.0214846 -4.75369 -4.75369
0.119098 -4.81474 -4.81474
0.217439 -4.75919 -4.75919
0.119793 -4.69817 -4.69817
0.119454 -4.75631 -4.75631
0.0206343 -4.81209 -4.81209
0.0188873 -4.92979 -4.92979
0.217795 -4.93541 -4.93541
0.217577 -4.81764 -4.81764
0.0197686 -4.87079 -4.87079
0.118334 -4.93247 -4.93247
0.217696 -4.87638 -4.87638
0.119098 -4.81474 -4.81474
0.118725 -4.87346 -4.87346
0.0188873 -4.92979 -4.92979
0.0170783 -5.04864 -5.04864
0.217935 -5.05434 -5.05434
0.217795 -4.93541 -4.93541
0.0179906 -4.98907 -4.98907
0.117499 -5.05137 -5.05137
0.217875 -4.99473 -4.99473
0.118334 -4.93247 -4.93247
0.117925 -4.99178 -4.99178
0.0170783 -5.04864 -5.04864
0.0152071 -5.16864 -5.16864
0.217996 -5.17443 -5.17443
0.217935 -5.05434 -5.05434
0.0161505 -5.1085 -5.1085
0.116594 -5.17141 -5.17141
0.217975 -5.11424 -5.11424
0.117499 -5.05137 -5.05137
0.117055 -5.11125 -5.11125
0.0152071 -5.16864 -5.16864
0.0132738 -5.28978 -5.28978
0.217979 -5.29565 -5.29565
0.217996 -5.17443 -5.17443
0.0142482 -5.22907 -5.22907
0.115619 -5.29259 -5.29259
0.217997 -5.2349 -5.2349
0.116594 -5.17141 -5.17141
0.116115 -5.23186 -5.23186
0.0132738 -5.28978 -5.28978
0.0112782 -5.41205 -5.41205
0.217883 -5.418 -5.418
0.217979 -5.29565 -5.29565
0.0122837 -5.35077 -5.35077
0.114573 -5.41491 -5.41491
0.217941 -5.35669 -5.35669
0.115619 -5.29259 -5.29259
0.115105 -5.35361 -5.35361
0.0112782 -5.41205 -5.41205
0.00922027 -5.53544 -5.53544
0.217708 -5.54148 -5.54148
0.217883 -5.418 -5.418
0.010257 -5.47361 -5.47361
0.113457 -5.53834 -5.53834
0.217805 -5.4796 -5.4796
0.114573 -5.41491 -5.41491
0.114024 -5.47648 -5.47648
0.00922027 -5.53544 -5.53544
0.00710008 -5.65994 -5.65994
0.217455 -5.66606 -5.66606
0.217708 -5.54148 -5.54148
0.00816796 -5.59755 -5.59755
0.11227 -5.66288 -5.66288
0.217591 -5.60363 -5.60363
0.113457 -5.53834 -5.53834
0.112872 -5.60047 -5.60047
0.00710008 -5.65994 -5.65994
0.00491758 -5.78554 -5.78554
0.217123 -5.79175 -5.79175
0.217455 -5.66606 -5.66606
0.00601661 -5.7226 -5.7226
0.111013 -5.78853 -5.78853
0.217299 -5.72877 -5.72877
0.11227 -5.66288 -5.66288
0.11165 -5.72557 -5.72557
0.00491758 -5.78554 -5.78554
0.00267277 -5.91223 -5.91223
0.216712 -5.91852 -5.91852
0.217123 -5.79175 -5.79175
0.00380296 -5.84875 -5.84875
0.109685 -5.91526 -5.91526
0.216927 -5.855 -5.855
0.111013 -5.78853 -5.78853
0.110358 -5.85176 -5.85176
0.00267277 -5.91223 -5.91223
0.000365684 -6.04001 -6.04001
0.216223 -6.04638 -6.04638
0.216712 -5.91852 -5.91852
0.00152701 -5.97599 -5.97599
0.108287 -6.04308 -6.04308
0.216478 -5.98232 -5.98232
0.109685 -5.91526 -5.91526
0.108995 -5.97904 -5.97904
0.000365684 -6.04001 -6.04001
-0.00200366 -6.16885 -6.16885
0.215655 -6.17531 -6.17531
0.216223 -6.04638 -6.04638
-0.00081121 -6.1043 -6.1043
0.106818 -6.17197 -6.17197
0.215949 -6.11071 -6.11071
0.108287 -6.04308 -6.04308
0.107561 -6.10739 -6.10739
-0.00200366 -6.16885 -6.16885
-0.00443523 -6.29876 -6.29876
0.215009 -6.3053 -6.3053
0.215655 -6.17531 -6.17531
-0.00321167 -6.23368 -6.23368
0.105279 -6.30192 -6.30192
0.215342 -6.24017 -6.24017
0.106818 -6.17197 -6.17197
0.106058 -6.23681 -6.23681
-0.00443523 -6.29876 -6.29876
-0.00692896 -6.42972 -6.42972
0.214284 -6.43634 -6.43634
0.215009 -6.3053 -6.3053
-0.00567433 -6.36411 -6.36411
0.10367 -6.43292 -6.43292
0.214656 -6.37069 -6.37069
0.105279 -6.30192 -6.30192
0.104483 -6.36729 -6.36729
-0.00692896 -6.42972 -6.42972
-0.00948479 -6.56173 -6.56173
0.213481 -6.56843 -6.56843
0.214284 -6.43634 -6.43634
-0.00819911 -6.49559 -6.49559
0.10199 -6.56496 -6.56496
0.213892 -6.50225 -6.50225
0.10367 -6.43292 -6.43292
0.102839 -6.49881 -6.49881
-0.00948479 -6.56173 -6.56173
-0.0121026 -6.69476 -6.69476
0.212599 -6.70154 -6.70154
0.213481 -6.56843 -6.56843
-0.010786 -6.62811 -6.62811
0.100241 -6.69804 -6.69804
0.21305 -6.63486 -6.63486
0.10199 -6.56496 -6.56496
0.101124 -6.63138 -6.63138
-0.0121026 -6.69476 -6.69476
-0.0147824 -6.82882 -6.82882
0.211639 -6.83568 -6.83568
0.212599 -6.70154 -6.70154
-0.0134348 -6.76166 -6.76166
0.0984207 -6.83214 -6.83214
0.212129 -6.76849 -6.76849
0.100241 -6.69804 -6.69804
0.0993394 -6.76497 -6.76497
-0.0147824 -6.82882 -6.82882
-0.017524 -6.96389 -6.96389
0.210601 -6.97084 -6.97084
0.211639 -6.83568 -6.83568
-0.0161455 -6.89623 -6.89623
0.0965308 -6.96726 -6.96726
0.21113 -6.90314 -6.90314
0.0984207 -6.83214 -6.83214
0.0974845 -6.89957 -6.89957
-0.017524 -6.96389 -6.96389
-0.0203274 -7.09997 -7.09997
0.209485 -7.107 -7.107
0.210601 -6.97084 -6.97084
-0.018918 -7.0318 -7.0318
0.0945711 -7.10338 -7.10338
0.210053 -7.03879 -7.03879
0.0965308 -6.96726 -6.96726
0.0955597 -7.03519 -7.03519
-0.0203274 -7.09997 -7.09997
-0.0231923 -7.23704 -7.23704
0.208291 -7.24415 -7.24415
0.209485 -7.107 -7.107
-0.0217521 -7.16838 -7.16838
0.0925415 -7.24049 -7.24049
0.208897 -7.17545 -7.17545
0.0945711 -7.10338 -7.10338
0.093565 -7.17181 -7.17181
-0.0231923 -7.23704 -7.23704
-0.0261187 -7.37509 -7.37509
0.207019 -7.38228 -7.38228
0.208291 -7.24415 -7.24415
-0.0246478 -7.30594 -7.30594
0.0904423 -7.37858 -7.37858
0.207664 -7.31309 -7.31309
0.0925415 -7.24049 -7.24049
0.0915006 -7.30941 -7.30941
-0.0261187 -7.37509 -7.37509
-0.0291064 -7.51412 -7.51412
0.205669 -7.5214 -7.5214
0.207019 -7.38228 -7.38228
-0.0276049 -7.44449 -7.44449
0.0882737 -7.51765 -7.51765
0.206353 -7.45172 -7.45172
0.0904423 -7.37858 -7.37858
0.0893667 -7.448 -7.448
-0.0291064 -7.51412 -7.51412
-0.0321552 -7.65412 -7.65412
0.204242 -7.66147 -7.66147
0.205669 -7.5214 -7.5214
-0.0306232 -7.584 -7.584
0.0860357 -7.65769 -7.65769
0.204965 -7.59131 -7.59131
0.0882737 -7.51765 -7.51765
0.0871633 -7.58755 -7.58755
-0.0321552 -7.65412 -7.65412
-0.035265 -7.79507 -7.79507
0.202738 -7.8025 -7.8025
0.204242 -7.66147 -7.66147
-0.0337025 -7.72447 -7.72447
0.0837286 -7.79868 -7.79868
0.203499 -7.73187 -7.73187
0.0860357 -7.65769 -7.65769
0.0848908 -7.72807 -7.72807
-0.035265 -7.79507 -7.79507
-0.0384357 -7.93696 -7.93696
0.201156 -7.94448 -7.94448
0.202738 -7.8025 -7.8025
-0.0368428 -7.8659 -7.8659
0.0813524 -7.94062 -7.94062
0.201956 -7.87337 -7.87337
0.0837286 -7.79868 -7.79868
0.0825491 -7.86953 -7.86953
-0.0384357 -7.93696 -7.93696
-0.041667 -8.07979 -8.07979
0.199497 -8.08739 -8.08739
0.201156 -7.94448 -7.94448
-0.0400438 -8.00826 -8.00826
0.0789076 -8.08349 -8.08349
0.200336 -8.01582 -8.01582
0.0813524 -7.94062 -7.94062
0.0801386 -8.01194 -8.01194
-0.041667 -8.07979 -8.07979
-0.0449586 -8.22355 -8.22355
0.197762 -8.23122 -8.23122
0.199497 -8.08739 -8.08739
-0.0433053 -8.15156 -8.15156
0.0763941 -8.22729 -8.22729
0.198639 -8.15919 -8.15919
0.0789076 -8.08349 -8.08349
0.0776594 -8.15527 -8.15527
-0.0449586 -8.22355 -8.22355
-0.0483105 -8.36822 -8.36822
0.19595 -8.37598 -8.37598
0.197762 -8.23122 -8.23122
-0.0466271 -8.29577 -8.29577
0.0738122 -8.372 -8.372
0.196866 -8.30349 -8.30349
0.0763941 -8.22729 -8.22729
0.0751117 -8.29953 -8.29953
-0.0483105 -8.36822 -8.36822
-0.0517224 -8.51381 -8.51381
0.194062 -8.52164 -8.52164
0.19595 -8.37598 -8.37598
-0.050009 -8.4409 -8.4409
0.0711622 -8.51763 -8.51763
0.195016 -8.4487 -8.4487
0.0738122 -8.372 -8.372
0.0724957 -8.4447 -8.4447
-0.0517224 -8.51381 -8.51381
-0.055194 -8.66028 -8.66028
0.192098 -8.6682 -8.6682
0.194062 -8.52164 -8.52164
-0.0534507 -8.58693 -8.58693
0.0684443 -8.66414 -8.66414
0.19309 -8.59481 -8.59481
0.0711622 -8.51763 -8.51763
0.0698117 -8.59077 -8.59077
-0.055194 -8.66028 -8.66028
-0.0587251 -8.80765 -8.80765
0.190058 -8.81564 -8.81564
0.192098 -8.6682 -8.6682
-0.0569521 -8.73386 -8.73386
0.0656587 -8.81155 -8.81155
0.191088 -8.74181 -8.74181
0.0684443 -8.66414 -8.66414
0.06706 -8.73774 -8.73774
-0.0587251 -8.80765 -8.80765
-0.0623155 -8.95589 -8.95589
0.187943 -8.96396 -8.96396
0.190058 -8.81564 -8.81564
-0.0605129 -8.88166 -8.88166
0.0628057 -8.95983 -8.95983
0.18901 -8.88969 -8.88969
0.0656587 -8.81155 -8.81155
0.0642407 -8.88558 -8.88558
-0.0623155 -8.95589 -8.95589
-0.0659648 -9.10501 -9.10501
0.185752 -9.11315 -9.11315
0.187943 -8.96396 -8.96396
-0.0641328 -9.03034 -9.03034
0.0598856 -9.10898 -9.10898
0.186857 -9.03845 -9.03845
0.0628057 -8.95983 -8.95983
0.061354 -9.0343 -9.0343
-0.0659648 -9.10501 -9.10501
-0.0696729 -9.25498 -9.25498
0.183486 -9.2632 -9.2632
0.185752 -9.11315 -9.11315
-0.0678115 -9.17988 -9.17988
0.0568986 -9.25899 -9.25899
0.184628 -9.18807 -9.18807
0.0598856 -9.10898 -9.10898
0.0584004 -9.18388 -9.18388
-0.0696729 -9.25498 -9.25498
-0.0734394 -9.4058 -9.4058
0.181145 -9.41409 -9.41409
0.183486 -9.2632 -9.2632
-0.0715489 -9.33028 -9.33028
0.0538449 -9.40985 -9.40985
0.182325 -9.33854 -9.33854
0.0568986 -9.25899 -9.25899
0.0553801 -9.33432 -9.33432
-0.0734394 -9.4058 -9.4058
-0.077264 -9.55745 -9.55745
0.17873 -9.56583 -9.56583
0.181145 -9.41409 -9.41409
-0.0753445 -9.48152 -9.48152
0.050725 -9.56155 -9.56155
0.179947 -9.48986 -9.48986
0.0538449 -9.40985 -9.40985
0.0522932 -9.4856 -9.4856
-0.077264 -9.55745 -9.55745
-0.0811465 -9.70994 -9.70994
0.176241 -9.71839 -9.71839
0.17873 -9.56583 -9.56583
-0.0791981 -9.63359 -9.63359
0.0475391 -9.71408 -9.71408
0.177495 -9.64201 -9.64201
0.050725 -9.56155 -9.56155
0.0491403 -9.63771 -9.63771
-0.0811465 -9.70994 -9.70994
-0.0850866 -9.86325 -9.86325
0.173678 -9.87177 -9.87177
0.176241 -9.71839 -9.71839
-0.0831094 -9.78649 -9.78649
0.0442875 -9.86742 -9.86742
0.174968 -9.79498 -9.79498
0.0475391 -9.71408 -9.71408
0.0459215 -9.79065 -9.79065
-0.0850866 -9.86325 -9.86325
-0.0890838 -10.0174 -10.0174
0.171041 -10.026 -10.026
0.173678 -9.87177 -9.87177
-0.087078 -9.94021 -9.94021
0.0409705 -10.0216 -10.0216
0.172368 -9.94877 -9.94877
0.0442875 -9.86742 -9.86742
0.0426371 -9.9444 -9.9444
-0.0890838 -10.0174 -10.0174
-0.0931379 -10.1723 -10.1723
0.168331 -10.181 -10.181
0.171041 -10.026 -10.026
-0.0911037 -10.0947 -10.0947
0.0375884 -10.1765 -10.1765
0.169695 -10.1034 -10.1034
0.0409705 -10.0216 -10.0216
0.0392876 -10.099 -10.099
-0.0931379 -10.1723 -10.1723
-0.0972485 -10.328 -10.328
0.165548 -10.3367 -10.3367
0.168331 -10.181 -10.181
-0.0951862 -10.25 -10.25
0.0341417 -10.3323 -10.3323
0.166949 -10.2587 -10.2587
0.0375884 -10.1765 -10.1765
0.0358731 -10.2543 -10.2543
-0.0972485 -10.328 -10.328
-0.101415 -10.4845 -10.4845
0.162693 -10.4933 -10.4933
0.165548 -10.3367 -10.3367
-0.0993249 -10.4061 -10.4061
0.0306307 -10.4888 -10.4888
0.16413 -10.4149 -10.4149
0.0341417 -10.3323 -10.3323
0.0323942 -10.4104 -10.4104
-0.101415 -10.4845 -10.4845
-0.105638 -10.6417 -10.6417
0.159766 -10.6506 -10.6506
0.162693 -10.4933 -10.4933
-0.10352 -10.563 -10.563
0.0270556 -10.6461 -10.6461
0.161238 -10.5719 -10.5719
0.0306307 -10.4888 -10.4888
0.0288511 -10.5674 -10.5674
-0.105638 -10.6417 -10.6417
-0.109916 -10.7998 -10.7998
0.156767 -10.8087 -10.8087
0.159766 -10.6506 -10.6506
-0.10777 -10.7207 -10.7207
0.0234169 -10.8042 -10.8042
0.158275 -10.7296 -10.7296
0.0270556 -10.6461 -10.6461
0.0252442 -10.725 -10.725
-0.109916 -10.7998 -10.7998
-0.114249 -10.9585 -10.9585
0.153696 -10.9676 -10.9676
0.156767 -10.8087 -10.8087
-0.112076 -10.8791 -10.8791
0.019715 -10.963 -10.963
0.15524 -10.8881 -10.8881
0.0234169 -10.8042 -10.8042
0.0215738 -10.8835 -10.8835
-0.114249 -10.9585 -10.9585
-0.118637 -11.1181 -11.1181
0.150554 -11.1272 -11.1272
0.153696 -10.9676 -10.9676
-0.116436 -11.0382 -11.0382
0.0159502 -11.1225 -11.1225
0.152134 -11.0473 -11.0473
0.019715 -10.963 -10.963
0.0178404 -11.0427 -11.0427
-0.118637 -11.1181 -11.1181
-0.12308 -11.2783 -11.2783
0.147342 -11.2875 -11.2875
0.150554 -11.1272 -11.1272
-0.120852 -11.1981 -11.1981
0.0121229 -11.2828 -11.2828
0.148957 -11.2072 -11.2072
0.0159502 -11.1225 -11.1225
0.0140443 -11.2026 -11.2026
-0.12308 -11.2783 -11.2783
-0.127576 -11.4393 -11.4393
0.14406 -11.4485 -11.4485
0.147342 -11.2875 -11.2875
-0.125321 -11.3587 -11.3587
0.00823357 -11.4438 -11.4438
0.14571 -11.3679 -11.3679
0.0121229 -11.2828 -11.2828
0.010186 -11.3632 -11.3632
-0.127576 -11.4393 -11.4393
-0.132125 -11.601 -11.601
0.140707 -11.6103 -11.6103
0.14406 -11.4485 -11.4485
-0.129844 -11.52 -11.52
0.00428257 -11.6056 -11.6056
0.142392 -11.5293 -11.5293
0.00823357 -11.4438 -11.4438
0.00626575 -11.5246 -11.5246
-0.132125 -11.601 -11.601
-0.136728 -11.7634 -11.7634
0.137286 -11.7727 -11.7727
0.140707 -11.6103 -11.6103
-0.13442 -11.6821 -11.6821
0.000270321 -11.768 -11.768
0.139005 -11.6914 -11.6914
0.00428257 -11.6056 -11.6056
0.00228407 -11.6867 -11.6867
-0.136728 -11.7634 -11.7634
-0.141383 -11.9264 -11.9264
0.133795 -11.9359 -11.9359
0.137286 -11.7727 -11.7727
-0.139049 -11.8448 -11.8448
-0.00380275 -11.9311 -11.9311
0.135549 -11.8542 -11.8542
0.000270321 -11.768 -11.768
-0.00175864 -11.8494 -11.8494
-0.141383 -11.9264 -11.9264
-0.146091 -12.0902 -12.0902
0.130236 -12.0997 -12.0997
0.133795 -11.9359 -11.9359
-0.143731 -12.0082 -12.0082
-0.0079362 -12.0949 -12.0949
0.132024 -12.0177 -12.0177
-0.00380275 -11.9311 -11.9311
-0.00586196 -12.0129 -12.0129
-0.146091 -12.0902 -12.0902
-0.150851 -12.2547 -12.2547
0.126609 -12.2642 -12.2642
0.130236 -12.0997 -12.0997
-0.148464 -12.1724 -12.1724
-0.0121296 -12.2594 -12.2594
0.128431 -12.1819 -12.1819
-0.0079362 -12.0949 -12.0949
-0.0100254 -12.1771 -12.1771
-0.150851 -12.2547 -12.2547
-0.155661 -12.4198 -12.4198
0.122914 -12.4294 -12.4294
0.126609 -12.2642 -12.2642
-0.15325 -12.3371 -12.3371
-0.0163825 -12.4245 -12.4245
0.12477 -12.3467 -12.3467
-0.0121296 -12.2594 -12.2594
-0.0142486 -12.3419 -12.3419
-0.155661 -12.4198 -12.4198
-0.160523 -12.5855 -12.5855
0.119152 -12.5952 -12.5952
0.122914 -12.4294 -12.4294
-0.158086 -12.5026 -12.5026
-0.0206944 -12.5903 -12.5903
0.121041 -12.5122 -12.5122
-0.0163825 -12.4245 -12.4245
-0.0185311 -12.5073 -12.5073
-0.160523 -12.5855 -12.5855
-0.165435 -12.7519 -12.7519
0.115323 -12.7617 -12.7617
0.119152 -12.5952 -12.5952
-0.162973 -12.6687 -12.6687
-0.025065 -12.7568 -12.7568
0.117246 -12.6784 -12.6784
-0.0206944 -12.5903 -12.5903
-0.0228724 -12.6735 -12.6735
-0.165435 -12.7519 -12.7519
-0.170397 -12.919 -12.919
0.111428 -12.9288 -12.9288
0.115323 -12.7617 -12.7617
-0.16791 -12.8354 -12.8354
-0.0294936 -12.9238 -12.9238
0.113384 -12.8452 -12.8452
-0.025065 -12.7568 -12.7568
-0.0272721 -12.8402 -12.8402
-0.170397 -12.919 -12.919
-0.175409 -13.0867 -13.0867
0.107467 -13.0965 -13.0965
0.111428 -12.9288 -12.9288
-0.172897 -13.0027 -13.0027
-0.0339799 -13.0915 -13.0915
0.109456 -13.0126 -13.0126
-0.0294936 -12.9238 -12.9238
-0.0317296 -13.0076 -13.0076
-0.175409 -13.0867 -13.0867
-0.180469 -13.255 -13.255
0.103441 -13.2649 -13.2649
0.107467 -13.0965 -13.0965
-0.177933 -13.1707 -13.1707
-0.0385233 -13.2599 -13.2599
0.105462 -13.1806 -13.1806
-0.0339799 -13.0915 -13.0915
-0.0362444 -13.1756 -13.1756
-0.180469 -13.255 -13.255
-0.185578 -13.4238 -13.4238
0.0993498 -13.4339 -13.4339
0.103441 -13.2649 -13.2649
-0.183018 -13.3393 -13.3393
-0.0431233 -13.4288 -13.4288
0.101403 -13.3493 -13.3493
-0.0385233 -13.2599 -13.2599
-0.0408162 -13.3442 -13.3442
-0.185578 -13.4238 -13.4238
-0.190735 -13.5933 -13.5933
0.0951946 -13.6034 -13.6034
0.0993498 -13.4339 -13.4339
-0.188151 -13.5085 -13.5085
-0.0477795 -13.5983 -13.5983
0.0972802 -13.5186 -13.5186
-0.0431233 -13.4288 -13.4288
-0.0454444 -13.5135 -13.5135
-0.190735 -13.5933 -13.5933
-0.19594 -13.7634 -13.7634
0.0909755 -13.7735 -13.7735
0.0951946 -13.6034 -13.6034
-0.193332 -13.6783 -13.6783
-0.0524914 -13.7684 -13.7684
0.093093 -13.6884 -13.6884
-0.0477795 -13.5983 -13.5983
-0.0501285 -13.6833 -13.6833
-0.19594 -13.7634 -13.7634
-0.201191 -13.9341 -13.9341
0.0866932 -13.9443 -13.9443
0.0909755 -13.7735 -13.7735
-0.19856 -13.8487 -13.8487
-0.0572583 -13.9391 -13.9391
0.0888422 -13.8588 -13.8588
-0.0524914 -13.7684 -13.7684
-0.054868 -13.8537 -13.8537
-0.201191 -13.9341 -13.9341
-0.206489 -14.1053 -14.1053
0.0823481 -14.1155 -14.1155
0.0866932 -13.9443 -13.9443
-0.203835 -14.0196 -14.0196
-0.0620799 -14.1104 -14.1104
0.0845284 -14.0298 -14.0298
-0.0572583 -13.9391 -13.9391
-0.0596623 -14.0247 -14.0247
-0.206489 -14.1053 -14.1053
-0.211833 -14.2771 -14.2771
0.0779407 -14.2874 -14.2874
0.0823481 -14.1155 -14.1155
-0.209156 -14.1911 -14.1911
-0.0669556 -14.2822 -14.2822
0.0801522 -14.2014 -14.2014
-0.0620799 -14.1104 -14.1104
-0.064511 -14.1962 -14.1962
-0.211833 -14.2771 -14.2771
-0.217223 -14.4494 -14.4494
0.0734717 -14.4598 -14.4598
0.0779407 -14.2874 -14.2874
-0.214522 -14.3632 -14.3632
-0.0718848 -14.4545 -14.4545
0.0757139 -14.3735 -14.3735
-0.0669556 -14.2822 -14.2822
-0.0694136 -14.3683 -14.3683
-0.217223 -14.4494 -14.4494
-0.222657 -14.6223 -14.6223
0.0689415 -14.6327 -14.6327
0.0734717 -14.4598 -14.4598
-0.219934 -14.5358 -14.5358
-0.0768671 -14.6274 -14.6274
0.0712142 -14.5462 -14.5462
-0.0718848 -14.4545 -14.4545
-0.0743694 -14.5409 -14.5409
-0.222657 -14.6223 -14.6223
-0.228135 -14.7957 -14.7957
0.0643507 -14.8062 -14.8062
0.0689415 -14.6327 -14.6327
-0.225391 -14.7089 -14.7089
-0.0819018 -14.8009 -14.8009
0.0666537 -14.7194 -14.7194
-0.0768671 -14.6274 -14.6274
-0.0793779 -14.7141 -14.7141
-0.228135 -14.7957 -14.7957
-0.233658 -14.9696 -14.9696
0.0596998 -14.9801 -14.9801
0.0643507 -14.8062 -14.8062
-0.230891 -14.8826 -14.8826
-0.0869885 -14.9748 -14.9748
0.0620328 -14.8931 -14.8931
-0.0819018 -14.8009 -14.8009
-0.0844387 -14.8878 -14.8878
-0.233658 -14.9696 -14.9696
-0.239223 -15.1441 -15.1441
0.0549895 -15.1546 -15.1546
0.0596998 -14.9801 -14.9801
-0.236435 -15.0568 -15.0568
-0.0921265 -15.1493 -15.1493
0.0573521 -15.0673 -15.0673
-0.0869885 -14.9748 -14.9748
-0.0895511 -15.062 -15.062
-0.239223 -15.1441 -15.1441
-0.244831 -15.319 -15.319
0.0502201 -15.3296 -15.3296
0.0549895 -15.1546 -15.1546
-0.242022 -15.2315 -15.2315
-0.0973153 -15.3243 -15.3243
0.0526121 -15.2421 -15.2421
-0.0921265 -15.1493 -15.1493
-0.0947146 -15.2367 -15.2367
-0.244831 -15.319 -15.319
-0.250482 -15.4944 -15.4944
0.0453924 -15.5051 -15.5051
0.0502201 -15.3296 -15.3296
-0.247651 -15.4067 -15.4067
-0.102554 -15.4997 -15.4997
0.0478135 -15.4173 -15.4173
-0.0973153 -15.3243 -15.3243
-0.0999286 -15.4119 -15.4119
-0.250482 -15.4944 -15.4944
-0.256173 -15.6703 -15.6703
0.0405069 -15.681 -15.681
0.0453924 -15.5051 -15.5051
-0.253322 -15.5823 -15.5823
-0.107843 -15.6756 -15.6756
0.0429569 -15.593 -15.593
-0.102554 -15.4997 -15.4997
-0.105193 -15.5876 -15.5876
-0.256173 -15.6703 -15.6703
-0.261906 -15.8467 -15.8467
0.0355642 -15.8575 -15.8575
0.0405069 -15.681 -15.681
-0.259035 -15.7585 -15.7585
-0.113181 -15.852 -15.852
0.0380427 -15.7692 -15.7692
-0.107843 -15.6756 -15.6756
-0.110506 -15.7638 -15.7638
-0.261906 -15.8467 -15.8467
-0.267679 -16.0236 -16.0236
0.0305648 -16.0344 -16.0344
0.0355642 -15.8575 -15.8575
-0.264788 -15.9351 -15.9351
-0.118567 -16.0289 -16.0289
0.0330715 -15.9459 -15.9459
-0.113181 -15.852 -15.852
-0.115868 -15.9404 -15.9404
-0.267679 -16.0236 -16.0236
-0.273492 -16.2009 -16.2009
0.0255094 -16.2117 -16.2117
0.0305648 -16.0344 -16.0344
-0.270581 -16.1122 -16.1122
-0.124001 -16.2062 -16.2062
0.0280441 -16.123 -16.123
-0.118567 -16.0289 -16.0289
-0.121278 -16.1175 -16.1175
-0.273492 -16.2009 -16.2009
-0.279344 -16.3786 -16.3786
0.0203985 -16.3895 -16.3895
0.0255094 -16.2117 -16.2117
-0.276413 -16.2897 -16.2897
-0.129483 -16.384 -16.384
0.0229609 -16.3005 -16.3005
-0.124001 -16.2062 -16.2062
-0.126736 -16.2951 -16.2951
-0.279344 -16.3786 -16.3786
-0.285235 -16.5568 -16.5568
0.0152328 -16.5677 -16.5677
0.0203985 -16.3895 -16.3895
-0.282284 -16.4676 -16.4676
-0.135011 -16.5622 -16.5622
0.0178225 -16.4785 -16.4785
-0.129483 -16.384 -16.384
-0.132241 -16.473 -16.473
-0.285235 -16.5568 -16.5568
-0.291163 -16.7354 -16.7354
0.0100128 -16.7463 -16.7463
0.0152328 -16.5677 -16.5677
-0.288194 -16.646 -16.646
-0.140585 -16.7408 -16.7408
0.0126296 -16.657 -16.657
-0.135011 -16.5622 -16.5622
-0.137792 -16.6514 -16.6514
-0.291163 -16.7354 -16.7354
-0.297129 -16.9144 -16.9144
0.00473923 -16.9254 -16.9254
0.0100128 -16.7463 -16.7463
-0.294141 -16.8248 -16.8248
-0.146205 -16.9198 -16.9198
0.0073827 -16.8358 -16.8358
-0.140585 -16.7408 -16.7408
-0.14339 -16.8303 -16.8303
-0.297129 -16.9144 -16.9144
-0.303132 -17.0938 -17.0938
-0.000587396 -17.1048 -17.1048
0.00473923 -16.9254 -16.9254
-0.300126 -17.004 -17.004
-0.15187 -17.0993 -17.0993
0.00208251 -17.0151 -17.0151
-0.146205 -16.9198 -16.9198
-0.149032 -17.0095 -17.0095
-0.303132 -17.0938 -17.0938
-0.30917 -17.2736 -17.2736
-0.00596643 -17.2847 -17.2847
-0.000587396 -17.1048 -17.1048
-0.306146 -17.1837 -17.1837
-0.157579 -17.2791 -17.2791
-0.0032704 -17.1947 -17.1947
-0.15187 -17.0993 -17.0993
-0.154719 -17.1891 -17.1891
-0.30917 -17.2736 -17.2736
-0.315245 -17.4538 -17.4538
-0.0113972 -17.4649 -17.4649
-0.00596643 -17.2847 -17.2847
-0.312203 -17.3637 -17.3637
-0.163331 -17.4593 -17.4593
-0.0086754 -17.3747 -17.3747
-0.157579 -17.2791 -17.2791
-0.16045 -17.3692 -17.3692
-0.315245 -17.4538 -17.4538
-0.321354 -17.6344 -17.6344
-0.0168792 -17.6455 -17.6455
-0.0113972 -17.4649 -17.4649
-0.318295 -17.544 -17.544
-0.169127 -17.6399 -17.6399
-0.0141319 -17.5552 -17.5552
-0.163331 -17.4593 -17.4593
-0.166224 -17.5496 -17.5496
-0.321354 -17.6344 -17.6344
-0.327497 -17.8153 -17.8153
-0.0224117 -17.8265 -17.8265
-0.0168792 -17.6455 -17.6455
-0.324421 -17.7248 -17.7248
-0.174965 -17.8209 -17.8209
-0.0196392 -17.736 -17.736
-0.169127 -17.6399 -17.6399
-0.172041 -17.7303 -17.7303
-0.327497 -17.8153 -17.8153
-0.333674 -17.9966 -17.9966
-0.027994 -18.0078 -18.0078
-0.0224117 -17.8265 -17.8265
-0.330581 -17.9059 -17.9059
-0.180845 -18.0022 -18.0022
-0.0251967 -17.9171 -17.9171
-0.174965 -17.8209 -17.8209
-0.1779 -17.9115 -17.9115
-0.333674 -17.9966 -17.9966
-0.339884 -18.1782 -18.1782
-0.0336256 -18.1895 -18.1895
-0.027994 -18.0078 -18.0078
-0.336775 -18.0874 -18.0874
-0.186765 -18.1838 -18.1838
-0.0308037 -18.0986 -18.0986
-0.180845 -18.0022 -18.0022
-0.1838 -18.0929 -18.0929
-0.339884 -18.1782 -18.1782
-0.346126 -18.3602 -18.3602
-0.0393058 -18.3715 -18.3715
-0.0336256 -18.1895 -18.1895
-0.343001 -18.2692 -18.2692
-0.192727 -18.3658 -18.3658
-0.0364597 -18.2804 -18.2804
-0.186765 -18.1838 -18.1838
-0.189741 -18.2748 -18.2748
-0.346126 -18.3602 -18.3602
-0.3524 -18.5425 -18.5425
-0.045034 -18.5538 -18.5538
-0.0393058 -18.3715 -18.3715
-0.349259 -18.4513 -18.4513
-0.198728 -18.5481 -18.5481
-0.0421639 -18.4626 -18.4626
-0.192727 -18.3658 -18.3658
-0.195722 -18.4569 -18.4569
-0.3524 -18.5425 -18.5425
-0.358705 -18.7251 -18.7251
-0.0508094 -18.7365 -18.7365
-0.045034 -18.5538 -18.5538
-0.355549 -18.6338 -18.6338
-0.204768 -18.7308 -18.7308
-0.0479158 -18.6451 -18.6451
-0.198728 -18.5481 -18.5481
-0.201743 -18.6394 -18.6394
-0.358705 -18.7251 -18.7251
-0.36504 -18.9081 -18.9081
-0.0566315 -18.9194 -18.9194
-0.0508094 -18.7365 -18.7365
-0.361869 -18.8165 -18.8165
-0.210847 -18.9137 -18.9137
-0.0537146 -18.8279 -18.8279
-0.204768 -18.7308 -18.7308
-0.207803 -18.8222 -18.8222
-0.36504 -18.9081 -18.9081
-0.371405 -19.0913 -19.0913
-0.0624995 -19.1027 -19.1027
-0.0566315 -18.9194 -18.9194
-0.368219 -18.9996 -18.9996
-0.216963 -19.0969 -19.0969
-0.0595598 -19.011 -19.011
-0.210847 -18.9137 -18.9137
-0.2139 -19.0053 -19.0053
-0.371405 -19.0913 -19.0913
-0.377799 -19.2748 -19.2748
-0.0684129 -19.2862 -19.2862
-0.0624995 -19.1027 -19.1027
-0.374598 -19.183 -19.183
-0.223117 -19.2805 -19.2805
-0.0654506 -19.1944 -19.1944
-0.216963 -19.0969 -19.0969
-0.220036 -19.1887 -19.1887
-0.377799 -19.2748 -19.2748
-0.384221 -19.4586 -19.4586
-0.0743709 -19.47 -19.47
-0.0684129 -19.2862 -19.2862
-0.381007 -19.3666 -19.3666
-0.229307 -19.4643 -19.4643
-0.0713863 -19.3781 -19.3781
-0.223117 -19.2805 -19.2805
-0.226208 -19.3723 -19.3723
-0.384221 -19.4586 -19.4586
-0.390672 -19.6426 -19.6426
-0.0803729 -19.6541 -19.6541
-0.0743709 -19.47 -19.47
-0.387443 -19.5506 -19.5506
-0.235533 -19.6484 -19.6484
-0.0773664 -19.562 -19.562
-0.229307 -19.4643 -19.4643
-0.232416 -19.5563 -19.5563
-0.390672 -19.6426 -19.6426
-0.397149 -19.827 -19.827
-0.0864182 -19.8385 -19.8385
-0.0803729 -19.6541 -19.6541
-0.393907 -19.7348 -19.7348
-0.241795 -19.8327 -19.8327
-0.0833902 -19.7463 -19.7463
-0.235533 -19.6484 -19.6484
-0.23866 -19.7405 -19.7405
-0.397149 -19.827 -19.827
-0.403652 -20.0115 -20.0115
-0.0925061 -20.0231 -20.0231
-0.0864182 -19.8385 -19.8385
-0.400397 -19.9192 -19.9192
-0.248091 -20.0173 -20.0173
-0.0894569 -19.9307 -19.9307
-0.241795 -19.8327 -19.8327
-0.244938 -19.9249 -19.9249
-0.403652 -20.0115 -20.0115
-0.410181 -20.1963 -20.1963
-0.098636 -20.2079 -20.2079
-0.0925061 -20.0231 -20.0231
-0.406914 -20.1039 -20.1039
-0.25442 -20.2021 -20.2021
-0.0955659 -20.1154 -20.1154
-0.248091 -20.0173 -20.0173
-0.251251 -20.1096 -20.1096
-0.410181 -20.1963 -20.1963
-0.416735 -20.3814 -20.3814
-0.104807 -20.3929 -20.3929
-0.098636 -20.2079 -20.2079
-0.413455 -20.2888 -20.2888
-0.260783 -20.3871 -20.3871
-0.101716 -20.3004 -20.3004
-0.25442 -20.2021 -20.2021
-0.257597 -20.2946 -20.2946
-0.416735 -20.3814 -20.3814
-0.423314 -20.5666 -20.5666
-0.111019 -20.5782 -20.5782
-0.104807 -20.3929 -20.3929
-0.420022 -20.474 -20.474
-0.267178 -20.5724 -20.5724
-0.107908 -20.4856 -20.4856
-0.260783 -20.3871 -20.3871
-0.263976 -20.4798 -20.4798
-0.423314 -20.5666 -20.5666
-0.429916 -20.7521 -20.7521
-0.117271 -20.7637 -20.7637
-0.111019 -20.5782 -20.5782
-0.426612 -20.6594 -20.6594
-0.273605 -20.7579 -20.7579
-0.11414 -20.6709 -20.6709
-0.267178 -20.5724 -20.5724
-0.270388 -20.6651 -20.6651
-0.429916 -20.7521 -20.7521
-0.436541 -20.9378 -20.9378
-0.123561 -20.9494 -20.9494
-0.117271 -20.7637 -20.7637
-0.433226 -20.8449 -20.8449
-0.280063 -20.9436 -20.9436
-0.120411 -20.8565 -20.8565
-0.273605 -20.7579 -20.7579
-0.27683 -20.8507 -20.8507
-0.436541 -20.9378 -20.9378
-0.443188 -21.1237 -21.1237
-0.129891 -21.1353 -21.1353
-0.123561 -20.9494 -20.9494
-0.439862 -21.0307 -21.0307
-0.286551 -21.1295 -21.1295
-0.126721 -21.0423 -21.0423
-0.280063 -20.9436 -20.9436
-0.283304 -21.0365 -21.0365
-0.443188 -21.1237 -21.1237
-0.449857 -21.3097 -21.3097
-0.136258 -21.3214 -21.3214
-0.129891 -21.1353 -21.1353
-0.44652 -21.2167 -21.2167
-0.29307 -21.3155 -21.3155
-0.13307 -21.2283 -21.2283
-0.286551 -21.1295 -21.1295
-0.289807 -21.2225 -21.2225
-0.449857 -21.3097 -21.3097
-0.456547 -21.4959 -21.4959
-0.142662 -21.5076 -21.5076
-0.136258 -21.3214 -21.3214
-0.4532 -21.4028 -21.4028
-0.299617 -21.5018 -21.5018
-0.139456 -21.4145 -21.4145
-0.29307 -21.3155 -21.3155
-0.29634 -21.4086 -21.4086
-0.456547 -21.4959 -21.4959
-0.463257 -21.6823 -21.6823
-0.149103 -21.694 -21.694
-0.142662 -21.5076 -21.5076
-0.459899 -21.5891 -21.5891
-0.306192 -21.6881 -21.6881
-0.145878 -21.6008 -21.6008
-0.299617 -21.5018 -21.5018
-0.302901 -21.5949 -21.5949
-0.463257 -21.6823 -21.6823
-0.469986 -21.8689 -21.8689
-0.15558 -21.8805 -21.8805
-0.149103 -21.694 -21.694
-0.466619 -21.7756 -21.7756
-0.312795 -21.8747 -21.8747
-0.152337 -21.7873 -21.7873
-0.306192 -21.6881 -21.6881
-0.30949 -21.7814 -21.7814
-0.469986 -21.8689 -21.8689
-0.476734 -22.0556 -22.0556
-0.162091 -22.0672 -22.0672
-0.15558 -21.8805 -21.8805
-0.473358 -21.9622 -21.9622
-0.319425 -22.0614 -22.0614
-0.158831 -21.9739 -21.9739
-0.312795 -21.8747 -21.8747
-0.316107 -21.968 -21.968
-0.476734 -22.0556 -22.0556
-0.483501 -22.2424 -22.2424
-0.168637 -22.2541 -22.2541
-0.162091 -22.0672 -22.0672
-0.480115 -22.1489 -22.1489
-0.326081 -22.2482 -22.2482
-0.16536 -22.1606 -22.1606
-0.319425 -22.0614 -22.0614
-0.32275 -22.1548 -22.1548
-0.483501 -22.2424 -22.2424
-0.490284 -22.4293 -22.4293
-0.175217 -22.441 -22.441
-0.168637 -22.2541 -22.2541
-0.48689 -22.3358 -22.3358
-0.332763 -22.4352 -22.4352
-0.171923 -22.3475 -22.3475
-0.326081 -22.2482 -22.2482
-0.329419 -22.3417 -22.3417
-0.490284 -22.4293 -22.4293
-0.497085 -22.6164 -22.6164
-0.18183 -22.6281 -22.6281
-0.175217 -22.441 -22.441
-0.493683 -22.5228 -22.5228
-0.33947 -22.6222 -22.6222
-0.178519 -22.5345 -22.5345
-0.332763 -22.4352 -22.4352
-0.336114 -22.5287 -22.5287
-0.497085 -22.6164 -22.6164
-0.503902 -22.8035 -22.8035
-0.188475 -22.8152 -22.8152
-0.18183 -22.6281 -22.6281
-0.500491 -22.7099 -22.7099
-0.346201 -22.8094 -22.8094
-0.185149 -22.7217 -22.7217
-0.33947 -22.6222 -22.6222
-0.342833 -22.7158 -22.7158
-0.503902 -22.8035 -22.8035
-0.510735 -22.9908 -22.9908
-0.195153 -23.0025 -23.0025
-0.188475 -22.8152 -22.8152
-0.507316 -22.8972 -22.8972
-0.352957 -22.9966 -22.9966
-0.19181 -22.9089 -22.9089
-0.346201 -22.8094 -22.8094
-0.349576 -22.903 -22.903
-0.510735 -22.9908 -22.9908
-0.517583 -23.1782 -23.1782
-0.201863 -23.1899 -23.1899
-0.195153 -23.0025 -23.0025
-0.514157 -23.0845 -23.0845
-0.359736 -23.184 -23.184
-0.198504 -23.0962 -23.0962
-0.352957 -22.9966 -22.9966
-0.356344 -23.0903 -23.0903
-0.517583 -23.1782 -23.1782
-0.524447 -23.3656 -23.3656
-0.208605 -23.3773 -23.3773
-0.201863 -23.1899 -23.1899
-0.521013 -23.2719 -23.2719
-0.36654 -23.3714 -23.3714
-0.20523 -23.2836 -23.2836
-0.359736 -23.184 -23.184
-0.363135 -23.2777 -23.2777
-0.524447 -23.3656 -23.3656
-0.531326 -23.5531 -23.5531
-0.215381 -23.5648 -23.5648
-0.208605 -23.3773 -23.3773
-0.527884 -23.4593 -23.4593
-0.373369 -23.5589 -23.5589
-0.211989 -23.471 -23.471
-0.36654 -23.3714 -23.3714
-0.369952 -23.4652 -23.4652
-0.531326 -23.5531 -23.5531
-0.538221 -23.7406 -23.7406
-0.222192 -23.7523 -23.7523
-0.215381 -23.5648 -23.5648
-0.534771 -23.6468 -23.6468
-0.380224 -23.7465 -23.7465
-0.218782 -23.6585 -23.6585
-0.373369 -23.5589 -23.5589
-0.376794 -23.6527 -23.6527
-0.538221 -23.7406 -23.7406
-0.545131 -23.9282 -23.9282
-0.22904 -23.9399 -23.9399
-0.222192 -23.7523 -23.7523
-0.541674 -23.8344 -23.8344
-0.387106 -23.9341 -23.9341
-0.225611 -23.8461 -23.8461
-0.380224 -23.7465 -23.7465
-0.383662 -23.8403 -23.8403
-0.545131 -23.9282 -23.9282
-0.552054 -24.1159 -24.1159
-0.235924 -24.1276 -24.1276
-0.22904 -23.9399 -23.9399
-0.548591 -24.022 -24.022
-0.394012 -24.1217 -24.1217
-0.232477 -24.0337 -24.0337
-0.387106 -23.9341 -23.9341
-0.390556 -24.0279 -24.0279
-0.552054 -24.1159 -24.1159
-0.558983 -24.3035 -24.3035
-0.242838 -24.3152 -24.3152
-0.235924 -24.1276 -24.1276
-0.555518 -24.2097 -24.2097
-0.400933 -24.3094 -24.3094
-0.239379 -24.2214 -24.2214
-0.394012 -24.1217 -24.1217
-0.397471 -24.2155 -24.2155
-0.558983 -24.3035 -24.3035
-0.56591 -24.4911 -24.4911
-0.249756 -24.5029 -24.5029
-0.242838 -24.3152 -24.3152
-0.562447 -24.3973 -24.3973
-0.407851 -24.497 -24.497
-0.246298 -24.4091 -24.4091
-0.400933 -24.3094 -24.3094
-0.404393 -24.4032 -24.4032
-0.56591 -24.4911 -24.4911
-0.57282 -24.6786 -24.6786
-0.25665 -24.6905 -24.6905
-0.249756 -24.5029 -24.5029
-0.569367 -24.5849 -24.5849
-0.414755 -24.6845 -24.6845
-0.253207 -24.5967 -24.5967
-0.407851 -24.497 -24.497
-0.411306 -24.5908 -24.5908
0 0 0
0.00423483 -0.000452174 -0.000452174
0.00730067 -0.0020921 -0.0020921
0 0 0
0.00205272 0.000122342 0.000122342
0.00571155 -0.00107474 -0.00107474
0.0035436 -0.00075246 -0.00075246
0 0 0
0.00281243 -0.000233552 -0.000233552
0.00423483 -0.000452174 -0.000452174
0.0087939 -0.00333815 -0.00333815
0.0152022 -0.00603083 -0.00603083
0.00730067 -0.0020921 -0.0020921
0.00648602 -0.00161953 -0.00161953
0.0118901 -0.00445452 -0.00445452
0.011214 -0.00387138 -0.00387138
0.00571155 -0.00107474 -0.00107474
0.00875158 -0.00250725 -0.00250725
0.0087939 -0.00333815 -0.00333815
0.0135415 -0.0083229 -0.0083229
0.0231738 -0.0114394 -0.0114394
0.0152022 -0.00603083 -0.00603083
0.0111535 -0.00558177 -0.00558177
0.0182632 -0.00966531 -0.00966531
0.019193 -0.00854536 -0.00854536
0.0118901 -0.00445452 -0.00445452
0.0150688 -0.00684225 -0.00684225
0.0135415 -0.0083229 -0.0083229
0.0183249 -0.0152212 -0.0152212
0.0311013 -0.0184773 -0.0184773
0.0231738 -0.0114394 -0.0114394
0.0159342 -0.0115381 -0.0115381
0.0246446 -0.0166489 -0.0166489
0.0271451 -0.0147452 -0.0147452
0.0182632 -0.00966531 -0.00966531
0.0214582 -0.0129337 -0.0129337
0.0183249 -0.0152212 -0.0152212
0.0230869 -0.0239822 -0.0239822
0.0389552 -0.0272604 -0.0272604
0.0311013 -0.0184773 -0.0184773
0.0207108 -0.0193703 -0.0193703
0.0309709 -0.0254258 -0.0254258
0.0350371 -0.0226457 -0.0226457
0.0246446 -0.0166489 -0.0166489
0.0278158 -0.0208113 -0.0208113
0.0230869 -0.0239822 -0.0239822
0.0277976 -0.0345862 -0.0345862
0.0467492 -0.0378561 -0.0378561
0.0389552 -0.0272604 -0.0272604
0.0254491 -0.0290542 -0.0290542
0.0372349 -0.036028 -0.036028
0.0428593 -0.0323297 -0.0323297
0.0309709 -0.0254258 -0.0254258
0.0341106 -0.0304977 -0.0304977
0.0277976 -0.0345862 -0.0345862
0.0324573 -0.0470301 -0.0470301
0.0544851 -0.0502842 -0.0502842
0.0467492 -0.0378561 -0.0378561
0.0301337 -0.0405784 -0.0405784
0.0434391 -0.0484642 -0.0484642
0.0506242 -0.0438406 -0.0438406
0.0372349 -0.036028 -0.036028
0.0403442 -0.0420166 -0.0420166
0.0324573 -0.0470301 -0.0470301
0.0370672 -0.0613077 -0.0613077
0.0621675 -0.0645503 -0.0645503
0.0544851 -0.0502842 -0.0502842
0.0347682 -0.05394 -0.05394
0.0495888 -0.0627363 -0.0627363
0.0583329 -0.0571876 -0.0571876
0.0434391 -0.0484642 -0.0484642
0.0465205 -0.055371 -0.055371
0.0370672 -0.0613077 -0.0613077
0.0416321 -0.077413 -0.077413
0.0697964 -0.0806492 -0.0806492
0.0621675 -0.0645503 -0.0645503
0.0393551 -0.0691324 -0.0691324
0.0556875 -0.0788387 -0.0788387
0.0659886 -0.0723711 -0.0723711
0.0495888 -0.0627363 -0.0627363
0.0526444 -0.0705592 -0.0705592
0.0416321 -0.077413 -0.077413
0.0461542 -0.095338 -0.095338
0.0773719 -0.0985732 -0.0985732
0.0697964 -0.0806492 -0.0806492
0.0438984 -0.0861486 -0.0861486
0.0617372 -0.0967637 -0.0967637
0.0735908 -0.0893837 -0.0893837
0.0556875 -0.0788387 -0.0788387
0.0587184 -0.0875739 -0.0875739
0.0461542 -0.095338 -0.095338
0.0506351 -0.115074 -0.115074
0.084893 -0.118312 -0.118312
0.0773719 -0.0985732 -0.0985732
0.0483998 -0.10498 -0.10498
0.0677388 -0.116502 -0.116502
0.0811393 -0.108217 -0.108217
0.0617372 -0.0967637 -0.0967637
0.064744 -0.106407 -0.106407
0.0506351 -0.115074 -0.115074
0.0550751 -0.136612 -0.136612
0.092359 -0.139857 -0.139857
0.084893 -0.118312 -0.118312
0.0528602 -0.125618 -0.125618
0.073692 -0.138044 -0.138044
0.088633 -0.12886 -0.12886
0.0677388 -0.116502 -0.116502
0.0707215 -0.127048 -0.127048
0.0550751 -0.136612 -0.136612
0.0594741 -0.159942 -0.159942
0.0997685 -0.163197 -0.163197
0.092359 -0.139857 -0.139857
0.0572798 -0.148054 -0.148054
0.0795964 -0.16138 -0.16138
0.0960709 -0.151303 -0.151303
0.073692 -0.138044 -0.138044
0.0766504 -0.149488 -0.149488
0.0594741 -0.159942 -0.159942
0.0638313 -0.185055 -0.185055
0.107121 -0.188322 -0.188322
0.0997685 -0.163197 -0.163197
0.061658 -0.172277 -0.172277
0.0854511 -0.1865 -0.1865
0.103452 -0.175537 -0.175537
0.0795964 -0.16138 -0.16138
0.0825301 -0.173718 -0.173718
0.0638313 -0.185055 -0.185055
0.0681458 -0.211942 -0.211942
0.114414 -0.215222 -0.215222
0.107121 -0.188322 -0.188322
0.0659939 -0.198277 -0.198277
0.0912551 -0.213394 -0.213394
0.110775 -0.201551 -0.201551
0.0854511 -0.1865 -0.1865
0.0883595 -0.199726 -0.199726
0.0681458 -0.211942 -0.211942
0.0724167 -0.240591 -0.240591
0.121647 -0.243888 -0.243888
0.114414 -0.215222 -0.215222
0.0702868 -0.226046 -0.226046
0.0970074 -0.242053 -0.242053
0.118038 -0.229335 -0.229335
0.0912551 -0.213394 -0.213394
0.0941378 -0.227504 -0.227504
0.0724167 -0.240591 -0.240591
0.0766429 -0.270994 -0.270994
0.12882 -0.274309 -0.274309
0.121647 -0.243888 -0.243888
0.0745354 -0.255574 -0.255574
0.102707 -0.272466 -0.272466
0.125241 -0.25888 -0.25888
0.0970074 -0.242053 -0.242053
0.0998638 -0.257041 -0.257041
0.0766429 -0.270994 -0.270994
0.0808233 -0.303141 -0.303141
0.13593 -0.306476 -0.306476
0.12882 -0.274309 -0.274309
0.0787389 -0.28685 -0.28685
0.108352 -0.304624 -0.304624
0.132383 -0.290175 -0.290175
0.102707 -0.272466 -0.272466
0.105536 -0.288328 -0.288328
0.0808233 -0.303141 -0.303141
0.0849569 -0.337022 -0.337022
0.142977 -0.340379 -0.340379
0.13593 -0.306476 -0.306476
0.082896 -0.319865 -0.319865
0.113943 -0.338517 -0.338517
0.139462 -0.323211 -0.323211
0.108352 -0.304624 -0.304624
0.111155 -0.321354 -0.321354
0.0849569 -0.337022 -0.337022
0.0890427 -0.372627 -0.372627
0.14996 -0.376008 -0.376008
0.142977 -0.340379 -0.340379
0.0870059 -0.35461 -0.35461
0.119477 -0.374135 -0.374135
0.146477 -0.357978 -0.357978
0.113943 -0.338517 -0.338517
0.116717 -0.356111 -0.356111
0.0890427 -0.372627 -0.372627
0.0930796 -0.409947 -0.409947
0.156878 -0.413353 -0.413353
0.14996 -0.376008 -0.376008
0.0910673 -0.391074 -0.391074
0.124955 -0.411469 -0.411469
0.153427 -0.394466 -0.394466
0.119477 -0.374135 -0.374135
0.122223 -0.392588 -0.392588
0.0930796 -0.409947 -0.409947
0.0970666 -0.448972 -0.448972
0.16373 -0.452405 -0.452405
0.156878 -0.413353 -0.413353
0.0950794 -0.429247 -0.429247
0.130374 -0.450508 -0.450508
0.160312 -0.432666 -0.432666
0.124955 -0.411469 -0.411469
0.127672 -0.430776 -0.430776
0.0970666 -0.448972 -0.448972
0.101003 -0.489692 -0.489692
0.170514 -0.493153 -0.493153
0.16373 -0.452405 -0.452405
0.099041 -0.469121 -0.469121
0.135734 -0.491243 -0.491243
0.16713 -0.472567 -0.472567
0.130374 -0.450508 -0.450508
0.133062 -0.470664 -0.470664
0.101003 -0.489692 -0.489692
0.104887 -0.532097 -0.532097
0.17723 -0.535588 -0.535588
0.170514 -0.493153 -0.493153
0.102951 -0.510684 -0.510684
0.141035 -0.533664 -0.533664
0.173881 -0.51416 -0.51416
0.135734 -0.491243 -0.491243
0.138392 -0.512243 -0.512243
0.104887 -0.532097 -0.532097
0.108718 -0.576178 -0.576178
0.183877 -0.579701 -0.579701
0.17723 -0.535588 -0.535588
0.106809 -0.553929 -0.553929
0.146274 -0.577762 -0.577762
0.180562 -0.557435 -0.557435
0.141035 -0.533664 -0.533664
0.143662 -0.555504 -0.555504
0.108718 -0.576178 -0.576178
0.112496 -0.621924 -0.621924
0.190454 -0.62548 -0.62548
0.183877 -0.579701 -0.579701
0.110614 -0.598843 -0.598843
0.151451 -0.623526 -0.623526
0.187174 -0.602383 -0.602383
0.146274 -0.577762 -0.577762
0.148871 -0.600436 -0.600436
0.112496 -0.621924 -0.621924
0.116219 -0.669327 -0.669327
0.19696 -0.672918 -0.672918
0.190454 -0.62548 -0.62548
0.114365 -0.645419 -0.645419
0.156566 -0.670947 -0.670947
0.193716 -0.648992 -0.648992
0.151451 -0.623526 -0.623526
0.154017 -0.64703 -0.64703
0.116219 -0.669327 -0.669327
0.119887 -0.718375 -0.718375
0.203394 -0.722003 -0.722003
0.19696 -0.672918 -0.672918
0.11806 -0.693646 -0.693646
0.161617 -0.720014 -0.720014
0.200186 -0.697255 -0.697255
0.156566 -0.670947 -0.670947
0.159099 -0.695275 -0.695275
0.119887 -0.718375 -0.718375
0.123498 -0.769061 -0.769061
0.209755 -0.772726 -0.772726
0.203394 -0.722003 -0.722003
0.121699 -0.743514 -0.743514
0.166603 -0.77072 -0.77072
0.206583 -0.74716 -0.74716
0.161617 -0.720014 -0.720014
0.164118 -0.745163 -0.745163
0.123498 -0.769061 -0.769061
0.127052 -0.821373 -0.821373
0.216042 -0.825077 -0.825077
0.209755 -0.772726 -0.772726
0.125282 -0.795014 -0.795014
0.171524 -0.823052 -0.823052
0.212908 -0.798698 -0.798698
0.166603 -0.77072 -0.77072
0.169072 -0.796683 -0.796683
0.127052 -0.821373 -0.821373
0.130547 -0.875302 -0.875302
0.222255 -0.879047 -0.879047
0.216042 -0.825077 -0.825077
0.128807 -0.848136 -0.848136
0.176378 -0.877003 -0.877003
0.219158 -0.85186 -0.85186
0.171524 -0.823052 -0.823052
0.173959 -0.849826 -0.849826
0.130547 -0.875302 -0.875302
0.133984 -0.930838 -0.930838
0.228393 -0.934625 -0.934625
0.222255 -0.879047 -0.879047
0.132273 -0.902869 -0.902869
0.181166 -0.932561 -0.932561
0.225334 -0.906635 -0.906635
0.176378 -0.877003 -0.877003
0.178781 -0.904581 -0.904581
0.133984 -0.930838 -0.930838
0.137361 -0.987972 -0.987972
0.234455 -0.991802 -0.991802
0.228393 -0.934625 -0.934625
0.13568 -0.959206 -0.959206
0.185885 -0.989717 -0.989717
0.231434 -0.963014 -0.963014
0.181166 -0.932561 -0.932561
0.183534 -0.96094 -0.96094
0.137361 -0.987972 -0.987972
0.140678 -1.04669 -1.04669
0.24044 -1.05057 -1.05057
0.234455 -0.991802 -0.991802
0.139027 -1.01713 -1.01713
0.190536 -1.04846 -1.04846
0.237457 -1.02099 -1.02099
0.185885 -0.989717 -0.989717
0.188219 -1.01889 -1.01889
0.140678 -1.04669 -1.04669
0.143933 -1.10699 -1.10699
0.246347 -1.11091 -1.11091
0.24044 -1.05057 -1.05057
0.142313 -1.07665 -1.07665
0.195118 -1.10879 -1.10879
0.243403 -1.08054 -1.08054
0.190536 -1.04846 -1.04846
0.192836 -1.07843 -1.07843
0.143933 -1.10699 -1.10699
0.147127 -1.16886 -1.16886
0.252176 -1.17283 -1.17283
0.246347 -1.11091 -1.11091
0.145538 -1.13773 -1.13773
0.199629 -1.17068 -1.17068
0.249271 -1.14168 -1.14168
0.195118 -1.10879 -1.10879
0.197382 -1.13954 -1.13954
0.147127 -1.16886 -1.16886
0.150257 -1.23229 -1.23229
0.257926 -1.2363 -1.2363
0.252176 -1.17283 -1.17283
0.1487 -1.20038 -1.20038
0.204069 -1.23413 -1.23413
0.255061 -1.20437 -1.20437
0.199629 -1.17068 -1.17068
0.201858 -1.20221 -1.20221
0.150257 -1.23229 -1.23229
0.153324 -1.29726 -1.29726
0.263596 -1.30133 -1.30133
0.257926 -1.2363 -1.2363
0.151799 -1.26458 -1.26458
0.208438 -1.29913 -1.29913
0.260771 -1.26862 -1.26862
0.204069 -1.23413 -1.23413
0.206262 -1.26644 -1.26644
0.153324 -1.29726 -1.29726
0.156328 -1.36378 -1.36378
0.269185 -1.36789 -1.36789
0.263596 -1.30133 -1.30133
0.154834 -1.33033 -1.33033
0.212734 -1.36567 -1.36567
0.266401 -1.33442 -1.33442
0.208438 -1.29913 -1.29913
0.210595 -1.33221 -1.33221
0.156328 -1.36378 -1.36378
0.159266 -1.43182 -1.43182
0.274694 -1.43599 -1.43599
0.269185 -1.36789 -1.36789
0.157805 -1.39761 -1.39761
0.216957 -1.43374 -1.43374
0.27195 -1.40175 -1.40175
0.212734 -1.36567 -1.36567
0.214855 -1.39952 -1.39952
0.159266 -1.43182 -1.43182
0.162138 -1.50138 -1.50138
0.28012 -1.5056 -1.5056
0.274694 -1.43599 -1.43599
0.16071 -1.46641 -1.46641
0.221107 -1.50333 -1.50333
0.277417 -1.47061 -1.47061
0.216957 -1.43374 -1.43374
0.219041 -1.46835 -1.46835
0.162138 -1.50138 -1.50138
0.164945 -1.57246 -1.57246
0.285464 -1.57673 -1.57673
0.28012 -1.5056 -1.5056
0.16355 -1.53673 -1.53673
0.225182 -1.57443 -1.57443
0.282802 -1.54098 -1.54098
0.221107 -1.50333 -1.50333
0.223154 -1.53869 -1.53869
0.164945 -1.57246 -1.57246
0.167685 -1.64503 -1.64503
0.290725 -1.64936 -1.64936
0.285464 -1.57673 -1.57673
0.166323 -1.60855 -1.60855
0.229183 -1.64703 -1.64703
0.288105 -1.61286 -1.61286
0.225182 -1.57443 -1.57443
0.227192 -1.61055 -1.61055
0.167685 -1.64503 -1.64503
0.170358 -1.71909 -1.71909
0.295902 -1.72348 -1.72348
0.290725 -1.64936 -1.64936
0.16903 -1.68187 -1.68187
0.233108 -1.72113 -1.72113
0.293324 -1.68623 -1.68623
0.229183 -1.64703 -1.64703
0.231155 -1.68389 -1.68389
0.170358 -1.71909 -1.71909
0.172962 -1.79463 -1.79463
0.300995 -1.79908 -1.79908
0.295902 -1.72348 -1.72348
0.171669 -1.75668 -1.75668
0.236957 -1.7967 -1.7967
0.298459 -1.76109 -1.76109
0.233108 -1.72113 -1.72113
0.235042 -1.75873 -1.75873
0.172962 -1.79463 -1.79463
0.175499 -1.87165 -1.87165
0.306003 -1.87615 -1.87615
0.300995 -1.79908 -1.79908
0.174239 -1.83296 -1.83296
0.240729 -1.87374 -1.87374
0.30351 -1.83743 -1.83743
0.236957 -1.7967 -1.7967
0.238853 -1.83504 -1.83504
0.175499 -1.87165 -1.87165
0.177966 -1.95012 -1.95012
0.310926 -1.95468 -1.95468
0.306003 -1.87615 -1.87615
0.176741 -1.9107 -1.9107
0.244424 -1.95225 -1.95225
0.308475 -1.91523 -1.91523
0.240729 -1.87374 -1.87374
0.242586 -1.91281 -1.91281
0.177966 -1.95012 -1.95012
0.180363 -2.03005 -2.03005
0.315763 -2.03467 -2.03467
0.310926 -1.95468 -1.95468
0.179173 -1.98991 -1.98991
0.248041 -2.0322 -2.0322
0.313355 -1.99449 -1.99449
0.244424 -1.95225 -1.95225
0.246242 -1.99205 -1.99205
0.180363 -2.03005 -2.03005
0.182691 -2.11142 -2.11142
0.320513 -2.1161 -2.1161
0.315763 -2.03467 -2.03467
0.181536 -2.07055 -2.07055
0.25158 -2.1136 -2.1136
0.318149 -2.0752 -2.0752
0.248041 -2.0322 -2.0322
0.249821 -2.07272 -2.07272
0.182691 -2.11142 -2.11142
0.184948 -2.19422 -2.19422
0.325177 -2.19896 -2.19896
0.320513 -2.1161 -2.1161
0.183828 -2.15264 -2.15264
0.25504 -2.19644 -2.19644
0.322856 -2.15735 -2.15735
0.25158 -2.1136 -2.1136
0.25332 -2.15484 -2.15484
0.184948 -2.19422 -2.19422
0.187134 -2.27844 -2.27844
0.329753 -2.28324 -2.28324
0.325177 -2.19896 -2.19896
0.18605 -2.23615 -2.23615
0.258421 -2.28069 -2.28069
0.327476 -2.24092 -2.24092
0.25504 -2.19644 -2.19644
0.256741 -2.23838 -2.23838
0.187134 -2.27844 -2.27844
0.189248 -2.36407 -2.36407
0.334241 -2.36894 -2.36894
0.329753 -2.28324 -2.28324
0.1882 -2.32108 -2.32108
0.261723 -2.36636 -2.36636
0.332008 -2.32591 -2.32591
0.258421 -2.28069 -2.28069
0.260082 -2.32335 -2.32335
0.189248 -2.36407 -2.36407
0.19129 -2.45111 -2.45111
0.33864 -2.45604 -2.45604
0.334241 -2.36894 -2.36894
0.190278 -2.40742 -2.40742
0.264944 -2.45342 -2.45342
0.336452 -2.41231 -2.41231
0.261723 -2.36636 -2.36636
0.263343 -2.40972 -2.40972
0.19129 -2.45111 -2.45111
0.19326 -2.53954 -2.53954
0.342951 -2.54453 -2.54453
0.33864 -2.45604 -2.45604
0.192284 -2.49515 -2.49515
0.268084 -2.54189 -2.54189
0.340807 -2.50011 -2.50011
0.264944 -2.45342 -2.45342
0.266524 -2.49748 -2.49748
0.19326 -2.53954 -2.53954
0.195157 -2.62935 -2.62935
0.347173 -2.63441 -2.63441
0.342951 -2.54453 -2.54453
0.194217 -2.58427 -2.58427
0.271143 -2.63173 -2.63173
0.345073 -2.5893 -2.5893
0.268084 -2.54189 -2.54189
0.269624 -2.58664 -2.58664
0.195157 -2.62935 -2.62935
0.196981 -2.72054 -2.72054
0.351305 -2.72566 -2.72566
0.347173 -2.63441 -2.63441
0.196078 -2.67477 -2.67477
0.274121 -2.72295 -2.72295
0.34925 -2.67986 -2.67986
0.271143 -2.63173 -2.63173
0.272643 -2.67717 -2.67717
0.196981 -2.72054 -2.72054
0.198731 -2.81308 -2.81308
0.355347 -2.81828 -2.81828
0.351305 -2.72566 -2.72566
0.197865 -2.76664 -2.76664
0.277017 -2.81554 -2.81554
0.353337 -2.7718 -2.7718
0.274121 -2.72295 -2.72295
0.27558 -2.76907 -2.76907
0.198731 -2.81308 -2.81308
0.200407 -2.90699 -2.90699
0.359299 -2.91225 -2.91225
0.355347 -2.81828 -2.81828
0.199578 -2.85987 -2.85987
0.279831 -2.90947 -2.90947
0.357334 -2.86509 -2.86509
0.277017 -2.81554 -2.81554
0.278435 -2.86234 -2.86234
0.200407 -2.90699 -2.90699
0.202008 -3.00223 -3.00223
0.363159 -3.00756 -3.00756
0.359299 -2.91225 -2.91225
0.201217 -2.95444 -2.95444
0.282562 -3.00475 -3.00475
0.36124 -2.95974 -2.95974
0.279831 -2.90947 -2.90947
0.281207 -2.95695 -2.95695
0.202008 -3.00223 -3.00223
0.203535 -3.09881 -3.09881
0.366929 -3.10421 -3.10421
0.363159 -3.00756 -3.00756
0.202781 -3.05036 -3.05036
0.285211 -3.10137 -3.10137
0.365056 -3.05572 -3.05572
0.282562 -3.00475 -3.00475
0.283897 -3.0529 -3.0529
0.203535 -3.09881 -3.09881
0.204987 -3.19672 -3.19672
0.370608 -3.20219 -3.20219
0.366929 -3.10421 -3.10421
0.20427 -3.1476 -3.1476
0.287776 -3.19931 -3.19931
0.36878 -3.15303 -3.15303
0.285211 -3.10137 -3.10137
0.286504 -3.15018 -3.15018
0.204987 -3.19672 -3.19672
0.206363 -3.29594 -3.29594
0.374194 -3.30148 -3.30148
0.370608 -3.20219 -3.20219
0.205684 -3.24617 -3.24617
0.290257 -3.29857 -3.29857
0.372412 -3.25167 -3.25167
0.287776 -3.19931 -3.19931
0.289027 -3.24878 -3.24878
0.206363 -3.29594 -3.29594
0.207664 -3.39647 -3.39647
0.377689 -3.40207 -3.40207
0.374194 -3.30148 -3.30148
0.207023 -3.34604 -3.34604
0.292655 -3.39913 -3.39913
0.375953 -3.35161 -3.35161
0.290257 -3.29857 -3.29857
0.291467 -3.34869 -3.34869
0.207664 -3.39647 -3.39647
0.208889 -3.49829 -3.49829
0.381091 -3.50396 -3.50396
0.377689 -3.40207 -3.40207
0.208286 -3.44722 -3.44722
0.294969 -3.50099 -3.50099
0.379401 -3.45286 -3.45286
0.292655 -3.39913 -3.39913
0.293822 -3.4499 -3.4499
0.208889 -3.49829 -3.49829
0.210037 -3.60139 -3.60139
0.384401 -3.60714 -3.60714
0.381091 -3.50396 -3.50396
0.209472 -3.54968 -3.54968
0.297198 -3.60413 -3.60413
0.382757 -3.55539 -3.55539
0.294969 -3.50099 -3.50099
0.296094 -3.5524 -3.5524
0.210037 -3.60139 -3.60139
0.211109 -3.70578 -3.70578
0.387617 -3.71159 -3.71159
0.384401 -3.60714 -3.60714
0.210583 -3.65343 -3.65343
0.299342 -3.70855 -3.70855
0.386021 -3.65921 -3.65921
0.297198 -3.60413 -3.60413
0.298281 -3.65618 -3.65618
0.211109 -3.70578 -3.70578
0.212104 -3.81143 -3.81143
0.390741 -3.81731 -3.81731
0.387617 -3.71159 -3.71159
0.211616 -3.75844 -3.75844
0.301402 -3.81424 -3.81424
0.389191 -3.7643 -3.7643
0.299342 -3.70855 -3.70855
0.300383 -3.76123 -3.76123
0.212104 -3.81143 -3.81143
0.213023 -3.91833 -3.91833
0.393772 -3.92429 -3.92429
0.390741 -3.81731 -3.81731
0.212573 -3.86472 -3.86472
0.303376 -3.92118 -3.92118
0.392268 -3.87065 -3.87065
0.301402 -3.81424 -3.81424
0.3024 -3.86755 -3.86755
0.213023 -3.91833 -3.91833
0.213864 -4.02648 -4.02648
0.396709 -4.03252 -4.03252
0.393772 -3.92429 -3.92429
0.213453 -3.97225 -3.97225
0.305265 -4.02937 -4.02937
0.395252 -3.97825 -3.97825
0.303376 -3.92118 -3.92118
0.304331 -3.97512 -3.97512
0.213864 -4.02648 -4.02648
0.214628 -4.13587 -4.13587
0.399552 -4.14198 -4.14198
0.396709 -4.03252 -4.03252
0.214256 -4.08102 -4.08102
0.307069 -4.13879 -4.13879
0.398142 -4.08709 -4.08709
0.305265 -4.02937 -4.02937
0.306178 -4.08393 -4.08393
0.214628 -4.13587 -4.13587
0.215314 -4.24649 -4.24649
0.402301 -4.25267 -4.25267
0.399552 -4.14198 -4.14198
0.214981 -4.19103 -4.19103
0.308787 -4.24945 -4.24945
0.400938 -4.19717 -4.19717
0.307069 -4.13879 -4.13879
0.307938 -4.19397 -4.19397
0.215314 -4.24649 -4.24649
0.215923 -4.35832 -4.35832
0.404956 -4.36457 -4.36457
0.402301 -4.25267 -4.25267
0.215628 -4.30225 -4.30225
0.310419 -4.36132 -4.36132
0.403641 -4.30847 -4.30847
0.308787 -4.24945 -4.24945
0.309613 -4.30523 -4.30523
0.215923 -4.35832 -4.35832
0.216454 -4.47136 -4.47136
0.407518 -4.47769 -4.47769
0.404956 -4.36457 -4.36457
0.216198 -4.41469 -4.41469
0.311965 -4.4744 -4.4744
0.406249 -4.42098 -4.42098
0.310419 -4.36132 -4.36132
0.311202 -4.41771 -4.41771
0.216454 -4.47136 -4.47136
0.216906 -4.5856 -4.5856
0.409984 -4.592 -4.592
0.407518 -4.47769 -4.47769
0.21669 -4.52833 -4.52833
0.313424 -4.58867 -4.58867
0.408763 -4.5347 -4.5347
0.311965 -4.4744 -4.4744
0.312705 -4.53139 -4.53139
0.216906 -4.5856 -4.5856
0.217281 -4.70103 -4.70103
0.412357 -4.7075 -4.7075
0.409984 -4.592 -4.592
0.217103 -4.64317 -4.64317
0.314798 -4.70414 -4.70414
0.411182 -4.6496 -4.6496
0.313424 -4.58867 -4.58867
0.314122 -4.64626 -4.64626
0.217281 -4.70103 -4.70103
0.217577 -4.81764 -4.81764
0.414634 -4.82418 -4.82418
0.412357 -4.7075 -4.7075
0.217439 -4.75919 -4.75919
0.316085 -4.82078 -4.82078
0.413507 -4.7657 -4.7657
0.314798 -4.70414 -4.70414
0.315452 -4.76231 -4.76231
0.217577 -4.81764 -4.81764
0.217795 -4.93541 -4.93541
0.416817 -4.94203 -4.94203
0.414634 -4.82418 -4.82418
0.217696 -4.87638 -4.87638
0.317285 -4.9386 -4.9386
0.415738 -4.88296 -4.88296
0.316085 -4.82078 -4.82078
0.316696 -4.87954 -4.87954
0.217795 -4.93541 -4.93541
0.217935 -5.05434 -5.05434
0.418906 -5.06104 -5.06104
0.416817 -4.94203 -4.94203
0.217875 -4.99473 -4.99473
0.318399 -5.05757 -5.05757
0.417873 -5.00139 -5.00139
0.317285 -4.9386 -4.9386
0.317853 -4.99794 -4.99794
0.217935 -5.05434 -5.05434
0.217996 -5.17443 -5.17443
0.420899 -5.1812 -5.1812
0.418906 -5.06104 -5.06104
0.217975 -5.11424 -5.11424
0.319427 -5.17769 -5.17769
0.419914 -5.12098 -5.12098
0.318399 -5.05757 -5.05757
0.318924 -5.11749 -5.11749
0.217996 -5.17443 -5.17443
0.217979 -5.29565 -5.29565
0.422798 -5.3025 -5.3025
0.420899 -5.1812 -5.1812
0.217997 -5.2349 -5.2349
0.320367 -5.29895 -5.29895
0.42186 -5.24171 -5.24171
0.319427 -5.17769 -5.17769
0.319908 -5.23818 -5.23818
0.217979 -5.29565 -5.29565
0.217883 -5.418 -5.418
0.424601 -5.42492 -5.42492
0.422798 -5.3025 -5.3025
0.217941 -5.35669 -5.35669
0.321221 -5.42134 -5.42134
0.423711 -5.36357 -5.36357
0.320367 -5.29895 -5.29895
0.320805 -5.36001 -5.36001
0.217883 -5.418 -5.418
0.217708 -5.54148 -5.54148
0.42631 -5.54847 -5.54847
0.424601 -5.42492 -5.42492
0.217805 -5.4796 -5.4796
0.321988 -5.54486 -5.54486
0.425467 -5.48656 -5.48656
0.321221 -5.42134 -5.42134
0.321615 -5.48296 -5.48296
0.217708 -5.54148 -5.54148
0.217455 -5.66606 -5.66606
0.427923 -5.67313 -5.67313
0.42631 -5.54847 -5.54847
0.217591 -5.60363 -5.60363
0.322668 -5.66948 -5.66948
0.427128 -5.61066 -5.61066
0.321988 -5.54486 -5.54486
0.322339 -5.60703 -5.60703
0.217455 -5.66606 -5.66606
0.217123 -5.79175 -5.79175
0.429442 -5.79889 -5.79889
0.427923 -5.67313 -5.67313
0.217299 -5.72877 -5.72877
0.323262 -5.7952 -5.7952
0.428695 -5.73587 -5.73587
0.322668 -5.66948 -5.66948
0.322976 -5.7322 -5.7322
0.217123 -5.79175 -5.79175
0.216712 -5.91852 -5.91852
0.430866 -5.92574 -5.92574
0.429442 -5.79889 -5.79889
0.216927 -5.855 -5.855
0.323768 -5.92201 -5.92201
0.430166 -5.86218 -5.86218
0.323262 -5.7952 -5.7952
0.323526 -5.85847 -5.85847
0.216712 -5.91852 -5.91852
0.216223 -6.04638 -6.04638
0.432194 -6.05367 -6.05367
0.430866 -5.92574 -5.92574
0.216478 -5.98232 -5.98232
0.324188 -6.04991 -6.04991
0.431542 -5.98957 -5.98957
0.323768 -5.92201 -5.92201
0.323989 -5.98583 -5.98583
0.216223 -6.04638 -6.04638
0.215655 -6.17531 -6.17531
0.433428 -6.18268 -6.18268
0.432194 -6.05367 -6.05367
0.215949 -6.11071 -6.11071
0.324521 -6.17888 -6.17888
0.432823 -6.11804 -6.11804
0.324188 -6.04991 -6.04991
0.324365 -6.11426 -6.11426
0.215655 -6.17531 -6.17531
0.215009 -6.3053 -6.3053
0.434567 -6.31274 -6.31274
0.433428 -6.18268 -6.18268
0.215342 -6.24017 -6.24017
0.324767 -6.30891 -6.30891
0.434009 -6.24758 -6.24758
0.324521 -6.17888 -6.17888
0.324655 -6.24376 -6.24376
0.215009 -6.3053 -6.3053
0.214284 -6.43634 -6.43634
0.435611 -6.44386 -6.44386
0.434567 -6.31274 -6.31274
0.214656 -6.37069 -6.37069
0.324927 -6.43999 -6.43999
0.435101 -6.37817 -6.37817
0.324767 -6.30891 -6.30891
0.324858 -6.37432 -6.37432
0.214284 -6.43634 -6.43634
0.213481 -6.56843 -6.56843
0.43656 -6.57602 -6.57602
0.435611 -6.44386 -6.44386
0.213892 -6.50225 -6.50225
0.324999 -6.57211 -6.57211
0.436097 -6.50981 -6.50981
0.324927 -6.43999 -6.43999
0.324974 -6.50592 -6.50592
0.213481 -6.56843 -6.56843
0.212599 -6.70154 -6.70154
0.437415 -6.70921 -6.70921
0.43656 -6.57602 -6.57602
0.21305 -6.63486 -6.63486
0.324986 -6.70527 -6.70527
0.436999 -6.64248 -6.64248
0.324999 -6.57211 -6.57211
0.325003 -6.63856 -6.63856
0.212599 -6.70154 -6.70154
0.211639 -6.83568 -6.83568
0.438175 -6.84342 -6.84342
0.437415 -6.70921 -6.70921
0.212129 -6.76849 -6.76849
0.324886 -6.83945 -6.83945
0.437806 -6.77619 -6.77619
0.324986 -6.70527 -6.70527
0.324947 -6.77223 -6.77223
0.211639 -6.83568 -6.83568
0.210601 -6.97084 -6.97084
0.43884 -6.97865 -6.97865
0.438175 -6.84342 -6.84342
0.21113 -6.90314 -6.90314
0.324699 -6.97464 -6.97464
0.438519 -6.91091 -6.91091
0.324886 -6.83945 -6.83945
0.324803 -6.90692 -6.90692
0.210601 -6.97084 -6.97084
0.209485 -7.107 -7.107
0.439411 -7.11488 -7.11488
0.43884 -6.97865 -6.97865
0.210053 -7.03879 -7.03879
0.324427 -7.11083 -7.11083
0.439137 -7.04664 -7.04664
0.324699 -6.97464 -6.97464
0.324574 -7.04261 -7.04261
0.209485 -7.107 -7.107
0.208291 -7.24415 -7.24415
0.439888 -7.25211 -7.25211
0.439411 -7.11488 -7.11488
0.208897 -7.17545 -7.17545
0.324068 -7.24802 -7.24802
0.439661 -7.18337 -7.18337
0.324427 -7.11083 -7.11083
0.324258 -7.1793 -7.1793
0.208291 -7.24415 -7.24415
0.207019 -7.38228 -7.38228
0.44027 -7.39032 -7.39032
0.439888 -7.25211 -7.25211
0.207664 -7.31309 -7.31309
0.323623 -7.3862 -7.3862
0.440091 -7.32109 -7.32109
0.324068 -7.24802 -7.24802
0.323857 -7.31699 -7.31699
0.207019 -7.38228 -7.38228
0.205669 -7.5214 -7.5214
0.440559 -7.5295 -7.5295
0.44027 -7.39032 -7.39032
0.206353 -7.45172 -7.45172
0.323093 -7.52534 -7.52534
0.440426 -7.45979 -7.45979
0.323623 -7.3862 -7.3862
0.323369 -7.45565 -7.45565
0.205669 -7.5214 -7.5214
0.204242 -7.66147 -7.66147
0.440754 -7.66965 -7.66965
0.440559 -7.5295 -7.5295
0.204965 -7.59131 -7.59131
0.322477 -7.66546 -7.66546
0.440668 -7.59946 -7.59946
0.323093 -7.52534 -7.52534
0.322796 -7.59528 -7.59528
0.204242 -7.66147 -7.66147
0.202738 -7.8025 -7.8025
0.440855 -7.81075 -7.81075
0.440754 -7.66965 -7.66965
0.203499 -7.73187 -7.73187
0.321775 -7.80652 -7.80652
0.440816 -7.74008 -7.74008
0.322477 -7.66546 -7.66546
0.322137 -7.73587 -7.73587
0.202738 -7.8025 -7.8025
0.201156 -7.94448 -7.94448
0.440863 -7.9528 -7.9528
0.440855 -7.81075 -7.81075
0.201956 -7.87337 -7.87337
0.320988 -7.94854 -7.94854
0.440871 -7.88166 -7.88166
0.321775 -7.80652 -7.80652
0.321392 -7.87741 -7.87741
0.201156 -7.94448 -7.94448
0.199497 -8.08739 -8.08739
0.440777 -8.09578 -8.09578
0.440863 -7.9528 -7.9528
0.200336 -8.01582 -8.01582
0.320116 -8.09148 -8.09148
0.440832 -8.02418 -8.02418
0.320988 -7.94854 -7.94854
0.320563 -8.01989 -8.01989
0.199497 -8.08739 -8.08739
0.197762 -8.23122 -8.23122
0.440599 -8.23969 -8.23969
0.440777 -8.09578 -8.09578
0.198639 -8.15919 -8.15919
0.319159 -8.23536 -8.23536
0.4407 -8.16762 -8.16762
0.320116 -8.09148 -8.09148
0.319648 -8.16331 -8.16331
0.197762 -8.23122 -8.23122
0.19595 -8.37598 -8.37598
0.440327 -8.38452 -8.38452
0.440599 -8.23969 -8.23969
0.196866 -8.30349 -8.30349
0.318118 -8.38015 -8.38015
0.440474 -8.31199 -8.31199
0.319159 -8.23536 -8.23536
0.318649 -8.30764 -8.30764
0.19595 -8.37598 -8.37598
0.194062 -8.52164 -8.52164
0.439963 -8.53025 -8.53025
0.440327 -8.38452 -8.38452
0.195016 -8.4487 -8.4487
0.316992 -8.52585 -8.52585
0.440157 -8.45727 -8.45727
0.318118 -8.38015 -8.38015
0.317565 -8.45288 -8.45288
0.194062 -8.52164 -8.52164
0.192098 -8.6682 -8.6682
0.439506 -8.67687 -8.67687
0.439963 -8.53025 -8.53025
0.19309 -8.59481 -8.59481
0.315781 -8.67244 -8.67244
0.439746 -8.60345 -8.60345
0.316992 -8.52585 -8.52585
0.316397 -8.59903 -8.59903
0.192098 -8.6682 -8.6682
0.190058 -8.81564 -8.81564
0.438958 -8.82439 -8.82439
0.439506 -8.67687 -8.67687
0.191088 -8.74181 -8.74181
0.314487 -8.81992 -8.81992
0.439244 -8.75052 -8.75052
0.315781 -8.67244 -8.67244
0.315144 -8.74607 -8.74607
0.190058 -8.81564 -8.81564
0.187943 -8.96396 -8.96396
0.438317 -8.97278 -8.97278
0.438958 -8.82439 -8.82439
0.18901 -8.88969 -8.88969
0.313109 -8.96828 -8.96828
0.438649 -8.89847 -8.89847
0.314487 -8.81992 -8.81992
0.313808 -8.89399 -8.89399
0.187943 -8.96396 -8.96396
0.185752 -9.11315 -9.11315
0.437585 -9.12204 -9.12204
0.438317 -8.97278 -8.97278
0.186857 -9.03845 -9.03845
0.311647 -9.1175 -9.1175
0.437963 -9.0473 -9.0473
0.313109 -8.96828 -8.96828
0.312388 -9.04278 -9.04278
0.185752 -9.11315 -9.11315
0.183486 -9.2632 -9.2632
0.436762 -9.27215 -9.27215
0.437585 -9.12204 -9.12204
0.184628 -9.18807 -9.18807
0.310102 -9.26758 -9.26758
0.437185 -9.19699 -9.19699
0.311647 -9.1175 -9.1175
0.310885 -9.19243 -9.19243
0.183486 -9.2632 -9.2632
0.181145 -9.41409 -9.41409
0.435847 -9.42312 -9.42312
0.436762 -9.27215 -9.27215
0.182325 -9.33854 -9.33854
0.308475 -9.41851 -9.41851
0.436316 -9.34753 -9.34753
0.310102 -9.26758 -9.26758
0.309299 -9.34294 -9.34294
0.181145 -9.41409 -9.41409
0.17873 -9.56583 -9.56583
0.434842 -9.57492 -9.57492
0.435847 -9.42312 -9.42312
0.179947 -9.48986 -9.48986
0.306764 -9.57028 -9.57028
0.435356 -9.49891 -9.49891
0.308475 -9.41851 -9.41851
0.30763 -9.49429 -9.49429
0.17873 -9.56583 -9.56583
0.176241 -9.71839 -9.71839
0.433746 -9.72755 -9.72755
0.434842 -9.57492 -9.57492
0.177495 -9.64201 -9.64201
0.304972 -9.72288 -9.72288
0.434305 -9.65113 -9.65113
0.306764 -9.57028 -9.57028
0.305878 -9.64648 -9.64648
0.176241 -9.71839 -9.71839
0.173678 -9.87177 -9.87177
0.43256 -9.881 -9.881
0.433746 -9.72755 -9.72755
0.174968 -9.79498 -9.79498
0.303097 -9.8763 -9.8763
0.433164 -9.80417 -9.80417
0.304972 -9.72288 -9.72288
0.304045 -9.79949 -9.79949
0.173678 -9.87177 -9.87177
0.171041 -10.026 -10.026
0.431284 -10.0353 -10.0353
0.43256 -9.881 -9.881
0.172368 -9.94877 -9.94877
0.301141 -10.0305 -10.0305
0.431933 -9.95803 -9.95803
0.303097 -9.8763 -9.8763
0.302129 -9.95331 -9.95331
0.171041 -10.026 -10.026
0.168331 -10.181 -10.181
0.429918 -10.1903 -10.1903
0.431284 -10.0353 -10.0353
0.169695 -10.1034 -10.1034
0.299103 -10.1855 -10.1855
0.430612 -10.1127 -10.1127
0.301141 -10.0305 -10.0305
0.300132 -10.1079 -10.1079
0.168331 -10.181 -10.181
0.165548 -10.3367 -10.3367
0.428464 -10.3462 -10.3462
0.429918 -10.1903 -10.1903
0.166949 -10.2587 -10.2587
0.296985 -10.3414 -10.3414
0.429202 -10.2681 -10.2681
0.299103 -10.1855 -10.1855
0.298054 -10.2634 -10.2634
0.165548 -10.3367 -10.3367
0.162693 -10.4933 -10.4933
0.426921 -10.5028 -10.5028
0.428464 -10.3462 -10.3462
0.16413 -10.4149 -10.4149
0.294785 -10.498 -10.498
0.427703 -10.4244 -10.4244
0.296985 -10.3414 -10.3414
0.295895 -10.4196 -10.4196
0.162693 -10.4933 -10.4933
0.159766 -10.6506 -10.6506
0.425289 -10.6602 -10.6602
0.426921 -10.5028 -10.5028
0.161238 -10.5719 -10.5719
0.292506 -10.6553 -10.6553
0.426116 -10.5814 -10.5814
0.294785 -10.498 -10.498
0.293655 -10.5765 -10.5765
0.159766 -10.6506 -10.6506
0.156767 -10.8087 -10.8087
0.423569 -10.8183 -10.8183
0.425289 -10.6602 -10.6602
0.158275 -10.7296 -10.7296
0.290146 -10.8135 -10.8135
0.42444 -10.7392 -10.7392
0.292506 -10.6553 -10.6553
0.291336 -10.7343 -10.7343
0.156767 -10.8087 -10.8087
0.153696 -10.9676 -10.9676
0.421761 -10.9772 -10.9772
0.423569 -10.8183 -10.8183
0.15524 -10.8881 -10.8881
0.287707 -10.9723 -10.9723
0.422676 -10.8977 -10.8977
0.290146 -10.8135 -10.8135
0.288936 -10.8928 -10.8928
0.153696 -10.9676 -10.9676
0.150554 -11.1272 -11.1272
0.419866 -11.1369 -11.1369
0.421761 -10.9772 -10.9772
0.152134 -11.0473 -11.0473
0.285189 -11.132 -11.132
0.420825 -11.057 -11.057
0.287707 -10.9723 -10.9723
0.286458 -11.052 -11.052
0.150554 -11.1272 -11.1272
0.147342 -11.2875 -11.2875
0.417885 -11.2973 -11.2973
0.419866 -11.1369 -11.1369
0.148957 -11.2072 -11.2072
0.282592 -11.2923 -11.2923
0.418886 -11.217 -11.217
0.285189 -11.132 -11.132
0.2839 -11.212 -11.212
0.147342 -11.2875 -11.2875
0.14406 -11.4485 -11.4485
0.415816 -11.4584 -11.4584
0.417885 -11.2973 -11.2973
0.14571 -11.3679 -11.3679
0.279916 -11.4534 -11.4534
0.416861 -11.3777 -11.3777
0.282592 -11.2923 -11.2923
0.281264 -11.3727 -11.3727
0.14406 -11.4485 -11.4485
0.140707 -11.6103 -11.6103
0.413662 -11.6202 -11.6202
0.415816 -11.4584 -11.4584
0.142392 -11.5293 -11.5293
0.277163 -11.6152 -11.6152
0.41475 -11.5392 -11.5392
0.279916 -11.4534 -11.4534
0.278549 -11.5342 -11.5342
0.140707 -11.6103 -11.6103
0.137286 -11.7727 -11.7727
0.411422 -11.7827 -11.7827
0.413662 -11.6202 -11.6202
0.139005 -11.6914 -11.6914
0.274332 -11.7776 -11.7776
0.412552 -11.7014 -11.7014
0.277163 -11.6152 -11.6152
0.275757 -11.6963 -11.6963
0.137286 -11.7727 -11.7727
0.133795 -11.9359 -11.9359
0.409096 -11.9459 -11.9459
0.411422 -11.7827 -11.7827
0.135549 -11.8542 -11.8542
0.271424 -11.9408 -11.9408
0.410269 -11.8642 -11.8642
0.274332 -11.7776 -11.7776
0.272887 -11.8592 -11.8592
0.133795 -11.9359 -11.9359
0.130236 -12.0997 -12.0997
0.406686 -12.1098 -12.1098
0.409096 -11.9459 -11.9459
0.132024 -12.0177 -12.0177
0.268439 -12.1047 -12.1047
0.407901 -12.0278 -12.0278
0.271424 -11.9408 -11.9408
0.269941 -12.0227 -12.0227
0.130236 -12.0997 -12.0997
0.126609 -12.2642 -12.2642
0.404191 -12.2744 -12.2744
0.406686 -12.1098 -12.1098
0.128431 -12.1819 -12.1819
0.265378 -12.2692 -12.2692
0.405449 -12.192 -12.192
0.268439 -12.1047 -12.1047
0.266918 -12.1869 -12.1869
0.126609 -12.2642 -12.2642
0.122914 -12.4294 -12.4294
0.401612 -12.4396 -12.4396
0.404191 -12.2744 -12.2744
0.12477 -12.3467 -12.3467
0.262241 -12.4344 -12.4344
0.402912 -12.3569 -12.3569
0.265378 -12.2692 -12.2692
0.263819 -12.3518 -12.3518
0.122914 -12.4294 -12.4294
0.119152 -12.5952 -12.5952
0.39895 -12.6055 -12.6055
0.401612 -12.4396 -12.4396
0.121041 -12.5122 -12.5122
0.259029 -12.6003 -12.6003
0.400292 -12.5225 -12.5225
0.262241 -12.4344 -12.4344
0.260644 -12.5173 -12.5173
0.119152 -12.5952 -12.5952
0.115323 -12.7617 -12.7617
0.396205 -12.772 -12.772
0.39895 -12.6055 -12.6055
0.117246 -12.6784 -12.6784
0.255742 -12.7668 -12.7668
0.397588 -12.6887 -12.6887
0.259029 -12.6003 -12.6003
0.257395 -12.6835 -12.6835
0.115323 -12.7617 -12.7617
0.111428 -12.9288 -12.9288
0.393377 -12.9392 -12.9392
0.396205 -12.772 -12.772
0.113384 -12.8452 -12.8452
0.25238 -12.9339 -12.9339
0.394802 -12.8555 -12.8555
0.255742 -12.7668 -12.7668
0.25407 -12.8503 -12.8503
0.111428 -12.9288 -12.9288
0.107467 -13.0965 -13.0965
0.390468 -13.107 -13.107
0.393377 -12.9392 -12.9392
0.109456 -13.0126 -13.0126
0.248945 -13.1017 -13.1017
0.391933 -13.023 -13.023
0.25238 -12.9339 -12.9339
0.250672 -13.0177 -13.0177
0.107467 -13.0965 -13.0965
0.103441 -13.2649 -13.2649
0.387476 -13.2754 -13.2754
0.390468 -13.107 -13.107
0.105462 -13.1806 -13.1806
0.245436 -13.2701 -13.2701
0.388982 -13.1911 -13.1911
0.248945 -13.1017 -13.1017
0.2472 -13.1858 -13.1858
0.103441 -13.2649 -13.2649
0.0993498 -13.4339 -13.4339
0.384404 -13.4444 -13.4444
0.387476 -13.2754 -13.2754
0.101403 -13.3493 -13.3493
0.241854 -13.439 -13.439
0.38595 -13.3598 -13.3598
0.245436 -13.2701 -13.2701
0.243654 -13.3545 -13.3545
0.0993498 -13.4339 -13.4339
0.0951946 -13.6034 -13.6034
0.381251 -13.614 -13.614
0.384404 -13.4444 -13.4444
0.0972802 -13.5186 -13.5186
0.2382 -13.6086 -13.6086
0.382837 -13.5291 -13.5291
0.241854 -13.439 -13.439
0.240036 -13.5238 -13.5238
0.0951946 -13.6034 -13.6034
0.0909755 -13.7735 -13.7735
0.378018 -13.7842 -13.7842
0.381251 -13.614 -13.614
0.093093 -13.6884 -13.6884
0.234474 -13.7788 -13.7788
0.379644 -13.699 -13.699
0.2382 -13.6086 -13.6086
0.236346 -13.6936 -13.6936
0.0909755 -13.7735 -13.7735
0.0866932 -13.9443 -13.9443
0.374705 -13.9549 -13.9549
0.378018 -13.7842 -13.7842
0.0888422 -13.8588 -13.8588
0.230676 -13.9495 -13.9495
0.376371 -13.8695 -13.8695
0.234474 -13.7788 -13.7788
0.232584 -13.8641 -13.8641
0.0866932 -13.9443 -13.9443
0.0823481 -14.1155 -14.1155
0.371313 -14.1263 -14.1263
0.374705 -13.9549 -13.9549
0.0845284 -14.0298 -14.0298
0.226808 -14.1208 -14.1208
0.373019 -14.0405 -14.0405
0.230676 -13.9495 -13.9495
0.228751 -14.0351 -14.0351
0.0823481 -14.1155 -14.1155
0.0779407 -14.2874 -14.2874
0.367843 -14.2982 -14.2982
0.371313 -14.1263 -14.1263
0.0801522 -14.2014 -14.2014
0.222869 -14.2927 -14.2927
0.369588 -14.2121 -14.2121
0.226808 -14.1208 -14.1208
0.224847 -14.2067 -14.2067
0.0779407 -14.2874 -14.2874
0.0734717 -14.4598 -14.4598
0.364295 -14.4706 -14.4706
0.367843 -14.2982 -14.2982
0.0757139 -14.3735 -14.3735
0.21886 -14.4651 -14.4651
0.366078 -14.3843 -14.3843
0.222869 -14.2927 -14.2927
0.220873 -14.3788 -14.3788
0.0734717 -14.4598 -14.4598
0.0689415 -14.6327 -14.6327
0.360669 -14.6436 -14.6436
0.364295 -14.4706 -14.4706
0.0712142 -14.5462 -14.5462
0.214782 -14.6381 -14.6381
0.362491 -14.557 -14.557
0.21886 -14.4651 -14.4651
0.21683 -14.5515 -14.5515
0.0689415 -14.6327 -14.6327
0.0643507 -14.8062 -14.8062
0.356966 -14.8171 -14.8171
0.360669 -14.6436 -14.6436
0.0666537 -14.7194 -14.7194
0.210636 -14.8116 -14.8116
0.358827 -14.7302 -14.7302
0.214782 -14.6381 -14.6381
0.212718 -14.7247 -14.7247
0.0643507 -14.8062 -14.8062
0.0596998 -14.9801 -14.9801
0.353187 -14.9911 -14.9911
0.356966 -14.8171 -14.8171
0.0620328 -14.8931 -14.8931
0.206421 -14.9856 -14.9856
0.355086 -14.904 -14.904
0.210636 -14.8116 -14.8116
0.208537 -14.8985 -14.8985
0.0596998 -14.9801 -14.9801
0.0549895 -15.1546 -15.1546
0.349332 -15.1656 -15.1656
0.353187 -14.9911 -14.9911
0.0573521 -15.0673 -15.0673
0.202138 -15.1601 -15.1601
0.351269 -15.0783 -15.0783
0.206421 -14.9856 -14.9856
0.204288 -15.0727 -15.0727
0.0549895 -15.1546 -15.1546
0.0502201 -15.3296 -15.3296
0.345402 -15.3406 -15.3406
0.349332 -15.1656 -15.1656
0.0526121 -15.2421 -15.2421
0.197788 -15.3351 -15.3351
0.347377 -15.2531 -15.2531
0.202138 -15.1601 -15.1601
0.199971 -15.2475 -15.2475
0.0502201 -15.3296 -15.3296
0.0453924 -15.5051 -15.5051
0.341398 -15.5162 -15.5162
0.345402 -15.3406 -15.3406
0.0478135 -15.4173 -15.4173
0.193372 -15.5106 -15.5106
0.343409 -15.4283 -15.4283
0.197788 -15.3351 -15.3351
0.195588 -15.4228 -15.4228
0.0453924 -15.5051 -15.5051
0.0405069 -15.681 -15.681
0.337319 -15.6921 -15.6921
0.341398 -15.5162 -15.5162
0.0429569 -15.593 -15.593
0.18889 -15.6865 -15.6865
0.339368 -15.6041 -15.6041
0.193372 -15.5106 -15.5106
0.191139 -15.5985 -15.5985
0.0405069 -15.681 -15.681
0.0355642 -15.8575 -15.8575
0.333167 -15.8686 -15.8686
0.337319 -15.6921 -15.6921
0.0380427 -15.7692 -15.7692
0.184342 -15.863 -15.863
0.335252 -15.7803 -15.7803
0.18889 -15.6865 -15.6865
0.186624 -15.7747 -15.7747
0.0355642 -15.8575 -15.8575
0.0305648 -16.0344 -16.0344
0.328942 -16.0455 -16.0455
0.333167 -15.8686 -15.8686
0.0330715 -15.9459 -15.9459
0.17973 -16.0399 -16.0399
0.331063 -15.957 -15.957
0.184342 -15.863 -15.863
0.182044 -15.9514 -15.9514
0.0305648 -16.0344 -16.0344
0.0255094 -16.2117 -16.2117
0.324644 -16.2229 -16.2229
0.328942 -16.0455 -16.0455
0.0280441 -16.123 -16.123
0.175053 -16.2173 -16.2173
0.326802 -16.1342 -16.1342
0.17973 -16.0399 -16.0399
0.1774 -16.1285 -16.1285
0.0255094 -16.2117 -16.2117
0.0203985 -16.3895 -16.3895
0.320275 -16.4007 -16.4007
0.324644 -16.2229 -16.2229
0.0229609 -16.3005 -16.3005
0.170313 -16.3951 -16.3951
0.322468 -16.3118 -16.3118
0.175053 -16.2173 -16.2173
0.172691 -16.3061 -16.3061
0.0203985 -16.3895 -16.3895
0.0152328 -16.5677 -16.5677
0.315835 -16.579 -16.579
0.320275 -16.4007 -16.4007
0.0178225 -16.4785 -16.4785
0.16551 -16.5733 -16.5733
0.318064 -16.4898 -16.4898
0.170313 -16.3951 -16.3951
0.16792 -16.4841 -16.4841
0.0152328 -16.5677 -16.5677
0.0100128 -16.7463 -16.7463
0.311324 -16.7577 -16.7577
0.315835 -16.579 -16.579
0.0126296 -16.657 -16.657
0.160645 -16.7519 -16.7519
0.313588 -16.6683 -16.6683
0.16551 -16.5733 -16.5733
0.163085 -16.6626 -16.6626
0.0100128 -16.7463 -16.7463
0.00473923 -16.9254 -16.9254
0.306743 -16.9367 -16.9367
0.311324 -16.7577 -16.7577
0.0073827 -16.8358 -16.8358
0.155717 -16.931 -16.931
0.309042 -16.8471 -16.8471
0.160645 -16.7519 -16.7519
0.158189 -16.8414 -16.8414
0.00473923 -16.9254 -16.9254
-0.000587396 -17.1048 -17.1048
0.302093 -17.1162 -17.1162
0.306743 -16.9367 -16.9367
0.00208251 -17.0151 -17.0151
0.150729 -17.1105 -17.1105
0.304426 -17.0264 -17.0264
0.155717 -16.931 -16.931
0.153231 -17.0207 -17.0207
-0.000587396 -17.1048 -17.1048
-0.00596643 -17.2847 -17.2847
0.297374 -17.2961 -17.2961
0.302093 -17.1162 -17.1162
-0.0032704 -17.1947 -17.1947
0.14568 -17.2903 -17.2903
0.299742 -17.2061 -17.2061
0.150729 -17.1105 -17.1105
0.148212 -17.2004 -17.2004
-0.00596643 -17.2847 -17.2847
-0.0113972 -17.4649 -17.4649
0.292587 -17.4764 -17.4764
0.297374 -17.2961 -17.2961
-0.0086754 -17.3747 -17.3747
0.140571 -17.4706 -17.4706
0.294989 -17.3862 -17.3862
0.14568 -17.2903 -17.2903
0.143133 -17.3804 -17.3804
-0.0113972 -17.4649 -17.4649
-0.0168792 -17.6455 -17.6455
0.287733 -17.657 -17.657
0.292587 -17.4764 -17.4764
-0.0141319 -17.5552 -17.5552
0.135403 -17.6512 -17.6512
0.290168 -17.5666 -17.5666
0.140571 -17.4706 -17.4706
0.137994 -17.5609 -17.5609
-0.0168792 -17.6455 -17.6455
-0.0224117 -17.8265 -17.8265
0.282812 -17.838 -17.838
0.287733 -17.657 -17.657
-0.0196392 -17.736 -17.736
0.130176 -17.8322 -17.8322
0.285281 -17.7474 -17.7474
0.135403 -17.6512 -17.6512
0.132797 -17.7417 -17.7417
-0.0224117 -17.8265 -17.8265
-0.027994 -18.0078 -18.0078
0.277825 -18.0193 -18.0193
0.282812 -17.838 -17.838
-0.0251967 -17.9171 -17.9171
0.124891 -18.0135 -18.0135
0.280326 -17.9286 -17.9286
0.130176 -17.8322 -17.8322
0.127541 -17.9228 -17.9228
-0.027994 -18.0078 -18.0078
-0.0336256 -18.1895 -18.1895
0.272772 -18.201 -18.201
0.277825 -18.0193 -18.0193
-0.0308037 -18.0986 -18.0986
0.119549 -18.1952 -18.1952
0.275306 -18.1101 -18.1101
0.124891 -18.0135 -18.0135
0.122227 -18.1043 -18.1043
-0.0336256 -18.1895 -18.1895
-0.0393058 -18.3715 -18.3715
0.267654 -18.3831 -18.3831
0.272772 -18.201 -18.201
-0.0364597 -18.2804 -18.2804
0.11415 -18.3772 -18.3772
0.270221 -18.292 -18.292
0.119549 -18.1952 -18.1952
0.116857 -18.2862 -18.2862
-0.0393058 -18.3715 -18.3715
-0.045034 -18.5538 -18.5538
0.262472 -18.5654 -18.5654
0.267654 -18.3831 -18.3831
-0.0421639 -18.4626 -18.4626
0.108695 -18.5596 -18.5596
0.265071 -18.4742 -18.4742
0.11415 -18.3772 -18.3772
0.111429 -18.4684 -18.4684
-0.045034 -18.5538 -18.5538
-0.0508094 -18.7365 -18.7365
0.257227 -18.7481 -18.7481
0.262472 -18.5654 -18.5654
-0.0479158 -18.6451 -18.6451
0.103185 -18.7422 -18.7422
0.259858 -18.6567 -18.6567
0.108695 -18.5596 -18.5596
0.105947 -18.6509 -18.6509
-0.0508094 -18.7365 -18.7365
-0.0566315 -18.9194 -18.9194
0.251919 -18.9311 -18.9311
0.257227 -18.7481 -18.7481
-0.0537146 -18.8279 -18.8279
0.0976192 -18.9252 -18.9252
0.254581 -18.8395 -18.8395
0.103185 -18.7422 -18.7422
0.100409 -18.8337 -18.8337
-0.0566315 -18.9194 -18.9194
-0.0624995 -19.1027 -19.1027
0.246548 -19.1143 -19.1143
0.251919 -18.9311 -18.9311
-0.0595598 -19.011 -19.011
0.0919999 -19.1085 -19.1085
0.249241 -19.0227 -19.0227
0.0976192 -18.9252 -18.9252
0.0948163 -19.0168 -19.0168
-0.0624995 -19.1027 -19.1027
-0.0684129 -19.2862 -19.2862
0.241116 -19.2979 -19.2979
0.246548 -19.1143 -19.1143
-0.0654506 -19.1944 -19.1944
0.086327 -19.292 -19.292
0.24384 -19.2061 -19.2061
0.0919999 -19.1085 -19.1085
0.0891701 -19.2002 -19.2002
-0.0684129 -19.2862 -19.2862
-0.0743709 -19.47 -19.47
0.235623 -19.4817 -19.4817
0.241116 -19.2979 -19.2979
-0.0713863 -19.3781 -19.3781
0.0806014 -19.4758 -19.4758
0.238377 -19.3898 -19.3898
0.086327 -19.292 -19.292
0.0834708 -19.3839 -19.3839
-0.0743709 -19.47 -19.47
-0.0803729 -19.6541 -19.6541
0.23007 -19.6658 -19.6658
0.235623 -19.4817 -19.4817
-0.0773664 -19.562 -19.562
0.0748237 -19.6599 -19.6599
0.232854 -19.5737 -19.5737
0.0806014 -19.4758 -19.4758
0.077719 -19.5679 -19.5679
-0.0803729 -19.6541 -19.6541
-0.0864182 -19.8385 -19.8385
0.224457 -19.8502 -19.8502
0.23007 -19.6658 -19.6658
-0.0833902 -19.7463 -19.7463
0.0689945 -19.8443 -19.8443
0.22727 -19.758 -19.758
0.0748237 -19.6599 -19.6599
0.0719155 -19.7521 -19.7521
-0.0864182 -19.8385 -19.8385
-0.0925061 -20.0231 -20.0231
0.218785 -20.0348 -20.0348
0.224457 -19.8502 -19.8502
-0.0894569 -19.9307 -19.9307
0.0631146 -20.0289 -20.0289
0.221628 -19.9425 -19.9425
0.0689945 -19.8443 -19.8443
0.0660608 -19.9366 -19.9366
-0.0925061 -20.0231 -20.0231
-0.098636 -20.2079 -20.2079
0.213055 -20.2196 -20.2196
0.218785 -20.0348 -20.0348
-0.0955659 -20.1154 -20.1154
0.0571845 -20.2137 -20.2137
0.215927 -20.1272 -20.1272
0.0631146 -20.0289 -20.0289
0.0601558 -20.1213 -20.1213
-0.098636 -20.2079 -20.2079
-0.104807 -20.3929 -20.3929
0.207267 -20.4047 -20.4047
0.213055 -20.2196 -20.2196
-0.101716 -20.3004 -20.3004
0.0512051 -20.3988 -20.3988
0.210168 -20.3121 -20.3121
0.0571845 -20.2137 -20.2137
0.0542009 -20.3062 -20.3062
-0.104807 -20.3929 -20.3929
-0.111019 -20.5782 -20.5782
0.201423 -20.59 -20.59
0.207267 -20.4047 -20.4047
-0.107908 -20.4856 -20.4856
0.0451769 -20.5841 -20.5841
0.204352 -20.4973 -20.4973
0.0512051 -20.3988 -20.3988
0.048197 -20.4914 -20.4914
-0.111019 -20.5782 -20.5782
-0.117271 -20.7637 -20.7637
0.195522 -20.7755 -20.7755
0.201423 -20.59 -20.59
-0.11414 -20.6709 -20.6709
0.0391007 -20.7696 -20.7696
0.198479 -20.6827 -20.6827
0.0451769 -20.5841 -20.5841
0.0421448 -20.6768 -20.6768
-0.117271 -20.7637 -20.7637
-0.123561 -20.9494 -20.9494
0.189566 -20.9612 -20.9612
0.195522 -20.7755 -20.7755
-0.120411 -20.8565 -20.8565
0.0329771 -20.9553 -20.9553
0.192551 -20.8683 -20.8683
0.0391007 -20.7696 -20.7696
0.0360448 -20.8624 -20.8624
-0.123561 -20.9494 -20.9494
-0.129891 -21.1353 -21.1353
0.183555 -21.1471 -21.1471
0.189566 -20.9612 -20.9612
-0.126721 -21.0423 -21.0423
0.0268069 -21.1412 -21.1412
0.186567 -21.0541 -21.0541
0.0329771 -20.9553 -20.9553
0.0298978 -21.0482 -21.0482
-0.129891 -21.1353 -21.1353
-0.136258 -21.3214 -21.3214
0.17749 -21.3332 -21.3332
0.183555 -21.1471 -21.1471
-0.13307 -21.2283 -21.2283
0.0205907 -21.3272 -21.3272
0.180529 -21.2401 -21.2401
0.0268069 -21.1412 -21.1412
0.0237045 -21.2342 -21.2342
-0.136258 -21.3214 -21.3214
-0.142662 -21.5076 -21.5076
0.171372 -21.5194 -21.5194
0.17749 -21.3332 -21.3332
-0.139456 -21.4145 -21.4145
0.0143292 -21.5135 -21.5135
0.174437 -21.4263 -21.4263
0.0205907 -21.3272 -21.3272
0.0174656 -21.4203 -21.4203
-0.142662 -21.5076 -21.5076
-0.149103 -21.694 -21.694
0.165201 -21.7058 -21.7058
0.171372 -21.5194 -21.5194
-0.145878 -21.6008 -21.6008
0.00802317 -21.6999 -21.6999
0.168293 -21.6126 -21.6126
0.0143292 -21.5135 -21.5135
0.0111817 -21.6067 -21.6067
-0.149103 -21.694 -21.694
-0.15558 -21.8805 -21.8805
0.158977 -21.8924 -21.8924
0.165201 -21.7058 -21.7058
-0.152337 -21.7873 -21.7873
0.00167325 -21.8864 -21.8864
0.162095 -21.7991 -21.7991
0.00802317 -21.6999 -21.6999
0.00485365 -21.7931 -21.7931
-0.15558 -21.8805 -21.8805
-0.162091 -22.0672 -22.0672
0.152703 -22.0791 -22.0791
0.158977 -21.8924 -21.8924
-0.158831 -21.9739 -21.9739
-0.00471984 -22.0731 -22.0731
0.155847 -21.9857 -21.9857
0.00167325 -21.8864 -21.8864
-0.00151794 -21.9798 -21.9798
-0.162091 -22.0672 -22.0672
-0.168637 -22.2541 -22.2541
0.146378 -22.2659 -22.2659
0.152703 -22.0791 -22.0791
-0.16536 -22.1606 -22.1606
-0.0111554 -22.26 -22.26
0.149547 -22.1725 -22.1725
-0.00471984 -22.0731 -22.0731
-0.00793236 -22.1665 -22.1665
-0.168637 -22.2541 -22.2541
-0.175217 -22.441 -22.441
0.140003 -22.4528 -22.4528
0.146378 -22.2659 -22.2659
-0.171923 -22.3475 -22.3475
-0.0176328 -22.4469 -22.4469
0.143197 -22.3593 -22.3593
-0.0111554 -22.26 -22.26
-0.0143889 -22.3534 -22.3534
-0.175217 -22.441 -22.441
-0.18183 -22.6281 -22.6281
0.133579 -22.6399 -22.6399
0.140003 -22.4528 -22.4528
-0.178519 -22.5345 -22.5345
-0.0241513 -22.634 -22.634
0.136797 -22.5463 -22.5463
-0.0176328 -22.4469 -22.4469
-0.0208869 -22.5404 -22.5404
-0.18183 -22.6281 -22.6281
-0.188475 -22.8152 -22.8152
0.127106 -22.8271 -22.8271
0.133579 -22.6399 -22.6399
-0.185149 -22.7217 -22.7217
-0.0307103 -22.8211 -22.8211
0.130349 -22.7335 -22.7335
-0.0241513 -22.634 -22.634
-0.0274257 -22.7275 -22.7275
-0.188475 -22.8152 -22.8152
-0.195153 -23.0025 -23.0025
0.120586 -23.0143 -23.0143
0.127106 -22.8271 -22.8271
-0.19181 -22.9089 -22.9089
-0.0373093 -23.0084 -23.0084
0.123852 -22.9207 -22.9207
-0.0307103 -22.8211 -22.8211
-0.0340048 -22.9148 -22.9148
-0.195153 -23.0025 -23.0025
-0.201863 -23.1899 -23.1899
0.114019 -23.2016 -23.2016
0.120586 -23.0143 -23.0143
-0.198504 -23.0962 -23.0962
-0.0439481 -23.1957 -23.1957
0.117309 -23.108 -23.108
-0.0373093 -23.0084 -23.0084
-0.0406238 -23.1021 -23.1021
-0.201863 -23.1899 -23.1899
-0.208605 -23.3773 -23.3773
0.107405 -23.3891 -23.3891
0.114019 -23.2016 -23.2016
-0.20523 -23.2836 -23.2836
-0.0506267 -23.3832 -23.3832
0.110718 -23.2953 -23.2953
-0.0439481 -23.1957 -23.1957
-0.0472824 -23.2894 -23.2894
-0.208605 -23.3773 -23.3773
-0.215381 -23.5648 -23.5648
0.100746 -23.5765 -23.5765
0.107405 -23.3891 -23.3891
-0.211989 -23.471 -23.471
-0.0573457 -23.5706 -23.5706
0.104081 -23.4828 -23.4828
-0.0506267 -23.3832 -23.3832
-0.0539811 -23.4769 -23.4769
-0.215381 -23.5648 -23.5648
-0.222192 -23.7523 -23.7523
0.0940394 -23.7641 -23.7641
0.100746 -23.5765 -23.5765
-0.218782 -23.6585 -23.6585
-0.0641068 -23.7582 -23.7582
0.0973984 -23.6703 -23.6703
-0.0573457 -23.5706 -23.5706
-0.0607209 -23.6644 -23.6644
-0.222192 -23.7523 -23.7523
-0.22904 -23.9399 -23.9399
0.0872854 -23.9517 -23.9517
0.0940394 -23.7641 -23.7641
-0.225611 -23.8461 -23.8461
-0.0709126 -23.9458 -23.9458
0.0906687 -23.8579 -23.8579
-0.0641068 -23.7582 -23.7582
-0.0675038 -23.852 -23.852
-0.22904 -23.9399 -23.9399
-0.235924 -24.1276 -24.1276
0.0804781 -24.1393 -24.1393
0.0872854 -23.9517 -23.9517
-0.232477 -24.0337 -24.0337
-0.077767 -24.1334 -24.1334
0.0838886 -24.0455 -24.0455
-0.0709126 -23.9458 -23.9458
-0.0743337 -24.0396 -24.0396
-0.235924 -24.1276 -24.1276
-0.242838 -24.3152 -24.3152
0.0736126 -24.327 -24.327
0.0804781 -24.1393 -24.1393
-0.239379 -24.2214 -24.2214
-0.0846689 -24.3211 -24.3211
0.0770536 -24.2331 -24.2331
-0.077767 -24.1334 -24.1334
-0.0812122 -24.2273 -24.2273
-0.242838 -24.3152 -24.3152
-0.249756 -24.5029 -24.5029
0.066687 -24.5148 -24.5148
0.0736126 -24.327 -24.327
-0.246298 -24.4091 -24.4091
-0.0915978 -24.5089 -24.5089
0.0701546 -24.4209 -24.4209
-0.0846689 -24.3211 -24.3211
-0.0881346 -24.415 -24.415
-0.249756 -24.5029 -24.5029
-0.25665 -24.6905 -24.6905
0.0597871 -24.7027 -24.7027
0.066687 -24.5148 -24.5148
-0.253207 -24.5967 -24.5967
-0.0984744 -24.6966 -24.6966
0.0632227 -24.6088 -24.6088
-0.0915978 -24.5089 -24.5089
-0.0950464 -24.6027 -24.6027
0 0 0
0.00730067 -0.0020921 -0.0020921
0.0122593 -0.00615509 -0.00615509
0 0 0
0.0035436 -0.00075246 -0.00075246
0.00922767 -0.00372491 -0.00372491
0.00666587 -0.00382909 -0.00382909
0 0 0
0.00440224 -0.00163998 -0.00163998
0.00730067 -0.0020921 -0.0020921
0.0152022 -0.00603083 -0.00603083
0.0228692 -0.0107131 -0.0107131
0.0122593 -0.00615509 -0.00615509
0.011214 -0.00387138 -0.00387138
0.0188404 -0.00813499 -0.00813499
0.0175815 -0.00834802 -0.00834802
0.00922767 -0.00372491 -0.00372491
0.0140611 -0.00586274 -0.00586274
0.0152022 -0.00603083 -0.00603083
0.0231738 -0.0114394 -0.0114394
0.033562 -0.0162099 -0.0162099
0.0228692 -0.0107131 -0.0107131
0.019193 -0.00854536 -0.00854536
0.0283093 -0.0136464 -0.0136464
0.0281977 -0.0133012 -0.0133012
0.0188404 -0.00813499 -0.00813499
0.0235878 -0.0107121 -0.0107121
0.0231738 -0.0114394 -0.0114394
0.0311013 -0.0184773 -0.0184773
0.0443349 -0.0232746 -0.0232746
0.033562 -0.0162099 -0.0162099
0.0271451 -0.0147452 -0.0147452
0.0376912 -0.0206905 -0.0206905
0.0389415 -0.0195297 -0.0195297
0.0283093 -0.0136464 -0.0136464
0.0330078 -0.0169623 -0.0169623
0.0311013 -0.0184773 -0.0184773
0.0389552 -0.0272604 -0.0272604
0.0551576 -0.0320538 -0.0320538
0.0443349 -0.0232746 -0.0232746
0.0350371 -0.0226457 -0.0226457
0.0470338 -0.0294734 -0.0294734
0.0497431 -0.0274439 -0.0274439
0.0376912 -0.0206905 -0.0206905
0.0423668 -0.0248581 -0.0248581
0.0389552 -0.0272604 -0.0272604
0.0467492 -0.0378561 -0.0378561
0.0659761 -0.0426463 -0.0426463
0.0551576 -0.0320538 -0.0320538
0.0428593 -0.0323297 -0.0323297
0.0563365 -0.0400618 -0.0400618
0.0605692 -0.0371211 -0.0371211
0.0470338 -0.0294734 -0.0294734
0.0516904 -0.0345398 -0.0345398
0.0467492 -0.0378561 -0.0378561
0.0544851 -0.0502842 -0.0502842
0.0767701 -0.0550664 -0.0550664
0.0659761 -0.0426463 -0.0426463
0.0506242 -0.0438406 -0.0438406
0.0655975 -0.0524849 -0.0524849
0.0713775 -0.0486272 -0.0486272
0.0563365 -0.0400618 -0.0400618
0.0609726 -0.0460434 -0.0460434
0.0544851 -0.0502842 -0.0502842
0.0621675 -0.0645503 -0.0645503
0.0875183 -0.0693266 -0.0693266
0.0767701 -0.0550664 -0.0550664
0.0583329 -0.0571876 -0.0571876
0.0748094 -0.0667466 -0.0667466
0.0821508 -0.0619666 -0.0619666
0.0655975 -0.0524849 -0.0524849
0.0702099 -0.0593861 -0.0593861
0.0621675 -0.0645503 -0.0645503
0.0697964 -0.0806492 -0.0806492
0.0982109 -0.0854203 -0.0854203
0.0875183 -0.0693266 -0.0693266
0.0659886 -0.0723711 -0.0723711
0.083968 -0.0828429 -0.0828429
0.0928721 -0.0771447 -0.0771447
0.0748094 -0.0667466 -0.0667466
0.0793956 -0.0745659 -0.0745659
0.0697964 -0.0806492 -0.0806492
0.0773719 -0.0985732 -0.0985732
0.10884 -0.103341 -0.103341
0.0982109 -0.0854203 -0.0854203
0.0735908 -0.0893837 -0.0893837
0.0930692 -0.100765 -0.100765
0.103534 -0.0941528 -0.0941528
0.083968 -0.0828429 -0.0828429
0.088526 -0.0915765 -0.0915765
0.0773719 -0.0985732 -0.0985732
0.084893 -0.118312 -0.118312
0.119403 -0.123079 -0.123079
0.10884 -0.103341 -0.103341
0.0811393 -0.108217 -0.108217
0.10211 -0.120505 -0.120505
0.11413 -0.112983 -0.112983
0.0930692 -0.100765 -0.100765
0.0975973 -0.110409 -0.110409
0.084893 -0.118312 -0.118312
0.092359 -0.139857 -0.139857
0.129895 -0.144624 -0.144624
0.119403 -0.123079 -0.123079
0.088633 -0.12886 -0.12886
0.111089 -0.14205 -0.14205
0.124658 -0.133626 -0.133626
0.10211 -0.120505 -0.120505
0.106607 -0.131052 -0.131052
0.092359 -0.139857 -0.139857
0.0997685 -0.163197 -0.163197
0.140315 -0.167966 -0.167966
0.129895 -0.144624 -0.144624
0.0960709 -0.151303 -0.151303
0.120004 -0.165392 -0.165392
0.135114 -0.156071 -0.156071
0.111089 -0.14205 -0.14205
0.115554 -0.153497 -0.153497
0.0997685 -0.163197 -0.163197
0.107121 -0.188322 -0.188322
0.150661 -0.193096 -0.193096
0.140315 -0.167966 -0.167966
0.103452 -0.175537 -0.175537
0.128853 -0.190521 -0.190521
0.145497 -0.180308 -0.180308
0.120004 -0.165392 -0.165392
0.124436 -0.177734 -0.177734
0.107121 -0.188322 -0.188322
0.114414 -0.215222 -0.215222
0.160933 -0.220003 -0.220003
0.150661 -0.193096 -0.193096
0.110775 -0.201551 -0.201551
0.137635 -0.217425 -0.217425
0.155806 -0.206328 -0.206328
0.128853 -0.190521 -0.190521
0.133252 -0.203751 -0.203751
0.114414 -0.215222 -0.215222
0.121647 -0.243888 -0.243888
0.171128 -0.248677 -0.248677
0.160933 -0.220003 -0.220003
0.118038 -0.229335 -0.229335
0.146349 -0.246096 -0.246096
0.16604 -0.234119 -0.234119
0.137635 -0.217425 -0.217425
0.142001 -0.23154 -0.23154
0.121647 -0.243888 -0.243888
0.12882 -0.274309 -0.274309
0.181246 -0.279108 -0.279108
0.171128 -0.248677 -0.248677
0.125241 -0.25888 -0.25888
0.154995 -0.276523 -0.276523
0.176196 -0.263673 -0.263673
0.146349 -0.246096 -0.246096
0.150681 -0.261091 -0.261091
0.12882 -0.274309 -0.274309
0.13593 -0.306476 -0.306476
0.191285 -0.311287 -0.311287
0.181246 -0.279108 -0.279108
0.132383 -0.290175 -0.290175
0.16357 -0.308697 -0.308697
0.186275 -0.29498 -0.29498
0.154995 -0.276523 -0.276523
0.159291 -0.292392 -0.292392
0.13593 -0.306476 -0.306476
0.142977 -0.340379 -0.340379
0.201245 -0.345203 -0.345203
0.191285 -0.311287 -0.311287
0.139462 -0.323211 -0.323211
0.172073 -0.342608 -0.342608
0.196275 -0.328028 -0.328028
0.16357 -0.308697 -0.308697
0.167831 -0.325436 -0.325436
0.142977 -0.340379 -0.340379
0.14996 -0.376008 -0.376008
0.211124 -0.380848 -0.380848
0.201245 -0.345203 -0.345203
0.146477 -0.357978 -0.357978
0.180505 -0.378245 -0.378245
0.206195 -0.36281 -0.36281
0.172073 -0.342608 -0.342608
0.176298 -0.360211 -0.360211
0.14996 -0.376008 -0.376008
0.156878 -0.413353 -0.413353
0.220922 -0.41821 -0.41821
0.211124 -0.380848 -0.380848
0.153427 -0.394466 -0.394466
0.188863 -0.4156 -0.4156
0.216034 -0.399315 -0.399315
0.180505 -0.378245 -0.378245
0.184693 -0.396709 -0.396709
0.156878 -0.413353 -0.413353
0.16373 -0.452405 -0.452405
0.230638 -0.457281 -0.457281
0.220922 -0.41821 -0.41821
0.160312 -0.432666 -0.432666
0.197146 -0.454662 -0.454662
0.22579 -0.437532 -0.437532
0.188863 -0.4156 -0.4156
0.193014 -0.434918 -0.434918
0.16373 -0.452405 -0.452405
0.170514 -0.493153 -0.493153
0.240269 -0.498049 -0.498049
0.230638 -0.457281 -0.457281
0.16713 -0.472567 -0.472567
0.205354 -0.495422 -0.495422
0.235464 -0.477453 -0.477453
0.197146 -0.454662 -0.454662
0.20126 -0.47483 -0.47483
0.170514 -0.493153 -0.493153
0.17723 -0.535588 -0.535588
0.249816 -0.540507 -0.540507
0.240269 -0.498049 -0.498049
0.173881 -0.51416 -0.51416
0.213486 -0.537869 -0.537869
0.245053 -0.519068 -0.519068
0.205354 -0.495422 -0.495422
0.20943 -0.516435 -0.516435
0.17723 -0.535588 -0.535588
0.183877 -0.579701 -0.579701
0.259278 -0.584643 -0.584643
0.249816 -0.540507 -0.540507
0.180562 -0.557435 -0.557435
0.22154 -0.581994 -0.581994
0.254558 -0.562366 -0.562366
0.213486 -0.537869 -0.537869
0.217523 -0.559723 -0.559723
0.183877 -0.579701 -0.579701
0.190454 -0.62548 -0.62548
0.268653 -0.630448 -0.630448
0.259278 -0.584643 -0.584643
0.187174 -0.602383 -0.602383
0.229517 -0.627788 -0.627788
0.263976 -0.607337 -0.607337
0.22154 -0.581994 -0.581994
0.225538 -0.604683 -0.604683
0.190454 -0.62548 -0.62548
0.19696 -0.672918 -0.672918
0.277941 -0.677912 -0.677912
0.268653 -0.630448 -0.630448
0.193716 -0.648992 -0.648992
0.237413 -0.675239 -0.675239
0.273308 -0.653973 -0.653973
0.229517 -0.627788 -0.627788
0.233475 -0.651307 -0.651307
0.19696 -0.672918 -0.672918
0.203394 -0.722003 -0.722003
0.287141 -0.727025 -0.727025
0.277941 -0.677912 -0.677912
0.200186 -0.697255 -0.697255
0.24523 -0.72434 -0.72434
0.282552 -0.702263 -0.702263
0.237413 -0.675239 -0.675239
0.241332 -0.699584 -0.699584
0.203394 -0.722003 -0.722003
0.209755 -0.772726 -0.772726
0.296251 -0.777778 -0.777778
0.287141 -0.727025 -0.727025
0.206583 -0.74716 -0.74716
0.252966 -0.775079 -0.775079
0.291707 -0.752198 -0.752198
0.24523 -0.72434 -0.72434
0.249109 -0.749505 -0.749505
0.209755 -0.772726 -0.772726
0.216042 -0.825077 -0.825077
0.305272 -0.830161 -0.830161
0.296251 -0.777778 -0.777778
0.212908 -0.798698 -0.798698
0.26062 -0.827446 -0.827446
0.300773 -0.803766 -0.803766
0.252966 -0.775079 -0.775079
0.256804 -0.801059 -0.801059
0.216042 -0.825077 -0.825077
0.222255 -0.879047 -0.879047
0.314201 -0.884163 -0.884163
0.305272 -0.830161 -0.830161
0.219158 -0.85186 -0.85186
0.268192 -0.881433 -0.881433
0.309748 -0.85696 -0.85696
0.26062 -0.827446 -0.827446
0.264417 -0.854238 -0.854238
0.222255 -0.879047 -0.879047
0.228393 -0.934625 -0.934625
0.32304 -0.939775 -0.939775
0.314201 -0.884163 -0.884163
0.225334 -0.906635 -0.906635
0.27568 -0.93703 -0.93703
0.318632 -0.911768 -0.911768
0.268192 -0.881433 -0.881433
0.271946 -0.909031 -0.909031
0.228393 -0.934625 -0.934625
0.234455 -0.991802 -0.991802
0.331785 -0.996988 -0.996988
0.32304 -0.939775 -0.939775
0.231434 -0.963014 -0.963014
0.283084 -0.994225 -0.994225
0.327424 -0.968182 -0.968182
0.27568 -0.93703 -0.93703
0.279392 -0.965428 -0.965428
0.234455 -0.991802 -0.991802
0.24044 -1.05057 -1.05057
0.340438 -1.05579 -1.05579
0.331785 -0.996988 -0.996988
0.237457 -1.02099 -1.02099
0.290403 -1.05301 -1.05301
0.336123 -1.02619 -1.02619
0.283084 -0.994225 -0.994225
0.286754 -1.02342 -1.02342
0.24044 -1.05057 -1.05057
0.246347 -1.11091 -1.11091
0.348996 -1.11617 -1.11617
0.340438 -1.05579 -1.05579
0.243403 -1.08054 -1.08054
0.297636 -1.11338 -1.11338
0.344729 -1.08578 -1.08578
0.290403 -1.05301 -1.05301
0.29403 -1.083 -1.083
0.246347 -1.11091 -1.11091
0.252176 -1.17283 -1.17283
0.35746 -1.17813 -1.17813
0.348996 -1.11617 -1.11617
0.249271 -1.14168 -1.14168
0.304782 -1.17531 -1.17531
0.35324 -1.14695 -1.14695
0.297636 -1.11338 -1.11338
0.30122 -1.14415 -1.14415
0.252176 -1.17283 -1.17283
0.257926 -1.2363 -1.2363
0.365828 -1.24164 -1.24164
0.35746 -1.17813 -1.17813
0.255061 -1.20437 -1.20437
0.311841 -1.23881 -1.23881
0.361656 -1.20969 -1.20969
0.304782 -1.17531 -1.17531
0.308322 -1.20687 -1.20687
0.257926 -1.2363 -1.2363
0.263596 -1.30133 -1.30133
0.374101 -1.30671 -1.30671
0.365828 -1.24164 -1.24164
0.260771 -1.26862 -1.26862
0.318812 -1.30385 -1.30385
0.369977 -1.27398 -1.27398
0.311841 -1.23881 -1.23881
0.315338 -1.27114 -1.27114
0.263596 -1.30133 -1.30133
0.269185 -1.36789 -1.36789
0.382276 -1.37332 -1.37332
0.374101 -1.30671 -1.30671
0.266401 -1.33442 -1.33442
0.325695 -1.37044 -1.37044
0.378201 -1.33982 -1.33982
0.318812 -1.30385 -1.30385
0.322265 -1.33696 -1.33696
0.269185 -1.36789 -1.36789
0.274694 -1.43599 -1.43599
0.390354 -1.44146 -1.44146
0.382276 -1.37332 -1.37332
0.27195 -1.40175 -1.40175
0.332488 -1.43856 -1.43856
0.386327 -1.40719 -1.40719
0.325695 -1.37044 -1.37044
0.329103 -1.40431 -1.40431
0.274694 -1.43599 -1.43599
0.28012 -1.5056 -1.5056
0.398334 -1.51112 -1.51112
0.390354 -1.44146 -1.44146
0.277417 -1.47061 -1.47061
0.339191 -1.5082 -1.5082
0.394356 -1.4761 -1.4761
0.332488 -1.43856 -1.43856
0.335851 -1.47319 -1.47319
0.28012 -1.5056 -1.5056
0.285464 -1.57673 -1.57673
0.406214 -1.58229 -1.58229
0.398334 -1.51112 -1.51112
0.282802 -1.54098 -1.54098
0.345804 -1.57935 -1.57935
0.402286 -1.54651 -1.54651
0.339191 -1.5082 -1.5082
0.342509 -1.54359 -1.54359
0.285464 -1.57673 -1.57673
0.290725 -1.64936 -1.64936
0.413996 -1.65496 -1.65496
0.406214 -1.58229 -1.58229
0.288105 -1.61286 -1.61286
0.352325 -1.652 -1.652
0.410118 -1.61844 -1.61844
0.345804 -1.57935 -1.57935
0.349076 -1.61549 -1.61549
0.290725 -1.64936 -1.64936
0.295902 -1.72348 -1.72348
0.421677 -1.72913 -1.72913
0.413996 -1.65496 -1.65496
0.293324 -1.68623 -1.68623
0.358754 -1.72614 -1.72614
0.417849 -1.69186 -1.69186
0.352325 -1.652 -1.652
0.355551 -1.68889 -1.68889
0.295902 -1.72348 -1.72348
0.300995 -1.79908 -1.79908
0.429258 -1.80478 -1.80478
0.421677 -1.72913 -1.72913
0.298459 -1.76109 -1.76109
0.365091 -1.80177 -1.80177
0.42548 -1.76677 -1.76677
0.358754 -1.72614 -1.72614
0.361934 -1.76377 -1.76377
0.300995 -1.79908 -1.79908
0.306003 -1.87615 -1.87615
0.436738 -1.8819 -1.8819
0.429258 -1.80478 -1.80478
0.30351 -1.83743 -1.83743
0.371335 -1.87887 -1.87887
0.433011 -1.84316 -1.84316
0.365091 -1.80177 -1.80177
0.368225 -1.84014 -1.84014
0.306003 -1.87615 -1.87615
0.310926 -1.95468 -1.95468
0.444116 -1.96049 -1.96049
0.436738 -1.8819 -1.8819
0.308475 -1.91523 -1.91523
0.377486 -1.95743 -1.95743
0.440439 -1.92101 -1.92101
0.371335 -1.87887 -1.87887
0.374422 -1.91797 -1.91797
0.310926 -1.95468 -1.95468
0.315763 -2.03467 -2.03467
0.451391 -2.04052 -2.04052
0.444116 -1.96049 -1.96049
0.313355 -1.99449 -1.99449
0.383542 -2.03744 -2.03744
0.447766 -2.00032 -2.00032
0.377486 -1.95743 -1.95743
0.380525 -1.99725 -1.99725
0.315763 -2.03467 -2.03467
0.320513 -2.1161 -2.1161
0.458564 -2.122 -2.122
0.451391 -2.04052 -2.04052
0.318149 -2.0752 -2.0752
0.389503 -2.1189 -2.1189
0.45499 -2.08108 -2.08108
0.383542 -2.03744 -2.03744
0.386534 -2.07799 -2.07799
0.320513 -2.1161 -2.1161
0.325177 -2.19896 -2.19896
0.465633 -2.20492 -2.20492
0.458564 -2.122 -2.122
0.322856 -2.15735 -2.15735
0.39537 -2.20179 -2.20179
0.462112 -2.16328 -2.16328
0.389503 -2.1189 -2.1189
0.392449 -2.16016 -2.16016
0.325177 -2.19896 -2.19896
0.329753 -2.28324 -2.28324
0.472599 -2.28926 -2.28926
0.465633 -2.20492 -2.20492
0.327476 -2.24092 -2.24092
0.401141 -2.2861 -2.2861
0.469129 -2.24691 -2.24691
0.39537 -2.20179 -2.20179
0.398267 -2.24376 -2.24376
0.329753 -2.28324 -2.28324
0.334241 -2.36894 -2.36894
0.479461 -2.37501 -2.37501
0.472599 -2.28926 -2.28926
0.332008 -2.32591 -2.32591
0.406816 -2.37182 -2.37182
0.476043 -2.33196 -2.33196
0.401141 -2.2861 -2.2861
0.40399 -2.32878 -2.32878
0.334241 -2.36894 -2.36894
0.33864 -2.45604 -2.45604
0.486217 -2.46216 -2.46216
0.479461 -2.37501 -2.37501
0.336452 -2.41231 -2.41231
0.412394 -2.45895 -2.45895
0.482852 -2.41841 -2.41841
0.406816 -2.37182 -2.37182
0.409617 -2.41521 -2.41521
0.33864 -2.45604 -2.45604
0.342951 -2.54453 -2.54453
0.492869 -2.55071 -2.55071
0.486217 -2.46216 -2.46216
0.340807 -2.50011 -2.50011
0.417875 -2.54748 -2.54748
0.489556 -2.50627 -2.50627
0.412394 -2.45895 -2.45895
0.415147 -2.50304 -2.50304
0.342951 -2.54453 -2.54453
0.347173 -2.63441 -2.63441
0.499415 -2.64065 -2.64065
0.492869 -2.55071 -2.55071
0.345073 -2.5893 -2.5893
0.423259 -2.63738 -2.63738
0.496155 -2.59551 -2.59551
0.417875 -2.54748 -2.54748
0.420579 -2.59226 -2.59226
0.347173 -2.63441 -2.63441
0.351305 -2.72566 -2.72566
0.505855 -2.73196 -2.73196
0.499415 -2.64065 -2.64065
0.34925 -2.67986 -2.67986
0.428545 -2.72866 -2.72866
0.502648 -2.68613 -2.68613
0.423259 -2.63738 -2.63738
0.425914 -2.68285 -2.68285
0.351305 -2.72566 -2.72566
0.355347 -2.81828 -2.81828
0.512188 -2.82463 -2.82463
0.505855 -2.73196 -2.73196
0.353337 -2.7718 -2.7718
0.433733 -2.82131 -2.82131
0.509035 -2.77812 -2.77812
0.428545 -2.72866 -2.72866
0.431151 -2.77482 -2.77482
0.355347 -2.81828 -2.81828
0.359299 -2.91225 -2.91225
0.518415 -2.91866 -2.91866
0.512188 -2.82463 -2.82463
0.357334 -2.86509 -2.86509
0.438822 -2.91531 -2.91531
0.515315 -2.87148 -2.87148
0.433733 -2.82131 -2.82131
0.43629 -2.86814 -2.86814
0.359299 -2.91225 -2.91225
0.363159 -3.00756 -3.00756
0.524535 -3.01404 -3.01404
0.518415 -2.91866 -2.91866
0.36124 -2.95974 -2.95974
0.443813 -3.01066 -3.01066
0.521489 -2.96618 -2.96618
0.438822 -2.91531 -2.91531
0.44133 -2.96281 -2.96281
0.363159 -3.00756 -3.00756
0.366929 -3.10421 -3.10421
0.530548 -3.11074 -3.11074
0.524535 -3.01404 -3.01404
0.365056 -3.05572 -3.05572
0.448704 -3.10734 -3.10734
0.527555 -3.06222 -3.06222
0.443813 -3.01066 -3.01066
0.446271 -3.05883 -3.05883
0.366929 -3.10421 -3.10421
0.370608 -3.20219 -3.20219
0.536452 -3.20878 -3.20878
0.530548 -3.11074 -3.11074
0.36878 -3.15303 -3.15303
0.453495 -3.20534 -3.20534
0.533513 -3.1596 -3.1596
0.448704 -3.10734 -3.10734
0.451112 -3.15617 -3.15617
0.370608 -3.20219 -3.20219
0.374194 -3.30148 -3.30148
0.542249 -3.30813 -3.30813
0.536452 -3.20878 -3.20878
0.372412 -3.25167 -3.25167
0.458187 -3.30466 -3.30466
0.539364 -3.25829 -3.25829
0.453495 -3.20534 -3.20534
0.455854 -3.25484 -3.25484
0.374194 -3.30148 -3.30148
0.377689 -3.40207 -3.40207
0.547937 -3.40879 -3.40879
0.542249 -3.30813 -3.30813
0.375953 -3.35161 -3.35161
0.462778 -3.40529 -3.40529
0.545106 -3.3583 -3.3583
0.458187 -3.30466 -3.30466
0.460495 -3.35481 -3.35481
0.377689 -3.40207 -3.40207
0.381091 -3.50396 -3.50396
0.553516 -3.51074 -3.51074
0.547937 -3.40879 -3.40879
0.379401 -3.45286 -3.45286
0.467269 -3.50721 -3.50721
0.55074 -3.4596 -3.4596
0.462778 -3.40529 -3.40529
0.465036 -3.45609 -3.45609
0.381091 -3.50396 -3.50396
0.384401 -3.60714 -3.60714
0.558987 -3.61398 -3.61398
0.553516 -3.51074 -3.51074
0.382757 -3.55539 -3.55539
0.471659 -3.61042 -3.61042
0.556265 -3.5622 -3.5622
0.467269 -3.50721 -3.50721
0.469477 -3.55866 -3.55866
0.384401 -3.60714 -3.60714
0.387617 -3.71159 -3.71159
0.564348 -3.7185 -3.7185
0.558987 -3.61398 -3.61398
0.386021 -3.65921 -3.65921
0.475948 -3.71491 -3.71491
0.561681 -3.66608 -3.66608
0.471659 -3.61042 -3.61042
0.473816 -3.66251 -3.66251
0.387617 -3.71159 -3.71159
0.390741 -3.81731 -3.81731
0.5696 -3.82428 -3.82428
0.564348 -3.7185 -3.7185
0.389191 -3.7643 -3.7643
0.480136 -3.82066 -3.82066
0.566988 -3.77123 -3.77123
0.475948 -3.71491 -3.71491
0.478055 -3.76763 -3.76763
0.390741 -3.81731 -3.81731
0.393772 -3.92429 -3.92429
0.574743 -3.93132 -3.93132
0.5696 -3.82428 -3.82428
0.392268 -3.87065 -3.87065
0.484223 -3.92767 -3.92767
0.572185 -3.87765 -3.87765
0.480136 -3.82066 -3.82066
0.482192 -3.87401 -3.87401
0.393772 -3.92429 -3.92429
0.396709 -4.03252 -4.03252
0.579775 -4.03961 -4.03961
0.574743 -3.93132 -3.93132
0.395252 -3.97825 -3.97825
0.488207 -4.03593 -4.03593
0.577273 -3.98531 -3.98531
0.484223 -3.92767 -3.92767
0.486228 -3.98165 -3.98165
0.396709 -4.03252 -4.03252
0.399552 -4.14198 -4.14198
0.584698 -4.14914 -4.14914
0.579775 -4.03961 -4.03961
0.398142 -4.08709 -4.08709
0.49209 -4.14543 -4.14543
0.58225 -4.09422 -4.09422
0.488207 -4.03593 -4.03593
0.490162 -4.09052 -4.09052
0.399552 -4.14198 -4.14198
0.402301 -4.25267 -4.25267
0.58951 -4.25989 -4.25989
0.584698 -4.14914 -4.14914
0.400938 -4.19717 -4.19717
0.495871 -4.25615 -4.25615
0.587118 -4.20436 -4.20436
0.49209 -4.14543 -4.14543
0.493994 -4.20063 -4.20063
0.402301 -4.25267 -4.25267
0.404956 -4.36457 -4.36457
0.594212 -4.37187 -4.37187
0.58951 -4.25989 -4.25989
0.403641 -4.30847 -4.30847
0.49955 -4.36809 -4.36809
0.591875 -4.31573 -4.31573
0.495871 -4.25615 -4.25615
0.497723 -4.31197 -4.31197
0.404956 -4.36457 -4.36457
0.407518 -4.47769 -4.47769
0.598803 -4.48505 -4.48505
0.594212 -4.37187 -4.37187
0.406249 -4.42098 -4.42098
0.503126 -4.48124 -4.48124
0.596521 -4.4283 -4.4283
0.49955 -4.36809 -4.36809
0.501351 -4.42451 -4.42451
0.407518 -4.47769 -4.47769
0.409984 -4.592 -4.592
0.603284 -4.59942 -4.59942
0.598803 -4.48505 -4.48505
0.408763 -4.5347 -4.5347
0.5066 -4.59558 -4.59558
0.601057 -4.54209 -4.54209
0.503126 -4.48124 -4.48124
0.504876 -4.53826 -4.53826
0.409984 -4.592 -4.592
0.412357 -4.7075 -4.7075
0.607654 -4.71499 -4.71499
0.603284 -4.59942 -4.59942
0.411182 -4.6496 -4.6496
0.509971 -4.71112 -4.71112
0.605483 -4.65706 -4.65706
0.5066 -4.59558 -4.59558
0.508298 -4.6532 -4.6532
0.412357 -4.7075 -4.7075
0.414634 -4.82418 -4.82418
0.611913 -4.83174 -4.83174
0.607654 -4.71499 -4.71499
0.413507 -4.7657 -4.7657
0.513239 -4.82783 -4.82783
0.609797 -4.77322 -4.77322
0.509971 -4.71112 -4.71112
0.511618 -4.76933 -4.76933
0.414634 -4.82418 -4.82418
0.416817 -4.94203 -4.94203
0.61606 -4.94965 -4.94965
0.611913 -4.83174 -4.83174
0.415738 -4.88296 -4.88296
0.516405 -4.94572 -4.94572
0.614 -4.89055 -4.89055
0.513239 -4.82783 -4.82783
0.514835 -4.88663 -4.88663
0.416817 -4.94203 -4.94203
0.418906 -5.06104 -5.06104
0.620097 -5.06873 -5.06873
0.61606 -4.94965 -4.94965
0.417873 -5.00139 -5.00139
0.519467 -5.06476 -5.06476
0.618093 -5.00905 -5.00905
0.516405 -4.94572 -4.94572
0.517949 -5.00509 -5.00509
0.418906 -5.06104 -5.06104
0.420899 -5.1812 -5.1812
0.624023 -5.18895 -5.18895
0.620097 -5.06873 -5.06873
0.419914 -5.12098 -5.12098
0.522427 -5.18495 -5.18495
0.622074 -5.1287 -5.1287
0.519467 -5.06476 -5.06476
0.52096 -5.12471 -5.12471
0.420899 -5.1812 -5.1812
0.422798 -5.3025 -5.3025
0.627837 -5.31032 -5.31032
0.624023 -5.18895 -5.18895
0.42186 -5.24171 -5.24171
0.525283 -5.30628 -5.30628
0.625944 -5.24949 -5.24949
0.522427 -5.18495 -5.18495
0.523868 -5.24548 -5.24548
0.422798 -5.3025 -5.3025
0.424601 -5.42492 -5.42492
0.63154 -5.43281 -5.43281
0.627837 -5.31032 -5.31032
0.423711 -5.36357 -5.36357
0.528036 -5.42875 -5.42875
0.629703 -5.37142 -5.37142
0.525283 -5.30628 -5.30628
0.526673 -5.36737 -5.36737
0.424601 -5.42492 -5.42492
0.42631 -5.54847 -5.54847
0.635132 -5.55643 -5.55643
0.63154 -5.43281 -5.43281
0.425467 -5.48656 -5.48656
0.530687 -5.55233 -5.55233
0.63335 -5.49448 -5.49448
0.528036 -5.42875 -5.42875
0.529374 -5.4904 -5.4904
0.42631 -5.54847 -5.54847
0.427923 -5.67313 -5.67313
0.638613 -5.68115 -5.68115
0.635132 -5.55643 -5.55643
0.427128 -5.61066 -5.61066
0.533234 -5.67702 -5.67702
0.636886 -5.61865 -5.61865
0.530687 -5.55233 -5.55233
0.531973 -5.61454 -5.61454
0.427923 -5.67313 -5.67313
0.429442 -5.79889 -5.79889
0.641982 -5.80698 -5.80698
0.638613 -5.68115 -5.68115
0.428695 -5.73587 -5.73587
0.535678 -5.80282 -5.80282
0.640311 -5.74393 -5.74393
0.533234 -5.67702 -5.67702
0.534469 -5.73978 -5.73978
0.429442 -5.79889 -5.79889
0.430866 -5.92574 -5.92574
0.64524 -5.93389 -5.93389
0.641982 -5.80698 -5.80698
0.430166 -5.86218 -5.86218
0.538018 -5.9297 -5.9297
0.643625 -5.8703 -5.8703
0.535678 -5.80282 -5.80282
0.536861 -5.86612 -5.86612
0.430866 -5.92574 -5.92574
0.432194 -6.05367 -6.05367
0.648386 -6.06189 -6.06189
0.64524 -5.93389 -5.93389
0.431542 -5.98957 -5.98957
0.540256 -6.05767 -6.05767
0.646827 -5.99776 -5.99776
0.538018 -5.9297 -5.9297
0.53915 -5.99355 -5.99355
0.432194 -6.05367 -6.05367
0.433428 -6.18268 -6.18268
0.651422 -6.19096 -6.19096
0.648386 -6.06189 -6.06189
0.432823 -6.11804 -6.11804
0.542391 -6.1867 -6.1867
0.649918 -6.12629 -6.12629
0.540256 -6.05767 -6.05767
0.541336 -6.12205 -6.12205
0.433428 -6.18268 -6.18268
0.434567 -6.31274 -6.31274
0.654346 -6.32109 -6.32109
0.651422 -6.19096 -6.19096
0.434009 -6.24758 -6.24758
0.544422 -6.3168 -6.3168
0.652898 -6.2559 -6.2559
0.542391 -6.1867 -6.1867
0.543419 -6.25162 -6.25162
0.434567 -6.31274 -6.31274
0.435611 -6.44386 -6.44386
0.657159 -6.45228 -6.45228
0.654346 -6.32109 -6.32109
0.435101 -6.37817 -6.37817
0.546351 -6.44795 -6.44795
0.655766 -6.38655 -6.38655
0.544422 -6.3168 -6.3168
0.545399 -6.38225 -6.38225
0.435611 -6.44386 -6.44386
0.43656 -6.57602 -6.57602
0.659861 -6.5845 -6.5845
0.657159 -6.45228 -6.45228
0.436097 -6.50981 -6.50981
0.548176 -6.58015 -6.58015
0.658524 -6.51826 -6.51826
0.546351 -6.44795 -6.44795
0.547276 -6.51392 -6.51392
0.43656 -6.57602 -6.57602
0.437415 -6.70921 -6.70921
0.662451 -6.71776 -6.71776
0.659861 -6.5845 -6.5845
0.436999 -6.64248 -6.64248
0.549899 -6.71337 -6.71337
0.66117 -6.651 -6.651
0.548176 -6.58015 -6.58015
0.54905 -6.64663 -6.64663
0.437415 -6.70921 -6.70921
0.438175 -6.84342 -6.84342
0.664931 -6.85204 -6.85204
0.662451 -6.71776 -6.71776
0.437806 -6.77619 -6.77619
0.551519 -6.84762 -6.84762
0.663705 -6.78477 -6.78477
0.549899 -6.71337 -6.71337
0.550721 -6.78037 -6.78037
0.438175 -6.84342 -6.84342
0.43884 -6.97865 -6.97865
0.6673 -6.98734 -6.98734
0.664931 -6.85204 -6.85204
0.438519 -6.91091 -6.91091
0.553036 -6.98288 -6.98288
0.66613 -6.91956 -6.91956
0.551519 -6.84762 -6.84762
0.55229 -6.91513 -6.91513
0.43884 -6.97865 -6.97865
0.439411 -7.11488 -7.11488
0.669559 -7.12363 -7.12363
0.6673 -6.98734 -6.98734
0.439137 -7.04664 -7.04664
0.55445 -7.11915 -7.11915
0.668443 -7.05536 -7.05536
0.553036 -6.98288 -6.98288
0.553756 -7.05089 -7.05089
0.439411 -7.11488 -7.11488
0.439888 -7.25211 -7.25211
0.671706 -7.26092 -7.26092
0.669559 -7.12363 -7.12363
0.439661 -7.18337 -7.18337
0.555763 -7.25641 -7.25641
0.670646 -7.19215 -7.19215
0.55445 -7.11915 -7.11915
0.555119 -7.18766 -7.18766
0.439888 -7.25211 -7.25211
0.44027 -7.39032 -7.39032
0.673744 -7.3992 -7.3992
0.671706 -7.26092 -7.26092
0.440091 -7.32109 -7.32109
0.556973 -7.39465 -7.39465
0.672739 -7.32994 -7.32994
0.555763 -7.25641 -7.25641
0.55638 -7.32541 -7.32541
0.44027 -7.39032 -7.39032
0.440559 -7.5295 -7.5295
0.675671 -7.53845 -7.53845
0.673744 -7.3992 -7.3992
0.440426 -7.45979 -7.45979
0.55808 -7.53387 -7.53387
0.674721 -7.4687 -7.4687
0.556973 -7.39465 -7.39465
0.557539 -7.46414 -7.46414
0.440559 -7.5295 -7.5295
0.440754 -7.66965 -7.66965
0.677488 -7.67866 -7.67866
0.675671 -7.53845 -7.53845
0.440668 -7.59946 -7.59946
0.559086 -7.67405 -7.67405
0.676593 -7.60843 -7.60843
0.55808 -7.53387 -7.53387
0.558596 -7.60384 -7.60384
0.440754 -7.66965 -7.66965
0.440855 -7.81075 -7.81075
0.679195 -7.81983 -7.81983
0.677488 -7.67866 -7.67866
0.440816 -7.74008 -7.74008
0.55999 -7.81519 -7.81519
0.678355 -7.74912 -7.74912
0.559086 -7.67405 -7.67405
0.559551 -7.7445 -7.7445
0.440855 -7.81075 -7.81075
0.440863 -7.9528 -7.9528
0.680792 -7.96194 -7.96194
0.679195 -7.81983 -7.81983
0.440871 -7.88166 -7.88166
0.560793 -7.95727 -7.95727
0.680007 -7.89076 -7.89076
0.55999 -7.81519 -7.81519
0.560404 -7.88611 -7.88611
0.440863 -7.9528 -7.9528
0.440777 -8.09578 -8.09578
0.682279 -8.10498 -8.10498
0.680792 -7.96194 -7.96194
0.440832 -8.02418 -8.02418
0.561494 -8.10028 -8.10028
0.681549 -8.03334 -8.03334
0.560793 -7.95727 -7.95727
0.561156 -8.02866 -8.02866
0.440777 -8.09578 -8.09578
0.440599 -8.23969 -8.23969
0.683657 -8.24896 -8.24896
0.682279 -8.10498 -8.10498
0.4407 -8.16762 -8.16762
0.562093 -8.24422 -8.24422
0.682982 -8.17685 -8.17685
0.561494 -8.10028 -8.10028
0.561806 -8.17214 -8.17214
0.440599 -8.23969 -8.23969
0.440327 -8.38452 -8.38452
0.684926 -8.39384 -8.39384
0.683657 -8.24896 -8.24896
0.440474 -8.31199 -8.31199
0.562592 -8.38908 -8.38908
0.684306 -8.32129 -8.32129
0.562093 -8.24422 -8.24422
0.562355 -8.31654 -8.31654
0.440327 -8.38452 -8.38452
0.439963 -8.53025 -8.53025
0.686087 -8.53964 -8.53964
0.684926 -8.39384 -8.39384
0.440157 -8.45727 -8.45727
0.56299 -8.53484 -8.53484
0.68552 -8.46663 -8.46663
0.562592 -8.38908 -8.38908
0.562804 -8.46185 -8.46185
0.439963 -8.53025 -8.53025
0.439506 -8.67687 -8.67687
0.687138 -8.68633 -8.68633
0.686087 -8.53964 -8.53964
0.439746 -8.60345 -8.60345
0.563288 -8.6815 -8.6815
0.686626 -8.61287 -8.61287
0.56299 -8.53484 -8.53484
0.563151 -8.60806 -8.60806
0.439506 -8.67687 -8.67687
0.438958 -8.82439 -8.82439
0.688081 -8.8339 -8.8339
0.687138 -8.68633 -8.68633
0.439244 -8.75052 -8.75052
0.563485 -8.82905 -8.82905
0.687623 -8.76 -8.76
0.563288 -8.6815 -8.6815
0.563399 -8.75517 -8.75517
0.438958 -8.82439 -8.82439
0.438317 -8.97278 -8.97278
0.688915 -8.98235 -8.98235
0.688081 -8.8339 -8.8339
0.438649 -8.89847 -8.89847
0.563582 -8.97747 -8.97747
0.688512 -8.90802 -8.90802
0.563485 -8.82905 -8.82905
0.563546 -8.90315 -8.90315
0.438317 -8.97278 -8.97278
0.437585 -9.12204 -9.12204
0.689642 -9.13167 -9.13167
0.688915 -8.98235 -8.98235
0.437963 -9.0473 -9.0473
0.563579 -9.12676 -9.12676
0.689292 -9.05691 -9.05691
0.563582 -8.97747 -8.97747
0.563593 -9.05201 -9.05201
0.437585 -9.12204 -9.12204
0.436762 -9.27215 -9.27215
0.690261 -9.28185 -9.28185
0.689642 -9.13167 -9.13167
0.437185 -9.19699 -9.19699
0.563477 -9.27691 -9.27691
0.689965 -9.20665 -9.20665
0.563579 -9.12676 -9.12676
0.56354 -9.20173 -9.20173
0.436762 -9.27215 -9.27215
0.435847 -9.42312 -9.42312
0.690773 -9.43287 -9.43287
0.690261 -9.28185 -9.28185
0.436316 -9.34753 -9.34753
0.563275 -9.4279 -9.4279
0.690531 -9.35726 -9.35726
0.563477 -9.27691 -9.27691
0.563388 -9.3523 -9.3523
0.435847 -9.42312 -9.42312
0.434842 -9.57492 -9.57492
0.691178 -9.58473 -9.58473
0.690773 -9.43287 -9.43287
0.435356 -9.49891 -9.49891
0.562975 -9.57973 -9.57973
0.690989 -9.5087 -9.5087
0.563275 -9.4279 -9.4279
0.563137 -9.50371 -9.50371
0.434842 -9.57492 -9.57492
0.433746 -9.72755 -9.72755
0.691475 -9.73742 -9.73742
0.691178 -9.58473 -9.58473
0.434305 -9.65113 -9.65113
0.562576 -9.7324 -9.7324
0.69134 -9.66097 -9.66097
0.562975 -9.57973 -9.57973
0.562788 -9.65596 -9.65596
0.433746 -9.72755 -9.72755
0.43256 -9.881 -9.881
0.691667 -9.89093 -9.89093
0.691475 -9.73742 -9.73742
0.433164 -9.80417 -9.80417
0.562078 -9.88587 -9.88587
0.691584 -9.81407 -9.81407
0.562576 -9.7324 -9.7324
0.562339 -9.80903 -9.80903
0.43256 -9.881 -9.881
0.431284 -10.0353 -10.0353
0.691752 -10.0452 -10.0452
0.691667 -9.89093 -9.89093
0.431933 -9.95803 -9.95803
0.561483 -10.0402 -10.0402
0.691723 -9.96799 -9.96799
0.562078 -9.88587 -9.88587
0.561793 -9.96292 -9.96292
0.431284 -10.0353 -10.0353
0.429918 -10.1903 -10.1903
0.691731 -10.2004 -10.2004
0.691752 -10.0452 -10.0452
0.430612 -10.1127 -10.1127
0.56079 -10.1952 -10.1952
0.691755 -10.1227 -10.1227
0.561483 -10.0402 -10.0402
0.561149 -10.1176 -10.1176
0.429918 -10.1903 -10.1903
0.428464 -10.3462 -10.3462
0.691605 -10.3563 -10.3563
0.691731 -10.2004 -10.2004
0.429202 -10.2681 -10.2681
0.56 -10.3511 -10.3511
0.691682 -10.2782 -10.2782
0.56079 -10.1952 -10.1952
0.560407 -10.2731 -10.2731
0.428464 -10.3462 -10.3462
0.426921 -10.5028 -10.5028
0.691374 -10.5129 -10.5129
0.691605 -10.3563 -10.3563
0.427703 -10.4244 -10.4244
0.559112 -10.5078 -10.5078
0.691503 -10.4345 -10.4345
0.56 -10.3511 -10.3511
0.559568 -10.4294 -10.4294
0.426921 -10.5028 -10.5028
0.425289 -10.6602 -10.6602
0.691038 -10.6704 -10.6704
0.691374 -10.5129 -10.5129
0.426116 -10.5814 -10.5814
0.558129 -10.6652 -10.6652
0.691219 -10.5916 -10.5916
0.559112 -10.5078 -10.5078
0.558633 -10.5864 -10.5864
0.425289 -10.6602 -10.6602
0.423569 -10.8183 -10.8183
0.690598 -10.8286 -10.8286
0.691038 -10.6704 -10.6704
0.42444 -10.7392 -10.7392
0.557048 -10.8234 -10.8234
0.690831 -10.7494 -10.7494
0.558129 -10.6652 -10.6652
0.557601 -10.7442 -10.7442
0.423569 -10.8183 -10.8183
0.421761 -10.9772 -10.9772
0.690054 -10.9876 -10.9876
0.690598 -10.8286 -10.8286
0.422676 -10.8977 -10.8977
0.555873 -10.9823 -10.9823
0.690339 -10.908 -10.908
0.557048 -10.8234 -10.8234
0.556472 -10.9028 -10.9028
0.421761 -10.9772 -10.9772
0.419866 -11.1369 -11.1369
0.689406 -11.1473 -11.1473
0.690054 -10.9876 -10.9876
0.420825 -11.057 -11.057
0.554601 -11.142 -11.142
0.689743 -11.0673 -11.0673
0.555873 -10.9823 -10.9823
0.555249 -11.0621 -11.0621
0.419866 -11.1369 -11.1369
0.417885 -11.2973 -11.2973
0.688655 -11.3077 -11.3077
0.689406 -11.1473 -11.1473
0.418886 -11.217 -11.217
0.553235 -11.3024 -11.3024
0.689043 -11.2274 -11.2274
0.554601 -11.142 -11.142
0.55393 -11.2221 -11.2221
0.417885 -11.2973 -11.2973
0.415816 -11.4584 -11.4584
0.687801 -11.4689 -11.4689
0.688655 -11.3077 -11.3077
0.416861 -11.3777 -11.3777
0.551773 -11.4635 -11.4635
0.688241 -11.3882 -11.3882
0.553235 -11.3024 -11.3024
0.552516 -11.3829 -11.3829
0.415816 -11.4584 -11.4584
0.413662 -11.6202 -11.6202
0.686844 -11.6307 -11.6307
0.687801 -11.4689 -11.4689
0.41475 -11.5392 -11.5392
0.550218 -11.6254 -11.6254
0.687335 -11.5497 -11.5497
0.551773 -11.4635 -11.4635
0.551007 -11.5444 -11.5444
0.413662 -11.6202 -11.6202
0.411422 -11.7827 -11.7827
0.685786 -11.7933 -11.7933
0.686844 -11.6307 -11.6307
0.412552 -11.7014 -11.7014
0.548568 -11.7879 -11.7879
0.686328 -11.7119 -11.7119
0.550218 -11.6254 -11.6254
0.549405 -11.7066 -11.7066
0.411422 -11.7827 -11.7827
0.409096 -11.9459 -11.9459
0.684626 -11.9566 -11.9566
0.685786 -11.7933 -11.7933
0.410269 -11.8642 -11.8642
0.546826 -11.9512 -11.9512
0.685219 -11.8748 -11.8748
0.548568 -11.7879 -11.7879
0.547709 -11.8695 -11.8695
0.409096 -11.9459 -11.9459
0.406686 -12.1098 -12.1098
0.683365 -12.1205 -12.1205
0.684626 -11.9566 -11.9566
0.407901 -12.0278 -12.0278
0.54499 -12.1151 -12.1151
0.684008 -12.0384 -12.0384
0.546826 -11.9512 -11.9512
0.545919 -12.033 -12.033
0.406686 -12.1098 -12.1098
0.404191 -12.2744 -12.2744
0.682003 -12.2851 -12.2851
0.683365 -12.1205 -12.1205
0.405449 -12.192 -12.192
0.543062 -12.2797 -12.2797
0.682697 -12.2027 -12.2027
0.54499 -12.1151 -12.1151
0.544037 -12.1973 -12.1973
0.404191 -12.2744 -12.2744
0.401612 -12.4396 -12.4396
0.680541 -12.4504 -12.4504
0.682003 -12.2851 -12.2851
0.402912 -12.3569 -12.3569
0.541041 -12.4449 -12.4449
0.681285 -12.3677 -12.3677
0.543062 -12.2797 -12.2797
0.542063 -12.3622 -12.3622
0.401612 -12.4396 -12.4396
0.39895 -12.6055 -12.6055
0.67898 -12.6163 -12.6163
0.680541 -12.4504 -12.4504
0.400292 -12.5225 -12.5225
0.538929 -12.6108 -12.6108
0.679773 -12.5333 -12.5333
0.541041 -12.4449 -12.4449
0.539997 -12.5278 -12.5278
0.39895 -12.6055 -12.6055
0.396205 -12.772 -12.772
0.677318 -12.7829 -12.7829
0.67898 -12.6163 -12.6163
0.397588 -12.6887 -12.6887
0.536726 -12.7774 -12.7774
0.678161 -12.6995 -12.6995
0.538929 -12.6108 -12.6108
0.537839 -12.694 -12.694
0.396205 -12.772 -12.772
0.393377 -12.9392 -12.9392
0.675558 -12.9501 -12.9501
0.677318 -12.7829 -12.7829
0.394802 -12.8555 -12.8555
0.534432 -12.9446 -12.9446
0.676451 -12.8664 -12.8664
0.536726 -12.7774 -12.7774
0.535591 -12.8609 -12.8609
0.393377 -12.9392 -12.9392
0.390468 -13.107 -13.107
0.6737 -13.1179 -13.1179
0.675558 -12.9501 -12.9501
0.391933 -13.023 -13.023
0.532048 -13.1124 -13.1124
0.674642 -13.0339 -13.0339
0.534432 -12.9446 -12.9446
0.533252 -13.0284 -13.0284
0.390468 -13.107 -13.107
0.387476 -13.2754 -13.2754
0.671744 -13.2864 -13.2864
0.6737 -13.1179 -13.1179
0.388982 -13.1911 -13.1911
0.529574 -13.2808 -13.2808
0.672734 -13.2021 -13.2021
0.532048 -13.1124 -13.1124
0.530823 -13.1965 -13.1965
0.387476 -13.2754 -13.2754
0.384404 -13.4444 -13.4444
0.66969 -13.4554 -13.4554
0.671744 -13.2864 -13.2864
0.38595 -13.3598 -13.3598
0.527011 -13.4498 -13.4498
0.670729 -13.3708 -13.3708
0.529574 -13.2808 -13.2808
0.528304 -13.3652 -13.3652
0.384404 -13.4444 -13.4444
0.381251 -13.614 -13.614
0.66754 -13.6251 -13.6251
0.66969 -13.4554 -13.4554
0.382837 -13.5291 -13.5291
0.52436 -13.6195 -13.6195
0.668627 -13.5402 -13.5402
0.527011 -13.4498 -13.4498
0.525697 -13.5346 -13.5346
0.381251 -13.614 -13.614
0.378018 -13.7842 -13.7842
0.665293 -13.7953 -13.7953
0.66754 -13.6251 -13.6251
0.379644 -13.699 -13.699
0.52162 -13.7897 -13.7897
0.666429 -13.7101 -13.7101
0.52436 -13.6195 -13.6195
0.523001 -13.7045 -13.7045
0.378018 -13.7842 -13.7842
0.374705 -13.9549 -13.9549
0.662951 -13.9661 -13.9661
0.665293 -13.7953 -13.7953
0.376371 -13.8695 -13.8695
0.518792 -13.9605 -13.9605
0.664134 -13.8806 -13.8806
0.52162 -13.7897 -13.7897
0.520217 -13.875 -13.875
0.374705 -13.9549 -13.9549
0.371313 -14.1263 -14.1263
0.660513 -14.1375 -14.1375
0.662951 -13.9661 -13.9661
0.373019 -14.0405 -14.0405
0.515877 -14.1318 -14.1318
0.661744 -14.0517 -14.0517
0.518792 -13.9605 -13.9605
0.517345 -14.0461 -14.0461
0.371313 -14.1263 -14.1263
0.367843 -14.2982 -14.2982
0.65798 -14.3094 -14.3094
0.660513 -14.1375 -14.1375
0.369588 -14.2121 -14.2121
0.512875 -14.3037 -14.3037
0.659258 -14.2234 -14.2234
0.515877 -14.1318 -14.1318
0.514387 -14.2177 -14.2177
0.367843 -14.2982 -14.2982
0.364295 -14.4706 -14.4706
0.655353 -14.4819 -14.4819
0.65798 -14.3094 -14.3094
0.366078 -14.3843 -14.3843
0.509788 -14.4762 -14.4762
0.656678 -14.3956 -14.3956
0.512875 -14.3037 -14.3037
0.511342 -14.3899 -14.3899
0.364295 -14.4706 -14.4706
0.360669 -14.6436 -14.6436
0.652632 -14.6549 -14.6549
0.655353 -14.4819 -14.4819
0.362491 -14.557 -14.557
0.506614 -14.6492 -14.6492
0.654004 -14.5683 -14.5683
0.509788 -14.4762 -14.4762
0.508212 -14.5626 -14.5626
0.360669 -14.6436 -14.6436
0.356966 -14.8171 -14.8171
0.649818 -14.8284 -14.8284
0.652632 -14.6549 -14.6549
0.358827 -14.7302 -14.7302
0.503356 -14.8227 -14.8227
0.651237 -14.7416 -14.7416
0.506614 -14.6492 -14.6492
0.504996 -14.7359 -14.7359
0.356966 -14.8171 -14.8171
0.353187 -14.9911 -14.9911
0.646911 -15.0025 -15.0025
0.649818 -14.8284 -14.8284
0.355086 -14.904 -14.904
0.500013 -14.9967 -14.9967
0.648376 -14.9154 -14.9154
0.503356 -14.8227 -14.8227
0.501695 -14.9096 -14.9096
0.353187 -14.9911 -14.9911
0.349332 -15.1656 -15.1656
0.643913 -15.177 -15.177
0.646911 -15.0025 -15.0025
0.351269 -15.0783 -15.0783
0.496586 -15.1713 -15.1713
0.645424 -15.0897 -15.0897
0.500013 -14.9967 -14.9967
0.49831 -15.0839 -15.0839
0.349332 -15.1656 -15.1656
0.345402 -15.3406 -15.3406
0.640823 -15.3521 -15.3521
0.643913 -15.177 -15.177
0.347377 -15.2531 -15.2531
0.493076 -15.3463 -15.3463
0.642379 -15.2645 -15.2645
0.496586 -15.1713 -15.1713
0.494842 -15.2587 -15.2587
0.345402 -15.3406 -15.3406
0.341398 -15.5162 -15.5162
0.637641 -15.5277 -15.5277
0.640823 -15.3521 -15.3521
0.343409 -15.4283 -15.4283
0.489483 -15.5218 -15.5218
0.639243 -15.4398 -15.4398
0.493076 -15.3463 -15.3463
0.49129 -15.434 -15.434
0.341398 -15.5162 -15.5162
0.337319 -15.6921 -15.6921
0.63437 -15.7037 -15.7037
0.637641 -15.5277 -15.5277
0.339368 -15.6041 -15.6041
0.485808 -15.6979 -15.6979
0.636017 -15.6156 -15.6156
0.489483 -15.5218 -15.5218
0.487656 -15.6098 -15.6098
0.337319 -15.6921 -15.6921
0.333167 -15.8686 -15.8686
0.631009 -15.8802 -15.8802
0.63437 -15.7037 -15.7037
0.335252 -15.7803 -15.7803
0.482051 -15.8743 -15.8743
0.6327 -15.7919 -15.7919
0.485808 -15.6979 -15.6979
0.48394 -15.786 -15.786
0.333167 -15.8686 -15.8686
0.328942 -16.0455 -16.0455
0.627558 -16.0571 -16.0571
0.631009 -15.8802 -15.8802
0.331063 -15.957 -15.957
0.478213 -16.0513 -16.0513
0.629295 -15.9686 -15.9686
0.482051 -15.8743 -15.8743
0.480142 -15.9628 -15.9628
0.328942 -16.0455 -16.0455
0.324644 -16.2229 -16.2229
0.624019 -16.2345 -16.2345
0.627558 -16.0571 -16.0571
0.326802 -16.1342 -16.1342
0.474295 -16.2287 -16.2287
0.6258 -16.1458 -16.1458
0.478213 -16.0513 -16.0513
0.476264 -16.1399 -16.1399
0.324644 -16.2229 -16.2229
0.320275 -16.4007 -16.4007
0.620392 -16.4124 -16.4124
0.624019 -16.2345 -16.2345
0.322468 -16.3118 -16.3118
0.470297 -16.4065 -16.4065
0.622217 -16.3234 -16.3234
0.474295 -16.2287 -16.2287
0.472306 -16.3175 -16.3175
0.320275 -16.4007 -16.4007
0.315835 -16.579 -16.579
0.616678 -16.5907 -16.5907
0.620392 -16.4124 -16.4124
0.318064 -16.4898 -16.4898
0.466219 -16.5848 -16.5848
0.618546 -16.5015 -16.5015
0.470297 -16.4065 -16.4065
0.468268 -16.4956 -16.4956
0.315835 -16.579 -16.579
0.311324 -16.7577 -16.7577
0.612876 -16.7693 -16.7693
0.616678 -16.5907 -16.5907
0.313588 -16.6683 -16.6683
0.462063 -16.7635 -16.7635
0.614788 -16.6799 -16.6799
0.466219 -16.5848 -16.5848
0.464151 -16.6741 -16.6741
0.311324 -16.7577 -16.7577
0.306743 -16.9367 -16.9367
0.608989 -16.9485 -16.9485
0.612876 -16.7693 -16.7693
0.309042 -16.8471 -16.8471
0.457829 -16.9425 -16.9425
0.610943 -16.8589 -16.8589
0.462063 -16.7635 -16.7635
0.459956 -16.853 -16.853
0.306743 -16.9367 -16.9367
0.302093 -17.1162 -17.1162
0.605016 -17.128 -17.128
0.608989 -16.9485 -16.9485
0.304426 -17.0264 -17.0264
0.453517 -17.122 -17.122
0.607013 -17.0382 -17.0382
0.457829 -16.9425 -16.9425
0.455683 -17.0322 -17.0322
0.302093 -17.1162 -17.1162
0.297374 -17.2961 -17.2961
0.600958 -17.3079 -17.3079
0.605016 -17.128 -17.128
0.299742 -17.2061 -17.2061
0.449129 -17.3019 -17.3019
0.602997 -17.2179 -17.2179
0.453517 -17.122 -17.122
0.451333 -17.2119 -17.2119
0.297374 -17.2961 -17.2961
0.292587 -17.4764 -17.4764
0.596815 -17.4881 -17.4881
0.600958 -17.3079 -17.3079
0.294989 -17.3862 -17.3862
0.444664 -17.4822 -17.4822
0.598897 -17.398 -17.398
0.449129 -17.3019 -17.3019
0.446906 -17.392 -17.392
0.292587 -17.4764 -17.4764
0.287733 -17.657 -17.657
0.592589 -17.6688 -17.6688
0.596815 -17.4881 -17.4881
0.290168 -17.5666 -17.5666
0.440124 -17.6629 -17.6629
0.594713 -17.5784 -17.5784
0.444664 -17.4822 -17.4822
0.442403 -17.5725 -17.5725
0.287733 -17.657 -17.657
0.282812 -17.838 -17.838
0.58828 -17.8498 -17.8498
0.592589 -17.6688 -17.6688
0.285281 -17.7474 -17.7474
0.435509 -17.8439 -17.8439
0.590445 -17.7593 -17.7593
0.440124 -17.6629 -17.6629
0.437826 -17.7533 -17.7533
0.282812 -17.838 -17.838
0.277825 -18.0193 -18.0193
0.583889 -18.0312 -18.0312
0.58828 -17.8498 -17.8498
0.280326 -17.9286 -17.9286
0.430819 -18.0252 -18.0252
0.586095 -17.9405 -17.9405
0.435509 -17.8439 -17.8439
0.433173 -17.9345 -17.9345
0.277825 -18.0193 -18.0193
0.272772 -18.201 -18.201
0.579415 -18.2129 -18.2129
0.583889 -18.0312 -18.0312
0.275306 -18.1101 -18.1101
0.426056 -18.2069 -18.2069
0.581662 -18.122 -18.122
0.430819 -18.0252 -18.0252
0.428447 -18.116 -18.116
0.272772 -18.201 -18.201
0.267654 -18.3831 -18.3831
0.574861 -18.3949 -18.3949
0.579415 -18.2129 -18.2129
0.270221 -18.292 -18.292
0.42122 -18.389 -18.389
0.577148 -18.3039 -18.3039
0.426056 -18.2069 -18.2069
0.423647 -18.2979 -18.2979
0.267654 -18.3831 -18.3831
0.262472 -18.5654 -18.5654
0.570226 -18.5773 -18.5773
0.574861 -18.3949 -18.3949
0.265071 -18.4742 -18.4742
0.416312 -18.5713 -18.5713
0.572553 -18.4861 -18.4861
0.42122 -18.389 -18.389
0.418775 -18.4801 -18.4801
0.262472 -18.5654 -18.5654
0.257227 -18.7481 -18.7481
0.565511 -18.76 -18.76
0.570226 -18.5773 -18.5773
0.259858 -18.6567 -18.6567
0.411331 -18.754 -18.754
0.567878 -18.6686 -18.6686
0.416312 -18.5713 -18.5713
0.41383 -18.6626 -18.6626
0.257227 -18.7481 -18.7481
0.251919 -18.9311 -18.9311
0.560717 -18.943 -18.943
0.565511 -18.76 -18.76
0.254581 -18.8395 -18.8395
0.40628 -18.937 -18.937
0.563124 -18.8514 -18.8514
0.411331 -18.754 -18.754
0.408815 -18.8455 -18.8455
0.251919 -18.9311 -18.9311
0.246548 -19.1143 -19.1143
0.555845 -19.1263 -19.1263
0.560717 -18.943 -18.943
0.249241 -19.0227 -19.0227
0.401159 -19.1203 -19.1203
0.558291 -19.0346 -19.0346
0.40628 -18.937 -18.937
0.403728 -19.0286 -19.0286
0.246548 -19.1143 -19.1143
0.241116 -19.2979 -19.2979
0.550894 -19.3098 -19.3098
0.555845 -19.1263 -19.1263
0.24384 -19.2061 -19.2061
0.395967 -19.3038 -19.3038
0.553379 -19.218 -19.218
0.401159 -19.1203 -19.1203
0.398572 -19.212 -19.212
0.241116 -19.2979 -19.2979
0.235623 -19.4817 -19.4817
0.545867 -19.4937 -19.4937
0.550894 -19.3098 -19.3098
0.238377 -19.3898 -19.3898
0.390707 -19.4877 -19.4877
0.54839 -19.4017 -19.4017
0.395967 -19.3038 -19.3038
0.393346 -19.3957 -19.3957
0.235623 -19.4817 -19.4817
0.23007 -19.6658 -19.6658
0.540763 -19.6778 -19.6778
0.545867 -19.4937 -19.4937
0.232854 -19.5737 -19.5737
0.385378 -19.6718 -19.6718
0.543324 -19.5857 -19.5857
0.390707 -19.4877 -19.4877
0.388051 -19.5797 -19.5797
0.23007 -19.6658 -19.6658
0.224457 -19.8502 -19.8502
0.535583 -19.8621 -19.8621
0.540763 -19.6778 -19.6778
0.22727 -19.758 -19.758
0.379982 -19.8561 -19.8561
0.538182 -19.7699 -19.7699
0.385378 -19.6718 -19.6718
0.382688 -19.7639 -19.7639
0.224457 -19.8502 -19.8502
0.218785 -20.0348 -20.0348
0.530327 -20.0468 -20.0468
0.535583 -19.8621 -19.8621
0.221628 -19.9425 -19.9425
0.374518 -20.0407 -20.0407
0.532964 -19.9544 -19.9544
0.379982 -19.8561 -19.8561
0.377258 -19.9484 -19.9484
0.218785 -20.0348 -20.0348
0.213055 -20.2196 -20.2196
0.524998 -20.2316 -20.2316
0.530327 -20.0468 -20.0468
0.215927 -20.1272 -20.1272
0.368988 -20.2256 -20.2256
0.527672 -20.1392 -20.1392
0.374518 -20.0407 -20.0407
0.371761 -20.1331 -20.1331
0.213055 -20.2196 -20.2196
0.207267 -20.4047 -20.4047
0.519594 -20.4167 -20.4167
0.524998 -20.2316 -20.2316
0.210168 -20.3121 -20.3121
0.363393 -20.4107 -20.4107
0.522305 -20.3241 -20.3241
0.368988 -20.2256 -20.2256
0.366198 -20.3181 -20.3181
0.207267 -20.4047 -20.4047
0.201423 -20.59 -20.59
0.514118 -20.602 -20.602
0.519594 -20.4167 -20.4167
0.204352 -20.4973 -20.4973
0.357732 -20.596 -20.596
0.516865 -20.5093 -20.5093
0.363393 -20.4107 -20.4107
0.36057 -20.5033 -20.5033
0.201423 -20.59 -20.59
0.195522 -20.7755 -20.7755
0.508569 -20.7875 -20.7875
0.514118 -20.602 -20.602
0.198479 -20.6827 -20.6827
0.352007 -20.7815 -20.7815
0.511352 -20.6947 -20.6947
0.357732 -20.596 -20.596
0.354878 -20.6887 -20.6887
0.195522 -20.7755 -20.7755
0.189566 -20.9612 -20.9612
0.502948 -20.9732 -20.9732
0.508569 -20.7875 -20.7875
0.192551 -20.8683 -20.8683
0.346219 -20.9672 -20.9672
0.505767 -20.8803 -20.8803
0.352007 -20.7815 -20.7815
0.349121 -20.8743 -20.8743
0.189566 -20.9612 -20.9612
0.183555 -21.1471 -21.1471
0.497256 -21.1591 -21.1591
0.502948 -20.9732 -20.9732
0.186567 -21.0541 -21.0541
0.340367 -21.1531 -21.1531
0.500111 -21.0661 -21.0661
0.346219 -20.9672 -20.9672
0.343301 -21.0601 -21.0601
0.183555 -21.1471 -21.1471
0.17749 -21.3332 -21.3332
0.491494 -21.3451 -21.3451
0.497256 -21.1591 -21.1591
0.180529 -21.2401 -21.2401
0.334453 -21.3391 -21.3391
0.494384 -21.2521 -21.2521
0.340367 -21.1531 -21.1531
0.337418 -21.2461 -21.2461
0.17749 -21.3332 -21.3332
0.171372 -21.5194 -21.5194
0.485662 -21.5314 -21.5314
0.491494 -21.3451 -21.3451
0.174437 -21.4263 -21.4263
0.328478 -21.5254 -21.5254
0.488587 -21.4382 -21.4382
0.334453 -21.3391 -21.3391
0.331473 -21.4322 -21.4322
0.171372 -21.5194 -21.5194
0.165201 -21.7058 -21.7058
0.479761 -21.7178 -21.7178
0.485662 -21.5314 -21.5314
0.168293 -21.6126 -21.6126
0.322442 -21.7118 -21.7118
0.48272 -21.6246 -21.6246
0.328478 -21.5254 -21.5254
0.325468 -21.6185 -21.6185
0.165201 -21.7058 -21.7058
0.158977 -21.8924 -21.8924
0.473792 -21.9043 -21.9043
0.479761 -21.7178 -21.7178
0.162095 -21.7991 -21.7991
0.316346 -21.8983 -21.8983
0.476785 -21.811 -21.811
0.322442 -21.7118 -21.7118
0.319401 -21.805 -21.805
0.158977 -21.8924 -21.8924
0.152703 -22.0791 -22.0791
0.467755 -22.091 -22.091
0.473792 -21.9043 -21.9043
0.155847 -21.9857 -21.9857
0.31019 -22.085 -22.085
0.470782 -21.9976 -21.9976
0.316346 -21.8983 -21.8983
0.313275 -21.9916 -21.9916
0.152703 -22.0791 -22.0791
0.146378 -22.2659 -22.2659
0.461652 -22.2778 -22.2778
0.467755 -22.091 -22.091
0.149547 -22.1725 -22.1725
0.303976 -22.2718 -22.2718
0.464712 -22.1844 -22.1844
0.31019 -22.085 -22.085
0.30709 -22.1784 -22.1784
0.146378 -22.2659 -22.2659
0.140003 -22.4528 -22.4528
0.455482 -22.4648 -22.4648
0.461652 -22.2778 -22.2778
0.143197 -22.3593 -22.3593
0.297703 -22.4588 -22.4588
0.458575 -22.3713 -22.3713
0.303976 -22.2718 -22.2718
0.300847 -22.3653 -22.3653
0.140003 -22.4528 -22.4528
0.133579 -22.6399 -22.6399
0.449247 -22.6518 -22.6518
0.455482 -22.4648 -22.4648
0.136797 -22.5463 -22.5463
0.291374 -22.6458 -22.6458
0.452372 -22.5583 -22.5583
0.297703 -22.4588 -22.4588
0.294546 -22.5523 -22.5523
0.133579 -22.6399 -22.6399
0.127106 -22.8271 -22.8271
0.442947 -22.839 -22.839
0.449247 -22.6518 -22.6518
0.130349 -22.7335 -22.7335
0.284988 -22.833 -22.833
0.446105 -22.7454 -22.7454
0.291374 -22.6458 -22.6458
0.288188 -22.7394 -22.7394
0.127106 -22.8271 -22.8271
0.120586 -23.0143 -23.0143
0.436584 -23.0262 -23.0262
0.442947 -22.839 -22.839
0.123852 -22.9207 -22.9207
0.278546 -23.0202 -23.0202
0.439773 -22.9326 -22.9326
0.284988 -22.833 -22.833
0.281774 -22.9266 -22.9266
0.120586 -23.0143 -23.0143
0.114019 -23.2016 -23.2016
0.430158 -23.2135 -23.2135
0.436584 -23.0262 -23.0262
0.117309 -23.108 -23.108
0.272051 -23.2076 -23.2076
0.433379 -23.1199 -23.1199
0.278546 -23.0202 -23.0202
0.275305 -23.1139 -23.1139
0.114019 -23.2016 -23.2016
0.107405 -23.3891 -23.3891
0.423673 -23.4009 -23.4009
0.430158 -23.2135 -23.2135
0.110718 -23.2953 -23.2953
0.265502 -23.395 -23.395
0.426923 -23.3072 -23.3072
0.272051 -23.2076 -23.2076
0.268783 -23.3013 -23.3013
0.107405 -23.3891 -23.3891
0.100746 -23.5765 -23.5765
0.41713 -23.5884 -23.5884
0.423673 -23.4009 -23.4009
0.104081 -23.4828 -23.4828
0.258902 -23.5825 -23.5825
0.420408 -23.4946 -23.4946
0.265502 -23.395 -23.395
0.262208 -23.4887 -23.4887
0.100746 -23.5765 -23.5765
0.0940394 -23.7641 -23.7641
0.410534 -23.7759 -23.7759
0.41713 -23.5884 -23.5884
0.0973984 -23.6703 -23.6703
0.252253 -23.77 -23.77
0.413838 -23.6821 -23.6821
0.258902 -23.5825 -23.5825
0.255584 -23.6762 -23.6762
0.0940394 -23.7641 -23.7641
0.0872854 -23.9517 -23.9517
0.403893 -23.9635 -23.9635
0.410534 -23.7759 -23.7759
0.0906687 -23.8579 -23.8579
0.245558 -23.9575 -23.9575
0.407218 -23.8697 -23.8697
0.252253 -23.77 -23.77
0.248911 -23.8638 -23.8638
0.0872854 -23.9517 -23.9517
0.0804781 -24.1393 -24.1393
0.39722 -24.1511 -24.1511
0.403893 -23.9635 -23.9635
0.0838886 -24.0455 -24.0455
0.238819 -24.1452 -24.1452
0.400559 -24.0573 -24.0573
0.245558 -23.9575 -23.9575
0.242195 -24.0514 -24.0514
0.0804781 -24.1393 -24.1393
0.0736126 -24.327 -24.327
0.390537 -24.3388 -24.3388
0.39722 -24.1511 -24.1511
0.0770536 -24.2331 -24.2331
0.23203 -24.3329 -24.3329
0.393877 -24.2449 -24.2449
0.238819 -24.1452 -24.1452
0.235431 -24.239 -24.239
0.0736126 -24.327 -24.327
0.066687 -24.5148 -24.5148
0.383895 -24.5267 -24.5267
0.390537 -24.3388 -24.3388
0.0701546 -24.4209 -24.4209
0.225168 -24.5207 -24.5207
0.387205 -24.4327 -24.4327
0.23203 -24.3329 -24.3329
0.228613 -24.4268 -24.4268
0.066687 -24.5148 -24.5148
0.0597871 -24.7027 -24.7027
0.377238 -24.7153 -24.7153
0.383895 -24.5267 -24.5267
0.0632227 -24.6088 -24.6088
0.218224 -24.709 -24.709
0.380599 -24.6208 -24.6208
0.225168 -24.5207 -24.5207
0.22169 -24.6148 -24.6148
      </DataArray> 
      <DataArray type="Float64" NumberOfComponents="4" Name="CauchyStress" format="ascii">
-12975.9 -3914.55 0 -3056.94
-8373.91 158.619 0 134.914
-6272.82 -681.852 0 -338.432
-5927 -1787.63 0 -232.15
-9307.41 190.092 0 -415.023
-7806.37 -481.741 0 -435.957
-6157.15 -1284.7 0 -396.636
-6957.32 -2099.06 0 -746.769
-7710.85 -1057.52 0 -693.979
-8373.91 158.619 0 134.914
-8302.51 90.4897 0 52.8885
-6364.32 -206.695 0 -152.161
-6272.82 -681.852 0 -338.432
-8311.87 -30.9637 0 66.7962
-7511.61 -72.1938 0 -59.5156
-6359.7 -352.381 0 -239.072
-7806.37 -481.741 0 -435.957
-7606 -173.947 0 -167.326
-8302.51 90.4897 0 52.8885
-8458.15 -30.3064 0 37.5604
-6283.58 -42.7827 0 -45.1563
-6364.32 -206.695 0 -152.161
-8392.14 58.2468 0 55.393
-7413.86 -5.40164 0 11.2102
-6315.77 -105.177 0 -82.419
-7511.61 -72.1938 0 -59.5156
-7458.38 -29.2143 0 -19.3294
-8458.15 -30.3064 0 37.5604
-8495.04 8.47944 0 24.2595
-6228.85 -8.08286 0 -18.7431
-6283.58 -42.7827 0 -45.1563
-8479.07 -27.7301 0 19.7909
-7368.76 3.03674 0 25.0611
-6259.3 -17.3399 0 -28.004
-7413.86 -5.40164 0 11.2102
-7382.58 3.60584 0 25.876
-8495.04 8.47944 0 24.2595
-8525.03 -10.1737 0 33.6186
-6174.16 4.73619 0 -14.058
-6228.85 -8.08286 0 -18.7431
-8516.65 5.8155 0 32.587
-7347.81 2.0706 0 19.749
-6197.06 0.209676 0 -14.1521
-7368.76 3.03674 0 25.0611
-7360.49 1.69712 0 20.9007
-8525.03 -10.1737 0 33.6186
-8511.78 1.14125 0 37.1739
-6136.42 2.22261 0 -17.9938
-6174.16 4.73619 0 -14.058
-8519.23 -7.45475 0 33.2401
-7321.72 0.241994 0 15.4939
-6155.89 4.14829 0 -16.2532
-7347.81 2.0706 0 19.749
-7334.01 1.71821 0 18.1179
-8511.78 1.14125 0 37.1739
-8491.58 -2.49105 0 44.4952
-6099.83 -0.145576 0 -20.5185
-6136.42 2.22261 0 -17.9938
-8504.15 0.790718 0 41.8136
-7293.88 -1.74147 0 13.3016
-6117 1.08816 0 -19.2773
-7321.72 0.241994 0 15.4939
-7308.93 -1.07641 0 13.6991
-8491.58 -2.49105 0 44.4952
-8456.71 -0.0105499 0 49.9664
-6067.23 -3.2764 0 -21.7614
-6099.83 -0.145576 0 -20.5185
-8474.61 -1.82897 0 46.7369
-7261.25 -2.82701 0 13.6837
-6083.74 -1.81882 0 -21.4981
-7293.88 -1.74147 0 13.3016
-7277.65 -2.23563 0 13.3328
-8456.71 -0.0105499 0 49.9664
-8418.43 -0.767115 0 56.1395
-6034.6 -5.12194 0 -20.8886
-6067.23 -3.2764 0 -21.7614
-8438.28 -0.0757292 0 53.307
-7226.59 -3.64649 0 15.9194
-6050.69 -4.29294 0 -21.4833
-7261.25 -2.82701 0 13.6837
-7244.34 -3.33869 0 14.5647
-8418.43 -0.767115 0 56.1395
-8376.02 -0.331165 0 61.7874
-6002.65 -6.40004 0 -18.8437
-6034.6 -5.12194 0 -20.8886
-8397.4 -0.663621 0 58.86
-7189.95 -4.02455 0 19.2553
-6018.69 -5.8536 0 -20.0223
-7226.59 -3.64649 0 15.9194
-7208.34 -3.84126 0 17.4943
-8376.02 -0.331165 0 61.7874
-8332.52 -0.545516 0 67.4795
-5970.56 -7.0444 0 -15.8984
-6002.65 -6.40004 0 -18.8437
-8354.43 -0.371749 0 64.7041
-7152.5 -4.26934 0 23.2749
-5986.56 -6.7723 0 -17.4396
-7189.95 -4.02455 0 19.2553
-7171.35 -4.17675 0 21.2005
-8332.52 -0.545516 0 67.4795
-8288.07 -0.548747 0 72.9814
-5938.54 -7.37509 0 -12.5251
-5970.56 -7.0444 0 -15.8984
-8310.34 -0.569343 0 70.2177
-7114.43 -4.36815 0 27.5994
-5954.57 -7.24642 0 -14.2572
-7152.5 -4.26934 0 23.2749
-7133.49 -4.32268 0 25.4125
-8288.07 -0.548747 0 72.9814
-8243.38 -0.674892 0 78.4059
-5906.44 -7.48509 0 -8.90975
-5938.54 -7.37509 0 -12.5251
-8265.75 -0.597623 0 75.719
-7076.14 -4.42402 0 32.0687
-5922.49 -7.44743 0 -10.7329
-7114.43 -4.36815 0 27.5994
-7095.32 -4.40378 0 29.8251
-8243.38 -0.674892 0 78.4059
-8198.53 -0.771262 0 83.7174
-5874.34 -7.49059 0 -5.2189
-5906.44 -7.48509 0 -8.90975
-8220.96 -0.726918 0 81.0686
-7037.7 -4.44401 0 36.556
-5890.4 -7.49844 0 -7.06964
-7076.14 -4.42402 0 32.0687
-7056.93 -4.43464 0 34.314
-8198.53 -0.771262 0 83.7174
-8153.66 -0.891546 0 88.9354
-5842.22 -7.43753 0 -1.51966
-5874.34 -7.49059 0 -5.2189
-8176.09 -0.82815 0 86.341
-6999.22 -4.45654 0 41.0132
-5858.28 -7.46829 0 -3.36618
-7037.7 -4.44401 0 36.556
-7018.47 -4.45161 0 38.791
-8153.66 -0.891546 0 88.9354
-8108.78 -1.01227 0 94.0572
-5810.08 -7.36131 0 2.14148
-5842.22 -7.43753 0 -1.51966
-8131.22 -0.952125 0 91.5071
-6960.71 -4.46552 0 45.4075
-5826.15 -7.40141 0 0.316875
-6999.22 -4.45654 0 41.0132
-6979.97 -4.46054 0 43.2191
-8108.78 -1.01227 0 94.0572
-8063.91 -1.14032 0 99.0856
-5777.94 -7.27631 0 5.74749
-5810.08 -7.36131 0 2.14148
-8086.34 -1.07523 0 96.5835
-6922.2 -4.47739 0 49.7284
-5794.01 -7.31913 0 3.9523
-6960.71 -4.46552 0 45.4075
-6941.46 -4.47118 0 47.5777
-8063.91 -1.14032 0 99.0856
-8019.04 -1.27299 0 104.021
-5745.8 -7.19132 0 9.28878
-5777.94 -7.27631 0 5.74749
-8041.47 -1.20619 0 101.565
-6883.69 -4.49315 0 53.9699
-5761.87 -7.23361 0 7.52642
-6922.2 -4.47739 0 49.7284
-6902.94 -4.4846 0 51.8592
-8019.04 -1.27299 0 104.021
-7974.19 -1.41056 0 108.865
-5713.65 -7.10947 0 12.7631
-5745.8 -7.19132 0 9.28878
-7996.61 -1.34112 0 106.455
-6845.17 -4.51379 0 58.1312
-5729.72 -7.14986 0 11.0344
-6883.69 -4.49315 0 53.9699
-6864.43 -4.5029 0 56.0606
-7974.19 -1.41056 0 108.865
-7929.33 -1.5529 0 113.618
-5681.5 -7.03223 0 16.1697
-5713.65 -7.10947 0 12.7631
-7951.76 -1.48117 0 111.253
-6806.66 -4.53928 0 62.2124
-5697.57 -7.07025 0 14.4748
-6845.17 -4.51379 0 58.1312
-6825.91 -4.52591 0 60.1818
-7929.33 -1.5529 0 113.618
-7884.47 -1.69967 0 118.28
-5649.34 -6.95981 0 19.5095
-5681.5 -7.03223 0 16.1697
-7906.9 -1.62573 0 115.961
-6768.14 -4.56951 0 66.2143
-5665.42 -6.99541 0 17.8479
-6806.66 -4.53928 0 62.2124
-6787.4 -4.55383 0 64.2232
-7884.47 -1.69967 0 118.28
-7839.6 -1.85084 0 122.852
-5617.18 -6.89211 0 22.7831
-5649.34 -6.95981 0 19.5095
-7862.03 -1.77473 0 120.577
-6729.62 -4.60424 0 70.1377
-5633.26 -6.92539 0 21.1545
-6768.14 -4.56951 0 66.2143
-6748.88 -4.58632 0 68.1857
-7839.6 -1.85084 0 122.852
-7794.73 -2.00609 0 127.334
-5585.02 -6.82885 0 25.9916
-5617.18 -6.89211 0 22.7831
-7817.17 -1.92796 0 125.104
-6691.09 -4.64321 0 73.9834
-5601.1 -6.85995 0 24.3955
-6729.62 -4.60424 0 70.1377
-6710.35 -4.62321 0 72.0702
-7794.73 -2.00609 0 127.334
-7749.86 -2.16529 0 131.727
-5552.86 -6.76973 0 29.1356
-5585.02 -6.82885 0 25.9916
-7772.3 -2.08522 0 129.542
-6652.56 -4.6862 0 77.7522
-5568.94 -6.79879 0 27.5716
-6691.09 -4.64321 0 73.9834
-6671.83 -4.66422 0 75.8774
-7749.86 -2.16529 0 131.727
-7704.98 -2.3282 0 136.031
-5520.69 -6.71449 0 32.2159
-5552.86 -6.76973 0 29.1356
-7727.42 -2.2463 0 133.89
-6614.03 -4.73298 0 81.4447
-5536.77 -6.74164 0 30.6837
-6652.56 -4.6862 0 77.7522
-6633.3 -4.70913 0 79.608
-7704.98 -2.3282 0 136.031
-7660.09 -2.49461 0 140.247
-5488.52 -6.66288 0 35.2328
-5520.69 -6.71449 0 32.2159
-7682.54 -2.41098 0 138.15
-6575.49 -4.78335 0 85.0614
-5504.61 -6.68824 0 33.7322
-6614.03 -4.73298 0 81.4447
-6594.76 -4.75773 0 83.2625
-7660.09 -2.49461 0 140.247
-7615.2 -2.66432 0 144.375
-5456.35 -6.6147 0 38.187
-5488.52 -6.66288 0 35.2328
-7637.65 -2.57907 0 142.322
-6536.95 -4.83709 0 88.6028
-5472.43 -6.63837 0 36.7177
-6575.49 -4.78335 0 85.0614
-6556.22 -4.80981 0 86.8415
-7615.2 -2.66432 0 144.375
-7570.31 -2.83711 0 148.416
-5424.17 -6.56976 0 41.0788
-5456.35 -6.6147 0 38.187
-7592.75 -2.75034 0 146.406
-6498.41 -4.89404 0 92.0694
-5440.26 -6.59183 0 39.6406
-6536.95 -4.83709 0 88.6028
-6517.68 -4.86518 0 90.3454
-7570.31 -2.83711 0 148.416
-7525.4 -3.01279 0 152.37
-5391.99 -6.5279 0 43.9085
-5424.17 -6.56976 0 41.0788
-7547.86 -2.9246 0 150.403
-6459.86 -4.954 0 95.4616
-5408.08 -6.54846 0 42.5014
-6498.41 -4.89404 0 92.0694
-6479.13 -4.92365 0 93.7748
-7525.4 -3.01279 0 152.37
-7480.5 -3.19115 0 156.237
-5359.81 -6.48896 0 46.6767
-5391.99 -6.5279 0 43.9085
-7502.95 -3.10165 0 154.314
-6421.3 -5.0168 0 98.7799
-5375.9 -6.50807 0 45.3003
-6459.86 -4.954 0 95.4616
-6440.58 -4.98506 0 97.13
-7480.5 -3.19115 0 156.237
-7435.59 -3.372 0 160.02
-5327.63 -6.45279 0 49.3837
-5359.81 -6.48896 0 46.6767
-7458.05 -3.28128 0 158.139
-6382.75 -5.08227 0 102.025
-5343.72 -6.47054 0 48.0378
-6421.3 -5.0168 0 98.7799
-6402.03 -5.04921 0 100.412
-7435.59 -3.372 0 160.02
-7390.68 -3.55513 0 163.716
-5295.44 -6.41926 0 52.0297
-5327.63 -6.45279 0 49.3837
-7413.13 -3.46329 0 161.879
-6344.19 -5.15024 0 105.197
-5311.53 -6.43571 0 50.7143
-6382.75 -5.08227 0 102.025
-6363.47 -5.11595 0 103.62
-7390.68 -3.55513 0 163.716
-7345.76 -3.74036 0 167.329
-5263.25 -6.38822 0 54.6153
-5295.44 -6.41926 0 52.0297
-7368.22 -3.64749 0 165.533
-6305.63 -5.22055 0 108.296
-5279.35 -6.40344 0 53.3301
-6344.19 -5.15024 0 105.197
-6324.91 -5.18512 0 106.755
-7345.76 -3.74036 0 167.329
-7300.84 -3.9275 0 170.857
-5231.06 -6.35954 0 57.1407
-5263.25 -6.38822 0 54.6153
-7323.3 -3.8337 0 169.103
-6267.06 -5.29304 0 111.323
-5247.16 -6.37359 0 55.8855
-6305.63 -5.22055 0 108.296
-6286.35 -5.25653 0 109.818
-7300.84 -3.9275 0 170.857
-7255.91 -4.11636 0 174.301
-5198.87 -6.33308 0 59.6063
-5231.06 -6.35954 0 57.1407
-7278.38 -4.02172 0 172.589
-6228.5 -5.36754 0 114.278
-5214.97 -6.34604 0 58.381
-6267.06 -5.29304 0 111.323
-6247.78 -5.33005 0 112.809
-7255.91 -4.11636 0 174.301
-7210.99 -4.30676 0 177.662
-5166.68 -6.30872 0 62.0125
-5198.87 -6.33308 0 59.6063
-7233.45 -4.21138 0 175.992
-6189.93 -5.4439 0 117.162
-5182.77 -6.32065 0 60.8168
-6228.5 -5.36754 0 114.278
-6209.21 -5.4055 0 115.729
-7210.99 -4.30676 0 177.662
-7166.06 -4.49852 0 180.941
-5134.48 -6.28634 0 64.3596
-5166.68 -6.30872 0 62.0125
-7188.52 -4.40248 0 179.312
-6151.36 -5.52198 0 119.975
-5150.58 -6.29729 0 63.1934
-6189.93 -5.4439 0 117.162
-6170.64 -5.48274 0 118.577
-7166.06 -4.49852 0 180.941
-7121.12 -4.69148 0 184.138
-5102.28 -6.26579 0 66.648
-5134.48 -6.28634 0 64.3596
-7143.59 -4.59486 0 182.55
-6112.78 -5.60161 0 122.718
-5118.38 -6.27584 0 65.5112
-6151.36 -5.52198 0 119.975
-6132.07 -5.56161 0 121.355
-7121.12 -4.69148 0 184.138
-7076.19 -4.88544 0 187.252
-5070.09 -6.24697 0 68.8781
-5102.28 -6.26579 0 66.648
-7098.66 -4.78834 0 185.705
-6074.21 -5.68264 0 125.391
-5086.18 -6.25617 0 67.7704
-6112.78 -5.60161 0 122.718
-6093.5 -5.64196 0 124.063
-7076.19 -4.88544 0 187.252
-7031.25 -5.08025 0 190.286
-5037.89 -6.22975 0 71.0502
-5070.09 -6.24697 0 68.8781
-7053.72 -4.98275 0 188.779
-6035.63 -5.76495 0 127.994
-5053.99 -6.23817 0 69.9714
-6074.21 -5.68264 0 125.391
-6054.92 -5.72365 0 126.701
-7031.25 -5.08025 0 190.286
-6986.31 -5.27573 0 193.239
-5005.69 -6.21402 0 73.1648
-5037.89 -6.22975 0 71.0502
-7008.78 -5.17792 0 191.773
-5997.05 -5.84837 0 130.528
-5021.79 -6.22171 0 72.1147
-6035.63 -5.76495 0 127.994
-6016.34 -5.80653 0 129.269
-6986.31 -5.27573 0 193.239
-6941.37 -5.47174 0 196.112
-4973.49 -6.19965 0 75.222
-5005.69 -6.21402 0 73.1648
-6963.84 -5.37368 0 194.686
-5958.47 -5.93278 0 132.993
-4989.59 -6.20667 0 74.2005
-5997.05 -5.84837 0 130.528
-5977.76 -5.89046 0 131.769
-6941.37 -5.47174 0 196.112
-6896.42 -5.66809 0 198.906
-4941.29 -6.18653 0 77.2224
-4973.49 -6.19965 0 75.222
-6918.89 -5.56988 0 197.519
-5919.89 -6.01803 0 135.39
-4957.39 -6.19294 0 76.2293
-5958.47 -5.93278 0 132.993
-5939.18 -5.97531 0 134.2
-6896.42 -5.66809 0 198.906
-6851.48 -5.86464 0 201.62
-4909.08 -6.17455 0 79.1664
-4941.29 -6.18653 0 77.2224
-6873.95 -5.76635 0 200.273
-5881.31 -6.10399 0 137.72
-4925.18 -6.1804 0 78.2014
-5919.89 -6.01803 0 135.39
-5900.6 -6.06093 0 136.564
-6851.48 -5.86464 0 201.62
-6806.53 -6.06124 0 204.256
-4876.88 -6.1636 0 81.0541
-4909.08 -6.17455 0 79.1664
-6829 -5.96294 0 202.948
-5842.73 -6.19052 0 139.982
-4892.98 -6.16895 0 80.1172
-5881.31 -6.10399 0 137.72
-5862.02 -6.14719 0 138.859
-6806.53 -6.06124 0 204.256
-6761.58 -6.25772 0 206.814
-4844.68 -6.15357 0 82.8861
-4876.88 -6.1636 0 81.0541
-6784.05 -6.1595 0 205.545
-5804.14 -6.27751 0 142.177
-4860.78 -6.15847 0 81.9771
-5842.73 -6.19052 0 139.982
-5823.43 -6.23397 0 141.088
-6761.58 -6.25772 0 206.814
-6716.63 -6.45395 0 209.295
-4812.47 -6.14435 0 84.6627
-4844.68 -6.15357 0 82.8861
-6739.1 -6.35588 0 208.064
-5765.56 -6.36481 0 144.306
-4828.58 -6.14886 0 83.7813
-5804.14 -6.27751 0 142.177
-5784.85 -6.32113 0 143.25
-6716.63 -6.45395 0 209.295
-6671.68 -6.64978 0 211.698
-4780.27 -6.13585 0 86.3843
-4812.47 -6.14435 0 84.6627
-6694.15 -6.55193 0 210.506
-5726.97 -6.45231 0 146.369
-4796.37 -6.14002 0 85.5304
-5765.56 -6.36481 0 144.306
-5746.26 -6.40855 0 145.345
-6671.68 -6.64978 0 211.698
-6626.73 -6.84506 0 214.025
-4748.07 -6.12795 0 88.0512
-4780.27 -6.13585 0 86.3843
-6649.2 -6.7475 0 212.871
-5688.39 -6.53989 0 148.366
-4764.17 -6.13183 0 87.2246
-5726.97 -6.45231 0 146.369
-5707.68 -6.4961 0 147.375
-6626.73 -6.84506 0 214.025
-6581.77 -7.03966 0 216.276
-4715.86 -6.12056 0 89.6639
-4748.07 -6.12795 0 88.0512
-6604.25 -6.94246 0 215.16
-5649.8 -6.62741 0 150.298
-4731.97 -6.1242 0 88.8643
-5688.39 -6.53989 0 148.366
-5669.09 -6.58366 0 149.34
-6581.77 -7.03966 0 216.276
-6536.82 -7.23344 0 218.452
-4683.66 -6.11359 0 91.2226
-4715.86 -6.12056 0 89.6639
-6559.3 -7.13666 0 217.374
-5611.21 -6.71478 0 152.165
-4699.76 -6.11703 0 90.4499
-5649.8 -6.62741 0 150.298
-5630.51 -6.67112 0 151.239
-6536.82 -7.23344 0 218.452
-6491.86 -7.42627 0 220.553
-4651.46 -6.10693 0 92.7277
-4683.66 -6.11359 0 91.2226
-6514.34 -7.32998 0 219.512
-5572.63 -6.80186 0 153.968
-4667.56 -6.11023 0 91.9818
-5611.21 -6.71478 0 152.165
-5591.92 -6.75836 0 153.075
-6491.86 -7.42627 0 220.553
-6446.91 -7.61801 0 222.579
-4619.26 -6.1005 0 94.1797
-4651.46 -6.10693 0 92.7277
-6469.39 -7.52228 0 221.575
-5534.04 -6.88856 0 155.707
-4635.36 -6.10369 0 93.4603
-5572.63 -6.80186 0 153.968
-5553.33 -6.84527 0 154.846
-6446.91 -7.61801 0 222.579
-6401.95 -7.80853 0 224.531
-4587.05 -6.09419 0 95.5788
-4619.26 -6.1005 0 94.1797
-6424.43 -7.71343 0 223.564
-5495.45 -6.97476 0 157.383
-4603.16 -6.09733 0 94.8858
-5534.04 -6.88856 0 155.707
-5514.75 -6.93173 0 156.553
-6401.95 -7.80853 0 224.531
-6357 -7.99772 0 226.41
-4554.85 -6.08793 0 96.9255
-4587.05 -6.09419 0 95.5788
-6379.48 -7.9033 0 225.48
-5456.87 -7.06035 0 158.996
-4570.95 -6.09106 0 96.2587
-5495.45 -6.97476 0 157.383
-5476.16 -7.01764 0 158.198
-6357 -7.99772 0 226.41
-6312.04 -8.18545 0 228.217
-4522.65 -6.08162 0 98.2201
-4554.85 -6.08793 0 96.9255
-6334.52 -8.09178 0 227.323
-5418.28 -7.14523 0 160.547
-4538.75 -6.08479 0 97.5793
-5456.87 -7.06035 0 158.996
-5437.58 -7.10288 0 159.779
-6312.04 -8.18545 0 228.217
-6267.09 -8.3716 0 229.95
-4490.45 -6.07518 0 99.463
-4522.65 -6.08162 0 98.2201
-6289.57 -8.27873 0 229.093
-5379.7 -7.22929 0 162.035
-4506.55 -6.07842 0 98.848
-5418.28 -7.14523 0 160.547
-5398.99 -7.18737 0 161.299
-6267.09 -8.3716 0 229.95
-6222.13 -8.55606 0 231.612
-4458.25 -6.06853 0 100.655
-4490.45 -6.07518 0 99.463
-6244.61 -8.46405 0 230.79
-5341.11 -7.31244 0 163.462
-4474.35 -6.07189 0 100.065
-5379.7 -7.22929 0 162.035
-5360.41 -7.27099 0 162.756
-6222.13 -8.55606 0 231.612
-6177.18 -8.7387 0 233.203
-4426.05 -6.06158 0 101.795
-4458.25 -6.06853 0 100.655
-6199.66 -8.64761 0 232.417
-5302.53 -7.39458 0 164.828
-4442.15 -6.06509 0 101.231
-5341.11 -7.31244 0 163.462
-5321.82 -7.35364 0 164.153
-6177.18 -8.7387 0 233.203
-6132.23 -8.91942 0 234.723
-4393.86 -6.05425 0 102.885
-4426.05 -6.06158 0 101.795
-6154.7 -8.82931 0 233.972
-5263.95 -7.47561 0 166.133
-4409.96 -6.05796 0 102.346
-5302.53 -7.39458 0 164.828
-5283.24 -7.43524 0 165.488
-6132.23 -8.91942 0 234.723
-6087.27 -9.09811 0 236.173
-4361.66 -6.04647 0 103.925
-4393.86 -6.05425 0 102.885
-6109.75 -9.00903 0 235.457
-5225.37 -7.55543 0 167.378
-4377.76 -6.05042 0 103.411
-5263.95 -7.47561 0 166.133
-5244.66 -7.51567 0 166.763
-6087.27 -9.09811 0 236.173
-6042.32 -9.27466 0 237.553
-4329.47 -6.03816 0 104.915
-4361.66 -6.04647 0 103.925
-6064.8 -9.18666 0 236.871
-5186.78 -7.63397 0 168.563
-4345.56 -6.04238 0 104.426
-5225.37 -7.55543 0 167.378
-5206.07 -7.59487 0 167.978
-6042.32 -9.27466 0 237.553
-5997.37 -9.44898 0 238.863
-4297.27 -6.02924 0 105.855
-4329.47 -6.03816 0 104.915
-6019.84 -9.36211 0 238.217
-5148.2 -7.71112 0 169.688
-4313.37 -6.03378 0 105.391
-5186.78 -7.63397 0 168.563
-5167.49 -7.67272 0 169.133
-5997.37 -9.44898 0 238.863
-5952.42 -9.62095 0 240.105
-4265.08 -6.01965 0 106.746
-4297.27 -6.02924 0 105.855
-5974.89 -9.53526 0 239.493
-5109.63 -7.78681 0 170.755
-4281.18 -6.02454 0 106.307
-5148.2 -7.71112 0 169.688
-5128.91 -7.74916 0 170.229
-5952.42 -9.62095 0 240.105
-5907.47 -9.79049 0 241.279
-4232.89 -6.00932 0 107.589
-4265.08 -6.01965 0 106.746
-5929.94 -9.70603 0 240.701
-5071.05 -7.86095 0 171.763
-4248.98 -6.01458 0 107.174
-5109.63 -7.78681 0 170.755
-5090.34 -7.82408 0 171.266
-5907.47 -9.79049 0 241.279
-5862.52 -9.95749 0 242.385
-4200.7 -5.99817 0 108.383
-4232.89 -6.00932 0 107.589
-5885 -9.87431 0 241.84
-5032.47 -7.93345 0 172.713
-4216.79 -6.00385 0 107.992
-5071.05 -7.86095 0 171.763
-5051.76 -7.89741 0 172.246
-5862.52 -9.95749 0 242.385
-5817.57 -10.1219 0 243.424
-4168.51 -5.98614 0 109.129
-4200.7 -5.99817 0 108.383
-5840.05 -10.04 0 242.913
-4993.9 -8.00425 0 173.606
-4184.61 -5.99227 0 108.762
-5032.47 -7.93345 0 172.713
-5013.18 -7.96907 0 173.167
-5817.57 -10.1219 0 243.424
-5772.63 -10.2835 0 244.396
-4136.33 -5.97316 0 109.828
-4168.51 -5.98614 0 109.129
-5795.1 -10.203 0 243.918
-4955.32 -8.07325 0 174.441
-4152.42 -5.97977 0 109.484
-4993.9 -8.00425 0 173.606
-4974.61 -8.03898 0 174.031
-5772.63 -10.2835 0 244.396
-5727.68 -10.4424 0 245.302
-4104.14 -5.95918 0 110.479
-4136.33 -5.97316 0 109.828
-5750.16 -10.3633 0 244.858
-4916.75 -8.14039 0 175.22
-4120.23 -5.9663 0 110.159
-4955.32 -8.07325 0 174.441
-4936.04 -8.10706 0 174.838
-5727.68 -10.4424 0 245.302
-5682.74 -10.5983 0 246.143
-4071.96 -5.94413 0 111.083
-4104.14 -5.95918 0 110.479
-5705.21 -10.5207 0 245.731
-4878.18 -8.20559 0 175.943
-4088.05 -5.95179 0 110.787
-4916.75 -8.14039 0 175.22
-4897.47 -8.17323 0 175.588
-5682.74 -10.5983 0 246.143
-5637.8 -10.7513 0 246.918
-4039.78 -5.92795 0 111.641
-4071.96 -5.94413 0 111.083
-5660.27 -10.6752 0 246.539
-4839.62 -8.26878 0 176.609
-4055.87 -5.93619 0 111.368
-4878.18 -8.20559 0 175.943
-4858.9 -8.23744 0 176.283
-5637.8 -10.7513 0 246.918
-5592.86 -10.9013 0 247.629
-4007.6 -5.91059 0 112.152
-4039.78 -5.92795 0 111.641
-5615.33 -10.8267 0 247.282
-4801.05 -8.32989 0 177.22
-4023.69 -5.91942 0 111.902
-4839.62 -8.26878 0 176.609
-4820.33 -8.2996 0 176.922
-5592.86 -10.9013 0 247.629
-5547.92 -11.0481 0 248.276
-3975.42 -5.89199 0 112.618
-4007.6 -5.91059 0 112.152
-5570.39 -10.9751 0 247.96
-4762.49 -8.38886 0 177.777
-3991.51 -5.90145 0 112.391
-4801.05 -8.32989 0 177.22
-4781.77 -8.35965 0 177.505
-5547.92 -11.0481 0 248.276
-5502.99 -11.1917 0 248.859
-3943.24 -5.87209 0 113.038
-3975.42 -5.89199 0 112.618
-5525.46 -11.1203 0 248.575
-4723.92 -8.44562 0 178.279
-3959.33 -5.8822 0 112.834
-4762.49 -8.38886 0 177.777
-4743.2 -8.41752 0 178.034
-5502.99 -11.1917 0 248.859
-5458.05 -11.332 0 249.379
-3911.07 -5.85084 0 113.414
-3943.24 -5.87209 0 113.038
-5480.52 -11.2623 0 249.127
-4685.36 -8.5001 0 178.726
-3927.16 -5.86164 0 113.232
-4723.92 -8.44562 0 178.279
-4704.64 -8.47315 0 178.509
-5458.05 -11.332 0 249.379
-5413.12 -11.469 0 249.837
-3878.9 -5.8282 0 113.744
-3911.07 -5.85084 0 113.414
-5435.59 -11.4009 0 249.616
-4646.8 -8.55226 0 179.12
-3894.98 -5.8397 0 113.585
-4685.36 -8.5001 0 178.726
-4666.08 -8.52648 0 178.93
-5413.12 -11.469 0 249.837
-5368.19 -11.6025 0 250.233
-3846.73 -5.80411 0 114.031
-3878.9 -5.8282 0 113.744
-5390.66 -11.5362 0 250.043
-4608.25 -8.60202 0 179.461
-3862.81 -5.81634 0 113.893
-4646.8 -8.55226 0 179.12
-4627.53 -8.57744 0 179.298
-5368.19 -11.6025 0 250.233
-5323.26 -11.7326 0 250.567
-3814.56 -5.77853 0 114.273
-3846.73 -5.80411 0 114.031
-5345.73 -11.668 0 250.407
-4569.69 -8.64934 0 179.75
-3830.65 -5.79151 0 114.157
-4608.25 -8.60202 0 179.461
-4588.97 -8.62599 0 179.612
-5323.26 -11.7326 0 250.567
-5278.34 -11.8591 0 250.84
-3782.4 -5.75141 0 114.472
-3814.56 -5.77853 0 114.273
-5300.8 -11.7963 0 250.711
-4531.14 -8.69416 0 179.986
-3798.48 -5.76516 0 114.378
-4569.69 -8.64934 0 179.75
-4550.42 -8.67207 0 179.874
-5278.34 -11.8591 0 250.84
-5233.42 -11.9821 0 251.053
-3750.23 -5.72271 0 114.627
-3782.4 -5.75141 0 114.472
-5255.88 -11.9211 0 250.954
-4492.59 -8.73642 0 180.17
-3766.32 -5.73726 0 114.555
-4531.14 -8.69416 0 179.986
-4511.87 -8.71561 0 180.084
-5233.42 -11.9821 0 251.053
-5188.5 -12.1013 0 251.206
-3718.07 -5.69238 0 114.74
-3750.23 -5.72271 0 114.627
-5210.96 -12.0422 0 251.137
-4454.05 -8.77608 0 180.303
-3734.15 -5.70775 0 114.689
-4492.59 -8.73642 0 180.17
-4473.32 -8.75658 0 180.243
-5188.5 -12.1013 0 251.206
-5143.58 -12.2169 0 251.299
-3685.92 -5.66039 0 114.81
-3718.07 -5.69238 0 114.74
-5166.04 -12.1596 0 251.26
-4415.5 -8.81309 0 180.385
-3701.99 -5.6766 0 114.78
-4454.05 -8.77608 0 180.303
-4434.77 -8.79492 0 180.35
-5143.58 -12.2169 0 251.299
-5098.66 -12.3286 0 251.334
-3653.76 -5.6267 0 114.838
-3685.92 -5.66039 0 114.81
-5121.12 -12.2732 0 251.324
-4376.96 -8.84739 0 180.416
-3669.84 -5.64376 0 114.829
-4415.5 -8.81309 0 180.385
-4396.23 -8.83058 0 180.407
-5098.66 -12.3286 0 251.334
-5053.75 -12.4365 0 251.31
-3621.61 -5.59126 0 114.825
-3653.76 -5.6267 0 114.838
-5076.2 -12.3831 0 251.329
-4338.42 -8.87896 0 180.397
-3637.68 -5.6092 0 114.837
-4376.96 -8.84739 0 180.416
-4357.69 -8.86352 0 180.413
-5053.75 -12.4365 0 251.31
-5008.84 -12.5406 0 251.229
-3589.46 -5.55405 0 114.77
-3621.61 -5.59126 0 114.825
-5031.29 -12.4891 0 251.277
-4299.88 -8.90774 0 180.329
-3605.53 -5.57288 0 114.802
-4338.42 -8.87896 0 180.397
-4319.15 -8.8937 0 180.369
-5008.84 -12.5406 0 251.229
-4963.93 -12.6407 0 251.09
-3557.31 -5.51503 0 114.674
-3589.46 -5.55405 0 114.77
-4986.38 -12.5911 0 251.166
-4261.35 -8.93369 0 180.211
-3573.38 -5.53477 0 114.727
-4299.88 -8.90774 0 180.329
-4280.62 -8.92107 0 180.276
-4963.93 -12.6407 0 251.09
-4919.02 -12.7369 0 250.894
-3525.16 -5.47417 0 114.537
-3557.31 -5.51503 0 114.674
-4941.48 -12.6893 0 250.999
-4222.82 -8.95677 0 180.045
-3541.23 -5.49483 0 114.61
-4261.35 -8.93369 0 180.211
-4242.08 -8.94559 0 180.134
-4919.02 -12.7369 0 250.894
-4874.12 -12.829 0 250.642
-3493.02 -5.43143 0 114.36
-3525.16 -5.47417 0 114.537
-4896.57 -12.7834 0 250.775
-4184.29 -8.97696 0 179.831
-3509.09 -5.45304 0 114.454
-4222.82 -8.95677 0 180.045
-4203.55 -8.96723 0 179.944
-4874.12 -12.829 0 250.642
-4829.22 -12.9171 0 250.334
-3460.88 -5.38679 0 114.143
-3493.02 -5.43143 0 114.36
-4851.67 -12.8736 0 250.495
-4145.76 -8.9942 0 179.568
-3476.95 -5.40935 0 114.257
-4184.29 -8.97696 0 179.831
-4165.03 -8.98595 0 179.706
-4829.22 -12.9171 0 250.334
-4784.32 -13.0011 0 249.971
-3428.74 -5.34022 0 113.887
-3460.88 -5.38679 0 114.143
-4806.77 -12.9596 0 250.159
-4107.24 -9.00848 0 179.259
-3444.81 -5.36375 0 114.02
-4145.76 -8.9942 0 179.568
-4126.5 -9.00171 0 179.419
-4784.32 -13.0011 0 249.971
-4739.43 -13.081 0 249.553
-3396.6 -5.2917 0 113.592
-3428.74 -5.34022 0 113.887
-4761.87 -13.0415 0 249.769
-4068.72 -9.01975 0 178.902
-3412.67 -5.31621 0 113.744
-4107.24 -9.00848 0 179.259
-4087.98 -9.01449 0 179.086
-4739.43 -13.081 0 249.553
-4694.54 -13.1566 0 249.081
-3364.47 -5.24119 0 113.258
-3396.6 -5.2917 0 113.592
-4716.98 -13.1193 0 249.324
-4030.2 -9.02799 0 178.499
-3380.54 -5.26669 0 113.429
-4068.72 -9.01975 0 178.902
-4049.46 -9.02425 0 178.706
-4694.54 -13.1566 0 249.081
-4649.65 -13.2281 0 248.555
-3332.34 -5.18868 0 112.885
-3364.47 -5.24119 0 113.258
-4672.09 -13.1929 0 248.825
-3991.69 -9.03317 0 178.05
-3348.41 -5.21518 0 113.076
-4030.2 -9.02799 0 178.499
-4010.94 -9.03096 0 178.28
-4649.65 -13.2281 0 248.555
-4604.76 -13.2954 0 247.976
-3300.21 -5.13413 0 112.474
-3332.34 -5.18868 0 112.885
-4627.2 -13.2623 0 248.272
-3953.17 -9.03526 0 177.555
-3316.28 -5.16166 0 112.684
-3991.69 -9.03317 0 178.05
-3972.43 -9.0346 0 177.808
-4604.76 -13.2954 0 247.976
-4559.88 -13.3584 0 247.344
-3268.09 -5.07755 0 112.026
-3300.21 -5.13413 0 112.474
-4582.32 -13.3275 0 247.667
-3914.66 -9.03424 0 177.015
-3284.15 -5.1061 0 112.255
-3953.17 -9.03526 0 177.555
-3933.92 -9.03514 0 177.29
-4559.88 -13.3584 0 247.344
-4515 -13.4172 0 246.66
-3235.97 -5.01889 0 111.54
-3268.09 -5.07755 0 112.026
-4537.44 -13.3883 0 247.009
-3876.16 -9.03008 0 176.43
-3252.03 -5.04848 0 111.788
-3914.66 -9.03424 0 177.015
-3895.41 -9.03255 0 176.728
-4515 -13.4172 0 246.66
-4470.12 -13.4716 0 245.925
-3203.85 -4.95815 0 111.018
-3235.97 -5.01889 0 111.54
-4492.56 -13.4449 0 246.299
-3837.65 -9.02277 0 175.801
-3219.91 -4.98878 0 111.284
-3876.16 -9.03008 0 176.43
-3856.91 -9.02682 0 176.121
-4470.12 -13.4716 0 245.925
-4425.25 -13.5217 0 245.138
-3171.73 -4.89531 0 110.459
-3203.85 -4.95815 0 111.018
-4447.68 -13.4972 0 245.538
-3799.15 -9.01229 0 175.128
-3187.79 -4.927 0 110.743
-3837.65 -9.02277 0 175.801
-3818.4 -9.01793 0 175.47
-4425.25 -13.5217 0 245.138
-4380.37 -13.5674 0 244.301
-3139.62 -4.83036 0 109.863
-3171.73 -4.89531 0 110.459
-4402.81 -13.5451 0 244.726
-3760.66 -8.99862 0 174.411
-3155.67 -4.8631 0 110.165
-3799.15 -9.01229 0 175.128
-3779.9 -9.00585 0 174.775
-4380.37 -13.5674 0 244.301
-4335.51 -13.6088 0 243.413
-3107.51 -4.76327 0 109.232
-3139.62 -4.83036 0 109.863
-4357.94 -13.5886 0 243.863
-3722.16 -8.98173 0 173.652
-3123.56 -4.79708 0 109.552
-3760.66 -8.99862 0 174.411
-3741.41 -8.99058 0 174.037
-4335.51 -13.6088 0 243.413
-4290.64 -13.6458 0 242.476
-3075.4 -4.69405 0 108.566
-3107.51 -4.76327 0 109.232
-4313.07 -13.6278 0 242.951
-3683.67 -8.96163 0 172.85
-3091.45 -4.72893 0 108.903
-3722.16 -8.98173 0 173.652
-3702.91 -8.97208 0 173.256
-4290.64 -13.6458 0 242.476
-4245.78 -13.6784 0 241.49
-3043.29 -4.62267 0 107.864
-3075.4 -4.69405 0 108.566
-4268.21 -13.6626 0 241.989
-3645.18 -8.93828 0 172.006
-3059.35 -4.65863 0 108.219
-3683.67 -8.96163 0 172.85
-3664.42 -8.95036 0 172.433
-4245.78 -13.6784 0 241.49
-4200.92 -13.7065 0 240.456
-3011.19 -4.54914 0 107.127
-3043.29 -4.62267 0 107.864
-4223.35 -13.693 0 240.979
-3606.69 -8.9117 0 171.12
-3027.24 -4.58618 0 107.5
-3645.18 -8.93828 0 172.006
-3625.94 -8.9254 0 171.568
-4200.92 -13.7065 0 240.456
-4156.06 -13.7303 0 239.373
-2979.09 -4.47343 0 106.357
-3011.19 -4.54914 0 107.127
-4178.49 -13.7189 0 239.92
-3568.21 -8.88185 0 170.194
-2995.14 -4.51156 0 106.746
-3606.69 -8.9117 0 171.12
-3587.45 -8.89718 0 170.662
-4156.06 -13.7303 0 239.373
-4111.21 -13.7496 0 238.243
-2947 -4.39555 0 105.552
-2979.09 -4.47343 0 106.357
-4133.64 -13.7405 0 238.814
-3529.73 -8.84874 0 169.226
-2963.04 -4.43476 0 105.958
-3568.21 -8.88185 0 170.194
-3548.97 -8.86571 0 169.715
-4111.21 -13.7496 0 238.243
-4066.36 -13.7644 0 237.065
-2914.9 -4.31549 0 104.713
-2947 -4.39555 0 105.552
-4088.78 -13.7576 0 237.66
-3491.25 -8.81237 0 168.218
-2930.95 -4.35579 0 105.137
-3529.73 -8.84874 0 169.226
-3510.49 -8.83096 0 168.727
-4066.36 -13.7644 0 237.065
-4021.51 -13.7749 0 235.842
-2882.81 -4.23324 0 103.842
-2914.9 -4.31549 0 104.713
-4043.94 -13.7702 0 236.459
-3452.78 -8.77271 0 167.17
-2898.86 -4.27464 0 104.282
-3491.25 -8.81237 0 168.218
-3472.02 -8.79295 0 167.699
-4021.51 -13.7749 0 235.842
-3976.67 -13.7808 0 234.572
-2850.72 -4.14881 0 102.937
-2882.81 -4.23324 0 103.842
-3999.09 -13.7784 0 235.212
-3414.31 -8.72978 0 166.083
-2866.77 -4.1913 0 103.393
-3452.78 -8.77271 0 167.17
-3433.54 -8.75165 0 166.631
-3976.67 -13.7808 0 234.572
-3931.83 -13.7823 0 233.257
-2818.64 -4.06219 0 102
-2850.72 -4.14881 0 102.937
-3954.25 -13.7821 0 233.92
-3375.84 -8.68356 0 164.957
-2834.68 -4.10577 0 102.473
-3414.31 -8.72978 0 166.083
-3395.08 -8.70708 0 165.525
-3931.83 -13.7823 0 233.257
-3886.99 -13.7794 0 231.896
-2786.55 -3.97337 0 101.031
-2818.64 -4.06219 0 102
-3909.41 -13.7814 0 232.582
-3337.38 -8.63407 0 163.792
-2802.59 -4.01805 0 101.519
-3375.84 -8.68356 0 164.957
-3356.61 -8.65923 0 164.379
-3886.99 -13.7794 0 231.896
-3842.16 -13.772 0 230.492
-2754.47 -3.88237 0 100.03
-2786.55 -3.97337 0 101.031
-3864.57 -13.7763 0 231.2
-3298.91 -8.58129 0 162.589
-2770.51 -3.92814 0 100.534
-3337.38 -8.63407 0 163.792
-3318.15 -8.60809 0 163.195
-3842.16 -13.772 0 230.492
-3797.32 -13.7602 0 229.043
-2722.4 -3.78918 0 98.9973
-2754.47 -3.88237 0 100.03
-3819.74 -13.7666 0 229.773
-3260.46 -8.52524 0 161.348
-2738.44 -3.83605 0 99.5174
-3298.91 -8.58129 0 162.589
-3279.68 -8.55367 0 161.973
-3797.32 -13.7602 0 229.043
-3752.5 -13.7439 0 227.551
-2690.32 -3.6938 0 97.9338
-2722.4 -3.78918 0 98.9973
-3774.91 -13.7526 0 228.303
-3222 -8.46591 0 160.071
-2706.36 -3.74176 0 98.4694
-3260.46 -8.52524 0 161.348
-3241.23 -8.49598 0 160.714
-3752.5 -13.7439 0 227.551
-3707.67 -13.7231 0 226.016
-2658.25 -3.59625 0 96.8396
-2690.32 -3.6938 0 97.9338
-3730.08 -13.7341 0 226.789
-3183.55 -8.40332 0 158.756
-2674.29 -3.6453 0 97.3905
-3222 -8.46591 0 160.071
-3202.77 -8.43502 0 159.418
-3707.67 -13.7231 0 226.016
-3662.85 -13.698 0 224.439
-2626.18 -3.49652 0 95.7151
-2658.25 -3.59625 0 96.8396
-3685.26 -13.7111 0 225.233
-3145.1 -8.33746 0 157.405
-2642.22 -3.54665 0 96.2811
-3183.55 -8.40332 0 158.756
-3164.32 -8.37079 0 158.085
-3662.85 -13.698 0 224.439
-3618.03 -13.6684 0 222.82
-2594.12 -3.39462 0 94.5606
-2626.18 -3.49652 0 95.7151
-3640.44 -13.6837 0 223.635
-3106.65 -8.26835 0 156.018
-2610.15 -3.44584 0 95.1416
-3145.1 -8.33746 0 157.405
-3125.87 -8.30331 0 156.716
-3618.03 -13.6684 0 222.82
-3573.21 -13.6344 0 221.159
-2562.05 -3.29057 0 93.3766
-2594.12 -3.39462 0 94.5606
-3595.62 -13.6519 0 221.995
-3068.21 -8.19599 0 154.596
-2578.08 -3.34287 0 93.9723
-3106.65 -8.26835 0 156.018
-3087.43 -8.23257 0 155.311
-3573.21 -13.6344 0 221.159
-3528.4 -13.596 0 219.458
-2529.99 -3.18436 0 92.1633
-2562.05 -3.29057 0 93.3766
-3550.8 -13.6157 0 220.314
-3029.76 -8.1204 0 153.138
-2546.02 -3.23773 0 92.7736
-3068.21 -8.19599 0 154.596
-3048.98 -8.1586 0 153.871
-3528.4 -13.596 0 219.458
-3483.59 -13.5532 0 217.716
-2497.94 -3.07602 0 90.9212
-2529.99 -3.18436 0 92.1633
-3505.99 -13.5752 0 218.592
-2991.33 -8.04159 0 151.646
-2513.96 -3.13046 0 91.5458
-3029.76 -8.1204 0 153.138
-3010.54 -8.0814 0 152.396
-3483.59 -13.5532 0 217.716
-3438.78 -13.5061 0 215.935
-2465.88 -2.96554 0 89.6506
-2497.94 -3.07602 0 90.9212
-3461.18 -13.5302 0 216.83
-2952.89 -7.95958 0 150.12
-2481.91 -3.02105 0 90.2894
-2991.33 -8.04159 0 151.646
-2972.11 -8.00098 0 150.887
-3438.78 -13.5061 0 215.935
-3393.97 -13.4546 0 214.114
-2433.83 -2.85295 0 88.3519
-2465.88 -2.96554 0 89.6506
-3416.38 -13.4809 0 215.029
-2914.46 -7.87437 0 148.56
-2449.85 -2.90951 0 89.0047
-2952.89 -7.95958 0 150.12
-2933.67 -7.91737 0 149.344
-3393.97 -13.4546 0 214.114
-3349.17 -13.3988 0 212.254
-2401.78 -2.73826 0 87.0254
-2433.83 -2.85295 0 88.3519
-3371.57 -13.4272 0 213.189
-2876.03 -7.78598 0 146.967
-2417.8 -2.79587 0 87.6921
-2914.46 -7.87437 0 148.56
-2895.24 -7.83057 0 147.768
-3349.17 -13.3988 0 212.254
-3304.37 -13.3386 0 210.356
-2369.73 -2.62147 0 85.6715
-2401.78 -2.73826 0 87.0254
-3326.77 -13.3692 0 211.31
-2837.6 -7.69443 0 145.341
-2385.76 -2.68013 0 86.3519
-2876.03 -7.78598 0 146.967
-2856.81 -7.7406 0 146.158
-3304.37 -13.3386 0 210.356
-3259.58 -13.2742 0 208.42
-2337.69 -2.50262 0 84.2907
-2369.73 -2.62147 0 85.6715
-3281.97 -13.3069 0 209.393
-2799.18 -7.59975 0 143.682
-2353.71 -2.5623 0 84.9845
-2837.6 -7.69443 0 145.341
-2818.39 -7.64748 0 144.516
-3259.58 -13.2742 0 208.42
-3214.78 -13.2055 0 206.447
-2305.65 -2.3817 0 82.8831
-2337.69 -2.50262 0 84.2907
-3237.18 -13.2404 0 207.439
-2760.75 -7.50194 0 141.992
-2321.67 -2.44242 0 83.5902
-2799.18 -7.59975 0 143.682
-2779.97 -7.55123 0 142.841
-3214.78 -13.2055 0 206.447
-3169.99 -13.1326 0 204.438
-2273.61 -2.25875 0 81.4493
-2305.65 -2.3817 0 82.8831
-3192.39 -13.1696 0 205.447
-2722.34 -7.40103 0 140.27
-2289.63 -2.32048 0 82.1695
-2760.75 -7.50194 0 141.992
-2741.55 -7.45187 0 141.135
-3169.99 -13.1326 0 204.438
-3125.2 -13.0554 0 202.392
-2241.57 -2.13377 0 79.9896
-2273.61 -2.25875 0 81.4493
-3147.6 -13.0945 0 203.419
-2683.92 -7.29705 0 138.517
-2257.59 -2.19651 0 80.7226
-2722.34 -7.40103 0 140.27
-2703.13 -7.34942 0 139.397
-3125.2 -13.0554 0 202.392
-3080.42 -12.9741 0 200.31
-2209.54 -2.0068 0 78.5042
-2241.57 -2.13377 0 79.9896
-3102.81 -13.0152 0 201.355
-2645.51 -7.19001 0 136.733
-2225.55 -2.07053 0 79.2501
-2683.92 -7.29705 0 138.517
-2664.71 -7.24391 0 137.629
-3080.42 -12.9741 0 200.31
-3035.63 -12.8885 0 198.193
-2177.51 -1.87784 0 76.9937
-2209.54 -2.0068 0 78.5042
-3058.03 -12.9318 0 199.256
-2607.1 -7.07994 0 134.92
-2193.52 -1.94256 0 77.7521
-2645.51 -7.19001 0 136.733
-2626.3 -7.13535 0 135.83
-3035.63 -12.8885 0 198.193
-2990.85 -12.7989 0 196.041
-2145.48 -1.74692 0 75.4584
-2177.51 -1.87784 0 76.9937
-3013.24 -12.8442 0 197.122
-2568.69 -6.96687 0 133.076
-2161.49 -1.81262 0 76.2292
-2607.1 -7.07994 0 134.92
-2587.89 -7.02378 0 134.002
-2990.85 -12.7989 0 196.041
-2946.08 -12.7052 0 193.856
-2113.45 -1.61407 0 73.8986
-2145.48 -1.74692 0 75.4584
-2968.46 -12.7526 0 194.953
-2530.28 -6.85082 0 131.203
-2129.46 -1.68073 0 74.6816
-2568.69 -6.96687 0 133.076
-2549.48 -6.90921 0 132.143
-2946.08 -12.7052 0 193.856
-2901.3 -12.6074 0 191.636
-2081.43 -1.4793 0 72.3147
-2113.45 -1.61407 0 73.8986
-2923.69 -12.6568 0 192.75
-2491.88 -6.73182 0 129.301
-2097.44 -1.54692 0 73.1097
-2530.28 -6.85082 0 131.203
-2511.08 -6.79168 0 130.256
-2901.3 -12.6074 0 191.636
-2856.53 -12.5056 0 189.383
-2049.4 -1.34264 0 70.7071
-2081.43 -1.4793 0 72.3147
-2878.91 -12.557 0 190.514
-2453.48 -6.6099 0 127.371
-2065.42 -1.4112 0 71.5139
-2491.88 -6.73182 0 129.301
-2472.68 -6.67122 0 128.34
-2856.53 -12.5056 0 189.383
-2811.76 -12.3997 0 187.098
-2017.39 -1.20411 0 69.0761
-2049.4 -1.34264 0 70.7071
-2834.14 -12.4531 0 188.245
-2415.08 -6.48509 0 125.413
-2033.39 -1.27361 0 69.8945
-2453.48 -6.6099 0 127.371
-2434.28 -6.54785 0 126.395
-2811.76 -12.3997 0 187.098
-2766.99 -12.2899 0 184.781
-1985.37 -1.06375 0 67.4221
-2017.39 -1.20411 0 69.0761
-2789.37 -12.3453 0 185.943
-2376.68 -6.35742 0 123.427
-2001.38 -1.13416 0 68.252
-2415.08 -6.48509 0 125.413
-2395.88 -6.42161 0 124.423
-2766.99 -12.2899 0 184.781
-2722.22 -12.1762 0 182.432
-1953.35 -0.921578 0 65.7455
-1985.37 -1.06375 0 67.4221
-2744.61 -12.2336 0 183.61
-2338.29 -6.22693 0 121.414
-1969.36 -0.99289 0 66.5866
-2376.68 -6.35742 0 123.427
-2357.49 -6.29253 0 122.424
-2722.22 -12.1762 0 182.432
-2677.46 -12.0586 0 180.051
-1921.34 -0.77762 0 64.0466
-1953.35 -0.921578 0 65.7455
-2699.84 -12.1179 0 181.245
-2299.9 -6.09364 0 119.374
-1937.35 -0.84982 0 64.8988
-2338.29 -6.22693 0 121.414
-2319.1 -6.16063 0 120.397
-2677.46 -12.0586 0 180.051
-2632.7 -11.9372 0 177.64
-1889.33 -0.631906 0 62.3258
-1921.34 -0.77762 0 64.0466
-2655.08 -11.9984 0 178.85
-2261.51 -5.9576 0 117.308
-1905.34 -0.70498 0 63.1889
-2299.9 -6.09364 0 119.374
-2280.71 -6.02596 0 118.344
-2632.7 -11.9372 0 177.64
-2587.94 -11.812 0 175.199
-1857.32 -0.484465 0 60.5835
-1889.33 -0.631906 0 62.3258
-2610.32 -11.875 0 176.424
-2223.12 -5.81883 0 115.216
-1873.33 -0.558399 0 61.4573
-2261.51 -5.9576 0 117.308
-2242.32 -5.88855 0 116.265
-2587.94 -11.812 0 175.199
-2543.18 -11.683 0 172.729
-1825.32 -0.335329 0 58.8199
-1857.32 -0.484465 0 60.5835
-2565.56 -11.7479 0 173.968
-2184.74 -5.67738 0 113.099
-1841.32 -0.410107 0 59.7043
-2223.12 -5.81883 0 115.216
-2203.93 -5.74844 0 114.161
-2543.18 -11.683 0 172.729
-2498.43 -11.5502 0 170.229
-1793.32 -0.184528 0 57.0356
-1825.32 -0.335329 0 58.8199
-2520.81 -11.6171 0 171.483
-2146.36 -5.53327 0 110.957
-1809.32 -0.260135 0 57.9303
-2184.74 -5.67738 0 113.099
-2165.55 -5.60565 0 112.031
-2498.43 -11.5502 0 170.229
-2453.68 -11.4138 0 167.701
-1761.31 -0.032094 0 55.2308
-1793.32 -0.184528 0 57.0356
-2476.05 -11.4825 0 168.969
-2107.98 -5.38656 0 108.79
-1777.31 -0.108513 0 56.1357
-2146.36 -5.53327 0 110.957
-2127.17 -5.46024 0 109.877
-2453.68 -11.4138 0 167.701
-2408.93 -11.2738 0 165.145
-1729.31 0.121941 0 53.4059
-1761.31 -0.032094 0 55.2308
-2431.3 -11.3443 0 166.426
-2069.6 -5.23727 0 106.6
-1745.31 0.0447254 0 54.3208
-2107.98 -5.38656 0 108.79
-2088.79 -5.31223 0 107.698
-2408.93 -11.2738 0 165.145
-2364.18 -11.1302 0 162.561
-1697.32 0.277543 0 51.5613
-1729.31 0.121941 0 53.4059
-2386.55 -11.2025 0 163.856
-2031.22 -5.08545 0 104.385
-1713.32 0.199548 0 52.486
-2069.6 -5.23727 0 106.6
-2050.41 -5.16167 0 105.495
-2364.18 -11.1302 0 162.561
-2319.43 -10.9831 0 159.95
-1665.32 0.434678 0 49.6973
-1697.32 0.277543 0 51.5613
-2341.8 -11.0571 0 161.259
-1992.85 -4.93113 0 102.148
-1681.32 0.355921 0 50.6317
-2031.22 -5.08545 0 104.385
-2012.04 -5.0086 0 103.269
-2319.43 -10.9831 0 159.95
-2274.69 -10.8325 0 157.312
-1633.33 0.593311 0 47.8144
-1665.32 0.434678 0 49.6973
-2297.06 -10.9082 0 158.634
-1954.48 -4.77437 0 99.8872
-1649.32 0.513809 0 48.7582
-1992.85 -4.93113 0 102.148
-1973.66 -4.85306 0 101.02
-2274.69 -10.8325 0 157.312
-2229.94 -10.6785 0 154.649
-1601.34 0.753407 0 45.9128
-1633.33 0.593311 0 47.8144
-2252.31 -10.7559 0 155.984
-1916.11 -4.61521 0 97.6045
-1617.33 0.673178 0 46.8659
-1954.48 -4.77437 0 99.8872
-1935.29 -4.69509 0 98.7486
-2229.94 -10.6785 0 154.649
-2185.2 -10.521 0 151.96
-1569.35 0.914929 0 43.9929
-1601.34 0.753407 0 45.9128
-2207.57 -10.6002 0 153.307
-1877.74 -4.45367 0 95.2999
-1585.34 0.833992 0 44.9551
-1916.11 -4.61521 0 97.6045
-1896.92 -4.53473 0 96.4549
-2185.2 -10.521 0 151.96
-2140.46 -10.3603 0 149.246
-1537.36 1.07784 0 42.0551
-1569.35 0.914929 0 43.9929
-2162.83 -10.4411 0 150.606
-1839.37 -4.28982 0 92.9739
-1553.35 0.996213 0 43.0262
-1877.74 -4.45367 0 95.2999
-1858.56 -4.37204 0 94.1396
-2140.46 -10.3603 0 149.246
-2095.72 -10.1962 0 146.507
-1505.37 1.2421 0 40.0998
-1537.36 1.07784 0 42.0551
-2118.09 -10.2787 0 147.88
-1801.01 -4.1237 0 90.6268
-1521.37 1.15981 0 41.0796
-1839.37 -4.28982 0 92.9739
-1820.19 -4.20704 0 91.803
-2095.72 -10.1962 0 146.507
-2050.99 -10.029 0 143.745
-1473.39 1.40768 0 38.1273
-1505.37 1.2421 0 40.0998
-2073.36 -10.113 0 145.129
-1762.65 -3.95535 0 88.2592
-1489.38 1.32473 0 39.1157
-1801.01 -4.1237 0 90.6268
-1781.83 -4.0398 0 89.4455
-2050.99 -10.029 0 143.745
-2006.25 -9.85856 0 140.959
-1441.41 1.57453 0 36.138
-1473.39 1.40768 0 38.1273
-2028.62 -9.94416 0 142.355
-1724.28 -3.78482 0 85.8714
-1457.4 1.49095 0 37.1348
-1762.65 -3.95535 0 88.2592
-1743.47 -3.87035 0 87.0678
-2006.25 -9.85856 0 140.959
-1961.52 -9.68502 0 138.15
-1409.42 1.74262 0 34.1323
-1441.41 1.57453 0 36.138
-1983.88 -9.77217 0 139.557
-1685.92 -3.61215 0 83.4639
-1425.41 1.65842 0 35.1372
-1724.28 -3.78482 0 85.8714
-1705.1 -3.69875 0 84.6701
-1961.52 -9.68502 0 138.15
-1916.78 -9.50842 0 135.318
-1377.44 1.9119 0 32.1105
-1409.42 1.74262 0 34.1323
-1939.15 -9.5971 0 136.737
-1647.57 -3.4374 0 81.0371
-1393.43 1.82711 0 33.1234
-1685.92 -3.61215 0 83.4639
-1666.75 -3.52503 0 82.2528
-1916.78 -9.50842 0 135.318
-1872.05 -9.32882 0 132.465
-1345.47 2.08233 0 30.0729
-1377.44 1.9119 0 32.1105
-1894.42 -9.41899 0 133.894
-1609.21 -3.26062 0 78.5914
-1361.46 1.99698 0 31.0936
-1647.57 -3.4374 0 81.0371
-1628.39 -3.34926 0 79.8166
-1872.05 -9.32882 0 132.465
-1827.32 -9.14628 0 129.59
-1313.49 2.25388 0 28.02
-1345.47 2.08233 0 30.0729
-1849.69 -9.23792 0 131.03
-1570.85 -3.08184 0 76.1274
-1329.48 2.16797 0 29.0483
-1609.21 -3.26062 0 78.5914
-1590.03 -3.17147 0 77.3617
-1827.32 -9.14628 0 129.59
-1782.59 -8.96086 0 126.694
-1281.52 2.4265 0 25.9521
-1313.49 2.25388 0 28.02
-1804.96 -9.05393 0 128.145
-1532.5 -2.90114 0 73.6454
-1297.5 2.34006 0 26.9879
-1570.85 -3.08184 0 76.1274
-1551.68 -2.99173 0 74.8886
-1782.59 -8.96086 0 126.694
-1737.87 -8.77261 0 123.778
-1249.54 2.60014 0 23.8695
-1281.52 2.4265 0 25.9521
-1760.23 -8.86709 0 125.239
-1494.15 -2.71854 0 71.1458
-1265.53 2.5132 0 24.9126
-1532.5 -2.90114 0 73.6454
-1513.32 -2.81007 0 72.3978
-1737.87 -8.77261 0 123.778
-1693.14 -8.5816 0 120.842
-1217.57 2.77477 0 21.7727
-1249.54 2.60014 0 23.8695
-1715.5 -8.67745 0 122.312
-1455.79 -2.53412 0 68.6292
-1233.55 2.68734 0 22.8229
-1494.15 -2.71854 0 71.1458
-1474.97 -2.62656 0 69.8896
-1693.14 -8.5816 0 120.842
-1648.41 -8.38789 0 117.886
-1185.6 2.95035 0 19.662
-1217.57 2.77477 0 21.7727
-1670.77 -8.48508 0 119.366
-1417.44 -2.34791 0 66.0959
-1201.58 2.86245 0 20.7191
-1455.79 -2.53412 0 68.6292
-1436.62 -2.44123 0 67.3646
-1648.41 -8.38789 0 117.886
-1603.69 -8.19154 0 114.912
-1153.63 3.12681 0 17.5377
-1185.6 2.95035 0 19.662
-1626.05 -8.29004 0 116.401
-1379.09 -2.15998 0 63.5463
-1169.61 3.03847 0 18.6015
-1417.44 -2.34791 0 66.0959
-1398.27 -2.25416 0 64.8231
-1603.69 -8.19154 0 114.912
-1558.96 -7.99261 0 111.919
-1121.66 3.30413 0 15.4002
-1153.63 3.12681 0 17.5377
-1581.32 -8.09239 0 113.417
-1340.74 -1.97037 0 60.981
-1137.64 3.21537 0 16.4706
-1379.09 -2.15998 0 63.5463
-1359.92 -2.06538 0 62.2656
-1558.96 -7.99261 0 111.919
-1514.24 -7.79117 0 108.908
-1089.69 3.48226 0 13.25
-1121.66 3.30413 0 15.4002
-1536.6 -7.8922 0 110.416
-1302.4 -1.77915 0 58.4003
-1105.67 3.3931 0 14.3267
-1340.74 -1.97037 0 60.981
-1321.57 -1.87496 0 59.6925
-1514.24 -7.79117 0 108.908
-1469.51 -7.58727 0 105.88
-1057.72 3.66114 0 11.0872
-1089.69 3.48226 0 13.25
-1491.88 -7.68952 0 107.396
-1264.05 -1.58636 0 55.8047
-1073.71 3.5716 0 12.1701
-1302.4 -1.77915 0 58.4003
-1283.22 -1.68295 0 57.1043
-1469.51 -7.58727 0 105.88
-1424.79 -7.38099 0 102.835
-1025.76 3.84073 0 8.9124
-1057.72 3.66114 0 11.0872
-1447.15 -7.48443 0 104.359
-1225.7 -1.39206 0 53.1946
-1041.74 3.75085 0 10.0013
-1264.05 -1.58636 0 55.8047
-1244.88 -1.4894 0 54.5014
-1424.79 -7.38099 0 102.835
-1380.07 -7.17239 0 99.7733
-993.794 4.02099 0 6.72586
-1025.76 3.84073 0 8.9124
-1402.43 -7.27698 0 101.306
-1187.36 -1.19632 0 50.5704
-1009.78 3.93078 0 7.82058
-1225.7 -1.39206 0 53.1946
-1206.53 -1.29437 0 51.8842
-1380.07 -7.17239 0 99.7733
-1335.35 -6.96154 0 96.696
-961.83 4.20186 0 4.52796
-993.794 4.02099 0 6.72586
-1357.71 -7.06725 0 98.2366
-1149.01 -0.999175 0 47.9327
-977.812 4.11135 0 5.62831
-1187.36 -1.19632 0 50.5704
-1168.19 -1.09792 0 49.2532
-1335.35 -6.96154 0 96.696
-1290.62 -6.7485 0 93.6033
-929.867 4.38329 0 2.31908
-961.83 4.20186 0 4.52796
-1312.98 -6.85529 0 95.1515
-1110.67 -0.8007 0 45.2818
-945.848 4.29251 0 3.42487
-1149.01 -0.999175 0 47.9327
-1129.84 -0.900101 0 46.6089
-1290.62 -6.7485 0 93.6033
-1245.9 -6.53334 0 90.4958
-897.905 4.56523 0 0.0995813
-929.867 4.38329 0 2.31908
-1268.26 -6.64118 0 92.0514
-1072.33 -0.600948 0 42.6181
-913.886 4.4742 0 1.21063
-1110.67 -0.8007 0 45.2818
-1091.5 -0.70098 0 43.9515
-1245.9 -6.53334 0 90.4958
-1201.18 -6.31613 0 87.3739
-865.943 4.74763 0 -2.13015
-897.905 4.56523 0 0.0995813
-1223.54 -6.42498 0 88.9366
-1033.98 -0.399981 0 39.9422
-881.924 4.65638 0 -1.01403
-1072.33 -0.600948 0 42.6181
-1053.15 -0.500613 0 41.2817
-1201.18 -6.31613 0 87.3739
-1156.46 -6.09693 0 84.2383
-833.982 4.93044 0 -4.36975
-865.943 4.74763 0 -2.13015
-1178.82 -6.20677 0 85.8078
-995.641 -0.197858 0 37.2544
-849.963 4.83899 0 -3.24875
-1033.98 -0.399981 0 39.9422
-1014.81 -0.29906 0 38.5998
-1156.46 -6.09693 0 84.2383
-1111.74 -5.87581 0 81.0893
-802.022 5.11361 0 -6.61884
-833.982 4.93044 0 -4.36975
-1134.1 -5.98661 0 82.6654
-957.299 0.00536038 0 34.5553
-818.002 5.02198 0 -5.49314
-995.641 -0.197858 0 37.2544
-976.47 -0.096382 0 35.9063
-1111.74 -5.87581 0 81.0893
-1067.02 -5.65285 0 77.9275
-770.063 5.29709 0 -8.87705
-802.022 5.11361 0 -6.61884
-1089.38 -5.76456 0 79.5099
-918.957 0.209615 0 31.8452
-786.042 5.20531 0 -7.74683
-957.299 0.00536038 0 34.5553
-938.128 0.107362 0 33.2016
-1067.02 -5.65285 0 77.9275
-1022.29 -5.42812 0 74.7534
-738.104 5.48085 0 -11.144
-770.063 5.29709 0 -8.87705
-1044.66 -5.5407 0 76.3419
-880.616 0.414851 0 29.1246
-754.083 5.38893 0 -10.0095
-918.957 0.209615 0 31.8452
-899.786 0.312114 0 30.4861
-1022.29 -5.42812 0 74.7534
-977.574 -5.20168 0 71.5676
-706.146 5.66487 0 -13.4194
-738.104 5.48085 0 -11.144
-999.934 -5.31511 0 73.1619
-842.275 0.621017 0 26.3938
-722.125 5.57283 0 -12.2807
-880.616 0.414851 0 29.1246
-861.445 0.51782 0 27.7604
-977.574 -5.20168 0 71.5676
-932.853 -4.97361 0 68.3704
-674.188 5.84917 0 -15.7029
-706.146 5.66487 0 -13.4194
-955.214 -5.08784 0 69.9704
-803.934 0.828073 0 23.6535
-690.167 5.75699 0 -14.5601
-842.275 0.621017 0 26.3938
-823.105 0.724436 0 25.0248
-932.853 -4.97361 0 68.3704
-888.132 -4.74398 0 65.1626
-642.23 6.03377 0 -17.9942
-674.188 5.84917 0 -15.7029
-910.493 -4.85899 0 66.7678
-765.594 1.03599 0 20.9037
-658.209 5.94143 0 -16.8476
-803.934 0.828073 0 23.6535
-784.764 0.931928 0 22.2797
-888.132 -4.74398 0 65.1626
-843.411 -4.51289 0 61.9444
-610.273 6.21876 0 -20.2933
-642.23 6.03377 0 -17.9942
-865.772 -4.62861 0 63.5547
-727.254 1.24477 0 18.1449
-626.252 6.12621 0 -19.1428
-765.594 1.03599 0 20.9037
-746.424 1.14028 0 19.5254
-843.411 -4.51289 0 61.9444
-798.689 -4.28039 0 58.7165
-578.316 6.4042 0 -22.6
-610.273 6.21876 0 -20.2933
-821.05 -4.39682 0 60.3317
-688.913 1.45441 0 15.3773
-594.295 6.31142 0 -21.4457
-727.254 1.24477 0 18.1449
-708.083 1.34949 0 16.7622
-798.689 -4.28039 0 58.7165
-753.965 -4.0466 0 55.4792
-546.359 6.5901 0 -24.9143
-578.316 6.4042 0 -22.6
-776.327 -4.16363 0 57.099
-650.571 1.66494 0 12.6011
-562.338 6.49711 0 -23.7562
-688.913 1.45441 0 15.3773
-669.742 1.55956 0 13.9903
-753.965 -4.0466 0 55.4792
-709.238 -3.81164 0 52.233
-514.402 6.77621 0 -27.236
-546.359 6.5901 0 -24.9143
-731.602 -3.92932 0 53.8573
-612.228 1.87623 0 9.81626
-530.381 6.68315 0 -26.0742
-650.571 1.66494 0 12.6011
-631.4 1.77051 0 11.2097
-709.238 -3.81164 0 52.233
-664.506 -3.57532 0 48.9782
-482.445 6.96141 0 -29.5646
-514.402 6.77621 0 -27.236
-686.873 -3.69349 0 50.6066
-573.883 2.08812 0 7.02361
-498.424 6.86906 0 -28.3995
-612.228 1.87623 0 9.81626
-593.056 1.9821 0 8.42088
-664.506 -3.57532 0 48.9782
-619.769 -3.33861 0 45.7148
-450.487 7.14333 0 -31.8983
-482.445 6.96141 0 -29.5646
-642.138 -3.45742 0 47.3478
-535.536 2.29954 0 4.2243
-466.466 7.053 0 -30.7309
-573.883 2.08812 0 7.02361
-554.709 2.19403 0 5.62461
-619.769 -3.33861 0 45.7148
-575.023 -3.09866 0 42.4439
-418.528 7.31534 0 -34.2313
-450.487 7.14333 0 -31.8983
-597.397 -3.21814 0 44.0798
-497.188 2.50902 0 1.42287
-434.507 7.23126 0 -33.0655
-535.536 2.29954 0 4.2243
-516.363 2.40456 0 2.82357
-575.023 -3.09866 0 42.4439
-530.284 -2.8625 0 39.1638
-386.563 7.46685 0 -36.5541
-418.528 7.31534 0 -34.2313
-552.651 -2.98253 0 40.806
-458.85 2.71099 0 -1.37257
-402.547 7.39467 0 -35.3947
-497.188 2.50902 0 1.42287
-478.016 2.61167 0 0.0232843
-530.284 -2.8625 0 39.1638
-485.553 -2.61022 0 35.882
-354.598 7.57066 0 -38.8393
-386.563 7.46685 0 -36.5541
-507.917 -2.73326 0 37.521
-420.53 2.89867 0 -4.1406
-370.579 7.52708 0 -37.7042
-458.85 2.71099 0 -1.37257
-439.688 2.80656 0 -2.76118
-485.553 -2.61022 0 35.882
-440.939 -2.38515 0 32.5874
-322.605 7.59464 0 -41.0514
-354.598 7.57066 0 -38.8393
-463.223 -2.50739 0 34.2401
-382.283 3.05057 0 -6.84479
-338.61 7.59614 0 -39.957
-420.53 2.89867 0 -4.1406
-401.391 2.9825 0 -5.50598
-440.939 -2.38515 0 32.5874
-396.468 -2.07341 0 29.3216
-290.603 7.4479 0 -43.094
-322.605 7.59464 0 -41.0514
-418.683 -2.21249 0 30.9416
-344.148 3.14283 0 -9.40948
-306.599 7.54824 0 -42.1039
-382.283 3.05057 0 -6.84479
-363.203 3.10195 0 -8.14703
-396.468 -2.07341 0 29.3216
-352.635 -1.91168 0 26.0292
-258.452 7.07732 0 -44.8786
-290.603 7.4479 0 -43.094
-374.433 -2.04151 0 27.6938
-306.326 3.10839 0 -11.7047
-274.569 7.30122 0 -44.0231
-344.148 3.14283 0 -9.40948
-325.171 3.1571 0 -10.613
-352.635 -1.91168 0 26.0292
-309.51 -1.31151 0 22.9018
-226.215 6.22603 0 -46.149
-258.452 7.07732 0 -44.8786
-330.971 -1.52319 0 24.4032
-268.9 2.87875 0 -13.5345
-242.32 6.71441 0 -45.6061
-306.326 3.10839 0 -11.7047
-287.581 2.99924 0 -12.6725
-309.51 -1.31151 0 22.9018
-268.971 -1.4565 0 19.683
-193.233 5.02712 0 -46.8407
-226.215 6.22603 0 -46.149
-288.797 -1.62896 0 21.3726
-232.498 2.28459 0 -14.5066
-209.912 5.69994 0 -46.5587
-268.9 2.87875 0 -13.5345
-250.471 2.69691 0 -14.2154
-268.971 -1.4565 0 19.683
-231.008 0.478617 0 17.1668
-159.648 2.91597 0 -46.5731
-193.233 5.02712 0 -46.8407
-249.579 -0.034354 0 18.1403
-196.916 1.18463 0 -14.3858
-176.437 4.009 0 -46.8748
-232.498 2.28459 0 -14.5066
-214.741 1.6863 0 -14.4926
-231.008 0.478617 0 17.1668
-201.634 -1.07455 0 14.2869
-122.712 1.84584 0 -46.2698
-159.648 2.91597 0 -46.5731
-215.055 -1.48496 0 16.1118
-163.766 -0.698384 0 -12.2497
-141.96 2.31162 0 -46.2989
-196.916 1.18463 0 -14.3858
-179.681 0.625866 0 -13.8928
-201.634 -1.07455 0 14.2869
-181.055 5.7157 0 15.0225
-82.9408 2.01625 0 -47.2971
-122.712 1.84584 0 -46.2698
-189.455 4.87508 0 13.0477
-129.239 -3.08485 0 -9.89012
-102.934 1.02041 0 -46.4791
-163.766 -0.698384 0 -12.2497
-147.551 -2.38378 0 -10.4155
-181.055 5.7157 0 15.0225
-192.82 -8.24286 0 20.2066
-33.8166 19.731 0 -58.5401
-82.9408 2.01625 0 -47.2971
-182.935 -5.86177 0 17.7975
-91.7499 -2.14503 0 -9.69012
-60.412 8.07883 0 -50.6885
-129.239 -3.08485 0 -9.89012
-110.179 -2.72961 0 -10.2117
-192.82 -8.24286 0 20.2066
-262.62 -38.3963 0 66.1251
2.24653 88.9355 0 -87.7951
-33.8166 19.731 0 -58.5401
-211.763 5.86649 0 29.6667
-9.25304 50.6869 0 -51.0207
-12.0515 38.4803 0 -70.1786
-91.7499 -2.14503 0 -9.69012
-63.1255 7.27186 0 -18.6966
-262.62 -38.3963 0 66.1251
-45.8967 445.991 0 -220.315
-9.43042 328.808 0 -68.9423
2.24653 88.9355 0 -87.7951
-274.715 -75.6316 0 34.9904
18.5459 420.546 0 -121.366
6.45495 190.414 0 -96.5974
-9.25304 50.6869 0 -51.0207
24.6343 152.635 0 -91.6539
-5927 -1787.63 0 -232.15
-6272.82 -681.852 0 -338.432
-3724.36 -657.495 0 -6.65371
-3431.88 -1032.53 0 316.151
-6157.15 -1284.7 0 -396.636
-4921.24 -754.744 0 -138.302
-3630.65 -832.376 0 120.941
-4861.06 -1464.8 0 53.3371
-4809.57 -1045.89 0 -41.692
-6272.82 -681.852 0 -338.432
-6364.32 -206.695 0 -152.161
-3793.84 -293.429 0 -104.946
-3724.36 -657.495 0 -6.65371
-6359.7 -352.381 0 -239.072
-5094.99 -299.655 0 -158.403
-3755.34 -462.035 0 -70.5348
-4921.24 -754.744 0 -138.302
-5056 -509.948 0 -181.15
-6364.32 -206.695 0 -152.161
-6283.58 -42.7827 0 -45.1563
-3829.09 -110.78 0 -121.531
-3793.84 -293.429 0 -104.946
-6315.77 -105.177 0 -82.419
-5081.79 -93.5466 0 -99.8667
-3827.78 -183.468 0 -121.108
-5094.99 -299.655 0 -158.403
-5091.7 -166.373 0 -121.444
-6283.58 -42.7827 0 -45.1563
-6228.85 -8.08286 0 -18.7431
-3799.69 -26.7856 0 -109.161
-3829.09 -110.78 0 -121.531
-6259.3 -17.3399 0 -28.004
-5033.19 -15.2143 0 -69.8253
-3813 -58.6459 0 -114.725
-5081.79 -93.5466 0 -99.8667
-5060.91 -45.6281 0 -83.8161
-6228.85 -8.08286 0 -18.7431
-6174.16 4.73619 0 -14.058
-3765.6 -2.86486 0 -100.159
-3799.69 -26.7856 0 -109.161
-6197.06 0.209676 0 -14.1521
-4981.35 3.22875 0 -58.4369
-3785.46 -10.7591 0 -104.674
-5033.19 -15.2143 0 -69.8253
-5005.01 -0.90543 0 -61.3094
-6174.16 4.73619 0 -14.058
-6136.42 2.22261 0 -17.9938
-3726.42 2.66848 0 -93.3888
-3765.6 -2.86486 0 -100.159
-6155.89 4.14829 0 -16.2532
-4938.32 5.29149 0 -56.029
-3744.11 1.64003 0 -96.0801
-4981.35 3.22875 0 -58.4369
-4959.39 4.95087 0 -57.2266
-6136.42 2.22261 0 -17.9938
-6099.83 -0.145576 0 -20.5185
-3694.87 -0.611994 0 -89.6842
-3726.42 2.66848 0 -93.3888
-6117 1.08816 0 -19.2773
-4901.49 1.05241 0 -55.8239
-3710.68 1.34867 0 -91.4782
-4938.32 5.29149 0 -56.029
-4918.93 3.65874 0 -55.6016
-6099.83 -0.145576 0 -20.5185
-6067.23 -3.2764 0 -21.7614
-3666.43 -4.34378 0 -86.7018
-3694.87 -0.611994 0 -89.6842
-6083.74 -1.81882 0 -21.4981
-4869.55 -2.92303 0 -55.5305
-3679.76 -2.43737 0 -88.0417
-4901.49 1.05241 0 -55.8239
-4885.18 -1.14415 0 -55.8847
-6067.23 -3.2764 0 -21.7614
-6034.6 -5.12194 0 -20.8886
-3642.27 -7.7362 0 -84.3014
-3666.43 -4.34378 0 -86.7018
-6050.69 -4.29294 0 -21.4833
-4840.38 -6.12938 0 -54.4487
-3654.18 -6.20559 0 -85.5102
-4869.55 -2.92303 0 -55.5305
-4854.65 -4.62089 0 -55.044
-6034.6 -5.12194 0 -20.8886
-6002.65 -6.40004 0 -18.8437
-3619.97 -9.84316 0 -81.934
-3642.27 -7.7362 0 -84.3014
-6018.69 -5.8536 0 -20.0223
-4812.9 -8.08121 0 -52.5955
-3630.81 -8.90561 0 -83.0966
-4840.38 -6.12938 0 -54.4487
-4826.51 -7.26003 0 -53.6318
-6002.65 -6.40004 0 -18.8437
-5970.56 -7.0444 0 -15.8984
-3599.21 -11.1123 0 -79.6265
-3619.97 -9.84316 0 -81.934
-5986.56 -6.7723 0 -17.4396
-4786.3 -9.21927 0 -50.2057
-3609.51 -10.586 0 -80.7877
-4812.9 -8.08121 0 -52.5955
-4799.51 -8.72921 0 -51.4436
-5970.56 -7.0444 0 -15.8984
-5938.54 -7.37509 0 -12.5251
-3579.11 -11.6959 0 -77.3028
-3599.21 -11.1123 0 -79.6265
-5954.57 -7.24642 0 -14.2572
-4760.16 -9.75465 0 -47.4823
-3589.07 -11.464 0 -78.4611
-4786.3 -9.21927 0 -50.2057
-4773.2 -9.54891 0 -48.8793
-5938.54 -7.37509 0 -12.5251
-5906.44 -7.48509 0 -8.90975
-3559.44 -11.8996 0 -74.9974
-3579.11 -11.6959 0 -77.3028
-5922.49 -7.44743 0 -10.7329
-4734.25 -9.95381 0 -44.593
-3569.25 -11.8384 0 -76.1498
-4760.16 -9.75465 0 -47.4823
-4747.19 -9.88473 0 -46.0489
-5906.44 -7.48509 0 -8.90975
-5874.34 -7.49059 0 -5.2189
-3539.94 -11.8645 0 -72.7103
-3559.44 -11.8996 0 -74.9974
-5890.4 -7.49844 0 -7.06964
-4708.44 -9.95295 0 -41.6364
-3549.67 -11.9019 0 -73.8498
-4734.25 -9.95381 0 -44.593
-4721.34 -9.97204 0 -43.1195
-5874.34 -7.49059 0 -5.2189
-5842.22 -7.43753 0 -1.51966
-3520.54 -11.7126 0 -70.4567
-3539.94 -11.8645 0 -72.7103
-5858.28 -7.46829 0 -3.36618
-4682.66 -9.85358 0 -38.6753
-3530.24 -11.7998 0 -71.5794
-4708.44 -9.95295 0 -41.6364
-4695.55 -9.91153 0 -40.1534
-5842.22 -7.43753 0 -1.51966
-5810.08 -7.36131 0 2.14148
-3501.17 -11.4998 0 -68.2401
-3520.54 -11.7126 0 -70.4567
-5826.15 -7.40141 0 0.316875
-4656.9 -9.70553 0 -35.7416
-3510.85 -11.6107 0 -69.3433
-4682.66 -9.85358 0 -38.6753
-4669.78 -9.78358 0 -37.2039
-5810.08 -7.36131 0 2.14148
-5777.94 -7.27631 0 5.74749
-3481.81 -11.2633 0 -66.0646
-3501.17 -11.4998 0 -68.2401
-5794.01 -7.31913 0 3.9523
-4631.14 -9.5389 0 -32.8521
-3491.49 -11.3834 0 -67.1472
-4656.9 -9.70553 0 -35.7416
-4644.02 -9.62343 0 -34.2906
-5777.94 -7.27631 0 5.74749
-5745.8 -7.19132 0 9.28878
-3462.45 -11.019 0 -63.9309
-3481.81 -11.2633 0 -66.0646
-5761.87 -7.23361 0 7.52642
-4605.38 -9.3672 0 -30.014
-3472.13 -11.1414 0 -64.9925
-4631.14 -9.5389 0 -32.8521
-4618.26 -9.45319 0 -31.4265
-5745.8 -7.19132 0 9.28878
-5713.65 -7.10947 0 12.7631
-3443.09 -10.7757 0 -61.8392
-3462.45 -11.019 0 -63.9309
-5729.72 -7.14986 0 11.0344
-4579.62 -9.19724 0 -27.23
-3452.77 -10.897 0 -62.8798
-4605.38 -9.3672 0 -30.014
-4592.5 -9.28179 0 -28.6152
-5713.65 -7.10947 0 12.7631
-5681.5 -7.03223 0 16.1697
-3423.72 -10.5363 0 -59.7888
-3443.09 -10.7757 0 -61.8392
-5697.57 -7.07025 0 14.4748
-4553.85 -9.03147 0 -24.5004
-3433.4 -10.6554 0 -60.8088
-4579.62 -9.19724 0 -27.23
-4566.73 -9.11376 0 -25.8584
-5681.5 -7.03223 0 16.1697
-5649.34 -6.95981 0 19.5095
-3404.35 -10.3019 0 -57.7791
-3423.72 -10.5363 0 -59.7888
-5665.42 -6.99541 0 17.8479
-4528.08 -8.87069 0 -21.8247
-3414.03 -10.4185 0 -58.7789
-4553.85 -9.03147 0 -24.5004
-4540.96 -8.95045 0 -23.1558
-5649.34 -6.95981 0 19.5095
-5617.18 -6.89211 0 22.7831
-3384.97 -10.0725 0 -55.8093
-3404.35 -10.3019 0 -57.7791
-5633.26 -6.92539 0 21.1545
-4502.3 -8.71483 0 -19.2022
-3394.66 -10.1866 0 -56.7892
-4528.08 -8.87069 0 -21.8247
-4515.19 -8.79216 0 -20.5069
-5617.18 -6.89211 0 22.7831
-5585.02 -6.82885 0 25.9916
-3365.6 -9.84774 0 -53.879
-3384.97 -10.0725 0 -55.8093
-5601.1 -6.85995 0 24.3955
-4476.52 -8.56358 0 -16.6322
-3375.29 -9.95956 0 -54.8393
-4502.3 -8.71483 0 -19.2022
-4489.41 -8.63865 0 -17.9107
-5585.02 -6.82885 0 25.9916
-5552.86 -6.76973 0 29.1356
-3346.22 -9.6272 0 -51.9874
-3365.6 -9.84774 0 -53.879
-5568.94 -6.79879 0 27.5716
-4450.74 -8.41658 0 -14.1139
-3355.91 -9.73696 0 -52.9284
-4476.52 -8.56358 0 -16.6322
-4463.63 -8.48957 0 -15.3666
-5552.86 -6.76973 0 29.1356
-5520.69 -6.71449 0 32.2159
-3326.84 -9.41051 0 -50.1343
-3346.22 -9.6272 0 -51.9874
-5536.77 -6.74164 0 30.6837
-4424.96 -8.27349 0 -11.6467
-3336.53 -9.51839 0 -51.0561
-4450.74 -8.41658 0 -14.1139
-4437.85 -8.34456 0 -12.8739
-5520.69 -6.71449 0 32.2159
-5488.52 -6.66288 0 35.2328
-3307.46 -9.19735 0 -48.3192
-3326.84 -9.41051 0 -50.1343
-5504.61 -6.68824 0 33.7322
-4399.17 -8.13403 0 -9.23025
-3317.15 -9.3035 0 -49.222
-4424.96 -8.27349 0 -11.6467
-4412.07 -8.20332 0 -10.4322
-5488.52 -6.66288 0 35.2328
-5456.35 -6.6147 0 38.187
-3288.07 -8.98749 0 -46.5417
-3307.46 -9.19735 0 -48.3192
-5472.43 -6.63837 0 36.7177
-4373.39 -7.99797 0 -6.86407
-3297.77 -9.09202 0 -47.4257
-4399.17 -8.13403 0 -9.23025
-4386.28 -8.06559 0 -8.0409
-5456.35 -6.6147 0 38.187
-5424.17 -6.56976 0 41.0788
-3268.69 -8.78074 0 -44.8017
-3288.07 -8.98749 0 -46.5417
-5440.26 -6.59183 0 39.6406
-4347.6 -7.86514 0 -4.54781
-3278.38 -8.88374 0 -45.6671
-4373.39 -7.99797 0 -6.86407
-4360.49 -7.93116 0 -5.69972
-5424.17 -6.56976 0 41.0788
-5391.99 -6.5279 0 43.9085
-3249.31 -8.57694 0 -43.0989
-3268.69 -8.78074 0 -44.8017
-5408.08 -6.54846 0 42.5014
-4321.81 -7.73536 0 -2.28114
-3259 -8.67848 0 -43.9457
-4347.6 -7.86514 0 -4.54781
-4334.7 -7.79987 0 -3.40829
-5391.99 -6.5279 0 43.9085
-5359.81 -6.48896 0 46.6767
-3229.92 -8.37599 0 -41.4331
-3249.31 -8.57694 0 -43.0989
-5375.9 -6.50807 0 45.3003
-4296.01 -7.6085 0 -0.0637517
-3239.61 -8.47612 0 -42.2614
-4321.81 -7.73536 0 -2.28114
-4308.91 -7.67157 0 -1.1663
-5359.81 -6.48896 0 46.6767
-5327.63 -6.45279 0 49.3837
-3210.53 -8.17777 0 -39.8039
-3229.92 -8.37599 0 -41.4331
-5343.72 -6.47054 0 48.0378
-4270.22 -7.48444 0 2.10465
-3220.23 -8.27654 0 -40.6139
-4296.01 -7.6085 0 -0.0637516
-4283.12 -7.54613 0 1.02655
-5327.63 -6.45279 0 49.3837
-5295.44 -6.41926 0 52.0297
-3191.15 -7.98218 0 -38.2113
-3210.53 -8.17777 0 -39.8039
-5311.53 -6.43571 0 50.7143
-4244.42 -7.36305 0 4.22435
-3200.84 -8.07965 0 -39.003
-4270.22 -7.48444 0 2.10465
-4257.32 -7.42342 0 3.17057
-5295.44 -6.41926 0 52.0297
-5263.25 -6.38822 0 54.6153
-3171.76 -7.78916 0 -36.6549
-3191.15 -7.98218 0 -38.2113
-5279.35 -6.40344 0 53.3301
-4218.63 -7.24423 0 6.29564
-3181.45 -7.88536 0 -37.4286
-4244.42 -7.36305 0 4.22435
-4231.53 -7.30333 0 5.26603
-5263.25 -6.38822 0 54.6153
-5231.06 -6.35954 0 57.1407
-3152.37 -7.59861 0 -35.1347
-3171.76 -7.78916 0 -36.6549
-5247.16 -6.37359 0 55.8855
-4192.83 -7.12787 0 8.31881
-3162.06 -7.69358 0 -35.8903
-4218.63 -7.24423 0 6.29564
-4205.73 -7.18575 0 7.31322
-5231.06 -6.35954 0 57.1407
-5198.87 -6.33308 0 59.6063
-3132.98 -7.41045 0 -33.6503
-3152.37 -7.59861 0 -35.1347
-5214.97 -6.34604 0 58.381
-4167.03 -7.01386 0 10.2941
-3142.67 -7.50424 0 -34.388
-4192.83 -7.12787 0 8.31881
-4179.93 -7.07058 0 9.31244
-5198.87 -6.33308 0 59.6063
-5166.68 -6.30872 0 62.0125
-3113.59 -7.22462 0 -32.2015
-3132.98 -7.41045 0 -33.6503
-5182.77 -6.32065 0 60.8168
-4141.23 -6.9021 0 12.2219
-3123.28 -7.31725 0 -32.9214
-4167.03 -7.01386 0 10.2941
-4154.13 -6.9577 0 11.264
-5166.68 -6.30872 0 62.0125
-5134.48 -6.28634 0 64.3596
-3094.2 -7.04103 0 -30.7882
-3113.59 -7.22462 0 -32.2015
-5150.58 -6.29729 0 63.1934
-4115.43 -6.79249 0 14.1025
-3103.89 -7.13255 0 -31.4904
-4141.23 -6.9021 0 12.2219
-4128.33 -6.84703 0 13.1681
-5134.48 -6.28634 0 64.3596
-5102.28 -6.26579 0 66.648
-3074.8 -6.85961 0 -29.41
-3094.2 -7.04103 0 -30.7882
-5118.38 -6.27584 0 65.5112
-4089.62 -6.68493 0 15.9361
-3084.5 -6.95005 0 -30.0947
-4115.43 -6.79249 0 14.1025
-4102.53 -6.73846 0 15.0251
-5102.28 -6.26579 0 66.648
-5070.09 -6.24697 0 68.8781
-3055.41 -6.68029 0 -28.0669
-3074.8 -6.85961 0 -29.41
-5086.18 -6.25617 0 67.7704
-4063.82 -6.57932 0 17.723
-3065.11 -6.76969 0 -28.7341
-4089.62 -6.68493 0 15.9361
-4076.72 -6.63189 0 16.8353
-5070.09 -6.24697 0 68.8781
-5037.89 -6.22975 0 71.0502
-3036.02 -6.50299 0 -26.7586
-3055.41 -6.68029 0 -28.0669
-5053.99 -6.23817 0 69.9714
-4038.02 -6.47557 0 19.4635
-3045.72 -6.59139 0 -27.4084
-4063.82 -6.57932 0 17.723
-4050.92 -6.52722 0 18.599
-5037.89 -6.22975 0 71.0502
-5005.69 -6.21402 0 73.1648
-3016.63 -6.32765 0 -25.4848
-3036.02 -6.50299 0 -26.7586
-5021.79 -6.22171 0 72.1147
-4012.21 -6.37358 0 21.1579
-3026.33 -6.41508 0 -26.1173
-4038.02 -6.47557 0 19.4635
-4025.11 -6.42436 0 20.3164
-5005.69 -6.21402 0 73.1648
-4973.49 -6.19965 0 75.222
-2997.24 -6.1542 0 -24.2453
-3016.63 -6.32765 0 -25.4848
-4989.59 -6.20667 0 74.2005
-3986.41 -6.27325 0 22.8066
-3006.93 -6.2407 0 -24.8608
-4012.21 -6.37358 0 21.1579
-3999.31 -6.32321 0 21.988
-4973.49 -6.19965 0 75.222
-4941.29 -6.18653 0 77.2224
-2977.85 -5.98257 0 -23.04
-2997.24 -6.1542 0 -24.2453
-4957.39 -6.19294 0 76.2293
-3960.6 -6.1745 0 24.4097
-2987.54 -6.06816 0 -23.6384
-3986.41 -6.27325 0 22.8066
-3973.51 -6.22369 0 23.6138
-4941.29 -6.18653 0 77.2224
-4909.08 -6.17455 0 79.1664
-2958.45 -5.81269 0 -21.8685
-2977.85 -5.98257 0 -23.04
-4925.18 -6.1804 0 78.2014
-3934.8 -6.07724 0 25.9676
-2968.15 -5.89741 0 -22.45
-3960.6 -6.1745 0 24.4097
-3947.7 -6.12569 0 25.1943
-4909.08 -6.17455 0 79.1664
-4876.88 -6.1636 0 81.0541
-2939.06 -5.64449 0 -20.7308
-2958.45 -5.81269 0 -21.8685
-4892.98 -6.16895 0 80.1172
-3908.99 -5.98138 0 27.4807
-2948.76 -5.72838 0 -21.2955
-3934.8 -6.07724 0 25.9676
-3921.9 -6.02914 0 26.7297
-4876.88 -6.1636 0 81.0541
-4844.68 -6.15357 0 82.8861
-2919.67 -5.47791 0 -19.6265
-2939.06 -5.64449 0 -20.7308
-4860.78 -6.15847 0 81.9771
-3883.19 -5.88682 0 28.949
-2929.37 -5.561 0 -20.1745
-3908.99 -5.98138 0 27.4807
-3896.09 -5.93394 0 28.2204
-4844.68 -6.15357 0 82.8861
-4812.47 -6.14435 0 84.6627
-2900.28 -5.31288 0 -18.5554
-2919.67 -5.47791 0 -19.6265
-4828.58 -6.14886 0 83.7813
-3857.38 -5.7935 0 30.3731
-2909.98 -5.3952 0 -19.0868
-3883.19 -5.88682 0 28.949
-3870.28 -5.84001 0 29.6666
-4812.47 -6.14435 0 84.6627
-4780.27 -6.13585 0 86.3843
-2880.89 -5.14935 0 -17.5174
-2900.28 -5.31288 0 -18.5554
-4796.37 -6.14002 0 85.5304
-3831.58 -5.70132 0 31.7532
-2890.58 -5.23094 0 -18.0323
-3857.38 -5.7935 0 30.3731
-3844.48 -5.74727 0 31.0686
-4780.27 -6.13585 0 86.3843
-4748.07 -6.12795 0 88.0512
-2861.5 -4.98726 0 -16.5121
-2880.89 -5.14935 0 -17.5174
-4764.17 -6.13183 0 87.2246
-3805.77 -5.61019 0 33.0895
-2871.19 -5.06813 0 -17.0107
-3831.58 -5.70132 0 31.7532
-3818.67 -5.65563 0 32.4268
-4748.07 -6.12795 0 88.0512
-4715.86 -6.12056 0 89.6639
-2842.11 -4.82653 0 -15.5395
-2861.5 -4.98726 0 -16.5121
-4731.97 -6.1242 0 88.8643
-3779.97 -5.52006 0 34.3823
-2851.8 -4.90673 0 -16.0218
-3805.77 -5.61019 0 33.0895
-3792.87 -5.56501 0 33.7413
-4715.86 -6.12056 0 89.6639
-4683.66 -6.11359 0 91.2226
-2822.72 -4.66712 0 -14.5992
-2842.11 -4.82653 0 -15.5395
-4699.76 -6.11703 0 90.4499
-3754.16 -5.43082 0 35.632
-2832.41 -4.74667 0 -15.0653
-3779.97 -5.52006 0 34.3823
-3767.07 -5.47533 0 35.0125
-4683.66 -6.11359 0 91.2226
-4651.46 -6.10693 0 92.7277
-2803.33 -4.50897 0 -13.691
-2822.72 -4.66712 0 -14.5992
-4667.56 -6.11023 0 91.9818
-3728.36 -5.34242 0 36.8389
-2813.03 -4.58789 0 -14.1411
-3754.16 -5.43082 0 35.632
-3741.26 -5.38652 0 36.2408
-4651.46 -6.10693 0 92.7277
-4619.26 -6.1005 0 94.1797
-2783.94 -4.35201 0 -12.8148
-2803.33 -4.50897 0 -13.691
-4635.36 -6.10369 0 93.4603
-3702.56 -5.25476 0 38.0032
-2793.64 -4.43034 0 -13.2489
-3728.36 -5.34242 0 36.8389
-3715.46 -5.2985 0 37.4263
-4619.26 -6.1005 0 94.1797
-4587.05 -6.09419 0 95.5788
-2764.56 -4.19621 0 -11.9702
-2783.94 -4.35201 0 -12.8148
-4603.16 -6.09733 0 94.8858
-3676.75 -5.16779 0 39.1252
-2774.25 -4.27397 0 -12.3886
-3702.56 -5.25476 0 38.0032
-3689.66 -5.2112 0 38.5695
-4587.05 -6.09419 0 95.5788
-4554.85 -6.08793 0 96.9255
-2745.17 -4.04149 0 -11.1572
-2764.56 -4.19621 0 -11.9702
-4570.95 -6.09106 0 96.2587
-3650.95 -5.08143 0 40.2053
-2754.86 -4.11871 0 -11.5598
-3676.75 -5.16779 0 39.1252
-3663.85 -5.12454 0 39.6705
-4554.85 -6.08793 0 96.9255
-4522.65 -6.08162 0 98.2201
-2725.78 -3.88781 0 -10.3754
-2745.17 -4.04149 0 -11.1572
-4538.75 -6.08479 0 97.5793
-3625.15 -4.9956 0 41.2437
-2735.48 -3.96452 0 -10.7624
-3650.95 -5.08143 0 40.2053
-3638.05 -5.03845 0 40.7297
-4522.65 -6.08162 0 98.2201
-4490.45 -6.07518 0 99.463
-2706.4 -3.73512 0 -9.62458
-2725.78 -3.88781 0 -10.3754
-4506.55 -6.07842 0 98.848
-3599.35 -4.91024 0 42.2407
-2716.09 -3.81135 0 -9.9961
-3625.15 -4.9956 0 41.2437
-3612.25 -4.95286 0 41.7473
-4490.45 -6.07518 0 99.463
-4458.25 -6.06853 0 100.655
-2687.02 -3.58337 0 -8.90461
-2706.4 -3.73512 0 -9.62458
-4474.35 -6.07189 0 100.065
-3573.55 -4.82528 0 43.1966
-2696.71 -3.65913 0 -9.26076
-3599.35 -4.91024 0 42.2407
-3586.45 -4.86771 0 42.7238
-4458.25 -6.06853 0 100.655
-4426.05 -6.06158 0 101.795
-2667.63 -3.4325 0 -8.21524
-2687.02 -3.58337 0 -8.90461
-4442.15 -6.06509 0 101.231
-3547.76 -4.74066 0 44.1117
-2677.32 -3.50783 0 -8.55612
-3573.55 -4.82528 0 43.1966
-3560.65 -4.78293 0 43.6592
-4426.05 -6.06158 0 101.795
-4393.86 -6.05425 0 102.885
-2648.25 -3.28248 0 -7.55624
-2667.63 -3.4325 0 -8.21524
-4409.96 -6.05796 0 102.346
-3521.96 -4.65632 0 44.9864
-2657.94 -3.35739 0 -7.88195
-3547.76 -4.74066 0 44.1117
-3534.86 -4.69846 0 44.5541
-4393.86 -6.05425 0 102.885
-4361.66 -6.04647 0 103.925
-2628.87 -3.13325 0 -6.92739
-2648.25 -3.28248 0 -7.55624
-4377.76 -6.05042 0 103.411
-3496.16 -4.57218 0 45.8208
-2638.56 -3.20777 0 -7.23806
-3521.96 -4.65632 0 44.9864
-3509.06 -4.61423 0 45.4086
-4361.66 -6.04647 0 103.925
-4329.47 -6.03816 0 104.915
-2609.49 -2.98477 0 -6.32846
-2628.87 -3.13325 0 -6.92739
-4345.56 -6.04238 0 104.426
-3470.37 -4.4882 0 46.6154
-2619.18 -3.05892 0 -6.6242
-3496.16 -4.57218 0 45.8208
-3483.27 -4.53018 0 46.2231
-4329.47 -6.03816 0 104.915
-4297.27 -6.02924 0 105.855
-2590.11 -2.83699 0 -5.75925
-2609.49 -2.98477 0 -6.32846
-4313.37 -6.03378 0 105.391
-3444.58 -4.40431 0 47.3703
-2599.8 -2.91079 0 -6.04016
-3470.37 -4.4882 0 46.6154
-3457.47 -4.44624 0 46.9978
-4297.27 -6.02924 0 105.855
-4265.08 -6.01965 0 106.746
-2570.74 -2.68987 0 -5.21953
-2590.11 -2.83699 0 -5.75925
-4281.18 -6.02454 0 106.307
-3418.78 -4.32045 0 48.0859
-2580.42 -2.76335 0 -5.48572
-3444.58 -4.40431 0 47.3703
-3431.68 -4.36238 0 47.733
-4265.08 -6.01965 0 106.746
-4232.89 -6.00932 0 107.589
-2551.36 -2.54337 0 -4.70907
-2570.74 -2.68987 0 -5.21953
-4248.98 -6.01458 0 107.174
-3392.99 -4.23656 0 48.7625
-2561.05 -2.61654 0 -4.96065
-3418.78 -4.32045 0 48.0859
-3405.89 -4.27851 0 48.4291
-4232.89 -6.00932 0 107.589
-4200.7 -5.99817 0 108.383
-2531.99 -2.39745 0 -4.22766
-2551.36 -2.54337 0 -4.70907
-4216.79 -6.00385 0 107.992
-3367.2 -4.15261 0 49.4004
-2541.67 -2.47034 0 -4.46474
-3392.99 -4.23656 0 48.7625
-3380.1 -4.1946 0 49.0863
-4200.7 -5.99817 0 108.383
-4168.51 -5.98614 0 109.129
-2512.61 -2.25206 0 -3.77507
-2531.99 -2.39745 0 -4.22766
-4184.61 -5.99227 0 108.762
-3341.42 -4.06852 0 49.9999
-2522.3 -2.32469 0 -3.99777
-3367.2 -4.15261 0 49.4004
-3354.31 -4.11058 0 49.7049
-4168.51 -5.98614 0 109.129
-4136.33 -5.97316 0 109.828
-2493.24 -2.10717 0 -3.35108
-2512.61 -2.25206 0 -3.77507
-4152.42 -5.97977 0 109.484
-3315.63 -3.98424 0 50.5612
-2502.93 -2.17956 0 -3.55951
-3341.42 -4.06852 0 49.9999
-3328.52 -4.02641 0 50.2853
-4136.33 -5.97316 0 109.828
-4104.14 -5.95918 0 110.479
-2473.87 -1.96275 0 -2.95548
-2493.24 -2.10717 0 -3.35108
-4120.23 -5.9663 0 110.159
-3289.85 -3.89974 0 51.0847
-2483.56 -2.0349 0 -3.14974
-3315.63 -3.98424 0 50.5612
-3302.74 -3.94203 0 50.8277
-4104.14 -5.95918 0 110.479
-4071.96 -5.94413 0 111.083
-2454.5 -1.81874 0 -2.58803
-2473.87 -1.96275 0 -2.95548
-4088.05 -5.95179 0 110.787
-3264.06 -3.81496 0 51.5707
-2464.19 -1.89069 0 -2.76825
-3289.85 -3.89974 0 51.0847
-3276.95 -3.85739 0 51.3324
-4071.96 -5.94413 0 111.083
-4039.78 -5.92795 0 111.641
-2435.14 -1.67513 0 -2.24853
-2454.5 -1.81874 0 -2.58803
-4055.87 -5.93619 0 111.368
-3238.28 -3.72984 0 52.0194
-2444.82 -1.74689 0 -2.4148
-3264.06 -3.81496 0 51.5707
-3251.17 -3.77244 0 51.7997
-4039.78 -5.92795 0 111.641
-4007.6 -5.91059 0 112.152
-2415.77 -1.53187 0 -1.93674
-2435.14 -1.67513 0 -2.24853
-4023.69 -5.91942 0 111.902
-3212.5 -3.64435 0 52.4312
-2425.45 -1.60346 0 -2.08918
-3238.28 -3.72984 0 52.0194
-3225.39 -3.68715 0 52.2299
-4007.6 -5.91059 0 112.152
-3975.42 -5.89199 0 112.618
-2396.41 -1.38893 0 -1.65245
-2415.77 -1.53187 0 -1.93674
-3991.51 -5.90145 0 112.391
-3186.73 -3.55845 0 52.8063
-2406.09 -1.46036 0 -1.79117
-3212.5 -3.64435 0 52.4312
-3199.61 -3.60146 0 52.6233
-3975.42 -5.89199 0 112.618
-3943.24 -5.87209 0 113.038
-2377.04 -1.24627 0 -1.39544
-2396.41 -1.38893 0 -1.65245
-3959.33 -5.8822 0 112.834
-3160.95 -3.47208 0 53.145
-2386.72 -1.31757 0 -1.52055
-3186.73 -3.55845 0 52.8063
-3173.84 -3.51532 0 52.9802
-3943.24 -5.87209 0 113.038
-3911.07 -5.85084 0 113.414
-2357.68 -1.10388 0 -1.16548
-2377.04 -1.24627 0 -1.39544
-3927.16 -5.86164 0 113.232
-3135.18 -3.3852 0 53.4477
-2367.36 -1.17504 0 -1.27709
-3160.95 -3.47208 0 53.145
-3148.06 -3.42871 0 53.3009
-3911.07 -5.85084 0 113.414
-3878.9 -5.8282 0 113.744
-2338.32 -0.961706 0 -0.962352
-2357.68 -1.10388 0 -1.16548
-3894.98 -5.8397 0 113.585
-3109.4 -3.29779 0 53.7147
-2348 -1.03276 0 -1.06058
-3135.18 -3.3852 0 53.4477
-3122.29 -3.34157 0 53.5856
-3878.9 -5.8282 0 113.744
-3846.73 -5.80411 0 114.031
-2318.97 -0.819732 0 -0.785838
-2338.32 -0.961706 0 -0.962352
-3862.81 -5.81634 0 113.893
-3083.64 -3.20978 0 53.9461
-2328.65 -0.890696 0 -0.870783
-3109.4 -3.29779 0 53.7147
-3096.52 -3.25386 0 53.8348
-3846.73 -5.80411 0 114.031
-3814.56 -5.77853 0 114.273
-2299.61 -0.677926 0 -0.635715
-2318.97 -0.819732 0 -0.785838
-3830.65 -5.79151 0 114.157
-3057.87 -3.12116 0 54.1424
-2309.29 -0.74881 0 -0.707491
-3083.64 -3.20978 0 53.9461
-3070.75 -3.16555 0 54.0486
-3814.56 -5.77853 0 114.273
-3782.4 -5.75141 0 114.472
-2280.26 -0.536262 0 -0.511761
-2299.61 -0.677926 0 -0.635715
-3798.48 -5.76516 0 114.378
-3032.1 -3.03188 0 54.3038
-2289.93 -0.607078 0 -0.570481
-3057.87 -3.12116 0 54.1424
-3044.98 -3.07661 0 54.2274
-3782.4 -5.75141 0 114.472
-3750.23 -5.72271 0 114.627
-2260.91 -0.394712 0 -0.413756
-2280.26 -0.536262 0 -0.511761
-3766.32 -5.73726 0 114.555
-3006.34 -2.94191 0 54.4306
-2270.58 -0.465474 0 -0.459529
-3032.1 -3.03188 0 54.3038
-3019.22 -2.98698 0 54.3715
-3750.23 -5.72271 0 114.627
-3718.07 -5.69238 0 114.74
-2241.56 -0.253251 0 -0.341478
-2260.91 -0.394712 0 -0.413756
-3734.15 -5.70775 0 114.689
-2980.58 -2.85121 0 54.5232
-2251.23 -0.323972 0 -0.374415
-3006.34 -2.94191 0 54.4306
-2993.46 -2.89665 0 54.4812
-3718.07 -5.69238 0 114.74
-3685.92 -5.66039 0 114.81
-2222.21 -0.111855 0 -0.294706
-2241.56 -0.253251 0 -0.341478
-3701.99 -5.6766 0 114.78
-2954.82 -2.75975 0 54.5817
-2231.88 -0.182546 0 -0.314917
-2980.58 -2.85121 0 54.5232
-2967.7 -2.80558 0 54.5567
-3685.92 -5.66039 0 114.81
-3653.76 -5.6267 0 114.838
-2202.86 0.029499 0 -0.273219
-2222.21 -0.111855 0 -0.294706
-3669.84 -5.64376 0 114.829
-2929.06 -2.6675 0 54.6065
-2212.54 -0.0411743 0 -0.280816
-2954.82 -2.75975 0 54.5817
-2941.94 -2.71373 0 54.5983
-3653.76 -5.6267 0 114.838
-3621.61 -5.59126 0 114.825
-2183.52 0.170834 0 -0.276796
-2202.86 0.029499 0 -0.273219
-3637.68 -5.6092 0 114.837
-2903.31 -2.57444 0 54.598
-2193.19 0.100168 0 -0.271888
-2929.06 -2.6675 0 54.6065
-2916.18 -2.62107 0 54.6064
-3621.61 -5.59126 0 114.825
-3589.46 -5.55405 0 114.77
-2164.18 0.312172 0 -0.305216
-2183.52 0.170834 0 -0.276796
-3605.53 -5.57288 0 114.802
-2877.55 -2.48052 0 54.5563
-2173.85 0.241501 0 -0.287914
-2903.31 -2.57444 0 54.598
-2890.43 -2.52759 0 54.5813
-3589.46 -5.55405 0 114.77
-3557.31 -5.51503 0 114.674
-2144.84 0.453532 0 -0.358258
-2164.18 0.312172 0 -0.305216
-3573.38 -5.53477 0 114.727
-2851.8 -2.38573 0 54.4818
-2154.51 0.382848 0 -0.328673
-2877.55 -2.48052 0 54.5563
-2864.68 -2.43324 0 54.5231
-3557.31 -5.51503 0 114.674
-3525.16 -5.47417 0 114.537
-2125.5 0.594935 0 -0.4357
-2144.84 0.453532 0 -0.358258
-3541.23 -5.49483 0 114.61
-2826.05 -2.29004 0 54.3748
-2135.17 0.524227 0 -0.393943
-2851.8 -2.38573 0 54.4818
-2838.93 -2.338 0 54.4324
-3525.16 -5.47417 0 114.537
-3493.02 -5.43143 0 114.36
-2106.16 0.736399 0 -0.537323
-2125.5 0.594935 0 -0.4357
-3509.09 -5.45304 0 114.454
-2800.31 -2.19342 0 54.2356
-2115.83 0.665658 0 -0.483503
-2826.05 -2.29004 0 54.3748
-2813.18 -2.24185 0 54.3092
-3493.02 -5.43143 0 114.36
-3460.88 -5.38679 0 114.143
-2086.83 0.877942 0 -0.662904
-2106.16 0.736399 0 -0.537323
-3476.95 -5.40935 0 114.257
-2774.57 -2.09585 0 54.0645
-2096.49 0.807159 0 -0.597132
-2800.31 -2.19342 0 54.2356
-2787.44 -2.14476 0 54.154
-3460.88 -5.38679 0 114.143
-3428.74 -5.34022 0 113.887
-2067.49 1.01958 0 -0.812223
-2086.83 0.877942 0 -0.662904
-3444.81 -5.36375 0 114.02
-2748.82 -1.99731 0 53.8617
-2077.16 0.948748 0 -0.73461
-2774.57 -2.09585 0 54.0645
-2761.69 -2.0467 0 53.967
-3428.74 -5.34022 0 113.887
-3396.6 -5.2917 0 113.592
-2048.16 1.16133 0 -0.985059
-2067.49 1.01958 0 -0.812223
-3412.67 -5.31621 0 113.744
-2723.09 -1.89778 0 53.6276
-2057.83 1.09044 0 -0.895715
-2748.82 -1.99731 0 53.8617
-2735.95 -1.94767 0 53.7485
-3396.6 -5.2917 0 113.592
-3364.47 -5.24119 0 113.258
-2028.83 1.30321 0 -1.18119
-2048.16 1.16133 0 -0.985059
-3380.54 -5.26669 0 113.429
-2697.35 -1.79723 0 53.3624
-2038.5 1.23225 0 -1.08023
-2723.09 -1.89778 0 53.6276
-2710.22 -1.84763 0 53.4989
-3364.47 -5.24119 0 113.258
-3332.34 -5.18868 0 112.885
-2009.51 1.44523 0 -1.4004
-2028.83 1.30321 0 -1.18119
-3348.41 -5.21518 0 113.076
-2671.62 -1.69565 0 53.0665
-2019.17 1.3742 0 -1.28792
-2697.35 -1.79723 0 53.3624
-2684.48 -1.74657 0 53.2183
-3332.34 -5.18868 0 112.885
-3300.21 -5.13413 0 112.474
-1990.18 1.5874 0 -1.64246
-2009.51 1.44523 0 -1.4004
-3316.28 -5.16166 0 112.684
-2645.88 -1.59302 0 52.7402
-1999.85 1.51629 0 -1.51859
-2671.62 -1.69565 0 53.0665
-2658.75 -1.64447 0 52.9071
-3300.21 -5.13413 0 112.474
-3268.09 -5.07755 0 112.026
-1970.86 1.72974 0 -1.90716
-1990.18 1.5874 0 -1.64246
-3284.15 -5.1061 0 112.255
-2620.16 -1.48933 0 52.3836
-1980.52 1.65855 0 -1.77199
-2645.88 -1.59302 0 52.7402
-2633.02 -1.54131 0 52.5657
-3268.09 -5.07755 0 112.026
-3235.97 -5.01889 0 111.54
-1951.54 1.87225 0 -2.19427
-1970.86 1.72974 0 -1.90716
-3252.03 -5.04848 0 111.788
-2594.43 -1.38455 0 51.9973
-1961.2 1.80097 0 -2.04792
-2620.16 -1.48933 0 52.3836
-2607.29 -1.43708 0 52.1942
-3235.97 -5.01889 0 111.54
-3203.85 -4.95815 0 111.018
-1932.22 2.01496 0 -2.50357
-1951.54 1.87225 0 -2.19427
-3219.91 -4.98878 0 111.284
-2568.7 -1.27868 0 51.5813
-1941.88 1.94358 0 -2.34616
-2594.43 -1.38455 0 51.9973
-2581.57 -1.33176 0 51.793
-3203.85 -4.95815 0 111.018
-3171.73 -4.89531 0 110.459
-1912.91 2.15786 0 -2.83484
-1932.22 2.01496 0 -2.50357
-3187.79 -4.927 0 110.743
-2542.98 -1.1717 0 51.1361
-1922.57 2.08639 0 -2.66647
-2568.7 -1.27868 0 51.5813
-2555.84 -1.22533 0 51.3624
-3171.73 -4.89531 0 110.459
-3139.62 -4.83036 0 109.863
-1893.59 2.30097 0 -3.18787
-1912.91 2.15786 0 -2.83484
-3155.67 -4.8631 0 110.165
-2517.26 -1.06361 0 50.6619
-1903.25 2.22939 0 -3.00865
-2542.98 -1.1717 0 51.1361
-2530.12 -1.1178 0 50.9026
-3139.62 -4.83036 0 109.863
-3107.51 -4.76327 0 109.232
-1874.28 2.4443 0 -3.56242
-1893.59 2.30097 0 -3.18787
-3123.56 -4.79708 0 109.552
-2491.55 -0.954374 0 50.1591
-1883.94 2.37261 0 -3.37247
-2517.26 -1.06361 0 50.6619
-2504.41 -1.00913 0 50.4141
-3107.51 -4.76327 0 109.232
-3075.4 -4.69405 0 108.566
-1854.97 2.58785 0 -3.95829
-1874.28 2.4443 0 -3.56242
-3091.45 -4.72893 0 108.903
-2465.83 -0.844003 0 49.6278
-1864.63 2.51605 0 -3.75771
-2491.55 -0.954374 0 50.1591
-2478.69 -0.899332 0 49.8969
-3075.4 -4.69405 0 108.566
-3043.29 -4.62267 0 107.864
-1835.67 2.73163 0 -4.37525
-1854.97 2.58785 0 -3.95829
-3059.35 -4.65863 0 108.219
-2440.12 -0.732482 0 49.0684
-1845.32 2.65971 0 -4.16415
-2465.83 -0.844003 0 49.6278
-2452.98 -0.788387 0 49.3516
-3043.29 -4.62267 0 107.864
-3011.19 -4.54914 0 107.127
-1816.36 2.87565 0 -4.81307
-1835.67 2.73163 0 -4.37525
-3027.24 -4.58618 0 107.5
-2414.41 -0.619804 0 48.4813
-1826.01 2.80361 0 -4.59157
-2440.12 -0.732482 0 49.0684
-2427.27 -0.676288 0 48.7783
-3011.19 -4.54914 0 107.127
-2979.09 -4.47343 0 106.357
-1797.06 3.0199 0 -5.27155
-1816.36 2.87565 0 -4.81307
-2995.14 -4.51156 0 106.746
-2388.71 -0.505962 0 47.8666
-1806.71 2.94775 0 -5.03974
-2414.41 -0.619804 0 48.4813
-2401.56 -0.563029 0 48.1773
-2979.09 -4.47343 0 106.357
-2947 -4.39555 0 105.552
-1777.76 3.1644 0 -5.75045
-1797.06 3.0199 0 -5.27155
-2963.04 -4.43476 0 105.958
-2363 -0.390952 0 47.2247
-1787.41 3.09212 0 -5.50846
-2388.71 -0.505962 0 47.8666
-2375.86 -0.448604 0 47.549
-2947 -4.39555 0 105.552
-2914.9 -4.31549 0 104.713
-1758.46 3.30915 0 -6.24957
-1777.76 3.1644 0 -5.75045
-2930.95 -4.35579 0 105.137
-2337.3 -0.274768 0 46.5559
-1768.11 3.23675 0 -5.9975
-2363 -0.390952 0 47.2247
-2350.15 -0.333007 0 46.8937
-2914.9 -4.31549 0 104.713
-2882.81 -4.23324 0 103.842
-1739.16 3.45415 0 -6.76867
-1758.46 3.30915 0 -6.24957
-2898.86 -4.27464 0 104.282
-2311.6 -0.157407 0 45.8605
-1748.81 3.38162 0 -6.50663
-2337.3 -0.274768 0 46.5559
-2324.45 -0.216235 0 46.2115
-2882.81 -4.23324 0 103.842
-2850.72 -4.14881 0 102.937
-1719.87 3.5994 0 -7.30754
-1739.16 3.45415 0 -6.76867
-2866.77 -4.1913 0 103.393
-2285.91 -0.0388678 0 45.1387
-1729.52 3.52675 0 -7.03565
-2311.6 -0.157407 0 45.8605
-2298.76 -0.0982851 0 45.5029
-2850.72 -4.14881 0 102.937
-2818.64 -4.06219 0 102
-1700.58 3.74491 0 -7.86596
-1719.87 3.5994 0 -7.30754
-2834.68 -4.10577 0 102.473
-2260.21 0.0808524 0 44.3909
-1710.22 3.67212 0 -7.58432
-2285.91 -0.0388678 0 45.1387
-2273.06 0.0208448 0 44.7681
-2818.64 -4.06219 0 102
-2786.55 -3.97337 0 101.031
-1681.29 3.89067 0 -8.4437
-1700.58 3.74491 0 -7.86596
-2802.59 -4.01805 0 101.519
-2234.52 0.201754 0 43.6174
-1690.93 3.81776 0 -8.15243
-2260.21 0.0808524 0 44.3909
-2247.37 0.141155 0 44.0074
-2786.55 -3.97337 0 101.031
-2754.47 -3.88237 0 100.03
-1662 4.03668 0 -9.04056
-1681.29 3.89067 0 -8.4437
-2770.51 -3.92814 0 100.534
-2208.83 0.323835 0 42.8184
-1671.64 3.96364 0 -8.73976
-2234.52 0.201754 0 43.6174
-2221.68 0.262647 0 43.2211
-2754.47 -3.88237 0 100.03
-2722.4 -3.78918 0 98.9973
-1642.71 4.18294 0 -9.6563
-1662 4.03668 0 -9.04056
-2738.44 -3.83605 0 99.5174
-2183.15 0.447095 0 41.9943
-1652.36 4.10978 0 -9.34608
-2208.83 0.323835 0 42.8184
-2195.99 0.385318 0 42.4095
-2722.4 -3.78918 0 98.9973
-2690.32 -3.6938 0 97.9338
-1623.43 4.32946 0 -10.2907
-1642.71 4.18294 0 -9.6563
-2706.36 -3.74176 0 98.4694
-2157.47 0.571531 0 41.1452
-1633.07 4.25617 0 -9.97119
-2183.15 0.447095 0 41.9943
-2170.31 0.509166 0 41.5728
-2690.32 -3.6938 0 97.9338
-2658.25 -3.59625 0 96.8396
-1604.15 4.47622 0 -10.9436
-1623.43 4.32946 0 -10.2907
-2674.29 -3.6453 0 97.3905
-2131.78 0.69714 0 40.2717
-1613.79 4.40281 0 -10.6149
-2157.47 0.571531 0 41.1452
-2144.62 0.634189 0 40.7115
-2658.25 -3.59625 0 96.8396
-2626.18 -3.49652 0 95.7151
-1584.87 4.62323 0 -11.6147
-1604.15 4.47622 0 -10.9436
-2642.22 -3.54665 0 96.2811
-2106.11 0.823918 0 39.3738
-1594.51 4.54969 0 -11.2769
-2131.78 0.69714 0 40.2717
-2118.95 0.760383 0 39.8258
-2626.18 -3.49652 0 95.7151
-2594.12 -3.39462 0 94.5606
-1565.59 4.77048 0 -12.3038
-1584.87 4.62323 0 -11.6147
-2610.15 -3.44584 0 95.1416
-2080.43 0.951858 0 38.452
-1575.23 4.69682 0 -11.957
-2106.11 0.823918 0 39.3738
-2093.27 0.887743 0 38.9159
-2594.12 -3.39462 0 94.5606
-2562.05 -3.29057 0 93.3766
-1546.32 4.91796 0 -13.0107
-1565.59 4.77048 0 -12.3038
-2578.08 -3.34287 0 93.9723
-2054.76 1.08095 0 37.5065
-1555.95 4.84419 0 -12.655
-2080.43 0.951858 0 38.452
-2067.59 1.01626 0 37.9822
-2562.05 -3.29057 0 93.3766
-2529.99 -3.18436 0 92.1633
-1527.04 5.06568 0 -13.7351
-1546.32 4.91796 0 -13.0107
-2546.02 -3.23773 0 92.7736
-2029.09 1.2112 0 36.5375
-1536.68 4.99179 0 -13.3707
-2054.76 1.08095 0 37.5065
-2041.92 1.14594 0 37.0249
-2529.99 -3.18436 0 92.1633
-2497.94 -3.07602 0 90.9212
-1507.77 5.21362 0 -14.4769
-1527.04 5.06568 0 -13.7351
-2513.96 -3.13046 0 91.5458
-2003.42 1.34259 0 35.5455
-1517.41 5.13962 0 -14.1039
-2029.09 1.2112 0 36.5375
-2016.25 1.27675 0 36.0444
-2497.94 -3.07602 0 90.9212
-2465.88 -2.96554 0 89.6506
-1488.5 5.36178 0 -15.2359
-1507.77 5.21362 0 -14.4769
-2481.91 -3.02105 0 90.2894
-1977.75 1.47511 0 34.5307
-1498.14 5.28767 0 -14.8543
-2003.42 1.34259 0 35.5455
-1990.58 1.40871 0 35.0409
-2465.88 -2.96554 0 89.6506
-2433.83 -2.85295 0 88.3519
-1469.24 5.51015 0 -16.0117
-1488.5 5.36178 0 -15.2359
-2449.85 -2.90951 0 89.0047
-1952.09 1.60875 0 33.4933
-1478.87 5.43594 0 -15.6217
-1977.75 1.47511 0 34.5307
-1964.92 1.54179 0 34.0148
-2433.83 -2.85295 0 88.3519
-2401.78 -2.73826 0 87.0254
-1449.97 5.65872 0 -16.8043
-1469.24 5.51015 0 -16.0117
-2417.8 -2.79587 0 87.6921
-1926.43 1.74351 0 32.4338
-1459.6 5.58441 0 -16.4059
-1952.09 1.60875 0 33.4933
-1939.26 1.67599 0 32.9663
-2401.78 -2.73826 0 87.0254
-2369.73 -2.62147 0 85.6715
-1430.71 5.80749 0 -17.6133
-1449.97 5.65872 0 -16.8043
-2385.76 -2.68013 0 86.3519
-1900.77 1.87937 0 31.3522
-1440.34 5.73309 0 -17.2067
-1926.43 1.74351 0 32.4338
-1913.6 1.8113 0 31.8957
-2369.73 -2.62147 0 85.6715
-2337.69 -2.50262 0 84.2907
-1411.45 5.95645 0 -18.4386
-1430.71 5.80749 0 -17.6133
-2353.71 -2.5623 0 84.9845
-1875.11 2.01631 0 30.2491
-1421.08 5.88195 0 -18.0239
-1900.77 1.87937 0 31.3522
-1887.94 1.94771 0 30.8034
-2337.69 -2.50262 0 84.2907
-2305.65 -2.3817 0 82.8831
-1392.19 6.10558 0 -19.2799
-1411.45 5.95645 0 -18.4386
-2321.67 -2.44242 0 83.5902
-1849.46 2.15433 0 29.1246
-1401.82 6.03099 0 -18.8572
-1875.11 2.01631 0 30.2491
-1862.28 2.08519 0 29.6895
-2305.65 -2.3817 0 82.8831
-2273.61 -2.25875 0 81.4493
-1372.93 6.25487 0 -20.137
-1392.19 6.10558 0 -19.2799
-2289.63 -2.32048 0 82.1695
-1823.81 2.29342 0 27.9791
-1382.56 6.18021 0 -19.7065
-1849.46 2.15433 0 29.1246
-1836.63 2.22374 0 28.5544
-2273.61 -2.25875 0 81.4493
-2241.57 -2.13377 0 79.9896
-1353.68 6.40432 0 -21.0097
-1372.93 6.25487 0 -20.137
-2257.59 -2.19651 0 80.7226
-1798.16 2.43354 0 26.8127
-1363.31 6.32958 0 -20.5714
-1823.81 2.29342 0 27.9791
-1810.98 2.36335 0 27.3985
-2241.57 -2.13377 0 79.9896
-2209.54 -2.0068 0 78.5042
-1334.43 6.55392 0 -21.8978
-1353.68 6.40432 0 -21.0097
-2225.55 -2.07053 0 79.2501
-1772.51 2.5747 0 25.626
-1344.05 6.4791 0 -21.4519
-1798.16 2.43354 0 26.8127
-1785.33 2.504 0 26.2219
-2209.54 -2.0068 0 78.5042
-2177.51 -1.87784 0 76.9937
-1315.18 6.70364 0 -22.8011
-1334.43 6.55392 0 -21.8978
-2193.52 -1.94256 0 77.7521
-1746.87 2.71688 0 24.419
-1324.8 6.62876 0 -22.3476
-1772.51 2.5747 0 25.626
-1759.69 2.64567 0 25.025
-2177.51 -1.87784 0 76.9937
-2145.48 -1.74692 0 75.4584
-1295.93 6.85348 0 -23.7193
-1315.18 6.70364 0 -22.8011
-2161.49 -1.81262 0 76.2292
-1721.22 2.86005 0 23.1922
-1305.55 6.77855 0 -23.2583
-1746.87 2.71688 0 24.419
-1734.04 2.78834 0 23.8081
-2145.48 -1.74692 0 75.4584
-2113.45 -1.61407 0 73.8986
-1276.68 7.00343 0 -24.6522
-1295.93 6.85348 0 -23.7193
-2129.46 -1.68073 0 74.6816
-1695.58 3.0042 0 21.9457
-1286.31 6.92844 0 -24.1839
-1721.22 2.86005 0 23.1922
-1708.4 2.93201 0 22.5714
-2113.45 -1.61407 0 73.8986
-2081.43 -1.4793 0 72.3147
-1257.44 7.15346 0 -25.5996
-1276.68 7.00343 0 -24.6522
-2097.44 -1.54692 0 73.1097
-1669.95 3.14932 0 20.68
-1267.06 7.07844 0 -25.1241
-1695.58 3.0042 0 21.9457
-1682.76 3.07664 0 21.3153
-2081.43 -1.4793 0 72.3147
-2049.4 -1.34264 0 70.7071
-1238.2 7.30358 0 -26.5613
-1257.44 7.15346 0 -25.5996
-2065.42 -1.4112 0 71.5139
-1644.31 3.29537 0 19.3953
-1247.82 7.22851 0 -26.0787
-1669.95 3.14932 0 20.68
-1657.13 3.22223 0 20.04
-2049.4 -1.34264 0 70.7071
-2017.39 -1.20411 0 69.0761
-1218.95 7.45375 0 -27.5371
-1238.2 7.30358 0 -26.5613
-2033.39 -1.27361 0 69.8945
-1618.68 3.44235 0 18.0918
-1228.57 7.37866 0 -27.0475
-1644.31 3.29537 0 19.3953
-1631.49 3.36875 0 18.7458
-2017.39 -1.20411 0 69.0761
-1985.37 -1.06375 0 67.4221
-1199.72 7.60397 0 -28.5267
-1218.95 7.45375 0 -27.5371
-2001.38 -1.13416 0 68.252
-1593.05 3.59023 0 16.7699
-1209.33 7.52886 0 -28.0302
-1618.68 3.44235 0 18.0918
-1605.86 3.51618 0 17.4331
-1985.37 -1.06375 0 67.4221
-1953.35 -0.921578 0 65.7455
-1180.48 7.75422 0 -29.53
-1199.72 7.60397 0 -28.5267
-1969.36 -0.99289 0 66.5866
-1567.42 3.73899 0 15.4299
-1190.1 7.67909 0 -29.0267
-1593.05 3.59023 0 16.7699
-1580.23 3.6645 0 16.1021
-1953.35 -0.921578 0 65.7455
-1921.34 -0.77762 0 64.0466
-1161.24 7.90449 0 -30.5466
-1180.48 7.75422 0 -29.53
-1937.35 -0.84982 0 64.8988
-1541.79 3.8886 0 14.072
-1170.86 7.82935 0 -30.0366
-1567.42 3.73899 0 15.4299
-1554.6 3.81369 0 14.7532
-1921.34 -0.77762 0 64.0466
-1889.33 -0.631906 0 62.3258
-1142.01 8.05475 0 -31.5765
-1161.24 7.90449 0 -30.5466
-1905.34 -0.70498 0 63.1889
-1516.16 4.03905 0 12.6966
-1151.63 7.97962 0 -31.0599
-1541.79 3.8886 0 14.072
-1528.98 3.96373 0 13.3865
-1889.33 -0.631906 0 62.3258
-1857.32 -0.484466 0 60.5835
-1122.78 8.20498 0 -32.6193
-1142.01 8.05475 0 -31.5765
-1873.33 -0.558399 0 61.4573
-1490.54 4.19032 0 11.3039
-1132.39 8.12987 0 -32.0963
-1516.16 4.03905 0 12.6966
-1503.35 4.11458 0 12.0024
-1857.32 -0.484466 0 60.5835
-1825.32 -0.335329 0 58.8199
-1103.55 8.35518 0 -33.6749
-1122.78 8.20498 0 -32.6193
-1841.32 -0.410107 0 59.7043
-1464.92 4.34237 0 9.89429
-1113.16 8.28009 0 -33.1455
-1490.54 4.19032 0 11.3039
-1477.73 4.26624 0 10.6012
-1825.32 -0.335329 0 58.8199
-1793.32 -0.184528 0 57.0356
-1084.32 8.50532 0 -34.743
-1103.55 8.35518 0 -33.6749
-1809.32 -0.260135 0 57.9303
-1439.3 4.49518 0 8.46797
-1093.93 8.43026 0 -34.2074
-1464.92 4.34237 0 9.89429
-1452.11 4.41868 0 9.1832
-1793.32 -0.184528 0 57.0356
-1761.31 -0.032094 0 55.2308
-1065.09 8.65539 0 -35.8234
-1084.32 8.50532 0 -34.743
-1777.31 -0.108513 0 56.1357
-1413.68 4.64873 0 7.02527
-1074.71 8.58037 0 -35.2817
-1439.3 4.49518 0 8.46797
-1426.49 4.57186 0 7.74865
-1761.31 -0.032094 0 55.2308
-1729.31 0.121941 0 53.4059
-1045.87 8.80536 0 -36.9159
-1065.09 8.65539 0 -35.8234
-1745.31 0.0447254 0 54.3208
-1388.07 4.80299 0 5.56647
-1055.48 8.73039 0 -36.3682
-1413.68 4.64873 0 7.02527
-1400.88 4.72577 0 6.29786
-1729.31 0.121941 0 53.4059
-1697.32 0.277543 0 51.5613
-1026.65 8.95521 0 -38.0203
-1045.87 8.80536 0 -36.9159
-1713.32 0.199548 0 52.486
-1362.46 4.95793 0 4.09187
-1036.26 8.8803 0 -37.4666
-1388.07 4.80299 0 5.56647
-1375.26 4.88037 0 4.83113
-1697.32 0.277543 0 51.5613
-1665.32 0.434678 0 49.6973
-1007.42 9.10492 0 -39.1364
-1026.65 8.95521 0 -38.0203
-1681.32 0.355921 0 50.6317
-1336.85 5.11353 0 2.60176
-1017.03 9.03008 0 -38.5769
-1362.46 4.95793 0 4.09187
-1349.65 5.03565 0 3.34874
-1665.32 0.434678 0 49.6973
-1633.33 0.593311 0 47.8144
-988.204 9.25448 0 -40.2639
-1007.42 9.10492 0 -39.1364
-1649.32 0.513809 0 48.7582
-1311.24 5.26976 0 1.09643
-997.814 9.17972 0 -39.6987
-1336.85 5.11353 0 2.60176
-1324.04 5.19157 0 1.85098
-1633.33 0.593311 0 47.8144
-1601.34 0.753407 0 45.9128
-968.986 9.40386 0 -41.4026
-988.204 9.25448 0 -40.2639
-1617.33 0.673178 0 46.8659
-1285.63 5.42659 0 -0.423829
-978.595 9.3292 0 -40.8319
-1311.24 5.26976 0 1.09643
-1298.43 5.3481 0 0.338149
-1601.34 0.753407 0 45.9128
-1569.35 0.914929 0 43.9929
-949.769 9.55304 0 -42.5524
-968.986 9.40386 0 -41.4026
-1585.34 0.833992 0 44.9551
-1260.02 5.58399 0 -1.95873
-959.377 9.47848 0 -41.9761
-1285.63 5.42659 0 -0.423829
-1272.83 5.50522 0 -1.18947
-1569.35 0.914929 0 43.9929
-1537.36 1.07784 0 42.0551
-930.554 9.702 0 -43.7129
-949.769 9.55304 0 -42.5524
-1553.35 0.996213 0 43.0262
-1234.42 5.74194 0 -3.50798
-940.161 9.62755 0 -43.1313
-1260.02 5.58399 0 -1.95873
-1247.22 5.6629 0 -2.73158
-1537.36 1.07784 0 42.0551
-1505.37 1.2421 0 40.0998
-911.34 9.85071 0 -44.884
-930.554 9.702 0 -43.7129
-1521.37 1.15981 0 41.0796
-1208.82 5.9004 0 -5.07128
-920.947 9.77638 0 -44.2972
-1234.42 5.74194 0 -3.50798
-1221.62 5.82111 0 -4.28789
-1505.37 1.2421 0 40.0998
-1473.39 1.40768 0 38.1273
-892.128 9.99915 0 -46.0655
-911.34 9.85071 0 -44.884
-1489.38 1.32473 0 39.1157
-1183.22 6.05934 0 -6.64835
-901.734 9.92496 0 -45.4735
-1208.82 5.9004 0 -5.07128
-1196.02 5.97981 0 -5.85811
-1473.39 1.40768 0 38.1273
-1441.41 1.57453 0 36.138
-872.917 10.1473 0 -47.2571
-892.128 9.99915 0 -46.0655
-1457.4 1.49095 0 37.1348
-1157.62 6.21873 0 -8.2389
-882.523 10.0733 0 -46.66
-1183.22 6.05934 0 -6.64835
-1170.42 6.13898 0 -7.44196
-1441.41 1.57453 0 36.138
-1409.42 1.74262 0 34.1323
-853.708 10.2951 0 -48.4586
-872.917 10.1473 0 -47.2571
-1425.41 1.65842 0 35.1372
-1132.02 6.37853 0 -9.84263
-863.313 10.2213 0 -47.8566
-1157.62 6.21873 0 -8.2389
-1144.82 6.29858 0 -9.03913
-1409.42 1.74262 0 34.1323
-1377.44 1.9119 0 32.1105
-834.5 10.4426 0 -49.6698
-853.708 10.2951 0 -48.4586
-1393.43 1.82711 0 33.1234
-1106.42 6.53873 0 -11.4593
-844.104 10.3689 0 -49.063
-1132.02 6.37853 0 -9.84263
-1119.22 6.45859 0 -10.6494
-1377.44 1.9119 0 32.1105
-1345.47 2.08233 0 30.0729
-815.294 10.5898 0 -50.8906
-834.5 10.4426 0 -49.6698
-1361.46 1.99698 0 31.0936
-1080.83 6.69928 0 -13.0885
-824.897 10.5163 0 -50.279
-1106.42 6.53873 0 -11.4593
-1093.62 6.61896 0 -12.2723
-1345.47 2.08233 0 30.0729
-1313.49 2.25388 0 28.02
-796.089 10.7365 0 -52.1205
-815.294 10.5898 0 -50.8906
-1329.48 2.16797 0 29.0483
-1055.23 6.86015 0 -14.73
-805.691 10.6632 0 -51.5044
-1080.83 6.69928 0 -13.0885
-1068.03 6.77968 0 -13.9077
-1313.49 2.25388 0 28.02
-1281.52 2.4265 0 25.9521
-776.885 10.8829 0 -53.3596
-796.089 10.7365 0 -52.1205
-1297.5 2.34006 0 26.9879
-1029.64 7.02131 0 -16.3836
-786.487 10.8097 0 -52.7389
-1055.23 6.86015 0 -14.73
-1042.44 6.9407 0 -15.5553
-1281.52 2.4265 0 25.9521
-1249.54 2.60014 0 23.8695
-757.682 11.0287 0 -54.6074
-776.885 10.8829 0 -53.3596
-1265.53 2.5132 0 24.9126
-1004.05 7.18272 0 -18.0489
-767.283 10.9559 0 -53.9824
-1029.64 7.02131 0 -16.3836
-1016.85 7.10198 0 -17.2148
-1249.54 2.60014 0 23.8695
-1217.57 2.77477 0 21.7727
-738.481 11.1742 0 -55.8639
-757.682 11.0287 0 -54.6074
-1233.55 2.68734 0 22.8229
-978.464 7.34435 0 -19.7257
-748.082 11.1015 0 -55.2346
-1004.05 7.18272 0 -18.0489
-991.258 7.26351 0 -18.8859
-1217.57 2.77477 0 21.7727
-1185.6 2.95035 0 19.662
-719.281 11.3191 0 -57.1287
-738.481 11.1742 0 -55.8639
-1201.58 2.86245 0 20.7191
-952.876 7.50616 0 -21.4136
-728.881 11.2467 0 -56.4953
-978.464 7.34435 0 -19.7257
-965.67 7.42524 0 -20.5682
-1185.6 2.95035 0 19.662
-1153.63 3.12681 0 17.5377
-700.082 11.4635 0 -58.4018
-719.281 11.3191 0 -57.1287
-1169.61 3.03847 0 18.6015
-927.29 7.66812 0 -23.1123
-709.681 11.3914 0 -57.7642
-952.876 7.50616 0 -21.4136
-940.083 7.58713 0 -22.2616
-1153.63 3.12681 0 17.5377
-1121.66 3.30413 0 15.4002
-680.884 11.6074 0 -59.6828
-700.082 11.4635 0 -58.4018
-1137.64 3.21537 0 16.4706
-901.705 7.8302 0 -24.8216
-690.483 11.5355 0 -59.0413
-927.29 7.66812 0 -23.1123
-914.497 7.74915 0 -23.9657
-1121.66 3.30413 0 15.4002
-1089.69 3.48226 0 13.25
-661.688 11.7507 0 -60.9715
-680.884 11.6074 0 -59.6828
-1105.67 3.3931 0 14.3267
-876.121 7.99234 0 -26.5413
-671.286 11.6791 0 -60.3262
-901.705 7.8302 0 -24.8216
-888.912 7.91126 0 -25.6802
-1089.69 3.48226 0 13.25
-1057.72 3.66114 0 11.0872
-642.492 11.8934 0 -62.2678
-661.688 11.7507 0 -60.9715
-1073.71 3.5716 0 12.1701
-850.538 8.15452 0 -28.2709
-652.09 11.8221 0 -61.6187
-876.121 7.99234 0 -26.5413
-863.329 8.07343 0 -27.4048
-1057.72 3.66114 0 11.0872
-1025.76 3.84073 0 8.9124
-623.298 12.0355 0 -63.5713
-642.492 11.8934 0 -62.2678
-1041.74 3.75085 0 10.0013
-824.956 8.3167 0 -30.0101
-632.895 11.9645 0 -62.9187
-850.538 8.15452 0 -28.2709
-837.747 8.23562 0 -29.1393
-1025.76 3.84073 0 8.9124
-993.794 4.02099 0 6.72586
-604.104 12.1769 0 -64.882
-623.298 12.0355 0 -63.5713
-1009.78 3.93078 0 7.82058
-799.375 8.47884 0 -31.7588
-613.701 12.1062 0 -64.2258
-824.956 8.3167 0 -30.0101
-812.165 8.39778 0 -30.8833
-993.794 4.02099 0 6.72586
-961.83 4.20186 0 4.52796
-584.912 12.3175 0 -66.1995
-604.104 12.1769 0 -64.882
-977.812 4.11135 0 5.62831
-773.795 8.64089 0 -33.5166
-594.508 12.2473 0 -65.5399
-799.375 8.47884 0 -31.7588
-786.585 8.55987 0 -32.6366
-961.83 4.20186 0 4.52796
-929.867 4.38329 0 2.31908
-565.721 12.4575 0 -67.5236
-584.912 12.3175 0 -66.1995
-945.848 4.29251 0 3.42487
-748.217 8.80281 0 -35.2832
-575.316 12.3876 0 -66.8607
-773.795 8.64089 0 -33.5166
-761.006 8.72186 0 -34.3989
-929.867 4.38329 0 2.31908
-897.905 4.56523 0 0.0995813
-546.53 12.5967 0 -68.8542
-565.721 12.4575 0 -67.5236
-913.886 4.4742 0 1.21063
-722.639 8.96455 0 -37.0584
-556.125 12.5272 0 -68.1881
-748.217 8.80281 0 -35.2832
-735.427 8.8837 0 -36.1698
-897.905 4.56523 0 0.0995813
-865.943 4.74763 0 -2.13015
-527.34 12.735 0 -70.1909
-546.53 12.5967 0 -68.8542
-881.924 4.65638 0 -1.01403
-697.062 9.12608 0 -38.8417
-536.935 12.666 0 -69.5218
-722.639 8.96455 0 -37.0584
-709.85 9.04535 0 -37.949
-865.943 4.74763 0 -2.13015
-833.982 4.93044 0 -4.36975
-508.152 12.8726 0 -71.5336
-527.34 12.735 0 -70.1909
-849.963 4.83899 0 -3.24875
-671.485 9.28735 0 -40.6329
-517.746 12.8039 0 -70.8615
-697.062 9.12608 0 -38.8417
-684.273 9.20675 0 -39.7363
-833.982 4.93044 0 -4.36975
-802.022 5.11361 0 -6.61884
-488.963 13.0092 0 -72.882
-508.152 12.8726 0 -71.5336
-818.002 5.02198 0 -5.49314
-645.91 9.44833 0 -42.4317
-498.557 12.941 0 -72.2071
-671.485 9.28735 0 -40.6329
-658.698 9.36788 0 -41.5314
-802.022 5.11361 0 -6.61884
-770.063 5.29709 0 -8.87705
-469.776 13.145 0 -74.2359
-488.963 13.0092 0 -72.882
-786.042 5.20531 0 -7.74683
-620.335 9.60898 0 -44.2378
-479.37 13.0772 0 -73.5583
-645.91 9.44833 0 -42.4317
-633.122 9.52869 0 -43.3339
-770.063 5.29709 0 -8.87705
-738.104 5.48085 0 -11.144
-450.589 13.2799 0 -75.595
-469.776 13.145 0 -74.2359
-754.083 5.38893 0 -10.0095
-594.761 9.76929 0 -46.051
-460.183 13.2126 0 -74.9148
-620.335 9.60898 0 -44.2378
-607.548 9.68918 0 -45.1435
-738.104 5.48085 0 -11.144
-706.146 5.66487 0 -13.4194
-431.403 13.414 0 -76.9593
-450.589 13.2799 0 -75.595
-722.125 5.57283 0 -12.2807
-569.188 9.9293 0 -47.8709
-440.996 13.3471 0 -76.2765
-594.761 9.76929 0 -46.051
-581.974 9.84933 0 -46.9601
-706.146 5.66487 0 -13.4194
-674.188 5.84917 0 -15.7029
-412.218 13.5474 0 -78.3284
-431.403 13.414 0 -76.9593
-690.167 5.75699 0 -14.5601
-543.615 10.089 0 -49.6973
-421.811 13.4808 0 -77.6432
-569.188 9.9293 0 -47.8709
-556.401 10.0092 0 -48.7832
-674.188 5.84917 0 -15.7029
-642.23 6.03377 0 -17.9942
-393.033 13.6803 0 -79.7023
-412.218 13.5474 0 -78.3284
-658.209 5.94143 0 -16.8476
-518.043 10.2486 0 -51.53
-402.626 13.6139 0 -79.0148
-543.615 10.089 0 -49.6973
-530.829 10.1689 0 -50.6128
-642.23 6.03377 0 -17.9942
-610.273 6.21876 0 -20.2933
-373.85 13.8128 0 -81.0809
-393.033 13.6803 0 -79.7023
-626.252 6.12621 0 -19.1428
-492.471 10.4083 0 -53.369
-383.441 13.7466 0 -80.391
-518.043 10.2486 0 -51.53
-505.257 10.3284 0 -52.4487
-610.273 6.21876 0 -20.2933
-578.316 6.4042 0 -22.6
-354.667 13.9454 0 -82.4643
-373.85 13.8128 0 -81.0809
-594.295 6.31142 0 -21.4457
-466.9 10.5681 0 -55.2142
-364.258 13.8791 0 -81.772
-492.471 10.4083 0 -53.369
-479.686 10.4881 0 -54.2908
-578.316 6.4042 0 -22.6
-546.359 6.5901 0 -24.9143
-335.485 14.078 0 -83.8526
-354.667 13.9454 0 -82.4643
-562.338 6.49711 0 -23.7562
-441.33 10.7281 0 -57.0658
-345.076 14.0117 0 -83.1578
-466.9 10.5681 0 -55.2142
-454.115 10.6481 0 -56.1392
-546.359 6.5901 0 -24.9143
-514.402 6.77621 0 -27.236
-316.304 14.2103 0 -85.2462
-335.485 14.078 0 -83.8526
-530.381 6.68315 0 -26.0742
-415.761 10.8878 0 -58.9237
-325.895 14.1443 0 -84.5487
-441.33 10.7281 0 -57.0658
-428.545 10.808 0 -57.9939
-514.402 6.77621 0 -27.236
-482.445 6.96141 0 -29.5646
-297.124 14.3409 0 -86.646
-316.304 14.2103 0 -85.2462
-498.424 6.86906 0 -28.3995
-390.191 11.0458 0 -60.7877
-306.714 14.276 0 -85.9452
-415.761 10.8878 0 -58.9237
-402.976 10.9673 0 -59.855
-482.445 6.96141 0 -29.5646
-450.487 7.14333 0 -31.8983
-277.941 14.4647 0 -88.053
-297.124 14.3409 0 -86.646
-466.466 7.053 0 -30.7309
-364.62 11.1975 0 -62.6568
-287.533 14.4042 0 -87.3485
-390.191 11.0458 0 -60.7877
-377.406 11.1228 0 -61.7217
-450.487 7.14333 0 -31.8983
-418.528 7.31534 0 -34.2313
-258.747 14.5731 0 -89.4697
-277.941 14.4647 0 -88.053
-434.507 7.23126 0 -33.0655
-339.042 11.3342 0 -64.5281
-268.347 14.5218 0 -88.7598
-364.62 11.1975 0 -62.6568
-351.832 11.2689 0 -63.5927
-418.528 7.31534 0 -34.2313
-386.563 7.46685 0 -36.5541
-239.53 14.644 0 -90.8983
-258.747 14.5731 0 -89.4697
-402.547 7.39467 0 -35.3947
-313.446 11.4358 0 -66.3948
-249.142 14.6153 0 -90.1825
-339.042 11.3342 0 -64.5281
-326.247 11.3907 0 -65.4623
-386.563 7.46685 0 -36.5541
-354.598 7.57066 0 -38.8393
-220.244 14.646 0 -92.3471
-239.53 14.644 0 -90.8983
-370.579 7.52708 0 -37.7042
-287.809 11.4703 0 -68.2433
-229.901 14.6567 0 -91.6191
-313.446 11.4358 0 -66.3948
-300.634 11.466 0 -67.3234
-354.598 7.57066 0 -38.8393
-322.605 7.59464 0 -41.0514
-200.842 14.5083 0 -93.8215
-220.244 14.646 0 -92.3471
-338.61 7.59614 0 -39.957
-262.08 11.3709 0 -70.0489
-210.558 14.6005 0 -93.0815
-287.809 11.4703 0 -68.2433
-274.96 11.44 0 -69.1519
-322.605 7.59464 0 -41.0514
-290.603 7.4479 0 -43.094
-181.154 14.1607 0 -95.3534
-200.842 14.5083 0 -93.8215
-306.599 7.54824 0 -42.1039
-236.168 11.0552 0 -71.7707
-191.052 14.3676 0 -94.576
-262.08 11.3709 0 -70.0489
-249.152 11.2544 0 -70.9276
-290.603 7.4479 0 -43.094
-258.452 7.07732 0 -44.8786
-161.047 13.44 0 -96.9604
-181.154 14.1607 0 -95.3534
-274.569 7.30122 0 -44.0231
-209.888 10.358 0 -73.3581
-171.152 13.8558 0 -96.1493
-236.168 11.0552 0 -71.7707
-223.095 10.7514 0 -72.5772
-258.452 7.07732 0 -44.8786
-226.215 6.22603 0 -46.149
-140.021 12.3421 0 -98.7722
-161.047 13.44 0 -96.9604
-242.32 6.71441 0 -45.6061
-182.968 9.18773 0 -74.7486
-150.709 12.9408 0 -97.823
-209.888 10.358 0 -73.3581
-196.517 9.86961 0 -74.099
-226.215 6.22603 0 -46.149
-193.233 5.02712 0 -46.8407
-117.907 10.7368 0 -100.863
-140.021 12.3421 0 -98.7722
-209.912 5.69994 0 -46.5587
-154.819 7.34509 0 -75.9945
-129.071 11.5799 0 -99.7876
-182.968 9.18773 0 -74.7486
-169.124 8.28688 0 -75.3466
-193.233 5.02712 0 -46.8407
-159.648 2.91597 0 -46.5731
-93.685 9.60604 0 -103.719
-117.907 10.7368 0 -100.863
-176.437 4.009 0 -46.8748
-124.882 5.40584 0 -77.2967
-106.209 10.0396 0 -102.13
-154.819 7.34509 0 -75.9945
-140.05 6.45201 0 -76.6839
-159.648 2.91597 0 -46.5731
-122.712 1.84584 0 -46.2698
-68.2849 10.1428 0 -107.487
-93.685 9.60604 0 -103.719
-141.96 2.31162 0 -46.2989
-91.6723 4.45068 0 -79.7514
-80.9195 9.39749 0 -105.515
-124.882 5.40584 0 -77.2967
-108.954 4.36059 0 -78.1269
-122.712 1.84584 0 -46.2698
-82.9408 2.01625 0 -47.2971
-41.6244 18.7985 0 -112.803
-68.2849 10.1428 0 -107.487
-102.934 1.02041 0 -46.4791
-55.715 10.7342 0 -85.157
-55.3204 12.9833 0 -109.87
-91.6723 4.45068 0 -79.7514
-73.6863 6.46069 0 -82.1929
-82.9408 2.01625 0 -47.2971
-33.8166 19.731 0 -58.5401
-21.5872 43.5384 0 -115.203
-41.6244 18.7985 0 -112.803
-60.412 8.07883 0 -50.6885
-18.125 37.9663 0 -96.8812
-29.7955 27.9097 0 -114.993
-55.715 10.7342 0 -85.157
-37.6481 19.0524 0 -89.4973
-33.8166 19.731 0 -58.5401
2.24653 88.9355 0 -87.7951
-8.30163 102.47 0 -101.648
-21.5872 43.5384 0 -115.203
-12.0515 38.4803 0 -70.1786
-5.53161 115.436 0 -100.263
-14.6767 69.3043 0 -111.833
-18.125 37.9663 0 -96.8812
-4.68166 70.4486 0 -102.846
2.24653 88.9355 0 -87.7951
-9.43042 328.808 0 -68.9423
0.602349 163.255 0 -45.9003
-8.30163 102.47 0 -101.648
6.45495 190.414 0 -96.5974
-12.0428 232.124 0 -37.179
-2.5571 137.276 0 -80.3008
-5.53161 115.436 0 -100.263
-10.1731 173.396 0 -80.8001
-3431.88 -1032.53 0 316.151
-3724.36 -657.495 0 -6.65371
-1217.9 -214.241 0 164.139
-1248.51 -374.347 0 493.168
-3630.65 -832.376 0 120.941
-2471.63 -435.556 0 98.5722
-1197.08 -295.608 0 311.242
-2290.53 -688.065 0 450.969
-2419.43 -581.013 0 224.482
-3724.36 -657.495 0 -6.65371
-3793.84 -293.429 0 -104.946
-1282.05 -135.115 0 -32.0423
-1217.9 -214.241 0 164.139
-3755.34 -462.035 0 -70.5348
-2529.42 -232.581 0 -57.6335
-1267.56 -170.265 0 48.7004
-2471.63 -435.556 0 98.5722
-2497.69 -317.986 0 13.8218
-3793.84 -293.429 0 -104.946
-3829.09 -110.78 0 -121.531
-1286.15 -62.8373 0 -120.337
-1282.05 -135.115 0 -32.0423
-3827.78 -183.468 0 -121.108
-2559.29 -100.557 0 -123.574
-1279.59 -95.1926 0 -85.3887
-2529.42 -232.581 0 -57.6335
-2552.72 -160.107 0 -103.571
-3829.09 -110.78 0 -121.531
-3799.69 -26.7856 0 -109.161
-1289.5 -29.4954 0 -151.218
-1286.15 -62.8373 0 -120.337
-3813 -58.6459 0 -114.725
-2551.03 -35.8917 0 -136.745
-1293.43 -43.2393 0 -141.174
-2559.29 -100.557 0 -123.574
-2557.17 -60.6188 0 -132.045
-3799.69 -26.7856 0 -109.161
-3765.6 -2.86486 0 -100.159
-1275.64 -12.4099 0 -153.736
-1289.5 -29.4954 0 -151.218
-3785.46 -10.7591 0 -104.674
-2527.67 -8.90002 0 -132.803
-1280.9 -18.6003 0 -154.238
-2551.03 -35.8917 0 -136.745
-2540.72 -19.25 0 -136.531
-3765.6 -2.86486 0 -100.159
-3726.42 2.66848 0 -93.3888
-1264.05 -9.58062 0 -147.306
-1275.64 -12.4099 0 -153.736
-3744.11 1.64003 0 -96.0801
-2501.01 -3.00155 0 -125.297
-1271.09 -10.2657 0 -151.091
-2527.67 -8.90002 0 -132.803
-2513.89 -4.13202 0 -128.641
-3726.42 2.66848 0 -93.3888
-3694.87 -0.611994 0 -89.6842
-1250.51 -9.66774 0 -139.248
-1264.05 -9.58062 0 -147.306
-3710.68 1.34867 0 -91.4782
-2477 -4.0053 0 -118.443
-1256.39 -9.22562 0 -143.126
-2501.01 -3.00155 0 -125.297
-2488.64 -3.12919 0 -121.896
-3694.87 -0.611994 0 -89.6842
-3666.43 -4.34378 0 -86.7018
-1240.14 -11.5891 0 -132.686
-1250.51 -9.66774 0 -139.248
-3679.76 -2.43737 0 -88.0417
-2456.42 -7.15225 0 -113.147
-1245.45 -10.6607 0 -135.753
-2477 -4.0053 0 -118.443
-2466.23 -5.47338 0 -115.493
-3666.43 -4.34378 0 -86.7018
-3642.27 -7.7362 0 -84.3014
-1230.61 -12.9271 0 -127.893
-1240.14 -11.5891 0 -132.686
-3654.18 -6.20559 0 -85.5102
-2438.79 -9.82485 0 -109.181
-1235.02 -12.2827 0 -130.057
-2456.42 -7.15225 0 -113.147
-2447.31 -8.60987 0 -111.068
-3642.27 -7.7362 0 -84.3014
-3619.97 -9.84316 0 -81.934
-1222.64 -13.926 0 -124.635
-1230.61 -12.9271 0 -127.893
-3630.81 -8.90561 0 -83.0966
-2423.17 -11.703 0 -106.192
-1226.6 -13.5115 0 -126.11
-2438.79 -9.82485 0 -109.181
-2430.77 -10.8628 0 -107.565
-3619.97 -9.84316 0 -81.934
-3599.21 -11.1123 0 -79.6265
-1215.22 -14.3492 0 -122.403
-1222.64 -13.926 0 -124.635
-3609.51 -10.586 0 -80.7877
-2408.8 -12.7492 0 -103.814
-1218.81 -14.1815 0 -123.413
-2423.17 -11.703 0 -106.192
-2415.87 -12.3194 0 -104.955
-3599.21 -11.1123 0 -79.6265
-3579.11 -11.6959 0 -77.3028
-1208.33 -14.4668 0 -120.832
-1215.22 -14.3492 0 -122.403
-3589.07 -11.464 0 -78.4611
-2395.15 -13.2324 0 -101.819
-1211.76 -14.4481 0 -121.556
-2408.8 -12.7492 0 -103.814
-2401.91 -13.0471 0 -102.776
-3579.11 -11.6959 0 -77.3028
-3559.44 -11.8996 0 -74.9974
-1201.62 -14.3425 0 -119.643
-1208.33 -14.4668 0 -120.832
-3569.25 -11.8384 0 -76.1498
-2381.89 -13.3408 0 -100.044
-1204.94 -14.4235 0 -120.201
-2395.15 -13.2324 0 -101.819
-2388.49 -13.3232 0 -100.913
-3559.44 -11.8996 0 -74.9974
-3539.94 -11.8645 0 -72.7103
-1195.06 -14.1017 0 -118.673
-1201.62 -14.3425 0 -119.643
-3549.67 -11.9019 0 -73.8498
-2368.82 -13.2385 0 -98.4047
-1198.34 -14.2349 0 -119.139
-2381.89 -13.3408 0 -100.044
-2375.34 -13.3089 0 -99.2108
-3539.94 -11.8645 0 -72.7103
-3520.54 -11.7126 0 -70.4567
-1188.53 -13.7905 0 -117.823
-1195.06 -14.1017 0 -118.673
-3530.24 -11.7998 0 -71.5794
-2355.83 -13.0203 0 -96.8465
-1191.79 -13.9511 0 -118.237
-2368.82 -13.2385 0 -98.4047
-2362.32 -13.1397 0 -97.618
-3520.54 -11.7126 0 -70.4567
-3501.17 -11.4998 0 -68.2401
-1182.03 -13.4517 0 -117.04
-1188.53 -13.7905 0 -117.823
-3510.85 -11.6107 0 -69.3433
-2342.88 -12.7471 0 -95.3439
-1185.28 -13.6237 0 -117.426
-2355.83 -13.0203 0 -96.8465
-2349.35 -12.8882 0 -96.0892
-3501.17 -11.4998 0 -68.2401
-3481.81 -11.2633 0 -66.0646
-1175.52 -13.1015 0 -116.296
-1182.03 -13.4517 0 -117.04
-3491.49 -11.3834 0 -67.1472
-2329.94 -12.4504 0 -93.8821
-1178.77 -13.277 0 -116.664
-2342.88 -12.7471 0 -95.3439
-2336.41 -12.6005 0 -94.6085
-3481.81 -11.2633 0 -66.0646
-3462.45 -11.019 0 -63.9309
-1169.02 -12.7511 0 -115.576
-1175.52 -13.1015 0 -116.296
-3472.13 -11.1414 0 -64.9925
-2316.99 -12.1472 0 -92.4542
-1172.27 -12.9261 0 -115.933
-2329.94 -12.4504 0 -93.8821
-2323.47 -12.299 0 -93.1642
-3462.45 -11.019 0 -63.9309
-3443.09 -10.7757 0 -61.8392
-1162.51 -12.404 0 -114.874
-1169.02 -12.7511 0 -115.576
-3452.77 -10.897 0 -62.8798
-2304.05 -11.8449 0 -91.0565
-1165.77 -12.5769 0 -115.223
-2316.99 -12.1472 0 -92.4542
-2310.52 -11.9956 0 -91.7518
-3443.09 -10.7757 0 -61.8392
-3423.72 -10.5363 0 -59.7888
-1156 -12.0621 0 -114.187
-1162.51 -12.404 0 -114.874
-3433.4 -10.6554 0 -60.8088
-2291.1 -11.5467 0 -89.6872
-1159.26 -12.2325 0 -114.529
-2304.05 -11.8449 0 -91.0565
-2297.58 -11.6952 0 -90.3684
-3423.72 -10.5363 0 -59.7888
-3404.35 -10.3019 0 -57.7791
-1149.49 -11.7253 0 -113.514
-1156 -12.0621 0 -114.187
-3414.03 -10.4185 0 -58.7789
-2278.15 -11.2536 0 -88.345
-1152.75 -11.8931 0 -113.849
-2291.1 -11.5467 0 -89.6872
-2284.63 -11.3995 0 -89.0127
-3404.35 -10.3019 0 -57.7791
-3384.97 -10.0725 0 -55.8093
-1142.97 -11.3933 0 -112.854
-1149.49 -11.7253 0 -113.514
-3394.66 -10.1866 0 -56.7892
-2265.2 -10.9654 0 -87.0294
-1146.23 -11.5587 0 -113.182
-2278.15 -11.2536 0 -88.345
-2271.67 -11.1089 0 -87.6839
-3384.97 -10.0725 0 -55.8093
-3365.6 -9.84774 0 -53.879
-1136.46 -11.0654 0 -112.206
-1142.97 -11.3933 0 -112.854
-3375.29 -9.95956 0 -54.8393
-2252.24 -10.6817 0 -85.7399
-1139.71 -11.2288 0 -112.528
-2265.2 -10.9654 0 -87.0294
-2258.72 -10.823 0 -86.3814
-3365.6 -9.84774 0 -53.879
-3346.22 -9.6272 0 -51.9874
-1129.94 -10.7412 0 -111.571
-1136.46 -11.0654 0 -112.206
-3355.91 -9.73696 0 -52.9284
-2239.28 -10.402 0 -84.4762
-1133.2 -10.9028 0 -111.887
-2252.24 -10.6817 0 -85.7399
-2245.76 -10.5414 0 -85.1048
-3346.22 -9.6272 0 -51.9874
-3326.84 -9.41051 0 -50.1343
-1123.42 -10.4203 0 -110.949
-1129.94 -10.7412 0 -111.571
-3336.53 -9.51839 0 -51.0561
-2226.33 -10.126 0 -83.238
-1126.68 -10.5803 0 -111.259
-2239.28 -10.402 0 -84.4762
-2232.81 -10.2636 0 -83.8539
-3326.84 -9.41051 0 -50.1343
-3307.46 -9.19735 0 -48.3192
-1116.9 -10.1024 0 -110.339
-1123.42 -10.4203 0 -110.949
-3317.15 -9.3035 0 -49.222
-2213.37 -9.85338 0 -82.0251
-1120.16 -10.261 0 -110.643
-2226.33 -10.126 0 -83.238
-2219.85 -9.98931 0 -82.6284
-3307.46 -9.19735 0 -48.3192
-3288.07 -8.98749 0 -46.5417
-1110.38 -9.78719 0 -109.742
-1116.9 -10.1024 0 -110.339
-3297.77 -9.09202 0 -47.4257
-2200.41 -9.58381 0 -80.8373
-1113.64 -9.94444 0 -110.039
-2213.37 -9.85338 0 -82.0251
-2206.89 -9.71822 0 -81.4281
-3288.07 -8.98749 0 -46.5417
-3268.69 -8.78074 0 -44.8017
-1103.87 -9.47463 0 -109.157
-1110.38 -9.78719 0 -109.742
-3278.38 -8.88374 0 -45.6671
-2187.45 -9.31714 0 -79.6744
-1107.13 -9.63059 0 -109.448
-2200.41 -9.58381 0 -80.8373
-2193.93 -9.45012 0 -80.2527
-3268.69 -8.78074 0 -44.8017
-3249.31 -8.57694 0 -43.0989
-1097.35 -9.16455 0 -108.584
-1103.87 -9.47463 0 -109.157
-3259 -8.67848 0 -43.9457
-2174.49 -9.05324 0 -78.5362
-1100.61 -9.31928 0 -108.869
-2187.45 -9.31714 0 -79.6744
-2180.97 -9.18485 0 -79.1022
-3249.31 -8.57694 0 -43.0989
-3229.92 -8.37599 0 -41.4331
-1090.83 -8.85689 0 -108.024
-1097.35 -9.16455 0 -108.584
-3239.61 -8.47612 0 -42.2614
-2161.53 -8.79202 0 -77.4226
-1094.09 -9.01042 0 -108.303
-2174.49 -9.05324 0 -78.5362
-2168.01 -8.9223 0 -77.9764
-3229.92 -8.37599 0 -41.4331
-3210.53 -8.17777 0 -39.8039
-1084.31 -8.55159 0 -107.476
-1090.83 -8.85689 0 -108.024
-3220.23 -8.27654 0 -40.6139
-2148.56 -8.53338 0 -76.3335
-1087.57 -8.70395 0 -107.748
-2161.53 -8.79202 0 -77.4226
-2155.04 -8.66238 0 -76.875
-3210.53 -8.17777 0 -39.8039
-3191.15 -7.98218 0 -38.2113
-1077.79 -8.2486 0 -106.939
-1084.31 -8.55159 0 -107.476
-3200.84 -8.07965 0 -39.003
-2135.6 -8.27727 0 -75.2687
-1081.05 -8.39981 0 -107.206
-2148.56 -8.53338 0 -76.3335
-2142.08 -8.40501 0 -75.7981
-3191.15 -7.98218 0 -38.2113
-3171.76 -7.78916 0 -36.6549
-1071.28 -7.94791 0 -106.415
-1077.79 -8.2486 0 -106.939
-3181.45 -7.88536 0 -37.4286
-2122.64 -8.02361 0 -74.228
-1074.53 -8.09797 0 -106.676
-2135.6 -8.27727 0 -75.2687
-2129.12 -8.15014 0 -74.7454
-3171.76 -7.78916 0 -36.6549
-3152.37 -7.59861 0 -35.1347
-1064.76 -7.64947 0 -105.903
-1071.28 -7.94791 0 -106.415
-3162.06 -7.69358 0 -35.8903
-2109.68 -7.77237 0 -73.2114
-1068.02 -7.79841 0 -106.158
-2122.64 -8.02361 0 -74.228
-2116.16 -7.89769 0 -73.7167
-3152.37 -7.59861 0 -35.1347
-3132.98 -7.41045 0 -33.6503
-1058.24 -7.35327 0 -105.403
-1064.76 -7.64947 0 -105.903
-3142.67 -7.50424 0 -34.388
-2096.71 -7.52348 0 -72.2186
-1061.5 -7.50109 0 -105.651
-2109.68 -7.77237 0 -73.2114
-2103.2 -7.64763 0 -72.712
-3132.98 -7.41045 0 -33.6503
-3113.59 -7.22462 0 -32.2015
-1051.72 -7.05927 0 -104.914
-1058.24 -7.35327 0 -105.403
-3123.28 -7.31725 0 -32.9214
-2083.75 -7.2769 0 -71.2496
-1054.98 -7.20599 0 -105.157
-2096.71 -7.52348 0 -72.2186
-2090.23 -7.39991 0 -71.7311
-3113.59 -7.22462 0 -32.2015
-3094.2 -7.04103 0 -30.7882
-1045.2 -6.76747 0 -104.437
-1051.72 -7.05927 0 -104.914
-3103.89 -7.13255 0 -31.4904
-2070.79 -7.03258 0 -70.3041
-1048.46 -6.9131 0 -104.674
-2083.75 -7.2769 0 -71.2496
-2077.27 -7.15446 0 -70.7739
-3094.2 -7.04103 0 -30.7882
-3074.8 -6.85961 0 -29.41
-1038.69 -6.47783 0 -103.972
-1045.2 -6.76747 0 -104.437
-3084.5 -6.95005 0 -30.0947
-2057.83 -6.79046 0 -69.3821
-1041.95 -6.62238 0 -104.203
-2070.79 -7.03258 0 -70.3041
-2064.31 -6.91125 0 -69.8402
-3074.8 -6.85961 0 -29.41
-3055.41 -6.68029 0 -28.0669
-1032.17 -6.19033 0 -103.518
-1038.69 -6.47783 0 -103.972
-3065.11 -6.76969 0 -28.7341
-2044.86 -6.55051 0 -68.4834
-1035.43 -6.33382 0 -103.744
-2057.83 -6.79046 0 -69.3821
-2051.34 -6.67022 0 -68.9298
-3055.41 -6.68029 0 -28.0669
-3036.02 -6.50299 0 -26.7586
-1025.65 -5.90496 0 -103.076
-1032.17 -6.19033 0 -103.518
-3045.72 -6.59139 0 -27.4084
-2031.9 -6.31267 0 -67.6078
-1028.91 -6.04738 0 -103.296
-2044.86 -6.55051 0 -68.4834
-2038.38 -6.43133 0 -68.0427
-3036.02 -6.50299 0 -26.7586
-3016.63 -6.32765 0 -25.4848
-1019.14 -5.62168 0 -102.646
-1025.65 -5.90496 0 -103.076
-3026.33 -6.41508 0 -26.1173
-2018.94 -6.07691 0 -66.7553
-1022.4 -5.76306 0 -102.86
-2031.9 -6.31267 0 -67.6078
-2025.42 -6.19453 0 -67.1787
-3016.63 -6.32765 0 -25.4848
-2997.24 -6.1542 0 -24.2453
-1012.62 -5.34048 0 -102.227
-1019.14 -5.62168 0 -102.646
-3006.93 -6.2407 0 -24.8608
-2005.98 -5.84316 0 -65.9256
-1015.88 -5.48082 0 -102.435
-2018.94 -6.07691 0 -66.7553
-2012.46 -5.95978 0 -66.3376
-2997.24 -6.1542 0 -24.2453
-2977.85 -5.98257 0 -23.04
-1006.11 -5.06133 0 -101.819
-1012.62 -5.34048 0 -102.227
-2987.54 -6.06816 0 -23.6384
-1993.01 -5.61139 0 -65.1187
-1009.36 -5.20065 0 -102.021
-2005.98 -5.84316 0 -65.9256
-1999.49 -5.72703 0 -65.5193
-2977.85 -5.98257 0 -23.04
-2958.45 -5.81269 0 -21.8685
-999.59 -4.7842 0 -101.422
-1006.11 -5.06133 0 -101.819
-2968.15 -5.89741 0 -22.45
-1980.05 -5.38155 0 -64.3343
-1002.85 -4.92251 0 -101.619
-1993.01 -5.61139 0 -65.1187
-1986.53 -5.49623 0 -64.7237
-2958.45 -5.81269 0 -21.8685
-2939.06 -5.64449 0 -20.7308
-993.075 -4.50909 0 -101.036
-999.59 -4.7842 0 -101.422
-2948.76 -5.72838 0 -21.2955
-1967.09 -5.1536 0 -63.5724
-996.333 -4.6464 0 -101.228
-1980.05 -5.38155 0 -64.3343
-1973.57 -5.26734 0 -63.9506
-2939.06 -5.64449 0 -20.7308
-2919.67 -5.47791 0 -19.6265
-986.56 -4.23597 0 -100.662
-993.075 -4.50909 0 -101.036
-2929.37 -5.561 0 -20.1745
-1954.13 -4.92749 0 -62.8327
-989.818 -4.37228 0 -100.848
-1967.09 -5.1536 0 -63.5724
-1960.61 -5.04032 0 -63.1998
-2919.67 -5.47791 0 -19.6265
-2900.28 -5.31288 0 -18.5554
-980.046 -3.96481 0 -100.299
-986.56 -4.23597 0 -100.662
-2909.98 -5.3952 0 -19.0868
-1941.17 -4.70319 0 -62.1152
-983.303 -4.10014 0 -100.479
-1954.13 -4.92749 0 -62.8327
-1947.65 -4.81512 0 -62.4712
-2900.28 -5.31288 0 -18.5554
-2880.89 -5.14935 0 -17.5174
-973.532 -3.69559 0 -99.9462
-980.046 -3.96481 0 -100.299
-2890.58 -5.23094 0 -18.0323
-1928.21 -4.48065 0 -61.4197
-976.789 -3.82996 0 -100.121
-1941.17 -4.70319 0 -62.1152
-1934.69 -4.5917 0 -61.7647
-2880.89 -5.14935 0 -17.5174
-2861.5 -4.98726 0 -16.5121
-967.019 -3.4283 0 -99.6046
-973.532 -3.69559 0 -99.9462
-2871.19 -5.06813 0 -17.0107
-1915.25 -4.25983 0 -60.746
-970.276 -3.56171 0 -99.774
-1928.21 -4.48065 0 -61.4197
-1921.73 -4.37003 0 -61.0801
-2861.5 -4.98726 0 -16.5121
-2842.11 -4.82653 0 -15.5395
-960.506 -3.16292 0 -99.2738
-967.019 -3.4283 0 -99.6046
-2851.8 -4.90673 0 -16.0218
-1902.29 -4.04069 0 -60.094
-963.763 -3.29538 0 -99.4379
-1915.25 -4.25983 0 -60.746
-1908.77 -4.15005 0 -60.4173
-2842.11 -4.82653 0 -15.5395
-2822.72 -4.66712 0 -14.5992
-953.994 -2.89942 0 -98.9538
-960.506 -3.16292 0 -99.2738
-2832.41 -4.74667 0 -15.0653
-1889.33 -3.82319 0 -59.4636
-957.25 -3.03094 0 -99.1125
-1902.29 -4.04069 0 -60.094
-1895.81 -3.93173 0 -59.7762
-2822.72 -4.66712 0 -14.5992
-2803.33 -4.50897 0 -13.691
-947.482 -2.63779 0 -98.6445
-953.994 -2.89942 0 -98.9538
-2813.03 -4.58789 0 -14.1411
-1876.37 -3.60729 0 -58.8546
-950.738 -2.76837 0 -98.7978
-1889.33 -3.82319 0 -59.4636
-1882.85 -3.71504 0 -59.1565
-2803.33 -4.50897 0 -13.691
-2783.94 -4.35201 0 -12.8148
-940.971 -2.378 0 -98.3457
-947.482 -2.63779 0 -98.6445
-2793.64 -4.43034 0 -13.2489
-1863.41 -3.39296 0 -58.2669
-944.227 -2.50766 0 -98.4938
-1876.37 -3.60729 0 -58.8546
-1869.89 -3.49993 0 -58.5581
-2783.94 -4.35201 0 -12.8148
-2764.56 -4.19621 0 -11.9702
-934.46 -2.12004 0 -98.0575
-940.971 -2.378 0 -98.3457
-2774.25 -4.27397 0 -12.3886
-1850.46 -3.18015 0 -57.7003
-937.716 -2.24879 0 -98.2003
-1863.41 -3.39296 0 -58.2669
-1856.94 -3.28637 0 -57.9809
-2764.56 -4.19621 0 -11.9702
-2745.17 -4.04149 0 -11.1572
-927.95 -1.8639 0 -97.7797
-934.46 -2.12004 0 -98.0575
-2754.86 -4.11871 0 -11.5598
-1837.5 -2.96884 0 -57.1546
-931.205 -1.99174 0 -97.9173
-1850.46 -3.18015 0 -57.7003
-1843.98 -3.07431 0 -57.4248
-2745.17 -4.04149 0 -11.1572
-2725.78 -3.88781 0 -10.3754
-921.441 -1.60954 0 -97.5124
-927.95 -1.8639 0 -97.7797
-2735.48 -3.96452 0 -10.7624
-1824.55 -2.75899 0 -56.6298
-924.696 -1.7365 0 -97.6448
-1837.5 -2.96884 0 -57.1546
-1831.02 -2.86373 0 -56.8896
-2725.78 -3.88781 0 -10.3754
-2706.4 -3.73512 0 -9.62458
-914.932 -1.35697 0 -97.2553
-921.441 -1.60954 0 -97.5124
-2716.09 -3.81135 0 -9.9961
-1811.59 -2.55056 0 -56.1256
-918.186 -1.48303 0 -97.3825
-1824.55 -2.75899 0 -56.6298
-1818.07 -2.6546 0 -56.3751
-2706.4 -3.73512 0 -9.62458
-2687.02 -3.58337 0 -8.90461
-908.424 -1.10615 0 -97.0084
-914.932 -1.35697 0 -97.2553
-2696.71 -3.65913 0 -9.26076
-1798.64 -2.34351 0 -55.642
-911.678 -1.23134 0 -97.1306
-1811.59 -2.55056 0 -56.1256
-1805.12 -2.44686 0 -55.8812
-2687.02 -3.58337 0 -8.90461
-2667.63 -3.4325 0 -8.21524
-901.916 -0.857071 0 -96.7717
-908.424 -1.10615 0 -97.0084
-2677.32 -3.50783 0 -8.55612
-1785.69 -2.13783 0 -55.1787
-905.17 -0.981392 0 -96.8888
-1798.64 -2.34351 0 -55.642
-1792.16 -2.2405 0 -55.4078
-2667.63 -3.4325 0 -8.21524
-2648.25 -3.28248 0 -7.55624
-895.41 -0.609721 0 -96.5452
-901.916 -0.857071 0 -96.7717
-2657.94 -3.35739 0 -7.88195
-1772.73 -1.93347 0 -54.7357
-898.663 -0.733181 0 -96.6572
-1785.69 -2.13783 0 -55.1787
-1779.21 -2.03549 0 -54.9547
-2648.25 -3.28248 0 -7.55624
-2628.87 -3.13325 0 -6.92739
-888.903 -0.364083 0 -96.3286
-895.41 -0.609721 0 -96.5452
-2638.56 -3.20777 0 -7.23806
-1759.78 -1.7304 0 -54.3128
-892.156 -0.486689 0 -96.4356
-1772.73 -1.93347 0 -54.7357
-1766.26 -1.83178 0 -54.5218
-2628.87 -3.13325 0 -6.92739
-2609.49 -2.98477 0 -6.32846
-882.398 -0.120141 0 -96.122
-888.903 -0.364083 0 -96.3286
-2619.18 -3.05892 0 -6.6242
-1746.83 -1.5286 0 -53.9099
-885.651 -0.241901 0 -96.224
-1759.78 -1.7304 0 -54.3128
-1753.31 -1.62935 0 -54.1089
-2609.49 -2.98477 0 -6.32846
-2590.11 -2.83699 0 -5.75925
-875.893 0.122121 0 -95.9252
-882.398 -0.120141 0 -96.122
-2599.8 -2.91079 0 -6.04016
-1733.89 -1.32803 0 -53.5267
-879.146 0.00119954 0 -96.0224
-1746.83 -1.5286 0 -53.9099
-1740.36 -1.42816 0 -53.7158
-2590.11 -2.83699 0 -5.75925
-2570.74 -2.68987 0 -5.21953
-869.389 0.362717 0 -95.7383
-875.893 0.122121 0 -95.9252
-2580.42 -2.76335 0 -5.48572
-1720.94 -1.12867 0 -53.1632
-872.641 0.242626 0 -95.8305
-1733.89 -1.32803 0 -53.5267
-1727.41 -1.2282 0 -53.3425
-2570.74 -2.68987 0 -5.21953
-2551.36 -2.54337 0 -4.70907
-862.886 0.60166 0 -95.5611
-869.389 0.362717 0 -95.7383
-2561.05 -2.61654 0 -4.96065
-1707.99 -0.930478 0 -52.8192
-866.138 0.482394 0 -95.6485
-1720.94 -1.12867 0 -53.1632
-1714.46 -1.02943 0 -52.9888
-2551.36 -2.54337 0 -4.70907
-2531.99 -2.39745 0 -4.22766
-856.384 0.838966 0 -95.3935
-862.886 0.60166 0 -95.5611
-2541.67 -2.47034 0 -4.46474
-1695.05 -0.733439 0 -52.4945
-859.635 0.720517 0 -95.4761
-1707.99 -0.930478 0 -52.8192
-1701.52 -0.831817 0 -52.6545
-2531.99 -2.39745 0 -4.22766
-2512.61 -2.25206 0 -3.77507
-849.882 1.07465 0 -95.2356
-856.384 0.838966 0 -95.3935
-2522.3 -2.32469 0 -3.99777
-1682.1 -0.537522 0 -52.1891
-853.133 0.957008 0 -95.3134
-1695.05 -0.733439 0 -52.4945
-1688.57 -0.635342 0 -52.3394
-2512.61 -2.25206 0 -3.77507
-2493.24 -2.10717 0 -3.35108
-843.381 1.30872 0 -95.0872
-849.882 1.07465 0 -95.2356
-2502.93 -2.17956 0 -3.55951
-1669.16 -0.342701 0 -51.9027
-846.632 1.19188 0 -95.1602
-1682.1 -0.537522 0 -52.1891
-1675.63 -0.439976 0 -52.0435
-2493.24 -2.10717 0 -3.35108
-2473.87 -1.96275 0 -2.95548
-836.881 1.54118 0 -94.9482
-843.381 1.30872 0 -95.0872
-2483.56 -2.0349 0 -3.14974
-1656.22 -0.148952 0 -51.6353
-840.131 1.42515 0 -95.0165
-1669.16 -0.342701 0 -51.9027
-1662.69 -0.245694 0 -51.7667
-2473.87 -1.96275 0 -2.95548
-2454.5 -1.81874 0 -2.58803
-830.382 1.77207 0 -94.8186
-836.881 1.54118 0 -94.9482
-2464.19 -1.89069 0 -2.76825
-1643.28 0.0437513 0 -51.3866
-833.632 1.65682 0 -94.8822
-1656.22 -0.148952 0 -51.6353
-1649.75 -0.0524708 0 -51.5086
-2454.5 -1.81874 0 -2.58803
-2435.14 -1.67513 0 -2.24853
-823.884 2.00138 0 -94.6982
-830.382 1.77207 0 -94.8186
-2444.82 -1.74689 0 -2.4148
-1630.34 0.235432 0 -51.1565
-827.133 1.88692 0 -94.7572
-1643.28 0.0437513 0 -51.3866
-1636.81 0.139718 0 -51.2693
-2435.14 -1.67513 0 -2.24853
-2415.77 -1.53187 0 -1.93674
-817.386 2.22912 0 -94.5872
-823.884 2.00138 0 -94.6982
-2425.45 -1.60346 0 -2.08918
-1617.4 0.426112 0 -50.945
-820.635 2.11544 0 -94.6415
-1630.34 0.235432 0 -51.1565
-1623.87 0.330896 0 -51.0485
-2415.77 -1.53187 0 -1.93674
-2396.41 -1.38893 0 -1.65245
-810.89 2.45532 0 -94.4852
-817.386 2.22912 0 -94.5872
-2406.09 -1.46036 0 -1.79117
-1604.46 0.615816 0 -50.7517
-814.138 2.34241 0 -94.535
-1617.4 0.426112 0 -50.945
-1610.93 0.521085 0 -50.8461
-2396.41 -1.38893 0 -1.65245
-2377.04 -1.24627 0 -1.39544
-804.394 2.67997 0 -94.3924
-810.89 2.45532 0 -94.4852
-2386.72 -1.31757 0 -1.52055
-1591.53 0.804564 0 -50.5767
-807.642 2.56783 0 -94.4377
-1604.46 0.615816 0 -50.7517
-1597.99 0.710308 0 -50.6619
-2377.04 -1.24627 0 -1.39544
-2357.68 -1.10388 0 -1.16548
-797.899 2.90309 0 -94.3085
-804.394 2.67997 0 -94.3924
-2367.36 -1.17504 0 -1.27709
-1578.59 0.992377 0 -50.4196
-801.146 2.79172 0 -94.3493
-1591.53 0.804564 0 -50.5767
-1585.06 0.898586 0 -50.4959
-2357.68 -1.10388 0 -1.16548
-2338.32 -0.961706 0 -0.962352
-791.405 3.1247 0 -94.2337
-797.899 2.90309 0 -94.3085
-2348 -1.03276 0 -1.06058
-1565.66 1.17928 0 -50.2805
-794.652 3.01408 0 -94.27
-1578.59 0.992377 0 -50.4196
-1572.12 1.08594 0 -50.3479
-2338.32 -0.961706 0 -0.962352
-2318.97 -0.819732 0 -0.785838
-784.912 3.34479 0 -94.1676
-791.405 3.1247 0 -94.2337
-2328.65 -0.890696 0 -0.870783
-1552.73 1.36528 0 -50.1591
-788.159 3.23493 0 -94.1995
-1565.66 1.17928 0 -50.2805
-1559.19 1.27239 0 -50.2176
-2318.97 -0.819732 0 -0.785838
-2299.61 -0.677926 0 -0.635715
-778.42 3.56338 0 -94.1104
-784.912 3.34479 0 -94.1676
-2309.29 -0.74881 0 -0.707491
-1539.8 1.55041 0 -50.0553
-781.666 3.45427 0 -94.1379
-1552.73 1.36528 0 -50.1591
-1546.26 1.45795 0 -50.105
-2299.61 -0.677926 0 -0.635715
-2280.26 -0.536262 0 -0.511761
-771.929 3.78048 0 -94.0619
-778.42 3.56338 0 -94.1104
-2289.93 -0.607078 0 -0.570481
-1526.87 1.73468 0 -49.969
-775.174 3.67212 0 -94.0851
-1539.8 1.55041 0 -50.0553
-1533.33 1.64265 0 -50.01
-2280.26 -0.536262 0 -0.511761
-2260.91 -0.394712 0 -0.413756
-765.439 3.99611 0 -94.0221
-771.929 3.78048 0 -94.0619
-2270.58 -0.465474 0 -0.459529
-1513.94 1.91812 0 -49.9
-768.684 3.88848 0 -94.0409
-1526.87 1.73468 0 -49.969
-1520.4 1.8265 0 -49.9323
-2260.91 -0.394712 0 -0.413756
-2241.56 -0.253251 0 -0.341478
-758.949 4.21025 0 -93.9908
-765.439 3.99611 0 -94.0221
-2251.23 -0.323972 0 -0.374415
-1501.01 2.10073 0 -49.8481
-762.194 4.10336 0 -94.0053
-1513.94 1.91812 0 -49.9
-1507.48 2.00952 0 -49.8719
-2241.56 -0.253251 0 -0.341478
-2222.21 -0.111855 0 -0.294706
-752.461 4.42293 0 -93.968
-758.949 4.21025 0 -93.9908
-2231.88 -0.182546 0 -0.314917
-1488.09 2.28253 0 -49.8132
-755.705 4.31678 0 -93.9783
-1501.01 2.10073 0 -49.8481
-1494.55 2.19173 0 -49.8285
-2222.21 -0.111855 0 -0.294706
-2202.86 0.029499 0 -0.273219
-745.973 4.63416 0 -93.9537
-752.461 4.42293 0 -93.968
-2212.54 -0.0411743 0 -0.280816
-1475.17 2.46354 0 -49.7952
-749.217 4.52873 0 -93.9598
-1488.09 2.28253 0 -49.8132
-1481.63 2.37313 0 -49.8021
-2202.86 0.029499 0 -0.273219
-2183.52 0.170834 0 -0.276796
-739.487 4.84393 0 -93.9477
-745.973 4.63416 0 -93.9537
-2193.19 0.100168 0 -0.271888
-1462.25 2.64378 0 -49.794
-742.73 4.73923 0 -93.9497
-1475.17 2.46354 0 -49.7952
-1468.71 2.55376 0 -49.7925
-2183.52 0.170834 0 -0.276796
-2164.18 0.312172 0 -0.305216
-733.002 5.05227 0 -93.95
-739.487 4.84393 0 -93.9477
-2173.85 0.241501 0 -0.287914
-1449.33 2.82326 0 -49.8092
-736.244 4.94828 0 -93.9478
-1462.25 2.64378 0 -49.794
-1455.78 2.73361 0 -49.7995
-2164.18 0.312172 0 -0.305216
-2144.84 0.453532 0 -0.358258
-726.517 5.25916 0 -93.9606
-733.002 5.05227 0 -93.95
-2154.51 0.382848 0 -0.328673
-1436.41 3.00199 0 -49.841
-729.759 5.15589 0 -93.9543
-1449.33 2.82326 0 -49.8092
-1442.87 2.91271 0 -49.8231
-2144.84 0.453532 0 -0.358258
-2125.5 0.594935 0 -0.4357
-720.034 5.46463 0 -93.9793
-726.517 5.25916 0 -93.9606
-2135.17 0.524227 0 -0.393943
-1423.49 3.17998 0 -49.8889
-723.275 5.36208 0 -93.9689
-1436.41 3.00199 0 -49.841
-1429.95 3.09108 0 -49.8629
-2125.5 0.594935 0 -0.4357
-2106.16 0.736399 0 -0.537323
-713.551 5.66868 0 -94.006
-720.034 5.46463 0 -93.9793
-2115.83 0.665658 0 -0.483503
-1410.57 3.35726 0 -49.9531
-716.792 5.56683 0 -93.9916
-1423.49 3.17998 0 -49.8889
-1417.03 3.26871 0 -49.919
-2106.16 0.736399 0 -0.537323
-2086.83 0.877942 0 -0.662904
-707.07 5.87131 0 -94.0408
-713.551 5.66868 0 -94.006
-2096.49 0.807159 0 -0.597132
-1397.66 3.53382 0 -50.0332
-710.31 5.77017 0 -94.0224
-1410.57 3.35726 0 -49.9531
-1404.12 3.44563 0 -49.9911
-2086.83 0.877942 0 -0.662904
-2067.49 1.01958 0 -0.812223
-700.589 6.07253 0 -94.0835
-707.07 5.87131 0 -94.0408
-2077.16 0.948748 0 -0.73461
-1384.75 3.70969 0 -50.1291
-703.829 5.9721 0 -94.0612
-1397.66 3.53382 0 -50.0332
-1391.2 3.62184 0 -50.0792
-2067.49 1.01958 0 -0.812223
-2048.16 1.16133 0 -0.985059
-694.11 6.27235 0 -94.134
-700.589 6.07253 0 -94.0835
-2057.83 1.09044 0 -0.895715
-1371.84 3.88486 0 -50.2407
-697.349 6.17262 0 -94.1078
-1384.75 3.70969 0 -50.1291
-1378.29 3.79736 0 -50.183
-2048.16 1.16133 0 -0.985059
-2028.83 1.30321 0 -1.18119
-687.631 6.47077 0 -94.1924
-694.11 6.27235 0 -94.134
-2038.5 1.23225 0 -1.08023
-1358.93 4.05936 0 -50.3679
-690.87 6.37173 0 -94.1622
-1371.84 3.88486 0 -50.2407
-1365.38 3.9722 0 -50.3024
-2028.83 1.30321 0 -1.18119
-2009.51 1.44523 0 -1.4004
-681.154 6.66779 0 -94.2584
-687.631 6.47077 0 -94.1924
-2019.17 1.3742 0 -1.28792
-1346.02 4.2332 0 -50.5105
-684.392 6.56945 0 -94.2244
-1358.93 4.05936 0 -50.3679
-1352.47 4.14636 0 -50.4373
-2009.51 1.44523 0 -1.4004
-1990.18 1.5874 0 -1.64246
-674.677 6.86342 0 -94.3321
-681.154 6.66779 0 -94.2584
-1999.85 1.51629 0 -1.51859
-1333.12 4.40637 0 -50.6683
-677.915 6.76578 0 -94.2943
-1346.02 4.2332 0 -50.5105
-1339.57 4.31986 0 -50.5875
-1990.18 1.5874 0 -1.64246
-1970.86 1.72974 0 -1.90716
-668.202 7.05767 0 -94.4134
-674.677 6.86342 0 -94.3321
-1980.52 1.65855 0 -1.77199
-1320.21 4.57889 0 -50.8412
-671.439 6.96072 0 -94.3718
-1333.12 4.40637 0 -50.6683
-1326.66 4.49271 0 -50.7529
-1970.86 1.72974 0 -1.90716
-1951.54 1.87225 0 -2.19427
-661.727 7.25054 0 -94.5021
-668.202 7.05767 0 -94.4134
-1961.2 1.80097 0 -2.04792
-1307.31 4.75077 0 -51.0291
-664.964 7.15428 0 -94.4568
-1320.21 4.57889 0 -50.8412
-1313.76 4.66491 0 -50.9333
-1951.54 1.87225 0 -2.19427
-1932.22 2.01496 0 -2.50357
-655.254 7.44203 0 -94.5983
-661.727 7.25054 0 -94.5021
-1941.88 1.94358 0 -2.34616
-1294.41 4.92202 0 -51.2318
-658.491 7.34645 0 -94.5493
-1307.31 4.75077 0 -51.0291
-1300.86 4.83647 0 -51.1286
-1932.22 2.01496 0 -2.50357
-1912.91 2.15786 0 -2.83484
-648.782 7.63214 0 -94.7018
-655.254 7.44203 0 -94.5983
-1922.57 2.08639 0 -2.66647
-1281.51 5.09263 0 -51.4492
-652.018 7.53725 0 -94.6491
-1294.41 4.92202 0 -51.2318
-1287.96 5.0074 0 -51.3387
-1912.91 2.15786 0 -2.83484
-1893.59 2.30097 0 -3.18787
-642.311 7.82088 0 -94.8126
-648.782 7.63214 0 -94.7018
-1903.25 2.22939 0 -3.00865
-1268.61 5.26262 0 -51.6811
-645.546 7.72668 0 -94.7563
-1281.51 5.09263 0 -51.4492
-1275.06 5.1777 0 -51.5633
-1893.59 2.30097 0 -3.18787
-1874.28 2.4443 0 -3.56242
-635.84 8.00826 0 -94.9306
-642.311 7.82088 0 -94.8126
-1883.94 2.37261 0 -3.37247
-1255.71 5.432 0 -51.9273
-639.075 7.91474 0 -94.8707
-1268.61 5.26262 0 -51.6811
-1262.16 5.34739 0 -51.8024
-1874.28 2.4443 0 -3.56242
-1854.97 2.58785 0 -3.95829
-629.371 8.19427 0 -95.0558
-635.84 8.00826 0 -94.9306
-1864.63 2.51605 0 -3.75771
-1242.82 5.60076 0 -52.1878
-632.606 8.10143 0 -94.9923
-1255.71 5.432 0 -51.9273
-1249.27 5.51646 0 -52.0558
-1854.97 2.58785 0 -3.95829
-1835.67 2.73163 0 -4.37525
-622.903 8.37891 0 -95.188
-629.371 8.19427 0 -95.0558
-1845.32 2.65971 0 -4.16415
-1229.93 5.76892 0 -52.4623
-626.137 8.28676 0 -95.121
-1242.82 5.60076 0 -52.1878
-1236.37 5.68491 0 -52.3233
-1835.67 2.73163 0 -4.37525
-1816.36 2.87565 0 -4.81307
-616.436 8.5622 0 -95.3272
-622.903 8.37891 0 -95.188
-1826.01 2.80361 0 -4.59157
-1217.04 5.93647 0 -52.7508
-619.669 8.47073 0 -95.2567
-1229.93 5.76892 0 -52.4623
-1223.48 5.85277 0 -52.6048
-1816.36 2.87565 0 -4.81307
-1797.06 3.0199 0 -5.27155
-609.97 8.74412 0 -95.4733
-616.436 8.5622 0 -95.3272
-1806.71 2.94775 0 -5.03974
-1204.15 6.10342 0 -53.0531
-613.203 8.65333 0 -95.3994
-1217.04 5.93647 0 -52.7508
-1210.59 6.02002 0 -52.9002
-1797.06 3.0199 0 -5.27155
-1777.76 3.1644 0 -5.75045
-603.505 8.92469 0 -95.6263
-609.97 8.74412 0 -95.4733
-1787.41 3.09212 0 -5.50846
-1191.26 6.26977 0 -53.369
-606.737 8.83458 0 -95.5489
-1204.15 6.10342 0 -53.0531
-1197.7 6.18667 0 -53.2094
-1777.76 3.1644 0 -5.75045
-1758.46 3.30915 0 -6.24957
-597.041 9.1039 0 -95.786
-603.505 8.92469 0 -95.6263
-1768.11 3.23675 0 -5.9975
-1178.37 6.43553 0 -53.6984
-600.273 9.01447 0 -95.7053
-1191.26 6.26977 0 -53.369
-1184.82 6.35272 0 -53.532
-1758.46 3.30915 0 -6.24957
-1739.16 3.45415 0 -6.76867
-590.578 9.28176 0 -95.9524
-597.041 9.1039 0 -95.786
-1748.81 3.38162 0 -6.50663
-1165.49 6.60069 0 -54.0412
-593.81 9.193 0 -95.8684
-1178.37 6.43553 0 -53.6984
-1171.93 6.51818 0 -53.8681
-1739.16 3.45415 0 -6.76867
-1719.87 3.5994 0 -7.30754
-584.117 9.45826 0 -96.1255
-590.578 9.28176 0 -95.9524
-1729.52 3.52675 0 -7.03565
-1152.6 6.76526 0 -54.3971
-587.347 9.37018 0 -96.0381
-1165.49 6.60069 0 -54.0412
-1159.05 6.68305 0 -54.2175
-1719.87 3.5994 0 -7.30754
-1700.58 3.74491 0 -7.86596
-577.656 9.63341 0 -96.3051
-584.117 9.45826 0 -96.1255
-1710.22 3.67212 0 -7.58432
-1139.72 6.92924 0 -54.7661
-580.886 9.54601 0 -96.2145
-1152.6 6.76526 0 -54.3971
-1146.16 6.84733 0 -54.58
-1700.58 3.74491 0 -7.86596
-1681.29 3.89067 0 -8.4437
-571.196 9.80721 0 -96.4912
-577.656 9.63341 0 -96.3051
-1690.93 3.81776 0 -8.15243
-1126.84 7.09263 0 -55.1481
-574.426 9.72048 0 -96.3974
-1139.72 6.92924 0 -54.7661
-1133.28 7.01101 0 -54.9555
-1681.29 3.89067 0 -8.4437
-1662 4.03668 0 -9.04056
-564.738 9.97965 0 -96.6837
-571.196 9.80721 0 -96.4912
-1671.64 3.96364 0 -8.73976
-1113.97 7.25543 0 -55.5427
-567.967 9.8936 0 -96.5867
-1126.84 7.09263 0 -55.1481
-1120.4 7.1741 0 -55.3438
-1662 4.03668 0 -9.04056
-1642.71 4.18294 0 -9.6563
-558.28 10.1507 0 -96.8826
-564.738 9.97965 0 -96.6837
-1652.36 4.10978 0 -9.34608
-1101.09 7.41764 0 -55.95
-561.509 10.0654 0 -96.7824
-1113.97 7.25543 0 -55.5427
-1107.53 7.33661 0 -55.7448
-1642.71 4.18294 0 -9.6563
-1623.43 4.32946 0 -10.2907
-551.823 10.3205 0 -97.0877
-558.28 10.1507 0 -96.8826
-1633.07 4.25617 0 -9.97119
-1088.22 7.57925 0 -56.3698
-555.052 10.2358 0 -96.9844
-1101.09 7.41764 0 -55.95
-1094.65 7.49852 0 -56.1584
-1623.43 4.32946 0 -10.2907
-1604.15 4.47622 0 -10.9436
-545.368 10.4889 0 -97.2991
-551.823 10.3205 0 -97.0877
-1613.79 4.40281 0 -10.6149
-1075.34 7.74027 0 -56.8019
-548.596 10.4048 0 -97.1926
-1088.22 7.57925 0 -56.3698
-1081.78 7.65983 0 -56.5843
-1604.15 4.47622 0 -10.9436
-1584.87 4.62323 0 -11.6147
-538.913 10.6559 0 -97.5165
-545.368 10.4889 0 -97.2991
-1594.51 4.54969 0 -11.2769
-1062.47 7.90069 0 -57.2462
-542.141 10.5725 0 -97.407
-1075.34 7.74027 0 -56.8019
-1068.91 7.82056 0 -57.0225
-1584.87 4.62323 0 -11.6147
-1565.59 4.77048 0 -12.3038
-532.46 10.8216 0 -97.74
-538.913 10.6559 0 -97.5165
-1575.23 4.69682 0 -11.957
-1049.6 8.06052 0 -57.7025
-535.687 10.7389 0 -97.6275
-1062.47 7.90069 0 -57.2462
-1056.04 7.98068 0 -57.4728
-1565.59 4.77048 0 -12.3038
-1546.32 4.91796 0 -13.0107
-526.008 10.9859 0 -97.9695
-532.46 10.8216 0 -97.74
-1555.95 4.84419 0 -12.655
-1036.73 8.21974 0 -58.1707
-529.234 10.9039 0 -97.854
-1049.6 8.06052 0 -57.7025
-1043.17 8.1402 0 -57.9351
-1546.32 4.91796 0 -13.0107
-1527.04 5.06568 0 -13.7351
-519.556 11.1488 0 -98.2049
-526.008 10.9859 0 -97.9695
-1536.68 4.99179 0 -13.3707
-1023.87 8.37835 0 -58.6506
-522.782 11.0675 0 -98.0864
-1036.73 8.21974 0 -58.1707
-1030.3 8.29912 0 -58.4092
-1527.04 5.06568 0 -13.7351
-1507.77 5.21362 0 -14.4769
-513.106 11.3104 0 -98.4461
-519.556 11.1488 0 -98.2049
-1517.41 5.13962 0 -14.1039
-1011 8.53636 0 -59.1421
-516.331 11.2298 0 -98.3248
-1023.87 8.37835 0 -58.6506
-1017.43 8.45743 0 -58.8949
-1507.77 5.21362 0 -14.4769
-1488.5 5.36178 0 -15.2359
-506.657 11.4706 0 -98.6931
-513.106 11.3104 0 -98.4461
-1498.14 5.28767 0 -14.8543
-998.139 8.69376 0 -59.6451
-509.881 11.3907 0 -98.5689
-1011 8.53636 0 -59.1421
-1004.57 8.61514 0 -59.3922
-1488.5 5.36178 0 -15.2359
-1469.24 5.51015 0 -16.0117
-500.209 11.6295 0 -98.9458
-506.657 11.4706 0 -98.6931
-1478.87 5.43594 0 -15.6217
-985.277 8.85053 0 -60.1594
-503.433 11.5502 0 -98.8187
-998.139 8.69376 0 -59.6451
-991.708 8.77222 0 -59.9009
-1469.24 5.51015 0 -16.0117
-1449.97 5.65872 0 -16.8043
-493.761 11.787 0 -99.204
-500.209 11.6295 0 -98.9458
-1459.6 5.58441 0 -16.4059
-972.418 9.00668 0 -60.6848
-496.985 11.7084 0 -99.0742
-985.277 8.85053 0 -60.1594
-978.847 8.92869 0 -60.4207
-1449.97 5.65872 0 -16.8043
-1430.71 5.80749 0 -17.6133
-487.315 11.9431 0 -99.4679
-493.761 11.787 0 -99.204
-1440.34 5.73309 0 -17.2067
-959.559 9.16221 0 -61.2213
-490.538 11.8652 0 -99.3353
-972.418 9.00668 0 -60.6848
-965.988 9.08452 0 -60.9517
-1430.71 5.80749 0 -17.6133
-1411.45 5.95645 0 -18.4386
-480.87 12.0979 0 -99.7372
-487.315 11.9431 0 -99.4679
-1421.08 5.88195 0 -18.0239
-946.702 9.31709 0 -61.7686
-484.093 12.0207 0 -99.6019
-959.559 9.16221 0 -61.2213
-953.131 9.23973 0 -61.4936
-1411.45 5.95645 0 -18.4386
-1392.19 6.10558 0 -19.2799
-474.426 12.2512 0 -100.012
-480.87 12.0979 0 -99.7372
-1401.82 6.03099 0 -18.8572
-933.847 9.47134 0 -62.3266
-477.648 12.1747 0 -99.8739
-946.702 9.31709 0 -61.7686
-940.275 9.3943 0 -62.0463
-1392.19 6.10558 0 -19.2799
-1372.93 6.25487 0 -20.137
-467.983 12.4032 0 -100.292
-474.426 12.2512 0 -100.012
-1382.56 6.18021 0 -19.7065
-920.994 9.62494 0 -62.8952
-471.204 12.3274 0 -100.151
-933.847 9.47134 0 -62.3266
-927.42 9.54822 0 -62.6096
-1372.93 6.25487 0 -20.137
-1353.68 6.40432 0 -21.0097
-461.541 12.5538 0 -100.577
-467.983 12.4032 0 -100.292
-1363.31 6.32958 0 -20.5714
-908.142 9.77788 0 -63.4743
-464.762 12.4787 0 -100.434
-920.994 9.62494 0 -62.8952
-914.567 9.70149 0 -63.1835
-1353.68 6.40432 0 -21.0097
-1334.43 6.55392 0 -21.8978
-455.1 12.7031 0 -100.868
-461.541 12.5538 0 -100.577
-1344.05 6.4791 0 -21.4519
-895.291 9.93016 0 -64.0636
-458.32 12.6286 0 -100.722
-908.142 9.77788 0 -63.4743
-901.716 9.85411 0 -63.7677
-1334.43 6.55392 0 -21.8978
-1315.18 6.70364 0 -22.8011
-448.66 12.8509 0 -101.163
-455.1 12.7031 0 -100.868
-1324.8 6.62876 0 -22.3476
-882.442 10.0818 0 -64.663
-451.879 12.7771 0 -101.015
-895.291 9.93016 0 -64.0636
-888.866 10.0061 0 -64.3621
-1315.18 6.70364 0 -22.8011
-1295.93 6.85348 0 -23.7193
-442.22 12.9973 0 -101.464
-448.66 12.8509 0 -101.163
-1305.55 6.77855 0 -23.2583
-869.595 10.2327 0 -65.2725
-445.44 12.9243 0 -101.313
-882.442 10.0818 0 -64.663
-876.018 10.1573 0 -64.9665
-1295.93 6.85348 0 -23.7193
-1276.68 7.00343 0 -24.6522
-435.782 13.1424 0 -101.77
-442.22 12.9973 0 -101.464
-1286.31 6.92844 0 -24.1839
-856.749 10.3829 0 -65.8918
-439.001 13.07 0 -101.616
-869.595 10.2327 0 -65.2725
-863.171 10.3079 0 -65.5809
-1276.68 7.00343 0 -24.6522
-1257.44 7.15346 0 -25.5996
-429.345 13.286 0 -102.08
-435.782 13.1424 0 -101.77
-1267.06 7.07844 0 -25.1241
-843.904 10.5325 0 -66.5208
-432.564 13.2144 0 -101.924
-856.749 10.3829 0 -65.8918
-850.326 10.4578 0 -66.2051
-1257.44 7.15346 0 -25.5996
-1238.2 7.30358 0 -26.5613
-422.909 13.4282 0 -102.395
-429.345 13.286 0 -102.08
-1247.82 7.22851 0 -26.0787
-831.061 10.6813 0 -67.1593
-426.127 13.3573 0 -102.237
-843.904 10.5325 0 -66.5208
-837.483 10.607 0 -66.8389
-1238.2 7.30358 0 -26.5613
-1218.95 7.45375 0 -27.5371
-416.474 13.569 0 -102.716
-422.909 13.4282 0 -102.395
-1228.57 7.37866 0 -27.0475
-818.22 10.8294 0 -67.8073
-419.691 13.4988 0 -102.555
-831.061 10.6813 0 -67.1593
-824.64 10.7555 0 -67.4822
-1218.95 7.45375 0 -27.5371
-1199.72 7.60397 0 -28.5267
-410.039 13.7084 0 -103.04
-416.474 13.569 0 -102.716
-1209.33 7.52886 0 -28.0302
-805.38 10.9768 0 -68.4645
-413.256 13.6389 0 -102.877
-818.22 10.8294 0 -67.8073
-811.8 10.9032 0 -68.1348
-1199.72 7.60397 0 -28.5267
-1180.48 7.75422 0 -29.53
-403.606 13.8464 0 -103.37
-410.039 13.7084 0 -103.04
-1190.1 7.67909 0 -29.0267
-792.541 11.1235 0 -69.1309
-406.823 13.7776 0 -103.204
-805.38 10.9768 0 -68.4645
-798.96 11.0502 0 -68.7966
-1180.48 7.75422 0 -29.53
-1161.24 7.90449 0 -30.5466
-397.174 13.983 0 -103.704
-403.606 13.8464 0 -103.37
-1170.86 7.82935 0 -30.0366
-779.704 11.2694 0 -69.8062
-400.39 13.9149 0 -103.536
-792.541 11.1235 0 -69.1309
-786.123 11.1965 0 -69.4674
-1161.24 7.90449 0 -30.5466
-1142.01 8.05475 0 -31.5765
-390.742 14.1181 0 -104.042
-397.174 13.983 0 -103.704
-1151.63 7.97962 0 -31.0599
-766.869 11.4145 0 -70.4904
-393.958 14.0507 0 -103.872
-779.704 11.2694 0 -69.8062
-773.286 11.3421 0 -70.1472
-1142.01 8.05475 0 -31.5765
-1122.78 8.20498 0 -32.6193
-384.312 14.2517 0 -104.385
-390.742 14.1181 0 -104.042
-1132.39 8.12987 0 -32.0963
-754.034 11.5589 0 -71.1832
-387.527 14.1851 0 -104.213
-766.869 11.4145 0 -70.4904
-760.451 11.4868 0 -70.8357
-1122.78 8.20498 0 -32.6193
-1103.55 8.35518 0 -33.6749
-377.882 14.384 0 -104.732
-384.312 14.2517 0 -104.385
-1113.16 8.28009 0 -33.1455
-741.202 11.7025 0 -71.8846
-381.097 14.318 0 -104.558
-754.034 11.5589 0 -71.1832
-747.618 11.6308 0 -71.5328
-1103.55 8.35518 0 -33.6749
-1084.32 8.50532 0 -34.743
-371.454 14.5148 0 -105.083
-377.882 14.384 0 -104.732
-1093.93 8.43026 0 -34.2074
-728.37 11.8453 0 -72.5943
-374.668 14.4495 0 -104.907
-741.202 11.7025 0 -71.8846
-734.786 11.774 0 -72.2384
-1084.32 8.50532 0 -34.743
-1065.09 8.65539 0 -35.8234
-365.026 14.6441 0 -105.439
-371.454 14.5148 0 -105.083
-1074.71 8.58037 0 -35.2817
-715.54 11.9873 0 -73.3123
-368.24 14.5796 0 -105.26
-728.37 11.8453 0 -72.5943
-721.955 11.9164 0 -72.9523
-1065.09 8.65539 0 -35.8234
-1045.87 8.80536 0 -36.9159
-358.599 14.7719 0 -105.798
-365.026 14.6441 0 -105.439
-1055.48 8.73039 0 -36.3682
-702.711 12.1284 0 -74.0385
-361.812 14.7082 0 -105.618
-715.54 11.9873 0 -73.3123
-709.126 12.058 0 -73.6744
-1045.87 8.80536 0 -36.9159
-1026.65 8.95521 0 -38.0203
-352.173 14.8983 0 -106.162
-358.599 14.7719 0 -105.798
-1036.26 8.8803 0 -37.4666
-689.884 12.2688 0 -74.7725
-355.386 14.8353 0 -105.98
-702.711 12.1284 0 -74.0385
-696.297 12.1987 0 -74.4045
-1026.65 8.95521 0 -38.0203
-1007.42 9.10492 0 -39.1364
-345.748 15.0232 0 -106.53
-352.173 14.8983 0 -106.162
-1017.03 9.03008 0 -38.5769
-677.058 12.4083 0 -75.5144
-348.96 14.9609 0 -106.345
-689.884 12.2688 0 -74.7725
-683.471 12.3386 0 -75.1425
-1007.42 9.10492 0 -39.1364
-988.204 9.25448 0 -40.2639
-339.324 15.1466 0 -106.901
-345.748 15.0232 0 -106.53
-997.814 9.17972 0 -39.6987
-664.233 12.5469 0 -76.264
-342.536 15.0851 0 -106.715
-677.058 12.4083 0 -75.5144
-670.645 12.4777 0 -75.8883
-988.204 9.25448 0 -40.2639
-968.986 9.40386 0 -41.4026
-332.901 15.2686 0 -107.276
-339.324 15.1466 0 -106.901
-978.595 9.3292 0 -40.8319
-651.41 12.6846 0 -77.0211
-336.112 15.2078 0 -107.088
-664.233 12.5469 0 -76.264
-657.821 12.6159 0 -76.6416
-968.986 9.40386 0 -41.4026
-949.769 9.55304 0 -42.5524
-326.478 15.389 0 -107.656
-332.901 15.2686 0 -107.276
-959.377 9.47848 0 -41.9761
-638.587 12.8215 0 -77.7855
-329.689 15.329 0 -107.466
-651.41 12.6846 0 -77.0211
-644.998 12.7532 0 -77.4024
-949.769 9.55304 0 -42.5524
-930.554 9.702 0 -43.7129
-320.057 15.5079 0 -108.038
-326.478 15.389 0 -107.656
-940.161 9.62755 0 -43.1313
-625.766 12.9574 0 -78.5572
-323.267 15.4487 0 -107.846
-638.587 12.8215 0 -77.7855
-632.177 12.8896 0 -78.1705
-930.554 9.702 0 -43.7129
-911.34 9.85071 0 -44.884
-313.636 15.6253 0 -108.425
-320.057 15.5079 0 -108.038
-920.947 9.77638 0 -44.2972
-612.947 13.0925 0 -79.336
-316.846 15.5668 0 -108.231
-625.766 12.9574 0 -78.5572
-619.356 13.0251 0 -78.9457
-911.34 9.85071 0 -44.884
-892.128 9.99915 0 -46.0655
-307.216 15.7412 0 -108.815
-313.636 15.6253 0 -108.425
-901.734 9.92496 0 -45.4735
-600.128 13.2265 0 -80.1217
-310.426 15.6835 0 -108.619
-612.947 13.0925 0 -79.336
-606.537 13.1596 0 -79.728
-892.128 9.99915 0 -46.0655
-872.917 10.1473 0 -47.2571
-300.797 15.8556 0 -109.208
-307.216 15.7412 0 -108.815
-882.523 10.0733 0 -46.66
-587.311 13.3597 0 -80.9142
-304.006 15.7986 0 -109.011
-600.128 13.2265 0 -80.1217
-593.719 13.2932 0 -80.5171
-872.917 10.1473 0 -47.2571
-853.708 10.2951 0 -48.4586
-294.379 15.9685 0 -109.605
-300.797 15.8556 0 -109.208
-863.313 10.2213 0 -47.8566
-574.495 13.4919 0 -81.7134
-297.588 15.9122 0 -109.406
-587.311 13.3597 0 -80.9142
-580.903 13.4259 0 -81.313
-853.708 10.2951 0 -48.4586
-834.5 10.4426 0 -49.6698
-287.961 16.0797 0 -110.005
-294.379 15.9685 0 -109.605
-844.104 10.3689 0 -49.063
-561.68 13.6231 0 -82.519
-291.17 16.0243 0 -109.804
-574.495 13.4919 0 -81.7134
-568.087 13.5576 0 -82.1154
-834.5 10.4426 0 -49.6698
-815.294 10.5898 0 -50.8906
-281.545 16.1895 0 -110.408
-287.961 16.0797 0 -110.005
-824.897 10.5163 0 -50.279
-548.866 13.7533 0 -83.3311
-284.753 16.1348 0 -110.206
-561.68 13.6231 0 -82.519
-555.273 13.6883 0 -82.9243
-815.294 10.5898 0 -50.8906
-796.089 10.7365 0 -52.1205
-275.129 16.2977 0 -110.814
-281.545 16.1895 0 -110.408
-805.691 10.6632 0 -51.5044
-536.053 13.8824 0 -84.1493
-278.336 16.2438 0 -110.611
-548.866 13.7533 0 -83.3311
-542.459 13.818 0 -83.7394
-796.089 10.7365 0 -52.1205
-776.885 10.8829 0 -53.3596
-268.714 16.4043 0 -111.224
-275.129 16.2977 0 -110.814
-786.487 10.8097 0 -52.7389
-523.241 14.0106 0 -84.9737
-271.921 16.3512 0 -111.019
-536.053 13.8824 0 -84.1493
-529.647 13.9466 0 -84.5607
-776.885 10.8829 0 -53.3596
-757.682 11.0287 0 -54.6074
-262.299 16.5093 0 -111.636
-268.714 16.4043 0 -111.224
-767.283 10.9559 0 -53.9824
-510.431 14.1377 0 -85.8039
-265.506 16.457 0 -111.43
-523.241 14.0106 0 -84.9737
-516.836 14.0743 0 -85.3881
-757.682 11.0287 0 -54.6074
-738.481 11.1742 0 -55.8639
-255.886 16.6128 0 -112.052
-262.299 16.5093 0 -111.636
-748.082 11.1015 0 -55.2346
-497.621 14.2637 0 -86.64
-259.092 16.5612 0 -111.844
-510.431 14.1377 0 -85.8039
-504.026 14.2009 0 -86.2212
-738.481 11.1742 0 -55.8639
-719.281 11.3191 0 -57.1287
-249.473 16.7146 0 -112.47
-255.886 16.6128 0 -112.052
-728.881 11.2467 0 -56.4953
-484.813 14.3887 0 -87.4816
-252.679 16.6639 0 -112.261
-497.621 14.2637 0 -86.64
-491.217 14.3263 0 -87.0601
-719.281 11.3191 0 -57.1287
-700.082 11.4635 0 -58.4018
-243.061 16.8149 0 -112.891
-249.473 16.7146 0 -112.47
-709.681 11.3914 0 -57.7642
-472.006 14.5125 0 -88.3288
-246.267 16.765 0 -112.681
-484.813 14.3887 0 -87.4816
-478.409 14.4508 0 -87.9045
-700.082 11.4635 0 -58.4018
-680.884 11.6074 0 -59.6828
-236.649 16.9135 0 -113.315
-243.061 16.8149 0 -112.891
-690.483 11.5355 0 -59.0413
-459.199 14.6353 0 -89.1813
-239.855 16.8644 0 -113.103
-472.006 14.5125 0 -88.3288
-465.602 14.574 0 -88.7544
-680.884 11.6074 0 -59.6828
-661.688 11.7507 0 -60.9715
-230.239 17.0106 0 -113.742
-236.649 16.9135 0 -113.315
-671.286 11.6791 0 -60.3262
-446.394 14.7569 0 -90.039
-233.444 16.9622 0 -113.528
-459.199 14.6353 0 -89.1813
-452.796 14.6962 0 -89.6095
-661.688 11.7507 0 -60.9715
-642.492 11.8934 0 -62.2678
-223.829 17.1059 0 -114.171
-230.239 17.0106 0 -113.742
-652.09 11.8221 0 -61.6187
-433.589 14.8773 0 -90.9018
-227.034 17.0584 0 -113.956
-446.394 14.7569 0 -90.039
-439.991 14.8172 0 -90.4698
-642.492 11.8934 0 -62.2678
-623.298 12.0355 0 -63.5713
-217.42 17.1997 0 -114.603
-223.829 17.1059 0 -114.171
-632.895 11.9645 0 -62.9187
-420.786 14.9965 0 -91.7695
-220.624 17.153 0 -114.387
-433.589 14.8773 0 -90.9018
-427.187 14.937 0 -91.3351
-623.298 12.0355 0 -63.5713
-604.104 12.1769 0 -64.882
-211.011 17.2917 0 -115.037
-217.42 17.1997 0 -114.603
-613.701 12.1062 0 -64.2258
-407.983 15.1145 0 -92.6419
-214.215 17.2459 0 -114.82
-420.786 14.9965 0 -91.7695
-414.384 15.0557 0 -92.2051
-604.104 12.1769 0 -64.882
-584.912 12.3175 0 -66.1995
-204.603 17.3821 0 -115.474
-211.011 17.2917 0 -115.037
-594.508 12.2473 0 -65.5399
-395.181 15.2313 0 -93.519
-207.807 17.3371 0 -115.255
-407.983 15.1145 0 -92.6419
-401.582 15.1731 0 -93.0799
-584.912 12.3175 0 -66.1995
-565.721 12.4575 0 -67.5236
-198.196 17.4708 0 -115.912
-204.603 17.3821 0 -115.474
-575.316 12.3876 0 -66.8607
-382.38 15.3469 0 -94.4005
-201.399 17.4267 0 -115.693
-395.181 15.2313 0 -93.519
-388.781 15.2893 0 -93.9592
-565.721 12.4575 0 -67.5236
-546.53 12.5967 0 -68.8542
-191.789 17.5577 0 -116.353
-198.196 17.4708 0 -115.912
-556.125 12.5272 0 -68.1881
-369.58 15.4611 0 -95.2864
-194.992 17.5145 0 -116.133
-382.38 15.3469 0 -94.4005
-375.98 15.4042 0 -94.8429
-546.53 12.5967 0 -68.8542
-527.34 12.735 0 -70.1909
-185.383 17.643 0 -116.797
-191.789 17.5577 0 -116.353
-536.935 12.666 0 -69.5218
-356.781 15.574 0 -96.1764
-188.586 17.6006 0 -116.575
-369.58 15.4611 0 -95.2864
-363.18 15.5177 0 -95.7309
-527.34 12.735 0 -70.1909
-508.152 12.8726 0 -71.5336
-178.978 17.7264 0 -117.242
-185.383 17.643 0 -116.797
-517.746 12.8039 0 -70.8615
-343.982 15.6856 0 -97.0704
-182.18 17.6849 0 -117.019
-356.781 15.574 0 -96.1764
-350.381 15.63 0 -96.6229
-508.152 12.8726 0 -71.5336
-488.963 13.0092 0 -72.882
-172.573 17.8081 0 -117.689
-178.978 17.7264 0 -117.242
-498.557 12.941 0 -72.2071
-331.184 15.7959 0 -97.9683
-175.775 17.7675 0 -117.465
-343.982 15.6856 0 -97.0704
-337.583 15.7409 0 -97.5188
-488.963 13.0092 0 -72.882
-469.776 13.145 0 -74.2359
-166.168 17.8881 0 -118.138
-172.573 17.8081 0 -117.689
-479.37 13.0772 0 -73.5583
-318.387 15.9048 0 -98.8698
-169.37 17.8483 0 -117.914
-331.184 15.7959 0 -97.9683
-324.785 15.8505 0 -98.4186
-469.776 13.145 0 -74.2359
-450.589 13.2799 0 -75.595
-159.764 17.9664 0 -118.589
-166.168 17.8881 0 -118.138
-460.183 13.2126 0 -74.9148
-305.59 16.0123 0 -99.7749
-162.966 17.9275 0 -118.364
-318.387 15.9048 0 -98.8698
-311.988 15.9587 0 -99.3219
-450.589 13.2799 0 -75.595
-431.403 13.414 0 -76.9593
-153.36 18.043 0 -119.042
-159.764 17.9664 0 -118.589
-440.996 13.3471 0 -76.2765
-292.794 16.1186 0 -100.683
-156.562 18.0049 0 -118.815
-305.59 16.0123 0 -99.7749
-299.192 16.0656 0 -100.229
-431.403 13.414 0 -76.9593
-412.218 13.5474 0 -78.3284
-146.957 18.1182 0 -119.496
-153.36 18.043 0 -119.042
-421.811 13.4808 0 -77.6432
-279.998 16.2238 0 -101.595
-150.158 18.0808 0 -119.269
-292.794 16.1186 0 -100.683
-286.396 16.1714 0 -101.139
-412.218 13.5474 0 -78.3284
-393.033 13.6803 0 -79.7023
-140.554 18.1922 0 -119.952
-146.957 18.1182 0 -119.496
-402.626 13.6139 0 -79.0148
-267.203 16.3282 0 -102.51
-143.755 18.1554 0 -119.724
-279.998 16.2238 0 -101.595
-273.601 16.2761 0 -102.052
-393.033 13.6803 0 -79.7023
-373.85 13.8128 0 -81.0809
-134.152 18.2654 0 -120.41
-140.554 18.1922 0 -119.952
-383.441 13.7466 0 -80.391
-254.409 16.432 0 -103.428
-137.353 18.2289 0 -120.181
-267.203 16.3282 0 -102.51
-260.806 16.3801 0 -102.969
-373.85 13.8128 0 -81.0809
-354.667 13.9454 0 -82.4643
-127.75 18.3384 0 -120.868
-134.152 18.2654 0 -120.41
-364.258 13.8791 0 -81.772
-241.616 16.5356 0 -104.349
-130.951 18.3019 0 -120.639
-254.409 16.432 0 -103.428
-248.013 16.4838 0 -103.888
-354.667 13.9454 0 -82.4643
-335.485 14.078 0 -83.8526
-121.35 18.4118 0 -121.329
-127.75 18.3384 0 -120.868
-345.076 14.0117 0 -83.1578
-228.825 16.6393 0 -105.274
-124.55 18.375 0 -121.098
-241.616 16.5356 0 -104.349
-235.22 16.5874 0 -104.811
-335.485 14.078 0 -83.8526
-316.304 14.2103 0 -85.2462
-114.952 18.4863 0 -121.793
-121.35 18.4118 0 -121.329
-325.895 14.1443 0 -84.5487
-216.035 16.7433 0 -106.203
-118.151 18.4488 0 -121.56
-228.825 16.6393 0 -105.274
-222.429 16.6913 0 -105.738
-316.304 14.2103 0 -85.2462
-297.124 14.3409 0 -86.646
-108.557 18.5623 0 -122.261
-114.952 18.4863 0 -121.793
-306.714 14.276 0 -85.9452
-203.246 16.8462 0 -107.138
-111.754 18.5242 0 -122.026
-216.035 16.7433 0 -106.203
-209.64 16.795 0 -106.669
-297.124 14.3409 0 -86.646
-277.941 14.4647 0 -88.053
-102.163 18.64 0 -122.741
-108.557 18.5623 0 -122.261
-287.533 14.4042 0 -87.3485
-190.456 16.945 0 -108.083
-105.36 18.601 0 -122.499
-203.246 16.8462 0 -107.138
-196.851 16.8966 0 -107.609
-277.941 14.4647 0 -88.053
-258.747 14.5731 0 -89.4697
-95.7727 18.7161 0 -123.241
-102.163 18.64 0 -122.741
-268.347 14.5218 0 -88.7598
-177.66 17.0317 0 -109.045
-98.9671 18.6786 0 -122.987
-190.456 16.945 0 -108.083
-184.059 16.9906 0 -108.561
-258.747 14.5731 0 -89.4697
-239.53 14.644 0 -90.8983
-89.3753 18.7874 0 -123.785
-95.7727 18.7161 0 -123.241
-249.142 14.6153 0 -90.1825
-164.843 17.091 0 -110.038
-92.5765 18.7528 0 -123.506
-177.66 17.0317 0 -109.045
-171.255 17.0666 0 -109.537
-239.53 14.644 0 -90.8983
-220.244 14.646 0 -92.3471
-82.9699 18.8378 0 -124.41
-89.3753 18.7874 0 -123.785
-229.901 14.6567 0 -91.6191
-151.977 17.0928 0 -111.089
-86.1721 18.8166 0 -124.084
-164.843 17.091 0 -110.038
-158.418 17.1011 0 -110.553
-220.244 14.646 0 -92.3471
-200.842 14.5083 0 -93.8215
-76.5095 18.8583 0 -125.187
-82.9699 18.8378 0 -124.41
-210.558 14.6005 0 -93.0815
-139.003 16.993 0 -112.245
-79.7533 18.8532 0 -124.773
-151.977 17.0928 0 -111.089
-145.508 17.0612 0 -111.652
-200.842 14.5083 0 -93.8215
-181.154 14.1607 0 -95.3534
-69.9893 18.7992 0 -126.227
-76.5095 18.8583 0 -125.187
-191.052 14.3676 0 -94.576
-125.815 16.7156 0 -113.583
-73.2512 18.8414 0 -125.666
-139.003 16.993 0 -112.245
-132.444 16.8786 0 -112.881
-181.154 14.1607 0 -95.3534
-161.047 13.44 0 -96.9604
-63.2483 18.675 0 -127.705
-69.9893 18.7992 0 -126.227
-171.152 13.8558 0 -96.1493
-112.241 16.2002 0 -115.227
-66.6703 18.7461 0 -126.895
-125.815 16.7156 0 -113.583
-119.088 16.499 0 -114.365
-161.047 13.44 0 -96.9604
-140.021 12.3421 0 -98.7722
-56.3236 18.395 0 -129.819
-63.2483 18.675 0 -127.705
-150.709 12.9408 0 -97.823
-98.0105 15.3794 0 -117.355
-59.7841 18.5514 0 -128.672
-112.241 16.2002 0 -115.227
-105.232 15.8099 0 -116.201
-140.021 12.3421 0 -98.7722
-117.907 10.7368 0 -100.863
-48.8061 18.2354 0 -132.783
-56.3236 18.395 0 -129.819
-129.071 11.5799 0 -99.7876
-82.8266 14.4876 0 -120.168
-52.7099 18.2849 0 -131.176
-98.0105 15.3794 0 -117.355
-90.5491 14.9433 0 -118.694
-117.907 10.7368 0 -100.863
-93.685 9.60604 0 -103.719
-41.1354 18.2419 0 -136.436
-48.8061 18.2354 0 -132.783
-106.209 10.0396 0 -102.13
-66.4074 14.0827 0 -123.812
-44.8835 18.1633 0 -134.565
-82.8266 14.4876 0 -120.168
-74.8129 14.0761 0 -121.823
-93.685 9.60604 0 -103.719
-68.2849 10.1428 0 -107.487
-32.6745 20.0035 0 -139.932
-41.1354 18.2419 0 -136.436
-80.9195 9.39749 0 -105.515
-49.2283 16.3128 0 -127.91
-37.1748 18.8173 0 -138.279
-66.4074 14.0827 0 -123.812
-57.8132 14.7768 0 -125.965
-68.2849 10.1428 0 -107.487
-41.6244 18.7985 0 -112.803
-25.4369 24.0932 0 -140.215
-32.6745 20.0035 0 -139.932
-55.3204 12.9833 0 -109.87
-32.6783 24.2697 0 -130.631
-28.5387 21.5877 0 -140.804
-49.2283 16.3128 0 -127.91
-40.8553 19.0551 0 -129.45
-41.6244 18.7985 0 -112.803
-21.5872 43.5384 0 -115.203
-17.5657 33.7139 0 -131.928
-25.4369 24.0932 0 -140.215
-29.7955 27.9097 0 -114.993
-20.8979 42.9288 0 -125.592
-22.0551 28.415 0 -137.516
-32.6783 24.2697 0 -130.631
-25.6185 32.5433 0 -130.07
-21.5872 43.5384 0 -115.203
-8.30163 102.47 0 -101.648
-12.8573 41.6634 0 -106.668
-17.5657 33.7139 0 -131.928
-14.6767 69.3043 0 -111.833
-11.8102 70.4929 0 -102.04
-13.9799 38.1752 0 -122.04
-20.8979 42.9288 0 -125.592
-16.8545 55.3665 0 -116.24
-8.30163 102.47 0 -101.648
0.602349 163.255 0 -45.9003
-8.6155 50.5421 0 -59.1556
-12.8573 41.6634 0 -106.668
-2.5571 137.276 0 -80.3008
-2.3855 102.937 0 -56.1165
-11.7922 45.6086 0 -85.7698
-11.8102 70.4929 0 -102.04
-6.49233 87.5833 0 -82.403
-1248.51 -374.347 0 493.168
-1217.9 -214.241 0 164.139
1179.91 193.977 0 161.67
1208.21 362.689 0 490.874
-1197.08 -295.608 0 311.242
-20.1812 -10.3624 0 184.695
1158.11 278.913 0 309.305
-21.5419 -5.80684 0 502.238
-20.6358 -8.68884 0 347.418
-1217.9 -214.241 0 164.139
-1282.05 -135.115 0 -32.0423
1245.2 110.655 0 -36.3804
1179.91 193.977 0 161.67
-1267.56 -170.265 0 48.7004
-19.7249 -12.4654 0 -23.8618
1230.24 147.531 0 45.2936
-20.1812 -10.3624 0 184.695
-19.9779 -11.5515 0 56.2896
-1282.05 -135.115 0 -32.0423
-1286.15 -62.8373 0 -120.337
1249.96 35.9845 0 -126.709
1245.2 110.655 0 -36.3804
-1279.59 -95.1926 0 -85.3887
-19.455 -13.8237 0 -120.522
1243.06 69.4222 0 -90.7209
-19.7249 -12.4654 0 -23.8618
-19.5329 -13.2128 0 -78.7946
-1286.15 -62.8373 0 -120.337
-1289.5 -29.4954 0 -151.218
1253.92 0.709333 0 -159.497
1249.96 35.9845 0 -126.709
-1293.43 -43.2393 0 -141.174
-19.2345 -14.7455 0 -157.87
1257.55 15.3816 0 -148.537
-19.455 -13.8237 0 -120.522
-19.3814 -14.3201 0 -146.182
-1289.5 -29.4954 0 -151.218
-1275.64 -12.4099 0 -153.736
1240.6 -17.9155 0 -163.712
1253.92 0.709333 0 -159.497
-1280.9 -18.6003 0 -154.238
-18.9742 -15.4884 0 -164.249
1245.61 -11.0139 0 -163.387
-19.2345 -14.7455 0 -157.87
-19.0866 -15.1415 0 -162.628
-1275.64 -12.4099 0 -153.736
-1264.05 -9.58062 0 -147.306
1229.37 -21.7988 0 -158.834
1240.6 -17.9155 0 -163.712
-1271.09 -10.2657 0 -151.091
-18.7664 -15.9852 0 -158.729
1236.25 -20.6512 0 -161.855
-18.9742 -15.4884 0 -164.249
-18.8701 -15.7676 0 -162.572
-1264.05 -9.58062 0 -147.306
-1250.51 -9.66774 0 -139.248
1216.02 -22.2423 0 -152.304
1229.37 -21.7988 0 -158.834
-1256.39 -9.22562 0 -143.126
-18.637 -16.2569 0 -150.911
1221.83 -22.4831 0 -155.416
-18.7664 -15.9852 0 -158.729
-18.6859 -16.1503 0 -154.559
-1250.51 -9.66774 0 -139.248
-1240.14 -11.5891 0 -132.686
1205.69 -20.3972 0 -147.291
1216.02 -22.2423 0 -152.304
-1245.45 -10.6607 0 -135.753
-18.5851 -16.2998 0 -144.303
1210.99 -21.3378 0 -149.58
-18.637 -16.2569 0 -150.911
-18.6055 -16.3039 0 -147.461
-1240.14 -11.5891 0 -132.686
-1230.61 -12.9271 0 -127.893
1196.12 -18.7875 0 -144.08
1205.69 -20.3972 0 -147.291
-1235.02 -12.2827 0 -130.057
-18.5846 -16.1724 0 -139.705
1200.55 -19.6047 0 -145.449
-18.5851 -16.2998 0 -144.303
-18.5789 -16.2547 0 -141.705
-1230.61 -12.9271 0 -127.893
-1222.64 -13.926 0 -124.635
1188.07 -17.2773 0 -142.424
1196.12 -18.7875 0 -144.08
-1226.6 -13.5115 0 -126.11
-18.6092 -15.9186 0 -136.808
1192.07 -17.9713 0 -143.097
-18.5846 -16.1724 0 -139.705
-18.596 -16.0581 0 -138.097
-1222.64 -13.926 0 -124.635
-1215.22 -14.3492 0 -122.403
1180.57 -16.1931 0 -141.799
1188.07 -17.2773 0 -142.424
-1218.81 -14.1815 0 -123.413
-18.6391 -15.5871 0 -135.124
1184.2 -16.7055 0 -142.006
-18.6092 -15.9186 0 -136.808
-18.6243 -15.7604 0 -135.833
-1215.22 -14.3492 0 -122.403
-1208.33 -14.4668 0 -120.832
1173.62 -15.3308 0 -141.824
1180.57 -16.1931 0 -141.799
-1211.76 -14.4481 0 -121.556
-18.6615 -15.2099 0 -134.196
1177.07 -15.7291 0 -141.753
-18.6391 -15.5871 0 -135.124
-18.652 -15.4025 0 -134.593
-1208.33 -14.4668 0 -120.832
-1201.62 -14.3425 0 -119.643
1166.88 -14.6715 0 -142.211
1173.62 -15.3308 0 -141.824
-1204.94 -14.4235 0 -120.201
-18.6706 -14.8115 0 -133.714
1170.21 -14.9853 0 -141.984
-18.6615 -15.2099 0 -134.196
-18.6678 -15.0123 0 -133.912
-1201.62 -14.3425 0 -119.643
-1195.06 -14.1017 0 -118.673
1160.31 -14.1172 0 -142.79
1166.88 -14.6715 0 -142.211
-1198.34 -14.2349 0 -119.139
-18.6646 -14.406 0 -133.476
1163.59 -14.3819 0 -142.485
-18.6706 -14.8115 0 -133.714
-18.6695 -14.609 0 -133.575
-1195.06 -14.1017 0 -118.673
-1188.53 -13.7905 0 -117.823
1153.81 -13.6375 0 -143.459
1160.31 -14.1172 0 -142.79
-1191.79 -13.9511 0 -118.237
-18.6447 -14.0022 0 -133.366
1157.05 -13.8712 0 -143.118
-18.6646 -14.406 0 -133.476
-18.6562 -14.2036 0 -133.409
-1188.53 -13.7905 0 -117.823
-1182.03 -13.4517 0 -117.04
1147.36 -13.1971 0 -144.164
1153.81 -13.6375 0 -143.459
-1185.28 -13.6237 0 -117.426
-18.6129 -13.6041 0 -133.317
1150.58 -13.413 0 -143.81
-18.6447 -14.0022 0 -133.366
-18.6301 -13.8023 0 -133.336
-1182.03 -13.4517 0 -117.04
-1175.52 -13.1015 0 -116.296
1140.92 -12.7825 0 -144.877
1147.36 -13.1971 0 -144.164
-1178.77 -13.277 0 -116.664
-18.572 -13.2133 0 -133.297
1144.14 -12.9875 0 -144.521
-18.6129 -13.6041 0 -133.317
-18.5935 -13.4077 0 -133.304
-1175.52 -13.1015 0 -116.296
-1169.02 -12.7511 0 -115.576
1134.5 -12.3827 0 -145.584
1140.92 -12.7825 0 -144.877
-1172.27 -12.9261 0 -115.933
-18.5243 -12.8299 0 -133.288
1137.71 -12.581 0 -145.232
-18.572 -13.2133 0 -133.297
-18.5489 -13.0207 0 -133.292
-1169.02 -12.7511 0 -115.576
-1162.51 -12.404 0 -114.874
1128.08 -11.9928 0 -146.279
1134.5 -12.3827 0 -145.584
-1165.77 -12.5769 0 -115.223
-18.4719 -12.4535 0 -133.284
1131.28 -12.1868 0 -145.933
-18.5243 -12.8299 0 -133.288
-18.4986 -12.6409 0 -133.286
-1162.51 -12.404 0 -114.874
-1156 -12.0621 0 -114.187
1121.66 -11.6095 0 -146.96
1128.08 -11.9928 0 -146.279
-1159.26 -12.2325 0 -114.529
-18.4163 -12.0831 0 -133.281
1124.87 -11.8005 0 -146.621
-18.4719 -12.4535 0 -133.284
-18.4444 -12.2676 0 -133.283
-1156 -12.0621 0 -114.187
-1149.49 -11.7253 0 -113.514
1115.24 -11.2309 0 -147.628
1121.66 -11.6095 0 -146.96
-1152.75 -11.8931 0 -113.849
-18.3588 -11.7177 0 -133.278
1118.45 -11.4197 0 -147.296
-18.4163 -12.0831 0 -133.281
-18.3877 -11.8998 0 -133.279
-1149.49 -11.7253 0 -113.514
-1142.97 -11.3933 0 -112.854
1108.82 -10.856 0 -148.281
1115.24 -11.2309 0 -147.628
-1146.23 -11.5587 0 -113.182
-18.3002 -11.3567 0 -133.274
1112.03 -11.043 0 -147.956
-18.3588 -11.7177 0 -133.278
-18.3296 -11.5367 0 -133.276
-1142.97 -11.3933 0 -112.854
-1136.46 -11.0654 0 -112.206
1102.41 -10.4839 0 -148.92
1108.82 -10.856 0 -148.281
-1139.71 -11.2288 0 -112.528
-18.2412 -10.9994 0 -133.269
1105.61 -10.6696 0 -148.602
-18.3002 -11.3567 0 -133.274
-18.2707 -11.1776 0 -133.271
-1136.46 -11.0654 0 -112.206
-1129.94 -10.7412 0 -111.571
1095.99 -10.1142 0 -149.546
1102.41 -10.4839 0 -148.92
-1133.2 -10.9028 0 -111.887
-18.182 -10.6452 0 -133.264
1099.2 -10.2987 0 -149.235
-18.2412 -10.9994 0 -133.269
-18.2116 -10.8219 0 -133.267
-1129.94 -10.7412 0 -111.571
-1123.42 -10.4203 0 -110.949
1089.57 -9.74655 0 -150.158
1095.99 -10.1142 0 -149.546
-1126.68 -10.5803 0 -111.259
-18.123 -10.2937 0 -133.259
1092.78 -9.93011 0 -149.854
-18.182 -10.6452 0 -133.264
-18.1525 -10.4691 0 -133.261
-1123.42 -10.4203 0 -110.949
-1116.9 -10.1024 0 -110.339
1083.15 -9.38082 0 -150.758
1089.57 -9.74655 0 -150.158
-1120.16 -10.261 0 -110.643
-18.0643 -9.94478 0 -133.253
1086.36 -9.56346 0 -150.46
-18.123 -10.2937 0 -133.259
-18.0936 -10.119 0 -133.256
-1116.9 -10.1024 0 -110.339
-1110.38 -9.78719 0 -109.742
1076.73 -9.01684 0 -151.344
1083.15 -9.38082 0 -150.758
-1113.64 -9.94444 0 -110.039
-18.0059 -9.59814 0 -133.247
1079.94 -9.19861 0 -151.053
-18.0643 -9.94478 0 -133.253
-18.035 -9.77118 0 -133.25
-1110.38 -9.78719 0 -109.742
-1103.87 -9.47463 0 -109.157
1070.31 -8.65455 0 -151.918
1076.73 -9.01684 0 -151.344
-1107.13 -9.63059 0 -109.448
-17.9479 -9.2537 0 -133.241
1073.52 -8.83549 0 -151.633
-18.0059 -9.59814 0 -133.247
-17.9768 -9.42565 0 -133.244
-1103.87 -9.47463 0 -109.157
-1097.35 -9.16455 0 -108.584
1063.89 -8.2939 0 -152.479
1070.31 -8.65455 0 -151.918
-1100.61 -9.31928 0 -108.869
-17.8903 -8.91137 0 -133.235
1067.1 -8.47402 0 -152.2
-17.9479 -9.2537 0 -133.241
-17.919 -9.08227 0 -133.238
-1097.35 -9.16455 0 -108.584
-1090.83 -8.85689 0 -108.024
1057.47 -7.93489 0 -153.028
1063.89 -8.2939 0 -152.479
-1094.09 -9.01042 0 -108.303
-17.8331 -8.57111 0 -133.229
1060.68 -8.11419 0 -152.755
-17.8903 -8.91137 0 -133.235
-17.8616 -8.74098 0 -133.232
-1090.83 -8.85689 0 -108.024
-1084.31 -8.55159 0 -107.476
1051.04 -7.57753 0 -153.564
1057.47 -7.93489 0 -153.028
-1087.57 -8.70395 0 -107.748
-17.7762 -8.2329 0 -133.222
1054.26 -7.756 0 -153.297
-17.8331 -8.57111 0 -133.229
-17.8046 -8.40175 0 -133.225
-1084.31 -8.55159 0 -107.476
-1077.79 -8.2486 0 -106.939
1044.62 -7.22183 0 -154.088
1051.04 -7.57753 0 -153.564
-1081.05 -8.39981 0 -107.206
-17.7198 -7.89672 0 -133.215
1047.83 -7.39947 0 -153.827
-17.7762 -8.2329 0 -133.222
-17.748 -8.06455 0 -133.219
-1077.79 -8.2486 0 -106.939
-1071.28 -7.94791 0 -106.415
1038.2 -6.86781 0 -154.599
1044.62 -7.22183 0 -154.088
-1074.53 -8.09797 0 -106.676
-17.6637 -7.56256 0 -133.208
1041.41 -7.04461 0 -154.345
-17.7198 -7.89672 0 -133.215
-17.6917 -7.72939 0 -133.212
-1071.28 -7.94791 0 -106.415
-1064.76 -7.64947 0 -105.903
1031.77 -6.51552 0 -155.098
1038.2 -6.86781 0 -154.599
-1068.02 -7.79841 0 -106.158
-17.608 -7.23044 0 -133.201
1034.99 -6.69145 0 -154.85
-17.6637 -7.56256 0 -133.208
-17.6358 -7.39625 0 -133.205
-1064.76 -7.64947 0 -105.903
-1058.24 -7.35327 0 -105.403
1025.35 -6.16496 0 -155.585
1031.77 -6.51552 0 -155.098
-1061.5 -7.50109 0 -105.651
-17.5526 -6.90034 0 -133.194
1028.56 -6.34002 0 -155.343
-17.608 -7.23044 0 -133.201
-17.5802 -7.06514 0 -133.198
-1058.24 -7.35327 0 -105.403
-1051.72 -7.05927 0 -104.914
1018.92 -5.81617 0 -156.06
1025.35 -6.16496 0 -155.585
-1054.98 -7.20599 0 -105.157
-17.4975 -6.57228 0 -133.187
1022.14 -5.99034 0 -155.824
-17.5526 -6.90034 0 -133.194
-17.525 -6.73606 0 -133.19
-1051.72 -7.05927 0 -104.914
-1045.2 -6.76747 0 -104.437
1012.5 -5.46919 0 -156.522
1018.92 -5.81617 0 -156.06
-1048.46 -6.9131 0 -104.674
-17.4428 -6.24626 0 -133.179
1015.71 -5.64246 0 -156.293
-17.4975 -6.57228 0 -133.187
-17.4701 -6.40901 0 -133.183
-1045.2 -6.76747 0 -104.437
-1038.69 -6.47783 0 -103.972
1006.07 -5.12403 0 -156.973
1012.5 -5.46919 0 -156.522
-1041.95 -6.62238 0 -104.203
-17.3884 -5.92227 0 -133.172
1009.29 -5.29638 0 -156.749
-17.4428 -6.24626 0 -133.179
-17.4156 -6.08401 0 -133.176
-1038.69 -6.47783 0 -103.972
-1032.17 -6.19033 0 -103.518
999.647 -4.78073 0 -157.412
1006.07 -5.12403 0 -156.973
-1035.43 -6.33382 0 -103.744
-17.3343 -5.60032 0 -133.164
1002.86 -4.95215 0 -157.194
-17.3884 -5.92227 0 -133.172
-17.3613 -5.76104 0 -133.168
-1032.17 -6.19033 0 -103.518
-1025.65 -5.90496 0 -103.076
993.221 -4.43931 0 -157.839
999.647 -4.78073 0 -157.412
-1028.91 -6.04738 0 -103.296
-17.2806 -5.28042 0 -133.156
996.434 -4.60979 0 -157.627
-17.3343 -5.60032 0 -133.164
-17.3074 -5.44011 0 -133.16
-1025.65 -5.90496 0 -103.076
-1019.14 -5.62168 0 -102.646
986.794 -4.0998 0 -158.255
993.221 -4.43931 0 -157.839
-1022.4 -5.76306 0 -102.86
-17.2272 -4.96255 0 -133.148
990.007 -4.26932 0 -158.049
-17.2806 -5.28042 0 -133.156
-17.2539 -5.12123 0 -133.152
-1019.14 -5.62168 0 -102.646
-1012.62 -5.34048 0 -102.227
980.367 -3.76222 0 -158.659
986.794 -4.0998 0 -158.255
-1015.88 -5.48082 0 -102.435
-17.1742 -4.64674 0 -133.14
983.581 -3.93077 0 -158.458
-17.2272 -4.96255 0 -133.148
-17.2007 -4.80439 0 -133.144
-1012.62 -5.34048 0 -102.227
-1006.11 -5.06133 0 -101.819
973.94 -3.42659 0 -159.051
980.367 -3.76222 0 -158.659
-1009.36 -5.20065 0 -102.021
-17.1214 -4.33296 0 -133.132
977.154 -3.59416 0 -158.856
-17.1742 -4.64674 0 -133.14
-17.1477 -4.48959 0 -133.136
-1006.11 -5.06133 0 -101.819
-999.59 -4.7842 0 -101.422
967.513 -3.09294 0 -159.432
973.94 -3.42659 0 -159.051
-1002.85 -4.92251 0 -101.619
-17.069 -4.02124 0 -133.124
970.727 -3.25952 0 -159.243
-17.1214 -4.33296 0 -133.132
-17.0952 -4.17685 0 -133.128
-999.59 -4.7842 0 -101.422
-993.075 -4.50909 0 -101.036
961.086 -2.76129 0 -159.801
967.513 -3.09294 0 -159.432
-996.333 -4.6464 0 -101.228
-17.0169 -3.71156 0 -133.115
964.299 -2.92686 0 -159.618
-17.069 -4.02124 0 -133.124
-17.0429 -3.86614 0 -133.119
-993.075 -4.50909 0 -101.036
-986.56 -4.23597 0 -100.662
954.658 -2.43166 0 -160.159
961.086 -2.76129 0 -159.801
-989.818 -4.37228 0 -100.848
-16.9652 -3.40392 0 -133.107
957.872 -2.59622 0 -159.981
-17.0169 -3.71156 0 -133.115
-16.991 -3.55748 0 -133.111
-986.56 -4.23597 0 -100.662
-980.046 -3.96481 0 -100.299
948.231 -2.10408 0 -160.506
954.658 -2.43166 0 -160.159
-983.303 -4.10014 0 -100.479
-16.9138 -3.09833 0 -133.098
951.444 -2.26761 0 -160.334
-16.9652 -3.40392 0 -133.107
-16.9394 -3.25087 0 -133.102
-980.046 -3.96481 0 -100.299
-973.532 -3.69559 0 -99.9462
941.803 -1.77855 0 -160.841
948.231 -2.10408 0 -160.506
-976.789 -3.82996 0 -100.121
-16.8627 -2.79479 0 -133.089
945.017 -1.94106 0 -160.675
-16.9138 -3.09833 0 -133.098
-16.8882 -2.94631 0 -133.094
-973.532 -3.69559 0 -99.9462
-967.019 -3.4283 0 -99.6046
935.375 -1.45512 0 -161.166
941.803 -1.77855 0 -160.841
-970.276 -3.56171 0 -99.774
-16.8119 -2.4933 0 -133.08
938.589 -1.61657 0 -161.005
-16.8627 -2.79479 0 -133.089
-16.8372 -2.64379 0 -133.085
-967.019 -3.4283 0 -99.6046
-960.506 -3.16292 0 -99.2738
928.947 -1.13379 0 -161.479
935.375 -1.45512 0 -161.166
-963.763 -3.29538 0 -99.4379
-16.7615 -2.19385 0 -133.071
932.161 -1.29419 0 -161.324
-16.8119 -2.4933 0 -133.08
-16.7866 -2.34332 0 -133.076
-960.506 -3.16292 0 -99.2738
-953.994 -2.89942 0 -98.9538
922.519 -0.814577 0 -161.782
928.947 -1.13379 0 -161.479
-957.25 -3.03094 0 -99.1125
-16.7114 -1.89644 0 -133.062
925.733 -0.973915 0 -161.632
-16.7615 -2.19385 0 -133.071
-16.7364 -2.04489 0 -133.067
-953.994 -2.89942 0 -98.9538
-947.482 -2.63779 0 -98.6445
916.091 -0.497513 0 -162.074
922.519 -0.814577 0 -161.782
-950.738 -2.76837 0 -98.7978
-16.6616 -1.60109 0 -133.053
919.305 -0.655776 0 -161.929
-16.7114 -1.89644 0 -133.062
-16.6864 -1.74851 0 -133.058
-947.482 -2.63779 0 -98.6445
-940.971 -2.378 0 -98.3457
909.663 -0.18261 0 -162.355
916.091 -0.497513 0 -162.074
-944.227 -2.50766 0 -98.4938
-16.6121 -1.30778 0 -133.044
912.877 -0.33979 0 -162.216
-16.6616 -1.60109 0 -133.053
-16.6368 -1.45418 0 -133.049
-940.971 -2.378 0 -98.3457
-934.46 -2.12004 0 -98.0575
903.235 0.130112 0 -162.625
909.663 -0.18261 0 -162.355
-937.716 -2.24879 0 -98.2003
-16.563 -1.01651 0 -133.035
906.449 -0.0259757 0 -162.491
-16.6121 -1.30778 0 -133.044
-16.5875 -1.16189 0 -133.039
-934.46 -2.12004 0 -98.0575
-927.95 -1.8639 0 -97.7797
896.807 0.440635 0 -162.884
903.235 0.130112 0 -162.625
-931.205 -1.99174 0 -97.9173
-16.5142 -0.727292 0 -133.025
900.021 0.285649 0 -162.756
-16.563 -1.01651 0 -133.035
-16.5386 -0.871646 0 -133.03
-927.95 -1.8639 0 -97.7797
-921.441 -1.60954 0 -97.5124
890.38 0.748944 0 -163.134
896.807 0.440635 0 -162.884
-924.696 -1.7365 0 -97.6448
-16.4658 -0.44012 0 -133.016
893.594 0.595068 0 -163.01
-16.5142 -0.727292 0 -133.025
-16.4899 -0.58345 0 -133.021
-921.441 -1.60954 0 -97.5124
-914.932 -1.35697 0 -97.2553
883.952 1.05502 0 -163.372
890.38 0.748944 0 -163.134
-918.186 -1.48303 0 -97.3825
-16.4176 -0.154993 0 -133.006
887.166 0.902262 0 -163.254
-16.4658 -0.44012 0 -133.016
-16.4416 -0.2973 0 -133.011
-914.932 -1.35697 0 -97.2553
-908.424 -1.10615 0 -97.0084
877.524 1.35885 0 -163.6
883.952 1.05502 0 -163.372
-911.678 -1.23134 0 -97.1306
-16.3698 0.128088 0 -132.997
880.738 1.20721 0 -163.488
-16.4176 -0.154993 0 -133.006
-16.3937 -0.0131964 0 -133.002
-908.424 -1.10615 0 -97.0084
-901.916 -0.857071 0 -96.7717
871.097 1.66041 0 -163.818
877.524 1.35885 0 -163.6
-905.17 -0.981392 0 -96.8888
-16.3224 0.409124 0 -132.987
874.31 1.50991 0 -163.711
-16.3698 0.128088 0 -132.997
-16.346 0.268862 0 -132.992
-901.916 -0.857071 0 -96.7717
-895.41 -0.609721 0 -96.5452
864.669 1.95968 0 -164.026
871.097 1.66041 0 -163.818
-898.663 -0.733181 0 -96.6572
-16.2752 0.688114 0 -132.978
867.883 1.81033 0 -163.923
-16.3224 0.409124 0 -132.987
-16.2987 0.548874 0 -132.982
-895.41 -0.609721 0 -96.5452
-888.903 -0.364083 0 -96.3286
858.242 2.25667 0 -164.223
864.669 1.95968 0 -164.026
-892.156 -0.486689 0 -96.4356
-16.2284 0.965058 0 -132.968
861.456 2.10846 0 -164.126
-16.2752 0.688114 0 -132.978
-16.2518 0.826842 0 -132.973
-888.903 -0.364083 0 -96.3286
-882.398 -0.120141 0 -96.122
851.815 2.55134 0 -164.411
858.242 2.25667 0 -164.223
-885.651 -0.241901 0 -96.224
-16.1819 1.23996 0 -132.958
855.028 2.40429 0 -164.318
-16.2284 0.965058 0 -132.968
-16.2051 1.10276 0 -132.963
-882.398 -0.120141 0 -96.122
-875.893 0.122121 0 -95.9252
845.388 2.84368 0 -164.588
851.815 2.55134 0 -164.411
-879.146 0.00119953 0 -96.0224
-16.1358 1.51281 0 -132.948
848.601 2.6978 0 -164.501
-16.1819 1.23996 0 -132.958
-16.1588 1.37664 0 -132.953
-875.893 0.122121 0 -95.9252
-869.389 0.362717 0 -95.7383
838.961 3.13368 0 -164.756
845.388 2.84368 0 -164.588
-872.641 0.242626 0 -95.8305
-16.09 1.78362 0 -132.938
842.175 2.98897 0 -164.673
-16.1358 1.51281 0 -132.948
-16.1128 1.64847 0 -132.943
-869.389 0.362717 0 -95.7383
-862.886 0.60166 0 -95.5611
832.535 3.42133 0 -164.913
838.961 3.13368 0 -164.756
-866.138 0.482394 0 -95.6485
-16.0445 2.05238 0 -132.928
835.748 3.2778 0 -164.836
-16.09 1.78362 0 -132.938
-16.0672 1.91826 0 -132.933
-862.886 0.60166 0 -95.5611
-856.384 0.838966 0 -95.3935
826.108 3.70661 0 -165.061
832.535 3.42133 0 -164.913
-859.635 0.720517 0 -95.4761
-15.9993 2.3191 0 -132.918
829.322 3.56426 0 -164.989
-16.0445 2.05238 0 -132.928
-16.0218 2.186 0 -132.923
-856.384 0.838966 0 -95.3935
-849.882 1.07465 0 -95.2356
819.682 3.9895 0 -165.2
826.108 3.70661 0 -165.061
-853.133 0.957008 0 -95.3134
-15.9545 2.58378 0 -132.908
822.895 3.84835 0 -165.132
-15.9993 2.3191 0 -132.918
-15.9769 2.4517 0 -132.913
-849.882 1.07465 0 -95.2356
-843.381 1.30872 0 -95.0872
813.257 4.27001 0 -165.328
819.682 3.9895 0 -165.2
-846.632 1.19188 0 -95.1602
-15.91 2.84641 0 -132.898
816.469 4.13006 0 -165.265
-15.9545 2.58378 0 -132.908
-15.9322 2.71535 0 -132.903
-843.381 1.30872 0 -95.0872
-836.881 1.54118 0 -94.9482
806.831 4.5481 0 -165.447
813.257 4.27001 0 -165.328
-840.131 1.42515 0 -95.0165
-15.8658 3.10699 0 -132.888
810.044 4.40936 0 -165.389
-15.91 2.84641 0 -132.898
-15.8879 2.97696 0 -132.893
-836.881 1.54118 0 -94.9482
-830.382 1.77207 0 -94.8186
800.406 4.82378 0 -165.557
806.831 4.5481 0 -165.447
-833.632 1.65682 0 -94.8822
-15.822 3.36554 0 -132.877
803.618 4.68624 0 -165.503
-15.8658 3.10699 0 -132.888
-15.8439 3.23652 0 -132.883
-830.382 1.77207 0 -94.8186
-823.884 2.00138 0 -94.6982
793.981 5.09703 0 -165.657
800.406 4.82378 0 -165.557
-827.133 1.88692 0 -94.7572
-15.7785 3.62203 0 -132.867
797.193 4.96071 0 -165.608
-15.822 3.36554 0 -132.877
-15.8002 3.49404 0 -132.872
-823.884 2.00138 0 -94.6982
-817.386 2.22912 0 -94.5872
787.556 5.36783 0 -165.748
793.981 5.09703 0 -165.657
-820.635 2.11544 0 -94.6415
-15.7353 3.87649 0 -132.857
790.768 5.23274 0 -165.704
-15.7785 3.62203 0 -132.867
-15.7569 3.74952 0 -132.862
-817.386 2.22912 0 -94.5872
-810.89 2.45532 0 -94.4852
781.132 5.63619 0 -165.83
787.556 5.36783 0 -165.748
-814.138 2.34241 0 -94.535
-15.6925 4.1289 0 -132.847
784.344 5.50232 0 -165.79
-15.7353 3.87649 0 -132.857
-15.7139 4.00295 0 -132.852
-810.89 2.45532 0 -94.4852
-804.394 2.67997 0 -94.3924
774.708 5.90208 0 -165.902
781.132 5.63619 0 -165.83
-807.642 2.56783 0 -94.4377
-15.65 4.37927 0 -132.836
777.92 5.76944 0 -165.867
-15.6925 4.1289 0 -132.847
-15.6712 4.25434 0 -132.842
-804.394 2.67997 0 -94.3924
-797.899 2.90309 0 -94.3085
768.284 6.16549 0 -165.966
774.708 5.90208 0 -165.902
-801.146 2.79172 0 -94.3493
-15.6078 4.62759 0 -132.826
771.496 6.03409 0 -165.935
-15.65 4.37927 0 -132.836
-15.6289 4.50368 0 -132.831
-797.899 2.90309 0 -94.3085
-791.405 3.1247 0 -94.2337
761.86 6.42643 0 -166.02
768.284 6.16549 0 -165.966
-794.652 3.01408 0 -94.27
-15.566 4.87387 0 -132.816
765.072 6.29627 0 -165.994
-15.6078 4.62759 0 -132.826
-15.5869 4.75099 0 -132.821
-791.405 3.1247 0 -94.2337
-784.912 3.34479 0 -94.1676
755.437 6.68487 0 -166.066
761.86 6.42643 0 -166.02
-788.159 3.23493 0 -94.1995
-15.5245 5.11811 0 -132.805
758.649 6.55596 0 -166.044
-15.566 4.87387 0 -132.816
-15.5452 4.99625 0 -132.81
-784.912 3.34479 0 -94.1676
-778.42 3.56338 0 -94.1104
749.015 6.9408 0 -166.103
755.437 6.68487 0 -166.066
-781.666 3.45427 0 -94.1379
-15.4833 5.36031 0 -132.795
752.226 6.81315 0 -166.085
-15.5245 5.11811 0 -132.805
-15.5039 5.23946 0 -132.8
-778.42 3.56338 0 -94.1104
-771.929 3.78048 0 -94.0619
742.592 7.19423 0 -166.131
749.015 6.9408 0 -166.103
-775.174 3.67212 0 -94.0851
-15.4425 5.60046 0 -132.784
745.803 7.06783 0 -166.118
-15.4833 5.36031 0 -132.795
-15.4629 5.48064 0 -132.79
-771.929 3.78048 0 -94.0619
-765.439 3.99611 0 -94.0221
736.17 7.44514 0 -166.15
742.592 7.19423 0 -166.131
-768.684 3.88848 0 -94.0409
-15.402 5.83857 0 -132.774
739.381 7.32 0 -166.142
-15.4425 5.60046 0 -132.784
-15.4222 5.71977 0 -132.779
-765.439 3.99611 0 -94.0221
-758.949 4.21025 0 -93.9908
729.749 7.69352 0 -166.161
736.17 7.44514 0 -166.15
-762.194 4.10336 0 -94.0053
-15.3618 6.07465 0 -132.764
732.96 7.56965 0 -166.157
-15.402 5.83857 0 -132.774
-15.3819 5.95686 0 -132.769
-758.949 4.21025 0 -93.9908
-752.461 4.42293 0 -93.968
723.328 7.93937 0 -166.163
729.749 7.69352 0 -166.161
-755.705 4.31678 0 -93.9783
-15.322 6.30867 0 -132.753
726.538 7.81676 0 -166.163
-15.3618 6.07465 0 -132.764
-15.3419 6.19191 0 -132.758
-752.461 4.42293 0 -93.968
-745.973 4.63416 0 -93.9537
716.907 8.18267 0 -166.157
723.328 7.93937 0 -166.163
-749.217 4.52873 0 -93.9598
-15.2825 6.54066 0 -132.743
720.117 8.06134 0 -166.161
-15.322 6.30867 0 -132.753
-15.3022 6.42492 0 -132.748
-745.973 4.63416 0 -93.9537
-739.487 4.84393 0 -93.9477
710.486 8.42343 0 -166.142
716.907 8.18267 0 -166.157
-742.73 4.73923 0 -93.9497
-15.2433 6.77061 0 -132.732
713.697 8.30337 0 -166.151
-15.2825 6.54066 0 -132.743
-15.2629 6.65589 0 -132.738
-739.487 4.84393 0 -93.9477
-733.002 5.05227 0 -93.95
704.067 8.66162 0 -166.119
710.486 8.42343 0 -166.142
-736.244 4.94828 0 -93.9478
-15.2045 6.99852 0 -132.722
707.276 8.54284 0 -166.132
-15.2433 6.77061 0 -132.732
-15.2239 6.88482 0 -132.727
-733.002 5.05227 0 -93.95
-726.517 5.25916 0 -93.9606
697.647 8.89726 0 -166.088
704.067 8.66162 0 -166.119
-729.759 5.15589 0 -93.9543
-15.166 7.22438 0 -132.712
700.857 8.77976 0 -166.105
-15.2045 6.99852 0 -132.722
-15.1852 7.1117 0 -132.717
-726.517 5.25916 0 -93.9606
-720.034 5.46463 0 -93.9793
691.228 9.13032 0 -166.049
697.647 8.89726 0 -166.088
-723.275 5.36208 0 -93.9689
-15.1278 7.44821 0 -132.701
694.437 9.01411 0 -166.07
-15.166 7.22438 0 -132.712
-15.1469 7.33655 0 -132.706
-720.034 5.46463 0 -93.9793
-713.551 5.66868 0 -94.006
684.809 9.36081 0 -166.002
691.228 9.13032 0 -166.049
-716.792 5.56683 0 -93.9916
-15.09 7.66999 0 -132.691
688.019 9.24589 0 -166.026
-15.1278 7.44821 0 -132.701
-15.1089 7.55936 0 -132.696
-713.551 5.66868 0 -94.006
-707.07 5.87131 0 -94.0408
678.391 9.58872 0 -165.946
684.809 9.36081 0 -166.002
-710.31 5.77017 0 -94.0224
-15.0525 7.88974 0 -132.68
681.6 9.47509 0 -165.975
-15.09 7.66999 0 -132.691
-15.0712 7.78012 0 -132.686
-707.07 5.87131 0 -94.0408
-700.589 6.07253 0 -94.0835
671.973 9.81404 0 -165.883
678.391 9.58872 0 -165.946
-703.829 5.9721 0 -94.0612
-15.0153 8.10745 0 -132.67
675.182 9.7017 0 -165.916
-15.0525 7.88974 0 -132.68
-15.0339 7.99885 0 -132.675
-700.589 6.07253 0 -94.0835
-694.11 6.27235 0 -94.134
665.556 10.0368 0 -165.812
671.973 9.81404 0 -165.883
-697.349 6.17262 0 -94.1078
-14.9785 8.32311 0 -132.66
668.764 9.92573 0 -165.849
-15.0153 8.10745 0 -132.67
-14.9969 8.21553 0 -132.665
-694.11 6.27235 0 -94.134
-687.631 6.47077 0 -94.1924
659.139 10.2569 0 -165.733
665.556 10.0368 0 -165.812
-690.87 6.37173 0 -94.1622
-14.942 8.53674 0 -132.649
662.347 10.1472 0 -165.774
-14.9785 8.32311 0 -132.66
-14.9602 8.43018 0 -132.654
-687.631 6.47077 0 -94.1924
-681.154 6.66779 0 -94.2584
652.723 10.4744 0 -165.647
659.139 10.2569 0 -165.733
-684.392 6.56945 0 -94.2244
-14.9059 8.74833 0 -132.639
655.931 10.366 0 -165.691
-14.942 8.53674 0 -132.649
-14.9239 8.64279 0 -132.644
-681.154 6.66779 0 -94.2584
-674.677 6.86342 0 -94.3321
646.307 10.6894 0 -165.553
652.723 10.4744 0 -165.647
-677.915 6.76578 0 -94.2943
-14.8701 8.95789 0 -132.629
649.514 10.5822 0 -165.601
-14.9059 8.74833 0 -132.639
-14.8879 8.85336 0 -132.634
-674.677 6.86342 0 -94.3321
-668.202 7.05767 0 -94.4134
639.891 10.9017 0 -165.451
646.307 10.6894 0 -165.553
-671.439 6.96072 0 -94.3718
-14.8346 9.1654 0 -132.618
643.099 10.7959 0 -165.503
-14.8701 8.95789 0 -132.629
-14.8523 9.0619 0 -132.623
-668.202 7.05767 0 -94.4134
-661.727 7.25054 0 -94.5021
633.476 11.1114 0 -165.342
639.891 10.9017 0 -165.451
-664.964 7.15428 0 -94.4568
-14.7995 9.37088 0 -132.608
636.683 11.0069 0 -165.398
-14.8346 9.1654 0 -132.618
-14.817 9.26839 0 -132.613
-661.727 7.25054 0 -94.5021
-655.254 7.44203 0 -94.5983
627.061 11.3185 0 -165.226
633.476 11.1114 0 -165.342
-658.491 7.34645 0 -94.5493
-14.7647 9.57431 0 -132.598
630.269 11.2153 0 -165.285
-14.7995 9.37088 0 -132.608
-14.782 9.47285 0 -132.603
-655.254 7.44203 0 -94.5983
-648.782 7.63214 0 -94.7018
620.647 11.523 0 -165.102
627.061 11.3185 0 -165.226
-652.018 7.53725 0 -94.6491
-14.7302 9.77572 0 -132.588
623.854 11.4211 0 -165.165
-14.7647 9.57431 0 -132.598
-14.7474 9.67527 0 -132.593
-648.782 7.63214 0 -94.7018
-642.311 7.82088 0 -94.8126
614.234 11.7249 0 -164.971
620.647 11.523 0 -165.102
-645.546 7.72668 0 -94.7563
-14.6961 9.97508 0 -132.578
617.44 11.6243 0 -165.037
-14.7302 9.77572 0 -132.588
-14.7131 9.87565 0 -132.583
-642.311 7.82088 0 -94.8126
-635.84 8.00826 0 -94.9306
607.821 11.9241 0 -164.833
614.234 11.7249 0 -164.971
-639.075 7.91474 0 -94.8707
-14.6623 10.1724 0 -132.567
611.027 11.8248 0 -164.903
-14.6961 9.97508 0 -132.578
-14.6791 10.074 0 -132.573
-635.84 8.00826 0 -94.9306
-629.371 8.19427 0 -95.0558
601.408 12.1207 0 -164.688
607.821 11.9241 0 -164.833
-632.606 8.10143 0 -94.9923
-14.6288 10.3677 0 -132.557
604.614 12.0227 0 -164.761
-14.6623 10.1724 0 -132.567
-14.6455 10.2703 0 -132.562
-629.371 8.19427 0 -95.0558
-622.903 8.37891 0 -95.188
594.996 12.3147 0 -164.536
601.408 12.1207 0 -164.688
-626.137 8.28676 0 -95.121
-14.5957 10.561 0 -132.547
598.202 12.218 0 -164.613
-14.6288 10.3677 0 -132.557
-14.6122 10.4646 0 -132.552
-622.903 8.37891 0 -95.188
-616.436 8.5622 0 -95.3272
588.584 12.5061 0 -164.377
594.996 12.3147 0 -164.536
-619.669 8.47073 0 -95.2567
-14.563 10.7522 0 -132.537
591.79 12.4107 0 -164.457
-14.5957 10.561 0 -132.547
-14.5793 10.6568 0 -132.542
-616.436 8.5622 0 -95.3272
-609.97 8.74412 0 -95.4733
582.173 12.6948 0 -164.211
588.584 12.5061 0 -164.377
-613.203 8.65333 0 -95.3994
-14.5305 10.9414 0 -132.527
585.378 12.6007 0 -164.295
-14.563 10.7522 0 -132.537
-14.5467 10.847 0 -132.532
-609.97 8.74412 0 -95.4733
-603.505 8.92469 0 -95.6263
575.762 12.8809 0 -164.038
582.173 12.6948 0 -164.211
-606.737 8.83458 0 -95.5489
-14.4984 11.1285 0 -132.518
578.967 12.7882 0 -164.125
-14.5305 10.9414 0 -132.527
-14.5144 11.0352 0 -132.522
-603.505 8.92469 0 -95.6263
-597.041 9.1039 0 -95.786
569.352 13.0644 0 -163.859
575.762 12.8809 0 -164.038
-600.273 9.01447 0 -95.7053
-14.4667 11.3136 0 -132.508
572.557 12.9729 0 -163.949
-14.4984 11.1285 0 -132.518
-14.4825 11.2213 0 -132.513
-597.041 9.1039 0 -95.786
-590.578 9.28176 0 -95.9524
562.942 13.2452 0 -163.673
569.352 13.0644 0 -163.859
-593.81 9.193 0 -95.8684
-14.4353 11.4967 0 -132.498
566.147 13.1551 0 -163.767
-14.4667 11.3136 0 -132.508
-14.4509 11.4054 0 -132.503
-590.578 9.28176 0 -95.9524
-584.117 9.45826 0 -96.1255
556.533 13.4234 0 -163.481
562.942 13.2452 0 -163.673
-587.347 9.37018 0 -96.0381
-14.4042 11.6778 0 -132.488
559.737 13.3346 0 -163.578
-14.4353 11.4967 0 -132.498
-14.4197 11.5875 0 -132.493
-584.117 9.45826 0 -96.1255
-577.656 9.63341 0 -96.3051
550.124 13.599 0 -163.282
556.533 13.4234 0 -163.481
-580.886 9.54601 0 -96.2145
-14.3734 11.8568 0 -132.478
553.328 13.5115 0 -163.382
-14.4042 11.6778 0 -132.488
-14.3888 11.7675 0 -132.483
-577.656 9.63341 0 -96.3051
-571.196 9.80721 0 -96.4912
543.716 13.7719 0 -163.076
550.124 13.599 0 -163.282
-574.426 9.72048 0 -96.3974
-14.343 12.0338 0 -132.469
546.92 13.6858 0 -163.18
-14.3734 11.8568 0 -132.478
-14.3582 11.9455 0 -132.474
-571.196 9.80721 0 -96.4912
-564.738 9.97965 0 -96.6837
537.308 13.9422 0 -162.865
543.716 13.7719 0 -163.076
-567.967 9.8936 0 -96.5867
-14.313 12.2087 0 -132.459
540.512 13.8574 0 -162.971
-14.343 12.0338 0 -132.469
-14.328 12.1215 0 -132.464
-564.738 9.97965 0 -96.6837
-558.28 10.1507 0 -96.8826
530.9 14.1099 0 -162.647
537.308 13.9422 0 -162.865
-561.509 10.0654 0 -96.7824
-14.2833 12.3816 0 -132.45
534.104 14.0264 0 -162.757
-14.313 12.2087 0 -132.459
-14.2981 12.2954 0 -132.454
-558.28 10.1507 0 -96.8826
-551.823 10.3205 0 -97.0877
524.494 14.275 0 -162.423
530.9 14.1099 0 -162.647
-555.052 10.2358 0 -96.9844
-14.2539 12.5525 0 -132.44
527.697 14.1928 0 -162.536
-14.2833 12.3816 0 -132.45
-14.2685 12.4673 0 -132.445
-551.823 10.3205 0 -97.0877
-545.368 10.4889 0 -97.2991
518.087 14.4374 0 -162.193
524.494 14.275 0 -162.423
-548.596 10.4048 0 -97.1926
-14.2249 12.7213 0 -132.431
521.29 14.3565 0 -162.309
-14.2539 12.5525 0 -132.44
-14.2393 12.6372 0 -132.436
-545.368 10.4889 0 -97.2991
-538.913 10.6559 0 -97.5165
511.681 14.5972 0 -161.957
518.087 14.4374 0 -162.193
-542.141 10.5725 0 -97.407
-14.1962 12.8882 0 -132.421
514.884 14.5176 0 -162.076
-14.2249 12.7213 0 -132.431
-14.2105 12.805 0 -132.426
-538.913 10.6559 0 -97.5165
-532.46 10.8216 0 -97.74
505.276 14.7544 0 -161.715
511.681 14.5972 0 -161.957
-535.687 10.7389 0 -97.6275
-14.1678 13.053 0 -132.412
508.478 14.6761 0 -161.837
-14.1962 12.8882 0 -132.421
-14.1819 12.9708 0 -132.417
-532.46 10.8216 0 -97.74
-526.008 10.9859 0 -97.9695
498.871 14.9089 0 -161.467
505.276 14.7544 0 -161.715
-529.234 10.9039 0 -97.854
-14.1398 13.2157 0 -132.403
502.073 14.832 0 -161.592
-14.1678 13.053 0 -132.412
-14.1538 13.1346 0 -132.408
-526.008 10.9859 0 -97.9695
-519.556 11.1488 0 -98.2049
492.466 15.0609 0 -161.214
498.871 14.9089 0 -161.467
-522.782 11.0675 0 -98.0864
-14.1121 13.3764 0 -132.394
495.668 14.9852 0 -161.341
-14.1398 13.2157 0 -132.403
-14.1259 13.2963 0 -132.398
-519.556 11.1488 0 -98.2049
-513.106 11.3104 0 -98.4461
486.062 15.2102 0 -160.954
492.466 15.0609 0 -161.214
-516.331 11.2298 0 -98.3248
-14.0848 13.5351 0 -132.385
489.264 15.1359 0 -161.085
-14.1121 13.3764 0 -132.394
-14.0984 13.456 0 -132.389
-513.106 11.3104 0 -98.4461
-506.657 11.4706 0 -98.6931
479.658 15.3569 0 -160.69
486.062 15.2102 0 -160.954
-509.881 11.3907 0 -98.5689
-14.0578 13.6918 0 -132.376
482.86 15.2839 0 -160.823
-14.0848 13.5351 0 -132.385
-14.0713 13.6137 0 -132.38
-506.657 11.4706 0 -98.6931
-500.209 11.6295 0 -98.9458
473.255 15.501 0 -160.419
479.658 15.3569 0 -160.69
-503.433 11.5502 0 -98.8187
-14.0312 13.8464 0 -132.367
476.457 15.4293 0 -160.555
-14.0578 13.6918 0 -132.376
-14.0444 13.7694 0 -132.371
-500.209 11.6295 0 -98.9458
-493.761 11.787 0 -99.204
466.853 15.6425 0 -160.143
473.255 15.501 0 -160.419
-496.985 11.7084 0 -99.0742
-14.0049 13.999 0 -132.358
470.054 15.5721 0 -160.282
-14.0312 13.8464 0 -132.367
-14.018 13.923 0 -132.363
-493.761 11.787 0 -99.204
-487.315 11.9431 0 -99.4679
460.45 15.7813 0 -159.862
466.853 15.6425 0 -160.143
-490.538 11.8652 0 -99.3353
-13.9789 14.1496 0 -132.349
463.651 15.7122 0 -160.003
-14.0049 13.999 0 -132.358
-13.9918 14.0746 0 -132.354
-487.315 11.9431 0 -99.4679
-480.87 12.0979 0 -99.7372
454.048 15.9176 0 -159.575
460.45 15.7813 0 -159.862
-484.093 12.0207 0 -99.6019
-13.9533 14.2981 0 -132.341
457.249 15.8498 0 -159.719
-13.9789 14.1496 0 -132.349
-13.9661 14.2241 0 -132.345
-480.87 12.0979 0 -99.7372
-474.426 12.2512 0 -100.012
447.647 16.0513 0 -159.284
454.048 15.9176 0 -159.575
-477.648 12.1747 0 -99.8739
-13.928 14.4446 0 -132.332
450.848 15.9848 0 -159.43
-13.9533 14.2981 0 -132.341
-13.9406 14.3716 0 -132.336
-474.426 12.2512 0 -100.012
-467.983 12.4032 0 -100.292
441.246 16.1824 0 -158.987
447.647 16.0513 0 -159.284
-471.204 12.3274 0 -100.151
-13.9031 14.5891 0 -132.324
444.447 16.1172 0 -159.136
-13.928 14.4446 0 -132.332
-13.9155 14.5171 0 -132.328
-467.983 12.4032 0 -100.292
-461.541 12.5538 0 -100.577
434.846 16.3109 0 -158.684
441.246 16.1824 0 -158.987
-464.762 12.4787 0 -100.434
-13.8785 14.7316 0 -132.315
438.046 16.2469 0 -158.836
-13.9031 14.5891 0 -132.324
-13.8908 14.6606 0 -132.319
-461.541 12.5538 0 -100.577
-455.1 12.7031 0 -100.868
428.445 16.4368 0 -158.377
434.846 16.3109 0 -158.684
-458.32 12.6286 0 -100.722
-13.8543 14.872 0 -132.307
431.645 16.3741 0 -158.531
-13.8785 14.7316 0 -132.315
-13.8663 14.8021 0 -132.311
-455.1 12.7031 0 -100.868
-448.66 12.8509 0 -101.163
422.046 16.5601 0 -158.065
428.445 16.4368 0 -158.377
-451.879 12.7771 0 -101.015
-13.8304 15.0104 0 -132.299
425.246 16.4987 0 -158.222
-13.8543 14.872 0 -132.307
-13.8423 14.9415 0 -132.303
-448.66 12.8509 0 -101.163
-442.22 12.9973 0 -101.464
415.646 16.6808 0 -157.748
422.046 16.5601 0 -158.065
-445.44 12.9243 0 -101.313
-13.8068 15.1468 0 -132.29
418.846 16.6208 0 -157.907
-13.8304 15.0104 0 -132.299
-13.8185 15.0789 0 -132.294
-442.22 12.9973 0 -101.464
-435.782 13.1424 0 -101.77
409.248 16.799 0 -157.427
415.646 16.6808 0 -157.748
-439.001 13.07 0 -101.616
-13.7836 15.2811 0 -132.282
412.447 16.7402 0 -157.588
-13.8068 15.1468 0 -132.29
-13.7952 15.2142 0 -132.286
-435.782 13.1424 0 -101.77
-429.345 13.286 0 -102.08
402.849 16.9146 0 -157.1
409.248 16.799 0 -157.427
-432.564 13.2144 0 -101.924
-13.7607 15.4135 0 -132.274
406.048 16.8571 0 -157.264
-13.7836 15.2811 0 -132.282
-13.7721 15.3476 0 -132.278
-429.345 13.286 0 -102.08
-422.909 13.4282 0 -102.395
396.451 17.0276 0 -156.769
402.849 16.9146 0 -157.1
-426.127 13.3573 0 -102.237
-13.7382 15.5438 0 -132.266
399.65 16.9714 0 -156.935
-13.7607 15.4135 0 -132.274
-13.7494 15.4789 0 -132.27
-422.909 13.4282 0 -102.395
-416.474 13.569 0 -102.716
390.053 17.1381 0 -156.433
396.451 17.0276 0 -156.769
-419.691 13.4988 0 -102.555
-13.716 15.672 0 -132.259
393.252 17.0832 0 -156.602
-13.7382 15.5438 0 -132.266
-13.7271 15.6081 0 -132.263
-416.474 13.569 0 -102.716
-410.039 13.7084 0 -103.04
383.656 17.246 0 -156.093
390.053 17.1381 0 -156.433
-413.256 13.6389 0 -102.877
-13.6942 15.7983 0 -132.251
386.855 17.1924 0 -156.264
-13.716 15.672 0 -132.259
-13.7051 15.7354 0 -132.255
-410.039 13.7084 0 -103.04
-403.606 13.8464 0 -103.37
377.259 17.3514 0 -155.749
383.656 17.246 0 -156.093
-406.823 13.7776 0 -103.204
-13.6727 15.9225 0 -132.243
380.457 17.299 0 -155.922
-13.6942 15.7983 0 -132.251
-13.6834 15.8606 0 -132.247
-403.606 13.8464 0 -103.37
-397.174 13.983 0 -103.704
370.862 17.4542 0 -155.4
377.259 17.3514 0 -155.749
-400.39 13.9149 0 -103.536
-13.6516 16.0447 0 -132.236
374.061 17.4031 0 -155.575
-13.6727 15.9225 0 -132.243
-13.6621 15.9838 0 -132.24
-397.174 13.983 0 -103.704
-390.742 14.1181 0 -104.042
364.466 17.5545 0 -155.047
370.862 17.4542 0 -155.4
-393.958 14.0507 0 -103.872
-13.6308 16.1648 0 -132.228
367.664 17.5047 0 -155.224
-13.6516 16.0447 0 -132.236
-13.6411 16.105 0 -132.232
-390.742 14.1181 0 -104.042
-384.312 14.2517 0 -104.385
358.07 17.6523 0 -154.689
364.466 17.5545 0 -155.047
-387.527 14.1851 0 -104.213
-13.6103 16.283 0 -132.221
361.268 17.6038 0 -154.868
-13.6308 16.1648 0 -132.228
-13.6205 16.2242 0 -132.225
-384.312 14.2517 0 -104.385
-377.882 14.384 0 -104.732
351.675 17.7476 0 -154.328
358.07 17.6523 0 -154.689
-381.097 14.318 0 -104.558
-13.5902 16.3991 0 -132.214
354.872 17.7003 0 -154.509
-13.6103 16.283 0 -132.221
-13.6002 16.3413 0 -132.217
-377.882 14.384 0 -104.732
-371.454 14.5148 0 -105.083
345.279 17.8403 0 -153.962
351.675 17.7476 0 -154.328
-374.668 14.4495 0 -104.907
-13.5705 16.5132 0 -132.207
348.477 17.7943 0 -154.145
-13.5902 16.3991 0 -132.214
-13.5803 16.4564 0 -132.21
-371.454 14.5148 0 -105.083
-365.026 14.6441 0 -105.439
338.885 17.9306 0 -153.593
345.279 17.8403 0 -153.962
-368.24 14.5796 0 -105.26
-13.5511 16.6252 0 -132.2
342.082 17.8857 0 -153.778
-13.5705 16.5132 0 -132.207
-13.5607 16.5695 0 -132.203
-365.026 14.6441 0 -105.439
-358.599 14.7719 0 -105.798
332.49 18.0183 0 -153.219
338.885 17.9306 0 -153.593
-361.812 14.7082 0 -105.618
-13.532 16.7353 0 -132.193
335.687 17.9747 0 -153.406
-13.5511 16.6252 0 -132.2
-13.5415 16.6805 0 -132.196
-358.599 14.7719 0 -105.798
-352.173 14.8983 0 -106.162
326.096 18.1035 0 -152.842
332.49 18.0183 0 -153.219
-355.386 14.8353 0 -105.98
-13.5133 16.8433 0 -132.186
329.293 18.0612 0 -153.031
-13.532 16.7353 0 -132.193
-13.5226 16.7895 0 -132.189
-352.173 14.8983 0 -106.162
-345.748 15.0232 0 -106.53
319.702 18.1863 0 -152.461
326.096 18.1035 0 -152.842
-348.96 14.9609 0 -106.345
-13.4949 16.9493 0 -132.179
322.899 18.1452 0 -152.652
-13.5133 16.8433 0 -132.186
-13.5041 16.8965 0 -132.183
-345.748 15.0232 0 -106.53
-339.324 15.1466 0 -106.901
313.308 18.2665 0 -152.076
319.702 18.1863 0 -152.461
-342.536 15.0851 0 -106.715
-13.4769 17.0533 0 -132.173
316.505 18.2267 0 -152.269
-13.4949 16.9493 0 -132.179
-13.4859 17.0015 0 -132.176
-339.324 15.1466 0 -106.901
-332.901 15.2686 0 -107.276
306.915 18.3443 0 -151.688
313.308 18.2665 0 -152.076
-336.112 15.2078 0 -107.088
-13.4592 17.1552 0 -132.166
310.111 18.3057 0 -151.883
-13.4769 17.0533 0 -132.173
-13.468 17.1045 0 -132.17
-332.901 15.2686 0 -107.276
-326.478 15.389 0 -107.656
300.522 18.4197 0 -151.296
306.915 18.3443 0 -151.688
-329.689 15.329 0 -107.466
-13.4419 17.2551 0 -132.16
303.718 18.3823 0 -151.493
-13.4592 17.1552 0 -132.166
-13.4505 17.2054 0 -132.163
-326.478 15.389 0 -107.656
-320.057 15.5079 0 -108.038
294.129 18.4925 0 -150.901
300.522 18.4197 0 -151.296
-323.267 15.4487 0 -107.846
-13.4249 17.353 0 -132.154
297.325 18.4564 0 -151.099
-13.4419 17.2551 0 -132.16
-13.4334 17.3043 0 -132.157
-320.057 15.5079 0 -108.038
-313.636 15.6253 0 -108.425
287.736 18.563 0 -150.503
294.129 18.4925 0 -150.901
-316.846 15.5668 0 -108.231
-13.4083 17.4489 0 -132.148
290.932 18.528 0 -150.702
-13.4249 17.353 0 -132.154
-13.4165 17.4012 0 -132.151
-313.636 15.6253 0 -108.425
-307.216 15.7412 0 -108.815
281.344 18.6309 0 -150.101
287.736 18.563 0 -150.503
-310.426 15.6835 0 -108.619
-13.392 17.5428 0 -132.142
284.54 18.5972 0 -150.302
-13.4083 17.4489 0 -132.148
-13.4001 17.4961 0 -132.145
-307.216 15.7412 0 -108.815
-300.797 15.8556 0 -109.208
274.952 18.6965 0 -149.696
281.344 18.6309 0 -150.101
-304.006 15.7986 0 -109.011
-13.3761 17.6346 0 -132.136
278.148 18.664 0 -149.899
-13.392 17.5428 0 -132.142
-13.384 17.5889 0 -132.139
-300.797 15.8556 0 -109.208
-294.379 15.9685 0 -109.605
268.56 18.7596 0 -149.287
274.952 18.6965 0 -149.696
-297.588 15.9122 0 -109.406
-13.3605 17.7244 0 -132.13
271.756 18.7283 0 -149.492
-13.3761 17.6346 0 -132.136
-13.3682 17.6798 0 -132.133
-294.379 15.9685 0 -109.605
-287.961 16.0797 0 -110.005
262.168 18.8203 0 -148.876
268.56 18.7596 0 -149.287
-291.17 16.0243 0 -109.804
-13.3452 17.8122 0 -132.124
265.364 18.7903 0 -149.082
-13.3605 17.7244 0 -132.13
-13.3528 17.7686 0 -132.127
-287.961 16.0797 0 -110.005
-281.545 16.1895 0 -110.408
255.777 18.8786 0 -148.462
262.168 18.8203 0 -148.876
-284.753 16.1348 0 -110.206
-13.3303 17.898 0 -132.119
258.973 18.8498 0 -148.669
-13.3452 17.8122 0 -132.124
-13.3377 17.8554 0 -132.122
-281.545 16.1895 0 -110.408
-275.129 16.2977 0 -110.814
249.386 18.9345 0 -148.044
255.777 18.8786 0 -148.462
-278.336 16.2438 0 -110.611
-13.3158 17.9817 0 -132.113
252.581 18.9068 0 -148.253
-13.3303 17.898 0 -132.119
-13.323 17.9401 0 -132.116
-275.129 16.2977 0 -110.814
-268.714 16.4043 0 -111.224
242.995 18.988 0 -147.624
249.386 18.9345 0 -148.044
-271.921 16.3512 0 -111.019
-13.3016 18.0635 0 -132.108
246.19 18.9615 0 -147.835
-13.3158 17.9817 0 -132.113
-13.3086 18.0229 0 -132.111
-268.714 16.4043 0 -111.224
-262.299 16.5093 0 -111.636
236.604 19.0391 0 -147.201
242.995 18.988 0 -147.624
-265.506 16.457 0 -111.43
-13.2877 18.1432 0 -132.103
239.799 19.0139 0 -147.413
-13.3016 18.0635 0 -132.108
-13.2946 18.1036 0 -132.105
-262.299 16.5093 0 -111.636
-255.886 16.6128 0 -112.052
230.213 19.0879 0 -146.776
236.604 19.0391 0 -147.201
-259.092 16.5612 0 -111.844
-13.2743 18.2209 0 -132.098
233.408 19.0638 0 -146.989
-13.2877 18.1432 0 -132.103
-13.281 18.1823 0 -132.1
-255.886 16.6128 0 -112.052
-249.473 16.7146 0 -112.47
223.822 19.1342 0 -146.347
230.213 19.0879 0 -146.776
-252.679 16.6639 0 -112.261
-13.2611 18.2965 0 -132.093
227.018 19.1113 0 -146.562
-13.2743 18.2209 0 -132.098
-13.2676 18.259 0 -132.095
-249.473 16.7146 0 -112.47
-243.061 16.8149 0 -112.891
217.432 19.1783 0 -145.917
223.822 19.1342 0 -146.347
-246.267 16.765 0 -112.681
-13.2483 18.3702 0 -132.088
220.627 19.1565 0 -146.132
-13.2611 18.2965 0 -132.093
-13.2547 18.3336 0 -132.09
-243.061 16.8149 0 -112.891
-236.649 16.9135 0 -113.315
211.042 19.2199 0 -145.483
217.432 19.1783 0 -145.917
-239.855 16.8644 0 -113.103
-13.2359 18.4418 0 -132.083
214.237 19.1994 0 -145.7
-13.2483 18.3702 0 -132.088
-13.242 18.4062 0 -132.086
-236.649 16.9135 0 -113.315
-230.239 17.0106 0 -113.742
204.652 19.2593 0 -145.047
211.042 19.2199 0 -145.483
-233.444 16.9622 0 -113.528
-13.2238 18.5114 0 -132.079
207.847 19.2399 0 -145.266
-13.2359 18.4418 0 -132.083
-13.2298 18.4769 0 -132.081
-230.239 17.0106 0 -113.742
-223.829 17.1059 0 -114.171
198.262 19.2963 0 -144.609
204.652 19.2593 0 -145.047
-227.034 17.0584 0 -113.956
-13.212 18.579 0 -132.074
201.457 19.2781 0 -144.829
-13.2238 18.5114 0 -132.079
-13.2178 18.5454 0 -132.076
-223.829 17.1059 0 -114.171
-217.42 17.1997 0 -114.603
191.872 19.3309 0 -144.169
198.262 19.2963 0 -144.609
-220.624 17.153 0 -114.387
-13.2006 18.6445 0 -132.07
195.067 19.3139 0 -144.389
-13.212 18.579 0 -132.074
-13.2063 18.612 0 -132.072
-217.42 17.1997 0 -114.603
-211.011 17.2917 0 -115.037
185.482 19.3632 0 -143.726
191.872 19.3309 0 -144.169
-214.215 17.2459 0 -114.82
-13.1895 18.708 0 -132.066
188.677 19.3474 0 -143.948
-13.2006 18.6445 0 -132.07
-13.195 18.6765 0 -132.068
-211.011 17.2917 0 -115.037
-204.603 17.3821 0 -115.474
179.092 19.3933 0 -143.282
185.482 19.3632 0 -143.726
-207.807 17.3371 0 -115.255
-13.1788 18.7694 0 -132.062
182.287 19.3785 0 -143.504
-13.1895 18.708 0 -132.066
-13.1841 18.739 0 -132.064
-204.603 17.3821 0 -115.474
-198.196 17.4708 0 -115.912
172.702 19.4209 0 -142.835
179.092 19.3933 0 -143.282
-201.399 17.4267 0 -115.693
-13.1684 18.8288 0 -132.058
175.897 19.4074 0 -143.059
-13.1788 18.7694 0 -132.062
-13.1735 18.7994 0 -132.06
-198.196 17.4708 0 -115.912
-191.789 17.5577 0 -116.353
166.313 19.4463 0 -142.386
172.702 19.4209 0 -142.835
-194.992 17.5145 0 -116.133
-13.1583 18.8862 0 -132.054
169.508 19.4339 0 -142.611
-13.1684 18.8288 0 -132.058
-13.1633 18.8578 0 -132.056
-191.789 17.5577 0 -116.353
-185.383 17.643 0 -116.797
159.923 19.4693 0 -141.936
166.313 19.4463 0 -142.386
-188.586 17.6006 0 -116.575
-13.1484 18.9414 0 -132.05
163.118 19.4581 0 -142.161
-13.1583 18.8862 0 -132.054
-13.1533 18.9141 0 -132.052
-185.383 17.643 0 -116.797
-178.978 17.7264 0 -117.242
153.534 19.4901 0 -141.484
159.923 19.4693 0 -141.936
-182.18 17.6849 0 -117.019
-13.1389 18.9946 0 -132.047
156.729 19.48 0 -141.71
-13.1484 18.9414 0 -132.05
-13.1436 18.9683 0 -132.049
-178.978 17.7264 0 -117.242
-172.573 17.8081 0 -117.689
147.145 19.5085 0 -141.03
153.534 19.4901 0 -141.484
-175.775 17.7675 0 -117.465
-13.1295 19.0457 0 -132.043
150.34 19.4996 0 -141.257
-13.1389 18.9946 0 -132.047
-13.1342 19.0204 0 -132.045
-172.573 17.8081 0 -117.689
-166.168 17.8881 0 -118.138
140.756 19.5246 0 -140.574
147.145 19.5085 0 -141.03
-169.37 17.8483 0 -117.914
-13.1204 19.0947 0 -132.04
143.95 19.5168 0 -140.802
-13.1295 19.0457 0 -132.043
-13.1249 19.0705 0 -132.042
-166.168 17.8881 0 -118.138
-159.764 17.9664 0 -118.589
134.367 19.5385 0 -140.117
140.756 19.5246 0 -140.574
-162.966 17.9275 0 -118.364
-13.1114 19.1418 0 -132.037
137.562 19.5318 0 -140.345
-13.1204 19.0947 0 -132.04
-13.1159 19.1185 0 -132.038
-159.764 17.9664 0 -118.589
-153.36 18.043 0 -119.042
127.979 19.5502 0 -139.658
134.367 19.5385 0 -140.117
-156.562 18.0049 0 -118.815
-13.1025 19.1869 0 -132.034
131.173 19.5446 0 -139.887
-13.1114 19.1418 0 -132.037
-13.1069 19.1646 0 -132.035
-153.36 18.043 0 -119.042
-146.957 18.1182 0 -119.496
121.59 19.56 0 -139.197
127.979 19.5502 0 -139.658
-150.158 18.0808 0 -119.269
-13.0937 19.2303 0 -132.031
124.784 19.5553 0 -139.428
-13.1025 19.1869 0 -132.034
-13.0981 19.2088 0 -132.032
-146.957 18.1182 0 -119.496
-140.554 18.1922 0 -119.952
115.202 19.568 0 -138.735
121.59 19.56 0 -139.197
-143.755 18.1554 0 -119.724
-13.085 19.2721 0 -132.028
118.396 19.5642 0 -138.966
-13.0937 19.2303 0 -132.031
-13.0894 19.2514 0 -132.029
-140.554 18.1922 0 -119.952
-134.152 18.2654 0 -120.41
108.815 19.5747 0 -138.271
115.202 19.568 0 -138.735
-137.353 18.2289 0 -120.181
-13.0767 19.313 0 -132.024
112.009 19.5714 0 -138.503
-13.085 19.2721 0 -132.028
-13.0808 19.2927 0 -132.026
-134.152 18.2654 0 -120.41
-127.75 18.3384 0 -120.868
102.427 19.5808 0 -137.806
108.815 19.5747 0 -138.271
-130.951 18.3019 0 -120.639
-13.0688 19.3535 0 -132.021
105.621 19.5777 0 -138.039
-13.0767 19.313 0 -132.024
-13.0727 19.3332 0 -132.023
-127.75 18.3384 0 -120.868
-121.35 18.4118 0 -121.329
96.0388 19.5877 0 -137.338
102.427 19.5808 0 -137.806
-124.55 18.375 0 -121.098
-13.0621 19.3947 0 -132.017
99.233 19.584 0 -137.572
-13.0688 19.3535 0 -132.021
-13.0653 19.3739 0 -132.019
-121.35 18.4118 0 -121.329
-114.952 18.4863 0 -121.793
89.6487 19.5973 0 -136.869
96.0388 19.5877 0 -137.338
-118.151 18.4488 0 -121.56
-13.0575 19.438 0 -132.015
92.8442 19.592 0 -137.104
-13.0621 19.3947 0 -132.017
-13.0594 19.4159 0 -132.016
-114.952 18.4863 0 -121.793
-108.557 18.5623 0 -122.261
83.2548 19.6135 0 -136.399
89.6487 19.5973 0 -136.869
-111.754 18.5242 0 -122.026
-13.0567 19.4857 0 -132.015
86.4523 19.6042 0 -136.634
-13.0575 19.438 0 -132.015
-13.0565 19.4611 0 -132.014
-108.557 18.5623 0 -122.261
-102.163 18.64 0 -122.741
76.8505 19.6421 0 -135.932
83.2548 19.6135 0 -136.399
-105.36 18.601 0 -122.499
-13.0629 19.541 0 -132.024
80.0547 19.6258 0 -136.165
-13.0567 19.4857 0 -132.015
-13.0587 19.5122 0 -132.018
-102.163 18.64 0 -122.741
-95.7727 18.7161 0 -123.241
70.4287 19.6945 0 -135.475
76.8505 19.6421 0 -135.932
-98.9671 18.6786 0 -122.987
-13.0808 19.6085 0 -132.052
73.642 19.6643 0 -135.702
-13.0629 19.541 0 -132.024
-13.07 19.5729 0 -132.035
-95.7727 18.7161 0 -123.241
-89.3753 18.7874 0 -123.785
63.965 19.786 0 -135.043
70.4287 19.6945 0 -135.475
-92.5765 18.7528 0 -123.506
-13.1183 19.6948 0 -132.121
67.2048 19.734 0 -135.254
-13.0808 19.6085 0 -132.052
-13.0964 19.6487 0 -132.079
-89.3753 18.7874 0 -123.785
-82.9699 18.8378 0 -124.41
57.4368 19.9496 0 -134.666
63.965 19.786 0 -135.043
-86.1721 18.8166 0 -124.084
-13.1879 19.8094 0 -132.273
60.7092 19.8562 0 -134.845
-13.1183 19.6948 0 -132.121
-13.1482 19.748 0 -132.184
-82.9699 18.8378 0 -124.41
-76.5095 18.8583 0 -125.187
50.7628 20.2184 0 -134.401
57.4368 19.9496 0 -134.666
-79.7533 18.8532 0 -124.773
-13.3086 19.9659 0 -132.581
54.1275 20.0677 0 -134.515
-13.1879 19.8094 0 -132.273
-13.24 19.8812 0 -132.399
-76.5095 18.8583 0 -125.187
-69.9893 18.7992 0 -126.227
43.8899 20.6725 0 -134.338
50.7628 20.2184 0 -134.401
-73.2512 18.8414 0 -125.666
-13.5079 20.1817 0 -133.164
47.3492 20.4175 0 -134.336
-13.3086 19.9659 0 -132.581
-13.3969 20.0656 0 -132.832
-69.9893 18.7992 0 -126.227
-63.2483 18.675 0 -127.705
36.5873 21.337 0 -134.628
43.8899 20.6725 0 -134.338
-66.6703 18.7461 0 -126.895
-13.823 20.4785 0 -134.2
40.3219 20.9747 0 -134.427
-13.5079 20.1817 0 -133.164
-13.6469 20.3177 0 -133.604
-63.2483 18.675 0 -127.705
-56.3236 18.395 0 -129.819
28.8169 22.3327 0 -135.452
36.5873 21.337 0 -134.628
-59.7841 18.5514 0 -128.672
-14.2952 20.8717 0 -135.906
32.7404 21.796 0 -134.959
-13.823 20.4785 0 -134.2
-14.0394 20.6644 0 -134.97
-56.3236 18.395 0 -129.819
-48.8061 18.2354 0 -132.783
20.0947 23.3865 0 -137.02
28.8169 22.3327 0 -135.452
-52.7099 18.2849 0 -131.176
-14.953 21.3559 0 -138.447
24.6509 22.8689 0 -136.131
-14.2952 20.8717 0 -135.906
-14.5947 21.1009 0 -137.036
-48.8061 18.2354 0 -132.783
-41.1354 18.2419 0 -136.436
10.9091 24.3131 0 -139.283
20.0947 23.3865 0 -137.02
-44.8835 18.1633 0 -134.565
-15.7564 21.8405 0 -141.654
15.4431 23.9387 0 -138.078
-14.953 21.3559 0 -138.447
-15.3521 21.6155 0 -140.056
-41.1354 18.2419 0 -136.436
-32.6745 20.0035 0 -139.932
0.892372 23.1206 0 -141.648
10.9091 24.3131 0 -139.283
-37.1748 18.8173 0 -138.279
-16.5021 22.0708 0 -144.398
6.14867 24.1057 0 -140.531
-15.7564 21.8405 0 -141.654
-16.1402 21.9991 0 -143.101
-32.6745 20.0035 0 -139.932
-25.4369 24.0932 0 -140.215
-6.98135 18.1579 0 -141.652
0.892372 23.1206 0 -141.648
-28.5387 21.5877 0 -140.804
-16.6599 21.4707 0 -143.697
-3.77246 21.3831 0 -142.178
-16.5021 22.0708 0 -144.398
-16.7328 21.9484 0 -144.937
-25.4369 24.0932 0 -140.215
-17.5657 33.7139 0 -131.928
-12.8755 4.42031 0 -134.413
-6.98135 18.1579 0 -141.652
-22.0551 28.415 0 -137.516
-15.4122 19.2012 0 -134.531
-9.83616 12.3147 0 -139.397
-16.6599 21.4707 0 -143.697
-16.2165 20.5551 0 -140.21
-17.5657 33.7139 0 -131.928
-12.8573 41.6634 0 -106.668
-10.2818 -13.3469 0 -111.338
-12.8755 4.42031 0 -134.413
-13.9799 38.1752 0 -122.04
-11.7113 14.267 0 -110.501
-13.6619 -4.10488 0 -125.367
-15.4122 19.2012 0 -134.531
-14.0296 17.217 0 -125.372
-12.8573 41.6634 0 -106.668
-8.6155 50.5421 0 -59.1556
-0.194917 -38.6569 0 -66.1442
-10.2818 -13.3469 0 -111.338
-11.7922 45.6086 0 -85.7698
-3.63599 6.07678 0 -60.8664
-5.10831 -24.7098 0 -91.8347
-11.7113 14.267 0 -110.501
-8.30377 10.3315 0 -88.9875
1208.21 362.689 0 490.874
1179.91 193.977 0 161.67
3706.39 640.486 0 -15.6573
3409.32 1019.89 0 310.902
1158.11 278.913 0 309.305
2441.11 416.55 0 92.9715
3610.88 816.413 0 113.877
2257.12 676.269 0 447.588
2387.53 565.113 0 220.121
1179.91 193.977 0 161.67
1245.2 110.655 0 -36.3804
3778.35 275.038 0 -119.359
3706.39 640.486 0 -15.6573
1230.24 147.531 0 45.2936
2500.44 210.075 0 -66.5679
3738.53 444.41 0 -81.9497
2441.11 416.55 0 92.9715
2468.18 296.915 0 6.73083
1245.2 110.655 0 -36.3804
1249.96 35.9845 0 -126.709
3815.58 89.5968 0 -141.669
3778.35 275.038 0 -119.359
1243.06 69.4222 0 -90.7209
2531.4 75.881 0 -136.564
3813.42 163.8 0 -138.527
2500.44 210.075 0 -66.5679
2524.17 136.463 0 -114.543
1249.96 35.9845 0 -126.709
1253.92 0.709333 0 -159.497
3787.27 3.01274 0 -134.234
3815.58 89.5968 0 -141.669
1257.55 15.3816 0 -148.537
2524.1 9.05042 0 -153.389
3800.15 36.0766 0 -137.397
2531.4 75.881 0 -136.564
2529.86 34.8442 0 -146.934
1253.92 0.709333 0 -159.497
1240.6 -17.9155 0 -163.712
3753.47 -22.7631 0 -129.765
3787.27 3.01274 0 -134.234
1245.61 -11.0139 0 -163.387
2501.28 -19.5934 0 -152.696
3773.26 -14.0421 0 -132.038
2524.1 9.05042 0 -153.389
2514.08 -8.49441 0 -154.835
1240.6 -17.9155 0 -163.712
1229.37 -21.7988 0 -158.834
3714.16 -29.2973 0 -127.515
3753.47 -22.7631 0 -129.765
1236.25 -20.6512 0 -161.855
2474.81 -26.5918 0 -148.245
3731.95 -27.8677 0 -127.93
2501.28 -19.5934 0 -152.696
2487.65 -24.9866 0 -150.07
1229.37 -21.7988 0 -158.834
1216.02 -22.2423 0 -152.304
3682.29 -26.387 0 -128.451
3714.16 -29.2973 0 -127.515
1221.83 -22.4831 0 -155.416
2450.79 -26.0662 0 -144.454
3698.27 -28.2265 0 -127.908
2474.81 -26.5918 0 -148.245
2462.45 -26.7722 0 -146.367
1216.02 -22.2423 0 -152.304
1205.69 -20.3972 0 -147.291
3653.52 -22.5843 0 -130.243
3682.29 -26.387 0 -128.451
1210.99 -21.3378 0 -149.58
2430.09 -22.9528 0 -142.284
3667.01 -24.5717 0 -129.181
2450.79 -26.0662 0 -144.454
2439.98 -24.6635 0 -143.058
1205.69 -20.3972 0 -147.291
1196.12 -18.7875 0 -144.08
3629.06 -18.8425 0 -132.699
3653.52 -22.5843 0 -130.243
1200.55 -19.6047 0 -145.449
2412.3 -19.9742 0 -141.51
3641.11 -20.5739 0 -131.473
2430.09 -22.9528 0 -142.284
2420.9 -21.3762 0 -141.795
1196.12 -18.7875 0 -144.08
1188.07 -17.2773 0 -142.424
3606.5 -16.2209 0 -135.216
3629.06 -18.8425 0 -132.699
1192.07 -17.9713 0 -143.097
2396.52 -17.5818 0 -141.747
3617.47 -17.4316 0 -133.936
2412.3 -19.9742 0 -141.51
2404.21 -18.6997 0 -141.505
1188.07 -17.2773 0 -142.424
1180.57 -16.1931 0 -141.799
3585.55 -14.3461 0 -137.771
3606.5 -16.2209 0 -135.216
1184.2 -16.7055 0 -142.006
2382.02 -15.8911 0 -142.594
3595.95 -15.1829 0 -136.506
2396.52 -17.5818 0 -141.747
2389.16 -16.6549 0 -142.124
1180.57 -16.1931 0 -141.799
1173.62 -15.3308 0 -141.824
3565.29 -13.1136 0 -140.254
3585.55 -14.3461 0 -137.771
1177.07 -15.7291 0 -141.753
2368.28 -14.6972 0 -143.796
3575.33 -13.6734 0 -139.017
2382.02 -15.8911 0 -142.594
2375.08 -15.2434 0 -143.159
1173.62 -15.3308 0 -141.824
1166.88 -14.6715 0 -142.211
3545.49 -12.2458 0 -142.678
3565.29 -13.1136 0 -140.254
1170.21 -14.9853 0 -141.984
2354.94 -13.8482 0 -145.174
3555.36 -12.6397 0 -141.476
2368.28 -14.6972 0 -143.796
2361.57 -14.238 0 -144.473
1166.88 -14.6715 0 -142.211
1160.31 -14.1172 0 -142.79
3525.89 -11.6171 0 -145.032
3545.49 -12.2458 0 -142.678
1163.59 -14.3819 0 -142.485
2341.83 -13.204 0 -146.632
3535.67 -11.9109 0 -143.863
2354.94 -13.8482 0 -145.174
2348.37 -13.5066 0 -145.897
1160.31 -14.1172 0 -142.79
1153.81 -13.6375 0 -143.459
3506.41 -11.1136 0 -147.328
3525.89 -11.6171 0 -145.032
1157.05 -13.8712 0 -143.118
2328.83 -12.6816 0 -148.109
3516.15 -11.3528 0 -146.188
2341.83 -13.204 0 -146.632
2335.32 -12.9313 0 -147.371
1153.81 -13.6375 0 -143.459
1147.36 -13.1971 0 -144.164
3486.96 -10.6826 0 -149.566
3506.41 -11.1136 0 -147.328
1150.58 -13.413 0 -143.81
2315.88 -12.2263 0 -149.581
3496.68 -10.892 0 -148.453
2328.83 -12.6816 0 -148.109
2322.35 -12.4478 0 -148.847
1147.36 -13.1971 0 -144.164
1140.92 -12.7825 0 -144.877
3467.54 -10.2874 0 -151.754
3486.96 -10.6826 0 -149.566
1144.14 -12.9875 0 -144.521
2302.96 -11.8081 0 -151.031
3477.25 -10.4816 0 -150.666
2315.88 -12.2263 0 -149.581
2309.42 -12.0138 0 -150.309
1140.92 -12.7825 0 -144.877
1134.5 -12.3827 0 -145.584
3448.12 -9.91135 0 -153.894
3467.54 -10.2874 0 -151.754
1137.71 -12.581 0 -145.232
2290.04 -11.41 0 -152.455
3457.83 -10.0978 0 -152.83
2302.96 -11.8081 0 -151.031
2296.5 -11.6072 0 -151.746
1134.5 -12.3827 0 -145.584
1128.08 -11.9928 0 -146.279
3428.7 -9.54445 0 -155.989
3448.12 -9.91135 0 -153.894
1131.28 -12.1868 0 -145.933
2277.13 -11.023 0 -153.85
3438.41 -9.72705 0 -154.947
2290.04 -11.41 0 -152.455
2283.59 -11.2155 0 -153.156
1128.08 -11.9928 0 -146.279
1121.66 -11.6095 0 -146.96
3409.28 -9.1823 0 -158.041
3428.7 -9.54445 0 -155.989
1124.87 -11.8005 0 -146.621
2264.22 -10.6424 0 -155.217
3418.99 -9.36298 0 -157.021
2277.13 -11.023 0 -153.85
2270.68 -10.8321 0 -154.537
1121.66 -11.6095 0 -146.96
1115.24 -11.2309 0 -147.628
3389.86 -8.82246 0 -160.052
3409.28 -9.1823 0 -158.041
1118.45 -11.4197 0 -147.296
2251.31 -10.2657 0 -156.555
3399.57 -9.00217 0 -159.052
2264.22 -10.6424 0 -155.217
2257.77 -10.4537 0 -155.889
1115.24 -11.2309 0 -147.628
1108.82 -10.856 0 -148.281
3370.43 -8.46389 0 -162.021
3389.86 -8.82246 0 -160.052
1112.03 -11.043 0 -147.956
2238.4 -9.89157 0 -157.866
3380.15 -8.64307 0 -161.041
2251.31 -10.2657 0 -156.555
2244.86 -10.0784 0 -157.214
1108.82 -10.856 0 -148.281
1102.41 -10.4839 0 -148.92
3351.01 -8.10603 0 -163.951
3370.43 -8.46389 0 -162.021
1105.61 -10.6696 0 -148.602
2225.49 -9.51934 0 -159.15
3360.72 -8.28489 0 -162.991
2238.4 -9.89157 0 -157.866
2231.94 -9.70525 0 -158.511
1102.41 -10.4839 0 -148.92
1095.99 -10.1142 0 -149.546
3331.58 -7.74865 0 -165.841
3351.01 -8.10603 0 -163.951
1099.2 -10.2987 0 -149.235
2212.57 -9.14861 0 -160.408
3341.29 -7.92729 0 -164.901
2225.49 -9.51934 0 -159.15
2219.03 -9.3338 0 -159.782
1095.99 -10.1142 0 -149.546
1089.57 -9.74655 0 -150.158
3312.15 -7.39164 0 -167.692
3331.58 -7.74865 0 -165.841
1092.78 -9.93011 0 -149.854
2199.66 -8.77915 0 -161.639
3321.86 -7.5701 0 -166.771
2212.57 -9.14861 0 -160.408
2206.12 -8.96373 0 -161.027
1089.57 -9.74655 0 -150.158
1083.15 -9.38082 0 -150.758
3292.72 -7.03497 0 -169.505
3312.15 -7.39164 0 -167.692
1086.36 -9.56346 0 -150.46
2186.74 -8.41086 0 -162.845
3302.43 -7.21326 0 -168.603
2199.66 -8.77915 0 -161.639
2193.2 -8.59486 0 -162.245
1083.15 -9.38082 0 -150.758
1076.73 -9.01684 0 -151.344
3273.29 -6.67866 0 -171.28
3292.72 -7.03497 0 -169.505
1079.94 -9.19861 0 -151.053
2173.83 -8.04366 0 -164.025
3283 -6.85677 0 -170.397
2186.74 -8.41086 0 -162.845
2180.29 -8.22712 0 -163.438
1076.73 -9.01684 0 -151.344
1070.31 -8.65455 0 -151.918
3253.85 -6.32274 0 -173.016
3273.29 -6.67866 0 -171.28
1073.52 -8.83549 0 -151.633
2160.91 -7.67754 0 -165.179
3263.57 -6.50065 0 -172.153
2173.83 -8.04366 0 -164.025
2167.37 -7.86046 0 -164.605
1070.31 -8.65455 0 -151.918
1063.89 -8.2939 0 -152.479
3234.42 -5.96727 0 -174.715
3253.85 -6.32274 0 -173.016
1067.1 -8.47402 0 -152.2
2147.99 -7.31251 0 -166.309
3244.14 -6.14495 0 -173.871
2160.91 -7.67754 0 -165.179
2154.45 -7.49489 0 -165.747
1063.89 -8.2939 0 -152.479
1057.47 -7.93489 0 -153.028
3214.98 -5.61233 0 -176.377
3234.42 -5.96727 0 -174.715
1060.68 -8.11419 0 -152.755
2135.07 -6.94861 0 -167.413
3224.7 -5.78973 0 -175.551
2147.99 -7.31251 0 -166.309
2141.53 -7.13042 0 -166.864
1057.47 -7.93489 0 -153.028
1051.04 -7.57753 0 -153.564
3195.55 -5.25797 0 -178.001
3214.98 -5.61233 0 -176.377
1054.26 -7.756 0 -153.297
2122.15 -6.58586 0 -168.493
3205.27 -5.43507 0 -177.194
2135.07 -6.94861 0 -167.413
2128.61 -6.76709 0 -167.956
1051.04 -7.57753 0 -153.564
1044.62 -7.22183 0 -154.088
3176.11 -4.90429 0 -179.589
3195.55 -5.25797 0 -178.001
1047.83 -7.39947 0 -153.827
2109.23 -6.22433 0 -169.548
3185.83 -5.08104 0 -178.8
2122.15 -6.58586 0 -168.493
2115.69 -6.40494 0 -169.024
1044.62 -7.22183 0 -154.088
1038.2 -6.86781 0 -154.599
3156.68 -4.55137 0 -181.139
3176.11 -4.90429 0 -179.589
1041.41 -7.04461 0 -154.345
2096.31 -5.86405 0 -170.579
3166.39 -4.72773 0 -180.369
2109.23 -6.22433 0 -169.548
2102.77 -6.04403 0 -170.067
1038.2 -6.86781 0 -154.599
1031.77 -6.51552 0 -155.098
3137.24 -4.19928 0 -182.654
3156.68 -4.55137 0 -181.139
1034.99 -6.69145 0 -154.85
2083.39 -5.5051 0 -171.585
3146.96 -4.37522 0 -181.901
2096.31 -5.86405 0 -170.579
2089.85 -5.68441 0 -171.085
1031.77 -6.51552 0 -155.098
1025.35 -6.16496 0 -155.585
3117.8 -3.84812 0 -184.131
3137.24 -4.19928 0 -182.654
1028.56 -6.34002 0 -155.343
2070.47 -5.14751 0 -172.567
3127.52 -4.02358 0 -183.397
2083.39 -5.5051 0 -171.585
2076.93 -5.32613 0 -172.079
1025.35 -6.16496 0 -155.585
1018.92 -5.81617 0 -156.06
3098.36 -3.49795 0 -185.573
3117.8 -3.84812 0 -184.131
1022.14 -5.99034 0 -155.824
2057.54 -4.79136 0 -173.525
3108.08 -3.67291 0 -184.857
2070.47 -5.14751 0 -172.567
2064.01 -4.96926 0 -173.049
1018.92 -5.81617 0 -156.06
1012.5 -5.46919 0 -156.522
3078.93 -3.14887 0 -186.979
3098.36 -3.49795 0 -185.573
1015.71 -5.64246 0 -156.293
2044.62 -4.43669 0 -174.458
3088.65 -3.32327 0 -186.281
2057.54 -4.79136 0 -173.525
2051.08 -4.61384 0 -173.994
1012.5 -5.46919 0 -156.522
1006.07 -5.12403 0 -156.973
3059.49 -2.80095 0 -188.349
3078.93 -3.14887 0 -186.979
1009.29 -5.29638 0 -156.749
2031.7 -4.08355 0 -175.368
3069.21 -2.97476 0 -187.669
2044.62 -4.43669 0 -174.458
2038.16 -4.25993 0 -174.916
1006.07 -5.12403 0 -156.973
999.647 -4.78073 0 -157.412
3040.05 -2.45426 0 -189.684
3059.49 -2.80095 0 -188.349
1002.86 -4.95215 0 -157.194
2018.77 -3.732 0 -176.255
3049.77 -2.62744 0 -189.021
2031.7 -4.08355 0 -175.368
2025.24 -3.90758 0 -175.815
999.647 -4.78073 0 -157.412
993.221 -4.43931 0 -157.839
3020.61 -2.10888 0 -190.984
3040.05 -2.45426 0 -189.684
996.434 -4.60979 0 -157.627
2005.85 -3.38209 0 -177.118
3030.33 -2.2814 0 -190.339
2018.77 -3.732 0 -176.255
2012.31 -3.55684 0 -176.689
993.221 -4.43931 0 -157.839
986.794 -4.0998 0 -158.255
3001.18 -1.76488 0 -192.249
3020.61 -2.10888 0 -190.984
990.007 -4.26932 0 -158.049
1992.93 -3.03386 0 -177.958
3010.9 -1.9367 0 -191.621
2005.85 -3.38209 0 -177.118
1999.39 -3.20776 0 -177.541
986.794 -4.0998 0 -158.255
980.367 -3.76222 0 -158.659
2981.74 -1.42234 0 -193.479
3001.18 -1.76488 0 -192.249
983.581 -3.93077 0 -158.458
1980 -2.68737 0 -178.774
2991.46 -1.59342 0 -192.868
1992.93 -3.03386 0 -177.958
1986.47 -2.8604 0 -178.369
980.367 -3.76222 0 -158.659
973.94 -3.42659 0 -159.051
2962.3 -1.08131 0 -194.674
2981.74 -1.42234 0 -193.479
977.154 -3.59416 0 -158.856
1967.08 -2.34266 0 -179.568
2972.02 -1.25163 0 -194.081
1980 -2.68737 0 -178.774
1973.54 -2.51479 0 -179.174
973.94 -3.42659 0 -159.051
967.513 -3.09294 0 -159.432
2942.87 -0.741881 0 -195.836
2962.3 -1.08131 0 -194.674
970.727 -3.25952 0 -159.243
1954.16 -1.99977 0 -180.338
2952.58 -0.911394 0 -195.259
1967.08 -2.34266 0 -179.568
1960.62 -2.17098 0 -179.956
967.513 -3.09294 0 -159.432
961.086 -2.76129 0 -159.801
2923.43 -0.404106 0 -196.963
2942.87 -0.741881 0 -195.836
964.299 -2.92686 0 -159.618
1941.23 -1.65875 0 -181.086
2933.15 -0.572782 0 -196.404
1954.16 -1.99977 0 -180.338
1947.7 -1.82902 0 -180.715
961.086 -2.76129 0 -159.801
954.658 -2.43166 0 -160.159
2904 -0.0680541 0 -198.056
2923.43 -0.404106 0 -196.963
957.872 -2.59622 0 -159.981
1928.31 -1.31965 0 -181.811
2913.71 -0.235861 0 -197.514
1941.23 -1.65875 0 -181.086
1934.77 -1.48896 0 -181.452
954.658 -2.43166 0 -160.159
948.231 -2.10408 0 -160.506
2884.56 0.266211 0 -199.116
2904 -0.0680541 0 -198.056
951.444 -2.26761 0 -160.334
1915.39 -0.982503 0 -182.514
2894.28 0.0993057 0 -198.591
1928.31 -1.31965 0 -181.811
1921.85 -1.15083 0 -182.166
948.231 -2.10408 0 -160.506
941.803 -1.77855 0 -160.841
2865.13 0.598626 0 -200.143
2884.56 0.266211 0 -199.116
945.017 -1.94106 0 -160.675
1902.47 -0.647355 0 -183.195
2874.84 0.432654 0 -199.634
1915.39 -0.982503 0 -182.514
1908.93 -0.814677 0 -182.858
941.803 -1.77855 0 -160.841
935.375 -1.45512 0 -161.166
2845.69 0.92913 0 -201.136
2865.13 0.598626 0 -200.143
938.589 -1.61657 0 -161.005
1889.54 -0.314248 0 -183.854
2855.41 0.764121 0 -200.644
1902.47 -0.647355 0 -183.195
1896 -0.480544 0 -183.527
935.375 -1.45512 0 -161.166
928.947 -1.13379 0 -161.479
2826.26 1.25766 0 -202.097
2845.69 0.92913 0 -201.136
932.161 -1.29419 0 -161.324
1876.62 0.0167801 0 -184.49
2835.98 1.09365 0 -201.621
1889.54 -0.314248 0 -183.854
1883.08 -0.148472 0 -184.175
928.947 -1.13379 0 -161.479
922.519 -0.814577 0 -161.782
2806.83 1.58417 0 -203.025
2826.26 1.25766 0 -202.097
925.733 -0.973915 0 -161.632
1863.7 0.345689 0 -185.105
2816.55 1.42117 0 -202.565
1876.62 0.0167801 0 -184.49
1870.16 0.181502 0 -184.8
922.519 -0.814577 0 -161.782
916.091 -0.497513 0 -162.074
2787.4 1.90858 0 -203.92
2806.83 1.58417 0 -203.025
919.305 -0.655776 0 -161.929
1850.78 0.672441 0 -185.698
2797.11 1.74664 0 -203.476
1863.7 0.345689 0 -185.105
1857.24 0.509337 0 -185.405
916.091 -0.497513 0 -162.074
909.663 -0.18261 0 -162.355
2767.97 2.23085 0 -204.783
2787.4 1.90858 0 -203.92
912.877 -0.33979 0 -162.216
1837.86 0.996999 0 -186.27
2777.68 2.06999 0 -204.356
1850.78 0.672441 0 -185.698
1844.32 0.834997 0 -185.987
909.663 -0.18261 0 -162.355
903.235 0.130112 0 -162.625
2748.54 2.55093 0 -205.615
2767.97 2.23085 0 -204.783
906.449 -0.0259757 0 -162.491
1824.94 1.31932 0 -186.821
2758.25 2.39117 0 -205.203
1837.86 0.996999 0 -186.27
1831.4 1.15844 0 -186.548
903.235 0.130112 0 -162.625
896.807 0.440635 0 -162.884
2729.11 2.86875 0 -206.414
2748.54 2.55093 0 -205.615
900.021 0.285649 0 -162.756
1812.02 1.63938 0 -187.35
2738.83 2.71012 0 -206.018
1824.94 1.31932 0 -186.821
1818.48 1.47964 0 -187.088
896.807 0.440635 0 -162.884
890.38 0.748944 0 -163.134
2709.69 3.18426 0 -207.182
2729.11 2.86875 0 -206.414
893.594 0.595068 0 -163.01
1799.1 1.95714 0 -187.858
2719.4 3.0268 0 -206.802
1812.02 1.63938 0 -187.35
1805.56 1.79855 0 -187.606
890.38 0.748944 0 -163.134
883.952 1.05502 0 -163.372
2690.26 3.49742 0 -207.919
2709.69 3.18426 0 -207.182
887.166 0.902262 0 -163.254
1786.18 2.27256 0 -188.345
2699.97 3.34114 0 -207.554
1799.1 1.95714 0 -187.858
1792.64 2.11514 0 -188.104
883.952 1.05502 0 -163.372
877.524 1.35885 0 -163.6
2670.84 3.80817 0 -208.624
2690.26 3.49742 0 -207.919
880.738 1.20721 0 -163.488
1773.26 2.58561 0 -188.812
2680.55 3.6531 0 -208.275
1786.18 2.27256 0 -188.345
1779.72 2.42938 0 -188.581
877.524 1.35885 0 -163.6
871.097 1.66041 0 -163.818
2651.42 4.11646 0 -209.299
2670.84 3.80817 0 -208.624
874.31 1.50991 0 -163.711
1760.34 2.89626 0 -189.258
2661.13 3.96263 0 -208.966
1773.26 2.58561 0 -188.812
1766.8 2.74124 0 -189.037
871.097 1.66041 0 -163.818
864.669 1.95968 0 -164.026
2631.99 4.42225 0 -209.943
2651.42 4.11646 0 -209.299
867.883 1.81033 0 -163.923
1747.43 3.20447 0 -189.683
2641.7 4.26968 0 -209.625
1760.34 2.89626 0 -189.258
1753.88 3.05067 0 -189.473
864.669 1.95968 0 -164.026
858.242 2.25667 0 -164.223
2612.57 4.72549 0 -210.557
2631.99 4.42225 0 -209.943
861.456 2.10846 0 -164.126
1734.51 3.51022 0 -190.089
2622.28 4.5742 0 -210.254
1747.43 3.20447 0 -189.683
1740.97 3.35766 0 -189.889
858.242 2.25667 0 -164.223
851.815 2.55134 0 -164.411
2593.16 5.02614 0 -211.141
2612.57 4.72549 0 -210.557
855.028 2.40429 0 -164.318
1721.59 3.81347 0 -190.474
2602.87 4.87614 0 -210.853
1734.51 3.51022 0 -190.089
1728.05 3.66216 0 -190.284
851.815 2.55134 0 -164.411
845.388 2.84368 0 -164.588
2573.74 5.32414 0 -211.694
2593.16 5.02614 0 -211.141
848.601 2.6978 0 -164.501
1708.68 4.1142 0 -190.839
2583.45 5.17547 0 -211.421
1721.59 3.81347 0 -190.474
1715.14 3.96415 0 -190.659
845.388 2.84368 0 -164.588
838.961 3.13368 0 -164.756
2554.32 5.61946 0 -212.218
2573.74 5.32414 0 -211.694
842.175 2.98897 0 -164.673
1695.77 4.41237 0 -191.185
2564.03 5.47214 0 -211.96
1708.68 4.1142 0 -190.839
1702.22 4.26361 0 -191.015
838.961 3.13368 0 -164.756
832.535 3.42133 0 -164.913
2534.91 5.91205 0 -212.713
2554.32 5.61946 0 -212.218
835.748 3.2778 0 -164.836
1682.85 4.70796 0 -191.511
2544.62 5.7661 0 -212.469
1695.77 4.41237 0 -191.185
1689.31 4.56049 0 -191.35
832.535 3.42133 0 -164.913
826.108 3.70661 0 -165.061
2515.5 6.20188 0 -213.178
2534.91 5.91205 0 -212.713
829.322 3.56426 0 -164.989
1669.94 5.00094 0 -191.817
2525.2 6.05731 0 -212.949
1682.85 4.70796 0 -191.511
1676.4 4.85478 0 -191.666
826.108 3.70661 0 -165.061
819.682 3.9895 0 -165.2
2496.09 6.4889 0 -213.615
2515.5 6.20188 0 -213.178
822.895 3.84835 0 -165.132
1657.03 5.29129 0 -192.104
2505.79 6.34574 0 -213.4
1669.94 5.00094 0 -191.817
1663.49 5.14645 0 -191.963
819.682 3.9895 0 -165.2
813.257 4.27001 0 -165.328
2476.68 6.77308 0 -214.022
2496.09 6.4889 0 -213.615
816.469 4.13006 0 -165.265
1644.12 5.57898 0 -192.372
2486.38 6.63135 0 -213.822
1657.03 5.29129 0 -192.104
1650.57 5.43547 0 -192.24
813.257 4.27001 0 -165.328
806.831 4.5481 0 -165.447
2457.27 7.05437 0 -214.401
2476.68 6.77308 0 -214.022
810.044 4.40936 0 -165.389
1631.21 5.86397 0 -192.621
2466.98 6.91408 0 -214.215
1644.12 5.57898 0 -192.372
1637.66 5.72181 0 -192.499
806.831 4.5481 0 -165.447
800.406 4.82378 0 -165.557
2437.87 7.33274 0 -214.752
2457.27 7.05437 0 -214.401
803.618 4.68624 0 -165.503
1618.3 6.14626 0 -192.85
2447.57 7.19392 0 -214.58
1631.21 5.86397 0 -192.621
1624.76 6.00546 0 -192.738
800.406 4.82378 0 -165.557
793.981 5.09703 0 -165.657
2418.47 7.60816 0 -215.074
2437.87 7.33274 0 -214.752
797.193 4.96071 0 -165.608
1605.4 6.42582 0 -193.062
2428.17 7.47082 0 -214.917
1618.3 6.14626 0 -192.85
1611.85 6.28638 0 -192.958
793.981 5.09703 0 -165.657
787.556 5.36783 0 -165.748
2399.06 7.88059 0 -215.369
2418.47 7.60816 0 -215.074
790.768 5.23274 0 -165.704
1592.49 6.70262 0 -193.254
2408.76 7.74475 0 -215.225
1605.4 6.42582 0 -193.062
1598.94 6.56456 0 -193.16
787.556 5.36783 0 -165.748
781.132 5.63619 0 -165.83
2379.67 8.15 0 -215.636
2399.06 7.88059 0 -215.369
784.344 5.50232 0 -165.79
1579.58 6.97663 0 -193.428
2389.36 8.01567 0 -215.506
1592.49 6.70262 0 -193.254
1586.04 6.83997 0 -193.344
781.132 5.63619 0 -165.83
774.708 5.90208 0 -165.902
2360.27 8.41635 0 -215.876
2379.67 8.15 0 -215.636
777.92 5.76944 0 -165.867
1566.68 7.24785 0 -193.584
2369.97 8.28356 0 -215.759
1579.58 6.97663 0 -193.428
1573.13 7.1126 0 -193.509
774.708 5.90208 0 -165.902
768.284 6.16549 0 -165.966
2340.87 8.67962 0 -216.088
2360.27 8.41635 0 -215.876
771.496 6.03409 0 -165.935
1553.78 7.51625 0 -193.722
2350.57 8.54838 0 -215.985
1566.68 7.24785 0 -193.584
1560.23 7.38241 0 -193.655
768.284 6.16549 0 -165.966
761.86 6.42643 0 -166.02
2321.48 8.93978 0 -216.274
2340.87 8.67962 0 -216.088
765.072 6.29627 0 -165.994
1540.88 7.78181 0 -193.842
2331.18 8.81009 0 -216.184
1553.78 7.51625 0 -193.722
1547.33 7.64939 0 -193.784
761.86 6.42643 0 -166.02
755.437 6.68487 0 -166.066
2302.09 9.19678 0 -216.433
2321.48 8.93978 0 -216.274
758.649 6.55596 0 -166.044
1527.97 8.04451 0 -193.944
2311.78 9.06867 0 -216.357
1540.88 7.78181 0 -193.842
1534.42 7.91352 0 -193.895
755.437 6.68487 0 -166.066
749.015 6.9408 0 -166.103
2282.7 9.45062 0 -216.565
2302.09 9.19678 0 -216.433
752.226 6.81315 0 -166.085
1515.07 8.30433 0 -194.028
2292.39 9.3241 0 -216.502
1527.97 8.04451 0 -193.944
1521.52 8.17478 0 -193.988
749.015 6.9408 0 -166.103
742.592 7.19423 0 -166.131
2263.31 9.70126 0 -216.671
2282.7 9.45062 0 -216.565
745.803 7.06783 0 -166.118
1502.18 8.56125 0 -194.095
2273.01 9.57634 0 -216.621
1515.07 8.30433 0 -194.028
1508.63 8.43315 0 -194.064
742.592 7.19423 0 -166.131
736.17 7.44514 0 -166.15
2243.93 9.94867 0 -216.751
2263.31 9.70126 0 -216.671
739.381 7.32 0 -166.142
1489.28 8.81526 0 -194.144
2253.62 9.82537 0 -216.714
1502.18 8.56125 0 -194.095
1495.73 8.68862 0 -194.122
736.17 7.44514 0 -166.15
729.749 7.69352 0 -166.161
2224.54 10.1928 0 -216.805
2243.93 9.94867 0 -216.751
732.96 7.56965 0 -166.157
1476.38 9.06634 0 -194.177
2234.24 10.0712 0 -216.781
1489.28 8.81526 0 -194.144
1482.83 8.94116 0 -194.163
729.749 7.69352 0 -166.161
723.328 7.93937 0 -166.163
2205.16 10.4337 0 -216.834
2224.54 10.1928 0 -216.805
726.538 7.81676 0 -166.163
1463.49 9.31447 0 -194.192
2214.85 10.3137 0 -216.822
1476.38 9.06634 0 -194.177
1469.94 9.19077 0 -194.186
723.328 7.93937 0 -166.163
716.907 8.18267 0 -166.157
2185.78 10.6713 0 -216.837
2205.16 10.4337 0 -216.834
720.117 8.06134 0 -166.161
1450.6 9.55964 0 -194.19
2195.47 10.5529 0 -216.838
1463.49 9.31447 0 -194.192
1457.04 9.43742 0 -194.193
716.907 8.18267 0 -166.157
710.486 8.42343 0 -166.142
2166.41 10.9056 0 -216.815
2185.78 10.6713 0 -216.837
713.697 8.30337 0 -166.151
1437.7 9.80183 0 -194.172
2176.1 10.7889 0 -216.829
1450.6 9.55964 0 -194.19
1444.15 9.68111 0 -194.183
710.486 8.42343 0 -166.142
704.067 8.66162 0 -166.119
2147.03 11.1365 0 -216.768
2166.41 10.9056 0 -216.815
707.276 8.54284 0 -166.132
1424.81 10.041 0 -194.136
2156.72 11.0215 0 -216.794
1437.7 9.80183 0 -194.172
1431.26 9.92181 0 -194.156
704.067 8.66162 0 -166.119
697.647 8.89726 0 -166.088
2127.66 11.3641 0 -216.696
2147.03 11.1365 0 -216.768
700.857 8.77976 0 -166.105
1411.92 10.2772 0 -194.085
2137.35 11.2507 0 -216.735
1424.81 10.041 0 -194.136
1418.37 10.1595 0 -194.113
697.647 8.89726 0 -166.088
691.228 9.13032 0 -166.049
2108.29 11.5883 0 -216.6
2127.66 11.3641 0 -216.696
694.437 9.01411 0 -166.07
1399.03 10.5104 0 -194.017
2117.98 11.4766 0 -216.651
1411.92 10.2772 0 -194.085
1405.48 10.3942 0 -194.053
691.228 9.13032 0 -166.049
684.809 9.36081 0 -166.002
2088.93 11.8091 0 -216.48
2108.29 11.5883 0 -216.6
688.019 9.24589 0 -166.026
1386.15 10.7406 0 -193.933
2098.61 11.6991 0 -216.543
1399.03 10.5104 0 -194.017
1392.59 10.6259 0 -193.977
684.809 9.36081 0 -166.002
678.391 9.58872 0 -165.946
2069.56 12.0264 0 -216.336
2088.93 11.8091 0 -216.48
681.6 9.47509 0 -165.975
1373.26 10.9677 0 -193.833
2079.24 11.9182 0 -216.411
1386.15 10.7406 0 -193.933
1379.7 10.8545 0 -193.885
678.391 9.58872 0 -165.946
671.973 9.81404 0 -165.883
2050.2 12.2404 0 -216.168
2069.56 12.0264 0 -216.336
675.182 9.7017 0 -165.916
1360.38 11.1918 0 -193.718
2059.88 12.1339 0 -216.255
1373.26 10.9677 0 -193.833
1366.82 11.0801 0 -193.777
671.973 9.81404 0 -165.883
665.556 10.0368 0 -165.812
2030.84 12.4509 0 -215.976
2050.2 12.2404 0 -216.168
668.764 9.92573 0 -165.849
1347.49 11.4128 0 -193.586
2040.52 12.3461 0 -216.075
1360.38 11.1918 0 -193.718
1353.94 11.3027 0 -193.654
665.556 10.0368 0 -165.812
659.139 10.2569 0 -165.733
2011.48 12.6579 0 -215.762
2030.84 12.4509 0 -215.976
662.347 10.1472 0 -165.774
1334.61 11.6307 0 -193.439
2021.16 12.5548 0 -215.872
1347.49 11.4128 0 -193.586
1341.05 11.5221 0 -193.515
659.139 10.2569 0 -165.733
652.723 10.4744 0 -165.647
1992.13 12.8615 0 -215.524
2011.48 12.6579 0 -215.762
655.931 10.366 0 -165.691
1321.73 11.8456 0 -193.277
2001.8 12.7602 0 -215.645
1334.61 11.6307 0 -193.439
1328.17 11.7385 0 -193.36
652.723 10.4744 0 -165.647
646.307 10.6894 0 -165.553
1972.77 13.0616 0 -215.263
1992.13 12.8615 0 -215.524
649.514 10.5822 0 -165.601
1308.85 12.0574 0 -193.099
1982.45 12.962 0 -215.396
1321.73 11.8456 0 -193.277
1315.29 11.9519 0 -193.19
646.307 10.6894 0 -165.553
639.891 10.9017 0 -165.451
1953.42 13.2582 0 -214.979
1972.77 13.0616 0 -215.263
643.099 10.7959 0 -165.503
1295.98 12.266 0 -192.906
1963.1 13.1603 0 -215.124
1308.85 12.0574 0 -193.099
1302.41 12.1621 0 -193.005
639.891 10.9017 0 -165.451
633.476 11.1114 0 -165.342
1934.07 13.4512 0 -214.673
1953.42 13.2582 0 -214.979
636.683 11.0069 0 -165.398
1283.1 12.4716 0 -192.699
1943.75 13.3551 0 -214.829
1295.98 12.266 0 -192.906
1289.54 12.3692 0 -192.805
633.476 11.1114 0 -165.342
627.061 11.3185 0 -165.226
1914.73 13.6408 0 -214.345
1934.07 13.4512 0 -214.673
630.269 11.2153 0 -165.285
1270.23 12.6741 0 -192.476
1924.4 13.5464 0 -214.512
1283.1 12.4716 0 -192.699
1276.66 12.5732 0 -192.589
627.061 11.3185 0 -165.226
620.647 11.523 0 -165.102
1895.38 13.8268 0 -213.995
1914.73 13.6408 0 -214.345
623.854 11.4211 0 -165.165
1257.35 12.8734 0 -192.239
1905.06 13.7342 0 -214.173
1270.23 12.6741 0 -192.476
1263.79 12.7741 0 -192.36
620.647 11.523 0 -165.102
614.234 11.7249 0 -164.971
1876.04 14.0093 0 -213.624
1895.38 13.8268 0 -213.995
617.44 11.6243 0 -165.037
1244.48 13.0697 0 -191.988
1885.71 13.9185 0 -213.812
1257.35 12.8734 0 -192.239
1250.92 12.9719 0 -192.116
614.234 11.7249 0 -164.971
607.821 11.9241 0 -164.833
1856.7 14.1882 0 -213.23
1876.04 14.0093 0 -213.624
611.027 11.8248 0 -164.903
1231.61 13.2628 0 -191.722
1866.37 14.0992 0 -213.43
1244.48 13.0697 0 -191.988
1238.04 13.1666 0 -191.857
607.821 11.9241 0 -164.833
601.408 12.1207 0 -164.688
1837.37 14.3636 0 -212.816
1856.7 14.1882 0 -213.23
604.614 12.0227 0 -164.761
1218.74 13.4527 0 -191.442
1847.04 14.2763 0 -213.026
1231.61 13.2628 0 -191.722
1225.17 13.3581 0 -191.584
601.408 12.1207 0 -164.688
594.996 12.3147 0 -164.536
1818.03 14.5354 0 -212.38
1837.37 14.3636 0 -212.816
598.202 12.218 0 -164.613
1205.87 13.6396 0 -191.148
1827.7 14.4499 0 -212.601
1218.74 13.4527 0 -191.442
1212.31 13.5466 0 -191.297
594.996 12.3147 0 -164.536
588.584 12.5061 0 -164.377
1798.7 14.7036 0 -211.924
1818.03 14.5354 0 -212.38
591.79 12.4107 0 -164.457
1193.01 13.8233 0 -190.84
1808.37 14.62 0 -212.155
1205.87 13.6396 0 -191.148
1199.44 13.7318 0 -190.996
588.584 12.5061 0 -164.377
582.173 12.6948 0 -164.211
1779.37 14.8683 0 -211.447
1798.7 14.7036 0 -211.924
585.378 12.6007 0 -164.295
1180.14 14.0038 0 -190.519
1789.04 14.7864 0 -211.688
1193.01 13.8233 0 -190.84
1186.57 13.914 0 -190.681
582.173 12.6948 0 -164.211
575.762 12.8809 0 -164.038
1760.05 15.0294 0 -210.949
1779.37 14.8683 0 -211.447
578.967 12.7882 0 -164.125
1167.28 14.1813 0 -190.184
1769.71 14.9493 0 -211.2
1180.14 14.0038 0 -190.519
1173.71 14.093 0 -190.353
575.762 12.8809 0 -164.038
569.352 13.0644 0 -163.859
1740.72 15.187 0 -210.432
1760.05 15.0294 0 -210.949
572.557 12.9729 0 -163.949
1154.42 14.3555 0 -189.835
1750.39 15.1087 0 -210.693
1167.28 14.1813 0 -190.184
1160.85 14.2688 0 -190.011
569.352 13.0644 0 -163.859
562.942 13.2452 0 -163.673
1721.4 15.3409 0 -209.894
1740.72 15.187 0 -210.432
566.147 13.1551 0 -163.767
1141.55 14.5267 0 -189.473
1731.06 15.2644 0 -210.165
1154.42 14.3555 0 -189.835
1147.98 14.4415 0 -189.656
562.942 13.2452 0 -163.673
556.533 13.4234 0 -163.481
1702.08 15.4913 0 -209.337
1721.4 15.3409 0 -209.894
559.737 13.3346 0 -163.578
1128.7 14.6947 0 -189.098
1711.74 15.4166 0 -209.618
1141.55 14.5267 0 -189.473
1135.12 14.6111 0 -189.287
556.533 13.4234 0 -163.481
550.124 13.599 0 -163.282
1682.77 15.6381 0 -208.76
1702.08 15.4913 0 -209.337
553.328 13.5115 0 -163.382
1115.84 14.8595 0 -188.71
1692.43 15.5652 0 -209.051
1128.7 14.6947 0 -189.098
1122.27 14.7775 0 -188.906
550.124 13.599 0 -163.282
543.716 13.7719 0 -163.076
1663.45 15.7814 0 -208.164
1682.77 15.6381 0 -208.76
546.92 13.6858 0 -163.18
1102.98 15.0212 0 -188.31
1673.11 15.7102 0 -208.464
1115.84 14.8595 0 -188.71
1109.41 14.9407 0 -188.512
543.716 13.7719 0 -163.076
537.308 13.9422 0 -162.865
1644.14 15.921 0 -207.549
1663.45 15.7814 0 -208.164
540.512 13.8574 0 -162.971
1090.13 15.1797 0 -187.896
1653.8 15.8516 0 -207.859
1102.98 15.0212 0 -188.31
1096.55 15.1009 0 -188.104
537.308 13.9422 0 -162.865
530.9 14.1099 0 -162.647
1624.83 16.0571 0 -206.915
1644.14 15.921 0 -207.549
534.104 14.0264 0 -162.757
1077.27 15.3352 0 -187.47
1634.49 15.9895 0 -207.234
1090.13 15.1797 0 -187.896
1083.7 15.2578 0 -187.685
530.9 14.1099 0 -162.647
524.494 14.275 0 -162.423
1605.53 16.1896 0 -206.263
1624.83 16.0571 0 -206.915
527.697 14.1928 0 -162.536
1064.42 15.4874 0 -187.032
1615.18 16.1238 0 -206.591
1077.27 15.3352 0 -187.47
1070.85 15.4117 0 -187.253
524.494 14.275 0 -162.423
518.087 14.4374 0 -162.193
1586.22 16.3185 0 -205.592
1605.53 16.1896 0 -206.263
521.29 14.3565 0 -162.309
1051.57 15.6365 0 -186.581
1595.87 16.2545 0 -205.93
1064.42 15.4874 0 -187.032
1057.99 15.5624 0 -186.808
518.087 14.4374 0 -162.193
511.681 14.5972 0 -161.957
1566.92 16.4439 0 -204.903
1586.22 16.3185 0 -205.592
514.884 14.5176 0 -162.076
1038.72 15.7825 0 -186.119
1576.57 16.3816 0 -205.25
1051.57 15.6365 0 -186.581
1045.14 15.7099 0 -186.352
511.681 14.5972 0 -161.957
505.276 14.7544 0 -161.715
1547.62 16.5657 0 -204.196
1566.92 16.4439 0 -204.903
508.478 14.6761 0 -161.837
1025.87 15.9254 0 -185.644
1557.27 16.5052 0 -204.552
1038.72 15.7825 0 -186.119
1032.3 15.8543 0 -185.883
505.276 14.7544 0 -161.715
498.871 14.9089 0 -161.467
1528.32 16.6839 0 -203.472
1547.62 16.5657 0 -204.196
502.073 14.832 0 -161.592
1013.02 16.0651 0 -185.158
1537.97 16.6253 0 -203.836
1025.87 15.9254 0 -185.644
1019.45 15.9956 0 -185.403
498.871 14.9089 0 -161.467
492.466 15.0609 0 -161.214
1509.03 16.7986 0 -202.73
1528.32 16.6839 0 -203.472
495.668 14.9852 0 -161.341
1000.18 16.2017 0 -184.66
1518.67 16.7417 0 -203.103
1013.02 16.0651 0 -185.158
1006.6 16.1338 0 -184.911
492.466 15.0609 0 -161.214
486.062 15.2102 0 -160.954
1489.74 16.9098 0 -201.971
1509.03 16.7986 0 -202.73
489.264 15.1359 0 -161.085
987.335 16.3351 0 -184.151
1499.38 16.8546 0 -202.352
1000.18 16.2017 0 -184.66
993.757 16.2688 0 -184.407
486.062 15.2102 0 -160.954
479.658 15.3569 0 -160.69
1470.45 17.0174 0 -201.194
1489.74 16.9098 0 -201.971
482.86 15.2839 0 -160.823
974.493 16.4655 0 -183.63
1480.09 16.964 0 -201.585
987.335 16.3351 0 -184.151
980.914 16.4007 0 -183.892
479.658 15.3569 0 -160.69
473.255 15.501 0 -160.419
1451.16 17.1215 0 -200.401
1470.45 17.0174 0 -201.194
476.457 15.4293 0 -160.555
961.651 16.5927 0 -183.099
1460.8 17.0699 0 -200.8
974.493 16.4655 0 -183.63
968.072 16.5295 0 -183.366
473.255 15.501 0 -160.419
466.853 15.6425 0 -160.143
1431.87 17.222 0 -199.592
1451.16 17.1215 0 -200.401
470.054 15.5721 0 -160.282
948.811 16.7169 0 -182.556
1441.52 17.1722 0 -199.999
961.651 16.5927 0 -183.099
955.231 16.6552 0 -182.828
466.853 15.6425 0 -160.143
460.45 15.7813 0 -159.862
1412.59 17.3191 0 -198.766
1431.87 17.222 0 -199.592
463.651 15.7122 0 -160.003
935.973 16.8379 0 -182.002
1422.23 17.271 0 -199.181
948.811 16.7169 0 -182.556
942.392 16.7778 0 -182.28
460.45 15.7813 0 -159.862
454.048 15.9176 0 -159.575
1393.31 17.4126 0 -197.924
1412.59 17.3191 0 -198.766
457.249 15.8498 0 -159.719
923.136 16.9558 0 -181.438
1402.95 17.3663 0 -198.347
935.973 16.8379 0 -182.002
929.554 16.8973 0 -181.721
454.048 15.9176 0 -159.575
447.647 16.0513 0 -159.284
1374.03 17.5027 0 -197.066
1393.31 17.4126 0 -197.924
450.848 15.9848 0 -159.43
910.3 17.0707 0 -180.863
1383.67 17.4581 0 -197.497
923.136 16.9558 0 -181.438
916.718 17.0137 0 -181.151
447.647 16.0513 0 -159.284
441.246 16.1824 0 -158.987
1354.76 17.5893 0 -196.192
1374.03 17.5027 0 -197.066
444.447 16.1172 0 -159.136
897.465 17.1825 0 -180.277
1364.39 17.5464 0 -196.631
910.3 17.0707 0 -180.863
903.882 17.127 0 -180.571
441.246 16.1824 0 -158.987
434.846 16.3109 0 -158.684
1335.48 17.6724 0 -195.303
1354.76 17.5893 0 -196.192
438.046 16.2469 0 -158.836
884.632 17.2912 0 -179.682
1345.12 17.6313 0 -195.749
897.465 17.1825 0 -180.277
891.048 17.2372 0 -179.981
434.846 16.3109 0 -158.684
428.445 16.4368 0 -158.377
1316.21 17.752 0 -194.399
1335.48 17.6724 0 -195.303
431.645 16.3741 0 -158.531
871.8 17.3968 0 -179.076
1325.85 17.7126 0 -194.853
884.632 17.2912 0 -179.682
878.216 17.3444 0 -179.38
428.445 16.4368 0 -158.377
422.046 16.5601 0 -158.065
1296.94 17.8282 0 -193.479
1316.21 17.752 0 -194.399
425.246 16.4987 0 -158.222
858.969 17.4994 0 -178.46
1306.58 17.7906 0 -193.941
871.8 17.3968 0 -179.076
865.384 17.4485 0 -178.769
422.046 16.5601 0 -158.065
415.646 16.6808 0 -157.748
1277.67 17.901 0 -192.545
1296.94 17.8282 0 -193.479
418.846 16.6208 0 -157.907
846.14 17.5989 0 -177.834
1287.31 17.8651 0 -193.014
858.969 17.4994 0 -178.46
852.554 17.5495 0 -178.148
415.646 16.6808 0 -157.748
409.248 16.799 0 -157.427
1258.41 17.9704 0 -191.597
1277.67 17.901 0 -192.545
412.447 16.7402 0 -157.588
833.312 17.6954 0 -177.199
1268.04 17.9361 0 -192.073
846.14 17.5989 0 -177.834
839.726 17.6476 0 -177.518
409.248 16.799 0 -157.427
402.849 16.9146 0 -157.1
1239.15 18.0363 0 -190.633
1258.41 17.9704 0 -191.597
406.048 16.8571 0 -157.264
820.485 17.7889 0 -176.554
1248.78 18.0038 0 -191.117
833.312 17.6954 0 -177.199
826.898 17.7426 0 -176.878
402.849 16.9146 0 -157.1
396.451 17.0276 0 -156.769
1219.89 18.0989 0 -189.656
1239.15 18.0363 0 -190.633
399.65 16.9714 0 -156.935
807.659 17.8794 0 -175.9
1229.52 18.068 0 -190.147
820.485 17.7889 0 -176.554
814.072 17.8345 0 -176.228
396.451 17.0276 0 -156.769
390.053 17.1381 0 -156.433
1200.63 18.1581 0 -188.665
1219.89 18.0989 0 -189.656
393.252 17.0832 0 -156.602
794.835 17.9668 0 -175.237
1210.26 18.1289 0 -189.163
807.659 17.8794 0 -175.9
801.247 17.9235 0 -175.569
390.053 17.1381 0 -156.433
383.656 17.246 0 -156.093
1181.37 18.214 0 -187.661
1200.63 18.1581 0 -188.665
386.855 17.1924 0 -156.264
782.011 18.0513 0 -174.564
1191 18.1864 0 -188.165
794.835 17.9668 0 -175.237
788.423 18.0094 0 -174.902
383.656 17.246 0 -156.093
377.259 17.3514 0 -155.749
1162.12 18.2665 0 -186.642
1181.37 18.214 0 -187.661
380.457 17.299 0 -155.922
769.189 18.1328 0 -173.883
1171.75 18.2406 0 -187.153
782.011 18.0513 0 -174.564
775.6 18.0924 0 -174.225
377.259 17.3514 0 -155.749
370.862 17.4542 0 -155.4
1142.87 18.3156 0 -185.611
1162.12 18.2665 0 -186.642
374.061 17.4031 0 -155.575
756.369 18.2113 0 -173.192
1152.49 18.2915 0 -186.128
769.189 18.1328 0 -173.883
762.779 18.1724 0 -173.539
370.862 17.4542 0 -155.4
364.466 17.5545 0 -155.047
1123.62 18.3615 0 -184.567
1142.87 18.3156 0 -185.611
367.664 17.5047 0 -155.224
743.549 18.2868 0 -172.494
1133.24 18.339 0 -185.09
756.369 18.2113 0 -173.192
749.959 18.2494 0 -172.844
364.466 17.5545 0 -155.047
358.07 17.6523 0 -154.689
1104.37 18.4041 0 -183.509
1123.62 18.3615 0 -184.567
361.268 17.6038 0 -154.868
730.73 18.3594 0 -171.786
1113.99 18.3832 0 -184.039
743.549 18.2868 0 -172.494
737.139 18.3235 0 -172.141
358.07 17.6523 0 -154.689
351.675 17.7476 0 -154.328
1085.13 18.4434 0 -182.44
1104.37 18.4041 0 -183.509
354.872 17.7003 0 -154.509
717.913 18.4291 0 -171.071
1094.75 18.4242 0 -182.976
730.73 18.3594 0 -171.786
724.321 18.3946 0 -171.429
351.675 17.7476 0 -154.328
345.279 17.8403 0 -153.962
1065.88 18.4795 0 -181.357
1085.13 18.4434 0 -182.44
348.477 17.7943 0 -154.145
705.097 18.4958 0 -170.347
1075.5 18.4619 0 -181.9
717.913 18.4291 0 -171.071
711.505 18.4628 0 -170.71
345.279 17.8403 0 -153.962
338.885 17.9306 0 -153.593
1046.64 18.5123 0 -180.263
1065.88 18.4795 0 -181.357
342.082 17.8857 0 -153.778
692.281 18.5596 0 -169.615
1056.26 18.4963 0 -180.812
705.097 18.4958 0 -170.347
698.689 18.5281 0 -169.982
338.885 17.9306 0 -153.593
332.49 18.0183 0 -153.219
1027.4 18.542 0 -179.157
1046.64 18.5123 0 -180.263
335.687 17.9747 0 -153.406
679.467 18.6205 0 -168.875
1037.02 18.5276 0 -179.712
692.281 18.5596 0 -169.615
685.874 18.5904 0 -169.246
332.49 18.0183 0 -153.219
326.096 18.1035 0 -152.842
1008.16 18.5684 0 -178.039
1027.4 18.542 0 -179.157
329.293 18.0612 0 -153.031
666.654 18.6786 0 -168.127
1017.78 18.5556 0 -178.6
679.467 18.6205 0 -168.875
673.061 18.6499 0 -168.502
326.096 18.1035 0 -152.842
319.702 18.1863 0 -152.461
988.928 18.5917 0 -176.91
1008.16 18.5684 0 -178.039
322.899 18.1452 0 -152.652
653.842 18.7338 0 -167.372
998.545 18.5805 0 -177.476
666.654 18.6786 0 -168.127
660.248 18.7065 0 -167.751
319.702 18.1863 0 -152.461
313.308 18.2665 0 -152.076
969.694 18.6118 0 -175.769
988.928 18.5917 0 -176.91
316.505 18.2267 0 -152.269
641.032 18.7861 0 -166.609
979.311 18.6022 0 -176.341
653.842 18.7338 0 -167.372
647.437 18.7603 0 -166.992
313.308 18.2665 0 -152.076
306.915 18.3443 0 -151.688
950.462 18.6288 0 -174.618
969.694 18.6118 0 -175.769
310.111 18.3057 0 -151.883
628.222 18.8356 0 -165.84
960.078 18.6207 0 -175.195
641.032 18.7861 0 -166.609
634.626 18.8112 0 -166.225
306.915 18.3443 0 -151.688
300.522 18.4197 0 -151.296
931.232 18.6427 0 -173.455
950.462 18.6288 0 -174.618
303.718 18.3823 0 -151.493
615.413 18.8822 0 -165.062
940.847 18.6362 0 -174.038
628.222 18.8356 0 -165.84
621.817 18.8592 0 -165.452
300.522 18.4197 0 -151.296
294.129 18.4925 0 -150.901
912.004 18.6536 0 -172.283
931.232 18.6427 0 -173.455
297.325 18.4564 0 -151.099
602.605 18.9261 0 -164.278
921.618 18.6485 0 -172.87
615.413 18.8822 0 -165.062
609.009 18.9045 0 -164.671
294.129 18.4925 0 -150.901
287.736 18.563 0 -150.503
892.778 18.6613 0 -171.099
912.004 18.6536 0 -172.283
290.932 18.528 0 -150.702
589.798 18.9671 0 -163.487
902.391 18.6578 0 -171.692
602.605 18.9261 0 -164.278
596.201 18.9469 0 -163.884
287.736 18.563 0 -150.503
281.344 18.6309 0 -150.101
873.553 18.6661 0 -169.906
892.778 18.6613 0 -171.099
284.54 18.5972 0 -150.302
576.992 19.0054 0 -162.69
883.165 18.6641 0 -170.504
589.798 18.9671 0 -163.487
583.395 18.9866 0 -163.089
281.344 18.6309 0 -150.101
274.952 18.6965 0 -149.696
854.33 18.6678 0 -168.702
873.553 18.6661 0 -169.906
278.148 18.664 0 -149.899
564.187 19.0409 0 -161.885
863.942 18.6673 0 -169.305
576.992 19.0054 0 -162.69
570.589 19.0235 0 -162.288
274.952 18.6965 0 -149.696
268.56 18.7596 0 -149.287
835.109 18.6665 0 -167.489
854.33 18.6678 0 -168.702
271.756 18.7283 0 -149.492
551.383 19.0737 0 -161.075
844.72 18.6675 0 -168.097
564.187 19.0409 0 -161.885
557.785 19.0576 0 -161.481
268.56 18.7596 0 -149.287
262.168 18.8203 0 -148.876
815.89 18.6623 0 -166.267
835.109 18.6665 0 -167.489
265.364 18.7903 0 -149.082
538.58 19.1037 0 -160.258
825.499 18.6648 0 -166.879
551.383 19.0737 0 -161.075
544.981 19.089 0 -160.667
262.168 18.8203 0 -148.876
255.777 18.8786 0 -148.462
796.672 18.6551 0 -165.035
815.89 18.6623 0 -166.267
258.973 18.8498 0 -148.669
525.777 19.131 0 -159.435
806.281 18.6591 0 -165.652
538.58 19.1037 0 -160.258
532.178 19.1177 0 -159.847
255.777 18.8786 0 -148.462
249.386 18.9345 0 -148.044
777.456 18.6451 0 -163.794
796.672 18.6551 0 -165.035
252.581 18.9068 0 -148.253
512.976 19.1556 0 -158.605
787.064 18.6505 0 -164.416
525.777 19.131 0 -159.435
519.376 19.1436 0 -159.021
249.386 18.9345 0 -148.044
242.995 18.988 0 -147.624
758.241 18.6321 0 -162.545
777.456 18.6451 0 -163.794
246.19 18.9615 0 -147.835
500.175 19.1776 0 -157.77
767.848 18.639 0 -163.171
512.976 19.1556 0 -158.605
506.575 19.1669 0 -158.189
242.995 18.988 0 -147.624
236.604 19.0391 0 -147.201
739.028 18.6163 0 -161.286
758.241 18.6321 0 -162.545
239.799 19.0139 0 -147.413
487.375 19.1968 0 -156.93
748.634 18.6246 0 -161.917
500.175 19.1776 0 -157.77
493.775 19.1875 0 -157.351
236.604 19.0391 0 -147.201
230.213 19.0879 0 -146.776
719.816 18.5976 0 -160.02
739.028 18.6163 0 -161.286
233.408 19.0638 0 -146.989
474.576 19.2135 0 -156.084
729.422 18.6073 0 -160.654
487.375 19.1968 0 -156.93
480.976 19.2055 0 -156.507
230.213 19.0879 0 -146.776
223.822 19.1342 0 -146.347
700.606 18.5762 0 -158.745
719.816 18.5976 0 -160.02
227.018 19.1113 0 -146.562
461.778 19.2275 0 -155.232
710.211 18.5873 0 -159.383
474.576 19.2135 0 -156.084
468.177 19.2208 0 -155.659
223.822 19.1342 0 -146.347
217.432 19.1783 0 -145.917
681.398 18.5519 0 -157.462
700.606 18.5762 0 -158.745
220.627 19.1565 0 -146.132
448.98 19.2389 0 -154.375
691.002 18.5644 0 -158.105
461.778 19.2275 0 -155.232
455.379 19.2335 0 -154.804
217.432 19.1783 0 -145.917
211.042 19.2199 0 -145.483
662.19 18.5249 0 -156.172
681.398 18.5519 0 -157.462
214.237 19.1994 0 -145.7
436.184 19.2476 0 -153.513
671.794 18.5388 0 -156.818
448.98 19.2389 0 -154.375
442.582 19.2436 0 -153.945
211.042 19.2199 0 -145.483
204.652 19.2593 0 -145.047
642.985 18.4952 0 -154.874
662.19 18.5249 0 -156.172
207.847 19.2399 0 -145.266
423.387 19.2539 0 -152.646
652.587 18.5104 0 -155.524
436.184 19.2476 0 -153.513
429.785 19.2511 0 -153.081
204.652 19.2593 0 -145.047
198.262 19.2963 0 -144.609
623.78 18.4628 0 -153.569
642.985 18.4952 0 -154.874
201.457 19.2781 0 -144.829
410.592 19.2575 0 -151.775
633.382 18.4793 0 -154.222
423.387 19.2539 0 -152.646
416.99 19.256 0 -152.211
198.262 19.2963 0 -144.609
191.872 19.3309 0 -144.169
604.577 18.4277 0 -152.257
623.78 18.4628 0 -153.569
195.067 19.3139 0 -144.389
397.797 19.2586 0 -150.898
614.178 18.4456 0 -152.914
410.592 19.2575 0 -151.775
404.195 19.2584 0 -151.337
191.872 19.3309 0 -144.169
185.482 19.3632 0 -143.726
585.375 18.3899 0 -150.938
604.577 18.4277 0 -152.257
188.677 19.3474 0 -143.948
385.003 19.2572 0 -150.018
594.976 18.4091 0 -151.598
397.797 19.2586 0 -150.898
391.4 19.2582 0 -150.459
185.482 19.3632 0 -143.726
179.092 19.3933 0 -143.282
566.175 18.3495 0 -149.612
585.375 18.3899 0 -150.938
182.287 19.3785 0 -143.504
372.21 19.2533 0 -149.132
575.775 18.3701 0 -150.276
385.003 19.2572 0 -150.018
378.606 19.2556 0 -149.575
179.092 19.3933 0 -143.282
172.702 19.4209 0 -142.835
546.975 18.3065 0 -148.28
566.175 18.3495 0 -149.612
175.897 19.4074 0 -143.059
359.417 19.2468 0 -148.243
556.575 18.3284 0 -148.947
372.21 19.2533 0 -149.132
365.813 19.2504 0 -148.688
172.702 19.4209 0 -142.835
166.313 19.4463 0 -142.386
527.777 18.261 0 -146.942
546.975 18.3065 0 -148.28
169.508 19.4339 0 -142.611
346.625 19.2379 0 -147.349
537.376 18.2841 0 -147.612
359.417 19.2468 0 -148.243
353.021 19.2427 0 -147.797
166.313 19.4463 0 -142.386
159.923 19.4693 0 -141.936
508.58 18.2128 0 -145.598
527.777 18.261 0 -146.942
163.118 19.4581 0 -142.161
333.833 19.2265 0 -146.452
518.179 18.2372 0 -146.27
346.625 19.2379 0 -147.349
340.229 19.2325 0 -146.901
159.923 19.4693 0 -141.936
153.534 19.4901 0 -141.484
489.385 18.1622 0 -144.248
508.58 18.2128 0 -145.598
156.729 19.48 0 -141.71
321.042 19.2126 0 -145.551
498.982 18.1878 0 -144.923
333.833 19.2265 0 -146.452
327.437 19.2198 0 -146.002
153.534 19.4901 0 -141.484
147.145 19.5085 0 -141.03
470.19 18.109 0 -142.893
489.385 18.1622 0 -144.248
150.34 19.4996 0 -141.257
308.251 19.1962 0 -144.646
479.787 18.1359 0 -143.571
321.042 19.2126 0 -145.551
314.646 19.2047 0 -145.099
147.145 19.5085 0 -141.03
140.756 19.5246 0 -140.574
450.997 18.0533 0 -141.532
470.19 18.109 0 -142.893
143.95 19.5168 0 -140.802
295.461 19.1775 0 -143.738
460.593 18.0815 0 -142.213
308.251 19.1962 0 -144.646
301.856 19.1871 0 -144.193
140.756 19.5246 0 -140.574
134.367 19.5385 0 -140.117
431.804 17.9953 0 -140.167
450.997 18.0533 0 -141.532
137.562 19.5318 0 -140.345
282.672 19.1563 0 -142.827
441.4 18.0246 0 -140.85
295.461 19.1775 0 -143.738
289.067 19.1672 0 -143.283
134.367 19.5385 0 -140.117
127.979 19.5502 0 -139.658
412.613 17.9348 0 -138.796
431.804 17.9953 0 -140.167
131.173 19.5446 0 -139.887
269.884 19.1328 0 -141.912
422.208 17.9653 0 -139.482
282.672 19.1563 0 -142.827
276.278 19.1448 0 -142.37
127.979 19.5502 0 -139.658
121.59 19.56 0 -139.197
393.423 17.8721 0 -137.422
412.613 17.9348 0 -138.796
124.784 19.5553 0 -139.428
257.096 19.1072 0 -140.995
403.018 17.9037 0 -138.11
269.884 19.1328 0 -141.912
263.49 19.1203 0 -141.454
121.59 19.56 0 -139.197
115.202 19.568 0 -138.735
374.234 17.8072 0 -136.042
393.423 17.8721 0 -137.422
118.396 19.5642 0 -138.966
244.309 19.0796 0 -140.074
383.829 17.8399 0 -136.732
257.096 19.1072 0 -140.995
250.702 19.0936 0 -140.535
115.202 19.568 0 -138.735
108.815 19.5747 0 -138.271
355.047 17.7406 0 -134.658
374.234 17.8072 0 -136.042
112.009 19.5714 0 -138.503
231.522 19.0504 0 -139.15
364.641 17.7741 0 -135.351
244.309 19.0796 0 -140.074
237.915 19.0652 0 -139.612
108.815 19.5747 0 -138.271
102.427 19.5808 0 -137.806
335.862 17.6727 0 -133.269
355.047 17.7406 0 -134.658
105.621 19.5777 0 -138.039
218.737 19.0204 0 -138.222
345.454 17.7068 0 -133.964
231.522 19.0504 0 -139.15
225.13 19.0355 0 -138.686
102.427 19.5808 0 -137.806
96.0388 19.5877 0 -137.338
316.677 17.6047 0 -131.875
335.862 17.6727 0 -133.269
99.233 19.584 0 -137.572
205.952 18.9909 0 -137.291
326.269 17.6387 0 -132.573
218.737 19.0204 0 -138.222
212.345 19.0055 0 -137.757
96.0388 19.5877 0 -137.338
89.6487 19.5973 0 -136.869
297.495 17.5387 0 -130.475
316.677 17.6047 0 -131.875
92.8442 19.592 0 -137.104
193.167 18.9643 0 -136.356
307.086 17.5713 0 -131.176
205.952 18.9909 0 -137.291
199.56 18.977 0 -136.824
89.6487 19.5973 0 -136.869
83.2548 19.6135 0 -136.399
278.312 17.4784 0 -129.066
297.495 17.5387 0 -130.475
86.4523 19.6042 0 -136.634
180.379 18.9449 0 -135.416
287.904 17.5075 0 -129.772
193.167 18.9643 0 -136.356
186.773 18.9533 0 -135.886
83.2548 19.6135 0 -136.399
76.8505 19.6421 0 -135.932
259.126 17.4315 0 -127.646
278.312 17.4784 0 -129.066
80.0547 19.6258 0 -136.165
167.582 18.9406 0 -134.471
268.719 17.4525 0 -128.358
180.379 18.9449 0 -135.416
173.982 18.9401 0 -134.944
76.8505 19.6421 0 -135.932
70.4287 19.6945 0 -135.475
239.925 17.4105 0 -126.209
259.126 17.4315 0 -127.646
73.642 19.6643 0 -135.702
154.766 18.9658 0 -133.522
249.529 17.4165 0 -126.93
167.582 18.9406 0 -134.471
161.177 18.9483 0 -133.996
70.4287 19.6945 0 -135.475
63.965 19.786 0 -135.043
220.697 17.441 0 -124.747
239.925 17.4105 0 -126.209
67.2048 19.734 0 -135.254
141.907 19.044 0 -132.574
230.315 17.417 0 -125.482
154.766 18.9658 0 -133.522
148.343 18.9959 0 -133.048
63.965 19.786 0 -135.043
57.4368 19.9496 0 -134.666
201.391 17.5591 0 -123.248
220.697 17.441 0 -124.747
60.7092 19.8562 0 -134.845
128.962 19.2174 0 -131.636
211.059 17.4856 0 -124.003
141.907 19.044 0 -132.574
135.449 19.1157 0 -132.102
57.4368 19.9496 0 -134.666
50.7628 20.2184 0 -134.401
181.954 17.838 0 -121.69
201.391 17.5591 0 -123.248
54.1275 20.0677 0 -134.515
115.849 19.5447 0 -130.732
191.69 17.6727 0 -122.478
128.962 19.2174 0 -131.636
122.432 19.3555 0 -131.18
50.7628 20.2184 0 -134.401
43.8899 20.6725 0 -134.338
162.205 18.3534 0 -120.062
181.954 17.838 0 -121.69
47.3492 20.4175 0 -134.336
102.431 20.1228 0 -129.903
172.139 18.0586 0 -120.885
115.849 19.5447 0 -130.732
109.191 19.798 0 -130.3
43.8899 20.6725 0 -134.338
36.5873 21.337 0 -134.628
141.999 19.2656 0 -118.329
162.205 18.3534 0 -120.062
40.3219 20.9747 0 -134.427
88.483 21.0353 0 -129.23
152.158 18.7522 0 -119.212
102.431 20.1228 0 -129.903
95.5359 20.5261 0 -129.549
36.5873 21.337 0 -134.628
28.8169 22.3327 0 -135.452
120.784 20.5957 0 -116.544
141.999 19.2656 0 -118.329
32.7404 21.796 0 -134.959
73.6673 22.3803 0 -128.842
131.584 19.8728 0 -117.434
88.483 21.0353 0 -129.23
81.2192 21.6663 0 -128.972
28.8169 22.3327 0 -135.452
20.0947 23.3865 0 -137.02
98.3505 22.4717 0 -114.749
120.784 20.5957 0 -116.544
24.6509 22.8689 0 -136.131
57.6067 23.9335 0 -128.944
109.692 21.4912 0 -115.644
73.6673 22.3803 0 -128.842
65.799 23.1376 0 -128.848
20.0947 23.3865 0 -137.02
10.9091 24.3131 0 -139.283
73.472 24.0061 0 -113.464
98.3505 22.4717 0 -114.749
15.4431 23.9387 0 -138.078
39.9409 25.1194 0 -129.776
86.3888 23.3402 0 -113.987
57.6067 23.9335 0 -128.944
49.0412 24.7098 0 -129.187
10.9091 24.3131 0 -139.283
0.892372 23.1206 0 -141.648
46.94 24.0242 0 -113.24
73.472 24.0061 0 -113.464
6.14867 24.1057 0 -140.531
21.2025 23.5766 0 -131.471
60.2053 24.4802 0 -113.164
39.9409 25.1194 0 -129.776
30.5582 24.8328 0 -130.634
0.892372 23.1206 0 -141.648
-6.98135 18.1579 0 -141.652
18.2536 16.1823 0 -115.823
46.94 24.0242 0 -113.24
-3.77246 21.3831 0 -142.178
3.2386 15.5504 0 -133.078
33.114 21.5478 0 -114.048
21.2025 23.5766 0 -131.471
12.1197 20.9115 0 -132.2
-6.98135 18.1579 0 -141.652
-12.8755 4.42031 0 -134.413
-3.64633 -8.87671 0 -119.472
18.2536 16.1823 0 -115.823
-9.83616 12.3147 0 -139.397
-7.91498 -5.98573 0 -129.916
5.32454 7.24618 0 -117.77
3.2386 15.5504 0 -133.078
-4.08101 6.48768 0 -133.001
-12.8755 4.42031 0 -134.413
-10.2818 -13.3469 0 -111.338
-15.0574 -73.8683 0 -114.163
-3.64633 -8.87671 0 -119.472
-13.6619 -4.10488 0 -125.367
-11.0163 -42.6043 0 -110.838
-10.5345 -36.4281 0 -119.523
-7.91498 -5.98573 0 -129.916
-9.66734 -22.1669 0 -122.592
-10.2818 -13.3469 0 -111.338
-0.194917 -38.6569 0 -66.1442
-10.0712 -155.568 0 -69.0282
-15.0574 -73.8683 0 -114.163
-5.10831 -24.7098 0 -91.8347
-8.84288 -92.5031 0 -70.5665
-15.8168 -116.921 0 -98.3886
-11.0163 -42.6043 0 -110.838
-11.2313 -66.846 0 -94.0019
3409.32 1019.89 0 310.902
3706.39 640.486 0 -15.6573
6299.01 676.985 0 -359.19
5946.7 1774.59 0 -245.769
3610.88 816.413 0 113.877
4920.91 741.786 0 -151.287
6178.74 1276.9 0 -412.658
4856.97 1450.7 0 43.1183
4807.28 1031.82 0 -51.8045
3706.39 640.486 0 -15.6573
3778.35 275.038 0 -119.359
6396.47 198.179 0 -180.645
6299.01 676.985 0 -359.19
3738.53 444.41 0 -81.9497
5099.32 286.22 0 -179.525
6389.99 346.74 0 -264.421
4920.91 741.786 0 -151.287
5057.85 497.165 0 -198.374
3778.35 275.038 0 -119.359
3815.58 89.5968 0 -141.669
6316.94 30.4102 0 -79.2663
6396.47 198.179 0 -180.645
3813.42 163.8 0 -138.527
5088.95 76.6631 0 -127.369
6348.83 94.4367 0 -113.624
5099.32 286.22 0 -179.525
5097.96 151.397 0 -145.943
3815.58 89.5968 0 -141.669
3787.27 3.01274 0 -134.234
6261.41 -6.93522 0 -59.1614
6316.94 30.4102 0 -79.2663
3800.15 36.0766 0 -137.397
5040.96 -4.49619 0 -103.024
6292.39 3.49889 0 -65.1632
5088.95 76.6631 0 -127.369
5068.5 27.1674 0 -114.18
3787.27 3.01274 0 -134.234
3753.47 -22.7631 0 -129.765
6205.63 -20.9158 0 -61.726
6261.41 -6.93522 0 -59.1614
3773.26 -14.0421 0 -132.038
4988.77 -24.7813 0 -97.3604
6229.05 -15.9602 0 -58.0791
5040.96 -4.49619 0 -103.024
5012.7 -19.8512 0 -97.3373
3753.47 -22.7631 0 -129.765
3714.16 -29.2973 0 -127.515
6166.92 -18.8523 0 -73.5442
6205.63 -20.9158 0 -61.726
3731.95 -27.8677 0 -127.93
4945.11 -27.6308 0 -101.022
6186.86 -20.6133 0 -67.8101
4988.77 -24.7813 0 -97.3604
4966.48 -27.0023 0 -99.1415
3714.16 -29.2973 0 -127.515
3682.29 -26.387 0 -128.451
6129.63 -16.4719 0 -84.2844
6166.92 -18.8523 0 -73.5442
3698.27 -28.2265 0 -127.908
4907.66 -23.6119 0 -107.151
6147.12 -17.7569 0 -78.9063
4945.11 -27.6308 0 -101.022
4925.4 -26.1644 0 -103.734
3682.29 -26.387 0 -128.451
3653.52 -22.5843 0 -130.243
6096.52 -13.106 0 -93.8726
6129.63 -16.4719 0 -84.2844
3667.01 -24.5717 0 -129.181
4875.21 -19.4575 0 -113.37
6113.26 -14.6973 0 -89.4311
4907.66 -23.6119 0 -107.151
4891.07 -21.3619 0 -110.452
3653.52 -22.5843 0 -130.243
3629.06 -18.8425 0 -132.699
6063.5 -10.917 0 -101.346
6096.52 -13.106 0 -93.8726
3641.11 -20.5739 0 -131.473
4845.64 -15.8815 0 -118.868
6079.77 -11.928 0 -97.773
4875.21 -19.4575 0 -113.37
4860.1 -17.5925 0 -116.17
3629.06 -18.8425 0 -132.699
3606.5 -16.2209 0 -135.216
6031.24 -9.24748 0 -107.571
6063.5 -10.917 0 -101.346
3617.47 -17.4316 0 -133.936
4817.84 -13.4453 0 -123.588
6047.43 -9.99212 0 -104.628
4845.64 -15.8815 0 -118.868
4831.61 -14.5182 0 -121.342
3606.5 -16.2209 0 -135.216
3585.55 -14.3461 0 -137.771
5998.86 -8.19794 0 -112.775
6031.24 -9.24748 0 -107.571
3595.95 -15.1829 0 -136.506
4790.99 -11.7766 0 -127.708
6015.01 -8.67372 0 -110.258
4817.84 -13.4453 0 -123.588
4804.32 -12.5357 0 -125.701
3585.55 -14.3461 0 -137.771
3565.29 -13.1136 0 -140.254
5966.56 -7.46066 0 -117.409
5998.86 -8.19794 0 -112.775
3575.33 -13.6734 0 -139.017
4764.63 -10.6901 0 -131.399
5982.74 -7.79196 0 -115.156
4790.99 -11.7766 0 -127.708
4777.77 -11.1726 0 -129.602
3565.29 -13.1136 0 -140.254
3545.49 -12.2458 0 -142.678
5934.18 -6.95011 0 -121.647
5966.56 -7.46066 0 -117.409
3555.36 -12.6397 0 -141.476
4738.52 -9.9388 0 -134.81
5950.37 -7.18728 0 -119.563
4764.63 -10.6901 0 -131.399
4751.56 -10.2835 0 -133.131
3545.49 -12.2458 0 -142.678
3525.89 -11.6171 0 -145.032
5901.78 -6.55138 0 -125.656
5934.18 -6.95011 0 -121.647
3535.67 -11.9109 0 -143.863
4712.52 -9.39313 0 -138.031
5917.99 -6.73911 0 -123.676
4738.52 -9.9388 0 -134.81
4725.51 -9.64628 0 -136.441
3525.89 -11.6171 0 -145.032
3506.41 -11.1136 0 -147.328
5869.33 -6.21906 0 -129.502
5901.78 -6.55138 0 -125.656
3516.15 -11.3528 0 -146.188
4686.56 -8.95563 0 -141.124
5885.56 -6.38008 0 -127.595
4712.52 -9.39313 0 -138.031
4699.54 -9.16484 0 -139.591
3506.41 -11.1136 0 -147.328
3486.96 -10.6826 0 -149.566
5836.87 -5.91695 0 -133.236
5869.33 -6.21906 0 -129.502
3496.68 -10.892 0 -148.453
4660.62 -8.57687 0 -144.12
5853.11 -6.06516 0 -131.382
4686.56 -8.95563 0 -141.124
4673.59 -8.76097 0 -142.632
3486.96 -10.6826 0 -149.566
3467.54 -10.2874 0 -151.754
5804.39 -5.62987 0 -136.878
5836.87 -5.91695 0 -133.236
3477.25 -10.4816 0 -150.666
4634.68 -8.22646 0 -147.04
5820.63 -5.77238 0 -135.067
4660.62 -8.57687 0 -144.12
4647.65 -8.39929 0 -145.588
3467.54 -10.2874 0 -151.754
3448.12 -9.91135 0 -153.894
5771.9 -5.34813 0 -140.443
5804.39 -5.62987 0 -136.878
3457.83 -10.0978 0 -152.83
4608.74 -7.88977 0 -149.894
5788.15 -5.4886 0 -138.67
4634.68 -8.22646 0 -147.04
4621.71 -8.05697 0 -148.474
3448.12 -9.91135 0 -153.894
3428.7 -9.54445 0 -155.989
5739.4 -5.06783 0 -143.935
5771.9 -5.34813 0 -140.443
3438.41 -9.72705 0 -154.947
4582.79 -7.55885 0 -152.688
5755.65 -5.208 0 -142.197
4608.74 -7.88977 0 -149.894
4595.76 -7.72387 0 -151.298
3428.7 -9.54445 0 -155.989
3409.28 -9.1823 0 -158.041
5706.9 -4.7868 0 -147.358
5739.4 -5.06783 0 -143.935
3418.99 -9.36298 0 -157.021
4556.84 -7.23012 0 -155.425
5723.15 -4.92746 0 -145.655
4582.79 -7.55885 0 -152.688
4569.81 -7.39434 0 -154.063
3409.28 -9.1823 0 -158.041
3389.86 -8.82246 0 -160.052
5674.39 -4.50432 0 -150.713
5706.9 -4.7868 0 -147.358
3399.57 -9.00217 0 -159.052
4530.88 -6.90185 0 -158.107
5690.64 -4.64578 0 -149.044
4556.84 -7.23012 0 -155.425
4543.86 -7.06599 0 -156.773
3389.86 -8.82246 0 -160.052
3370.43 -8.46389 0 -162.021
5641.88 -4.22007 0 -154.003
5674.39 -4.50432 0 -150.713
3380.15 -8.64307 0 -161.041
4504.92 -6.57331 0 -160.736
5658.13 -4.36242 0 -152.366
4530.88 -6.90185 0 -158.107
4517.9 -6.73764 0 -159.429
3370.43 -8.46389 0 -162.021
3351.01 -8.10603 0 -163.951
5609.37 -3.93404 0 -157.227
5641.88 -4.22007 0 -154.003
3360.72 -8.28489 0 -162.991
4478.96 -6.24423 0 -163.313
5625.62 -4.07728 0 -155.623
4504.92 -6.57331 0 -160.736
4491.95 -6.40885 0 -162.031
3351.01 -8.10603 0 -163.951
3331.58 -7.74865 0 -165.841
5576.85 -3.64627 0 -160.386
5609.37 -3.93404 0 -157.227
3341.29 -7.92729 0 -164.901
4453 -5.91453 0 -165.837
5593.11 -3.79036 0 -158.815
4478.96 -6.24423 0 -163.313
4465.98 -6.07946 0 -164.581
3331.58 -7.74865 0 -165.841
3312.15 -7.39164 0 -167.692
5544.33 -3.35689 0 -163.481
5576.85 -3.64627 0 -160.386
3321.86 -7.5701 0 -166.771
4427.04 -5.58423 0 -168.309
5560.59 -3.50177 0 -161.941
4453 -5.91453 0 -165.837
4440.02 -5.74946 0 -167.079
3312.15 -7.39164 0 -167.692
3292.72 -7.03497 0 -169.505
5511.82 -3.06602 0 -166.512
5544.33 -3.35689 0 -163.481
3302.43 -7.21326 0 -168.603
4401.07 -5.25338 0 -170.73
5528.08 -3.21163 0 -165.004
4427.04 -5.58423 0 -168.309
4414.06 -5.41887 0 -169.526
3292.72 -7.03497 0 -169.505
3273.29 -6.67866 0 -171.28
5479.3 -2.77381 0 -169.479
5511.82 -3.06602 0 -166.512
3283 -6.85677 0 -170.397
4375.11 -4.92206 0 -173.101
5495.56 -2.92008 0 -168.003
4401.07 -5.25338 0 -170.73
4388.09 -5.08778 0 -171.922
3273.29 -6.67866 0 -171.28
3253.85 -6.32274 0 -173.016
5446.78 -2.48039 0 -172.383
5479.3 -2.77381 0 -169.479
3263.57 -6.50065 0 -172.153
4349.14 -4.59038 0 -175.421
5463.04 -2.62724 0 -170.939
4375.11 -4.92206 0 -173.101
4362.12 -4.75626 0 -174.267
3253.85 -6.32274 0 -173.016
3234.42 -5.96727 0 -174.715
5414.26 -2.18589 0 -175.225
5446.78 -2.48039 0 -172.383
3244.14 -6.14495 0 -173.871
4323.17 -4.25842 0 -177.69
5430.52 -2.33326 0 -173.812
4349.14 -4.59038 0 -175.421
4336.16 -4.42443 0 -176.562
3234.42 -5.96727 0 -174.715
3214.98 -5.61233 0 -176.377
5381.74 -1.89047 0 -178.004
5414.26 -2.18589 0 -175.225
3224.7 -5.78973 0 -175.551
4297.2 -3.9263 0 -179.91
5398 -2.03829 0 -176.622
4323.17 -4.25842 0 -177.69
4310.19 -4.09237 0 -178.806
3214.98 -5.61233 0 -176.377
3195.55 -5.25797 0 -178.001
5349.22 -1.59426 0 -180.721
5381.74 -1.89047 0 -178.004
3205.27 -5.43507 0 -177.194
4271.24 -3.59412 0 -182.08
5365.48 -1.74246 0 -179.37
4297.2 -3.9263 0 -179.91
4284.22 -3.76021 0 -181.001
3195.55 -5.25797 0 -178.001
3176.11 -4.90429 0 -179.589
5316.7 -1.29741 0 -183.377
5349.22 -1.59426 0 -180.721
3185.83 -5.08104 0 -178.8
4245.27 -3.262 0 -184.201
5332.96 -1.44591 0 -182.057
4271.24 -3.59412 0 -182.08
4258.25 -3.42804 0 -183.147
3176.11 -4.90429 0 -179.589
3156.68 -4.55137 0 -181.139
5284.18 -1.00005 0 -185.971
5316.7 -1.29741 0 -183.377
3166.39 -4.72773 0 -180.369
4219.3 -2.93004 0 -186.273
5300.44 -1.14879 0 -184.681
4245.27 -3.262 0 -184.201
4232.28 -3.09599 0 -185.243
3156.68 -4.55137 0 -181.139
3137.24 -4.19928 0 -182.654
5251.66 -0.70232 0 -188.504
5284.18 -1.00005 0 -185.971
3146.96 -4.37522 0 -181.901
4193.33 -2.59836 0 -188.296
5267.92 -0.851223 0 -187.245
4219.3 -2.93004 0 -186.273
4206.31 -2.76416 0 -187.291
3137.24 -4.19928 0 -182.654
3117.8 -3.84812 0 -184.131
5219.14 -0.404354 0 -190.977
5251.66 -0.70232 0 -188.504
3127.52 -4.02358 0 -183.397
4167.36 -2.26706 0 -190.271
5235.4 -0.553358 0 -189.748
4193.33 -2.59836 0 -188.296
4180.34 -2.43266 0 -189.29
3117.8 -3.84812 0 -184.131
3098.36 -3.49795 0 -185.573
5186.62 -0.106284 0 -193.39
5219.14 -0.404354 0 -190.977
3108.08 -3.67291 0 -184.857
4141.39 -1.93626 0 -192.198
5202.88 -0.255323 0 -192.191
4167.36 -2.26706 0 -190.271
4154.37 -2.10159 0 -191.24
3098.36 -3.49795 0 -185.573
3078.93 -3.14887 0 -186.979
5154.1 0.19176 0 -195.743
5186.62 -0.106284 0 -193.39
3088.65 -3.32327 0 -186.281
4115.42 -1.60605 0 -194.077
5170.36 0.0427496 0 -194.574
4141.39 -1.93626 0 -192.198
4128.4 -1.77107 0 -193.143
3078.93 -3.14887 0 -186.979
3059.49 -2.80095 0 -188.349
5121.58 0.48965 0 -198.037
5154.1 0.19176 0 -195.743
3069.21 -2.97476 0 -187.669
4089.45 -1.27654 0 -195.908
5137.84 0.340732 0 -196.897
4115.42 -1.60605 0 -194.077
4102.43 -1.4412 0 -194.998
3059.49 -2.80095 0 -188.349
3040.05 -2.45426 0 -189.684
5089.06 0.787261 0 -200.271
5121.58 0.48965 0 -198.037
3049.77 -2.62744 0 -189.021
4063.48 -0.947829 0 -197.692
5105.32 0.638498 0 -199.161
4089.45 -1.27654 0 -195.908
4076.46 -1.11208 0 -196.806
3040.05 -2.45426 0 -189.684
3020.61 -2.10888 0 -190.984
5056.54 1.08447 0 -202.447
5089.06 0.787261 0 -200.271
3030.33 -2.2814 0 -190.339
4037.51 -0.620015 0 -199.43
5072.8 0.935924 0 -201.367
4063.48 -0.947829 0 -197.692
4050.49 -0.783804 0 -198.567
3020.61 -2.10888 0 -190.984
3001.18 -1.76488 0 -192.249
5024.03 1.38116 0 -204.565
5056.54 1.08447 0 -202.447
3010.9 -1.9367 0 -191.621
4011.54 -0.293194 0 -201.121
5040.28 1.23289 0 -203.513
4037.51 -0.620015 0 -199.43
4024.53 -0.456475 0 -200.281
3001.18 -1.76488 0 -192.249
2981.74 -1.42234 0 -193.479
4991.51 1.67721 0 -206.625
5024.03 1.38116 0 -204.565
2991.46 -1.59342 0 -192.868
3985.57 0.0325378 0 -202.765
5007.77 1.52927 0 -205.602
4011.54 -0.293194 0 -201.121
3998.56 -0.130186 0 -201.949
2981.74 -1.42234 0 -193.479
2962.3 -1.08131 0 -194.674
4959 1.9725 0 -208.628
4991.51 1.67721 0 -206.625
2972.02 -1.25163 0 -194.081
3959.61 0.357089 0 -204.364
4975.26 1.82496 0 -207.633
3985.57 0.0325378 0 -202.765
3972.59 0.194967 0 -203.57
2962.3 -1.08131 0 -194.674
2942.87 -0.741881 0 -195.836
4926.49 2.26692 0 -210.573
4959 1.9725 0 -208.628
2952.58 -0.911394 0 -195.259
3933.64 0.680369 0 -205.917
4942.74 2.11983 0 -209.607
3959.61 0.357089 0 -204.364
3946.62 0.518893 0 -205.146
2942.87 -0.741881 0 -195.836
2923.43 -0.404106 0 -196.963
4893.98 2.56037 0 -212.462
4926.49 2.26692 0 -210.573
2933.15 -0.572782 0 -196.404
3907.68 1.00229 0 -207.424
4910.23 2.41378 0 -211.524
3933.64 0.680369 0 -205.917
3920.66 0.841504 0 -206.676
2923.43 -0.404106 0 -196.963
2904 -0.0680541 0 -198.056
4861.47 2.85272 0 -214.294
4893.98 2.56037 0 -212.462
2913.71 -0.235861 0 -197.514
3881.71 1.32276 0 -208.886
4877.72 2.70669 0 -213.385
3907.68 1.00229 0 -207.424
3894.69 1.16271 0 -208.161
2904 -0.0680541 0 -198.056
2884.56 0.266211 0 -199.116
4828.96 3.14388 0 -216.07
4861.47 2.85272 0 -214.294
2894.28 0.0993057 0 -198.591
3855.75 1.6417 0 -210.304
4845.21 2.99846 0 -215.189
3881.71 1.32276 0 -208.886
3868.73 1.48242 0 -209.601
2884.56 0.266211 0 -199.116
2865.13 0.598626 0 -200.143
4796.46 3.43374 0 -217.791
4828.96 3.14388 0 -216.07
2874.84 0.432654 0 -199.634
3829.79 1.95902 0 -211.677
4812.71 3.28898 0 -216.937
3855.75 1.6417 0 -210.304
3842.77 1.80056 0 -210.996
2865.13 0.598626 0 -200.143
2845.69 0.92913 0 -201.136
4763.95 3.7222 0 -219.456
4796.46 3.43374 0 -217.791
2855.41 0.764121 0 -200.644
3803.83 2.27464 0 -213.006
4780.2 3.57815 0 -218.631
3829.79 1.95902 0 -211.677
3816.81 2.11705 0 -212.347
2845.69 0.92913 0 -201.136
2826.26 1.25766 0 -202.097
4731.45 4.00915 0 -221.067
4763.95 3.7222 0 -219.456
2835.98 1.09365 0 -201.621
3777.87 2.58848 0 -214.292
4747.7 3.86587 0 -220.269
3803.83 2.27464 0 -213.006
3790.85 2.43179 0 -213.654
2826.26 1.25766 0 -202.097
2806.83 1.58417 0 -203.025
4698.95 4.29451 0 -222.623
4731.45 4.00915 0 -221.067
2816.55 1.42117 0 -202.565
3751.91 2.90047 0 -215.533
4715.2 4.15204 0 -221.852
3777.87 2.58848 0 -214.292
3764.89 2.74471 0 -214.918
2806.83 1.58417 0 -203.025
2787.4 1.90858 0 -203.92
4666.46 4.57816 0 -224.126
4698.95 4.29451 0 -222.623
2797.11 1.74664 0 -203.476
3725.96 3.21052 0 -216.732
4682.7 4.43655 0 -223.381
3751.91 2.90047 0 -215.533
3738.94 3.05574 0 -216.138
2787.4 1.90858 0 -203.92
2767.97 2.23085 0 -204.783
4633.96 4.86002 0 -225.574
4666.46 4.57816 0 -224.126
2777.68 2.06999 0 -204.356
3700 3.51856 0 -217.887
4650.21 4.71932 0 -224.856
3725.96 3.21052 0 -216.732
3712.98 3.3648 0 -217.315
2767.97 2.23085 0 -204.783
2748.54 2.55093 0 -205.615
4601.47 5.14 0 -226.969
4633.96 4.86002 0 -225.574
2758.25 2.39117 0 -205.203
3674.05 3.82452 0 -219
4617.72 5.00026 0 -226.278
3700 3.51856 0 -217.887
3687.03 3.67181 0 -218.449
2748.54 2.55093 0 -205.615
2729.11 2.86875 0 -206.414
4568.98 5.41801 0 -228.312
4601.47 5.14 0 -226.969
2738.83 2.71012 0 -206.018
3648.1 4.12832 0 -220.07
4585.23 5.27926 0 -227.647
3674.05 3.82452 0 -219
3661.08 3.9767 0 -219.54
2729.11 2.86875 0 -206.414
2709.69 3.18426 0 -207.182
4536.5 5.69396 0 -229.601
4568.98 5.41801 0 -228.312
2719.4 3.0268 0 -206.802
3622.15 4.4299 0 -221.099
4552.74 5.55625 0 -228.963
3648.1 4.12832 0 -220.07
3635.13 4.2794 0 -220.59
2709.69 3.18426 0 -207.182
2690.26 3.49742 0 -207.919
4504.01 5.96775 0 -230.839
4536.5 5.69396 0 -229.601
2699.97 3.34114 0 -207.554
3596.21 4.72919 0 -222.086
4520.25 5.83113 0 -230.227
3622.15 4.4299 0 -221.099
3609.18 4.57984 0 -221.597
2690.26 3.49742 0 -207.919
2670.84 3.80817 0 -208.624
4471.53 6.23932 0 -232.025
4504.01 5.96775 0 -230.839
2680.55 3.6531 0 -208.275
3570.26 5.02611 0 -223.031
4487.77 6.10382 0 -231.438
3596.21 4.72919 0 -222.086
3583.23 4.87795 0 -222.563
2670.84 3.80817 0 -208.624
2651.42 4.11646 0 -209.299
4439.05 6.50857 0 -233.159
4471.53 6.23932 0 -232.025
2661.13 3.96263 0 -208.966
3544.32 5.32061 0 -223.935
4455.29 6.37424 0 -232.598
3570.26 5.02611 0 -223.031
3557.29 5.17367 0 -223.488
2651.42 4.11646 0 -209.299
2631.99 4.42225 0 -209.943
4406.58 6.77543 0 -234.242
4439.05 6.50857 0 -233.159
2641.7 4.26968 0 -209.625
3518.38 5.61262 0 -224.799
4422.82 6.64231 0 -233.707
3544.32 5.32061 0 -223.935
3531.35 5.46693 0 -224.372
2631.99 4.42225 0 -209.943
2612.57 4.72549 0 -210.557
4374.11 7.03982 0 -235.275
4406.58 6.77543 0 -234.242
2622.28 4.5742 0 -210.254
3492.44 5.90207 0 -225.621
4390.34 6.90794 0 -234.765
3518.38 5.61262 0 -224.799
3505.41 5.75767 0 -225.215
2612.57 4.72549 0 -210.557
2593.16 5.02614 0 -211.141
4341.64 7.30166 0 -236.257
4374.11 7.03982 0 -235.275
2602.87 4.87614 0 -210.853
3466.5 6.18891 0 -226.404
4357.87 7.17107 0 -235.772
3492.44 5.90207 0 -225.621
3479.47 6.04582 0 -226.018
2593.16 5.02614 0 -211.141
2573.74 5.32414 0 -211.694
4309.18 7.56089 0 -237.19
4341.64 7.30166 0 -236.257
2583.45 5.17547 0 -211.421
3440.57 6.47308 0 -227.147
4325.41 7.43161 0 -236.73
3466.5 6.18891 0 -226.404
3453.54 6.33133 0 -226.78
2573.74 5.32414 0 -211.694
2554.32 5.61946 0 -212.218
4276.71 7.81741 0 -238.073
4309.18 7.56089 0 -237.19
2564.03 5.47214 0 -211.96
3414.64 6.75452 0 -227.85
4292.94 7.68949 0 -237.638
3440.57 6.47308 0 -227.147
3427.61 6.61414 0 -227.503
2554.32 5.61946 0 -212.218
2534.91 5.91205 0 -212.713
4244.26 8.07118 0 -238.907
4276.71 7.81741 0 -238.073
2544.62 5.7661 0 -212.469
3388.71 7.03317 0 -228.514
4260.49 7.94465 0 -238.496
3414.64 6.75452 0 -227.85
3401.68 6.8942 0 -228.187
2534.91 5.91205 0 -212.713
2515.5 6.20188 0 -213.178
4211.8 8.32211 0 -239.692
4244.26 8.07118 0 -238.907
2525.2 6.05731 0 -212.949
3362.79 7.30898 0 -229.139
4228.03 8.197 0 -239.305
3388.71 7.03317 0 -228.514
3375.75 7.17143 0 -228.831
2515.5 6.20188 0 -213.178
2496.09 6.4889 0 -213.615
4179.35 8.57014 0 -240.429
4211.8 8.32211 0 -239.692
2505.79 6.34574 0 -213.4
3336.86 7.5819 0 -229.725
4195.58 8.44649 0 -240.066
3362.79 7.30898 0 -229.139
3349.82 7.4458 0 -229.437
2496.09 6.4889 0 -213.615
2476.68 6.77308 0 -214.022
4146.9 8.81522 0 -241.117
4179.35 8.57014 0 -240.429
2486.38 6.63135 0 -213.822
3310.94 7.85187 0 -230.273
4163.13 8.69305 0 -240.779
3336.86 7.5819 0 -229.725
3323.9 7.71725 0 -230.004
2476.68 6.77308 0 -214.022
2457.27 7.05437 0 -214.401
4114.46 9.05726 0 -241.759
4146.9 8.81522 0 -241.117
2466.98 6.91408 0 -214.215
3285.02 8.11884 0 -230.783
4130.68 8.93662 0 -241.444
3310.94 7.85187 0 -230.273
3297.98 7.98573 0 -230.533
2457.27 7.05437 0 -214.401
2437.87 7.33274 0 -214.752
4082.02 9.29622 0 -242.353
4114.46 9.05726 0 -241.759
2447.57 7.19392 0 -214.58
3259.11 8.38277 0 -231.255
4098.24 9.17713 0 -242.061
3285.02 8.11884 0 -230.783
3272.06 8.25119 0 -231.023
2437.87 7.33274 0 -214.752
2418.47 7.60816 0 -215.074
4049.58 9.53203 0 -242.9
4082.02 9.29622 0 -242.353
2428.17 7.47082 0 -214.917
3233.19 8.64361 0 -231.689
4065.8 9.41452 0 -242.632
3259.11 8.38277 0 -231.255
3246.15 8.51358 0 -231.477
2418.47 7.60816 0 -215.074
2399.06 7.88059 0 -215.369
4017.15 9.76464 0 -243.4
4049.58 9.53203 0 -242.9
2408.76 7.74475 0 -215.225
3207.29 8.90131 0 -232.087
4033.37 9.64874 0 -243.156
3233.19 8.64361 0 -231.689
3220.24 8.77286 0 -231.892
2399.06 7.88059 0 -215.369
2379.67 8.15 0 -215.636
3984.72 9.99399 0 -243.855
4017.15 9.76464 0 -243.4
2389.36 8.01567 0 -215.506
3181.38 9.15583 0 -232.447
4000.94 9.87972 0 -243.633
3207.29 8.90131 0 -232.087
3194.33 9.02897 0 -232.271
2379.67 8.15 0 -215.636
2360.27 8.41635 0 -215.876
3952.3 10.22 0 -244.263
3984.72 9.99399 0 -243.855
2369.97 8.28356 0 -215.759
3155.47 9.40713 0 -232.771
3968.51 10.1074 0 -244.065
3181.38 9.15583 0 -232.447
3168.43 9.28189 0 -232.614
2360.27 8.41635 0 -215.876
2340.87 8.67962 0 -216.088
3919.88 10.4427 0 -244.627
3952.3 10.22 0 -244.263
2350.57 8.54838 0 -215.985
3129.57 9.65515 0 -233.059
3936.09 10.3318 0 -244.451
3155.47 9.40713 0 -232.771
3142.52 9.53155 0 -232.919
2340.87 8.67962 0 -216.088
2321.48 8.93978 0 -216.274
3887.47 10.662 0 -244.945
3919.88 10.4427 0 -244.627
2331.18 8.81009 0 -216.184
3103.68 9.89987 0 -233.31
3903.67 10.5528 0 -244.792
3129.57 9.65515 0 -233.059
3116.62 9.77793 0 -233.189
2321.48 8.93978 0 -216.274
2302.09 9.19678 0 -216.433
3855.05 10.8777 0 -245.219
3887.47 10.662 0 -244.945
2311.78 9.06867 0 -216.357
3077.78 10.1412 0 -233.526
3871.26 10.7703 0 -245.088
3103.68 9.89987 0 -233.31
3090.73 10.021 0 -233.423
2302.09 9.19678 0 -216.433
2282.7 9.45062 0 -216.565
3822.65 11.09 0 -245.449
3855.05 10.8777 0 -245.219
2292.39 9.3241 0 -216.502
3051.89 10.3792 0 -233.707
3838.85 10.9843 0 -245.34
3077.78 10.1412 0 -233.526
3064.83 10.2607 0 -233.621
2282.7 9.45062 0 -216.565
2263.31 9.70126 0 -216.671
3790.24 11.2988 0 -245.635
3822.65 11.09 0 -245.449
2273.01 9.57634 0 -216.621
3026 10.6138 0 -233.853
3806.44 11.1948 0 -245.547
3051.89 10.3792 0 -233.707
3038.94 10.497 0 -233.784
2263.31 9.70126 0 -216.671
2243.93 9.94867 0 -216.751
3757.84 11.5039 0 -245.777
3790.24 11.2988 0 -245.635
2253.62 9.82537 0 -216.714
3000.11 10.8449 0 -233.964
3774.04 11.4018 0 -245.711
3026 10.6138 0 -233.853
3013.06 10.7298 0 -233.913
2243.93 9.94867 0 -216.751
2224.54 10.1928 0 -216.805
3725.45 11.7054 0 -245.877
3757.84 11.5039 0 -245.777
2234.24 10.0712 0 -216.781
2974.23 11.0726 0 -234.04
3741.65 11.6051 0 -245.832
3000.11 10.8449 0 -233.964
2987.17 10.9592 0 -234.006
2224.54 10.1928 0 -216.805
2205.16 10.4337 0 -216.834
3693.06 11.9032 0 -245.933
3725.45 11.7054 0 -245.877
2214.85 10.3137 0 -216.822
2948.35 11.2967 0 -234.083
3709.25 11.8047 0 -245.91
2974.23 11.0726 0 -234.04
2961.29 11.1851 0 -234.066
2205.16 10.4337 0 -216.834
2185.78 10.6713 0 -216.837
3660.67 12.0973 0 -245.948
3693.06 11.9032 0 -245.933
2195.47 10.5529 0 -216.838
2922.48 11.5172 0 -234.091
3676.87 12.0007 0 -245.946
2948.35 11.2967 0 -234.083
2935.41 11.4074 0 -234.091
2185.78 10.6713 0 -216.837
2166.41 10.9056 0 -216.815
3628.29 12.2876 0 -245.92
3660.67 12.0973 0 -245.948
2176.1 10.7889 0 -216.829
2896.6 11.7342 0 -234.066
3644.48 12.1929 0 -245.939
2922.48 11.5172 0 -234.091
2909.54 11.6262 0 -234.083
2166.41 10.9056 0 -216.815
2147.03 11.1365 0 -216.768
3595.92 12.4741 0 -245.851
3628.29 12.2876 0 -245.92
2156.72 11.0215 0 -216.794
2870.73 11.9476 0 -234.008
3612.1 12.3813 0 -245.891
2896.6 11.7342 0 -234.066
2883.67 11.8414 0 -234.041
2147.03 11.1365 0 -216.768
2127.66 11.3641 0 -216.696
3563.54 12.6568 0 -245.741
3595.92 12.4741 0 -245.851
2137.35 11.2507 0 -216.735
2844.87 12.1573 0 -233.917
3579.73 12.566 0 -245.801
2870.73 11.9476 0 -234.008
2857.8 12.0529 0 -233.966
2127.66 11.3641 0 -216.696
2108.29 11.5883 0 -216.6
3531.18 12.8357 0 -245.59
3563.54 12.6568 0 -245.741
2117.98 11.4766 0 -216.651
2819.01 12.3634 0 -233.793
3547.36 12.7467 0 -245.67
2844.87 12.1573 0 -233.917
2831.94 12.2608 0 -233.859
2108.29 11.5883 0 -216.6
2088.93 11.8091 0 -216.48
3498.81 13.0106 0 -245.398
3531.18 12.8357 0 -245.59
2098.61 11.6991 0 -216.543
2793.15 12.5658 0 -233.637
3514.99 12.9236 0 -245.499
2819.01 12.3634 0 -233.793
2806.08 12.4651 0 -233.719
2088.93 11.8091 0 -216.48
2069.56 12.0264 0 -216.336
3466.45 13.1817 0 -245.166
3498.81 13.0106 0 -245.398
2079.24 11.9182 0 -216.411
2767.29 12.7645 0 -233.449
3482.63 13.0967 0 -245.287
2793.15 12.5658 0 -233.637
2780.22 12.6656 0 -233.547
2069.56 12.0264 0 -216.336
2050.2 12.2404 0 -216.168
3434.1 13.3488 0 -244.895
3466.45 13.1817 0 -245.166
2059.88 12.1339 0 -216.255
2741.44 12.9595 0 -233.229
3450.28 13.2657 0 -245.036
2767.29 12.7645 0 -233.449
2754.36 12.8624 0 -233.343
2050.2 12.2404 0 -216.168
2030.84 12.4509 0 -215.976
3401.75 13.5119 0 -244.585
3434.1 13.3488 0 -244.895
2040.52 12.3461 0 -216.075
2715.59 13.1507 0 -232.978
3417.92 13.4309 0 -244.745
2741.44 12.9595 0 -233.229
2728.51 13.0555 0 -233.107
2030.84 12.4509 0 -215.976
2011.48 12.6579 0 -215.762
3369.41 13.6711 0 -244.235
3401.75 13.5119 0 -244.585
2021.16 12.5548 0 -215.872
2689.74 13.3381 0 -232.695
3385.58 13.592 0 -244.415
2715.59 13.1507 0 -232.978
2702.67 13.2449 0 -232.84
2011.48 12.6579 0 -215.762
1992.13 12.8615 0 -215.524
3337.07 13.8262 0 -243.847
3369.41 13.6711 0 -244.235
2001.8 12.7602 0 -215.645
2663.9 13.5217 0 -232.382
3353.24 13.7491 0 -244.046
2689.74 13.3381 0 -232.695
2676.82 13.4304 0 -232.543
1992.13 12.8615 0 -215.524
1972.77 13.0616 0 -215.263
3304.73 13.9772 0 -243.421
3337.07 13.8262 0 -243.847
1982.45 12.962 0 -215.396
2638.06 13.7016 0 -232.038
3320.9 13.9022 0 -243.639
2663.9 13.5217 0 -232.382
2650.98 13.6121 0 -232.214
1972.77 13.0616 0 -215.263
1953.42 13.2582 0 -214.979
3272.4 14.1243 0 -242.957
3304.73 13.9772 0 -243.421
1963.1 13.1603 0 -215.124
2612.23 13.8776 0 -231.665
3288.57 14.0513 0 -243.194
2638.06 13.7016 0 -232.038
2625.15 13.7901 0 -231.855
1953.42 13.2582 0 -214.979
1934.07 13.4512 0 -214.673
3240.08 14.2672 0 -242.456
3272.4 14.1243 0 -242.957
1943.75 13.3551 0 -214.829
2586.4 14.0498 0 -231.261
3256.24 14.1962 0 -242.711
2612.23 13.8776 0 -231.665
2599.31 13.9642 0 -231.466
1934.07 13.4512 0 -214.673
1914.73 13.6408 0 -214.345
3207.76 14.406 0 -241.918
3240.08 14.2672 0 -242.456
1924.4 13.5464 0 -214.512
2560.57 14.2181 0 -230.827
3223.92 14.3371 0 -242.191
2586.4 14.0498 0 -231.261
2573.48 14.1344 0 -231.048
1914.73 13.6408 0 -214.345
1895.38 13.8268 0 -213.995
3175.44 14.5408 0 -241.343
3207.76 14.406 0 -241.918
1905.06 13.7342 0 -214.173
2534.75 14.3826 0 -230.365
3191.6 14.4739 0 -241.635
2560.57 14.2181 0 -230.827
2547.66 14.3009 0 -230.6
1895.38 13.8268 0 -213.995
1876.04 14.0093 0 -213.624
3143.13 14.6714 0 -240.731
3175.44 14.5408 0 -241.343
1885.71 13.9185 0 -213.812
2508.93 14.5432 0 -229.873
3159.28 14.6066 0 -241.041
2534.75 14.3826 0 -230.365
2521.84 14.4634 0 -230.122
1876.04 14.0093 0 -213.624
1856.7 14.1882 0 -213.23
3110.82 14.7978 0 -240.084
3143.13 14.6714 0 -240.731
1866.37 14.0992 0 -213.43
2483.11 14.6999 0 -229.353
3126.97 14.7351 0 -240.412
2508.93 14.5432 0 -229.873
2496.02 14.6221 0 -229.616
1856.7 14.1882 0 -213.23
1837.37 14.3636 0 -212.816
3078.52 14.9202 0 -239.401
3110.82 14.7978 0 -240.084
1847.04 14.2763 0 -213.026
2457.29 14.8528 0 -228.804
3094.67 14.8595 0 -239.747
2483.11 14.6999 0 -229.353
2470.2 14.7768 0 -229.082
1837.37 14.3636 0 -212.816
1818.03 14.5354 0 -212.38
3046.22 15.0383 0 -238.683
3078.52 14.9202 0 -239.401
1827.7 14.4499 0 -212.601
2431.48 15.0017 0 -228.227
3062.37 14.9798 0 -239.047
2457.29 14.8528 0 -228.804
2444.39 14.9277 0 -228.519
1818.03 14.5354 0 -212.38
1798.7 14.7036 0 -211.924
3013.93 15.1523 0 -237.931
3046.22 15.0383 0 -238.683
1808.37 14.62 0 -212.155
2405.68 15.1467 0 -227.622
3030.08 15.0958 0 -238.311
2431.48 15.0017 0 -228.227
2418.58 15.0747 0 -227.928
1798.7 14.7036 0 -211.924
1779.37 14.8683 0 -211.447
2981.65 15.2621 0 -237.144
3013.93 15.1523 0 -237.931
1789.04 14.7864 0 -211.688
2379.88 15.2878 0 -226.99
2997.79 15.2077 0 -237.541
2405.68 15.1467 0 -227.622
2392.78 15.2177 0 -227.309
1779.37 14.8683 0 -211.447
1760.05 15.0294 0 -210.949
2949.36 15.3677 0 -236.323
2981.65 15.2621 0 -237.144
1769.71 14.9493 0 -211.2
2354.08 15.425 0 -226.33
2965.5 15.3154 0 -236.737
2379.88 15.2878 0 -226.99
2366.98 15.3569 0 -226.663
1760.05 15.0294 0 -210.949
1740.72 15.187 0 -210.432
2917.09 15.4692 0 -235.468
2949.36 15.3677 0 -236.323
1750.39 15.1087 0 -210.693
2328.28 15.5582 0 -225.644
2933.22 15.419 0 -235.899
2354.08 15.425 0 -226.33
2341.18 15.4921 0 -225.991
1740.72 15.187 0 -210.432
1721.4 15.3409 0 -209.894
2884.81 15.5664 0 -234.58
2917.09 15.4692 0 -235.468
1731.06 15.2644 0 -210.165
2302.49 15.6876 0 -224.931
2900.95 15.5183 0 -235.028
2328.28 15.5582 0 -225.644
2315.38 15.6234 0 -225.291
1721.4 15.3409 0 -209.894
1702.08 15.4913 0 -209.337
2852.55 15.6595 0 -233.659
2884.81 15.5664 0 -234.58
1711.74 15.4166 0 -209.618
2276.7 15.813 0 -224.192
2868.68 15.6135 0 -234.123
2302.49 15.6876 0 -224.931
2289.59 15.7508 0 -224.565
1702.08 15.4913 0 -209.337
1682.77 15.6381 0 -208.76
2820.28 15.7483 0 -232.705
2852.55 15.6595 0 -233.659
1692.43 15.5652 0 -209.051
2250.92 15.9345 0 -223.427
2836.41 15.7044 0 -233.186
2276.7 15.813 0 -224.192
2263.81 15.8742 0 -223.812
1682.77 15.6381 0 -208.76
1663.45 15.7814 0 -208.164
2788.03 15.833 0 -231.72
2820.28 15.7483 0 -232.705
1673.11 15.7102 0 -208.464
2225.13 16.052 0 -222.636
2804.15 15.7912 0 -232.217
2250.92 15.9345 0 -223.427
2238.02 15.9937 0 -223.034
1663.45 15.7814 0 -208.164
1644.14 15.921 0 -207.549
2755.77 15.9135 0 -230.702
2788.03 15.833 0 -231.72
1653.8 15.8516 0 -207.859
2199.36 16.1656 0 -221.819
2771.9 15.8737 0 -231.215
2225.13 16.052 0 -222.636
2212.25 16.1093 0 -222.231
1644.14 15.921 0 -207.549
1624.83 16.0571 0 -206.915
2723.53 15.9897 0 -229.653
2755.77 15.9135 0 -230.702
1634.49 15.9895 0 -207.234
2173.58 16.2753 0 -220.978
2739.65 15.9521 0 -230.182
2199.36 16.1656 0 -221.819
2186.47 16.221 0 -221.402
1624.83 16.0571 0 -206.915
1605.53 16.1896 0 -206.263
2691.28 16.0618 0 -228.574
2723.53 15.9897 0 -229.653
1615.18 16.1238 0 -206.591
2147.81 16.3811 0 -220.111
2707.4 16.0263 0 -229.117
2173.58 16.2753 0 -220.978
2160.7 16.3287 0 -220.548
1605.53 16.1896 0 -206.263
1586.22 16.3185 0 -205.592
2659.04 16.1297 0 -227.463
2691.28 16.0618 0 -228.574
1595.87 16.2545 0 -205.93
2122.05 16.483 0 -219.221
2675.16 16.0963 0 -228.022
2147.81 16.3811 0 -220.111
2134.93 16.4325 0 -219.669
1586.22 16.3185 0 -205.592
1566.92 16.4439 0 -204.903
2626.81 16.1935 0 -226.322
2659.04 16.1297 0 -227.463
1576.57 16.3816 0 -205.25
2096.28 16.5809 0 -218.306
2642.93 16.1621 0 -226.896
2122.05 16.483 0 -219.221
2109.16 16.5324 0 -218.766
1566.92 16.4439 0 -204.903
1547.62 16.5657 0 -204.196
2594.58 16.253 0 -225.151
2626.81 16.1935 0 -226.322
1557.27 16.5052 0 -204.552
2070.52 16.6749 0 -217.367
2610.7 16.2238 0 -225.741
2096.28 16.5809 0 -218.306
2083.4 16.6284 0 -217.839
1547.62 16.5657 0 -204.196
1528.32 16.6839 0 -203.472
2562.36 16.3084 0 -223.951
2594.58 16.253 0 -225.151
1537.97 16.6253 0 -203.836
2044.77 16.7651 0 -216.404
2578.47 16.2813 0 -224.555
2070.52 16.6749 0 -217.367
2057.64 16.7205 0 -216.888
1528.32 16.6839 0 -203.472
1509.03 16.7986 0 -202.73
2530.14 16.3597 0 -222.722
2562.36 16.3084 0 -223.951
1518.67 16.7417 0 -203.103
2019.01 16.8513 0 -215.418
2546.25 16.3346 0 -223.34
2044.77 16.7651 0 -216.404
2031.89 16.8087 0 -215.914
1509.03 16.7986 0 -202.73
1489.74 16.9098 0 -201.971
2497.92 16.4068 0 -221.463
2530.14 16.3597 0 -222.722
1499.38 16.8546 0 -202.352
1993.26 16.9337 0 -214.409
2514.03 16.3838 0 -222.096
2019.01 16.8513 0 -215.418
2006.14 16.893 0 -214.917
1489.74 16.9098 0 -201.971
1470.45 17.0174 0 -201.194
2465.71 16.4498 0 -220.177
2497.92 16.4068 0 -221.463
1480.09 16.964 0 -201.585
1967.52 17.0122 0 -213.378
2481.82 16.4288 0 -220.824
1993.26 16.9337 0 -214.409
1980.39 16.9734 0 -213.896
1470.45 17.0174 0 -201.194
1451.16 17.1215 0 -200.401
2433.51 16.4887 0 -218.862
2465.71 16.4498 0 -220.177
1460.8 17.0699 0 -200.8
1941.78 17.0868 0 -212.324
2449.61 16.4697 0 -219.523
1967.52 17.0122 0 -213.378
1954.65 17.05 0 -212.854
1451.16 17.1215 0 -200.401
1431.87 17.222 0 -199.592
2401.31 16.5234 0 -217.52
2433.51 16.4887 0 -218.862
1441.52 17.1722 0 -199.999
1916.04 17.1576 0 -211.248
2417.41 16.5066 0 -218.194
1941.78 17.0868 0 -212.324
1928.91 17.1227 0 -211.788
1431.87 17.222 0 -199.592
1412.59 17.3191 0 -198.766
2369.11 16.5541 0 -216.15
2401.31 16.5234 0 -217.52
1422.23 17.271 0 -199.181
1890.3 17.2245 0 -210.15
2385.21 16.5393 0 -216.838
1916.04 17.1576 0 -211.248
1903.17 17.1915 0 -210.701
1412.59 17.3191 0 -198.766
1393.31 17.4126 0 -197.924
2336.92 16.5807 0 -214.753
2369.11 16.5541 0 -216.15
1402.95 17.3663 0 -198.347
1864.57 17.2876 0 -209.03
2353.02 16.5679 0 -215.455
1890.3 17.2245 0 -210.15
1877.44 17.2565 0 -209.593
1393.31 17.4126 0 -197.924
1374.03 17.5027 0 -197.066
2304.74 16.6033 0 -213.33
2336.92 16.5807 0 -214.753
1383.67 17.4581 0 -197.497
1838.84 17.3469 0 -207.889
2320.83 16.5925 0 -214.045
1864.57 17.2876 0 -209.03
1851.71 17.3177 0 -208.462
1374.03 17.5027 0 -197.066
1354.76 17.5893 0 -196.192
2272.55 16.6218 0 -211.88
2304.74 16.6033 0 -213.33
1364.39 17.5464 0 -196.631
1813.12 17.4024 0 -206.728
2288.64 16.613 0 -212.608
1838.84 17.3469 0 -207.889
1825.98 17.3751 0 -207.311
1354.76 17.5893 0 -196.192
1335.48 17.6724 0 -195.303
2240.38 16.6363 0 -210.405
2272.55 16.6218 0 -211.88
1345.12 17.6313 0 -195.749
1787.4 17.4541 0 -205.545
2256.46 16.6296 0 -211.146
1813.12 17.4024 0 -206.728
1800.26 17.4287 0 -206.139
1335.48 17.6724 0 -195.303
1316.21 17.752 0 -194.399
2208.2 16.6468 0 -208.904
2240.38 16.6363 0 -210.405
1325.85 17.7126 0 -194.853
1761.68 17.5021 0 -204.343
2224.29 16.6421 0 -209.658
1787.4 17.4541 0 -205.545
1774.54 17.4786 0 -204.947
1316.21 17.752 0 -194.399
1296.94 17.8282 0 -193.479
2176.04 16.6534 0 -207.379
2208.2 16.6468 0 -208.904
1306.58 17.7906 0 -193.941
1735.96 17.5462 0 -203.12
2192.12 16.6506 0 -208.145
1761.68 17.5021 0 -204.343
1748.82 17.5246 0 -203.734
1296.94 17.8282 0 -193.479
1277.67 17.901 0 -192.545
2143.87 16.6559 0 -205.828
2176.04 16.6534 0 -207.379
1287.31 17.8651 0 -193.014
1710.25 17.5867 0 -201.878
2159.95 16.6551 0 -206.606
1735.96 17.5462 0 -203.12
1723.11 17.5669 0 -202.501
1277.67 17.901 0 -192.545
1258.41 17.9704 0 -191.597
2111.71 16.6546 0 -204.253
2143.87 16.6559 0 -205.828
1268.04 17.9361 0 -192.073
1684.54 17.6234 0 -200.616
2127.79 16.6558 0 -205.044
1710.25 17.5867 0 -201.878
1697.4 17.6055 0 -201.249
1258.41 17.9704 0 -191.597
1239.15 18.0363 0 -190.633
2079.56 16.6493 0 -202.654
2111.71 16.6546 0 -204.253
1248.78 18.0038 0 -191.117
1658.84 17.6565 0 -199.335
2095.64 16.6524 0 -203.457
1684.54 17.6234 0 -200.616
1671.69 17.6404 0 -199.977
1239.15 18.0363 0 -190.633
1219.89 18.0989 0 -189.656
2047.41 16.6402 0 -201.032
2079.56 16.6493 0 -202.654
1229.52 18.068 0 -190.147
1633.14 17.6859 0 -198.035
2063.48 16.6453 0 -201.846
1658.84 17.6565 0 -199.335
1645.99 17.6716 0 -198.687
1219.89 18.0989 0 -189.656
1200.63 18.1581 0 -188.665
2015.26 16.6272 0 -199.386
2047.41 16.6402 0 -201.032
1210.26 18.1289 0 -189.163
1607.44 17.7116 0 -196.716
2031.34 16.6342 0 -200.212
1633.14 17.6859 0 -198.035
1620.29 17.6992 0 -197.378
1200.63 18.1581 0 -188.665
1181.37 18.214 0 -187.661
1983.12 16.6104 0 -197.718
2015.26 16.6272 0 -199.386
1191 18.1864 0 -188.165
1581.74 17.7337 0 -195.379
1999.19 16.6193 0 -198.555
1607.44 17.7116 0 -196.716
1594.59 17.7231 0 -196.05
1181.37 18.214 0 -187.661
1162.12 18.2665 0 -186.642
1950.98 16.5898 0 -196.027
1983.12 16.6104 0 -197.718
1171.75 18.2406 0 -187.153
1556.05 17.7521 0 -194.025
1967.05 16.6006 0 -196.875
1581.74 17.7337 0 -195.379
1568.9 17.7433 0 -194.704
1162.12 18.2665 0 -186.642
1142.87 18.3156 0 -185.611
1918.85 16.5654 0 -194.313
1950.98 16.5898 0 -196.027
1152.49 18.2915 0 -186.128
1530.36 17.767 0 -192.652
1934.92 16.578 0 -195.173
1556.05 17.7521 0 -194.025
1543.21 17.76 0 -193.341
1142.87 18.3156 0 -185.611
1123.62 18.3615 0 -184.567
1886.72 16.5372 0 -192.578
1918.85 16.5654 0 -194.313
1133.24 18.339 0 -185.09
1504.68 17.7783 0 -191.262
1902.79 16.5518 0 -193.449
1530.36 17.767 0 -192.652
1517.52 17.7731 0 -191.959
1123.62 18.3615 0 -184.567
1104.37 18.4041 0 -183.509
1854.6 16.5054 0 -190.822
1886.72 16.5372 0 -192.578
1113.99 18.3832 0 -184.039
1478.99 17.7861 0 -189.856
1870.66 16.5218 0 -191.703
1504.68 17.7783 0 -191.262
1491.83 17.7827 0 -190.561
1104.37 18.4041 0 -183.509
1085.13 18.4434 0 -182.44
1822.48 16.4698 0 -189.045
1854.6 16.5054 0 -190.822
1094.75 18.4242 0 -182.976
1453.31 17.7904 0 -188.432
1838.54 16.4881 0 -189.936
1478.99 17.7861 0 -189.856
1466.15 17.7887 0 -189.146
1085.13 18.4434 0 -182.44
1065.88 18.4795 0 -181.357
1790.36 16.4307 0 -187.247
1822.48 16.4698 0 -189.045
1075.5 18.4619 0 -181.9
1427.64 17.7911 0 -186.992
1806.42 16.4507 0 -188.148
1453.31 17.7904 0 -188.432
1440.47 17.7912 0 -187.714
1065.88 18.4795 0 -181.357
1046.64 18.5123 0 -180.263
1758.25 16.3879 0 -185.428
1790.36 16.4307 0 -187.247
1056.26 18.4963 0 -180.812
1401.96 17.7884 0 -185.535
1774.31 16.4097 0 -186.34
1427.64 17.7911 0 -186.992
1414.8 17.7902 0 -186.265
1046.64 18.5123 0 -180.263
1027.4 18.542 0 -179.157
1726.14 16.3415 0 -183.59
1758.25 16.3879 0 -185.428
1037.02 18.5276 0 -179.712
1376.29 17.7823 0 -184.063
1742.2 16.3651 0 -184.512
1401.96 17.7884 0 -185.535
1389.13 17.7858 0 -184.801
1027.4 18.542 0 -179.157
1008.16 18.5684 0 -178.039
1694.04 16.2915 0 -181.732
1726.14 16.3415 0 -183.59
1017.78 18.5556 0 -178.6
1350.62 17.7727 0 -182.575
1710.09 16.3169 0 -182.664
1376.29 17.7823 0 -184.063
1363.46 17.7779 0 -183.321
1008.16 18.5684 0 -178.039
988.928 18.5917 0 -176.91
1661.94 16.238 0 -179.855
1694.04 16.2915 0 -181.732
998.545 18.5805 0 -177.476
1324.96 17.7598 0 -181.072
1677.99 16.2652 0 -180.796
1350.62 17.7727 0 -182.575
1337.79 17.7667 0 -181.825
988.928 18.5917 0 -176.91
969.694 18.6118 0 -175.769
1629.84 16.1811 0 -177.96
1661.94 16.238 0 -179.855
979.311 18.6022 0 -176.341
1299.3 17.7435 0 -179.554
1645.89 16.21 0 -178.91
1324.96 17.7598 0 -181.072
1312.13 17.7521 0 -180.315
969.694 18.6118 0 -175.769
950.462 18.6288 0 -174.618
1597.75 16.1207 0 -176.045
1629.84 16.1811 0 -177.96
960.078 18.6207 0 -175.195
1273.64 17.7239 0 -178.021
1613.8 16.1513 0 -177.005
1299.3 17.7435 0 -179.554
1286.47 17.7341 0 -178.789
950.462 18.6288 0 -174.618
931.232 18.6427 0 -173.455
1565.66 16.0569 0 -174.113
1597.75 16.1207 0 -176.045
940.847 18.6362 0 -174.038
1247.98 17.701 0 -176.473
1581.71 16.0892 0 -175.081
1273.64 17.7239 0 -178.021
1260.81 17.7128 0 -177.249
931.232 18.6427 0 -173.455
912.004 18.6536 0 -172.283
1533.58 15.9897 0 -172.163
1565.66 16.0569 0 -174.113
921.618 18.6485 0 -172.87
1222.33 17.6748 0 -174.912
1549.62 16.0237 0 -173.14
1247.98 17.701 0 -176.473
1235.15 17.6883 0 -175.694
912.004 18.6536 0 -172.283
892.778 18.6613 0 -171.099
1501.5 15.9192 0 -170.196
1533.58 15.9897 0 -172.163
902.391 18.6578 0 -171.692
1196.68 17.6454 0 -173.336
1517.54 15.9549 0 -171.182
1222.33 17.6748 0 -174.912
1209.5 17.6605 0 -174.126
892.778 18.6613 0 -171.099
873.553 18.6661 0 -169.906
1469.42 15.8454 0 -168.211
1501.5 15.9192 0 -170.196
883.165 18.6641 0 -170.504
1171.03 17.6127 0 -171.747
1485.46 15.8827 0 -169.206
1196.68 17.6454 0 -173.336
1183.85 17.6294 0 -172.543
873.553 18.6661 0 -169.906
854.33 18.6678 0 -168.702
1437.35 15.7684 0 -166.21
1469.42 15.8454 0 -168.211
863.942 18.6673 0 -169.305
1145.38 17.5769 0 -170.145
1453.38 15.8073 0 -167.213
1171.03 17.6127 0 -171.747
1158.21 17.5952 0 -170.948
854.33 18.6678 0 -168.702
835.109 18.6665 0 -167.489
1405.28 15.6881 0 -164.193
1437.35 15.7684 0 -166.21
844.72 18.6675 0 -168.097
1119.74 17.538 0 -168.53
1421.31 15.7286 0 -165.204
1145.38 17.5769 0 -170.145
1132.56 17.5579 0 -169.339
835.109 18.6665 0 -167.489
815.89 18.6623 0 -166.267
1373.21 15.6046 0 -162.16
1405.28 15.6881 0 -164.193
825.499 18.6648 0 -166.879
1094.1 17.4959 0 -166.902
1389.24 15.6467 0 -163.179
1119.74 17.538 0 -168.53
1106.92 17.5173 0 -167.717
815.89 18.6623 0 -166.267
796.672 18.6551 0 -165.035
1341.15 15.518 0 -160.112
1373.21 15.6046 0 -162.16
806.281 18.6591 0 -165.652
1068.46 17.4508 0 -165.262
1357.18 15.5617 0 -161.138
1094.1 17.4959 0 -166.902
1081.28 17.4738 0 -166.083
796.672 18.6551 0 -165.035
777.456 18.6451 0 -163.794
1309.09 15.4284 0 -158.048
1341.15 15.518 0 -160.112
787.064 18.6505 0 -164.416
1042.83 17.4026 0 -163.609
1325.12 15.4736 0 -159.082
1068.46 17.4508 0 -165.262
1055.64 17.4271 0 -164.437
777.456 18.6451 0 -163.794
758.241 18.6321 0 -162.545
1277.03 15.3356 0 -155.969
1309.09 15.4284 0 -158.048
767.848 18.639 0 -163.171
1017.19 17.3515 0 -161.945
1293.06 15.3824 0 -157.011
1042.83 17.4026 0 -163.609
1030.01 17.3774 0 -162.779
758.241 18.6321 0 -162.545
739.028 18.6163 0 -161.286
1244.98 15.2399 0 -153.877
1277.03 15.3356 0 -155.969
748.634 18.6246 0 -161.917
991.563 17.2973 0 -160.269
1261.01 15.2881 0 -154.925
1017.19 17.3515 0 -161.945
1004.38 17.3247 0 -161.109
739.028 18.6163 0 -161.286
719.816 18.5976 0 -160.02
1212.93 15.1412 0 -151.77
1244.98 15.2399 0 -153.877
729.422 18.6073 0 -160.654
965.934 17.2402 0 -158.582
1228.96 15.1909 0 -152.825
991.563 17.2973 0 -160.269
978.748 17.2691 0 -159.427
719.816 18.5976 0 -160.02
700.606 18.5762 0 -158.745
1180.89 15.0396 0 -149.649
1212.93 15.1412 0 -151.77
710.211 18.5873 0 -159.383
940.309 17.1802 0 -156.885
1196.91 15.0908 0 -150.711
965.934 17.2402 0 -158.582
953.121 17.2106 0 -157.735
700.606 18.5762 0 -158.745
681.398 18.5519 0 -157.462
1148.84 14.9351 0 -147.515
1180.89 15.0396 0 -149.649
691.002 18.5644 0 -158.105
914.685 17.1173 0 -155.176
1164.86 14.9877 0 -148.584
940.309 17.1802 0 -156.885
927.496 17.1491 0 -156.032
681.398 18.5519 0 -157.462
662.19 18.5249 0 -156.172
1116.8 14.8278 0 -145.368
1148.84 14.9351 0 -147.515
671.794 18.5388 0 -156.818
889.063 17.0516 0 -153.458
1132.82 14.8818 0 -146.443
914.685 17.1173 0 -155.176
901.874 17.0848 0 -154.318
662.19 18.5249 0 -156.172
642.985 18.4952 0 -154.874
1084.77 14.7177 0 -143.209
1116.8 14.8278 0 -145.368
652.587 18.5104 0 -155.524
863.444 16.9831 0 -151.729
1100.79 14.7731 0 -144.29
889.063 17.0516 0 -153.458
876.254 17.0177 0 -152.594
642.985 18.4952 0 -154.874
623.78 18.4628 0 -153.569
1052.73 14.6049 0 -141.037
1084.77 14.7177 0 -143.209
633.382 18.4793 0 -154.222
837.827 16.9119 0 -149.99
1068.75 14.6616 0 -142.124
863.444 16.9831 0 -151.729
850.635 16.9478 0 -150.861
623.78 18.4628 0 -153.569
604.577 18.4277 0 -152.257
1020.7 14.4893 0 -138.853
1052.73 14.6049 0 -141.037
614.178 18.4456 0 -152.914
812.212 16.8379 0 -148.242
1036.72 14.5474 0 -139.947
837.827 16.9119 0 -149.99
825.019 16.8752 0 -149.117
604.577 18.4277 0 -152.257
585.375 18.3899 0 -150.938
988.677 14.3711 0 -136.658
1020.7 14.4893 0 -138.853
594.976 18.4091 0 -151.598
786.599 16.7612 0 -146.485
1004.69 14.4306 0 -137.757
812.212 16.8379 0 -148.242
799.406 16.7999 0 -147.365
585.375 18.3899 0 -150.938
566.175 18.3495 0 -149.612
956.652 14.2504 0 -134.452
988.677 14.3711 0 -136.658
575.775 18.3701 0 -150.276
760.988 16.6819 0 -144.719
972.664 14.3111 0 -135.557
786.599 16.7612 0 -146.485
773.794 16.7219 0 -145.603
566.175 18.3495 0 -149.612
546.975 18.3065 0 -148.28
924.631 14.127 0 -132.235
956.652 14.2504 0 -134.452
556.575 18.3284 0 -148.947
735.38 16.5999 0 -142.945
940.641 14.189 0 -133.345
760.988 16.6819 0 -144.719
748.184 16.6412 0 -143.833
546.975 18.3065 0 -148.28
527.777 18.261 0 -146.942
892.612 14.0012 0 -130.008
924.631 14.127 0 -132.235
537.376 18.2841 0 -147.612
709.773 16.5154 0 -141.162
908.621 14.0644 0 -131.123
735.38 16.5999 0 -142.945
722.576 16.558 0 -142.054
527.777 18.261 0 -146.942
508.58 18.2128 0 -145.598
860.595 13.8729 0 -127.771
892.612 14.0012 0 -130.008
518.179 18.2372 0 -146.27
684.167 16.4283 0 -139.371
876.603 13.9373 0 -128.891
709.773 16.5154 0 -141.162
696.97 16.4721 0 -140.267
508.58 18.2128 0 -145.598
489.385 18.1622 0 -144.248
828.582 13.7422 0 -125.524
860.595 13.8729 0 -127.771
498.982 18.1878 0 -144.923
658.564 16.3387 0 -137.573
844.588 13.8078 0 -126.649
684.167 16.4283 0 -139.371
671.366 16.3838 0 -138.473
489.385 18.1622 0 -144.248
470.19 18.109 0 -142.893
796.57 13.6091 0 -123.268
828.582 13.7422 0 -125.524
479.787 18.1359 0 -143.571
632.963 16.2466 0 -135.767
812.576 13.6759 0 -124.397
658.564 16.3387 0 -137.573
645.763 16.2929 0 -136.671
470.19 18.109 0 -142.893
450.997 18.0533 0 -141.532
764.562 13.4737 0 -121.003
796.57 13.6091 0 -123.268
460.593 18.0815 0 -142.213
607.363 16.1521 0 -133.954
780.566 13.5417 0 -122.137
632.963 16.2466 0 -135.767
620.162 16.1996 0 -134.861
450.997 18.0533 0 -141.532
431.804 17.9953 0 -140.167
732.555 13.3361 0 -118.73
764.562 13.4737 0 -121.003
441.4 18.0246 0 -140.85
581.765 16.0551 0 -132.135
748.558 13.4052 0 -119.868
607.363 16.1521 0 -133.954
594.563 16.1039 0 -133.045
431.804 17.9953 0 -140.167
412.613 17.9348 0 -138.796
700.551 13.1962 0 -116.448
732.555 13.3361 0 -118.73
422.208 17.9653 0 -139.482
556.168 15.9559 0 -130.309
716.553 13.2664 0 -117.59
581.765 16.0551 0 -132.135
568.966 16.0058 0 -131.223
412.613 17.9348 0 -138.796
393.423 17.8721 0 -137.422
668.549 13.0542 0 -114.159
700.551 13.1962 0 -116.448
403.018 17.9037 0 -138.11
530.573 15.8544 0 -128.477
684.55 13.1255 0 -115.305
556.168 15.9559 0 -130.309
543.371 15.9054 0 -129.394
393.423 17.8721 0 -137.422
374.234 17.8072 0 -136.042
636.549 12.9101 0 -111.863
668.549 13.0542 0 -114.159
383.829 17.8399 0 -136.732
504.981 15.7507 0 -126.639
652.549 12.9824 0 -113.012
530.573 15.8544 0 -128.477
517.777 15.8028 0 -127.559
374.234 17.8072 0 -136.042
355.047 17.7406 0 -134.658
604.552 12.7641 0 -109.559
636.549 12.9101 0 -111.863
364.641 17.7741 0 -135.351
479.39 15.645 0 -124.795
620.55 12.8374 0 -110.712
504.981 15.7507 0 -126.639
492.185 15.6981 0 -125.718
355.047 17.7406 0 -134.658
335.862 17.6727 0 -133.269
572.557 12.6164 0 -107.249
604.552 12.7641 0 -109.559
345.454 17.7068 0 -133.964
453.801 15.5379 0 -122.945
588.554 12.6905 0 -108.405
479.39 15.645 0 -124.795
466.595 15.5916 0 -123.871
335.862 17.6727 0 -133.269
316.677 17.6047 0 -131.875
540.565 12.4673 0 -104.931
572.557 12.6164 0 -107.249
326.269 17.6387 0 -132.573
428.215 15.4298 0 -121.089
556.561 12.542 0 -106.091
453.801 15.5379 0 -122.945
441.008 15.4839 0 -122.018
316.677 17.6047 0 -131.875
297.495 17.5387 0 -130.475
508.578 12.3176 0 -102.605
540.565 12.4673 0 -104.931
307.086 17.5713 0 -131.176
402.632 15.3224 0 -119.225
524.571 12.3925 0 -103.769
428.215 15.4298 0 -121.089
415.423 15.3759 0 -120.158
297.495 17.5387 0 -130.475
278.312 17.4784 0 -129.066
476.597 12.1687 0 -100.269
508.578 12.3176 0 -102.605
287.904 17.5075 0 -129.772
377.053 15.2184 0 -117.351
492.587 12.2429 0 -101.438
402.632 15.3224 0 -119.225
389.842 15.2697 0 -118.29
278.312 17.4784 0 -129.066
259.126 17.4315 0 -127.646
444.626 12.0233 0 -97.9181
476.597 12.1687 0 -100.269
268.719 17.4525 0 -128.358
351.477 15.1235 0 -115.462
460.61 12.0954 0 -99.0956
377.053 15.2184 0 -117.351
364.265 15.1694 0 -116.409
259.126 17.4315 0 -127.646
239.925 17.4105 0 -126.209
412.671 11.8871 0 -95.543
444.626 12.0233 0 -97.9181
249.529 17.4165 0 -126.93
325.903 15.0473 0 -113.548
428.645 11.9535 0 -96.7345
351.477 15.1235 0 -115.462
338.69 15.0819 0 -114.509
239.925 17.4105 0 -126.209
220.697 17.441 0 -124.747
380.736 11.7686 0 -93.1271
412.671 11.8871 0 -95.543
230.315 17.417 0 -125.482
300.324 15.0096 0 -111.591
396.701 11.8249 0 -94.3416
325.903 15.0473 0 -113.548
313.115 15.0224 0 -112.576
220.697 17.441 0 -124.747
201.391 17.5591 0 -123.248
348.844 11.6877 0 -90.6343
380.736 11.7686 0 -93.1271
211.059 17.4856 0 -124.003
274.724 15.0398 0 -109.564
364.782 11.7219 0 -91.8937
300.324 15.0096 0 -111.591
287.527 15.0123 0 -110.59
201.391 17.5591 0 -123.248
181.954 17.838 0 -121.69
316.99 11.6655 0 -88.0138
348.844 11.6877 0 -90.6343
191.69 17.6727 0 -122.478
249.064 15.1977 0 -107.415
332.916 11.6666 0 -89.3443
274.724 15.0398 0 -109.564
261.906 15.1005 0 -108.507
181.954 17.838 0 -121.69
162.205 18.3534 0 -120.062
285.236 11.7648 0 -85.1524
316.99 11.6655 0 -88.0138
172.139 18.0586 0 -120.885
223.271 15.5507 0 -105.068
301.09 11.6973 0 -86.6236
249.064 15.1977 0 -107.415
236.186 15.3377 0 -106.277
162.205 18.3534 0 -120.062
141.999 19.2656 0 -118.329
253.483 12.0077 0 -81.927
285.236 11.7648 0 -85.1524
152.158 18.7522 0 -119.212
197.177 16.2445 0 -102.415
269.379 11.8594 0 -83.5949
223.271 15.5507 0 -105.068
210.283 15.8577 0 -103.779
141.999 19.2656 0 -118.329
120.784 20.5957 0 -116.544
221.891 12.576 0 -78.0506
253.483 12.0077 0 -81.927
131.584 19.8728 0 -117.434
170.529 17.3391 0 -99.3364
237.634 12.2567 0 -80.0951
197.177 16.2445 0 -102.415
183.924 16.7101 0 -100.957
120.784 20.5957 0 -116.544
98.3505 22.4717 0 -114.749
189.821 13.3001 0 -73.3792
221.891 12.576 0 -78.0506
109.692 21.4912 0 -115.644
142.71 19.0359 0 -95.7708
206.012 12.8875 0 -75.8248
170.529 17.3391 0 -99.3364
156.86 18.166 0 -97.5736
98.3505 22.4717 0 -114.749
73.472 24.0061 0 -113.464
157.531 14.6433 0 -67.474
189.821 13.3001 0 -73.3792
86.3888 23.3402 0 -113.987
113.055 20.7962 0 -91.9403
173.614 13.9839 0 -70.6046
142.71 19.0359 0 -95.7708
128.074 19.855 0 -93.937
73.472 24.0061 0 -113.464
46.94 24.0242 0 -113.24
121.894 14.8662 0 -61.1256
157.531 14.6433 0 -67.474
60.2053 24.4802 0 -113.164
79.6251 21.8408 0 -88.9107
140.534 14.801 0 -64.2957
113.055 20.7962 0 -91.9403
97.178 21.7848 0 -90.0464
46.94 24.0242 0 -113.24
18.2536 16.1823 0 -115.823
82.8694 14.23 0 -55.7912
121.894 14.8662 0 -61.1256
33.114 21.5478 0 -114.048
42.1259 16.4436 0 -89.5771
102.631 15.3646 0 -58.0416
79.6251 21.8408 0 -88.9107
61.0122 20.2008 0 -88.7892
18.2536 16.1823 0 -115.823
-3.64633 -8.87671 0 -119.472
30.5655 -1.07894 0 -61.73
82.8694 14.23 0 -55.7912
5.32454 7.24618 0 -117.77
-0.0188991 -8.25884 0 -99.7086
59.5677 8.74302 0 -56.4566
42.1259 16.4436 0 -89.5771
22.4811 9.00762 0 -92.3972
-3.64633 -8.87671 0 -119.472
-15.0574 -73.8683 0 -114.163
-16.2179 -62.2834 0 -95.8038
30.5655 -1.07894 0 -61.73
-10.5345 -36.4281 0 -119.523
-16.3436 -86.2376 0 -113.86
4.86997 -16.7402 0 -72.6692
-0.0188991 -8.25884 0 -99.7086
-16.4275 -39.5726 0 -108.798
-15.0574 -73.8683 0 -114.163
-10.0712 -155.568 0 -69.0282
-5.12555 -310.466 0 -117.593
-16.2179 -62.2834 0 -95.8038
-15.8168 -116.921 0 -98.3886
7.50717 -225.025 0 -71.9374
-25.7301 -161.743 0 -119.897
-16.3436 -86.2376 0 -113.86
-7.27774 -151.626 0 -105.02
5946.7 1774.59 0 -245.769
6299.01 676.985 0 -359.19
8486.38 -156.584 0 102.793
13150.8 3924.09 0 -3159.98
6178.74 1276.9 0 -412.658
7872.92 482.978 0 -467.727
9443.86 -173.361 0 -461.621
7001.21 2088.6 0 -762.938
7770.31 1057.33 0 -722.071
6299.01 676.985 0 -359.19
6396.47 198.179 0 -180.645
8396.3 -90.0962 0 20.9381
8486.38 -156.584 0 102.793
6389.99 346.74 0 -264.421
7577.99 68.7021 0 -92.9819
8409.8 27.4314 0 37.4086
7872.92 482.978 0 -467.727
7673.69 173.361 0 -199.458
6396.47 198.179 0 -180.645
6316.94 30.4102 0 -79.2663
8548.46 28.8187 0 -3.41397
8396.3 -90.0962 0 20.9381
6348.83 94.4367 0 -113.624
7476.7 -1.64308 0 -27.6276
8484.25 -57.9503 0 19.3467
7577.99 68.7021 0 -92.9819
7522.79 23.5572 0 -55.082
6316.94 30.4102 0 -79.2663
6261.41 -6.93522 0 -59.1614
8585.32 -8.20951 0 -28.5273
8548.46 28.8187 0 -3.41397
6292.39 3.49889 0 -65.1632
7429.24 -11.7092 0 -21.6518
8568.96 26.8504 0 -26.8977
7476.7 -1.64308 0 -27.6276
7444.1 -11.6365 0 -16.6289
6261.41 -6.93522 0 -59.1614
6205.63 -20.9158 0 -61.726
8615.67 9.90924 0 -31.326
8585.32 -8.20951 0 -28.5273
6229.05 -15.9602 0 -58.0791
7407.05 -11.2479 0 -36.3868
8607.18 -5.65897 0 -26.3052
7429.24 -11.7092 0 -21.6518
7420.23 -10.7095 0 -30.4195
6205.63 -20.9158 0 -61.726
6166.92 -18.8523 0 -73.5442
8603.12 -0.998819 0 -40.0359
8615.67 9.90924 0 -31.326
6186.86 -20.6133 0 -67.8101
7380.29 -9.50162 0 -50.6227
8610.18 7.35502 0 -37.8156
7407.05 -11.2479 0 -36.3868
7392.86 -10.9704 0 -42.9569
6166.92 -18.8523 0 -73.5442
6129.63 -16.4719 0 -84.2844
8583.37 2.46141 0 -44.846
8603.12 -0.998819 0 -40.0359
6147.12 -17.7569 0 -78.9063
7352.11 -7.39265 0 -63.0297
8595.76 -0.712758 0 -41.5027
7380.29 -9.50162 0 -50.6227
7367.31 -8.13564 0 -57.5215
6129.63 -16.4719 0 -84.2844
6096.52 -13.106 0 -93.8726
8548.81 0.069948 0 -51.3018
8583.37 2.46141 0 -44.846
6113.26 -14.6973 0 -89.4311
7319.25 -6.09898 0 -72.8375
8566.58 1.83906 0 -48.5847
7352.11 -7.39265 0 -63.0297
7335.76 -6.79968 0 -68.0997
6096.52 -13.106 0 -93.8726
6063.5 -10.917 0 -101.346
8510.57 0.777219 0 -56.8402
8548.81 0.069948 0 -51.3018
6079.77 -11.928 0 -97.773
7284.38 -5.04904 0 -80.6907
8530.43 0.112989 0 -53.8511
7319.25 -6.09898 0 -72.8375
7302.24 -5.47311 0 -77.0208
6063.5 -10.917 0 -101.346
6031.24 -9.24748 0 -107.571
8468.01 0.358751 0 -62.6778
8510.57 0.777219 0 -56.8402
6047.43 -9.99212 0 -104.628
7247.5 -4.43488 0 -87.2802
8489.49 0.68192 0 -59.8866
7284.38 -5.04904 0 -80.6907
7266.02 -4.73562 0 -84.099
6031.24 -9.24748 0 -107.571
5998.86 -8.19794 0 -112.775
8424.17 0.559405 0 -68.2608
8468.01 0.358751 0 -62.6778
6015.01 -8.67372 0 -110.258
7209.75 -3.96166 0 -93.0107
8446.28 0.392614 0 -65.4267
7247.5 -4.43488 0 -87.2802
7228.76 -4.16756 0 -90.2337
5998.86 -8.19794 0 -112.775
5966.56 -7.46066 0 -117.409
8379.25 0.565658 0 -73.8265
8424.17 0.559405 0 -68.2608
5982.74 -7.79196 0 -115.156
7171.33 -3.64058 0 -98.2502
8401.77 0.584555 0 -71.0809
7209.75 -3.96166 0 -93.0107
7190.57 -3.79619 0 -95.6779
5966.56 -7.46066 0 -117.409
5934.18 -6.95011 0 -121.647
8333.97 0.688427 0 -79.2716
8379.25 0.565658 0 -73.8265
5950.37 -7.18728 0 -119.563
7132.63 -3.36981 0 -103.162
8356.65 0.612774 0 -76.5488
7171.33 -3.64058 0 -98.2502
7152.02 -3.49677 0 -100.738
5934.18 -6.95011 0 -121.647
5901.78 -6.55138 0 -125.656
8288.45 0.785727 0 -84.6348
8333.97 0.688427 0 -79.2716
5917.99 -6.73911 0 -123.676
7093.74 -3.14009 0 -107.874
8311.22 0.74079 0 -81.9701
7132.63 -3.36981 0 -103.162
7113.19 -3.25369 0 -105.538
5901.78 -6.55138 0 -125.656
5869.33 -6.21906 0 -129.502
8242.85 0.905858 0 -89.9004
8288.45 0.785727 0 -84.6348
5885.56 -6.38008 0 -127.595
7054.76 -2.92227 0 -112.439
8265.66 0.842483 0 -87.2769
7093.74 -3.14009 0 -107.874
7074.26 -3.0294 0 -110.172
5869.33 -6.21906 0 -129.502
5836.87 -5.91695 0 -133.236
8197.21 1.02764 0 -95.0732
8242.85 0.905858 0 -89.9004
5853.11 -6.06516 0 -131.382
7015.73 -2.7113 0 -116.895
8220.03 0.966888 0 -92.4995
7054.76 -2.92227 0 -112.439
7035.25 -2.8169 0 -114.68
5836.87 -5.91695 0 -133.236
5804.39 -5.62987 0 -136.878
8151.55 1.15667 0 -100.152
8197.21 1.02764 0 -95.0732
5820.63 -5.77238 0 -135.067
6976.68 -2.50014 0 -121.255
8174.38 1.09105 0 -97.6239
7015.73 -2.7113 0 -116.895
6996.21 -2.6057 0 -119.086
5804.39 -5.62987 0 -136.878
5771.9 -5.34813 0 -140.443
8105.88 1.29071 0 -105.137
8151.55 1.15667 0 -100.152
5788.15 -5.4886 0 -138.67
6937.61 -2.28726 0 -125.528
8128.72 1.22319 0 -102.656
6976.68 -2.50014 0 -121.255
6957.15 -2.39412 0 -123.402
5771.9 -5.34813 0 -140.443
5739.4 -5.06783 0 -143.935
8060.21 1.42972 0 -110.029
8105.88 1.29071 0 -105.137
5755.65 -5.208 0 -142.197
6898.54 -2.07135 0 -129.719
8083.05 1.35954 0 -107.595
6937.61 -2.28726 0 -125.528
6918.08 -2.17966 0 -127.634
5739.4 -5.06783 0 -143.935
5706.9 -4.7868 0 -147.358
8014.54 1.57364 0 -114.829
8060.21 1.42972 0 -110.029
5723.15 -4.92746 0 -145.655
6859.46 -1.85219 0 -133.829
8037.37 1.50111 0 -112.441
6898.54 -2.07135 0 -129.719
6879 -1.9622 0 -131.784
5706.9 -4.7868 0 -147.358
5674.39 -4.50432 0 -150.713
7968.86 1.72208 0 -119.536
8014.54 1.57364 0 -114.829
5690.64 -4.64578 0 -149.044
6820.38 -1.62972 0 -137.859
7991.7 1.6473 0 -117.194
6859.46 -1.85219 0 -133.829
6839.92 -1.74135 0 -135.854
5674.39 -4.50432 0 -150.713
5641.88 -4.22007 0 -154.003
7923.19 1.87496 0 -124.152
7968.86 1.72208 0 -119.536
5658.13 -4.36242 0 -152.366
6781.3 -1.40406 0 -141.811
7946.02 1.79798 0 -121.855
6820.38 -1.62972 0 -137.859
6800.84 -1.51728 0 -139.845
5641.88 -4.22007 0 -154.003
5609.37 -3.93404 0 -157.227
7877.51 2.03199 0 -128.677
7923.19 1.87496 0 -124.152
5625.62 -4.07728 0 -155.623
6742.21 -1.17538 0 -145.684
7900.35 1.95297 0 -126.426
6781.3 -1.40406 0 -141.811
6761.76 -1.29008 0 -143.757
5609.37 -3.93404 0 -157.227
5576.85 -3.64627 0 -160.386
7831.83 2.193 0 -133.111
7877.51 2.03199 0 -128.677
5593.11 -3.79036 0 -158.815
6703.13 -0.94384 0 -149.48
7854.67 2.11201 0 -130.905
6742.21 -1.17538 0 -145.684
6722.67 -1.05995 0 -147.592
5576.85 -3.64627 0 -160.386
5544.33 -3.35689 0 -163.481
7786.15 2.35775 0 -137.455
7831.83 2.193 0 -133.111
5560.59 -3.50177 0 -161.941
6664.04 -0.70964 0 -153.199
7808.99 2.27492 0 -135.294
6703.13 -0.94384 0 -149.48
6683.58 -0.827062 0 -151.349
5544.33 -3.35689 0 -163.481
5511.82 -3.06602 0 -166.512
7740.47 2.52604 0 -141.709
7786.15 2.35775 0 -137.455
5528.08 -3.21163 0 -165.004
6624.95 -0.472957 0 -156.841
7763.31 2.44147 0 -139.593
6664.04 -0.70964 0 -153.199
6644.49 -0.591598 0 -155.029
5511.82 -3.06602 0 -166.512
5479.3 -2.77381 0 -169.479
7694.79 2.69765 0 -145.874
7740.47 2.52604 0 -141.709
5495.56 -2.92008 0 -168.003
6585.86 -0.233972 0 -160.407
7717.63 2.61145 0 -143.803
6624.95 -0.472957 0 -156.841
6605.4 -0.353741 0 -158.633
5479.3 -2.77381 0 -169.479
5446.78 -2.48039 0 -172.383
7649.11 2.87238 0 -149.951
7694.79 2.69765 0 -145.874
5463.04 -2.62724 0 -170.939
6546.77 0.0071357 0 -163.896
7671.95 2.78464 0 -147.924
6585.86 -0.233972 0 -160.407
6566.31 -0.113673 0 -162.161
5446.78 -2.48039 0 -172.383
5414.26 -2.18589 0 -175.225
7603.44 3.05001 0 -153.94
7649.11 2.87238 0 -149.951
5430.52 -2.33326 0 -173.812
6507.68 0.250191 0 -167.311
7626.27 2.96084 0 -151.957
6546.77 0.00713569 0 -163.896
6527.22 0.128431 0 -165.613
5414.26 -2.18589 0 -175.225
5381.74 -1.89047 0 -178.004
7557.76 3.23034 0 -157.842
7603.44 3.05001 0 -153.94
5398 -2.03829 0 -176.622
6468.59 0.495019 0 -170.651
7580.6 3.13985 0 -155.902
6507.68 0.250191 0 -167.311
6488.13 0.372394 0 -168.99
5381.74 -1.89047 0 -178.004
5349.22 -1.59426 0 -180.721
7512.08 3.41317 0 -161.657
7557.76 3.23034 0 -157.842
5365.48 -1.74246 0 -179.37
6429.5 0.741448 0 -173.916
7534.92 3.32146 0 -159.76
6468.59 0.495019 0 -170.651
6449.04 0.618044 0 -172.293
5349.22 -1.59426 0 -180.721
5316.7 -1.29741 0 -183.377
7466.4 3.59831 0 -165.385
7512.08 3.41317 0 -161.657
5332.96 -1.44591 0 -182.057
6390.41 0.989309 0 -177.107
7489.24 3.50547 0 -163.532
6429.5 0.741448 0 -173.916
6409.95 0.86521 0 -175.521
5316.7 -1.29741 0 -183.377
5284.18 -1.00005 0 -185.971
7420.72 3.78556 0 -169.028
7466.4 3.59831 0 -165.385
5300.44 -1.14879 0 -184.681
6351.32 1.23844 0 -180.225
7443.56 3.69168 0 -167.217
6390.41 0.989309 0 -177.107
6370.86 1.11372 0 -178.675
5284.18 -1.00005 0 -185.971
5251.66 -0.70232 0 -188.504
7375.05 3.97472 0 -172.585
7420.72 3.78556 0 -169.028
5267.92 -0.851223 0 -187.245
6312.23 1.48867 0 -183.27
7397.89 3.87991 0 -170.817
6351.32 1.23844 0 -180.225
6331.77 1.36342 0 -181.757
5251.66 -0.70232 0 -188.504
5219.14 -0.404354 0 -190.977
7329.38 4.16562 0 -176.057
7375.05 3.97472 0 -172.585
5235.4 -0.553358 0 -189.748
6273.14 1.73984 0 -186.242
7352.21 4.06997 0 -174.332
6312.23 1.48867 0 -183.27
6292.68 1.61414 0 -184.765
5219.14 -0.404354 0 -190.977
5186.62 -0.106284 0 -193.39
7283.7 4.35807 0 -179.446
7329.38 4.16562 0 -176.057
5202.88 -0.255323 0 -192.191
6234.05 1.99179 0 -189.142
7306.54 4.26167 0 -177.762
6273.14 1.73984 0 -186.242
6253.6 1.86572 0 -187.701
5186.62 -0.106284 0 -193.39
5154.1 0.19176 0 -195.743
7238.03 4.55189 0 -182.75
7283.7 4.35807 0 -179.446
5170.36 0.0427496 0 -194.574
6194.97 2.24437 0 -191.97
7260.87 4.45482 0 -181.108
6234.05 1.99179 0 -189.142
6214.51 2.11801 0 -190.565
5154.1 0.19176 0 -195.743
5121.58 0.48965 0 -198.037
7192.36 4.74689 0 -185.971
7238.03 4.55189 0 -182.75
5137.84 0.340732 0 -196.897
6155.88 2.49743 0 -194.727
7215.2 4.64925 0 -184.371
6194.97 2.24437 0 -191.97
6175.42 2.37085 0 -193.357
5121.58 0.48965 0 -198.037
5089.06 0.787261 0 -200.271
7146.7 4.94291 0 -189.11
7192.36 4.74689 0 -185.971
5105.32 0.638498 0 -199.161
6116.8 2.75081 0 -197.413
7169.53 4.84479 0 -187.551
6155.88 2.49743 0 -194.727
6136.34 2.62409 0 -196.079
5089.06 0.787261 0 -200.271
5056.54 1.08447 0 -202.447
7101.03 5.13978 0 -192.167
7146.7 4.94291 0 -189.11
5072.8 0.935924 0 -201.367
6077.71 3.00437 0 -200.029
7123.86 5.04125 0 -190.649
6116.8 2.75081 0 -197.413
6097.26 2.87758 0 -198.73
5056.54 1.08447 0 -202.447
5024.03 1.38116 0 -204.565
7055.37 5.33731 0 -195.141
7101.03 5.13978 0 -192.167
5040.28 1.23289 0 -203.513
6038.63 3.25797 0 -202.575
7078.2 5.23847 0 -193.664
6077.71 3.00437 0 -200.029
6058.17 3.13117 0 -201.31
5024.03 1.38116 0 -204.565
4991.51 1.67721 0 -206.625
7009.71 5.53536 0 -198.035
7055.37 5.33731 0 -195.141
5007.77 1.52927 0 -205.602
5999.56 3.51146 0 -205.051
7032.54 5.43629 0 -196.599
6038.63 3.25797 0 -202.575
6019.09 3.38473 0 -203.821
4991.51 1.67721 0 -206.625
4959 1.9725 0 -208.628
6964.05 5.73376 0 -200.849
7009.71 5.53536 0 -198.035
4975.26 1.82496 0 -207.633
5960.48 3.7647 0 -207.458
6986.88 5.63453 0 -199.452
5999.56 3.51146 0 -205.051
5980.02 3.63812 0 -206.263
4959 1.9725 0 -208.628
4926.49 2.26692 0 -210.573
6918.4 5.93235 0 -203.582
6964.05 5.73376 0 -200.849
4942.74 2.11983 0 -209.607
5921.4 4.01756 0 -209.797
6941.22 5.83304 0 -202.225
5960.48 3.7647 0 -207.458
5940.94 3.89119 0 -208.636
4926.49 2.26692 0 -210.573
4893.98 2.56037 0 -212.462
6872.75 6.13097 0 -206.236
6918.4 5.93235 0 -203.582
4910.23 2.41378 0 -211.524
5882.33 4.26991 0 -212.068
6895.57 6.03167 0 -204.919
5921.4 4.01756 0 -209.797
5901.87 4.14381 0 -210.941
4893.98 2.56037 0 -212.462
4861.47 2.85272 0 -214.294
6827.1 6.32948 0 -208.811
6872.75 6.13097 0 -206.236
4877.72 2.70669 0 -213.385
5843.26 4.52161 0 -214.271
6849.92 6.23025 0 -207.533
5882.33 4.26991 0 -212.068
5862.8 4.39585 0 -213.178
4861.47 2.85272 0 -214.294
4828.96 3.14388 0 -216.07
6781.45 6.52771 0 -211.307
6827.1 6.32948 0 -208.811
4845.21 2.99846 0 -215.189
5804.19 4.77254 0 -216.407
6804.27 6.42864 0 -210.069
5843.26 4.52161 0 -214.271
5823.73 4.64718 0 -215.347
4828.96 3.14388 0 -216.07
4796.46 3.43374 0 -217.791
6735.81 6.72553 0 -213.726
6781.45 6.52771 0 -211.307
4812.71 3.28898 0 -216.937
5765.13 5.02256 0 -218.476
6758.63 6.62669 0 -212.526
5804.19 4.77254 0 -216.407
5784.66 4.89767 0 -217.45
4796.46 3.43374 0 -217.791
4763.95 3.7222 0 -219.456
6690.17 6.9228 0 -216.067
6735.81 6.72553 0 -213.726
4780.2 3.57815 0 -218.631
5726.07 5.27157 0 -220.479
6712.99 6.82424 0 -214.906
5765.13 5.02256 0 -218.476
5745.6 5.1472 0 -219.486
4763.95 3.7222 0 -219.456
4731.45 4.00915 0 -221.067
6644.54 7.11936 0 -218.332
6690.17 6.9228 0 -216.067
4747.7 3.86587 0 -220.269
5687.01 5.51943 0 -222.416
6667.36 7.02117 0 -217.209
5726.07 5.27157 0 -220.479
5706.54 5.39565 0 -221.456
4731.45 4.00915 0 -221.067
4698.95 4.29451 0 -222.623
6598.91 7.31508 0 -220.52
6644.54 7.11936 0 -218.332
4715.2 4.15204 0 -221.852
5647.95 5.76603 0 -224.288
6621.73 7.21733 0 -219.435
5687.01 5.51943 0 -222.416
5667.48 5.64289 0 -223.36
4698.95 4.29451 0 -222.623
4666.46 4.57816 0 -224.126
6553.29 7.50984 0 -222.632
6598.91 7.31508 0 -220.52
4682.7 4.43655 0 -223.381
5608.9 6.01125 0 -226.095
6576.1 7.41259 0 -221.586
5647.95 5.76603 0 -224.288
5628.42 5.88882 0 -225.199
4666.46 4.57816 0 -224.126
4633.96 4.86002 0 -225.574
6507.66 7.70349 0 -224.67
6553.29 7.50984 0 -222.632
4650.21 4.71932 0 -224.856
5569.85 6.25499 0 -227.837
6530.47 7.60681 0 -223.66
5608.9 6.01125 0 -226.095
5589.37 6.13331 0 -226.974
4633.96 4.86002 0 -225.574
4601.47 5.14 0 -226.969
6462.05 7.8959 0 -226.632
6507.66 7.70349 0 -224.67
4617.72 5.00026 0 -226.278
5530.8 6.49712 0 -229.516
6484.86 7.79986 0 -225.66
5569.85 6.25499 0 -227.837
5550.32 6.37626 0 -228.684
4601.47 5.14 0 -226.969
4568.98 5.41801 0 -228.312
6416.44 8.08696 0 -228.52
6462.05 7.8959 0 -226.632
4585.23 5.27926 0 -227.647
5491.76 6.73754 0 -231.131
6439.24 7.99161 0 -227.585
5530.8 6.49712 0 -229.516
5511.28 6.61755 0 -230.331
4568.98 5.41801 0 -228.312
4536.5 5.69396 0 -229.601
6370.83 8.27653 0 -230.335
6416.44 8.08696 0 -228.52
4552.74 5.55625 0 -228.963
5452.72 6.97616 0 -232.682
6393.63 8.18194 0 -229.437
5491.76 6.73754 0 -231.131
5472.24 6.85708 0 -231.914
4536.5 5.69396 0 -229.601
4504.01 5.96775 0 -230.839
6325.23 8.46451 0 -232.077
6370.83 8.27653 0 -230.335
4520.25 5.83113 0 -230.227
5413.68 7.21285 0 -234.172
6348.03 8.37073 0 -231.215
5452.72 6.97616 0 -232.682
5433.2 7.09475 0 -233.435
4504.01 5.96775 0 -230.839
4471.53 6.23932 0 -232.025
6279.63 8.65076 0 -233.746
6325.23 8.46451 0 -232.077
4487.77 6.10382 0 -231.438
5374.65 7.44753 0 -235.599
6302.43 8.55785 0 -232.92
5413.68 7.21285 0 -234.172
5394.17 7.33045 0 -234.893
4471.53 6.23932 0 -232.025
4439.05 6.50857 0 -233.159
6234.04 8.83517 0 -235.343
6279.63 8.65076 0 -233.746
4455.29 6.37424 0 -232.598
5335.63 7.68009 0 -236.964
6256.83 8.7432 0 -234.553
5374.65 7.44753 0 -235.599
5355.14 7.56408 0 -236.289
4439.05 6.50857 0 -233.159
4406.58 6.77543 0 -234.242
6188.45 9.01764 0 -236.869
6234.04 8.83517 0 -235.343
4422.82 6.64231 0 -233.707
5296.6 7.91043 0 -238.268
6211.24 8.92666 0 -236.115
5335.63 7.68009 0 -236.964
5316.11 7.79554 0 -237.623
4406.58 6.77543 0 -234.242
4374.11 7.03982 0 -235.275
6142.87 9.19805 0 -238.323
6188.45 9.01764 0 -236.869
4390.34 6.90794 0 -234.765
5257.58 8.13848 0 -239.511
6165.66 9.10811 0 -237.605
5296.6 7.91043 0 -238.268
5277.09 8.02475 0 -238.897
4374.11 7.03982 0 -235.275
4341.64 7.30166 0 -236.257
6097.29 9.3763 0 -239.707
6142.87 9.19805 0 -238.323
4357.87 7.17107 0 -235.772
5218.57 8.36412 0 -240.694
6120.08 9.28745 0 -239.024
5257.58 8.13848 0 -239.511
5238.07 8.2516 0 -240.11
4341.64 7.30166 0 -236.257
4309.18 7.56089 0 -237.19
6051.72 9.55228 0 -241.022
6097.29 9.3763 0 -239.707
4325.41 7.43161 0 -236.73
5179.56 8.58728 0 -241.817
6074.5 9.46458 0 -240.373
5218.57 8.36412 0 -240.694
5199.06 8.47602 0 -241.263
4309.18 7.56089 0 -237.19
4276.71 7.81741 0 -238.073
6006.15 9.72589 0 -242.266
6051.72 9.55228 0 -241.022
4292.94 7.68949 0 -237.638
5140.55 8.80787 0 -242.881
6028.93 9.63939 0 -241.653
5179.56 8.58728 0 -241.817
5160.05 8.6979 0 -242.356
4276.71 7.81741 0 -238.073
4244.26 8.07118 0 -238.907
5960.59 9.89703 0 -243.442
6006.15 9.72589 0 -242.266
4260.49 7.94465 0 -238.496
5101.55 9.02579 0 -243.885
5983.37 9.81178 0 -242.863
5140.55 8.80787 0 -242.881
5121.05 8.91717 0 -243.39
4244.26 8.07118 0 -238.907
4211.8 8.32211 0 -239.692
5915.04 10.0656 0 -244.55
5960.59 9.89703 0 -243.442
4228.03 8.197 0 -239.305
5062.55 9.24098 0 -244.831
5937.81 9.98165 0 -244.005
5101.55 9.02579 0 -243.885
5082.05 9.13374 0 -244.365
4211.8 8.32211 0 -239.692
4179.35 8.57014 0 -240.429
5869.49 10.2315 0 -245.59
5915.04 10.0656 0 -244.55
4195.58 8.44649 0 -240.066
5023.56 9.45335 0 -245.719
5892.26 10.1489 0 -245.079
5062.55 9.24098 0 -244.831
5043.06 9.34753 0 -245.282
4179.35 8.57014 0 -240.429
4146.9 8.81522 0 -241.117
5823.95 10.3947 0 -246.563
5869.49 10.2315 0 -245.59
4163.13 8.69305 0 -240.779
4984.57 9.66283 0 -246.55
5846.72 10.3135 0 -246.085
5023.56 9.45335 0 -245.719
5004.07 9.55846 0 -246.142
4146.9 8.81522 0 -241.117
4114.46 9.05726 0 -241.759
5778.41 10.5551 0 -247.469
5823.95 10.3947 0 -246.563
4130.68 8.93662 0 -241.444
4945.59 9.86933 0 -247.323
5801.18 10.4752 0 -247.024
4984.57 9.66283 0 -246.55
4965.08 9.76645 0 -246.943
4114.46 9.05726 0 -241.759
4082.02 9.29622 0 -242.353
5732.88 10.7125 0 -248.309
5778.41 10.5551 0 -247.469
4098.24 9.17713 0 -242.061
4906.61 10.0728 0 -248.039
5755.65 10.6341 0 -247.897
4945.59 9.86933 0 -247.323
4926.1 9.97144 0 -247.688
4082.02 9.29622 0 -242.353
4049.58 9.53203 0 -242.9
5687.36 10.8669 0 -249.083
5732.88 10.7125 0 -248.309
4065.8 9.41452 0 -242.632
4867.64 10.2731 0 -248.7
5710.12 10.7901 0 -248.704
4906.61 10.0728 0 -248.039
4887.12 10.1733 0 -248.376
4049.58 9.53203 0 -242.9
4017.15 9.76464 0 -243.4
5641.84 11.0182 0 -249.792
5687.36 10.8669 0 -249.083
4033.37 9.64874 0 -243.156
4828.67 10.4703 0 -249.304
5664.6 10.9429 0 -249.445
4867.64 10.2731 0 -248.7
4848.15 10.3721 0 -249.009
4017.15 9.76464 0 -243.4
3984.72 9.99399 0 -243.855
5596.33 11.1664 0 -250.436
5641.84 11.0182 0 -249.792
4000.94 9.87972 0 -243.633
4789.71 10.6642 0 -249.853
5619.08 11.0927 0 -250.122
4828.67 10.4703 0 -249.304
4809.19 10.5676 0 -249.585
3984.72 9.99399 0 -243.855
3952.3 10.22 0 -244.263
5550.83 11.3113 0 -251.017
5596.33 11.1664 0 -250.436
3968.51 10.1074 0 -244.065
4750.75 10.8548 0 -250.347
5573.58 11.2393 0 -250.734
4789.71 10.6642 0 -249.853
4770.23 10.7599 0 -250.107
3952.3 10.22 0 -244.263
3919.88 10.4427 0 -244.627
5505.33 11.4529 0 -251.533
5550.83 11.3113 0 -251.017
3936.09 10.3318 0 -244.451
4711.8 11.042 0 -250.787
5528.08 11.3826 0 -251.283
4750.75 10.8548 0 -250.347
4731.27 10.9488 0 -250.574
3919.88 10.4427 0 -244.627
3887.47 10.662 0 -244.945
5459.84 11.5912 0 -251.987
5505.33 11.4529 0 -251.533
3903.67 10.5528 0 -244.792
4672.85 11.2257 0 -251.173
5482.58 11.5225 0 -251.768
4711.8 11.042 0 -250.787
4692.32 11.1343 0 -250.987
3887.47 10.662 0 -244.945
3855.05 10.8777 0 -245.219
5414.35 11.726 0 -252.379
5459.84 11.5912 0 -251.987
3871.26 10.7703 0 -245.088
4633.91 11.406 0 -251.505
5437.09 11.659 0 -252.191
4672.85 11.2257 0 -251.173
4653.38 11.3163 0 -251.346
3855.05 10.8777 0 -245.219
3822.65 11.09 0 -245.449
5368.87 11.8572 0 -252.708
5414.35 11.726 0 -252.379
3838.85 10.9843 0 -245.34
4594.97 11.5827 0 -251.785
5391.61 11.792 0 -252.551
4633.91 11.406 0 -251.505
4614.44 11.4948 0 -251.652
3822.65 11.09 0 -245.449
3790.24 11.2988 0 -245.635
5323.4 11.9849 0 -252.976
5368.87 11.8572 0 -252.708
3806.44 11.1948 0 -245.547
4556.04 11.7558 0 -252.011
5346.14 11.9215 0 -252.85
4594.97 11.5827 0 -251.785
4575.51 11.6697 0 -251.904
3790.24 11.2988 0 -245.635
3757.84 11.5039 0 -245.777
5277.94 12.109 0 -253.183
5323.4 11.9849 0 -252.976
3774.04 11.4018 0 -245.711
4517.12 11.9252 0 -252.186
5300.67 12.0474 0 -253.087
4556.04 11.7558 0 -252.011
4536.58 11.841 0 -252.105
3757.84 11.5039 0 -245.777
3725.45 11.7054 0 -245.877
5232.48 12.2293 0 -253.33
5277.94 12.109 0 -253.183
3741.65 11.6051 0 -245.832
4478.2 12.091 0 -252.308
5255.21 12.1696 0 -253.264
4517.12 11.9252 0 -252.186
4497.66 12.0086 0 -252.254
3725.45 11.7054 0 -245.877
3693.06 11.9032 0 -245.933
5187.03 12.3459 0 -253.417
5232.48 12.2293 0 -253.33
3709.25 11.8047 0 -245.91
4439.28 12.2529 0 -252.38
5209.76 12.2881 0 -253.381
4478.2 12.091 0 -252.308
4458.74 12.1724 0 -252.351
3693.06 11.9032 0 -245.933
3660.67 12.0973 0 -245.948
5141.59 12.4587 0 -253.445
5187.03 12.3459 0 -253.417
3676.87 12.0007 0 -245.946
4400.38 12.4111 0 -252.401
5164.31 12.4028 0 -253.438
4439.28 12.2529 0 -252.38
4419.83 12.3325 0 -252.397
3660.67 12.0973 0 -245.948
3628.29 12.2876 0 -245.92
5096.15 12.5676 0 -253.414
5141.59 12.4587 0 -253.445
3644.48 12.1929 0 -245.939
4361.47 12.5654 0 -252.371
5118.87 12.5137 0 -253.437
4400.38 12.4111 0 -252.401
4380.93 12.4887 0 -252.392
3628.29 12.2876 0 -245.92
3595.92 12.4741 0 -245.851
5050.73 12.6727 0 -253.324
5096.15 12.5676 0 -253.414
3612.1 12.3813 0 -245.891
4322.58 12.7158 0 -252.292
5073.44 12.6206 0 -253.376
4361.47 12.5654 0 -252.371
4342.03 12.6411 0 -252.338
3595.92 12.4741 0 -245.851
3563.54 12.6568 0 -245.741
5005.31 12.7737 0 -253.177
5050.73 12.6727 0 -253.324
3579.73 12.566 0 -245.801
4283.69 12.8623 0 -252.163
5028.02 12.7237 0 -253.258
4322.58 12.7158 0 -252.292
4303.13 12.7895 0 -252.233
3563.54 12.6568 0 -245.741
3531.18 12.8357 0 -245.59
4959.89 12.8708 0 -252.973
5005.31 12.7737 0 -253.177
3547.36 12.7467 0 -245.67
4244.8 13.0048 0 -251.985
4982.6 12.8227 0 -253.082
4283.69 12.8623 0 -252.163
4264.24 12.934 0 -252.08
3531.18 12.8357 0 -245.59
3498.81 13.0106 0 -245.398
4914.49 12.9638 0 -252.712
4959.89 12.8708 0 -252.973
3514.99 12.9236 0 -245.499
4205.92 13.1433 0 -251.758
4937.19 12.9178 0 -252.85
4244.8 13.0048 0 -251.985
4225.36 13.0745 0 -251.878
3498.81 13.0106 0 -245.398
3466.45 13.1817 0 -245.166
4869.09 13.0527 0 -252.395
4914.49 12.9638 0 -252.712
3482.63 13.0967 0 -245.287
4167.05 13.2777 0 -251.484
4891.78 13.0087 0 -252.561
4205.92 13.1433 0 -251.758
4186.49 13.211 0 -251.627
3466.45 13.1817 0 -245.166
3434.1 13.3488 0 -244.895
4823.69 13.1375 0 -252.023
4869.09 13.0527 0 -252.395
3450.28 13.2657 0 -245.036
4128.18 13.4081 0 -251.162
4846.39 13.0956 0 -252.216
4167.05 13.2777 0 -251.484
4147.62 13.3434 0 -251.329
3434.1 13.3488 0 -244.895
3401.75 13.5119 0 -244.585
4778.31 13.2181 0 -251.595
4823.69 13.1375 0 -252.023
3417.92 13.4309 0 -244.745
4089.32 13.5344 0 -250.792
4801 13.1783 0 -251.816
4128.18 13.4081 0 -251.162
4108.75 13.4718 0 -250.983
3401.75 13.5119 0 -244.585
3369.41 13.6711 0 -244.235
4732.93 13.2945 0 -251.113
4778.31 13.2181 0 -251.595
3385.58 13.592 0 -244.415
4050.47 13.6565 0 -250.376
4755.62 13.2568 0 -251.361
4089.32 13.5344 0 -250.792
4069.89 13.596 0 -250.59
3369.41 13.6711 0 -244.235
3337.07 13.8262 0 -243.847
4687.56 13.3667 0 -250.577
4732.93 13.2945 0 -251.113
3353.24 13.7491 0 -244.046
4011.62 13.7745 0 -249.914
4710.25 13.3312 0 -250.852
4050.47 13.6565 0 -250.376
4031.04 13.716 0 -250.151
3337.07 13.8262 0 -243.847
3304.73 13.9772 0 -243.421
4642.2 13.4347 0 -249.987
4687.56 13.3667 0 -250.577
3320.9 13.9022 0 -243.639
3972.78 13.8883 0 -249.406
4664.88 13.4012 0 -250.289
4011.62 13.7745 0 -249.914
3992.2 13.8319 0 -249.666
3304.73 13.9772 0 -243.421
3272.4 14.1243 0 -242.957
4596.85 13.4983 0 -249.345
4642.2 13.4347 0 -249.987
3288.57 14.0513 0 -243.194
3933.94 13.9978 0 -248.852
4619.52 13.467 0 -249.673
3972.78 13.8883 0 -249.406
3953.36 13.9436 0 -249.135
3272.4 14.1243 0 -242.957
3240.08 14.2672 0 -242.456
4551.5 13.5577 0 -248.65
4596.85 13.4983 0 -249.345
3256.24 14.1962 0 -242.711
3895.11 14.1031 0 -248.254
4574.17 13.5285 0 -249.004
3933.94 13.9978 0 -248.852
3914.52 14.051 0 -248.559
3240.08 14.2672 0 -242.456
3207.76 14.406 0 -241.918
4506.16 13.6126 0 -247.903
4551.5 13.5577 0 -248.65
3223.92 14.3371 0 -242.191
3856.29 14.2042 0 -247.611
4528.83 13.5857 0 -248.283
3895.11 14.1031 0 -248.254
3875.7 14.1542 0 -247.938
3207.76 14.406 0 -241.918
3175.44 14.5408 0 -241.343
4460.83 13.6633 0 -247.104
4506.16 13.6126 0 -247.903
3191.6 14.4739 0 -241.635
3817.47 14.301 0 -246.924
4483.5 13.6385 0 -247.51
3856.29 14.2042 0 -247.611
3836.88 14.2531 0 -247.273
3175.44 14.5408 0 -241.343
3143.13 14.6714 0 -240.731
4415.51 13.7095 0 -246.255
4460.83 13.6633 0 -247.104
3159.28 14.6066 0 -241.041
3778.65 14.3935 0 -246.194
4438.17 13.687 0 -246.686
3817.47 14.301 0 -246.924
3798.06 14.3478 0 -246.564
3143.13 14.6714 0 -240.731
3110.82 14.7978 0 -240.084
4370.19 13.7514 0 -245.356
4415.51 13.7095 0 -246.255
3126.97 14.7351 0 -240.412
3739.85 14.4817 0 -245.42
4392.85 13.731 0 -245.812
3778.65 14.3935 0 -246.194
3759.25 14.4381 0 -245.812
3110.82 14.7978 0 -240.084
3078.52 14.9202 0 -239.401
4324.88 13.7888 0 -244.407
4370.19 13.7514 0 -245.356
3094.67 14.8595 0 -239.747
3701.05 14.5655 0 -244.604
4347.54 13.7707 0 -244.887
3739.85 14.4817 0 -245.42
3720.45 14.5241 0 -245.017
3078.52 14.9202 0 -239.401
3046.22 15.0383 0 -238.683
4279.58 13.8219 0 -243.408
4324.88 13.7888 0 -244.407
3062.37 14.9798 0 -239.047
3662.26 14.645 0 -243.745
4302.23 13.8059 0 -243.913
3701.05 14.5655 0 -244.604
3681.65 14.6058 0 -244.18
3046.22 15.0383 0 -238.683
3013.93 15.1523 0 -237.931
4234.29 13.8504 0 -242.361
4279.58 13.8219 0 -243.408
3030.08 15.0958 0 -238.311
3623.47 14.7202 0 -242.845
4256.93 13.8367 0 -242.891
3662.26 14.645 0 -243.745
3642.86 14.6832 0 -243.3
3013.93 15.1523 0 -237.931
2981.65 15.2621 0 -237.144
4189 13.8745 0 -241.265
4234.29 13.8504 0 -242.361
2997.79 15.2077 0 -237.541
3584.69 14.791 0 -241.904
4211.64 13.863 0 -241.819
3623.47 14.7202 0 -242.845
3604.08 14.7561 0 -242.38
2981.65 15.2621 0 -237.144
2949.36 15.3677 0 -236.323
4143.73 13.8942 0 -240.122
4189 13.8745 0 -241.265
2965.5 15.3154 0 -236.737
3545.91 14.8575 0 -240.921
4166.36 13.8849 0 -240.7
3584.69 14.791 0 -241.904
3565.3 14.8248 0 -241.418
2949.36 15.3677 0 -236.323
2917.09 15.4692 0 -235.468
4098.46 13.9094 0 -238.932
4143.73 13.8942 0 -240.122
2933.22 15.419 0 -235.899
3507.14 14.9195 0 -239.899
4121.09 13.9023 0 -239.533
3545.91 14.8575 0 -240.921
3526.53 14.889 0 -240.415
2917.09 15.4692 0 -235.468
2884.81 15.5664 0 -234.58
4053.19 13.9201 0 -237.695
4098.46 13.9094 0 -238.932
2900.95 15.5183 0 -235.028
3468.38 14.9772 0 -238.836
4075.82 13.9153 0 -238.319
3507.14 14.9195 0 -239.899
3487.76 14.9489 0 -239.372
2884.81 15.5664 0 -234.58
2852.55 15.6595 0 -233.659
4007.94 13.9263 0 -236.412
4053.19 13.9201 0 -237.695
2868.68 15.6135 0 -234.123
3429.63 15.0306 0 -237.734
4030.56 13.9238 0 -237.059
3468.38 14.9772 0 -238.836
3449 15.0044 0 -238.29
2852.55 15.6595 0 -233.659
2820.28 15.7483 0 -232.705
3962.69 13.9281 0 -235.083
4007.94 13.9263 0 -236.412
2836.41 15.7044 0 -233.186
3390.88 15.0795 0 -236.592
3985.31 13.9277 0 -235.753
3429.63 15.0306 0 -237.734
3410.25 15.0556 0 -237.168
2820.28 15.7483 0 -232.705
2788.03 15.833 0 -231.72
3917.45 13.9253 0 -233.709
3962.69 13.9281 0 -235.083
2804.15 15.7912 0 -232.217
3352.13 15.1241 0 -235.412
3940.07 13.9273 0 -234.402
3390.88 15.0795 0 -236.592
3371.5 15.1023 0 -236.007
2788.03 15.833 0 -231.72
2755.77 15.9135 0 -230.702
3872.22 13.9181 0 -232.291
3917.45 13.9253 0 -233.709
2771.9 15.8737 0 -231.215
3313.39 15.1643 0 -234.194
3894.84 13.9223 0 -233.005
3352.13 15.1241 0 -235.412
3332.76 15.1447 0 -234.808
2755.77 15.9135 0 -230.702
2723.53 15.9897 0 -229.653
3827 13.9064 0 -230.828
3872.22 13.9181 0 -232.291
2739.65 15.9521 0 -230.182
3274.66 15.2001 0 -232.938
3849.61 13.9128 0 -231.565
3313.39 15.1643 0 -234.194
3294.03 15.1827 0 -233.571
2723.53 15.9897 0 -229.653
2691.28 16.0618 0 -228.574
3781.78 13.8903 0 -229.322
3827 13.9064 0 -230.828
2707.4 16.0263 0 -229.117
3235.94 15.2315 0 -231.645
3804.39 13.8989 0 -230.081
3274.66 15.2001 0 -232.938
3255.3 15.2164 0 -232.296
2691.28 16.0618 0 -228.574
2659.04 16.1297 0 -227.463
3736.57 13.8697 0 -227.774
3781.78 13.8903 0 -229.322
2675.16 16.0963 0 -228.022
3197.22 15.2586 0 -230.315
3759.17 13.8805 0 -228.553
3235.94 15.2315 0 -231.645
3216.58 15.2456 0 -230.985
2659.04 16.1297 0 -227.463
2626.81 16.1935 0 -226.322
3691.37 13.8446 0 -226.182
3736.57 13.8697 0 -227.774
2642.93 16.1621 0 -226.896
3158.51 15.2813 0 -228.949
3713.97 13.8577 0 -226.983
3197.22 15.2586 0 -230.315
3177.86 15.2705 0 -229.637
2626.81 16.1935 0 -226.322
2594.58 16.253 0 -225.151
3646.18 13.8151 0 -224.549
3691.37 13.8446 0 -226.182
2610.7 16.2238 0 -225.741
3119.8 15.2997 0 -227.547
3668.77 13.8304 0 -225.371
3158.51 15.2813 0 -228.949
3139.15 15.2911 0 -228.252
2594.58 16.253 0 -225.151
2562.36 16.3084 0 -223.951
3600.99 13.7812 0 -222.874
3646.18 13.8151 0 -224.549
2578.47 16.2813 0 -224.555
3081.1 15.3138 0 -226.109
3623.58 13.7987 0 -223.717
3119.8 15.2997 0 -227.547
3100.45 15.3073 0 -226.832
2562.36 16.3084 0 -223.951
2530.14 16.3597 0 -222.722
3555.81 13.7428 0 -221.159
3600.99 13.7812 0 -222.874
2546.25 16.3346 0 -223.34
3042.4 15.3235 0 -224.636
3578.4 13.7625 0 -222.021
3081.1 15.3138 0 -226.109
3061.75 15.3192 0 -225.377
2530.14 16.3597 0 -222.722
2497.92 16.4068 0 -221.463
3510.64 13.7 0 -219.403
3555.81 13.7428 0 -221.159
2514.03 16.3838 0 -222.096
3003.72 15.3289 0 -223.129
3533.23 13.722 0 -220.286
3042.4 15.3235 0 -224.636
3023.06 15.3267 0 -223.887
2497.92 16.4068 0 -221.463
2465.71 16.4498 0 -220.177
3465.48 13.6529 0 -217.607
3510.64 13.7 0 -219.403
2481.82 16.4288 0 -220.824
2965.03 15.33 0 -221.588
3488.06 13.677 0 -218.51
3003.72 15.3289 0 -223.129
2984.37 15.33 0 -222.363
2465.71 16.4498 0 -220.177
2433.51 16.4887 0 -218.862
3420.32 13.6013 0 -215.772
3465.48 13.6529 0 -217.607
2449.61 16.4697 0 -219.523
2926.36 15.3268 0 -220.013
3442.9 13.6276 0 -216.694
2965.03 15.33 0 -221.588
2945.69 15.3289 0 -220.804
2433.51 16.4887 0 -218.862
2401.31 16.5234 0 -217.52
3375.18 13.5455 0 -213.898
3420.32 13.6013 0 -215.772
2417.41 16.5066 0 -218.194
2887.69 15.3194 0 -218.404
3397.75 13.5739 0 -214.839
2926.36 15.3268 0 -220.013
2907.02 15.3236 0 -219.212
2401.31 16.5234 0 -217.52
2369.11 16.5541 0 -216.15
3330.04 13.4853 0 -211.985
3375.18 13.5455 0 -213.898
2385.21 16.5393 0 -216.838
2849.02 15.3077 0 -216.763
3352.6 13.5159 0 -212.946
2887.69 15.3194 0 -218.404
2868.35 15.314 0 -217.588
2369.11 16.5541 0 -216.15
2336.92 16.5807 0 -214.753
3284.9 13.4207 0 -210.035
3330.04 13.4853 0 -211.985
2353.02 16.5679 0 -215.455
2810.36 15.2917 0 -215.089
3307.47 13.4535 0 -211.015
2849.02 15.3077 0 -216.763
2829.69 15.3002 0 -215.93
2336.92 16.5807 0 -214.753
2304.74 16.6033 0 -213.33
3239.78 13.3519 0 -208.048
3284.9 13.4207 0 -210.035
2320.83 16.5925 0 -214.045
2771.71 15.2716 0 -213.384
3262.34 13.3869 0 -209.046
2810.36 15.2917 0 -215.089
2791.04 15.2822 0 -214.241
2304.74 16.6033 0 -213.33
2272.55 16.6218 0 -211.88
3194.66 13.2789 0 -206.024
3239.78 13.3519 0 -208.048
2288.64 16.613 0 -212.608
2733.07 15.2473 0 -211.647
3217.22 13.3159 0 -207.041
2771.71 15.2716 0 -213.384
2752.39 15.2599 0 -212.519
2272.55 16.6218 0 -211.88
2240.38 16.6363 0 -210.405
3149.55 13.2016 0 -203.964
3194.66 13.2789 0 -206.024
2256.46 16.6296 0 -211.146
2694.43 15.2188 0 -209.879
3172.1 13.2408 0 -204.998
2733.07 15.2473 0 -211.647
2713.75 15.2335 0 -210.767
2240.38 16.6363 0 -210.405
2208.2 16.6468 0 -208.904
3104.44 13.1201 0 -201.868
3149.55 13.2016 0 -203.964
2224.29 16.6421 0 -209.658
2655.79 15.1861 0 -208.081
3126.99 13.1614 0 -202.92
2694.43 15.2188 0 -209.879
2675.11 15.203 0 -208.984
2208.2 16.6468 0 -208.904
2176.04 16.6534 0 -207.379
3059.35 13.0344 0 -199.737
3104.44 13.1201 0 -201.868
2192.12 16.6506 0 -208.145
2617.16 15.1494 0 -206.252
3081.89 13.0778 0 -200.807
2655.79 15.1861 0 -208.081
2636.48 15.1683 0 -207.17
2176.04 16.6534 0 -207.379
2143.87 16.6559 0 -205.828
3014.26 12.9446 0 -197.571
3059.35 13.0344 0 -199.737
2159.95 16.6551 0 -206.606
2578.54 15.1085 0 -204.394
3036.8 12.9901 0 -198.658
2617.16 15.1494 0 -206.252
2597.85 15.1295 0 -205.327
2143.87 16.6559 0 -205.828
2111.71 16.6546 0 -204.253
2969.17 12.8507 0 -195.371
3014.26 12.9446 0 -197.571
2127.79 16.6558 0 -205.044
2539.92 15.0636 0 -202.506
2991.71 12.8982 0 -196.475
2578.54 15.1085 0 -204.394
2559.23 15.0866 0 -203.453
2111.71 16.6546 0 -204.253
2079.56 16.6493 0 -202.654
2924.1 12.7527 0 -193.138
2969.17 12.8507 0 -195.371
2095.64 16.6524 0 -203.457
2501.31 15.0147 0 -200.59
2946.64 12.8022 0 -194.258
2539.92 15.0636 0 -202.506
2520.62 15.0397 0 -201.551
2079.56 16.6493 0 -202.654
2047.41 16.6402 0 -201.032
2879.03 12.6507 0 -190.871
2924.1 12.7527 0 -193.138
2063.48 16.6453 0 -201.846
2462.71 14.9618 0 -198.645
2901.56 12.7022 0 -192.008
2501.31 15.0147 0 -200.59
2482.01 14.9887 0 -199.621
2047.41 16.6402 0 -201.032
2015.26 16.6272 0 -199.386
2833.97 12.5446 0 -188.572
2879.03 12.6507 0 -190.871
2031.34 16.6342 0 -200.212
2424.11 14.9048 0 -196.672
2856.5 12.5981 0 -189.725
2462.71 14.9618 0 -198.645
2443.41 14.9338 0 -197.662
2015.26 16.6272 0 -199.386
1983.12 16.6104 0 -197.718
2788.92 12.4346 0 -186.24
2833.97 12.5446 0 -188.572
1999.19 16.6193 0 -198.555
2385.51 14.844 0 -194.672
2811.44 12.4901 0 -187.41
2424.11 14.9048 0 -196.672
2404.81 14.8749 0 -195.676
1983.12 16.6104 0 -197.718
1950.98 16.5898 0 -196.027
2743.87 12.3206 0 -183.878
2788.92 12.4346 0 -186.24
1967.05 16.6006 0 -196.875
2346.92 14.7792 0 -192.645
2766.39 12.3781 0 -185.063
2385.51 14.844 0 -194.672
2366.22 14.8121 0 -193.662
1950.98 16.5898 0 -196.027
1918.85 16.5654 0 -194.313
2698.83 12.2028 0 -181.484
2743.87 12.3206 0 -183.878
1934.92 16.578 0 -195.173
2308.34 14.7106 0 -190.591
2721.35 12.2622 0 -182.684
2346.92 14.7792 0 -192.645
2327.63 14.7454 0 -191.622
1918.85 16.5654 0 -194.313
1886.72 16.5372 0 -192.578
2653.79 12.0811 0 -179.059
2698.83 12.2028 0 -181.484
1902.79 16.5518 0 -193.449
2269.76 14.6381 0 -188.512
2676.31 12.1424 0 -180.275
2308.34 14.7106 0 -190.591
2289.05 14.6748 0 -189.555
1886.72 16.5372 0 -192.578
1854.6 16.5054 0 -190.822
2608.77 11.9556 0 -176.605
2653.79 12.0811 0 -179.059
1870.66 16.5218 0 -191.703
2231.19 14.5618 0 -186.406
2631.28 12.0188 0 -177.836
2269.76 14.6381 0 -188.512
2250.47 14.6004 0 -187.462
1854.6 16.5054 0 -190.822
1822.48 16.4698 0 -189.045
2563.75 11.8263 0 -174.121
2608.77 11.9556 0 -176.605
1838.54 16.4881 0 -189.936
2192.62 14.4818 0 -184.275
2586.26 11.8914 0 -175.367
2231.19 14.5618 0 -186.406
2211.91 14.5223 0 -185.344
1822.48 16.4698 0 -189.045
1790.36 16.4307 0 -187.247
2518.74 11.6933 0 -171.608
2563.75 11.8263 0 -174.121
1806.42 16.4507 0 -188.148
2154.06 14.398 0 -182.12
2541.24 11.7602 0 -172.868
2192.62 14.4818 0 -184.275
2173.34 14.4403 0 -183.201
1790.36 16.4307 0 -187.247
1758.25 16.3879 0 -185.428
2473.73 11.5566 0 -169.067
2518.74 11.6933 0 -171.608
1774.31 16.4097 0 -186.34
2115.5 14.3105 0 -179.94
2496.23 11.6254 0 -170.341
2154.06 14.398 0 -182.12
2134.78 14.3547 0 -181.033
1758.25 16.3879 0 -185.428
1726.14 16.3415 0 -183.59
2428.73 11.4163 0 -166.498
2473.73 11.5566 0 -169.067
1742.2 16.3651 0 -184.512
2076.95 14.2194 0 -177.736
2451.23 11.4869 0 -167.786
2115.5 14.3105 0 -179.94
2096.23 14.2654 0 -178.841
1726.14 16.3415 0 -183.59
1694.04 16.2915 0 -181.732
2383.74 11.2724 0 -163.901
2428.73 11.4163 0 -166.498
1710.09 16.3169 0 -182.664
2038.41 14.1247 0 -175.509
2406.23 11.3448 0 -165.203
2076.95 14.2194 0 -177.736
2057.68 14.1725 0 -176.625
1694.04 16.2915 0 -181.732
1661.94 16.238 0 -179.855
2338.75 11.1249 0 -161.278
2383.74 11.2724 0 -163.901
1677.99 16.2652 0 -180.796
1999.87 14.0264 0 -173.258
2361.24 11.1991 0 -162.593
2038.41 14.1247 0 -175.509
2019.14 14.076 0 -174.386
1661.94 16.238 0 -179.855
1629.84 16.1811 0 -177.96
2293.77 10.974 0 -158.628
2338.75 11.1249 0 -161.278
1645.89 16.21 0 -178.91
1961.33 13.9245 0 -170.985
2316.26 11.0499 0 -159.956
1999.87 14.0264 0 -173.258
1980.6 13.9759 0 -172.124
1629.84 16.1811 0 -177.96
1597.75 16.1207 0 -176.045
2248.79 10.8196 0 -155.952
2293.77 10.974 0 -158.628
1613.8 16.1513 0 -177.005
1922.8 13.8192 0 -168.69
2271.28 10.8972 0 -157.293
1961.33 13.9245 0 -170.985
1942.07 13.8723 0 -169.84
1597.75 16.1207 0 -176.045
1565.66 16.0569 0 -174.113
2203.83 10.6619 0 -153.251
2248.79 10.8196 0 -155.952
1581.71 16.0892 0 -175.081
1884.28 13.7105 0 -166.373
2226.31 10.7412 0 -154.604
1922.8 13.8192 0 -168.69
1903.54 13.7653 0 -167.534
1565.66 16.0569 0 -174.113
1533.58 15.9897 0 -172.163
2158.86 10.5008 0 -150.525
2203.83 10.6619 0 -153.251
1549.62 16.0237 0 -173.14
1845.76 13.5983 0 -164.035
2181.34 10.5817 0 -151.891
1884.28 13.7105 0 -166.373
1865.02 13.6548 0 -165.207
1533.58 15.9897 0 -172.163
1501.5 15.9192 0 -170.196
2113.91 10.3364 0 -147.774
2158.86 10.5008 0 -150.525
1517.54 15.9549 0 -171.182
1807.24 13.4828 0 -161.676
2136.39 10.419 0 -149.152
1845.76 13.5983 0 -164.035
1826.5 13.541 0 -162.858
1501.5 15.9192 0 -170.196
1469.42 15.8454 0 -168.211
2068.96 10.1688 0 -145
2113.91 10.3364 0 -147.774
1485.46 15.8827 0 -169.206
1768.73 13.364 0 -159.296
2091.43 10.253 0 -146.39
1807.24 13.4828 0 -161.676
1787.98 13.4238 0 -160.489
1469.42 15.8454 0 -168.211
1437.35 15.7684 0 -166.21
2024.02 9.99808 0 -142.202
2068.96 10.1688 0 -145
1453.38 15.8073 0 -167.213
1730.22 13.242 0 -156.897
2046.49 10.0839 0 -143.604
1768.73 13.364 0 -159.296
1749.48 13.3034 0 -158.099
1437.35 15.7684 0 -166.21
1405.28 15.6881 0 -164.193
1979.08 9.82421 0 -139.382
2024.02 9.99808 0 -142.202
1421.31 15.7286 0 -165.204
1691.72 13.1167 0 -154.478
2001.55 9.91153 0 -140.795
1730.22 13.242 0 -156.897
1710.97 13.1798 0 -155.69
1405.28 15.6881 0 -164.193
1373.21 15.6046 0 -162.16
1934.15 9.64727 0 -136.54
1979.08 9.82421 0 -139.382
1389.24 15.6467 0 -163.179
1653.23 12.9883 0 -152.04
1956.61 9.73612 0 -137.964
1691.72 13.1167 0 -154.478
1672.47 13.0529 0 -153.262
1373.21 15.6046 0 -162.16
1341.15 15.518 0 -160.112
1889.22 9.46734 0 -133.675
1934.15 9.64727 0 -136.54
1357.18 15.5617 0 -161.138
1614.73 12.8568 0 -149.584
1911.68 9.55768 0 -135.11
1653.23 12.9883 0 -152.04
1633.98 12.923 0 -150.814
1341.15 15.518 0 -160.112
1309.09 15.4284 0 -158.048
1844.3 9.28447 0 -130.79
1889.22 9.46734 0 -133.675
1325.12 15.4736 0 -159.082
1576.25 12.7222 0 -147.109
1866.76 9.37627 0 -132.235
1614.73 12.8568 0 -149.584
1595.49 12.7899 0 -148.348
1309.09 15.4284 0 -158.048
1277.03 15.3356 0 -155.969
1799.39 9.09871 0 -127.883
1844.3 9.28447 0 -130.79
1293.06 15.3824 0 -157.011
1537.76 12.5846 0 -144.616
1821.84 9.19195 0 -129.339
1576.25 12.7222 0 -147.109
1557 12.6538 0 -145.865
1277.03 15.3356 0 -155.969
1244.98 15.2399 0 -153.877
1754.48 8.91013 0 -124.957
1799.39 9.09871 0 -127.883
1261.01 15.2881 0 -154.925
1499.29 12.4441 0 -142.106
1776.93 9.00477 0 -126.423
1537.76 12.5846 0 -144.616
1518.52 12.5147 0 -143.363
1244.98 15.2399 0 -153.877
1212.93 15.1412 0 -151.77
1709.57 8.7188 0 -122.01
1754.48 8.91013 0 -124.957
1228.96 15.1909 0 -152.825
1460.81 12.3007 0 -139.58
1732.02 8.81481 0 -123.486
1499.29 12.4441 0 -142.106
1480.05 12.3727 0 -140.845
1212.93 15.1412 0 -151.77
1180.89 15.0396 0 -149.649
1664.68 8.52476 0 -119.045
1709.57 8.7188 0 -122.01
1196.91 15.0908 0 -150.711
1422.34 12.1544 0 -137.036
1687.12 8.62211 0 -120.53
1460.81 12.3007 0 -139.58
1441.58 12.2279 0 -138.31
1180.89 15.0396 0 -149.649
1148.84 14.9351 0 -147.515
1619.78 8.32808 0 -116.061
1664.68 8.52476 0 -119.045
1164.86 14.9877 0 -148.584
1383.88 12.0053 0 -134.477
1642.23 8.42675 0 -117.555
1422.34 12.1544 0 -137.036
1403.11 12.0802 0 -135.759
1148.84 14.9351 0 -147.515
1116.8 14.8278 0 -145.368
1574.9 8.12883 0 -113.058
1619.78 8.32808 0 -116.061
1132.82 14.8818 0 -146.443
1345.41 11.8534 0 -131.902
1597.34 8.22878 0 -114.562
1383.88 12.0053 0 -134.477
1364.64 11.9297 0 -133.192
1116.8 14.8278 0 -145.368
1084.77 14.7177 0 -143.209
1530.01 7.92707 0 -110.038
1574.9 8.12883 0 -113.058
1100.79 14.7731 0 -144.29
1306.96 11.6989 0 -129.312
1552.46 8.02826 0 -111.551
1345.41 11.8534 0 -131.902
1326.19 11.7765 0 -130.609
1084.77 14.7177 0 -143.209
1052.73 14.6049 0 -141.037
1485.14 7.72287 0 -107.001
1530.01 7.92707 0 -110.038
1068.75 14.6616 0 -142.124
1268.5 11.5418 0 -126.708
1507.58 7.82527 0 -108.522
1306.96 11.6989 0 -129.312
1287.73 11.6207 0 -128.012
1052.73 14.6049 0 -141.037
1020.7 14.4893 0 -138.853
1440.27 7.51628 0 -103.947
1485.14 7.72287 0 -107.001
1036.72 14.5474 0 -139.947
1230.05 11.382 0 -124.089
1462.7 7.61987 0 -105.476
1268.5 11.5418 0 -126.708
1249.28 11.4622 0 -125.4
1020.7 14.4893 0 -138.853
988.677 14.3711 0 -136.658
1395.4 7.30738 0 -100.877
1440.27 7.51628 0 -103.947
1004.69 14.4306 0 -137.757
1191.61 11.2198 0 -121.456
1417.83 7.41212 0 -102.414
1230.05 11.382 0 -124.089
1210.83 11.3012 0 -122.774
988.677 14.3711 0 -136.658
956.652 14.2504 0 -134.452
1350.54 7.09623 0 -97.7918
1395.4 7.30738 0 -100.877
972.664 14.3111 0 -135.557
1153.17 11.0551 0 -118.81
1372.97 7.20209 0 -99.3365
1191.61 11.2198 0 -121.456
1172.39 11.1377 0 -120.135
956.652 14.2504 0 -134.452
924.631 14.127 0 -132.235
1305.68 6.8829 0 -94.6911
1350.54 7.09623 0 -97.7918
940.641 14.189 0 -133.345
1114.73 10.8879 0 -116.151
1328.11 6.98984 0 -96.2433
1153.17 11.0551 0 -118.81
1133.95 10.9718 0 -117.482
924.631 14.127 0 -132.235
892.612 14.0012 0 -130.008
1260.83 6.66746 0 -91.5757
1305.68 6.8829 0 -94.6911
908.621 14.0644 0 -131.123
1076.3 10.7185 0 -113.48
1283.25 6.77544 0 -93.1352
1114.73 10.8879 0 -116.151
1095.51 10.8035 0 -114.817
892.612 14.0012 0 -130.008
860.595 13.8729 0 -127.771
1215.98 6.44997 0 -88.4463
1260.83 6.66746 0 -91.5757
876.603 13.9373 0 -128.891
1037.87 10.5467 0 -110.797
1238.4 6.55897 0 -90.0127
1076.3 10.7185 0 -113.48
1057.08 10.6329 0 -112.14
860.595 13.8729 0 -127.771
828.582 13.7422 0 -125.524
1171.14 6.2305 0 -85.3033
1215.98 6.44997 0 -88.4463
844.588 13.8078 0 -126.649
999.439 10.3727 0 -108.101
1193.56 6.34048 0 -86.8764
1037.87 10.5467 0 -110.797
1018.65 10.46 0 -109.45
828.582 13.7422 0 -125.524
796.57 13.6091 0 -123.268
1126.3 6.00913 0 -82.1471
1171.14 6.2305 0 -85.3033
812.576 13.6759 0 -124.397
961.015 10.1965 0 -105.395
1148.72 6.12005 0 -83.7268
999.439 10.3727 0 -108.101
980.227 10.2849 0 -106.75
796.57 13.6091 0 -123.268
764.562 13.4737 0 -121.003
1081.47 5.78591 0 -78.9784
1126.3 6.00913 0 -82.1471
780.566 13.5417 0 -122.137
922.595 10.0182 0 -102.678
1103.88 5.89775 0 -80.5643
961.015 10.1965 0 -105.395
941.805 10.1076 0 -104.038
764.562 13.4737 0 -121.003
732.555 13.3361 0 -118.73
1036.63 5.56093 0 -75.7976
1081.47 5.78591 0 -78.9784
748.558 13.4052 0 -119.868
884.178 9.83791 0 -99.9512
1059.05 5.67364 0 -77.3895
922.595 10.0182 0 -102.678
903.386 9.92833 0 -101.316
732.555 13.3361 0 -118.73
700.551 13.1962 0 -116.448
991.808 5.33425 0 -72.6052
1036.63 5.56093 0 -75.7976
716.553 13.2664 0 -117.59
845.763 9.65558 0 -97.2142
1014.22 5.4478 0 -74.2029
884.178 9.83791 0 -99.9512
864.97 9.74699 0 -98.5839
700.551 13.1962 0 -116.448
668.549 13.0542 0 -114.159
946.984 5.10596 0 -69.4018
991.808 5.33425 0 -72.6052
684.55 13.1255 0 -115.305
807.352 9.47134 0 -94.468
969.396 5.2203 0 -71.0049
845.763 9.65558 0 -97.2142
826.557 9.5637 0 -95.8422
668.549 13.0542 0 -114.159
636.549 12.9101 0 -111.863
902.164 4.8761 0 -66.1877
946.984 5.10596 0 -69.4018
652.549 12.9824 0 -113.012
768.943 9.28523 0 -91.7128
924.574 4.99122 0 -67.796
807.352 9.47134 0 -94.468
788.147 9.37851 0 -93.0915
636.549 12.9101 0 -111.863
604.552 12.7641 0 -109.559
857.346 4.64479 0 -62.9635
902.164 4.8761 0 -66.1877
620.55 12.8374 0 -110.712
730.536 9.09733 0 -88.9491
879.755 4.76063 0 -64.5768
768.943 9.28523 0 -91.7128
749.739 9.1915 0 -90.332
604.552 12.7641 0 -109.559
572.557 12.6164 0 -107.249
812.531 4.41208 0 -59.7297
857.346 4.64479 0 -62.9635
588.554 12.6905 0 -108.405
692.132 8.90773 0 -86.1773
834.938 4.52861 0 -61.3478
730.536 9.09733 0 -88.9491
711.334 9.00273 0 -87.5642
572.557 12.6164 0 -107.249
540.565 12.4673 0 -104.931
767.718 4.17807 0 -56.4868
812.531 4.41208 0 -59.7297
556.561 12.542 0 -106.091
653.731 8.71651 0 -83.3975
790.124 4.29522 0 -58.1094
692.132 8.90773 0 -86.1773
672.931 8.81232 0 -84.7884
540.565 12.4673 0 -104.931
508.578 12.3176 0 -102.605
722.907 3.94293 0 -53.2353
767.718 4.17807 0 -56.4868
524.571 12.3925 0 -103.769
615.334 8.52393 0 -80.6097
745.312 4.06068 0 -54.862
653.731 8.71651 0 -83.3975
634.532 8.62037 0 -82.0046
508.578 12.3176 0 -102.605
476.597 12.1687 0 -100.269
678.098 3.70637 0 -49.9758
722.907 3.94293 0 -53.2353
492.587 12.2429 0 -101.438
576.943 8.33011 0 -77.8128
700.502 3.8247 0 -51.6066
615.334 8.52393 0 -80.6097
596.138 8.42719 0 -79.2125
476.597 12.1687 0 -100.269
444.626 12.0233 0 -97.9181
633.296 3.46966 0 -46.7096
678.098 3.70637 0 -49.9758
460.61 12.0954 0 -99.0956
538.564 8.13599 0 -75.0051
655.696 3.58838 0 -48.3432
576.943 8.33011 0 -77.8128
557.751 8.23299 0 -76.4105
444.626 12.0233 0 -97.9181
412.671 11.8871 0 -95.543
588.506 3.22941 0 -43.4369
633.296 3.46966 0 -46.7096
428.645 11.9535 0 -96.7345
500.204 7.94186 0 -72.1805
610.899 3.3492 0 -45.0746
538.564 8.13599 0 -75.0051
519.381 8.03899 0 -73.5953
412.671 11.8871 0 -95.543
380.736 11.7686 0 -93.1271
543.754 2.99412 0 -40.1631
588.506 3.22941 0 -43.4369
396.701 11.8249 0 -94.3416
461.888 7.7512 0 -69.3299
566.123 3.11328 0 -41.7985
500.204 7.94186 0 -72.1805
481.038 7.84568 0 -70.7596
380.736 11.7686 0 -93.1271
348.844 11.6877 0 -90.6343
499.063 2.74114 0 -36.8859
543.754 2.99412 0 -40.1631
364.782 11.7219 0 -91.8937
423.644 7.56481 0 -66.4301
521.399 2.86531 0 -38.5276
461.888 7.7512 0 -69.3299
442.756 7.65795 0 -67.8876
348.844 11.6877 0 -90.6343
316.99 11.6655 0 -88.0138
454.562 2.52076 0 -33.6291
499.063 2.74114 0 -36.8859
332.916 11.6666 0 -89.3443
385.556 7.39405 0 -63.4465
476.779 2.63882 0 -35.2479
423.644 7.56481 0 -66.4301
404.571 7.47547 0 -64.9538
316.99 11.6655 0 -88.0138
285.236 11.7648 0 -85.1524
410.32 2.2056 0 -30.3759
454.562 2.52076 0 -33.6291
301.09 11.6973 0 -86.6236
347.711 7.24165 0 -60.3039
432.4 2.34992 0 -32.0147
385.556 7.39405 0 -63.4465
366.603 7.31877 0 -61.8977
285.236 11.7648 0 -85.1524
253.483 12.0077 0 -81.927
366.87 2.06298 0 -27.2244
410.32 2.2056 0 -30.3759
269.379 11.8594 0 -83.5949
310.381 7.13848 0 -56.8901
388.46 2.1757 0 -28.7567
347.711 7.24165 0 -60.3039
328.946 7.17397 0 -58.6515
253.483 12.0077 0 -81.927
221.891 12.576 0 -78.0506
324.382 1.44383 0 -24.0903
366.87 2.06298 0 -27.2244
237.634 12.2567 0 -80.0951
273.742 7.09906 0 -53.0124
345.473 1.68081 0 -25.7151
310.381 7.13848 0 -56.8901
291.994 7.12915 0 -55.0041
221.891 12.576 0 -78.0506
189.821 13.3001 0 -73.3792
284.754 1.65638 0 -21.3339
324.382 1.44383 0 -24.0903
206.012 12.8875 0 -75.8248
238.591 7.18561 0 -48.3479
304.115 1.76387 0 -22.5283
273.742 7.09906 0 -53.0124
255.849 7.0793 0 -50.8612
189.821 13.3001 0 -73.3792
157.531 14.6433 0 -67.474
248.257 -0.376826 0 -18.6151
284.754 1.65638 0 -21.3339
173.614 13.9839 0 -70.6046
204.82 7.47555 0 -42.6089
265.939 0.257687 0 -20.2579
238.591 7.18561 0 -48.3479
221.7 7.39483 0 -45.5279
157.531 14.6433 0 -67.474
121.894 14.8662 0 -61.1256
220.796 1.37122 0 -17.0416
248.257 -0.376826 0 -18.6151
140.534 14.801 0 -64.2957
174.41 8.00917 0 -35.0654
233.348 1.55572 0 -17.0737
204.82 7.47555 0 -42.6089
188.722 7.51073 0 -39.3736
121.894 14.8662 0 -61.1256
82.8694 14.23 0 -55.7912
203.804 -6.17611 0 -14.5863
220.796 1.37122 0 -17.0416
102.631 15.3646 0 -58.0416
142.965 8.99432 0 -26.8978
209.724 -4.53159 0 -17.4913
174.41 8.00917 0 -35.0654
159.927 8.81549 0 -30.4428
82.8694 14.23 0 -55.7912
30.5655 -1.07894 0 -61.73
222.071 6.37274 0 -9.48447
203.804 -6.17611 0 -14.5863
59.5677 8.74302 0 -56.4566
108.249 7.44683 0 -20.6613
208.975 4.6164 0 -10.5508
142.965 8.99432 0 -26.8978
125.079 8.40305 0 -24.175
30.5655 -1.07894 0 -61.73
-16.2179 -62.2834 0 -95.8038
316.282 24.7806 0 30.4271
222.071 6.37274 0 -9.48447
4.86997 -16.7402 0 -72.6692
13.7039 -34.2725 0 -55.9253
247.236 -10.1988 0 -5.27981
108.249 7.44683 0 -20.6613
77.8501 0.316983 0 -26.2352
-16.2179 -62.2834 0 -95.8038
-5.12555 -310.466 0 -117.593
31.8618 -375.145 0 -283.595
316.282 24.7806 0 30.4271
-25.7301 -161.743 0 -119.897
-49.1614 -387.923 0 -177.793
330.908 73.2487 0 5.58571
13.7039 -34.2725 0 -55.9253
-35.817 -124.904 0 -106.096
      </DataArray> 
      <DataArray type="Float64" NumberOfComponents="4" Name="GreenStrain" format="ascii">
-0.00593946 -1.11022e-16 0.00254548 -0.00202131
-0.00423439 0.00134228 0.00123948 7.84981e-05
-0.00304561 0.000604191 0.00104632 -0.00022466
-0.00270411 0 0.0011589 -0.000152072
-0.00471014 0.00149815 0.00137657 -0.000283307
-0.00384935 0.000935991 0.00124858 -0.000291519
-0.0028961 0.000285848 0.00111868 -0.000260903
-0.00317568 0 0.00136101 -0.000489844
-0.00371359 0.00063403 0.00131981 -0.000458331
-0.00423439 0.00134228 0.00123948 7.84981e-05
-0.00418777 0.00129735 0.00123875 2.3878e-05
-0.00316378 0.000855205 0.00098939 -0.00010625
-0.00304561 0.000604191 0.00104632 -0.00022466
-0.00417408 0.00123831 0.00125819 3.38687e-05
-0.00376322 0.00109616 0.00114302 -4.77754e-05
-0.00313931 0.000781749 0.00101039 -0.000161503
-0.00384935 0.000935991 0.00124858 -0.000291519
-0.00379525 0.00105955 0.00117244 -0.000116979
-0.00418777 0.00129735 0.00123875 2.3878e-05
-0.00424807 0.00126077 0.00128027 1.11098e-05
-0.00314809 0.000924924 0.000952785 -3.91913e-05
-0.00316378 0.000855205 0.00098939 -0.00010625
-0.0042282 0.0012949 0.00125713 2.42885e-05
-0.00372416 0.00111481 0.00111829 -4.47365e-06
-0.00315479 0.000898606 0.000966937 -6.2106e-05
-0.00376322 0.00109616 0.00114302 -4.77754e-05
-0.00374294 0.0011096 0.00112857 -2.29549e-05
-0.00424807 0.00126077 0.00128027 1.11098e-05
-0.00427257 0.00128564 0.00128011 -1.35888e-06
-0.0031258 0.000933999 0.000939345 -2.4706e-05
-0.00314809 0.000924924 0.000952785 -3.91913e-05
-0.00425899 0.00126517 0.00128306 -2.33065e-06
-0.00370272 0.00111223 0.00111021 1.4744e-06
-0.00313973 0.000933971 0.000945327 -2.93897e-05
-0.00372416 0.00111481 0.00111829 -4.47365e-06
-0.00370978 0.00111461 0.00111222 3.59567e-06
-0.00427257 0.00128564 0.00128011 -1.35888e-06
-0.00428495 0.00128094 0.00128743 8.62814e-07
-0.00310016 0.000932107 0.000929168 -2.43997e-05
-0.0031258 0.000933999 0.000939345 -2.4706e-05
-0.00428313 0.00128763 0.00128379 2.1398e-06
-0.00369197 0.00110855 0.00110718 -5.30343e-06
-0.00311103 0.000933328 0.000933303 -2.30747e-05
-0.00370272 0.00111223 0.00111021 1.4744e-06
-0.00369832 0.00111029 0.00110916 -2.89211e-06
-0.00428495 0.00128094 0.00128743 8.62814e-07
-0.00427998 0.00128458 0.00128374 -8.07932e-07
-0.0030807 0.000925086 0.000923833 -2.97304e-05
-0.00310016 0.000932107 0.000929168 -2.43997e-05
-0.00428242 0.00128141 0.00128615 -1.37657e-06
-0.00367848 0.00110365 0.0011035 -1.14131e-05
-0.00309084 0.000929021 0.000926492 -2.72198e-05
-0.00369197 0.00110855 0.00110718 -5.30343e-06
-0.00368493 0.00110627 0.00110514 -8.02983e-06
-0.00427998 0.00128458 0.00128374 -8.07932e-07
-0.00426927 0.00127976 0.00128122 4.57393e-08
-0.00306184 0.000918312 0.000918654 -3.41215e-05
-0.0030807 0.000925086 0.000923833 -2.97304e-05
-0.00427611 0.00128328 0.00128264 2.47944e-07
-0.0036641 0.00109841 0.00109958 -1.61802e-05
-0.00307071 0.000921555 0.000921066 -3.19394e-05
-0.00367848 0.00110365 0.0011035 -1.14131e-05
-0.00367181 0.00110104 0.00110176 -1.42576e-05
-0.00426927 0.00127976 0.00128122 4.57393e-08
-0.00425205 0.00127574 0.00127556 -2.60007e-07
-0.00304487 0.000911762 0.000914191 -3.76544e-05
-0.00306184 0.000918312 0.000918654 -3.41215e-05
-0.0042608 0.00127753 0.00127855 -4.36376e-07
-0.00364744 0.00109291 0.0010948 -1.92239e-05
-0.00305344 0.000915012 0.000916469 -3.61271e-05
-0.0036641 0.00109841 0.00109958 -1.61802e-05
-0.00365582 0.0010957 0.00109719 -1.78113e-05
-0.00425205 0.00127574 0.00127556 -2.60007e-07
-0.00423264 0.00126961 0.00126987 -2.85469e-08
-0.0030281 0.00090586 0.000909531 -3.97712e-05
-0.00304487 0.000911762 0.000914191 -3.76544e-05
-0.00424275 0.00127294 0.00127278 1.14672e-08
-0.00362981 0.00108724 0.00108967 -2.10107e-05
-0.00303636 0.000908729 0.00091184 -3.88198e-05
-0.00364744 0.00109291 0.0010948 -1.92239e-05
-0.00363882 0.00109009 0.00109231 -2.02789e-05
-0.00423264 0.00126961 0.00126987 -2.85469e-08
-0.00421132 0.00126345 0.00126337 -7.16901e-08
-0.00301177 0.000900354 0.000904891 -4.10858e-05
-0.0030281 0.00090586 0.000909531 -3.97712e-05
-0.00422204 0.0012665 0.00126666 -1.25903e-07
-0.00361126 0.00108151 0.00108418 -2.20239e-05
-0.00301995 0.00090307 0.000907235 -4.05358e-05
-0.00362981 0.00108724 0.00108967 -2.10107e-05
-0.00362057 0.00108438 0.00108694 -2.15847e-05
-0.00421132 0.00126345 0.00126337 -7.16901e-08
-0.00418935 0.00125681 0.00125681 -1.51063e-08
-0.00299547 0.000895153 0.000900135 -4.17713e-05
-0.00301177 0.000900354 0.000904891 -4.10858e-05
-0.00420043 0.00126019 0.0012601 -6.05793e-09
-0.00359233 0.00107572 0.00107854 -2.25361e-05
-0.00300359 0.000897722 0.000902515 -4.14783e-05
-0.00361126 0.00108151 0.00108418 -2.20239e-05
-0.00360185 0.00107862 0.00108139 -2.23291e-05
-0.00418935 0.00125681 0.00125681 -1.51063e-08
-0.00416695 0.00125013 0.00125007 -1.68744e-08
-0.00297926 0.000890127 0.000895344 -4.21351e-05
-0.00299547 0.000895153 0.000900135 -4.17713e-05
-0.00417817 0.00125346 0.00125345 -3.23725e-08
-0.00357312 0.00106993 0.0010728 -2.2794e-05
-0.00298737 0.000892624 0.000897748 -4.19883e-05
-0.00359233 0.00107572 0.00107854 -2.25361e-05
-0.00358273 0.00107283 0.00107567 -2.26879e-05
-0.00416695 0.00125013 0.00125007 -1.68744e-08
-0.00414441 0.00124335 0.00124331 -4.39346e-09
-0.00296306 0.000885206 0.000890509 -4.22975e-05
-0.00297926 0.000890127 0.000895344 -4.21351e-05
-0.00415569 0.00124675 0.00124669 -2.12371e-09
-0.00355381 0.00106413 0.00106701 -2.29033e-05
-0.00297116 0.000887657 0.000892928 -4.22318e-05
-0.00357312 0.00106993 0.0010728 -2.2794e-05
-0.00356348 0.00106703 0.00106991 -2.28612e-05
-0.00414441 0.00124335 0.00124331 -4.39346e-09
-0.00412179 0.00123658 0.00123652 -2.98695e-09
-0.00294688 0.000880341 0.000885657 -4.23672e-05
-0.00296306 0.000885206 0.000890509 -4.22975e-05
-0.0041331 0.00123996 0.00123992 -6.90713e-09
-0.00353444 0.00105832 0.00106119 -2.29472e-05
-0.00295497 0.000882769 0.000888086 -4.23413e-05
-0.00355381 0.00106413 0.00106701 -2.29033e-05
-0.00354412 0.00106122 0.0010641 -2.29308e-05
-0.00412179 0.00123658 0.00123652 -2.98695e-09
-0.00409917 0.00122979 0.00122974 -6.56617e-10
-0.00293069 0.000875506 0.000880793 -4.23878e-05
-0.00294688 0.000880341 0.000885657 -4.23672e-05
-0.00411048 0.00123318 0.00123313 -1.65363e-11
-0.00351505 0.00105252 0.00105537 -2.29579e-05
-0.00293878 0.000877921 0.000883226 -4.23809e-05
-0.00353444 0.00105832 0.00106119 -2.29472e-05
-0.00352474 0.00105542 0.00105828 -2.2955e-05
-0.00409917 0.00122979 0.00122974 -6.56617e-10
-0.00407655 0.001223 0.00122295 -9.76794e-11
-0.00291451 0.000870684 0.000875925 -4.23898e-05
-0.00293069 0.000875506 0.000880793 -4.23878e-05
-0.00408786 0.00122639 0.00122634 -9.26979e-10
-0.00349565 0.00104673 0.00104954 -2.29572e-05
-0.0029226 0.000873094 0.00087836 -4.23903e-05
-0.00351505 0.00105252 0.00105537 -2.29579e-05
-0.00350535 0.00104962 0.00105245 -2.29584e-05
-0.00407655 0.001223 0.00122295 -9.76794e-11
-0.00405394 0.00121622 0.00121617 1.79579e-10
-0.00289833 0.000865869 0.000871055 -4.23845e-05
-0.00291451 0.000870684 0.000875925 -4.23898e-05
-0.00406525 0.00121961 0.00121956 3.8575e-10
-0.00347626 0.00104093 0.00104371 -2.29525e-05
-0.00290642 0.000868276 0.00087349 -4.23874e-05
-0.00349565 0.00104673 0.00104954 -2.29572e-05
-0.00348595 0.00104383 0.00104663 -2.2955e-05
-0.00405394 0.00121622 0.00121617 1.79579e-10
-0.00403134 0.00120944 0.00120939 2.78317e-10
-0.00288215 0.000861057 0.000866184 -4.23784e-05
-0.00289833 0.000865869 0.000871055 -4.23845e-05
-0.00404264 0.00121283 0.00121278 1.53756e-10
-0.00345686 0.00103513 0.00103788 -2.29478e-05
-0.00289024 0.000863463 0.000868619 -4.23814e-05
-0.00347626 0.00104093 0.00104371 -2.29525e-05
-0.00346656 0.00103803 0.0010408 -2.295e-05
-0.00403134 0.00120944 0.00120939 2.78317e-10
-0.00400874 0.00120266 0.00120261 2.41028e-10
-0.00286598 0.000856245 0.000861313 -4.23732e-05
-0.00288215 0.000861057 0.000866184 -4.23784e-05
-0.00402004 0.00120605 0.001206 3.14226e-10
-0.00343748 0.00102934 0.00103206 -2.29441e-05
-0.00287406 0.000858651 0.000863748 -4.23756e-05
-0.00345686 0.00103513 0.00103788 -2.29478e-05
-0.00344717 0.00103224 0.00103497 -2.29458e-05
-0.00400874 0.00120266 0.00120261 2.41028e-10
-0.00398615 0.00119588 0.00119583 2.28701e-10
-0.0028498 0.000851433 0.000856443 -4.23695e-05
-0.00286598 0.000856245 0.000861313 -4.23732e-05
-0.00399745 0.00119927 0.00119922 2.28466e-10
-0.00341809 0.00102355 0.00102623 -2.29416e-05
-0.00285789 0.000853839 0.000858878 -4.23712e-05
-0.00343748 0.00102934 0.00103206 -2.29441e-05
-0.00342778 0.00102644 0.00102915 -2.29427e-05
-0.00398615 0.00119588 0.00119583 2.28701e-10
-0.00396356 0.0011891 0.00118905 1.84851e-10
-0.00283362 0.000846622 0.000851573 -4.23671e-05
-0.0028498 0.000851433 0.000856443 -4.23695e-05
-0.00397485 0.00119249 0.00119244 2.11515e-10
-0.0033987 0.00101775 0.00102041 -2.29401e-05
-0.00284171 0.000849028 0.000854008 -4.23681e-05
-0.00341809 0.00102355 0.00102623 -2.29416e-05
-0.0034084 0.00102065 0.00102332 -2.29408e-05
-0.00396356 0.0011891 0.00118905 1.84851e-10
-0.00394097 0.00118232 0.00118228 1.66058e-10
-0.00281745 0.000841809 0.000846703 -4.23657e-05
-0.00283362 0.000846622 0.000851573 -4.23671e-05
-0.00395226 0.00118571 0.00118566 1.75471e-10
-0.00337932 0.00101196 0.00101458 -2.29393e-05
-0.00282554 0.000844216 0.000849138 -4.23663e-05
-0.0033987 0.00101775 0.00102041 -2.29401e-05
-0.00338901 0.00101485 0.0010175 -2.29396e-05
-0.00394097 0.00118232 0.00118228 1.66058e-10
-0.00391838 0.00117555 0.0011755 1.44734e-10
-0.00280128 0.000836997 0.000841834 -4.23649e-05
-0.00281745 0.000841809 0.000846703 -4.23657e-05
-0.00392967 0.00117894 0.00117889 1.54071e-10
-0.00335994 0.00100616 0.00100876 -2.29389e-05
-0.00280936 0.000839403 0.000844269 -4.23653e-05
-0.00337932 0.00101196 0.00101458 -2.29393e-05
-0.00336963 0.00100906 0.00101167 -2.29391e-05
-0.00391838 0.00117555 0.0011755 1.44734e-10
-0.00389579 0.00116877 0.00116872 1.3488e-10
-0.0027851 0.000832184 0.000836966 -4.23646e-05
-0.00280128 0.000836997 0.000841834 -4.23649e-05
-0.00390709 0.00117216 0.00117211 1.39672e-10
-0.00334056 0.00100037 0.00100294 -2.29388e-05
-0.00279319 0.000834591 0.0008394 -4.23647e-05
-0.00335994 0.00100616 0.00100876 -2.29389e-05
-0.00335025 0.00100327 0.00100585 -2.29388e-05
-0.00389579 0.00116877 0.00116872 1.34883e-10
-0.00387321 0.001162 0.00116195 1.26683e-10
-0.00276893 0.000827372 0.000832097 -4.23645e-05
-0.0027851 0.000832184 0.000836966 -4.23646e-05
-0.0038845 0.00116538 0.00116534 1.297e-10
-0.00332118 0.000994578 0.000997114 -2.29388e-05
-0.00277702 0.000829778 0.000834532 -4.23645e-05
-0.00334056 0.00100037 0.00100294 -2.29388e-05
-0.00333087 0.000997475 0.00100003 -2.29388e-05
-0.00387321 0.001162 0.00116195 1.26683e-10
-0.00385062 0.00115522 0.00115517 1.22773e-10
-0.00275276 0.000822559 0.000827229 -4.23644e-05
-0.00276893 0.000827372 0.000832097 -4.23645e-05
-0.00386191 0.00115861 0.00115856 1.24466e-10
-0.0033018 0.000988785 0.000991291 -2.29388e-05
-0.00276085 0.000824965 0.000829663 -4.23645e-05
-0.00332118 0.000994578 0.000997114 -2.29388e-05
-0.00331149 0.000991682 0.000994202 -2.29388e-05
-0.00385062 0.00115522 0.00115517 1.22774e-10
-0.00382803 0.00114844 0.0011484 1.19964e-10
-0.00273659 0.000817746 0.000822362 -4.23645e-05
-0.00275276 0.000822559 0.000827229 -4.23644e-05
-0.00383933 0.00115183 0.00115178 1.20847e-10
-0.00328242 0.000982992 0.000985468 -2.29389e-05
-0.00274467 0.000820152 0.000824795 -4.23645e-05
-0.0033018 0.000988785 0.000991291 -2.29388e-05
-0.00329211 0.000985888 0.000988379 -2.29389e-05
-0.00382803 0.00114844 0.0011484 1.19964e-10
-0.00380545 0.00114167 0.00114162 1.18532e-10
-0.00272042 0.000812933 0.000817494 -4.23645e-05
-0.00273659 0.000817746 0.000822362 -4.23645e-05
-0.00381674 0.00114506 0.00114501 1.19052e-10
-0.00326304 0.000977198 0.000979645 -2.2939e-05
-0.0027285 0.000815339 0.000819928 -4.23645e-05
-0.00328242 0.000982992 0.000985468 -2.29389e-05
-0.00327273 0.000980095 0.000982557 -2.29389e-05
-0.00380545 0.00114167 0.00114162 1.18532e-10
-0.00378286 0.00113489 0.00113484 1.17518e-10
-0.00270425 0.00080812 0.000812627 -4.23645e-05
-0.00272042 0.000812933 0.000817494 -4.23645e-05
-0.00379416 0.00113828 0.00113823 1.17788e-10
-0.00324366 0.000971405 0.000973823 -2.2939e-05
-0.00271233 0.000810526 0.00081506 -4.23645e-05
-0.00326304 0.000977198 0.000979645 -2.2939e-05
-0.00325335 0.000974302 0.000976734 -2.2939e-05
-0.00378286 0.00113489 0.00113484 1.17518e-10
-0.00376028 0.00112812 0.00112807 1.16859e-10
-0.00268808 0.000803306 0.00080776 -4.23644e-05
-0.00270425 0.00080812 0.000812627 -4.23645e-05
-0.00377157 0.0011315 0.00113146 1.17072e-10
-0.00322428 0.000965612 0.000968001 -2.29391e-05
-0.00269616 0.000805713 0.000810193 -4.23645e-05
-0.00324366 0.000971405 0.000973823 -2.2939e-05
-0.00323397 0.000968508 0.000970912 -2.29391e-05
-0.00376028 0.00112812 0.00112807 1.1686e-10
-0.00373769 0.00112134 0.00112129 1.16285e-10
-0.00267191 0.000798493 0.000802893 -4.23644e-05
-0.00268808 0.000803306 0.00080776 -4.23644e-05
-0.00374898 0.00112473 0.00112468 1.16456e-10
-0.0032049 0.000959819 0.000962179 -2.29391e-05
-0.00267999 0.0008009 0.000805326 -4.23644e-05
-0.00322428 0.000965612 0.000968001 -2.29391e-05
-0.00321459 0.000962715 0.00096509 -2.29391e-05
-0.00373769 0.00112134 0.00112129 1.16285e-10
-0.00371511 0.00111456 0.00111452 1.15756e-10
-0.00265574 0.00079368 0.000798027 -4.23643e-05
-0.00267191 0.000798493 0.000802893 -4.23644e-05
-0.0037264 0.00111795 0.00111791 1.15944e-10
-0.00318552 0.000954025 0.000956357 -2.29391e-05
-0.00266383 0.000796086 0.00080046 -4.23643e-05
-0.0032049 0.000959819 0.000962179 -2.29391e-05
-0.00319521 0.000956922 0.000959268 -2.29391e-05
-0.00371511 0.00111456 0.00111452 1.15757e-10
-0.00369252 0.00110779 0.00110774 1.15209e-10
-0.00263957 0.000788866 0.00079316 -4.23642e-05
-0.00265574 0.00079368 0.000798027 -4.23643e-05
-0.00370382 0.00111118 0.00111113 1.15419e-10
-0.00316615 0.000948232 0.000950535 -2.29391e-05
-0.00264766 0.000791273 0.000795593 -4.23642e-05
-0.00318552 0.000954025 0.000956357 -2.29391e-05
-0.00317584 0.000951129 0.000953446 -2.29391e-05
-0.00369252 0.00110779 0.00110774 1.15209e-10
-0.00366994 0.00110101 0.00110097 1.14651e-10
-0.00262341 0.000784053 0.000788294 -4.2364e-05
-0.00263957 0.000788866 0.00079316 -4.23642e-05
-0.00368123 0.0011044 0.00110436 1.1488e-10
-0.00314677 0.000942439 0.000944714 -2.29391e-05
-0.00263149 0.00078646 0.000790727 -4.23641e-05
-0.00316615 0.000948232 0.000950535 -2.29391e-05
-0.00315646 0.000945336 0.000947624 -2.29391e-05
-0.00366994 0.00110101 0.00110097 1.14644e-10
-0.00364736 0.00109424 0.00109419 1.14028e-10
-0.00260724 0.00077924 0.000783429 -4.23639e-05
-0.00262341 0.000784053 0.000788294 -4.2364e-05
-0.00365865 0.00109763 0.00109758 1.14288e-10
-0.0031274 0.000936646 0.000938892 -2.2939e-05
-0.00261532 0.000781646 0.000785862 -4.2364e-05
-0.00314677 0.000942439 0.000944714 -2.29391e-05
-0.00313708 0.000939543 0.000941803 -2.29391e-05
-0.00364736 0.00109424 0.00109419 1.14028e-10
-0.00362478 0.00108746 0.00108742 1.13397e-10
-0.00259107 0.000774426 0.000778563 -4.23637e-05
-0.00260724 0.00077924 0.000783429 -4.23639e-05
-0.00363607 0.00109085 0.00109081 1.13665e-10
-0.00310802 0.000930853 0.000933071 -2.2939e-05
-0.00259916 0.000776833 0.000780996 -4.23638e-05
-0.0031274 0.000936646 0.000938892 -2.2939e-05
-0.00311771 0.00093375 0.000935982 -2.2939e-05
-0.00362478 0.00108746 0.00108742 1.13397e-10
-0.0036022 0.00108069 0.00108064 1.12744e-10
-0.00257491 0.000769613 0.000773698 -4.23635e-05
-0.00259107 0.000774426 0.000778563 -4.23637e-05
-0.00361349 0.00108408 0.00108403 1.13017e-10
-0.00308865 0.00092506 0.000927251 -2.29389e-05
-0.00258299 0.000772019 0.000776131 -4.23636e-05
-0.00310802 0.000930853 0.000933071 -2.2939e-05
-0.00309833 0.000927957 0.000930161 -2.2939e-05
-0.0036022 0.00108069 0.00108064 1.12744e-10
-0.00357961 0.00107392 0.00107387 1.12053e-10
-0.00255874 0.000764799 0.000768833 -4.23633e-05
-0.00257491 0.000769613 0.000773698 -4.23635e-05
-0.0035909 0.0010773 0.00107726 1.12362e-10
-0.00306927 0.000919267 0.00092143 -2.29389e-05
-0.00256683 0.000767206 0.000771266 -4.23634e-05
-0.00308865 0.00092506 0.000927251 -2.29389e-05
-0.00307896 0.000922164 0.00092434 -2.29389e-05
-0.00357961 0.00107392 0.00107387 1.1205e-10
-0.00355703 0.00106714 0.0010671 1.11329e-10
-0.00254258 0.000759985 0.000763969 -4.23631e-05
-0.00255874 0.000764799 0.000768833 -4.23633e-05
-0.00356832 0.00107053 0.00107048 1.11639e-10
-0.0030499 0.000913475 0.00091561 -2.29388e-05
-0.00255066 0.000762392 0.000766401 -4.23632e-05
-0.00306927 0.000919267 0.00092143 -2.29389e-05
-0.00305958 0.000916371 0.00091852 -2.29388e-05
-0.00355703 0.00106714 0.0010671 1.11329e-10
-0.00353445 0.00106037 0.00106032 1.10666e-10
-0.00252642 0.000755172 0.000759105 -4.23628e-05
-0.00254258 0.000759985 0.000763969 -4.23631e-05
-0.00354574 0.00106375 0.00106371 1.10949e-10
-0.00303052 0.000907682 0.00090979 -2.29387e-05
-0.0025345 0.000757578 0.000761537 -4.23629e-05
-0.0030499 0.000913475 0.00091561 -2.29388e-05
-0.00304021 0.000910578 0.0009127 -2.29388e-05
-0.00353445 0.00106037 0.00106032 1.10666e-10
-0.00351187 0.00105359 0.00105355 1.09916e-10
-0.00251025 0.000750358 0.000754241 -4.23626e-05
-0.00252642 0.000755172 0.000759105 -4.23628e-05
-0.00352316 0.00105698 0.00105694 1.10249e-10
-0.00301115 0.000901889 0.00090397 -2.29386e-05
-0.00251833 0.000752765 0.000756673 -4.23627e-05
-0.00303052 0.000907682 0.00090979 -2.29387e-05
-0.00302084 0.000904785 0.00090688 -2.29387e-05
-0.00351187 0.00105359 0.00105355 1.09917e-10
-0.00348929 0.00104682 0.00104678 1.09189e-10
-0.00249409 0.000745544 0.000749377 -4.23623e-05
-0.00251025 0.000750358 0.000754241 -4.23626e-05
-0.00350058 0.00105021 0.00105016 1.0949e-10
-0.00299178 0.000896096 0.00089815 -2.29386e-05
-0.00250217 0.000747951 0.000751809 -4.23625e-05
-0.00301115 0.000901889 0.00090397 -2.29386e-05
-0.00300147 0.000898993 0.00090106 -2.29386e-05
-0.00348929 0.00104682 0.00104678 1.09189e-10
-0.00346672 0.00104005 0.00104 1.08477e-10
-0.00247793 0.00074073 0.000744513 -4.23621e-05
-0.00249409 0.000745544 0.000749377 -4.23623e-05
-0.00347801 0.00104343 0.00104339 1.08799e-10
-0.00297241 0.000890304 0.000892331 -2.29385e-05
-0.00248601 0.000743137 0.000746945 -4.23622e-05
-0.00299178 0.000896096 0.00089815 -2.29386e-05
-0.00298209 0.0008932 0.00089524 -2.29385e-05
-0.00346672 0.00104005 0.00104 1.08464e-10
-0.00344414 0.00103327 0.00103323 1.07743e-10
-0.00246177 0.000735917 0.00073965 -4.23618e-05
-0.00247793 0.00074073 0.000744513 -4.23621e-05
-0.00345543 0.00103666 0.00103661 1.08048e-10
-0.00295304 0.000884511 0.000886512 -2.29384e-05
-0.00246985 0.000738323 0.000742082 -4.23619e-05
-0.00297241 0.000890304 0.000892331 -2.29385e-05
-0.00296272 0.000887408 0.000889421 -2.29384e-05
-0.00344414 0.00103327 0.00103323 1.07743e-10
-0.00342156 0.0010265 0.00102646 1.07001e-10
-0.00244561 0.000731103 0.000734787 -4.23615e-05
-0.00246177 0.000735917 0.00073965 -4.23618e-05
-0.00343285 0.00102989 0.00102984 1.07341e-10
-0.00293367 0.000878719 0.000880693 -2.29383e-05
-0.00245369 0.00073351 0.000737219 -4.23616e-05
-0.00295304 0.000884511 0.000886512 -2.29384e-05
-0.00294335 0.000881615 0.000883602 -2.29383e-05
-0.00342156 0.0010265 0.00102646 1.07002e-10
-0.00339898 0.00101973 0.00101968 1.06276e-10
-0.00242945 0.000726289 0.000729925 -4.23612e-05
-0.00244561 0.000731103 0.000734787 -4.23615e-05
-0.00341027 0.00102311 0.00102307 1.06583e-10
-0.0029143 0.000872926 0.000874874 -2.29381e-05
-0.00243753 0.000728696 0.000732356 -4.23613e-05
-0.00293367 0.000878719 0.000880693 -2.29383e-05
-0.00292398 0.000875823 0.000877783 -2.29382e-05
-0.00339898 0.00101973 0.00101968 1.06276e-10
-0.00337641 0.00101295 0.00101291 1.05535e-10
-0.00241329 0.000721475 0.000725063 -4.23609e-05
-0.00242945 0.000726289 0.000729925 -4.23612e-05
-0.0033877 0.00101634 0.0010163 1.05884e-10
-0.00289493 0.000867134 0.000869055 -2.2938e-05
-0.00242137 0.000723882 0.000727494 -4.2361e-05
-0.0029143 0.000872926 0.000874874 -2.29381e-05
-0.00290461 0.00087003 0.000871965 -2.29381e-05
-0.00337641 0.00101295 0.00101291 1.05536e-10
-0.00335383 0.00100618 0.00100614 1.04808e-10
-0.00239713 0.000716661 0.0007202 -4.23606e-05
-0.00241329 0.000721475 0.000725063 -4.23609e-05
-0.00336512 0.00100957 0.00100952 1.0508e-10
-0.00287556 0.000861342 0.000863237 -2.29379e-05
-0.00240521 0.000719068 0.000722631 -4.23607e-05
-0.00289493 0.000867134 0.000869055 -2.2938e-05
-0.00288525 0.000864238 0.000866146 -2.2938e-05
-0.00335383 0.00100618 0.00100614 1.04808e-10
-0.00333126 0.000999408 0.000999364 1.04133e-10
-0.00238097 0.000711847 0.000715339 -4.23603e-05
-0.00239713 0.000716661 0.0007202 -4.23606e-05
-0.00334255 0.00100279 0.00100275 1.04454e-10
-0.00285619 0.000855549 0.000857419 -2.29378e-05
-0.00238905 0.000714254 0.00071777 -4.23604e-05
-0.00287556 0.000861342 0.000863237 -2.29379e-05
-0.00286588 0.000858446 0.000860328 -2.29378e-05
-0.00333126 0.000999408 0.000999364 1.0414e-10
-0.00330868 0.000992635 0.000992592 1.03309e-10
-0.00236481 0.000707033 0.000710477 -4.23599e-05
-0.00238097 0.000711847 0.000715339 -4.23603e-05
-0.00331997 0.000996022 0.000995978 1.03691e-10
-0.00283683 0.000849757 0.000851601 -2.29377e-05
-0.00237289 0.00070944 0.000712908 -4.23601e-05
-0.00285619 0.000855549 0.000857419 -2.29378e-05
-0.00284651 0.000852653 0.00085451 -2.29377e-05
-0.00330868 0.000992635 0.000992592 1.03309e-10
-0.00328611 0.000985863 0.00098582 1.02622e-10
-0.00234866 0.000702219 0.000705616 -4.23596e-05
-0.00236481 0.000707033 0.000710477 -4.23599e-05
-0.0032974 0.000989249 0.000989206 1.02891e-10
-0.00281746 0.000843965 0.000845784 -2.29375e-05
-0.00235673 0.000704626 0.000708047 -4.23598e-05
-0.00283683 0.000849757 0.000851601 -2.29377e-05
-0.00282714 0.000846861 0.000848693 -2.29376e-05
-0.00328611 0.000985863 0.00098582 1.02622e-10
-0.00326354 0.000979091 0.000979048 1.01905e-10
-0.0023325 0.000697405 0.000700755 -4.23592e-05
-0.00234866 0.000702219 0.000705616 -4.23596e-05
-0.00327482 0.000982477 0.000982434 1.02252e-10
-0.0027981 0.000838173 0.000839967 -2.29374e-05
-0.00234058 0.000699812 0.000703186 -4.23594e-05
-0.00281746 0.000843965 0.000845784 -2.29375e-05
-0.00280778 0.000841069 0.000842875 -2.29375e-05
-0.00326354 0.000979091 0.000979048 1.019e-10
-0.00324096 0.000972319 0.000972276 1.01171e-10
-0.00231635 0.000692591 0.000695895 -4.23589e-05
-0.0023325 0.000697405 0.000700755 -4.23592e-05
-0.00325225 0.000975705 0.000975662 1.01478e-10
-0.00277873 0.000832381 0.00083415 -2.29372e-05
-0.00232442 0.000694998 0.000698325 -4.23591e-05
-0.0027981 0.000838173 0.000839967 -2.29374e-05
-0.00278841 0.000835277 0.000837058 -2.29373e-05
-0.00324096 0.000972319 0.000972276 1.0118e-10
-0.00321839 0.000965548 0.000965505 1.0044e-10
-0.00230019 0.000687777 0.000691035 -4.23585e-05
-0.00231635 0.000692591 0.000695895 -4.23589e-05
-0.00322968 0.000968933 0.00096889 1.00779e-10
-0.00275937 0.000826589 0.000828333 -2.29371e-05
-0.00230827 0.000690184 0.000693465 -4.23587e-05
-0.00277873 0.000832381 0.00083415 -2.29372e-05
-0.00276905 0.000829485 0.000831241 -2.29372e-05
-0.00321839 0.000965548 0.000965505 1.0044e-10
-0.00319582 0.000958776 0.000958733 9.97216e-11
-0.00228404 0.000682962 0.000686175 -4.23582e-05
-0.00230019 0.000687777 0.000691035 -4.23585e-05
-0.00320711 0.000962162 0.000962119 1.00038e-10
-0.00274 0.000820797 0.000822516 -2.29369e-05
-0.00229211 0.000685369 0.000688604 -4.23584e-05
-0.00275937 0.000826589 0.000828333 -2.29371e-05
-0.00274968 0.000823693 0.000825424 -2.2937e-05
-0.00319582 0.000958776 0.000958733 9.97216e-11
-0.00317325 0.000952005 0.000951962 9.89838e-11
-0.00226788 0.000678148 0.000681315 -4.23578e-05
-0.00228404 0.000682962 0.000686175 -4.23582e-05
-0.00318454 0.00095539 0.000955348 9.93197e-11
-0.00272064 0.000815006 0.0008167 -2.29368e-05
-0.00227596 0.000680555 0.000683745 -4.2358e-05
-0.00274 0.000820797 0.000822516 -2.29369e-05
-0.00273032 0.000817902 0.000819608 -2.29369e-05
-0.00317325 0.000952005 0.000951962 9.89937e-11
-0.00315068 0.000945234 0.000945191 9.82604e-11
-0.00225173 0.000673334 0.000676455 -4.23574e-05
-0.00226788 0.000678148 0.000681315 -4.23578e-05
-0.00316196 0.000948619 0.000948577 9.8584e-11
-0.00270128 0.000809214 0.000810884 -2.29366e-05
-0.00225981 0.000675741 0.000678885 -4.23576e-05
-0.00272064 0.000815006 0.0008167 -2.29368e-05
-0.00271096 0.00081211 0.000813792 -2.29367e-05
-0.00315068 0.000945234 0.000945191 9.82537e-11
-0.00312811 0.000938463 0.00093842 9.75399e-11
-0.00223558 0.00066852 0.000671596 -4.2357e-05
-0.00225173 0.000673334 0.000676455 -4.23574e-05
-0.00313939 0.000941848 0.000941806 9.78464e-11
-0.00268191 0.000803422 0.000805068 -2.29365e-05
-0.00224365 0.000670927 0.000674026 -4.23572e-05
-0.00270128 0.000809214 0.000810884 -2.29366e-05
-0.0026916 0.000806318 0.000807976 -2.29366e-05
-0.00312811 0.000938463 0.00093842 9.75399e-11
-0.00310554 0.000931692 0.00093165 9.68265e-11
-0.00221943 0.000663705 0.000666738 -4.23566e-05
-0.00223558 0.00066852 0.000671596 -4.2357e-05
-0.00311683 0.000935077 0.000935035 9.71369e-11
-0.00266255 0.000797631 0.000799253 -2.29363e-05
-0.0022275 0.000666113 0.000669167 -4.23568e-05
-0.00268191 0.000803422 0.000805068 -2.29365e-05
-0.00267223 0.000800527 0.00080216 -2.29364e-05
-0.00310554 0.000931692 0.00093165 9.68265e-11
-0.00308297 0.000924921 0.000924879 9.60946e-11
-0.00220328 0.000658891 0.000661879 -4.23562e-05
-0.00221943 0.000663705 0.000666738 -4.23566e-05
-0.00309426 0.000928307 0.000928265 9.64207e-11
-0.00264319 0.000791839 0.000793437 -2.29362e-05
-0.00221135 0.000661298 0.000664308 -4.23564e-05
-0.00266255 0.000797631 0.000799253 -2.29363e-05
-0.00265287 0.000794735 0.000796345 -2.29362e-05
-0.00308297 0.000924921 0.000924879 9.6088e-11
-0.00306041 0.000918151 0.000918109 9.53552e-11
-0.00218713 0.000654077 0.000657021 -4.23558e-05
-0.00220328 0.000658891 0.000661879 -4.23562e-05
-0.00307169 0.000921536 0.000921494 9.5691e-11
-0.00262383 0.000786048 0.000787622 -2.2936e-05
-0.0021952 0.000656484 0.00065945 -4.2356e-05
-0.00264319 0.000791839 0.000793437 -2.29362e-05
-0.00263351 0.000788944 0.00079053 -2.29361e-05
-0.00306041 0.000918151 0.000918109 9.537e-11
-0.00303784 0.000911381 0.000911339 9.46447e-11
-0.00217098 0.000649263 0.000652163 -4.23554e-05
-0.00218713 0.000654077 0.000657021 -4.23558e-05
-0.00304912 0.000914766 0.000914724 9.49558e-11
-0.00260447 0.000780257 0.000781807 -2.29358e-05
-0.00217905 0.00065167 0.000654592 -4.23556e-05
-0.00262383 0.000786048 0.000787622 -2.2936e-05
-0.00261415 0.000783152 0.000784715 -2.29359e-05
-0.00303784 0.000911381 0.000911339 9.46447e-11
-0.00301527 0.000904611 0.000904569 9.39066e-11
-0.00215483 0.000644448 0.000647305 -4.2355e-05
-0.00217098 0.000649263 0.000652163 -4.23554e-05
-0.00302656 0.000907996 0.000907954 9.42385e-11
-0.00258512 0.000774466 0.000775993 -2.29356e-05
-0.0021629 0.000646855 0.000649734 -4.23552e-05
-0.00260447 0.000780257 0.000781807 -2.29358e-05
-0.00259479 0.000777361 0.0007789 -2.29357e-05
-0.00301527 0.000904611 0.000904569 9.39066e-11
-0.00299271 0.000897841 0.0008978 9.31944e-11
-0.00213868 0.000639634 0.000642448 -4.23546e-05
-0.00215483 0.000644448 0.000647305 -4.2355e-05
-0.00300399 0.000901226 0.000901184 9.35079e-11
-0.00256576 0.000768674 0.000770179 -2.29355e-05
-0.00214675 0.000642041 0.000644877 -4.23548e-05
-0.00258512 0.000774466 0.000775993 -2.29356e-05
-0.00257544 0.00077157 0.000773086 -2.29356e-05
-0.00299271 0.000897841 0.0008978 9.31763e-11
-0.00297014 0.000891071 0.00089103 9.2454e-11
-0.00212253 0.000634819 0.000637591 -4.23542e-05
-0.00213868 0.000639634 0.000642448 -4.23546e-05
-0.00298142 0.000894456 0.000894415 9.27947e-11
-0.0025464 0.000762883 0.000764364 -2.29353e-05
-0.00213061 0.000637227 0.00064002 -4.23544e-05
-0.00256576 0.000768674 0.000770179 -2.29355e-05
-0.00255608 0.000765779 0.000767271 -2.29354e-05
-0.00297014 0.000891071 0.00089103 9.24541e-11
-0.00294758 0.000884302 0.000884261 9.17491e-11
-0.00210639 0.000630005 0.000632734 -4.23537e-05
-0.00212253 0.000634819 0.000637591 -4.23542e-05
-0.00295886 0.000887687 0.000887645 9.20714e-11
-0.00252704 0.000757092 0.000758551 -2.29351e-05
-0.00211446 0.000632412 0.000635163 -4.2354e-05
-0.0025464 0.000762883 0.000764364 -2.29353e-05
-0.00253672 0.000759988 0.000761458 -2.29352e-05
-0.00294758 0.000884302 0.000884261 9.17491e-11
-0.00292501 0.000877533 0.000877492 9.10199e-11
-0.00209024 0.000625191 0.000627878 -4.23533e-05
-0.00210639 0.000630005 0.000632734 -4.23537e-05
-0.0029363 0.000880917 0.000880876 9.13463e-11
-0.00250769 0.000751302 0.000752737 -2.29349e-05
-0.00209831 0.000627598 0.000630306 -4.23535e-05
-0.00252704 0.000757092 0.000758551 -2.29351e-05
-0.00251737 0.000754197 0.000755644 -2.2935e-05
-0.00292501 0.000877533 0.000877492 9.10199e-11
-0.00290245 0.000870764 0.000870723 9.02936e-11
-0.00207409 0.000620376 0.000623022 -4.23529e-05
-0.00209024 0.000625191 0.000627878 -4.23533e-05
-0.00291373 0.000874148 0.000874107 9.0624e-11
-0.00248833 0.000745511 0.000746924 -2.29347e-05
-0.00208217 0.000622783 0.00062545 -4.23531e-05
-0.00250769 0.000751302 0.000752737 -2.29349e-05
-0.00249801 0.000748406 0.00074983 -2.29348e-05
-0.00290245 0.000870764 0.000870723 9.02952e-11
-0.00287989 0.000863995 0.000863954 8.95631e-11
-0.00205795 0.000615562 0.000618166 -4.23525e-05
-0.00207409 0.000620376 0.000623022 -4.23529e-05
-0.00289117 0.000867379 0.000867338 8.9888e-11
-0.00246898 0.00073972 0.000741111 -2.29346e-05
-0.00206602 0.000617969 0.000620594 -4.23527e-05
-0.00248833 0.000745511 0.000746924 -2.29347e-05
-0.00247866 0.000742615 0.000744017 -2.29346e-05
-0.00287989 0.000863995 0.000863954 8.95715e-11
-0.00285733 0.000857226 0.000857186 8.88502e-11
-0.00204181 0.000610747 0.000613311 -4.2352e-05
-0.00205795 0.000615562 0.000618166 -4.23525e-05
-0.00286861 0.000860611 0.00086057 8.91679e-11
-0.00244962 0.000733929 0.000735298 -2.29344e-05
-0.00204988 0.000613154 0.000615738 -4.23522e-05
-0.00246898 0.00073972 0.000741111 -2.29346e-05
-0.0024593 0.000736825 0.000738204 -2.29345e-05
-0.00285733 0.000857226 0.000857186 8.88502e-11
-0.00283476 0.000850458 0.000850417 8.81262e-11
-0.00202566 0.000605933 0.000608456 -4.23516e-05
-0.00204181 0.000610747 0.000613311 -4.2352e-05
-0.00284605 0.000853842 0.000853801 8.8463e-11
-0.00243027 0.000728139 0.000729485 -2.29342e-05
-0.00203373 0.00060834 0.000610883 -4.23518e-05
-0.00244962 0.000733929 0.000735298 -2.29344e-05
-0.00243995 0.000731034 0.000732392 -2.29343e-05
-0.00283476 0.000850458 0.000850417 8.81262e-11
-0.0028122 0.00084369 0.000843649 8.74245e-11
-0.00200952 0.000601118 0.000603601 -4.23511e-05
-0.00202566 0.000605933 0.000608456 -4.23516e-05
-0.00282348 0.000847074 0.000847033 8.7743e-11
-0.00241092 0.000722348 0.000723673 -2.2934e-05
-0.00201759 0.000603525 0.000606028 -4.23513e-05
-0.00243027 0.000728139 0.000729485 -2.29342e-05
-0.0024206 0.000725243 0.000726579 -2.29341e-05
-0.0028122 0.00084369 0.000843649 8.7413e-11
-0.00278964 0.000836922 0.000836881 8.66903e-11
-0.00199338 0.000596304 0.000598746 -4.23507e-05
-0.00200952 0.000601118 0.000603601 -4.23511e-05
-0.00280092 0.000840306 0.000840265 8.70384e-11
-0.00239157 0.000716558 0.000717861 -2.29338e-05
-0.00200145 0.000598711 0.000601173 -4.23509e-05
-0.00241092 0.000722348 0.000723673 -2.2934e-05
-0.00240124 0.000719453 0.000720767 -2.29339e-05
-0.00278964 0.000836922 0.000836881 8.67103e-11
-0.00276709 0.000830154 0.000830113 8.59821e-11
-0.00197724 0.000591489 0.000593892 -4.23502e-05
-0.00199338 0.000596304 0.000598746 -4.23507e-05
-0.00277836 0.000833538 0.000833497 8.63188e-11
-0.00237222 0.000710768 0.000712049 -2.29336e-05
-0.00198531 0.000593896 0.000596319 -4.23505e-05
-0.00239157 0.000716558 0.000717861 -2.29338e-05
-0.00238189 0.000713663 0.000714955 -2.29337e-05
-0.00276709 0.000830154 0.000830113 8.59821e-11
-0.00274453 0.000823386 0.000823346 8.52522e-11
-0.0019611 0.000586674 0.000589038 -4.23498e-05
-0.00197724 0.000591489 0.000593892 -4.23502e-05
-0.00275581 0.00082677 0.00082673 8.55945e-11
-0.00235287 0.000704977 0.000706238 -2.29334e-05
-0.00196917 0.000589082 0.000591465 -4.235e-05
-0.00237222 0.000710768 0.000712049 -2.29336e-05
-0.00236254 0.000707872 0.000709144 -2.29335e-05
-0.00274453 0.000823386 0.000823346 8.52522e-11
-0.00272197 0.000816619 0.000816579 8.45315e-11
-0.00194496 0.00058186 0.000584184 -4.23493e-05
-0.0019611 0.000586674 0.000589038 -4.23498e-05
-0.00273325 0.000820002 0.000819962 8.48806e-11
-0.00233352 0.000699187 0.000700427 -2.29332e-05
-0.00195303 0.000584267 0.000586611 -4.23495e-05
-0.00235287 0.000704977 0.000706238 -2.29334e-05
-0.00234319 0.000702082 0.000703332 -2.29333e-05
-0.00272197 0.000816619 0.000816579 8.454e-11
-0.00269941 0.000809851 0.000809812 8.38164e-11
-0.00192882 0.000577045 0.000579331 -4.23489e-05
-0.00194496 0.00058186 0.000584184 -4.23493e-05
-0.00271069 0.000813235 0.000813195 8.4166e-11
-0.00231417 0.000693397 0.000694616 -2.2933e-05
-0.00193689 0.000579453 0.000581757 -4.23491e-05
-0.00233352 0.000699187 0.000700427 -2.29332e-05
-0.00232384 0.000696292 0.000697521 -2.29331e-05
-0.00269941 0.000809851 0.000809812 8.38182e-11
-0.00267686 0.000803084 0.000803045 8.31052e-11
-0.00191268 0.000572231 0.000574478 -4.23484e-05
-0.00192882 0.000577045 0.000579331 -4.23489e-05
-0.00268813 0.000806468 0.000806428 8.34399e-11
-0.00229482 0.000687607 0.000688805 -2.29328e-05
-0.00192075 0.000574638 0.000576904 -4.23486e-05
-0.00231417 0.000693397 0.000694616 -2.2933e-05
-0.00230449 0.000690502 0.00069171 -2.29329e-05
-0.00267686 0.000803084 0.000803045 8.31052e-11
-0.0026543 0.000796318 0.000796278 8.23843e-11
-0.00189654 0.000567416 0.000569625 -4.2348e-05
-0.00191268 0.000572231 0.000574478 -4.23484e-05
-0.00266558 0.000799701 0.000799661 8.27105e-11
-0.00227547 0.000681817 0.000682995 -2.29326e-05
-0.00190461 0.000569823 0.000572051 -4.23482e-05
-0.00229482 0.000687607 0.000688805 -2.29328e-05
-0.00228514 0.000684712 0.0006859 -2.29327e-05
-0.0026543 0.000796318 0.000796278 8.23843e-11
-0.00263174 0.000789551 0.000789511 8.16652e-11
-0.0018804 0.000562601 0.000564773 -4.23475e-05
-0.00189654 0.000567416 0.000569625 -4.2348e-05
-0.00264302 0.000792934 0.000792895 8.20225e-11
-0.00225612 0.000676027 0.000677184 -2.29324e-05
-0.00188847 0.000565009 0.000567199 -4.23477e-05
-0.00227547 0.000681817 0.000682995 -2.29326e-05
-0.0022658 0.000678922 0.000680089 -2.29325e-05
-0.00263174 0.000789551 0.000789511 8.16718e-11
-0.00260919 0.000782784 0.000782745 8.09392e-11
-0.00186427 0.000557787 0.00055992 -4.2347e-05
-0.0018804 0.000562601 0.000564773 -4.23475e-05
-0.00262047 0.000786168 0.000786128 8.12912e-11
-0.00223678 0.000670238 0.000671374 -2.29322e-05
-0.00187234 0.000560194 0.000562347 -4.23473e-05
-0.00225612 0.000676027 0.000677184 -2.29324e-05
-0.00224645 0.000673132 0.000674279 -2.29323e-05
-0.00260919 0.000782784 0.000782745 8.09475e-11
-0.00258664 0.000776018 0.000775979 8.02236e-11
-0.00184813 0.000552972 0.000555069 -4.23466e-05
-0.00186427 0.000557787 0.00055992 -4.2347e-05
-0.00259791 0.000779401 0.000779362 8.05639e-11
-0.00221743 0.000664448 0.000665565 -2.2932e-05
-0.0018562 0.000555379 0.000557495 -4.23468e-05
-0.00223678 0.000670238 0.000671374 -2.29322e-05
-0.0022271 0.000667343 0.000668469 -2.29321e-05
-0.00258664 0.000776018 0.000775979 8.02236e-11
-0.00256408 0.000769252 0.000769213 7.95162e-11
-0.001832 0.000548157 0.000550217 -4.23461e-05
-0.00184813 0.000552972 0.000555069 -4.23466e-05
-0.00257536 0.000772635 0.000772596 7.98371e-11
-0.00219809 0.000658658 0.000659755 -2.29318e-05
-0.00184006 0.000550564 0.000552643 -4.23463e-05
-0.00221743 0.000664448 0.000665565 -2.2932e-05
-0.00220776 0.000661553 0.00066266 -2.29319e-05
-0.00256408 0.000769252 0.000769213 7.95162e-11
-0.00254153 0.000762486 0.000762447 7.88133e-11
-0.00181586 0.000543342 0.000545366 -4.23457e-05
-0.001832 0.000548157 0.000550217 -4.23461e-05
-0.00255281 0.000765869 0.00076583 7.9142e-11
-0.00217874 0.000652869 0.000653946 -2.29316e-05
-0.00182393 0.00054575 0.000547791 -4.23459e-05
-0.00219809 0.000658658 0.000659755 -2.29318e-05
-0.00218841 0.000655764 0.000656851 -2.29317e-05
-0.00254153 0.000762486 0.000762447 7.88082e-11
-0.00251898 0.000755721 0.000755682 7.80913e-11
-0.00179973 0.000538528 0.000540515 -4.23452e-05
-0.00181586 0.000543342 0.000545366 -4.23457e-05
-0.00253025 0.000759103 0.000759064 7.84284e-11
-0.0021594 0.000647079 0.000648137 -2.29314e-05
-0.0018078 0.000540935 0.00054294 -4.23454e-05
-0.00217874 0.000652869 0.000653946 -2.29316e-05
-0.00216907 0.000649974 0.000651042 -2.29315e-05
-0.00251898 0.000755721 0.000755682 7.80863e-11
-0.00249643 0.000748955 0.000748916 7.73633e-11
-0.0017836 0.000533713 0.000535664 -4.23447e-05
-0.00179973 0.000538528 0.000540515 -4.23452e-05
-0.0025077 0.000752338 0.000752299 7.7723e-11
-0.00214006 0.00064129 0.000642328 -2.29312e-05
-0.00179166 0.00053612 0.00053809 -4.2345e-05
-0.0021594 0.000647079 0.000648137 -2.29314e-05
-0.00214973 0.000644185 0.000645233 -2.29313e-05
-0.00249643 0.000748955 0.000748916 7.73633e-11
-0.00247388 0.00074219 0.000742151 7.66699e-11
-0.00176746 0.000528898 0.000530814 -4.23443e-05
-0.0017836 0.000533713 0.000535664 -4.23447e-05
-0.00248515 0.000745572 0.000745534 7.70175e-11
-0.00212071 0.000635501 0.00063652 -2.2931e-05
-0.00177553 0.000531305 0.000533239 -4.23445e-05
-0.00214006 0.00064129 0.000642328 -2.29312e-05
-0.00213039 0.000638395 0.000639424 -2.29311e-05
-0.00247388 0.00074219 0.000742151 7.66699e-11
-0.00245133 0.000735425 0.000735386 7.59445e-11
-0.00175133 0.000524083 0.000525964 -4.23438e-05
-0.00176746 0.000528898 0.000530814 -4.23443e-05
-0.0024626 0.000738807 0.000738769 7.62738e-11
-0.00210137 0.000629712 0.000630712 -2.29308e-05
-0.0017594 0.000526491 0.000528389 -4.23441e-05
-0.00212071 0.000635501 0.00063652 -2.2931e-05
-0.00211104 0.000632606 0.000633616 -2.29309e-05
-0.00245133 0.000735425 0.000735386 7.59398e-11
-0.00242878 0.00072866 0.000728621 7.52145e-11
-0.0017352 0.000519268 0.000521114 -4.23434e-05
-0.00175133 0.000524083 0.000525964 -4.23438e-05
-0.00244005 0.000732042 0.000732004 7.55567e-11
-0.00208203 0.000623923 0.000624904 -2.29306e-05
-0.00174327 0.000521676 0.000523539 -4.23436e-05
-0.00210137 0.000629712 0.000630712 -2.29308e-05
-0.0020917 0.000626817 0.000627808 -2.29307e-05
-0.00242878 0.00072866 0.000728621 7.52225e-11
-0.00240623 0.000721895 0.000721857 7.454e-11
-0.00171907 0.000514454 0.000516265 -4.23429e-05
-0.0017352 0.000519268 0.000521114 -4.23434e-05
-0.0024175 0.000725278 0.000725239 7.48627e-11
-0.00206269 0.000618134 0.000619096 -2.29304e-05
-0.00172714 0.000516861 0.00051869 -4.23431e-05
-0.00208203 0.000623923 0.000624904 -2.29306e-05
-0.00207236 0.000621028 0.000622 -2.29305e-05
-0.00240623 0.000721895 0.000721857 7.454e-11
-0.00238368 0.000715131 0.000715093 7.38028e-11
-0.00170294 0.000509639 0.000511416 -4.23425e-05
-0.00171907 0.000514454 0.000516265 -4.23429e-05
-0.00239495 0.000718513 0.000718475 7.41598e-11
-0.00204335 0.000612345 0.000613289 -2.29302e-05
-0.00171101 0.000512046 0.00051384 -4.23427e-05
-0.00206269 0.000618134 0.000619096 -2.29304e-05
-0.00205302 0.000615239 0.000616193 -2.29303e-05
-0.00238368 0.000715131 0.000715093 7.38028e-11
-0.00236113 0.000708366 0.000708328 7.30847e-11
-0.00168681 0.000504824 0.000506567 -4.2342e-05
-0.00170294 0.000509639 0.000511416 -4.23425e-05
-0.00237241 0.000711749 0.00071171 7.34368e-11
-0.00202401 0.000606556 0.000607482 -2.29301e-05
-0.00169488 0.000507231 0.000508991 -4.23422e-05
-0.00204335 0.000612345 0.000613289 -2.29302e-05
-0.00203368 0.00060945 0.000610385 -2.29301e-05
-0.00236113 0.000708366 0.000708328 7.30931e-11
-0.00233859 0.000701602 0.000701564 7.23661e-11
-0.00167069 0.000500009 0.000501719 -4.23416e-05
-0.00168681 0.000504824 0.000506567 -4.2342e-05
-0.00234986 0.000704984 0.000704946 7.27093e-11
-0.00200468 0.000600767 0.000601675 -2.29299e-05
-0.00167875 0.000502416 0.000504143 -4.23418e-05
-0.00202401 0.000606556 0.000607482 -2.29301e-05
-0.00201434 0.000603662 0.000604578 -2.293e-05
-0.00233859 0.000701602 0.000701564 7.23858e-11
-0.00231604 0.000694838 0.000694801 7.16631e-11
-0.00165456 0.000495194 0.00049687 -4.23411e-05
-0.00167069 0.000500009 0.000501719 -4.23416e-05
-0.00232731 0.00069822 0.000698182 7.20136e-11
-0.00198534 0.000594979 0.000595868 -2.29297e-05
-0.00166262 0.000497602 0.000499295 -4.23413e-05
-0.00200468 0.000600767 0.000601675 -2.29299e-05
-0.00199501 0.000597873 0.000598772 -2.29298e-05
-0.00231604 0.000694838 0.000694801 7.16631e-11
-0.00229349 0.000688075 0.000688037 7.09705e-11
-0.00163843 0.000490379 0.000492023 -4.23407e-05
-0.00165456 0.000495194 0.00049687 -4.23411e-05
-0.00230477 0.000691457 0.000691419 7.12878e-11
-0.001966 0.00058919 0.000590062 -2.29295e-05
-0.0016465 0.000492787 0.000494447 -4.23409e-05
-0.00198534 0.000594979 0.000595868 -2.29297e-05
-0.00197567 0.000592084 0.000592965 -2.29296e-05
-0.00229349 0.000688075 0.000688037 7.09705e-11
-0.00227095 0.000681311 0.000681274 7.02556e-11
-0.00162231 0.000485564 0.000487175 -4.23402e-05
-0.00163843 0.000490379 0.000492023 -4.23407e-05
-0.00228222 0.000684693 0.000684655 7.05708e-11
-0.00194667 0.000583401 0.000584256 -2.29293e-05
-0.00163037 0.000487972 0.000489599 -4.23404e-05
-0.001966 0.00058919 0.000590062 -2.29295e-05
-0.00195633 0.000586296 0.000587159 -2.29294e-05
-0.00227095 0.000681311 0.000681274 7.02505e-11
-0.00224841 0.000674548 0.000674511 6.95307e-11
-0.00160618 0.000480749 0.000482328 -4.23398e-05
-0.00162231 0.000485564 0.000487175 -4.23402e-05
-0.00225968 0.00067793 0.000677892 6.98996e-11
-0.00192733 0.000577613 0.00057845 -2.29291e-05
-0.00161424 0.000483157 0.000484751 -4.234e-05
-0.00194667 0.000583401 0.000584256 -2.29293e-05
-0.001937 0.000580507 0.000581353 -2.29292e-05
-0.00224841 0.000674548 0.000674511 6.95255e-11
-0.00222586 0.000667785 0.000667748 6.87913e-11
-0.00159006 0.000475934 0.000477481 -4.23393e-05
-0.00160618 0.000480749 0.000482328 -4.23398e-05
-0.00223713 0.000671166 0.000671129 6.91506e-11
-0.001908 0.000571825 0.000572645 -2.29289e-05
-0.00159812 0.000478342 0.000479904 -4.23396e-05
-0.00192733 0.000577613 0.00057845 -2.29291e-05
-0.00191766 0.000574719 0.000575547 -2.2929e-05
-0.00222586 0.000667785 0.000667748 6.87913e-11
-0.00220332 0.000661022 0.000660985 6.81266e-11
-0.00157393 0.000471119 0.000472634 -4.23389e-05
-0.00159006 0.000475934 0.000477481 -4.23393e-05
-0.00221459 0.000664403 0.000664366 6.8451e-11
-0.00188866 0.000566036 0.000566839 -2.29287e-05
-0.00158199 0.000473527 0.000475057 -4.23391e-05
-0.001908 0.000571825 0.000572645 -2.29289e-05
-0.00189833 0.000568931 0.000569742 -2.29288e-05
-0.00220332 0.000661022 0.000660985 6.81266e-11
-0.00218078 0.000654259 0.000654222 6.73842e-11
-0.00155781 0.000466304 0.000467788 -4.23385e-05
-0.00157393 0.000471119 0.000472634 -4.23389e-05
-0.00219205 0.000657641 0.000657603 6.77457e-11
-0.00186933 0.000560248 0.000561034 -2.29285e-05
-0.00156587 0.000468712 0.000470211 -4.23387e-05
-0.00188866 0.000566036 0.000566839 -2.29287e-05
-0.00187899 0.000563142 0.000563937 -2.29286e-05
-0.00218078 0.000654259 0.000654222 6.74055e-11
-0.00215824 0.000647497 0.00064746 6.66944e-11
-0.00154169 0.000461489 0.000462942 -4.23381e-05
-0.00155781 0.000466304 0.000467788 -4.23385e-05
-0.00216951 0.000650878 0.000650841 6.7031e-11
-0.00185 0.00055446 0.000555229 -2.29284e-05
-0.00154975 0.000463897 0.000465365 -4.23383e-05
-0.00186933 0.000560248 0.000561034 -2.29285e-05
-0.00185966 0.000557354 0.000558132 -2.29284e-05
-0.00215824 0.000647497 0.00064746 6.66943e-11
-0.0021357 0.000640734 0.000640698 6.59561e-11
-0.00152556 0.000456674 0.000458096 -4.23376e-05
-0.00154169 0.000461489 0.000462942 -4.23381e-05
-0.00214697 0.000644116 0.000644079 6.63238e-11
-0.00183066 0.000548672 0.000549425 -2.29282e-05
-0.00153363 0.000459082 0.000460519 -4.23378e-05
-0.00185 0.00055446 0.000555229 -2.29284e-05
-0.00184033 0.000551566 0.000552327 -2.29283e-05
-0.0021357 0.000640734 0.000640698 6.59561e-11
-0.00211316 0.000633972 0.000633936 6.52763e-11
-0.00150944 0.000451859 0.000453251 -4.23372e-05
-0.00152556 0.000456674 0.000458096 -4.23376e-05
-0.00212443 0.000637353 0.000637317 6.56022e-11
-0.00181133 0.000542884 0.00054362 -2.2928e-05
-0.0015175 0.000454267 0.000455673 -4.23374e-05
-0.00183066 0.000548672 0.000549425 -2.29282e-05
-0.001821 0.000545778 0.000546523 -2.29281e-05
-0.00211316 0.000633972 0.000633936 6.52763e-11
-0.00209062 0.00062721 0.000627174 6.45645e-11
-0.00149332 0.000447044 0.000448405 -4.23368e-05
-0.00150944 0.000451859 0.000453251 -4.23372e-05
-0.00210189 0.000630591 0.000630555 6.48969e-11
-0.001792 0.000537096 0.000537816 -2.29278e-05
-0.00150138 0.000449451 0.000450828 -4.2337e-05
-0.00181133 0.000542884 0.00054362 -2.2928e-05
-0.00180167 0.00053999 0.000540718 -2.29279e-05
-0.00209062 0.00062721 0.000627174 6.4564e-11
-0.00206808 0.000620449 0.000620412 6.3846e-11
-0.0014772 0.000442229 0.000443561 -4.23364e-05
-0.00149332 0.000447044 0.000448405 -4.23368e-05
-0.00207935 0.000623829 0.000623793 6.42013e-11
-0.00177267 0.000531309 0.000532013 -2.29276e-05
-0.00148526 0.000444636 0.000445983 -4.23366e-05
-0.001792 0.000537096 0.000537816 -2.29278e-05
-0.00178234 0.000534202 0.000534914 -2.29277e-05
-0.00206808 0.000620449 0.000620412 6.38556e-11
-0.00204554 0.000613687 0.000613651 6.31525e-11
-0.00146108 0.000437414 0.000438716 -4.2336e-05
-0.0014772 0.000442229 0.000443561 -4.23364e-05
-0.00205681 0.000617068 0.000617031 6.34889e-11
-0.00175334 0.000525521 0.000526209 -2.29275e-05
-0.00146914 0.000439821 0.000441138 -4.23362e-05
-0.00177267 0.000531309 0.000532013 -2.29276e-05
-0.00176301 0.000528415 0.000529111 -2.29276e-05
-0.00204554 0.000613687 0.000613651 6.31525e-11
-0.002023 0.000606926 0.000606889 6.24318e-11
-0.00144497 0.000432598 0.000433872 -4.23356e-05
-0.00146108 0.000437414 0.000438716 -4.2336e-05
-0.00203427 0.000610306 0.00061027 6.27876e-11
-0.00173401 0.000519733 0.000520406 -2.29273e-05
-0.00145302 0.000435006 0.000436294 -4.23358e-05
-0.00175334 0.000525521 0.000526209 -2.29275e-05
-0.00174368 0.000522627 0.000523307 -2.29274e-05
-0.002023 0.000606926 0.000606889 6.24318e-11
-0.00200046 0.000600164 0.000600128 6.1734e-11
-0.00142885 0.000427783 0.000429028 -4.23352e-05
-0.00144497 0.000432598 0.000433872 -4.23356e-05
-0.00201173 0.000603545 0.000603509 6.20711e-11
-0.00171469 0.000513946 0.000514603 -2.29271e-05
-0.00143691 0.000430191 0.00043145 -4.23354e-05
-0.00173401 0.000519733 0.000520406 -2.29273e-05
-0.00172435 0.000516839 0.000517504 -2.29272e-05
-0.00200046 0.000600164 0.000600128 6.17438e-11
-0.00197793 0.000593403 0.000593367 6.10341e-11
-0.00141273 0.000422968 0.000424184 -4.23348e-05
-0.00142885 0.000427783 0.000429028 -4.23352e-05
-0.0019892 0.000596784 0.000596748 6.13682e-11
-0.00169536 0.000508158 0.0005088 -2.2927e-05
-0.00142079 0.000425376 0.000426606 -4.2335e-05
-0.00171469 0.000513946 0.000514603 -2.29271e-05
-0.00170502 0.000511052 0.000511701 -2.29271e-05
-0.00197793 0.000593403 0.000593367 6.10341e-11
-0.00195539 0.000586643 0.000586607 6.03238e-11
-0.00139661 0.000418153 0.000419341 -4.23344e-05
-0.00141273 0.000422968 0.000424184 -4.23348e-05
-0.00196666 0.000590023 0.000589987 6.06923e-11
-0.00167603 0.000502371 0.000502997 -2.29268e-05
-0.00140467 0.00042056 0.000421762 -4.23346e-05
-0.00169536 0.000508158 0.0005088 -2.2927e-05
-0.00168569 0.000505264 0.000505899 -2.29269e-05
-0.00195539 0.000586643 0.000586607 6.03238e-11
-0.00193286 0.000579882 0.000579846 5.96334e-11
-0.0013805 0.000413337 0.000414498 -4.2334e-05
-0.00139661 0.000418153 0.000419341 -4.23344e-05
-0.00194412 0.000583262 0.000583227 5.99531e-11
-0.0016567 0.000496583 0.000497195 -2.29267e-05
-0.00138856 0.000415745 0.000416919 -4.23342e-05
-0.00167603 0.000502371 0.000502997 -2.29268e-05
-0.00166637 0.000499477 0.000500096 -2.29267e-05
-0.00193286 0.000579882 0.000579846 5.96334e-11
-0.00191032 0.000573122 0.000573086 5.89015e-11
-0.00136438 0.000408522 0.000409655 -4.23336e-05
-0.0013805 0.000413337 0.000414498 -4.2334e-05
-0.00192159 0.000576502 0.000576466 5.9265e-11
-0.00163738 0.000490796 0.000491393 -2.29265e-05
-0.00137244 0.00041093 0.000412076 -4.23338e-05
-0.0016567 0.000496583 0.000497195 -2.29267e-05
-0.00164704 0.00049369 0.000494294 -2.29266e-05
-0.00191032 0.000573122 0.000573086 5.89012e-11
-0.00188779 0.000566361 0.000566326 5.82121e-11
-0.00134827 0.000403707 0.000404813 -4.23332e-05
-0.00136438 0.000408522 0.000409655 -4.23336e-05
-0.00189906 0.000569741 0.000569706 5.85653e-11
-0.00161805 0.000485009 0.000485591 -2.29263e-05
-0.00135633 0.000406114 0.000407234 -4.23334e-05
-0.00163738 0.000490796 0.000491393 -2.29265e-05
-0.00162772 0.000487903 0.000488492 -2.29264e-05
-0.00188779 0.000566361 0.000566326 5.82086e-11
-0.00186526 0.000559601 0.000559566 5.75032e-11
-0.00133216 0.000398891 0.00039997 -4.23329e-05
-0.00134827 0.000403707 0.000404813 -4.23332e-05
-0.00187652 0.000562981 0.000562946 5.78447e-11
-0.00159873 0.000479222 0.00047979 -2.29262e-05
-0.00134021 0.000401299 0.000402391 -4.2333e-05
-0.00161805 0.000485009 0.000485591 -2.29263e-05
-0.00160839 0.000482115 0.00048269 -2.29263e-05
-0.00186526 0.000559601 0.000559566 5.75032e-11
-0.00184272 0.000552841 0.000552806 5.68071e-11
-0.00131604 0.000394076 0.000395128 -4.23325e-05
-0.00133216 0.000398891 0.00039997 -4.23329e-05
-0.00185399 0.000556221 0.000556186 5.71321e-11
-0.00157941 0.000473435 0.000473988 -2.2926e-05
-0.0013241 0.000396484 0.000397549 -4.23327e-05
-0.00159873 0.000479222 0.00047979 -2.29262e-05
-0.00158907 0.000476328 0.000476889 -2.29261e-05
-0.00184272 0.000552841 0.000552806 5.68071e-11
-0.00182019 0.000546082 0.000546047 5.60995e-11
-0.00129993 0.000389261 0.000390287 -4.23321e-05
-0.00131604 0.000394076 0.000395128 -4.23325e-05
-0.00183146 0.000549461 0.000549426 5.64404e-11
-0.00156008 0.000467648 0.000468187 -2.29259e-05
-0.00130799 0.000391668 0.000392708 -4.23323e-05
-0.00157941 0.000473435 0.000473988 -2.2926e-05
-0.00156975 0.000470541 0.000471088 -2.2926e-05
-0.00182019 0.000546082 0.000546047 5.61228e-11
-0.00179766 0.000539322 0.000539287 5.53943e-11
-0.00128382 0.000384445 0.000385446 -4.23318e-05
-0.00129993 0.000389261 0.000390287 -4.23321e-05
-0.00180892 0.000542702 0.000542667 5.57378e-11
-0.00154076 0.000461861 0.000462386 -2.29258e-05
-0.00129187 0.000386853 0.000387866 -4.2332e-05
-0.00156008 0.000467648 0.000468187 -2.29259e-05
-0.00155042 0.000464754 0.000465287 -2.29258e-05
-0.00179766 0.000539322 0.000539287 5.53941e-11
-0.00177513 0.000532563 0.000532528 5.46765e-11
-0.00126771 0.00037963 0.000380605 -4.23314e-05
-0.00128382 0.000384445 0.000385446 -4.23318e-05
-0.00178639 0.000535942 0.000535908 5.50198e-11
-0.00152144 0.000456074 0.000456586 -2.29256e-05
-0.00127576 0.000382037 0.000383025 -4.23316e-05
-0.00154076 0.000461861 0.000462386 -2.29258e-05
-0.0015311 0.000458967 0.000459486 -2.29257e-05
-0.00177513 0.000532563 0.000532528 5.46765e-11
-0.0017526 0.000525804 0.000525769 5.39884e-11
-0.0012516 0.000374814 0.000375764 -4.23311e-05
-0.00126771 0.00037963 0.000380605 -4.23314e-05
-0.00176386 0.000529183 0.000529148 5.43356e-11
-0.00150212 0.000450287 0.000450785 -2.29255e-05
-0.00125965 0.000377222 0.000378184 -4.23313e-05
-0.00152144 0.000456074 0.000456586 -2.29256e-05
-0.00151178 0.000453181 0.000453685 -2.29256e-05
-0.0017526 0.000525804 0.000525769 5.39884e-11
-0.00173007 0.000519045 0.00051901 5.32952e-11
-0.00123549 0.000369999 0.000370923 -4.23308e-05
-0.0012516 0.000374814 0.000375764 -4.23311e-05
-0.00174133 0.000522424 0.00052239 5.36223e-11
-0.0014828 0.0004445 0.000444985 -2.29254e-05
-0.00124354 0.000372406 0.000373344 -4.23309e-05
-0.00150212 0.000450287 0.000450785 -2.29255e-05
-0.00149246 0.000447394 0.000447885 -2.29254e-05
-0.00173007 0.000519045 0.00051901 5.32954e-11
-0.00170754 0.000512286 0.000512251 5.25797e-11
-0.00121938 0.000365183 0.000366083 -4.23304e-05
-0.00123549 0.000369999 0.000370923 -4.23308e-05
-0.0017188 0.000515665 0.000515631 5.29334e-11
-0.00146348 0.000438714 0.000439185 -2.29252e-05
-0.00122743 0.000367591 0.000368503 -4.23306e-05
-0.0014828 0.0004445 0.000444985 -2.29254e-05
-0.00147314 0.000441607 0.000442085 -2.29253e-05
-0.00170754 0.000512286 0.000512251 5.25766e-11
-0.00168501 0.000505527 0.000505493 5.18922e-11
-0.00120327 0.000360367 0.000361243 -4.23301e-05
-0.00121938 0.000365183 0.000366083 -4.23304e-05
-0.00169627 0.000508906 0.000508872 5.22409e-11
-0.00144416 0.000432927 0.000433386 -2.29251e-05
-0.00121132 0.000362775 0.000363663 -4.23303e-05
-0.00146348 0.000438714 0.000439185 -2.29252e-05
-0.00145382 0.000435821 0.000436285 -2.29252e-05
-0.00168501 0.000505527 0.000505493 5.18922e-11
-0.00166248 0.000498769 0.000498735 5.11893e-11
-0.00118716 0.000355552 0.000356404 -4.23298e-05
-0.00120327 0.000360367 0.000361243 -4.23301e-05
-0.00167375 0.000502148 0.000502114 5.15314e-11
-0.00142484 0.000427141 0.000427586 -2.2925e-05
-0.00119521 0.00035796 0.000358824 -4.233e-05
-0.00144416 0.000432927 0.000433386 -2.29251e-05
-0.0014345 0.000430034 0.000430486 -2.2925e-05
-0.00166248 0.000498769 0.000498735 5.11893e-11
-0.00163996 0.00049201 0.000491976 5.04902e-11
-0.00117105 0.000350736 0.000351565 -4.23295e-05
-0.00118716 0.000355552 0.000356404 -4.23298e-05
-0.00165122 0.000495389 0.000495356 5.08385e-11
-0.00140552 0.000421354 0.000421787 -2.29249e-05
-0.00117911 0.000353144 0.000353984 -4.23297e-05
-0.00142484 0.000427141 0.000427586 -2.2925e-05
-0.00141518 0.000424247 0.000424687 -2.29249e-05
-0.00163996 0.00049201 0.000491976 5.04737e-11
-0.00161743 0.000485252 0.000485218 4.98191e-11
-0.00115495 0.00034592 0.000346726 -4.23292e-05
-0.00117105 0.000350736 0.000351565 -4.23295e-05
-0.00162869 0.000488631 0.000488597 5.015e-11
-0.00138621 0.000415568 0.000415988 -2.29248e-05
-0.001163 0.000348328 0.000349145 -4.23293e-05
-0.00140552 0.000421354 0.000421787 -2.29249e-05
-0.00139587 0.000418461 0.000418888 -2.29248e-05
-0.00161743 0.000485252 0.000485218 4.98191e-11
-0.0015949 0.000478494 0.000478461 4.90889e-11
-0.00113884 0.000341105 0.000341887 -4.23289e-05
-0.00115495 0.00034592 0.000346726 -4.23292e-05
-0.00160617 0.000481873 0.00048184 4.94577e-11
-0.00136689 0.000409781 0.00041019 -2.29246e-05
-0.00114689 0.000343512 0.000344306 -4.23291e-05
-0.00138621 0.000415568 0.000415988 -2.29248e-05
-0.00137655 0.000412675 0.000413089 -2.29247e-05
-0.0015949 0.000478494 0.000478461 4.90889e-11
-0.00157238 0.000471736 0.000471703 4.84241e-11
-0.00112274 0.000336289 0.000337049 -4.23286e-05
-0.00113884 0.000341105 0.000341887 -4.23289e-05
-0.00158364 0.000475115 0.000475082 4.87375e-11
-0.00134757 0.000403995 0.000404391 -2.29245e-05
-0.00113079 0.000338697 0.000339468 -4.23288e-05
-0.00136689 0.000409781 0.00041019 -2.29246e-05
-0.00135723 0.000406888 0.00040729 -2.29246e-05
-0.00157238 0.000471736 0.000471703 4.84241e-11
-0.00154985 0.000464979 0.000464946 4.76779e-11
-0.00110663 0.000331473 0.000332211 -4.23283e-05
-0.00112274 0.000336289 0.000337049 -4.23286e-05
-0.00156111 0.000468358 0.000468324 4.80282e-11
-0.00132826 0.000398209 0.000398593 -2.29244e-05
-0.00111468 0.000333881 0.00033463 -4.23285e-05
-0.00134757 0.000403995 0.000404391 -2.29245e-05
-0.00133792 0.000401102 0.000401492 -2.29245e-05
-0.00154985 0.000464979 0.000464946 4.76783e-11
-0.00152733 0.000458221 0.000458188 4.69866e-11
-0.00109053 0.000326657 0.000327373 -4.23281e-05
-0.00110663 0.000331473 0.000332211 -4.23283e-05
-0.00153859 0.0004616 0.000461567 4.73305e-11
-0.00130894 0.000392423 0.000392795 -2.29243e-05
-0.00109858 0.000329065 0.000329792 -4.23282e-05
-0.00132826 0.000398209 0.000398593 -2.29244e-05
-0.0013186 0.000395316 0.000395694 -2.29244e-05
-0.00152733 0.000458221 0.000458188 4.69935e-11
-0.0015048 0.000451464 0.000451431 4.6284e-11
-0.00107442 0.000321841 0.000322535 -4.23278e-05
-0.00109053 0.000326657 0.000327373 -4.23281e-05
-0.00151607 0.000454843 0.00045481 4.66477e-11
-0.00128963 0.000386637 0.000386997 -2.29242e-05
-0.00108247 0.000324249 0.000324954 -4.23279e-05
-0.00130894 0.000392423 0.000392795 -2.29243e-05
-0.00129929 0.00038953 0.000389896 -2.29243e-05
-0.0015048 0.000451464 0.000451431 4.6284e-11
-0.00148228 0.000444707 0.000444674 4.55817e-11
-0.00105832 0.000317025 0.000317698 -4.23276e-05
-0.00107442 0.000321841 0.000322535 -4.23278e-05
-0.00149354 0.000448086 0.000448053 4.59367e-11
-0.00127032 0.000380851 0.0003812 -2.29242e-05
-0.00106637 0.000319433 0.000320116 -4.23277e-05
-0.00128963 0.000386637 0.000386997 -2.29242e-05
-0.00127997 0.000383744 0.000384098 -2.29242e-05
-0.00148228 0.000444707 0.000444674 4.55817e-11
-0.00145976 0.00043795 0.000437917 4.4938e-11
-0.00104222 0.000312209 0.000312861 -4.23273e-05
-0.00105832 0.000317025 0.000317698 -4.23276e-05
-0.00147102 0.000441328 0.000441296 4.52621e-11
-0.001251 0.000375065 0.000375402 -2.29241e-05
-0.00105027 0.000314617 0.000315279 -4.23274e-05
-0.00127032 0.000380851 0.0003812 -2.29242e-05
-0.00126066 0.000377958 0.000378301 -2.29241e-05
-0.00145976 0.00043795 0.000437917 4.49176e-11
-0.00143723 0.000431193 0.000431161 4.41962e-11
-0.00102612 0.000307393 0.000308024 -4.23271e-05
-0.00104222 0.000312209 0.000312861 -4.23273e-05
-0.0014485 0.000434572 0.000434539 4.4567e-11
-0.00123169 0.000369279 0.000369605 -2.2924e-05
-0.00103417 0.000309801 0.000310442 -4.23272e-05
-0.001251 0.000375065 0.000375402 -2.29241e-05
-0.00124135 0.000372172 0.000372504 -2.2924e-05
-0.00143723 0.000431193 0.000431161 4.41958e-11
-0.00141471 0.000424437 0.000424404 4.35242e-11
-0.00101002 0.000302577 0.000303188 -4.23268e-05
-0.00102612 0.000307393 0.000308024 -4.23271e-05
-0.00142597 0.000427815 0.000427782 4.3873e-11
-0.00121238 0.000363493 0.000363808 -2.29239e-05
-0.00101807 0.000304985 0.000305606 -4.2327e-05
-0.00123169 0.000369279 0.000369605 -2.2924e-05
-0.00122203 0.000366386 0.000366707 -2.2924e-05
-0.00141471 0.000424437 0.000424404 4.35242e-11
-0.00139219 0.00041768 0.000417648 4.28157e-11
-0.000993915 0.000297761 0.000298352 -4.23266e-05
-0.00101002 0.000302577 0.000303188 -4.23268e-05
-0.00140345 0.000421058 0.000421026 4.31782e-11
-0.00119307 0.000357707 0.000358012 -2.29239e-05
-0.00100196 0.000300169 0.00030077 -4.23267e-05
-0.00121238 0.000363493 0.000363808 -2.29239e-05
-0.00120272 0.0003606 0.00036091 -2.29239e-05
-0.00139219 0.00041768 0.000417648 4.28157e-11
-0.00136967 0.000410924 0.000410892 4.21191e-11
-0.000977815 0.000292945 0.000293516 -4.23264e-05
-0.000993915 0.000297761 0.000298352 -4.23266e-05
-0.00138093 0.000414302 0.00041427 4.24717e-11
-0.00117376 0.000351921 0.000352215 -2.29238e-05
-0.000985865 0.000295353 0.000295934 -4.23265e-05
-0.00119307 0.000357707 0.000358012 -2.29239e-05
-0.00118341 0.000354814 0.000355114 -2.29238e-05
-0.00136967 0.000410924 0.000410892 4.21191e-11
-0.00134715 0.000404168 0.000404136 4.14228e-11
-0.000961715 0.000288129 0.00028868 -4.23262e-05
-0.000977815 0.000292945 0.000293516 -4.23264e-05
-0.00135841 0.000407546 0.000407514 4.17357e-11
-0.00115445 0.000346135 0.000346419 -2.29237e-05
-0.000969765 0.000290537 0.000291098 -4.23263e-05
-0.00117376 0.000351921 0.000352215 -2.29238e-05
-0.0011641 0.000349028 0.000349317 -2.29238e-05
-0.00134715 0.000404168 0.000404136 4.14028e-11
-0.00132463 0.000397412 0.00039738 4.07382e-11
-0.000945617 0.000283312 0.000283845 -4.2326e-05
-0.000961715 0.000288129 0.00028868 -4.23262e-05
-0.00133589 0.00040079 0.000400758 4.10755e-11
-0.00113514 0.00034035 0.000340623 -2.29237e-05
-0.000953666 0.00028572 0.000286262 -4.23261e-05
-0.00115445 0.000346135 0.000346419 -2.29237e-05
-0.00114479 0.000343242 0.000343521 -2.29237e-05
-0.00132463 0.000397412 0.00039738 4.07382e-11
-0.00130211 0.000390656 0.000390624 4.00411e-11
-0.000929519 0.000278496 0.00027901 -4.23258e-05
-0.000945617 0.000283312 0.000283845 -4.2326e-05
-0.00131337 0.000394034 0.000394002 4.03509e-11
-0.00111583 0.000334564 0.000334828 -2.29236e-05
-0.000937568 0.000280904 0.000281427 -4.23259e-05
-0.00113514 0.00034035 0.000340623 -2.29237e-05
-0.00112548 0.000337457 0.000337725 -2.29236e-05
-0.00130211 0.000390656 0.000390624 4.00411e-11
-0.00127959 0.0003839 0.000383869 3.93662e-11
-0.000913421 0.00027368 0.000274175 -4.23256e-05
-0.000929519 0.000278496 0.00027901 -4.23258e-05
-0.00129085 0.000387278 0.000387247 3.96932e-11
-0.00109652 0.000328778 0.000329032 -2.29236e-05
-0.00092147 0.000276088 0.000276592 -4.23257e-05
-0.00111583 0.000334564 0.000334828 -2.29236e-05
-0.00110617 0.000331671 0.00033193 -2.29236e-05
-0.00127959 0.0003839 0.000383869 3.93594e-11
-0.00125708 0.000377145 0.000377113 3.86719e-11
-0.000897324 0.000268863 0.00026934 -4.23255e-05
-0.000913421 0.00027368 0.000274175 -4.23256e-05
-0.00126833 0.000380522 0.000380491 3.89749e-11
-0.00107721 0.000322993 0.000323237 -2.29235e-05
-0.000905373 0.000271271 0.000271758 -4.23256e-05
-0.00109652 0.000328778 0.000329032 -2.29236e-05
-0.00108687 0.000325886 0.000326134 -2.29235e-05
-0.00125708 0.000377145 0.000377113 3.86719e-11
-0.00123456 0.000370389 0.000370358 3.79451e-11
-0.000881228 0.000264047 0.000264506 -4.23253e-05
-0.000897324 0.000268863 0.00026934 -4.23255e-05
-0.00124582 0.000373767 0.000373736 3.83148e-11
-0.0010579 0.000317207 0.000317442 -2.29235e-05
-0.000889276 0.000266455 0.000266923 -4.23254e-05
-0.00107721 0.000322993 0.000323237 -2.29235e-05
-0.00106756 0.0003201 0.000320339 -2.29235e-05
-0.00123456 0.000370389 0.000370358 3.79451e-11
-0.00121204 0.000363634 0.000363603 3.72346e-11
-0.000865132 0.00025923 0.000259672 -4.23252e-05
-0.000881228 0.000264047 0.000264506 -4.23253e-05
-0.0012233 0.000367012 0.000366981 3.76671e-11
-0.0010386 0.000311422 0.000311647 -2.29235e-05
-0.00087318 0.000261638 0.000262089 -4.23252e-05
-0.0010579 0.000317207 0.000317442 -2.29235e-05
-0.00104825 0.000314314 0.000314544 -2.29235e-05
-0.00121204 0.000363634 0.000363603 3.72346e-11
-0.00118952 0.000356879 0.000356848 3.65955e-11
-0.000849037 0.000254414 0.000254839 -4.2325e-05
-0.000865132 0.00025923 0.000259672 -4.23252e-05
-0.00120078 0.000360256 0.000360226 3.68641e-11
-0.00101929 0.000305636 0.000305852 -2.29234e-05
-0.000857084 0.000256822 0.000257255 -4.23251e-05
-0.0010386 0.000311422 0.000311647 -2.29235e-05
-0.00102894 0.000308529 0.000308749 -2.29234e-05
-0.00118952 0.000356879 0.000356848 3.65957e-11
-0.00116701 0.000350124 0.000350093 3.58665e-11
-0.000832942 0.000249597 0.000250005 -4.23249e-05
-0.000849037 0.000254414 0.000254839 -4.2325e-05
-0.00117827 0.000353501 0.000353471 3.62515e-11
-0.000999986 0.000299851 0.000300058 -2.29234e-05
-0.00084099 0.000252005 0.000252422 -4.2325e-05
-0.00101929 0.000305636 0.000305852 -2.29234e-05
-0.00100964 0.000302744 0.000302955 -2.29234e-05
-0.00116701 0.000350124 0.000350093 3.58867e-11
-0.00114449 0.000343369 0.000343339 3.52019e-11
-0.000816848 0.00024478 0.000245172 -4.23248e-05
-0.000832942 0.000249597 0.000250005 -4.23249e-05
-0.00115575 0.000346746 0.000346716 3.55264e-11
-0.00098068 0.000294065 0.000294264 -2.29234e-05
-0.000824895 0.000247189 0.000247589 -4.23248e-05
-0.000999986 0.000299851 0.000300058 -2.29234e-05
-0.000990333 0.000296958 0.000297161 -2.29234e-05
-0.00114449 0.000343369 0.000343339 3.52019e-11
-0.00112198 0.000336614 0.000336584 3.45103e-11
-0.000800755 0.000239964 0.000240339 -4.23247e-05
-0.000816848 0.00024478 0.000245172 -4.23248e-05
-0.00113324 0.000339992 0.000339961 3.48573e-11
-0.000961376 0.00028828 0.00028847 -2.29234e-05
-0.000808801 0.000242372 0.000242756 -4.23247e-05
-0.00098068 0.000294065 0.000294264 -2.29234e-05
-0.000971028 0.000291173 0.000291366 -2.29234e-05
-0.00112198 0.000336614 0.000336584 3.45037e-11
-0.00109946 0.00032986 0.00032983 3.37943e-11
-0.000784662 0.000235147 0.000235506 -4.23245e-05
-0.000800755 0.000239964 0.000240339 -4.23247e-05
-0.00111072 0.000333237 0.000333207 3.4153e-11
-0.000942071 0.000282495 0.000282676 -2.29234e-05
-0.000792708 0.000237555 0.000237923 -4.23246e-05
-0.000961376 0.00028828 0.00028847 -2.29234e-05
-0.000951723 0.000285387 0.000285573 -2.29234e-05
-0.00109946 0.00032986 0.00032983 3.37943e-11
-0.00107695 0.000323105 0.000323076 3.31248e-11
-0.000768569 0.00023033 0.000230674 -4.23245e-05
-0.000784662 0.000235147 0.000235506 -4.23245e-05
-0.00108821 0.000326483 0.000326453 3.34553e-11
-0.000922768 0.000276709 0.000276882 -2.29234e-05
-0.000776616 0.000232738 0.00023309 -4.23245e-05
-0.000942071 0.000282495 0.000282676 -2.29234e-05
-0.00093242 0.000279602 0.000279779 -2.29234e-05
-0.00107695 0.000323105 0.000323076 3.31248e-11
-0.00105443 0.000316351 0.000316322 3.24437e-11
-0.000752478 0.000225513 0.000225842 -4.23244e-05
-0.000768569 0.00023033 0.000230674 -4.23245e-05
-0.00106569 0.000319728 0.000319699 3.27841e-11
-0.000903465 0.000270924 0.000271089 -2.29234e-05
-0.000760523 0.000227921 0.000228258 -4.23244e-05
-0.000922768 0.000276709 0.000276882 -2.29234e-05
-0.000913116 0.000273817 0.000273985 -2.29234e-05
-0.00105443 0.000316351 0.000316322 3.24437e-11
-0.00103192 0.000309597 0.000309568 3.17425e-11
-0.000736386 0.000220696 0.00022101 -4.23243e-05
-0.000752478 0.000225513 0.000225842 -4.23244e-05
-0.00104318 0.000312974 0.000312945 3.20803e-11
-0.000884162 0.000265139 0.000265296 -2.29234e-05
-0.000744432 0.000223104 0.000223426 -4.23243e-05
-0.000903465 0.000270924 0.000271089 -2.29234e-05
-0.000893813 0.000268032 0.000268192 -2.29234e-05
-0.00103192 0.000309597 0.000309568 3.17491e-11
-0.00100941 0.000302843 0.000302814 3.10497e-11
-0.000720296 0.000215879 0.000216179 -4.23242e-05
-0.000736386 0.000220696 0.00022101 -4.23243e-05
-0.00102067 0.00030622 0.000306191 3.14036e-11
-0.00086486 0.000259354 0.000259503 -2.29234e-05
-0.000728341 0.000218287 0.000218594 -4.23243e-05
-0.000884162 0.000265139 0.000265296 -2.29234e-05
-0.000874511 0.000262246 0.000262399 -2.29234e-05
-0.00100941 0.000302843 0.000302814 3.10497e-11
-0.000986896 0.000296089 0.00029606 3.03529e-11
-0.000704205 0.000211062 0.000211347 -4.23242e-05
-0.000720296 0.000215879 0.000216179 -4.23242e-05
-0.000998153 0.000299466 0.000299437 3.06843e-11
-0.000845558 0.000253569 0.00025371 -2.29234e-05
-0.00071225 0.00021347 0.000213763 -4.23242e-05
-0.00086486 0.000259354 0.000259503 -2.29234e-05
-0.000855209 0.000256461 0.000256606 -2.29234e-05
-0.000986896 0.000296089 0.00029606 3.03529e-11
-0.000964384 0.000289335 0.000289307 2.96897e-11
-0.000688116 0.000206245 0.000206516 -4.23241e-05
-0.000704205 0.000211062 0.000211347 -4.23242e-05
-0.00097564 0.000292712 0.000292683 3.00158e-11
-0.000826257 0.000247783 0.000247917 -2.29234e-05
-0.00069616 0.000208653 0.000208932 -4.23242e-05
-0.000845558 0.000253569 0.00025371 -2.29234e-05
-0.000835908 0.000250676 0.000250814 -2.29234e-05
-0.000964384 0.000289335 0.000289307 2.96832e-11
-0.000941873 0.000282582 0.000282553 2.90115e-11
-0.000672027 0.000201427 0.000201685 -4.23241e-05
-0.000688116 0.000206245 0.000206516 -4.23241e-05
-0.000953129 0.000285959 0.00028593 2.93448e-11
-0.000806956 0.000241998 0.000242125 -2.29235e-05
-0.000680071 0.000203836 0.000204101 -4.23241e-05
-0.000826257 0.000247783 0.000247917 -2.29234e-05
-0.000816607 0.000244891 0.000245021 -2.29235e-05
-0.000941873 0.000282582 0.000282553 2.90119e-11
-0.000919362 0.000275828 0.0002758 2.83312e-11
-0.000655938 0.00019661 0.000196855 -4.23241e-05
-0.000672027 0.000201427 0.000201685 -4.23241e-05
-0.000930617 0.000279205 0.000279177 2.86426e-11
-0.000787656 0.000236213 0.000236333 -2.29235e-05
-0.000663982 0.000199019 0.00019927 -4.23241e-05
-0.000806956 0.000241998 0.000242125 -2.29235e-05
-0.000797306 0.000239106 0.000239229 -2.29235e-05
-0.000919362 0.000275828 0.0002758 2.83312e-11
-0.000896851 0.000269075 0.000269047 2.76195e-11
-0.00063985 0.000191793 0.000192025 -4.23241e-05
-0.000655938 0.00019661 0.000196855 -4.23241e-05
-0.000908106 0.000272452 0.000272423 2.80055e-11
-0.000768357 0.000230428 0.000230541 -2.29236e-05
-0.000647894 0.000194201 0.00019444 -4.23241e-05
-0.000787656 0.000236213 0.000236333 -2.29235e-05
-0.000778006 0.000233321 0.000233437 -2.29235e-05
-0.000896851 0.000269075 0.000269047 2.76195e-11
-0.000874341 0.000262322 0.000262294 2.69314e-11
-0.000623762 0.000186975 0.000187195 -4.23241e-05
-0.00063985 0.000191793 0.000192025 -4.23241e-05
-0.000885596 0.000265698 0.00026567 2.72974e-11
-0.000749057 0.000224643 0.000224749 -2.29236e-05
-0.000631806 0.000189384 0.000189609 -4.23241e-05
-0.000768357 0.000230428 0.000230541 -2.29236e-05
-0.000758707 0.000227536 0.000227645 -2.29236e-05
-0.000874341 0.000262322 0.000262294 2.69322e-11
-0.000851831 0.000255569 0.000255541 2.62144e-11
-0.000607675 0.000182158 0.000182365 -4.23241e-05
-0.000623762 0.000186975 0.000187195 -4.23241e-05
-0.000863086 0.000258945 0.000258917 2.65769e-11
-0.000729759 0.000218858 0.000218957 -2.29237e-05
-0.000615719 0.000184566 0.00018478 -4.23241e-05
-0.000749057 0.000224643 0.000224749 -2.29236e-05
-0.000739408 0.000221751 0.000221853 -2.29236e-05
-0.000851831 0.000255569 0.000255541 2.62475e-11
-0.000829322 0.000248816 0.000248788 2.55507e-11
-0.000591589 0.00017734 0.000177535 -4.23241e-05
-0.000607675 0.000182158 0.000182365 -4.23241e-05
-0.000840576 0.000252192 0.000252165 2.58876e-11
-0.00071046 0.000213073 0.000213166 -2.29237e-05
-0.000599632 0.000179749 0.00017995 -4.23241e-05
-0.000729759 0.000218858 0.000218957 -2.29237e-05
-0.000720109 0.000215966 0.000216062 -2.29237e-05
-0.000829322 0.000248816 0.000248788 2.55507e-11
-0.000806812 0.000242063 0.000242036 2.48507e-11
-0.000575503 0.000172522 0.000172706 -4.23241e-05
-0.000591589 0.00017734 0.000177535 -4.23241e-05
-0.000818067 0.000245439 0.000245412 2.52314e-11
-0.000691163 0.000207288 0.000207375 -2.29238e-05
-0.000583546 0.000174931 0.00017512 -4.23241e-05
-0.00071046 0.000213073 0.000213166 -2.29237e-05
-0.000700811 0.000210181 0.00021027 -2.29238e-05
-0.000806812 0.000242063 0.000242036 2.48507e-11
-0.000784304 0.00023531 0.000235283 2.41293e-11
-0.000559417 0.000167705 0.000167877 -4.23242e-05
-0.000575503 0.000172522 0.000172706 -4.23241e-05
-0.000795558 0.000238687 0.000238659 2.45297e-11
-0.000671865 0.000201503 0.000201584 -2.29239e-05
-0.00056746 0.000170113 0.000170291 -4.23241e-05
-0.000691163 0.000207288 0.000207375 -2.29238e-05
-0.000681514 0.000204396 0.000204479 -2.29238e-05
-0.000784304 0.00023531 0.000235283 2.41523e-11
-0.000761796 0.000228558 0.000228531 2.33802e-11
-0.000543332 0.000162887 0.000163048 -4.23242e-05
-0.000559417 0.000167705 0.000167877 -4.23242e-05
-0.00077305 0.000231934 0.000231907 2.37014e-11
-0.000652568 0.000195718 0.000195793 -2.29239e-05
-0.000551375 0.000165296 0.000165462 -4.23242e-05
-0.000671865 0.000201503 0.000201584 -2.29239e-05
-0.000662217 0.000198611 0.000198688 -2.29239e-05
-0.000761796 0.000228558 0.000228531 2.33799e-11
-0.000739288 0.000221805 0.000221778 2.2651e-11
-0.000527248 0.000158069 0.000158219 -4.23243e-05
-0.000543332 0.000162887 0.000163048 -4.23242e-05
-0.000750542 0.000225181 0.000225154 2.29748e-11
-0.000633272 0.000189933 0.000190002 -2.2924e-05
-0.00053529 0.000160478 0.000160634 -4.23243e-05
-0.000652568 0.000195718 0.000195793 -2.29239e-05
-0.00064292 0.000192826 0.000192898 -2.2924e-05
-0.000739288 0.000221805 0.000221778 2.2651e-11
-0.00071678 0.000215053 0.000215026 2.1826e-11
-0.000511164 0.000153251 0.000153391 -4.23243e-05
-0.000527248 0.000158069 0.000158219 -4.23243e-05
-0.000728034 0.000218429 0.000218402 2.22402e-11
-0.000613976 0.000184148 0.000184212 -2.29241e-05
-0.000519206 0.00015566 0.000155805 -4.23243e-05
-0.000633272 0.000189933 0.000190002 -2.2924e-05
-0.000623624 0.000187041 0.000187107 -2.29241e-05
-0.00071678 0.000215053 0.000215026 2.1826e-11
-0.000694273 0.0002083 0.000208274 2.09653e-11
-0.00049508 0.000148433 0.000148563 -4.23244e-05
-0.000511164 0.000153251 0.000153391 -4.23243e-05
-0.000705527 0.000211676 0.00021165 2.14068e-11
-0.00059468 0.000178363 0.000178422 -2.29242e-05
-0.000503122 0.000150842 0.000150977 -4.23244e-05
-0.000613976 0.000184148 0.000184212 -2.29241e-05
-0.000604328 0.000181256 0.000181317 -2.29242e-05
-0.000694273 0.0002083 0.000208274 2.09656e-11
-0.000671766 0.000201548 0.000201522 2.00494e-11
-0.000478997 0.000143615 0.000143735 -4.23245e-05
-0.00049508 0.000148433 0.000148563 -4.23244e-05
-0.00068302 0.000204924 0.000204898 2.05237e-11
-0.000575385 0.000172578 0.000172632 -2.29243e-05
-0.000487038 0.000146024 0.000146149 -4.23245e-05
-0.00059468 0.000178363 0.000178422 -2.29242e-05
-0.000585033 0.000175471 0.000175527 -2.29242e-05
-0.000671766 0.000201548 0.000201522 2.0082e-11
-0.00064926 0.000194796 0.00019477 1.89958e-11
-0.000462914 0.000138796 0.000138908 -4.23246e-05
-0.000478997 0.000143615 0.000143735 -4.23245e-05
-0.000660513 0.000198172 0.000198146 1.9485e-11
-0.00055609 0.000166793 0.000166842 -2.29244e-05
-0.000470956 0.000141205 0.000141321 -4.23245e-05
-0.000575385 0.000172578 0.000172632 -2.29243e-05
-0.000565738 0.000169686 0.000169737 -2.29243e-05
-0.00064926 0.000194796 0.00019477 1.89958e-11
-0.000626754 0.000188044 0.000188018 1.79281e-11
-0.000446832 0.000133978 0.00013408 -4.23246e-05
-0.000462914 0.000138796 0.000138908 -4.23246e-05
-0.000638007 0.00019142 0.000191394 1.84757e-11
-0.000536796 0.000161008 0.000161052 -2.29245e-05
-0.000454873 0.000136387 0.000136494 -4.23246e-05
-0.00055609 0.000166793 0.000166842 -2.29244e-05
-0.000546443 0.000163901 0.000163947 -2.29244e-05
-0.000626754 0.000188044 0.000188018 1.79281e-11
-0.000604248 0.000181292 0.000181267 1.67354e-11
-0.000430751 0.00012916 0.000129253 -4.23247e-05
-0.000446832 0.000133978 0.00013408 -4.23246e-05
-0.000615501 0.000184668 0.000184643 1.73264e-11
-0.000517502 0.000155223 0.000155262 -2.29245e-05
-0.000438791 0.000131569 0.000131667 -4.23246e-05
-0.000536796 0.000161008 0.000161052 -2.29245e-05
-0.000527149 0.000158116 0.000158157 -2.29245e-05
-0.000604248 0.000181292 0.000181267 1.67024e-11
-0.000581743 0.000174541 0.000174515 1.55092e-11
-0.00041467 0.000124341 0.000124426 -4.23247e-05
-0.000430751 0.00012916 0.000129253 -4.23247e-05
-0.000592995 0.000177916 0.000177891 1.6056e-11
-0.000498209 0.000149439 0.000149473 -2.29246e-05
-0.00042271 0.00012675 0.00012684 -4.23247e-05
-0.000517502 0.000155223 0.000155262 -2.29245e-05
-0.000507856 0.000152331 0.000152368 -2.29245e-05
-0.000581743 0.000174541 0.000174515 1.55089e-11
-0.000559238 0.000167789 0.000167764 1.43162e-11
-0.000398589 0.000119523 0.0001196 -4.23247e-05
-0.00041467 0.000124341 0.000124426 -4.23247e-05
-0.00057049 0.000171165 0.00017114 1.48557e-11
-0.000478916 0.000143654 0.000143684 -2.29246e-05
-0.000406629 0.000121932 0.000122013 -4.23247e-05
-0.000498209 0.000149439 0.000149473 -2.29246e-05
-0.000488562 0.000146546 0.000146578 -2.29246e-05
-0.000559238 0.000167789 0.000167764 1.43162e-11
-0.000536734 0.000161038 0.000161013 1.37265e-11
-0.000382509 0.000114704 0.000114774 -4.23246e-05
-0.000398589 0.000119523 0.0001196 -4.23247e-05
-0.000547986 0.000164413 0.000164388 1.37866e-11
-0.000459624 0.000137869 0.000137895 -2.29246e-05
-0.000390549 0.000117113 0.000117187 -4.23247e-05
-0.000478916 0.000143654 0.000143684 -2.29246e-05
-0.00046927 0.000140761 0.000140789 -2.29246e-05
-0.000536734 0.000161038 0.000161013 1.37265e-11
-0.00051423 0.000154286 0.000154262 1.34569e-11
-0.000366429 0.000109885 0.000109947 -4.23246e-05
-0.000382509 0.000114704 0.000114774 -4.23246e-05
-0.000525482 0.000157662 0.000157637 1.34041e-11
-0.000440332 0.000132084 0.000132106 -2.29246e-05
-0.000374469 0.000112294 0.00011236 -4.23246e-05
-0.000459624 0.000137869 0.000137895 -2.29246e-05
-0.000449978 0.000134976 0.000135001 -2.29246e-05
-0.00051423 0.000154286 0.000154262 1.34569e-11
-0.000491727 0.000147535 0.000147511 1.54697e-11
-0.00035035 0.000105066 0.000105122 -4.23245e-05
-0.000366429 0.000109885 0.000109947 -4.23246e-05
-0.000502978 0.000150911 0.000150886 1.38985e-11
-0.00042104 0.000126299 0.000126318 -2.29246e-05
-0.00035839 0.000107476 0.000107535 -4.23245e-05
-0.000440332 0.000132084 0.000132106 -2.29246e-05
-0.000430686 0.000129191 0.000129212 -2.29246e-05
-0.000491727 0.000147535 0.000147511 1.55032e-11
-0.000469224 0.000140784 0.00014076 1.83344e-11
-0.000334272 0.000100248 0.000100296 -4.23244e-05
-0.00035035 0.000105066 0.000105122 -4.23245e-05
-0.000480475 0.00014416 0.000144135 1.62247e-11
-0.00040175 0.000120514 0.000120529 -2.29245e-05
-0.000342311 0.000102657 0.000102709 -4.23244e-05
-0.00042104 0.000126299 0.000126318 -2.29246e-05
-0.000411395 0.000123407 0.000123424 -2.29245e-05
-0.000469224 0.000140784 0.00014076 1.83344e-11
-0.000446721 0.000134033 0.000134009 2.76513e-11
-0.000318193 9.54287e-05 9.54706e-05 -4.23244e-05
-0.000334272 0.000100248 0.000100296 -4.23244e-05
-0.000457973 0.000137409 0.000137385 2.28884e-11
-0.000382459 0.00011473 0.000114741 -2.29246e-05
-0.000326232 9.78381e-05 9.78833e-05 -4.23244e-05
-0.00040175 0.000120514 0.000120529 -2.29245e-05
-0.000392104 0.000117622 0.000117635 -2.29245e-05
-0.000446721 0.000134033 0.000134009 2.76513e-11
-0.00042422 0.000127282 0.000127259 3.7223e-11
-0.000302116 9.06099e-05 9.06454e-05 -4.23247e-05
-0.000318193 9.54287e-05 9.54706e-05 -4.23244e-05
-0.00043547 0.000130658 0.000130634 3.00858e-11
-0.000363169 0.000108945 0.000108953 -2.29248e-05
-0.000310155 9.30193e-05 9.3058e-05 -4.23245e-05
-0.000382459 0.00011473 0.000114741 -2.29246e-05
-0.000372814 0.000111837 0.000111847 -2.29246e-05
-0.00042422 0.000127282 0.000127259 3.72528e-11
-0.000401718 0.000120532 0.000120508 5.6726e-11
-0.000286039 8.57912e-05 8.58204e-05 -4.23254e-05
-0.000302116 9.06099e-05 9.06454e-05 -4.23247e-05
-0.000412969 0.000123907 0.000123884 5.32204e-11
-0.000343879 0.00010316 0.000103165 -2.29252e-05
-0.000294077 8.82006e-05 8.82329e-05 -4.2325e-05
-0.000363169 0.000108945 0.000108953 -2.29248e-05
-0.000353524 0.000106053 0.000106059 -2.2925e-05
-0.000401718 0.000120532 0.000120508 5.67263e-11
-0.000379216 0.000113781 0.000113758 7.1316e-11
-0.000269962 8.09725e-05 8.09955e-05 -4.23267e-05
-0.000286039 8.57912e-05 8.58204e-05 -4.23254e-05
-0.000390467 0.000117156 0.000117133 5.20431e-11
-0.00032459 9.73754e-05 9.73775e-05 -2.29261e-05
-0.000278 8.33819e-05 8.34079e-05 -4.23259e-05
-0.000343879 0.00010316 0.000103165 -2.29252e-05
-0.000334235 0.000100268 0.000100271 -2.29256e-05
-0.000379216 0.000113781 0.000113758 7.1316e-11
-0.000356713 0.00010703 0.000107007 6.41546e-11
-0.000253885 7.61537e-05 7.61707e-05 -4.23288e-05
-0.000269962 8.09725e-05 8.09955e-05 -4.23267e-05
-0.000367965 0.000110405 0.000110383 1.12964e-10
-0.0003053 9.15905e-05 9.15896e-05 -2.29277e-05
-0.000261924 7.85632e-05 7.85831e-05 -4.23276e-05
-0.00032459 9.73754e-05 9.73775e-05 -2.29261e-05
-0.000314945 9.4483e-05 9.44836e-05 -2.29268e-05
-0.000356713 0.00010703 0.000107007 6.41546e-11
-0.000334209 0.000100278 0.000100256 5.21662e-11
-0.000237809 7.13343e-05 7.13463e-05 -4.23314e-05
-0.000253885 7.61537e-05 7.61707e-05 -4.23288e-05
-0.000345461 0.000103654 0.000103632 -8.27642e-12
-0.000286009 8.58053e-05 8.58016e-05 -2.29296e-05
-0.000245847 7.37442e-05 7.37584e-05 -4.23301e-05
-0.0003053 9.15905e-05 9.15896e-05 -2.29277e-05
-0.000295655 8.8698e-05 8.86957e-05 -2.29286e-05
-0.000334209 0.000100278 0.000100256 5.21662e-11
-0.000311702 9.35256e-05 9.3504e-05 -2.56824e-10
-0.000221732 6.65132e-05 6.65223e-05 -4.23335e-05
-0.000237809 7.13343e-05 7.13463e-05 -4.23314e-05
-0.000322955 9.69019e-05 9.688e-05 1.33415e-10
-0.000266718 8.00195e-05 8.00137e-05 -2.29314e-05
-0.000229771 6.89241e-05 6.89342e-05 -4.23326e-05
-0.000286009 8.58053e-05 8.58016e-05 -2.29296e-05
-0.000276363 8.29125e-05 8.29076e-05 -2.29306e-05
-0.000311702 9.35256e-05 9.3504e-05 -2.56861e-10
-0.000289192 8.6773e-05 8.67508e-05 -3.93335e-10
-0.000205654 6.16876e-05 6.17e-05 -4.23314e-05
-0.000221732 6.65132e-05 6.65223e-05 -4.23335e-05
-0.000300447 9.01497e-05 9.01275e-05 -6.8127e-10
-0.000247427 7.42328e-05 7.42262e-05 -2.29305e-05
-0.000213693 6.41012e-05 6.41108e-05 -4.23334e-05
-0.000266718 8.00195e-05 8.00137e-05 -2.29314e-05
-0.000257073 7.71262e-05 7.712e-05 -2.29315e-05
-0.000289192 8.6773e-05 8.67508e-05 -3.93335e-10
-0.000266685 8.0019e-05 7.99997e-05 -2.34777e-09
-0.000189573 5.68526e-05 5.68801e-05 -4.23184e-05
-0.000205654 6.16876e-05 6.17e-05 -4.23314e-05
-0.000277937 8.33948e-05 8.33751e-05 -2.95039e-10
-0.000228142 6.84448e-05 6.84416e-05 -2.29221e-05
-0.000197615 5.92718e-05 5.92898e-05 -4.23268e-05
-0.000247427 7.42328e-05 7.42262e-05 -2.29305e-05
-0.000237783 7.1339e-05 7.13332e-05 -2.29279e-05
-0.000266685 8.0019e-05 7.99997e-05 -2.34777e-09
-0.000244186 7.32746e-05 7.32478e-05 -2.57009e-09
-0.000173489 5.19979e-05 5.20675e-05 -4.2276e-05
-0.000189573 5.68526e-05 5.68801e-05 -4.23184e-05
-0.000255435 7.66479e-05 7.6623e-05 -4.24924e-09
-0.000208867 6.26555e-05 6.26622e-05 -2.28928e-05
-0.00018153 5.44284e-05 5.44723e-05 -4.23027e-05
-0.000228142 6.84448e-05 6.84416e-05 -2.29221e-05
-0.000218503 6.55502e-05 6.55513e-05 -2.29108e-05
-0.000244186 7.32746e-05 7.32478e-05 -2.5701e-09
-0.000221741 6.65329e-05 6.65179e-05 -1.16112e-08
-0.000157387 4.7107e-05 4.72629e-05 -4.21789e-05
-0.000173489 5.19979e-05 5.20675e-05 -4.2276e-05
-0.000232951 6.98959e-05 6.98807e-05 -2.47795e-09
-0.000189631 5.68657e-05 5.68993e-05 -2.28211e-05
-0.000165443 4.95592e-05 4.96644e-05 -4.22364e-05
-0.000208867 6.26555e-05 6.26622e-05 -2.28928e-05
-0.000199241 5.97609e-05 5.97772e-05 -2.28655e-05
-0.000221741 6.65329e-05 6.65179e-05 -1.16112e-08
-0.000199384 5.98581e-05 5.97967e-05 -9.77615e-09
-0.000141273 4.21468e-05 4.24827e-05 -4.19619e-05
-0.000157387 4.7107e-05 4.72629e-05 -4.21789e-05
-0.000210553 6.31996e-05 6.31516e-05 -1.92358e-08
-0.000170456 5.10765e-05 5.11625e-05 -2.26594e-05
-0.000149328 4.46364e-05 4.48679e-05 -4.20918e-05
-0.000189631 5.68657e-05 5.68993e-05 -2.28211e-05
-0.000180036 5.39699e-05 5.40283e-05 -2.27531e-05
-0.000199384 5.98581e-05 5.97967e-05 -9.77615e-09
-0.000177321 5.32005e-05 5.31943e-05 -4.54654e-08
-0.000125078 3.70788e-05 3.77139e-05 -4.1559e-05
-0.000141273 4.21468e-05 4.24827e-05 -4.19619e-05
-0.000188287 5.64893e-05 5.64849e-05 -8.10772e-09
-0.000151445 4.52966e-05 4.5492e-05 -2.23308e-05
-0.000133198 3.96344e-05 4.00986e-05 -4.17881e-05
-0.000170456 5.10765e-05 5.11625e-05 -2.26594e-05
-0.000160917 4.81871e-05 4.83126e-05 -2.25297e-05
-0.000177321 5.32005e-05 5.31943e-05 -4.54654e-08
-0.00015569 4.68802e-05 4.66326e-05 -2.72456e-08
-0.00010882 3.18095e-05 3.30045e-05 -4.07964e-05
-0.000125078 3.70788e-05 3.77139e-05 -4.1559e-05
-0.000166462 5.00634e-05 4.9885e-05 -7.60678e-08
-0.000132647 3.95227e-05 3.99104e-05 -2.17104e-05
-0.000116942 3.44644e-05 3.53477e-05 -4.12396e-05
-0.000151445 4.52966e-05 4.5492e-05 -2.23308e-05
-0.000142026 4.24028e-05 4.26956e-05 -2.20537e-05
-0.00015569 4.68802e-05 4.66326e-05 -2.72456e-08
-0.000135227 4.05607e-05 4.05713e-05 -1.53863e-07
-9.21976e-05 2.63144e-05 2.82356e-05 -3.9608e-05
-0.00010882 3.18095e-05 3.30045e-05 -4.07964e-05
-0.00014521 4.35416e-05 4.35721e-05 -6.24085e-09
-0.000114388 3.38008e-05 3.45375e-05 -2.05682e-05
-0.000100606 2.91196e-05 3.06372e-05 -4.02559e-05
-0.000132647 3.95227e-05 3.99104e-05 -2.17104e-05
-0.000123403 3.66669e-05 3.71725e-05 -2.12594e-05
-0.000135227 4.05607e-05 4.05713e-05 -1.53863e-07
-0.000116416 3.57186e-05 3.45847e-05 -4.97956e-08
-7.52344e-05 2.03703e-05 2.35132e-05 -3.77287e-05
-9.21976e-05 2.63144e-05 2.82356e-05 -3.9608e-05
-0.000125657 3.8278e-05 3.74483e-05 -2.87146e-07
-9.6568e-05 2.80528e-05 2.93637e-05 -1.87369e-05
-8.37036e-05 2.33443e-05 2.58683e-05 -3.87781e-05
-0.000114388 3.38008e-05 3.45375e-05 -2.05682e-05
-0.000105483 3.09033e-05 3.19629e-05 -1.96819e-05
-0.000116416 3.57186e-05 3.45847e-05 -4.97956e-08
-0.000101326 3.03687e-05 3.04103e-05 -4.23039e-07
-5.6765e-05 1.44563e-05 1.81323e-05 -3.57148e-05
-7.52344e-05 2.03703e-05 2.35132e-05 -3.77287e-05
-0.000108106 3.23059e-05 3.24856e-05 1.285e-07
-8.00347e-05 2.24659e-05 2.46723e-05 -1.56877e-05
-6.63886e-05 1.75049e-05 2.09502e-05 -3.66772e-05
-9.6568e-05 2.80528e-05 2.93637e-05 -1.87369e-05
-8.79743e-05 2.52975e-05 2.68615e-05 -1.75688e-05
-0.000101326 3.03687e-05 3.04103e-05 -4.23039e-07
-9.21723e-05 3.07954e-05 2.63044e-05 7.07664e-07
-3.69428e-05 8.61552e-06 1.21403e-05 -3.44789e-05
-5.6765e-05 1.44563e-05 1.81323e-05 -3.57148e-05
-9.60309e-05 3.14192e-05 2.76907e-05 -9.22787e-07
-6.2766e-05 1.64491e-05 1.98501e-05 -1.24042e-05
-4.68031e-05 1.11288e-05 1.5289e-05 -3.48629e-05
-8.00347e-05 2.24659e-05 2.46723e-05 -1.56877e-05
-7.19113e-05 1.94294e-05 2.24923e-05 -1.36519e-05
-9.21723e-05 3.07954e-05 2.63044e-05 7.07664e-07
-9.64669e-05 2.60869e-05 3.01629e-05 4.14022e-06
-1.40688e-05 9.13506e-06 2.11446e-06 -4.02017e-05
-3.69428e-05 8.61552e-06 1.21403e-05 -3.44789e-05
-9.1676e-05 2.55897e-05 2.83227e-05 2.95457e-06
-4.43082e-05 1.1443e-05 1.40851e-05 -1.05261e-05
-2.63196e-05 7.99957e-06 7.85143e-06 -3.58703e-05
-6.2766e-05 1.64491e-05 1.98501e-05 -1.24042e-05
-5.33235e-05 1.38026e-05 1.69375e-05 -1.17157e-05
-9.64669e-05 2.60869e-05 3.01629e-05 4.14022e-06
-0.000131125 2.57542e-05 4.5159e-05 3.17462e-05
-3.49382e-06 3.53988e-05 -1.36736e-05 -6.0595e-05
-1.40688e-05 9.13506e-06 2.11446e-06 -4.02017e-05
-0.000108849 3.67735e-05 3.08895e-05 8.63109e-06
-7.12009e-06 2.16187e-05 -6.21371e-06 -3.56755e-05
-4.89271e-06 1.41377e-05 -3.96215e-06 -4.75386e-05
-4.43082e-05 1.1443e-05 1.40851e-05 -1.05261e-05
-3.06111e-05 1.10609e-05 8.37867e-06 -1.53967e-05
-0.000131125 2.57542e-05 4.5159e-05 3.17462e-05
-6.67906e-05 0.000206725 -5.99717e-05 -0.00016534
-4.62199e-05 0.000157972 -4.78936e-05 -6.05213e-05
-3.49382e-06 3.53988e-05 -1.36736e-05 -6.0595e-05
-0.000128689 6.05701e-06 5.25564e-05 1.29115e-05
-4.07016e-05 0.000194334 -6.58423e-05 -9.73089e-05
-1.54203e-05 8.43083e-05 -2.95234e-05 -7.09116e-05
-7.12009e-06 2.16187e-05 -6.21371e-06 -3.56755e-05
-1.32035e-06 6.33533e-05 -2.65856e-05 -6.50606e-05
-0.00270411 0 0.0011589 -0.000152072
-0.00304561 0.000604191 0.00104632 -0.00022466
-0.00176748 0.000231677 0.000658201 -5.70019e-06
-0.00156395 0 0.000670266 0.00020642
-0.0028961 0.000285848 0.00111868 -0.000260903
-0.00235429 0.000363698 0.00085311 -9.2405e-05
-0.00169406 0.000130199 0.000670227 7.83616e-05
-0.0022167 0 0.000950015 3.48901e-05
-0.00225419 0.000201532 0.000879712 -2.81491e-05
-0.00304561 0.000604191 0.00104632 -0.00022466
-0.00316378 0.000855205 0.00098939 -0.00010625
-0.00185714 0.000423785 0.000614296 -7.17845e-05
-0.00176748 0.000231677 0.000658201 -5.70019e-06
-0.00313931 0.000781749 0.00101039 -0.000161503
-0.00251036 0.00061694 0.000811465 -0.000108312
-0.00181245 0.000333887 0.000633671 -4.83013e-05
-0.00235429 0.000363698 0.00085311 -9.2405e-05
-0.00245898 0.000506134 0.000836936 -0.00012177
-0.00316378 0.000855205 0.00098939 -0.00010625
-0.00314809 0.000924924 0.000952785 -3.91913e-05
-0.00190226 0.000520126 0.000592341 -8.46635e-05
-0.00185714 0.000423785 0.000614296 -7.17845e-05
-0.00315479 0.000898606 0.000966937 -6.2106e-05
-0.00253489 0.000717812 0.000778747 -7.26638e-05
-0.00189069 0.000483707 0.000602995 -8.33815e-05
-0.00251036 0.00061694 0.000811465 -0.000108312
-0.00252887 0.00068297 0.000791099 -8.54885e-05
-0.00314809 0.000924924 0.000952785 -3.91913e-05
-0.0031258 0.000933999 0.000939345 -2.4706e-05
-0.00190008 0.000557545 0.000575372 -7.85038e-05
-0.00190226 0.000520126 0.000592341 -8.46635e-05
-0.00313973 0.000933971 0.000945327 -2.93897e-05
-0.00252228 0.000749566 0.000759734 -5.5471e-05
-0.001902 0.000543686 0.000582134 -8.11887e-05
-0.00253489 0.000717812 0.000778747 -7.26638e-05
-0.00253162 0.000738569 0.000768452 -6.34159e-05
-0.0031258 0.000933999 0.000939345 -2.4706e-05
-0.00310016 0.000932107 0.000929168 -2.43997e-05
-0.00188648 0.000564274 0.000566662 -7.44121e-05
-0.00190008 0.000557545 0.000575372 -7.85038e-05
-0.00311103 0.000933328 0.000933303 -2.30747e-05
-0.00249895 0.000750916 0.000749159 -5.03081e-05
-0.0018953 0.00056336 0.000570833 -7.6486e-05
-0.00252228 0.000749566 0.000759734 -5.5471e-05
-0.00251025 0.000752447 0.000753346 -5.10574e-05
-0.00310016 0.000932107 0.000929168 -2.43997e-05
-0.0030807 0.000925086 0.000923833 -2.97304e-05
-0.00186756 0.000561061 0.000559929 -7.16834e-05
-0.00188648 0.000564274 0.000566662 -7.44121e-05
-0.00309084 0.000929021 0.000926492 -2.72198e-05
-0.00247755 0.000745389 0.000742355 -5.09609e-05
-0.00187633 0.000563251 0.00056275 -7.25997e-05
-0.00249895 0.000750916 0.000749159 -5.03081e-05
-0.00248813 0.000748429 0.000745586 -5.0636e-05
-0.0030807 0.000925086 0.000923833 -2.97304e-05
-0.00306184 0.000918312 0.000918654 -3.41215e-05
-0.00185113 0.000554588 0.000555662 -7.09095e-05
-0.00186756 0.000561061 0.000559929 -7.16834e-05
-0.00307071 0.000921555 0.000921066 -3.19394e-05
-0.0024583 0.000737641 0.000737426 -5.30088e-05
-0.00185941 0.00055799 0.000557753 -7.12649e-05
-0.00247755 0.000745389 0.000742355 -5.09609e-05
-0.00246751 0.000741612 0.00073967 -5.17764e-05
-0.00306184 0.000918312 0.000918654 -3.41215e-05
-0.00304487 0.000911762 0.000914191 -3.76544e-05
-0.0018362 0.000548359 0.000551932 -7.05757e-05
-0.00185113 0.000554588 0.000555662 -7.09095e-05
-0.00305344 0.000915012 0.000916469 -3.61271e-05
-0.00244155 0.00073076 0.000733196 -5.49777e-05
-0.00184323 0.00055136 0.000553657 -7.06455e-05
-0.0024583 0.000737641 0.000737426 -5.30088e-05
-0.00244972 0.000734043 0.00073529 -5.41316e-05
-0.00304487 0.000911762 0.000914191 -3.76544e-05
-0.0030281 0.00090586 0.000909531 -3.97712e-05
-0.00182347 0.000542944 0.000548798 -7.06035e-05
-0.0018362 0.000548359 0.000551932 -7.05757e-05
-0.00303636 0.000908729 0.00091184 -3.88198e-05
-0.00242632 0.000724688 0.000729271 -5.64059e-05
-0.00182973 0.000545543 0.000550365 -7.05981e-05
-0.00244155 0.00073076 0.000733196 -5.49777e-05
-0.00243376 0.000727629 0.0007312 -5.57305e-05
-0.0030281 0.00090586 0.000909531 -3.97712e-05
-0.00301177 0.000900354 0.000904891 -4.10858e-05
-0.00181187 0.000538452 0.000545751 -7.06336e-05
-0.00182347 0.000542944 0.000548798 -7.06035e-05
-0.00301995 0.00090307 0.000907235 -4.05358e-05
-0.00241213 0.000719502 0.000725414 -5.73057e-05
-0.0018175 0.000540594 0.000547245 -7.06067e-05
-0.00242632 0.000724688 0.000729271 -5.64059e-05
-0.00241914 0.000721997 0.000727346 -5.69308e-05
-0.00301177 0.000900354 0.000904891 -4.10858e-05
-0.00299547 0.000895153 0.000900135 -4.17713e-05
-0.00180118 0.000534615 0.000542812 -7.06842e-05
-0.00181187 0.000538452 0.000545751 -7.06336e-05
-0.00300359 0.000897722 0.000902515 -4.14783e-05
-0.00239852 0.000714862 0.000721568 -5.78262e-05
-0.00180647 0.000536467 0.000544286 -7.06665e-05
-0.00241213 0.000719502 0.000725414 -5.73057e-05
-0.00240527 0.000717129 0.00072349 -5.75977e-05
-0.00299547 0.000895153 0.000900135 -4.17713e-05
-0.00297926 0.000890127 0.000895344 -4.21351e-05
-0.00179091 0.00053122 0.000539869 -7.07028e-05
-0.00180118 0.000534615 0.000542812 -7.06842e-05
-0.00298737 0.000892624 0.000897748 -4.19883e-05
-0.00238524 0.0007106 0.000717703 -5.80983e-05
-0.00179599 0.000532874 0.000541337 -7.06938e-05
-0.00239852 0.000714862 0.000721568 -5.78262e-05
-0.00239185 0.000712694 0.00071964 -5.79893e-05
-0.00297926 0.000890127 0.000895344 -4.21351e-05
-0.00296306 0.000885206 0.000890509 -4.22975e-05
-0.00178093 0.000528084 0.000536936 -7.07105e-05
-0.00179091 0.00053122 0.000539869 -7.07028e-05
-0.00297116 0.000887657 0.000892928 -4.22318e-05
-0.00237213 0.000706543 0.000713821 -5.82296e-05
-0.00178591 0.000529628 0.000538406 -7.07094e-05
-0.00238524 0.0007106 0.000717703 -5.80983e-05
-0.00237867 0.000708553 0.000715764 -5.81754e-05
-0.00296306 0.000885206 0.000890509 -4.22975e-05
-0.00294688 0.000880341 0.000885657 -4.23672e-05
-0.00177108 0.000525094 0.000533992 -7.07059e-05
-0.00178093 0.000528084 0.000536936 -7.07105e-05
-0.00295497 0.000882769 0.000888086 -4.23413e-05
-0.0023591 0.000702605 0.000709925 -5.82833e-05
-0.00177599 0.000526576 0.000535464 -7.07087e-05
-0.00237213 0.000706543 0.000713821 -5.82296e-05
-0.0023656 0.000704563 0.000711875 -5.82638e-05
-0.00294688 0.000880341 0.000885657 -4.23672e-05
-0.00293069 0.000875506 0.000880793 -4.23878e-05
-0.00176129 0.000522181 0.000531046 -7.06981e-05
-0.00177108 0.000525094 0.000533992 -7.07059e-05
-0.00293878 0.000877921 0.000883226 -4.23809e-05
-0.00234611 0.000698727 0.00070602 -5.83e-05
-0.00176618 0.000523631 0.00053252 -7.07025e-05
-0.0023591 0.000702605 0.000709925 -5.82833e-05
-0.0023526 0.000700661 0.000707973 -5.82944e-05
-0.00293069 0.000875506 0.000880793 -4.23878e-05
-0.00291451 0.000870684 0.000875925 -4.23898e-05
-0.00175153 0.000519304 0.000528095 -7.0689e-05
-0.00176129 0.000522181 0.000531046 -7.06981e-05
-0.0029226 0.000873094 0.00087836 -4.23903e-05
-0.00233314 0.000694877 0.000702111 -5.83001e-05
-0.0017564 0.000520739 0.000529571 -7.06934e-05
-0.00234611 0.000698727 0.00070602 -5.83e-05
-0.00233962 0.000696799 0.000704066 -5.83014e-05
-0.00291451 0.000870684 0.000875925 -4.23898e-05
-0.00289833 0.000865869 0.000871055 -4.23845e-05
-0.00174178 0.000516443 0.000525142 -7.0681e-05
-0.00175153 0.000519304 0.000528095 -7.0689e-05
-0.00290642 0.000868276 0.00087349 -4.23874e-05
-0.00232017 0.00069104 0.000698198 -5.82947e-05
-0.00174665 0.000517872 0.000526619 -7.06848e-05
-0.00233314 0.000694877 0.000702111 -5.83001e-05
-0.00232665 0.000692958 0.000700155 -5.82976e-05
-0.00289833 0.000865869 0.000871055 -4.23845e-05
-0.00288215 0.000861057 0.000866184 -4.23784e-05
-0.00173203 0.000513588 0.000522189 -7.06745e-05
-0.00174178 0.000516443 0.000525142 -7.0681e-05
-0.00289024 0.000863463 0.000868619 -4.23814e-05
-0.00230721 0.000687207 0.000694285 -5.82883e-05
-0.0017369 0.000515015 0.000523666 -7.06775e-05
-0.00232017 0.00069104 0.000698198 -5.82947e-05
-0.00231369 0.000689123 0.000696242 -5.82915e-05
-0.00288215 0.000861057 0.000866184 -4.23784e-05
-0.00286598 0.000856245 0.000861313 -4.23732e-05
-0.00172228 0.000510734 0.000519235 -7.06696e-05
-0.00173203 0.000513588 0.000522189 -7.06745e-05
-0.00287406 0.000858651 0.000863748 -4.23756e-05
-0.00229424 0.000683376 0.000690372 -5.8283e-05
-0.00172715 0.000512161 0.000520712 -7.06719e-05
-0.00230721 0.000687207 0.000694285 -5.82883e-05
-0.00230072 0.000685292 0.000692328 -5.82855e-05
-0.00286598 0.000856245 0.000861313 -4.23732e-05
-0.0028498 0.000851433 0.000856443 -4.23695e-05
-0.00171253 0.000507879 0.000516281 -7.06662e-05
-0.00172228 0.000510734 0.000519235 -7.06696e-05
-0.00285789 0.000853839 0.000858878 -4.23712e-05
-0.00228128 0.000679544 0.000686458 -5.82791e-05
-0.00171741 0.000509307 0.000517757 -7.06678e-05
-0.00229424 0.000683376 0.000690372 -5.8283e-05
-0.00228776 0.00068146 0.000688415 -5.82808e-05
-0.0028498 0.000851433 0.000856443 -4.23695e-05
-0.00283362 0.000846622 0.000851573 -4.23671e-05
-0.00170279 0.000505024 0.000513327 -7.0664e-05
-0.00171253 0.000507879 0.000516281 -7.06662e-05
-0.00284171 0.000849028 0.000854008 -4.23681e-05
-0.00226832 0.000675712 0.000682546 -5.82764e-05
-0.00170766 0.000506452 0.000514804 -7.0665e-05
-0.00228128 0.000679544 0.000686458 -5.82791e-05
-0.0022748 0.000677628 0.000684502 -5.82776e-05
-0.00283362 0.000846622 0.000851573 -4.23671e-05
-0.00281745 0.000841809 0.000846703 -4.23657e-05
-0.00169304 0.000502167 0.000510374 -7.06624e-05
-0.00170279 0.000505024 0.000513327 -7.0664e-05
-0.00282554 0.000844216 0.000849138 -4.23663e-05
-0.00225536 0.000671879 0.000678633 -5.82748e-05
-0.00169791 0.000503596 0.00051185 -7.06631e-05
-0.00226832 0.000675712 0.000682546 -5.82764e-05
-0.00226184 0.000673795 0.000680589 -5.82755e-05
-0.00281745 0.000841809 0.000846703 -4.23657e-05
-0.00280128 0.000836997 0.000841834 -4.23649e-05
-0.00168329 0.000499309 0.000507421 -7.06615e-05
-0.00169304 0.000502167 0.000510374 -7.06624e-05
-0.00280936 0.000839403 0.000844269 -4.23653e-05
-0.00224239 0.000668045 0.000674721 -5.82738e-05
-0.00168816 0.000500738 0.000508897 -7.06619e-05
-0.00225536 0.000671879 0.000678633 -5.82748e-05
-0.00224888 0.000669962 0.000676677 -5.82743e-05
-0.00280128 0.000836997 0.000841834 -4.23649e-05
-0.0027851 0.000832184 0.000836966 -4.23646e-05
-0.00167354 0.000496451 0.000504468 -7.06608e-05
-0.00168329 0.000499309 0.000507421 -7.06615e-05
-0.00279319 0.000834591 0.0008394 -4.23647e-05
-0.00222943 0.000664211 0.00067081 -5.82733e-05
-0.00167842 0.00049788 0.000505944 -7.06611e-05
-0.00224239 0.000668045 0.000674721 -5.82738e-05
-0.00223591 0.000666128 0.000672765 -5.82735e-05
-0.0027851 0.000832184 0.000836966 -4.23646e-05
-0.00276893 0.000827372 0.000832097 -4.23645e-05
-0.0016638 0.000493592 0.000501516 -7.06604e-05
-0.00167354 0.000496451 0.000504468 -7.06608e-05
-0.00277702 0.000829778 0.000834532 -4.23645e-05
-0.00221647 0.000660376 0.000666898 -5.8273e-05
-0.00166867 0.000495022 0.000502992 -7.06606e-05
-0.00222943 0.000664211 0.00067081 -5.82733e-05
-0.00222295 0.000662293 0.000668854 -5.82731e-05
-0.00276893 0.000827372 0.000832097 -4.23645e-05
-0.00275276 0.000822559 0.000827229 -4.23644e-05
-0.00165405 0.000490733 0.000498564 -7.066e-05
-0.0016638 0.000493592 0.000501516 -7.06604e-05
-0.00276085 0.000824965 0.000829663 -4.23645e-05
-0.00220351 0.000656541 0.000662987 -5.82728e-05
-0.00165892 0.000492162 0.00050004 -7.06602e-05
-0.00221647 0.000660376 0.000666898 -5.8273e-05
-0.00220999 0.000658459 0.000664943 -5.82729e-05
-0.00275276 0.000822559 0.000827229 -4.23644e-05
-0.00273659 0.000817746 0.000822362 -4.23645e-05
-0.0016443 0.000487873 0.000495613 -7.06596e-05
-0.00165405 0.000490733 0.000498564 -7.066e-05
-0.00274467 0.000820152 0.000824795 -4.23645e-05
-0.00219055 0.000652706 0.000659077 -5.82727e-05
-0.00164918 0.000489303 0.000497089 -7.06598e-05
-0.00220351 0.000656541 0.000662987 -5.82728e-05
-0.00219703 0.000654624 0.000661032 -5.82727e-05
-0.00273659 0.000817746 0.000822362 -4.23645e-05
-0.00272042 0.000812933 0.000817494 -4.23645e-05
-0.00163456 0.000485013 0.000492662 -7.06593e-05
-0.0016443 0.000487873 0.000495613 -7.06596e-05
-0.0027285 0.000815339 0.000819928 -4.23645e-05
-0.00217759 0.000648871 0.000655166 -5.82725e-05
-0.00163943 0.000486443 0.000494138 -7.06595e-05
-0.00219055 0.000652706 0.000659077 -5.82727e-05
-0.00218407 0.000650788 0.000657122 -5.82726e-05
-0.00272042 0.000812933 0.000817494 -4.23645e-05
-0.00270425 0.00080812 0.000812627 -4.23645e-05
-0.00162481 0.000482153 0.000489712 -7.06589e-05
-0.00163456 0.000485013 0.000492662 -7.06593e-05
-0.00271233 0.000810526 0.00081506 -4.23645e-05
-0.00216463 0.000645035 0.000651256 -5.82724e-05
-0.00162969 0.000483583 0.000491187 -7.06591e-05
-0.00217759 0.000648871 0.000655166 -5.82725e-05
-0.00217111 0.000646953 0.000653211 -5.82725e-05
-0.00270425 0.00080812 0.000812627 -4.23645e-05
-0.00268808 0.000803306 0.00080776 -4.23644e-05
-0.00161507 0.000479293 0.000486761 -7.06585e-05
-0.00162481 0.000482153 0.000489712 -7.06589e-05
-0.00269616 0.000805713 0.000810193 -4.23645e-05
-0.00215168 0.0006412 0.000647347 -5.82722e-05
-0.00161994 0.000480723 0.000488236 -7.06587e-05
-0.00216463 0.000645035 0.000651256 -5.82724e-05
-0.00215815 0.000643118 0.000649302 -5.82723e-05
-0.00268808 0.000803306 0.00080776 -4.23644e-05
-0.00267191 0.000798493 0.000802893 -4.23644e-05
-0.00160533 0.000476432 0.000483811 -7.0658e-05
-0.00161507 0.000479293 0.000486761 -7.06585e-05
-0.00267999 0.0008009 0.000805326 -4.23644e-05
-0.00213872 0.000637364 0.000643437 -5.82719e-05
-0.0016102 0.000477863 0.000485286 -7.06583e-05
-0.00215168 0.0006412 0.000647347 -5.82722e-05
-0.0021452 0.000639282 0.000645392 -5.82721e-05
-0.00267191 0.000798493 0.000802893 -4.23644e-05
-0.00265574 0.00079368 0.000798027 -4.23643e-05
-0.00159558 0.000473572 0.000480862 -7.06575e-05
-0.00160533 0.000476432 0.000483811 -7.0658e-05
-0.00266383 0.000796086 0.00080046 -4.23643e-05
-0.00212576 0.000633528 0.000639528 -5.82717e-05
-0.00160045 0.000475002 0.000482337 -7.06578e-05
-0.00213872 0.000637364 0.000643437 -5.82719e-05
-0.00213224 0.000635446 0.000641483 -5.82718e-05
-0.00265574 0.00079368 0.000798027 -4.23643e-05
-0.00263957 0.000788866 0.00079316 -4.23642e-05
-0.00158584 0.000470711 0.000477913 -7.0657e-05
-0.00159558 0.000473572 0.000480862 -7.06575e-05
-0.00264766 0.000791273 0.000795593 -4.23642e-05
-0.0021128 0.000629692 0.00063562 -5.82714e-05
-0.00159071 0.000472141 0.000479387 -7.06573e-05
-0.00212576 0.000633528 0.000639528 -5.82717e-05
-0.00211928 0.00063161 0.000637574 -5.82715e-05
-0.00263957 0.000788866 0.00079316 -4.23642e-05
-0.00262341 0.000784053 0.000788294 -4.2364e-05
-0.0015761 0.00046785 0.000474964 -7.06565e-05
-0.00158584 0.000470711 0.000477913 -7.0657e-05
-0.00263149 0.00078646 0.000790727 -4.23641e-05
-0.00209985 0.000625856 0.000631711 -5.82711e-05
-0.00158097 0.00046928 0.000476438 -7.06567e-05
-0.0021128 0.000629692 0.00063562 -5.82714e-05
-0.00210633 0.000627774 0.000633665 -5.82712e-05
-0.00262341 0.000784053 0.000788294 -4.2364e-05
-0.00260724 0.00077924 0.000783429 -4.23639e-05
-0.00156636 0.000464988 0.000472015 -7.06559e-05
-0.0015761 0.00046785 0.000474964 -7.06565e-05
-0.00261532 0.000781646 0.000785862 -4.2364e-05
-0.00208689 0.00062202 0.000627803 -5.82707e-05
-0.00157123 0.000466419 0.000473489 -7.06562e-05
-0.00209985 0.000625856 0.000631711 -5.82711e-05
-0.00209337 0.000623938 0.000629757 -5.82709e-05
-0.00260724 0.00077924 0.000783429 -4.23639e-05
-0.00259107 0.000774426 0.000778563 -4.23637e-05
-0.00155662 0.000462127 0.000469067 -7.06553e-05
-0.00156636 0.000464988 0.000472015 -7.06559e-05
-0.00259916 0.000776833 0.000780996 -4.23638e-05
-0.00207394 0.000618184 0.000623895 -5.82703e-05
-0.00156149 0.000463558 0.000470541 -7.06556e-05
-0.00208689 0.00062202 0.000627803 -5.82707e-05
-0.00208042 0.000620102 0.000625849 -5.82705e-05
-0.00259107 0.000774426 0.000778563 -4.23637e-05
-0.00257491 0.000769613 0.000773698 -4.23635e-05
-0.00154688 0.000459265 0.000466119 -7.06546e-05
-0.00155662 0.000462127 0.000469067 -7.06553e-05
-0.00258299 0.000772019 0.000776131 -4.23636e-05
-0.00206099 0.000614347 0.000619988 -5.82699e-05
-0.00155175 0.000460696 0.000467593 -7.0655e-05
-0.00207394 0.000618184 0.000623895 -5.82703e-05
-0.00206746 0.000616266 0.000621942 -5.82701e-05
-0.00257491 0.000769613 0.000773698 -4.23635e-05
-0.00255874 0.000764799 0.000768833 -4.23633e-05
-0.00153714 0.000456404 0.000463171 -7.0654e-05
-0.00154688 0.000459265 0.000466119 -7.06546e-05
-0.00256683 0.000767206 0.000771266 -4.23634e-05
-0.00204803 0.000610511 0.000616081 -5.82695e-05
-0.00154201 0.000457834 0.000464645 -7.06543e-05
-0.00206099 0.000614347 0.000619988 -5.82699e-05
-0.00205451 0.000612429 0.000618034 -5.82697e-05
-0.00255874 0.000764799 0.000768833 -4.23633e-05
-0.00254258 0.000759985 0.000763969 -4.23631e-05
-0.0015274 0.000453542 0.000460224 -7.06533e-05
-0.00153714 0.000456404 0.000463171 -7.0654e-05
-0.00255066 0.000762392 0.000766401 -4.23632e-05
-0.00203508 0.000606674 0.000612174 -5.82691e-05
-0.00153227 0.000454973 0.000461698 -7.06536e-05
-0.00204803 0.000610511 0.000616081 -5.82695e-05
-0.00204156 0.000608592 0.000614127 -5.82693e-05
-0.00254258 0.000759985 0.000763969 -4.23631e-05
-0.00252642 0.000755172 0.000759105 -4.23628e-05
-0.00151766 0.000450679 0.000457277 -7.06526e-05
-0.0015274 0.000453542 0.000460224 -7.06533e-05
-0.0025345 0.000757578 0.000761537 -4.23629e-05
-0.00202213 0.000602837 0.000608267 -5.82686e-05
-0.00152253 0.00045211 0.000458751 -7.06529e-05
-0.00203508 0.000606674 0.000612174 -5.82691e-05
-0.0020286 0.000604756 0.000610221 -5.82689e-05
-0.00252642 0.000755172 0.000759105 -4.23628e-05
-0.00251025 0.000750358 0.000754241 -4.23626e-05
-0.00150792 0.000447817 0.000454331 -7.06519e-05
-0.00151766 0.000450679 0.000457277 -7.06526e-05
-0.00251833 0.000752765 0.000756673 -4.23627e-05
-0.00200918 0.000599 0.000604361 -5.82682e-05
-0.00151279 0.000449248 0.000455804 -7.06522e-05
-0.00202213 0.000602837 0.000608267 -5.82686e-05
-0.00201565 0.000600919 0.000606314 -5.82684e-05
-0.00251025 0.000750358 0.000754241 -4.23626e-05
-0.00249409 0.000745544 0.000749377 -4.23623e-05
-0.00149819 0.000444954 0.000451385 -7.06511e-05
-0.00150792 0.000447817 0.000454331 -7.06519e-05
-0.00250217 0.000747951 0.000751809 -4.23625e-05
-0.00199623 0.000595163 0.000600455 -5.82677e-05
-0.00150305 0.000446386 0.000452858 -7.06515e-05
-0.00200918 0.000599 0.000604361 -5.82682e-05
-0.0020027 0.000597082 0.000602408 -5.82679e-05
-0.00249409 0.000745544 0.000749377 -4.23623e-05
-0.00247793 0.00074073 0.000744513 -4.23621e-05
-0.00148845 0.000442092 0.000448439 -7.06504e-05
-0.00149819 0.000444954 0.000451385 -7.06511e-05
-0.00248601 0.000743137 0.000746945 -4.23622e-05
-0.00198328 0.000591326 0.00059655 -5.82672e-05
-0.00149332 0.000443523 0.000449912 -7.06508e-05
-0.00199623 0.000595163 0.000600455 -5.82677e-05
-0.00198975 0.000593245 0.000598502 -5.82675e-05
-0.00247793 0.00074073 0.000744513 -4.23621e-05
-0.00246177 0.000735917 0.00073965 -4.23618e-05
-0.00147871 0.000439229 0.000445494 -7.06496e-05
-0.00148845 0.000442092 0.000448439 -7.06504e-05
-0.00246985 0.000738323 0.000742082 -4.23619e-05
-0.00197033 0.000587489 0.000592644 -5.82667e-05
-0.00148358 0.00044066 0.000446966 -7.065e-05
-0.00198328 0.000591326 0.00059655 -5.82672e-05
-0.0019768 0.000589408 0.000594597 -5.8267e-05
-0.00246177 0.000735917 0.00073965 -4.23618e-05
-0.00244561 0.000731103 0.000734787 -4.23615e-05
-0.00146898 0.000436366 0.000442548 -7.06488e-05
-0.00147871 0.000439229 0.000445494 -7.06496e-05
-0.00245369 0.00073351 0.000737219 -4.23616e-05
-0.00195738 0.000583652 0.000588739 -5.82662e-05
-0.00147385 0.000437797 0.000444021 -7.06492e-05
-0.00197033 0.000587489 0.000592644 -5.82667e-05
-0.00196385 0.00058557 0.000590692 -5.82664e-05
-0.00244561 0.000731103 0.000734787 -4.23615e-05
-0.00242945 0.000726289 0.000729925 -4.23612e-05
-0.00145924 0.000433502 0.000439604 -7.0648e-05
-0.00146898 0.000436366 0.000442548 -7.06488e-05
-0.00243753 0.000728696 0.000732356 -4.23613e-05
-0.00194443 0.000579814 0.000584835 -5.82656e-05
-0.00146411 0.000434934 0.000441076 -7.06484e-05
-0.00195738 0.000583652 0.000588739 -5.82662e-05
-0.0019509 0.000581733 0.000586787 -5.82659e-05
-0.00242945 0.000726289 0.000729925 -4.23612e-05
-0.00241329 0.000721475 0.000725063 -4.23609e-05
-0.00144951 0.000430639 0.000436659 -7.06472e-05
-0.00145924 0.000433502 0.000439604 -7.0648e-05
-0.00242137 0.000723882 0.000727494 -4.2361e-05
-0.00193148 0.000575976 0.000580931 -5.82651e-05
-0.00145438 0.000432071 0.000438131 -7.06476e-05
-0.00194443 0.000579814 0.000584835 -5.82656e-05
-0.00193795 0.000577895 0.000582883 -5.82654e-05
-0.00241329 0.000721475 0.000725063 -4.23609e-05
-0.00239713 0.000716661 0.0007202 -4.23606e-05
-0.00143978 0.000427775 0.000433715 -7.06464e-05
-0.00144951 0.000430639 0.000436659 -7.06472e-05
-0.00240521 0.000719068 0.000722631 -4.23607e-05
-0.00191853 0.000572139 0.000577027 -5.82645e-05
-0.00144464 0.000429207 0.000435187 -7.06468e-05
-0.00193148 0.000575976 0.000580931 -5.82651e-05
-0.00192501 0.000574057 0.000578979 -5.82648e-05
-0.00239713 0.000716661 0.0007202 -4.23606e-05
-0.00238097 0.000711847 0.000715339 -4.23603e-05
-0.00143005 0.000424911 0.000430772 -7.06455e-05
-0.00143978 0.000427775 0.000433715 -7.06464e-05
-0.00238905 0.000714254 0.00071777 -4.23604e-05
-0.00190559 0.000568301 0.000573123 -5.8264e-05
-0.00143491 0.000426343 0.000432243 -7.0646e-05
-0.00191853 0.000572139 0.000577027 -5.82645e-05
-0.00191206 0.00057022 0.000575075 -5.82643e-05
-0.00238097 0.000711847 0.000715339 -4.23603e-05
-0.00236481 0.000707033 0.000710477 -4.23599e-05
-0.00142031 0.000422047 0.000427828 -7.06447e-05
-0.00143005 0.000424911 0.000430772 -7.06455e-05
-0.00237289 0.00070944 0.000712908 -4.23601e-05
-0.00189264 0.000564463 0.00056922 -5.82634e-05
-0.00142518 0.000423479 0.0004293 -7.06451e-05
-0.00190559 0.000568301 0.000573123 -5.8264e-05
-0.00189911 0.000566382 0.000571171 -5.82637e-05
-0.00236481 0.000707033 0.000710477 -4.23599e-05
-0.00234866 0.000702219 0.000705616 -4.23596e-05
-0.00141058 0.000419183 0.000424885 -7.06438e-05
-0.00142031 0.000422047 0.000427828 -7.06447e-05
-0.00235673 0.000704626 0.000708047 -4.23598e-05
-0.0018797 0.000560625 0.000565317 -5.82628e-05
-0.00141545 0.000420615 0.000426357 -7.06443e-05
-0.00189264 0.000564463 0.00056922 -5.82634e-05
-0.00188617 0.000562544 0.000567268 -5.82631e-05
-0.00234866 0.000702219 0.000705616 -4.23596e-05
-0.0023325 0.000697405 0.000700755 -4.23592e-05
-0.00140085 0.000416319 0.000421943 -7.06429e-05
-0.00141058 0.000419183 0.000424885 -7.06438e-05
-0.00234058 0.000699812 0.000703186 -4.23594e-05
-0.00186675 0.000556786 0.000561414 -5.82622e-05
-0.00140572 0.000417751 0.000423414 -7.06434e-05
-0.0018797 0.000560625 0.000565317 -5.82628e-05
-0.00187322 0.000558706 0.000563365 -5.82625e-05
-0.0023325 0.000697405 0.000700755 -4.23592e-05
-0.00231635 0.000692591 0.000695895 -4.23589e-05
-0.00139112 0.000413454 0.000419 -7.0642e-05
-0.00140085 0.000416319 0.000421943 -7.06429e-05
-0.00232442 0.000694998 0.000698325 -4.23591e-05
-0.00185381 0.000552948 0.000557512 -5.82616e-05
-0.00139599 0.000414886 0.000420472 -7.06425e-05
-0.00186675 0.000556786 0.000561414 -5.82622e-05
-0.00186028 0.000554867 0.000559463 -5.82619e-05
-0.00231635 0.000692591 0.000695895 -4.23589e-05
-0.00230019 0.000687777 0.000691035 -4.23585e-05
-0.00138139 0.000410589 0.000416059 -7.06411e-05
-0.00139112 0.000413454 0.000419 -7.0642e-05
-0.00230827 0.000690184 0.000693465 -4.23587e-05
-0.00184087 0.00054911 0.00055361 -5.8261e-05
-0.00138626 0.000412022 0.000417529 -7.06416e-05
-0.00185381 0.000552948 0.000557512 -5.82616e-05
-0.00184734 0.000551029 0.000555561 -5.82613e-05
-0.00230019 0.000687777 0.000691035 -4.23585e-05
-0.00228404 0.000682962 0.000686175 -4.23582e-05
-0.00137166 0.000407724 0.000413117 -7.06402e-05
-0.00138139 0.000410589 0.000416059 -7.06411e-05
-0.00229211 0.000685369 0.000688604 -4.23584e-05
-0.00182792 0.000545271 0.000549708 -5.82603e-05
-0.00137653 0.000409157 0.000414588 -7.06407e-05
-0.00184087 0.00054911 0.00055361 -5.8261e-05
-0.00183439 0.00054719 0.000551659 -5.82606e-05
-0.00228404 0.000682962 0.000686175 -4.23582e-05
-0.00226788 0.000678148 0.000681315 -4.23578e-05
-0.00136194 0.000404859 0.000410176 -7.06393e-05
-0.00137166 0.000407724 0.000413117 -7.06402e-05
-0.00227596 0.000680555 0.000683745 -4.2358e-05
-0.00181498 0.000541433 0.000545807 -5.82597e-05
-0.0013668 0.000406292 0.000411646 -7.06398e-05
-0.00182792 0.000545271 0.000549708 -5.82603e-05
-0.00182145 0.000543352 0.000547757 -5.826e-05
-0.00226788 0.000678148 0.000681315 -4.23578e-05
-0.00225173 0.000673334 0.000676455 -4.23574e-05
-0.00135221 0.000401994 0.000407235 -7.06383e-05
-0.00136194 0.000404859 0.000410176 -7.06393e-05
-0.00225981 0.000675741 0.000678885 -4.23576e-05
-0.00180204 0.000537594 0.000541906 -5.8259e-05
-0.00135707 0.000403426 0.000408705 -7.06388e-05
-0.00181498 0.000541433 0.000545807 -5.82597e-05
-0.00180851 0.000539513 0.000543856 -5.82594e-05
-0.00225173 0.000673334 0.000676455 -4.23574e-05
-0.00223558 0.00066852 0.000671596 -4.2357e-05
-0.00134248 0.000399128 0.000404294 -7.06374e-05
-0.00135221 0.000401994 0.000407235 -7.06383e-05
-0.00224365 0.000670927 0.000674026 -4.23572e-05
-0.0017891 0.000533755 0.000538005 -5.82584e-05
-0.00134735 0.000400561 0.000405765 -7.06379e-05
-0.00180204 0.000537594 0.000541906 -5.8259e-05
-0.00179557 0.000535674 0.000539956 -5.82587e-05
-0.00223558 0.00066852 0.000671596 -4.2357e-05
-0.00221943 0.000663705 0.000666738 -4.23566e-05
-0.00133276 0.000396263 0.000401354 -7.06364e-05
-0.00134248 0.000399128 0.000404294 -7.06374e-05
-0.0022275 0.000666113 0.000669167 -4.23568e-05
-0.00177616 0.000529916 0.000534105 -5.82577e-05
-0.00133762 0.000397695 0.000402824 -7.06369e-05
-0.0017891 0.000533755 0.000538005 -5.82584e-05
-0.00178263 0.000531835 0.000536055 -5.8258e-05
-0.00221943 0.000663705 0.000666738 -4.23566e-05
-0.00220328 0.000658891 0.000661879 -4.23562e-05
-0.00132303 0.000393397 0.000398415 -7.06355e-05
-0.00133276 0.000396263 0.000401354 -7.06364e-05
-0.00221135 0.000661298 0.000664308 -4.23564e-05
-0.00176322 0.000526077 0.000530205 -5.8257e-05
-0.00132789 0.00039483 0.000399884 -7.0636e-05
-0.00177616 0.000529916 0.000534105 -5.82577e-05
-0.00176969 0.000527996 0.000532155 -5.82574e-05
-0.00220328 0.000658891 0.000661879 -4.23562e-05
-0.00218713 0.000654077 0.000657021 -4.23558e-05
-0.00131331 0.000390531 0.000395475 -7.06345e-05
-0.00132303 0.000393397 0.000398415 -7.06355e-05
-0.0021952 0.000656484 0.00065945 -4.2356e-05
-0.00175028 0.000522238 0.000526305 -5.82564e-05
-0.00131817 0.000391964 0.000396945 -7.0635e-05
-0.00176322 0.000526077 0.000530205 -5.8257e-05
-0.00175675 0.000524157 0.000528255 -5.82567e-05
-0.00218713 0.000654077 0.000657021 -4.23558e-05
-0.00217098 0.000649263 0.000652163 -4.23554e-05
-0.00130358 0.000387664 0.000392536 -7.06335e-05
-0.00131331 0.000390531 0.000395475 -7.06345e-05
-0.00217905 0.00065167 0.000654592 -4.23556e-05
-0.00173735 0.000518398 0.000522406 -5.82557e-05
-0.00130844 0.000389098 0.000394006 -7.0634e-05
-0.00175028 0.000522238 0.000526305 -5.82564e-05
-0.00174381 0.000520318 0.000524356 -5.8256e-05
-0.00217098 0.000649263 0.000652163 -4.23554e-05
-0.00215483 0.000644448 0.000647305 -4.2355e-05
-0.00129386 0.000384798 0.000389597 -7.06325e-05
-0.00130358 0.000387664 0.000392536 -7.06335e-05
-0.0021629 0.000646855 0.000649734 -4.23552e-05
-0.00172441 0.000514559 0.000518507 -5.8255e-05
-0.00129872 0.000386231 0.000391067 -7.0633e-05
-0.00173735 0.000518398 0.000522406 -5.82557e-05
-0.00173088 0.000516479 0.000520456 -5.82553e-05
-0.00215483 0.000644448 0.000647305 -4.2355e-05
-0.00213868 0.000639634 0.000642448 -4.23546e-05
-0.00128414 0.000381931 0.000386659 -7.06315e-05
-0.00129386 0.000384798 0.000389597 -7.06325e-05
-0.00214675 0.000642041 0.000644877 -4.23548e-05
-0.00171147 0.000510719 0.000514608 -5.82543e-05
-0.001289 0.000383365 0.000388128 -7.0632e-05
-0.00172441 0.000514559 0.000518507 -5.8255e-05
-0.00171794 0.000512639 0.000516558 -5.82546e-05
-0.00213868 0.000639634 0.000642448 -4.23546e-05
-0.00212253 0.000634819 0.000637591 -4.23542e-05
-0.00127441 0.000379065 0.000383721 -7.06305e-05
-0.00128414 0.000381931 0.000386659 -7.06315e-05
-0.00213061 0.000637227 0.00064002 -4.23544e-05
-0.00169854 0.00050688 0.00051071 -5.82536e-05
-0.00127927 0.000380498 0.00038519 -7.0631e-05
-0.00171147 0.000510719 0.000514608 -5.82543e-05
-0.001705 0.0005088 0.000512659 -5.82539e-05
-0.00212253 0.000634819 0.000637591 -4.23542e-05
-0.00210639 0.000630005 0.000632734 -4.23537e-05
-0.00126469 0.000376198 0.000380783 -7.06295e-05
-0.00127441 0.000379065 0.000383721 -7.06305e-05
-0.00211446 0.000632412 0.000635163 -4.2354e-05
-0.0016856 0.00050304 0.000506812 -5.82529e-05
-0.00126955 0.000377631 0.000382252 -7.063e-05
-0.00169854 0.00050688 0.00051071 -5.82536e-05
-0.00169207 0.00050496 0.000508761 -5.82532e-05
-0.00210639 0.000630005 0.000632734 -4.23537e-05
-0.00209024 0.000625191 0.000627878 -4.23533e-05
-0.00125497 0.000373331 0.000377846 -7.06285e-05
-0.00126469 0.000376198 0.000380783 -7.06295e-05
-0.00209831 0.000627598 0.000630306 -4.23535e-05
-0.00167267 0.0004992 0.000502914 -5.82521e-05
-0.00125983 0.000374764 0.000379315 -7.0629e-05
-0.0016856 0.00050304 0.000506812 -5.82529e-05
-0.00167913 0.00050112 0.000504863 -5.82525e-05
-0.00209024 0.000625191 0.000627878 -4.23533e-05
-0.00207409 0.000620376 0.000623022 -4.23529e-05
-0.00124525 0.000370463 0.000374909 -7.06274e-05
-0.00125497 0.000373331 0.000377846 -7.06285e-05
-0.00208217 0.000622783 0.00062545 -4.23531e-05
-0.00165973 0.00049536 0.000499017 -5.82514e-05
-0.00125011 0.000371897 0.000376378 -7.06279e-05
-0.00167267 0.0004992 0.000502914 -5.82521e-05
-0.0016662 0.00049728 0.000500966 -5.82518e-05
-0.00207409 0.000620376 0.000623022 -4.23529e-05
-0.00205795 0.000615562 0.000618166 -4.23525e-05
-0.00123553 0.000367596 0.000371973 -7.06264e-05
-0.00124525 0.000370463 0.000374909 -7.06274e-05
-0.00206602 0.000617969 0.000620594 -4.23527e-05
-0.0016468 0.00049152 0.00049512 -5.82507e-05
-0.00124039 0.00036903 0.000373441 -7.06269e-05
-0.00165973 0.00049536 0.000499017 -5.82514e-05
-0.00165327 0.00049344 0.000497069 -5.82511e-05
-0.00205795 0.000615562 0.000618166 -4.23525e-05
-0.00204181 0.000610747 0.000613311 -4.2352e-05
-0.00122581 0.000364728 0.000369037 -7.06254e-05
-0.00123553 0.000367596 0.000371973 -7.06264e-05
-0.00204988 0.000613154 0.000615738 -4.23522e-05
-0.00163387 0.00048768 0.000491224 -5.825e-05
-0.00123067 0.000366162 0.000370505 -7.06259e-05
-0.0016468 0.00049152 0.00049512 -5.82507e-05
-0.00164033 0.0004896 0.000493172 -5.82503e-05
-0.00204181 0.000610747 0.000613311 -4.2352e-05
-0.00202566 0.000605933 0.000608456 -4.23516e-05
-0.0012161 0.00036186 0.000366101 -7.06243e-05
-0.00122581 0.000364728 0.000369037 -7.06254e-05
-0.00203373 0.00060834 0.000610883 -4.23518e-05
-0.00162094 0.00048384 0.000487327 -5.82492e-05
-0.00122095 0.000363294 0.000367569 -7.06248e-05
-0.00163387 0.00048768 0.000491224 -5.825e-05
-0.0016274 0.00048576 0.000489275 -5.82496e-05
-0.00202566 0.000605933 0.000608456 -4.23516e-05
-0.00200952 0.000601118 0.000603601 -4.23511e-05
-0.00120638 0.000358992 0.000363165 -7.06233e-05
-0.0012161 0.00036186 0.000366101 -7.06243e-05
-0.00201759 0.000603525 0.000606028 -4.23513e-05
-0.00160801 0.000479999 0.000483431 -5.82485e-05
-0.00121124 0.000360427 0.000364633 -7.06238e-05
-0.00162094 0.00048384 0.000487327 -5.82492e-05
-0.00161447 0.00048192 0.000485379 -5.82489e-05
-0.00200952 0.000601118 0.000603601 -4.23511e-05
-0.00199338 0.000596304 0.000598746 -4.23507e-05
-0.00119666 0.000356124 0.00036023 -7.06222e-05
-0.00120638 0.000358992 0.000363165 -7.06233e-05
-0.00200145 0.000598711 0.000601173 -4.23509e-05
-0.00159508 0.000476159 0.000479536 -5.82478e-05
-0.00120152 0.000357558 0.000361698 -7.06227e-05
-0.00160801 0.000479999 0.000483431 -5.82485e-05
-0.00160154 0.000478079 0.000481484 -5.82481e-05
-0.00199338 0.000596304 0.000598746 -4.23507e-05
-0.00197724 0.000591489 0.000593892 -4.23502e-05
-0.00118695 0.000353256 0.000357296 -7.06212e-05
-0.00119666 0.000356124 0.00036023 -7.06222e-05
-0.00198531 0.000593896 0.000596319 -4.23505e-05
-0.00158215 0.000472318 0.000475641 -5.8247e-05
-0.0011918 0.00035469 0.000358763 -7.06217e-05
-0.00159508 0.000476159 0.000479536 -5.82478e-05
-0.00158861 0.000474239 0.000477588 -5.82474e-05
-0.00197724 0.000591489 0.000593892 -4.23502e-05
-0.0019611 0.000586674 0.000589038 -4.23498e-05
-0.00117723 0.000350387 0.000354361 -7.06201e-05
-0.00118695 0.000353256 0.000357296 -7.06212e-05
-0.00196917 0.000589082 0.000591465 -4.235e-05
-0.00156922 0.000468478 0.000471746 -5.82463e-05
-0.00118209 0.000351822 0.000355828 -7.06206e-05
-0.00158215 0.000472318 0.000475641 -5.8247e-05
-0.00157568 0.000470398 0.000473693 -5.82466e-05
-0.0019611 0.000586674 0.000589038 -4.23498e-05
-0.00194496 0.00058186 0.000584184 -4.23493e-05
-0.00116752 0.000347519 0.000351427 -7.0619e-05
-0.00117723 0.000350387 0.000354361 -7.06201e-05
-0.00195303 0.000584267 0.000586611 -4.23495e-05
-0.00155629 0.000464637 0.000467851 -5.82455e-05
-0.00117237 0.000348953 0.000352894 -7.06196e-05
-0.00156922 0.000468478 0.000471746 -5.82463e-05
-0.00156275 0.000466557 0.000469798 -5.82459e-05
-0.00194496 0.00058186 0.000584184 -4.23493e-05
-0.00192882 0.000577045 0.000579331 -4.23489e-05
-0.0011578 0.00034465 0.000348494 -7.0618e-05
-0.00116752 0.000347519 0.000351427 -7.0619e-05
-0.00193689 0.000579453 0.000581757 -4.23491e-05
-0.00154336 0.000460796 0.000463957 -5.82448e-05
-0.00116266 0.000346084 0.00034996 -7.06185e-05
-0.00155629 0.000464637 0.000467851 -5.82455e-05
-0.00154983 0.000462717 0.000465904 -5.82451e-05
-0.00192882 0.000577045 0.000579331 -4.23489e-05
-0.00191268 0.000572231 0.000574478 -4.23484e-05
-0.00114809 0.000341781 0.00034556 -7.06169e-05
-0.0011578 0.00034465 0.000348494 -7.0618e-05
-0.00192075 0.000574638 0.000576904 -4.23486e-05
-0.00153044 0.000456955 0.000460063 -5.8244e-05
-0.00115294 0.000343215 0.000347027 -7.06174e-05
-0.00154336 0.000460796 0.000463957 -5.82448e-05
-0.0015369 0.000458876 0.00046201 -5.82444e-05
-0.00191268 0.000572231 0.000574478 -4.23484e-05
-0.00189654 0.000567416 0.000569625 -4.2348e-05
-0.00113838 0.000338912 0.000342627 -7.06158e-05
-0.00114809 0.000341781 0.00034556 -7.06169e-05
-0.00190461 0.000569823 0.000572051 -4.23482e-05
-0.00151751 0.000453114 0.000456169 -5.82432e-05
-0.00114323 0.000340346 0.000344094 -7.06164e-05
-0.00153044 0.000456955 0.000460063 -5.8244e-05
-0.00152397 0.000455035 0.000458116 -5.82436e-05
-0.00189654 0.000567416 0.000569625 -4.2348e-05
-0.0018804 0.000562601 0.000564773 -4.23475e-05
-0.00112866 0.000336042 0.000339695 -7.06148e-05
-0.00113838 0.000338912 0.000342627 -7.06158e-05
-0.00188847 0.000565009 0.000567199 -4.23477e-05
-0.00150458 0.000449273 0.000452276 -5.82425e-05
-0.00113352 0.000337477 0.000341161 -7.06153e-05
-0.00151751 0.000453114 0.000456169 -5.82432e-05
-0.00151105 0.000451193 0.000454223 -5.82429e-05
-0.0018804 0.000562601 0.000564773 -4.23475e-05
-0.00186427 0.000557787 0.00055992 -4.2347e-05
-0.00111895 0.000333173 0.000336763 -7.06137e-05
-0.00112866 0.000336042 0.000339695 -7.06148e-05
-0.00187234 0.000560194 0.000562347 -4.23473e-05
-0.00149166 0.000445431 0.000448383 -5.82417e-05
-0.00112381 0.000334607 0.000338229 -7.06142e-05
-0.00150458 0.000449273 0.000452276 -5.82425e-05
-0.00149812 0.000447352 0.00045033 -5.82421e-05
-0.00186427 0.000557787 0.00055992 -4.2347e-05
-0.00184813 0.000552972 0.000555069 -4.23466e-05
-0.00110924 0.000330303 0.000333831 -7.06126e-05
-0.00111895 0.000333173 0.000336763 -7.06137e-05
-0.0018562 0.000555379 0.000557495 -4.23468e-05
-0.00147874 0.00044159 0.000444491 -5.8241e-05
-0.0011141 0.000331738 0.000335297 -7.06132e-05
-0.00149166 0.000445431 0.000448383 -5.82417e-05
-0.0014852 0.000443511 0.000446437 -5.82414e-05
-0.00184813 0.000552972 0.000555069 -4.23466e-05
-0.001832 0.000548157 0.000550217 -4.23461e-05
-0.00109953 0.000327433 0.000330899 -7.06116e-05
-0.00110924 0.000330303 0.000333831 -7.06126e-05
-0.00184006 0.000550564 0.000552643 -4.23463e-05
-0.00146581 0.000437749 0.000440599 -5.82402e-05
-0.00110439 0.000328868 0.000332365 -7.06121e-05
-0.00147874 0.00044159 0.000444491 -5.8241e-05
-0.00147227 0.000439669 0.000442545 -5.82406e-05
-0.001832 0.000548157 0.000550217 -4.23461e-05
-0.00181586 0.000543342 0.000545366 -4.23457e-05
-0.00108982 0.000324563 0.000327968 -7.06105e-05
-0.00109953 0.000327433 0.000330899 -7.06116e-05
-0.00182393 0.00054575 0.000547791 -4.23459e-05
-0.00145289 0.000433907 0.000436707 -5.82395e-05
-0.00109468 0.000325998 0.000329434 -7.0611e-05
-0.00146581 0.000437749 0.000440599 -5.82402e-05
-0.00145935 0.000435828 0.000438653 -5.82398e-05
-0.00181586 0.000543342 0.000545366 -4.23457e-05
-0.00179973 0.000538528 0.000540515 -4.23452e-05
-0.00108011 0.000321693 0.000325038 -7.06094e-05
-0.00108982 0.000324563 0.000327968 -7.06105e-05
-0.0018078 0.000540935 0.00054294 -4.23454e-05
-0.00143997 0.000430065 0.000432815 -5.82387e-05
-0.00108497 0.000323128 0.000326503 -7.06099e-05
-0.00145289 0.000433907 0.000436707 -5.82395e-05
-0.00144643 0.000431986 0.000434761 -5.82391e-05
-0.00179973 0.000538528 0.000540515 -4.23452e-05
-0.0017836 0.000533713 0.000535664 -4.23447e-05
-0.00107041 0.000318822 0.000322107 -7.06083e-05
-0.00108011 0.000321693 0.000325038 -7.06094e-05
-0.00179166 0.00053612 0.00053809 -4.2345e-05
-0.00142705 0.000426223 0.000428924 -5.82379e-05
-0.00107526 0.000320257 0.000323572 -7.06089e-05
-0.00143997 0.000430065 0.000432815 -5.82387e-05
-0.00143351 0.000428144 0.00043087 -5.82383e-05
-0.0017836 0.000533713 0.000535664 -4.23447e-05
-0.00176746 0.000528898 0.000530814 -4.23443e-05
-0.0010607 0.000315952 0.000319177 -7.06073e-05
-0.00107041 0.000318822 0.000322107 -7.06083e-05
-0.00177553 0.000531305 0.000533239 -4.23445e-05
-0.00141413 0.000422382 0.000425033 -5.82372e-05
-0.00106555 0.000317387 0.000320642 -7.06078e-05
-0.00142705 0.000426223 0.000428924 -5.82379e-05
-0.00142059 0.000424303 0.000426979 -5.82376e-05
-0.00176746 0.000528898 0.000530814 -4.23443e-05
-0.00175133 0.000524083 0.000525964 -4.23438e-05
-0.00105099 0.000313081 0.000316248 -7.06062e-05
-0.0010607 0.000315952 0.000319177 -7.06073e-05
-0.0017594 0.000526491 0.000528389 -4.23441e-05
-0.00140121 0.00041854 0.000421143 -5.82364e-05
-0.00105585 0.000314516 0.000317712 -7.06067e-05
-0.00141413 0.000422382 0.000425033 -5.82372e-05
-0.00140767 0.000420461 0.000423088 -5.82368e-05
-0.00175133 0.000524083 0.000525964 -4.23438e-05
-0.0017352 0.000519268 0.000521114 -4.23434e-05
-0.00104129 0.00031021 0.000313318 -7.06051e-05
-0.00105099 0.000313081 0.000316248 -7.06062e-05
-0.00174327 0.000521676 0.000523539 -4.23436e-05
-0.00138829 0.000414697 0.000417253 -5.82357e-05
-0.00104614 0.000311645 0.000314783 -7.06057e-05
-0.00140121 0.00041854 0.000421143 -5.82364e-05
-0.00139475 0.000416619 0.000419198 -5.82361e-05
-0.0017352 0.000519268 0.000521114 -4.23434e-05
-0.00171907 0.000514454 0.000516265 -4.23429e-05
-0.00103158 0.000307339 0.000310389 -7.06041e-05
-0.00104129 0.00031021 0.000313318 -7.06051e-05
-0.00172714 0.000516861 0.00051869 -4.23431e-05
-0.00137537 0.000410855 0.000413363 -5.82349e-05
-0.00103643 0.000308774 0.000311854 -7.06046e-05
-0.00138829 0.000414697 0.000417253 -5.82357e-05
-0.00138183 0.000412776 0.000415308 -5.82353e-05
-0.00171907 0.000514454 0.000516265 -4.23429e-05
-0.00170294 0.000509639 0.000511416 -4.23425e-05
-0.00102188 0.000304467 0.000307461 -7.0603e-05
-0.00103158 0.000307339 0.000310389 -7.06041e-05
-0.00171101 0.000512046 0.00051384 -4.23427e-05
-0.00136245 0.000407013 0.000409473 -5.82342e-05
-0.00102673 0.000305903 0.000308925 -7.06035e-05
-0.00137537 0.000410855 0.000413363 -5.82349e-05
-0.00136891 0.000408934 0.000411418 -5.82346e-05
-0.00170294 0.000509639 0.000511416 -4.23425e-05
-0.00168681 0.000504824 0.000506567 -4.2342e-05
-0.00101217 0.000301596 0.000304533 -7.0602e-05
-0.00102188 0.000304467 0.000307461 -7.0603e-05
-0.00169488 0.000507231 0.000508991 -4.23422e-05
-0.00134953 0.00040317 0.000405584 -5.82334e-05
-0.00101702 0.000303032 0.000305997 -7.06025e-05
-0.00136245 0.000407013 0.000409473 -5.82342e-05
-0.00135599 0.000405092 0.000407529 -5.82338e-05
-0.00168681 0.000504824 0.000506567 -4.2342e-05
-0.00167069 0.000500009 0.000501719 -4.23416e-05
-0.00100247 0.000298724 0.000301605 -7.06009e-05
-0.00101217 0.000301596 0.000304533 -7.0602e-05
-0.00167875 0.000502416 0.000504143 -4.23418e-05
-0.00133662 0.000399328 0.000401695 -5.82327e-05
-0.00100732 0.00030016 0.000303069 -7.06014e-05
-0.00134953 0.00040317 0.000405584 -5.82334e-05
-0.00134308 0.000401249 0.00040364 -5.82331e-05
-0.00167069 0.000500009 0.000501719 -4.23416e-05
-0.00165456 0.000495194 0.00049687 -4.23411e-05
-0.000992766 0.000295852 0.000298677 -7.05998e-05
-0.00100247 0.000298724 0.000301605 -7.06009e-05
-0.00166262 0.000497602 0.000499295 -4.23413e-05
-0.0013237 0.000395485 0.000397807 -5.82319e-05
-0.000997617 0.000297288 0.000300141 -7.06004e-05
-0.00133662 0.000399328 0.000401695 -5.82327e-05
-0.00133016 0.000397407 0.000399751 -5.82323e-05
-0.00165456 0.000495194 0.00049687 -4.23411e-05
-0.00163843 0.000490379 0.000492023 -4.23407e-05
-0.000983064 0.00029298 0.00029575 -7.05988e-05
-0.000992766 0.000295852 0.000298677 -7.05998e-05
-0.0016465 0.000492787 0.000494447 -4.23409e-05
-0.00131079 0.000391643 0.000393919 -5.82312e-05
-0.000987915 0.000294416 0.000297214 -7.05993e-05
-0.0013237 0.000395485 0.000397807 -5.82319e-05
-0.00131724 0.000393564 0.000395863 -5.82316e-05
-0.00163843 0.000490379 0.000492023 -4.23407e-05
-0.00162231 0.000485564 0.000487175 -4.23402e-05
-0.000973363 0.000290108 0.000292824 -7.05978e-05
-0.000983064 0.00029298 0.00029575 -7.05988e-05
-0.00163037 0.000487972 0.000489599 -4.23404e-05
-0.00129787 0.0003878 0.000390031 -5.82305e-05
-0.000978213 0.000291544 0.000294287 -7.05983e-05
-0.00131079 0.000391643 0.000393919 -5.82312e-05
-0.00130433 0.000389721 0.000391975 -5.82308e-05
-0.00162231 0.000485564 0.000487175 -4.23402e-05
-0.00160618 0.000480749 0.000482328 -4.23398e-05
-0.000963662 0.000287236 0.000289897 -7.05967e-05
-0.000973363 0.000290108 0.000292824 -7.05978e-05
-0.00161424 0.000483157 0.000484751 -4.234e-05
-0.00128496 0.000383957 0.000386143 -5.82297e-05
-0.000968512 0.000288672 0.00029136 -7.05972e-05
-0.00129787 0.0003878 0.000390031 -5.82305e-05
-0.00129141 0.000385878 0.000388087 -5.82301e-05
-0.00160618 0.000480749 0.000482328 -4.23398e-05
-0.00159006 0.000475934 0.000477481 -4.23393e-05
-0.000953962 0.000284363 0.000286971 -7.05957e-05
-0.000963662 0.000287236 0.000289897 -7.05967e-05
-0.00159812 0.000478342 0.000479904 -4.23396e-05
-0.00127205 0.000380114 0.000382256 -5.8229e-05
-0.000958812 0.000285799 0.000288434 -7.05962e-05
-0.00128496 0.000383957 0.000386143 -5.82297e-05
-0.0012785 0.000382035 0.0003842 -5.82294e-05
-0.00159006 0.000475934 0.000477481 -4.23393e-05
-0.00157393 0.000471119 0.000472634 -4.23389e-05
-0.000944263 0.00028149 0.000284045 -7.05946e-05
-0.000953962 0.000284363 0.000286971 -7.05957e-05
-0.00158199 0.000473527 0.000475057 -4.23391e-05
-0.00125913 0.00037627 0.00037837 -5.82283e-05
-0.000949113 0.000282927 0.000285508 -7.05952e-05
-0.00127205 0.000380114 0.000382256 -5.8229e-05
-0.00126559 0.000378192 0.000380313 -5.82287e-05
-0.00157393 0.000471119 0.000472634 -4.23389e-05
-0.00155781 0.000466304 0.000467788 -4.23385e-05
-0.000934564 0.000278617 0.00028112 -7.05936e-05
-0.000944263 0.00028149 0.000284045 -7.05946e-05
-0.00156587 0.000468712 0.000470211 -4.23387e-05
-0.00124622 0.000372427 0.000374483 -5.82276e-05
-0.000939414 0.000280054 0.000282583 -7.05941e-05
-0.00125913 0.00037627 0.00037837 -5.82283e-05
-0.00125268 0.000374349 0.000376426 -5.82279e-05
-0.00155781 0.000466304 0.000467788 -4.23385e-05
-0.00154169 0.000461489 0.000462942 -4.23381e-05
-0.000924866 0.000275744 0.000278195 -7.05926e-05
-0.000934564 0.000278617 0.00028112 -7.05936e-05
-0.00154975 0.000463897 0.000465365 -4.23383e-05
-0.00123331 0.000368584 0.000370597 -5.82269e-05
-0.000929715 0.000277181 0.000279658 -7.05931e-05
-0.00124622 0.000372427 0.000374483 -5.82276e-05
-0.00123977 0.000370506 0.00037254 -5.82272e-05
-0.00154169 0.000461489 0.000462942 -4.23381e-05
-0.00152556 0.000456674 0.000458096 -4.23376e-05
-0.000915169 0.000272871 0.000275271 -7.05916e-05
-0.000924866 0.000275744 0.000278195 -7.05926e-05
-0.00153363 0.000459082 0.000460519 -4.23378e-05
-0.0012204 0.00036474 0.000366711 -5.82261e-05
-0.000920018 0.000274308 0.000276733 -7.05921e-05
-0.00123331 0.000368584 0.000370597 -5.82269e-05
-0.00122686 0.000366662 0.000368654 -5.82265e-05
-0.00152556 0.000456674 0.000458096 -4.23376e-05
-0.00150944 0.000451859 0.000453251 -4.23372e-05
-0.000905473 0.000269998 0.000272346 -7.05906e-05
-0.000915169 0.000272871 0.000275271 -7.05916e-05
-0.0015175 0.000454267 0.000455673 -4.23374e-05
-0.00120749 0.000360897 0.000362826 -5.82254e-05
-0.000910321 0.000271434 0.000273808 -7.05911e-05
-0.0012204 0.00036474 0.000366711 -5.82261e-05
-0.00121395 0.000362819 0.000364769 -5.82258e-05
-0.00150944 0.000451859 0.000453251 -4.23372e-05
-0.00149332 0.000447044 0.000448405 -4.23368e-05
-0.000895777 0.000267124 0.000269423 -7.05896e-05
-0.000905473 0.000269998 0.000272346 -7.05906e-05
-0.00150138 0.000449451 0.000450828 -4.2337e-05
-0.00119458 0.000357053 0.000358941 -5.82247e-05
-0.000900624 0.000268561 0.000270884 -7.05901e-05
-0.00120749 0.000360897 0.000362826 -5.82254e-05
-0.00120104 0.000358975 0.000360883 -5.82251e-05
-0.00149332 0.000447044 0.000448405 -4.23368e-05
-0.0014772 0.000442229 0.000443561 -4.23364e-05
-0.000886081 0.00026425 0.000266499 -7.05886e-05
-0.000895777 0.000267124 0.000269423 -7.05896e-05
-0.00148526 0.000444636 0.000445983 -4.23366e-05
-0.00118167 0.000353209 0.000355056 -5.8224e-05
-0.000890929 0.000265687 0.000267961 -7.05891e-05
-0.00119458 0.000357053 0.000358941 -5.82247e-05
-0.00118813 0.000355131 0.000356998 -5.82244e-05
-0.0014772 0.000442229 0.000443561 -4.23364e-05
-0.00146108 0.000437414 0.000438716 -4.2336e-05
-0.000876387 0.000261376 0.000263576 -7.05876e-05
-0.000886081 0.00026425 0.000266499 -7.05886e-05
-0.00146914 0.000439821 0.000441138 -4.23362e-05
-0.00116877 0.000349365 0.000351172 -5.82234e-05
-0.000881234 0.000262813 0.000265037 -7.05881e-05
-0.00118167 0.000353209 0.000355056 -5.8224e-05
-0.00117522 0.000351287 0.000353114 -5.82237e-05
-0.00146108 0.000437414 0.000438716 -4.2336e-05
-0.00144497 0.000432598 0.000433872 -4.23356e-05
-0.000866693 0.000258502 0.000260653 -7.05866e-05
-0.000876387 0.000261376 0.000263576 -7.05876e-05
-0.00145302 0.000435006 0.000436294 -4.23358e-05
-0.00115586 0.000345521 0.000347288 -5.82227e-05
-0.00087154 0.000259939 0.000262114 -7.05871e-05
-0.00116877 0.000349365 0.000351172 -5.82234e-05
-0.00116231 0.000347443 0.00034923 -5.8223e-05
-0.00144497 0.000432598 0.000433872 -4.23356e-05
-0.00142885 0.000427783 0.000429028 -4.23352e-05
-0.000856999 0.000255628 0.000257731 -7.05856e-05
-0.000866693 0.000258502 0.000260653 -7.05866e-05
-0.00143691 0.000430191 0.00043145 -4.23354e-05
-0.00114295 0.000341677 0.000343404 -5.8222e-05
-0.000861846 0.000257065 0.000259192 -7.05861e-05
-0.00115586 0.000345521 0.000347288 -5.82227e-05
-0.00114941 0.000343599 0.000345346 -5.82223e-05
-0.00142885 0.000427783 0.000429028 -4.23352e-05
-0.00141273 0.000422968 0.000424184 -4.23348e-05
-0.000847307 0.000252753 0.000254809 -7.05847e-05
-0.000856999 0.000255628 0.000257731 -7.05856e-05
-0.00142079 0.000425376 0.000426606 -4.2335e-05
-0.00113005 0.000337833 0.00033952 -5.82213e-05
-0.000852153 0.00025419 0.00025627 -7.05852e-05
-0.00114295 0.000341677 0.000343404 -5.8222e-05
-0.0011365 0.000339755 0.000341462 -5.82217e-05
-0.00141273 0.000422968 0.000424184 -4.23348e-05
-0.00139661 0.000418153 0.000419341 -4.23344e-05
-0.000837615 0.000249878 0.000251887 -7.05837e-05
-0.000847307 0.000252753 0.000254809 -7.05847e-05
-0.00140467 0.00042056 0.000421762 -4.23346e-05
-0.00111714 0.000333989 0.000335637 -5.82207e-05
-0.000842461 0.000251316 0.000253348 -7.05842e-05
-0.00113005 0.000337833 0.00033952 -5.82213e-05
-0.00112359 0.000335911 0.000337579 -5.8221e-05
-0.00139661 0.000418153 0.000419341 -4.23344e-05
-0.0013805 0.000413337 0.000414498 -4.2334e-05
-0.000827923 0.000247004 0.000248966 -7.05828e-05
-0.000837615 0.000249878 0.000251887 -7.05837e-05
-0.00138856 0.000415745 0.000416919 -4.23342e-05
-0.00110424 0.000330144 0.000331755 -5.822e-05
-0.000832769 0.000248441 0.000250426 -7.05832e-05
-0.00111714 0.000333989 0.000335637 -5.82207e-05
-0.00111069 0.000332066 0.000333696 -5.82203e-05
-0.0013805 0.000413337 0.000414498 -4.2334e-05
-0.00136438 0.000408522 0.000409655 -4.23336e-05
-0.000818232 0.000244128 0.000246045 -7.05818e-05
-0.000827923 0.000247004 0.000248966 -7.05828e-05
-0.00137244 0.00041093 0.000412076 -4.23338e-05
-0.00109133 0.000326299 0.000327872 -5.82194e-05
-0.000823078 0.000245566 0.000247505 -7.05823e-05
-0.00110424 0.000330144 0.000331755 -5.822e-05
-0.00109779 0.000328222 0.000329813 -5.82197e-05
-0.00136438 0.000408522 0.000409655 -4.23336e-05
-0.00134827 0.000403707 0.000404813 -4.23332e-05
-0.000808542 0.000241253 0.000243124 -7.05809e-05
-0.000818232 0.000244128 0.000246045 -7.05818e-05
-0.00135633 0.000406114 0.000407234 -4.23334e-05
-0.00107843 0.000322455 0.00032399 -5.82187e-05
-0.000813387 0.000242691 0.000244584 -7.05814e-05
-0.00109133 0.000326299 0.000327872 -5.82194e-05
-0.00108488 0.000324377 0.000325931 -5.8219e-05
-0.00134827 0.000403707 0.000404813 -4.23332e-05
-0.00133216 0.000398891 0.00039997 -4.23329e-05
-0.000798853 0.000238378 0.000240204 -7.058e-05
-0.000808542 0.000241253 0.000243124 -7.05809e-05
-0.00134021 0.000401299 0.000402391 -4.2333e-05
-0.00106553 0.00031861 0.000320108 -5.82181e-05
-0.000803698 0.000239816 0.000241664 -7.05804e-05
-0.00107843 0.000322455 0.00032399 -5.82187e-05
-0.00107198 0.000320532 0.000322049 -5.82184e-05
-0.00133216 0.000398891 0.00039997 -4.23329e-05
-0.00131604 0.000394076 0.000395128 -4.23325e-05
-0.000789164 0.000235502 0.000237284 -7.05791e-05
-0.000798853 0.000238378 0.000240204 -7.058e-05
-0.0013241 0.000396484 0.000397549 -4.23327e-05
-0.00105263 0.000314765 0.000316227 -5.82175e-05
-0.000794009 0.00023694 0.000238744 -7.05795e-05
-0.00106553 0.00031861 0.000320108 -5.82181e-05
-0.00105908 0.000316688 0.000318168 -5.82178e-05
-0.00131604 0.000394076 0.000395128 -4.23325e-05
-0.00129993 0.000389261 0.000390287 -4.23321e-05
-0.000779476 0.000232626 0.000234364 -7.05782e-05
-0.000789164 0.000235502 0.000237284 -7.05791e-05
-0.00130799 0.000391668 0.000392708 -4.23323e-05
-0.00103973 0.00031092 0.000312346 -5.82168e-05
-0.00078432 0.000234064 0.000235824 -7.05786e-05
-0.00105263 0.000314765 0.000316227 -5.82175e-05
-0.00104618 0.000312843 0.000314286 -5.82171e-05
-0.00129993 0.000389261 0.000390287 -4.23321e-05
-0.00128382 0.000384445 0.000385446 -4.23318e-05
-0.000769789 0.00022975 0.000231445 -7.05773e-05
-0.000779476 0.000232626 0.000234364 -7.05782e-05
-0.00129187 0.000386853 0.000387866 -4.2332e-05
-0.00102683 0.000307075 0.000308465 -5.82162e-05
-0.000774632 0.000231188 0.000232905 -7.05777e-05
-0.00103973 0.00031092 0.000312346 -5.82168e-05
-0.00103328 0.000308998 0.000310405 -5.82165e-05
-0.00128382 0.000384445 0.000385446 -4.23318e-05
-0.00126771 0.00037963 0.000380605 -4.23314e-05
-0.000760102 0.000226874 0.000228526 -7.05764e-05
-0.000769789 0.00022975 0.000231445 -7.05773e-05
-0.00127576 0.000382037 0.000383025 -4.23316e-05
-0.00101393 0.00030323 0.000304585 -5.82156e-05
-0.000764945 0.000228312 0.000229985 -7.05768e-05
-0.00102683 0.000307075 0.000308465 -5.82162e-05
-0.00102038 0.000305152 0.000306525 -5.82159e-05
-0.00126771 0.00037963 0.000380605 -4.23314e-05
-0.0012516 0.000374814 0.000375764 -4.23311e-05
-0.000750416 0.000223998 0.000225608 -7.05755e-05
-0.000760102 0.000226874 0.000228526 -7.05764e-05
-0.00125965 0.000377222 0.000378184 -4.23313e-05
-0.00100103 0.000299384 0.000300705 -5.8215e-05
-0.000755259 0.000225436 0.000227067 -7.0576e-05
-0.00101393 0.00030323 0.000304585 -5.82156e-05
-0.00100748 0.000301307 0.000302645 -5.82153e-05
-0.0012516 0.000374814 0.000375764 -4.23311e-05
-0.00123549 0.000369999 0.000370923 -4.23308e-05
-0.00074073 0.000221121 0.000222689 -7.05747e-05
-0.000750416 0.000223998 0.000225608 -7.05755e-05
-0.00124354 0.000372406 0.000373344 -4.23309e-05
-0.00098813 0.000295539 0.000296825 -5.82145e-05
-0.000745573 0.00022256 0.000224148 -7.05751e-05
-0.00100103 0.000299384 0.000300705 -5.8215e-05
-0.000994579 0.000297462 0.000298765 -5.82147e-05
-0.00123549 0.000369999 0.000370923 -4.23308e-05
-0.00121938 0.000365183 0.000366083 -4.23304e-05
-0.000731045 0.000218245 0.000219772 -7.05738e-05
-0.00074073 0.000221121 0.000222689 -7.05747e-05
-0.00122743 0.000367591 0.000368503 -4.23306e-05
-0.000975233 0.000291693 0.000292945 -5.82139e-05
-0.000735888 0.000219683 0.000221231 -7.05742e-05
-0.00098813 0.000295539 0.000296825 -5.82145e-05
-0.000981681 0.000293616 0.000294885 -5.82142e-05
-0.00121938 0.000365183 0.000366083 -4.23304e-05
-0.00120327 0.000360367 0.000361243 -4.23301e-05
-0.000721361 0.000215368 0.000216854 -7.0573e-05
-0.000731045 0.000218245 0.000219772 -7.05738e-05
-0.00121132 0.000362775 0.000363663 -4.23303e-05
-0.000962336 0.000287847 0.000289066 -5.82133e-05
-0.000726203 0.000216806 0.000218313 -7.05734e-05
-0.000975233 0.000291693 0.000292945 -5.82139e-05
-0.000968784 0.00028977 0.000291006 -5.82136e-05
-0.00120327 0.000360367 0.000361243 -4.23301e-05
-0.00118716 0.000355552 0.000356404 -4.23298e-05
-0.000711677 0.000212491 0.000213937 -7.05722e-05
-0.000721361 0.000215368 0.000216854 -7.0573e-05
-0.00119521 0.00035796 0.000358824 -4.233e-05
-0.000949439 0.000284002 0.000285188 -5.82128e-05
-0.000716519 0.000213929 0.000215396 -7.05726e-05
-0.000962336 0.000287847 0.000289066 -5.82133e-05
-0.000955887 0.000285925 0.000287127 -5.8213e-05
-0.00118716 0.000355552 0.000356404 -4.23298e-05
-0.00117105 0.000350736 0.000351565 -4.23295e-05
-0.000701994 0.000209613 0.00021102 -7.05713e-05
-0.000711677 0.000212491 0.000213937 -7.05722e-05
-0.00117911 0.000353144 0.000353984 -4.23297e-05
-0.000936544 0.000280156 0.000281309 -5.82122e-05
-0.000706836 0.000211052 0.000212479 -7.05717e-05
-0.000949439 0.000284002 0.000285188 -5.82128e-05
-0.000942991 0.000282079 0.000283248 -5.82125e-05
-0.00117105 0.000350736 0.000351565 -4.23295e-05
-0.00115495 0.00034592 0.000346726 -4.23292e-05
-0.000692312 0.000206736 0.000208104 -7.05705e-05
-0.000701994 0.000209613 0.00021102 -7.05713e-05
-0.001163 0.000348328 0.000349145 -4.23293e-05
-0.000923649 0.00027631 0.000277431 -5.82117e-05
-0.000697153 0.000208175 0.000209562 -7.05709e-05
-0.000936544 0.000280156 0.000281309 -5.82122e-05
-0.000930096 0.000278233 0.00027937 -5.82119e-05
-0.00115495 0.00034592 0.000346726 -4.23292e-05
-0.00113884 0.000341105 0.000341887 -4.23289e-05
-0.00068263 0.000203858 0.000205188 -7.05697e-05
-0.000692312 0.000206736 0.000208104 -7.05705e-05
-0.00114689 0.000343512 0.000344306 -4.23291e-05
-0.000910754 0.000272463 0.000273553 -5.82111e-05
-0.000687471 0.000205297 0.000206646 -7.05701e-05
-0.000923649 0.00027631 0.000277431 -5.82117e-05
-0.000917201 0.000274387 0.000275492 -5.82114e-05
-0.00113884 0.000341105 0.000341887 -4.23289e-05
-0.00112274 0.000336289 0.000337049 -4.23286e-05
-0.000672949 0.00020098 0.000202272 -7.0569e-05
-0.00068263 0.000203858 0.000205188 -7.05697e-05
-0.00113079 0.000338697 0.000339468 -4.23288e-05
-0.00089786 0.000268617 0.000269676 -5.82106e-05
-0.00067779 0.000202419 0.00020373 -7.05693e-05
-0.000910754 0.000272463 0.000273553 -5.82111e-05
-0.000904307 0.00027054 0.000271614 -5.82109e-05
-0.00112274 0.000336289 0.000337049 -4.23286e-05
-0.00110663 0.000331473 0.000332211 -4.23283e-05
-0.000663269 0.000198102 0.000199357 -7.05682e-05
-0.000672949 0.00020098 0.000202272 -7.0569e-05
-0.00111468 0.000333881 0.00033463 -4.23285e-05
-0.000884967 0.000264771 0.000265799 -5.82101e-05
-0.000668109 0.000199541 0.000200815 -7.05686e-05
-0.00089786 0.000268617 0.000269676 -5.82106e-05
-0.000891414 0.000266694 0.000267737 -5.82104e-05
-0.00110663 0.000331473 0.000332211 -4.23283e-05
-0.00109053 0.000326657 0.000327373 -4.23281e-05
-0.000653589 0.000195224 0.000196442 -7.05674e-05
-0.000663269 0.000198102 0.000199357 -7.05682e-05
-0.00109858 0.000329065 0.000329792 -4.23282e-05
-0.000872075 0.000260924 0.000261922 -5.82096e-05
-0.000658429 0.000196663 0.000197899 -7.05678e-05
-0.000884967 0.000264771 0.000265799 -5.82101e-05
-0.000878521 0.000262847 0.00026386 -5.82099e-05
-0.00109053 0.000326657 0.000327373 -4.23281e-05
-0.00107442 0.000321841 0.000322535 -4.23278e-05
-0.00064391 0.000192346 0.000193527 -7.05667e-05
-0.000653589 0.000195224 0.000196442 -7.05674e-05
-0.00108247 0.000324249 0.000324954 -4.23279e-05
-0.000859183 0.000257077 0.000258045 -5.82091e-05
-0.000648749 0.000193785 0.000194985 -7.05671e-05
-0.000872075 0.000260924 0.000261922 -5.82096e-05
-0.000865629 0.000259001 0.000259983 -5.82094e-05
-0.00107442 0.000321841 0.000322535 -4.23278e-05
-0.00105832 0.000317025 0.000317698 -4.23276e-05
-0.000634231 0.000189467 0.000190613 -7.0566e-05
-0.00064391 0.000192346 0.000193527 -7.05667e-05
-0.00106637 0.000319433 0.000320116 -4.23277e-05
-0.000846292 0.000253231 0.000254169 -5.82087e-05
-0.00063907 0.000190907 0.00019207 -7.05663e-05
-0.000859183 0.000257077 0.000258045 -5.82091e-05
-0.000852737 0.000255154 0.000256107 -5.82089e-05
-0.00105832 0.000317025 0.000317698 -4.23276e-05
-0.00104222 0.000312209 0.000312861 -4.23273e-05
-0.000624553 0.000186588 0.000187699 -7.05653e-05
-0.000634231 0.000189467 0.000190613 -7.0566e-05
-0.00105027 0.000314617 0.000315279 -4.23274e-05
-0.000833401 0.000249384 0.000250293 -5.82082e-05
-0.000629392 0.000188028 0.000189156 -7.05656e-05
-0.000846292 0.000253231 0.000254169 -5.82087e-05
-0.000839846 0.000251307 0.000252231 -5.82084e-05
-0.00104222 0.000312209 0.000312861 -4.23273e-05
-0.00102612 0.000307393 0.000308024 -4.23271e-05
-0.000614876 0.000183709 0.000184786 -7.05646e-05
-0.000624553 0.000186588 0.000187699 -7.05653e-05
-0.00103417 0.000309801 0.000310442 -4.23272e-05
-0.000820511 0.000245537 0.000246418 -5.82077e-05
-0.000619714 0.000185149 0.000186242 -7.05649e-05
-0.000833401 0.000249384 0.000250293 -5.82082e-05
-0.000826956 0.00024746 0.000248355 -5.8208e-05
-0.00102612 0.000307393 0.000308024 -4.23271e-05
-0.00101002 0.000302577 0.000303188 -4.23268e-05
-0.000605199 0.00018083 0.000181872 -7.05639e-05
-0.000614876 0.000183709 0.000184786 -7.05646e-05
-0.00101807 0.000304985 0.000305606 -4.2327e-05
-0.000807622 0.00024169 0.000242542 -5.82073e-05
-0.000610037 0.00018227 0.000183329 -7.05642e-05
-0.000820511 0.000245537 0.000246418 -5.82077e-05
-0.000814066 0.000243613 0.00024448 -5.82075e-05
-0.00101002 0.000302577 0.000303188 -4.23268e-05
-0.000993915 0.000297761 0.000298352 -4.23266e-05
-0.000595523 0.000177951 0.000178959 -7.05632e-05
-0.000605199 0.00018083 0.000181872 -7.05639e-05
-0.00100196 0.000300169 0.00030077 -4.23267e-05
-0.000794733 0.000237842 0.000238667 -5.82069e-05
-0.000600361 0.000179391 0.000180416 -7.05635e-05
-0.000807622 0.00024169 0.000242542 -5.82073e-05
-0.000801177 0.000239766 0.000240605 -5.82071e-05
-0.000993915 0.000297761 0.000298352 -4.23266e-05
-0.000977815 0.000292945 0.000293516 -4.23264e-05
-0.000585847 0.000175071 0.000176047 -7.05625e-05
-0.000595523 0.000177951 0.000178959 -7.05632e-05
-0.000985865 0.000295353 0.000295934 -4.23265e-05
-0.000781845 0.000233995 0.000234793 -5.82064e-05
-0.000590685 0.000176511 0.000177503 -7.05629e-05
-0.000794733 0.000237842 0.000238667 -5.82069e-05
-0.000788289 0.000235919 0.00023673 -5.82067e-05
-0.000977815 0.000292945 0.000293516 -4.23264e-05
-0.000961715 0.000288129 0.00028868 -4.23262e-05
-0.000576172 0.000172192 0.000173135 -7.05619e-05
-0.000585847 0.000175071 0.000176047 -7.05625e-05
-0.000969765 0.000290537 0.000291098 -4.23263e-05
-0.000768957 0.000230147 0.000230919 -5.8206e-05
-0.00058101 0.000173632 0.000174591 -7.05622e-05
-0.000781845 0.000233995 0.000234793 -5.82064e-05
-0.000775401 0.000232071 0.000232856 -5.82062e-05
-0.000961715 0.000288129 0.00028868 -4.23262e-05
-0.000945617 0.000283312 0.000283845 -4.2326e-05
-0.000566498 0.000169312 0.000170223 -7.05613e-05
-0.000576172 0.000172192 0.000173135 -7.05619e-05
-0.000953666 0.00028572 0.000286262 -4.23261e-05
-0.00075607 0.0002263 0.000227045 -5.82056e-05
-0.000571335 0.000170752 0.000171679 -7.05616e-05
-0.000768957 0.000230147 0.000230919 -5.8206e-05
-0.000762514 0.000228223 0.000228982 -5.82058e-05
-0.000945617 0.000283312 0.000283845 -4.2326e-05
-0.000929519 0.000278496 0.00027901 -4.23258e-05
-0.000556824 0.000166432 0.000167311 -7.05606e-05
-0.000566498 0.000169312 0.000170223 -7.05613e-05
-0.000937568 0.000280904 0.000281427 -4.23259e-05
-0.000743184 0.000222452 0.000223171 -5.82053e-05
-0.000561661 0.000167872 0.000168767 -7.05609e-05
-0.00075607 0.0002263 0.000227045 -5.82056e-05
-0.000749627 0.000224376 0.000225108 -5.82055e-05
-0.000929519 0.000278496 0.00027901 -4.23258e-05
-0.000913421 0.00027368 0.000274175 -4.23256e-05
-0.000547151 0.000163551 0.0001644 -7.056e-05
-0.000556824 0.000166432 0.000167311 -7.05606e-05
-0.00092147 0.000276088 0.000276592 -4.23257e-05
-0.000730298 0.000218604 0.000219298 -5.82049e-05
-0.000551988 0.000164991 0.000165856 -7.05603e-05
-0.000743184 0.000222452 0.000223171 -5.82053e-05
-0.000736741 0.000220528 0.000221234 -5.82051e-05
-0.000913421 0.00027368 0.000274175 -4.23256e-05
-0.000897324 0.000268863 0.00026934 -4.23255e-05
-0.000537479 0.000160671 0.000161489 -7.05595e-05
-0.000547151 0.000163551 0.0001644 -7.056e-05
-0.000905373 0.000271271 0.000271758 -4.23256e-05
-0.000717413 0.000214756 0.000215425 -5.82045e-05
-0.000542315 0.000162111 0.000162945 -7.05597e-05
-0.000730298 0.000218604 0.000219298 -5.82049e-05
-0.000723856 0.00021668 0.000217361 -5.82047e-05
-0.000897324 0.000268863 0.00026934 -4.23255e-05
-0.000881228 0.000264047 0.000264506 -4.23253e-05
-0.000527807 0.00015779 0.000158579 -7.05589e-05
-0.000537479 0.000160671 0.000161489 -7.05595e-05
-0.000889276 0.000266455 0.000266923 -4.23254e-05
-0.000704529 0.000210908 0.000211552 -5.82042e-05
-0.000532643 0.00015923 0.000160034 -7.05592e-05
-0.000717413 0.000214756 0.000215425 -5.82045e-05
-0.000710971 0.000212832 0.000213488 -5.82044e-05
-0.000881228 0.000264047 0.000264506 -4.23253e-05
-0.000865132 0.00025923 0.000259672 -4.23252e-05
-0.000518136 0.000154909 0.000155669 -7.05583e-05
-0.000527807 0.00015779 0.000158579 -7.05589e-05
-0.00087318 0.000261638 0.000262089 -4.23252e-05
-0.000691645 0.000207059 0.00020768 -5.82039e-05
-0.000522971 0.00015635 0.000157124 -7.05586e-05
-0.000704529 0.000210908 0.000211552 -5.82042e-05
-0.000698087 0.000208983 0.000209616 -5.8204e-05
-0.000865132 0.00025923 0.000259672 -4.23252e-05
-0.000849037 0.000254414 0.000254839 -4.2325e-05
-0.000508465 0.000152028 0.000152759 -7.05578e-05
-0.000518136 0.000154909 0.000155669 -7.05583e-05
-0.000857084 0.000256822 0.000257255 -4.23251e-05
-0.000678762 0.000203211 0.000203807 -5.82035e-05
-0.0005133 0.000153469 0.000154214 -7.05581e-05
-0.000691645 0.000207059 0.00020768 -5.82039e-05
-0.000685203 0.000205135 0.000205743 -5.82037e-05
-0.000849037 0.000254414 0.000254839 -4.2325e-05
-0.000832942 0.000249597 0.000250005 -4.23249e-05
-0.000498795 0.000149147 0.000149849 -7.05573e-05
-0.000508465 0.000152028 0.000152759 -7.05578e-05
-0.00084099 0.000252005 0.000252422 -4.2325e-05
-0.000665879 0.000199362 0.000199936 -5.82032e-05
-0.00050363 0.000150587 0.000151304 -7.05575e-05
-0.000678762 0.000203211 0.000203807 -5.82035e-05
-0.00067232 0.000201287 0.000201872 -5.82034e-05
-0.000832942 0.000249597 0.000250005 -4.23249e-05
-0.000816848 0.00024478 0.000245172 -4.23248e-05
-0.000489126 0.000146265 0.00014694 -7.05568e-05
-0.000498795 0.000149147 0.000149849 -7.05573e-05
-0.000824895 0.000247189 0.000247589 -4.23248e-05
-0.000652997 0.000195513 0.000196064 -5.82029e-05
-0.00049396 0.000147706 0.000148395 -7.0557e-05
-0.000665879 0.000199362 0.000199936 -5.82032e-05
-0.000659438 0.000197438 0.000198 -5.82031e-05
-0.000816848 0.00024478 0.000245172 -4.23248e-05
-0.000800755 0.000239964 0.000240339 -4.23247e-05
-0.000479457 0.000143383 0.000144031 -7.05563e-05
-0.000489126 0.000146265 0.00014694 -7.05568e-05
-0.000808801 0.000242372 0.000242756 -4.23247e-05
-0.000640115 0.000191665 0.000192193 -5.82027e-05
-0.000484291 0.000144824 0.000145486 -7.05565e-05
-0.000652997 0.000195513 0.000196064 -5.82029e-05
-0.000646556 0.000193589 0.000194129 -5.82028e-05
-0.000800755 0.000239964 0.000240339 -4.23247e-05
-0.000784662 0.000235147 0.000235506 -4.23245e-05
-0.000469788 0.000140501 0.000141123 -7.05558e-05
-0.000479457 0.000143383 0.000144031 -7.05563e-05
-0.000792708 0.000237555 0.000237923 -4.23246e-05
-0.000627234 0.000187816 0.000188322 -5.82024e-05
-0.000474622 0.000141942 0.000142577 -7.0556e-05
-0.000640115 0.000191665 0.000192193 -5.82027e-05
-0.000633675 0.00018974 0.000190258 -5.82025e-05
-0.000784662 0.000235147 0.000235506 -4.23245e-05
-0.000768569 0.00023033 0.000230674 -4.23245e-05
-0.000460121 0.000137619 0.000138215 -7.05553e-05
-0.000469788 0.000140501 0.000141123 -7.05558e-05
-0.000776616 0.000232738 0.00023309 -4.23245e-05
-0.000614354 0.000183966 0.000184452 -5.82021e-05
-0.000464954 0.00013906 0.000139669 -7.05556e-05
-0.000627234 0.000187816 0.000188322 -5.82024e-05
-0.000620794 0.000185891 0.000186387 -5.82023e-05
-0.000768569 0.00023033 0.000230674 -4.23245e-05
-0.000752478 0.000225513 0.000225842 -4.23244e-05
-0.000450453 0.000134737 0.000135307 -7.05549e-05
-0.000460121 0.000137619 0.000138215 -7.05553e-05
-0.000760523 0.000227921 0.000228258 -4.23244e-05
-0.000601474 0.000180117 0.000180581 -5.82019e-05
-0.000455287 0.000136178 0.000136761 -7.05551e-05
-0.000614354 0.000183966 0.000184452 -5.82021e-05
-0.000607914 0.000182042 0.000182517 -5.8202e-05
-0.000752478 0.000225513 0.000225842 -4.23244e-05
-0.000736386 0.000220696 0.00022101 -4.23243e-05
-0.000440787 0.000131854 0.0001324 -7.05545e-05
-0.000450453 0.000134737 0.000135307 -7.05549e-05
-0.000744432 0.000223104 0.000223426 -4.23243e-05
-0.000588595 0.000176268 0.000176712 -5.82017e-05
-0.00044562 0.000133296 0.000133853 -7.05547e-05
-0.000601474 0.000180117 0.000180581 -5.82019e-05
-0.000595034 0.000178192 0.000178646 -5.82018e-05
-0.000736386 0.000220696 0.00022101 -4.23243e-05
-0.000720296 0.000215879 0.000216179 -4.23242e-05
-0.000431121 0.000128972 0.000129493 -7.0554e-05
-0.000440787 0.000131854 0.0001324 -7.05545e-05
-0.000728341 0.000218287 0.000218594 -4.23243e-05
-0.000575716 0.000172418 0.000172842 -5.82015e-05
-0.000435954 0.000130413 0.000130946 -7.05543e-05
-0.000588595 0.000176268 0.000176712 -5.82017e-05
-0.000582155 0.000174343 0.000174777 -5.82016e-05
-0.000720296 0.000215879 0.000216179 -4.23242e-05
-0.000704205 0.000211062 0.000211347 -4.23242e-05
-0.000421456 0.000126089 0.000126586 -7.05537e-05
-0.000431121 0.000128972 0.000129493 -7.0554e-05
-0.00071225 0.00021347 0.000213763 -4.23242e-05
-0.000562838 0.000168568 0.000168973 -5.82013e-05
-0.000426288 0.00012753 0.000128039 -7.05538e-05
-0.000575716 0.000172418 0.000172842 -5.82015e-05
-0.000569277 0.000170493 0.000170907 -5.82014e-05
-0.000704205 0.000211062 0.000211347 -4.23242e-05
-0.000688116 0.000206245 0.000206516 -4.23241e-05
-0.000411791 0.000123206 0.000123679 -7.05533e-05
-0.000421456 0.000126089 0.000126586 -7.05537e-05
-0.00069616 0.000208653 0.000208932 -4.23242e-05
-0.00054996 0.000164719 0.000165104 -5.82011e-05
-0.000416623 0.000124647 0.000125132 -7.05535e-05
-0.000562838 0.000168568 0.000168973 -5.82013e-05
-0.000556399 0.000166644 0.000167038 -5.82012e-05
-0.000688116 0.000206245 0.000206516 -4.23241e-05
-0.000672027 0.000201427 0.000201685 -4.23241e-05
-0.000402126 0.000120322 0.000120773 -7.05529e-05
-0.000411791 0.000123206 0.000123679 -7.05533e-05
-0.000680071 0.000203836 0.000204101 -4.23241e-05
-0.000537083 0.000160869 0.000161235 -5.82009e-05
-0.000406959 0.000121764 0.000122226 -7.05531e-05
-0.00054996 0.000164719 0.000165104 -5.82011e-05
-0.000543522 0.000162794 0.000163169 -5.8201e-05
-0.000672027 0.000201427 0.000201685 -4.23241e-05
-0.000655938 0.00019661 0.000196855 -4.23241e-05
-0.000392463 0.000117439 0.000117867 -7.05526e-05
-0.000402126 0.000120322 0.000120773 -7.05529e-05
-0.000663982 0.000199019 0.00019927 -4.23241e-05
-0.000524207 0.000157018 0.000157366 -5.82007e-05
-0.000397295 0.000118881 0.00011932 -7.05527e-05
-0.000537083 0.000160869 0.000161235 -5.82009e-05
-0.000530645 0.000158944 0.000159301 -5.82008e-05
-0.000655938 0.00019661 0.000196855 -4.23241e-05
-0.00063985 0.000191793 0.000192025 -4.23241e-05
-0.0003828 0.000114555 0.000114962 -7.05523e-05
-0.000392463 0.000117439 0.000117867 -7.05526e-05
-0.000647894 0.000194201 0.00019444 -4.23241e-05
-0.000511331 0.000153168 0.000153498 -5.82006e-05
-0.000387631 0.000115997 0.000116415 -7.05524e-05
-0.000524207 0.000157018 0.000157366 -5.82007e-05
-0.000517769 0.000155093 0.000155432 -5.82007e-05
-0.00063985 0.000191793 0.000192025 -4.23241e-05
-0.000623762 0.000186975 0.000187195 -4.23241e-05
-0.000373137 0.000111671 0.000112057 -7.0552e-05
-0.0003828 0.000114555 0.000114962 -7.05523e-05
-0.000631806 0.000189384 0.000189609 -4.23241e-05
-0.000498456 0.000149318 0.00014963 -5.82005e-05
-0.000377968 0.000113113 0.000113509 -7.05521e-05
-0.000511331 0.000153168 0.000153498 -5.82006e-05
-0.000504893 0.000151243 0.000151564 -5.82005e-05
-0.000623762 0.000186975 0.000187195 -4.23241e-05
-0.000607675 0.000182158 0.000182365 -4.23241e-05
-0.000363475 0.000108787 0.000109152 -7.05517e-05
-0.000373137 0.000111671 0.000112057 -7.0552e-05
-0.000615719 0.000184566 0.00018478 -4.23241e-05
-0.000485581 0.000145467 0.000145763 -5.82004e-05
-0.000368306 0.000110229 0.000110604 -7.05518e-05
-0.000498456 0.000149318 0.00014963 -5.82005e-05
-0.000492018 0.000147393 0.000147697 -5.82004e-05
-0.000607675 0.000182158 0.000182365 -4.23241e-05
-0.000591589 0.00017734 0.000177535 -4.23241e-05
-0.000353814 0.000105903 0.000106248 -7.05514e-05
-0.000363475 0.000108787 0.000109152 -7.05517e-05
-0.000599632 0.000179749 0.00017995 -4.23241e-05
-0.000472706 0.000141616 0.000141896 -5.82003e-05
-0.000358644 0.000107345 0.0001077 -7.05515e-05
-0.000485581 0.000145467 0.000145763 -5.82004e-05
-0.000479144 0.000143542 0.000143829 -5.82003e-05
-0.000591589 0.00017734 0.000177535 -4.23241e-05
-0.000575503 0.000172522 0.000172706 -4.23241e-05
-0.000344153 0.000103018 0.000103344 -7.05511e-05
-0.000353814 0.000105903 0.000106248 -7.05514e-05
-0.000583546 0.000174931 0.00017512 -4.23241e-05
-0.000459833 0.000137766 0.000138029 -5.82002e-05
-0.000348983 0.00010446 0.000104796 -7.05513e-05
-0.000472706 0.000141616 0.000141896 -5.82003e-05
-0.00046627 0.000139691 0.000139962 -5.82002e-05
-0.000575503 0.000172522 0.000172706 -4.23241e-05
-0.000559417 0.000167705 0.000167877 -4.23242e-05
-0.000334493 0.000100133 0.00010044 -7.05509e-05
-0.000344153 0.000103018 0.000103344 -7.05511e-05
-0.00056746 0.000170113 0.000170291 -4.23241e-05
-0.00044696 0.000133915 0.000134162 -5.82001e-05
-0.000339323 0.000101576 0.000101892 -7.0551e-05
-0.000459833 0.000137766 0.000138029 -5.82002e-05
-0.000453396 0.00013584 0.000136095 -5.82001e-05
-0.000559417 0.000167705 0.000167877 -4.23242e-05
-0.000543332 0.000162887 0.000163048 -4.23242e-05
-0.000324833 9.72482e-05 9.75363e-05 -7.05507e-05
-0.000334493 0.000100133 0.00010044 -7.05509e-05
-0.000551375 0.000165296 0.000165462 -4.23242e-05
-0.000434087 0.000130063 0.000130296 -5.82001e-05
-0.000329663 9.86907e-05 9.8988e-05 -7.05508e-05
-0.00044696 0.000133915 0.000134162 -5.82001e-05
-0.000440523 0.000131989 0.000132229 -5.82001e-05
-0.000543332 0.000162887 0.000163048 -4.23242e-05
-0.000527248 0.000158069 0.000158219 -4.23243e-05
-0.000315174 9.4363e-05 9.46331e-05 -7.05505e-05
-0.000324833 9.72482e-05 9.75363e-05 -7.05507e-05
-0.00053529 0.000160478 0.000160634 -4.23243e-05
-0.000421215 0.000126212 0.00012643 -5.82e-05
-0.000320003 9.58056e-05 9.60847e-05 -7.05506e-05
-0.000434087 0.000130063 0.000130296 -5.82001e-05
-0.000427651 0.000128138 0.000128363 -5.82e-05
-0.000527248 0.000158069 0.000158219 -4.23243e-05
-0.000511164 0.000153251 0.000153391 -4.23243e-05
-0.000305515 9.14775e-05 9.17303e-05 -7.05503e-05
-0.000315174 9.4363e-05 9.46331e-05 -7.05505e-05
-0.000519206 0.00015566 0.000155805 -4.23243e-05
-0.000408343 0.000122361 0.000122564 -5.82e-05
-0.000310344 9.29203e-05 9.31817e-05 -7.05504e-05
-0.000421215 0.000126212 0.00012643 -5.82e-05
-0.000414779 0.000124286 0.000124497 -5.82e-05
-0.000511164 0.000153251 0.000153391 -4.23243e-05
-0.00049508 0.000148433 0.000148563 -4.23244e-05
-0.000295857 8.85919e-05 8.88278e-05 -7.05501e-05
-0.000305515 9.14775e-05 9.17303e-05 -7.05503e-05
-0.000503122 0.000150842 0.000150977 -4.23244e-05
-0.000395472 0.000118509 0.000118699 -5.82e-05
-0.000300686 9.00347e-05 9.0279e-05 -7.05502e-05
-0.000408343 0.000122361 0.000122564 -5.82e-05
-0.000401908 0.000120435 0.000120631 -5.82e-05
-0.00049508 0.000148433 0.000148563 -4.23244e-05
-0.000478997 0.000143615 0.000143735 -4.23245e-05
-0.000286199 8.5706e-05 8.59257e-05 -7.05499e-05
-0.000295857 8.85919e-05 8.88278e-05 -7.05501e-05
-0.000487038 0.000146024 0.000146149 -4.23245e-05
-0.000382602 0.000114657 0.000114833 -5.81999e-05
-0.000291028 8.71489e-05 8.73767e-05 -7.055e-05
-0.000395472 0.000118509 0.000118699 -5.82e-05
-0.000389037 0.000116583 0.000116766 -5.81999e-05
-0.000478997 0.000143615 0.000143735 -4.23245e-05
-0.000462914 0.000138796 0.000138908 -4.23246e-05
-0.000276542 8.28199e-05 8.30239e-05 -7.05498e-05
-0.000286199 8.5706e-05 8.59257e-05 -7.05499e-05
-0.000470956 0.000141205 0.000141321 -4.23245e-05
-0.000369732 0.000110805 0.000110968 -5.81999e-05
-0.000281371 8.42629e-05 8.44747e-05 -7.05499e-05
-0.000382602 0.000114657 0.000114833 -5.81999e-05
-0.000376167 0.000112731 0.000112901 -5.81999e-05
-0.000462914 0.000138796 0.000138908 -4.23246e-05
-0.000446832 0.000133978 0.00013408 -4.23246e-05
-0.000266886 7.99335e-05 8.01224e-05 -7.05496e-05
-0.000276542 8.28199e-05 8.30239e-05 -7.05498e-05
-0.000454873 0.000136387 0.000136494 -4.23246e-05
-0.000356862 0.000106953 0.000107104 -5.81999e-05
-0.000271714 8.13767e-05 8.15731e-05 -7.05497e-05
-0.000369732 0.000110805 0.000110968 -5.81999e-05
-0.000363297 0.000108879 0.000109036 -5.81999e-05
-0.000446832 0.000133978 0.00013408 -4.23246e-05
-0.000430751 0.00012916 0.000129253 -4.23247e-05
-0.00025723 7.70469e-05 7.72212e-05 -7.05494e-05
-0.000266886 7.99335e-05 8.01224e-05 -7.05496e-05
-0.000438791 0.000131569 0.000131667 -4.23246e-05
-0.000343993 0.000103101 0.00010324 -5.81998e-05
-0.000262058 7.84902e-05 7.86717e-05 -7.05495e-05
-0.000356862 0.000106953 0.000107104 -5.81999e-05
-0.000350428 0.000105027 0.000105172 -5.81999e-05
-0.000430751 0.00012916 0.000129253 -4.23247e-05
-0.00041467 0.000124341 0.000124426 -4.23247e-05
-0.000247574 7.41601e-05 7.43203e-05 -7.05492e-05
-0.00025723 7.70469e-05 7.72212e-05 -7.05494e-05
-0.00042271 0.00012675 0.00012684 -4.23247e-05
-0.000331125 9.92483e-05 9.93756e-05 -5.81998e-05
-0.000252402 7.56035e-05 7.57707e-05 -7.05493e-05
-0.000343993 0.000103101 0.00010324 -5.81998e-05
-0.000337559 0.000101175 0.000101308 -5.81998e-05
-0.00041467 0.000124341 0.000124426 -4.23247e-05
-0.000398589 0.000119523 0.0001196 -4.23247e-05
-0.000237919 7.1273e-05 7.14198e-05 -7.0549e-05
-0.000247574 7.41601e-05 7.43203e-05 -7.05492e-05
-0.000406629 0.000121932 0.000122013 -4.23247e-05
-0.000318257 9.53956e-05 9.55119e-05 -5.81997e-05
-0.000242747 7.27166e-05 7.287e-05 -7.05491e-05
-0.000331125 9.92483e-05 9.93756e-05 -5.81998e-05
-0.000324691 9.7322e-05 9.74437e-05 -5.81997e-05
-0.000398589 0.000119523 0.0001196 -4.23247e-05
-0.000382509 0.000114704 0.000114774 -4.23246e-05
-0.000228265 6.83857e-05 6.85196e-05 -7.05487e-05
-0.000237919 7.1273e-05 7.14198e-05 -7.0549e-05
-0.000390549 0.000117113 0.000117187 -4.23247e-05
-0.000305389 9.15428e-05 9.16484e-05 -5.81995e-05
-0.000233092 6.98294e-05 6.99696e-05 -7.05489e-05
-0.000318257 9.53956e-05 9.55119e-05 -5.81997e-05
-0.000311823 9.34692e-05 9.35801e-05 -5.81996e-05
-0.000382509 0.000114704 0.000114774 -4.23246e-05
-0.000366429 0.000109885 0.000109947 -4.23246e-05
-0.000218611 6.54982e-05 6.56196e-05 -7.05484e-05
-0.000228265 6.83857e-05 6.85196e-05 -7.05487e-05
-0.000374469 0.000112294 0.00011236 -4.23246e-05
-0.000292522 8.76899e-05 8.77853e-05 -5.81993e-05
-0.000223438 6.6942e-05 6.70696e-05 -7.05486e-05
-0.000305389 9.15428e-05 9.16484e-05 -5.81995e-05
-0.000298956 8.96164e-05 8.97168e-05 -5.81994e-05
-0.000366429 0.000109885 0.000109947 -4.23246e-05
-0.00035035 0.000105066 0.000105122 -4.23245e-05
-0.000208957 6.26106e-05 6.272e-05 -7.05481e-05
-0.000218611 6.54982e-05 6.56196e-05 -7.05484e-05
-0.00035839 0.000107476 0.000107535 -4.23245e-05
-0.000279656 8.38368e-05 8.39224e-05 -5.81992e-05
-0.000213784 6.40544e-05 6.41698e-05 -7.05483e-05
-0.000292522 8.76899e-05 8.77853e-05 -5.81993e-05
-0.000286089 8.57634e-05 8.58538e-05 -5.81992e-05
-0.00035035 0.000105066 0.000105122 -4.23245e-05
-0.000334272 0.000100248 0.000100296 -4.23244e-05
-0.000199304 5.97228e-05 5.98207e-05 -7.05478e-05
-0.000208957 6.26106e-05 6.272e-05 -7.05481e-05
-0.000342311 0.000102657 0.000102709 -4.23244e-05
-0.00026679 7.99837e-05 8.00598e-05 -5.8199e-05
-0.000204131 6.11667e-05 6.12703e-05 -7.0548e-05
-0.000279656 8.38368e-05 8.39224e-05 -5.81992e-05
-0.000273223 8.19102e-05 8.19911e-05 -5.81991e-05
-0.000334272 0.000100248 0.000100296 -4.23244e-05
-0.000318193 9.54287e-05 9.54706e-05 -4.23244e-05
-0.000189652 5.6835e-05 5.69216e-05 -7.05476e-05
-0.000199304 5.97228e-05 5.98207e-05 -7.05478e-05
-0.000326232 9.78381e-05 9.78833e-05 -4.23244e-05
-0.000253924 7.61305e-05 7.61974e-05 -5.81989e-05
-0.000194478 5.82789e-05 5.83711e-05 -7.05477e-05
-0.00026679 7.99837e-05 8.00598e-05 -5.8199e-05
-0.000260357 7.80571e-05 7.81286e-05 -5.81989e-05
-0.000318193 9.54287e-05 9.54706e-05 -4.23244e-05
-0.000302116 9.06099e-05 9.06454e-05 -4.23247e-05
-0.00018 5.39474e-05 5.40227e-05 -7.05476e-05
-0.000189652 5.6835e-05 5.69216e-05 -7.05476e-05
-0.000310155 9.30193e-05 9.3058e-05 -4.23245e-05
-0.00024106 7.22774e-05 7.23352e-05 -5.81991e-05
-0.000184826 5.53912e-05 5.54721e-05 -7.05476e-05
-0.000253924 7.61305e-05 7.61974e-05 -5.81989e-05
-0.000247492 7.4204e-05 7.42663e-05 -5.8199e-05
-0.000302116 9.06099e-05 9.06454e-05 -4.23247e-05
-0.000286039 8.57912e-05 8.58204e-05 -4.23254e-05
-0.00017035 5.106e-05 5.11241e-05 -7.0548e-05
-0.00018 5.39474e-05 5.40227e-05 -7.05476e-05
-0.000294077 8.82006e-05 8.82329e-05 -4.2325e-05
-0.000228196 6.84245e-05 6.84733e-05 -5.81998e-05
-0.000175175 5.25037e-05 5.25734e-05 -7.05477e-05
-0.00024106 7.22774e-05 7.23352e-05 -5.81991e-05
-0.000234628 7.0351e-05 7.04042e-05 -5.81994e-05
-0.000286039 8.57912e-05 8.58204e-05 -4.23254e-05
-0.000269962 8.09725e-05 8.09955e-05 -4.23267e-05
-0.0001607 4.8173e-05 4.82257e-05 -7.0549e-05
-0.00017035 5.106e-05 5.11241e-05 -7.0548e-05
-0.000278 8.33819e-05 8.34079e-05 -4.23259e-05
-0.000215332 6.45718e-05 6.46115e-05 -5.82011e-05
-0.000165525 4.96165e-05 4.96749e-05 -7.05484e-05
-0.000228196 6.84245e-05 6.84733e-05 -5.81998e-05
-0.000221764 6.64982e-05 6.65424e-05 -5.82004e-05
-0.000269962 8.09725e-05 8.09955e-05 -4.23267e-05
-0.000253885 7.61537e-05 7.61707e-05 -4.23288e-05
-0.000151051 4.52861e-05 4.53276e-05 -7.05511e-05
-0.0001607 4.8173e-05 4.82257e-05 -7.0549e-05
-0.000261924 7.85632e-05 7.85831e-05 -4.23276e-05
-0.000202469 6.0719e-05 6.07501e-05 -5.82033e-05
-0.000155875 4.67296e-05 4.67766e-05 -7.05499e-05
-0.000215332 6.45718e-05 6.46115e-05 -5.82011e-05
-0.000208901 6.26455e-05 6.26808e-05 -5.82021e-05
-0.000253885 7.61537e-05 7.61707e-05 -4.23288e-05
-0.000237809 7.13343e-05 7.13463e-05 -4.23314e-05
-0.000141401 4.23984e-05 4.24298e-05 -7.05549e-05
-0.000151051 4.52861e-05 4.53276e-05 -7.05511e-05
-0.000245847 7.37442e-05 7.37584e-05 -4.23301e-05
-0.000189606 5.68653e-05 5.6889e-05 -5.82064e-05
-0.000146226 4.38425e-05 4.38787e-05 -7.05528e-05
-0.000202469 6.0719e-05 6.07501e-05 -5.82033e-05
-0.000196038 5.87924e-05 5.88194e-05 -5.82048e-05
-0.000237809 7.13343e-05 7.13463e-05 -4.23314e-05
-0.000221732 6.65132e-05 6.65223e-05 -4.23335e-05
-0.00013175 3.9507e-05 3.95328e-05 -7.05607e-05
-0.000141401 4.23984e-05 4.24298e-05 -7.05549e-05
-0.000229771 6.89241e-05 6.89342e-05 -4.23326e-05
-0.000176742 5.30084e-05 5.30287e-05 -5.82094e-05
-0.000136576 4.09534e-05 4.09811e-05 -7.05575e-05
-0.000189606 5.68653e-05 5.6889e-05 -5.82064e-05
-0.000183174 5.49375e-05 5.49587e-05 -5.82079e-05
-0.000221732 6.65132e-05 6.65223e-05 -4.23335e-05
-0.000205654 6.16876e-05 6.17e-05 -4.23314e-05
-0.000122091 3.66058e-05 3.66365e-05 -7.05694e-05
-0.00013175 3.9507e-05 3.95328e-05 -7.05607e-05
-0.000213693 6.41012e-05 6.41108e-05 -4.23334e-05
-0.000163873 4.91433e-05 4.91697e-05 -5.82102e-05
-0.000126922 3.80583e-05 3.80846e-05 -7.05646e-05
-0.000176742 5.30084e-05 5.30287e-05 -5.82094e-05
-0.000170308 5.10775e-05 5.10989e-05 -5.82105e-05
-0.000205654 6.16876e-05 6.17e-05 -4.23314e-05
-0.000189573 5.68526e-05 5.68801e-05 -4.23184e-05
-0.000112415 3.36822e-05 3.37424e-05 -7.05811e-05
-0.000122091 3.66058e-05 3.66365e-05 -7.05694e-05
-0.000197615 5.92718e-05 5.92898e-05 -4.23268e-05
-0.000150991 4.52593e-05 4.53135e-05 -5.8203e-05
-0.000117255 3.51479e-05 3.51889e-05 -7.0575e-05
-0.000163873 4.91433e-05 4.91697e-05 -5.82102e-05
-0.000157434 4.72045e-05 4.72413e-05 -5.82079e-05
-0.000189573 5.68526e-05 5.68801e-05 -4.23184e-05
-0.000173489 5.19979e-05 5.20675e-05 -4.2276e-05
-0.000102693 3.0713e-05 3.08484e-05 -7.05976e-05
-0.000112415 3.36822e-05 3.37424e-05 -7.05811e-05
-0.00018153 5.44284e-05 5.44723e-05 -4.23027e-05
-0.000138081 4.13382e-05 4.14613e-05 -5.81767e-05
-0.000107562 3.22057e-05 3.22957e-05 -7.05885e-05
-0.000150991 4.52593e-05 4.53135e-05 -5.8203e-05
-0.000144541 4.33057e-05 4.33865e-05 -5.81939e-05
-0.000173489 5.19979e-05 5.20675e-05 -4.2276e-05
-0.000157387 4.7107e-05 4.72629e-05 -4.21789e-05
-9.28907e-05 2.76555e-05 2.79579e-05 -7.06166e-05
-0.000102693 3.0713e-05 3.08484e-05 -7.05976e-05
-0.000165443 4.95592e-05 4.96644e-05 -4.22364e-05
-0.000125111 3.73418e-05 3.76155e-05 -5.81099e-05
-9.78029e-05 2.91983e-05 2.9402e-05 -7.06073e-05
-0.000138081 4.13382e-05 4.14613e-05 -5.81767e-05
-0.000131607 3.93514e-05 3.95379e-05 -5.8149e-05
-0.000157387 4.7107e-05 4.72629e-05 -4.21789e-05
-0.000141273 4.21468e-05 4.24827e-05 -4.19619e-05
-8.29117e-05 2.44471e-05 2.50563e-05 -7.06476e-05
-9.28907e-05 2.76555e-05 2.79579e-05 -7.06166e-05
-0.000149328 4.46364e-05 4.48679e-05 -4.20918e-05
-0.000112028 3.322e-05 3.37749e-05 -5.79683e-05
-8.79342e-05 2.60767e-05 2.65103e-05 -7.06291e-05
-0.000125111 3.73418e-05 3.76155e-05 -5.81099e-05
-0.000118588 3.53037e-05 3.56932e-05 -5.80541e-05
-0.000141273 4.21468e-05 4.24827e-05 -4.19619e-05
-0.000125078 3.70788e-05 3.77139e-05 -4.1559e-05
-7.26633e-05 2.09855e-05 2.21476e-05 -7.06875e-05
-8.29117e-05 2.44471e-05 2.50563e-05 -7.06476e-05
-0.000133198 3.96344e-05 4.00986e-05 -4.17881e-05
-9.87197e-05 2.88682e-05 2.99364e-05 -5.77027e-05
-7.78219e-05 2.2752e-05 2.36014e-05 -7.06679e-05
-0.000112028 3.322e-05 3.37749e-05 -5.79683e-05
-0.000105412 3.10748e-05 3.18589e-05 -5.78492e-05
-0.000125078 3.70788e-05 3.77139e-05 -4.1559e-05
-0.00010882 3.18095e-05 3.30045e-05 -4.07964e-05
-6.18846e-05 1.7183e-05 1.91579e-05 -7.07961e-05
-7.26633e-05 2.09855e-05 2.21476e-05 -7.06875e-05
-0.000116942 3.44644e-05 3.53477e-05 -4.12396e-05
-8.50439e-05 2.42072e-05 2.60728e-05 -5.72556e-05
-6.73721e-05 1.91386e-05 2.06715e-05 -7.07249e-05
-9.87197e-05 2.88682e-05 2.99364e-05 -5.77027e-05
-9.19354e-05 2.65943e-05 2.80034e-05 -5.75175e-05
-0.00010882 3.18095e-05 3.30045e-05 -4.07964e-05
-9.21976e-05 2.63144e-05 2.82356e-05 -3.9608e-05
-5.0466e-05 1.29432e-05 1.60812e-05 -7.10063e-05
-6.18846e-05 1.7183e-05 1.91579e-05 -7.07961e-05
-0.000100606 2.91196e-05 3.06372e-05 -4.02559e-05
-7.06739e-05 1.90468e-05 2.21259e-05 -5.66233e-05
-5.62372e-05 1.51016e-05 1.76295e-05 -7.08892e-05
-8.50439e-05 2.42072e-05 2.60728e-05 -5.72556e-05
-7.79788e-05 2.16733e-05 2.41309e-05 -5.69356e-05
-9.21976e-05 2.63144e-05 2.82356e-05 -3.9608e-05
-7.52344e-05 2.03703e-05 2.35132e-05 -3.77287e-05
-3.79971e-05 8.55726e-06 1.26171e-05 -7.16298e-05
-5.0466e-05 1.29432e-05 1.60812e-05 -7.10063e-05
-8.37036e-05 2.33443e-05 2.58683e-05 -3.87781e-05
-5.53976e-05 1.35717e-05 1.79254e-05 -5.59356e-05
-4.44322e-05 1.07605e-05 1.44307e-05 -7.12284e-05
-7.06739e-05 1.90468e-05 2.21259e-05 -5.66233e-05
-6.31425e-05 1.63728e-05 2.00441e-05 -5.63175e-05
-7.52344e-05 2.03703e-05 2.35132e-05 -3.77287e-05
-5.6765e-05 1.44563e-05 1.81323e-05 -3.57148e-05
-2.51015e-05 4.73988e-06 8.72642e-06 -7.28619e-05
-3.79971e-05 8.55726e-06 1.26171e-05 -7.16298e-05
-6.63886e-05 1.75049e-05 2.09502e-05 -3.66772e-05
-3.85313e-05 7.99586e-06 1.30866e-05 -5.58782e-05
-3.14553e-05 6.41061e-06 1.07334e-05 -7.21631e-05
-5.53976e-05 1.35717e-05 1.79254e-05 -5.59356e-05
-4.72553e-05 1.06391e-05 1.56927e-05 -5.5657e-05
-5.6765e-05 1.44563e-05 1.81323e-05 -3.57148e-05
-3.69428e-05 8.61552e-06 1.21403e-05 -3.44789e-05
-1.26224e-05 4.62092e-06 3.42919e-06 -7.54158e-05
-2.51015e-05 4.73988e-06 8.72642e-06 -7.28619e-05
-4.68031e-05 1.11288e-05 1.5289e-05 -3.48629e-05
-2.10797e-05 5.32879e-06 6.75038e-06 -5.79318e-05
-1.88519e-05 4.02185e-06 6.35572e-06 -7.39086e-05
-3.85313e-05 7.99586e-06 1.30866e-05 -5.58782e-05
-2.9661e-05 6.12439e-06 1.00871e-05 -5.66826e-05
-3.69428e-05 8.61552e-06 1.21403e-05 -3.44789e-05
-1.40688e-05 9.13506e-06 2.11446e-06 -4.02017e-05
-6.06744e-06 1.37373e-05 -3.2871e-06 -7.71822e-05
-1.26224e-05 4.62092e-06 3.42919e-06 -7.54158e-05
-2.63196e-05 7.99957e-06 7.85143e-06 -3.58703e-05
-5.28154e-06 1.22167e-05 -2.97222e-06 -6.4971e-05
-7.87393e-06 7.20112e-06 2.88349e-07 -7.66931e-05
-2.10797e-05 5.32879e-06 6.75038e-06 -5.79318e-05
-1.29118e-05 6.39525e-06 2.79279e-06 -6.02545e-05
-1.40688e-05 9.13506e-06 2.11446e-06 -4.02017e-05
-3.49382e-06 3.53988e-05 -1.36736e-05 -6.0595e-05
-9.39982e-06 4.23464e-05 -1.412e-05 -7.06491e-05
-6.06744e-06 1.37373e-05 -3.2871e-06 -7.71822e-05
-4.89271e-06 1.41377e-05 -3.96215e-06 -4.75386e-05
-1.00503e-05 4.85044e-05 -1.64803e-05 -7.02486e-05
-6.73281e-06 2.58395e-05 -8.18858e-06 -7.59166e-05
-5.28154e-06 1.22167e-05 -2.97222e-06 -6.4971e-05
-2.79302e-06 2.58005e-05 -9.86037e-06 -6.97154e-05
-3.49382e-06 3.53988e-05 -1.36736e-05 -6.0595e-05
-4.62199e-05 0.000157972 -4.78936e-05 -6.05213e-05
-1.92158e-05 7.65579e-05 -2.45752e-05 -3.72908e-05
-9.39982e-06 4.23464e-05 -1.412e-05 -7.06491e-05
-1.54203e-05 8.43083e-05 -2.95234e-05 -7.09116e-05
-3.64101e-05 0.000113424 -3.30059e-05 -3.55893e-05
-1.36879e-05 6.0829e-05 -2.02033e-05 -5.83151e-05
-1.00503e-05 4.85044e-05 -1.64803e-05 -7.02486e-05
-2.27057e-05 7.982e-05 -2.44776e-05 -6.07324e-05
-0.00156395 0 0.000670266 0.00020642
-0.00176748 0.000231677 0.000658201 -5.70019e-06
-0.000577364 7.58594e-05 0.000214931 0.00010643
-0.000568397 -1.11022e-16 0.000243599 0.000321081
-0.00169406 0.000130199 0.000670227 7.83616e-05
-0.00117229 0.000153821 0.000436488 6.33941e-05
-0.000554668 3.1953e-05 0.000224021 0.000202436
-0.00104328 0 0.00044712 0.000294006
-0.00112419 7.32168e-05 0.000450417 0.000145999
-0.00176748 0.000231677 0.000658201 -5.70019e-06
-0.00185714 0.000423785 0.000614296 -7.17845e-05
-0.000621195 0.000124885 0.000212704 -2.188e-05
-0.000577364 7.58594e-05 0.000214931 0.00010643
-0.00181245 0.000333887 0.000633671 -4.83013e-05
-0.00123166 0.000263755 0.000414818 -3.965e-05
-0.000608774 0.000105258 0.000215792 3.09891e-05
-0.00117229 0.000153821 0.000436488 6.33941e-05
-0.00120301 0.000216436 0.000422817 7.56297e-06
-0.00185714 0.000423785 0.000614296 -7.17845e-05
-0.00190226 0.000520126 0.000592341 -8.46635e-05
-0.000633829 0.00016133 0.000202499 -8.00214e-05
-0.000621195 0.000124885 0.000212704 -2.188e-05
-0.00189069 0.000483707 0.000602995 -8.33815e-05
-0.00126628 0.000333941 0.000399574 -8.39991e-05
-0.000625821 0.000144322 0.000206357 -5.69278e-05
-0.00123166 0.000263755 0.000414818 -3.965e-05
-0.00125413 0.000303321 0.000407488 -7.02744e-05
-0.00190226 0.000520126 0.000592341 -8.46635e-05
-0.00190008 0.000557545 0.000575372 -7.85038e-05
-0.000640282 0.00017825 0.000198013 -0.000100791
-0.000633829 0.00016133 0.000202499 -8.00214e-05
-0.001902 0.000543686 0.000582134 -8.11887e-05
-0.0012717 0.000364815 0.000388665 -9.38925e-05
-0.000640292 0.000172084 0.000200661 -9.39298e-05
-0.00126628 0.000333941 0.000399574 -8.39991e-05
-0.00127114 0.000353475 0.000393284 -9.01861e-05
-0.00190008 0.000557545 0.000575372 -7.85038e-05
-0.00188648 0.000564274 0.000566662 -7.44121e-05
-0.000635746 0.000184542 0.000193373 -0.000103049
-0.000640282 0.00017825 0.000198013 -0.000100791
-0.0018953 0.00056336 0.000570833 -7.6486e-05
-0.00126392 0.000374658 0.000381114 -9.25508e-05
-0.000637525 0.000182314 0.000195091 -0.000103068
-0.0012717 0.000364815 0.000388665 -9.38925e-05
-0.00126896 0.000371505 0.000384625 -9.43776e-05
-0.00188648 0.000564274 0.000566662 -7.44121e-05
-0.00186756 0.000561061 0.000559929 -7.16834e-05
-0.000630246 0.000184099 0.000191206 -9.94459e-05
-0.000635746 0.000184542 0.000193373 -0.000103049
-0.00187633 0.000563251 0.00056275 -7.25997e-05
-0.00125134 0.000373499 0.000376218 -8.88037e-05
-0.000633727 0.000184868 0.000192368 -0.000101626
-0.00126392 0.000374658 0.000381114 -9.25508e-05
-0.00125768 0.000374921 0.000378327 -9.04181e-05
-0.00186756 0.000561061 0.000559929 -7.16834e-05
-0.00185113 0.000554588 0.000555662 -7.09095e-05
-0.000623364 0.000181932 0.000189185 -9.47518e-05
-0.000630246 0.000184099 0.000191206 -9.94459e-05
-0.00185941 0.00055799 0.000557753 -7.12649e-05
-0.00123906 0.000369302 0.000372754 -8.54387e-05
-0.000626421 0.000183081 0.000190003 -9.70017e-05
-0.00125134 0.000373499 0.000376218 -8.88037e-05
-0.00124507 0.000371531 0.000374376 -8.71418e-05
-0.00185113 0.000554588 0.000555662 -7.09095e-05
-0.0018362 0.000548359 0.000551932 -7.05757e-05
-0.000617793 0.000179327 0.000187914 -9.10189e-05
-0.000623364 0.000181932 0.000189185 -9.47518e-05
-0.00184323 0.00055136 0.000553657 -7.06455e-05
-0.00122818 0.000364551 0.000370127 -8.30605e-05
-0.000620635 0.000180632 0.000188573 -9.27484e-05
-0.00123906 0.000369302 0.000372754 -8.54387e-05
-0.0012334 0.000366908 0.000371353 -8.40555e-05
-0.0018362 0.000548359 0.000551932 -7.05757e-05
-0.00182347 0.000542944 0.000548798 -7.06035e-05
-0.000612728 0.000177137 0.000186682 -8.84269e-05
-0.000617793 0.000179327 0.000187914 -9.10189e-05
-0.00182973 0.000545543 0.000550365 -7.05981e-05
-0.00121885 0.000360478 0.000367873 -8.15349e-05
-0.000615078 0.000178167 0.000187248 -8.95717e-05
-0.00122818 0.000364551 0.000370127 -8.30605e-05
-0.00122335 0.00036241 0.000368975 -8.22368e-05
-0.00182347 0.000542944 0.000548798 -7.06035e-05
-0.00181187 0.000538452 0.000545751 -7.06336e-05
-0.000608492 0.000175346 0.000185634 -8.68288e-05
-0.000612728 0.000177137 0.000186682 -8.84269e-05
-0.0018175 0.000540594 0.000547245 -7.06067e-05
-0.00121064 0.000357101 0.000365804 -8.06337e-05
-0.000610586 0.000176196 0.000186167 -8.75285e-05
-0.00121885 0.000360478 0.000367873 -8.15349e-05
-0.00121463 0.00035871 0.000366822 -8.10066e-05
-0.00181187 0.000538452 0.000545751 -7.06336e-05
-0.00180118 0.000534615 0.000542812 -7.06842e-05
-0.00060461 0.000173919 0.000184582 -8.5893e-05
-0.000608492 0.000175346 0.000185634 -8.68288e-05
-0.00180647 0.000536467 0.000544286 -7.06665e-05
-0.00120319 0.000354328 0.000363798 -8.01186e-05
-0.000606487 0.000174594 0.000185097 -8.62922e-05
-0.00121064 0.000357101 0.000365804 -8.06337e-05
-0.00120685 0.000355651 0.000364798 -8.03461e-05
-0.00180118 0.000534615 0.000542812 -7.06842e-05
-0.00179091 0.00053122 0.000539869 -7.07028e-05
-0.000601038 0.000172722 0.000183564 -8.5381e-05
-0.00060461 0.000173919 0.000184582 -8.5893e-05
-0.00179599 0.000532874 0.000541337 -7.06938e-05
-0.00119618 0.000351942 0.000361817 -7.98397e-05
-0.000602811 0.000173298 0.000184077 -8.55982e-05
-0.00120319 0.000354328 0.000363798 -8.01186e-05
-0.00119965 0.000353097 0.000362806 -7.99542e-05
-0.00179091 0.00053122 0.000539869 -7.07028e-05
-0.00178093 0.000528084 0.000536936 -7.07105e-05
-0.000597593 0.000171671 0.000182538 -8.51109e-05
-0.000601038 0.000172722 0.000183564 -8.5381e-05
-0.00178591 0.000529628 0.000538406 -7.07094e-05
-0.00118942 0.000349802 0.000359837 -7.96902e-05
-0.000599298 0.000172183 0.000183049 -8.52232e-05
-0.00119618 0.000351942 0.000361817 -7.98397e-05
-0.00119278 0.000350849 0.000360828 -7.97548e-05
-0.00178093 0.000528084 0.000536936 -7.07105e-05
-0.00177108 0.000525094 0.000533992 -7.07059e-05
-0.000594235 0.000170699 0.000181515 -8.4976e-05
-0.000597593 0.000171671 0.000182538 -8.51109e-05
-0.00177599 0.000526576 0.000535464 -7.07087e-05
-0.00118279 0.000347796 0.000357855 -7.9613e-05
-0.000595911 0.000171178 0.000182028 -8.50318e-05
-0.00118942 0.000349802 0.000359837 -7.96902e-05
-0.0011861 0.000348787 0.000358846 -7.96446e-05
-0.00177108 0.000525094 0.000533992 -7.07059e-05
-0.00176129 0.000522181 0.000531046 -7.06981e-05
-0.000590907 0.000169768 0.000180488 -8.4911e-05
-0.000594235 0.000170699 0.000181515 -8.4976e-05
-0.00176618 0.000523631 0.00053252 -7.07025e-05
-0.00117622 0.000345863 0.000355868 -7.95725e-05
-0.000592567 0.00017023 0.000181002 -8.49374e-05
-0.00118279 0.000347796 0.000357855 -7.9613e-05
-0.0011795 0.000346823 0.000356862 -7.95899e-05
-0.00176129 0.000522181 0.000531046 -7.06981e-05
-0.00175153 0.000519304 0.000528095 -7.0689e-05
-0.000587596 0.000168855 0.00017946 -8.48814e-05
-0.000590907 0.000169768 0.000180488 -8.4911e-05
-0.0017564 0.000520739 0.000529571 -7.06934e-05
-0.00116968 0.000343963 0.000353878 -7.95515e-05
-0.000589251 0.00016931 0.000179975 -8.48933e-05
-0.00117622 0.000345863 0.000355868 -7.95725e-05
-0.00117295 0.00034491 0.000354873 -7.95602e-05
-0.00175153 0.000519304 0.000528095 -7.0689e-05
-0.00174178 0.000516443 0.000525142 -7.0681e-05
-0.000584287 0.000167948 0.000178431 -8.48683e-05
-0.000587596 0.000168855 0.00017946 -8.48814e-05
-0.00174665 0.000517872 0.000526619 -7.06848e-05
-0.00116315 0.000342079 0.000351887 -7.95401e-05
-0.000585941 0.000168401 0.000178946 -8.48735e-05
-0.00116968 0.000343963 0.000353878 -7.95515e-05
-0.00116641 0.00034302 0.000352883 -7.9545e-05
-0.00174178 0.000516443 0.000525142 -7.0681e-05
-0.00173203 0.000513588 0.000522189 -7.06745e-05
-0.000580979 0.000167043 0.000177401 -8.48627e-05
-0.000584287 0.000167948 0.000178431 -8.48683e-05
-0.0017369 0.000515015 0.000523666 -7.06775e-05
-0.00115662 0.000340199 0.000349894 -7.95337e-05
-0.000582634 0.000167496 0.000177916 -8.48649e-05
-0.00116315 0.000342079 0.000351887 -7.95401e-05
-0.00115988 0.000341139 0.00035089 -7.95364e-05
-0.00173203 0.000513588 0.000522189 -7.06745e-05
-0.00172228 0.000510734 0.000519235 -7.06696e-05
-0.00057767 0.000166136 0.000176372 -8.48603e-05
-0.000580979 0.000167043 0.000177401 -8.48627e-05
-0.00172715 0.000512161 0.000520712 -7.06719e-05
-0.00115009 0.00033832 0.000347901 -7.95299e-05
-0.000579325 0.00016659 0.000176887 -8.48613e-05
-0.00115662 0.000340199 0.000349894 -7.95337e-05
-0.00115335 0.00033926 0.000348898 -7.95316e-05
-0.00172228 0.000510734 0.000519235 -7.06696e-05
-0.00171253 0.000507879 0.000516281 -7.06662e-05
-0.00057436 0.000165227 0.000175342 -8.48592e-05
-0.00057767 0.000166136 0.000176372 -8.48603e-05
-0.00171741 0.000509307 0.000517757 -7.06678e-05
-0.00114356 0.00033644 0.000345909 -7.95275e-05
-0.000576015 0.000165682 0.000175857 -8.48597e-05
-0.00115009 0.00033832 0.000347901 -7.95299e-05
-0.00114683 0.00033738 0.000346905 -7.95285e-05
-0.00171253 0.000507879 0.000516281 -7.06662e-05
-0.00170279 0.000505024 0.000513327 -7.0664e-05
-0.000571048 0.000164317 0.000174314 -8.48584e-05
-0.00057436 0.000165227 0.000175342 -8.48592e-05
-0.00170766 0.000506452 0.000514804 -7.0665e-05
-0.00113703 0.000334558 0.000343916 -7.95259e-05
-0.000572704 0.000164772 0.000174828 -8.48588e-05
-0.00114356 0.00033644 0.000345909 -7.95275e-05
-0.00114029 0.000335499 0.000344912 -7.95266e-05
-0.00170279 0.000505024 0.000513327 -7.0664e-05
-0.00169304 0.000502167 0.000510374 -7.06624e-05
-0.000567736 0.000163404 0.000173285 -8.48577e-05
-0.000571048 0.000164317 0.000174314 -8.48584e-05
-0.00169791 0.000503596 0.00051185 -7.06631e-05
-0.0011305 0.000332675 0.000341924 -7.95247e-05
-0.000569392 0.000163861 0.000173799 -8.48581e-05
-0.00113703 0.000334558 0.000343916 -7.95259e-05
-0.00113376 0.000333617 0.00034292 -7.95252e-05
-0.00169304 0.000502167 0.000510374 -7.06624e-05
-0.00168329 0.000499309 0.000507421 -7.06615e-05
-0.000564424 0.000162491 0.000172257 -8.48571e-05
-0.000567736 0.000163404 0.000173285 -8.48577e-05
-0.00168816 0.000500738 0.000508897 -7.06619e-05
-0.00112397 0.000330791 0.000339933 -7.95239e-05
-0.00056608 0.000162948 0.000172771 -8.48574e-05
-0.0011305 0.000332675 0.000341924 -7.95247e-05
-0.00112723 0.000331733 0.000340928 -7.95243e-05
-0.00168329 0.000499309 0.000507421 -7.06615e-05
-0.00167354 0.000496451 0.000504468 -7.06608e-05
-0.000561111 0.000161576 0.000171229 -8.48564e-05
-0.000564424 0.000162491 0.000172257 -8.48571e-05
-0.00167842 0.00049788 0.000505944 -7.06611e-05
-0.00111744 0.000328906 0.000337942 -7.95232e-05
-0.000562767 0.000162034 0.000171743 -8.48567e-05
-0.00112397 0.000330791 0.000339933 -7.95239e-05
-0.0011207 0.000329849 0.000338937 -7.95235e-05
-0.00167354 0.000496451 0.000504468 -7.06608e-05
-0.0016638 0.000493592 0.000501516 -7.06604e-05
-0.000557799 0.000160661 0.000170202 -8.48556e-05
-0.000561111 0.000161576 0.000171229 -8.48564e-05
-0.00166867 0.000495022 0.000502992 -7.06606e-05
-0.00111091 0.00032702 0.000335951 -7.95226e-05
-0.000559455 0.000161119 0.000170716 -8.4856e-05
-0.00111744 0.000328906 0.000337942 -7.95232e-05
-0.00111417 0.000327963 0.000336946 -7.95229e-05
-0.0016638 0.000493592 0.000501516 -7.06604e-05
-0.00165405 0.000490733 0.000498564 -7.066e-05
-0.000554488 0.000159746 0.000169175 -8.48549e-05
-0.000557799 0.000160661 0.000170202 -8.48556e-05
-0.00165892 0.000492162 0.00050004 -7.06602e-05
-0.00110438 0.000325134 0.000333961 -7.9522e-05
-0.000556144 0.000160204 0.000169689 -8.48553e-05
-0.00111091 0.00032702 0.000335951 -7.95226e-05
-0.00110764 0.000326077 0.000334956 -7.95223e-05
-0.00165405 0.000490733 0.000498564 -7.066e-05
-0.0016443 0.000487873 0.000495613 -7.06596e-05
-0.000551177 0.00015883 0.000168149 -8.4854e-05
-0.000554488 0.000159746 0.000169175 -8.48549e-05
-0.00164918 0.000489303 0.000497089 -7.06598e-05
-0.00109785 0.000323247 0.000331971 -7.95214e-05
-0.000552832 0.000159288 0.000168662 -8.48545e-05
-0.00110438 0.000325134 0.000333961 -7.9522e-05
-0.00110111 0.000324191 0.000332965 -7.95217e-05
-0.0016443 0.000487873 0.000495613 -7.06596e-05
-0.00163456 0.000485013 0.000492662 -7.06593e-05
-0.000547866 0.000157913 0.000167123 -8.48532e-05
-0.000551177 0.00015883 0.000168149 -8.4854e-05
-0.00163943 0.000486443 0.000494138 -7.06595e-05
-0.00109132 0.00032136 0.000329981 -7.95208e-05
-0.000549522 0.000158372 0.000167636 -8.48536e-05
-0.00109785 0.000323247 0.000331971 -7.95214e-05
-0.00109458 0.000322304 0.000330976 -7.95211e-05
-0.00163456 0.000485013 0.000492662 -7.06593e-05
-0.00162481 0.000482153 0.000489712 -7.06589e-05
-0.000544557 0.000156997 0.000166097 -8.48523e-05
-0.000547866 0.000157913 0.000167123 -8.48532e-05
-0.00162969 0.000483583 0.000491187 -7.06591e-05
-0.00108479 0.000319473 0.000327992 -7.95202e-05
-0.000546211 0.000157455 0.00016661 -8.48527e-05
-0.00109132 0.00032136 0.000329981 -7.95208e-05
-0.00108805 0.000320417 0.000328986 -7.95205e-05
-0.00162481 0.000482153 0.000489712 -7.06589e-05
-0.00161507 0.000479293 0.000486761 -7.06585e-05
-0.000541247 0.00015608 0.000165072 -8.48514e-05
-0.000544557 0.000156997 0.000166097 -8.48523e-05
-0.00161994 0.000480723 0.000488236 -7.06587e-05
-0.00107826 0.000317586 0.000326003 -7.95195e-05
-0.000542902 0.000156538 0.000165584 -8.48518e-05
-0.00108479 0.000319473 0.000327992 -7.95202e-05
-0.00108152 0.00031853 0.000326997 -7.95198e-05
-0.00161507 0.000479293 0.000486761 -7.06585e-05
-0.00160533 0.000476432 0.000483811 -7.0658e-05
-0.000537939 0.000155162 0.000164047 -8.48504e-05
-0.000541247 0.00015608 0.000165072 -8.48514e-05
-0.0016102 0.000477863 0.000485286 -7.06583e-05
-0.00107173 0.000315698 0.000324015 -7.95188e-05
-0.000539593 0.000155621 0.000164559 -8.48509e-05
-0.00107826 0.000317586 0.000326003 -7.95195e-05
-0.001075 0.000316642 0.000325009 -7.95192e-05
-0.00160533 0.000476432 0.000483811 -7.0658e-05
-0.00159558 0.000473572 0.000480862 -7.06575e-05
-0.000534631 0.000154245 0.000163023 -8.48494e-05
-0.000537939 0.000155162 0.000164047 -8.48504e-05
-0.00160045 0.000475002 0.000482337 -7.06578e-05
-0.00106521 0.00031381 0.000322027 -7.95181e-05
-0.000536285 0.000154704 0.000163535 -8.48499e-05
-0.00107173 0.000315698 0.000324015 -7.95188e-05
-0.00106847 0.000314754 0.000323021 -7.95184e-05
-0.00159558 0.000473572 0.000480862 -7.06575e-05
-0.00158584 0.000470711 0.000477913 -7.0657e-05
-0.000531323 0.000153327 0.000161998 -8.48484e-05
-0.000534631 0.000154245 0.000163023 -8.48494e-05
-0.00159071 0.000472141 0.000479387 -7.06573e-05
-0.00105868 0.000311922 0.000320039 -7.95173e-05
-0.000532977 0.000153786 0.00016251 -8.48489e-05
-0.00106521 0.00031381 0.000322027 -7.95181e-05
-0.00106194 0.000312866 0.000321033 -7.95177e-05
-0.00158584 0.000470711 0.000477913 -7.0657e-05
-0.0015761 0.00046785 0.000474964 -7.06565e-05
-0.000528016 0.000152409 0.000160975 -8.48473e-05
-0.000531323 0.000153327 0.000161998 -8.48484e-05
-0.00158097 0.00046928 0.000476438 -7.06567e-05
-0.00105215 0.000310034 0.000318051 -7.95165e-05
-0.00052967 0.000152868 0.000161486 -8.48479e-05
-0.00105868 0.000311922 0.000320039 -7.95173e-05
-0.00105542 0.000310978 0.000319045 -7.95169e-05
-0.0015761 0.00046785 0.000474964 -7.06565e-05
-0.00156636 0.000464988 0.000472015 -7.06559e-05
-0.00052471 0.00015149 0.000159951 -8.48463e-05
-0.000528016 0.000152409 0.000160975 -8.48473e-05
-0.00157123 0.000466419 0.000473489 -7.06562e-05
-0.00104563 0.000308145 0.000316064 -7.95156e-05
-0.000526363 0.00015195 0.000160463 -8.48468e-05
-0.00105215 0.000310034 0.000318051 -7.95165e-05
-0.00104889 0.000309089 0.000317058 -7.95161e-05
-0.00156636 0.000464988 0.000472015 -7.06559e-05
-0.00155662 0.000462127 0.000469067 -7.06553e-05
-0.000521404 0.000150572 0.000158928 -8.48451e-05
-0.00052471 0.00015149 0.000159951 -8.48463e-05
-0.00156149 0.000463558 0.000470541 -7.06556e-05
-0.0010391 0.000306256 0.000314078 -7.95148e-05
-0.000523057 0.000151031 0.00015944 -8.48457e-05
-0.00104563 0.000308145 0.000316064 -7.95156e-05
-0.00104237 0.000307201 0.000315071 -7.95152e-05
-0.00155662 0.000462127 0.000469067 -7.06553e-05
-0.00154688 0.000459265 0.000466119 -7.06546e-05
-0.000518099 0.000149653 0.000157905 -8.4844e-05
-0.000521404 0.000150572 0.000158928 -8.48451e-05
-0.00155175 0.000460696 0.000467593 -7.0655e-05
-0.00103258 0.000304367 0.000312092 -7.95139e-05
-0.000519751 0.000150112 0.000158417 -8.48446e-05
-0.0010391 0.000306256 0.000314078 -7.95148e-05
-0.00103584 0.000305312 0.000313085 -7.95143e-05
-0.00154688 0.000459265 0.000466119 -7.06546e-05
-0.00153714 0.000456404 0.000463171 -7.0654e-05
-0.000514794 0.000148734 0.000156883 -8.48428e-05
-0.000518099 0.000149653 0.000157905 -8.4844e-05
-0.00154201 0.000457834 0.000464645 -7.06543e-05
-0.00102606 0.000302478 0.000310106 -7.9513e-05
-0.000516446 0.000149193 0.000157394 -8.48434e-05
-0.00103258 0.000304367 0.000312092 -7.95139e-05
-0.00102932 0.000303422 0.000311099 -7.95134e-05
-0.00153714 0.000456404 0.000463171 -7.0654e-05
-0.0015274 0.000453542 0.000460224 -7.06533e-05
-0.00051149 0.000147814 0.000155861 -8.48417e-05
-0.000514794 0.000148734 0.000156883 -8.48428e-05
-0.00153227 0.000454973 0.000461698 -7.06536e-05
-0.00101953 0.000300588 0.00030812 -7.9512e-05
-0.000513142 0.000148274 0.000156372 -8.48423e-05
-0.00102606 0.000302478 0.000310106 -7.9513e-05
-0.0010228 0.000301533 0.000309113 -7.95125e-05
-0.0015274 0.000453542 0.000460224 -7.06533e-05
-0.00151766 0.000450679 0.000457277 -7.06526e-05
-0.000508187 0.000146894 0.00015484 -8.48405e-05
-0.00051149 0.000147814 0.000155861 -8.48417e-05
-0.00152253 0.00045211 0.000458751 -7.06529e-05
-0.00101301 0.000298698 0.000306135 -7.95111e-05
-0.000509838 0.000147354 0.00015535 -8.48411e-05
-0.00101953 0.000300588 0.00030812 -7.9512e-05
-0.00101627 0.000299643 0.000307127 -7.95116e-05
-0.00151766 0.000450679 0.000457277 -7.06526e-05
-0.00150792 0.000447817 0.000454331 -7.06519e-05
-0.000504884 0.000145974 0.000153818 -8.48392e-05
-0.000508187 0.000146894 0.00015484 -8.48405e-05
-0.00151279 0.000449248 0.000455804 -7.06522e-05
-0.00100649 0.000296808 0.00030415 -7.95101e-05
-0.000506535 0.000146434 0.000154329 -8.48398e-05
-0.00101301 0.000298698 0.000306135 -7.95111e-05
-0.00100975 0.000297753 0.000305142 -7.95106e-05
-0.00150792 0.000447817 0.000454331 -7.06519e-05
-0.00149819 0.000444954 0.000451385 -7.06511e-05
-0.000501581 0.000145054 0.000152797 -8.4838e-05
-0.000504884 0.000145974 0.000153818 -8.48392e-05
-0.00150305 0.000446386 0.000452858 -7.06515e-05
-0.000999971 0.000294918 0.000302166 -7.95091e-05
-0.000503233 0.000145514 0.000153308 -8.48386e-05
-0.00100649 0.000296808 0.00030415 -7.95101e-05
-0.00100323 0.000295863 0.000303158 -7.95096e-05
-0.00149819 0.000444954 0.000451385 -7.06511e-05
-0.00148845 0.000442092 0.000448439 -7.06504e-05
-0.00049828 0.000144133 0.000151777 -8.48367e-05
-0.000501581 0.000145054 0.000152797 -8.4838e-05
-0.00149332 0.000443523 0.000449912 -7.06508e-05
-0.000993451 0.000293027 0.000300182 -7.95081e-05
-0.00049993 0.000144594 0.000152287 -8.48373e-05
-0.000999971 0.000294918 0.000302166 -7.95091e-05
-0.000996711 0.000293973 0.000301174 -7.95086e-05
-0.00148845 0.000442092 0.000448439 -7.06504e-05
-0.00147871 0.000439229 0.000445494 -7.06496e-05
-0.000494978 0.000143213 0.000150757 -8.48354e-05
-0.00049828 0.000144133 0.000151777 -8.48367e-05
-0.00148358 0.00044066 0.000446966 -7.065e-05
-0.000986931 0.000291136 0.000298198 -7.9507e-05
-0.000496629 0.000143673 0.000151267 -8.48361e-05
-0.000993451 0.000293027 0.000300182 -7.95081e-05
-0.000990191 0.000292082 0.00029919 -7.95076e-05
-0.00147871 0.000439229 0.000445494 -7.06496e-05
-0.00146898 0.000436366 0.000442548 -7.06488e-05
-0.000491678 0.000142291 0.000149737 -8.48341e-05
-0.000494978 0.000143213 0.000150757 -8.48354e-05
-0.00147385 0.000437797 0.000444021 -7.06492e-05
-0.000980412 0.000289245 0.000296214 -7.9506e-05
-0.000493328 0.000142752 0.000150247 -8.48348e-05
-0.000986931 0.000291136 0.000298198 -7.9507e-05
-0.000983672 0.000290191 0.000297206 -7.95065e-05
-0.00146898 0.000436366 0.000442548 -7.06488e-05
-0.00145924 0.000433502 0.000439604 -7.0648e-05
-0.000488378 0.00014137 0.000148718 -8.48328e-05
-0.000491678 0.000142291 0.000149737 -8.48341e-05
-0.00146411 0.000434934 0.000441076 -7.06484e-05
-0.000973894 0.000287354 0.000294231 -7.95049e-05
-0.000490028 0.000141831 0.000149227 -8.48334e-05
-0.000980412 0.000289245 0.000296214 -7.9506e-05
-0.000977153 0.0002883 0.000295223 -7.95055e-05
-0.00145924 0.000433502 0.000439604 -7.0648e-05
-0.00144951 0.000430639 0.000436659 -7.06472e-05
-0.000485078 0.000140448 0.000147699 -8.48314e-05
-0.000488378 0.00014137 0.000148718 -8.48328e-05
-0.00145438 0.000432071 0.000438131 -7.06476e-05
-0.000967376 0.000285463 0.000292249 -7.95038e-05
-0.000486728 0.000140909 0.000148208 -8.48321e-05
-0.000973894 0.000287354 0.000294231 -7.95049e-05
-0.000970635 0.000286408 0.00029324 -7.95044e-05
-0.00144951 0.000430639 0.000436659 -7.06472e-05
-0.00143978 0.000427775 0.000433715 -7.06464e-05
-0.00048178 0.000139526 0.00014668 -8.48301e-05
-0.000485078 0.000140448 0.000147699 -8.48314e-05
-0.00144464 0.000429207 0.000435187 -7.06468e-05
-0.000960859 0.000283571 0.000290266 -7.95027e-05
-0.000483429 0.000139987 0.000147189 -8.48308e-05
-0.000967376 0.000285463 0.000292249 -7.95038e-05
-0.000964118 0.000284517 0.000291258 -7.95033e-05
-0.00143978 0.000427775 0.000433715 -7.06464e-05
-0.00143005 0.000424911 0.000430772 -7.06455e-05
-0.000478481 0.000138604 0.000145662 -8.48287e-05
-0.00048178 0.000139526 0.00014668 -8.48301e-05
-0.00143491 0.000426343 0.000432243 -7.0646e-05
-0.000954343 0.000281679 0.000288285 -7.95016e-05
-0.00048013 0.000139065 0.000146171 -8.48294e-05
-0.000960859 0.000283571 0.000290266 -7.95027e-05
-0.000957601 0.000282625 0.000289275 -7.95022e-05
-0.00143005 0.000424911 0.000430772 -7.06455e-05
-0.00142031 0.000422047 0.000427828 -7.06447e-05
-0.000475183 0.000137682 0.000144644 -8.48273e-05
-0.000478481 0.000138604 0.000145662 -8.48287e-05
-0.00142518 0.000423479 0.0004293 -7.06451e-05
-0.000947827 0.000279787 0.000286303 -7.95005e-05
-0.000476832 0.000138143 0.000145153 -8.4828e-05
-0.000954343 0.000281679 0.000288285 -7.95016e-05
-0.000951085 0.000280733 0.000287294 -7.9501e-05
-0.00142031 0.000422047 0.000427828 -7.06447e-05
-0.00141058 0.000419183 0.000424885 -7.06438e-05
-0.000471886 0.000136759 0.000143626 -8.48259e-05
-0.000475183 0.000137682 0.000144644 -8.48273e-05
-0.00141545 0.000420615 0.000426357 -7.06443e-05
-0.000941312 0.000277894 0.000284322 -7.94993e-05
-0.000473535 0.00013722 0.000144135 -8.48266e-05
-0.000947827 0.000279787 0.000286303 -7.95005e-05
-0.000944569 0.00027884 0.000285312 -7.94999e-05
-0.00141058 0.000419183 0.000424885 -7.06438e-05
-0.00140085 0.000416319 0.000421943 -7.06429e-05
-0.00046859 0.000135836 0.000142609 -8.48245e-05
-0.000471886 0.000136759 0.000143626 -8.48259e-05
-0.00140572 0.000417751 0.000423414 -7.06434e-05
-0.000934797 0.000276001 0.000282341 -7.94981e-05
-0.000470238 0.000136297 0.000143118 -8.48252e-05
-0.000941312 0.000277894 0.000284322 -7.94993e-05
-0.000938054 0.000276948 0.000283331 -7.94987e-05
-0.00140085 0.000416319 0.000421943 -7.06429e-05
-0.00139112 0.000413454 0.000419 -7.0642e-05
-0.000465294 0.000134912 0.000141592 -8.4823e-05
-0.00046859 0.000135836 0.000142609 -8.48245e-05
-0.00139599 0.000414886 0.000420472 -7.06425e-05
-0.000928283 0.000274108 0.000280361 -7.9497e-05
-0.000466942 0.000135374 0.0001421 -8.48237e-05
-0.000934797 0.000276001 0.000282341 -7.94981e-05
-0.00093154 0.000275055 0.000281351 -7.94976e-05
-0.00139112 0.000413454 0.000419 -7.0642e-05
-0.00138139 0.000410589 0.000416059 -7.06411e-05
-0.000461998 0.000133989 0.000140576 -8.48216e-05
-0.000465294 0.000134912 0.000141592 -8.4823e-05
-0.00138626 0.000412022 0.000417529 -7.06416e-05
-0.00092177 0.000272215 0.000278381 -7.94958e-05
-0.000463646 0.00013445 0.000141084 -8.48223e-05
-0.000928283 0.000274108 0.000280361 -7.9497e-05
-0.000925026 0.000273162 0.000279371 -7.94964e-05
-0.00138139 0.000410589 0.000416059 -7.06411e-05
-0.00137166 0.000407724 0.000413117 -7.06402e-05
-0.000458704 0.000133065 0.00013956 -8.48201e-05
-0.000461998 0.000133989 0.000140576 -8.48216e-05
-0.00137653 0.000409157 0.000414588 -7.06407e-05
-0.000915257 0.000270322 0.000276401 -7.94946e-05
-0.000460351 0.000133527 0.000140068 -8.48208e-05
-0.00092177 0.000272215 0.000278381 -7.94958e-05
-0.000918513 0.000271269 0.000277391 -7.94952e-05
-0.00137166 0.000407724 0.000413117 -7.06402e-05
-0.00136194 0.000404859 0.000410176 -7.06393e-05
-0.000455409 0.00013214 0.000138544 -8.48186e-05
-0.000458704 0.000133065 0.00013956 -8.48201e-05
-0.0013668 0.000406292 0.000411646 -7.06398e-05
-0.000908745 0.000268428 0.000274421 -7.94933e-05
-0.000457056 0.000132602 0.000139052 -8.48193e-05
-0.000915257 0.000270322 0.000276401 -7.94946e-05
-0.000912001 0.000269375 0.000275411 -7.9494e-05
-0.00136194 0.000404859 0.000410176 -7.06393e-05
-0.00135221 0.000401994 0.000407235 -7.06383e-05
-0.000452116 0.000131216 0.000137529 -8.48171e-05
-0.000455409 0.00013214 0.000138544 -8.48186e-05
-0.00135707 0.000403426 0.000408705 -7.06388e-05
-0.000902233 0.000266534 0.000272443 -7.94921e-05
-0.000453762 0.000131678 0.000138036 -8.48179e-05
-0.000908745 0.000268428 0.000274421 -7.94933e-05
-0.000905489 0.000267481 0.000273432 -7.94927e-05
-0.00135221 0.000401994 0.000407235 -7.06383e-05
-0.00134248 0.000399128 0.000404294 -7.06374e-05
-0.000448823 0.000130291 0.000136514 -8.48156e-05
-0.000452116 0.000131216 0.000137529 -8.48171e-05
-0.00134735 0.000400561 0.000405765 -7.06379e-05
-0.000895723 0.00026464 0.000270464 -7.94909e-05
-0.000450469 0.000130753 0.000137021 -8.48164e-05
-0.000902233 0.000266534 0.000272443 -7.94921e-05
-0.000898978 0.000265587 0.000271453 -7.94915e-05
-0.00134248 0.000399128 0.000404294 -7.06374e-05
-0.00133276 0.000396263 0.000401354 -7.06364e-05
-0.00044553 0.000129366 0.000135499 -8.48141e-05
-0.000448823 0.000130291 0.000136514 -8.48156e-05
-0.00133762 0.000397695 0.000402824 -7.06369e-05
-0.000889212 0.000262746 0.000268486 -7.94896e-05
-0.000447176 0.000129829 0.000136006 -8.48148e-05
-0.000895723 0.00026464 0.000270464 -7.94909e-05
-0.000892467 0.000263693 0.000269475 -7.94902e-05
-0.00133276 0.000396263 0.000401354 -7.06364e-05
-0.00132303 0.000393397 0.000398415 -7.06355e-05
-0.000442238 0.000128441 0.000134485 -8.48126e-05
-0.00044553 0.000129366 0.000135499 -8.48141e-05
-0.00132789 0.00039483 0.000399884 -7.0636e-05
-0.000882703 0.000260851 0.000266508 -7.94884e-05
-0.000443884 0.000128903 0.000134992 -8.48133e-05
-0.000889212 0.000262746 0.000268486 -7.94896e-05
-0.000885958 0.000261798 0.000267497 -7.9489e-05
-0.00132303 0.000393397 0.000398415 -7.06355e-05
-0.00131331 0.000390531 0.000395475 -7.06345e-05
-0.000438947 0.000127515 0.000133471 -8.4811e-05
-0.000442238 0.000128441 0.000134485 -8.48126e-05
-0.00131817 0.000391964 0.000396945 -7.0635e-05
-0.000876194 0.000258956 0.00026453 -7.94871e-05
-0.000440593 0.000127978 0.000133978 -8.48118e-05
-0.000882703 0.000260851 0.000266508 -7.94884e-05
-0.000879448 0.000259904 0.000265519 -7.94877e-05
-0.00131331 0.000390531 0.000395475 -7.06345e-05
-0.00130358 0.000387664 0.000392536 -7.06335e-05
-0.000435656 0.000126589 0.000132457 -8.48095e-05
-0.000438947 0.000127515 0.000133471 -8.4811e-05
-0.00130844 0.000389098 0.000394006 -7.0634e-05
-0.000869685 0.000257061 0.000262553 -7.94858e-05
-0.000437302 0.000127052 0.000132964 -8.48102e-05
-0.000876194 0.000258956 0.00026453 -7.94871e-05
-0.00087294 0.000258009 0.000263542 -7.94864e-05
-0.00130358 0.000387664 0.000392536 -7.06335e-05
-0.00129386 0.000384798 0.000389597 -7.06325e-05
-0.000432366 0.000125663 0.000131444 -8.48079e-05
-0.000435656 0.000126589 0.000132457 -8.48095e-05
-0.00129872 0.000386231 0.000391067 -7.0633e-05
-0.000863178 0.000255166 0.000260576 -7.94845e-05
-0.000434011 0.000126126 0.000131951 -8.48087e-05
-0.000869685 0.000257061 0.000262553 -7.94858e-05
-0.000866432 0.000256114 0.000261565 -7.94852e-05
-0.00129386 0.000384798 0.000389597 -7.06325e-05
-0.00128414 0.000381931 0.000386659 -7.06315e-05
-0.000429077 0.000124737 0.000130431 -8.48063e-05
-0.000432366 0.000125663 0.000131444 -8.48079e-05
-0.001289 0.000383365 0.000388128 -7.0632e-05
-0.000856671 0.00025327 0.0002586 -7.94832e-05
-0.000430721 0.0001252 0.000130938 -8.48071e-05
-0.000863178 0.000255166 0.000260576 -7.94845e-05
-0.000859924 0.000254218 0.000259588 -7.94839e-05
-0.00128414 0.000381931 0.000386659 -7.06315e-05
-0.00127441 0.000379065 0.000383721 -7.06305e-05
-0.000425788 0.00012381 0.000129419 -8.48048e-05
-0.000429077 0.000124737 0.000130431 -8.48063e-05
-0.00127927 0.000380498 0.00038519 -7.0631e-05
-0.000850164 0.000251375 0.000256624 -7.94819e-05
-0.000427432 0.000124273 0.000129925 -8.48055e-05
-0.000856671 0.00025327 0.0002586 -7.94832e-05
-0.000853417 0.000252323 0.000257612 -7.94826e-05
-0.00127441 0.000379065 0.000383721 -7.06305e-05
-0.00126469 0.000376198 0.000380783 -7.06295e-05
-0.000422499 0.000122883 0.000128407 -8.48032e-05
-0.000425788 0.00012381 0.000129419 -8.48048e-05
-0.00126955 0.000377631 0.000382252 -7.063e-05
-0.000843658 0.000249479 0.000254648 -7.94806e-05
-0.000424143 0.000123346 0.000128913 -8.4804e-05
-0.000850164 0.000251375 0.000256624 -7.94819e-05
-0.000846911 0.000250427 0.000255636 -7.94812e-05
-0.00126469 0.000376198 0.000380783 -7.06295e-05
-0.00125497 0.000373331 0.000377846 -7.06285e-05
-0.000419211 0.000121956 0.000127395 -8.48016e-05
-0.000422499 0.000122883 0.000128407 -8.48032e-05
-0.00125983 0.000374764 0.000379315 -7.0629e-05
-0.000837153 0.000247582 0.000252673 -7.94793e-05
-0.000420855 0.000122419 0.000127901 -8.48024e-05
-0.000843658 0.000249479 0.000254648 -7.94806e-05
-0.000840406 0.00024853 0.000253661 -7.94799e-05
-0.00125497 0.000373331 0.000377846 -7.06285e-05
-0.00124525 0.000370463 0.000374909 -7.06274e-05
-0.000415924 0.000121028 0.000126384 -8.48e-05
-0.000419211 0.000121956 0.000127395 -8.48016e-05
-0.00125011 0.000371897 0.000376378 -7.06279e-05
-0.000830649 0.000245686 0.000250698 -7.94779e-05
-0.000417568 0.000121492 0.00012689 -8.48008e-05
-0.000837153 0.000247582 0.000252673 -7.94793e-05
-0.000833901 0.000246634 0.000251686 -7.94786e-05
-0.00124525 0.000370463 0.000374909 -7.06274e-05
-0.00123553 0.000367596 0.000371973 -7.06264e-05
-0.000412638 0.0001201 0.000125373 -8.47984e-05
-0.000415924 0.000121028 0.000126384 -8.48e-05
-0.00124039 0.00036903 0.000373441 -7.06269e-05
-0.000824145 0.000243789 0.000248724 -7.94766e-05
-0.000414281 0.000120564 0.000125879 -8.47992e-05
-0.000830649 0.000245686 0.000250698 -7.94779e-05
-0.000827397 0.000244738 0.000249711 -7.94773e-05
-0.00123553 0.000367596 0.000371973 -7.06264e-05
-0.00122581 0.000364728 0.000369037 -7.06254e-05
-0.000409352 0.000119172 0.000124363 -8.47968e-05
-0.000412638 0.0001201 0.000125373 -8.47984e-05
-0.00123067 0.000366162 0.000370505 -7.06259e-05
-0.000817641 0.000241892 0.00024675 -7.94753e-05
-0.000410994 0.000119636 0.000124868 -8.47976e-05
-0.000824145 0.000243789 0.000248724 -7.94766e-05
-0.000820893 0.000242841 0.000247737 -7.94759e-05
-0.00122581 0.000364728 0.000369037 -7.06254e-05
-0.0012161 0.00036186 0.000366101 -7.06243e-05
-0.000406066 0.000118244 0.000123352 -8.47951e-05
-0.000409352 0.000119172 0.000124363 -8.47968e-05
-0.00122095 0.000363294 0.000367569 -7.06248e-05
-0.000811139 0.000239995 0.000244776 -7.94739e-05
-0.000407709 0.000118708 0.000123857 -8.47959e-05
-0.000817641 0.000241892 0.00024675 -7.94753e-05
-0.00081439 0.000240944 0.000245763 -7.94746e-05
-0.0012161 0.00036186 0.000366101 -7.06243e-05
-0.00120638 0.000358992 0.000363165 -7.06233e-05
-0.000402781 0.000117315 0.000122343 -8.47935e-05
-0.000406066 0.000118244 0.000123352 -8.47951e-05
-0.00121124 0.000360427 0.000364633 -7.06238e-05
-0.000804637 0.000238098 0.000242803 -7.94726e-05
-0.000404424 0.000117779 0.000122848 -8.47943e-05
-0.000811139 0.000239995 0.000244776 -7.94739e-05
-0.000807888 0.000239046 0.000243789 -7.94732e-05
-0.00120638 0.000358992 0.000363165 -7.06233e-05
-0.00119666 0.000356124 0.00036023 -7.06222e-05
-0.000399497 0.000116386 0.000121333 -8.47919e-05
-0.000402781 0.000117315 0.000122343 -8.47935e-05
-0.00120152 0.000357558 0.000361698 -7.06227e-05
-0.000798135 0.0002362 0.000240829 -7.94712e-05
-0.000401139 0.000116851 0.000121838 -8.47927e-05
-0.000804637 0.000238098 0.000242803 -7.94726e-05
-0.000801386 0.000237149 0.000241816 -7.94719e-05
-0.00119666 0.000356124 0.00036023 -7.06222e-05
-0.00118695 0.000353256 0.000357296 -7.06212e-05
-0.000396213 0.000115457 0.000120324 -8.47902e-05
-0.000399497 0.000116386 0.000121333 -8.47919e-05
-0.0011918 0.00035469 0.000358763 -7.06217e-05
-0.000791635 0.000234302 0.000238857 -7.94698e-05
-0.000397855 0.000115922 0.000120829 -8.47911e-05
-0.000798135 0.0002362 0.000240829 -7.94712e-05
-0.000794885 0.000235251 0.000239843 -7.94705e-05
-0.00118695 0.000353256 0.000357296 -7.06212e-05
-0.00117723 0.000350387 0.000354361 -7.06201e-05
-0.00039293 0.000114527 0.000119315 -8.47886e-05
-0.000396213 0.000115457 0.000120324 -8.47902e-05
-0.00118209 0.000351822 0.000355828 -7.06206e-05
-0.000785135 0.000232404 0.000236885 -7.94685e-05
-0.000394572 0.000114992 0.00011982 -8.47894e-05
-0.000791635 0.000234302 0.000238857 -7.94698e-05
-0.000788385 0.000233353 0.000237871 -7.94692e-05
-0.00117723 0.000350387 0.000354361 -7.06201e-05
-0.00116752 0.000347519 0.000351427 -7.0619e-05
-0.000389648 0.000113598 0.000118307 -8.4787e-05
-0.00039293 0.000114527 0.000119315 -8.47886e-05
-0.00117237 0.000348953 0.000352894 -7.06196e-05
-0.000778635 0.000230506 0.000234913 -7.94671e-05
-0.000391289 0.000114063 0.000118811 -8.47878e-05
-0.000785135 0.000232404 0.000236885 -7.94685e-05
-0.000781885 0.000231455 0.000235899 -7.94678e-05
-0.00116752 0.000347519 0.000351427 -7.0619e-05
-0.0011578 0.00034465 0.000348494 -7.0618e-05
-0.000386366 0.000112668 0.000117299 -8.47853e-05
-0.000389648 0.000113598 0.000118307 -8.4787e-05
-0.00116266 0.000346084 0.00034996 -7.06185e-05
-0.000772136 0.000228607 0.000232941 -7.94657e-05
-0.000388007 0.000113133 0.000117803 -8.47861e-05
-0.000778635 0.000230506 0.000234913 -7.94671e-05
-0.000775386 0.000229556 0.000233927 -7.94664e-05
-0.0011578 0.00034465 0.000348494 -7.0618e-05
-0.00114809 0.000341781 0.00034556 -7.06169e-05
-0.000383084 0.000111737 0.000116292 -8.47837e-05
-0.000386366 0.000112668 0.000117299 -8.47853e-05
-0.00115294 0.000343215 0.000347027 -7.06174e-05
-0.000765638 0.000226708 0.00023097 -7.94644e-05
-0.000384725 0.000112202 0.000116795 -8.47845e-05
-0.000772136 0.000228607 0.000232941 -7.94657e-05
-0.000768887 0.000227658 0.000231955 -7.94651e-05
-0.00114809 0.000341781 0.00034556 -7.06169e-05
-0.00113838 0.000338912 0.000342627 -7.06158e-05
-0.000379804 0.000110807 0.000115284 -8.4782e-05
-0.000383084 0.000111737 0.000116292 -8.47837e-05
-0.00114323 0.000340346 0.000344094 -7.06164e-05
-0.00075914 0.000224809 0.000228999 -7.9463e-05
-0.000381444 0.000111272 0.000115788 -8.47829e-05
-0.000765638 0.000226708 0.00023097 -7.94644e-05
-0.000762389 0.000225759 0.000229985 -7.94637e-05
-0.00113838 0.000338912 0.000342627 -7.06158e-05
-0.00112866 0.000336042 0.000339695 -7.06148e-05
-0.000376524 0.000109876 0.000114278 -8.47804e-05
-0.000379804 0.000110807 0.000115284 -8.4782e-05
-0.00113352 0.000337477 0.000341161 -7.06153e-05
-0.000752644 0.00022291 0.000227029 -7.94616e-05
-0.000378164 0.000110341 0.000114781 -8.47812e-05
-0.00075914 0.000224809 0.000228999 -7.9463e-05
-0.000755892 0.000223859 0.000228014 -7.94623e-05
-0.00112866 0.000336042 0.000339695 -7.06148e-05
-0.00111895 0.000333173 0.000336763 -7.06137e-05
-0.000373244 0.000108945 0.000113271 -8.47787e-05
-0.000376524 0.000109876 0.000114278 -8.47804e-05
-0.00112381 0.000334607 0.000338229 -7.06142e-05
-0.000746147 0.00022101 0.000225059 -7.94602e-05
-0.000374884 0.00010941 0.000113774 -8.47796e-05
-0.000752644 0.00022291 0.000227029 -7.94616e-05
-0.000749395 0.00022196 0.000226044 -7.94609e-05
-0.00111895 0.000333173 0.000336763 -7.06137e-05
-0.00110924 0.000330303 0.000333831 -7.06126e-05
-0.000369965 0.000108013 0.000112265 -8.47771e-05
-0.000373244 0.000108945 0.000113271 -8.47787e-05
-0.0011141 0.000331738 0.000335297 -7.06132e-05
-0.000739652 0.000219111 0.000223089 -7.94589e-05
-0.000371604 0.000108479 0.000112768 -8.47779e-05
-0.000746147 0.00022101 0.000225059 -7.94602e-05
-0.000742899 0.00022006 0.000224074 -7.94596e-05
-0.00110924 0.000330303 0.000333831 -7.06126e-05
-0.00109953 0.000327433 0.000330899 -7.06116e-05
-0.000366687 0.000107081 0.000111259 -8.47754e-05
-0.000369965 0.000108013 0.000112265 -8.47771e-05
-0.00110439 0.000328868 0.000332365 -7.06121e-05
-0.000733157 0.000217211 0.00022112 -7.94575e-05
-0.000368326 0.000107547 0.000111762 -8.47762e-05
-0.000739652 0.000219111 0.000223089 -7.94589e-05
-0.000736404 0.000218161 0.000222104 -7.94582e-05
-0.00109953 0.000327433 0.000330899 -7.06116e-05
-0.00108982 0.000324563 0.000327968 -7.06105e-05
-0.000363409 0.00010615 0.000110254 -8.47738e-05
-0.000366687 0.000107081 0.000111259 -8.47754e-05
-0.00109468 0.000325998 0.000329434 -7.0611e-05
-0.000726662 0.00021531 0.000219151 -7.94561e-05
-0.000365048 0.000106616 0.000110757 -8.47746e-05
-0.000733157 0.000217211 0.00022112 -7.94575e-05
-0.000729909 0.00021626 0.000220135 -7.94568e-05
-0.00108982 0.000324563 0.000327968 -7.06105e-05
-0.00108011 0.000321693 0.000325038 -7.06094e-05
-0.000360132 0.000105217 0.000109249 -8.47721e-05
-0.000363409 0.00010615 0.000110254 -8.47738e-05
-0.00108497 0.000323128 0.000326503 -7.06099e-05
-0.000720168 0.00021341 0.000217182 -7.94547e-05
-0.00036177 0.000105683 0.000109751 -8.47729e-05
-0.000726662 0.00021531 0.000219151 -7.94561e-05
-0.000723415 0.00021436 0.000218166 -7.94554e-05
-0.00108011 0.000321693 0.000325038 -7.06094e-05
-0.00107041 0.000318822 0.000322107 -7.06083e-05
-0.000356855 0.000104285 0.000108244 -8.47705e-05
-0.000360132 0.000105217 0.000109249 -8.47721e-05
-0.00107526 0.000320257 0.000323572 -7.06089e-05
-0.000713675 0.000211509 0.000215214 -7.94534e-05
-0.000358493 0.000104751 0.000108747 -8.47713e-05
-0.000720168 0.00021341 0.000217182 -7.94547e-05
-0.000716922 0.00021246 0.000216198 -7.9454e-05
-0.00107041 0.000318822 0.000322107 -7.06083e-05
-0.0010607 0.000315952 0.000319177 -7.06073e-05
-0.000353579 0.000103352 0.00010724 -8.47688e-05
-0.000356855 0.000104285 0.000108244 -8.47705e-05
-0.00106555 0.000317387 0.000320642 -7.06078e-05
-0.000707183 0.000209608 0.000213246 -7.9452e-05
-0.000355217 0.000103818 0.000107742 -8.47696e-05
-0.000713675 0.000211509 0.000215214 -7.94534e-05
-0.000710429 0.000210559 0.00021423 -7.94527e-05
-0.0010607 0.000315952 0.000319177 -7.06073e-05
-0.00105099 0.000313081 0.000316248 -7.06062e-05
-0.000350303 0.000102419 0.000106236 -8.47672e-05
-0.000353579 0.000103352 0.00010724 -8.47688e-05
-0.00105585 0.000314516 0.000317712 -7.06067e-05
-0.000700691 0.000207707 0.000211279 -7.94506e-05
-0.000351941 0.000102885 0.000106738 -8.4768e-05
-0.000707183 0.000209608 0.000213246 -7.9452e-05
-0.000703937 0.000208658 0.000212263 -7.94513e-05
-0.00105099 0.000313081 0.000316248 -7.06062e-05
-0.00104129 0.00031021 0.000313318 -7.06051e-05
-0.000347029 0.000101485 0.000105233 -8.47655e-05
-0.000350303 0.000102419 0.000106236 -8.47672e-05
-0.00104614 0.000311645 0.000314783 -7.06057e-05
-0.0006942 0.000205806 0.000209312 -7.94492e-05
-0.000348666 0.000101952 0.000105734 -8.47663e-05
-0.000700691 0.000207707 0.000211279 -7.94506e-05
-0.000697445 0.000206756 0.000210295 -7.94499e-05
-0.00104129 0.00031021 0.000313318 -7.06051e-05
-0.00103158 0.000307339 0.000310389 -7.06041e-05
-0.000343754 0.000100552 0.00010423 -8.47639e-05
-0.000347029 0.000101485 0.000105233 -8.47655e-05
-0.00103643 0.000308774 0.000311854 -7.06046e-05
-0.000687709 0.000203904 0.000207345 -7.94479e-05
-0.000345391 0.000101019 0.000104731 -8.47647e-05
-0.0006942 0.000205806 0.000209312 -7.94492e-05
-0.000690954 0.000204855 0.000208328 -7.94486e-05
-0.00103158 0.000307339 0.000310389 -7.06041e-05
-0.00102188 0.000304467 0.000307461 -7.0603e-05
-0.000340481 9.96179e-05 0.000103227 -8.47622e-05
-0.000343754 0.000100552 0.00010423 -8.47639e-05
-0.00102673 0.000305903 0.000308925 -7.06035e-05
-0.000681219 0.000202002 0.000205379 -7.94465e-05
-0.000342117 0.000100085 0.000103728 -8.47631e-05
-0.000687709 0.000203904 0.000207345 -7.94479e-05
-0.000684464 0.000202953 0.000206362 -7.94472e-05
-0.00102188 0.000304467 0.000307461 -7.0603e-05
-0.00101217 0.000301596 0.000304533 -7.0602e-05
-0.000337208 9.86837e-05 0.000102225 -8.47606e-05
-0.000340481 9.96179e-05 0.000103227 -8.47622e-05
-0.00101702 0.000303032 0.000305997 -7.06025e-05
-0.00067473 0.0002001 0.000203413 -7.94451e-05
-0.000338844 9.91509e-05 0.000102726 -8.47614e-05
-0.000681219 0.000202002 0.000205379 -7.94465e-05
-0.000677975 0.000201051 0.000204396 -7.94458e-05
-0.00101217 0.000301596 0.000304533 -7.0602e-05
-0.00100247 0.000298724 0.000301605 -7.06009e-05
-0.000333935 9.77493e-05 0.000101223 -8.4759e-05
-0.000337208 9.86837e-05 0.000102225 -8.47606e-05
-0.00100732 0.00030016 0.000303069 -7.06014e-05
-0.000668241 0.000198198 0.000201447 -7.94438e-05
-0.000335571 9.82165e-05 0.000101723 -8.47598e-05
-0.00067473 0.0002001 0.000203413 -7.94451e-05
-0.000671486 0.000199149 0.00020243 -7.94445e-05
-0.00100247 0.000298724 0.000301605 -7.06009e-05
-0.000992766 0.000295852 0.000298677 -7.05998e-05
-0.000330663 9.68145e-05 0.000100221 -8.47573e-05
-0.000333935 9.77493e-05 0.000101223 -8.4759e-05
-0.000997617 0.000297288 0.000300141 -7.06004e-05
-0.000661753 0.000196295 0.000199482 -7.94424e-05
-0.000332299 9.72819e-05 0.000100722 -8.47582e-05
-0.000668241 0.000198198 0.000201447 -7.94438e-05
-0.000664997 0.000197247 0.000200465 -7.94431e-05
-0.000992766 0.000295852 0.000298677 -7.05998e-05
-0.000983064 0.00029298 0.00029575 -7.05988e-05
-0.000327392 9.58795e-05 9.92196e-05 -8.47557e-05
-0.000330663 9.68145e-05 0.000100221 -8.47573e-05
-0.000987915 0.000294416 0.000297214 -7.05993e-05
-0.000655266 0.000194392 0.000197517 -7.94411e-05
-0.000329027 9.6347e-05 9.97202e-05 -8.47565e-05
-0.000661753 0.000196295 0.000199482 -7.94424e-05
-0.00065851 0.000195344 0.0001985 -7.94418e-05
-0.000983064 0.00029298 0.00029575 -7.05988e-05
-0.000973363 0.000290108 0.000292824 -7.05978e-05
-0.000324121 9.49442e-05 9.82187e-05 -8.47541e-05
-0.000327392 9.58795e-05 9.92196e-05 -8.47557e-05
-0.000978213 0.000291544 0.000294287 -7.05983e-05
-0.000648779 0.000192489 0.000195553 -7.94397e-05
-0.000325756 9.54119e-05 9.87191e-05 -8.47549e-05
-0.000655266 0.000194392 0.000197517 -7.94411e-05
-0.000652023 0.000193441 0.000196535 -7.94404e-05
-0.000973363 0.000290108 0.000292824 -7.05978e-05
-0.000963662 0.000287236 0.000289897 -7.05967e-05
-0.000320851 9.40086e-05 9.72182e-05 -8.47525e-05
-0.000324121 9.49442e-05 9.82187e-05 -8.47541e-05
-0.000968512 0.000288672 0.00029136 -7.05972e-05
-0.000642293 0.000190586 0.000193589 -7.94384e-05
-0.000322486 9.44764e-05 9.77184e-05 -8.47533e-05
-0.000648779 0.000192489 0.000195553 -7.94397e-05
-0.000645536 0.000191538 0.000194571 -7.94391e-05
-0.000963662 0.000287236 0.000289897 -7.05967e-05
-0.000953962 0.000284363 0.000286971 -7.05957e-05
-0.000317581 9.30728e-05 9.6218e-05 -8.47509e-05
-0.000320851 9.40086e-05 9.72182e-05 -8.47525e-05
-0.000958812 0.000285799 0.000288434 -7.05962e-05
-0.000635808 0.000188683 0.000191625 -7.94371e-05
-0.000319216 9.35407e-05 9.6718e-05 -8.47517e-05
-0.000642293 0.000190586 0.000193589 -7.94384e-05
-0.00063905 0.000189634 0.000192607 -7.94377e-05
-0.000953962 0.000284363 0.000286971 -7.05957e-05
-0.000944263 0.00028149 0.000284045 -7.05946e-05
-0.000314312 9.21366e-05 9.52182e-05 -8.47493e-05
-0.000317581 9.30728e-05 9.6218e-05 -8.47509e-05
-0.000949113 0.000282927 0.000285508 -7.05952e-05
-0.000629323 0.000186779 0.000189662 -7.94357e-05
-0.000315947 9.26047e-05 9.57181e-05 -8.47501e-05
-0.000635808 0.000188683 0.000191625 -7.94371e-05
-0.000632565 0.000187731 0.000190643 -7.94364e-05
-0.000944263 0.00028149 0.000284045 -7.05946e-05
-0.000934564 0.000278617 0.00028112 -7.05936e-05
-0.000311044 9.12002e-05 9.42188e-05 -8.47477e-05
-0.000314312 9.21366e-05 9.52182e-05 -8.47493e-05
-0.000939414 0.000280054 0.000282583 -7.05941e-05
-0.000622839 0.000184875 0.000187699 -7.94344e-05
-0.000312678 9.16685e-05 9.47184e-05 -8.47485e-05
-0.000629323 0.000186779 0.000189662 -7.94357e-05
-0.000626081 0.000185827 0.00018868 -7.94351e-05
-0.000934564 0.000278617 0.00028112 -7.05936e-05
-0.000924866 0.000275744 0.000278195 -7.05926e-05
-0.000307776 9.02635e-05 9.32197e-05 -8.47461e-05
-0.000311044 9.12002e-05 9.42188e-05 -8.47477e-05
-0.000929715 0.000277181 0.000279658 -7.05931e-05
-0.000616355 0.000182971 0.000185736 -7.94331e-05
-0.00030941 9.07319e-05 9.37192e-05 -8.47469e-05
-0.000622839 0.000184875 0.000187699 -7.94344e-05
-0.000619597 0.000183923 0.000186717 -7.94337e-05
-0.000924866 0.000275744 0.000278195 -7.05926e-05
-0.000915169 0.000272871 0.000275271 -7.05916e-05
-0.000304509 8.93266e-05 9.22211e-05 -8.47445e-05
-0.000307776 9.02635e-05 9.32197e-05 -8.47461e-05
-0.000920018 0.000274308 0.000276733 -7.05921e-05
-0.000609872 0.000181066 0.000183774 -7.94318e-05
-0.000306143 8.97951e-05 9.27203e-05 -8.47453e-05
-0.000616355 0.000182971 0.000185736 -7.94331e-05
-0.000613114 0.000182019 0.000184755 -7.94324e-05
-0.000915169 0.000272871 0.000275271 -7.05916e-05
-0.000905473 0.000269998 0.000272346 -7.05906e-05
-0.000301242 8.83893e-05 9.12227e-05 -8.47429e-05
-0.000304509 8.93266e-05 9.22211e-05 -8.47445e-05
-0.000910321 0.000271434 0.000273808 -7.05911e-05
-0.00060339 0.000179162 0.000181812 -7.94305e-05
-0.000302876 8.8858e-05 9.17219e-05 -8.47437e-05
-0.000609872 0.000181066 0.000183774 -7.94318e-05
-0.000606631 0.000180114 0.000182793 -7.94311e-05
-0.000905473 0.000269998 0.000272346 -7.05906e-05
-0.000895777 0.000267124 0.000269423 -7.05896e-05
-0.000297976 8.74518e-05 9.02248e-05 -8.47414e-05
-0.000301242 8.83893e-05 9.12227e-05 -8.47429e-05
-0.000900624 0.000268561 0.000270884 -7.05901e-05
-0.000596908 0.000177257 0.000179851 -7.94292e-05
-0.000299609 8.79206e-05 9.07237e-05 -8.47422e-05
-0.00060339 0.000179162 0.000181812 -7.94305e-05
-0.000600149 0.000178209 0.000180831 -7.94298e-05
-0.000895777 0.000267124 0.000269423 -7.05896e-05
-0.000886081 0.00026425 0.000266499 -7.05886e-05
-0.000294711 8.6514e-05 8.92272e-05 -8.47398e-05
-0.000297976 8.74518e-05 9.02248e-05 -8.47414e-05
-0.000890929 0.000265687 0.000267961 -7.05891e-05
-0.000590427 0.000175352 0.000177889 -7.94279e-05
-0.000296344 8.69829e-05 8.9726e-05 -8.47406e-05
-0.000596908 0.000177257 0.000179851 -7.94292e-05
-0.000593668 0.000176304 0.00017887 -7.94285e-05
-0.000886081 0.00026425 0.000266499 -7.05886e-05
-0.000876387 0.000261376 0.000263576 -7.05876e-05
-0.000291446 8.55759e-05 8.823e-05 -8.47383e-05
-0.000294711 8.6514e-05 8.92272e-05 -8.47398e-05
-0.000881234 0.000262813 0.000265037 -7.05881e-05
-0.000583947 0.000173446 0.000175929 -7.94266e-05
-0.000293078 8.6045e-05 8.87286e-05 -8.4739e-05
-0.000590427 0.000175352 0.000177889 -7.94279e-05
-0.000587187 0.000174399 0.000176909 -7.94272e-05
-0.000876387 0.000261376 0.000263576 -7.05876e-05
-0.000866693 0.000258502 0.000260653 -7.05866e-05
-0.000288182 8.46376e-05 8.72332e-05 -8.47367e-05
-0.000291446 8.55759e-05 8.823e-05 -8.47383e-05
-0.00087154 0.000259939 0.000262114 -7.05871e-05
-0.000577467 0.000171541 0.000173968 -7.94253e-05
-0.000289814 8.51068e-05 8.77316e-05 -8.47375e-05
-0.000583947 0.000173446 0.000175929 -7.94266e-05
-0.000580707 0.000172494 0.000174948 -7.9426e-05
-0.000866693 0.000258502 0.000260653 -7.05866e-05
-0.000856999 0.000255628 0.000257731 -7.05856e-05
-0.000284918 8.3699e-05 8.62367e-05 -8.47352e-05
-0.000288182 8.46376e-05 8.72332e-05 -8.47367e-05
-0.000861846 0.000257065 0.000259192 -7.05861e-05
-0.000570988 0.000169635 0.000172008 -7.94241e-05
-0.00028655 8.41683e-05 8.67349e-05 -8.4736e-05
-0.000577467 0.000171541 0.000173968 -7.94253e-05
-0.000574227 0.000170588 0.000172988 -7.94247e-05
-0.000856999 0.000255628 0.000257731 -7.05856e-05
-0.000847307 0.000252753 0.000254809 -7.05847e-05
-0.000281655 8.276e-05 8.52406e-05 -8.47337e-05
-0.000284918 8.3699e-05 8.62367e-05 -8.47352e-05
-0.000852153 0.00025419 0.00025627 -7.05852e-05
-0.000564509 0.000167729 0.000170049 -7.94228e-05
-0.000283286 8.32295e-05 8.57386e-05 -8.47344e-05
-0.000570988 0.000169635 0.000172008 -7.94241e-05
-0.000567748 0.000168682 0.000171028 -7.94234e-05
-0.000847307 0.000252753 0.000254809 -7.05847e-05
-0.000837615 0.000249878 0.000251887 -7.05837e-05
-0.000278392 8.18209e-05 8.42449e-05 -8.47322e-05
-0.000281655 8.276e-05 8.52406e-05 -8.47337e-05
-0.000842461 0.000251316 0.000253348 -7.05842e-05
-0.000558031 0.000165822 0.000168089 -7.94216e-05
-0.000280024 8.22905e-05 8.47427e-05 -8.47329e-05
-0.000564509 0.000167729 0.000170049 -7.94228e-05
-0.00056127 0.000166776 0.000169069 -7.94222e-05
-0.000837615 0.000249878 0.000251887 -7.05837e-05
-0.000827923 0.000247004 0.000248966 -7.05828e-05
-0.00027513 8.08814e-05 8.32496e-05 -8.47306e-05
-0.000278392 8.18209e-05 8.42449e-05 -8.47322e-05
-0.000832769 0.000248441 0.000250426 -7.05832e-05
-0.000551554 0.000163916 0.000166131 -7.94203e-05
-0.000276761 8.13512e-05 8.37472e-05 -8.47314e-05
-0.000558031 0.000165822 0.000168089 -7.94216e-05
-0.000554792 0.000164869 0.00016711 -7.94209e-05
-0.000827923 0.000247004 0.000248966 -7.05828e-05
-0.000818232 0.000244128 0.000246045 -7.05818e-05
-0.000271869 7.99417e-05 8.22546e-05 -8.47292e-05
-0.00027513 8.08814e-05 8.32496e-05 -8.47306e-05
-0.000823078 0.000245566 0.000247505 -7.05823e-05
-0.000545077 0.000162009 0.000164172 -7.94191e-05
-0.0002735 8.04116e-05 8.2752e-05 -8.47299e-05
-0.000551554 0.000163916 0.000166131 -7.94203e-05
-0.000548315 0.000162963 0.000165151 -7.94197e-05
-0.000818232 0.000244128 0.000246045 -7.05818e-05
-0.000808542 0.000241253 0.000243124 -7.05809e-05
-0.000268608 7.90016e-05 8.12599e-05 -8.47277e-05
-0.000271869 7.99417e-05 8.22546e-05 -8.47292e-05
-0.000813387 0.000242691 0.000244584 -7.05814e-05
-0.000538601 0.000160102 0.000162214 -7.94179e-05
-0.000270239 7.94717e-05 8.17572e-05 -8.47284e-05
-0.000545077 0.000162009 0.000164172 -7.94191e-05
-0.000541839 0.000161056 0.000163193 -7.94185e-05
-0.000808542 0.000241253 0.000243124 -7.05809e-05
-0.000798853 0.000238378 0.000240204 -7.058e-05
-0.000265348 7.80613e-05 8.02657e-05 -8.47262e-05
-0.000268608 7.90016e-05 8.12599e-05 -8.47277e-05
-0.000803698 0.000239816 0.000241664 -7.05804e-05
-0.000532126 0.000158195 0.000160256 -7.94167e-05
-0.000266978 7.85315e-05 8.07628e-05 -8.47269e-05
-0.000538601 0.000160102 0.000162214 -7.94179e-05
-0.000535363 0.000159149 0.000161235 -7.94173e-05
-0.000798853 0.000238378 0.000240204 -7.058e-05
-0.000789164 0.000235502 0.000237284 -7.05791e-05
-0.000262088 7.71208e-05 7.92718e-05 -8.47247e-05
-0.000265348 7.80613e-05 8.02657e-05 -8.47262e-05
-0.000794009 0.00023694 0.000238744 -7.05795e-05
-0.000525651 0.000156287 0.000158299 -7.94155e-05
-0.000263718 7.75911e-05 7.97687e-05 -8.47255e-05
-0.000532126 0.000158195 0.000160256 -7.94167e-05
-0.000528888 0.000157241 0.000159277 -7.94161e-05
-0.000789164 0.000235502 0.000237284 -7.05791e-05
-0.000779476 0.000232626 0.000234364 -7.05782e-05
-0.000258829 7.61799e-05 7.82783e-05 -8.47233e-05
-0.000262088 7.71208e-05 7.92718e-05 -8.47247e-05
-0.00078432 0.000234064 0.000235824 -7.05786e-05
-0.000519177 0.00015438 0.000156342 -7.94143e-05
-0.000260459 7.66504e-05 7.8775e-05 -8.4724e-05
-0.000525651 0.000156287 0.000158299 -7.94155e-05
-0.000522414 0.000155334 0.00015732 -7.94149e-05
-0.000779476 0.000232626 0.000234364 -7.05782e-05
-0.000769789 0.00022975 0.000231445 -7.05773e-05
-0.000255571 7.52388e-05 7.72852e-05 -8.47219e-05
-0.000258829 7.61799e-05 7.82783e-05 -8.47233e-05
-0.000774632 0.000231188 0.000232905 -7.05777e-05
-0.000512703 0.000152472 0.000154385 -7.94131e-05
-0.0002572 7.57094e-05 7.77817e-05 -8.47226e-05
-0.000519177 0.00015438 0.000156342 -7.94143e-05
-0.00051594 0.000153426 0.000155363 -7.94137e-05
-0.000769789 0.00022975 0.000231445 -7.05773e-05
-0.000760102 0.000226874 0.000228526 -7.05764e-05
-0.000252313 7.42974e-05 7.62924e-05 -8.47204e-05
-0.000255571 7.52388e-05 7.72852e-05 -8.47219e-05
-0.000764945 0.000228312 0.000229985 -7.05768e-05
-0.00050623 0.000150563 0.000152429 -7.94119e-05
-0.000253942 7.47681e-05 7.67887e-05 -8.47211e-05
-0.000512703 0.000152472 0.000154385 -7.94131e-05
-0.000509467 0.000151518 0.000153407 -7.94125e-05
-0.000760102 0.000226874 0.000228526 -7.05764e-05
-0.000750416 0.000223998 0.000225608 -7.05755e-05
-0.000249056 7.33557e-05 7.53e-05 -8.4719e-05
-0.000252313 7.42974e-05 7.62924e-05 -8.47204e-05
-0.000755259 0.000225436 0.000227067 -7.0576e-05
-0.000499758 0.000148655 0.000150473 -7.94108e-05
-0.000250684 7.38265e-05 7.57961e-05 -8.47197e-05
-0.00050623 0.000150563 0.000152429 -7.94119e-05
-0.000502994 0.000149609 0.000151451 -7.94114e-05
-0.000750416 0.000223998 0.000225608 -7.05755e-05
-0.00074073 0.000221121 0.000222689 -7.05747e-05
-0.000245799 7.24137e-05 7.43079e-05 -8.47176e-05
-0.000249056 7.33557e-05 7.53e-05 -8.4719e-05
-0.000745573 0.00022256 0.000224148 -7.05751e-05
-0.000493286 0.000146746 0.000148517 -7.94096e-05
-0.000247427 7.28847e-05 7.48039e-05 -8.47183e-05
-0.000499758 0.000148655 0.000150473 -7.94108e-05
-0.000496522 0.000147701 0.000149495 -7.94102e-05
-0.00074073 0.000221121 0.000222689 -7.05747e-05
-0.000731045 0.000218245 0.000219772 -7.05738e-05
-0.000242543 7.14714e-05 7.33163e-05 -8.47162e-05
-0.000245799 7.24137e-05 7.43079e-05 -8.47176e-05
-0.000735888 0.000219683 0.000221231 -7.05742e-05
-0.000486815 0.000144837 0.000146562 -7.94085e-05
-0.000244171 7.19426e-05 7.3812e-05 -8.47169e-05
-0.000493286 0.000146746 0.000148517 -7.94096e-05
-0.000490051 0.000145792 0.000147539 -7.94091e-05
-0.000731045 0.000218245 0.000219772 -7.05738e-05
-0.000721361 0.000215368 0.000216854 -7.0573e-05
-0.000239287 7.05289e-05 7.23249e-05 -8.47149e-05
-0.000242543 7.14714e-05 7.33163e-05 -8.47162e-05
-0.000726203 0.000216806 0.000218313 -7.05734e-05
-0.000480345 0.000142928 0.000144607 -7.94074e-05
-0.000240915 7.10002e-05 7.28206e-05 -8.47156e-05
-0.000486815 0.000144837 0.000146562 -7.94085e-05
-0.00048358 0.000143883 0.000145584 -7.9408e-05
-0.000721361 0.000215368 0.000216854 -7.0573e-05
-0.000711677 0.000212491 0.000213937 -7.05722e-05
-0.000236032 6.95861e-05 7.1334e-05 -8.47135e-05
-0.000239287 7.05289e-05 7.23249e-05 -8.47149e-05
-0.000716519 0.000213929 0.000215396 -7.05726e-05
-0.000473875 0.000141019 0.000142653 -7.94063e-05
-0.00023766 7.00575e-05 7.18294e-05 -8.47142e-05
-0.000480345 0.000142928 0.000144607 -7.94074e-05
-0.00047711 0.000141973 0.00014363 -7.94069e-05
-0.000711677 0.000212491 0.000213937 -7.05722e-05
-0.000701994 0.000209613 0.00021102 -7.05713e-05
-0.000232778 6.8643e-05 7.03434e-05 -8.47122e-05
-0.000236032 6.95861e-05 7.1334e-05 -8.47135e-05
-0.000706836 0.000211052 0.000212479 -7.05717e-05
-0.000467406 0.000139109 0.000140699 -7.94052e-05
-0.000234405 6.91146e-05 7.08387e-05 -8.47128e-05
-0.000473875 0.000141019 0.000142653 -7.94063e-05
-0.00047064 0.000140064 0.000141676 -7.94058e-05
-0.000701994 0.000209613 0.00021102 -7.05713e-05
-0.000692312 0.000206736 0.000208104 -7.05705e-05
-0.000229524 6.76996e-05 6.93532e-05 -8.47108e-05
-0.000232778 6.8643e-05 7.03434e-05 -8.47122e-05
-0.000697153 0.000208175 0.000209562 -7.05709e-05
-0.000460937 0.000137199 0.000138745 -7.94041e-05
-0.000231151 6.81714e-05 6.98483e-05 -8.47115e-05
-0.000467406 0.000139109 0.000140699 -7.94052e-05
-0.000464171 0.000138154 0.000139722 -7.94047e-05
-0.000692312 0.000206736 0.000208104 -7.05705e-05
-0.00068263 0.000203858 0.000205188 -7.05697e-05
-0.000226271 6.6756e-05 6.83634e-05 -8.47095e-05
-0.000229524 6.76996e-05 6.93532e-05 -8.47108e-05
-0.000687471 0.000205297 0.000206646 -7.05701e-05
-0.000454469 0.000135289 0.000136791 -7.94031e-05
-0.000227897 6.72278e-05 6.88583e-05 -8.47102e-05
-0.000460937 0.000137199 0.000138745 -7.94041e-05
-0.000457703 0.000136244 0.000137768 -7.94036e-05
-0.00068263 0.000203858 0.000205188 -7.05697e-05
-0.000672949 0.00020098 0.000202272 -7.0569e-05
-0.000223018 6.5812e-05 6.73739e-05 -8.47082e-05
-0.000226271 6.6756e-05 6.83634e-05 -8.47095e-05
-0.00067779 0.000202419 0.00020373 -7.05693e-05
-0.000448002 0.000133379 0.000134838 -7.9402e-05
-0.000224644 6.6284e-05 6.78686e-05 -8.47089e-05
-0.000454469 0.000135289 0.000136791 -7.94031e-05
-0.000451235 0.000134334 0.000135815 -7.94026e-05
-0.000672949 0.00020098 0.000202272 -7.0569e-05
-0.000663269 0.000198102 0.000199357 -7.05682e-05
-0.000219766 6.48678e-05 6.63848e-05 -8.47069e-05
-0.000223018 6.5812e-05 6.73739e-05 -8.47082e-05
-0.000668109 0.000199541 0.000200815 -7.05686e-05
-0.000441535 0.000131468 0.000132886 -7.9401e-05
-0.000221392 6.534e-05 6.68793e-05 -8.47076e-05
-0.000448002 0.000133379 0.000134838 -7.9402e-05
-0.000444768 0.000132423 0.000133862 -7.94015e-05
-0.000663269 0.000198102 0.000199357 -7.05682e-05
-0.000653589 0.000195224 0.000196442 -7.05674e-05
-0.000216514 6.39233e-05 6.53961e-05 -8.47057e-05
-0.000219766 6.48678e-05 6.63848e-05 -8.47069e-05
-0.000658429 0.000196663 0.000197899 -7.05678e-05
-0.000435069 0.000129557 0.000130933 -7.94e-05
-0.00021814 6.43956e-05 6.58904e-05 -8.47063e-05
-0.000441535 0.000131468 0.000132886 -7.9401e-05
-0.000438302 0.000130513 0.00013191 -7.94005e-05
-0.000653589 0.000195224 0.000196442 -7.05674e-05
-0.00064391 0.000192346 0.000193527 -7.05667e-05
-0.000213263 6.29786e-05 6.44077e-05 -8.47044e-05
-0.000216514 6.39233e-05 6.53961e-05 -8.47057e-05
-0.000648749 0.000193785 0.000194985 -7.05671e-05
-0.000428603 0.000127646 0.000128982 -7.9399e-05
-0.000214889 6.3451e-05 6.49018e-05 -8.4705e-05
-0.000435069 0.000129557 0.000130933 -7.94e-05
-0.000431836 0.000128602 0.000129957 -7.93995e-05
-0.00064391 0.000192346 0.000193527 -7.05667e-05
-0.000634231 0.000189467 0.000190613 -7.0566e-05
-0.000210013 6.20335e-05 6.34197e-05 -8.47032e-05
-0.000213263 6.29786e-05 6.44077e-05 -8.47044e-05
-0.00063907 0.000190907 0.00019207 -7.05663e-05
-0.000422138 0.000125735 0.00012703 -7.9398e-05
-0.000211638 6.25061e-05 6.39136e-05 -8.47038e-05
-0.000428603 0.000127646 0.000128982 -7.9399e-05
-0.00042537 0.00012669 0.000128006 -7.93985e-05
-0.000634231 0.000189467 0.000190613 -7.0566e-05
-0.000624553 0.000186588 0.000187699 -7.05653e-05
-0.000206763 6.10882e-05 6.2432e-05 -8.4702e-05
-0.000210013 6.20335e-05 6.34197e-05 -8.47032e-05
-0.000629392 0.000188028 0.000189156 -7.05656e-05
-0.000415674 0.000123823 0.000125079 -7.9397e-05
-0.000208388 6.15609e-05 6.29258e-05 -8.47026e-05
-0.000422138 0.000125735 0.00012703 -7.9398e-05
-0.000418906 0.000124779 0.000126054 -7.93975e-05
-0.000624553 0.000186588 0.000187699 -7.05653e-05
-0.000614876 0.000183709 0.000184786 -7.05646e-05
-0.000203514 6.01426e-05 6.14448e-05 -8.47008e-05
-0.000206763 6.10882e-05 6.2432e-05 -8.4702e-05
-0.000619714 0.000185149 0.000186242 -7.05649e-05
-0.00040921 0.000121911 0.000123128 -7.9396e-05
-0.000205138 6.06154e-05 6.19384e-05 -8.47014e-05
-0.000415674 0.000123823 0.000125079 -7.9397e-05
-0.000412442 0.000122867 0.000124103 -7.93965e-05
-0.000614876 0.000183709 0.000184786 -7.05646e-05
-0.000605199 0.00018083 0.000181872 -7.05639e-05
-0.000200265 5.91966e-05 6.04579e-05 -8.46996e-05
-0.000203514 6.01426e-05 6.14448e-05 -8.47008e-05
-0.000610037 0.00018227 0.000183329 -7.05642e-05
-0.000402747 0.000119999 0.000121177 -7.93951e-05
-0.000201889 5.96696e-05 6.09513e-05 -8.47002e-05
-0.00040921 0.000121911 0.000123128 -7.9396e-05
-0.000405978 0.000120955 0.000122153 -7.93956e-05
-0.000605199 0.00018083 0.000181872 -7.05639e-05
-0.000595523 0.000177951 0.000178959 -7.05632e-05
-0.000197017 5.82505e-05 5.94713e-05 -8.46984e-05
-0.000200265 5.91966e-05 6.04579e-05 -8.46996e-05
-0.000600361 0.000179391 0.000180416 -7.05635e-05
-0.000396284 0.000118087 0.000119227 -7.93942e-05
-0.000198641 5.87236e-05 5.99645e-05 -8.4699e-05
-0.000402747 0.000119999 0.000121177 -7.93951e-05
-0.000399515 0.000119043 0.000120202 -7.93946e-05
-0.000595523 0.000177951 0.000178959 -7.05632e-05
-0.000585847 0.000175071 0.000176047 -7.05625e-05
-0.000193769 5.7304e-05 5.84851e-05 -8.46972e-05
-0.000197017 5.82505e-05 5.94713e-05 -8.46984e-05
-0.000590685 0.000176511 0.000177503 -7.05629e-05
-0.000389822 0.000116174 0.000117278 -7.93933e-05
-0.000195393 5.77773e-05 5.89782e-05 -8.46978e-05
-0.000396284 0.000118087 0.000119227 -7.93942e-05
-0.000393053 0.000117131 0.000118252 -7.93937e-05
-0.000585847 0.000175071 0.000176047 -7.05625e-05
-0.000576172 0.000172192 0.000173135 -7.05619e-05
-0.000190522 5.63573e-05 5.74993e-05 -8.46961e-05
-0.000193769 5.7304e-05 5.84851e-05 -8.46972e-05
-0.00058101 0.000173632 0.000174591 -7.05622e-05
-0.000383361 0.000114262 0.000115328 -7.93924e-05
-0.000192146 5.68307e-05 5.79922e-05 -8.46967e-05
-0.000389822 0.000116174 0.000117278 -7.93933e-05
-0.000386591 0.000115218 0.000116303 -7.93928e-05
-0.000576172 0.000172192 0.000173135 -7.05619e-05
-0.000566498 0.000169312 0.000170223 -7.05613e-05
-0.000187276 5.54102e-05 5.65139e-05 -8.4695e-05
-0.000190522 5.63573e-05 5.74993e-05 -8.46961e-05
-0.000571335 0.000170752 0.000171679 -7.05616e-05
-0.0003769 0.000112348 0.000113379 -7.93915e-05
-0.000188899 5.58838e-05 5.70065e-05 -8.46955e-05
-0.000383361 0.000114262 0.000115328 -7.93924e-05
-0.00038013 0.000113305 0.000114354 -7.93919e-05
-0.000566498 0.000169312 0.000170223 -7.05613e-05
-0.000556824 0.000166432 0.000167311 -7.05606e-05
-0.00018403 5.44629e-05 5.55288e-05 -8.46939e-05
-0.000187276 5.54102e-05 5.65139e-05 -8.4695e-05
-0.000561661 0.000167872 0.000168767 -7.05609e-05
-0.00037044 0.000110435 0.000111431 -7.93906e-05
-0.000185653 5.49366e-05 5.60213e-05 -8.46944e-05
-0.0003769 0.000112348 0.000113379 -7.93915e-05
-0.00037367 0.000111392 0.000112405 -7.93911e-05
-0.000556824 0.000166432 0.000167311 -7.05606e-05
-0.000547151 0.000163551 0.0001644 -7.056e-05
-0.000180785 5.35153e-05 5.4544e-05 -8.46928e-05
-0.00018403 5.44629e-05 5.55288e-05 -8.46939e-05
-0.000551988 0.000164991 0.000165856 -7.05603e-05
-0.00036398 0.000108522 0.000109482 -7.93898e-05
-0.000182407 5.39891e-05 5.50364e-05 -8.46933e-05
-0.00037044 0.000110435 0.000111431 -7.93906e-05
-0.00036721 0.000109478 0.000110456 -7.93902e-05
-0.000547151 0.000163551 0.0001644 -7.056e-05
-0.000537479 0.000160671 0.000161489 -7.05595e-05
-0.00017754 5.25674e-05 5.35597e-05 -8.46917e-05
-0.000180785 5.35153e-05 5.4544e-05 -8.46928e-05
-0.000542315 0.000162111 0.000162945 -7.05597e-05
-0.000357521 0.000106608 0.000107534 -7.93889e-05
-0.000179162 5.30414e-05 5.40518e-05 -8.46923e-05
-0.00036398 0.000108522 0.000109482 -7.93898e-05
-0.000360751 0.000107565 0.000108508 -7.93894e-05
-0.000537479 0.000160671 0.000161489 -7.05595e-05
-0.000527807 0.00015779 0.000158579 -7.05589e-05
-0.000174296 5.16193e-05 5.25757e-05 -8.46907e-05
-0.00017754 5.25674e-05 5.35597e-05 -8.46917e-05
-0.000532643 0.00015923 0.000160034 -7.05592e-05
-0.000351063 0.000104694 0.000105587 -7.93881e-05
-0.000175918 5.20934e-05 5.30676e-05 -8.46912e-05
-0.000357521 0.000106608 0.000107534 -7.93889e-05
-0.000354292 0.000105651 0.00010656 -7.93885e-05
-0.000527807 0.00015779 0.000158579 -7.05589e-05
-0.000518136 0.000154909 0.000155669 -7.05583e-05
-0.000171052 5.06708e-05 5.1592e-05 -8.46896e-05
-0.000174296 5.16193e-05 5.25757e-05 -8.46907e-05
-0.000522971 0.00015635 0.000157124 -7.05586e-05
-0.000344605 0.00010278 0.000103639 -7.93873e-05
-0.000172674 5.11451e-05 5.20838e-05 -8.46902e-05
-0.000351063 0.000104694 0.000105587 -7.93881e-05
-0.000347834 0.000103737 0.000104613 -7.93877e-05
-0.000518136 0.000154909 0.000155669 -7.05583e-05
-0.000508465 0.000152028 0.000152759 -7.05578e-05
-0.000167809 4.97221e-05 5.06088e-05 -8.46886e-05
-0.000171052 5.06708e-05 5.1592e-05 -8.46896e-05
-0.0005133 0.000153469 0.000154214 -7.05581e-05
-0.000338148 0.000100865 0.000101693 -7.93866e-05
-0.000169431 5.01965e-05 5.11004e-05 -8.46891e-05
-0.000344605 0.00010278 0.000103639 -7.93873e-05
-0.000341376 0.000101822 0.000102666 -7.93869e-05
-0.000508465 0.000152028 0.000152759 -7.05578e-05
-0.000498795 0.000149147 0.000149849 -7.05573e-05
-0.000164567 4.87731e-05 4.96259e-05 -8.46876e-05
-0.000167809 4.97221e-05 5.06088e-05 -8.46886e-05
-0.00050363 0.000150587 0.000151304 -7.05575e-05
-0.000331691 9.89502e-05 9.97461e-05 -7.93858e-05
-0.000166188 4.92476e-05 5.01173e-05 -8.46881e-05
-0.000338148 0.000100865 0.000101693 -7.93866e-05
-0.000334919 9.99076e-05 0.000100719 -7.93862e-05
-0.000498795 0.000149147 0.000149849 -7.05573e-05
-0.000489126 0.000146265 0.00014694 -7.05568e-05
-0.000161325 4.78238e-05 4.86433e-05 -8.46867e-05
-0.000164567 4.87731e-05 4.96259e-05 -8.46876e-05
-0.00049396 0.000147706 0.000148395 -7.0557e-05
-0.000325235 9.70352e-05 9.77999e-05 -7.93851e-05
-0.000162946 4.82985e-05 4.91345e-05 -8.46871e-05
-0.000331691 9.89502e-05 9.97461e-05 -7.93858e-05
-0.000328463 9.79927e-05 9.87729e-05 -7.93854e-05
-0.000489126 0.000146265 0.00014694 -7.05568e-05
-0.000479457 0.000143383 0.000144031 -7.05563e-05
-0.000158083 4.68742e-05 4.76611e-05 -8.46857e-05
-0.000161325 4.78238e-05 4.86433e-05 -8.46867e-05
-0.000484291 0.000144824 0.000145486 -7.05565e-05
-0.000318779 9.51199e-05 9.58541e-05 -7.93843e-05
-0.000159704 4.7349e-05 4.81522e-05 -8.46862e-05
-0.000325235 9.70352e-05 9.77999e-05 -7.93851e-05
-0.000322007 9.60775e-05 9.68269e-05 -7.93847e-05
-0.000479457 0.000143383 0.000144031 -7.05563e-05
-0.000469788 0.000140501 0.000141123 -7.05558e-05
-0.000154843 4.59243e-05 4.66793e-05 -8.46848e-05
-0.000158083 4.68742e-05 4.76611e-05 -8.46857e-05
-0.000474622 0.000141942 0.000142577 -7.0556e-05
-0.000312325 9.32043e-05 9.39086e-05 -7.93836e-05
-0.000156463 4.63993e-05 4.71702e-05 -8.46852e-05
-0.000318779 9.51199e-05 9.58541e-05 -7.93843e-05
-0.000315552 9.41621e-05 9.48813e-05 -7.9384e-05
-0.000469788 0.000140501 0.000141123 -7.05558e-05
-0.000460121 0.000137619 0.000138215 -7.05553e-05
-0.000151602 4.49742e-05 4.56978e-05 -8.46839e-05
-0.000154843 4.59243e-05 4.66793e-05 -8.46848e-05
-0.000464954 0.00013906 0.000139669 -7.05556e-05
-0.00030587 9.12886e-05 9.19636e-05 -7.93829e-05
-0.000153223 4.54493e-05 4.61885e-05 -8.46843e-05
-0.000312325 9.32043e-05 9.39086e-05 -7.93836e-05
-0.000309097 9.22465e-05 9.29361e-05 -7.93833e-05
-0.000460121 0.000137619 0.000138215 -7.05553e-05
-0.000450453 0.000134737 0.000135307 -7.05549e-05
-0.000148363 4.40238e-05 4.47167e-05 -8.4683e-05
-0.000151602 4.49742e-05 4.56978e-05 -8.46839e-05
-0.000455287 0.000136178 0.000136761 -7.05551e-05
-0.000299416 8.93725e-05 9.00188e-05 -7.93823e-05
-0.000149983 4.4499e-05 4.52072e-05 -8.46834e-05
-0.00030587 9.12886e-05 9.19636e-05 -7.93829e-05
-0.000302643 9.03306e-05 9.09912e-05 -7.93826e-05
-0.000450453 0.000134737 0.000135307 -7.05549e-05
-0.000440787 0.000131854 0.0001324 -7.05545e-05
-0.000145124 4.3073e-05 4.3736e-05 -8.46821e-05
-0.000148363 4.40238e-05 4.47167e-05 -8.4683e-05
-0.00044562 0.000133296 0.000133853 -7.05547e-05
-0.000292963 8.74562e-05 8.80745e-05 -7.93816e-05
-0.000146743 4.35484e-05 4.42263e-05 -8.46825e-05
-0.000299416 8.93725e-05 9.00188e-05 -7.93823e-05
-0.00029619 8.84144e-05 8.90466e-05 -7.93819e-05
-0.000440787 0.000131854 0.0001324 -7.05545e-05
-0.000431121 0.000128972 0.000129493 -7.0554e-05
-0.000141885 4.2122e-05 4.27556e-05 -8.46812e-05
-0.000145124 4.3073e-05 4.3736e-05 -8.46821e-05
-0.000435954 0.000130413 0.000130946 -7.05543e-05
-0.000286511 8.55397e-05 8.61304e-05 -7.9381e-05
-0.000143504 4.25976e-05 4.32458e-05 -8.46817e-05
-0.000292963 8.74562e-05 8.80745e-05 -7.93816e-05
-0.000289737 8.6498e-05 8.71024e-05 -7.93813e-05
-0.000431121 0.000128972 0.000129493 -7.0554e-05
-0.000421456 0.000126089 0.000126586 -7.05537e-05
-0.000138647 4.11707e-05 4.17756e-05 -8.46804e-05
-0.000141885 4.2122e-05 4.27556e-05 -8.46812e-05
-0.000426288 0.00012753 0.000128039 -7.05538e-05
-0.000280059 8.36229e-05 8.41868e-05 -7.93804e-05
-0.000140266 4.16464e-05 4.22656e-05 -8.46808e-05
-0.000286511 8.55397e-05 8.61304e-05 -7.9381e-05
-0.000283285 8.45813e-05 8.51585e-05 -7.93807e-05
-0.000421456 0.000126089 0.000126586 -7.05537e-05
-0.000411791 0.000123206 0.000123679 -7.05533e-05
-0.00013541 4.02192e-05 4.0796e-05 -8.46796e-05
-0.000138647 4.11707e-05 4.17756e-05 -8.46804e-05
-0.000416623 0.000124647 0.000125132 -7.05535e-05
-0.000273607 8.17059e-05 8.22434e-05 -7.93798e-05
-0.000137028 4.0695e-05 4.12857e-05 -8.468e-05
-0.000280059 8.36229e-05 8.41868e-05 -7.93804e-05
-0.000276833 8.26644e-05 8.32151e-05 -7.93801e-05
-0.000411791 0.000123206 0.000123679 -7.05533e-05
-0.000402126 0.000120322 0.000120773 -7.05529e-05
-0.000132173 3.92673e-05 3.98167e-05 -8.46788e-05
-0.00013541 4.02192e-05 4.0796e-05 -8.46796e-05
-0.000406959 0.000121764 0.000122226 -7.05531e-05
-0.000267156 7.97886e-05 8.03005e-05 -7.93792e-05
-0.000133791 3.97433e-05 4.03063e-05 -8.46792e-05
-0.000273607 8.17059e-05 8.22434e-05 -7.93798e-05
-0.000270382 8.07473e-05 8.12719e-05 -7.93795e-05
-0.000402126 0.000120322 0.000120773 -7.05529e-05
-0.000392463 0.000117439 0.000117867 -7.05526e-05
-0.000128936 3.83151e-05 3.88377e-05 -8.4678e-05
-0.000132173 3.92673e-05 3.98167e-05 -8.46788e-05
-0.000397295 0.000118881 0.00011932 -7.05527e-05
-0.000260706 7.7871e-05 7.83579e-05 -7.93786e-05
-0.000130555 3.87913e-05 3.93271e-05 -8.46784e-05
-0.000267156 7.97886e-05 8.03005e-05 -7.93792e-05
-0.000263931 7.88298e-05 7.93291e-05 -7.93789e-05
-0.000392463 0.000117439 0.000117867 -7.05526e-05
-0.0003828 0.000114555 0.000114962 -7.05523e-05
-0.000125701 3.73627e-05 3.78591e-05 -8.46773e-05
-0.000128936 3.83151e-05 3.88377e-05 -8.4678e-05
-0.000387631 0.000115997 0.000116415 -7.05524e-05
-0.000254256 7.59532e-05 7.64156e-05 -7.93781e-05
-0.000127319 3.7839e-05 3.83484e-05 -8.46776e-05
-0.000260706 7.7871e-05 7.83579e-05 -7.93786e-05
-0.000257481 7.69122e-05 7.73867e-05 -7.93784e-05
-0.0003828 0.000114555 0.000114962 -7.05523e-05
-0.000373137 0.000111671 0.000112057 -7.0552e-05
-0.000122465 3.641e-05 3.68809e-05 -8.46765e-05
-0.000125701 3.73627e-05 3.78591e-05 -8.46773e-05
-0.000377968 0.000113113 0.000113509 -7.05521e-05
-0.000247807 7.40352e-05 7.44737e-05 -7.93776e-05
-0.000124083 3.68864e-05 3.737e-05 -8.46769e-05
-0.000254256 7.59532e-05 7.64156e-05 -7.93781e-05
-0.000251032 7.49942e-05 7.54446e-05 -7.93779e-05
-0.000373137 0.000111671 0.000112057 -7.0552e-05
-0.000363475 0.000108787 0.000109152 -7.05517e-05
-0.000119231 3.5457e-05 3.59031e-05 -8.46758e-05
-0.000122465 3.641e-05 3.68809e-05 -8.46765e-05
-0.000368306 0.000110229 0.000110604 -7.05518e-05
-0.000241359 7.21169e-05 7.25321e-05 -7.93771e-05
-0.000120848 3.59335e-05 3.6392e-05 -8.46762e-05
-0.000247807 7.40352e-05 7.44737e-05 -7.93776e-05
-0.000244583 7.3076e-05 7.35029e-05 -7.93774e-05
-0.000363475 0.000108787 0.000109152 -7.05517e-05
-0.000353814 0.000105903 0.000106248 -7.05514e-05
-0.000115997 3.45037e-05 3.49256e-05 -8.46751e-05
-0.000119231 3.5457e-05 3.59031e-05 -8.46758e-05
-0.000358644 0.000107345 0.0001077 -7.05515e-05
-0.00023491 7.01983e-05 7.05909e-05 -7.93766e-05
-0.000117614 3.49804e-05 3.54143e-05 -8.46755e-05
-0.000241359 7.21169e-05 7.25321e-05 -7.93771e-05
-0.000238134 7.11576e-05 7.15615e-05 -7.93769e-05
-0.000353814 0.000105903 0.000106248 -7.05514e-05
-0.000344153 0.000103018 0.000103344 -7.05511e-05
-0.000112763 3.35501e-05 3.39484e-05 -8.46745e-05
-0.000115997 3.45037e-05 3.49256e-05 -8.46751e-05
-0.000348983 0.00010446 0.000104796 -7.05513e-05
-0.000228463 6.82795e-05 6.86501e-05 -7.93762e-05
-0.00011438 3.40269e-05 3.4437e-05 -8.46748e-05
-0.00023491 7.01983e-05 7.05909e-05 -7.93766e-05
-0.000231687 6.92389e-05 6.96205e-05 -7.93764e-05
-0.000344153 0.000103018 0.000103344 -7.05511e-05
-0.000334493 0.000100133 0.00010044 -7.05509e-05
-0.00010953 3.25962e-05 3.29717e-05 -8.46738e-05
-0.000112763 3.35501e-05 3.39484e-05 -8.46745e-05
-0.000339323 0.000101576 0.000101892 -7.0551e-05
-0.000222016 6.63604e-05 6.67096e-05 -7.93757e-05
-0.000111147 3.30732e-05 3.346e-05 -8.46741e-05
-0.000228463 6.82795e-05 6.86501e-05 -7.93762e-05
-0.000225239 6.732e-05 6.76798e-05 -7.9376e-05
-0.000334493 0.000100133 0.00010044 -7.05509e-05
-0.000324833 9.72482e-05 9.75363e-05 -7.05507e-05
-0.000106298 3.1642e-05 3.19952e-05 -8.46732e-05
-0.00010953 3.25962e-05 3.29717e-05 -8.46738e-05
-0.000329663 9.86907e-05 9.8988e-05 -7.05508e-05
-0.00021557 6.4441e-05 6.47694e-05 -7.93753e-05
-0.000107914 3.21192e-05 3.24834e-05 -8.46735e-05
-0.000222016 6.63604e-05 6.67096e-05 -7.93757e-05
-0.000218793 6.54007e-05 6.57395e-05 -7.93755e-05
-0.000324833 9.72482e-05 9.75363e-05 -7.05507e-05
-0.000315174 9.4363e-05 9.46331e-05 -7.05505e-05
-0.000103066 3.06876e-05 3.10192e-05 -8.46726e-05
-0.000106298 3.1642e-05 3.19952e-05 -8.46732e-05
-0.000320003 9.58056e-05 9.60847e-05 -7.05506e-05
-0.000209124 6.25214e-05 6.28296e-05 -7.93749e-05
-0.000104682 3.11649e-05 3.15072e-05 -8.46729e-05
-0.00021557 6.4441e-05 6.47694e-05 -7.93753e-05
-0.000212347 6.34813e-05 6.37995e-05 -7.93751e-05
-0.000315174 9.4363e-05 9.46331e-05 -7.05505e-05
-0.000305515 9.14775e-05 9.17303e-05 -7.05503e-05
-9.98343e-05 2.97328e-05 3.00435e-05 -8.4672e-05
-0.000103066 3.06876e-05 3.10192e-05 -8.46726e-05
-0.000310344 9.29203e-05 9.31817e-05 -7.05504e-05
-0.000202679 6.06016e-05 6.08902e-05 -7.93745e-05
-0.00010145 3.02102e-05 3.05313e-05 -8.46723e-05
-0.000209124 6.25214e-05 6.28296e-05 -7.93749e-05
-0.000205901 6.15615e-05 6.18599e-05 -7.93747e-05
-0.000305515 9.14775e-05 9.17303e-05 -7.05503e-05
-0.000295857 8.85919e-05 8.88278e-05 -7.05501e-05
-9.66035e-05 2.87778e-05 2.90681e-05 -8.46714e-05
-9.98343e-05 2.97328e-05 3.00435e-05 -8.4672e-05
-0.000300686 9.00347e-05 9.0279e-05 -7.05502e-05
-0.000196234 5.86814e-05 5.89511e-05 -7.93742e-05
-9.82188e-05 2.92553e-05 2.95558e-05 -8.46717e-05
-0.000202679 6.06016e-05 6.08902e-05 -7.93745e-05
-0.000199456 5.96415e-05 5.99206e-05 -7.93744e-05
-0.000295857 8.85919e-05 8.88278e-05 -7.05501e-05
-0.000286199 8.5706e-05 8.59257e-05 -7.05499e-05
-9.33731e-05 2.78224e-05 2.80932e-05 -8.46709e-05
-9.66035e-05 2.87778e-05 2.90681e-05 -8.46714e-05
-0.000291028 8.71489e-05 8.73767e-05 -7.055e-05
-0.00018979 5.6761e-05 5.70123e-05 -7.93738e-05
-9.49882e-05 2.83001e-05 2.85806e-05 -8.46712e-05
-0.000196234 5.86814e-05 5.89511e-05 -7.93742e-05
-0.000193012 5.77213e-05 5.79816e-05 -7.9374e-05
-0.000286199 8.5706e-05 8.59257e-05 -7.05499e-05
-0.000276542 8.28199e-05 8.30239e-05 -7.05498e-05
-9.01433e-05 2.68667e-05 2.71185e-05 -8.46704e-05
-9.33731e-05 2.78224e-05 2.80932e-05 -8.46709e-05
-0.000281371 8.42629e-05 8.44747e-05 -7.05499e-05
-0.000183346 5.48403e-05 5.50739e-05 -7.93735e-05
-9.17582e-05 2.73446e-05 2.76058e-05 -8.46706e-05
-0.00018979 5.6761e-05 5.70123e-05 -7.93738e-05
-0.000186568 5.58007e-05 5.60431e-05 -7.93737e-05
-0.000276542 8.28199e-05 8.30239e-05 -7.05498e-05
-0.000266886 7.99335e-05 8.01224e-05 -7.05496e-05
-8.69141e-05 2.59107e-05 2.61443e-05 -8.46698e-05
-9.01433e-05 2.68667e-05 2.71185e-05 -8.46704e-05
-0.000271714 8.13767e-05 8.15731e-05 -7.05497e-05
-0.000176903 5.29194e-05 5.31358e-05 -7.93731e-05
-8.85286e-05 2.63888e-05 2.66314e-05 -8.46701e-05
-0.000183346 5.48403e-05 5.50739e-05 -7.93735e-05
-0.000180124 5.38799e-05 5.41048e-05 -7.93733e-05
-0.000266886 7.99335e-05 8.01224e-05 -7.05496e-05
-0.00025723 7.70469e-05 7.72212e-05 -7.05494e-05
-8.36853e-05 2.49544e-05 2.51704e-05 -8.46693e-05
-8.69141e-05 2.59107e-05 2.61443e-05 -8.46698e-05
-0.000262058 7.84902e-05 7.86717e-05 -7.05495e-05
-0.00017046 5.09981e-05 5.11981e-05 -7.93728e-05
-8.52996e-05 2.54326e-05 2.56573e-05 -8.46696e-05
-0.000176903 5.29194e-05 5.31358e-05 -7.93731e-05
-0.000173682 5.19588e-05 5.21669e-05 -7.9373e-05
-0.00025723 7.70469e-05 7.72212e-05 -7.05494e-05
-0.000247574 7.41601e-05 7.43203e-05 -7.05492e-05
-8.0457e-05 2.39978e-05 2.41968e-05 -8.46688e-05
-8.36853e-05 2.49544e-05 2.51704e-05 -8.46693e-05
-0.000252402 7.56035e-05 7.57707e-05 -7.05493e-05
-0.000164018 4.90766e-05 4.92607e-05 -7.93724e-05
-8.20711e-05 2.44762e-05 2.46835e-05 -8.46691e-05
-0.00017046 5.09981e-05 5.11981e-05 -7.93728e-05
-0.000167239 5.00374e-05 5.02294e-05 -7.93726e-05
-0.000247574 7.41601e-05 7.43203e-05 -7.05492e-05
-0.000237919 7.1273e-05 7.14198e-05 -7.0549e-05
-7.72292e-05 2.30408e-05 2.32236e-05 -8.46683e-05
-8.0457e-05 2.39978e-05 2.41968e-05 -8.46688e-05
-0.000242747 7.27166e-05 7.287e-05 -7.05491e-05
-0.000157577 4.71547e-05 4.73237e-05 -7.93721e-05
-7.8843e-05 2.35193e-05 2.37102e-05 -8.46686e-05
-0.000164018 4.90766e-05 4.92607e-05 -7.93724e-05
-0.000160797 4.81157e-05 4.82922e-05 -7.93723e-05
-0.000237919 7.1273e-05 7.14198e-05 -7.0549e-05
-0.000228265 6.83857e-05 6.85196e-05 -7.05487e-05
-7.40019e-05 2.20835e-05 2.22507e-05 -8.46678e-05
-7.72292e-05 2.30408e-05 2.32236e-05 -8.46683e-05
-0.000233092 6.98294e-05 6.99696e-05 -7.05489e-05
-0.000151136 4.52326e-05 4.5387e-05 -7.93717e-05
-7.56155e-05 2.25622e-05 2.27371e-05 -8.46681e-05
-0.000157577 4.71547e-05 4.73237e-05 -7.93721e-05
-0.000154356 4.61937e-05 4.63553e-05 -7.93719e-05
-0.000228265 6.83857e-05 6.85196e-05 -7.05487e-05
-0.000218611 6.54982e-05 6.56196e-05 -7.05484e-05
-7.0775e-05 2.11259e-05 2.12782e-05 -8.46673e-05
-7.40019e-05 2.20835e-05 2.22507e-05 -8.46678e-05
-0.000223438 6.6942e-05 6.70696e-05 -7.05486e-05
-0.000144695 4.33102e-05 4.34506e-05 -7.93713e-05
-7.23884e-05 2.16048e-05 2.17644e-05 -8.46675e-05
-0.000151136 4.52326e-05 4.5387e-05 -7.93717e-05
-0.000147915 4.42714e-05 4.44188e-05 -7.93715e-05
-0.000218611 6.54982e-05 6.56196e-05 -7.05484e-05
-0.000208957 6.26106e-05 6.272e-05 -7.05481e-05
-6.75486e-05 2.01681e-05 2.03059e-05 -8.46667e-05
-7.0775e-05 2.11259e-05 2.12782e-05 -8.46673e-05
-0.000213784 6.40544e-05 6.41698e-05 -7.05483e-05
-0.000138255 4.13876e-05 4.15145e-05 -7.93708e-05
-6.91617e-05 2.0647e-05 2.0792e-05 -8.4667e-05
-0.000144695 4.33102e-05 4.34506e-05 -7.93713e-05
-0.000141475 4.23489e-05 4.24825e-05 -7.9371e-05
-0.000208957 6.26106e-05 6.272e-05 -7.05481e-05
-0.000199304 5.97228e-05 5.98207e-05 -7.05478e-05
-6.43227e-05 1.92101e-05 1.9334e-05 -8.46661e-05
-6.75486e-05 2.01681e-05 2.03059e-05 -8.46667e-05
-0.000204131 6.11667e-05 6.12703e-05 -7.0548e-05
-0.000131815 3.94649e-05 3.95788e-05 -7.93703e-05
-6.59356e-05 1.96891e-05 1.98199e-05 -8.46664e-05
-0.000138255 4.13876e-05 4.15145e-05 -7.93708e-05
-0.000135035 4.04263e-05 4.05466e-05 -7.93706e-05
-0.000199304 5.97228e-05 5.98207e-05 -7.05478e-05
-0.000189652 5.6835e-05 5.69216e-05 -7.05476e-05
-6.10974e-05 1.8252e-05 1.83623e-05 -8.46655e-05
-6.43227e-05 1.92101e-05 1.9334e-05 -8.46661e-05
-0.000194478 5.82789e-05 5.83711e-05 -7.05477e-05
-0.000125376 3.75422e-05 3.76432e-05 -7.93699e-05
-6.271e-05 1.8731e-05 1.88481e-05 -8.46658e-05
-0.000131815 3.94649e-05 3.95788e-05 -7.93703e-05
-0.000128596 3.85035e-05 3.8611e-05 -7.93701e-05
-0.000189652 5.6835e-05 5.69216e-05 -7.05476e-05
-0.00018 5.39474e-05 5.40227e-05 -7.05476e-05
-5.78728e-05 1.72942e-05 1.73908e-05 -8.46648e-05
-6.10974e-05 1.8252e-05 1.83623e-05 -8.46655e-05
-0.000184826 5.53912e-05 5.54721e-05 -7.05476e-05
-0.000118938 3.56196e-05 3.57079e-05 -7.93696e-05
-5.9485e-05 1.77731e-05 1.78765e-05 -8.46651e-05
-0.000125376 3.75422e-05 3.76432e-05 -7.93699e-05
-0.000122157 3.65809e-05 3.66756e-05 -7.93697e-05
-0.00018 5.39474e-05 5.40227e-05 -7.05476e-05
-0.00017035 5.106e-05 5.11241e-05 -7.0548e-05
-5.46492e-05 1.63369e-05 1.64195e-05 -8.46643e-05
-5.78728e-05 1.72942e-05 1.73908e-05 -8.46648e-05
-0.000175175 5.25037e-05 5.25734e-05 -7.05477e-05
-0.000112501 3.36975e-05 3.37729e-05 -7.93696e-05
-5.62609e-05 1.68155e-05 1.69052e-05 -8.46646e-05
-0.000118938 3.56196e-05 3.57079e-05 -7.93696e-05
-0.000115719 3.46585e-05 3.47404e-05 -7.93696e-05
-0.00017035 5.106e-05 5.11241e-05 -7.0548e-05
-0.0001607 4.8173e-05 4.82257e-05 -7.0549e-05
-5.14268e-05 1.53805e-05 1.54484e-05 -8.46643e-05
-5.46492e-05 1.63369e-05 1.64195e-05 -8.46643e-05
-0.000165525 4.96165e-05 4.96749e-05 -7.05484e-05
-0.000106065 3.17759e-05 3.1838e-05 -7.93702e-05
-5.30378e-05 1.58586e-05 1.59339e-05 -8.46642e-05
-0.000112501 3.36975e-05 3.37729e-05 -7.93696e-05
-0.000109283 3.27366e-05 3.28054e-05 -7.93698e-05
-0.0001607 4.8173e-05 4.82257e-05 -7.0549e-05
-0.000151051 4.52861e-05 4.53276e-05 -7.05511e-05
-4.82058e-05 1.44253e-05 1.44774e-05 -8.46654e-05
-5.14268e-05 1.53805e-05 1.54484e-05 -8.46643e-05
-0.000155875 4.67296e-05 4.67766e-05 -7.05499e-05
-9.96294e-05 2.98549e-05 2.99034e-05 -7.9372e-05
-4.98161e-05 1.49027e-05 1.49629e-05 -8.46646e-05
-0.000106065 3.17759e-05 3.1838e-05 -7.93702e-05
-0.000102847 3.08154e-05 3.08707e-05 -7.93709e-05
-0.000151051 4.52861e-05 4.53276e-05 -7.05511e-05
-0.000141401 4.23984e-05 4.24298e-05 -7.05549e-05
-4.49867e-05 1.34714e-05 1.35066e-05 -8.46692e-05
-4.82058e-05 1.44253e-05 1.44774e-05 -8.46654e-05
-0.000146226 4.38425e-05 4.38787e-05 -7.05528e-05
-9.31949e-05 2.79336e-05 2.79691e-05 -7.93762e-05
-4.6596e-05 1.39482e-05 1.39919e-05 -8.46668e-05
-9.96294e-05 2.98549e-05 2.99034e-05 -7.9372e-05
-9.64121e-05 2.88944e-05 2.89362e-05 -7.93736e-05
-0.000141401 4.23984e-05 4.24298e-05 -7.05549e-05
-0.00013175 3.9507e-05 3.95328e-05 -7.05607e-05
-4.17684e-05 1.25183e-05 1.25358e-05 -8.46794e-05
-4.49867e-05 1.34714e-05 1.35066e-05 -8.46692e-05
-0.000136576 4.09534e-05 4.09811e-05 -7.05575e-05
-8.67591e-05 2.60099e-05 2.60354e-05 -7.9385e-05
-4.33777e-05 1.29949e-05 1.30212e-05 -8.46732e-05
-9.31949e-05 2.79336e-05 2.79691e-05 -7.93762e-05
-8.99773e-05 2.69723e-05 2.70021e-05 -7.93799e-05
-0.00013175 3.9507e-05 3.95328e-05 -7.05607e-05
-0.000122091 3.66058e-05 3.66365e-05 -7.05694e-05
-3.85501e-05 1.15634e-05 1.15657e-05 -8.47026e-05
-4.17684e-05 1.25183e-05 1.25358e-05 -8.46794e-05
-0.000126922 3.80583e-05 3.80846e-05 -7.05646e-05
-8.03174e-05 2.40781e-05 2.41025e-05 -7.94027e-05
-4.01592e-05 1.20413e-05 1.20505e-05 -8.46888e-05
-8.67591e-05 2.60099e-05 2.60354e-05 -7.9385e-05
-8.35394e-05 2.50455e-05 2.50688e-05 -7.93923e-05
-0.000122091 3.66058e-05 3.66365e-05 -7.05694e-05
-0.000112415 3.36822e-05 3.37424e-05 -7.05811e-05
-3.53241e-05 1.06017e-05 1.05953e-05 -8.47523e-05
-3.85501e-05 1.15634e-05 1.15657e-05 -8.47026e-05
-0.000117255 3.51479e-05 3.51889e-05 -7.0575e-05
-7.38593e-05 2.21275e-05 2.21708e-05 -7.94373e-05
-3.69391e-05 1.10841e-05 1.10807e-05 -8.4723e-05
-8.03174e-05 2.40781e-05 2.41025e-05 -7.94027e-05
-7.70913e-05 2.31064e-05 2.31364e-05 -7.94175e-05
-0.000112415 3.36822e-05 3.37424e-05 -7.05811e-05
-0.000102693 3.0713e-05 3.08484e-05 -7.05976e-05
-3.2084e-05 9.62134e-06 9.62685e-06 -8.48525e-05
-3.53241e-05 1.06017e-05 1.05953e-05 -8.47523e-05
-0.000107562 3.22057e-05 3.22957e-05 -7.05885e-05
-6.73632e-05 2.01361e-05 2.02402e-05 -7.95025e-05
-3.37056e-05 1.01146e-05 1.01104e-05 -8.47941e-05
-7.38593e-05 2.21275e-05 2.21708e-05 -7.94373e-05
-7.06177e-05 2.11385e-05 2.12054e-05 -7.94643e-05
-0.000102693 3.0713e-05 3.08484e-05 -7.05976e-05
-9.28907e-05 2.76555e-05 2.79579e-05 -7.06166e-05
-2.87983e-05 8.60403e-06 8.65468e-06 -8.50463e-05
-3.2084e-05 9.62134e-06 9.62685e-06 -8.48525e-05
-9.78029e-05 2.91983e-05 2.9402e-05 -7.06073e-05
-6.07895e-05 1.80691e-05 1.83087e-05 -7.96239e-05
-3.0451e-05 9.11958e-06 9.14204e-06 -8.49339e-05
-6.73632e-05 2.01361e-05 2.02402e-05 -7.95025e-05
-6.40893e-05 1.91157e-05 1.92744e-05 -7.95554e-05
-9.28907e-05 2.76555e-05 2.79579e-05 -7.06166e-05
-8.29117e-05 2.44471e-05 2.50563e-05 -7.06476e-05
-2.5447e-05 7.51413e-06 7.68549e-06 -8.5401e-05
-2.87983e-05 8.60403e-06 8.65468e-06 -8.50463e-05
-8.79342e-05 2.60767e-05 2.65103e-05 -7.06291e-05
-5.40671e-05 1.58659e-05 1.63719e-05 -7.98431e-05
-2.71292e-05 8.06944e-06 8.16846e-06 -8.51983e-05
-6.07895e-05 1.80691e-05 1.83087e-05 -7.96239e-05
-5.74525e-05 1.69878e-05 1.7342e-05 -7.97151e-05
-8.29117e-05 2.44471e-05 2.50563e-05 -7.06476e-05
-7.26633e-05 2.09855e-05 2.21476e-05 -7.06875e-05
-2.19351e-05 6.3181e-06 6.69301e-06 -8.60241e-05
-2.5447e-05 7.51413e-06 7.68549e-06 -8.5401e-05
-7.78219e-05 2.2752e-05 2.36014e-05 -7.06679e-05
-4.70893e-05 1.34593e-05 1.44129e-05 -8.02278e-05
-2.37246e-05 6.93481e-06 7.19562e-06 -8.567e-05
-5.40671e-05 1.58659e-05 1.63719e-05 -7.98431e-05
-5.06178e-05 1.46956e-05 1.53953e-05 -8.00146e-05
-7.26633e-05 2.09855e-05 2.21476e-05 -7.06875e-05
-6.18846e-05 1.7183e-05 1.91579e-05 -7.07961e-05
-1.82492e-05 4.9576e-06 5.6964e-06 -8.70389e-05
-2.19351e-05 6.3181e-06 6.69301e-06 -8.60241e-05
-6.73721e-05 1.91386e-05 2.06715e-05 -7.07249e-05
-3.96953e-05 1.0759e-05 1.24013e-05 -8.08777e-05
-2.01021e-05 5.65422e-06 6.19196e-06 -8.64748e-05
-4.70893e-05 1.34593e-05 1.44129e-05 -8.02278e-05
-4.34568e-05 1.21433e-05 1.34201e-05 -8.05011e-05
-6.18846e-05 1.7183e-05 1.91579e-05 -7.07961e-05
-5.0466e-05 1.29432e-05 1.60812e-05 -7.10063e-05
-1.42059e-05 3.48914e-06 4.59292e-06 -8.85779e-05
-1.82492e-05 4.9576e-06 5.6964e-06 -8.70389e-05
-5.62372e-05 1.51016e-05 1.76295e-05 -7.08892e-05
-3.17528e-05 7.81889e-06 1.02574e-05 -8.19175e-05
-1.6307e-05 4.2414e-06 5.17096e-06 -8.77338e-05
-3.96953e-05 1.0759e-05 1.24013e-05 -8.08777e-05
-3.57968e-05 9.31937e-06 1.13475e-05 -8.13606e-05
-5.0466e-05 1.29432e-05 1.60812e-05 -7.10063e-05
-3.79971e-05 8.55726e-06 1.26171e-05 -7.16298e-05
-1.00459e-05 2.01544e-06 3.44163e-06 -9.05596e-05
-1.42059e-05 3.48914e-06 4.59292e-06 -8.85779e-05
-4.44322e-05 1.07605e-05 1.44307e-05 -7.12284e-05
-2.31897e-05 4.86062e-06 7.85532e-06 -8.34549e-05
-1.20757e-05 2.70627e-06 4.01549e-06 -8.95323e-05
-3.17528e-05 7.81889e-06 1.02574e-05 -8.19175e-05
-2.75537e-05 6.28058e-06 9.11707e-06 -8.25786e-05
-3.79971e-05 8.55726e-06 1.26171e-05 -7.16298e-05
-2.51015e-05 4.73988e-06 8.72642e-06 -7.28619e-05
-5.76653e-06 1.31322e-06 1.90856e-06 -9.24859e-05
-1.00459e-05 2.01544e-06 3.44163e-06 -9.05596e-05
-3.14553e-05 6.41061e-06 1.07334e-05 -7.21631e-05
-1.45926e-05 3.05636e-06 4.94412e-06 -8.53739e-05
-7.98626e-06 1.54305e-06 2.76138e-06 -9.15821e-05
-2.31897e-05 4.86062e-06 7.85532e-06 -8.34549e-05
-1.88172e-05 3.73879e-06 6.46216e-06 -8.44608e-05
-2.51015e-05 4.73988e-06 8.72642e-06 -7.28619e-05
-1.26224e-05 4.62092e-06 3.42919e-06 -7.54158e-05
-2.74381e-06 2.25506e-06 2.09462e-07 -9.25166e-05
-5.76653e-06 1.31322e-06 1.90856e-06 -9.24859e-05
-1.88519e-05 4.02185e-06 6.35572e-06 -7.39086e-05
-7.27948e-06 4.32018e-06 1.26827e-06 -8.67108e-05
-3.86097e-06 1.40947e-06 1.05064e-06 -9.29245e-05
-1.45926e-05 3.05636e-06 4.94412e-06 -8.53739e-05
-1.06891e-05 3.04295e-06 3.27691e-06 -8.60935e-05
-1.26224e-05 4.62092e-06 3.42919e-06 -7.54158e-05
-6.06744e-06 1.37373e-05 -3.2871e-06 -7.71822e-05
-1.03745e-06 6.67289e-06 -2.41519e-06 -8.72716e-05
-2.74381e-06 2.25506e-06 2.09462e-07 -9.25166e-05
-7.87393e-06 7.20112e-06 2.88349e-07 -7.66931e-05
-4.64544e-06 1.2341e-05 -3.29808e-06 -8.37985e-05
-1.95575e-06 4.16392e-06 -9.46358e-07 -9.08258e-05
-7.27948e-06 4.32018e-06 1.26827e-06 -8.67108e-05
-5.03966e-06 7.44718e-06 -1.0318e-06 -8.64071e-05
-6.06744e-06 1.37373e-05 -3.2871e-06 -7.71822e-05
-9.39982e-06 4.23464e-05 -1.412e-05 -7.06491e-05
-2.28101e-06 1.23521e-05 -4.31619e-06 -7.11863e-05
-1.03745e-06 6.67289e-06 -2.41519e-06 -8.72716e-05
-6.73281e-06 2.58395e-05 -8.18858e-06 -7.59166e-05
-6.42431e-06 2.69522e-05 -8.79769e-06 -6.95394e-05
-8.56663e-07 9.31086e-06 -3.62323e-06 -8.09559e-05
-4.64544e-06 1.2341e-05 -3.29808e-06 -8.37985e-05
-5.35447e-06 1.88202e-05 -5.77103e-06 -7.81869e-05
-9.39982e-06 4.23464e-05 -1.412e-05 -7.06491e-05
-1.92158e-05 7.65579e-05 -2.45752e-05 -3.72908e-05
-6.02117e-06 2.06915e-05 -6.28728e-06 -4.08613e-05
-2.28101e-06 1.23521e-05 -4.31619e-06 -7.11863e-05
-1.36879e-05 6.0829e-05 -2.02033e-05 -5.83151e-05
-1.0891e-05 4.60787e-05 -1.50804e-05 -4.1115e-05
-4.32955e-06 1.61578e-05 -5.06926e-06 -5.78882e-05
-6.42431e-06 2.69522e-05 -8.79769e-06 -6.95394e-05
-8.16618e-06 3.65398e-05 -1.21601e-05 -5.74772e-05
-0.000568397 0 0.000243599 0.000321081
-0.000577364 7.58594e-05 0.000214931 0.00010643
0.000560333 -7.9718e-05 -0.000205978 0.000105345
0.000549432 0 -0.000235471 0.000318568
-0.000554668 3.1953e-05 0.000224021 0.000202436
-8.67954e-06 -2.04178e-06 4.59485e-06 0.000120051
0.000536773 -3.40775e-05 -0.000215441 0.000200928
-9.80168e-06 0 4.20072e-06 0.000326464
-9.11612e-06 -1.25738e-06 4.44579e-06 0.000225826
-0.000577364 7.58594e-05 0.000214931 0.00010643
-0.000621195 0.000124885 0.000212704 -2.188e-05
0.000605593 -0.000131338 -0.000203252 -2.26051e-05
0.000560333 -7.9718e-05 -0.000205978 0.000105345
-0.000608774 0.000105258 0.000215792 3.09891e-05
-7.95025e-06 -3.31688e-06 4.82877e-06 -1.55169e-05
0.000592486 -0.000110532 -0.000206551 3.01006e-05
-8.67954e-06 -2.04178e-06 4.59485e-06 0.000120051
-8.32813e-06 -2.71007e-06 4.73066e-06 3.65836e-05
-0.000621195 0.000124885 0.000212704 -2.188e-05
-0.000633829 0.00016133 0.000202499 -8.00214e-05
0.000619431 -0.000169702 -0.000192741 -8.05724e-05
0.000605593 -0.000131338 -0.000203252 -2.26051e-05
-0.000625821 0.000144322 0.000206357 -5.69278e-05
-7.32064e-06 -4.34014e-06 4.99748e-06 -7.83482e-05
0.00061084 -0.000151791 -0.000196735 -5.75563e-05
-7.95025e-06 -3.31688e-06 4.82877e-06 -1.55169e-05
-7.60554e-06 -3.86111e-06 4.91428e-06 -5.12246e-05
-0.000633829 0.00016133 0.000202499 -8.00214e-05
-0.000640282 0.00017825 0.000198013 -0.000100791
0.000626936 -0.000188196 -0.000188032 -0.000101186
0.000619431 -0.000169702 -0.000192741 -8.05724e-05
-0.000640292 0.000172084 0.000200661 -9.39298e-05
-6.81271e-06 -5.10299e-06 5.10673e-06 -0.000102625
0.000626438 -0.000181283 -0.000190781 -9.4396e-05
-7.32064e-06 -4.34014e-06 4.99748e-06 -7.83482e-05
-7.06599e-06 -4.74899e-06 5.06357e-06 -9.50278e-05
-0.000640282 0.00017825 0.000198013 -0.000100791
-0.000635746 0.000184542 0.000193373 -0.000103049
0.000623245 -0.000195691 -0.000183238 -0.000103302
0.000626936 -0.000188196 -0.000188032 -0.000101186
-0.000637525 0.000182314 0.000195091 -0.000103068
-6.38718e-06 -5.69929e-06 5.17991e-06 -0.00010677
0.000624634 -0.000192909 -0.000185025 -0.000103399
-6.81271e-06 -5.10299e-06 5.10673e-06 -0.000102625
-6.58207e-06 -5.42185e-06 5.14454e-06 -0.000105717
-0.000635746 0.000184542 0.000193373 -0.000103049
-0.000630246 0.000184099 0.000191206 -9.94459e-05
0.000618344 -0.000196074 -0.000180973 -9.95508e-05
0.000623245 -0.000195691 -0.000183238 -0.000103302
-0.000633727 0.000184868 0.000192368 -0.000101626
-6.08173e-06 -6.10425e-06 5.22256e-06 -0.00010318
0.000621554 -0.000196475 -0.000182177 -0.000101796
-6.38718e-06 -5.69929e-06 5.17991e-06 -0.00010677
-6.22254e-06 -5.92468e-06 5.20595e-06 -0.000105679
-0.000630246 0.000184099 0.000191206 -9.94459e-05
-0.000623364 0.000181932 0.000189185 -9.47518e-05
0.000611851 -0.000194398 -0.000178908 -9.47596e-05
0.000618344 -0.000196074 -0.000180973 -9.95508e-05
-0.000626421 0.000183081 0.000190003 -9.70017e-05
-5.87693e-06 -6.35667e-06 5.24297e-06 -9.80971e-05
0.000614737 -0.000195339 -0.000179742 -9.70551e-05
-6.08173e-06 -6.10425e-06 5.22256e-06 -0.00010318
-5.9666e-06 -6.24781e-06 5.23475e-06 -0.000100469
-0.000623364 0.000181932 0.000189185 -9.47518e-05
-0.000617793 0.000179327 0.000187914 -9.10189e-05
0.000606518 -0.000192026 -0.00017764 -9.09674e-05
0.000611851 -0.000194398 -0.000178908 -9.47596e-05
-0.000620635 0.000180632 0.000188573 -9.27484e-05
-5.75216e-06 -6.47652e-06 5.24086e-06 -9.38013e-05
0.000609255 -0.000193241 -0.000178292 -9.27195e-05
-5.87693e-06 -6.35667e-06 5.24297e-06 -9.80971e-05
-5.80729e-06 -6.4308e-06 5.2449e-06 -9.58543e-05
-0.000617793 0.000179327 0.000187914 -9.10189e-05
-0.000612728 0.000177137 0.000186682 -8.84269e-05
0.000601601 -0.00018989 -0.000176448 -8.83563e-05
0.000606518 -0.000192026 -0.00017764 -9.09674e-05
-0.000615078 0.000178167 0.000187248 -8.95717e-05
-5.67498e-06 -6.50771e-06 5.22116e-06 -9.08128e-05
0.000603885 -0.00019091 -0.000176989 -8.95077e-05
-5.75216e-06 -6.47652e-06 5.24086e-06 -9.38013e-05
-5.70902e-06 -6.50101e-06 5.23287e-06 -9.21124e-05
-0.000612728 0.000177137 0.000186682 -8.84269e-05
-0.000608492 0.000175346 0.000185634 -8.68288e-05
0.000597468 -0.000188039 -0.00017547 -8.67607e-05
0.000601601 -0.00018989 -0.000176448 -8.83563e-05
-0.000610586 0.000176196 0.000186167 -8.75285e-05
-5.62275e-06 -6.47903e-06 5.18648e-06 -8.89305e-05
0.000599513 -0.000188929 -0.000175965 -8.74564e-05
-5.67498e-06 -6.50771e-06 5.22116e-06 -9.08128e-05
-5.64717e-06 -6.49913e-06 5.20556e-06 -8.97678e-05
-0.000608492 0.000175346 0.000185634 -8.68288e-05
-0.00060461 0.000173919 0.000184582 -8.5893e-05
0.000593676 -0.000186489 -0.000174509 -8.58418e-05
0.000597468 -0.000188039 -0.00017547 -8.67607e-05
-0.000606487 0.000174594 0.000185097 -8.62922e-05
-5.57835e-06 -6.41745e-06 5.14106e-06 -8.78371e-05
0.000595508 -0.000187231 -0.000174976 -8.62318e-05
-5.62275e-06 -6.47903e-06 5.18648e-06 -8.89305e-05
-5.60029e-06 -6.45112e-06 5.16489e-06 -8.82976e-05
-0.00060461 0.000173919 0.000184582 -8.5893e-05
-0.000601038 0.000172722 0.000183564 -8.5381e-05
0.0005902 -0.000185139 -0.000173598 -8.5351e-05
0.000593676 -0.000186489 -0.000174509 -8.58418e-05
-0.000602811 0.000173298 0.000184077 -8.55982e-05
-5.53233e-06 -6.33906e-06 5.08774e-06 -8.72354e-05
0.000591923 -0.000185794 -0.000174055 -8.55572e-05
-5.57835e-06 -6.41745e-06 5.14106e-06 -8.78371e-05
-5.55599e-06 -6.37957e-06 5.11524e-06 -8.74929e-05
-0.000601038 0.000172722 0.000183564 -8.5381e-05
-0.000597593 0.000171671 0.000182538 -8.51109e-05
0.000586862 -0.000183925 -0.000172688 -8.51027e-05
0.0005902 -0.000185139 -0.000173598 -8.5351e-05
-0.000599298 0.000172183 0.000183049 -8.52232e-05
-5.47977e-06 -6.25522e-06 5.02928e-06 -8.69245e-05
0.000588511 -0.000184518 -0.00017314 -8.52045e-05
-5.53233e-06 -6.33906e-06 5.08774e-06 -8.72354e-05
-5.50703e-06 -6.29735e-06 5.05902e-06 -8.70518e-05
-0.000597593 0.000171671 0.000182538 -8.51109e-05
-0.000594235 0.000170699 0.000181515 -8.4976e-05
0.000583627 -0.000182791 -0.000171787 -8.49871e-05
0.000586862 -0.000183925 -0.000172688 -8.51027e-05
-0.000595911 0.000171178 0.000182028 -8.50318e-05
-5.41911e-06 -6.17182e-06 4.96754e-06 -8.67716e-05
0.000585239 -0.00018335 -0.000172238 -8.50336e-05
-5.47977e-06 -6.25522e-06 5.02928e-06 -8.69245e-05
-5.45048e-06 -6.21323e-06 4.99873e-06 -8.68348e-05
-0.000594235 0.000170699 0.000181515 -8.4976e-05
-0.000590907 0.000169768 0.000180488 -8.4911e-05
0.000580438 -0.000181705 -0.000170885 -8.49379e-05
0.000583627 -0.000182791 -0.000171787 -8.49871e-05
-0.000592567 0.00017023 0.000181002 -8.49374e-05
-5.35053e-06 -6.09206e-06 4.90397e-06 -8.67018e-05
0.000582027 -0.000182243 -0.000171336 -8.49568e-05
-5.41911e-06 -6.17182e-06 4.96754e-06 -8.67716e-05
-5.38575e-06 -6.13139e-06 4.93592e-06 -8.67293e-05
-0.000590907 0.000169768 0.000180488 -8.4911e-05
-0.000587596 0.000168855 0.00017946 -8.48814e-05
0.000577277 -0.000180646 -0.000169985 -8.49203e-05
0.000580438 -0.000181705 -0.000170885 -8.49379e-05
-0.000589251 0.00016931 0.000179975 -8.48933e-05
-5.27514e-06 -6.01699e-06 4.83948e-06 -8.66722e-05
0.000578856 -0.000181173 -0.000170435 -8.49266e-05
-5.35053e-06 -6.09206e-06 4.90397e-06 -8.67018e-05
-5.3136e-06 -6.05392e-06 4.87179e-06 -8.66839e-05
-0.000587596 0.000168855 0.00017946 -8.48814e-05
-0.000584287 0.000167948 0.000178431 -8.48683e-05
0.00057413 -0.000179603 -0.000169083 -8.49162e-05
0.000577277 -0.000180646 -0.000169985 -8.49203e-05
-0.000585941 0.000168401 0.000178946 -8.48735e-05
-5.19433e-06 -5.9467e-06 4.77473e-06 -8.66613e-05
0.000575702 -0.000180123 -0.000169534 -8.49173e-05
-5.27514e-06 -6.01699e-06 4.83948e-06 -8.66722e-05
-5.23532e-06 -5.98127e-06 4.80711e-06 -8.66653e-05
-0.000584287 0.000167948 0.000178431 -8.48683e-05
-0.000580979 0.000167043 0.000177401 -8.48627e-05
0.000570991 -0.000178569 -0.000168181 -8.49169e-05
0.00057413 -0.000179603 -0.000169083 -8.49162e-05
-0.000582634 0.000167496 0.000177916 -8.48649e-05
-5.10951e-06 -5.88066e-06 4.71007e-06 -8.66581e-05
0.00057256 -0.000179086 -0.000168632 -8.49162e-05
-5.19433e-06 -5.9467e-06 4.77473e-06 -8.66613e-05
-5.15234e-06 -5.91319e-06 4.74237e-06 -8.66592e-05
-0.000580979 0.000167043 0.000177401 -8.48627e-05
-0.00057767 0.000166136 0.000176372 -8.48603e-05
0.000567855 -0.000177541 -0.000167277 -8.49186e-05
0.000570991 -0.000178569 -0.000168181 -8.49169e-05
-0.000579325 0.00016659 0.000176887 -8.48613e-05
-5.02188e-06 -5.81818e-06 4.64574e-06 -8.66577e-05
0.000569423 -0.000178055 -0.000167729 -8.49177e-05
-5.10951e-06 -5.88066e-06 4.71007e-06 -8.66581e-05
-5.06598e-06 -5.84902e-06 4.67785e-06 -8.66577e-05
-0.00057767 0.000166136 0.000176372 -8.48603e-05
-0.00057436 0.000165227 0.000175342 -8.48592e-05
0.000564722 -0.000176516 -0.000166374 -8.49201e-05
0.000567855 -0.000177541 -0.000167277 -8.49186e-05
-0.000576015 0.000165682 0.000175857 -8.48597e-05
-4.93243e-06 -5.75852e-06 4.58184e-06 -8.66579e-05
0.000566288 -0.000177028 -0.000166826 -8.49194e-05
-5.02188e-06 -5.81818e-06 4.64574e-06 -8.66577e-05
-4.97733e-06 -5.78804e-06 4.61373e-06 -8.66578e-05
-0.00057436 0.000165227 0.000175342 -8.48592e-05
-0.000571048 0.000164317 0.000174314 -8.48584e-05
0.000561589 -0.000175494 -0.000165469 -8.49208e-05
0.000564722 -0.000176516 -0.000166374 -8.49201e-05
-0.000572704 0.000164772 0.000174828 -8.48588e-05
-4.84191e-06 -5.70105e-06 4.51841e-06 -8.66579e-05
0.000563155 -0.000176005 -0.000165922 -8.49205e-05
-4.93243e-06 -5.75852e-06 4.58184e-06 -8.66579e-05
-4.88726e-06 -5.72955e-06 4.55006e-06 -8.66579e-05
-0.000571048 0.000164317 0.000174314 -8.48584e-05
-0.000567736 0.000163404 0.000173285 -8.48577e-05
0.000558457 -0.000174473 -0.000164565 -8.49209e-05
0.000561589 -0.000175494 -0.000165469 -8.49208e-05
-0.000569392 0.000163861 0.000173799 -8.48581e-05
-4.75089e-06 -5.64522e-06 4.45548e-06 -8.66577e-05
0.000560023 -0.000174983 -0.000165017 -8.49209e-05
-4.84191e-06 -5.70105e-06 4.51841e-06 -8.66579e-05
-4.79644e-06 -5.67296e-06 4.48688e-06 -8.66579e-05
-0.000567736 0.000163404 0.000173285 -8.48577e-05
-0.000564424 0.000162491 0.000172257 -8.48571e-05
0.000555324 -0.000173453 -0.000163659 -8.49205e-05
0.000558457 -0.000174473 -0.000164565 -8.49209e-05
-0.00056608 0.000162948 0.000172771 -8.48574e-05
-4.65975e-06 -5.59061e-06 4.39302e-06 -8.66572e-05
0.00055689 -0.000173963 -0.000164112 -8.49208e-05
-4.75089e-06 -5.64522e-06 4.45548e-06 -8.66577e-05
-4.70532e-06 -5.61779e-06 4.42419e-06 -8.66575e-05
-0.000564424 0.000162491 0.000172257 -8.48571e-05
-0.000561111 0.000161576 0.000171229 -8.48564e-05
0.000552191 -0.000172434 -0.000162753 -8.49197e-05
0.000555324 -0.000173453 -0.000163659 -8.49205e-05
-0.000562767 0.000162034 0.000171743 -8.48567e-05
-4.56877e-06 -5.53692e-06 4.33101e-06 -8.66565e-05
0.000553758 -0.000172943 -0.000163206 -8.49201e-05
-4.65975e-06 -5.59061e-06 4.39302e-06 -8.66572e-05
-4.61423e-06 -5.56367e-06 4.36196e-06 -8.66569e-05
-0.000561111 0.000161576 0.000171229 -8.48564e-05
-0.000557799 0.000160661 0.000170202 -8.48556e-05
0.000549058 -0.000171415 -0.000161847 -8.49187e-05
0.000552191 -0.000172434 -0.000162753 -8.49197e-05
-0.000559455 0.000161119 0.000170716 -8.4856e-05
-4.47811e-06 -5.48393e-06 4.26944e-06 -8.66557e-05
0.000550625 -0.000171924 -0.0001623 -8.49192e-05
-4.56877e-06 -5.53692e-06 4.33101e-06 -8.66565e-05
-4.52339e-06 -5.51035e-06 4.30017e-06 -8.66561e-05
-0.000557799 0.000160661 0.000170202 -8.48556e-05
-0.000554488 0.000159746 0.000169175 -8.48549e-05
0.000545925 -0.000170397 -0.00016094 -8.49176e-05
0.000549058 -0.000171415 -0.000161847 -8.49187e-05
-0.000556144 0.000160204 0.000169689 -8.48553e-05
-4.38788e-06 -5.43146e-06 4.20829e-06 -8.66547e-05
0.000547491 -0.000170906 -0.000161394 -8.49182e-05
-4.47811e-06 -5.48393e-06 4.26944e-06 -8.66557e-05
-4.43293e-06 -5.45763e-06 4.23881e-06 -8.66552e-05
-0.000554488 0.000159746 0.000169175 -8.48549e-05
-0.000551177 0.00015883 0.000168149 -8.4854e-05
0.000542791 -0.000169379 -0.000160033 -8.49163e-05
0.000545925 -0.000170397 -0.00016094 -8.49176e-05
-0.000552832 0.000159288 0.000168662 -8.48545e-05
-4.29815e-06 -5.37944e-06 4.14754e-06 -8.66537e-05
0.000544358 -0.000169888 -0.000160487 -8.4917e-05
-4.38788e-06 -5.43146e-06 4.20829e-06 -8.66547e-05
-4.34295e-06 -5.4054e-06 4.17786e-06 -8.66542e-05
-0.000551177 0.00015883 0.000168149 -8.4854e-05
-0.000547866 0.000157913 0.000167123 -8.48532e-05
0.000539656 -0.000168362 -0.000159126 -8.49151e-05
0.000542791 -0.000169379 -0.000160033 -8.49163e-05
-0.000549522 0.000158372 0.000167636 -8.48536e-05
-4.20895e-06 -5.32778e-06 4.08717e-06 -8.66526e-05
0.000541223 -0.000168871 -0.00015958 -8.49157e-05
-4.29815e-06 -5.37944e-06 4.14754e-06 -8.66537e-05
-4.25348e-06 -5.35356e-06 4.11731e-06 -8.66531e-05
-0.000547866 0.000157913 0.000167123 -8.48532e-05
-0.000544557 0.000156997 0.000166097 -8.48523e-05
0.000536521 -0.000167345 -0.000158218 -8.49137e-05
0.000539656 -0.000168362 -0.000159126 -8.49151e-05
-0.000546211 0.000157455 0.00016661 -8.48527e-05
-4.1203e-06 -5.27645e-06 4.02718e-06 -8.66514e-05
0.000538089 -0.000167854 -0.000158672 -8.49144e-05
-4.20895e-06 -5.32778e-06 4.08717e-06 -8.66526e-05
-4.16456e-06 -5.30208e-06 4.05713e-06 -8.6652e-05
-0.000544557 0.000156997 0.000166097 -8.48523e-05
-0.000541247 0.00015608 0.000165072 -8.48514e-05
0.000533386 -0.000166329 -0.00015731 -8.49124e-05
0.000536521 -0.000167345 -0.000158218 -8.49137e-05
-0.000542902 0.000156538 0.000165584 -8.48518e-05
-4.0322e-06 -5.22543e-06 3.96756e-06 -8.66503e-05
0.000534953 -0.000166837 -0.000157764 -8.49131e-05
-4.1203e-06 -5.27645e-06 4.02718e-06 -8.66514e-05
-4.07618e-06 -5.25091e-06 3.99732e-06 -8.66509e-05
-0.000541247 0.00015608 0.000165072 -8.48514e-05
-0.000537939 0.000155162 0.000164047 -8.48504e-05
0.00053025 -0.000165312 -0.000156402 -8.4911e-05
0.000533386 -0.000166329 -0.00015731 -8.49124e-05
-0.000539593 0.000155621 0.000164559 -8.48509e-05
-3.94466e-06 -5.17471e-06 3.9083e-06 -8.66491e-05
0.000531818 -0.00016582 -0.000156856 -8.49117e-05
-4.0322e-06 -5.22543e-06 3.96756e-06 -8.66503e-05
-3.98836e-06 -5.20004e-06 3.93789e-06 -8.66497e-05
-0.000537939 0.000155162 0.000164047 -8.48504e-05
-0.000534631 0.000154245 0.000163023 -8.48494e-05
0.000527113 -0.000164296 -0.000155493 -8.49096e-05
0.00053025 -0.000165312 -0.000156402 -8.4911e-05
-0.000536285 0.000154704 0.000163535 -8.48499e-05
-3.85767e-06 -5.12428e-06 3.84941e-06 -8.66479e-05
0.000528681 -0.000164804 -0.000155947 -8.49103e-05
-3.94466e-06 -5.17471e-06 3.9083e-06 -8.66491e-05
-3.9011e-06 -5.14946e-06 3.87881e-06 -8.66485e-05
-0.000534631 0.000154245 0.000163023 -8.48494e-05
-0.000531323 0.000153327 0.000161998 -8.48484e-05
0.000523976 -0.00016328 -0.000154584 -8.49082e-05
0.000527113 -0.000164296 -0.000155493 -8.49096e-05
-0.000532977 0.000153786 0.00016251 -8.48489e-05
-3.77122e-06 -5.07414e-06 3.79087e-06 -8.66466e-05
0.000525545 -0.000163788 -0.000155038 -8.49089e-05
-3.85767e-06 -5.12428e-06 3.84941e-06 -8.66479e-05
-3.81438e-06 -5.09917e-06 3.82009e-06 -8.66472e-05
-0.000531323 0.000153327 0.000161998 -8.48484e-05
-0.000528016 0.000152409 0.000160975 -8.48473e-05
0.000520839 -0.000162265 -0.000153674 -8.49067e-05
0.000523976 -0.00016328 -0.000154584 -8.49082e-05
-0.00052967 0.000152868 0.000161486 -8.48479e-05
-3.68531e-06 -5.0243e-06 3.73269e-06 -8.66453e-05
0.000522407 -0.000162773 -0.000154129 -8.49075e-05
-3.77122e-06 -5.07414e-06 3.79087e-06 -8.66466e-05
-3.7282e-06 -5.04918e-06 3.76173e-06 -8.6646e-05
-0.000528016 0.000152409 0.000160975 -8.48473e-05
-0.00052471 0.00015149 0.000159951 -8.48463e-05
0.000517701 -0.00016125 -0.000152765 -8.49053e-05
0.000520839 -0.000162265 -0.000153674 -8.49067e-05
-0.000526363 0.00015195 0.000160463 -8.48468e-05
-3.59994e-06 -4.97474e-06 3.67487e-06 -8.6644e-05
0.00051927 -0.000161757 -0.00015322 -8.4906e-05
-3.68531e-06 -5.0243e-06 3.73269e-06 -8.66453e-05
-3.64256e-06 -4.99948e-06 3.70373e-06 -8.66447e-05
-0.00052471 0.00015149 0.000159951 -8.48463e-05
-0.000521404 0.000150572 0.000158928 -8.48451e-05
0.000514562 -0.000160235 -0.000151854 -8.49038e-05
0.000517701 -0.00016125 -0.000152765 -8.49053e-05
-0.000523057 0.000151031 0.00015944 -8.48457e-05
-3.51511e-06 -4.92549e-06 3.6174e-06 -8.66427e-05
0.000516131 -0.000160742 -0.00015231 -8.49045e-05
-3.59994e-06 -4.97474e-06 3.67487e-06 -8.6644e-05
-3.55746e-06 -4.95008e-06 3.64609e-06 -8.66434e-05
-0.000521404 0.000150572 0.000158928 -8.48451e-05
-0.000518099 0.000149653 0.000157905 -8.4844e-05
0.000511423 -0.000159221 -0.000150944 -8.49023e-05
0.000514562 -0.000160235 -0.000151854 -8.49038e-05
-0.000519751 0.000150112 0.000158417 -8.48446e-05
-3.4308e-06 -4.87653e-06 3.56029e-06 -8.66414e-05
0.000512993 -0.000159728 -0.000151399 -8.4903e-05
-3.51511e-06 -4.92549e-06 3.6174e-06 -8.66427e-05
-3.47289e-06 -4.90097e-06 3.5888e-06 -8.6642e-05
-0.000518099 0.000149653 0.000157905 -8.4844e-05
-0.000514794 0.000148734 0.000156883 -8.48428e-05
0.000508284 -0.000158206 -0.000150033 -8.49007e-05
0.000511423 -0.000159221 -0.000150944 -8.49023e-05
-0.000516446 0.000149193 0.000157394 -8.48434e-05
-3.34703e-06 -4.82788e-06 3.50353e-06 -8.664e-05
0.000509854 -0.000158713 -0.000150489 -8.49015e-05
-3.4308e-06 -4.87653e-06 3.56029e-06 -8.66414e-05
-3.38885e-06 -4.85217e-06 3.53186e-06 -8.66407e-05
-0.000514794 0.000148734 0.000156883 -8.48428e-05
-0.00051149 0.000147814 0.000155861 -8.48417e-05
0.000505144 -0.000157193 -0.000149122 -8.48992e-05
0.000508284 -0.000158206 -0.000150033 -8.49007e-05
-0.000513142 0.000148274 0.000156372 -8.48423e-05
-3.26378e-06 -4.77952e-06 3.44713e-06 -8.66386e-05
0.000506714 -0.000157699 -0.000149578 -8.49e-05
-3.34703e-06 -4.82788e-06 3.50353e-06 -8.664e-05
-3.30534e-06 -4.80366e-06 3.47528e-06 -8.66393e-05
-0.00051149 0.000147814 0.000155861 -8.48417e-05
-0.000508187 0.000146894 0.00015484 -8.48405e-05
0.000502004 -0.000156179 -0.000148211 -8.48976e-05
0.000505144 -0.000157193 -0.000149122 -8.48992e-05
-0.000509838 0.000147354 0.00015535 -8.48411e-05
-3.18106e-06 -4.73147e-06 3.39108e-06 -8.66372e-05
0.000503574 -0.000156686 -0.000148666 -8.48984e-05
-3.26378e-06 -4.77952e-06 3.44713e-06 -8.66386e-05
-3.22235e-06 -4.75546e-06 3.41906e-06 -8.66379e-05
-0.000508187 0.000146894 0.00015484 -8.48405e-05
-0.000504884 0.000145974 0.000153818 -8.48392e-05
0.000498863 -0.000155166 -0.000147299 -8.4896e-05
0.000502004 -0.000156179 -0.000148211 -8.48976e-05
-0.000506535 0.000146434 0.000154329 -8.48398e-05
-3.09887e-06 -4.68372e-06 3.3354e-06 -8.66357e-05
0.000500433 -0.000155672 -0.000147755 -8.48968e-05
-3.18106e-06 -4.73147e-06 3.39108e-06 -8.66372e-05
-3.1399e-06 -4.70756e-06 3.3632e-06 -8.66364e-05
-0.000504884 0.000145974 0.000153818 -8.48392e-05
-0.000501581 0.000145054 0.000152797 -8.4838e-05
0.000495722 -0.000154153 -0.000146387 -8.48944e-05
0.000498863 -0.000155166 -0.000147299 -8.4896e-05
-0.000503233 0.000145514 0.000153308 -8.48386e-05
-3.0172e-06 -4.63628e-06 3.28006e-06 -8.66343e-05
0.000497292 -0.000154659 -0.000146843 -8.48952e-05
-3.09887e-06 -4.68372e-06 3.3354e-06 -8.66357e-05
-3.05797e-06 -4.65996e-06 3.30768e-06 -8.6635e-05
-0.000501581 0.000145054 0.000152797 -8.4838e-05
-0.00049828 0.000144133 0.000151777 -8.48367e-05
0.00049258 -0.00015314 -0.000145474 -8.48928e-05
0.000495722 -0.000154153 -0.000146387 -8.48944e-05
-0.00049993 0.000144594 0.000152287 -8.48373e-05
-2.93606e-06 -4.58914e-06 3.22509e-06 -8.66328e-05
0.000494151 -0.000153646 -0.00014593 -8.48936e-05
-3.0172e-06 -4.63628e-06 3.28006e-06 -8.66343e-05
-2.97656e-06 -4.61267e-06 3.25253e-06 -8.66335e-05
-0.00049828 0.000144133 0.000151777 -8.48367e-05
-0.000494978 0.000143213 0.000150757 -8.48354e-05
0.000489438 -0.000152128 -0.000144561 -8.48911e-05
0.00049258 -0.00015314 -0.000145474 -8.48928e-05
-0.000496629 0.000143673 0.000151267 -8.48361e-05
-2.85544e-06 -4.54231e-06 3.17047e-06 -8.66313e-05
0.000491009 -0.000152634 -0.000145018 -8.48919e-05
-2.93606e-06 -4.58914e-06 3.22509e-06 -8.66328e-05
-2.89569e-06 -4.56569e-06 3.19773e-06 -8.6632e-05
-0.000494978 0.000143213 0.000150757 -8.48354e-05
-0.000491678 0.000142291 0.000149737 -8.48341e-05
0.000486295 -0.000151116 -0.000143648 -8.48894e-05
0.000489438 -0.000152128 -0.000144561 -8.48911e-05
-0.000493328 0.000142752 0.000150247 -8.48348e-05
-2.77536e-06 -4.49578e-06 3.1162e-06 -8.66297e-05
0.000487866 -0.000151622 -0.000144105 -8.48903e-05
-2.85544e-06 -4.54231e-06 3.17047e-06 -8.66313e-05
-2.81533e-06 -4.51901e-06 3.14329e-06 -8.66305e-05
-0.000491678 0.000142291 0.000149737 -8.48341e-05
-0.000488378 0.00014137 0.000148718 -8.48328e-05
0.000483152 -0.000150104 -0.000142735 -8.48877e-05
0.000486295 -0.000151116 -0.000143648 -8.48894e-05
-0.000490028 0.000141831 0.000149227 -8.48334e-05
-2.69579e-06 -4.44956e-06 3.06229e-06 -8.66282e-05
0.000484724 -0.00015061 -0.000143192 -8.48886e-05
-2.77536e-06 -4.49578e-06 3.1162e-06 -8.66297e-05
-2.73551e-06 -4.47263e-06 3.0892e-06 -8.6629e-05
-0.000488378 0.00014137 0.000148718 -8.48328e-05
-0.000485078 0.000140448 0.000147699 -8.48314e-05
0.000480008 -0.000149093 -0.000141821 -8.4886e-05
0.000483152 -0.000150104 -0.000142735 -8.48877e-05
-0.000486728 0.000140909 0.000148208 -8.48321e-05
-2.61676e-06 -4.40364e-06 3.00874e-06 -8.66266e-05
0.00048158 -0.000149598 -0.000142278 -8.48869e-05
-2.69579e-06 -4.44956e-06 3.06229e-06 -8.66282e-05
-2.65621e-06 -4.42656e-06 3.03547e-06 -8.66274e-05
-0.000485078 0.000140448 0.000147699 -8.48314e-05
-0.00048178 0.000139526 0.00014668 -8.48301e-05
0.000476864 -0.000148082 -0.000140907 -8.48843e-05
0.000480008 -0.000149093 -0.000141821 -8.4886e-05
-0.000483429 0.000139987 0.000147189 -8.48308e-05
-2.53825e-06 -4.35803e-06 2.95555e-06 -8.66251e-05
0.000478436 -0.000148587 -0.000141364 -8.48852e-05
-2.61676e-06 -4.40364e-06 3.00874e-06 -8.66266e-05
-2.57744e-06 -4.38079e-06 2.9821e-06 -8.66259e-05
-0.00048178 0.000139526 0.00014668 -8.48301e-05
-0.000478481 0.000138604 0.000145662 -8.48287e-05
0.00047372 -0.000147071 -0.000139992 -8.48826e-05
0.000476864 -0.000148082 -0.000140907 -8.48843e-05
-0.00048013 0.000139065 0.000146171 -8.48294e-05
-2.46026e-06 -4.31272e-06 2.90271e-06 -8.66235e-05
0.000475292 -0.000147576 -0.00014045 -8.48834e-05
-2.53825e-06 -4.35803e-06 2.95555e-06 -8.66251e-05
-2.49919e-06 -4.33533e-06 2.92908e-06 -8.66243e-05
-0.000478481 0.000138604 0.000145662 -8.48287e-05
-0.000475183 0.000137682 0.000144644 -8.48273e-05
0.000470575 -0.000146061 -0.000139078 -8.48808e-05
0.00047372 -0.000147071 -0.000139992 -8.48826e-05
-0.000476832 0.000138143 0.000145153 -8.4828e-05
-2.38281e-06 -4.26771e-06 2.85022e-06 -8.66219e-05
0.000472147 -0.000146566 -0.000139535 -8.48817e-05
-2.46026e-06 -4.31272e-06 2.90271e-06 -8.66235e-05
-2.42147e-06 -4.29018e-06 2.87642e-06 -8.66227e-05
-0.000475183 0.000137682 0.000144644 -8.48273e-05
-0.000471886 0.000136759 0.000143626 -8.48259e-05
0.00046743 -0.00014505 -0.000138162 -8.4879e-05
0.000470575 -0.000146061 -0.000139078 -8.48808e-05
-0.000473535 0.00013722 0.000144135 -8.48266e-05
-2.30587e-06 -4.22302e-06 2.7981e-06 -8.66202e-05
0.000469002 -0.000145555 -0.00013862 -8.48799e-05
-2.38281e-06 -4.26771e-06 2.85022e-06 -8.66219e-05
-2.34427e-06 -4.24533e-06 2.82411e-06 -8.6621e-05
-0.000471886 0.000136759 0.000143626 -8.48259e-05
-0.00046859 0.000135836 0.000142609 -8.48245e-05
0.000464284 -0.000144041 -0.000137247 -8.48772e-05
0.00046743 -0.00014505 -0.000138162 -8.4879e-05
-0.000470238 0.000136297 0.000143118 -8.48252e-05
-2.22947e-06 -4.17862e-06 2.74633e-06 -8.66186e-05
0.000465857 -0.000144546 -0.000137705 -8.48781e-05
-2.30587e-06 -4.22302e-06 2.7981e-06 -8.66202e-05
-2.26761e-06 -4.20078e-06 2.77217e-06 -8.66194e-05
-0.00046859 0.000135836 0.000142609 -8.48245e-05
-0.000465294 0.000134912 0.000141592 -8.4823e-05
0.000461137 -0.000143031 -0.000136331 -8.48754e-05
0.000464284 -0.000144041 -0.000137247 -8.48772e-05
-0.000466942 0.000135374 0.0001421 -8.48237e-05
-2.15359e-06 -4.13454e-06 2.69491e-06 -8.66169e-05
0.000462711 -0.000143536 -0.000136789 -8.48763e-05
-2.22947e-06 -4.17862e-06 2.74633e-06 -8.66186e-05
-2.19146e-06 -4.15654e-06 2.72057e-06 -8.66178e-05
-0.000465294 0.000134912 0.000141592 -8.4823e-05
-0.000461998 0.000133989 0.000140576 -8.48216e-05
0.000457991 -0.000142022 -0.000135415 -8.48736e-05
0.000461137 -0.000143031 -0.000136331 -8.48754e-05
-0.000463646 0.00013445 0.000141084 -8.48223e-05
-2.07824e-06 -4.09076e-06 2.64385e-06 -8.66153e-05
0.000459564 -0.000142527 -0.000135873 -8.48745e-05
-2.15359e-06 -4.13454e-06 2.69491e-06 -8.66169e-05
-2.11585e-06 -4.11261e-06 2.66934e-06 -8.66161e-05
-0.000461998 0.000133989 0.000140576 -8.48216e-05
-0.000458704 0.000133065 0.00013956 -8.48201e-05
0.000454843 -0.000141013 -0.000134499 -8.48718e-05
0.000457991 -0.000142022 -0.000135415 -8.48736e-05
-0.000460351 0.000133527 0.000140068 -8.48208e-05
-2.00341e-06 -4.04728e-06 2.59315e-06 -8.66136e-05
0.000456417 -0.000141518 -0.000134957 -8.48727e-05
-2.07824e-06 -4.09076e-06 2.64385e-06 -8.66153e-05
-2.04076e-06 -4.06898e-06 2.61846e-06 -8.66144e-05
-0.000458704 0.000133065 0.00013956 -8.48201e-05
-0.000455409 0.00013214 0.000138544 -8.48186e-05
0.000451696 -0.000140005 -0.000133582 -8.48699e-05
0.000454843 -0.000141013 -0.000134499 -8.48718e-05
-0.000457056 0.000132602 0.000139052 -8.48193e-05
-1.92911e-06 -4.00411e-06 2.54281e-06 -8.66119e-05
0.00045327 -0.000140509 -0.00013404 -8.48708e-05
-2.00341e-06 -4.04728e-06 2.59315e-06 -8.66136e-05
-1.96619e-06 -4.02566e-06 2.56793e-06 -8.66127e-05
-0.000455409 0.00013214 0.000138544 -8.48186e-05
-0.000452116 0.000131216 0.000137529 -8.48171e-05
0.000448548 -0.000138997 -0.000132665 -8.48681e-05
0.000451696 -0.000140005 -0.000133582 -8.48699e-05
-0.000453762 0.000131678 0.000138036 -8.48179e-05
-1.85533e-06 -3.96124e-06 2.49282e-06 -8.66102e-05
0.000450122 -0.000139501 -0.000133123 -8.4869e-05
-1.92911e-06 -4.00411e-06 2.54281e-06 -8.66119e-05
-1.89215e-06 -3.98264e-06 2.51777e-06 -8.6611e-05
-0.000452116 0.000131216 0.000137529 -8.48171e-05
-0.000448823 0.000130291 0.000136514 -8.48156e-05
0.000445399 -0.000137989 -0.000131747 -8.48662e-05
0.000448548 -0.000138997 -0.000132665 -8.48681e-05
-0.000450469 0.000130753 0.000137021 -8.48164e-05
-1.78208e-06 -3.91868e-06 2.44319e-06 -8.66084e-05
0.000446973 -0.000138493 -0.000132206 -8.48671e-05
-1.85533e-06 -3.96124e-06 2.49282e-06 -8.66102e-05
-1.81864e-06 -3.93992e-06 2.46796e-06 -8.66093e-05
-0.000448823 0.000130291 0.000136514 -8.48156e-05
-0.00044553 0.000129366 0.000135499 -8.48141e-05
0.00044225 -0.000136981 -0.000130829 -8.48643e-05
0.000445399 -0.000137989 -0.000131747 -8.48662e-05
-0.000447176 0.000129829 0.000136006 -8.48148e-05
-1.70936e-06 -3.87643e-06 2.39391e-06 -8.66067e-05
0.000443824 -0.000137485 -0.000131288 -8.48652e-05
-1.78208e-06 -3.91868e-06 2.44319e-06 -8.66084e-05
-1.74566e-06 -3.89752e-06 2.4185e-06 -8.66076e-05
-0.00044553 0.000129366 0.000135499 -8.48141e-05
-0.000442238 0.000128441 0.000134485 -8.48126e-05
0.0004391 -0.000135974 -0.000129911 -8.48624e-05
0.00044225 -0.000136981 -0.000130829 -8.48643e-05
-0.000443884 0.000128903 0.000134992 -8.48133e-05
-1.63716e-06 -3.83448e-06 2.34499e-06 -8.66049e-05
0.000440675 -0.000136477 -0.00013037 -8.48633e-05
-1.70936e-06 -3.87643e-06 2.39391e-06 -8.66067e-05
-1.6732e-06 -3.85541e-06 2.3694e-06 -8.66058e-05
-0.000442238 0.000128441 0.000134485 -8.48126e-05
-0.000438947 0.000127515 0.000133471 -8.4811e-05
0.00043595 -0.000134967 -0.000128993 -8.48605e-05
0.0004391 -0.000135974 -0.000129911 -8.48624e-05
-0.000440593 0.000127978 0.000133978 -8.48118e-05
-1.56549e-06 -3.79283e-06 2.29643e-06 -8.66032e-05
0.000437525 -0.00013547 -0.000129452 -8.48614e-05
-1.63716e-06 -3.83448e-06 2.34499e-06 -8.66049e-05
-1.60126e-06 -3.81362e-06 2.32066e-06 -8.66041e-05
-0.000438947 0.000127515 0.000133471 -8.4811e-05
-0.000435656 0.000126589 0.000132457 -8.48095e-05
0.0004328 -0.00013396 -0.000128074 -8.48586e-05
0.00043595 -0.000134967 -0.000128993 -8.48605e-05
-0.000437302 0.000127052 0.000132964 -8.48102e-05
-1.49435e-06 -3.75149e-06 2.24822e-06 -8.66014e-05
0.000434375 -0.000134464 -0.000128534 -8.48595e-05
-1.56549e-06 -3.79283e-06 2.29643e-06 -8.66032e-05
-1.52986e-06 -3.77212e-06 2.27228e-06 -8.66023e-05
-0.000435656 0.000126589 0.000132457 -8.48095e-05
-0.000432366 0.000125663 0.000131444 -8.48079e-05
0.000429649 -0.000132954 -0.000127155 -8.48567e-05
0.0004328 -0.00013396 -0.000128074 -8.48586e-05
-0.000434011 0.000126126 0.000131951 -8.48087e-05
-1.42373e-06 -3.71046e-06 2.20037e-06 -8.65996e-05
0.000431225 -0.000133457 -0.000127615 -8.48576e-05
-1.49435e-06 -3.75149e-06 2.24822e-06 -8.66014e-05
-1.45898e-06 -3.73094e-06 2.22425e-06 -8.66005e-05
-0.000432366 0.000125663 0.000131444 -8.48079e-05
-0.000429077 0.000124737 0.000130431 -8.48063e-05
0.000426498 -0.000131948 -0.000126236 -8.48547e-05
0.000429649 -0.000132954 -0.000127155 -8.48567e-05
-0.000430721 0.0001252 0.000130938 -8.48071e-05
-1.35364e-06 -3.66973e-06 2.15287e-06 -8.65978e-05
0.000428074 -0.000132451 -0.000126695 -8.48557e-05
-1.42373e-06 -3.71046e-06 2.20037e-06 -8.65996e-05
-1.38862e-06 -3.69006e-06 2.17658e-06 -8.65987e-05
-0.000429077 0.000124737 0.000130431 -8.48063e-05
-0.000425788 0.00012381 0.000129419 -8.48048e-05
0.000423346 -0.000130942 -0.000125316 -8.48528e-05
0.000426498 -0.000131948 -0.000126236 -8.48547e-05
-0.000427432 0.000124273 0.000129925 -8.48055e-05
-1.28408e-06 -3.62931e-06 2.10574e-06 -8.6596e-05
0.000424922 -0.000131445 -0.000125776 -8.48537e-05
-1.35364e-06 -3.66973e-06 2.15287e-06 -8.65978e-05
-1.31879e-06 -3.64948e-06 2.12926e-06 -8.65969e-05
-0.000425788 0.00012381 0.000129419 -8.48048e-05
-0.000422499 0.000122883 0.000128407 -8.48032e-05
0.000420194 -0.000129937 -0.000124396 -8.48508e-05
0.000423346 -0.000130942 -0.000125316 -8.48528e-05
-0.000424143 0.000123346 0.000128913 -8.4804e-05
-1.21504e-06 -3.58919e-06 2.05895e-06 -8.65942e-05
0.00042177 -0.00013044 -0.000124856 -8.48518e-05
-1.28408e-06 -3.62931e-06 2.10574e-06 -8.6596e-05
-1.24949e-06 -3.60921e-06 2.0823e-06 -8.65951e-05
-0.000422499 0.000122883 0.000128407 -8.48032e-05
-0.000419211 0.000121956 0.000127395 -8.48016e-05
0.000417041 -0.000128932 -0.000123475 -8.48489e-05
0.000420194 -0.000129937 -0.000124396 -8.48508e-05
-0.000420855 0.000122419 0.000127901 -8.48024e-05
-1.14652e-06 -3.54938e-06 2.01253e-06 -8.65924e-05
0.000418618 -0.000129435 -0.000123936 -8.48498e-05
-1.21504e-06 -3.58919e-06 2.05895e-06 -8.65942e-05
-1.18071e-06 -3.56925e-06 2.0357e-06 -8.65933e-05
-0.000419211 0.000121956 0.000127395 -8.48016e-05
-0.000415924 0.000121028 0.000126384 -8.48e-05
0.000413888 -0.000127927 -0.000122555 -8.48469e-05
0.000417041 -0.000128932 -0.000123475 -8.48489e-05
-0.000417568 0.000121492 0.00012689 -8.48008e-05
-1.07854e-06 -3.50987e-06 1.96646e-06 -8.65906e-05
0.000415465 -0.00012843 -0.000123015 -8.48479e-05
-1.14652e-06 -3.54938e-06 2.01253e-06 -8.65924e-05
-1.11247e-06 -3.52959e-06 1.98945e-06 -8.65915e-05
-0.000415924 0.000121028 0.000126384 -8.48e-05
-0.000412638 0.0001201 0.000125373 -8.47984e-05
0.000410735 -0.000126923 -0.000121634 -8.48449e-05
0.000413888 -0.000127927 -0.000122555 -8.48469e-05
-0.000414281 0.000120564 0.000125879 -8.47992e-05
-1.01108e-06 -3.47067e-06 1.92075e-06 -8.65888e-05
0.000412311 -0.000127425 -0.000122094 -8.48459e-05
-1.07854e-06 -3.50987e-06 1.96646e-06 -8.65906e-05
-1.04474e-06 -3.49023e-06 1.94356e-06 -8.65897e-05
-0.000412638 0.0001201 0.000125373 -8.47984e-05
-0.000409352 0.000119172 0.000124363 -8.47968e-05
0.000407581 -0.000125919 -0.000120712 -8.48429e-05
0.000410735 -0.000126923 -0.000121634 -8.48449e-05
-0.000410994 0.000119636 0.000124868 -8.47976e-05
-9.44142e-07 -3.43177e-06 1.87539e-06 -8.65869e-05
0.000409158 -0.000126421 -0.000121173 -8.48439e-05
-1.01108e-06 -3.47067e-06 1.92075e-06 -8.65888e-05
-9.77544e-07 -3.45118e-06 1.89803e-06 -8.65879e-05
-0.000409352 0.000119172 0.000124363 -8.47968e-05
-0.000406066 0.000118244 0.000123352 -8.47951e-05
0.000404426 -0.000124915 -0.00011979 -8.4841e-05
0.000407581 -0.000125919 -0.000120712 -8.48429e-05
-0.000407709 0.000118708 0.000123857 -8.47959e-05
-8.77733e-07 -3.39318e-06 1.83039e-06 -8.65851e-05
0.000406003 -0.000125417 -0.000120251 -8.4842e-05
-9.44142e-07 -3.43177e-06 1.87539e-06 -8.65869e-05
-9.10872e-07 -3.41244e-06 1.85285e-06 -8.6586e-05
-0.000406066 0.000118244 0.000123352 -8.47951e-05
-0.000402781 0.000117315 0.000122343 -8.47935e-05
0.000401271 -0.000123912 -0.000118868 -8.4839e-05
0.000404426 -0.000124915 -0.00011979 -8.4841e-05
-0.000404424 0.000117779 0.000122848 -8.47943e-05
-8.11851e-07 -3.3549e-06 1.78575e-06 -8.65833e-05
0.000402849 -0.000124413 -0.000119329 -8.484e-05
-8.77733e-07 -3.39318e-06 1.83039e-06 -8.65851e-05
-8.44727e-07 -3.374e-06 1.80803e-06 -8.65842e-05
-0.000402781 0.000117315 0.000122343 -8.47935e-05
-0.000399497 0.000116386 0.000121333 -8.47919e-05
0.000398116 -0.000122909 -0.000117946 -8.4837e-05
0.000401271 -0.000123912 -0.000118868 -8.4839e-05
-0.000401139 0.000116851 0.000121838 -8.47927e-05
-7.46495e-07 -3.31692e-06 1.74146e-06 -8.65814e-05
0.000399694 -0.00012341 -0.000118407 -8.4838e-05
-8.11851e-07 -3.3549e-06 1.78575e-06 -8.65833e-05
-7.79108e-07 -3.33587e-06 1.76356e-06 -8.65823e-05
-0.000399497 0.000116386 0.000121333 -8.47919e-05
-0.000396213 0.000115457 0.000120324 -8.47902e-05
0.00039496 -0.000121906 -0.000117023 -8.4835e-05
0.000398116 -0.000122909 -0.000117946 -8.4837e-05
-0.000397855 0.000115922 0.000120829 -8.47911e-05
-6.81665e-07 -3.27924e-06 1.69753e-06 -8.65796e-05
0.000396538 -0.000122407 -0.000117485 -8.4836e-05
-7.46495e-07 -3.31692e-06 1.74146e-06 -8.65814e-05
-7.14015e-07 -3.29804e-06 1.71945e-06 -8.65805e-05
-0.000396213 0.000115457 0.000120324 -8.47902e-05
-0.00039293 0.000114527 0.000119315 -8.47886e-05
0.000391804 -0.000120904 -0.0001161 -8.4833e-05
0.00039496 -0.000121906 -0.000117023 -8.4835e-05
-0.000394572 0.000114992 0.00011982 -8.47894e-05
-6.17361e-07 -3.24187e-06 1.65396e-06 -8.65777e-05
0.000393382 -0.000121405 -0.000116562 -8.4834e-05
-6.81665e-07 -3.27924e-06 1.69753e-06 -8.65796e-05
-6.49448e-07 -3.26052e-06 1.6757e-06 -8.65786e-05
-0.00039293 0.000114527 0.000119315 -8.47886e-05
-0.000389648 0.000113598 0.000118307 -8.4787e-05
0.000388647 -0.000119901 -0.000115177 -8.4831e-05
0.000391804 -0.000120904 -0.0001161 -8.4833e-05
-0.000391289 0.000114063 0.000118811 -8.47878e-05
-5.53583e-07 -3.20481e-06 1.61074e-06 -8.65758e-05
0.000390225 -0.000120402 -0.000115638 -8.4832e-05
-6.17361e-07 -3.24187e-06 1.65396e-06 -8.65777e-05
-5.85407e-07 -3.2233e-06 1.6323e-06 -8.65768e-05
-0.000389648 0.000113598 0.000118307 -8.4787e-05
-0.000386366 0.000112668 0.000117299 -8.47853e-05
0.00038549 -0.0001189 -0.000114253 -8.4829e-05
0.000388647 -0.000119901 -0.000115177 -8.4831e-05
-0.000388007 0.000113133 0.000117803 -8.47861e-05
-4.90331e-07 -3.16805e-06 1.56788e-06 -8.6574e-05
0.000387068 -0.0001194 -0.000114715 -8.483e-05
-5.53583e-07 -3.20481e-06 1.61074e-06 -8.65758e-05
-5.21892e-07 -3.18639e-06 1.58926e-06 -8.65749e-05
-0.000386366 0.000112668 0.000117299 -8.47853e-05
-0.000383084 0.000111737 0.000116292 -8.47837e-05
0.000382332 -0.000117898 -0.000113329 -8.48269e-05
0.00038549 -0.0001189 -0.000114253 -8.4829e-05
-0.000384725 0.000112202 0.000116795 -8.47845e-05
-4.27606e-07 -3.1316e-06 1.52537e-06 -8.65721e-05
0.000383911 -0.000118399 -0.000113791 -8.4828e-05
-4.90331e-07 -3.16805e-06 1.56788e-06 -8.6574e-05
-4.58903e-07 -3.14978e-06 1.54658e-06 -8.6573e-05
-0.000383084 0.000111737 0.000116292 -8.47837e-05
-0.000379804 0.000110807 0.000115284 -8.4782e-05
0.000379174 -0.000116897 -0.000112405 -8.48249e-05
0.000382332 -0.000117898 -0.000113329 -8.48269e-05
-0.000381444 0.000111272 0.000115788 -8.47829e-05
-3.65406e-07 -3.09545e-06 1.48322e-06 -8.65702e-05
0.000380753 -0.000117397 -0.000112867 -8.48259e-05
-4.27606e-07 -3.1316e-06 1.52537e-06 -8.65721e-05
-3.9644e-07 -3.11348e-06 1.50425e-06 -8.65712e-05
-0.000379804 0.000110807 0.000115284 -8.4782e-05
-0.000376524 0.000109876 0.000114278 -8.47804e-05
0.000376016 -0.000115896 -0.00011148 -8.48229e-05
0.000379174 -0.000116897 -0.000112405 -8.48249e-05
-0.000378164 0.000110341 0.000114781 -8.47812e-05
-3.03732e-07 -3.05961e-06 1.44143e-06 -8.65684e-05
0.000377595 -0.000116396 -0.000111942 -8.48239e-05
-3.65406e-07 -3.09545e-06 1.48322e-06 -8.65702e-05
-3.34504e-07 -3.07749e-06 1.46228e-06 -8.65693e-05
-0.000376524 0.000109876 0.000114278 -8.47804e-05
-0.000373244 0.000108945 0.000113271 -8.47787e-05
0.000372857 -0.000114895 -0.000110555 -8.48209e-05
0.000376016 -0.000115896 -0.00011148 -8.48229e-05
-0.000374884 0.00010941 0.000113774 -8.47796e-05
-2.42585e-07 -3.02407e-06 1.39999e-06 -8.65665e-05
0.000374436 -0.000115396 -0.000111017 -8.48219e-05
-3.03732e-07 -3.05961e-06 1.44143e-06 -8.65684e-05
-2.73093e-07 -3.0418e-06 1.42067e-06 -8.65674e-05
-0.000373244 0.000108945 0.000113271 -8.47787e-05
-0.000369965 0.000108013 0.000112265 -8.47771e-05
0.000369697 -0.000113895 -0.000109629 -8.48189e-05
0.000372857 -0.000114895 -0.000110555 -8.48209e-05
-0.000371604 0.000108479 0.000112768 -8.47779e-05
-1.81963e-07 -2.98884e-06 1.35891e-06 -8.65646e-05
0.000371277 -0.000114395 -0.000110092 -8.48199e-05
-2.42585e-07 -3.02407e-06 1.39999e-06 -8.65665e-05
-2.12209e-07 -3.00642e-06 1.37941e-06 -8.65656e-05
-0.000369965 0.000108013 0.000112265 -8.47771e-05
-0.000366687 0.000107081 0.000111259 -8.47754e-05
0.000366537 -0.000112895 -0.000108704 -8.48169e-05
0.000369697 -0.000113895 -0.000109629 -8.48189e-05
-0.000368326 0.000107547 0.000111762 -8.47762e-05
-1.21868e-07 -2.95391e-06 1.31819e-06 -8.65627e-05
0.000368117 -0.000113395 -0.000109167 -8.48179e-05
-1.81963e-07 -2.98884e-06 1.35891e-06 -8.65646e-05
-1.5185e-07 -2.97134e-06 1.33851e-06 -8.65637e-05
-0.000366687 0.000107081 0.000111259 -8.47754e-05
-0.000363409 0.00010615 0.000110254 -8.47738e-05
0.000363377 -0.000111896 -0.000107778 -8.48149e-05
0.000366537 -0.000112895 -0.000108704 -8.48169e-05
-0.000365048 0.000106616 0.000110757 -8.47746e-05
-6.2298e-08 -2.91929e-06 1.27782e-06 -8.65609e-05
0.000364957 -0.000112396 -0.000108241 -8.48159e-05
-1.21868e-07 -2.95391e-06 1.31819e-06 -8.65627e-05
-9.20174e-08 -2.93656e-06 1.29796e-06 -8.65618e-05
-0.000363409 0.00010615 0.000110254 -8.47738e-05
-0.000360132 0.000105217 0.000109249 -8.47721e-05
0.000360216 -0.000110897 -0.000106851 -8.48128e-05
0.000363377 -0.000111896 -0.000107778 -8.48149e-05
-0.00036177 0.000105683 0.000109751 -8.47729e-05
-3.25432e-09 -2.88498e-06 1.23781e-06 -8.6559e-05
0.000361797 -0.000111396 -0.000107315 -8.48138e-05
-6.2298e-08 -2.91929e-06 1.27782e-06 -8.65609e-05
-3.27108e-08 -2.90209e-06 1.25777e-06 -8.65599e-05
-0.000360132 0.000105217 0.000109249 -8.47721e-05
-0.000356855 0.000104285 0.000108244 -8.47705e-05
0.000357055 -0.000109898 -0.000105925 -8.48108e-05
0.000360216 -0.000110897 -0.000106851 -8.48128e-05
-0.000358493 0.000104751 0.000108747 -8.47713e-05
5.52634e-08 -2.85097e-06 1.19816e-06 -8.65571e-05
0.000358636 -0.000110397 -0.000106388 -8.48118e-05
-3.25431e-09 -2.88498e-06 1.23781e-06 -8.6559e-05
2.60699e-08 -2.86793e-06 1.21794e-06 -8.65581e-05
-0.000356855 0.000104285 0.000108244 -8.47705e-05
-0.000353579 0.000103352 0.00010724 -8.47688e-05
0.000353894 -0.000108899 -0.000104998 -8.48088e-05
0.000357055 -0.000109898 -0.000105925 -8.48108e-05
-0.000355217 0.000103818 0.000107742 -8.47696e-05
1.13255e-07 -2.81726e-06 1.15886e-06 -8.65553e-05
0.000355474 -0.000109398 -0.000105461 -8.48098e-05
5.52634e-08 -2.85097e-06 1.19816e-06 -8.65571e-05
8.43247e-08 -2.83408e-06 1.17846e-06 -8.65562e-05
-0.000353579 0.000103352 0.00010724 -8.47688e-05
-0.000350303 0.000102419 0.000106236 -8.47672e-05
0.000350731 -0.000107901 -0.00010407 -8.48068e-05
0.000353894 -0.000108899 -0.000104998 -8.48088e-05
-0.000351941 0.000102885 0.000106738 -8.4768e-05
1.70721e-07 -2.78386e-06 1.11992e-06 -8.65534e-05
0.000352313 -0.0001084 -0.000104534 -8.48078e-05
1.13255e-07 -2.81726e-06 1.15886e-06 -8.65553e-05
1.42054e-07 -2.80052e-06 1.13934e-06 -8.65543e-05
-0.000350303 0.000102419 0.000106236 -8.47672e-05
-0.000347029 0.000101485 0.000105233 -8.47655e-05
0.000347569 -0.000106903 -0.000103143 -8.48048e-05
0.000350731 -0.000107901 -0.00010407 -8.48068e-05
-0.000348666 0.000101952 0.000105734 -8.47663e-05
2.27661e-07 -2.75077e-06 1.08133e-06 -8.65515e-05
0.00034915 -0.000107402 -0.000103607 -8.48058e-05
1.70721e-07 -2.78386e-06 1.11992e-06 -8.65534e-05
1.99257e-07 -2.76728e-06 1.10058e-06 -8.65525e-05
-0.000347029 0.000101485 0.000105233 -8.47655e-05
-0.000343754 0.000100552 0.00010423 -8.47639e-05
0.000344406 -0.000105905 -0.000102215 -8.48028e-05
0.000347569 -0.000106903 -0.000103143 -8.48048e-05
-0.000345391 0.000101019 0.000104731 -8.47647e-05
2.84075e-07 -2.71798e-06 1.0431e-06 -8.65497e-05
0.000345987 -0.000106404 -0.000102679 -8.48038e-05
2.27661e-07 -2.75077e-06 1.08133e-06 -8.65515e-05
2.55934e-07 -2.73434e-06 1.06217e-06 -8.65506e-05
-0.000343754 0.000100552 0.00010423 -8.47639e-05
-0.000340481 9.96179e-05 0.000103227 -8.47622e-05
0.000341242 -0.000104908 -0.000101286 -8.48008e-05
0.000344406 -0.000105905 -0.000102215 -8.48028e-05
-0.000342117 0.000100085 0.000103728 -8.47631e-05
3.39964e-07 -2.6855e-06 1.00523e-06 -8.65478e-05
0.000342824 -0.000105406 -0.000101751 -8.48018e-05
2.84075e-07 -2.71798e-06 1.0431e-06 -8.65497e-05
3.12085e-07 -2.7017e-06 1.02412e-06 -8.65487e-05
-0.000340481 9.96179e-05 0.000103227 -8.47622e-05
-0.000337208 9.86837e-05 0.000102225 -8.47606e-05
0.000338079 -0.000103911 -0.000100358 -8.47988e-05
0.000341242 -0.000104908 -0.000101286 -8.48008e-05
-0.000338844 9.91509e-05 0.000102726 -8.47614e-05
3.95326e-07 -2.65332e-06 9.67711e-07 -8.65459e-05
0.000339661 -0.000104409 -0.000100822 -8.47998e-05
3.39964e-07 -2.6855e-06 1.00523e-06 -8.65478e-05
3.6771e-07 -2.66937e-06 9.86426e-07 -8.65469e-05
-0.000337208 9.86837e-05 0.000102225 -8.47606e-05
-0.000333935 9.77493e-05 0.000101223 -8.4759e-05
0.000334914 -0.000102914 -9.94287e-05 -8.47968e-05
0.000338079 -0.000103911 -0.000100358 -8.47988e-05
-0.000335571 9.82165e-05 0.000101723 -8.47598e-05
4.50163e-07 -2.62145e-06 9.3055e-07 -8.65441e-05
0.000336496 -0.000103412 -9.98932e-05 -8.47978e-05
3.95326e-07 -2.65332e-06 9.67711e-07 -8.65459e-05
4.2281e-07 -2.63734e-06 9.49086e-07 -8.6545e-05
-0.000333935 9.77493e-05 0.000101223 -8.4759e-05
-0.000330663 9.68145e-05 0.000100221 -8.47573e-05
0.000331749 -0.000101918 -9.84994e-05 -8.47948e-05
0.000334914 -0.000102914 -9.94287e-05 -8.47968e-05
-0.000332299 9.72819e-05 0.000100722 -8.47582e-05
5.04474e-07 -2.58988e-06 8.93746e-07 -8.65422e-05
0.000333332 -0.000102416 -9.89641e-05 -8.47958e-05
4.50163e-07 -2.62145e-06 9.3055e-07 -8.65441e-05
4.77384e-07 -2.60563e-06 9.12104e-07 -8.65432e-05
-0.000330663 9.68145e-05 0.000100221 -8.47573e-05
-0.000327392 9.58795e-05 9.92196e-05 -8.47557e-05
0.000328584 -0.000100922 -9.75697e-05 -8.47928e-05
0.000331749 -0.000101918 -9.84994e-05 -8.47948e-05
-0.000329027 9.6347e-05 9.97202e-05 -8.47565e-05
5.58259e-07 -2.55862e-06 8.57297e-07 -8.65404e-05
0.000330167 -0.00010142 -9.80346e-05 -8.47938e-05
5.04474e-07 -2.58988e-06 8.93746e-07 -8.65422e-05
5.31432e-07 -2.57421e-06 8.75477e-07 -8.65413e-05
-0.000327392 9.58795e-05 9.92196e-05 -8.47557e-05
-0.000324121 9.49442e-05 9.82187e-05 -8.47541e-05
0.000325419 -9.99258e-05 -9.66397e-05 -8.47908e-05
0.000328584 -0.000100922 -9.75697e-05 -8.47928e-05
-0.000325756 9.54119e-05 9.87191e-05 -8.47549e-05
6.11518e-07 -2.52766e-06 8.21205e-07 -8.65386e-05
0.000327001 -0.000100424 -9.71048e-05 -8.47918e-05
5.58259e-07 -2.55862e-06 8.57297e-07 -8.65404e-05
5.84954e-07 -2.5431e-06 8.39206e-07 -8.65395e-05
-0.000324121 9.49442e-05 9.82187e-05 -8.47541e-05
-0.000320851 9.40086e-05 9.72182e-05 -8.47525e-05
0.000322252 -9.89304e-05 -9.57094e-05 -8.47888e-05
0.000325419 -9.99258e-05 -9.66397e-05 -8.47908e-05
-0.000322486 9.44764e-05 9.77184e-05 -8.47533e-05
6.64252e-07 -2.49701e-06 7.85468e-07 -8.65367e-05
0.000323836 -9.94281e-05 -9.61746e-05 -8.47898e-05
6.11518e-07 -2.52766e-06 8.21205e-07 -8.65386e-05
6.3795e-07 -2.5123e-06 8.03292e-07 -8.65376e-05
-0.000320851 9.40086e-05 9.72182e-05 -8.47525e-05
-0.000317581 9.30728e-05 9.6218e-05 -8.47509e-05
0.000319086 -9.79353e-05 -9.47788e-05 -8.47869e-05
0.000322252 -9.89304e-05 -9.57094e-05 -8.47888e-05
-0.000319216 9.35407e-05 9.6718e-05 -8.47517e-05
7.1646e-07 -2.46667e-06 7.50088e-07 -8.65349e-05
0.000320669 -9.84328e-05 -9.52441e-05 -8.47878e-05
6.64252e-07 -2.49701e-06 7.85468e-07 -8.65367e-05
6.90421e-07 -2.4818e-06 7.67734e-07 -8.65358e-05
-0.000317581 9.30728e-05 9.6218e-05 -8.47509e-05
-0.000314312 9.21366e-05 9.52182e-05 -8.47493e-05
0.000315919 -9.69405e-05 -9.38478e-05 -8.47849e-05
0.000319086 -9.79353e-05 -9.47788e-05 -8.47869e-05
-0.000315947 9.26047e-05 9.57181e-05 -8.47501e-05
7.68142e-07 -2.43663e-06 7.15065e-07 -8.65331e-05
0.000317502 -9.74379e-05 -9.43133e-05 -8.47859e-05
7.1646e-07 -2.46667e-06 7.50088e-07 -8.65349e-05
7.42366e-07 -2.45161e-06 7.32532e-07 -8.6534e-05
-0.000314312 9.21366e-05 9.52182e-05 -8.47493e-05
-0.000311044 9.12002e-05 9.42188e-05 -8.47477e-05
0.000312751 -9.5946e-05 -9.29165e-05 -8.47829e-05
0.000315919 -9.69405e-05 -9.38478e-05 -8.47849e-05
-0.000312678 9.16685e-05 9.47184e-05 -8.47485e-05
8.19298e-07 -2.40689e-06 6.80397e-07 -8.65313e-05
0.000314335 -9.64432e-05 -9.33822e-05 -8.47839e-05
7.68142e-07 -2.43663e-06 7.15065e-07 -8.65331e-05
7.93785e-07 -2.42172e-06 6.97686e-07 -8.65322e-05
-0.000311044 9.12002e-05 9.42188e-05 -8.47477e-05
-0.000307776 9.02635e-05 9.32197e-05 -8.47461e-05
0.000309583 -9.49519e-05 -9.19849e-05 -8.4781e-05
0.000312751 -9.5946e-05 -9.29165e-05 -8.47829e-05
-0.00030941 9.07319e-05 9.37192e-05 -8.47469e-05
8.69929e-07 -2.37746e-06 6.46085e-07 -8.65295e-05
0.000311167 -9.54489e-05 -9.24508e-05 -8.4782e-05
8.19298e-07 -2.40689e-06 6.80397e-07 -8.65313e-05
8.44679e-07 -2.39214e-06 6.63197e-07 -8.65304e-05
-0.000307776 9.02635e-05 9.32197e-05 -8.47461e-05
-0.000304509 8.93266e-05 9.22211e-05 -8.47445e-05
0.000306415 -9.39581e-05 -9.10529e-05 -8.4779e-05
0.000309583 -9.49519e-05 -9.19849e-05 -8.4781e-05
-0.000306143 8.97951e-05 9.27203e-05 -8.47453e-05
9.20034e-07 -2.34834e-06 6.1213e-07 -8.65277e-05
0.000307999 -9.44549e-05 -9.1519e-05 -8.478e-05
8.69929e-07 -2.37746e-06 6.46085e-07 -8.65295e-05
8.95047e-07 -2.36286e-06 6.29063e-07 -8.65286e-05
-0.000304509 8.93266e-05 9.22211e-05 -8.47445e-05
-0.000301242 8.83893e-05 9.12227e-05 -8.47429e-05
0.000303246 -9.29646e-05 -9.01207e-05 -8.47771e-05
0.000306415 -9.39581e-05 -9.10529e-05 -8.4779e-05
-0.000302876 8.8858e-05 9.17219e-05 -8.47437e-05
9.69614e-07 -2.31952e-06 5.7853e-07 -8.65259e-05
0.000304831 -9.34613e-05 -9.05868e-05 -8.47781e-05
9.20034e-07 -2.34834e-06 6.1213e-07 -8.65277e-05
9.4489e-07 -2.33389e-06 5.95286e-07 -8.65268e-05
-0.000301242 8.83893e-05 9.12227e-05 -8.47429e-05
-0.000297976 8.74518e-05 9.02248e-05 -8.47414e-05
0.000300077 -9.19714e-05 -8.9188e-05 -8.47752e-05
0.000303246 -9.29646e-05 -9.01207e-05 -8.47771e-05
-0.000299609 8.79206e-05 9.07237e-05 -8.47422e-05
1.01867e-06 -2.291e-06 5.45287e-07 -8.65241e-05
0.000301661 -9.24679e-05 -8.96544e-05 -8.47761e-05
9.69614e-07 -2.31952e-06 5.7853e-07 -8.65259e-05
9.94206e-07 -2.30522e-06 5.61864e-07 -8.6525e-05
-0.000297976 8.74518e-05 9.02248e-05 -8.47414e-05
-0.000294711 8.6514e-05 8.92272e-05 -8.47398e-05
0.000296907 -9.09785e-05 -8.82551e-05 -8.47732e-05
0.000300077 -9.19714e-05 -8.9188e-05 -8.47752e-05
-0.000296344 8.69829e-05 8.9726e-05 -8.47406e-05
1.0672e-06 -2.2628e-06 5.124e-07 -8.65223e-05
0.000298492 -9.14749e-05 -8.87216e-05 -8.47742e-05
1.01867e-06 -2.291e-06 5.45287e-07 -8.65241e-05
1.043e-06 -2.27686e-06 5.28799e-07 -8.65232e-05
-0.000294711 8.6514e-05 8.92272e-05 -8.47398e-05
-0.000291446 8.55759e-05 8.823e-05 -8.47383e-05
0.000293737 -8.99859e-05 -8.73218e-05 -8.47713e-05
0.000296907 -9.09785e-05 -8.82551e-05 -8.47732e-05
-0.000293078 8.6045e-05 8.87286e-05 -8.4739e-05
1.1152e-06 -2.23489e-06 4.79869e-07 -8.65205e-05
0.000295322 -9.04822e-05 -8.77885e-05 -8.47723e-05
1.0672e-06 -2.2628e-06 5.124e-07 -8.65223e-05
1.09126e-06 -2.24881e-06 4.9609e-07 -8.65214e-05
-0.000291446 8.55759e-05 8.823e-05 -8.47383e-05
-0.000288182 8.46376e-05 8.72332e-05 -8.47367e-05
0.000290566 -8.89937e-05 -8.63882e-05 -8.47694e-05
0.000293737 -8.99859e-05 -8.73218e-05 -8.47713e-05
-0.000289814 8.51068e-05 8.77316e-05 -8.47375e-05
1.16268e-06 -2.2073e-06 4.47694e-07 -8.65188e-05
0.000292152 -8.94898e-05 -8.68551e-05 -8.47704e-05
1.1152e-06 -2.23489e-06 4.79869e-07 -8.65205e-05
1.139e-06 -2.22106e-06 4.63737e-07 -8.65196e-05
-0.000288182 8.46376e-05 8.72332e-05 -8.47367e-05
-0.000284918 8.3699e-05 8.62367e-05 -8.47352e-05
0.000287395 -8.80018e-05 -8.54543e-05 -8.47675e-05
0.000290566 -8.89937e-05 -8.63882e-05 -8.47694e-05
-0.00028655 8.41683e-05 8.67349e-05 -8.4736e-05
1.20963e-06 -2.18e-06 4.15875e-07 -8.6517e-05
0.000288981 -8.84977e-05 -8.59213e-05 -8.47685e-05
1.16268e-06 -2.2073e-06 4.47694e-07 -8.65188e-05
1.18622e-06 -2.19361e-06 4.3174e-07 -8.65179e-05
-0.000284918 8.3699e-05 8.62367e-05 -8.47352e-05
-0.000281655 8.276e-05 8.52406e-05 -8.47337e-05
0.000284224 -8.70102e-05 -8.452e-05 -8.47656e-05
0.000287395 -8.80018e-05 -8.54543e-05 -8.47675e-05
-0.000283286 8.32295e-05 8.57386e-05 -8.47344e-05
1.25606e-06 -2.15302e-06 3.84412e-07 -8.65153e-05
0.000285809 -8.7506e-05 -8.49872e-05 -8.47666e-05
1.20963e-06 -2.18e-06 4.15875e-07 -8.6517e-05
1.23291e-06 -2.16647e-06 4.00099e-07 -8.65161e-05
-0.000281655 8.276e-05 8.52406e-05 -8.47337e-05
-0.000278392 8.18209e-05 8.42449e-05 -8.47322e-05
0.000281052 -8.60189e-05 -8.35854e-05 -8.47638e-05
0.000284224 -8.70102e-05 -8.452e-05 -8.47656e-05
-0.000280024 8.22905e-05 8.47427e-05 -8.47329e-05
1.30196e-06 -2.12633e-06 3.53305e-07 -8.65135e-05
0.000282638 -8.65145e-05 -8.40528e-05 -8.47647e-05
1.25606e-06 -2.15302e-06 3.84412e-07 -8.65153e-05
1.27907e-06 -2.13964e-06 3.68814e-07 -8.65144e-05
-0.000278392 8.18209e-05 8.42449e-05 -8.47322e-05
-0.00027513 8.08814e-05 8.32496e-05 -8.47306e-05
0.000277879 -8.50279e-05 -8.26505e-05 -8.47619e-05
0.000281052 -8.60189e-05 -8.35854e-05 -8.47638e-05
-0.000276761 8.13512e-05 8.37472e-05 -8.47314e-05
1.34733e-06 -2.09996e-06 3.22554e-07 -8.65118e-05
0.000279465 -8.55234e-05 -8.3118e-05 -8.47628e-05
1.30196e-06 -2.12633e-06 3.53305e-07 -8.65135e-05
1.32471e-06 -2.11311e-06 3.37885e-07 -8.65127e-05
-0.00027513 8.08814e-05 8.32496e-05 -8.47306e-05
-0.000271869 7.99417e-05 8.22546e-05 -8.47292e-05
0.000274706 -8.40373e-05 -8.17152e-05 -8.476e-05
0.000277879 -8.50279e-05 -8.26505e-05 -8.47619e-05
-0.0002735 8.04116e-05 8.2752e-05 -8.47299e-05
1.39218e-06 -2.07389e-06 2.92159e-07 -8.65101e-05
0.000276293 -8.45326e-05 -8.21829e-05 -8.4761e-05
1.34733e-06 -2.09996e-06 3.22554e-07 -8.65118e-05
1.36982e-06 -2.08688e-06 3.07312e-07 -8.6511e-05
-0.000271869 7.99417e-05 8.22546e-05 -8.47292e-05
-0.000268608 7.90016e-05 8.12599e-05 -8.47277e-05
0.000271533 -8.3047e-05 -8.07796e-05 -8.47582e-05
0.000274706 -8.40373e-05 -8.17152e-05 -8.476e-05
-0.000270239 7.94717e-05 8.17572e-05 -8.47284e-05
1.43651e-06 -2.04812e-06 2.6212e-07 -8.65084e-05
0.00027312 -8.35421e-05 -8.12475e-05 -8.47591e-05
1.39218e-06 -2.07389e-06 2.92159e-07 -8.65101e-05
1.41441e-06 -2.06097e-06 2.77095e-07 -8.65093e-05
-0.000268608 7.90016e-05 8.12599e-05 -8.47277e-05
-0.000265348 7.80613e-05 8.02657e-05 -8.47262e-05
0.000268359 -8.2057e-05 -7.98437e-05 -8.47564e-05
0.000271533 -8.3047e-05 -8.07796e-05 -8.47582e-05
-0.000266978 7.85315e-05 8.07628e-05 -8.47269e-05
1.48031e-06 -2.02266e-06 2.32437e-07 -8.65067e-05
0.000269946 -8.25519e-05 -8.03117e-05 -8.47573e-05
1.43651e-06 -2.04812e-06 2.6212e-07 -8.65084e-05
1.45847e-06 -2.03535e-06 2.47234e-07 -8.65076e-05
-0.000265348 7.80613e-05 8.02657e-05 -8.47262e-05
-0.000262088 7.71208e-05 7.92718e-05 -8.47247e-05
0.000265185 -8.10673e-05 -7.89075e-05 -8.47545e-05
0.000268359 -8.2057e-05 -7.98437e-05 -8.47564e-05
-0.000263718 7.75911e-05 7.97687e-05 -8.47255e-05
1.52358e-06 -1.9975e-06 2.0311e-07 -8.65051e-05
0.000266772 -8.15621e-05 -7.93756e-05 -8.47554e-05
1.48031e-06 -2.02266e-06 2.32437e-07 -8.65067e-05
1.50201e-06 -2.01004e-06 2.17729e-07 -8.65059e-05
-0.000262088 7.71208e-05 7.92718e-05 -8.47247e-05
-0.000258829 7.61799e-05 7.82783e-05 -8.47233e-05
0.00026201 -8.00779e-05 -7.79709e-05 -8.47527e-05
0.000265185 -8.10673e-05 -7.89075e-05 -8.47545e-05
-0.000260459 7.66504e-05 7.8775e-05 -8.4724e-05
1.56633e-06 -1.97265e-06 1.74139e-07 -8.65034e-05
0.000263597 -8.05725e-05 -7.84392e-05 -8.47536e-05
1.52358e-06 -1.9975e-06 2.0311e-07 -8.65051e-05
1.54502e-06 -1.98504e-06 1.8858e-07 -8.65042e-05
-0.000258829 7.61799e-05 7.82783e-05 -8.47233e-05
-0.000255571 7.52388e-05 7.72852e-05 -8.47219e-05
0.000258835 -7.90888e-05 -7.7034e-05 -8.47509e-05
0.00026201 -8.00779e-05 -7.79709e-05 -8.47527e-05
-0.0002572 7.57094e-05 7.77817e-05 -8.47226e-05
1.60855e-06 -1.94811e-06 1.45523e-07 -8.65017e-05
0.000260422 -7.95833e-05 -7.75025e-05 -8.47518e-05
1.56633e-06 -1.97265e-06 1.74139e-07 -8.65034e-05
1.58751e-06 -1.96034e-06 1.59787e-07 -8.65026e-05
-0.000255571 7.52388e-05 7.72852e-05 -8.47219e-05
-0.000252313 7.42974e-05 7.62924e-05 -8.47204e-05
0.000255659 -7.81001e-05 -7.60967e-05 -8.47491e-05
0.000258835 -7.90888e-05 -7.7034e-05 -8.47509e-05
-0.000253942 7.47681e-05 7.67887e-05 -8.47211e-05
1.65025e-06 -1.92387e-06 1.17264e-07 -8.65001e-05
0.000257247 -7.85944e-05 -7.65654e-05 -8.475e-05
1.60855e-06 -1.94811e-06 1.45523e-07 -8.65017e-05
1.62947e-06 -1.93595e-06 1.31349e-07 -8.65009e-05
-0.000252313 7.42974e-05 7.62924e-05 -8.47204e-05
-0.000249056 7.33557e-05 7.53e-05 -8.4719e-05
0.000252483 -7.71117e-05 -7.51591e-05 -8.47474e-05
0.000255659 -7.81001e-05 -7.60967e-05 -8.47491e-05
-0.000250684 7.38265e-05 7.57961e-05 -8.47197e-05
1.69142e-06 -1.89993e-06 8.93608e-08 -8.64985e-05
0.000254071 -7.76058e-05 -7.5628e-05 -8.47482e-05
1.65025e-06 -1.92387e-06 1.17264e-07 -8.65001e-05
1.6709e-06 -1.91186e-06 1.03268e-07 -8.64993e-05
-0.000249056 7.33557e-05 7.53e-05 -8.4719e-05
-0.000245799 7.24137e-05 7.43079e-05 -8.47176e-05
0.000249306 -7.61235e-05 -7.42212e-05 -8.47456e-05
0.000252483 -7.71117e-05 -7.51591e-05 -8.47474e-05
-0.000247427 7.28847e-05 7.48039e-05 -8.47183e-05
1.73207e-06 -1.8763e-06 6.18132e-08 -8.64969e-05
0.000250895 -7.66176e-05 -7.46902e-05 -8.47465e-05
1.69142e-06 -1.89993e-06 8.93608e-08 -8.64985e-05
1.71181e-06 -1.88808e-06 7.55426e-08 -8.64977e-05
-0.000245799 7.24137e-05 7.43079e-05 -8.47176e-05
-0.000242543 7.14714e-05 7.33163e-05 -8.47162e-05
0.000246129 -7.51358e-05 -7.3283e-05 -8.47438e-05
0.000249306 -7.61235e-05 -7.42212e-05 -8.47456e-05
-0.000244171 7.19426e-05 7.3812e-05 -8.47169e-05
1.7722e-06 -1.85298e-06 3.46216e-08 -8.64953e-05
0.000247718 -7.56296e-05 -7.37522e-05 -8.47447e-05
1.73207e-06 -1.8763e-06 6.18132e-08 -8.64969e-05
1.7522e-06 -1.8646e-06 4.8173e-08 -8.64961e-05
-0.000242543 7.14714e-05 7.33163e-05 -8.47162e-05
-0.000239287 7.05289e-05 7.23249e-05 -8.47149e-05
0.000242952 -7.41483e-05 -7.23444e-05 -8.47421e-05
0.000246129 -7.51358e-05 -7.3283e-05 -8.47438e-05
-0.000240915 7.10002e-05 7.28206e-05 -8.47156e-05
1.81179e-06 -1.82996e-06 7.78581e-09 -8.64937e-05
0.000244541 -7.4642e-05 -7.28138e-05 -8.4743e-05
1.7722e-06 -1.85298e-06 3.46216e-08 -8.64953e-05
1.79206e-06 -1.84143e-06 2.11593e-08 -8.64945e-05
-0.000239287 7.05289e-05 7.23249e-05 -8.47149e-05
-0.000236032 6.95861e-05 7.1334e-05 -8.47135e-05
0.000239774 -7.31611e-05 -7.14055e-05 -8.47404e-05
0.000242952 -7.41483e-05 -7.23444e-05 -8.47421e-05
-0.00023766 7.00575e-05 7.18294e-05 -8.47142e-05
1.85087e-06 -1.80725e-06 -1.86941e-08 -8.64921e-05
0.000241363 -7.36547e-05 -7.1875e-05 -8.47412e-05
1.81179e-06 -1.82996e-06 7.78581e-09 -8.64937e-05
1.83139e-06 -1.81856e-06 -5.49854e-09 -8.64929e-05
-0.000236032 6.95861e-05 7.1334e-05 -8.47135e-05
-0.000232778 6.8643e-05 7.03434e-05 -8.47122e-05
0.000236596 -7.21743e-05 -7.04663e-05 -8.47387e-05
0.000239774 -7.31611e-05 -7.14055e-05 -8.47404e-05
-0.000234405 6.91146e-05 7.08387e-05 -8.47128e-05
1.88941e-06 -1.78484e-06 -4.48182e-08 -8.64905e-05
0.000238185 -7.26677e-05 -7.09359e-05 -8.47395e-05
1.85087e-06 -1.80725e-06 -1.86941e-08 -8.64921e-05
1.8702e-06 -1.796e-06 -3.18006e-08 -8.64913e-05
-0.000232778 6.8643e-05 7.03434e-05 -8.47122e-05
-0.000229524 6.76996e-05 6.93532e-05 -8.47108e-05
0.000233417 -7.11877e-05 -6.95267e-05 -8.4737e-05
0.000236596 -7.21743e-05 -7.04663e-05 -8.47387e-05
-0.000231151 6.81714e-05 6.98483e-05 -8.47115e-05
1.92743e-06 -1.76273e-06 -7.05865e-08 -8.6489e-05
0.000235006 -7.1681e-05 -6.99965e-05 -8.47378e-05
1.88941e-06 -1.78484e-06 -4.48182e-08 -8.64905e-05
1.90849e-06 -1.77375e-06 -5.77468e-08 -8.64898e-05
-0.000229524 6.76996e-05 6.93532e-05 -8.47108e-05
-0.000226271 6.6756e-05 6.83634e-05 -8.47095e-05
0.000230237 -7.02015e-05 -6.85868e-05 -8.47353e-05
0.000233417 -7.11877e-05 -6.95267e-05 -8.4737e-05
-0.000227897 6.72278e-05 6.88583e-05 -8.47102e-05
1.96493e-06 -1.74093e-06 -9.5999e-08 -8.64875e-05
0.000231827 -7.06946e-05 -6.90568e-05 -8.47361e-05
1.92743e-06 -1.76273e-06 -7.05865e-08 -8.6489e-05
1.94625e-06 -1.7518e-06 -8.33372e-08 -8.64882e-05
-0.000226271 6.6756e-05 6.83634e-05 -8.47095e-05
-0.000223018 6.5812e-05 6.73739e-05 -8.47082e-05
0.000227058 -6.92156e-05 -6.76466e-05 -8.47336e-05
0.000230237 -7.02015e-05 -6.85868e-05 -8.47353e-05
-0.000224644 6.6284e-05 6.78686e-05 -8.47089e-05
2.0019e-06 -1.71944e-06 -1.21056e-07 -8.6486e-05
0.000228648 -6.97085e-05 -6.81167e-05 -8.47345e-05
1.96493e-06 -1.74093e-06 -9.5999e-08 -8.64875e-05
1.98348e-06 -1.73015e-06 -1.08572e-07 -8.64867e-05
-0.000223018 6.5812e-05 6.73739e-05 -8.47082e-05
-0.000219766 6.48678e-05 6.63848e-05 -8.47069e-05
0.000223877 -6.823e-05 -6.6706e-05 -8.4732e-05
0.000227058 -6.92156e-05 -6.76466e-05 -8.47336e-05
-0.000221392 6.534e-05 6.68793e-05 -8.47076e-05
2.03835e-06 -1.69825e-06 -1.45757e-07 -8.64845e-05
0.000225468 -6.87228e-05 -6.71763e-05 -8.47328e-05
2.0019e-06 -1.71944e-06 -1.21056e-07 -8.6486e-05
2.02019e-06 -1.70881e-06 -1.33451e-07 -8.64852e-05
-0.000219766 6.48678e-05 6.63848e-05 -8.47069e-05
-0.000216514 6.39233e-05 6.53961e-05 -8.47057e-05
0.000220697 -6.72448e-05 -6.57651e-05 -8.47304e-05
0.000223877 -6.823e-05 -6.6706e-05 -8.4732e-05
-0.00021814 6.43956e-05 6.58904e-05 -8.47063e-05
2.07427e-06 -1.67737e-06 -1.70102e-07 -8.6483e-05
0.000222287 -6.77374e-05 -6.62356e-05 -8.47312e-05
2.03835e-06 -1.69825e-06 -1.45757e-07 -8.64845e-05
2.05638e-06 -1.68777e-06 -1.57974e-07 -8.64837e-05
-0.000216514 6.39233e-05 6.53961e-05 -8.47057e-05
-0.000213263 6.29786e-05 6.44077e-05 -8.47044e-05
0.000217516 -6.62598e-05 -6.48239e-05 -8.47287e-05
0.000220697 -6.72448e-05 -6.57651e-05 -8.47304e-05
-0.000214889 6.3451e-05 6.49018e-05 -8.4705e-05
2.10967e-06 -1.65679e-06 -1.94091e-07 -8.64815e-05
0.000219106 -6.67523e-05 -6.52945e-05 -8.47296e-05
2.07427e-06 -1.67737e-06 -1.70102e-07 -8.6483e-05
2.09204e-06 -1.66704e-06 -1.82141e-07 -8.64823e-05
-0.000213263 6.29786e-05 6.44077e-05 -8.47044e-05
-0.000210013 6.20335e-05 6.34197e-05 -8.47032e-05
0.000214334 -6.52752e-05 -6.38823e-05 -8.47271e-05
0.000217516 -6.62598e-05 -6.48239e-05 -8.47287e-05
-0.000211638 6.25061e-05 6.39136e-05 -8.47038e-05
2.14454e-06 -1.63652e-06 -2.17725e-07 -8.64801e-05
0.000215925 -6.57675e-05 -6.43531e-05 -8.47279e-05
2.10967e-06 -1.65679e-06 -1.94091e-07 -8.64815e-05
2.12717e-06 -1.64662e-06 -2.05952e-07 -8.64808e-05
-0.000210013 6.20335e-05 6.34197e-05 -8.47032e-05
-0.000206763 6.10882e-05 6.2432e-05 -8.4702e-05
0.000211152 -6.42908e-05 -6.29404e-05 -8.47256e-05
0.000214334 -6.52752e-05 -6.38823e-05 -8.47271e-05
-0.000208388 6.15609e-05 6.29258e-05 -8.47026e-05
2.17889e-06 -1.61655e-06 -2.41003e-07 -8.64786e-05
0.000212743 -6.4783e-05 -6.34114e-05 -8.47264e-05
2.14454e-06 -1.63652e-06 -2.17725e-07 -8.64801e-05
2.16178e-06 -1.62649e-06 -2.29408e-07 -8.64794e-05
-0.000206763 6.10882e-05 6.2432e-05 -8.4702e-05
-0.000203514 6.01426e-05 6.14448e-05 -8.47008e-05
0.000207969 -6.33068e-05 -6.19982e-05 -8.4724e-05
0.000211152 -6.42908e-05 -6.29404e-05 -8.47256e-05
-0.000205138 6.06154e-05 6.19384e-05 -8.47014e-05
2.21271e-06 -1.59689e-06 -2.63925e-07 -8.64772e-05
0.000209561 -6.37988e-05 -6.24693e-05 -8.47248e-05
2.17889e-06 -1.61655e-06 -2.41003e-07 -8.64786e-05
2.19587e-06 -1.60668e-06 -2.52508e-07 -8.64779e-05
-0.000203514 6.01426e-05 6.14448e-05 -8.47008e-05
-0.000200265 5.91966e-05 6.04579e-05 -8.46996e-05
0.000204786 -6.23231e-05 -6.10556e-05 -8.47224e-05
0.000207969 -6.33068e-05 -6.19982e-05 -8.4724e-05
-0.000201889 5.96696e-05 6.09513e-05 -8.47002e-05
2.24601e-06 -1.57753e-06 -2.86492e-07 -8.64758e-05
0.000206378 -6.28149e-05 -6.15269e-05 -8.47232e-05
2.21271e-06 -1.59689e-06 -2.63925e-07 -8.64772e-05
2.22943e-06 -1.58717e-06 -2.75253e-07 -8.64765e-05
-0.000200265 5.91966e-05 6.04579e-05 -8.46996e-05
-0.000197017 5.82505e-05 5.94713e-05 -8.46984e-05
0.000201603 -6.13398e-05 -6.01127e-05 -8.47209e-05
0.000204786 -6.23231e-05 -6.10556e-05 -8.47224e-05
-0.000198641 5.87236e-05 5.99645e-05 -8.4699e-05
2.27878e-06 -1.55848e-06 -3.08703e-07 -8.64744e-05
0.000203195 -6.18314e-05 -6.05842e-05 -8.47217e-05
2.24601e-06 -1.57753e-06 -2.86492e-07 -8.64758e-05
2.26246e-06 -1.56796e-06 -2.97642e-07 -8.64751e-05
-0.000197017 5.82505e-05 5.94713e-05 -8.46984e-05
-0.000193769 5.7304e-05 5.84851e-05 -8.46972e-05
0.000198419 -6.03567e-05 -5.91695e-05 -8.47194e-05
0.000201603 -6.13398e-05 -6.01127e-05 -8.47209e-05
-0.000195393 5.77773e-05 5.89782e-05 -8.46978e-05
2.31103e-06 -1.53973e-06 -3.30558e-07 -8.64731e-05
0.000200011 -6.08482e-05 -5.96411e-05 -8.47201e-05
2.27878e-06 -1.55848e-06 -3.08703e-07 -8.64744e-05
2.29497e-06 -1.54906e-06 -3.19675e-07 -8.64738e-05
-0.000193769 5.7304e-05 5.84851e-05 -8.46972e-05
-0.000190522 5.63573e-05 5.74993e-05 -8.46961e-05
0.000195234 -5.93739e-05 -5.82259e-05 -8.47179e-05
0.000198419 -6.03567e-05 -5.91695e-05 -8.47194e-05
-0.000192146 5.68307e-05 5.79922e-05 -8.46967e-05
2.34275e-06 -1.52128e-06 -3.52057e-07 -8.64717e-05
0.000196827 -5.98653e-05 -5.86977e-05 -8.47186e-05
2.31103e-06 -1.53973e-06 -3.30558e-07 -8.64731e-05
2.32696e-06 -1.53047e-06 -3.41352e-07 -8.64724e-05
-0.000190522 5.63573e-05 5.74993e-05 -8.46961e-05
-0.000187276 5.54102e-05 5.65139e-05 -8.4695e-05
0.000192049 -5.83915e-05 -5.7282e-05 -8.47164e-05
0.000195234 -5.93739e-05 -5.82259e-05 -8.47179e-05
-0.000188899 5.58838e-05 5.70065e-05 -8.46955e-05
2.37395e-06 -1.50315e-06 -3.73201e-07 -8.64704e-05
0.000193642 -5.88827e-05 -5.7754e-05 -8.47171e-05
2.34275e-06 -1.52128e-06 -3.52057e-07 -8.64717e-05
2.35842e-06 -1.51218e-06 -3.62674e-07 -8.64711e-05
-0.000187276 5.54102e-05 5.65139e-05 -8.4695e-05
-0.00018403 5.44629e-05 5.55288e-05 -8.46939e-05
0.000188864 -5.74094e-05 -5.63378e-05 -8.47149e-05
0.000192049 -5.83915e-05 -5.7282e-05 -8.47164e-05
-0.000185653 5.49366e-05 5.60213e-05 -8.46944e-05
2.40462e-06 -1.48531e-06 -3.93989e-07 -8.64691e-05
0.000190457 -5.79004e-05 -5.68099e-05 -8.47157e-05
2.37395e-06 -1.50315e-06 -3.73201e-07 -8.64704e-05
2.38935e-06 -1.49419e-06 -3.8364e-07 -8.64697e-05
-0.00018403 5.44629e-05 5.55288e-05 -8.46939e-05
-0.000180785 5.35153e-05 5.4544e-05 -8.46928e-05
0.000185678 -5.64275e-05 -5.53932e-05 -8.47135e-05
0.000188864 -5.74094e-05 -5.63378e-05 -8.47149e-05
-0.000182407 5.39891e-05 5.50364e-05 -8.46933e-05
2.43477e-06 -1.46779e-06 -4.14422e-07 -8.64678e-05
0.000187271 -5.69184e-05 -5.58655e-05 -8.47142e-05
2.40462e-06 -1.48531e-06 -3.93989e-07 -8.64691e-05
2.41976e-06 -1.47651e-06 -4.0425e-07 -8.64684e-05
-0.000180785 5.35153e-05 5.4544e-05 -8.46928e-05
-0.00017754 5.25674e-05 5.35597e-05 -8.46917e-05
0.000182492 -5.5446e-05 -5.44483e-05 -8.4712e-05
0.000185678 -5.64275e-05 -5.53932e-05 -8.47135e-05
-0.000179162 5.30414e-05 5.40518e-05 -8.46923e-05
2.46439e-06 -1.45056e-06 -4.34499e-07 -8.64665e-05
0.000184085 -5.59367e-05 -5.49208e-05 -8.47128e-05
2.43477e-06 -1.46779e-06 -4.14422e-07 -8.64678e-05
2.44965e-06 -1.45914e-06 -4.24505e-07 -8.64671e-05
-0.00017754 5.25674e-05 5.35597e-05 -8.46917e-05
-0.000174296 5.16193e-05 5.25757e-05 -8.46907e-05
0.000179305 -5.44648e-05 -5.3503e-05 -8.47106e-05
0.000182492 -5.5446e-05 -5.44483e-05 -8.4712e-05
-0.000175918 5.20934e-05 5.30676e-05 -8.46912e-05
2.49349e-06 -1.43365e-06 -4.54221e-07 -8.64653e-05
0.000180899 -5.49554e-05 -5.39757e-05 -8.47113e-05
2.46439e-06 -1.45056e-06 -4.34499e-07 -8.64665e-05
2.47901e-06 -1.44207e-06 -4.44404e-07 -8.64659e-05
-0.000174296 5.16193e-05 5.25757e-05 -8.46907e-05
-0.000171052 5.06708e-05 5.1592e-05 -8.46896e-05
0.000176118 -5.34839e-05 -5.25575e-05 -8.47092e-05
0.000179305 -5.44648e-05 -5.3503e-05 -8.47106e-05
-0.000172674 5.11451e-05 5.20838e-05 -8.46902e-05
2.52207e-06 -1.41703e-06 -4.73587e-07 -8.6464e-05
0.000177712 -5.39744e-05 -5.30303e-05 -8.47099e-05
2.49349e-06 -1.43365e-06 -4.54221e-07 -8.64653e-05
2.50785e-06 -1.4253e-06 -4.63948e-07 -8.64646e-05
-0.000171052 5.06708e-05 5.1592e-05 -8.46896e-05
-0.000167809 4.97221e-05 5.06088e-05 -8.46886e-05
0.00017293 -5.25034e-05 -5.16115e-05 -8.47079e-05
0.000176118 -5.34839e-05 -5.25575e-05 -8.47092e-05
-0.000169431 5.01965e-05 5.11004e-05 -8.46891e-05
2.55012e-06 -1.40073e-06 -4.92597e-07 -8.64628e-05
0.000174524 -5.29936e-05 -5.20845e-05 -8.47086e-05
2.52207e-06 -1.41703e-06 -4.73587e-07 -8.6464e-05
2.53616e-06 -1.40884e-06 -4.83136e-07 -8.64634e-05
-0.000167809 4.97221e-05 5.06088e-05 -8.46886e-05
-0.000164567 4.87731e-05 4.96259e-05 -8.46876e-05
0.000169742 -5.15231e-05 -5.06653e-05 -8.47065e-05
0.00017293 -5.25034e-05 -5.16115e-05 -8.47079e-05
-0.000166188 4.92476e-05 5.01173e-05 -8.46881e-05
2.57764e-06 -1.38472e-06 -5.11252e-07 -8.64616e-05
0.000171336 -5.20132e-05 -5.11385e-05 -8.47072e-05
2.55012e-06 -1.40073e-06 -4.92597e-07 -8.64628e-05
2.56395e-06 -1.39269e-06 -5.01969e-07 -8.64622e-05
-0.000164567 4.87731e-05 4.96259e-05 -8.46876e-05
-0.000161325 4.78238e-05 4.86433e-05 -8.46867e-05
0.000166553 -5.05432e-05 -4.97187e-05 -8.47052e-05
0.000169742 -5.15231e-05 -5.06653e-05 -8.47065e-05
-0.000162946 4.82985e-05 4.91345e-05 -8.46871e-05
2.60464e-06 -1.36902e-06 -5.29551e-07 -8.64604e-05
0.000168148 -5.10331e-05 -5.0192e-05 -8.47058e-05
2.57764e-06 -1.38472e-06 -5.11252e-07 -8.64616e-05
2.59121e-06 -1.37684e-06 -5.20446e-07 -8.6461e-05
-0.000161325 4.78238e-05 4.86433e-05 -8.46867e-05
-0.000158083 4.68742e-05 4.76611e-05 -8.46857e-05
0.000163364 -4.95635e-05 -4.87718e-05 -8.47039e-05
0.000166553 -5.05432e-05 -4.97187e-05 -8.47052e-05
-0.000159704 4.7349e-05 4.81522e-05 -8.46862e-05
2.63112e-06 -1.35363e-06 -5.47494e-07 -8.64593e-05
0.000164959 -5.00533e-05 -4.92453e-05 -8.47045e-05
2.60464e-06 -1.36902e-06 -5.29551e-07 -8.64604e-05
2.61795e-06 -1.36129e-06 -5.38567e-07 -8.64598e-05
-0.000158083 4.68742e-05 4.76611e-05 -8.46857e-05
-0.000154843 4.59243e-05 4.66793e-05 -8.46848e-05
0.000160175 -4.85842e-05 -4.78245e-05 -8.47026e-05
0.000163364 -4.95635e-05 -4.87718e-05 -8.47039e-05
-0.000156463 4.63993e-05 4.71702e-05 -8.46852e-05
2.65707e-06 -1.33854e-06 -5.65083e-07 -8.64581e-05
0.00016177 -4.90738e-05 -4.82982e-05 -8.47032e-05
2.63112e-06 -1.35363e-06 -5.47494e-07 -8.64593e-05
2.64416e-06 -1.34605e-06 -5.56333e-07 -8.64587e-05
-0.000154843 4.59243e-05 4.66793e-05 -8.46848e-05
-0.000151602 4.49742e-05 4.56978e-05 -8.46839e-05
0.000156985 -4.76052e-05 -4.68769e-05 -8.47013e-05
0.000160175 -4.85842e-05 -4.78245e-05 -8.47026e-05
-0.000153223 4.54493e-05 4.61885e-05 -8.46843e-05
2.6825e-06 -1.32376e-06 -5.82315e-07 -8.6457e-05
0.00015858 -4.80947e-05 -4.73508e-05 -8.47019e-05
2.65707e-06 -1.33854e-06 -5.65083e-07 -8.64581e-05
2.66985e-06 -1.33111e-06 -5.73743e-07 -8.64576e-05
-0.000151602 4.49742e-05 4.56978e-05 -8.46839e-05
-0.000148363 4.40238e-05 4.47167e-05 -8.4683e-05
0.000153794 -4.66265e-05 -4.5929e-05 -8.47e-05
0.000156985 -4.76052e-05 -4.68769e-05 -8.47013e-05
-0.000149983 4.4499e-05 4.52072e-05 -8.46834e-05
2.7074e-06 -1.30928e-06 -5.99192e-07 -8.64559e-05
0.000155389 -4.71158e-05 -4.6403e-05 -8.47006e-05
2.6825e-06 -1.32376e-06 -5.82315e-07 -8.6457e-05
2.69501e-06 -1.31648e-06 -5.90798e-07 -8.64564e-05
-0.000148363 4.40238e-05 4.47167e-05 -8.4683e-05
-0.000145124 4.3073e-05 4.3736e-05 -8.46821e-05
0.000150603 -4.56481e-05 -4.49807e-05 -8.46988e-05
0.000153794 -4.66265e-05 -4.5929e-05 -8.47e-05
-0.000146743 4.35484e-05 4.42263e-05 -8.46825e-05
2.73178e-06 -1.29511e-06 -6.15714e-07 -8.64548e-05
0.000152199 -4.61373e-05 -4.54549e-05 -8.46994e-05
2.7074e-06 -1.30928e-06 -5.99192e-07 -8.64559e-05
2.71965e-06 -1.30216e-06 -6.07498e-07 -8.64554e-05
-0.000145124 4.3073e-05 4.3736e-05 -8.46821e-05
-0.000141885 4.2122e-05 4.27556e-05 -8.46812e-05
0.000147412 -4.467e-05 -4.40321e-05 -8.46976e-05
0.000150603 -4.56481e-05 -4.49807e-05 -8.46988e-05
-0.000143504 4.25976e-05 4.32458e-05 -8.46817e-05
2.75563e-06 -1.28124e-06 -6.3188e-07 -8.64538e-05
0.000149007 -4.5159e-05 -4.45064e-05 -8.46982e-05
2.73178e-06 -1.29511e-06 -6.15714e-07 -8.64548e-05
2.74377e-06 -1.28814e-06 -6.23841e-07 -8.64543e-05
-0.000141885 4.2122e-05 4.27556e-05 -8.46812e-05
-0.000138647 4.11707e-05 4.17756e-05 -8.46804e-05
0.00014422 -4.36922e-05 -4.30832e-05 -8.46964e-05
0.000147412 -4.467e-05 -4.40321e-05 -8.46976e-05
-0.000140266 4.16464e-05 4.22656e-05 -8.46808e-05
2.77896e-06 -1.26768e-06 -6.47691e-07 -8.64527e-05
0.000145816 -4.41811e-05 -4.35577e-05 -8.4697e-05
2.75563e-06 -1.28124e-06 -6.3188e-07 -8.64538e-05
2.76736e-06 -1.27442e-06 -6.3983e-07 -8.64532e-05
-0.000138647 4.11707e-05 4.17756e-05 -8.46804e-05
-0.00013541 4.02192e-05 4.0796e-05 -8.46796e-05
0.000141027 -4.27148e-05 -4.21339e-05 -8.46952e-05
0.00014422 -4.36922e-05 -4.30832e-05 -8.46964e-05
-0.000137028 4.0695e-05 4.12857e-05 -8.468e-05
2.80176e-06 -1.25442e-06 -6.63146e-07 -8.64517e-05
0.000142623 -4.32035e-05 -4.26086e-05 -8.46958e-05
2.77896e-06 -1.26768e-06 -6.47691e-07 -8.64527e-05
2.79042e-06 -1.26101e-06 -6.55463e-07 -8.64522e-05
-0.00013541 4.02192e-05 4.0796e-05 -8.46796e-05
-0.000132173 3.92673e-05 3.98167e-05 -8.46788e-05
0.000137834 -4.17376e-05 -4.11842e-05 -8.4694e-05
0.000141027 -4.27148e-05 -4.21339e-05 -8.46952e-05
-0.000133791 3.97433e-05 4.03063e-05 -8.46792e-05
2.82404e-06 -1.24146e-06 -6.78246e-07 -8.64507e-05
0.000139431 -4.22262e-05 -4.16591e-05 -8.46946e-05
2.80176e-06 -1.25442e-06 -6.63146e-07 -8.64517e-05
2.81296e-06 -1.2479e-06 -6.7074e-07 -8.64512e-05
-0.000132173 3.92673e-05 3.98167e-05 -8.46788e-05
-0.000128936 3.83151e-05 3.88377e-05 -8.4678e-05
0.000134641 -4.07608e-05 -4.02343e-05 -8.46929e-05
0.000137834 -4.17376e-05 -4.11842e-05 -8.4694e-05
-0.000130555 3.87913e-05 3.93271e-05 -8.46784e-05
2.84579e-06 -1.22881e-06 -6.9299e-07 -8.64497e-05
0.000136238 -4.12491e-05 -4.07093e-05 -8.46935e-05
2.82404e-06 -1.24146e-06 -6.78246e-07 -8.64507e-05
2.83498e-06 -1.2351e-06 -6.85662e-07 -8.64502e-05
-0.000128936 3.83151e-05 3.88377e-05 -8.4678e-05
-0.000125701 3.73627e-05 3.78591e-05 -8.46773e-05
0.000131447 -3.97842e-05 -3.9284e-05 -8.46918e-05
0.000134641 -4.07608e-05 -4.02343e-05 -8.46929e-05
-0.000127319 3.7839e-05 3.83484e-05 -8.46776e-05
2.86702e-06 -1.21647e-06 -7.07379e-07 -8.64488e-05
0.000133044 -4.02725e-05 -3.97592e-05 -8.46923e-05
2.84579e-06 -1.22881e-06 -6.9299e-07 -8.64497e-05
2.85647e-06 -1.2226e-06 -7.00229e-07 -8.64493e-05
-0.000125701 3.73627e-05 3.78591e-05 -8.46773e-05
-0.000122465 3.641e-05 3.68809e-05 -8.46765e-05
0.000128252 -3.8808e-05 -3.83334e-05 -8.46907e-05
0.000131447 -3.97842e-05 -3.9284e-05 -8.46918e-05
-0.000124083 3.68864e-05 3.737e-05 -8.46769e-05
2.88773e-06 -1.20443e-06 -7.21412e-07 -8.64478e-05
0.00012985 -3.92961e-05 -3.88087e-05 -8.46912e-05
2.86702e-06 -1.21647e-06 -7.07379e-07 -8.64488e-05
2.87744e-06 -1.21041e-06 -7.1444e-07 -8.64483e-05
-0.000122465 3.641e-05 3.68809e-05 -8.46765e-05
-0.000119231 3.5457e-05 3.59031e-05 -8.46758e-05
0.000125058 -3.78321e-05 -3.73824e-05 -8.46896e-05
0.000128252 -3.8808e-05 -3.83334e-05 -8.46907e-05
-0.000120848 3.59335e-05 3.6392e-05 -8.46762e-05
2.90791e-06 -1.1927e-06 -7.3509e-07 -8.64469e-05
0.000126655 -3.832e-05 -3.78579e-05 -8.46901e-05
2.88773e-06 -1.20443e-06 -7.21412e-07 -8.64478e-05
2.89788e-06 -1.19852e-06 -7.28296e-07 -8.64474e-05
-0.000119231 3.5457e-05 3.59031e-05 -8.46758e-05
-0.000115997 3.45037e-05 3.49256e-05 -8.46751e-05
0.000121862 -3.68565e-05 -3.64311e-05 -8.46886e-05
0.000125058 -3.78321e-05 -3.73824e-05 -8.46896e-05
-0.000117614 3.49804e-05 3.54143e-05 -8.46755e-05
2.92756e-06 -1.18127e-06 -7.48412e-07 -8.64461e-05
0.00012346 -3.73442e-05 -3.69068e-05 -8.46891e-05
2.90791e-06 -1.1927e-06 -7.3509e-07 -8.64469e-05
2.9178e-06 -1.18694e-06 -7.41795e-07 -8.64465e-05
-0.000115997 3.45037e-05 3.49256e-05 -8.46751e-05
-0.000112763 3.35501e-05 3.39484e-05 -8.46745e-05
0.000118666 -3.58811e-05 -3.54794e-05 -8.46875e-05
0.000121862 -3.68565e-05 -3.64311e-05 -8.46886e-05
-0.00011438 3.40269e-05 3.4437e-05 -8.46748e-05
2.94669e-06 -1.17014e-06 -7.61378e-07 -8.64452e-05
0.000120264 -3.63688e-05 -3.59553e-05 -8.4688e-05
2.92756e-06 -1.18127e-06 -7.48412e-07 -8.64461e-05
2.93719e-06 -1.17567e-06 -7.5494e-07 -8.64456e-05
-0.000112763 3.35501e-05 3.39484e-05 -8.46745e-05
-0.00010953 3.25962e-05 3.29717e-05 -8.46738e-05
0.00011547 -3.49062e-05 -3.45274e-05 -8.46865e-05
0.000118666 -3.58811e-05 -3.54794e-05 -8.46875e-05
-0.000111147 3.30732e-05 3.346e-05 -8.46741e-05
2.9653e-06 -1.15933e-06 -7.73989e-07 -8.64443e-05
0.000117068 -3.53936e-05 -3.50034e-05 -8.4687e-05
2.94669e-06 -1.17014e-06 -7.61378e-07 -8.64452e-05
2.95606e-06 -1.1647e-06 -7.67728e-07 -8.64448e-05
-0.00010953 3.25962e-05 3.29717e-05 -8.46738e-05
-0.000106298 3.1642e-05 3.19952e-05 -8.46732e-05
0.000112273 -3.39315e-05 -3.35751e-05 -8.46855e-05
0.00011547 -3.49062e-05 -3.45274e-05 -8.46865e-05
-0.000107914 3.21192e-05 3.24834e-05 -8.46735e-05
2.98338e-06 -1.14882e-06 -7.86243e-07 -8.64435e-05
0.000113872 -3.44188e-05 -3.40513e-05 -8.4686e-05
2.9653e-06 -1.15933e-06 -7.73989e-07 -8.64443e-05
2.97441e-06 -1.15403e-06 -7.8016e-07 -8.64439e-05
-0.000106298 3.1642e-05 3.19952e-05 -8.46732e-05
-0.000103066 3.06876e-05 3.10192e-05 -8.46726e-05
0.000109076 -3.29571e-05 -3.26224e-05 -8.46846e-05
0.000112273 -3.39315e-05 -3.35751e-05 -8.46855e-05
-0.000104682 3.11649e-05 3.15072e-05 -8.46729e-05
3.00095e-06 -1.13862e-06 -7.98141e-07 -8.64427e-05
0.000110675 -3.34442e-05 -3.30988e-05 -8.4685e-05
2.98338e-06 -1.14882e-06 -7.86243e-07 -8.64435e-05
2.99223e-06 -1.14368e-06 -7.92237e-07 -8.64431e-05
-0.000103066 3.06876e-05 3.10192e-05 -8.46726e-05
-9.98343e-05 2.97328e-05 3.00435e-05 -8.4672e-05
0.000105878 -3.1983e-05 -3.16694e-05 -8.46836e-05
0.000109076 -3.29571e-05 -3.26224e-05 -8.46846e-05
-0.00010145 3.02102e-05 3.05313e-05 -8.46723e-05
3.01799e-06 -1.12873e-06 -8.09683e-07 -8.64419e-05
0.000107477 -3.247e-05 -3.21459e-05 -8.46841e-05
3.00095e-06 -1.13862e-06 -7.98141e-07 -8.64427e-05
3.00953e-06 -1.13364e-06 -8.03956e-07 -8.64423e-05
-9.98343e-05 2.97328e-05 3.00435e-05 -8.4672e-05
-9.66035e-05 2.87778e-05 2.90681e-05 -8.46714e-05
0.00010268 -3.10093e-05 -3.0716e-05 -8.46827e-05
0.000105878 -3.1983e-05 -3.16694e-05 -8.46836e-05
-9.82188e-05 2.92553e-05 2.95558e-05 -8.46717e-05
3.03452e-06 -1.11916e-06 -8.20868e-07 -8.64412e-05
0.000104279 -3.14961e-05 -3.11927e-05 -8.46832e-05
3.01799e-06 -1.12873e-06 -8.09683e-07 -8.64419e-05
3.02632e-06 -1.12391e-06 -8.1532e-07 -8.64416e-05
-9.66035e-05 2.87778e-05 2.90681e-05 -8.46714e-05
-9.33731e-05 2.78224e-05 2.80932e-05 -8.46709e-05
9.94812e-05 -3.00359e-05 -2.97623e-05 -8.46818e-05
0.00010268 -3.10093e-05 -3.0716e-05 -8.46827e-05
-9.49882e-05 2.83001e-05 2.85806e-05 -8.46712e-05
3.05054e-06 -1.10991e-06 -8.31696e-07 -8.64405e-05
0.000101081 -3.05225e-05 -3.02392e-05 -8.46823e-05
3.03452e-06 -1.11916e-06 -8.20868e-07 -8.64412e-05
3.04259e-06 -1.1145e-06 -8.26326e-07 -8.64408e-05
-9.33731e-05 2.78224e-05 2.80932e-05 -8.46709e-05
-9.01433e-05 2.68667e-05 2.71185e-05 -8.46704e-05
9.6282e-05 -2.90628e-05 -2.88083e-05 -8.4681e-05
9.94812e-05 -3.00359e-05 -2.97623e-05 -8.46818e-05
-9.17582e-05 2.73446e-05 2.76058e-05 -8.46706e-05
3.06605e-06 -1.10099e-06 -8.42168e-07 -8.64397e-05
9.78817e-05 -2.95493e-05 -2.92853e-05 -8.46814e-05
3.05054e-06 -1.10991e-06 -8.31696e-07 -8.64405e-05
3.05836e-06 -1.10541e-06 -8.36976e-07 -8.64401e-05
-9.01433e-05 2.68667e-05 2.71185e-05 -8.46704e-05
-8.69141e-05 2.59107e-05 2.61443e-05 -8.46698e-05
9.30824e-05 -2.809e-05 -2.78539e-05 -8.46801e-05
9.6282e-05 -2.90628e-05 -2.88083e-05 -8.4681e-05
-8.85286e-05 2.63888e-05 2.66314e-05 -8.46701e-05
3.08107e-06 -1.09241e-06 -8.52285e-07 -8.64391e-05
9.46823e-05 -2.85763e-05 -2.83311e-05 -8.46806e-05
3.06605e-06 -1.10099e-06 -8.42168e-07 -8.64397e-05
3.07362e-06 -1.09666e-06 -8.47271e-07 -8.64394e-05
-8.69141e-05 2.59107e-05 2.61443e-05 -8.46698e-05
-8.36853e-05 2.49544e-05 2.51704e-05 -8.46693e-05
8.98822e-05 -2.71176e-05 -2.68991e-05 -8.46794e-05
9.30824e-05 -2.809e-05 -2.78539e-05 -8.46801e-05
-8.52996e-05 2.54326e-05 2.56573e-05 -8.46696e-05
3.09561e-06 -1.08416e-06 -8.62047e-07 -8.64384e-05
9.14824e-05 -2.76038e-05 -2.73765e-05 -8.46797e-05
3.08107e-06 -1.09241e-06 -8.52285e-07 -8.64391e-05
3.0884e-06 -1.08824e-06 -8.5721e-07 -8.64387e-05
-8.36853e-05 2.49544e-05 2.51704e-05 -8.46693e-05
-8.0457e-05 2.39978e-05 2.41968e-05 -8.46688e-05
8.66817e-05 -2.61455e-05 -2.59441e-05 -8.46786e-05
8.98822e-05 -2.71176e-05 -2.68991e-05 -8.46794e-05
-8.20711e-05 2.44762e-05 2.46835e-05 -8.46691e-05
3.10967e-06 -1.07627e-06 -8.7146e-07 -8.64377e-05
8.8282e-05 -2.66315e-05 -2.64216e-05 -8.4679e-05
3.09561e-06 -1.08416e-06 -8.62047e-07 -8.64384e-05
3.1027e-06 -1.08017e-06 -8.66797e-07 -8.64381e-05
-8.0457e-05 2.39978e-05 2.41968e-05 -8.46688e-05
-7.72292e-05 2.30408e-05 2.32236e-05 -8.46683e-05
8.34807e-05 -2.51738e-05 -2.49887e-05 -8.46779e-05
8.66817e-05 -2.61455e-05 -2.59441e-05 -8.46786e-05
-7.8843e-05 2.35193e-05 2.37102e-05 -8.46686e-05
3.12328e-06 -1.06872e-06 -8.80526e-07 -8.64371e-05
8.50812e-05 -2.56596e-05 -2.54664e-05 -8.46782e-05
3.10967e-06 -1.07627e-06 -8.7146e-07 -8.64377e-05
3.11653e-06 -1.07245e-06 -8.76036e-07 -8.64374e-05
-7.72292e-05 2.30408e-05 2.32236e-05 -8.46683e-05
-7.40019e-05 2.20835e-05 2.22507e-05 -8.46678e-05
8.02793e-05 -2.42024e-05 -2.40329e-05 -8.46772e-05
8.34807e-05 -2.51738e-05 -2.49887e-05 -8.46779e-05
-7.56155e-05 2.25622e-05 2.27371e-05 -8.46681e-05
3.13645e-06 -1.06152e-06 -8.89256e-07 -8.64365e-05
8.18801e-05 -2.46881e-05 -2.45109e-05 -8.46775e-05
3.12328e-06 -1.06872e-06 -8.80526e-07 -8.64371e-05
3.12992e-06 -1.06508e-06 -8.84933e-07 -8.64368e-05
-7.40019e-05 2.20835e-05 2.22507e-05 -8.46678e-05
-7.0775e-05 2.11259e-05 2.12782e-05 -8.46673e-05
7.70775e-05 -2.32314e-05 -2.30769e-05 -8.46765e-05
8.02793e-05 -2.42024e-05 -2.40329e-05 -8.46772e-05
-7.23884e-05 2.16048e-05 2.17644e-05 -8.46675e-05
3.1492e-06 -1.05465e-06 -8.97662e-07 -8.64359e-05
7.86785e-05 -2.37169e-05 -2.3555e-05 -8.46769e-05
3.13645e-06 -1.06152e-06 -8.89256e-07 -8.64365e-05
3.14288e-06 -1.05805e-06 -8.93498e-07 -8.64362e-05
-7.0775e-05 2.11259e-05 2.12782e-05 -8.46673e-05
-6.75486e-05 2.01681e-05 2.03059e-05 -8.46667e-05
7.38754e-05 -2.22607e-05 -2.21206e-05 -8.46758e-05
7.70775e-05 -2.32314e-05 -2.30769e-05 -8.46765e-05
-6.91617e-05 2.0647e-05 2.0792e-05 -8.4667e-05
3.16151e-06 -1.04807e-06 -9.05763e-07 -8.64352e-05
7.54765e-05 -2.2746e-05 -2.25988e-05 -8.46762e-05
3.1492e-06 -1.05465e-06 -8.97662e-07 -8.64359e-05
3.15541e-06 -1.05133e-06 -9.01749e-07 -8.64356e-05
-6.75486e-05 2.01681e-05 2.03059e-05 -8.46667e-05
-6.43227e-05 1.92101e-05 1.9334e-05 -8.46661e-05
7.06728e-05 -2.12902e-05 -2.1164e-05 -8.46751e-05
7.38754e-05 -2.22607e-05 -2.21206e-05 -8.46758e-05
-6.59356e-05 1.96891e-05 1.98199e-05 -8.46664e-05
3.17338e-06 -1.04168e-06 -9.13585e-07 -8.64345e-05
7.22742e-05 -2.17754e-05 -2.16423e-05 -8.46755e-05
3.16151e-06 -1.04807e-06 -9.05763e-07 -8.64352e-05
3.1675e-06 -1.04486e-06 -9.09706e-07 -8.64349e-05
-6.43227e-05 1.92101e-05 1.9334e-05 -8.46661e-05
-6.10974e-05 1.8252e-05 1.83623e-05 -8.46655e-05
6.74699e-05 -2.03198e-05 -2.02072e-05 -8.46743e-05
7.06728e-05 -2.12902e-05 -2.1164e-05 -8.46751e-05
-6.271e-05 1.8731e-05 1.88481e-05 -8.46658e-05
3.18473e-06 -1.03534e-06 -9.21165e-07 -8.64337e-05
6.90714e-05 -2.0805e-05 -2.06856e-05 -8.46747e-05
3.17338e-06 -1.04168e-06 -9.13585e-07 -8.64345e-05
3.17912e-06 -1.03852e-06 -9.17402e-07 -8.64341e-05
-6.10974e-05 1.8252e-05 1.83623e-05 -8.46655e-05
-5.78728e-05 1.72942e-05 1.73908e-05 -8.46648e-05
6.42664e-05 -1.93493e-05 -1.92502e-05 -8.46732e-05
6.74699e-05 -2.03198e-05 -2.02072e-05 -8.46743e-05
-5.9485e-05 1.77731e-05 1.78765e-05 -8.46651e-05
3.19542e-06 -1.02881e-06 -9.2855e-07 -8.64328e-05
6.58682e-05 -1.98346e-05 -1.97287e-05 -8.46738e-05
3.18473e-06 -1.03534e-06 -9.21165e-07 -8.64337e-05
3.19017e-06 -1.03212e-06 -9.24878e-07 -8.64333e-05
-5.78728e-05 1.72942e-05 1.73908e-05 -8.46648e-05
-5.46492e-05 1.63369e-05 1.64195e-05 -8.46643e-05
6.10621e-05 -1.83783e-05 -1.82931e-05 -8.46719e-05
6.42664e-05 -1.93493e-05 -1.92502e-05 -8.46732e-05
-5.62609e-05 1.68155e-05 1.69052e-05 -8.46646e-05
3.20523e-06 -1.02169e-06 -9.35801e-07 -8.64319e-05
6.26644e-05 -1.88639e-05 -1.87716e-05 -8.46726e-05
3.19542e-06 -1.02881e-06 -9.2855e-07 -8.64328e-05
3.20046e-06 -1.02535e-06 -9.32188e-07 -8.64324e-05
-5.46492e-05 1.63369e-05 1.64195e-05 -8.46643e-05
-5.14268e-05 1.53805e-05 1.54484e-05 -8.46643e-05
5.78567e-05 -1.74059e-05 -1.7336e-05 -8.46703e-05
6.10621e-05 -1.83783e-05 -1.82931e-05 -8.46719e-05
-5.30378e-05 1.58586e-05 1.59339e-05 -8.46642e-05
3.21374e-06 -1.01343e-06 -9.42987e-07 -8.6431e-05
5.94596e-05 -1.78923e-05 -1.78145e-05 -8.46712e-05
3.20523e-06 -1.02169e-06 -9.35801e-07 -8.64319e-05
3.20968e-06 -1.01775e-06 -9.39396e-07 -8.64314e-05
-5.14268e-05 1.53805e-05 1.54484e-05 -8.46643e-05
-4.82058e-05 1.44253e-05 1.44774e-05 -8.46654e-05
5.46491e-05 -1.64312e-05 -1.63791e-05 -8.46687e-05
5.78567e-05 -1.74059e-05 -1.7336e-05 -8.46703e-05
-4.98161e-05 1.49027e-05 1.49629e-05 -8.46646e-05
3.22029e-06 -1.0032e-06 -9.50181e-07 -8.64309e-05
5.62533e-05 -1.6919e-05 -1.68576e-05 -8.46695e-05
3.21374e-06 -1.01343e-06 -9.42987e-07 -8.6431e-05
3.21731e-06 -1.00863e-06 -9.46577e-07 -8.64308e-05
-4.82058e-05 1.44253e-05 1.44774e-05 -8.46654e-05
-4.49867e-05 1.34714e-05 1.35066e-05 -8.46692e-05
5.14379e-05 -1.54518e-05 -1.54226e-05 -8.4668e-05
5.46491e-05 -1.64312e-05 -1.63791e-05 -8.46687e-05
-4.6596e-05 1.39482e-05 1.39919e-05 -8.46668e-05
3.22391e-06 -9.89859e-07 -9.57449e-07 -8.64332e-05
5.3044e-05 -1.59422e-05 -1.59008e-05 -8.46681e-05
3.22029e-06 -1.0032e-06 -9.50181e-07 -8.64309e-05
3.22254e-06 -9.97007e-07 -9.538e-07 -8.64316e-05
-4.49867e-05 1.34714e-05 1.35066e-05 -8.46692e-05
-4.17684e-05 1.25183e-05 1.25358e-05 -8.46794e-05
4.82193e-05 -1.44644e-05 -1.44664e-05 -8.46707e-05
5.14379e-05 -1.54518e-05 -1.54226e-05 -8.4668e-05
-4.33777e-05 1.29949e-05 1.30212e-05 -8.46732e-05
3.22312e-06 -9.7187e-07 -9.64823e-07 -8.64414e-05
4.98299e-05 -1.49595e-05 -1.49445e-05 -8.46687e-05
3.22391e-06 -9.89859e-07 -9.57449e-07 -8.64332e-05
3.22417e-06 -9.81556e-07 -9.61121e-07 -8.64362e-05
-4.17684e-05 1.25183e-05 1.25358e-05 -8.46794e-05
-3.85501e-05 1.15634e-05 1.15657e-05 -8.47026e-05
4.49888e-05 -1.34629e-05 -1.35111e-05 -8.46824e-05
4.82193e-05 -1.44644e-05 -1.44664e-05 -8.46707e-05
-4.01592e-05 1.20413e-05 1.20505e-05 -8.46888e-05
3.2159e-06 -9.47304e-07 -9.72256e-07 -8.64632e-05
4.66057e-05 -1.39659e-05 -1.39885e-05 -8.46749e-05
3.22312e-06 -9.7187e-07 -9.64823e-07 -8.64414e-05
3.22047e-06 -9.60552e-07 -9.68534e-07 -8.645e-05
-3.85501e-05 1.15634e-05 1.15657e-05 -8.47026e-05
-3.53241e-05 1.06017e-05 1.05953e-05 -8.47523e-05
4.17335e-05 -1.24376e-05 -1.25554e-05 -8.47149e-05
4.49888e-05 -1.34629e-05 -1.35111e-05 -8.46824e-05
-3.69391e-05 1.10841e-05 1.10807e-05 -8.4723e-05
3.19944e-06 -9.13787e-07 -9.79567e-07 -8.65133e-05
4.33656e-05 -1.29542e-05 -1.30335e-05 -8.46949e-05
3.2159e-06 -9.47304e-07 -9.72256e-07 -8.64632e-05
3.20903e-06 -9.31816e-07 -9.75947e-07 -8.64831e-05
-3.53241e-05 1.06017e-05 1.05953e-05 -8.47523e-05
-3.2084e-05 9.62134e-06 9.62685e-06 -8.48525e-05
3.84402e-05 -1.13718e-05 -1.16008e-05 -8.47901e-05
4.17335e-05 -1.24376e-05 -1.25554e-05 -8.47149e-05
-3.37056e-05 1.01146e-05 1.01104e-05 -8.47941e-05
3.17017e-06 -8.688e-07 -9.863e-07 -8.66198e-05
4.00918e-05 -1.19109e-05 -1.20776e-05 -8.47453e-05
3.19944e-06 -9.13787e-07 -9.79567e-07 -8.65133e-05
3.18666e-06 -8.92903e-07 -9.83037e-07 -8.65577e-05
-3.2084e-05 9.62134e-06 9.62685e-06 -8.48525e-05
-2.87983e-05 8.60403e-06 8.65468e-06 -8.50463e-05
3.50691e-05 -1.02423e-05 -1.064e-05 -8.49494e-05
3.84402e-05 -1.13718e-05 -1.16008e-05 -8.47901e-05
-3.0451e-05 9.11958e-06 9.14204e-06 -8.49339e-05
3.12363e-06 -8.09798e-07 -9.91641e-07 -8.68307e-05
3.67691e-05 -1.08175e-05 -1.11221e-05 -8.48555e-05
3.17017e-06 -8.688e-07 -9.863e-07 -8.66198e-05
3.14936e-06 -8.41145e-07 -9.89236e-07 -8.67068e-05
-2.87983e-05 8.60403e-06 8.65468e-06 -8.50463e-05
-2.5447e-05 7.51413e-06 7.68549e-06 -8.5401e-05
3.15909e-05 -9.01059e-06 -9.67727e-06 -8.52581e-05
3.50691e-05 -1.02423e-05 -1.064e-05 -8.49494e-05
-2.71292e-05 8.06944e-06 8.16846e-06 -8.51983e-05
3.05504e-06 -7.35607e-07 -9.94041e-07 -8.72257e-05
3.33423e-05 -9.64057e-06 -1.01579e-05 -8.508e-05
3.12363e-06 -8.09798e-07 -9.91641e-07 -8.68307e-05
3.09238e-06 -7.74661e-07 -9.93307e-07 -8.70014e-05
-2.5447e-05 7.51413e-06 7.68549e-06 -8.5401e-05
-2.19351e-05 6.3181e-06 6.69301e-06 -8.60241e-05
2.79014e-05 -7.64443e-06 -8.68156e-06 -8.5824e-05
3.15909e-05 -9.01059e-06 -9.67727e-06 -8.52581e-05
-2.37246e-05 6.93481e-06 7.19562e-06 -8.567e-05
2.95963e-06 -6.46865e-07 -9.91186e-07 -8.79206e-05
2.97866e-05 -8.34935e-06 -9.1874e-06 -8.54997e-05
3.05504e-06 -7.35607e-07 -9.94041e-07 -8.72257e-05
3.01099e-06 -6.92709e-07 -9.93549e-07 -8.75213e-05
-2.19351e-05 6.3181e-06 6.69301e-06 -8.60241e-05
-1.82492e-05 4.9576e-06 5.6964e-06 -8.70389e-05
2.39817e-05 -6.09601e-06 -7.66528e-06 -8.67725e-05
2.79014e-05 -7.64443e-06 -8.68156e-06 -8.5824e-05
-2.01021e-05 5.65422e-06 6.19196e-06 -8.64748e-05
2.83556e-06 -5.50859e-07 -9.79159e-07 -8.90588e-05
2.59586e-05 -6.88749e-06 -8.17334e-06 -8.62426e-05
2.95963e-06 -6.46865e-07 -9.91186e-07 -8.79206e-05
2.90111e-06 -5.99195e-07 -9.86534e-07 -8.84348e-05
-1.82492e-05 4.9576e-06 5.6964e-06 -8.70389e-05
-1.42059e-05 3.48914e-06 4.59292e-06 -8.85779e-05
1.96513e-05 -4.44997e-06 -6.51486e-06 -8.82479e-05
2.39817e-05 -6.09601e-06 -7.66528e-06 -8.67725e-05
-1.6307e-05 4.2414e-06 5.17096e-06 -8.77338e-05
2.68521e-06 -4.61912e-07 -9.52843e-07 -9.07472e-05
2.19021e-05 -5.28701e-06 -7.12074e-06 -8.74339e-05
2.83556e-06 -5.50859e-07 -9.79159e-07 -8.90588e-05
2.76345e-06 -5.03656e-07 -9.68482e-07 -8.98102e-05
-1.42059e-05 3.48914e-06 4.59292e-06 -8.85779e-05
-1.00459e-05 2.01544e-06 3.44163e-06 -9.05596e-05
1.51752e-05 -2.86517e-06 -5.27574e-06 -9.01867e-05
1.96513e-05 -4.44997e-06 -6.51486e-06 -8.82479e-05
-1.20757e-05 2.70627e-06 4.01549e-06 -8.95323e-05
2.52534e-06 -4.14479e-07 -9.04653e-07 -9.28703e-05
1.73641e-05 -3.59787e-06 -5.89983e-06 -8.91768e-05
2.68521e-06 -4.61912e-07 -9.52843e-07 -9.07472e-05
2.6046e-06 -4.30565e-07 -9.31728e-07 -9.18128e-05
-1.00459e-05 2.01544e-06 3.44163e-06 -9.05596e-05
-5.76653e-06 1.31322e-06 1.90856e-06 -9.24859e-05
1.06058e-05 -2.21968e-06 -3.59407e-06 -9.21301e-05
1.51752e-05 -2.86517e-06 -5.27574e-06 -9.01867e-05
-7.98626e-06 1.54305e-06 2.76138e-06 -9.15821e-05
2.38629e-06 -4.56552e-07 -8.27029e-07 -9.46813e-05
1.2963e-05 -2.39202e-06 -4.53043e-06 -9.12069e-05
2.52534e-06 -4.14479e-07 -9.04653e-07 -9.28703e-05
2.45128e-06 -4.19633e-07 -8.70707e-07 -9.38265e-05
-5.76653e-06 1.31322e-06 1.90856e-06 -9.24859e-05
-2.74381e-06 2.25506e-06 2.09462e-07 -9.25166e-05
7.42553e-06 -3.53212e-06 -1.6686e-06 -9.22725e-05
1.06058e-05 -2.21968e-06 -3.59407e-06 -9.21301e-05
-3.86097e-06 1.40947e-06 1.05064e-06 -9.29245e-05
2.33014e-06 -6.65472e-07 -7.13428e-07 -9.42091e-05
8.59593e-06 -2.45076e-06 -2.63365e-06 -9.26108e-05
2.38629e-06 -4.56552e-07 -8.27029e-07 -9.46813e-05
2.34202e-06 -5.36043e-07 -7.73988e-07 -9.50327e-05
-2.74381e-06 2.25506e-06 2.09462e-07 -9.25166e-05
-1.03745e-06 6.67289e-06 -2.41519e-06 -8.72716e-05
5.81927e-06 -8.79511e-06 1.27536e-06 -8.72443e-05
7.42553e-06 -3.53212e-06 -1.6686e-06 -9.22725e-05
-1.95575e-06 4.16392e-06 -9.46358e-07 -9.08258e-05
2.40559e-06 -1.09616e-06 -5.6118e-07 -8.8148e-05
6.64863e-06 -5.79892e-06 -3.64162e-07 -9.06801e-05
2.33014e-06 -6.65472e-07 -7.13428e-07 -9.42091e-05
2.35115e-06 -8.50843e-07 -6.42989e-07 -9.19025e-05
-1.03745e-06 6.67289e-06 -2.41519e-06 -8.72716e-05
-2.28101e-06 1.23521e-05 -4.31619e-06 -7.11863e-05
7.50136e-06 -1.57827e-05 3.54914e-06 -7.14355e-05
5.81927e-06 -8.79511e-06 1.27536e-06 -8.72443e-05
-8.56663e-07 9.31086e-06 -3.62323e-06 -8.09559e-05
2.6664e-06 -1.78319e-06 -3.78521e-07 -7.22857e-05
5.81197e-06 -1.20447e-05 2.67116e-06 -8.10582e-05
2.40559e-06 -1.09616e-06 -5.6118e-07 -8.8148e-05
2.50633e-06 -1.40526e-06 -4.71885e-07 -8.20987e-05
-2.28101e-06 1.23521e-05 -4.31619e-06 -7.11863e-05
-6.02117e-06 2.06915e-05 -6.28728e-06 -4.08613e-05
1.1892e-05 -2.54944e-05 5.82962e-06 -4.06863e-05
7.50136e-06 -1.57827e-05 3.54914e-06 -7.14355e-05
-4.32955e-06 1.61578e-05 -5.06926e-06 -5.78882e-05
3.12669e-06 -2.27581e-06 -3.64664e-07 -3.95968e-05
9.86784e-06 -2.03119e-05 4.47604e-06 -5.81052e-05
2.6664e-06 -1.78319e-06 -3.78521e-07 -7.22857e-05
2.87631e-06 -2.1739e-06 -3.01032e-07 -5.81032e-05
0.000549432 0 -0.000235471 0.000318568
0.000560333 -7.9718e-05 -0.000205978 0.000105345
0.00175327 -0.000233991 -0.00065112 -8.7856e-06
0.00154884 0 -0.00066379 0.000201196
0.000536773 -3.40775e-05 -0.000215441 0.000200928
0.00115631 -0.000157068 -0.000428247 6.11152e-05
0.00167945 -0.000131674 -0.000663331 7.42932e-05
0.00102594 0 -0.000439688 0.000290082
0.00110742 -7.47894e-05 -0.000442555 0.000143007
0.000560333 -7.9718e-05 -0.000205978 0.000105345
0.000605593 -0.000131338 -0.000203252 -2.26051e-05
0.00184376 -0.000427869 -0.000606812 -7.40003e-05
0.00175327 -0.000233991 -0.00065112 -8.7856e-06
0.000592486 -0.000110532 -0.000206551 3.01006e-05
0.00121693 -0.000269438 -0.000406066 -4.10824e-05
0.00179859 -0.000337022 -0.000626386 -5.08003e-05
0.00115631 -0.000157068 -0.000428247 6.11152e-05
0.00118774 -0.00022103 -0.000414306 5.79765e-06
0.000605593 -0.000131338 -0.000203252 -2.26051e-05
0.000619431 -0.000169702 -0.000192741 -8.05724e-05
0.00189012 -0.000526464 -0.000584423 -8.63964e-05
0.00184376 -0.000427869 -0.000606812 -7.40003e-05
0.00061084 -0.000151791 -0.000196735 -5.75563e-05
0.00125266 -0.000341497 -0.000390498 -8.50924e-05
0.0018779 -0.000488907 -0.000595284 -8.53649e-05
0.00121693 -0.000269438 -0.000406066 -4.10824e-05
0.00123989 -0.000309974 -0.000398536 -7.15025e-05
0.000619431 -0.000169702 -0.000192741 -8.05724e-05
0.000626936 -0.000188196 -0.000188032 -0.000101186
0.00188904 -0.000565699 -0.000567147 -7.96732e-05
0.00189012 -0.000526464 -0.000584423 -8.63964e-05
0.000626438 -0.000181283 -0.000190781 -9.4396e-05
0.0012592 -0.000374054 -0.000379349 -9.46919e-05
0.00189047 -0.000551013 -0.000574053 -8.26649e-05
0.00125266 -0.000341497 -0.000390498 -8.50924e-05
0.00125813 -0.000361909 -0.000384093 -9.115e-05
0.000626936 -0.000188196 -0.000188032 -0.000101186
0.000623245 -0.000195691 -0.000183238 -0.000103302
0.00187616 -0.000573657 -0.000558216 -7.4999e-05
0.00188904 -0.000565699 -0.000567147 -7.96732e-05
0.000624634 -0.000192909 -0.000185025 -0.000103399
0.00125224 -0.000385115 -0.000371626 -9.30149e-05
0.00188466 -0.000572198 -0.000562485 -7.73419e-05
0.0012592 -0.000374054 -0.000379349 -9.46919e-05
0.0012569 -0.000381414 -0.000375209 -9.50047e-05
0.000623245 -0.000195691 -0.000183238 -0.000103302
0.000618344 -0.000196074 -0.000180973 -9.95508e-05
0.00185767 -0.000571156 -0.000551363 -7.18561e-05
0.00187616 -0.000573657 -0.000558216 -7.4999e-05
0.000621554 -0.000196475 -0.000182177 -0.000101796
0.00124021 -0.000384772 -0.000366617 -8.89843e-05
0.00186626 -0.000573045 -0.000554234 -7.29633e-05
0.00125224 -0.000385115 -0.000371626 -9.30149e-05
0.00124631 -0.000385832 -0.000368778 -9.07323e-05
0.000618344 -0.000196074 -0.000180973 -9.95508e-05
0.000611851 -0.000194398 -0.000178908 -9.47596e-05
0.00184149 -0.000565051 -0.000547045 -7.08238e-05
0.00185767 -0.000571156 -0.000551363 -7.18561e-05
0.000614737 -0.000195339 -0.000179742 -9.70551e-05
0.00122826 -0.00038102 -0.000363105 -8.54255e-05
0.00184966 -0.000568302 -0.000549153 -7.12848e-05
0.00124021 -0.000384772 -0.000366617 -8.89843e-05
0.00123413 -0.000383066 -0.000364741 -8.72121e-05
0.000611851 -0.000194398 -0.000178908 -9.47596e-05
0.000606518 -0.000192026 -0.00017764 -9.09674e-05
0.00182672 -0.000558966 -0.000543322 -7.03771e-05
0.00184149 -0.000565051 -0.000547045 -7.08238e-05
0.000609255 -0.000193241 -0.000178292 -9.27195e-05
0.00121759 -0.000376472 -0.000360478 -8.29468e-05
0.00183367 -0.000561917 -0.000545037 -7.04908e-05
0.00122826 -0.00038102 -0.000363105 -8.54255e-05
0.00122272 -0.000378752 -0.000361699 -8.3982e-05
0.000606518 -0.000192026 -0.00017764 -9.09674e-05
0.000601601 -0.00018989 -0.000176448 -8.83563e-05
0.00181411 -0.000553562 -0.000540234 -7.03804e-05
0.00182672 -0.000558966 -0.000543322 -7.03771e-05
0.000603885 -0.00019091 -0.000176989 -8.95077e-05
0.00120839 -0.000372433 -0.000358266 -8.13894e-05
0.00182031 -0.000556168 -0.000541773 -7.03772e-05
0.00121759 -0.000376472 -0.000360478 -8.29468e-05
0.00121283 -0.000374365 -0.000359342 -8.21e-05
0.000601601 -0.00018989 -0.000176448 -8.83563e-05
0.000597468 -0.000188039 -0.00017547 -8.67607e-05
0.00180262 -0.000549006 -0.000537262 -7.04422e-05
0.00181411 -0.000553562 -0.000540234 -7.03804e-05
0.000599513 -0.000188929 -0.000175965 -8.74564e-05
0.00120028 -0.000368994 -0.000356267 -8.05004e-05
0.00180819 -0.000551186 -0.000538716 -7.03955e-05
0.00120839 -0.000372433 -0.000358266 -8.13894e-05
0.00120422 -0.000370642 -0.000357248 -8.08633e-05
0.000597468 -0.000188039 -0.00017547 -8.67607e-05
0.000593676 -0.000186489 -0.000174509 -8.58418e-05
0.00179203 -0.000545065 -0.000534416 -7.05479e-05
0.00180262 -0.000549006 -0.000537262 -7.04422e-05
0.000595508 -0.000187231 -0.000174976 -8.62318e-05
0.00119293 -0.000366103 -0.000354353 -8.002e-05
0.00179727 -0.000546973 -0.000535842 -7.05006e-05
0.00120028 -0.000368994 -0.000356267 -8.05004e-05
0.00119653 -0.00036749 -0.000355305 -8.02284e-05
0.000593676 -0.000186489 -0.000174509 -8.58418e-05
0.0005902 -0.000185139 -0.000173598 -8.5351e-05
0.00178189 -0.00054155 -0.000531576 -7.06287e-05
0.00179203 -0.000545065 -0.000534416 -7.05479e-05
0.000591923 -0.000185794 -0.000174055 -8.55572e-05
0.00118602 -0.000363576 -0.000352477 -7.97837e-05
0.00178691 -0.000543265 -0.00053299 -7.05888e-05
0.00119293 -0.000366103 -0.000354353 -8.002e-05
0.00118943 -0.000364804 -0.000353412 -7.98765e-05
0.0005902 -0.000185139 -0.000173598 -8.5351e-05
0.000586862 -0.000183925 -0.000172688 -8.51027e-05
0.00177204 -0.00053829 -0.000528751 -7.06945e-05
0.00178189 -0.00054155 -0.000531576 -7.06287e-05
0.000588511 -0.000184518 -0.00017314 -8.52045e-05
0.00117938 -0.000361287 -0.00035061 -7.96759e-05
0.00177695 -0.000539896 -0.000530166 -7.06652e-05
0.00118602 -0.000363576 -0.000352477 -7.97837e-05
0.00118268 -0.000362409 -0.000351543 -7.97201e-05
0.000586862 -0.000183925 -0.000172688 -8.51027e-05
0.000583627 -0.000182791 -0.000171787 -8.49871e-05
0.00176232 -0.000535179 -0.000525919 -7.07394e-05
0.00177204 -0.00053829 -0.000528751 -7.06945e-05
0.000585239 -0.00018335 -0.000172238 -8.50336e-05
0.00117288 -0.000359134 -0.000348746 -7.96351e-05
0.00176717 -0.00053672 -0.000527335 -7.07186e-05
0.00117938 -0.000361287 -0.00035061 -7.96759e-05
0.00117611 -0.000360198 -0.000349679 -7.96494e-05
0.000583627 -0.000182791 -0.000171787 -8.49871e-05
0.000580438 -0.000181705 -0.000170885 -8.49379e-05
0.00175268 -0.000532149 -0.000523085 -7.07708e-05
0.00176232 -0.000535179 -0.000525919 -7.07394e-05
0.000582027 -0.000182243 -0.000171336 -8.49568e-05
0.00116645 -0.000357061 -0.00034688 -7.96242e-05
0.0017575 -0.000533656 -0.000524503 -7.07568e-05
0.00117288 -0.000359134 -0.000348746 -7.96351e-05
0.00116966 -0.00035809 -0.000347814 -7.96277e-05
0.000580438 -0.000181705 -0.000170885 -8.49379e-05
0.000577277 -0.000180646 -0.000169985 -8.49203e-05
0.00174307 -0.000529161 -0.000520246 -7.07913e-05
0.00175268 -0.000532149 -0.000523085 -7.07708e-05
0.000578856 -0.000181173 -0.000170435 -8.49266e-05
0.00116006 -0.000355029 -0.000345012 -7.96258e-05
0.00174787 -0.000530651 -0.000521666 -7.07821e-05
0.00116645 -0.000357061 -0.00034688 -7.96242e-05
0.00116325 -0.000356041 -0.000345947 -7.96241e-05
0.000577277 -0.000180646 -0.000169985 -8.49203e-05
0.00057413 -0.000179603 -0.000169083 -8.49162e-05
0.00173347 -0.000526196 -0.000517405 -7.08046e-05
0.00174307 -0.000529161 -0.000520246 -7.07913e-05
0.000575702 -0.000180123 -0.000169534 -8.49173e-05
0.00115369 -0.00035302 -0.000343142 -7.96309e-05
0.00173827 -0.000527677 -0.000518826 -7.07987e-05
0.00116006 -0.000355029 -0.000345012 -7.96258e-05
0.00115687 -0.000354023 -0.000344078 -7.96283e-05
0.00057413 -0.000179603 -0.000169083 -8.49162e-05
0.000570991 -0.000178569 -0.000168181 -8.49169e-05
0.00172389 -0.000523242 -0.000514561 -7.08128e-05
0.00173347 -0.000526196 -0.000517405 -7.08046e-05
0.00057256 -0.000179086 -0.000168632 -8.49162e-05
0.00114732 -0.000351023 -0.000341271 -7.9636e-05
0.00172868 -0.000524718 -0.000515983 -7.08092e-05
0.00115369 -0.00035302 -0.000343142 -7.96309e-05
0.0011505 -0.000352021 -0.000342207 -7.96335e-05
0.000570991 -0.000178569 -0.000168181 -8.49169e-05
0.000567855 -0.000177541 -0.000167277 -8.49186e-05
0.0017143 -0.000520293 -0.000511717 -7.08175e-05
0.00172389 -0.000523242 -0.000514561 -7.08128e-05
0.000569423 -0.000178055 -0.000167729 -8.49177e-05
0.00114096 -0.000349033 -0.000339398 -7.96397e-05
0.00171909 -0.000521767 -0.000513139 -7.08155e-05
0.00114732 -0.000351023 -0.000341271 -7.9636e-05
0.00114414 -0.000350028 -0.000340335 -7.96381e-05
0.000567855 -0.000177541 -0.000167277 -8.49186e-05
0.000564722 -0.000176516 -0.000166374 -8.49201e-05
0.00170471 -0.000517347 -0.000508871 -7.082e-05
0.0017143 -0.000520293 -0.000511717 -7.08175e-05
0.000566288 -0.000177028 -0.000166826 -8.49194e-05
0.0011346 -0.000347046 -0.000337524 -7.96421e-05
0.00170951 -0.00051882 -0.000510294 -7.0819e-05
0.00114096 -0.000349033 -0.000339398 -7.96397e-05
0.00113778 -0.000348039 -0.000338461 -7.96411e-05
0.000564722 -0.000176516 -0.000166374 -8.49201e-05
0.000561589 -0.000175494 -0.000165469 -8.49208e-05
0.00169513 -0.000514403 -0.000506024 -7.0821e-05
0.00170471 -0.000517347 -0.000508871 -7.082e-05
0.000563155 -0.000176005 -0.000165922 -8.49205e-05
0.00112824 -0.000345061 -0.00033565 -7.96432e-05
0.00169992 -0.000515875 -0.000507448 -7.08207e-05
0.0011346 -0.000347046 -0.000337524 -7.96421e-05
0.00113142 -0.000346053 -0.000336587 -7.96428e-05
0.000561589 -0.000175494 -0.000165469 -8.49208e-05
0.000558457 -0.000174473 -0.000164565 -8.49209e-05
0.00168554 -0.000511459 -0.000503177 -7.0821e-05
0.00169513 -0.000514403 -0.000506024 -7.0821e-05
0.000560023 -0.000174983 -0.000165017 -8.49209e-05
0.00112189 -0.000343078 -0.000333775 -7.96433e-05
0.00169033 -0.000512931 -0.000504601 -7.08211e-05
0.00112824 -0.000345061 -0.00033565 -7.96432e-05
0.00112507 -0.000344069 -0.000334713 -7.96433e-05
0.000558457 -0.000174473 -0.000164565 -8.49209e-05
0.000555324 -0.000173453 -0.000163659 -8.49205e-05
0.00167595 -0.000508517 -0.000500329 -7.08204e-05
0.00168554 -0.000511459 -0.000503177 -7.0821e-05
0.00055689 -0.000173963 -0.000164112 -8.49208e-05
0.00111553 -0.000341095 -0.0003319 -7.96429e-05
0.00168075 -0.000509988 -0.000501753 -7.08208e-05
0.00112189 -0.000343078 -0.000333775 -7.96433e-05
0.00111871 -0.000342086 -0.000332838 -7.96432e-05
0.000555324 -0.000173453 -0.000163659 -8.49205e-05
0.000552191 -0.000172434 -0.000162753 -8.49197e-05
0.00166636 -0.000505574 -0.000497481 -7.08194e-05
0.00167595 -0.000508517 -0.000500329 -7.08204e-05
0.000553758 -0.000172943 -0.000163206 -8.49201e-05
0.00110917 -0.000339113 -0.000330024 -7.9642e-05
0.00167116 -0.000507045 -0.000498905 -7.082e-05
0.00111553 -0.000341095 -0.0003319 -7.96429e-05
0.00111235 -0.000340104 -0.000330962 -7.96425e-05
0.000552191 -0.000172434 -0.000162753 -8.49197e-05
0.000549058 -0.000171415 -0.000161847 -8.49187e-05
0.00165678 -0.000502632 -0.000494633 -7.08182e-05
0.00166636 -0.000505574 -0.000497481 -7.08194e-05
0.000550625 -0.000171924 -0.0001623 -8.49192e-05
0.00110281 -0.000337131 -0.000328148 -7.96409e-05
0.00166157 -0.000504103 -0.000496057 -7.08188e-05
0.00110917 -0.000339113 -0.000330024 -7.9642e-05
0.00110599 -0.000338122 -0.000329086 -7.96415e-05
0.000549058 -0.000171415 -0.000161847 -8.49187e-05
0.000545925 -0.000170397 -0.00016094 -8.49176e-05
0.00164719 -0.00049969 -0.000491784 -7.08168e-05
0.00165678 -0.000502632 -0.000494633 -7.08182e-05
0.000547491 -0.000170906 -0.000161394 -8.49182e-05
0.00109645 -0.00033515 -0.000326271 -7.96396e-05
0.00165198 -0.000501161 -0.000493209 -7.08175e-05
0.00110281 -0.000337131 -0.000328148 -7.96409e-05
0.00109963 -0.000336141 -0.00032721 -7.96403e-05
0.000545925 -0.000170397 -0.00016094 -8.49176e-05
0.000542791 -0.000169379 -0.000160033 -8.49163e-05
0.0016376 -0.000496749 -0.000488935 -7.08154e-05
0.00164719 -0.00049969 -0.000491784 -7.08168e-05
0.000544358 -0.000169888 -0.000160487 -8.4917e-05
0.00109009 -0.000333169 -0.000324394 -7.96382e-05
0.00164239 -0.00049822 -0.00049036 -7.08161e-05
0.00109645 -0.00033515 -0.000326271 -7.96396e-05
0.00109327 -0.00033416 -0.000325333 -7.96389e-05
0.000542791 -0.000169379 -0.000160033 -8.49163e-05
0.000539656 -0.000168362 -0.000159126 -8.49151e-05
0.00162801 -0.000493808 -0.000486086 -7.0814e-05
0.0016376 -0.000496749 -0.000488935 -7.08154e-05
0.000541223 -0.000168871 -0.00015958 -8.49157e-05
0.00108373 -0.000331189 -0.000322517 -7.96368e-05
0.0016328 -0.000495278 -0.000487511 -7.08147e-05
0.00109009 -0.000333169 -0.000324394 -7.96382e-05
0.00108691 -0.000332179 -0.000323456 -7.96375e-05
0.000539656 -0.000168362 -0.000159126 -8.49151e-05
0.000536521 -0.000167345 -0.000158218 -8.49137e-05
0.00161842 -0.000490867 -0.000483236 -7.08125e-05
0.00162801 -0.000493808 -0.000486086 -7.0814e-05
0.000538089 -0.000167854 -0.000158672 -8.49144e-05
0.00107737 -0.000329209 -0.000320639 -7.96354e-05
0.00162321 -0.000492337 -0.000484661 -7.08132e-05
0.00108373 -0.000331189 -0.000322517 -7.96368e-05
0.00108055 -0.000330199 -0.000321578 -7.96361e-05
0.000536521 -0.000167345 -0.000158218 -8.49137e-05
0.000533386 -0.000166329 -0.00015731 -8.49124e-05
0.00160883 -0.000487927 -0.000480387 -7.0811e-05
0.00161842 -0.000490867 -0.000483236 -7.08125e-05
0.000534953 -0.000166837 -0.000157764 -8.49131e-05
0.00107101 -0.000327229 -0.000318761 -7.96339e-05
0.00161362 -0.000489397 -0.000481812 -7.08117e-05
0.00107737 -0.000329209 -0.000320639 -7.96354e-05
0.00107419 -0.000328219 -0.0003197 -7.96346e-05
0.000533386 -0.000166329 -0.00015731 -8.49124e-05
0.00053025 -0.000165312 -0.000156402 -8.4911e-05
0.00159924 -0.000484986 -0.000477537 -7.08095e-05
0.00160883 -0.000487927 -0.000480387 -7.0811e-05
0.000531818 -0.00016582 -0.000156856 -8.49117e-05
0.00106464 -0.00032525 -0.000316883 -7.96324e-05
0.00160403 -0.000486456 -0.000478962 -7.08102e-05
0.00107101 -0.000327229 -0.000318761 -7.96339e-05
0.00106782 -0.000326239 -0.000317822 -7.96331e-05
0.00053025 -0.000165312 -0.000156402 -8.4911e-05
0.000527113 -0.000164296 -0.000155493 -8.49096e-05
0.00158965 -0.000482046 -0.000474686 -7.0808e-05
0.00159924 -0.000484986 -0.000477537 -7.08095e-05
0.000528681 -0.000164804 -0.000155947 -8.49103e-05
0.00105828 -0.00032327 -0.000315005 -7.96309e-05
0.00159444 -0.000483516 -0.000476111 -7.08087e-05
0.00106464 -0.00032525 -0.000316883 -7.96324e-05
0.00106146 -0.00032426 -0.000315944 -7.96316e-05
0.000527113 -0.000164296 -0.000155493 -8.49096e-05
0.000523976 -0.00016328 -0.000154584 -8.49082e-05
0.00158006 -0.000479107 -0.000471836 -7.08065e-05
0.00158965 -0.000482046 -0.000474686 -7.0808e-05
0.000525545 -0.000163788 -0.000155038 -8.49089e-05
0.00105192 -0.000321292 -0.000313126 -7.96294e-05
0.00158485 -0.000480576 -0.000473261 -7.08072e-05
0.00105828 -0.00032327 -0.000315005 -7.96309e-05
0.0010551 -0.000322281 -0.000314065 -7.96301e-05
0.000523976 -0.00016328 -0.000154584 -8.49082e-05
0.000520839 -0.000162265 -0.000153674 -8.49067e-05
0.00157046 -0.000476167 -0.000468985 -7.0805e-05
0.00158006 -0.000479107 -0.000471836 -7.08065e-05
0.000522407 -0.000162773 -0.000154129 -8.49075e-05
0.00104556 -0.000319313 -0.000311247 -7.96278e-05
0.00157526 -0.000477637 -0.00047041 -7.08057e-05
0.00105192 -0.000321292 -0.000313126 -7.96294e-05
0.00104874 -0.000320302 -0.000312186 -7.96286e-05
0.000520839 -0.000162265 -0.000153674 -8.49067e-05
0.000517701 -0.00016125 -0.000152765 -8.49053e-05
0.00156087 -0.000473228 -0.000466134 -7.08034e-05
0.00157046 -0.000476167 -0.000468985 -7.0805e-05
0.00051927 -0.000161757 -0.00015322 -8.4906e-05
0.00103919 -0.000317335 -0.000309367 -7.96263e-05
0.00156567 -0.000474698 -0.000467559 -7.08042e-05
0.00104556 -0.000319313 -0.000311247 -7.96278e-05
0.00104237 -0.000318324 -0.000310307 -7.96271e-05
0.000517701 -0.00016125 -0.000152765 -8.49053e-05
0.000514562 -0.000160235 -0.000151854 -8.49038e-05
0.00155128 -0.000470289 -0.000463282 -7.08019e-05
0.00156087 -0.000473228 -0.000466134 -7.08034e-05
0.000516131 -0.000160742 -0.00015231 -8.49045e-05
0.00103283 -0.000315357 -0.000307488 -7.96247e-05
0.00155608 -0.000471759 -0.000464708 -7.08026e-05
0.00103919 -0.000317335 -0.000309367 -7.96263e-05
0.00103601 -0.000316346 -0.000308428 -7.96255e-05
0.000514562 -0.000160235 -0.000151854 -8.49038e-05
0.000511423 -0.000159221 -0.000150944 -8.49023e-05
0.00154169 -0.000467351 -0.000460431 -7.08003e-05
0.00155128 -0.000470289 -0.000463282 -7.08019e-05
0.000512993 -0.000159728 -0.000151399 -8.4903e-05
0.00102646 -0.000313379 -0.000305608 -7.96231e-05
0.00154649 -0.00046882 -0.000461856 -7.08011e-05
0.00103283 -0.000315357 -0.000307488 -7.96247e-05
0.00102965 -0.000314368 -0.000306548 -7.96239e-05
0.000511423 -0.000159221 -0.000150944 -8.49023e-05
0.000508284 -0.000158206 -0.000150033 -8.49007e-05
0.0015321 -0.000464412 -0.000457579 -7.07987e-05
0.00154169 -0.000467351 -0.000460431 -7.08003e-05
0.000509854 -0.000158713 -0.000150489 -8.49015e-05
0.0010201 -0.000311401 -0.000303727 -7.96215e-05
0.00153689 -0.000465881 -0.000459005 -7.07995e-05
0.00102646 -0.000313379 -0.000305608 -7.96231e-05
0.00102328 -0.00031239 -0.000304667 -7.96223e-05
0.000508284 -0.000158206 -0.000150033 -8.49007e-05
0.000505144 -0.000157193 -0.000149122 -8.48992e-05
0.0015225 -0.000461474 -0.000454727 -7.07971e-05
0.0015321 -0.000464412 -0.000457579 -7.07987e-05
0.000506714 -0.000157699 -0.000149578 -8.49e-05
0.00101373 -0.000309424 -0.000301847 -7.96199e-05
0.0015273 -0.000462943 -0.000456153 -7.07979e-05
0.0010201 -0.000311401 -0.000303727 -7.96215e-05
0.00101692 -0.000310413 -0.000302787 -7.96207e-05
0.000505144 -0.000157193 -0.000149122 -8.48992e-05
0.000502004 -0.000156179 -0.000148211 -8.48976e-05
0.00151291 -0.000458537 -0.000451874 -7.07955e-05
0.0015225 -0.000461474 -0.000454727 -7.07971e-05
0.000503574 -0.000156686 -0.000148666 -8.48984e-05
0.00100737 -0.000307448 -0.000299966 -7.96182e-05
0.00151771 -0.000460005 -0.0004533 -7.07963e-05
0.00101373 -0.000309424 -0.000301847 -7.96199e-05
0.00101055 -0.000308436 -0.000300906 -7.96191e-05
0.000502004 -0.000156179 -0.000148211 -8.48976e-05
0.000498863 -0.000155166 -0.000147299 -8.4896e-05
0.00150332 -0.000455599 -0.000449022 -7.07939e-05
0.00151291 -0.000458537 -0.000451874 -7.07955e-05
0.000500433 -0.000155672 -0.000147755 -8.48968e-05
0.001001 -0.000305471 -0.000298084 -7.96166e-05
0.00150811 -0.000457068 -0.000450448 -7.07947e-05
0.00100737 -0.000307448 -0.000299966 -7.96182e-05
0.00100418 -0.000306459 -0.000299025 -7.96174e-05
0.000498863 -0.000155166 -0.000147299 -8.4896e-05
0.000495722 -0.000154153 -0.000146387 -8.48944e-05
0.00149372 -0.000452662 -0.000446169 -7.07922e-05
0.00150332 -0.000455599 -0.000449022 -7.07939e-05
0.000497292 -0.000154659 -0.000146843 -8.48952e-05
0.000994635 -0.000303495 -0.000296203 -7.96149e-05
0.00149852 -0.000454131 -0.000447595 -7.07931e-05
0.001001 -0.000305471 -0.000298084 -7.96166e-05
0.000997818 -0.000304483 -0.000297144 -7.96157e-05
0.000495722 -0.000154153 -0.000146387 -8.48944e-05
0.00049258 -0.00015314 -0.000145474 -8.48928e-05
0.00148413 -0.000449725 -0.000443316 -7.07906e-05
0.00149372 -0.000452662 -0.000446169 -7.07922e-05
0.000494151 -0.000153646 -0.00014593 -8.48936e-05
0.000988268 -0.000301519 -0.000294321 -7.96132e-05
0.00148893 -0.000451194 -0.000444742 -7.07914e-05
0.000994635 -0.000303495 -0.000296203 -7.96149e-05
0.000991451 -0.000302507 -0.000295262 -7.9614e-05
0.00049258 -0.00015314 -0.000145474 -8.48928e-05
0.000489438 -0.000152128 -0.000144561 -8.48911e-05
0.00147453 -0.000446789 -0.000440462 -7.07889e-05
0.00148413 -0.000449725 -0.000443316 -7.07906e-05
0.000491009 -0.000152634 -0.000145018 -8.48919e-05
0.000981901 -0.000299543 -0.000292439 -7.96115e-05
0.00147933 -0.000448257 -0.000441889 -7.07897e-05
0.000988268 -0.000301519 -0.000294321 -7.96132e-05
0.000985084 -0.000300531 -0.00029338 -7.96123e-05
0.000489438 -0.000152128 -0.000144561 -8.48911e-05
0.000486295 -0.000151116 -0.000143648 -8.48894e-05
0.00146494 -0.000443852 -0.000437609 -7.07872e-05
0.00147453 -0.000446789 -0.000440462 -7.07889e-05
0.000487866 -0.000151622 -0.000144105 -8.48903e-05
0.000975533 -0.000297568 -0.000290556 -7.96097e-05
0.00146974 -0.00044532 -0.000439035 -7.0788e-05
0.000981901 -0.000299543 -0.000292439 -7.96115e-05
0.000978717 -0.000298556 -0.000291498 -7.96106e-05
0.000486295 -0.000151116 -0.000143648 -8.48894e-05
0.000483152 -0.000150104 -0.000142735 -8.48877e-05
0.00145534 -0.000440916 -0.000434755 -7.07855e-05
0.00146494 -0.000443852 -0.000437609 -7.07872e-05
0.000484724 -0.00015061 -0.000143192 -8.48886e-05
0.000969165 -0.000295593 -0.000288674 -7.9608e-05
0.00146014 -0.000442384 -0.000436182 -7.07863e-05
0.000975533 -0.000297568 -0.000290556 -7.96097e-05
0.000972349 -0.000296581 -0.000289615 -7.96089e-05
0.000483152 -0.000150104 -0.000142735 -8.48877e-05
0.000480008 -0.000149093 -0.000141821 -8.4886e-05
0.00144575 -0.000437981 -0.000431901 -7.07837e-05
0.00145534 -0.000440916 -0.000434755 -7.07855e-05
0.00048158 -0.000149598 -0.000142278 -8.48869e-05
0.000962797 -0.000293619 -0.000286791 -7.96062e-05
0.00145055 -0.000439448 -0.000433328 -7.07846e-05
0.000969165 -0.000295593 -0.000288674 -7.9608e-05
0.000965981 -0.000294606 -0.000287732 -7.96071e-05
0.000480008 -0.000149093 -0.000141821 -8.4886e-05
0.000476864 -0.000148082 -0.000140907 -8.48843e-05
0.00143615 -0.000435045 -0.000429046 -7.0782e-05
0.00144575 -0.000437981 -0.000431901 -7.07837e-05
0.000478436 -0.000148587 -0.000141364 -8.48852e-05
0.000956428 -0.000291644 -0.000284907 -7.96044e-05
0.00144095 -0.000436513 -0.000430473 -7.07829e-05
0.000962797 -0.000293619 -0.000286791 -7.96062e-05
0.000959613 -0.000292631 -0.000285849 -7.96053e-05
0.000476864 -0.000148082 -0.000140907 -8.48843e-05
0.00047372 -0.000147071 -0.000139992 -8.48826e-05
0.00142656 -0.00043211 -0.000426192 -7.07802e-05
0.00143615 -0.000435045 -0.000429046 -7.0782e-05
0.000475292 -0.000147576 -0.00014045 -8.48834e-05
0.000950059 -0.00028967 -0.000283024 -7.96026e-05
0.00143136 -0.000433578 -0.000427619 -7.07811e-05
0.000956428 -0.000291644 -0.000284907 -7.96044e-05
0.000953244 -0.000290657 -0.000283966 -7.96035e-05
0.00047372 -0.000147071 -0.000139992 -8.48826e-05
0.000470575 -0.000146061 -0.000139078 -8.48808e-05
0.00141696 -0.000429175 -0.000423337 -7.07785e-05
0.00142656 -0.00043211 -0.000426192 -7.07802e-05
0.000472147 -0.000146566 -0.000139535 -8.48817e-05
0.00094369 -0.000287697 -0.00028114 -7.96008e-05
0.00142176 -0.000430643 -0.000424764 -7.07794e-05
0.000950059 -0.00028967 -0.000283024 -7.96026e-05
0.000946874 -0.000288683 -0.000282082 -7.96017e-05
0.000470575 -0.000146061 -0.000139078 -8.48808e-05
0.00046743 -0.00014505 -0.000138162 -8.4879e-05
0.00140736 -0.000426241 -0.000420482 -7.07767e-05
0.00141696 -0.000429175 -0.000423337 -7.07785e-05
0.000469002 -0.000145555 -0.00013862 -8.48799e-05
0.00093732 -0.000285723 -0.000279256 -7.95989e-05
0.00141216 -0.000427708 -0.000421909 -7.07776e-05
0.00094369 -0.000287697 -0.00028114 -7.96008e-05
0.000940505 -0.00028671 -0.000280198 -7.95999e-05
0.00046743 -0.00014505 -0.000138162 -8.4879e-05
0.000464284 -0.000144041 -0.000137247 -8.48772e-05
0.00139777 -0.000423307 -0.000417626 -7.07749e-05
0.00140736 -0.000426241 -0.000420482 -7.07767e-05
0.000465857 -0.000144546 -0.000137705 -8.48781e-05
0.00093095 -0.00028375 -0.000277371 -7.95971e-05
0.00140257 -0.000424774 -0.000419054 -7.07758e-05
0.00093732 -0.000285723 -0.000279256 -7.95989e-05
0.000934135 -0.000284737 -0.000278313 -7.9598e-05
0.000464284 -0.000144041 -0.000137247 -8.48772e-05
0.000461137 -0.000143031 -0.000136331 -8.48754e-05
0.00138817 -0.000420373 -0.000414771 -7.07731e-05
0.00139777 -0.000423307 -0.000417626 -7.07749e-05
0.000462711 -0.000143536 -0.000136789 -8.48763e-05
0.000924579 -0.000281777 -0.000275486 -7.95952e-05
0.00139297 -0.00042184 -0.000416198 -7.0774e-05
0.00093095 -0.00028375 -0.000277371 -7.95971e-05
0.000927764 -0.000282764 -0.000276429 -7.95962e-05
0.000461137 -0.000143031 -0.000136331 -8.48754e-05
0.000457991 -0.000142022 -0.000135415 -8.48736e-05
0.00137857 -0.000417439 -0.000411915 -7.07713e-05
0.00138817 -0.000420373 -0.000414771 -7.07731e-05
0.000459564 -0.000142527 -0.000135873 -8.48745e-05
0.000918208 -0.000279805 -0.000273601 -7.95933e-05
0.00138337 -0.000418906 -0.000413343 -7.07722e-05
0.000924579 -0.000281777 -0.000275486 -7.95952e-05
0.000921393 -0.000280791 -0.000274544 -7.95943e-05
0.000457991 -0.000142022 -0.000135415 -8.48736e-05
0.000454843 -0.000141013 -0.000134499 -8.48718e-05
0.00136898 -0.000414506 -0.000409059 -7.07694e-05
0.00137857 -0.000417439 -0.000411915 -7.07713e-05
0.000456417 -0.000141518 -0.000134957 -8.48727e-05
0.000911837 -0.000277833 -0.000271716 -7.95915e-05
0.00137377 -0.000415972 -0.000410487 -7.07703e-05
0.000918208 -0.000279805 -0.000273601 -7.95933e-05
0.000915022 -0.000278819 -0.000272659 -7.95924e-05
0.000454843 -0.000141013 -0.000134499 -8.48718e-05
0.000451696 -0.000140005 -0.000133582 -8.48699e-05
0.00135938 -0.000411573 -0.000406202 -7.07676e-05
0.00136898 -0.000414506 -0.000409059 -7.07694e-05
0.00045327 -0.000140509 -0.00013404 -8.48708e-05
0.000905465 -0.000275861 -0.00026983 -7.95895e-05
0.00136418 -0.000413039 -0.000407631 -7.07685e-05
0.000911837 -0.000277833 -0.000271716 -7.95915e-05
0.000908651 -0.000276847 -0.000270773 -7.95905e-05
0.000451696 -0.000140005 -0.000133582 -8.48699e-05
0.000448548 -0.000138997 -0.000132665 -8.48681e-05
0.00134978 -0.00040864 -0.000403346 -7.07657e-05
0.00135938 -0.000411573 -0.000406202 -7.07676e-05
0.000450122 -0.000139501 -0.000133123 -8.4869e-05
0.000899093 -0.00027389 -0.000267944 -7.95876e-05
0.00135458 -0.000410106 -0.000404774 -7.07667e-05
0.000905465 -0.000275861 -0.00026983 -7.95895e-05
0.000902279 -0.000274875 -0.000268887 -7.95886e-05
0.000448548 -0.000138997 -0.000132665 -8.48681e-05
0.000445399 -0.000137989 -0.000131747 -8.48662e-05
0.00134018 -0.000405708 -0.000400489 -7.07639e-05
0.00134978 -0.00040864 -0.000403346 -7.07657e-05
0.000446973 -0.000138493 -0.000132206 -8.48671e-05
0.00089272 -0.000271918 -0.000266058 -7.95857e-05
0.00134498 -0.000407174 -0.000401917 -7.07648e-05
0.000899093 -0.00027389 -0.000267944 -7.95876e-05
0.000895907 -0.000272904 -0.000267001 -7.95867e-05
0.000445399 -0.000137989 -0.000131747 -8.48662e-05
0.00044225 -0.000136981 -0.000130829 -8.48643e-05
0.00133058 -0.000402776 -0.000397632 -7.0762e-05
0.00134018 -0.000405708 -0.000400489 -7.07639e-05
0.000443824 -0.000137485 -0.000131288 -8.48652e-05
0.000886347 -0.000269948 -0.000264171 -7.95838e-05
0.00133538 -0.000404242 -0.00039906 -7.07629e-05
0.00089272 -0.000271918 -0.000266058 -7.95857e-05
0.000889534 -0.000270933 -0.000265115 -7.95847e-05
0.00044225 -0.000136981 -0.000130829 -8.48643e-05
0.0004391 -0.000135974 -0.000129911 -8.48624e-05
0.00132098 -0.000399844 -0.000394775 -7.07601e-05
0.00133058 -0.000402776 -0.000397632 -7.0762e-05
0.000440675 -0.000136477 -0.00013037 -8.48633e-05
0.000879974 -0.000267977 -0.000262285 -7.95818e-05
0.00132578 -0.00040131 -0.000396203 -7.0761e-05
0.000886347 -0.000269948 -0.000264171 -7.95838e-05
0.000883161 -0.000268962 -0.000263228 -7.95828e-05
0.0004391 -0.000135974 -0.000129911 -8.48624e-05
0.00043595 -0.000134967 -0.000128993 -8.48605e-05
0.00131139 -0.000396912 -0.000391917 -7.07582e-05
0.00132098 -0.000399844 -0.000394775 -7.07601e-05
0.000437525 -0.00013547 -0.000129452 -8.48614e-05
0.000873601 -0.000266007 -0.000260397 -7.95799e-05
0.00131618 -0.000398378 -0.000393346 -7.07592e-05
0.000879974 -0.000267977 -0.000262285 -7.95818e-05
0.000876788 -0.000266992 -0.000261341 -7.95808e-05
0.00043595 -0.000134967 -0.000128993 -8.48605e-05
0.0004328 -0.00013396 -0.000128074 -8.48586e-05
0.00130179 -0.000393981 -0.000389059 -7.07563e-05
0.00131139 -0.000396912 -0.000391917 -7.07582e-05
0.000434375 -0.000134464 -0.000128534 -8.48595e-05
0.000867227 -0.000264037 -0.00025851 -7.95779e-05
0.00130659 -0.000395447 -0.000390488 -7.07573e-05
0.000873601 -0.000266007 -0.000260397 -7.95799e-05
0.000870414 -0.000265022 -0.000259454 -7.95789e-05
0.0004328 -0.00013396 -0.000128074 -8.48586e-05
0.000429649 -0.000132954 -0.000127155 -8.48567e-05
0.00129219 -0.00039105 -0.000386201 -7.07544e-05
0.00130179 -0.000393981 -0.000389059 -7.07563e-05
0.000431225 -0.000133457 -0.000127615 -8.48576e-05
0.000860853 -0.000262067 -0.000256622 -7.95759e-05
0.00129699 -0.000392516 -0.00038763 -7.07554e-05
0.000867227 -0.000264037 -0.00025851 -7.95779e-05
0.00086404 -0.000263052 -0.000257566 -7.95769e-05
0.000429649 -0.000132954 -0.000127155 -8.48567e-05
0.000426498 -0.000131948 -0.000126236 -8.48547e-05
0.00128259 -0.00038812 -0.000383343 -7.07525e-05
0.00129219 -0.00039105 -0.000386201 -7.07544e-05
0.000428074 -0.000132451 -0.000126695 -8.48557e-05
0.000854478 -0.000260098 -0.000254734 -7.95739e-05
0.00128739 -0.000389585 -0.000384772 -7.07534e-05
0.000860853 -0.000262067 -0.000256622 -7.95759e-05
0.000857665 -0.000261083 -0.000255678 -7.95749e-05
0.000426498 -0.000131948 -0.000126236 -8.48547e-05
0.000423346 -0.000130942 -0.000125316 -8.48528e-05
0.00127299 -0.000385189 -0.000380484 -7.07506e-05
0.00128259 -0.00038812 -0.000383343 -7.07525e-05
0.000424922 -0.000131445 -0.000125776 -8.48537e-05
0.000848103 -0.000258129 -0.000252846 -7.95719e-05
0.00127779 -0.000386654 -0.000381914 -7.07515e-05
0.000854478 -0.000260098 -0.000254734 -7.95739e-05
0.00085129 -0.000259114 -0.00025379 -7.95729e-05
0.000423346 -0.000130942 -0.000125316 -8.48528e-05
0.000420194 -0.000129937 -0.000124396 -8.48508e-05
0.00126339 -0.000382259 -0.000377626 -7.07486e-05
0.00127299 -0.000385189 -0.000380484 -7.07506e-05
0.00042177 -0.00013044 -0.000124856 -8.48518e-05
0.000841728 -0.000256161 -0.000250957 -7.95699e-05
0.00126819 -0.000383724 -0.000379055 -7.07496e-05
0.000848103 -0.000258129 -0.000252846 -7.95719e-05
0.000844915 -0.000257145 -0.000251902 -7.95709e-05
0.000420194 -0.000129937 -0.000124396 -8.48508e-05
0.000417041 -0.000128932 -0.000123475 -8.48489e-05
0.00125378 -0.00037933 -0.000374767 -7.07467e-05
0.00126339 -0.000382259 -0.000377626 -7.07486e-05
0.000418618 -0.000129435 -0.000123936 -8.48498e-05
0.000835352 -0.000254192 -0.000249068 -7.95679e-05
0.00125859 -0.000380794 -0.000376196 -7.07477e-05
0.000841728 -0.000256161 -0.000250957 -7.95699e-05
0.00083854 -0.000255176 -0.000250013 -7.95689e-05
0.000417041 -0.000128932 -0.000123475 -8.48489e-05
0.000413888 -0.000127927 -0.000122555 -8.48469e-05
0.00124418 -0.0003764 -0.000371907 -7.07448e-05
0.00125378 -0.00037933 -0.000374767 -7.07467e-05
0.000415465 -0.00012843 -0.000123015 -8.48479e-05
0.000828976 -0.000252224 -0.000247179 -7.95659e-05
0.00124898 -0.000377865 -0.000373337 -7.07457e-05
0.000835352 -0.000254192 -0.000249068 -7.95679e-05
0.000832164 -0.000253208 -0.000248124 -7.95669e-05
0.000413888 -0.000127927 -0.000122555 -8.48469e-05
0.000410735 -0.000126923 -0.000121634 -8.48449e-05
0.00123458 -0.000373471 -0.000369048 -7.07428e-05
0.00124418 -0.0003764 -0.000371907 -7.07448e-05
0.000412311 -0.000127425 -0.000122094 -8.48459e-05
0.000822599 -0.000250257 -0.00024529 -7.95639e-05
0.00123938 -0.000374936 -0.000370478 -7.07438e-05
0.000828976 -0.000252224 -0.000247179 -7.95659e-05
0.000825788 -0.00025124 -0.000246234 -7.95649e-05
0.000410735 -0.000126923 -0.000121634 -8.48449e-05
0.000407581 -0.000125919 -0.000120712 -8.48429e-05
0.00122498 -0.000370542 -0.000366188 -7.07409e-05
0.00123458 -0.000373471 -0.000369048 -7.07428e-05
0.000409158 -0.000126421 -0.000121173 -8.48439e-05
0.000816222 -0.000248289 -0.0002434 -7.95619e-05
0.00122978 -0.000372007 -0.000367618 -7.07418e-05
0.000822599 -0.000250257 -0.00024529 -7.95639e-05
0.000819411 -0.000249273 -0.000244345 -7.95629e-05
0.000407581 -0.000125919 -0.000120712 -8.48429e-05
0.000404426 -0.000124915 -0.00011979 -8.4841e-05
0.00121538 -0.000367614 -0.000363328 -7.07389e-05
0.00122498 -0.000370542 -0.000366188 -7.07409e-05
0.000406003 -0.000125417 -0.000120251 -8.4842e-05
0.000809845 -0.000246322 -0.00024151 -7.95598e-05
0.00122018 -0.000369078 -0.000364758 -7.07399e-05
0.000816222 -0.000248289 -0.0002434 -7.95619e-05
0.000813034 -0.000247306 -0.000242455 -7.95609e-05
0.000404426 -0.000124915 -0.00011979 -8.4841e-05
0.000401271 -0.000123912 -0.000118868 -8.4839e-05
0.00120578 -0.000364686 -0.000360468 -7.07369e-05
0.00121538 -0.000367614 -0.000363328 -7.07389e-05
0.000402849 -0.000124413 -0.000119329 -8.484e-05
0.000803468 -0.000244356 -0.00023962 -7.95578e-05
0.00121058 -0.00036615 -0.000361898 -7.07379e-05
0.000809845 -0.000246322 -0.00024151 -7.95598e-05
0.000806657 -0.000245339 -0.000240565 -7.95588e-05
0.000401271 -0.000123912 -0.000118868 -8.4839e-05
0.000398116 -0.000122909 -0.000117946 -8.4837e-05
0.00119618 -0.000361758 -0.000357608 -7.0735e-05
0.00120578 -0.000364686 -0.000360468 -7.07369e-05
0.000399694 -0.00012341 -0.000118407 -8.4838e-05
0.00079709 -0.000242389 -0.000237729 -7.95558e-05
0.00120098 -0.000363222 -0.000359038 -7.0736e-05
0.000803468 -0.000244356 -0.00023962 -7.95578e-05
0.000800279 -0.000243372 -0.000238674 -7.95568e-05
0.000398116 -0.000122909 -0.000117946 -8.4837e-05
0.00039496 -0.000121906 -0.000117023 -8.4835e-05
0.00118657 -0.00035883 -0.000354747 -7.0733e-05
0.00119618 -0.000361758 -0.000357608 -7.0735e-05
0.000396538 -0.000122407 -0.000117485 -8.4836e-05
0.000790712 -0.000240423 -0.000235838 -7.95537e-05
0.00119137 -0.000360294 -0.000356177 -7.0734e-05
0.00079709 -0.000242389 -0.000237729 -7.95558e-05
0.000793901 -0.000241406 -0.000236783 -7.95547e-05
0.00039496 -0.000121906 -0.000117023 -8.4835e-05
0.000391804 -0.000120904 -0.0001161 -8.4833e-05
0.00117697 -0.000355903 -0.000351886 -7.0731e-05
0.00118657 -0.00035883 -0.000354747 -7.0733e-05
0.000393382 -0.000121405 -0.000116562 -8.4834e-05
0.000784333 -0.000238457 -0.000233947 -7.95517e-05
0.00118177 -0.000357366 -0.000353317 -7.0732e-05
0.000790712 -0.000240423 -0.000235838 -7.95537e-05
0.000787522 -0.00023944 -0.000234892 -7.95527e-05
0.000391804 -0.000120904 -0.0001161 -8.4833e-05
0.000388647 -0.000119901 -0.000115177 -8.4831e-05
0.00116737 -0.000352976 -0.000349025 -7.07291e-05
0.00117697 -0.000355903 -0.000351886 -7.0731e-05
0.000390225 -0.000120402 -0.000115638 -8.4832e-05
0.000777954 -0.000236492 -0.000232055 -7.95496e-05
0.00117217 -0.000354439 -0.000350455 -7.073e-05
0.000784333 -0.000238457 -0.000233947 -7.95517e-05
0.000781144 -0.000237475 -0.000233001 -7.95506e-05
0.000388647 -0.000119901 -0.000115177 -8.4831e-05
0.00038549 -0.0001189 -0.000114253 -8.4829e-05
0.00115776 -0.000350049 -0.000346164 -7.07271e-05
0.00116737 -0.000352976 -0.000349025 -7.07291e-05
0.000387068 -0.0001194 -0.000114715 -8.483e-05
0.000771575 -0.000234527 -0.000230163 -7.95476e-05
0.00116257 -0.000351512 -0.000347594 -7.07281e-05
0.000777954 -0.000236492 -0.000232055 -7.95496e-05
0.000774764 -0.000235509 -0.000231109 -7.95486e-05
0.00038549 -0.0001189 -0.000114253 -8.4829e-05
0.000382332 -0.000117898 -0.000113329 -8.48269e-05
0.00114816 -0.000347123 -0.000343302 -7.07251e-05
0.00115776 -0.000350049 -0.000346164 -7.07271e-05
0.000383911 -0.000118399 -0.000113791 -8.4828e-05
0.000765195 -0.000232562 -0.000228271 -7.95455e-05
0.00115296 -0.000348586 -0.000344733 -7.07261e-05
0.000771575 -0.000234527 -0.000230163 -7.95476e-05
0.000768385 -0.000233544 -0.000229217 -7.95465e-05
0.000382332 -0.000117898 -0.000113329 -8.48269e-05
0.000379174 -0.000116897 -0.000112405 -8.48249e-05
0.00113856 -0.000344197 -0.00034044 -7.07231e-05
0.00114816 -0.000347123 -0.000343302 -7.07251e-05
0.000380753 -0.000117397 -0.000112867 -8.48259e-05
0.000758815 -0.000230597 -0.000226379 -7.95435e-05
0.00114336 -0.00034566 -0.000341871 -7.07241e-05
0.000765195 -0.000232562 -0.000228271 -7.95455e-05
0.000762005 -0.00023158 -0.000227325 -7.95445e-05
0.000379174 -0.000116897 -0.000112405 -8.48249e-05
0.000376016 -0.000115896 -0.00011148 -8.48229e-05
0.00112895 -0.000341271 -0.000337578 -7.07211e-05
0.00113856 -0.000344197 -0.00034044 -7.07231e-05
0.000377595 -0.000116396 -0.000111942 -8.48239e-05
0.000752435 -0.000228633 -0.000224486 -7.95414e-05
0.00113375 -0.000342734 -0.000339009 -7.07221e-05
0.000758815 -0.000230597 -0.000226379 -7.95435e-05
0.000755625 -0.000229615 -0.000225433 -7.95424e-05
0.000376016 -0.000115896 -0.00011148 -8.48229e-05
0.000372857 -0.000114895 -0.000110555 -8.48209e-05
0.00111935 -0.000338346 -0.000334716 -7.07192e-05
0.00112895 -0.000341271 -0.000337578 -7.07211e-05
0.000374436 -0.000115396 -0.000111017 -8.48219e-05
0.000746054 -0.000226669 -0.000222593 -7.95393e-05
0.00112415 -0.000339808 -0.000336147 -7.07202e-05
0.000752435 -0.000228633 -0.000224486 -7.95414e-05
0.000749244 -0.000227651 -0.00022354 -7.95404e-05
0.000372857 -0.000114895 -0.000110555 -8.48209e-05
0.000369697 -0.000113895 -0.000109629 -8.48189e-05
0.00110974 -0.00033542 -0.000331853 -7.07172e-05
0.00111935 -0.000338346 -0.000334716 -7.07192e-05
0.000371277 -0.000114395 -0.000110092 -8.48199e-05
0.000739673 -0.000224706 -0.0002207 -7.95373e-05
0.00111455 -0.000336883 -0.000333284 -7.07182e-05
0.000746054 -0.000226669 -0.000222593 -7.95393e-05
0.000742863 -0.000225688 -0.000221647 -7.95383e-05
0.000369697 -0.000113895 -0.000109629 -8.48189e-05
0.000366537 -0.000112895 -0.000108704 -8.48169e-05
0.00110014 -0.000332496 -0.00032899 -7.07152e-05
0.00110974 -0.00033542 -0.000331853 -7.07172e-05
0.000368117 -0.000113395 -0.000109167 -8.48179e-05
0.000733291 -0.000222743 -0.000218807 -7.95352e-05
0.00110494 -0.000333958 -0.000330422 -7.07162e-05
0.000739673 -0.000224706 -0.0002207 -7.95373e-05
0.000736482 -0.000223724 -0.000219753 -7.95362e-05
0.000366537 -0.000112895 -0.000108704 -8.48169e-05
0.000363377 -0.000111896 -0.000107778 -8.48149e-05
0.00109053 -0.000329571 -0.000326127 -7.07132e-05
0.00110014 -0.000332496 -0.00032899 -7.07152e-05
0.000364957 -0.000112396 -0.000108241 -8.48159e-05
0.000726909 -0.00022078 -0.000216913 -7.95332e-05
0.00109534 -0.000331033 -0.000327559 -7.07142e-05
0.000733291 -0.000222743 -0.000218807 -7.95352e-05
0.0007301 -0.000221761 -0.00021786 -7.95342e-05
0.000363377 -0.000111896 -0.000107778 -8.48149e-05
0.000360216 -0.000110897 -0.000106851 -8.48128e-05
0.00108093 -0.000326647 -0.000323264 -7.07112e-05
0.00109053 -0.000329571 -0.000326127 -7.07132e-05
0.000361797 -0.000111396 -0.000107315 -8.48138e-05
0.000720527 -0.000218817 -0.000215019 -7.95311e-05
0.00108573 -0.000328109 -0.000324696 -7.07122e-05
0.000726909 -0.00022078 -0.000216913 -7.95332e-05
0.000723718 -0.000219799 -0.000215966 -7.95321e-05
0.000360216 -0.000110897 -0.000106851 -8.48128e-05
0.000357055 -0.000109898 -0.000105925 -8.48108e-05
0.00107132 -0.000323723 -0.0003204 -7.07092e-05
0.00108093 -0.000326647 -0.000323264 -7.07112e-05
0.000358636 -0.000110397 -0.000106388 -8.48118e-05
0.000714145 -0.000216855 -0.000213124 -7.9529e-05
0.00107613 -0.000325185 -0.000321832 -7.07102e-05
0.000720527 -0.000218817 -0.000215019 -7.95311e-05
0.000717336 -0.000217836 -0.000214071 -7.95301e-05
0.000357055 -0.000109898 -0.000105925 -8.48108e-05
0.000353894 -0.000108899 -0.000104998 -8.48088e-05
0.00106172 -0.000320799 -0.000317537 -7.07073e-05
0.00107132 -0.000323723 -0.0003204 -7.07092e-05
0.000355474 -0.000109398 -0.000105461 -8.48098e-05
0.000707762 -0.000214893 -0.000211229 -7.9527e-05
0.00106652 -0.000322261 -0.000318968 -7.07083e-05
0.000714145 -0.000216855 -0.000213124 -7.9529e-05
0.000710953 -0.000215874 -0.000212177 -7.9528e-05
0.000353894 -0.000108899 -0.000104998 -8.48088e-05
0.000350731 -0.000107901 -0.00010407 -8.48068e-05
0.00105211 -0.000317876 -0.000314673 -7.07053e-05
0.00106172 -0.000320799 -0.000317537 -7.07073e-05
0.000352313 -0.0001084 -0.000104534 -8.48078e-05
0.000701379 -0.000212932 -0.000209334 -7.95249e-05
0.00105692 -0.000319338 -0.000316105 -7.07063e-05
0.000707762 -0.000214893 -0.000211229 -7.9527e-05
0.00070457 -0.000213912 -0.000210282 -7.95259e-05
0.000350731 -0.000107901 -0.00010407 -8.48068e-05
0.000347569 -0.000106903 -0.000103143 -8.48048e-05
0.00104251 -0.000314953 -0.000311808 -7.07033e-05
0.00105211 -0.000317876 -0.000314673 -7.07053e-05
0.00034915 -0.000107402 -0.000103607 -8.48058e-05
0.000694995 -0.00021097 -0.000207439 -7.95229e-05
0.00104731 -0.000316414 -0.000313241 -7.07043e-05
0.000701379 -0.000212932 -0.000209334 -7.95249e-05
0.000698187 -0.000211951 -0.000208387 -7.95239e-05
0.000347569 -0.000106903 -0.000103143 -8.48048e-05
0.000344406 -0.000105905 -0.000102215 -8.48028e-05
0.0010329 -0.00031203 -0.000308944 -7.07013e-05
0.00104251 -0.000314953 -0.000311808 -7.07033e-05
0.000345987 -0.000106404 -0.000102679 -8.48038e-05
0.000688611 -0.000209009 -0.000205544 -7.95208e-05
0.0010377 -0.000313492 -0.000310376 -7.07023e-05
0.000694995 -0.00021097 -0.000207439 -7.95229e-05
0.000691803 -0.00020999 -0.000206491 -7.95218e-05
0.000344406 -0.000105905 -0.000102215 -8.48028e-05
0.000341242 -0.000104908 -0.000101286 -8.48008e-05
0.00102329 -0.000309108 -0.000306079 -7.06994e-05
0.0010329 -0.00031203 -0.000308944 -7.07013e-05
0.000342824 -0.000105406 -0.000101751 -8.48018e-05
0.000682227 -0.000207049 -0.000203648 -7.95188e-05
0.0010281 -0.000310569 -0.000307512 -7.07003e-05
0.000688611 -0.000209009 -0.000205544 -7.95208e-05
0.000685419 -0.000208029 -0.000204596 -7.95198e-05
0.000341242 -0.000104908 -0.000101286 -8.48008e-05
0.000338079 -0.000103911 -0.000100358 -8.47988e-05
0.00101369 -0.000306186 -0.000303214 -7.06974e-05
0.00102329 -0.000309108 -0.000306079 -7.06994e-05
0.000339661 -0.000104409 -0.000100822 -8.47998e-05
0.000675842 -0.000205088 -0.000201752 -7.95167e-05
0.00101849 -0.000307647 -0.000304647 -7.06984e-05
0.000682227 -0.000207049 -0.000203648 -7.95188e-05
0.000679034 -0.000206068 -0.0002027 -7.95177e-05
0.000338079 -0.000103911 -0.000100358 -8.47988e-05
0.000334914 -0.000102914 -9.94287e-05 -8.47968e-05
0.00100408 -0.000303264 -0.000300349 -7.06954e-05
0.00101369 -0.000306186 -0.000303214 -7.06974e-05
0.000336496 -0.000103412 -9.98932e-05 -8.47978e-05
0.000669457 -0.000203128 -0.000199855 -7.95147e-05
0.00100888 -0.000304725 -0.000301782 -7.06964e-05
0.000675842 -0.000205088 -0.000201752 -7.95167e-05
0.00067265 -0.000204108 -0.000200803 -7.95157e-05
0.000334914 -0.000102914 -9.94287e-05 -8.47968e-05
0.000331749 -0.000101918 -9.84994e-05 -8.47948e-05
0.000994471 -0.000300342 -0.000297484 -7.06935e-05
0.00100408 -0.000303264 -0.000300349 -7.06954e-05
0.000333332 -0.000102416 -9.89641e-05 -8.47958e-05
0.000663072 -0.000201169 -0.000197958 -7.95126e-05
0.000999275 -0.000301803 -0.000298916 -7.06944e-05
0.000669457 -0.000203128 -0.000199855 -7.95147e-05
0.000666264 -0.000202148 -0.000198907 -7.95136e-05
0.000331749 -0.000101918 -9.84994e-05 -8.47948e-05
0.000328584 -0.000100922 -9.75697e-05 -8.47928e-05
0.000984863 -0.000297421 -0.000294618 -7.06915e-05
0.000994471 -0.000300342 -0.000297484 -7.06935e-05
0.000330167 -0.00010142 -9.80346e-05 -8.47938e-05
0.000656686 -0.000199209 -0.000196061 -7.95106e-05
0.000989667 -0.000298882 -0.000296051 -7.06925e-05
0.000663072 -0.000201169 -0.000197958 -7.95126e-05
0.000659879 -0.000200189 -0.00019701 -7.95116e-05
0.000328584 -0.000100922 -9.75697e-05 -8.47928e-05
0.000325419 -9.99258e-05 -9.66397e-05 -8.47908e-05
0.000975255 -0.0002945 -0.000291752 -7.06895e-05
0.000984863 -0.000297421 -0.000294618 -7.06915e-05
0.000327001 -0.000100424 -9.71048e-05 -8.47918e-05
0.0006503 -0.00019725 -0.000194164 -7.95086e-05
0.000980059 -0.000295961 -0.000293185 -7.06905e-05
0.000656686 -0.000199209 -0.000196061 -7.95106e-05
0.000653493 -0.00019823 -0.000195113 -7.95096e-05
0.000325419 -9.99258e-05 -9.66397e-05 -8.47908e-05
0.000322252 -9.89304e-05 -9.57094e-05 -8.47888e-05
0.000965647 -0.00029158 -0.000288886 -7.06876e-05
0.000975255 -0.0002945 -0.000291752 -7.06895e-05
0.000323836 -9.94281e-05 -9.61746e-05 -8.47898e-05
0.000643913 -0.000195291 -0.000192267 -7.95065e-05
0.000970451 -0.00029304 -0.000290319 -7.06886e-05
0.0006503 -0.00019725 -0.000194164 -7.95086e-05
0.000647107 -0.000196271 -0.000193215 -7.95075e-05
0.000322252 -9.89304e-05 -9.57094e-05 -8.47888e-05
0.000319086 -9.79353e-05 -9.47788e-05 -8.47869e-05
0.000956038 -0.000288659 -0.00028602 -7.06856e-05
0.000965647 -0.00029158 -0.000288886 -7.06876e-05
0.000320669 -9.84328e-05 -9.52441e-05 -8.47878e-05
0.000637526 -0.000193333 -0.000190369 -7.95045e-05
0.000960843 -0.00029012 -0.000287453 -7.06866e-05
0.000643913 -0.000195291 -0.000192267 -7.95065e-05
0.00064072 -0.000194312 -0.000191318 -7.95055e-05
0.000319086 -9.79353e-05 -9.47788e-05 -8.47869e-05
0.000315919 -9.69405e-05 -9.38478e-05 -8.47849e-05
0.00094643 -0.00028574 -0.000283153 -7.06837e-05
0.000956038 -0.000288659 -0.00028602 -7.06856e-05
0.000317502 -9.74379e-05 -9.43133e-05 -8.47859e-05
0.000631139 -0.000191375 -0.00018847 -7.95025e-05
0.000951234 -0.000287199 -0.000284586 -7.06847e-05
0.000637526 -0.000193333 -0.000190369 -7.95045e-05
0.000634333 -0.000192354 -0.00018942 -7.95035e-05
0.000315919 -9.69405e-05 -9.38478e-05 -8.47849e-05
0.000312751 -9.5946e-05 -9.29165e-05 -8.47829e-05
0.000936821 -0.00028282 -0.000280286 -7.06818e-05
0.00094643 -0.00028574 -0.000283153 -7.06837e-05
0.000314335 -9.64432e-05 -9.33822e-05 -8.47839e-05
0.000624752 -0.000189417 -0.000186572 -7.95005e-05
0.000941625 -0.00028428 -0.000281719 -7.06827e-05
0.000631139 -0.000191375 -0.00018847 -7.95025e-05
0.000627946 -0.000190396 -0.000187521 -7.95015e-05
0.000312751 -9.5946e-05 -9.29165e-05 -8.47829e-05
0.000309583 -9.49519e-05 -9.19849e-05 -8.4781e-05
0.000927211 -0.0002799 -0.000277419 -7.06798e-05
0.000936821 -0.00028282 -0.000280286 -7.06818e-05
0.000311167 -9.54489e-05 -9.24508e-05 -8.4782e-05
0.000618364 -0.00018746 -0.000184673 -7.94985e-05
0.000932016 -0.00028136 -0.000278853 -7.06808e-05
0.000624752 -0.000189417 -0.000186572 -7.95005e-05
0.000621558 -0.000188438 -0.000185623 -7.94995e-05
0.000309583 -9.49519e-05 -9.19849e-05 -8.4781e-05
0.000306415 -9.39581e-05 -9.10529e-05 -8.4779e-05
0.000917602 -0.000276981 -0.000274552 -7.06779e-05
0.000927211 -0.0002799 -0.000277419 -7.06798e-05
0.000307999 -9.44549e-05 -9.1519e-05 -8.478e-05
0.000611976 -0.000185503 -0.000182774 -7.94965e-05
0.000922407 -0.000278441 -0.000275985 -7.06789e-05
0.000618364 -0.00018746 -0.000184673 -7.94985e-05
0.00061517 -0.000186481 -0.000183724 -7.94975e-05
0.000306415 -9.39581e-05 -9.10529e-05 -8.4779e-05
0.000303246 -9.29646e-05 -9.01207e-05 -8.47771e-05
0.000907992 -0.000274063 -0.000271684 -7.0676e-05
0.000917602 -0.000276981 -0.000274552 -7.06779e-05
0.000304831 -9.34613e-05 -9.05868e-05 -8.47781e-05
0.000605587 -0.000183546 -0.000180875 -7.94945e-05
0.000912797 -0.000275522 -0.000273118 -7.06769e-05
0.000611976 -0.000185503 -0.000182774 -7.94965e-05
0.000608781 -0.000184524 -0.000181825 -7.94955e-05
0.000303246 -9.29646e-05 -9.01207e-05 -8.47771e-05
0.000300077 -9.19714e-05 -8.9188e-05 -8.47752e-05
0.000898382 -0.000271144 -0.000268816 -7.06741e-05
0.000907992 -0.000274063 -0.000271684 -7.0676e-05
0.000301661 -9.24679e-05 -8.96544e-05 -8.47761e-05
0.000599198 -0.000181589 -0.000178975 -7.94925e-05
0.000903187 -0.000272603 -0.00027025 -7.0675e-05
0.000605587 -0.000183546 -0.000180875 -7.94945e-05
0.000602392 -0.000182567 -0.000179925 -7.94935e-05
0.000300077 -9.19714e-05 -8.9188e-05 -8.47752e-05
0.000296907 -9.09785e-05 -8.82551e-05 -8.47732e-05
0.000888772 -0.000268226 -0.000265948 -7.06722e-05
0.000898382 -0.000271144 -0.000268816 -7.06741e-05
0.000298492 -9.14749e-05 -8.87216e-05 -8.47742e-05
0.000592809 -0.000179633 -0.000177075 -7.94906e-05
0.000893577 -0.000269685 -0.000267382 -7.06731e-05
0.000599198 -0.000181589 -0.000178975 -7.94925e-05
0.000596003 -0.000180611 -0.000178025 -7.94915e-05
0.000296907 -9.09785e-05 -8.82551e-05 -8.47732e-05
0.000293737 -8.99859e-05 -8.73218e-05 -8.47713e-05
0.000879161 -0.000265308 -0.00026308 -7.06703e-05
0.000888772 -0.000268226 -0.000265948 -7.06722e-05
0.000295322 -9.04822e-05 -8.77885e-05 -8.47723e-05
0.000586419 -0.000177677 -0.000175175 -7.94886e-05
0.000883966 -0.000266767 -0.000264514 -7.06712e-05
0.000592809 -0.000179633 -0.000177075 -7.94906e-05
0.000589614 -0.000178655 -0.000176125 -7.94896e-05
0.000293737 -8.99859e-05 -8.73218e-05 -8.47713e-05
0.000290566 -8.89937e-05 -8.63882e-05 -8.47694e-05
0.00086955 -0.000262391 -0.000260211 -7.06684e-05
0.000879161 -0.000265308 -0.00026308 -7.06703e-05
0.000292152 -8.94898e-05 -8.68551e-05 -8.47704e-05
0.000580029 -0.000175722 -0.000173275 -7.94866e-05
0.000874356 -0.000263849 -0.000261646 -7.06693e-05
0.000586419 -0.000177677 -0.000175175 -7.94886e-05
0.000583224 -0.000176699 -0.000174225 -7.94876e-05
0.000290566 -8.89937e-05 -8.63882e-05 -8.47694e-05
0.000287395 -8.80018e-05 -8.54543e-05 -8.47675e-05
0.000859939 -0.000259473 -0.000257342 -7.06665e-05
0.00086955 -0.000262391 -0.000260211 -7.06684e-05
0.000288981 -8.84977e-05 -8.59213e-05 -8.47685e-05
0.000573638 -0.000173766 -0.000171374 -7.94847e-05
0.000864745 -0.000260932 -0.000258777 -7.06674e-05
0.000580029 -0.000175722 -0.000173275 -7.94866e-05
0.000576834 -0.000174744 -0.000172324 -7.94857e-05
0.000287395 -8.80018e-05 -8.54543e-05 -8.47675e-05
0.000284224 -8.70102e-05 -8.452e-05 -8.47656e-05
0.000850328 -0.000256556 -0.000254473 -7.06646e-05
0.000859939 -0.000259473 -0.000257342 -7.06665e-05
0.000285809 -8.7506e-05 -8.49872e-05 -8.47666e-05
0.000567247 -0.000171811 -0.000169473 -7.94827e-05
0.000855133 -0.000258015 -0.000255908 -7.06656e-05
0.000573638 -0.000173766 -0.000171374 -7.94847e-05
0.000570443 -0.000172789 -0.000170423 -7.94837e-05
0.000284224 -8.70102e-05 -8.452e-05 -8.47656e-05
0.000281052 -8.60189e-05 -8.35854e-05 -8.47638e-05
0.000840716 -0.00025364 -0.000251604 -7.06628e-05
0.000850328 -0.000256556 -0.000254473 -7.06646e-05
0.000282638 -8.65145e-05 -8.40528e-05 -8.47647e-05
0.000560856 -0.000169857 -0.000167571 -7.94808e-05
0.000845522 -0.000255098 -0.000253039 -7.06637e-05
0.000567247 -0.000171811 -0.000169473 -7.94827e-05
0.000564052 -0.000170834 -0.000168522 -7.94818e-05
0.000281052 -8.60189e-05 -8.35854e-05 -8.47638e-05
0.000277879 -8.50279e-05 -8.26505e-05 -8.47619e-05
0.000831104 -0.000250723 -0.000248735 -7.06609e-05
0.000840716 -0.00025364 -0.000251604 -7.06628e-05
0.000279465 -8.55234e-05 -8.3118e-05 -8.47628e-05
0.000554465 -0.000167902 -0.00016567 -7.94789e-05
0.00083591 -0.000252181 -0.000250169 -7.06618e-05
0.000560856 -0.000169857 -0.000167571 -7.94808e-05
0.000557661 -0.00016888 -0.00016662 -7.94799e-05
0.000277879 -8.50279e-05 -8.26505e-05 -8.47619e-05
0.000274706 -8.40373e-05 -8.17152e-05 -8.476e-05
0.000821492 -0.000247807 -0.000245865 -7.0659e-05
0.000831104 -0.000250723 -0.000248735 -7.06609e-05
0.000276293 -8.45326e-05 -8.21829e-05 -8.4761e-05
0.000548073 -0.000165948 -0.000163768 -7.9477e-05
0.000826298 -0.000249265 -0.0002473 -7.066e-05
0.000554465 -0.000167902 -0.00016567 -7.94789e-05
0.000551269 -0.000166925 -0.000164719 -7.94779e-05
0.000274706 -8.40373e-05 -8.17152e-05 -8.476e-05
0.000271533 -8.3047e-05 -8.07796e-05 -8.47582e-05
0.00081188 -0.000244891 -0.000242995 -7.06572e-05
0.000821492 -0.000247807 -0.000245865 -7.0659e-05
0.00027312 -8.35421e-05 -8.12475e-05 -8.47591e-05
0.000541681 -0.000163995 -0.000161865 -7.94751e-05
0.000816686 -0.000246349 -0.00024443 -7.06581e-05
0.000548073 -0.000165948 -0.000163768 -7.9477e-05
0.000544877 -0.000164972 -0.000162816 -7.9476e-05
0.000271533 -8.3047e-05 -8.07796e-05 -8.47582e-05
0.000268359 -8.2057e-05 -7.98437e-05 -8.47564e-05
0.000802267 -0.000241976 -0.000240125 -7.06554e-05
0.00081188 -0.000244891 -0.000242995 -7.06572e-05
0.000269946 -8.25519e-05 -8.03117e-05 -8.47573e-05
0.000535288 -0.000162041 -0.000159963 -7.94732e-05
0.000807073 -0.000243434 -0.00024156 -7.06563e-05
0.000541681 -0.000163995 -0.000161865 -7.94751e-05
0.000538484 -0.000163018 -0.000160914 -7.94741e-05
0.000268359 -8.2057e-05 -7.98437e-05 -8.47564e-05
0.000265185 -8.10673e-05 -7.89075e-05 -8.47545e-05
0.000792654 -0.000239061 -0.000237254 -7.06536e-05
0.000802267 -0.000241976 -0.000240125 -7.06554e-05
0.000266772 -8.15621e-05 -7.93756e-05 -8.47554e-05
0.000528895 -0.000160088 -0.00015806 -7.94713e-05
0.00079746 -0.000240518 -0.000238689 -7.06545e-05
0.000535288 -0.000162041 -0.000159963 -7.94732e-05
0.000532091 -0.000161065 -0.000159011 -7.94723e-05
0.000265185 -8.10673e-05 -7.89075e-05 -8.47545e-05
0.00026201 -8.00779e-05 -7.79709e-05 -8.47527e-05
0.000783041 -0.000236146 -0.000234383 -7.06517e-05
0.000792654 -0.000239061 -0.000237254 -7.06536e-05
0.000263597 -8.05725e-05 -7.84392e-05 -8.47536e-05
0.000522501 -0.000158136 -0.000156157 -7.94694e-05
0.000787847 -0.000237603 -0.000235819 -7.06526e-05
0.000528895 -0.000160088 -0.00015806 -7.94713e-05
0.000525698 -0.000159112 -0.000157108 -7.94704e-05
0.00026201 -8.00779e-05 -7.79709e-05 -8.47527e-05
0.000258835 -7.90888e-05 -7.7034e-05 -8.47509e-05
0.000773427 -0.000233231 -0.000231513 -7.06499e-05
0.000783041 -0.000236146 -0.000234383 -7.06517e-05
0.000260422 -7.95833e-05 -7.75025e-05 -8.47518e-05
0.000516108 -0.000156183 -0.000154253 -7.94676e-05
0.000778234 -0.000234689 -0.000232948 -7.06508e-05
0.000522501 -0.000158136 -0.000156157 -7.94694e-05
0.000519305 -0.000157159 -0.000155205 -7.94685e-05
0.000258835 -7.90888e-05 -7.7034e-05 -8.47509e-05
0.000255659 -7.81001e-05 -7.60967e-05 -8.47491e-05
0.000763813 -0.000230317 -0.000228641 -7.06481e-05
0.000773427 -0.000233231 -0.000231513 -7.06499e-05
0.000257247 -7.85944e-05 -7.65654e-05 -8.475e-05
0.000509714 -0.000154231 -0.00015235 -7.94657e-05
0.00076862 -0.000231774 -0.000230077 -7.0649e-05
0.000516108 -0.000156183 -0.000154253 -7.94676e-05
0.000512911 -0.000155207 -0.000153301 -7.94667e-05
0.000255659 -7.81001e-05 -7.60967e-05 -8.47491e-05
0.000252483 -7.71117e-05 -7.51591e-05 -8.47474e-05
0.000754199 -0.000227403 -0.00022577 -7.06464e-05
0.000763813 -0.000230317 -0.000228641 -7.06481e-05
0.000254071 -7.76058e-05 -7.5628e-05 -8.47482e-05
0.000503319 -0.000152279 -0.000150446 -7.94639e-05
0.000759006 -0.00022886 -0.000227206 -7.06473e-05
0.000509714 -0.000154231 -0.00015235 -7.94657e-05
0.000506516 -0.000153255 -0.000151398 -7.94648e-05
0.000252483 -7.71117e-05 -7.51591e-05 -8.47474e-05
0.000249306 -7.61235e-05 -7.42212e-05 -8.47456e-05
0.000744585 -0.000224489 -0.000222898 -7.06446e-05
0.000754199 -0.000227403 -0.00022577 -7.06464e-05
0.000250895 -7.66176e-05 -7.46902e-05 -8.47465e-05
0.000496924 -0.000150328 -0.000148541 -7.94621e-05
0.000749392 -0.000225946 -0.000224334 -7.06455e-05
0.000503319 -0.000152279 -0.000150446 -7.94639e-05
0.000500122 -0.000151304 -0.000149493 -7.9463e-05
0.000249306 -7.61235e-05 -7.42212e-05 -8.47456e-05
0.000246129 -7.51358e-05 -7.3283e-05 -8.47438e-05
0.00073497 -0.000221576 -0.000220026 -7.06428e-05
0.000744585 -0.000224489 -0.000222898 -7.06446e-05
0.000247718 -7.56296e-05 -7.37522e-05 -8.47447e-05
0.000490529 -0.000148377 -0.000146637 -7.94603e-05
0.000739778 -0.000223033 -0.000221462 -7.06437e-05
0.000496924 -0.000150328 -0.000148541 -7.94621e-05
0.000493727 -0.000149352 -0.000147589 -7.94612e-05
0.000246129 -7.51358e-05 -7.3283e-05 -8.47438e-05
0.000242952 -7.41483e-05 -7.23444e-05 -8.47421e-05
0.000725355 -0.000218663 -0.000217154 -7.06411e-05
0.00073497 -0.000221576 -0.000220026 -7.06428e-05
0.000244541 -7.4642e-05 -7.28138e-05 -8.4743e-05
0.000484133 -0.000146426 -0.000144732 -7.94585e-05
0.000730163 -0.000220119 -0.00021859 -7.0642e-05
0.000490529 -0.000148377 -0.000146637 -7.94603e-05
0.000487331 -0.000147401 -0.000145684 -7.94594e-05
0.000242952 -7.41483e-05 -7.23444e-05 -8.47421e-05
0.000239774 -7.31611e-05 -7.14055e-05 -8.47404e-05
0.00071574 -0.00021575 -0.000214282 -7.06393e-05
0.000725355 -0.000218663 -0.000217154 -7.06411e-05
0.000241363 -7.36547e-05 -7.1875e-05 -8.47412e-05
0.000477737 -0.000144475 -0.000142826 -7.94567e-05
0.000720548 -0.000217206 -0.000215718 -7.06402e-05
0.000484133 -0.000146426 -0.000144732 -7.94585e-05
0.000480935 -0.000145451 -0.000143779 -7.94576e-05
0.000239774 -7.31611e-05 -7.14055e-05 -8.47404e-05
0.000236596 -7.21743e-05 -7.04663e-05 -8.47387e-05
0.000706125 -0.000212838 -0.000211409 -7.06376e-05
0.00071574 -0.00021575 -0.000214282 -7.06393e-05
0.000238185 -7.26677e-05 -7.09359e-05 -8.47395e-05
0.000471341 -0.000142525 -0.000140921 -7.94549e-05
0.000710933 -0.000214294 -0.000212845 -7.06385e-05
0.000477737 -0.000144475 -0.000142826 -7.94567e-05
0.000474539 -0.0001435 -0.000141874 -7.94558e-05
0.000236596 -7.21743e-05 -7.04663e-05 -8.47387e-05
0.000233417 -7.11877e-05 -6.95267e-05 -8.4737e-05
0.000696509 -0.000209925 -0.000208536 -7.06359e-05
0.000706125 -0.000212838 -0.000211409 -7.06376e-05
0.000235006 -7.1681e-05 -6.99965e-05 -8.47378e-05
0.000464944 -0.000140575 -0.000139015 -7.94532e-05
0.000701317 -0.000211381 -0.000209972 -7.06368e-05
0.000471341 -0.000142525 -0.000140921 -7.94549e-05
0.000468142 -0.00014155 -0.000139968 -7.9454e-05
0.000233417 -7.11877e-05 -6.95267e-05 -8.4737e-05
0.000230237 -7.02015e-05 -6.85868e-05 -8.47353e-05
0.000686893 -0.000207013 -0.000205663 -7.06342e-05
0.000696509 -0.000209925 -0.000208536 -7.06359e-05
0.000231827 -7.06946e-05 -6.90568e-05 -8.47361e-05
0.000458547 -0.000138626 -0.000137109 -7.94514e-05
0.000691701 -0.000208469 -0.000207099 -7.06351e-05
0.000464944 -0.000140575 -0.000139015 -7.94532e-05
0.000461745 -0.0001396 -0.000138062 -7.94523e-05
0.000230237 -7.02015e-05 -6.85868e-05 -8.47353e-05
0.000227058 -6.92156e-05 -6.76466e-05 -8.47336e-05
0.000677277 -0.000204102 -0.000202789 -7.06325e-05
0.000686893 -0.000207013 -0.000205663 -7.06342e-05
0.000228648 -6.97085e-05 -6.81167e-05 -8.47345e-05
0.000452149 -0.000136676 -0.000135203 -7.94497e-05
0.000682085 -0.000205558 -0.000204226 -7.06334e-05
0.000458547 -0.000138626 -0.000137109 -7.94514e-05
0.000455348 -0.000137651 -0.000136156 -7.94506e-05
0.000227058 -6.92156e-05 -6.76466e-05 -8.47336e-05
0.000223877 -6.823e-05 -6.6706e-05 -8.4732e-05
0.00066766 -0.00020119 -0.000199916 -7.06308e-05
0.000677277 -0.000204102 -0.000202789 -7.06325e-05
0.000225468 -6.87228e-05 -6.71763e-05 -8.47328e-05
0.000445751 -0.000134727 -0.000133296 -7.9448e-05
0.000672468 -0.000202646 -0.000201352 -7.06317e-05
0.000452149 -0.000136676 -0.000135203 -7.94497e-05
0.00044895 -0.000135702 -0.000134249 -7.94488e-05
0.000223877 -6.823e-05 -6.6706e-05 -8.4732e-05
0.000220697 -6.72448e-05 -6.57651e-05 -8.47304e-05
0.000658043 -0.000198279 -0.000197042 -7.06292e-05
0.00066766 -0.00020119 -0.000199916 -7.06308e-05
0.000222287 -6.77374e-05 -6.62356e-05 -8.47312e-05
0.000439353 -0.000132779 -0.000131389 -7.94463e-05
0.000662852 -0.000199735 -0.000198479 -7.063e-05
0.000445751 -0.000134727 -0.000133296 -7.9448e-05
0.000442552 -0.000133753 -0.000132342 -7.94471e-05
0.000220697 -6.72448e-05 -6.57651e-05 -8.47304e-05
0.000217516 -6.62598e-05 -6.48239e-05 -8.47287e-05
0.000648426 -0.000195369 -0.000194167 -7.06275e-05
0.000658043 -0.000198279 -0.000197042 -7.06292e-05
0.000219106 -6.67523e-05 -6.52945e-05 -8.47296e-05
0.000432954 -0.00013083 -0.000129482 -7.94446e-05
0.000653235 -0.000196824 -0.000195605 -7.06284e-05
0.000439353 -0.000132779 -0.000131389 -7.94463e-05
0.000436154 -0.000131805 -0.000130435 -7.94454e-05
0.000217516 -6.62598e-05 -6.48239e-05 -8.47287e-05
0.000214334 -6.52752e-05 -6.38823e-05 -8.47271e-05
0.000638808 -0.000192458 -0.000191293 -7.06259e-05
0.000648426 -0.000195369 -0.000194167 -7.06275e-05
0.000215925 -6.57675e-05 -6.43531e-05 -8.47279e-05
0.000426555 -0.000128882 -0.000127574 -7.94429e-05
0.000643617 -0.000193913 -0.00019273 -7.06267e-05
0.000432954 -0.00013083 -0.000129482 -7.94446e-05
0.000429755 -0.000129856 -0.000128528 -7.94438e-05
0.000214334 -6.52752e-05 -6.38823e-05 -8.47271e-05
0.000211152 -6.42908e-05 -6.29404e-05 -8.47256e-05
0.000629191 -0.000189548 -0.000188418 -7.06243e-05
0.000638808 -0.000192458 -0.000191293 -7.06259e-05
0.000212743 -6.4783e-05 -6.34114e-05 -8.47264e-05
0.000420156 -0.000126935 -0.000125666 -7.94413e-05
0.000633999 -0.000191003 -0.000189856 -7.06251e-05
0.000426555 -0.000128882 -0.000127574 -7.94429e-05
0.000423356 -0.000127909 -0.00012662 -7.94421e-05
0.000211152 -6.42908e-05 -6.29404e-05 -8.47256e-05
0.000207969 -6.33068e-05 -6.19982e-05 -8.4724e-05
0.000619572 -0.000186638 -0.000185543 -7.06227e-05
0.000629191 -0.000189548 -0.000188418 -7.06243e-05
0.000209561 -6.37988e-05 -6.24693e-05 -8.47248e-05
0.000413756 -0.000124987 -0.000123758 -7.94396e-05
0.000624382 -0.000188093 -0.000186981 -7.06235e-05
0.000420156 -0.000126935 -0.000125666 -7.94413e-05
0.000416956 -0.000125961 -0.000124712 -7.94404e-05
0.000207969 -6.33068e-05 -6.19982e-05 -8.4724e-05
0.000204786 -6.23231e-05 -6.10556e-05 -8.47224e-05
0.000609954 -0.000183728 -0.000182668 -7.06211e-05
0.000619572 -0.000186638 -0.000185543 -7.06227e-05
0.000206378 -6.28149e-05 -6.15269e-05 -8.47232e-05
0.000407356 -0.00012304 -0.000121849 -7.9438e-05
0.000614763 -0.000185183 -0.000184106 -7.06219e-05
0.000413756 -0.000124987 -0.000123758 -7.94396e-05
0.000410556 -0.000124014 -0.000122804 -7.94388e-05
0.000204786 -6.23231e-05 -6.10556e-05 -8.47224e-05
0.000201603 -6.13398e-05 -6.01127e-05 -8.47209e-05
0.000600335 -0.000180819 -0.000179793 -7.06195e-05
0.000609954 -0.000183728 -0.000182668 -7.06211e-05
0.000203195 -6.18314e-05 -6.05842e-05 -8.47217e-05
0.000400955 -0.000121093 -0.000119941 -7.94364e-05
0.000605145 -0.000182274 -0.00018123 -7.06203e-05
0.000407356 -0.00012304 -0.000121849 -7.9438e-05
0.000404155 -0.000122067 -0.000120895 -7.94372e-05
0.000201603 -6.13398e-05 -6.01127e-05 -8.47209e-05
0.000198419 -6.03567e-05 -5.91695e-05 -8.47194e-05
0.000590716 -0.00017791 -0.000176917 -7.06179e-05
0.000600335 -0.000180819 -0.000179793 -7.06195e-05
0.000200011 -6.08482e-05 -5.96411e-05 -8.47201e-05
0.000394554 -0.000119147 -0.000118032 -7.94348e-05
0.000595526 -0.000179365 -0.000178355 -7.06187e-05
0.000400955 -0.000121093 -0.000119941 -7.94364e-05
0.000397754 -0.00012012 -0.000118986 -7.94356e-05
0.000198419 -6.03567e-05 -5.91695e-05 -8.47194e-05
0.000195234 -5.93739e-05 -5.82259e-05 -8.47179e-05
0.000581097 -0.000175001 -0.000174041 -7.06164e-05
0.000590716 -0.00017791 -0.000176917 -7.06179e-05
0.000196827 -5.98653e-05 -5.86977e-05 -8.47186e-05
0.000388152 -0.000117201 -0.000116122 -7.94332e-05
0.000585907 -0.000176456 -0.000175479 -7.06171e-05
0.000394554 -0.000119147 -0.000118032 -7.94348e-05
0.000391353 -0.000118174 -0.000117077 -7.9434e-05
0.000195234 -5.93739e-05 -5.82259e-05 -8.47179e-05
0.000192049 -5.83915e-05 -5.7282e-05 -8.47164e-05
0.000571477 -0.000172093 -0.000171165 -7.06148e-05
0.000581097 -0.000175001 -0.000174041 -7.06164e-05
0.000193642 -5.88827e-05 -5.7754e-05 -8.47171e-05
0.000381751 -0.000115255 -0.000114213 -7.94316e-05
0.000576287 -0.000173547 -0.000172603 -7.06156e-05
0.000388152 -0.000117201 -0.000116122 -7.94332e-05
0.000384952 -0.000116228 -0.000115167 -7.94324e-05
0.000192049 -5.83915e-05 -5.7282e-05 -8.47164e-05
0.000188864 -5.74094e-05 -5.63378e-05 -8.47149e-05
0.000561857 -0.000169185 -0.000168288 -7.06133e-05
0.000571477 -0.000172093 -0.000171165 -7.06148e-05
0.000190457 -5.79004e-05 -5.68099e-05 -8.47157e-05
0.000375348 -0.000113309 -0.000112303 -7.94301e-05
0.000566667 -0.000170639 -0.000169727 -7.0614e-05
0.000381751 -0.000115255 -0.000114213 -7.94316e-05
0.00037855 -0.000114282 -0.000113258 -7.94309e-05
0.000188864 -5.74094e-05 -5.63378e-05 -8.47149e-05
0.000185678 -5.64275e-05 -5.53932e-05 -8.47135e-05
0.000552237 -0.000166277 -0.000165412 -7.06118e-05
0.000561857 -0.000169185 -0.000168288 -7.06133e-05
0.000187271 -5.69184e-05 -5.58655e-05 -8.47142e-05
0.000368946 -0.000111364 -0.000110392 -7.94286e-05
0.000557047 -0.000167731 -0.00016685 -7.06125e-05
0.000375348 -0.000113309 -0.000112303 -7.94301e-05
0.000372147 -0.000112336 -0.000111347 -7.94293e-05
0.000185678 -5.64275e-05 -5.53932e-05 -8.47135e-05
0.000182492 -5.5446e-05 -5.44483e-05 -8.4712e-05
0.000542617 -0.000163369 -0.000162535 -7.06103e-05
0.000552237 -0.000166277 -0.000165412 -7.06118e-05
0.000184085 -5.59367e-05 -5.49208e-05 -8.47128e-05
0.000362543 -0.000109419 -0.000108482 -7.94271e-05
0.000547427 -0.000164823 -0.000163973 -7.0611e-05
0.000368946 -0.000111364 -0.000110392 -7.94286e-05
0.000365744 -0.000110391 -0.000109437 -7.94278e-05
0.000182492 -5.5446e-05 -5.44483e-05 -8.4712e-05
0.000179305 -5.44648e-05 -5.3503e-05 -8.47106e-05
0.000532996 -0.000160462 -0.000159657 -7.06088e-05
0.000542617 -0.000163369 -0.000162535 -7.06103e-05
0.000180899 -5.49554e-05 -5.39757e-05 -8.47113e-05
0.000356139 -0.000107474 -0.000106571 -7.94256e-05
0.000537806 -0.000161915 -0.000161096 -7.06095e-05
0.000362543 -0.000109419 -0.000108482 -7.94271e-05
0.000359341 -0.000108447 -0.000107526 -7.94263e-05
0.000179305 -5.44648e-05 -5.3503e-05 -8.47106e-05
0.000176118 -5.34839e-05 -5.25575e-05 -8.47092e-05
0.000523374 -0.000157555 -0.00015678 -7.06073e-05
0.000532996 -0.000160462 -0.000159657 -7.06088e-05
0.000177712 -5.39744e-05 -5.30303e-05 -8.47099e-05
0.000349735 -0.00010553 -0.00010466 -7.94241e-05
0.000528185 -0.000159008 -0.000158219 -7.06081e-05
0.000356139 -0.000107474 -0.000106571 -7.94256e-05
0.000352937 -0.000106502 -0.000105615 -7.94248e-05
0.000176118 -5.34839e-05 -5.25575e-05 -8.47092e-05
0.00017293 -5.25034e-05 -5.16115e-05 -8.47079e-05
0.000513753 -0.000154648 -0.000153902 -7.06059e-05
0.000523374 -0.000157555 -0.00015678 -7.06073e-05
0.000174524 -5.29936e-05 -5.20845e-05 -8.47086e-05
0.000343331 -0.000103586 -0.000102748 -7.94226e-05
0.000518564 -0.000156101 -0.000155341 -7.06066e-05
0.000349735 -0.00010553 -0.00010466 -7.94241e-05
0.000346533 -0.000104558 -0.000103704 -7.94234e-05
0.00017293 -5.25034e-05 -5.16115e-05 -8.47079e-05
0.000169742 -5.15231e-05 -5.06653e-05 -8.47065e-05
0.000504131 -0.000151741 -0.000151024 -7.06045e-05
0.000513753 -0.000154648 -0.000153902 -7.06059e-05
0.000171336 -5.20132e-05 -5.11385e-05 -8.47072e-05
0.000336927 -0.000101642 -0.000100836 -7.94212e-05
0.000508942 -0.000153195 -0.000152463 -7.06052e-05
0.000343331 -0.000103586 -0.000102748 -7.94226e-05
0.000340129 -0.000102614 -0.000101792 -7.94219e-05
0.000169742 -5.15231e-05 -5.06653e-05 -8.47065e-05
0.000166553 -5.05432e-05 -4.97187e-05 -8.47052e-05
0.000494509 -0.000148835 -0.000148146 -7.0603e-05
0.000504131 -0.000151741 -0.000151024 -7.06045e-05
0.000168148 -5.10331e-05 -5.0192e-05 -8.47058e-05
0.000330522 -9.96986e-05 -9.89241e-05 -7.94198e-05
0.00049932 -0.000150288 -0.000149585 -7.06037e-05
0.000336927 -0.000101642 -0.000100836 -7.94212e-05
0.000333724 -0.00010067 -9.98802e-05 -7.94205e-05
0.000166553 -5.05432e-05 -4.97187e-05 -8.47052e-05
0.000163364 -4.95635e-05 -4.87718e-05 -8.47039e-05
0.000484886 -0.000145929 -0.000145267 -7.06016e-05
0.000494509 -0.000148835 -0.000148146 -7.0603e-05
0.000164959 -5.00533e-05 -4.92453e-05 -8.47045e-05
0.000324116 -9.77555e-05 -9.70117e-05 -7.94184e-05
0.000489698 -0.000147382 -0.000146707 -7.06023e-05
0.000330522 -9.96986e-05 -9.89241e-05 -7.94198e-05
0.000327319 -9.8727e-05 -9.79679e-05 -7.94191e-05
0.000163364 -4.95635e-05 -4.87718e-05 -8.47039e-05
0.000160175 -4.85842e-05 -4.78245e-05 -8.47026e-05
0.000475263 -0.000143024 -0.000142388 -7.06003e-05
0.000484886 -0.000145929 -0.000145267 -7.06016e-05
0.00016177 -4.90738e-05 -4.82982e-05 -8.47032e-05
0.00031771 -9.58126e-05 -9.5099e-05 -7.9417e-05
0.000480075 -0.000144476 -0.000143828 -7.06009e-05
0.000324116 -9.77555e-05 -9.70117e-05 -7.94184e-05
0.000320913 -9.6784e-05 -9.60554e-05 -7.94177e-05
0.000160175 -4.85842e-05 -4.78245e-05 -8.47026e-05
0.000156985 -4.76052e-05 -4.68769e-05 -8.47013e-05
0.00046564 -0.000140118 -0.000139509 -7.05989e-05
0.000475263 -0.000143024 -0.000142388 -7.06003e-05
0.00015858 -4.80947e-05 -4.73508e-05 -8.47019e-05
0.000311304 -9.38701e-05 -9.31859e-05 -7.94156e-05
0.000470452 -0.000141571 -0.000140949 -7.05996e-05
0.00031771 -9.58126e-05 -9.5099e-05 -7.9417e-05
0.000314507 -9.48413e-05 -9.41425e-05 -7.94163e-05
0.000156985 -4.76052e-05 -4.68769e-05 -8.47013e-05
0.000153794 -4.66265e-05 -4.5929e-05 -8.47e-05
0.000456017 -0.000137213 -0.00013663 -7.05975e-05
0.00046564 -0.000140118 -0.000139509 -7.05989e-05
0.000155389 -4.71158e-05 -4.6403e-05 -8.47006e-05
0.000304897 -9.19279e-05 -9.12726e-05 -7.94143e-05
0.000460829 -0.000138666 -0.00013807 -7.05982e-05
0.000311304 -9.38701e-05 -9.31859e-05 -7.94156e-05
0.000308101 -9.28989e-05 -9.22293e-05 -7.94149e-05
0.000153794 -4.66265e-05 -4.5929e-05 -8.47e-05
0.000150603 -4.56481e-05 -4.49807e-05 -8.46988e-05
0.000446393 -0.000134308 -0.00013375 -7.05962e-05
0.000456017 -0.000137213 -0.00013663 -7.05975e-05
0.000152199 -4.61373e-05 -4.54549e-05 -8.46994e-05
0.00029849 -8.99859e-05 -8.9359e-05 -7.94129e-05
0.000451205 -0.000135761 -0.00013519 -7.05969e-05
0.000304897 -9.19279e-05 -9.12726e-05 -7.94143e-05
0.000301694 -9.09568e-05 -9.03158e-05 -7.94136e-05
0.000150603 -4.56481e-05 -4.49807e-05 -8.46988e-05
0.000147412 -4.467e-05 -4.40321e-05 -8.46976e-05
0.000436769 -0.000131404 -0.000130871 -7.05949e-05
0.000446393 -0.000134308 -0.00013375 -7.05962e-05
0.000149007 -4.5159e-05 -4.45064e-05 -8.46982e-05
0.000292083 -8.80443e-05 -8.7445e-05 -7.94116e-05
0.000441581 -0.000132856 -0.000132311 -7.05955e-05
0.00029849 -8.99859e-05 -8.9359e-05 -7.94129e-05
0.000295286 -8.90151e-05 -8.8402e-05 -7.94123e-05
0.000147412 -4.467e-05 -4.40321e-05 -8.46976e-05
0.00014422 -4.36922e-05 -4.30832e-05 -8.46964e-05
0.000427144 -0.0001285 -0.000127991 -7.05936e-05
0.000436769 -0.000131404 -0.000130871 -7.05949e-05
0.000145816 -4.41811e-05 -4.35577e-05 -8.4697e-05
0.000285675 -8.61029e-05 -8.55308e-05 -7.94103e-05
0.000431956 -0.000129952 -0.000129431 -7.05942e-05
0.000292083 -8.80443e-05 -8.7445e-05 -7.94116e-05
0.000288879 -8.70736e-05 -8.64879e-05 -7.9411e-05
0.00014422 -4.36922e-05 -4.30832e-05 -8.46964e-05
0.000141027 -4.27148e-05 -4.21339e-05 -8.46952e-05
0.000417519 -0.000125596 -0.00012511 -7.05923e-05
0.000427144 -0.0001285 -0.000127991 -7.05936e-05
0.000142623 -4.32035e-05 -4.26086e-05 -8.46958e-05
0.000279266 -8.41619e-05 -8.36162e-05 -7.9409e-05
0.000422332 -0.000127048 -0.00012655 -7.05929e-05
0.000285675 -8.61029e-05 -8.55308e-05 -7.94103e-05
0.000282471 -8.51324e-05 -8.45735e-05 -7.94097e-05
0.000141027 -4.27148e-05 -4.21339e-05 -8.46952e-05
0.000137834 -4.17376e-05 -4.11842e-05 -8.4694e-05
0.000407894 -0.000122692 -0.000122229 -7.0591e-05
0.000417519 -0.000125596 -0.00012511 -7.05923e-05
0.000139431 -4.22262e-05 -4.16591e-05 -8.46946e-05
0.000272858 -8.22211e-05 -8.17013e-05 -7.94078e-05
0.000412707 -0.000124144 -0.00012367 -7.05917e-05
0.000279266 -8.41619e-05 -8.36162e-05 -7.9409e-05
0.000276062 -8.31915e-05 -8.26588e-05 -7.94084e-05
0.000137834 -4.17376e-05 -4.11842e-05 -8.4694e-05
0.000134641 -4.07608e-05 -4.02343e-05 -8.46929e-05
0.000398269 -0.000119789 -0.000119349 -7.05898e-05
0.000407894 -0.000122692 -0.000122229 -7.0591e-05
0.000136238 -4.12491e-05 -4.07093e-05 -8.46935e-05
0.000266448 -8.02807e-05 -7.97861e-05 -7.94065e-05
0.000403081 -0.00012124 -0.000120789 -7.05904e-05
0.000272858 -8.22211e-05 -8.17013e-05 -7.94078e-05
0.000269653 -8.12509e-05 -8.07438e-05 -7.94072e-05
0.000134641 -4.07608e-05 -4.02343e-05 -8.46929e-05
0.000131447 -3.97842e-05 -3.9284e-05 -8.46918e-05
0.000388643 -0.000116885 -0.000116467 -7.05885e-05
0.000398269 -0.000119789 -0.000119349 -7.05898e-05
0.000133044 -4.02725e-05 -3.97592e-05 -8.46923e-05
0.000260039 -7.83406e-05 -7.78707e-05 -7.94053e-05
0.000393456 -0.000118337 -0.000117908 -7.05892e-05
0.000266448 -8.02807e-05 -7.97861e-05 -7.94065e-05
0.000263244 -7.93106e-05 -7.88284e-05 -7.94059e-05
0.000131447 -3.97842e-05 -3.9284e-05 -8.46918e-05
0.000128252 -3.8808e-05 -3.83334e-05 -8.46907e-05
0.000379016 -0.000113982 -0.000113586 -7.05873e-05
0.000388643 -0.000116885 -0.000116467 -7.05885e-05
0.00012985 -3.92961e-05 -3.88087e-05 -8.46912e-05
0.000253629 -7.64007e-05 -7.59549e-05 -7.94041e-05
0.000383829 -0.000115434 -0.000115027 -7.05879e-05
0.000260039 -7.83406e-05 -7.78707e-05 -7.94053e-05
0.000256834 -7.73706e-05 -7.69128e-05 -7.94047e-05
0.000128252 -3.8808e-05 -3.83334e-05 -8.46907e-05
0.000125058 -3.78321e-05 -3.73824e-05 -8.46896e-05
0.00036939 -0.00011108 -0.000110704 -7.05861e-05
0.000379016 -0.000113982 -0.000113586 -7.05873e-05
0.000126655 -3.832e-05 -3.78579e-05 -8.46901e-05
0.000247218 -7.44611e-05 -7.40387e-05 -7.9403e-05
0.000374203 -0.000112531 -0.000112145 -7.05867e-05
0.000253629 -7.64007e-05 -7.59549e-05 -7.94041e-05
0.000250424 -7.54309e-05 -7.49968e-05 -7.94035e-05
0.000125058 -3.78321e-05 -3.73824e-05 -8.46896e-05
0.000121862 -3.68565e-05 -3.64311e-05 -8.46886e-05
0.000359763 -0.000108177 -0.000107822 -7.0585e-05
0.00036939 -0.00011108 -0.000110704 -7.05861e-05
0.00012346 -3.73442e-05 -3.69068e-05 -8.46891e-05
0.000240807 -7.25219e-05 -7.21223e-05 -7.94018e-05
0.000364576 -0.000109629 -0.000109263 -7.05855e-05
0.000247218 -7.44611e-05 -7.40387e-05 -7.9403e-05
0.000244013 -7.34915e-05 -7.30806e-05 -7.94024e-05
0.000121862 -3.68565e-05 -3.64311e-05 -8.46886e-05
0.000118666 -3.58811e-05 -3.54794e-05 -8.46875e-05
0.000350135 -0.000105275 -0.00010494 -7.05838e-05
0.000359763 -0.000108177 -0.000107822 -7.0585e-05
0.000120264 -3.63688e-05 -3.59553e-05 -8.4688e-05
0.000234396 -7.05829e-05 -7.02056e-05 -7.94007e-05
0.000354949 -0.000106726 -0.000106381 -7.05844e-05
0.000240807 -7.25219e-05 -7.21223e-05 -7.94018e-05
0.000237602 -7.15524e-05 -7.1164e-05 -7.94012e-05
0.000118666 -3.58811e-05 -3.54794e-05 -8.46875e-05
0.00011547 -3.49062e-05 -3.45274e-05 -8.46865e-05
0.000340508 -0.000102374 -0.000102057 -7.05827e-05
0.000350135 -0.000105275 -0.00010494 -7.05838e-05
0.000117068 -3.53936e-05 -3.50034e-05 -8.4687e-05
0.000227984 -6.86443e-05 -6.82886e-05 -7.93995e-05
0.000345322 -0.000103824 -0.000103499 -7.05832e-05
0.000234396 -7.05829e-05 -7.02056e-05 -7.94007e-05
0.00023119 -6.96136e-05 -6.92471e-05 -7.94001e-05
0.00011547 -3.49062e-05 -3.45274e-05 -8.46865e-05
0.000112273 -3.39315e-05 -3.35751e-05 -8.46855e-05
0.00033088 -9.9472e-05 -9.91746e-05 -7.05815e-05
0.000340508 -0.000102374 -0.000102057 -7.05827e-05
0.000113872 -3.44188e-05 -3.40513e-05 -8.4686e-05
0.000221572 -6.67059e-05 -6.63712e-05 -7.93985e-05
0.000335694 -0.000100923 -0.000100616 -7.05821e-05
0.000227984 -6.86443e-05 -6.82886e-05 -7.93995e-05
0.000224778 -6.76751e-05 -6.73299e-05 -7.9399e-05
0.000112273 -3.39315e-05 -3.35751e-05 -8.46855e-05
0.000109076 -3.29571e-05 -3.26224e-05 -8.46846e-05
0.000321251 -9.65708e-05 -9.62916e-05 -7.05804e-05
0.00033088 -9.9472e-05 -9.91746e-05 -7.05815e-05
0.000110675 -3.34442e-05 -3.30988e-05 -8.4685e-05
0.000215159 -6.47678e-05 -6.44535e-05 -7.93974e-05
0.000326065 -9.80214e-05 -9.77331e-05 -7.0581e-05
0.000221572 -6.67059e-05 -6.63712e-05 -7.93985e-05
0.000218366 -6.57368e-05 -6.54124e-05 -7.93979e-05
0.000109076 -3.29571e-05 -3.26224e-05 -8.46846e-05
0.000105878 -3.1983e-05 -3.16694e-05 -8.46836e-05
0.000311622 -9.36698e-05 -9.34082e-05 -7.05794e-05
0.000321251 -9.65708e-05 -9.62916e-05 -7.05804e-05
0.000107477 -3.247e-05 -3.21459e-05 -8.46841e-05
0.000208746 -6.28301e-05 -6.25355e-05 -7.93963e-05
0.000316437 -9.51202e-05 -9.48499e-05 -7.05799e-05
0.000215159 -6.47678e-05 -6.44535e-05 -7.93974e-05
0.000211953 -6.37989e-05 -6.34946e-05 -7.93969e-05
0.000105878 -3.1983e-05 -3.16694e-05 -8.46836e-05
0.00010268 -3.10093e-05 -3.0716e-05 -8.46827e-05
0.000301993 -9.0769e-05 -9.05246e-05 -7.05783e-05
0.000311622 -9.36698e-05 -9.34082e-05 -7.05794e-05
0.000104279 -3.14961e-05 -3.11927e-05 -8.46832e-05
0.000202333 -6.08926e-05 -6.06172e-05 -7.93953e-05
0.000306808 -9.22194e-05 -9.19664e-05 -7.05788e-05
0.000208746 -6.28301e-05 -6.25355e-05 -7.93963e-05
0.00020554 -6.18613e-05 -6.15764e-05 -7.93958e-05
0.00010268 -3.10093e-05 -3.0716e-05 -8.46827e-05
9.94812e-05 -3.00359e-05 -2.97623e-05 -8.46818e-05
0.000292364 -8.78686e-05 -8.76407e-05 -7.05773e-05
0.000301993 -9.0769e-05 -9.05246e-05 -7.05783e-05
0.000101081 -3.05225e-05 -3.02392e-05 -8.46823e-05
0.000195919 -5.89554e-05 -5.86986e-05 -7.93943e-05
0.000297178 -8.93188e-05 -8.90827e-05 -7.05778e-05
0.000202333 -6.08926e-05 -6.06172e-05 -7.93953e-05
0.000199126 -5.9924e-05 -5.9658e-05 -7.93948e-05
9.94812e-05 -3.00359e-05 -2.97623e-05 -8.46818e-05
9.6282e-05 -2.90628e-05 -2.88083e-05 -8.4681e-05
0.000282734 -8.49684e-05 -8.47565e-05 -7.05763e-05
0.000292364 -8.78686e-05 -8.76407e-05 -7.05773e-05
9.78817e-05 -2.95493e-05 -2.92853e-05 -8.46814e-05
0.000189505 -5.70186e-05 -5.67797e-05 -7.93934e-05
0.000287549 -8.64185e-05 -8.61986e-05 -7.05768e-05
0.000195919 -5.89554e-05 -5.86986e-05 -7.93943e-05
0.000192712 -5.7987e-05 -5.77392e-05 -7.93938e-05
9.6282e-05 -2.90628e-05 -2.88083e-05 -8.4681e-05
9.30824e-05 -2.809e-05 -2.78539e-05 -8.46801e-05
0.000273103 -8.20685e-05 -8.1872e-05 -7.05753e-05
0.000282734 -8.49684e-05 -8.47565e-05 -7.05763e-05
9.46823e-05 -2.85763e-05 -2.83311e-05 -8.46806e-05
0.00018309 -5.50821e-05 -5.48605e-05 -7.93925e-05
0.000277918 -8.35184e-05 -8.33143e-05 -7.05758e-05
0.000189505 -5.70186e-05 -5.67797e-05 -7.93934e-05
0.000186297 -5.60503e-05 -5.58201e-05 -7.93929e-05
9.30824e-05 -2.809e-05 -2.78539e-05 -8.46801e-05
8.98822e-05 -2.71176e-05 -2.68991e-05 -8.46794e-05
0.000263473 -7.91689e-05 -7.89873e-05 -7.05744e-05
0.000273103 -8.20685e-05 -8.1872e-05 -7.05753e-05
9.14824e-05 -2.76038e-05 -2.73765e-05 -8.46797e-05
0.000176675 -5.31459e-05 -5.29409e-05 -7.93916e-05
0.000268288 -8.06187e-05 -8.04297e-05 -7.05749e-05
0.00018309 -5.50821e-05 -5.48605e-05 -7.93925e-05
0.000179882 -5.41139e-05 -5.39007e-05 -7.9392e-05
8.98822e-05 -2.71176e-05 -2.68991e-05 -8.46794e-05
8.66817e-05 -2.61455e-05 -2.59441e-05 -8.46786e-05
0.000253842 -7.62696e-05 -7.61023e-05 -7.05736e-05
0.000263473 -7.91689e-05 -7.89873e-05 -7.05744e-05
8.8282e-05 -2.66315e-05 -2.64216e-05 -8.4679e-05
0.000170259 -5.121e-05 -5.1021e-05 -7.93908e-05
0.000258657 -7.77192e-05 -7.75448e-05 -7.0574e-05
0.000176675 -5.31459e-05 -5.29409e-05 -7.93916e-05
0.000173467 -5.21779e-05 -5.1981e-05 -7.93912e-05
8.66817e-05 -2.61455e-05 -2.59441e-05 -8.46786e-05
8.34807e-05 -2.51738e-05 -2.49887e-05 -8.46779e-05
0.00024421 -7.33706e-05 -7.3217e-05 -7.05728e-05
0.000253842 -7.62696e-05 -7.61023e-05 -7.05736e-05
8.50812e-05 -2.56596e-05 -2.54664e-05 -8.46782e-05
0.000163843 -4.92744e-05 -4.91008e-05 -7.939e-05
0.000249026 -7.482e-05 -7.46597e-05 -7.05732e-05
0.000170259 -5.121e-05 -5.1021e-05 -7.93908e-05
0.000167051 -5.02422e-05 -5.0061e-05 -7.93904e-05
8.34807e-05 -2.51738e-05 -2.49887e-05 -8.46779e-05
8.02793e-05 -2.42024e-05 -2.40329e-05 -8.46772e-05
0.000234578 -7.04718e-05 -7.03314e-05 -7.05721e-05
0.00024421 -7.33706e-05 -7.3217e-05 -7.05728e-05
8.18801e-05 -2.46881e-05 -2.45109e-05 -8.46775e-05
0.000157427 -4.73392e-05 -4.71803e-05 -7.93893e-05
0.000239394 -7.19212e-05 -7.17742e-05 -7.05725e-05
0.000163843 -4.92744e-05 -4.91008e-05 -7.939e-05
0.000160635 -4.83068e-05 -4.81406e-05 -7.93896e-05
8.02793e-05 -2.42024e-05 -2.40329e-05 -8.46772e-05
7.70775e-05 -2.32314e-05 -2.30769e-05 -8.46765e-05
0.000224946 -6.75734e-05 -6.74456e-05 -7.05715e-05
0.000234578 -7.04718e-05 -7.03314e-05 -7.05721e-05
7.86785e-05 -2.37169e-05 -2.3555e-05 -8.46769e-05
0.00015101 -4.54044e-05 -4.52595e-05 -7.93886e-05
0.000229762 -6.90226e-05 -6.88885e-05 -7.05718e-05
0.000157427 -4.73392e-05 -4.71803e-05 -7.93893e-05
0.000154218 -4.63718e-05 -4.622e-05 -7.93889e-05
7.70775e-05 -2.32314e-05 -2.30769e-05 -8.46765e-05
7.38754e-05 -2.22607e-05 -2.21206e-05 -8.46758e-05
0.000215314 -6.46753e-05 -6.45595e-05 -7.0571e-05
0.000224946 -6.75734e-05 -6.74456e-05 -7.05715e-05
7.54765e-05 -2.2746e-05 -2.25988e-05 -8.46762e-05
0.000144593 -4.34698e-05 -4.33385e-05 -7.9388e-05
0.00022013 -6.61243e-05 -6.60026e-05 -7.05712e-05
0.00015101 -4.54044e-05 -4.52595e-05 -7.93886e-05
0.000147801 -4.4437e-05 -4.4299e-05 -7.93883e-05
7.38754e-05 -2.22607e-05 -2.21206e-05 -8.46758e-05
7.06728e-05 -2.12902e-05 -2.1164e-05 -8.46751e-05
0.000205681 -6.17774e-05 -6.16732e-05 -7.05704e-05
0.000215314 -6.46753e-05 -6.45595e-05 -7.0571e-05
7.22742e-05 -2.17754e-05 -2.16423e-05 -8.46755e-05
0.000138176 -4.15355e-05 -4.14172e-05 -7.93873e-05
0.000210498 -6.32263e-05 -6.31163e-05 -7.05707e-05
0.000144593 -4.34698e-05 -4.33385e-05 -7.9388e-05
0.000141384 -4.25026e-05 -4.23778e-05 -7.93876e-05
7.06728e-05 -2.12902e-05 -2.1164e-05 -8.46751e-05
6.74699e-05 -2.03198e-05 -2.02072e-05 -8.46743e-05
0.000196049 -5.88797e-05 -5.87866e-05 -7.05698e-05
0.000205681 -6.17774e-05 -6.16732e-05 -7.05704e-05
6.90714e-05 -2.0805e-05 -2.06856e-05 -8.46747e-05
0.000131758 -3.96014e-05 -3.94956e-05 -7.93865e-05
0.000200865 -6.03286e-05 -6.02299e-05 -7.05701e-05
0.000138176 -4.15355e-05 -4.14172e-05 -7.93873e-05
0.000134967 -4.05684e-05 -4.04564e-05 -7.93869e-05
6.74699e-05 -2.03198e-05 -2.02072e-05 -8.46743e-05
6.42664e-05 -1.93493e-05 -1.92502e-05 -8.46732e-05
0.000186415 -5.59821e-05 -5.59e-05 -7.0569e-05
0.000196049 -5.88797e-05 -5.87866e-05 -7.05698e-05
6.58682e-05 -1.98346e-05 -1.97287e-05 -8.46738e-05
0.00012534 -3.76672e-05 -3.7574e-05 -7.93855e-05
0.000191232 -5.74309e-05 -5.73433e-05 -7.05695e-05
0.000131758 -3.96014e-05 -3.94956e-05 -7.93865e-05
0.000128549 -3.86343e-05 -3.85348e-05 -7.9386e-05
6.42664e-05 -1.93493e-05 -1.92502e-05 -8.46732e-05
6.10621e-05 -1.83783e-05 -1.82931e-05 -8.46719e-05
0.000176782 -5.30843e-05 -5.30134e-05 -7.05678e-05
0.000186415 -5.59821e-05 -5.59e-05 -7.0569e-05
6.26644e-05 -1.88639e-05 -1.87716e-05 -8.46726e-05
0.000118921 -3.57326e-05 -3.56523e-05 -7.9384e-05
0.000181599 -5.45333e-05 -5.44567e-05 -7.05685e-05
0.00012534 -3.76672e-05 -3.7574e-05 -7.93855e-05
0.000122131 -3.67e-05 -3.66131e-05 -7.93848e-05
6.10621e-05 -1.83783e-05 -1.82931e-05 -8.46719e-05
5.78567e-05 -1.74059e-05 -1.7336e-05 -8.46703e-05
0.000167148 -5.01857e-05 -5.01268e-05 -7.05656e-05
0.000176782 -5.30843e-05 -5.30134e-05 -7.05678e-05
5.94596e-05 -1.78923e-05 -1.78145e-05 -8.46712e-05
0.000112502 -3.37968e-05 -3.37307e-05 -7.93819e-05
0.000171965 -5.16352e-05 -5.15701e-05 -7.05668e-05
0.000118921 -3.57326e-05 -3.56523e-05 -7.9384e-05
0.000115712 -3.47649e-05 -3.46915e-05 -7.93831e-05
5.78567e-05 -1.74059e-05 -1.7336e-05 -8.46703e-05
5.46491e-05 -1.64312e-05 -1.63791e-05 -8.46687e-05
0.000157513 -4.72851e-05 -4.72408e-05 -7.05618e-05
0.000167148 -5.01857e-05 -5.01268e-05 -7.05656e-05
5.62533e-05 -1.6919e-05 -1.68576e-05 -8.46695e-05
0.000106081 -3.18585e-05 -3.18094e-05 -7.93789e-05
0.000162331 -4.87357e-05 -4.86837e-05 -7.0564e-05
0.000112502 -3.37968e-05 -3.37307e-05 -7.93819e-05
0.000109291 -3.28281e-05 -3.277e-05 -7.93805e-05
5.46491e-05 -1.64312e-05 -1.63791e-05 -8.46687e-05
5.14379e-05 -1.54518e-05 -1.54226e-05 -8.4668e-05
0.000147876 -4.43802e-05 -4.43554e-05 -7.05554e-05
0.000157513 -4.72851e-05 -4.72408e-05 -7.05618e-05
5.3044e-05 -1.59422e-05 -1.59008e-05 -8.46681e-05
9.96557e-05 -2.99151e-05 -2.98888e-05 -7.93748e-05
0.000152695 -4.58334e-05 -4.5798e-05 -7.0559e-05
0.000106081 -3.18585e-05 -3.18094e-05 -7.93789e-05
0.000102869 -3.08876e-05 -3.0849e-05 -7.93769e-05
5.14379e-05 -1.54518e-05 -1.54226e-05 -8.4668e-05
4.82193e-05 -1.44644e-05 -1.44664e-05 -8.46707e-05
0.000138233 -4.14664e-05 -4.14715e-05 -7.05444e-05
0.000147876 -4.43802e-05 -4.43554e-05 -7.05554e-05
4.98299e-05 -1.49595e-05 -1.49445e-05 -8.46687e-05
9.32233e-05 -2.79619e-05 -2.79692e-05 -7.93702e-05
0.000143056 -4.29248e-05 -4.29132e-05 -7.05506e-05
9.96557e-05 -2.99151e-05 -2.98888e-05 -7.93748e-05
9.64407e-05 -2.89401e-05 -2.89288e-05 -7.93725e-05
4.82193e-05 -1.44644e-05 -1.44664e-05 -8.46707e-05
4.49888e-05 -1.34629e-05 -1.35111e-05 -8.46824e-05
0.000128577 -3.85356e-05 -3.85893e-05 -7.05267e-05
0.000138233 -4.14664e-05 -4.14715e-05 -7.05444e-05
4.66057e-05 -1.39659e-05 -1.39885e-05 -8.46749e-05
8.67758e-05 -2.59902e-05 -2.6051e-05 -7.93669e-05
0.000133408 -4.0004e-05 -4.00302e-05 -7.05366e-05
9.32233e-05 -2.79619e-05 -2.79692e-05 -7.93702e-05
9.00021e-05 -2.6979e-05 -2.70099e-05 -7.93681e-05
4.49888e-05 -1.34629e-05 -1.35111e-05 -8.46824e-05
4.17335e-05 -1.24376e-05 -1.25554e-05 -8.47149e-05
0.000118897 -3.55719e-05 -3.57106e-05 -7.04983e-05
0.000128577 -3.85356e-05 -3.85893e-05 -7.05267e-05
4.33656e-05 -1.29542e-05 -1.30335e-05 -8.46949e-05
8.02987e-05 -2.39852e-05 -2.41343e-05 -7.93698e-05
0.000123741 -3.70591e-05 -3.71492e-05 -7.05143e-05
8.67758e-05 -2.59902e-05 -2.6051e-05 -7.93669e-05
8.35421e-05 -2.49933e-05 -2.50924e-05 -7.93674e-05
4.17335e-05 -1.24376e-05 -1.25554e-05 -8.47149e-05
3.84402e-05 -1.13718e-05 -1.16008e-05 -8.47901e-05
0.00010916 -3.25493e-05 -3.28332e-05 -7.04559e-05
0.000118897 -3.55719e-05 -3.57106e-05 -7.04983e-05
4.00918e-05 -1.19109e-05 -1.20776e-05 -8.47453e-05
7.3765e-05 -2.19209e-05 -2.22189e-05 -7.93893e-05
0.000114039 -3.40706e-05 -3.42721e-05 -7.04789e-05
8.02987e-05 -2.39852e-05 -2.41343e-05 -7.93698e-05
7.7041e-05 -2.29624e-05 -2.31766e-05 -7.9376e-05
3.84402e-05 -1.13718e-05 -1.16008e-05 -8.47901e-05
3.50691e-05 -1.02423e-05 -1.064e-05 -8.49494e-05
9.93292e-05 -2.94216e-05 -2.99604e-05 -7.03916e-05
0.00010916 -3.25493e-05 -3.28332e-05 -7.04559e-05
3.67691e-05 -1.08175e-05 -1.11221e-05 -8.48555e-05
6.71283e-05 -1.97581e-05 -2.03015e-05 -7.94466e-05
0.000104258 -3.10018e-05 -3.13955e-05 -7.04275e-05
7.3765e-05 -2.19209e-05 -2.22189e-05 -7.93893e-05
7.04632e-05 -2.08557e-05 -2.12604e-05 -7.94126e-05
3.50691e-05 -1.02423e-05 -1.064e-05 -8.49494e-05
3.15909e-05 -9.01059e-06 -9.67727e-06 -8.52581e-05
8.93011e-05 -2.61233e-05 -2.70762e-05 -7.03094e-05
9.93292e-05 -2.94216e-05 -2.99604e-05 -7.03916e-05
3.33423e-05 -9.64057e-06 -1.01579e-05 -8.508e-05
6.03094e-05 -1.74326e-05 -1.83758e-05 -7.958e-05
9.43511e-05 -2.78005e-05 -2.85217e-05 -7.03515e-05
6.71283e-05 -1.97581e-05 -2.03015e-05 -7.94466e-05
6.37479e-05 -1.8619e-05 -1.9341e-05 -7.94978e-05
3.15909e-05 -9.01059e-06 -9.67727e-06 -8.52581e-05
2.79014e-05 -7.64443e-06 -8.68156e-06 -8.5824e-05
7.89767e-05 -2.25504e-05 -2.41827e-05 -7.02016e-05
8.93011e-05 -2.61233e-05 -2.70762e-05 -7.03094e-05
2.97866e-05 -8.34935e-06 -9.1874e-06 -8.54997e-05
5.3193e-05 -1.48779e-05 -1.64208e-05 -7.98558e-05
8.4177e-05 -2.43752e-05 -2.56293e-05 -7.02605e-05
6.03094e-05 -1.74326e-05 -1.83758e-05 -7.958e-05
5.67966e-05 -1.61915e-05 -1.74022e-05 -7.96999e-05
2.79014e-05 -7.64443e-06 -8.68156e-06 -8.5824e-05
2.39817e-05 -6.09601e-06 -7.66528e-06 -8.67725e-05
6.80852e-05 -1.86169e-05 -2.12007e-05 -7.01304e-05
7.89767e-05 -2.25504e-05 -2.41827e-05 -7.02016e-05
2.59586e-05 -6.88749e-06 -8.17334e-06 -8.62426e-05
4.5609e-05 -1.2008e-05 -1.44004e-05 -8.03776e-05
7.36347e-05 -2.06403e-05 -2.27119e-05 -7.01525e-05
5.3193e-05 -1.48779e-05 -1.64208e-05 -7.98558e-05
4.94726e-05 -1.34786e-05 -1.5426e-05 -8.00667e-05
2.39817e-05 -6.09601e-06 -7.66528e-06 -8.67725e-05
1.96513e-05 -4.44997e-06 -6.51486e-06 -8.82479e-05
5.65067e-05 -1.42323e-05 -1.81176e-05 -7.01386e-05
6.80852e-05 -1.86169e-05 -2.12007e-05 -7.01304e-05
2.19021e-05 -5.28701e-06 -7.12074e-06 -8.74339e-05
3.74225e-05 -8.89886e-06 -1.22244e-05 -8.12854e-05
6.23641e-05 -1.64638e-05 -1.96716e-05 -7.01243e-05
4.5609e-05 -1.2008e-05 -1.44004e-05 -8.03776e-05
4.15948e-05 -1.04825e-05 -1.33338e-05 -8.07938e-05
1.96513e-05 -4.44997e-06 -6.51486e-06 -8.82479e-05
1.51752e-05 -2.86517e-06 -5.27574e-06 -9.01867e-05
4.38126e-05 -9.70752e-06 -1.46164e-05 -7.05759e-05
5.65067e-05 -1.42323e-05 -1.81176e-05 -7.01386e-05
1.73641e-05 -3.59787e-06 -5.89983e-06 -8.91768e-05
2.85621e-05 -5.80635e-06 -9.75246e-06 -8.27224e-05
5.03705e-05 -1.19781e-05 -1.64539e-05 -7.02618e-05
3.74225e-05 -8.89886e-06 -1.22244e-05 -8.12854e-05
3.30818e-05 -7.28423e-06 -1.10561e-05 -8.18887e-05
1.51752e-05 -2.86517e-06 -5.27574e-06 -9.01867e-05
1.06058e-05 -2.21968e-06 -3.59407e-06 -9.21301e-05
3.06203e-05 -5.79458e-06 -1.06396e-05 -7.17031e-05
4.38126e-05 -9.70752e-06 -1.46164e-05 -7.05759e-05
1.2963e-05 -2.39202e-06 -4.53043e-06 -9.12069e-05
1.96503e-05 -3.99338e-06 -6.71013e-06 -8.46357e-05
3.71301e-05 -7.50216e-06 -1.26977e-05 -7.10408e-05
2.85621e-05 -5.80635e-06 -9.75246e-06 -8.27224e-05
2.40296e-05 -4.65824e-06 -8.30199e-06 -8.37093e-05
1.06058e-05 -2.21968e-06 -3.59407e-06 -9.21301e-05
7.42553e-06 -3.53212e-06 -1.6686e-06 -9.22725e-05
1.77769e-05 -5.7366e-06 -5.16015e-06 -7.43626e-05
3.06203e-05 -5.79458e-06 -1.06396e-05 -7.17031e-05
8.59593e-06 -2.45076e-06 -2.63365e-06 -9.26108e-05
1.20632e-05 -5.50319e-06 -2.81143e-06 -8.61458e-05
2.41977e-05 -5.0779e-06 -8.19419e-06 -7.27662e-05
1.96503e-05 -3.99338e-06 -6.71013e-06 -8.46357e-05
1.56023e-05 -4.05728e-06 -4.94785e-06 -8.54122e-05
7.42553e-06 -3.53212e-06 -1.6686e-06 -9.22725e-05
5.81927e-06 -8.79511e-06 1.27536e-06 -8.72443e-05
1.09251e-05 -1.53211e-05 1.88403e-06 -7.65597e-05
1.77769e-05 -5.7366e-06 -5.16015e-06 -7.43626e-05
6.64863e-06 -5.79892e-06 -3.64162e-07 -9.06801e-05
9.37805e-06 -1.42587e-05 2.09169e-06 -8.36174e-05
1.28541e-05 -8.46697e-06 -1.8802e-06 -7.58063e-05
1.20632e-05 -5.50319e-06 -2.81143e-06 -8.61458e-05
9.74961e-06 -8.9234e-06 -3.54091e-07 -8.60132e-05
5.81927e-06 -8.79511e-06 1.27536e-06 -8.72443e-05
7.50136e-06 -1.57827e-05 3.54914e-06 -7.14355e-05
1.42706e-05 -4.54072e-05 1.33443e-05 -7.05845e-05
1.09251e-05 -1.53211e-05 1.88403e-06 -7.65597e-05
5.81197e-06 -1.20447e-05 2.67116e-06 -8.10582e-05
1.1376e-05 -3.01547e-05 8.04799e-06 -6.97495e-05
1.15454e-05 -2.79954e-05 7.05001e-06 -7.56043e-05
9.37805e-06 -1.42587e-05 2.09169e-06 -8.36174e-05
1.01772e-05 -2.13329e-05 4.78101e-06 -7.82192e-05
7.50136e-06 -1.57827e-05 3.54914e-06 -7.14355e-05
1.1892e-05 -2.54944e-05 5.82962e-06 -4.06863e-05
2.43933e-05 -8.23762e-05 2.48498e-05 -3.74188e-05
1.42706e-05 -4.54072e-05 1.33443e-05 -7.05845e-05
9.86784e-06 -2.03119e-05 4.47604e-06 -5.81052e-05
1.591e-05 -5.13872e-05 1.52045e-05 -4.1368e-05
1.86899e-05 -6.51595e-05 1.99155e-05 -5.84197e-05
1.1376e-05 -3.01547e-05 8.04799e-06 -6.97495e-05
1.32087e-05 -4.05445e-05 1.17153e-05 -5.77764e-05
0.00154884 0 -0.00066379 0.000201196
0.00175327 -0.000233991 -0.00065112 -8.7856e-06
0.00303659 -0.000602231 -0.0010433 -0.000228746
0.00269848 2.22045e-16 -0.00115649 -0.000158527
0.00167945 -0.000131674 -0.000663331 7.42932e-05
0.00234239 -0.000364415 -0.000847705 -9.57996e-05
0.0028877 -0.000283798 -0.00111596 -0.000265099
0.00220506 0 -0.000945027 2.78514e-05
0.00224266 -0.00020219 -0.000874486 -3.2592e-05
0.00175327 -0.000233991 -0.00065112 -8.7856e-06
0.00184376 -0.000427869 -0.000606812 -7.40003e-05
0.00315599 -0.000856557 -0.000985471 -0.000109994
0.00303659 -0.000602231 -0.0010433 -0.000228746
0.00179859 -0.000337022 -0.000626386 -5.08003e-05
0.00249902 -0.000619344 -0.000805576 -0.000111303
0.00313077 -0.000781216 -0.00100695 -0.000165702
0.00234239 -0.000364415 -0.000847705 -9.57996e-05
0.00244697 -0.000507453 -0.000831223 -0.000124889
0.00184376 -0.000427869 -0.000606812 -7.40003e-05
0.00189012 -0.000526464 -0.000584423 -8.63964e-05
0.00314131 -0.000928659 -0.000948279 -4.1583e-05
0.00315599 -0.000856557 -0.000985471 -0.000109994
0.0018779 -0.000488907 -0.000595284 -8.53649e-05
0.00252506 -0.000722789 -0.000772403 -7.49845e-05
0.00314768 -0.000901368 -0.000962704 -6.52309e-05
0.00249902 -0.000619344 -0.000805576 -0.000111303
0.0025184 -0.000686678 -0.000785025 -8.82652e-05
0.00189012 -0.000526464 -0.000584423 -8.63964e-05
0.00188904 -0.000565699 -0.000567147 -7.96732e-05
0.0031193 -0.000939097 -0.000934371 -2.58163e-05
0.00314131 -0.000928659 -0.000948279 -4.1583e-05
0.00189047 -0.000551013 -0.000574053 -8.26649e-05
0.00251332 -0.000756317 -0.000753 -5.68125e-05
0.00313311 -0.000938478 -0.000940558 -3.10608e-05
0.00252506 -0.000722789 -0.000772403 -7.49845e-05
0.00252228 -0.000744551 -0.000761883 -6.52199e-05
0.00188904 -0.000565699 -0.000567147 -7.96732e-05
0.00187616 -0.000573657 -0.000558216 -7.4999e-05
0.00309375 -0.000937854 -0.000923956 -2.47298e-05
0.0031193 -0.000939097 -0.000934371 -2.58163e-05
0.00188466 -0.000572198 -0.000562485 -7.73419e-05
0.00249046 -0.000758756 -0.00074216 -5.08792e-05
0.0031046 -0.000938819 -0.00092819 -2.37526e-05
0.00251332 -0.000756317 -0.000753 -5.68125e-05
0.00250158 -0.000759814 -0.00074647 -5.1988e-05
0.00187616 -0.000573657 -0.000558216 -7.4999e-05
0.00185767 -0.000571156 -0.000551363 -7.18561e-05
0.00307435 -0.000931162 -0.000918507 -2.96238e-05
0.00309375 -0.000937854 -0.000923956 -2.47298e-05
0.00186626 -0.000573045 -0.000554234 -7.29633e-05
0.00246929 -0.00075377 -0.000735223 -5.10305e-05
0.00308444 -0.000934959 -0.000921208 -2.72838e-05
0.00249046 -0.000758756 -0.00074216 -5.08792e-05
0.00247977 -0.000756593 -0.000738503 -5.09168e-05
0.00185767 -0.000571156 -0.000551363 -7.18561e-05
0.00184149 -0.000565051 -0.000547045 -7.08238e-05
0.00305561 -0.000924533 -0.000913318 -3.38383e-05
0.00307435 -0.000931162 -0.000918507 -2.96238e-05
0.00184966 -0.000568302 -0.000549153 -7.12848e-05
0.0024502 -0.000746289 -0.000730247 -5.28219e-05
0.00306441 -0.000927721 -0.000915726 -3.17263e-05
0.00246929 -0.00075377 -0.000735223 -5.10305e-05
0.00245933 -0.000750152 -0.000732506 -5.16946e-05
0.00184149 -0.000565051 -0.000547045 -7.08238e-05
0.00182672 -0.000558966 -0.000543322 -7.03771e-05
0.0030388 -0.00091804 -0.000908899 -3.73281e-05
0.00305561 -0.000924533 -0.000913318 -3.38383e-05
0.00183367 -0.000561917 -0.000545037 -7.04908e-05
0.00243358 -0.000739493 -0.000726036 -5.46941e-05
0.00304728 -0.000921269 -0.000911149 -3.58062e-05
0.0024502 -0.000746289 -0.000730247 -5.28219e-05
0.00244168 -0.00074275 -0.000728114 -5.38794e-05
0.00182672 -0.000558966 -0.000543322 -7.03771e-05
0.00181411 -0.000553562 -0.000540234 -7.03804e-05
0.00302221 -0.000912145 -0.000904314 -3.94835e-05
0.0030388 -0.00091804 -0.000908899 -3.73281e-05
0.00182031 -0.000556168 -0.000541773 -7.03772e-05
0.00241848 -0.000733419 -0.000722168 -5.61256e-05
0.00303038 -0.000915015 -0.000906583 -3.85081e-05
0.00243358 -0.000739493 -0.000726036 -5.46941e-05
0.00242585 -0.000736368 -0.000724065 -5.544e-05
0.00181411 -0.000553562 -0.000540234 -7.03804e-05
0.00180262 -0.000549006 -0.000537262 -7.04422e-05
0.00300607 -0.000906622 -0.000899765 -4.08673e-05
0.00302221 -0.000912145 -0.000904314 -3.94835e-05
0.00180819 -0.000551186 -0.000538716 -7.03955e-05
0.00240443 -0.00072818 -0.000718392 -5.70785e-05
0.00301416 -0.000909349 -0.000902063 -4.02797e-05
0.00241848 -0.000733419 -0.000722168 -5.61256e-05
0.00241136 -0.000730707 -0.000720282 -5.66729e-05
0.00180262 -0.000549006 -0.000537262 -7.04422e-05
0.00179203 -0.000545065 -0.000534416 -7.05479e-05
0.00298997 -0.000901389 -0.000895104 -4.1632e-05
0.00300607 -0.000906622 -0.000899765 -4.08673e-05
0.00179727 -0.000546973 -0.000535842 -7.05006e-05
0.00239096 -0.000723464 -0.00071464 -5.76724e-05
0.00299799 -0.000903975 -0.000897436 -4.12999e-05
0.00240443 -0.00072818 -0.000718392 -5.70785e-05
0.00239764 -0.000725771 -0.000716514 -5.74063e-05
0.00179203 -0.000545065 -0.000534416 -7.05479e-05
0.00178189 -0.00054155 -0.000531576 -7.06287e-05
0.00297394 -0.000896323 -0.000890407 -4.20692e-05
0.00298997 -0.000901389 -0.000895104 -4.1632e-05
0.00178691 -0.000543265 -0.00053299 -7.05888e-05
0.00237782 -0.000719115 -0.000710875 -5.80191e-05
0.00298196 -0.000898841 -0.000892765 -4.18867e-05
0.00239096 -0.000723464 -0.00071464 -5.76724e-05
0.00238436 -0.000721253 -0.000712762 -5.78733e-05
0.00178189 -0.00054155 -0.000531576 -7.06287e-05
0.00177204 -0.00053829 -0.000528751 -7.06945e-05
0.00295791 -0.000891359 -0.000885664 -4.22945e-05
0.00297394 -0.000896323 -0.000890407 -4.20692e-05
0.00177695 -0.000539896 -0.000530166 -7.06652e-05
0.00236486 -0.000714969 -0.000707096 -5.82172e-05
0.00296592 -0.000893832 -0.000888038 -4.21991e-05
0.00237782 -0.000719115 -0.000710875 -5.80191e-05
0.00237133 -0.000717023 -0.000708987 -5.8131e-05
0.00177204 -0.00053829 -0.000528751 -7.06945e-05
0.00176232 -0.000535179 -0.000525919 -7.07394e-05
0.00294188 -0.000886448 -0.0008809 -4.24141e-05
0.00295791 -0.000891359 -0.000885664 -4.22945e-05
0.00176717 -0.00053672 -0.000527335 -7.07186e-05
0.00235198 -0.000710944 -0.000703301 -5.83259e-05
0.0029499 -0.000888899 -0.000883285 -4.23648e-05
0.00236486 -0.000714969 -0.000707096 -5.82172e-05
0.00235841 -0.000712945 -0.0007052 -5.82805e-05
0.00176232 -0.000535179 -0.000525919 -7.07394e-05
0.00175268 -0.000532149 -0.000523085 -7.07708e-05
0.00292585 -0.000881566 -0.000876121 -4.24726e-05
0.00294188 -0.000886448 -0.0008809 -4.24141e-05
0.0017575 -0.000533656 -0.000524503 -7.07568e-05
0.00233914 -0.00070698 -0.000699497 -5.83854e-05
0.00293387 -0.000884005 -0.000878512 -4.24482e-05
0.00235198 -0.000710944 -0.000703301 -5.83259e-05
0.00234556 -0.000708956 -0.0007014 -5.83599e-05
0.00175268 -0.000532149 -0.000523085 -7.07708e-05
0.00174307 -0.000529161 -0.000520246 -7.07913e-05
0.00290981 -0.000876698 -0.000871333 -4.2502e-05
0.00292585 -0.000881566 -0.000876121 -4.24726e-05
0.00174787 -0.000530651 -0.000521666 -7.07821e-05
0.00232632 -0.000703049 -0.000695686 -5.84173e-05
0.00291783 -0.000879131 -0.000873728 -4.249e-05
0.00233914 -0.00070698 -0.000699497 -5.83854e-05
0.00233273 -0.000705012 -0.000697592 -5.8404e-05
0.00174307 -0.000529161 -0.000520246 -7.07913e-05
0.00173347 -0.000526196 -0.000517405 -7.08046e-05
0.00289377 -0.000871837 -0.000866541 -4.25158e-05
0.00290981 -0.000876698 -0.000871333 -4.2502e-05
0.00173827 -0.000527677 -0.000518826 -7.07987e-05
0.0023135 -0.000699134 -0.000691871 -5.84343e-05
0.00290179 -0.000874267 -0.000868937 -4.25101e-05
0.00232632 -0.000703049 -0.000695686 -5.84173e-05
0.00231991 -0.00070109 -0.000693779 -5.8427e-05
0.00173347 -0.000526196 -0.000517405 -7.08046e-05
0.00172389 -0.000523242 -0.000514561 -7.08128e-05
0.00287772 -0.000866978 -0.000861746 -4.25223e-05
0.00289377 -0.000871837 -0.000866541 -4.25158e-05
0.00172868 -0.000524718 -0.000515983 -7.08092e-05
0.00230068 -0.000695227 -0.000688053 -5.84431e-05
0.00288574 -0.000869407 -0.000864143 -4.25197e-05
0.0023135 -0.000699134 -0.000691871 -5.84343e-05
0.00230709 -0.00069718 -0.000689962 -5.84395e-05
0.00172389 -0.000523242 -0.000514561 -7.08128e-05
0.0017143 -0.000520293 -0.000511717 -7.08175e-05
0.00286167 -0.000862121 -0.000856949 -4.2525e-05
0.00287772 -0.000866978 -0.000861746 -4.25223e-05
0.00171909 -0.000521767 -0.000513139 -7.08155e-05
0.00228787 -0.000691323 -0.000684234 -5.84476e-05
0.00286969 -0.00086455 -0.000859347 -4.2524e-05
0.00230068 -0.000695227 -0.000688053 -5.84431e-05
0.00229428 -0.000693274 -0.000686143 -5.84457e-05
0.0017143 -0.000520293 -0.000511717 -7.08175e-05
0.00170471 -0.000517347 -0.000508871 -7.082e-05
0.00284562 -0.000857264 -0.000852151 -4.2526e-05
0.00286167 -0.000862121 -0.000856949 -4.2525e-05
0.00170951 -0.00051882 -0.000510294 -7.0819e-05
0.00227505 -0.00068742 -0.000680413 -5.84495e-05
0.00285364 -0.000859693 -0.00085455 -4.25257e-05
0.00228787 -0.000691323 -0.000684234 -5.84476e-05
0.00228146 -0.000689371 -0.000682323 -5.84488e-05
0.00170471 -0.000517347 -0.000508871 -7.082e-05
0.00169513 -0.000514403 -0.000506024 -7.0821e-05
0.00282957 -0.000852408 -0.000847353 -4.25259e-05
0.00284562 -0.000857264 -0.000852151 -4.2526e-05
0.00169992 -0.000515875 -0.000507448 -7.08207e-05
0.00226223 -0.000683519 -0.000676592 -5.84501e-05
0.00283759 -0.000854836 -0.000849752 -4.2526e-05
0.00227505 -0.00068742 -0.000680413 -5.84495e-05
0.00226864 -0.000685469 -0.000678502 -5.84499e-05
0.00169513 -0.000514403 -0.000506024 -7.0821e-05
0.00168554 -0.000511459 -0.000503177 -7.0821e-05
0.00281351 -0.000847552 -0.000842554 -4.25253e-05
0.00282957 -0.000852408 -0.000847353 -4.25259e-05
0.00169033 -0.000512931 -0.000504601 -7.08211e-05
0.00224941 -0.000679618 -0.00067277 -5.84498e-05
0.00282154 -0.00084998 -0.000844954 -4.25257e-05
0.00226223 -0.000683519 -0.000676592 -5.84501e-05
0.00225582 -0.000681568 -0.000674681 -5.845e-05
0.00168554 -0.000511459 -0.000503177 -7.0821e-05
0.00167595 -0.000508517 -0.000500329 -7.08204e-05
0.00279746 -0.000842696 -0.000837756 -4.25245e-05
0.00281351 -0.000847552 -0.000842554 -4.25253e-05
0.00168075 -0.000509988 -0.000501753 -7.08208e-05
0.0022366 -0.000675717 -0.000668948 -5.8449e-05
0.00280549 -0.000845124 -0.000840155 -4.25249e-05
0.00224941 -0.000679618 -0.00067277 -5.84498e-05
0.00224301 -0.000677667 -0.000670859 -5.84494e-05
0.00167595 -0.000508517 -0.000500329 -7.08204e-05
0.00166636 -0.000505574 -0.000497481 -7.08194e-05
0.00278141 -0.00083784 -0.000832957 -4.25235e-05
0.00279746 -0.000842696 -0.000837756 -4.25245e-05
0.00167116 -0.000507045 -0.000498905 -7.082e-05
0.00222378 -0.000671817 -0.000665125 -5.84479e-05
0.00278943 -0.000840268 -0.000835356 -4.2524e-05
0.0022366 -0.000675717 -0.000668948 -5.8449e-05
0.00223019 -0.000673767 -0.000667037 -5.84485e-05
0.00166636 -0.000505574 -0.000497481 -7.08194e-05
0.00165678 -0.000502632 -0.000494633 -7.08182e-05
0.00276535 -0.000832985 -0.000828157 -4.25224e-05
0.00278141 -0.00083784 -0.000832957 -4.25235e-05
0.00166157 -0.000504103 -0.000496057 -7.08188e-05
0.00221096 -0.000667917 -0.000661303 -5.84467e-05
0.00277338 -0.000835412 -0.000830557 -4.2523e-05
0.00222378 -0.000671817 -0.000665125 -5.84479e-05
0.00221737 -0.000669867 -0.000663214 -5.84473e-05
0.00165678 -0.000502632 -0.000494633 -7.08182e-05
0.00164719 -0.00049969 -0.000491784 -7.08168e-05
0.0027493 -0.000828129 -0.000823358 -4.25213e-05
0.00276535 -0.000832985 -0.000828157 -4.25224e-05
0.00165198 -0.000501161 -0.000493209 -7.08175e-05
0.00219814 -0.000664017 -0.00065748 -5.84454e-05
0.00275732 -0.000830557 -0.000825758 -4.25219e-05
0.00221096 -0.000667917 -0.000661303 -5.84467e-05
0.00220455 -0.000665967 -0.000659391 -5.84461e-05
0.00164719 -0.00049969 -0.000491784 -7.08168e-05
0.0016376 -0.000496749 -0.000488935 -7.08154e-05
0.00273324 -0.000823274 -0.000818558 -4.25202e-05
0.0027493 -0.000828129 -0.000823358 -4.25213e-05
0.00164239 -0.00049822 -0.00049036 -7.08161e-05
0.00218532 -0.000660117 -0.000653657 -5.8444e-05
0.00274127 -0.000825702 -0.000820958 -4.25208e-05
0.00219814 -0.000664017 -0.00065748 -5.84454e-05
0.00219173 -0.000662067 -0.000655568 -5.84447e-05
0.0016376 -0.000496749 -0.000488935 -7.08154e-05
0.00162801 -0.000493808 -0.000486086 -7.0814e-05
0.00271719 -0.000818419 -0.000813759 -4.25191e-05
0.00273324 -0.000823274 -0.000818558 -4.25202e-05
0.0016328 -0.000495278 -0.000487511 -7.08147e-05
0.0021725 -0.000656218 -0.000649833 -5.84427e-05
0.00272522 -0.000820846 -0.000816159 -4.25196e-05
0.00218532 -0.000660117 -0.000653657 -5.8444e-05
0.00217891 -0.000658168 -0.000651745 -5.84434e-05
0.00162801 -0.000493808 -0.000486086 -7.0814e-05
0.00161842 -0.000490867 -0.000483236 -7.08125e-05
0.00270114 -0.000813564 -0.000808959 -4.2518e-05
0.00271719 -0.000818419 -0.000813759 -4.25191e-05
0.00162321 -0.000492337 -0.000484661 -7.08132e-05
0.00215967 -0.000652319 -0.00064601 -5.84413e-05
0.00270916 -0.000815992 -0.000811359 -4.25185e-05
0.0021725 -0.000656218 -0.000649833 -5.84427e-05
0.00216609 -0.000654269 -0.000647921 -5.8442e-05
0.00161842 -0.000490867 -0.000483236 -7.08125e-05
0.00160883 -0.000487927 -0.000480387 -7.0811e-05
0.00268508 -0.00080871 -0.000804159 -4.25169e-05
0.00270114 -0.000813564 -0.000808959 -4.2518e-05
0.00161362 -0.000489397 -0.000481812 -7.08117e-05
0.00214685 -0.00064842 -0.000642186 -5.84399e-05
0.00269311 -0.000811137 -0.000806559 -4.25174e-05
0.00215967 -0.000652319 -0.00064601 -5.84413e-05
0.00215326 -0.00065037 -0.000644098 -5.84406e-05
0.00160883 -0.000487927 -0.000480387 -7.0811e-05
0.00159924 -0.000484986 -0.000477537 -7.08095e-05
0.00266903 -0.000803855 -0.000799359 -4.25158e-05
0.00268508 -0.00080871 -0.000804159 -4.25169e-05
0.00160403 -0.000486456 -0.000478962 -7.08102e-05
0.00213403 -0.000644522 -0.000638362 -5.84385e-05
0.00267705 -0.000806282 -0.000801759 -4.25163e-05
0.00214685 -0.00064842 -0.000642186 -5.84399e-05
0.00214044 -0.000646471 -0.000640274 -5.84392e-05
0.00159924 -0.000484986 -0.000477537 -7.08095e-05
0.00158965 -0.000482046 -0.000474686 -7.0808e-05
0.00265297 -0.000799001 -0.000794559 -4.25147e-05
0.00266903 -0.000803855 -0.000799359 -4.25158e-05
0.00159444 -0.000483516 -0.000476111 -7.08087e-05
0.00212121 -0.000640623 -0.000634537 -5.84372e-05
0.002661 -0.000801428 -0.000796959 -4.25152e-05
0.00213403 -0.000644522 -0.000638362 -5.84385e-05
0.00212762 -0.000642573 -0.00063645 -5.84379e-05
0.00158965 -0.000482046 -0.000474686 -7.0808e-05
0.00158006 -0.000479107 -0.000471836 -7.08065e-05
0.00263692 -0.000794147 -0.000789758 -4.25136e-05
0.00265297 -0.000799001 -0.000794559 -4.25147e-05
0.00158485 -0.000480576 -0.000473261 -7.08072e-05
0.00210839 -0.000636725 -0.000630713 -5.84358e-05
0.00264494 -0.000796574 -0.000792159 -4.25141e-05
0.00212121 -0.000640623 -0.000634537 -5.84372e-05
0.0021148 -0.000638674 -0.000632625 -5.84365e-05
0.00158006 -0.000479107 -0.000471836 -7.08065e-05
0.00157046 -0.000476167 -0.000468985 -7.0805e-05
0.00262086 -0.000789293 -0.000784958 -4.25125e-05
0.00263692 -0.000794147 -0.000789758 -4.25136e-05
0.00157526 -0.000477637 -0.00047041 -7.08057e-05
0.00209557 -0.000632827 -0.000626888 -5.84344e-05
0.00262889 -0.00079172 -0.000787358 -4.2513e-05
0.00210839 -0.000636725 -0.000630713 -5.84358e-05
0.00210198 -0.000634776 -0.000628801 -5.84351e-05
0.00157046 -0.000476167 -0.000468985 -7.0805e-05
0.00156087 -0.000473228 -0.000466134 -7.08034e-05
0.00260481 -0.000784439 -0.000780158 -4.25114e-05
0.00262086 -0.000789293 -0.000784958 -4.25125e-05
0.00156567 -0.000474698 -0.000467559 -7.08042e-05
0.00208274 -0.00062893 -0.000623064 -5.8433e-05
0.00261283 -0.000786866 -0.000782558 -4.25119e-05
0.00209557 -0.000632827 -0.000626888 -5.84344e-05
0.00208916 -0.000630879 -0.000624976 -5.84337e-05
0.00156087 -0.000473228 -0.000466134 -7.08034e-05
0.00155128 -0.000470289 -0.000463282 -7.08019e-05
0.00258875 -0.000779586 -0.000775357 -4.25102e-05
0.00260481 -0.000784439 -0.000780158 -4.25114e-05
0.00155608 -0.000471759 -0.000464708 -7.08026e-05
0.00206992 -0.000625033 -0.000619239 -5.84316e-05
0.00259678 -0.000782013 -0.000777757 -4.25108e-05
0.00208274 -0.00062893 -0.000623064 -5.8433e-05
0.00207633 -0.000626981 -0.000621151 -5.84323e-05
0.00155128 -0.000470289 -0.000463282 -7.08019e-05
0.00154169 -0.000467351 -0.000460431 -7.08003e-05
0.0025727 -0.000774733 -0.000770556 -4.25091e-05
0.00258875 -0.000779586 -0.000775357 -4.25102e-05
0.00154649 -0.00046882 -0.000461856 -7.08011e-05
0.0020571 -0.000621135 -0.000615413 -5.84302e-05
0.00258072 -0.000777159 -0.000772956 -4.25097e-05
0.00206992 -0.000625033 -0.000619239 -5.84316e-05
0.00206351 -0.000623084 -0.000617326 -5.84309e-05
0.00154169 -0.000467351 -0.000460431 -7.08003e-05
0.0015321 -0.000464412 -0.000457579 -7.07987e-05
0.00255664 -0.00076988 -0.000765755 -4.2508e-05
0.0025727 -0.000774733 -0.000770556 -4.25091e-05
0.00153689 -0.000465881 -0.000459005 -7.07995e-05
0.00204428 -0.000617239 -0.000611588 -5.84287e-05
0.00256467 -0.000772306 -0.000768156 -4.25086e-05
0.0020571 -0.000621135 -0.000615413 -5.84302e-05
0.00205069 -0.000619187 -0.000613501 -5.84295e-05
0.0015321 -0.000464412 -0.000457579 -7.07987e-05
0.0015225 -0.000461474 -0.000454727 -7.07971e-05
0.00254059 -0.000765027 -0.000760954 -4.25069e-05
0.00255664 -0.00076988 -0.000765755 -4.2508e-05
0.0015273 -0.000462943 -0.000456153 -7.07979e-05
0.00203145 -0.000613342 -0.000607762 -5.84273e-05
0.00254861 -0.000767453 -0.000763355 -4.25074e-05
0.00204428 -0.000617239 -0.000611588 -5.84287e-05
0.00203787 -0.00061529 -0.000609675 -5.8428e-05
0.0015225 -0.000461474 -0.000454727 -7.07971e-05
0.00151291 -0.000458537 -0.000451874 -7.07955e-05
0.00252453 -0.000760174 -0.000756153 -4.25057e-05
0.00254059 -0.000765027 -0.000760954 -4.25069e-05
0.00151771 -0.000460005 -0.0004533 -7.07963e-05
0.00201863 -0.000609446 -0.000603937 -5.84258e-05
0.00253256 -0.0007626 -0.000758553 -4.25063e-05
0.00203145 -0.000613342 -0.000607762 -5.84273e-05
0.00202504 -0.000611394 -0.00060585 -5.84266e-05
0.00151291 -0.000458537 -0.000451874 -7.07955e-05
0.00150332 -0.000455599 -0.000449022 -7.07939e-05
0.00250848 -0.000755322 -0.000751352 -4.25045e-05
0.00252453 -0.000760174 -0.000756153 -4.25057e-05
0.00150811 -0.000457068 -0.000450448 -7.07947e-05
0.00200581 -0.00060555 -0.000600111 -5.84244e-05
0.0025165 -0.000757748 -0.000753752 -4.25051e-05
0.00201863 -0.000609446 -0.000603937 -5.84258e-05
0.00201222 -0.000607498 -0.000602024 -5.84251e-05
0.00150332 -0.000455599 -0.000449022 -7.07939e-05
0.00149372 -0.000452662 -0.000446169 -7.07922e-05
0.00249242 -0.000750469 -0.00074655 -4.25034e-05
0.00250848 -0.000755322 -0.000751352 -4.25045e-05
0.00149852 -0.000454131 -0.000447595 -7.07931e-05
0.00199298 -0.000601654 -0.000596284 -5.84229e-05
0.00250045 -0.000752896 -0.000748951 -4.2504e-05
0.00200581 -0.00060555 -0.000600111 -5.84244e-05
0.0019994 -0.000603602 -0.000598198 -5.84236e-05
0.00149372 -0.000452662 -0.000446169 -7.07922e-05
0.00148413 -0.000449725 -0.000443316 -7.07906e-05
0.00247636 -0.000745617 -0.000741749 -4.25022e-05
0.00249242 -0.000750469 -0.00074655 -4.25034e-05
0.00148893 -0.000451194 -0.000444742 -7.07914e-05
0.00198016 -0.000597758 -0.000592458 -5.84214e-05
0.00248439 -0.000748043 -0.000744149 -4.25028e-05
0.00199298 -0.000601654 -0.000596284 -5.84229e-05
0.00198657 -0.000599706 -0.000594371 -5.84221e-05
0.00148413 -0.000449725 -0.000443316 -7.07906e-05
0.00147453 -0.000446789 -0.000440462 -7.07889e-05
0.00246031 -0.000740766 -0.000736947 -4.2501e-05
0.00247636 -0.000745617 -0.000741749 -4.25022e-05
0.00147933 -0.000448257 -0.000441889 -7.07897e-05
0.00196734 -0.000593863 -0.000588632 -5.84199e-05
0.00246834 -0.000743192 -0.000739348 -4.25016e-05
0.00198016 -0.000597758 -0.000592458 -5.84214e-05
0.00197375 -0.00059581 -0.000590545 -5.84206e-05
0.00147453 -0.000446789 -0.000440462 -7.07889e-05
0.00146494 -0.000443852 -0.000437609 -7.07872e-05
0.00244425 -0.000735914 -0.000732145 -4.24998e-05
0.00246031 -0.000740766 -0.000736947 -4.2501e-05
0.00146974 -0.00044532 -0.000439035 -7.0788e-05
0.00195451 -0.000589968 -0.000584805 -5.84184e-05
0.00245228 -0.00073834 -0.000734546 -4.25004e-05
0.00196734 -0.000593863 -0.000588632 -5.84199e-05
0.00196092 -0.000591915 -0.000586718 -5.84191e-05
0.00146494 -0.000443852 -0.000437609 -7.07872e-05
0.00145534 -0.000440916 -0.000434755 -7.07855e-05
0.0024282 -0.000731063 -0.000727343 -4.24986e-05
0.00244425 -0.000735914 -0.000732145 -4.24998e-05
0.00146014 -0.000442384 -0.000436182 -7.07863e-05
0.00194169 -0.000586073 -0.000580978 -5.84168e-05
0.00243623 -0.000733488 -0.000729744 -4.24992e-05
0.00195451 -0.000589968 -0.000584805 -5.84184e-05
0.0019481 -0.00058802 -0.000582891 -5.84176e-05
0.00145534 -0.000440916 -0.000434755 -7.07855e-05
0.00144575 -0.000437981 -0.000431901 -7.07837e-05
0.00241214 -0.000726211 -0.000722541 -4.24974e-05
0.0024282 -0.000731063 -0.000727343 -4.24986e-05
0.00145055 -0.000439448 -0.000433328 -7.07846e-05
0.00192886 -0.000582178 -0.000577151 -5.84153e-05
0.00242017 -0.000728637 -0.000724942 -4.2498e-05
0.00194169 -0.000586073 -0.000580978 -5.84168e-05
0.00193528 -0.000584126 -0.000579064 -5.8416e-05
0.00144575 -0.000437981 -0.000431901 -7.07837e-05
0.00143615 -0.000435045 -0.000429046 -7.0782e-05
0.00239609 -0.000721361 -0.000717739 -4.24961e-05
0.00241214 -0.000726211 -0.000722541 -4.24974e-05
0.00144095 -0.000436513 -0.000430473 -7.07829e-05
0.00191604 -0.000578284 -0.000573323 -5.84137e-05
0.00240411 -0.000723786 -0.00072014 -4.24968e-05
0.00192886 -0.000582178 -0.000577151 -5.84153e-05
0.00192245 -0.000580231 -0.000575237 -5.84145e-05
0.00143615 -0.000435045 -0.000429046 -7.0782e-05
0.00142656 -0.00043211 -0.000426192 -7.07802e-05
0.00238003 -0.00071651 -0.000712937 -4.24949e-05
0.00239609 -0.000721361 -0.000717739 -4.24961e-05
0.00143136 -0.000433578 -0.000427619 -7.07811e-05
0.00190321 -0.00057439 -0.000569496 -5.84121e-05
0.00238806 -0.000718935 -0.000715338 -4.24955e-05
0.00191604 -0.000578284 -0.000573323 -5.84137e-05
0.00190963 -0.000576337 -0.00057141 -5.84129e-05
0.00142656 -0.00043211 -0.000426192 -7.07802e-05
0.00141696 -0.000429175 -0.000423337 -7.07785e-05
0.00236397 -0.000711659 -0.000708135 -4.24937e-05
0.00238003 -0.00071651 -0.000712937 -4.24949e-05
0.00142176 -0.000430643 -0.000424764 -7.07794e-05
0.00189039 -0.000570496 -0.000565668 -5.84105e-05
0.002372 -0.000714084 -0.000710536 -4.24943e-05
0.00190321 -0.00057439 -0.000569496 -5.84121e-05
0.0018968 -0.000572443 -0.000567582 -5.84113e-05
0.00141696 -0.000429175 -0.000423337 -7.07785e-05
0.00140736 -0.000426241 -0.000420482 -7.07767e-05
0.00234792 -0.000706809 -0.000703332 -4.24924e-05
0.00236397 -0.000711659 -0.000708135 -4.24937e-05
0.00141216 -0.000427708 -0.000421909 -7.07776e-05
0.00187756 -0.000566603 -0.00056184 -5.84089e-05
0.00235595 -0.000709234 -0.000705734 -4.2493e-05
0.00189039 -0.000570496 -0.000565668 -5.84105e-05
0.00188398 -0.00056855 -0.000563754 -5.84097e-05
0.00140736 -0.000426241 -0.000420482 -7.07767e-05
0.00139777 -0.000423307 -0.000417626 -7.07749e-05
0.00233186 -0.000701959 -0.00069853 -4.24912e-05
0.00234792 -0.000706809 -0.000703332 -4.24924e-05
0.00140257 -0.000424774 -0.000419054 -7.07758e-05
0.00186474 -0.00056271 -0.000558012 -5.84073e-05
0.00233989 -0.000704384 -0.000700931 -4.24918e-05
0.00187756 -0.000566603 -0.00056184 -5.84089e-05
0.00187115 -0.000564656 -0.000559926 -5.84081e-05
0.00139777 -0.000423307 -0.000417626 -7.07749e-05
0.00138817 -0.000420373 -0.000414771 -7.07731e-05
0.00231581 -0.000697109 -0.000693727 -4.24899e-05
0.00233186 -0.000701959 -0.00069853 -4.24912e-05
0.00139297 -0.00042184 -0.000416198 -7.0774e-05
0.00185191 -0.000558817 -0.000554184 -5.84057e-05
0.00232383 -0.000699534 -0.000696128 -4.24905e-05
0.00186474 -0.00056271 -0.000558012 -5.84073e-05
0.00185833 -0.000560763 -0.000556098 -5.84065e-05
0.00138817 -0.000420373 -0.000414771 -7.07731e-05
0.00137857 -0.000417439 -0.000411915 -7.07713e-05
0.00229975 -0.000692259 -0.000688924 -4.24886e-05
0.00231581 -0.000697109 -0.000693727 -4.24899e-05
0.00138337 -0.000418906 -0.000413343 -7.07722e-05
0.00183909 -0.000554924 -0.000550356 -5.84041e-05
0.00230778 -0.000694684 -0.000691326 -4.24893e-05
0.00185191 -0.000558817 -0.000554184 -5.84057e-05
0.0018455 -0.00055687 -0.00055227 -5.84049e-05
0.00137857 -0.000417439 -0.000411915 -7.07713e-05
0.00136898 -0.000414506 -0.000409059 -7.07694e-05
0.00228369 -0.00068741 -0.000684121 -4.24873e-05
0.00229975 -0.000692259 -0.000688924 -4.24886e-05
0.00137377 -0.000415972 -0.000410487 -7.07703e-05
0.00182626 -0.000551032 -0.000546527 -5.84025e-05
0.00229172 -0.000689835 -0.000686523 -4.2488e-05
0.00183909 -0.000554924 -0.000550356 -5.84041e-05
0.00183267 -0.000552978 -0.000548441 -5.84033e-05
0.00136898 -0.000414506 -0.000409059 -7.07694e-05
0.00135938 -0.000411573 -0.000406202 -7.07676e-05
0.00226764 -0.000682561 -0.000679319 -4.2486e-05
0.00228369 -0.00068741 -0.000684121 -4.24873e-05
0.00136418 -0.000413039 -0.000407631 -7.07685e-05
0.00181344 -0.000547139 -0.000542698 -5.84008e-05
0.00227567 -0.000684985 -0.00068172 -4.24867e-05
0.00182626 -0.000551032 -0.000546527 -5.84025e-05
0.00181985 -0.000549086 -0.000544613 -5.84016e-05
0.00135938 -0.000411573 -0.000406202 -7.07676e-05
0.00134978 -0.00040864 -0.000403346 -7.07657e-05
0.00225158 -0.000677712 -0.000674515 -4.24848e-05
0.00226764 -0.000682561 -0.000679319 -4.2486e-05
0.00135458 -0.000410106 -0.000404774 -7.07667e-05
0.00180061 -0.000543248 -0.000538869 -5.83992e-05
0.00225961 -0.000680136 -0.000676917 -4.24854e-05
0.00181344 -0.000547139 -0.000542698 -5.84008e-05
0.00180702 -0.000545194 -0.000540784 -5.84e-05
0.00134978 -0.00040864 -0.000403346 -7.07657e-05
0.00134018 -0.000405708 -0.000400489 -7.07639e-05
0.00223552 -0.000672863 -0.000669712 -4.24835e-05
0.00225158 -0.000677712 -0.000674515 -4.24848e-05
0.00134498 -0.000407174 -0.000401917 -7.07648e-05
0.00178778 -0.000539356 -0.00053504 -5.83975e-05
0.00224355 -0.000675287 -0.000672114 -4.24841e-05
0.00180061 -0.000543248 -0.000538869 -5.83992e-05
0.0017942 -0.000541302 -0.000536955 -5.83983e-05
0.00134018 -0.000405708 -0.000400489 -7.07639e-05
0.00133058 -0.000402776 -0.000397632 -7.0762e-05
0.00221947 -0.000668014 -0.000664909 -4.24821e-05
0.00223552 -0.000672863 -0.000669712 -4.24835e-05
0.00133538 -0.000404242 -0.00039906 -7.07629e-05
0.00177496 -0.000535465 -0.000531211 -5.83958e-05
0.0022275 -0.000670439 -0.000667311 -4.24828e-05
0.00178778 -0.000539356 -0.00053504 -5.83975e-05
0.00178137 -0.00053741 -0.000533126 -5.83967e-05
0.00133058 -0.000402776 -0.000397632 -7.0762e-05
0.00132098 -0.000399844 -0.000394775 -7.07601e-05
0.00220341 -0.000663166 -0.000660106 -4.24808e-05
0.00221947 -0.000668014 -0.000664909 -4.24821e-05
0.00132578 -0.00040131 -0.000396203 -7.0761e-05
0.00176213 -0.000531574 -0.000527382 -5.83941e-05
0.00221144 -0.00066559 -0.000662507 -4.24815e-05
0.00177496 -0.000535465 -0.000531211 -5.83958e-05
0.00176854 -0.000533519 -0.000529296 -5.8395e-05
0.00132098 -0.000399844 -0.000394775 -7.07601e-05
0.00131139 -0.000396912 -0.000391917 -7.07582e-05
0.00218736 -0.000658318 -0.000655302 -4.24795e-05
0.00220341 -0.000663166 -0.000660106 -4.24808e-05
0.00131618 -0.000398378 -0.000393346 -7.07592e-05
0.0017493 -0.000527683 -0.000523552 -5.83925e-05
0.00219538 -0.000660742 -0.000657704 -4.24802e-05
0.00176213 -0.000531574 -0.000527382 -5.83941e-05
0.00175572 -0.000529628 -0.000525467 -5.83933e-05
0.00131139 -0.000396912 -0.000391917 -7.07582e-05
0.00130179 -0.000393981 -0.000389059 -7.07563e-05
0.0021713 -0.00065347 -0.000650499 -4.24782e-05
0.00218736 -0.000658318 -0.000655302 -4.24795e-05
0.00130659 -0.000395447 -0.000390488 -7.07573e-05
0.00173648 -0.000523792 -0.000519722 -5.83908e-05
0.00217933 -0.000655894 -0.0006529 -4.24789e-05
0.0017493 -0.000527683 -0.000523552 -5.83925e-05
0.00174289 -0.000525737 -0.000521637 -5.83916e-05
0.00130179 -0.000393981 -0.000389059 -7.07563e-05
0.00129219 -0.00039105 -0.000386201 -7.07544e-05
0.00215524 -0.000648622 -0.000645695 -4.24769e-05
0.0021713 -0.00065347 -0.000650499 -4.24782e-05
0.00129699 -0.000392516 -0.00038763 -7.07554e-05
0.00172365 -0.000519902 -0.000515892 -5.83891e-05
0.00216327 -0.000651046 -0.000648097 -4.24775e-05
0.00173648 -0.000523792 -0.000519722 -5.83908e-05
0.00173006 -0.000521847 -0.000517807 -5.83899e-05
0.00129219 -0.00039105 -0.000386201 -7.07544e-05
0.00128259 -0.00038812 -0.000383343 -7.07525e-05
0.00213919 -0.000643775 -0.000640891 -4.24755e-05
0.00215524 -0.000648622 -0.000645695 -4.24769e-05
0.00128739 -0.000389585 -0.000384772 -7.07534e-05
0.00171082 -0.000516012 -0.000512062 -5.83874e-05
0.00214722 -0.000646199 -0.000643293 -4.24762e-05
0.00172365 -0.000519902 -0.000515892 -5.83891e-05
0.00171724 -0.000517957 -0.000513977 -5.83882e-05
0.00128259 -0.00038812 -0.000383343 -7.07525e-05
0.00127299 -0.000385189 -0.000380484 -7.07506e-05
0.00212313 -0.000638928 -0.000636087 -4.24742e-05
0.00213919 -0.000643775 -0.000640891 -4.24755e-05
0.00127779 -0.000386654 -0.000381914 -7.07515e-05
0.001698 -0.000512122 -0.000508231 -5.83857e-05
0.00213116 -0.000641351 -0.000638489 -4.24749e-05
0.00171082 -0.000516012 -0.000512062 -5.83874e-05
0.00170441 -0.000514067 -0.000510147 -5.83865e-05
0.00127299 -0.000385189 -0.000380484 -7.07506e-05
0.00126339 -0.000382259 -0.000377626 -7.07486e-05
0.00210707 -0.000634081 -0.000631283 -4.24729e-05
0.00212313 -0.000638928 -0.000636087 -4.24742e-05
0.00126819 -0.000383724 -0.000379055 -7.07496e-05
0.00168517 -0.000508233 -0.000504401 -5.83839e-05
0.0021151 -0.000636504 -0.000633685 -4.24735e-05
0.001698 -0.000512122 -0.000508231 -5.83857e-05
0.00169158 -0.000510177 -0.000506316 -5.83848e-05
0.00126339 -0.000382259 -0.000377626 -7.07486e-05
0.00125378 -0.00037933 -0.000374767 -7.07467e-05
0.00209102 -0.000629234 -0.000626479 -4.24715e-05
0.00210707 -0.000634081 -0.000631283 -4.24729e-05
0.00125859 -0.000380794 -0.000376196 -7.07477e-05
0.00167234 -0.000504344 -0.00050057 -5.83822e-05
0.00209905 -0.000631657 -0.000628881 -4.24722e-05
0.00168517 -0.000508233 -0.000504401 -5.83839e-05
0.00167875 -0.000506288 -0.000502486 -5.83831e-05
0.00125378 -0.00037933 -0.000374767 -7.07467e-05
0.00124418 -0.0003764 -0.000371907 -7.07448e-05
0.00207496 -0.000624387 -0.000621675 -4.24702e-05
0.00209102 -0.000629234 -0.000626479 -4.24715e-05
0.00124898 -0.000377865 -0.000373337 -7.07457e-05
0.00165951 -0.000500455 -0.000496739 -5.83805e-05
0.00208299 -0.000626811 -0.000624077 -4.24709e-05
0.00167234 -0.000504344 -0.00050057 -5.83822e-05
0.00166593 -0.000502399 -0.000498655 -5.83814e-05
0.00124418 -0.0003764 -0.000371907 -7.07448e-05
0.00123458 -0.000373471 -0.000369048 -7.07428e-05
0.00205891 -0.000619541 -0.000616871 -4.24688e-05
0.00207496 -0.000624387 -0.000621675 -4.24702e-05
0.00123938 -0.000374936 -0.000370478 -7.07438e-05
0.00164669 -0.000496566 -0.000492908 -5.83788e-05
0.00206693 -0.000621964 -0.000619273 -4.24695e-05
0.00165951 -0.000500455 -0.000496739 -5.83805e-05
0.0016531 -0.00049851 -0.000494824 -5.83796e-05
0.00123458 -0.000373471 -0.000369048 -7.07428e-05
0.00122498 -0.000370542 -0.000366188 -7.07409e-05
0.00204285 -0.000614695 -0.000612066 -4.24675e-05
0.00205891 -0.000619541 -0.000616871 -4.24688e-05
0.00122978 -0.000372007 -0.000367618 -7.07418e-05
0.00163386 -0.000492678 -0.000489077 -5.8377e-05
0.00205088 -0.000617118 -0.000614468 -4.24682e-05
0.00164669 -0.000496566 -0.000492908 -5.83788e-05
0.00164027 -0.000494622 -0.000490993 -5.83779e-05
0.00122498 -0.000370542 -0.000366188 -7.07409e-05
0.00121538 -0.000367614 -0.000363328 -7.07389e-05
0.00202679 -0.000609849 -0.000607262 -4.24661e-05
0.00204285 -0.000614695 -0.000612066 -4.24675e-05
0.00122018 -0.000369078 -0.000364758 -7.07399e-05
0.00162103 -0.00048879 -0.000485245 -5.83753e-05
0.00203482 -0.000612272 -0.000609664 -4.24668e-05
0.00163386 -0.000492678 -0.000489077 -5.8377e-05
0.00162744 -0.000490734 -0.000487161 -5.83762e-05
0.00121538 -0.000367614 -0.000363328 -7.07389e-05
0.00120578 -0.000364686 -0.000360468 -7.07369e-05
0.00201074 -0.000605004 -0.000602457 -4.24648e-05
0.00202679 -0.000609849 -0.000607262 -4.24661e-05
0.00121058 -0.00036615 -0.000361898 -7.07379e-05
0.0016082 -0.000484902 -0.000481414 -5.83735e-05
0.00201877 -0.000607426 -0.000604859 -4.24654e-05
0.00162103 -0.00048879 -0.000485245 -5.83753e-05
0.00161461 -0.000486846 -0.00048333 -5.83744e-05
0.00120578 -0.000364686 -0.000360468 -7.07369e-05
0.00119618 -0.000361758 -0.000357608 -7.0735e-05
0.00199468 -0.000600158 -0.000597653 -4.24634e-05
0.00201074 -0.000605004 -0.000602457 -4.24648e-05
0.00120098 -0.000363222 -0.000359038 -7.0736e-05
0.00159537 -0.000481014 -0.000477582 -5.83718e-05
0.00200271 -0.000602581 -0.000600055 -4.24641e-05
0.0016082 -0.000484902 -0.000481414 -5.83735e-05
0.00160179 -0.000482958 -0.000479498 -5.83727e-05
0.00119618 -0.000361758 -0.000357608 -7.0735e-05
0.00118657 -0.00035883 -0.000354747 -7.0733e-05
0.00197862 -0.000595313 -0.000592848 -4.2462e-05
0.00199468 -0.000600158 -0.000597653 -4.24634e-05
0.00119137 -0.000360294 -0.000356177 -7.0734e-05
0.00158254 -0.000477127 -0.00047375 -5.837e-05
0.00198665 -0.000597736 -0.00059525 -4.24627e-05
0.00159537 -0.000481014 -0.000477582 -5.83718e-05
0.00158896 -0.00047907 -0.000475666 -5.83709e-05
0.00118657 -0.00035883 -0.000354747 -7.0733e-05
0.00117697 -0.000355903 -0.000351886 -7.0731e-05
0.00196257 -0.000590468 -0.000588043 -4.24607e-05
0.00197862 -0.000595313 -0.000592848 -4.2462e-05
0.00118177 -0.000357366 -0.000353317 -7.0732e-05
0.00156972 -0.00047324 -0.000469918 -5.83683e-05
0.0019706 -0.000592891 -0.000590445 -4.24614e-05
0.00158254 -0.000477127 -0.00047375 -5.837e-05
0.00157613 -0.000475183 -0.000471834 -5.83692e-05
0.00117697 -0.000355903 -0.000351886 -7.0731e-05
0.00116737 -0.000352976 -0.000349025 -7.07291e-05
0.00194651 -0.000585623 -0.000583238 -4.24593e-05
0.00196257 -0.000590468 -0.000588043 -4.24607e-05
0.00117217 -0.000354439 -0.000350455 -7.073e-05
0.00155689 -0.000469353 -0.000466086 -5.83665e-05
0.00195454 -0.000588046 -0.00058564 -4.246e-05
0.00156972 -0.00047324 -0.000469918 -5.83683e-05
0.0015633 -0.000471296 -0.000468002 -5.83674e-05
0.00116737 -0.000352976 -0.000349025 -7.07291e-05
0.00115776 -0.000350049 -0.000346164 -7.07271e-05
0.00193046 -0.000580779 -0.000578433 -4.24579e-05
0.00194651 -0.000585623 -0.000583238 -4.24593e-05
0.00116257 -0.000351512 -0.000347594 -7.07281e-05
0.00154406 -0.000465467 -0.000462253 -5.83648e-05
0.00193848 -0.000583201 -0.000580835 -4.24586e-05
0.00155689 -0.000469353 -0.000466086 -5.83665e-05
0.00155047 -0.00046741 -0.00046417 -5.83657e-05
0.00115776 -0.000350049 -0.000346164 -7.07271e-05
0.00114816 -0.000347123 -0.000343302 -7.07251e-05
0.0019144 -0.000575935 -0.000573628 -4.24566e-05
0.00193046 -0.000580779 -0.000578433 -4.24579e-05
0.00115296 -0.000348586 -0.000344733 -7.07261e-05
0.00153123 -0.000461581 -0.000458421 -5.8363e-05
0.00192243 -0.000578357 -0.00057603 -4.24573e-05
0.00154406 -0.000465467 -0.000462253 -5.83648e-05
0.00153764 -0.000463524 -0.000460337 -5.83639e-05
0.00114816 -0.000347123 -0.000343302 -7.07251e-05
0.00113856 -0.000344197 -0.00034044 -7.07231e-05
0.00189834 -0.000571091 -0.000568822 -4.24552e-05
0.0019144 -0.000575935 -0.000573628 -4.24566e-05
0.00114336 -0.00034566 -0.000341871 -7.07241e-05
0.0015184 -0.000457695 -0.000454588 -5.83613e-05
0.00190637 -0.000573513 -0.000571225 -4.24559e-05
0.00153123 -0.000461581 -0.000458421 -5.8363e-05
0.00152481 -0.000459638 -0.000456504 -5.83621e-05
0.00113856 -0.000344197 -0.00034044 -7.07231e-05
0.00112895 -0.000341271 -0.000337578 -7.07211e-05
0.00188229 -0.000566247 -0.000564017 -4.24538e-05
0.00189834 -0.000571091 -0.000568822 -4.24552e-05
0.00113375 -0.000342734 -0.000339009 -7.07221e-05
0.00150557 -0.000453809 -0.000450755 -5.83595e-05
0.00189031 -0.000568669 -0.00056642 -4.24545e-05
0.0015184 -0.000457695 -0.000454588 -5.83613e-05
0.00151198 -0.000455752 -0.000452671 -5.83604e-05
0.00112895 -0.000341271 -0.000337578 -7.07211e-05
0.00111935 -0.000338346 -0.000334716 -7.07192e-05
0.00186623 -0.000561403 -0.000559212 -4.24525e-05
0.00188229 -0.000566247 -0.000564017 -4.24538e-05
0.00112415 -0.000339808 -0.000336147 -7.07202e-05
0.00149274 -0.000449924 -0.000446922 -5.83577e-05
0.00187426 -0.000563825 -0.000561614 -4.24532e-05
0.00150557 -0.000453809 -0.000450755 -5.83595e-05
0.00149916 -0.000451866 -0.000448838 -5.83586e-05
0.00111935 -0.000338346 -0.000334716 -7.07192e-05
0.00110974 -0.00033542 -0.000331853 -7.07172e-05
0.00185017 -0.00055656 -0.000554406 -4.24511e-05
0.00186623 -0.000561403 -0.000559212 -4.24525e-05
0.00111455 -0.000336883 -0.000333284 -7.07182e-05
0.00147991 -0.000446039 -0.000443088 -5.8356e-05
0.0018582 -0.000558982 -0.000556809 -4.24518e-05
0.00149274 -0.000449924 -0.000446922 -5.83577e-05
0.00148633 -0.000447981 -0.000445005 -5.83569e-05
0.00110974 -0.00033542 -0.000331853 -7.07172e-05
0.00110014 -0.000332496 -0.00032899 -7.07152e-05
0.00183412 -0.000551717 -0.0005496 -4.24497e-05
0.00185017 -0.00055656 -0.000554406 -4.24511e-05
0.00110494 -0.000333958 -0.000330422 -7.07162e-05
0.00146708 -0.000442154 -0.000439255 -5.83542e-05
0.00184215 -0.000554138 -0.000552003 -4.24504e-05
0.00147991 -0.000446039 -0.000443088 -5.8356e-05
0.0014735 -0.000444096 -0.000441172 -5.83551e-05
0.00110014 -0.000332496 -0.00032899 -7.07152e-05
0.00109053 -0.000329571 -0.000326127 -7.07132e-05
0.00181806 -0.000546874 -0.000544795 -4.24484e-05
0.00183412 -0.000551717 -0.0005496 -4.24497e-05
0.00109534 -0.000331033 -0.000327559 -7.07142e-05
0.00145425 -0.000438269 -0.000435421 -5.83525e-05
0.00182609 -0.000549295 -0.000547198 -4.2449e-05
0.00146708 -0.000442154 -0.000439255 -5.83542e-05
0.00146067 -0.000440211 -0.000437338 -5.83533e-05
0.00109053 -0.000329571 -0.000326127 -7.07132e-05
0.00108093 -0.000326647 -0.000323264 -7.07112e-05
0.00180201 -0.000542031 -0.000539989 -4.2447e-05
0.00181806 -0.000546874 -0.000544795 -4.24484e-05
0.00108573 -0.000328109 -0.000324696 -7.07122e-05
0.00144142 -0.000434385 -0.000431587 -5.83507e-05
0.00181003 -0.000544453 -0.000542392 -4.24477e-05
0.00145425 -0.000438269 -0.000435421 -5.83525e-05
0.00144784 -0.000436327 -0.000433504 -5.83516e-05
0.00108093 -0.000326647 -0.000323264 -7.07112e-05
0.00107132 -0.000323723 -0.0003204 -7.07092e-05
0.00178595 -0.000537189 -0.000535183 -4.24456e-05
0.00180201 -0.000542031 -0.000539989 -4.2447e-05
0.00107613 -0.000325185 -0.000321832 -7.07102e-05
0.00142859 -0.000430501 -0.000427753 -5.83489e-05
0.00179398 -0.00053961 -0.000537586 -4.24463e-05
0.00144142 -0.000434385 -0.000431587 -5.83507e-05
0.00143501 -0.000432443 -0.00042967 -5.83498e-05
0.00107132 -0.000323723 -0.0003204 -7.07092e-05
0.00106172 -0.000320799 -0.000317537 -7.07073e-05
0.00176989 -0.000532347 -0.000530377 -4.24442e-05
0.00178595 -0.000537189 -0.000535183 -4.24456e-05
0.00106652 -0.000322261 -0.000318968 -7.07083e-05
0.00141576 -0.000426617 -0.000423919 -5.83472e-05
0.00177792 -0.000534768 -0.00053278 -4.24449e-05
0.00142859 -0.000430501 -0.000427753 -5.83489e-05
0.00142218 -0.000428559 -0.000425836 -5.83481e-05
0.00106172 -0.000320799 -0.000317537 -7.07073e-05
0.00105211 -0.000317876 -0.000314673 -7.07053e-05
0.00175384 -0.000527505 -0.000525571 -4.24429e-05
0.00176989 -0.000532347 -0.000530377 -4.24442e-05
0.00105692 -0.000319338 -0.000316105 -7.07063e-05
0.00140293 -0.000422734 -0.000420085 -5.83454e-05
0.00176187 -0.000529926 -0.000527974 -4.24436e-05
0.00141576 -0.000426617 -0.000423919 -5.83472e-05
0.00140935 -0.000424676 -0.000422002 -5.83463e-05
0.00105211 -0.000317876 -0.000314673 -7.07053e-05
0.00104251 -0.000314953 -0.000311808 -7.07033e-05
0.00173778 -0.000522663 -0.000520765 -4.24415e-05
0.00175384 -0.000527505 -0.000525571 -4.24429e-05
0.00104731 -0.000316414 -0.000313241 -7.07043e-05
0.0013901 -0.000418851 -0.00041625 -5.83437e-05
0.00174581 -0.000525084 -0.000523168 -4.24422e-05
0.00140293 -0.000422734 -0.000420085 -5.83454e-05
0.00139652 -0.000420792 -0.000418167 -5.83445e-05
0.00104251 -0.000314953 -0.000311808 -7.07033e-05
0.0010329 -0.00031203 -0.000308944 -7.07013e-05
0.00172172 -0.000517822 -0.000515958 -4.24401e-05
0.00173778 -0.000522663 -0.000520765 -4.24415e-05
0.0010377 -0.000313492 -0.000310376 -7.07023e-05
0.00137727 -0.000414968 -0.000412415 -5.83419e-05
0.00172975 -0.000520242 -0.000518361 -4.24408e-05
0.0013901 -0.000418851 -0.00041625 -5.83437e-05
0.00138369 -0.000416909 -0.000414333 -5.83428e-05
0.0010329 -0.00031203 -0.000308944 -7.07013e-05
0.00102329 -0.000309108 -0.000306079 -7.06994e-05
0.00170567 -0.000512981 -0.000511152 -4.24388e-05
0.00172172 -0.000517822 -0.000515958 -4.24401e-05
0.0010281 -0.000310569 -0.000307512 -7.07003e-05
0.00136444 -0.000411085 -0.000408581 -5.83402e-05
0.0017137 -0.000515401 -0.000513555 -4.24395e-05
0.00137727 -0.000414968 -0.000412415 -5.83419e-05
0.00137086 -0.000413027 -0.000410498 -5.8341e-05
0.00102329 -0.000309108 -0.000306079 -7.06994e-05
0.00101369 -0.000306186 -0.000303214 -7.06974e-05
0.00168961 -0.00050814 -0.000506345 -4.24374e-05
0.00170567 -0.000512981 -0.000511152 -4.24388e-05
0.00101849 -0.000307647 -0.000304647 -7.06984e-05
0.00135161 -0.000407203 -0.000404745 -5.83384e-05
0.00169764 -0.00051056 -0.000508749 -4.24381e-05
0.00136444 -0.000411085 -0.000408581 -5.83402e-05
0.00135802 -0.000409144 -0.000406663 -5.83393e-05
0.00101369 -0.000306186 -0.000303214 -7.06974e-05
0.00100408 -0.000303264 -0.000300349 -7.06954e-05
0.00167356 -0.000503299 -0.000501539 -4.24361e-05
0.00168961 -0.00050814 -0.000506345 -4.24374e-05
0.00100888 -0.000304725 -0.000301782 -7.06964e-05
0.00133878 -0.000403321 -0.00040091 -5.83367e-05
0.00168158 -0.000505719 -0.000503942 -4.24367e-05
0.00135161 -0.000407203 -0.000404745 -5.83384e-05
0.00134519 -0.000405262 -0.000402828 -5.83375e-05
0.00100408 -0.000303264 -0.000300349 -7.06954e-05
0.000994471 -0.000300342 -0.000297484 -7.06935e-05
0.0016575 -0.000498458 -0.000496732 -4.24347e-05
0.00167356 -0.000503299 -0.000501539 -4.24361e-05
0.000999275 -0.000301803 -0.000298916 -7.06944e-05
0.00132595 -0.000399439 -0.000397075 -5.83349e-05
0.00166553 -0.000500878 -0.000499135 -4.24354e-05
0.00133878 -0.000403321 -0.00040091 -5.83367e-05
0.00133236 -0.00040138 -0.000398993 -5.83358e-05
0.000994471 -0.000300342 -0.000297484 -7.06935e-05
0.000984863 -0.000297421 -0.000294618 -7.06915e-05
0.00164144 -0.000493618 -0.000491925 -4.24333e-05
0.0016575 -0.000498458 -0.000496732 -4.24347e-05
0.000989667 -0.000298882 -0.000296051 -7.06925e-05
0.00131312 -0.000395558 -0.000393239 -5.83332e-05
0.00164947 -0.000496038 -0.000494329 -4.2434e-05
0.00132595 -0.000399439 -0.000397075 -5.83349e-05
0.00131953 -0.000397498 -0.000395157 -5.8334e-05
0.000984863 -0.000297421 -0.000294618 -7.06915e-05
0.000975255 -0.0002945 -0.000291752 -7.06895e-05
0.00162539 -0.000488778 -0.000487118 -4.2432e-05
0.00164144 -0.000493618 -0.000491925 -4.24333e-05
0.000980059 -0.000295961 -0.000293185 -7.06905e-05
0.00130028 -0.000391676 -0.000389403 -5.83314e-05
0.00163342 -0.000491198 -0.000489522 -4.24327e-05
0.00131312 -0.000395558 -0.000393239 -5.83332e-05
0.0013067 -0.000393617 -0.000391321 -5.83323e-05
0.000975255 -0.0002945 -0.000291752 -7.06895e-05
0.000965647 -0.00029158 -0.000288886 -7.06876e-05
0.00160933 -0.000483938 -0.000482311 -4.24306e-05
0.00162539 -0.000488778 -0.000487118 -4.2432e-05
0.000970451 -0.00029304 -0.000290319 -7.06886e-05
0.00128745 -0.000387795 -0.000385568 -5.83297e-05
0.00161736 -0.000486358 -0.000484715 -4.24313e-05
0.00130028 -0.000391676 -0.000389403 -5.83314e-05
0.00129387 -0.000389736 -0.000387486 -5.83306e-05
0.000965647 -0.00029158 -0.000288886 -7.06876e-05
0.000956038 -0.000288659 -0.00028602 -7.06856e-05
0.00159328 -0.000479098 -0.000477504 -4.24293e-05
0.00160933 -0.000483938 -0.000482311 -4.24306e-05
0.000960843 -0.00029012 -0.000287453 -7.06866e-05
0.00127462 -0.000383915 -0.000381731 -5.8328e-05
0.0016013 -0.000481518 -0.000479908 -4.243e-05
0.00128745 -0.000387795 -0.000385568 -5.83297e-05
0.00128104 -0.000385855 -0.000383649 -5.83288e-05
0.000956038 -0.000288659 -0.00028602 -7.06856e-05
0.00094643 -0.00028574 -0.000283153 -7.06837e-05
0.00157722 -0.000474259 -0.000472697 -4.24279e-05
0.00159328 -0.000479098 -0.000477504 -4.24293e-05
0.000951234 -0.000287199 -0.000284586 -7.06847e-05
0.00126179 -0.000380034 -0.000377895 -5.83262e-05
0.00158525 -0.000476678 -0.000475101 -4.24286e-05
0.00127462 -0.000383915 -0.000381731 -5.8328e-05
0.00126821 -0.000381974 -0.000379813 -5.83271e-05
0.00094643 -0.00028574 -0.000283153 -7.06837e-05
0.000936821 -0.00028282 -0.000280286 -7.06818e-05
0.00156116 -0.00046942 -0.00046789 -4.24266e-05
0.00157722 -0.000474259 -0.000472697 -4.24279e-05
0.000941625 -0.00028428 -0.000281719 -7.06827e-05
0.00124896 -0.000376154 -0.000374059 -5.83245e-05
0.00156919 -0.000471839 -0.000470294 -4.24273e-05
0.00126179 -0.000380034 -0.000377895 -5.83262e-05
0.00125537 -0.000378094 -0.000375977 -5.83254e-05
0.000936821 -0.00028282 -0.000280286 -7.06818e-05
0.000927211 -0.0002799 -0.000277419 -7.06798e-05
0.00154511 -0.000464581 -0.000463083 -4.24253e-05
0.00156116 -0.00046942 -0.00046789 -4.24266e-05
0.000932016 -0.00028136 -0.000278853 -7.06808e-05
0.00123613 -0.000372274 -0.000370222 -5.83228e-05
0.00155313 -0.000467 -0.000465486 -4.24259e-05
0.00124896 -0.000376154 -0.000374059 -5.83245e-05
0.00124254 -0.000374214 -0.00037214 -5.83237e-05
0.000927211 -0.0002799 -0.000277419 -7.06798e-05
0.000917602 -0.000276981 -0.000274552 -7.06779e-05
0.00152905 -0.000459742 -0.000458275 -4.24239e-05
0.00154511 -0.000464581 -0.000463083 -4.24253e-05
0.000922407 -0.000278441 -0.000275985 -7.06789e-05
0.00122329 -0.000368395 -0.000366385 -5.83211e-05
0.00153708 -0.000462161 -0.000460679 -4.24246e-05
0.00123613 -0.000372274 -0.000370222 -5.83228e-05
0.00122971 -0.000370334 -0.000368304 -5.83219e-05
0.000917602 -0.000276981 -0.000274552 -7.06779e-05
0.000907992 -0.000274063 -0.000271684 -7.0676e-05
0.00151299 -0.000454903 -0.000453467 -4.24226e-05
0.00152905 -0.000459742 -0.000458275 -4.24239e-05
0.000912797 -0.000275522 -0.000273118 -7.06769e-05
0.00121046 -0.000364515 -0.000362548 -5.83194e-05
0.00152102 -0.000457323 -0.000455871 -4.24233e-05
0.00122329 -0.000368395 -0.000366385 -5.83211e-05
0.00121688 -0.000366455 -0.000364467 -5.83202e-05
0.000907992 -0.000274063 -0.000271684 -7.0676e-05
0.000898382 -0.000271144 -0.000268816 -7.06741e-05
0.00149694 -0.000450065 -0.00044866 -4.24213e-05
0.00151299 -0.000454903 -0.000453467 -4.24226e-05
0.000903187 -0.000272603 -0.00027025 -7.0675e-05
0.00119763 -0.000360636 -0.000358711 -5.83177e-05
0.00150497 -0.000452484 -0.000451064 -4.24219e-05
0.00121046 -0.000364515 -0.000362548 -5.83194e-05
0.00120404 -0.000362576 -0.00036063 -5.83185e-05
0.000898382 -0.000271144 -0.000268816 -7.06741e-05
0.000888772 -0.000268226 -0.000265948 -7.06722e-05
0.00148088 -0.000445227 -0.000443852 -4.24199e-05
0.00149694 -0.000450065 -0.00044866 -4.24213e-05
0.000893577 -0.000269685 -0.000267382 -7.06731e-05
0.0011848 -0.000356757 -0.000354874 -5.8316e-05
0.00148891 -0.000447646 -0.000446256 -4.24206e-05
0.00119763 -0.000360636 -0.000358711 -5.83177e-05
0.00119121 -0.000358697 -0.000356792 -5.83168e-05
0.000888772 -0.000268226 -0.000265948 -7.06722e-05
0.000879161 -0.000265308 -0.00026308 -7.06703e-05
0.00146483 -0.000440389 -0.000439044 -4.24186e-05
0.00148088 -0.000445227 -0.000443852 -4.24199e-05
0.000883966 -0.000266767 -0.000264514 -7.06712e-05
0.00117196 -0.000352879 -0.000351036 -5.83143e-05
0.00147285 -0.000442808 -0.000441448 -4.24193e-05
0.0011848 -0.000356757 -0.000354874 -5.8316e-05
0.00117838 -0.000354818 -0.000352955 -5.83151e-05
0.000879161 -0.000265308 -0.00026308 -7.06703e-05
0.00086955 -0.000262391 -0.000260211 -7.06684e-05
0.00144877 -0.000435552 -0.000434236 -4.24173e-05
0.00146483 -0.000440389 -0.000439044 -4.24186e-05
0.000874356 -0.000263849 -0.000261646 -7.06693e-05
0.00115913 -0.000349001 -0.000347198 -5.83126e-05
0.0014568 -0.00043797 -0.00043664 -4.2418e-05
0.00117196 -0.000352879 -0.000351036 -5.83143e-05
0.00116555 -0.00035094 -0.000349117 -5.83135e-05
0.00086955 -0.000262391 -0.000260211 -7.06684e-05
0.000859939 -0.000259473 -0.000257342 -7.06665e-05
0.00143271 -0.000430714 -0.000429428 -4.2416e-05
0.00144877 -0.000435552 -0.000434236 -4.24173e-05
0.000864745 -0.000260932 -0.000258777 -7.06674e-05
0.0011463 -0.000345123 -0.000343361 -5.83109e-05
0.00144074 -0.000433133 -0.000431832 -4.24166e-05
0.00115913 -0.000349001 -0.000347198 -5.83126e-05
0.00115271 -0.000347062 -0.00034528 -5.83118e-05
0.000859939 -0.000259473 -0.000257342 -7.06665e-05
0.000850328 -0.000256556 -0.000254473 -7.06646e-05
0.00141666 -0.000425877 -0.00042462 -4.24147e-05
0.00143271 -0.000430714 -0.000429428 -4.2416e-05
0.000855133 -0.000258015 -0.000255908 -7.06656e-05
0.00113346 -0.000341245 -0.000339523 -5.83093e-05
0.00142468 -0.000428296 -0.000427024 -4.24153e-05
0.0011463 -0.000345123 -0.000343361 -5.83109e-05
0.00113988 -0.000343184 -0.000341442 -5.83101e-05
0.000850328 -0.000256556 -0.000254473 -7.06646e-05
0.000840716 -0.00025364 -0.000251604 -7.06628e-05
0.0014006 -0.00042104 -0.000419812 -4.24134e-05
0.00141666 -0.000425877 -0.00042462 -4.24147e-05
0.000845522 -0.000255098 -0.000253039 -7.06637e-05
0.00112063 -0.000337368 -0.000335684 -5.83076e-05
0.00140863 -0.000423459 -0.000422216 -4.2414e-05
0.00113346 -0.000341245 -0.000339523 -5.83093e-05
0.00112705 -0.000339306 -0.000337603 -5.83084e-05
0.000840716 -0.00025364 -0.000251604 -7.06628e-05
0.000831104 -0.000250723 -0.000248735 -7.06609e-05
0.00138454 -0.000416203 -0.000415003 -4.24121e-05
0.0014006 -0.00042104 -0.000419812 -4.24134e-05
0.00083591 -0.000252181 -0.000250169 -7.06618e-05
0.0011078 -0.00033349 -0.000331846 -5.83059e-05
0.00139257 -0.000418622 -0.000417407 -4.24127e-05
0.00112063 -0.000337368 -0.000335684 -5.83076e-05
0.00111421 -0.000335429 -0.000333765 -5.83068e-05
0.000831104 -0.000250723 -0.000248735 -7.06609e-05
0.000821492 -0.000247807 -0.000245865 -7.0659e-05
0.00136849 -0.000411367 -0.000410195 -4.24108e-05
0.00138454 -0.000416203 -0.000415003 -4.24121e-05
0.000826298 -0.000249265 -0.0002473 -7.066e-05
0.00109496 -0.000329613 -0.000328007 -5.83043e-05
0.00137652 -0.000413785 -0.000412599 -4.24114e-05
0.0011078 -0.00033349 -0.000331846 -5.83059e-05
0.00110138 -0.000331552 -0.000329927 -5.83051e-05
0.000821492 -0.000247807 -0.000245865 -7.0659e-05
0.00081188 -0.000244891 -0.000242995 -7.06572e-05
0.00135243 -0.000406531 -0.000405386 -4.24095e-05
0.00136849 -0.000411367 -0.000410195 -4.24108e-05
0.000816686 -0.000246349 -0.00024443 -7.06581e-05
0.00108213 -0.000325737 -0.000324168 -5.83026e-05
0.00136046 -0.000408949 -0.00040779 -4.24101e-05
0.00109496 -0.000329613 -0.000328007 -5.83043e-05
0.00108855 -0.000327675 -0.000326088 -5.83035e-05
0.00081188 -0.000244891 -0.000242995 -7.06572e-05
0.000802267 -0.000241976 -0.000240125 -7.06554e-05
0.00133637 -0.000401695 -0.000400577 -4.24082e-05
0.00135243 -0.000406531 -0.000405386 -4.24095e-05
0.000807073 -0.000243434 -0.00024156 -7.06563e-05
0.0010693 -0.00032186 -0.00032033 -5.8301e-05
0.0013444 -0.000404113 -0.000402982 -4.24089e-05
0.00108213 -0.000325737 -0.000324168 -5.83026e-05
0.00107571 -0.000323799 -0.000322249 -5.83018e-05
0.000802267 -0.000241976 -0.000240125 -7.06554e-05
0.000792654 -0.000239061 -0.000237254 -7.06536e-05
0.00132032 -0.000396859 -0.000395768 -4.2407e-05
0.00133637 -0.000401695 -0.000400577 -4.24082e-05
0.00079746 -0.000240518 -0.000238689 -7.06545e-05
0.00105646 -0.000317984 -0.00031649 -5.82994e-05
0.00132835 -0.000399277 -0.000398173 -4.24076e-05
0.0010693 -0.00032186 -0.00032033 -5.8301e-05
0.00106288 -0.000319922 -0.00031841 -5.83002e-05
0.000792654 -0.000239061 -0.000237254 -7.06536e-05
0.000783041 -0.000236146 -0.000234383 -7.06517e-05
0.00130426 -0.000392023 -0.00039096 -4.24057e-05
0.00132032 -0.000396859 -0.000395768 -4.2407e-05
0.000787847 -0.000237603 -0.000235819 -7.06526e-05
0.00104363 -0.000314108 -0.000312651 -5.82978e-05
0.00131229 -0.000394441 -0.000393364 -4.24063e-05
0.00105646 -0.000317984 -0.00031649 -5.82994e-05
0.00105004 -0.000316046 -0.000314571 -5.82986e-05
0.000783041 -0.000236146 -0.000234383 -7.06517e-05
0.000773427 -0.000233231 -0.000231513 -7.06499e-05
0.00128821 -0.000387188 -0.00038615 -4.24044e-05
0.00130426 -0.000392023 -0.00039096 -4.24057e-05
0.000778234 -0.000234689 -0.000232948 -7.06508e-05
0.00103079 -0.000310233 -0.000308812 -5.82962e-05
0.00129623 -0.000389605 -0.000388555 -4.24051e-05
0.00104363 -0.000314108 -0.000312651 -5.82978e-05
0.00103721 -0.000312171 -0.000310731 -5.8297e-05
0.000773427 -0.000233231 -0.000231513 -7.06499e-05
0.000763813 -0.000230317 -0.000228641 -7.06481e-05
0.00127215 -0.000382352 -0.000381341 -4.24032e-05
0.00128821 -0.000387188 -0.00038615 -4.24044e-05
0.00076862 -0.000231774 -0.000230077 -7.0649e-05
0.00101796 -0.000306358 -0.000304972 -5.82945e-05
0.00128018 -0.00038477 -0.000383746 -4.24038e-05
0.00103079 -0.000310233 -0.000308812 -5.82962e-05
0.00102438 -0.000308295 -0.000306892 -5.82953e-05
0.000763813 -0.000230317 -0.000228641 -7.06481e-05
0.000754199 -0.000227403 -0.00022577 -7.06464e-05
0.00125609 -0.000377517 -0.000376532 -4.24019e-05
0.00127215 -0.000382352 -0.000381341 -4.24032e-05
0.000759006 -0.00022886 -0.000227206 -7.06473e-05
0.00100512 -0.000302482 -0.000301132 -5.8293e-05
0.00126412 -0.000379935 -0.000378937 -4.24025e-05
0.00101796 -0.000306358 -0.000304972 -5.82945e-05
0.00101154 -0.00030442 -0.000303052 -5.82938e-05
0.000754199 -0.000227403 -0.00022577 -7.06464e-05
0.000744585 -0.000224489 -0.000222898 -7.06446e-05
0.00124004 -0.000372683 -0.000371723 -4.24007e-05
0.00125609 -0.000377517 -0.000376532 -4.24019e-05
0.000749392 -0.000225946 -0.000224334 -7.06455e-05
0.000992289 -0.000298608 -0.000297292 -5.82914e-05
0.00124806 -0.0003751 -0.000374127 -4.24013e-05
0.00100512 -0.000302482 -0.000301132 -5.8293e-05
0.000998706 -0.000300545 -0.000299212 -5.82922e-05
0.000744585 -0.000224489 -0.000222898 -7.06446e-05
0.00073497 -0.000221576 -0.000220026 -7.06428e-05
0.00122398 -0.000367848 -0.000366913 -4.23994e-05
0.00124004 -0.000372683 -0.000371723 -4.24007e-05
0.000739778 -0.000223033 -0.000221462 -7.06437e-05
0.000979454 -0.000294733 -0.000293452 -5.82898e-05
0.00123201 -0.000370265 -0.000369318 -4.24001e-05
0.000992289 -0.000298608 -0.000297292 -5.82914e-05
0.000985871 -0.00029667 -0.000295372 -5.82906e-05
0.00073497 -0.000221576 -0.000220026 -7.06428e-05
0.000725355 -0.000218663 -0.000217154 -7.06411e-05
0.00120792 -0.000363014 -0.000362104 -4.23982e-05
0.00122398 -0.000367848 -0.000366913 -4.23994e-05
0.000730163 -0.000220119 -0.00021859 -7.0642e-05
0.000966619 -0.000290859 -0.000289611 -5.82882e-05
0.00121595 -0.000365431 -0.000364508 -4.23988e-05
0.000979454 -0.000294733 -0.000293452 -5.82898e-05
0.000973036 -0.000292796 -0.000291532 -5.8289e-05
0.000725355 -0.000218663 -0.000217154 -7.06411e-05
0.00071574 -0.00021575 -0.000214282 -7.06393e-05
0.00119187 -0.00035818 -0.000357294 -4.2397e-05
0.00120792 -0.000363014 -0.000362104 -4.23982e-05
0.000720548 -0.000217206 -0.000215718 -7.06402e-05
0.000953783 -0.000286985 -0.000285771 -5.82867e-05
0.00119989 -0.000360597 -0.000359699 -4.23976e-05
0.000966619 -0.000290859 -0.000289611 -5.82882e-05
0.000960201 -0.000288922 -0.000287691 -5.82874e-05
0.00071574 -0.00021575 -0.000214282 -7.06393e-05
0.000706125 -0.000212838 -0.000211409 -7.06376e-05
0.00117581 -0.000353346 -0.000352484 -4.23958e-05
0.00119187 -0.00035818 -0.000357294 -4.2397e-05
0.000710933 -0.000214294 -0.000212845 -7.06385e-05
0.000940948 -0.000283111 -0.00028193 -5.82851e-05
0.00118384 -0.000355763 -0.000354889 -4.23964e-05
0.000953783 -0.000286985 -0.000285771 -5.82867e-05
0.000947365 -0.000285048 -0.00028385 -5.82859e-05
0.000706125 -0.000212838 -0.000211409 -7.06376e-05
0.000696509 -0.000209925 -0.000208536 -7.06359e-05
0.00115975 -0.000348512 -0.000347674 -4.23946e-05
0.00117581 -0.000353346 -0.000352484 -4.23958e-05
0.000701317 -0.000211381 -0.000209972 -7.06368e-05
0.000928112 -0.000279238 -0.000278089 -5.82836e-05
0.00116778 -0.000350929 -0.000350079 -4.23952e-05
0.000940948 -0.000283111 -0.00028193 -5.82851e-05
0.00093453 -0.000281174 -0.000280009 -5.82843e-05
0.000696509 -0.000209925 -0.000208536 -7.06359e-05
0.000686893 -0.000207013 -0.000205663 -7.06342e-05
0.0011437 -0.000343679 -0.000342864 -4.23934e-05
0.00115975 -0.000348512 -0.000347674 -4.23946e-05
0.000691701 -0.000208469 -0.000207099 -7.06351e-05
0.000915276 -0.000275364 -0.000274248 -5.82821e-05
0.00115172 -0.000346095 -0.000345269 -4.2394e-05
0.000928112 -0.000279238 -0.000278089 -5.82836e-05
0.000921694 -0.000277301 -0.000276168 -5.82828e-05
0.000686893 -0.000207013 -0.000205663 -7.06342e-05
0.000677277 -0.000204102 -0.000202789 -7.06325e-05
0.00112764 -0.000338845 -0.000338054 -4.23922e-05
0.0011437 -0.000343679 -0.000342864 -4.23934e-05
0.000682085 -0.000205558 -0.000204226 -7.06334e-05
0.00090244 -0.000271491 -0.000270406 -5.82805e-05
0.00113567 -0.000341262 -0.000340459 -4.23928e-05
0.000915276 -0.000275364 -0.000274248 -5.82821e-05
0.000908858 -0.000273428 -0.000272327 -5.82813e-05
0.000677277 -0.000204102 -0.000202789 -7.06325e-05
0.00066766 -0.00020119 -0.000199916 -7.06308e-05
0.00111158 -0.000334012 -0.000333244 -4.2391e-05
0.00112764 -0.000338845 -0.000338054 -4.23922e-05
0.000672468 -0.000202646 -0.000201352 -7.06317e-05
0.000889603 -0.000267619 -0.000266565 -5.8279e-05
0.00111961 -0.000336429 -0.000335649 -4.23916e-05
0.00090244 -0.000271491 -0.000270406 -5.82805e-05
0.000896021 -0.000269555 -0.000268486 -5.82798e-05
0.00066766 -0.00020119 -0.000199916 -7.06308e-05
0.000658043 -0.000198279 -0.000197042 -7.06292e-05
0.00109552 -0.000329179 -0.000328433 -4.23898e-05
0.00111158 -0.000334012 -0.000333244 -4.2391e-05
0.000662852 -0.000199735 -0.000198479 -7.063e-05
0.000876767 -0.000263746 -0.000262723 -5.82775e-05
0.00110355 -0.000331596 -0.000330839 -4.23904e-05
0.000889603 -0.000267619 -0.000266565 -5.8279e-05
0.000883185 -0.000265682 -0.000264644 -5.82783e-05
0.000658043 -0.000198279 -0.000197042 -7.06292e-05
0.000648426 -0.000195369 -0.000194167 -7.06275e-05
0.00107947 -0.000324347 -0.000323623 -4.23886e-05
0.00109552 -0.000329179 -0.000328433 -4.23898e-05
0.000653235 -0.000196824 -0.000195605 -7.06284e-05
0.00086393 -0.000259874 -0.000258881 -5.8276e-05
0.0010875 -0.000326763 -0.000326028 -4.23892e-05
0.000876767 -0.000263746 -0.000262723 -5.82775e-05
0.000870348 -0.00026181 -0.000260802 -5.82768e-05
0.000648426 -0.000195369 -0.000194167 -7.06275e-05
0.000638808 -0.000192458 -0.000191293 -7.06259e-05
0.00106341 -0.000319514 -0.000318812 -4.23875e-05
0.00107947 -0.000324347 -0.000323623 -4.23886e-05
0.000643617 -0.000193913 -0.00019273 -7.06267e-05
0.000851093 -0.000256002 -0.000255039 -5.82746e-05
0.00107144 -0.000321931 -0.000321218 -4.2388e-05
0.00086393 -0.000259874 -0.000258881 -5.8276e-05
0.000857512 -0.000257938 -0.00025696 -5.82753e-05
0.000638808 -0.000192458 -0.000191293 -7.06259e-05
0.000629191 -0.000189548 -0.000188418 -7.06243e-05
0.00104735 -0.000314682 -0.000314001 -4.23863e-05
0.00106341 -0.000319514 -0.000318812 -4.23875e-05
0.000633999 -0.000191003 -0.000189856 -7.06251e-05
0.000838256 -0.00025213 -0.000251197 -5.82731e-05
0.00105538 -0.000317098 -0.000316407 -4.23869e-05
0.000851093 -0.000256002 -0.000255039 -5.82746e-05
0.000844675 -0.000254066 -0.000253118 -5.82738e-05
0.000629191 -0.000189548 -0.000188418 -7.06243e-05
0.000619572 -0.000186638 -0.000185543 -7.06227e-05
0.00103129 -0.00030985 -0.000309191 -4.23852e-05
0.00104735 -0.000314682 -0.000314001 -4.23863e-05
0.000624382 -0.000188093 -0.000186981 -7.06235e-05
0.000825419 -0.000248259 -0.000247354 -5.82717e-05
0.00103932 -0.000312266 -0.000311596 -4.23857e-05
0.000838256 -0.00025213 -0.000251197 -5.82731e-05
0.000831837 -0.000250195 -0.000249275 -5.82724e-05
0.000619572 -0.000186638 -0.000185543 -7.06227e-05
0.000609954 -0.000183728 -0.000182668 -7.06211e-05
0.00101524 -0.000305018 -0.00030438 -4.2384e-05
0.00103129 -0.00030985 -0.000309191 -4.23852e-05
0.000614763 -0.000185183 -0.000184106 -7.06219e-05
0.000812581 -0.000244388 -0.000243512 -5.82702e-05
0.00102327 -0.000307434 -0.000306785 -4.23846e-05
0.000825419 -0.000248259 -0.000247354 -5.82717e-05
0.000819 -0.000246323 -0.000245433 -5.82709e-05
0.000609954 -0.000183728 -0.000182668 -7.06211e-05
0.000600335 -0.000180819 -0.000179793 -7.06195e-05
0.00099918 -0.000300187 -0.000299569 -4.23829e-05
0.00101524 -0.000305018 -0.00030438 -4.2384e-05
0.000605145 -0.000182274 -0.00018123 -7.06203e-05
0.000799744 -0.000240517 -0.000239669 -5.82688e-05
0.00100721 -0.000302602 -0.000301974 -4.23835e-05
0.000812581 -0.000244388 -0.000243512 -5.82702e-05
0.000806163 -0.000242452 -0.00024159 -5.82695e-05
0.000600335 -0.000180819 -0.000179793 -7.06195e-05
0.000590716 -0.00017791 -0.000176917 -7.06179e-05
0.000983122 -0.000295355 -0.000294757 -4.23818e-05
0.00099918 -0.000300187 -0.000299569 -4.23829e-05
0.000595526 -0.000179365 -0.000178355 -7.06187e-05
0.000786906 -0.000236646 -0.000235826 -5.82674e-05
0.000991151 -0.000297771 -0.000297163 -4.23823e-05
0.000799744 -0.000240517 -0.000239669 -5.82688e-05
0.000793325 -0.000238582 -0.000237747 -5.82681e-05
0.000590716 -0.00017791 -0.000176917 -7.06179e-05
0.000581097 -0.000175001 -0.000174041 -7.06164e-05
0.000967065 -0.000290524 -0.000289946 -4.23807e-05
0.000983122 -0.000295355 -0.000294757 -4.23818e-05
0.000585907 -0.000176456 -0.000175479 -7.06171e-05
0.000774068 -0.000232776 -0.000231982 -5.8266e-05
0.000975093 -0.00029294 -0.000292352 -4.23812e-05
0.000786906 -0.000236646 -0.000235826 -5.82674e-05
0.000780487 -0.000234711 -0.000233904 -5.82667e-05
0.000581097 -0.000175001 -0.000174041 -7.06164e-05
0.000571477 -0.000172093 -0.000171165 -7.06148e-05
0.000951007 -0.000285693 -0.000285134 -4.23795e-05
0.000967065 -0.000290524 -0.000289946 -4.23807e-05
0.000576287 -0.000173547 -0.000172603 -7.06156e-05
0.000761229 -0.000228906 -0.000228139 -5.82646e-05
0.000959036 -0.000288109 -0.00028754 -4.23801e-05
0.000774068 -0.000232776 -0.000231982 -5.8266e-05
0.000767649 -0.000230841 -0.000230061 -5.82653e-05
0.000571477 -0.000172093 -0.000171165 -7.06148e-05
0.000561857 -0.000169185 -0.000168288 -7.06133e-05
0.000934949 -0.000280862 -0.000280323 -4.23785e-05
0.000951007 -0.000285693 -0.000285134 -4.23795e-05
0.000566667 -0.000170639 -0.000169727 -7.0614e-05
0.000748391 -0.000225036 -0.000224295 -5.82632e-05
0.000942978 -0.000283278 -0.000282729 -4.2379e-05
0.000761229 -0.000228906 -0.000228139 -5.82646e-05
0.00075481 -0.000226971 -0.000226217 -5.82639e-05
0.000561857 -0.000169185 -0.000168288 -7.06133e-05
0.000552237 -0.000166277 -0.000165412 -7.06118e-05
0.000918891 -0.000276032 -0.000275511 -4.23774e-05
0.000934949 -0.000280862 -0.000280323 -4.23785e-05
0.000557047 -0.000167731 -0.00016685 -7.06125e-05
0.000735552 -0.000221166 -0.000220451 -5.82618e-05
0.00092692 -0.000278447 -0.000277917 -4.23779e-05
0.000748391 -0.000225036 -0.000224295 -5.82632e-05
0.000741972 -0.000223101 -0.000222373 -5.82625e-05
0.000552237 -0.000166277 -0.000165412 -7.06118e-05
0.000542617 -0.000163369 -0.000162535 -7.06103e-05
0.000902833 -0.000271201 -0.000270699 -4.23763e-05
0.000918891 -0.000276032 -0.000275511 -4.23774e-05
0.000547427 -0.000164823 -0.000163973 -7.0611e-05
0.000722713 -0.000217297 -0.000216607 -5.82604e-05
0.000910862 -0.000273616 -0.000273105 -4.23768e-05
0.000735552 -0.000221166 -0.000220451 -5.82618e-05
0.000729133 -0.000219231 -0.000218529 -5.82611e-05
0.000542617 -0.000163369 -0.000162535 -7.06103e-05
0.000532996 -0.000160462 -0.000159657 -7.06088e-05
0.000886774 -0.000266371 -0.000265887 -4.23752e-05
0.000902833 -0.000271201 -0.000270699 -4.23763e-05
0.000537806 -0.000161915 -0.000161096 -7.06095e-05
0.000709874 -0.000213427 -0.000212763 -5.82591e-05
0.000894804 -0.000268786 -0.000268293 -4.23758e-05
0.000722713 -0.000217297 -0.000216607 -5.82604e-05
0.000716294 -0.000215362 -0.000214685 -5.82598e-05
0.000532996 -0.000160462 -0.000159657 -7.06088e-05
0.000523374 -0.000157555 -0.00015678 -7.06073e-05
0.000870716 -0.000261541 -0.000261075 -4.23742e-05
0.000886774 -0.000266371 -0.000265887 -4.23752e-05
0.000528185 -0.000159008 -0.000158219 -7.06081e-05
0.000697035 -0.000209558 -0.000208918 -5.82578e-05
0.000878745 -0.000263956 -0.000263481 -4.23747e-05
0.000709874 -0.000213427 -0.000212763 -5.82591e-05
0.000703454 -0.000211493 -0.000210841 -5.82584e-05
0.000523374 -0.000157555 -0.00015678 -7.06073e-05
0.000513753 -0.000154648 -0.000153902 -7.06059e-05
0.000854658 -0.000256711 -0.000256263 -4.23731e-05
0.000870716 -0.000261541 -0.000261075 -4.23742e-05
0.000518564 -0.000156101 -0.000155341 -7.06066e-05
0.000684195 -0.00020569 -0.000205074 -5.82565e-05
0.000862687 -0.000259126 -0.000258669 -4.23736e-05
0.000697035 -0.000209558 -0.000208918 -5.82578e-05
0.000690615 -0.000207624 -0.000206996 -5.82571e-05
0.000513753 -0.000154648 -0.000153902 -7.06059e-05
0.000504131 -0.000151741 -0.000151024 -7.06045e-05
0.000838599 -0.000251881 -0.00025145 -4.23721e-05
0.000854658 -0.000256711 -0.000256263 -4.23731e-05
0.000508942 -0.000153195 -0.000152463 -7.06052e-05
0.000671355 -0.000201821 -0.000201229 -5.82551e-05
0.000846628 -0.000254296 -0.000253857 -4.23726e-05
0.000684195 -0.00020569 -0.000205074 -5.82565e-05
0.000677775 -0.000203755 -0.000203151 -5.82558e-05
0.000504131 -0.000151741 -0.000151024 -7.06045e-05
0.000494509 -0.000148835 -0.000148146 -7.0603e-05
0.00082254 -0.000247052 -0.000246638 -4.2371e-05
0.000838599 -0.000251881 -0.00025145 -4.23721e-05
0.00049932 -0.000150288 -0.000149585 -7.06037e-05
0.000658515 -0.000197953 -0.000197384 -5.82539e-05
0.00083057 -0.000249467 -0.000249044 -4.23716e-05
0.000671355 -0.000201821 -0.000201229 -5.82551e-05
0.000664935 -0.000199887 -0.000199306 -5.82545e-05
0.000494509 -0.000148835 -0.000148146 -7.0603e-05
0.000484886 -0.000145929 -0.000145267 -7.06016e-05
0.000806482 -0.000242223 -0.000241825 -4.237e-05
0.00082254 -0.000247052 -0.000246638 -4.2371e-05
0.000489698 -0.000147382 -0.000146707 -7.06023e-05
0.000645675 -0.000194085 -0.000193538 -5.82526e-05
0.000814511 -0.000244637 -0.000244232 -4.23705e-05
0.000658515 -0.000197953 -0.000197384 -5.82539e-05
0.000652095 -0.000196019 -0.000195461 -5.82532e-05
0.000484886 -0.000145929 -0.000145267 -7.06016e-05
0.000475263 -0.000143024 -0.000142388 -7.06003e-05
0.000790423 -0.000237394 -0.000237012 -4.2369e-05
0.000806482 -0.000242223 -0.000241825 -4.237e-05
0.000480075 -0.000144476 -0.000143828 -7.06009e-05
0.000632834 -0.000190217 -0.000189693 -5.82513e-05
0.000798452 -0.000239808 -0.000239419 -4.23695e-05
0.000645675 -0.000194085 -0.000193538 -5.82526e-05
0.000639255 -0.000192151 -0.000191616 -5.82519e-05
0.000475263 -0.000143024 -0.000142388 -7.06003e-05
0.00046564 -0.000140118 -0.000139509 -7.05989e-05
0.000774364 -0.000232565 -0.0002322 -4.2368e-05
0.000790423 -0.000237394 -0.000237012 -4.2369e-05
0.000470452 -0.000141571 -0.000140949 -7.05996e-05
0.000619994 -0.00018635 -0.000185847 -5.82501e-05
0.000782393 -0.000234979 -0.000234606 -4.23685e-05
0.000632834 -0.000190217 -0.000189693 -5.82513e-05
0.000626414 -0.000188284 -0.00018777 -5.82507e-05
0.00046564 -0.000140118 -0.000139509 -7.05989e-05
0.000456017 -0.000137213 -0.00013663 -7.05975e-05
0.000758304 -0.000227736 -0.000227386 -4.2367e-05
0.000774364 -0.000232565 -0.0002322 -4.2368e-05
0.000460829 -0.000138666 -0.00013807 -7.05982e-05
0.000607152 -0.000182483 -0.000182001 -5.82488e-05
0.000766334 -0.00023015 -0.000229793 -4.23675e-05
0.000619994 -0.00018635 -0.000185847 -5.82501e-05
0.000613573 -0.000184416 -0.000183924 -5.82494e-05
0.000456017 -0.000137213 -0.00013663 -7.05975e-05
0.000446393 -0.000134308 -0.00013375 -7.05962e-05
0.000742245 -0.000222907 -0.000222573 -4.2366e-05
0.000758304 -0.000227736 -0.000227386 -4.2367e-05
0.000451205 -0.000135761 -0.00013519 -7.05969e-05
0.000594311 -0.000178616 -0.000178155 -5.82476e-05
0.000750275 -0.000225322 -0.00022498 -4.23665e-05
0.000607152 -0.000182483 -0.000182001 -5.82488e-05
0.000600732 -0.000180549 -0.000180078 -5.82482e-05
0.000446393 -0.000134308 -0.00013375 -7.05962e-05
0.000436769 -0.000131404 -0.000130871 -7.05949e-05
0.000726186 -0.000218079 -0.00021776 -4.23651e-05
0.000742245 -0.000222907 -0.000222573 -4.2366e-05
0.000441581 -0.000132856 -0.000132311 -7.05955e-05
0.00058147 -0.000174749 -0.000174309 -5.82464e-05
0.000734215 -0.000220493 -0.000220167 -4.23655e-05
0.000594311 -0.000178616 -0.000178155 -5.82476e-05
0.00058789 -0.000176682 -0.000176232 -5.8247e-05
0.000436769 -0.000131404 -0.000130871 -7.05949e-05
0.000427144 -0.0001285 -0.000127991 -7.05936e-05
0.000710126 -0.000213251 -0.000212946 -4.23641e-05
0.000726186 -0.000218079 -0.00021776 -4.23651e-05
0.000431956 -0.000129952 -0.000129431 -7.05942e-05
0.000568628 -0.000170882 -0.000170462 -5.82452e-05
0.000718156 -0.000215665 -0.000215353 -4.23646e-05
0.00058147 -0.000174749 -0.000174309 -5.82464e-05
0.000575049 -0.000172816 -0.000172386 -5.82458e-05
0.000427144 -0.0001285 -0.000127991 -7.05936e-05
0.000417519 -0.000125596 -0.00012511 -7.05923e-05
0.000694066 -0.000208423 -0.000208133 -4.23631e-05
0.000710126 -0.000213251 -0.000212946 -4.23641e-05
0.000422332 -0.000127048 -0.00012655 -7.05929e-05
0.000555786 -0.000167016 -0.000166616 -5.8244e-05
0.000702096 -0.000210837 -0.00021054 -4.23636e-05
0.000568628 -0.000170882 -0.000170462 -5.82452e-05
0.000562207 -0.000168949 -0.000168539 -5.82446e-05
0.000417519 -0.000125596 -0.00012511 -7.05923e-05
0.000407894 -0.000122692 -0.000122229 -7.0591e-05
0.000678006 -0.000203595 -0.000203319 -4.23622e-05
0.000694066 -0.000208423 -0.000208133 -4.23631e-05
0.000412707 -0.000124144 -0.00012367 -7.05917e-05
0.000542944 -0.00016315 -0.000162769 -5.82428e-05
0.000686036 -0.000206009 -0.000205726 -4.23627e-05
0.000555786 -0.000167016 -0.000166616 -5.8244e-05
0.000549365 -0.000165083 -0.000164692 -5.82434e-05
0.000407894 -0.000122692 -0.000122229 -7.0591e-05
0.000398269 -0.000119789 -0.000119349 -7.05898e-05
0.000661946 -0.000198768 -0.000198505 -4.23613e-05
0.000678006 -0.000203595 -0.000203319 -4.23622e-05
0.000403081 -0.00012124 -0.000120789 -7.05904e-05
0.000530101 -0.000159284 -0.000158922 -5.82417e-05
0.000669976 -0.000201181 -0.000200912 -4.23617e-05
0.000542944 -0.00016315 -0.000162769 -5.82428e-05
0.000536522 -0.000161217 -0.000160845 -5.82422e-05
0.000398269 -0.000119789 -0.000119349 -7.05898e-05
0.000388643 -0.000116885 -0.000116467 -7.05885e-05
0.000645886 -0.00019394 -0.000193691 -4.23604e-05
0.000661946 -0.000198768 -0.000198505 -4.23613e-05
0.000393456 -0.000118337 -0.000117908 -7.05892e-05
0.000517258 -0.000155419 -0.000155074 -5.82405e-05
0.000653916 -0.000196354 -0.000196098 -4.23608e-05
0.000530101 -0.000159284 -0.000158922 -5.82417e-05
0.00052368 -0.000157351 -0.000156998 -5.82411e-05
0.000388643 -0.000116885 -0.000116467 -7.05885e-05
0.000379016 -0.000113982 -0.000113586 -7.05873e-05
0.000629825 -0.000189113 -0.000188877 -4.23594e-05
0.000645886 -0.00019394 -0.000193691 -4.23604e-05
0.000383829 -0.000115434 -0.000115027 -7.05879e-05
0.000504415 -0.000151553 -0.000151227 -5.82394e-05
0.000637856 -0.000191527 -0.000191284 -4.23599e-05
0.000517258 -0.000155419 -0.000155074 -5.82405e-05
0.000510837 -0.000153486 -0.00015315 -5.824e-05
0.000379016 -0.000113982 -0.000113586 -7.05873e-05
0.00036939 -0.00011108 -0.000110704 -7.05861e-05
0.000613765 -0.000184286 -0.000184062 -4.23585e-05
0.000629825 -0.000189113 -0.000188877 -4.23594e-05
0.000374203 -0.000112531 -0.000112145 -7.05867e-05
0.000491572 -0.000147688 -0.000147379 -5.82383e-05
0.000621795 -0.000186699 -0.00018647 -4.2359e-05
0.000504415 -0.000151553 -0.000151227 -5.82394e-05
0.000497994 -0.000149621 -0.000149303 -5.82388e-05
0.00036939 -0.00011108 -0.000110704 -7.05861e-05
0.000359763 -0.000108177 -0.000107822 -7.0585e-05
0.000597704 -0.000179459 -0.000179248 -4.23577e-05
0.000613765 -0.000184286 -0.000184062 -4.23585e-05
0.000364576 -0.000109629 -0.000109263 -7.05855e-05
0.000478728 -0.000143823 -0.000143531 -5.82372e-05
0.000605734 -0.000181872 -0.000181655 -4.23581e-05
0.000491572 -0.000147688 -0.000147379 -5.82383e-05
0.00048515 -0.000145756 -0.000145455 -5.82377e-05
0.000359763 -0.000108177 -0.000107822 -7.0585e-05
0.000350135 -0.000105275 -0.00010494 -7.05838e-05
0.000581643 -0.000174632 -0.000174433 -4.23568e-05
0.000597704 -0.000179459 -0.000179248 -4.23577e-05
0.000354949 -0.000106726 -0.000106381 -7.05844e-05
0.000465884 -0.000139959 -0.000139682 -5.82361e-05
0.000589673 -0.000177046 -0.000176841 -4.23572e-05
0.000478728 -0.000143823 -0.000143531 -5.82372e-05
0.000472306 -0.000141891 -0.000141607 -5.82366e-05
0.000350135 -0.000105275 -0.00010494 -7.05838e-05
0.000340508 -0.000102374 -0.000102057 -7.05827e-05
0.000565582 -0.000169806 -0.000169618 -4.23559e-05
0.000581643 -0.000174632 -0.000174433 -4.23568e-05
0.000345322 -0.000103824 -0.000103499 -7.05832e-05
0.00045304 -0.000136094 -0.000135834 -5.8235e-05
0.000573612 -0.000172219 -0.000172026 -4.23563e-05
0.000465884 -0.000139959 -0.000139682 -5.82361e-05
0.000459462 -0.000138026 -0.000137758 -5.82356e-05
0.000340508 -0.000102374 -0.000102057 -7.05827e-05
0.00033088 -9.9472e-05 -9.91746e-05 -7.05815e-05
0.00054952 -0.000164979 -0.000164803 -4.23551e-05
0.000565582 -0.000169806 -0.000169618 -4.23559e-05
0.000335694 -0.000100923 -0.000100616 -7.05821e-05
0.000440196 -0.00013223 -0.000131985 -5.8234e-05
0.000557551 -0.000167392 -0.000167211 -4.23555e-05
0.00045304 -0.000136094 -0.000135834 -5.8235e-05
0.000446618 -0.000134162 -0.00013391 -5.82345e-05
0.00033088 -9.9472e-05 -9.91746e-05 -7.05815e-05
0.000321251 -9.65708e-05 -9.62916e-05 -7.05804e-05
0.000533459 -0.000160153 -0.000159988 -4.23542e-05
0.00054952 -0.000164979 -0.000164803 -4.23551e-05
0.000326065 -9.80214e-05 -9.77331e-05 -7.0581e-05
0.000427351 -0.000128366 -0.000128136 -5.8233e-05
0.00054149 -0.000162566 -0.000162396 -4.23546e-05
0.000440196 -0.00013223 -0.000131985 -5.8234e-05
0.000433773 -0.000130298 -0.000130061 -5.82335e-05
0.000321251 -9.65708e-05 -9.62916e-05 -7.05804e-05
0.000311622 -9.36698e-05 -9.34082e-05 -7.05794e-05
0.000517397 -0.000155327 -0.000155173 -4.23534e-05
0.000533459 -0.000160153 -0.000159988 -4.23542e-05
0.000316437 -9.51202e-05 -9.48499e-05 -7.05799e-05
0.000414506 -0.000124502 -0.000124287 -5.82319e-05
0.000525428 -0.00015774 -0.000157581 -4.23538e-05
0.000427351 -0.000128366 -0.000128136 -5.8233e-05
0.000420928 -0.000126434 -0.000126212 -5.82324e-05
0.000311622 -9.36698e-05 -9.34082e-05 -7.05794e-05
0.000301993 -9.0769e-05 -9.05246e-05 -7.05783e-05
0.000501335 -0.000150501 -0.000150357 -4.23526e-05
0.000517397 -0.000155327 -0.000155173 -4.23534e-05
0.000306808 -9.22194e-05 -9.19664e-05 -7.05788e-05
0.000401661 -0.000120639 -0.000120438 -5.82309e-05
0.000509366 -0.000152914 -0.000152765 -4.2353e-05
0.000414506 -0.000124502 -0.000124287 -5.82319e-05
0.000408083 -0.00012257 -0.000122363 -5.82314e-05
0.000301993 -9.0769e-05 -9.05246e-05 -7.05783e-05
0.000292364 -8.78686e-05 -8.76407e-05 -7.05773e-05
0.000485273 -0.000145675 -0.000145542 -4.23518e-05
0.000501335 -0.000150501 -0.000150357 -4.23526e-05
0.000297178 -8.93188e-05 -8.90827e-05 -7.05778e-05
0.000388815 -0.000116775 -0.000116588 -5.823e-05
0.000493304 -0.000148088 -0.00014795 -4.23522e-05
0.000401661 -0.000120639 -0.000120438 -5.82309e-05
0.000395238 -0.000118707 -0.000118513 -5.82305e-05
0.000292364 -8.78686e-05 -8.76407e-05 -7.05773e-05
0.000282734 -8.49684e-05 -8.47565e-05 -7.05763e-05
0.000469211 -0.00014085 -0.000140726 -4.2351e-05
0.000485273 -0.000145675 -0.000145542 -4.23518e-05
0.000287549 -8.64185e-05 -8.61986e-05 -7.05768e-05
0.000375969 -0.000112912 -0.000112739 -5.82291e-05
0.000477242 -0.000143263 -0.000143134 -4.23514e-05
0.000388815 -0.000116775 -0.000116588 -5.823e-05
0.000382392 -0.000114844 -0.000114664 -5.82295e-05
0.000282734 -8.49684e-05 -8.47565e-05 -7.05763e-05
0.000273103 -8.20685e-05 -8.1872e-05 -7.05753e-05
0.000453148 -0.000136025 -0.00013591 -4.23503e-05
0.000469211 -0.00014085 -0.000140726 -4.2351e-05
0.000277918 -8.35184e-05 -8.33143e-05 -7.05758e-05
0.000363123 -0.000109049 -0.000108889 -5.82282e-05
0.00046118 -0.000138437 -0.000138318 -4.23506e-05
0.000375969 -0.000112912 -0.000112739 -5.82291e-05
0.000369546 -0.000110981 -0.000110814 -5.82286e-05
0.000273103 -8.20685e-05 -8.1872e-05 -7.05753e-05
0.000263473 -7.91689e-05 -7.89873e-05 -7.05744e-05
0.000437085 -0.000131199 -0.000131094 -4.23496e-05
0.000453148 -0.000136025 -0.00013591 -4.23503e-05
0.000268288 -8.06187e-05 -8.04297e-05 -7.05749e-05
0.000350276 -0.000105187 -0.000105038 -5.82273e-05
0.000445117 -0.000133612 -0.000133502 -4.23499e-05
0.000363123 -0.000109049 -0.000108889 -5.82282e-05
0.0003567 -0.000107118 -0.000106964 -5.82277e-05
0.000263473 -7.91689e-05 -7.89873e-05 -7.05744e-05
0.000253842 -7.62696e-05 -7.61023e-05 -7.05736e-05
0.000421022 -0.000126374 -0.000126278 -4.2349e-05
0.000437085 -0.000131199 -0.000131094 -4.23496e-05
0.000258657 -7.77192e-05 -7.75448e-05 -7.0574e-05
0.000337429 -0.000101324 -0.000101188 -5.82265e-05
0.000429054 -0.000128787 -0.000128686 -4.23493e-05
0.000350276 -0.000105187 -0.000105038 -5.82273e-05
0.000343853 -0.000103256 -0.000103113 -5.82269e-05
0.000253842 -7.62696e-05 -7.61023e-05 -7.05736e-05
0.00024421 -7.33706e-05 -7.3217e-05 -7.05728e-05
0.000404959 -0.000121549 -0.000121461 -4.23484e-05
0.000421022 -0.000126374 -0.000126278 -4.2349e-05
0.000249026 -7.482e-05 -7.46597e-05 -7.05732e-05
0.000324582 -9.74622e-05 -9.73371e-05 -5.82258e-05
0.000412991 -0.000123962 -0.00012387 -4.23487e-05
0.000337429 -0.000101324 -0.000101188 -5.82265e-05
0.000331006 -9.93933e-05 -9.92625e-05 -5.82262e-05
0.00024421 -7.33706e-05 -7.3217e-05 -7.05728e-05
0.000234578 -7.04718e-05 -7.03314e-05 -7.05721e-05
0.000388895 -0.000116725 -0.000116645 -4.23479e-05
0.000404959 -0.000121549 -0.000121461 -4.23484e-05
0.000239394 -7.19212e-05 -7.17742e-05 -7.05725e-05
0.000311735 -9.36003e-05 -9.34862e-05 -5.82252e-05
0.000396927 -0.000119137 -0.000119053 -4.23481e-05
0.000324582 -9.74622e-05 -9.73371e-05 -5.82258e-05
0.000318159 -9.55312e-05 -9.54117e-05 -5.82255e-05
0.000234578 -7.04718e-05 -7.03314e-05 -7.05721e-05
0.000224946 -6.75734e-05 -6.74456e-05 -7.05715e-05
0.000372832 -0.0001119 -0.000111828 -4.23475e-05
0.000388895 -0.000116725 -0.000116645 -4.23479e-05
0.000229762 -6.90226e-05 -6.88885e-05 -7.05718e-05
0.000298887 -8.97386e-05 -8.9635e-05 -5.82247e-05
0.000380864 -0.000114312 -0.000114236 -4.23477e-05
0.000311735 -9.36003e-05 -9.34862e-05 -5.82252e-05
0.000305311 -9.16694e-05 -9.15606e-05 -5.82249e-05
0.000224946 -6.75734e-05 -6.74456e-05 -7.05715e-05
0.000215314 -6.46753e-05 -6.45595e-05 -7.0571e-05
0.000356767 -0.000107076 -0.000107011 -4.23472e-05
0.000372832 -0.0001119 -0.000111828 -4.23475e-05
0.00022013 -6.61243e-05 -6.60026e-05 -7.05712e-05
0.000286039 -8.58772e-05 -8.57836e-05 -5.82242e-05
0.000364799 -0.000109488 -0.000109419 -4.23473e-05
0.000298887 -8.97386e-05 -8.9635e-05 -5.82247e-05
0.000292463 -8.78079e-05 -8.77093e-05 -5.82244e-05
0.000215314 -6.46753e-05 -6.45595e-05 -7.0571e-05
0.000205681 -6.17774e-05 -6.16732e-05 -7.05704e-05
0.000340703 -0.000102251 -0.000102194 -4.2347e-05
0.000356767 -0.000107076 -0.000107011 -4.23472e-05
0.000210498 -6.32263e-05 -6.31163e-05 -7.05707e-05
0.000273191 -8.2016e-05 -8.19319e-05 -5.82239e-05
0.000348735 -0.000104663 -0.000104602 -4.23471e-05
0.000286039 -8.58772e-05 -8.57836e-05 -5.82242e-05
0.000279615 -8.39466e-05 -8.38578e-05 -5.8224e-05
0.000205681 -6.17774e-05 -6.16732e-05 -7.05704e-05
0.000196049 -5.88797e-05 -5.87866e-05 -7.05698e-05
0.000324638 -9.74272e-05 -9.73761e-05 -4.23469e-05
0.000340703 -0.000102251 -0.000102194 -4.2347e-05
0.000200865 -6.03286e-05 -6.02299e-05 -7.05701e-05
0.000260342 -7.8155e-05 -7.80801e-05 -5.82235e-05
0.000332671 -9.98392e-05 -9.97849e-05 -4.23469e-05
0.000273191 -8.2016e-05 -8.19319e-05 -5.82239e-05
0.000266766 -8.00855e-05 -8.0006e-05 -5.82237e-05
0.000196049 -5.88797e-05 -5.87866e-05 -7.05698e-05
0.000186415 -5.59821e-05 -5.59e-05 -7.0569e-05
0.000308573 -9.26031e-05 -9.25586e-05 -4.23468e-05
0.000324638 -9.74272e-05 -9.73761e-05 -4.23469e-05
0.000191232 -5.74309e-05 -5.73433e-05 -7.05695e-05
0.000247493 -7.42942e-05 -7.42282e-05 -5.82231e-05
0.000316606 -9.50151e-05 -9.49674e-05 -4.23468e-05
0.000260342 -7.8155e-05 -7.80801e-05 -5.82235e-05
0.000253918 -7.62246e-05 -7.61542e-05 -5.82233e-05
0.000186415 -5.59821e-05 -5.59e-05 -7.0569e-05
0.000176782 -5.30843e-05 -5.30134e-05 -7.05678e-05
0.000292508 -8.77791e-05 -8.7741e-05 -4.23465e-05
0.000308573 -9.26031e-05 -9.25586e-05 -4.23468e-05
0.000181599 -5.45333e-05 -5.44567e-05 -7.05685e-05
0.000234644 -7.04333e-05 -7.03762e-05 -5.82223e-05
0.000300541 -9.01911e-05 -9.01498e-05 -4.23467e-05
0.000247493 -7.42942e-05 -7.42282e-05 -5.82231e-05
0.000241069 -7.23637e-05 -7.23022e-05 -5.82227e-05
0.000176782 -5.30843e-05 -5.30134e-05 -7.05678e-05
0.000167148 -5.01857e-05 -5.01268e-05 -7.05656e-05
0.000276443 -8.29551e-05 -8.29235e-05 -4.23457e-05
0.000292508 -8.77791e-05 -8.7741e-05 -4.23465e-05
0.000171965 -5.16352e-05 -5.15701e-05 -7.05668e-05
0.000221796 -6.6572e-05 -6.65244e-05 -5.82206e-05
0.000284476 -8.53671e-05 -8.53322e-05 -4.23462e-05
0.000234644 -7.04333e-05 -7.03762e-05 -5.82223e-05
0.00022822 -6.85027e-05 -6.84503e-05 -5.82216e-05
0.000167148 -5.01857e-05 -5.01268e-05 -7.05656e-05
0.000157513 -4.72851e-05 -4.72408e-05 -7.05618e-05
0.000260379 -7.81307e-05 -7.81063e-05 -4.23436e-05
0.000276443 -8.29551e-05 -8.29235e-05 -4.23457e-05
0.000162331 -4.87357e-05 -4.86837e-05 -7.0564e-05
0.000208947 -6.27096e-05 -6.2673e-05 -5.82171e-05
0.000268411 -8.0543e-05 -8.05148e-05 -4.23449e-05
0.000221796 -6.6572e-05 -6.65244e-05 -5.82206e-05
0.000215371 -6.4641e-05 -6.45986e-05 -5.82192e-05
0.000157513 -4.72851e-05 -4.72408e-05 -7.05618e-05
0.000147876 -4.43802e-05 -4.43554e-05 -7.05554e-05
0.000244315 -7.33053e-05 -7.329e-05 -4.23385e-05
0.000260379 -7.81307e-05 -7.81063e-05 -4.23436e-05
0.000152695 -4.58334e-05 -4.5798e-05 -7.0559e-05
0.000196097 -5.88445e-05 -5.88226e-05 -5.82101e-05
0.000252347 -7.57182e-05 -7.56979e-05 -4.23416e-05
0.000208947 -6.27096e-05 -6.2673e-05 -5.82171e-05
0.000202522 -6.07775e-05 -6.07476e-05 -5.82142e-05
0.000147876 -4.43802e-05 -4.43554e-05 -7.05554e-05
0.000138233 -4.14664e-05 -4.14715e-05 -7.05444e-05
0.000228254 -6.84777e-05 -6.84754e-05 -4.23274e-05
0.000244315 -7.33053e-05 -7.329e-05 -4.23385e-05
0.000143056 -4.29248e-05 -4.29132e-05 -7.05506e-05
0.000183246 -5.49733e-05 -5.49739e-05 -5.81964e-05
0.000236284 -7.08919e-05 -7.08824e-05 -4.23339e-05
0.000196097 -5.88445e-05 -5.88226e-05 -5.82101e-05
0.000189672 -5.69099e-05 -5.68979e-05 -5.82043e-05
0.000138233 -4.14664e-05 -4.14715e-05 -7.05444e-05
0.000128577 -3.85356e-05 -3.85893e-05 -7.05267e-05
0.000212195 -6.3645e-05 -6.36645e-05 -4.23035e-05
0.000228254 -6.84777e-05 -6.84754e-05 -4.23274e-05
0.000133408 -4.0004e-05 -4.00302e-05 -7.05366e-05
0.000170389 -5.10902e-05 -5.11281e-05 -5.81703e-05
0.000220224 -6.60622e-05 -6.60692e-05 -4.23176e-05
0.000183246 -5.49733e-05 -5.49739e-05 -5.81964e-05
0.000176818 -5.3034e-05 -5.30505e-05 -5.81855e-05
0.000128577 -3.85356e-05 -3.85893e-05 -7.05267e-05
0.000118897 -3.55719e-05 -3.57106e-05 -7.04983e-05
0.00019614 -5.88021e-05 -5.88591e-05 -4.22564e-05
0.000212195 -6.3645e-05 -6.36645e-05 -4.23035e-05
0.000123741 -3.70591e-05 -3.71492e-05 -7.05143e-05
0.00015752 -4.71826e-05 -4.72873e-05 -5.81217e-05
0.000204168 -6.12254e-05 -6.1261e-05 -4.22837e-05
0.000170389 -5.10902e-05 -5.11281e-05 -5.81703e-05
0.000163957 -4.91403e-05 -4.9207e-05 -5.81495e-05
0.000118897 -3.55719e-05 -3.57106e-05 -7.04983e-05
0.00010916 -3.25493e-05 -3.28332e-05 -7.04559e-05
0.000180092 -5.3939e-05 -5.40655e-05 -4.21625e-05
0.00019614 -5.88021e-05 -5.88591e-05 -4.22564e-05
0.000114039 -3.40706e-05 -3.42721e-05 -7.04789e-05
0.000144622 -4.32308e-05 -4.34533e-05 -5.80339e-05
0.000188114 -5.63737e-05 -5.64601e-05 -4.22176e-05
0.00015752 -4.71826e-05 -4.72873e-05 -5.81217e-05
0.000151075 -4.52147e-05 -4.53689e-05 -5.80848e-05
0.00010916 -3.25493e-05 -3.28332e-05 -7.04559e-05
9.93292e-05 -2.94216e-05 -2.99604e-05 -7.03916e-05
0.000164041 -4.90394e-05 -4.92862e-05 -4.19902e-05
0.000180092 -5.3939e-05 -5.40655e-05 -4.21625e-05
0.000104258 -3.10018e-05 -3.13955e-05 -7.04275e-05
0.000131663 -3.91947e-05 -3.96294e-05 -5.7879e-05
0.000172069 -5.1496e-05 -5.16742e-05 -4.20886e-05
0.000144622 -4.32308e-05 -4.34533e-05 -5.80339e-05
0.000138153 -4.12254e-05 -4.15404e-05 -5.7966e-05
9.93292e-05 -2.94216e-05 -2.99604e-05 -7.03916e-05
8.93011e-05 -2.61233e-05 -2.70762e-05 -7.03094e-05
0.000147997 -4.40707e-05 -4.454e-05 -4.16664e-05
0.000164041 -4.90394e-05 -4.92862e-05 -4.19902e-05
9.43511e-05 -2.78005e-05 -2.85217e-05 -7.03515e-05
0.00011859 -3.50227e-05 -3.58147e-05 -5.7615e-05
0.000156014 -4.65644e-05 -4.6907e-05 -4.18543e-05
0.000131663 -3.91947e-05 -3.96294e-05 -5.7879e-05
0.000125145 -3.71331e-05 -3.77194e-05 -5.77668e-05
8.93011e-05 -2.61233e-05 -2.70762e-05 -7.03094e-05
7.89767e-05 -2.25504e-05 -2.41827e-05 -7.02016e-05
0.000131898 -3.89954e-05 -3.98154e-05 -4.11175e-05
0.000147997 -4.40707e-05 -4.454e-05 -4.16664e-05
8.4177e-05 -2.43752e-05 -2.56293e-05 -7.02605e-05
0.000105288 -3.06077e-05 -3.20059e-05 -5.71862e-05
0.000139967 -4.15546e-05 -4.21766e-05 -4.14249e-05
0.00011859 -3.50227e-05 -3.58147e-05 -5.7615e-05
0.000111978 -3.28474e-05 -3.39133e-05 -5.74198e-05
7.89767e-05 -2.25504e-05 -2.41827e-05 -7.02016e-05
6.80852e-05 -1.86169e-05 -2.12007e-05 -7.01304e-05
0.000115767 -3.37192e-05 -3.51634e-05 -4.01599e-05
0.000131898 -3.89954e-05 -3.98154e-05 -4.11175e-05
7.36347e-05 -2.06403e-05 -2.27119e-05 -7.01525e-05
9.16107e-05 -2.58711e-05 -2.81741e-05 -5.65307e-05
0.000123821 -3.63771e-05 -3.74761e-05 -4.07077e-05
0.000105288 -3.06077e-05 -3.20059e-05 -5.71862e-05
9.85042e-05 -2.8298e-05 -3.00883e-05 -5.69029e-05
6.80852e-05 -1.86169e-05 -2.12007e-05 -7.01304e-05
5.65067e-05 -1.42323e-05 -1.81176e-05 -7.01386e-05
9.92995e-05 -2.8219e-05 -3.04631e-05 -3.87232e-05
0.000115767 -3.37192e-05 -3.51634e-05 -4.01599e-05
6.23641e-05 -1.64638e-05 -1.96716e-05 -7.01243e-05
7.72158e-05 -2.06168e-05 -2.42567e-05 -5.56487e-05
0.000107629 -3.10277e-05 -3.28291e-05 -3.95021e-05
9.16107e-05 -2.58711e-05 -2.81741e-05 -5.65307e-05
8.45379e-05 -2.32918e-05 -2.62483e-05 -5.60899e-05
5.65067e-05 -1.42323e-05 -1.81176e-05 -7.01386e-05
4.38126e-05 -9.70752e-06 -1.46164e-05 -7.05759e-05
8.25128e-05 -2.22605e-05 -2.58224e-05 -3.65348e-05
9.92995e-05 -2.8219e-05 -3.04631e-05 -3.87232e-05
5.03705e-05 -1.19781e-05 -1.64539e-05 -7.02618e-05
6.18747e-05 -1.50363e-05 -2.00736e-05 -5.46886e-05
9.08905e-05 -2.52417e-05 -2.81352e-05 -3.77468e-05
7.72158e-05 -2.06168e-05 -2.42567e-05 -5.56487e-05
6.96572e-05 -1.78928e-05 -2.21847e-05 -5.52088e-05
4.38126e-05 -9.70752e-06 -1.46164e-05 -7.05759e-05
3.06203e-05 -5.79458e-06 -1.06396e-05 -7.17031e-05
6.41855e-05 -1.63254e-05 -2.05115e-05 -3.41693e-05
8.25128e-05 -2.22605e-05 -2.58224e-05 -3.65348e-05
3.71301e-05 -7.50216e-06 -1.26977e-05 -7.10408e-05
4.48398e-05 -9.33472e-06 -1.52165e-05 -5.4391e-05
7.37499e-05 -1.93899e-05 -2.32971e-05 -3.53122e-05
6.18747e-05 -1.50363e-05 -2.00736e-05 -5.46886e-05
5.36688e-05 -1.20405e-05 -1.78407e-05 -5.42782e-05
3.06203e-05 -5.79458e-06 -1.06396e-05 -7.17031e-05
1.77769e-05 -5.7366e-06 -5.16015e-06 -7.43626e-05
4.43984e-05 -1.04175e-05 -1.45632e-05 -3.25778e-05
6.41855e-05 -1.63254e-05 -2.05115e-05 -3.41693e-05
2.41977e-05 -5.0779e-06 -8.19419e-06 -7.27662e-05
2.7081e-05 -6.58916e-06 -8.78223e-06 -5.63573e-05
5.42561e-05 -1.29626e-05 -1.76972e-05 -3.31326e-05
4.48398e-05 -9.33472e-06 -1.52165e-05 -5.4391e-05
3.58299e-05 -7.4129e-06 -1.21787e-05 -5.51259e-05
1.77769e-05 -5.7366e-06 -5.16015e-06 -7.43626e-05
1.09251e-05 -1.53211e-05 1.88403e-06 -7.65597e-05
2.12471e-05 -1.09305e-05 -4.4214e-06 -3.81685e-05
4.43984e-05 -1.04175e-05 -1.45632e-05 -3.25778e-05
1.28541e-05 -8.46697e-06 -1.8802e-06 -7.58063e-05
1.07485e-05 -1.36547e-05 1.24554e-06 -6.37083e-05
3.36995e-05 -9.79425e-06 -1.02451e-05 -3.38589e-05
2.7081e-05 -6.58916e-06 -8.78223e-06 -5.63573e-05
1.86887e-05 -7.67546e-06 -4.71996e-06 -5.87558e-05
1.09251e-05 -1.53211e-05 1.88403e-06 -7.65597e-05
1.42706e-05 -4.54072e-05 1.33443e-05 -7.05845e-05
1.02538e-05 -3.77381e-05 1.1779e-05 -5.93853e-05
2.12471e-05 -1.09305e-05 -4.4214e-06 -3.81685e-05
1.15454e-05 -2.79954e-05 7.05001e-06 -7.56043e-05
1.54207e-05 -5.1337e-05 1.53927e-05 -6.98566e-05
1.18342e-05 -1.59936e-05 1.78264e-06 -4.56827e-05
1.07485e-05 -1.36547e-05 1.24554e-06 -6.37083e-05
8.05948e-06 -2.76704e-05 8.40468e-06 -6.88398e-05
1.42706e-05 -4.54072e-05 1.33443e-05 -7.05845e-05
2.43933e-05 -8.23762e-05 2.48498e-05 -3.74188e-05
5.42012e-05 -0.000164692 4.73532e-05 -6.0975e-05
1.02538e-05 -3.77381e-05 1.1779e-05 -5.93853e-05
1.86899e-05 -6.51595e-05 1.99155e-05 -5.84197e-05
4.35755e-05 -0.000119724 3.2635e-05 -3.5118e-05
2.24085e-05 -8.80414e-05 2.81284e-05 -7.05676e-05
1.54207e-05 -5.1337e-05 1.53927e-05 -6.98566e-05
2.86523e-05 -8.42833e-05 2.38419e-05 -6.06091e-05
0.00269848 2.22045e-16 -0.00115649 -0.000158527
0.00303659 -0.000602231 -0.0010433 -0.000228746
0.00424298 -0.00134437 -0.00124226 7.61755e-05
0.0059484 -1.11022e-16 -0.00254931 -0.00201966
0.0028877 -0.000283798 -0.00111596 -0.000265099
0.00384569 -0.00093361 -0.00124803 -0.000295778
0.00471996 -0.00149627 -0.00138158 -0.000286364
0.00317549 0 -0.00136092 -0.000491451
0.00370986 -0.000630787 -0.0013196 -0.000462041
0.00303659 -0.000602231 -0.0010433 -0.000228746
0.00315599 -0.000856557 -0.000985471 -0.000109994
0.00418876 -0.00129779 -0.00123898 2.42791e-05
0.00424298 -0.00134437 -0.00124226 7.61755e-05
0.00313077 -0.000781216 -0.00100695 -0.000165702
0.00376053 -0.0010969 -0.00114156 -5.12134e-05
0.004178 -0.00124078 -0.00125881 3.40306e-05
0.00384569 -0.00093361 -0.00124803 -0.000295778
0.00379258 -0.00105881 -0.00117161 -0.000121308
0.00315599 -0.000856557 -0.000985471 -0.000109994
0.00314131 -0.000928659 -0.000948279 -4.1583e-05
0.00424646 -0.00126074 -0.00127959 1.12753e-05
0.00418876 -0.00129779 -0.00123898 2.42791e-05
0.00314768 -0.000901368 -0.000962704 -6.52309e-05
0.00372066 -0.00111699 -0.00111586 -6.04907e-06
0.00422749 -0.0012947 -0.00125691 2.44721e-05
0.00376053 -0.0010969 -0.00114156 -5.12134e-05
0.00373982 -0.00111127 -0.00112652 -2.52712e-05
0.00314131 -0.000928659 -0.000948279 -4.1583e-05
0.0031193 -0.000939097 -0.000934371 -2.58163e-05
0.00427025 -0.00128487 -0.00127945 -1.20451e-06
0.00424646 -0.00126074 -0.00127959 1.12753e-05
0.00313311 -0.000938478 -0.000940558 -3.10608e-05
0.00369863 -0.00111497 -0.00110728 9.06348e-07
0.00425696 -0.00126484 -0.00128234 -2.0899e-06
0.00372066 -0.00111699 -0.00111586 -6.04907e-06
0.00370596 -0.00111713 -0.0011095 2.5714e-06
0.0031193 -0.000939097 -0.000934371 -2.58163e-05
0.00309375 -0.000937854 -0.000923956 -2.47298e-05
0.00428259 -0.00128029 -0.0012867 8.6934e-07
0.00427025 -0.00128487 -0.00127945 -1.20451e-06
0.0031046 -0.000938819 -0.00092819 -2.37526e-05
0.00368764 -0.00111151 -0.00110406 -5.32739e-06
0.00428067 -0.00128683 -0.00128308 2.16917e-06
0.00369863 -0.00111497 -0.00110728 9.06348e-07
0.00369406 -0.00111317 -0.0011061 -3.12139e-06
0.00309375 -0.000937854 -0.000923956 -2.47298e-05
0.00307435 -0.000931162 -0.000918507 -2.96238e-05
0.00427804 -0.00128395 -0.00128318 -7.76486e-07
0.00428259 -0.00128029 -0.0012867 8.6934e-07
0.00308444 -0.000934959 -0.000921208 -2.72838e-05
0.00367422 -0.00110675 -0.00110034 -1.12139e-05
0.00428029 -0.0012808 -0.0012855 -1.33918e-06
0.00368764 -0.00111151 -0.00110406 -5.32739e-06
0.00368062 -0.00110931 -0.00110199 -7.92068e-06
0.00307435 -0.000931162 -0.000918507 -2.96238e-05
0.00305561 -0.000924533 -0.000913318 -3.38383e-05
0.0042678 -0.00127932 -0.00128078 4.06775e-08
0.00427804 -0.00128395 -0.00128318 -7.76486e-07
0.00306441 -0.000927721 -0.000915726 -3.17263e-05
0.00366005 -0.0011016 -0.00109648 -1.5911e-05
0.00427437 -0.00128273 -0.00128213 2.49044e-07
0.00367422 -0.00110675 -0.00110034 -1.12139e-05
0.00366764 -0.00110419 -0.00109862 -1.40078e-05
0.00305561 -0.000924533 -0.000913318 -3.38383e-05
0.0030388 -0.00091804 -0.000908899 -3.73281e-05
0.00425111 -0.00127544 -0.00127529 -2.53997e-07
0.0042678 -0.00127932 -0.00128078 4.06775e-08
0.00304728 -0.000921269 -0.000911149 -3.58062e-05
0.00364368 -0.00109617 -0.00109179 -1.89668e-05
0.00425961 -0.00127717 -0.00127819 -4.30668e-07
0.00366005 -0.0011016 -0.00109648 -1.5911e-05
0.00365191 -0.00109892 -0.00109414 -1.75416e-05
0.0030388 -0.00091804 -0.000908899 -3.73281e-05
0.00302221 -0.000912145 -0.000904314 -3.94835e-05
0.00423214 -0.00126946 -0.00126972 -3.21312e-08
0.00425111 -0.00127544 -0.00127529 -2.53997e-07
0.00303038 -0.000915015 -0.000906583 -3.85081e-05
0.00362634 -0.00109055 -0.00108677 -2.08031e-05
0.00424203 -0.00127271 -0.00127256 9.22958e-09
0.00364368 -0.00109617 -0.00109179 -1.89668e-05
0.0036352 -0.00109337 -0.00108936 -2.00442e-05
0.00302221 -0.000912145 -0.000904314 -3.94835e-05
0.00300607 -0.000906622 -0.000899765 -4.08673e-05
0.0042112 -0.00126341 -0.00126334 -7.17498e-08
0.00423214 -0.00126946 -0.00126972 -3.21312e-08
0.00301416 -0.000909349 -0.000902063 -4.02797e-05
0.00360807 -0.00108486 -0.00108138 -2.18764e-05
0.00422175 -0.00126641 -0.00126658 -1.26286e-07
0.00362634 -0.00109055 -0.00108677 -2.08031e-05
0.00361724 -0.00108771 -0.00108408 -2.14066e-05
0.00300607 -0.000906622 -0.000899765 -4.08673e-05
0.00298997 -0.000901389 -0.000895104 -4.1632e-05
0.00418955 -0.00125686 -0.00125687 -1.73879e-08
0.0042112 -0.00126341 -0.00126334 -7.17498e-08
0.00299799 -0.000903975 -0.000897436 -4.12999e-05
0.00358939 -0.0010791 -0.00107584 -2.24479e-05
0.00420048 -0.0012602 -0.00126012 -8.24328e-09
0.00360807 -0.00108486 -0.00108138 -2.18764e-05
0.0035988 -0.00108198 -0.00107863 -2.22122e-05
0.00298997 -0.000901389 -0.000895104 -4.1632e-05
0.00297394 -0.000896323 -0.000890407 -4.20692e-05
0.00416739 -0.00125026 -0.0012502 -1.80125e-08
0.00418955 -0.00125686 -0.00125687 -1.73879e-08
0.00298196 -0.000898841 -0.000892765 -4.18867e-05
0.0035704 -0.00107332 -0.00107018 -2.2757e-05
0.0041785 -0.00125356 -0.00125355 -3.37186e-08
0.00358939 -0.0010791 -0.00107584 -2.24479e-05
0.00357991 -0.00107621 -0.00107301 -2.26264e-05
0.00297394 -0.000896323 -0.000890407 -4.20692e-05
0.00295791 -0.000891359 -0.000885664 -4.22945e-05
0.00414504 -0.00124354 -0.0012435 -5.86909e-09
0.00416739 -0.00125026 -0.0012502 -1.80125e-08
0.00296592 -0.000893832 -0.000888038 -4.21991e-05
0.00355128 -0.00106753 -0.00106447 -2.29081e-05
0.00415624 -0.00124691 -0.00124685 -3.72235e-09
0.0035704 -0.00107332 -0.00107018 -2.2757e-05
0.00356086 -0.00107043 -0.00106733 -2.28465e-05
0.00295791 -0.000891359 -0.000885664 -4.22945e-05
0.00294188 -0.000886448 -0.0008809 -4.24141e-05
0.00412258 -0.00123681 -0.00123676 -4.00261e-09
0.00414504 -0.00124354 -0.0012435 -5.86909e-09
0.0029499 -0.000888899 -0.000883285 -4.23648e-05
0.00353207 -0.00106173 -0.00105872 -2.29841e-05
0.00413382 -0.00124018 -0.00124013 -8.07057e-09
0.00355128 -0.00106753 -0.00106447 -2.29081e-05
0.00354168 -0.00106463 -0.00106159 -2.29528e-05
0.00294188 -0.000886448 -0.0008809 -4.24141e-05
0.00292585 -0.000881566 -0.000876121 -4.24726e-05
0.00410008 -0.00123006 -0.00123001 -1.60363e-09
0.00412258 -0.00123681 -0.00123676 -4.00261e-09
0.00293387 -0.000884005 -0.000878512 -4.24482e-05
0.00351283 -0.00105592 -0.00105296 -2.30185e-05
0.00411133 -0.00123344 -0.00123338 -1.07776e-09
0.00353207 -0.00106173 -0.00105872 -2.29841e-05
0.00352245 -0.00105882 -0.00105584 -2.30047e-05
0.00292585 -0.000881566 -0.000876121 -4.24726e-05
0.00290981 -0.000876698 -0.000871333 -4.2502e-05
0.00407756 -0.0012233 -0.00122325 -8.14606e-10
0.00410008 -0.00123006 -0.00123001 -1.60363e-09
0.00291783 -0.000879131 -0.000873728 -4.249e-05
0.00349356 -0.00105011 -0.00104719 -2.30345e-05
0.00408882 -0.00122668 -0.00122663 -1.74092e-09
0.00351283 -0.00105592 -0.00105296 -2.30185e-05
0.00350319 -0.00105302 -0.00105007 -2.30281e-05
0.00290981 -0.000876698 -0.000871333 -4.2502e-05
0.00289377 -0.000871837 -0.000866541 -4.25158e-05
0.00405503 -0.00121654 -0.00121649 -4.29678e-10
0.00407756 -0.0012233 -0.00122325 -8.14606e-10
0.00290179 -0.000874267 -0.000868937 -4.25101e-05
0.00347428 -0.00104431 -0.00104142 -2.30411e-05
0.00406629 -0.00121992 -0.00121987 -2.96768e-10
0.00349356 -0.00105011 -0.00104719 -2.30345e-05
0.00348392 -0.00104721 -0.0010443 -2.30385e-05
0.00289377 -0.000871837 -0.000866541 -4.25158e-05
0.00287772 -0.000866978 -0.000861746 -4.25223e-05
0.0040325 -0.00120978 -0.00120974 -2.07571e-10
0.00405503 -0.00121654 -0.00121649 -4.29678e-10
0.00288574 -0.000869407 -0.000864143 -4.25197e-05
0.00345499 -0.0010385 -0.00103564 -2.30437e-05
0.00404376 -0.00121316 -0.00121311 -3.8823e-10
0.00347428 -0.00104431 -0.00104142 -2.30411e-05
0.00346463 -0.0010414 -0.00103853 -2.30427e-05
0.00287772 -0.000866978 -0.000861746 -4.25223e-05
0.00286167 -0.000862121 -0.000856949 -4.2525e-05
0.00400997 -0.00120302 -0.00120298 -1.70567e-10
0.0040325 -0.00120978 -0.00120974 -2.07571e-10
0.00286969 -0.00086455 -0.000859347 -4.2524e-05
0.0034357 -0.00103269 -0.00102986 -2.30445e-05
0.00402123 -0.0012064 -0.00120636 -1.37512e-10
0.00345499 -0.0010385 -0.00103564 -2.30437e-05
0.00344535 -0.00103559 -0.00103275 -2.30442e-05
0.00286167 -0.000862121 -0.000856949 -4.2525e-05
0.00284562 -0.000857264 -0.000852151 -4.2526e-05
0.00398744 -0.00119626 -0.00119622 -1.19196e-10
0.00400997 -0.00120302 -0.00120298 -1.70567e-10
0.00285364 -0.000859693 -0.00085455 -4.25257e-05
0.00341641 -0.00102688 -0.00102409 -2.30444e-05
0.0039987 -0.00119964 -0.0011996 -1.48164e-10
0.0034357 -0.00103269 -0.00102986 -2.30445e-05
0.00342606 -0.00102978 -0.00102697 -2.30445e-05
0.00284562 -0.000857264 -0.000852151 -4.2526e-05
0.00282957 -0.000852408 -0.000847353 -4.25259e-05
0.00396491 -0.0011895 -0.00118946 -1.22434e-10
0.00398744 -0.00119626 -0.00119622 -1.19196e-10
0.00283759 -0.000854836 -0.000849752 -4.2526e-05
0.00339712 -0.00102107 -0.00101831 -2.30441e-05
0.00397617 -0.00119288 -0.00119284 -1.15249e-10
0.00341641 -0.00102688 -0.00102409 -2.30444e-05
0.00340677 -0.00102397 -0.0010212 -2.30443e-05
0.00282957 -0.000852408 -0.000847353 -4.25259e-05
0.00281351 -0.000847552 -0.000842554 -4.25253e-05
0.00394237 -0.00118274 -0.0011827 -1.1089e-10
0.00396491 -0.0011895 -0.00118946 -1.22434e-10
0.00282154 -0.00084998 -0.000844954 -4.25257e-05
0.00337783 -0.00101526 -0.00101253 -2.30435e-05
0.00395364 -0.00118612 -0.00118608 -1.1456e-10
0.00339712 -0.00102107 -0.00101831 -2.30441e-05
0.00338748 -0.00101817 -0.00101542 -2.30438e-05
0.00281351 -0.000847552 -0.000842554 -4.25253e-05
0.00279746 -0.000842696 -0.000837756 -4.25245e-05
0.00391984 -0.00117599 -0.00117594 -1.13019e-10
0.00394237 -0.00118274 -0.0011827 -1.1089e-10
0.00280549 -0.000845124 -0.000840155 -4.25249e-05
0.00335854 -0.00100945 -0.00100675 -2.30429e-05
0.00393111 -0.00117936 -0.00117932 -1.12064e-10
0.00337783 -0.00101526 -0.00101253 -2.30435e-05
0.00336819 -0.00101236 -0.00100964 -2.30432e-05
0.00279746 -0.000842696 -0.000837756 -4.25245e-05
0.00278141 -0.00083784 -0.000832957 -4.25235e-05
0.00389731 -0.00116923 -0.00116918 -1.09736e-10
0.00391984 -0.00117599 -0.00117594 -1.13019e-10
0.00278943 -0.000840268 -0.000835356 -4.2524e-05
0.00333925 -0.00100364 -0.00100097 -2.30422e-05
0.00390858 -0.00117261 -0.00117256 -1.10225e-10
0.00335854 -0.00100945 -0.00100675 -2.30429e-05
0.0033489 -0.00100655 -0.00100386 -2.30425e-05
0.00278141 -0.00083784 -0.000832957 -4.25235e-05
0.00276535 -0.000832985 -0.000828157 -4.25224e-05
0.00387478 -0.00116247 -0.00116242 -1.09857e-10
0.00389731 -0.00116923 -0.00116918 -1.09739e-10
0.00277338 -0.000835412 -0.000830557 -4.2523e-05
0.00331996 -0.000997835 -0.000995197 -2.30415e-05
0.00388605 -0.00116585 -0.0011658 -1.10035e-10
0.00333925 -0.00100364 -0.00100097 -2.30422e-05
0.00332961 -0.00100074 -0.000998086 -2.30419e-05
0.00276535 -0.000832985 -0.000828157 -4.25224e-05
0.0027493 -0.000828129 -0.000823358 -4.25213e-05
0.00385226 -0.00115571 -0.00115566 -1.08579e-10
0.00387478 -0.00116247 -0.00116242 -1.09857e-10
0.00275732 -0.000830557 -0.000825758 -4.25219e-05
0.00330067 -0.000992026 -0.000989419 -2.30408e-05
0.00386352 -0.00115909 -0.00115904 -1.08779e-10
0.00331996 -0.000997835 -0.000995197 -2.30415e-05
0.00331032 -0.000994931 -0.000992308 -2.30412e-05
0.0027493 -0.000828129 -0.000823358 -4.25213e-05
0.00273324 -0.000823274 -0.000818558 -4.25202e-05
0.00382973 -0.00114895 -0.0011489 -1.08232e-10
0.00385226 -0.00115571 -0.00115566 -1.0858e-10
0.00274127 -0.000825702 -0.000820958 -4.25208e-05
0.00328138 -0.000986218 -0.000983641 -2.30401e-05
0.00384099 -0.00115233 -0.00115228 -1.08468e-10
0.00330067 -0.000992026 -0.000989419 -2.30408e-05
0.00329103 -0.000989122 -0.00098653 -2.30405e-05
0.00273324 -0.000823274 -0.000818558 -4.25202e-05
0.00271719 -0.000818419 -0.000813759 -4.25191e-05
0.0038072 -0.00114219 -0.00114215 -1.07619e-10
0.00382973 -0.00114895 -0.0011489 -1.08232e-10
0.00272522 -0.000820846 -0.000816159 -4.25196e-05
0.00326209 -0.00098041 -0.000977863 -2.30395e-05
0.00381846 -0.00114557 -0.00114553 -1.07789e-10
0.00328138 -0.000986218 -0.000983641 -2.30401e-05
0.00327174 -0.000983314 -0.000980752 -2.30398e-05
0.00271719 -0.000818419 -0.000813759 -4.25191e-05
0.00270114 -0.000813564 -0.000808959 -4.2518e-05
0.00378467 -0.00113543 -0.00113539 -1.07267e-10
0.0038072 -0.00114219 -0.00114215 -1.07629e-10
0.00270916 -0.000815992 -0.000811359 -4.25185e-05
0.0032428 -0.000974602 -0.000972085 -2.30388e-05
0.00379593 -0.00113881 -0.00113877 -1.07463e-10
0.00326209 -0.00098041 -0.000977863 -2.30395e-05
0.00325244 -0.000977506 -0.000974974 -2.30391e-05
0.00270114 -0.000813564 -0.000808959 -4.2518e-05
0.00268508 -0.00080871 -0.000804159 -4.25169e-05
0.00376214 -0.00112867 -0.00112863 -1.06861e-10
0.00378467 -0.00113543 -0.00113539 -1.07267e-10
0.00269311 -0.000811137 -0.000806559 -4.25174e-05
0.00322351 -0.000968794 -0.000966307 -2.30382e-05
0.0037734 -0.00113205 -0.00113201 -1.07041e-10
0.0032428 -0.000974602 -0.000972085 -2.30388e-05
0.00323315 -0.000971698 -0.000969196 -2.30385e-05
0.00268508 -0.00080871 -0.000804159 -4.25169e-05
0.00266903 -0.000803855 -0.000799359 -4.25158e-05
0.00373961 -0.00112191 -0.00112187 -1.06497e-10
0.00376214 -0.00112867 -0.00112863 -1.06861e-10
0.00267705 -0.000806282 -0.000801759 -4.25163e-05
0.00320422 -0.000962986 -0.000960529 -2.30375e-05
0.00375088 -0.00112529 -0.00112525 -1.06709e-10
0.00322351 -0.000968794 -0.000966307 -2.30382e-05
0.00321386 -0.00096589 -0.000963418 -2.30378e-05
0.00266903 -0.000803855 -0.000799359 -4.25158e-05
0.00265297 -0.000799001 -0.000794559 -4.25147e-05
0.00371708 -0.00111515 -0.00111511 -1.06092e-10
0.00373961 -0.00112191 -0.00112187 -1.06497e-10
0.002661 -0.000801428 -0.000796959 -4.25152e-05
0.00318493 -0.000957178 -0.00095475 -2.30369e-05
0.00372835 -0.00111853 -0.00111849 -1.06318e-10
0.00320422 -0.000962986 -0.000960529 -2.30375e-05
0.00319457 -0.000960082 -0.000957639 -2.30372e-05
0.00265297 -0.000799001 -0.000794559 -4.25147e-05
0.00263692 -0.000794147 -0.000789758 -4.25136e-05
0.00369456 -0.0011084 -0.00110835 -1.05667e-10
0.00371708 -0.00111515 -0.00111511 -1.06098e-10
0.00264494 -0.000796574 -0.000792159 -4.25141e-05
0.00316564 -0.000951371 -0.000948972 -2.30362e-05
0.00370582 -0.00111178 -0.00111173 -1.05926e-10
0.00318493 -0.000957178 -0.00095475 -2.30369e-05
0.00317528 -0.000954274 -0.000951861 -2.30365e-05
0.00263692 -0.000794147 -0.000789758 -4.25136e-05
0.00262086 -0.000789293 -0.000784958 -4.25125e-05
0.00367203 -0.00110164 -0.0011016 -1.05187e-10
0.00369456 -0.0011084 -0.00110835 -1.05667e-10
0.00262889 -0.00079172 -0.000787358 -4.2513e-05
0.00314635 -0.000945563 -0.000943194 -2.30356e-05
0.00368329 -0.00110502 -0.00110497 -1.05465e-10
0.00316564 -0.000951371 -0.000948972 -2.30362e-05
0.00315599 -0.000948467 -0.000946083 -2.30359e-05
0.00262086 -0.000789293 -0.000784958 -4.25125e-05
0.00260481 -0.000784439 -0.000780158 -4.25114e-05
0.0036495 -0.00109488 -0.00109484 -1.04684e-10
0.00367203 -0.00110164 -0.0011016 -1.0518e-10
0.00261283 -0.000786866 -0.000782558 -4.25119e-05
0.00312706 -0.000939756 -0.000937415 -2.30349e-05
0.00366076 -0.00109826 -0.00109822 -1.04986e-10
0.00314635 -0.000945563 -0.000943194 -2.30356e-05
0.0031367 -0.00094266 -0.000940305 -2.30352e-05
0.00260481 -0.000784439 -0.000780158 -4.25114e-05
0.00258875 -0.000779586 -0.000775357 -4.25102e-05
0.00362697 -0.00108812 -0.00108808 -1.04153e-10
0.0036495 -0.00109488 -0.00109484 -1.04684e-10
0.00259678 -0.000782013 -0.000777757 -4.25108e-05
0.00310777 -0.000933949 -0.000931637 -2.30343e-05
0.00363824 -0.0010915 -0.00109146 -1.04469e-10
0.00312706 -0.000939756 -0.000937415 -2.30349e-05
0.00311741 -0.000936852 -0.000934526 -2.30346e-05
0.00258875 -0.000779586 -0.000775357 -4.25102e-05
0.0025727 -0.000774733 -0.000770556 -4.25091e-05
0.00360445 -0.00108136 -0.00108132 -1.03585e-10
0.00362697 -0.00108812 -0.00108808 -1.04157e-10
0.00258072 -0.000777159 -0.000772956 -4.25097e-05
0.00308848 -0.000928142 -0.000925859 -2.30336e-05
0.00361571 -0.00108474 -0.0010847 -1.03924e-10
0.00310777 -0.000933949 -0.000931637 -2.30343e-05
0.00309812 -0.000931045 -0.000928748 -2.30339e-05
0.0025727 -0.000774733 -0.000770556 -4.25091e-05
0.00255664 -0.00076988 -0.000765755 -4.2508e-05
0.00358192 -0.0010746 -0.00107456 -1.02999e-10
0.00360445 -0.00108136 -0.00108132 -1.03585e-10
0.00256467 -0.000772306 -0.000768156 -4.25086e-05
0.00306919 -0.000922335 -0.00092008 -2.30329e-05
0.00359318 -0.00107798 -0.00107794 -1.03338e-10
0.00308848 -0.000928142 -0.000925859 -2.30336e-05
0.00307883 -0.000925238 -0.000922969 -2.30333e-05
0.00255664 -0.00076988 -0.000765755 -4.2508e-05
0.00254059 -0.000765027 -0.000760954 -4.25069e-05
0.00355939 -0.00106785 -0.00106781 -1.02428e-10
0.00358192 -0.0010746 -0.00107456 -1.03003e-10
0.00254861 -0.000767453 -0.000763355 -4.25074e-05
0.0030499 -0.000916528 -0.000914302 -2.30323e-05
0.00357066 -0.00107122 -0.00107118 -1.02771e-10
0.00306919 -0.000922335 -0.00092008 -2.30329e-05
0.00305954 -0.000919431 -0.000917191 -2.30326e-05
0.00254059 -0.000765027 -0.000760954 -4.25069e-05
0.00252453 -0.000760174 -0.000756153 -4.25057e-05
0.00353687 -0.00106109 -0.00106105 -1.01771e-10
0.00355939 -0.00106785 -0.00106781 -1.02428e-10
0.00253256 -0.0007626 -0.000758553 -4.25063e-05
0.00303061 -0.000910722 -0.000908523 -2.30316e-05
0.00354813 -0.00106447 -0.00106443 -1.0215e-10
0.0030499 -0.000916528 -0.000914302 -2.30323e-05
0.00304025 -0.000913625 -0.000911412 -2.30319e-05
0.00252453 -0.000760174 -0.000756153 -4.25057e-05
0.00250848 -0.000755322 -0.000751352 -4.25045e-05
0.00351434 -0.00105433 -0.00105429 -1.01173e-10
0.00353687 -0.00106109 -0.00106105 -1.01771e-10
0.0025165 -0.000757748 -0.000753752 -4.25051e-05
0.00301132 -0.000904915 -0.000902745 -2.30309e-05
0.0035256 -0.00105771 -0.00105767 -1.01518e-10
0.00303061 -0.000910722 -0.000908523 -2.30316e-05
0.00302096 -0.000907818 -0.000905634 -2.30313e-05
0.00250848 -0.000755322 -0.000751352 -4.25045e-05
0.00249242 -0.000750469 -0.00074655 -4.25034e-05
0.00349181 -0.00104757 -0.00104753 -1.0055e-10
0.00351434 -0.00105433 -0.00105429 -1.01186e-10
0.00250045 -0.000752896 -0.000748951 -4.2504e-05
0.00299203 -0.000899109 -0.000896966 -2.30302e-05
0.00350308 -0.00105095 -0.00105091 -1.00929e-10
0.00301132 -0.000904915 -0.000902745 -2.30309e-05
0.00300167 -0.000902012 -0.000899855 -2.30306e-05
0.00249242 -0.000750469 -0.00074655 -4.25034e-05
0.00247636 -0.000745617 -0.000741749 -4.25022e-05
0.00346929 -0.00104081 -0.00104077 -9.99197e-11
0.00349181 -0.00104757 -0.00104753 -1.0055e-10
0.00248439 -0.000748043 -0.000744149 -4.25028e-05
0.00297274 -0.000893303 -0.000891187 -2.30296e-05
0.00348055 -0.00104419 -0.00104415 -1.00274e-10
0.00299203 -0.000899109 -0.000896966 -2.30302e-05
0.00298238 -0.000896206 -0.000894077 -2.30299e-05
0.00247636 -0.000745617 -0.000741749 -4.25022e-05
0.00246031 -0.000740766 -0.000736947 -4.2501e-05
0.00344676 -0.00103405 -0.00103402 -9.92883e-11
0.00346929 -0.00104081 -0.00104077 -9.99275e-11
0.00246834 -0.000743192 -0.000739348 -4.25016e-05
0.00295345 -0.000887496 -0.000885409 -2.30289e-05
0.00345802 -0.00103743 -0.0010374 -9.96486e-11
0.00297274 -0.000893303 -0.000891187 -2.30296e-05
0.00296309 -0.000890399 -0.000888298 -2.30292e-05
0.00246031 -0.000740766 -0.000736947 -4.2501e-05
0.00244425 -0.000735914 -0.000732145 -4.24998e-05
0.00342424 -0.0010273 -0.00102726 -9.86683e-11
0.00344676 -0.00103405 -0.00103402 -9.92883e-11
0.00245228 -0.00073834 -0.000734546 -4.25004e-05
0.00293416 -0.000881691 -0.00087963 -2.30282e-05
0.0034355 -0.00103068 -0.00103064 -9.90075e-11
0.00295345 -0.000887496 -0.000885409 -2.30289e-05
0.00294381 -0.000884594 -0.000882519 -2.30285e-05
0.00244425 -0.000735914 -0.000732145 -4.24998e-05
0.0024282 -0.000731063 -0.000727343 -4.24986e-05
0.00340171 -0.00102054 -0.0010205 -9.80218e-11
0.00342424 -0.0010273 -0.00102726 -9.86557e-11
0.00243623 -0.000733488 -0.000729744 -4.24992e-05
0.00291487 -0.000875885 -0.000873851 -2.30275e-05
0.00341297 -0.00102392 -0.00102388 -9.83942e-11
0.00293416 -0.000881691 -0.00087963 -2.30282e-05
0.00292452 -0.000878788 -0.000876741 -2.30278e-05
0.0024282 -0.000731063 -0.000727343 -4.24986e-05
0.00241214 -0.000726211 -0.000722541 -4.24974e-05
0.00337918 -0.00101378 -0.00101374 -9.74069e-11
0.00340171 -0.00102054 -0.0010205 -9.80218e-11
0.00242017 -0.000728637 -0.000724942 -4.2498e-05
0.00289558 -0.000870079 -0.000868073 -2.30268e-05
0.00339045 -0.00101716 -0.00101712 -9.77292e-11
0.00291487 -0.000875885 -0.000873851 -2.30275e-05
0.00290523 -0.000872982 -0.000870962 -2.30271e-05
0.00241214 -0.000726211 -0.000722541 -4.24974e-05
0.00239609 -0.000721361 -0.000717739 -4.24961e-05
0.00335666 -0.00100702 -0.00100699 -9.67564e-11
0.00337918 -0.00101378 -0.00101374 -9.73947e-11
0.00240411 -0.000723786 -0.00072014 -4.24968e-05
0.00287629 -0.000864274 -0.000862294 -2.3026e-05
0.00336792 -0.0010104 -0.00101037 -9.7156e-11
0.00289558 -0.000870079 -0.000868073 -2.30268e-05
0.00288594 -0.000867177 -0.000865183 -2.30264e-05
0.00239609 -0.000721361 -0.000717739 -4.24961e-05
0.00238003 -0.00071651 -0.000712937 -4.24949e-05
0.00333414 -0.00100027 -0.00100023 -9.60654e-11
0.00335666 -0.00100702 -0.00100699 -9.67564e-11
0.00238806 -0.000718935 -0.000715338 -4.24955e-05
0.002857 -0.000858469 -0.000856515 -2.30253e-05
0.0033454 -0.00100364 -0.00100361 -9.643e-11
0.00287629 -0.000864274 -0.000862294 -2.3026e-05
0.00286665 -0.000861371 -0.000859404 -2.30257e-05
0.00238003 -0.00071651 -0.000712937 -4.24949e-05
0.00236397 -0.000711659 -0.000708135 -4.24937e-05
0.00331161 -0.000993508 -0.000993473 -9.55432e-11
0.00333414 -0.00100027 -0.00100023 -9.60588e-11
0.002372 -0.000714084 -0.000710536 -4.24943e-05
0.00283771 -0.000852663 -0.000850736 -2.30246e-05
0.00332287 -0.000996887 -0.000996851 -9.58479e-11
0.002857 -0.000858469 -0.000856515 -2.30253e-05
0.00284736 -0.000855566 -0.000853626 -2.3025e-05
0.00236397 -0.000711659 -0.000708135 -4.24937e-05
0.00234792 -0.000706809 -0.000703332 -4.24924e-05
0.00328909 -0.000986751 -0.000986716 -9.48398e-11
0.00331161 -0.000993508 -0.000993473 -9.55432e-11
0.00235595 -0.000709234 -0.000705734 -4.2493e-05
0.00281843 -0.000846858 -0.000844957 -2.30239e-05
0.00330035 -0.00099013 -0.000990094 -9.52633e-11
0.00283771 -0.000852663 -0.000850736 -2.30246e-05
0.00282807 -0.000849761 -0.000847847 -2.30242e-05
0.00234792 -0.000706809 -0.000703332 -4.24924e-05
0.00233186 -0.000701959 -0.00069853 -4.24912e-05
0.00326656 -0.000979993 -0.000979959 -9.41928e-11
0.00328909 -0.000986751 -0.000986716 -9.48398e-11
0.00233989 -0.000704384 -0.000700931 -4.24918e-05
0.00279914 -0.000841054 -0.000839178 -2.30231e-05
0.00327783 -0.000983372 -0.000983337 -9.45217e-11
0.00281843 -0.000846858 -0.000844957 -2.30239e-05
0.00280878 -0.000843956 -0.000842068 -2.30235e-05
0.00233186 -0.000701959 -0.00069853 -4.24912e-05
0.00231581 -0.000697109 -0.000693727 -4.24899e-05
0.00324404 -0.000973236 -0.000973202 -9.35857e-11
0.00326656 -0.000979993 -0.000979959 -9.41878e-11
0.00232383 -0.000699534 -0.000696128 -4.24905e-05
0.00277985 -0.000835249 -0.0008334 -2.30224e-05
0.0032553 -0.000976615 -0.00097658 -9.39509e-11
0.00279914 -0.000841054 -0.000839178 -2.30231e-05
0.00278949 -0.000838151 -0.000836289 -2.30228e-05
0.00231581 -0.000697109 -0.000693727 -4.24899e-05
0.00229975 -0.000692259 -0.000688924 -4.24886e-05
0.00322152 -0.000966479 -0.000966445 -9.29506e-11
0.00324404 -0.000973236 -0.000973202 -9.3587e-11
0.00230778 -0.000694684 -0.000691326 -4.24893e-05
0.00276056 -0.000829444 -0.000827621 -2.30217e-05
0.00323278 -0.000969857 -0.000969823 -9.32914e-11
0.00277985 -0.000835249 -0.0008334 -2.30224e-05
0.0027702 -0.000832347 -0.00083051 -2.3022e-05
0.00229975 -0.000692259 -0.000688924 -4.24886e-05
0.00228369 -0.00068741 -0.000684121 -4.24873e-05
0.00319899 -0.000959722 -0.000959688 -9.23192e-11
0.00322152 -0.000966479 -0.000966445 -9.29506e-11
0.00229172 -0.000689835 -0.000686523 -4.2488e-05
0.00274127 -0.00082364 -0.000821842 -2.30209e-05
0.00321025 -0.0009631 -0.000963066 -9.26784e-11
0.00276056 -0.000829444 -0.000827621 -2.30217e-05
0.00275091 -0.000826542 -0.000824731 -2.30213e-05
0.00228369 -0.00068741 -0.000684121 -4.24873e-05
0.00226764 -0.000682561 -0.000679319 -4.2486e-05
0.00317647 -0.000952965 -0.000952931 -9.16719e-11
0.00319899 -0.000959722 -0.000959688 -9.23192e-11
0.00227567 -0.000684985 -0.00068172 -4.24867e-05
0.00272198 -0.000817836 -0.000816063 -2.30202e-05
0.00318773 -0.000956343 -0.00095631 -9.20322e-11
0.00274127 -0.00082364 -0.000821842 -2.30209e-05
0.00273163 -0.000820738 -0.000818952 -2.30206e-05
0.00226764 -0.000682561 -0.000679319 -4.2486e-05
0.00225158 -0.000677712 -0.000674515 -4.24848e-05
0.00315395 -0.000946208 -0.000946175 -9.10467e-11
0.00317647 -0.000952965 -0.000952931 -9.16793e-11
0.00225961 -0.000680136 -0.000676917 -4.24854e-05
0.00270269 -0.000812032 -0.000810284 -2.30194e-05
0.00316521 -0.000949586 -0.000949553 -9.14142e-11
0.00272198 -0.000817836 -0.000816063 -2.30202e-05
0.00271234 -0.000814934 -0.000813173 -2.30198e-05
0.00225158 -0.000677712 -0.000674515 -4.24848e-05
0.00223552 -0.000672863 -0.000669712 -4.24835e-05
0.00313143 -0.000939451 -0.000939418 -9.04159e-11
0.00315395 -0.000946208 -0.000946175 -9.10519e-11
0.00224355 -0.000675287 -0.000672114 -4.24841e-05
0.00268341 -0.000806228 -0.000804505 -2.30187e-05
0.00314269 -0.000942829 -0.000942796 -9.07665e-11
0.00270269 -0.000812032 -0.000810284 -2.30194e-05
0.00269305 -0.00080913 -0.000807394 -2.30191e-05
0.00223552 -0.000672863 -0.000669712 -4.24835e-05
0.00221947 -0.000668014 -0.000664909 -4.24821e-05
0.0031089 -0.000932694 -0.000932662 -8.9764e-11
0.00313143 -0.000939451 -0.000939418 -9.04159e-11
0.0022275 -0.000670439 -0.000667311 -4.24828e-05
0.00266412 -0.000800424 -0.000798726 -2.30179e-05
0.00312017 -0.000936072 -0.00093604 -9.0138e-11
0.00268341 -0.000806228 -0.000804505 -2.30187e-05
0.00267376 -0.000803326 -0.000801615 -2.30183e-05
0.00221947 -0.000668014 -0.000664909 -4.24821e-05
0.00220341 -0.000663166 -0.000660106 -4.24808e-05
0.00308638 -0.000925937 -0.000925905 -8.91341e-11
0.0031089 -0.000932694 -0.000932662 -8.9764e-11
0.00221144 -0.00066559 -0.000662507 -4.24815e-05
0.00264483 -0.000794621 -0.000792947 -2.30172e-05
0.00309764 -0.000929315 -0.000929283 -8.94846e-11
0.00266412 -0.000800424 -0.000798726 -2.30179e-05
0.00265447 -0.000797522 -0.000795836 -2.30175e-05
0.00220341 -0.000663166 -0.000660106 -4.24808e-05
0.00218736 -0.000658318 -0.000655302 -4.24795e-05
0.00306386 -0.00091918 -0.000919149 -8.84908e-11
0.00308638 -0.000925937 -0.000925905 -8.91342e-11
0.00219538 -0.000660742 -0.000657704 -4.24802e-05
0.00262554 -0.000788817 -0.000787168 -2.30164e-05
0.00307512 -0.000922559 -0.000922527 -8.88345e-11
0.00264483 -0.000794621 -0.000792947 -2.30172e-05
0.00263519 -0.000791719 -0.000790057 -2.30168e-05
0.00218736 -0.000658318 -0.000655302 -4.24795e-05
0.0021713 -0.00065347 -0.000650499 -4.24782e-05
0.00304134 -0.000912424 -0.000912393 -8.78608e-11
0.00306386 -0.00091918 -0.000919149 -8.84905e-11
0.00217933 -0.000655894 -0.0006529 -4.24789e-05
0.00260625 -0.000783014 -0.000781389 -2.30156e-05
0.0030526 -0.000915802 -0.000915771 -8.82132e-11
0.00262554 -0.000788817 -0.000787168 -2.30164e-05
0.0026159 -0.000785916 -0.000784278 -2.3016e-05
0.0021713 -0.00065347 -0.000650499 -4.24782e-05
0.00215524 -0.000648622 -0.000645695 -4.24769e-05
0.00301882 -0.000905667 -0.000905637 -8.72204e-11
0.00304134 -0.000912424 -0.000912393 -8.78608e-11
0.00216327 -0.000651046 -0.000648097 -4.24775e-05
0.00258697 -0.000777211 -0.00077561 -2.30149e-05
0.00303008 -0.000909046 -0.000909015 -8.7574e-11
0.00260625 -0.000783014 -0.000781389 -2.30156e-05
0.00259661 -0.000780112 -0.000778499 -2.30153e-05
0.00215524 -0.000648622 -0.000645695 -4.24769e-05
0.00213919 -0.000643775 -0.000640891 -4.24755e-05
0.0029963 -0.000898911 -0.000898881 -8.65777e-11
0.00301882 -0.000905667 -0.000905637 -8.72204e-11
0.00214722 -0.000646199 -0.000643293 -4.24762e-05
0.00256768 -0.000771408 -0.000769831 -2.30141e-05
0.00300756 -0.000902289 -0.000902259 -8.69223e-11
0.00258697 -0.000777211 -0.00077561 -2.30149e-05
0.00257732 -0.000774309 -0.00077272 -2.30145e-05
0.00213919 -0.000643775 -0.000640891 -4.24755e-05
0.00212313 -0.000638928 -0.000636087 -4.24742e-05
0.00297378 -0.000892155 -0.000892125 -8.59459e-11
0.0029963 -0.000898911 -0.000898881 -8.6573e-11
0.00213116 -0.000641351 -0.000638489 -4.24749e-05
0.00254839 -0.000765605 -0.000764052 -2.30133e-05
0.00298504 -0.000895533 -0.000895503 -8.62912e-11
0.00256768 -0.000771408 -0.000769831 -2.30141e-05
0.00255804 -0.000768507 -0.000766941 -2.30137e-05
0.00212313 -0.000638928 -0.000636087 -4.24742e-05
0.00210707 -0.000634081 -0.000631283 -4.24729e-05
0.00295126 -0.000885398 -0.000885369 -8.53105e-11
0.00297378 -0.000892155 -0.000892125 -8.59387e-11
0.0021151 -0.000636504 -0.000633685 -4.24735e-05
0.00252911 -0.000759803 -0.000758273 -2.30126e-05
0.00296252 -0.000888777 -0.000888747 -8.56524e-11
0.00254839 -0.000765605 -0.000764052 -2.30133e-05
0.00253875 -0.000762704 -0.000761162 -2.30129e-05
0.00210707 -0.000634081 -0.000631283 -4.24729e-05
0.00209102 -0.000629234 -0.000626479 -4.24715e-05
0.00292874 -0.000878642 -0.000878613 -8.46743e-11
0.00295126 -0.000885398 -0.000885369 -8.53105e-11
0.00209905 -0.000631657 -0.000628881 -4.24722e-05
0.00250982 -0.000754 -0.000752493 -2.30118e-05
0.00294 -0.00088202 -0.000881991 -8.50218e-11
0.00252911 -0.000759803 -0.000758273 -2.30126e-05
0.00251946 -0.000756902 -0.000755383 -2.30122e-05
0.00209102 -0.000629234 -0.000626479 -4.24715e-05
0.00207496 -0.000624387 -0.000621675 -4.24702e-05
0.00290622 -0.000871886 -0.000871858 -8.40276e-11
0.00292874 -0.000878642 -0.000878613 -8.46743e-11
0.00208299 -0.000626811 -0.000624077 -4.24709e-05
0.00249053 -0.000748198 -0.000746714 -2.3011e-05
0.00291748 -0.000875264 -0.000875236 -8.4377e-11
0.00250982 -0.000754 -0.000752493 -2.30118e-05
0.00250018 -0.000751099 -0.000749604 -2.30114e-05
0.00207496 -0.000624387 -0.000621675 -4.24702e-05
0.00205891 -0.000619541 -0.000616871 -4.24688e-05
0.0028837 -0.00086513 -0.000865102 -8.33932e-11
0.00290622 -0.000871886 -0.000871858 -8.40276e-11
0.00206693 -0.000621964 -0.000619273 -4.24695e-05
0.00247125 -0.000742396 -0.000740935 -2.30102e-05
0.00289496 -0.000868508 -0.00086848 -8.37405e-11
0.00249053 -0.000748198 -0.000746714 -2.3011e-05
0.00248089 -0.000745297 -0.000743825 -2.30106e-05
0.00205891 -0.000619541 -0.000616871 -4.24688e-05
0.00204285 -0.000614695 -0.000612066 -4.24675e-05
0.00286118 -0.000858375 -0.000858347 -8.27714e-11
0.0028837 -0.00086513 -0.000865102 -8.34009e-11
0.00205088 -0.000617118 -0.000614468 -4.24682e-05
0.00245196 -0.000736594 -0.000735156 -2.30094e-05
0.00287244 -0.000861752 -0.000861725 -8.30981e-11
0.00247125 -0.000742396 -0.000740935 -2.30102e-05
0.0024616 -0.000739495 -0.000738046 -2.30098e-05
0.00204285 -0.000614695 -0.000612066 -4.24675e-05
0.00202679 -0.000609849 -0.000607262 -4.24661e-05
0.00283867 -0.000851619 -0.000851591 -8.21049e-11
0.00286118 -0.000858375 -0.000858347 -8.27714e-11
0.00203482 -0.000612272 -0.000609664 -4.24668e-05
0.00243267 -0.000730792 -0.000729377 -2.30087e-05
0.00284992 -0.000854997 -0.000854969 -8.24612e-11
0.00245196 -0.000736594 -0.000735156 -2.30094e-05
0.00244232 -0.000733693 -0.000732267 -2.3009e-05
0.00202679 -0.000609849 -0.000607262 -4.24661e-05
0.00201074 -0.000605004 -0.000602457 -4.24648e-05
0.00281615 -0.000844863 -0.000844836 -8.1468e-11
0.00283867 -0.000851619 -0.000851591 -8.21049e-11
0.00201877 -0.000607426 -0.000604859 -4.24654e-05
0.00241339 -0.000724991 -0.000723598 -2.30079e-05
0.00282741 -0.000848241 -0.000848214 -8.18153e-11
0.00243267 -0.000730792 -0.000729377 -2.30087e-05
0.00242303 -0.000727892 -0.000726487 -2.30083e-05
0.00201074 -0.000605004 -0.000602457 -4.24648e-05
0.00199468 -0.000600158 -0.000597653 -4.24634e-05
0.00279363 -0.000838108 -0.000838081 -8.08311e-11
0.00281615 -0.000844863 -0.000844836 -8.14697e-11
0.00200271 -0.000602581 -0.000600055 -4.24641e-05
0.0023941 -0.000719189 -0.000717819 -2.30071e-05
0.00280489 -0.000841485 -0.000841459 -8.11874e-11
0.00241339 -0.000724991 -0.000723598 -2.30079e-05
0.00240374 -0.00072209 -0.000720708 -2.30075e-05
0.00199468 -0.000600158 -0.000597653 -4.24634e-05
0.00197862 -0.000595313 -0.000592848 -4.2462e-05
0.00277111 -0.000831352 -0.000831326 -8.01982e-11
0.00279363 -0.000838108 -0.000838081 -8.08458e-11
0.00198665 -0.000597736 -0.00059525 -4.24627e-05
0.00237481 -0.000713388 -0.00071204 -2.30063e-05
0.00278237 -0.00083473 -0.000834704 -8.05382e-11
0.0023941 -0.000719189 -0.000717819 -2.30071e-05
0.00238446 -0.000716289 -0.000714929 -2.30067e-05
0.00197862 -0.000595313 -0.000592848 -4.2462e-05
0.00196257 -0.000590468 -0.000588043 -4.24607e-05
0.0027486 -0.000824597 -0.000824571 -7.95596e-11
0.00277111 -0.000831352 -0.000831326 -8.01982e-11
0.0019706 -0.000592891 -0.000590445 -4.24614e-05
0.00235553 -0.000707587 -0.000706261 -2.30055e-05
0.00275985 -0.000827974 -0.000827949 -7.99143e-11
0.00237481 -0.000713388 -0.00071204 -2.30063e-05
0.00236517 -0.000710488 -0.00070915 -2.30059e-05
0.00196257 -0.000590468 -0.000588043 -4.24607e-05
0.00194651 -0.000585623 -0.000583238 -4.24593e-05
0.00272608 -0.000817841 -0.000817816 -7.89101e-11
0.0027486 -0.000824597 -0.000824571 -7.95596e-11
0.00195454 -0.000588046 -0.00058564 -4.246e-05
0.00233624 -0.000701786 -0.000700481 -2.30047e-05
0.00273734 -0.000821219 -0.000821194 -7.92755e-11
0.00235553 -0.000707587 -0.000706261 -2.30055e-05
0.00234589 -0.000704687 -0.000703371 -2.30051e-05
0.00194651 -0.000585623 -0.000583238 -4.24593e-05
0.00193046 -0.000580779 -0.000578433 -4.24579e-05
0.00270356 -0.000811086 -0.000811061 -7.82694e-11
0.00272608 -0.000817841 -0.000817816 -7.891e-11
0.00193848 -0.000583201 -0.000580835 -4.24586e-05
0.00231696 -0.000695986 -0.000694702 -2.30039e-05
0.00271482 -0.000814464 -0.000814439 -7.86032e-11
0.00233624 -0.000701786 -0.000700481 -2.30047e-05
0.0023266 -0.000698886 -0.000697592 -2.30043e-05
0.00193046 -0.000580779 -0.000578433 -4.24579e-05
0.0019144 -0.000575935 -0.000573628 -4.24566e-05
0.00268105 -0.000804331 -0.000804307 -7.76292e-11
0.00270356 -0.000811086 -0.000811061 -7.82821e-11
0.00192243 -0.000578357 -0.00057603 -4.24573e-05
0.00229767 -0.000690185 -0.000688923 -2.30031e-05
0.0026923 -0.000807709 -0.000807684 -7.79589e-11
0.00231696 -0.000695986 -0.000694702 -2.30039e-05
0.00230731 -0.000693085 -0.000691813 -2.30035e-05
0.0019144 -0.000575935 -0.000573628 -4.24566e-05
0.00189834 -0.000571091 -0.000568822 -4.24552e-05
0.00265853 -0.000797576 -0.000797552 -7.69879e-11
0.00268105 -0.000804331 -0.000804307 -7.76292e-11
0.00190637 -0.000573513 -0.000571225 -4.24559e-05
0.00227839 -0.000684385 -0.000683144 -2.30024e-05
0.00266979 -0.000800954 -0.000800929 -7.7328e-11
0.00229767 -0.000690185 -0.000688923 -2.30031e-05
0.00228803 -0.000687285 -0.000686033 -2.30027e-05
0.00189834 -0.000571091 -0.000568822 -4.24552e-05
0.00188229 -0.000566247 -0.000564017 -4.24538e-05
0.00263602 -0.000790821 -0.000790798 -7.63393e-11
0.00265853 -0.000797576 -0.000797552 -7.69879e-11
0.00189031 -0.000568669 -0.00056642 -4.24545e-05
0.0022591 -0.000678584 -0.000677365 -2.30016e-05
0.00264727 -0.000794199 -0.000794175 -7.6704e-11
0.00227839 -0.000684385 -0.000683144 -2.30024e-05
0.00226874 -0.000681485 -0.000680254 -2.3002e-05
0.00188229 -0.000566247 -0.000564017 -4.24538e-05
0.00186623 -0.000561403 -0.000559212 -4.24525e-05
0.0026135 -0.000784066 -0.000784043 -7.5715e-11
0.00263602 -0.000790821 -0.000790798 -7.63547e-11
0.00187426 -0.000563825 -0.000561614 -4.24532e-05
0.00223982 -0.000672784 -0.000671585 -2.30008e-05
0.00262476 -0.000787444 -0.00078742 -7.60554e-11
0.0022591 -0.000678584 -0.000677365 -2.30016e-05
0.00224946 -0.000675684 -0.000674475 -2.30012e-05
0.00186623 -0.000561403 -0.000559212 -4.24525e-05
0.00185017 -0.00055656 -0.000554406 -4.24511e-05
0.00259099 -0.000777312 -0.000777289 -7.50569e-11
0.0026135 -0.000784066 -0.000784043 -7.57029e-11
0.0018582 -0.000558982 -0.000556809 -4.24518e-05
0.00222053 -0.000666985 -0.000665806 -2.3e-05
0.00260224 -0.000780689 -0.000780666 -7.53956e-11
0.00223982 -0.000672784 -0.000671585 -2.30008e-05
0.00223017 -0.000669884 -0.000668696 -2.30004e-05
0.00185017 -0.00055656 -0.000554406 -4.24511e-05
0.00183412 -0.000551717 -0.0005496 -4.24497e-05
0.00256847 -0.000770557 -0.000770535 -7.44308e-11
0.00259099 -0.000777312 -0.000777289 -7.50569e-11
0.00184215 -0.000554138 -0.000552003 -4.24504e-05
0.00220125 -0.000661185 -0.000660027 -2.29992e-05
0.00257973 -0.000773934 -0.000773912 -7.47424e-11
0.00222053 -0.000666985 -0.000665806 -2.3e-05
0.00221089 -0.000664085 -0.000662917 -2.29996e-05
0.00183412 -0.000551717 -0.0005496 -4.24497e-05
0.00181806 -0.000546874 -0.000544795 -4.24484e-05
0.00254596 -0.000763803 -0.000763781 -7.37826e-11
0.00256847 -0.000770557 -0.000770535 -7.44308e-11
0.00182609 -0.000549295 -0.000547198 -4.2449e-05
0.00218196 -0.000655385 -0.000654248 -2.29984e-05
0.00255721 -0.00076718 -0.000767158 -7.41214e-11
0.00220125 -0.000661185 -0.000660027 -2.29992e-05
0.00219161 -0.000658285 -0.000657137 -2.29988e-05
0.00181806 -0.000546874 -0.000544795 -4.24484e-05
0.00180201 -0.000542031 -0.000539989 -4.2447e-05
0.00252344 -0.000757048 -0.000757027 -7.31542e-11
0.00254596 -0.000763803 -0.000763781 -7.37909e-11
0.00181003 -0.000544453 -0.000542392 -4.24477e-05
0.00216268 -0.000649586 -0.000648469 -2.29976e-05
0.0025347 -0.000760425 -0.000760404 -7.34861e-11
0.00218196 -0.000655385 -0.000654248 -2.29984e-05
0.00217232 -0.000652486 -0.000651358 -2.2998e-05
0.00180201 -0.000542031 -0.000539989 -4.2447e-05
0.00178595 -0.000537189 -0.000535183 -4.24456e-05
0.00250093 -0.000750294 -0.000750273 -7.25029e-11
0.00252344 -0.000757048 -0.000757027 -7.31223e-11
0.00179398 -0.00053961 -0.000537586 -4.24463e-05
0.0021434 -0.000643787 -0.000642689 -2.29968e-05
0.00251219 -0.000753671 -0.00075365 -7.28332e-11
0.00216268 -0.000649586 -0.000648469 -2.29976e-05
0.00215304 -0.000646686 -0.000645579 -2.29972e-05
0.00178595 -0.000537189 -0.000535183 -4.24456e-05
0.00176989 -0.000532347 -0.000530377 -4.24442e-05
0.00247842 -0.00074354 -0.000743519 -7.18708e-11
0.00250093 -0.000750294 -0.000750273 -7.25029e-11
0.00177792 -0.000534768 -0.00053278 -4.24449e-05
0.00212411 -0.000637988 -0.00063691 -2.2996e-05
0.00248967 -0.000746917 -0.000746896 -7.22206e-11
0.0021434 -0.000643787 -0.000642689 -2.29968e-05
0.00213375 -0.000640887 -0.0006398 -2.29964e-05
0.00176989 -0.000532347 -0.000530377 -4.24442e-05
0.00175384 -0.000527505 -0.000525571 -4.24429e-05
0.0024559 -0.000736786 -0.000736765 -7.12191e-11
0.00247842 -0.00074354 -0.000743519 -7.18708e-11
0.00176187 -0.000529926 -0.000527974 -4.24436e-05
0.00210483 -0.000632189 -0.000631131 -2.29952e-05
0.00246716 -0.000740163 -0.000740142 -7.15704e-11
0.00212411 -0.000637988 -0.00063691 -2.2996e-05
0.00211447 -0.000635088 -0.000634021 -2.29956e-05
0.00175384 -0.000527505 -0.000525571 -4.24429e-05
0.00173778 -0.000522663 -0.000520765 -4.24415e-05
0.00243339 -0.000730032 -0.000730012 -7.05749e-11
0.0024559 -0.000736786 -0.000736765 -7.12208e-11
0.00174581 -0.000525084 -0.000523168 -4.24422e-05
0.00208554 -0.00062639 -0.000625352 -2.29944e-05
0.00244465 -0.000733409 -0.000733389 -7.09053e-11
0.00210483 -0.000632189 -0.000631131 -2.29952e-05
0.00209519 -0.00062929 -0.000628241 -2.29948e-05
0.00173778 -0.000522663 -0.000520765 -4.24415e-05
0.00172172 -0.000517822 -0.000515958 -4.24401e-05
0.00241088 -0.000723278 -0.000723258 -6.99122e-11
0.00243339 -0.000730032 -0.000730012 -7.05896e-11
0.00172975 -0.000520242 -0.000518361 -4.24408e-05
0.00206626 -0.000620592 -0.000619573 -2.29936e-05
0.00242214 -0.000726655 -0.000726635 -7.02518e-11
0.00208554 -0.00062639 -0.000625352 -2.29944e-05
0.0020759 -0.000623491 -0.000622462 -2.2994e-05
0.00172172 -0.000517822 -0.000515958 -4.24401e-05
0.00170567 -0.000512981 -0.000511152 -4.24388e-05
0.00238837 -0.000716524 -0.000716505 -6.92676e-11
0.00241088 -0.000723278 -0.000723258 -6.99122e-11
0.0017137 -0.000515401 -0.000513555 -4.24395e-05
0.00204698 -0.000614794 -0.000613793 -2.29929e-05
0.00239962 -0.000719901 -0.000719881 -6.96287e-11
0.00206626 -0.000620592 -0.000619573 -2.29936e-05
0.00205662 -0.000617693 -0.000616683 -2.29933e-05
0.00170567 -0.000512981 -0.000511152 -4.24388e-05
0.00168961 -0.00050814 -0.000506345 -4.24374e-05
0.00236586 -0.00070977 -0.000709751 -6.86524e-11
0.00238837 -0.000716524 -0.000716505 -6.92676e-11
0.00169764 -0.00051056 -0.000508749 -4.24381e-05
0.00202769 -0.000608995 -0.000608014 -2.29921e-05
0.00237711 -0.000713147 -0.000713128 -6.89742e-11
0.00204698 -0.000614794 -0.000613793 -2.29929e-05
0.00203734 -0.000611894 -0.000610904 -2.29925e-05
0.00168961 -0.00050814 -0.000506345 -4.24374e-05
0.00167356 -0.000503299 -0.000501539 -4.24361e-05
0.00234335 -0.000703016 -0.000702998 -6.79917e-11
0.00236586 -0.00070977 -0.000709751 -6.86391e-11
0.00168158 -0.000505719 -0.000503942 -4.24367e-05
0.00200841 -0.000603197 -0.000602235 -2.29913e-05
0.0023546 -0.000706393 -0.000706375 -6.83269e-11
0.00202769 -0.000608995 -0.000608014 -2.29921e-05
0.00201805 -0.000606096 -0.000605124 -2.29917e-05
0.00167356 -0.000503299 -0.000501539 -4.24361e-05
0.0016575 -0.000498458 -0.000496732 -4.24347e-05
0.00232083 -0.000696263 -0.000696245 -6.73468e-11
0.00234335 -0.000703016 -0.000702998 -6.80203e-11
0.00166553 -0.000500878 -0.000499135 -4.24354e-05
0.00198913 -0.0005974 -0.000596456 -2.29905e-05
0.00233209 -0.00069964 -0.000699622 -6.7691e-11
0.00200841 -0.000603197 -0.000602235 -2.29913e-05
0.00199877 -0.000600298 -0.000599345 -2.29909e-05
0.0016575 -0.000498458 -0.000496732 -4.24347e-05
0.00164144 -0.000493618 -0.000491925 -4.24333e-05
0.00229832 -0.000689509 -0.000689492 -6.67147e-11
0.00232083 -0.000696263 -0.000696245 -6.73468e-11
0.00164947 -0.000496038 -0.000494329 -4.2434e-05
0.00196985 -0.000591602 -0.000590676 -2.29897e-05
0.00230958 -0.000692886 -0.000692869 -6.70437e-11
0.00198913 -0.0005974 -0.000596456 -2.29905e-05
0.00197949 -0.000594501 -0.000593566 -2.29901e-05
0.00164144 -0.000493618 -0.000491925 -4.24333e-05
0.00162539 -0.000488778 -0.000487118 -4.2432e-05
0.00227581 -0.000682756 -0.000682739 -6.60636e-11
0.00229832 -0.000689509 -0.000689492 -6.67147e-11
0.00163342 -0.000491198 -0.000489522 -4.24327e-05
0.00195056 -0.000585804 -0.000584897 -2.29889e-05
0.00228707 -0.000686133 -0.000686116 -6.64339e-11
0.00196985 -0.000591602 -0.000590676 -2.29897e-05
0.00196021 -0.000588703 -0.000587787 -2.29893e-05
0.00162539 -0.000488778 -0.000487118 -4.2432e-05
0.00160933 -0.000483938 -0.000482311 -4.24306e-05
0.0022533 -0.000676003 -0.000675986 -6.54165e-11
0.00227581 -0.000682756 -0.000682739 -6.6052e-11
0.00161736 -0.000486358 -0.000484715 -4.24313e-05
0.00193128 -0.000580007 -0.000579118 -2.29882e-05
0.00226456 -0.000679379 -0.000679363 -6.57461e-11
0.00195056 -0.000585804 -0.000584897 -2.29889e-05
0.00194092 -0.000582906 -0.000582007 -2.29885e-05
0.00160933 -0.000483938 -0.000482311 -4.24306e-05
0.00159328 -0.000479098 -0.000477504 -4.24293e-05
0.00223079 -0.00066925 -0.000669234 -6.47837e-11
0.0022533 -0.000676003 -0.000675986 -6.54363e-11
0.0016013 -0.000481518 -0.000479908 -4.243e-05
0.001912 -0.00057421 -0.000573338 -2.29874e-05
0.00224205 -0.000672626 -0.00067261 -6.51092e-11
0.00193128 -0.000580007 -0.000579118 -2.29882e-05
0.00192164 -0.000577109 -0.000576228 -2.29878e-05
0.00159328 -0.000479098 -0.000477504 -4.24293e-05
0.00157722 -0.000474259 -0.000472697 -4.24279e-05
0.00220829 -0.000662497 -0.000662481 -6.41274e-11
0.00223079 -0.00066925 -0.000669234 -6.47837e-11
0.00158525 -0.000476678 -0.000475101 -4.24286e-05
0.00189272 -0.000568413 -0.000567559 -2.29866e-05
0.00221954 -0.000665873 -0.000665857 -6.44599e-11
0.001912 -0.00057421 -0.000573338 -2.29874e-05
0.00190236 -0.000571311 -0.000570449 -2.2987e-05
0.00157722 -0.000474259 -0.000472697 -4.24279e-05
0.00156116 -0.00046942 -0.00046789 -4.24266e-05
0.00218578 -0.000655744 -0.000655728 -6.34766e-11
0.00220829 -0.000662497 -0.000662481 -6.41274e-11
0.00156919 -0.000471839 -0.000470294 -4.24273e-05
0.00187344 -0.000562616 -0.00056178 -2.29858e-05
0.00219703 -0.00065912 -0.000659105 -6.38135e-11
0.00189272 -0.000568413 -0.000567559 -2.29866e-05
0.00188308 -0.000565515 -0.000564669 -2.29862e-05
0.00156116 -0.00046942 -0.00046789 -4.24266e-05
0.00154511 -0.000464581 -0.000463083 -4.24253e-05
0.00216327 -0.000648991 -0.000648976 -6.28541e-11
0.00218578 -0.000655744 -0.000655728 -6.34625e-11
0.00155313 -0.000467 -0.000465486 -4.24259e-05
0.00185415 -0.00055682 -0.000556 -2.2985e-05
0.00217452 -0.000652367 -0.000652352 -6.31851e-11
0.00187344 -0.000562616 -0.00056178 -2.29858e-05
0.00186379 -0.000559718 -0.00055889 -2.29854e-05
0.00154511 -0.000464581 -0.000463083 -4.24253e-05
0.00152905 -0.000459742 -0.000458275 -4.24239e-05
0.00214076 -0.000642238 -0.000642223 -6.22111e-11
0.00216327 -0.000648991 -0.000648976 -6.28539e-11
0.00153708 -0.000462161 -0.000460679 -4.24246e-05
0.00183487 -0.000551023 -0.000550221 -2.29843e-05
0.00215201 -0.000645614 -0.0006456 -6.25302e-11
0.00185415 -0.00055682 -0.000556 -2.2985e-05
0.00184451 -0.000553921 -0.000553111 -2.29847e-05
0.00152905 -0.000459742 -0.000458275 -4.24239e-05
0.00151299 -0.000454903 -0.000453467 -4.24226e-05
0.00211825 -0.000635485 -0.000635471 -6.15457e-11
0.00214076 -0.000642238 -0.000642223 -6.22111e-11
0.00152102 -0.000457323 -0.000455871 -4.24233e-05
0.00181559 -0.000545227 -0.000544442 -2.29835e-05
0.00212951 -0.000638862 -0.000638847 -6.18996e-11
0.00183487 -0.000551023 -0.000550221 -2.29843e-05
0.00182523 -0.000548125 -0.000547331 -2.29839e-05
0.00151299 -0.000454903 -0.000453467 -4.24226e-05
0.00149694 -0.000450065 -0.00044866 -4.24213e-05
0.00209574 -0.000628733 -0.000628719 -6.08883e-11
0.00211825 -0.000635485 -0.000635471 -6.15457e-11
0.00150497 -0.000452484 -0.000451064 -4.24219e-05
0.00179631 -0.000539431 -0.000538662 -2.29827e-05
0.002107 -0.000632109 -0.000632095 -6.12187e-11
0.00181559 -0.000545227 -0.000544442 -2.29835e-05
0.00180595 -0.000542329 -0.000541552 -2.29831e-05
0.00149694 -0.000450065 -0.00044866 -4.24213e-05
0.00148088 -0.000445227 -0.000443852 -4.24199e-05
0.00207324 -0.00062198 -0.000621967 -6.02396e-11
0.00209574 -0.000628733 -0.000628719 -6.08887e-11
0.00148891 -0.000447646 -0.000446256 -4.24206e-05
0.00177703 -0.000533635 -0.000532883 -2.2982e-05
0.00208449 -0.000625356 -0.000625343 -6.05877e-11
0.00179631 -0.000539431 -0.000538662 -2.29827e-05
0.00178667 -0.000536533 -0.000535773 -2.29824e-05
0.00148088 -0.000445227 -0.000443852 -4.24199e-05
0.00146483 -0.000440389 -0.000439044 -4.24186e-05
0.00205073 -0.000615228 -0.000615215 -5.95915e-11
0.00207324 -0.00062198 -0.000621967 -6.02491e-11
0.00147285 -0.000442808 -0.000441448 -4.24193e-05
0.00175775 -0.000527839 -0.000527104 -2.29812e-05
0.00206198 -0.000618604 -0.000618591 -5.99318e-11
0.00177703 -0.000533635 -0.000532883 -2.2982e-05
0.00176739 -0.000530737 -0.000529993 -2.29816e-05
0.00146483 -0.000440389 -0.000439044 -4.24186e-05
0.00144877 -0.000435552 -0.000434236 -4.24173e-05
0.00202822 -0.000608475 -0.000608463 -5.89241e-11
0.00205073 -0.000615228 -0.000615215 -5.95915e-11
0.0014568 -0.00043797 -0.00043664 -4.2418e-05
0.00173847 -0.000522043 -0.000521324 -2.29804e-05
0.00203948 -0.000611851 -0.000611839 -5.9286e-11
0.00175775 -0.000527839 -0.000527104 -2.29812e-05
0.00174811 -0.000524941 -0.000524214 -2.29808e-05
0.00144877 -0.000435552 -0.000434236 -4.24173e-05
0.00143271 -0.000430714 -0.000429428 -4.2416e-05
0.00200572 -0.000601723 -0.000601711 -5.83102e-11
0.00202822 -0.000608475 -0.000608463 -5.89241e-11
0.00144074 -0.000433133 -0.000431832 -4.24166e-05
0.00171919 -0.000516248 -0.000515545 -2.29797e-05
0.00201697 -0.000605099 -0.000605087 -5.86289e-11
0.00173847 -0.000522043 -0.000521324 -2.29804e-05
0.00172883 -0.000519145 -0.000518434 -2.29801e-05
0.00143271 -0.000430714 -0.000429428 -4.2416e-05
0.00141666 -0.000425877 -0.00042462 -4.24147e-05
0.00198321 -0.000594971 -0.000594959 -5.76495e-11
0.00200572 -0.000601723 -0.000601711 -5.83069e-11
0.00142468 -0.000428296 -0.000427024 -4.24153e-05
0.0016999 -0.000510452 -0.000509765 -2.29789e-05
0.00199446 -0.000598347 -0.000598335 -5.79906e-11
0.00171919 -0.000516248 -0.000515545 -2.29797e-05
0.00170955 -0.00051335 -0.000512655 -2.29793e-05
0.00141666 -0.000425877 -0.00042462 -4.24147e-05
0.0014006 -0.00042104 -0.000419812 -4.24134e-05
0.0019607 -0.000588219 -0.000588207 -5.70233e-11
0.00198321 -0.000594971 -0.000594959 -5.76488e-11
0.00140863 -0.000423459 -0.000422216 -4.2414e-05
0.00168062 -0.000504657 -0.000503986 -2.29782e-05
0.00197196 -0.000591595 -0.000591583 -5.73508e-11
0.0016999 -0.000510452 -0.000509765 -2.29789e-05
0.00169026 -0.000507555 -0.000506876 -2.29785e-05
0.0014006 -0.00042104 -0.000419812 -4.24134e-05
0.00138454 -0.000416203 -0.000415003 -4.24121e-05
0.0019382 -0.000581467 -0.000581456 -5.63686e-11
0.0019607 -0.000588219 -0.000588207 -5.70233e-11
0.00139257 -0.000418622 -0.000417407 -4.24127e-05
0.00166134 -0.000498862 -0.000498206 -2.29774e-05
0.00194945 -0.000584843 -0.000584832 -5.67153e-11
0.00168062 -0.000504657 -0.000503986 -2.29782e-05
0.00167098 -0.00050176 -0.000501096 -2.29778e-05
0.00138454 -0.000416203 -0.000415003 -4.24121e-05
0.00136849 -0.000411367 -0.000410195 -4.24108e-05
0.00191569 -0.000574715 -0.000574704 -5.57037e-11
0.0019382 -0.000581467 -0.000581456 -5.63686e-11
0.00137652 -0.000413785 -0.000412599 -4.24114e-05
0.00164206 -0.000493067 -0.000492427 -2.29767e-05
0.00192694 -0.000578091 -0.00057808 -5.60448e-11
0.00166134 -0.000498862 -0.000498206 -2.29774e-05
0.0016517 -0.000495965 -0.000495317 -2.2977e-05
0.00136849 -0.000411367 -0.000410195 -4.24108e-05
0.00135243 -0.000406531 -0.000405386 -4.24095e-05
0.00189319 -0.000567963 -0.000567953 -5.50628e-11
0.00191569 -0.000574715 -0.000574704 -5.57034e-11
0.00136046 -0.000408949 -0.00040779 -4.24101e-05
0.00162278 -0.000487273 -0.000486647 -2.29759e-05
0.00190444 -0.000571339 -0.000571329 -5.53802e-11
0.00164206 -0.000493067 -0.000492427 -2.29767e-05
0.00163242 -0.00049017 -0.000489537 -2.29763e-05
0.00135243 -0.000406531 -0.000405386 -4.24095e-05
0.00133637 -0.000401695 -0.000400577 -4.24082e-05
0.00187068 -0.000561211 -0.000561202 -5.44128e-11
0.00189319 -0.000567963 -0.000567953 -5.50584e-11
0.0013444 -0.000404113 -0.000402982 -4.24089e-05
0.0016035 -0.000481478 -0.000480868 -2.29752e-05
0.00188193 -0.000564587 -0.000564577 -5.47494e-11
0.00162278 -0.000487273 -0.000486647 -2.29759e-05
0.00161314 -0.000484375 -0.000483758 -2.29756e-05
0.00133637 -0.000401695 -0.000400577 -4.24082e-05
0.00132032 -0.000396859 -0.000395768 -4.2407e-05
0.00184818 -0.00055446 -0.00055445 -5.37519e-11
0.00187068 -0.000561211 -0.000561202 -5.44128e-11
0.00132835 -0.000399277 -0.000398173 -4.24076e-05
0.00158422 -0.000475684 -0.000475088 -2.29744e-05
0.00185943 -0.000557835 -0.000557826 -5.40712e-11
0.0016035 -0.000481478 -0.000480868 -2.29752e-05
0.00159386 -0.000478581 -0.000477978 -2.29748e-05
0.00132032 -0.000396859 -0.000395768 -4.2407e-05
0.00130426 -0.000392023 -0.00039096 -4.24057e-05
0.00182567 -0.000547708 -0.000547699 -5.31094e-11
0.00184818 -0.00055446 -0.00055445 -5.37519e-11
0.00131229 -0.000394441 -0.000393364 -4.24063e-05
0.00156494 -0.00046989 -0.000469309 -2.29737e-05
0.00183692 -0.000551084 -0.000551075 -5.34428e-11
0.00158422 -0.000475684 -0.000475088 -2.29744e-05
0.00157458 -0.000472787 -0.000472199 -2.29741e-05
0.00130426 -0.000392023 -0.00039096 -4.24057e-05
0.00128821 -0.000387188 -0.00038615 -4.24044e-05
0.00180317 -0.000540956 -0.000540948 -5.24737e-11
0.00182567 -0.000547708 -0.000547699 -5.31324e-11
0.00129623 -0.000389605 -0.000388555 -4.24051e-05
0.00154566 -0.000464096 -0.000463529 -2.2973e-05
0.00181442 -0.000544332 -0.000544323 -5.28091e-11
0.00156494 -0.00046989 -0.000469309 -2.29737e-05
0.0015553 -0.000466993 -0.000466419 -2.29733e-05
0.00128821 -0.000387188 -0.00038615 -4.24044e-05
0.00127215 -0.000382352 -0.000381341 -4.24032e-05
0.00178066 -0.000534205 -0.000534197 -5.17976e-11
0.00180317 -0.000540956 -0.000540948 -5.24733e-11
0.00128018 -0.00038477 -0.000383746 -4.24038e-05
0.00152638 -0.000458302 -0.00045775 -2.29722e-05
0.00179192 -0.000537581 -0.000537572 -5.21263e-11
0.00154566 -0.000464096 -0.000463529 -2.2973e-05
0.00153602 -0.000461199 -0.000460639 -2.29726e-05
0.00127215 -0.000382352 -0.000381341 -4.24032e-05
0.00125609 -0.000377517 -0.000376532 -4.24019e-05
0.00175816 -0.000527454 -0.000527446 -5.11709e-11
0.00178066 -0.000534205 -0.000534197 -5.17976e-11
0.00126412 -0.000379935 -0.000378937 -4.24025e-05
0.0015071 -0.000452508 -0.00045197 -2.29715e-05
0.00176941 -0.000530829 -0.000530821 -5.15043e-11
0.00152638 -0.000458302 -0.00045775 -2.29722e-05
0.00151674 -0.000455405 -0.00045486 -2.29719e-05
0.00125609 -0.000377517 -0.000376532 -4.24019e-05
0.00124004 -0.000372683 -0.000371723 -4.24007e-05
0.00173566 -0.000520702 -0.000520695 -5.05086e-11
0.00175816 -0.000527454 -0.000527446 -5.11709e-11
0.00124806 -0.0003751 -0.000374127 -4.24013e-05
0.00148783 -0.000446714 -0.00044619 -2.29708e-05
0.00174691 -0.000524078 -0.00052407 -5.0837e-11
0.0015071 -0.000452508 -0.00045197 -2.29715e-05
0.00149747 -0.000449611 -0.00044908 -2.29712e-05
0.00124004 -0.000372683 -0.000371723 -4.24007e-05
0.00122398 -0.000367848 -0.000366913 -4.23994e-05
0.00171315 -0.000513951 -0.000513944 -4.98683e-11
0.00173566 -0.000520702 -0.000520695 -5.05086e-11
0.00123201 -0.000370265 -0.000369318 -4.24001e-05
0.00146855 -0.000440921 -0.000440411 -2.29701e-05
0.00172441 -0.000517327 -0.00051732 -5.01934e-11
0.00148783 -0.000446714 -0.00044619 -2.29708e-05
0.00147819 -0.000443818 -0.000443301 -2.29704e-05
0.00122398 -0.000367848 -0.000366913 -4.23994e-05
0.00120792 -0.000363014 -0.000362104 -4.23982e-05
0.00169065 -0.0005072 -0.000507194 -4.92015e-11
0.00171315 -0.000513951 -0.000513944 -4.98373e-11
0.00121595 -0.000365431 -0.000364508 -4.23988e-05
0.00144927 -0.000435128 -0.000434631 -2.29694e-05
0.0017019 -0.000510576 -0.000510569 -4.9525e-11
0.00146855 -0.000440921 -0.000440411 -2.29701e-05
0.00145891 -0.000438024 -0.000437521 -2.29697e-05
0.00120792 -0.000363014 -0.000362104 -4.23982e-05
0.00119187 -0.00035818 -0.000357294 -4.2397e-05
0.00166815 -0.000500449 -0.000500443 -4.85659e-11
0.00169065 -0.0005072 -0.000507194 -4.92015e-11
0.00119989 -0.000360597 -0.000359699 -4.23976e-05
0.00142999 -0.000429335 -0.000428851 -2.29687e-05
0.0016794 -0.000503825 -0.000503818 -4.88872e-11
0.00144927 -0.000435128 -0.000434631 -2.29694e-05
0.00143963 -0.000432231 -0.000431741 -2.2969e-05
0.00119187 -0.00035818 -0.000357294 -4.2397e-05
0.00117581 -0.000353346 -0.000352484 -4.23958e-05
0.00164565 -0.000493698 -0.000493692 -4.79116e-11
0.00166815 -0.000500449 -0.000500443 -4.85659e-11
0.00118384 -0.000355763 -0.000354889 -4.23964e-05
0.00141071 -0.000423542 -0.000423072 -2.29679e-05
0.0016569 -0.000497073 -0.000497068 -4.82693e-11
0.00142999 -0.000429335 -0.000428851 -2.29687e-05
0.00142035 -0.000426438 -0.000425961 -2.29683e-05
0.00117581 -0.000353346 -0.000352484 -4.23958e-05
0.00115975 -0.000348512 -0.000347674 -4.23946e-05
0.00162314 -0.000486947 -0.000486942 -4.72564e-11
0.00164565 -0.000493698 -0.000493692 -4.79081e-11
0.00116778 -0.000350929 -0.000350079 -4.23952e-05
0.00139143 -0.000417749 -0.000417292 -2.29672e-05
0.0016344 -0.000490323 -0.000490317 -4.75817e-11
0.00141071 -0.000423542 -0.000423072 -2.29679e-05
0.00140107 -0.000420645 -0.000420182 -2.29676e-05
0.00115975 -0.000348512 -0.000347674 -4.23946e-05
0.0011437 -0.000343679 -0.000342864 -4.23934e-05
0.00160064 -0.000480196 -0.000480191 -4.66167e-11
0.00162314 -0.000486947 -0.000486942 -4.72568e-11
0.00115172 -0.000346095 -0.000345269 -4.2394e-05
0.00137215 -0.000411956 -0.000411512 -2.29665e-05
0.00161189 -0.000483572 -0.000483567 -4.6934e-11
0.00139143 -0.000417749 -0.000417292 -2.29672e-05
0.00138179 -0.000414852 -0.000414402 -2.29669e-05
0.0011437 -0.000343679 -0.000342864 -4.23934e-05
0.00112764 -0.000338845 -0.000338054 -4.23922e-05
0.00157814 -0.000473445 -0.000473441 -4.59784e-11
0.00160064 -0.000480196 -0.000480191 -4.66167e-11
0.00113567 -0.000341262 -0.000340459 -4.23928e-05
0.00135287 -0.000406163 -0.000405732 -2.29658e-05
0.00158939 -0.000476821 -0.000476816 -4.62893e-11
0.00137215 -0.000411956 -0.000411512 -2.29665e-05
0.00136251 -0.00040906 -0.000408622 -2.29662e-05
0.00112764 -0.000338845 -0.000338054 -4.23922e-05
0.00111158 -0.000334012 -0.000333244 -4.2391e-05
0.00155564 -0.000466695 -0.000466691 -4.53176e-11
0.00157814 -0.000473445 -0.000473441 -4.59784e-11
0.00111961 -0.000336429 -0.000335649 -4.23916e-05
0.00133359 -0.000400371 -0.000399952 -2.29652e-05
0.00156689 -0.00047007 -0.000470066 -4.5628e-11
0.00135287 -0.000406163 -0.000405732 -2.29658e-05
0.00134323 -0.000403267 -0.000402842 -2.29655e-05
0.00111158 -0.000334012 -0.000333244 -4.2391e-05
0.00109552 -0.000329179 -0.000328433 -4.23898e-05
0.00153314 -0.000459944 -0.00045994 -4.46424e-11
0.00155564 -0.000466695 -0.000466691 -4.5318e-11
0.00110355 -0.000331596 -0.000330839 -4.23904e-05
0.00131431 -0.000394579 -0.000394172 -2.29645e-05
0.00154439 -0.000463319 -0.000463315 -4.49624e-11
0.00133359 -0.000400371 -0.000399952 -2.29652e-05
0.00132395 -0.000397475 -0.000397062 -2.29648e-05
0.00109552 -0.000329179 -0.000328433 -4.23898e-05
0.00107947 -0.000324347 -0.000323623 -4.23886e-05
0.00151064 -0.000453194 -0.00045319 -4.39987e-11
0.00153314 -0.000459944 -0.00045994 -4.46383e-11
0.0010875 -0.000326763 -0.000326028 -4.23892e-05
0.00129504 -0.000388787 -0.000388393 -2.29638e-05
0.00152189 -0.000456569 -0.000456565 -4.43219e-11
0.00131431 -0.000394579 -0.000394172 -2.29645e-05
0.00130468 -0.000391683 -0.000391283 -2.29641e-05
0.00107947 -0.000324347 -0.000323623 -4.23886e-05
0.00106341 -0.000319514 -0.000318812 -4.23875e-05
0.00148814 -0.000446443 -0.00044644 -4.33654e-11
0.00151064 -0.000453194 -0.00045319 -4.39987e-11
0.00107144 -0.000321931 -0.000321218 -4.2388e-05
0.00127576 -0.000382995 -0.000382613 -2.29631e-05
0.00149939 -0.000449818 -0.000449815 -4.36695e-11
0.00129504 -0.000388787 -0.000388393 -2.29638e-05
0.0012854 -0.000385891 -0.000385503 -2.29634e-05
0.00106341 -0.000319514 -0.000318812 -4.23875e-05
0.00104735 -0.000314682 -0.000314001 -4.23863e-05
0.00146564 -0.000439693 -0.00043969 -4.26645e-11
0.00148814 -0.000446443 -0.00044644 -4.33654e-11
0.00105538 -0.000317098 -0.000316407 -4.23869e-05
0.00125648 -0.000377203 -0.000376833 -2.29624e-05
0.00147689 -0.000443068 -0.000443065 -4.3023e-11
0.00127576 -0.000382995 -0.000382613 -2.29631e-05
0.00126612 -0.000380099 -0.000379723 -2.29628e-05
0.00104735 -0.000314682 -0.000314001 -4.23863e-05
0.00103129 -0.00030985 -0.000309191 -4.23852e-05
0.00144314 -0.000432942 -0.00043294 -4.2013e-11
0.00146564 -0.000439693 -0.00043969 -4.27007e-11
0.00103932 -0.000312266 -0.000311596 -4.23857e-05
0.0012372 -0.000371411 -0.000371053 -2.29618e-05
0.00145439 -0.000436317 -0.000436315 -4.23616e-11
0.00125648 -0.000377203 -0.000376833 -2.29624e-05
0.00124684 -0.000374307 -0.000373943 -2.29621e-05
0.00103129 -0.00030985 -0.000309191 -4.23852e-05
0.00101524 -0.000305018 -0.00030438 -4.2384e-05
0.00142064 -0.000426192 -0.00042619 -4.13556e-11
0.00144314 -0.000432942 -0.00043294 -4.2013e-11
0.00102327 -0.000307434 -0.000306785 -4.23846e-05
0.00121792 -0.00036562 -0.000365272 -2.29611e-05
0.00143189 -0.000429567 -0.000429565 -4.1716e-11
0.0012372 -0.000371411 -0.000371053 -2.29618e-05
0.00122756 -0.000368515 -0.000368163 -2.29614e-05
0.00101524 -0.000305018 -0.00030438 -4.2384e-05
0.00099918 -0.000300187 -0.000299569 -4.23829e-05
0.00139814 -0.000419442 -0.00041944 -4.07247e-11
0.00142064 -0.000426192 -0.00042619 -4.13556e-11
0.00100721 -0.000302602 -0.000301974 -4.23835e-05
0.00119864 -0.000359828 -0.000359492 -2.29604e-05
0.00140939 -0.000422817 -0.000422815 -4.1052e-11
0.00121792 -0.00036562 -0.000365272 -2.29611e-05
0.00120828 -0.000362724 -0.000362382 -2.29608e-05
0.00099918 -0.000300187 -0.000299569 -4.23829e-05
0.000983122 -0.000295355 -0.000294757 -4.23818e-05
0.00137564 -0.000412691 -0.00041269 -4.01147e-11
0.00139814 -0.000419442 -0.00041944 -4.07247e-11
0.000991151 -0.000297771 -0.000297163 -4.23823e-05
0.00117937 -0.000354037 -0.000353712 -2.29598e-05
0.00138689 -0.000416067 -0.000416065 -4.04092e-11
0.00119864 -0.000359828 -0.000359492 -2.29604e-05
0.001189 -0.000356933 -0.000356602 -2.29601e-05
0.000983122 -0.000295355 -0.000294757 -4.23818e-05
0.000967065 -0.000290524 -0.000289946 -4.23807e-05
0.00135314 -0.000405941 -0.000405941 -3.9449e-11
0.00137564 -0.000412691 -0.00041269 -4.01154e-11
0.000975093 -0.00029294 -0.000292352 -4.23812e-05
0.00116009 -0.000348246 -0.000347932 -2.29591e-05
0.00136439 -0.000409316 -0.000409315 -3.97216e-11
0.00117937 -0.000354037 -0.000353712 -2.29598e-05
0.00116973 -0.000351142 -0.000350822 -2.29594e-05
0.000967065 -0.000290524 -0.000289946 -4.23807e-05
0.000951007 -0.000285693 -0.000285134 -4.23795e-05
0.00133064 -0.000399191 -0.000399191 -3.87725e-11
0.00135314 -0.000405941 -0.000405941 -3.94185e-11
0.000959036 -0.000288109 -0.00028754 -4.23801e-05
0.00114081 -0.000342455 -0.000342152 -2.29585e-05
0.00134189 -0.000402566 -0.000402566 -3.91124e-11
0.00116009 -0.000348246 -0.000347932 -2.29591e-05
0.00115045 -0.00034535 -0.000345042 -2.29588e-05
0.000951007 -0.000285693 -0.000285134 -4.23795e-05
0.000934949 -0.000280862 -0.000280323 -4.23785e-05
0.00130814 -0.000392441 -0.000392441 -3.81005e-11
0.00133064 -0.000399191 -0.000399191 -3.87725e-11
0.000942978 -0.000283278 -0.000282729 -4.2379e-05
0.00112153 -0.000336664 -0.000336372 -2.29578e-05
0.00131939 -0.000395816 -0.000395816 -3.84289e-11
0.00114081 -0.000342455 -0.000342152 -2.29585e-05
0.00113117 -0.00033956 -0.000339262 -2.29582e-05
0.000934949 -0.000280862 -0.000280323 -4.23785e-05
0.000918891 -0.000276032 -0.000275511 -4.23774e-05
0.00128564 -0.000385691 -0.000385692 -3.74453e-11
0.00130814 -0.000392441 -0.000392441 -3.81005e-11
0.00092692 -0.000278447 -0.000277917 -4.23779e-05
0.00110225 -0.000330873 -0.000330591 -2.29572e-05
0.00129689 -0.000389066 -0.000389066 -3.77603e-11
0.00112153 -0.000336664 -0.000336372 -2.29578e-05
0.00111189 -0.000333769 -0.000333481 -2.29575e-05
0.000918891 -0.000276032 -0.000275511 -4.23774e-05
0.000902833 -0.000271201 -0.000270699 -4.23763e-05
0.00126314 -0.000378941 -0.000378942 -3.68054e-11
0.00128564 -0.000385691 -0.000385692 -3.74711e-11
0.000910862 -0.000273616 -0.000273105 -4.23768e-05
0.00108297 -0.000325083 -0.000324811 -2.29566e-05
0.00127439 -0.000382316 -0.000382317 -3.71225e-11
0.00110225 -0.000330873 -0.000330591 -2.29572e-05
0.00109261 -0.000327978 -0.000327701 -2.29569e-05
0.000902833 -0.000271201 -0.000270699 -4.23763e-05
0.000886774 -0.000266371 -0.000265887 -4.23752e-05
0.00124064 -0.000372191 -0.000372193 -3.61376e-11
0.00126314 -0.000378941 -0.000378942 -3.68057e-11
0.000894804 -0.000268786 -0.000268293 -4.23758e-05
0.0010637 -0.000319292 -0.00031903 -2.29559e-05
0.00125189 -0.000375566 -0.000375567 -3.64806e-11
0.00108297 -0.000325083 -0.000324811 -2.29566e-05
0.00107334 -0.000322188 -0.000321921 -2.29562e-05
0.000886774 -0.000266371 -0.000265887 -4.23752e-05
0.000870716 -0.000261541 -0.000261075 -4.23742e-05
0.00121814 -0.000365442 -0.000365443 -3.54591e-11
0.00124064 -0.000372191 -0.000372193 -3.61376e-11
0.000878745 -0.000263956 -0.000263481 -4.23747e-05
0.00104442 -0.000313502 -0.00031325 -2.29553e-05
0.00122939 -0.000368817 -0.000368818 -3.58043e-11
0.0010637 -0.000319292 -0.00031903 -2.29559e-05
0.00105406 -0.000316397 -0.00031614 -2.29556e-05
0.000870716 -0.000261541 -0.000261075 -4.23742e-05
0.000854658 -0.000256711 -0.000256263 -4.23731e-05
0.00119564 -0.000358692 -0.000358694 -3.48037e-11
0.00121814 -0.000365442 -0.000365443 -3.54591e-11
0.000862687 -0.000259126 -0.000258669 -4.23736e-05
0.00102514 -0.000307712 -0.000307469 -2.29547e-05
0.00120689 -0.000362067 -0.000362068 -3.51472e-11
0.00104442 -0.000313502 -0.00031325 -2.29553e-05
0.00103478 -0.000310607 -0.00031036 -2.2955e-05
0.000854658 -0.000256711 -0.000256263 -4.23731e-05
0.000838599 -0.000251881 -0.00025145 -4.23721e-05
0.00117315 -0.000351942 -0.000351944 -3.4162e-11
0.00119564 -0.000358692 -0.000358694 -3.48039e-11
0.000846628 -0.000254296 -0.000253857 -4.23726e-05
0.00100586 -0.000301922 -0.000301689 -2.29541e-05
0.00118439 -0.000355317 -0.000355319 -3.45019e-11
0.00102514 -0.000307712 -0.000307469 -2.29547e-05
0.0010155 -0.000304817 -0.000304579 -2.29544e-05
0.000838599 -0.000251881 -0.00025145 -4.23721e-05
0.00082254 -0.000247052 -0.000246638 -4.2371e-05
0.00115065 -0.000345192 -0.000345195 -3.34904e-11
0.00117315 -0.000351942 -0.000351944 -3.41746e-11
0.00083057 -0.000249467 -0.000249044 -4.23716e-05
0.000986584 -0.000296132 -0.000295908 -2.29535e-05
0.0011619 -0.000348567 -0.00034857 -3.38049e-11
0.00100586 -0.000301922 -0.000301689 -2.29541e-05
0.000996224 -0.000299027 -0.000298799 -2.29538e-05
0.00082254 -0.000247052 -0.000246638 -4.2371e-05
0.000806482 -0.000242223 -0.000241825 -4.237e-05
0.00112815 -0.000338443 -0.000338446 -3.28412e-11
0.00115065 -0.000345192 -0.000345195 -3.34904e-11
0.000814511 -0.000244637 -0.000244232 -4.23705e-05
0.000967306 -0.000290342 -0.000290128 -2.29529e-05
0.0011394 -0.000341818 -0.00034182 -3.31078e-11
0.000986584 -0.000296132 -0.000295908 -2.29535e-05
0.000976945 -0.000293237 -0.000293018 -2.29532e-05
0.000806482 -0.000242223 -0.000241825 -4.237e-05
0.000790423 -0.000237394 -0.000237012 -4.2369e-05
0.00110565 -0.000331693 -0.000331696 -3.22097e-11
0.00112815 -0.000338443 -0.000338446 -3.28145e-11
0.000798452 -0.000239808 -0.000239419 -4.23695e-05
0.000948028 -0.000284552 -0.000284347 -2.29523e-05
0.0011169 -0.000335068 -0.000335071 -3.25129e-11
0.000967306 -0.000290342 -0.000290128 -2.29529e-05
0.000957667 -0.000287447 -0.000287237 -2.29526e-05
0.000790423 -0.000237394 -0.000237012 -4.2369e-05
0.000774364 -0.000232565 -0.0002322 -4.2368e-05
0.00108315 -0.000324944 -0.000324947 -3.15251e-11
0.00110565 -0.000331693 -0.000331696 -3.22097e-11
0.000782393 -0.000234979 -0.000234606 -4.23685e-05
0.00092875 -0.000278763 -0.000278566 -2.29517e-05
0.0010944 -0.000328318 -0.000328322 -3.18657e-11
0.000948028 -0.000284552 -0.000284347 -2.29523e-05
0.000938389 -0.000281657 -0.000281457 -2.2952e-05
0.000774364 -0.000232565 -0.0002322 -4.2368e-05
0.000758304 -0.000227736 -0.000227386 -4.2367e-05
0.00106066 -0.000318194 -0.000318198 -3.08844e-11
0.00108315 -0.000324944 -0.000324947 -3.15251e-11
0.000766334 -0.00023015 -0.000229793 -4.23675e-05
0.000909472 -0.000272973 -0.000272785 -2.29511e-05
0.0010719 -0.000321569 -0.000321573 -3.12164e-11
0.00092875 -0.000278763 -0.000278566 -2.29517e-05
0.000919111 -0.000275868 -0.000275676 -2.29514e-05
0.000758304 -0.000227736 -0.000227386 -4.2367e-05
0.000742245 -0.000222907 -0.000222573 -4.2366e-05
0.00103816 -0.000311444 -0.000311449 -3.02114e-11
0.00106066 -0.000318194 -0.000318198 -3.0884e-11
0.000750275 -0.000225322 -0.00022498 -4.23665e-05
0.000890194 -0.000267184 -0.000267004 -2.29505e-05
0.00104941 -0.000314819 -0.000314823 -3.05579e-11
0.000909472 -0.000272973 -0.000272785 -2.29511e-05
0.000899833 -0.000270078 -0.000269895 -2.29508e-05
0.000742245 -0.000222907 -0.000222573 -4.2366e-05
0.000726186 -0.000218079 -0.00021776 -4.23651e-05
0.00101566 -0.000304695 -0.0003047 -2.95608e-11
0.00103816 -0.000311444 -0.000311449 -3.02238e-11
0.000734215 -0.000220493 -0.000220167 -4.23655e-05
0.000870916 -0.000261395 -0.000261223 -2.29499e-05
0.00102691 -0.00030807 -0.000308074 -2.98749e-11
0.000890194 -0.000267184 -0.000267004 -2.29505e-05
0.000880555 -0.000264289 -0.000264114 -2.29502e-05
0.000726186 -0.000218079 -0.00021776 -4.23651e-05
0.000710126 -0.000213251 -0.000212946 -4.23641e-05
0.000993164 -0.000297946 -0.000297951 -2.8919e-11
0.00101566 -0.000304695 -0.0003047 -2.95608e-11
0.000718156 -0.000215665 -0.000215353 -4.23646e-05
0.000851638 -0.000255605 -0.000255442 -2.29494e-05
0.00100441 -0.00030132 -0.000301325 -2.925e-11
0.000870916 -0.000261395 -0.000261223 -2.29499e-05
0.000861277 -0.0002585 -0.000258333 -2.29497e-05
0.000710126 -0.000213251 -0.000212946 -4.23641e-05
0.000694066 -0.000208423 -0.000208133 -4.23631e-05
0.000970667 -0.000291196 -0.000291202 -2.82562e-11
0.000993164 -0.000297946 -0.000297951 -2.8919e-11
0.000702096 -0.000210837 -0.00021054 -4.23636e-05
0.00083236 -0.000249816 -0.000249661 -2.29488e-05
0.000981915 -0.000294571 -0.000294576 -2.85376e-11
0.000851638 -0.000255605 -0.000255442 -2.29494e-05
0.000841999 -0.000252711 -0.000252552 -2.29491e-05
0.000694066 -0.000208423 -0.000208133 -4.23631e-05
0.000678006 -0.000203595 -0.000203319 -4.23622e-05
0.000948169 -0.000284447 -0.000284453 -2.75901e-11
0.000970667 -0.000291196 -0.000291202 -2.82298e-11
0.000686036 -0.000206009 -0.000205726 -4.23627e-05
0.000813081 -0.000244028 -0.00024388 -2.29482e-05
0.000959418 -0.000287821 -0.000287827 -2.79197e-11
0.00083236 -0.000249816 -0.000249661 -2.29488e-05
0.000822721 -0.000246922 -0.000246771 -2.29485e-05
0.000678006 -0.000203595 -0.000203319 -4.23622e-05
0.000661946 -0.000198768 -0.000198505 -4.23613e-05
0.000925672 -0.000277697 -0.000277704 -2.69265e-11
0.000948169 -0.000284447 -0.000284453 -2.75901e-11
0.000669976 -0.000201181 -0.000200912 -4.23617e-05
0.000793803 -0.000238239 -0.000238099 -2.29477e-05
0.000936921 -0.000281072 -0.000281078 -2.72642e-11
0.000813081 -0.000244028 -0.00024388 -2.29482e-05
0.000803442 -0.000241133 -0.00024099 -2.2948e-05
0.000661946 -0.000198768 -0.000198505 -4.23613e-05
0.000645886 -0.00019394 -0.000193691 -4.23604e-05
0.000903175 -0.000270948 -0.000270955 -2.62529e-11
0.000925672 -0.000277697 -0.000277704 -2.69265e-11
0.000653916 -0.000196354 -0.000196098 -4.23608e-05
0.000774525 -0.00023245 -0.000232318 -2.29471e-05
0.000914424 -0.000274323 -0.000274329 -2.65934e-11
0.000793803 -0.000238239 -0.000238099 -2.29477e-05
0.000784164 -0.000235344 -0.000235208 -2.29474e-05
0.000645886 -0.00019394 -0.000193691 -4.23604e-05
0.000629825 -0.000189113 -0.000188877 -4.23594e-05
0.000880679 -0.000264199 -0.000264206 -2.55714e-11
0.000903175 -0.000270948 -0.000270955 -2.62529e-11
0.000637856 -0.000191527 -0.000191284 -4.23599e-05
0.000755246 -0.000226662 -0.000226536 -2.29466e-05
0.000891927 -0.000267573 -0.00026758 -2.59358e-11
0.000774525 -0.00023245 -0.000232318 -2.29471e-05
0.000764886 -0.000229556 -0.000229427 -2.29469e-05
0.000629825 -0.000189113 -0.000188877 -4.23594e-05
0.000613765 -0.000184286 -0.000184062 -4.23585e-05
0.000858182 -0.00025745 -0.000257457 -2.4938e-11
0.000880679 -0.000264199 -0.000264206 -2.55714e-11
0.000621795 -0.000186699 -0.00018647 -4.2359e-05
0.000735968 -0.000220873 -0.000220755 -2.29461e-05
0.00086943 -0.000260824 -0.000260831 -2.52735e-11
0.000755246 -0.000226662 -0.000226536 -2.29466e-05
0.000745607 -0.000223767 -0.000223646 -2.29463e-05
0.000613765 -0.000184286 -0.000184062 -4.23585e-05
0.000597704 -0.000179459 -0.000179248 -4.23577e-05
0.000835685 -0.0002507 -0.000250708 -2.42654e-11
0.000858182 -0.00025745 -0.000257457 -2.49342e-11
0.000605734 -0.000181872 -0.000181655 -4.23581e-05
0.00071669 -0.000215085 -0.000214974 -2.29455e-05
0.000846933 -0.000254075 -0.000254082 -2.46023e-11
0.000735968 -0.000220873 -0.000220755 -2.29461e-05
0.000726329 -0.000217979 -0.000217864 -2.29458e-05
0.000597704 -0.000179459 -0.000179248 -4.23577e-05
0.000581643 -0.000174632 -0.000174433 -4.23568e-05
0.000813188 -0.000243951 -0.000243959 -2.359e-11
0.000835685 -0.0002507 -0.000250708 -2.42654e-11
0.000589673 -0.000177046 -0.000176841 -4.23572e-05
0.000697411 -0.000209296 -0.000209192 -2.2945e-05
0.000824437 -0.000247326 -0.000247333 -2.394e-11
0.00071669 -0.000215085 -0.000214974 -2.29455e-05
0.00070705 -0.000212191 -0.000212083 -2.29453e-05
0.000581643 -0.000174632 -0.000174433 -4.23568e-05
0.000565582 -0.000169806 -0.000169618 -4.23559e-05
0.000790692 -0.000237202 -0.00023721 -2.29105e-11
0.000813188 -0.000243951 -0.000243959 -2.359e-11
0.000573612 -0.000172219 -0.000172026 -4.23563e-05
0.000678132 -0.000203508 -0.00020341 -2.29445e-05
0.00080194 -0.000240576 -0.000240584 -2.32664e-11
0.000697411 -0.000209296 -0.000209192 -2.2945e-05
0.000687772 -0.000206402 -0.000206301 -2.29448e-05
0.000565582 -0.000169806 -0.000169618 -4.23559e-05
0.00054952 -0.000164979 -0.000164803 -4.23551e-05
0.000768195 -0.000230453 -0.000230461 -2.21787e-11
0.000790692 -0.000237202 -0.00023721 -2.29234e-11
0.000557551 -0.000167392 -0.000167211 -4.23555e-05
0.000658854 -0.00019772 -0.000197629 -2.2944e-05
0.000779444 -0.000233827 -0.000233836 -2.25811e-11
0.000678132 -0.000203508 -0.00020341 -2.29445e-05
0.000668493 -0.000200614 -0.000200519 -2.29442e-05
0.00054952 -0.000164979 -0.000164803 -4.23551e-05
0.000533459 -0.000160153 -0.000159988 -4.23542e-05
0.000745699 -0.000223703 -0.000223712 -2.14654e-11
0.000768195 -0.000230453 -0.000230461 -2.21787e-11
0.00054149 -0.000162566 -0.000162396 -4.23546e-05
0.000639575 -0.000191932 -0.000191847 -2.29435e-05
0.000756947 -0.000227078 -0.000227087 -2.18494e-11
0.000658854 -0.00019772 -0.000197629 -2.2944e-05
0.000649214 -0.000194826 -0.000194738 -2.29437e-05
0.000533459 -0.000160153 -0.000159988 -4.23542e-05
0.000517397 -0.000155327 -0.000155173 -4.23534e-05
0.000723202 -0.000216954 -0.000216963 -2.06599e-11
0.000745699 -0.000223703 -0.000223712 -2.14654e-11
0.000525428 -0.00015774 -0.000157581 -4.23538e-05
0.000620296 -0.000186144 -0.000186065 -2.2943e-05
0.000734451 -0.000220329 -0.000220338 -2.11135e-11
0.000639575 -0.000191932 -0.000191847 -2.29435e-05
0.000629936 -0.000189038 -0.000188956 -2.29432e-05
0.000517397 -0.000155327 -0.000155173 -4.23534e-05
0.000501335 -0.000150501 -0.000150357 -4.23526e-05
0.000700706 -0.000210205 -0.000210215 -1.98227e-11
0.000723202 -0.000216954 -0.000216963 -2.06599e-11
0.000509366 -0.000152914 -0.000152765 -4.2353e-05
0.000601017 -0.000180357 -0.000180283 -2.29425e-05
0.000711954 -0.00021358 -0.000213589 -2.02552e-11
0.000620296 -0.000186144 -0.000186065 -2.2943e-05
0.000610657 -0.000183251 -0.000183174 -2.29427e-05
0.000501335 -0.000150501 -0.000150357 -4.23526e-05
0.000485273 -0.000145675 -0.000145542 -4.23518e-05
0.000678209 -0.000203456 -0.000203466 -1.8927e-11
0.000700706 -0.000210205 -0.000210215 -1.98227e-11
0.000493304 -0.000148088 -0.00014795 -4.23522e-05
0.000581738 -0.000174569 -0.000174501 -2.2942e-05
0.000689458 -0.000206831 -0.00020684 -1.93725e-11
0.000601017 -0.000180357 -0.000180283 -2.29425e-05
0.000591378 -0.000177463 -0.000177392 -2.29422e-05
0.000485273 -0.000145675 -0.000145542 -4.23518e-05
0.000469211 -0.00014085 -0.000140726 -4.2351e-05
0.000655713 -0.000196707 -0.000196717 -1.79353e-11
0.000678209 -0.000203456 -0.000203466 -1.89397e-11
0.000477242 -0.000143263 -0.000143134 -4.23514e-05
0.000562459 -0.000168781 -0.000168719 -2.29415e-05
0.000666961 -0.000200081 -0.000200091 -1.84655e-11
0.000581738 -0.000174569 -0.000174501 -2.2942e-05
0.000572098 -0.000171675 -0.00017161 -2.29418e-05
0.000469211 -0.00014085 -0.000140726 -4.2351e-05
0.000453148 -0.000136025 -0.00013591 -4.23503e-05
0.000633217 -0.000189958 -0.000189968 -1.67557e-11
0.000655713 -0.000196707 -0.000196717 -1.79353e-11
0.00046118 -0.000138437 -0.000138318 -4.23506e-05
0.00054318 -0.000162994 -0.000162937 -2.29411e-05
0.000644465 -0.000193332 -0.000193343 -1.73415e-11
0.000562459 -0.000168781 -0.000168719 -2.29415e-05
0.000552819 -0.000165888 -0.000165828 -2.29413e-05
0.000453148 -0.000136025 -0.00013591 -4.23503e-05
0.000437085 -0.000131199 -0.000131094 -4.23496e-05
0.00061072 -0.000183208 -0.000183219 -1.54403e-11
0.000633217 -0.000189958 -0.000189968 -1.67557e-11
0.000445117 -0.000133612 -0.000133502 -4.23499e-05
0.0005239 -0.000157207 -0.000157154 -2.29407e-05
0.000621968 -0.000186583 -0.000186594 -1.60445e-11
0.00054318 -0.000162994 -0.000162937 -2.29411e-05
0.00053354 -0.0001601 -0.000160046 -2.29409e-05
0.000437085 -0.000131199 -0.000131094 -4.23496e-05
0.000421022 -0.000126374 -0.000126278 -4.2349e-05
0.000588224 -0.000176459 -0.00017647 -1.39034e-11
0.00061072 -0.000183208 -0.000183219 -1.54365e-11
0.000429054 -0.000128787 -0.000128686 -4.23493e-05
0.00050462 -0.000151419 -0.000151372 -2.29403e-05
0.000599472 -0.000179834 -0.000179845 -1.46486e-11
0.0005239 -0.000157207 -0.000157154 -2.29407e-05
0.00051426 -0.000154313 -0.000154263 -2.29405e-05
0.000421022 -0.000126374 -0.000126278 -4.2349e-05
0.000404959 -0.000121549 -0.000121461 -4.23484e-05
0.000565727 -0.00016971 -0.000169722 -1.22175e-11
0.000588224 -0.000176459 -0.00017647 -1.39032e-11
0.000412991 -0.000123962 -0.00012387 -4.23487e-05
0.000485341 -0.000145632 -0.000145589 -2.294e-05
0.000576975 -0.000173085 -0.000173096 -1.2968e-11
0.00050462 -0.000151419 -0.000151372 -2.29403e-05
0.000494981 -0.000148526 -0.000148481 -2.29401e-05
0.000404959 -0.000121549 -0.000121461 -4.23484e-05
0.000388895 -0.000116725 -0.000116645 -4.23479e-05
0.00054323 -0.000162961 -0.000162973 -1.00477e-11
0.000565727 -0.00016971 -0.000169722 -1.22175e-11
0.000396927 -0.000119137 -0.000119053 -4.23481e-05
0.000466061 -0.000139845 -0.000139807 -2.29397e-05
0.000554479 -0.000166335 -0.000166347 -1.10577e-11
0.000485341 -0.000145632 -0.000145589 -2.294e-05
0.000475701 -0.000142738 -0.000142698 -2.29398e-05
0.000388895 -0.000116725 -0.000116645 -4.23479e-05
0.000372832 -0.0001119 -0.000111828 -4.23475e-05
0.000520733 -0.000156211 -0.000156224 -8.02763e-12
0.00054323 -0.000162961 -0.000162973 -1.00477e-11
0.000380864 -0.000114312 -0.000114236 -4.23477e-05
0.00044678 -0.000134058 -0.000134024 -2.29394e-05
0.000531982 -0.000159586 -0.000159598 -8.79101e-12
0.000466061 -0.000139845 -0.000139807 -2.29397e-05
0.00045642 -0.000136951 -0.000136915 -2.29395e-05
0.000372832 -0.0001119 -0.000111828 -4.23475e-05
0.000356767 -0.000107076 -0.000107011 -4.23472e-05
0.000498236 -0.000149462 -0.000149474 -5.02629e-12
0.000520733 -0.000156211 -0.000156224 -8.02804e-12
0.000364799 -0.000109488 -0.000109419 -4.23473e-05
0.0004275 -0.000128271 -0.000128241 -2.29393e-05
0.000509485 -0.000152837 -0.000152849 -6.24242e-12
0.00044678 -0.000134058 -0.000134024 -2.29394e-05
0.00043714 -0.000131164 -0.000131133 -2.29393e-05
0.000356767 -0.000107076 -0.000107011 -4.23472e-05
0.000340703 -0.000102251 -0.000102194 -4.2347e-05
0.000475738 -0.000142713 -0.000142725 -3.53762e-12
0.000498236 -0.000149462 -0.000149474 -5.02552e-12
0.000348735 -0.000104663 -0.000104602 -4.23471e-05
0.000408219 -0.000122483 -0.000122458 -2.29392e-05
0.000486987 -0.000146087 -0.0001461 -3.78376e-12
0.0004275 -0.000128271 -0.000128241 -2.29393e-05
0.000417859 -0.000125377 -0.00012535 -2.29392e-05
0.000340703 -0.000102251 -0.000102194 -4.2347e-05
0.000324638 -9.74272e-05 -9.73761e-05 -4.23469e-05
0.00045324 -0.000135963 -0.000135976 -3.90031e-13
0.000475738 -0.000142713 -0.000142725 -3.53762e-12
0.000332671 -9.98392e-05 -9.97849e-05 -4.23469e-05
0.000388937 -0.000116696 -0.000116675 -2.29392e-05
0.000464489 -0.000139338 -0.000139351 -2.08908e-13
0.000408219 -0.000122483 -0.000122458 -2.29392e-05
0.000398578 -0.00011959 -0.000119566 -2.29392e-05
0.000324638 -9.74272e-05 -9.73761e-05 -4.23469e-05
0.000308573 -9.26031e-05 -9.25586e-05 -4.23468e-05
0.000430741 -0.000129213 -0.000129226 -3.56784e-12
0.00045324 -0.000135963 -0.000135976 -3.90031e-13
0.000316606 -9.50151e-05 -9.49674e-05 -4.23468e-05
0.000369655 -0.000110909 -0.000110891 -2.29394e-05
0.000441991 -0.000132588 -0.000132601 -2.22321e-12
0.000388937 -0.000116696 -0.000116675 -2.29392e-05
0.000379296 -0.000113803 -0.000113783 -2.29393e-05
0.000308573 -9.26031e-05 -9.25586e-05 -4.23468e-05
0.000292508 -8.77791e-05 -8.7741e-05 -4.23465e-05
0.000408241 -0.000122463 -0.000122476 -1.00215e-11
0.000430741 -0.000129213 -0.000129226 -3.59003e-12
0.000300541 -9.01911e-05 -9.01498e-05 -4.23467e-05
0.000350373 -0.000105122 -0.000105108 -2.29395e-05
0.000419491 -0.000125838 -0.000125851 3.22585e-12
0.000369655 -0.000110909 -0.000110891 -2.29394e-05
0.000360014 -0.000108016 -0.000107999 -2.29394e-05
0.000292508 -8.77791e-05 -8.7741e-05 -4.23465e-05
0.000276443 -8.29551e-05 -8.29235e-05 -4.23457e-05
0.00038574 -0.000115712 -0.000115726 -3.54249e-11
0.000408241 -0.000122463 -0.000122476 -1.00215e-11
0.000284476 -8.53671e-05 -8.53322e-05 -4.23462e-05
0.000331091 -9.93351e-05 -9.93239e-05 -2.29395e-05
0.000396991 -0.000119087 -0.000119101 -3.13887e-11
0.000350373 -0.000105122 -0.000105108 -2.29395e-05
0.000340732 -0.000102229 -0.000102216 -2.29395e-05
0.000276443 -8.29551e-05 -8.29235e-05 -4.23457e-05
0.000260379 -7.81307e-05 -7.81063e-05 -4.23436e-05
0.000363239 -0.000108961 -0.000108976 -1.14539e-10
0.00038574 -0.000115712 -0.000115726 -3.54249e-11
0.000268411 -8.0543e-05 -8.05148e-05 -4.23449e-05
0.000311809 -9.35481e-05 -9.35403e-05 -2.29389e-05
0.00037449 -0.000112337 -0.000112351 -2.30333e-11
0.000331091 -9.93351e-05 -9.93239e-05 -2.29395e-05
0.00032145 -9.64416e-05 -9.64321e-05 -2.29393e-05
0.000260379 -7.81307e-05 -7.81063e-05 -4.23436e-05
0.000244315 -7.33053e-05 -7.329e-05 -4.23385e-05
0.000340736 -0.00010221 -0.000102225 -2.2045e-10
0.000363239 -0.000108961 -0.000108976 -1.14539e-10
0.000252347 -7.57182e-05 -7.56979e-05 -4.23416e-05
0.000292528 -8.77612e-05 -8.77571e-05 -2.29368e-05
0.000351987 -0.000105586 -0.000105601 -2.30984e-10
0.000311809 -9.35481e-05 -9.35403e-05 -2.29389e-05
0.000302168 -9.06546e-05 -9.06487e-05 -2.29382e-05
0.000244315 -7.33053e-05 -7.329e-05 -4.23385e-05
0.000228254 -6.84777e-05 -6.84754e-05 -4.23274e-05
0.000318235 -9.54595e-05 -9.54754e-05 -6.97559e-10
0.000340736 -0.00010221 -0.000102225 -2.2045e-10
0.000236284 -7.08919e-05 -7.08824e-05 -4.23339e-05
0.000273251 -8.19746e-05 -8.19754e-05 -2.29315e-05
0.000329485 -9.88347e-05 -9.88503e-05 -2.12176e-10
0.000292528 -8.77612e-05 -8.77571e-05 -2.29368e-05
0.000282888 -8.48678e-05 -8.4866e-05 -2.29348e-05
0.000228254 -6.84777e-05 -6.84754e-05 -4.23274e-05
0.000212195 -6.3645e-05 -6.36645e-05 -4.23035e-05
0.000295739 -8.87111e-05 -8.87262e-05 -1.01399e-09
0.000318235 -9.54595e-05 -9.54754e-05 -6.97555e-10
0.000220224 -6.60622e-05 -6.60692e-05 -4.23176e-05
0.00025398 -7.6189e-05 -7.61963e-05 -2.29184e-05
0.000306986 -9.20853e-05 -9.21005e-05 -1.21686e-09
0.000273251 -8.19746e-05 -8.19754e-05 -2.29315e-05
0.000263614 -7.90817e-05 -7.90854e-05 -2.29262e-05
0.000212195 -6.3645e-05 -6.36645e-05 -4.23035e-05
0.00019614 -5.88021e-05 -5.88591e-05 -4.22564e-05
0.000273259 -8.19653e-05 -8.19832e-05 -3.32326e-09
0.000295739 -8.87111e-05 -8.87262e-05 -1.01399e-09
0.000204168 -6.12254e-05 -6.1261e-05 -4.22837e-05
0.000234727 -7.04049e-05 -7.04239e-05 -2.28904e-05
0.000284495 -8.53363e-05 -8.53539e-05 -1.07374e-09
0.00025398 -7.6189e-05 -7.61963e-05 -2.29184e-05
0.000244351 -7.32967e-05 -7.33088e-05 -2.29071e-05
0.00019614 -5.88021e-05 -5.88591e-05 -4.22564e-05
0.000180092 -5.3939e-05 -5.40655e-05 -4.21625e-05
0.000250811 -7.52364e-05 -7.52461e-05 -3.82198e-09
0.000273259 -8.19653e-05 -8.19832e-05 -3.32326e-09
0.000188114 -5.63737e-05 -5.64601e-05 -4.22176e-05
0.000215504 -6.46242e-05 -6.46627e-05 -2.2831e-05
0.000262031 -7.8601e-05 -7.86129e-05 -5.40228e-09
0.000234727 -7.04049e-05 -7.04239e-05 -2.28904e-05
0.000225111 -6.75139e-05 -6.75418e-05 -2.28657e-05
0.000180092 -5.3939e-05 -5.40655e-05 -4.21625e-05
0.000164041 -4.90394e-05 -4.92862e-05 -4.19902e-05
0.000228452 -6.85208e-05 -6.8542e-05 -1.35724e-08
0.000250811 -7.52364e-05 -7.52461e-05 -3.82198e-09
0.000172069 -5.1496e-05 -5.16742e-05 -4.20886e-05
0.000196346 -5.885e-05 -5.8927e-05 -2.27142e-05
0.000239613 -7.18689e-05 -7.18902e-05 -4.02592e-09
0.000215504 -6.46242e-05 -6.46627e-05 -2.2831e-05
0.000205913 -6.17363e-05 -6.17899e-05 -2.27834e-05
0.000164041 -4.90394e-05 -4.92862e-05 -4.19902e-05
0.000147997 -4.40707e-05 -4.454e-05 -4.16664e-05
0.000206235 -6.18901e-05 -6.18622e-05 -1.20684e-08
0.000228452 -6.85208e-05 -6.8542e-05 -1.35724e-08
0.000156014 -4.65644e-05 -4.6907e-05 -4.18543e-05
0.000177291 -5.30867e-05 -5.32302e-05 -2.24873e-05
0.000217327 -6.52073e-05 -6.51941e-05 -2.15515e-08
0.000196346 -5.885e-05 -5.8927e-05 -2.27142e-05
0.000186805 -5.59656e-05 -5.60741e-05 -2.26164e-05
0.000147997 -4.40707e-05 -4.454e-05 -4.16664e-05
0.000131898 -3.89954e-05 -3.98154e-05 -4.11175e-05
0.000184395 -5.52991e-05 -5.53268e-05 -4.92078e-08
0.000206235 -6.18901e-05 -6.18622e-05 -1.20684e-08
0.000139967 -4.15546e-05 -4.21766e-05 -4.14249e-05
0.000158456 -4.73479e-05 -4.76177e-05 -2.20663e-05
0.000195238 -5.85501e-05 -5.85805e-05 -1.07851e-08
0.000177291 -5.30867e-05 -5.32302e-05 -2.24873e-05
0.000167831 -5.02159e-05 -5.04066e-05 -2.23156e-05
0.000131898 -3.89954e-05 -3.98154e-05 -4.11175e-05
0.000115767 -3.37192e-05 -3.51634e-05 -4.01599e-05
0.000163102 -4.90867e-05 -4.88635e-05 -3.15007e-08
0.000184395 -5.52991e-05 -5.53268e-05 -4.92078e-08
0.000123821 -3.63771e-05 -3.74761e-05 -4.07077e-05
0.000139909 -4.16336e-05 -4.21182e-05 -2.13193e-05
0.000173689 -5.22121e-05 -5.20613e-05 -8.10348e-08
0.000158456 -4.73479e-05 -4.76177e-05 -2.20663e-05
0.000149153 -4.44808e-05 -4.48594e-05 -2.17303e-05
0.000115767 -3.37192e-05 -3.51634e-05 -4.01599e-05
9.92995e-05 -2.8219e-05 -3.04631e-05 -3.87232e-05
0.000143141 -4.29159e-05 -4.29535e-05 -1.61566e-07
0.000163102 -4.90867e-05 -4.88635e-05 -3.15007e-08
0.000107629 -3.10277e-05 -3.28291e-05 -3.95021e-05
0.000122006 -3.59988e-05 -3.68603e-05 -2.00032e-05
0.000152848 -4.58113e-05 -4.58727e-05 -1.00135e-08
0.000139909 -4.16336e-05 -4.21182e-05 -2.13193e-05
0.000130827 -3.88184e-05 -3.94322e-05 -2.07896e-05
9.92995e-05 -2.8219e-05 -3.04631e-05 -3.87232e-05
8.25128e-05 -2.22605e-05 -2.58224e-05 -3.65348e-05
0.000125066 -3.83219e-05 -3.71759e-05 -6.00584e-08
0.000143141 -4.29159e-05 -4.29535e-05 -1.61566e-07
9.08905e-05 -2.52417e-05 -2.81352e-05 -3.77468e-05
0.000104655 -3.03617e-05 -3.18398e-05 -1.79415e-05
0.000133905 -4.07529e-05 -3.99225e-05 -3.01592e-07
0.000122006 -3.59988e-05 -3.68603e-05 -2.00032e-05
0.000113323 -3.31524e-05 -3.4359e-05 -1.90074e-05
8.25128e-05 -2.22605e-05 -2.58224e-05 -3.65348e-05
6.41855e-05 -1.63254e-05 -2.05115e-05 -3.41693e-05
0.00011103 -3.32828e-05 -3.33203e-05 -4.4417e-07
0.000125066 -3.83219e-05 -3.71759e-05 -6.00584e-08
7.37499e-05 -1.93899e-05 -2.32971e-05 -3.53122e-05
8.87617e-05 -2.49225e-05 -2.73597e-05 -1.45715e-05
0.000117236 -3.50319e-05 -3.52302e-05 1.25889e-07
0.000104655 -3.03617e-05 -3.18398e-05 -1.79415e-05
9.63504e-05 -2.76778e-05 -2.94311e-05 -1.66329e-05
6.41855e-05 -1.63254e-05 -2.05115e-05 -3.41693e-05
4.43984e-05 -1.04175e-05 -1.45632e-05 -3.25778e-05
0.000103466 -3.43069e-05 -2.96397e-05 6.85104e-07
0.00011103 -3.32828e-05 -3.33203e-05 -4.4417e-07
5.42561e-05 -1.29626e-05 -1.76972e-05 -3.31326e-05
7.22284e-05 -1.90474e-05 -2.27919e-05 -1.08718e-05
0.000106442 -3.46356e-05 -3.07743e-05 -9.79138e-07
8.87617e-05 -2.49225e-05 -2.73597e-05 -1.45715e-05
8.10128e-05 -2.1959e-05 -2.53088e-05 -1.23309e-05
4.43984e-05 -1.04175e-05 -1.45632e-05 -3.25778e-05
2.12471e-05 -1.09305e-05 -4.4214e-06 -3.81685e-05
0.000110206 -3.02615e-05 -3.4262e-05 4.24569e-06
0.000103466 -3.43069e-05 -2.96397e-05 6.85104e-07
3.36995e-05 -9.79425e-06 -1.02451e-05 -3.38589e-05
5.46261e-05 -1.41354e-05 -1.73532e-05 -8.44941e-06
0.000104066 -2.93187e-05 -3.20346e-05 3.01245e-06
7.22284e-05 -1.90474e-05 -2.27919e-05 -1.08718e-05
6.31768e-05 -1.64615e-05 -2.00208e-05 -9.94874e-06
2.12471e-05 -1.09305e-05 -4.4214e-06 -3.81685e-05
1.02538e-05 -3.77381e-05 1.1779e-05 -5.93853e-05
0.00015043 -3.10783e-05 -5.11508e-05 3.35557e-05
0.000110206 -3.02615e-05 -3.4262e-05 4.24569e-06
1.18342e-05 -1.59936e-05 1.78264e-06 -4.56827e-05
1.71891e-05 -2.43915e-05 3.08674e-06 -3.36505e-05
0.000124717 -4.17692e-05 -3.55491e-05 8.9574e-06
5.46261e-05 -1.41354e-05 -1.73532e-05 -8.44941e-06
4.1116e-05 -1.37595e-05 -1.17242e-05 -1.31465e-05
1.02538e-05 -3.77381e-05 1.1779e-05 -5.93853e-05
5.42012e-05 -0.000164692 4.73532e-05 -6.0975e-05
9.81347e-05 -0.000218395 5.154e-05 -0.000162643
0.00015043 -3.10783e-05 -5.11508e-05 3.35557e-05
2.24085e-05 -8.80414e-05 2.81284e-05 -7.05676e-05
4.94961e-05 -0.000202531 6.55862e-05 -9.80406e-05
0.000152975 -1.15355e-05 -6.0617e-05 1.59941e-05
1.71891e-05 -2.43915e-05 3.08674e-06 -3.36505e-05
1.06994e-05 -6.69637e-05 2.41133e-05 -6.39323e-05
      </DataArray> 
    </PointData>
    <CellData>
      <DataArray type="Float64" NumberOfComponents="1" Name="Process" format="ascii">
3
3
3
3
3
3
3
3
3
3
3
3
3
3
3
3
3
3
3
3
3
3
3
3
3
2
2
2
2
2
2
2
2
2
2
2
2
2
2
2
2
2
2
2
2
2
2
2
2
1
1
1
1
1
1
1
1
1
1
1
1
1
1
1
1
1
1
1
1
1
1
1
1
1
0
0
0
0
0
0
0
0
0
0
0
0
0
0
0
0
0
0
0
0
0
0
0
0
0
5
5
5
5
5
5
5
5
5
5
5
5
5
5
5
5
5
5
5
5
5
5
5
5
5
4
4
4
4
4
4
4
4
4
4
4
4
4
4
4
4
4
4
4
4
4
4
4
4
7
7
7
7
7
7
7
7
7
7
7
7
7
7
7
7
7
7
7
7
7
7
7
7
7
6
6
6
6
6
6
6
6
6
6
6
6
6
6
6
6
6
6
6
6
6
6
6
6
3
3
3
3
3
3
3
3
3
3
3
3
3
3
3
3
3
3
3
3
3
3
3
3
3
2
2
2
2
2
2
2
2
2
2
2
2
2
2
2
2
2
2
2
2
2
2
2
2
1
1
1
1
1
1
1
1
1
1
1
1
1
1
1
1
1
1
1
1
1
1
1
1
1
0
0
0
0
0
0
0
0
0
0
0
0
0
0
0
0
0
0
0
0
0
0
0
0
0
5
5
5
5
5
5
5
5
5
5
5
5
5
5
5
5
5
5
5
5
5
5
5
5
5
4
4
4
4
4
4
4
4
4
4
4
4
4
4
4
4
4
4
4
4
4
4
4
4
7
7
7
7
7
7
7
7
7
7
7
7
7
7
7
7
7
7
7
7
7
7
7
7
7
6
6
6
6
6
6
6
6
6
6
6
6
6
6
6
6
6
6
6
6
6
6
6
6
3
3
3
3
3
3
3
3
3
3
3
3
3
3
3
3
3
3
3
3
3
3
3
3
3
2
2
2
2
2
2
2
2
2
2
2
2
2
2
2
2
2
2
2
2
2
2
2
2
1
1
1
1
1
1
1
1
1
1
1
1
1
1
1
1
1
1
1
1
1
1
1
1
1
0
0
0
0
0
0
0
0
0
0
0
0
0
0
0
0
0
0
0
0
0
0
0
0
0
5
5
5
5
5
5
5
5
5
5
5
5
5
5
5
5
5
5
5
5
5
5
5
5
5
4
4
4
4
4
4
4
4
4
4
4
4
4
4
4
4
4
4
4
4
4
4
4
4
7
7
7
7
7
7
7
7
7
7
7
7
7
7
7
7
7
7
7
7
7
7
7
7
7
6
6
6
6
6
6
6
6
6
6
6
6
6
6
6
6
6
6
6
6
6
6
6
6
3
3
3
3
3
3
3
3
3
3
3
3
3
3
3
3
3
3
3
3
3
3
3
3
3
2
2
2
2
2
2
2
2
2
2
2
2
2
2
2
2
2
2
2
2
2
2
2
2
1
1
1
1
1
1
1
1
1
1
1
1
1
1
1
1
1
1
1
1
1
1
1
1
1
0
0
0
0
0
0
0
0
0
0
0
0
0
0
0
0
0
0
0
0
0
0
0
0
0
5
5
5
5
5
5
5
5
5
5
5
5
5
5
5
5
5
5
5
5
5
5
5
5
5
4
4
4
4
4
4
4
4
4
4
4
4
4
4
4
4
4
4
4
4
4
4
4
4
7
7
7
7
7
7
7
7
7
7
7
7
7
7
7
7
7
7
7
7
7
7
7
7
7
6
6
6
6
6
6
6
6
6
6
6
6
6
6
6
6
6
6
6
6
6
6
6
6
3
3
3
3
3
3
3
3
3
3
3
3
3
3
3
3
3
3
3
3
3
3
3
3
3
2
2
2
2
2
2
2
2
2
2
2
2
2
2
2
2
2
2
2
2
2
2
2
2
1
1
1
1
1
1
1
1
1
1
1
1
1
1
1
1
1
1
1
1
1
1
1
1
1
0
0
0
0
0
0
0
0
0
0
0
0
0
0
0
0
0
0
0
0
0
0
0
0
0
5
5
5
5
5
5
5
5
5
5
5
5
5
5
5
5
5
5
5
5
5
5
5
5
5
4
4
4
4
4
4
4
4
4
4
4
4
4
4
4
4
4
4
4
4
4
4
4
4
7
7
7
7
7
7
7
7
7
7
7
7
7
7
7
7
7
7
7
7
7
7
7
7
7
6
6
6
6
6
6
6
6
6
6
6
6
6
6
6
6
6
6
6
6
6
6
6
6
3
3
3
3
3
3
3
3
3
3
3
3
3
3
3
3
3
3
3
3
3
3
3
3
3
2
2
2
2
2
2
2
2
2
2
2
2
2
2
2
2
2
2
2
2
2
2
2
2
1
1
1
1
1
1
1
1
1
1
1
1
1
1
1
1
1
1
1
1
1
1
1
1
1
0
0
0
0
0
0
0
0
0
0
0
0
0
0
0
0
0
0
0
0
0
0
0
0
0
5
5
5
5
5
5
5
5
5
5
5
5
5
5
5
5
5
5
5
5
5
5
5
5
5
4
4
4
4
4
4
4
4
4
4
4
4
4
4
4
4
4
4
4
4
4
4
4
4
7
7
7
7
7
7
7
7
7
7
7
7
7
7
7
7
7
7
7
7
7
7
7
7
7
6
6
6
6
6
6
6
6
6
6
6
6
6
6
6
6
6
6
6
6
6
6
6
6
3
3
3
3
3
3
3
3
3
3
3
3
3
3
3
3
3
3
3
3
3
3
3
3
3
2
2
2
2
2
2
2
2
2
2
2
2
2
2
2
2
2
2
2
2
2
2
2
2
1
1
1
1
1
1
1
1
1
1
1
1
1
1
1
1
1
1
1
1
1
1
1
1
1
0
0
0
0
0
0
0
0
0
0
0
0
0
0
0
0
0
0
0
0
0
0
0
0
0
5
5
5
5
5
5
5
5
5
5
5
5
5
5
5
5
5
5
5
5
5
5
5
5
5
4
4
4
4
4
4
4
4
4
4
4
4
4
4
4
4
4
4
4
4
4
4
4
4
7
7
7
7
7
7
7
7
7
7
7
7
7
7
7
7
7
7
7
7
7
7
7
7
7
6
6
6
6
6
6
6
6
6
6
6
6
6
6
6
6
6
6
6
6
6
6
6
6
      </DataArray> 
    </CellData>
  </Piece>
  </UnstructuredGrid>
</VTKFile>
