<?xml version="1.0"?>
<VTKFile type="UnstructuredGrid">
  <UnstructuredGrid>
  <Piece NumberOfPoints="12411"  NumberOfCells="1379">
    <Points>
      <DataArray type="Float64" NumberOfComponents="3" format="ascii">
0 0 0
2.53192 -0.00306806 0
2.5344 4.28468 0
0 4.28571 0
1.26569 -0.00191327 0
2.53343 2.141 0
1.26725 4.28534 0
0 2.14286 0
1.26682 2.14204 0
2.53192 -0.00306806 0
5.06466 -0.00532657 0
5.0685 4.28272 0
2.5344 4.28468 0
3.79828 -0.00415464 0
5.06667 2.13882 0
3.80147 4.2838 0
2.53343 2.141 0
3.80004 2.13994 0
5.06466 -0.00532657 0
7.59736 -0.00805157 0
7.60256 4.28004 0
5.0685 4.28272 0
6.33102 -0.00660917 0
7.59999 2.13608 0
6.33552 4.28147 0
5.06667 2.13882 0
6.33332 2.13754 0
7.59736 -0.00805157 0
10.13 -0.0115589 0
10.1366 4.27654 0
7.60256 4.28004 0
8.86369 -0.00969921 0
10.1333 2.13258 0
8.86959 4.27839 0
7.59999 2.13608 0
8.86666 2.13443 0
10.13 -0.0115589 0
12.6626 -0.015921 0
12.6708 4.27216 0
10.1366 4.27654 0
11.3963 -0.0136302 0
12.6667 2.12821 0
11.4037 4.27446 0
10.1333 2.13258 0
11.4 2.13051 0
12.6626 -0.015921 0
15.1953 -0.0211868 0
15.2049 4.26689 0
12.6708 4.27216 0
13.9289 -0.0184398 0
15.2001 2.12295 0
13.9378 4.26964 0
12.6667 2.12821 0
13.9334 2.12569 0
15.1953 -0.0211868 0
17.7279 -0.027363 0
17.739 4.26069 0
15.2049 4.26689 0
16.4616 -0.0241608 0
17.7335 2.11676 0
16.472 4.2639 0
15.2001 2.12295 0
16.4668 2.11997 0
17.7279 -0.027363 0
20.2605 -0.0344554 0
20.2732 4.25359 0
17.739 4.26069 0
18.9942 -0.0307947 0
20.2669 2.10966 0
19.0061 4.25726 0
17.7335 2.11676 0
19.0002 2.11333 0
20.2605 -0.0344554 0
22.7932 -0.0424605 0
22.8074 4.24556 0
20.2732 4.25359 0
21.5268 -0.0383441 0
22.8003 2.10165 0
21.5403 4.24969 0
20.2669 2.10966 0
21.5336 2.10577 0
22.7932 -0.0424605 0
25.3259 -0.051375 0
25.3416 4.23663 0
22.8074 4.24556 0
24.0595 -0.0468043 0
25.3338 2.09273 0
24.0745 4.24121 0
22.8003 2.10165 0
24.067 2.0973 0
25.3259 -0.051375 0
27.8586 -0.0611939 0
27.8759 4.22679 0
25.3416 4.23663 0
26.5922 -0.0561717 0
27.8673 2.0829 0
26.6088 4.23183 0
25.3338 2.09273 0
26.6005 2.08792 0
27.8586 -0.0611939 0
30.3913 -0.0719123 0
30.4101 4.21606 0
27.8759 4.22679 0
29.1249 -0.066441 0
30.4007 2.07217 0
29.143 4.22154 0
27.8673 2.0829 0
29.134 2.07764 0
30.3913 -0.0719123 0
32.9241 -0.0835252 0
32.9444 4.20443 0
30.4101 4.21606 0
31.6577 -0.0776073 0
32.9343 2.06055 0
31.6773 4.21035 0
30.4007 2.07217 0
31.6675 2.06647 0
32.9241 -0.0835252 0
35.4569 -0.0960276 0
35.4787 4.1919 0
32.9444 4.20443 0
34.1905 -0.0896655 0
35.4678 2.04803 0
34.2115 4.19827 0
32.9343 2.06055 0
34.201 2.0544 0
35.4569 -0.0960276 0
37.9897 -0.109415 0
38.013 4.1785 0
35.4787 4.1919 0
36.7233 -0.102611 0
38.0013 2.03464 0
36.7458 4.18531 0
35.4678 2.04803 0
36.7346 2.04144 0
37.9897 -0.109415 0
40.5225 -0.123681 0
40.5473 4.16421 0
38.013 4.1785 0
39.2561 -0.116438 0
40.5349 2.02036 0
39.2801 4.17146 0
38.0013 2.03464 0
39.2681 2.02761 0
40.5225 -0.123681 0
43.0553 -0.138823 0
43.0816 4.14905 0
40.5473 4.16421 0
41.7889 -0.131143 0
43.0685 2.0052 0
41.8145 4.15674 0
40.5349 2.02036 0
41.8017 2.01289 0
43.0553 -0.138823 0
45.5882 -0.154834 0
45.616 4.13301 0
43.0816 4.14905 0
44.3218 -0.14672 0
45.6021 1.98918 0
44.3488 4.14114 0
43.0685 2.0052 0
44.3353 1.9973 0
45.5882 -0.154834 0
48.1211 -0.171711 0
48.1503 4.11611 0
45.616 4.13301 0
46.8547 -0.163165 0
48.1358 1.97229 0
46.8832 4.12467 0
45.6021 1.98918 0
46.8689 1.98085 0
48.1211 -0.171711 0
50.6541 -0.189448 0
50.6847 4.09835 0
48.1503 4.11611 0
49.3876 -0.180472 0
50.6694 1.95454 0
49.4175 4.10734 0
48.1358 1.97229 0
49.4026 1.96353 0
50.6541 -0.189448 0
53.187 -0.208041 0
53.2191 4.07974 0
50.6847 4.09835 0
51.9205 -0.198638 0
53.2031 1.93594 0
51.9519 4.08915 0
50.6694 1.95454 0
51.9362 1.94535 0
53.187 -0.208041 0
55.72 -0.227485 0
55.7535 4.06027 0
53.2191 4.07974 0
54.4535 -0.217657 0
55.7368 1.91648 0
54.4863 4.07011 0
53.2031 1.93594 0
54.4699 1.92632 0
55.72 -0.227485 0
58.253 -0.247774 0
58.2879 4.03996 0
55.7535 4.06027 0
56.9865 -0.237524 0
58.2705 1.89618 0
57.0207 4.05022 0
55.7368 1.91648 0
57.0036 1.90644 0
58.253 -0.247774 0
60.786 -0.268904 0
60.8224 4.0188 0
58.2879 4.03996 0
59.5195 -0.258234 0
60.8042 1.87504 0
59.5552 4.02949 0
58.2705 1.89618 0
59.5373 1.88572 0
60.786 -0.268904 0
63.319 -0.290871 0
63.3568 3.99681 0
60.8224 4.0188 0
62.0525 -0.279784 0
63.3379 1.85306 0
62.0896 4.00791 0
60.8042 1.87504 0
62.0711 1.86415 0
63.319 -0.290871 0
65.8521 -0.31367 0
65.8913 3.97399 0
63.3568 3.99681 0
64.5855 -0.302167 0
65.8717 1.83025 0
64.624 3.9855 0
63.3379 1.85306 0
64.6048 1.84176 0
65.8521 -0.31367 0
68.3851 -0.337295 0
68.4257 3.95034 0
65.8913 3.97399 0
67.1186 -0.325379 0
68.4055 1.80661 0
67.1585 3.96227 0
65.8717 1.83025 0
67.1386 1.81853 0
68.3851 -0.337295 0
70.9182 -0.361741 0
70.9602 3.92587 0
68.4257 3.95034 0
69.6517 -0.349416 0
70.9393 1.78215 0
69.693 3.9382 0
68.4055 1.80661 0
69.6724 1.79448 0
70.9182 -0.361741 0
73.4514 -0.387005 0
73.4947 3.90058 0
70.9602 3.92587 0
72.1848 -0.374271 0
73.4731 1.75687 0
72.2275 3.91332 0
70.9393 1.78215 0
72.2062 1.76961 0
73.4514 -0.387005 0
75.9845 -0.413081 0
76.0292 3.87447 0
73.4947 3.90058 0
74.7179 -0.399942 0
76.0069 1.73078 0
74.762 3.88763 0
73.4731 1.75687 0
74.74 1.74393 0
75.9845 -0.413081 0
78.5177 -0.439965 0
78.5638 3.84756 0
76.0292 3.87447 0
77.2511 -0.426422 0
78.5407 1.70388 0
77.2965 3.86112 0
76.0069 1.73078 0
77.2738 1.71743 0
78.5177 -0.439965 0
81.0508 -0.467651 0
81.0983 3.81985 0
78.5638 3.84756 0
79.7842 -0.453708 0
81.0746 1.67618 0
79.831 3.83381 0
78.5407 1.70388 0
79.8077 1.69013 0
81.0508 -0.467651 0
83.584 -0.496134 0
83.6328 3.79134 0
81.0983 3.81985 0
82.3174 -0.481793 0
83.6085 1.64769 0
82.3656 3.80569 0
81.0746 1.67618 0
82.3415 1.66204 0
83.584 -0.496134 0
86.1173 -0.525411 0
86.1674 3.76203 0
83.6328 3.79134 0
84.8506 -0.510674 0
86.1423 1.6184 0
84.9001 3.77678 0
83.6085 1.64769 0
84.8754 1.63314 0
86.1173 -0.525411 0
88.6505 -0.555476 0
88.702 3.73194 0
86.1674 3.76203 0
87.3839 -0.540345 0
88.6763 1.58832 0
87.4347 3.74709 0
86.1423 1.6184 0
87.4093 1.60345 0
88.6505 -0.555476 0
91.1838 -0.586324 0
91.2365 3.70106 0
88.702 3.73194 0
89.9171 -0.570802 0
91.2102 1.55745 0
89.9692 3.7166 0
88.6763 1.58832 0
89.9432 1.57298 0
91.1838 -0.586324 0
93.717 -0.617951 0
93.7711 3.66941 0
91.2365 3.70106 0
92.4504 -0.60204 0
93.7441 1.52581 0
92.5038 3.68533 0
91.2102 1.55745 0
92.4771 1.54173 0
93.717 -0.617951 0
96.2503 -0.650351 0
96.3057 3.63698 0
93.7711 3.66941 0
94.9837 -0.634054 0
96.2781 1.4934 0
95.0384 3.65329 0
93.7441 1.52581 0
95.0111 1.5097 0
96.2503 -0.650351 0
98.7836 -0.68352 0
98.8403 3.60378 0
96.3057 3.63698 0
97.517 -0.666839 0
98.812 1.46021 0
97.573 3.62048 0
96.2781 1.4934 0
97.545 1.4769 0
98.7836 -0.68352 0
101.317 -0.717453 0
101.375 3.56982 0
98.8403 3.60378 0
100.05 -0.700391 0
101.346 1.42626 0
100.108 3.58689 0
98.812 1.46021 0
100.079 1.44333 0
101.317 -0.717453 0
103.85 -0.752145 0
103.91 3.5351 0
101.375 3.56982 0
102.584 -0.734704 0
103.88 1.39156 0
102.642 3.55255 0
101.346 1.42626 0
102.613 1.409 0
103.85 -0.752145 0
106.384 -0.787592 0
106.444 3.49962 0
103.91 3.5351 0
105.117 -0.769774 0
106.414 1.35609 0
105.177 3.51745 0
103.88 1.39156 0
105.147 1.37392 0
106.384 -0.787592 0
108.917 -0.823788 0
108.979 3.46339 0
106.444 3.49962 0
107.65 -0.805596 0
108.948 1.31988 0
107.712 3.4816 0
106.414 1.35609 0
107.681 1.33808 0
108.917 -0.823788 0
111.45 -0.860729 0
111.514 3.42642 0
108.979 3.46339 0
110.184 -0.842165 0
111.482 1.28293 0
110.246 3.445 0
108.948 1.31988 0
110.215 1.3015 0
111.45 -0.860729 0
113.984 -0.898409 0
114.048 3.38871 0
111.514 3.42642 0
112.717 -0.879477 0
114.016 1.24523 0
112.781 3.40766 0
111.482 1.28293 0
112.749 1.26417 0
113.984 -0.898409 0
116.517 -0.936825 0
116.583 3.35026 0
114.048 3.38871 0
115.251 -0.917526 0
116.55 1.2068 0
115.316 3.36958 0
114.016 1.24523 0
115.283 1.2261 0
116.517 -0.936825 0
119.051 -0.975971 0
119.118 3.31109 0
116.583 3.35026 0
117.784 -0.956307 0
119.084 1.16763 0
117.85 3.33076 0
116.55 1.2068 0
117.817 1.18731 0
119.051 -0.975971 0
121.584 -1.01584 0
121.652 3.27118 0
119.118 3.31109 0
120.318 -0.995817 0
121.618 1.12775 0
120.385 3.29122 0
119.084 1.16763 0
120.351 1.14778 0
121.584 -1.01584 0
124.118 -1.05643 0
124.187 3.23056 0
121.652 3.27118 0
122.851 -1.03605 0
124.152 1.08714 0
122.92 3.25096 0
121.618 1.12775 0
122.885 1.10753 0
124.118 -1.05643 0
126.651 -1.09774 0
126.722 3.18922 0
124.187 3.23056 0
125.385 -1.077 0
126.687 1.04581 0
125.454 3.20998 0
124.152 1.08714 0
125.419 1.06656 0
126.651 -1.09774 0
129.185 -1.13976 0
129.256 3.14717 0
126.722 3.18922 0
127.918 -1.11866 0
129.221 1.00378 0
127.989 3.16828 0
126.687 1.04581 0
127.954 1.02488 0
129.185 -1.13976 0
131.718 -1.18249 0
131.791 3.10441 0
129.256 3.14717 0
130.452 -1.16104 0
131.755 0.961036 0
130.524 3.12588 0
129.221 1.00378 0
130.488 0.982495 0
131.718 -1.18249 0
134.252 -1.22591 0
134.326 3.06095 0
131.791 3.10441 0
132.985 -1.20411 0
134.289 0.917593 0
133.059 3.08277 0
131.755 0.961036 0
133.022 0.939402 0
134.252 -1.22591 0
136.786 -1.27004 0
136.861 3.01679 0
134.326 3.06095 0
135.519 -1.24789 0
136.823 0.873453 0
135.593 3.03896 0
134.289 0.917593 0
135.556 0.89561 0
136.786 -1.27004 0
139.319 -1.31485 0
139.395 2.97195 0
136.861 3.01679 0
138.052 -1.29236 0
139.357 0.828621 0
138.128 2.99446 0
136.823 0.873453 0
138.09 0.851123 0
139.319 -1.31485 0
141.853 -1.36035 0
141.93 2.92641 0
139.395 2.97195 0
140.586 -1.33752 0
141.891 0.783103 0
140.663 2.94927 0
139.357 0.828621 0
140.624 0.805948 0
141.853 -1.36035 0
144.386 -1.40654 0
144.465 2.8802 0
141.93 2.92641 0
143.12 -1.38336 0
144.426 0.736902 0
143.198 2.90339 0
141.891 0.783103 0
143.159 0.760088 0
144.386 -1.40654 0
146.92 -1.4534 0
147 2.8333 0
144.465 2.8802 0
145.653 -1.42988 0
146.96 0.690024 0
145.732 2.85683 0
144.426 0.736902 0
145.693 0.713548 0
146.92 -1.4534 0
149.454 -1.50093 0
149.535 2.78573 0
147 2.8333 0
148.187 -1.47708 0
149.494 0.642474 0
148.267 2.8096 0
146.96 0.690024 0
148.227 0.666333 0
149.454 -1.50093 0
151.987 -1.54913 0
152.069 2.7375 0
149.535 2.78573 0
150.72 -1.52495 0
152.028 0.594256 0
150.802 2.7617 0
149.494 0.642474 0
150.761 0.618448 0
151.987 -1.54913 0
154.521 -1.59799 0
154.604 2.6886 0
152.069 2.7375 0
153.254 -1.57348 0
154.563 0.545375 0
153.337 2.71313 0
152.028 0.594256 0
153.295 0.569898 0
154.521 -1.59799 0
157.055 -1.64751 0
157.139 2.63905 0
154.604 2.6886 0
155.788 -1.62267 0
157.097 0.495836 0
155.872 2.66391 0
154.563 0.545375 0
155.83 0.520687 0
157.055 -1.64751 0
159.588 -1.69769 0
159.674 2.58884 0
157.139 2.63905 0
158.322 -1.67252 0
159.631 0.445644 0
158.406 2.61402 0
157.097 0.495836 0
158.364 0.470821 0
159.588 -1.69769 0
162.122 -1.74851 0
162.209 2.53798 0
159.674 2.58884 0
160.855 -1.72302 0
162.165 0.394804 0
160.941 2.56349 0
159.631 0.445644 0
160.898 0.420305 0
162.122 -1.74851 0
164.656 -1.79998 0
164.743 2.48648 0
162.209 2.53798 0
163.389 -1.77416 0
164.7 0.34332 0
163.476 2.51231 0
162.165 0.394804 0
163.433 0.369142 0
164.656 -1.79998 0
167.19 -1.85208 0
167.278 2.43434 0
164.743 2.48648 0
165.923 -1.82595 0
167.234 0.291197 0
166.011 2.46049 0
164.7 0.34332 0
165.967 0.317338 0
167.19 -1.85208 0
169.723 -1.90482 0
169.813 2.38157 0
167.278 2.43434 0
168.457 -1.87837 0
169.768 0.238441 0
168.546 2.40803 0
167.234 0.291197 0
168.501 0.264898 0
169.723 -1.90482 0
172.257 -1.95819 0
172.348 2.32817 0
169.813 2.38157 0
170.99 -1.93143 0
172.303 0.185056 0
171.081 2.35495 0
169.768 0.238441 0
171.036 0.211827 0
172.257 -1.95819 0
174.791 -2.01218 0
174.883 2.27414 0
172.348 2.32817 0
173.524 -1.98511 0
174.837 0.131046 0
173.615 2.30123 0
172.303 0.185056 0
173.57 0.158129 0
174.791 -2.01218 0
177.325 -2.06679 0
177.418 2.21949 0
174.883 2.27414 0
176.058 -2.03941 0
177.371 0.0764172 0
176.15 2.24689 0
174.837 0.131046 0
176.104 0.103809 0
177.325 -2.06679 0
179.859 -2.12202 0
179.953 2.16423 0
177.418 2.21949 0
178.592 -2.09433 0
179.906 0.0211737 0
178.685 2.19194 0
177.371 0.0764172 0
178.639 0.048872 0
179.859 -2.12202 0
182.393 -2.17785 0
182.488 2.10836 0
179.953 2.16423 0
181.126 -2.14986 0
182.44 -0.0346795 0
181.22 2.13638 0
179.906 0.0211737 0
181.173 -0.00667695 0
182.393 -2.17785 0
184.927 -2.23429 0
185.022 2.05189 0
182.488 2.10836 0
183.66 -2.206 0
184.975 -0.0911375 0
183.755 2.0802 0
182.44 -0.0346795 0
183.707 -0.0628332 0
184.927 -2.23429 0
187.46 -2.29133 0
187.557 1.99481 0
185.022 2.05189 0
186.193 -2.26274 0
187.509 -0.148196 0
186.29 2.02343 0
184.975 -0.0911375 0
186.242 -0.119592 0
187.46 -2.29133 0
189.994 -2.34897 0
190.092 1.93714 0
187.557 1.99481 0
188.727 -2.32008 0
190.043 -0.205849 0
188.825 1.96605 0
187.509 -0.148196 0
188.776 -0.176948 0
189.994 -2.34897 0
192.528 -2.40719 0
192.627 1.87888 0
190.092 1.93714 0
191.261 -2.37801 0
192.578 -0.264093 0
191.36 1.90809 0
190.043 -0.205849 0
191.311 -0.234897 0
192.528 -2.40719 0
195.062 -2.466 0
195.162 1.82004 0
192.627 1.87888 0
193.795 -2.43653 0
195.112 -0.322922 0
193.895 1.84953 0
192.578 -0.264093 0
193.845 -0.293435 0
195.062 -2.466 0
197.596 -2.5254 0
197.697 1.76061 0
195.162 1.82004 0
196.329 -2.49563 0
197.647 -0.382332 0
196.43 1.79039 0
195.112 -0.322922 0
196.379 -0.352555 0
197.596 -2.5254 0
200.13 -2.58536 0
200.232 1.70061 0
197.697 1.76061 0
198.863 -2.55531 0
200.181 -0.442318 0
198.964 1.73068 0
197.647 -0.382332 0
198.914 -0.412254 0
200.13 -2.58536 0
202.664 -2.6459 0
202.767 1.64003 0
200.232 1.70061 0
201.397 -2.61556 0
202.716 -0.502875 0
201.499 1.67039 0
200.181 -0.442318 0
201.448 -0.472526 0
202.664 -2.6459 0
205.198 -2.70701 0
205.302 1.57889 0
202.767 1.64003 0
203.931 -2.67638 0
205.25 -0.563999 0
204.034 1.60953 0
202.716 -0.502875 0
203.983 -0.533366 0
205.198 -2.70701 0
207.732 -2.76867 0
207.837 1.51719 0
205.302 1.57889 0
206.465 -2.73777 0
207.784 -0.625683 0
206.569 1.54811 0
205.25 -0.563999 0
206.517 -0.594771 0
207.732 -2.76867 0
210.266 -2.8309 0
210.372 1.45493 0
207.837 1.51719 0
208.999 -2.79972 0
210.319 -0.687925 0
209.104 1.48613 0
207.784 -0.625683 0
209.052 -0.656735 0
210.266 -2.8309 0
212.8 -2.89367 0
212.907 1.39212 0
210.372 1.45493 0
211.533 -2.86222 0
212.854 -0.750718 0
211.639 1.42359 0
210.319 -0.687925 0
211.586 -0.719253 0
212.8 -2.89367 0
215.334 -2.95699 0
215.442 1.32876 0
212.907 1.39212 0
214.067 -2.92527 0
215.388 -0.814058 0
214.174 1.36051 0
212.854 -0.750718 0
214.121 -0.78232 0
215.334 -2.95699 0
217.868 -3.02086 0
217.977 1.26486 0
215.442 1.32876 0
216.601 -2.98886 0
217.923 -0.87794 0
216.709 1.29688 0
215.388 -0.814058 0
216.655 -0.845932 0
217.868 -3.02086 0
220.402 -3.08526 0
220.512 1.20043 0
217.977 1.26486 0
219.135 -3.05299 0
220.457 -0.94236 0
219.244 1.23271 0
217.923 -0.87794 0
219.19 -0.910083 0
220.402 -3.08526 0
222.937 -3.15019 0
223.047 1.13546 0
220.512 1.20043 0
221.669 -3.11766 0
222.992 -1.00731 0
221.779 1.16801 0
220.457 -0.94236 0
221.724 -0.97477 0
222.937 -3.15019 0
225.471 -3.21565 0
225.582 1.06996 0
223.047 1.13546 0
224.204 -3.18286 0
225.526 -1.07279 0
224.314 1.10277 0
222.992 -1.00731 0
224.259 -1.03999 0
225.471 -3.21565 0
228.005 -3.28164 0
228.117 1.00394 0
225.582 1.06996 0
226.738 -3.24858 0
228.061 -1.13879 0
226.849 1.03702 0
225.526 -1.07279 0
226.794 -1.10573 0
228.005 -3.28164 0
230.539 -3.34814 0
230.652 0.937404 0
228.117 1.00394 0
229.272 -3.31483 0
230.595 -1.20531 0
229.384 0.970737 0
228.061 -1.13879 0
229.328 -1.17199 0
230.539 -3.34814 0
233.073 -3.41516 0
233.187 0.870353 0
230.652 0.937404 0
231.806 -3.38159 0
233.13 -1.27235 0
231.919 0.903942 0
230.595 -1.20531 0
231.863 -1.23877 0
233.073 -3.41516 0
235.607 -3.48268 0
235.722 0.802794 0
233.187 0.870353 0
234.34 -3.44886 0
235.665 -1.33989 0
234.454 0.836637 0
233.13 -1.27235 0
234.397 -1.30606 0
235.607 -3.48268 0
238.141 -3.55071 0
238.257 0.734732 0
235.722 0.802794 0
236.874 -3.51663 0
238.199 -1.40794 0
236.989 0.768826 0
235.665 -1.33989 0
236.932 -1.37385 0
238.141 -3.55071 0
240.676 -3.61923 0
240.792 0.666171 0
238.257 0.734732 0
239.409 -3.58491 0
240.734 -1.47648 0
239.524 0.700513 0
238.199 -1.40794 0
239.467 -1.44215 0
240.676 -3.61923 0
243.21 -3.68825 0
243.327 0.597116 0
240.792 0.666171 0
241.943 -3.65368 0
243.268 -1.54552 0
242.059 0.631705 0
240.734 -1.47648 0
242.001 -1.51094 0
243.21 -3.68825 0
245.744 -3.75776 0
245.862 0.527572 0
243.327 0.597116 0
244.477 -3.72295 0
245.803 -1.61504 0
244.595 0.562405 0
243.268 -1.54552 0
244.536 -1.58022 0
245.744 -3.75776 0
248.278 -3.82776 0
248.397 0.457544 0
245.862 0.527572 0
247.011 -3.7927 0
248.338 -1.68505 0
247.13 0.492619 0
245.803 -1.61504 0
247.07 -1.64999 0
248.278 -3.82776 0
250.813 -3.89823 0
250.932 0.387037 0
248.397 0.457544 0
249.546 -3.86293 0
250.872 -1.75555 0
249.665 0.42235 0
248.338 -1.68505 0
249.605 -1.72024 0
250.813 -3.89823 0
253.347 -3.96918 0
253.467 0.316055 0
250.932 0.387037 0
252.08 -3.93364 0
253.407 -1.82651 0
252.2 0.351605 0
250.872 -1.75555 0
252.14 -1.79097 0
253.347 -3.96918 0
255.881 -4.04059 0
256.002 0.244604 0
253.467 0.316055 0
254.614 -4.00482 0
255.942 -1.89794 0
254.735 0.280388 0
253.407 -1.82651 0
254.675 -1.86217 0
255.881 -4.04059 0
258.416 -4.11247 0
258.537 0.172688 0
256.002 0.244604 0
257.148 -4.07647 0
258.477 -1.96984 0
257.27 0.208704 0
255.942 -1.89794 0
257.209 -1.93384 0
258.416 -4.11247 0
260.95 -4.18482 0
261.073 0.100312 0
258.537 0.172688 0
259.683 -4.14859 0
261.011 -2.0422 0
259.805 0.136557 0
258.477 -1.96984 0
259.744 -2.00597 0
260.95 -4.18482 0
263.484 -4.25761 0
263.608 0.0274804 0
261.073 0.100312 0
262.217 -4.22116 0
263.546 -2.11502 0
262.34 0.0639526 0
261.011 -2.0422 0
262.279 -2.07855 0
263.484 -4.25761 0
266.019 -4.33086 0
266.143 -0.0458012 0
263.608 0.0274804 0
264.751 -4.29418 0
266.081 -2.18828 0
264.875 -0.00910443 0
263.546 -2.11502 0
264.813 -2.15159 0
266.019 -4.33086 0
268.553 -4.40455 0
268.678 -0.119528 0
266.143 -0.0458012 0
267.286 -4.36765 0
268.616 -2.26199 0
267.41 -0.0826094 0
266.081 -2.18828 0
267.348 -2.22508 0
268.553 -4.40455 0
271.087 -4.47869 0
271.213 -0.193696 0
268.678 -0.119528 0
269.82 -4.44156 0
271.15 -2.33615 0
269.946 -0.156557 0
268.616 -2.26199 0
269.883 -2.29901 0
271.087 -4.47869 0
273.622 -4.55326 0
273.748 -0.2683 0
271.213 -0.193696 0
272.355 -4.51592 0
273.685 -2.41073 0
272.481 -0.230944 0
271.15 -2.33615 0
272.418 -2.37338 0
273.622 -4.55326 0
276.156 -4.62826 0
276.283 -0.343334 0
273.748 -0.2683 0
274.889 -4.5907 0
276.22 -2.48575 0
275.016 -0.305763 0
273.685 -2.41073 0
274.952 -2.44819 0
276.156 -4.62826 0
278.691 -4.70368 0
278.819 -0.418795 0
276.283 -0.343334 0
277.424 -4.66592 0
278.755 -2.56119 0
277.551 -0.381012 0
276.22 -2.48575 0
277.487 -2.52342 0
278.691 -4.70368 0
281.225 -4.77953 0
281.354 -0.494677 0
278.819 -0.418795 0
279.958 -4.74156 0
281.289 -2.63706 0
280.086 -0.456684 0
278.755 -2.56119 0
280.022 -2.59908 0
281.225 -4.77953 0
283.76 -4.8558 0
283.889 -0.570976 0
281.354 -0.494677 0
282.492 -4.81761 0
283.824 -2.71334 0
282.621 -0.532775 0
281.289 -2.63706 0
282.557 -2.67515 0
283.76 -4.8558 0
286.294 -4.93247 0
286.424 -0.647686 0
283.889 -0.570976 0
285.027 -4.89408 0
286.359 -2.79004 0
285.156 -0.60928 0
283.824 -2.71334 0
285.092 -2.75164 0
286.294 -4.93247 0
288.829 -5.00956 0
288.959 -0.724803 0
286.424 -0.647686 0
287.561 -4.97097 0
288.894 -2.86714 0
287.692 -0.686194 0
286.359 -2.79004 0
287.627 -2.82854 0
288.829 -5.00956 0
291.363 -5.08704 0
291.494 -0.802322 0
288.959 -0.724803 0
290.096 -5.04825 0
291.429 -2.94464 0
290.227 -0.763512 0
288.894 -2.86714 0
290.161 -2.90584 0
291.363 -5.08704 0
293.898 -5.16493 0
294.03 -0.880238 0
291.494 -0.802322 0
292.63 -5.12594 0
293.964 -3.02254 0
292.762 -0.841231 0
291.429 -2.94464 0
292.696 -2.98354 0
293.898 -5.16493 0
296.432 -5.2432 0
296.565 -0.958547 0
294.03 -0.880238 0
295.165 -5.20402 0
296.499 -3.10083 0
295.297 -0.919344 0
293.964 -3.02254 0
295.231 -3.06164 0
296.432 -5.2432 0
298.967 -5.32187 0
299.1 -1.03724 0
296.565 -0.958547 0
297.7 -5.28249 0
299.034 -3.17951 0
297.832 -0.997847 0
296.499 -3.10083 0
297.766 -3.14013 0
298.967 -5.32187 0
301.501 -5.40091 0
301.635 -1.11632 0
299.1 -1.03724 0
300.234 -5.36134 0
301.568 -3.25858 0
300.368 -1.07673 0
299.034 -3.17951 0
300.301 -3.219 0
301.501 -5.40091 0
304.036 -5.48034 0
304.171 -1.19578 0
301.635 -1.11632 0
302.769 -5.44058 0
304.103 -3.33802 0
302.903 -1.156 0
301.568 -3.25858 0
302.836 -3.29825 0
304.036 -5.48034 0
306.571 -5.56013 0
306.706 -1.27561 0
304.171 -1.19578 0
305.303 -5.52019 0
306.638 -3.41783 0
305.438 -1.23565 0
304.103 -3.33802 0
305.371 -3.37788 0
306.571 -5.56013 0
309.105 -5.6403 0
309.241 -1.35581 0
306.706 -1.27561 0
307.838 -5.60017 0
309.173 -3.49801 0
307.973 -1.31566 0
306.638 -3.41783 0
307.906 -3.45788 0
309.105 -5.6403 0
311.64 -5.72083 0
311.776 -1.43637 0
309.241 -1.35581 0
310.373 -5.68052 0
311.708 -3.57856 0
310.509 -1.39604 0
309.173 -3.49801 0
310.441 -3.53824 0
311.64 -5.72083 0
314.175 -5.80172 0
314.312 -1.51729 0
311.776 -1.43637 0
312.907 -5.76123 0
314.243 -3.65946 0
313.044 -1.47678 0
311.708 -3.57856 0
312.976 -3.61897 0
314.175 -5.80172 0
316.709 -5.88296 0
316.847 -1.59856 0
314.312 -1.51729 0
315.442 -5.8423 0
316.778 -3.74072 0
315.579 -1.55788 0
314.243 -3.65946 0
315.511 -3.70005 0
316.709 -5.88296 0
319.244 -5.96455 0
319.382 -1.68018 0
316.847 -1.59856 0
317.977 -5.92371 0
319.313 -3.82233 0
318.115 -1.63933 0
316.778 -3.74072 0
318.046 -3.78148 0
319.244 -5.96455 0
321.779 -6.04649 0
321.918 -1.76215 0
319.382 -1.68018 0
320.511 -6.00548 0
321.848 -3.90428 0
320.65 -1.72112 0
319.313 -3.82233 0
320.581 -3.86326 0
321.779 -6.04649 0
324.314 -6.12876 0
324.453 -1.84445 0
321.918 -1.76215 0
323.046 -6.08758 0
324.383 -3.98657 0
323.185 -1.80326 0
321.848 -3.90428 0
323.116 -3.94538 0
324.314 -6.12876 0
326.848 -6.21137 0
326.988 -1.92709 0
324.453 -1.84445 0
325.581 -6.17002 0
326.918 -4.0692 0
325.721 -1.88573 0
324.383 -3.98657 0
325.651 -4.02784 0
326.848 -6.21137 0
329.383 -6.29431 0
329.524 -2.01006 0
326.988 -1.92709 0
328.116 -6.2528 0
329.453 -4.15215 0
328.256 -1.96854 0
326.918 -4.0692 0
328.186 -4.11063 0
329.383 -6.29431 0
331.918 -6.37757 0
332.059 -2.09336 0
329.524 -2.01006 0
330.651 -6.3359 0
331.988 -4.23543 0
330.791 -2.05167 0
329.453 -4.15215 0
330.721 -4.19375 0
331.918 -6.37757 0
334.453 -6.46116 0
334.594 -2.17697 0
332.059 -2.09336 0
333.185 -6.41932 0
334.524 -4.31903 0
333.327 -2.13512 0
331.988 -4.23543 0
333.256 -4.27719 0
334.453 -6.46116 0
336.988 -6.54505 0
337.13 -2.2609 0
334.594 -2.17697 0
335.72 -6.50307 0
337.059 -4.40294 0
335.862 -2.21889 0
334.524 -4.31903 0
335.791 -4.36095 0
336.988 -6.54505 0
339.522 -6.62926 0
339.665 -2.34514 0
337.13 -2.2609 0
338.255 -6.58712 0
339.594 -4.48717 0
338.397 -2.30298 0
337.059 -4.40294 0
338.326 -4.44502 0
339.522 -6.62926 0
342.057 -6.71378 0
342.2 -2.42968 0
339.665 -2.34514 0
340.79 -6.67148 0
342.129 -4.5717 0
340.933 -2.38737 0
339.594 -4.48717 0
340.861 -4.5294 0
342.057 -6.71378 0
344.592 -6.79859 0
344.736 -2.51453 0
342.2 -2.42968 0
343.325 -6.75615 0
344.664 -4.65653 0
343.468 -2.47207 0
342.129 -4.5717 0
343.396 -4.61408 0
344.592 -6.79859 0
347.127 -6.88371 0
347.271 -2.59967 0
344.736 -2.51453 0
345.86 -6.84111 0
347.199 -4.74166 0
346.003 -2.55706 0
344.664 -4.65653 0
345.932 -4.69906 0
347.127 -6.88371 0
349.662 -6.96911 0
349.807 -2.6851 0
347.271 -2.59967 0
348.395 -6.92637 0
349.734 -4.82707 0
348.539 -2.64235 0
347.199 -4.74166 0
348.467 -4.78433 0
349.662 -6.96911 0
352.197 -7.0548 0
352.342 -2.77081 0
349.807 -2.6851 0
350.93 -7.01192 0
352.27 -4.91278 0
351.074 -2.72792 0
349.734 -4.82707 0
351.002 -4.86989 0
352.197 -7.0548 0
354.732 -7.14077 0
354.877 -2.85681 0
352.342 -2.77081 0
353.465 -7.09775 0
354.805 -4.99876 0
353.61 -2.81378 0
352.27 -4.91278 0
353.537 -4.95573 0
354.732 -7.14077 0
357.267 -7.22701 0
357.413 -2.94309 0
354.877 -2.85681 0
355.999 -7.18386 0
357.34 -5.08502 0
356.145 -2.89992 0
354.805 -4.99876 0
356.072 -5.04186 0
357.267 -7.22701 0
359.802 -7.31353 0
359.948 -3.02963 0
357.413 -2.94309 0
358.534 -7.27024 0
359.875 -5.17156 0
358.681 -2.98633 0
357.34 -5.08502 0
358.608 -5.12826 0
359.802 -7.31353 0
362.337 -7.40032 0
362.484 -3.11645 0
359.948 -3.02963 0
361.07 -7.35689 0
362.41 -5.25836 0
361.216 -3.07301 0
359.875 -5.17156 0
361.143 -5.21492 0
362.337 -7.40032 0
364.872 -7.48736 0
365.019 -3.20352 0
362.484 -3.11645 0
363.605 -7.44381 0
364.946 -5.34542 0
363.752 -3.15995 0
362.41 -5.25836 0
363.678 -5.30185 0
364.872 -7.48736 0
367.407 -7.57467 0
367.555 -3.29085 0
365.019 -3.20352 0
366.14 -7.53099 0
367.481 -5.43274 0
366.287 -3.24716 0
364.946 -5.34542 0
366.213 -5.38904 0
367.407 -7.57467 0
369.942 -7.66223 0
370.09 -3.37844 0
367.555 -3.29085 0
368.675 -7.61842 0
370.016 -5.52031 0
368.823 -3.33462 0
367.481 -5.43274 0
368.749 -5.47649 0
369.942 -7.66223 0
372.477 -7.75003 0
372.626 -3.46627 0
370.09 -3.37844 0
371.21 -7.7061 0
372.552 -5.60813 0
371.358 -3.42232 0
370.016 -5.52031 0
371.284 -5.56419 0
372.477 -7.75003 0
375.012 -7.83808 0
375.161 -3.55434 0
372.626 -3.46627 0
373.745 -7.79403 0
375.087 -5.69619 0
373.894 -3.51028 0
372.552 -5.60813 0
373.819 -5.65213 0
375.012 -7.83808 0
377.548 -7.92636 0
377.697 -3.64266 0
375.161 -3.55434 0
376.28 -7.88219 0
377.622 -5.78449 0
376.429 -3.59847 0
375.087 -5.69619 0
376.355 -5.74031 0
377.548 -7.92636 0
380.083 -8.01488 0
380.232 -3.7312 0
377.697 -3.64266 0
378.815 -7.9706 0
380.158 -5.87302 0
378.965 -3.6869 0
377.622 -5.78449 0
378.89 -5.82872 0
380.083 -8.01488 0
382.618 -8.10363 0
382.768 -3.81997 0
380.232 -3.7312 0
381.35 -8.05923 0
382.693 -5.96178 0
381.5 -3.77556 0
380.158 -5.87302 0
381.425 -5.91737 0
382.618 -8.10363 0
385.153 -8.1926 0
385.304 -3.90897 0
382.768 -3.81997 0
383.886 -8.14809 0
385.228 -6.05076 0
384.036 -3.86444 0
382.693 -5.96178 0
383.961 -6.00624 0
385.153 -8.1926 0
387.688 -8.28179 0
387.839 -3.99818 0
385.304 -3.90897 0
386.421 -8.23717 0
387.764 -6.13996 0
386.571 -3.95355 0
385.228 -6.05076 0
386.496 -6.09534 0
387.688 -8.28179 0
390.224 -8.37119 0
390.375 -4.08761 0
387.839 -3.99818 0
388.956 -8.32646 0
390.299 -6.22938 0
389.107 -4.04287 0
387.764 -6.13996 0
389.032 -6.18465 0
390.224 -8.37119 0
392.759 -8.4608 0
392.91 -4.17725 0
390.375 -4.08761 0
391.491 -8.41597 0
392.835 -6.319 0
391.643 -4.1324 0
390.299 -6.22938 0
391.567 -6.27417 0
392.759 -8.4608 0
395.294 -8.55062 0
395.446 -4.26709 0
392.91 -4.17725 0
394.027 -8.50569 0
395.37 -6.40883 0
394.178 -4.22214 0
392.835 -6.319 0
394.102 -6.36389 0
395.294 -8.55062 0
397.83 -8.64063 0
397.982 -4.35713 0
395.446 -4.26709 0
396.562 -8.5956 0
397.906 -6.49886 0
396.714 -4.31208 0
395.37 -6.40883 0
396.638 -6.45382 0
397.83 -8.64063 0
400.365 -8.73084 0
400.517 -4.44736 0
397.982 -4.35713 0
399.097 -8.68572 0
400.441 -6.58908 0
399.25 -4.40222 0
397.906 -6.49886 0
399.173 -6.54395 0
400.365 -8.73084 0
402.9 -8.82124 0
403.053 -4.53778 0
400.517 -4.44736 0
401.633 -8.77602 0
402.977 -6.67949 0
401.785 -4.49255 0
400.441 -6.58908 0
401.709 -6.63426 0
402.9 -8.82124 0
405.436 -8.91183 0
405.589 -4.62839 0
403.053 -4.53778 0
404.168 -8.86651 0
405.512 -6.77009 0
404.321 -4.58306 0
402.977 -6.67949 0
404.244 -6.72477 0
405.436 -8.91183 0
407.971 -9.00259 0
408.124 -4.71918 0
405.589 -4.62839 0
406.703 -8.95719 0
408.048 -6.86087 0
406.857 -4.67376 0
405.512 -6.77009 0
406.78 -6.81546 0
407.971 -9.00259 0
410.506 -9.09353 0
410.66 -4.81014 0
408.124 -4.71918 0
409.239 -9.04804 0
410.583 -6.95182 0
409.392 -4.76464 0
408.048 -6.86087 0
409.316 -6.90632 0
410.506 -9.09353 0
413.042 -9.18464 0
413.196 -4.90127 0
410.66 -4.81014 0
411.774 -9.13906 0
413.119 -7.04294 0
411.928 -4.85568 0
410.583 -6.95182 0
411.851 -6.99736 0
413.042 -9.18464 0
415.577 -9.27591 0
415.732 -4.99257 0
413.196 -4.90127 0
414.31 -9.23026 0
415.655 -7.13422 0
414.464 -4.9469 0
413.119 -7.04294 0
414.387 -7.08856 0
415.577 -9.27591 0
418.113 -9.36735 0
418.267 -5.08402 0
415.732 -4.99257 0
416.845 -9.32161 0
418.19 -7.22567 0
417 -5.03828 0
415.655 -7.13422 0
416.922 -7.17993 0
418.113 -9.36735 0
420.648 -9.45894 0
420.803 -5.17564 0
418.267 -5.08402 0
419.381 -9.41312 0
420.726 -7.31727 0
419.535 -5.12981 0
418.19 -7.22567 0
419.458 -7.27145 0
420.648 -9.45894 0
423.184 -9.55068 0
423.339 -5.2674 0
420.803 -5.17564 0
421.916 -9.50479 0
423.261 -7.40903 0
422.071 -5.2215 0
420.726 -7.31727 0
421.994 -7.36313 0
423.184 -9.55068 0
425.72 -9.64257 0
425.875 -5.35931 0
423.339 -5.2674 0
424.452 -9.59661 0
425.797 -7.50093 0
424.607 -5.31334 0
423.261 -7.40903 0
424.529 -7.45496 0
425.72 -9.64257 0
428.255 -9.7346 0
428.411 -5.45136 0
425.875 -5.35931 0
426.987 -9.68857 0
428.333 -7.59297 0
427.143 -5.40532 0
425.797 -7.50093 0
427.065 -7.54693 0
428.255 -9.7346 0
430.791 -9.82677 0
430.946 -5.54355 0
428.411 -5.45136 0
429.523 -9.78067 0
430.869 -7.68514 0
429.678 -5.49744 0
428.333 -7.59297 0
429.601 -7.63904 0
430.791 -9.82677 0
433.326 -9.91906 0
433.482 -5.63586 0
430.946 -5.54355 0
432.059 -9.8729 0
433.404 -7.77745 0
432.214 -5.58969 0
430.869 -7.68514 0
432.136 -7.73128 0
433.326 -9.91906 0
435.862 -10.0115 0
436.018 -5.72831 0
433.482 -5.63586 0
434.594 -9.96526 0
435.94 -7.86989 0
434.75 -5.68207 0
433.404 -7.77745 0
434.672 -7.82365 0
435.862 -10.0115 0
438.398 -10.104 0
438.554 -5.82087 0
436.018 -5.72831 0
437.13 -10.0577 0
438.476 -7.96244 0
437.286 -5.77458 0
435.94 -7.86989 0
437.208 -7.91615 0
438.398 -10.104 0
440.933 -10.1967 0
441.09 -5.91356 0
438.554 -5.82087 0
439.666 -10.1504 0
441.012 -8.05512 0
439.822 -5.8672 0
438.476 -7.96244 0
439.744 -8.00876 0
440.933 -10.1967 0
443.469 -10.2895 0
443.626 -6.00635 0
441.09 -5.91356 0
442.201 -10.2431 0
443.547 -8.1479 0
442.358 -5.95994 0
441.012 -8.05512 0
442.28 -8.10149 0
443.469 -10.2895 0
446.005 -10.3824 0
446.162 -6.09925 0
443.626 -6.00635 0
444.737 -10.3359 0
446.083 -8.24079 0
444.894 -6.05279 0
443.547 -8.1479 0
444.815 -8.19433 0
446.005 -10.3824 0
448.541 -10.4753 0
448.698 -6.19226 0
446.162 -6.09925 0
447.273 -10.4288 0
448.619 -8.33379 0
447.43 -6.14574 0
446.083 -8.24079 0
447.351 -8.28728 0
448.541 -10.4753 0
451.076 -10.5684 0
451.234 -6.28536 0
448.698 -6.19226 0
449.809 -10.5219 0
451.155 -8.42688 0
449.966 -6.2388 0
448.619 -8.33379 0
449.887 -8.38032 0
451.076 -10.5684 0
453.612 -10.6616 0
453.77 -6.37855 0
451.234 -6.28536 0
452.344 -10.615 0
453.691 -8.52007 0
452.502 -6.33195 0
451.155 -8.42688 0
452.423 -8.47346 0
453.612 -10.6616 0
456.148 -10.7549 0
456.306 -6.47184 0
453.77 -6.37855 0
454.88 -10.7082 0
456.227 -8.61334 0
455.038 -6.42518 0
453.691 -8.52007 0
454.959 -8.5667 0
456.148 -10.7549 0
458.684 -10.8482 0
458.842 -6.5652 0
456.306 -6.47184 0
457.416 -10.8015 0
458.763 -8.7067 0
457.574 -6.51851 0
456.227 -8.61334 0
457.495 -8.66001 0
458.684 -10.8482 0
461.22 -10.9416 0
461.378 -6.65864 0
458.842 -6.5652 0
459.952 -10.8949 0
461.299 -8.80013 0
460.11 -6.61191 0
458.763 -8.7067 0
460.031 -8.75341 0
461.22 -10.9416 0
463.756 -11.0351 0
463.914 -6.75216 0
461.378 -6.65864 0
462.488 -10.9884 0
463.835 -8.89364 0
462.646 -6.70539 0
461.299 -8.80013 0
462.567 -8.84688 0
463.756 -11.0351 0
466.292 -11.1287 0
466.45 -6.84575 0
463.914 -6.75216 0
465.024 -11.0819 0
466.371 -8.98722 0
465.182 -6.79895 0
463.835 -8.89364 0
465.103 -8.94042 0
466.292 -11.1287 0
468.828 -11.2223 0
468.986 -6.9394 0
466.45 -6.84575 0
467.56 -11.1755 0
468.907 -9.08086 0
467.718 -6.89256 0
466.371 -8.98722 0
467.639 -9.03403 0
468.828 -11.2223 0
471.364 -11.316 0
471.522 -7.0331 0
468.986 -6.9394 0
470.096 -11.2692 0
471.443 -9.17456 0
470.254 -6.98624 0
468.907 -9.08086 0
470.175 -9.12771 0
471.364 -11.316 0
473.9 -11.4098 0
474.058 -7.12686 0
471.522 -7.0331 0
472.632 -11.3629 0
473.979 -9.26832 0
472.79 -7.07998 0
471.443 -9.17456 0
472.711 -9.22143 0
473.9 -11.4098 0
476.436 -11.5036 0
476.594 -7.22067 0
474.058 -7.12686 0
475.168 -11.4567 0
476.515 -9.36212 0
475.326 -7.17376 0
473.979 -9.26832 0
475.247 -9.31521 0
476.436 -11.5036 0
478.972 -11.5974 0
479.13 -7.31453 0
476.594 -7.22067 0
477.704 -11.5505 0
479.051 -9.45597 0
477.862 -7.2676 0
476.515 -9.36212 0
477.783 -9.40904 0
478.972 -11.5974 0
481.508 -11.6913 0
481.667 -7.40842 0
479.13 -7.31453 0
480.24 -11.6443 0
481.587 -9.54985 0
480.399 -7.36147 0
479.051 -9.45597 0
480.319 -9.5029 0
481.508 -11.6913 0
484.044 -11.7852 0
484.203 -7.50235 0
481.667 -7.40842 0
482.776 -11.7382 0
484.124 -9.64377 0
482.935 -7.45538 0
481.587 -9.54985 0
482.856 -9.59681 0
484.044 -11.7852 0
486.58 -11.8791 0
486.739 -7.59631 0
484.203 -7.50235 0
485.312 -11.8322 0
486.66 -9.73772 0
485.471 -7.54932 0
484.124 -9.64377 0
485.392 -9.69075 0
486.58 -11.8791 0
489.117 -11.9731 0
489.275 -7.69029 0
486.739 -7.59631 0
487.849 -11.9261 0
489.196 -9.8317 0
488.007 -7.6433 0
486.66 -9.73772 0
487.928 -9.78471 0
489.117 -11.9731 0
491.653 -12.0671 0
491.812 -7.78431 0
489.275 -7.69029 0
490.385 -12.0201 0
491.732 -9.92571 0
490.543 -7.7373 0
489.196 -9.8317 0
490.464 -9.8787 0
491.653 -12.0671 0
494.189 -12.1612 0
494.348 -7.87836 0
491.812 -7.78431 0
492.921 -12.1141 0
494.269 -10.0198 0
493.08 -7.83133 0
491.732 -9.92571 0
493 -9.97273 0
494.189 -12.1612 0
496.725 -12.2553 0
496.884 -7.97247 0
494.348 -7.87836 0
495.457 -12.2082 0
496.805 -10.1139 0
495.616 -7.9254 0
494.269 -10.0198 0
495.537 -10.0668 0
496.725 -12.2553 0
499.261 -12.3498 0
499.421 -8.06661 0
496.884 -7.97247 0
497.993 -12.3024 0
499.341 -10.2082 0
498.152 -8.01954 0
496.805 -10.1139 0
498.073 -10.161 0
0 4.28571 0
2.5344 4.28468 0
2.53593 8.57121 0
0 8.57143 0
1.26725 4.28534 0
2.5352 6.42804 0
1.268 8.57149 0
0 6.42857 0
1.26762 6.42846 0
2.5344 4.28468 0
5.0685 4.28272 0
5.07171 8.56978 0
2.53593 8.57121 0
3.80147 4.2838 0
5.07016 6.42637 0
3.80383 8.57063 0
2.5352 6.42804 0
3.8027 6.42733 0
5.0685 4.28272 0
7.60256 4.28004 0
7.60738 8.56729 0
5.07171 8.56978 0
6.33552 4.28147 0
7.60502 6.42377 0
6.33955 8.56866 0
5.07016 6.42637 0
6.33759 6.42518 0
7.60256 4.28004 0
10.1366 4.27654 0
10.143 8.56385 0
7.60738 8.56729 0
8.86959 4.27839 0
10.1399 6.42029 0
8.87521 8.56569 0
7.60502 6.42377 0
8.87244 6.42215 0
10.1366 4.27654 0
12.6708 4.27216 0
12.6787 8.55948 0
10.143 8.56385 0
11.4037 4.27446 0
12.6748 6.41592 0
11.4109 8.56178 0
10.1399 6.42029 0
11.4073 6.41822 0
12.6708 4.27216 0
15.2049 4.26689 0
15.2144 8.55419 0
12.6787 8.55948 0
13.9378 4.26964 0
15.2097 6.41064 0
13.9465 8.55695 0
12.6748 6.41592 0
13.9422 6.41339 0
15.2049 4.26689 0
17.739 4.26069 0
17.7501 8.54798 0
15.2144 8.55419 0
16.472 4.2639 0
17.7446 6.40443 0
16.4822 8.5512 0
15.2097 6.41064 0
16.4771 6.40765 0
17.739 4.26069 0
20.2732 4.25359 0
20.2858 8.54085 0
17.7501 8.54798 0
19.0061 4.25726 0
20.2795 6.39732 0
19.0179 8.54453 0
17.7446 6.40443 0
19.0121 6.40099 0
20.2732 4.25359 0
22.8074 4.24556 0
22.8215 8.53281 0
20.2858 8.54085 0
21.5403 4.24969 0
22.8145 6.38929 0
21.5537 8.53695 0
20.2795 6.39732 0
21.547 6.39342 0
22.8074 4.24556 0
25.3416 4.23663 0
25.3573 8.52387 0
22.8215 8.53281 0
24.0745 4.24121 0
25.3495 6.38035 0
24.0894 8.52845 0
22.8145 6.38929 0
24.082 6.38493 0
25.3416 4.23663 0
27.8759 4.22679 0
27.893 8.51401 0
25.3573 8.52387 0
26.6088 4.23183 0
27.8845 6.3705 0
26.6252 8.51905 0
25.3495 6.38035 0
26.617 6.37554 0
27.8759 4.22679 0
30.4101 4.21606 0
30.4288 8.50326 0
27.893 8.51401 0
29.143 4.22154 0
30.4195 6.35975 0
29.1609 8.50875 0
27.8845 6.3705 0
29.152 6.36524 0
30.4101 4.21606 0
32.9444 4.20443 0
32.9646 8.49161 0
30.4288 8.50326 0
31.6773 4.21035 0
32.9545 6.34811 0
31.6967 8.49755 0
30.4195 6.35975 0
31.687 6.35405 0
32.9444 4.20443 0
35.4787 4.1919 0
35.5004 8.47907 0
32.9646 8.49161 0
34.2115 4.19827 0
35.4895 6.33558 0
34.2325 8.48545 0
32.9545 6.34811 0
34.222 6.34196 0
35.4787 4.1919 0
38.013 4.1785 0
38.0362 8.46565 0
35.5004 8.47907 0
36.7458 4.18531 0
38.0246 6.32217 0
36.7683 8.47247 0
35.4895 6.33558 0
36.7571 6.32899 0
38.013 4.1785 0
40.5473 4.16421 0
40.572 8.45135 0
38.0362 8.46565 0
39.2801 4.17146 0
40.5597 6.30787 0
39.3041 8.45861 0
38.0246 6.32217 0
39.2921 6.31513 0
40.5473 4.16421 0
43.0816 4.14905 0
43.1078 8.43617 0
40.572 8.45135 0
41.8145 4.15674 0
43.0947 6.2927 0
41.8399 8.44387 0
40.5597 6.30787 0
41.8272 6.30039 0
43.0816 4.14905 0
45.616 4.13301 0
45.6436 8.42012 0
43.1078 8.43617 0
44.3488 4.14114 0
45.6298 6.27666 0
44.3757 8.42825 0
43.0947 6.2927 0
44.3623 6.28479 0
45.616 4.13301 0
48.1503 4.11611 0
48.1794 8.4032 0
45.6436 8.42012 0
46.8832 4.12467 0
48.1649 6.25975 0
46.9115 8.41177 0
45.6298 6.27666 0
46.8973 6.26831 0
48.1503 4.11611 0
50.6847 4.09835 0
50.7152 8.38542 0
48.1794 8.4032 0
49.4175 4.10734 0
50.7 6.24198 0
49.4473 8.39442 0
48.1649 6.25975 0
49.4324 6.25097 0
50.6847 4.09835 0
53.2191 4.07974 0
53.2511 8.36679 0
50.7152 8.38542 0
51.9519 4.08915 0
53.2351 6.22335 0
51.9832 8.37621 0
50.7 6.24198 0
51.9676 6.23277 0
53.2191 4.07974 0
55.7535 4.06027 0
55.7869 8.3473 0
53.2511 8.36679 0
54.4863 4.07011 0
55.7702 6.20388 0
54.519 8.35715 0
53.2351 6.22335 0
54.5027 6.21372 0
55.7535 4.06027 0
58.2879 4.03996 0
58.3228 8.32697 0
55.7869 8.3473 0
57.0207 4.05022 0
58.3054 6.18355 0
57.0548 8.33724 0
55.7702 6.20388 0
57.0378 6.19382 0
58.2879 4.03996 0
60.8224 4.0188 0
60.8586 8.30579 0
58.3228 8.32697 0
59.5552 4.02949 0
60.8405 6.16239 0
59.5907 8.31649 0
58.3054 6.18355 0
59.5729 6.17308 0
60.8224 4.0188 0
63.3568 3.99681 0
63.3945 8.28378 0
60.8586 8.30579 0
62.0896 4.00791 0
63.3757 6.14039 0
62.1265 8.29489 0
60.8405 6.16239 0
62.1081 6.15149 0
63.3568 3.99681 0
65.8913 3.97399 0
65.9303 8.26094 0
63.3945 8.28378 0
64.624 3.9855 0
65.9108 6.11755 0
64.6624 8.27246 0
63.3757 6.14039 0
64.6432 6.12907 0
65.8913 3.97399 0
68.4257 3.95034 0
68.4662 8.23727 0
65.9303 8.26094 0
67.1585 3.96227 0
68.446 6.09389 0
67.1983 8.2492 0
65.9108 6.11755 0
67.1784 6.10582 0
68.4257 3.95034 0
70.9602 3.92587 0
71.0021 8.21277 0
68.4662 8.23727 0
69.693 3.9382 0
70.9812 6.06941 0
69.7341 8.22512 0
68.446 6.09389 0
69.7136 6.08175 0
70.9602 3.92587 0
73.4947 3.90058 0
73.538 8.18746 0
71.0021 8.21277 0
72.2275 3.91332 0
73.5164 6.0441 0
72.27 8.20022 0
70.9812 6.06941 0
72.2488 6.05686 0
73.4947 3.90058 0
76.0292 3.87447 0
76.0738 8.16133 0
73.538 8.18746 0
74.762 3.88763 0
76.0515 6.01799 0
74.8059 8.1745 0
73.5164 6.0441 0
74.7839 6.03115 0
76.0292 3.87447 0
78.5638 3.84756 0
78.6097 8.1344 0
76.0738 8.16133 0
77.2965 3.86112 0
78.5868 5.99107 0
77.3418 8.14797 0
76.0515 6.01799 0
77.3191 6.00463 0
78.5638 3.84756 0
81.0983 3.81985 0
81.1456 8.10667 0
78.6097 8.1344 0
79.831 3.83381 0
81.122 5.96334 0
79.8777 8.12063 0
78.5868 5.99107 0
79.8544 5.97731 0
81.0983 3.81985 0
83.6328 3.79134 0
83.6815 8.07813 0
81.1456 8.10667 0
82.3656 3.80569 0
83.6572 5.93482 0
82.4135 8.0925 0
81.122 5.96334 0
82.3896 5.94918 0
83.6328 3.79134 0
86.1674 3.76203 0
86.2174 8.0488 0
83.6815 8.07813 0
84.9001 3.77678 0
86.1924 5.9055 0
84.9494 8.06357 0
83.6572 5.93482 0
84.9248 5.92026 0
86.1674 3.76203 0
88.702 3.73194 0
88.7533 8.01869 0
86.2174 8.0488 0
87.4347 3.74709 0
88.7276 5.8754 0
87.4853 8.03384 0
86.1924 5.9055 0
87.46 5.89055 0
88.702 3.73194 0
91.2365 3.70106 0
91.2892 7.98778 0
88.7533 8.01869 0
89.9692 3.7166 0
91.2629 5.84451 0
90.0212 8.00333 0
88.7276 5.8754 0
89.9953 5.86005 0
91.2365 3.70106 0
93.7711 3.66941 0
93.8251 7.95611 0
91.2892 7.98778 0
92.5038 3.68533 0
93.7981 5.81284 0
92.5571 7.97204 0
91.2629 5.84451 0
92.5305 5.82877 0
93.7711 3.66941 0
96.3057 3.63698 0
96.361 7.92365 0
93.8251 7.95611 0
95.0384 3.65329 0
96.3334 5.7804 0
95.093 7.93997 0
93.7981 5.81284 0
95.0657 5.79671 0
96.3057 3.63698 0
98.8403 3.60378 0
98.8969 7.89043 0
96.361 7.92365 0
97.573 3.62048 0
98.8686 5.74719 0
97.6289 7.90713 0
96.3334 5.7804 0
97.601 5.76389 0
98.8403 3.60378 0
101.375 3.56982 0
101.433 7.85644 0
98.8969 7.89043 0
100.108 3.58689 0
101.404 5.71321 0
100.165 7.87353 0
98.8686 5.74719 0
100.136 5.73029 0
101.375 3.56982 0
103.91 3.5351 0
103.969 7.82169 0
101.433 7.85644 0
102.642 3.55255 0
103.939 5.67847 0
102.701 7.83916 0
101.404 5.71321 0
102.672 5.69594 0
103.91 3.5351 0
106.444 3.49962 0
106.505 7.78619 0
103.969 7.82169 0
105.177 3.51745 0
106.474 5.64298 0
105.237 7.80403 0
103.939 5.67847 0
105.207 5.66082 0
106.444 3.49962 0
108.979 3.46339 0
109.041 7.74994 0
106.505 7.78619 0
107.712 3.4816 0
109.01 5.60674 0
107.773 7.76816 0
106.474 5.64298 0
107.742 5.62496 0
108.979 3.46339 0
111.514 3.42642 0
111.576 7.71294 0
109.041 7.74994 0
110.246 3.445 0
111.545 5.56976 0
110.309 7.73153 0
109.01 5.60674 0
110.277 5.58834 0
111.514 3.42642 0
114.048 3.38871 0
114.112 7.6752 0
111.576 7.71294 0
112.781 3.40766 0
114.08 5.53203 0
112.844 7.69416 0
111.545 5.56976 0
112.813 5.55099 0
114.048 3.38871 0
116.583 3.35026 0
116.648 7.63673 0
114.112 7.6752 0
115.316 3.36958 0
116.616 5.49357 0
115.38 7.65605 0
114.08 5.53203 0
115.348 5.51289 0
116.583 3.35026 0
119.118 3.31109 0
119.184 7.59752 0
116.648 7.63673 0
117.85 3.33076 0
119.151 5.45438 0
117.916 7.61721 0
116.616 5.49357 0
117.883 5.47407 0
119.118 3.31109 0
121.652 3.27118 0
121.72 7.55759 0
119.184 7.59752 0
120.385 3.29122 0
121.686 5.41446 0
120.452 7.57765 0
119.151 5.45438 0
120.419 5.43451 0
121.652 3.27118 0
124.187 3.23056 0
124.256 7.51694 0
121.72 7.55759 0
122.92 3.25096 0
124.222 5.37382 0
122.988 7.53735 0
121.686 5.41446 0
122.954 5.39423 0
124.187 3.23056 0
126.722 3.18922 0
126.792 7.47557 0
124.256 7.51694 0
125.454 3.20998 0
126.757 5.33247 0
125.524 7.49634 0
124.222 5.37382 0
125.489 5.35324 0
126.722 3.18922 0
129.256 3.14717 0
129.328 7.43349 0
126.792 7.47557 0
127.989 3.16828 0
129.292 5.2904 0
128.06 7.45462 0
126.757 5.33247 0
128.025 5.31153 0
129.256 3.14717 0
131.791 3.10441 0
131.864 7.39071 0
129.328 7.43349 0
130.524 3.12588 0
131.828 5.24763 0
130.596 7.41219 0
129.292 5.2904 0
130.56 5.26911 0
131.791 3.10441 0
134.326 3.06095 0
134.4 7.34722 0
131.864 7.39071 0
133.059 3.08277 0
134.363 5.20416 0
133.132 7.36905 0
131.828 5.24763 0
133.095 5.22598 0
134.326 3.06095 0
136.861 3.01679 0
136.936 7.30303 0
134.4 7.34722 0
135.593 3.03896 0
136.898 5.15999 0
135.668 7.32521 0
134.363 5.20416 0
135.631 5.18216 0
136.861 3.01679 0
139.395 2.97195 0
139.472 7.25816 0
136.936 7.30303 0
138.128 2.99446 0
139.434 5.11513 0
138.204 7.28068 0
136.898 5.15999 0
138.166 5.13764 0
139.395 2.97195 0
141.93 2.92641 0
142.008 7.21259 0
139.472 7.25816 0
140.663 2.94927 0
141.969 5.06958 0
140.74 7.23546 0
139.434 5.11513 0
140.701 5.09244 0
141.93 2.92641 0
144.465 2.8802 0
144.543 7.16635 0
142.008 7.21259 0
143.198 2.90339 0
144.504 5.02334 0
143.275 7.18956 0
141.969 5.06958 0
143.237 5.04654 0
144.465 2.8802 0
147 2.8333 0
147.079 7.11942 0
144.543 7.16635 0
145.732 2.85683 0
147.04 4.97643 0
145.811 7.14297 0
144.504 5.02334 0
145.772 4.99997 0
147 2.8333 0
149.535 2.78573 0
149.615 7.07183 0
147.079 7.11942 0
148.267 2.8096 0
149.575 4.92885 0
148.347 7.09571 0
147.04 4.97643 0
148.307 4.95273 0
149.535 2.78573 0
152.069 2.7375 0
152.151 7.02356 0
149.615 7.07183 0
150.802 2.7617 0
152.11 4.8806 0
150.883 7.04778 0
149.575 4.92885 0
150.843 4.90481 0
152.069 2.7375 0
154.604 2.6886 0
154.687 6.97464 0
152.151 7.02356 0
153.337 2.71313 0
154.646 4.83169 0
153.419 6.99918 0
152.11 4.8806 0
153.378 4.85623 0
154.604 2.6886 0
157.139 2.63905 0
157.223 6.92505 0
154.687 6.97464 0
155.872 2.66391 0
157.181 4.78212 0
155.955 6.94993 0
154.646 4.83169 0
155.913 4.80699 0
157.139 2.63905 0
159.674 2.58884 0
159.759 6.87481 0
157.223 6.92505 0
158.406 2.61402 0
159.716 4.7319 0
158.491 6.90001 0
157.181 4.78212 0
158.449 4.75709 0
159.674 2.58884 0
162.209 2.53798 0
162.295 6.82393 0
159.759 6.87481 0
160.941 2.56349 0
162.252 4.68102 0
161.027 6.84945 0
159.716 4.7319 0
160.984 4.70654 0
162.209 2.53798 0
164.743 2.48648 0
164.831 6.7724 0
162.295 6.82393 0
163.476 2.51231 0
164.787 4.62951 0
163.563 6.79824 0
162.252 4.68102 0
163.519 4.65534 0
164.743 2.48648 0
167.278 2.43434 0
167.367 6.72023 0
164.831 6.7724 0
166.011 2.46049 0
167.323 4.57735 0
166.099 6.74639 0
164.787 4.62951 0
166.055 4.60351 0
167.278 2.43434 0
169.813 2.38157 0
169.903 6.66742 0
167.367 6.72023 0
168.546 2.40803 0
169.858 4.52456 0
168.635 6.6939 0
167.323 4.57735 0
168.59 4.55104 0
169.813 2.38157 0
172.348 2.32817 0
172.439 6.61399 0
169.903 6.66742 0
171.081 2.35495 0
172.393 4.47115 0
171.171 6.64078 0
169.858 4.52456 0
171.126 4.49793 0
172.348 2.32817 0
174.883 2.27414 0
174.975 6.55993 0
172.439 6.61399 0
173.615 2.30123 0
174.929 4.4171 0
173.707 6.58704 0
172.393 4.47115 0
173.661 4.4442 0
174.883 2.27414 0
177.418 2.21949 0
177.51 6.50526 0
174.975 6.55993 0
176.15 2.24689 0
177.464 4.36244 0
176.242 6.53267 0
174.929 4.4171 0
176.196 4.38985 0
177.418 2.21949 0
179.953 2.16423 0
180.046 6.44997 0
177.51 6.50526 0
178.685 2.19194 0
180 4.30716 0
178.778 6.47769 0
177.464 4.36244 0
178.732 4.33488 0
179.953 2.16423 0
182.488 2.10836 0
182.582 6.39406 0
180.046 6.44997 0
181.22 2.13638 0
182.535 4.25128 0
181.314 6.42209 0
180 4.30716 0
181.267 4.2793 0
182.488 2.10836 0
185.022 2.05189 0
185.118 6.33756 0
182.582 6.39406 0
183.755 2.0802 0
185.07 4.19479 0
183.85 6.36589 0
182.535 4.25128 0
183.803 4.22311 0
185.022 2.05189 0
187.557 1.99481 0
187.654 6.28045 0
185.118 6.33756 0
186.29 2.02343 0
187.606 4.1377 0
186.386 6.30908 0
185.07 4.19479 0
186.338 4.16632 0
187.557 1.99481 0
190.092 1.93714 0
190.19 6.22275 0
187.654 6.28045 0
188.825 1.96605 0
190.141 4.08001 0
188.922 6.25168 0
187.606 4.1377 0
188.873 4.10893 0
190.092 1.93714 0
192.627 1.87888 0
192.726 6.16446 0
190.19 6.22275 0
191.36 1.90809 0
192.677 4.02173 0
191.458 6.19368 0
190.141 4.08001 0
191.409 4.05095 0
192.627 1.87888 0
195.162 1.82004 0
195.262 6.10558 0
192.726 6.16446 0
193.895 1.84953 0
195.212 3.96287 0
193.994 6.13509 0
192.677 4.02173 0
193.944 3.99237 0
195.162 1.82004 0
197.697 1.76061 0
197.798 6.04612 0
195.262 6.10558 0
196.43 1.79039 0
197.747 3.90343 0
196.53 6.07592 0
195.212 3.96287 0
196.48 3.93322 0
197.697 1.76061 0
200.232 1.70061 0
200.334 5.98609 0
197.798 6.04612 0
198.964 1.73068 0
200.283 3.84341 0
199.066 6.01618 0
197.747 3.90343 0
199.015 3.87349 0
200.232 1.70061 0
202.767 1.64003 0
202.87 5.92548 0
200.334 5.98609 0
201.499 1.67039 0
202.818 3.78282 0
201.602 5.95586 0
200.283 3.84341 0
201.551 3.81318 0
202.767 1.64003 0
205.302 1.57889 0
205.405 5.86431 0
202.87 5.92548 0
204.034 1.60953 0
205.354 3.72166 0
204.138 5.89497 0
202.818 3.78282 0
204.086 3.75231 0
205.302 1.57889 0
207.837 1.51719 0
207.941 5.80258 0
205.405 5.86431 0
206.569 1.54811 0
207.889 3.65994 0
206.673 5.83352 0
205.354 3.72166 0
206.621 3.69087 0
207.837 1.51719 0
210.372 1.45493 0
210.477 5.74029 0
207.941 5.80258 0
209.104 1.48613 0
210.425 3.59767 0
209.209 5.7715 0
207.889 3.65994 0
209.157 3.62888 0
210.372 1.45493 0
212.907 1.39212 0
213.013 5.67745 0
210.477 5.74029 0
211.639 1.42359 0
212.96 3.53484 0
211.745 5.70894 0
210.425 3.59767 0
211.692 3.56632 0
212.907 1.39212 0
215.442 1.32876 0
215.549 5.61406 0
213.013 5.67745 0
214.174 1.36051 0
215.495 3.47147 0
214.281 5.64582 0
212.96 3.53484 0
214.228 3.50322 0
215.442 1.32876 0
217.977 1.26486 0
218.085 5.55013 0
215.549 5.61406 0
216.709 1.29688 0
218.031 3.40755 0
216.817 5.58216 0
215.495 3.47147 0
216.763 3.43958 0
217.977 1.26486 0
220.512 1.20043 0
220.621 5.48566 0
218.085 5.55013 0
219.244 1.23271 0
220.566 3.3431 0
219.353 5.51796 0
218.031 3.40755 0
219.299 3.37539 0
220.512 1.20043 0
223.047 1.13546 0
223.157 5.42066 0
220.621 5.48566 0
221.779 1.16801 0
223.102 3.27812 0
221.889 5.45323 0
220.566 3.3431 0
221.834 3.31067 0
223.047 1.13546 0
225.582 1.06996 0
225.693 5.35513 0
223.157 5.42066 0
224.314 1.10277 0
225.637 3.2126 0
224.425 5.38796 0
223.102 3.27812 0
224.369 3.24542 0
225.582 1.06996 0
228.117 1.00394 0
228.229 5.28908 0
225.693 5.35513 0
226.849 1.03702 0
228.173 3.14657 0
226.961 5.32217 0
225.637 3.2126 0
226.905 3.17965 0
228.117 1.00394 0
230.652 0.937404 0
230.764 5.22251 0
228.229 5.28908 0
229.384 0.970737 0
230.708 3.08001 0
229.496 5.25586 0
228.173 3.14657 0
229.44 3.11335 0
230.652 0.937404 0
233.187 0.870353 0
233.3 5.15543 0
230.764 5.22251 0
231.919 0.903942 0
233.244 3.01295 0
232.032 5.18904 0
230.708 3.08001 0
231.976 3.04654 0
233.187 0.870353 0
235.722 0.802794 0
235.836 5.08784 0
233.3 5.15543 0
234.454 0.836637 0
235.779 2.94537 0
234.568 5.1217 0
233.244 3.01295 0
234.511 2.97922 0
235.722 0.802794 0
238.257 0.734732 0
238.372 5.01975 0
235.836 5.08784 0
236.989 0.768826 0
238.314 2.87729 0
237.104 5.05386 0
235.779 2.94537 0
237.047 2.91139 0
238.257 0.734732 0
240.792 0.666171 0
240.908 4.95116 0
238.372 5.01975 0
239.524 0.700513 0
240.85 2.80872 0
239.64 4.98551 0
238.314 2.87729 0
239.582 2.84307 0
240.792 0.666171 0
243.327 0.597116 0
243.444 4.88207 0
240.908 4.95116 0
242.059 0.631705 0
243.385 2.73965 0
242.176 4.91667 0
240.85 2.80872 0
242.118 2.77424 0
243.327 0.597116 0
245.862 0.527572 0
245.98 4.8125 0
243.444 4.88207 0
244.595 0.562405 0
245.921 2.67009 0
244.712 4.84734 0
243.385 2.73965 0
244.653 2.70493 0
245.862 0.527572 0
248.397 0.457544 0
248.516 4.74244 0
245.98 4.8125 0
247.13 0.492619 0
248.456 2.60004 0
247.248 4.77753 0
245.921 2.67009 0
247.189 2.63512 0
248.397 0.457544 0
250.932 0.387037 0
251.052 4.6719 0
248.516 4.74244 0
249.665 0.42235 0
250.992 2.52952 0
249.784 4.70723 0
248.456 2.60004 0
249.724 2.56484 0
250.932 0.387037 0
253.467 0.316055 0
253.587 4.60089 0
251.052 4.6719 0
252.2 0.351605 0
253.527 2.45852 0
252.319 4.63645 0
250.992 2.52952 0
252.26 2.49408 0
253.467 0.316055 0
256.002 0.244604 0
256.123 4.52941 0
253.587 4.60089 0
254.735 0.280388 0
256.063 2.38705 0
254.855 4.5652 0
253.527 2.45852 0
254.795 2.42285 0
256.002 0.244604 0
258.537 0.172688 0
258.659 4.45746 0
256.123 4.52941 0
257.27 0.208704 0
258.598 2.31512 0
257.391 4.49349 0
256.063 2.38705 0
257.331 2.35115 0
258.537 0.172688 0
261.073 0.100312 0
261.195 4.38505 0
258.659 4.45746 0
259.805 0.136557 0
261.134 2.24273 0
259.927 4.42131 0
258.598 2.31512 0
259.866 2.27898 0
261.073 0.100312 0
263.608 0.0274804 0
263.731 4.31219 0
261.195 4.38505 0
262.34 0.0639526 0
263.669 2.16988 0
262.463 4.34868 0
261.134 2.24273 0
262.402 2.20636 0
263.608 0.0274804 0
266.143 -0.0458012 0
266.267 4.23888 0
263.731 4.31219 0
264.875 -0.00910443 0
266.205 2.09659 0
264.999 4.27559 0
263.669 2.16988 0
264.937 2.13329 0
266.143 -0.0458012 0
268.678 -0.119528 0
268.803 4.16512 0
266.267 4.23888 0
267.41 -0.0826094 0
268.74 2.02284 0
267.535 4.20206 0
266.205 2.09659 0
267.473 2.05977 0
268.678 -0.119528 0
271.213 -0.193696 0
271.339 4.09092 0
268.803 4.16512 0
269.946 -0.156557 0
271.276 1.94866 0
270.071 4.12808 0
268.74 2.02284 0
270.008 1.98581 0
271.213 -0.193696 0
273.748 -0.2683 0
273.874 4.01629 0
271.339 4.09092 0
272.481 -0.230944 0
273.811 1.87404 0
272.606 4.05366 0
271.276 1.94866 0
272.544 1.91141 0
273.748 -0.2683 0
276.283 -0.343334 0
276.41 3.94123 0
273.874 4.01629 0
275.016 -0.305763 0
276.347 1.79899 0
275.142 3.97881 0
273.811 1.87404 0
275.079 1.83657 0
276.283 -0.343334 0
278.819 -0.418795 0
278.946 3.86574 0
276.41 3.94123 0
277.551 -0.381012 0
278.882 1.72352 0
277.678 3.90354 0
276.347 1.79899 0
277.615 1.76131 0
278.819 -0.418795 0
281.354 -0.494677 0
281.482 3.78983 0
278.946 3.86574 0
280.086 -0.456684 0
281.418 1.64762 0
280.214 3.82783 0
278.882 1.72352 0
280.15 1.68562 0
281.354 -0.494677 0
283.889 -0.570976 0
284.018 3.7135 0
281.482 3.78983 0
282.621 -0.532775 0
283.953 1.5713 0
282.75 3.75171 0
281.418 1.64762 0
282.686 1.60951 0
283.889 -0.570976 0
286.424 -0.647686 0
286.554 3.63676 0
284.018 3.7135 0
285.156 -0.60928 0
286.489 1.49458 0
285.286 3.67518 0
283.953 1.5713 0
285.221 1.53299 0
286.424 -0.647686 0
288.959 -0.724803 0
289.09 3.55961 0
286.554 3.63676 0
287.692 -0.686194 0
289.024 1.41745 0
287.822 3.59824 0
286.489 1.49458 0
287.757 1.45606 0
288.959 -0.724803 0
291.494 -0.802322 0
291.626 3.48206 0
289.09 3.55961 0
290.227 -0.763512 0
291.56 1.33991 0
290.358 3.52089 0
289.024 1.41745 0
290.292 1.37873 0
291.494 -0.802322 0
294.03 -0.880238 0
294.161 3.40412 0
291.626 3.48206 0
292.762 -0.841231 0
294.096 1.26198 0
292.893 3.44314 0
291.56 1.33991 0
292.828 1.301 0
294.03 -0.880238 0
296.565 -0.958547 0
296.697 3.32578 0
294.161 3.40412 0
295.297 -0.919344 0
296.631 1.18366 0
295.429 3.365 0
294.096 1.26198 0
295.363 1.22287 0
296.565 -0.958547 0
299.1 -1.03724 0
299.233 3.24706 0
296.697 3.32578 0
297.832 -0.997847 0
299.167 1.10495 0
297.965 3.28647 0
296.631 1.18366 0
297.899 1.14435 0
299.1 -1.03724 0
301.635 -1.11632 0
301.769 3.16795 0
299.233 3.24706 0
300.368 -1.07673 0
301.702 1.02585 0
300.501 3.20755 0
299.167 1.10495 0
300.434 1.06545 0
301.635 -1.11632 0
304.171 -1.19578 0
304.305 3.08847 0
301.769 3.16795 0
302.903 -1.156 0
304.238 0.946384 0
303.037 3.12826 0
301.702 1.02585 0
302.97 0.986166 0
304.171 -1.19578 0
306.706 -1.27561 0
306.841 3.00861 0
304.305 3.08847 0
305.438 -1.23565 0
306.773 0.86654 0
305.573 3.04858 0
304.238 0.946384 0
305.506 0.906508 0
306.706 -1.27561 0
309.241 -1.35581 0
309.377 2.92838 0
306.841 3.00861 0
307.973 -1.31566 0
309.309 0.786327 0
308.109 2.96854 0
306.773 0.86654 0
308.041 0.826479 0
309.241 -1.35581 0
311.776 -1.43637 0
311.913 2.84779 0
309.377 2.92838 0
310.509 -1.39604 0
311.844 0.705752 0
310.645 2.88813 0
309.309 0.786327 0
310.577 0.746085 0
311.776 -1.43637 0
314.312 -1.51729 0
314.448 2.76685 0
311.913 2.84779 0
313.044 -1.47678 0
314.38 0.624818 0
313.181 2.80737 0
311.844 0.705752 0
313.112 0.66533 0
314.312 -1.51729 0
316.847 -1.59856 0
316.984 2.68555 0
314.448 2.76685 0
315.579 -1.55788 0
316.916 0.543531 0
315.716 2.72624 0
314.38 0.624818 0
315.648 0.584218 0
316.847 -1.59856 0
319.382 -1.68018 0
319.52 2.6039 0
316.984 2.68555 0
318.115 -1.63933 0
319.451 0.461895 0
318.252 2.64477 0
316.916 0.543531 0
318.183 0.502756 0
319.382 -1.68018 0
321.918 -1.76215 0
322.056 2.52191 0
319.52 2.6039 0
320.65 -1.72112 0
321.987 0.379915 0
320.788 2.56294 0
319.451 0.461895 0
320.719 0.420947 0
321.918 -1.76215 0
324.453 -1.84445 0
324.592 2.43957 0
322.056 2.52191 0
323.185 -1.80326 0
324.522 0.297595 0
323.324 2.48078 0
321.987 0.379915 0
323.255 0.338797 0
324.453 -1.84445 0
326.988 -1.92709 0
327.128 2.35691 0
324.592 2.43957 0
325.721 -1.88573 0
327.058 0.214942 0
325.86 2.39828 0
324.522 0.297595 0
325.79 0.25631 0
326.988 -1.92709 0
329.524 -2.01006 0
329.664 2.27391 0
327.128 2.35691 0
328.256 -1.96854 0
329.594 0.131959 0
328.396 2.31545 0
327.058 0.214942 0
328.326 0.173491 0
329.524 -2.01006 0
332.059 -2.09336 0
332.2 2.19059 0
329.664 2.27391 0
330.791 -2.05167 0
332.129 0.0486517 0
330.932 2.23229 0
329.594 0.131959 0
330.861 0.0903457 0
332.059 -2.09336 0
334.594 -2.17697 0
334.736 2.10695 0
332.2 2.19059 0
333.327 -2.13512 0
334.665 -0.0349754 0
333.468 2.14881 0
332.129 0.0486517 0
333.397 0.00687783 0
334.594 -2.17697 0
337.13 -2.2609 0
337.271 2.023 0
334.736 2.10695 0
335.862 -2.21889 0
337.201 -0.118917 0
336.003 2.06501 0
334.665 -0.0349754 0
335.933 -0.0769074 0
337.13 -2.2609 0
339.665 -2.34514 0
339.807 1.93873 0
337.271 2.023 0
338.397 -2.30298 0
339.736 -0.20317 0
338.539 1.9809 0
337.201 -0.118917 0
338.468 -0.161005 0
339.665 -2.34514 0
342.2 -2.42968 0
342.343 1.85416 0
339.807 1.93873 0
340.933 -2.38737 0
342.272 -0.287727 0
341.075 1.89649 0
339.736 -0.20317 0
341.004 -0.24541 0
342.2 -2.42968 0
344.736 -2.51453 0
344.879 1.76929 0
342.343 1.85416 0
343.468 -2.47207 0
344.807 -0.372585 0
343.611 1.81177 0
342.272 -0.287727 0
343.54 -0.330119 0
344.736 -2.51453 0
347.271 -2.59967 0
347.415 1.68413 0
344.879 1.76929 0
346.003 -2.55706 0
347.343 -0.457738 0
346.147 1.72675 0
344.807 -0.372585 0
346.075 -0.415125 0
347.271 -2.59967 0
349.807 -2.6851 0
349.951 1.59867 0
347.415 1.68413 0
348.539 -2.64235 0
349.879 -0.543182 0
348.683 1.64144 0
347.343 -0.457738 0
348.611 -0.500424 0
349.807 -2.6851 0
352.342 -2.77081 0
352.487 1.51293 0
349.951 1.59867 0
351.074 -2.72792 0
352.414 -0.628912 0
351.219 1.55584 0
349.879 -0.543182 0
351.147 -0.586012 0
352.342 -2.77081 0
354.877 -2.85681 0
355.023 1.42691 0
352.487 1.51293 0
353.61 -2.81378 0
354.95 -0.714924 0
353.755 1.46995 0
352.414 -0.628912 0
353.682 -0.671883 0
354.877 -2.85681 0
357.413 -2.94309 0
357.559 1.34061 0
355.023 1.42691 0
356.145 -2.89992 0
357.486 -0.801211 0
356.291 1.38379 0
354.95 -0.714924 0
356.218 -0.758033 0
357.413 -2.94309 0
359.948 -3.02963 0
360.095 1.25404 0
357.559 1.34061 0
358.681 -2.98633 0
360.021 -0.88777 0
358.827 1.29736 0
357.486 -0.801211 0
358.754 -0.844457 0
359.948 -3.02963 0
362.484 -3.11645 0
362.63 1.1672 0
360.095 1.25404 0
361.216 -3.07301 0
362.557 -0.974595 0
361.363 1.21065 0
360.021 -0.88777 0
361.289 -0.931149 0
362.484 -3.11645 0
365.019 -3.20352 0
365.166 1.0801 0
362.63 1.1672 0
363.752 -3.15995 0
365.093 -1.06168 0
363.898 1.12369 0
362.557 -0.974595 0
363.825 -1.01811 0
365.019 -3.20352 0
367.555 -3.29085 0
367.702 0.99275 0
365.166 1.0801 0
366.287 -3.24716 0
367.629 -1.14903 0
366.434 1.03646 0
365.093 -1.06168 0
366.361 -1.10532 0
367.555 -3.29085 0
370.09 -3.37844 0
370.238 0.905143 0
367.702 0.99275 0
368.823 -3.33462 0
370.164 -1.23662 0
368.97 0.948977 0
367.629 -1.14903 0
368.896 -1.19279 0
370.09 -3.37844 0
372.626 -3.46627 0
372.774 0.817289 0
370.238 0.905143 0
371.358 -3.42232 0
372.7 -1.32447 0
371.506 0.861246 0
370.164 -1.23662 0
371.432 -1.28051 0
372.626 -3.46627 0
375.161 -3.55434 0
375.31 0.729193 0
372.774 0.817289 0
373.894 -3.51028 0
375.236 -1.41255 0
374.042 0.773271 0
372.7 -1.32447 0
373.968 -1.36848 0
375.161 -3.55434 0
377.697 -3.64266 0
377.846 0.640859 0
375.31 0.729193 0
376.429 -3.59847 0
377.771 -1.50087 0
376.578 0.685055 0
375.236 -1.41255 0
376.504 -1.45668 0
377.697 -3.64266 0
380.232 -3.7312 0
380.382 0.552292 0
377.846 0.640859 0
378.965 -3.6869 0
380.307 -1.58943 0
379.114 0.596604 0
377.771 -1.50087 0
379.039 -1.54512 0
380.232 -3.7312 0
382.768 -3.81997 0
382.918 0.463498 0
380.382 0.552292 0
381.5 -3.77556 0
382.843 -1.67821 0
381.65 0.507924 0
380.307 -1.58943 0
381.575 -1.63379 0
382.768 -3.81997 0
385.304 -3.90897 0
385.454 0.374481 0
382.918 0.463498 0
384.036 -3.86444 0
385.379 -1.76722 0
384.186 0.419017 0
382.843 -1.67821 0
384.111 -1.72269 0
385.304 -3.90897 0
387.839 -3.99818 0
387.99 0.285246 0
385.454 0.374481 0
386.571 -3.95355 0
387.915 -1.85645 0
386.722 0.329891 0
385.379 -1.76722 0
386.647 -1.81181 0
387.839 -3.99818 0
390.375 -4.08761 0
390.526 0.195798 0
387.99 0.285246 0
389.107 -4.04287 0
390.45 -1.94588 0
389.258 0.240548 0
387.915 -1.85645 0
389.182 -1.90114 0
390.375 -4.08761 0
392.91 -4.17725 0
393.062 0.106141 0
390.526 0.195798 0
391.643 -4.1324 0
392.986 -2.03553 0
391.794 0.150995 0
390.45 -1.94588 0
391.718 -1.99068 0
392.91 -4.17725 0
395.446 -4.26709 0
395.598 0.0162806 0
393.062 0.106141 0
394.178 -4.22214 0
395.522 -2.12538 0
394.33 0.0612359 0
392.986 -2.03553 0
394.254 -2.08043 0
395.446 -4.26709 0
397.982 -4.35713 0
398.134 -0.0737786 0
395.598 0.0162806 0
396.714 -4.31208 0
398.058 -2.21543 0
396.866 -0.0287244 0
395.522 -2.12538 0
396.79 -2.17038 0
397.982 -4.35713 0
400.517 -4.44736 0
400.67 -0.164032 0
398.134 -0.0737786 0
399.25 -4.40222 0
400.594 -2.30568 0
399.402 -0.118881 0
398.058 -2.21543 0
399.326 -2.26053 0
400.517 -4.44736 0
403.053 -4.53778 0
403.206 -0.254474 0
400.67 -0.164032 0
401.785 -4.49255 0
403.129 -2.39611 0
401.938 -0.209229 0
400.594 -2.30568 0
401.861 -2.35087 0
403.053 -4.53778 0
405.589 -4.62839 0
405.742 -0.3451 0
403.206 -0.254474 0
404.321 -4.58306 0
405.665 -2.48673 0
404.474 -0.299764 0
403.129 -2.39611 0
404.397 -2.44139 0
405.589 -4.62839 0
408.124 -4.71918 0
408.278 -0.435906 0
405.742 -0.3451 0
406.857 -4.67376 0
408.201 -2.57752 0
407.01 -0.390481 0
405.665 -2.48673 0
406.933 -2.5321 0
408.124 -4.71918 0
410.66 -4.81014 0
410.814 -0.526886 0
408.278 -0.435906 0
409.392 -4.76464 0
410.737 -2.66849 0
409.546 -0.481375 0
408.201 -2.57752 0
409.469 -2.62299 0
410.66 -4.81014 0
413.196 -4.90127 0
413.35 -0.618037 0
410.814 -0.526886 0
411.928 -4.85568 0
413.273 -2.75964 0
412.082 -0.572441 0
410.737 -2.66849 0
412.005 -2.71404 0
413.196 -4.90127 0
415.732 -4.99257 0
415.886 -0.709352 0
413.35 -0.618037 0
414.464 -4.9469 0
415.809 -2.85094 0
414.618 -0.663674 0
413.273 -2.75964 0
414.541 -2.80527 0
415.732 -4.99257 0
418.267 -5.08402 0
418.422 -0.800827 0
415.886 -0.709352 0
417 -5.03828 0
418.345 -2.94241 0
417.154 -0.755069 0
415.809 -2.85094 0
417.077 -2.89666 0
418.267 -5.08402 0
420.803 -5.17564 0
420.958 -0.892457 0
418.422 -0.800827 0
419.535 -5.12981 0
420.88 -3.03403 0
419.69 -0.846623 0
418.345 -2.94241 0
419.613 -2.9882 0
420.803 -5.17564 0
423.339 -5.2674 0
423.494 -0.984238 0
420.958 -0.892457 0
422.071 -5.2215 0
423.416 -3.1258 0
422.226 -0.938329 0
420.88 -3.03403 0
422.148 -3.0799 0
423.339 -5.2674 0
425.875 -5.35931 0
426.03 -1.07616 0
423.494 -0.984238 0
424.607 -5.31334 0
425.952 -3.21772 0
424.762 -1.03018 0
423.416 -3.1258 0
424.684 -3.17175 0
425.875 -5.35931 0
428.411 -5.45136 0
428.566 -1.16823 0
426.03 -1.07616 0
427.143 -5.40532 0
428.488 -3.30978 0
427.298 -1.12218 0
425.952 -3.21772 0
427.22 -3.26373 0
428.411 -5.45136 0
430.946 -5.54355 0
431.102 -1.26043 0
428.566 -1.16823 0
429.678 -5.49744 0
431.024 -3.40198 0
429.834 -1.21432 0
428.488 -3.30978 0
429.756 -3.35586 0
430.946 -5.54355 0
433.482 -5.63586 0
433.638 -1.35277 0
431.102 -1.26043 0
432.214 -5.58969 0
433.56 -3.4943 0
432.37 -1.30658 0
431.024 -3.40198 0
432.292 -3.44812 0
433.482 -5.63586 0
436.018 -5.72831 0
436.174 -1.44523 0
433.638 -1.35277 0
434.75 -5.68207 0
436.096 -3.58676 0
434.906 -1.39898 0
433.56 -3.4943 0
434.828 -3.54051 0
436.018 -5.72831 0
438.554 -5.82087 0
438.71 -1.53781 0
436.174 -1.44523 0
437.286 -5.77458 0
438.632 -3.67933 0
437.442 -1.4915 0
436.096 -3.58676 0
437.364 -3.63303 0
438.554 -5.82087 0
441.09 -5.91356 0
441.246 -1.63051 0
438.71 -1.53781 0
439.822 -5.8672 0
441.168 -3.77202 0
439.978 -1.58414 0
438.632 -3.67933 0
439.9 -3.72566 0
441.09 -5.91356 0
443.626 -6.00635 0
443.782 -1.72332 0
441.246 -1.63051 0
442.358 -5.95994 0
443.704 -3.86482 0
442.514 -1.6769 0
441.168 -3.77202 0
442.436 -3.81841 0
443.626 -6.00635 0
446.162 -6.09925 0
446.319 -1.81623 0
443.782 -1.72332 0
444.894 -6.05279 0
446.24 -3.95773 0
445.05 -1.76976 0
443.704 -3.86482 0
444.972 -3.91127 0
446.162 -6.09925 0
448.698 -6.19226 0
448.855 -1.90925 0
446.319 -1.81623 0
447.43 -6.14574 0
448.776 -4.05075 0
447.587 -1.86273 0
446.24 -3.95773 0
447.508 -4.00423 0
448.698 -6.19226 0
451.234 -6.28536 0
451.391 -2.00237 0
448.855 -1.90925 0
449.966 -6.2388 0
451.312 -4.14385 0
450.123 -1.9558 0
448.776 -4.05075 0
450.044 -4.09729 0
451.234 -6.28536 0
453.77 -6.37855 0
453.927 -2.09558 0
451.391 -2.00237 0
452.502 -6.33195 0
453.848 -4.23706 0
452.659 -2.04896 0
451.312 -4.14385 0
452.58 -4.19044 0
453.77 -6.37855 0
456.306 -6.47184 0
456.463 -2.18887 0
453.927 -2.09558 0
455.038 -6.42518 0
456.384 -4.33035 0
455.195 -2.14221 0
453.848 -4.23706 0
455.116 -4.28369 0
456.306 -6.47184 0
458.842 -6.5652 0
458.999 -2.28225 0
456.463 -2.18887 0
457.574 -6.51851 0
458.92 -4.42372 0
457.731 -2.23555 0
456.384 -4.33035 0
457.652 -4.37702 0
458.842 -6.5652 0
461.378 -6.65864 0
461.535 -2.37571 0
458.999 -2.28225 0
460.11 -6.61191 0
461.457 -4.51717 0
460.267 -2.32897 0
458.92 -4.42372 0
460.189 -4.47043 0
461.378 -6.65864 0
463.914 -6.75216 0
464.072 -2.46924 0
461.535 -2.37571 0
462.646 -6.70539 0
463.993 -4.61069 0
462.803 -2.42246 0
461.457 -4.51717 0
462.725 -4.56392 0
463.914 -6.75216 0
466.45 -6.84575 0
466.608 -2.56283 0
464.072 -2.46924 0
465.182 -6.79895 0
466.529 -4.70428 0
465.34 -2.51603 0
463.993 -4.61069 0
465.261 -4.65748 0
466.45 -6.84575 0
468.986 -6.9394 0
469.144 -2.65649 0
466.608 -2.56283 0
467.718 -6.89256 0
469.065 -4.79794 0
467.876 -2.60966 0
466.529 -4.70428 0
467.797 -4.7511 0
468.986 -6.9394 0
471.522 -7.0331 0
471.68 -2.75021 0
469.144 -2.65649 0
470.254 -6.98624 0
471.601 -4.89165 0
470.412 -2.70335 0
469.065 -4.79794 0
470.333 -4.84479 0
471.522 -7.0331 0
474.058 -7.12686 0
474.216 -2.84399 0
471.68 -2.75021 0
472.79 -7.07998 0
474.137 -4.98542 0
472.948 -2.79709 0
471.601 -4.89165 0
472.869 -4.93853 0
474.058 -7.12686 0
476.594 -7.22067 0
476.753 -2.93781 0
474.216 -2.84399 0
475.326 -7.17376 0
476.673 -5.07924 0
475.484 -2.89089 0
474.137 -4.98542 0
475.405 -5.03232 0
476.594 -7.22067 0
479.13 -7.31453 0
479.289 -3.03168 0
476.753 -2.93781 0
477.862 -7.2676 0
479.21 -5.1731 0
478.021 -2.98474 0
476.673 -5.07924 0
477.942 -5.12616 0
479.13 -7.31453 0
481.667 -7.40842 0
481.825 -3.12558 0
479.289 -3.03168 0
480.399 -7.36147 0
481.746 -5.267 0
480.557 -3.07862 0
479.21 -5.1731 0
480.478 -5.22004 0
481.667 -7.40842 0
484.203 -7.50235 0
484.361 -3.21952 0
481.825 -3.12558 0
482.935 -7.45538 0
484.282 -5.36093 0
483.093 -3.17255 0
481.746 -5.267 0
483.014 -5.31396 0
484.203 -7.50235 0
486.739 -7.59631 0
486.898 -3.31349 0
484.361 -3.21952 0
485.471 -7.54932 0
486.818 -5.4549 0
485.629 -3.2665 0
484.282 -5.36093 0
485.55 -5.40791 0
486.739 -7.59631 0
489.275 -7.69029 0
489.434 -3.40749 0
486.898 -3.31349 0
488.007 -7.6433 0
489.355 -5.54889 0
488.166 -3.36049 0
486.818 -5.4549 0
488.086 -5.50189 0
489.275 -7.69029 0
491.812 -7.78431 0
491.97 -3.50151 0
489.434 -3.40749 0
490.543 -7.7373 0
491.891 -5.64291 0
490.702 -3.4545 0
489.355 -5.54889 0
490.623 -5.5959 0
491.812 -7.78431 0
494.348 -7.87836 0
494.506 -3.59555 0
491.97 -3.50151 0
493.08 -7.83133 0
494.427 -5.73696 0
493.238 -3.54853 0
491.891 -5.64291 0
493.159 -5.68993 0
494.348 -7.87836 0
496.884 -7.97247 0
497.043 -3.68959 0
494.506 -3.59555 0
495.616 -7.9254 0
496.964 -5.83103 0
495.775 -3.64257 0
494.427 -5.73696 0
495.695 -5.78399 0
496.884 -7.97247 0
499.421 -8.06661 0
499.579 -3.78358 0
497.043 -3.68959 0
498.152 -8.01954 0
499.5 -5.92507 0
498.311 -3.73659 0
496.964 -5.83103 0
498.232 -5.87806 0
0 8.57143 0
2.53593 8.57121 0
2.53736 12.8573 0
0 12.8571 0
1.268 8.57149 0
2.53665 10.7143 0
1.26868 12.8574 0
0 10.7143 0
1.26835 10.7145 0
2.53593 8.57121 0
5.07171 8.56978 0
5.07467 12.8561 0
2.53736 12.8573 0
3.80383 8.57063 0
5.0732 10.713 0
3.80602 12.8568 0
2.53665 10.7143 0
3.80494 10.7138 0
5.07171 8.56978 0
7.60738 8.56729 0
7.61195 12.8537 0
5.07467 12.8561 0
6.33955 8.56866 0
7.60968 10.7106 0
6.34331 12.855 0
5.0732 10.713 0
6.34145 10.7119 0
7.60738 8.56729 0
10.143 8.56385 0
10.1492 12.8504 0
7.61195 12.8537 0
8.87521 8.56569 0
10.1461 10.7072 0
8.88058 12.8522 0
7.60968 10.7106 0
8.87792 10.709 0
10.143 8.56385 0
12.6787 8.55948 0
12.6865 12.846 0
10.1492 12.8504 0
11.4109 8.56178 0
12.6826 10.7028 0
11.4178 12.8483 0
10.1461 10.7072 0
11.4144 10.7051 0
12.6787 8.55948 0
15.2144 8.55419 0
15.2237 12.8407 0
12.6865 12.846 0
13.9465 8.55695 0
15.2191 10.6975 0
13.9551 12.8435 0
12.6826 10.7028 0
13.9508 10.7003 0
15.2144 8.55419 0
17.7501 8.54798 0
17.761 12.8345 0
15.2237 12.8407 0
16.4822 8.5512 0
17.7556 10.6913 0
16.4924 12.8377 0
15.2191 10.6975 0
16.4873 10.6946 0
17.7501 8.54798 0
20.2858 8.54085 0
20.2983 12.8273 0
17.761 12.8345 0
19.0179 8.54453 0
20.2921 10.6842 0
19.0296 12.831 0
17.7556 10.6913 0
19.0238 10.6879 0
20.2858 8.54085 0
22.8215 8.53281 0
22.8356 12.8193 0
20.2983 12.8273 0
21.5537 8.53695 0
22.8286 10.6761 0
21.5669 12.8234 0
20.2921 10.6842 0
21.5603 10.6803 0
22.8215 8.53281 0
25.3573 8.52387 0
25.3728 12.8103 0
22.8356 12.8193 0
24.0894 8.52845 0
25.3651 10.6672 0
24.1042 12.8149 0
22.8286 10.6761 0
24.0968 10.6718 0
25.3573 8.52387 0
27.893 8.51401 0
27.9101 12.8005 0
25.3728 12.8103 0
26.6252 8.51905 0
27.9016 10.6573 0
26.6415 12.8055 0
25.3651 10.6672 0
26.6333 10.6624 0
27.893 8.51401 0
30.4288 8.50326 0
30.4474 12.7897 0
27.9101 12.8005 0
29.1609 8.50875 0
30.4381 10.6466 0
29.1788 12.7952 0
27.9016 10.6573 0
29.1699 10.6521 0
30.4288 8.50326 0
32.9646 8.49161 0
32.9847 12.778 0
30.4474 12.7897 0
31.6967 8.49755 0
32.9747 10.6349 0
31.7161 12.784 0
30.4381 10.6466 0
31.7064 10.6409 0
32.9646 8.49161 0
35.5004 8.47907 0
35.522 12.7655 0
32.9847 12.778 0
34.2325 8.48545 0
35.5112 10.6224 0
34.2533 12.7719 0
32.9747 10.6349 0
34.2429 10.6288 0
35.5004 8.47907 0
38.0362 8.46565 0
38.0593 12.7521 0
35.522 12.7655 0
36.7683 8.47247 0
38.0477 10.6089 0
36.7906 12.7589 0
35.5112 10.6224 0
36.7795 10.6158 0
38.0362 8.46565 0
40.572 8.45135 0
40.5966 12.7377 0
38.0593 12.7521 0
39.3041 8.45861 0
40.5843 10.5946 0
39.3279 12.745 0
38.0477 10.6089 0
39.316 10.6019 0
40.572 8.45135 0
43.1078 8.43617 0
43.1338 12.7225 0
40.5966 12.7377 0
41.8399 8.44387 0
43.1208 10.5794 0
41.8652 12.7302 0
40.5843 10.5946 0
41.8525 10.5871 0
43.1078 8.43617 0
45.6436 8.42012 0
45.6711 12.7065 0
43.1338 12.7225 0
44.3757 8.42825 0
45.6574 10.5634 0
44.4025 12.7146 0
43.1208 10.5794 0
44.3891 10.5715 0
45.6436 8.42012 0
48.1794 8.4032 0
48.2084 12.6895 0
45.6711 12.7065 0
46.9115 8.41177 0
48.1939 10.5465 0
46.9398 12.6981 0
45.6574 10.5634 0
46.9256 10.555 0
48.1794 8.4032 0
50.7152 8.38542 0
50.7457 12.6718 0
48.2084 12.6895 0
49.4473 8.39442 0
50.7305 10.5287 0
49.477 12.6808 0
48.1939 10.5465 0
49.4622 10.5377 0
50.7152 8.38542 0
53.2511 8.36679 0
53.283 12.6531 0
50.7457 12.6718 0
51.9832 8.37621 0
53.267 10.51 0
52.0143 12.6625 0
50.7305 10.5287 0
51.9988 10.5195 0
53.2511 8.36679 0
55.7869 8.3473 0
55.8202 12.6336 0
53.283 12.6531 0
54.519 8.35715 0
55.8036 10.4905 0
54.5516 12.6435 0
53.267 10.51 0
54.5353 10.5004 0
55.7869 8.3473 0
58.3228 8.32697 0
58.3575 12.6133 0
55.8202 12.6336 0
57.0548 8.33724 0
58.3401 10.4702 0
57.0889 12.6235 0
55.8036 10.4905 0
57.0719 10.4805 0
58.3228 8.32697 0
60.8586 8.30579 0
60.8948 12.5921 0
58.3575 12.6133 0
59.5907 8.31649 0
60.8767 10.449 0
59.6262 12.6028 0
58.3401 10.4702 0
59.6084 10.4597 0
60.8586 8.30579 0
63.3945 8.28378 0
63.4321 12.57 0
60.8948 12.5921 0
62.1265 8.29489 0
63.4133 10.427 0
62.1634 12.5812 0
60.8767 10.449 0
62.145 10.4381 0
63.3945 8.28378 0
65.9303 8.26094 0
65.9693 12.5472 0
63.4321 12.57 0
64.6624 8.27246 0
65.9498 10.4041 0
64.7007 12.5587 0
63.4133 10.427 0
64.6816 10.4157 0
65.9303 8.26094 0
68.4662 8.23727 0
68.5066 12.5235 0
65.9693 12.5472 0
67.1983 8.2492 0
68.4864 10.3805 0
67.2379 12.5354 0
65.9498 10.4041 0
67.2181 10.3924 0
68.4662 8.23727 0
71.0021 8.21277 0
71.0438 12.499 0
68.5066 12.5235 0
69.7341 8.22512 0
71.023 10.356 0
69.7752 12.5113 0
68.4864 10.3805 0
69.7547 10.3683 0
71.0021 8.21277 0
73.538 8.18746 0
73.5811 12.4736 0
71.0438 12.499 0
72.27 8.20022 0
73.5595 10.3306 0
72.3125 12.4864 0
71.023 10.356 0
72.2912 10.3434 0
73.538 8.18746 0
76.0738 8.16133 0
76.1183 12.4475 0
73.5811 12.4736 0
74.8059 8.1745 0
76.0961 10.3045 0
74.8497 12.4607 0
73.5595 10.3306 0
74.8278 10.3177 0
76.0738 8.16133 0
78.6097 8.1344 0
78.6556 12.4206 0
76.1183 12.4475 0
77.3418 8.14797 0
78.6327 10.2776 0
77.387 12.4341 0
76.0961 10.3045 0
77.3644 10.2911 0
78.6097 8.1344 0
81.1456 8.10667 0
81.1928 12.3928 0
78.6556 12.4206 0
79.8777 8.12063 0
81.1692 10.2498 0
79.9242 12.4068 0
78.6327 10.2776 0
79.9009 10.2638 0
81.1456 8.10667 0
83.6815 8.07813 0
83.7301 12.3642 0
81.1928 12.3928 0
82.4135 8.0925 0
83.7058 10.2213 0
82.4614 12.3786 0
81.1692 10.2498 0
82.4375 10.2356 0
83.6815 8.07813 0
86.2174 8.0488 0
86.2673 12.3349 0
83.7301 12.3642 0
84.9494 8.06357 0
86.2423 10.1919 0
84.9987 12.3497 0
83.7058 10.2213 0
84.9741 10.2067 0
86.2174 8.0488 0
88.7533 8.01869 0
88.8045 12.3048 0
86.2673 12.3349 0
87.4853 8.03384 0
88.7789 10.1618 0
87.5359 12.3199 0
86.2423 10.1919 0
87.5106 10.177 0
88.7533 8.01869 0
91.2892 7.98778 0
91.3417 12.2738 0
88.8045 12.3048 0
90.0212 8.00333 0
91.3155 10.1309 0
90.0731 12.2894 0
88.7789 10.1618 0
90.0472 10.1464 0
91.2892 7.98778 0
93.8251 7.95611 0
93.8789 12.2421 0
91.3417 12.2738 0
92.5571 7.97204 0
93.852 10.0992 0
92.6103 12.2581 0
91.3155 10.1309 0
92.5837 10.1151 0
93.8251 7.95611 0
96.361 7.92365 0
96.4162 12.2097 0
93.8789 12.2421 0
95.093 7.93997 0
96.3886 10.0667 0
95.1476 12.226 0
93.852 10.0992 0
95.1203 10.0831 0
96.361 7.92365 0
98.8969 7.89043 0
98.9534 12.1764 0
96.4162 12.2097 0
97.6289 7.90713 0
98.9251 10.0335 0
97.6848 12.1931 0
96.3886 10.0667 0
97.6569 10.0502 0
98.8969 7.89043 0
101.433 7.85644 0
101.491 12.1424 0
98.9534 12.1764 0
100.165 7.87353 0
101.462 9.99951 0
100.222 12.1595 0
98.9251 10.0335 0
100.193 10.0166 0
101.433 7.85644 0
103.969 7.82169 0
104.028 12.1076 0
101.491 12.1424 0
102.701 7.83916 0
103.998 9.96475 0
102.759 12.1251 0
101.462 9.99951 0
102.73 9.98222 0
103.969 7.82169 0
106.505 7.78619 0
106.565 12.0721 0
104.028 12.1076 0
105.237 7.80403 0
106.535 9.92923 0
105.296 12.09 0
103.998 9.96475 0
105.267 9.94708 0
106.505 7.78619 0
109.041 7.74994 0
109.102 12.0358 0
106.565 12.0721 0
107.773 7.76816 0
109.071 9.89297 0
107.834 12.0541 0
106.535 9.92923 0
107.803 9.91119 0
109.041 7.74994 0
111.576 7.71294 0
111.639 11.9988 0
109.102 12.0358 0
110.309 7.73153 0
111.608 9.85596 0
110.371 12.0174 0
109.071 9.89297 0
110.34 9.87456 0
111.576 7.71294 0
114.112 7.6752 0
114.176 11.9611 0
111.639 11.9988 0
112.844 7.69416 0
114.144 9.81821 0
112.908 11.98 0
111.608 9.85596 0
112.876 9.83718 0
114.112 7.6752 0
116.648 7.63673 0
116.714 11.9226 0
114.176 11.9611 0
115.38 7.65605 0
116.681 9.77972 0
115.445 11.9419 0
114.144 9.81821 0
115.413 9.79906 0
116.648 7.63673 0
119.184 7.59752 0
119.251 11.8833 0
116.714 11.9226 0
117.916 7.61721 0
119.217 9.74051 0
117.982 11.903 0
116.681 9.77972 0
117.949 9.76021 0
119.184 7.59752 0
121.72 7.55759 0
121.788 11.8434 0
119.251 11.8833 0
120.452 7.57765 0
121.754 9.70056 0
120.519 11.8634 0
119.217 9.74051 0
120.486 9.72062 0
121.72 7.55759 0
124.256 7.51694 0
124.325 11.8027 0
121.788 11.8434 0
122.988 7.53735 0
124.291 9.6599 0
123.056 11.8231 0
121.754 9.70056 0
123.022 9.68032 0
124.256 7.51694 0
126.792 7.47557 0
126.862 11.7613 0
124.325 11.8027 0
125.524 7.49634 0
126.827 9.61852 0
125.594 11.7821 0
124.291 9.6599 0
125.559 9.6393 0
126.792 7.47557 0
129.328 7.43349 0
129.399 11.7192 0
126.862 11.7613 0
128.06 7.45462 0
129.364 9.57643 0
128.131 11.7404 0
126.827 9.61852 0
128.095 9.59756 0
129.328 7.43349 0
131.864 7.39071 0
131.936 11.6764 0
129.399 11.7192 0
130.596 7.41219 0
131.9 9.53363 0
130.668 11.6979 0
129.364 9.57643 0
130.632 9.55512 0
131.864 7.39071 0
134.4 7.34722 0
134.474 11.6329 0
131.936 11.6764 0
133.132 7.36905 0
134.437 9.49013 0
133.205 11.6547 0
131.9 9.53363 0
133.168 9.51197 0
134.4 7.34722 0
136.936 7.30303 0
137.011 11.5887 0
134.474 11.6329 0
135.668 7.32521 0
136.973 9.44593 0
135.742 11.6109 0
134.437 9.49013 0
135.705 9.46812 0
136.936 7.30303 0
139.472 7.25816 0
139.548 11.5438 0
137.011 11.5887 0
138.204 7.28068 0
139.51 9.40104 0
138.279 11.5663 0
136.973 9.44593 0
138.241 9.42357 0
139.472 7.25816 0
142.008 7.21259 0
142.085 11.4982 0
139.548 11.5438 0
140.74 7.23546 0
142.046 9.35547 0
140.816 11.5211 0
139.51 9.40104 0
140.778 9.37834 0
142.008 7.21259 0
144.543 7.16635 0
144.622 11.4519 0
142.085 11.4982 0
143.275 7.18956 0
144.583 9.30921 0
143.353 11.4751 0
142.046 9.35547 0
143.314 9.33242 0
144.543 7.16635 0
147.079 7.11942 0
147.159 11.405 0
144.622 11.4519 0
145.811 7.14297 0
147.119 9.26227 0
145.89 11.4285 0
144.583 9.30921 0
145.851 9.28582 0
147.079 7.11942 0
149.615 7.07183 0
149.696 11.3574 0
147.159 11.405 0
148.347 7.09571 0
149.656 9.21466 0
148.427 11.3812 0
147.119 9.26227 0
148.387 9.23855 0
149.615 7.07183 0
152.151 7.02356 0
152.233 11.3091 0
149.696 11.3574 0
150.883 7.04778 0
152.192 9.16638 0
150.964 11.3333 0
149.656 9.21466 0
150.924 9.19061 0
152.151 7.02356 0
154.687 6.97464 0
154.77 11.2601 0
152.233 11.3091 0
153.419 6.99918 0
154.729 9.11744 0
153.502 11.2847 0
152.192 9.16638 0
153.46 9.142 0
154.687 6.97464 0
157.223 6.92505 0
157.307 11.2105 0
154.77 11.2601 0
155.955 6.94993 0
157.265 9.06784 0
156.039 11.2354 0
154.729 9.11744 0
155.997 9.09273 0
157.223 6.92505 0
159.759 6.87481 0
159.844 11.1602 0
157.307 11.2105 0
158.491 6.90001 0
159.802 9.01759 0
158.576 11.1854 0
157.265 9.06784 0
158.533 9.0428 0
159.759 6.87481 0
162.295 6.82393 0
162.381 11.1093 0
159.844 11.1602 0
161.027 6.84945 0
162.338 8.96669 0
161.113 11.1349 0
159.802 9.01759 0
161.07 8.99222 0
162.295 6.82393 0
164.831 6.7724 0
164.918 11.0578 0
162.381 11.1093 0
163.563 6.79824 0
164.874 8.91515 0
163.65 11.0836 0
162.338 8.96669 0
163.606 8.941 0
164.831 6.7724 0
167.367 6.72023 0
167.455 11.0056 0
164.918 11.0578 0
166.099 6.74639 0
167.411 8.86297 0
166.187 11.0317 0
164.874 8.91515 0
166.143 8.88914 0
167.367 6.72023 0
169.903 6.66742 0
169.992 10.9527 0
167.455 11.0056 0
168.635 6.6939 0
169.947 8.81015 0
168.724 10.9792 0
167.411 8.86297 0
168.679 8.83664 0
169.903 6.66742 0
172.439 6.61399 0
172.529 10.8993 0
169.992 10.9527 0
171.171 6.64078 0
172.484 8.7567 0
171.261 10.9261 0
169.947 8.81015 0
171.216 8.7835 0
172.439 6.61399 0
174.975 6.55993 0
175.066 10.8452 0
172.529 10.8993 0
173.707 6.58704 0
175.02 8.70263 0
173.798 10.8723 0
172.484 8.7567 0
173.752 8.72974 0
174.975 6.55993 0
177.51 6.50526 0
177.603 10.7905 0
175.066 10.8452 0
176.242 6.53267 0
177.557 8.64794 0
176.335 10.8179 0
175.02 8.70263 0
176.289 8.67536 0
177.51 6.50526 0
180.046 6.44997 0
180.14 10.7352 0
177.603 10.7905 0
178.778 6.47769 0
180.093 8.59264 0
178.871 10.7629 0
177.557 8.64794 0
178.825 8.62036 0
180.046 6.44997 0
182.582 6.39406 0
182.677 10.6792 0
180.14 10.7352 0
181.314 6.42209 0
182.63 8.53672 0
181.408 10.7073 0
180.093 8.59264 0
181.361 8.56475 0
182.582 6.39406 0
185.118 6.33756 0
185.214 10.6227 0
182.677 10.6792 0
183.85 6.36589 0
185.166 8.4802 0
183.945 10.6511 0
182.63 8.53672 0
183.898 8.50854 0
185.118 6.33756 0
187.654 6.28045 0
187.751 10.5656 0
185.214 10.6227 0
186.386 6.30908 0
187.702 8.42308 0
186.482 10.5942 0
185.166 8.4802 0
186.434 8.45172 0
187.654 6.28045 0
190.19 6.22275 0
190.288 10.5079 0
187.751 10.5656 0
188.922 6.25168 0
190.239 8.36537 0
189.019 10.5368 0
187.702 8.42308 0
188.971 8.3943 0
190.19 6.22275 0
192.726 6.16446 0
192.825 10.4495 0
190.288 10.5079 0
191.458 6.19368 0
192.775 8.30706 0
191.556 10.4788 0
190.239 8.36537 0
191.507 8.33629 0
192.726 6.16446 0
195.262 6.10558 0
195.361 10.3906 0
192.825 10.4495 0
193.994 6.13509 0
195.312 8.24817 0
194.093 10.4202 0
192.775 8.30706 0
194.043 8.27769 0
195.262 6.10558 0
197.798 6.04612 0
197.898 10.3311 0
195.361 10.3906 0
196.53 6.07592 0
197.848 8.1887 0
196.63 10.361 0
195.312 8.24817 0
196.58 8.2185 0
197.798 6.04612 0
200.334 5.98609 0
200.435 10.2711 0
197.898 10.3311 0
199.066 6.01618 0
200.384 8.12865 0
199.167 10.3012 0
197.848 8.1887 0
199.116 8.15874 0
200.334 5.98609 0
202.87 5.92548 0
202.972 10.2105 0
200.435 10.2711 0
201.602 5.95586 0
202.921 8.06803 0
201.704 10.2408 0
200.384 8.12865 0
201.653 8.09841 0
202.87 5.92548 0
205.405 5.86431 0
205.509 10.1493 0
202.972 10.2105 0
204.138 5.89497 0
205.457 8.00684 0
204.241 10.1799 0
202.921 8.06803 0
204.189 8.03751 0
205.405 5.86431 0
207.941 5.80258 0
208.046 10.0875 0
205.509 10.1493 0
206.673 5.83352 0
207.994 7.9451 0
206.777 10.1184 0
205.457 8.00684 0
206.725 7.97604 0
207.941 5.80258 0
210.477 5.74029 0
210.583 10.0252 0
208.046 10.0875 0
209.209 5.7715 0
210.53 7.88279 0
209.314 10.0564 0
207.994 7.9451 0
209.262 7.91401 0
210.477 5.74029 0
213.013 5.67745 0
213.119 9.96231 0
210.583 10.0252 0
211.745 5.70894 0
213.066 7.81994 0
211.851 9.99381 0
210.53 7.88279 0
211.798 7.85143 0
213.013 5.67745 0
215.549 5.61406 0
215.656 9.89889 0
213.119 9.96231 0
214.281 5.64582 0
215.603 7.75653 0
214.388 9.93067 0
213.066 7.81994 0
214.335 7.7883 0
215.549 5.61406 0
218.085 5.55013 0
218.193 9.83493 0
215.656 9.89889 0
216.817 5.58216 0
218.139 7.69259 0
216.925 9.86698 0
215.603 7.75653 0
216.871 7.72463 0
218.085 5.55013 0
220.621 5.48566 0
220.73 9.77044 0
218.193 9.83493 0
219.353 5.51796 0
220.675 7.62811 0
219.462 9.80275 0
218.139 7.69259 0
219.407 7.66041 0
220.621 5.48566 0
223.157 5.42066 0
223.267 9.70541 0
220.73 9.77044 0
221.889 5.45323 0
223.212 7.56309 0
221.998 9.73799 0
220.675 7.62811 0
221.944 7.59567 0
223.157 5.42066 0
225.693 5.35513 0
225.803 9.63986 0
223.267 9.70541 0
224.425 5.38796 0
225.748 7.49755 0
224.535 9.6727 0
223.212 7.56309 0
224.48 7.53039 0
225.693 5.35513 0
228.229 5.28908 0
228.34 9.57378 0
225.803 9.63986 0
226.961 5.32217 0
228.284 7.43149 0
227.072 9.60688 0
225.748 7.49755 0
227.016 7.46458 0
228.229 5.28908 0
230.764 5.22251 0
230.877 9.50718 0
228.34 9.57378 0
229.496 5.25586 0
230.821 7.3649 0
229.609 9.54055 0
228.284 7.43149 0
229.553 7.39826 0
230.764 5.22251 0
233.3 5.15543 0
233.414 9.44008 0
230.877 9.50718 0
232.032 5.18904 0
233.357 7.29781 0
232.145 9.47369 0
230.821 7.3649 0
232.089 7.33142 0
233.3 5.15543 0
235.836 5.08784 0
235.95 9.37246 0
233.414 9.44008 0
234.568 5.1217 0
235.893 7.2302 0
234.682 9.40633 0
233.357 7.29781 0
234.625 7.26407 0
235.836 5.08784 0
238.372 5.01975 0
238.487 9.30434 0
235.95 9.37246 0
237.104 5.05386 0
238.43 7.1621 0
237.219 9.33846 0
235.893 7.2302 0
237.162 7.19621 0
238.372 5.01975 0
240.908 4.95116 0
241.024 9.23572 0
238.487 9.30434 0
239.64 4.98551 0
240.966 7.09349 0
239.756 9.27009 0
238.43 7.1621 0
239.698 7.12786 0
240.908 4.95116 0
243.444 4.88207 0
243.561 9.16661 0
241.024 9.23572 0
242.176 4.91667 0
243.502 7.02439 0
242.292 9.20123 0
240.966 7.09349 0
242.234 7.059 0
243.444 4.88207 0
245.98 4.8125 0
246.097 9.09701 0
243.561 9.16661 0
244.712 4.84734 0
246.039 6.9548 0
244.829 9.13187 0
243.502 7.02439 0
244.77 6.98966 0
245.98 4.8125 0
248.516 4.74244 0
248.634 9.02692 0
246.097 9.09701 0
247.248 4.77753 0
248.575 6.88473 0
247.366 9.06203 0
246.039 6.9548 0
247.307 6.91983 0
248.516 4.74244 0
251.052 4.6719 0
251.171 8.95636 0
248.634 9.02692 0
249.784 4.70723 0
251.111 6.81418 0
249.902 8.9917 0
248.575 6.88473 0
249.843 6.84951 0
251.052 4.6719 0
253.587 4.60089 0
253.707 8.88532 0
251.171 8.95636 0
252.319 4.63645 0
253.647 6.74315 0
252.439 8.9209 0
251.111 6.81418 0
252.379 6.77873 0
253.587 4.60089 0
256.123 4.52941 0
256.244 8.81381 0
253.707 8.88532 0
254.855 4.5652 0
256.184 6.67166 0
254.976 8.84962 0
253.647 6.74315 0
254.916 6.70746 0
256.123 4.52941 0
258.659 4.45746 0
258.781 8.74184 0
256.244 8.81381 0
257.391 4.49349 0
258.72 6.5997 0
257.512 8.77788 0
256.184 6.67166 0
257.452 6.63574 0
258.659 4.45746 0
261.195 4.38505 0
261.317 8.66941 0
258.781 8.74184 0
259.927 4.42131 0
261.256 6.52728 0
260.049 8.70568 0
258.72 6.5997 0
259.988 6.56355 0
261.195 4.38505 0
263.731 4.31219 0
263.854 8.59652 0
261.317 8.66941 0
262.463 4.34868 0
263.793 6.4544 0
262.586 8.63302 0
261.256 6.52728 0
262.524 6.4909 0
263.731 4.31219 0
266.267 4.23888 0
266.391 8.52318 0
263.854 8.59652 0
264.999 4.27559 0
266.329 6.38108 0
265.122 8.55991 0
263.793 6.4544 0
265.061 6.4178 0
266.267 4.23888 0
268.803 4.16512 0
268.927 8.4494 0
266.391 8.52318 0
267.535 4.20206 0
268.865 6.30731 0
267.659 8.48635 0
266.329 6.38108 0
267.597 6.34425 0
268.803 4.16512 0
271.339 4.09092 0
271.464 8.37518 0
268.927 8.4494 0
270.071 4.12808 0
271.401 6.2331 0
270.196 8.41234 0
268.865 6.30731 0
270.133 6.27026 0
271.339 4.09092 0
273.874 4.01629 0
274.001 8.30052 0
271.464 8.37518 0
272.606 4.05366 0
273.937 6.15845 0
272.732 8.3379 0
271.401 6.2331 0
272.669 6.19583 0
273.874 4.01629 0
276.41 3.94123 0
276.537 8.22543 0
274.001 8.30052 0
275.142 3.97881 0
276.474 6.08337 0
275.269 8.26302 0
273.937 6.15845 0
275.206 6.12096 0
276.41 3.94123 0
278.946 3.86574 0
279.074 8.14991 0
276.537 8.22543 0
277.678 3.90354 0
279.01 6.00787 0
277.805 8.18772 0
276.474 6.08337 0
277.742 6.04567 0
278.946 3.86574 0
281.482 3.78983 0
281.61 8.07397 0
279.074 8.14991 0
280.214 3.82783 0
281.546 5.93194 0
280.342 8.11199 0
279.01 6.00787 0
280.278 5.96996 0
281.482 3.78983 0
284.018 3.7135 0
284.147 7.99762 0
281.61 8.07397 0
282.75 3.75171 0
284.082 5.8556 0
282.879 8.03585 0
281.546 5.93194 0
282.814 5.89383 0
284.018 3.7135 0
286.554 3.63676 0
286.683 7.92086 0
284.147 7.99762 0
285.286 3.67518 0
286.619 5.77885 0
285.415 7.95929 0
284.082 5.8556 0
285.351 5.81728 0
286.554 3.63676 0
289.09 3.55961 0
289.22 7.84369 0
286.683 7.92086 0
287.822 3.59824 0
289.155 5.70169 0
287.952 7.88232 0
286.619 5.77885 0
287.887 5.74032 0
289.09 3.55961 0
291.626 3.48206 0
291.757 7.76611 0
289.22 7.84369 0
290.358 3.52089 0
291.691 5.62413 0
290.488 7.80495 0
289.155 5.70169 0
290.423 5.66296 0
291.626 3.48206 0
294.161 3.40412 0
294.293 7.68814 0
291.757 7.76611 0
292.893 3.44314 0
294.227 5.54617 0
293.025 7.72718 0
291.691 5.62413 0
292.959 5.5852 0
294.161 3.40412 0
296.697 3.32578 0
296.83 7.60978 0
294.293 7.68814 0
295.429 3.365 0
296.763 5.46782 0
295.561 7.64901 0
294.227 5.54617 0
295.495 5.50705 0
296.697 3.32578 0
299.233 3.24706 0
299.366 7.53103 0
296.83 7.60978 0
297.965 3.28647 0
299.3 5.38909 0
298.098 7.57046 0
296.763 5.46782 0
298.032 5.4285 0
299.233 3.24706 0
301.769 3.16795 0
301.903 7.4519 0
299.366 7.53103 0
300.501 3.20755 0
301.836 5.30997 0
300.634 7.49152 0
299.3 5.38909 0
300.568 5.34957 0
301.769 3.16795 0
304.305 3.08847 0
304.439 7.37239 0
301.903 7.4519 0
303.037 3.12826 0
304.372 5.23047 0
303.171 7.4122 0
301.836 5.30997 0
303.104 5.27027 0
304.305 3.08847 0
306.841 3.00861 0
306.976 7.29251 0
304.439 7.37239 0
305.573 3.04858 0
306.908 5.1506 0
305.707 7.3325 0
304.372 5.23047 0
305.64 5.19058 0
306.841 3.00861 0
309.377 2.92838 0
309.512 7.21226 0
306.976 7.29251 0
308.109 2.96854 0
309.444 5.07036 0
308.244 7.25243 0
306.908 5.1506 0
308.176 5.11053 0
309.377 2.92838 0
311.913 2.84779 0
312.049 7.13165 0
309.512 7.21226 0
310.645 2.88813 0
311.981 4.98976 0
310.78 7.172 0
309.444 5.07036 0
310.713 5.03011 0
311.913 2.84779 0
314.448 2.76685 0
314.585 7.05068 0
312.049 7.13165 0
313.181 2.80737 0
314.517 4.9088 0
313.317 7.09121 0
311.981 4.98976 0
313.249 4.94933 0
314.448 2.76685 0
316.984 2.68555 0
317.122 6.96936 0
314.585 7.05068 0
315.716 2.72624 0
317.053 4.82749 0
315.853 7.01006 0
314.517 4.9088 0
315.785 4.86819 0
316.984 2.68555 0
319.52 2.6039 0
319.658 6.88769 0
317.122 6.96936 0
318.252 2.64477 0
319.589 4.74583 0
318.39 6.92857 0
317.053 4.82749 0
318.321 4.7867 0
319.52 2.6039 0
322.056 2.52191 0
322.195 6.80567 0
319.658 6.88769 0
320.788 2.56294 0
322.125 4.66382 0
320.926 6.84672 0
319.589 4.74583 0
320.857 4.70487 0
322.056 2.52191 0
324.592 2.43957 0
324.731 6.72332 0
322.195 6.80567 0
323.324 2.48078 0
324.661 4.58148 0
323.463 6.76454 0
322.125 4.66382 0
323.393 4.62269 0
324.592 2.43957 0
327.128 2.35691 0
327.267 6.64063 0
324.731 6.72332 0
325.86 2.39828 0
327.198 4.4988 0
325.999 6.68201 0
324.661 4.58148 0
325.93 4.54018 0
327.128 2.35691 0
329.664 2.27391 0
329.804 6.55761 0
327.267 6.64063 0
328.396 2.31545 0
329.734 4.4158 0
328.536 6.59916 0
327.198 4.4988 0
328.466 4.45734 0
329.664 2.27391 0
332.2 2.19059 0
332.34 6.47427 0
329.804 6.55761 0
330.932 2.23229 0
332.27 4.33246 0
331.072 6.51598 0
329.734 4.4158 0
331.002 4.37417 0
332.2 2.19059 0
334.736 2.10695 0
334.877 6.39061 0
332.34 6.47427 0
333.468 2.14881 0
334.806 4.24881 0
333.609 6.43248 0
332.27 4.33246 0
333.538 4.29068 0
334.736 2.10695 0
337.271 2.023 0
337.413 6.30663 0
334.877 6.39061 0
336.003 2.06501 0
337.342 4.16485 0
336.145 6.34866 0
334.806 4.24881 0
336.074 4.20687 0
337.271 2.023 0
339.807 1.93873 0
339.95 6.22235 0
337.413 6.30663 0
338.539 1.9809 0
339.878 4.08057 0
338.681 6.26453 0
337.342 4.16485 0
338.61 4.12275 0
339.807 1.93873 0
342.343 1.85416 0
342.486 6.13775 0
339.95 6.22235 0
341.075 1.89649 0
342.415 3.99599 0
341.218 6.18009 0
339.878 4.08057 0
341.147 4.03832 0
342.343 1.85416 0
344.879 1.76929 0
345.022 6.05286 0
342.486 6.13775 0
343.611 1.81177 0
344.951 3.91111 0
343.754 6.09535 0
342.415 3.99599 0
343.683 3.95359 0
344.879 1.76929 0
347.415 1.68413 0
347.559 5.96768 0
345.022 6.05286 0
346.147 1.72675 0
347.487 3.82593 0
346.291 6.01031 0
344.951 3.91111 0
346.219 3.86856 0
347.415 1.68413 0
349.951 1.59867 0
350.095 5.8822 0
347.559 5.96768 0
348.683 1.64144 0
350.023 3.74047 0
348.827 5.92498 0
347.487 3.82593 0
348.755 3.78324 0
349.951 1.59867 0
352.487 1.51293 0
352.632 5.79644 0
350.095 5.8822 0
351.219 1.55584 0
352.559 3.65472 0
351.363 5.83936 0
350.023 3.74047 0
351.291 3.69763 0
352.487 1.51293 0
355.023 1.42691 0
355.168 5.7104 0
352.632 5.79644 0
353.755 1.46995 0
355.095 3.56868 0
353.9 5.75345 0
352.559 3.65472 0
353.827 3.61173 0
355.023 1.42691 0
357.559 1.34061 0
357.704 5.62408 0
355.168 5.7104 0
356.291 1.38379 0
357.631 3.48237 0
356.436 5.66727 0
355.095 3.56868 0
356.363 3.52556 0
357.559 1.34061 0
360.095 1.25404 0
360.241 5.53749 0
357.704 5.62408 0
358.827 1.29736 0
360.168 3.39579 0
358.972 5.58082 0
357.631 3.48237 0
358.9 3.43912 0
360.095 1.25404 0
362.63 1.1672 0
362.777 5.45063 0
360.241 5.53749 0
361.363 1.21065 0
362.704 3.30895 0
361.509 5.49409 0
360.168 3.39579 0
361.436 3.3524 0
362.63 1.1672 0
365.166 1.0801 0
365.313 5.36352 0
362.777 5.45063 0
363.898 1.12369 0
365.24 3.22184 0
364.045 5.40711 0
362.704 3.30895 0
363.972 3.26542 0
365.166 1.0801 0
367.702 0.99275 0
367.85 5.27614 0
365.313 5.36352 0
366.434 1.03646 0
367.776 3.13447 0
366.582 5.31986 0
365.24 3.22184 0
366.508 3.17819 0
367.702 0.99275 0
370.238 0.905143 0
370.386 5.18852 0
367.85 5.27614 0
368.97 0.948977 0
370.312 3.04686 0
369.118 5.23236 0
367.776 3.13447 0
369.044 3.0907 0
370.238 0.905143 0
372.774 0.817289 0
372.922 5.10064 0
370.386 5.18852 0
371.506 0.861246 0
372.848 2.95899 0
371.654 5.14461 0
370.312 3.04686 0
371.58 3.00295 0
372.774 0.817289 0
375.31 0.729193 0
375.459 5.01253 0
372.922 5.10064 0
374.042 0.773271 0
375.384 2.87089 0
374.191 5.05662 0
372.848 2.95899 0
374.116 2.91497 0
375.31 0.729193 0
377.846 0.640859 0
377.995 4.92418 0
375.459 5.01253 0
376.578 0.685055 0
377.921 2.78254 0
376.727 4.96838 0
375.384 2.87089 0
376.653 2.82674 0
377.846 0.640859 0
380.382 0.552292 0
380.531 4.83559 0
377.995 4.92418 0
379.114 0.596604 0
380.457 2.69397 0
379.263 4.87991 0
377.921 2.78254 0
379.189 2.73828 0
380.382 0.552292 0
382.918 0.463498 0
383.068 4.74678 0
380.531 4.83559 0
381.65 0.507924 0
382.993 2.60516 0
381.8 4.79122 0
380.457 2.69397 0
381.725 2.64959 0
382.918 0.463498 0
385.454 0.374481 0
385.604 4.65775 0
383.068 4.74678 0
384.186 0.419017 0
385.529 2.51614 0
384.336 4.70229 0
382.993 2.60516 0
384.261 2.56068 0
385.454 0.374481 0
387.99 0.285246 0
388.14 4.5685 0
385.604 4.65775 0
386.722 0.329891 0
388.065 2.42689 0
386.872 4.61315 0
385.529 2.51614 0
386.797 2.47154 0
387.99 0.285246 0
390.526 0.195798 0
390.677 4.47903 0
388.14 4.5685 0
389.258 0.240548 0
390.601 2.33744 0
389.409 4.52379 0
388.065 2.42689 0
389.333 2.38219 0
390.526 0.195798 0
393.062 0.106141 0
393.213 4.38936 0
390.677 4.47903 0
391.794 0.150995 0
393.137 2.24777 0
391.945 4.43422 0
390.601 2.33744 0
391.869 2.29263 0
393.062 0.106141 0
395.598 0.0162806 0
395.749 4.29948 0
393.213 4.38936 0
394.33 0.0612359 0
395.674 2.1579 0
394.481 4.34444 0
393.137 2.24777 0
394.405 2.20286 0
395.598 0.0162806 0
398.134 -0.0737786 0
398.286 4.20941 0
395.749 4.29948 0
396.866 -0.0287244 0
398.21 2.06783 0
397.018 4.25447 0
395.674 2.1579 0
396.942 2.11289 0
398.134 -0.0737786 0
400.67 -0.164032 0
400.822 4.11914 0
398.286 4.20941 0
399.402 -0.118881 0
400.746 1.97757 0
399.554 4.1643 0
398.21 2.06783 0
399.478 2.02273 0
400.67 -0.164032 0
403.206 -0.254474 0
403.358 4.02868 0
400.822 4.11914 0
401.938 -0.209229 0
403.282 1.88712 0
402.09 4.07393 0
400.746 1.97757 0
402.014 1.93237 0
403.206 -0.254474 0
405.742 -0.3451 0
405.895 3.93804 0
403.358 4.02868 0
404.474 -0.299764 0
405.818 1.79649 0
404.626 3.98338 0
403.282 1.88712 0
404.55 1.84183 0
405.742 -0.3451 0
408.278 -0.435906 0
408.431 3.84722 0
405.895 3.93804 0
407.01 -0.390481 0
408.354 1.70567 0
407.163 3.89265 0
405.818 1.79649 0
407.086 1.7511 0
408.278 -0.435906 0
410.814 -0.526886 0
410.967 3.75622 0
408.431 3.84722 0
409.546 -0.481375 0
410.89 1.61469 0
409.699 3.80174 0
408.354 1.70567 0
409.622 1.6602 0
410.814 -0.526886 0
413.35 -0.618037 0
413.503 3.66506 0
410.967 3.75622 0
412.082 -0.572441 0
413.427 1.52353 0
412.235 3.71066 0
410.89 1.61469 0
412.159 1.56913 0
413.35 -0.618037 0
415.886 -0.709352 0
416.04 3.57373 0
413.503 3.66506 0
414.618 -0.663674 0
415.963 1.43221 0
414.772 3.61941 0
413.427 1.52353 0
414.695 1.47789 0
415.886 -0.709352 0
418.422 -0.800827 0
418.576 3.48224 0
416.04 3.57373 0
417.154 -0.755069 0
418.499 1.34072 0
417.308 3.528 0
415.963 1.43221 0
417.231 1.38648 0
418.422 -0.800827 0
420.958 -0.892457 0
421.112 3.3906 0
418.576 3.48224 0
419.69 -0.846623 0
421.035 1.24909 0
419.844 3.43644 0
418.499 1.34072 0
419.767 1.29492 0
420.958 -0.892457 0
423.494 -0.984238 0
423.649 3.2988 0
421.112 3.3906 0
422.226 -0.938329 0
423.571 1.1573 0
422.38 3.34472 0
421.035 1.24909 0
422.303 1.20321 0
423.494 -0.984238 0
426.03 -1.07616 0
426.185 3.20686 0
423.649 3.2988 0
424.762 -1.03018 0
426.107 1.06536 0
424.917 3.25285 0
423.571 1.1573 0
424.839 1.11135 0
426.03 -1.07616 0
428.566 -1.16823 0
428.721 3.11478 0
426.185 3.20686 0
427.298 -1.12218 0
428.644 0.973291 0
427.453 3.16084 0
426.107 1.06536 0
427.375 1.01935 0
428.566 -1.16823 0
431.102 -1.26043 0
431.257 3.02257 0
428.721 3.11478 0
429.834 -1.21432 0
431.18 0.881082 0
429.989 3.06869 0
428.644 0.973291 0
429.912 0.927203 0
431.102 -1.26043 0
433.638 -1.35277 0
433.794 2.93022 0
431.257 3.02257 0
432.37 -1.30658 0
433.716 0.788741 0
432.526 2.97641 0
431.18 0.881082 0
432.448 0.834927 0
433.638 -1.35277 0
436.174 -1.44523 0
436.33 2.83775 0
433.794 2.93022 0
434.906 -1.39898 0
436.252 0.696275 0
435.062 2.884 0
433.716 0.788741 0
434.984 0.742523 0
436.174 -1.44523 0
438.71 -1.53781 0
438.866 2.74516 0
436.33 2.83775 0
437.442 -1.4915 0
438.788 0.603687 0
437.598 2.79147 0
436.252 0.696275 0
437.52 0.649996 0
438.71 -1.53781 0
441.246 -1.63051 0
441.403 2.65245 0
438.866 2.74516 0
439.978 -1.58414 0
441.324 0.510983 0
440.134 2.69882 0
438.788 0.603687 0
440.056 0.557349 0
441.246 -1.63051 0
443.782 -1.72332 0
443.939 2.55963 0
441.403 2.65245 0
442.514 -1.6769 0
443.861 0.418167 0
442.671 2.60605 0
441.324 0.510983 0
442.593 0.464589 0
443.782 -1.72332 0
446.319 -1.81623 0
446.475 2.4667 0
443.939 2.55963 0
445.05 -1.76976 0
446.397 0.325245 0
445.207 2.51318 0
443.861 0.418167 0
445.129 0.371719 0
446.319 -1.81623 0
448.855 -1.90925 0
449.011 2.37367 0
446.475 2.4667 0
447.587 -1.86273 0
448.933 0.23222 0
447.743 2.4202 0
446.397 0.325245 0
447.665 0.278745 0
448.855 -1.90925 0
451.391 -2.00237 0
451.548 2.28055 0
449.011 2.37367 0
450.123 -1.9558 0
451.469 0.139099 0
450.28 2.32712 0
448.933 0.23222 0
450.201 0.185671 0
451.391 -2.00237 0
453.927 -2.09558 0
454.084 2.18733 0
451.548 2.28055 0
452.659 -2.04896 0
454.005 0.0458854 0
452.816 2.23395 0
451.469 0.139099 0
452.737 0.0925034 0
453.927 -2.09558 0
456.463 -2.18887 0
456.62 2.09402 0
454.084 2.18733 0
455.195 -2.14221 0
456.542 -0.0474155 0
455.352 2.14069 0
454.005 0.0458854 0
455.274 -0.000754456 0
456.463 -2.18887 0
458.999 -2.28225 0
459.157 2.00064 0
456.62 2.09402 0
457.731 -2.23555 0
459.078 -0.140799 0
457.888 2.04734 0
456.542 -0.0474155 0
457.81 -0.0940973 0
458.999 -2.28225 0
461.535 -2.37571 0
461.693 1.90717 0
459.157 2.00064 0
460.267 -2.32897 0
461.614 -0.23426 0
460.425 1.95391 0
459.078 -0.140799 0
460.346 -0.18752 0
461.535 -2.37571 0
464.072 -2.46924 0
464.229 1.81363 0
461.693 1.90717 0
462.803 -2.42246 0
464.15 -0.327794 0
462.961 1.86041 0
461.614 -0.23426 0
462.882 -0.281018 0
464.072 -2.46924 0
466.608 -2.56283 0
466.765 1.72003 0
464.229 1.81363 0
465.34 -2.51603 0
466.687 -0.421396 0
465.497 1.76684 0
464.15 -0.327794 0
465.418 -0.374587 0
466.608 -2.56283 0
469.144 -2.65649 0
469.302 1.62636 0
466.765 1.72003 0
467.876 -2.60966 0
469.223 -0.515062 0
468.034 1.6732 0
466.687 -0.421396 0
467.955 -0.468221 0
469.144 -2.65649 0
471.68 -2.75021 0
471.838 1.53263 0
469.302 1.62636 0
470.412 -2.70335 0
471.759 -0.608785 0
470.57 1.5795 0
469.223 -0.515062 0
470.491 -0.561917 0
471.68 -2.75021 0
474.216 -2.84399 0
474.374 1.43885 0
471.838 1.53263 0
472.948 -2.79709 0
474.295 -0.702563 0
473.106 1.48575 0
471.759 -0.608785 0
473.027 -0.655668 0
474.216 -2.84399 0
476.753 -2.93781 0
476.911 1.34502 0
474.374 1.43885 0
475.484 -2.89089 0
476.832 -0.796389 0
475.643 1.39194 0
474.295 -0.702563 0
475.563 -0.74947 0
476.753 -2.93781 0
479.289 -3.03168 0
479.447 1.25115 0
476.911 1.34502 0
478.021 -2.98474 0
479.368 -0.89026 0
478.179 1.29809 0
476.832 -0.796389 0
478.1 -0.843319 0
479.289 -3.03168 0
481.825 -3.12558 0
481.983 1.15723 0
479.447 1.25115 0
480.557 -3.07862 0
481.904 -0.98417 0
480.715 1.2042 0
479.368 -0.89026 0
480.636 -0.93721 0
481.825 -3.12558 0
484.361 -3.21952 0
484.52 1.06329 0
481.983 1.15723 0
483.093 -3.17255 0
484.44 -1.07812 0
483.251 1.11026 0
481.904 -0.98417 0
483.172 -1.03114 0
484.361 -3.21952 0
486.898 -3.31349 0
487.056 0.969306 0
484.52 1.06329 0
485.629 -3.2665 0
486.977 -1.17209 0
485.788 1.0163 0
484.44 -1.07812 0
485.709 -1.1251 0
486.898 -3.31349 0
489.434 -3.40749 0
489.592 0.875302 0
487.056 0.969306 0
488.166 -3.36049 0
489.513 -1.26609 0
488.324 0.922307 0
486.977 -1.17209 0
488.245 -1.21909 0
489.434 -3.40749 0
491.97 -3.50151 0
492.129 0.781282 0
489.592 0.875302 0
490.702 -3.4545 0
492.049 -1.36012 0
490.86 0.828293 0
489.513 -1.26609 0
490.781 -1.3131 0
491.97 -3.50151 0
494.506 -3.59555 0
494.665 0.68726 0
492.129 0.781282 0
493.238 -3.54853 0
494.586 -1.45414 0
493.397 0.73427 0
492.049 -1.36012 0
493.318 -1.40713 0
494.506 -3.59555 0
497.043 -3.68959 0
497.201 0.593258 0
494.665 0.68726 0
495.775 -3.64257 0
497.122 -1.54816 0
495.933 0.640255 0
494.586 -1.45414 0
495.854 -1.50115 0
497.043 -3.68959 0
499.579 -3.78358 0
499.738 0.499308 0
497.201 0.593258 0
498.311 -3.73659 0
499.658 -1.64212 0
498.469 0.546274 0
497.122 -1.54816 0
498.39 -1.59515 0
0 12.8571 0
2.53736 12.8573 0
2.53877 17.143 0
0 17.1429 0
1.26868 12.8574 0
2.53807 15.0002 0
1.26938 17.1431 0
0 15 0
1.26903 15.0002 0
2.53736 12.8573 0
5.07467 12.8561 0
5.07759 17.1418 0
2.53877 17.143 0
3.80602 12.8568 0
5.07613 14.999 0
3.80817 17.1425 0
2.53807 15.0002 0
3.8071 14.9997 0
5.07467 12.8561 0
7.61195 12.8537 0
7.61644 17.1394 0
5.07759 17.1418 0
6.34331 12.855 0
7.6142 14.9967 0
6.34701 17.1407 0
5.07613 14.999 0
6.34516 14.998 0
7.61195 12.8537 0
10.1492 12.8504 0
10.1553 17.1361 0
7.61644 17.1394 0
8.88058 12.8522 0
10.1523 14.9933 0
8.88587 17.1379 0
7.6142 14.9967 0
8.88323 14.9951 0
10.1492 12.8504 0
12.6865 12.846 0
12.6942 17.1317 0
10.1553 17.1361 0
11.4178 12.8483 0
12.6903 14.989 0
11.4247 17.134 0
10.1523 14.9933 0
11.4213 14.9912 0
12.6865 12.846 0
15.2237 12.8407 0
15.233 17.1264 0
12.6942 17.1317 0
13.9551 12.8435 0
15.2284 14.9837 0
13.9636 17.1292 0
12.6903 14.989 0
13.9594 14.9864 0
15.2237 12.8407 0
17.761 12.8345 0
17.7719 17.1202 0
15.233 17.1264 0
16.4924 12.8377 0
17.7664 14.9774 0
16.5025 17.1234 0
15.2284 14.9837 0
16.4974 14.9807 0
17.761 12.8345 0
20.2983 12.8273 0
20.3107 17.113 0
17.7719 17.1202 0
19.0296 12.831 0
20.3045 14.9703 0
19.0413 17.1167 0
17.7664 14.9774 0
19.0355 14.974 0
20.2983 12.8273 0
22.8356 12.8193 0
22.8495 17.105 0
20.3107 17.113 0
21.5669 12.8234 0
22.8426 14.9622 0
21.5801 17.1091 0
20.3045 14.9703 0
21.5735 14.9664 0
22.8356 12.8193 0
25.3728 12.8103 0
25.3884 17.096 0
22.8495 17.105 0
24.1042 12.8149 0
25.3806 14.9533 0
24.119 17.1006 0
22.8426 14.9622 0
24.1116 14.9579 0
25.3728 12.8103 0
27.9101 12.8005 0
27.9272 17.0861 0
25.3884 17.096 0
26.6415 12.8055 0
27.9187 14.9434 0
26.6578 17.0912 0
25.3806 14.9533 0
26.6496 14.9484 0
27.9101 12.8005 0
30.4474 12.7897 0
30.466 17.0754 0
27.9272 17.0861 0
29.1788 12.7952 0
30.4567 14.9326 0
29.1966 17.0809 0
27.9187 14.9434 0
29.1877 14.9381 0
30.4474 12.7897 0
32.9847 12.778 0
33.0048 17.0637 0
30.466 17.0754 0
31.7161 12.784 0
32.9947 14.921 0
31.7354 17.0696 0
30.4567 14.9326 0
31.7257 14.9269 0
32.9847 12.778 0
35.522 12.7655 0
35.5436 17.0511 0
33.0048 17.0637 0
34.2533 12.7719 0
35.5328 14.9084 0
34.2742 17.0575 0
32.9947 14.921 0
34.2638 14.9148 0
35.522 12.7655 0
38.0593 12.7521 0
38.0823 17.0377 0
35.5436 17.0511 0
36.7906 12.7589 0
38.0708 14.895 0
36.813 17.0445 0
35.5328 14.9084 0
36.8018 14.9018 0
38.0593 12.7521 0
40.5966 12.7377 0
40.6211 17.0234 0
38.0823 17.0377 0
39.3279 12.745 0
40.6088 14.8806 0
39.3517 17.0306 0
38.0708 14.895 0
39.3398 14.8879 0
40.5966 12.7377 0
43.1338 12.7225 0
43.1599 17.0082 0
40.6211 17.0234 0
41.8652 12.7302 0
43.1469 14.8654 0
41.8905 17.0159 0
40.6088 14.8806 0
41.8778 14.8732 0
43.1338 12.7225 0
45.6711 12.7065 0
45.6986 16.9921 0
43.1599 17.0082 0
44.4025 12.7146 0
45.6849 14.8494 0
44.4293 17.0002 0
43.1469 14.8654 0
44.4159 14.8575 0
45.6711 12.7065 0
48.2084 12.6895 0
48.2374 16.9752 0
45.6986 16.9921 0
46.9398 12.6981 0
48.2229 14.8324 0
46.968 16.9837 0
45.6849 14.8494 0
46.9539 14.841 0
48.2084 12.6895 0
50.7457 12.6718 0
50.7761 16.9574 0
48.2374 16.9752 0
49.477 12.6808 0
50.7609 14.8146 0
49.5067 16.9664 0
48.2229 14.8324 0
49.4919 14.8237 0
50.7457 12.6718 0
53.283 12.6531 0
53.3148 16.9387 0
50.7761 16.9574 0
52.0143 12.6625 0
53.2989 14.796 0
52.0455 16.9481 0
50.7609 14.8146 0
52.0299 14.8054 0
53.283 12.6531 0
55.8202 12.6336 0
55.8535 16.9192 0
53.3148 16.9387 0
54.5516 12.6435 0
55.8369 14.7765 0
54.5842 16.929 0
53.2989 14.796 0
54.5679 14.7863 0
55.8202 12.6336 0
58.3575 12.6133 0
58.3922 16.8988 0
55.8535 16.9192 0
57.0889 12.6235 0
58.3749 14.7561 0
57.1229 16.9091 0
55.8369 14.7765 0
57.1059 14.7664 0
58.3575 12.6133 0
60.8948 12.5921 0
60.9309 16.8776 0
58.3922 16.8988 0
59.6262 12.6028 0
60.9129 14.7349 0
59.6616 16.8883 0
58.3749 14.7561 0
59.6439 14.7456 0
60.8948 12.5921 0
63.4321 12.57 0
63.4696 16.8556 0
60.9309 16.8776 0
62.1634 12.5812 0
63.4508 14.7129 0
62.2003 16.8667 0
60.9129 14.7349 0
62.1818 14.724 0
63.4321 12.57 0
65.9693 12.5472 0
66.0083 16.8327 0
63.4696 16.8556 0
64.7007 12.5587 0
65.9888 14.69 0
64.7389 16.8442 0
63.4508 14.7129 0
64.7198 14.7016 0
65.9693 12.5472 0
68.5066 12.5235 0
68.5469 16.809 0
66.0083 16.8327 0
67.2379 12.5354 0
68.5267 14.6663 0
67.2776 16.821 0
65.9888 14.69 0
67.2578 14.6783 0
68.5066 12.5235 0
71.0438 12.499 0
71.0856 16.7845 0
68.5469 16.809 0
69.7752 12.5113 0
71.0647 14.6418 0
69.8162 16.7968 0
68.5267 14.6663 0
69.7957 14.6542 0
71.0438 12.499 0
73.5811 12.4736 0
73.6242 16.7591 0
71.0856 16.7845 0
72.3125 12.4864 0
73.6026 14.6165 0
72.3549 16.7719 0
71.0647 14.6418 0
72.3337 14.6293 0
73.5811 12.4736 0
76.1183 12.4475 0
76.1628 16.733 0
73.6242 16.7591 0
74.8497 12.4607 0
76.1406 14.5903 0
74.8935 16.7462 0
73.6026 14.6165 0
74.8716 14.6035 0
76.1183 12.4475 0
78.6556 12.4206 0
78.7014 16.706 0
76.1628 16.733 0
77.387 12.4341 0
78.6785 14.5634 0
77.4321 16.7196 0
76.1406 14.5903 0
77.4095 14.577 0
78.6556 12.4206 0
81.1928 12.3928 0
81.24 16.6782 0
78.7014 16.706 0
79.9242 12.4068 0
81.2164 14.5356 0
79.9707 16.6922 0
78.6785 14.5634 0
79.9475 14.5496 0
81.1928 12.3928 0
83.7301 12.3642 0
83.7786 16.6497 0
81.24 16.6782 0
82.4614 12.3786 0
83.7543 14.507 0
82.5093 16.6641 0
81.2164 14.5356 0
82.4854 14.5214 0
83.7301 12.3642 0
86.2673 12.3349 0
86.3172 16.6203 0
83.7786 16.6497 0
84.9987 12.3497 0
86.2922 14.4777 0
85.0479 16.6351 0
83.7543 14.507 0
85.0233 14.4925 0
86.2673 12.3349 0
88.8045 12.3048 0
88.8557 16.5902 0
86.3172 16.6203 0
87.5359 12.3199 0
88.8301 14.4475 0
87.5864 16.6053 0
86.2922 14.4777 0
87.5612 14.4627 0
88.8045 12.3048 0
91.3417 12.2738 0
91.3942 16.5592 0
88.8557 16.5902 0
90.0731 12.2894 0
91.368 14.4166 0
90.125 16.5748 0
88.8301 14.4475 0
90.0991 14.4322 0
91.3417 12.2738 0
93.8789 12.2421 0
93.9328 16.5275 0
91.3942 16.5592 0
92.6103 12.2581 0
93.9059 14.3849 0
92.6635 16.5435 0
91.368 14.4166 0
92.6369 14.4009 0
93.8789 12.2421 0
96.4162 12.2097 0
96.4713 16.495 0
93.9328 16.5275 0
95.1476 12.226 0
96.4437 14.3524 0
95.202 16.5114 0
93.9059 14.3849 0
95.1748 14.3688 0
96.4162 12.2097 0
98.9534 12.1764 0
99.0098 16.4618 0
96.4713 16.495 0
97.6848 12.1931 0
98.9816 14.3192 0
97.7405 16.4785 0
96.4437 14.3524 0
97.7127 14.3359 0
98.9534 12.1764 0
101.491 12.1424 0
101.548 16.4277 0
99.0098 16.4618 0
100.222 12.1595 0
101.519 14.2852 0
100.279 16.4448 0
98.9816 14.3192 0
100.25 14.3023 0
101.491 12.1424 0
104.028 12.1076 0
104.087 16.3929 0
101.548 16.4277 0
102.759 12.1251 0
104.057 14.2504 0
102.818 16.4104 0
101.519 14.2852 0
102.788 14.2679 0
104.028 12.1076 0
106.565 12.0721 0
106.625 16.3574 0
104.087 16.3929 0
105.296 12.09 0
106.595 14.2148 0
105.356 16.3753 0
104.057 14.2504 0
105.326 14.2327 0
106.565 12.0721 0
109.102 12.0358 0
109.164 16.3211 0
106.625 16.3574 0
107.834 12.0541 0
109.133 14.1786 0
107.894 16.3393 0
106.595 14.2148 0
107.864 14.1968 0
109.102 12.0358 0
111.639 11.9988 0
111.702 16.2841 0
109.164 16.3211 0
110.371 12.0174 0
111.671 14.1415 0
110.433 16.3027 0
109.133 14.1786 0
110.402 14.1601 0
111.639 11.9988 0
114.176 11.9611 0
114.24 16.2463 0
111.702 16.2841 0
112.908 11.98 0
114.208 14.1038 0
112.971 16.2653 0
111.671 14.1415 0
112.94 14.1227 0
114.176 11.9611 0
116.714 11.9226 0
116.779 16.2078 0
114.24 16.2463 0
115.445 11.9419 0
116.746 14.0652 0
115.51 16.2271 0
114.208 14.1038 0
115.477 14.0846 0
116.714 11.9226 0
119.251 11.8833 0
119.317 16.1685 0
116.779 16.2078 0
117.982 11.903 0
119.284 14.026 0
118.048 16.1882 0
116.746 14.0652 0
118.015 14.0457 0
119.251 11.8833 0
121.788 11.8434 0
121.856 16.1286 0
119.317 16.1685 0
120.519 11.8634 0
121.822 13.986 0
120.586 16.1486 0
119.284 14.026 0
120.553 14.0061 0
121.788 11.8434 0
124.325 11.8027 0
124.394 16.0879 0
121.856 16.1286 0
123.056 11.8231 0
124.36 13.9454 0
123.125 16.1083 0
121.822 13.986 0
123.091 13.9658 0
124.325 11.8027 0
126.862 11.7613 0
126.932 16.0465 0
124.394 16.0879 0
125.594 11.7821 0
126.897 13.904 0
125.663 16.0672 0
124.36 13.9454 0
125.628 13.9247 0
126.862 11.7613 0
129.399 11.7192 0
129.471 16.0043 0
126.932 16.0465 0
128.131 11.7404 0
129.435 13.8618 0
128.201 16.0255 0
126.897 13.904 0
128.166 13.883 0
129.399 11.7192 0
131.936 11.6764 0
132.009 15.9615 0
129.471 16.0043 0
130.668 11.6979 0
131.973 13.819 0
130.74 15.983 0
129.435 13.8618 0
130.704 13.8405 0
131.936 11.6764 0
134.474 11.6329 0
134.547 15.918 0
132.009 15.9615 0
133.205 11.6547 0
134.51 13.7755 0
133.278 15.9398 0
131.973 13.819 0
133.242 13.7974 0
134.474 11.6329 0
137.011 11.5887 0
137.085 15.8737 0
134.547 15.918 0
135.742 11.6109 0
137.048 13.7313 0
135.816 15.8959 0
134.51 13.7755 0
135.779 13.7535 0
137.011 11.5887 0
139.548 11.5438 0
139.624 15.8288 0
137.085 15.8737 0
138.279 11.5663 0
139.586 13.6864 0
138.355 15.8514 0
137.048 13.7313 0
138.317 13.7089 0
139.548 11.5438 0
142.085 11.4982 0
142.162 15.7832 0
139.624 15.8288 0
140.816 11.5211 0
142.123 13.6408 0
140.893 15.8061 0
139.586 13.6864 0
140.855 13.6637 0
142.085 11.4982 0
144.622 11.4519 0
144.7 15.7369 0
142.162 15.7832 0
143.353 11.4751 0
144.661 13.5945 0
143.431 15.7601 0
142.123 13.6408 0
143.392 13.6177 0
144.622 11.4519 0
147.159 11.405 0
147.238 15.6899 0
144.7 15.7369 0
145.89 11.4285 0
147.199 13.5475 0
145.969 15.7135 0
144.661 13.5945 0
145.93 13.5711 0
147.159 11.405 0
149.696 11.3574 0
149.777 15.6423 0
147.238 15.6899 0
148.427 11.3812 0
149.736 13.4999 0
148.508 15.6662 0
147.199 13.5475 0
148.467 13.5238 0
149.696 11.3574 0
152.233 11.3091 0
152.315 15.594 0
149.777 15.6423 0
150.964 11.3333 0
152.274 13.4516 0
151.046 15.6182 0
149.736 13.4999 0
151.005 13.4758 0
152.233 11.3091 0
154.77 11.2601 0
154.853 15.545 0
152.315 15.594 0
153.502 11.2847 0
154.811 13.4026 0
153.584 15.5696 0
152.274 13.4516 0
153.543 13.4272 0
154.77 11.2601 0
157.307 11.2105 0
157.391 15.4954 0
154.853 15.545 0
156.039 11.2354 0
157.349 13.353 0
156.122 15.5203 0
154.811 13.4026 0
156.08 13.3779 0
157.307 11.2105 0
159.844 11.1602 0
159.929 15.4451 0
157.391 15.4954 0
158.576 11.1854 0
159.887 13.3027 0
158.66 15.4703 0
157.349 13.353 0
158.618 13.328 0
159.844 11.1602 0
162.381 11.1093 0
162.467 15.3942 0
159.929 15.4451 0
161.113 11.1349 0
162.424 13.2518 0
161.198 15.4197 0
159.887 13.3027 0
161.155 13.2774 0
162.381 11.1093 0
164.918 11.0578 0
165.005 15.3426 0
162.467 15.3942 0
163.65 11.0836 0
164.962 13.2002 0
163.736 15.3685 0
162.424 13.2518 0
163.693 13.2261 0
164.918 11.0578 0
167.455 11.0056 0
167.543 15.2904 0
165.005 15.3426 0
166.187 11.0317 0
167.499 13.148 0
166.274 15.3166 0
164.962 13.2002 0
166.231 13.1742 0
167.455 11.0056 0
169.992 10.9527 0
170.082 15.2375 0
167.543 15.2904 0
168.724 10.9792 0
170.037 13.0952 0
168.812 15.264 0
167.499 13.148 0
168.768 13.1217 0
169.992 10.9527 0
172.529 10.8993 0
172.62 15.184 0
170.082 15.2375 0
171.261 10.9261 0
172.574 13.0417 0
171.351 15.2109 0
170.037 13.0952 0
171.306 13.0685 0
172.529 10.8993 0
175.066 10.8452 0
175.158 15.1299 0
172.62 15.184 0
173.798 10.8723 0
175.112 12.9876 0
173.889 15.1571 0
172.574 13.0417 0
173.843 13.0148 0
175.066 10.8452 0
177.603 10.7905 0
177.696 15.0752 0
175.158 15.1299 0
176.335 10.8179 0
177.649 12.9329 0
176.427 15.1026 0
175.112 12.9876 0
176.381 12.9603 0
177.603 10.7905 0
180.14 10.7352 0
180.234 15.0199 0
177.696 15.0752 0
178.871 10.7629 0
180.187 12.8776 0
178.965 15.0476 0
177.649 12.9329 0
178.918 12.9053 0
180.14 10.7352 0
182.677 10.6792 0
182.772 14.9639 0
180.234 15.0199 0
181.408 10.7073 0
182.724 12.8216 0
181.503 14.992 0
180.187 12.8776 0
181.455 12.8497 0
182.677 10.6792 0
185.214 10.6227 0
185.309 14.9074 0
182.772 14.9639 0
183.945 10.6511 0
185.262 12.7651 0
184.04 14.9357 0
182.724 12.8216 0
183.993 12.7934 0
185.214 10.6227 0
187.751 10.5656 0
187.847 14.8502 0
185.309 14.9074 0
186.482 10.5942 0
187.799 12.708 0
186.578 14.8789 0
185.262 12.7651 0
186.53 12.7366 0
187.751 10.5656 0
190.288 10.5079 0
190.385 14.7925 0
187.847 14.8502 0
189.019 10.5368 0
190.336 12.6502 0
189.116 14.8214 0
187.799 12.708 0
189.068 12.6792 0
190.288 10.5079 0
192.825 10.4495 0
192.923 14.7341 0
190.385 14.7925 0
191.556 10.4788 0
192.874 12.5919 0
191.654 14.7634 0
190.336 12.6502 0
191.605 12.6211 0
192.825 10.4495 0
195.361 10.3906 0
195.461 14.6752 0
192.923 14.7341 0
194.093 10.4202 0
195.411 12.533 0
194.192 14.7047 0
192.874 12.5919 0
194.143 12.5625 0
195.361 10.3906 0
197.898 10.3311 0
197.999 14.6157 0
195.461 14.6752 0
196.63 10.361 0
197.949 12.4735 0
196.73 14.6455 0
195.411 12.533 0
196.68 12.5033 0
197.898 10.3311 0
200.435 10.2711 0
200.537 14.5556 0
197.999 14.6157 0
199.167 10.3012 0
200.486 12.4134 0
199.268 14.5857 0
197.949 12.4735 0
199.217 12.4435 0
200.435 10.2711 0
202.972 10.2105 0
203.075 14.4949 0
200.537 14.5556 0
201.704 10.2408 0
203.023 12.3528 0
201.806 14.5253 0
200.486 12.4134 0
201.755 12.3831 0
202.972 10.2105 0
205.509 10.1493 0
205.612 14.4337 0
203.075 14.4949 0
204.241 10.1799 0
205.561 12.2915 0
204.344 14.4644 0
203.023 12.3528 0
204.292 12.3222 0
205.509 10.1493 0
208.046 10.0875 0
208.15 14.3719 0
205.612 14.4337 0
206.777 10.1184 0
208.098 12.2298 0
206.881 14.4029 0
205.561 12.2915 0
206.829 12.2607 0
208.046 10.0875 0
210.583 10.0252 0
210.688 14.3096 0
208.15 14.3719 0
209.314 10.0564 0
210.635 12.1674 0
209.419 14.3408 0
208.098 12.2298 0
209.367 12.1987 0
210.583 10.0252 0
213.119 9.96231 0
213.226 14.2467 0
210.688 14.3096 0
211.851 9.99381 0
213.173 12.1046 0
211.957 14.2782 0
210.635 12.1674 0
211.904 12.1361 0
213.119 9.96231 0
215.656 9.89889 0
215.763 14.1833 0
213.226 14.2467 0
214.388 9.93067 0
215.71 12.0411 0
214.495 14.2151 0
213.173 12.1046 0
214.441 12.0729 0
215.656 9.89889 0
218.193 9.83493 0
218.301 14.1193 0
215.763 14.1833 0
216.925 9.86698 0
218.247 11.9772 0
217.032 14.1513 0
215.71 12.0411 0
216.979 12.0092 0
218.193 9.83493 0
220.73 9.77044 0
220.839 14.0548 0
218.301 14.1193 0
219.462 9.80275 0
220.784 11.9127 0
219.57 14.0871 0
218.247 11.9772 0
219.516 11.945 0
220.73 9.77044 0
223.267 9.70541 0
223.377 13.9897 0
220.839 14.0548 0
221.998 9.73799 0
223.322 11.8476 0
222.108 14.0223 0
220.784 11.9127 0
222.053 11.8802 0
223.267 9.70541 0
225.803 9.63986 0
225.914 13.9241 0
223.377 13.9897 0
224.535 9.6727 0
225.859 11.7821 0
224.645 13.957 0
223.322 11.8476 0
224.59 11.8149 0
225.803 9.63986 0
228.34 9.57378 0
228.452 13.858 0
225.914 13.9241 0
227.072 9.60688 0
228.396 11.716 0
227.183 13.8912 0
225.859 11.7821 0
227.127 11.7491 0
228.34 9.57378 0
230.877 9.50718 0
230.99 13.7914 0
228.452 13.858 0
229.609 9.54055 0
230.933 11.6494 0
229.721 13.8248 0
228.396 11.716 0
229.665 11.6827 0
230.877 9.50718 0
233.414 9.44008 0
233.527 13.7243 0
230.99 13.7914 0
232.145 9.47369 0
233.47 11.5822 0
232.258 13.7579 0
230.933 11.6494 0
232.202 11.6159 0
233.414 9.44008 0
235.95 9.37246 0
236.065 13.6566 0
233.527 13.7243 0
234.682 9.40633 0
236.008 11.5146 0
234.796 13.6905 0
233.47 11.5822 0
234.739 11.5485 0
235.95 9.37246 0
238.487 9.30434 0
238.602 13.5885 0
236.065 13.6566 0
237.219 9.33846 0
238.545 11.4465 0
237.334 13.6226 0
236.008 11.5146 0
237.276 11.4806 0
238.487 9.30434 0
241.024 9.23572 0
241.14 13.5199 0
238.602 13.5885 0
239.756 9.27009 0
241.082 11.3778 0
239.871 13.5542 0
238.545 11.4465 0
239.813 11.4122 0
241.024 9.23572 0
243.561 9.16661 0
243.677 13.4507 0
241.14 13.5199 0
242.292 9.20123 0
243.619 11.3087 0
242.409 13.4854 0
241.082 11.3778 0
242.35 11.3433 0
243.561 9.16661 0
246.097 9.09701 0
246.215 13.3811 0
243.677 13.4507 0
244.829 9.13187 0
246.156 11.2391 0
244.946 13.416 0
243.619 11.3087 0
244.888 11.274 0
246.097 9.09701 0
248.634 9.02692 0
248.752 13.311 0
246.215 13.3811 0
247.366 9.06203 0
248.693 11.169 0
247.484 13.3461 0
246.156 11.2391 0
247.425 11.2041 0
248.634 9.02692 0
251.171 8.95636 0
251.29 13.2404 0
248.752 13.311 0
249.902 8.9917 0
251.23 11.0984 0
250.021 13.2758 0
248.693 11.169 0
249.962 11.1338 0
251.171 8.95636 0
253.707 8.88532 0
253.827 13.1694 0
251.29 13.2404 0
252.439 8.9209 0
253.767 11.0274 0
252.559 13.2049 0
251.23 11.0984 0
252.499 11.063 0
253.707 8.88532 0
256.244 8.81381 0
256.365 13.0978 0
253.827 13.1694 0
254.976 8.84962 0
256.305 10.9559 0
255.096 13.1336 0
253.767 11.0274 0
255.036 10.9917 0
256.244 8.81381 0
258.781 8.74184 0
258.902 13.0258 0
256.365 13.0978 0
257.512 8.77788 0
258.842 10.8839 0
257.634 13.0619 0
256.305 10.9559 0
257.573 10.9199 0
258.781 8.74184 0
261.317 8.66941 0
261.44 12.9534 0
258.902 13.0258 0
260.049 8.70568 0
261.379 10.8114 0
260.171 12.9897 0
258.842 10.8839 0
260.11 10.8477 0
261.317 8.66941 0
263.854 8.59652 0
263.977 12.8805 0
261.44 12.9534 0
262.586 8.63302 0
263.916 10.7385 0
262.708 12.917 0
261.379 10.8114 0
262.647 10.775 0
263.854 8.59652 0
266.391 8.52318 0
266.515 12.8071 0
263.977 12.8805 0
265.122 8.55991 0
266.453 10.6652 0
265.246 12.8438 0
263.916 10.7385 0
265.184 10.7019 0
266.391 8.52318 0
268.927 8.4494 0
269.052 12.7333 0
266.515 12.8071 0
267.659 8.48635 0
268.99 10.5914 0
267.783 12.7703 0
266.453 10.6652 0
267.721 10.6283 0
268.927 8.4494 0
271.464 8.37518 0
271.589 12.6591 0
269.052 12.7333 0
270.196 8.41234 0
271.527 10.5172 0
270.321 12.6962 0
268.99 10.5914 0
270.258 10.5543 0
271.464 8.37518 0
274.001 8.30052 0
274.127 12.5844 0
271.589 12.6591 0
272.732 8.3379 0
274.064 10.4425 0
272.858 12.6218 0
271.527 10.5172 0
272.795 10.4799 0
274.001 8.30052 0
276.537 8.22543 0
276.664 12.5093 0
274.127 12.5844 0
275.269 8.26302 0
276.601 10.3674 0
275.395 12.5469 0
274.064 10.4425 0
275.332 10.405 0
276.537 8.22543 0
279.074 8.14991 0
279.201 12.4337 0
276.664 12.5093 0
277.805 8.18772 0
279.137 10.2919 0
277.933 12.4715 0
276.601 10.3674 0
277.869 10.3297 0
279.074 8.14991 0
281.61 8.07397 0
281.739 12.3578 0
279.201 12.4337 0
280.342 8.11199 0
281.674 10.2159 0
280.47 12.3958 0
279.137 10.2919 0
280.406 10.2539 0
281.61 8.07397 0
284.147 7.99762 0
284.276 12.2814 0
281.739 12.3578 0
282.879 8.03585 0
284.211 10.1396 0
283.007 12.3196 0
281.674 10.2159 0
282.943 10.1778 0
284.147 7.99762 0
286.683 7.92086 0
286.813 12.2046 0
284.276 12.2814 0
285.415 7.95929 0
286.748 10.0628 0
285.544 12.2431 0
284.211 10.1396 0
285.48 10.1012 0
286.683 7.92086 0
289.22 7.84369 0
289.35 12.1274 0
286.813 12.2046 0
287.952 7.88232 0
289.285 9.98559 0
288.082 12.1661 0
286.748 10.0628 0
288.017 10.0242 0
289.22 7.84369 0
291.757 7.76611 0
291.888 12.0498 0
289.35 12.1274 0
290.488 7.80495 0
291.822 9.90801 0
290.619 12.0887 0
289.285 9.98559 0
290.554 9.94685 0
291.757 7.76611 0
294.293 7.68814 0
294.425 11.9718 0
291.888 12.0498 0
293.025 7.72718 0
294.359 9.83003 0
293.156 12.0109 0
291.822 9.90801 0
293.09 9.86907 0
294.293 7.68814 0
296.83 7.60978 0
296.962 11.8935 0
294.425 11.9718 0
295.561 7.64901 0
296.896 9.75166 0
295.693 11.9327 0
294.359 9.83003 0
295.627 9.79089 0
296.83 7.60978 0
299.366 7.53103 0
299.499 11.8147 0
296.962 11.8935 0
298.098 7.57046 0
299.433 9.6729 0
298.231 11.8541 0
296.896 9.75166 0
298.164 9.71233 0
299.366 7.53103 0
301.903 7.4519 0
302.036 11.7355 0
299.499 11.8147 0
300.634 7.49152 0
301.969 9.59376 0
300.768 11.7752 0
299.433 9.6729 0
300.701 9.63338 0
301.903 7.4519 0
304.439 7.37239 0
304.573 11.656 0
302.036 11.7355 0
303.171 7.4122 0
304.506 9.51424 0
303.305 11.6958 0
301.969 9.59376 0
303.238 9.55405 0
304.439 7.37239 0
306.976 7.29251 0
307.111 11.5761 0
304.573 11.656 0
305.707 7.3325 0
307.043 9.43435 0
305.842 11.6161 0
304.506 9.51424 0
305.775 9.47434 0
306.976 7.29251 0
309.512 7.21226 0
309.648 11.4958 0
307.111 11.5761 0
308.244 7.25243 0
309.58 9.35409 0
308.379 11.536 0
307.043 9.43435 0
308.312 9.39426 0
309.512 7.21226 0
312.049 7.13165 0
312.185 11.4152 0
309.648 11.4958 0
310.78 7.172 0
312.117 9.27347 0
310.916 11.4556 0
309.58 9.35409 0
310.848 9.31382 0
312.049 7.13165 0
314.585 7.05068 0
314.722 11.3342 0
312.185 11.4152 0
313.317 7.09121 0
314.653 9.19249 0
313.453 11.3748 0
312.117 9.27347 0
313.385 9.23302 0
314.585 7.05068 0
317.122 6.96936 0
317.259 11.2529 0
314.722 11.3342 0
315.853 7.01006 0
317.19 9.11115 0
315.99 11.2936 0
314.653 9.19249 0
315.922 9.15186 0
317.122 6.96936 0
319.658 6.88769 0
319.796 11.1712 0
317.259 11.2529 0
318.39 6.92857 0
319.727 9.02947 0
318.527 11.2121 0
317.19 9.11115 0
318.459 9.07035 0
319.658 6.88769 0
322.195 6.80567 0
322.333 11.0891 0
319.796 11.1712 0
320.926 6.84672 0
322.264 8.94744 0
321.064 11.1302 0
319.727 9.02947 0
320.995 8.9885 0
322.195 6.80567 0
324.731 6.72332 0
324.87 11.0068 0
322.333 11.0891 0
323.463 6.76454 0
324.8 8.86508 0
323.601 11.048 0
322.264 8.94744 0
323.532 8.9063 0
324.731 6.72332 0
327.267 6.64063 0
327.407 10.9241 0
324.87 11.0068 0
325.999 6.68201 0
327.337 8.78238 0
326.138 10.9655 0
324.8 8.86508 0
326.069 8.82377 0
327.267 6.64063 0
329.804 6.55761 0
329.944 10.841 0
327.407 10.9241 0
328.536 6.59916 0
329.874 8.69936 0
328.675 10.8826 0
327.337 8.78238 0
328.606 8.74091 0
329.804 6.55761 0
332.34 6.47427 0
332.481 10.7577 0
329.944 10.841 0
331.072 6.51598 0
332.411 8.616 0
331.212 10.7994 0
329.874 8.69936 0
331.142 8.65772 0
332.34 6.47427 0
334.877 6.39061 0
335.018 10.674 0
332.481 10.7577 0
333.609 6.43248 0
334.947 8.53233 0
333.749 10.7159 0
332.411 8.616 0
333.679 8.57421 0
334.877 6.39061 0
337.413 6.30663 0
337.555 10.59 0
335.018 10.674 0
336.145 6.34866 0
337.484 8.44835 0
336.286 10.632 0
334.947 8.53233 0
336.216 8.49038 0
337.413 6.30663 0
339.95 6.22235 0
340.092 10.5057 0
337.555 10.59 0
338.681 6.26453 0
340.021 8.36405 0
338.823 10.5479 0
337.484 8.44835 0
338.752 8.40624 0
339.95 6.22235 0
342.486 6.13775 0
342.629 10.4211 0
340.092 10.5057 0
341.218 6.18009 0
342.557 8.27945 0
341.36 10.4634 0
340.021 8.36405 0
341.289 8.32179 0
342.486 6.13775 0
345.022 6.05286 0
345.166 10.3362 0
342.629 10.4211 0
343.754 6.09535 0
345.094 8.19455 0
343.897 10.3787 0
342.557 8.27945 0
343.826 8.23704 0
345.022 6.05286 0
347.559 5.96768 0
347.703 10.251 0
345.166 10.3362 0
346.291 6.01031 0
347.631 8.10936 0
346.434 10.2936 0
345.094 8.19455 0
346.362 8.15199 0
347.559 5.96768 0
350.095 5.8822 0
350.239 10.1655 0
347.703 10.251 0
348.827 5.92498 0
350.167 8.02387 0
348.971 10.2083 0
347.631 8.10936 0
348.899 8.06665 0
350.095 5.8822 0
352.632 5.79644 0
352.776 10.0797 0
350.239 10.1655 0
351.363 5.83936 0
352.704 7.9381 0
351.508 10.1226 0
350.167 8.02387 0
351.436 7.98102 0
352.632 5.79644 0
355.168 5.7104 0
355.313 9.99365 0
352.776 10.0797 0
353.9 5.75345 0
355.241 7.85205 0
354.045 10.0367 0
352.704 7.9381 0
353.972 7.89511 0
355.168 5.7104 0
357.704 5.62408 0
357.85 9.90732 0
355.313 9.99365 0
356.436 5.66727 0
357.777 7.76573 0
356.582 9.95052 0
355.241 7.85205 0
356.509 7.80892 0
357.704 5.62408 0
360.241 5.53749 0
360.387 9.82071 0
357.85 9.90732 0
358.972 5.58082 0
360.314 7.67913 0
359.118 9.86405 0
357.777 7.76573 0
359.045 7.72246 0
360.241 5.53749 0
362.777 5.45063 0
362.924 9.73384 0
360.387 9.82071 0
361.509 5.49409 0
362.85 7.59226 0
361.655 9.77731 0
360.314 7.67913 0
361.582 7.63573 0
362.777 5.45063 0
365.313 5.36352 0
365.46 9.64671 0
362.924 9.73384 0
364.045 5.40711 0
365.387 7.50514 0
364.192 9.69031 0
362.85 7.59226 0
364.119 7.54873 0
365.313 5.36352 0
367.85 5.27614 0
367.997 9.55932 0
365.46 9.64671 0
366.582 5.31986 0
367.923 7.41776 0
366.729 9.60304 0
365.387 7.50514 0
366.655 7.46148 0
367.85 5.27614 0
370.386 5.18852 0
370.534 9.47168 0
367.997 9.55932 0
369.118 5.23236 0
370.46 7.33012 0
369.266 9.51553 0
367.923 7.41776 0
369.192 7.37397 0
370.386 5.18852 0
372.922 5.10064 0
373.071 9.38379 0
370.534 9.47168 0
371.654 5.14461 0
372.997 7.24224 0
371.802 9.42777 0
370.46 7.33012 0
371.728 7.28621 0
372.922 5.10064 0
375.459 5.01253 0
375.607 9.29566 0
373.071 9.38379 0
374.191 5.05662 0
375.533 7.15412 0
374.339 9.33976 0
372.997 7.24224 0
374.265 7.19821 0
375.459 5.01253 0
377.995 4.92418 0
378.144 9.2073 0
375.607 9.29566 0
376.727 4.96838 0
378.07 7.06576 0
376.876 9.25151 0
375.533 7.15412 0
376.801 7.10997 0
377.995 4.92418 0
380.531 4.83559 0
380.681 9.1187 0
378.144 9.2073 0
379.263 4.87991 0
380.606 6.97717 0
379.413 9.16303 0
378.07 7.06576 0
379.338 7.0215 0
380.531 4.83559 0
383.068 4.74678 0
383.218 9.02988 0
380.681 9.1187 0
381.8 4.79122 0
383.143 6.88835 0
381.949 9.07432 0
380.606 6.97717 0
381.874 6.93279 0
383.068 4.74678 0
385.604 4.65775 0
385.754 8.94083 0
383.218 9.02988 0
384.336 4.70229 0
385.679 6.79931 0
384.486 8.98538 0
383.143 6.88835 0
384.411 6.84386 0
385.604 4.65775 0
388.14 4.5685 0
388.291 8.85156 0
385.754 8.94083 0
386.872 4.61315 0
388.216 6.71005 0
387.023 8.89622 0
385.679 6.79931 0
386.947 6.75471 0
388.14 4.5685 0
390.677 4.47903 0
390.828 8.76209 0
388.291 8.85156 0
389.409 4.52379 0
390.752 6.62058 0
389.559 8.80685 0
388.216 6.71005 0
389.484 6.66534 0
390.677 4.47903 0
393.213 4.38936 0
393.364 8.6724 0
390.828 8.76209 0
391.945 4.43422 0
393.289 6.5309 0
392.096 8.71727 0
390.752 6.62058 0
392.02 6.57577 0
393.213 4.38936 0
395.749 4.29948 0
395.901 8.58251 0
393.364 8.6724 0
394.481 4.34444 0
395.825 6.44102 0
394.633 8.62748 0
393.289 6.5309 0
394.557 6.48598 0
395.749 4.29948 0
398.286 4.20941 0
398.438 8.49243 0
395.901 8.58251 0
397.018 4.25447 0
398.362 6.35094 0
397.169 8.53749 0
395.825 6.44102 0
397.093 6.396 0
398.286 4.20941 0
400.822 4.11914 0
400.974 8.40215 0
398.438 8.49243 0
399.554 4.1643 0
400.898 6.26066 0
399.706 8.44731 0
398.362 6.35094 0
399.63 6.30582 0
400.822 4.11914 0
403.358 4.02868 0
403.511 8.31168 0
400.974 8.40215 0
402.09 4.07393 0
403.435 6.1702 0
402.243 8.35694 0
400.898 6.26066 0
402.166 6.21545 0
403.358 4.02868 0
405.895 3.93804 0
406.047 8.22103 0
403.511 8.31168 0
404.626 3.98338 0
405.971 6.07955 0
404.779 8.26637 0
403.435 6.1702 0
404.703 6.1249 0
405.895 3.93804 0
408.431 3.84722 0
408.584 8.13019 0
406.047 8.22103 0
407.163 3.89265 0
408.507 5.98872 0
407.316 8.17563 0
405.971 6.07955 0
407.239 6.03416 0
408.431 3.84722 0
410.967 3.75622 0
411.121 8.03919 0
408.584 8.13019 0
409.699 3.80174 0
411.044 5.89772 0
409.852 8.08471 0
408.507 5.98872 0
409.776 5.94325 0
410.967 3.75622 0
413.503 3.66506 0
413.657 7.94801 0
411.121 8.03919 0
412.235 3.71066 0
413.58 5.80655 0
412.389 7.99362 0
411.044 5.89772 0
412.312 5.85216 0
413.503 3.66506 0
416.04 3.57373 0
416.194 7.85668 0
413.657 7.94801 0
414.772 3.61941 0
416.117 5.71522 0
414.925 7.90236 0
413.58 5.80655 0
414.849 5.76091 0
416.04 3.57373 0
418.576 3.48224 0
418.73 7.76518 0
416.194 7.85668 0
417.308 3.528 0
418.653 5.62373 0
417.462 7.81095 0
416.117 5.71522 0
417.385 5.66949 0
418.576 3.48224 0
421.112 3.3906 0
421.267 7.67352 0
418.73 7.76518 0
419.844 3.43644 0
421.19 5.53208 0
419.999 7.71937 0
418.653 5.62373 0
419.921 5.57792 0
421.112 3.3906 0
423.649 3.2988 0
423.803 7.58172 0
421.267 7.67352 0
422.38 3.34472 0
423.726 5.44028 0
422.535 7.62764 0
421.19 5.53208 0
422.458 5.4862 0
423.649 3.2988 0
426.185 3.20686 0
426.34 7.48977 0
423.803 7.58172 0
424.917 3.25285 0
426.262 5.34833 0
425.072 7.53577 0
423.726 5.44028 0
424.994 5.39432 0
426.185 3.20686 0
428.721 3.11478 0
428.876 7.39769 0
426.34 7.48977 0
427.453 3.16084 0
428.799 5.25625 0
427.608 7.44375 0
426.262 5.34833 0
427.531 5.30231 0
428.721 3.11478 0
431.257 3.02257 0
431.413 7.30546 0
428.876 7.39769 0
429.989 3.06869 0
431.335 5.16403 0
430.145 7.35159 0
428.799 5.25625 0
430.067 5.21016 0
431.257 3.02257 0
433.794 2.93022 0
433.949 7.21311 0
431.413 7.30546 0
432.526 2.97641 0
433.872 5.07168 0
432.681 7.2593 0
431.335 5.16403 0
432.603 5.11787 0
433.794 2.93022 0
436.33 2.83775 0
436.486 7.12063 0
433.949 7.21311 0
435.062 2.884 0
436.408 4.9792 0
435.218 7.16688 0
433.872 5.07168 0
435.14 5.02546 0
436.33 2.83775 0
438.866 2.74516 0
439.022 7.02803 0
436.486 7.12063 0
437.598 2.79147 0
438.944 4.88661 0
437.754 7.07434 0
436.408 4.9792 0
437.676 4.93292 0
438.866 2.74516 0
441.403 2.65245 0
441.559 6.93531 0
439.022 7.02803 0
440.134 2.69882 0
441.481 4.79389 0
440.291 6.98168 0
438.944 4.88661 0
440.213 4.84026 0
441.403 2.65245 0
443.939 2.55963 0
444.095 6.84249 0
441.559 6.93531 0
442.671 2.60605 0
444.017 4.70107 0
442.827 6.88891 0
441.481 4.79389 0
442.749 4.74749 0
443.939 2.55963 0
446.475 2.4667 0
446.632 6.74955 0
444.095 6.84249 0
445.207 2.51318 0
446.554 4.60814 0
445.364 6.79603 0
444.017 4.70107 0
445.285 4.65462 0
446.475 2.4667 0
449.011 2.37367 0
449.168 6.65652 0
446.632 6.74955 0
447.743 2.4202 0
449.09 4.51511 0
447.9 6.70305 0
446.554 4.60814 0
447.822 4.56163 0
449.011 2.37367 0
451.548 2.28055 0
451.705 6.56338 0
449.168 6.65652 0
450.28 2.32712 0
451.626 4.42198 0
450.437 6.60996 0
449.09 4.51511 0
450.358 4.46855 0
451.548 2.28055 0
454.084 2.18733 0
454.241 6.47016 0
451.705 6.56338 0
452.816 2.23395 0
454.163 4.32875 0
452.973 6.51678 0
451.626 4.42198 0
452.894 4.37538 0
454.084 2.18733 0
456.62 2.09402 0
456.778 6.37685 0
454.241 6.47016 0
455.352 2.14069 0
456.699 4.23545 0
455.509 6.42352 0
454.163 4.32875 0
455.431 4.28211 0
456.62 2.09402 0
459.157 2.00064 0
459.314 6.28346 0
456.778 6.37685 0
457.888 2.04734 0
459.235 4.14206 0
458.046 6.33016 0
456.699 4.23545 0
457.967 4.18876 0
459.157 2.00064 0
461.693 1.90717 0
461.85 6.18999 0
459.314 6.28346 0
460.425 1.95391 0
461.772 4.04859 0
460.582 6.23673 0
459.235 4.14206 0
460.503 4.09533 0
461.693 1.90717 0
464.229 1.81363 0
464.387 6.09645 0
461.85 6.18999 0
462.961 1.86041 0
464.308 3.95505 0
463.119 6.14323 0
461.772 4.04859 0
463.04 4.00183 0
464.229 1.81363 0
466.765 1.72003 0
466.923 6.00284 0
464.387 6.09645 0
465.497 1.76684 0
466.844 3.86144 0
465.655 6.04965 0
464.308 3.95505 0
465.576 3.90825 0
466.765 1.72003 0
469.302 1.62636 0
469.46 5.90916 0
466.923 6.00284 0
468.034 1.6732 0
469.381 3.76777 0
468.191 5.95601 0
466.844 3.86144 0
468.113 3.81461 0
469.302 1.62636 0
471.838 1.53263 0
471.996 5.81543 0
469.46 5.90916 0
470.57 1.5795 0
471.917 3.67404 0
470.728 5.86231 0
469.381 3.76777 0
470.649 3.72091 0
471.838 1.53263 0
474.374 1.43885 0
474.532 5.72165 0
471.996 5.81543 0
473.106 1.48575 0
474.453 3.58026 0
473.264 5.76855 0
471.917 3.67404 0
473.185 3.62715 0
474.374 1.43885 0
476.911 1.34502 0
477.069 5.62782 0
474.532 5.72165 0
475.643 1.39194 0
476.99 3.48642 0
475.801 5.67474 0
474.453 3.58026 0
475.722 3.53335 0
476.911 1.34502 0
479.447 1.25115 0
479.605 5.53394 0
477.069 5.62782 0
478.179 1.29809 0
479.526 3.39255 0
478.337 5.58089 0
476.99 3.48642 0
478.258 3.43949 0
479.447 1.25115 0
481.983 1.15723 0
482.142 5.44003 0
479.605 5.53394 0
480.715 1.2042 0
482.062 3.29863 0
480.873 5.48699 0
479.526 3.39255 0
480.794 3.3456 0
481.983 1.15723 0
484.52 1.06329 0
484.678 5.34608 0
482.142 5.44003 0
483.251 1.11026 0
484.599 3.20468 0
483.41 5.39305 0
482.062 3.29863 0
483.331 3.25166 0
484.52 1.06329 0
487.056 0.969306 0
487.214 5.25209 0
484.678 5.34608 0
485.788 1.0163 0
487.135 3.1107 0
485.946 5.29909 0
484.599 3.20468 0
485.867 3.1577 0
487.056 0.969306 0
489.592 0.875302 0
489.751 5.15809 0
487.214 5.25209 0
488.324 0.922307 0
489.671 3.0167 0
488.482 5.20509 0
487.135 3.1107 0
488.403 3.0637 0
489.592 0.875302 0
492.129 0.781282 0
492.287 5.06407 0
489.751 5.15809 0
490.86 0.828293 0
492.208 2.92268 0
491.019 5.11108 0
489.671 3.0167 0
490.94 2.96969 0
492.129 0.781282 0
494.665 0.68726 0
494.823 4.97005 0
492.287 5.06407 0
493.397 0.73427 0
494.744 2.82866 0
493.555 5.01706 0
492.208 2.92268 0
493.476 2.87567 0
494.665 0.68726 0
497.201 0.593258 0
497.36 4.87604 0
494.823 4.97005 0
495.933 0.640255 0
497.28 2.73466 0
496.091 4.92304 0
494.744 2.82866 0
496.012 2.78165 0
497.201 0.593258 0
499.738 0.499308 0
499.896 4.78209 0
497.36 4.87604 0
498.469 0.546274 0
499.817 2.64071 0
498.628 4.82906 0
497.28 2.73466 0
498.549 2.68768 0
0 17.1429 0
2.53877 17.143 0
2.5402 21.4283 0
0 21.4286 0
1.26938 17.1431 0
2.53948 19.2857 0
1.27007 21.4286 0
0 19.2857 0
1.26972 19.2859 0
2.53877 17.143 0
5.07759 17.1418 0
5.08056 21.4269 0
2.5402 21.4283 0
3.80817 17.1425 0
5.07906 19.2844 0
3.81036 21.4278 0
2.53948 19.2857 0
3.80926 19.2852 0
5.07759 17.1418 0
7.61644 17.1394 0
7.62101 21.4244 0
5.08056 21.4269 0
6.34701 17.1407 0
7.61871 19.282 0
6.35078 21.4258 0
5.07906 19.2844 0
6.34888 19.2834 0
7.61644 17.1394 0
10.1553 17.1361 0
10.1615 21.421 0
7.62101 21.4244 0
8.88587 17.1379 0
10.1584 19.2786 0
8.89125 21.4228 0
7.61871 19.282 0
8.88854 19.2804 0
10.1553 17.1361 0
12.6942 17.1317 0
12.7019 21.4166 0
10.1615 21.421 0
11.4247 17.134 0
12.698 19.2742 0
11.4317 21.4189 0
10.1584 19.2786 0
11.4282 19.2765 0
12.6942 17.1317 0
15.233 17.1264 0
15.2424 21.4113 0
12.7019 21.4166 0
13.9636 17.1292 0
15.2377 19.2689 0
13.9722 21.4141 0
12.698 19.2742 0
13.9679 19.2717 0
15.233 17.1264 0
17.7719 17.1202 0
17.7828 21.4051 0
15.2424 21.4113 0
16.5025 17.1234 0
17.7773 19.2627 0
16.5126 21.4083 0
15.2377 19.2689 0
16.5075 19.2659 0
17.7719 17.1202 0
20.3107 17.113 0
20.3232 21.3979 0
17.7828 21.4051 0
19.0413 17.1167 0
20.3169 19.2556 0
19.053 21.4016 0
17.7773 19.2627 0
19.0471 19.2593 0
20.3107 17.113 0
22.8495 17.105 0
22.8636 21.3899 0
20.3232 21.3979 0
21.5801 17.1091 0
22.8565 19.2475 0
21.5934 21.394 0
20.3169 19.2556 0
21.5867 19.2517 0
22.8495 17.105 0
25.3884 17.096 0
25.4039 21.3809 0
22.8636 21.3899 0
24.119 17.1006 0
25.3961 19.2386 0
24.1337 21.3855 0
22.8565 19.2475 0
24.1263 19.2431 0
25.3884 17.096 0
27.9272 17.0861 0
27.9443 21.371 0
25.4039 21.3809 0
26.6578 17.0912 0
27.9357 19.2287 0
26.6741 21.3761 0
25.3961 19.2386 0
26.6659 19.2337 0
27.9272 17.0861 0
30.466 17.0754 0
30.4846 21.3603 0
27.9443 21.371 0
29.1966 17.0809 0
30.4753 19.2179 0
29.2144 21.3658 0
27.9357 19.2287 0
29.2055 19.2234 0
30.466 17.0754 0
33.0048 17.0637 0
33.0249 21.3486 0
30.4846 21.3603 0
31.7354 17.0696 0
33.0148 19.2062 0
31.7547 21.3545 0
30.4753 19.2179 0
31.7451 19.2122 0
33.0048 17.0637 0
35.5436 17.0511 0
35.5652 21.336 0
33.0249 21.3486 0
34.2742 17.0575 0
35.5544 19.1937 0
34.295 21.3424 0
33.0148 19.2062 0
34.2846 19.2001 0
35.5436 17.0511 0
38.0823 17.0377 0
38.1054 21.3226 0
35.5652 21.336 0
36.813 17.0445 0
38.0939 19.1802 0
36.8353 21.3294 0
35.5544 19.1937 0
36.8241 19.1871 0
38.0823 17.0377 0
40.6211 17.0234 0
40.6457 21.3083 0
38.1054 21.3226 0
39.3517 17.0306 0
40.6334 19.1659 0
39.3756 21.3155 0
38.0939 19.1802 0
39.3636 19.1732 0
40.6211 17.0234 0
43.1599 17.0082 0
43.1859 21.2931 0
40.6457 21.3083 0
41.8905 17.0159 0
43.1729 19.1507 0
41.9158 21.3008 0
40.6334 19.1659 0
41.9031 19.1584 0
43.1599 17.0082 0
45.6986 16.9921 0
45.7261 21.277 0
43.1859 21.2931 0
44.4293 17.0002 0
45.7124 19.1346 0
44.456 21.2851 0
43.1729 19.1507 0
44.4426 19.1428 0
45.6986 16.9921 0
48.2374 16.9752 0
48.2663 21.26 0
45.7261 21.277 0
46.968 16.9837 0
48.2518 19.1177 0
46.9962 21.2686 0
45.7124 19.1346 0
46.9821 19.1263 0
48.2374 16.9752 0
50.7761 16.9574 0
50.8065 21.2422 0
48.2663 21.26 0
49.5067 16.9664 0
50.7913 19.0999 0
49.5364 21.2512 0
48.2518 19.1177 0
49.5216 19.1089 0
50.7761 16.9574 0
53.3148 16.9387 0
53.3467 21.2236 0
50.8065 21.2422 0
52.0455 16.9481 0
53.3307 19.0812 0
52.0766 21.233 0
50.7913 19.0999 0
52.061 19.0907 0
53.3148 16.9387 0
55.8535 16.9192 0
55.8868 21.204 0
53.3467 21.2236 0
54.5842 16.929 0
55.8702 19.0617 0
54.6168 21.2139 0
53.3307 19.0812 0
54.6005 19.0716 0
55.8535 16.9192 0
58.3922 16.8988 0
58.427 21.1837 0
55.8868 21.204 0
57.1229 16.9091 0
58.4096 19.0413 0
57.1569 21.194 0
55.8702 19.0617 0
57.1399 19.0516 0
58.3922 16.8988 0
60.9309 16.8776 0
60.9671 21.1625 0
58.427 21.1837 0
59.6616 16.8883 0
60.949 19.0201 0
59.697 21.1732 0
58.4096 19.0413 0
59.6793 19.0308 0
60.9309 16.8776 0
63.4696 16.8556 0
63.5072 21.1404 0
60.9671 21.1625 0
62.2003 16.8667 0
63.4884 18.9981 0
62.2371 21.1515 0
60.949 19.0201 0
62.2187 19.0092 0
63.4696 16.8556 0
66.0083 16.8327 0
66.0472 21.1175 0
63.5072 21.1404 0
64.7389 16.8442 0
66.0277 18.9752 0
64.7772 21.1291 0
63.4884 18.9981 0
64.7581 18.9868 0
66.0083 16.8327 0
68.5469 16.809 0
68.5873 21.0938 0
66.0472 21.1175 0
67.2776 16.821 0
68.5671 18.9515 0
67.3173 21.1058 0
66.0277 18.9752 0
67.2974 18.9635 0
68.5469 16.809 0
71.0856 16.7845 0
71.1273 21.0693 0
68.5873 21.0938 0
69.8162 16.7968 0
71.1064 18.927 0
69.8573 21.0817 0
68.5671 18.9515 0
69.8368 18.9393 0
71.0856 16.7845 0
73.6242 16.7591 0
73.6673 21.0439 0
71.1273 21.0693 0
72.3549 16.7719 0
73.6457 18.9016 0
72.3973 21.0567 0
71.1064 18.927 0
72.3761 18.9144 0
73.6242 16.7591 0
76.1628 16.733 0
76.2073 21.0178 0
73.6673 21.0439 0
74.8935 16.7462 0
76.185 18.8755 0
74.9373 21.031 0
73.6457 18.9016 0
74.9154 18.8886 0
76.1628 16.733 0
78.7014 16.706 0
78.7473 20.9908 0
76.2073 21.0178 0
77.4321 16.7196 0
78.7243 18.8485 0
77.4773 21.0044 0
76.185 18.8755 0
77.4547 18.8621 0
78.7014 16.706 0
81.24 16.6782 0
81.2872 20.963 0
78.7473 20.9908 0
79.9707 16.6922 0
81.2636 18.8207 0
80.0172 20.977 0
78.7243 18.8485 0
79.994 18.8347 0
81.24 16.6782 0
83.7786 16.6497 0
83.8271 20.9344 0
81.2872 20.963 0
82.5093 16.6641 0
83.8029 18.7921 0
82.5572 20.9488 0
81.2636 18.8207 0
82.5332 18.8065 0
83.7786 16.6497 0
86.3172 16.6203 0
86.367 20.9051 0
83.8271 20.9344 0
85.0479 16.6351 0
86.3421 18.7628 0
85.0971 20.9198 0
83.8029 18.7921 0
85.0725 18.7776 0
86.3172 16.6203 0
88.8557 16.5902 0
88.9069 20.8749 0
86.367 20.9051 0
87.5864 16.6053 0
88.8813 18.7326 0
87.637 20.8901 0
86.3421 18.7628 0
87.6117 18.7478 0
88.8557 16.5902 0
91.3942 16.5592 0
91.4468 20.8439 0
88.9069 20.8749 0
90.125 16.5748 0
91.4205 18.7017 0
90.1769 20.8595 0
88.8813 18.7326 0
90.1509 18.7172 0
91.3942 16.5592 0
93.9328 16.5275 0
93.9866 20.8122 0
91.4468 20.8439 0
92.6635 16.5435 0
93.9597 18.6699 0
92.7167 20.8282 0
91.4205 18.7017 0
92.6901 18.6859 0
93.9328 16.5275 0
96.4713 16.495 0
96.5264 20.7797 0
93.9866 20.8122 0
95.202 16.5114 0
96.4989 18.6374 0
95.2565 20.7961 0
93.9597 18.6699 0
95.2293 18.6538 0
96.4713 16.495 0
99.0098 16.4618 0
99.0662 20.7464 0
96.5264 20.7797 0
97.7405 16.4785 0
99.038 18.6042 0
97.7963 20.7632 0
96.4989 18.6374 0
97.7684 18.6209 0
99.0098 16.4618 0
101.548 16.4277 0
101.606 20.7124 0
99.0662 20.7464 0
100.279 16.4448 0
101.577 18.5701 0
100.336 20.7295 0
99.038 18.6042 0
100.308 18.5873 0
101.548 16.4277 0
104.087 16.3929 0
104.146 20.6776 0
101.606 20.7124 0
102.818 16.4104 0
104.116 18.5354 0
102.876 20.6951 0
101.577 18.5701 0
102.847 18.5528 0
104.087 16.3929 0
106.625 16.3574 0
106.685 20.642 0
104.146 20.6776 0
105.356 16.3753 0
106.655 18.4998 0
105.416 20.6599 0
104.116 18.5354 0
105.386 18.5177 0
106.625 16.3574 0
109.164 16.3211 0
109.225 20.6057 0
106.685 20.642 0
107.894 16.3393 0
109.194 18.4635 0
107.955 20.624 0
106.655 18.4998 0
107.925 18.4817 0
109.164 16.3211 0
111.702 16.2841 0
111.765 20.5687 0
109.225 20.6057 0
110.433 16.3027 0
111.733 18.4265 0
110.495 20.5873 0
109.194 18.4635 0
110.464 18.4451 0
111.702 16.2841 0
114.24 16.2463 0
114.305 20.5309 0
111.765 20.5687 0
112.971 16.2653 0
114.272 18.3887 0
113.035 20.5499 0
111.733 18.4265 0
113.003 18.4077 0
114.24 16.2463 0
116.779 16.2078 0
116.844 20.4924 0
114.305 20.5309 0
115.51 16.2271 0
116.812 18.3501 0
115.574 20.5117 0
114.272 18.3887 0
115.542 18.3695 0
116.779 16.2078 0
119.317 16.1685 0
119.384 20.4531 0
116.844 20.4924 0
118.048 16.1882 0
119.351 18.3109 0
118.114 20.4728 0
116.812 18.3501 0
118.081 18.3306 0
119.317 16.1685 0
121.856 16.1286 0
121.923 20.4131 0
119.384 20.4531 0
120.586 16.1486 0
121.889 18.2709 0
120.654 20.4332 0
119.351 18.3109 0
120.62 18.291 0
121.856 16.1286 0
124.394 16.0879 0
124.463 20.3724 0
121.923 20.4131 0
123.125 16.1083 0
124.428 18.2302 0
123.193 20.3928 0
121.889 18.2709 0
123.159 18.2507 0
124.394 16.0879 0
126.932 16.0465 0
127.002 20.331 0
124.463 20.3724 0
125.663 16.0672 0
126.967 18.1888 0
125.733 20.3518 0
124.428 18.2302 0
125.698 18.2096 0
126.932 16.0465 0
129.471 16.0043 0
129.542 20.2888 0
127.002 20.331 0
128.201 16.0255 0
129.506 18.1467 0
128.272 20.31 0
126.967 18.1888 0
128.237 18.1678 0
129.471 16.0043 0
132.009 15.9615 0
132.081 20.246 0
129.542 20.2888 0
130.74 15.983 0
132.045 18.1038 0
130.812 20.2675 0
129.506 18.1467 0
130.776 18.1253 0
132.009 15.9615 0
134.547 15.918 0
134.621 20.2024 0
132.081 20.246 0
133.278 15.9398 0
134.584 18.0603 0
133.351 20.2243 0
132.045 18.1038 0
133.315 18.0821 0
134.547 15.918 0
137.085 15.8737 0
137.16 20.1582 0
134.621 20.2024 0
135.816 15.8959 0
137.123 18.016 0
135.891 20.1804 0
134.584 18.0603 0
135.854 18.0382 0
137.085 15.8737 0
139.624 15.8288 0
139.7 20.1133 0
137.16 20.1582 0
138.355 15.8514 0
139.662 17.9711 0
138.43 20.1358 0
137.123 18.016 0
138.392 17.9937 0
139.624 15.8288 0
142.162 15.7832 0
142.239 20.0676 0
139.7 20.1133 0
140.893 15.8061 0
142.201 17.9255 0
140.97 20.0905 0
139.662 17.9711 0
140.931 17.9484 0
142.162 15.7832 0
144.7 15.7369 0
144.779 20.0213 0
142.239 20.0676 0
143.431 15.7601 0
144.739 17.8792 0
143.509 20.0446 0
142.201 17.9255 0
143.47 17.9024 0
144.7 15.7369 0
147.238 15.6899 0
147.318 19.9743 0
144.779 20.0213 0
145.969 15.7135 0
147.278 17.8322 0
146.048 19.9979 0
144.739 17.8792 0
146.009 17.8558 0
147.238 15.6899 0
149.777 15.6423 0
149.857 19.9267 0
147.318 19.9743 0
148.508 15.6662 0
149.817 17.7846 0
148.588 19.9506 0
147.278 17.8322 0
148.548 17.8085 0
149.777 15.6423 0
152.315 15.594 0
152.397 19.8784 0
149.857 19.9267 0
151.046 15.6182 0
152.356 17.7362 0
151.127 19.9026 0
149.817 17.7846 0
151.086 17.7605 0
152.315 15.594 0
154.853 15.545 0
154.936 19.8294 0
152.397 19.8784 0
153.584 15.5696 0
154.894 17.6873 0
153.666 19.8539 0
152.356 17.7362 0
153.625 17.7118 0
154.853 15.545 0
157.391 15.4954 0
157.475 19.7797 0
154.936 19.8294 0
156.122 15.5203 0
157.433 17.6376 0
156.205 19.8046 0
154.894 17.6873 0
156.164 17.6625 0
157.391 15.4954 0
159.929 15.4451 0
160.014 19.7294 0
157.475 19.7797 0
158.66 15.4703 0
159.972 17.5873 0
158.745 19.7546 0
157.433 17.6376 0
158.702 17.6126 0
159.929 15.4451 0
162.467 15.3942 0
162.553 19.6785 0
160.014 19.7294 0
161.198 15.4197 0
162.51 17.5364 0
161.284 19.704 0
159.972 17.5873 0
161.241 17.5619 0
162.467 15.3942 0
165.005 15.3426 0
165.093 19.6269 0
162.553 19.6785 0
163.736 15.3685 0
165.049 17.4848 0
163.823 19.6527 0
162.51 17.5364 0
163.78 17.5107 0
165.005 15.3426 0
167.543 15.2904 0
167.632 19.5746 0
165.093 19.6269 0
166.274 15.3166 0
167.588 17.4326 0
166.362 19.6008 0
165.049 17.4848 0
166.318 17.4588 0
167.543 15.2904 0
170.082 15.2375 0
170.171 19.5218 0
167.632 19.5746 0
168.812 15.264 0
170.126 17.3797 0
168.901 19.5483 0
167.588 17.4326 0
168.857 17.4062 0
170.082 15.2375 0
172.62 15.184 0
172.71 19.4683 0
170.171 19.5218 0
171.351 15.2109 0
172.665 17.3262 0
171.44 19.4951 0
170.126 17.3797 0
171.395 17.353 0
172.62 15.184 0
175.158 15.1299 0
175.249 19.4141 0
172.71 19.4683 0
173.889 15.1571 0
175.203 17.2721 0
173.98 19.4413 0
172.665 17.3262 0
173.934 17.2992 0
175.158 15.1299 0
177.696 15.0752 0
177.788 19.3594 0
175.249 19.4141 0
176.427 15.1026 0
177.742 17.2174 0
176.519 19.3868 0
175.203 17.2721 0
176.473 17.2448 0
177.696 15.0752 0
180.234 15.0199 0
180.327 19.304 0
177.788 19.3594 0
178.965 15.0476 0
180.28 17.162 0
179.058 19.3318 0
177.742 17.2174 0
179.011 17.1898 0
180.234 15.0199 0
182.772 14.9639 0
182.866 19.2481 0
180.327 19.304 0
181.503 14.992 0
182.819 17.1061 0
181.597 19.2761 0
180.28 17.162 0
181.55 17.1341 0
182.772 14.9639 0
185.309 14.9074 0
185.405 19.1915 0
182.866 19.2481 0
184.04 14.9357 0
185.357 17.0495 0
184.136 19.2199 0
182.819 17.1061 0
184.088 17.0778 0
185.309 14.9074 0
187.847 14.8502 0
187.944 19.1343 0
185.405 19.1915 0
186.578 14.8789 0
187.896 16.9923 0
186.675 19.163 0
185.357 17.0495 0
186.626 17.021 0
187.847 14.8502 0
190.385 14.7925 0
190.483 19.0765 0
187.944 19.1343 0
189.116 14.8214 0
190.434 16.9346 0
189.213 19.1055 0
187.896 16.9923 0
189.165 16.9635 0
190.385 14.7925 0
192.923 14.7341 0
193.022 19.0182 0
190.483 19.0765 0
191.654 14.7634 0
192.973 16.8762 0
191.752 19.0474 0
190.434 16.9346 0
191.703 16.9055 0
192.923 14.7341 0
195.461 14.6752 0
195.561 18.9592 0
193.022 19.0182 0
194.192 14.7047 0
195.511 16.8173 0
194.291 18.9888 0
192.973 16.8762 0
194.242 16.8468 0
195.461 14.6752 0
197.999 14.6157 0
198.1 18.8997 0
195.561 18.9592 0
196.73 14.6455 0
198.049 16.7578 0
196.83 18.9295 0
195.511 16.8173 0
196.78 16.7876 0
197.999 14.6157 0
200.537 14.5556 0
200.638 18.8396 0
198.1 18.8997 0
199.268 14.5857 0
200.588 16.6977 0
199.369 18.8697 0
198.049 16.7578 0
199.318 16.7278 0
200.537 14.5556 0
203.075 14.4949 0
203.177 18.7789 0
200.638 18.8396 0
201.806 14.5253 0
203.126 16.637 0
201.908 18.8093 0
200.588 16.6977 0
201.857 16.6674 0
203.075 14.4949 0
205.612 14.4337 0
205.716 18.7177 0
203.177 18.7789 0
204.344 14.4644 0
205.664 16.5758 0
204.447 18.7484 0
203.126 16.637 0
204.395 16.6065 0
205.612 14.4337 0
208.15 14.3719 0
208.255 18.6559 0
205.716 18.7177 0
206.881 14.4029 0
208.202 16.514 0
206.985 18.6869 0
205.664 16.5758 0
206.933 16.5449 0
208.15 14.3719 0
210.688 14.3096 0
210.793 18.5935 0
208.255 18.6559 0
209.419 14.3408 0
210.741 16.4516 0
209.524 18.6248 0
208.202 16.514 0
209.472 16.4829 0
210.688 14.3096 0
213.226 14.2467 0
213.332 18.5306 0
210.793 18.5935 0
211.957 14.2782 0
213.279 16.3887 0
212.063 18.5622 0
210.741 16.4516 0
212.01 16.4202 0
213.226 14.2467 0
215.763 14.1833 0
215.871 18.4672 0
213.332 18.5306 0
214.495 14.2151 0
215.817 16.3253 0
214.601 18.499 0
213.279 16.3887 0
214.548 16.3571 0
215.763 14.1833 0
218.301 14.1193 0
218.409 18.4032 0
215.871 18.4672 0
217.032 14.1513 0
218.355 16.2613 0
217.14 18.4352 0
215.817 16.3253 0
217.086 16.2933 0
218.301 14.1193 0
220.839 14.0548 0
220.948 18.3386 0
218.409 18.4032 0
219.57 14.0871 0
220.893 16.1968 0
219.679 18.371 0
218.355 16.2613 0
219.624 16.2291 0
220.839 14.0548 0
223.377 13.9897 0
223.487 18.2736 0
220.948 18.3386 0
222.108 14.0223 0
223.432 16.1317 0
222.217 18.3062 0
220.893 16.1968 0
222.162 16.1643 0
223.377 13.9897 0
225.914 13.9241 0
226.025 18.208 0
223.487 18.2736 0
224.645 13.957 0
225.97 16.0661 0
224.756 18.2408 0
223.432 16.1317 0
224.701 16.099 0
225.914 13.9241 0
228.452 13.858 0
228.564 18.1418 0
226.025 18.208 0
227.183 13.8912 0
228.508 16 0
227.294 18.175 0
225.97 16.0661 0
227.239 16.0331 0
228.452 13.858 0
230.99 13.7914 0
231.102 18.0752 0
228.564 18.1418 0
229.721 13.8248 0
231.046 15.9334 0
229.833 18.1086 0
228.508 16 0
229.777 15.9667 0
230.99 13.7914 0
233.527 13.7243 0
233.641 18.0081 0
231.102 18.0752 0
232.258 13.7579 0
233.584 15.8662 0
232.371 18.0417 0
231.046 15.9334 0
232.315 15.8999 0
233.527 13.7243 0
236.065 13.6566 0
236.179 17.9404 0
233.641 18.0081 0
234.796 13.6905 0
236.122 15.7986 0
234.91 17.9743 0
233.584 15.8662 0
234.853 15.8325 0
236.065 13.6566 0
238.602 13.5885 0
238.717 17.8722 0
236.179 17.9404 0
237.334 13.6226 0
238.66 15.7304 0
237.448 17.9064 0
236.122 15.7986 0
237.391 15.7646 0
238.602 13.5885 0
241.14 13.5199 0
241.256 17.8036 0
238.717 17.8722 0
239.871 13.5542 0
241.198 15.6618 0
239.987 17.838 0
238.66 15.7304 0
239.929 15.6962 0
241.14 13.5199 0
243.677 13.4507 0
243.794 17.7344 0
241.256 17.8036 0
242.409 13.4854 0
243.736 15.5926 0
242.525 17.7691 0
241.198 15.6618 0
242.467 15.6273 0
243.677 13.4507 0
246.215 13.3811 0
246.333 17.6648 0
243.794 17.7344 0
244.946 13.416 0
246.274 15.523 0
245.063 17.6997 0
243.736 15.5926 0
245.005 15.5579 0
246.215 13.3811 0
248.752 13.311 0
248.871 17.5947 0
246.333 17.6648 0
247.484 13.3461 0
248.812 15.4529 0
247.602 17.6298 0
246.274 15.523 0
247.543 15.488 0
248.752 13.311 0
251.29 13.2404 0
251.409 17.5241 0
248.871 17.5947 0
250.021 13.2758 0
251.35 15.3823 0
250.14 17.5594 0
248.812 15.4529 0
250.081 15.4176 0
251.29 13.2404 0
253.827 13.1694 0
253.947 17.453 0
251.409 17.5241 0
252.559 13.2049 0
253.887 15.3112 0
252.678 17.4886 0
251.35 15.3823 0
252.619 15.3468 0
253.827 13.1694 0
256.365 13.0978 0
256.486 17.3814 0
253.947 17.453 0
255.096 13.1336 0
256.425 15.2397 0
255.217 17.4173 0
253.887 15.3112 0
255.156 15.2755 0
256.365 13.0978 0
258.902 13.0258 0
259.024 17.3094 0
256.486 17.3814 0
257.634 13.0619 0
258.963 15.1677 0
257.755 17.3455 0
256.425 15.2397 0
257.694 15.2037 0
258.902 13.0258 0
261.44 12.9534 0
261.562 17.2369 0
259.024 17.3094 0
260.171 12.9897 0
261.501 15.0952 0
260.293 17.2732 0
258.963 15.1677 0
260.232 15.1315 0
261.44 12.9534 0
263.977 12.8805 0
264.1 17.164 0
261.562 17.2369 0
262.708 12.917 0
264.039 15.0223 0
262.831 17.2005 0
261.501 15.0952 0
262.77 15.0588 0
263.977 12.8805 0
266.515 12.8071 0
266.638 17.0906 0
264.1 17.164 0
265.246 12.8438 0
266.576 14.9489 0
265.369 17.1274 0
264.039 15.0223 0
265.308 14.9857 0
266.515 12.8071 0
269.052 12.7333 0
269.177 17.0168 0
266.638 17.0906 0
267.783 12.7703 0
269.114 14.8751 0
267.908 17.0538 0
266.576 14.9489 0
267.845 14.9121 0
269.052 12.7333 0
271.589 12.6591 0
271.715 16.9426 0
269.177 17.0168 0
270.321 12.6962 0
271.652 14.8009 0
270.446 16.9797 0
269.114 14.8751 0
270.383 14.838 0
271.589 12.6591 0
274.127 12.5844 0
274.253 16.8679 0
271.715 16.9426 0
272.858 12.6218 0
274.19 14.7262 0
272.984 16.9053 0
271.652 14.8009 0
272.921 14.7636 0
274.127 12.5844 0
276.664 12.5093 0
276.791 16.7927 0
274.253 16.8679 0
275.395 12.5469 0
276.727 14.651 0
275.522 16.8304 0
274.19 14.7262 0
275.459 14.6887 0
276.664 12.5093 0
279.201 12.4337 0
279.329 16.7172 0
276.791 16.7927 0
277.933 12.4715 0
279.265 14.5755 0
278.06 16.755 0
276.727 14.651 0
277.996 14.6133 0
279.201 12.4337 0
281.739 12.3578 0
281.867 16.6412 0
279.329 16.7172 0
280.47 12.3958 0
281.803 14.4995 0
280.598 16.6792 0
279.265 14.5755 0
280.534 14.5376 0
281.739 12.3578 0
284.276 12.2814 0
284.405 16.5648 0
281.867 16.6412 0
283.007 12.3196 0
284.34 14.4231 0
283.136 16.6031 0
281.803 14.4995 0
283.071 14.4614 0
284.276 12.2814 0
286.813 12.2046 0
286.943 16.488 0
284.405 16.5648 0
285.544 12.2431 0
286.878 14.3464 0
285.674 16.5265 0
284.34 14.4231 0
285.609 14.3848 0
286.813 12.2046 0
289.35 12.1274 0
289.481 16.4108 0
286.943 16.488 0
288.082 12.1661 0
289.415 14.2692 0
288.212 16.4495 0
286.878 14.3464 0
288.147 14.3078 0
289.35 12.1274 0
291.888 12.0498 0
292.019 16.3332 0
289.481 16.4108 0
290.619 12.0887 0
291.953 14.1916 0
290.75 16.372 0
289.415 14.2692 0
290.684 14.2304 0
291.888 12.0498 0
294.425 11.9718 0
294.556 16.2552 0
292.019 16.3332 0
293.156 12.0109 0
294.491 14.1136 0
293.287 16.2942 0
291.953 14.1916 0
293.222 14.1526 0
294.425 11.9718 0
296.962 11.8935 0
297.094 16.1768 0
294.556 16.2552 0
295.693 11.9327 0
297.028 14.0352 0
295.825 16.216 0
294.491 14.1136 0
295.759 14.0744 0
296.962 11.8935 0
299.499 11.8147 0
299.632 16.098 0
297.094 16.1768 0
298.231 11.8541 0
299.566 13.9564 0
298.363 16.1374 0
297.028 14.0352 0
298.297 13.9958 0
299.499 11.8147 0
302.036 11.7355 0
302.17 16.0188 0
299.632 16.098 0
300.768 11.7752 0
302.103 13.8772 0
300.901 16.0585 0
299.566 13.9564 0
300.834 13.9169 0
302.036 11.7355 0
304.573 11.656 0
304.708 15.9393 0
302.17 16.0188 0
303.305 11.6958 0
304.641 13.7977 0
303.439 15.9791 0
302.103 13.8772 0
303.372 13.8375 0
304.573 11.656 0
307.111 11.5761 0
307.245 15.8594 0
304.708 15.9393 0
305.842 11.6161 0
307.178 13.7178 0
305.977 15.8994 0
304.641 13.7977 0
305.909 13.7578 0
307.111 11.5761 0
309.648 11.4958 0
309.783 15.7791 0
307.245 15.8594 0
308.379 11.536 0
309.715 13.6375 0
308.514 15.8193 0
307.178 13.7178 0
308.447 13.6777 0
309.648 11.4958 0
312.185 11.4152 0
312.321 15.6984 0
309.783 15.7791 0
310.916 11.4556 0
312.253 13.5569 0
311.052 15.7388 0
309.715 13.6375 0
310.984 13.5972 0
312.185 11.4152 0
314.722 11.3342 0
314.859 15.6174 0
312.321 15.6984 0
313.453 11.3748 0
314.79 13.4759 0
313.59 15.658 0
312.253 13.5569 0
313.521 13.5164 0
314.722 11.3342 0
317.259 11.2529 0
317.396 15.5361 0
314.859 15.6174 0
315.99 11.2936 0
317.328 13.3945 0
316.127 15.5768 0
314.79 13.4759 0
316.059 13.4352 0
317.259 11.2529 0
319.796 11.1712 0
319.934 15.4544 0
317.396 15.5361 0
318.527 11.2121 0
319.865 13.3128 0
318.665 15.4953 0
317.328 13.3945 0
318.596 13.3537 0
319.796 11.1712 0
322.333 11.0891 0
322.471 15.3723 0
319.934 15.4544 0
321.064 11.1302 0
322.402 13.2308 0
321.203 15.4134 0
319.865 13.3128 0
321.134 13.2718 0
322.333 11.0891 0
324.87 11.0068 0
325.009 15.2899 0
322.471 15.3723 0
323.601 11.048 0
324.939 13.1484 0
323.74 15.3312 0
322.402 13.2308 0
323.671 13.1896 0
324.87 11.0068 0
327.407 10.9241 0
327.547 15.2072 0
325.009 15.2899 0
326.138 10.9655 0
327.477 13.0657 0
326.278 15.2486 0
324.939 13.1484 0
326.208 13.1071 0
327.407 10.9241 0
329.944 10.841 0
330.084 15.1242 0
327.547 15.2072 0
328.675 10.8826 0
330.014 12.9826 0
328.815 15.1657 0
327.477 13.0657 0
328.745 13.0242 0
329.944 10.841 0
332.481 10.7577 0
332.622 15.0408 0
330.084 15.1242 0
331.212 10.7994 0
332.551 12.8993 0
331.353 15.0825 0
330.014 12.9826 0
331.283 12.941 0
332.481 10.7577 0
335.018 10.674 0
335.159 14.9571 0
332.622 15.0408 0
333.749 10.7159 0
335.089 12.8156 0
333.89 14.999 0
332.551 12.8993 0
333.82 12.8575 0
335.018 10.674 0
337.555 10.59 0
337.697 14.8731 0
335.159 14.9571 0
336.286 10.632 0
337.626 12.7316 0
336.428 14.9151 0
335.089 12.8156 0
336.357 12.7736 0
337.555 10.59 0
340.092 10.5057 0
340.234 14.7888 0
337.697 14.8731 0
338.823 10.5479 0
340.163 12.6473 0
338.965 14.831 0
337.626 12.7316 0
338.894 12.6895 0
340.092 10.5057 0
342.629 10.4211 0
342.771 14.7042 0
340.234 14.7888 0
341.36 10.4634 0
342.7 12.5627 0
341.503 14.7465 0
340.163 12.6473 0
341.432 12.605 0
342.629 10.4211 0
345.166 10.3362 0
345.309 14.6192 0
342.771 14.7042 0
343.897 10.3787 0
345.237 12.4777 0
344.04 14.6617 0
342.7 12.5627 0
343.969 12.5202 0
345.166 10.3362 0
347.703 10.251 0
347.846 14.534 0
345.309 14.6192 0
346.434 10.2936 0
347.774 12.3925 0
346.578 14.5767 0
345.237 12.4777 0
346.506 12.4352 0
347.703 10.251 0
350.239 10.1655 0
350.384 14.4485 0
347.846 14.534 0
348.971 10.2083 0
350.312 12.307 0
349.115 14.4913 0
347.774 12.3925 0
349.043 12.3498 0
350.239 10.1655 0
352.776 10.0797 0
352.921 14.3627 0
350.384 14.4485 0
351.508 10.1226 0
352.849 12.2213 0
351.652 14.4057 0
350.312 12.307 0
351.58 12.2642 0
352.776 10.0797 0
355.313 9.99365 0
355.458 14.2767 0
352.921 14.3627 0
354.045 10.0367 0
355.386 12.1352 0
354.19 14.3197 0
352.849 12.2213 0
354.117 12.1783 0
355.313 9.99365 0
357.85 9.90732 0
357.996 14.1903 0
355.458 14.2767 0
356.582 9.95052 0
357.923 12.0488 0
356.727 14.2335 0
355.386 12.1352 0
356.654 12.0921 0
357.85 9.90732 0
360.387 9.82071 0
360.533 14.1037 0
357.996 14.1903 0
359.118 9.86405 0
360.46 11.9622 0
359.264 14.147 0
357.923 12.0488 0
359.191 12.0056 0
360.387 9.82071 0
362.924 9.73384 0
363.07 14.0168 0
360.533 14.1037 0
361.655 9.77731 0
362.997 11.8754 0
361.801 14.0603 0
360.46 11.9622 0
361.728 11.9188 0
362.924 9.73384 0
365.46 9.64671 0
365.607 13.9297 0
363.07 14.0168 0
364.192 9.69031 0
365.534 11.7882 0
364.339 13.9733 0
362.997 11.8754 0
364.265 11.8318 0
365.46 9.64671 0
367.997 9.55932 0
368.145 13.8423 0
365.607 13.9297 0
366.729 9.60304 0
368.071 11.7008 0
366.876 13.886 0
365.534 11.7882 0
366.802 11.7446 0
367.997 9.55932 0
370.534 9.47168 0
370.682 13.7546 0
368.145 13.8423 0
369.266 9.51553 0
370.608 11.6132 0
369.413 13.7985 0
368.071 11.7008 0
369.339 11.657 0
370.534 9.47168 0
373.071 9.38379 0
373.219 13.6667 0
370.682 13.7546 0
371.802 9.42777 0
373.145 11.5253 0
371.95 13.7107 0
370.608 11.6132 0
371.876 11.5693 0
373.071 9.38379 0
375.607 9.29566 0
375.756 13.5786 0
373.219 13.6667 0
374.339 9.33976 0
375.682 11.4372 0
374.487 13.6227 0
373.145 11.5253 0
374.413 11.4813 0
375.607 9.29566 0
378.144 9.2073 0
378.293 13.4902 0
375.756 13.5786 0
376.876 9.25151 0
378.219 11.3488 0
377.025 13.5344 0
375.682 11.4372 0
376.95 11.393 0
378.144 9.2073 0
380.681 9.1187 0
380.83 13.4016 0
378.293 13.4902 0
379.413 9.16303 0
380.756 11.2602 0
379.562 13.4459 0
378.219 11.3488 0
379.487 11.3045 0
380.681 9.1187 0
383.218 9.02988 0
383.367 13.3128 0
380.83 13.4016 0
381.949 9.07432 0
383.292 11.1714 0
382.099 13.3572 0
380.756 11.2602 0
382.024 11.2158 0
383.218 9.02988 0
385.754 8.94083 0
385.904 13.2237 0
383.367 13.3128 0
384.486 8.98538 0
385.829 11.0823 0
384.636 13.2683 0
383.292 11.1714 0
384.561 11.1269 0
385.754 8.94083 0
388.291 8.85156 0
388.442 13.1344 0
385.904 13.2237 0
387.023 8.89622 0
388.366 10.993 0
387.173 13.1791 0
385.829 11.0823 0
387.098 11.0377 0
388.291 8.85156 0
390.828 8.76209 0
390.979 13.045 0
388.442 13.1344 0
389.559 8.80685 0
390.903 10.9035 0
389.71 13.0897 0
388.366 10.993 0
389.635 10.9483 0
390.828 8.76209 0
393.364 8.6724 0
393.516 12.9553 0
390.979 13.045 0
392.096 8.71727 0
393.44 10.8139 0
392.247 13.0001 0
390.903 10.9035 0
392.171 10.8587 0
393.364 8.6724 0
395.901 8.58251 0
396.053 12.8654 0
393.516 12.9553 0
394.633 8.62748 0
395.977 10.724 0
394.784 12.9103 0
393.44 10.8139 0
394.708 10.7689 0
395.901 8.58251 0
398.438 8.49243 0
398.59 12.7753 0
396.053 12.8654 0
397.169 8.53749 0
398.514 10.6339 0
397.321 12.8204 0
395.977 10.724 0
397.245 10.6789 0
398.438 8.49243 0
400.974 8.40215 0
401.126 12.685 0
398.59 12.7753 0
399.706 8.44731 0
401.05 10.5436 0
399.858 12.7302 0
398.514 10.6339 0
399.782 10.5888 0
400.974 8.40215 0
403.511 8.31168 0
403.663 12.5945 0
401.126 12.685 0
402.243 8.35694 0
403.587 10.4531 0
402.395 12.6398 0
401.05 10.5436 0
402.319 10.4984 0
403.511 8.31168 0
406.047 8.22103 0
406.2 12.5039 0
403.663 12.5945 0
404.779 8.26637 0
406.124 10.3625 0
404.932 12.5492 0
403.587 10.4531 0
404.855 10.4078 0
406.047 8.22103 0
408.584 8.13019 0
408.737 12.413 0
406.2 12.5039 0
407.316 8.17563 0
408.661 10.2716 0
407.469 12.4585 0
406.124 10.3625 0
407.392 10.3171 0
408.584 8.13019 0
411.121 8.03919 0
411.274 12.322 0
408.737 12.413 0
409.852 8.08471 0
411.197 10.1806 0
410.006 12.3675 0
408.661 10.2716 0
409.929 10.2261 0
411.121 8.03919 0
413.657 7.94801 0
413.811 12.2308 0
411.274 12.322 0
412.389 7.99362 0
413.734 10.0894 0
412.543 12.2764 0
411.197 10.1806 0
412.466 10.135 0
413.657 7.94801 0
416.194 7.85668 0
416.348 12.1395 0
413.811 12.2308 0
414.925 7.90236 0
416.271 9.9981 0
415.079 12.1852 0
413.734 10.0894 0
415.002 10.0438 0
416.194 7.85668 0
418.73 7.76518 0
418.885 12.048 0
416.348 12.1395 0
417.462 7.81095 0
418.807 9.9066 0
417.616 12.0938 0
416.271 9.9981 0
417.539 9.95237 0
418.73 7.76518 0
421.267 7.67352 0
421.421 11.9563 0
418.885 12.048 0
419.999 7.71937 0
421.344 9.81494 0
420.153 12.0022 0
418.807 9.9066 0
420.076 9.86079 0
421.267 7.67352 0
423.803 7.58172 0
423.958 11.8645 0
421.421 11.9563 0
422.535 7.62764 0
423.881 9.72313 0
422.69 11.9104 0
421.344 9.81494 0
422.612 9.76905 0
423.803 7.58172 0
426.34 7.48977 0
426.495 11.7726 0
423.958 11.8645 0
425.072 7.53577 0
426.417 9.63118 0
425.227 11.8186 0
423.881 9.72313 0
425.149 9.67718 0
426.34 7.48977 0
428.876 7.39769 0
429.032 11.6805 0
426.495 11.7726 0
427.608 7.44375 0
428.954 9.53909 0
427.763 11.7265 0
426.417 9.63118 0
427.686 9.58515 0
428.876 7.39769 0
431.413 7.30546 0
431.568 11.5882 0
429.032 11.6805 0
430.145 7.35159 0
431.491 9.44687 0
430.3 11.6344 0
428.954 9.53909 0
430.222 9.493 0
431.413 7.30546 0
433.949 7.21311 0
434.105 11.4959 0
431.568 11.5882 0
432.681 7.2593 0
434.027 9.35451 0
432.837 11.5421 0
431.491 9.44687 0
432.759 9.4007 0
433.949 7.21311 0
436.486 7.12063 0
436.642 11.4034 0
434.105 11.4959 0
435.218 7.16688 0
436.564 9.26203 0
435.374 11.4497 0
434.027 9.35451 0
435.296 9.30828 0
436.486 7.12063 0
439.022 7.02803 0
439.179 11.3108 0
436.642 11.4034 0
437.754 7.07434 0
439.1 9.16943 0
437.91 11.3571 0
436.564 9.26203 0
437.832 9.21574 0
439.022 7.02803 0
441.559 6.93531 0
441.715 11.2181 0
439.179 11.3108 0
440.291 6.98168 0
441.637 9.07671 0
440.447 11.2645 0
439.1 9.16943 0
440.369 9.12308 0
441.559 6.93531 0
444.095 6.84249 0
444.252 11.1252 0
441.715 11.2181 0
442.827 6.88891 0
444.174 8.98388 0
442.984 11.1717 0
441.637 9.07671 0
442.905 9.03031 0
444.095 6.84249 0
446.632 6.74955 0
446.788 11.0323 0
444.252 11.1252 0
445.364 6.79603 0
446.71 8.89094 0
445.52 11.0788 0
444.174 8.98388 0
445.442 8.93742 0
446.632 6.74955 0
449.168 6.65652 0
449.325 10.9393 0
446.788 11.0323 0
447.9 6.70305 0
449.247 8.79791 0
448.057 10.9858 0
446.71 8.89094 0
447.978 8.84444 0
449.168 6.65652 0
451.705 6.56338 0
451.862 10.8461 0
449.325 10.9393 0
450.437 6.60996 0
451.783 8.70477 0
450.593 10.8927 0
449.247 8.79791 0
450.515 8.75135 0
451.705 6.56338 0
454.241 6.47016 0
454.398 10.7529 0
451.862 10.8461 0
452.973 6.51678 0
454.32 8.61155 0
453.13 10.7995 0
451.783 8.70477 0
453.051 8.65817 0
454.241 6.47016 0
456.778 6.37685 0
456.935 10.6596 0
454.398 10.7529 0
455.509 6.42352 0
456.856 8.51824 0
455.667 10.7063 0
454.32 8.61155 0
455.588 8.5649 0
456.778 6.37685 0
459.314 6.28346 0
459.471 10.5662 0
456.935 10.6596 0
458.046 6.33016 0
459.393 8.42484 0
458.203 10.6129 0
456.856 8.51824 0
458.124 8.47155 0
459.314 6.28346 0
461.85 6.18999 0
462.008 10.4727 0
459.471 10.5662 0
460.582 6.23673 0
461.929 8.33137 0
460.74 10.5195 0
459.393 8.42484 0
460.661 8.37812 0
461.85 6.18999 0
464.387 6.09645 0
464.544 10.3792 0
462.008 10.4727 0
463.119 6.14323 0
464.466 8.23783 0
463.276 10.426 0
461.929 8.33137 0
463.197 8.28461 0
464.387 6.09645 0
466.923 6.00284 0
467.081 10.2856 0
464.544 10.3792 0
465.655 6.04965 0
467.002 8.14422 0
465.813 10.3324 0
464.466 8.23783 0
465.734 8.19103 0
466.923 6.00284 0
469.46 5.90916 0
469.618 10.1919 0
467.081 10.2856 0
468.191 5.95601 0
469.539 8.05055 0
468.349 10.2388 0
467.002 8.14422 0
468.27 8.09739 0
469.46 5.90916 0
471.996 5.81543 0
472.154 10.0982 0
469.618 10.1919 0
470.728 5.86231 0
472.075 7.95682 0
470.886 10.1451 0
469.539 8.05055 0
470.807 8.00369 0
471.996 5.81543 0
474.532 5.72165 0
474.69 10.0044 0
472.154 10.0982 0
473.264 5.76855 0
474.611 7.86303 0
473.422 10.0513 0
472.075 7.95682 0
473.343 7.90993 0
474.532 5.72165 0
477.069 5.62782 0
477.227 9.91058 0
474.69 10.0044 0
475.801 5.67474 0
477.148 7.7692 0
475.959 9.9575 0
474.611 7.86303 0
475.88 7.81612 0
477.069 5.62782 0
479.605 5.53394 0
479.763 9.8167 0
477.227 9.91058 0
478.337 5.58089 0
479.684 7.67533 0
478.495 9.86365 0
477.148 7.7692 0
478.416 7.72227 0
479.605 5.53394 0
482.142 5.44003 0
482.3 9.72279 0
479.763 9.8167 0
480.873 5.48699 0
482.221 7.58141 0
481.032 9.76975 0
479.684 7.67533 0
480.952 7.62837 0
482.142 5.44003 0
484.678 5.34608 0
484.836 9.62885 0
482.3 9.72279 0
483.41 5.39305 0
484.757 7.48746 0
483.568 9.67582 0
482.221 7.58141 0
483.489 7.53444 0
484.678 5.34608 0
487.214 5.25209 0
487.373 9.53487 0
484.836 9.62885 0
485.946 5.29909 0
487.293 7.39348 0
486.104 9.58186 0
484.757 7.48746 0
486.025 7.44048 0
487.214 5.25209 0
489.751 5.15809 0
489.909 9.44087 0
487.373 9.53487 0
488.482 5.20509 0
489.83 7.29948 0
488.641 9.48787 0
487.293 7.39348 0
488.562 7.34649 0
489.751 5.15809 0
492.287 5.06407 0
492.445 9.34684 0
489.909 9.44087 0
491.019 5.11108 0
492.366 7.20546 0
491.177 9.39386 0
489.83 7.29948 0
491.098 7.25247 0
492.287 5.06407 0
494.823 4.97005 0
494.982 9.2528 0
492.445 9.34684 0
493.555 5.01706 0
494.902 7.11143 0
493.713 9.29983 0
492.366 7.20546 0
493.634 7.15844 0
494.823 4.97005 0
497.36 4.87604 0
497.518 9.15876 0
494.982 9.2528 0
496.091 4.92304 0
497.439 7.01741 0
496.25 9.20578 0
494.902 7.11143 0
496.171 7.06442 0
497.36 4.87604 0
499.896 4.78209 0
500.054 9.06477 0
497.518 9.15876 0
498.628 4.82906 0
499.975 6.92344 0
498.786 9.11176 0
497.439 7.01741 0
498.707 6.97042 0
0 21.4286 0
2.5402 21.4283 0
2.54173 25.7132 0
0 25.7143 0
1.27007 21.4286 0
2.54094 23.5709 0
1.27081 25.7139 0
0 23.5714 0
1.27045 23.5713 0
2.5402 21.4283 0
5.08056 21.4269 0
5.08376 25.7113 0
2.54173 25.7132 0
3.81036 21.4278 0
5.08211 23.5692 0
3.81273 25.7124 0
2.54094 23.5709 0
3.8115 23.5702 0
5.08056 21.4269 0
7.62101 21.4244 0
7.62583 25.7086 0
5.08376 25.7113 0
6.35078 21.4258 0
7.62337 23.5666 0
6.3548 25.71 0
5.08211 23.5692 0
6.35274 23.568 0
7.62101 21.4244 0
10.1615 21.421 0
10.1679 25.7051 0
7.62583 25.7086 0
8.89125 21.4228 0
10.1646 23.5631 0
8.89686 25.7069 0
7.62337 23.5666 0
8.89401 23.565 0
10.1615 21.421 0
12.7019 21.4166 0
12.7099 25.7007 0
10.1679 25.7051 0
11.4317 21.4189 0
12.7059 23.5587 0
11.4389 25.703 0
10.1646 23.5631 0
11.4353 23.561 0
12.7019 21.4166 0
15.2424 21.4113 0
15.2519 25.6954 0
12.7099 25.7007 0
13.9722 21.4141 0
15.2471 23.5534 0
13.9809 25.6981 0
12.7059 23.5587 0
13.9765 23.5562 0
15.2424 21.4113 0
17.7828 21.4051 0
17.7938 25.6892 0
15.2519 25.6954 0
16.5126 21.4083 0
17.7883 23.5472 0
16.5229 25.6924 0
15.2471 23.5534 0
16.5177 23.5504 0
17.7828 21.4051 0
20.3232 21.3979 0
20.3358 25.682 0
17.7938 25.6892 0
19.053 21.4016 0
20.3295 23.5401 0
19.0648 25.6857 0
17.7883 23.5472 0
19.0589 23.5438 0
20.3232 21.3979 0
22.8636 21.3899 0
22.8777 25.674 0
20.3358 25.682 0
21.5934 21.394 0
22.8706 23.532 0
21.6067 25.6781 0
20.3295 23.5401 0
21.6 23.5362 0
22.8636 21.3899 0
25.4039 21.3809 0
25.4196 25.665 0
22.8777 25.674 0
24.1337 21.3855 0
25.4117 23.5231 0
24.1486 25.6696 0
22.8706 23.532 0
24.1412 23.5277 0
25.4039 21.3809 0
27.9443 21.371 0
27.9614 25.6552 0
25.4196 25.665 0
26.6741 21.3761 0
27.9528 23.5132 0
26.6905 25.6602 0
25.4117 23.5231 0
26.6823 23.5182 0
27.9443 21.371 0
30.4846 21.3603 0
30.5032 25.6444 0
27.9614 25.6552 0
29.2144 21.3658 0
30.4939 23.5024 0
29.2323 25.6499 0
27.9528 23.5132 0
29.2234 23.5079 0
30.4846 21.3603 0
33.0249 21.3486 0
33.0451 25.6327 0
30.5032 25.6444 0
31.7547 21.3545 0
33.035 23.4908 0
31.7742 25.6387 0
30.4939 23.5024 0
31.7644 23.4967 0
33.0249 21.3486 0
35.5652 21.336 0
35.5868 25.6202 0
33.0451 25.6327 0
34.295 21.3424 0
35.576 23.4782 0
34.316 25.6266 0
33.035 23.4908 0
34.3055 23.4846 0
35.5652 21.336 0
38.1054 21.3226 0
38.1286 25.6067 0
35.5868 25.6202 0
36.8353 21.3294 0
38.117 23.4648 0
36.8577 25.6136 0
35.576 23.4782 0
36.8465 23.4716 0
38.1054 21.3226 0
40.6457 21.3083 0
40.6703 25.5924 0
38.1286 25.6067 0
39.3756 21.3155 0
40.658 23.4504 0
39.3995 25.5997 0
38.117 23.4648 0
39.3875 23.4577 0
40.6457 21.3083 0
43.1859 21.2931 0
43.2121 25.5772 0
40.6703 25.5924 0
41.9158 21.3008 0
43.199 23.4352 0
41.9412 25.5849 0
40.658 23.4504 0
41.9285 23.4429 0
43.1859 21.2931 0
45.7261 21.277 0
45.7537 25.5611 0
43.2121 25.5772 0
44.456 21.2851 0
45.7399 23.4191 0
44.4829 25.5693 0
43.199 23.4352 0
44.4695 23.4273 0
45.7261 21.277 0
48.2663 21.26 0
48.2954 25.5442 0
45.7537 25.5611 0
46.9962 21.2686 0
48.2809 23.4022 0
47.0246 25.5527 0
45.7399 23.4191 0
47.0104 23.4108 0
48.2663 21.26 0
50.8065 21.2422 0
50.837 25.5264 0
48.2954 25.5442 0
49.5364 21.2512 0
50.8218 23.3844 0
49.5662 25.5354 0
48.2809 23.4022 0
49.5513 23.3934 0
50.8065 21.2422 0
53.3467 21.2236 0
53.3786 25.5077 0
50.837 25.5264 0
52.0766 21.233 0
53.3627 23.3657 0
52.1078 25.5171 0
50.8218 23.3844 0
52.0922 23.3752 0
53.3467 21.2236 0
55.8868 21.204 0
55.9202 25.4882 0
53.3786 25.5077 0
54.6168 21.2139 0
55.9035 23.3462 0
54.6494 25.498 0
53.3627 23.3657 0
54.6331 23.3561 0
55.8868 21.204 0
58.427 21.1837 0
58.4618 25.4678 0
55.9202 25.4882 0
57.1569 21.194 0
58.4444 23.3258 0
57.191 25.4781 0
55.9035 23.3462 0
57.1739 23.3361 0
58.427 21.1837 0
60.9671 21.1625 0
61.0033 25.4466 0
58.4618 25.4678 0
59.697 21.1732 0
60.9852 23.3046 0
59.7325 25.4573 0
58.4444 23.3258 0
59.7148 23.3153 0
60.9671 21.1625 0
63.5072 21.1404 0
63.5448 25.4245 0
61.0033 25.4466 0
62.2371 21.1515 0
63.526 23.2826 0
62.274 25.4357 0
60.9852 23.3046 0
62.2556 23.2937 0
63.5072 21.1404 0
66.0472 21.1175 0
66.0863 25.4016 0
63.5448 25.4245 0
64.7772 21.1291 0
66.0667 23.2597 0
64.8155 25.4132 0
63.526 23.2826 0
64.7964 23.2712 0
66.0472 21.1175 0
68.5873 21.0938 0
68.6277 25.3779 0
66.0863 25.4016 0
67.3173 21.1058 0
68.6075 23.236 0
67.357 25.3899 0
66.0667 23.2597 0
67.3371 23.2479 0
68.5873 21.0938 0
71.1273 21.0693 0
71.1691 25.3534 0
68.6277 25.3779 0
69.8573 21.0817 0
71.1482 23.2114 0
69.8984 25.3658 0
68.6075 23.236 0
69.8778 23.2238 0
71.1273 21.0693 0
73.6673 21.0439 0
73.7105 25.328 0
71.1691 25.3534 0
72.3973 21.0567 0
73.6889 23.1861 0
72.4398 25.3408 0
71.1482 23.2114 0
72.4186 23.1989 0
73.6673 21.0439 0
76.2073 21.0178 0
76.2519 25.3019 0
73.7105 25.328 0
74.9373 21.031 0
76.2296 23.1599 0
74.9812 25.3151 0
73.6889 23.1861 0
74.9592 23.1731 0
76.2073 21.0178 0
78.7473 20.9908 0
78.7932 25.2749 0
76.2519 25.3019 0
77.4773 21.0044 0
78.7702 23.1329 0
77.5225 25.2885 0
76.2296 23.1599 0
77.4999 23.1465 0
78.7473 20.9908 0
81.2872 20.963 0
81.3345 25.2471 0
78.7932 25.2749 0
80.0172 20.977 0
81.3108 23.1051 0
80.0638 25.2611 0
78.7702 23.1329 0
80.0405 23.1191 0
81.2872 20.963 0
83.8271 20.9344 0
83.8758 25.2185 0
81.3345 25.2471 0
82.5572 20.9488 0
83.8514 23.0766 0
82.6051 25.2329 0
81.3108 23.1051 0
82.5811 23.0909 0
83.8271 20.9344 0
86.367 20.9051 0
86.417 25.1891 0
83.8758 25.2185 0
85.0971 20.9198 0
86.392 23.0472 0
85.1464 25.2039 0
83.8514 23.0766 0
85.1217 23.062 0
86.367 20.9051 0
88.9069 20.8749 0
88.9582 25.159 0
86.417 25.1891 0
87.637 20.8901 0
88.9326 23.017 0
87.6876 25.1741 0
86.392 23.0472 0
87.6623 23.0322 0
88.9069 20.8749 0
91.4468 20.8439 0
91.4994 25.128 0
88.9582 25.159 0
90.1769 20.8595 0
91.4731 22.9861 0
90.2288 25.1436 0
88.9326 23.017 0
90.2028 23.0016 0
91.4468 20.8439 0
93.9866 20.8122 0
94.0405 25.0963 0
91.4994 25.128 0
92.7167 20.8282 0
94.0136 22.9543 0
92.77 25.1122 0
91.4731 22.9861 0
92.7433 22.9703 0
93.9866 20.8122 0
96.5264 20.7797 0
96.5817 25.0638 0
94.0405 25.0963 0
95.2565 20.7961 0
96.554 22.9218 0
95.3111 25.0801 0
94.0136 22.9543 0
95.2838 22.9382 0
96.5264 20.7797 0
99.0662 20.7464 0
99.1228 25.0305 0
96.5817 25.0638 0
97.7963 20.7632 0
99.0945 22.8885 0
97.8522 25.0472 0
96.554 22.9218 0
97.8243 22.9053 0
99.0662 20.7464 0
101.606 20.7124 0
101.664 24.9964 0
99.1228 25.0305 0
100.336 20.7295 0
101.635 22.8545 0
100.393 25.0135 0
99.0945 22.8885 0
100.365 22.8716 0
101.606 20.7124 0
104.146 20.6776 0
104.205 24.9616 0
101.664 24.9964 0
102.876 20.6951 0
104.175 22.8197 0
102.934 24.9791 0
101.635 22.8545 0
102.905 22.8372 0
104.146 20.6776 0
106.685 20.642 0
106.746 24.926 0
104.205 24.9616 0
105.416 20.6599 0
106.716 22.7841 0
105.475 24.9439 0
104.175 22.8197 0
105.445 22.802 0
106.685 20.642 0
109.225 20.6057 0
109.287 24.8897 0
106.746 24.926 0
107.955 20.624 0
109.256 22.7478 0
108.016 24.908 0
106.716 22.7841 0
107.986 22.7661 0
109.225 20.6057 0
111.765 20.5687 0
111.828 24.8527 0
109.287 24.8897 0
110.495 20.5873 0
111.796 22.7108 0
110.557 24.8713 0
109.256 22.7478 0
110.526 22.7294 0
111.765 20.5687 0
114.305 20.5309 0
114.369 24.8149 0
111.828 24.8527 0
113.035 20.5499 0
114.337 22.673 0
113.098 24.8339 0
111.796 22.7108 0
113.066 22.6919 0
114.305 20.5309 0
116.844 20.4924 0
116.91 24.7763 0
114.369 24.8149 0
115.574 20.5117 0
116.877 22.6344 0
115.639 24.7957 0
114.337 22.673 0
115.607 22.6538 0
116.844 20.4924 0
119.384 20.4531 0
119.45 24.7371 0
116.91 24.7763 0
118.114 20.4728 0
119.417 22.5952 0
118.18 24.7568 0
116.877 22.6344 0
118.147 22.6149 0
119.384 20.4531 0
121.923 20.4131 0
121.991 24.6971 0
119.45 24.7371 0
120.654 20.4332 0
121.957 22.5552 0
120.721 24.7171 0
119.417 22.5952 0
120.687 22.5752 0
121.923 20.4131 0
124.463 20.3724 0
124.532 24.6563 0
121.991 24.6971 0
123.193 20.3928 0
124.497 22.5144 0
123.262 24.6768 0
121.957 22.5552 0
123.227 22.5349 0
124.463 20.3724 0
127.002 20.331 0
127.073 24.6149 0
124.532 24.6563 0
125.733 20.3518 0
127.038 22.473 0
125.802 24.6357 0
124.497 22.5144 0
125.768 22.4938 0
127.002 20.331 0
129.542 20.2888 0
129.613 24.5727 0
127.073 24.6149 0
128.272 20.31 0
129.578 22.4309 0
128.343 24.5939 0
127.038 22.473 0
128.308 22.452 0
129.542 20.2888 0
132.081 20.246 0
132.154 24.5299 0
129.613 24.5727 0
130.812 20.2675 0
132.118 22.388 0
130.884 24.5514 0
129.578 22.4309 0
130.848 22.4095 0
132.081 20.246 0
134.621 20.2024 0
134.695 24.4863 0
132.154 24.5299 0
133.351 20.2243 0
134.658 22.3445 0
133.424 24.5082 0
132.118 22.388 0
133.388 22.3663 0
134.621 20.2024 0
137.16 20.1582 0
137.235 24.4421 0
134.695 24.4863 0
135.891 20.1804 0
137.198 22.3002 0
135.965 24.4643 0
134.658 22.3445 0
135.928 22.3224 0
137.16 20.1582 0
139.7 20.1133 0
139.776 24.3971 0
137.235 24.4421 0
138.43 20.1358 0
139.738 22.2553 0
138.506 24.4197 0
137.198 22.3002 0
138.468 22.2778 0
139.7 20.1133 0
142.239 20.0676 0
142.316 24.3515 0
139.776 24.3971 0
140.97 20.0905 0
142.278 22.2096 0
141.046 24.3744 0
139.738 22.2553 0
141.008 22.2325 0
142.239 20.0676 0
144.779 20.0213 0
144.857 24.3052 0
142.316 24.3515 0
143.509 20.0446 0
144.818 22.1633 0
143.587 24.3284 0
142.278 22.2096 0
143.548 22.1866 0
144.779 20.0213 0
147.318 19.9743 0
147.398 24.2582 0
144.857 24.3052 0
146.048 19.9979 0
147.358 22.1163 0
146.127 24.2817 0
144.818 22.1633 0
146.088 22.1399 0
147.318 19.9743 0
149.857 19.9267 0
149.938 24.2105 0
147.398 24.2582 0
148.588 19.9506 0
149.898 22.0687 0
148.668 24.2344 0
147.358 22.1163 0
148.628 22.0926 0
149.857 19.9267 0
152.397 19.8784 0
152.478 24.1621 0
149.938 24.2105 0
151.127 19.9026 0
152.437 22.0203 0
151.208 24.1864 0
149.898 22.0687 0
151.168 22.0446 0
152.397 19.8784 0
154.936 19.8294 0
155.019 24.1131 0
152.478 24.1621 0
153.666 19.8539 0
154.977 21.9713 0
153.749 24.1377 0
152.437 22.0203 0
153.707 21.9959 0
154.936 19.8294 0
157.475 19.7797 0
157.559 24.0635 0
155.019 24.1131 0
156.205 19.8046 0
157.517 21.9217 0
156.289 24.0884 0
154.977 21.9713 0
156.247 21.9466 0
157.475 19.7797 0
160.014 19.7294 0
160.099 24.0132 0
157.559 24.0635 0
158.745 19.7546 0
160.057 21.8714 0
158.829 24.0384 0
157.517 21.9217 0
158.787 21.8966 0
160.014 19.7294 0
162.553 19.6785 0
162.64 23.9622 0
160.099 24.0132 0
161.284 19.704 0
162.597 21.8204 0
161.37 23.9878 0
160.057 21.8714 0
161.327 21.846 0
162.553 19.6785 0
165.093 19.6269 0
165.18 23.9106 0
162.64 23.9622 0
163.823 19.6527 0
165.136 21.7688 0
163.91 23.9365 0
162.597 21.8204 0
163.866 21.7947 0
165.093 19.6269 0
167.632 19.5746 0
167.72 23.8583 0
165.18 23.9106 0
166.362 19.6008 0
167.676 21.7166 0
166.45 23.8845 0
165.136 21.7688 0
166.406 21.7428 0
167.632 19.5746 0
170.171 19.5218 0
170.26 23.8055 0
167.72 23.8583 0
168.901 19.5483 0
170.216 21.6637 0
168.99 23.832 0
167.676 21.7166 0
168.946 21.6902 0
170.171 19.5218 0
172.71 19.4683 0
172.801 23.7519 0
170.26 23.8055 0
171.44 19.4951 0
172.755 21.6102 0
171.53 23.7788 0
170.216 21.6637 0
171.485 21.637 0
172.71 19.4683 0
175.249 19.4141 0
175.341 23.6978 0
172.801 23.7519 0
173.98 19.4413 0
175.295 21.556 0
174.071 23.725 0
172.755 21.6102 0
174.025 21.5832 0
175.249 19.4141 0
177.788 19.3594 0
177.881 23.643 0
175.341 23.6978 0
176.519 19.3868 0
177.834 21.5013 0
176.611 23.6705 0
175.295 21.556 0
176.565 21.5287 0
177.788 19.3594 0
180.327 19.304 0
180.421 23.5877 0
177.881 23.643 0
179.058 19.3318 0
180.374 21.4459 0
179.151 23.6154 0
177.834 21.5013 0
179.104 21.4737 0
180.327 19.304 0
182.866 19.2481 0
182.961 23.5317 0
180.421 23.5877 0
181.597 19.2761 0
182.913 21.3899 0
181.691 23.5598 0
180.374 21.4459 0
181.644 21.418 0
182.866 19.2481 0
185.405 19.1915 0
185.501 23.4751 0
182.961 23.5317 0
184.136 19.2199 0
185.453 21.3334 0
184.231 23.5035 0
182.913 21.3899 0
184.183 21.3617 0
185.405 19.1915 0
187.944 19.1343 0
188.041 23.4179 0
185.501 23.4751 0
186.675 19.163 0
187.992 21.2762 0
186.771 23.4466 0
185.453 21.3334 0
186.723 21.3048 0
187.944 19.1343 0
190.483 19.0765 0
190.581 23.3601 0
188.041 23.4179 0
189.213 19.1055 0
190.532 21.2184 0
189.311 23.3891 0
187.992 21.2762 0
189.262 21.2474 0
190.483 19.0765 0
193.022 19.0182 0
193.121 23.3018 0
190.581 23.3601 0
191.752 19.0474 0
193.071 21.16 0
191.851 23.331 0
190.532 21.2184 0
191.801 21.1893 0
193.022 19.0182 0
195.561 18.9592 0
195.66 23.2428 0
193.121 23.3018 0
194.291 18.9888 0
195.611 21.1011 0
194.39 23.2724 0
193.071 21.16 0
194.341 21.1306 0
195.561 18.9592 0
198.1 18.8997 0
198.2 23.1833 0
195.66 23.2428 0
196.83 18.9295 0
198.15 21.0415 0
196.93 23.2131 0
195.611 21.1011 0
196.88 21.0714 0
198.1 18.8997 0
200.638 18.8396 0
200.74 23.1231 0
198.2 23.1833 0
199.369 18.8697 0
200.689 20.9814 0
199.47 23.1533 0
198.15 21.0415 0
199.42 21.0116 0
200.638 18.8396 0
203.177 18.7789 0
203.28 23.0625 0
200.74 23.1231 0
201.908 18.8093 0
203.228 20.9208 0
202.01 23.0929 0
200.689 20.9814 0
201.959 20.9512 0
203.177 18.7789 0
205.716 18.7177 0
205.819 23.0012 0
203.28 23.0625 0
204.447 18.7484 0
205.768 20.8595 0
204.55 23.0319 0
203.228 20.9208 0
204.498 20.8902 0
205.716 18.7177 0
208.255 18.6559 0
208.359 22.9394 0
205.819 23.0012 0
206.985 18.6869 0
208.307 20.7977 0
207.089 22.9704 0
205.768 20.8595 0
207.037 20.8287 0
208.255 18.6559 0
210.793 18.5935 0
210.899 22.877 0
208.359 22.9394 0
209.524 18.6248 0
210.846 20.7353 0
209.629 22.9083 0
208.307 20.7977 0
209.576 20.7666 0
210.793 18.5935 0
213.332 18.5306 0
213.438 22.8141 0
210.899 22.877 0
212.063 18.5622 0
213.385 20.6724 0
212.169 22.8456 0
210.846 20.7353 0
212.116 20.7039 0
213.332 18.5306 0
215.871 18.4672 0
215.978 22.7506 0
213.438 22.8141 0
214.601 18.499 0
215.924 20.6089 0
214.708 22.7824 0
213.385 20.6724 0
214.655 20.6407 0
215.871 18.4672 0
218.409 18.4032 0
218.518 22.6866 0
215.978 22.7506 0
217.14 18.4352 0
218.463 20.5449 0
217.248 22.7187 0
215.924 20.6089 0
217.194 20.577 0
218.409 18.4032 0
220.948 18.3386 0
221.057 22.622 0
218.518 22.6866 0
219.679 18.371 0
221.002 20.4804 0
219.787 22.6544 0
218.463 20.5449 0
219.733 20.5127 0
220.948 18.3386 0
223.487 18.2736 0
223.596 22.557 0
221.057 22.622 0
222.217 18.3062 0
223.541 20.4153 0
222.327 22.5896 0
221.002 20.4804 0
222.272 20.4479 0
223.487 18.2736 0
226.025 18.208 0
226.136 22.4914 0
223.596 22.557 0
224.756 18.2408 0
226.08 20.3497 0
224.866 22.5242 0
223.541 20.4153 0
224.811 20.3826 0
226.025 18.208 0
228.564 18.1418 0
228.675 22.4252 0
226.136 22.4914 0
227.294 18.175 0
228.619 20.2836 0
227.406 22.4583 0
226.08 20.3497 0
227.35 20.3167 0
228.564 18.1418 0
231.102 18.0752 0
231.215 22.3586 0
228.675 22.4252 0
229.833 18.1086 0
231.158 20.2169 0
229.945 22.392 0
228.619 20.2836 0
229.889 20.2503 0
231.102 18.0752 0
233.641 18.0081 0
233.754 22.2914 0
231.215 22.3586 0
232.371 18.0417 0
233.697 20.1498 0
232.484 22.325 0
231.158 20.2169 0
232.428 20.1834 0
233.641 18.0081 0
236.179 17.9404 0
236.293 22.2237 0
233.754 22.2914 0
234.91 17.9743 0
236.236 20.0821 0
235.024 22.2576 0
233.697 20.1498 0
234.967 20.116 0
236.179 17.9404 0
238.717 17.8722 0
238.833 22.1556 0
236.293 22.2237 0
237.448 17.9064 0
238.775 20.014 0
237.563 22.1897 0
236.236 20.0821 0
237.506 20.0481 0
238.717 17.8722 0
241.256 17.8036 0
241.372 22.0869 0
238.833 22.1556 0
239.987 17.838 0
241.314 19.9453 0
240.102 22.1213 0
238.775 20.014 0
240.044 19.9797 0
241.256 17.8036 0
243.794 17.7344 0
243.911 22.0177 0
241.372 22.0869 0
242.525 17.7691 0
243.853 19.8761 0
242.641 22.0524 0
241.314 19.9453 0
242.583 19.9108 0
243.794 17.7344 0
246.333 17.6648 0
246.45 21.9481 0
243.911 22.0177 0
245.063 17.6997 0
246.391 19.8065 0
245.181 21.9829 0
243.853 19.8761 0
245.122 19.8414 0
246.333 17.6648 0
248.871 17.5947 0
248.989 21.8779 0
246.45 21.9481 0
247.602 17.6298 0
248.93 19.7363 0
247.72 21.913 0
246.391 19.8065 0
247.661 19.7715 0
248.871 17.5947 0
251.409 17.5241 0
251.528 21.8073 0
248.989 21.8779 0
250.14 17.5594 0
251.469 19.6657 0
250.259 21.8427 0
248.93 19.7363 0
250.199 19.7011 0
251.409 17.5241 0
253.947 17.453 0
254.068 21.7362 0
251.528 21.8073 0
252.678 17.4886 0
254.007 19.5946 0
252.798 21.7718 0
251.469 19.6657 0
252.738 19.6302 0
253.947 17.453 0
256.486 17.3814 0
256.607 21.6646 0
254.068 21.7362 0
255.217 17.4173 0
256.546 19.5231 0
255.337 21.7005 0
254.007 19.5946 0
255.277 19.5589 0
256.486 17.3814 0
259.024 17.3094 0
259.146 21.5926 0
256.607 21.6646 0
257.755 17.3455 0
259.085 19.4511 0
257.876 21.6287 0
256.546 19.5231 0
257.815 19.4871 0
259.024 17.3094 0
261.562 17.2369 0
261.685 21.5201 0
259.146 21.5926 0
260.293 17.2732 0
261.623 19.3786 0
260.415 21.5564 0
259.085 19.4511 0
260.354 19.4149 0
261.562 17.2369 0
264.1 17.164 0
264.223 21.4472 0
261.685 21.5201 0
262.831 17.2005 0
264.162 19.3057 0
262.954 21.4837 0
261.623 19.3786 0
262.893 19.3422 0
264.1 17.164 0
266.638 17.0906 0
266.762 21.3738 0
264.223 21.4472 0
265.369 17.1274 0
266.7 19.2323 0
265.493 21.4106 0
264.162 19.3057 0
265.431 19.269 0
266.638 17.0906 0
269.177 17.0168 0
269.301 21.3 0
266.762 21.3738 0
267.908 17.0538 0
269.239 19.1584 0
268.032 21.3369 0
266.7 19.2323 0
267.97 19.1954 0
269.177 17.0168 0
271.715 16.9426 0
271.84 21.2257 0
269.301 21.3 0
270.446 16.9797 0
271.777 19.0842 0
270.571 21.2629 0
269.239 19.1584 0
270.508 19.1214 0
271.715 16.9426 0
274.253 16.8679 0
274.379 21.151 0
271.84 21.2257 0
272.984 16.9053 0
274.316 19.0095 0
273.109 21.1884 0
271.777 19.0842 0
273.047 19.0469 0
274.253 16.8679 0
276.791 16.7927 0
276.918 21.0758 0
274.379 21.151 0
275.522 16.8304 0
276.854 18.9343 0
275.648 21.1135 0
274.316 19.0095 0
275.585 18.972 0
276.791 16.7927 0
279.329 16.7172 0
279.456 21.0003 0
276.918 21.0758 0
278.06 16.755 0
279.393 18.8588 0
278.187 21.0381 0
276.854 18.9343 0
278.123 18.8966 0
279.329 16.7172 0
281.867 16.6412 0
281.995 20.9243 0
279.456 21.0003 0
280.598 16.6792 0
281.931 18.7828 0
280.726 20.9623 0
279.393 18.8588 0
280.662 18.8208 0
281.867 16.6412 0
284.405 16.5648 0
284.534 20.8479 0
281.995 20.9243 0
283.136 16.6031 0
284.469 18.7064 0
283.264 20.8861 0
281.931 18.7828 0
283.2 18.7446 0
284.405 16.5648 0
286.943 16.488 0
287.072 20.7711 0
284.534 20.8479 0
285.674 16.5265 0
287.008 18.6296 0
285.803 20.8095 0
284.469 18.7064 0
285.738 18.668 0
286.943 16.488 0
289.481 16.4108 0
289.611 20.6938 0
287.072 20.7711 0
288.212 16.4495 0
289.546 18.5524 0
288.342 20.7325 0
287.008 18.6296 0
288.277 18.591 0
289.481 16.4108 0
292.019 16.3332 0
292.15 20.6162 0
289.611 20.6938 0
290.75 16.372 0
292.084 18.4748 0
290.88 20.6551 0
289.546 18.5524 0
290.815 18.5136 0
292.019 16.3332 0
294.556 16.2552 0
294.688 20.5382 0
292.15 20.6162 0
293.287 16.2942 0
294.622 18.3967 0
293.419 20.5773 0
292.084 18.4748 0
293.353 18.4358 0
294.556 16.2552 0
297.094 16.1768 0
297.227 20.4598 0
294.688 20.5382 0
295.825 16.216 0
297.16 18.3183 0
295.957 20.499 0
294.622 18.3967 0
295.891 18.3576 0
297.094 16.1768 0
299.632 16.098 0
299.765 20.381 0
297.227 20.4598 0
298.363 16.1374 0
299.699 18.2395 0
298.496 20.4204 0
297.16 18.3183 0
298.43 18.279 0
299.632 16.098 0
302.17 16.0188 0
302.304 20.3018 0
299.765 20.381 0
300.901 16.0585 0
302.237 18.1604 0
301.034 20.3415 0
299.699 18.2395 0
300.968 18.2 0
302.17 16.0188 0
304.708 15.9393 0
304.842 20.2223 0
302.304 20.3018 0
303.439 15.9791 0
304.775 18.0808 0
303.573 20.2621 0
302.237 18.1604 0
303.506 18.1206 0
304.708 15.9393 0
307.245 15.8594 0
307.38 20.1423 0
304.842 20.2223 0
305.977 15.8994 0
307.313 18.0009 0
306.111 20.1823 0
304.775 18.0808 0
306.044 18.0409 0
307.245 15.8594 0
309.783 15.7791 0
309.919 20.062 0
307.38 20.1423 0
308.514 15.8193 0
309.851 17.9206 0
308.65 20.1022 0
307.313 18.0009 0
308.582 17.9608 0
309.783 15.7791 0
312.321 15.6984 0
312.457 19.9814 0
309.919 20.062 0
311.052 15.7388 0
312.389 17.84 0
311.188 20.0218 0
309.851 17.9206 0
311.12 17.8803 0
312.321 15.6984 0
314.859 15.6174 0
314.995 19.9004 0
312.457 19.9814 0
313.59 15.658 0
314.927 17.7589 0
313.726 19.9409 0
312.389 17.84 0
313.658 17.7995 0
314.859 15.6174 0
317.396 15.5361 0
317.534 19.819 0
314.995 19.9004 0
316.127 15.5768 0
317.465 17.6776 0
316.264 19.8597 0
314.927 17.7589 0
316.196 17.7183 0
317.396 15.5361 0
319.934 15.4544 0
320.072 19.7373 0
317.534 19.819 0
318.665 15.4953 0
320.003 17.5959 0
318.803 19.7782 0
317.465 17.6776 0
318.734 17.6368 0
319.934 15.4544 0
322.471 15.3723 0
322.61 19.6552 0
320.072 19.7373 0
321.203 15.4134 0
322.541 17.5138 0
321.341 19.6963 0
320.003 17.5959 0
321.272 17.5549 0
322.471 15.3723 0
325.009 15.2899 0
325.148 19.5728 0
322.61 19.6552 0
323.74 15.3312 0
325.079 17.4314 0
323.879 19.6141 0
322.541 17.5138 0
323.81 17.4727 0
325.009 15.2899 0
327.547 15.2072 0
327.686 19.4901 0
325.148 19.5728 0
326.278 15.2486 0
327.616 17.3487 0
326.417 19.5315 0
325.079 17.4314 0
326.347 17.3901 0
327.547 15.2072 0
330.084 15.1242 0
330.224 19.407 0
327.686 19.4901 0
328.815 15.1657 0
330.154 17.2656 0
328.955 19.4486 0
327.616 17.3487 0
328.885 17.3072 0
330.084 15.1242 0
332.622 15.0408 0
332.762 19.3237 0
330.224 19.407 0
331.353 15.0825 0
332.692 17.1823 0
331.493 19.3654 0
330.154 17.2656 0
331.423 17.224 0
332.622 15.0408 0
335.159 14.9571 0
335.3 19.24 0
332.762 19.3237 0
333.89 14.999 0
335.23 17.0986 0
334.031 19.2818 0
332.692 17.1823 0
333.961 17.1405 0
335.159 14.9571 0
337.697 14.8731 0
337.838 19.1559 0
335.3 19.24 0
336.428 14.9151 0
337.767 17.0146 0
336.569 19.198 0
335.23 17.0986 0
336.499 17.0566 0
337.697 14.8731 0
340.234 14.7888 0
340.376 19.0716 0
337.838 19.1559 0
338.965 14.831 0
340.305 16.9302 0
339.107 19.1138 0
337.767 17.0146 0
339.036 16.9724 0
340.234 14.7888 0
342.771 14.7042 0
342.914 18.987 0
340.376 19.0716 0
341.503 14.7465 0
342.843 16.8456 0
341.645 19.0293 0
340.305 16.9302 0
341.574 16.888 0
342.771 14.7042 0
345.309 14.6192 0
345.452 18.9021 0
342.914 18.987 0
344.04 14.6617 0
345.381 16.7607 0
344.183 18.9446 0
342.843 16.8456 0
344.112 16.8032 0
345.309 14.6192 0
347.846 14.534 0
347.99 18.8168 0
345.452 18.9021 0
346.578 14.5767 0
347.918 16.6755 0
346.721 18.8595 0
345.381 16.7607 0
346.649 16.7181 0
347.846 14.534 0
350.384 14.4485 0
350.528 18.7313 0
347.99 18.8168 0
349.115 14.4913 0
350.456 16.59 0
349.259 18.7741 0
347.918 16.6755 0
349.187 16.6327 0
350.384 14.4485 0
352.921 14.3627 0
353.066 18.6455 0
350.528 18.7313 0
351.652 14.4057 0
352.993 16.5042 0
351.797 18.6885 0
350.456 16.59 0
351.725 16.5471 0
352.921 14.3627 0
355.458 14.2767 0
355.604 18.5594 0
353.066 18.6455 0
354.19 14.3197 0
355.531 16.4181 0
354.335 18.6025 0
352.993 16.5042 0
354.262 16.4612 0
355.458 14.2767 0
357.996 14.1903 0
358.141 18.4731 0
355.604 18.5594 0
356.727 14.2335 0
358.068 16.3317 0
356.872 18.5163 0
355.531 16.4181 0
356.8 16.3749 0
357.996 14.1903 0
360.533 14.1037 0
360.679 18.3865 0
358.141 18.4731 0
359.264 14.147 0
360.606 16.2451 0
359.41 18.4298 0
358.068 16.3317 0
359.337 16.2885 0
360.533 14.1037 0
363.07 14.0168 0
363.217 18.2996 0
360.679 18.3865 0
361.801 14.0603 0
363.143 16.1582 0
361.948 18.3431 0
360.606 16.2451 0
361.875 16.2017 0
363.07 14.0168 0
365.607 13.9297 0
365.754 18.2124 0
363.217 18.2996 0
364.339 13.9733 0
365.681 16.0711 0
364.486 18.256 0
363.143 16.1582 0
364.412 16.1147 0
365.607 13.9297 0
368.145 13.8423 0
368.292 18.125 0
365.754 18.2124 0
366.876 13.886 0
368.218 15.9837 0
367.023 18.1688 0
365.681 16.0711 0
366.95 16.0274 0
368.145 13.8423 0
370.682 13.7546 0
370.83 18.0374 0
368.292 18.125 0
369.413 13.7985 0
370.756 15.896 0
369.561 18.0812 0
368.218 15.9837 0
369.487 15.9399 0
370.682 13.7546 0
373.219 13.6667 0
373.367 17.9495 0
370.83 18.0374 0
371.95 13.7107 0
373.293 15.8081 0
372.098 17.9934 0
370.756 15.896 0
372.024 15.8521 0
373.219 13.6667 0
375.756 13.5786 0
375.905 17.8613 0
373.367 17.9495 0
374.487 13.6227 0
375.83 15.72 0
374.636 17.9054 0
373.293 15.8081 0
374.562 15.7641 0
375.756 13.5786 0
378.293 13.4902 0
378.442 17.7729 0
375.905 17.8613 0
377.025 13.5344 0
378.368 15.6316 0
377.174 17.8172 0
375.83 15.72 0
377.099 15.6758 0
378.293 13.4902 0
380.83 13.4016 0
380.98 17.6843 0
378.442 17.7729 0
379.562 13.4459 0
380.905 15.543 0
379.711 17.7287 0
378.368 15.6316 0
379.636 15.5873 0
380.83 13.4016 0
383.367 13.3128 0
383.517 17.5955 0
380.98 17.6843 0
382.099 13.3572 0
383.442 15.4542 0
382.249 17.6399 0
380.905 15.543 0
382.174 15.4986 0
383.367 13.3128 0
385.904 13.2237 0
386.055 17.5064 0
383.517 17.5955 0
384.636 13.2683 0
385.98 15.3651 0
384.786 17.551 0
383.442 15.4542 0
384.711 15.4097 0
385.904 13.2237 0
388.442 13.1344 0
388.592 17.4172 0
386.055 17.5064 0
387.173 13.1791 0
388.517 15.2758 0
387.323 17.4618 0
385.98 15.3651 0
387.248 15.3205 0
388.442 13.1344 0
390.979 13.045 0
391.13 17.3277 0
388.592 17.4172 0
389.71 13.0897 0
391.054 15.1863 0
389.861 17.3724 0
388.517 15.2758 0
389.785 15.2311 0
390.979 13.045 0
393.516 12.9553 0
393.667 17.238 0
391.13 17.3277 0
392.247 13.0001 0
393.591 15.0966 0
392.398 17.2828 0
391.054 15.1863 0
392.323 15.1415 0
393.516 12.9553 0
396.053 12.8654 0
396.204 17.1481 0
393.667 17.238 0
394.784 12.9103 0
396.128 15.0067 0
394.936 17.193 0
393.591 15.0966 0
394.86 15.0517 0
396.053 12.8654 0
398.59 12.7753 0
398.742 17.058 0
396.204 17.1481 0
397.321 12.8204 0
398.665 14.9166 0
397.473 17.103 0
396.128 15.0067 0
397.397 14.9617 0
398.59 12.7753 0
401.126 12.685 0
401.279 16.9677 0
398.742 17.058 0
399.858 12.7302 0
401.203 14.8264 0
400.01 17.0128 0
398.665 14.9166 0
399.934 14.8715 0
401.126 12.685 0
403.663 12.5945 0
403.816 16.8772 0
401.279 16.9677 0
402.395 12.6398 0
403.74 14.7359 0
402.547 16.9225 0
401.203 14.8264 0
402.471 14.7811 0
403.663 12.5945 0
406.2 12.5039 0
406.353 16.7865 0
403.816 16.8772 0
404.932 12.5492 0
406.277 14.6452 0
405.085 16.8319 0
403.74 14.7359 0
405.008 14.6906 0
406.2 12.5039 0
408.737 12.413 0
408.89 16.6957 0
406.353 16.7865 0
407.469 12.4585 0
408.814 14.5544 0
407.622 16.7411 0
406.277 14.6452 0
407.545 14.5998 0
408.737 12.413 0
411.274 12.322 0
411.428 16.6047 0
408.89 16.6957 0
410.006 12.3675 0
411.351 14.4634 0
410.159 16.6502 0
408.814 14.5544 0
410.082 14.5089 0
411.274 12.322 0
413.811 12.2308 0
413.965 16.5135 0
411.428 16.6047 0
412.543 12.2764 0
413.888 14.3722 0
412.696 16.5591 0
411.351 14.4634 0
412.619 14.4178 0
413.811 12.2308 0
416.348 12.1395 0
416.502 16.4222 0
413.965 16.5135 0
415.079 12.1852 0
416.425 14.2808 0
415.233 16.4678 0
413.888 14.3722 0
415.156 14.3265 0
416.348 12.1395 0
418.885 12.048 0
419.039 16.3306 0
416.502 16.4222 0
417.616 12.0938 0
418.962 14.1893 0
417.77 16.3764 0
416.425 14.2808 0
417.693 14.2351 0
418.885 12.048 0
421.421 11.9563 0
421.576 16.239 0
419.039 16.3306 0
420.153 12.0022 0
421.499 14.0977 0
420.307 16.2848 0
418.962 14.1893 0
420.23 14.1435 0
421.421 11.9563 0
423.958 11.8645 0
424.113 16.1472 0
421.576 16.239 0
422.69 11.9104 0
424.036 14.0059 0
422.845 16.1931 0
421.499 14.0977 0
422.767 14.0518 0
423.958 11.8645 0
426.495 11.7726 0
426.65 16.0552 0
424.113 16.1472 0
425.227 11.8186 0
426.572 13.9139 0
425.382 16.1012 0
424.036 14.0059 0
425.304 13.9599 0
426.495 11.7726 0
429.032 11.6805 0
429.187 15.9631 0
426.65 16.0552 0
427.763 11.7265 0
429.109 13.8218 0
427.919 16.0092 0
426.572 13.9139 0
427.841 13.8679 0
429.032 11.6805 0
431.568 11.5882 0
431.724 15.8709 0
429.187 15.9631 0
430.3 11.6344 0
431.646 13.7296 0
430.456 15.917 0
429.109 13.8218 0
430.378 13.7757 0
431.568 11.5882 0
434.105 11.4959 0
434.261 15.7786 0
431.724 15.8709 0
432.837 11.5421 0
434.183 13.6372 0
432.992 15.8247 0
431.646 13.7296 0
432.915 13.6834 0
434.105 11.4959 0
436.642 11.4034 0
436.798 15.6861 0
434.261 15.7786 0
435.374 11.4497 0
436.72 13.5447 0
435.529 15.7323 0
434.183 13.6372 0
435.451 13.591 0
436.642 11.4034 0
439.179 11.3108 0
439.335 15.5935 0
436.798 15.6861 0
437.91 11.3571 0
439.257 13.4521 0
438.066 15.6398 0
436.72 13.5447 0
437.988 13.4985 0
439.179 11.3108 0
441.715 11.2181 0
441.872 15.5007 0
439.335 15.5935 0
440.447 11.2645 0
441.793 13.3594 0
440.603 15.5471 0
439.257 13.4521 0
440.525 13.4058 0
441.715 11.2181 0
444.252 11.1252 0
444.408 15.4079 0
441.872 15.5007 0
442.984 11.1717 0
444.33 13.2666 0
443.14 15.4543 0
441.793 13.3594 0
443.062 13.313 0
444.252 11.1252 0
446.788 11.0323 0
446.945 15.315 0
444.408 15.4079 0
445.52 11.0788 0
446.867 13.1737 0
445.677 15.3615 0
444.33 13.2666 0
445.598 13.2201 0
446.788 11.0323 0
449.325 10.9393 0
449.482 15.222 0
446.945 15.315 0
448.057 10.9858 0
449.404 13.0806 0
448.214 15.2685 0
446.867 13.1737 0
448.135 13.1272 0
449.325 10.9393 0
451.862 10.8461 0
452.019 15.1288 0
449.482 15.222 0
450.593 10.8927 0
451.94 12.9875 0
450.75 15.1754 0
449.404 13.0806 0
450.672 13.0341 0
451.862 10.8461 0
454.398 10.7529 0
454.556 15.0356 0
452.019 15.1288 0
453.13 10.7995 0
454.477 12.8943 0
453.287 15.0822 0
451.94 12.9875 0
453.209 12.9409 0
454.398 10.7529 0
456.935 10.6596 0
457.092 14.9423 0
454.556 15.0356 0
455.667 10.7063 0
457.014 12.801 0
455.824 14.989 0
454.477 12.8943 0
455.745 12.8476 0
456.935 10.6596 0
459.471 10.5662 0
459.629 14.8489 0
457.092 14.9423 0
458.203 10.6129 0
459.55 12.7076 0
458.361 14.8956 0
457.014 12.801 0
458.282 12.7543 0
459.471 10.5662 0
462.008 10.4727 0
462.166 14.7554 0
459.629 14.8489 0
460.74 10.5195 0
462.087 12.6141 0
460.897 14.8022 0
459.55 12.7076 0
460.818 12.6608 0
462.008 10.4727 0
464.544 10.3792 0
464.702 14.6619 0
462.166 14.7554 0
463.276 10.426 0
464.623 12.5206 0
463.434 14.7087 0
462.087 12.6141 0
463.355 12.5673 0
464.544 10.3792 0
467.081 10.2856 0
467.239 14.5683 0
464.702 14.6619 0
465.813 10.3324 0
467.16 12.4269 0
465.971 14.6151 0
464.623 12.5206 0
465.892 12.4738 0
467.081 10.2856 0
469.618 10.1919 0
469.775 14.4746 0
467.239 14.5683 0
468.349 10.2388 0
469.696 12.3333 0
468.507 14.5215 0
467.16 12.4269 0
468.428 12.3801 0
469.618 10.1919 0
472.154 10.0982 0
472.312 14.3809 0
469.775 14.4746 0
470.886 10.1451 0
472.233 12.2395 0
471.044 14.4278 0
469.696 12.3333 0
470.965 12.2864 0
472.154 10.0982 0
474.69 10.0044 0
474.849 14.2871 0
472.312 14.3809 0
473.422 10.0513 0
474.77 12.1458 0
473.58 14.334 0
472.233 12.2395 0
473.501 12.1927 0
474.69 10.0044 0
477.227 9.91058 0
477.385 14.1933 0
474.849 14.2871 0
475.959 9.9575 0
477.306 12.0519 0
476.117 14.2402 0
474.77 12.1458 0
476.038 12.0989 0
477.227 9.91058 0
479.763 9.8167 0
479.922 14.0994 0
477.385 14.1933 0
478.495 9.86365 0
479.842 11.9581 0
478.653 14.1464 0
477.306 12.0519 0
478.574 12.005 0
479.763 9.8167 0
482.3 9.72279 0
482.458 14.0055 0
479.922 14.0994 0
481.032 9.76975 0
482.379 11.8642 0
481.19 14.0525 0
479.842 11.9581 0
481.111 11.9111 0
482.3 9.72279 0
484.836 9.62885 0
484.995 13.9116 0
482.458 14.0055 0
483.568 9.67582 0
484.915 11.7702 0
483.726 13.9586 0
482.379 11.8642 0
483.647 11.8172 0
484.836 9.62885 0
487.373 9.53487 0
487.531 13.8176 0
484.995 13.9116 0
486.104 9.58186 0
487.452 11.6762 0
486.263 13.8646 0
484.915 11.7702 0
486.184 11.7232 0
487.373 9.53487 0
489.909 9.44087 0
490.067 13.7236 0
487.531 13.8176 0
488.641 9.48787 0
489.988 11.5823 0
488.799 13.7706 0
487.452 11.6762 0
488.72 11.6293 0
489.909 9.44087 0
492.445 9.34684 0
492.604 13.6296 0
490.067 13.7236 0
491.177 9.39386 0
492.525 11.4882 0
491.336 13.6766 0
489.988 11.5823 0
491.256 11.5352 0
492.445 9.34684 0
494.982 9.2528 0
495.14 13.5356 0
492.604 13.6296 0
493.713 9.29983 0
495.061 11.3942 0
493.872 13.5826 0
492.525 11.4882 0
493.793 11.4412 0
494.982 9.2528 0
497.518 9.15876 0
497.677 13.4414 0
495.14 13.5356 0
496.25 9.20578 0
497.597 11.3001 0
496.408 13.4885 0
495.061 11.3942 0
496.329 11.3471 0
497.518 9.15876 0
500.054 9.06477 0
500.213 13.3473 0
497.677 13.4414 0
498.786 9.11176 0
500.134 11.2061 0
498.945 13.3944 0
497.597 11.3001 0
498.865 11.2531 0
0 25.7143 0
2.54173 25.7132 0
2.54421 29.9969 0
0 30 0
1.27081 25.7139 0
2.5427 27.8553 0
1.27238 29.9981 0
0 27.8571 0
1.27124 27.8563 0
2.54173 25.7132 0
5.08376 25.7113 0
5.0876 29.9946 0
2.54421 29.9969 0
3.81273 25.7124 0
5.08558 27.8531 0
3.81592 29.9958 0
2.5427 27.8553 0
3.81415 27.8542 0
5.08376 25.7113 0
7.62583 25.7086 0
7.63103 29.9919 0
5.0876 29.9946 0
6.3548 25.71 0
7.6284 27.8503 0
6.35931 29.9934 0
5.08558 27.8531 0
6.357 27.8518 0
7.62583 25.7086 0
10.1679 25.7051 0
10.1745 29.9884 0
7.63103 29.9919 0
8.89686 25.7069 0
10.1712 27.8468 0
8.90276 29.9903 0
7.6284 27.8503 0
8.89979 27.8487 0
10.1679 25.7051 0
12.7099 25.7007 0
12.718 29.984 0
10.1745 29.9884 0
11.4389 25.703 0
12.7139 27.8424 0
11.4463 29.9863 0
10.1712 27.8468 0
11.4426 27.8447 0
12.7099 25.7007 0
15.2519 25.6954 0
15.2615 29.9787 0
12.718 29.984 0
13.9809 25.6981 0
15.2567 27.8371 0
13.9898 29.9815 0
12.7139 27.8424 0
13.9853 27.8399 0
15.2519 25.6954 0
17.7938 25.6892 0
17.805 29.9725 0
15.2615 29.9787 0
16.5229 25.6924 0
17.7994 27.8309 0
16.5332 29.9757 0
15.2567 27.8371 0
16.528 27.8341 0
17.7938 25.6892 0
20.3358 25.682 0
20.3485 29.9654 0
17.805 29.9725 0
19.0648 25.6857 0
20.3421 27.8238 0
19.0767 29.9691 0
17.7994 27.8309 0
19.0707 27.8275 0
20.3358 25.682 0
22.8777 25.674 0
22.8919 29.9573 0
20.3485 29.9654 0
21.6067 25.6781 0
22.8848 27.8158 0
21.6202 29.9615 0
20.3421 27.8238 0
21.6134 27.8199 0
22.8777 25.674 0
25.4196 25.665 0
25.4353 29.9484 0
22.8919 29.9573 0
24.1486 25.6696 0
25.4274 27.8068 0
24.1636 29.953 0
22.8848 27.8158 0
24.1561 27.8114 0
25.4196 25.665 0
27.9614 25.6552 0
27.9787 29.9385 0
25.4353 29.9484 0
26.6905 25.6602 0
27.97 27.7969 0
26.707 29.9436 0
25.4274 27.8068 0
26.6987 27.802 0
27.9614 25.6552 0
30.5032 25.6444 0
30.522 29.9278 0
27.9787 29.9385 0
29.2323 25.6499 0
30.5126 27.7862 0
29.2504 29.9333 0
27.97 27.7969 0
29.2413 27.7917 0
30.5032 25.6444 0
33.0451 25.6327 0
33.0654 29.9161 0
30.522 29.9278 0
31.7742 25.6387 0
33.0552 27.7745 0
31.7937 29.9221 0
30.5126 27.7862 0
31.7839 27.7805 0
33.0451 25.6327 0
35.5868 25.6202 0
35.6087 29.9036 0
33.0654 29.9161 0
34.316 25.6266 0
35.5977 27.762 0
34.337 29.9099 0
33.0552 27.7745 0
34.3265 27.7683 0
35.5868 25.6202 0
38.1286 25.6067 0
38.1519 29.8901 0
35.6087 29.9036 0
36.8577 25.6136 0
38.1402 27.7485 0
36.8803 29.8969 0
35.5977 27.762 0
36.869 27.7553 0
38.1286 25.6067 0
40.6703 25.5924 0
40.6951 29.8758 0
38.1519 29.8901 0
39.3995 25.5997 0
40.6827 27.7342 0
39.4235 29.8831 0
38.1402 27.7485 0
39.4115 27.7415 0
40.6703 25.5924 0
43.2121 25.5772 0
43.2383 29.8606 0
40.6951 29.8758 0
41.9412 25.5849 0
43.2252 27.719 0
41.9667 29.8683 0
40.6827 27.7342 0
41.9539 27.7267 0
43.2121 25.5772 0
45.7537 25.5611 0
45.7815 29.8445 0
43.2383 29.8606 0
44.4829 25.5693 0
45.7676 27.7029 0
44.5099 29.8527 0
43.2252 27.719 0
44.4964 27.7111 0
45.7537 25.5611 0
48.2954 25.5442 0
48.3246 29.8276 0
45.7815 29.8445 0
47.0246 25.5527 0
48.31 27.686 0
47.053 29.8361 0
45.7676 27.7029 0
47.0388 27.6945 0
48.2954 25.5442 0
50.837 25.5264 0
50.8677 29.8098 0
48.3246 29.8276 0
49.5662 25.5354 0
50.8523 27.6682 0
49.5961 29.8188 0
48.31 27.686 0
49.5812 27.6772 0
50.837 25.5264 0
53.3786 25.5077 0
53.4107 29.7911 0
50.8677 29.8098 0
52.1078 25.5171 0
53.3947 27.6495 0
52.1392 29.8005 0
50.8523 27.6682 0
52.1235 27.6589 0
53.3786 25.5077 0
55.9202 25.4882 0
55.9537 29.7716 0
53.4107 29.7911 0
54.6494 25.498 0
55.937 27.63 0
54.6822 29.7814 0
53.3947 27.6495 0
54.6658 27.6398 0
55.9202 25.4882 0
58.4618 25.4678 0
58.4967 29.7512 0
55.9537 29.7716 0
57.191 25.4781 0
58.4792 27.6096 0
57.2252 29.7615 0
55.937 27.63 0
57.2081 27.6199 0
58.4618 25.4678 0
61.0033 25.4466 0
61.0397 29.73 0
58.4967 29.7512 0
59.7325 25.4573 0
61.0215 27.5884 0
59.7682 29.7407 0
58.4792 27.6096 0
59.7503 27.5991 0
61.0033 25.4466 0
63.5448 25.4245 0
63.5826 29.7079 0
61.0397 29.73 0
62.274 25.4357 0
63.5637 27.5663 0
62.3111 29.7191 0
61.0215 27.5884 0
62.2926 27.5775 0
63.5448 25.4245 0
66.0863 25.4016 0
66.1254 29.6851 0
63.5826 29.7079 0
64.8155 25.4132 0
66.1058 27.5434 0
64.854 29.6966 0
63.5637 27.5663 0
64.8347 27.555 0
66.0863 25.4016 0
68.6277 25.3779 0
68.6683 29.6613 0
66.1254 29.6851 0
67.357 25.3899 0
68.648 27.5197 0
67.3969 29.6733 0
66.1058 27.5434 0
67.3769 27.5317 0
68.6277 25.3779 0
71.1691 25.3534 0
71.2111 29.6368 0
68.6683 29.6613 0
69.8984 25.3658 0
71.1901 27.4952 0
69.9397 29.6492 0
68.648 27.5197 0
69.919 27.5076 0
71.1691 25.3534 0
73.7105 25.328 0
73.7538 29.6114 0
71.2111 29.6368 0
72.4398 25.3408 0
73.7321 27.4698 0
72.4825 29.6242 0
71.1901 27.4952 0
72.4611 27.4826 0
73.7105 25.328 0
76.2519 25.3019 0
76.2966 29.5853 0
73.7538 29.6114 0
74.9812 25.3151 0
76.2742 27.4437 0
75.0252 29.5985 0
73.7321 27.4698 0
75.0032 27.4568 0
76.2519 25.3019 0
78.7932 25.2749 0
78.8392 29.5583 0
76.2966 29.5853 0
77.5225 25.2885 0
78.8162 27.4167 0
77.5679 29.5719 0
76.2742 27.4437 0
77.5452 27.4303 0
78.7932 25.2749 0
81.3345 25.2471 0
81.3819 29.5305 0
78.8392 29.5583 0
80.0638 25.2611 0
81.3582 27.3889 0
80.1106 29.5445 0
78.8162 27.4167 0
80.0872 27.4029 0
81.3345 25.2471 0
83.8758 25.2185 0
83.9245 29.5019 0
81.3819 29.5305 0
82.6051 25.2329 0
83.9001 27.3603 0
82.6532 29.5163 0
81.3582 27.3889 0
82.6291 27.3747 0
83.8758 25.2185 0
86.417 25.1891 0
86.4671 29.4725 0
83.9245 29.5019 0
85.1464 25.2039 0
86.442 27.3309 0
85.1958 29.4873 0
83.9001 27.3603 0
85.1711 27.3457 0
86.417 25.1891 0
88.9582 25.159 0
89.0096 29.4423 0
86.4671 29.4725 0
87.6876 25.1741 0
88.9839 27.3007 0
87.7384 29.4575 0
86.442 27.3309 0
87.713 27.3159 0
88.9582 25.159 0
91.4994 25.128 0
91.5521 29.4114 0
89.0096 29.4423 0
90.2288 25.1436 0
91.5257 27.2698 0
90.2809 29.427 0
88.9839 27.3007 0
90.2548 27.2854 0
91.4994 25.128 0
94.0405 25.0963 0
94.0946 29.3796 0
91.5521 29.4114 0
92.77 25.1122 0
94.0675 27.238 0
92.8234 29.3956 0
91.5257 27.2698 0
92.7966 27.254 0
94.0405 25.0963 0
96.5817 25.0638 0
96.637 29.3471 0
94.0946 29.3796 0
95.3111 25.0801 0
96.6093 27.2055 0
95.3658 29.3635 0
94.0675 27.238 0
95.3384 27.2219 0
96.5817 25.0638 0
99.1228 25.0305 0
99.1794 29.3138 0
96.637 29.3471 0
97.8522 25.0472 0
99.1511 27.1722 0
97.9082 29.3306 0
96.6093 27.2055 0
97.8802 27.189 0
99.1228 25.0305 0
101.664 24.9964 0
101.722 29.2798 0
99.1794 29.3138 0
100.393 25.0135 0
101.693 27.1382 0
100.451 29.2969 0
99.1511 27.1722 0
100.422 27.1553 0
101.664 24.9964 0
104.205 24.9616 0
104.264 29.245 0
101.722 29.2798 0
102.934 24.9791 0
104.234 27.1034 0
102.993 29.2625 0
101.693 27.1382 0
102.964 27.1209 0
104.205 24.9616 0
106.746 24.926 0
106.806 29.2094 0
104.264 29.245 0
105.475 24.9439 0
106.776 27.0678 0
105.535 29.2273 0
104.234 27.1034 0
105.505 27.0857 0
106.746 24.926 0
109.287 24.8897 0
109.349 29.1731 0
106.806 29.2094 0
108.016 24.908 0
109.318 27.0315 0
108.077 29.1913 0
106.776 27.0678 0
108.047 27.0497 0
109.287 24.8897 0
111.828 24.8527 0
111.891 29.136 0
109.349 29.1731 0
110.557 24.8713 0
111.859 26.9944 0
110.62 29.1546 0
109.318 27.0315 0
110.588 27.013 0
111.828 24.8527 0
114.369 24.8149 0
114.433 29.0982 0
111.891 29.136 0
113.098 24.8339 0
114.401 26.9566 0
113.162 29.1172 0
111.859 26.9944 0
113.13 26.9756 0
114.369 24.8149 0
116.91 24.7763 0
116.975 29.0597 0
114.433 29.0982 0
115.639 24.7957 0
116.942 26.9181 0
115.704 29.079 0
114.401 26.9566 0
115.672 26.9374 0
116.91 24.7763 0
119.45 24.7371 0
119.517 29.0204 0
116.975 29.0597 0
118.18 24.7568 0
119.484 26.8788 0
118.246 29.0401 0
116.942 26.9181 0
118.213 26.8985 0
119.45 24.7371 0
121.991 24.6971 0
122.059 28.9804 0
119.517 29.0204 0
120.721 24.7171 0
122.025 26.8388 0
120.788 29.0005 0
119.484 26.8788 0
120.754 26.8589 0
121.991 24.6971 0
124.532 24.6563 0
124.601 28.9396 0
122.059 28.9804 0
123.262 24.6768 0
124.567 26.7981 0
123.33 28.9601 0
122.025 26.8388 0
123.296 26.8185 0
124.532 24.6563 0
127.073 24.6149 0
127.143 28.8982 0
124.601 28.9396 0
125.802 24.6357 0
127.108 26.7566 0
125.872 28.919 0
124.567 26.7981 0
125.837 26.7774 0
127.073 24.6149 0
129.613 24.5727 0
129.685 28.856 0
127.143 28.8982 0
128.343 24.5939 0
129.649 26.7145 0
128.414 28.8772 0
127.108 26.7566 0
128.379 26.7356 0
129.613 24.5727 0
132.154 24.5299 0
132.227 28.8132 0
129.685 28.856 0
130.884 24.5514 0
132.19 26.6716 0
130.956 28.8347 0
129.649 26.7145 0
130.92 26.6931 0
132.154 24.5299 0
134.695 24.4863 0
134.769 28.7696 0
132.227 28.8132 0
133.424 24.5082 0
134.732 26.628 0
133.498 28.7915 0
132.19 26.6716 0
133.461 26.6499 0
134.695 24.4863 0
137.235 24.4421 0
137.31 28.7253 0
134.769 28.7696 0
135.965 24.4643 0
137.273 26.5838 0
136.04 28.7476 0
134.732 26.628 0
136.002 26.606 0
137.235 24.4421 0
139.776 24.3971 0
139.852 28.6804 0
137.31 28.7253 0
138.506 24.4197 0
139.814 26.5388 0
138.581 28.703 0
137.273 26.5838 0
138.543 26.5614 0
139.776 24.3971 0
142.316 24.3515 0
142.394 28.6347 0
139.852 28.6804 0
141.046 24.3744 0
142.355 26.4932 0
141.123 28.6577 0
139.814 26.5388 0
141.085 26.5161 0
142.316 24.3515 0
144.857 24.3052 0
144.936 28.5884 0
142.394 28.6347 0
143.587 24.3284 0
144.896 26.4469 0
143.665 28.6117 0
142.355 26.4932 0
143.626 26.4701 0
144.857 24.3052 0
147.398 24.2582 0
147.477 28.5414 0
144.936 28.5884 0
146.127 24.2817 0
147.437 26.3999 0
146.206 28.565 0
144.896 26.4469 0
146.167 26.4234 0
147.398 24.2582 0
149.938 24.2105 0
150.019 28.4937 0
147.477 28.5414 0
148.668 24.2344 0
149.978 26.3522 0
148.748 28.5176 0
147.437 26.3999 0
148.708 26.3761 0
149.938 24.2105 0
152.478 24.1621 0
152.56 28.4454 0
150.019 28.4937 0
151.208 24.1864 0
152.519 26.3038 0
151.29 28.4696 0
149.978 26.3522 0
151.249 26.3281 0
152.478 24.1621 0
155.019 24.1131 0
155.102 28.3964 0
152.56 28.4454 0
153.749 24.1377 0
155.06 26.2548 0
153.831 28.421 0
152.519 26.3038 0
153.79 26.2794 0
155.019 24.1131 0
157.559 24.0635 0
157.643 28.3467 0
155.102 28.3964 0
156.289 24.0884 0
157.601 26.2052 0
156.373 28.3716 0
155.06 26.2548 0
156.331 26.2301 0
157.559 24.0635 0
160.099 24.0132 0
160.185 28.2964 0
157.643 28.3467 0
158.829 24.0384 0
160.142 26.1548 0
158.914 28.3216 0
157.601 26.2052 0
158.872 26.1801 0
160.099 24.0132 0
162.64 23.9622 0
162.726 28.2454 0
160.185 28.2964 0
161.37 23.9878 0
162.683 26.1039 0
161.455 28.271 0
160.142 26.1548 0
161.412 26.1294 0
162.64 23.9622 0
165.18 23.9106 0
165.267 28.1938 0
162.726 28.2454 0
163.91 23.9365 0
165.224 26.0522 0
163.997 28.2197 0
162.683 26.1039 0
163.953 26.0781 0
165.18 23.9106 0
167.72 23.8583 0
167.809 28.1415 0
165.267 28.1938 0
166.45 23.8845 0
167.764 26 0
166.538 28.1677 0
165.224 26.0522 0
166.494 26.0262 0
167.72 23.8583 0
170.26 23.8055 0
170.35 28.0886 0
167.809 28.1415 0
168.99 23.832 0
170.305 25.9471 0
169.079 28.1151 0
167.764 26 0
169.035 25.9736 0
170.26 23.8055 0
172.801 23.7519 0
172.891 28.0351 0
170.35 28.0886 0
171.53 23.7788 0
172.846 25.8936 0
171.621 28.0619 0
170.305 25.9471 0
171.576 25.9204 0
172.801 23.7519 0
175.341 23.6978 0
175.432 27.9809 0
172.891 28.0351 0
174.071 23.725 0
175.386 25.8394 0
174.162 28.0081 0
172.846 25.8936 0
174.116 25.8666 0
175.341 23.6978 0
177.881 23.643 0
177.973 27.9262 0
175.432 27.9809 0
176.611 23.6705 0
177.927 25.7847 0
176.703 27.9536 0
175.386 25.8394 0
176.657 25.8121 0
177.881 23.643 0
180.421 23.5877 0
180.515 27.8708 0
177.973 27.9262 0
179.151 23.6154 0
180.468 25.7293 0
179.244 27.8986 0
177.927 25.7847 0
179.197 25.7571 0
180.421 23.5877 0
182.961 23.5317 0
183.056 27.8148 0
180.515 27.8708 0
181.691 23.5598 0
183.008 25.6733 0
181.785 27.8429 0
180.468 25.7293 0
181.738 25.7014 0
182.961 23.5317 0
185.501 23.4751 0
185.597 27.7582 0
183.056 27.8148 0
184.231 23.5035 0
185.549 25.6167 0
184.326 27.7866 0
183.008 25.6733 0
184.278 25.6451 0
185.501 23.4751 0
188.041 23.4179 0
188.138 27.701 0
185.597 27.7582 0
186.771 23.4466 0
188.089 25.5595 0
186.867 27.7297 0
185.549 25.6167 0
186.819 25.5882 0
188.041 23.4179 0
190.581 23.3601 0
190.678 27.6432 0
188.138 27.701 0
189.311 23.3891 0
190.63 25.5017 0
189.408 27.6722 0
188.089 25.5595 0
189.359 25.5307 0
190.581 23.3601 0
193.121 23.3018 0
193.219 27.5848 0
190.678 27.6432 0
191.851 23.331 0
193.17 25.4434 0
191.949 27.6141 0
190.63 25.5017 0
191.9 25.4726 0
193.121 23.3018 0
195.66 23.2428 0
195.76 27.5259 0
193.219 27.5848 0
194.39 23.2724 0
195.71 25.3844 0
194.49 27.5554 0
193.17 25.4434 0
194.44 25.4139 0
195.66 23.2428 0
198.2 23.1833 0
198.301 27.4663 0
195.76 27.5259 0
196.93 23.2131 0
198.251 25.3248 0
197.031 27.4962 0
195.71 25.3844 0
196.98 25.3547 0
198.2 23.1833 0
200.74 23.1231 0
200.842 27.4062 0
198.301 27.4663 0
199.47 23.1533 0
200.791 25.2647 0
199.571 27.4363 0
198.251 25.3248 0
199.521 25.2949 0
200.74 23.1231 0
203.28 23.0625 0
203.382 27.3455 0
200.842 27.4062 0
202.01 23.0929 0
203.331 25.204 0
202.112 27.3759 0
200.791 25.2647 0
202.061 25.2344 0
203.28 23.0625 0
205.819 23.0012 0
205.923 27.2842 0
203.382 27.3455 0
204.55 23.0319 0
205.871 25.1428 0
204.653 27.3149 0
203.331 25.204 0
204.601 25.1735 0
205.819 23.0012 0
208.359 22.9394 0
208.464 27.2224 0
205.923 27.2842 0
207.089 22.9704 0
208.411 25.0809 0
207.193 27.2534 0
205.871 25.1428 0
207.141 25.1119 0
208.359 22.9394 0
210.899 22.877 0
211.004 27.16 0
208.464 27.2224 0
209.629 22.9083 0
210.952 25.0186 0
209.734 27.1913 0
208.411 25.0809 0
209.681 25.0498 0
210.899 22.877 0
213.438 22.8141 0
213.545 27.0971 0
211.004 27.16 0
212.169 22.8456 0
213.492 24.9556 0
212.275 27.1286 0
210.952 25.0186 0
212.222 24.9872 0
213.438 22.8141 0
215.978 22.7506 0
216.085 27.0336 0
213.545 27.0971 0
214.708 22.7824 0
216.032 24.8922 0
214.815 27.0654 0
213.492 24.9556 0
214.762 24.924 0
215.978 22.7506 0
218.518 22.6866 0
218.626 26.9696 0
216.085 27.0336 0
217.248 22.7187 0
218.572 24.8281 0
217.356 27.0016 0
216.032 24.8922 0
217.302 24.8602 0
218.518 22.6866 0
221.057 22.622 0
221.166 26.905 0
218.626 26.9696 0
219.787 22.6544 0
221.112 24.7636 0
219.896 26.9373 0
218.572 24.8281 0
219.842 24.7959 0
221.057 22.622 0
223.596 22.557 0
223.707 26.8399 0
221.166 26.905 0
222.327 22.5896 0
223.652 24.6985 0
222.436 26.8725 0
221.112 24.7636 0
222.382 24.7311 0
223.596 22.557 0
226.136 22.4914 0
226.247 26.7743 0
223.707 26.8399 0
224.866 22.5242 0
226.191 24.6329 0
224.977 26.8072 0
223.652 24.6985 0
224.921 24.6657 0
226.136 22.4914 0
228.675 22.4252 0
228.787 26.7081 0
226.247 26.7743 0
227.406 22.4583 0
228.731 24.5667 0
227.517 26.7413 0
226.191 24.6329 0
227.461 24.5999 0
228.675 22.4252 0
231.215 22.3586 0
231.327 26.6415 0
228.787 26.7081 0
229.945 22.392 0
231.271 24.5001 0
230.057 26.6749 0
228.731 24.5667 0
230.001 24.5335 0
231.215 22.3586 0
233.754 22.2914 0
233.868 26.5743 0
231.327 26.6415 0
232.484 22.325 0
233.811 24.4329 0
232.598 26.608 0
231.271 24.5001 0
232.541 24.4666 0
233.754 22.2914 0
236.293 22.2237 0
236.408 26.5066 0
233.868 26.5743 0
235.024 22.2576 0
236.351 24.3652 0
235.138 26.5405 0
233.811 24.4329 0
235.081 24.3991 0
236.293 22.2237 0
238.833 22.1556 0
238.948 26.4384 0
236.408 26.5066 0
237.563 22.1897 0
238.89 24.297 0
237.678 26.4726 0
236.351 24.3652 0
237.62 24.3312 0
238.833 22.1556 0
241.372 22.0869 0
241.488 26.3698 0
238.948 26.4384 0
240.102 22.1213 0
241.43 24.2284 0
240.218 26.4042 0
238.89 24.297 0
240.16 24.2628 0
241.372 22.0869 0
243.911 22.0177 0
244.028 26.3006 0
241.488 26.3698 0
242.641 22.0524 0
243.97 24.1592 0
242.758 26.3352 0
241.43 24.2284 0
242.7 24.1938 0
243.911 22.0177 0
246.45 21.9481 0
246.568 26.2309 0
244.028 26.3006 0
245.181 21.9829 0
246.509 24.0895 0
245.298 26.2658 0
243.97 24.1592 0
245.239 24.1244 0
246.45 21.9481 0
248.989 21.8779 0
249.108 26.1608 0
246.568 26.2309 0
247.72 21.913 0
249.049 24.0194 0
247.838 26.1959 0
246.509 24.0895 0
247.779 24.0545 0
248.989 21.8779 0
251.528 21.8073 0
251.648 26.0901 0
249.108 26.1608 0
250.259 21.8427 0
251.588 23.9488 0
250.378 26.1255 0
249.049 24.0194 0
250.318 23.9841 0
251.528 21.8073 0
254.068 21.7362 0
254.188 26.019 0
251.648 26.0901 0
252.798 21.7718 0
254.128 23.8777 0
252.918 26.0546 0
251.588 23.9488 0
252.858 23.9133 0
254.068 21.7362 0
256.607 21.6646 0
256.728 25.9475 0
254.188 26.019 0
255.337 21.7005 0
256.667 23.8061 0
255.458 25.9833 0
254.128 23.8777 0
255.397 23.8419 0
256.607 21.6646 0
259.146 21.5926 0
259.267 25.8754 0
256.728 25.9475 0
257.876 21.6287 0
259.206 23.7341 0
257.997 25.9115 0
256.667 23.8061 0
257.937 23.7701 0
259.146 21.5926 0
261.685 21.5201 0
261.807 25.8029 0
259.267 25.8754 0
260.415 21.5564 0
261.746 23.6616 0
260.537 25.8392 0
259.206 23.7341 0
260.476 23.6979 0
261.685 21.5201 0
264.223 21.4472 0
264.347 25.73 0
261.807 25.8029 0
262.954 21.4837 0
264.285 23.5886 0
263.077 25.7665 0
261.746 23.6616 0
263.015 23.6252 0
264.223 21.4472 0
266.762 21.3738 0
266.886 25.6566 0
264.347 25.73 0
265.493 21.4106 0
266.824 23.5152 0
265.617 25.6933 0
264.285 23.5886 0
265.555 23.552 0
266.762 21.3738 0
269.301 21.3 0
269.426 25.5827 0
266.886 25.6566 0
268.032 21.3369 0
269.364 23.4414 0
268.156 25.6197 0
266.824 23.5152 0
268.094 23.4784 0
269.301 21.3 0
271.84 21.2257 0
271.966 25.5084 0
269.426 25.5827 0
270.571 21.2629 0
271.903 23.3671 0
270.696 25.5456 0
269.364 23.4414 0
270.633 23.4043 0
271.84 21.2257 0
274.379 21.151 0
274.505 25.4337 0
271.966 25.5084 0
273.109 21.1884 0
274.442 23.2924 0
273.235 25.4711 0
271.903 23.3671 0
273.172 23.3298 0
274.379 21.151 0
276.918 21.0758 0
277.045 25.3586 0
274.505 25.4337 0
275.648 21.1135 0
276.981 23.2173 0
275.775 25.3962 0
274.442 23.2924 0
275.712 23.2549 0
276.918 21.0758 0
279.456 21.0003 0
279.584 25.283 0
277.045 25.3586 0
278.187 21.0381 0
279.52 23.1417 0
278.314 25.3208 0
276.981 23.2173 0
278.251 23.1795 0
279.456 21.0003 0
281.995 20.9243 0
282.124 25.207 0
279.584 25.283 0
280.726 20.9623 0
282.059 23.0657 0
280.854 25.2451 0
279.52 23.1417 0
280.79 23.1037 0
281.995 20.9243 0
284.534 20.8479 0
284.663 25.1306 0
282.124 25.207 0
283.264 20.8861 0
284.598 22.9893 0
283.393 25.1688 0
282.059 23.0657 0
283.329 23.0275 0
284.534 20.8479 0
287.072 20.7711 0
287.202 25.0538 0
284.663 25.1306 0
285.803 20.8095 0
287.137 22.9125 0
285.933 25.0922 0
284.598 22.9893 0
285.868 22.9509 0
287.072 20.7711 0
289.611 20.6938 0
289.742 24.9765 0
287.202 25.0538 0
288.342 20.7325 0
289.676 22.8352 0
288.472 25.0152 0
287.137 22.9125 0
288.407 22.8739 0
289.611 20.6938 0
292.15 20.6162 0
292.281 24.8989 0
289.742 24.9765 0
290.88 20.6551 0
292.215 22.7576 0
291.011 24.9378 0
289.676 22.8352 0
290.946 22.7965 0
292.15 20.6162 0
294.688 20.5382 0
294.82 24.8209 0
292.281 24.8989 0
293.419 20.5773 0
294.754 22.6796 0
293.55 24.8599 0
292.215 22.7576 0
293.485 22.7186 0
294.688 20.5382 0
297.227 20.4598 0
297.359 24.7425 0
294.82 24.8209 0
295.957 20.499 0
297.293 22.6012 0
296.09 24.7817 0
294.754 22.6796 0
296.023 22.6404 0
297.227 20.4598 0
299.765 20.381 0
299.898 24.6637 0
297.359 24.7425 0
298.496 20.4204 0
299.832 22.5224 0
298.629 24.7031 0
297.293 22.6012 0
298.562 22.5618 0
299.765 20.381 0
302.304 20.3018 0
302.437 24.5845 0
299.898 24.6637 0
301.034 20.3415 0
302.37 22.4432 0
301.168 24.6241 0
299.832 22.5224 0
301.101 22.4828 0
302.304 20.3018 0
304.842 20.2223 0
304.976 24.5049 0
302.437 24.5845 0
303.573 20.2621 0
304.909 22.3636 0
303.707 24.5447 0
302.37 22.4432 0
303.64 22.4035 0
304.842 20.2223 0
307.38 20.1423 0
307.515 24.425 0
304.976 24.5049 0
306.111 20.1823 0
307.448 22.2837 0
306.246 24.465 0
304.909 22.3636 0
306.179 22.3237 0
307.38 20.1423 0
309.919 20.062 0
310.054 24.3447 0
307.515 24.425 0
308.65 20.1022 0
309.986 22.2034 0
308.785 24.3849 0
307.448 22.2837 0
308.717 22.2436 0
309.919 20.062 0
312.457 19.9814 0
312.593 24.264 0
310.054 24.3447 0
311.188 20.0218 0
312.525 22.1227 0
311.324 24.3044 0
309.986 22.2034 0
311.256 22.1631 0
312.457 19.9814 0
314.995 19.9004 0
315.132 24.183 0
312.593 24.264 0
313.726 19.9409 0
315.064 22.0417 0
313.863 24.2235 0
312.525 22.1227 0
313.794 22.0823 0
314.995 19.9004 0
317.534 19.819 0
317.671 24.1016 0
315.132 24.183 0
316.264 19.8597 0
317.602 21.9603 0
316.402 24.1423 0
315.064 22.0417 0
316.333 22.0011 0
317.534 19.819 0
320.072 19.7373 0
320.21 24.0199 0
317.671 24.1016 0
318.803 19.7782 0
320.141 21.8786 0
318.94 24.0608 0
317.602 21.9603 0
318.872 21.9195 0
320.072 19.7373 0
322.61 19.6552 0
322.749 23.9378 0
320.21 24.0199 0
321.341 19.6963 0
322.679 21.7966 0
321.479 23.9789 0
320.141 21.8786 0
321.41 21.8376 0
322.61 19.6552 0
325.148 19.5728 0
325.287 23.8554 0
322.749 23.9378 0
323.879 19.6141 0
325.218 21.7142 0
324.018 23.8967 0
322.679 21.7966 0
323.948 21.7554 0
325.148 19.5728 0
327.686 19.4901 0
327.826 23.7727 0
325.287 23.8554 0
326.417 19.5315 0
327.756 21.6314 0
326.557 23.8141 0
325.218 21.7142 0
326.487 21.6728 0
327.686 19.4901 0
330.224 19.407 0
330.365 23.6896 0
327.826 23.7727 0
328.955 19.4486 0
330.294 21.5484 0
329.095 23.7312 0
327.756 21.6314 0
329.025 21.5899 0
330.224 19.407 0
332.762 19.3237 0
332.903 23.6062 0
330.365 23.6896 0
331.493 19.3654 0
332.833 21.465 0
331.634 23.648 0
330.294 21.5484 0
331.564 21.5067 0
332.762 19.3237 0
335.3 19.24 0
335.442 23.5225 0
332.903 23.6062 0
334.031 19.2818 0
335.371 21.3813 0
334.173 23.5644 0
332.833 21.465 0
334.102 21.4232 0
335.3 19.24 0
337.838 19.1559 0
337.98 23.4385 0
335.442 23.5225 0
336.569 19.198 0
337.909 21.2973 0
336.711 23.4806 0
335.371 21.3813 0
336.64 21.3393 0
337.838 19.1559 0
340.376 19.0716 0
340.519 23.3542 0
337.98 23.4385 0
339.107 19.1138 0
340.448 21.2129 0
339.25 23.3964 0
337.909 21.2973 0
339.178 21.2551 0
340.376 19.0716 0
342.914 18.987 0
343.057 23.2695 0
340.519 23.3542 0
341.645 19.0293 0
342.986 21.1283 0
341.788 23.3119 0
340.448 21.2129 0
341.717 21.1707 0
342.914 18.987 0
345.452 18.9021 0
345.596 23.1846 0
343.057 23.2695 0
344.183 18.9446 0
345.524 21.0434 0
344.326 23.2271 0
342.986 21.1283 0
344.255 21.0859 0
345.452 18.9021 0
347.99 18.8168 0
348.134 23.0994 0
345.596 23.1846 0
346.721 18.8595 0
348.062 20.9581 0
346.865 23.142 0
345.524 21.0434 0
346.793 21.0008 0
347.99 18.8168 0
350.528 18.7313 0
350.672 23.0139 0
348.134 23.0994 0
349.259 18.7741 0
350.6 20.8726 0
349.403 23.0567 0
348.062 20.9581 0
349.331 20.9154 0
350.528 18.7313 0
353.066 18.6455 0
353.211 22.9281 0
350.672 23.0139 0
351.797 18.6885 0
353.138 20.7868 0
351.942 22.971 0
350.6 20.8726 0
351.869 20.8298 0
353.066 18.6455 0
355.604 18.5594 0
355.749 22.842 0
353.211 22.9281 0
354.335 18.6025 0
355.676 20.7007 0
354.48 22.8851 0
353.138 20.7868 0
354.407 20.7438 0
355.604 18.5594 0
358.141 18.4731 0
358.287 22.7556 0
355.749 22.842 0
356.872 18.5163 0
358.214 20.6144 0
357.018 22.7988 0
355.676 20.7007 0
356.945 20.6576 0
358.141 18.4731 0
360.679 18.3865 0
360.825 22.669 0
358.287 22.7556 0
359.41 18.4298 0
360.752 20.5278 0
359.556 22.7123 0
358.214 20.6144 0
359.483 20.5711 0
360.679 18.3865 0
363.217 18.2996 0
363.363 22.5821 0
360.825 22.669 0
361.948 18.3431 0
363.29 20.4409 0
362.094 22.6256 0
360.752 20.5278 0
362.021 20.4844 0
363.217 18.2996 0
365.754 18.2124 0
365.902 22.495 0
363.363 22.5821 0
364.486 18.256 0
365.828 20.3537 0
364.633 22.5386 0
363.29 20.4409 0
364.559 20.3973 0
365.754 18.2124 0
368.292 18.125 0
368.44 22.4075 0
365.902 22.495 0
367.023 18.1688 0
368.366 20.2663 0
367.171 22.4513 0
365.828 20.3537 0
367.097 20.31 0
368.292 18.125 0
370.83 18.0374 0
370.978 22.3199 0
368.44 22.4075 0
369.561 18.0812 0
370.904 20.1787 0
369.709 22.3637 0
368.366 20.2663 0
369.635 20.2225 0
370.83 18.0374 0
373.367 17.9495 0
373.516 22.232 0
370.978 22.3199 0
372.098 17.9934 0
373.441 20.0908 0
372.247 22.276 0
370.904 20.1787 0
372.173 20.1347 0
373.367 17.9495 0
375.905 17.8613 0
376.054 22.1438 0
373.516 22.232 0
374.636 17.9054 0
375.979 20.0026 0
374.785 22.1879 0
373.441 20.0908 0
374.71 20.0467 0
375.905 17.8613 0
378.442 17.7729 0
378.592 22.0555 0
376.054 22.1438 0
377.174 17.8172 0
378.517 19.9142 0
377.323 22.0997 0
375.979 20.0026 0
377.248 19.9584 0
378.442 17.7729 0
380.98 17.6843 0
381.129 21.9668 0
378.592 22.0555 0
379.711 17.7287 0
381.055 19.8256 0
379.861 22.0112 0
378.517 19.9142 0
379.786 19.8699 0
380.98 17.6843 0
383.517 17.5955 0
383.667 21.878 0
381.129 21.9668 0
382.249 17.6399 0
383.592 19.7368 0
382.398 21.9225 0
381.055 19.8256 0
382.323 19.7812 0
383.517 17.5955 0
386.055 17.5064 0
386.205 21.7889 0
383.667 21.878 0
384.786 17.551 0
386.13 19.6477 0
384.936 21.8335 0
383.592 19.7368 0
384.861 19.6923 0
386.055 17.5064 0
388.592 17.4172 0
388.743 21.6997 0
386.205 21.7889 0
387.323 17.4618 0
388.667 19.5584 0
387.474 21.7443 0
386.13 19.6477 0
387.399 19.6031 0
388.592 17.4172 0
391.13 17.3277 0
391.281 21.6102 0
388.743 21.6997 0
389.861 17.3724 0
391.205 19.4689 0
390.012 21.6549 0
388.667 19.5584 0
389.936 19.5137 0
391.13 17.3277 0
393.667 17.238 0
393.818 21.5205 0
391.281 21.6102 0
392.398 17.2828 0
393.743 19.3792 0
392.549 21.5654 0
391.205 19.4689 0
392.474 19.4241 0
393.667 17.238 0
396.204 17.1481 0
396.356 21.4306 0
393.818 21.5205 0
394.936 17.193 0
396.28 19.2893 0
395.087 21.4756 0
393.743 19.3792 0
395.011 19.3343 0
396.204 17.1481 0
398.742 17.058 0
398.894 21.3405 0
396.356 21.4306 0
397.473 17.103 0
398.818 19.1992 0
397.625 21.3856 0
396.28 19.2893 0
397.549 19.2443 0
398.742 17.058 0
401.279 16.9677 0
401.431 21.2502 0
398.894 21.3405 0
400.01 17.0128 0
401.355 19.109 0
400.162 21.2954 0
398.818 19.1992 0
400.086 19.1541 0
401.279 16.9677 0
403.816 16.8772 0
403.969 21.1597 0
401.431 21.2502 0
402.547 16.9225 0
403.892 19.0185 0
402.7 21.205 0
401.355 19.109 0
402.624 19.0637 0
403.816 16.8772 0
406.353 16.7865 0
406.506 21.0691 0
403.969 21.1597 0
405.085 16.8319 0
406.43 18.9278 0
405.238 21.1144 0
403.892 19.0185 0
405.161 18.9732 0
406.353 16.7865 0
408.89 16.6957 0
409.044 20.9782 0
406.506 21.0691 0
407.622 16.7411 0
408.967 18.837 0
407.775 21.0237 0
406.43 18.9278 0
407.698 18.8824 0
408.89 16.6957 0
411.428 16.6047 0
411.581 20.8872 0
409.044 20.9782 0
410.159 16.6502 0
411.504 18.746 0
410.313 20.9327 0
408.967 18.837 0
410.236 18.7915 0
411.428 16.6047 0
413.965 16.5135 0
414.119 20.796 0
411.581 20.8872 0
412.696 16.5591 0
414.042 18.6548 0
412.85 20.8416 0
411.504 18.746 0
412.773 18.7004 0
413.965 16.5135 0
416.502 16.4222 0
416.656 20.7047 0
414.119 20.796 0
415.233 16.4678 0
416.579 18.5634 0
415.387 20.7504 0
414.042 18.6548 0
415.31 18.6091 0
416.502 16.4222 0
419.039 16.3306 0
419.193 20.6132 0
416.656 20.7047 0
417.77 16.3764 0
419.116 18.4719 0
417.925 20.6589 0
416.579 18.5634 0
417.848 18.5177 0
419.039 16.3306 0
421.576 16.239 0
421.731 20.5215 0
419.193 20.6132 0
420.307 16.2848 0
421.653 18.3803 0
420.462 20.5674 0
419.116 18.4719 0
420.385 18.4261 0
421.576 16.239 0
424.113 16.1472 0
424.268 20.4297 0
421.731 20.5215 0
422.845 16.1931 0
424.191 18.2885 0
422.999 20.4756 0
421.653 18.3803 0
422.922 18.3344 0
424.113 16.1472 0
426.65 16.0552 0
426.805 20.3378 0
424.268 20.4297 0
425.382 16.1012 0
426.728 18.1965 0
425.537 20.3838 0
424.191 18.2885 0
425.459 18.2425 0
426.65 16.0552 0
429.187 15.9631 0
429.343 20.2457 0
426.805 20.3378 0
427.919 16.0092 0
429.265 18.1044 0
428.074 20.2917 0
426.728 18.1965 0
427.996 18.1505 0
429.187 15.9631 0
431.724 15.8709 0
431.88 20.1535 0
429.343 20.2457 0
430.456 15.917 0
431.802 18.0122 0
430.611 20.1996 0
429.265 18.1044 0
430.533 18.0583 0
431.724 15.8709 0
434.261 15.7786 0
434.417 20.0611 0
431.88 20.1535 0
432.992 15.8247 0
434.339 17.9198 0
433.148 20.1073 0
431.802 18.0122 0
433.07 17.966 0
434.261 15.7786 0
436.798 15.6861 0
436.954 19.9686 0
434.417 20.0611 0
435.529 15.7323 0
436.876 17.8274 0
435.685 20.0149 0
434.339 17.9198 0
435.607 17.8736 0
436.798 15.6861 0
439.335 15.5935 0
439.491 19.876 0
436.954 19.9686 0
438.066 15.6398 0
439.413 17.7348 0
438.223 19.9223 0
436.876 17.8274 0
438.144 17.7811 0
439.335 15.5935 0
441.872 15.5007 0
442.028 19.7833 0
439.491 19.876 0
440.603 15.5471 0
441.95 17.642 0
440.76 19.8297 0
439.413 17.7348 0
440.681 17.6884 0
441.872 15.5007 0
444.408 15.4079 0
444.565 19.6905 0
442.028 19.7833 0
443.14 15.4543 0
444.487 17.5492 0
443.297 19.7369 0
441.95 17.642 0
443.218 17.5956 0
444.408 15.4079 0
446.945 15.315 0
447.102 19.5976 0
444.565 19.6905 0
445.677 15.3615 0
447.024 17.4563 0
445.834 19.644 0
444.487 17.5492 0
445.755 17.5028 0
446.945 15.315 0
449.482 15.222 0
449.639 19.5045 0
447.102 19.5976 0
448.214 15.2685 0
449.561 17.3633 0
448.371 19.5511 0
447.024 17.4563 0
448.292 17.4098 0
449.482 15.222 0
452.019 15.1288 0
452.176 19.4114 0
449.639 19.5045 0
450.75 15.1754 0
452.097 17.2701 0
450.908 19.458 0
449.561 17.3633 0
450.829 17.3167 0
452.019 15.1288 0
454.556 15.0356 0
454.713 19.3182 0
452.176 19.4114 0
453.287 15.0822 0
454.634 17.1769 0
453.444 19.3648 0
452.097 17.2701 0
453.366 17.2235 0
454.556 15.0356 0
457.092 14.9423 0
457.25 19.2249 0
454.713 19.3182 0
455.824 14.989 0
457.171 17.0836 0
455.981 19.2716 0
454.634 17.1769 0
455.903 17.1303 0
457.092 14.9423 0
459.629 14.8489 0
459.787 19.1315 0
457.25 19.2249 0
458.361 14.8956 0
459.708 16.9902 0
458.518 19.1782 0
457.171 17.0836 0
458.439 17.0369 0
459.629 14.8489 0
462.166 14.7554 0
462.323 19.0381 0
459.787 19.1315 0
460.897 14.8022 0
462.244 16.8968 0
461.055 19.0848 0
459.708 16.9902 0
460.976 16.9435 0
462.166 14.7554 0
464.702 14.6619 0
464.86 18.9445 0
462.323 19.0381 0
463.434 14.7087 0
464.781 16.8032 0
463.592 18.9913 0
462.244 16.8968 0
463.513 16.85 0
464.702 14.6619 0
467.239 14.5683 0
467.397 18.8509 0
464.86 18.9445 0
465.971 14.6151 0
467.318 16.7096 0
466.128 18.8977 0
464.781 16.8032 0
466.049 16.7564 0
467.239 14.5683 0
469.775 14.4746 0
469.934 18.7573 0
467.397 18.8509 0
468.507 14.5215 0
469.854 16.616 0
468.665 18.8041 0
467.318 16.7096 0
468.586 16.6628 0
469.775 14.4746 0
472.312 14.3809 0
472.47 18.6636 0
469.934 18.7573 0
471.044 14.4278 0
472.391 16.5222 0
471.202 18.7104 0
469.854 16.616 0
471.123 16.5691 0
472.312 14.3809 0
474.849 14.2871 0
475.007 18.5698 0
472.47 18.6636 0
473.58 14.334 0
474.928 16.4285 0
473.739 18.6167 0
472.391 16.5222 0
473.659 16.4754 0
474.849 14.2871 0
477.385 14.1933 0
477.543 18.476 0
475.007 18.5698 0
476.117 14.2402 0
477.464 16.3346 0
476.275 18.5229 0
474.928 16.4285 0
476.196 16.3816 0
477.385 14.1933 0
479.922 14.0994 0
480.08 18.3821 0
477.543 18.476 0
478.653 14.1464 0
480.001 16.2408 0
478.812 18.429 0
477.464 16.3346 0
478.733 16.2877 0
479.922 14.0994 0
482.458 14.0055 0
482.617 18.2882 0
480.08 18.3821 0
481.19 14.0525 0
482.537 16.1469 0
481.348 18.3352 0
480.001 16.2408 0
481.269 16.1938 0
482.458 14.0055 0
484.995 13.9116 0
485.153 18.1943 0
482.617 18.2882 0
483.726 13.9586 0
485.074 16.0529 0
483.885 18.2413 0
482.537 16.1469 0
483.806 16.0999 0
484.995 13.9116 0
487.531 13.8176 0
487.69 18.1003 0
485.153 18.1943 0
486.263 13.8646 0
487.61 15.959 0
486.421 18.1473 0
485.074 16.0529 0
486.342 16.006 0
487.531 13.8176 0
490.067 13.7236 0
490.226 18.0064 0
487.69 18.1003 0
488.799 13.7706 0
490.147 15.865 0
488.958 18.0533 0
487.61 15.959 0
488.879 15.912 0
490.067 13.7236 0
492.604 13.6296 0
492.763 17.9123 0
490.226 18.0064 0
491.336 13.6766 0
492.683 15.771 0
491.494 17.9594 0
490.147 15.865 0
491.415 15.818 0
492.604 13.6296 0
495.14 13.5356 0
495.299 17.8183 0
492.763 17.9123 0
493.872 13.5826 0
495.22 15.6769 0
494.031 17.8653 0
492.683 15.771 0
493.951 15.724 0
495.14 13.5356 0
497.677 13.4414 0
497.836 17.7242 0
495.299 17.8183 0
496.408 13.4885 0
497.756 15.5828 0
496.567 17.7712 0
495.22 15.6769 0
496.488 15.6299 0
497.677 13.4414 0
500.213 13.3473 0
500.372 17.6296 0
497.836 17.7242 0
498.945 13.3944 0
500.292 15.4885 0
499.104 17.677 0
497.756 15.5828 0
499.024 15.5357 0
      </DataArray>
    </Points>
    <Cells>
      <DataArray type="Int32" Name="connectivity" format="ascii">
0 1 2 3 4 5 6 7 8 
9 10 11 12 13 14 15 16 17 
18 19 20 21 22 23 24 25 26 
27 28 29 30 31 32 33 34 35 
36 37 38 39 40 41 42 43 44 
45 46 47 48 49 50 51 52 53 
54 55 56 57 58 59 60 61 62 
63 64 65 66 67 68 69 70 71 
72 73 74 75 76 77 78 79 80 
81 82 83 84 85 86 87 88 89 
90 91 92 93 94 95 96 97 98 
99 100 101 102 103 104 105 106 107 
108 109 110 111 112 113 114 115 116 
117 118 119 120 121 122 123 124 125 
126 127 128 129 130 131 132 133 134 
135 136 137 138 139 140 141 142 143 
144 145 146 147 148 149 150 151 152 
153 154 155 156 157 158 159 160 161 
162 163 164 165 166 167 168 169 170 
171 172 173 174 175 176 177 178 179 
180 181 182 183 184 185 186 187 188 
189 190 191 192 193 194 195 196 197 
198 199 200 201 202 203 204 205 206 
207 208 209 210 211 212 213 214 215 
216 217 218 219 220 221 222 223 224 
225 226 227 228 229 230 231 232 233 
234 235 236 237 238 239 240 241 242 
243 244 245 246 247 248 249 250 251 
252 253 254 255 256 257 258 259 260 
261 262 263 264 265 266 267 268 269 
270 271 272 273 274 275 276 277 278 
279 280 281 282 283 284 285 286 287 
288 289 290 291 292 293 294 295 296 
297 298 299 300 301 302 303 304 305 
306 307 308 309 310 311 312 313 314 
315 316 317 318 319 320 321 322 323 
324 325 326 327 328 329 330 331 332 
333 334 335 336 337 338 339 340 341 
342 343 344 345 346 347 348 349 350 
351 352 353 354 355 356 357 358 359 
360 361 362 363 364 365 366 367 368 
369 370 371 372 373 374 375 376 377 
378 379 380 381 382 383 384 385 386 
387 388 389 390 391 392 393 394 395 
396 397 398 399 400 401 402 403 404 
405 406 407 408 409 410 411 412 413 
414 415 416 417 418 419 420 421 422 
423 424 425 426 427 428 429 430 431 
432 433 434 435 436 437 438 439 440 
441 442 443 444 445 446 447 448 449 
450 451 452 453 454 455 456 457 458 
459 460 461 462 463 464 465 466 467 
468 469 470 471 472 473 474 475 476 
477 478 479 480 481 482 483 484 485 
486 487 488 489 490 491 492 493 494 
495 496 497 498 499 500 501 502 503 
504 505 506 507 508 509 510 511 512 
513 514 515 516 517 518 519 520 521 
522 523 524 525 526 527 528 529 530 
531 532 533 534 535 536 537 538 539 
540 541 542 543 544 545 546 547 548 
549 550 551 552 553 554 555 556 557 
558 559 560 561 562 563 564 565 566 
567 568 569 570 571 572 573 574 575 
576 577 578 579 580 581 582 583 584 
585 586 587 588 589 590 591 592 593 
594 595 596 597 598 599 600 601 602 
603 604 605 606 607 608 609 610 611 
612 613 614 615 616 617 618 619 620 
621 622 623 624 625 626 627 628 629 
630 631 632 633 634 635 636 637 638 
639 640 641 642 643 644 645 646 647 
648 649 650 651 652 653 654 655 656 
657 658 659 660 661 662 663 664 665 
666 667 668 669 670 671 672 673 674 
675 676 677 678 679 680 681 682 683 
684 685 686 687 688 689 690 691 692 
693 694 695 696 697 698 699 700 701 
702 703 704 705 706 707 708 709 710 
711 712 713 714 715 716 717 718 719 
720 721 722 723 724 725 726 727 728 
729 730 731 732 733 734 735 736 737 
738 739 740 741 742 743 744 745 746 
747 748 749 750 751 752 753 754 755 
756 757 758 759 760 761 762 763 764 
765 766 767 768 769 770 771 772 773 
774 775 776 777 778 779 780 781 782 
783 784 785 786 787 788 789 790 791 
792 793 794 795 796 797 798 799 800 
801 802 803 804 805 806 807 808 809 
810 811 812 813 814 815 816 817 818 
819 820 821 822 823 824 825 826 827 
828 829 830 831 832 833 834 835 836 
837 838 839 840 841 842 843 844 845 
846 847 848 849 850 851 852 853 854 
855 856 857 858 859 860 861 862 863 
864 865 866 867 868 869 870 871 872 
873 874 875 876 877 878 879 880 881 
882 883 884 885 886 887 888 889 890 
891 892 893 894 895 896 897 898 899 
900 901 902 903 904 905 906 907 908 
909 910 911 912 913 914 915 916 917 
918 919 920 921 922 923 924 925 926 
927 928 929 930 931 932 933 934 935 
936 937 938 939 940 941 942 943 944 
945 946 947 948 949 950 951 952 953 
954 955 956 957 958 959 960 961 962 
963 964 965 966 967 968 969 970 971 
972 973 974 975 976 977 978 979 980 
981 982 983 984 985 986 987 988 989 
990 991 992 993 994 995 996 997 998 
999 1000 1001 1002 1003 1004 1005 1006 1007 
1008 1009 1010 1011 1012 1013 1014 1015 1016 
1017 1018 1019 1020 1021 1022 1023 1024 1025 
1026 1027 1028 1029 1030 1031 1032 1033 1034 
1035 1036 1037 1038 1039 1040 1041 1042 1043 
1044 1045 1046 1047 1048 1049 1050 1051 1052 
1053 1054 1055 1056 1057 1058 1059 1060 1061 
1062 1063 1064 1065 1066 1067 1068 1069 1070 
1071 1072 1073 1074 1075 1076 1077 1078 1079 
1080 1081 1082 1083 1084 1085 1086 1087 1088 
1089 1090 1091 1092 1093 1094 1095 1096 1097 
1098 1099 1100 1101 1102 1103 1104 1105 1106 
1107 1108 1109 1110 1111 1112 1113 1114 1115 
1116 1117 1118 1119 1120 1121 1122 1123 1124 
1125 1126 1127 1128 1129 1130 1131 1132 1133 
1134 1135 1136 1137 1138 1139 1140 1141 1142 
1143 1144 1145 1146 1147 1148 1149 1150 1151 
1152 1153 1154 1155 1156 1157 1158 1159 1160 
1161 1162 1163 1164 1165 1166 1167 1168 1169 
1170 1171 1172 1173 1174 1175 1176 1177 1178 
1179 1180 1181 1182 1183 1184 1185 1186 1187 
1188 1189 1190 1191 1192 1193 1194 1195 1196 
1197 1198 1199 1200 1201 1202 1203 1204 1205 
1206 1207 1208 1209 1210 1211 1212 1213 1214 
1215 1216 1217 1218 1219 1220 1221 1222 1223 
1224 1225 1226 1227 1228 1229 1230 1231 1232 
1233 1234 1235 1236 1237 1238 1239 1240 1241 
1242 1243 1244 1245 1246 1247 1248 1249 1250 
1251 1252 1253 1254 1255 1256 1257 1258 1259 
1260 1261 1262 1263 1264 1265 1266 1267 1268 
1269 1270 1271 1272 1273 1274 1275 1276 1277 
1278 1279 1280 1281 1282 1283 1284 1285 1286 
1287 1288 1289 1290 1291 1292 1293 1294 1295 
1296 1297 1298 1299 1300 1301 1302 1303 1304 
1305 1306 1307 1308 1309 1310 1311 1312 1313 
1314 1315 1316 1317 1318 1319 1320 1321 1322 
1323 1324 1325 1326 1327 1328 1329 1330 1331 
1332 1333 1334 1335 1336 1337 1338 1339 1340 
1341 1342 1343 1344 1345 1346 1347 1348 1349 
1350 1351 1352 1353 1354 1355 1356 1357 1358 
1359 1360 1361 1362 1363 1364 1365 1366 1367 
1368 1369 1370 1371 1372 1373 1374 1375 1376 
1377 1378 1379 1380 1381 1382 1383 1384 1385 
1386 1387 1388 1389 1390 1391 1392 1393 1394 
1395 1396 1397 1398 1399 1400 1401 1402 1403 
1404 1405 1406 1407 1408 1409 1410 1411 1412 
1413 1414 1415 1416 1417 1418 1419 1420 1421 
1422 1423 1424 1425 1426 1427 1428 1429 1430 
1431 1432 1433 1434 1435 1436 1437 1438 1439 
1440 1441 1442 1443 1444 1445 1446 1447 1448 
1449 1450 1451 1452 1453 1454 1455 1456 1457 
1458 1459 1460 1461 1462 1463 1464 1465 1466 
1467 1468 1469 1470 1471 1472 1473 1474 1475 
1476 1477 1478 1479 1480 1481 1482 1483 1484 
1485 1486 1487 1488 1489 1490 1491 1492 1493 
1494 1495 1496 1497 1498 1499 1500 1501 1502 
1503 1504 1505 1506 1507 1508 1509 1510 1511 
1512 1513 1514 1515 1516 1517 1518 1519 1520 
1521 1522 1523 1524 1525 1526 1527 1528 1529 
1530 1531 1532 1533 1534 1535 1536 1537 1538 
1539 1540 1541 1542 1543 1544 1545 1546 1547 
1548 1549 1550 1551 1552 1553 1554 1555 1556 
1557 1558 1559 1560 1561 1562 1563 1564 1565 
1566 1567 1568 1569 1570 1571 1572 1573 1574 
1575 1576 1577 1578 1579 1580 1581 1582 1583 
1584 1585 1586 1587 1588 1589 1590 1591 1592 
1593 1594 1595 1596 1597 1598 1599 1600 1601 
1602 1603 1604 1605 1606 1607 1608 1609 1610 
1611 1612 1613 1614 1615 1616 1617 1618 1619 
1620 1621 1622 1623 1624 1625 1626 1627 1628 
1629 1630 1631 1632 1633 1634 1635 1636 1637 
1638 1639 1640 1641 1642 1643 1644 1645 1646 
1647 1648 1649 1650 1651 1652 1653 1654 1655 
1656 1657 1658 1659 1660 1661 1662 1663 1664 
1665 1666 1667 1668 1669 1670 1671 1672 1673 
1674 1675 1676 1677 1678 1679 1680 1681 1682 
1683 1684 1685 1686 1687 1688 1689 1690 1691 
1692 1693 1694 1695 1696 1697 1698 1699 1700 
1701 1702 1703 1704 1705 1706 1707 1708 1709 
1710 1711 1712 1713 1714 1715 1716 1717 1718 
1719 1720 1721 1722 1723 1724 1725 1726 1727 
1728 1729 1730 1731 1732 1733 1734 1735 1736 
1737 1738 1739 1740 1741 1742 1743 1744 1745 
1746 1747 1748 1749 1750 1751 1752 1753 1754 
1755 1756 1757 1758 1759 1760 1761 1762 1763 
1764 1765 1766 1767 1768 1769 1770 1771 1772 
1773 1774 1775 1776 1777 1778 1779 1780 1781 
1782 1783 1784 1785 1786 1787 1788 1789 1790 
1791 1792 1793 1794 1795 1796 1797 1798 1799 
1800 1801 1802 1803 1804 1805 1806 1807 1808 
1809 1810 1811 1812 1813 1814 1815 1816 1817 
1818 1819 1820 1821 1822 1823 1824 1825 1826 
1827 1828 1829 1830 1831 1832 1833 1834 1835 
1836 1837 1838 1839 1840 1841 1842 1843 1844 
1845 1846 1847 1848 1849 1850 1851 1852 1853 
1854 1855 1856 1857 1858 1859 1860 1861 1862 
1863 1864 1865 1866 1867 1868 1869 1870 1871 
1872 1873 1874 1875 1876 1877 1878 1879 1880 
1881 1882 1883 1884 1885 1886 1887 1888 1889 
1890 1891 1892 1893 1894 1895 1896 1897 1898 
1899 1900 1901 1902 1903 1904 1905 1906 1907 
1908 1909 1910 1911 1912 1913 1914 1915 1916 
1917 1918 1919 1920 1921 1922 1923 1924 1925 
1926 1927 1928 1929 1930 1931 1932 1933 1934 
1935 1936 1937 1938 1939 1940 1941 1942 1943 
1944 1945 1946 1947 1948 1949 1950 1951 1952 
1953 1954 1955 1956 1957 1958 1959 1960 1961 
1962 1963 1964 1965 1966 1967 1968 1969 1970 
1971 1972 1973 1974 1975 1976 1977 1978 1979 
1980 1981 1982 1983 1984 1985 1986 1987 1988 
1989 1990 1991 1992 1993 1994 1995 1996 1997 
1998 1999 2000 2001 2002 2003 2004 2005 2006 
2007 2008 2009 2010 2011 2012 2013 2014 2015 
2016 2017 2018 2019 2020 2021 2022 2023 2024 
2025 2026 2027 2028 2029 2030 2031 2032 2033 
2034 2035 2036 2037 2038 2039 2040 2041 2042 
2043 2044 2045 2046 2047 2048 2049 2050 2051 
2052 2053 2054 2055 2056 2057 2058 2059 2060 
2061 2062 2063 2064 2065 2066 2067 2068 2069 
2070 2071 2072 2073 2074 2075 2076 2077 2078 
2079 2080 2081 2082 2083 2084 2085 2086 2087 
2088 2089 2090 2091 2092 2093 2094 2095 2096 
2097 2098 2099 2100 2101 2102 2103 2104 2105 
2106 2107 2108 2109 2110 2111 2112 2113 2114 
2115 2116 2117 2118 2119 2120 2121 2122 2123 
2124 2125 2126 2127 2128 2129 2130 2131 2132 
2133 2134 2135 2136 2137 2138 2139 2140 2141 
2142 2143 2144 2145 2146 2147 2148 2149 2150 
2151 2152 2153 2154 2155 2156 2157 2158 2159 
2160 2161 2162 2163 2164 2165 2166 2167 2168 
2169 2170 2171 2172 2173 2174 2175 2176 2177 
2178 2179 2180 2181 2182 2183 2184 2185 2186 
2187 2188 2189 2190 2191 2192 2193 2194 2195 
2196 2197 2198 2199 2200 2201 2202 2203 2204 
2205 2206 2207 2208 2209 2210 2211 2212 2213 
2214 2215 2216 2217 2218 2219 2220 2221 2222 
2223 2224 2225 2226 2227 2228 2229 2230 2231 
2232 2233 2234 2235 2236 2237 2238 2239 2240 
2241 2242 2243 2244 2245 2246 2247 2248 2249 
2250 2251 2252 2253 2254 2255 2256 2257 2258 
2259 2260 2261 2262 2263 2264 2265 2266 2267 
2268 2269 2270 2271 2272 2273 2274 2275 2276 
2277 2278 2279 2280 2281 2282 2283 2284 2285 
2286 2287 2288 2289 2290 2291 2292 2293 2294 
2295 2296 2297 2298 2299 2300 2301 2302 2303 
2304 2305 2306 2307 2308 2309 2310 2311 2312 
2313 2314 2315 2316 2317 2318 2319 2320 2321 
2322 2323 2324 2325 2326 2327 2328 2329 2330 
2331 2332 2333 2334 2335 2336 2337 2338 2339 
2340 2341 2342 2343 2344 2345 2346 2347 2348 
2349 2350 2351 2352 2353 2354 2355 2356 2357 
2358 2359 2360 2361 2362 2363 2364 2365 2366 
2367 2368 2369 2370 2371 2372 2373 2374 2375 
2376 2377 2378 2379 2380 2381 2382 2383 2384 
2385 2386 2387 2388 2389 2390 2391 2392 2393 
2394 2395 2396 2397 2398 2399 2400 2401 2402 
2403 2404 2405 2406 2407 2408 2409 2410 2411 
2412 2413 2414 2415 2416 2417 2418 2419 2420 
2421 2422 2423 2424 2425 2426 2427 2428 2429 
2430 2431 2432 2433 2434 2435 2436 2437 2438 
2439 2440 2441 2442 2443 2444 2445 2446 2447 
2448 2449 2450 2451 2452 2453 2454 2455 2456 
2457 2458 2459 2460 2461 2462 2463 2464 2465 
2466 2467 2468 2469 2470 2471 2472 2473 2474 
2475 2476 2477 2478 2479 2480 2481 2482 2483 
2484 2485 2486 2487 2488 2489 2490 2491 2492 
2493 2494 2495 2496 2497 2498 2499 2500 2501 
2502 2503 2504 2505 2506 2507 2508 2509 2510 
2511 2512 2513 2514 2515 2516 2517 2518 2519 
2520 2521 2522 2523 2524 2525 2526 2527 2528 
2529 2530 2531 2532 2533 2534 2535 2536 2537 
2538 2539 2540 2541 2542 2543 2544 2545 2546 
2547 2548 2549 2550 2551 2552 2553 2554 2555 
2556 2557 2558 2559 2560 2561 2562 2563 2564 
2565 2566 2567 2568 2569 2570 2571 2572 2573 
2574 2575 2576 2577 2578 2579 2580 2581 2582 
2583 2584 2585 2586 2587 2588 2589 2590 2591 
2592 2593 2594 2595 2596 2597 2598 2599 2600 
2601 2602 2603 2604 2605 2606 2607 2608 2609 
2610 2611 2612 2613 2614 2615 2616 2617 2618 
2619 2620 2621 2622 2623 2624 2625 2626 2627 
2628 2629 2630 2631 2632 2633 2634 2635 2636 
2637 2638 2639 2640 2641 2642 2643 2644 2645 
2646 2647 2648 2649 2650 2651 2652 2653 2654 
2655 2656 2657 2658 2659 2660 2661 2662 2663 
2664 2665 2666 2667 2668 2669 2670 2671 2672 
2673 2674 2675 2676 2677 2678 2679 2680 2681 
2682 2683 2684 2685 2686 2687 2688 2689 2690 
2691 2692 2693 2694 2695 2696 2697 2698 2699 
2700 2701 2702 2703 2704 2705 2706 2707 2708 
2709 2710 2711 2712 2713 2714 2715 2716 2717 
2718 2719 2720 2721 2722 2723 2724 2725 2726 
2727 2728 2729 2730 2731 2732 2733 2734 2735 
2736 2737 2738 2739 2740 2741 2742 2743 2744 
2745 2746 2747 2748 2749 2750 2751 2752 2753 
2754 2755 2756 2757 2758 2759 2760 2761 2762 
2763 2764 2765 2766 2767 2768 2769 2770 2771 
2772 2773 2774 2775 2776 2777 2778 2779 2780 
2781 2782 2783 2784 2785 2786 2787 2788 2789 
2790 2791 2792 2793 2794 2795 2796 2797 2798 
2799 2800 2801 2802 2803 2804 2805 2806 2807 
2808 2809 2810 2811 2812 2813 2814 2815 2816 
2817 2818 2819 2820 2821 2822 2823 2824 2825 
2826 2827 2828 2829 2830 2831 2832 2833 2834 
2835 2836 2837 2838 2839 2840 2841 2842 2843 
2844 2845 2846 2847 2848 2849 2850 2851 2852 
2853 2854 2855 2856 2857 2858 2859 2860 2861 
2862 2863 2864 2865 2866 2867 2868 2869 2870 
2871 2872 2873 2874 2875 2876 2877 2878 2879 
2880 2881 2882 2883 2884 2885 2886 2887 2888 
2889 2890 2891 2892 2893 2894 2895 2896 2897 
2898 2899 2900 2901 2902 2903 2904 2905 2906 
2907 2908 2909 2910 2911 2912 2913 2914 2915 
2916 2917 2918 2919 2920 2921 2922 2923 2924 
2925 2926 2927 2928 2929 2930 2931 2932 2933 
2934 2935 2936 2937 2938 2939 2940 2941 2942 
2943 2944 2945 2946 2947 2948 2949 2950 2951 
2952 2953 2954 2955 2956 2957 2958 2959 2960 
2961 2962 2963 2964 2965 2966 2967 2968 2969 
2970 2971 2972 2973 2974 2975 2976 2977 2978 
2979 2980 2981 2982 2983 2984 2985 2986 2987 
2988 2989 2990 2991 2992 2993 2994 2995 2996 
2997 2998 2999 3000 3001 3002 3003 3004 3005 
3006 3007 3008 3009 3010 3011 3012 3013 3014 
3015 3016 3017 3018 3019 3020 3021 3022 3023 
3024 3025 3026 3027 3028 3029 3030 3031 3032 
3033 3034 3035 3036 3037 3038 3039 3040 3041 
3042 3043 3044 3045 3046 3047 3048 3049 3050 
3051 3052 3053 3054 3055 3056 3057 3058 3059 
3060 3061 3062 3063 3064 3065 3066 3067 3068 
3069 3070 3071 3072 3073 3074 3075 3076 3077 
3078 3079 3080 3081 3082 3083 3084 3085 3086 
3087 3088 3089 3090 3091 3092 3093 3094 3095 
3096 3097 3098 3099 3100 3101 3102 3103 3104 
3105 3106 3107 3108 3109 3110 3111 3112 3113 
3114 3115 3116 3117 3118 3119 3120 3121 3122 
3123 3124 3125 3126 3127 3128 3129 3130 3131 
3132 3133 3134 3135 3136 3137 3138 3139 3140 
3141 3142 3143 3144 3145 3146 3147 3148 3149 
3150 3151 3152 3153 3154 3155 3156 3157 3158 
3159 3160 3161 3162 3163 3164 3165 3166 3167 
3168 3169 3170 3171 3172 3173 3174 3175 3176 
3177 3178 3179 3180 3181 3182 3183 3184 3185 
3186 3187 3188 3189 3190 3191 3192 3193 3194 
3195 3196 3197 3198 3199 3200 3201 3202 3203 
3204 3205 3206 3207 3208 3209 3210 3211 3212 
3213 3214 3215 3216 3217 3218 3219 3220 3221 
3222 3223 3224 3225 3226 3227 3228 3229 3230 
3231 3232 3233 3234 3235 3236 3237 3238 3239 
3240 3241 3242 3243 3244 3245 3246 3247 3248 
3249 3250 3251 3252 3253 3254 3255 3256 3257 
3258 3259 3260 3261 3262 3263 3264 3265 3266 
3267 3268 3269 3270 3271 3272 3273 3274 3275 
3276 3277 3278 3279 3280 3281 3282 3283 3284 
3285 3286 3287 3288 3289 3290 3291 3292 3293 
3294 3295 3296 3297 3298 3299 3300 3301 3302 
3303 3304 3305 3306 3307 3308 3309 3310 3311 
3312 3313 3314 3315 3316 3317 3318 3319 3320 
3321 3322 3323 3324 3325 3326 3327 3328 3329 
3330 3331 3332 3333 3334 3335 3336 3337 3338 
3339 3340 3341 3342 3343 3344 3345 3346 3347 
3348 3349 3350 3351 3352 3353 3354 3355 3356 
3357 3358 3359 3360 3361 3362 3363 3364 3365 
3366 3367 3368 3369 3370 3371 3372 3373 3374 
3375 3376 3377 3378 3379 3380 3381 3382 3383 
3384 3385 3386 3387 3388 3389 3390 3391 3392 
3393 3394 3395 3396 3397 3398 3399 3400 3401 
3402 3403 3404 3405 3406 3407 3408 3409 3410 
3411 3412 3413 3414 3415 3416 3417 3418 3419 
3420 3421 3422 3423 3424 3425 3426 3427 3428 
3429 3430 3431 3432 3433 3434 3435 3436 3437 
3438 3439 3440 3441 3442 3443 3444 3445 3446 
3447 3448 3449 3450 3451 3452 3453 3454 3455 
3456 3457 3458 3459 3460 3461 3462 3463 3464 
3465 3466 3467 3468 3469 3470 3471 3472 3473 
3474 3475 3476 3477 3478 3479 3480 3481 3482 
3483 3484 3485 3486 3487 3488 3489 3490 3491 
3492 3493 3494 3495 3496 3497 3498 3499 3500 
3501 3502 3503 3504 3505 3506 3507 3508 3509 
3510 3511 3512 3513 3514 3515 3516 3517 3518 
3519 3520 3521 3522 3523 3524 3525 3526 3527 
3528 3529 3530 3531 3532 3533 3534 3535 3536 
3537 3538 3539 3540 3541 3542 3543 3544 3545 
3546 3547 3548 3549 3550 3551 3552 3553 3554 
3555 3556 3557 3558 3559 3560 3561 3562 3563 
3564 3565 3566 3567 3568 3569 3570 3571 3572 
3573 3574 3575 3576 3577 3578 3579 3580 3581 
3582 3583 3584 3585 3586 3587 3588 3589 3590 
3591 3592 3593 3594 3595 3596 3597 3598 3599 
3600 3601 3602 3603 3604 3605 3606 3607 3608 
3609 3610 3611 3612 3613 3614 3615 3616 3617 
3618 3619 3620 3621 3622 3623 3624 3625 3626 
3627 3628 3629 3630 3631 3632 3633 3634 3635 
3636 3637 3638 3639 3640 3641 3642 3643 3644 
3645 3646 3647 3648 3649 3650 3651 3652 3653 
3654 3655 3656 3657 3658 3659 3660 3661 3662 
3663 3664 3665 3666 3667 3668 3669 3670 3671 
3672 3673 3674 3675 3676 3677 3678 3679 3680 
3681 3682 3683 3684 3685 3686 3687 3688 3689 
3690 3691 3692 3693 3694 3695 3696 3697 3698 
3699 3700 3701 3702 3703 3704 3705 3706 3707 
3708 3709 3710 3711 3712 3713 3714 3715 3716 
3717 3718 3719 3720 3721 3722 3723 3724 3725 
3726 3727 3728 3729 3730 3731 3732 3733 3734 
3735 3736 3737 3738 3739 3740 3741 3742 3743 
3744 3745 3746 3747 3748 3749 3750 3751 3752 
3753 3754 3755 3756 3757 3758 3759 3760 3761 
3762 3763 3764 3765 3766 3767 3768 3769 3770 
3771 3772 3773 3774 3775 3776 3777 3778 3779 
3780 3781 3782 3783 3784 3785 3786 3787 3788 
3789 3790 3791 3792 3793 3794 3795 3796 3797 
3798 3799 3800 3801 3802 3803 3804 3805 3806 
3807 3808 3809 3810 3811 3812 3813 3814 3815 
3816 3817 3818 3819 3820 3821 3822 3823 3824 
3825 3826 3827 3828 3829 3830 3831 3832 3833 
3834 3835 3836 3837 3838 3839 3840 3841 3842 
3843 3844 3845 3846 3847 3848 3849 3850 3851 
3852 3853 3854 3855 3856 3857 3858 3859 3860 
3861 3862 3863 3864 3865 3866 3867 3868 3869 
3870 3871 3872 3873 3874 3875 3876 3877 3878 
3879 3880 3881 3882 3883 3884 3885 3886 3887 
3888 3889 3890 3891 3892 3893 3894 3895 3896 
3897 3898 3899 3900 3901 3902 3903 3904 3905 
3906 3907 3908 3909 3910 3911 3912 3913 3914 
3915 3916 3917 3918 3919 3920 3921 3922 3923 
3924 3925 3926 3927 3928 3929 3930 3931 3932 
3933 3934 3935 3936 3937 3938 3939 3940 3941 
3942 3943 3944 3945 3946 3947 3948 3949 3950 
3951 3952 3953 3954 3955 3956 3957 3958 3959 
3960 3961 3962 3963 3964 3965 3966 3967 3968 
3969 3970 3971 3972 3973 3974 3975 3976 3977 
3978 3979 3980 3981 3982 3983 3984 3985 3986 
3987 3988 3989 3990 3991 3992 3993 3994 3995 
3996 3997 3998 3999 4000 4001 4002 4003 4004 
4005 4006 4007 4008 4009 4010 4011 4012 4013 
4014 4015 4016 4017 4018 4019 4020 4021 4022 
4023 4024 4025 4026 4027 4028 4029 4030 4031 
4032 4033 4034 4035 4036 4037 4038 4039 4040 
4041 4042 4043 4044 4045 4046 4047 4048 4049 
4050 4051 4052 4053 4054 4055 4056 4057 4058 
4059 4060 4061 4062 4063 4064 4065 4066 4067 
4068 4069 4070 4071 4072 4073 4074 4075 4076 
4077 4078 4079 4080 4081 4082 4083 4084 4085 
4086 4087 4088 4089 4090 4091 4092 4093 4094 
4095 4096 4097 4098 4099 4100 4101 4102 4103 
4104 4105 4106 4107 4108 4109 4110 4111 4112 
4113 4114 4115 4116 4117 4118 4119 4120 4121 
4122 4123 4124 4125 4126 4127 4128 4129 4130 
4131 4132 4133 4134 4135 4136 4137 4138 4139 
4140 4141 4142 4143 4144 4145 4146 4147 4148 
4149 4150 4151 4152 4153 4154 4155 4156 4157 
4158 4159 4160 4161 4162 4163 4164 4165 4166 
4167 4168 4169 4170 4171 4172 4173 4174 4175 
4176 4177 4178 4179 4180 4181 4182 4183 4184 
4185 4186 4187 4188 4189 4190 4191 4192 4193 
4194 4195 4196 4197 4198 4199 4200 4201 4202 
4203 4204 4205 4206 4207 4208 4209 4210 4211 
4212 4213 4214 4215 4216 4217 4218 4219 4220 
4221 4222 4223 4224 4225 4226 4227 4228 4229 
4230 4231 4232 4233 4234 4235 4236 4237 4238 
4239 4240 4241 4242 4243 4244 4245 4246 4247 
4248 4249 4250 4251 4252 4253 4254 4255 4256 
4257 4258 4259 4260 4261 4262 4263 4264 4265 
4266 4267 4268 4269 4270 4271 4272 4273 4274 
4275 4276 4277 4278 4279 4280 4281 4282 4283 
4284 4285 4286 4287 4288 4289 4290 4291 4292 
4293 4294 4295 4296 4297 4298 4299 4300 4301 
4302 4303 4304 4305 4306 4307 4308 4309 4310 
4311 4312 4313 4314 4315 4316 4317 4318 4319 
4320 4321 4322 4323 4324 4325 4326 4327 4328 
4329 4330 4331 4332 4333 4334 4335 4336 4337 
4338 4339 4340 4341 4342 4343 4344 4345 4346 
4347 4348 4349 4350 4351 4352 4353 4354 4355 
4356 4357 4358 4359 4360 4361 4362 4363 4364 
4365 4366 4367 4368 4369 4370 4371 4372 4373 
4374 4375 4376 4377 4378 4379 4380 4381 4382 
4383 4384 4385 4386 4387 4388 4389 4390 4391 
4392 4393 4394 4395 4396 4397 4398 4399 4400 
4401 4402 4403 4404 4405 4406 4407 4408 4409 
4410 4411 4412 4413 4414 4415 4416 4417 4418 
4419 4420 4421 4422 4423 4424 4425 4426 4427 
4428 4429 4430 4431 4432 4433 4434 4435 4436 
4437 4438 4439 4440 4441 4442 4443 4444 4445 
4446 4447 4448 4449 4450 4451 4452 4453 4454 
4455 4456 4457 4458 4459 4460 4461 4462 4463 
4464 4465 4466 4467 4468 4469 4470 4471 4472 
4473 4474 4475 4476 4477 4478 4479 4480 4481 
4482 4483 4484 4485 4486 4487 4488 4489 4490 
4491 4492 4493 4494 4495 4496 4497 4498 4499 
4500 4501 4502 4503 4504 4505 4506 4507 4508 
4509 4510 4511 4512 4513 4514 4515 4516 4517 
4518 4519 4520 4521 4522 4523 4524 4525 4526 
4527 4528 4529 4530 4531 4532 4533 4534 4535 
4536 4537 4538 4539 4540 4541 4542 4543 4544 
4545 4546 4547 4548 4549 4550 4551 4552 4553 
4554 4555 4556 4557 4558 4559 4560 4561 4562 
4563 4564 4565 4566 4567 4568 4569 4570 4571 
4572 4573 4574 4575 4576 4577 4578 4579 4580 
4581 4582 4583 4584 4585 4586 4587 4588 4589 
4590 4591 4592 4593 4594 4595 4596 4597 4598 
4599 4600 4601 4602 4603 4604 4605 4606 4607 
4608 4609 4610 4611 4612 4613 4614 4615 4616 
4617 4618 4619 4620 4621 4622 4623 4624 4625 
4626 4627 4628 4629 4630 4631 4632 4633 4634 
4635 4636 4637 4638 4639 4640 4641 4642 4643 
4644 4645 4646 4647 4648 4649 4650 4651 4652 
4653 4654 4655 4656 4657 4658 4659 4660 4661 
4662 4663 4664 4665 4666 4667 4668 4669 4670 
4671 4672 4673 4674 4675 4676 4677 4678 4679 
4680 4681 4682 4683 4684 4685 4686 4687 4688 
4689 4690 4691 4692 4693 4694 4695 4696 4697 
4698 4699 4700 4701 4702 4703 4704 4705 4706 
4707 4708 4709 4710 4711 4712 4713 4714 4715 
4716 4717 4718 4719 4720 4721 4722 4723 4724 
4725 4726 4727 4728 4729 4730 4731 4732 4733 
4734 4735 4736 4737 4738 4739 4740 4741 4742 
4743 4744 4745 4746 4747 4748 4749 4750 4751 
4752 4753 4754 4755 4756 4757 4758 4759 4760 
4761 4762 4763 4764 4765 4766 4767 4768 4769 
4770 4771 4772 4773 4774 4775 4776 4777 4778 
4779 4780 4781 4782 4783 4784 4785 4786 4787 
4788 4789 4790 4791 4792 4793 4794 4795 4796 
4797 4798 4799 4800 4801 4802 4803 4804 4805 
4806 4807 4808 4809 4810 4811 4812 4813 4814 
4815 4816 4817 4818 4819 4820 4821 4822 4823 
4824 4825 4826 4827 4828 4829 4830 4831 4832 
4833 4834 4835 4836 4837 4838 4839 4840 4841 
4842 4843 4844 4845 4846 4847 4848 4849 4850 
4851 4852 4853 4854 4855 4856 4857 4858 4859 
4860 4861 4862 4863 4864 4865 4866 4867 4868 
4869 4870 4871 4872 4873 4874 4875 4876 4877 
4878 4879 4880 4881 4882 4883 4884 4885 4886 
4887 4888 4889 4890 4891 4892 4893 4894 4895 
4896 4897 4898 4899 4900 4901 4902 4903 4904 
4905 4906 4907 4908 4909 4910 4911 4912 4913 
4914 4915 4916 4917 4918 4919 4920 4921 4922 
4923 4924 4925 4926 4927 4928 4929 4930 4931 
4932 4933 4934 4935 4936 4937 4938 4939 4940 
4941 4942 4943 4944 4945 4946 4947 4948 4949 
4950 4951 4952 4953 4954 4955 4956 4957 4958 
4959 4960 4961 4962 4963 4964 4965 4966 4967 
4968 4969 4970 4971 4972 4973 4974 4975 4976 
4977 4978 4979 4980 4981 4982 4983 4984 4985 
4986 4987 4988 4989 4990 4991 4992 4993 4994 
4995 4996 4997 4998 4999 5000 5001 5002 5003 
5004 5005 5006 5007 5008 5009 5010 5011 5012 
5013 5014 5015 5016 5017 5018 5019 5020 5021 
5022 5023 5024 5025 5026 5027 5028 5029 5030 
5031 5032 5033 5034 5035 5036 5037 5038 5039 
5040 5041 5042 5043 5044 5045 5046 5047 5048 
5049 5050 5051 5052 5053 5054 5055 5056 5057 
5058 5059 5060 5061 5062 5063 5064 5065 5066 
5067 5068 5069 5070 5071 5072 5073 5074 5075 
5076 5077 5078 5079 5080 5081 5082 5083 5084 
5085 5086 5087 5088 5089 5090 5091 5092 5093 
5094 5095 5096 5097 5098 5099 5100 5101 5102 
5103 5104 5105 5106 5107 5108 5109 5110 5111 
5112 5113 5114 5115 5116 5117 5118 5119 5120 
5121 5122 5123 5124 5125 5126 5127 5128 5129 
5130 5131 5132 5133 5134 5135 5136 5137 5138 
5139 5140 5141 5142 5143 5144 5145 5146 5147 
5148 5149 5150 5151 5152 5153 5154 5155 5156 
5157 5158 5159 5160 5161 5162 5163 5164 5165 
5166 5167 5168 5169 5170 5171 5172 5173 5174 
5175 5176 5177 5178 5179 5180 5181 5182 5183 
5184 5185 5186 5187 5188 5189 5190 5191 5192 
5193 5194 5195 5196 5197 5198 5199 5200 5201 
5202 5203 5204 5205 5206 5207 5208 5209 5210 
5211 5212 5213 5214 5215 5216 5217 5218 5219 
5220 5221 5222 5223 5224 5225 5226 5227 5228 
5229 5230 5231 5232 5233 5234 5235 5236 5237 
5238 5239 5240 5241 5242 5243 5244 5245 5246 
5247 5248 5249 5250 5251 5252 5253 5254 5255 
5256 5257 5258 5259 5260 5261 5262 5263 5264 
5265 5266 5267 5268 5269 5270 5271 5272 5273 
5274 5275 5276 5277 5278 5279 5280 5281 5282 
5283 5284 5285 5286 5287 5288 5289 5290 5291 
5292 5293 5294 5295 5296 5297 5298 5299 5300 
5301 5302 5303 5304 5305 5306 5307 5308 5309 
5310 5311 5312 5313 5314 5315 5316 5317 5318 
5319 5320 5321 5322 5323 5324 5325 5326 5327 
5328 5329 5330 5331 5332 5333 5334 5335 5336 
5337 5338 5339 5340 5341 5342 5343 5344 5345 
5346 5347 5348 5349 5350 5351 5352 5353 5354 
5355 5356 5357 5358 5359 5360 5361 5362 5363 
5364 5365 5366 5367 5368 5369 5370 5371 5372 
5373 5374 5375 5376 5377 5378 5379 5380 5381 
5382 5383 5384 5385 5386 5387 5388 5389 5390 
5391 5392 5393 5394 5395 5396 5397 5398 5399 
5400 5401 5402 5403 5404 5405 5406 5407 5408 
5409 5410 5411 5412 5413 5414 5415 5416 5417 
5418 5419 5420 5421 5422 5423 5424 5425 5426 
5427 5428 5429 5430 5431 5432 5433 5434 5435 
5436 5437 5438 5439 5440 5441 5442 5443 5444 
5445 5446 5447 5448 5449 5450 5451 5452 5453 
5454 5455 5456 5457 5458 5459 5460 5461 5462 
5463 5464 5465 5466 5467 5468 5469 5470 5471 
5472 5473 5474 5475 5476 5477 5478 5479 5480 
5481 5482 5483 5484 5485 5486 5487 5488 5489 
5490 5491 5492 5493 5494 5495 5496 5497 5498 
5499 5500 5501 5502 5503 5504 5505 5506 5507 
5508 5509 5510 5511 5512 5513 5514 5515 5516 
5517 5518 5519 5520 5521 5522 5523 5524 5525 
5526 5527 5528 5529 5530 5531 5532 5533 5534 
5535 5536 5537 5538 5539 5540 5541 5542 5543 
5544 5545 5546 5547 5548 5549 5550 5551 5552 
5553 5554 5555 5556 5557 5558 5559 5560 5561 
5562 5563 5564 5565 5566 5567 5568 5569 5570 
5571 5572 5573 5574 5575 5576 5577 5578 5579 
5580 5581 5582 5583 5584 5585 5586 5587 5588 
5589 5590 5591 5592 5593 5594 5595 5596 5597 
5598 5599 5600 5601 5602 5603 5604 5605 5606 
5607 5608 5609 5610 5611 5612 5613 5614 5615 
5616 5617 5618 5619 5620 5621 5622 5623 5624 
5625 5626 5627 5628 5629 5630 5631 5632 5633 
5634 5635 5636 5637 5638 5639 5640 5641 5642 
5643 5644 5645 5646 5647 5648 5649 5650 5651 
5652 5653 5654 5655 5656 5657 5658 5659 5660 
5661 5662 5663 5664 5665 5666 5667 5668 5669 
5670 5671 5672 5673 5674 5675 5676 5677 5678 
5679 5680 5681 5682 5683 5684 5685 5686 5687 
5688 5689 5690 5691 5692 5693 5694 5695 5696 
5697 5698 5699 5700 5701 5702 5703 5704 5705 
5706 5707 5708 5709 5710 5711 5712 5713 5714 
5715 5716 5717 5718 5719 5720 5721 5722 5723 
5724 5725 5726 5727 5728 5729 5730 5731 5732 
5733 5734 5735 5736 5737 5738 5739 5740 5741 
5742 5743 5744 5745 5746 5747 5748 5749 5750 
5751 5752 5753 5754 5755 5756 5757 5758 5759 
5760 5761 5762 5763 5764 5765 5766 5767 5768 
5769 5770 5771 5772 5773 5774 5775 5776 5777 
5778 5779 5780 5781 5782 5783 5784 5785 5786 
5787 5788 5789 5790 5791 5792 5793 5794 5795 
5796 5797 5798 5799 5800 5801 5802 5803 5804 
5805 5806 5807 5808 5809 5810 5811 5812 5813 
5814 5815 5816 5817 5818 5819 5820 5821 5822 
5823 5824 5825 5826 5827 5828 5829 5830 5831 
5832 5833 5834 5835 5836 5837 5838 5839 5840 
5841 5842 5843 5844 5845 5846 5847 5848 5849 
5850 5851 5852 5853 5854 5855 5856 5857 5858 
5859 5860 5861 5862 5863 5864 5865 5866 5867 
5868 5869 5870 5871 5872 5873 5874 5875 5876 
5877 5878 5879 5880 5881 5882 5883 5884 5885 
5886 5887 5888 5889 5890 5891 5892 5893 5894 
5895 5896 5897 5898 5899 5900 5901 5902 5903 
5904 5905 5906 5907 5908 5909 5910 5911 5912 
5913 5914 5915 5916 5917 5918 5919 5920 5921 
5922 5923 5924 5925 5926 5927 5928 5929 5930 
5931 5932 5933 5934 5935 5936 5937 5938 5939 
5940 5941 5942 5943 5944 5945 5946 5947 5948 
5949 5950 5951 5952 5953 5954 5955 5956 5957 
5958 5959 5960 5961 5962 5963 5964 5965 5966 
5967 5968 5969 5970 5971 5972 5973 5974 5975 
5976 5977 5978 5979 5980 5981 5982 5983 5984 
5985 5986 5987 5988 5989 5990 5991 5992 5993 
5994 5995 5996 5997 5998 5999 6000 6001 6002 
6003 6004 6005 6006 6007 6008 6009 6010 6011 
6012 6013 6014 6015 6016 6017 6018 6019 6020 
6021 6022 6023 6024 6025 6026 6027 6028 6029 
6030 6031 6032 6033 6034 6035 6036 6037 6038 
6039 6040 6041 6042 6043 6044 6045 6046 6047 
6048 6049 6050 6051 6052 6053 6054 6055 6056 
6057 6058 6059 6060 6061 6062 6063 6064 6065 
6066 6067 6068 6069 6070 6071 6072 6073 6074 
6075 6076 6077 6078 6079 6080 6081 6082 6083 
6084 6085 6086 6087 6088 6089 6090 6091 6092 
6093 6094 6095 6096 6097 6098 6099 6100 6101 
6102 6103 6104 6105 6106 6107 6108 6109 6110 
6111 6112 6113 6114 6115 6116 6117 6118 6119 
6120 6121 6122 6123 6124 6125 6126 6127 6128 
6129 6130 6131 6132 6133 6134 6135 6136 6137 
6138 6139 6140 6141 6142 6143 6144 6145 6146 
6147 6148 6149 6150 6151 6152 6153 6154 6155 
6156 6157 6158 6159 6160 6161 6162 6163 6164 
6165 6166 6167 6168 6169 6170 6171 6172 6173 
6174 6175 6176 6177 6178 6179 6180 6181 6182 
6183 6184 6185 6186 6187 6188 6189 6190 6191 
6192 6193 6194 6195 6196 6197 6198 6199 6200 
6201 6202 6203 6204 6205 6206 6207 6208 6209 
6210 6211 6212 6213 6214 6215 6216 6217 6218 
6219 6220 6221 6222 6223 6224 6225 6226 6227 
6228 6229 6230 6231 6232 6233 6234 6235 6236 
6237 6238 6239 6240 6241 6242 6243 6244 6245 
6246 6247 6248 6249 6250 6251 6252 6253 6254 
6255 6256 6257 6258 6259 6260 6261 6262 6263 
6264 6265 6266 6267 6268 6269 6270 6271 6272 
6273 6274 6275 6276 6277 6278 6279 6280 6281 
6282 6283 6284 6285 6286 6287 6288 6289 6290 
6291 6292 6293 6294 6295 6296 6297 6298 6299 
6300 6301 6302 6303 6304 6305 6306 6307 6308 
6309 6310 6311 6312 6313 6314 6315 6316 6317 
6318 6319 6320 6321 6322 6323 6324 6325 6326 
6327 6328 6329 6330 6331 6332 6333 6334 6335 
6336 6337 6338 6339 6340 6341 6342 6343 6344 
6345 6346 6347 6348 6349 6350 6351 6352 6353 
6354 6355 6356 6357 6358 6359 6360 6361 6362 
6363 6364 6365 6366 6367 6368 6369 6370 6371 
6372 6373 6374 6375 6376 6377 6378 6379 6380 
6381 6382 6383 6384 6385 6386 6387 6388 6389 
6390 6391 6392 6393 6394 6395 6396 6397 6398 
6399 6400 6401 6402 6403 6404 6405 6406 6407 
6408 6409 6410 6411 6412 6413 6414 6415 6416 
6417 6418 6419 6420 6421 6422 6423 6424 6425 
6426 6427 6428 6429 6430 6431 6432 6433 6434 
6435 6436 6437 6438 6439 6440 6441 6442 6443 
6444 6445 6446 6447 6448 6449 6450 6451 6452 
6453 6454 6455 6456 6457 6458 6459 6460 6461 
6462 6463 6464 6465 6466 6467 6468 6469 6470 
6471 6472 6473 6474 6475 6476 6477 6478 6479 
6480 6481 6482 6483 6484 6485 6486 6487 6488 
6489 6490 6491 6492 6493 6494 6495 6496 6497 
6498 6499 6500 6501 6502 6503 6504 6505 6506 
6507 6508 6509 6510 6511 6512 6513 6514 6515 
6516 6517 6518 6519 6520 6521 6522 6523 6524 
6525 6526 6527 6528 6529 6530 6531 6532 6533 
6534 6535 6536 6537 6538 6539 6540 6541 6542 
6543 6544 6545 6546 6547 6548 6549 6550 6551 
6552 6553 6554 6555 6556 6557 6558 6559 6560 
6561 6562 6563 6564 6565 6566 6567 6568 6569 
6570 6571 6572 6573 6574 6575 6576 6577 6578 
6579 6580 6581 6582 6583 6584 6585 6586 6587 
6588 6589 6590 6591 6592 6593 6594 6595 6596 
6597 6598 6599 6600 6601 6602 6603 6604 6605 
6606 6607 6608 6609 6610 6611 6612 6613 6614 
6615 6616 6617 6618 6619 6620 6621 6622 6623 
6624 6625 6626 6627 6628 6629 6630 6631 6632 
6633 6634 6635 6636 6637 6638 6639 6640 6641 
6642 6643 6644 6645 6646 6647 6648 6649 6650 
6651 6652 6653 6654 6655 6656 6657 6658 6659 
6660 6661 6662 6663 6664 6665 6666 6667 6668 
6669 6670 6671 6672 6673 6674 6675 6676 6677 
6678 6679 6680 6681 6682 6683 6684 6685 6686 
6687 6688 6689 6690 6691 6692 6693 6694 6695 
6696 6697 6698 6699 6700 6701 6702 6703 6704 
6705 6706 6707 6708 6709 6710 6711 6712 6713 
6714 6715 6716 6717 6718 6719 6720 6721 6722 
6723 6724 6725 6726 6727 6728 6729 6730 6731 
6732 6733 6734 6735 6736 6737 6738 6739 6740 
6741 6742 6743 6744 6745 6746 6747 6748 6749 
6750 6751 6752 6753 6754 6755 6756 6757 6758 
6759 6760 6761 6762 6763 6764 6765 6766 6767 
6768 6769 6770 6771 6772 6773 6774 6775 6776 
6777 6778 6779 6780 6781 6782 6783 6784 6785 
6786 6787 6788 6789 6790 6791 6792 6793 6794 
6795 6796 6797 6798 6799 6800 6801 6802 6803 
6804 6805 6806 6807 6808 6809 6810 6811 6812 
6813 6814 6815 6816 6817 6818 6819 6820 6821 
6822 6823 6824 6825 6826 6827 6828 6829 6830 
6831 6832 6833 6834 6835 6836 6837 6838 6839 
6840 6841 6842 6843 6844 6845 6846 6847 6848 
6849 6850 6851 6852 6853 6854 6855 6856 6857 
6858 6859 6860 6861 6862 6863 6864 6865 6866 
6867 6868 6869 6870 6871 6872 6873 6874 6875 
6876 6877 6878 6879 6880 6881 6882 6883 6884 
6885 6886 6887 6888 6889 6890 6891 6892 6893 
6894 6895 6896 6897 6898 6899 6900 6901 6902 
6903 6904 6905 6906 6907 6908 6909 6910 6911 
6912 6913 6914 6915 6916 6917 6918 6919 6920 
6921 6922 6923 6924 6925 6926 6927 6928 6929 
6930 6931 6932 6933 6934 6935 6936 6937 6938 
6939 6940 6941 6942 6943 6944 6945 6946 6947 
6948 6949 6950 6951 6952 6953 6954 6955 6956 
6957 6958 6959 6960 6961 6962 6963 6964 6965 
6966 6967 6968 6969 6970 6971 6972 6973 6974 
6975 6976 6977 6978 6979 6980 6981 6982 6983 
6984 6985 6986 6987 6988 6989 6990 6991 6992 
6993 6994 6995 6996 6997 6998 6999 7000 7001 
7002 7003 7004 7005 7006 7007 7008 7009 7010 
7011 7012 7013 7014 7015 7016 7017 7018 7019 
7020 7021 7022 7023 7024 7025 7026 7027 7028 
7029 7030 7031 7032 7033 7034 7035 7036 7037 
7038 7039 7040 7041 7042 7043 7044 7045 7046 
7047 7048 7049 7050 7051 7052 7053 7054 7055 
7056 7057 7058 7059 7060 7061 7062 7063 7064 
7065 7066 7067 7068 7069 7070 7071 7072 7073 
7074 7075 7076 7077 7078 7079 7080 7081 7082 
7083 7084 7085 7086 7087 7088 7089 7090 7091 
7092 7093 7094 7095 7096 7097 7098 7099 7100 
7101 7102 7103 7104 7105 7106 7107 7108 7109 
7110 7111 7112 7113 7114 7115 7116 7117 7118 
7119 7120 7121 7122 7123 7124 7125 7126 7127 
7128 7129 7130 7131 7132 7133 7134 7135 7136 
7137 7138 7139 7140 7141 7142 7143 7144 7145 
7146 7147 7148 7149 7150 7151 7152 7153 7154 
7155 7156 7157 7158 7159 7160 7161 7162 7163 
7164 7165 7166 7167 7168 7169 7170 7171 7172 
7173 7174 7175 7176 7177 7178 7179 7180 7181 
7182 7183 7184 7185 7186 7187 7188 7189 7190 
7191 7192 7193 7194 7195 7196 7197 7198 7199 
7200 7201 7202 7203 7204 7205 7206 7207 7208 
7209 7210 7211 7212 7213 7214 7215 7216 7217 
7218 7219 7220 7221 7222 7223 7224 7225 7226 
7227 7228 7229 7230 7231 7232 7233 7234 7235 
7236 7237 7238 7239 7240 7241 7242 7243 7244 
7245 7246 7247 7248 7249 7250 7251 7252 7253 
7254 7255 7256 7257 7258 7259 7260 7261 7262 
7263 7264 7265 7266 7267 7268 7269 7270 7271 
7272 7273 7274 7275 7276 7277 7278 7279 7280 
7281 7282 7283 7284 7285 7286 7287 7288 7289 
7290 7291 7292 7293 7294 7295 7296 7297 7298 
7299 7300 7301 7302 7303 7304 7305 7306 7307 
7308 7309 7310 7311 7312 7313 7314 7315 7316 
7317 7318 7319 7320 7321 7322 7323 7324 7325 
7326 7327 7328 7329 7330 7331 7332 7333 7334 
7335 7336 7337 7338 7339 7340 7341 7342 7343 
7344 7345 7346 7347 7348 7349 7350 7351 7352 
7353 7354 7355 7356 7357 7358 7359 7360 7361 
7362 7363 7364 7365 7366 7367 7368 7369 7370 
7371 7372 7373 7374 7375 7376 7377 7378 7379 
7380 7381 7382 7383 7384 7385 7386 7387 7388 
7389 7390 7391 7392 7393 7394 7395 7396 7397 
7398 7399 7400 7401 7402 7403 7404 7405 7406 
7407 7408 7409 7410 7411 7412 7413 7414 7415 
7416 7417 7418 7419 7420 7421 7422 7423 7424 
7425 7426 7427 7428 7429 7430 7431 7432 7433 
7434 7435 7436 7437 7438 7439 7440 7441 7442 
7443 7444 7445 7446 7447 7448 7449 7450 7451 
7452 7453 7454 7455 7456 7457 7458 7459 7460 
7461 7462 7463 7464 7465 7466 7467 7468 7469 
7470 7471 7472 7473 7474 7475 7476 7477 7478 
7479 7480 7481 7482 7483 7484 7485 7486 7487 
7488 7489 7490 7491 7492 7493 7494 7495 7496 
7497 7498 7499 7500 7501 7502 7503 7504 7505 
7506 7507 7508 7509 7510 7511 7512 7513 7514 
7515 7516 7517 7518 7519 7520 7521 7522 7523 
7524 7525 7526 7527 7528 7529 7530 7531 7532 
7533 7534 7535 7536 7537 7538 7539 7540 7541 
7542 7543 7544 7545 7546 7547 7548 7549 7550 
7551 7552 7553 7554 7555 7556 7557 7558 7559 
7560 7561 7562 7563 7564 7565 7566 7567 7568 
7569 7570 7571 7572 7573 7574 7575 7576 7577 
7578 7579 7580 7581 7582 7583 7584 7585 7586 
7587 7588 7589 7590 7591 7592 7593 7594 7595 
7596 7597 7598 7599 7600 7601 7602 7603 7604 
7605 7606 7607 7608 7609 7610 7611 7612 7613 
7614 7615 7616 7617 7618 7619 7620 7621 7622 
7623 7624 7625 7626 7627 7628 7629 7630 7631 
7632 7633 7634 7635 7636 7637 7638 7639 7640 
7641 7642 7643 7644 7645 7646 7647 7648 7649 
7650 7651 7652 7653 7654 7655 7656 7657 7658 
7659 7660 7661 7662 7663 7664 7665 7666 7667 
7668 7669 7670 7671 7672 7673 7674 7675 7676 
7677 7678 7679 7680 7681 7682 7683 7684 7685 
7686 7687 7688 7689 7690 7691 7692 7693 7694 
7695 7696 7697 7698 7699 7700 7701 7702 7703 
7704 7705 7706 7707 7708 7709 7710 7711 7712 
7713 7714 7715 7716 7717 7718 7719 7720 7721 
7722 7723 7724 7725 7726 7727 7728 7729 7730 
7731 7732 7733 7734 7735 7736 7737 7738 7739 
7740 7741 7742 7743 7744 7745 7746 7747 7748 
7749 7750 7751 7752 7753 7754 7755 7756 7757 
7758 7759 7760 7761 7762 7763 7764 7765 7766 
7767 7768 7769 7770 7771 7772 7773 7774 7775 
7776 7777 7778 7779 7780 7781 7782 7783 7784 
7785 7786 7787 7788 7789 7790 7791 7792 7793 
7794 7795 7796 7797 7798 7799 7800 7801 7802 
7803 7804 7805 7806 7807 7808 7809 7810 7811 
7812 7813 7814 7815 7816 7817 7818 7819 7820 
7821 7822 7823 7824 7825 7826 7827 7828 7829 
7830 7831 7832 7833 7834 7835 7836 7837 7838 
7839 7840 7841 7842 7843 7844 7845 7846 7847 
7848 7849 7850 7851 7852 7853 7854 7855 7856 
7857 7858 7859 7860 7861 7862 7863 7864 7865 
7866 7867 7868 7869 7870 7871 7872 7873 7874 
7875 7876 7877 7878 7879 7880 7881 7882 7883 
7884 7885 7886 7887 7888 7889 7890 7891 7892 
7893 7894 7895 7896 7897 7898 7899 7900 7901 
7902 7903 7904 7905 7906 7907 7908 7909 7910 
7911 7912 7913 7914 7915 7916 7917 7918 7919 
7920 7921 7922 7923 7924 7925 7926 7927 7928 
7929 7930 7931 7932 7933 7934 7935 7936 7937 
7938 7939 7940 7941 7942 7943 7944 7945 7946 
7947 7948 7949 7950 7951 7952 7953 7954 7955 
7956 7957 7958 7959 7960 7961 7962 7963 7964 
7965 7966 7967 7968 7969 7970 7971 7972 7973 
7974 7975 7976 7977 7978 7979 7980 7981 7982 
7983 7984 7985 7986 7987 7988 7989 7990 7991 
7992 7993 7994 7995 7996 7997 7998 7999 8000 
8001 8002 8003 8004 8005 8006 8007 8008 8009 
8010 8011 8012 8013 8014 8015 8016 8017 8018 
8019 8020 8021 8022 8023 8024 8025 8026 8027 
8028 8029 8030 8031 8032 8033 8034 8035 8036 
8037 8038 8039 8040 8041 8042 8043 8044 8045 
8046 8047 8048 8049 8050 8051 8052 8053 8054 
8055 8056 8057 8058 8059 8060 8061 8062 8063 
8064 8065 8066 8067 8068 8069 8070 8071 8072 
8073 8074 8075 8076 8077 8078 8079 8080 8081 
8082 8083 8084 8085 8086 8087 8088 8089 8090 
8091 8092 8093 8094 8095 8096 8097 8098 8099 
8100 8101 8102 8103 8104 8105 8106 8107 8108 
8109 8110 8111 8112 8113 8114 8115 8116 8117 
8118 8119 8120 8121 8122 8123 8124 8125 8126 
8127 8128 8129 8130 8131 8132 8133 8134 8135 
8136 8137 8138 8139 8140 8141 8142 8143 8144 
8145 8146 8147 8148 8149 8150 8151 8152 8153 
8154 8155 8156 8157 8158 8159 8160 8161 8162 
8163 8164 8165 8166 8167 8168 8169 8170 8171 
8172 8173 8174 8175 8176 8177 8178 8179 8180 
8181 8182 8183 8184 8185 8186 8187 8188 8189 
8190 8191 8192 8193 8194 8195 8196 8197 8198 
8199 8200 8201 8202 8203 8204 8205 8206 8207 
8208 8209 8210 8211 8212 8213 8214 8215 8216 
8217 8218 8219 8220 8221 8222 8223 8224 8225 
8226 8227 8228 8229 8230 8231 8232 8233 8234 
8235 8236 8237 8238 8239 8240 8241 8242 8243 
8244 8245 8246 8247 8248 8249 8250 8251 8252 
8253 8254 8255 8256 8257 8258 8259 8260 8261 
8262 8263 8264 8265 8266 8267 8268 8269 8270 
8271 8272 8273 8274 8275 8276 8277 8278 8279 
8280 8281 8282 8283 8284 8285 8286 8287 8288 
8289 8290 8291 8292 8293 8294 8295 8296 8297 
8298 8299 8300 8301 8302 8303 8304 8305 8306 
8307 8308 8309 8310 8311 8312 8313 8314 8315 
8316 8317 8318 8319 8320 8321 8322 8323 8324 
8325 8326 8327 8328 8329 8330 8331 8332 8333 
8334 8335 8336 8337 8338 8339 8340 8341 8342 
8343 8344 8345 8346 8347 8348 8349 8350 8351 
8352 8353 8354 8355 8356 8357 8358 8359 8360 
8361 8362 8363 8364 8365 8366 8367 8368 8369 
8370 8371 8372 8373 8374 8375 8376 8377 8378 
8379 8380 8381 8382 8383 8384 8385 8386 8387 
8388 8389 8390 8391 8392 8393 8394 8395 8396 
8397 8398 8399 8400 8401 8402 8403 8404 8405 
8406 8407 8408 8409 8410 8411 8412 8413 8414 
8415 8416 8417 8418 8419 8420 8421 8422 8423 
8424 8425 8426 8427 8428 8429 8430 8431 8432 
8433 8434 8435 8436 8437 8438 8439 8440 8441 
8442 8443 8444 8445 8446 8447 8448 8449 8450 
8451 8452 8453 8454 8455 8456 8457 8458 8459 
8460 8461 8462 8463 8464 8465 8466 8467 8468 
8469 8470 8471 8472 8473 8474 8475 8476 8477 
8478 8479 8480 8481 8482 8483 8484 8485 8486 
8487 8488 8489 8490 8491 8492 8493 8494 8495 
8496 8497 8498 8499 8500 8501 8502 8503 8504 
8505 8506 8507 8508 8509 8510 8511 8512 8513 
8514 8515 8516 8517 8518 8519 8520 8521 8522 
8523 8524 8525 8526 8527 8528 8529 8530 8531 
8532 8533 8534 8535 8536 8537 8538 8539 8540 
8541 8542 8543 8544 8545 8546 8547 8548 8549 
8550 8551 8552 8553 8554 8555 8556 8557 8558 
8559 8560 8561 8562 8563 8564 8565 8566 8567 
8568 8569 8570 8571 8572 8573 8574 8575 8576 
8577 8578 8579 8580 8581 8582 8583 8584 8585 
8586 8587 8588 8589 8590 8591 8592 8593 8594 
8595 8596 8597 8598 8599 8600 8601 8602 8603 
8604 8605 8606 8607 8608 8609 8610 8611 8612 
8613 8614 8615 8616 8617 8618 8619 8620 8621 
8622 8623 8624 8625 8626 8627 8628 8629 8630 
8631 8632 8633 8634 8635 8636 8637 8638 8639 
8640 8641 8642 8643 8644 8645 8646 8647 8648 
8649 8650 8651 8652 8653 8654 8655 8656 8657 
8658 8659 8660 8661 8662 8663 8664 8665 8666 
8667 8668 8669 8670 8671 8672 8673 8674 8675 
8676 8677 8678 8679 8680 8681 8682 8683 8684 
8685 8686 8687 8688 8689 8690 8691 8692 8693 
8694 8695 8696 8697 8698 8699 8700 8701 8702 
8703 8704 8705 8706 8707 8708 8709 8710 8711 
8712 8713 8714 8715 8716 8717 8718 8719 8720 
8721 8722 8723 8724 8725 8726 8727 8728 8729 
8730 8731 8732 8733 8734 8735 8736 8737 8738 
8739 8740 8741 8742 8743 8744 8745 8746 8747 
8748 8749 8750 8751 8752 8753 8754 8755 8756 
8757 8758 8759 8760 8761 8762 8763 8764 8765 
8766 8767 8768 8769 8770 8771 8772 8773 8774 
8775 8776 8777 8778 8779 8780 8781 8782 8783 
8784 8785 8786 8787 8788 8789 8790 8791 8792 
8793 8794 8795 8796 8797 8798 8799 8800 8801 
8802 8803 8804 8805 8806 8807 8808 8809 8810 
8811 8812 8813 8814 8815 8816 8817 8818 8819 
8820 8821 8822 8823 8824 8825 8826 8827 8828 
8829 8830 8831 8832 8833 8834 8835 8836 8837 
8838 8839 8840 8841 8842 8843 8844 8845 8846 
8847 8848 8849 8850 8851 8852 8853 8854 8855 
8856 8857 8858 8859 8860 8861 8862 8863 8864 
8865 8866 8867 8868 8869 8870 8871 8872 8873 
8874 8875 8876 8877 8878 8879 8880 8881 8882 
8883 8884 8885 8886 8887 8888 8889 8890 8891 
8892 8893 8894 8895 8896 8897 8898 8899 8900 
8901 8902 8903 8904 8905 8906 8907 8908 8909 
8910 8911 8912 8913 8914 8915 8916 8917 8918 
8919 8920 8921 8922 8923 8924 8925 8926 8927 
8928 8929 8930 8931 8932 8933 8934 8935 8936 
8937 8938 8939 8940 8941 8942 8943 8944 8945 
8946 8947 8948 8949 8950 8951 8952 8953 8954 
8955 8956 8957 8958 8959 8960 8961 8962 8963 
8964 8965 8966 8967 8968 8969 8970 8971 8972 
8973 8974 8975 8976 8977 8978 8979 8980 8981 
8982 8983 8984 8985 8986 8987 8988 8989 8990 
8991 8992 8993 8994 8995 8996 8997 8998 8999 
9000 9001 9002 9003 9004 9005 9006 9007 9008 
9009 9010 9011 9012 9013 9014 9015 9016 9017 
9018 9019 9020 9021 9022 9023 9024 9025 9026 
9027 9028 9029 9030 9031 9032 9033 9034 9035 
9036 9037 9038 9039 9040 9041 9042 9043 9044 
9045 9046 9047 9048 9049 9050 9051 9052 9053 
9054 9055 9056 9057 9058 9059 9060 9061 9062 
9063 9064 9065 9066 9067 9068 9069 9070 9071 
9072 9073 9074 9075 9076 9077 9078 9079 9080 
9081 9082 9083 9084 9085 9086 9087 9088 9089 
9090 9091 9092 9093 9094 9095 9096 9097 9098 
9099 9100 9101 9102 9103 9104 9105 9106 9107 
9108 9109 9110 9111 9112 9113 9114 9115 9116 
9117 9118 9119 9120 9121 9122 9123 9124 9125 
9126 9127 9128 9129 9130 9131 9132 9133 9134 
9135 9136 9137 9138 9139 9140 9141 9142 9143 
9144 9145 9146 9147 9148 9149 9150 9151 9152 
9153 9154 9155 9156 9157 9158 9159 9160 9161 
9162 9163 9164 9165 9166 9167 9168 9169 9170 
9171 9172 9173 9174 9175 9176 9177 9178 9179 
9180 9181 9182 9183 9184 9185 9186 9187 9188 
9189 9190 9191 9192 9193 9194 9195 9196 9197 
9198 9199 9200 9201 9202 9203 9204 9205 9206 
9207 9208 9209 9210 9211 9212 9213 9214 9215 
9216 9217 9218 9219 9220 9221 9222 9223 9224 
9225 9226 9227 9228 9229 9230 9231 9232 9233 
9234 9235 9236 9237 9238 9239 9240 9241 9242 
9243 9244 9245 9246 9247 9248 9249 9250 9251 
9252 9253 9254 9255 9256 9257 9258 9259 9260 
9261 9262 9263 9264 9265 9266 9267 9268 9269 
9270 9271 9272 9273 9274 9275 9276 9277 9278 
9279 9280 9281 9282 9283 9284 9285 9286 9287 
9288 9289 9290 9291 9292 9293 9294 9295 9296 
9297 9298 9299 9300 9301 9302 9303 9304 9305 
9306 9307 9308 9309 9310 9311 9312 9313 9314 
9315 9316 9317 9318 9319 9320 9321 9322 9323 
9324 9325 9326 9327 9328 9329 9330 9331 9332 
9333 9334 9335 9336 9337 9338 9339 9340 9341 
9342 9343 9344 9345 9346 9347 9348 9349 9350 
9351 9352 9353 9354 9355 9356 9357 9358 9359 
9360 9361 9362 9363 9364 9365 9366 9367 9368 
9369 9370 9371 9372 9373 9374 9375 9376 9377 
9378 9379 9380 9381 9382 9383 9384 9385 9386 
9387 9388 9389 9390 9391 9392 9393 9394 9395 
9396 9397 9398 9399 9400 9401 9402 9403 9404 
9405 9406 9407 9408 9409 9410 9411 9412 9413 
9414 9415 9416 9417 9418 9419 9420 9421 9422 
9423 9424 9425 9426 9427 9428 9429 9430 9431 
9432 9433 9434 9435 9436 9437 9438 9439 9440 
9441 9442 9443 9444 9445 9446 9447 9448 9449 
9450 9451 9452 9453 9454 9455 9456 9457 9458 
9459 9460 9461 9462 9463 9464 9465 9466 9467 
9468 9469 9470 9471 9472 9473 9474 9475 9476 
9477 9478 9479 9480 9481 9482 9483 9484 9485 
9486 9487 9488 9489 9490 9491 9492 9493 9494 
9495 9496 9497 9498 9499 9500 9501 9502 9503 
9504 9505 9506 9507 9508 9509 9510 9511 9512 
9513 9514 9515 9516 9517 9518 9519 9520 9521 
9522 9523 9524 9525 9526 9527 9528 9529 9530 
9531 9532 9533 9534 9535 9536 9537 9538 9539 
9540 9541 9542 9543 9544 9545 9546 9547 9548 
9549 9550 9551 9552 9553 9554 9555 9556 9557 
9558 9559 9560 9561 9562 9563 9564 9565 9566 
9567 9568 9569 9570 9571 9572 9573 9574 9575 
9576 9577 9578 9579 9580 9581 9582 9583 9584 
9585 9586 9587 9588 9589 9590 9591 9592 9593 
9594 9595 9596 9597 9598 9599 9600 9601 9602 
9603 9604 9605 9606 9607 9608 9609 9610 9611 
9612 9613 9614 9615 9616 9617 9618 9619 9620 
9621 9622 9623 9624 9625 9626 9627 9628 9629 
9630 9631 9632 9633 9634 9635 9636 9637 9638 
9639 9640 9641 9642 9643 9644 9645 9646 9647 
9648 9649 9650 9651 9652 9653 9654 9655 9656 
9657 9658 9659 9660 9661 9662 9663 9664 9665 
9666 9667 9668 9669 9670 9671 9672 9673 9674 
9675 9676 9677 9678 9679 9680 9681 9682 9683 
9684 9685 9686 9687 9688 9689 9690 9691 9692 
9693 9694 9695 9696 9697 9698 9699 9700 9701 
9702 9703 9704 9705 9706 9707 9708 9709 9710 
9711 9712 9713 9714 9715 9716 9717 9718 9719 
9720 9721 9722 9723 9724 9725 9726 9727 9728 
9729 9730 9731 9732 9733 9734 9735 9736 9737 
9738 9739 9740 9741 9742 9743 9744 9745 9746 
9747 9748 9749 9750 9751 9752 9753 9754 9755 
9756 9757 9758 9759 9760 9761 9762 9763 9764 
9765 9766 9767 9768 9769 9770 9771 9772 9773 
9774 9775 9776 9777 9778 9779 9780 9781 9782 
9783 9784 9785 9786 9787 9788 9789 9790 9791 
9792 9793 9794 9795 9796 9797 9798 9799 9800 
9801 9802 9803 9804 9805 9806 9807 9808 9809 
9810 9811 9812 9813 9814 9815 9816 9817 9818 
9819 9820 9821 9822 9823 9824 9825 9826 9827 
9828 9829 9830 9831 9832 9833 9834 9835 9836 
9837 9838 9839 9840 9841 9842 9843 9844 9845 
9846 9847 9848 9849 9850 9851 9852 9853 9854 
9855 9856 9857 9858 9859 9860 9861 9862 9863 
9864 9865 9866 9867 9868 9869 9870 9871 9872 
9873 9874 9875 9876 9877 9878 9879 9880 9881 
9882 9883 9884 9885 9886 9887 9888 9889 9890 
9891 9892 9893 9894 9895 9896 9897 9898 9899 
9900 9901 9902 9903 9904 9905 9906 9907 9908 
9909 9910 9911 9912 9913 9914 9915 9916 9917 
9918 9919 9920 9921 9922 9923 9924 9925 9926 
9927 9928 9929 9930 9931 9932 9933 9934 9935 
9936 9937 9938 9939 9940 9941 9942 9943 9944 
9945 9946 9947 9948 9949 9950 9951 9952 9953 
9954 9955 9956 9957 9958 9959 9960 9961 9962 
9963 9964 9965 9966 9967 9968 9969 9970 9971 
9972 9973 9974 9975 9976 9977 9978 9979 9980 
9981 9982 9983 9984 9985 9986 9987 9988 9989 
9990 9991 9992 9993 9994 9995 9996 9997 9998 
9999 10000 10001 10002 10003 10004 10005 10006 10007 
10008 10009 10010 10011 10012 10013 10014 10015 10016 
10017 10018 10019 10020 10021 10022 10023 10024 10025 
10026 10027 10028 10029 10030 10031 10032 10033 10034 
10035 10036 10037 10038 10039 10040 10041 10042 10043 
10044 10045 10046 10047 10048 10049 10050 10051 10052 
10053 10054 10055 10056 10057 10058 10059 10060 10061 
10062 10063 10064 10065 10066 10067 10068 10069 10070 
10071 10072 10073 10074 10075 10076 10077 10078 10079 
10080 10081 10082 10083 10084 10085 10086 10087 10088 
10089 10090 10091 10092 10093 10094 10095 10096 10097 
10098 10099 10100 10101 10102 10103 10104 10105 10106 
10107 10108 10109 10110 10111 10112 10113 10114 10115 
10116 10117 10118 10119 10120 10121 10122 10123 10124 
10125 10126 10127 10128 10129 10130 10131 10132 10133 
10134 10135 10136 10137 10138 10139 10140 10141 10142 
10143 10144 10145 10146 10147 10148 10149 10150 10151 
10152 10153 10154 10155 10156 10157 10158 10159 10160 
10161 10162 10163 10164 10165 10166 10167 10168 10169 
10170 10171 10172 10173 10174 10175 10176 10177 10178 
10179 10180 10181 10182 10183 10184 10185 10186 10187 
10188 10189 10190 10191 10192 10193 10194 10195 10196 
10197 10198 10199 10200 10201 10202 10203 10204 10205 
10206 10207 10208 10209 10210 10211 10212 10213 10214 
10215 10216 10217 10218 10219 10220 10221 10222 10223 
10224 10225 10226 10227 10228 10229 10230 10231 10232 
10233 10234 10235 10236 10237 10238 10239 10240 10241 
10242 10243 10244 10245 10246 10247 10248 10249 10250 
10251 10252 10253 10254 10255 10256 10257 10258 10259 
10260 10261 10262 10263 10264 10265 10266 10267 10268 
10269 10270 10271 10272 10273 10274 10275 10276 10277 
10278 10279 10280 10281 10282 10283 10284 10285 10286 
10287 10288 10289 10290 10291 10292 10293 10294 10295 
10296 10297 10298 10299 10300 10301 10302 10303 10304 
10305 10306 10307 10308 10309 10310 10311 10312 10313 
10314 10315 10316 10317 10318 10319 10320 10321 10322 
10323 10324 10325 10326 10327 10328 10329 10330 10331 
10332 10333 10334 10335 10336 10337 10338 10339 10340 
10341 10342 10343 10344 10345 10346 10347 10348 10349 
10350 10351 10352 10353 10354 10355 10356 10357 10358 
10359 10360 10361 10362 10363 10364 10365 10366 10367 
10368 10369 10370 10371 10372 10373 10374 10375 10376 
10377 10378 10379 10380 10381 10382 10383 10384 10385 
10386 10387 10388 10389 10390 10391 10392 10393 10394 
10395 10396 10397 10398 10399 10400 10401 10402 10403 
10404 10405 10406 10407 10408 10409 10410 10411 10412 
10413 10414 10415 10416 10417 10418 10419 10420 10421 
10422 10423 10424 10425 10426 10427 10428 10429 10430 
10431 10432 10433 10434 10435 10436 10437 10438 10439 
10440 10441 10442 10443 10444 10445 10446 10447 10448 
10449 10450 10451 10452 10453 10454 10455 10456 10457 
10458 10459 10460 10461 10462 10463 10464 10465 10466 
10467 10468 10469 10470 10471 10472 10473 10474 10475 
10476 10477 10478 10479 10480 10481 10482 10483 10484 
10485 10486 10487 10488 10489 10490 10491 10492 10493 
10494 10495 10496 10497 10498 10499 10500 10501 10502 
10503 10504 10505 10506 10507 10508 10509 10510 10511 
10512 10513 10514 10515 10516 10517 10518 10519 10520 
10521 10522 10523 10524 10525 10526 10527 10528 10529 
10530 10531 10532 10533 10534 10535 10536 10537 10538 
10539 10540 10541 10542 10543 10544 10545 10546 10547 
10548 10549 10550 10551 10552 10553 10554 10555 10556 
10557 10558 10559 10560 10561 10562 10563 10564 10565 
10566 10567 10568 10569 10570 10571 10572 10573 10574 
10575 10576 10577 10578 10579 10580 10581 10582 10583 
10584 10585 10586 10587 10588 10589 10590 10591 10592 
10593 10594 10595 10596 10597 10598 10599 10600 10601 
10602 10603 10604 10605 10606 10607 10608 10609 10610 
10611 10612 10613 10614 10615 10616 10617 10618 10619 
10620 10621 10622 10623 10624 10625 10626 10627 10628 
10629 10630 10631 10632 10633 10634 10635 10636 10637 
10638 10639 10640 10641 10642 10643 10644 10645 10646 
10647 10648 10649 10650 10651 10652 10653 10654 10655 
10656 10657 10658 10659 10660 10661 10662 10663 10664 
10665 10666 10667 10668 10669 10670 10671 10672 10673 
10674 10675 10676 10677 10678 10679 10680 10681 10682 
10683 10684 10685 10686 10687 10688 10689 10690 10691 
10692 10693 10694 10695 10696 10697 10698 10699 10700 
10701 10702 10703 10704 10705 10706 10707 10708 10709 
10710 10711 10712 10713 10714 10715 10716 10717 10718 
10719 10720 10721 10722 10723 10724 10725 10726 10727 
10728 10729 10730 10731 10732 10733 10734 10735 10736 
10737 10738 10739 10740 10741 10742 10743 10744 10745 
10746 10747 10748 10749 10750 10751 10752 10753 10754 
10755 10756 10757 10758 10759 10760 10761 10762 10763 
10764 10765 10766 10767 10768 10769 10770 10771 10772 
10773 10774 10775 10776 10777 10778 10779 10780 10781 
10782 10783 10784 10785 10786 10787 10788 10789 10790 
10791 10792 10793 10794 10795 10796 10797 10798 10799 
10800 10801 10802 10803 10804 10805 10806 10807 10808 
10809 10810 10811 10812 10813 10814 10815 10816 10817 
10818 10819 10820 10821 10822 10823 10824 10825 10826 
10827 10828 10829 10830 10831 10832 10833 10834 10835 
10836 10837 10838 10839 10840 10841 10842 10843 10844 
10845 10846 10847 10848 10849 10850 10851 10852 10853 
10854 10855 10856 10857 10858 10859 10860 10861 10862 
10863 10864 10865 10866 10867 10868 10869 10870 10871 
10872 10873 10874 10875 10876 10877 10878 10879 10880 
10881 10882 10883 10884 10885 10886 10887 10888 10889 
10890 10891 10892 10893 10894 10895 10896 10897 10898 
10899 10900 10901 10902 10903 10904 10905 10906 10907 
10908 10909 10910 10911 10912 10913 10914 10915 10916 
10917 10918 10919 10920 10921 10922 10923 10924 10925 
10926 10927 10928 10929 10930 10931 10932 10933 10934 
10935 10936 10937 10938 10939 10940 10941 10942 10943 
10944 10945 10946 10947 10948 10949 10950 10951 10952 
10953 10954 10955 10956 10957 10958 10959 10960 10961 
10962 10963 10964 10965 10966 10967 10968 10969 10970 
10971 10972 10973 10974 10975 10976 10977 10978 10979 
10980 10981 10982 10983 10984 10985 10986 10987 10988 
10989 10990 10991 10992 10993 10994 10995 10996 10997 
10998 10999 11000 11001 11002 11003 11004 11005 11006 
11007 11008 11009 11010 11011 11012 11013 11014 11015 
11016 11017 11018 11019 11020 11021 11022 11023 11024 
11025 11026 11027 11028 11029 11030 11031 11032 11033 
11034 11035 11036 11037 11038 11039 11040 11041 11042 
11043 11044 11045 11046 11047 11048 11049 11050 11051 
11052 11053 11054 11055 11056 11057 11058 11059 11060 
11061 11062 11063 11064 11065 11066 11067 11068 11069 
11070 11071 11072 11073 11074 11075 11076 11077 11078 
11079 11080 11081 11082 11083 11084 11085 11086 11087 
11088 11089 11090 11091 11092 11093 11094 11095 11096 
11097 11098 11099 11100 11101 11102 11103 11104 11105 
11106 11107 11108 11109 11110 11111 11112 11113 11114 
11115 11116 11117 11118 11119 11120 11121 11122 11123 
11124 11125 11126 11127 11128 11129 11130 11131 11132 
11133 11134 11135 11136 11137 11138 11139 11140 11141 
11142 11143 11144 11145 11146 11147 11148 11149 11150 
11151 11152 11153 11154 11155 11156 11157 11158 11159 
11160 11161 11162 11163 11164 11165 11166 11167 11168 
11169 11170 11171 11172 11173 11174 11175 11176 11177 
11178 11179 11180 11181 11182 11183 11184 11185 11186 
11187 11188 11189 11190 11191 11192 11193 11194 11195 
11196 11197 11198 11199 11200 11201 11202 11203 11204 
11205 11206 11207 11208 11209 11210 11211 11212 11213 
11214 11215 11216 11217 11218 11219 11220 11221 11222 
11223 11224 11225 11226 11227 11228 11229 11230 11231 
11232 11233 11234 11235 11236 11237 11238 11239 11240 
11241 11242 11243 11244 11245 11246 11247 11248 11249 
11250 11251 11252 11253 11254 11255 11256 11257 11258 
11259 11260 11261 11262 11263 11264 11265 11266 11267 
11268 11269 11270 11271 11272 11273 11274 11275 11276 
11277 11278 11279 11280 11281 11282 11283 11284 11285 
11286 11287 11288 11289 11290 11291 11292 11293 11294 
11295 11296 11297 11298 11299 11300 11301 11302 11303 
11304 11305 11306 11307 11308 11309 11310 11311 11312 
11313 11314 11315 11316 11317 11318 11319 11320 11321 
11322 11323 11324 11325 11326 11327 11328 11329 11330 
11331 11332 11333 11334 11335 11336 11337 11338 11339 
11340 11341 11342 11343 11344 11345 11346 11347 11348 
11349 11350 11351 11352 11353 11354 11355 11356 11357 
11358 11359 11360 11361 11362 11363 11364 11365 11366 
11367 11368 11369 11370 11371 11372 11373 11374 11375 
11376 11377 11378 11379 11380 11381 11382 11383 11384 
11385 11386 11387 11388 11389 11390 11391 11392 11393 
11394 11395 11396 11397 11398 11399 11400 11401 11402 
11403 11404 11405 11406 11407 11408 11409 11410 11411 
11412 11413 11414 11415 11416 11417 11418 11419 11420 
11421 11422 11423 11424 11425 11426 11427 11428 11429 
11430 11431 11432 11433 11434 11435 11436 11437 11438 
11439 11440 11441 11442 11443 11444 11445 11446 11447 
11448 11449 11450 11451 11452 11453 11454 11455 11456 
11457 11458 11459 11460 11461 11462 11463 11464 11465 
11466 11467 11468 11469 11470 11471 11472 11473 11474 
11475 11476 11477 11478 11479 11480 11481 11482 11483 
11484 11485 11486 11487 11488 11489 11490 11491 11492 
11493 11494 11495 11496 11497 11498 11499 11500 11501 
11502 11503 11504 11505 11506 11507 11508 11509 11510 
11511 11512 11513 11514 11515 11516 11517 11518 11519 
11520 11521 11522 11523 11524 11525 11526 11527 11528 
11529 11530 11531 11532 11533 11534 11535 11536 11537 
11538 11539 11540 11541 11542 11543 11544 11545 11546 
11547 11548 11549 11550 11551 11552 11553 11554 11555 
11556 11557 11558 11559 11560 11561 11562 11563 11564 
11565 11566 11567 11568 11569 11570 11571 11572 11573 
11574 11575 11576 11577 11578 11579 11580 11581 11582 
11583 11584 11585 11586 11587 11588 11589 11590 11591 
11592 11593 11594 11595 11596 11597 11598 11599 11600 
11601 11602 11603 11604 11605 11606 11607 11608 11609 
11610 11611 11612 11613 11614 11615 11616 11617 11618 
11619 11620 11621 11622 11623 11624 11625 11626 11627 
11628 11629 11630 11631 11632 11633 11634 11635 11636 
11637 11638 11639 11640 11641 11642 11643 11644 11645 
11646 11647 11648 11649 11650 11651 11652 11653 11654 
11655 11656 11657 11658 11659 11660 11661 11662 11663 
11664 11665 11666 11667 11668 11669 11670 11671 11672 
11673 11674 11675 11676 11677 11678 11679 11680 11681 
11682 11683 11684 11685 11686 11687 11688 11689 11690 
11691 11692 11693 11694 11695 11696 11697 11698 11699 
11700 11701 11702 11703 11704 11705 11706 11707 11708 
11709 11710 11711 11712 11713 11714 11715 11716 11717 
11718 11719 11720 11721 11722 11723 11724 11725 11726 
11727 11728 11729 11730 11731 11732 11733 11734 11735 
11736 11737 11738 11739 11740 11741 11742 11743 11744 
11745 11746 11747 11748 11749 11750 11751 11752 11753 
11754 11755 11756 11757 11758 11759 11760 11761 11762 
11763 11764 11765 11766 11767 11768 11769 11770 11771 
11772 11773 11774 11775 11776 11777 11778 11779 11780 
11781 11782 11783 11784 11785 11786 11787 11788 11789 
11790 11791 11792 11793 11794 11795 11796 11797 11798 
11799 11800 11801 11802 11803 11804 11805 11806 11807 
11808 11809 11810 11811 11812 11813 11814 11815 11816 
11817 11818 11819 11820 11821 11822 11823 11824 11825 
11826 11827 11828 11829 11830 11831 11832 11833 11834 
11835 11836 11837 11838 11839 11840 11841 11842 11843 
11844 11845 11846 11847 11848 11849 11850 11851 11852 
11853 11854 11855 11856 11857 11858 11859 11860 11861 
11862 11863 11864 11865 11866 11867 11868 11869 11870 
11871 11872 11873 11874 11875 11876 11877 11878 11879 
11880 11881 11882 11883 11884 11885 11886 11887 11888 
11889 11890 11891 11892 11893 11894 11895 11896 11897 
11898 11899 11900 11901 11902 11903 11904 11905 11906 
11907 11908 11909 11910 11911 11912 11913 11914 11915 
11916 11917 11918 11919 11920 11921 11922 11923 11924 
11925 11926 11927 11928 11929 11930 11931 11932 11933 
11934 11935 11936 11937 11938 11939 11940 11941 11942 
11943 11944 11945 11946 11947 11948 11949 11950 11951 
11952 11953 11954 11955 11956 11957 11958 11959 11960 
11961 11962 11963 11964 11965 11966 11967 11968 11969 
11970 11971 11972 11973 11974 11975 11976 11977 11978 
11979 11980 11981 11982 11983 11984 11985 11986 11987 
11988 11989 11990 11991 11992 11993 11994 11995 11996 
11997 11998 11999 12000 12001 12002 12003 12004 12005 
12006 12007 12008 12009 12010 12011 12012 12013 12014 
12015 12016 12017 12018 12019 12020 12021 12022 12023 
12024 12025 12026 12027 12028 12029 12030 12031 12032 
12033 12034 12035 12036 12037 12038 12039 12040 12041 
12042 12043 12044 12045 12046 12047 12048 12049 12050 
12051 12052 12053 12054 12055 12056 12057 12058 12059 
12060 12061 12062 12063 12064 12065 12066 12067 12068 
12069 12070 12071 12072 12073 12074 12075 12076 12077 
12078 12079 12080 12081 12082 12083 12084 12085 12086 
12087 12088 12089 12090 12091 12092 12093 12094 12095 
12096 12097 12098 12099 12100 12101 12102 12103 12104 
12105 12106 12107 12108 12109 12110 12111 12112 12113 
12114 12115 12116 12117 12118 12119 12120 12121 12122 
12123 12124 12125 12126 12127 12128 12129 12130 12131 
12132 12133 12134 12135 12136 12137 12138 12139 12140 
12141 12142 12143 12144 12145 12146 12147 12148 12149 
12150 12151 12152 12153 12154 12155 12156 12157 12158 
12159 12160 12161 12162 12163 12164 12165 12166 12167 
12168 12169 12170 12171 12172 12173 12174 12175 12176 
12177 12178 12179 12180 12181 12182 12183 12184 12185 
12186 12187 12188 12189 12190 12191 12192 12193 12194 
12195 12196 12197 12198 12199 12200 12201 12202 12203 
12204 12205 12206 12207 12208 12209 12210 12211 12212 
12213 12214 12215 12216 12217 12218 12219 12220 12221 
12222 12223 12224 12225 12226 12227 12228 12229 12230 
12231 12232 12233 12234 12235 12236 12237 12238 12239 
12240 12241 12242 12243 12244 12245 12246 12247 12248 
12249 12250 12251 12252 12253 12254 12255 12256 12257 
12258 12259 12260 12261 12262 12263 12264 12265 12266 
12267 12268 12269 12270 12271 12272 12273 12274 12275 
12276 12277 12278 12279 12280 12281 12282 12283 12284 
12285 12286 12287 12288 12289 12290 12291 12292 12293 
12294 12295 12296 12297 12298 12299 12300 12301 12302 
12303 12304 12305 12306 12307 12308 12309 12310 12311 
12312 12313 12314 12315 12316 12317 12318 12319 12320 
12321 12322 12323 12324 12325 12326 12327 12328 12329 
12330 12331 12332 12333 12334 12335 12336 12337 12338 
12339 12340 12341 12342 12343 12344 12345 12346 12347 
12348 12349 12350 12351 12352 12353 12354 12355 12356 
12357 12358 12359 12360 12361 12362 12363 12364 12365 
12366 12367 12368 12369 12370 12371 12372 12373 12374 
12375 12376 12377 12378 12379 12380 12381 12382 12383 
12384 12385 12386 12387 12388 12389 12390 12391 12392 
12393 12394 12395 12396 12397 12398 12399 12400 12401 
12402 12403 12404 12405 12406 12407 12408 12409 12410 
      </DataArray>
      <DataArray type="Int32" Name="offsets" format="ascii">
9
18
27
36
45
54
63
72
81
90
99
108
117
126
135
144
153
162
171
180
189
198
207
216
225
234
243
252
261
270
279
288
297
306
315
324
333
342
351
360
369
378
387
396
405
414
423
432
441
450
459
468
477
486
495
504
513
522
531
540
549
558
567
576
585
594
603
612
621
630
639
648
657
666
675
684
693
702
711
720
729
738
747
756
765
774
783
792
801
810
819
828
837
846
855
864
873
882
891
900
909
918
927
936
945
954
963
972
981
990
999
1008
1017
1026
1035
1044
1053
1062
1071
1080
1089
1098
1107
1116
1125
1134
1143
1152
1161
1170
1179
1188
1197
1206
1215
1224
1233
1242
1251
1260
1269
1278
1287
1296
1305
1314
1323
1332
1341
1350
1359
1368
1377
1386
1395
1404
1413
1422
1431
1440
1449
1458
1467
1476
1485
1494
1503
1512
1521
1530
1539
1548
1557
1566
1575
1584
1593
1602
1611
1620
1629
1638
1647
1656
1665
1674
1683
1692
1701
1710
1719
1728
1737
1746
1755
1764
1773
1782
1791
1800
1809
1818
1827
1836
1845
1854
1863
1872
1881
1890
1899
1908
1917
1926
1935
1944
1953
1962
1971
1980
1989
1998
2007
2016
2025
2034
2043
2052
2061
2070
2079
2088
2097
2106
2115
2124
2133
2142
2151
2160
2169
2178
2187
2196
2205
2214
2223
2232
2241
2250
2259
2268
2277
2286
2295
2304
2313
2322
2331
2340
2349
2358
2367
2376
2385
2394
2403
2412
2421
2430
2439
2448
2457
2466
2475
2484
2493
2502
2511
2520
2529
2538
2547
2556
2565
2574
2583
2592
2601
2610
2619
2628
2637
2646
2655
2664
2673
2682
2691
2700
2709
2718
2727
2736
2745
2754
2763
2772
2781
2790
2799
2808
2817
2826
2835
2844
2853
2862
2871
2880
2889
2898
2907
2916
2925
2934
2943
2952
2961
2970
2979
2988
2997
3006
3015
3024
3033
3042
3051
3060
3069
3078
3087
3096
3105
3114
3123
3132
3141
3150
3159
3168
3177
3186
3195
3204
3213
3222
3231
3240
3249
3258
3267
3276
3285
3294
3303
3312
3321
3330
3339
3348
3357
3366
3375
3384
3393
3402
3411
3420
3429
3438
3447
3456
3465
3474
3483
3492
3501
3510
3519
3528
3537
3546
3555
3564
3573
3582
3591
3600
3609
3618
3627
3636
3645
3654
3663
3672
3681
3690
3699
3708
3717
3726
3735
3744
3753
3762
3771
3780
3789
3798
3807
3816
3825
3834
3843
3852
3861
3870
3879
3888
3897
3906
3915
3924
3933
3942
3951
3960
3969
3978
3987
3996
4005
4014
4023
4032
4041
4050
4059
4068
4077
4086
4095
4104
4113
4122
4131
4140
4149
4158
4167
4176
4185
4194
4203
4212
4221
4230
4239
4248
4257
4266
4275
4284
4293
4302
4311
4320
4329
4338
4347
4356
4365
4374
4383
4392
4401
4410
4419
4428
4437
4446
4455
4464
4473
4482
4491
4500
4509
4518
4527
4536
4545
4554
4563
4572
4581
4590
4599
4608
4617
4626
4635
4644
4653
4662
4671
4680
4689
4698
4707
4716
4725
4734
4743
4752
4761
4770
4779
4788
4797
4806
4815
4824
4833
4842
4851
4860
4869
4878
4887
4896
4905
4914
4923
4932
4941
4950
4959
4968
4977
4986
4995
5004
5013
5022
5031
5040
5049
5058
5067
5076
5085
5094
5103
5112
5121
5130
5139
5148
5157
5166
5175
5184
5193
5202
5211
5220
5229
5238
5247
5256
5265
5274
5283
5292
5301
5310
5319
5328
5337
5346
5355
5364
5373
5382
5391
5400
5409
5418
5427
5436
5445
5454
5463
5472
5481
5490
5499
5508
5517
5526
5535
5544
5553
5562
5571
5580
5589
5598
5607
5616
5625
5634
5643
5652
5661
5670
5679
5688
5697
5706
5715
5724
5733
5742
5751
5760
5769
5778
5787
5796
5805
5814
5823
5832
5841
5850
5859
5868
5877
5886
5895
5904
5913
5922
5931
5940
5949
5958
5967
5976
5985
5994
6003
6012
6021
6030
6039
6048
6057
6066
6075
6084
6093
6102
6111
6120
6129
6138
6147
6156
6165
6174
6183
6192
6201
6210
6219
6228
6237
6246
6255
6264
6273
6282
6291
6300
6309
6318
6327
6336
6345
6354
6363
6372
6381
6390
6399
6408
6417
6426
6435
6444
6453
6462
6471
6480
6489
6498
6507
6516
6525
6534
6543
6552
6561
6570
6579
6588
6597
6606
6615
6624
6633
6642
6651
6660
6669
6678
6687
6696
6705
6714
6723
6732
6741
6750
6759
6768
6777
6786
6795
6804
6813
6822
6831
6840
6849
6858
6867
6876
6885
6894
6903
6912
6921
6930
6939
6948
6957
6966
6975
6984
6993
7002
7011
7020
7029
7038
7047
7056
7065
7074
7083
7092
7101
7110
7119
7128
7137
7146
7155
7164
7173
7182
7191
7200
7209
7218
7227
7236
7245
7254
7263
7272
7281
7290
7299
7308
7317
7326
7335
7344
7353
7362
7371
7380
7389
7398
7407
7416
7425
7434
7443
7452
7461
7470
7479
7488
7497
7506
7515
7524
7533
7542
7551
7560
7569
7578
7587
7596
7605
7614
7623
7632
7641
7650
7659
7668
7677
7686
7695
7704
7713
7722
7731
7740
7749
7758
7767
7776
7785
7794
7803
7812
7821
7830
7839
7848
7857
7866
7875
7884
7893
7902
7911
7920
7929
7938
7947
7956
7965
7974
7983
7992
8001
8010
8019
8028
8037
8046
8055
8064
8073
8082
8091
8100
8109
8118
8127
8136
8145
8154
8163
8172
8181
8190
8199
8208
8217
8226
8235
8244
8253
8262
8271
8280
8289
8298
8307
8316
8325
8334
8343
8352
8361
8370
8379
8388
8397
8406
8415
8424
8433
8442
8451
8460
8469
8478
8487
8496
8505
8514
8523
8532
8541
8550
8559
8568
8577
8586
8595
8604
8613
8622
8631
8640
8649
8658
8667
8676
8685
8694
8703
8712
8721
8730
8739
8748
8757
8766
8775
8784
8793
8802
8811
8820
8829
8838
8847
8856
8865
8874
8883
8892
8901
8910
8919
8928
8937
8946
8955
8964
8973
8982
8991
9000
9009
9018
9027
9036
9045
9054
9063
9072
9081
9090
9099
9108
9117
9126
9135
9144
9153
9162
9171
9180
9189
9198
9207
9216
9225
9234
9243
9252
9261
9270
9279
9288
9297
9306
9315
9324
9333
9342
9351
9360
9369
9378
9387
9396
9405
9414
9423
9432
9441
9450
9459
9468
9477
9486
9495
9504
9513
9522
9531
9540
9549
9558
9567
9576
9585
9594
9603
9612
9621
9630
9639
9648
9657
9666
9675
9684
9693
9702
9711
9720
9729
9738
9747
9756
9765
9774
9783
9792
9801
9810
9819
9828
9837
9846
9855
9864
9873
9882
9891
9900
9909
9918
9927
9936
9945
9954
9963
9972
9981
9990
9999
10008
10017
10026
10035
10044
10053
10062
10071
10080
10089
10098
10107
10116
10125
10134
10143
10152
10161
10170
10179
10188
10197
10206
10215
10224
10233
10242
10251
10260
10269
10278
10287
10296
10305
10314
10323
10332
10341
10350
10359
10368
10377
10386
10395
10404
10413
10422
10431
10440
10449
10458
10467
10476
10485
10494
10503
10512
10521
10530
10539
10548
10557
10566
10575
10584
10593
10602
10611
10620
10629
10638
10647
10656
10665
10674
10683
10692
10701
10710
10719
10728
10737
10746
10755
10764
10773
10782
10791
10800
10809
10818
10827
10836
10845
10854
10863
10872
10881
10890
10899
10908
10917
10926
10935
10944
10953
10962
10971
10980
10989
10998
11007
11016
11025
11034
11043
11052
11061
11070
11079
11088
11097
11106
11115
11124
11133
11142
11151
11160
11169
11178
11187
11196
11205
11214
11223
11232
11241
11250
11259
11268
11277
11286
11295
11304
11313
11322
11331
11340
11349
11358
11367
11376
11385
11394
11403
11412
11421
11430
11439
11448
11457
11466
11475
11484
11493
11502
11511
11520
11529
11538
11547
11556
11565
11574
11583
11592
11601
11610
11619
11628
11637
11646
11655
11664
11673
11682
11691
11700
11709
11718
11727
11736
11745
11754
11763
11772
11781
11790
11799
11808
11817
11826
11835
11844
11853
11862
11871
11880
11889
11898
11907
11916
11925
11934
11943
11952
11961
11970
11979
11988
11997
12006
12015
12024
12033
12042
12051
12060
12069
12078
12087
12096
12105
12114
12123
12132
12141
12150
12159
12168
12177
12186
12195
12204
12213
12222
12231
12240
12249
12258
12267
12276
12285
12294
12303
12312
12321
12330
12339
12348
12357
12366
12375
12384
12393
12402
12411
      </DataArray>
      <DataArray type="UInt8" Name="types" format="ascii">
70
70
70
70
70
70
70
70
70
70
70
70
70
70
70
70
70
70
70
70
70
70
70
70
70
70
70
70
70
70
70
70
70
70
70
70
70
70
70
70
70
70
70
70
70
70
70
70
70
70
70
70
70
70
70
70
70
70
70
70
70
70
70
70
70
70
70
70
70
70
70
70
70
70
70
70
70
70
70
70
70
70
70
70
70
70
70
70
70
70
70
70
70
70
70
70
70
70
70
70
70
70
70
70
70
70
70
70
70
70
70
70
70
70
70
70
70
70
70
70
70
70
70
70
70
70
70
70
70
70
70
70
70
70
70
70
70
70
70
70
70
70
70
70
70
70
70
70
70
70
70
70
70
70
70
70
70
70
70
70
70
70
70
70
70
70
70
70
70
70
70
70
70
70
70
70
70
70
70
70
70
70
70
70
70
70
70
70
70
70
70
70
70
70
70
70
70
70
70
70
70
70
70
70
70
70
70
70
70
70
70
70
70
70
70
70
70
70
70
70
70
70
70
70
70
70
70
70
70
70
70
70
70
70
70
70
70
70
70
70
70
70
70
70
70
70
70
70
70
70
70
70
70
70
70
70
70
70
70
70
70
70
70
70
70
70
70
70
70
70
70
70
70
70
70
70
70
70
70
70
70
70
70
70
70
70
70
70
70
70
70
70
70
70
70
70
70
70
70
70
70
70
70
70
70
70
70
70
70
70
70
70
70
70
70
70
70
70
70
70
70
70
70
70
70
70
70
70
70
70
70
70
70
70
70
70
70
70
70
70
70
70
70
70
70
70
70
70
70
70
70
70
70
70
70
70
70
70
70
70
70
70
70
70
70
70
70
70
70
70
70
70
70
70
70
70
70
70
70
70
70
70
70
70
70
70
70
70
70
70
70
70
70
70
70
70
70
70
70
70
70
70
70
70
70
70
70
70
70
70
70
70
70
70
70
70
70
70
70
70
70
70
70
70
70
70
70
70
70
70
70
70
70
70
70
70
70
70
70
70
70
70
70
70
70
70
70
70
70
70
70
70
70
70
70
70
70
70
70
70
70
70
70
70
70
70
70
70
70
70
70
70
70
70
70
70
70
70
70
70
70
70
70
70
70
70
70
70
70
70
70
70
70
70
70
70
70
70
70
70
70
70
70
70
70
70
70
70
70
70
70
70
70
70
70
70
70
70
70
70
70
70
70
70
70
70
70
70
70
70
70
70
70
70
70
70
70
70
70
70
70
70
70
70
70
70
70
70
70
70
70
70
70
70
70
70
70
70
70
70
70
70
70
70
70
70
70
70
70
70
70
70
70
70
70
70
70
70
70
70
70
70
70
70
70
70
70
70
70
70
70
70
70
70
70
70
70
70
70
70
70
70
70
70
70
70
70
70
70
70
70
70
70
70
70
70
70
70
70
70
70
70
70
70
70
70
70
70
70
70
70
70
70
70
70
70
70
70
70
70
70
70
70
70
70
70
70
70
70
70
70
70
70
70
70
70
70
70
70
70
70
70
70
70
70
70
70
70
70
70
70
70
70
70
70
70
70
70
70
70
70
70
70
70
70
70
70
70
70
70
70
70
70
70
70
70
70
70
70
70
70
70
70
70
70
70
70
70
70
70
70
70
70
70
70
70
70
70
70
70
70
70
70
70
70
70
70
70
70
70
70
70
70
70
70
70
70
70
70
70
70
70
70
70
70
70
70
70
70
70
70
70
70
70
70
70
70
70
70
70
70
70
70
70
70
70
70
70
70
70
70
70
70
70
70
70
70
70
70
70
70
70
70
70
70
70
70
70
70
70
70
70
70
70
70
70
70
70
70
70
70
70
70
70
70
70
70
70
70
70
70
70
70
70
70
70
70
70
70
70
70
70
70
70
70
70
70
70
70
70
70
70
70
70
70
70
70
70
70
70
70
70
70
70
70
70
70
70
70
70
70
70
70
70
70
70
70
70
70
70
70
70
70
70
70
70
70
70
70
70
70
70
70
70
70
70
70
70
70
70
70
70
70
70
70
70
70
70
70
70
70
70
70
70
70
70
70
70
70
70
70
70
70
70
70
70
70
70
70
70
70
70
70
70
70
70
70
70
70
70
70
70
70
70
70
70
70
70
70
70
70
70
70
70
70
70
70
70
70
70
70
70
70
70
70
70
70
70
70
70
70
70
70
70
70
70
70
70
70
70
70
70
70
70
70
70
70
70
70
70
70
70
70
70
70
70
70
70
70
70
70
70
70
70
70
70
70
70
70
70
70
70
70
70
70
70
70
70
70
70
70
70
70
70
70
70
70
70
70
70
70
70
70
70
70
70
70
70
70
70
70
70
70
70
70
70
70
70
70
70
70
70
70
70
70
70
70
70
70
70
70
70
70
70
70
70
70
70
70
70
70
70
70
70
70
70
70
70
70
70
70
70
70
70
70
70
70
70
70
70
70
70
70
70
70
70
70
70
70
70
70
70
70
70
70
70
70
70
70
70
70
70
70
70
70
70
70
70
70
70
70
70
70
70
70
70
70
70
70
70
70
70
70
70
70
70
70
70
70
70
70
70
70
70
70
70
70
70
70
70
70
70
70
70
70
70
70
70
70
70
70
70
70
70
70
70
70
70
70
70
70
70
70
70
70
70
70
70
70
70
70
70
70
70
70
70
70
70
70
70
70
70
70
70
70
70
70
70
70
70
70
70
70
70
70
70
70
70
70
70
70
70
70
70
70
70
70
70
70
70
70
70
70
70
70
70
70
70
70
70
70
70
70
70
70
70
70
70
70
70
70
70
70
70
70
70
70
70
70
70
70
70
70
70
70
70
70
70
70
70
70
70
70
70
70
70
70
70
70
70
70
70
70
70
70
70
70
70
70
70
70
70
70
70
70
70
70
70
70
70
70
70
70
70
70
70
70
70
70
70
70
70
70
70
70
70
70
70
70
70
70
70
70
70
70
70
70
70
70
70
70
70
70
70
70
70
70
70
70
70
70
70
70
70
70
70
70
70
70
70
70
70
70
70
70
70
70
70
70
70
70
70
70
70
70
70
70
70
70
70
70
70
70
70
70
70
70
70
70
70
70
70
70
70
70
70
70
70
70
70
70
70
70
70
70
70
70
70
70
70
70
70
70
70
70
70
70
70
70
      </DataArray>
    </Cells>
    <PointData>
      <DataArray type="Float64" NumberOfComponents="3" Name="Displacement" format="ascii">
0 0 0
-0.00615591 -0.00306806 -0.00306806
-0.0036706 -0.00103564 -0.00103564
0 0 0
-0.00334996 -0.00191327 -0.00191327
-0.00463658 -0.00185394 -0.00185394
-0.00178107 -0.00037093 -0.00037093
0 0 0
-0.00221119 -0.000817331 -0.000817331
-0.00615591 -0.00306806 -0.00306806
-0.0114823 -0.00532657 -0.00532657
-0.00764536 -0.0029912 -0.0029912
-0.0036706 -0.00103564 -0.00103564
-0.00882678 -0.00415464 -0.00415464
-0.00946743 -0.00404053 -0.00404053
-0.00563906 -0.00191896 -0.00191896
-0.00463658 -0.00185394 -0.00185394
-0.00706564 -0.00291436 -0.00291436
-0.0114823 -0.00532657 -0.00532657
-0.0168565 -0.00805157 -0.00805157
-0.0116561 -0.00567844 -0.00567844
-0.00764536 -0.0029912 -0.0029912
-0.0141598 -0.00660917 -0.00660917
-0.0142278 -0.00677528 -0.00677528
-0.00965308 -0.00424019 -0.00424019
-0.00946743 -0.00404053 -0.00404053
-0.0118538 -0.00531872 -0.00531872
-0.0168565 -0.00805157 -0.00805157
-0.0222754 -0.0115589 -0.0115589
-0.0156472 -0.00917907 -0.00917907
-0.0116561 -0.00567844 -0.00567844
-0.0195619 -0.00969921 -0.00969921
-0.018948 -0.0102752 -0.0102752
-0.013655 -0.0073223 -0.0073223
-0.0142278 -0.00677528 -0.00677528
-0.0165912 -0.00842234 -0.00842234
-0.0222754 -0.0115589 -0.0115589
-0.0277238 -0.015921 -0.015921
-0.0196052 -0.0135512 -0.0135512
-0.0156472 -0.00917907 -0.00917907
-0.0249974 -0.0136302 -0.0136302
-0.0236528 -0.014643 -0.014643
-0.0176301 -0.0112537 -0.0112537
-0.018948 -0.0102752 -0.0102752
-0.0213019 -0.0123474 -0.0123474
-0.0277238 -0.015921 -0.015921
-0.033175 -0.0211868 -0.0211868
-0.0235383 -0.0188282 -0.0188282
-0.0196052 -0.0135512 -0.0135512
-0.0304499 -0.0184398 -0.0184398
-0.0283429 -0.0199116 -0.0199116
-0.0215746 -0.0160756 -0.0160756
-0.0236528 -0.014643 -0.014643
-0.0259997 -0.0171637 -0.0171637
-0.033175 -0.0211868 -0.0211868
-0.0386198 -0.027363 -0.027363
-0.0274482 -0.0250196 -0.0250196
-0.0235383 -0.0188282 -0.0188282
-0.0358988 -0.0241608 -0.0241608
-0.033018 -0.0260949 -0.0260949
-0.025496 -0.0218094 -0.0218094
-0.0283429 -0.0199116 -0.0199116
-0.0306824 -0.0228886 -0.0228886
-0.0386198 -0.027363 -0.027363
-0.0440482 -0.0344554 -0.0344554
-0.0313385 -0.0321279 -0.0321279
-0.0274482 -0.0250196 -0.0250196
-0.0413364 -0.0307947 -0.0307947
-0.0376755 -0.0331946 -0.0331946
-0.0293957 -0.0284593 -0.0284593
-0.033018 -0.0260949 -0.0260949
-0.0353491 -0.0295303 -0.0295303
-0.0440482 -0.0344554 -0.0344554
-0.0494565 -0.0424605 -0.0424605
-0.0352099 -0.0401502 -0.0401502
-0.0313385 -0.0321279 -0.0321279
-0.046755 -0.0383441 -0.0383441
-0.0423142 -0.0412083 -0.0412083
-0.0332765 -0.0360251 -0.0360251
-0.0376755 -0.0331946 -0.0331946
-0.0399973 -0.0370874 -0.0370874
-0.0494565 -0.0424605 -0.0424605
-0.0548417 -0.051375 -0.051375
-0.0390634 -0.0490825 -0.0490825
-0.0352099 -0.0401502 -0.0401502
-0.0521521 -0.0468043 -0.0468043
-0.0469328 -0.0501319 -0.0501319
-0.0371388 -0.0445029 -0.0445029
-0.0423142 -0.0412083 -0.0412083
-0.0446261 -0.0455567 -0.0455567
-0.0548417 -0.051375 -0.051375
-0.0602029 -0.0611939 -0.0611939
-0.0428996 -0.0589197 -0.0589197
-0.0390634 -0.0490825 -0.0490825
-0.0575254 -0.0561717 -0.0561717
-0.0515311 -0.0599604 -0.0599604
-0.0409837 -0.0538883 -0.0538883
-0.0469328 -0.0501319 -0.0501319
-0.0492346 -0.0549333 -0.0549333
-0.0602029 -0.0611939 -0.0611939
-0.0655396 -0.0719123 -0.0719123
-0.0467189 -0.0696569 -0.0696569
-0.0428996 -0.0589197 -0.0589197
-0.0628743 -0.066441 -0.066441
-0.0561089 -0.0706886 -0.0706886
-0.0448114 -0.0641761 -0.0641761
-0.0515311 -0.0599604 -0.0599604
-0.0538226 -0.0652123 -0.0652123
-0.0655396 -0.0719123 -0.0719123
-0.0708517 -0.0835252 -0.0835252
-0.0505216 -0.0812892 -0.0812892
-0.0467189 -0.0696569 -0.0696569
-0.0681987 -0.0776073 -0.0776073
-0.0606661 -0.0823117 -0.0823117
-0.0486223 -0.0753615 -0.0753615
-0.0561089 -0.0706886 -0.0706886
-0.05839 -0.0763886 -0.0763886
-0.0708517 -0.0835252 -0.0835252
-0.0761393 -0.0960276 -0.0960276
-0.054308 -0.0938114 -0.0938114
-0.0505216 -0.0812892 -0.0812892
-0.0734985 -0.0896655 -0.0896655
-0.0652031 -0.0948245 -0.0948245
-0.0524169 -0.0874393 -0.0874393
-0.0606661 -0.0823117 -0.0823117
-0.0629371 -0.0884572 -0.0884572
-0.0761393 -0.0960276 -0.0960276
-0.0814028 -0.109415 -0.109415
-0.0580785 -0.107219 -0.107219
-0.054308 -0.0938114 -0.0938114
-0.0787741 -0.102611 -0.102611
-0.06972 -0.108222 -0.108222
-0.0561952 -0.100405 -0.100405
-0.0652031 -0.0948245 -0.0948245
-0.067464 -0.101413 -0.101413
-0.0814028 -0.109415 -0.109415
-0.0866423 -0.123681 -0.123681
-0.0618332 -0.121506 -0.121506
-0.0580785 -0.107219 -0.107219
-0.0840255 -0.116438 -0.116438
-0.0742171 -0.1225 -0.1225
-0.0599578 -0.114253 -0.114253
-0.06972 -0.108222 -0.108222
-0.071971 -0.115251 -0.115251
-0.0866423 -0.123681 -0.123681
-0.0918582 -0.138823 -0.138823
-0.0655724 -0.136669 -0.136669
-0.0618332 -0.121506 -0.121506
-0.0892532 -0.131143 -0.131143
-0.0786946 -0.137652 -0.137652
-0.0637047 -0.128978 -0.128978
-0.0742171 -0.1225 -0.1225
-0.0764583 -0.129967 -0.129967
-0.0918582 -0.138823 -0.138823
-0.0970507 -0.154834 -0.154834
-0.0692966 -0.152702 -0.152702
-0.0655724 -0.136669 -0.136669
-0.0944574 -0.14672 -0.14672
-0.0831529 -0.153675 -0.153675
-0.0674364 -0.144577 -0.144577
-0.0786946 -0.137652 -0.137652
-0.0809262 -0.145555 -0.145555
-0.0970507 -0.154834 -0.154834
-0.10222 -0.171711 -0.171711
-0.0730058 -0.169601 -0.169601
-0.0692966 -0.152702 -0.152702
-0.0996383 -0.163165 -0.163165
-0.0875922 -0.170564 -0.170564
-0.071153 -0.161044 -0.161044
-0.0831529 -0.153675 -0.153675
-0.0853749 -0.162012 -0.162012
-0.10222 -0.171711 -0.171711
-0.107367 -0.189448 -0.189448
-0.0767004 -0.187361 -0.187361
-0.0730058 -0.169601 -0.169601
-0.104796 -0.180472 -0.180472
-0.0920127 -0.188313 -0.188313
-0.0748549 -0.178374 -0.178374
-0.0875922 -0.170564 -0.170564
-0.0898048 -0.179331 -0.179331
-0.107367 -0.189448 -0.189448
-0.112491 -0.208041 -0.208041
-0.0803806 -0.205976 -0.205976
-0.0767004 -0.187361 -0.187361
-0.109932 -0.198638 -0.198638
-0.0964148 -0.206917 -0.206917
-0.0785423 -0.196562 -0.196562
-0.0920127 -0.188313 -0.188313
-0.0942161 -0.197508 -0.197508
-0.112491 -0.208041 -0.208041
-0.117592 -0.227485 -0.227485
-0.0840467 -0.225443 -0.225443
-0.0803806 -0.205976 -0.205976
-0.115044 -0.217657 -0.217657
-0.100799 -0.226373 -0.226373
-0.0822154 -0.215604 -0.215604
-0.0964148 -0.206917 -0.206917
-0.098609 -0.216539 -0.216539
-0.117592 -0.227485 -0.227485
-0.122672 -0.247774 -0.247774
-0.0876989 -0.245757 -0.245757
-0.0840467 -0.225443 -0.225443
-0.120135 -0.237524 -0.237524
-0.105165 -0.246675 -0.246675
-0.0858745 -0.235494 -0.235494
-0.100799 -0.226373 -0.226373
-0.102984 -0.236419 -0.236419
-0.122672 -0.247774 -0.247774
-0.12773 -0.268904 -0.268904
-0.0913375 -0.266911 -0.266911
-0.0876989 -0.245757 -0.245757
-0.125204 -0.258234 -0.258234
-0.109513 -0.267818 -0.267818
-0.0895199 -0.256229 -0.256229
-0.105165 -0.246675 -0.246675
-0.107341 -0.257142 -0.257142
-0.12773 -0.268904 -0.268904
-0.132766 -0.290871 -0.290871
-0.0949626 -0.288903 -0.288903
-0.0913375 -0.266911 -0.266911
-0.130251 -0.279784 -0.279784
-0.113843 -0.289798 -0.289798
-0.0931517 -0.277803 -0.277803
-0.109513 -0.267818 -0.267818
-0.11168 -0.278704 -0.278704
-0.132766 -0.290871 -0.290871
-0.137781 -0.31367 -0.31367
-0.0985747 -0.311726 -0.311726
-0.0949626 -0.288903 -0.288903
-0.135276 -0.302167 -0.302167
-0.118157 -0.312609 -0.312609
-0.0967703 -0.300211 -0.300211
-0.113843 -0.289798 -0.289798
-0.116002 -0.3011 -0.3011
-0.137781 -0.31367 -0.31367
-0.142774 -0.337295 -0.337295
-0.102174 -0.335376 -0.335376
-0.0985747 -0.311726 -0.311726
-0.14028 -0.325379 -0.325379
-0.122453 -0.336247 -0.336247
-0.100376 -0.323448 -0.323448
-0.118157 -0.312609 -0.312609
-0.120307 -0.324325 -0.324325
-0.142774 -0.337295 -0.337295
-0.147747 -0.361741 -0.361741
-0.10576 -0.359849 -0.359849
-0.102174 -0.335376 -0.335376
-0.145263 -0.349416 -0.349416
-0.126733 -0.360708 -0.360708
-0.103969 -0.34751 -0.34751
-0.122453 -0.336247 -0.336247
-0.124595 -0.348375 -0.348375
-0.147747 -0.361741 -0.361741
-0.152699 -0.387005 -0.387005
-0.109334 -0.385139 -0.385139
-0.10576 -0.359849 -0.359849
-0.150226 -0.374271 -0.374271
-0.130996 -0.385985 -0.385985
-0.107549 -0.372392 -0.372392
-0.126733 -0.360708 -0.360708
-0.128866 -0.373245 -0.373245
-0.152699 -0.387005 -0.387005
-0.157631 -0.413081 -0.413081
-0.112896 -0.411242 -0.411242
-0.109334 -0.385139 -0.385139
-0.155168 -0.399942 -0.399942
-0.135242 -0.412075 -0.412075
-0.111116 -0.398089 -0.398089
-0.130996 -0.385985 -0.385985
-0.133121 -0.398929 -0.398929
-0.157631 -0.413081 -0.413081
-0.162542 -0.439965 -0.439965
-0.116445 -0.438152 -0.438152
-0.112896 -0.411242 -0.411242
-0.160089 -0.426422 -0.426422
-0.139473 -0.438972 -0.438972
-0.114672 -0.424596 -0.424596
-0.135242 -0.412075 -0.412075
-0.13736 -0.425423 -0.425423
-0.162542 -0.439965 -0.439965
-0.167434 -0.467651 -0.467651
-0.119983 -0.465865 -0.465865
-0.116445 -0.438152 -0.438152
-0.164991 -0.453708 -0.453708
-0.143687 -0.466672 -0.466672
-0.118215 -0.451908 -0.451908
-0.139473 -0.438972 -0.438972
-0.141582 -0.452722 -0.452722
-0.167434 -0.467651 -0.467651
-0.172305 -0.496134 -0.496134
-0.123509 -0.494376 -0.494376
-0.119983 -0.465865 -0.465865
-0.169872 -0.481793 -0.481793
-0.147886 -0.49517 -0.49517
-0.121747 -0.480021 -0.480021
-0.143687 -0.466672 -0.466672
-0.145789 -0.480822 -0.480822
-0.172305 -0.496134 -0.496134
-0.177157 -0.525411 -0.525411
-0.127023 -0.523681 -0.523681
-0.123509 -0.494376 -0.494376
-0.174734 -0.510674 -0.510674
-0.152069 -0.524462 -0.524462
-0.125268 -0.50893 -0.50893
-0.147886 -0.49517 -0.49517
-0.149979 -0.509717 -0.509717
-0.177157 -0.525411 -0.525411
-0.181989 -0.555476 -0.555476
-0.130527 -0.553774 -0.553774
-0.127023 -0.523681 -0.523681
-0.179576 -0.540345 -0.540345
-0.156237 -0.554541 -0.554541
-0.128776 -0.538629 -0.538629
-0.152069 -0.524462 -0.524462
-0.154155 -0.539403 -0.539403
-0.181989 -0.555476 -0.555476
-0.186802 -0.586324 -0.586324
-0.134019 -0.58465 -0.58465
-0.130527 -0.553774 -0.553774
-0.184398 -0.570802 -0.570802
-0.160389 -0.585404 -0.585404
-0.132274 -0.569114 -0.569114
-0.156237 -0.554541 -0.554541
-0.158315 -0.569875 -0.569875
-0.186802 -0.586324 -0.586324
-0.191596 -0.617951 -0.617951
-0.1375 -0.616306 -0.616306
-0.134019 -0.58465 -0.58465
-0.189202 -0.60204 -0.60204
-0.164527 -0.617045 -0.617045
-0.135761 -0.600381 -0.600381
-0.160389 -0.585404 -0.585404
-0.16246 -0.601128 -0.601128
-0.191596 -0.617951 -0.617951
-0.196371 -0.650351 -0.650351
-0.140971 -0.648735 -0.648735
-0.1375 -0.616306 -0.616306
-0.193986 -0.634054 -0.634054
-0.16865 -0.649461 -0.649461
-0.139237 -0.632424 -0.632424
-0.164527 -0.617045 -0.617045
-0.16659 -0.633156 -0.633156
-0.196371 -0.650351 -0.650351
-0.201128 -0.68352 -0.68352
-0.144431 -0.681933 -0.681933
-0.140971 -0.648735 -0.648735
-0.198752 -0.666839 -0.666839
-0.172758 -0.682645 -0.682645
-0.142702 -0.665238 -0.665238
-0.16865 -0.649461 -0.649461
-0.170706 -0.665957 -0.665957
-0.201128 -0.68352 -0.68352
-0.205865 -0.717453 -0.717453
-0.14788 -0.715896 -0.715896
-0.144431 -0.681933 -0.681933
-0.203499 -0.700391 -0.700391
-0.176852 -0.716593 -0.716593
-0.146157 -0.698819 -0.698819
-0.172758 -0.682645 -0.682645
-0.174807 -0.699524 -0.699524
-0.205865 -0.717453 -0.717453
-0.210585 -0.752145 -0.752145
-0.15132 -0.750618 -0.750618
-0.14788 -0.715896 -0.715896
-0.208227 -0.734704 -0.734704
-0.180931 -0.751301 -0.751301
-0.149601 -0.733162 -0.733162
-0.176852 -0.716593 -0.716593
-0.178893 -0.733852 -0.733852
-0.210585 -0.752145 -0.752145
-0.215286 -0.787592 -0.787592
-0.154749 -0.786095 -0.786095
-0.15132 -0.750618 -0.750618
-0.212937 -0.769774 -0.769774
-0.184996 -0.786763 -0.786763
-0.153036 -0.768263 -0.768263
-0.180931 -0.751301 -0.751301
-0.182965 -0.768938 -0.768938
-0.215286 -0.787592 -0.787592
-0.219969 -0.823788 -0.823788
-0.158169 -0.822322 -0.822322
-0.154749 -0.786095 -0.786095
-0.217629 -0.805596 -0.805596
-0.189047 -0.822975 -0.822975
-0.15646 -0.804115 -0.804115
-0.184996 -0.786763 -0.786763
-0.187023 -0.804776 -0.804776
-0.219969 -0.823788 -0.823788
-0.224634 -0.860729 -0.860729
-0.161578 -0.859293 -0.859293
-0.158169 -0.822322 -0.822322
-0.222303 -0.842165 -0.842165
-0.193085 -0.859932 -0.859932
-0.159875 -0.840714 -0.840714
-0.189047 -0.822975 -0.822975
-0.191068 -0.841361 -0.841361
-0.224634 -0.860729 -0.860729
-0.229281 -0.898409 -0.898409
-0.164978 -0.897005 -0.897005
-0.161578 -0.859293 -0.859293
-0.226959 -0.879477 -0.879477
-0.197108 -0.897628 -0.897628
-0.163279 -0.878057 -0.878057
-0.193085 -0.859932 -0.859932
-0.195098 -0.878688 -0.878688
-0.229281 -0.898409 -0.898409
-0.23391 -0.936825 -0.936825
-0.168369 -0.935452 -0.935452
-0.164978 -0.897005 -0.897005
-0.231598 -0.917526 -0.917526
-0.201118 -0.93606 -0.93606
-0.166675 -0.916137 -0.916137
-0.197108 -0.897628 -0.897628
-0.199115 -0.916753 -0.916753
-0.23391 -0.936825 -0.936825
-0.238522 -0.975971 -0.975971
-0.17175 -0.974629 -0.974629
-0.168369 -0.935452 -0.935452
-0.236218 -0.956307 -0.956307
-0.205115 -0.975223 -0.975223
-0.170061 -0.95495 -0.95495
-0.201118 -0.93606 -0.93606
-0.203118 -0.955551 -0.955551
-0.238522 -0.975971 -0.975971
-0.243117 -1.01584 -1.01584
-0.175122 -1.01453 -1.01453
-0.17175 -0.974629 -0.974629
-0.240822 -0.995817 -0.995817
-0.209098 -1.01511 -1.01511
-0.173437 -0.99449 -0.99449
-0.205115 -0.975223 -0.975223
-0.207108 -0.995076 -0.995076
-0.243117 -1.01584 -1.01584
-0.247694 -1.05643 -1.05643
-0.178485 -1.05516 -1.05516
-0.175122 -1.01453 -1.01453
-0.245408 -1.03605 -1.03605
-0.213068 -1.05572 -1.05572
-0.176805 -1.03475 -1.03475
-0.209098 -1.01511 -1.01511
-0.211085 -1.03533 -1.03533
-0.247694 -1.05643 -1.05643
-0.252254 -1.09774 -1.09774
-0.18184 -1.0965 -1.0965
-0.178485 -1.05516 -1.05516
-0.249976 -1.077 -1.077
-0.217026 -1.09704 -1.09704
-0.180164 -1.07574 -1.07574
-0.213068 -1.05572 -1.05572
-0.215049 -1.07629 -1.07629
-0.252254 -1.09774 -1.09774
-0.256798 -1.13976 -1.13976
-0.185185 -1.13855 -1.13855
-0.18184 -1.0965 -1.0965
-0.254528 -1.11866 -1.11866
-0.22097 -1.13908 -1.13908
-0.183513 -1.11743 -1.11743
-0.217026 -1.09704 -1.09704
-0.218999 -1.11797 -1.11797
-0.256798 -1.13976 -1.13976
-0.261324 -1.18249 -1.18249
-0.188521 -1.18131 -1.18131
-0.185185 -1.13855 -1.13855
-0.259063 -1.16104 -1.16104
-0.224901 -1.18182 -1.18182
-0.186854 -1.15984 -1.15984
-0.22097 -1.13908 -1.13908
-0.222937 -1.16036 -1.16036
-0.261324 -1.18249 -1.18249
-0.265834 -1.22591 -1.22591
-0.19185 -1.22476 -1.22476
-0.188521 -1.18131 -1.18131
-0.263581 -1.20411 -1.20411
-0.22882 -1.22526 -1.22526
-0.190187 -1.20295 -1.20295
-0.224901 -1.18182 -1.18182
-0.226862 -1.20346 -1.20346
-0.265834 -1.22591 -1.22591
-0.270327 -1.27004 -1.27004
-0.195169 -1.26892 -1.26892
-0.19185 -1.22476 -1.22476
-0.268082 -1.24789 -1.24789
-0.232726 -1.2694 -1.2694
-0.19351 -1.24676 -1.24676
-0.22882 -1.22526 -1.22526
-0.230775 -1.24725 -1.24725
-0.270327 -1.27004 -1.27004
-0.274803 -1.31485 -1.31485
-0.19848 -1.31377 -1.31377
-0.195169 -1.26892 -1.26892
-0.272567 -1.29236 -1.29236
-0.23662 -1.31424 -1.31424
-0.196826 -1.29126 -1.29126
-0.232726 -1.2694 -1.2694
-0.234675 -1.29173 -1.29173
-0.274803 -1.31485 -1.31485
-0.279263 -1.36035 -1.36035
-0.201783 -1.3593 -1.3593
-0.19848 -1.31377 -1.31377
-0.277035 -1.33752 -1.33752
-0.240502 -1.35975 -1.35975
-0.200133 -1.33645 -1.33645
-0.23662 -1.31424 -1.31424
-0.238562 -1.33691 -1.33691
-0.279263 -1.36035 -1.36035
-0.283706 -1.40654 -1.40654
-0.205078 -1.40552 -1.40552
-0.201783 -1.3593 -1.3593
-0.281487 -1.38336 -1.38336
-0.244371 -1.40595 -1.40595
-0.203432 -1.38233 -1.38233
-0.240502 -1.35975 -1.35975
-0.242438 -1.38277 -1.38277
-0.283706 -1.40654 -1.40654
-0.288134 -1.4534 -1.4534
-0.208365 -1.45241 -1.45241
-0.205078 -1.40552 -1.40552
-0.285922 -1.42988 -1.42988
-0.248228 -1.45283 -1.45283
-0.206722 -1.42888 -1.42888
-0.244371 -1.40595 -1.40595
-0.246301 -1.42931 -1.42931
-0.288134 -1.4534 -1.4534
-0.292545 -1.50093 -1.50093
-0.211644 -1.49998 -1.49998
-0.208365 -1.45241 -1.45241
-0.290341 -1.47708 -1.47708
-0.252073 -1.50038 -1.50038
-0.210005 -1.47611 -1.47611
-0.248228 -1.45283 -1.45283
-0.250152 -1.47652 -1.47652
-0.292545 -1.50093 -1.50093
-0.29694 -1.54913 -1.54913
-0.214914 -1.54821 -1.54821
-0.211644 -1.49998 -1.49998
-0.294745 -1.52495 -1.52495
-0.255906 -1.5486 -1.5486
-0.21328 -1.52401 -1.52401
-0.252073 -1.50038 -1.50038
-0.253991 -1.52441 -1.52441
-0.29694 -1.54913 -1.54913
-0.301319 -1.59799 -1.59799
-0.218178 -1.59711 -1.59711
-0.214914 -1.54821 -1.54821
-0.299132 -1.57348 -1.57348
-0.259727 -1.59748 -1.59748
-0.216547 -1.57258 -1.57258
-0.255906 -1.5486 -1.5486
-0.257818 -1.57296 -1.57296
-0.301319 -1.59799 -1.59799
-0.305682 -1.64751 -1.64751
-0.221433 -1.64667 -1.64667
-0.218178 -1.59711 -1.59711
-0.303503 -1.62267 -1.62267
-0.263536 -1.64702 -1.64702
-0.219806 -1.62181 -1.62181
-0.259727 -1.59748 -1.59748
-0.261633 -1.62217 -1.62217
-0.305682 -1.64751 -1.64751
-0.31003 -1.69769 -1.69769
-0.224681 -1.69688 -1.69688
-0.221433 -1.64667 -1.64667
-0.307858 -1.67252 -1.67252
-0.267334 -1.69721 -1.69721
-0.223058 -1.67169 -1.67169
-0.263536 -1.64702 -1.64702
-0.265436 -1.67204 -1.67204
-0.31003 -1.69769 -1.69769
-0.314361 -1.74851 -1.74851
-0.227921 -1.74773 -1.74773
-0.224681 -1.69688 -1.69688
-0.312197 -1.72302 -1.72302
-0.271119 -1.74805 -1.74805
-0.226302 -1.72222 -1.72222
-0.267334 -1.69721 -1.69721
-0.269228 -1.72255 -1.72255
-0.314361 -1.74851 -1.74851
-0.318677 -1.79998 -1.79998
-0.231153 -1.79923 -1.79923
-0.227921 -1.74773 -1.74773
-0.316521 -1.77416 -1.77416
-0.274894 -1.79954 -1.79954
-0.229538 -1.7734 -1.7734
-0.271119 -1.74805 -1.74805
-0.273008 -1.77372 -1.77372
-0.318677 -1.79998 -1.79998
-0.322977 -1.85208 -1.85208
-0.234379 -1.85137 -1.85137
-0.231153 -1.79923 -1.79923
-0.320829 -1.82595 -1.82595
-0.278656 -1.85166 -1.85166
-0.232767 -1.82522 -1.82522
-0.274894 -1.79954 -1.79954
-0.276777 -1.82552 -1.82552
-0.322977 -1.85208 -1.85208
-0.327262 -1.90482 -1.90482
-0.237596 -1.90415 -1.90415
-0.234379 -1.85137 -1.85137
-0.325122 -1.87837 -1.87837
-0.282408 -1.90442 -1.90442
-0.235988 -1.87768 -1.87768
-0.278656 -1.85166 -1.85166
-0.280533 -1.87796 -1.87796
-0.327262 -1.90482 -1.90482
-0.331531 -1.95819 -1.95819
-0.240807 -1.95755 -1.95755
-0.237596 -1.90415 -1.90415
-0.329398 -1.93143 -1.93143
-0.286147 -1.9578 -1.9578
-0.239203 -1.93077 -1.93077
-0.282408 -1.90442 -1.90442
-0.284279 -1.93103 -1.93103
-0.331531 -1.95819 -1.95819
-0.335785 -2.01218 -2.01218
-0.24401 -2.01157 -2.01157
-0.240807 -1.95755 -1.95755
-0.33366 -1.98511 -1.98511
-0.289876 -2.01181 -2.01181
-0.242409 -1.98448 -1.98448
-0.286147 -1.9578 -1.9578
-0.288013 -1.98473 -1.98473
-0.335785 -2.01218 -2.01218
-0.340023 -2.06679 -2.06679
-0.247206 -2.06622 -2.06622
-0.24401 -2.01157 -2.01157
-0.337906 -2.03941 -2.03941
-0.293593 -2.06644 -2.06644
-0.245609 -2.03882 -2.03882
-0.289876 -2.01181 -2.01181
-0.291736 -2.03905 -2.03905
-0.340023 -2.06679 -2.06679
-0.344246 -2.12202 -2.12202
-0.250395 -2.12148 -2.12148
-0.247206 -2.06622 -2.06622
-0.342136 -2.09433 -2.09433
-0.297299 -2.12168 -2.12168
-0.248801 -2.09377 -2.09377
-0.293593 -2.06644 -2.06644
-0.295447 -2.09399 -2.09399
-0.344246 -2.12202 -2.12202
-0.348454 -2.17785 -2.17785
-0.253577 -2.17735 -2.17735
-0.250395 -2.12148 -2.12148
-0.346352 -2.14986 -2.14986
-0.300993 -2.17754 -2.17754
-0.251987 -2.14934 -2.14934
-0.297299 -2.12168 -2.12168
-0.299148 -2.14953 -2.14953
-0.348454 -2.17785 -2.17785
-0.352646 -2.23429 -2.23429
-0.256751 -2.23383 -2.23383
-0.253577 -2.17735 -2.17735
-0.350552 -2.206 -2.206
-0.304677 -2.23399 -2.23399
-0.255165 -2.20551 -2.20551
-0.300993 -2.17754 -2.17754
-0.302837 -2.20569 -2.20569
-0.352646 -2.23429 -2.23429
-0.356823 -2.29133 -2.29133
-0.259919 -2.2909 -2.2909
-0.256751 -2.23383 -2.23383
-0.354736 -2.26274 -2.26274
-0.308349 -2.29105 -2.29105
-0.258336 -2.26229 -2.26229
-0.304677 -2.23399 -2.23399
-0.306514 -2.26245 -2.26245
-0.356823 -2.29133 -2.29133
-0.360985 -2.34897 -2.34897
-0.263079 -2.34857 -2.34857
-0.259919 -2.2909 -2.2909
-0.358906 -2.32008 -2.32008
-0.31201 -2.34871 -2.34871
-0.2615 -2.31966 -2.31966
-0.308349 -2.29105 -2.29105
-0.310181 -2.31981 -2.31981
-0.360985 -2.34897 -2.34897
-0.365131 -2.40719 -2.40719
-0.266233 -2.40683 -2.40683
-0.263079 -2.34857 -2.34857
-0.36306 -2.37801 -2.37801
-0.31566 -2.40695 -2.40695
-0.264657 -2.37763 -2.37763
-0.31201 -2.34871 -2.34871
-0.313837 -2.37775 -2.37775
-0.365131 -2.40719 -2.40719
-0.369263 -2.466 -2.466
-0.269379 -2.46568 -2.46568
-0.266233 -2.40683 -2.40683
-0.367199 -2.43653 -2.43653
-0.319299 -2.46578 -2.46578
-0.267807 -2.43618 -2.43618
-0.31566 -2.40695 -2.40695
-0.317481 -2.43629 -2.43629
-0.369263 -2.466 -2.466
-0.373379 -2.5254 -2.5254
-0.272519 -2.52511 -2.52511
-0.269379 -2.46568 -2.46568
-0.371323 -2.49563 -2.49563
-0.322927 -2.52519 -2.52519
-0.27095 -2.49532 -2.49532
-0.319299 -2.46578 -2.46578
-0.321115 -2.49541 -2.49541
-0.373379 -2.5254 -2.5254
-0.37748 -2.58536 -2.58536
-0.275651 -2.58511 -2.58511
-0.272519 -2.52511 -2.52511
-0.375432 -2.55531 -2.55531
-0.326544 -2.58518 -2.58518
-0.274086 -2.55504 -2.55504
-0.322927 -2.52519 -2.52519
-0.324737 -2.55511 -2.55511
-0.37748 -2.58536 -2.58536
-0.381566 -2.6459 -2.6459
-0.278777 -2.64568 -2.64568
-0.275651 -2.58511 -2.58511
-0.379525 -2.61556 -2.61556
-0.33015 -2.64573 -2.64573
-0.277215 -2.61532 -2.61532
-0.326544 -2.58518 -2.58518
-0.328349 -2.61538 -2.61538
-0.381566 -2.6459 -2.6459
-0.385638 -2.70701 -2.70701
-0.281896 -2.70682 -2.70682
-0.278777 -2.64568 -2.64568
-0.383604 -2.67638 -2.67638
-0.333745 -2.70686 -2.70686
-0.280337 -2.67618 -2.67618
-0.33015 -2.64573 -2.64573
-0.331949 -2.67622 -2.67622
-0.385638 -2.70701 -2.70701
-0.389693 -2.76867 -2.76867
-0.285008 -2.76853 -2.76853
-0.281896 -2.70682 -2.70682
-0.387667 -2.73777 -2.73777
-0.337329 -2.76854 -2.76854
-0.283453 -2.7376 -2.7376
-0.333745 -2.70686 -2.70686
-0.335539 -2.73763 -2.73763
-0.389693 -2.76867 -2.76867
-0.393734 -2.8309 -2.8309
-0.288113 -2.83078 -2.83078
-0.285008 -2.76853 -2.76853
-0.391716 -2.79972 -2.79972
-0.340902 -2.83078 -2.83078
-0.286561 -2.79959 -2.79959
-0.337329 -2.76854 -2.76854
-0.339117 -2.79959 -2.79959
-0.393734 -2.8309 -2.8309
-0.39776 -2.89367 -2.89367
-0.291211 -2.89359 -2.89359
-0.288113 -2.83078 -2.83078
-0.395749 -2.86222 -2.86222
-0.344464 -2.89358 -2.89358
-0.289663 -2.86212 -2.86212
-0.340902 -2.83078 -2.83078
-0.342685 -2.86211 -2.86211
-0.39776 -2.89367 -2.89367
-0.401771 -2.95699 -2.95699
-0.294303 -2.95695 -2.95695
-0.291211 -2.89359 -2.89359
-0.399767 -2.92527 -2.92527
-0.348015 -2.95692 -2.95692
-0.292758 -2.9252 -2.9252
-0.344464 -2.89358 -2.89358
-0.346241 -2.92518 -2.92518
-0.401771 -2.95699 -2.95699
-0.405767 -3.02086 -3.02086
-0.297387 -3.02085 -3.02085
-0.294303 -2.95695 -2.95695
-0.403771 -2.98886 -2.98886
-0.351555 -3.0208 -3.0208
-0.295846 -2.98883 -2.98883
-0.348015 -2.95692 -2.95692
-0.349787 -2.98879 -2.98879
-0.405767 -3.02086 -3.02086
-0.409747 -3.08526 -3.08526
-0.300465 -3.08529 -3.08529
-0.297387 -3.02085 -3.02085
-0.407759 -3.05299 -3.05299
-0.355084 -3.08522 -3.08522
-0.298927 -3.053 -3.053
-0.351555 -3.0208 -3.0208
-0.353321 -3.05294 -3.05294
-0.409747 -3.08526 -3.08526
-0.413713 -3.15019 -3.15019
-0.303535 -3.15026 -3.15026
-0.300465 -3.08529 -3.08529
-0.411732 -3.11766 -3.11766
-0.358602 -3.15017 -3.15017
-0.302001 -3.11771 -3.11771
-0.355084 -3.08522 -3.08522
-0.356845 -3.11763 -3.11763
-0.413713 -3.15019 -3.15019
-0.417663 -3.21565 -3.21565
-0.306599 -3.21575 -3.21575
-0.303535 -3.15026 -3.15026
-0.41569 -3.18286 -3.18286
-0.362109 -3.21565 -3.21565
-0.305068 -3.18294 -3.18294
-0.358602 -3.15017 -3.15017
-0.360357 -3.18284 -3.18284
-0.417663 -3.21565 -3.21565
-0.421598 -3.28164 -3.28164
-0.309656 -3.28177 -3.28177
-0.306599 -3.21575 -3.21575
-0.419633 -3.24858 -3.24858
-0.365605 -3.28165 -3.28165
-0.308128 -3.2487 -3.2487
-0.362109 -3.21565 -3.21565
-0.363859 -3.24858 -3.24858
-0.421598 -3.28164 -3.28164
-0.425518 -3.34814 -3.34814
-0.312705 -3.34831 -3.34831
-0.309656 -3.28177 -3.28177
-0.42356 -3.31483 -3.31483
-0.36909 -3.34817 -3.34817
-0.311181 -3.31498 -3.31498
-0.365605 -3.28165 -3.28165
-0.367349 -3.31485 -3.31485
-0.425518 -3.34814 -3.34814
-0.429423 -3.41516 -3.41516
-0.315748 -3.41536 -3.41536
-0.312705 -3.34831 -3.34831
-0.427473 -3.38159 -3.38159
-0.372564 -3.4152 -3.4152
-0.314228 -3.38177 -3.38177
-0.36909 -3.34817 -3.34817
-0.370829 -3.38162 -3.38162
-0.429423 -3.41516 -3.41516
-0.433313 -3.48268 -3.48268
-0.318784 -3.48292 -3.48292
-0.315748 -3.41536 -3.41536
-0.43137 -3.44886 -3.44886
-0.376027 -3.48275 -3.48275
-0.317267 -3.44908 -3.44908
-0.372564 -3.4152 -3.4152
-0.374297 -3.44891 -3.44891
-0.433313 -3.48268 -3.48268
-0.437188 -3.55071 -3.55071
-0.321813 -3.55098 -3.55098
-0.318784 -3.48292 -3.48292
-0.435252 -3.51663 -3.51663
-0.379479 -3.55079 -3.55079
-0.320299 -3.51689 -3.51689
-0.376027 -3.48275 -3.48275
-0.377754 -3.51671 -3.51671
-0.437188 -3.55071 -3.55071
-0.441047 -3.61923 -3.61923
-0.324835 -3.61954 -3.61954
-0.321813 -3.55098 -3.55098
-0.439119 -3.58491 -3.58491
-0.382919 -3.61934 -3.61934
-0.323325 -3.5852 -3.5852
-0.379479 -3.55079 -3.55079
-0.381201 -3.585 -3.585
-0.441047 -3.61923 -3.61923
-0.444891 -3.68825 -3.68825
-0.327849 -3.6886 -3.6886
-0.324835 -3.61954 -3.61954
-0.442971 -3.65368 -3.65368
-0.386349 -3.68837 -3.68837
-0.326343 -3.65401 -3.65401
-0.382919 -3.61934 -3.61934
-0.384636 -3.65379 -3.65379
-0.444891 -3.68825 -3.68825
-0.44872 -3.75776 -3.75776
-0.330857 -3.75814 -3.75814
-0.327849 -3.6886 -3.6886
-0.446808 -3.72295 -3.72295
-0.389767 -3.7579 -3.7579
-0.329354 -3.72331 -3.72331
-0.386349 -3.68837 -3.68837
-0.388059 -3.72308 -3.72308
-0.44872 -3.75776 -3.75776
-0.452534 -3.82776 -3.82776
-0.333857 -3.82817 -3.82817
-0.330857 -3.75814 -3.75814
-0.450629 -3.7927 -3.7927
-0.393174 -3.82791 -3.82791
-0.332358 -3.7931 -3.7931
-0.389767 -3.7579 -3.7579
-0.391472 -3.79285 -3.79285
-0.452534 -3.82776 -3.82776
-0.456332 -3.89823 -3.89823
-0.336851 -3.89868 -3.89868
-0.333857 -3.82817 -3.82817
-0.454434 -3.86293 -3.86293
-0.39657 -3.8984 -3.8984
-0.335355 -3.86336 -3.86336
-0.393174 -3.82791 -3.82791
-0.394873 -3.8631 -3.8631
-0.456332 -3.89823 -3.89823
-0.460114 -3.96918 -3.96918
-0.339837 -3.96966 -3.96966
-0.336851 -3.89868 -3.89868
-0.458225 -3.93364 -3.93364
-0.399954 -3.96937 -3.96937
-0.338345 -3.93411 -3.93411
-0.39657 -3.8984 -3.8984
-0.398263 -3.93383 -3.93383
-0.460114 -3.96918 -3.96918
-0.463881 -4.04059 -4.04059
-0.342815 -4.04111 -4.04111
-0.339837 -3.96966 -3.96966
-0.462 -4.00482 -4.00482
-0.403327 -4.0408 -4.0408
-0.341327 -4.00533 -4.00533
-0.399954 -3.96937 -3.96937
-0.401642 -4.00503 -4.00503
-0.463881 -4.04059 -4.04059
-0.467633 -4.11247 -4.11247
-0.345787 -4.11303 -4.11303
-0.342815 -4.04111 -4.04111
-0.465759 -4.07647 -4.07647
-0.406688 -4.1127 -4.1127
-0.344302 -4.07701 -4.07701
-0.403327 -4.0408 -4.0408
-0.405009 -4.07669 -4.07669
-0.467633 -4.11247 -4.11247
-0.471369 -4.18482 -4.18482
-0.348751 -4.1854 -4.1854
-0.345787 -4.11303 -4.11303
-0.469503 -4.14859 -4.14859
-0.410038 -4.18506 -4.18506
-0.34727 -4.14916 -4.14916
-0.406688 -4.1127 -4.1127
-0.408365 -4.14882 -4.14882
-0.471369 -4.18482 -4.18482
-0.475089 -4.25761 -4.25761
-0.351707 -4.25823 -4.25823
-0.348751 -4.1854 -4.1854
-0.473231 -4.22116 -4.22116
-0.413377 -4.25788 -4.25788
-0.35023 -4.22176 -4.22176
-0.410038 -4.18506 -4.18506
-0.411709 -4.22141 -4.22141
-0.475089 -4.25761 -4.25761
-0.478794 -4.33086 -4.33086
-0.354656 -4.33152 -4.33152
-0.351707 -4.25823 -4.25823
-0.476944 -4.29418 -4.29418
-0.416704 -4.33114 -4.33114
-0.353182 -4.29482 -4.29482
-0.413377 -4.25788 -4.25788
-0.415042 -4.29445 -4.29445
-0.478794 -4.33086 -4.33086
-0.482483 -4.40455 -4.40455
-0.357597 -4.40524 -4.40524
-0.354656 -4.33152 -4.33152
-0.48064 -4.36765 -4.36765
-0.420019 -4.40485 -4.40485
-0.356128 -4.36832 -4.36832
-0.416704 -4.33114 -4.33114
-0.418363 -4.36794 -4.36794
-0.482483 -4.40455 -4.40455
-0.486156 -4.47869 -4.47869
-0.360531 -4.47941 -4.47941
-0.357597 -4.40524 -4.40524
-0.484321 -4.44156 -4.44156
-0.423322 -4.479 -4.479
-0.359065 -4.44227 -4.44227
-0.420019 -4.40485 -4.40485
-0.421672 -4.44187 -4.44187
-0.486156 -4.47869 -4.47869
-0.489813 -4.55326 -4.55326
-0.363457 -4.55401 -4.55401
-0.360531 -4.47941 -4.47941
-0.487987 -4.51592 -4.51592
-0.426614 -4.55359 -4.55359
-0.361995 -4.51666 -4.51666
-0.423322 -4.479 -4.479
-0.424969 -4.51624 -4.51624
-0.489813 -4.55326 -4.55326
-0.493455 -4.62826 -4.62826
-0.366376 -4.62905 -4.62905
-0.363457 -4.55401 -4.55401
-0.491636 -4.5907 -4.5907
-0.429894 -4.62861 -4.62861
-0.364917 -4.59148 -4.59148
-0.426614 -4.55359 -4.55359
-0.428255 -4.59104 -4.59104
-0.493455 -4.62826 -4.62826
-0.49708 -4.70368 -4.70368
-0.369286 -4.70451 -4.70451
-0.366376 -4.62905 -4.62905
-0.495269 -4.66592 -4.66592
-0.433162 -4.70405 -4.70405
-0.367832 -4.66673 -4.66673
-0.429894 -4.62861 -4.62861
-0.431529 -4.66628 -4.66628
-0.49708 -4.70368 -4.70368
-0.500689 -4.77953 -4.77953
-0.372189 -4.78039 -4.78039
-0.369286 -4.70451 -4.70451
-0.498887 -4.74156 -4.74156
-0.436417 -4.77992 -4.77992
-0.370738 -4.7424 -4.7424
-0.433162 -4.70405 -4.70405
-0.434791 -4.74193 -4.74193
-0.500689 -4.77953 -4.77953
-0.504282 -4.8558 -4.8558
-0.375083 -4.85669 -4.85669
-0.372189 -4.78039 -4.78039
-0.502488 -4.81761 -4.81761
-0.439661 -4.8562 -4.8562
-0.373637 -4.81849 -4.81849
-0.436417 -4.77992 -4.77992
-0.438041 -4.81801 -4.81801
-0.504282 -4.8558 -4.8558
-0.507859 -4.93247 -4.93247
-0.37797 -4.9334 -4.9334
-0.375083 -4.85669 -4.85669
-0.506073 -4.89408 -4.89408
-0.442893 -4.93289 -4.93289
-0.376527 -4.89499 -4.89499
-0.439661 -4.8562 -4.8562
-0.441279 -4.8945 -4.8945
-0.507859 -4.93247 -4.93247
-0.511419 -5.00956 -5.00956
-0.380848 -5.01052 -5.01052
-0.37797 -4.9334 -4.9334
-0.509641 -4.97097 -4.97097
-0.446112 -5.01 -5.01
-0.37941 -4.97191 -4.97191
-0.442893 -4.93289 -4.93289
-0.444504 -4.97139 -4.97139
-0.511419 -5.00956 -5.00956
-0.514963 -5.08704 -5.08704
-0.383718 -5.08804 -5.08804
-0.380848 -5.01052 -5.01052
-0.513193 -5.04825 -5.04825
-0.449319 -5.0875 -5.0875
-0.382284 -5.04923 -5.04923
-0.446112 -5.01 -5.01
-0.447717 -5.0487 -5.0487
-0.514963 -5.08704 -5.08704
-0.518491 -5.16493 -5.16493
-0.38658 -5.16595 -5.16595
-0.383718 -5.08804 -5.08804
-0.516729 -5.12594 -5.12594
-0.452514 -5.1654 -5.1654
-0.38515 -5.12695 -5.12695
-0.449319 -5.0875 -5.0875
-0.450918 -5.1264 -5.1264
-0.518491 -5.16493 -5.16493
-0.522002 -5.2432 -5.2432
-0.389434 -5.24426 -5.24426
-0.38658 -5.16595 -5.16595
-0.520249 -5.20402 -5.20402
-0.455696 -5.24369 -5.24369
-0.388008 -5.20506 -5.20506
-0.452514 -5.1654 -5.1654
-0.454107 -5.2045 -5.2045
-0.522002 -5.2432 -5.2432
-0.525496 -5.32187 -5.32187
-0.392279 -5.32296 -5.32296
-0.389434 -5.24426 -5.24426
-0.523751 -5.28249 -5.28249
-0.458866 -5.32237 -5.32237
-0.390857 -5.28356 -5.28356
-0.455696 -5.24369 -5.24369
-0.457283 -5.28298 -5.28298
-0.525496 -5.32187 -5.32187
-0.528974 -5.40091 -5.40091
-0.395115 -5.40204 -5.40204
-0.392279 -5.32296 -5.32296
-0.527237 -5.36134 -5.36134
-0.462023 -5.40143 -5.40143
-0.393698 -5.36245 -5.36245
-0.458866 -5.32237 -5.32237
-0.460446 -5.36186 -5.36186
-0.528974 -5.40091 -5.40091
-0.532435 -5.48034 -5.48034
-0.397943 -5.48149 -5.48149
-0.395115 -5.40204 -5.40204
-0.530706 -5.44058 -5.44058
-0.465167 -5.48088 -5.48088
-0.39653 -5.44172 -5.44172
-0.462023 -5.40143 -5.40143
-0.463597 -5.44111 -5.44111
-0.532435 -5.48034 -5.48034
-0.535878 -5.56013 -5.56013
-0.400762 -5.56132 -5.56132
-0.397943 -5.48149 -5.48149
-0.534159 -5.52019 -5.52019
-0.468299 -5.56069 -5.56069
-0.399353 -5.52136 -5.52136
-0.465167 -5.48088 -5.48088
-0.466735 -5.52074 -5.52074
-0.535878 -5.56013 -5.56013
-0.539305 -5.6403 -5.6403
-0.403572 -5.64152 -5.64152
-0.400762 -5.56132 -5.56132
-0.537594 -5.60017 -5.60017
-0.471417 -5.64087 -5.64087
-0.402168 -5.60138 -5.60138
-0.468299 -5.56069 -5.56069
-0.46986 -5.60074 -5.60074
-0.539305 -5.6403 -5.6403
-0.542715 -5.72083 -5.72083
-0.406373 -5.72208 -5.72208
-0.403572 -5.64152 -5.64152
-0.541012 -5.68052 -5.68052
-0.474523 -5.72142 -5.72142
-0.404974 -5.68176 -5.68176
-0.471417 -5.64087 -5.64087
-0.472972 -5.6811 -5.6811
-0.542715 -5.72083 -5.72083
-0.546107 -5.80172 -5.80172
-0.409165 -5.803 -5.803
-0.406373 -5.72208 -5.72208
-0.544413 -5.76123 -5.76123
-0.477615 -5.80232 -5.80232
-0.40777 -5.7625 -5.7625
-0.474523 -5.72142 -5.72142
-0.47607 -5.76183 -5.76183
-0.546107 -5.80172 -5.80172
-0.549482 -5.88296 -5.88296
-0.411948 -5.88427 -5.88427
-0.409165 -5.803 -5.803
-0.547797 -5.8423 -5.8423
-0.480694 -5.88358 -5.88358
-0.410558 -5.84359 -5.84359
-0.477615 -5.80232 -5.80232
-0.479156 -5.84291 -5.84291
-0.549482 -5.88296 -5.88296
-0.55284 -5.96455 -5.96455
-0.414722 -5.9659 -5.9659
-0.411948 -5.88427 -5.88427
-0.551163 -5.92371 -5.92371
-0.483759 -5.96519 -5.96519
-0.413336 -5.92504 -5.92504
-0.480694 -5.88358 -5.88358
-0.482228 -5.92434 -5.92434
-0.55284 -5.96455 -5.96455
-0.55618 -6.04649 -6.04649
-0.417486 -6.04786 -6.04786
-0.414722 -5.9659 -5.9659
-0.554512 -6.00548 -6.00548
-0.486812 -6.04714 -6.04714
-0.416105 -6.00684 -6.00684
-0.483759 -5.96519 -5.96519
-0.485287 -6.00612 -6.00612
-0.55618 -6.04649 -6.04649
-0.559502 -6.12876 -6.12876
-0.420241 -6.13017 -6.13017
-0.417486 -6.04786 -6.04786
-0.557843 -6.08758 -6.08758
-0.48985 -6.12943 -6.12943
-0.418865 -6.08897 -6.08897
-0.486812 -6.04714 -6.04714
-0.488333 -6.08824 -6.08824
-0.559502 -6.12876 -6.12876
-0.562807 -6.21137 -6.21137
-0.422986 -6.21281 -6.21281
-0.420241 -6.13017 -6.13017
-0.561157 -6.17002 -6.17002
-0.492875 -6.21205 -6.21205
-0.421615 -6.17145 -6.17145
-0.48985 -6.12943 -6.12943
-0.491364 -6.1707 -6.1707
-0.562807 -6.21137 -6.21137
-0.566093 -6.29431 -6.29431
-0.425721 -6.29578 -6.29578
-0.422986 -6.21281 -6.21281
-0.564452 -6.2528 -6.2528
-0.495886 -6.29501 -6.29501
-0.424355 -6.25425 -6.25425
-0.492875 -6.21205 -6.21205
-0.494382 -6.25349 -6.25349
-0.566093 -6.29431 -6.29431
-0.569362 -6.37757 -6.37757
-0.428447 -6.37907 -6.37907
-0.425721 -6.29578 -6.29578
-0.56773 -6.3359 -6.3359
-0.498883 -6.37829 -6.37829
-0.427086 -6.33738 -6.33738
-0.495886 -6.29501 -6.29501
-0.497387 -6.33661 -6.33661
-0.569362 -6.37757 -6.37757
-0.572613 -6.46116 -6.46116
-0.431163 -6.46268 -6.46268
-0.428447 -6.37907 -6.37907
-0.57099 -6.41932 -6.41932
-0.501867 -6.46189 -6.46189
-0.429806 -6.42084 -6.42084
-0.498883 -6.37829 -6.37829
-0.500377 -6.42005 -6.42005
-0.572613 -6.46116 -6.46116
-0.575845 -6.54505 -6.54505
-0.433868 -6.54661 -6.54661
-0.431163 -6.46268 -6.46268
-0.574231 -6.50307 -6.50307
-0.504836 -6.5458 -6.5458
-0.432517 -6.50461 -6.50461
-0.501867 -6.46189 -6.46189
-0.503353 -6.5038 -6.5038
-0.575845 -6.54505 -6.54505
-0.579059 -6.62926 -6.62926
-0.436564 -6.63085 -6.63085
-0.433868 -6.54661 -6.54661
-0.577454 -6.58712 -6.58712
-0.50779 -6.63003 -6.63003
-0.435217 -6.58869 -6.58869
-0.504836 -6.5458 -6.5458
-0.506315 -6.58787 -6.58787
-0.579059 -6.62926 -6.62926
-0.582254 -6.71378 -6.71378
-0.439249 -6.7154 -6.7154
-0.436564 -6.63085 -6.63085
-0.580659 -6.67148 -6.67148
-0.510731 -6.71456 -6.71456
-0.437908 -6.67309 -6.67309
-0.50779 -6.63003 -6.63003
-0.509262 -6.67225 -6.67225
-0.582254 -6.71378 -6.71378
-0.585431 -6.79859 -6.79859
-0.441924 -6.80024 -6.80024
-0.439249 -6.7154 -6.7154
-0.583845 -6.75615 -6.75615
-0.513656 -6.79939 -6.79939
-0.440588 -6.75778 -6.75778
-0.510731 -6.71456 -6.71456
-0.512195 -6.75693 -6.75693
-0.585431 -6.79859 -6.79859
-0.588589 -6.88371 -6.88371
-0.444588 -6.88538 -6.88538
-0.441924 -6.80024 -6.80024
-0.587013 -6.84111 -6.84111
-0.516567 -6.88451 -6.88451
-0.443257 -6.84277 -6.84277
-0.513656 -6.79939 -6.79939
-0.515114 -6.84191 -6.84191
-0.588589 -6.88371 -6.88371
-0.591729 -6.96911 -6.96911
-0.447241 -6.97081 -6.97081
-0.444588 -6.88538 -6.88538
-0.590161 -6.92637 -6.92637
-0.519464 -6.96993 -6.96993
-0.445916 -6.92806 -6.92806
-0.516567 -6.88451 -6.88451
-0.518017 -6.92719 -6.92719
-0.591729 -6.96911 -6.96911
-0.594849 -7.0548 -7.0548
-0.449884 -7.05653 -7.05653
-0.447241 -6.97081 -6.97081
-0.593291 -7.01192 -7.01192
-0.522345 -7.05563 -7.05563
-0.448564 -7.01364 -7.01364
-0.519464 -6.96993 -6.96993
-0.520906 -7.01275 -7.01275
-0.594849 -7.0548 -7.0548
-0.59795 -7.14077 -7.14077
-0.452516 -7.14253 -7.14253
-0.449884 -7.05653 -7.05653
-0.596402 -7.09775 -7.09775
-0.525212 -7.14162 -7.14162
-0.451201 -7.09949 -7.09949
-0.522345 -7.05563 -7.05563
-0.52378 -7.09859 -7.09859
-0.59795 -7.14077 -7.14077
-0.601032 -7.22701 -7.22701
-0.455136 -7.2288 -7.2288
-0.452516 -7.14253 -7.14253
-0.599493 -7.18386 -7.18386
-0.528063 -7.22788 -7.22788
-0.453827 -7.18563 -7.18563
-0.525212 -7.14162 -7.14162
-0.526639 -7.18471 -7.18471
-0.601032 -7.22701 -7.22701
-0.604094 -7.31353 -7.31353
-0.457746 -7.31535 -7.31535
-0.455136 -7.2288 -7.2288
-0.602565 -7.27024 -7.27024
-0.530899 -7.31441 -7.31441
-0.456442 -7.27204 -7.27204
-0.528063 -7.22788 -7.22788
-0.529483 -7.27111 -7.27111
-0.604094 -7.31353 -7.31353
-0.607137 -7.40032 -7.40032
-0.460344 -7.40216 -7.40216
-0.457746 -7.31535 -7.31535
-0.605618 -7.35689 -7.35689
-0.533719 -7.40121 -7.40121
-0.459046 -7.35872 -7.35872
-0.530899 -7.31441 -7.31441
-0.532311 -7.35778 -7.35778
-0.607137 -7.40032 -7.40032
-0.61016 -7.48736 -7.48736
-0.46293 -7.48924 -7.48924
-0.460344 -7.40216 -7.40216
-0.608651 -7.44381 -7.44381
-0.536524 -7.48827 -7.48827
-0.461638 -7.44567 -7.44567
-0.533719 -7.40121 -7.40121
-0.535124 -7.44471 -7.44471
-0.61016 -7.48736 -7.48736
-0.613164 -7.57467 -7.57467
-0.465505 -7.57657 -7.57657
-0.46293 -7.48924 -7.48924
-0.611665 -7.53099 -7.53099
-0.539313 -7.57559 -7.57559
-0.464219 -7.53287 -7.53287
-0.536524 -7.48827 -7.48827
-0.537921 -7.5319 -7.5319
-0.613164 -7.57467 -7.57467
-0.616147 -7.66223 -7.66223
-0.468068 -7.66415 -7.66415
-0.465505 -7.57657 -7.57657
-0.614658 -7.61842 -7.61842
-0.542087 -7.66316 -7.66316
-0.466788 -7.62033 -7.62033
-0.539313 -7.57559 -7.57559
-0.540702 -7.61935 -7.61935
-0.616147 -7.66223 -7.66223
-0.619111 -7.75003 -7.75003
-0.47062 -7.75198 -7.75198
-0.468068 -7.66415 -7.66415
-0.617632 -7.7061 -7.7061
-0.544844 -7.75098 -7.75098
-0.469345 -7.70804 -7.70804
-0.542087 -7.66316 -7.66316
-0.543467 -7.70704 -7.70704
-0.619111 -7.75003 -7.75003
-0.622054 -7.83808 -7.83808
-0.473159 -7.84006 -7.84006
-0.47062 -7.75198 -7.75198
-0.620585 -7.79403 -7.79403
-0.547585 -7.83904 -7.83904
-0.471891 -7.79599 -7.79599
-0.544844 -7.75098 -7.75098
-0.546217 -7.79498 -7.79498
-0.622054 -7.83808 -7.83808
-0.624977 -7.92636 -7.92636
-0.475686 -7.92837 -7.92837
-0.473159 -7.84006 -7.84006
-0.623518 -7.88219 -7.88219
-0.55031 -7.92734 -7.92734
-0.474424 -7.88418 -7.88418
-0.547585 -7.83904 -7.83904
-0.54895 -7.88316 -7.88316
-0.624977 -7.92636 -7.92636
-0.627879 -8.01488 -8.01488
-0.4782 -8.01691 -8.01691
-0.475686 -7.92837 -7.92837
-0.62643 -7.9706 -7.9706
-0.553019 -8.01588 -8.01588
-0.476945 -7.97261 -7.97261
-0.55031 -7.92734 -7.92734
-0.551667 -7.97158 -7.97158
-0.627879 -8.01488 -8.01488
-0.630761 -8.10363 -8.10363
-0.480702 -8.10569 -8.10569
-0.4782 -8.01691 -8.01691
-0.629322 -8.05923 -8.05923
-0.555711 -8.10464 -8.10464
-0.479453 -8.06127 -8.06127
-0.553019 -8.01588 -8.01588
-0.554367 -8.06023 -8.06023
-0.630761 -8.10363 -8.10363
-0.633621 -8.1926 -8.1926
-0.483192 -8.19468 -8.19468
-0.480702 -8.10569 -8.10569
-0.632194 -8.14809 -8.14809
-0.558386 -8.19362 -8.19362
-0.481949 -8.15016 -8.15016
-0.555711 -8.10464 -8.10464
-0.55705 -8.1491 -8.1491
-0.633621 -8.1926 -8.1926
-0.636461 -8.28179 -8.28179
-0.485669 -8.2839 -8.2839
-0.483192 -8.19468 -8.19468
-0.635044 -8.23717 -8.23717
-0.561044 -8.28282 -8.28282
-0.484432 -8.23926 -8.23926
-0.558386 -8.19362 -8.19362
-0.559717 -8.23819 -8.23819
-0.636461 -8.28179 -8.28179
-0.63928 -8.37119 -8.37119
-0.488132 -8.37332 -8.37332
-0.485669 -8.2839 -8.2839
-0.637873 -8.32646 -8.32646
-0.563685 -8.37224 -8.37224
-0.486902 -8.32858 -8.32858
-0.561044 -8.28282 -8.28282
-0.562367 -8.3275 -8.3275
-0.63928 -8.37119 -8.37119
-0.642077 -8.4608 -8.4608
-0.490583 -8.46296 -8.46296
-0.488132 -8.37332 -8.37332
-0.640681 -8.41597 -8.41597
-0.566309 -8.46186 -8.46186
-0.489359 -8.41812 -8.41812
-0.563685 -8.37224 -8.37224
-0.564999 -8.41702 -8.41702
-0.642077 -8.4608 -8.4608
-0.644853 -8.55062 -8.55062
-0.49302 -8.5528 -8.5528
-0.490583 -8.46296 -8.46296
-0.643468 -8.50569 -8.50569
-0.568916 -8.55169 -8.55169
-0.491803 -8.50786 -8.50786
-0.566309 -8.46186 -8.46186
-0.567615 -8.50675 -8.50675
-0.644853 -8.55062 -8.55062
-0.647608 -8.64063 -8.64063
-0.495444 -8.64284 -8.64284
-0.49302 -8.5528 -8.5528
-0.646233 -8.5956 -8.5956
-0.571505 -8.64172 -8.64172
-0.494234 -8.5978 -8.5978
-0.568916 -8.55169 -8.55169
-0.570213 -8.59668 -8.59668
-0.647608 -8.64063 -8.64063
-0.650341 -8.73084 -8.73084
-0.497855 -8.73307 -8.73307
-0.495444 -8.64284 -8.64284
-0.648977 -8.68572 -8.68572
-0.574077 -8.73194 -8.73194
-0.496651 -8.68793 -8.68793
-0.571505 -8.64172 -8.64172
-0.572793 -8.6868 -8.6868
-0.650341 -8.73084 -8.73084
-0.653051 -8.82124 -8.82124
-0.500251 -8.8235 -8.8235
-0.497855 -8.73307 -8.73307
-0.651699 -8.77602 -8.77602
-0.576631 -8.82235 -8.82235
-0.499055 -8.77826 -8.77826
-0.574077 -8.73194 -8.73194
-0.575356 -8.77712 -8.77712
-0.653051 -8.82124 -8.82124
-0.65574 -8.91183 -8.91183
-0.502634 -8.9141 -8.9141
-0.500251 -8.8235 -8.8235
-0.654399 -8.86651 -8.86651
-0.579166 -8.91295 -8.91295
-0.501445 -8.86878 -8.86878
-0.576631 -8.82235 -8.82235
-0.577901 -8.86763 -8.86763
-0.65574 -8.91183 -8.91183
-0.658407 -9.00259 -9.00259
-0.505003 -9.00489 -9.00489
-0.502634 -8.9141 -8.9141
-0.657076 -8.95719 -8.95719
-0.581684 -9.00372 -9.00372
-0.50382 -8.95947 -8.95947
-0.579166 -8.91295 -8.91295
-0.580428 -8.95831 -8.95831
-0.658407 -9.00259 -9.00259
-0.661051 -9.09353 -9.09353
-0.507358 -9.09585 -9.09585
-0.505003 -9.00489 -9.00489
-0.659732 -9.04804 -9.04804
-0.584184 -9.09467 -9.09467
-0.506182 -9.05035 -9.05035
-0.581684 -9.00372 -9.00372
-0.582936 -9.04918 -9.04918
-0.661051 -9.09353 -9.09353
-0.663673 -9.18464 -9.18464
-0.509698 -9.18698 -9.18698
-0.507358 -9.09585 -9.09585
-0.662365 -9.13906 -9.13906
-0.586664 -9.18579 -9.18579
-0.50853 -9.1414 -9.1414
-0.584184 -9.09467 -9.09467
-0.585426 -9.14021 -9.14021
-0.663673 -9.18464 -9.18464
-0.666271 -9.27591 -9.27591
-0.512024 -9.27828 -9.27828
-0.509698 -9.18698 -9.18698
-0.664975 -9.23026 -9.23026
-0.589127 -9.27708 -9.27708
-0.510863 -9.23261 -9.23261
-0.586664 -9.18579 -9.18579
-0.587898 -9.23142 -9.23142
-0.666271 -9.27591 -9.27591
-0.668848 -9.36735 -9.36735
-0.514335 -9.36974 -9.36974
-0.512024 -9.27828 -9.27828
-0.667562 -9.32161 -9.32161
-0.59157 -9.36853 -9.36853
-0.513181 -9.32399 -9.32399
-0.589127 -9.27708 -9.27708
-0.590351 -9.32278 -9.32278
-0.668848 -9.36735 -9.36735
-0.671401 -9.45894 -9.45894
-0.516631 -9.46135 -9.46135
-0.514335 -9.36974 -9.36974
-0.670127 -9.41312 -9.41312
-0.593995 -9.46013 -9.46013
-0.515485 -9.41553 -9.41553
-0.59157 -9.36853 -9.36853
-0.592785 -9.41431 -9.41431
-0.671401 -9.45894 -9.45894
-0.673931 -9.55068 -9.55068
-0.518912 -9.55311 -9.55311
-0.516631 -9.46135 -9.46135
-0.672668 -9.50479 -9.50479
-0.596401 -9.55188 -9.55188
-0.517773 -9.50721 -9.50721
-0.593995 -9.46013 -9.46013
-0.5952 -9.50599 -9.50599
-0.673931 -9.55068 -9.55068
-0.676437 -9.64257 -9.64257
-0.521178 -9.64502 -9.64502
-0.518912 -9.55311 -9.55311
-0.675187 -9.59661 -9.59661
-0.598787 -9.64378 -9.64378
-0.520047 -9.59905 -9.59905
-0.596401 -9.55188 -9.55188
-0.597596 -9.59781 -9.59781
-0.676437 -9.64257 -9.64257
-0.67892 -9.7346 -9.7346
-0.523429 -9.73707 -9.73707
-0.521178 -9.64502 -9.64502
-0.677682 -9.68857 -9.68857
-0.601154 -9.73582 -9.73582
-0.522305 -9.69103 -9.69103
-0.598787 -9.64378 -9.64378
-0.599973 -9.68979 -9.68979
-0.67892 -9.7346 -9.7346
-0.681379 -9.82677 -9.82677
-0.525664 -9.82926 -9.82926
-0.523429 -9.73707 -9.73707
-0.680153 -9.78067 -9.78067
-0.603501 -9.828 -9.828
-0.524548 -9.78315 -9.78315
-0.601154 -9.73582 -9.73582
-0.60233 -9.78189 -9.78189
-0.681379 -9.82677 -9.82677
-0.683815 -9.91906 -9.91906
-0.527883 -9.92158 -9.92158
-0.525664 -9.82926 -9.82926
-0.6826 -9.8729 -9.8729
-0.605828 -9.92031 -9.92031
-0.526775 -9.8754 -9.8754
-0.603501 -9.828 -9.828
-0.604667 -9.87414 -9.87414
-0.683815 -9.91906 -9.91906
-0.686226 -10.0115 -10.0115
-0.530087 -10.014 -10.014
-0.527883 -9.92158 -9.92158
-0.685024 -9.96526 -9.96526
-0.608136 -10.0127 -10.0127
-0.528987 -9.96778 -9.96778
-0.605828 -9.92031 -9.92031
-0.606985 -9.96651 -9.96651
-0.686226 -10.0115 -10.0115
-0.688614 -10.104 -10.104
-0.532274 -10.1066 -10.1066
-0.530087 -10.014 -10.014
-0.687423 -10.0577 -10.0577
-0.610423 -10.1053 -10.1053
-0.531182 -10.0603 -10.0603
-0.608136 -10.0127 -10.0127
-0.609282 -10.059 -10.059
-0.688614 -10.104 -10.104
-0.690976 -10.1967 -10.1967
-0.534446 -10.1993 -10.1993
-0.532274 -10.1066 -10.1066
-0.689798 -10.1504 -10.1504
-0.612691 -10.198 -10.198
-0.533362 -10.1529 -10.1529
-0.610423 -10.1053 -10.1053
-0.611559 -10.1516 -10.1516
-0.690976 -10.1967 -10.1967
-0.693315 -10.2895 -10.2895
-0.536601 -10.2921 -10.2921
-0.534446 -10.1993 -10.1993
-0.692149 -10.2431 -10.2431
-0.614937 -10.2908 -10.2908
-0.535525 -10.2457 -10.2457
-0.612691 -10.198 -10.198
-0.613816 -10.2444 -10.2444
-0.693315 -10.2895 -10.2895
-0.695629 -10.3824 -10.3824
-0.538739 -10.385 -10.385
-0.536601 -10.2921 -10.2921
-0.694475 -10.3359 -10.3359
-0.617163 -10.3837 -10.3837
-0.537672 -10.3385 -10.3385
-0.614937 -10.2908 -10.2908
-0.616053 -10.3372 -10.3372
-0.695629 -10.3824 -10.3824
-0.697917 -10.4753 -10.4753
-0.540861 -10.478 -10.478
-0.538739 -10.385 -10.385
-0.696776 -10.4288 -10.4288
-0.619369 -10.4766 -10.4766
-0.539802 -10.4315 -10.4315
-0.617163 -10.3837 -10.3837
-0.618269 -10.4301 -10.4301
-0.697917 -10.4753 -10.4753
-0.700181 -10.5684 -10.5684
-0.542966 -10.5711 -10.5711
-0.540861 -10.478 -10.478
-0.699052 -10.5219 -10.5219
-0.621553 -10.5697 -10.5697
-0.541915 -10.5245 -10.5245
-0.619369 -10.4766 -10.4766
-0.620463 -10.5232 -10.5232
-0.700181 -10.5684 -10.5684
-0.70242 -10.6616 -10.6616
-0.545054 -10.6643 -10.6643
-0.542966 -10.5711 -10.5711
-0.701303 -10.615 -10.615
-0.623716 -10.6629 -10.6629
-0.544012 -10.6177 -10.6177
-0.621553 -10.5697 -10.5697
-0.622637 -10.6163 -10.6163
-0.70242 -10.6616 -10.6616
-0.704633 -10.7549 -10.7549
-0.547124 -10.7576 -10.7576
-0.545054 -10.6643 -10.6643
-0.703529 -10.7082 -10.7082
-0.625858 -10.7562 -10.7562
-0.546091 -10.7109 -10.7109
-0.623716 -10.6629 -10.6629
-0.62479 -10.7096 -10.7096
-0.704633 -10.7549 -10.7549
-0.70682 -10.8482 -10.8482
-0.549177 -10.8509 -10.8509
-0.547124 -10.7576 -10.7576
-0.70573 -10.8015 -10.8015
-0.627978 -10.8496 -10.8496
-0.548153 -10.8042 -10.8042
-0.625858 -10.7562 -10.7562
-0.626921 -10.8029 -10.8029
-0.70682 -10.8482 -10.8482
-0.708982 -10.9416 -10.9416
-0.551213 -10.9444 -10.9444
-0.549177 -10.8509 -10.8509
-0.707904 -10.8949 -10.8949
-0.630077 -10.943 -10.943
-0.550197 -10.8976 -10.8976
-0.627978 -10.8496 -10.8496
-0.62903 -10.8963 -10.8963
-0.708982 -10.9416 -10.9416
-0.711118 -11.0351 -11.0351
-0.553231 -11.0379 -11.0379
-0.551213 -10.9444 -10.9444
-0.710053 -10.9884 -10.9884
-0.632154 -11.0365 -11.0365
-0.552224 -10.9911 -10.9911
-0.630077 -10.943 -10.943
-0.631118 -10.9897 -10.9897
-0.711118 -11.0351 -11.0351
-0.713228 -11.1287 -11.1287
-0.555231 -11.1315 -11.1315
-0.553231 -11.0379 -11.0379
-0.712176 -11.0819 -11.0819
-0.634209 -11.1301 -11.1301
-0.554233 -11.0847 -11.0847
-0.632154 -11.0365 -11.0365
-0.633184 -11.0833 -11.0833
-0.713228 -11.1287 -11.1287
-0.715311 -11.2223 -11.2223
-0.557213 -11.2251 -11.2251
-0.555231 -11.1315 -11.1315
-0.714273 -11.1755 -11.1755
-0.636242 -11.2237 -11.2237
-0.556224 -11.1783 -11.1783
-0.634209 -11.1301 -11.1301
-0.635228 -11.1769 -11.1769
-0.715311 -11.2223 -11.2223
-0.717368 -11.316 -11.316
-0.559176 -11.3188 -11.3188
-0.557213 -11.2251 -11.2251
-0.716343 -11.2692 -11.2692
-0.638252 -11.3174 -11.3174
-0.558197 -11.272 -11.272
-0.636242 -11.2237 -11.2237
-0.63725 -11.2706 -11.2706
-0.717368 -11.316 -11.316
-0.719398 -11.4098 -11.4098
-0.561121 -11.4126 -11.4126
-0.559176 -11.3188 -11.3188
-0.718387 -11.3629 -11.3629
-0.64024 -11.4112 -11.4112
-0.560151 -11.3657 -11.3657
-0.638252 -11.3174 -11.3174
-0.639249 -11.3643 -11.3643
-0.719398 -11.4098 -11.4098
-0.721402 -11.5036 -11.5036
-0.563048 -11.5064 -11.5064
-0.561121 -11.4126 -11.4126
-0.720404 -11.4567 -11.4567
-0.642205 -11.505 -11.505
-0.562087 -11.4595 -11.4595
-0.64024 -11.4112 -11.4112
-0.641225 -11.4581 -11.4581
-0.721402 -11.5036 -11.5036
-0.723379 -11.5974 -11.5974
-0.564955 -11.6002 -11.6002
-0.563048 -11.5064 -11.5064
-0.722394 -11.5505 -11.5505
-0.644148 -11.5988 -11.5988
-0.564004 -11.5533 -11.5533
-0.642205 -11.505 -11.505
-0.643179 -11.5519 -11.5519
-0.723379 -11.5974 -11.5974
-0.72533 -11.6913 -11.6913
-0.566844 -11.6941 -11.6941
-0.564955 -11.6002 -11.6002
-0.724358 -11.6443 -11.6443
-0.646068 -11.6927 -11.6927
-0.565902 -11.6472 -11.6472
-0.644148 -11.5988 -11.5988
-0.64511 -11.6458 -11.6458
-0.72533 -11.6913 -11.6913
-0.727256 -11.7852 -11.7852
-0.568712 -11.7881 -11.7881
-0.566844 -11.6941 -11.6941
-0.726296 -11.7382 -11.7382
-0.647965 -11.7866 -11.7866
-0.56778 -11.7411 -11.7411
-0.646068 -11.6927 -11.6927
-0.647019 -11.7397 -11.7397
-0.727256 -11.7852 -11.7852
-0.729158 -11.8791 -11.8791
-0.570561 -11.882 -11.882
-0.568712 -11.7881 -11.7881
-0.728209 -11.8322 -11.8322
-0.649842 -11.8806 -11.8806
-0.569639 -11.835 -11.835
-0.647965 -11.7866 -11.7866
-0.648906 -11.8336 -11.8336
-0.729158 -11.8791 -11.8791
-0.731039 -11.9731 -11.9731
-0.572388 -11.976 -11.976
-0.570561 -11.882 -11.882
-0.7301 -11.9261 -11.9261
-0.651697 -11.9746 -11.9746
-0.571477 -11.929 -11.929
-0.649842 -11.8806 -11.8806
-0.650772 -11.9276 -11.9276
-0.731039 -11.9731 -11.9731
-0.732906 -12.0671 -12.0671
-0.574192 -12.07 -12.07
-0.572388 -11.976 -11.976
-0.731973 -12.0201 -12.0201
-0.653532 -12.0686 -12.0686
-0.573293 -12.023 -12.023
-0.651697 -11.9746 -11.9746
-0.652617 -12.0216 -12.0216
-0.732906 -12.0671 -12.0671
-0.73477 -12.1612 -12.1612
-0.575971 -12.1641 -12.1641
-0.574192 -12.07 -12.07
-0.733837 -12.1141 -12.1141
-0.655347 -12.1626 -12.1626
-0.575085 -12.117 -12.117
-0.653532 -12.0686 -12.0686
-0.654442 -12.1156 -12.1156
-0.73477 -12.1612 -12.1612
-0.736662 -12.2553 -12.2553
-0.577726 -12.2582 -12.2582
-0.575971 -12.1641 -12.1641
-0.73571 -12.2082 -12.2082
-0.657133 -12.2567 -12.2567
-0.57685 -12.2111 -12.2111
-0.655347 -12.1626 -12.1626
-0.656245 -12.2097 -12.2097
-0.736662 -12.2553 -12.2553
-0.738581 -12.3498 -12.3498
-0.579498 -12.3523 -12.3523
-0.577726 -12.2582 -12.2582
-0.737627 -12.3024 -12.3024
-0.6589 -12.351 -12.351
-0.578606 -12.3053 -12.3053
-0.657133 -12.2567 -12.2567
-0.65801 -12.3039 -12.3039
0 0 0
-0.0036706 -0.00103564 -0.00103564
-0.00213648 -0.000216716 -0.000216716
0 0 0
-0.00178107 -0.00037093 -0.00037093
-0.00287506 -0.000526609 -0.000526609
-0.00103584 6.61423e-05 6.61423e-05
0 0 0
-0.00141563 -0.000110896 -0.000110896
-0.0036706 -0.00103564 -0.00103564
-0.00764536 -0.0029912 -0.0029912
-0.00443608 -0.00165167 -0.00165167
-0.00213648 -0.000216716 -0.000216716
-0.00563906 -0.00191896 -0.00191896
-0.00598643 -0.00220601 -0.00220601
-0.00327192 -0.000796339 -0.000796339
-0.00287506 -0.000526609 -0.000526609
-0.00440582 -0.00123786 -0.00123786
-0.00764536 -0.0029912 -0.0029912
-0.0116561 -0.00567844 -0.00567844
-0.00683172 -0.00413551 -0.00413551
-0.00443608 -0.00165167 -0.00165167
-0.00965308 -0.00424019 -0.00424019
-0.00919656 -0.00479869 -0.00479869
-0.00562656 -0.00276932 -0.00276932
-0.00598643 -0.00220601 -0.00220601
-0.00758742 -0.00339375 -0.00339375
-0.0116561 -0.00567844 -0.00567844
-0.0156472 -0.00917907 -0.00917907
-0.00924756 -0.00757526 -0.00757526
-0.00683172 -0.00413551 -0.00413551
-0.013655 -0.0073223 -0.0073223
-0.012413 -0.00827651 -0.00827651
-0.00803979 -0.00573849 -0.00573849
-0.00919656 -0.00479869 -0.00479869
-0.0108066 -0.00642602 -0.00642602
-0.0156472 -0.00917907 -0.00917907
-0.0196052 -0.0135512 -0.0135512
-0.0116561 -0.0119457 -0.0119457
-0.00924756 -0.00757526 -0.00757526
-0.0176301 -0.0112537 -0.0112537
-0.0156053 -0.0126501 -0.0126501
-0.0104538 -0.00964485 -0.00964485
-0.012413 -0.00827651 -0.00827651
-0.0140126 -0.0103504 -0.0103504
-0.0196052 -0.0135512 -0.0135512
-0.0235383 -0.0188282 -0.0188282
-0.0140436 -0.0172372 -0.0172372
-0.0116561 -0.0119457 -0.0119457
-0.0215746 -0.0160756 -0.0160756
-0.0187712 -0.0179354 -0.0179354
-0.0128526 -0.0144765 -0.0144765
-0.0156053 -0.0126501 -0.0126501
-0.0171914 -0.0151783 -0.0151783
-0.0235383 -0.0188282 -0.0188282
-0.0274482 -0.0250196 -0.0250196
-0.0164115 -0.023448 -0.023448
-0.0140436 -0.0172372 -0.0172372
-0.025496 -0.0218094 -0.0218094
-0.0219132 -0.0241366 -0.0241366
-0.0152299 -0.0202278 -0.0202278
-0.0187712 -0.0179354 -0.0179354
-0.0203449 -0.0209215 -0.0209215
-0.0274482 -0.0250196 -0.0250196
-0.0313385 -0.0321279 -0.0321279
-0.0187615 -0.0305748 -0.0305748
-0.0164115 -0.023448 -0.023448
-0.0293957 -0.0284593 -0.0284593
-0.0250349 -0.0312543 -0.0312543
-0.0175886 -0.0268971 -0.0268971
-0.0219132 -0.0241366 -0.0241366
-0.0234763 -0.027581 -0.027581
-0.0313385 -0.0321279 -0.0321279
-0.0352099 -0.0401502 -0.0401502
-0.021097 -0.0386146 -0.0386146
-0.0187615 -0.0305748 -0.0305748
-0.0332765 -0.0360251 -0.0360251
-0.0281391 -0.0392855 -0.0392855
-0.0199309 -0.0344809 -0.0344809
-0.0250349 -0.0312543 -0.0312543
-0.026589 -0.0351559 -0.0351559
-0.0352099 -0.0401502 -0.0401502
-0.0390634 -0.0490825 -0.0490825
-0.02342 -0.0475632 -0.0475632
-0.021097 -0.0386146 -0.0386146
-0.0371388 -0.0445029 -0.0445029
-0.0312277 -0.0482261 -0.0482261
-0.02226 -0.0429756 -0.0429756
-0.0281391 -0.0392855 -0.0392855
-0.0296852 -0.0436424 -0.0436424
-0.0390634 -0.0490825 -0.0490825
-0.0428996 -0.0589197 -0.0589197
-0.0257324 -0.0574162 -0.0574162
-0.02342 -0.0475632 -0.0475632
-0.0409837 -0.0538883 -0.0538883
-0.0343021 -0.0580716 -0.0580716
-0.0245775 -0.0523769 -0.0523769
-0.0312277 -0.0482261 -0.0482261
-0.0327666 -0.0530361 -0.0530361
-0.0428996 -0.0589197 -0.0589197
-0.0467189 -0.0696569 -0.0696569
-0.0280352 -0.0681689 -0.0681689
-0.0257324 -0.0574162 -0.0574162
-0.0448114 -0.0641761 -0.0641761
-0.0373632 -0.068817 -0.068817
-0.0268849 -0.0626804 -0.0626804
-0.0343021 -0.0580716 -0.0580716
-0.0358343 -0.0633321 -0.0633321
-0.0467189 -0.0696569 -0.0696569
-0.0505216 -0.0812892 -0.0812892
-0.0303291 -0.0798167 -0.0798167
-0.0280352 -0.0681689 -0.0681689
-0.0486223 -0.0753615 -0.0753615
-0.0404115 -0.0804575 -0.0804575
-0.0291832 -0.0738812 -0.0738812
-0.0373632 -0.068817 -0.068817
-0.0388889 -0.0745257 -0.0745257
-0.0505216 -0.0812892 -0.0812892
-0.054308 -0.0938114 -0.0938114
-0.0326147 -0.0923547 -0.0923547
-0.0303291 -0.0798167 -0.0798167
-0.0524169 -0.0874393 -0.0874393
-0.0434475 -0.0929881 -0.0929881
-0.0314729 -0.0859747 -0.0859747
-0.0404115 -0.0804575 -0.0804575
-0.041931 -0.0866118 -0.0866118
-0.054308 -0.0938114 -0.0938114
-0.0580785 -0.107219 -0.107219
-0.0348925 -0.105778 -0.105778
-0.0326147 -0.0923547 -0.0923547
-0.0561952 -0.100405 -0.100405
-0.0464715 -0.106404 -0.106404
-0.0337546 -0.098956 -0.098956
-0.0434475 -0.0929881 -0.0929881
-0.044961 -0.0995857 -0.0995857
-0.0580785 -0.107219 -0.107219
-0.0618332 -0.121506 -0.121506
-0.0371626 -0.120082 -0.120082
-0.0348925 -0.105778 -0.105778
-0.0599578 -0.114253 -0.114253
-0.0494839 -0.1207 -0.1207
-0.0360285 -0.11282 -0.11282
-0.0464715 -0.106404 -0.106404
-0.0479792 -0.113442 -0.113442
-0.0618332 -0.121506 -0.121506
-0.0655724 -0.136669 -0.136669
-0.0394255 -0.135262 -0.135262
-0.0371626 -0.120082 -0.120082
-0.0637047 -0.128978 -0.128978
-0.052485 -0.135872 -0.135872
-0.038295 -0.127563 -0.127563
-0.0494839 -0.1207 -0.1207
-0.0509859 -0.128177 -0.128177
-0.0655724 -0.136669 -0.136669
-0.0692966 -0.152702 -0.152702
-0.0416815 -0.151313 -0.151313
-0.0394255 -0.135262 -0.135262
-0.0674364 -0.144577 -0.144577
-0.055475 -0.151915 -0.151915
-0.0405544 -0.143179 -0.143179
-0.052485 -0.135872 -0.135872
-0.0539814 -0.143785 -0.143785
-0.0692966 -0.152702 -0.152702
-0.0730058 -0.169601 -0.169601
-0.0439308 -0.168229 -0.168229
-0.0416815 -0.151313 -0.151313
-0.071153 -0.161044 -0.161044
-0.0584542 -0.168823 -0.168823
-0.0428069 -0.159663 -0.159663
-0.055475 -0.151915 -0.151915
-0.0569659 -0.160261 -0.160261
-0.0730058 -0.169601 -0.169601
-0.0767004 -0.187361 -0.187361
-0.0461736 -0.186007 -0.186007
-0.0439308 -0.168229 -0.168229
-0.0748549 -0.178374 -0.178374
-0.0614229 -0.186592 -0.186592
-0.045053 -0.177011 -0.177011
-0.0584542 -0.168823 -0.168823
-0.0599398 -0.1776 -0.1776
-0.0767004 -0.187361 -0.187361
-0.0803806 -0.205976 -0.205976
-0.0484102 -0.204642 -0.204642
-0.0461736 -0.186007 -0.186007
-0.0785423 -0.196562 -0.196562
-0.0643813 -0.205218 -0.205218
-0.0472926 -0.195218 -0.195218
-0.0614229 -0.186592 -0.186592
-0.0629033 -0.195798 -0.195798
-0.0803806 -0.205976 -0.205976
-0.0840467 -0.225443 -0.225443
-0.0506409 -0.224128 -0.224128
-0.0484102 -0.204642 -0.204642
-0.0822154 -0.215604 -0.215604
-0.0673296 -0.224695 -0.224695
-0.0495263 -0.214279 -0.214279
-0.0643813 -0.205218 -0.205218
-0.0658567 -0.21485 -0.21485
-0.0840467 -0.225443 -0.225443
-0.0876989 -0.245757 -0.245757
-0.0528659 -0.244461 -0.244461
-0.0506409 -0.224128 -0.224128
-0.0858745 -0.235494 -0.235494
-0.0702682 -0.245019 -0.245019
-0.0517541 -0.234189 -0.234189
-0.0673296 -0.224695 -0.224695
-0.0688001 -0.234751 -0.234751
-0.0876989 -0.245757 -0.245757
-0.0913375 -0.266911 -0.266911
-0.0550855 -0.265636 -0.265636
-0.0528659 -0.244461 -0.244461
-0.0895199 -0.256229 -0.256229
-0.0731973 -0.266184 -0.266184
-0.0539764 -0.254943 -0.254943
-0.0702682 -0.245019 -0.245019
-0.0717339 -0.255496 -0.255496
-0.0913375 -0.266911 -0.266911
-0.0949626 -0.288903 -0.288903
-0.0572999 -0.287648 -0.287648
-0.0550855 -0.265636 -0.265636
-0.0931517 -0.277803 -0.277803
-0.076117 -0.288186 -0.288186
-0.0561933 -0.276537 -0.276537
-0.0731973 -0.266184 -0.266184
-0.0746583 -0.277081 -0.277081
-0.0949626 -0.288903 -0.288903
-0.0985747 -0.311726 -0.311726
-0.0595093 -0.310492 -0.310492
-0.0572999 -0.287648 -0.287648
-0.0967703 -0.300211 -0.300211
-0.0790277 -0.31102 -0.31102
-0.0584052 -0.298966 -0.298966
-0.076117 -0.288186 -0.288186
-0.0775735 -0.299499 -0.299499
-0.0985747 -0.311726 -0.311726
-0.102174 -0.335376 -0.335376
-0.061714 -0.334163 -0.334163
-0.0595093 -0.310492 -0.310492
-0.100376 -0.323448 -0.323448
-0.0819296 -0.334682 -0.334682
-0.0606122 -0.322224 -0.322224
-0.0790277 -0.31102 -0.31102
-0.0804798 -0.322748 -0.322748
-0.102174 -0.335376 -0.335376
-0.10576 -0.359849 -0.359849
-0.0639141 -0.358657 -0.358657
-0.061714 -0.334163 -0.334163
-0.103969 -0.34751 -0.34751
-0.0848228 -0.359166 -0.359166
-0.0628146 -0.346308 -0.346308
-0.0819296 -0.334682 -0.334682
-0.0833773 -0.346821 -0.346821
-0.10576 -0.359849 -0.359849
-0.109334 -0.385139 -0.385139
-0.06611 -0.383969 -0.383969
-0.0639141 -0.358657 -0.358657
-0.107549 -0.372392 -0.372392
-0.0877077 -0.384467 -0.384467
-0.0650126 -0.371211 -0.371211
-0.0848228 -0.359166 -0.359166
-0.0862663 -0.371714 -0.371714
-0.109334 -0.385139 -0.385139
-0.112896 -0.411242 -0.411242
-0.0683017 -0.410094 -0.410094
-0.06611 -0.383969 -0.383969
-0.111116 -0.398089 -0.398089
-0.0905843 -0.410581 -0.410581
-0.0672063 -0.39693 -0.39693
-0.0877077 -0.384467 -0.384467
-0.089147 -0.397423 -0.397423
-0.112896 -0.411242 -0.411242
-0.116445 -0.438152 -0.438152
-0.0704896 -0.437027 -0.437027
-0.0683017 -0.410094 -0.410094
-0.114672 -0.424596 -0.424596
-0.093453 -0.437503 -0.437503
-0.0693961 -0.42346 -0.42346
-0.0905843 -0.410581 -0.410581
-0.0920197 -0.423942 -0.423942
-0.116445 -0.438152 -0.438152
-0.119983 -0.465865 -0.465865
-0.0726738 -0.464763 -0.464763
-0.0704896 -0.437027 -0.437027
-0.118215 -0.451908 -0.451908
-0.096314 -0.465229 -0.465229
-0.0715822 -0.450795 -0.450795
-0.093453 -0.437503 -0.437503
-0.0948845 -0.451266 -0.451266
-0.119983 -0.465865 -0.465865
-0.123509 -0.494376 -0.494376
-0.0748546 -0.493298 -0.493298
-0.0726738 -0.464763 -0.464763
-0.121747 -0.480021 -0.480021
-0.0991673 -0.493752 -0.493752
-0.0737646 -0.478931 -0.478931
-0.096314 -0.465229 -0.465229
-0.0977416 -0.479391 -0.479391
-0.123509 -0.494376 -0.494376
-0.127023 -0.523681 -0.523681
-0.0770321 -0.522626 -0.522626
-0.0748546 -0.493298 -0.493298
-0.125268 -0.50893 -0.50893
-0.102013 -0.523069 -0.523069
-0.0759437 -0.507863 -0.507863
-0.0991673 -0.493752 -0.493752
-0.100591 -0.508312 -0.508312
-0.127023 -0.523681 -0.523681
-0.130527 -0.553774 -0.553774
-0.0792064 -0.552743 -0.552743
-0.0770321 -0.522626 -0.522626
-0.128776 -0.538629 -0.538629
-0.104852 -0.553174 -0.553174
-0.0781196 -0.537586 -0.537586
-0.102013 -0.523069 -0.523069
-0.103434 -0.538023 -0.538023
-0.130527 -0.553774 -0.553774
-0.134019 -0.58465 -0.58465
-0.0813779 -0.583644 -0.583644
-0.0792064 -0.552743 -0.552743
-0.132274 -0.569114 -0.569114
-0.107684 -0.584064 -0.584064
-0.0802925 -0.568096 -0.568096
-0.104852 -0.553174 -0.553174
-0.106269 -0.568521 -0.568521
-0.134019 -0.58465 -0.58465
-0.1375 -0.616306 -0.616306
-0.0835467 -0.615324 -0.615324
-0.0813779 -0.583644 -0.583644
-0.135761 -0.600381 -0.600381
-0.110509 -0.615732 -0.615732
-0.0824627 -0.599387 -0.599387
-0.107684 -0.584064 -0.584064
-0.109097 -0.599801 -0.599801
-0.1375 -0.616306 -0.616306
-0.140971 -0.648735 -0.648735
-0.085713 -0.647778 -0.647778
-0.0835467 -0.615324 -0.615324
-0.139237 -0.632424 -0.632424
-0.113327 -0.648174 -0.648174
-0.0846301 -0.631454 -0.631454
-0.110509 -0.615732 -0.615732
-0.111919 -0.631856 -0.631856
-0.140971 -0.648735 -0.648735
-0.144431 -0.681933 -0.681933
-0.0878768 -0.681001 -0.681001
-0.085713 -0.647778 -0.647778
-0.142702 -0.665238 -0.665238
-0.116139 -0.681385 -0.681385
-0.0867952 -0.664294 -0.664294
-0.113327 -0.648174 -0.648174
-0.114734 -0.664684 -0.664684
-0.144431 -0.681933 -0.681933
-0.14788 -0.715896 -0.715896
-0.0900385 -0.714989 -0.714989
-0.0878768 -0.681001 -0.681001
-0.146157 -0.698819 -0.698819
-0.118945 -0.715361 -0.715361
-0.088958 -0.6979 -0.6979
-0.116139 -0.681385 -0.681385
-0.117543 -0.698278 -0.698278
-0.14788 -0.715896 -0.715896
-0.15132 -0.750618 -0.750618
-0.0921982 -0.749737 -0.749737
-0.0900385 -0.714989 -0.714989
-0.149601 -0.733162 -0.733162
-0.121744 -0.750097 -0.750097
-0.0911186 -0.732269 -0.732269
-0.118945 -0.715361 -0.715361
-0.120345 -0.732635 -0.732635
-0.15132 -0.750618 -0.750618
-0.154749 -0.786095 -0.786095
-0.094356 -0.78524 -0.78524
-0.0921982 -0.749737 -0.749737
-0.153036 -0.768263 -0.768263
-0.124538 -0.785587 -0.785587
-0.0932773 -0.767395 -0.767395
-0.121744 -0.750097 -0.750097
-0.123142 -0.767748 -0.767748
-0.154749 -0.786095 -0.786095
-0.158169 -0.822322 -0.822322
-0.0965121 -0.821493 -0.821493
-0.094356 -0.78524 -0.78524
-0.15646 -0.804115 -0.804115
-0.127326 -0.821827 -0.821827
-0.0954342 -0.803273 -0.803273
-0.124538 -0.785587 -0.785587
-0.125933 -0.803614 -0.803614
-0.158169 -0.822322 -0.822322
-0.161578 -0.859293 -0.859293
-0.0986666 -0.858491 -0.858491
-0.0965121 -0.821493 -0.821493
-0.159875 -0.840714 -0.840714
-0.130108 -0.858813 -0.858813
-0.0975895 -0.839899 -0.839899
-0.127326 -0.821827 -0.821827
-0.128717 -0.840227 -0.840227
-0.161578 -0.859293 -0.859293
-0.164978 -0.897005 -0.897005
-0.10082 -0.896229 -0.896229
-0.0986666 -0.858491 -0.858491
-0.163279 -0.878057 -0.878057
-0.132884 -0.896538 -0.896538
-0.0997433 -0.877268 -0.877268
-0.130108 -0.858813 -0.858813
-0.131497 -0.877583 -0.877583
-0.164978 -0.897005 -0.897005
-0.168369 -0.935452 -0.935452
-0.102972 -0.934703 -0.934703
-0.10082 -0.896229 -0.896229
-0.166675 -0.916137 -0.916137
-0.135656 -0.934999 -0.934999
-0.101896 -0.915375 -0.915375
-0.132884 -0.896538 -0.896538
-0.134271 -0.915677 -0.915677
-0.168369 -0.935452 -0.935452
-0.17175 -0.974629 -0.974629
-0.105122 -0.973908 -0.973908
-0.102972 -0.934703 -0.934703
-0.170061 -0.95495 -0.95495
-0.138422 -0.974191 -0.974191
-0.104047 -0.954215 -0.954215
-0.135656 -0.934999 -0.934999
-0.137039 -0.954504 -0.954504
-0.17175 -0.974629 -0.974629
-0.175122 -1.01453 -1.01453
-0.107272 -1.01384 -1.01384
-0.105122 -0.973908 -0.973908
-0.173437 -0.99449 -0.99449
-0.141182 -1.01411 -1.01411
-0.106197 -0.993783 -0.993783
-0.138422 -0.974191 -0.974191
-0.139803 -0.994059 -0.994059
-0.175122 -1.01453 -1.01453
-0.178485 -1.05516 -1.05516
-0.109421 -1.05449 -1.05449
-0.107272 -1.01384 -1.01384
-0.176805 -1.03475 -1.03475
-0.143938 -1.05475 -1.05475
-0.108346 -1.03407 -1.03407
-0.141182 -1.01411 -1.01411
-0.142561 -1.03434 -1.03434
-0.178485 -1.05516 -1.05516
-0.18184 -1.0965 -1.0965
-0.111569 -1.09586 -1.09586
-0.109421 -1.05449 -1.05449
-0.180164 -1.07574 -1.07574
-0.146689 -1.0961 -1.0961
-0.110495 -1.07508 -1.07508
-0.143938 -1.05475 -1.05475
-0.145315 -1.07533 -1.07533
-0.18184 -1.0965 -1.0965
-0.185185 -1.13855 -1.13855
-0.113716 -1.13794 -1.13794
-0.111569 -1.09586 -1.09586
-0.183513 -1.11743 -1.11743
-0.149436 -1.13817 -1.13817
-0.112643 -1.11681 -1.11681
-0.146689 -1.0961 -1.0961
-0.148063 -1.11705 -1.11705
-0.185185 -1.13855 -1.13855
-0.188521 -1.18131 -1.18131
-0.115863 -1.18072 -1.18072
-0.113716 -1.13794 -1.13794
-0.186854 -1.15984 -1.15984
-0.152178 -1.18094 -1.18094
-0.11479 -1.15924 -1.15924
-0.149436 -1.13817 -1.13817
-0.150807 -1.15947 -1.15947
-0.188521 -1.18131 -1.18131
-0.19185 -1.22476 -1.22476
-0.11801 -1.22421 -1.22421
-0.115863 -1.18072 -1.18072
-0.190187 -1.20295 -1.20295
-0.154915 -1.22441 -1.22441
-0.116937 -1.20238 -1.20238
-0.152178 -1.18094 -1.18094
-0.153547 -1.20259 -1.20259
-0.19185 -1.22476 -1.22476
-0.195169 -1.26892 -1.26892
-0.120156 -1.26839 -1.26839
-0.11801 -1.22421 -1.22421
-0.19351 -1.24676 -1.24676
-0.157648 -1.26858 -1.26858
-0.119083 -1.24622 -1.24622
-0.154915 -1.22441 -1.22441
-0.156282 -1.24641 -1.24641
-0.195169 -1.26892 -1.26892
-0.19848 -1.31377 -1.31377
-0.122302 -1.31327 -1.31327
-0.120156 -1.26839 -1.26839
-0.196826 -1.29126 -1.29126
-0.160377 -1.31345 -1.31345
-0.121229 -1.29075 -1.29075
-0.157648 -1.26858 -1.26858
-0.159013 -1.29093 -1.29093
-0.19848 -1.31377 -1.31377
-0.201783 -1.3593 -1.3593
-0.124448 -1.35883 -1.35883
-0.122302 -1.31327 -1.31327
-0.200133 -1.33645 -1.33645
-0.163101 -1.359 -1.359
-0.123375 -1.33597 -1.33597
-0.160377 -1.31345 -1.31345
-0.161739 -1.33614 -1.33614
-0.201783 -1.3593 -1.3593
-0.205078 -1.40552 -1.40552
-0.126595 -1.40508 -1.40508
-0.124448 -1.35883 -1.35883
-0.203432 -1.38233 -1.38233
-0.165822 -1.40523 -1.40523
-0.125521 -1.38187 -1.38187
-0.163101 -1.359 -1.359
-0.164462 -1.38203 -1.38203
-0.205078 -1.40552 -1.40552
-0.208365 -1.45241 -1.45241
-0.128741 -1.452 -1.452
-0.126595 -1.40508 -1.40508
-0.206722 -1.42888 -1.42888
-0.168538 -1.45214 -1.45214
-0.127668 -1.42846 -1.42846
-0.165822 -1.40523 -1.40523
-0.16718 -1.4286 -1.4286
-0.208365 -1.45241 -1.45241
-0.211644 -1.49998 -1.49998
-0.130887 -1.4996 -1.4996
-0.128741 -1.452 -1.452
-0.210005 -1.47611 -1.47611
-0.171251 -1.49972 -1.49972
-0.129814 -1.47572 -1.47572
-0.168538 -1.45214 -1.45214
-0.169895 -1.47584 -1.47584
-0.211644 -1.49998 -1.49998
-0.214914 -1.54821 -1.54821
-0.133034 -1.54786 -1.54786
-0.130887 -1.4996 -1.4996
-0.21328 -1.52401 -1.52401
-0.173959 -1.54797 -1.54797
-0.131961 -1.52365 -1.52365
-0.171251 -1.49972 -1.49972
-0.172606 -1.52376 -1.52376
-0.214914 -1.54821 -1.54821
-0.218178 -1.59711 -1.59711
-0.135181 -1.59679 -1.59679
-0.133034 -1.54786 -1.54786
-0.216547 -1.57258 -1.57258
-0.176665 -1.59688 -1.59688
-0.134108 -1.57225 -1.57225
-0.173959 -1.54797 -1.54797
-0.175312 -1.57234 -1.57234
-0.218178 -1.59711 -1.59711
-0.221433 -1.64667 -1.64667
-0.137329 -1.64638 -1.64638
-0.135181 -1.59679 -1.59679
-0.219806 -1.62181 -1.62181
-0.179366 -1.64645 -1.64645
-0.136255 -1.6215 -1.6215
-0.176665 -1.59688 -1.59688
-0.178016 -1.62158 -1.62158
-0.221433 -1.64667 -1.64667
-0.224681 -1.69688 -1.69688
-0.139477 -1.69662 -1.69662
-0.137329 -1.64638 -1.64638
-0.223058 -1.67169 -1.67169
-0.182064 -1.69668 -1.69668
-0.138403 -1.67141 -1.67141
-0.179366 -1.64645 -1.64645
-0.180715 -1.67148 -1.67148
-0.224681 -1.69688 -1.69688
-0.227921 -1.74773 -1.74773
-0.141626 -1.7475 -1.7475
-0.139477 -1.69662 -1.69662
-0.226302 -1.72222 -1.72222
-0.184758 -1.74755 -1.74755
-0.140551 -1.72198 -1.72198
-0.182064 -1.69668 -1.69668
-0.183412 -1.72203 -1.72203
-0.227921 -1.74773 -1.74773
-0.231153 -1.79923 -1.79923
-0.143775 -1.79903 -1.79903
-0.141626 -1.7475 -1.7475
-0.229538 -1.7734 -1.7734
-0.187449 -1.79906 -1.79906
-0.1427 -1.77319 -1.77319
-0.184758 -1.74755 -1.74755
-0.186104 -1.77323 -1.77323
-0.231153 -1.79923 -1.79923
-0.234379 -1.85137 -1.85137
-0.145925 -1.8512 -1.8512
-0.143775 -1.79903 -1.79903
-0.232767 -1.82522 -1.82522
-0.190137 -1.85122 -1.85122
-0.14485 -1.82504 -1.82504
-0.187449 -1.79906 -1.79906
-0.188794 -1.82506 -1.82506
-0.234379 -1.85137 -1.85137
-0.237596 -1.90415 -1.90415
-0.148076 -1.90401 -1.90401
-0.145925 -1.8512 -1.8512
-0.235988 -1.87768 -1.87768
-0.192822 -1.90401 -1.90401
-0.147001 -1.87753 -1.87753
-0.190137 -1.85122 -1.85122
-0.19148 -1.87754 -1.87754
-0.237596 -1.90415 -1.90415
-0.240807 -1.95755 -1.95755
-0.150228 -1.95744 -1.95744
-0.148076 -1.90401 -1.90401
-0.239203 -1.93077 -1.93077
-0.195503 -1.95743 -1.95743
-0.149152 -1.93064 -1.93064
-0.192822 -1.90401 -1.90401
-0.194163 -1.93064 -1.93064
-0.240807 -1.95755 -1.95755
-0.24401 -2.01157 -2.01157
-0.152381 -2.0115 -2.0115
-0.150228 -1.95744 -1.95744
-0.242409 -1.98448 -1.98448
-0.198181 -2.01147 -2.01147
-0.151304 -1.98439 -1.98439
-0.195503 -1.95743 -1.95743
-0.196842 -1.98437 -1.98437
-0.24401 -2.01157 -2.01157
-0.247206 -2.06622 -2.06622
-0.154535 -2.06617 -2.06617
-0.152381 -2.0115 -2.0115
-0.245609 -2.03882 -2.03882
-0.200856 -2.06613 -2.06613
-0.153458 -2.03876 -2.03876
-0.198181 -2.01147 -2.01147
-0.199519 -2.03872 -2.03872
-0.247206 -2.06622 -2.06622
-0.250395 -2.12148 -2.12148
-0.156689 -2.12146 -2.12146
-0.154535 -2.06617 -2.06617
-0.248801 -2.09377 -2.09377
-0.203527 -2.12141 -2.12141
-0.155612 -2.09374 -2.09374
-0.200856 -2.06613 -2.06613
-0.202192 -2.09369 -2.09369
-0.250395 -2.12148 -2.12148
-0.253577 -2.17735 -2.17735
-0.158845 -2.17736 -2.17736
-0.156689 -2.12146 -2.12146
-0.251987 -2.14934 -2.14934
-0.206196 -2.17729 -2.17729
-0.157767 -2.14934 -2.14934
-0.203527 -2.12141 -2.12141
-0.204862 -2.14927 -2.14927
-0.253577 -2.17735 -2.17735
-0.256751 -2.23383 -2.23383
-0.161002 -2.23387 -2.23387
-0.158845 -2.17736 -2.17736
-0.255165 -2.20551 -2.20551
-0.208862 -2.23378 -2.23378
-0.159924 -2.20554 -2.20554
-0.206196 -2.17729 -2.17729
-0.207529 -2.20546 -2.20546
-0.256751 -2.23383 -2.23383
-0.259919 -2.2909 -2.2909
-0.16316 -2.29098 -2.29098
-0.161002 -2.23387 -2.23387
-0.258336 -2.26229 -2.26229
-0.211525 -2.29087 -2.29087
-0.162081 -2.26235 -2.26235
-0.208862 -2.23378 -2.23378
-0.210194 -2.26225 -2.26225
-0.259919 -2.2909 -2.2909
-0.263079 -2.34857 -2.34857
-0.165319 -2.34868 -2.34868
-0.16316 -2.29098 -2.29098
-0.2615 -2.31966 -2.31966
-0.214184 -2.34856 -2.34856
-0.16424 -2.31975 -2.31975
-0.211525 -2.29087 -2.29087
-0.212855 -2.31964 -2.31964
-0.263079 -2.34857 -2.34857
-0.266233 -2.40683 -2.40683
-0.16748 -2.40697 -2.40697
-0.165319 -2.34868 -2.34868
-0.264657 -2.37763 -2.37763
-0.216841 -2.40684 -2.40684
-0.166399 -2.37775 -2.37775
-0.214184 -2.34856 -2.34856
-0.215513 -2.37763 -2.37763
-0.266233 -2.40683 -2.40683
-0.269379 -2.46568 -2.46568
-0.169641 -2.46585 -2.46585
-0.16748 -2.40697 -2.40697
-0.267807 -2.43618 -2.43618
-0.219495 -2.4657 -2.4657
-0.16856 -2.43634 -2.43634
-0.216841 -2.40684 -2.40684
-0.218169 -2.4362 -2.4362
-0.269379 -2.46568 -2.46568
-0.272519 -2.52511 -2.52511
-0.171804 -2.52531 -2.52531
-0.169641 -2.46585 -2.46585
-0.27095 -2.49532 -2.49532
-0.222147 -2.52514 -2.52514
-0.170723 -2.4955 -2.4955
-0.219495 -2.4657 -2.4657
-0.220821 -2.49535 -2.49535
-0.272519 -2.52511 -2.52511
-0.275651 -2.58511 -2.58511
-0.173968 -2.58534 -2.58534
-0.171804 -2.52531 -2.52531
-0.274086 -2.55504 -2.55504
-0.224795 -2.58516 -2.58516
-0.172886 -2.55525 -2.55525
-0.222147 -2.52514 -2.52514
-0.223471 -2.55508 -2.55508
-0.275651 -2.58511 -2.58511
-0.278777 -2.64568 -2.64568
-0.176134 -2.64595 -2.64595
-0.173968 -2.58534 -2.58534
-0.277215 -2.61532 -2.61532
-0.227441 -2.64575 -2.64575
-0.175051 -2.61557 -2.61557
-0.224795 -2.58516 -2.58516
-0.226118 -2.61539 -2.61539
-0.278777 -2.64568 -2.64568
-0.281896 -2.70682 -2.70682
-0.1783 -2.70712 -2.70712
-0.176134 -2.64595 -2.64595
-0.280337 -2.67618 -2.67618
-0.230083 -2.70691 -2.70691
-0.177217 -2.67646 -2.67646
-0.227441 -2.64575 -2.64575
-0.228762 -2.67626 -2.67626
-0.281896 -2.70682 -2.70682
-0.285008 -2.76853 -2.76853
-0.180468 -2.76885 -2.76885
-0.1783 -2.70712 -2.70712
-0.283453 -2.7376 -2.7376
-0.232723 -2.76863 -2.76863
-0.179384 -2.73791 -2.73791
-0.230083 -2.70691 -2.70691
-0.231404 -2.7377 -2.7377
-0.285008 -2.76853 -2.76853
-0.288113 -2.83078 -2.83078
-0.182638 -2.83114 -2.83114
-0.180468 -2.76885 -2.76885
-0.286561 -2.79959 -2.79959
-0.23536 -2.8309 -2.8309
-0.181553 -2.79993 -2.79993
-0.232723 -2.76863 -2.76863
-0.234042 -2.7997 -2.7997
-0.288113 -2.83078 -2.83078
-0.291211 -2.89359 -2.89359
-0.184808 -2.89398 -2.89398
-0.182638 -2.83114 -2.83114
-0.289663 -2.86212 -2.86212
-0.237995 -2.89373 -2.89373
-0.183723 -2.86249 -2.86249
-0.23536 -2.8309 -2.8309
-0.236678 -2.86225 -2.86225
-0.291211 -2.89359 -2.89359
-0.294303 -2.95695 -2.95695
-0.18698 -2.95737 -2.95737
-0.184808 -2.89398 -2.89398
-0.292758 -2.9252 -2.9252
-0.240626 -2.9571 -2.9571
-0.185894 -2.92561 -2.92561
-0.237995 -2.89373 -2.89373
-0.239311 -2.92535 -2.92535
-0.294303 -2.95695 -2.95695
-0.297387 -3.02085 -3.02085
-0.189153 -3.0213 -3.0213
-0.18698 -2.95737 -2.95737
-0.295846 -2.98883 -2.98883
-0.243255 -3.02102 -3.02102
-0.188066 -2.98927 -2.98927
-0.240626 -2.9571 -2.9571
-0.241941 -2.98899 -2.98899
-0.297387 -3.02085 -3.02085
-0.300465 -3.08529 -3.08529
-0.191328 -3.08577 -3.08577
-0.189153 -3.0213 -3.0213
-0.298927 -3.053 -3.053
-0.245881 -3.08547 -3.08547
-0.19024 -3.05347 -3.05347
-0.243255 -3.02102 -3.02102
-0.244569 -3.05318 -3.05318
-0.300465 -3.08529 -3.08529
-0.303535 -3.15026 -3.15026
-0.193503 -3.15077 -3.15077
-0.191328 -3.08577 -3.08577
-0.302001 -3.11771 -3.11771
-0.248504 -3.15046 -3.15046
-0.192415 -3.1182 -3.1182
-0.245881 -3.08547 -3.08547
-0.247193 -3.1179 -3.1179
-0.303535 -3.15026 -3.15026
-0.306599 -3.21575 -3.21575
-0.19568 -3.2163 -3.2163
-0.193503 -3.15077 -3.15077
-0.305068 -3.18294 -3.18294
-0.251125 -3.21597 -3.21597
-0.194592 -3.18347 -3.18347
-0.248504 -3.15046 -3.15046
-0.249815 -3.18315 -3.18315
-0.306599 -3.21575 -3.21575
-0.309656 -3.28177 -3.28177
-0.197859 -3.28235 -3.28235
-0.19568 -3.2163 -3.2163
-0.308128 -3.2487 -3.2487
-0.253742 -3.282 -3.282
-0.196769 -3.24926 -3.24926
-0.251125 -3.21597 -3.21597
-0.252434 -3.24892 -3.24892
-0.309656 -3.28177 -3.28177
-0.312705 -3.34831 -3.34831
-0.200038 -3.34892 -3.34892
-0.197859 -3.28235 -3.28235
-0.311181 -3.31498 -3.31498
-0.256357 -3.34856 -3.34856
-0.198948 -3.31557 -3.31557
-0.253742 -3.282 -3.282
-0.25505 -3.31522 -3.31522
-0.312705 -3.34831 -3.34831
-0.315748 -3.41536 -3.41536
-0.202219 -3.416 -3.416
-0.200038 -3.34892 -3.34892
-0.314228 -3.38177 -3.38177
-0.258969 -3.41563 -3.41563
-0.201128 -3.38239 -3.38239
-0.256357 -3.34856 -3.34856
-0.257663 -3.38203 -3.38203
-0.315748 -3.41536 -3.41536
-0.318784 -3.48292 -3.48292
-0.204401 -3.48359 -3.48359
-0.202219 -3.416 -3.416
-0.317267 -3.44908 -3.44908
-0.261578 -3.4832 -3.4832
-0.20331 -3.44973 -3.44973
-0.258969 -3.41563 -3.41563
-0.260273 -3.44935 -3.44935
-0.318784 -3.48292 -3.48292
-0.321813 -3.55098 -3.55098
-0.206584 -3.55168 -3.55168
-0.204401 -3.48359 -3.48359
-0.320299 -3.51689 -3.51689
-0.264184 -3.55128 -3.55128
-0.205492 -3.51757 -3.51757
-0.261578 -3.4832 -3.4832
-0.262881 -3.51718 -3.51718
-0.321813 -3.55098 -3.55098
-0.324835 -3.61954 -3.61954
-0.208768 -3.62027 -3.62027
-0.206584 -3.55168 -3.55168
-0.323325 -3.5852 -3.5852
-0.266786 -3.61986 -3.61986
-0.207676 -3.58591 -3.58591
-0.264184 -3.55128 -3.55128
-0.265485 -3.5855 -3.5855
-0.324835 -3.61954 -3.61954
-0.327849 -3.6886 -3.6886
-0.210953 -3.68936 -3.68936
-0.208768 -3.62027 -3.62027
-0.326343 -3.65401 -3.65401
-0.269386 -3.68893 -3.68893
-0.20986 -3.65475 -3.65475
-0.266786 -3.61986 -3.61986
-0.268087 -3.65433 -3.65433
-0.327849 -3.6886 -3.6886
-0.330857 -3.75814 -3.75814
-0.21314 -3.75893 -3.75893
-0.210953 -3.68936 -3.68936
-0.329354 -3.72331 -3.72331
-0.271983 -3.75849 -3.75849
-0.212046 -3.72408 -3.72408
-0.269386 -3.68893 -3.68893
-0.270685 -3.72365 -3.72365
-0.330857 -3.75814 -3.75814
-0.333857 -3.82817 -3.82817
-0.215327 -3.82899 -3.82899
-0.21314 -3.75893 -3.75893
-0.332358 -3.7931 -3.7931
-0.274577 -3.82853 -3.82853
-0.214233 -3.7939 -3.7939
-0.271983 -3.75849 -3.75849
-0.273281 -3.79345 -3.79345
-0.333857 -3.82817 -3.82817
-0.336851 -3.89868 -3.89868
-0.217515 -3.89953 -3.89953
-0.215327 -3.82899 -3.82899
-0.335355 -3.86336 -3.86336
-0.277168 -3.89905 -3.89905
-0.216421 -3.8642 -3.8642
-0.274577 -3.82853 -3.82853
-0.275873 -3.86373 -3.86373
-0.336851 -3.89868 -3.89868
-0.339837 -3.96966 -3.96966
-0.219705 -3.97054 -3.97054
-0.217515 -3.89953 -3.89953
-0.338345 -3.93411 -3.93411
-0.279756 -3.97005 -3.97005
-0.21861 -3.93498 -3.93498
-0.277168 -3.89905 -3.89905
-0.278462 -3.93449 -3.93449
-0.339837 -3.96966 -3.96966
-0.342815 -4.04111 -4.04111
-0.221895 -4.04202 -4.04202
-0.219705 -3.97054 -3.97054
-0.341327 -4.00533 -4.00533
-0.28234 -4.04152 -4.04152
-0.220799 -4.00622 -4.00622
-0.279756 -3.97005 -3.97005
-0.281048 -4.00573 -4.00573
-0.342815 -4.04111 -4.04111
-0.345787 -4.11303 -4.11303
-0.224086 -4.11397 -4.11397
-0.221895 -4.04202 -4.04202
-0.344302 -4.07701 -4.07701
-0.284921 -4.11345 -4.11345
-0.22299 -4.07794 -4.07794
-0.28234 -4.04152 -4.04152
-0.283631 -4.07743 -4.07743
-0.345787 -4.11303 -4.11303
-0.348751 -4.1854 -4.1854
-0.226277 -4.18638 -4.18638
-0.224086 -4.11397 -4.11397
-0.34727 -4.14916 -4.14916
-0.287499 -4.18584 -4.18584
-0.225181 -4.15012 -4.15012
-0.284921 -4.11345 -4.11345
-0.286211 -4.14959 -4.14959
-0.348751 -4.1854 -4.1854
-0.351707 -4.25823 -4.25823
-0.22847 -4.25924 -4.25924
-0.226277 -4.18638 -4.18638
-0.35023 -4.22176 -4.22176
-0.290074 -4.25869 -4.25869
-0.227374 -4.22275 -4.22275
-0.287499 -4.18584 -4.18584
-0.288787 -4.22221 -4.22221
-0.351707 -4.25823 -4.25823
-0.354656 -4.33152 -4.33152
-0.230663 -4.33255 -4.33255
-0.22847 -4.25924 -4.25924
-0.353182 -4.29482 -4.29482
-0.292645 -4.33199 -4.33199
-0.229567 -4.29584 -4.29584
-0.290074 -4.25869 -4.25869
-0.29136 -4.29528 -4.29528
-0.354656 -4.33152 -4.33152
-0.357597 -4.40524 -4.40524
-0.232857 -4.40631 -4.40631
-0.230663 -4.33255 -4.33255
-0.356128 -4.36832 -4.36832
-0.295212 -4.40573 -4.40573
-0.23176 -4.36937 -4.36937
-0.292645 -4.33199 -4.33199
-0.293929 -4.3688 -4.3688
-0.357597 -4.40524 -4.40524
-0.360531 -4.47941 -4.47941
-0.235051 -4.4805 -4.4805
-0.232857 -4.40631 -4.40631
-0.359065 -4.44227 -4.44227
-0.297777 -4.47991 -4.47991
-0.233954 -4.44335 -4.44335
-0.295212 -4.40573 -4.40573
-0.296495 -4.44276 -4.44276
-0.360531 -4.47941 -4.47941
-0.363457 -4.55401 -4.55401
-0.237246 -4.55514 -4.55514
-0.235051 -4.4805 -4.4805
-0.361995 -4.51666 -4.51666
-0.300337 -4.55453 -4.55453
-0.236149 -4.51777 -4.51777
-0.297777 -4.47991 -4.47991
-0.299057 -4.51717 -4.51717
-0.363457 -4.55401 -4.55401
-0.366376 -4.62905 -4.62905
-0.239441 -4.6302 -4.6302
-0.237246 -4.55514 -4.55514
-0.364917 -4.59148 -4.59148
-0.302894 -4.62958 -4.62958
-0.238344 -4.59262 -4.59262
-0.300337 -4.55453 -4.55453
-0.301616 -4.592 -4.592
-0.366376 -4.62905 -4.62905
-0.369286 -4.70451 -4.70451
-0.241637 -4.70569 -4.70569
-0.239441 -4.6302 -4.6302
-0.367832 -4.66673 -4.66673
-0.305447 -4.70506 -4.70506
-0.240539 -4.66789 -4.66789
-0.302894 -4.62958 -4.62958
-0.304171 -4.66726 -4.66726
-0.369286 -4.70451 -4.70451
-0.372189 -4.78039 -4.78039
-0.243833 -4.7816 -4.7816
-0.241637 -4.70569 -4.70569
-0.370738 -4.7424 -4.7424
-0.307996 -4.78095 -4.78095
-0.242735 -4.7436 -4.7436
-0.305447 -4.70506 -4.70506
-0.306722 -4.74295 -4.74295
-0.372189 -4.78039 -4.78039
-0.375083 -4.85669 -4.85669
-0.246029 -4.85793 -4.85793
-0.243833 -4.7816 -4.7816
-0.373637 -4.81849 -4.81849
-0.310541 -4.85727 -4.85727
-0.244931 -4.81972 -4.81972
-0.307996 -4.78095 -4.78095
-0.309269 -4.81906 -4.81906
-0.375083 -4.85669 -4.85669
-0.37797 -4.9334 -4.9334
-0.248225 -4.93467 -4.93467
-0.246029 -4.85793 -4.85793
-0.376527 -4.89499 -4.89499
-0.313083 -4.93399 -4.93399
-0.247127 -4.89625 -4.89625
-0.310541 -4.85727 -4.85727
-0.311813 -4.89558 -4.89558
-0.37797 -4.9334 -4.9334
-0.380848 -5.01052 -5.01052
-0.250421 -5.01182 -5.01182
-0.248225 -4.93467 -4.93467
-0.37941 -4.97191 -4.97191
-0.31562 -5.01112 -5.01112
-0.249323 -4.97319 -4.97319
-0.313083 -4.93399 -4.93399
-0.314352 -4.97251 -4.97251
-0.380848 -5.01052 -5.01052
-0.383718 -5.08804 -5.08804
-0.252618 -5.08936 -5.08936
-0.250421 -5.01182 -5.01182
-0.382284 -5.04923 -5.04923
-0.318153 -5.08866 -5.08866
-0.25152 -5.05054 -5.05054
-0.31562 -5.01112 -5.01112
-0.316887 -5.04984 -5.04984
-0.383718 -5.08804 -5.08804
-0.38658 -5.16595 -5.16595
-0.254814 -5.16731 -5.16731
-0.252618 -5.08936 -5.08936
-0.38515 -5.12695 -5.12695
-0.320682 -5.16659 -5.16659
-0.253716 -5.12829 -5.12829
-0.318153 -5.08866 -5.08866
-0.319418 -5.12757 -5.12757
-0.38658 -5.16595 -5.16595
-0.389434 -5.24426 -5.24426
-0.25701 -5.24565 -5.24565
-0.254814 -5.16731 -5.16731
-0.388008 -5.20506 -5.20506
-0.323207 -5.24491 -5.24491
-0.255912 -5.20643 -5.20643
-0.320682 -5.16659 -5.16659
-0.321945 -5.2057 -5.2057
-0.389434 -5.24426 -5.24426
-0.392279 -5.32296 -5.32296
-0.259205 -5.32437 -5.32437
-0.25701 -5.24565 -5.24565
-0.390857 -5.28356 -5.28356
-0.325727 -5.32362 -5.32362
-0.258107 -5.28496 -5.28496
-0.323207 -5.24491 -5.24491
-0.324468 -5.28422 -5.28422
-0.392279 -5.32296 -5.32296
-0.395115 -5.40204 -5.40204
-0.2614 -5.40348 -5.40348
-0.259205 -5.32437 -5.32437
-0.393698 -5.36245 -5.36245
-0.328243 -5.40272 -5.40272
-0.260303 -5.36388 -5.36388
-0.325727 -5.32362 -5.32362
-0.326986 -5.36312 -5.36312
-0.395115 -5.40204 -5.40204
-0.397943 -5.48149 -5.48149
-0.263595 -5.48296 -5.48296
-0.2614 -5.40348 -5.40348
-0.39653 -5.44172 -5.44172
-0.330754 -5.48219 -5.48219
-0.262498 -5.44317 -5.44317
-0.328243 -5.40272 -5.40272
-0.329499 -5.44241 -5.44241
-0.397943 -5.48149 -5.48149
-0.400762 -5.56132 -5.56132
-0.265789 -5.56282 -5.56282
-0.263595 -5.48296 -5.48296
-0.399353 -5.52136 -5.52136
-0.333261 -5.56203 -5.56203
-0.264692 -5.52284 -5.52284
-0.330754 -5.48219 -5.48219
-0.332008 -5.52206 -5.52206
-0.400762 -5.56132 -5.56132
-0.403572 -5.64152 -5.64152
-0.267982 -5.64305 -5.64305
-0.265789 -5.56282 -5.56282
-0.402168 -5.60138 -5.60138
-0.335762 -5.64224 -5.64224
-0.266886 -5.60289 -5.60289
-0.333261 -5.56203 -5.56203
-0.334512 -5.60209 -5.60209
-0.403572 -5.64152 -5.64152
-0.406373 -5.72208 -5.72208
-0.270175 -5.72363 -5.72363
-0.267982 -5.64305 -5.64305
-0.404974 -5.68176 -5.68176
-0.338259 -5.72282 -5.72282
-0.269079 -5.68329 -5.68329
-0.335762 -5.64224 -5.64224
-0.337012 -5.68249 -5.68249
-0.406373 -5.72208 -5.72208
-0.409165 -5.803 -5.803
-0.272367 -5.80458 -5.80458
-0.270175 -5.72363 -5.72363
-0.40777 -5.7625 -5.7625
-0.340751 -5.80375 -5.80375
-0.271271 -5.76406 -5.76406
-0.338259 -5.72282 -5.72282
-0.339506 -5.76324 -5.76324
-0.409165 -5.803 -5.803
-0.411948 -5.88427 -5.88427
-0.274557 -5.88588 -5.88588
-0.272367 -5.80458 -5.80458
-0.410558 -5.84359 -5.84359
-0.343238 -5.88504 -5.88504
-0.273462 -5.84519 -5.84519
-0.340751 -5.80375 -5.80375
-0.341995 -5.84435 -5.84435
-0.411948 -5.88427 -5.88427
-0.414722 -5.9659 -5.9659
-0.276747 -5.96753 -5.96753
-0.274557 -5.88588 -5.88588
-0.413336 -5.92504 -5.92504
-0.34572 -5.96668 -5.96668
-0.275652 -5.92666 -5.92666
-0.343238 -5.88504 -5.88504
-0.34448 -5.92582 -5.92582
-0.414722 -5.9659 -5.9659
-0.417486 -6.04786 -6.04786
-0.278936 -6.04952 -6.04952
-0.276747 -5.96753 -5.96753
-0.416105 -6.00684 -6.00684
-0.348196 -6.04866 -6.04866
-0.277842 -6.00848 -6.00848
-0.34572 -5.96668 -5.96668
-0.346959 -6.00762 -6.00762
-0.417486 -6.04786 -6.04786
-0.420241 -6.13017 -6.13017
-0.281123 -6.13186 -6.13186
-0.278936 -6.04952 -6.04952
-0.418865 -6.08897 -6.08897
-0.350667 -6.13098 -6.13098
-0.280029 -6.09065 -6.09065
-0.348196 -6.04866 -6.04866
-0.349432 -6.08977 -6.08977
-0.420241 -6.13017 -6.13017
-0.422986 -6.21281 -6.21281
-0.283308 -6.21452 -6.21452
-0.281123 -6.13186 -6.13186
-0.421615 -6.17145 -6.17145
-0.353133 -6.21363 -6.21363
-0.282216 -6.17315 -6.17315
-0.350667 -6.13098 -6.13098
-0.351901 -6.17226 -6.17226
-0.422986 -6.21281 -6.21281
-0.425721 -6.29578 -6.29578
-0.285493 -6.29752 -6.29752
-0.283308 -6.21452 -6.21452
-0.424355 -6.25425 -6.25425
-0.355593 -6.29661 -6.29661
-0.284401 -6.25598 -6.25598
-0.353133 -6.21363 -6.21363
-0.354363 -6.25508 -6.25508
-0.425721 -6.29578 -6.29578
-0.428447 -6.37907 -6.37907
-0.287675 -6.38084 -6.38084
-0.285493 -6.29752 -6.29752
-0.427086 -6.33738 -6.33738
-0.358047 -6.37992 -6.37992
-0.286584 -6.33914 -6.33914
-0.355593 -6.29661 -6.29661
-0.35682 -6.33823 -6.33823
-0.428447 -6.37907 -6.37907
-0.431163 -6.46268 -6.46268
-0.289856 -6.46448 -6.46448
-0.287675 -6.38084 -6.38084
-0.429806 -6.42084 -6.42084
-0.360495 -6.46355 -6.46355
-0.288766 -6.42262 -6.42262
-0.358047 -6.37992 -6.37992
-0.359271 -6.42169 -6.42169
-0.431163 -6.46268 -6.46268
-0.433868 -6.54661 -6.54661
-0.292035 -6.54843 -6.54843
-0.289856 -6.46448 -6.46448
-0.432517 -6.50461 -6.50461
-0.362937 -6.54749 -6.54749
-0.290946 -6.50641 -6.50641
-0.360495 -6.46355 -6.46355
-0.361717 -6.50548 -6.50548
-0.433868 -6.54661 -6.54661
-0.436564 -6.63085 -6.63085
-0.294212 -6.6327 -6.6327
-0.292035 -6.54843 -6.54843
-0.435217 -6.58869 -6.58869
-0.365373 -6.63174 -6.63174
-0.293123 -6.59052 -6.59052
-0.362937 -6.54749 -6.54749
-0.364156 -6.58958 -6.58958
-0.436564 -6.63085 -6.63085
-0.439249 -6.7154 -6.7154
-0.296386 -6.71726 -6.71726
-0.294212 -6.6327 -6.6327
-0.437908 -6.67309 -6.67309
-0.367803 -6.7163 -6.7163
-0.295299 -6.67494 -6.67494
-0.365373 -6.63174 -6.63174
-0.366589 -6.67398 -6.67398
-0.439249 -6.7154 -6.7154
-0.441924 -6.80024 -6.80024
-0.298559 -6.80213 -6.80213
-0.296386 -6.71726 -6.71726
-0.440588 -6.75778 -6.75778
-0.370227 -6.80116 -6.80116
-0.297473 -6.75966 -6.75966
-0.367803 -6.7163 -6.7163
-0.369016 -6.75869 -6.75869
-0.441924 -6.80024 -6.80024
-0.444588 -6.88538 -6.88538
-0.300729 -6.8873 -6.8873
-0.298559 -6.80213 -6.80213
-0.443257 -6.84277 -6.84277
-0.372644 -6.88631 -6.88631
-0.299644 -6.84468 -6.84468
-0.370227 -6.80116 -6.80116
-0.371436 -6.8437 -6.8437
-0.444588 -6.88538 -6.88538
-0.447241 -6.97081 -6.97081
-0.302896 -6.97276 -6.97276
-0.300729 -6.8873 -6.8873
-0.445916 -6.92806 -6.92806
-0.375054 -6.97175 -6.97175
-0.301813 -6.92999 -6.92999
-0.372644 -6.88631 -6.88631
-0.37385 -6.929 -6.929
-0.447241 -6.97081 -6.97081
-0.449884 -7.05653 -7.05653
-0.305061 -7.0585 -7.0585
-0.302896 -6.97276 -6.97276
-0.448564 -7.01364 -7.01364
-0.377458 -7.05748 -7.05748
-0.303979 -7.01559 -7.01559
-0.375054 -6.97175 -6.97175
-0.376257 -7.01458 -7.01458
-0.449884 -7.05653 -7.05653
-0.452516 -7.14253 -7.14253
-0.307224 -7.14452 -7.14452
-0.305061 -7.0585 -7.0585
-0.451201 -7.09949 -7.09949
-0.379855 -7.14349 -7.14349
-0.306143 -7.10147 -7.10147
-0.377458 -7.05748 -7.05748
-0.378658 -7.10045 -7.10045
-0.452516 -7.14253 -7.14253
-0.455136 -7.2288 -7.2288
-0.309383 -7.23082 -7.23082
-0.307224 -7.14452 -7.14452
-0.453827 -7.18563 -7.18563
-0.382245 -7.22978 -7.22978
-0.308304 -7.18764 -7.18764
-0.379855 -7.14349 -7.14349
-0.381051 -7.1866 -7.1866
-0.455136 -7.2288 -7.2288
-0.457746 -7.31535 -7.31535
-0.311539 -7.31739 -7.31739
-0.309383 -7.23082 -7.23082
-0.456442 -7.27204 -7.27204
-0.384628 -7.31634 -7.31634
-0.310461 -7.27407 -7.27407
-0.382245 -7.22978 -7.22978
-0.383437 -7.27303 -7.27303
-0.457746 -7.31535 -7.31535
-0.460344 -7.40216 -7.40216
-0.313692 -7.40423 -7.40423
-0.311539 -7.31739 -7.31739
-0.459046 -7.35872 -7.35872
-0.387003 -7.40317 -7.40317
-0.312616 -7.36077 -7.36077
-0.384628 -7.31634 -7.31634
-0.385817 -7.35972 -7.35972
-0.460344 -7.40216 -7.40216
-0.46293 -7.48924 -7.48924
-0.315842 -7.49132 -7.49132
-0.313692 -7.40423 -7.40423
-0.461638 -7.44567 -7.44567
-0.389372 -7.49025 -7.49025
-0.314767 -7.44774 -7.44774
-0.387003 -7.40317 -7.40317
-0.388188 -7.44668 -7.44668
-0.46293 -7.48924 -7.48924
-0.465505 -7.57657 -7.57657
-0.317988 -7.57868 -7.57868
-0.315842 -7.49132 -7.49132
-0.464219 -7.53287 -7.53287
-0.391732 -7.5776 -7.5776
-0.316915 -7.53497 -7.53497
-0.389372 -7.49025 -7.49025
-0.390553 -7.53389 -7.53389
-0.465505 -7.57657 -7.57657
-0.468068 -7.66415 -7.66415
-0.320131 -7.66629 -7.66629
-0.317988 -7.57868 -7.57868
-0.466788 -7.62033 -7.62033
-0.394085 -7.66519 -7.66519
-0.31906 -7.62245 -7.62245
-0.391732 -7.5776 -7.5776
-0.39291 -7.62136 -7.62136
-0.468068 -7.66415 -7.66415
-0.47062 -7.75198 -7.75198
-0.322269 -7.75414 -7.75414
-0.320131 -7.66629 -7.66629
-0.469345 -7.70804 -7.70804
-0.39643 -7.75304 -7.75304
-0.3212 -7.71018 -7.71018
-0.394085 -7.66519 -7.66519
-0.395259 -7.70908 -7.70908
-0.47062 -7.75198 -7.75198
-0.473159 -7.84006 -7.84006
-0.324404 -7.84224 -7.84224
-0.322269 -7.75414 -7.75414
-0.471891 -7.79599 -7.79599
-0.398767 -7.84112 -7.84112
-0.323337 -7.79816 -7.79816
-0.39643 -7.75304 -7.75304
-0.3976 -7.79705 -7.79705
-0.473159 -7.84006 -7.84006
-0.475686 -7.92837 -7.92837
-0.326535 -7.93057 -7.93057
-0.324404 -7.84224 -7.84224
-0.474424 -7.88418 -7.88418
-0.401096 -7.92945 -7.92945
-0.32547 -7.88637 -7.88637
-0.398767 -7.84112 -7.84112
-0.399933 -7.88525 -7.88525
-0.475686 -7.92837 -7.92837
-0.4782 -8.01691 -8.01691
-0.328662 -8.01914 -8.01914
-0.326535 -7.93057 -7.93057
-0.476945 -7.97261 -7.97261
-0.403417 -8.018 -8.018
-0.327599 -7.97482 -7.97482
-0.401096 -7.92945 -7.92945
-0.402258 -7.97369 -7.97369
-0.4782 -8.01691 -8.01691
-0.480702 -8.10569 -8.10569
-0.330785 -8.10793 -8.10793
-0.328662 -8.01914 -8.01914
-0.479453 -8.06127 -8.06127
-0.405729 -8.10679 -8.10679
-0.329724 -8.0635 -8.0635
-0.403417 -8.018 -8.018
-0.404574 -8.06237 -8.06237
-0.480702 -8.10569 -8.10569
-0.483192 -8.19468 -8.19468
-0.332903 -8.19695 -8.19695
-0.330785 -8.10793 -8.10793
-0.481949 -8.15016 -8.15016
-0.408033 -8.19579 -8.19579
-0.331844 -8.15241 -8.15241
-0.405729 -8.10679 -8.10679
-0.406882 -8.15126 -8.15126
-0.483192 -8.19468 -8.19468
-0.485669 -8.2839 -8.2839
-0.335016 -8.28618 -8.28618
-0.332903 -8.19695 -8.19695
-0.484432 -8.23926 -8.23926
-0.410328 -8.28502 -8.28502
-0.33396 -8.24154 -8.24154
-0.408033 -8.19579 -8.19579
-0.409182 -8.24038 -8.24038
-0.485669 -8.2839 -8.2839
-0.488132 -8.37332 -8.37332
-0.337125 -8.37563 -8.37563
-0.335016 -8.28618 -8.28618
-0.486902 -8.32858 -8.32858
-0.412614 -8.37446 -8.37446
-0.336071 -8.33088 -8.33088
-0.410328 -8.28502 -8.28502
-0.411472 -8.32971 -8.32971
-0.488132 -8.37332 -8.37332
-0.490583 -8.46296 -8.46296
-0.339229 -8.46529 -8.46529
-0.337125 -8.37563 -8.37563
-0.489359 -8.41812 -8.41812
-0.414892 -8.4641 -8.4641
-0.338177 -8.42043 -8.42043
-0.412614 -8.37446 -8.37446
-0.413754 -8.41925 -8.41925
-0.490583 -8.46296 -8.46296
-0.49302 -8.5528 -8.5528
-0.341327 -8.55515 -8.55515
-0.339229 -8.46529 -8.46529
-0.491803 -8.50786 -8.50786
-0.41716 -8.55395 -8.55395
-0.340278 -8.51019 -8.51019
-0.414892 -8.4641 -8.4641
-0.416027 -8.509 -8.509
-0.49302 -8.5528 -8.5528
-0.495444 -8.64284 -8.64284
-0.343421 -8.64521 -8.64521
-0.341327 -8.55515 -8.55515
-0.494234 -8.5978 -8.5978
-0.419418 -8.644 -8.644
-0.342375 -8.60015 -8.60015
-0.41716 -8.55395 -8.55395
-0.41829 -8.59895 -8.59895
-0.495444 -8.64284 -8.64284
-0.497855 -8.73307 -8.73307
-0.345509 -8.73546 -8.73546
-0.343421 -8.64521 -8.64521
-0.496651 -8.68793 -8.68793
-0.421668 -8.73425 -8.73425
-0.344465 -8.69031 -8.69031
-0.419418 -8.644 -8.644
-0.420544 -8.6891 -8.6891
-0.497855 -8.73307 -8.73307
-0.500251 -8.8235 -8.8235
-0.347591 -8.8259 -8.8259
-0.345509 -8.73546 -8.73546
-0.499055 -8.77826 -8.77826
-0.423907 -8.82468 -8.82468
-0.34655 -8.78066 -8.78066
-0.421668 -8.73425 -8.73425
-0.422789 -8.77944 -8.77944
-0.500251 -8.8235 -8.8235
-0.502634 -8.9141 -8.9141
-0.349668 -8.91653 -8.91653
-0.347591 -8.8259 -8.8259
-0.501445 -8.86878 -8.86878
-0.426137 -8.9153 -8.9153
-0.34863 -8.87119 -8.87119
-0.423907 -8.82468 -8.82468
-0.425023 -8.86997 -8.86997
-0.502634 -8.9141 -8.9141
-0.505003 -9.00489 -9.00489
-0.351739 -9.00733 -9.00733
-0.349668 -8.91653 -8.91653
-0.50382 -8.95947 -8.95947
-0.428357 -9.00609 -9.00609
-0.350704 -8.96191 -8.96191
-0.426137 -8.9153 -8.9153
-0.427248 -8.96067 -8.96067
-0.505003 -9.00489 -9.00489
-0.507358 -9.09585 -9.09585
-0.353804 -9.09831 -9.09831
-0.351739 -9.00733 -9.00733
-0.506182 -9.05035 -9.05035
-0.430567 -9.09707 -9.09707
-0.352772 -9.0528 -9.0528
-0.428357 -9.00609 -9.00609
-0.429463 -9.05156 -9.05156
-0.507358 -9.09585 -9.09585
-0.509698 -9.18698 -9.18698
-0.355862 -9.18947 -9.18947
-0.353804 -9.09831 -9.09831
-0.50853 -9.1414 -9.1414
-0.432766 -9.18821 -9.18821
-0.354834 -9.14387 -9.14387
-0.430567 -9.09707 -9.09707
-0.431668 -9.14262 -9.14262
-0.509698 -9.18698 -9.18698
-0.512024 -9.27828 -9.27828
-0.357915 -9.28078 -9.28078
-0.355862 -9.18947 -9.18947
-0.510863 -9.23261 -9.23261
-0.434955 -9.27951 -9.27951
-0.356889 -9.2351 -9.2351
-0.432766 -9.18821 -9.18821
-0.433862 -9.23384 -9.23384
-0.512024 -9.27828 -9.27828
-0.514335 -9.36974 -9.36974
-0.35996 -9.37226 -9.37226
-0.357915 -9.28078 -9.28078
-0.513181 -9.32399 -9.32399
-0.437133 -9.37098 -9.37098
-0.358938 -9.3265 -9.3265
-0.434955 -9.27951 -9.27951
-0.436046 -9.32523 -9.32523
-0.514335 -9.36974 -9.36974
-0.516631 -9.46135 -9.46135
-0.361999 -9.46389 -9.46389
-0.35996 -9.37226 -9.37226
-0.515485 -9.41553 -9.41553
-0.439301 -9.4626 -9.4626
-0.360981 -9.41805 -9.41805
-0.437133 -9.37098 -9.37098
-0.438219 -9.41677 -9.41677
-0.516631 -9.46135 -9.46135
-0.518912 -9.55311 -9.55311
-0.364032 -9.55567 -9.55567
-0.361999 -9.46389 -9.46389
-0.517773 -9.50721 -9.50721
-0.441458 -9.55438 -9.55438
-0.363016 -9.50976 -9.50976
-0.439301 -9.4626 -9.4626
-0.440381 -9.50847 -9.50847
-0.518912 -9.55311 -9.55311
-0.521178 -9.64502 -9.64502
-0.366057 -9.64759 -9.64759
-0.364032 -9.55567 -9.55567
-0.520047 -9.59905 -9.59905
-0.443604 -9.64629 -9.64629
-0.365045 -9.60161 -9.60161
-0.441458 -9.55438 -9.55438
-0.442532 -9.60032 -9.60032
-0.521178 -9.64502 -9.64502
-0.523429 -9.73707 -9.73707
-0.368075 -9.73966 -9.73966
-0.366057 -9.64759 -9.64759
-0.522305 -9.69103 -9.69103
-0.445738 -9.73835 -9.73835
-0.367067 -9.69361 -9.69361
-0.443604 -9.64629 -9.64629
-0.444672 -9.69231 -9.69231
-0.523429 -9.73707 -9.73707
-0.525664 -9.82926 -9.82926
-0.370086 -9.83186 -9.83186
-0.368075 -9.73966 -9.73966
-0.524548 -9.78315 -9.78315
-0.447861 -9.83055 -9.83055
-0.369081 -9.78574 -9.78574
-0.445738 -9.73835 -9.73835
-0.446801 -9.78443 -9.78443
-0.525664 -9.82926 -9.82926
-0.527883 -9.92158 -9.92158
-0.372089 -9.9242 -9.9242
-0.370086 -9.83186 -9.83186
-0.526775 -9.8754 -9.8754
-0.449972 -9.92287 -9.92287
-0.371088 -9.87801 -9.87801
-0.447861 -9.83055 -9.83055
-0.448918 -9.87669 -9.87669
-0.527883 -9.92158 -9.92158
-0.530087 -10.014 -10.014
-0.374085 -10.0167 -10.0167
-0.372089 -9.9242 -9.9242
-0.528987 -9.96778 -9.96778
-0.452072 -10.0153 -10.0153
-0.373088 -9.97041 -9.97041
-0.449972 -9.92287 -9.92287
-0.451023 -9.96909 -9.96909
-0.530087 -10.014 -10.014
-0.532274 -10.1066 -10.1066
-0.376072 -10.1092 -10.1092
-0.374085 -10.0167 -10.0167
-0.531182 -10.0603 -10.0603
-0.454159 -10.1079 -10.1079
-0.37508 -10.0629 -10.0629
-0.452072 -10.0153 -10.0153
-0.453117 -10.0616 -10.0616
-0.532274 -10.1066 -10.1066
-0.534446 -10.1993 -10.1993
-0.378052 -10.2019 -10.2019
-0.376072 -10.1092 -10.1092
-0.533362 -10.1529 -10.1529
-0.456235 -10.2006 -10.2006
-0.377063 -10.1556 -10.1556
-0.454159 -10.1079 -10.1079
-0.455199 -10.1542 -10.1542
-0.534446 -10.1993 -10.1993
-0.536601 -10.2921 -10.2921
-0.380024 -10.2947 -10.2947
-0.378052 -10.2019 -10.2019
-0.535525 -10.2457 -10.2457
-0.458298 -10.2934 -10.2934
-0.379039 -10.2483 -10.2483
-0.456235 -10.2006 -10.2006
-0.457268 -10.247 -10.247
-0.536601 -10.2921 -10.2921
-0.538739 -10.385 -10.385
-0.381987 -10.3877 -10.3877
-0.380024 -10.2947 -10.2947
-0.537672 -10.3385 -10.3385
-0.460349 -10.3863 -10.3863
-0.381006 -10.3412 -10.3412
-0.458298 -10.2934 -10.2934
-0.459325 -10.3398 -10.3398
-0.538739 -10.385 -10.385
-0.540861 -10.478 -10.478
-0.383941 -10.4807 -10.4807
-0.381987 -10.3877 -10.3877
-0.539802 -10.4315 -10.4315
-0.462387 -10.4793 -10.4793
-0.382965 -10.4342 -10.4342
-0.460349 -10.3863 -10.3863
-0.46137 -10.4328 -10.4328
-0.540861 -10.478 -10.478
-0.542966 -10.5711 -10.5711
-0.385887 -10.5738 -10.5738
-0.383941 -10.4807 -10.4807
-0.541915 -10.5245 -10.5245
-0.464413 -10.5724 -10.5724
-0.384915 -10.5272 -10.5272
-0.462387 -10.4793 -10.4793
-0.463402 -10.5259 -10.5259
-0.542966 -10.5711 -10.5711
-0.545054 -10.6643 -10.6643
-0.387824 -10.667 -10.667
-0.385887 -10.5738 -10.5738
-0.544012 -10.6177 -10.6177
-0.466425 -10.6656 -10.6656
-0.386857 -10.6204 -10.6204
-0.464413 -10.5724 -10.5724
-0.465421 -10.619 -10.619
-0.545054 -10.6643 -10.6643
-0.547124 -10.7576 -10.7576
-0.389752 -10.7603 -10.7603
-0.387824 -10.667 -10.667
-0.546091 -10.7109 -10.7109
-0.468424 -10.7589 -10.7589
-0.388789 -10.7136 -10.7136
-0.466425 -10.6656 -10.6656
-0.467426 -10.7123 -10.7123
-0.547124 -10.7576 -10.7576
-0.549177 -10.8509 -10.8509
-0.391671 -10.8537 -10.8537
-0.389752 -10.7603 -10.7603
-0.548153 -10.8042 -10.8042
-0.47041 -10.8523 -10.8523
-0.390713 -10.807 -10.807
-0.468424 -10.7589 -10.7589
-0.469419 -10.8056 -10.8056
-0.549177 -10.8509 -10.8509
-0.551213 -10.9444 -10.9444
-0.39358 -10.9471 -10.9471
-0.391671 -10.8537 -10.8537
-0.550197 -10.8976 -10.8976
-0.472383 -10.9457 -10.9457
-0.392627 -10.9004 -10.9004
-0.47041 -10.8523 -10.8523
-0.471398 -10.899 -10.899
-0.551213 -10.9444 -10.9444
-0.553231 -11.0379 -11.0379
-0.39548 -11.0407 -11.0407
-0.39358 -10.9471 -10.9471
-0.552224 -10.9911 -10.9911
-0.474342 -11.0393 -11.0393
-0.394531 -10.9939 -10.9939
-0.472383 -10.9457 -10.9457
-0.473364 -10.9925 -10.9925
-0.553231 -11.0379 -11.0379
-0.555231 -11.1315 -11.1315
-0.39737 -11.1343 -11.1343
-0.39548 -11.0407 -11.0407
-0.554233 -11.0847 -11.0847
-0.476287 -11.1329 -11.1329
-0.396426 -11.0875 -11.0875
-0.474342 -11.0393 -11.0393
-0.475316 -11.0861 -11.0861
-0.555231 -11.1315 -11.1315
-0.557213 -11.2251 -11.2251
-0.39925 -11.2279 -11.2279
-0.39737 -11.1343 -11.1343
-0.556224 -11.1783 -11.1783
-0.478218 -11.2265 -11.2265
-0.398311 -11.1811 -11.1811
-0.476287 -11.1329 -11.1329
-0.477254 -11.1797 -11.1797
-0.557213 -11.2251 -11.2251
-0.559176 -11.3188 -11.3188
-0.40112 -11.3216 -11.3216
-0.39925 -11.2279 -11.2279
-0.558197 -11.272 -11.272
-0.480134 -11.3202 -11.3202
-0.400186 -11.2748 -11.2748
-0.478218 -11.2265 -11.2265
-0.479178 -11.2734 -11.2734
-0.559176 -11.3188 -11.3188
-0.561121 -11.4126 -11.4126
-0.402979 -11.4154 -11.4154
-0.40112 -11.3216 -11.3216
-0.560151 -11.3657 -11.3657
-0.482037 -11.414 -11.414
-0.402051 -11.3685 -11.3685
-0.480134 -11.3202 -11.3202
-0.481087 -11.3671 -11.3671
-0.561121 -11.4126 -11.4126
-0.563048 -11.5064 -11.5064
-0.404828 -11.5092 -11.5092
-0.402979 -11.4154 -11.4154
-0.562087 -11.4595 -11.4595
-0.483924 -11.5078 -11.5078
-0.403905 -11.4623 -11.4623
-0.482037 -11.414 -11.414
-0.482982 -11.4609 -11.4609
-0.563048 -11.5064 -11.5064
-0.564955 -11.6002 -11.6002
-0.406665 -11.6031 -11.6031
-0.404828 -11.5092 -11.5092
-0.564004 -11.5533 -11.5533
-0.485796 -11.6017 -11.6017
-0.405748 -11.5562 -11.5562
-0.483924 -11.5078 -11.5078
-0.484862 -11.5547 -11.5547
-0.564955 -11.6002 -11.6002
-0.566844 -11.6941 -11.6941
-0.408491 -11.697 -11.697
-0.406665 -11.6031 -11.6031
-0.565902 -11.6472 -11.6472
-0.487653 -11.6956 -11.6956
-0.407579 -11.6501 -11.6501
-0.485796 -11.6017 -11.6017
-0.486727 -11.6486 -11.6486
-0.566844 -11.6941 -11.6941
-0.568712 -11.7881 -11.7881
-0.410303 -11.791 -11.791
-0.408491 -11.697 -11.697
-0.56778 -11.7411 -11.7411
-0.489493 -11.7895 -11.7895
-0.409398 -11.744 -11.744
-0.487653 -11.6956 -11.6956
-0.488575 -11.7425 -11.7425
-0.568712 -11.7881 -11.7881
-0.570561 -11.882 -11.882
-0.412102 -11.8849 -11.8849
-0.410303 -11.791 -11.791
-0.569639 -11.835 -11.835
-0.491315 -11.8835 -11.8835
-0.411204 -11.8379 -11.8379
-0.489493 -11.7895 -11.7895
-0.490407 -11.8365 -11.8365
-0.570561 -11.882 -11.882
-0.572388 -11.976 -11.976
-0.413885 -11.9789 -11.9789
-0.412102 -11.8849 -11.8849
-0.571477 -11.929 -11.929
-0.493119 -11.9775 -11.9775
-0.412995 -11.9319 -11.9319
-0.491315 -11.8835 -11.8835
-0.49222 -11.9305 -11.9305
-0.572388 -11.976 -11.976
-0.574192 -12.07 -12.07
-0.415653 -12.0729 -12.0729
-0.413885 -11.9789 -11.9789
-0.573293 -12.023 -12.023
-0.4949 -12.0715 -12.0715
-0.414771 -12.0259 -12.0259
-0.493119 -11.9775 -11.9775
-0.494012 -12.0245 -12.0245
-0.574192 -12.07 -12.07
-0.575971 -12.1641 -12.1641
-0.417407 -12.167 -12.167
-0.415653 -12.0729 -12.0729
-0.575085 -12.117 -12.117
-0.496662 -12.1655 -12.1655
-0.416531 -12.12 -12.12
-0.4949 -12.0715 -12.0715
-0.495783 -12.1185 -12.1185
-0.575971 -12.1641 -12.1641
-0.577726 -12.2582 -12.2582
-0.419161 -12.261 -12.261
-0.417407 -12.167 -12.167
-0.57685 -12.2111 -12.2111
-0.498413 -12.2596 -12.2596
-0.418284 -12.214 -12.214
-0.496662 -12.1655 -12.1655
-0.497537 -12.2126 -12.2126
-0.577726 -12.2582 -12.2582
-0.579498 -12.3523 -12.3523
-0.420921 -12.355 -12.355
-0.419161 -12.261 -12.261
-0.578606 -12.3053 -12.3053
-0.500187 -12.3536 -12.3536
-0.420039 -12.308 -12.308
-0.498413 -12.2596 -12.2596
-0.499296 -12.3066 -12.3066
0 0 0
-0.00213648 -0.000216716 -0.000216716
-0.000706824 0.00011469 0.00011469
0 0 0
-0.00103584 6.61423e-05 6.61423e-05
-0.00141638 -9.33764e-06 -9.33764e-06
-0.000351919 0.000229657 0.000229657
0 0 0
-0.000687637 0.0001742 0.0001742
-0.00213648 -0.000216716 -0.000216716
-0.00443608 -0.00165167 -0.00165167
-0.00147146 -0.00107638 -0.00107638
-0.000706824 0.00011469 0.00011469
-0.00327192 -0.000796339 -0.000796339
-0.00294022 -0.00128405 -0.00128405
-0.00108205 -0.000327982 -0.000327982
-0.00141638 -9.33764e-06 -9.33764e-06
-0.00216874 -0.000501006 -0.000501006
-0.00443608 -0.00165167 -0.00165167
-0.00683172 -0.00413551 -0.00413551
-0.0022637 -0.00341276 -0.00341276
-0.00147146 -0.00107638 -0.00107638
-0.00562656 -0.00276932 -0.00276932
-0.00452846 -0.00367809 -0.00367809
-0.0018654 -0.00210918 -0.00210918
-0.00294022 -0.00128405 -0.00128405
-0.00372867 -0.00234842 -0.00234842
-0.00683172 -0.00413551 -0.00413551
-0.00924756 -0.00757526 -0.00757526
-0.00307377 -0.00679004 -0.00679004
-0.0022637 -0.00341276 -0.00341276
-0.00803979 -0.00573849 -0.00573849
-0.00614112 -0.00708111 -0.00708111
-0.0026675 -0.004976 -0.004976
-0.00452846 -0.00367809 -0.00367809
-0.00533372 -0.00525776 -0.00525776
-0.00924756 -0.00757526 -0.00757526
-0.0116561 -0.0119457 -0.0119457
-0.0038837 -0.0111437 -0.0111437
-0.00307377 -0.00679004 -0.00679004
-0.0104538 -0.00964485 -0.00964485
-0.00775321 -0.0114431 -0.0114431
-0.00347922 -0.00884741 -0.00884741
-0.00614112 -0.00708111 -0.00708111
-0.00694817 -0.00914411 -0.00914411
-0.0116561 -0.0119457 -0.0119457
-0.0140436 -0.0172372 -0.0172372
-0.00469031 -0.0164409 -0.0164409
-0.0038837 -0.0111437 -0.0111437
-0.0128526 -0.0144765 -0.0144765
-0.00935344 -0.0167381 -0.0167381
-0.00428761 -0.0136757 -0.0136757
-0.00775321 -0.0114431 -0.0114431
-0.00855506 -0.0139748 -0.0139748
-0.0140436 -0.0172372 -0.0172372
-0.0164115 -0.023448 -0.023448
-0.00549037 -0.0226642 -0.0226642
-0.00469031 -0.0164409 -0.0164409
-0.0152299 -0.0202278 -0.0202278
-0.0109399 -0.0229563 -0.0229563
-0.00509113 -0.0194374 -0.0194374
-0.00935344 -0.0167381 -0.0167381
-0.0101483 -0.0197323 -0.0197323
-0.0164115 -0.023448 -0.023448
-0.0187615 -0.0305748 -0.0305748
-0.00628541 -0.0298052 -0.0298052
-0.00549037 -0.0226642 -0.0226642
-0.0175886 -0.0268971 -0.0268971
-0.0125142 -0.0300912 -0.0300912
-0.00588844 -0.0261204 -0.0261204
-0.0109399 -0.0229563 -0.0229563
-0.0117285 -0.0264095 -0.0264095
-0.0187615 -0.0305748 -0.0305748
-0.021097 -0.0386146 -0.0386146
-0.00707628 -0.0378583 -0.0378583
-0.00628541 -0.0298052 -0.0298052
-0.0199309 -0.0344809 -0.0344809
-0.0140784 -0.0381385 -0.0381385
-0.00668128 -0.033718 -0.033718
-0.0125142 -0.0300912 -0.0300912
-0.0132974 -0.0340011 -0.0340011
-0.021097 -0.0386146 -0.0386146
-0.02342 -0.0475632 -0.0475632
-0.00786446 -0.0468192 -0.0468192
-0.00707628 -0.0378583 -0.0378583
-0.02226 -0.0429756 -0.0429756
-0.0156346 -0.047094 -0.047094
-0.00747064 -0.0422255 -0.0422255
-0.0140784 -0.0381385 -0.0381385
-0.0148574 -0.042503 -0.042503
-0.02342 -0.0475632 -0.0475632
-0.0257324 -0.0574162 -0.0574162
-0.00865084 -0.0566839 -0.0566839
-0.00786446 -0.0468192 -0.0468192
-0.0245775 -0.0523769 -0.0523769
-0.0171842 -0.0569535 -0.0569535
-0.00825782 -0.0516389 -0.0516389
-0.0156346 -0.047094 -0.047094
-0.0164101 -0.051911 -0.051911
-0.0257324 -0.0574162 -0.0574162
-0.0280352 -0.0681689 -0.0681689
-0.00943621 -0.0674481 -0.0674481
-0.00865084 -0.0566839 -0.0566839
-0.0268849 -0.0626804 -0.0626804
-0.0187284 -0.0677125 -0.0677125
-0.00904361 -0.0619538 -0.0619538
-0.0171842 -0.0569535 -0.0569535
-0.017957 -0.0622209 -0.0622209
-0.0280352 -0.0681689 -0.0681689
-0.0303291 -0.0798167 -0.0798167
-0.0102211 -0.0791073 -0.0791073
-0.00943621 -0.0674481 -0.0674481
-0.0291832 -0.0738812 -0.0738812
-0.0202679 -0.0793666 -0.0793666
-0.00982869 -0.0731661 -0.0731661
-0.0187284 -0.0677125 -0.0677125
-0.0194987 -0.073428 -0.073428
-0.0303291 -0.0798167 -0.0798167
-0.0326147 -0.0923547 -0.0923547
-0.011006 -0.091657 -0.091657
-0.0102211 -0.0791073 -0.0791073
-0.0314729 -0.0859747 -0.0859747
-0.0218031 -0.091911 -0.091911
-0.0106135 -0.0852711 -0.0852711
-0.0202679 -0.0793666 -0.0793666
-0.021036 -0.0855278 -0.0855278
-0.0326147 -0.0923547 -0.0923547
-0.0348925 -0.105778 -0.105778
-0.0117912 -0.105092 -0.105092
-0.011006 -0.091657 -0.091657
-0.0337546 -0.098956 -0.098956
-0.0233346 -0.105341 -0.105341
-0.0113985 -0.0982642 -0.0982642
-0.0218031 -0.091911 -0.091911
-0.0225693 -0.0985155 -0.0985155
-0.0348925 -0.105778 -0.105778
-0.0371626 -0.120082 -0.120082
-0.0125771 -0.119409 -0.119409
-0.0117912 -0.105092 -0.105092
-0.0360285 -0.11282 -0.11282
-0.0248626 -0.119652 -0.119652
-0.012184 -0.112141 -0.112141
-0.0233346 -0.105341 -0.105341
-0.024099 -0.112386 -0.112386
-0.0371626 -0.120082 -0.120082
-0.0394255 -0.135262 -0.135262
-0.0133639 -0.134601 -0.134601
-0.0125771 -0.119409 -0.119409
-0.038295 -0.127563 -0.127563
-0.0263874 -0.134838 -0.134838
-0.0129704 -0.126896 -0.126896
-0.0248626 -0.119652 -0.119652
-0.0256254 -0.127136 -0.127136
-0.0394255 -0.135262 -0.135262
-0.0416815 -0.151313 -0.151313
-0.0141519 -0.150665 -0.150665
-0.0133639 -0.134601 -0.134601
-0.0405544 -0.143179 -0.143179
-0.0279094 -0.150896 -0.150896
-0.0137577 -0.142525 -0.142525
-0.0263874 -0.134838 -0.134838
-0.0271487 -0.142759 -0.142759
-0.0416815 -0.151313 -0.151313
-0.0439308 -0.168229 -0.168229
-0.0149414 -0.167596 -0.167596
-0.0141519 -0.150665 -0.150665
-0.0428069 -0.159663 -0.159663
-0.0294287 -0.16782 -0.16782
-0.0145465 -0.159023 -0.159023
-0.0279094 -0.150896 -0.150896
-0.0286694 -0.15925 -0.15925
-0.0439308 -0.168229 -0.168229
-0.0461736 -0.186007 -0.186007
-0.0157327 -0.185388 -0.185388
-0.0149414 -0.167596 -0.167596
-0.045053 -0.177011 -0.177011
-0.0309457 -0.185606 -0.185606
-0.0153368 -0.176385 -0.176385
-0.0294287 -0.16782 -0.16782
-0.0301875 -0.176606 -0.176606
-0.0461736 -0.186007 -0.186007
-0.0484102 -0.204642 -0.204642
-0.016526 -0.204037 -0.204037
-0.0157327 -0.185388 -0.185388
-0.0472926 -0.195218 -0.195218
-0.0324607 -0.204248 -0.204248
-0.0161291 -0.194606 -0.194606
-0.0309457 -0.185606 -0.185606
-0.0317035 -0.19482 -0.19482
-0.0484102 -0.204642 -0.204642
-0.0506409 -0.224128 -0.224128
-0.0173215 -0.223538 -0.223538
-0.016526 -0.204037 -0.204037
-0.0495263 -0.214279 -0.214279
-0.0339738 -0.223742 -0.223742
-0.0169235 -0.213681 -0.213681
-0.0324607 -0.204248 -0.204248
-0.0332174 -0.213889 -0.213889
-0.0506409 -0.224128 -0.224128
-0.0528659 -0.244461 -0.244461
-0.0181196 -0.243887 -0.243887
-0.0173215 -0.223538 -0.223538
-0.0517541 -0.234189 -0.234189
-0.0354853 -0.244084 -0.244084
-0.0177202 -0.233607 -0.233607
-0.0339738 -0.223742 -0.223742
-0.0347297 -0.233807 -0.233807
-0.0528659 -0.244461 -0.244461
-0.0550855 -0.265636 -0.265636
-0.0189203 -0.265077 -0.265077
-0.0181196 -0.243887 -0.243887
-0.0539764 -0.254943 -0.254943
-0.0369954 -0.265267 -0.265267
-0.0185196 -0.254377 -0.254377
-0.0354853 -0.244084 -0.244084
-0.0362405 -0.25457 -0.25457
-0.0550855 -0.265636 -0.265636
-0.0572999 -0.287648 -0.287648
-0.0197241 -0.287105 -0.287105
-0.0189203 -0.265077 -0.265077
-0.0561933 -0.276537 -0.276537
-0.0385045 -0.287287 -0.287287
-0.0193218 -0.275987 -0.275987
-0.0369954 -0.265267 -0.265267
-0.0377501 -0.276173 -0.276173
-0.0572999 -0.287648 -0.287648
-0.0595093 -0.310492 -0.310492
-0.0205311 -0.309966 -0.309966
-0.0197241 -0.287105 -0.287105
-0.0584052 -0.298966 -0.298966
-0.0400127 -0.31014 -0.31014
-0.0201272 -0.298432 -0.298432
-0.0385045 -0.287287 -0.287287
-0.0392587 -0.29861 -0.29861
-0.0595093 -0.310492 -0.310492
-0.061714 -0.334163 -0.334163
-0.0213415 -0.333655 -0.333655
-0.0205311 -0.309966 -0.309966
-0.0606122 -0.322224 -0.322224
-0.0415202 -0.333821 -0.333821
-0.0209359 -0.321707 -0.321707
-0.0400127 -0.31014 -0.31014
-0.0407665 -0.321877 -0.321877
-0.061714 -0.334163 -0.334163
-0.0639141 -0.358657 -0.358657
-0.0221556 -0.358166 -0.358166
-0.0213415 -0.333655 -0.333655
-0.0628146 -0.346308 -0.346308
-0.0430273 -0.358324 -0.358324
-0.0217481 -0.345808 -0.345808
-0.0415202 -0.333821 -0.333821
-0.0422738 -0.34597 -0.34597
-0.0639141 -0.358657 -0.358657
-0.06611 -0.383969 -0.383969
-0.0229736 -0.383496 -0.383496
-0.0221556 -0.358166 -0.358166
-0.0650126 -0.371211 -0.371211
-0.0445342 -0.383645 -0.383645
-0.0225641 -0.370729 -0.370729
-0.0430273 -0.358324 -0.358324
-0.0437807 -0.370883 -0.370883
-0.06611 -0.383969 -0.383969
-0.0683017 -0.410094 -0.410094
-0.0237957 -0.409639 -0.409639
-0.0229736 -0.383496 -0.383496
-0.0672063 -0.39693 -0.39693
-0.0460411 -0.40978 -0.40978
-0.0233841 -0.396466 -0.396466
-0.0445342 -0.383645 -0.383645
-0.0452876 -0.396611 -0.396611
-0.0683017 -0.410094 -0.410094
-0.0704896 -0.437027 -0.437027
-0.0246221 -0.43659 -0.43659
-0.0237957 -0.409639 -0.409639
-0.0693961 -0.42346 -0.42346
-0.0475482 -0.436723 -0.436723
-0.0242084 -0.423014 -0.423014
-0.0460411 -0.40978 -0.40978
-0.0467946 -0.42315 -0.42315
-0.0704896 -0.437027 -0.437027
-0.0726738 -0.464763 -0.464763
-0.025453 -0.464345 -0.464345
-0.0246221 -0.43659 -0.43659
-0.0715822 -0.450795 -0.450795
-0.0490558 -0.464469 -0.464469
-0.025037 -0.450367 -0.450367
-0.0475482 -0.436723 -0.436723
-0.0483019 -0.450495 -0.450495
-0.0726738 -0.464763 -0.464763
-0.0748546 -0.493298 -0.493298
-0.0262887 -0.492899 -0.492899
-0.025453 -0.464345 -0.464345
-0.0737646 -0.478931 -0.478931
-0.0505639 -0.493013 -0.493013
-0.0258703 -0.478522 -0.478522
-0.0490558 -0.464469 -0.464469
-0.0498098 -0.478641 -0.478641
-0.0748546 -0.493298 -0.493298
-0.0770321 -0.522626 -0.522626
-0.0271292 -0.522246 -0.522246
-0.0262887 -0.492899 -0.492899
-0.0759437 -0.507863 -0.507863
-0.0520729 -0.522352 -0.522352
-0.0267083 -0.507473 -0.507473
-0.0505639 -0.493013 -0.493013
-0.0513183 -0.507584 -0.507584
-0.0770321 -0.522626 -0.522626
-0.0792064 -0.552743 -0.552743
-0.0279749 -0.552383 -0.552383
-0.0271292 -0.522246 -0.522246
-0.0781196 -0.537586 -0.537586
-0.0535829 -0.552479 -0.552479
-0.0275514 -0.537216 -0.537216
-0.0520729 -0.522352 -0.522352
-0.0528278 -0.537317 -0.537317
-0.0792064 -0.552743 -0.552743
-0.0813779 -0.583644 -0.583644
-0.0288258 -0.583304 -0.583304
-0.0279749 -0.552383 -0.552383
-0.0802925 -0.568096 -0.568096
-0.0550941 -0.58339 -0.58339
-0.0283997 -0.567746 -0.567746
-0.0535829 -0.552479 -0.552479
-0.0543384 -0.567837 -0.567837
-0.0813779 -0.583644 -0.583644
-0.0835467 -0.615324 -0.615324
-0.0296823 -0.615004 -0.615004
-0.0288258 -0.583304 -0.583304
-0.0824627 -0.599387 -0.599387
-0.0566067 -0.615081 -0.615081
-0.0292534 -0.599057 -0.599057
-0.0550941 -0.58339 -0.58339
-0.0558502 -0.599139 -0.599139
-0.0835467 -0.615324 -0.615324
-0.085713 -0.647778 -0.647778
-0.0305443 -0.647479 -0.647479
-0.0296823 -0.615004 -0.615004
-0.0846301 -0.631454 -0.631454
-0.0581209 -0.647546 -0.647546
-0.0301126 -0.631145 -0.631145
-0.0566067 -0.615081 -0.615081
-0.0573636 -0.631217 -0.631217
-0.085713 -0.647778 -0.647778
-0.0878768 -0.681001 -0.681001
-0.0314122 -0.680723 -0.680723
-0.0305443 -0.647479 -0.647479
-0.0867952 -0.664294 -0.664294
-0.0596367 -0.680781 -0.680781
-0.0309775 -0.664005 -0.664005
-0.0581209 -0.647546 -0.647546
-0.0588786 -0.664067 -0.664067
-0.0878768 -0.681001 -0.681001
-0.0900385 -0.714989 -0.714989
-0.0322861 -0.714733 -0.714733
-0.0314122 -0.680723 -0.680723
-0.088958 -0.6979 -0.6979
-0.0611545 -0.71478 -0.71478
-0.0318484 -0.697633 -0.697633
-0.0596367 -0.680781 -0.680781
-0.0603954 -0.697685 -0.697685
-0.0900385 -0.714989 -0.714989
-0.0921982 -0.749737 -0.749737
-0.0331662 -0.749502 -0.749502
-0.0322861 -0.714733 -0.714733
-0.0911186 -0.732269 -0.732269
-0.0626743 -0.749539 -0.749539
-0.0327254 -0.732023 -0.732023
-0.0611545 -0.71478 -0.71478
-0.0619142 -0.732065 -0.732065
-0.0921982 -0.749737 -0.749737
-0.094356 -0.78524 -0.78524
-0.0340526 -0.785027 -0.785027
-0.0331662 -0.749502 -0.749502
-0.0932773 -0.767395 -0.767395
-0.0641964 -0.785053 -0.785053
-0.0336086 -0.76717 -0.76717
-0.0626743 -0.749539 -0.749539
-0.0634351 -0.767202 -0.767202
-0.094356 -0.78524 -0.78524
-0.0965121 -0.821493 -0.821493
-0.0349454 -0.821302 -0.821302
-0.0340526 -0.785027 -0.785027
-0.0954342 -0.803273 -0.803273
-0.0657208 -0.821317 -0.821317
-0.0344982 -0.803071 -0.803071
-0.0641964 -0.785053 -0.785053
-0.0649583 -0.803092 -0.803092
-0.0965121 -0.821493 -0.821493
-0.0986666 -0.858491 -0.858491
-0.0358449 -0.858322 -0.858322
-0.0349454 -0.821302 -0.821302
-0.0975895 -0.839899 -0.839899
-0.0672478 -0.858327 -0.858327
-0.0353943 -0.839719 -0.839719
-0.0657208 -0.821317 -0.821317
-0.066484 -0.839729 -0.839729
-0.0986666 -0.858491 -0.858491
-0.10082 -0.896229 -0.896229
-0.0367511 -0.896083 -0.896083
-0.0358449 -0.858322 -0.858322
-0.0997433 -0.877268 -0.877268
-0.0687775 -0.896077 -0.896077
-0.0362971 -0.87711 -0.87711
-0.0672478 -0.858327 -0.858327
-0.0680123 -0.87711 -0.87711
-0.10082 -0.896229 -0.896229
-0.102972 -0.934703 -0.934703
-0.0376643 -0.93458 -0.93458
-0.0367511 -0.896083 -0.896083
-0.101896 -0.915375 -0.915375
-0.07031 -0.934563 -0.934563
-0.0372068 -0.91524 -0.91524
-0.0687775 -0.896077 -0.896077
-0.0695434 -0.915229 -0.915229
-0.102972 -0.934703 -0.934703
-0.105122 -0.973908 -0.973908
-0.0385845 -0.973807 -0.973807
-0.0376643 -0.93458 -0.93458
-0.104047 -0.954215 -0.954215
-0.0718454 -0.97378 -0.97378
-0.0381235 -0.954103 -0.954103
-0.07031 -0.934563 -0.934563
-0.0710773 -0.954081 -0.954081
-0.105122 -0.973908 -0.973908
-0.107272 -1.01384 -1.01384
-0.0395119 -1.01376 -1.01376
-0.0385845 -0.973807 -0.973807
-0.106197 -0.993783 -0.993783
-0.0733839 -1.01372 -1.01372
-0.0390473 -0.993694 -0.993694
-0.0718454 -0.97378 -0.97378
-0.0726143 -0.993661 -0.993661
-0.107272 -1.01384 -1.01384
-0.109421 -1.05449 -1.05449
-0.0404466 -1.05444 -1.05444
-0.0395119 -1.01376 -1.01376
-0.108346 -1.03407 -1.03407
-0.0749257 -1.05439 -1.05439
-0.0399783 -1.03401 -1.03401
-0.0733839 -1.01372 -1.01372
-0.0741544 -1.03396 -1.03396
-0.109421 -1.05449 -1.05449
-0.111569 -1.09586 -1.09586
-0.0413888 -1.09583 -1.09583
-0.0404466 -1.05444 -1.05444
-0.110495 -1.07508 -1.07508
-0.0764708 -1.09577 -1.09577
-0.0409168 -1.07504 -1.07504
-0.0749257 -1.05439 -1.05439
-0.0756978 -1.07499 -1.07499
-0.111569 -1.09586 -1.09586
-0.113716 -1.13794 -1.13794
-0.0423385 -1.13793 -1.13793
-0.0413888 -1.09583 -1.09583
-0.112643 -1.11681 -1.11681
-0.0780194 -1.13786 -1.13786
-0.0418627 -1.11679 -1.11679
-0.0764708 -1.09577 -1.09577
-0.0772447 -1.11672 -1.11672
-0.113716 -1.13794 -1.13794
-0.115863 -1.18072 -1.18072
-0.043296 -1.18074 -1.18074
-0.0423385 -1.13793 -1.13793
-0.11479 -1.15924 -1.15924
-0.0795716 -1.18066 -1.18066
-0.0428163 -1.15925 -1.15925
-0.0780194 -1.13786 -1.13786
-0.0787951 -1.15917 -1.15917
-0.115863 -1.18072 -1.18072
-0.11801 -1.22421 -1.22421
-0.0442612 -1.22425 -1.22425
-0.043296 -1.18074 -1.18074
-0.116937 -1.20238 -1.20238
-0.0811275 -1.22416 -1.22416
-0.0437776 -1.20241 -1.20241
-0.0795716 -1.18066 -1.18066
-0.0803491 -1.20232 -1.20232
-0.11801 -1.22421 -1.22421
-0.120156 -1.26839 -1.26839
-0.0452343 -1.26846 -1.26846
-0.0442612 -1.22425 -1.22425
-0.119083 -1.24622 -1.24622
-0.0826872 -1.26835 -1.26835
-0.0447468 -1.24627 -1.24627
-0.0811275 -1.22416 -1.22416
-0.0819069 -1.24617 -1.24617
-0.120156 -1.26839 -1.26839
-0.122302 -1.31327 -1.31327
-0.0462155 -1.31336 -1.31336
-0.0452343 -1.26846 -1.26846
-0.121229 -1.29075 -1.29075
-0.0842509 -1.31324 -1.31324
-0.0457239 -1.29083 -1.29083
-0.0826872 -1.26835 -1.26835
-0.0834686 -1.29071 -1.29071
-0.122302 -1.31327 -1.31327
-0.124448 -1.35883 -1.35883
-0.0472048 -1.35895 -1.35895
-0.0462155 -1.31336 -1.31336
-0.123375 -1.33597 -1.33597
-0.0858185 -1.35882 -1.35882
-0.0467091 -1.33607 -1.33607
-0.0842509 -1.31324 -1.31324
-0.0850342 -1.33595 -1.33595
-0.124448 -1.35883 -1.35883
-0.126595 -1.40508 -1.40508
-0.0482023 -1.40522 -1.40522
-0.0472048 -1.35895 -1.35895
-0.125521 -1.38187 -1.38187
-0.0873903 -1.40508 -1.40508
-0.0477025 -1.382 -1.382
-0.0858185 -1.35882 -1.35882
-0.0866039 -1.38186 -1.38186
-0.126595 -1.40508 -1.40508
-0.128741 -1.452 -1.452
-0.0492081 -1.45217 -1.45217
-0.0482023 -1.40522 -1.40522
-0.127668 -1.42846 -1.42846
-0.0889664 -1.45202 -1.45202
-0.0487041 -1.42861 -1.42861
-0.0873903 -1.40508 -1.40508
-0.0881778 -1.42846 -1.42846
-0.128741 -1.452 -1.452
-0.130887 -1.4996 -1.4996
-0.0502223 -1.49979 -1.49979
-0.0492081 -1.45217 -1.45217
-0.129814 -1.47572 -1.47572
-0.0905467 -1.49962 -1.49962
-0.0497141 -1.4759 -1.4759
-0.0889664 -1.45202 -1.45202
-0.089756 -1.47574 -1.47574
-0.130887 -1.4996 -1.4996
-0.133034 -1.54786 -1.54786
-0.051245 -1.54808 -1.54808
-0.0502223 -1.49979 -1.49979
-0.131961 -1.52365 -1.52365
-0.0921314 -1.5479 -1.5479
-0.0507326 -1.52385 -1.52385
-0.0905467 -1.49962 -1.49962
-0.0913385 -1.52368 -1.52368
-0.133034 -1.54786 -1.54786
-0.135181 -1.59679 -1.59679
-0.0522763 -1.59703 -1.59703
-0.051245 -1.54808 -1.54808
-0.134108 -1.57225 -1.57225
-0.0937206 -1.59684 -1.59684
-0.0517595 -1.57247 -1.57247
-0.0921314 -1.5479 -1.5479
-0.0929254 -1.57229 -1.57229
-0.135181 -1.59679 -1.59679
-0.137329 -1.64638 -1.64638
-0.0533162 -1.64664 -1.64664
-0.0522763 -1.59703 -1.59703
-0.136255 -1.6215 -1.6215
-0.0953144 -1.64644 -1.64644
-0.0527951 -1.62176 -1.62176
-0.0937206 -1.59684 -1.59684
-0.0945169 -1.62156 -1.62156
-0.137329 -1.64638 -1.64638
-0.139477 -1.69662 -1.69662
-0.0543648 -1.69691 -1.69691
-0.0533162 -1.64664 -1.64664
-0.138403 -1.67141 -1.67141
-0.0969128 -1.69669 -1.69669
-0.0538394 -1.6717 -1.6717
-0.0953144 -1.64644 -1.64644
-0.096113 -1.67149 -1.67149
-0.139477 -1.69662 -1.69662
-0.141626 -1.7475 -1.7475
-0.0554223 -1.74782 -1.74782
-0.0543648 -1.69691 -1.69691
-0.140551 -1.72198 -1.72198
-0.0985159 -1.74759 -1.74759
-0.0548925 -1.72228 -1.72228
-0.0969128 -1.69669 -1.69669
-0.0977137 -1.72206 -1.72206
-0.141626 -1.7475 -1.7475
-0.143775 -1.79903 -1.79903
-0.0564886 -1.79938 -1.79938
-0.0554223 -1.74782 -1.74782
-0.1427 -1.77319 -1.77319
-0.100124 -1.79914 -1.79914
-0.0559543 -1.77352 -1.77352
-0.0985159 -1.74759 -1.74759
-0.0993192 -1.77329 -1.77329
-0.143775 -1.79903 -1.79903
-0.145925 -1.8512 -1.8512
-0.0575639 -1.85157 -1.85157
-0.0564886 -1.79938 -1.79938
-0.14485 -1.82504 -1.82504
-0.101736 -1.85132 -1.85132
-0.0570251 -1.8254 -1.8254
-0.100124 -1.79914 -1.79914
-0.10093 -1.82515 -1.82515
-0.145925 -1.8512 -1.8512
-0.148076 -1.90401 -1.90401
-0.0586481 -1.9044 -1.9044
-0.0575639 -1.85157 -1.85157
-0.147001 -1.87753 -1.87753
-0.103354 -1.90414 -1.90414
-0.0581049 -1.87791 -1.87791
-0.101736 -1.85132 -1.85132
-0.102545 -1.87765 -1.87765
-0.148076 -1.90401 -1.90401
-0.150228 -1.95744 -1.95744
-0.0597414 -1.95786 -1.95786
-0.0586481 -1.9044 -1.9044
-0.149152 -1.93064 -1.93064
-0.104977 -1.95758 -1.95758
-0.0591936 -1.93106 -1.93106
-0.103354 -1.90414 -1.90414
-0.104165 -1.93078 -1.93078
-0.150228 -1.95744 -1.95744
-0.152381 -2.0115 -2.0115
-0.0608438 -2.01195 -2.01195
-0.0597414 -1.95786 -1.95786
-0.151304 -1.98439 -1.98439
-0.106604 -2.01165 -2.01165
-0.0602914 -1.98483 -1.98483
-0.104977 -1.95758 -1.95758
-0.10579 -1.98454 -1.98454
-0.152381 -2.0115 -2.0115
-0.154535 -2.06617 -2.06617
-0.0619553 -2.06665 -2.06665
-0.0608438 -2.01195 -2.01195
-0.153458 -2.03876 -2.03876
-0.108237 -2.06635 -2.06635
-0.0613984 -2.03922 -2.03922
-0.106604 -2.01165 -2.01165
-0.10742 -2.03892 -2.03892
-0.154535 -2.06617 -2.06617
-0.156689 -2.12146 -2.12146
-0.0630761 -2.12197 -2.12197
-0.0619553 -2.06665 -2.06665
-0.155612 -2.09374 -2.09374
-0.109875 -2.12165 -2.12165
-0.0625145 -2.09423 -2.09423
-0.108237 -2.06635 -2.06635
-0.109055 -2.09392 -2.09392
-0.156689 -2.12146 -2.12146
-0.158845 -2.17736 -2.17736
-0.064206 -2.17789 -2.17789
-0.0630761 -2.12197 -2.12197
-0.157767 -2.14934 -2.14934
-0.111517 -2.17757 -2.17757
-0.0636399 -2.14986 -2.14986
-0.109875 -2.12165 -2.12165
-0.110695 -2.14953 -2.14953
-0.158845 -2.17736 -2.17736
-0.161002 -2.23387 -2.23387
-0.0653453 -2.23443 -2.23443
-0.064206 -2.17789 -2.17789
-0.159924 -2.20554 -2.20554
-0.113166 -2.23408 -2.23408
-0.0647745 -2.20609 -2.20609
-0.111517 -2.17757 -2.17757
-0.112341 -2.20575 -2.20575
-0.161002 -2.23387 -2.23387
-0.16316 -2.29098 -2.29098
-0.0664939 -2.29156 -2.29156
-0.0653453 -2.23443 -2.23443
-0.162081 -2.26235 -2.26235
-0.114819 -2.2912 -2.2912
-0.0659184 -2.26292 -2.26292
-0.113166 -2.23408 -2.23408
-0.113992 -2.26257 -2.26257
-0.16316 -2.29098 -2.29098
-0.165319 -2.34868 -2.34868
-0.0676518 -2.34929 -2.34929
-0.0664939 -2.29156 -2.29156
-0.16424 -2.31975 -2.31975
-0.116477 -2.34892 -2.34892
-0.0670716 -2.32035 -2.32035
-0.114819 -2.2912 -2.2912
-0.115647 -2.31999 -2.31999
-0.165319 -2.34868 -2.34868
-0.16748 -2.40697 -2.40697
-0.0688191 -2.40761 -2.40761
-0.0676518 -2.34929 -2.34929
-0.166399 -2.37775 -2.37775
-0.118141 -2.40723 -2.40723
-0.0682342 -2.37837 -2.37837
-0.116477 -2.34892 -2.34892
-0.117309 -2.378 -2.378
-0.16748 -2.40697 -2.40697
-0.169641 -2.46585 -2.46585
-0.0699957 -2.46651 -2.46651
-0.0688191 -2.40761 -2.40761
-0.16856 -2.43634 -2.43634
-0.11981 -2.46612 -2.46612
-0.0694062 -2.43699 -2.43699
-0.118141 -2.40723 -2.40723
-0.118975 -2.4366 -2.4366
-0.169641 -2.46585 -2.46585
-0.171804 -2.52531 -2.52531
-0.0711819 -2.526 -2.526
-0.0699957 -2.46651 -2.46651
-0.170723 -2.4955 -2.4955
-0.121485 -2.52559 -2.52559
-0.0705876 -2.49618 -2.49618
-0.11981 -2.46612 -2.46612
-0.120647 -2.49578 -2.49578
-0.171804 -2.52531 -2.52531
-0.173968 -2.58534 -2.58534
-0.0723774 -2.58606 -2.58606
-0.0711819 -2.526 -2.526
-0.172886 -2.55525 -2.55525
-0.123165 -2.58564 -2.58564
-0.0717784 -2.55596 -2.55596
-0.121485 -2.52559 -2.52559
-0.122324 -2.55554 -2.55554
-0.173968 -2.58534 -2.58534
-0.176134 -2.64595 -2.64595
-0.0735824 -2.64669 -2.64669
-0.0723774 -2.58606 -2.58606
-0.175051 -2.61557 -2.61557
-0.12485 -2.64626 -2.64626
-0.0729787 -2.6163 -2.6163
-0.123165 -2.58564 -2.58564
-0.124007 -2.61588 -2.61588
-0.176134 -2.64595 -2.64595
-0.1783 -2.70712 -2.70712
-0.0747969 -2.70789 -2.70789
-0.0735824 -2.64669 -2.64669
-0.177217 -2.67646 -2.67646
-0.12654 -2.70744 -2.70744
-0.0741885 -2.67722 -2.67722
-0.12485 -2.64626 -2.64626
-0.125694 -2.67678 -2.67678
-0.1783 -2.70712 -2.70712
-0.180468 -2.76885 -2.76885
-0.0760208 -2.76965 -2.76965
-0.0747969 -2.70789 -2.70789
-0.179384 -2.73791 -2.73791
-0.128236 -2.76919 -2.76919
-0.0754077 -2.7387 -2.7387
-0.12654 -2.70744 -2.70744
-0.127388 -2.73825 -2.73825
-0.180468 -2.76885 -2.76885
-0.182638 -2.83114 -2.83114
-0.0772543 -2.83197 -2.83197
-0.0760208 -2.76965 -2.76965
-0.181553 -2.79993 -2.79993
-0.129938 -2.83149 -2.83149
-0.0766364 -2.80074 -2.80074
-0.128236 -2.76919 -2.76919
-0.129086 -2.80027 -2.80027
-0.182638 -2.83114 -2.83114
-0.184808 -2.89398 -2.89398
-0.0784972 -2.89483 -2.89483
-0.0772543 -2.83197 -2.83197
-0.183723 -2.86249 -2.86249
-0.131644 -2.89435 -2.89435
-0.0778746 -2.86333 -2.86333
-0.129938 -2.83149 -2.83149
-0.13079 -2.86285 -2.86285
-0.184808 -2.89398 -2.89398
-0.18698 -2.95737 -2.95737
-0.0797496 -2.95825 -2.95825
-0.0784972 -2.89483 -2.89483
-0.185894 -2.92561 -2.92561
-0.133357 -2.95775 -2.95775
-0.0791222 -2.92647 -2.92647
-0.131644 -2.89435 -2.89435
-0.1325 -2.92598 -2.92598
-0.18698 -2.95737 -2.95737
-0.189153 -3.0213 -3.0213
-0.0810115 -3.02221 -3.02221
-0.0797496 -2.95825 -2.95825
-0.188066 -2.98927 -2.98927
-0.135074 -3.0217 -3.0217
-0.0803794 -2.99016 -2.99016
-0.133357 -2.95775 -2.95775
-0.134215 -2.98966 -2.98966
-0.189153 -3.0213 -3.0213
-0.191328 -3.08577 -3.08577
-0.0822829 -3.0867 -3.0867
-0.0810115 -3.02221 -3.02221
-0.19024 -3.05347 -3.05347
-0.136797 -3.08618 -3.08618
-0.081646 -3.05439 -3.05439
-0.135074 -3.0217 -3.0217
-0.135935 -3.05387 -3.05387
-0.191328 -3.08577 -3.08577
-0.193503 -3.15077 -3.15077
-0.0835637 -3.15173 -3.15173
-0.0822829 -3.0867 -3.0867
-0.192415 -3.1182 -3.1182
-0.138525 -3.15119 -3.15119
-0.0829221 -3.11915 -3.11915
-0.136797 -3.08618 -3.08618
-0.137661 -3.11862 -3.11862
-0.193503 -3.15077 -3.15077
-0.19568 -3.2163 -3.2163
-0.084854 -3.21728 -3.21728
-0.0835637 -3.15173 -3.15173
-0.194592 -3.18347 -3.18347
-0.140259 -3.21673 -3.21673
-0.0842077 -3.18444 -3.18444
-0.138525 -3.15119 -3.15119
-0.139391 -3.1839 -3.1839
-0.19568 -3.2163 -3.2163
-0.197859 -3.28235 -3.28235
-0.0861537 -3.28336 -3.28336
-0.084854 -3.21728 -3.21728
-0.196769 -3.24926 -3.24926
-0.141998 -3.2828 -3.2828
-0.0855027 -3.25026 -3.25026
-0.140259 -3.21673 -3.21673
-0.141128 -3.2497 -3.2497
-0.197859 -3.28235 -3.28235
-0.200038 -3.34892 -3.34892
-0.0874628 -3.34996 -3.34996
-0.0861537 -3.28336 -3.28336
-0.198948 -3.31557 -3.31557
-0.143742 -3.34938 -3.34938
-0.0868071 -3.3166 -3.3166
-0.141998 -3.2828 -3.2828
-0.142869 -3.31603 -3.31603
-0.200038 -3.34892 -3.34892
-0.202219 -3.416 -3.416
-0.0887814 -3.41707 -3.41707
-0.0874628 -3.34996 -3.34996
-0.201128 -3.38239 -3.38239
-0.145492 -3.41648 -3.41648
-0.0881209 -3.38345 -3.38345
-0.143742 -3.34938 -3.34938
-0.144616 -3.38287 -3.38287
-0.202219 -3.416 -3.416
-0.204401 -3.48359 -3.48359
-0.0901093 -3.48468 -3.48468
-0.0887814 -3.41707 -3.41707
-0.20331 -3.44973 -3.44973
-0.147247 -3.48408 -3.48408
-0.0894441 -3.45081 -3.45081
-0.145492 -3.41648 -3.41648
-0.146369 -3.45022 -3.45022
-0.204401 -3.48359 -3.48359
-0.206584 -3.55168 -3.55168
-0.0914465 -3.5528 -3.5528
-0.0901093 -3.48468 -3.48468
-0.205492 -3.51757 -3.51757
-0.149007 -3.55219 -3.55219
-0.0907767 -3.51868 -3.51868
-0.147247 -3.48408 -3.48408
-0.148126 -3.51807 -3.51807
-0.206584 -3.55168 -3.55168
-0.208768 -3.62027 -3.62027
-0.092793 -3.62142 -3.62142
-0.0914465 -3.5528 -3.5528
-0.207676 -3.58591 -3.58591
-0.150772 -3.62079 -3.62079
-0.0921186 -3.58705 -3.58705
-0.149007 -3.55219 -3.55219
-0.149889 -3.58643 -3.58643
-0.208768 -3.62027 -3.62027
-0.210953 -3.68936 -3.68936
-0.0941489 -3.69053 -3.69053
-0.092793 -3.62142 -3.62142
-0.20986 -3.65475 -3.65475
-0.152543 -3.68989 -3.68989
-0.0934698 -3.65592 -3.65592
-0.150772 -3.62079 -3.62079
-0.151657 -3.65528 -3.65528
-0.210953 -3.68936 -3.68936
-0.21314 -3.75893 -3.75893
-0.0955139 -3.76014 -3.76014
-0.0941489 -3.69053 -3.69053
-0.212046 -3.72408 -3.72408
-0.154319 -3.75948 -3.75948
-0.0948303 -3.72527 -3.72527
-0.152543 -3.68989 -3.68989
-0.15343 -3.72463 -3.72463
-0.21314 -3.75893 -3.75893
-0.215327 -3.82899 -3.82899
-0.0968882 -3.83022 -3.83022
-0.0955139 -3.76014 -3.76014
-0.214233 -3.7939 -3.7939
-0.156099 -3.82955 -3.82955
-0.0961999 -3.79512 -3.79512
-0.154319 -3.75948 -3.75948
-0.155208 -3.79446 -3.79446
-0.215327 -3.82899 -3.82899
-0.217515 -3.89953 -3.89953
-0.0982717 -3.90078 -3.90078
-0.0968882 -3.83022 -3.83022
-0.216421 -3.8642 -3.8642
-0.157885 -3.90011 -3.90011
-0.0975788 -3.86544 -3.86544
-0.156099 -3.82955 -3.82955
-0.156992 -3.86477 -3.86477
-0.217515 -3.89953 -3.89953
-0.219705 -3.97054 -3.97054
-0.0996642 -3.97182 -3.97182
-0.0982717 -3.90078 -3.90078
-0.21861 -3.93498 -3.93498
-0.159676 -3.97113 -3.97113
-0.0989668 -3.93624 -3.93624
-0.157885 -3.90011 -3.90011
-0.15878 -3.93556 -3.93556
-0.219705 -3.97054 -3.97054
-0.221895 -4.04202 -4.04202
-0.101066 -4.04333 -4.04333
-0.0996642 -3.97182 -3.97182
-0.220799 -4.00622 -4.00622
-0.161472 -4.04263 -4.04263
-0.100364 -4.00752 -4.00752
-0.159676 -3.97113 -3.97113
-0.160574 -4.00682 -4.00682
-0.221895 -4.04202 -4.04202
-0.224086 -4.11397 -4.11397
-0.102476 -4.1153 -4.1153
-0.101066 -4.04333 -4.04333
-0.22299 -4.07794 -4.07794
-0.163273 -4.11459 -4.11459
-0.10177 -4.07926 -4.07926
-0.161472 -4.04263 -4.04263
-0.162372 -4.07855 -4.07855
-0.224086 -4.11397 -4.11397
-0.226277 -4.18638 -4.18638
-0.103896 -4.18774 -4.18774
-0.102476 -4.1153 -4.1153
-0.225181 -4.15012 -4.15012
-0.165079 -4.18701 -4.18701
-0.103185 -4.15146 -4.15146
-0.163273 -4.11459 -4.11459
-0.164175 -4.15074 -4.15074
-0.226277 -4.18638 -4.18638
-0.22847 -4.25924 -4.25924
-0.105325 -4.26062 -4.26062
-0.103896 -4.18774 -4.18774
-0.227374 -4.22275 -4.22275
-0.166889 -4.25988 -4.25988
-0.104609 -4.22412 -4.22412
-0.165079 -4.18701 -4.18701
-0.165983 -4.22339 -4.22339
-0.22847 -4.25924 -4.25924
-0.230663 -4.33255 -4.33255
-0.106762 -4.33396 -4.33396
-0.105325 -4.26062 -4.26062
-0.229567 -4.29584 -4.29584
-0.168704 -4.33321 -4.33321
-0.106042 -4.29724 -4.29724
-0.166889 -4.25988 -4.25988
-0.167796 -4.29649 -4.29649
-0.230663 -4.33255 -4.33255
-0.232857 -4.40631 -4.40631
-0.108208 -4.40774 -4.40774
-0.106762 -4.33396 -4.33396
-0.23176 -4.36937 -4.36937
-0.170524 -4.40698 -4.40698
-0.107484 -4.3708 -4.3708
-0.168704 -4.33321 -4.33321
-0.169614 -4.37004 -4.37004
-0.232857 -4.40631 -4.40631
-0.235051 -4.4805 -4.4805
-0.109663 -4.48197 -4.48197
-0.108208 -4.40774 -4.40774
-0.233954 -4.44335 -4.44335
-0.172349 -4.48119 -4.48119
-0.108934 -4.4448 -4.4448
-0.170524 -4.40698 -4.40698
-0.171436 -4.44403 -4.44403
-0.235051 -4.4805 -4.4805
-0.237246 -4.55514 -4.55514
-0.111127 -4.55663 -4.55663
-0.109663 -4.48197 -4.48197
-0.236149 -4.51777 -4.51777
-0.174178 -4.55584 -4.55584
-0.110394 -4.51924 -4.51924
-0.172349 -4.48119 -4.48119
-0.173263 -4.51846 -4.51846
-0.237246 -4.55514 -4.55514
-0.239441 -4.6302 -4.6302
-0.112599 -4.63172 -4.63172
-0.111127 -4.55663 -4.55663
-0.238344 -4.59262 -4.59262
-0.176012 -4.63091 -4.63091
-0.111862 -4.59412 -4.59412
-0.174178 -4.55584 -4.55584
-0.175095 -4.59332 -4.59332
-0.239441 -4.6302 -4.6302
-0.241637 -4.70569 -4.70569
-0.114079 -4.70723 -4.70723
-0.112599 -4.63172 -4.63172
-0.240539 -4.66789 -4.66789
-0.17785 -4.70642 -4.70642
-0.113338 -4.66942 -4.66942
-0.176012 -4.63091 -4.63091
-0.176931 -4.66861 -4.66861
-0.241637 -4.70569 -4.70569
-0.243833 -4.7816 -4.7816
-0.115568 -4.78317 -4.78317
-0.114079 -4.70723 -4.70723
-0.242735 -4.7436 -4.7436
-0.179693 -4.78234 -4.78234
-0.114823 -4.74515 -4.74515
-0.17785 -4.70642 -4.70642
-0.178771 -4.74433 -4.74433
-0.243833 -4.7816 -4.7816
-0.246029 -4.85793 -4.85793
-0.117066 -4.85952 -4.85952
-0.115568 -4.78317 -4.78317
-0.244931 -4.81972 -4.81972
-0.181539 -4.85868 -4.85868
-0.116316 -4.82129 -4.82129
-0.179693 -4.78234 -4.78234
-0.180615 -4.82046 -4.82046
-0.246029 -4.85793 -4.85793
-0.248225 -4.93467 -4.93467
-0.118572 -4.93629 -4.93629
-0.117066 -4.85952 -4.85952
-0.247127 -4.89625 -4.89625
-0.18339 -4.93543 -4.93543
-0.117818 -4.89785 -4.89785
-0.181539 -4.85868 -4.85868
-0.182464 -4.89701 -4.89701
-0.248225 -4.93467 -4.93467
-0.250421 -5.01182 -5.01182
-0.120086 -5.01346 -5.01346
-0.118572 -4.93629 -4.93629
-0.249323 -4.97319 -4.97319
-0.185246 -5.01259 -5.01259
-0.119328 -4.97482 -4.97482
-0.18339 -4.93543 -4.93543
-0.184317 -4.97396 -4.97396
-0.250421 -5.01182 -5.01182
-0.252618 -5.08936 -5.08936
-0.121608 -5.09103 -5.09103
-0.120086 -5.01346 -5.01346
-0.25152 -5.05054 -5.05054
-0.187105 -5.09015 -5.09015
-0.120846 -5.05219 -5.05219
-0.185246 -5.01259 -5.01259
-0.186175 -5.05132 -5.05132
-0.252618 -5.08936 -5.08936
-0.254814 -5.16731 -5.16731
-0.123138 -5.169 -5.169
-0.121608 -5.09103 -5.09103
-0.253716 -5.12829 -5.12829
-0.188968 -5.16811 -5.16811
-0.122372 -5.12996 -5.12996
-0.187105 -5.09015 -5.09015
-0.188036 -5.12908 -5.12908
-0.254814 -5.16731 -5.16731
-0.25701 -5.24565 -5.24565
-0.124676 -5.24736 -5.24736
-0.123138 -5.169 -5.169
-0.255912 -5.20643 -5.20643
-0.190835 -5.24646 -5.24646
-0.123906 -5.20813 -5.20813
-0.188968 -5.16811 -5.16811
-0.189901 -5.20724 -5.20724
-0.25701 -5.24565 -5.24565
-0.259205 -5.32437 -5.32437
-0.126222 -5.32611 -5.32611
-0.124676 -5.24736 -5.24736
-0.258107 -5.28496 -5.28496
-0.192706 -5.3252 -5.3252
-0.125448 -5.28669 -5.28669
-0.190835 -5.24646 -5.24646
-0.19177 -5.28578 -5.28578
-0.259205 -5.32437 -5.32437
-0.2614 -5.40348 -5.40348
-0.127776 -5.40524 -5.40524
-0.126222 -5.32611 -5.32611
-0.260303 -5.36388 -5.36388
-0.19458 -5.40432 -5.40432
-0.126998 -5.36563 -5.36563
-0.192706 -5.3252 -5.3252
-0.193642 -5.36471 -5.36471
-0.2614 -5.40348 -5.40348
-0.263595 -5.48296 -5.48296
-0.129338 -5.48475 -5.48475
-0.127776 -5.40524 -5.40524
-0.262498 -5.44317 -5.44317
-0.196458 -5.48382 -5.48382
-0.128556 -5.44495 -5.44495
-0.19458 -5.40432 -5.40432
-0.195519 -5.44402 -5.44402
-0.263595 -5.48296 -5.48296
-0.265789 -5.56282 -5.56282
-0.130907 -5.56463 -5.56463
-0.129338 -5.48475 -5.48475
-0.264692 -5.52284 -5.52284
-0.19834 -5.56369 -5.56369
-0.130121 -5.52464 -5.52464
-0.196458 -5.48382 -5.48382
-0.197399 -5.5237 -5.5237
-0.265789 -5.56282 -5.56282
-0.267982 -5.64305 -5.64305
-0.132483 -5.64488 -5.64488
-0.130907 -5.56463 -5.56463
-0.266886 -5.60289 -5.60289
-0.200225 -5.64392 -5.64392
-0.131694 -5.60471 -5.60471
-0.19834 -5.56369 -5.56369
-0.199282 -5.60376 -5.60376
-0.267982 -5.64305 -5.64305
-0.270175 -5.72363 -5.72363
-0.134067 -5.72549 -5.72549
-0.132483 -5.64488 -5.64488
-0.269079 -5.68329 -5.68329
-0.202113 -5.72452 -5.72452
-0.133274 -5.68514 -5.68514
-0.200225 -5.64392 -5.64392
-0.201169 -5.68418 -5.68418
-0.270175 -5.72363 -5.72363
-0.272367 -5.80458 -5.80458
-0.135659 -5.80646 -5.80646
-0.134067 -5.72549 -5.72549
-0.271271 -5.76406 -5.76406
-0.204005 -5.80548 -5.80548
-0.134862 -5.76593 -5.76593
-0.202113 -5.72452 -5.72452
-0.203059 -5.76496 -5.76496
-0.272367 -5.80458 -5.80458
-0.274557 -5.88588 -5.88588
-0.137257 -5.88778 -5.88778
-0.135659 -5.80646 -5.80646
-0.273462 -5.84519 -5.84519
-0.205899 -5.8868 -5.8868
-0.136457 -5.84708 -5.84708
-0.204005 -5.80548 -5.80548
-0.204952 -5.8461 -5.8461
-0.274557 -5.88588 -5.88588
-0.276747 -5.96753 -5.96753
-0.138863 -5.96946 -5.96946
-0.137257 -5.88778 -5.88778
-0.275652 -5.92666 -5.92666
-0.207797 -5.96846 -5.96846
-0.138059 -5.92858 -5.92858
-0.205899 -5.8868 -5.8868
-0.206848 -5.92758 -5.92758
-0.276747 -5.96753 -5.96753
-0.278936 -6.04952 -6.04952
-0.140475 -6.05147 -6.05147
-0.138863 -5.96946 -5.96946
-0.277842 -6.00848 -6.00848
-0.209697 -6.05046 -6.05046
-0.139668 -6.01042 -6.01042
-0.207797 -5.96846 -5.96846
-0.208747 -6.00942 -6.00942
-0.278936 -6.04952 -6.04952
-0.281123 -6.13186 -6.13186
-0.142094 -6.13383 -6.13383
-0.140475 -6.05147 -6.05147
-0.280029 -6.09065 -6.09065
-0.211601 -6.13281 -6.13281
-0.141284 -6.09261 -6.09261
-0.209697 -6.05046 -6.05046
-0.210649 -6.09159 -6.09159
-0.281123 -6.13186 -6.13186
-0.283308 -6.21452 -6.21452
-0.143721 -6.21652 -6.21652
-0.142094 -6.13383 -6.13383
-0.282216 -6.17315 -6.17315
-0.213507 -6.21548 -6.21548
-0.142907 -6.17513 -6.17513
-0.211601 -6.13281 -6.13281
-0.212553 -6.1741 -6.1741
-0.283308 -6.21452 -6.21452
-0.285493 -6.29752 -6.29752
-0.145353 -6.29953 -6.29953
-0.143721 -6.21652 -6.21652
-0.284401 -6.25598 -6.25598
-0.215415 -6.29849 -6.29849
-0.144536 -6.25798 -6.25798
-0.213507 -6.21548 -6.21548
-0.214461 -6.25695 -6.25695
-0.285493 -6.29752 -6.29752
-0.287675 -6.38084 -6.38084
-0.146993 -6.38287 -6.38287
-0.145353 -6.29953 -6.29953
-0.286584 -6.33914 -6.33914
-0.217326 -6.38182 -6.38182
-0.146172 -6.34116 -6.34116
-0.215415 -6.29849 -6.29849
-0.21637 -6.34012 -6.34012
-0.287675 -6.38084 -6.38084
-0.289856 -6.46448 -6.46448
-0.148638 -6.46654 -6.46654
-0.146993 -6.38287 -6.38287
-0.288766 -6.42262 -6.42262
-0.219239 -6.46547 -6.46547
-0.147815 -6.42467 -6.42467
-0.217326 -6.38182 -6.38182
-0.218282 -6.42361 -6.42361
-0.289856 -6.46448 -6.46448
-0.292035 -6.54843 -6.54843
-0.15029 -6.55051 -6.55051
-0.148638 -6.46654 -6.46654
-0.290946 -6.50641 -6.50641
-0.221155 -6.54944 -6.54944
-0.149464 -6.50849 -6.50849
-0.219239 -6.46547 -6.46547
-0.220197 -6.50742 -6.50742
-0.292035 -6.54843 -6.54843
-0.294212 -6.6327 -6.6327
-0.151949 -6.6348 -6.6348
-0.15029 -6.55051 -6.55051
-0.293123 -6.59052 -6.59052
-0.223072 -6.63371 -6.63371
-0.151119 -6.59262 -6.59262
-0.221155 -6.54944 -6.54944
-0.222113 -6.59154 -6.59154
-0.294212 -6.6327 -6.6327
-0.296386 -6.71726 -6.71726
-0.153613 -6.71939 -6.71939
-0.151949 -6.6348 -6.6348
-0.295299 -6.67494 -6.67494
-0.224992 -6.71829 -6.71829
-0.15278 -6.67706 -6.67706
-0.223072 -6.63371 -6.63371
-0.224032 -6.67597 -6.67597
-0.296386 -6.71726 -6.71726
-0.298559 -6.80213 -6.80213
-0.155283 -6.80428 -6.80428
-0.153613 -6.71939 -6.71939
-0.297473 -6.75966 -6.75966
-0.226913 -6.80318 -6.80318
-0.154447 -6.7618 -6.7618
-0.224992 -6.71829 -6.71829
-0.225952 -6.7607 -6.7607
-0.298559 -6.80213 -6.80213
-0.300729 -6.8873 -6.8873
-0.156959 -6.88947 -6.88947
-0.155283 -6.80428 -6.80428
-0.299644 -6.84468 -6.84468
-0.228836 -6.88835 -6.88835
-0.15612 -6.84684 -6.84684
-0.226913 -6.80318 -6.80318
-0.227874 -6.84573 -6.84573
-0.300729 -6.8873 -6.8873
-0.302896 -6.97276 -6.97276
-0.15864 -6.97494 -6.97494
-0.156959 -6.88947 -6.88947
-0.301813 -6.92999 -6.92999
-0.230761 -6.97382 -6.97382
-0.157799 -6.93217 -6.93217
-0.228836 -6.88835 -6.88835
-0.229798 -6.93105 -6.93105
-0.302896 -6.97276 -6.97276
-0.305061 -7.0585 -7.0585
-0.160327 -7.0607 -7.0607
-0.15864 -6.97494 -6.97494
-0.303979 -7.01559 -7.01559
-0.232687 -7.05957 -7.05957
-0.159483 -7.01779 -7.01779
-0.230761 -6.97382 -6.97382
-0.231723 -7.01666 -7.01666
-0.305061 -7.0585 -7.0585
-0.307224 -7.14452 -7.14452
-0.16202 -7.14675 -7.14675
-0.160327 -7.0607 -7.0607
-0.306143 -7.10147 -7.10147
-0.234614 -7.1456 -7.1456
-0.161173 -7.10369 -7.10369
-0.232687 -7.05957 -7.05957
-0.23365 -7.10255 -7.10255
-0.307224 -7.14452 -7.14452
-0.309383 -7.23082 -7.23082
-0.163718 -7.23306 -7.23306
-0.16202 -7.14675 -7.14675
-0.308304 -7.18764 -7.18764
-0.236542 -7.23191 -7.23191
-0.162868 -7.18987 -7.18987
-0.234614 -7.1456 -7.1456
-0.235578 -7.18872 -7.18872
-0.309383 -7.23082 -7.23082
-0.311539 -7.31739 -7.31739
-0.16542 -7.31965 -7.31965
-0.163718 -7.23306 -7.23306
-0.310461 -7.27407 -7.27407
-0.238472 -7.31849 -7.31849
-0.164568 -7.27633 -7.27633
-0.236542 -7.23191 -7.23191
-0.237507 -7.27517 -7.27517
-0.311539 -7.31739 -7.31739
-0.313692 -7.40423 -7.40423
-0.167128 -7.40651 -7.40651
-0.16542 -7.31965 -7.31965
-0.312616 -7.36077 -7.36077
-0.240402 -7.40534 -7.40534
-0.166274 -7.36305 -7.36305
-0.238472 -7.31849 -7.31849
-0.239437 -7.36188 -7.36188
-0.313692 -7.40423 -7.40423
-0.315842 -7.49132 -7.49132
-0.168841 -7.49363 -7.49363
-0.167128 -7.40651 -7.40651
-0.314767 -7.44774 -7.44774
-0.242334 -7.49245 -7.49245
-0.167984 -7.45004 -7.45004
-0.240402 -7.40534 -7.40534
-0.241368 -7.44886 -7.44886
-0.315842 -7.49132 -7.49132
-0.317988 -7.57868 -7.57868
-0.170559 -7.581 -7.581
-0.168841 -7.49363 -7.49363
-0.316915 -7.53497 -7.53497
-0.244266 -7.57981 -7.57981
-0.169699 -7.53728 -7.53728
-0.242334 -7.49245 -7.49245
-0.2433 -7.5361 -7.5361
-0.317988 -7.57868 -7.57868
-0.320131 -7.66629 -7.66629
-0.172281 -7.66863 -7.66863
-0.170559 -7.581 -7.581
-0.31906 -7.62245 -7.62245
-0.246198 -7.66743 -7.66743
-0.171419 -7.62478 -7.62478
-0.244266 -7.57981 -7.57981
-0.245232 -7.62359 -7.62359
-0.320131 -7.66629 -7.66629
-0.322269 -7.75414 -7.75414
-0.174007 -7.7565 -7.7565
-0.172281 -7.66863 -7.66863
-0.3212 -7.71018 -7.71018
-0.248131 -7.75529 -7.75529
-0.173143 -7.71253 -7.71253
-0.246198 -7.66743 -7.66743
-0.247164 -7.71133 -7.71133
-0.322269 -7.75414 -7.75414
-0.324404 -7.84224 -7.84224
-0.175738 -7.84461 -7.84461
-0.174007 -7.7565 -7.7565
-0.323337 -7.79816 -7.79816
-0.250064 -7.8434 -7.8434
-0.174872 -7.80053 -7.80053
-0.248131 -7.75529 -7.75529
-0.249097 -7.79932 -7.79932
-0.324404 -7.84224 -7.84224
-0.326535 -7.93057 -7.93057
-0.177473 -7.93297 -7.93297
-0.175738 -7.84461 -7.84461
-0.32547 -7.88637 -7.88637
-0.251996 -7.93174 -7.93174
-0.176605 -7.88876 -7.88876
-0.250064 -7.8434 -7.8434
-0.25103 -7.88754 -7.88754
-0.326535 -7.93057 -7.93057
-0.328662 -8.01914 -8.01914
-0.179212 -8.02155 -8.02155
-0.177473 -7.93297 -7.93297
-0.327599 -7.97482 -7.97482
-0.253929 -8.02032 -8.02032
-0.178342 -7.97723 -7.97723
-0.251996 -7.93174 -7.93174
-0.252963 -7.976 -7.976
-0.328662 -8.01914 -8.01914
-0.330785 -8.10793 -8.10793
-0.180954 -8.11036 -8.11036
-0.179212 -8.02155 -8.02155
-0.329724 -8.0635 -8.0635
-0.255862 -8.10912 -8.10912
-0.180082 -8.06593 -8.06593
-0.253929 -8.02032 -8.02032
-0.254896 -8.06469 -8.06469
-0.330785 -8.10793 -8.10793
-0.332903 -8.19695 -8.19695
-0.182701 -8.19939 -8.19939
-0.180954 -8.11036 -8.11036
-0.331844 -8.15241 -8.15241
-0.257794 -8.19815 -8.19815
-0.181827 -8.15485 -8.15485
-0.255862 -8.10912 -8.10912
-0.256828 -8.15361 -8.15361
-0.332903 -8.19695 -8.19695
-0.335016 -8.28618 -8.28618
-0.184451 -8.28865 -8.28865
-0.182701 -8.19939 -8.19939
-0.33396 -8.24154 -8.24154
-0.259726 -8.28739 -8.28739
-0.183575 -8.24399 -8.24399
-0.257794 -8.19815 -8.19815
-0.25876 -8.24274 -8.24274
-0.335016 -8.28618 -8.28618
-0.337125 -8.37563 -8.37563
-0.186204 -8.37811 -8.37811
-0.184451 -8.28865 -8.28865
-0.336071 -8.33088 -8.33088
-0.261657 -8.37685 -8.37685
-0.185327 -8.33335 -8.33335
-0.259726 -8.28739 -8.28739
-0.260692 -8.33209 -8.33209
-0.337125 -8.37563 -8.37563
-0.339229 -8.46529 -8.46529
-0.187961 -8.46779 -8.46779
-0.186204 -8.37811 -8.37811
-0.338177 -8.42043 -8.42043
-0.263587 -8.46651 -8.46651
-0.187082 -8.42292 -8.42292
-0.261657 -8.37685 -8.37685
-0.262622 -8.42166 -8.42166
-0.339229 -8.46529 -8.46529
-0.341327 -8.55515 -8.55515
-0.18972 -8.55766 -8.55766
-0.187961 -8.46779 -8.46779
-0.340278 -8.51019 -8.51019
-0.265516 -8.55638 -8.55638
-0.18884 -8.5127 -8.5127
-0.263587 -8.46651 -8.46651
-0.264552 -8.51142 -8.51142
-0.341327 -8.55515 -8.55515
-0.343421 -8.64521 -8.64521
-0.191483 -8.64774 -8.64774
-0.18972 -8.55766 -8.55766
-0.342375 -8.60015 -8.60015
-0.267444 -8.64645 -8.64645
-0.190601 -8.60267 -8.60267
-0.265516 -8.55638 -8.55638
-0.266481 -8.60139 -8.60139
-0.343421 -8.64521 -8.64521
-0.345509 -8.73546 -8.73546
-0.193249 -8.73801 -8.73801
-0.191483 -8.64774 -8.64774
-0.344465 -8.69031 -8.69031
-0.269371 -8.73671 -8.73671
-0.192366 -8.69285 -8.69285
-0.267444 -8.64645 -8.64645
-0.268408 -8.69156 -8.69156
-0.345509 -8.73546 -8.73546
-0.347591 -8.8259 -8.8259
-0.195017 -8.82846 -8.82846
-0.193249 -8.73801 -8.73801
-0.34655 -8.78066 -8.78066
-0.271296 -8.82716 -8.82716
-0.194132 -8.78321 -8.78321
-0.269371 -8.73671 -8.73671
-0.270334 -8.78191 -8.78191
-0.347591 -8.8259 -8.8259
-0.349668 -8.91653 -8.91653
-0.196787 -8.9191 -8.9191
-0.195017 -8.82846 -8.82846
-0.34863 -8.87119 -8.87119
-0.27322 -8.9178 -8.9178
-0.195902 -8.87376 -8.87376
-0.271296 -8.82716 -8.82716
-0.272258 -8.87246 -8.87246
-0.349668 -8.91653 -8.91653
-0.351739 -9.00733 -9.00733
-0.19856 -9.00992 -9.00992
-0.196787 -8.9191 -8.9191
-0.350704 -8.96191 -8.96191
-0.275142 -9.00861 -9.00861
-0.197673 -8.96449 -8.96449
-0.27322 -8.9178 -8.9178
-0.274181 -8.96318 -8.96318
-0.351739 -9.00733 -9.00733
-0.353804 -9.09831 -9.09831
-0.200335 -9.10092 -9.10092
-0.19856 -9.00992 -9.00992
-0.352772 -9.0528 -9.0528
-0.277062 -9.0996 -9.0996
-0.199447 -9.0554 -9.0554
-0.275142 -9.00861 -9.00861
-0.276102 -9.05408 -9.05408
-0.353804 -9.09831 -9.09831
-0.355862 -9.18947 -9.18947
-0.202112 -9.19208 -9.19208
-0.200335 -9.10092 -9.10092
-0.354834 -9.14387 -9.14387
-0.27898 -9.19076 -9.19076
-0.201223 -9.14648 -9.14648
-0.277062 -9.0996 -9.0996
-0.278021 -9.14516 -9.14516
-0.355862 -9.18947 -9.18947
-0.357915 -9.28078 -9.28078
-0.203891 -9.28341 -9.28341
-0.202112 -9.19208 -9.19208
-0.356889 -9.2351 -9.2351
-0.280895 -9.28208 -9.28208
-0.203001 -9.23773 -9.23773
-0.27898 -9.19076 -9.19076
-0.279938 -9.2364 -9.2364
-0.357915 -9.28078 -9.28078
-0.35996 -9.37226 -9.37226
-0.205671 -9.3749 -9.3749
-0.203891 -9.28341 -9.28341
-0.358938 -9.3265 -9.3265
-0.282808 -9.37356 -9.37356
-0.204781 -9.32914 -9.32914
-0.280895 -9.28208 -9.28208
-0.281852 -9.3278 -9.3278
-0.35996 -9.37226 -9.37226
-0.361999 -9.46389 -9.46389
-0.207453 -9.46655 -9.46655
-0.205671 -9.3749 -9.3749
-0.360981 -9.41805 -9.41805
-0.284719 -9.4652 -9.4652
-0.206562 -9.4207 -9.4207
-0.282808 -9.37356 -9.37356
-0.283764 -9.41936 -9.41936
-0.361999 -9.46389 -9.46389
-0.364032 -9.55567 -9.55567
-0.209236 -9.55834 -9.55834
-0.207453 -9.46655 -9.46655
-0.363016 -9.50976 -9.50976
-0.286627 -9.55699 -9.55699
-0.208345 -9.51242 -9.51242
-0.284719 -9.4652 -9.4652
-0.285673 -9.51108 -9.51108
-0.364032 -9.55567 -9.55567
-0.366057 -9.64759 -9.64759
-0.211021 -9.65028 -9.65028
-0.209236 -9.55834 -9.55834
-0.365045 -9.60161 -9.60161
-0.288532 -9.64892 -9.64892
-0.210129 -9.60429 -9.60429
-0.286627 -9.55699 -9.55699
-0.28758 -9.60294 -9.60294
-0.366057 -9.64759 -9.64759
-0.368075 -9.73966 -9.73966
-0.212806 -9.74236 -9.74236
-0.211021 -9.65028 -9.65028
-0.367067 -9.69361 -9.69361
-0.290434 -9.74099 -9.74099
-0.211914 -9.6963 -9.6963
-0.288532 -9.64892 -9.64892
-0.289483 -9.69494 -9.69494
-0.368075 -9.73966 -9.73966
-0.370086 -9.83186 -9.83186
-0.214593 -9.83457 -9.83457
-0.212806 -9.74236 -9.74236
-0.369081 -9.78574 -9.78574
-0.292332 -9.8332 -9.8332
-0.213699 -9.78845 -9.78845
-0.290434 -9.74099 -9.74099
-0.291383 -9.78708 -9.78708
-0.370086 -9.83186 -9.83186
-0.372089 -9.9242 -9.9242
-0.21638 -9.92692 -9.92692
-0.214593 -9.83457 -9.83457
-0.371088 -9.87801 -9.87801
-0.294227 -9.92554 -9.92554
-0.215486 -9.88073 -9.88073
-0.292332 -9.8332 -9.8332
-0.29328 -9.87936 -9.87936
-0.372089 -9.9242 -9.9242
-0.374085 -10.0167 -10.0167
-0.218167 -10.0194 -10.0194
-0.21638 -9.92692 -9.92692
-0.373088 -9.97041 -9.97041
-0.296119 -10.018 -10.018
-0.217273 -9.97314 -9.97314
-0.294227 -9.92554 -9.92554
-0.295173 -9.97176 -9.97176
-0.374085 -10.0167 -10.0167
-0.376072 -10.1092 -10.1092
-0.219955 -10.112 -10.112
-0.218167 -10.0194 -10.0194
-0.37508 -10.0629 -10.0629
-0.298006 -10.1106 -10.1106
-0.219061 -10.0657 -10.0657
-0.296119 -10.018 -10.018
-0.297063 -10.0643 -10.0643
-0.376072 -10.1092 -10.1092
-0.378052 -10.2019 -10.2019
-0.221743 -10.2047 -10.2047
-0.219955 -10.112 -10.112
-0.377063 -10.1556 -10.1556
-0.29989 -10.2033 -10.2033
-0.220849 -10.1583 -10.1583
-0.298006 -10.1106 -10.1106
-0.298949 -10.1569 -10.1569
-0.378052 -10.2019 -10.2019
-0.380024 -10.2947 -10.2947
-0.22353 -10.2975 -10.2975
-0.221743 -10.2047 -10.2047
-0.379039 -10.2483 -10.2483
-0.30177 -10.2961 -10.2961
-0.222636 -10.2511 -10.2511
-0.29989 -10.2033 -10.2033
-0.300831 -10.2497 -10.2497
-0.380024 -10.2947 -10.2947
-0.381987 -10.3877 -10.3877
-0.225318 -10.3904 -10.3904
-0.22353 -10.2975 -10.2975
-0.381006 -10.3412 -10.3412
-0.303645 -10.389 -10.389
-0.224424 -10.344 -10.344
-0.30177 -10.2961 -10.2961
-0.302708 -10.3426 -10.3426
-0.381987 -10.3877 -10.3877
-0.383941 -10.4807 -10.4807
-0.227105 -10.4835 -10.4835
-0.225318 -10.3904 -10.3904
-0.382965 -10.4342 -10.4342
-0.305516 -10.4821 -10.4821
-0.226212 -10.4369 -10.4369
-0.303645 -10.389 -10.389
-0.304581 -10.4355 -10.4355
-0.383941 -10.4807 -10.4807
-0.385887 -10.5738 -10.5738
-0.228892 -10.5766 -10.5766
-0.227105 -10.4835 -10.4835
-0.384915 -10.5272 -10.5272
-0.307383 -10.5752 -10.5752
-0.227999 -10.53 -10.53
-0.305516 -10.4821 -10.4821
-0.30645 -10.5286 -10.5286
-0.385887 -10.5738 -10.5738
-0.387824 -10.667 -10.667
-0.230678 -10.6698 -10.6698
-0.228892 -10.5766 -10.5766
-0.386857 -10.6204 -10.6204
-0.309244 -10.6684 -10.6684
-0.229785 -10.6232 -10.6232
-0.307383 -10.5752 -10.5752
-0.308314 -10.6218 -10.6218
-0.387824 -10.667 -10.667
-0.389752 -10.7603 -10.7603
-0.232463 -10.7631 -10.7631
-0.230678 -10.6698 -10.6698
-0.388789 -10.7136 -10.7136
-0.311101 -10.7617 -10.7617
-0.231571 -10.7165 -10.7165
-0.309244 -10.6684 -10.6684
-0.310173 -10.715 -10.715
-0.389752 -10.7603 -10.7603
-0.391671 -10.8537 -10.8537
-0.234247 -10.8565 -10.8565
-0.232463 -10.7631 -10.7631
-0.390713 -10.807 -10.807
-0.312952 -10.8551 -10.8551
-0.233355 -10.8098 -10.8098
-0.311101 -10.7617 -10.7617
-0.312027 -10.8084 -10.8084
-0.391671 -10.8537 -10.8537
-0.39358 -10.9471 -10.9471
-0.23603 -10.95 -10.95
-0.234247 -10.8565 -10.8565
-0.392627 -10.9004 -10.9004
-0.314798 -10.9485 -10.9485
-0.235139 -10.9032 -10.9032
-0.312952 -10.8551 -10.8551
-0.313876 -10.9018 -10.9018
-0.39358 -10.9471 -10.9471
-0.39548 -11.0407 -11.0407
-0.237812 -11.0435 -11.0435
-0.23603 -10.95 -10.95
-0.394531 -10.9939 -10.9939
-0.316639 -11.0421 -11.0421
-0.236921 -10.9967 -10.9967
-0.314798 -10.9485 -10.9485
-0.315719 -10.9953 -10.9953
-0.39548 -11.0407 -11.0407
-0.39737 -11.1343 -11.1343
-0.239591 -11.1371 -11.1371
-0.237812 -11.0435 -11.0435
-0.396426 -11.0875 -11.0875
-0.318474 -11.1357 -11.1357
-0.238702 -11.0903 -11.0903
-0.316639 -11.0421 -11.0421
-0.317557 -11.0889 -11.0889
-0.39737 -11.1343 -11.1343
-0.39925 -11.2279 -11.2279
-0.24137 -11.2308 -11.2308
-0.239591 -11.1371 -11.1371
-0.398311 -11.1811 -11.1811
-0.320303 -11.2293 -11.2293
-0.240481 -11.1839 -11.1839
-0.318474 -11.1357 -11.1357
-0.319389 -11.1825 -11.1825
-0.39925 -11.2279 -11.2279
-0.40112 -11.3216 -11.3216
-0.243146 -11.3245 -11.3245
-0.24137 -11.2308 -11.2308
-0.400186 -11.2748 -11.2748
-0.322126 -11.3231 -11.3231
-0.242258 -11.2776 -11.2776
-0.320303 -11.2293 -11.2293
-0.321215 -11.2762 -11.2762
-0.40112 -11.3216 -11.3216
-0.402979 -11.4154 -11.4154
-0.24492 -11.4183 -11.4183
-0.243146 -11.3245 -11.3245
-0.402051 -11.3685 -11.3685
-0.323942 -11.4168 -11.4168
-0.244033 -11.3714 -11.3714
-0.322126 -11.3231 -11.3231
-0.323035 -11.37 -11.37
-0.402979 -11.4154 -11.4154
-0.404828 -11.5092 -11.5092
-0.246691 -11.5121 -11.5121
-0.24492 -11.4183 -11.4183
-0.403905 -11.4623 -11.4623
-0.325752 -11.5107 -11.5107
-0.245806 -11.4652 -11.4652
-0.323942 -11.4168 -11.4168
-0.324848 -11.4638 -11.4638
-0.404828 -11.5092 -11.5092
-0.406665 -11.6031 -11.6031
-0.24846 -11.606 -11.606
-0.246691 -11.5121 -11.5121
-0.405748 -11.5562 -11.5562
-0.327555 -11.6045 -11.6045
-0.247576 -11.5591 -11.5591
-0.325752 -11.5107 -11.5107
-0.326655 -11.5576 -11.5576
-0.406665 -11.6031 -11.6031
-0.408491 -11.697 -11.697
-0.250225 -11.6999 -11.6999
-0.24846 -11.606 -11.606
-0.407579 -11.6501 -11.6501
-0.32935 -11.6985 -11.6985
-0.249343 -11.6529 -11.6529
-0.327555 -11.6045 -11.6045
-0.328454 -11.6515 -11.6515
-0.408491 -11.697 -11.697
-0.410303 -11.791 -11.791
-0.251987 -11.7939 -11.7939
-0.250225 -11.6999 -11.6999
-0.409398 -11.744 -11.744
-0.331137 -11.7924 -11.7924
-0.251107 -11.7469 -11.7469
-0.32935 -11.6985 -11.6985
-0.330245 -11.7454 -11.7454
-0.410303 -11.791 -11.791
-0.412102 -11.8849 -11.8849
-0.253745 -11.8878 -11.8878
-0.251987 -11.7939 -11.7939
-0.411204 -11.8379 -11.8379
-0.332914 -11.8864 -11.8864
-0.252866 -11.8408 -11.8408
-0.331137 -11.7924 -11.7924
-0.332027 -11.8394 -11.8394
-0.412102 -11.8849 -11.8849
-0.413885 -11.9789 -11.9789
-0.255498 -11.9818 -11.9818
-0.253745 -11.8878 -11.8878
-0.412995 -11.9319 -11.9319
-0.334681 -11.9804 -11.9804
-0.254622 -11.9348 -11.9348
-0.332914 -11.8864 -11.8864
-0.333799 -11.9334 -11.9334
-0.413885 -11.9789 -11.9789
-0.415653 -12.0729 -12.0729
-0.257246 -12.0759 -12.0759
-0.255498 -11.9818 -11.9818
-0.414771 -12.0259 -12.0259
-0.336438 -12.0744 -12.0744
-0.256372 -12.0288 -12.0288
-0.334681 -11.9804 -11.9804
-0.335561 -12.0274 -12.0274
-0.415653 -12.0729 -12.0729
-0.417407 -12.167 -12.167
-0.258992 -12.1699 -12.1699
-0.257246 -12.0759 -12.0759
-0.416531 -12.12 -12.12
-0.338189 -12.1684 -12.1684
-0.25812 -12.1229 -12.1229
-0.336438 -12.0744 -12.0744
-0.337314 -12.1214 -12.1214
-0.417407 -12.167 -12.167
-0.419161 -12.261 -12.261
-0.260737 -12.2639 -12.2639
-0.258992 -12.1699 -12.1699
-0.418284 -12.214 -12.214
-0.339939 -12.2624 -12.2624
-0.259865 -12.2169 -12.2169
-0.338189 -12.1684 -12.1684
-0.339064 -12.2154 -12.2154
-0.419161 -12.261 -12.261
-0.420921 -12.355 -12.355
-0.262483 -12.3578 -12.3578
-0.260737 -12.2639 -12.2639
-0.420039 -12.308 -12.308
-0.341691 -12.3564 -12.3564
-0.26161 -12.3109 -12.3109
-0.339939 -12.2624 -12.2624
-0.340815 -12.3094 -12.3094
0 0 0
-0.000706824 0.00011469 0.00011469
0.000695162 0.000112308 0.000112308
0 0 0
-0.000351919 0.000229657 0.000229657
-5.85795e-06 0.000155218 0.000155218
0.000345918 0.00022832 0.00022832
0 0 0
-3.02838e-06 0.000246695 0.000246695
-0.000706824 0.00011469 0.00011469
-0.00147146 -0.00107638 -0.00107638
0.00144859 -0.0010809 -0.0010809
0.000695162 0.000112308 0.000112308
-0.00108205 -0.000327982 -0.000327982
-1.14438e-05 -0.00100993 -0.00100993
0.00106482 -0.000331405 -0.000331405
-5.85795e-06 0.000155218 0.000155218
-8.63865e-06 -0.000271828 -0.000271828
-0.00147146 -0.00107638 -0.00107638
-0.0022637 -0.00341276 -0.00341276
0.00222887 -0.00341972 -0.00341972
0.00144859 -0.0010809 -0.0010809
-0.0018654 -0.00210918 -0.00210918
-1.7364e-05 -0.00332747 -0.00332747
0.00183671 -0.00211488 -0.00211488
-1.14438e-05 -0.00100993 -0.00100993
-1.433e-05 -0.00203262 -0.00203262
-0.0022637 -0.00341276 -0.00341276
-0.00307377 -0.00679004 -0.00679004
0.00302535 -0.00679982 -0.00679982
0.00222887 -0.00341972 -0.00341972
-0.0026675 -0.004976 -0.004976
-2.41105e-05 -0.00669667 -0.00669667
0.00262613 -0.00498432 -0.00498432
-1.7364e-05 -0.00332747 -0.00332747
-2.06098e-05 -0.0048854 -0.0048854
-0.00307377 -0.00679004 -0.00679004
-0.0038837 -0.0111437 -0.0111437
0.00381931 -0.0111567 -0.0111567
0.00302535 -0.00679982 -0.00679982
-0.00347922 -0.00884741 -0.00884741
-3.20454e-05 -0.0110483 -0.0110483
0.00342315 -0.00885875 -0.00885875
-2.41105e-05 -0.00669667 -0.00669667
-2.79061e-05 -0.00875246 -0.00875246
-0.0038837 -0.0111437 -0.0111437
-0.00469031 -0.0164409 -0.0164409
0.00460683 -0.0164575 -0.0164575
0.00381931 -0.0111567 -0.0111567
-0.00428761 -0.0136757 -0.0136757
-4.15508e-05 -0.0163472 -0.0163472
0.00421412 -0.0136904 -0.0136904
-3.20454e-05 -0.0110483 -0.0110483
-3.65783e-05 -0.0135808 -0.0135808
-0.00469031 -0.0164409 -0.0164409
-0.00549037 -0.0226642 -0.0226642
0.00538391 -0.0226848 -0.0226848
0.00460683 -0.0164575 -0.0164575
-0.00509113 -0.0194374 -0.0194374
-5.2999e-05 -0.0225736 -0.0225736
0.0049967 -0.019456 -0.019456
-4.15508e-05 -0.0163472 -0.0163472
-4.70086e-05 -0.0193452 -0.0193452
-0.00549037 -0.0226642 -0.0226642
-0.00628541 -0.0298052 -0.0298052
0.00615134 -0.0298301 -0.0298301
0.00538391 -0.0226848 -0.0226848
-0.00588844 -0.0261204 -0.0261204
-6.67628e-05 -0.0297181 -0.0297181
0.0057688 -0.0261431 -0.0261431
-5.2999e-05 -0.0225736 -0.0225736
-5.95689e-05 -0.0260315 -0.0260315
-0.00628541 -0.0298052 -0.0298052
-0.00707628 -0.0378583 -0.0378583
0.00690926 -0.037888 -0.037888
0.00615134 -0.0298301 -0.0298301
-0.00668128 -0.033718 -0.033718
-8.31951e-05 -0.0377747 -0.0377747
0.00653145 -0.0337453 -0.0337453
-6.67628e-05 -0.0297181 -0.0297181
-7.46241e-05 -0.0336327 -0.0336327
-0.00707628 -0.0378583 -0.0378583
-0.00786446 -0.0468192 -0.0468192
0.00765849 -0.0468543 -0.0468543
0.00690926 -0.037888 -0.037888
-0.00747064 -0.0422255 -0.0422255
-0.000102632 -0.0467393 -0.0467393
0.00728493 -0.0422579 -0.0422579
-8.31951e-05 -0.0377747 -0.0377747
-9.25177e-05 -0.0421438 -0.0421438
-0.00786446 -0.0468192 -0.0468192
-0.00865084 -0.0566839 -0.0566839
0.00839926 -0.0567247 -0.0567247
0.00765849 -0.0468543 -0.0468543
-0.00825782 -0.0516389 -0.0516389
-0.000125391 -0.0566076 -0.0566076
0.00802992 -0.0516767 -0.0516767
-0.000102632 -0.0467393 -0.0467393
-0.000113577 -0.0515608 -0.0515608
-0.00865084 -0.0566839 -0.0566839
-0.00943621 -0.0674481 -0.0674481
0.00913178 -0.0674951 -0.0674951
0.00839926 -0.0567247 -0.0567247
-0.00904361 -0.0619538 -0.0619538
-0.00015178 -0.0673756 -0.0673756
0.00876655 -0.0619976 -0.0619976
-0.000125391 -0.0566076 -0.0566076
-0.000138113 -0.0618794 -0.0618794
-0.00943621 -0.0674481 -0.0674481
-0.0102211 -0.0791073 -0.0791073
0.00985599 -0.079161 -0.079161
0.00913178 -0.0674951 -0.0674951
-0.00982869 -0.0731661 -0.0731661
-0.000182093 -0.0790388 -0.0790388
0.00949493 -0.0732164 -0.0732164
-0.00015178 -0.0673756 -0.0673756
-0.000166428 -0.0730956 -0.0730956
-0.0102211 -0.0791073 -0.0791073
-0.011006 -0.091657 -0.091657
0.0105717 -0.0917179 -0.0917179
0.00985599 -0.079161 -0.079161
-0.0106135 -0.0852711 -0.0852711
-0.000216619 -0.0915926 -0.0915926
0.0102149 -0.0853283 -0.0853283
-0.000182093 -0.0790388 -0.0790388
-0.000198812 -0.0852047 -0.0852047
-0.011006 -0.091657 -0.091657
-0.0117912 -0.105092 -0.105092
0.0112789 -0.105161 -0.105161
0.0105717 -0.0917179 -0.0917179
-0.0113985 -0.0982642 -0.0982642
-0.000255641 -0.105032 -0.105032
0.0109264 -0.0983289 -0.0983289
-0.000216619 -0.0915926 -0.0915926
-0.00023555 -0.0982021 -0.0982021
-0.0117912 -0.105092 -0.105092
-0.0125771 -0.119409 -0.119409
0.0119771 -0.119486 -0.119486
0.0112789 -0.105161 -0.105161
-0.012184 -0.112141 -0.112141
-0.000299436 -0.119353 -0.119353
0.0116291 -0.112213 -0.112213
-0.000255641 -0.105032 -0.105032
-0.000276924 -0.112083 -0.112083
-0.0125771 -0.119409 -0.119409
-0.0133639 -0.134601 -0.134601
0.0126661 -0.134687 -0.134687
0.0119771 -0.119486 -0.119486
-0.0129704 -0.126896 -0.126896
-0.000348278 -0.134551 -0.134551
0.0123228 -0.126977 -0.126977
-0.000299436 -0.119353 -0.119353
-0.000323209 -0.126843 -0.126843
-0.0133639 -0.134601 -0.134601
-0.0141519 -0.150665 -0.150665
0.0133458 -0.15076 -0.15076
0.0126661 -0.134687 -0.134687
-0.0137577 -0.142525 -0.142525
-0.000402435 -0.15062 -0.15062
0.0130072 -0.142615 -0.142615
-0.000348278 -0.134551 -0.134551
-0.000374675 -0.142477 -0.142477
-0.0141519 -0.150665 -0.150665
-0.0149414 -0.167596 -0.167596
0.0140158 -0.1677 -0.1677
0.0133458 -0.15076 -0.15076
-0.0145465 -0.159023 -0.159023
-0.000462174 -0.167556 -0.167556
0.013682 -0.159122 -0.159122
-0.000402435 -0.15062 -0.15062
-0.000431591 -0.15898 -0.15898
-0.0149414 -0.167596 -0.167596
-0.0157327 -0.185388 -0.185388
0.0146758 -0.185502 -0.185502
0.0140158 -0.1677 -0.1677
-0.0153368 -0.176385 -0.176385
-0.000527754 -0.185353 -0.185353
0.0143471 -0.176494 -0.176494
-0.000462174 -0.167556 -0.167556
-0.000494217 -0.176347 -0.176347
-0.0157327 -0.185388 -0.185388
-0.016526 -0.204037 -0.204037
0.0153257 -0.204162 -0.204162
0.0146758 -0.185502 -0.185502
-0.0161291 -0.194606 -0.194606
-0.000599431 -0.204008 -0.204008
0.0150021 -0.194725 -0.194725
-0.000527754 -0.185353 -0.185353
-0.000562814 -0.194574 -0.194574
-0.016526 -0.204037 -0.204037
-0.0173215 -0.223538 -0.223538
0.0159651 -0.223674 -0.223674
0.0153257 -0.204162 -0.204162
-0.0169235 -0.213681 -0.213681
-0.000677458 -0.223515 -0.223515
0.0156467 -0.213811 -0.213811
-0.000599431 -0.204008 -0.204008
-0.000637635 -0.213656 -0.213656
-0.0173215 -0.223538 -0.223538
-0.0181196 -0.243887 -0.243887
0.0165939 -0.244033 -0.244033
0.0159651 -0.223674 -0.223674
-0.0177202 -0.233607 -0.233607
-0.000762081 -0.24387 -0.24387
0.0162808 -0.233748 -0.233748
-0.000677458 -0.223515 -0.223515
-0.000718929 -0.233587 -0.233587
-0.0181196 -0.243887 -0.243887
-0.0189203 -0.265077 -0.265077
0.0172117 -0.265235 -0.265235
0.0165939 -0.244033 -0.244033
-0.0185196 -0.254377 -0.254377
-0.000853543 -0.265067 -0.265067
0.0169041 -0.254529 -0.254529
-0.000762081 -0.24387 -0.24387
-0.000806942 -0.254363 -0.254363
-0.0189203 -0.265077 -0.265077
-0.0197241 -0.287105 -0.287105
0.0178183 -0.287276 -0.287276
0.0172117 -0.265235 -0.265235
-0.0193218 -0.275987 -0.275987
-0.000952081 -0.287101 -0.287101
0.0175164 -0.276151 -0.276151
-0.000853543 -0.265067 -0.265067
-0.000901913 -0.27598 -0.27598
-0.0197241 -0.287105 -0.287105
-0.0205311 -0.309966 -0.309966
0.0184136 -0.310149 -0.310149
0.0178183 -0.287276 -0.287276
-0.0201272 -0.298432 -0.298432
-0.00105793 -0.309969 -0.309969
0.0181174 -0.298608 -0.298608
-0.000952081 -0.287101 -0.287101
-0.00100408 -0.298431 -0.298431
-0.0205311 -0.309966 -0.309966
-0.0213415 -0.333655 -0.333655
0.0189972 -0.33385 -0.33385
0.0184136 -0.310149 -0.310149
-0.0209359 -0.321707 -0.321707
-0.00117132 -0.333664 -0.333664
0.0187068 -0.321896 -0.321896
-0.00105793 -0.309969 -0.309969
-0.00111367 -0.321713 -0.321713
-0.0213415 -0.333655 -0.333655
-0.0221556 -0.358166 -0.358166
0.0195689 -0.358375 -0.358375
0.0189972 -0.33385 -0.33385
-0.0217481 -0.345808 -0.345808
-0.00129246 -0.358183 -0.358183
0.0192845 -0.34601 -0.34601
-0.00117132 -0.333664 -0.333664
-0.00123091 -0.345821 -0.345821
-0.0221556 -0.358166 -0.358166
-0.0229736 -0.383496 -0.383496
0.0201286 -0.383718 -0.383718
0.0195689 -0.358375 -0.358375
-0.0225641 -0.370729 -0.370729
-0.00142159 -0.38352 -0.38352
0.0198503 -0.370944 -0.370944
-0.00129246 -0.358183 -0.358183
-0.00135602 -0.370749 -0.370749
-0.0229736 -0.383496 -0.383496
-0.0237957 -0.409639 -0.409639
0.020676 -0.409875 -0.409875
0.0201286 -0.383718 -0.383718
-0.0233841 -0.396466 -0.396466
-0.00155892 -0.40967 -0.40967
0.0204039 -0.396695 -0.396695
-0.00142159 -0.38352 -0.38352
-0.00148922 -0.396494 -0.396494
-0.0237957 -0.409639 -0.409639
-0.0246221 -0.43659 -0.43659
0.0212109 -0.436841 -0.436841
0.020676 -0.409875 -0.409875
-0.0242084 -0.423014 -0.423014
-0.00170464 -0.436629 -0.436629
0.020945 -0.423257 -0.423257
-0.00155892 -0.40967 -0.40967
-0.00163072 -0.423049 -0.423049
-0.0246221 -0.43659 -0.43659
-0.025453 -0.464345 -0.464345
0.0217331 -0.46461 -0.46461
0.0212109 -0.436841 -0.436841
-0.025037 -0.450367 -0.450367
-0.00185898 -0.464392 -0.464392
0.0214736 -0.450625 -0.450625
-0.00170464 -0.436629 -0.436629
-0.00178073 -0.450411 -0.450411
-0.025453 -0.464345 -0.464345
-0.0262887 -0.492899 -0.492899
0.0222424 -0.493179 -0.493179
0.0217331 -0.46461 -0.46461
-0.0258703 -0.478522 -0.478522
-0.00202213 -0.492954 -0.492954
0.0219894 -0.478795 -0.478795
-0.00185898 -0.464392 -0.464392
-0.00193944 -0.478573 -0.478573
-0.0262887 -0.492899 -0.492899
-0.0271292 -0.522246 -0.522246
0.0227386 -0.522542 -0.522542
0.0222424 -0.493179 -0.493179
-0.0267083 -0.507473 -0.507473
-0.00219428 -0.52231 -0.52231
0.0224922 -0.507761 -0.507761
-0.00202213 -0.492954 -0.492954
-0.00210707 -0.507533 -0.507533
-0.0271292 -0.522246 -0.522246
-0.0279749 -0.552383 -0.552383
0.0232215 -0.552694 -0.552694
0.0227386 -0.522542 -0.522542
-0.0275514 -0.537216 -0.537216
-0.00237564 -0.552455 -0.552455
0.0229818 -0.53752 -0.53752
-0.00219428 -0.52231 -0.52231
-0.0022838 -0.537284 -0.537284
-0.0279749 -0.552383 -0.552383
-0.0288258 -0.583304 -0.583304
0.023691 -0.583631 -0.583631
0.0232215 -0.552694 -0.552694
-0.0283997 -0.567746 -0.567746
-0.00256637 -0.583384 -0.583384
0.023458 -0.568065 -0.568065
-0.00237564 -0.552455 -0.552455
-0.00246982 -0.567822 -0.567822
-0.0288258 -0.583304 -0.583304
-0.0296823 -0.615004 -0.615004
0.0241468 -0.615347 -0.615347
0.023691 -0.583631 -0.583631
-0.0292534 -0.599057 -0.599057
-0.00276667 -0.615093 -0.615093
0.0239206 -0.599392 -0.599392
-0.00256637 -0.583384 -0.583384
-0.00266531 -0.599141 -0.599141
-0.0296823 -0.615004 -0.615004
-0.0305443 -0.647479 -0.647479
0.0245887 -0.647839 -0.647839
0.0241468 -0.615347 -0.615347
-0.0301126 -0.631145 -0.631145
-0.00297671 -0.647577 -0.647577
0.0243695 -0.631496 -0.631496
-0.00276667 -0.615093 -0.615093
-0.00287046 -0.631238 -0.631238
-0.0305443 -0.647479 -0.647479
-0.0314122 -0.680723 -0.680723
0.0250167 -0.6811 -0.6811
0.0245887 -0.647839 -0.647839
-0.0309775 -0.664005 -0.664005
-0.00319668 -0.68083 -0.68083
0.0248045 -0.664373 -0.664373
-0.00297671 -0.647577 -0.647577
-0.00308545 -0.664107 -0.664107
-0.0314122 -0.680723 -0.680723
-0.0322861 -0.714733 -0.714733
0.0254304 -0.715127 -0.715127
0.0250167 -0.6811 -0.6811
-0.0318484 -0.697633 -0.697633
-0.00342672 -0.714848 -0.714848
0.0252253 -0.698018 -0.698018
-0.00319668 -0.68083 -0.68083
-0.00331043 -0.697744 -0.697744
-0.0322861 -0.714733 -0.714733
-0.0331662 -0.749502 -0.749502
0.0258298 -0.749913 -0.749913
0.0254304 -0.715127 -0.715127
-0.0327254 -0.732023 -0.732023
-0.00366702 -0.749627 -0.749627
0.0256319 -0.732425 -0.732425
-0.00342672 -0.714848 -0.714848
-0.00354558 -0.732143 -0.732143
-0.0331662 -0.749502 -0.749502
-0.0340526 -0.785027 -0.785027
0.0262148 -0.785455 -0.785455
0.0258298 -0.749913 -0.749913
-0.0336086 -0.76717 -0.76717
-0.00391773 -0.785161 -0.785161
0.0260241 -0.76759 -0.76759
-0.00366702 -0.749627 -0.749627
-0.00379107 -0.7673 -0.7673
-0.0340526 -0.785027 -0.785027
-0.0349454 -0.821302 -0.821302
0.026585 -0.821748 -0.821748
0.0262148 -0.785455 -0.785455
-0.0344982 -0.803071 -0.803071
-0.00417901 -0.821445 -0.821445
0.0264017 -0.803508 -0.803508
-0.00391773 -0.785161 -0.785161
-0.00404704 -0.80321 -0.80321
-0.0349454 -0.821302 -0.821302
-0.0358449 -0.858322 -0.858322
0.0269405 -0.858787 -0.858787
0.026585 -0.821748 -0.821748
-0.0353943 -0.839719 -0.839719
-0.004451 -0.858475 -0.858475
0.0267646 -0.840175 -0.840175
-0.00417901 -0.821445 -0.821445
-0.00431365 -0.839867 -0.839867
-0.0358449 -0.858322 -0.858322
-0.0367511 -0.896083 -0.896083
0.027281 -0.896566 -0.896566
0.0269405 -0.858787 -0.858787
-0.0362971 -0.87711 -0.87711
-0.00473386 -0.896246 -0.896246
0.0271126 -0.877584 -0.877584
-0.004451 -0.858475 -0.858475
-0.00459106 -0.877268 -0.877268
-0.0367511 -0.896083 -0.896083
-0.0376643 -0.93458 -0.93458
0.0276064 -0.935082 -0.935082
0.027281 -0.896566 -0.896566
-0.0372068 -0.91524 -0.91524
-0.00502773 -0.934752 -0.934752
0.0274456 -0.915732 -0.915732
-0.00473386 -0.896246 -0.896246
-0.00487941 -0.915407 -0.915407
-0.0376643 -0.93458 -0.93458
-0.0385845 -0.973807 -0.973807
0.0279165 -0.974328 -0.974328
0.0276064 -0.935082 -0.935082
-0.0381235 -0.954103 -0.954103
-0.00533274 -0.97399 -0.97399
0.0277634 -0.954614 -0.954614
-0.00502773 -0.934752 -0.934752
-0.00517883 -0.95428 -0.95428
-0.0385845 -0.973807 -0.973807
-0.0395119 -1.01376 -1.01376
0.0282113 -1.0143 -1.0143
0.0279165 -0.974328 -0.974328
-0.0390473 -0.993694 -0.993694
-0.00564904 -1.01395 -1.01395
0.0280658 -0.994224 -0.994224
-0.00533274 -0.97399 -0.97399
-0.00548947 -0.993882 -0.993882
-0.0395119 -1.01376 -1.01376
-0.0404466 -1.05444 -1.05444
0.0284906 -1.055 -1.055
0.0282113 -1.0143 -1.0143
-0.0399783 -1.03401 -1.03401
-0.00597675 -1.05464 -1.05464
0.0283529 -1.03456 -1.03456
-0.00564904 -1.01395 -1.01395
-0.00581146 -1.03421 -1.03421
-0.0404466 -1.05444 -1.05444
-0.0413888 -1.09583 -1.09583
0.0287542 -1.09641 -1.09641
0.0284906 -1.055 -1.055
-0.0409168 -1.07504 -1.07504
-0.006316 -1.09604 -1.09604
0.0286244 -1.07561 -1.07561
-0.00597675 -1.05464 -1.05464
-0.00614492 -1.07525 -1.07525
-0.0413888 -1.09583 -1.09583
-0.0423385 -1.13793 -1.13793
0.0290021 -1.13853 -1.13853
0.0287542 -1.09641 -1.09641
-0.0418627 -1.11679 -1.11679
-0.00666691 -1.13815 -1.13815
0.0288802 -1.11738 -1.11738
-0.006316 -1.09604 -1.09604
-0.00648999 -1.11701 -1.11701
-0.0423385 -1.13793 -1.13793
-0.043296 -1.18074 -1.18074
0.0292342 -1.18136 -1.18136
0.0290021 -1.13853 -1.13853
-0.0428163 -1.15925 -1.15925
-0.0070296 -1.18097 -1.18097
0.0291201 -1.15986 -1.15986
-0.00666691 -1.13815 -1.13815
-0.00684677 -1.15948 -1.15948
-0.043296 -1.18074 -1.18074
-0.0442612 -1.22425 -1.22425
0.0294502 -1.22489 -1.22489
0.0292342 -1.18136 -1.18136
-0.0437776 -1.20241 -1.20241
-0.00740418 -1.2245 -1.2245
0.0293442 -1.20304 -1.20304
-0.0070296 -1.18097 -1.18097
-0.0072154 -1.20265 -1.20265
-0.0442612 -1.22425 -1.22425
-0.0452343 -1.26846 -1.26846
0.0296501 -1.26912 -1.26912
0.0294502 -1.22489 -1.22489
-0.0447468 -1.24627 -1.24627
-0.00779077 -1.26872 -1.26872
0.0295522 -1.24692 -1.24692
-0.00740418 -1.2245 -1.2245
-0.00759597 -1.24652 -1.24652
-0.0452343 -1.26846 -1.26846
-0.0462155 -1.31336 -1.31336
0.0298339 -1.31404 -1.31404
0.0296501 -1.26912 -1.26912
-0.0457239 -1.29083 -1.29083
-0.00818947 -1.31363 -1.31363
0.029744 -1.29149 -1.29149
-0.00779077 -1.26872 -1.26872
-0.0079886 -1.29109 -1.29109
-0.0462155 -1.31336 -1.31336
-0.0472048 -1.35895 -1.35895
0.0300013 -1.35965 -1.35965
0.0298339 -1.31404 -1.31404
-0.0467091 -1.33607 -1.33607
-0.00860037 -1.35923 -1.35923
0.0299196 -1.33676 -1.33676
-0.00818947 -1.31363 -1.31363
-0.00839339 -1.33634 -1.33634
-0.0472048 -1.35895 -1.35895
-0.0482023 -1.40522 -1.40522
0.0301524 -1.40594 -1.40594
0.0300013 -1.35965 -1.35965
-0.0477025 -1.382 -1.382
-0.00902359 -1.40551 -1.40551
0.0300789 -1.38271 -1.38271
-0.00860037 -1.35923 -1.35923
-0.00881044 -1.38228 -1.38228
-0.0482023 -1.40522 -1.40522
-0.0492081 -1.45217 -1.45217
0.0302869 -1.45291 -1.45291
0.0301524 -1.40594 -1.40594
-0.0487041 -1.42861 -1.42861
-0.00945922 -1.45247 -1.45247
0.0302217 -1.42934 -1.42934
-0.00902359 -1.40551 -1.40551
-0.00923985 -1.4289 -1.4289
-0.0492081 -1.45217 -1.45217
-0.0502223 -1.49979 -1.49979
0.0304049 -1.50055 -1.50055
0.0302869 -1.45291 -1.45291
-0.0497141 -1.4759 -1.4759
-0.00990734 -1.5001 -1.5001
0.030348 -1.47665 -1.47665
-0.00945922 -1.45247 -1.45247
-0.00968171 -1.4762 -1.4762
-0.0502223 -1.49979 -1.49979
-0.051245 -1.54808 -1.54808
0.0305062 -1.54887 -1.54887
0.0304049 -1.50055 -1.50055
-0.0507326 -1.52385 -1.52385
-0.010368 -1.5484 -1.5484
0.0304576 -1.52463 -1.52463
-0.00990734 -1.5001 -1.5001
-0.0101361 -1.52417 -1.52417
-0.051245 -1.54808 -1.54808
-0.0522763 -1.59703 -1.59703
0.0305907 -1.59784 -1.59784
0.0305062 -1.54887 -1.54887
-0.0517595 -1.57247 -1.57247
-0.0108414 -1.59737 -1.59737
0.0305505 -1.57327 -1.57327
-0.010368 -1.5484 -1.5484
-0.0106031 -1.5728 -1.5728
-0.0522763 -1.59703 -1.59703
-0.0533162 -1.64664 -1.64664
0.0306584 -1.64747 -1.64747
0.0305907 -1.59784 -1.59784
-0.0527951 -1.62176 -1.62176
-0.0113275 -1.64699 -1.64699
0.0306266 -1.62257 -1.62257
-0.0108414 -1.59737 -1.59737
-0.0110829 -1.6221 -1.6221
-0.0533162 -1.64664 -1.64664
-0.0543648 -1.69691 -1.69691
0.0307092 -1.69776 -1.69776
0.0306584 -1.64747 -1.64747
-0.0538394 -1.6717 -1.6717
-0.0118264 -1.69726 -1.69726
0.0306859 -1.67253 -1.67253
-0.0113275 -1.64699 -1.64699
-0.0115754 -1.67204 -1.67204
-0.0543648 -1.69691 -1.69691
-0.0554223 -1.74782 -1.74782
0.030743 -1.74869 -1.74869
0.0307092 -1.69776 -1.69776
-0.0548925 -1.72228 -1.72228
-0.0123383 -1.74819 -1.74819
0.0307282 -1.72314 -1.72314
-0.0118264 -1.69726 -1.69726
-0.0120807 -1.72265 -1.72265
-0.0554223 -1.74782 -1.74782
-0.0564886 -1.79938 -1.79938
0.0307597 -1.80027 -1.80027
0.030743 -1.74869 -1.74869
-0.0559543 -1.77352 -1.77352
-0.012863 -1.79976 -1.79976
0.0307535 -1.7744 -1.7744
-0.0123383 -1.74819 -1.74819
-0.012599 -1.77389 -1.77389
-0.0564886 -1.79938 -1.79938
-0.0575639 -1.85157 -1.85157
0.0307594 -1.85249 -1.85249
0.0307597 -1.80027 -1.80027
-0.0570251 -1.8254 -1.8254
-0.0134008 -1.85196 -1.85196
0.0307617 -1.8263 -1.8263
-0.012863 -1.79976 -1.79976
-0.0131303 -1.82578 -1.82578
-0.0575639 -1.85157 -1.85157
-0.0586481 -1.9044 -1.9044
0.0307418 -1.90534 -1.90534
0.0307594 -1.85249 -1.85249
-0.0581049 -1.87791 -1.87791
-0.0139517 -1.9048 -1.9048
0.0307528 -1.87884 -1.87884
-0.0134008 -1.85196 -1.85196
-0.0136746 -1.87831 -1.87831
-0.0586481 -1.9044 -1.9044
-0.0597414 -1.95786 -1.95786
0.0307071 -1.95882 -1.95882
0.0307418 -1.90534 -1.90534
-0.0591936 -1.93106 -1.93106
-0.0145157 -1.95828 -1.95828
0.0307266 -1.932 -1.932
-0.0139517 -1.9048 -1.9048
-0.0142321 -1.93146 -1.93146
-0.0597414 -1.95786 -1.95786
-0.0608438 -2.01195 -2.01195
0.030655 -2.01293 -2.01293
0.0307071 -1.95882 -1.95882
-0.0602914 -1.98483 -1.98483
-0.0150929 -2.01237 -2.01237
0.0306832 -1.9858 -1.9858
-0.0145157 -1.95828 -1.95828
-0.0148027 -1.98525 -1.98525
-0.0608438 -2.01195 -2.01195
-0.0619553 -2.06665 -2.06665
0.0305857 -2.06765 -2.06765
0.030655 -2.01293 -2.01293
-0.0613984 -2.03922 -2.03922
-0.0156834 -2.06709 -2.06709
0.0306225 -2.04021 -2.04021
-0.0150929 -2.01237 -2.01237
-0.0153865 -2.03965 -2.03965
-0.0619553 -2.06665 -2.06665
-0.0630761 -2.12197 -2.12197
0.0304989 -2.12299 -2.12299
0.0305857 -2.06765 -2.06765
-0.0625145 -2.09423 -2.09423
-0.0162871 -2.12241 -2.12241
0.0305445 -2.09525 -2.09525
-0.0156834 -2.06709 -2.06709
-0.0159836 -2.09467 -2.09467
-0.0630761 -2.12197 -2.12197
-0.064206 -2.17789 -2.17789
0.0303948 -2.17894 -2.17894
0.0304989 -2.12299 -2.12299
-0.0636399 -2.14986 -2.14986
-0.0169042 -2.17835 -2.17835
0.030449 -2.15089 -2.15089
-0.0162871 -2.12241 -2.12241
-0.016594 -2.15031 -2.15031
-0.064206 -2.17789 -2.17789
-0.0653453 -2.23443 -2.23443
0.0302731 -2.2355 -2.2355
0.0303948 -2.17894 -2.17894
-0.0647745 -2.20609 -2.20609
-0.0175346 -2.2349 -2.2349
0.0303361 -2.20714 -2.20714
-0.0169042 -2.17835 -2.17835
-0.0172177 -2.20655 -2.20655
-0.0653453 -2.23443 -2.23443
-0.0664939 -2.29156 -2.29156
0.030134 -2.29265 -2.29265
0.0302731 -2.2355 -2.2355
-0.0659184 -2.26292 -2.26292
-0.0181785 -2.29204 -2.29204
0.0302058 -2.264 -2.264
-0.0175346 -2.2349 -2.2349
-0.0178549 -2.2634 -2.2634
-0.0664939 -2.29156 -2.29156
-0.0676518 -2.34929 -2.34929
0.0299773 -2.3504 -2.3504
0.030134 -2.29265 -2.29265
-0.0670716 -2.32035 -2.32035
-0.0188357 -2.34978 -2.34978
0.0300579 -2.32145 -2.32145
-0.0181785 -2.29204 -2.29204
-0.0185054 -2.32084 -2.32084
-0.0676518 -2.34929 -2.34929
-0.0688191 -2.40761 -2.40761
0.0298031 -2.40875 -2.40875
0.0299773 -2.3504 -2.3504
-0.0682342 -2.37837 -2.37837
-0.0195065 -2.40811 -2.40811
0.0298924 -2.3795 -2.3795
-0.0188357 -2.34978 -2.34978
-0.0191694 -2.37888 -2.37888
-0.0688191 -2.40761 -2.40761
-0.0699957 -2.46651 -2.46651
0.0296113 -2.46767 -2.46767
0.0298031 -2.40875 -2.40875
-0.0694062 -2.43699 -2.43699
-0.0201907 -2.46703 -2.46703
0.0297094 -2.43814 -2.43814
-0.0195065 -2.40811 -2.40811
-0.0198469 -2.4375 -2.4375
-0.0699957 -2.46651 -2.46651
-0.0711819 -2.526 -2.526
0.029402 -2.52718 -2.52718
0.0296113 -2.46767 -2.46767
-0.0705876 -2.49618 -2.49618
-0.0208885 -2.52653 -2.52653
0.0295089 -2.49735 -2.49735
-0.0201907 -2.46703 -2.46703
-0.0205379 -2.49671 -2.49671
-0.0711819 -2.526 -2.526
-0.0723774 -2.58606 -2.58606
0.0291749 -2.58726 -2.58726
0.029402 -2.52718 -2.52718
-0.0717784 -2.55596 -2.55596
-0.0215998 -2.5866 -2.5866
0.0292906 -2.55715 -2.55715
-0.0208885 -2.52653 -2.52653
-0.0212424 -2.55649 -2.55649
-0.0723774 -2.58606 -2.58606
-0.0735824 -2.64669 -2.64669
0.0289303 -2.64792 -2.64792
0.0291749 -2.58726 -2.58726
-0.0729787 -2.6163 -2.6163
-0.0223246 -2.64724 -2.64724
0.0290548 -2.61752 -2.61752
-0.0215998 -2.5866 -2.5866
-0.0219605 -2.61685 -2.61685
-0.0735824 -2.64669 -2.64669
-0.0747969 -2.70789 -2.70789
0.028668 -2.70914 -2.70914
0.0289303 -2.64792 -2.64792
-0.0741885 -2.67722 -2.67722
-0.023063 -2.70846 -2.70846
0.0288013 -2.67846 -2.67846
-0.0223246 -2.64724 -2.64724
-0.0226921 -2.67778 -2.67778
-0.0747969 -2.70789 -2.70789
-0.0760208 -2.76965 -2.76965
0.028388 -2.77092 -2.77092
0.028668 -2.70914 -2.70914
-0.0754077 -2.7387 -2.7387
-0.0238149 -2.77023 -2.77023
0.0285302 -2.73996 -2.73996
-0.023063 -2.70846 -2.70846
-0.0234373 -2.73927 -2.73927
-0.0760208 -2.76965 -2.76965
-0.0772543 -2.83197 -2.83197
0.0280904 -2.83326 -2.83326
0.028388 -2.77092 -2.77092
-0.0766364 -2.80074 -2.80074
-0.0245805 -2.83256 -2.83256
0.0282414 -2.80203 -2.80203
-0.0238149 -2.77023 -2.77023
-0.024196 -2.80132 -2.80132
-0.0772543 -2.83197 -2.83197
-0.0784972 -2.89483 -2.89483
0.0277751 -2.89616 -2.89616
0.0280904 -2.83326 -2.83326
-0.0778746 -2.86333 -2.86333
-0.0253596 -2.89544 -2.89544
0.027935 -2.86464 -2.86464
-0.0245805 -2.83256 -2.83256
-0.0249683 -2.86393 -2.86393
-0.0784972 -2.89483 -2.89483
-0.0797496 -2.95825 -2.95825
0.0274422 -2.95959 -2.95959
0.0277751 -2.89616 -2.89616
-0.0791222 -2.92647 -2.92647
-0.0261523 -2.95886 -2.95886
0.0276108 -2.92781 -2.92781
-0.0253596 -2.89544 -2.89544
-0.0257542 -2.92708 -2.92708
-0.0797496 -2.95825 -2.95825
-0.0810115 -3.02221 -3.02221
0.0270915 -3.02357 -3.02357
0.0274422 -2.95959 -2.95959
-0.0803794 -2.99016 -2.99016
-0.0269585 -3.02283 -3.02283
0.0272691 -2.99152 -2.99152
-0.0261523 -2.95886 -2.95886
-0.0265537 -2.99078 -2.99078
-0.0810115 -3.02221 -3.02221
-0.0822829 -3.0867 -3.0867
0.0267233 -3.08809 -3.08809
0.0270915 -3.02357 -3.02357
-0.081646 -3.05439 -3.05439
-0.0277783 -3.08734 -3.08734
0.0269096 -3.05577 -3.05577
-0.0269585 -3.02283 -3.02283
-0.0273667 -3.05502 -3.05502
-0.0822829 -3.0867 -3.0867
-0.0835637 -3.15173 -3.15173
0.0263374 -3.15314 -3.15314
0.0267233 -3.08809 -3.08809
-0.0829221 -3.11915 -3.11915
-0.0286117 -3.15238 -3.15238
0.0265325 -3.12055 -3.12055
-0.0277783 -3.08734 -3.08734
-0.0281933 -3.11979 -3.11979
-0.0835637 -3.15173 -3.15173
-0.084854 -3.21728 -3.21728
0.0259338 -3.21872 -3.21872
0.0263374 -3.15314 -3.15314
-0.0842077 -3.18444 -3.18444
-0.0294586 -3.21795 -3.21795
0.0261378 -3.18587 -3.18587
-0.0286117 -3.15238 -3.15238
-0.0290335 -3.1851 -3.1851
-0.084854 -3.21728 -3.21728
-0.0861537 -3.28336 -3.28336
0.0255127 -3.28482 -3.28482
0.0259338 -3.21872 -3.21872
-0.0855027 -3.25026 -3.25026
-0.0303191 -3.28404 -3.28404
0.0257254 -3.25171 -3.25171
-0.0294586 -3.21795 -3.21795
-0.0298871 -3.25093 -3.25093
-0.0861537 -3.28336 -3.28336
-0.0874628 -3.34996 -3.34996
0.0250739 -3.35144 -3.35144
0.0255127 -3.28482 -3.28482
-0.0868071 -3.3166 -3.3166
-0.031193 -3.35064 -3.35064
0.0252955 -3.31806 -3.31806
-0.0303191 -3.28404 -3.28404
-0.0307543 -3.31728 -3.31728
-0.0874628 -3.34996 -3.34996
-0.0887814 -3.41707 -3.41707
0.0246176 -3.41857 -3.41857
0.0250739 -3.35144 -3.35144
-0.0881209 -3.38345 -3.38345
-0.0320804 -3.41776 -3.41776
0.0248479 -3.38494 -3.38494
-0.031193 -3.35064 -3.35064
-0.031635 -3.38414 -3.38414
-0.0887814 -3.41707 -3.41707
-0.0901093 -3.48468 -3.48468
0.0241437 -3.48621 -3.48621
0.0246176 -3.41857 -3.41857
-0.0894441 -3.45081 -3.45081
-0.0329813 -3.48539 -3.48539
0.0243828 -3.45233 -3.45233
-0.0320804 -3.41776 -3.41776
-0.0325292 -3.45151 -3.45151
-0.0901093 -3.48468 -3.48468
-0.0914465 -3.5528 -3.5528
0.0236523 -3.55435 -3.55435
0.0241437 -3.48621 -3.48621
-0.0907767 -3.51868 -3.51868
-0.0338956 -3.55352 -3.55352
0.0239002 -3.52022 -3.52022
-0.0329813 -3.48539 -3.48539
-0.0334368 -3.5194 -3.5194
-0.0914465 -3.5528 -3.5528
-0.092793 -3.62142 -3.62142
0.0231434 -3.62299 -3.62299
0.0236523 -3.55435 -3.55435
-0.0921186 -3.58705 -3.58705
-0.0348234 -3.62215 -3.62215
0.0234 -3.58861 -3.58861
-0.0338956 -3.55352 -3.55352
-0.0343578 -3.58778 -3.58778
-0.092793 -3.62142 -3.62142
-0.0941489 -3.69053 -3.69053
0.0226171 -3.69213 -3.69213
0.0231434 -3.62299 -3.62299
-0.0934698 -3.65592 -3.65592
-0.0357645 -3.69128 -3.69128
0.0228824 -3.6575 -3.6575
-0.0348234 -3.62215 -3.62215
-0.0352922 -3.65666 -3.65666
-0.0941489 -3.69053 -3.69053
-0.0955139 -3.76014 -3.76014
0.0220733 -3.76175 -3.76175
0.0226171 -3.69213 -3.69213
-0.0948303 -3.72527 -3.72527
-0.0367189 -3.76089 -3.76089
0.0223474 -3.72688 -3.72688
-0.0357645 -3.69128 -3.69128
-0.03624 -3.72602 -3.72602
-0.0955139 -3.76014 -3.76014
-0.0968882 -3.83022 -3.83022
0.0215122 -3.83186 -3.83186
0.0220733 -3.76175 -3.76175
-0.0961999 -3.79512 -3.79512
-0.0376866 -3.83099 -3.83099
0.0217949 -3.79674 -3.79674
-0.0367189 -3.76089 -3.76089
-0.0372011 -3.79588 -3.79588
-0.0968882 -3.83022 -3.83022
-0.0982717 -3.90078 -3.90078
0.0209337 -3.90245 -3.90245
0.0215122 -3.83186 -3.83186
-0.0975788 -3.86544 -3.86544
-0.0386676 -3.90156 -3.90156
0.0212251 -3.86709 -3.86709
-0.0376866 -3.83099 -3.83099
-0.0381754 -3.86622 -3.86622
-0.0982717 -3.90078 -3.90078
-0.0996642 -3.97182 -3.97182
0.0203379 -3.97351 -3.97351
0.0209337 -3.90245 -3.90245
-0.0989668 -3.93624 -3.93624
-0.0396617 -3.97261 -3.97261
0.0206379 -3.93792 -3.93792
-0.0386676 -3.90156 -3.90156
-0.039163 -3.93703 -3.93703
-0.0996642 -3.97182 -3.97182
-0.101066 -4.04333 -4.04333
0.0197249 -4.04504 -4.04504
0.0203379 -3.97351 -3.97351
-0.100364 -4.00752 -4.00752
-0.040669 -4.04413 -4.04413
0.0200335 -4.00921 -4.00921
-0.0396617 -3.97261 -3.97261
-0.0401637 -4.00832 -4.00832
-0.101066 -4.04333 -4.04333
-0.102476 -4.1153 -4.1153
0.0190947 -4.11703 -4.11703
0.0197249 -4.04504 -4.04504
-0.10177 -4.07926 -4.07926
-0.0416895 -4.11612 -4.11612
0.0194119 -4.08098 -4.08098
-0.040669 -4.04413 -4.04413
-0.0411776 -4.08007 -4.08007
-0.102476 -4.1153 -4.1153
-0.103896 -4.18774 -4.18774
0.0184473 -4.18949 -4.18949
0.0190947 -4.11703 -4.11703
-0.103185 -4.15146 -4.15146
-0.042723 -4.18856 -4.18856
0.0187731 -4.1532 -4.1532
-0.0416895 -4.11612 -4.11612
-0.0422046 -4.15228 -4.15228
-0.103896 -4.18774 -4.18774
-0.105325 -4.26062 -4.26062
0.0177829 -4.26239 -4.26239
0.0184473 -4.18949 -4.18949
-0.104609 -4.22412 -4.22412
-0.0437695 -4.26146 -4.26146
0.0181172 -4.22588 -4.22588
-0.042723 -4.18856 -4.18856
-0.0432446 -4.22496 -4.22496
-0.105325 -4.26062 -4.26062
-0.106762 -4.33396 -4.33396
0.0171014 -4.33575 -4.33575
0.0177829 -4.26239 -4.26239
-0.106042 -4.29724 -4.29724
-0.0448289 -4.33481 -4.33481
0.0174442 -4.29902 -4.29902
-0.0437695 -4.26146 -4.26146
-0.0442975 -4.29808 -4.29808
-0.106762 -4.33396 -4.33396
-0.108208 -4.40774 -4.40774
0.0164029 -4.40956 -4.40956
0.0171014 -4.33575 -4.33575
-0.107484 -4.3708 -4.3708
-0.0459012 -4.4086 -4.4086
0.0167543 -4.3726 -4.3726
-0.0448289 -4.33481 -4.33481
-0.0453634 -4.37165 -4.37165
-0.108208 -4.40774 -4.40774
-0.109663 -4.48197 -4.48197
0.0156876 -4.4838 -4.4838
0.0164029 -4.40956 -4.40956
-0.108934 -4.4448 -4.4448
-0.0469863 -4.48284 -4.48284
0.0160474 -4.44663 -4.44663
-0.0459012 -4.4086 -4.4086
-0.0464421 -4.44567 -4.44567
-0.109663 -4.48197 -4.48197
-0.111127 -4.55663 -4.55663
0.0149554 -4.55848 -4.55848
0.0156876 -4.4838 -4.4838
-0.110394 -4.51924 -4.51924
-0.0480842 -4.55751 -4.55751
0.0153236 -4.52109 -4.52109
-0.0469863 -4.48284 -4.48284
-0.0475337 -4.52012 -4.52012
-0.111127 -4.55663 -4.55663
-0.112599 -4.63172 -4.63172
0.0142064 -4.6336 -4.6336
0.0149554 -4.55848 -4.55848
-0.111862 -4.59412 -4.59412
-0.0491947 -4.63261 -4.63261
0.014583 -4.59599 -4.59599
-0.0480842 -4.55751 -4.55751
-0.0486379 -4.59501 -4.59501
-0.112599 -4.63172 -4.63172
-0.114079 -4.70723 -4.70723
0.0134408 -4.70913 -4.70913
0.0142064 -4.6336 -4.6336
-0.113338 -4.66942 -4.66942
-0.0503179 -4.70814 -4.70814
0.0138257 -4.67131 -4.67131
-0.0491947 -4.63261 -4.63261
-0.0497548 -4.67032 -4.67032
-0.114079 -4.70723 -4.70723
-0.115568 -4.78317 -4.78317
0.0126585 -4.78509 -4.78509
0.0134408 -4.70913 -4.70913
-0.114823 -4.74515 -4.74515
-0.0514536 -4.78408 -4.78408
0.0130517 -4.74706 -4.74706
-0.0503179 -4.70814 -4.70814
-0.0508842 -4.74606 -4.74606
-0.115568 -4.78317 -4.78317
-0.117066 -4.85952 -4.85952
0.0118596 -4.86146 -4.86146
0.0126585 -4.78509 -4.78509
-0.116316 -4.82129 -4.82129
-0.0526018 -4.86045 -4.86045
0.0122611 -4.82322 -4.82322
-0.0514536 -4.78408 -4.78408
-0.0520262 -4.82221 -4.82221
-0.117066 -4.85952 -4.85952
-0.118572 -4.93629 -4.93629
0.0110443 -4.93825 -4.93825
0.0118596 -4.86146 -4.86146
-0.117818 -4.89785 -4.89785
-0.0537624 -4.93722 -4.93722
0.011454 -4.8998 -4.8998
-0.0526018 -4.86045 -4.86045
-0.0531805 -4.89879 -4.89879
-0.118572 -4.93629 -4.93629
-0.120086 -5.01346 -5.01346
0.0102126 -5.01544 -5.01544
0.0110443 -4.93825 -4.93825
-0.119328 -4.97482 -4.97482
-0.0549352 -5.01441 -5.01441
0.0106305 -4.97679 -4.97679
-0.0537624 -4.93722 -4.93722
-0.0543473 -4.97576 -4.97576
-0.120086 -5.01346 -5.01346
-0.121608 -5.09103 -5.09103
0.0093646 -5.09303 -5.09303
0.0102126 -5.01544 -5.01544
-0.120846 -5.05219 -5.05219
-0.0561203 -5.09199 -5.09199
0.00979064 -5.05419 -5.05419
-0.0549352 -5.01441 -5.01441
-0.0555262 -5.05315 -5.05315
-0.121608 -5.09103 -5.09103
-0.123138 -5.169 -5.169
0.00850035 -5.17102 -5.17102
0.0093646 -5.09303 -5.09303
-0.122372 -5.12996 -5.12996
-0.0573175 -5.16997 -5.16997
0.00893449 -5.13198 -5.13198
-0.0561203 -5.09199 -5.09199
-0.0567174 -5.13093 -5.13093
-0.123138 -5.169 -5.169
-0.124676 -5.24736 -5.24736
0.00761996 -5.2494 -5.2494
0.00850035 -5.17102 -5.17102
-0.123906 -5.20813 -5.20813
-0.0585268 -5.24834 -5.24834
0.00806217 -5.21017 -5.21017
-0.0573175 -5.16997 -5.16997
-0.0579207 -5.20911 -5.20911
-0.124676 -5.24736 -5.24736
-0.126222 -5.32611 -5.32611
0.00672353 -5.32817 -5.32817
0.00761996 -5.2494 -5.2494
-0.125448 -5.28669 -5.28669
-0.0597481 -5.3271 -5.3271
0.00717375 -5.28874 -5.28874
-0.0585268 -5.24834 -5.24834
-0.059136 -5.28767 -5.28767
-0.126222 -5.32611 -5.32611
-0.127776 -5.40524 -5.40524
0.00581114 -5.40732 -5.40732
0.00672353 -5.32817 -5.32817
-0.126998 -5.36563 -5.36563
-0.0609812 -5.40624 -5.40624
0.00626932 -5.3677 -5.3677
-0.0597481 -5.3271 -5.3271
-0.0603631 -5.36662 -5.36662
-0.127776 -5.40524 -5.40524
-0.129338 -5.48475 -5.48475
0.00488288 -5.48685 -5.48685
0.00581114 -5.40732 -5.40732
-0.128556 -5.44495 -5.44495
-0.0622261 -5.48576 -5.48576
0.00534899 -5.44704 -5.44704
-0.0609812 -5.40624 -5.40624
-0.0616022 -5.44595 -5.44595
-0.129338 -5.48475 -5.48475
-0.130907 -5.56463 -5.56463
0.00393886 -5.56675 -5.56675
0.00488288 -5.48685 -5.48685
-0.130121 -5.52464 -5.52464
-0.0634826 -5.56565 -5.56565
0.00441283 -5.52676 -5.52676
-0.0622261 -5.48576 -5.48576
-0.0628529 -5.52566 -5.52566
-0.130907 -5.56463 -5.56463
-0.132483 -5.64488 -5.64488
0.00297916 -5.64702 -5.64702
0.00393886 -5.56675 -5.56675
-0.131694 -5.60471 -5.60471
-0.0647508 -5.64591 -5.64591
0.00346096 -5.60684 -5.60684
-0.0634826 -5.56565 -5.56565
-0.0641153 -5.60574 -5.60574
-0.132483 -5.64488 -5.64488
-0.134067 -5.72549 -5.72549
0.0020039 -5.72765 -5.72765
0.00297916 -5.64702 -5.64702
-0.133274 -5.68514 -5.68514
-0.0660304 -5.72653 -5.72653
0.00249347 -5.68729 -5.68729
-0.0647508 -5.64591 -5.64591
-0.0653892 -5.68618 -5.68618
-0.134067 -5.72549 -5.72549
-0.135659 -5.80646 -5.80646
0.00101317 -5.80864 -5.80864
0.0020039 -5.72765 -5.72765
-0.134862 -5.76593 -5.76593
-0.0673214 -5.80751 -5.80751
0.00151046 -5.7681 -5.7681
-0.0660304 -5.72653 -5.72653
-0.0666745 -5.76698 -5.76698
-0.135659 -5.80646 -5.80646
-0.137257 -5.88778 -5.88778
7.0729e-06 -5.88999 -5.88999
0.00101317 -5.80864 -5.80864
-0.136457 -5.84708 -5.84708
-0.0686237 -5.88885 -5.88885
0.000512034 -5.84927 -5.84927
-0.0673214 -5.80751 -5.80751
-0.0679712 -5.84814 -5.84814
-0.137257 -5.88778 -5.88778
-0.138863 -5.96946 -5.96946
-0.00101428 -5.97168 -5.97168
7.0729e-06 -5.88999 -5.88999
-0.138059 -5.92858 -5.92858
-0.0699372 -5.97053 -5.97053
-0.000501702 -5.93079 -5.93079
-0.0686237 -5.88885 -5.88885
-0.0692791 -5.92965 -5.92965
-0.138863 -5.96946 -5.96946
-0.140475 -6.05147 -6.05147
-0.00205078 -6.05371 -6.05371
-0.00101428 -5.97168 -5.97168
-0.139668 -6.01042 -6.01042
-0.0712617 -6.05256 -6.05256
-0.00153064 -6.01265 -6.01265
-0.0699372 -5.97053 -5.97053
-0.0705981 -6.0115 -6.0115
-0.140475 -6.05147 -6.05147
-0.142094 -6.13383 -6.13383
-0.00310231 -6.13608 -6.13608
-0.00205078 -6.05371 -6.05371
-0.141284 -6.09261 -6.09261
-0.0725972 -6.13492 -6.13492
-0.00257467 -6.09485 -6.09485
-0.0712617 -6.05256 -6.05256
-0.0719281 -6.0937 -6.0937
-0.142094 -6.13383 -6.13383
-0.143721 -6.21652 -6.21652
-0.00416878 -6.21879 -6.21879
-0.00310231 -6.13608 -6.13608
-0.142907 -6.17513 -6.17513
-0.0739435 -6.21762 -6.21762
-0.00363369 -6.1774 -6.1774
-0.0725972 -6.13492 -6.13492
-0.073269 -6.17623 -6.17623
-0.143721 -6.21652 -6.21652
-0.145353 -6.29953 -6.29953
-0.00525005 -6.30183 -6.30183
-0.00416878 -6.21879 -6.21879
-0.144536 -6.25798 -6.25798
-0.0753006 -6.30064 -6.30064
-0.00470757 -6.26027 -6.26027
-0.0739435 -6.21762 -6.21762
-0.0746207 -6.25909 -6.25909
-0.145353 -6.29953 -6.29953
-0.146993 -6.38287 -6.38287
-0.00634602 -6.38518 -6.38518
-0.00525005 -6.30183 -6.30183
-0.146172 -6.34116 -6.34116
-0.0766682 -6.384 -6.384
-0.00579621 -6.34346 -6.34346
-0.0753006 -6.30064 -6.30064
-0.0759831 -6.34228 -6.34228
-0.146993 -6.38287 -6.38287
-0.148638 -6.46654 -6.46654
-0.00745657 -6.46886 -6.46886
-0.00634602 -6.38518 -6.38518
-0.147815 -6.42467 -6.42467
-0.0780463 -6.46767 -6.46767
-0.00689948 -6.42698 -6.42698
-0.0766682 -6.384 -6.384
-0.077356 -6.42579 -6.42579
-0.148638 -6.46654 -6.46654
-0.15029 -6.55051 -6.55051
-0.00858158 -6.55286 -6.55286
-0.00745657 -6.46886 -6.46886
-0.149464 -6.50849 -6.50849
-0.0794349 -6.55165 -6.55165
-0.00801727 -6.51082 -6.51082
-0.0780463 -6.46767 -6.46767
-0.0787393 -6.50962 -6.50962
-0.15029 -6.55051 -6.55051
-0.151949 -6.6348 -6.6348
-0.00972092 -6.63716 -6.63716
-0.00858158 -6.55286 -6.55286
-0.151119 -6.59262 -6.59262
-0.0808336 -6.63595 -6.63595
-0.00914946 -6.59497 -6.59497
-0.0794349 -6.55165 -6.55165
-0.080133 -6.59376 -6.59376
-0.151949 -6.6348 -6.6348
-0.153613 -6.71939 -6.71939
-0.0108745 -6.72177 -6.72177
-0.00972092 -6.63716 -6.63716
-0.15278 -6.67706 -6.67706
-0.0822425 -6.72055 -6.72055
-0.0102959 -6.67943 -6.67943
-0.0808336 -6.63595 -6.63595
-0.0815368 -6.67821 -6.67821
-0.153613 -6.71939 -6.71939
-0.155283 -6.80428 -6.80428
-0.0120421 -6.80668 -6.80668
-0.0108745 -6.72177 -6.72177
-0.154447 -6.7618 -6.7618
-0.0836614 -6.80545 -6.80545
-0.0114565 -6.76418 -6.76418
-0.0822425 -6.72055 -6.72055
-0.0829507 -6.76296 -6.76296
-0.155283 -6.80428 -6.80428
-0.156959 -6.88947 -6.88947
-0.0132237 -6.89188 -6.89188
-0.0120421 -6.80668 -6.80668
-0.15612 -6.84684 -6.84684
-0.0850902 -6.89064 -6.89064
-0.0126312 -6.84924 -6.84924
-0.0836614 -6.80545 -6.80545
-0.0843745 -6.84801 -6.84801
-0.156959 -6.88947 -6.88947
-0.15864 -6.97494 -6.97494
-0.0144192 -6.97737 -6.97737
-0.0132237 -6.89188 -6.89188
-0.157799 -6.93217 -6.93217
-0.0865287 -6.97613 -6.97613
-0.0138197 -6.93459 -6.93459
-0.0850902 -6.89064 -6.89064
-0.0858082 -6.93335 -6.93335
-0.15864 -6.97494 -6.97494
-0.160327 -7.0607 -7.0607
-0.0156283 -7.06315 -7.06315
-0.0144192 -6.97737 -6.97737
-0.159483 -7.01779 -7.01779
-0.0879768 -7.0619 -7.0619
-0.015022 -7.02022 -7.02022
-0.0865287 -6.97613 -6.97613
-0.0872515 -7.01898 -7.01898
-0.160327 -7.0607 -7.0607
-0.16202 -7.14675 -7.14675
-0.016851 -7.14921 -7.14921
-0.0156283 -7.06315 -7.06315
-0.161173 -7.10369 -7.10369
-0.0894344 -7.14795 -7.14795
-0.016238 -7.10614 -7.10614
-0.0879768 -7.0619 -7.0619
-0.0887044 -7.10489 -7.10489
-0.16202 -7.14675 -7.14675
-0.163718 -7.23306 -7.23306
-0.0180872 -7.23554 -7.23554
-0.016851 -7.14921 -7.14921
-0.162868 -7.18987 -7.18987
-0.0909014 -7.23427 -7.23427
-0.0174674 -7.19234 -7.19234
-0.0894344 -7.14795 -7.14795
-0.0901667 -7.19108 -7.19108
-0.163718 -7.23306 -7.23306
-0.16542 -7.31965 -7.31965
-0.0193366 -7.32215 -7.32215
-0.0180872 -7.23554 -7.23554
-0.164568 -7.27633 -7.27633
-0.0923775 -7.32087 -7.32087
-0.0187102 -7.27881 -7.27881
-0.0909014 -7.23427 -7.23427
-0.0916383 -7.27754 -7.27754
-0.16542 -7.31965 -7.31965
-0.167128 -7.40651 -7.40651
-0.0205992 -7.40902 -7.40902
-0.0193366 -7.32215 -7.32215
-0.166274 -7.36305 -7.36305
-0.0938628 -7.40774 -7.40774
-0.0199663 -7.36555 -7.36555
-0.0923775 -7.32087 -7.32087
-0.093119 -7.36427 -7.36427
-0.167128 -7.40651 -7.40651
-0.168841 -7.49363 -7.49363
-0.0218749 -7.49615 -7.49615
-0.0205992 -7.40902 -7.40902
-0.167984 -7.45004 -7.45004
-0.095357 -7.49486 -7.49486
-0.0212354 -7.45255 -7.45255
-0.0938628 -7.40774 -7.40774
-0.0946088 -7.45127 -7.45127
-0.168841 -7.49363 -7.49363
-0.170559 -7.581 -7.581
-0.0231634 -7.58354 -7.58354
-0.0218749 -7.49615 -7.49615
-0.169699 -7.53728 -7.53728
-0.09686 -7.58224 -7.58224
-0.0225175 -7.53981 -7.53981
-0.095357 -7.49486 -7.49486
-0.0961074 -7.53852 -7.53852
-0.170559 -7.581 -7.581
-0.172281 -7.66863 -7.66863
-0.0244647 -7.67118 -7.67118
-0.0231634 -7.58354 -7.58354
-0.171419 -7.62478 -7.62478
-0.0983717 -7.66988 -7.66988
-0.0238125 -7.62733 -7.62733
-0.09686 -7.58224 -7.58224
-0.0976148 -7.62603 -7.62603
-0.172281 -7.66863 -7.66863
-0.174007 -7.7565 -7.7565
-0.0257786 -7.75906 -7.75906
-0.0244647 -7.67118 -7.67118
-0.173143 -7.71253 -7.71253
-0.0998919 -7.75776 -7.75776
-0.0251201 -7.71509 -7.71509
-0.0983717 -7.66988 -7.66988
-0.0991307 -7.71379 -7.71379
-0.174007 -7.7565 -7.7565
-0.175738 -7.84461 -7.84461
-0.0271049 -7.84719 -7.84719
-0.0257786 -7.75906 -7.75906
-0.174872 -7.80053 -7.80053
-0.10142 -7.84588 -7.84588
-0.0264402 -7.8031 -7.8031
-0.0998919 -7.75776 -7.75776
-0.100655 -7.80179 -7.80179
-0.175738 -7.84461 -7.84461
-0.177473 -7.93297 -7.93297
-0.0284436 -7.93556 -7.93556
-0.0271049 -7.84719 -7.84719
-0.176605 -7.88876 -7.88876
-0.102957 -7.93424 -7.93424
-0.0277727 -7.89135 -7.89135
-0.10142 -7.84588 -7.84588
-0.102188 -7.89003 -7.89003
-0.177473 -7.93297 -7.93297
-0.179212 -8.02155 -8.02155
-0.0297944 -8.02416 -8.02416
-0.0284436 -7.93556 -7.93556
-0.178342 -7.97723 -7.97723
-0.104502 -8.02283 -8.02283
-0.0291175 -7.97983 -7.97983
-0.102957 -7.93424 -7.93424
-0.103729 -7.9785 -7.9785
-0.179212 -8.02155 -8.02155
-0.180954 -8.11036 -8.11036
-0.0311573 -8.11298 -8.11298
-0.0297944 -8.02416 -8.02416
-0.180082 -8.06593 -8.06593
-0.106055 -8.11165 -8.11165
-0.0304743 -8.06854 -8.06854
-0.104502 -8.02283 -8.02283
-0.105278 -8.06721 -8.06721
-0.180954 -8.11036 -8.11036
-0.182701 -8.19939 -8.19939
-0.032532 -8.20203 -8.20203
-0.0311573 -8.11298 -8.11298
-0.181827 -8.15485 -8.15485
-0.107616 -8.20069 -8.20069
-0.0318431 -8.15748 -8.15748
-0.106055 -8.11165 -8.11165
-0.106834 -8.15614 -8.15614
-0.182701 -8.19939 -8.19939
-0.184451 -8.28865 -8.28865
-0.0339184 -8.29129 -8.29129
-0.032532 -8.20203 -8.20203
-0.183575 -8.24399 -8.24399
-0.109184 -8.28995 -8.28995
-0.0332238 -8.24663 -8.24663
-0.107616 -8.20069 -8.20069
-0.108399 -8.24529 -8.24529
-0.184451 -8.28865 -8.28865
-0.186204 -8.37811 -8.37811
-0.0353165 -8.38077 -8.38077
-0.0339184 -8.29129 -8.29129
-0.185327 -8.33335 -8.33335
-0.110759 -8.37942 -8.37942
-0.034616 -8.33601 -8.33601
-0.109184 -8.28995 -8.28995
-0.109971 -8.33466 -8.33466
-0.186204 -8.37811 -8.37811
-0.187961 -8.46779 -8.46779
-0.0367259 -8.47046 -8.47046
-0.0353165 -8.38077 -8.38077
-0.187082 -8.42292 -8.42292
-0.112343 -8.4691 -8.4691
-0.0360198 -8.42559 -8.42559
-0.110759 -8.37942 -8.37942
-0.11155 -8.42423 -8.42423
-0.187961 -8.46779 -8.46779
-0.18972 -8.55766 -8.55766
-0.0381466 -8.56034 -8.56034
-0.0367259 -8.47046 -8.47046
-0.18884 -8.5127 -8.5127
-0.113933 -8.55898 -8.55898
-0.0374348 -8.51537 -8.51537
-0.112343 -8.4691 -8.4691
-0.113137 -8.51402 -8.51402
-0.18972 -8.55766 -8.55766
-0.191483 -8.64774 -8.64774
-0.0395784 -8.65043 -8.65043
-0.0381466 -8.56034 -8.56034
-0.190601 -8.60267 -8.60267
-0.11553 -8.64906 -8.64906
-0.0388611 -8.60536 -8.60536
-0.113933 -8.55898 -8.55898
-0.114731 -8.604 -8.604
-0.191483 -8.64774 -8.64774
-0.193249 -8.73801 -8.73801
-0.0410212 -8.74071 -8.74071
-0.0395784 -8.65043 -8.65043
-0.192366 -8.69285 -8.69285
-0.117134 -8.73934 -8.73934
-0.0402984 -8.69555 -8.69555
-0.11553 -8.64906 -8.64906
-0.116331 -8.69418 -8.69418
-0.193249 -8.73801 -8.73801
-0.195017 -8.82846 -8.82846
-0.0424747 -8.83118 -8.83118
-0.0410212 -8.74071 -8.74071
-0.194132 -8.78321 -8.78321
-0.118745 -8.8298 -8.8298
-0.0417466 -8.78592 -8.78592
-0.117134 -8.73934 -8.73934
-0.117939 -8.78455 -8.78455
-0.195017 -8.82846 -8.82846
-0.196787 -8.9191 -8.9191
-0.0439389 -8.92183 -8.92183
-0.0424747 -8.83118 -8.83118
-0.195902 -8.87376 -8.87376
-0.120362 -8.92045 -8.92045
-0.0432055 -8.87648 -8.87648
-0.118745 -8.8298 -8.8298
-0.119553 -8.8751 -8.8751
-0.196787 -8.9191 -8.9191
-0.19856 -9.00992 -9.00992
-0.0454136 -9.01266 -9.01266
-0.0439389 -8.92183 -8.92183
-0.197673 -8.96449 -8.96449
-0.121986 -9.01128 -9.01128
-0.0446749 -8.96723 -8.96723
-0.120362 -8.92045 -8.92045
-0.121173 -8.96584 -8.96584
-0.19856 -9.00992 -9.00992
-0.200335 -9.10092 -9.10092
-0.0468986 -9.10367 -9.10367
-0.0454136 -9.01266 -9.01266
-0.199447 -9.0554 -9.0554
-0.123616 -9.10228 -9.10228
-0.0461548 -9.05814 -9.05814
-0.121986 -9.01128 -9.01128
-0.1228 -9.05675 -9.05675
-0.200335 -9.10092 -9.10092
-0.202112 -9.19208 -9.19208
-0.0483937 -9.19484 -9.19484
-0.0468986 -9.10367 -9.10367
-0.201223 -9.14648 -9.14648
-0.125252 -9.19345 -9.19345
-0.0476449 -9.14923 -9.14923
-0.123616 -9.10228 -9.10228
-0.124433 -9.14784 -9.14784
-0.202112 -9.19208 -9.19208
-0.203891 -9.28341 -9.28341
-0.0498988 -9.28618 -9.28618
-0.0483937 -9.19484 -9.19484
-0.203001 -9.23773 -9.23773
-0.126894 -9.28478 -9.28478
-0.049145 -9.24049 -9.24049
-0.125252 -9.19345 -9.19345
-0.126072 -9.23909 -9.23909
-0.203891 -9.28341 -9.28341
-0.205671 -9.3749 -9.3749
-0.0514138 -9.37768 -9.37768
-0.0498988 -9.28618 -9.28618
-0.204781 -9.32914 -9.32914
-0.128542 -9.37627 -9.37627
-0.0506551 -9.33191 -9.33191
-0.126894 -9.28478 -9.28478
-0.127717 -9.33051 -9.33051
-0.205671 -9.3749 -9.3749
-0.207453 -9.46655 -9.46655
-0.0529384 -9.46933 -9.46933
-0.0514138 -9.37768 -9.37768
-0.206562 -9.4207 -9.4207
-0.130195 -9.46792 -9.46792
-0.0521749 -9.42349 -9.42349
-0.128542 -9.37627 -9.37627
-0.129368 -9.42208 -9.42208
-0.207453 -9.46655 -9.46655
-0.209236 -9.55834 -9.55834
-0.0544725 -9.56114 -9.56114
-0.0529384 -9.46933 -9.46933
-0.208345 -9.51242 -9.51242
-0.131854 -9.55972 -9.55972
-0.0537043 -9.51522 -9.51522
-0.130195 -9.46792 -9.46792
-0.131024 -9.5138 -9.5138
-0.209236 -9.55834 -9.55834
-0.211021 -9.65028 -9.65028
-0.056016 -9.65308 -9.65308
-0.0544725 -9.56114 -9.56114
-0.210129 -9.60429 -9.60429
-0.133518 -9.65167 -9.65167
-0.0552431 -9.60709 -9.60709
-0.131854 -9.55972 -9.55972
-0.132685 -9.60568 -9.60568
-0.211021 -9.65028 -9.65028
-0.212806 -9.74236 -9.74236
-0.0575686 -9.74517 -9.74517
-0.056016 -9.65308 -9.65308
-0.211914 -9.6963 -9.6963
-0.135187 -9.74375 -9.74375
-0.0567911 -9.69911 -9.69911
-0.133518 -9.65167 -9.65167
-0.134352 -9.69769 -9.69769
-0.212806 -9.74236 -9.74236
-0.214593 -9.83457 -9.83457
-0.0591302 -9.8374 -9.8374
-0.0575686 -9.74517 -9.74517
-0.213699 -9.78845 -9.78845
-0.136861 -9.83597 -9.83597
-0.0583483 -9.79127 -9.79127
-0.135187 -9.74375 -9.74375
-0.136023 -9.78984 -9.78984
-0.214593 -9.83457 -9.83457
-0.21638 -9.92692 -9.92692
-0.0607006 -9.92975 -9.92975
-0.0591302 -9.8374 -9.8374
-0.215486 -9.88073 -9.88073
-0.13854 -9.92832 -9.92832
-0.0599143 -9.88356 -9.88356
-0.136861 -9.83597 -9.83597
-0.1377 -9.88213 -9.88213
-0.21638 -9.92692 -9.92692
-0.218167 -10.0194 -10.0194
-0.0622797 -10.0222 -10.0222
-0.0607006 -9.92975 -9.92975
-0.217273 -9.97314 -9.97314
-0.140223 -10.0208 -10.0208
-0.0614891 -9.97597 -9.97597
-0.13854 -9.92832 -9.92832
-0.139381 -9.97454 -9.97454
-0.218167 -10.0194 -10.0194
-0.219955 -10.112 -10.112
-0.0638673 -10.1148 -10.1148
-0.0622797 -10.0222 -10.0222
-0.219061 -10.0657 -10.0657
-0.141911 -10.1134 -10.1134
-0.0630725 -10.0685 -10.0685
-0.140223 -10.0208 -10.0208
-0.141066 -10.0671 -10.0671
-0.219955 -10.112 -10.112
-0.221743 -10.2047 -10.2047
-0.0654632 -10.2075 -10.2075
-0.0638673 -10.1148 -10.1148
-0.220849 -10.1583 -10.1583
-0.143602 -10.2061 -10.2061
-0.0646642 -10.1612 -10.1612
-0.141911 -10.1134 -10.1134
-0.142756 -10.1597 -10.1597
-0.221743 -10.2047 -10.2047
-0.22353 -10.2975 -10.2975
-0.0670673 -10.3004 -10.3004
-0.0654632 -10.2075 -10.2075
-0.222636 -10.2511 -10.2511
-0.145298 -10.2989 -10.2989
-0.0662642 -10.2539 -10.2539
-0.143602 -10.2061 -10.2061
-0.14445 -10.2525 -10.2525
-0.22353 -10.2975 -10.2975
-0.225318 -10.3904 -10.3904
-0.0686793 -10.3933 -10.3933
-0.0670673 -10.3004 -10.3004
-0.224424 -10.344 -10.344
-0.146998 -10.3919 -10.3919
-0.0678723 -10.3468 -10.3468
-0.145298 -10.2989 -10.2989
-0.146148 -10.3454 -10.3454
-0.225318 -10.3904 -10.3904
-0.227105 -10.4835 -10.4835
-0.0702991 -10.4863 -10.4863
-0.0686793 -10.3933 -10.3933
-0.226212 -10.4369 -10.4369
-0.148702 -10.4849 -10.4849
-0.0694882 -10.4398 -10.4398
-0.146998 -10.3919 -10.3919
-0.14785 -10.4384 -10.4384
-0.227105 -10.4835 -10.4835
-0.228892 -10.5766 -10.5766
-0.0719266 -10.5795 -10.5795
-0.0702991 -10.4863 -10.4863
-0.227999 -10.53 -10.53
-0.150409 -10.578 -10.578
-0.0711119 -10.5329 -10.5329
-0.148702 -10.4849 -10.4849
-0.149555 -10.5314 -10.5314
-0.228892 -10.5766 -10.5766
-0.230678 -10.6698 -10.6698
-0.0735615 -10.6727 -10.6727
-0.0719266 -10.5795 -10.5795
-0.229785 -10.6232 -10.6232
-0.152119 -10.6712 -10.6712
-0.0727431 -10.6261 -10.6261
-0.150409 -10.578 -10.578
-0.151264 -10.6246 -10.6246
-0.230678 -10.6698 -10.6698
-0.232463 -10.7631 -10.7631
-0.0752037 -10.766 -10.766
-0.0735615 -10.6727 -10.6727
-0.231571 -10.7165 -10.7165
-0.153833 -10.7646 -10.7646
-0.0743817 -10.7193 -10.7193
-0.152119 -10.6712 -10.6712
-0.152976 -10.7179 -10.7179
-0.232463 -10.7631 -10.7631
-0.234247 -10.8565 -10.8565
-0.076853 -10.8594 -10.8594
-0.0752037 -10.766 -10.766
-0.233355 -10.8098 -10.8098
-0.15555 -10.8579 -10.8579
-0.0760274 -10.8127 -10.8127
-0.153833 -10.7646 -10.7646
-0.154691 -10.8112 -10.8112
-0.234247 -10.8565 -10.8565
-0.23603 -10.95 -10.95
-0.0785092 -10.9529 -10.9529
-0.076853 -10.8594 -10.8594
-0.235139 -10.9032 -10.9032
-0.157269 -10.9514 -10.9514
-0.0776802 -10.9061 -10.9061
-0.15555 -10.8579 -10.8579
-0.156409 -10.9047 -10.9047
-0.23603 -10.95 -10.95
-0.237812 -11.0435 -11.0435
-0.0801722 -11.0464 -11.0464
-0.0785092 -10.9529 -10.9529
-0.236921 -10.9967 -10.9967
-0.158992 -11.045 -11.045
-0.0793398 -10.9996 -10.9996
-0.157269 -10.9514 -10.9514
-0.15813 -10.9982 -10.9982
-0.237812 -11.0435 -11.0435
-0.239591 -11.1371 -11.1371
-0.0818418 -11.14 -11.14
-0.0801722 -11.0464 -11.0464
-0.238702 -11.0903 -11.0903
-0.160716 -11.1386 -11.1386
-0.0810061 -11.0932 -11.0932
-0.158992 -11.045 -11.045
-0.159854 -11.0917 -11.0917
-0.239591 -11.1371 -11.1371
-0.24137 -11.2308 -11.2308
-0.0835178 -11.2337 -11.2337
-0.0818418 -11.14 -11.14
-0.240481 -11.1839 -11.1839
-0.162443 -11.2322 -11.2322
-0.082679 -11.1868 -11.1868
-0.160716 -11.1386 -11.1386
-0.16158 -11.1854 -11.1854
-0.24137 -11.2308 -11.2308
-0.243146 -11.3245 -11.3245
-0.0852001 -11.3274 -11.3274
-0.0835178 -11.2337 -11.2337
-0.242258 -11.2776 -11.2776
-0.164173 -11.326 -11.326
-0.0843581 -11.2806 -11.2806
-0.162443 -11.2322 -11.2322
-0.163308 -11.2791 -11.2791
-0.243146 -11.3245 -11.3245
-0.24492 -11.4183 -11.4183
-0.0868886 -11.4212 -11.4212
-0.0852001 -11.3274 -11.3274
-0.244033 -11.3714 -11.3714
-0.165904 -11.4197 -11.4197
-0.0860436 -11.3743 -11.3743
-0.164173 -11.326 -11.326
-0.165038 -11.3728 -11.3728
-0.24492 -11.4183 -11.4183
-0.246691 -11.5121 -11.5121
-0.0885832 -11.515 -11.515
-0.0868886 -11.4212 -11.4212
-0.245806 -11.4652 -11.4652
-0.167637 -11.5136 -11.5136
-0.0877351 -11.4681 -11.4681
-0.165904 -11.4197 -11.4197
-0.16677 -11.4667 -11.4667
-0.246691 -11.5121 -11.5121
-0.24846 -11.606 -11.606
-0.0902839 -11.6089 -11.6089
-0.0885832 -11.515 -11.515
-0.247576 -11.5591 -11.5591
-0.169372 -11.6075 -11.6075
-0.0894328 -11.562 -11.562
-0.167637 -11.5136 -11.5136
-0.168504 -11.5605 -11.5605
-0.24846 -11.606 -11.606
-0.250225 -11.6999 -11.6999
-0.0919909 -11.7028 -11.7028
-0.0902839 -11.6089 -11.6089
-0.249343 -11.6529 -11.6529
-0.171108 -11.7014 -11.7014
-0.0911366 -11.6559 -11.6559
-0.169372 -11.6075 -11.6075
-0.17024 -11.6544 -11.6544
-0.250225 -11.6999 -11.6999
-0.251987 -11.7939 -11.7939
-0.0937043 -11.7968 -11.7968
-0.0919909 -11.7028 -11.7028
-0.251107 -11.7469 -11.7469
-0.172846 -11.7953 -11.7953
-0.0928468 -11.7498 -11.7498
-0.171108 -11.7014 -11.7014
-0.171977 -11.7483 -11.7483
-0.251987 -11.7939 -11.7939
-0.253745 -11.8878 -11.8878
-0.0954244 -11.8908 -11.8908
-0.0937043 -11.7968 -11.7968
-0.252866 -11.8408 -11.8408
-0.174585 -11.8893 -11.8893
-0.0945635 -11.8438 -11.8438
-0.172846 -11.7953 -11.7953
-0.173715 -11.8423 -11.8423
-0.253745 -11.8878 -11.8878
-0.255498 -11.9818 -11.9818
-0.097151 -11.9848 -11.9848
-0.0954244 -11.8908 -11.8908
-0.254622 -11.9348 -11.9348
-0.176324 -11.9833 -11.9833
-0.0962869 -11.9378 -11.9378
-0.174585 -11.8893 -11.8893
-0.175454 -11.9363 -11.9363
-0.255498 -11.9818 -11.9818
-0.257246 -12.0759 -12.0759
-0.0988834 -12.0788 -12.0788
-0.097151 -11.9848 -11.9848
-0.256372 -12.0288 -12.0288
-0.178065 -12.0773 -12.0773
-0.0980167 -12.0318 -12.0318
-0.176324 -11.9833 -11.9833
-0.177195 -12.0303 -12.0303
-0.257246 -12.0759 -12.0759
-0.258992 -12.1699 -12.1699
-0.100619 -12.1728 -12.1728
-0.0988834 -12.0788 -12.0788
-0.25812 -12.1229 -12.1229
-0.179805 -12.1713 -12.1713
-0.0997508 -12.1258 -12.1258
-0.178065 -12.0773 -12.0773
-0.178935 -12.1243 -12.1243
-0.258992 -12.1699 -12.1699
-0.260737 -12.2639 -12.2639
-0.102354 -12.2668 -12.2668
-0.100619 -12.1728 -12.1728
-0.259865 -12.2169 -12.2169
-0.181545 -12.2653 -12.2653
-0.101487 -12.2198 -12.2198
-0.179805 -12.1713 -12.1713
-0.180675 -12.2183 -12.2183
-0.260737 -12.2639 -12.2639
-0.262483 -12.3578 -12.3578
-0.104083 -12.3608 -12.3608
-0.102354 -12.2668 -12.2668
-0.26161 -12.3109 -12.3109
-0.183283 -12.3593 -12.3593
-0.103219 -12.3138 -12.3138
-0.181545 -12.2653 -12.2653
-0.182414 -12.3123 -12.3123
0 0 0
0.000695162 0.000112308 0.000112308
0.0021253 -0.000223032 -0.000223032
0 0 0
0.000345918 0.00022832 0.00022832
0.00140488 -1.38844e-05 -1.38844e-05
0.00103026 6.29188e-05 6.29188e-05
0 0 0
0.000681801 0.000171836 0.000171836
0.000695162 0.000112308 0.000112308
0.00144859 -0.0010809 -0.0010809
0.00441318 -0.00166428 -0.00166428
0.0021253 -0.000223032 -0.000223032
0.00106482 -0.000331405 -0.000331405
0.00291741 -0.0012929 -0.0012929
0.00325499 -0.00080573 -0.00080573
0.00140488 -1.38844e-05 -1.38844e-05
0.00215165 -0.000507679 -0.000507679
0.00144859 -0.0010809 -0.0010809
0.00222887 -0.00341972 -0.00341972
0.00679597 -0.00415552 -0.00415552
0.00441318 -0.00166428 -0.00166428
0.00183671 -0.00211488 -0.00211488
0.00449331 -0.00369178 -0.00369178
0.00559739 -0.00278547 -0.00278547
0.00291741 -0.0012929 -0.0012929
0.00369986 -0.00235959 -0.00235959
0.00222887 -0.00341972 -0.00341972
0.00302535 -0.00679982 -0.00679982
0.00919748 -0.00760394 -0.00760394
0.00679597 -0.00415552 -0.00415552
0.00262613 -0.00498432 -0.00498432
0.00609207 -0.00710048 -0.00710048
0.0079971 -0.00576269 -0.00576269
0.00449331 -0.00369178 -0.00369178
0.00529186 -0.00527419 -0.00527419
0.00302535 -0.00679982 -0.00679982
0.00381931 -0.0111567 -0.0111567
0.0115894 -0.0119841 -0.0119841
0.00919748 -0.00760394 -0.00760394
0.00342315 -0.00885875 -0.00885875
0.00768794 -0.0114689 -0.0114689
0.0103957 -0.00967827 -0.00967827
0.00609207 -0.00710048 -0.00710048
0.00689135 -0.00916664 -0.00916664
0.00381931 -0.0111567 -0.0111567
0.00460683 -0.0164575 -0.0164575
0.0139572 -0.0172864 -0.0172864
0.0115894 -0.0119841 -0.0119841
0.00421412 -0.0136904 -0.0136904
0.00926884 -0.0167712 -0.0167712
0.0127765 -0.0145202 -0.0145202
0.00768794 -0.0114689 -0.0114689
0.00848057 -0.0140042 -0.0140042
0.00460683 -0.0164575 -0.0164575
0.00538391 -0.0226848 -0.0226848
0.0163014 -0.023509 -0.023509
0.0139572 -0.0172864 -0.0172864
0.0049967 -0.019456 -0.019456
0.0108321 -0.0229973 -0.0229973
0.0151322 -0.0202828 -0.0202828
0.00926884 -0.0167712 -0.0167712
0.0100527 -0.0197692 -0.0197692
0.00538391 -0.0226848 -0.0226848
0.00615134 -0.0298301 -0.0298301
0.0186231 -0.030649 -0.030649
0.0163014 -0.023509 -0.023509
0.0057688 -0.0261431 -0.0261431
0.0123785 -0.030141 -0.030141
0.017465 -0.0269645 -0.0269645
0.0108321 -0.0229973 -0.0229973
0.0116073 -0.0264548 -0.0264548
0.00615134 -0.0298301 -0.0298301
0.00690926 -0.037888 -0.037888
0.020925 -0.0387031 -0.0387031
0.0186231 -0.030649 -0.030649
0.00653145 -0.0337453 -0.0337453
0.0139095 -0.0381979 -0.0381979
0.0197764 -0.034562 -0.034562
0.0123785 -0.030141 -0.030141
0.0131458 -0.0340555 -0.0340555
0.00690926 -0.037888 -0.037888
0.00765849 -0.0468543 -0.0468543
0.0232084 -0.0476675 -0.0476675
0.020925 -0.0387031 -0.0387031
0.00728493 -0.0422579 -0.0422579
0.0154264 -0.0471639 -0.0471639
0.0220689 -0.0430718 -0.0430718
0.0139095 -0.0381979 -0.0381979
0.0146697 -0.0425675 -0.0425675
0.00765849 -0.0468543 -0.0468543
0.00839926 -0.0567247 -0.0567247
0.0254745 -0.0575377 -0.0575377
0.0232084 -0.0476675 -0.0476675
0.00802992 -0.0516767 -0.0516767
0.0169303 -0.0570348 -0.0570348
0.0243435 -0.0524896 -0.0524896
0.0154264 -0.0471639 -0.0471639
0.01618 -0.0519865 -0.0519865
0.00839926 -0.0567247 -0.0567247
0.00913178 -0.0674951 -0.0674951
0.0277238 -0.0683091 -0.0683091
0.0254745 -0.0575377 -0.0575377
0.00876655 -0.0619976 -0.0619976
0.0184214 -0.0678063 -0.0678063
0.0266012 -0.062811 -0.062811
0.0169303 -0.0570348 -0.0570348
0.0176774 -0.0623083 -0.0623083
0.00913178 -0.0674951 -0.0674951
0.00985599 -0.079161 -0.079161
0.0299564 -0.0799771 -0.0799771
0.0277238 -0.0683091 -0.0683091
0.00949493 -0.0732164 -0.0732164
0.0198999 -0.0794738 -0.0794738
0.0288422 -0.0740313 -0.0740313
0.0184214 -0.0678063 -0.0678063
0.0191622 -0.0735284 -0.0735284
0.00985599 -0.079161 -0.079161
0.0105717 -0.0917179 -0.0917179
0.0321723 -0.0925367 -0.0925367
0.0299564 -0.0799771 -0.0799771
0.0102149 -0.0853283 -0.0853283
0.0213658 -0.0920326 -0.0920326
0.0310665 -0.0861457 -0.0861457
0.0198999 -0.0794738 -0.0794738
0.0206345 -0.0856421 -0.0856421
0.0105717 -0.0917179 -0.0917179
0.0112789 -0.105161 -0.105161
0.0343714 -0.105983 -0.105983
0.0321723 -0.0925367 -0.0925367
0.0109264 -0.0983289 -0.0983289
0.022819 -0.105478 -0.105478
0.033274 -0.0991494 -0.0991494
0.0213658 -0.0920326 -0.0920326
0.022094 -0.0986447 -0.0986447
0.0112789 -0.105161 -0.105161
0.0119771 -0.119486 -0.119486
0.0365535 -0.120312 -0.120312
0.0343714 -0.105983 -0.105983
0.0116291 -0.112213 -0.112213
0.0242591 -0.119805 -0.119805
0.0354646 -0.113038 -0.113038
0.022819 -0.105478 -0.105478
0.0235407 -0.112532 -0.112532
0.0119771 -0.119486 -0.119486
0.0126661 -0.134687 -0.134687
0.0387182 -0.135518 -0.135518
0.0365535 -0.120312 -0.120312
0.0123228 -0.126977 -0.126977
0.025686 -0.135009 -0.135009
0.037638 -0.127805 -0.127805
0.0242591 -0.119805 -0.119805
0.0249743 -0.127298 -0.127298
0.0126661 -0.134687 -0.134687
0.0133458 -0.15076 -0.15076
0.0408653 -0.151596 -0.151596
0.0387182 -0.135518 -0.135518
0.0130072 -0.142615 -0.142615
0.0270995 -0.151085 -0.151085
0.0397939 -0.143448 -0.143448
0.025686 -0.135009 -0.135009
0.0263944 -0.142938 -0.142938
0.0133458 -0.15076 -0.15076
0.0140158 -0.1677 -0.1677
0.0429945 -0.168541 -0.168541
0.0408653 -0.151596 -0.151596
0.013682 -0.159122 -0.159122
0.0284991 -0.168028 -0.168028
0.0419321 -0.15996 -0.15996
0.0270995 -0.151085 -0.151085
0.027801 -0.159449 -0.159449
0.0140158 -0.1677 -0.1677
0.0146758 -0.185502 -0.185502
0.0451057 -0.186349 -0.186349
0.0429945 -0.168541 -0.168541
0.0143471 -0.176494 -0.176494
0.0298847 -0.185834 -0.185834
0.0440524 -0.177338 -0.177338
0.0284991 -0.168028 -0.168028
0.0291937 -0.176824 -0.176824
0.0146758 -0.185502 -0.185502
0.0153257 -0.204162 -0.204162
0.0471985 -0.205015 -0.205015
0.0451057 -0.186349 -0.186349
0.0150021 -0.194725 -0.194725
0.0312561 -0.204497 -0.204497
0.0461544 -0.195575 -0.195575
0.0298847 -0.185834 -0.185834
0.0305722 -0.195059 -0.195059
0.0153257 -0.204162 -0.204162
0.0159651 -0.223674 -0.223674
0.0492727 -0.224534 -0.224534
0.0471985 -0.205015 -0.205015
0.0156467 -0.213811 -0.213811
0.0326129 -0.224013 -0.224013
0.0482379 -0.214668 -0.214668
0.0312561 -0.204497 -0.204497
0.0319363 -0.214149 -0.214149
0.0159651 -0.223674 -0.223674
0.0165939 -0.244033 -0.244033
0.051328 -0.2449 -0.2449
0.0492727 -0.224534 -0.224534
0.0162808 -0.233748 -0.233748
0.033955 -0.244377 -0.244377
0.0503027 -0.234611 -0.234611
0.0326129 -0.224013 -0.224013
0.0332858 -0.234089 -0.234089
0.0165939 -0.244033 -0.244033
0.0172117 -0.265235 -0.265235
0.0533642 -0.26611 -0.26611
0.051328 -0.2449 -0.2449
0.0169041 -0.254529 -0.254529
0.035282 -0.265583 -0.265583
0.0523485 -0.2554 -0.2554
0.033955 -0.244377 -0.244377
0.0346204 -0.254875 -0.254875
0.0172117 -0.265235 -0.265235
0.0178183 -0.287276 -0.287276
0.055381 -0.288158 -0.288158
0.0533642 -0.26611 -0.26611
0.0175164 -0.276151 -0.276151
0.0365938 -0.287628 -0.287628
0.054375 -0.27703 -0.27703
0.035282 -0.265583 -0.265583
0.0359398 -0.276501 -0.276501
0.0178183 -0.287276 -0.287276
0.0184136 -0.310149 -0.310149
0.0573783 -0.31104 -0.31104
0.055381 -0.288158 -0.288158
0.0181174 -0.298608 -0.298608
0.0378901 -0.310506 -0.310506
0.0563821 -0.299495 -0.299495
0.0365938 -0.287628 -0.287628
0.0372439 -0.298963 -0.298963
0.0184136 -0.310149 -0.310149
0.0189972 -0.33385 -0.33385
0.0593558 -0.33475 -0.33475
0.0573783 -0.31104 -0.31104
0.0187068 -0.321896 -0.321896
0.0391706 -0.334212 -0.334212
0.0583695 -0.322791 -0.322791
0.0378901 -0.310506 -0.310506
0.0385323 -0.322256 -0.322256
0.0189972 -0.33385 -0.33385
0.0195689 -0.358375 -0.358375
0.0613132 -0.359284 -0.359284
0.0593558 -0.33475 -0.33475
0.0192845 -0.34601 -0.34601
0.0404352 -0.358742 -0.358742
0.060337 -0.346914 -0.346914
0.0391706 -0.334212 -0.334212
0.0398049 -0.346374 -0.346374
0.0195689 -0.358375 -0.358375
0.0201286 -0.383718 -0.383718
0.0632504 -0.384636 -0.384636
0.0613132 -0.359284 -0.359284
0.0198503 -0.370944 -0.370944
0.0416837 -0.38409 -0.38409
0.0622843 -0.371858 -0.371858
0.0404352 -0.358742 -0.358742
0.0410615 -0.371314 -0.371314
0.0201286 -0.383718 -0.383718
0.020676 -0.409875 -0.409875
0.0651671 -0.410803 -0.410803
0.0632504 -0.384636 -0.384636
0.0204039 -0.396695 -0.396695
0.0429158 -0.410252 -0.410252
0.0642113 -0.397618 -0.397618
0.0416837 -0.38409 -0.38409
0.0423018 -0.39707 -0.39707
0.020676 -0.409875 -0.409875
0.0212109 -0.436841 -0.436841
0.0670631 -0.437779 -0.437779
0.0651671 -0.410803 -0.410803
0.020945 -0.423257 -0.423257
0.0441313 -0.437224 -0.437224
0.0661177 -0.42419 -0.42419
0.0429158 -0.410252 -0.410252
0.0435256 -0.423637 -0.423637
0.0212109 -0.436841 -0.436841
0.0217331 -0.46461 -0.46461
0.0689383 -0.465559 -0.465559
0.0670631 -0.437779 -0.437779
0.0214736 -0.450625 -0.450625
0.04533 -0.464999 -0.464999
0.0680034 -0.451568 -0.451568
0.0441313 -0.437224 -0.437224
0.0447327 -0.451011 -0.451011
0.0217331 -0.46461 -0.46461
0.0222424 -0.493179 -0.493179
0.0707924 -0.494138 -0.494138
0.0689383 -0.465559 -0.465559
0.0219894 -0.478795 -0.478795
0.0465117 -0.493574 -0.493574
0.069868 -0.479749 -0.479749
0.04533 -0.464999 -0.464999
0.045923 -0.479187 -0.479187
0.0222424 -0.493179 -0.493179
0.0227386 -0.522542 -0.522542
0.0726252 -0.523512 -0.523512
0.0707924 -0.494138 -0.494138
0.0224922 -0.507761 -0.507761
0.0476762 -0.522943 -0.522943
0.0717115 -0.508726 -0.508726
0.0465117 -0.493574 -0.493574
0.0470961 -0.508159 -0.508159
0.0227386 -0.522542 -0.522542
0.0232215 -0.552694 -0.552694
0.0744365 -0.553676 -0.553676
0.0726252 -0.523512 -0.523512
0.0229818 -0.53752 -0.53752
0.0488234 -0.553101 -0.553101
0.0735336 -0.538496 -0.538496
0.0476762 -0.522943 -0.522943
0.048252 -0.537924 -0.537924
0.0232215 -0.552694 -0.552694
0.023691 -0.583631 -0.583631
0.0762262 -0.584625 -0.584625
0.0744365 -0.553676 -0.553676
0.023458 -0.568065 -0.568065
0.0499529 -0.584044 -0.584044
0.0753341 -0.569053 -0.569053
0.0488234 -0.553101 -0.553101
0.0493904 -0.568475 -0.568475
0.023691 -0.583631 -0.583631
0.0241468 -0.615347 -0.615347
0.077994 -0.616353 -0.616353
0.0762262 -0.584625 -0.584625
0.0239206 -0.599392 -0.599392
0.0510648 -0.615768 -0.615768
0.0771129 -0.600392 -0.600392
0.0499529 -0.584044 -0.584044
0.0505111 -0.599809 -0.599809
0.0241468 -0.615347 -0.615347
0.0245887 -0.647839 -0.647839
0.0797399 -0.648857 -0.648857
0.077994 -0.616353 -0.616353
0.0243695 -0.631496 -0.631496
0.0521587 -0.648266 -0.648266
0.0788697 -0.632509 -0.632509
0.0510648 -0.615768 -0.615768
0.051614 -0.63192 -0.63192
0.0245887 -0.647839 -0.647839
0.0250167 -0.6811 -0.6811
0.0814635 -0.682131 -0.682131
0.0797399 -0.648857 -0.648857
0.0248045 -0.664373 -0.664373
0.0532345 -0.681534 -0.681534
0.0806045 -0.665398 -0.665398
0.0521587 -0.648266 -0.648266
0.0526989 -0.664804 -0.664804
0.0250167 -0.6811 -0.6811
0.0254304 -0.715127 -0.715127
0.0831648 -0.716171 -0.716171
0.0814635 -0.682131 -0.682131
0.0252253 -0.698018 -0.698018
0.054292 -0.715567 -0.715567
0.082317 -0.699055 -0.699055
0.0532345 -0.681534 -0.681534
0.0537656 -0.698455 -0.698455
0.0254304 -0.715127 -0.715127
0.0258298 -0.749913 -0.749913
0.0848435 -0.750971 -0.750971
0.0831648 -0.716171 -0.716171
0.0256319 -0.732425 -0.732425
0.0553311 -0.750361 -0.750361
0.084007 -0.733476 -0.733476
0.054292 -0.715567 -0.715567
0.0548139 -0.732869 -0.732869
0.0258298 -0.749913 -0.749913
0.0262148 -0.785455 -0.785455
0.0864996 -0.786526 -0.786526
0.0848435 -0.750971 -0.750971
0.0260241 -0.76759 -0.76759
0.0563516 -0.785911 -0.785911
0.0856744 -0.768654 -0.768654
0.0553311 -0.750361 -0.750361
0.0558437 -0.768042 -0.768042
0.0262148 -0.785455 -0.785455
0.026585 -0.821748 -0.821748
0.0881329 -0.822833 -0.822833
0.0864996 -0.786526 -0.786526
0.0264017 -0.803508 -0.803508
0.0573534 -0.822211 -0.822211
0.0873191 -0.804586 -0.804586
0.0563516 -0.785911 -0.785911
0.0568549 -0.803967 -0.803967
0.026585 -0.821748 -0.821748
0.0269405 -0.858787 -0.858787
0.0897431 -0.859885 -0.859885
0.0881329 -0.822833 -0.822833
0.0267646 -0.840175 -0.840175
0.0583363 -0.859257 -0.859257
0.0889409 -0.841266 -0.841266
0.0573534 -0.822211 -0.822211
0.0578472 -0.840641 -0.840641
0.0269405 -0.858787 -0.858787
0.027281 -0.896566 -0.896566
0.0913302 -0.897679 -0.897679
0.0897431 -0.859885 -0.859885
0.0271126 -0.877584 -0.877584
0.0593001 -0.897044 -0.897044
0.0905396 -0.87869 -0.87869
0.0583363 -0.859257 -0.859257
0.0588206 -0.878058 -0.878058
0.027281 -0.896566 -0.896566
0.0276064 -0.935082 -0.935082
0.092894 -0.936209 -0.936209
0.0913302 -0.897679 -0.897679
0.0274456 -0.915732 -0.915732
0.0602447 -0.935567 -0.935567
0.092115 -0.916852 -0.916852
0.0593001 -0.897044 -0.897044
0.0597748 -0.916214 -0.916214
0.0276064 -0.935082 -0.935082
0.0279165 -0.974328 -0.974328
0.0944345 -0.97547 -0.97547
0.092894 -0.936209 -0.936209
0.0277634 -0.954614 -0.954614
0.06117 -0.974821 -0.974821
0.0936672 -0.955748 -0.955748
0.0602447 -0.935567 -0.935567
0.0607098 -0.955103 -0.955103
0.0279165 -0.974328 -0.974328
0.0282113 -1.0143 -1.0143
0.0959513 -1.01546 -1.01546
0.0944345 -0.97547 -0.97547
0.0280658 -0.994224 -0.994224
0.0620759 -1.0148 -1.0148
0.0951958 -0.995374 -0.995374
0.06117 -0.974821 -0.974821
0.0616254 -0.994721 -0.994721
0.0282113 -1.0143 -1.0143
0.0284906 -1.055 -1.055
0.0974445 -1.05617 -1.05617
0.0959513 -1.01546 -1.01546
0.0283529 -1.03456 -1.03456
0.0629621 -1.0555 -1.0555
0.0967009 -1.03572 -1.03572
0.0620759 -1.0148 -1.0148
0.0625214 -1.03506 -1.03506
0.0284906 -1.055 -1.055
0.0287542 -1.09641 -1.09641
0.0989139 -1.09759 -1.09759
0.0974445 -1.05617 -1.05617
0.0286244 -1.07561 -1.07561
0.0638286 -1.09692 -1.09692
0.0981822 -1.07679 -1.07679
0.0629621 -1.0555 -1.0555
0.0633978 -1.07613 -1.07613
0.0287542 -1.09641 -1.09641
0.0290021 -1.13853 -1.13853
0.100359 -1.13973 -1.13973
0.0989139 -1.09759 -1.09759
0.0288802 -1.11738 -1.11738
0.0646753 -1.13906 -1.13906
0.0996396 -1.11857 -1.11857
0.0638286 -1.09692 -1.09692
0.0642544 -1.1179 -1.1179
0.0290021 -1.13853 -1.13853
0.0292342 -1.18136 -1.18136
0.101781 -1.18258 -1.18258
0.100359 -1.13973 -1.13973
0.0291201 -1.15986 -1.15986
0.065502 -1.18189 -1.18189
0.101073 -1.16107 -1.16107
0.0646753 -1.13906 -1.13906
0.0650912 -1.16039 -1.16039
0.0292342 -1.18136 -1.18136
0.0294502 -1.22489 -1.22489
0.103178 -1.22613 -1.22613
0.101781 -1.18258 -1.18258
0.0293442 -1.20304 -1.20304
0.0663086 -1.22543 -1.22543
0.102482 -1.20426 -1.20426
0.065502 -1.18189 -1.18189
0.0659078 -1.20358 -1.20358
0.0294502 -1.22489 -1.22489
0.0296501 -1.26912 -1.26912
0.104551 -1.27037 -1.27037
0.103178 -1.22613 -1.22613
0.0295522 -1.24692 -1.24692
0.0670951 -1.26967 -1.26967
0.103867 -1.24816 -1.24816
0.0663086 -1.22543 -1.22543
0.0667044 -1.24747 -1.24747
0.0296501 -1.26912 -1.26912
0.0298339 -1.31404 -1.31404
0.105899 -1.31531 -1.31531
0.104551 -1.27037 -1.27037
0.029744 -1.29149 -1.29149
0.0678613 -1.3146 -1.3146
0.105228 -1.29275 -1.29275
0.0670951 -1.26967 -1.26967
0.0674807 -1.29205 -1.29205
0.0298339 -1.31404 -1.31404
0.0300013 -1.35965 -1.35965
0.107223 -1.36093 -1.36093
0.105899 -1.31531 -1.31531
0.0299196 -1.33676 -1.33676
0.068607 -1.36022 -1.36022
0.106564 -1.33804 -1.33804
0.0678613 -1.3146 -1.3146
0.0682367 -1.33732 -1.33732
0.0300013 -1.35965 -1.35965
0.0301524 -1.40594 -1.40594
0.108523 -1.40724 -1.40724
0.107223 -1.36093 -1.36093
0.0300789 -1.38271 -1.38271
0.0693323 -1.40652 -1.40652
0.107876 -1.384 -1.384
0.068607 -1.36022 -1.36022
0.0689722 -1.38328 -1.38328
0.0301524 -1.40594 -1.40594
0.0302869 -1.45291 -1.45291
0.109798 -1.45423 -1.45423
0.108523 -1.40724 -1.40724
0.0302217 -1.42934 -1.42934
0.070037 -1.4535 -1.4535
0.109163 -1.43065 -1.43065
0.0693323 -1.40652 -1.40652
0.0696872 -1.42992 -1.42992
0.0302869 -1.45291 -1.45291
0.0304049 -1.50055 -1.50055
0.111048 -1.50189 -1.50189
0.109798 -1.45423 -1.45423
0.030348 -1.47665 -1.47665
0.070721 -1.50115 -1.50115
0.110426 -1.47798 -1.47798
0.070037 -1.4535 -1.4535
0.0703816 -1.47724 -1.47724
0.0304049 -1.50055 -1.50055
0.0305062 -1.54887 -1.54887
0.112273 -1.55022 -1.55022
0.111048 -1.50189 -1.50189
0.0304576 -1.52463 -1.52463
0.0713843 -1.54947 -1.54947
0.111664 -1.52597 -1.52597
0.070721 -1.50115 -1.50115
0.0710553 -1.52523 -1.52523
0.0305062 -1.54887 -1.54887
0.0305907 -1.59784 -1.59784
0.113473 -1.59921 -1.59921
0.112273 -1.55022 -1.55022
0.0305505 -1.57327 -1.57327
0.0720267 -1.59845 -1.59845
0.112876 -1.57463 -1.57463
0.0713843 -1.54947 -1.54947
0.0717081 -1.57388 -1.57388
0.0305907 -1.59784 -1.59784
0.0306584 -1.64747 -1.64747
0.114649 -1.64886 -1.64886
0.113473 -1.59921 -1.59921
0.0306266 -1.62257 -1.62257
0.0726482 -1.64809 -1.64809
0.114064 -1.62395 -1.62395
0.0720267 -1.59845 -1.59845
0.0723401 -1.62319 -1.62319
0.0306584 -1.64747 -1.64747
0.0307092 -1.69776 -1.69776
0.115799 -1.69916 -1.69916
0.114649 -1.64886 -1.64886
0.0306859 -1.67253 -1.67253
0.0732487 -1.69839 -1.69839
0.115227 -1.67393 -1.67393
0.0726482 -1.64809 -1.64809
0.072951 -1.67316 -1.67316
0.0307092 -1.69776 -1.69776
0.030743 -1.74869 -1.74869
0.116924 -1.75011 -1.75011
0.115799 -1.69916 -1.69916
0.0307282 -1.72314 -1.72314
0.0738281 -1.74933 -1.74933
0.116364 -1.72456 -1.72456
0.0732487 -1.69839 -1.69839
0.073541 -1.72378 -1.72378
0.030743 -1.74869 -1.74869
0.0307597 -1.80027 -1.80027
0.118024 -1.80171 -1.80171
0.116924 -1.75011 -1.75011
0.0307535 -1.7744 -1.7744
0.0743863 -1.80092 -1.80092
0.117477 -1.77583 -1.77583
0.0738281 -1.74933 -1.74933
0.0741099 -1.77505 -1.77505
0.0307597 -1.80027 -1.80027
0.0307594 -1.85249 -1.85249
0.119098 -1.85395 -1.85395
0.118024 -1.80171 -1.80171
0.0307617 -1.8263 -1.8263
0.0749234 -1.85315 -1.85315
0.118564 -1.82775 -1.82775
0.0743863 -1.80092 -1.80092
0.0746575 -1.82696 -1.82696
0.0307594 -1.85249 -1.85249
0.0307418 -1.90534 -1.90534
0.120147 -1.90681 -1.90681
0.119098 -1.85395 -1.85395
0.0307528 -1.87884 -1.87884
0.0754392 -1.90601 -1.90601
0.119626 -1.8803 -1.8803
0.0749234 -1.85315 -1.85315
0.075184 -1.8795 -1.8795
0.0307418 -1.90534 -1.90534
0.0307071 -1.95882 -1.95882
0.121171 -1.96031 -1.96031
0.120147 -1.90681 -1.90681
0.0307266 -1.932 -1.932
0.0759337 -1.9595 -1.9595
0.120662 -1.93349 -1.93349
0.0754392 -1.90601 -1.90601
0.0756891 -1.93268 -1.93268
0.0307071 -1.95882 -1.95882
0.030655 -2.01293 -2.01293
0.122169 -2.01444 -2.01444
0.121171 -1.96031 -1.96031
0.0306832 -1.9858 -1.9858
0.0764068 -2.01362 -2.01362
0.121673 -1.9873 -1.9873
0.0759337 -1.9595 -1.9595
0.076173 -1.98648 -1.98648
0.030655 -2.01293 -2.01293
0.0305857 -2.06765 -2.06765
0.123142 -2.06918 -2.06918
0.122169 -2.01444 -2.01444
0.0306225 -2.04021 -2.04021
0.0768585 -2.06835 -2.06835
0.122659 -2.04173 -2.04173
0.0764068 -2.01362 -2.01362
0.0766354 -2.04091 -2.04091
0.0305857 -2.06765 -2.06765
0.0304989 -2.12299 -2.12299
0.124089 -2.12454 -2.12454
0.123142 -2.06918 -2.06918
0.0305445 -2.09525 -2.09525
0.0772888 -2.1237 -2.1237
0.123619 -2.09678 -2.09678
0.0768585 -2.06835 -2.06835
0.0770763 -2.09595 -2.09595
0.0304989 -2.12299 -2.12299
0.0303948 -2.17894 -2.17894
0.125011 -2.18051 -2.18051
0.124089 -2.12454 -2.12454
0.030449 -2.15089 -2.15089
0.0776975 -2.17966 -2.17966
0.124553 -2.15245 -2.15245
0.0772888 -2.1237 -2.1237
0.0774958 -2.1516 -2.1516
0.0303948 -2.17894 -2.17894
0.0302731 -2.2355 -2.2355
0.125907 -2.23708 -2.23708
0.125011 -2.18051 -2.18051
0.0303361 -2.20714 -2.20714
0.0780847 -2.23623 -2.23623
0.125462 -2.20872 -2.20872
0.0776975 -2.17966 -2.17966
0.0778938 -2.20787 -2.20787
0.0302731 -2.2355 -2.2355
0.030134 -2.29265 -2.29265
0.126777 -2.29426 -2.29426
0.125907 -2.23708 -2.23708
0.0302058 -2.264 -2.264
0.0784502 -2.29339 -2.29339
0.126345 -2.26559 -2.26559
0.0780847 -2.23623 -2.23623
0.0782702 -2.26473 -2.26473
0.030134 -2.29265 -2.29265
0.0299773 -2.3504 -2.3504
0.127622 -2.35203 -2.35203
0.126777 -2.29426 -2.29426
0.0300579 -2.32145 -2.32145
0.0787942 -2.35115 -2.35115
0.127202 -2.32307 -2.32307
0.0784502 -2.29339 -2.29339
0.0786249 -2.3222 -2.3222
0.0299773 -2.3504 -2.3504
0.0298031 -2.40875 -2.40875
0.12844 -2.41039 -2.41039
0.127622 -2.35203 -2.35203
0.0298924 -2.3795 -2.3795
0.0791165 -2.4095 -2.4095
0.128034 -2.38113 -2.38113
0.0787942 -2.35115 -2.35115
0.0789581 -2.38025 -2.38025
0.0298031 -2.40875 -2.40875
0.0296113 -2.46767 -2.46767
0.129233 -2.46933 -2.46933
0.12844 -2.41039 -2.41039
0.0297094 -2.43814 -2.43814
0.0794172 -2.46844 -2.46844
0.12884 -2.43979 -2.43979
0.0791165 -2.4095 -2.4095
0.0792696 -2.4389 -2.4389
0.0296113 -2.46767 -2.46767
0.029402 -2.52718 -2.52718
0.130001 -2.52886 -2.52886
0.129233 -2.46933 -2.46933
0.0295089 -2.49735 -2.49735
0.0796961 -2.52796 -2.52796
0.12962 -2.49902 -2.49902
0.0794172 -2.46844 -2.46844
0.0795594 -2.49813 -2.49813
0.029402 -2.52718 -2.52718
0.0291749 -2.58726 -2.58726
0.130742 -2.58896 -2.58896
0.130001 -2.52886 -2.52886
0.0292906 -2.55715 -2.55715
0.0799534 -2.58805 -2.58805
0.130375 -2.55884 -2.55884
0.0796961 -2.52796 -2.52796
0.0798275 -2.55793 -2.55793
0.0291749 -2.58726 -2.58726
0.0289303 -2.64792 -2.64792
0.131458 -2.64963 -2.64963
0.130742 -2.58896 -2.58896
0.0290548 -2.61752 -2.61752
0.0801889 -2.64872 -2.64872
0.131103 -2.61923 -2.61923
0.0799534 -2.58805 -2.58805
0.0800739 -2.61831 -2.61831
0.0289303 -2.64792 -2.64792
0.028668 -2.70914 -2.70914
0.132148 -2.71087 -2.71087
0.131458 -2.64963 -2.64963
0.0288013 -2.67846 -2.67846
0.0804027 -2.70995 -2.70995
0.131806 -2.68018 -2.68018
0.0801889 -2.64872 -2.64872
0.0802985 -2.67926 -2.67926
0.028668 -2.70914 -2.70914
0.028388 -2.77092 -2.77092
0.132812 -2.77268 -2.77268
0.132148 -2.71087 -2.71087
0.0285302 -2.73996 -2.73996
0.0805947 -2.77174 -2.77174
0.132483 -2.74171 -2.74171
0.0804027 -2.70995 -2.70995
0.0805014 -2.74077 -2.74077
0.028388 -2.77092 -2.77092
0.0280904 -2.83326 -2.83326
0.13345 -2.83503 -2.83503
0.132812 -2.77268 -2.77268
0.0282414 -2.80203 -2.80203
0.080765 -2.83409 -2.83409
0.133134 -2.80379 -2.80379
0.0805947 -2.77174 -2.77174
0.0806826 -2.80285 -2.80285
0.0280904 -2.83326 -2.83326
0.0277751 -2.89616 -2.89616
0.134062 -2.89795 -2.89795
0.13345 -2.83503 -2.83503
0.027935 -2.86464 -2.86464
0.0809136 -2.89699 -2.89699
0.13376 -2.86642 -2.86642
0.080765 -2.83409 -2.83409
0.080842 -2.86547 -2.86547
0.0277751 -2.89616 -2.89616
0.0274422 -2.95959 -2.95959
0.134649 -2.9614 -2.9614
0.134062 -2.89795 -2.89795
0.0276108 -2.92781 -2.92781
0.0810403 -2.96044 -2.96044
0.134359 -2.92961 -2.92961
0.0809136 -2.89699 -2.89699
0.0809797 -2.92865 -2.92865
0.0274422 -2.95959 -2.95959
0.0270915 -3.02357 -3.02357
0.13521 -3.0254 -3.0254
0.134649 -2.9614 -2.9614
0.0272691 -2.99152 -2.99152
0.0811454 -3.02443 -3.02443
0.134933 -2.99333 -2.99333
0.0810403 -2.96044 -2.96044
0.0810956 -2.99237 -2.99237
0.0270915 -3.02357 -3.02357
0.0267233 -3.08809 -3.08809
0.135744 -3.08994 -3.08994
0.13521 -3.0254 -3.0254
0.0269096 -3.05577 -3.05577
0.0812286 -3.08896 -3.08896
0.13548 -3.0576 -3.0576
0.0811454 -3.02443 -3.02443
0.0811897 -3.05663 -3.05663
0.0267233 -3.08809 -3.08809
0.0263374 -3.15314 -3.15314
0.136253 -3.15501 -3.15501
0.135744 -3.08994 -3.08994
0.0265325 -3.12055 -3.12055
0.0812902 -3.15402 -3.15402
0.136002 -3.12241 -3.12241
0.0812286 -3.08896 -3.08896
0.0812621 -3.12142 -3.12142
0.0263374 -3.15314 -3.15314
0.0259338 -3.21872 -3.21872
0.136737 -3.2206 -3.2206
0.136253 -3.15501 -3.15501
0.0261378 -3.18587 -3.18587
0.08133 -3.21961 -3.21961
0.136498 -3.18774 -3.18774
0.0812902 -3.15402 -3.15402
0.0813128 -3.18675 -3.18675
0.0259338 -3.21872 -3.21872
0.0255127 -3.28482 -3.28482
0.137194 -3.28672 -3.28672
0.136737 -3.2206 -3.2206
0.0257254 -3.25171 -3.25171
0.0813481 -3.28572 -3.28572
0.136969 -3.2536 -3.2536
0.08133 -3.21961 -3.21961
0.0813418 -3.2526 -3.2526
0.0255127 -3.28482 -3.28482
0.0250739 -3.35144 -3.35144
0.137626 -3.35336 -3.35336
0.137194 -3.28672 -3.28672
0.0252955 -3.31806 -3.31806
0.0813446 -3.35234 -3.35234
0.137413 -3.31998 -3.31998
0.0813481 -3.28572 -3.28572
0.0813491 -3.31897 -3.31897
0.0250739 -3.35144 -3.35144
0.0246176 -3.41857 -3.41857
0.138032 -3.42051 -3.42051
0.137626 -3.35336 -3.35336
0.0248479 -3.38494 -3.38494
0.0813194 -3.41948 -3.41948
0.137832 -3.38687 -3.38687
0.0813446 -3.35234 -3.35234
0.0813347 -3.38585 -3.38585
0.0246176 -3.41857 -3.41857
0.0241437 -3.48621 -3.48621
0.138412 -3.48817 -3.48817
0.138032 -3.42051 -3.42051
0.0243828 -3.45233 -3.45233
0.0812725 -3.48713 -3.48713
0.138225 -3.45427 -3.45427
0.0813194 -3.41948 -3.41948
0.0812986 -3.45325 -3.45325
0.0241437 -3.48621 -3.48621
0.0236523 -3.55435 -3.55435
0.138766 -3.55633 -3.55633
0.138412 -3.48817 -3.48817
0.0239002 -3.52022 -3.52022
0.081204 -3.55529 -3.55529
0.138592 -3.52218 -3.52218
0.0812725 -3.48713 -3.48713
0.081241 -3.52115 -3.52115
0.0236523 -3.55435 -3.55435
0.0231434 -3.62299 -3.62299
0.139095 -3.62499 -3.62499
0.138766 -3.55633 -3.55633
0.0234 -3.58861 -3.58861
0.081114 -3.62394 -3.62394
0.138934 -3.5906 -3.5906
0.081204 -3.55529 -3.55529
0.0811617 -3.58955 -3.58955
0.0231434 -3.62299 -3.62299
0.0226171 -3.69213 -3.69213
0.139398 -3.69414 -3.69414
0.139095 -3.62499 -3.62499
0.0228824 -3.6575 -3.6575
0.0810024 -3.69308 -3.69308
0.13925 -3.6595 -3.6595
0.081114 -3.62394 -3.62394
0.0810609 -3.65845 -3.65845
0.0226171 -3.69213 -3.69213
0.0220733 -3.76175 -3.76175
0.139676 -3.76378 -3.76378
0.139398 -3.69414 -3.69414
0.0223474 -3.72688 -3.72688
0.0808693 -3.76271 -3.76271
0.13954 -3.7289 -3.7289
0.0810024 -3.69308 -3.69308
0.0809385 -3.72784 -3.72784
0.0220733 -3.76175 -3.76175
0.0215122 -3.83186 -3.83186
0.139928 -3.83391 -3.83391
0.139676 -3.76378 -3.76378
0.0217949 -3.79674 -3.79674
0.0807147 -3.83283 -3.83283
0.139805 -3.79878 -3.79878
0.0808693 -3.76271 -3.76271
0.0807947 -3.79771 -3.79771
0.0215122 -3.83186 -3.83186
0.0209337 -3.90245 -3.90245
0.140154 -3.90451 -3.90451
0.139928 -3.83391 -3.83391
0.0212251 -3.86709 -3.86709
0.0805387 -3.90343 -3.90343
0.140044 -3.86915 -3.86915
0.0807147 -3.83283 -3.83283
0.0806294 -3.86807 -3.86807
0.0209337 -3.90245 -3.90245
0.0203379 -3.97351 -3.97351
0.140355 -3.97559 -3.97559
0.140154 -3.90451 -3.90451
0.0206379 -3.93792 -3.93792
0.0803414 -3.9745 -3.9745
0.140258 -3.93999 -3.93999
0.0805387 -3.90343 -3.90343
0.0804427 -3.9389 -3.9389
0.0203379 -3.97351 -3.97351
0.0197249 -4.04504 -4.04504
0.140531 -4.04714 -4.04714
0.140355 -3.97559 -3.97559
0.0200335 -4.00921 -4.00921
0.0801227 -4.04604 -4.04604
0.140446 -4.01131 -4.01131
0.0803414 -3.9745 -3.9745
0.0802347 -4.01021 -4.01021
0.0197249 -4.04504 -4.04504
0.0190947 -4.11703 -4.11703
0.140681 -4.11915 -4.11915
0.140531 -4.04714 -4.04714
0.0194119 -4.08098 -4.08098
0.0798827 -4.11804 -4.11804
0.140609 -4.08309 -4.08309
0.0801227 -4.04604 -4.04604
0.0800053 -4.08198 -4.08198
0.0190947 -4.11703 -4.11703
0.0184473 -4.18949 -4.18949
0.140806 -4.19162 -4.19162
0.140681 -4.11915 -4.11915
0.0187731 -4.1532 -4.1532
0.0796215 -4.19051 -4.19051
0.140747 -4.15533 -4.15533
0.0798827 -4.11804 -4.11804
0.0797547 -4.15422 -4.15422
0.0184473 -4.18949 -4.18949
0.0177829 -4.26239 -4.26239
0.140906 -4.26455 -4.26455
0.140806 -4.19162 -4.19162
0.0181172 -4.22588 -4.22588
0.0793391 -4.26342 -4.26342
0.140859 -4.22803 -4.22803
0.0796215 -4.19051 -4.19051
0.0794829 -4.22691 -4.22691
0.0177829 -4.26239 -4.26239
0.0171014 -4.33575 -4.33575
0.14098 -4.33793 -4.33793
0.140906 -4.26455 -4.26455
0.0174442 -4.29902 -4.29902
0.0790355 -4.33679 -4.33679
0.140946 -4.30118 -4.30118
0.0793391 -4.26342 -4.26342
0.0791899 -4.30005 -4.30005
0.0171014 -4.33575 -4.33575
0.0164029 -4.40956 -4.40956
0.14103 -4.41175 -4.41175
0.14098 -4.33793 -4.33793
0.0167543 -4.3726 -4.3726
0.078711 -4.41061 -4.41061
0.141008 -4.37478 -4.37478
0.0790355 -4.33679 -4.33679
0.0788759 -4.37365 -4.37365
0.0164029 -4.40956 -4.40956
0.0156876 -4.4838 -4.4838
0.141054 -4.48601 -4.48601
0.14103 -4.41175 -4.41175
0.0160474 -4.44663 -4.44663
0.0783654 -4.48486 -4.48486
0.141045 -4.44883 -4.44883
0.078711 -4.41061 -4.41061
0.0785408 -4.44768 -4.44768
0.0156876 -4.4838 -4.4838
0.0149554 -4.55848 -4.55848
0.141053 -4.56071 -4.56071
0.141054 -4.48601 -4.48601
0.0153236 -4.52109 -4.52109
0.0779989 -4.55955 -4.55955
0.141057 -4.52331 -4.52331
0.0783654 -4.48486 -4.48486
0.0781848 -4.52215 -4.52215
0.0149554 -4.55848 -4.55848
0.0142064 -4.6336 -4.6336
0.141027 -4.63584 -4.63584
0.141053 -4.56071 -4.56071
0.014583 -4.59599 -4.59599
0.0776116 -4.63467 -4.63467
0.141043 -4.59822 -4.59822
0.0779989 -4.55955 -4.55955
0.0778078 -4.59706 -4.59706
0.0142064 -4.6336 -4.6336
0.0134408 -4.70913 -4.70913
0.140977 -4.71139 -4.71139
0.141027 -4.63584 -4.63584
0.0138257 -4.67131 -4.67131
0.0772034 -4.71022 -4.71022
0.141005 -4.67356 -4.67356
0.0776116 -4.63467 -4.63467
0.0774101 -4.67239 -4.67239
0.0134408 -4.70913 -4.70913
0.0126585 -4.78509 -4.78509
0.140901 -4.78737 -4.78737
0.140977 -4.71139 -4.71139
0.0130517 -4.74706 -4.74706
0.0767746 -4.78618 -4.78618
0.140942 -4.74933 -4.74933
0.0772034 -4.71022 -4.71022
0.0769916 -4.74815 -4.74815
0.0126585 -4.78509 -4.78509
0.0118596 -4.86146 -4.86146
0.140801 -4.86376 -4.86376
0.140901 -4.78737 -4.78737
0.0122611 -4.82322 -4.82322
0.0763251 -4.86257 -4.86257
0.140854 -4.82551 -4.82551
0.0767746 -4.78618 -4.78618
0.0765524 -4.82432 -4.82432
0.0118596 -4.86146 -4.86146
0.0110443 -4.93825 -4.93825
0.140676 -4.94056 -4.94056
0.140801 -4.86376 -4.86376
0.011454 -4.8998 -4.8998
0.075855 -4.93936 -4.93936
0.140742 -4.90211 -4.90211
0.0763251 -4.86257 -4.86257
0.0760926 -4.90091 -4.90091
0.0110443 -4.93825 -4.93825
0.0102126 -5.01544 -5.01544
0.140527 -5.01777 -5.01777
0.140676 -4.94056 -4.94056
0.0106305 -4.97679 -4.97679
0.0753645 -5.01656 -5.01656
0.140605 -4.97911 -4.97911
0.075855 -4.93936 -4.93936
0.0756123 -4.97791 -4.97791
0.0102126 -5.01544 -5.01544
0.0093646 -5.09303 -5.09303
0.140353 -5.09538 -5.09538
0.140527 -5.01777 -5.01777
0.00979064 -5.05419 -5.05419
0.0748536 -5.09416 -5.09416
0.140443 -5.05652 -5.05652
0.0753645 -5.01656 -5.01656
0.0751116 -5.05531 -5.05531
0.0093646 -5.09303 -5.09303
0.00850035 -5.17102 -5.17102
0.140155 -5.17338 -5.17338
0.140353 -5.09538 -5.09538
0.00893449 -5.13198 -5.13198
0.0743223 -5.17216 -5.17216
0.140257 -5.13433 -5.13433
0.0748536 -5.09416 -5.09416
0.0745905 -5.13311 -5.13311
0.00850035 -5.17102 -5.17102
0.00761996 -5.2494 -5.2494
0.139933 -5.25178 -5.25178
0.140155 -5.17338 -5.17338
0.00806217 -5.21017 -5.21017
0.0737709 -5.25055 -5.25055
0.140047 -5.21253 -5.21253
0.0743223 -5.17216 -5.17216
0.0740491 -5.21131 -5.21131
0.00761996 -5.2494 -5.2494
0.00672353 -5.32817 -5.32817
0.139686 -5.33057 -5.33057
0.139933 -5.25178 -5.25178
0.00717375 -5.28874 -5.28874
0.0731993 -5.32933 -5.32933
0.139812 -5.29113 -5.29113
0.0737709 -5.25055 -5.25055
0.0734876 -5.28989 -5.28989
0.00672353 -5.32817 -5.32817
0.00581114 -5.40732 -5.40732
0.139415 -5.40973 -5.40973
0.139686 -5.33057 -5.33057
0.00626932 -5.3677 -5.3677
0.0726076 -5.40849 -5.40849
0.139553 -5.3701 -5.3701
0.0731993 -5.32933 -5.32933
0.0729059 -5.36886 -5.36886
0.00581114 -5.40732 -5.40732
0.00488288 -5.48685 -5.48685
0.13912 -5.48928 -5.48928
0.139415 -5.40973 -5.40973
0.00534899 -5.44704 -5.44704
0.071996 -5.48802 -5.48802
0.13927 -5.44946 -5.44946
0.0726076 -5.40849 -5.40849
0.0723043 -5.44821 -5.44821
0.00488288 -5.48685 -5.48685
0.00393886 -5.56675 -5.56675
0.138801 -5.56919 -5.56919
0.13912 -5.48928 -5.48928
0.00441283 -5.52676 -5.52676
0.0713645 -5.56793 -5.56793
0.138964 -5.52919 -5.52919
0.071996 -5.48802 -5.48802
0.0716828 -5.52793 -5.52793
0.00393886 -5.56675 -5.56675
0.00297916 -5.64702 -5.64702
0.138458 -5.64948 -5.64948
0.138801 -5.56919 -5.56919
0.00346096 -5.60684 -5.60684
0.0707133 -5.64821 -5.64821
0.138633 -5.60929 -5.60929
0.0713645 -5.56793 -5.56793
0.0710414 -5.60803 -5.60803
0.00297916 -5.64702 -5.64702
0.0020039 -5.72765 -5.72765
0.138092 -5.73012 -5.73012
0.138458 -5.64948 -5.64948
0.00249347 -5.68729 -5.68729
0.0700425 -5.72885 -5.72885
0.138278 -5.68975 -5.68975
0.0707133 -5.64821 -5.64821
0.0703803 -5.68849 -5.68849
0.0020039 -5.72765 -5.72765
0.00101317 -5.80864 -5.80864
0.137702 -5.81113 -5.81113
0.138092 -5.73012 -5.73012
0.00151046 -5.7681 -5.7681
0.069352 -5.80985 -5.80985
0.1379 -5.77058 -5.77058
0.0700425 -5.72885 -5.72885
0.0696997 -5.7693 -5.7693
0.00101317 -5.80864 -5.80864
7.0729e-06 -5.88999 -5.88999
0.137288 -5.89248 -5.89248
0.137702 -5.81113 -5.81113
0.000512034 -5.84927 -5.84927
0.0686422 -5.8912 -5.8912
0.137498 -5.85176 -5.85176
0.069352 -5.80985 -5.80985
0.0689995 -5.85048 -5.85048
7.0729e-06 -5.88999 -5.88999
-0.00101428 -5.97168 -5.97168
0.136851 -5.97419 -5.97419
0.137288 -5.89248 -5.89248
-0.000501702 -5.93079 -5.93079
0.067913 -5.9729 -5.9729
0.137073 -5.93329 -5.93329
0.0686422 -5.8912 -5.8912
0.06828 -5.932 -5.932
-0.00101428 -5.97168 -5.97168
-0.00205078 -6.05371 -6.05371
0.136391 -6.05624 -6.05624
0.136851 -5.97419 -5.97419
-0.00153064 -6.01265 -6.01265
0.0671645 -6.05494 -6.05494
0.136624 -6.01517 -6.01517
0.067913 -5.9729 -5.9729
0.0675411 -6.01387 -6.01387
-0.00205078 -6.05371 -6.05371
-0.00310231 -6.13608 -6.13608
0.135907 -6.13863 -6.13863
0.136391 -6.05624 -6.05624
-0.00257467 -6.09485 -6.09485
0.0663969 -6.13732 -6.13732
0.136152 -6.09739 -6.09739
0.0671645 -6.05494 -6.05494
0.0667831 -6.09609 -6.09609
-0.00310231 -6.13608 -6.13608
-0.00416878 -6.21879 -6.21879
0.135401 -6.22135 -6.22135
0.135907 -6.13863 -6.13863
-0.00363369 -6.1774 -6.1774
0.0656103 -6.22003 -6.22003
0.135657 -6.17994 -6.17994
0.0663969 -6.13732 -6.13732
0.066006 -6.17863 -6.17863
-0.00416878 -6.21879 -6.21879
-0.00525005 -6.30183 -6.30183
0.134871 -6.3044 -6.3044
0.135401 -6.22135 -6.22135
-0.00470757 -6.26027 -6.26027
0.0648049 -6.30308 -6.30308
0.135139 -6.26283 -6.26283
0.0656103 -6.22003 -6.22003
0.06521 -6.26151 -6.26151
-0.00525005 -6.30183 -6.30183
-0.00634602 -6.38518 -6.38518
0.134318 -6.38777 -6.38777
0.134871 -6.3044 -6.3044
-0.00579621 -6.34346 -6.34346
0.0639806 -6.38644 -6.38644
0.134597 -6.34604 -6.34604
0.0648049 -6.30308 -6.30308
0.0643951 -6.34472 -6.34472
-0.00634602 -6.38518 -6.38518
-0.00745657 -6.46886 -6.46886
0.133743 -6.47146 -6.47146
0.134318 -6.38777 -6.38777
-0.00689948 -6.42698 -6.42698
0.0631377 -6.47013 -6.47013
0.134034 -6.42958 -6.42958
0.0639806 -6.38644 -6.38644
0.0635614 -6.42825 -6.42825
-0.00745657 -6.46886 -6.46886
-0.00858158 -6.55286 -6.55286
0.133145 -6.55547 -6.55547
0.133743 -6.47146 -6.47146
-0.00801727 -6.51082 -6.51082
0.0622762 -6.55413 -6.55413
0.133447 -6.51343 -6.51343
0.0631377 -6.47013 -6.47013
0.0627092 -6.51209 -6.51209
-0.00858158 -6.55286 -6.55286
-0.00972092 -6.63716 -6.63716
0.132525 -6.63978 -6.63978
0.133145 -6.55547 -6.55547
-0.00914946 -6.59497 -6.59497
0.0613963 -6.63844 -6.63844
0.132838 -6.59759 -6.59759
0.0622762 -6.55413 -6.55413
0.0618385 -6.59625 -6.59625
-0.00972092 -6.63716 -6.63716
-0.0108745 -6.72177 -6.72177
0.131882 -6.7244 -6.7244
0.132525 -6.63978 -6.63978
-0.0102959 -6.67943 -6.67943
0.0604981 -6.72305 -6.72305
0.132206 -6.68206 -6.68206
0.0613963 -6.63844 -6.63844
0.0609495 -6.68071 -6.68071
-0.0108745 -6.72177 -6.72177
-0.0120421 -6.80668 -6.80668
0.131217 -6.80932 -6.80932
0.131882 -6.7244 -6.7244
-0.0114565 -6.76418 -6.76418
0.0595817 -6.80797 -6.80797
0.131552 -6.76683 -6.76683
0.0604981 -6.72305 -6.72305
0.0600422 -6.76547 -6.76547
-0.0120421 -6.80668 -6.80668
-0.0132237 -6.89188 -6.89188
0.13053 -6.89454 -6.89454
0.131217 -6.80932 -6.80932
-0.0126312 -6.84924 -6.84924
0.0586473 -6.89318 -6.89318
0.130876 -6.8519 -6.8519
0.0595817 -6.80797 -6.80797
0.0591168 -6.85054 -6.85054
-0.0132237 -6.89188 -6.89188
-0.0144192 -6.97737 -6.97737
0.12982 -6.98004 -6.98004
0.13053 -6.89454 -6.89454
-0.0138197 -6.93459 -6.93459
0.057695 -6.97868 -6.97868
0.130178 -6.93726 -6.93726
0.0586473 -6.89318 -6.89318
0.0581734 -6.93589 -6.93589
-0.0144192 -6.97737 -6.97737
-0.0156283 -7.06315 -7.06315
0.129089 -7.06583 -7.06583
0.12982 -6.98004 -6.98004
-0.015022 -7.02022 -7.02022
0.0567248 -7.06446 -7.06446
0.129458 -7.0229 -7.0229
0.057695 -6.97868 -6.97868
0.0572121 -7.02153 -7.02153
-0.0156283 -7.06315 -7.06315
-0.016851 -7.14921 -7.14921
0.128337 -7.1519 -7.1519
0.129089 -7.06583 -7.06583
-0.016238 -7.10614 -7.10614
0.0557371 -7.15053 -7.15053
0.128716 -7.10883 -7.10883
0.0567248 -7.06446 -7.06446
0.0562332 -7.10746 -7.10746
-0.016851 -7.14921 -7.14921
-0.0180872 -7.23554 -7.23554
0.127562 -7.23825 -7.23825
0.128337 -7.1519 -7.1519
-0.0174674 -7.19234 -7.19234
0.0547318 -7.23687 -7.23687
0.127952 -7.19504 -7.19504
0.0557371 -7.15053 -7.15053
0.0552366 -7.19366 -7.19366
-0.0180872 -7.23554 -7.23554
-0.0193366 -7.32215 -7.32215
0.126766 -7.32487 -7.32487
0.127562 -7.23825 -7.23825
-0.0187102 -7.27881 -7.27881
0.0537091 -7.32348 -7.32348
0.127167 -7.28153 -7.28153
0.0547318 -7.23687 -7.23687
0.0542226 -7.28014 -7.28014
-0.0193366 -7.32215 -7.32215
-0.0205992 -7.40902 -7.40902
0.125949 -7.41175 -7.41175
0.126766 -7.32487 -7.32487
-0.0199663 -7.36555 -7.36555
0.0526691 -7.41035 -7.41035
0.12636 -7.36827 -7.36827
0.0537091 -7.32348 -7.32348
0.0531913 -7.36688 -7.36688
-0.0205992 -7.40902 -7.40902
-0.0218749 -7.49615 -7.49615
0.125111 -7.49889 -7.49889
0.125949 -7.41175 -7.41175
-0.0212354 -7.45255 -7.45255
0.0516121 -7.49749 -7.49749
0.125532 -7.45529 -7.45529
0.0526691 -7.41035 -7.41035
0.0521427 -7.45389 -7.45389
-0.0218749 -7.49615 -7.49615
-0.0231634 -7.58354 -7.58354
0.124251 -7.58629 -7.58629
0.125111 -7.49889 -7.49889
-0.0225175 -7.53981 -7.53981
0.050538 -7.58489 -7.58489
0.124683 -7.54256 -7.54256
0.0516121 -7.49749 -7.49749
0.0510772 -7.54116 -7.54116
-0.0231634 -7.58354 -7.58354
-0.0244647 -7.67118 -7.67118
0.123371 -7.67394 -7.67394
0.124251 -7.58629 -7.58629
-0.0238125 -7.62733 -7.62733
0.0494472 -7.67253 -7.67253
0.123813 -7.63009 -7.63009
0.050538 -7.58489 -7.58489
0.0499947 -7.62868 -7.62868
-0.0244647 -7.67118 -7.67118
-0.0257786 -7.75906 -7.75906
0.122469 -7.76184 -7.76184
0.123371 -7.67394 -7.67394
-0.0251201 -7.71509 -7.71509
0.0483396 -7.76043 -7.76043
0.122923 -7.71786 -7.71786
0.0494472 -7.67253 -7.67253
0.0488955 -7.71645 -7.71645
-0.0257786 -7.75906 -7.75906
-0.0271049 -7.84719 -7.84719
0.121548 -7.84998 -7.84998
0.122469 -7.76184 -7.76184
-0.0264402 -7.8031 -7.8031
0.0472155 -7.84856 -7.84856
0.122011 -7.80588 -7.80588
0.0483396 -7.76043 -7.76043
0.0477796 -7.80446 -7.80446
-0.0271049 -7.84719 -7.84719
-0.0284436 -7.93556 -7.93556
0.120605 -7.93835 -7.93835
0.121548 -7.84998 -7.84998
-0.0277727 -7.89135 -7.89135
0.046075 -7.93693 -7.93693
0.121079 -7.89413 -7.89413
0.0472155 -7.84856 -7.84856
0.0466473 -7.89272 -7.89272
-0.0284436 -7.93556 -7.93556
-0.0297944 -8.02416 -8.02416
0.119643 -8.02696 -8.02696
0.120605 -7.93835 -7.93835
-0.0291175 -7.97983 -7.97983
0.0449183 -8.02553 -8.02553
0.120126 -7.98263 -7.98263
0.046075 -7.93693 -7.93693
0.0454987 -7.9812 -7.9812
-0.0297944 -8.02416 -8.02416
-0.0311573 -8.11298 -8.11298
0.11866 -8.11579 -8.11579
0.119643 -8.02696 -8.02696
-0.0304743 -8.06854 -8.06854
0.0437454 -8.11436 -8.11436
0.119154 -8.07135 -8.07135
0.0449183 -8.02553 -8.02553
0.0443338 -8.06992 -8.06992
-0.0311573 -8.11298 -8.11298
-0.032532 -8.20203 -8.20203
0.117657 -8.20485 -8.20485
0.11866 -8.11579 -8.11579
-0.0318431 -8.15748 -8.15748
0.0425566 -8.20341 -8.20341
0.118161 -8.16029 -8.16029
0.0437454 -8.11436 -8.11436
0.043153 -8.15886 -8.15886
-0.032532 -8.20203 -8.20203
-0.0339184 -8.29129 -8.29129
0.116634 -8.29412 -8.29412
0.117657 -8.20485 -8.20485
-0.0332238 -8.24663 -8.24663
0.041352 -8.29268 -8.29268
0.117148 -8.24946 -8.24946
0.0425566 -8.20341 -8.20341
0.0419562 -8.24802 -8.24802
-0.0339184 -8.29129 -8.29129
-0.0353165 -8.38077 -8.38077
0.115592 -8.38361 -8.38361
0.116634 -8.29412 -8.29412
-0.034616 -8.33601 -8.33601
0.0401317 -8.38217 -8.38217
0.116115 -8.33884 -8.33884
0.041352 -8.29268 -8.29268
0.0407438 -8.3374 -8.3374
-0.0353165 -8.38077 -8.38077
-0.0367259 -8.47046 -8.47046
0.11453 -8.4733 -8.4733
0.115592 -8.38361 -8.38361
-0.0360198 -8.42559 -8.42559
0.0388959 -8.47186 -8.47186
0.115063 -8.42843 -8.42843
0.0401317 -8.38217 -8.38217
0.0395157 -8.42699 -8.42699
-0.0367259 -8.47046 -8.47046
-0.0381466 -8.56034 -8.56034
0.113448 -8.5632 -8.5632
0.11453 -8.4733 -8.4733
-0.0374348 -8.51537 -8.51537
0.0376447 -8.56175 -8.56175
0.113991 -8.51822 -8.51822
0.0388959 -8.47186 -8.47186
0.0382722 -8.51678 -8.51678
-0.0381466 -8.56034 -8.56034
-0.0395784 -8.65043 -8.65043
0.112347 -8.65329 -8.65329
0.113448 -8.5632 -8.5632
-0.0388611 -8.60536 -8.60536
0.0363784 -8.65184 -8.65184
0.1129 -8.60822 -8.60822
0.0376447 -8.56175 -8.56175
0.0370135 -8.60677 -8.60677
-0.0395784 -8.65043 -8.65043
-0.0410212 -8.74071 -8.74071
0.111227 -8.74358 -8.74358
0.112347 -8.65329 -8.65329
-0.0402984 -8.69555 -8.69555
0.0350971 -8.74212 -8.74212
0.11179 -8.69841 -8.69841
0.0363784 -8.65184 -8.65184
0.0357396 -8.69696 -8.69696
-0.0410212 -8.74071 -8.74071
-0.0424747 -8.83118 -8.83118
0.110088 -8.83405 -8.83405
0.111227 -8.74358 -8.74358
-0.0417466 -8.78592 -8.78592
0.0338008 -8.8326 -8.8326
0.11066 -8.78879 -8.78879
0.0350971 -8.74212 -8.74212
0.0344508 -8.78734 -8.78734
-0.0424747 -8.83118 -8.83118
-0.0439389 -8.92183 -8.92183
0.108931 -8.92471 -8.92471
0.110088 -8.83405 -8.83405
-0.0432055 -8.87648 -8.87648
0.0324898 -8.92325 -8.92325
0.109512 -8.87936 -8.87936
0.0338008 -8.8326 -8.8326
0.0331472 -8.8779 -8.8779
-0.0439389 -8.92183 -8.92183
-0.0454136 -9.01266 -9.01266
0.107754 -9.01555 -9.01555
0.108931 -8.92471 -8.92471
-0.0446749 -8.96723 -8.96723
0.0311643 -9.01409 -9.01409
0.108345 -8.97011 -8.97011
0.0324898 -8.92325 -8.92325
0.0318289 -8.96865 -8.96865
-0.0454136 -9.01266 -9.01266
-0.0468986 -9.10367 -9.10367
0.106559 -9.10656 -9.10656
0.107754 -9.01555 -9.01555
-0.0461548 -9.05814 -9.05814
0.0298244 -9.1051 -9.1051
0.107159 -9.06104 -9.06104
0.0311643 -9.01409 -9.01409
0.0304961 -9.05957 -9.05957
-0.0468986 -9.10367 -9.10367
-0.0483937 -9.19484 -9.19484
0.105346 -9.19774 -9.19774
0.106559 -9.10656 -9.10656
-0.0476449 -9.14923 -9.14923
0.0284702 -9.19628 -9.19628
0.105955 -9.15213 -9.15213
0.0298244 -9.1051 -9.1051
0.0291491 -9.15067 -9.15067
-0.0483937 -9.19484 -9.19484
-0.0498988 -9.28618 -9.28618
0.104115 -9.28909 -9.28909
0.105346 -9.19774 -9.19774
-0.049145 -9.24049 -9.24049
0.027102 -9.28762 -9.28762
0.104733 -9.2434 -9.2434
0.0284702 -9.19628 -9.19628
0.0277879 -9.24193 -9.24193
-0.0498988 -9.28618 -9.28618
-0.0514138 -9.37768 -9.37768
0.102866 -9.38059 -9.38059
0.104115 -9.28909 -9.28909
-0.0506551 -9.33191 -9.33191
0.0257198 -9.37912 -9.37912
0.103493 -9.33482 -9.33482
0.027102 -9.28762 -9.28762
0.0264126 -9.33335 -9.33335
-0.0514138 -9.37768 -9.37768
-0.0529384 -9.46933 -9.46933
0.101598 -9.47225 -9.47225
0.102866 -9.38059 -9.38059
-0.0521749 -9.42349 -9.42349
0.0243239 -9.47078 -9.47078
0.102234 -9.4264 -9.4264
0.0257198 -9.37912 -9.37912
0.0250236 -9.42493 -9.42493
-0.0529384 -9.46933 -9.46933
-0.0544725 -9.56114 -9.56114
0.100314 -9.56406 -9.56406
0.101598 -9.47225 -9.47225
-0.0537043 -9.51522 -9.51522
0.0229144 -9.56258 -9.56258
0.100958 -9.51814 -9.51814
0.0243239 -9.47078 -9.47078
0.0236209 -9.51666 -9.51666
-0.0544725 -9.56114 -9.56114
-0.056016 -9.65308 -9.65308
0.0990114 -9.65601 -9.65601
0.100314 -9.56406 -9.56406
-0.0552431 -9.60709 -9.60709
0.0214915 -9.65453 -9.65453
0.0996647 -9.61002 -9.61002
0.0229144 -9.56258 -9.56258
0.0222047 -9.60854 -9.60854
-0.056016 -9.65308 -9.65308
-0.0575686 -9.74517 -9.74517
0.0976917 -9.7481 -9.7481
0.0990114 -9.65601 -9.65601
-0.0567911 -9.69911 -9.69911
0.0200554 -9.74662 -9.74662
0.0983537 -9.70204 -9.70204
0.0214915 -9.65453 -9.65453
0.0207751 -9.70056 -9.70056
-0.0575686 -9.74517 -9.74517
-0.0591302 -9.8374 -9.8374
0.0963549 -9.84033 -9.84033
0.0976917 -9.7481 -9.7481
-0.0583483 -9.79127 -9.79127
0.0186062 -9.83885 -9.83885
0.0970254 -9.7942 -9.7942
0.0200554 -9.74662 -9.74662
0.0193324 -9.79272 -9.79272
-0.0591302 -9.8374 -9.8374
-0.0607006 -9.92975 -9.92975
0.0950011 -9.93269 -9.93269
0.0963549 -9.84033 -9.84033
-0.0599143 -9.88356 -9.88356
0.017144 -9.9312 -9.9312
0.0956801 -9.88649 -9.88649
0.0186062 -9.83885 -9.83885
0.0178767 -9.88501 -9.88501
-0.0607006 -9.92975 -9.92975
-0.0622797 -10.0222 -10.0222
0.0936304 -10.0252 -10.0252
0.0950011 -9.93269 -9.93269
-0.0614891 -9.97597 -9.97597
0.0156691 -10.0237 -10.0237
0.0943179 -9.97891 -9.97891
0.017144 -9.9312 -9.9312
0.0164082 -9.97743 -9.97743
-0.0622797 -10.0222 -10.0222
-0.0638673 -10.1148 -10.1148
0.0922431 -10.1178 -10.1178
0.0936304 -10.0252 -10.0252
-0.0630725 -10.0685 -10.0685
0.0141817 -10.1163 -10.1163
0.0929389 -10.0715 -10.0715
0.0156691 -10.0237 -10.0237
0.014927 -10.07 -10.07
-0.0638673 -10.1148 -10.1148
-0.0654632 -10.2075 -10.2075
0.0908394 -10.2105 -10.2105
0.0922431 -10.1178 -10.1178
-0.0646642 -10.1612 -10.1612
0.0126818 -10.209 -10.209
0.0915433 -10.1641 -10.1641
0.0141817 -10.1163 -10.1163
0.0134333 -10.1626 -10.1626
-0.0654632 -10.2075 -10.2075
-0.0670673 -10.3004 -10.3004
0.0894193 -10.3033 -10.3033
0.0908394 -10.2105 -10.2105
-0.0662642 -10.2539 -10.2539
0.0111697 -10.3018 -10.3018
0.0901313 -10.2569 -10.2569
0.0126818 -10.209 -10.209
0.0119273 -10.2554 -10.2554
-0.0670673 -10.3004 -10.3004
-0.0686793 -10.3933 -10.3933
0.087983 -10.3963 -10.3963
0.0894193 -10.3033 -10.3033
-0.0678723 -10.3468 -10.3468
0.00964556 -10.3948 -10.3948
0.0887031 -10.3498 -10.3498
0.0111697 -10.3018 -10.3018
0.0104091 -10.3483 -10.3483
-0.0686793 -10.3933 -10.3933
-0.0702991 -10.4863 -10.4863
0.0865308 -10.4893 -10.4893
0.087983 -10.3963 -10.3963
-0.0694882 -10.4398 -10.4398
0.00810953 -10.4878 -10.4878
0.0872589 -10.4428 -10.4428
0.00964556 -10.3948 -10.3948
0.00887902 -10.4413 -10.4413
-0.0702991 -10.4863 -10.4863
-0.0719266 -10.5795 -10.5795
0.0850628 -10.5824 -10.5824
0.0865308 -10.4893 -10.4893
-0.0711119 -10.5329 -10.5329
0.00656178 -10.5809 -10.5809
0.0857988 -10.5358 -10.5358
0.00810953 -10.4878 -10.4878
0.00733711 -10.5344 -10.5344
-0.0719266 -10.5795 -10.5795
-0.0735615 -10.6727 -10.6727
0.0835792 -10.6757 -10.6757
0.0850628 -10.5824 -10.5824
-0.0727431 -10.6261 -10.6261
0.00500249 -10.6742 -10.6742
0.0843229 -10.629 -10.629
0.00656178 -10.5809 -10.5809
0.00578357 -10.6275 -10.6275
-0.0735615 -10.6727 -10.6727
-0.0752037 -10.766 -10.766
0.0820801 -10.769 -10.769
0.0835792 -10.6757 -10.6757
-0.0743817 -10.7193 -10.7193
0.00343184 -10.7675 -10.7675
0.0828315 -10.7223 -10.7223
0.00500249 -10.6742 -10.6742
0.00421857 -10.7208 -10.7208
-0.0752037 -10.766 -10.766
-0.076853 -10.8594 -10.8594
0.0805657 -10.8624 -10.8624
0.0820801 -10.769 -10.769
-0.0760274 -10.8127 -10.8127
0.00185 -10.8609 -10.8609
0.0813248 -10.8157 -10.8157
0.00343184 -10.7675 -10.7675
0.00264231 -10.8142 -10.8142
-0.076853 -10.8594 -10.8594
-0.0785092 -10.9529 -10.9529
0.0790363 -10.9558 -10.9558
0.0805657 -10.8624 -10.8624
-0.0776802 -10.9061 -10.9061
0.000257139 -10.9543 -10.9543
0.0798029 -10.9091 -10.9091
0.00185 -10.8609 -10.8609
0.00105493 -10.9076 -10.9076
-0.0785092 -10.9529 -10.9529
-0.0801722 -11.0464 -11.0464
0.0774919 -11.0494 -11.0494
0.0790363 -10.9558 -10.9558
-0.0793398 -10.9996 -10.9996
-0.00134656 -11.0479 -11.0479
0.0782659 -11.0026 -11.0026
0.000257139 -10.9543 -10.9543
-0.000543368 -11.0011 -11.0011
-0.0801722 -11.0464 -11.0464
-0.0818418 -11.14 -11.14
0.0759328 -11.143 -11.143
0.0774919 -11.0494 -11.0494
-0.0810061 -11.0932 -11.0932
-0.00296095 -11.1415 -11.1415
0.0767142 -11.0962 -11.0962
-0.00134656 -11.0479 -11.0479
-0.00215243 -11.0947 -11.0947
-0.0818418 -11.14 -11.14
-0.0835178 -11.2337 -11.2337
0.074359 -11.2367 -11.2367
0.0759328 -11.143 -11.143
-0.082679 -11.1868 -11.1868
-0.00458586 -11.2352 -11.2352
0.0751477 -11.1898 -11.1898
-0.00296095 -11.1415 -11.1415
-0.0037721 -11.1883 -11.1883
-0.0835178 -11.2337 -11.2337
-0.0852001 -11.3274 -11.3274
0.0727708 -11.3304 -11.3304
0.074359 -11.2367 -11.2367
-0.0843581 -11.2806 -11.2806
-0.00622118 -11.3289 -11.3289
0.0735667 -11.2835 -11.2835
-0.00458586 -11.2352 -11.2352
-0.00540222 -11.282 -11.282
-0.0852001 -11.3274 -11.3274
-0.0868886 -11.4212 -11.4212
0.0711682 -11.4242 -11.4242
0.0727708 -11.3304 -11.3304
-0.0860436 -11.3743 -11.3743
-0.00786681 -11.4227 -11.4227
0.0719713 -11.3773 -11.3773
-0.00622118 -11.3289 -11.3289
-0.0070427 -11.3758 -11.3758
-0.0868886 -11.4212 -11.4212
-0.0885832 -11.515 -11.515
0.0695512 -11.518 -11.518
0.0711682 -11.4242 -11.4242
-0.0877351 -11.4681 -11.4681
-0.00952275 -11.5165 -11.5165
0.0703615 -11.4711 -11.4711
-0.00786681 -11.4227 -11.4227
-0.00869348 -11.4696 -11.4696
-0.0885832 -11.515 -11.515
-0.0902839 -11.6089 -11.6089
0.0679197 -11.6119 -11.6119
0.0695512 -11.518 -11.518
-0.0894328 -11.562 -11.562
-0.0111891 -11.6104 -11.6104
0.0687373 -11.5649 -11.5649
-0.00952275 -11.5165 -11.5165
-0.0103546 -11.5634 -11.5634
-0.0902839 -11.6089 -11.6089
-0.0919909 -11.7028 -11.7028
0.0662733 -11.7058 -11.7058
0.0679197 -11.6119 -11.6119
-0.0911366 -11.6559 -11.6559
-0.0128662 -11.7043 -11.7043
0.0670984 -11.6588 -11.6588
-0.0111891 -11.6104 -11.6104
-0.0120263 -11.6573 -11.6573
-0.0919909 -11.7028 -11.7028
-0.0937043 -11.7968 -11.7968
0.0646115 -11.7997 -11.7997
0.0662733 -11.7058 -11.7058
-0.0928468 -11.7498 -11.7498
-0.0145545 -11.7983 -11.7983
0.0654444 -11.7527 -11.7527
-0.0128662 -11.7043 -11.7043
-0.0137089 -11.7513 -11.7513
-0.0937043 -11.7968 -11.7968
-0.0954244 -11.8908 -11.8908
0.0629332 -11.8937 -11.8937
0.0646115 -11.7997 -11.7997
-0.0945635 -11.8438 -11.8438
-0.0162547 -11.8922 -11.8922
0.0637745 -11.8467 -11.8467
-0.0145545 -11.7983 -11.7983
-0.0154031 -11.8452 -11.8452
-0.0954244 -11.8908 -11.8908
-0.097151 -11.9848 -11.9848
0.0612373 -11.9877 -11.9877
0.0629332 -11.8937 -11.8937
-0.0962869 -11.9378 -11.9378
-0.0179672 -11.9862 -11.9862
0.0620875 -11.9407 -11.9407
-0.0162547 -11.8922 -11.8922
-0.0171095 -11.9392 -11.9392
-0.097151 -11.9848 -11.9848
-0.0988834 -12.0788 -12.0788
0.0595243 -12.0817 -12.0817
0.0612373 -11.9877 -11.9877
-0.0980167 -12.0318 -12.0318
-0.0196909 -12.0803 -12.0803
0.0603829 -12.0347 -12.0347
-0.0179672 -11.9862 -11.9862
-0.0188278 -12.0332 -12.0332
-0.0988834 -12.0788 -12.0788
-0.100619 -12.1728 -12.1728
0.0577969 -12.1758 -12.1758
0.0595243 -12.0817 -12.0817
-0.0997508 -12.1258 -12.1258
-0.021422 -12.1743 -12.1743
0.0586617 -12.1287 -12.1287
-0.0196909 -12.0803 -12.0803
-0.020556 -12.1273 -12.1273
-0.100619 -12.1728 -12.1728
-0.102354 -12.2668 -12.2668
0.0560678 -12.2698 -12.2698
0.0577969 -12.1758 -12.1758
-0.101487 -12.2198 -12.2198
-0.0231523 -12.2683 -12.2683
0.0569317 -12.2228 -12.2228
-0.021422 -12.1743 -12.1743
-0.0222876 -12.2213 -12.2213
-0.102354 -12.2668 -12.2668
-0.104083 -12.3608 -12.3608
0.0543491 -12.3638 -12.3638
0.0560678 -12.2698 -12.2698
-0.103219 -12.3138 -12.3138
-0.024877 -12.3623 -12.3623
0.0552065 -12.3168 -12.3168
-0.0231523 -12.2683 -12.2683
-0.0240157 -12.3153 -12.3153
0 0 0
0.0021253 -0.000223032 -0.000223032
0.00365972 -0.00104326 -0.00104326
0 0 0
0.00103026 6.29188e-05 6.29188e-05
0.00286427 -0.000534084 -0.000534084
0.00177617 -0.000374698 -0.000374698
0 0 0
0.00141037 -0.000114859 -0.000114859
0.0021253 -0.000223032 -0.000223032
0.00441318 -0.00166428 -0.00166428
0.00762134 -0.00300935 -0.00300935
0.00365972 -0.00104326 -0.00104326
0.00325499 -0.00080573 -0.00080573
0.00596313 -0.0022216 -0.0022216
0.00562172 -0.00193139 -0.00193139
0.00286427 -0.000534084 -0.000534084
0.00438896 -0.00124914 -0.00124914
0.00441318 -0.00166428 -0.00166428
0.00679597 -0.00415552 -0.00415552
0.0116183 -0.00570982 -0.00570982
0.00762134 -0.00300935 -0.00300935
0.00559739 -0.00278547 -0.00278547
0.00915985 -0.00482455 -0.00482455
0.00962229 -0.00426473 -0.00426473
0.00596313 -0.0022216 -0.0022216
0.00755753 -0.00341424 -0.00341424
0.00679597 -0.00415552 -0.00415552
0.00919748 -0.00760394 -0.00760394
0.0155941 -0.00922512 -0.00922512
0.0116183 -0.00570982 -0.00570982
0.0079971 -0.00576269 -0.00576269
0.0123615 -0.00831411 -0.00831411
0.0136098 -0.00736086 -0.00736086
0.00915985 -0.00482455 -0.00482455
0.0107627 -0.00645759 -0.00645759
0.00919748 -0.00760394 -0.00760394
0.0115894 -0.0119841 -0.0119841
0.0195342 -0.0136133 -0.0136133
0.0155941 -0.00922512 -0.00922512
0.0103957 -0.00967827 -0.00967827
0.0155367 -0.0127007 -0.0127007
0.0175684 -0.0113076 -0.0113076
0.0123615 -0.00831411 -0.00831411
0.0139529 -0.0103943 -0.0103943
0.0115894 -0.0119841 -0.0119841
0.0139572 -0.0172864 -0.0172864
0.0234462 -0.0189079 -0.0189079
0.0195342 -0.0136133 -0.0136133
0.0127765 -0.0145202 -0.0145202
0.0186823 -0.0180003 -0.0180003
0.0214935 -0.0161463 -0.0161463
0.0155367 -0.0127007 -0.0127007
0.0171131 -0.0152359 -0.0152359
0.0139572 -0.0172864 -0.0172864
0.0163014 -0.023509 -0.023509
0.027331 -0.0251189 -0.0251189
0.0234462 -0.0189079 -0.0189079
0.0151322 -0.0202828 -0.0202828
0.0217999 -0.0242172 -0.0242172
0.0253918 -0.0218986 -0.0218986
0.0186823 -0.0180003 -0.0180003
0.0202444 -0.020994 -0.020994
0.0163014 -0.023509 -0.023509
0.0186231 -0.030649 -0.030649
0.0311914 -0.0322488 -0.0322488
0.027331 -0.0251189 -0.0251189
0.017465 -0.0269645 -0.0269645
0.0248927 -0.0313522 -0.0313522
0.0292642 -0.028569 -0.028569
0.0217999 -0.0242172 -0.0242172
0.0233493 -0.0276701 -0.0276701
0.0186231 -0.030649 -0.030649
0.020925 -0.0387031 -0.0387031
0.0350276 -0.040295 -0.040295
0.0311914 -0.0322488 -0.0322488
0.0197764 -0.034562 -0.034562
0.0279626 -0.0394026 -0.0394026
0.0331125 -0.0361576 -0.0361576
0.0248927 -0.0313522 -0.0313522
0.0264304 -0.0352632 -0.0352632
0.020925 -0.0387031 -0.0387031
0.0232084 -0.0476675 -0.0476675
0.0388402 -0.0492536 -0.0492536
0.0350276 -0.040295 -0.040295
0.0220689 -0.0430718 -0.0430718
0.031011 -0.0483643 -0.0483643
0.0369369 -0.0446606 -0.0446606
0.0279626 -0.0394026 -0.0394026
0.0294894 -0.0437698 -0.0437698
0.0232084 -0.0476675 -0.0476675
0.0254745 -0.0575377 -0.0575377
0.0426288 -0.0591196 -0.0591196
0.0388402 -0.0492536 -0.0492536
0.0243435 -0.0524896 -0.0524896
0.0340386 -0.0582327 -0.0582327
0.0407375 -0.0540735 -0.0540735
0.031011 -0.0483643 -0.0483643
0.0325274 -0.0531855 -0.0531855
0.0254745 -0.0575377 -0.0575377
0.0277238 -0.0683091 -0.0683091
0.0463934 -0.0698882 -0.0698882
0.0426288 -0.0591196 -0.0591196
0.0266012 -0.062811 -0.062811
0.0370456 -0.0690031 -0.0690031
0.0445142 -0.0643914 -0.0643914
0.0340386 -0.0582327 -0.0582327
0.0355447 -0.0635055 -0.0635055
0.0277238 -0.0683091 -0.0683091
0.0299564 -0.0799771 -0.0799771
0.0501337 -0.0815541 -0.0815541
0.0463934 -0.0698882 -0.0698882
0.0288422 -0.0740313 -0.0740313
0.0400321 -0.0806705 -0.0806705
0.0482666 -0.0756093 -0.0756093
0.0370456 -0.0690031 -0.0690031
0.0385415 -0.074725 -0.074725
0.0299564 -0.0799771 -0.0799771
0.0321723 -0.0925367 -0.0925367
0.0538494 -0.0941125 -0.0941125
0.0501337 -0.0815541 -0.0815541
0.0310665 -0.0861457 -0.0861457
0.042998 -0.0932301 -0.0932301
0.0519946 -0.0877221 -0.0877221
0.0400321 -0.0806705 -0.0806705
0.0415177 -0.0868391 -0.0868391
0.0321723 -0.0925367 -0.0925367
0.0343714 -0.105983 -0.105983
0.0575401 -0.107558 -0.107558
0.0538494 -0.0941125 -0.0941125
0.033274 -0.0991494 -0.0991494
0.0459429 -0.106677 -0.106677
0.0556979 -0.100725 -0.100725
0.042998 -0.0932301 -0.0932301
0.0444731 -0.0998428 -0.0998428
0.0343714 -0.105983 -0.105983
0.0365535 -0.120312 -0.120312
0.0612057 -0.121887 -0.121887
0.0575401 -0.107558 -0.107558
0.0354646 -0.113038 -0.113038
0.0488667 -0.121006 -0.121006
0.0593761 -0.114613 -0.114613
0.0459429 -0.106677 -0.106677
0.0474075 -0.113731 -0.113731
0.0365535 -0.120312 -0.120312
0.0387182 -0.135518 -0.135518
0.0648458 -0.137093 -0.137093
0.0612057 -0.121887 -0.121887
0.037638 -0.127805 -0.127805
0.0517692 -0.136212 -0.136212
0.063029 -0.129381 -0.129381
0.0488667 -0.121006 -0.121006
0.0503206 -0.1285 -0.1285
0.0387182 -0.135518 -0.135518
0.0408653 -0.151596 -0.151596
0.0684602 -0.153172 -0.153172
0.0648458 -0.137093 -0.137093
0.0397939 -0.143448 -0.143448
0.0546499 -0.152291 -0.152291
0.0666562 -0.145024 -0.145024
0.0517692 -0.136212 -0.136212
0.0532123 -0.144143 -0.144143
0.0408653 -0.151596 -0.151596
0.0429945 -0.168541 -0.168541
0.0720485 -0.170119 -0.170119
0.0684602 -0.153172 -0.153172
0.0419321 -0.15996 -0.15996
0.0575088 -0.169238 -0.169238
0.0702576 -0.161537 -0.161537
0.0546499 -0.152291 -0.152291
0.0560821 -0.160656 -0.160656
0.0429945 -0.168541 -0.168541
0.0451057 -0.186349 -0.186349
0.0756105 -0.187928 -0.187928
0.0720485 -0.170119 -0.170119
0.0440524 -0.177338 -0.177338
0.0603454 -0.187047 -0.187047
0.0738328 -0.178916 -0.178916
0.0575088 -0.169238 -0.169238
0.0589299 -0.178035 -0.178035
0.0451057 -0.186349 -0.186349
0.0471985 -0.205015 -0.205015
0.079146 -0.206596 -0.206596
0.0756105 -0.187928 -0.187928
0.0461544 -0.195575 -0.195575
0.0631596 -0.205715 -0.205715
0.0773816 -0.197156 -0.197156
0.0603454 -0.187047 -0.187047
0.0617553 -0.196274 -0.196274
0.0471985 -0.205015 -0.205015
0.0492727 -0.224534 -0.224534
0.0826548 -0.226118 -0.226118
0.079146 -0.206596 -0.206596
0.0482379 -0.214668 -0.214668
0.065951 -0.225235 -0.225235
0.0809038 -0.216251 -0.216251
0.0631596 -0.205715 -0.205715
0.0645582 -0.215369 -0.215369
0.0492727 -0.224534 -0.224534
0.051328 -0.2449 -0.2449
0.0861364 -0.246487 -0.246487
0.0826548 -0.226118 -0.226118
0.0503027 -0.234611 -0.234611
0.0687196 -0.245604 -0.245604
0.084399 -0.236197 -0.236197
0.065951 -0.225235 -0.225235
0.0673382 -0.235314 -0.235314
0.051328 -0.2449 -0.2449
0.0533642 -0.26611 -0.26611
0.0895908 -0.267701 -0.267701
0.0861364 -0.246487 -0.246487
0.0523485 -0.2554 -0.2554
0.0714649 -0.266816 -0.266816
0.0878671 -0.256989 -0.256989
0.0687196 -0.245604 -0.245604
0.0700951 -0.256105 -0.256105
0.0533642 -0.26611 -0.26611
0.055381 -0.288158 -0.288158
0.0930177 -0.289753 -0.289753
0.0895908 -0.267701 -0.267701
0.054375 -0.27703 -0.27703
0.0741868 -0.288866 -0.288866
0.0913077 -0.278622 -0.278622
0.0714649 -0.266816 -0.266816
0.0728288 -0.277737 -0.277737
0.055381 -0.288158 -0.288158
0.0573783 -0.31104 -0.31104
0.0964168 -0.312638 -0.312638
0.0930177 -0.289753 -0.289753
0.0563821 -0.299495 -0.299495
0.076885 -0.311751 -0.311751
0.0947208 -0.301092 -0.301092
0.0741868 -0.288866 -0.288866
0.0755389 -0.300205 -0.300205
0.0573783 -0.31104 -0.31104
0.0593558 -0.33475 -0.33475
0.099788 -0.336353 -0.336353
0.0964168 -0.312638 -0.312638
0.0583695 -0.322791 -0.322791
0.0795593 -0.335463 -0.335463
0.0981059 -0.324392 -0.324392
0.076885 -0.311751 -0.311751
0.0782252 -0.323504 -0.323504
0.0593558 -0.33475 -0.33475
0.0613132 -0.359284 -0.359284
0.103131 -0.360892 -0.360892
0.099788 -0.336353 -0.336353
0.060337 -0.346914 -0.346914
0.0822095 -0.36 -0.36
0.101463 -0.34852 -0.34852
0.0795593 -0.335463 -0.335463
0.0808874 -0.347629 -0.347629
0.0613132 -0.359284 -0.359284
0.0632504 -0.384636 -0.384636
0.106445 -0.38625 -0.38625
0.103131 -0.360892 -0.360892
0.0622843 -0.371858 -0.371858
0.0848354 -0.385356 -0.385356
0.104792 -0.373469 -0.373469
0.0822095 -0.36 -0.36
0.0835255 -0.372576 -0.372576
0.0632504 -0.384636 -0.384636
0.0651671 -0.410803 -0.410803
0.109731 -0.412422 -0.412422
0.106445 -0.38625 -0.38625
0.0642113 -0.397618 -0.397618
0.0874367 -0.411526 -0.411526
0.108092 -0.399235 -0.399235
0.0848354 -0.385356 -0.385356
0.0861391 -0.39834 -0.39834
0.0651671 -0.410803 -0.410803
0.0670631 -0.437779 -0.437779
0.112988 -0.439404 -0.439404
0.109731 -0.412422 -0.412422
0.0661177 -0.42419 -0.42419
0.0900132 -0.438505 -0.438505
0.111363 -0.425812 -0.425812
0.0874367 -0.411526 -0.411526
0.0887281 -0.424915 -0.424915
0.0670631 -0.437779 -0.437779
0.0689383 -0.465559 -0.465559
0.116216 -0.467191 -0.467191
0.112988 -0.439404 -0.439404
0.0680034 -0.451568 -0.451568
0.0925648 -0.466289 -0.466289
0.114606 -0.453197 -0.453197
0.0900132 -0.438505 -0.438505
0.0912922 -0.452297 -0.452297
0.0689383 -0.465559 -0.465559
0.0707924 -0.494138 -0.494138
0.119415 -0.495777 -0.495777
0.116216 -0.467191 -0.467191
0.069868 -0.479749 -0.479749
0.0950912 -0.494873 -0.494873
0.117819 -0.481384 -0.481384
0.0925648 -0.466289 -0.466289
0.0938312 -0.480481 -0.480481
0.0707924 -0.494138 -0.494138
0.0726252 -0.523512 -0.523512
0.122584 -0.525158 -0.525158
0.119415 -0.495777 -0.495777
0.0717115 -0.508726 -0.508726
0.0975923 -0.524251 -0.524251
0.121003 -0.510368 -0.510368
0.0950912 -0.494873 -0.494873
0.0963449 -0.509463 -0.509463
0.0726252 -0.523512 -0.523512
0.0744365 -0.553676 -0.553676
0.125724 -0.555329 -0.555329
0.122584 -0.525158 -0.525158
0.0735336 -0.538496 -0.538496
0.100068 -0.554419 -0.554419
0.124158 -0.540145 -0.540145
0.0975923 -0.524251 -0.524251
0.0988332 -0.539236 -0.539236
0.0744365 -0.553676 -0.553676
0.0762262 -0.584625 -0.584625
0.128833 -0.586285 -0.586285
0.125724 -0.555329 -0.555329
0.0753341 -0.569053 -0.569053
0.102517 -0.585372 -0.585372
0.127282 -0.570709 -0.570709
0.100068 -0.554419 -0.554419
0.101296 -0.569797 -0.569797
0.0762262 -0.584625 -0.584625
0.077994 -0.616353 -0.616353
0.131913 -0.618022 -0.618022
0.128833 -0.586285 -0.586285
0.0771129 -0.600392 -0.600392
0.104941 -0.617105 -0.617105
0.130377 -0.602056 -0.602056
0.102517 -0.585372 -0.585372
0.103733 -0.601141 -0.601141
0.077994 -0.616353 -0.616353
0.0797399 -0.648857 -0.648857
0.134963 -0.650534 -0.650534
0.131913 -0.618022 -0.618022
0.0788697 -0.632509 -0.632509
0.107339 -0.649613 -0.649613
0.133442 -0.634181 -0.634181
0.104941 -0.617105 -0.617105
0.106143 -0.633262 -0.633262
0.0797399 -0.648857 -0.648857
0.0814635 -0.682131 -0.682131
0.137982 -0.683817 -0.683817
0.134963 -0.650534 -0.650534
0.0806045 -0.665398 -0.665398
0.10971 -0.682892 -0.682892
0.136476 -0.667079 -0.667079
0.107339 -0.649613 -0.649613
0.108528 -0.666157 -0.666157
0.0814635 -0.682131 -0.682131
0.0831648 -0.716171 -0.716171
0.140971 -0.717865 -0.717865
0.137982 -0.683817 -0.683817
0.082317 -0.699055 -0.699055
0.112055 -0.716936 -0.716936
0.13948 -0.700745 -0.700745
0.10971 -0.682892 -0.682892
0.110886 -0.699819 -0.699819
0.0831648 -0.716171 -0.716171
0.0848435 -0.750971 -0.750971
0.143929 -0.752674 -0.752674
0.140971 -0.717865 -0.717865
0.084007 -0.733476 -0.733476
0.114374 -0.751741 -0.751741
0.142453 -0.735175 -0.735175
0.112055 -0.716936 -0.716936
0.113218 -0.734244 -0.734244
0.0848435 -0.750971 -0.750971
0.0864996 -0.786526 -0.786526
0.146856 -0.788239 -0.788239
0.143929 -0.752674 -0.752674
0.0856744 -0.768654 -0.768654
0.116665 -0.787302 -0.787302
0.145396 -0.770362 -0.770362
0.114374 -0.751741 -0.751741
0.115523 -0.769428 -0.769428
0.0864996 -0.786526 -0.786526
0.0881329 -0.822833 -0.822833
0.149752 -0.824555 -0.824555
0.146856 -0.788239 -0.788239
0.0873191 -0.804586 -0.804586
0.11893 -0.823614 -0.823614
0.148308 -0.806304 -0.806304
0.116665 -0.787302 -0.787302
0.117801 -0.805365 -0.805365
0.0881329 -0.822833 -0.822833
0.0897431 -0.859885 -0.859885
0.152617 -0.861618 -0.861618
0.149752 -0.824555 -0.824555
0.0889409 -0.841266 -0.841266
0.121168 -0.860672 -0.860672
0.151188 -0.842993 -0.842993
0.11893 -0.823614 -0.823614
0.120052 -0.84205 -0.84205
0.0897431 -0.859885 -0.859885
0.0913302 -0.897679 -0.897679
0.15545 -0.899421 -0.899421
0.152617 -0.861618 -0.861618
0.0905396 -0.87869 -0.87869
0.123378 -0.898471 -0.898471
0.154037 -0.880427 -0.880427
0.121168 -0.860672 -0.860672
0.122276 -0.879479 -0.879479
0.0913302 -0.897679 -0.897679
0.092894 -0.936209 -0.936209
0.158252 -0.937962 -0.937962
0.15545 -0.899421 -0.899421
0.092115 -0.916852 -0.916852
0.125561 -0.937007 -0.937007
0.156855 -0.9186 -0.9186
0.123378 -0.898471 -0.898471
0.124473 -0.917648 -0.917648
0.092894 -0.936209 -0.936209
0.0944345 -0.97547 -0.97547
0.161023 -0.977234 -0.977234
0.158252 -0.937962 -0.937962
0.0936672 -0.955748 -0.955748
0.127717 -0.976274 -0.976274
0.159642 -0.957507 -0.957507
0.125561 -0.937007 -0.937007
0.126642 -0.95655 -0.95655
0.0944345 -0.97547 -0.97547
0.0959513 -1.01546 -1.01546
0.163762 -1.01723 -1.01723
0.161023 -0.977234 -0.977234
0.0951958 -0.995374 -0.995374
0.129844 -1.01627 -1.01627
0.162396 -0.997143 -0.997143
0.127717 -0.976274 -0.976274
0.128784 -0.996181 -0.996181
0.0959513 -1.01546 -1.01546
0.0974445 -1.05617 -1.05617
0.166469 -1.05795 -1.05795
0.163762 -1.01723 -1.01723
0.0967009 -1.03572 -1.03572
0.131944 -1.05698 -1.05698
0.165119 -1.0375 -1.0375
0.129844 -1.01627 -1.01627
0.130898 -1.03654 -1.03654
0.0974445 -1.05617 -1.05617
0.0989139 -1.09759 -1.09759
0.169144 -1.09939 -1.09939
0.166469 -1.05795 -1.05795
0.0981822 -1.07679 -1.07679
0.134017 -1.09842 -1.09842
0.16781 -1.07858 -1.07858
0.131944 -1.05698 -1.05698
0.132984 -1.07761 -1.07761
0.0989139 -1.09759 -1.09759
0.100359 -1.13973 -1.13973
0.171787 -1.14154 -1.14154
0.169144 -1.09939 -1.09939
0.0996396 -1.11857 -1.11857
0.136061 -1.14056 -1.14056
0.170469 -1.12038 -1.12038
0.134017 -1.09842 -1.09842
0.135042 -1.1194 -1.1194
0.100359 -1.13973 -1.13973
0.101781 -1.18258 -1.18258
0.174397 -1.1844 -1.1844
0.171787 -1.14154 -1.14154
0.101073 -1.16107 -1.16107
0.138077 -1.18341 -1.18341
0.173096 -1.16288 -1.16288
0.136061 -1.14056 -1.14056
0.137072 -1.1619 -1.1619
0.101781 -1.18258 -1.18258
0.103178 -1.22613 -1.22613
0.176976 -1.22796 -1.22796
0.174397 -1.1844 -1.1844
0.102482 -1.20426 -1.20426
0.140065 -1.22697 -1.22697
0.17569 -1.20609 -1.20609
0.138077 -1.18341 -1.18341
0.139074 -1.2051 -1.2051
0.103178 -1.22613 -1.22613
0.104551 -1.27037 -1.27037
0.179521 -1.27222 -1.27222
0.176976 -1.22796 -1.22796
0.103867 -1.24816 -1.24816
0.142024 -1.27122 -1.27122
0.178253 -1.25 -1.25
0.140065 -1.22697 -1.22697
0.141048 -1.24901 -1.24901
0.104551 -1.27037 -1.27037
0.105899 -1.31531 -1.31531
0.182035 -1.31717 -1.31717
0.179521 -1.27222 -1.27222
0.105228 -1.29275 -1.29275
0.143955 -1.31616 -1.31616
0.180782 -1.2946 -1.2946
0.142024 -1.27122 -1.27122
0.142993 -1.2936 -1.2936
0.105899 -1.31531 -1.31531
0.107223 -1.36093 -1.36093
0.184515 -1.3628 -1.3628
0.182035 -1.31717 -1.31717
0.106564 -1.33804 -1.33804
0.145857 -1.3618 -1.3618
0.183279 -1.3399 -1.3399
0.143955 -1.31616 -1.31616
0.14491 -1.33889 -1.33889
0.107223 -1.36093 -1.36093
0.108523 -1.40724 -1.40724
0.186963 -1.40912 -1.40912
0.184515 -1.3628 -1.3628
0.107876 -1.384 -1.384
0.147731 -1.40811 -1.40811
0.185743 -1.38588 -1.38588
0.145857 -1.3618 -1.3618
0.146798 -1.38487 -1.38487
0.108523 -1.40724 -1.40724
0.109798 -1.45423 -1.45423
0.189378 -1.45612 -1.45612
0.186963 -1.40912 -1.40912
0.109163 -1.43065 -1.43065
0.149576 -1.4551 -1.4551
0.188175 -1.43254 -1.43254
0.147731 -1.40811 -1.40811
0.148657 -1.43152 -1.43152
0.109798 -1.45423 -1.45423
0.111048 -1.50189 -1.50189
0.19176 -1.5038 -1.5038
0.189378 -1.45612 -1.45612
0.110426 -1.47798 -1.47798
0.151392 -1.50277 -1.50277
0.190573 -1.47988 -1.47988
0.149576 -1.4551 -1.4551
0.150488 -1.47885 -1.47885
0.111048 -1.50189 -1.50189
0.112273 -1.55022 -1.55022
0.194109 -1.55214 -1.55214
0.19176 -1.5038 -1.5038
0.111664 -1.52597 -1.52597
0.153179 -1.55111 -1.55111
0.192939 -1.52788 -1.52788
0.151392 -1.50277 -1.50277
0.152289 -1.52685 -1.52685
0.112273 -1.55022 -1.55022
0.113473 -1.59921 -1.59921
0.196425 -1.60114 -1.60114
0.194109 -1.55214 -1.55214
0.112876 -1.57463 -1.57463
0.154937 -1.6001 -1.6001
0.195271 -1.57656 -1.57656
0.153179 -1.55111 -1.55111
0.154062 -1.57552 -1.57552
0.113473 -1.59921 -1.59921
0.114649 -1.64886 -1.64886
0.198708 -1.6508 -1.6508
0.196425 -1.60114 -1.60114
0.114064 -1.62395 -1.62395
0.156666 -1.64976 -1.64976
0.197571 -1.62589 -1.62589
0.154937 -1.6001 -1.6001
0.155805 -1.62485 -1.62485
0.114649 -1.64886 -1.64886
0.115799 -1.69916 -1.69916
0.200958 -1.70112 -1.70112
0.198708 -1.6508 -1.6508
0.115227 -1.67393 -1.67393
0.158366 -1.70007 -1.70007
0.199837 -1.67588 -1.67588
0.156666 -1.64976 -1.64976
0.15752 -1.67483 -1.67483
0.115799 -1.69916 -1.69916
0.116924 -1.75011 -1.75011
0.203174 -1.75209 -1.75209
0.200958 -1.70112 -1.70112
0.116364 -1.72456 -1.72456
0.160037 -1.75103 -1.75103
0.20207 -1.72652 -1.72652
0.158366 -1.70007 -1.70007
0.159205 -1.72547 -1.72547
0.116924 -1.75011 -1.75011
0.118024 -1.80171 -1.80171
0.205356 -1.8037 -1.8037
0.203174 -1.75209 -1.75209
0.117477 -1.77583 -1.77583
0.161678 -1.80263 -1.80263
0.204269 -1.77781 -1.77781
0.160037 -1.75103 -1.75103
0.160861 -1.77675 -1.77675
0.118024 -1.80171 -1.80171
0.119098 -1.85395 -1.85395
0.207506 -1.85595 -1.85595
0.205356 -1.8037 -1.8037
0.118564 -1.82775 -1.82775
0.16329 -1.85488 -1.85488
0.206435 -1.82974 -1.82974
0.161678 -1.80263 -1.80263
0.162488 -1.82868 -1.82868
0.119098 -1.85395 -1.85395
0.120147 -1.90681 -1.90681
0.209622 -1.90883 -1.90883
0.207506 -1.85595 -1.85595
0.119626 -1.8803 -1.8803
0.164872 -1.90775 -1.90775
0.208568 -1.88231 -1.88231
0.16329 -1.85488 -1.85488
0.164085 -1.88124 -1.88124
0.120147 -1.90681 -1.90681
0.121171 -1.96031 -1.96031
0.211704 -1.96234 -1.96234
0.209622 -1.90883 -1.90883
0.120662 -1.93349 -1.93349
0.166425 -1.96126 -1.96126
0.210667 -1.93551 -1.93551
0.164872 -1.90775 -1.90775
0.165653 -1.93443 -1.93443
0.121171 -1.96031 -1.96031
0.122169 -2.01444 -2.01444
0.213752 -2.01648 -2.01648
0.211704 -1.96234 -1.96234
0.121673 -1.9873 -1.9873
0.167949 -2.01539 -2.01539
0.212732 -1.98933 -1.98933
0.166425 -1.96126 -1.96126
0.167191 -1.98825 -1.98825
0.122169 -2.01444 -2.01444
0.123142 -2.06918 -2.06918
0.215767 -2.07124 -2.07124
0.213752 -2.01648 -2.01648
0.122659 -2.04173 -2.04173
0.169443 -2.07014 -2.07014
0.214764 -2.04378 -2.04378
0.167949 -2.01539 -2.01539
0.168699 -2.04269 -2.04269
0.123142 -2.06918 -2.06918
0.124089 -2.12454 -2.12454
0.217748 -2.12661 -2.12661
0.215767 -2.07124 -2.07124
0.123619 -2.09678 -2.09678
0.170907 -2.12551 -2.12551
0.216762 -2.09885 -2.09885
0.169443 -2.07014 -2.07014
0.170178 -2.09775 -2.09775
0.124089 -2.12454 -2.12454
0.125011 -2.18051 -2.18051
0.219696 -2.18259 -2.18259
0.217748 -2.12661 -2.12661
0.124553 -2.15245 -2.15245
0.172341 -2.18149 -2.18149
0.218726 -2.15453 -2.15453
0.170907 -2.12551 -2.12551
0.171628 -2.15342 -2.15342
0.125011 -2.18051 -2.18051
0.125907 -2.23708 -2.23708
0.221609 -2.23918 -2.23918
0.219696 -2.18259 -2.18259
0.125462 -2.20872 -2.20872
0.173746 -2.23807 -2.23807
0.220656 -2.21081 -2.21081
0.172341 -2.18149 -2.18149
0.173047 -2.2097 -2.2097
0.125907 -2.23708 -2.23708
0.126777 -2.29426 -2.29426
0.223489 -2.29637 -2.29637
0.221609 -2.23918 -2.23918
0.126345 -2.26559 -2.26559
0.175121 -2.29525 -2.29525
0.222553 -2.2677 -2.2677
0.173746 -2.23807 -2.23807
0.174437 -2.26658 -2.26658
0.126777 -2.29426 -2.29426
0.127622 -2.35203 -2.35203
0.225335 -2.35415 -2.35415
0.223489 -2.29637 -2.29637
0.127202 -2.32307 -2.32307
0.176466 -2.35303 -2.35303
0.224416 -2.32519 -2.32519
0.175121 -2.29525 -2.29525
0.175797 -2.32406 -2.32406
0.127622 -2.35203 -2.35203
0.12844 -2.41039 -2.41039
0.227146 -2.41253 -2.41253
0.225335 -2.35415 -2.35415
0.128034 -2.38113 -2.38113
0.177781 -2.41139 -2.41139
0.226245 -2.38327 -2.38327
0.176466 -2.35303 -2.35303
0.177127 -2.38214 -2.38214
0.12844 -2.41039 -2.41039
0.129233 -2.46933 -2.46933
0.228924 -2.47149 -2.47149
0.227146 -2.41253 -2.41253
0.12884 -2.43979 -2.43979
0.179067 -2.47035 -2.47035
0.22804 -2.44193 -2.44193
0.177781 -2.41139 -2.41139
0.178428 -2.4408 -2.4408
0.129233 -2.46933 -2.46933
0.130001 -2.52886 -2.52886
0.230668 -2.53103 -2.53103
0.228924 -2.47149 -2.47149
0.12962 -2.49902 -2.49902
0.180323 -2.52988 -2.52988
0.229801 -2.50119 -2.50119
0.179067 -2.47035 -2.47035
0.179699 -2.50004 -2.50004
0.130001 -2.52886 -2.52886
0.130742 -2.58896 -2.58896
0.232378 -2.59115 -2.59115
0.230668 -2.53103 -2.53103
0.130375 -2.55884 -2.55884
0.181548 -2.58999 -2.58999
0.231528 -2.56102 -2.56102
0.180323 -2.52988 -2.52988
0.180939 -2.55987 -2.55987
0.130742 -2.58896 -2.58896
0.131458 -2.64963 -2.64963
0.234054 -2.65183 -2.65183
0.232378 -2.59115 -2.59115
0.131103 -2.61923 -2.61923
0.182744 -2.65067 -2.65067
0.233221 -2.62142 -2.62142
0.181548 -2.58999 -2.58999
0.18215 -2.62026 -2.62026
0.131458 -2.64963 -2.64963
0.132148 -2.71087 -2.71087
0.235696 -2.71309 -2.71309
0.234054 -2.65183 -2.65183
0.131806 -2.68018 -2.68018
0.18391 -2.71192 -2.71192
0.23488 -2.68239 -2.68239
0.182744 -2.65067 -2.65067
0.183331 -2.68123 -2.68123
0.132148 -2.71087 -2.71087
0.132812 -2.77268 -2.77268
0.237304 -2.77491 -2.77491
0.235696 -2.71309 -2.71309
0.132483 -2.74171 -2.74171
0.185046 -2.77373 -2.77373
0.236505 -2.74393 -2.74393
0.18391 -2.71192 -2.71192
0.184482 -2.74276 -2.74276
0.132812 -2.77268 -2.77268
0.13345 -2.83503 -2.83503
0.238878 -2.83728 -2.83728
0.237304 -2.77491 -2.77491
0.133134 -2.80379 -2.80379
0.186152 -2.8361 -2.8361
0.238096 -2.80602 -2.80602
0.185046 -2.77373 -2.77373
0.185603 -2.80485 -2.80485
0.13345 -2.83503 -2.83503
0.134062 -2.89795 -2.89795
0.240418 -2.9002 -2.9002
0.238878 -2.83728 -2.83728
0.13376 -2.86642 -2.86642
0.187229 -2.89902 -2.89902
0.239653 -2.86867 -2.86867
0.186152 -2.8361 -2.8361
0.186694 -2.86749 -2.86749
0.134062 -2.89795 -2.89795
0.134649 -2.9614 -2.9614
0.241924 -2.96368 -2.96368
0.240418 -2.9002 -2.9002
0.134359 -2.92961 -2.92961
0.188275 -2.96248 -2.96248
0.241176 -2.93187 -2.93187
0.187229 -2.89902 -2.89902
0.187755 -2.93068 -2.93068
0.134649 -2.9614 -2.9614
0.13521 -3.0254 -3.0254
0.243396 -3.02769 -3.02769
0.241924 -2.96368 -2.96368
0.134933 -2.99333 -2.99333
0.189291 -3.02649 -3.02649
0.242665 -2.99561 -2.99561
0.188275 -2.96248 -2.96248
0.188787 -2.99442 -2.99442
0.13521 -3.0254 -3.0254
0.135744 -3.08994 -3.08994
0.244834 -3.09224 -3.09224
0.243396 -3.02769 -3.02769
0.13548 -3.0576 -3.0576
0.190277 -3.09103 -3.09103
0.24412 -3.0599 -3.0599
0.189291 -3.02649 -3.02649
0.189788 -3.05869 -3.05869
0.135744 -3.08994 -3.08994
0.136253 -3.15501 -3.15501
0.246238 -3.15732 -3.15732
0.244834 -3.09224 -3.09224
0.136002 -3.12241 -3.12241
0.191234 -3.15611 -3.15611
0.245541 -3.12472 -3.12472
0.190277 -3.09103 -3.09103
0.190759 -3.1235 -3.1235
0.136253 -3.15501 -3.15501
0.136737 -3.2206 -3.2206
0.247608 -3.22293 -3.22293
0.246238 -3.15732 -3.15732
0.136498 -3.18774 -3.18774
0.192161 -3.22171 -3.22171
0.246927 -3.19006 -3.19006
0.191234 -3.15611 -3.15611
0.191701 -3.18884 -3.18884
0.136737 -3.2206 -3.2206
0.137194 -3.28672 -3.28672
0.248944 -3.28907 -3.28907
0.247608 -3.22293 -3.22293
0.136969 -3.2536 -3.2536
0.193057 -3.28784 -3.28784
0.24828 -3.25594 -3.25594
0.192161 -3.22171 -3.22171
0.192613 -3.25471 -3.25471
0.137194 -3.28672 -3.28672
0.137626 -3.35336 -3.35336
0.250246 -3.35572 -3.35572
0.248944 -3.28907 -3.28907
0.137413 -3.31998 -3.31998
0.193924 -3.35448 -3.35448
0.2496 -3.32233 -3.32233
0.193057 -3.28784 -3.28784
0.193494 -3.3211 -3.3211
0.137626 -3.35336 -3.35336
0.138032 -3.42051 -3.42051
0.251514 -3.42288 -3.42288
0.250246 -3.35572 -3.35572
0.137832 -3.38687 -3.38687
0.194761 -3.42164 -3.42164
0.250885 -3.38924 -3.38924
0.193924 -3.35448 -3.35448
0.194346 -3.388 -3.388
0.138032 -3.42051 -3.42051
0.138412 -3.48817 -3.48817
0.252749 -3.49056 -3.49056
0.251514 -3.42288 -3.42288
0.138225 -3.45427 -3.45427
0.195568 -3.48931 -3.48931
0.252136 -3.45666 -3.45666
0.194761 -3.42164 -3.42164
0.195168 -3.45541 -3.45541
0.138412 -3.48817 -3.48817
0.138766 -3.55633 -3.55633
0.253949 -3.55873 -3.55873
0.252749 -3.49056 -3.49056
0.138592 -3.52218 -3.52218
0.196346 -3.55748 -3.55748
0.253353 -3.52458 -3.52458
0.195568 -3.48931 -3.48931
0.195961 -3.52333 -3.52333
0.138766 -3.55633 -3.55633
0.139095 -3.62499 -3.62499
0.255116 -3.6274 -3.6274
0.253949 -3.55873 -3.55873
0.138934 -3.5906 -3.5906
0.197093 -3.62614 -3.62614
0.254537 -3.59301 -3.59301
0.196346 -3.55748 -3.55748
0.196723 -3.59175 -3.59175
0.139095 -3.62499 -3.62499
0.139398 -3.69414 -3.69414
0.256248 -3.69657 -3.69657
0.255116 -3.6274 -3.6274
0.13925 -3.6595 -3.6595
0.197811 -3.6953 -3.6953
0.255686 -3.66193 -3.66193
0.197093 -3.62614 -3.62614
0.197456 -3.66066 -3.66066
0.139398 -3.69414 -3.69414
0.139676 -3.76378 -3.76378
0.257347 -3.76623 -3.76623
0.256248 -3.69657 -3.69657
0.13954 -3.7289 -3.7289
0.1985 -3.76495 -3.76495
0.256802 -3.73134 -3.73134
0.197811 -3.6953 -3.6953
0.198159 -3.73007 -3.73007
0.139676 -3.76378 -3.76378
0.139928 -3.83391 -3.83391
0.258412 -3.83637 -3.83637
0.257347 -3.76623 -3.76623
0.139805 -3.79878 -3.79878
0.199158 -3.83509 -3.83509
0.257884 -3.80124 -3.80124
0.1985 -3.76495 -3.76495
0.198833 -3.79996 -3.79996
0.139928 -3.83391 -3.83391
0.140154 -3.90451 -3.90451
0.259444 -3.90699 -3.90699
0.258412 -3.83637 -3.83637
0.140044 -3.86915 -3.86915
0.199787 -3.9057 -3.9057
0.258932 -3.87162 -3.87162
0.199158 -3.83509 -3.83509
0.199476 -3.87033 -3.87033
0.140154 -3.90451 -3.90451
0.140355 -3.97559 -3.97559
0.260442 -3.97808 -3.97808
0.259444 -3.90699 -3.90699
0.140258 -3.93999 -3.93999
0.200387 -3.97679 -3.97679
0.259947 -3.94247 -3.94247
0.199787 -3.9057 -3.9057
0.200091 -3.94118 -3.94118
0.140355 -3.97559 -3.97559
0.140531 -4.04714 -4.04714
0.261406 -4.04964 -4.04964
0.260442 -3.97808 -3.97808
0.140446 -4.01131 -4.01131
0.200957 -4.04834 -4.04834
0.260928 -4.0138 -4.0138
0.200387 -3.97679 -3.97679
0.200675 -4.0125 -4.0125
0.140531 -4.04714 -4.04714
0.140681 -4.11915 -4.11915
0.262337 -4.12167 -4.12167
0.261406 -4.04964 -4.04964
0.140609 -4.08309 -4.08309
0.201497 -4.12036 -4.12036
0.261876 -4.0856 -4.0856
0.200957 -4.04834 -4.04834
0.201231 -4.08429 -4.08429
0.140681 -4.11915 -4.11915
0.140806 -4.19162 -4.19162
0.263234 -4.19415 -4.19415
0.262337 -4.12167 -4.12167
0.140747 -4.15533 -4.15533
0.202008 -4.19284 -4.19284
0.26279 -4.15785 -4.15785
0.201497 -4.12036 -4.12036
0.201756 -4.15654 -4.15654
0.140806 -4.19162 -4.19162
0.140906 -4.26455 -4.26455
0.264098 -4.2671 -4.2671
0.263234 -4.19415 -4.19415
0.140859 -4.22803 -4.22803
0.20249 -4.26577 -4.26577
0.26367 -4.23057 -4.23057
0.202008 -4.19284 -4.19284
0.202253 -4.22925 -4.22925
0.140906 -4.26455 -4.26455
0.14098 -4.33793 -4.33793
0.264929 -4.34049 -4.34049
0.264098 -4.2671 -4.2671
0.140946 -4.30118 -4.30118
0.202942 -4.33916 -4.33916
0.264517 -4.30373 -4.30373
0.20249 -4.26577 -4.26577
0.20272 -4.30241 -4.30241
0.14098 -4.33793 -4.33793
0.14103 -4.41175 -4.41175
0.265726 -4.41432 -4.41432
0.264929 -4.34049 -4.34049
0.141008 -4.37478 -4.37478
0.203366 -4.41299 -4.41299
0.265331 -4.37735 -4.37735
0.202942 -4.33916 -4.33916
0.203158 -4.37602 -4.37602
0.14103 -4.41175 -4.41175
0.141054 -4.48601 -4.48601
0.26649 -4.4886 -4.4886
0.265726 -4.41432 -4.41432
0.141045 -4.44883 -4.44883
0.20376 -4.48726 -4.48726
0.266112 -4.4514 -4.4514
0.203366 -4.41299 -4.41299
0.203566 -4.45007 -4.45007
0.141054 -4.48601 -4.48601
0.141053 -4.56071 -4.56071
0.26722 -4.56331 -4.56331
0.26649 -4.4886 -4.4886
0.141057 -4.52331 -4.52331
0.204125 -4.56196 -4.56196
0.266859 -4.5259 -4.5259
0.20376 -4.48726 -4.48726
0.203946 -4.52456 -4.52456
0.141053 -4.56071 -4.56071
0.141027 -4.63584 -4.63584
0.267918 -4.63845 -4.63845
0.26722 -4.56331 -4.56331
0.141043 -4.59822 -4.59822
0.204461 -4.6371 -4.6371
0.267573 -4.60082 -4.60082
0.204125 -4.56196 -4.56196
0.204296 -4.59948 -4.59948
0.141027 -4.63584 -4.63584
0.140977 -4.71139 -4.71139
0.268582 -4.71402 -4.71402
0.267918 -4.63845 -4.63845
0.141005 -4.67356 -4.67356
0.204768 -4.71266 -4.71266
0.268254 -4.67618 -4.67618
0.204461 -4.6371 -4.6371
0.204618 -4.67483 -4.67483
0.140977 -4.71139 -4.71139
0.140901 -4.78737 -4.78737
0.269214 -4.79 -4.79
0.268582 -4.71402 -4.71402
0.140942 -4.74933 -4.74933
0.205046 -4.78864 -4.78864
0.268902 -4.75196 -4.75196
0.204768 -4.71266 -4.71266
0.20491 -4.7506 -4.7506
0.140901 -4.78737 -4.78737
0.140801 -4.86376 -4.86376
0.269813 -4.86641 -4.86641
0.269214 -4.79 -4.79
0.140854 -4.82551 -4.82551
0.205295 -4.86504 -4.86504
0.269517 -4.82815 -4.82815
0.205046 -4.78864 -4.78864
0.205174 -4.82679 -4.82679
0.140801 -4.86376 -4.86376
0.140676 -4.94056 -4.94056
0.270378 -4.94322 -4.94322
0.269813 -4.86641 -4.86641
0.140742 -4.90211 -4.90211
0.205515 -4.94185 -4.94185
0.2701 -4.90476 -4.90476
0.205295 -4.86504 -4.86504
0.205409 -4.90339 -4.90339
0.140676 -4.94056 -4.94056
0.140527 -5.01777 -5.01777
0.270912 -5.02044 -5.02044
0.270378 -4.94322 -4.94322
0.140605 -4.97911 -4.97911
0.205707 -5.01906 -5.01906
0.270649 -4.98178 -4.98178
0.205515 -4.94185 -4.94185
0.205615 -4.9804 -4.9804
0.140527 -5.01777 -5.01777
0.140353 -5.09538 -5.09538
0.271412 -5.09806 -5.09806
0.270912 -5.02044 -5.02044
0.140443 -5.05652 -5.05652
0.205871 -5.09668 -5.09668
0.271166 -5.0592 -5.0592
0.205707 -5.01906 -5.01906
0.205792 -5.05782 -5.05782
0.140353 -5.09538 -5.09538
0.140155 -5.17338 -5.17338
0.27188 -5.17608 -5.17608
0.271412 -5.09806 -5.09806
0.140257 -5.13433 -5.13433
0.206005 -5.17469 -5.17469
0.27165 -5.13702 -5.13702
0.205871 -5.09668 -5.09668
0.205942 -5.13563 -5.13563
0.140155 -5.17338 -5.17338
0.139933 -5.25178 -5.25178
0.272315 -5.25449 -5.25449
0.27188 -5.17608 -5.17608
0.140047 -5.21253 -5.21253
0.206112 -5.25309 -5.25309
0.272102 -5.21524 -5.21524
0.206005 -5.17469 -5.17469
0.206062 -5.21384 -5.21384
0.139933 -5.25178 -5.25178
0.139686 -5.33057 -5.33057
0.272718 -5.33329 -5.33329
0.272315 -5.25449 -5.25449
0.139812 -5.29113 -5.29113
0.20619 -5.33189 -5.33189
0.272521 -5.29384 -5.29384
0.206112 -5.25309 -5.25309
0.206154 -5.29244 -5.29244
0.139686 -5.33057 -5.33057
0.139415 -5.40973 -5.40973
0.273089 -5.41247 -5.41247
0.272718 -5.33329 -5.33329
0.139553 -5.3701 -5.3701
0.20624 -5.41106 -5.41106
0.272908 -5.37283 -5.37283
0.20619 -5.33189 -5.33189
0.206218 -5.37142 -5.37142
0.139415 -5.40973 -5.40973
0.13912 -5.48928 -5.48928
0.273427 -5.49202 -5.49202
0.273089 -5.41247 -5.41247
0.13927 -5.44946 -5.44946
0.206262 -5.49061 -5.49061
0.273262 -5.4522 -5.4522
0.20624 -5.41106 -5.41106
0.206254 -5.45079 -5.45079
0.13912 -5.48928 -5.48928
0.138801 -5.56919 -5.56919
0.273734 -5.57195 -5.57195
0.273427 -5.49202 -5.49202
0.138964 -5.52919 -5.52919
0.206255 -5.57053 -5.57053
0.273585 -5.53194 -5.53194
0.206262 -5.49061 -5.49061
0.206262 -5.53052 -5.53052
0.138801 -5.56919 -5.56919
0.138458 -5.64948 -5.64948
0.274008 -5.65224 -5.65224
0.273734 -5.57195 -5.57195
0.138633 -5.60929 -5.60929
0.206221 -5.65082 -5.65082
0.273875 -5.61205 -5.61205
0.206255 -5.57053 -5.57053
0.206242 -5.61063 -5.61063
0.138458 -5.64948 -5.64948
0.138092 -5.73012 -5.73012
0.274251 -5.7329 -5.7329
0.274008 -5.65224 -5.65224
0.138278 -5.68975 -5.68975
0.206159 -5.73147 -5.73147
0.274133 -5.69253 -5.69253
0.206221 -5.65082 -5.65082
0.206194 -5.6911 -5.6911
0.138092 -5.73012 -5.73012
0.137702 -5.81113 -5.81113
0.274461 -5.81392 -5.81392
0.274251 -5.7329 -5.7329
0.1379 -5.77058 -5.77058
0.206069 -5.81248 -5.81248
0.27436 -5.77336 -5.77336
0.206159 -5.73147 -5.73147
0.206118 -5.77193 -5.77193
0.137702 -5.81113 -5.81113
0.137288 -5.89248 -5.89248
0.27464 -5.89528 -5.89528
0.274461 -5.81392 -5.81392
0.137498 -5.85176 -5.85176
0.205952 -5.89385 -5.89385
0.274555 -5.85456 -5.85456
0.206069 -5.81248 -5.81248
0.206014 -5.85312 -5.85312
0.137288 -5.89248 -5.89248
0.136851 -5.97419 -5.97419
0.274787 -5.977 -5.977
0.27464 -5.89528 -5.89528
0.137073 -5.93329 -5.93329
0.205807 -5.97556 -5.97556
0.274718 -5.9361 -5.9361
0.205952 -5.89385 -5.89385
0.205883 -5.93466 -5.93466
0.136851 -5.97419 -5.97419
0.136391 -6.05624 -6.05624
0.274903 -6.05906 -6.05906
0.274787 -5.977 -5.977
0.136624 -6.01517 -6.01517
0.205635 -6.05761 -6.05761
0.274849 -6.01799 -6.01799
0.205807 -5.97556 -5.97556
0.205724 -6.01654 -6.01654
0.136391 -6.05624 -6.05624
0.135907 -6.13863 -6.13863
0.274988 -6.14146 -6.14146
0.274903 -6.05906 -6.05906
0.136152 -6.09739 -6.09739
0.205435 -6.14001 -6.14001
0.274949 -6.10022 -6.10022
0.205635 -6.05761 -6.05761
0.205538 -6.09877 -6.09877
0.135907 -6.13863 -6.13863
0.135401 -6.22135 -6.22135
0.275041 -6.22419 -6.22419
0.274988 -6.14146 -6.14146
0.135657 -6.17994 -6.17994
0.205209 -6.22273 -6.22273
0.275018 -6.18278 -6.18278
0.205435 -6.14001 -6.14001
0.205325 -6.18133 -6.18133
0.135401 -6.22135 -6.22135
0.134871 -6.3044 -6.3044
0.275063 -6.30725 -6.30725
0.275041 -6.22419 -6.22419
0.135139 -6.26283 -6.26283
0.204955 -6.30579 -6.30579
0.275056 -6.26568 -6.26568
0.205209 -6.22273 -6.22273
0.205085 -6.26422 -6.26422
0.134871 -6.3044 -6.3044
0.134318 -6.38777 -6.38777
0.275054 -6.39063 -6.39063
0.275063 -6.30725 -6.30725
0.134597 -6.34604 -6.34604
0.204674 -6.38916 -6.38916
0.275062 -6.3489 -6.3489
0.204955 -6.30579 -6.30579
0.204818 -6.34744 -6.34744
0.134318 -6.38777 -6.38777
0.133743 -6.47146 -6.47146
0.275014 -6.47433 -6.47433
0.275054 -6.39063 -6.39063
0.134034 -6.42958 -6.42958
0.204366 -6.47286 -6.47286
0.275038 -6.43244 -6.43244
0.204674 -6.38916 -6.38916
0.204523 -6.43097 -6.43097
0.133743 -6.47146 -6.47146
0.133145 -6.55547 -6.55547
0.274943 -6.55835 -6.55835
0.275014 -6.47433 -6.47433
0.133447 -6.51343 -6.51343
0.204032 -6.55687 -6.55687
0.274983 -6.5163 -6.5163
0.204366 -6.47286 -6.47286
0.204202 -6.51483 -6.51483
0.133145 -6.55547 -6.55547
0.132525 -6.63978 -6.63978
0.274842 -6.64267 -6.64267
0.274943 -6.55835 -6.55835
0.132838 -6.59759 -6.59759
0.203671 -6.64119 -6.64119
0.274896 -6.60047 -6.60047
0.204032 -6.55687 -6.55687
0.203855 -6.599 -6.599
0.132525 -6.63978 -6.63978
0.131882 -6.7244 -6.7244
0.27471 -6.7273 -6.7273
0.274842 -6.64267 -6.64267
0.132206 -6.68206 -6.68206
0.203284 -6.72582 -6.72582
0.27478 -6.68495 -6.68495
0.203671 -6.64119 -6.64119
0.203481 -6.68347 -6.68347
0.131882 -6.7244 -6.7244
0.131217 -6.80932 -6.80932
0.274548 -6.81223 -6.81223
0.27471 -6.7273 -6.7273
0.131552 -6.76683 -6.76683
0.20287 -6.81074 -6.81074
0.274633 -6.76973 -6.76973
0.203284 -6.72582 -6.72582
0.20308 -6.76825 -6.76825
0.131217 -6.80932 -6.80932
0.13053 -6.89454 -6.89454
0.274355 -6.89745 -6.89745
0.274548 -6.81223 -6.81223
0.130876 -6.8519 -6.8519
0.20243 -6.89596 -6.89596
0.274455 -6.8548 -6.8548
0.20287 -6.81074 -6.81074
0.202653 -6.85332 -6.85332
0.13053 -6.89454 -6.89454
0.12982 -6.98004 -6.98004
0.274132 -6.98297 -6.98297
0.274355 -6.89745 -6.89745
0.130178 -6.93726 -6.93726
0.201964 -6.98147 -6.98147
0.274247 -6.94017 -6.94017
0.20243 -6.89596 -6.89596
0.2022 -6.93868 -6.93868
0.12982 -6.98004 -6.98004
0.129089 -7.06583 -7.06583
0.273879 -7.06876 -7.06876
0.274132 -6.98297 -6.98297
0.129458 -7.0229 -7.0229
0.201472 -7.06727 -7.06727
0.274009 -7.02583 -7.02583
0.201964 -6.98147 -6.98147
0.201721 -7.02434 -7.02434
0.129089 -7.06583 -7.06583
0.128337 -7.1519 -7.1519
0.273596 -7.15484 -7.15484
0.273879 -7.06876 -7.06876
0.128716 -7.10883 -7.10883
0.200954 -7.15334 -7.15334
0.273741 -7.11177 -7.11177
0.201472 -7.06727 -7.06727
0.201216 -7.11027 -7.11027
0.128337 -7.1519 -7.1519
0.127562 -7.23825 -7.23825
0.273284 -7.24119 -7.24119
0.273596 -7.15484 -7.15484
0.127952 -7.19504 -7.19504
0.200411 -7.23969 -7.23969
0.273444 -7.19798 -7.19798
0.200954 -7.15334 -7.15334
0.200685 -7.19648 -7.19648
0.127562 -7.23825 -7.23825
0.126766 -7.32487 -7.32487
0.272942 -7.32782 -7.32782
0.273284 -7.24119 -7.24119
0.127167 -7.28153 -7.28153
0.199841 -7.32631 -7.32631
0.273116 -7.28447 -7.28447
0.200411 -7.23969 -7.23969
0.200129 -7.28297 -7.28297
0.126766 -7.32487 -7.32487
0.125949 -7.41175 -7.41175
0.27257 -7.41471 -7.41471
0.272942 -7.32782 -7.32782
0.12636 -7.36827 -7.36827
0.199247 -7.4132 -7.4132
0.272759 -7.37123 -7.37123
0.199841 -7.32631 -7.32631
0.199547 -7.36972 -7.36972
0.125949 -7.41175 -7.41175
0.125111 -7.49889 -7.49889
0.272169 -7.50186 -7.50186
0.27257 -7.41471 -7.41471
0.125532 -7.45529 -7.45529
0.198627 -7.50035 -7.50035
0.272373 -7.45825 -7.45825
0.199247 -7.4132 -7.4132
0.19894 -7.45674 -7.45674
0.125111 -7.49889 -7.49889
0.124251 -7.58629 -7.58629
0.271738 -7.58926 -7.58926
0.272169 -7.50186 -7.50186
0.124683 -7.54256 -7.54256
0.197982 -7.58775 -7.58775
0.271957 -7.54553 -7.54553
0.198627 -7.50035 -7.50035
0.198308 -7.54402 -7.54402
0.124251 -7.58629 -7.58629
0.123371 -7.67394 -7.67394
0.271279 -7.67692 -7.67692
0.271738 -7.58926 -7.58926
0.123813 -7.63009 -7.63009
0.197312 -7.6754 -7.6754
0.271512 -7.63306 -7.63306
0.197982 -7.58775 -7.58775
0.19765 -7.63155 -7.63155
0.123371 -7.67394 -7.67394
0.122469 -7.76184 -7.76184
0.270791 -7.76482 -7.76482
0.271279 -7.67692 -7.67692
0.122923 -7.71786 -7.71786
0.196617 -7.7633 -7.7633
0.271038 -7.72084 -7.72084
0.197312 -7.6754 -7.6754
0.196968 -7.71932 -7.71932
0.122469 -7.76184 -7.76184
0.121548 -7.84998 -7.84998
0.270273 -7.85297 -7.85297
0.270791 -7.76482 -7.76482
0.122011 -7.80588 -7.80588
0.195898 -7.85145 -7.85145
0.270536 -7.80886 -7.80886
0.196617 -7.7633 -7.7633
0.196261 -7.80734 -7.80734
0.121548 -7.84998 -7.84998
0.120605 -7.93835 -7.93835
0.269728 -7.94135 -7.94135
0.270273 -7.85297 -7.85297
0.121079 -7.89413 -7.89413
0.195154 -7.93982 -7.93982
0.270004 -7.89713 -7.89713
0.195898 -7.85145 -7.85145
0.195529 -7.8956 -7.8956
0.120605 -7.93835 -7.93835
0.119643 -8.02696 -8.02696
0.269153 -8.02996 -8.02996
0.269728 -7.94135 -7.94135
0.120126 -7.98263 -7.98263
0.194385 -8.02843 -8.02843
0.269444 -7.98562 -7.98562
0.195154 -7.93982 -7.93982
0.194773 -7.9841 -7.9841
0.119643 -8.02696 -8.02696
0.11866 -8.11579 -8.11579
0.26855 -8.1188 -8.1188
0.269153 -8.02996 -8.02996
0.119154 -8.07135 -8.07135
0.193593 -8.11727 -8.11727
0.268855 -8.07435 -8.07435
0.194385 -8.02843 -8.02843
0.193992 -8.07282 -8.07282
0.11866 -8.11579 -8.11579
0.117657 -8.20485 -8.20485
0.26792 -8.20786 -8.20786
0.26855 -8.1188 -8.1188
0.118161 -8.16029 -8.16029
0.192776 -8.20633 -8.20633
0.268239 -8.1633 -8.1633
0.193593 -8.11727 -8.11727
0.193187 -8.16177 -8.16177
0.117657 -8.20485 -8.20485
0.116634 -8.29412 -8.29412
0.267261 -8.29714 -8.29714
0.26792 -8.20786 -8.20786
0.117148 -8.24946 -8.24946
0.191935 -8.29561 -8.29561
0.267594 -8.25247 -8.25247
0.192776 -8.20633 -8.20633
0.192358 -8.25094 -8.25094
0.116634 -8.29412 -8.29412
0.115592 -8.38361 -8.38361
0.266574 -8.38663 -8.38663
0.267261 -8.29714 -8.29714
0.116115 -8.33884 -8.33884
0.19107 -8.38509 -8.38509
0.266921 -8.34185 -8.34185
0.191935 -8.29561 -8.29561
0.191505 -8.34032 -8.34032
0.115592 -8.38361 -8.38361
0.11453 -8.4733 -8.4733
0.265859 -8.47632 -8.47632
0.266574 -8.38663 -8.38663
0.115063 -8.42843 -8.42843
0.190182 -8.47479 -8.47479
0.26622 -8.43145 -8.43145
0.19107 -8.38509 -8.38509
0.190629 -8.42992 -8.42992
0.11453 -8.4733 -8.4733
0.113448 -8.5632 -8.5632
0.265117 -8.56622 -8.56622
0.265859 -8.47632 -8.47632
0.113991 -8.51822 -8.51822
0.18927 -8.56469 -8.56469
0.265491 -8.52125 -8.52125
0.190182 -8.47479 -8.47479
0.189729 -8.51971 -8.51971
0.113448 -8.5632 -8.5632
0.112347 -8.65329 -8.65329
0.264347 -8.65632 -8.65632
0.265117 -8.56622 -8.56622
0.1129 -8.60822 -8.60822
0.188335 -8.65478 -8.65478
0.264735 -8.61125 -8.61125
0.18927 -8.56469 -8.56469
0.188805 -8.60971 -8.60971
0.112347 -8.65329 -8.65329
0.111227 -8.74358 -8.74358
0.26355 -8.74661 -8.74661
0.264347 -8.65632 -8.65632
0.11179 -8.69841 -8.69841
0.187376 -8.74507 -8.74507
0.263952 -8.70144 -8.70144
0.188335 -8.65478 -8.65478
0.187858 -8.69991 -8.69991
0.111227 -8.74358 -8.74358
0.110088 -8.83405 -8.83405
0.262726 -8.83709 -8.83709
0.26355 -8.74661 -8.74661
0.11066 -8.78879 -8.78879
0.186395 -8.83555 -8.83555
0.263142 -8.79183 -8.79183
0.187376 -8.74507 -8.74507
0.186888 -8.79029 -8.79029
0.110088 -8.83405 -8.83405
0.108931 -8.92471 -8.92471
0.261875 -8.92775 -8.92775
0.262726 -8.83709 -8.83709
0.109512 -8.87936 -8.87936
0.18539 -8.92621 -8.92621
0.262304 -8.8824 -8.8824
0.186395 -8.83555 -8.83555
0.185895 -8.88086 -8.88086
0.108931 -8.92471 -8.92471
0.107754 -9.01555 -9.01555
0.260997 -9.01859 -9.01859
0.261875 -8.92775 -8.92775
0.108345 -8.97011 -8.97011
0.184363 -9.01705 -9.01705
0.261439 -8.97315 -8.97315
0.18539 -8.92621 -8.92621
0.184879 -8.97161 -8.97161
0.107754 -9.01555 -9.01555
0.106559 -9.10656 -9.10656
0.260093 -9.10961 -9.10961
0.260997 -9.01859 -9.01859
0.107159 -9.06104 -9.06104
0.183313 -9.10807 -9.10807
0.260548 -9.06408 -9.06408
0.184363 -9.01705 -9.01705
0.183841 -9.06254 -9.06254
0.106559 -9.10656 -9.10656
0.105346 -9.19774 -9.19774
0.259162 -9.20079 -9.20079
0.260093 -9.10961 -9.10961
0.105955 -9.15213 -9.15213
0.182241 -9.19925 -9.19925
0.25963 -9.15518 -9.15518
0.183313 -9.10807 -9.10807
0.18278 -9.15364 -9.15364
0.105346 -9.19774 -9.19774
0.104115 -9.28909 -9.28909
0.258204 -9.29213 -9.29213
0.259162 -9.20079 -9.20079
0.104733 -9.2434 -9.2434
0.181147 -9.29059 -9.29059
0.258686 -9.24644 -9.24644
0.182241 -9.19925 -9.19925
0.181697 -9.2449 -9.2449
0.104115 -9.28909 -9.28909
0.102866 -9.38059 -9.38059
0.257221 -9.38364 -9.38364
0.258204 -9.29213 -9.29213
0.103493 -9.33482 -9.33482
0.18003 -9.3821 -9.3821
0.257716 -9.33787 -9.33787
0.181147 -9.29059 -9.29059
0.180591 -9.33633 -9.33633
0.102866 -9.38059 -9.38059
0.101598 -9.47225 -9.47225
0.256211 -9.4753 -9.4753
0.257221 -9.38364 -9.38364
0.102234 -9.4264 -9.4264
0.178892 -9.47376 -9.47376
0.256719 -9.42945 -9.42945
0.18003 -9.3821 -9.3821
0.179464 -9.42791 -9.42791
0.101598 -9.47225 -9.47225
0.100314 -9.56406 -9.56406
0.255176 -9.56711 -9.56711
0.256211 -9.4753 -9.4753
0.100958 -9.51814 -9.51814
0.177732 -9.56557 -9.56557
0.255697 -9.52118 -9.52118
0.178892 -9.47376 -9.47376
0.178315 -9.51964 -9.51964
0.100314 -9.56406 -9.56406
0.0990114 -9.65601 -9.65601
0.254115 -9.65906 -9.65906
0.255176 -9.56711 -9.56711
0.0996647 -9.61002 -9.61002
0.17655 -9.65752 -9.65752
0.254648 -9.61306 -9.61306
0.177732 -9.56557 -9.56557
0.177144 -9.61152 -9.61152
0.0990114 -9.65601 -9.65601
0.0976917 -9.7481 -9.7481
0.253028 -9.75115 -9.75115
0.254115 -9.65906 -9.65906
0.0983537 -9.70204 -9.70204
0.175347 -9.74961 -9.74961
0.253575 -9.70509 -9.70509
0.17655 -9.65752 -9.65752
0.175951 -9.70355 -9.70355
0.0976917 -9.7481 -9.7481
0.0963549 -9.84033 -9.84033
0.251916 -9.84338 -9.84338
0.253028 -9.75115 -9.75115
0.0970254 -9.7942 -9.7942
0.174123 -9.84184 -9.84184
0.252475 -9.79725 -9.79725
0.175347 -9.74961 -9.74961
0.174738 -9.79571 -9.79571
0.0963549 -9.84033 -9.84033
0.0950011 -9.93269 -9.93269
0.250779 -9.93574 -9.93574
0.251916 -9.84338 -9.84338
0.0956801 -9.88649 -9.88649
0.172877 -9.9342 -9.9342
0.251351 -9.88954 -9.88954
0.174123 -9.84184 -9.84184
0.173503 -9.888 -9.888
0.0950011 -9.93269 -9.93269
0.0936304 -10.0252 -10.0252
0.249617 -10.0282 -10.0282
0.250779 -9.93574 -9.93574
0.0943179 -9.97891 -9.97891
0.171611 -10.0267 -10.0267
0.250201 -9.98196 -9.98196
0.172877 -9.9342 -9.9342
0.172247 -9.98042 -9.98042
0.0936304 -10.0252 -10.0252
0.0922431 -10.1178 -10.1178
0.24843 -10.1208 -10.1208
0.249617 -10.0282 -10.0282
0.0929389 -10.0715 -10.0715
0.170324 -10.1193 -10.1193
0.249027 -10.0745 -10.0745
0.171611 -10.0267 -10.0267
0.17097 -10.073 -10.073
0.0922431 -10.1178 -10.1178
0.0908394 -10.2105 -10.2105
0.247219 -10.2135 -10.2135
0.24843 -10.1208 -10.1208
0.0915433 -10.1641 -10.1641
0.169016 -10.212 -10.212
0.247828 -10.1672 -10.1672
0.170324 -10.1193 -10.1193
0.169673 -10.1656 -10.1656
0.0908394 -10.2105 -10.2105
0.0894193 -10.3033 -10.3033
0.245983 -10.3064 -10.3064
0.247219 -10.2135 -10.2135
0.0901313 -10.2569 -10.2569
0.167688 -10.3048 -10.3048
0.246604 -10.2599 -10.2599
0.169016 -10.212 -10.212
0.168355 -10.2584 -10.2584
0.0894193 -10.3033 -10.3033
0.087983 -10.3963 -10.3963
0.244722 -10.3993 -10.3993
0.245983 -10.3064 -10.3064
0.0887031 -10.3498 -10.3498
0.16634 -10.3978 -10.3978
0.245356 -10.3528 -10.3528
0.167688 -10.3048 -10.3048
0.167016 -10.3513 -10.3513
0.087983 -10.3963 -10.3963
0.0865308 -10.4893 -10.4893
0.243438 -10.4923 -10.4923
0.244722 -10.3993 -10.3993
0.0872589 -10.4428 -10.4428
0.164971 -10.4908 -10.4908
0.244083 -10.4458 -10.4458
0.16634 -10.3978 -10.3978
0.165658 -10.4443 -10.4443
0.0865308 -10.4893 -10.4893
0.0850628 -10.5824 -10.5824
0.24213 -10.5855 -10.5855
0.243438 -10.4923 -10.4923
0.0857988 -10.5358 -10.5358
0.163583 -10.5839 -10.5839
0.242787 -10.5389 -10.5389
0.164971 -10.4908 -10.4908
0.16428 -10.5374 -10.5374
0.0850628 -10.5824 -10.5824
0.0835792 -10.6757 -10.6757
0.240797 -10.6787 -10.6787
0.24213 -10.5855 -10.5855
0.0843229 -10.629 -10.629
0.162175 -10.6772 -10.6772
0.241466 -10.6321 -10.6321
0.163583 -10.5839 -10.5839
0.162882 -10.6305 -10.6305
0.0835792 -10.6757 -10.6757
0.0820801 -10.769 -10.769
0.239442 -10.772 -10.772
0.240797 -10.6787 -10.6787
0.0828315 -10.7223 -10.7223
0.160748 -10.7705 -10.7705
0.240122 -10.7253 -10.7253
0.162175 -10.6772 -10.6772
0.161464 -10.7238 -10.7238
0.0820801 -10.769 -10.769
0.0805657 -10.8624 -10.8624
0.238062 -10.8654 -10.8654
0.239442 -10.772 -10.772
0.0813248 -10.8157 -10.8157
0.159301 -10.8639 -10.8639
0.238755 -10.8187 -10.8187
0.160748 -10.7705 -10.7705
0.160027 -10.8172 -10.8172
0.0805657 -10.8624 -10.8624
0.0790363 -10.9558 -10.9558
0.23666 -10.9589 -10.9589
0.238062 -10.8654 -10.8654
0.0798029 -10.9091 -10.9091
0.157835 -10.9573 -10.9573
0.237364 -10.9121 -10.9121
0.159301 -10.8639 -10.8639
0.15857 -10.9106 -10.9106
0.0790363 -10.9558 -10.9558
0.0774919 -11.0494 -11.0494
0.235234 -11.0524 -11.0524
0.23666 -10.9589 -10.9589
0.0782659 -11.0026 -11.0026
0.15635 -11.0509 -11.0509
0.23595 -11.0056 -11.0056
0.157835 -10.9573 -10.9573
0.157095 -11.0041 -11.0041
0.0774919 -11.0494 -11.0494
0.0759328 -11.143 -11.143
0.233786 -11.146 -11.146
0.235234 -11.0524 -11.0524
0.0767142 -11.0962 -11.0962
0.154846 -11.1445 -11.1445
0.234513 -11.0992 -11.0992
0.15635 -11.0509 -11.0509
0.1556 -11.0977 -11.0977
0.0759328 -11.143 -11.143
0.074359 -11.2367 -11.2367
0.232314 -11.2397 -11.2397
0.233786 -11.146 -11.146
0.0751477 -11.1898 -11.1898
0.153324 -11.2382 -11.2382
0.233053 -11.1928 -11.1928
0.154846 -11.1445 -11.1445
0.154087 -11.1913 -11.1913
0.074359 -11.2367 -11.2367
0.0727708 -11.3304 -11.3304
0.230821 -11.3334 -11.3334
0.232314 -11.2397 -11.2397
0.0735667 -11.2835 -11.2835
0.151782 -11.3319 -11.3319
0.23157 -11.2865 -11.2865
0.153324 -11.2382 -11.2382
0.152555 -11.285 -11.285
0.0727708 -11.3304 -11.3304
0.0711682 -11.4242 -11.4242
0.229304 -11.4272 -11.4272
0.230821 -11.3334 -11.3334
0.0719713 -11.3773 -11.3773
0.150223 -11.4257 -11.4257
0.230065 -11.3803 -11.3803
0.151782 -11.3319 -11.3319
0.151005 -11.3788 -11.3788
0.0711682 -11.4242 -11.4242
0.0695512 -11.518 -11.518
0.227766 -11.521 -11.521
0.229304 -11.4272 -11.4272
0.0703615 -11.4711 -11.4711
0.148645 -11.5195 -11.5195
0.228538 -11.4741 -11.4741
0.150223 -11.4257 -11.4257
0.149436 -11.4726 -11.4726
0.0695512 -11.518 -11.518
0.0679197 -11.6119 -11.6119
0.226206 -11.6149 -11.6149
0.227766 -11.521 -11.521
0.0687373 -11.5649 -11.5649
0.147049 -11.6134 -11.6134
0.226989 -11.5679 -11.5679
0.148645 -11.5195 -11.5195
0.14785 -11.5664 -11.5664
0.0679197 -11.6119 -11.6119
0.0662733 -11.7058 -11.7058
0.224623 -11.7088 -11.7088
0.226206 -11.6149 -11.6149
0.0670984 -11.6588 -11.6588
0.145435 -11.7073 -11.7073
0.225417 -11.6618 -11.6618
0.147049 -11.6134 -11.6134
0.146244 -11.6603 -11.6603
0.0662733 -11.7058 -11.7058
0.0646115 -11.7997 -11.7997
0.223019 -11.8027 -11.8027
0.224623 -11.7088 -11.7088
0.0654444 -11.7527 -11.7527
0.143801 -11.8012 -11.8012
0.223824 -11.7557 -11.7557
0.145435 -11.7073 -11.7073
0.14462 -11.7542 -11.7542
0.0646115 -11.7997 -11.7997
0.0629332 -11.8937 -11.8937
0.221392 -11.8967 -11.8967
0.223019 -11.8027 -11.8027
0.0637745 -11.8467 -11.8467
0.142147 -11.8952 -11.8952
0.222208 -11.8497 -11.8497
0.143801 -11.8012 -11.8012
0.142977 -11.8482 -11.8482
0.0629332 -11.8937 -11.8937
0.0612373 -11.9877 -11.9877
0.219743 -11.9907 -11.9907
0.221392 -11.8967 -11.8967
0.0620875 -11.9407 -11.9407
0.140472 -11.9892 -11.9892
0.220571 -11.9437 -11.9437
0.142147 -11.8952 -11.8952
0.141313 -11.9422 -11.9422
0.0612373 -11.9877 -11.9877
0.0595243 -12.0817 -12.0817
0.218067 -12.0847 -12.0847
0.219743 -11.9907 -11.9907
0.0603829 -12.0347 -12.0347
0.138774 -12.0832 -12.0832
0.218908 -12.0377 -12.0377
0.140472 -11.9892 -11.9892
0.139626 -12.0362 -12.0362
0.0595243 -12.0817 -12.0817
0.0577969 -12.1758 -12.1758
0.216364 -12.1787 -12.1787
0.218067 -12.0847 -12.0847
0.0586617 -12.1287 -12.1287
0.137053 -12.1772 -12.1772
0.21722 -12.1317 -12.1317
0.138774 -12.0832 -12.0832
0.137916 -12.1302 -12.1302
0.0577969 -12.1758 -12.1758
0.0560678 -12.2698 -12.2698
0.214633 -12.2728 -12.2728
0.216364 -12.1787 -12.1787
0.0569317 -12.2228 -12.2228
0.135319 -12.2713 -12.2713
0.215501 -12.2258 -12.2258
0.137053 -12.1772 -12.1772
0.136185 -12.2243 -12.2243
0.0560678 -12.2698 -12.2698
0.0543491 -12.3638 -12.3638
0.212917 -12.367 -12.367
0.214633 -12.2728 -12.2728
0.0552065 -12.3168 -12.3168
0.133611 -12.3654 -12.3654
0.213768 -12.3199 -12.3199
0.135319 -12.2713 -12.2713
0.13446 -12.3184 -12.3184
0 0 0
0.00365972 -0.00104326 -0.00104326
0.00614278 -0.00307655 -0.00307655
0 0 0
0.00177617 -0.000374698 -0.000374698
0.00462472 -0.00186089 -0.00186089
0.00334097 -0.00191548 -0.00191548
0 0 0
0.00220606 -0.00081966 -0.00081966
0.00365972 -0.00104326 -0.00104326
0.00762134 -0.00300935 -0.00300935
0.0114587 -0.00535031 -0.00535031
0.00614278 -0.00307655 -0.00307655
0.00562172 -0.00193139 -0.00193139
0.0094427 -0.0040613 -0.0040613
0.00880904 -0.00417048 -0.00417048
0.00462472 -0.00186089 -0.00186089
0.00704727 -0.00292771 -0.00292771
0.00762134 -0.00300935 -0.00300935
0.0116183 -0.00570982 -0.00570982
0.0168182 -0.00809282 -0.00809282
0.0114587 -0.00535031 -0.00535031
0.00962229 -0.00426473 -0.00426473
0.0141892 -0.00681193 -0.00681193
0.0141293 -0.00664142 -0.00664142
0.0094427 -0.0040613 -0.0040613
0.0118223 -0.00534729 -0.00534729
0.0116183 -0.00570982 -0.00570982
0.0155941 -0.00922512 -0.00922512
0.0222193 -0.0116193 -0.0116193
0.0168182 -0.00809282 -0.00809282
0.0136098 -0.00736086 -0.00736086
0.0188933 -0.010329 -0.010329
0.0195151 -0.00974979 -0.00974979
0.0141892 -0.00681193 -0.00681193
0.0165449 -0.00846741 -0.00846741
0.0155941 -0.00922512 -0.00922512
0.0195342 -0.0136133 -0.0136133
0.027647 -0.0160029 -0.0160029
0.0222193 -0.0116193 -0.0116193
0.0175684 -0.0113076 -0.0113076
0.0235792 -0.0147157 -0.0147157
0.0249314 -0.013701 -0.013701
0.0188933 -0.010329 -0.010329
0.0212382 -0.0124105 -0.0124105
0.0195342 -0.0136133 -0.0136133
0.0234462 -0.0189079 -0.0189079
0.0330742 -0.0212927 -0.0212927
0.027647 -0.0160029 -0.0160029
0.0214935 -0.0161463 -0.0161463
0.0282469 -0.0200052 -0.0200052
0.0303616 -0.0185333 -0.0185333
0.0235792 -0.0147157 -0.0147157
0.0259154 -0.0172466 -0.0172466
0.0234462 -0.0189079 -0.0189079
0.027331 -0.0251189 -0.0251189
0.0384911 -0.0274959 -0.0274959
0.0330742 -0.0212927 -0.0212927
0.0253918 -0.0218986 -0.0218986
0.0328957 -0.0262117 -0.0262117
0.0357846 -0.0242798 -0.0242798
0.0282469 -0.0200052 -0.0200052
0.0305738 -0.0229935 -0.0229935
0.027331 -0.0251189 -0.0251189
0.0311914 -0.0322488 -0.0322488
0.0438873 -0.0346186 -0.0346186
0.0384911 -0.0274959 -0.0274959
0.0292642 -0.028569 -0.028569
0.0375223 -0.0333373 -0.0333373
0.0411922 -0.0309424 -0.0309424
0.0328957 -0.0262117 -0.0262117
0.0352119 -0.0296597 -0.0296597
0.0311914 -0.0322488 -0.0322488
0.0350276 -0.040295 -0.040295
0.0492583 -0.0426573 -0.0426573
0.0438873 -0.0346186 -0.0346186
0.0331125 -0.0361576 -0.0361576
0.0421248 -0.0413798 -0.0413798
0.0465762 -0.0385237 -0.0385237
0.0375223 -0.0333373 -0.0333373
0.0398266 -0.0372442 -0.0372442
0.0350276 -0.040295 -0.040295
0.0388402 -0.0492536 -0.0492536
0.0546006 -0.051609 -0.051609
0.0492583 -0.0426573 -0.0426573
0.0369369 -0.0446606 -0.0446606
0.0467015 -0.0503351 -0.0503351
0.0519332 -0.0470193 -0.0470193
0.0421248 -0.0413798 -0.0413798
0.0444164 -0.0457436 -0.0457436
0.0388402 -0.0492536 -0.0492536
0.0426288 -0.0591196 -0.0591196
0.0599124 -0.0614684 -0.0614684
0.0546006 -0.051609 -0.051609
0.0407375 -0.0540735 -0.0540735
0.0512514 -0.0601982 -0.0601982
0.0572604 -0.0564255 -0.0564255
0.0467015 -0.0503351 -0.0503351
0.0489798 -0.0551534 -0.0551534
0.0426288 -0.0591196 -0.0591196
0.0463934 -0.0698882 -0.0698882
0.0651927 -0.0722309 -0.0722309
0.0599124 -0.0614684 -0.0614684
0.0445142 -0.0643914 -0.0643914
0.0557736 -0.0709641 -0.0709641
0.0625566 -0.0667371 -0.0667371
0.0512514 -0.0601982 -0.0601982
0.053516 -0.0654686 -0.0654686
0.0463934 -0.0698882 -0.0698882
0.0501337 -0.0815541 -0.0815541
0.0704408 -0.0838913 -0.0838913
0.0651927 -0.0722309 -0.0722309
0.0482666 -0.0756093 -0.0756093
0.0602677 -0.0826277 -0.0826277
0.0678208 -0.0779492 -0.0779492
0.0557736 -0.0709641 -0.0709641
0.0580242 -0.076684 -0.076684
0.0501337 -0.0815541 -0.0815541
0.0538494 -0.0941125 -0.0941125
0.0756562 -0.0964446 -0.0964446
0.0704408 -0.0838913 -0.0838913
0.0519946 -0.0877221 -0.0877221
0.0647332 -0.0951841 -0.0951841
0.0730526 -0.0900567 -0.0900567
0.0602677 -0.0826277 -0.0826277
0.0625041 -0.0887946 -0.0887946
0.0538494 -0.0941125 -0.0941125
0.0575401 -0.107558 -0.107558
0.0808385 -0.109886 -0.109886
0.0756562 -0.0964446 -0.0964446
0.0556979 -0.100725 -0.100725
0.0691697 -0.108628 -0.108628
0.0782515 -0.103055 -0.103055
0.0647332 -0.0951841 -0.0951841
0.0669551 -0.101795 -0.101795
0.0575401 -0.107558 -0.107558
0.0612057 -0.121887 -0.121887
0.0859875 -0.12421 -0.12421
0.0808385 -0.109886 -0.109886
0.0593761 -0.114613 -0.114613
0.073577 -0.122955 -0.122955
0.0834172 -0.116938 -0.116938
0.0691697 -0.108628 -0.108628
0.0713771 -0.115682 -0.115682
0.0612057 -0.121887 -0.121887
0.0648458 -0.137093 -0.137093
0.0911028 -0.139413 -0.139413
0.0859875 -0.12421 -0.12421
0.063029 -0.129381 -0.129381
0.0779548 -0.13816 -0.13816
0.0885493 -0.131702 -0.131702
0.073577 -0.122955 -0.122955
0.0757696 -0.130448 -0.130448
0.0648458 -0.137093 -0.137093
0.0684602 -0.153172 -0.153172
0.0961842 -0.155488 -0.155488
0.0911028 -0.139413 -0.139413
0.0666562 -0.145024 -0.145024
0.0823027 -0.154238 -0.154238
0.0936477 -0.147342 -0.147342
0.0779548 -0.13816 -0.13816
0.0801325 -0.14609 -0.14609
0.0684602 -0.153172 -0.153172
0.0720485 -0.170119 -0.170119
0.101231 -0.172432 -0.172432
0.0961842 -0.155488 -0.155488
0.0702576 -0.161537 -0.161537
0.0866204 -0.171184 -0.171184
0.098712 -0.163852 -0.163852
0.0823027 -0.154238 -0.154238
0.0844653 -0.162602 -0.162602
0.0720485 -0.170119 -0.170119
0.0756105 -0.187928 -0.187928
0.106244 -0.19024 -0.19024
0.101231 -0.172432 -0.172432
0.0738328 -0.178916 -0.178916
0.0909079 -0.188993 -0.188993
0.103742 -0.181229 -0.181229
0.0866204 -0.171184 -0.171184
0.088768 -0.179981 -0.179981
0.0756105 -0.187928 -0.187928
0.079146 -0.206596 -0.206596
0.111222 -0.208906 -0.208906
0.106244 -0.19024 -0.19024
0.0773816 -0.197156 -0.197156
0.0951647 -0.20766 -0.20766
0.108737 -0.199466 -0.199466
0.0909079 -0.188993 -0.188993
0.0930401 -0.19822 -0.19822
0.079146 -0.206596 -0.206596
0.0826548 -0.226118 -0.226118
0.116165 -0.228426 -0.228426
0.111222 -0.208906 -0.208906
0.0809038 -0.216251 -0.216251
0.0993906 -0.227181 -0.227181
0.113698 -0.218559 -0.218559
0.0951647 -0.20766 -0.20766
0.0972815 -0.217314 -0.217314
0.0826548 -0.226118 -0.226118
0.0861364 -0.246487 -0.246487
0.121073 -0.248794 -0.248794
0.116165 -0.228426 -0.228426
0.084399 -0.236197 -0.236197
0.103585 -0.247551 -0.247551
0.118623 -0.238504 -0.238504
0.0993906 -0.227181 -0.227181
0.101492 -0.23726 -0.23726
0.0861364 -0.246487 -0.246487
0.0895908 -0.267701 -0.267701
0.125945 -0.270007 -0.270007
0.121073 -0.248794 -0.248794
0.0878671 -0.256989 -0.256989
0.107749 -0.268764 -0.268764
0.123514 -0.259296 -0.259296
0.103585 -0.247551 -0.247551
0.105671 -0.258053 -0.258053
0.0895908 -0.267701 -0.267701
0.0930177 -0.289753 -0.289753
0.130782 -0.292059 -0.292059
0.125945 -0.270007 -0.270007
0.0913077 -0.278622 -0.278622
0.111881 -0.290817 -0.290817
0.128368 -0.280928 -0.280928
0.107749 -0.268764 -0.268764
0.109819 -0.279686 -0.279686
0.0930177 -0.289753 -0.289753
0.0964168 -0.312638 -0.312638
0.135583 -0.314945 -0.314945
0.130782 -0.292059 -0.292059
0.0947208 -0.301092 -0.301092
0.115981 -0.313703 -0.313703
0.133187 -0.303398 -0.303398
0.111881 -0.290817 -0.290817
0.113935 -0.302156 -0.302156
0.0964168 -0.312638 -0.312638
0.099788 -0.336353 -0.336353
0.140347 -0.33866 -0.33866
0.135583 -0.314945 -0.314945
0.0981059 -0.324392 -0.324392
0.120048 -0.337419 -0.337419
0.13797 -0.326699 -0.326699
0.115981 -0.313703 -0.313703
0.118019 -0.325457 -0.325457
0.099788 -0.336353 -0.336353
0.103131 -0.360892 -0.360892
0.145076 -0.3632 -0.3632
0.140347 -0.33866 -0.33866
0.101463 -0.34852 -0.34852
0.124084 -0.361958 -0.361958
0.142716 -0.350827 -0.350827
0.120048 -0.337419 -0.337419
0.12207 -0.349586 -0.349586
0.103131 -0.360892 -0.360892
0.106445 -0.38625 -0.38625
0.149767 -0.388559 -0.388559
0.145076 -0.3632 -0.3632
0.104792 -0.373469 -0.373469
0.128087 -0.387317 -0.387317
0.147426 -0.375777 -0.375777
0.124084 -0.361958 -0.361958
0.12609 -0.374536 -0.374536
0.106445 -0.38625 -0.38625
0.109731 -0.412422 -0.412422
0.154422 -0.414733 -0.414733
0.149767 -0.388559 -0.388559
0.108092 -0.399235 -0.399235
0.132057 -0.413491 -0.413491
0.152099 -0.401544 -0.401544
0.128087 -0.387317 -0.387317
0.130076 -0.400303 -0.400303
0.109731 -0.412422 -0.412422
0.112988 -0.439404 -0.439404
0.15904 -0.441717 -0.441717
0.154422 -0.414733 -0.414733
0.111363 -0.425812 -0.425812
0.135995 -0.440474 -0.440474
0.156736 -0.428124 -0.428124
0.132057 -0.413491 -0.413491
0.13403 -0.426882 -0.426882
0.112988 -0.439404 -0.439404
0.116216 -0.467191 -0.467191
0.16362 -0.469505 -0.469505
0.15904 -0.441717 -0.441717
0.114606 -0.453197 -0.453197
0.139899 -0.468263 -0.468263
0.161335 -0.455511 -0.455511
0.135995 -0.440474 -0.440474
0.137951 -0.454268 -0.454268
0.116216 -0.467191 -0.467191
0.119415 -0.495777 -0.495777
0.168164 -0.498094 -0.498094
0.16362 -0.469505 -0.469505
0.117819 -0.481384 -0.481384
0.14377 -0.496851 -0.496851
0.165897 -0.4837 -0.4837
0.139899 -0.468263 -0.468263
0.141839 -0.482457 -0.482457
0.119415 -0.495777 -0.495777
0.122584 -0.525158 -0.525158
0.172669 -0.527478 -0.527478
0.168164 -0.498094 -0.498094
0.121003 -0.510368 -0.510368
0.147607 -0.526234 -0.526234
0.170421 -0.512687 -0.512687
0.14377 -0.496851 -0.496851
0.145693 -0.511443 -0.511443
0.122584 -0.525158 -0.525158
0.125724 -0.555329 -0.555329
0.177137 -0.557653 -0.557653
0.172669 -0.527478 -0.527478
0.124158 -0.540145 -0.540145
0.151411 -0.556407 -0.556407
0.174908 -0.542467 -0.542467
0.147607 -0.526234 -0.526234
0.149514 -0.541222 -0.541222
0.125724 -0.555329 -0.555329
0.128833 -0.586285 -0.586285
0.181566 -0.588613 -0.588613
0.177137 -0.557653 -0.557653
0.127282 -0.570709 -0.570709
0.155181 -0.587366 -0.587366
0.179356 -0.573035 -0.573035
0.151411 -0.556407 -0.556407
0.1533 -0.571789 -0.571789
0.128833 -0.586285 -0.586285
0.131913 -0.618022 -0.618022
0.185958 -0.620353 -0.620353
0.181566 -0.588613 -0.588613
0.130377 -0.602056 -0.602056
0.158917 -0.619105 -0.619105
0.183767 -0.604386 -0.604386
0.155181 -0.587366 -0.587366
0.157053 -0.603138 -0.603138
0.131913 -0.618022 -0.618022
0.134963 -0.650534 -0.650534
0.190311 -0.652869 -0.652869
0.185958 -0.620353 -0.620353
0.133442 -0.634181 -0.634181
0.162618 -0.651619 -0.651619
0.188139 -0.636515 -0.636515
0.158917 -0.619105 -0.619105
0.160772 -0.635265 -0.635265
0.134963 -0.650534 -0.650534
0.137982 -0.683817 -0.683817
0.194626 -0.686156 -0.686156
0.190311 -0.652869 -0.652869
0.136476 -0.667079 -0.667079
0.166285 -0.684905 -0.684905
0.192473 -0.669417 -0.669417
0.162618 -0.651619 -0.651619
0.164456 -0.668166 -0.668166
0.137982 -0.683817 -0.683817
0.140971 -0.717865 -0.717865
0.198902 -0.72021 -0.72021
0.194626 -0.686156 -0.686156
0.13948 -0.700745 -0.700745
0.169917 -0.718956 -0.718956
0.196769 -0.703088 -0.703088
0.166285 -0.684905 -0.684905
0.168105 -0.701835 -0.701835
0.140971 -0.717865 -0.717865
0.143929 -0.752674 -0.752674
0.203139 -0.755024 -0.755024
0.198902 -0.72021 -0.72021
0.142453 -0.735175 -0.735175
0.173515 -0.753768 -0.753768
0.201025 -0.737522 -0.737522
0.169917 -0.718956 -0.718956
0.17172 -0.736267 -0.736267
0.143929 -0.752674 -0.752674
0.146856 -0.788239 -0.788239
0.207337 -0.790594 -0.790594
0.203139 -0.755024 -0.755024
0.145396 -0.770362 -0.770362
0.177077 -0.789336 -0.789336
0.205243 -0.772715 -0.772715
0.173515 -0.753768 -0.753768
0.1753 -0.771458 -0.771458
0.146856 -0.788239 -0.788239
0.149752 -0.824555 -0.824555
0.211495 -0.826916 -0.826916
0.207337 -0.790594 -0.790594
0.148308 -0.806304 -0.806304
0.180605 -0.825656 -0.825656
0.209421 -0.808661 -0.808661
0.177077 -0.789336 -0.789336
0.178845 -0.807402 -0.807402
0.149752 -0.824555 -0.824555
0.152617 -0.861618 -0.861618
0.215615 -0.863984 -0.863984
0.211495 -0.826916 -0.826916
0.151188 -0.842993 -0.842993
0.184097 -0.862722 -0.862722
0.21356 -0.845357 -0.845357
0.180605 -0.825656 -0.825656
0.182355 -0.844096 -0.844096
0.152617 -0.861618 -0.861618
0.15545 -0.899421 -0.899421
0.219695 -0.901794 -0.901794
0.215615 -0.863984 -0.863984
0.154037 -0.880427 -0.880427
0.187554 -0.900529 -0.900529
0.21766 -0.882797 -0.882797
0.184097 -0.862722 -0.862722
0.18583 -0.881533 -0.881533
0.15545 -0.899421 -0.899421
0.158252 -0.937962 -0.937962
0.223735 -0.940341 -0.940341
0.219695 -0.901794 -0.901794
0.156855 -0.9186 -0.9186
0.190975 -0.939073 -0.939073
0.22172 -0.920976 -0.920976
0.187554 -0.900529 -0.900529
0.189269 -0.919709 -0.919709
0.158252 -0.937962 -0.937962
0.161023 -0.977234 -0.977234
0.227736 -0.979619 -0.979619
0.223735 -0.940341 -0.940341
0.159642 -0.957507 -0.957507
0.19436 -0.978349 -0.978349
0.22574 -0.959889 -0.959889
0.190975 -0.939073 -0.939073
0.192672 -0.95862 -0.95862
0.161023 -0.977234 -0.977234
0.163762 -1.01723 -1.01723
0.231696 -1.01962 -1.01962
0.227736 -0.979619 -0.979619
0.162396 -0.997143 -0.997143
0.19771 -1.01835 -1.01835
0.229721 -0.999531 -0.999531
0.19436 -0.978349 -0.978349
0.19604 -0.998259 -0.998259
0.163762 -1.01723 -1.01723
0.166469 -1.05795 -1.05795
0.235617 -1.06035 -1.06035
0.231696 -1.01962 -1.01962
0.165119 -1.0375 -1.0375
0.201024 -1.05908 -1.05908
0.233662 -1.0399 -1.0399
0.19771 -1.01835 -1.01835
0.199372 -1.03862 -1.03862
0.166469 -1.05795 -1.05795
0.169144 -1.09939 -1.09939
0.239498 -1.1018 -1.1018
0.235617 -1.06035 -1.06035
0.16781 -1.07858 -1.07858
0.204302 -1.10052 -1.10052
0.237562 -1.08099 -1.08099
0.201024 -1.05908 -1.05908
0.202667 -1.07971 -1.07971
0.169144 -1.09939 -1.09939
0.171787 -1.14154 -1.14154
0.243338 -1.14395 -1.14395
0.239498 -1.1018 -1.1018
0.170469 -1.12038 -1.12038
0.207543 -1.14267 -1.14267
0.241423 -1.12279 -1.12279
0.204302 -1.10052 -1.10052
0.205927 -1.12151 -1.12151
0.171787 -1.14154 -1.14154
0.174397 -1.1844 -1.1844
0.247138 -1.18682 -1.18682
0.243338 -1.14395 -1.14395
0.173096 -1.16288 -1.16288
0.210749 -1.18553 -1.18553
0.245243 -1.1653 -1.1653
0.207543 -1.14267 -1.14267
0.209151 -1.16401 -1.16401
0.174397 -1.1844 -1.1844
0.176976 -1.22796 -1.22796
0.250897 -1.23039 -1.23039
0.247138 -1.18682 -1.18682
0.17569 -1.20609 -1.20609
0.213917 -1.2291 -1.2291
0.249022 -1.20852 -1.20852
0.210749 -1.18553 -1.18553
0.212338 -1.20723 -1.20723
0.176976 -1.22796 -1.22796
0.179521 -1.27222 -1.27222
0.254616 -1.27465 -1.27465
0.250897 -1.23039 -1.23039
0.178253 -1.25 -1.25
0.21705 -1.27336 -1.27336
0.252761 -1.25243 -1.25243
0.213917 -1.2291 -1.2291
0.215488 -1.25114 -1.25114
0.179521 -1.27222 -1.27222
0.182035 -1.31717 -1.31717
0.258293 -1.31961 -1.31961
0.254616 -1.27465 -1.27465
0.180782 -1.2946 -1.2946
0.220145 -1.31831 -1.31831
0.25646 -1.29704 -1.29704
0.21705 -1.27336 -1.27336
0.218602 -1.29575 -1.29575
0.182035 -1.31717 -1.31717
0.184515 -1.3628 -1.3628
0.261931 -1.36526 -1.36526
0.258293 -1.31961 -1.31961
0.183279 -1.3399 -1.3399
0.223204 -1.36396 -1.36396
0.260117 -1.34235 -1.34235
0.220145 -1.31831 -1.31831
0.221679 -1.34105 -1.34105
0.184515 -1.3628 -1.3628
0.186963 -1.40912 -1.40912
0.265527 -1.41159 -1.41159
0.261931 -1.36526 -1.36526
0.185743 -1.38588 -1.38588
0.226226 -1.41028 -1.41028
0.263734 -1.38834 -1.38834
0.223204 -1.36396 -1.36396
0.22472 -1.38703 -1.38703
0.186963 -1.40912 -1.40912
0.189378 -1.45612 -1.45612
0.269082 -1.45859 -1.45859
0.265527 -1.41159 -1.41159
0.188175 -1.43254 -1.43254
0.229211 -1.45729 -1.45729
0.267309 -1.43501 -1.43501
0.226226 -1.41028 -1.41028
0.227723 -1.4337 -1.4337
0.189378 -1.45612 -1.45612
0.19176 -1.5038 -1.5038
0.272596 -1.50627 -1.50627
0.269082 -1.45859 -1.45859
0.190573 -1.47988 -1.47988
0.232159 -1.50496 -1.50496
0.270844 -1.48235 -1.48235
0.229211 -1.45729 -1.45729
0.23069 -1.48104 -1.48104
0.19176 -1.5038 -1.5038
0.194109 -1.55214 -1.55214
0.276069 -1.55462 -1.55462
0.272596 -1.50627 -1.50627
0.192939 -1.52788 -1.52788
0.23507 -1.55331 -1.55331
0.274338 -1.53037 -1.53037
0.232159 -1.50496 -1.50496
0.23362 -1.52905 -1.52905
0.194109 -1.55214 -1.55214
0.196425 -1.60114 -1.60114
0.2795 -1.60364 -1.60364
0.276069 -1.55462 -1.55462
0.195271 -1.57656 -1.57656
0.237944 -1.60232 -1.60232
0.27779 -1.57905 -1.57905
0.23507 -1.55331 -1.55331
0.236512 -1.57773 -1.57773
0.196425 -1.60114 -1.60114
0.198708 -1.6508 -1.6508
0.282891 -1.65331 -1.65331
0.2795 -1.60364 -1.60364
0.197571 -1.62589 -1.62589
0.240781 -1.65199 -1.65199
0.281201 -1.62839 -1.62839
0.237944 -1.60232 -1.60232
0.239367 -1.62707 -1.62707
0.198708 -1.6508 -1.6508
0.200958 -1.70112 -1.70112
0.286239 -1.70364 -1.70364
0.282891 -1.65331 -1.65331
0.199837 -1.67588 -1.67588
0.24358 -1.70231 -1.70231
0.28457 -1.67839 -1.67839
0.240781 -1.65199 -1.65199
0.242185 -1.67707 -1.67707
0.200958 -1.70112 -1.70112
0.203174 -1.75209 -1.75209
0.289547 -1.75461 -1.75461
0.286239 -1.70364 -1.70364
0.20207 -1.72652 -1.72652
0.246341 -1.75328 -1.75328
0.287898 -1.72904 -1.72904
0.24358 -1.70231 -1.70231
0.244965 -1.72771 -1.72771
0.203174 -1.75209 -1.75209
0.205356 -1.8037 -1.8037
0.292812 -1.80623 -1.80623
0.289547 -1.75461 -1.75461
0.204269 -1.77781 -1.77781
0.249066 -1.80489 -1.80489
0.291185 -1.78034 -1.78034
0.246341 -1.75328 -1.75328
0.247708 -1.77901 -1.77901
0.205356 -1.8037 -1.8037
0.207506 -1.85595 -1.85595
0.296036 -1.85849 -1.85849
0.292812 -1.80623 -1.80623
0.206435 -1.82974 -1.82974
0.251752 -1.85715 -1.85715
0.294429 -1.83228 -1.83228
0.249066 -1.80489 -1.80489
0.250414 -1.83094 -1.83094
0.207506 -1.85595 -1.85595
0.209622 -1.90883 -1.90883
0.299219 -1.91138 -1.91138
0.296036 -1.85849 -1.85849
0.208568 -1.88231 -1.88231
0.254401 -1.91004 -1.91004
0.297633 -1.88486 -1.88486
0.251752 -1.85715 -1.85715
0.253082 -1.88352 -1.88352
0.209622 -1.90883 -1.90883
0.211704 -1.96234 -1.96234
0.302359 -1.96491 -1.96491
0.299219 -1.91138 -1.91138
0.210667 -1.93551 -1.93551
0.257013 -1.96356 -1.96356
0.300794 -1.93807 -1.93807
0.254401 -1.91004 -1.91004
0.255712 -1.93672 -1.93672
0.211704 -1.96234 -1.96234
0.213752 -2.01648 -2.01648
0.305458 -2.01905 -2.01905
0.302359 -1.96491 -1.96491
0.212732 -1.98933 -1.98933
0.259586 -2.0177 -2.0177
0.303914 -1.9919 -1.9919
0.257013 -1.96356 -1.96356
0.258304 -1.99055 -1.99055
0.213752 -2.01648 -2.01648
0.215767 -2.07124 -2.07124
0.308515 -2.07382 -2.07382
0.305458 -2.01905 -2.01905
0.214764 -2.04378 -2.04378
0.262122 -2.07246 -2.07246
0.306992 -2.04636 -2.04636
0.259586 -2.0177 -2.0177
0.260859 -2.045 -2.045
0.215767 -2.07124 -2.07124
0.217748 -2.12661 -2.12661
0.31153 -2.1292 -2.1292
0.308515 -2.07382 -2.07382
0.216762 -2.09885 -2.09885
0.26462 -2.12784 -2.12784
0.310027 -2.10144 -2.10144
0.262122 -2.07246 -2.07246
0.263376 -2.10008 -2.10008
0.217748 -2.12661 -2.12661
0.219696 -2.18259 -2.18259
0.314503 -2.1852 -2.1852
0.31153 -2.1292 -2.1292
0.218726 -2.15453 -2.15453
0.26708 -2.18383 -2.18383
0.313022 -2.15712 -2.15712
0.26462 -2.12784 -2.12784
0.265855 -2.15576 -2.15576
0.219696 -2.18259 -2.18259
0.221609 -2.23918 -2.23918
0.317434 -2.2418 -2.2418
0.314503 -2.1852 -2.1852
0.220656 -2.21081 -2.21081
0.269503 -2.24042 -2.24042
0.315974 -2.21342 -2.21342
0.26708 -2.18383 -2.18383
0.268296 -2.21205 -2.21205
0.221609 -2.23918 -2.23918
0.223489 -2.29637 -2.29637
0.320323 -2.29899 -2.29899
0.317434 -2.2418 -2.2418
0.222553 -2.2677 -2.2677
0.271887 -2.29762 -2.29762
0.318884 -2.27032 -2.27032
0.269503 -2.24042 -2.24042
0.2707 -2.26895 -2.26895
0.223489 -2.29637 -2.29637
0.225335 -2.35415 -2.35415
0.32317 -2.35679 -2.35679
0.320323 -2.29899 -2.29899
0.224416 -2.32519 -2.32519
0.274234 -2.35541 -2.35541
0.321752 -2.32782 -2.32782
0.271887 -2.29762 -2.29762
0.273065 -2.32644 -2.32644
0.225335 -2.35415 -2.35415
0.227146 -2.41253 -2.41253
0.325975 -2.41517 -2.41517
0.32317 -2.35679 -2.35679
0.226245 -2.38327 -2.38327
0.276542 -2.41379 -2.41379
0.324578 -2.38591 -2.38591
0.274234 -2.35541 -2.35541
0.275392 -2.38452 -2.38452
0.227146 -2.41253 -2.41253
0.228924 -2.47149 -2.47149
0.328738 -2.47414 -2.47414
0.325975 -2.41517 -2.41517
0.22804 -2.44193 -2.44193
0.278812 -2.47275 -2.47275
0.327361 -2.44459 -2.44459
0.276542 -2.41379 -2.41379
0.277682 -2.4432 -2.4432
0.228924 -2.47149 -2.47149
0.230668 -2.53103 -2.53103
0.331458 -2.53369 -2.53369
0.328738 -2.47414 -2.47414
0.229801 -2.50119 -2.50119
0.281045 -2.5323 -2.5323
0.330103 -2.50385 -2.50385
0.278812 -2.47275 -2.47275
0.279933 -2.50245 -2.50245
0.230668 -2.53103 -2.53103
0.232378 -2.59115 -2.59115
0.334137 -2.59382 -2.59382
0.331458 -2.53369 -2.53369
0.231528 -2.56102 -2.56102
0.283239 -2.59242 -2.59242
0.332803 -2.56369 -2.56369
0.281045 -2.5323 -2.5323
0.282147 -2.56229 -2.56229
0.232378 -2.59115 -2.59115
0.234054 -2.65183 -2.65183
0.336773 -2.65452 -2.65452
0.334137 -2.59382 -2.59382
0.233221 -2.62142 -2.62142
0.285395 -2.65312 -2.65312
0.33546 -2.6241 -2.6241
0.283239 -2.59242 -2.59242
0.284322 -2.6227 -2.6227
0.234054 -2.65183 -2.65183
0.235696 -2.71309 -2.71309
0.339367 -2.71579 -2.71579
0.336773 -2.65452 -2.65452
0.23488 -2.68239 -2.68239
0.287513 -2.71438 -2.71438
0.338075 -2.68508 -2.68508
0.285395 -2.65312 -2.65312
0.286459 -2.68368 -2.68368
0.235696 -2.71309 -2.71309
0.237304 -2.77491 -2.77491
0.341919 -2.77761 -2.77761
0.339367 -2.71579 -2.71579
0.236505 -2.74393 -2.74393
0.289593 -2.7762 -2.7762
0.340649 -2.74663 -2.74663
0.287513 -2.71438 -2.71438
0.288558 -2.74522 -2.74522
0.237304 -2.77491 -2.77491
0.238878 -2.83728 -2.83728
0.344429 -2.84 -2.84
0.341919 -2.77761 -2.77761
0.238096 -2.80602 -2.80602
0.291635 -2.83858 -2.83858
0.343179 -2.80874 -2.80874
0.289593 -2.7762 -2.7762
0.290619 -2.80732 -2.80732
0.238878 -2.83728 -2.83728
0.240418 -2.9002 -2.9002
0.346897 -2.90293 -2.90293
0.344429 -2.84 -2.84
0.239653 -2.86867 -2.86867
0.293639 -2.90151 -2.90151
0.345668 -2.8714 -2.8714
0.291635 -2.83858 -2.83858
0.292642 -2.86998 -2.86998
0.240418 -2.9002 -2.9002
0.241924 -2.96368 -2.96368
0.349322 -2.96641 -2.96641
0.346897 -2.90293 -2.90293
0.241176 -2.93187 -2.93187
0.295605 -2.96499 -2.96499
0.348115 -2.93461 -2.93461
0.293639 -2.90151 -2.90151
0.294627 -2.93318 -2.93318
0.241924 -2.96368 -2.96368
0.243396 -3.02769 -3.02769
0.351705 -3.03044 -3.03044
0.349322 -2.96641 -2.96641
0.242665 -2.99561 -2.99561
0.297532 -3.02901 -3.02901
0.350519 -2.99836 -2.99836
0.295605 -2.96499 -2.96499
0.296573 -2.99693 -2.99693
0.243396 -3.02769 -3.02769
0.244834 -3.09224 -3.09224
0.354046 -3.095 -3.095
0.351705 -3.03044 -3.03044
0.24412 -3.0599 -3.0599
0.299422 -3.09356 -3.09356
0.352881 -3.06265 -3.06265
0.297532 -3.02901 -3.02901
0.298482 -3.06122 -3.06122
0.244834 -3.09224 -3.09224
0.246238 -3.15732 -3.15732
0.356345 -3.16009 -3.16009
0.354046 -3.095 -3.095
0.245541 -3.12472 -3.12472
0.301273 -3.15865 -3.15865
0.355201 -3.12748 -3.12748
0.299422 -3.09356 -3.09356
0.300352 -3.12604 -3.12604
0.246238 -3.15732 -3.15732
0.247608 -3.22293 -3.22293
0.358602 -3.22572 -3.22572
0.356345 -3.16009 -3.16009
0.246927 -3.19006 -3.19006
0.303087 -3.22427 -3.22427
0.357479 -3.19284 -3.19284
0.301273 -3.15865 -3.15865
0.302185 -3.19139 -3.19139
0.247608 -3.22293 -3.22293
0.248944 -3.28907 -3.28907
0.360817 -3.29186 -3.29186
0.358602 -3.22572 -3.22572
0.24828 -3.25594 -3.25594
0.304862 -3.29041 -3.29041
0.359715 -3.25872 -3.25872
0.303087 -3.22427 -3.22427
0.303979 -3.25727 -3.25727
0.248944 -3.28907 -3.28907
0.250246 -3.35572 -3.35572
0.362989 -3.35852 -3.35852
0.360817 -3.29186 -3.29186
0.2496 -3.32233 -3.32233
0.306599 -3.35706 -3.35706
0.361908 -3.32513 -3.32513
0.304862 -3.29041 -3.29041
0.305735 -3.32367 -3.32367
0.250246 -3.35572 -3.35572
0.251514 -3.42288 -3.42288
0.36512 -3.4257 -3.4257
0.362989 -3.35852 -3.35852
0.250885 -3.38924 -3.38924
0.308298 -3.42423 -3.42423
0.36406 -3.39204 -3.39204
0.306599 -3.35706 -3.35706
0.307454 -3.39059 -3.39059
0.251514 -3.42288 -3.42288
0.252749 -3.49056 -3.49056
0.367208 -3.49338 -3.49338
0.36512 -3.4257 -3.4257
0.252136 -3.45666 -3.45666
0.30996 -3.49191 -3.49191
0.366169 -3.45947 -3.45947
0.308298 -3.42423 -3.42423
0.309134 -3.45801 -3.45801
0.252749 -3.49056 -3.49056
0.253949 -3.55873 -3.55873
0.369254 -3.56156 -3.56156
0.367208 -3.49338 -3.49338
0.253353 -3.52458 -3.52458
0.311583 -3.56009 -3.56009
0.368236 -3.52741 -3.52741
0.30996 -3.49191 -3.49191
0.310776 -3.52594 -3.52594
0.253949 -3.55873 -3.55873
0.255116 -3.6274 -3.6274
0.371259 -3.63025 -3.63025
0.369254 -3.56156 -3.56156
0.254537 -3.59301 -3.59301
0.313168 -3.62877 -3.62877
0.370262 -3.59584 -3.59584
0.311583 -3.56009 -3.56009
0.31238 -3.59437 -3.59437
0.255116 -3.6274 -3.6274
0.256248 -3.69657 -3.69657
0.373221 -3.69943 -3.69943
0.371259 -3.63025 -3.63025
0.255686 -3.66193 -3.66193
0.314716 -3.69795 -3.69795
0.372245 -3.66478 -3.66478
0.313168 -3.62877 -3.62877
0.313947 -3.6633 -3.6633
0.256248 -3.69657 -3.69657
0.257347 -3.76623 -3.76623
0.375141 -3.76909 -3.76909
0.373221 -3.69943 -3.69943
0.256802 -3.73134 -3.73134
0.316226 -3.76761 -3.76761
0.374186 -3.7342 -3.7342
0.314716 -3.69795 -3.69795
0.315475 -3.73272 -3.73272
0.257347 -3.76623 -3.76623
0.258412 -3.83637 -3.83637
0.37702 -3.83924 -3.83924
0.375141 -3.76909 -3.76909
0.257884 -3.80124 -3.80124
0.317697 -3.83775 -3.83775
0.376086 -3.80411 -3.80411
0.316226 -3.76761 -3.76761
0.316966 -3.80262 -3.80262
0.258412 -3.83637 -3.83637
0.259444 -3.90699 -3.90699
0.378856 -3.90987 -3.90987
0.37702 -3.83924 -3.83924
0.258932 -3.87162 -3.87162
0.319131 -3.90838 -3.90838
0.377943 -3.8745 -3.8745
0.317697 -3.83775 -3.83775
0.318419 -3.87301 -3.87301
0.259444 -3.90699 -3.90699
0.260442 -3.97808 -3.97808
0.380651 -3.98097 -3.98097
0.378856 -3.90987 -3.90987
0.259947 -3.94247 -3.94247
0.320528 -3.97948 -3.97948
0.379759 -3.94536 -3.94536
0.319131 -3.90838 -3.90838
0.319834 -3.94387 -3.94387
0.260442 -3.97808 -3.97808
0.261406 -4.04964 -4.04964
0.382404 -4.05254 -4.05254
0.380651 -3.98097 -3.98097
0.260928 -4.0138 -4.0138
0.321886 -4.05104 -4.05104
0.381533 -4.0167 -4.0167
0.320528 -3.97948 -3.97948
0.321212 -4.0152 -4.0152
0.261406 -4.04964 -4.04964
0.262337 -4.12167 -4.12167
0.384115 -4.12458 -4.12458
0.382404 -4.05254 -4.05254
0.261876 -4.0856 -4.0856
0.323207 -4.12308 -4.12308
0.383265 -4.08851 -4.08851
0.321886 -4.05104 -4.05104
0.322552 -4.087 -4.087
0.262337 -4.12167 -4.12167
0.263234 -4.19415 -4.19415
0.385785 -4.19708 -4.19708
0.384115 -4.12458 -4.12458
0.26279 -4.15785 -4.15785
0.324491 -4.19557 -4.19557
0.384955 -4.16077 -4.16077
0.323207 -4.12308 -4.12308
0.323854 -4.15926 -4.15926
0.263234 -4.19415 -4.19415
0.264098 -4.2671 -4.2671
0.387413 -4.27003 -4.27003
0.385785 -4.19708 -4.19708
0.26367 -4.23057 -4.23057
0.325737 -4.26851 -4.26851
0.386604 -4.2335 -4.2335
0.324491 -4.19557 -4.19557
0.325119 -4.23198 -4.23198
0.264098 -4.2671 -4.2671
0.264929 -4.34049 -4.34049
0.389 -4.34343 -4.34343
0.387413 -4.27003 -4.27003
0.264517 -4.30373 -4.30373
0.326945 -4.34191 -4.34191
0.388212 -4.30667 -4.30667
0.325737 -4.26851 -4.26851
0.326346 -4.30515 -4.30515
0.264929 -4.34049 -4.34049
0.265726 -4.41432 -4.41432
0.390545 -4.41727 -4.41727
0.389 -4.34343 -4.34343
0.265331 -4.37735 -4.37735
0.328116 -4.41575 -4.41575
0.389777 -4.38029 -4.38029
0.326945 -4.34191 -4.34191
0.327536 -4.37877 -4.37877
0.265726 -4.41432 -4.41432
0.26649 -4.4886 -4.4886
0.392048 -4.49156 -4.49156
0.390545 -4.41727 -4.41727
0.266112 -4.4514 -4.4514
0.32925 -4.49003 -4.49003
0.391302 -4.45436 -4.45436
0.328116 -4.41575 -4.41575
0.328688 -4.45283 -4.45283
0.26649 -4.4886 -4.4886
0.26722 -4.56331 -4.56331
0.39351 -4.56628 -4.56628
0.392048 -4.49156 -4.49156
0.266859 -4.5259 -4.5259
0.330347 -4.56475 -4.56475
0.392784 -4.52886 -4.52886
0.32925 -4.49003 -4.49003
0.329803 -4.52733 -4.52733
0.26722 -4.56331 -4.56331
0.267918 -4.63845 -4.63845
0.394931 -4.64143 -4.64143
0.39351 -4.56628 -4.56628
0.267573 -4.60082 -4.60082
0.331406 -4.63989 -4.63989
0.394226 -4.6038 -4.6038
0.330347 -4.56475 -4.56475
0.330881 -4.60226 -4.60226
0.267918 -4.63845 -4.63845
0.268582 -4.71402 -4.71402
0.396311 -4.717 -4.717
0.394931 -4.64143 -4.64143
0.268254 -4.67618 -4.67618
0.332428 -4.71546 -4.71546
0.395626 -4.67916 -4.67916
0.331406 -4.63989 -4.63989
0.331922 -4.67762 -4.67762
0.268582 -4.71402 -4.71402
0.269214 -4.79 -4.79
0.39765 -4.793 -4.793
0.396311 -4.717 -4.717
0.268902 -4.75196 -4.75196
0.333413 -4.79146 -4.79146
0.396986 -4.75495 -4.75495
0.332428 -4.71546 -4.71546
0.332925 -4.75341 -4.75341
0.269214 -4.79 -4.79
0.269813 -4.86641 -4.86641
0.398947 -4.86941 -4.86941
0.39765 -4.793 -4.793
0.269517 -4.82815 -4.82815
0.334361 -4.86786 -4.86786
0.398304 -4.83115 -4.83115
0.333413 -4.79146 -4.79146
0.333892 -4.82961 -4.82961
0.269813 -4.86641 -4.86641
0.270378 -4.94322 -4.94322
0.400204 -4.94623 -4.94623
0.398947 -4.86941 -4.86941
0.2701 -4.90476 -4.90476
0.335272 -4.94468 -4.94468
0.399581 -4.90777 -4.90777
0.334361 -4.86786 -4.86786
0.334821 -4.90622 -4.90622
0.270378 -4.94322 -4.94322
0.270912 -5.02044 -5.02044
0.401419 -5.02346 -5.02346
0.400204 -4.94623 -4.94623
0.270649 -4.98178 -4.98178
0.336147 -5.02191 -5.02191
0.400817 -4.9848 -4.9848
0.335272 -4.94468 -4.94468
0.335714 -4.98324 -4.98324
0.270912 -5.02044 -5.02044
0.271412 -5.09806 -5.09806
0.402594 -5.10109 -5.10109
0.401419 -5.02346 -5.02346
0.271166 -5.0592 -5.0592
0.336984 -5.09953 -5.09953
0.402012 -5.06223 -5.06223
0.336147 -5.02191 -5.02191
0.33657 -5.06067 -5.06067
0.271412 -5.09806 -5.09806
0.27188 -5.17608 -5.17608
0.403728 -5.17912 -5.17912
0.402594 -5.10109 -5.10109
0.27165 -5.13702 -5.13702
0.337785 -5.17756 -5.17756
0.403166 -5.14006 -5.14006
0.336984 -5.09953 -5.09953
0.337389 -5.1385 -5.1385
0.27188 -5.17608 -5.17608
0.272315 -5.25449 -5.25449
0.404822 -5.25754 -5.25754
0.403728 -5.17912 -5.17912
0.272102 -5.21524 -5.21524
0.33855 -5.25597 -5.25597
0.40428 -5.21828 -5.21828
0.337785 -5.17756 -5.17756
0.338172 -5.21672 -5.21672
0.272315 -5.25449 -5.25449
0.272718 -5.33329 -5.33329
0.405874 -5.33634 -5.33634
0.404822 -5.25754 -5.25754
0.272521 -5.29384 -5.29384
0.339277 -5.33477 -5.33477
0.405353 -5.29689 -5.29689
0.33855 -5.25597 -5.25597
0.338918 -5.29532 -5.29532
0.272718 -5.33329 -5.33329
0.273089 -5.41247 -5.41247
0.406887 -5.41553 -5.41553
0.405874 -5.33634 -5.33634
0.272908 -5.37283 -5.37283
0.339969 -5.41395 -5.41395
0.406386 -5.37589 -5.37589
0.339277 -5.33477 -5.33477
0.339628 -5.37432 -5.37432
0.273089 -5.41247 -5.41247
0.273427 -5.49202 -5.49202
0.407859 -5.49509 -5.49509
0.406887 -5.41553 -5.41553
0.273262 -5.4522 -5.4522
0.340624 -5.49351 -5.49351
0.407378 -5.45526 -5.45526
0.339969 -5.41395 -5.41395
0.340301 -5.45369 -5.45369
0.273427 -5.49202 -5.49202
0.273734 -5.57195 -5.57195
0.40879 -5.57502 -5.57502
0.407859 -5.49509 -5.49509
0.273585 -5.53194 -5.53194
0.341243 -5.57345 -5.57345
0.40833 -5.53501 -5.53501
0.340624 -5.49351 -5.49351
0.340938 -5.53343 -5.53343
0.273734 -5.57195 -5.57195
0.274008 -5.65224 -5.65224
0.409682 -5.65533 -5.65533
0.40879 -5.57502 -5.57502
0.273875 -5.61205 -5.61205
0.341826 -5.65375 -5.65375
0.409241 -5.61513 -5.61513
0.341243 -5.57345 -5.57345
0.341539 -5.61355 -5.61355
0.274008 -5.65224 -5.65224
0.274251 -5.7329 -5.7329
0.410533 -5.73599 -5.73599
0.409682 -5.65533 -5.65533
0.274133 -5.69253 -5.69253
0.342373 -5.73441 -5.73441
0.410113 -5.69561 -5.69561
0.341826 -5.65375 -5.65375
0.342104 -5.69403 -5.69403
0.274251 -5.7329 -5.7329
0.274461 -5.81392 -5.81392
0.411345 -5.81701 -5.81701
0.410533 -5.73599 -5.73599
0.27436 -5.77336 -5.77336
0.342884 -5.81543 -5.81543
0.410944 -5.77646 -5.77646
0.342373 -5.73441 -5.73441
0.342633 -5.77487 -5.77487
0.274461 -5.81392 -5.81392
0.27464 -5.89528 -5.89528
0.412116 -5.89839 -5.89839
0.411345 -5.81701 -5.81701
0.274555 -5.85456 -5.85456
0.343359 -5.8968 -5.8968
0.411736 -5.85766 -5.85766
0.342884 -5.81543 -5.81543
0.343126 -5.85607 -5.85607
0.27464 -5.89528 -5.89528
0.274787 -5.977 -5.977
0.412848 -5.98011 -5.98011
0.412116 -5.89839 -5.89839
0.274718 -5.9361 -5.9361
0.343799 -5.97852 -5.97852
0.412487 -5.9392 -5.9392
0.343359 -5.8968 -5.8968
0.343584 -5.93761 -5.93761
0.274787 -5.977 -5.977
0.274903 -6.05906 -6.05906
0.41354 -6.06217 -6.06217
0.412848 -5.98011 -5.98011
0.274849 -6.01799 -6.01799
0.344203 -6.06058 -6.06058
0.413199 -6.0211 -6.0211
0.343799 -5.97852 -5.97852
0.344005 -6.01951 -6.01951
0.274903 -6.05906 -6.05906
0.274988 -6.14146 -6.14146
0.414193 -6.14458 -6.14458
0.41354 -6.06217 -6.06217
0.274949 -6.10022 -6.10022
0.344571 -6.14298 -6.14298
0.413872 -6.10333 -6.10333
0.344203 -6.06058 -6.06058
0.344392 -6.10174 -6.10174
0.274988 -6.14146 -6.14146
0.275041 -6.22419 -6.22419
0.414806 -6.22731 -6.22731
0.414193 -6.14458 -6.14458
0.275018 -6.18278 -6.18278
0.344905 -6.22571 -6.22571
0.414504 -6.1859 -6.1859
0.344571 -6.14298 -6.14298
0.344742 -6.18431 -6.18431
0.275041 -6.22419 -6.22419
0.275063 -6.30725 -6.30725
0.41538 -6.31038 -6.31038
0.414806 -6.22731 -6.22731
0.275056 -6.26568 -6.26568
0.345203 -6.30878 -6.30878
0.415098 -6.2688 -6.2688
0.344905 -6.22571 -6.22571
0.345058 -6.2672 -6.2672
0.275063 -6.30725 -6.30725
0.275054 -6.39063 -6.39063
0.415915 -6.39377 -6.39377
0.41538 -6.31038 -6.31038
0.275062 -6.3489 -6.3489
0.345465 -6.39216 -6.39216
0.415652 -6.35203 -6.35203
0.345203 -6.30878 -6.30878
0.345338 -6.35043 -6.35043
0.275054 -6.39063 -6.39063
0.275014 -6.47433 -6.47433
0.41641 -6.47747 -6.47747
0.415915 -6.39377 -6.39377
0.275038 -6.43244 -6.43244
0.345693 -6.47587 -6.47587
0.416167 -6.43558 -6.43558
0.345465 -6.39216 -6.39216
0.345584 -6.43398 -6.43398
0.275014 -6.47433 -6.47433
0.274943 -6.55835 -6.55835
0.416867 -6.56149 -6.56149
0.41641 -6.47747 -6.47747
0.274983 -6.5163 -6.5163
0.345886 -6.55989 -6.55989
0.416643 -6.51944 -6.51944
0.345693 -6.47587 -6.47587
0.345794 -6.51784 -6.51784
0.274943 -6.55835 -6.55835
0.274842 -6.64267 -6.64267
0.417284 -6.64582 -6.64582
0.416867 -6.56149 -6.56149
0.274896 -6.60047 -6.60047
0.346044 -6.64421 -6.64421
0.41708 -6.60362 -6.60362
0.345886 -6.55989 -6.55989
0.345969 -6.60201 -6.60201
0.274842 -6.64267 -6.64267
0.27471 -6.7273 -6.7273
0.417663 -6.73046 -6.73046
0.417284 -6.64582 -6.64582
0.27478 -6.68495 -6.68495
0.346168 -6.72885 -6.72885
0.417479 -6.6881 -6.6881
0.346044 -6.64421 -6.64421
0.34611 -6.68649 -6.68649
0.27471 -6.7273 -6.7273
0.274548 -6.81223 -6.81223
0.418004 -6.81539 -6.81539
0.417663 -6.73046 -6.73046
0.274633 -6.76973 -6.76973
0.346257 -6.81378 -6.81378
0.417838 -6.77289 -6.77289
0.346168 -6.72885 -6.72885
0.346216 -6.77127 -6.77127
0.274548 -6.81223 -6.81223
0.274355 -6.89745 -6.89745
0.418306 -6.90062 -6.90062
0.418004 -6.81539 -6.81539
0.274455 -6.8548 -6.8548
0.346311 -6.899 -6.899
0.41816 -6.85797 -6.85797
0.346257 -6.81378 -6.81378
0.346288 -6.85635 -6.85635
0.274355 -6.89745 -6.89745
0.274132 -6.98297 -6.98297
0.418569 -6.98613 -6.98613
0.418306 -6.90062 -6.90062
0.274247 -6.94017 -6.94017
0.346332 -6.98452 -6.98452
0.418442 -6.94334 -6.94334
0.346311 -6.899 -6.899
0.346326 -6.94172 -6.94172
0.274132 -6.98297 -6.98297
0.273879 -7.06876 -7.06876
0.418795 -7.07194 -7.07194
0.418569 -6.98613 -6.98613
0.274009 -7.02583 -7.02583
0.346318 -7.07032 -7.07032
0.418687 -7.029 -7.029
0.346332 -6.98452 -6.98452
0.346329 -7.02738 -7.02738
0.273879 -7.06876 -7.06876
0.273596 -7.15484 -7.15484
0.418982 -7.15802 -7.15802
0.418795 -7.07194 -7.07194
0.273741 -7.11177 -7.11177
0.34627 -7.1564 -7.1564
0.418893 -7.11494 -7.11494
0.346318 -7.07032 -7.07032
0.346298 -7.11332 -7.11332
0.273596 -7.15484 -7.15484
0.273284 -7.24119 -7.24119
0.419131 -7.24437 -7.24437
0.418982 -7.15802 -7.15802
0.273444 -7.19798 -7.19798
0.346188 -7.24275 -7.24275
0.419061 -7.20116 -7.20116
0.34627 -7.1564 -7.1564
0.346234 -7.19954 -7.19954
0.273284 -7.24119 -7.24119
0.272942 -7.32782 -7.32782
0.419243 -7.331 -7.331
0.419131 -7.24437 -7.24437
0.273116 -7.28447 -7.28447
0.346073 -7.32938 -7.32938
0.419192 -7.28765 -7.28765
0.346188 -7.24275 -7.24275
0.346135 -7.28603 -7.28603
0.272942 -7.32782 -7.32782
0.27257 -7.41471 -7.41471
0.419317 -7.41789 -7.41789
0.419243 -7.331 -7.331
0.272759 -7.37123 -7.37123
0.345924 -7.41627 -7.41627
0.419285 -7.37441 -7.37441
0.346073 -7.32938 -7.32938
0.346003 -7.37279 -7.37279
0.27257 -7.41471 -7.41471
0.272169 -7.50186 -7.50186
0.419353 -7.50504 -7.50504
0.419317 -7.41789 -7.41789
0.272373 -7.45825 -7.45825
0.345742 -7.50342 -7.50342
0.41934 -7.46144 -7.46144
0.345924 -7.41627 -7.41627
0.345837 -7.45981 -7.45981
0.272169 -7.50186 -7.50186
0.271738 -7.58926 -7.58926
0.419352 -7.59245 -7.59245
0.419353 -7.50504 -7.50504
0.271957 -7.54553 -7.54553
0.345526 -7.59083 -7.59083
0.419357 -7.54872 -7.54872
0.345742 -7.50342 -7.50342
0.345638 -7.54709 -7.54709
0.271738 -7.58926 -7.58926
0.271279 -7.67692 -7.67692
0.419314 -7.68011 -7.68011
0.419352 -7.59245 -7.59245
0.271512 -7.63306 -7.63306
0.345277 -7.67849 -7.67849
0.419338 -7.63625 -7.63625
0.345526 -7.59083 -7.59083
0.345406 -7.63463 -7.63463
0.271279 -7.67692 -7.67692
0.270791 -7.76482 -7.76482
0.419238 -7.76802 -7.76802
0.419314 -7.68011 -7.68011
0.271038 -7.72084 -7.72084
0.344995 -7.76639 -7.76639
0.419281 -7.72403 -7.72403
0.345277 -7.67849 -7.67849
0.34514 -7.72241 -7.72241
0.270791 -7.76482 -7.76482
0.270273 -7.85297 -7.85297
0.419126 -7.85616 -7.85616
0.419238 -7.76802 -7.76802
0.270536 -7.80886 -7.80886
0.34468 -7.85454 -7.85454
0.419187 -7.81206 -7.81206
0.344995 -7.76639 -7.76639
0.344842 -7.81043 -7.81043
0.270273 -7.85297 -7.85297
0.269728 -7.94135 -7.94135
0.418977 -7.94454 -7.94454
0.419126 -7.85616 -7.85616
0.270004 -7.89713 -7.89713
0.344333 -7.94292 -7.94292
0.419056 -7.90032 -7.90032
0.34468 -7.85454 -7.85454
0.344511 -7.8987 -7.8987
0.269728 -7.94135 -7.94135
0.269153 -8.02996 -8.02996
0.418791 -8.03316 -8.03316
0.418977 -7.94454 -7.94454
0.269444 -7.98562 -7.98562
0.343953 -8.03153 -8.03153
0.418888 -7.98882 -7.98882
0.344333 -7.94292 -7.94292
0.344147 -7.9872 -7.9872
0.269153 -8.02996 -8.02996
0.26855 -8.1188 -8.1188
0.418568 -8.122 -8.122
0.418791 -8.03316 -8.03316
0.268855 -8.07435 -8.07435
0.34354 -8.12037 -8.12037
0.418684 -8.07755 -8.07755
0.343953 -8.03153 -8.03153
0.343751 -8.07592 -8.07592
0.26855 -8.1188 -8.1188
0.26792 -8.20786 -8.20786
0.41831 -8.21106 -8.21106
0.418568 -8.122 -8.122
0.268239 -8.1633 -8.1633
0.343095 -8.20943 -8.20943
0.418444 -8.1665 -8.1665
0.34354 -8.12037 -8.12037
0.343322 -8.16488 -8.16488
0.26792 -8.20786 -8.20786
0.267261 -8.29714 -8.29714
0.418015 -8.30034 -8.30034
0.41831 -8.21106 -8.21106
0.267594 -8.25247 -8.25247
0.342618 -8.29871 -8.29871
0.418167 -8.25567 -8.25567
0.343095 -8.20943 -8.20943
0.342861 -8.25405 -8.25405
0.267261 -8.29714 -8.29714
0.266574 -8.38663 -8.38663
0.417683 -8.38983 -8.38983
0.418015 -8.30034 -8.30034
0.266921 -8.34185 -8.34185
0.342109 -8.3882 -8.3882
0.417853 -8.34505 -8.34505
0.342618 -8.29871 -8.29871
0.342368 -8.34343 -8.34343
0.266574 -8.38663 -8.38663
0.265859 -8.47632 -8.47632
0.417316 -8.47952 -8.47952
0.417683 -8.38983 -8.38983
0.26622 -8.43145 -8.43145
0.341568 -8.4779 -8.4779
0.417504 -8.43465 -8.43465
0.342109 -8.3882 -8.3882
0.341843 -8.43303 -8.43303
0.265859 -8.47632 -8.47632
0.265117 -8.56622 -8.56622
0.416914 -8.56942 -8.56942
0.417316 -8.47952 -8.47952
0.265491 -8.52125 -8.52125
0.340996 -8.5678 -8.5678
0.417119 -8.52445 -8.52445
0.341568 -8.4779 -8.4779
0.341286 -8.52283 -8.52283
0.265117 -8.56622 -8.56622
0.264347 -8.65632 -8.65632
0.416475 -8.65952 -8.65952
0.416914 -8.56942 -8.56942
0.264735 -8.61125 -8.61125
0.340392 -8.6579 -8.6579
0.416699 -8.61445 -8.61445
0.340996 -8.5678 -8.5678
0.340698 -8.61283 -8.61283
0.264347 -8.65632 -8.65632
0.26355 -8.74661 -8.74661
0.416001 -8.74981 -8.74981
0.416475 -8.65952 -8.65952
0.263952 -8.70144 -8.70144
0.339756 -8.74819 -8.74819
0.416243 -8.70464 -8.70464
0.340392 -8.6579 -8.6579
0.340078 -8.70302 -8.70302
0.26355 -8.74661 -8.74661
0.262726 -8.83709 -8.83709
0.415492 -8.84029 -8.84029
0.416001 -8.74981 -8.74981
0.263142 -8.79183 -8.79183
0.33909 -8.83867 -8.83867
0.415751 -8.79503 -8.79503
0.339756 -8.74819 -8.74819
0.339427 -8.79341 -8.79341
0.262726 -8.83709 -8.83709
0.261875 -8.92775 -8.92775
0.414948 -8.93095 -8.93095
0.415492 -8.84029 -8.84029
0.262304 -8.8824 -8.8824
0.338392 -8.92933 -8.92933
0.415224 -8.88559 -8.88559
0.33909 -8.83867 -8.83867
0.338745 -8.88398 -8.88398
0.261875 -8.92775 -8.92775
0.260997 -9.01859 -9.01859
0.414368 -9.02179 -9.02179
0.414948 -8.93095 -8.93095
0.261439 -8.97315 -8.97315
0.337663 -9.02017 -9.02017
0.414663 -8.97634 -8.97634
0.338392 -8.92933 -8.92933
0.338032 -8.97473 -8.97473
0.260997 -9.01859 -9.01859
0.260093 -9.10961 -9.10961
0.413754 -9.1128 -9.1128
0.414368 -9.02179 -9.02179
0.260548 -9.06408 -9.06408
0.336904 -9.11118 -9.11118
0.414066 -9.06727 -9.06727
0.337663 -9.02017 -9.02017
0.337288 -9.06565 -9.06565
0.260093 -9.10961 -9.10961
0.259162 -9.20079 -9.20079
0.413106 -9.20398 -9.20398
0.413754 -9.1128 -9.1128
0.25963 -9.15518 -9.15518
0.336114 -9.20236 -9.20236
0.413434 -9.15837 -9.15837
0.336904 -9.11118 -9.11118
0.336513 -9.15675 -9.15675
0.259162 -9.20079 -9.20079
0.258204 -9.29213 -9.29213
0.412422 -9.29532 -9.29532
0.413106 -9.20398 -9.20398
0.258686 -9.24644 -9.24644
0.335294 -9.29371 -9.29371
0.412768 -9.24963 -9.24963
0.336114 -9.20236 -9.20236
0.335708 -9.24802 -9.24802
0.258204 -9.29213 -9.29213
0.257221 -9.38364 -9.38364
0.411705 -9.38682 -9.38682
0.412422 -9.29532 -9.29532
0.257716 -9.33787 -9.33787
0.334443 -9.38521 -9.38521
0.412068 -9.34105 -9.34105
0.335294 -9.29371 -9.29371
0.334872 -9.33944 -9.33944
0.257221 -9.38364 -9.38364
0.256211 -9.4753 -9.4753
0.410953 -9.47848 -9.47848
0.411705 -9.38682 -9.38682
0.256719 -9.42945 -9.42945
0.333562 -9.47687 -9.47687
0.411333 -9.43263 -9.43263
0.334443 -9.38521 -9.38521
0.334007 -9.43102 -9.43102
0.256211 -9.4753 -9.4753
0.255176 -9.56711 -9.56711
0.410167 -9.57028 -9.57028
0.410953 -9.47848 -9.47848
0.255697 -9.52118 -9.52118
0.332652 -9.56868 -9.56868
0.410564 -9.52436 -9.52436
0.333562 -9.47687 -9.47687
0.333111 -9.52276 -9.52276
0.255176 -9.56711 -9.56711
0.254115 -9.65906 -9.65906
0.409348 -9.66223 -9.66223
0.410167 -9.57028 -9.57028
0.254648 -9.61306 -9.61306
0.331712 -9.66063 -9.66063
0.409762 -9.61624 -9.61624
0.332652 -9.56868 -9.56868
0.332185 -9.61464 -9.61464
0.254115 -9.65906 -9.65906
0.253028 -9.75115 -9.75115
0.408494 -9.75432 -9.75432
0.409348 -9.66223 -9.66223
0.253575 -9.70509 -9.70509
0.330742 -9.75272 -9.75272
0.408925 -9.70826 -9.70826
0.331712 -9.66063 -9.66063
0.33123 -9.70666 -9.70666
0.253028 -9.75115 -9.75115
0.251916 -9.84338 -9.84338
0.407607 -9.84654 -9.84654
0.408494 -9.75432 -9.75432
0.252475 -9.79725 -9.79725
0.329742 -9.84495 -9.84495
0.408055 -9.80042 -9.80042
0.330742 -9.75272 -9.75272
0.330246 -9.79882 -9.79882
0.251916 -9.84338 -9.84338
0.250779 -9.93574 -9.93574
0.406687 -9.9389 -9.9389
0.407607 -9.84654 -9.84654
0.251351 -9.88954 -9.88954
0.328714 -9.9373 -9.9373
0.407152 -9.8927 -9.8927
0.329742 -9.84495 -9.84495
0.329232 -9.89111 -9.89111
0.250779 -9.93574 -9.93574
0.249617 -10.0282 -10.0282
0.405734 -10.0314 -10.0314
0.406687 -9.9389 -9.9389
0.250201 -9.98196 -9.98196
0.327656 -10.0298 -10.0298
0.406215 -9.98512 -9.98512
0.328714 -9.9373 -9.9373
0.328188 -9.98353 -9.98353
0.249617 -10.0282 -10.0282
0.24843 -10.1208 -10.1208
0.404748 -10.124 -10.124
0.405734 -10.0314 -10.0314
0.249027 -10.0745 -10.0745
0.326569 -10.1224 -10.1224
0.405245 -10.0777 -10.0777
0.327656 -10.0298 -10.0298
0.327116 -10.0761 -10.0761
0.24843 -10.1208 -10.1208
0.247219 -10.2135 -10.2135
0.403729 -10.2167 -10.2167
0.404748 -10.124 -10.124
0.247828 -10.1672 -10.1672
0.325454 -10.2151 -10.2151
0.404242 -10.1703 -10.1703
0.326569 -10.1224 -10.1224
0.326015 -10.1687 -10.1687
0.247219 -10.2135 -10.2135
0.245983 -10.3064 -10.3064
0.402677 -10.3095 -10.3095
0.403729 -10.2167 -10.2167
0.246604 -10.2599 -10.2599
0.32431 -10.3079 -10.3079
0.403207 -10.2631 -10.2631
0.325454 -10.2151 -10.2151
0.324886 -10.2615 -10.2615
0.245983 -10.3064 -10.3064
0.244722 -10.3993 -10.3993
0.401593 -10.4024 -10.4024
0.402677 -10.3095 -10.3095
0.245356 -10.3528 -10.3528
0.323138 -10.4009 -10.4009
0.402139 -10.356 -10.356
0.32431 -10.3079 -10.3079
0.323728 -10.3544 -10.3544
0.244722 -10.3993 -10.3993
0.243438 -10.4923 -10.4923
0.400476 -10.4955 -10.4955
0.401593 -10.4024 -10.4024
0.244083 -10.4458 -10.4458
0.321937 -10.4939 -10.4939
0.401038 -10.4489 -10.4489
0.323138 -10.4009 -10.4009
0.322541 -10.4474 -10.4474
0.243438 -10.4923 -10.4923
0.24213 -10.5855 -10.5855
0.399327 -10.5886 -10.5886
0.400476 -10.4955 -10.4955
0.242787 -10.5389 -10.5389
0.320709 -10.587 -10.587
0.399906 -10.542 -10.542
0.321937 -10.4939 -10.4939
0.321327 -10.5404 -10.5404
0.24213 -10.5855 -10.5855
0.240797 -10.6787 -10.6787
0.398147 -10.6818 -10.6818
0.399327 -10.5886 -10.5886
0.241466 -10.6321 -10.6321
0.319452 -10.6802 -10.6802
0.398741 -10.6352 -10.6352
0.320709 -10.587 -10.587
0.320084 -10.6336 -10.6336
0.240797 -10.6787 -10.6787
0.239442 -10.772 -10.772
0.396934 -10.7751 -10.7751
0.398147 -10.6818 -10.6818
0.240122 -10.7253 -10.7253
0.318168 -10.7735 -10.7735
0.397545 -10.7284 -10.7284
0.319452 -10.6802 -10.6802
0.318814 -10.7269 -10.7269
0.239442 -10.772 -10.772
0.238062 -10.8654 -10.8654
0.39569 -10.8685 -10.8685
0.396934 -10.7751 -10.7751
0.238755 -10.8187 -10.8187
0.316857 -10.8669 -10.8669
0.396316 -10.8218 -10.8218
0.318168 -10.7735 -10.7735
0.317516 -10.8202 -10.8202
0.238062 -10.8654 -10.8654
0.23666 -10.9589 -10.9589
0.394415 -10.9619 -10.9619
0.39569 -10.8685 -10.8685
0.237364 -10.9121 -10.9121
0.315517 -10.9604 -10.9604
0.395056 -10.9152 -10.9152
0.316857 -10.8669 -10.8669
0.31619 -10.9136 -10.9136
0.23666 -10.9589 -10.9589
0.235234 -11.0524 -11.0524
0.393108 -11.0555 -11.0555
0.394415 -10.9619 -10.9619
0.23595 -11.0056 -11.0056
0.314151 -11.0539 -11.0539
0.393765 -11.0087 -11.0087
0.315517 -10.9604 -10.9604
0.314838 -11.0071 -11.0071
0.235234 -11.0524 -11.0524
0.233786 -11.146 -11.146
0.39177 -11.1491 -11.1491
0.393108 -11.0555 -11.0555
0.234513 -11.0992 -11.0992
0.312758 -11.1475 -11.1475
0.392443 -11.1023 -11.1023
0.314151 -11.0539 -11.0539
0.313458 -11.1007 -11.1007
0.233786 -11.146 -11.146
0.232314 -11.2397 -11.2397
0.390402 -11.2427 -11.2427
0.39177 -11.1491 -11.1491
0.233053 -11.1928 -11.1928
0.311338 -11.2412 -11.2412
0.39109 -11.1959 -11.1959
0.312758 -11.1475 -11.1475
0.312051 -11.1944 -11.1944
0.232314 -11.2397 -11.2397
0.230821 -11.3334 -11.3334
0.389002 -11.3364 -11.3364
0.390402 -11.2427 -11.2427
0.23157 -11.2865 -11.2865
0.309892 -11.3349 -11.3349
0.389706 -11.2896 -11.2896
0.311338 -11.2412 -11.2412
0.310618 -11.288 -11.288
0.230821 -11.3334 -11.3334
0.229304 -11.4272 -11.4272
0.387572 -11.4302 -11.4302
0.389002 -11.3364 -11.3364
0.230065 -11.3803 -11.3803
0.308419 -11.4287 -11.4287
0.388291 -11.3833 -11.3833
0.309892 -11.3349 -11.3349
0.309158 -11.3818 -11.3818
0.229304 -11.4272 -11.4272
0.227766 -11.521 -11.521
0.386112 -11.524 -11.524
0.387572 -11.4302 -11.4302
0.228538 -11.4741 -11.4741
0.306919 -11.5225 -11.5225
0.386846 -11.4771 -11.4771
0.308419 -11.4287 -11.4287
0.307672 -11.4756 -11.4756
0.227766 -11.521 -11.521
0.226206 -11.6149 -11.6149
0.384622 -11.6179 -11.6179
0.386112 -11.524 -11.524
0.226989 -11.5679 -11.5679
0.305395 -11.6164 -11.6164
0.385371 -11.571 -11.571
0.306919 -11.5225 -11.5225
0.30616 -11.5694 -11.5694
0.226206 -11.6149 -11.6149
0.224623 -11.7088 -11.7088
0.383104 -11.7118 -11.7118
0.384622 -11.6179 -11.6179
0.225417 -11.6618 -11.6618
0.303845 -11.7103 -11.7103
0.383867 -11.6648 -11.6648
0.305395 -11.6164 -11.6164
0.304623 -11.6633 -11.6633
0.224623 -11.7088 -11.7088
0.223019 -11.8027 -11.8027
0.381557 -11.8057 -11.8057
0.383104 -11.7118 -11.7118
0.223824 -11.7557 -11.7557
0.30227 -11.8042 -11.8042
0.382334 -11.7587 -11.7587
0.303845 -11.7103 -11.7103
0.30306 -11.7572 -11.7572
0.223019 -11.8027 -11.8027
0.221392 -11.8967 -11.8967
0.379986 -11.8997 -11.8997
0.381557 -11.8057 -11.8057
0.222208 -11.8497 -11.8497
0.300672 -11.8982 -11.8982
0.380775 -11.8527 -11.8527
0.30227 -11.8042 -11.8042
0.301474 -11.8512 -11.8512
0.221392 -11.8967 -11.8967
0.219743 -11.9907 -11.9907
0.378392 -11.9936 -11.9936
0.379986 -11.8997 -11.8997
0.220571 -11.9437 -11.9437
0.299051 -11.9921 -11.9921
0.379191 -11.9467 -11.9467
0.300672 -11.8982 -11.8982
0.299864 -11.9451 -11.9451
0.219743 -11.9907 -11.9907
0.218067 -12.0847 -12.0847
0.376782 -12.0877 -12.0877
0.378392 -11.9936 -11.9936
0.218908 -12.0377 -12.0377
0.297409 -12.0862 -12.0862
0.377588 -12.0406 -12.0406
0.299051 -11.9921 -11.9921
0.298233 -12.0391 -12.0391
0.218067 -12.0847 -12.0847
0.216364 -12.1787 -12.1787
0.375169 -12.1817 -12.1817
0.376782 -12.0877 -12.0877
0.21722 -12.1317 -12.1317
0.295744 -12.1802 -12.1802
0.375975 -12.1347 -12.1347
0.297409 -12.0862 -12.0862
0.29658 -12.1332 -12.1332
0.216364 -12.1787 -12.1787
0.214633 -12.2728 -12.2728
0.373578 -12.2758 -12.2758
0.375169 -12.1817 -12.1817
0.215501 -12.2258 -12.2258
0.294044 -12.2743 -12.2743
0.374368 -12.2288 -12.2288
0.295744 -12.1802 -12.1802
0.2949 -12.2273 -12.2273
0.214633 -12.2728 -12.2728
0.212917 -12.367 -12.367
0.371992 -12.3704 -12.3704
0.373578 -12.2758 -12.2758
0.213768 -12.3199 -12.3199
0.292311 -12.3687 -12.3687
0.372798 -12.323 -12.323
0.294044 -12.2743 -12.2743
0.293174 -12.3215 -12.3215
      </DataArray> 
      <DataArray type="Float64" NumberOfComponents="4" Name="CauchyStress" format="ascii">
-6516.85 -1960.47 0 -1542.97
-4205.5 79.1944 0 63.5603
-3143.13 -340.667 0 -171.943
-2969.22 -893.146 0 -117.856
-4675.73 93.088 0 -213.518
-3915.76 -241.253 0 -222.134
-3084.66 -642.057 0 -200.487
-3487.94 -1049.35 0 -375.775
-3867.06 -529.286 0 -350.833
-4205.5 79.1944 0 63.5603
-4167.48 45.2987 0 22.5293
-3189.68 -102.357 0 -79.6659
-3143.13 -340.667 0 -171.943
-4172.65 -14.9944 0 29.8108
-3768.2 -35.6525 0 -33.9145
-3187.13 -175.647 0 -122.78
-3915.76 -241.253 0 -222.134
-3815.61 -86.955 0 -87.7147
-4167.48 45.2987 0 22.5293
-4244.99 -14.9192 0 13.7334
-3149.43 -19.8192 0 -26.8026
-3189.68 -102.357 0 -79.6659
-4212.15 29.1742 0 23.2724
-3718.86 -1.76609 0 0.819904
-3165.5 -51.2589 0 -45.094
-3768.2 -35.6525 0 -33.9145
-3741.32 -13.8629 0 -14.0828
-4244.99 -14.9192 0 13.7334
-4263.49 4.28191 0 5.60542
-3121.95 -2.11042 0 -14.3651
-3149.43 -19.8192 0 -26.8026
-4255.43 -13.7019 0 4.12775
-3696.02 2.67024 0 6.77284
-3137.25 -6.89572 0 -18.5956
-3718.86 -1.76609 0 0.819904
-3703.05 2.86998 0 7.7044
-4263.49 4.28191 0 5.60542
-4278.6 -4.97145 0 8.77911
-3094.47 4.46057 0 -12.9218
-3121.95 -2.11042 0 -14.3651
-4274.37 2.97001 0 9.0145
-3685.41 2.26137 0 2.94131
-3105.98 2.13638 0 -12.5035
-3696.02 2.67024 0 6.77284
-3691.8 2.04772 0 4.117
-4278.6 -4.97145 0 8.77911
-4272.09 0.658742 0 9.03568
-3075.48 3.27031 0 -15.8725
-3094.47 4.46057 0 -12.9218
-4275.75 -3.62264 0 7.83079
-3672.3 1.37097 0 -0.429714
-3085.27 4.20749 0 -14.5044
-3685.41 2.26137 0 2.94131
-3678.47 2.10121 0 1.51058
-4272.09 0.658742 0 9.03568
-4262.09 -1.11541 0 11.1951
-3057.11 2.09751 0 -18.1583
-3075.48 3.27031 0 -15.8725
-4268.33 0.502078 0 10.6002
-3658.37 0.380377 0 -2.7966
-3065.73 2.71407 0 -17.0224
-3672.3 1.37097 0 -0.429714
-3665.9 0.713691 0 -1.96253
-4262.09 -1.11541 0 11.1951
-4244.72 0.139824 0 12.4545
-3040.77 0.517793 0 -19.8185
-3057.11 2.09751 0 -18.1583
-4253.64 -0.776931 0 11.5755
-3642.05 -0.168172 0 -3.87119
-3049.04 1.25537 0 -19.167
-3658.37 0.380377 0 -2.7966
-3650.25 0.130721 0 -3.41476
-4244.72 0.139824 0 12.4545
-4225.62 -0.204543 0 14.0925
-3024.42 -0.429614 0 -20.4196
-3040.77 0.517793 0 -19.8185
-4235.53 0.12367 0 13.3964
-3624.72 -0.583474 0 -4.00496
-3032.48 -0.00187654 0 -20.199
-3642.05 -0.168172 0 -3.87119
-3633.59 -0.427049 0 -4.05914
-4225.62 -0.204543 0 14.0925
-4204.43 0.0422035 0 15.4959
-3008.43 -1.09664 0 -20.4243
-3024.42 -0.429614 0 -20.4196
-4215.11 -0.138734 0 14.7394
-3606.39 -0.775961 0 -3.56749
-3016.46 -0.809454 0 -20.5017
-3624.72 -0.583474 0 -4.00496
-3615.59 -0.682983 0 -3.83538
-4204.43 0.0422035 0 15.4959
-4182.67 -0.0298612 0 16.9476
-2992.37 -1.446 0 -19.9633
-3008.43 -1.09664 0 -20.4243
-4193.63 0.0391551 0 16.2536
-3587.66 -0.898332 0 -2.76586
-3000.38 -1.29651 0 -20.2302
-3606.39 -0.775961 0 -3.56749
-3597.09 -0.852469 0 -3.20194
-4182.67 -0.0298612 0 16.9476
-4160.42 0.00415541 0 18.3298
-2976.36 -1.63652 0 -19.2703
-2992.37 -1.446 0 -19.9633
-4171.57 -0.0242579 0 17.6293
-3568.62 -0.944593 0 -1.78845
-2984.38 -1.55994 0 -19.6419
-3587.66 -0.898332 0 -2.76586
-3578.15 -0.923832 0 -2.29232
-4160.42 0.00415541 0 18.3298
-4138.04 -0.0200507 0 19.6977
-2960.3 -1.71398 0 -18.4372
-2976.36 -1.63652 0 -19.2703
-4149.24 -0.0011363 0 19.0233
-3549.45 -0.96628 0 -0.715835
-2968.33 -1.68425 0 -18.8639
-3568.62 -0.944593 0 -1.78845
-3559.05 -0.959641 0 -1.25948
-4138.04 -0.0200507 0 19.6977
-4115.57 -0.0275392 0 21.0332
-2944.24 -1.73648 0 -17.547
-2960.3 -1.71398 0 -18.4372
-4126.81 -0.0259911 0 20.366
-3530.21 -0.967317 0 0.38822
-2952.28 -1.73088 0 -17.9972
-3549.45 -0.96628 0 -0.715835
-3539.84 -0.96744 0 -0.165735
-4115.57 -0.0275392 0 21.0332
-4093.09 -0.0445736 0 22.3455
-2928.17 -1.72705 0 -16.6336
-2944.24 -1.73648 0 -17.547
-4104.33 -0.0346998 0 21.6937
-3510.95 -0.962117 0 1.49912
-2936.21 -1.7342 0 -17.0911
-3530.21 -0.967317 0 0.38822
-3520.58 -0.965679 0 0.944165
-4093.09 -0.0445736 0 22.3455
-4070.6 -0.0597987 0 23.6329
-2912.1 -1.70361 0 -15.7206
-2928.17 -1.72705 0 -16.6336
-4081.84 -0.052552 0 22.9917
-3491.67 -0.952865 0 2.59994
-2920.13 -1.71662 0 -16.1764
-3510.95 -0.962117 0 1.49912
-3501.31 -0.957522 0 2.05129
-4070.6 -0.0597987 0 23.6329
-4048.11 -0.0765822 0 24.8967
-2896.02 -1.67351 0 -14.817
-2912.1 -1.70361 0 -15.7206
-4059.35 -0.0679069 0 24.268
-3472.38 -0.942945 0 3.68491
-2904.06 -1.68899 0 -15.2671
-3491.67 -0.952865 0 2.59994
-3482.03 -0.948024 0 3.1447
-4048.11 -0.0765822 0 24.8967
-4025.63 -0.0937217 0 26.1373
-2879.94 -1.64133 0 -13.9281
-2896.02 -1.67351 0 -14.817
-4036.87 -0.08516 0 25.5199
-3453.1 -0.932997 0 4.75069
-2887.98 -1.65756 0 -14.3706
-3472.38 -0.942945 0 3.68491
-3462.74 -0.937874 0 4.22028
-4025.63 -0.0937217 0 26.1373
-4003.15 -0.111409 0 27.3547
-2863.85 -1.6088 0 -13.0555
-2879.94 -1.64133 0 -13.9281
-4014.39 -0.10247 0 26.7489
-3433.82 -0.923633 0 5.79651
-2871.89 -1.62503 0 -13.4897
-3453.1 -0.932997 0 4.75069
-3443.46 -0.928255 0 5.27613
-4003.15 -0.111409 0 27.3547
-3980.67 -0.129675 0 28.5493
-2847.77 -1.57681 0 -12.1998
-2863.85 -1.6088 0 -13.0555
-3991.91 -0.120485 0 27.9549
-3414.53 -0.914942 0 6.82213
-2855.81 -1.59273 0 -12.6255
-3433.82 -0.923633 0 5.79651
-3424.17 -0.919189 0 6.31184
-3980.67 -0.129675 0 28.5493
-3958.19 -0.148433 0 29.721
-2831.69 -1.54559 0 -11.361
-2847.77 -1.57681 0 -12.1998
-3969.43 -0.138988 0 29.138
-3395.25 -0.906961 0 7.82774
-2839.73 -1.5611 0 -11.7783
-3414.53 -0.914942 0 6.82213
-3404.89 -0.91087 0 7.32742
-3958.19 -0.148433 0 29.721
-3935.71 -0.167741 0 30.8701
-2815.6 -1.51519 0 -10.5388
-2831.69 -1.54559 0 -11.361
-3946.95 -0.158023 0 30.2984
-3375.97 -0.899657 0 8.81355
-2823.65 -1.53029 0 -10.9478
-3395.25 -0.906961 0 7.82774
-3385.61 -0.903225 0 8.3231
-3935.71 -0.167741 0 30.8701
-3913.23 -0.187536 0 31.9967
-2799.52 -1.48556 0 -9.73304
-2815.6 -1.51519 0 -10.5388
-3924.47 -0.177578 0 31.4362
-3356.68 -0.892988 0 9.77982
-2807.56 -1.50028 0 -10.1339
-3375.97 -0.899657 0 8.81355
-3366.32 -0.896247 0 9.29912
-3913.23 -0.187536 0 31.9967
-3890.75 -0.207825 0 33.1009
-2783.44 -1.45665 0 -8.94352
-2799.52 -1.48556 0 -9.73304
-3901.99 -0.197621 0 32.5516
-3337.4 -0.886912 0 10.7267
-2791.48 -1.47102 0 -9.33626
-3356.68 -0.892988 0 9.77982
-3347.04 -0.889878 0 10.2557
-3890.75 -0.207825 0 33.1009
-3868.27 -0.22857 0 34.1829
-2767.35 -1.42839 0 -8.17003
-2783.44 -1.45665 0 -8.94352
-3879.51 -0.218142 0 33.6447
-3318.11 -0.881391 0 11.6545
-2775.39 -1.44244 0 -8.55478
-3337.4 -0.886912 0 10.7267
-3327.75 -0.884085 0 11.193
-3868.27 -0.22857 0 34.1829
-3845.79 -0.249755 0 35.2427
-2751.26 -1.40075 0 -7.41242
-2767.35 -1.42839 0 -8.17003
-3857.03 -0.23911 0 34.7155
-3298.83 -0.876394 0 12.5632
-2759.31 -1.4145 0 -7.78925
-3318.11 -0.881391 0 11.6545
-3308.47 -0.878829 0 12.1112
-3845.79 -0.249755 0 35.2427
-3823.31 -0.271349 0 36.2805
-2735.18 -1.37367 0 -6.67058
-2751.26 -1.40075 0 -7.41242
-3834.55 -0.260502 0 35.7643
-3279.54 -0.871892 0 13.453
-2743.22 -1.38714 0 -7.03954
-3298.83 -0.876394 0 12.5632
-3289.18 -0.874083 0 13.0105
-3823.31 -0.271349 0 36.2805
-3800.83 -0.293329 0 37.2964
-2719.09 -1.34713 0 -5.94439
-2735.18 -1.37367 0 -6.67058
-3812.07 -0.282292 0 36.7911
-3260.25 -0.867857 0 14.3241
-2727.14 -1.36033 0 -6.30553
-3279.54 -0.871892 0 13.453
-3269.9 -0.869818 0 13.8909
-3800.83 -0.293329 0 37.2964
-3778.34 -0.315669 0 38.2905
-2703.01 -1.3211 0 -5.23374
-2719.09 -1.34713 0 -5.94439
-3789.58 -0.304456 0 37.7962
-3240.96 -0.864268 0 15.1765
-2711.05 -1.33405 0 -5.58712
-3260.25 -0.867857 0 14.3241
-3250.61 -0.866008 0 14.7526
-3778.34 -0.315669 0 38.2905
-3755.86 -0.338344 0 39.263
-2686.92 -1.29556 0 -4.53854
-2703.01 -1.3211 0 -5.23374
-3767.1 -0.326966 0 38.7795
-3221.68 -0.8611 0 16.0104
-2694.96 -1.30827 0 -4.88421
-3240.96 -0.864268 0 15.1765
-3231.32 -0.862632 0 15.5958
-3755.86 -0.338344 0 39.263
-3733.37 -0.361329 0 40.2141
-2670.83 -1.27049 0 -3.85869
-2686.92 -1.29556 0 -4.53854
-3744.61 -0.3498 0 39.7412
-3202.39 -0.858332 0 16.8258
-2678.87 -1.28297 0 -4.1967
-3221.68 -0.8611 0 16.0104
-3212.03 -0.859667 0 16.4204
-3733.37 -0.361329 0 40.2141
-3710.88 -0.3846 0 41.1437
-2654.74 -1.24587 0 -3.19411
-2670.83 -1.27049 0 -3.85869
-3722.13 -0.37293 0 40.6815
-3183.1 -0.855943 0 17.623
-2662.79 -1.25813 0 -3.5245
-3202.39 -0.858332 0 16.8258
-3192.74 -0.857091 0 17.2267
-3710.88 -0.3846 0 41.1437
-3688.4 -0.408132 0 42.0521
-2638.65 -1.22169 0 -2.54471
-2654.74 -1.24587 0 -3.19411
-3699.64 -0.396334 0 41.6006
-3163.81 -0.853912 0 18.4019
-2646.7 -1.23373 0 -2.86752
-3183.1 -0.855943 0 17.623
-3173.45 -0.854884 0 18.0147
-3688.4 -0.408132 0 42.0521
-3665.91 -0.431901 0 42.9394
-2622.56 -1.19792 0 -1.91039
-2638.65 -1.22169 0 -2.54471
-3677.15 -0.419988 0 42.4984
-3144.52 -0.852219 0 19.1627
-2630.61 -1.20975 0 -2.22567
-3163.81 -0.853912 0 18.4019
-3154.16 -0.853025 0 18.7846
-3665.91 -0.431901 0 42.9394
-3643.42 -0.455886 0 43.8057
-2606.47 -1.17456 0 -1.29106
-2622.56 -1.19792 0 -1.91039
-3654.66 -0.443868 0 43.3752
-3125.22 -0.850845 0 19.9056
-2614.52 -1.18619 0 -1.59886
-3144.52 -0.852219 0 19.1627
-3134.87 -0.851493 0 19.5364
-3643.42 -0.455886 0 43.8057
-3620.93 -0.480062 0 44.6512
-2590.38 -1.15157 0 -0.686634
-2606.47 -1.17456 0 -1.29106
-3632.17 -0.467951 0 44.231
-3105.93 -0.849769 0 20.6305
-2598.43 -1.16302 0 -0.98699
-3125.22 -0.850845 0 19.9056
-3115.58 -0.850271 0 20.2703
-3620.93 -0.480062 0 44.6512
-3598.44 -0.504407 0 45.4759
-2574.29 -1.12896 0 -0.0970186
-2590.38 -1.15157 0 -0.686634
-3609.68 -0.492215 0 45.0661
-3086.64 -0.848972 0 21.3377
-2582.34 -1.14022 0 -0.389981
-3105.93 -0.849769 0 20.6305
-3096.29 -0.849337 0 20.9863
-3598.44 -0.504407 0 45.4759
-3575.95 -0.5289 0 46.28
-2558.2 -1.1067 0 0.477877
-2574.29 -1.12896 0 -0.0970186
-3587.19 -0.516637 0 45.8805
-3067.35 -0.848437 0 22.0272
-2566.25 -1.11779 0 0.192264
-3086.64 -0.848972 0 21.3377
-3076.99 -0.848673 0 21.6846
-3575.95 -0.5289 0 46.28
-3553.46 -0.553519 0 47.0636
-2542.11 -1.08478 0 1.03815
-2558.2 -1.1067 0 0.477877
-3564.7 -0.541195 0 46.6744
-3048.05 -0.848143 0 22.6992
-2550.16 -1.0957 0 0.759834
-3067.35 -0.848437 0 22.0272
-3057.7 -0.848261 0 22.3654
-3553.46 -0.553519 0 47.0636
-3530.96 -0.578242 0 47.8269
-2526.02 -1.06318 0 1.58388
-2542.11 -1.08478 0 1.03815
-3542.21 -0.565869 0 47.4478
-3028.76 -0.848074 0 23.3537
-2534.07 -1.07394 0 1.31282
-3048.05 -0.848143 0 22.6992
-3038.41 -0.848082 0 23.0286
-3530.96 -0.578242 0 47.8269
-3508.47 -0.603048 0 48.57
-2509.93 -1.04189 0 2.11516
-2526.02 -1.06318 0 1.58388
-3519.72 -0.590636 0 48.201
-3009.47 -0.848211 0 23.9909
-2517.98 -1.0525 0 1.85132
-3028.76 -0.848074 0 23.3537
-3019.11 -0.848118 0 23.6745
-3508.47 -0.603048 0 48.57
-3485.98 -0.627918 0 49.293
-2493.84 -1.0209 0 2.63209
-2509.93 -1.04189 0 2.11516
-3497.22 -0.615477 0 48.934
-2990.17 -0.848536 0 24.6109
-2501.89 -1.03136 0 2.37542
-3009.47 -0.848211 0 23.9909
-2999.82 -0.848351 0 24.303
-3485.98 -0.627918 0 49.293
-3463.48 -0.652831 0 49.996
-2477.75 -1.00018 0 3.13477
-2493.84 -1.0209 0 2.63209
-3474.73 -0.64037 0 49.647
-2970.88 -0.849033 0 25.2137
-2485.79 -1.0105 0 2.88521
-2990.17 -0.848536 0 24.6109
-2980.52 -0.848765 0 24.9144
-3463.48 -0.652831 0 49.996
-3440.99 -0.677767 0 50.6792
-2461.66 -0.979727 0 3.62327
-2477.75 -1.00018 0 3.13477
-3452.24 -0.665297 0 50.3401
-2951.58 -0.849685 0 25.7996
-2469.7 -0.989921 0 3.38078
-2970.88 -0.849033 0 25.2137
-2961.23 -0.849341 0 25.5088
-3440.99 -0.677767 0 50.6792
-3418.5 -0.702707 0 51.3427
-2445.56 -0.959526 0 4.09769
-2461.66 -0.979727 0 3.62327
-3429.74 -0.690237 0 51.0134
-2932.29 -0.850475 0 26.3685
-2453.61 -0.969596 0 3.86223
-2951.58 -0.849685 0 25.7996
-2941.93 -0.850064 0 26.0862
-3418.5 -0.702707 0 51.3427
-3396 -0.727632 0 51.9867
-2429.47 -0.939563 0 4.55813
-2445.56 -0.959526 0 4.09769
-3407.25 -0.715172 0 51.6671
-2912.99 -0.851386 0 26.9207
-2437.52 -0.949516 0 4.32965
-2932.29 -0.850475 0 26.3685
-2922.64 -0.850916 0 26.6467
-3396 -0.727632 0 51.9867
-3373.5 -0.752523 0 52.6111
-2413.38 -0.919825 0 5.00467
-2429.47 -0.939563 0 4.55813
-3384.75 -0.740083 0 52.3013
-2893.69 -0.852403 0 27.4563
-2421.43 -0.929667 0 4.78313
-2912.99 -0.851386 0 26.9207
-2903.34 -0.851882 0 27.1906
-3373.5 -0.752523 0 52.6111
-3351.01 -0.777363 0 53.2163
-2397.29 -0.900298 0 5.43741
-2413.38 -0.919825 0 5.00467
-3362.26 -0.764951 0 52.9161
-2874.4 -0.853511 0 27.9752
-2405.33 -0.910036 0 5.22276
-2893.69 -0.852403 0 27.4563
-2884.05 -0.852947 0 27.7178
-3351.01 -0.777363 0 53.2163
-3328.51 -0.802133 0 53.8023
-2381.19 -0.88097 0 5.85644
-2397.29 -0.900298 0 5.43741
-3339.76 -0.789758 0 53.5117
-2855.1 -0.854693 0 28.4777
-2389.24 -0.89061 0 5.64863
-2874.4 -0.853511 0 27.9752
-2864.75 -0.854094 0 28.2285
-3328.51 -0.802133 0 53.8023
-3306.01 -0.826816 0 54.3692
-2365.1 -0.861828 0 6.26185
-2381.19 -0.88097 0 5.85644
-3317.26 -0.814487 0 54.0881
-2835.8 -0.855936 0 28.9639
-2373.15 -0.871376 0 6.06084
-2855.1 -0.854693 0 28.4777
-2845.45 -0.855308 0 28.7228
-3306.01 -0.826816 0 54.3692
-3283.52 -0.851395 0 54.9172
-2349.01 -0.842861 0 6.65373
-2365.1 -0.861828 0 6.26185
-3294.77 -0.83912 0 54.6456
-2816.51 -0.857224 0 29.4338
-2357.05 -0.852324 0 6.45947
-2835.8 -0.855936 0 28.9639
-2826.16 -0.856575 0 29.2009
-3283.52 -0.851395 0 54.9172
-3261.02 -0.875853 0 55.4464
-2332.92 -0.824056 0 7.03218
-2349.01 -0.842861 0 6.65373
-3272.27 -0.86364 0 55.1841
-2797.21 -0.858543 0 29.8876
-2340.96 -0.833439 0 6.84463
-2816.51 -0.857224 0 29.4338
-2806.86 -0.85788 0 29.6627
-3261.02 -0.875853 0 55.4464
-3238.52 -0.900174 0 55.9569
-2316.82 -0.805401 0 7.39728
-2332.92 -0.824056 0 7.03218
-3249.77 -0.888032 0 55.704
-2777.91 -0.859878 0 30.3254
-2324.87 -0.81471 0 7.21639
-2797.21 -0.858543 0 29.8876
-2787.56 -0.859209 0 30.1085
-3238.52 -0.900174 0 55.9569
-3216.02 -0.924341 0 56.4489
-2300.73 -0.786885 0 7.74914
-2316.82 -0.805401 0 7.39728
-3227.27 -0.912278 0 56.2052
-2758.61 -0.861217 0 30.7474
-2308.78 -0.796127 0 7.57486
-2777.91 -0.859878 0 30.3254
-2768.26 -0.860548 0 30.5384
-3216.02 -0.924341 0 56.4489
-3193.52 -0.94834 0 56.9224
-2284.64 -0.768498 0 8.08783
-2300.73 -0.786885 0 7.74914
-3204.77 -0.936363 0 56.6879
-2739.32 -0.862546 0 31.1535
-2292.68 -0.777676 0 7.92012
-2758.61 -0.861217 0 30.7474
-2748.97 -0.861884 0 30.9524
-3193.52 -0.94834 0 56.9224
-3171.02 -0.972154 0 57.3777
-2268.54 -0.750227 0 8.41346
-2284.64 -0.768498 0 8.08783
-3182.27 -0.960271 0 57.1523
-2720.02 -0.863852 0 31.5439
-2276.59 -0.759348 0 8.25227
-2739.32 -0.862546 0 31.1535
-2729.67 -0.863203 0 31.3507
-3171.02 -0.972154 0 57.3777
-3148.53 -0.995768 0 57.8148
-2252.45 -0.732063 0 8.72611
-2268.54 -0.750227 0 8.41346
-3159.78 -0.983987 0 57.5985
-2700.72 -0.865121 0 31.9188
-2260.5 -0.741132 0 8.5714
-2720.02 -0.863852 0 31.5439
-2710.37 -0.864492 0 31.7333
-3148.53 -0.995768 0 57.8148
-3126.03 -1.01917 0 58.2339
-2236.36 -0.713994 0 9.02588
-2252.45 -0.732063 0 8.72611
-3137.28 -1.0075 0 58.0266
-2681.42 -0.866341 0 32.2782
-2244.4 -0.723017 0 8.8776
-2700.72 -0.865121 0 31.9188
-2691.07 -0.865738 0 32.1004
-3126.03 -1.01917 0 58.2339
-3103.53 -1.04234 0 58.635
-2220.26 -0.696011 0 9.31286
-2236.36 -0.713994 0 9.02588
-3114.78 -1.03078 0 58.4367
-2662.12 -0.867501 0 32.6223
-2228.31 -0.704992 0 9.17096
-2681.42 -0.866341 0 32.2782
-2671.77 -0.866929 0 32.4522
-3103.53 -1.04234 0 58.635
-3081.03 -1.06527 0 59.0185
-2204.17 -0.678104 0 9.58714
-2220.26 -0.696011 0 9.31286
-3092.28 -1.05384 0 58.829
-2642.83 -0.868587 0 32.9511
-2212.22 -0.687049 0 9.45158
-2662.12 -0.867501 0 32.6223
-2652.47 -0.868054 0 32.7886
-3081.03 -1.06527 0 59.0185
-3058.53 -1.08794 0 59.3842
-2188.08 -0.660262 0 9.84881
-2204.17 -0.678104 0 9.58714
-3069.78 -1.07664 0 59.2035
-2623.53 -0.869589 0 33.2648
-2196.12 -0.669175 0 9.71954
-2642.83 -0.868587 0 32.9511
-2633.18 -0.869099 0 33.1099
-3058.53 -1.08794 0 59.3842
-3036.03 -1.11035 0 59.7325
-2171.98 -0.642477 0 10.098
-2188.08 -0.660262 0 9.84881
-3047.28 -1.09918 0 59.5605
-2604.23 -0.870495 0 33.5635
-2180.03 -0.651363 0 9.97494
-2623.53 -0.869589 0 33.2648
-2613.88 -0.870055 0 33.4161
-3036.03 -1.11035 0 59.7325
-3013.53 -1.13247 0 60.0633
-2155.89 -0.62474 0 10.3347
-2171.98 -0.642477 0 10.098
-3024.78 -1.12145 0 59.9001
-2584.93 -0.871294 0 33.8473
-2163.94 -0.633603 0 10.2179
-2604.23 -0.870495 0 33.5635
-2594.58 -0.870908 0 33.7073
-3013.53 -1.13247 0 60.0633
-2991.02 -1.1543 0 60.3769
-2139.8 -0.60704 0 10.5591
-2155.89 -0.62474 0 10.3347
-3002.28 -1.14342 0 60.2223
-2565.63 -0.871974 0 34.1163
-2147.84 -0.615886 0 10.4484
-2584.93 -0.871294 0 33.8473
-2575.28 -0.871649 0 33.9837
-2991.02 -1.1543 0 60.3769
-2968.52 -1.17582 0 60.6734
-2123.7 -0.58937 0 10.7713
-2139.8 -0.60704 0 10.5591
-2979.77 -1.1651 0 60.5273
-2546.33 -0.872527 0 34.3706
-2131.75 -0.598202 0 10.6667
-2565.63 -0.871974 0 34.1163
-2555.98 -0.872267 0 34.2453
-2968.52 -1.17582 0 60.6734
-2946.02 -1.19702 0 60.9529
-2107.61 -0.571721 0 10.9713
-2123.7 -0.58937 0 10.7713
-2957.27 -1.18646 0 60.8153
-2527.03 -0.87294 0 34.6104
-2115.66 -0.580544 0 10.8728
-2546.33 -0.872527 0 34.3706
-2536.68 -0.872752 0 34.4923
-2946.02 -1.19702 0 60.9529
-2923.52 -1.2179 0 61.2155
-2091.52 -0.554085 0 11.1592
-2107.61 -0.571721 0 10.9713
-2934.77 -1.2075 0 61.0863
-2507.73 -0.873205 0 34.8356
-2099.56 -0.562902 0 11.0667
-2527.03 -0.87294 0 34.6104
-2517.38 -0.873092 0 34.7248
-2923.52 -1.2179 0 61.2155
-2901.02 -1.23843 0 61.4614
-2075.42 -0.536453 0 11.3352
-2091.52 -0.554085 0 11.1592
-2912.27 -1.2282 0 61.3405
-2488.44 -0.873312 0 35.0466
-2083.47 -0.545269 0 11.2487
-2507.73 -0.873205 0 34.8356
-2498.08 -0.873279 0 34.9429
-2901.02 -1.23843 0 61.4614
-2878.52 -1.2586 0 61.6906
-2059.33 -0.518818 0 11.4993
-2075.42 -0.536453 0 11.3352
-2889.77 -1.24856 0 61.5781
-2469.14 -0.873251 0 35.2432
-2067.38 -0.527636 0 11.4188
-2488.44 -0.873312 0 35.0466
-2478.79 -0.873303 0 35.1467
-2878.52 -1.2586 0 61.6906
-2856.02 -1.27842 0 61.9034
-2043.24 -0.501172 0 11.6517
-2059.33 -0.518818 0 11.4993
-2867.27 -1.26855 0 61.7991
-2449.84 -0.873013 0 35.4258
-2051.28 -0.509997 0 11.577
-2469.14 -0.873251 0 35.2432
-2459.49 -0.873155 0 35.3363
-2856.02 -1.27842 0 61.9034
-2833.52 -1.29785 0 62.0998
-2027.15 -0.483508 0 11.7923
-2043.24 -0.501172 0 11.6517
-2844.77 -1.28818 0 62.0036
-2430.54 -0.872589 0 35.5943
-2035.19 -0.492342 0 11.7235
-2449.84 -0.873013 0 35.4258
-2440.19 -0.872825 0 35.5118
-2833.52 -1.29785 0 62.0998
-2811.01 -1.31691 0 62.28
-2011.05 -0.465818 0 11.9214
-2027.15 -0.483508 0 11.7923
-2822.27 -1.30743 0 62.1919
-2411.24 -0.871971 0 35.7489
-2019.1 -0.474666 0 11.8583
-2430.54 -0.872589 0 35.5943
-2420.89 -0.872305 0 35.6733
-2811.01 -1.31691 0 62.28
-2788.51 -1.33557 0 62.4441
-1994.96 -0.448095 0 12.039
-2011.05 -0.465818 0 11.9214
-2799.76 -1.32629 0 62.364
-2391.94 -0.87115 0 35.8897
-2003.01 -0.456961 0 11.9816
-2411.24 -0.871971 0 35.7489
-2401.59 -0.871586 0 35.821
-2788.51 -1.33557 0 62.4441
-2766.01 -1.35383 0 62.5922
-1978.87 -0.430334 0 12.1451
-1994.96 -0.448095 0 12.039
-2777.26 -1.34475 0 62.5201
-2372.64 -0.870118 0 36.0168
-1986.91 -0.43922 0 12.0934
-2391.94 -0.87115 0 35.8897
-2382.29 -0.870661 0 35.955
-2766.01 -1.35383 0 62.5922
-2743.51 -1.37167 0 62.7245
-1962.78 -0.412527 0 12.2399
-1978.87 -0.430334 0 12.1451
-2754.76 -1.3628 0 62.6603
-2353.34 -0.868867 0 36.1304
-1970.82 -0.421437 0 12.1939
-2372.64 -0.870118 0 36.0168
-2362.99 -0.869521 0 36.0753
-2743.51 -1.37167 0 62.7245
-2721.01 -1.3891 0 62.841
-1946.68 -0.394668 0 12.3235
-1962.78 -0.412527 0 12.2399
-2732.26 -1.38044 0 62.7847
-2334.05 -0.867391 0 36.2304
-1954.73 -0.403604 0 12.2831
-2353.34 -0.868867 0 36.1304
-2343.69 -0.868158 0 36.1821
-2721.01 -1.3891 0 62.841
-2698.51 -1.40609 0 62.942
-1930.59 -0.376751 0 12.396
-1946.68 -0.394668 0 12.3235
-2709.76 -1.39765 0 62.8935
-2314.75 -0.86568 0 36.3171
-1938.64 -0.385717 0 12.3611
-2334.05 -0.867391 0 36.2304
-2324.4 -0.866565 0 36.2754
-2698.51 -1.40609 0 62.942
-2676 -1.42265 0 63.0276
-1914.5 -0.35877 0 12.4574
-1930.59 -0.376751 0 12.396
-2687.25 -1.41443 0 62.9867
-2295.45 -0.863729 0 36.3906
-1922.55 -0.367769 0 12.4281
-2314.75 -0.86568 0 36.3171
-2305.1 -0.864735 0 36.3555
-2676 -1.42265 0 63.0276
-2653.5 -1.43876 0 63.0978
-1898.41 -0.340719 0 12.5079
-1914.5 -0.35877 0 12.4574
-2664.75 -1.43076 0 63.0646
-2276.15 -0.861531 0 36.4509
-1906.45 -0.349753 0 12.484
-2295.45 -0.863729 0 36.3906
-2285.8 -0.862661 0 36.4224
-2653.5 -1.43876 0 63.0978
-2631 -1.45442 0 63.1528
-1882.32 -0.322593 0 12.5475
-1898.41 -0.340719 0 12.5079
-2642.25 -1.44665 0 63.1272
-2256.85 -0.859078 0 36.4982
-1890.36 -0.331666 0 12.529
-2276.15 -0.861531 0 36.4509
-2266.5 -0.860337 0 36.4762
-2631 -1.45442 0 63.1528
-2608.5 -1.46962 0 63.1927
-1866.23 -0.304387 0 12.5763
-1882.32 -0.322593 0 12.5475
-2619.75 -1.46208 0 63.1746
-2237.55 -0.856366 0 36.5326
-1874.27 -0.313501 0 12.5632
-2256.85 -0.859078 0 36.4982
-2247.2 -0.857755 0 36.517
-2608.5 -1.46962 0 63.1927
-2586 -1.48434 0 63.2177
-1850.13 -0.286096 0 12.5945
-1866.23 -0.304387 0 12.5763
-2597.25 -1.47704 0 63.2071
-2218.26 -0.853387 0 36.5541
-1858.18 -0.295253 0 12.5867
-2237.55 -0.856366 0 36.5326
-2227.9 -0.85491 0 36.545
-2586 -1.48434 0 63.2177
-2563.49 -1.4986 0 63.2279
-1834.04 -0.267714 0 12.6021
-1850.13 -0.286096 0 12.5945
-2574.75 -1.49153 0 63.2247
-2198.96 -0.850136 0 36.563
-1842.09 -0.276917 0 12.5996
-2218.26 -0.853387 0 36.5541
-2208.61 -0.851796 0 36.5602
-2563.49 -1.4986 0 63.2279
-2540.99 -1.51237 0 63.2234
-1817.95 -0.249238 0 12.5992
-1834.04 -0.267714 0 12.6021
-2552.24 -1.50554 0 63.2275
-2179.66 -0.846607 0 36.5593
-1826 -0.258488 0 12.6019
-2198.96 -0.850136 0 36.563
-2189.31 -0.848406 0 36.5627
-2540.99 -1.51237 0 63.2234
-2518.49 -1.52565 0 63.2044
-1801.86 -0.230662 0 12.5859
-1817.95 -0.249238 0 12.5992
-2529.74 -1.51907 0 63.2157
-2160.36 -0.842795 0 36.5431
-1809.91 -0.239963 0 12.5938
-2179.66 -0.846607 0 36.5593
-2170.01 -0.844736 0 36.5528
-2518.49 -1.52565 0 63.2044
-2495.99 -1.53845 0 63.1709
-1785.77 -0.211983 0 12.5622
-1801.86 -0.230662 0 12.5859
-2507.24 -1.53211 0 63.1895
-2141.06 -0.838694 0 36.5145
-1793.82 -0.221336 0 12.5753
-2160.36 -0.842795 0 36.5431
-2150.71 -0.840781 0 36.5304
-2495.99 -1.53845 0 63.1709
-2473.49 -1.55074 0 63.1232
-1769.68 -0.193196 0 12.5284
-1785.77 -0.211983 0 12.5622
-2484.74 -1.54465 0 63.1488
-2121.77 -0.834301 0 36.4737
-1777.73 -0.202603 0 12.5466
-2141.06 -0.838694 0 36.5145
-2131.42 -0.836535 0 36.4957
-2473.49 -1.55074 0 63.1232
-2450.99 -1.56253 0 63.0613
-1753.59 -0.174298 0 12.4845
-1769.68 -0.193196 0 12.5284
-2462.24 -1.5567 0 63.094
-2102.47 -0.82961 0 36.4208
-1761.64 -0.183761 0 12.5077
-2121.77 -0.834301 0 36.4737
-2112.12 -0.831993 0 36.4488
-2450.99 -1.56253 0 63.0613
-2428.48 -1.5738 0 62.9853
-1737.5 -0.155285 0 12.4305
-1753.59 -0.174298 0 12.4845
-2439.74 -1.56823 0 63.025
-2083.17 -0.824617 0 36.3558
-1745.55 -0.164806 0 12.4587
-2102.47 -0.82961 0 36.4208
-2092.82 -0.827152 0 36.3898
-2428.48 -1.5738 0 62.9853
-2405.98 -1.58457 0 62.8955
-1721.41 -0.136153 0 12.3666
-1737.5 -0.155285 0 12.4305
-2417.23 -1.57925 0 62.9421
-2063.88 -0.819318 0 36.2789
-1729.46 -0.145734 0 12.3998
-2083.17 -0.824617 0 36.3558
-2073.52 -0.822006 0 36.3188
-2405.98 -1.58457 0 62.8955
-2383.48 -1.59481 0 62.7918
-1705.32 -0.116899 0 12.2928
-1721.41 -0.136153 0 12.3666
-2394.73 -1.58975 0 62.8453
-2044.58 -0.813709 0 36.1901
-1713.37 -0.126541 0 12.3309
-2063.88 -0.819318 0 36.2789
-2054.23 -0.816553 0 36.236
-2383.48 -1.59481 0 62.7918
-2360.98 -1.60453 0 62.6745
-1689.23 -0.0975205 0 12.2093
-1705.32 -0.116899 0 12.2928
-2372.23 -1.59974 0 62.7349
-2025.28 -0.807786 0 36.0897
-1697.28 -0.107226 0 12.2522
-2044.58 -0.813709 0 36.1901
-2034.93 -0.810787 0 36.1414
-2360.98 -1.60453 0 62.6745
-2338.48 -1.61372 0 62.5437
-1673.14 -0.078014 0 12.1161
-1689.23 -0.0975204 0 12.2093
-2349.73 -1.60919 0 62.6108
-2005.98 -0.801545 0 35.9777
-1681.19 -0.0877834 0 12.1639
-2025.28 -0.807786 0 36.0897
-2015.63 -0.804705 0 36.0351
-2338.48 -1.61372 0 62.5437
-2315.98 -1.62239 0 62.3995
-1657.05 -0.058377 0 12.0133
-1673.14 -0.078014 0 12.1161
-2327.23 -1.61812 0 62.4733
-1986.69 -0.794984 0 35.8542
-1665.1 -0.0682119 0 12.0659
-2005.98 -0.801545 0 35.9777
-1996.34 -0.798305 0 35.9174
-2315.98 -1.62239 0 62.3995
-2293.48 -1.63051 0 62.242
-1640.97 -0.0386068 0 11.9011
-1657.05 -0.058377 0 12.0133
-2304.73 -1.62652 0 62.3224
-1967.39 -0.788099 0 35.7193
-1649.01 -0.0485087 0 11.9584
-1986.69 -0.794984 0 35.8542
-1977.04 -0.791582 0 35.7881
-2293.48 -1.63051 0 62.242
-2270.98 -1.6381 0 62.0714
-1624.88 -0.0187012 0 11.7795
-1640.97 -0.0386068 0 11.9011
-2282.23 -1.63437 0 62.1584
-1948.1 -0.780887 0 35.5732
-1632.92 -0.0286711 0 11.8414
-1967.39 -0.788099 0 35.7193
-1957.74 -0.784534 0 35.6476
-2270.98 -1.6381 0 62.0714
-2248.47 -1.64515 0 61.8878
-1608.79 0.00134201 0 11.6485
-1624.88 -0.0187012 0 11.7795
-2259.72 -1.64169 0 61.9812
-1928.8 -0.773346 0 35.4159
-1616.83 -0.00869694 0 11.7151
-1948.1 -0.780887 0 35.5732
-1938.45 -0.777158 0 35.4959
-2248.47 -1.64515 0 61.8878
-2225.97 -1.65165 0 61.6913
-1592.7 0.0215249 0 11.5084
-1608.79 0.00134201 0 11.6485
-2237.22 -1.64847 0 61.7912
-1909.5 -0.765474 0 35.2475
-1600.75 0.0114159 0 11.5796
-1928.8 -0.773346 0 35.4159
-1919.15 -0.769452 0 35.3331
-2225.97 -1.65165 0 61.6913
-2203.47 -1.65761 0 61.4821
-1576.61 0.0418493 0 11.3592
-1592.7 0.0215249 0 11.5084
-2214.72 -1.6547 0 61.5883
-1890.21 -0.757268 0 35.0683
-1584.66 0.0316693 0 11.4349
-1909.5 -0.765474 0 35.2475
-1899.86 -0.761413 0 35.1593
-2203.47 -1.65761 0 61.4821
-2180.97 -1.66301 0 61.2602
-1560.53 0.0623168 0 11.2009
-1576.61 0.0418493 0 11.3592
-2192.22 -1.66038 0 61.3727
-1870.91 -0.748726 0 34.8782
-1568.57 0.0520651 0 11.2812
-1890.21 -0.757268 0 35.0683
-1880.56 -0.753039 0 34.9746
-2180.97 -1.66301 0 61.2602
-2158.47 -1.66787 0 61.0259
-1544.44 0.082929 0 11.0337
-1560.53 0.0623168 0 11.2009
-2169.72 -1.66551 0 61.1446
-1851.62 -0.739846 0 34.6774
-1552.48 0.0726047 0 11.1184
-1870.91 -0.748726 0 34.8782
-1861.27 -0.744328 0 34.7791
-2158.47 -1.66787 0 61.0259
-2135.97 -1.67217 0 60.7792
-1528.35 0.103687 0 10.8577
-1544.44 0.082929 0 11.0337
-2147.22 -1.67009 0 60.9041
-1832.32 -0.730627 0 34.466
-1536.4 0.0932897 0 10.9468
-1851.62 -0.739846 0 34.6774
-1841.97 -0.735279 0 34.573
-2135.97 -1.67217 0 60.7792
-2113.47 -1.67592 0 60.5202
-1512.26 0.124592 0 10.673
-1528.35 0.103687 0 10.8577
-2124.72 -1.67411 0 60.6512
-1813.03 -0.721068 0 34.2441
-1520.31 0.114121 0 10.7664
-1832.32 -0.730627 0 34.466
-1822.68 -0.72589 0 34.3564
-2113.47 -1.67592 0 60.5202
-2090.97 -1.67911 0 60.2492
-1496.18 0.145646 0 10.4796
-1512.26 0.124592 0 10.673
-2102.22 -1.67758 0 60.3862
-1793.73 -0.711167 0 34.0119
-1504.22 0.1351 0 10.5773
-1813.03 -0.721068 0 34.2441
-1803.38 -0.71616 0 34.1293
-2090.97 -1.67911 0 60.2492
-2068.47 -1.68174 0 59.9662
-1480.09 0.166848 0 10.2776
-1496.18 0.145646 0 10.4796
-2079.72 -1.6805 0 60.1092
-1774.44 -0.700923 0 33.7693
-1488.14 0.156228 0 10.3796
-1793.73 -0.711167 0 34.0119
-1784.09 -0.706088 0 33.8919
-2068.47 -1.68174 0 59.9662
-2045.97 -1.68382 0 59.6713
-1464.01 0.188199 0 10.0672
-1480.09 0.166848 0 10.2776
-2057.22 -1.68285 0 59.8202
-1755.14 -0.690336 0 33.5167
-1472.05 0.177505 0 10.1734
-1774.44 -0.700923 0 33.7693
-1764.79 -0.695673 0 33.6443
-2045.97 -1.68382 0 59.6713
-2023.47 -1.68534 0 59.3647
-1447.92 0.209701 0 9.84834
-1464.01 0.188199 0 10.0672
-2034.72 -1.68465 0 59.5195
-1735.85 -0.679405 0 33.2539
-1455.96 0.198932 0 9.95879
-1755.14 -0.690336 0 33.5167
-1745.5 -0.684913 0 33.3865
-2023.47 -1.68534 0 59.3647
-2000.97 -1.6863 0 59.0465
-1431.83 0.231353 0 9.62125
-1447.92 0.209701 0 9.84834
-2012.22 -1.68589 0 59.2071
-1716.56 -0.668129 0 32.9813
-1439.88 0.220509 0 9.73583
-1735.85 -0.679405 0 33.2539
-1726.2 -0.67381 0 33.1188
-2000.97 -1.6863 0 59.0465
-1978.47 -1.68669 0 58.7169
-1415.75 0.253156 0 9.38596
-1431.83 0.231353 0 9.62125
-1989.72 -1.68657 0 58.8831
-1697.26 -0.656508 0 32.6988
-1423.79 0.242236 0 9.50463
-1716.56 -0.668129 0 32.9813
-1706.91 -0.662361 0 32.8412
-1978.47 -1.68669 0 58.7169
-1955.97 -1.68653 0 58.3759
-1399.66 0.275109 0 9.14258
-1415.75 0.253156 0 9.38596
-1967.22 -1.68668 0 58.5478
-1677.97 -0.644542 0 32.4066
-1407.71 0.264114 0 9.26528
-1697.26 -0.656508 0 32.6988
-1687.62 -0.650568 0 32.5539
-1955.97 -1.68653 0 58.3759
-1933.47 -1.68581 0 58.0237
-1383.58 0.297213 0 8.89119
-1399.66 0.275109 0 9.14258
-1944.72 -1.68624 0 58.2012
-1658.68 -0.632232 0 32.1048
-1391.62 0.286143 0 9.01788
-1677.97 -0.644542 0 32.4066
-1668.32 -0.63843 0 32.2569
-1933.47 -1.68581 0 58.0237
-1910.97 -1.68453 0 57.6605
-1367.49 0.319467 0 8.63188
-1383.58 0.297213 0 8.89119
-1922.22 -1.68524 0 57.8435
-1639.38 -0.619578 0 31.7934
-1375.54 0.308321 0 8.76252
-1658.68 -0.632232 0 32.1048
-1649.03 -0.625948 0 31.9503
-1910.97 -1.68453 0 57.6605
-1888.47 -1.68269 0 57.2863
-1351.41 0.341871 0 8.36475
-1367.49 0.319467 0 8.63188
-1899.72 -1.68368 0 57.4748
-1620.09 -0.60658 0 31.4728
-1359.45 0.33065 0 8.49929
-1639.38 -0.619578 0 31.7934
-1629.74 -0.613122 0 31.6343
-1888.47 -1.68269 0 57.2863
-1865.97 -1.6803 0 56.9013
-1335.33 0.364424 0 8.08989
-1351.41 0.341871 0 8.36475
-1877.22 -1.68157 0 57.0951
-1600.8 -0.593239 0 31.1428
-1343.37 0.353129 0 8.22828
-1620.09 -0.60658 0 31.4728
-1610.44 -0.599952 0 31.3089
-1865.97 -1.6803 0 56.9013
-1843.47 -1.67735 0 56.5056
-1319.24 0.387125 0 7.80739
-1335.33 0.364424 0 8.08989
-1854.72 -1.67889 0 56.7048
-1581.5 -0.579555 0 30.8036
-1327.28 0.375756 0 7.94959
-1600.8 -0.593239 0 31.1428
-1591.15 -0.58644 0 30.9744
-1843.47 -1.67735 0 56.5056
-1820.97 -1.67384 0 56.0993
-1303.16 0.409974 0 7.51734
-1319.24 0.387125 0 7.80739
-1832.22 -1.67566 0 56.3038
-1562.21 -0.565531 0 30.4555
-1311.2 0.398531 0 7.6633
-1581.5 -0.579555 0 30.8036
-1571.86 -0.572585 0 30.6307
-1820.97 -1.67384 0 56.0993
-1798.47 -1.66978 0 55.6826
-1287.07 0.432969 0 7.21983
-1303.16 0.409974 0 7.51734
-1809.72 -1.67188 0 55.8923
-1542.92 -0.551166 0 30.0983
-1295.12 0.421453 0 7.36951
-1562.21 -0.565531 0 30.4555
-1552.56 -0.558391 0 30.278
-1798.47 -1.66978 0 55.6826
-1775.98 -1.66516 0 55.2556
-1270.99 0.45611 0 6.91496
-1287.07 0.432969 0 7.21983
-1787.23 -1.66754 0 55.4704
-1523.63 -0.536463 0 29.7324
-1279.03 0.444521 0 7.06831
-1542.92 -0.551166 0 30.0983
-1533.27 -0.543857 0 29.9164
-1775.98 -1.66516 0 55.2556
-1753.48 -1.66 0 54.8185
-1254.91 0.479394 0 6.60282
-1270.99 0.45611 0 6.91496
-1764.73 -1.66265 0 55.0383
-1504.33 -0.521423 0 29.3577
-1262.95 0.467734 0 6.7598
-1523.63 -0.536463 0 29.7324
-1513.98 -0.528985 0 29.5461
-1753.48 -1.66 0 54.8185
-1730.98 -1.65428 0 54.3713
-1238.82 0.502822 0 6.2835
-1254.91 0.479394 0 6.60282
-1742.23 -1.65721 0 54.5961
-1485.04 -0.506047 0 28.9744
-1246.87 0.49109 0 6.44406
-1504.33 -0.521423 0 29.3577
-1494.69 -0.513777 0 29.1671
-1730.98 -1.65428 0 54.3713
-1708.48 -1.64802 0 53.9141
-1222.74 0.52639 0 5.9571
-1238.82 0.502822 0 6.2835
-1719.73 -1.65122 0 54.1439
-1465.75 -0.490339 0 28.5826
-1230.78 0.514589 0 6.12118
-1485.04 -0.506047 0 28.9744
-1475.4 -0.498235 0 28.7795
-1708.48 -1.64802 0 53.9141
-1685.98 -1.64122 0 53.4472
-1206.66 0.550098 0 5.62369
-1222.74 0.52639 0 5.9571
-1697.23 -1.64469 0 53.6819
-1446.46 -0.474299 0 28.1824
-1214.7 0.538227 0 5.79126
-1465.75 -0.490339 0 28.5826
-1456.1 -0.48236 0 28.3835
-1685.98 -1.64122 0 53.4472
-1663.48 -1.63387 0 52.9706
-1190.58 0.573943 0 5.28338
-1206.66 0.550098 0 5.62369
-1674.73 -1.63761 0 53.2101
-1427.17 -0.457929 0 27.7739
-1198.62 0.562004 0 5.45439
-1446.46 -0.474299 0 28.1824
-1436.81 -0.466155 0 27.9792
-1663.48 -1.63387 0 52.9706
-1640.98 -1.62599 0 52.4845
-1174.49 0.597924 0 4.93626
-1190.58 0.573943 0 5.28338
-1652.23 -1.63 0 52.7288
-1407.88 -0.441233 0 27.3573
-1182.54 0.585917 0 5.11067
-1427.17 -0.457929 0 27.7739
-1417.52 -0.449622 0 27.5666
-1640.98 -1.62599 0 52.4845
-1618.48 -1.61757 0 51.989
-1158.41 0.622039 0 4.58242
-1174.49 0.597924 0 4.93626
-1629.73 -1.62185 0 52.2379
-1388.58 -0.424213 0 26.9326
-1166.45 0.609965 0 4.76017
-1407.88 -0.441233 0 27.3573
-1398.23 -0.432764 0 27.1459
-1618.48 -1.61757 0 51.989
-1595.99 -1.60862 0 51.4842
-1142.33 0.646284 0 4.22195
-1158.41 0.622039 0 4.58242
-1607.24 -1.61316 0 51.7378
-1369.29 -0.406871 0 26.4999
-1150.37 0.634145 0 4.40301
-1388.58 -0.424213 0 26.9326
-1378.94 -0.415582 0 26.7172
-1595.99 -1.60862 0 51.4842
-1573.49 -1.59913 0 50.9703
-1126.25 0.670658 0 3.85494
-1142.33 0.646284 0 4.22195
-1584.74 -1.60394 0 51.2284
-1350 -0.38921 0 26.0594
-1134.29 0.658455 0 4.03926
-1369.29 -0.406871 0 26.4999
-1359.65 -0.39808 0 26.2806
-1573.49 -1.59913 0 50.9703
-1550.99 -1.58913 0 50.4474
-1110.17 0.695159 0 3.48149
-1126.25 0.670658 0 3.85494
-1562.24 -1.5942 0 50.71
-1330.71 -0.371234 0 25.6112
-1118.21 0.682893 0 3.66902
-1350 -0.38921 0 26.0594
-1340.36 -0.380262 0 25.8362
-1550.99 -1.58913 0 50.4474
-1528.49 -1.5786 0 49.9155
-1094.09 0.719783 0 3.10169
-1110.17 0.695159 0 3.48149
-1539.74 -1.58393 0 50.1826
-1311.42 -0.352945 0 25.1553
-1102.13 0.707456 0 3.29238
-1330.71 -0.371234 0 25.6112
-1321.07 -0.362128 0 25.3842
-1528.49 -1.5786 0 49.9155
-1505.99 -1.56755 0 49.375
-1078.01 0.744529 0 2.71562
-1094.09 0.719783 0 3.10169
-1517.24 -1.57314 0 49.6463
-1292.13 -0.334346 0 24.6919
-1086.05 0.732141 0 2.90943
-1311.42 -0.352945 0 25.1553
-1301.78 -0.343684 0 24.9246
-1505.99 -1.56755 0 49.375
-1483.5 -1.55598 0 48.8257
-1061.93 0.769393 0 2.32339
-1078.01 0.744529 0 2.71562
-1494.74 -1.56183 0 49.1014
-1272.84 -0.315442 0 24.2212
-1069.97 0.756946 0 2.52027
-1292.13 -0.334346 0 24.6919
-1282.49 -0.324932 0 24.4575
-1483.5 -1.55598 0 48.8257
-1461 -1.54391 0 48.268
-1045.84 0.794372 0 1.92508
-1061.93 0.769393 0 2.32339
-1472.25 -1.55001 0 48.5479
-1253.55 -0.296235 0 23.7431
-1053.88 0.781868 0 2.12499
-1272.84 -0.315442 0 24.2212
-1263.2 -0.305876 0 23.9831
-1461 -1.54391 0 48.268
-1438.5 -1.53133 0 47.7019
-1029.76 0.819463 0 1.52078
-1045.84 0.794372 0 1.92508
-1449.75 -1.53768 0 47.986
-1234.26 -0.276729 0 23.2579
-1037.8 0.806903 0 1.72367
-1253.55 -0.296235 0 23.7431
-1243.91 -0.286519 0 23.5014
-1438.5 -1.53133 0 47.7019
-1416 -1.51825 0 47.1276
-1013.68 0.844663 0 1.11059
-1029.76 0.819463 0 1.52078
-1427.25 -1.52485 0 47.4158
-1214.97 -0.256928 0 22.7656
-1021.72 0.832049 0 1.31642
-1234.26 -0.276729 0 23.2579
-1224.62 -0.266865 0 23.0126
-1416 -1.51825 0 47.1276
-1393.5 -1.50467 0 46.5451
-997.604 0.869968 0 0.694599
-1013.68 0.844663 0 1.11059
-1404.75 -1.51152 0 46.8374
-1195.68 -0.236837 0 22.2663
-1005.64 0.857303 0 0.903315
-1214.97 -0.256928 0 22.7656
-1205.33 -0.246919 0 22.5168
-1393.5 -1.50467 0 46.5451
-1371 -1.4906 0 45.9547
-981.524 0.895376 0 0.272898
-997.604 0.869968 0 0.694599
-1382.25 -1.4977 0 46.2509
-1176.39 -0.216458 0 21.7602
-989.564 0.88266 0 0.484456
-1195.68 -0.236837 0 22.2663
-1186.04 -0.226683 0 22.0141
-1371 -1.4906 0 45.9547
-1348.51 -1.47604 0 45.3564
-965.444 0.920883 0 -0.154422
-981.524 0.895376 0 0.272898
-1359.76 -1.48338 0 45.6565
-1157.1 -0.195797 0 21.2474
-973.484 0.908118 0 0.0599344
-1176.39 -0.216458 0 21.7602
-1166.75 -0.206163 0 21.5047
-1348.51 -1.47604 0 45.3564
-1326.01 -1.461 0 44.7504
-949.365 0.946485 0 -0.587267
-965.444 0.920883 0 -0.154422
-1337.26 -1.46858 0 45.0544
-1137.81 -0.174857 0 20.7279
-957.405 0.933672 0 -0.37016
-1157.1 -0.195797 0 21.2474
-1147.46 -0.185362 0 20.9885
-1326.01 -1.461 0 44.7504
-1303.51 -1.44549 0 44.1368
-933.285 0.972178 0 -1.02555
-949.365 0.946485 0 -0.587267
-1314.76 -1.4533 0 44.4445
-1118.52 -0.153644 0 20.2019
-941.325 0.959321 0 -0.805734
-1137.81 -0.174857 0 20.7279
-1128.17 -0.164284 0 20.4657
-1303.51 -1.44549 0 44.1368
-1281.01 -1.4295 0 43.5157
-917.206 0.997959 0 -1.46917
-933.285 0.972178 0 -1.02555
-1292.26 -1.43755 0 43.8271
-1099.23 -0.132161 0 19.6695
-925.246 0.985058 0 -1.2467
-1118.52 -0.153644 0 20.2019
-1108.88 -0.142936 0 19.9365
-1281.01 -1.4295 0 43.5157
-1258.51 -1.41304 0 42.8872
-901.127 1.02382 0 -1.91804
-917.206 0.997959 0 -1.46917
-1269.76 -1.42133 0 43.2023
-1079.94 -0.110414 0 19.1308
-909.167 1.01088 0 -1.69296
-1099.23 -0.132161 0 19.6695
-1089.59 -0.12132 0 19.401
-1258.51 -1.41304 0 42.8872
-1236.02 -1.39613 0 42.2515
-885.048 1.04977 0 -2.37207
-901.127 1.02382 0 -1.91804
-1247.27 -1.40464 0 42.5703
-1060.65 -0.0884067 0 18.586
-893.088 1.03679 0 -2.14442
-1079.94 -0.110414 0 19.1308
-1070.3 -0.0994423 0 18.8592
-1236.02 -1.39613 0 42.2515
-1213.52 -1.37876 0 41.6088
-868.969 1.07579 0 -2.83117
-885.048 1.04977 0 -2.37207
-1224.77 -1.3875 0 41.9311
-1041.36 -0.0661449 0 18.035
-877.009 1.06277 0 -2.601
-1060.65 -0.0884067 0 18.586
-1051.01 -0.0773073 0 18.3112
-1213.52 -1.37876 0 41.6088
-1191.02 -1.36094 0 40.9591
-852.891 1.10188 0 -3.29525
-868.969 1.07579 0 -2.83117
-1202.27 -1.3699 0 41.2848
-1022.08 -0.0436334 0 17.4781
-860.93 1.08882 0 -3.06259
-1041.36 -0.0661449 0 18.035
-1031.72 -0.05492 0 17.7573
-1191.02 -1.36094 0 40.9591
-1168.52 -1.34268 0 40.3026
-836.812 1.12804 0 -3.7642
-852.891 1.10188 0 -3.29525
-1179.77 -1.35186 0 40.6317
-1002.79 -0.0208774 0 16.9153
-844.851 1.11495 0 -3.52912
-1022.08 -0.0436334 0 17.4781
-1012.43 -0.0322857 0 17.1974
-1168.52 -1.34268 0 40.3026
-1146.02 -1.32398 0 39.6393
-820.734 1.15426 0 -4.23795
-836.812 1.12804 0 -3.7642
-1157.27 -1.33338 0 39.9718
-983.497 0.00211774 0 16.3468
-828.773 1.14114 0 -4.00048
-1002.79 -0.0208774 0 16.9153
-993.142 -0.0094094 0 16.6317
-1146.02 -1.32398 0 39.6393
-1123.53 -1.30485 0 38.9695
-804.655 1.18053 0 -4.7164
-820.734 1.15426 0 -4.23795
-1134.77 -1.31447 0 39.3052
-964.208 0.0253468 0 15.7726
-812.694 1.16739 0 -4.47659
-983.497 0.00211774 0 16.3468
-973.853 0.0137033 0 16.0604
-1123.53 -1.30485 0 38.9695
-1101.03 -1.2853 0 38.2933
-788.577 1.20687 0 -5.19945
-804.655 1.18053 0 -4.7164
-1112.28 -1.29512 0 38.6322
-944.919 0.0488041 0 15.1929
-796.616 1.19369 0 -4.95736
-964.208 0.0253468 0 15.7726
-954.564 0.0370473 0 15.4834
-1101.03 -1.2853 0 38.2933
-1078.53 -1.26532 0 37.6107
-772.499 1.23325 0 -5.68703
-788.577 1.20687 0 -5.19945
-1089.78 -1.27536 0 37.9528
-925.63 0.072484 0 14.6078
-780.538 1.22005 0 -5.44268
-944.919 0.0488041 0 15.1929
-935.275 0.0606165 0 14.901
-1078.53 -1.26532 0 37.6107
-1056.03 -1.24494 0 36.9219
-756.421 1.25967 0 -6.17902
-772.499 1.23325 0 -5.68703
-1067.28 -1.25519 0 37.2671
-906.341 0.096381 0 14.0174
-764.46 1.24645 0 -5.93248
-925.63 0.072484 0 14.6078
-915.986 0.0844058 0 14.3132
-1056.03 -1.24494 0 36.9219
-1033.53 -1.22416 0 36.2271
-740.343 1.28613 0 -6.67535
-756.421 1.25967 0 -6.17902
-1044.78 -1.2346 0 36.5753
-887.052 0.120489 0 13.4218
-748.382 1.2729 0 -6.42665
-906.341 0.096381 0 14.0174
-896.697 0.108409 0 13.7202
-1033.53 -1.22416 0 36.2271
-1011.03 -1.20298 0 35.5264
-724.265 1.31263 0 -7.17592
-740.343 1.28613 0 -6.67535
-1022.28 -1.21362 0 35.8775
-867.763 0.144802 0 12.8211
-732.304 1.29938 0 -6.92511
-887.052 0.120489 0 13.4218
-877.408 0.13262 0 13.1221
-1011.03 -1.20298 0 35.5264
-988.533 -1.18141 0 34.8198
-708.187 1.33916 0 -7.68064
-724.265 1.31263 0 -7.17592
-999.783 -1.19224 0 35.1738
-848.475 0.169315 0 12.2154
-716.226 1.32589 0 -7.42776
-867.763 0.144802 0 12.8211
-858.119 0.157034 0 12.5189
-988.533 -1.18141 0 34.8198
-966.034 -1.15945 0 34.1076
-692.11 1.36571 0 -8.18941
-708.187 1.33916 0 -7.68064
-977.284 -1.17048 0 34.4644
-829.186 0.194021 0 11.6049
-700.149 1.35243 0 -7.93452
-848.475 0.169315 0 12.2154
-838.83 0.181644 0 11.9107
-966.034 -1.15945 0 34.1076
-943.535 -1.13712 0 33.3899
-676.032 1.39228 0 -8.70215
-692.11 1.36571 0 -8.18941
-954.785 -1.14833 0 33.7494
-809.897 0.218913 0 10.9896
-684.071 1.37899 0 -8.44529
-829.186 0.194021 0 11.6049
-819.541 0.206444 0 11.2978
-943.535 -1.13712 0 33.3899
-921.036 -1.11442 0 32.6667
-659.955 1.41886 0 -9.21876
-676.032 1.39228 0 -8.70215
-932.285 -1.12582 0 33.0289
-790.608 0.243986 0 10.3697
-667.993 1.40557 0 -8.95998
-809.897 0.218913 0 10.9896
-800.252 0.231428 0 10.6802
-921.036 -1.11442 0 32.6667
-898.536 -1.09136 0 31.9382
-643.877 1.44545 0 -9.73916
-659.955 1.41886 0 -9.21876
-909.786 -1.10294 0 32.3031
-771.319 0.269234 0 9.74519
-651.916 1.43216 0 -9.47849
-790.608 0.243986 0 10.3697
-780.963 0.256589 0 10.058
-898.536 -1.09136 0 31.9382
-876.037 -1.06795 0 31.2046
-627.8 1.47205 0 -10.2632
-643.877 1.44545 0 -9.73916
-887.286 -1.0797 0 31.572
-752.03 0.294649 0 9.11629
-635.838 1.45875 0 -10.0007
-771.319 0.269234 0 9.74519
-761.674 0.281921 0 9.43129
-876.037 -1.06795 0 31.2046
-853.537 -1.04419 0 30.4659
-611.722 1.49864 0 -10.7909
-627.8 1.47205 0 -10.2632
-864.787 -1.05612 0 30.8359
-732.74 0.320225 0 8.48309
-619.761 1.48534 0 -10.5266
-752.03 0.294649 0 9.11629
-742.385 0.307417 0 8.80022
-853.537 -1.04419 0 30.4659
-831.037 -1.0201 0 29.7224
-595.645 1.52522 0 -11.3221
-611.722 1.49864 0 -10.7909
-842.287 -1.03219 0 30.0947
-713.451 0.345956 0 7.84567
-603.683 1.51193 0 -11.0561
-732.74 0.320225 0 8.48309
-723.096 0.333072 0 8.1649
-831.037 -1.0201 0 29.7224
-808.537 -0.995671 0 28.974
-579.567 1.55179 0 -11.8567
-595.645 1.52522 0 -11.3221
-819.787 -1.00792 0 29.3488
-694.162 0.371835 0 7.20417
-587.606 1.53851 0 -11.589
-713.451 0.345956 0 7.84567
-703.807 0.358878 0 7.52543
-808.537 -0.995671 0 28.974
-786.036 -0.970922 0 28.2211
-563.49 1.57834 0 -12.3946
-579.567 1.55179 0 -11.8567
-797.287 -0.983336 0 28.5981
-674.873 0.397855 0 6.55868
-571.529 1.56507 0 -12.1253
-694.162 0.371835 0 7.20417
-684.517 0.384828 0 6.88192
-786.036 -0.970922 0 28.2211
-763.536 -0.945859 0 27.4636
-547.413 1.60487 0 -12.9358
-563.49 1.57834 0 -12.3946
-774.786 -0.95843 0 27.8429
-655.583 0.424009 0 5.90932
-555.451 1.59161 0 -12.6648
-674.873 0.397855 0 6.55868
-665.228 0.410916 0 6.23448
-763.536 -0.945859 0 27.4636
-741.035 -0.920491 0 26.7017
-531.335 1.63136 0 -13.4801
-547.413 1.60487 0 -12.9358
-752.286 -0.933213 0 27.0832
-636.294 0.45029 0 5.25619
-539.374 1.61812 0 -13.2076
-655.583 0.424009 0 5.90932
-645.939 0.437134 0 5.58322
-741.035 -0.920491 0 26.7017
-718.534 -0.894824 0 25.9355
-515.258 1.65782 0 -14.0274
-531.335 1.63136 0 -13.4801
-729.785 -0.907694 0 26.3191
-617.004 0.476692 0 4.59941
-523.297 1.6446 0 -13.7534
-636.294 0.45029 0 5.25619
-626.649 0.463476 0 4.92825
-718.534 -0.894824 0 25.9355
-696.033 -0.868867 0 25.1653
-499.181 1.68423 0 -14.5777
-515.258 1.65782 0 -14.0274
-707.284 -0.881881 0 25.5509
-597.715 0.503206 0 3.93909
-507.219 1.67103 0 -14.3022
-617.004 0.476692 0 4.59941
-607.359 0.489935 0 4.26969
-696.033 -0.868867 0 25.1653
-673.532 -0.842629 0 24.391
-483.104 1.71059 0 -15.1309
-499.181 1.68423 0 -14.5777
-684.782 -0.855783 0 24.7786
-578.425 0.529825 0 3.27534
-491.142 1.69742 0 -14.8539
-597.715 0.503206 0 3.93909
-588.07 0.516503 0 3.60764
-673.532 -0.842629 0 24.391
-651.03 -0.816119 0 23.6128
-467.026 1.7369 0 -15.6868
-483.104 1.71059 0 -15.1309
-662.281 -0.829408 0 24.0024
-559.135 0.556543 0 2.60827
-475.065 1.72376 0 -15.4085
-578.425 0.529825 0 3.27534
-568.78 0.543172 0 2.94221
-651.03 -0.816119 0 23.6128
-628.528 -0.789343 0 22.831
-450.949 1.76314 0 -16.2454
-467.026 1.7369 0 -15.6868
-639.779 -0.802763 0 23.2224
-539.845 0.583351 0 1.93799
-458.988 1.75003 0 -15.9658
-559.135 0.556543 0 2.60827
-549.49 0.569936 0 2.27353
-628.528 -0.789343 0 22.831
-606.026 -0.762312 0 22.0454
-434.871 1.78931 0 -16.8066
-450.949 1.76314 0 -16.2454
-617.277 -0.775859 0 22.4386
-520.555 0.610242 0 1.26462
-442.91 1.77624 0 -16.5257
-539.845 0.583351 0 1.93799
-530.2 0.596786 0 1.60169
-606.026 -0.762312 0 22.0454
-583.523 -0.735033 0 21.2564
-418.794 1.81541 0 -17.3702
-434.871 1.78931 0 -16.8066
-594.775 -0.748703 0 21.6514
-501.265 0.637208 0 0.588261
-426.833 1.80237 0 -17.0881
-520.555 0.610242 0 1.26462
-510.91 0.623716 0 0.926806
-583.523 -0.735033 0 21.2564
-561.021 -0.707515 0 20.4641
-402.717 1.84142 0 -17.9363
-418.794 1.81541 0 -17.3702
-572.272 -0.721303 0 20.8607
-481.974 0.664243 0 -0.0909684
-410.755 1.82843 0 -17.6529
-501.265 0.637208 0 0.588261
-491.619 0.650717 0 0.248998
-561.021 -0.707515 0 20.4641
-538.518 -0.679767 0 19.6685
-386.639 1.86735 0 -18.5046
-402.717 1.84142 0 -17.9363
-549.769 -0.693669 0 20.0667
-462.684 0.691338 0 -0.772959
-394.678 1.8544 0 -18.2201
-481.974 0.664243 0 -0.0909684
-472.329 0.677783 0 -0.431625
-538.518 -0.679767 0 19.6685
-516.015 -0.6518 0 18.8698
-370.562 1.8932 0 -19.0751
-386.639 1.86735 0 -18.5046
-527.266 -0.665811 0 19.2695
-443.393 0.71849 0 -1.4576
-378.6 1.88029 0 -18.7896
-462.684 0.691338 0 -0.772959
-453.038 0.704908 0 -1.11496
-516.015 -0.6518 0 18.8698
-493.511 -0.623619 0 18.0682
-354.484 1.91896 0 -19.6478
-370.562 1.8932 0 -19.0751
-504.763 -0.637735 0 18.4694
-424.102 0.745694 0 -2.1448
-362.523 1.90609 0 -19.3612
-443.393 0.71849 0 -1.4576
-433.748 0.732086 0 -1.80089
-493.511 -0.623619 0 18.0682
-471.008 -0.59524 0 17.2637
-338.407 1.94466 0 -20.2226
-354.484 1.91896 0 -19.6478
-482.26 -0.609454 0 17.6663
-404.811 0.772949 0 -2.83445
-346.445 1.93182 0 -19.9349
-424.102 0.745694 0 -2.1448
-414.457 0.759315 0 -2.48932
-471.008 -0.59524 0 17.2637
-448.504 -0.566667 0 16.4565
-322.329 1.97031 0 -20.7993
-338.407 1.94466 0 -20.2226
-459.756 -0.580976 0 16.8604
-385.52 0.800258 0 -3.52649
-330.368 1.95749 0 -20.5107
-404.811 0.772949 0 -2.83445
-395.166 0.786597 0 -3.18018
-448.504 -0.566667 0 16.4565
-425.999 -0.537923 0 15.6467
-306.251 1.99593 0 -21.378
-322.329 1.97031 0 -20.7993
-437.252 -0.552315 0 16.0519
-366.229 0.827629 0 -4.22084
-314.29 1.98312 0 -21.0884
-385.52 0.800258 0 -3.52649
-375.875 0.813934 0 -3.87338
-425.999 -0.537923 0 15.6467
-403.494 -0.509011 0 14.8344
-290.173 2.02154 0 -21.9587
-306.251 1.99593 0 -21.378
-414.747 -0.523489 0 15.2408
-346.937 0.855065 0 -4.91748
-298.212 2.00874 0 -21.6681
-366.229 0.827629 0 -4.22084
-356.583 0.84134 0 -4.56888
-403.494 -0.509011 0 14.8344
-380.988 -0.479958 0 14.0198
-274.096 2.04707 0 -22.5413
-290.173 2.02154 0 -21.9587
-392.242 -0.494492 0 14.4274
-327.645 0.882573 0 -5.61633
-282.135 2.03433 0 -22.2498
-346.937 0.855065 0 -4.91748
-337.291 0.868807 0 -5.26663
-380.988 -0.479958 0 14.0198
-358.481 -0.450808 0 13.2029
-258.018 2.07233 0 -23.1257
-274.096 2.04707 0 -22.5413
-369.735 -0.465422 0 13.6116
-308.352 0.910079 0 -6.31734
-266.057 2.05975 0 -22.8333
-327.645 0.882573 0 -5.61633
-317.999 0.896338 0 -5.96658
-358.481 -0.450808 0 13.2029
-335.971 -0.42143 0 12.3838
-241.94 2.09666 0 -23.7113
-258.018 2.07233 0 -23.1257
-347.226 -0.436075 0 12.7936
-289.059 0.937493 0 -7.02008
-249.979 2.08469 0 -23.4184
-308.352 0.910079 0 -6.31734
-298.705 0.923798 0 -6.66852
-335.971 -0.42143 0 12.3838
-313.46 -0.392318 0 11.5625
-225.863 2.11877 0 -24.2969
-241.94 2.09666 0 -23.7113
-324.716 -0.407039 0 11.9736
-269.766 0.964265 0 -7.72379
-233.901 2.10811 0 -24.0042
-289.059 0.937493 0 -7.02008
-279.412 0.951027 0 -7.37191
-313.46 -0.392318 0 11.5625
-290.946 -0.361942 0 10.7395
-209.786 2.13535 0 -24.879
-225.863 2.11877 0 -24.2969
-302.203 -0.37685 0 11.151
-250.474 0.989761 0 -8.42595
-217.824 2.12809 0 -24.5887
-269.766 0.964265 0 -7.72379
-260.12 0.977182 0 -8.07524
-290.946 -0.361942 0 10.7395
-268.44 -0.333956 0 9.91356
-193.71 2.14117 0 -25.4519
-209.786 2.13535 0 -24.879
-279.691 -0.348837 0 10.3275
-231.191 1.01139 0 -9.12219
-201.748 2.1401 0 -25.1671
-250.474 0.989761 0 -8.42595
-240.83 1.00139 0 -8.77539
-268.44 -0.333956 0 9.91356
-245.944 -0.297966 0 9.08809
-177.637 2.1233 0 -26.0006
-193.71 2.14117 0 -25.4519
-257.19 -0.314465 0 9.49961
-211.923 1.0264 0 -9.80127
-185.672 2.1363 0 -25.7308
-231.191 1.01139 0 -9.12219
-221.555 1.01965 0 -9.46451
-245.944 -0.297966 0 9.08809
-223.515 -0.276364 0 8.25626
-161.557 2.06667 0 -26.5051
-177.637 2.1233 0 -26.0006
-234.716 -0.291836 0 8.67526
-192.701 1.02524 0 -10.4448
-169.6 2.10152 0 -26.2599
-211.923 1.0264 0 -9.80127
-202.302 1.02938 0 -10.1301
-223.515 -0.276364 0 8.25626
-201.173 -0.210084 0 7.43645
-145.484 1.92885 0 -26.9145
-161.557 2.06667 0 -26.5051
-212.331 -0.235234 0 7.8397
-173.55 0.998472 0 -11.0142
-153.516 2.01037 0 -26.7269
-192.701 1.02524 0 -10.4448
-183.117 1.01383 0 -10.74
-201.173 -0.210084 0 7.43645
-179.171 -0.220932 0 6.59604
-129.353 1.68644 0 -27.1795
-145.484 1.92885 0 -26.9145
-190.11 -0.239432 0 7.02835
-154.581 0.917111 0 -11.4457
-137.437 1.82591 0 -27.068
-173.55 0.998472 0 -11.0142
-164.029 0.97174 0 -11.2582
-179.171 -0.220932 0 6.59604
-157.557 -0.00505281 0 5.81925
-113.207 1.21947 0 -27.1667
-129.353 1.68644 0 -27.1795
-168.306 -0.0706776 0 6.17633
-135.846 0.753451 0 -11.6402
-121.269 1.4813 0 -27.2216
-154.581 0.917111 0 -11.4457
-145.194 0.836236 0 -11.57
-157.557 -0.00505281 0 5.81925
-137.277 -0.169571 0 4.96448
-96.7168 0.598005 0 -26.8335
-113.207 1.21947 0 -27.1667
-147.192 -0.207613 0 5.44475
-117.683 0.436687 0 -11.4076
-105.053 0.943451 0 -27.0382
-135.846 0.753451 0 -11.6402
-126.639 0.646311 0 -11.621
-137.277 -0.169571 0 4.96448
-118.367 0.738822 0 4.3781
-79.9664 -0.449188 0 -25.9806
-96.7168 0.598005 0 -26.8335
-127.597 0.503506 0 4.52685
-99.9985 -0.0969183 0 -10.6222
-88.3328 0.0873099 0 -26.4932
-117.683 0.436687 0 -11.4076
-108.853 0.143875 0 -11.0391
-118.367 0.738822 0 4.3781
-103.827 -0.126529 0 3.51713
-61.5315 -0.971529 0 -25.0588
-79.9664 -0.449188 0 -25.9806
-110.468 -0.277967 0 4.18722
-83.6495 -0.954851 0 -8.84096
-71.1469 -0.740452 0 -25.4724
-99.9985 -0.0969183 0 -10.6222
-91.464 -0.353035 0 -10.0179
-103.827 -0.126529 0 3.51713
-93.9396 3.34484 0 4.15387
-41.6025 -0.924462 0 -24.7723
-61.5315 -0.971529 0 -25.0588
-97.8526 2.83786 0 3.01293
-66.6455 -2.06634 0 -6.89409
-51.637 -1.39422 0 -24.7473
-83.6495 -0.954851 0 -8.84096
-75.6982 -1.73325 0 -7.55139
-93.9396 3.34484 0 4.15387
-100.644 -3.47726 0 6.82951
-16.5169 7.57437 0 -29.7859
-41.6025 -0.924462 0 -24.7723
-95.273 -2.37858 0 5.74394
-48.1134 -1.6166 0 -6.00758
-30.1784 2.00094 0 -26.1418
-66.6455 -2.06634 0 -6.89409
-57.1956 -1.90683 0 -6.66102
-100.644 -3.47726 0 6.82951
-138.708 -17.0784 0 29.4112
2.80453 41.3349 0 -45.1731
-16.5169 7.57437 0 -29.7859
-110.98 3.96627 0 11.0063
-5.19428 23.3843 0 -26.1219
-5.11586 16.5772 0 -35.5806
-48.1134 -1.6166 0 -6.00758
-33.4993 2.76431 0 -10.1182
-138.708 -17.0784 0 29.4112
-22.0468 215.449 0 -118.41
-3.56975 163.158 0 -40.6814
2.80453 41.3349 0 -45.1731
-144.972 -37.257 0 14.5916
12.3354 207.458 0 -68.1051
5.34468 92.1589 0 -51.5236
-5.19428 23.3843 0 -26.1219
13.5827 73.2053 0 -47.8557
-2969.22 -893.146 0 -117.856
-3143.13 -340.667 0 -171.943
-1862 -326.966 0 -4.4035
-1715.02 -515.247 0 157.643
-3084.66 -642.057 0 -200.487
-2463.29 -376.145 0 -70.7973
-1814.86 -414.637 0 59.7054
-2432.7 -731.43 0 25.471
-2407.16 -521.743 0 -22.0816
-3143.13 -340.667 0 -171.943
-3189.68 -102.357 0 -79.6659
-1897.09 -144.555 0 -54.2775
-1862 -326.966 0 -4.4035
-3187.13 -175.647 0 -122.78
-2550.85 -148.283 0 -81.8725
-1877.65 -229.049 0 -36.6797
-2463.29 -376.145 0 -70.7973
-2531.02 -253.63 0 -92.7729
-3189.68 -102.357 0 -79.6659
-3149.43 -19.8192 0 -26.8026
-1914.98 -52.7727 0 -63.2905
-1897.09 -144.555 0 -54.2775
-3165.5 -51.2589 0 -45.094
-2544.61 -44.6742 0 -53.3644
-1914.22 -89.35 0 -62.741
-2550.85 -148.283 0 -81.8725
-2549.45 -81.371 0 -63.7921
-3149.43 -19.8192 0 -26.8026
-3121.95 -2.11042 0 -14.3651
-1900.42 -10.3991 0 -57.7108
-1914.98 -52.7727 0 -63.2905
-3137.25 -6.89572 0 -18.5956
-2520.37 -5.10354 0 -39.034
-1907.02 -26.5004 0 -60.1978
-2544.61 -44.6742 0 -53.3644
-2534.21 -20.4871 0 -45.6852
-3121.95 -2.11042 0 -14.3651
-3094.47 4.46057 0 -12.9218
-1883.4 1.81276 0 -53.7667
-1900.42 -10.3991 0 -57.7108
-3105.98 2.13638 0 -12.5035
-2494.4 4.3664 0 -34.0445
-1893.32 -2.24524 0 -55.7485
-2520.37 -5.10354 0 -39.034
-2506.26 2.1934 0 -35.1226
-3094.47 4.46057 0 -12.9218
-3075.48 3.27031 0 -15.8725
-1863.79 4.71424 0 -50.9392
-1883.4 1.81276 0 -53.7667
-3085.27 4.20749 0 -14.5044
-2472.8 5.50614 0 -33.594
-1872.65 4.14587 0 -52.0037
-2494.4 4.3664 0 -34.0445
-2483.37 5.29505 0 -33.8106
-3075.48 3.27031 0 -15.8725
-3057.11 2.09751 0 -18.1583
-1847.97 3.12636 0 -49.6621
-1863.79 4.71424 0 -50.9392
-3065.73 2.71407 0 -17.0224
-2454.31 3.42262 0 -34.2795
-1855.9 4.08852 0 -50.2693
-2472.8 5.50614 0 -33.594
-2463.07 4.7148 0 -33.7707
-3057.11 2.09751 0 -18.1583
-3040.77 0.517793 0 -19.8185
-1833.71 1.25893 0 -48.7636
-1847.97 3.12636 0 -49.6621
-3049.04 1.25537 0 -19.167
-2438.29 1.42324 0 -34.9433
-1840.4 2.21842 0 -49.1352
-2454.31 3.42262 0 -34.2795
-2446.12 2.32264 0 -34.7133
-3040.77 0.517793 0 -19.8185
-3024.42 -0.429614 0 -20.4196
-1821.61 -0.471799 0 -48.1674
-1833.71 1.25893 0 -48.7636
-3032.48 -0.00187654 0 -20.199
-2423.67 -0.212845 0 -35.221
-1827.58 0.313731 0 -48.469
-2438.29 1.42324 0 -34.9433
-2430.82 0.559739 0 -35.109
-3024.42 -0.429614 0 -20.4196
-3008.43 -1.09664 0 -20.4243
-1810.44 -1.57818 0 -47.5913
-1821.61 -0.471799 0 -48.1674
-3016.46 -0.809454 0 -20.5017
-2409.9 -1.23333 0 -35.1119
-1815.87 -1.08123 0 -47.8687
-2423.67 -0.212845 0 -35.221
-2416.72 -0.799592 0 -35.222
-3008.43 -1.09664 0 -20.4243
-2992.37 -1.446 0 -19.9633
-1800.05 -2.27512 0 -47.0427
-1810.44 -1.57818 0 -47.5913
-3000.38 -1.29651 0 -20.2302
-2396.59 -1.8504 0 -34.7264
-1805.2 -1.98006 0 -47.3214
-2409.9 -1.23333 0 -35.1119
-2403.2 -1.58115 0 -34.9419
-2992.37 -1.446 0 -19.9633
-2976.36 -1.63652 0 -19.2703
-1789.99 -2.63297 0 -46.4793
-1800.05 -2.27512 0 -47.0427
-2984.38 -1.55994 0 -19.6419
-2383.52 -2.16668 0 -34.162
-1794.97 -2.48375 0 -46.7603
-2396.59 -1.8504 0 -34.7264
-2390.04 -2.03961 0 -34.4635
-2976.36 -1.63652 0 -19.2703
-2960.3 -1.71398 0 -18.4372
-1780.16 -2.80134 0 -45.9155
-1789.99 -2.63297 0 -46.4793
-2968.33 -1.68425 0 -18.8639
-2370.56 -2.31325 0 -33.5005
-1785.06 -2.73757 0 -46.1985
-2383.52 -2.16668 0 -34.162
-2377.03 -2.25547 0 -33.8387
-2960.3 -1.71398 0 -18.4372
-2944.24 -1.73648 0 -17.547
-1770.41 -2.8491 0 -45.35
-1780.16 -2.80134 0 -45.9155
-2952.28 -1.73088 0 -17.9972
-2357.65 -2.35757 0 -32.79
-1775.28 -2.83539 0 -45.6322
-2370.56 -2.31325 0 -33.5005
-2364.1 -2.34505 0 -33.1495
-2944.24 -1.73648 0 -17.547
-2928.17 -1.72705 0 -16.6336
-1760.72 -2.83628 0 -44.7897
-1770.41 -2.8491 0 -45.35
-2936.21 -1.7342 0 -17.0911
-2344.77 -2.35006 0 -32.0618
-1765.57 -2.8486 0 -45.0692
-2357.65 -2.35757 0 -32.79
-2351.21 -2.35827 0 -32.4266
-2928.17 -1.72705 0 -16.6336
-2912.1 -1.70361 0 -15.7206
-1751.05 -2.79061 0 -44.2363
-1760.72 -2.83628 0 -44.7897
-2920.13 -1.71662 0 -16.1764
-2331.89 -2.31567 0 -31.332
-1755.88 -2.81603 0 -44.5119
-2344.77 -2.35006 0 -32.0618
-2338.33 -2.33519 0 -31.6965
-2912.1 -1.70361 0 -15.7206
-2896.02 -1.67351 0 -14.817
-1741.38 -2.73069 0 -43.692
-1751.05 -2.79061 0 -44.2363
-2904.06 -1.68899 0 -15.2671
-2319.01 -2.26959 0 -30.6094
-1746.21 -2.7619 0 -43.963
-2331.89 -2.31567 0 -31.332
-2325.45 -2.29353 0 -30.9694
-2896.02 -1.67351 0 -14.817
-2879.94 -1.64133 0 -13.9281
-1731.71 -2.66461 0 -43.1576
-1741.38 -2.73069 0 -43.692
-2887.98 -1.65756 0 -14.3706
-2306.14 -2.21875 0 -29.8979
-1736.54 -2.69804 0 -43.4235
-2319.01 -2.26959 0 -30.6094
-2312.58 -2.2445 0 -30.2522
-2879.94 -1.64133 0 -13.9281
-2863.85 -1.6088 0 -13.0555
-1722.04 -2.59693 0 -42.6334
-1731.71 -2.66461 0 -43.1576
-2871.89 -1.62503 0 -13.4897
-2293.26 -2.16678 0 -29.1994
-1726.88 -2.63085 0 -42.8942
-2306.14 -2.21875 0 -29.8979
-2299.7 -2.19279 0 -29.547
-2863.85 -1.6088 0 -13.0555
-2847.77 -1.57681 0 -12.1998
-1712.38 -2.52935 0 -42.1193
-1722.04 -2.59693 0 -42.6334
-2855.81 -1.59273 0 -12.6255
-2280.39 -2.11509 0 -28.5143
-1717.21 -2.56306 0 -42.3751
-2293.26 -2.16678 0 -29.1994
-2286.82 -2.14086 0 -28.8552
-2847.77 -1.57681 0 -12.1998
-2831.69 -1.54559 0 -11.361
-1702.71 -2.46265 0 -41.6154
-1712.38 -2.52935 0 -42.1193
-2839.73 -1.5611 0 -11.7783
-2267.51 -2.06423 0 -27.8428
-1707.54 -2.49588 0 -41.8661
-2280.39 -2.11509 0 -28.5143
-2273.95 -2.08954 0 -28.1769
-2831.69 -1.54559 0 -11.361
-2815.6 -1.51519 0 -10.5388
-1693.04 -2.39696 0 -41.1215
-1702.71 -2.46265 0 -41.6154
-2823.65 -1.53029 0 -10.9478
-2254.63 -2.01432 0 -27.1846
-1697.87 -2.42967 0 -41.3672
-2267.51 -2.06423 0 -27.8428
-2261.07 -2.03916 0 -27.512
-2815.6 -1.51519 0 -10.5388
-2799.52 -1.48556 0 -9.73304
-1683.37 -2.33226 0 -40.6375
-1693.04 -2.39696 0 -41.1215
-2807.56 -1.50028 0 -10.1339
-2241.75 -1.96532 0 -26.5396
-1688.2 -2.36449 0 -40.8783
-2254.63 -2.01432 0 -27.1846
-2248.19 -1.98971 0 -26.8604
-2799.52 -1.48556 0 -9.73304
-2783.44 -1.45665 0 -8.94352
-1673.7 -2.26845 0 -40.1632
-1683.37 -2.33226 0 -40.6375
-2791.48 -1.47102 0 -9.33626
-2228.87 -1.91715 0 -25.9076
-1678.53 -2.30025 0 -40.3992
-2241.75 -1.96532 0 -26.5396
-2235.31 -1.94113 0 -26.222
-2783.44 -1.45665 0 -8.94352
-2767.35 -1.42839 0 -8.17003
-1664.03 -2.20544 0 -39.6986
-1673.7 -2.26845 0 -40.1632
-2775.39 -1.44244 0 -8.55478
-2215.99 -1.86972 0 -25.2884
-1668.86 -2.23685 0 -39.9297
-2228.87 -1.91715 0 -25.9076
-2222.43 -1.89334 0 -25.5964
-2767.35 -1.42839 0 -8.17003
-2751.26 -1.40075 0 -7.41242
-1654.36 -2.14315 0 -39.2434
-1664.03 -2.20544 0 -39.6986
-2759.31 -1.4145 0 -7.78925
-2203.11 -1.82297 0 -24.682
-1659.19 -2.17421 0 -39.4698
-2215.99 -1.86972 0 -25.2884
-2209.55 -1.84626 0 -24.9837
-2751.26 -1.40075 0 -7.41242
-2735.18 -1.37367 0 -6.67058
-1644.68 -2.08151 0 -38.7978
-1654.36 -2.14315 0 -39.2434
-2743.22 -1.38714 0 -7.03954
-2190.23 -1.77684 0 -24.0882
-1649.52 -2.11225 0 -39.0194
-2203.11 -1.82297 0 -24.682
-2196.67 -1.79983 0 -24.3836
-2735.18 -1.37367 0 -6.67058
-2719.09 -1.34713 0 -5.94439
-1635.01 -2.0205 0 -38.3615
-1644.68 -2.08151 0 -38.7978
-2727.14 -1.36033 0 -6.30553
-2177.35 -1.73131 0 -23.507
-1639.85 -2.05093 0 -38.5785
-2190.23 -1.77684 0 -24.0882
-2183.79 -1.754 0 -23.796
-2719.09 -1.34713 0 -5.94439
-2703.01 -1.3211 0 -5.23374
-1625.34 -1.96007 0 -37.9345
-1635.01 -2.0205 0 -38.3615
-2711.05 -1.33405 0 -5.58712
-2164.46 -1.68633 0 -22.9381
-1630.18 -1.99021 0 -38.1469
-2177.35 -1.73131 0 -23.507
-2170.9 -1.70875 0 -23.221
-2703.01 -1.3211 0 -5.23374
-2686.92 -1.29556 0 -4.53854
-1615.67 -1.9002 0 -37.5169
-1625.34 -1.96007 0 -37.9345
-2694.96 -1.30827 0 -4.88421
-2151.58 -1.64189 0 -22.3817
-1620.5 -1.93006 0 -37.7245
-2164.46 -1.68633 0 -22.9381
-2158.02 -1.66405 0 -22.6584
-2686.92 -1.29556 0 -4.53854
-2670.83 -1.27049 0 -3.85869
-1606 -1.84088 0 -37.1084
-1615.67 -1.9002 0 -37.5169
-2678.87 -1.28297 0 -4.1967
-2138.7 -1.59797 0 -21.8375
-1610.83 -1.87047 0 -37.3115
-2151.58 -1.64189 0 -22.3817
-2145.14 -1.61987 0 -22.108
-2670.83 -1.27049 0 -3.85869
-2654.74 -1.24587 0 -3.19411
-1596.32 -1.7821 0 -36.7091
-1606 -1.84088 0 -37.1084
-2662.79 -1.25813 0 -3.5245
-2125.82 -1.55456 0 -21.3055
-1601.16 -1.81142 0 -36.9076
-2138.7 -1.59797 0 -21.8375
-2132.26 -1.5762 0 -21.57
-2654.74 -1.24587 0 -3.19411
-2638.65 -1.22169 0 -2.54471
-1586.65 -1.72384 0 -36.3188
-1596.32 -1.7821 0 -36.7091
-2646.7 -1.23373 0 -2.86752
-2112.93 -1.51163 0 -20.7856
-1591.49 -1.7529 0 -36.5128
-2125.82 -1.55456 0 -21.3055
-2119.38 -1.53303 0 -21.0441
-2638.65 -1.22169 0 -2.54471
-2622.56 -1.19792 0 -1.91039
-1576.98 -1.66609 0 -35.9377
-1586.65 -1.72384 0 -36.3188
-2630.61 -1.20975 0 -2.22567
-2100.05 -1.46918 0 -20.2779
-1581.82 -1.6949 0 -36.1271
-2112.93 -1.51163 0 -20.7856
-2106.49 -1.49035 0 -20.5303
-2622.56 -1.19792 0 -1.91039
-2606.47 -1.17456 0 -1.29106
-1567.31 -1.60885 0 -35.5655
-1576.98 -1.66609 0 -35.9377
-2614.52 -1.18619 0 -1.59886
-2087.17 -1.42719 0 -19.7821
-1572.14 -1.63741 0 -35.7505
-2100.05 -1.46918 0 -20.2779
-2093.61 -1.44813 0 -20.0285
-2606.47 -1.17456 0 -1.29106
-2590.38 -1.15157 0 -0.686634
-1557.64 -1.5521 0 -35.2023
-1567.31 -1.60885 0 -35.5655
-2598.43 -1.16302 0 -0.98699
-2074.29 -1.38565 0 -19.2982
-1562.47 -1.58041 0 -35.3828
-2087.17 -1.42719 0 -19.7821
-2080.73 -1.40637 0 -19.5387
-2590.38 -1.15157 0 -0.686634
-2574.29 -1.12896 0 -0.0970186
-1547.96 -1.49583 0 -34.8479
-1557.64 -1.5521 0 -35.2023
-2582.34 -1.14022 0 -0.389981
-2061.4 -1.34455 0 -18.8262
-1552.8 -1.5239 0 -35.024
-2074.29 -1.38565 0 -19.2982
-2067.84 -1.36505 0 -19.0608
-2574.29 -1.12896 0 -0.0970186
-2558.2 -1.1067 0 0.477877
-1538.29 -1.44004 0 -34.5024
-1547.96 -1.49583 0 -34.8479
-2566.25 -1.11779 0 0.192264
-2048.52 -1.30387 0 -18.366
-1543.13 -1.46788 0 -34.674
-2061.4 -1.34455 0 -18.8262
-2054.96 -1.32416 0 -18.5946
-2558.2 -1.1067 0 0.477877
-2542.11 -1.08478 0 1.03815
-1528.62 -1.38472 0 -34.1656
-1538.29 -1.44004 0 -34.5024
-2550.16 -1.0957 0 0.759834
-2035.63 -1.26361 0 -17.9175
-1533.45 -1.41232 0 -34.3329
-2048.52 -1.30387 0 -18.366
-2042.08 -1.28369 0 -18.1403
-2542.11 -1.08478 0 1.03815
-2526.02 -1.06318 0 1.58388
-1518.94 -1.32986 0 -33.8376
-1528.62 -1.38472 0 -34.1656
-2534.07 -1.07394 0 1.31282
-2022.75 -1.22375 0 -17.4806
-1523.78 -1.35723 0 -34.0005
-2035.63 -1.26361 0 -17.9175
-2029.19 -1.24363 0 -17.6976
-2526.02 -1.06318 0 1.58388
-2509.93 -1.04189 0 2.11516
-1509.27 -1.27544 0 -33.5182
-1518.94 -1.32986 0 -33.8376
-2517.98 -1.0525 0 1.85132
-2009.87 -1.18427 0 -17.0552
-1514.11 -1.30259 0 -33.6768
-2022.75 -1.22375 0 -17.4806
-2016.31 -1.20396 0 -17.2664
-2509.93 -1.04189 0 2.11516
-2493.84 -1.0209 0 2.63209
-1499.6 -1.22147 0 -33.2075
-1509.27 -1.27544 0 -33.5182
-2501.89 -1.03136 0 2.37542
-1996.98 -1.14518 0 -16.6413
-1504.44 -1.2484 0 -33.3618
-2009.87 -1.18427 0 -17.0552
-2003.42 -1.16468 0 -16.8468
-2493.84 -1.0209 0 2.63209
-2477.75 -1.00018 0 3.13477
-1489.93 -1.16793 0 -32.9053
-1499.6 -1.22147 0 -33.2075
-2485.79 -1.0105 0 2.88521
-1984.1 -1.10644 0 -16.2389
-1494.76 -1.19465 0 -33.0553
-1996.98 -1.14518 0 -16.6413
-1990.54 -1.12576 0 -16.4387
-2477.75 -1.00018 0 3.13477
-2461.66 -0.979727 0 3.62327
-1480.25 -1.11481 0 -32.6116
-1489.93 -1.16793 0 -32.9053
-2469.7 -0.989921 0 3.38078
-1971.21 -1.06807 0 -15.8478
-1485.09 -1.14132 0 -32.7574
-1984.1 -1.10644 0 -16.2389
-1977.66 -1.08721 0 -16.0419
-2461.66 -0.979727 0 3.62327
-2445.56 -0.959526 0 4.09769
-1470.58 -1.06211 0 -32.3264
-1480.25 -1.11481 0 -32.6116
-2453.61 -0.969596 0 3.86223
-1958.33 -1.03004 0 -15.4679
-1475.42 -1.08841 0 -32.4679
-1971.21 -1.06807 0 -15.8478
-1964.77 -1.04901 0 -15.6564
-2445.56 -0.959526 0 4.09769
-2429.47 -0.939563 0 4.55813
-1460.91 -1.00982 0 -32.0495
-1470.58 -1.06211 0 -32.3264
-2437.52 -0.949516 0 4.32965
-1945.44 -0.992341 0 -15.0993
-1465.74 -1.03592 0 -32.1869
-1958.33 -1.03004 0 -15.4679
-1951.89 -1.01115 0 -15.2822
-2429.47 -0.939563 0 4.55813
-2413.38 -0.919825 0 5.00467
-1451.23 -0.957927 0 -31.781
-1460.91 -1.00982 0 -32.0495
-2421.43 -0.929667 0 4.78313
-1932.56 -0.954965 0 -14.7417
-1456.07 -0.983824 0 -31.9142
-1945.44 -0.992341 0 -15.0993
-1939 -0.973613 0 -14.9191
-2413.38 -0.919825 0 5.00467
-2397.29 -0.900298 0 5.43741
-1441.56 -0.906426 0 -31.5208
-1451.23 -0.957927 0 -31.781
-2405.33 -0.910036 0 5.22276
-1919.67 -0.917902 0 -14.3952
-1446.4 -0.932128 0 -31.6499
-1932.56 -0.954965 0 -14.7417
-1926.12 -0.936395 0 -14.5671
-2397.29 -0.900298 0 5.43741
-2381.19 -0.88097 0 5.85644
-1431.89 -0.85531 0 -31.2688
-1441.56 -0.906426 0 -31.5208
-2389.24 -0.89061 0 5.64863
-1906.79 -0.881141 0 -14.0597
-1436.73 -0.880821 0 -31.3938
-1919.67 -0.917902 0 -14.3952
-1913.23 -0.899485 0 -14.2261
-2381.19 -0.88097 0 5.85644
-2365.1 -0.861828 0 6.26185
-1422.22 -0.804571 0 -31.0249
-1431.89 -0.85531 0 -31.2688
-2373.15 -0.871376 0 6.06084
-1893.91 -0.844672 0 -13.735
-1427.05 -0.829894 0 -31.1458
-1906.79 -0.881141 0 -14.0597
-1900.35 -0.862871 0 -13.896
-2365.1 -0.861828 0 6.26185
-2349.01 -0.842861 0 6.65373
-1412.54 -0.754202 0 -30.7892
-1422.22 -0.804571 0 -31.0249
-2357.05 -0.852324 0 6.45947
-1881.02 -0.808486 0 -13.4212
-1417.38 -0.779341 0 -30.9061
-1893.91 -0.844672 0 -13.735
-1887.46 -0.826544 0 -13.5768
-2349.01 -0.842861 0 6.65373
-2332.92 -0.824056 0 7.03218
-1402.87 -0.704196 0 -30.5616
-1412.54 -0.754202 0 -30.7892
-2340.96 -0.833439 0 6.84463
-1868.14 -0.772572 0 -13.1182
-1407.71 -0.729154 0 -30.6744
-1881.02 -0.808486 0 -13.4212
-1874.58 -0.790495 0 -13.2684
-2332.92 -0.824056 0 7.03218
-2316.82 -0.805401 0 7.39728
-1393.2 -0.654545 0 -30.3419
-1402.87 -0.704196 0 -30.5616
-2324.87 -0.81471 0 7.21639
-1855.25 -0.736922 0 -12.8258
-1398.04 -0.679326 0 -30.4507
-1868.14 -0.772572 0 -13.1182
-1861.69 -0.754714 0 -12.9706
-2316.82 -0.805401 0 7.39728
-2300.73 -0.786885 0 7.74914
-1383.53 -0.605243 0 -30.1302
-1393.2 -0.654545 0 -30.3419
-2308.78 -0.796127 0 7.57486
-1842.37 -0.701526 0 -12.544
-1388.36 -0.629851 0 -30.2351
-1855.25 -0.736922 0 -12.8258
-1848.81 -0.719192 0 -12.6836
-2300.73 -0.786885 0 7.74914
-2284.64 -0.768498 0 8.08783
-1373.85 -0.556283 0 -29.9264
-1383.53 -0.605243 0 -30.1302
-2292.68 -0.777676 0 7.92012
-1829.48 -0.666375 0 -12.2727
-1378.69 -0.580721 0 -30.0273
-1842.37 -0.701526 0 -12.544
-1835.92 -0.68392 0 -12.4071
-2284.64 -0.768498 0 8.08783
-2268.54 -0.750227 0 8.41346
-1364.18 -0.507659 0 -29.7305
-1373.85 -0.556283 0 -29.9264
-2276.59 -0.759349 0 8.25227
-1816.6 -0.631461 0 -12.0119
-1369.02 -0.531929 0 -29.8275
-1829.48 -0.666375 0 -12.2727
-1823.04 -0.648889 0 -12.141
-2268.54 -0.750227 0 8.41346
-2252.45 -0.732063 0 8.72611
-1354.51 -0.459364 0 -29.5423
-1364.18 -0.507659 0 -29.7305
-2260.5 -0.741132 0 8.5714
-1803.71 -0.596775 0 -11.7615
-1359.35 -0.48347 0 -29.6354
-1816.6 -0.631461 0 -12.0119
-1810.15 -0.61409 0 -11.8854
-2252.45 -0.732063 0 8.72611
-2236.36 -0.713994 0 9.02588
-1344.84 -0.411391 0 -29.3618
-1354.51 -0.459364 0 -29.5423
-2244.4 -0.723017 0 8.8776
-1790.83 -0.562309 0 -11.5214
-1349.67 -0.435338 0 -29.4511
-1803.71 -0.596775 0 -11.7615
-1797.27 -0.579515 0 -11.6402
-2236.36 -0.713994 0 9.02588
-2220.26 -0.696011 0 9.31286
-1335.17 -0.363736 0 -29.1891
-1344.84 -0.411391 0 -29.3618
-2228.31 -0.704992 0 9.17096
-1777.94 -0.528054 0 -11.2915
-1340 -0.387524 0 -29.2745
-1790.83 -0.562309 0 -11.5214
-1784.39 -0.545155 0 -11.4052
-2220.26 -0.696011 0 9.31286
-2204.17 -0.678104 0 9.58714
-1325.49 -0.316391 0 -29.0239
-1335.17 -0.363736 0 -29.1891
-2212.22 -0.687049 0 9.45158
-1765.06 -0.494003 0 -11.0718
-1330.33 -0.340025 0 -29.1056
-1777.94 -0.528054 0 -11.2915
-1771.5 -0.511003 0 -11.1804
-2204.17 -0.678104 0 9.58714
-2188.08 -0.660262 0 9.84881
-1315.82 -0.269352 0 -28.8663
-1325.49 -0.316391 0 -29.0239
-2196.12 -0.669175 0 9.71954
-1752.17 -0.460147 0 -10.8622
-1320.66 -0.292834 0 -28.9442
-1765.06 -0.494003 0 -11.0718
-1758.62 -0.477051 0 -10.9657
-2188.08 -0.660262 0 9.84881
-2171.98 -0.642477 0 10.098
-1306.15 -0.222611 0 -28.7163
-1315.82 -0.269352 0 -28.8663
-2180.03 -0.651363 0 9.97494
-1739.29 -0.42648 0 -10.6625
-1310.99 -0.245944 0 -28.7904
-1752.17 -0.460147 0 -10.8622
-1745.73 -0.443291 0 -10.7611
-2171.98 -0.642477 0 10.098
-2155.89 -0.62474 0 10.3347
-1296.48 -0.176165 0 -28.5737
-1306.15 -0.222611 0 -28.7163
-2163.94 -0.633603 0 10.2179
-1726.41 -0.392994 0 -10.4729
-1301.31 -0.199352 0 -28.644
-1739.29 -0.42648 0 -10.6625
-1732.85 -0.409715 0 -10.5665
-2155.89 -0.62474 0 10.3347
-2139.8 -0.60704 0 10.5591
-1286.81 -0.130007 0 -28.4385
-1296.48 -0.176165 0 -28.5737
-2147.84 -0.615886 0 10.4484
-1713.52 -0.359682 0 -10.2931
-1291.64 -0.15305 0 -28.5051
-1726.41 -0.392994 0 -10.4729
-1719.96 -0.376317 0 -10.3817
-2139.8 -0.60704 0 10.5591
-2123.7 -0.58937 0 10.7713
-1277.14 -0.0841325 0 -28.3106
-1286.81 -0.130007 0 -28.4385
-2131.75 -0.598202 0 10.6667
-1700.64 -0.326536 0 -10.123
-1281.97 -0.107035 0 -28.3736
-1713.52 -0.359682 0 -10.2931
-1707.08 -0.343089 0 -10.2068
-2123.7 -0.58937 0 10.7713
-2107.61 -0.571721 0 10.9713
-1267.47 -0.038536 0 -28.19
-1277.14 -0.0841325 0 -28.3106
-2115.66 -0.580544 0 10.8728
-1687.75 -0.29355 0 -9.96274
-1272.3 -0.0612998 0 -28.2494
-1700.64 -0.326536 0 -10.123
-1694.2 -0.310024 0 -10.0417
-2107.61 -0.571721 0 10.9713
-2091.52 -0.554085 0 11.1592
-1257.79 0.00678744 0 -28.0767
-1267.47 -0.038536 0 -28.19
-2099.56 -0.562902 0 11.0667
-1674.87 -0.260718 0 -9.81209
-1262.63 -0.0158404 0 -28.1324
-1687.75 -0.29355 0 -9.96274
-1681.31 -0.277115 0 -9.88622
-2091.52 -0.554085 0 11.1592
-2075.42 -0.536453 0 11.3352
-1248.12 0.0518425 0 -27.9705
-1257.79 0.00678744 0 -28.0767
-2083.47 -0.545269 0 11.2487
-1661.99 -0.228032 0 -9.67101
-1252.96 0.0293482 0 -28.0227
-1674.87 -0.260718 0 -9.81209
-1668.43 -0.244357 0 -9.74036
-2075.42 -0.536453 0 11.3352
-2059.33 -0.518818 0 11.4993
-1238.45 0.096634 0 -27.8715
-1248.12 0.0518425 0 -27.9705
-2067.38 -0.527636 0 11.4188
-1649.1 -0.195487 0 -9.53943
-1243.29 0.0742709 0 -27.9201
-1661.99 -0.228032 0 -9.67101
-1655.54 -0.211742 0 -9.60404
-2059.33 -0.518818 0 11.4993
-2043.24 -0.501172 0 11.6517
-1228.78 0.141166 0 -27.7795
-1238.45 0.096634 0 -27.8715
-2051.28 -0.509997 0 11.577
-1636.22 -0.163076 0 -9.41728
-1233.62 0.118932 0 -27.8246
-1649.1 -0.195487 0 -9.53943
-1642.66 -0.179265 0 -9.47718
-2043.24 -0.501172 0 11.6517
-2027.15 -0.483508 0 11.7923
-1219.11 0.185444 0 -27.6945
-1228.78 0.141166 0 -27.7795
-2035.19 -0.492342 0 11.7235
-1623.34 -0.130793 0 -9.30447
-1223.95 0.163337 0 -27.7361
-1636.22 -0.163076 0 -9.41728
-1629.78 -0.146919 0 -9.35971
-2027.15 -0.483508 0 11.7923
-2011.05 -0.465818 0 11.9214
-1209.44 0.229471 0 -27.6165
-1219.11 0.185444 0 -27.6945
-2019.1 -0.474666 0 11.8583
-1610.45 -0.0986339 0 -9.20095
-1214.28 0.207489 0 -27.6547
-1623.34 -0.130793 0 -9.30447
-1616.89 -0.114699 0 -9.25155
-2011.05 -0.465818 0 11.9214
-1994.96 -0.448095 0 12.039
-1199.77 0.273253 0 -27.5455
-1209.44 0.229471 0 -27.6165
-2003.01 -0.456961 0 11.9816
-1597.57 -0.0665916 0 -9.10662
-1204.61 0.251392 0 -27.5801
-1610.45 -0.0986339 0 -9.20095
-1604.01 -0.0825984 0 -9.15264
-1994.96 -0.448095 0 12.039
-1978.87 -0.430334 0 12.1451
-1190.1 0.316791 0 -27.4812
-1199.77 0.273253 0 -27.5455
-1986.91 -0.43922 0 12.0934
-1584.69 -0.0346612 0 -9.02143
-1194.94 0.295052 0 -27.5125
-1597.57 -0.0665916 0 -9.10662
-1591.13 -0.0506127 0 -9.06289
-1978.87 -0.430334 0 12.1451
-1962.78 -0.412527 0 12.2399
-1180.43 0.360092 0 -27.4238
-1190.1 0.316791 0 -27.4812
-1970.82 -0.421437 0 12.1939
-1571.81 -0.00283736 0 -8.9453
-1185.27 0.338471 0 -27.4516
-1584.69 -0.0346612 0 -9.02143
-1578.25 -0.0187362 0 -8.98224
-1962.78 -0.412527 0 12.2399
-1946.68 -0.394668 0 12.3235
-1170.76 0.403158 0 -27.3731
-1180.43 0.360092 0 -27.4238
-1954.73 -0.403604 0 12.2831
-1558.92 0.0288848 0 -8.87815
-1175.6 0.381654 0 -27.3976
-1571.81 -0.00283736 0 -8.9453
-1565.36 0.0130361 0 -8.91061
-1946.68 -0.394668 0 12.3235
-1930.59 -0.376751 0 12.396
-1161.09 0.445993 0 -27.329
-1170.76 0.403158 0 -27.3731
-1938.64 -0.385717 0 12.3611
-1546.04 0.0605102 0 -8.81991
-1165.93 0.424604 0 -27.3502
-1558.92 0.0288848 0 -8.87815
-1552.48 0.0447093 0 -8.84792
-1930.59 -0.376751 0 12.396
-1914.5 -0.35877 0 12.4574
-1151.43 0.488601 0 -27.2916
-1161.09 0.445993 0 -27.329
-1922.55 -0.367769 0 12.4281
-1533.16 0.0920436 0 -8.77051
-1156.26 0.467326 0 -27.3095
-1546.04 0.0605102 0 -8.81991
-1539.6 0.0762881 0 -8.79411
-1914.5 -0.35877 0 12.4574
-1898.41 -0.340719 0 12.5079
-1141.76 0.530985 0 -27.2608
-1151.43 0.488601 0 -27.2916
-1906.45 -0.349753 0 12.484
-1520.28 0.123489 0 -8.72987
-1146.59 0.509821 0 -27.2754
-1533.16 0.0920436 0 -8.77051
-1526.72 0.107777 0 -8.7491
-1898.41 -0.340719 0 12.5079
-1882.32 -0.322593 0 12.5475
-1132.09 0.573148 0 -27.2365
-1141.76 0.530985 0 -27.2608
-1890.36 -0.331666 0 12.529
-1507.4 0.154852 0 -8.69792
-1136.92 0.552094 0 -27.2479
-1520.28 0.123489 0 -8.72987
-1513.84 0.139181 0 -8.71281
-1882.32 -0.322593 0 12.5475
-1866.23 -0.304387 0 12.5763
-1122.42 0.615094 0 -27.2187
-1132.09 0.573148 0 -27.2365
-1874.27 -0.313501 0 12.5632
-1494.51 0.186136 0 -8.67458
-1127.25 0.594148 0 -27.2268
-1507.4 0.154852 0 -8.69792
-1500.95 0.170503 0 -8.68518
-1866.23 -0.304387 0 12.5763
-1850.13 -0.286096 0 12.5945
-1112.75 0.656825 0 -27.2072
-1122.42 0.615094 0 -27.2187
-1858.18 -0.295253 0 12.5867
-1481.63 0.217344 0 -8.65979
-1117.59 0.635986 0 -27.2122
-1494.51 0.186136 0 -8.67458
-1488.07 0.201749 0 -8.66613
-1850.13 -0.286096 0 12.5945
-1834.04 -0.267714 0 12.6021
-1103.08 0.698344 0 -27.2022
-1112.75 0.656825 0 -27.2072
-1842.09 -0.276917 0 12.5996
-1468.75 0.248482 0 -8.65347
-1107.92 0.677611 0 -27.2039
-1481.63 0.217344 0 -8.65979
-1475.19 0.232922 0 -8.65558
-1834.04 -0.267714 0 12.6021
-1817.95 -0.249238 0 12.5992
-1093.42 0.739654 0 -27.2034
-1103.08 0.698344 0 -27.2022
-1826 -0.258488 0 12.6019
-1455.87 0.279552 0 -8.65554
-1098.25 0.719025 0 -27.202
-1468.75 0.248482 0 -8.65347
-1462.31 0.264025 0 -8.65346
-1817.95 -0.249238 0 12.5992
-1801.86 -0.230662 0 12.5859
-1083.75 0.780758 0 -27.2108
-1093.42 0.739654 0 -27.2034
-1809.91 -0.239963 0 12.5938
-1442.99 0.310558 0 -8.66593
-1088.58 0.760232 0 -27.2063
-1455.87 0.279552 0 -8.65554
-1449.43 0.295063 0 -8.6597
-1801.86 -0.230662 0 12.5859
-1785.77 -0.211983 0 12.5622
-1074.08 0.821659 0 -27.2245
-1083.75 0.780758 0 -27.2108
-1793.82 -0.221336 0 12.5753
-1430.11 0.341504 0 -8.68457
-1078.92 0.801234 0 -27.2169
-1442.99 0.310558 0 -8.66593
-1436.55 0.326039 0 -8.67422
-1785.77 -0.211983 0 12.5622
-1769.68 -0.193196 0 12.5284
-1064.41 0.862358 0 -27.2443
-1074.08 0.821659 0 -27.2245
-1777.73 -0.202603 0 12.5466
-1417.23 0.372393 0 -8.71139
-1069.25 0.842033 0 -27.2336
-1430.11 0.341504 0 -8.68457
-1423.67 0.356956 0 -8.69696
-1769.68 -0.193196 0 12.5284
-1753.59 -0.174298 0 12.4845
-1054.75 0.902858 0 -27.2701
-1064.41 0.862358 0 -27.2443
-1761.64 -0.183761 0 12.5077
-1404.35 0.403228 0 -8.7463
-1059.58 0.882632 0 -27.2564
-1417.23 0.372393 0 -8.71139
-1410.79 0.387817 0 -8.72783
-1753.59 -0.174298 0 12.4845
-1737.5 -0.155285 0 12.4305
-1045.08 0.943161 0 -27.302
-1054.75 0.902858 0 -27.2701
-1745.55 -0.164806 0 12.4587
-1391.47 0.434011 0 -8.78924
-1049.91 0.923034 0 -27.2853
-1404.35 0.403228 0 -8.7463
-1397.91 0.418626 0 -8.76677
-1737.5 -0.155285 0 12.4305
-1721.41 -0.136153 0 12.3666
-1035.42 0.983269 0 -27.3398
-1045.08 0.943161 0 -27.302
-1729.46 -0.145734 0 12.3998
-1378.59 0.464746 0 -8.84014
-1040.25 0.963239 0 -27.3202
-1391.47 0.434011 0 -8.78924
-1385.03 0.449384 0 -8.8137
-1721.41 -0.136153 0 12.3666
-1705.32 -0.116899 0 12.2928
-1025.75 1.02318 0 -27.3836
-1035.42 0.983269 0 -27.3398
-1713.37 -0.126541 0 12.3309
-1365.71 0.495435 0 -8.89891
-1030.58 1.00325 0 -27.361
-1378.59 0.464746 0 -8.84014
-1372.15 0.480096 0 -8.86854
-1705.32 -0.116899 0 12.2928
-1689.23 -0.0975205 0 12.2093
-1016.08 1.06291 0 -27.4332
-1025.75 1.02318 0 -27.3836
-1697.28 -0.107226 0 12.2522
-1352.83 0.526081 0 -8.96549
-1020.92 1.04307 0 -27.4077
-1365.71 0.495435 0 -8.89891
-1359.27 0.510763 0 -8.93123
-1689.23 -0.0975204 0 12.2093
-1673.14 -0.078014 0 12.1161
-1006.42 1.10244 0 -27.4886
-1016.08 1.06291 0 -27.4332
-1681.19 -0.0877834 0 12.1639
-1339.95 0.556685 0 -9.03981
-1011.25 1.0827 0 -27.4602
-1352.83 0.526081 0 -8.96549
-1346.39 0.541388 0 -9.00169
-1673.14 -0.078014 0 12.1161
-1657.05 -0.058377 0 12.0133
-996.753 1.14179 0 -27.5498
-1006.42 1.10244 0 -27.4886
-1665.1 -0.0682119 0 12.0659
-1327.08 0.587251 0 -9.12178
-1001.59 1.12214 0 -27.5185
-1339.95 0.556685 0 -9.03981
-1333.52 0.571973 0 -9.07984
-1657.05 -0.058377 0 12.0133
-1640.97 -0.0386068 0 11.9011
-987.088 1.18095 0 -27.6167
-996.753 1.14179 0 -27.5498
-1649.01 -0.0485087 0 11.9584
-1314.2 0.61778 0 -9.21134
-991.92 1.1614 0 -27.5825
-1327.08 0.587251 0 -9.12178
-1320.64 0.60252 0 -9.16562
-1640.97 -0.0386068 0 11.9011
-1624.88 -0.0187012 0 11.7795
-977.423 1.21993 0 -27.6891
-987.088 1.18095 0 -27.6167
-1632.92 -0.0286711 0 11.8414
-1301.32 0.648274 0 -9.30841
-982.255 1.20047 0 -27.6522
-1314.2 0.61778 0 -9.21134
-1307.76 0.633031 0 -9.25894
-1624.88 -0.0187012 0 11.7795
-1608.79 0.00134201 0 11.6485
-967.758 1.25872 0 -27.7672
-977.423 1.21993 0 -27.6891
-1616.83 -0.00869694 0 11.7151
-1288.44 0.678735 0 -9.41292
-972.591 1.23935 0 -27.7275
-1301.32 0.648274 0 -9.30841
-1294.88 0.663508 0 -9.35974
-1608.79 0.00134201 0 11.6485
-1592.7 0.0215249 0 11.5084
-958.094 1.29734 0 -27.8508
-967.758 1.25872 0 -27.7672
-1600.75 0.0114159 0 11.5796
-1275.56 0.709164 0 -9.52479
-962.926 1.27805 0 -27.8083
-1288.44 0.678735 0 -9.41292
-1282 0.693953 0 -9.46794
-1592.7 0.0215249 0 11.5084
-1576.61 0.0418493 0 11.3592
-948.43 1.33577 0 -27.9399
-958.094 1.29734 0 -27.8508
-1584.66 0.0316693 0 11.4349
-1262.69 0.739563 0 -9.64396
-953.262 1.31657 0 -27.8947
-1275.56 0.709164 0 -9.52479
-1269.13 0.724367 0 -9.58347
-1576.61 0.0418493 0 11.3592
-1560.53 0.0623168 0 11.2009
-938.766 1.37402 0 -28.0344
-948.43 1.33577 0 -27.9399
-1568.57 0.0520651 0 11.2812
-1249.81 0.769933 0 -9.77034
-943.598 1.35491 0 -27.9864
-1262.69 0.739563 0 -9.64396
-1256.25 0.754752 0 -9.70625
-1560.53 0.0623168 0 11.2009
-1544.44 0.082929 0 11.0337
-929.103 1.41209 0 -28.1342
-938.766 1.37402 0 -28.0344
-1552.48 0.0726047 0 11.1184
-1236.93 0.800276 0 -9.90386
-933.934 1.39307 0 -28.0836
-1249.81 0.769933 0 -9.77034
-1243.37 0.785108 0 -9.83621
-1544.44 0.082929 0 11.0337
-1528.35 0.103687 0 10.8577
-919.439 1.44998 0 -28.2393
-929.103 1.41209 0 -28.1342
-1536.4 0.0932897 0 10.9468
-1224.06 0.830592 0 -10.0445
-924.271 1.43106 0 -28.1861
-1236.93 0.800276 0 -9.90386
-1230.5 0.815437 0 -9.97328
-1528.35 0.103687 0 10.8577
-1512.26 0.124592 0 10.673
-909.776 1.4877 0 -28.3497
-919.439 1.44998 0 -28.2393
-1520.31 0.114121 0 10.7664
-1211.18 0.860882 0 -10.1921
-914.608 1.46886 0 -28.2939
-1224.06 0.830592 0 -10.0445
-1217.62 0.84574 0 -10.1174
-1512.26 0.124592 0 10.673
-1496.18 0.145646 0 10.4796
-900.114 1.52523 0 -28.4653
-909.776 1.4877 0 -28.3497
-1504.22 0.1351 0 10.5773
-1198.3 0.891147 0 -10.3466
-904.945 1.50649 0 -28.4069
-1211.18 0.860882 0 -10.1921
-1204.74 0.876018 0 -10.2685
-1496.18 0.145646 0 10.4796
-1480.09 0.166848 0 10.2776
-890.451 1.56259 0 -28.5861
-900.114 1.52523 0 -28.4653
-1488.14 0.156228 0 10.3796
-1185.43 0.921388 0 -10.5079
-895.282 1.54394 0 -28.5251
-1198.3 0.891147 0 -10.3466
-1191.87 0.906271 0 -10.4264
-1480.09 0.166848 0 10.2776
-1464.01 0.188199 0 10.0672
-880.789 1.59978 0 -28.7119
-890.451 1.56259 0 -28.5861
-1472.05 0.177505 0 10.1734
-1172.55 0.951606 0 -10.6761
-885.62 1.58121 0 -28.6483
-1185.43 0.921388 0 -10.5079
-1178.99 0.9365 0 -10.5912
-1464.01 0.188199 0 10.0672
-1447.92 0.209701 0 9.84834
-871.127 1.63679 0 -28.8427
-880.789 1.59978 0 -28.7119
-1455.96 0.198932 0 9.95879
-1159.68 0.9818 0 -10.8509
-875.958 1.6183 0 -28.7767
-1172.55 0.951606 0 -10.6761
-1166.12 0.966706 0 -10.7627
-1447.92 0.209701 0 9.84834
-1431.83 0.231353 0 9.62125
-861.465 1.67362 0 -28.9785
-871.127 1.63679 0 -28.8427
-1439.88 0.220509 0 9.73583
-1146.8 1.01197 0 -11.0324
-866.296 1.65522 0 -28.91
-1159.68 0.9818 0 -10.8509
-1153.24 0.996888 0 -10.9408
-1431.83 0.231353 0 9.62125
-1415.75 0.253156 0 9.38596
-851.803 1.71028 0 -29.1193
-861.465 1.67362 0 -28.9785
-1423.79 0.242236 0 9.50463
-1133.93 1.04212 0 -11.2204
-856.634 1.69197 0 -29.0483
-1146.8 1.01197 0 -11.0324
-1140.37 1.02705 0 -11.1256
-1415.75 0.253156 0 9.38596
-1399.66 0.275109 0 9.14258
-842.142 1.74676 0 -29.2649
-851.803 1.71028 0 -29.1193
-1407.71 0.264114 0 9.26528
-1121.05 1.07224 0 -11.4149
-846.973 1.72854 0 -29.1915
-1133.93 1.04212 0 -11.2204
-1127.49 1.05718 0 -11.3169
-1399.66 0.275109 0 9.14258
-1383.58 0.297213 0 8.89119
-832.481 1.78306 0 -29.4153
-842.142 1.74676 0 -29.2649
-1391.62 0.286143 0 9.01788
-1108.18 1.10235 0 -11.6159
-837.312 1.76493 0 -29.3395
-1121.05 1.07224 0 -11.4149
-1114.62 1.0873 0 -11.5146
-1383.58 0.297213 0 8.89119
-1367.49 0.319467 0 8.63188
-822.82 1.81919 0 -29.5705
-832.481 1.78306 0 -29.4153
-1375.54 0.308321 0 8.76252
-1095.31 1.13242 0 -11.8231
-827.651 1.80115 0 -29.4923
-1108.18 1.10235 0 -11.6159
-1101.74 1.11739 0 -11.7187
-1367.49 0.319467 0 8.63188
-1351.41 0.341871 0 8.36475
-813.16 1.85514 0 -29.7303
-822.82 1.81919 0 -29.5705
-1359.45 0.33065 0 8.49929
-1082.43 1.16248 0 -12.0366
-817.99 1.83719 0 -29.6498
-1095.31 1.13242 0 -11.8231
-1088.87 1.14746 0 -11.9291
-1351.41 0.341871 0 8.36475
-1335.33 0.364424 0 8.08989
-803.5 1.89092 0 -29.8948
-813.16 1.85514 0 -29.7303
-1343.37 0.353129 0 8.22828
-1069.56 1.19251 0 -12.2563
-808.33 1.87306 0 -29.812
-1082.43 1.16248 0 -12.0366
-1076 1.1775 0 -12.1457
-1335.33 0.364424 0 8.08989
-1319.24 0.387125 0 7.80739
-793.84 1.92652 0 -30.0639
-803.5 1.89092 0 -29.8948
-1327.28 0.375756 0 7.94959
-1056.69 1.22252 0 -12.4822
-798.67 1.90874 0 -29.9788
-1069.56 1.19251 0 -12.2563
-1063.12 1.20752 0 -12.3685
-1319.24 0.387125 0 7.80739
-1303.16 0.409974 0 7.51734
-784.18 1.96194 0 -30.2376
-793.84 1.92652 0 -30.0639
-1311.2 0.398531 0 7.6633
-1043.81 1.2525 0 -12.714
-789.01 1.94425 0 -30.1502
-1056.69 1.22252 0 -12.4822
-1050.25 1.23751 0 -12.5973
-1303.16 0.409974 0 7.51734
-1287.07 0.432969 0 7.21983
-774.52 1.99719 0 -30.4157
-784.18 1.96194 0 -30.2376
-1295.12 0.421453 0 7.36951
-1030.94 1.28245 0 -12.9518
-779.35 1.97959 0 -30.3261
-1043.81 1.2525 0 -12.714
-1037.38 1.26748 0 -12.8322
-1287.07 0.432969 0 7.21983
-1270.99 0.45611 0 6.91496
-764.861 2.03225 0 -30.5982
-774.52 1.99719 0 -30.4157
-1279.03 0.444521 0 7.06831
-1018.07 1.31238 0 -13.1956
-769.691 2.01474 0 -30.5064
-1030.94 1.28245 0 -12.9518
-1024.5 1.29742 0 -13.073
-1270.99 0.45611 0 6.91496
-1254.91 0.479394 0 6.60282
-755.202 2.06714 0 -30.7851
-764.861 2.03225 0 -30.5982
-1262.95 0.467734 0 6.7598
-1005.2 1.34228 0 -13.4451
-760.032 2.04972 0 -30.6911
-1018.07 1.31238 0 -13.1956
-1011.63 1.32733 0 -13.3196
-1254.91 0.479394 0 6.60282
-1238.82 0.502822 0 6.2835
-745.543 2.10184 0 -30.9763
-755.202 2.06714 0 -30.7851
-1246.87 0.49109 0 6.44406
-992.324 1.37215 0 -13.7004
-750.373 2.08451 0 -30.8802
-1005.2 1.34228 0 -13.4451
-998.76 1.35722 0 -13.572
-1238.82 0.502822 0 6.2835
-1222.74 0.52639 0 5.9571
-735.885 2.13636 0 -31.1718
-745.543 2.10184 0 -30.9763
-1230.78 0.514589 0 6.12118
-979.453 1.40199 0 -13.9613
-740.714 2.11912 0 -31.0735
-992.324 1.37215 0 -13.7004
-985.888 1.38707 0 -13.8302
-1222.74 0.52639 0 5.9571
-1206.66 0.550098 0 5.62369
-726.227 2.1707 0 -31.3715
-735.885 2.13636 0 -31.1718
-1214.7 0.538227 0 5.79126
-966.581 1.4318 0 -14.2279
-731.056 2.15356 0 -31.2711
-979.453 1.40199 0 -13.9613
-973.017 1.4169 0 -14.0939
-1206.66 0.550098 0 5.62369
-1190.58 0.573943 0 5.28338
-716.569 2.20486 0 -31.5753
-726.227 2.1707 0 -31.3715
-1198.62 0.562004 0 5.45439
-953.71 1.46157 0 -14.5
-721.398 2.1878 0 -31.4729
-966.581 1.4318 0 -14.2279
-960.146 1.44669 0 -14.3633
-1190.58 0.573943 0 5.28338
-1174.49 0.597924 0 4.93626
-706.911 2.23883 0 -31.7832
-716.569 2.20486 0 -31.5753
-1182.54 0.585917 0 5.11067
-940.839 1.49131 0 -14.7775
-711.74 2.22187 0 -31.6787
-953.71 1.46157 0 -14.5
-947.275 1.47645 0 -14.6381
-1174.49 0.597924 0 4.93626
-1158.41 0.622038 0 4.58242
-697.253 2.27262 0 -31.9951
-706.911 2.23883 0 -31.7832
-1166.45 0.609965 0 4.76017
-927.968 1.52101 0 -15.0605
-702.082 2.25575 0 -31.8887
-940.839 1.49131 0 -14.7775
-934.404 1.50617 0 -14.9183
-1158.41 0.622038 0 4.58242
-1142.33 0.646284 0 4.22195
-687.596 2.30621 0 -32.2111
-697.253 2.27262 0 -31.9951
-1150.37 0.634145 0 4.40301
-915.098 1.55068 0 -15.3487
-692.424 2.28944 0 -32.1026
-927.968 1.52101 0 -15.0605
-921.533 1.53585 0 -15.2039
-1142.33 0.646284 0 4.22195
-1126.25 0.670658 0 3.85494
-677.939 2.33962 0 -32.4309
-687.596 2.30621 0 -32.2111
-1134.29 0.658455 0 4.03926
-902.228 1.5803 0 -15.6421
-682.767 2.32294 0 -32.3205
-915.098 1.55068 0 -15.3487
-908.663 1.56549 0 -15.4948
-1126.25 0.670658 0 3.85494
-1110.17 0.695159 0 3.48149
-668.282 2.37284 0 -32.6547
-677.939 2.33962 0 -32.4309
-1118.21 0.682893 0 3.66902
-889.358 1.60988 0 -15.9407
-673.11 2.35626 0 -32.5423
-902.228 1.5803 0 -15.6421
-895.793 1.5951 0 -15.7908
-1110.17 0.695159 0 3.48149
-1094.09 0.719783 0 3.10169
-658.625 2.40587 0 -32.8822
-668.282 2.37284 0 -32.6547
-1102.13 0.707456 0 3.29238
-876.488 1.63942 0 -16.2444
-663.454 2.38938 0 -32.768
-889.358 1.60988 0 -15.9407
-882.923 1.62466 0 -16.092
-1094.09 0.719783 0 3.10169
-1078.01 0.744529 0 2.71562
-648.969 2.4387 0 -33.1135
-658.625 2.40587 0 -32.8822
-1086.05 0.732141 0 2.90943
-863.618 1.66891 0 -16.5532
-653.797 2.42231 0 -32.9974
-876.488 1.63942 0 -16.2444
-870.053 1.65417 0 -16.3982
-1078.01 0.744529 0 2.71562
-1061.93 0.769393 0 2.32339
-639.313 2.47134 0 -33.3486
-648.969 2.4387 0 -33.1135
-1069.97 0.756946 0 2.52027
-850.749 1.69835 0 -16.8668
-644.141 2.45504 0 -33.2306
-863.618 1.66891 0 -16.5532
-857.184 1.68364 0 -16.7094
-1061.93 0.769393 0 2.32339
-1045.84 0.794372 0 1.92508
-629.657 2.50378 0 -33.5872
-639.313 2.47134 0 -33.3486
-1053.88 0.781868 0 2.12499
-837.88 1.72774 0 -17.1853
-634.485 2.48758 0 -33.4674
-850.749 1.69835 0 -16.8668
-844.314 1.71305 0 -17.0255
-1045.84 0.794372 0 1.92508
-1029.76 0.819463 0 1.52078
-620.001 2.53602 0 -33.8295
-629.657 2.50378 0 -33.5872
-1037.8 0.806903 0 1.72367
-825.011 1.75708 0 -17.5086
-624.829 2.51993 0 -33.7079
-837.88 1.72774 0 -17.1853
-831.445 1.74242 0 -17.3464
-1029.76 0.819463 0 1.52078
-1013.68 0.844663 0 1.11059
-610.346 2.56806 0 -34.0753
-620.001 2.53602 0 -33.8295
-1021.72 0.832049 0 1.31642
-812.142 1.78636 0 -17.8366
-615.173 2.55207 0 -33.952
-825.011 1.75708 0 -17.5086
-818.577 1.77172 0 -17.672
-1013.68 0.844663 0 1.11059
-997.604 0.869968 0 0.694599
-600.69 2.5999 0 -34.3246
-610.346 2.56806 0 -34.0753
-1005.64 0.857303 0 0.903315
-799.274 1.81558 0 -18.1693
-605.518 2.58401 0 -34.1995
-812.142 1.78636 0 -17.8366
-805.708 1.80097 0 -18.0024
-997.604 0.869968 0 0.694599
-981.524 0.895376 0 0.272898
-591.035 2.63153 0 -34.5773
-600.69 2.5999 0 -34.3246
-989.564 0.88266 0 0.484456
-786.405 1.84474 0 -18.5066
-595.863 2.61574 0 -34.4505
-799.274 1.81558 0 -18.1693
-792.84 1.83017 0 -18.3374
-981.524 0.895376 0 0.272898
-965.444 0.920883 0 -0.154422
-581.38 2.66296 0 -34.8334
-591.035 2.63153 0 -34.5773
-973.484 0.908118 0 0.0599344
-773.537 1.87383 0 -18.8483
-586.208 2.64727 0 -34.705
-786.405 1.84474 0 -18.5066
-779.971 1.85929 0 -18.6769
-965.444 0.920883 0 -0.154422
-949.365 0.946485 0 -0.587267
-571.726 2.69418 0 -35.0929
-581.38 2.66296 0 -34.8334
-957.405 0.933672 0 -0.37016
-760.67 1.90286 0 -19.1944
-576.553 2.67859 0 -34.9627
-773.537 1.87383 0 -18.8483
-767.103 1.88835 0 -19.0208
-949.365 0.946485 0 -0.587267
-933.285 0.972178 0 -1.02555
-562.071 2.72518 0 -35.3555
-571.726 2.69418 0 -35.0929
-941.325 0.959321 0 -0.805734
-747.802 1.93182 0 -19.545
-566.899 2.70971 0 -35.2238
-760.67 1.90286 0 -19.1944
-754.236 1.91735 0 -19.3692
-933.285 0.972178 0 -1.02555
-917.206 0.997959 0 -1.46917
-552.417 2.75597 0 -35.6214
-562.071 2.72518 0 -35.3555
-925.246 0.985058 0 -1.2467
-734.934 1.9607 0 -19.8997
-557.244 2.7406 0 -35.4881
-747.802 1.93182 0 -19.545
-741.368 1.94627 0 -19.7218
-917.206 0.997959 0 -1.46917
-901.127 1.02382 0 -1.91804
-542.763 2.78655 0 -35.8905
-552.417 2.75597 0 -35.6214
-909.167 1.01088 0 -1.69296
-722.067 1.98951 0 -20.2587
-547.59 2.77129 0 -35.7556
-734.934 1.9607 0 -19.8997
-728.501 1.97511 0 -20.0787
-901.127 1.02382 0 -1.91804
-885.048 1.04977 0 -2.37207
-533.109 2.81691 0 -36.1627
-542.763 2.78655 0 -35.8905
-893.088 1.03679 0 -2.14442
-709.2 2.01823 0 -20.6219
-537.936 2.80175 0 -36.0262
-722.067 1.98951 0 -20.2587
-715.633 2.00388 0 -20.4398
-885.048 1.04977 0 -2.37207
-868.969 1.07579 0 -2.83117
-523.456 2.84704 0 -36.4379
-533.109 2.81691 0 -36.1627
-877.009 1.06277 0 -2.601
-696.333 2.04688 0 -20.989
-528.283 2.832 0 -36.2999
-709.2 2.01823 0 -20.6219
-702.766 2.03257 0 -20.8049
-868.969 1.07579 0 -2.83117
-852.891 1.10188 0 -3.29525
-513.802 2.87695 0 -36.7161
-523.456 2.84704 0 -36.4379
-860.93 1.08882 0 -3.06259
-683.466 2.07544 0 -21.3602
-518.629 2.86203 0 -36.5766
-696.333 2.04688 0 -20.989
-689.9 2.06117 0 -21.1741
-852.891 1.10188 0 -3.29525
-836.812 1.12804 0 -3.7642
-504.149 2.90664 0 -36.9972
-513.802 2.87695 0 -36.7161
-844.851 1.11495 0 -3.52912
-670.6 2.1039 0 -21.7353
-508.976 2.89183 0 -36.8563
-683.466 2.07544 0 -21.3602
-677.033 2.08968 0 -21.5472
-836.812 1.12804 0 -3.7642
-820.734 1.15426 0 -4.23795
-494.496 2.9361 0 -37.2812
-504.149 2.90664 0 -36.9972
-828.773 1.14114 0 -4.00048
-657.733 2.13228 0 -22.1142
-499.323 2.9214 0 -37.1389
-670.6 2.1039 0 -21.7353
-664.166 2.1181 0 -21.9242
-820.734 1.15426 0 -4.23795
-804.655 1.18053 0 -4.7164
-484.843 2.96532 0 -37.5681
-494.496 2.9361 0 -37.2812
-812.694 1.16739 0 -4.47659
-644.867 2.16055 0 -22.4968
-489.67 2.95074 0 -37.4243
-657.733 2.13228 0 -22.1142
-651.3 2.14643 0 -22.305
-804.655 1.18053 0 -4.7164
-788.577 1.20687 0 -5.19945
-475.191 2.99432 0 -37.8577
-484.843 2.96532 0 -37.5681
-796.616 1.19369 0 -4.95736
-632.001 2.18873 0 -22.8832
-480.017 2.97985 0 -37.7125
-644.867 2.16055 0 -22.4968
-638.434 2.17466 0 -22.6896
-788.577 1.20687 0 -5.19945
-772.499 1.23325 0 -5.68703
-465.538 3.02307 0 -38.15
-475.191 2.99432 0 -37.8577
-780.538 1.22005 0 -5.44268
-619.135 2.2168 0 -23.2732
-470.364 3.00872 0 -38.0035
-632.001 2.18873 0 -22.8832
-625.568 2.20278 0 -23.0777
-772.499 1.23325 0 -5.68703
-756.421 1.25967 0 -6.17902
-455.886 3.05158 0 -38.445
-465.538 3.02307 0 -38.15
-764.46 1.24645 0 -5.93248
-606.269 2.24477 0 -23.6667
-460.712 3.03736 0 -38.2972
-619.135 2.2168 0 -23.2732
-612.702 2.2308 0 -23.4695
-756.421 1.25967 0 -6.17902
-740.343 1.28613 0 -6.67535
-446.234 3.07986 0 -38.7426
-455.886 3.05158 0 -38.445
-748.382 1.2729 0 -6.42665
-593.403 2.27262 0 -24.0637
-451.06 3.06575 0 -38.5935
-606.269 2.24477 0 -23.6667
-599.836 2.25871 0 -23.8647
-740.343 1.28613 0 -6.67535
-724.265 1.31263 0 -7.17592
-436.582 3.10788 0 -39.0427
-446.234 3.07986 0 -38.7426
-732.304 1.29938 0 -6.92511
-580.538 2.30035 0 -24.464
-441.408 3.0939 0 -38.8923
-593.403 2.27262 0 -24.0637
-586.97 2.2865 0 -24.2634
-724.265 1.31263 0 -7.17592
-708.187 1.33916 0 -7.68064
-426.93 3.13566 0 -39.3454
-436.582 3.10788 0 -39.0427
-716.226 1.32589 0 -7.42776
-567.672 2.32797 0 -24.8677
-431.756 3.1218 0 -39.1937
-580.538 2.30035 0 -24.464
-574.105 2.31417 0 -24.6655
-708.187 1.33916 0 -7.68064
-692.11 1.36571 0 -8.18941
-417.278 3.16318 0 -39.6504
-426.93 3.13566 0 -39.3454
-700.149 1.35243 0 -7.93452
-554.807 2.35546 0 -25.2747
-422.104 3.14945 0 -39.4976
-567.672 2.32797 0 -24.8677
-561.24 2.34173 0 -25.0708
-692.11 1.36571 0 -8.18941
-676.032 1.39228 0 -8.70215
-407.627 3.19045 0 -39.9579
-417.278 3.16318 0 -39.6504
-684.071 1.37899 0 -8.44529
-541.942 2.38282 0 -25.6848
-412.452 3.17685 0 -39.8039
-554.807 2.35546 0 -25.2747
-548.374 2.36915 0 -25.4794
-676.032 1.39228 0 -8.70215
-659.955 1.41886 0 -9.21876
-397.975 3.21747 0 -40.2677
-407.627 3.19045 0 -39.9579
-667.993 1.40557 0 -8.95998
-529.077 2.41005 0 -26.0981
-402.801 3.20399 0 -40.1125
-541.942 2.38282 0 -25.6848
-535.509 2.39645 0 -25.8911
-659.955 1.41886 0 -9.21876
-643.877 1.44545 0 -9.73916
-388.324 3.24422 0 -40.5798
-397.975 3.21747 0 -40.2677
-651.916 1.43216 0 -9.47849
-516.212 2.43714 0 -26.5143
-393.15 3.23087 0 -40.4234
-529.077 2.41005 0 -26.0981
-522.644 2.42361 0 -26.3058
-643.877 1.44545 0 -9.73916
-627.8 1.47205 0 -10.2632
-378.673 3.2707 0 -40.8941
-388.324 3.24422 0 -40.5798
-635.838 1.45875 0 -10.0007
-503.347 2.46409 0 -26.9335
-383.498 3.25749 0 -40.7366
-516.212 2.43714 0 -26.5143
-509.78 2.45063 0 -26.7236
-627.8 1.47205 0 -10.2632
-611.722 1.49864 0 -10.7909
-369.022 3.29692 0 -41.2105
-378.673 3.2707 0 -40.8941
-619.761 1.48534 0 -10.5266
-490.483 2.4909 0 -27.3556
-373.847 3.28385 0 -41.052
-503.347 2.46409 0 -26.9335
-496.915 2.47751 0 -27.1442
-611.722 1.49864 0 -10.7909
-595.645 1.52522 0 -11.3221
-359.371 3.32287 0 -41.5291
-369.022 3.29692 0 -41.2105
-603.683 1.51193 0 -11.0561
-477.618 2.51755 0 -27.7805
-364.197 3.30993 0 -41.3695
-490.483 2.4909 0 -27.3556
-484.05 2.50424 0 -27.5677
-595.645 1.52522 0 -11.3221
-579.567 1.55179 0 -11.8567
-349.721 3.34854 0 -41.8497
-359.371 3.32287 0 -41.5291
-587.606 1.53851 0 -11.589
-464.753 2.54405 0 -28.2082
-354.546 3.33574 0 -41.6891
-477.618 2.51755 0 -27.7805
-471.186 2.53082 0 -27.994
-579.567 1.55179 0 -11.8567
-563.49 1.57834 0 -12.3946
-340.07 3.37393 0 -42.1723
-349.721 3.34854 0 -41.8497
-571.529 1.56507 0 -12.1253
-451.889 2.5704 0 -28.6385
-344.895 3.36127 0 -42.0108
-464.753 2.54405 0 -28.2082
-458.321 2.55724 0 -28.423
-563.49 1.57834 0 -12.3946
-547.413 1.60487 0 -12.9358
-330.42 3.39904 0 -42.4969
-340.07 3.37393 0 -42.1723
-555.451 1.59161 0 -12.6648
-439.025 2.59657 0 -29.0713
-335.245 3.38652 0 -42.3344
-451.889 2.5704 0 -28.6385
-445.457 2.5835 0 -28.8546
-547.413 1.60487 0 -12.9358
-531.335 1.63136 0 -13.4801
-320.769 3.42387 0 -42.8233
-330.42 3.39904 0 -42.4969
-539.374 1.61812 0 -13.2076
-426.16 2.62258 0 -29.5067
-325.595 3.41149 0 -42.6599
-439.025 2.59657 0 -29.0713
-432.593 2.6096 0 -29.2887
-531.335 1.63136 0 -13.4801
-515.258 1.65782 0 -14.0274
-311.119 3.4484 0 -43.1516
-320.769 3.42387 0 -42.8233
-523.297 1.6446 0 -13.7534
-413.296 2.64841 0 -29.9446
-315.944 3.43617 0 -42.9872
-426.16 2.62258 0 -29.5067
-419.728 2.63552 0 -29.7254
-515.258 1.65782 0 -14.0274
-499.181 1.68423 0 -14.5777
-301.469 3.47264 0 -43.4817
-311.119 3.4484 0 -43.1516
-507.219 1.67103 0 -14.3022
-400.432 2.67407 0 -30.3848
-306.294 3.46056 0 -43.3164
-413.296 2.64841 0 -29.9446
-406.864 2.66126 0 -30.1644
-499.181 1.68423 0 -14.5777
-483.104 1.71059 0 -15.1309
-291.819 3.49658 0 -43.8135
-301.469 3.47264 0 -43.4817
-491.142 1.69742 0 -14.8539
-387.568 2.69954 0 -30.8273
-296.644 3.48465 0 -43.6474
-400.432 2.67407 0 -30.3848
-394 2.68683 0 -30.6057
-483.104 1.71059 0 -15.1309
-467.026 1.7369 0 -15.6868
-282.169 3.52021 0 -44.1469
-291.819 3.49658 0 -43.8135
-475.065 1.72376 0 -15.4085
-374.704 2.72481 0 -31.272
-286.994 3.50844 0 -43.98
-387.568 2.69954 0 -30.8273
-381.136 2.7122 0 -31.0494
-467.026 1.7369 0 -15.6868
-450.949 1.76314 0 -16.2454
-272.52 3.54354 0 -44.482
-282.169 3.52021 0 -44.1469
-458.988 1.75003 0 -15.9658
-361.84 2.74989 0 -31.7188
-277.345 3.53192 0 -44.3142
-374.704 2.72481 0 -31.272
-368.272 2.73738 0 -31.4951
-450.949 1.76314 0 -16.2454
-434.871 1.78931 0 -16.8066
-262.87 3.56655 0 -44.8186
-272.52 3.54354 0 -44.482
-442.91 1.77624 0 -16.5257
-348.976 2.77477 0 -32.1677
-267.695 3.55508 0 -44.6501
-361.84 2.74989 0 -31.7188
-355.408 2.76236 0 -31.943
-434.871 1.78931 0 -16.8066
-418.794 1.81541 0 -17.3702
-253.22 3.58924 0 -45.1567
-262.87 3.56655 0 -44.8186
-426.833 1.80237 0 -17.0881
-336.113 2.79944 0 -32.6186
-258.045 3.57793 0 -44.9874
-348.976 2.77477 0 -32.1677
-342.544 2.78713 0 -32.3929
-418.794 1.81541 0 -17.3702
-402.717 1.84142 0 -17.9363
-243.571 3.61161 0 -45.4962
-253.22 3.58924 0 -45.1567
-410.755 1.82843 0 -17.6529
-323.249 2.8239 0 -33.0714
-248.396 3.60046 0 -45.3262
-336.113 2.79944 0 -32.6186
-329.681 2.81169 0 -32.8448
-402.717 1.84142 0 -17.9363
-386.639 1.86735 0 -18.5046
-233.922 3.63366 0 -45.8371
-243.571 3.61161 0 -45.4962
-394.678 1.8544 0 -18.2201
-310.385 2.84815 0 -33.5261
-238.746 3.62267 0 -45.6665
-323.249 2.8239 0 -33.0714
-316.817 2.83605 0 -33.2985
-386.639 1.86735 0 -18.5046
-370.562 1.8932 0 -19.0751
-224.272 3.65541 0 -46.1793
-233.922 3.63366 0 -45.8371
-378.6 1.88029 0 -18.7896
-297.521 2.87219 0 -33.9825
-229.097 3.64457 0 -46.008
-310.385 2.84815 0 -33.5261
-303.953 2.86019 0 -33.7541
-370.562 1.8932 0 -19.0751
-354.484 1.91896 0 -19.6478
-214.623 3.67687 0 -46.5228
-224.272 3.65541 0 -46.1793
-362.523 1.90609 0 -19.3612
-284.658 2.89604 0 -34.4406
-219.448 3.66617 0 -46.3509
-297.521 2.87219 0 -33.9825
-291.089 2.88414 0 -34.2113
-354.484 1.91896 0 -19.6478
-338.407 1.94466 0 -20.2226
-204.974 3.69809 0 -46.8675
-214.623 3.67687 0 -46.5228
-346.445 1.93182 0 -19.9349
-271.794 2.91973 0 -34.9003
-209.798 3.68751 0 -46.695
-284.658 2.89604 0 -34.4406
-278.226 2.90791 0 -34.6703
-338.407 1.94466 0 -20.2226
-322.329 1.97031 0 -20.7993
-195.325 3.71911 0 -47.2134
-204.974 3.69809 0 -46.8675
-330.368 1.95749 0 -20.5107
-258.93 2.9433 0 -35.3617
-200.149 3.70862 0 -47.0403
-271.794 2.91973 0 -34.9003
-265.362 2.93153 0 -35.1308
-322.329 1.97031 0 -20.7993
-306.251 1.99593 0 -21.378
-185.676 3.73999 0 -47.5605
-195.325 3.71911 0 -47.2134
-314.29 1.98312 0 -21.0884
-246.067 2.96678 0 -35.8247
-190.5 3.72956 0 -47.3868
-258.93 2.9433 0 -35.3617
-252.499 2.95505 0 -35.593
-306.251 1.99593 0 -21.378
-290.173 2.02154 0 -21.9587
-176.027 3.76073 0 -47.9087
-185.676 3.73999 0 -47.5605
-298.212 2.00874 0 -21.6681
-233.203 2.99018 0 -36.2892
-180.852 3.75038 0 -47.7345
-246.067 2.96678 0 -35.8247
-239.635 2.97849 0 -36.0567
-290.173 2.02154 0 -21.9587
-274.096 2.04707 0 -22.5413
-166.379 3.78126 0 -48.2582
-176.027 3.76073 0 -47.9087
-282.135 2.03433 0 -22.2498
-220.34 3.0134 0 -36.7553
-171.203 3.77104 0 -48.0833
-233.203 2.99018 0 -36.2892
-226.772 3.00183 0 -36.522
-274.096 2.04707 0 -22.5413
-258.018 2.07233 0 -23.1257
-156.731 3.80109 0 -48.6089
-166.379 3.78126 0 -48.2582
-266.057 2.05975 0 -22.8333
-207.477 3.03606 0 -37.2228
-161.555 3.79132 0 -48.4334
-220.34 3.0134 0 -36.7553
-213.909 3.02484 0 -36.9889
-258.018 2.07233 0 -23.1257
-241.94 2.09666 0 -23.7113
-147.083 3.81914 0 -48.9609
-156.731 3.80109 0 -48.6089
-249.979 2.08469 0 -23.4184
-194.614 3.05716 0 -37.6913
-151.907 3.81045 0 -48.7847
-207.477 3.03606 0 -37.2228
-201.046 3.04694 0 -37.457
-241.94 2.09666 0 -23.7113
-225.863 2.11877 0 -24.2969
-137.433 3.83252 0 -49.3144
-147.083 3.81914 0 -48.9609
-233.901 2.10811 0 -24.0042
-181.751 3.07424 0 -38.1598
-142.258 3.82672 0 -49.1375
-194.614 3.05716 0 -37.6913
-188.183 3.0664 0 -37.9256
-225.863 2.11877 0 -24.2969
-209.786 2.13535 0 -24.879
-127.776 3.83618 0 -49.6696
-137.433 3.83252 0 -49.3144
-217.824 2.12809 0 -24.5887
-168.884 3.08261 0 -38.6261
-132.606 3.83608 0 -49.4917
-181.751 3.07424 0 -38.1598
-175.318 3.08012 0 -38.3935
-209.786 2.13535 0 -24.879
-193.71 2.14117 0 -25.4519
-118.106 3.81841 0 -50.0264
-127.776 3.83618 0 -49.6696
-201.748 2.1401 0 -25.1671
-156.009 3.07206 0 -39.0853
-122.942 3.83107 0 -49.8479
-168.884 3.08261 0 -38.6261
-162.448 3.08037 0 -38.8568
-193.71 2.14117 0 -25.4519
-177.637 2.1233 0 -26.0006
-108.399 3.76257 0 -50.3867
-118.106 3.81841 0 -50.0264
-185.672 2.1363 0 -25.7308
-143.114 3.02649 0 -39.5288
-113.259 3.79687 0 -50.2058
-156.009 3.07206 0 -39.0853
-149.564 3.05587 0 -39.3103
-177.637 2.1233 0 -26.0006
-161.557 2.06667 0 -26.5051
-98.6301 3.63232 0 -50.75
-108.399 3.76257 0 -50.3867
-169.6 2.10152 0 -26.2599
-130.175 2.91286 0 -39.9408
-103.523 3.7097 0 -50.5684
-143.114 3.02649 0 -39.5288
-136.653 2.9795 0 -39.7392
-161.557 2.06667 0 -26.5051
-145.484 1.92885 0 -26.9145
-88.7126 3.39111 0 -51.1268
-98.6301 3.63232 0 -50.75
-153.516 2.01037 0 -26.7269
-117.149 2.6911 0 -40.2963
-93.6997 3.52916 0 -50.9351
-130.175 2.91286 0 -39.9408
-123.676 2.82244 0 -40.1297
-145.484 1.92885 0 -26.9145
-129.353 1.68644 0 -27.1795
-78.5769 2.95673 0 -51.5197
-88.7126 3.39111 0 -51.1268
-137.437 1.82591 0 -27.068
-103.944 2.2799 0 -40.5624
-83.6717 3.20237 0 -51.3223
-117.149 2.6911 0 -40.2963
-110.58 2.50782 0 -40.4389
-129.353 1.68644 0 -27.1795
-113.207 1.21947 0 -27.1667
-67.9655 2.32399 0 -51.9847
-78.5769 2.95673 0 -51.5197
-121.269 1.4813 0 -27.2216
-90.4241 1.6365 0 -40.7004
-73.3616 2.66694 0 -51.7354
-103.944 2.2799 0 -40.5624
-97.2267 2.00543 0 -40.6589
-113.207 1.21947 0 -27.1667
-96.7168 0.598005 0 -26.8335
-56.7882 1.42775 0 -52.5553
-67.9655 2.32399 0 -51.9847
-105.053 0.943451 0 -27.0382
-76.2899 0.659271 0 -40.7229
-62.4332 1.8968 0 -52.2582
-90.4241 1.6365 0 -40.7004
-83.4746 1.15898 0 -40.7046
-96.7168 0.598005 0 -26.8335
-79.9664 -0.449188 0 -25.9806
-44.5091 0.749455 0 -53.4815
-56.7882 1.42775 0 -52.5553
-88.3328 0.0873099 0 -26.4932
-61.2492 -0.367236 0 -40.7341
-50.8638 1.02679 0 -52.9423
-76.2899 0.659271 0 -40.7229
-68.8693 0.183089 0 -40.7532
-79.9664 -0.449188 0 -25.9806
-61.5315 -0.971529 0 -25.0588
-31.5842 0.891595 0 -54.8877
-44.5091 0.749455 0 -53.4815
-71.1469 -0.740452 0 -25.4724
-44.5017 -0.938349 0 -41.2856
-38.0202 0.581331 0 -54.1274
-61.2492 -0.367236 0 -40.7341
-53.2347 -0.924574 0 -40.8111
-61.5315 -0.971529 0 -25.0588
-41.6025 -0.924462 0 -24.7723
-17.9381 5.09136 0 -57.2331
-31.5842 0.891595 0 -54.8877
-51.637 -1.39422 0 -24.7473
-26.2263 2.03165 0 -43.424
-24.9597 2.24793 0 -55.8956
-44.5017 -0.938349 0 -41.2856
-35.3751 -0.014509 0 -42.1983
-41.6025 -0.924462 0 -24.7723
-16.5169 7.57437 0 -29.7859
-7.69262 17.5534 0 -58.6003
-17.9381 5.09136 0 -57.2331
-30.1784 2.00094 0 -26.1418
-6.80885 15.345 0 -49.1526
-11.8743 9.63479 0 -58.3093
-26.2263 2.03165 0 -43.424
-16.9579 6.06982 0 -45.4284
-16.5169 7.57437 0 -29.7859
2.80453 41.3349 0 -45.1731
-1.39495 47.9626 0 -52.7656
-7.69262 17.5534 0 -58.6003
-5.11586 16.5772 0 -35.5806
-0.200832 54.3921 0 -52.1982
-4.28659 30.74 0 -57.32
-6.80885 15.345 0 -49.1526
0.245259 31.5259 0 -52.5568
2.80453 41.3349 0 -45.1731
-3.56975 163.158 0 -40.6814
1.18508 81.1785 0 -25.8836
-1.39495 47.9626 0 -52.7656
5.34468 92.1589 0 -51.5236
-5.91516 115.904 0 -22.8999
0.781753 66.5115 0 -42.6583
-0.200832 54.3921 0 -52.1982
-3.2301 84.5116 0 -43.6655
-1715.02 -515.247 0 157.643
-1862 -326.966 0 -4.4035
-604.879 -104.7 0 81.9012
-619.913 -185.921 0 246.619
-1814.86 -414.637 0 59.7054
-1233.37 -215.631 0 48.6912
-594.335 -145.876 0 155.6
-1142.36 -342.933 0 225.36
-1207.07 -288.831 0 111.87
-1862 -326.966 0 -4.4035
-1897.09 -144.555 0 -54.2775
-637.132 -64.5661 0 -16.528
-604.879 -104.7 0 81.9012
-1877.65 -229.049 0 -36.6797
-1262.49 -113.59 0 -29.9114
-629.82 -82.3775 0 24.0026
-1233.37 -215.631 0 48.6912
-1246.54 -156.521 0 6.08441
-1897.09 -144.555 0 -54.2775
-1914.98 -52.7727 0 -63.2905
-639.266 -28.0866 0 -60.9747
-637.132 -64.5661 0 -16.528
-1914.22 -89.35 0 -62.741
-1277.58 -47.2291 0 -63.4212
-635.94 -44.4184 0 -43.3532
-1262.49 -113.59 0 -29.9114
-1274.21 -77.168 0 -53.1585
-1914.98 -52.7727 0 -63.2905
-1900.42 -10.3991 0 -57.7108
-641.024 -11.1531 0 -76.6666
-639.266 -28.0866 0 -60.9747
-1907.02 -26.5004 0 -60.1978
-1273.58 -14.5856 0 -70.4665
-642.951 -18.1499 0 -71.5266
-1277.58 -47.2291 0 -63.4212
-1276.6 -27.0985 0 -67.8969
-1900.42 -10.3991 0 -57.7108
-1883.4 1.81276 0 -53.7667
-634.159 -2.40635 0 -78.1354
-641.024 -11.1531 0 -76.6666
-1893.32 -2.24524 0 -55.7485
-1261.96 -0.863964 0 -68.8954
-636.759 -5.59497 0 -78.2851
-1273.58 -14.5856 0 -70.4665
-1268.45 -6.14044 0 -70.5648
-1883.4 1.81276 0 -53.7667
-1863.79 4.71424 0 -50.9392
-628.404 -0.856074 0 -75.1076
-634.159 -2.40635 0 -78.1354
-1872.65 4.14587 0 -52.0037
-1248.65 2.23062 0 -65.5166
-631.91 -1.258 0 -76.9082
-1261.96 -0.863964 0 -68.8954
-1255.09 1.60306 0 -67.0022
-1863.79 4.71424 0 -50.9392
-1847.97 3.12636 0 -49.6621
-621.659 -0.830833 0 -71.2628
-628.404 -0.856074 0 -75.1076
-1855.9 4.08852 0 -50.2693
-1236.64 1.79311 0 -62.4662
-624.591 -0.636001 0 -73.1095
-1248.65 2.23062 0 -65.5166
-1242.46 2.20771 0 -64.0031
-1847.97 3.12636 0 -49.6621
-1833.71 1.25893 0 -48.7636
-616.48 -1.78005 0 -68.1706
-621.659 -0.830833 0 -71.2628
-1840.4 2.21842 0 -49.1352
-1226.34 0.22821 0 -60.204
-619.133 -1.31537 0 -69.6089
-1236.64 1.79311 0 -62.4662
-1231.25 1.06936 0 -61.1829
-1833.71 1.25893 0 -48.7636
-1821.61 -0.471799 0 -48.1674
-611.711 -2.48026 0 -65.9685
-616.48 -1.78005 0 -68.1706
-1827.58 0.313731 0 -48.469
-1217.5 -1.14063 0 -58.6169
-613.917 -2.13793 0 -66.9524
-1226.34 0.22821 0 -60.204
-1221.77 -0.51282 0 -59.3616
-1821.61 -0.471799 0 -48.1674
-1810.44 -1.57818 0 -47.5913
-607.721 -3.0401 0 -64.5378
-611.711 -2.48026 0 -65.9685
-1815.87 -1.08123 0 -47.8687
-1209.68 -2.13676 0 -57.5235
-609.704 -2.79978 0 -65.1757
-1217.5 -1.14063 0 -58.6169
-1213.49 -1.68577 0 -58.0091
-1810.44 -1.57818 0 -47.5913
-1800.05 -2.27512 0 -47.0427
-604.003 -3.32996 0 -63.6222
-607.721 -3.0401 0 -64.5378
-1805.2 -1.98006 0 -47.3214
-1202.49 -2.73174 0 -56.7362
-605.803 -3.2053 0 -64.0267
-1209.68 -2.13676 0 -57.5235
-1206.03 -2.47961 0 -57.1058
-1800.05 -2.27512 0 -47.0427
-1789.99 -2.63297 0 -46.4793
-600.556 -3.47687 0 -63.036
-604.003 -3.32996 0 -63.6222
-1794.97 -2.48375 0 -46.7603
-1195.67 -3.05223 0 -56.1373
-602.271 -3.42267 0 -63.2988
-1202.49 -2.73174 0 -56.7362
-1199.05 -2.91958 0 -56.4168
-1789.99 -2.63297 0 -46.4793
-1780.16 -2.80134 0 -45.9155
-597.204 -3.50713 0 -62.6389
-600.556 -3.47687 0 -63.036
-1785.06 -2.73757 0 -46.1985
-1189.04 -3.18807 0 -55.6434
-598.864 -3.5011 0 -62.8197
-1195.67 -3.05223 0 -56.1373
-1192.33 -3.13835 0 -55.8819
-1780.16 -2.80134 0 -45.9155
-1770.41 -2.8491 0 -45.35
-593.927 -3.48012 0 -62.3484
-597.204 -3.50713 0 -62.6389
-1775.28 -2.83539 0 -45.6322
-1182.51 -3.21839 0 -55.2102
-595.563 -3.50002 0 -62.4844
-1189.04 -3.18807 0 -55.6434
-1185.76 -3.213 0 -55.4208
-1770.41 -2.8491 0 -45.35
-1760.72 -2.83628 0 -44.7897
-590.673 -3.41699 0 -62.1141
-593.927 -3.48012 0 -62.3484
-1765.57 -2.8486 0 -45.0692
-1176.02 -3.1893 0 -54.8102
-592.296 -3.45126 0 -62.2263
-1182.51 -3.21839 0 -55.2102
-1179.26 -3.20923 0 -55.0073
-1760.72 -2.83628 0 -44.7897
-1751.05 -2.79061 0 -44.2363
-587.434 -3.33826 0 -61.9096
-590.673 -3.41699 0 -62.1141
-1755.88 -2.81603 0 -44.5119
-1169.56 -3.13053 0 -54.4303
-589.053 -3.37917 0 -62.0093
-1176.02 -3.1893 0 -54.8102
-1172.79 -3.16245 0 -54.6182
-1751.05 -2.79061 0 -44.2363
-1741.38 -2.73069 0 -43.692
-584.197 -3.25172 0 -61.7204
-587.434 -3.33826 0 -61.9096
-1746.21 -2.7619 0 -43.963
-1163.11 -3.05769 0 -54.0631
-585.815 -3.29547 0 -61.8136
-1169.56 -3.13053 0 -54.4303
-1166.33 -3.09525 0 -54.2454
-1741.38 -2.73069 0 -43.692
-1731.71 -2.66461 0 -43.1576
-580.963 -3.16298 0 -61.5399
-584.197 -3.25172 0 -61.7204
-1736.54 -2.69804 0 -43.4235
-1156.65 -2.97931 0 -53.7055
-582.58 -3.20751 0 -61.6294
-1163.11 -3.05769 0 -54.0631
-1159.88 -3.01888 0 -53.8833
-1731.71 -2.66461 0 -43.1576
-1722.04 -2.59693 0 -42.6334
-577.727 -3.074 0 -61.3646
-580.963 -3.16298 0 -61.5399
-1726.88 -2.63085 0 -42.8942
-1150.2 -2.89937 0 -53.3557
-579.345 -3.11842 0 -61.4517
-1156.65 -2.97931 0 -53.7055
-1153.43 -2.93939 0 -53.5297
-1722.04 -2.59693 0 -42.6334
-1712.38 -2.52935 0 -42.1193
-574.491 -2.98586 0 -61.1933
-577.727 -3.074 0 -61.3646
-1717.21 -2.56306 0 -42.3751
-1143.74 -2.81967 0 -53.013
-576.109 -3.02981 0 -61.2785
-1150.2 -2.89937 0 -53.3557
-1146.97 -2.85943 0 -53.1835
-1712.38 -2.52935 0 -42.1193
-1702.71 -2.46265 0 -41.6154
-571.253 -2.89878 0 -61.0254
-574.491 -2.98586 0 -61.1933
-1707.54 -2.49588 0 -41.8661
-1137.29 -2.74088 0 -52.677
-572.872 -2.94218 0 -61.109
-1143.74 -2.81967 0 -53.013
-1140.52 -2.78015 0 -52.8441
-1702.71 -2.46265 0 -41.6154
-1693.04 -2.39696 0 -41.1215
-568.016 -2.81281 0 -60.8606
-571.253 -2.89878 0 -61.0254
-1697.87 -2.42967 0 -41.3672
-1130.83 -2.66315 0 -52.3476
-569.635 -2.85567 0 -60.9426
-1137.29 -2.74088 0 -52.677
-1134.06 -2.70189 0 -52.5115
-1693.04 -2.39696 0 -41.1215
-1683.37 -2.33226 0 -40.6375
-564.778 -2.72782 0 -60.699
-568.016 -2.81281 0 -60.8606
-1688.2 -2.36449 0 -40.8783
-1124.38 -2.58644 0 -52.0247
-566.397 -2.7702 0 -60.7794
-1130.83 -2.66315 0 -52.3476
-1127.61 -2.62468 0 -52.1853
-1683.37 -2.33226 0 -40.6375
-1673.7 -2.26845 0 -40.1632
-561.54 -2.64371 0 -60.5405
-564.778 -2.72782 0 -60.699
-1678.53 -2.30025 0 -40.3992
-1117.92 -2.51064 0 -51.7083
-563.159 -2.68566 0 -60.6194
-1124.38 -2.58644 0 -52.0247
-1121.15 -2.54844 0 -51.8657
-1673.7 -2.26845 0 -40.1632
-1664.03 -2.20544 0 -39.6986
-558.302 -2.56037 0 -60.3851
-561.54 -2.64371 0 -60.5405
-1668.86 -2.23685 0 -39.9297
-1111.46 -2.43565 0 -51.3982
-559.921 -2.60195 0 -60.4624
-1117.92 -2.51064 0 -51.7083
-1114.69 -2.47305 0 -51.5524
-1664.03 -2.20544 0 -39.6986
-1654.36 -2.14315 0 -39.2434
-555.064 -2.47771 0 -60.2329
-558.302 -2.56037 0 -60.3851
-1659.19 -2.17421 0 -39.4698
-1105.01 -2.36139 0 -51.0944
-556.683 -2.51896 0 -60.3086
-1111.46 -2.43565 0 -51.3982
-1108.24 -2.39843 0 -51.2455
-1654.36 -2.14315 0 -39.2434
-1644.68 -2.08151 0 -38.7978
-551.825 -2.39569 0 -60.0838
-555.064 -2.47771 0 -60.2329
-1649.52 -2.11225 0 -39.0194
-1098.55 -2.28779 0 -50.797
-553.445 -2.43663 0 -60.1579
-1105.01 -2.36139 0 -51.0944
-1101.78 -2.32451 0 -50.9449
-1644.68 -2.08151 0 -38.7978
-1635.01 -2.0205 0 -38.3615
-548.587 -2.31427 0 -59.9377
-551.825 -2.39569 0 -60.0838
-1639.85 -2.05093 0 -38.5785
-1092.09 -2.2148 0 -50.5058
-550.206 -2.35491 0 -60.0103
-1098.55 -2.28779 0 -50.797
-1095.32 -2.25122 0 -50.6506
-1635.01 -2.0205 0 -38.3615
-1625.34 -1.96007 0 -37.9345
-545.349 -2.23341 0 -59.7948
-548.587 -2.31427 0 -59.9377
-1630.18 -1.99021 0 -38.1469
-1085.64 -2.14241 0 -50.2208
-546.968 -2.27377 0 -59.8659
-1092.09 -2.2148 0 -50.5058
-1088.86 -2.17854 0 -50.3625
-1625.34 -1.96007 0 -37.9345
-1615.67 -1.9002 0 -37.5169
-542.111 -2.15311 0 -59.6549
-545.349 -2.23341 0 -59.7948
-1620.5 -1.93006 0 -37.7245
-1079.18 -2.07059 0 -49.942
-543.73 -2.19319 0 -59.7245
-1085.64 -2.14241 0 -50.2208
-1082.41 -2.10643 0 -50.0806
-1615.67 -1.9002 0 -37.5169
-1606 -1.84088 0 -37.1084
-538.873 -2.07335 0 -59.5181
-542.111 -2.15311 0 -59.6549
-1610.83 -1.87047 0 -37.3115
-1072.72 -1.99933 0 -49.6693
-540.492 -2.11316 0 -59.5861
-1079.18 -2.07059 0 -49.942
-1075.95 -2.03489 0 -49.8049
-1606 -1.84088 0 -37.1084
-1596.32 -1.7821 0 -36.7091
-535.635 -1.99412 0 -59.3844
-538.873 -2.07335 0 -59.5181
-1601.16 -1.81142 0 -36.9076
-1066.26 -1.9286 0 -49.4027
-537.254 -2.03367 0 -59.4509
-1072.72 -1.99933 0 -49.6693
-1069.49 -1.9639 0 -49.5353
-1596.32 -1.7821 0 -36.7091
-1586.65 -1.72384 0 -36.3188
-532.397 -1.91542 0 -59.2536
-535.635 -1.99412 0 -59.3844
-1591.49 -1.7529 0 -36.5128
-1059.81 -1.85842 0 -49.1422
-534.016 -1.95471 0 -59.3186
-1066.26 -1.9286 0 -49.4027
-1063.04 -1.89345 0 -49.2717
-1586.65 -1.72384 0 -36.3188
-1576.98 -1.66609 0 -35.9377
-529.159 -1.83725 0 -59.1259
-532.397 -1.91542 0 -59.2536
-1581.82 -1.6949 0 -36.1271
-1053.35 -1.78877 0 -48.8877
-530.778 -1.87627 0 -59.1894
-1059.81 -1.85842 0 -49.1422
-1056.58 -1.82353 0 -49.0142
-1576.98 -1.66609 0 -35.9377
-1567.31 -1.60885 0 -35.5655
-525.922 -1.7596 0 -59.0011
-529.159 -1.83725 0 -59.1259
-1572.14 -1.63741 0 -35.7505
-1046.89 -1.71964 0 -48.6392
-527.54 -1.79836 0 -59.0631
-1053.35 -1.78877 0 -48.8877
-1050.12 -1.75414 0 -48.7627
-1567.31 -1.60885 0 -35.5655
-1557.64 -1.5521 0 -35.2023
-522.684 -1.68248 0 -58.8793
-525.922 -1.7596 0 -59.0011
-1562.47 -1.58041 0 -35.3828
-1040.43 -1.65102 0 -48.3966
-524.303 -1.72098 0 -58.9399
-1046.89 -1.71964 0 -48.6392
-1043.66 -1.68527 0 -48.5172
-1557.64 -1.5521 0 -35.2023
-1547.96 -1.49583 0 -34.8479
-519.446 -1.60587 0 -58.7605
-522.684 -1.68248 0 -58.8793
-1552.8 -1.5239 0 -35.024
-1033.98 -1.58292 0 -48.16
-521.065 -1.64411 0 -58.8196
-1040.43 -1.65102 0 -48.3966
-1037.21 -1.61691 0 -48.2776
-1547.96 -1.49583 0 -34.8479
-1538.29 -1.44004 0 -34.5024
-516.208 -1.52978 0 -58.6446
-519.446 -1.60587 0 -58.7605
-1543.13 -1.46788 0 -34.674
-1027.52 -1.51533 0 -47.9293
-517.827 -1.56776 0 -58.7022
-1033.98 -1.58292 0 -48.16
-1030.75 -1.54906 0 -48.0439
-1538.29 -1.44004 0 -34.5024
-1528.62 -1.38472 0 -34.1656
-512.971 -1.4542 0 -58.5316
-516.208 -1.52978 0 -58.6446
-1533.45 -1.41232 0 -34.3329
-1021.06 -1.44824 0 -47.7044
-514.59 -1.49192 0 -58.5878
-1027.52 -1.51533 0 -47.9293
-1024.29 -1.48172 0 -47.8161
-1528.62 -1.38472 0 -34.1656
-1518.94 -1.32986 0 -33.8376
-509.733 -1.37913 0 -58.4216
-512.971 -1.4542 0 -58.5316
-1523.78 -1.35723 0 -34.0005
-1014.61 -1.38164 0 -47.4853
-511.352 -1.4166 0 -58.4762
-1021.06 -1.44824 0 -47.7044
-1017.83 -1.41487 0 -47.5941
-1518.94 -1.32986 0 -33.8376
-1509.27 -1.27544 0 -33.5182
-506.496 -1.30457 0 -58.3144
-509.733 -1.37913 0 -58.4216
-1514.11 -1.30259 0 -33.6768
-1008.15 -1.31553 0 -47.272
-508.115 -1.34179 0 -58.3676
-1014.61 -1.38164 0 -47.4853
-1011.38 -1.34852 0 -47.3779
-1509.27 -1.27544 0 -33.5182
-1499.6 -1.22147 0 -33.2075
-503.258 -1.23051 0 -58.21
-506.496 -1.30457 0 -58.3144
-1504.44 -1.2484 0 -33.3618
-1001.69 -1.2499 0 -47.0644
-504.877 -1.26748 0 -58.2618
-1008.15 -1.31553 0 -47.272
-1004.92 -1.28265 0 -47.1675
-1499.6 -1.22147 0 -33.2075
-1489.93 -1.16793 0 -32.9053
-500.021 -1.15696 0 -58.1085
-503.258 -1.23051 0 -58.21
-1494.76 -1.19465 0 -33.0553
-995.234 -1.18475 0 -46.8625
-501.64 -1.19368 0 -58.1589
-1001.69 -1.2499 0 -47.0644
-998.463 -1.21727 0 -46.9627
-1489.93 -1.16793 0 -32.9053
-1480.25 -1.11481 0 -32.6116
-496.784 -1.08391 0 -58.0099
-500.021 -1.15696 0 -58.1085
-1485.09 -1.14132 0 -32.7574
-988.777 -1.12008 0 -46.6663
-498.403 -1.12037 0 -58.0588
-995.234 -1.18475 0 -46.8625
-992.006 -1.15236 0 -46.7637
-1480.25 -1.11481 0 -32.6116
-1470.58 -1.06211 0 -32.3264
-493.547 -1.01136 0 -57.914
-496.784 -1.08391 0 -58.0099
-1475.42 -1.08841 0 -32.4679
-982.32 -1.05587 0 -46.4757
-495.165 -1.04757 0 -57.9616
-988.777 -1.12008 0 -46.6663
-985.548 -1.08792 0 -46.5703
-1470.58 -1.06211 0 -32.3264
-1460.91 -1.00982 0 -32.0495
-490.31 -0.939298 0 -57.8209
-493.547 -1.01136 0 -57.914
-1465.74 -1.03592 0 -32.1869
-975.863 -0.992123 0 -46.2907
-491.928 -0.975266 0 -57.8671
-982.32 -1.05587 0 -46.4757
-979.091 -1.02394 0 -46.3825
-1460.91 -1.00982 0 -32.0495
-1451.23 -0.957927 0 -31.781
-487.073 -0.867731 0 -57.7306
-490.31 -0.939298 0 -57.8209
-1456.07 -0.983824 0 -31.9142
-969.406 -0.928833 0 -46.1113
-488.691 -0.903453 0 -57.7754
-975.863 -0.992123 0 -46.2907
-972.634 -0.960421 0 -46.2003
-1451.23 -0.957927 0 -31.781
-1441.56 -0.906426 0 -31.5208
-483.836 -0.796654 0 -57.6431
-487.073 -0.867731 0 -57.7306
-1446.4 -0.932128 0 -31.6499
-962.949 -0.865994 0 -45.9374
-485.454 -0.832132 0 -57.6865
-969.406 -0.928833 0 -46.1113
-966.178 -0.897357 0 -46.0236
-1441.56 -0.906426 0 -31.5208
-1431.89 -0.85531 0 -31.2688
-480.599 -0.726065 0 -57.5583
-483.836 -0.796654 0 -57.6431
-1436.73 -0.880821 0 -31.3938
-956.492 -0.803602 0 -45.7689
-482.217 -0.761299 0 -57.6004
-962.949 -0.865994 0 -45.9374
-959.721 -0.834742 0 -45.8525
-1431.89 -0.85531 0 -31.2688
-1422.22 -0.804571 0 -31.0249
-477.362 -0.65596 0 -57.4762
-480.599 -0.726065 0 -57.5583
-1427.05 -0.829894 0 -31.1458
-950.036 -0.741651 0 -45.606
-478.981 -0.690952 0 -57.5169
-956.492 -0.803602 0 -45.7689
-953.264 -0.772571 0 -45.6868
-1422.22 -0.804571 0 -31.0249
-1412.54 -0.754202 0 -30.7892
-474.126 -0.586338 0 -57.3968
-477.362 -0.65596 0 -57.4762
-1417.38 -0.779341 0 -30.9061
-943.579 -0.680136 0 -45.4484
-475.744 -0.621089 0 -57.4362
-950.036 -0.741651 0 -45.606
-946.807 -0.710839 0 -45.5265
-1412.54 -0.754202 0 -30.7892
-1402.87 -0.704196 0 -30.5616
-470.889 -0.517196 0 -57.3201
-474.126 -0.586338 0 -57.3968
-1407.71 -0.729154 0 -30.6744
-937.123 -0.619053 0 -45.2962
-472.508 -0.551707 0 -57.3581
-943.579 -0.680136 0 -45.4484
-940.351 -0.649541 0 -45.3716
-1402.87 -0.704196 0 -30.5616
-1393.2 -0.654545 0 -30.3419
-467.653 -0.448532 0 -57.2461
-470.889 -0.517196 0 -57.3201
-1398.04 -0.679326 0 -30.4507
-930.666 -0.558398 0 -45.1493
-469.271 -0.482804 0 -57.2828
-937.123 -0.619053 0 -45.2962
-933.894 -0.588673 0 -45.2221
-1393.2 -0.654545 0 -30.3419
-1383.53 -0.605243 0 -30.1302
-464.417 -0.380343 0 -57.1747
-467.653 -0.448532 0 -57.2461
-1388.36 -0.629851 0 -30.2351
-924.21 -0.498165 0 -45.0077
-466.035 -0.414378 0 -57.21
-930.666 -0.558398 0 -45.1493
-927.438 -0.528229 0 -45.0778
-1383.53 -0.605243 0 -30.1302
-1373.85 -0.556283 0 -29.9264
-461.18 -0.312628 0 -57.1059
-464.417 -0.380343 0 -57.1747
-1378.69 -0.580721 0 -30.0273
-917.754 -0.43835 0 -44.8714
-462.799 -0.346427 0 -57.14
-924.21 -0.498165 0 -45.0077
-920.982 -0.468205 0 -44.9389
-1373.85 -0.556283 0 -29.9264
-1364.18 -0.507659 0 -29.7305
-457.944 -0.245384 0 -57.0397
-461.18 -0.312628 0 -57.1059
-1369.02 -0.531929 0 -29.8275
-911.298 -0.378949 0 -44.7403
-459.562 -0.278948 0 -57.0725
-917.754 -0.43835 0 -44.8714
-914.526 -0.408598 0 -44.8052
-1364.18 -0.507659 0 -29.7305
-1354.51 -0.459364 0 -29.5423
-454.708 -0.17861 0 -56.9762
-457.944 -0.245384 0 -57.0397
-1359.35 -0.48347 0 -29.6354
-904.842 -0.319957 0 -44.6144
-456.326 -0.211939 0 -57.0076
-911.298 -0.378949 0 -44.7403
-908.07 -0.349402 0 -44.6767
-1354.51 -0.459364 0 -29.5423
-1344.84 -0.411391 0 -29.3618
-451.473 -0.112302 0 -56.9152
-454.708 -0.17861 0 -56.9762
-1349.67 -0.435338 0 -29.4511
-898.386 -0.261371 0 -44.4937
-453.091 -0.145398 0 -56.9453
-904.842 -0.319957 0 -44.6144
-901.614 -0.290614 0 -44.5534
-1344.84 -0.411391 0 -29.3618
-1335.17 -0.363736 0 -29.1891
-448.237 -0.0464597 0 -56.8567
-451.473 -0.112302 0 -56.9152
-1340 -0.387524 0 -29.2745
-891.93 -0.203186 0 -44.3781
-449.855 -0.0793229 0 -56.8856
-898.386 -0.261371 0 -44.4937
-895.158 -0.232229 0 -44.4352
-1335.17 -0.363736 0 -29.1891
-1325.49 -0.316391 0 -29.0239
-445.001 0.0189196 0 -56.8008
-448.237 -0.0464597 0 -56.8567
-1330.33 -0.340025 0 -29.1056
-885.474 -0.145399 0 -44.2675
-446.619 -0.0137123 0 -56.8284
-891.93 -0.203186 0 -44.3781
-888.702 -0.174243 0 -44.3222
-1325.49 -0.316391 0 -29.0239
-1315.82 -0.269352 0 -28.8663
-441.766 0.0838376 0 -56.7474
-445.001 0.0189196 0 -56.8008
-1320.66 -0.292834 0 -28.9442
-879.019 -0.0880049 0 -44.162
-443.384 0.0514361 0 -56.7738
-885.474 -0.145399 0 -44.2675
-882.247 -0.116653 0 -44.2141
-1315.82 -0.269352 0 -28.8663
-1306.15 -0.222611 0 -28.7163
-438.53 0.148296 0 -56.6965
-441.766 0.0838376 0 -56.7474
-1310.99 -0.245944 0 -28.7904
-872.564 -0.0310007 0 -44.0615
-440.148 0.116124 0 -56.7217
-879.019 -0.0880049 0 -44.162
-875.791 -0.0594543 0 -44.1111
-1306.15 -0.222611 0 -28.7163
-1296.48 -0.176165 0 -28.5737
-435.295 0.212297 0 -56.6481
-438.53 0.148296 0 -56.6965
-1301.31 -0.199352 0 -28.644
-866.109 0.0256174 0 -43.966
-436.913 0.180354 0 -56.672
-872.564 -0.0310007 0 -44.0615
-869.336 -0.00264365 0 -44.0131
-1296.48 -0.176165 0 -28.5737
-1286.81 -0.130007 0 -28.4385
-432.06 0.275842 0 -56.6022
-435.295 0.212297 0 -56.6481
-1291.64 -0.15305 0 -28.5051
-859.653 0.0818529 0 -43.8754
-433.678 0.244127 0 -56.6248
-866.109 0.0256174 0 -43.966
-862.881 0.0537828 0 -43.9201
-1286.81 -0.130007 0 -28.4385
-1277.14 -0.0841325 0 -28.3106
-428.825 0.338933 0 -56.5587
-432.06 0.275842 0 -56.6022
-1281.97 -0.107035 0 -28.3736
-853.199 0.137709 0 -43.7897
-430.443 0.307444 0 -56.5801
-859.653 0.0818529 0 -43.8754
-856.426 0.109828 0 -43.8319
-1277.14 -0.0841325 0 -28.3106
-1267.47 -0.038536 0 -28.19
-425.59 0.401572 0 -56.5176
-428.825 0.338933 0 -56.5587
-1272.3 -0.0612998 0 -28.2494
-846.744 0.19319 0 -43.7088
-427.208 0.370309 0 -56.5378
-853.199 0.137709 0 -43.7897
-849.971 0.165497 0 -43.7487
-1267.47 -0.038536 0 -28.19
-1257.79 0.00678744 0 -28.0767
-422.356 0.46376 0 -56.4789
-425.59 0.401572 0 -56.5176
-1262.63 -0.0158404 0 -28.1324
-840.289 0.248299 0 -43.6328
-423.973 0.432722 0 -56.498
-846.744 0.19319 0 -43.7088
-843.517 0.220791 0 -43.6702
-1257.79 0.00678744 0 -28.0767
-1248.12 0.0518425 0 -27.9705
-419.121 0.525498 0 -56.4427
-422.356 0.46376 0 -56.4789
-1252.96 0.0293482 0 -28.0227
-833.835 0.303038 0 -43.5616
-420.738 0.494685 0 -56.4605
-840.289 0.248299 0 -43.6328
-837.062 0.275715 0 -43.5966
-1248.12 0.0518425 0 -27.9705
-1238.45 0.096634 0 -27.8715
-415.887 0.586789 0 -56.4088
-419.121 0.525498 0 -56.4427
-1243.29 0.0742709 0 -27.9201
-827.381 0.357412 0 -43.4951
-417.504 0.556199 0 -56.4254
-833.835 0.303038 0 -43.5616
-830.608 0.330271 0 -43.5278
-1238.45 0.096634 0 -27.8715
-1228.78 0.141166 0 -27.7795
-412.652 0.647633 0 -56.3772
-415.887 0.586789 0 -56.4088
-1233.62 0.118932 0 -27.8246
-820.927 0.411422 0 -43.4334
-414.27 0.617267 0 -56.3927
-827.381 0.357412 0 -43.4951
-824.154 0.384462 0 -43.4636
-1228.78 0.141166 0 -27.7795
-1219.11 0.185444 0 -27.6945
-409.418 0.708033 0 -56.348
-412.652 0.647633 0 -56.3772
-1223.95 0.163337 0 -27.7361
-814.473 0.465072 0 -43.3763
-411.035 0.677889 0 -56.3623
-820.927 0.411422 0 -43.4334
-817.7 0.438292 0 -43.4042
-1219.11 0.185444 0 -27.6945
-1209.44 0.229471 0 -27.6165
-406.184 0.767989 0 -56.3211
-409.418 0.708033 0 -56.348
-1214.28 0.207489 0 -27.6547
-808.019 0.518365 0 -43.3238
-407.801 0.738067 0 -56.3343
-814.473 0.465072 0 -43.3763
-811.246 0.491763 0 -43.3495
-1209.44 0.229471 0 -27.6165
-1199.77 0.273253 0 -27.5455
-402.95 0.827504 0 -56.2965
-406.184 0.767989 0 -56.3211
-1204.61 0.251392 0 -27.5801
-801.565 0.571304 0 -43.276
-404.567 0.797802 0 -56.3085
-808.019 0.518365 0 -43.3238
-804.792 0.544879 0 -43.2993
-1199.77 0.273253 0 -27.5455
-1190.1 0.316791 0 -27.4812
-399.717 0.886577 0 -56.2742
-402.95 0.827504 0 -56.2965
-1194.94 0.295052 0 -27.5125
-795.112 0.62389 0 -43.2327
-401.333 0.857096 0 -56.2851
-801.565 0.571304 0 -43.276
-798.339 0.597641 0 -43.2537
-1190.1 0.316791 0 -27.4812
-1180.43 0.360092 0 -27.4238
-396.483 0.945212 0 -56.2542
-399.717 0.886577 0 -56.2742
-1185.27 0.338471 0 -27.4516
-788.659 0.676128 0 -43.1939
-398.1 0.915949 0 -56.2639
-795.112 0.62389 0 -43.2327
-791.885 0.650053 0 -43.2127
-1180.43 0.360092 0 -27.4238
-1170.76 0.403158 0 -27.3731
-393.25 1.00341 0 -56.2364
-396.483 0.945212 0 -56.2542
-1175.6 0.381654 0 -27.3976
-782.206 0.728019 0 -43.1597
-394.866 0.974364 0 -56.245
-788.659 0.676128 0 -43.1939
-785.432 0.702117 0 -43.1762
-1170.76 0.403158 0 -27.3731
-1161.09 0.445993 0 -27.329
-390.016 1.06117 0 -56.2208
-393.25 1.00341 0 -56.2364
-1165.93 0.424604 0 -27.3502
-775.753 0.779565 0 -43.1299
-391.633 1.03234 0 -56.2283
-782.206 0.728019 0 -43.1597
-778.979 0.753835 0 -43.1442
-1161.09 0.445993 0 -27.329
-1151.43 0.488601 0 -27.2916
-386.783 1.11849 0 -56.2075
-390.016 1.06117 0 -56.2208
-1156.26 0.467326 0 -27.3095
-769.3 0.83077 0 -43.1045
-388.4 1.08988 0 -56.2139
-775.753 0.779565 0 -43.1299
-772.527 0.80521 0 -43.1166
-1151.43 0.488601 0 -27.2916
-1141.76 0.530985 0 -27.2608
-383.55 1.17538 0 -56.1963
-386.783 1.11849 0 -56.2075
-1146.59 0.509821 0 -27.2754
-762.848 0.881634 0 -43.0835
-385.167 1.14699 0 -56.2016
-769.3 0.83077 0 -43.1045
-766.074 0.856244 0 -43.0934
-1141.76 0.530985 0 -27.2608
-1132.09 0.573148 0 -27.2365
-380.317 1.23183 0 -56.1873
-383.55 1.17538 0 -56.1963
-1136.92 0.552094 0 -27.2479
-756.396 0.932161 0 -43.0668
-381.934 1.20366 0 -56.1915
-762.848 0.881634 0 -43.0835
-759.622 0.90694 0 -43.0746
-1132.09 0.573148 0 -27.2365
-1122.42 0.615094 0 -27.2187
-377.085 1.28785 0 -56.1805
-380.317 1.23183 0 -56.1873
-1127.25 0.594148 0 -27.2268
-749.944 0.982353 0 -43.0545
-378.701 1.2599 0 -56.1836
-756.396 0.932161 0 -43.0668
-753.17 0.957299 0 -43.0601
-1122.42 0.615094 0 -27.2187
-1112.75 0.656825 0 -27.2072
-373.852 1.34344 0 -56.1758
-377.085 1.28785 0 -56.1805
-1117.59 0.635986 0 -27.2122
-743.492 1.03221 0 -43.0464
-375.469 1.3157 0 -56.1778
-749.944 0.982353 0 -43.0545
-746.718 1.00732 0 -43.0499
-1112.75 0.656825 0 -27.2072
-1103.08 0.698344 0 -27.2022
-370.62 1.3986 0 -56.1732
-373.852 1.34344 0 -56.1758
-1107.92 0.677611 0 -27.2039
-737.04 1.08174 0 -43.0425
-372.236 1.37108 0 -56.1742
-743.492 1.03221 0 -43.0464
-740.266 1.05702 0 -43.0439
-1103.08 0.698344 0 -27.2022
-1093.42 0.739654 0 -27.2034
-367.388 1.45333 0 -56.1727
-370.62 1.3986 0 -56.1732
-1098.25 0.719025 0 -27.202
-730.589 1.13093 0 -43.0429
-369.004 1.42602 0 -56.1727
-737.04 1.08174 0 -43.0425
-733.814 1.10638 0 -43.0422
-1093.42 0.739654 0 -27.2034
-1083.75 0.780758 0 -27.2108
-364.156 1.50763 0 -56.1743
-367.388 1.45333 0 -56.1727
-1088.58 0.760232 0 -27.2063
-724.137 1.1798 0 -43.0474
-365.772 1.48054 0 -56.1732
-730.589 1.13093 0 -43.0429
-727.363 1.15541 0 -43.0447
-1083.75 0.780758 0 -27.2108
-1074.08 0.821659 0 -27.2245
-360.924 1.56151 0 -56.1779
-364.156 1.50763 0 -56.1743
-1078.92 0.801234 0 -27.2169
-717.686 1.22835 0 -43.0561
-362.54 1.53462 0 -56.1759
-724.137 1.1798 0 -43.0474
-720.912 1.20412 0 -43.0512
-1074.08 0.821659 0 -27.2245
-1064.41 0.862358 0 -27.2443
-357.692 1.61495 0 -56.1836
-360.924 1.56151 0 -56.1779
-1069.25 0.842033 0 -27.2336
-711.236 1.27656 0 -43.0688
-359.308 1.58828 0 -56.1805
-717.686 1.22835 0 -43.0561
-714.461 1.25249 0 -43.0619
-1064.41 0.862358 0 -27.2443
-1054.75 0.902858 0 -27.2701
-354.461 1.66797 0 -56.1914
-357.692 1.61495 0 -56.1836
-1059.58 0.882632 0 -27.2564
-704.785 1.32446 0 -43.0856
-356.076 1.64151 0 -56.1873
-711.236 1.27656 0 -43.0688
-708.01 1.30055 0 -43.0767
-1054.75 0.902858 0 -27.2701
-1045.08 0.943161 0 -27.302
-351.229 1.72056 0 -56.2011
-354.461 1.66797 0 -56.1914
-1049.91 0.923034 0 -27.2853
-698.335 1.37203 0 -43.1064
-352.845 1.69432 0 -56.196
-704.785 1.32446 0 -43.0856
-701.56 1.34828 0 -43.0955
-1045.08 0.943161 0 -27.302
-1035.42 0.983269 0 -27.3398
-347.998 1.77273 0 -56.2129
-351.229 1.72056 0 -56.2011
-1040.25 0.963239 0 -27.3202
-691.884 1.41928 0 -43.1312
-349.614 1.7467 0 -56.2067
-698.335 1.37203 0 -43.1064
-695.109 1.3957 0 -43.1183
-1035.42 0.983269 0 -27.3398
-1025.75 1.02318 0 -27.3836
-344.767 1.82447 0 -56.2266
-347.998 1.77273 0 -56.2129
-1030.58 1.00325 0 -27.361
-685.434 1.46622 0 -43.1599
-346.382 1.79865 0 -56.2195
-691.884 1.41928 0 -43.1312
-688.659 1.44279 0 -43.1451
-1025.75 1.02318 0 -27.3836
-1016.08 1.06291 0 -27.4332
-341.536 1.87579 0 -56.2422
-344.767 1.82447 0 -56.2266
-1020.92 1.04307 0 -27.4077
-678.985 1.51283 0 -43.1926
-343.151 1.85018 0 -56.2341
-685.434 1.46622 0 -43.1599
-682.209 1.48956 0 -43.1758
-1016.08 1.06291 0 -27.4332
-1006.42 1.10244 0 -27.4886
-338.305 1.92668 0 -56.2598
-341.536 1.87579 0 -56.2422
-1011.25 1.0827 0 -27.4602
-672.535 1.55913 0 -43.2291
-339.921 1.90129 0 -56.2508
-678.985 1.51283 0 -43.1926
-675.76 1.53602 0 -43.2104
-1006.42 1.10244 0 -27.4886
-996.753 1.14179 0 -27.5498
-335.075 1.97716 0 -56.2793
-338.305 1.92668 0 -56.2598
-1001.59 1.12214 0 -27.5185
-666.086 1.60511 0 -43.2694
-336.69 1.95197 0 -56.2693
-672.535 1.55913 0 -43.2291
-669.31 1.58216 0 -43.2488
-996.753 1.14179 0 -27.5498
-987.088 1.18095 0 -27.6167
-331.844 2.02721 0 -56.3007
-335.075 1.97716 0 -56.2793
-991.92 1.1614 0 -27.5825
-659.637 1.65078 0 -43.3136
-333.459 2.00223 0 -56.2898
-666.086 1.60511 0 -43.2694
-662.861 1.62799 0 -43.291
-987.088 1.18095 0 -27.6167
-977.423 1.21993 0 -27.6891
-328.614 2.07683 0 -56.324
-331.844 2.02721 0 -56.3007
-982.255 1.20047 0 -27.6522
-653.188 1.69614 0 -43.3615
-330.229 2.05207 0 -56.3122
-659.637 1.65078 0 -43.3136
-656.412 1.6735 0 -43.337
-977.423 1.21993 0 -27.6891
-967.758 1.25872 0 -27.7672
-325.384 2.12604 0 -56.3492
-328.614 2.07683 0 -56.324
-972.591 1.23935 0 -27.7275
-646.739 1.74118 0 -43.4131
-326.999 2.10149 0 -56.3364
-653.188 1.69614 0 -43.3615
-649.963 1.7187 0 -43.3868
-967.758 1.25872 0 -27.7672
-958.094 1.29734 0 -27.8508
-322.154 2.17482 0 -56.3762
-325.384 2.12604 0 -56.3492
-962.926 1.27805 0 -27.8083
-640.291 1.78591 0 -43.4684
-323.769 2.15048 0 -56.3625
-646.739 1.74118 0 -43.4131
-643.515 1.76358 0 -43.4403
-958.094 1.29734 0 -27.8508
-948.43 1.33577 0 -27.9399
-318.924 2.22319 0 -56.405
-322.154 2.17482 0 -56.3762
-953.262 1.31657 0 -27.8947
-633.842 1.83033 0 -43.5273
-320.539 2.19906 0 -56.3904
-640.291 1.78591 0 -43.4684
-637.066 1.80816 0 -43.4974
-948.43 1.33577 0 -27.9399
-938.766 1.37402 0 -28.0344
-315.695 2.27113 0 -56.4357
-318.924 2.22319 0 -56.405
-943.598 1.35491 0 -27.9864
-627.394 1.87444 0 -43.5899
-317.309 2.24721 0 -56.4201
-633.842 1.83033 0 -43.5273
-630.618 1.85242 0 -43.5582
-938.766 1.37402 0 -28.0344
-929.103 1.41209 0 -28.1342
-312.465 2.31865 0 -56.4681
-315.695 2.27113 0 -56.4357
-933.934 1.39307 0 -28.0836
-620.947 1.91823 0 -43.656
-314.08 2.29494 0 -56.4517
-627.394 1.87444 0 -43.5899
-624.17 1.89637 0 -43.6225
-929.103 1.41209 0 -28.1342
-919.439 1.44998 0 -28.2393
-309.236 2.36576 0 -56.5023
-312.465 2.31865 0 -56.4681
-924.271 1.43106 0 -28.1861
-614.499 1.96172 0 -43.7257
-310.851 2.34226 0 -56.485
-620.947 1.91823 0 -43.656
-617.723 1.94002 0 -43.6904
-919.439 1.44998 0 -28.2393
-909.776 1.4877 0 -28.3497
-306.007 2.41244 0 -56.5383
-309.236 2.36576 0 -56.5023
-914.608 1.46886 0 -28.2939
-608.052 2.0049 0 -43.7989
-307.621 2.38915 0 -56.5201
-614.499 1.96172 0 -43.7257
-611.275 1.98335 0 -43.7619
-909.776 1.4877 0 -28.3497
-900.114 1.52523 0 -28.4653
-302.778 2.4587 0 -56.576
-306.007 2.41244 0 -56.5383
-904.945 1.50649 0 -28.4069
-601.605 2.04777 0 -43.8755
-304.392 2.43562 0 -56.5569
-608.052 2.0049 0 -43.7989
-604.828 2.02637 0 -43.8368
-900.114 1.52523 0 -28.4653
-890.451 1.56259 0 -28.5861
-299.549 2.50455 0 -56.6154
-302.778 2.4587 0 -56.576
-895.282 1.54394 0 -28.5251
-595.158 2.09033 0 -43.9556
-301.164 2.48168 0 -56.5955
-601.605 2.04777 0 -43.8755
-598.381 2.06909 0 -43.9151
-890.451 1.56259 0 -28.5861
-880.789 1.59978 0 -28.7119
-296.321 2.54997 0 -56.6565
-299.549 2.50455 0 -56.6154
-885.62 1.58121 0 -28.6483
-588.711 2.13259 0 -44.0391
-297.935 2.52731 0 -56.6357
-595.158 2.09033 0 -43.9556
-591.934 2.1115 0 -43.9969
-880.789 1.59978 0 -28.7119
-871.127 1.63679 0 -28.8427
-293.092 2.59498 0 -56.6993
-296.321 2.54997 0 -56.6565
-875.958 1.6183 0 -28.7767
-582.265 2.17453 0 -44.1259
-294.707 2.57253 0 -56.6777
-588.711 2.13259 0 -44.0391
-585.488 2.1536 0 -44.0821
-871.127 1.63679 0 -28.8427
-861.465 1.67362 0 -28.9785
-289.864 2.63956 0 -56.7438
-293.092 2.59498 0 -56.6993
-866.296 1.65522 0 -28.91
-575.818 2.21617 0 -44.216
-291.478 2.61732 0 -56.7213
-582.265 2.17453 0 -44.1259
-579.041 2.19539 0 -44.1706
-861.465 1.67362 0 -28.9785
-851.803 1.71028 0 -29.1193
-286.636 2.68373 0 -56.7899
-289.864 2.63956 0 -56.7438
-856.634 1.69197 0 -29.0483
-569.372 2.2575 0 -44.3095
-288.25 2.6617 0 -56.7666
-575.818 2.21617 0 -44.216
-572.595 2.23687 0 -44.2623
-851.803 1.71028 0 -29.1193
-842.142 1.74676 0 -29.2649
-283.408 2.72748 0 -56.8376
-286.636 2.68373 0 -56.7899
-846.973 1.72854 0 -29.1915
-562.927 2.29852 0 -44.4061
-285.022 2.70565 0 -56.8135
-569.372 2.2575 0 -44.3095
-566.15 2.27805 0 -44.3574
-842.142 1.74676 0 -29.2649
-832.481 1.78306 0 -29.4153
-280.18 2.7708 0 -56.8869
-283.408 2.72748 0 -56.8376
-837.312 1.76493 0 -29.3395
-556.481 2.33923 0 -44.506
-281.794 2.74919 0 -56.8621
-562.927 2.29852 0 -44.4061
-559.704 2.31892 0 -44.4557
-832.481 1.78306 0 -29.4153
-822.82 1.81919 0 -29.5705
-276.953 2.81371 0 -56.9378
-280.18 2.7708 0 -56.8869
-827.651 1.80115 0 -29.4923
-550.036 2.37964 0 -44.6091
-278.567 2.79231 0 -56.9122
-556.481 2.33923 0 -44.506
-553.258 2.35947 0 -44.5572
-822.82 1.81919 0 -29.5705
-813.16 1.85514 0 -29.7303
-273.725 2.8562 0 -56.9903
-276.953 2.81371 0 -56.9378
-817.99 1.83719 0 -29.6498
-543.591 2.41974 0 -44.7153
-275.339 2.83501 0 -56.9639
-550.036 2.37964 0 -44.6091
-546.813 2.39973 0 -44.6618
-813.16 1.85514 0 -29.7303
-803.5 1.89092 0 -29.8948
-270.498 2.89827 0 -57.0444
-273.725 2.8562 0 -56.9903
-808.33 1.87306 0 -29.812
-537.146 2.45953 0 -44.8245
-272.112 2.87729 0 -57.0172
-543.591 2.41974 0 -44.7153
-540.368 2.43967 0 -44.7695
-803.5 1.89092 0 -29.8948
-793.84 1.92652 0 -30.0639
-267.271 2.93992 0 -57.1
-270.498 2.89827 0 -57.0444
-798.67 1.90874 0 -29.9788
-530.701 2.49901 0 -44.9369
-268.885 2.91915 0 -57.072
-537.146 2.45953 0 -44.8245
-533.924 2.4793 0 -44.8803
-793.84 1.92652 0 -30.0639
-784.18 1.96194 0 -30.2376
-264.044 2.98115 0 -57.1571
-267.271 2.93992 0 -57.1
-789.01 1.94425 0 -30.1502
-524.257 2.53818 0 -45.0523
-265.658 2.96059 0 -57.1284
-530.701 2.49901 0 -44.9369
-527.479 2.51863 0 -44.9942
-784.18 1.96194 0 -30.2376
-774.52 1.99719 0 -30.4157
-260.818 3.02196 0 -57.2157
-264.044 2.98115 0 -57.1571
-779.35 1.97959 0 -30.3261
-517.813 2.57704 0 -45.1706
-262.431 3.00161 0 -57.1862
-524.257 2.53818 0 -45.0523
-521.035 2.55765 0 -45.1111
-774.52 1.99719 0 -30.4157
-764.861 2.03225 0 -30.5982
-257.591 3.06235 0 -57.2758
-260.818 3.02196 0 -57.2157
-769.691 2.01474 0 -30.5064
-511.369 2.61559 0 -45.2919
-259.204 3.04221 0 -57.2456
-517.813 2.57704 0 -45.1706
-514.591 2.59635 0 -45.2309
-764.861 2.03225 0 -30.5982
-755.202 2.06714 0 -30.7851
-254.365 3.10232 0 -57.3373
-257.591 3.06235 0 -57.2758
-760.032 2.04972 0 -30.6911
-504.925 2.65383 0 -45.4162
-255.978 3.08239 0 -57.3064
-511.369 2.61559 0 -45.2919
-508.147 2.63475 0 -45.3537
-755.202 2.06714 0 -30.7851
-745.543 2.10184 0 -30.9763
-251.138 3.14187 0 -57.4003
-254.365 3.10232 0 -57.3373
-750.373 2.08451 0 -30.8802
-498.481 2.69176 0 -45.5433
-252.752 3.12215 0 -57.3686
-504.925 2.65383 0 -45.4162
-501.703 2.67284 0 -45.4794
-745.543 2.10184 0 -30.9763
-735.885 2.13636 0 -31.1718
-247.912 3.18099 0 -57.4647
-251.138 3.14187 0 -57.4003
-740.714 2.11912 0 -31.0735
-492.038 2.72938 0 -45.6732
-249.525 3.16148 0 -57.4323
-498.481 2.69176 0 -45.5433
-495.26 2.71061 0 -45.6079
-735.885 2.13636 0 -31.1718
-726.227 2.1707 0 -31.3715
-244.687 3.2197 0 -57.5306
-247.912 3.18099 0 -57.4647
-731.056 2.15356 0 -31.2711
-485.595 2.76669 0 -45.806
-246.299 3.2004 0 -57.4975
-492.038 2.72938 0 -45.6732
-488.816 2.74807 0 -45.7393
-726.227 2.1707 0 -31.3715
-716.569 2.20486 0 -31.5753
-241.461 3.25798 0 -57.5978
-244.687 3.2197 0 -57.5306
-721.398 2.1878 0 -31.4729
-479.152 2.80368 0 -45.9415
-243.074 3.23889 0 -57.564
-485.595 2.76669 0 -45.806
-482.373 2.78522 0 -45.8734
-716.569 2.20486 0 -31.5753
-706.911 2.23883 0 -31.7832
-238.235 3.29584 0 -57.6664
-241.461 3.25798 0 -57.5978
-711.74 2.22187 0 -31.6787
-472.709 2.84036 0 -46.0798
-239.848 3.27696 0 -57.6319
-479.152 2.80368 0 -45.9415
-475.931 2.82206 0 -46.0103
-706.911 2.23883 0 -31.7832
-697.253 2.27262 0 -31.9951
-235.01 3.33328 0 -57.7363
-238.235 3.29584 0 -57.6664
-702.082 2.25575 0 -31.8887
-466.267 2.87672 0 -46.2207
-236.623 3.31461 0 -57.7012
-472.709 2.84036 0 -46.0798
-469.488 2.85858 0 -46.1499
-697.253 2.27262 0 -31.9951
-687.596 2.30621 0 -32.2111
-231.785 3.37029 0 -57.8076
-235.01 3.33328 0 -57.7363
-692.424 2.28944 0 -32.1026
-459.825 2.91277 0 -46.3643
-233.397 3.35184 0 -57.7718
-466.267 2.87672 0 -46.2207
-463.046 2.89478 0 -46.2922
-687.596 2.30621 0 -32.2111
-677.939 2.33962 0 -32.4309
-228.56 3.40688 0 -57.8802
-231.785 3.37029 0 -57.8076
-682.767 2.32294 0 -32.3205
-453.383 2.9485 0 -46.5106
-230.172 3.38864 0 -57.8437
-459.825 2.91277 0 -46.3643
-456.604 2.93067 0 -46.4371
-677.939 2.33962 0 -32.4309
-668.282 2.37284 0 -32.6547
-225.335 3.44305 0 -57.954
-228.56 3.40688 0 -57.8802
-673.11 2.35626 0 -32.5423
-446.941 2.98391 0 -46.6594
-226.947 3.42502 0 -57.9169
-453.383 2.9485 0 -46.5106
-450.162 2.96625 0 -46.5847
-668.282 2.37284 0 -32.6547
-658.625 2.40587 0 -32.8822
-222.11 3.47879 0 -58.0292
-225.335 3.44305 0 -57.954
-663.454 2.38938 0 -32.768
-440.499 3.01901 0 -46.8108
-223.722 3.46097 0 -57.9915
-446.941 2.98391 0 -46.6594
-443.72 3.0015 0 -46.7348
-658.625 2.40587 0 -32.8822
-648.969 2.4387 0 -33.1135
-218.885 3.5141 0 -58.1056
-222.11 3.47879 0 -58.0292
-653.797 2.42231 0 -32.9974
-434.058 3.05378 0 -46.9647
-220.498 3.4965 0 -58.0673
-440.499 3.01901 0 -46.8108
-437.279 3.03643 0 -46.8874
-648.969 2.4387 0 -33.1135
-639.313 2.47134 0 -33.3486
-215.661 3.54899 0 -58.1833
-218.885 3.5141 0 -58.1056
-644.141 2.45504 0 -33.2306
-427.617 3.08824 0 -47.121
-217.273 3.5316 0 -58.1443
-434.058 3.05378 0 -46.9647
-430.837 3.07105 0 -47.0425
-639.313 2.47134 0 -33.3486
-629.657 2.50378 0 -33.5872
-212.437 3.58346 0 -58.2622
-215.661 3.54899 0 -58.1833
-634.485 2.48758 0 -33.4674
-421.176 3.12237 0 -47.2798
-214.049 3.56628 0 -58.2226
-427.617 3.08824 0 -47.121
-424.396 3.10534 0 -47.2001
-629.657 2.50378 0 -33.5872
-620.001 2.53602 0 -33.8295
-209.213 3.61749 0 -58.3423
-212.437 3.58346 0 -58.2622
-624.829 2.51993 0 -33.7079
-414.735 3.15617 0 -47.441
-210.825 3.60053 0 -58.3021
-421.176 3.12237 0 -47.2798
-417.955 3.13931 0 -47.3601
-620.001 2.53602 0 -33.8295
-610.346 2.56806 0 -34.0753
-205.989 3.6511 0 -58.4236
-209.213 3.61749 0 -58.3423
-615.173 2.55207 0 -33.952
-408.294 3.18966 0 -47.6046
-207.601 3.63435 0 -58.3828
-414.735 3.15617 0 -47.441
-411.515 3.17296 0 -47.5225
-610.346 2.56806 0 -34.0753
-600.69 2.5999 0 -34.3246
-202.765 3.68428 0 -58.5061
-205.989 3.6511 0 -58.4236
-605.518 2.58401 0 -34.1995
-401.854 3.22282 0 -47.7705
-204.377 3.66774 0 -58.4647
-408.294 3.18966 0 -47.6046
-405.074 3.20628 0 -47.6872
-600.69 2.5999 0 -34.3246
-591.035 2.63153 0 -34.5773
-199.541 3.71703 0 -58.5897
-202.765 3.68428 0 -58.5061
-595.863 2.61574 0 -34.4505
-395.414 3.25564 0 -47.9386
-201.153 3.70071 0 -58.5477
-401.854 3.22282 0 -47.7705
-398.634 3.23927 0 -47.8543
-591.035 2.63153 0 -34.5773
-581.38 2.66296 0 -34.8334
-196.318 3.74935 0 -58.6744
-199.541 3.71703 0 -58.5897
-586.208 2.64727 0 -34.705
-388.974 3.28815 0 -48.1091
-197.93 3.73324 0 -58.6319
-395.414 3.25564 0 -47.9386
-392.194 3.27194 0 -48.0236
-581.38 2.66296 0 -34.8334
-571.726 2.69418 0 -35.0929
-193.095 3.78124 0 -58.7603
-196.318 3.74935 0 -58.6744
-576.553 2.67859 0 -34.9627
-382.534 3.32032 0 -48.2817
-194.706 3.76535 0 -58.7172
-388.974 3.28815 0 -48.1091
-385.754 3.30427 0 -48.1951
-571.726 2.69418 0 -35.0929
-562.071 2.72518 0 -35.3555
-189.871 3.8127 0 -58.8473
-193.095 3.78124 0 -58.7603
-566.899 2.70971 0 -35.2238
-376.095 3.35216 0 -48.4566
-191.483 3.79702 0 -58.8037
-382.534 3.32032 0 -48.2817
-379.314 3.33628 0 -48.3689
-562.071 2.72518 0 -35.3555
-552.417 2.75597 0 -35.6214
-186.648 3.84372 0 -58.9353
-189.871 3.8127 0 -58.8473
-557.244 2.7406 0 -35.4881
-369.655 3.38366 0 -48.6336
-188.26 3.82826 0 -58.8912
-376.095 3.35216 0 -48.4566
-372.875 3.36795 0 -48.5448
-552.417 2.75597 0 -35.6214
-542.763 2.78655 0 -35.8905
-183.426 3.87432 0 -59.0244
-186.648 3.84372 0 -58.9353
-547.59 2.77129 0 -35.7556
-363.216 3.41483 0 -48.8126
-185.037 3.85907 0 -58.9797
-369.655 3.38366 0 -48.6336
-366.436 3.39929 0 -48.7228
-542.763 2.78655 0 -35.8905
-533.109 2.81691 0 -36.1627
-180.203 3.90447 0 -59.1146
-183.426 3.87432 0 -59.0244
-537.936 2.80175 0 -36.0262
-356.777 3.44567 0 -48.9938
-181.814 3.88945 0 -59.0694
-363.216 3.41483 0 -48.8126
-359.996 3.43029 0 -48.903
-533.109 2.81691 0 -36.1627
-523.456 2.84704 0 -36.4379
-176.98 3.9342 0 -59.2057
-180.203 3.90447 0 -59.1146
-528.283 2.832 0 -36.2999
-350.338 3.47616 0 -49.177
-178.592 3.91939 0 -59.16
-356.777 3.44567 0 -48.9938
-353.558 3.46096 0 -49.0852
-523.456 2.84704 0 -36.4379
-513.802 2.87695 0 -36.7161
-173.758 3.96349 0 -59.2979
-176.98 3.9342 0 -59.2057
-518.629 2.86203 0 -36.5766
-343.9 3.50632 0 -49.3622
-175.369 3.9489 0 -59.2517
-350.338 3.47616 0 -49.177
-347.119 3.49128 0 -49.2694
-513.802 2.87695 0 -36.7161
-504.149 2.90664 0 -36.9972
-170.536 3.99234 0 -59.3911
-173.758 3.96349 0 -59.2979
-508.976 2.89183 0 -36.8563
-337.461 3.53613 0 -49.5494
-172.147 3.97797 0 -59.3444
-343.9 3.50632 0 -49.3622
-340.68 3.52127 0 -49.4555
-504.149 2.90664 0 -36.9972
-494.496 2.9361 0 -37.2812
-167.314 4.02076 0 -59.4852
-170.536 3.99234 0 -59.3911
-499.323 2.9214 0 -37.1389
-331.023 3.5656 0 -49.7385
-168.925 4.0066 0 -59.438
-337.461 3.53613 0 -49.5494
-334.242 3.55091 0 -49.6437
-494.496 2.9361 0 -37.2812
-484.843 2.96532 0 -37.5681
-164.092 4.04873 0 -59.5803
-167.314 4.02076 0 -59.4852
-489.67 2.95074 0 -37.4243
-324.585 3.59473 0 -49.9294
-165.703 4.0348 0 -59.5326
-331.023 3.5656 0 -49.7385
-327.804 3.58021 0 -49.8337
-484.843 2.96532 0 -37.5681
-475.191 2.99432 0 -37.8577
-160.87 4.07627 0 -59.6763
-164.092 4.04873 0 -59.5803
-480.017 2.97985 0 -37.7125
-318.147 3.62351 0 -50.1223
-162.481 4.06256 0 -59.6282
-324.585 3.59473 0 -49.9294
-321.366 3.60916 0 -50.0256
-475.191 2.99432 0 -37.8577
-465.538 3.02307 0 -38.15
-157.648 4.10337 0 -59.7733
-160.87 4.07627 0 -59.6763
-470.364 3.00872 0 -38.0035
-311.709 3.65194 0 -50.3169
-159.259 4.08987 0 -59.7247
-318.147 3.62351 0 -50.1223
-314.928 3.63777 0 -50.2194
-465.538 3.02307 0 -38.15
-455.886 3.05158 0 -38.445
-154.427 4.13003 0 -59.8711
-157.648 4.10337 0 -59.7733
-460.712 3.03736 0 -38.2972
-305.272 3.68002 0 -50.5133
-156.037 4.11675 0 -59.8221
-311.709 3.65194 0 -50.3169
-308.49 3.66602 0 -50.4149
-455.886 3.05158 0 -38.445
-446.234 3.07986 0 -38.7426
-151.205 4.15624 0 -59.9698
-154.427 4.13003 0 -59.8711
-451.06 3.06575 0 -38.5935
-298.834 3.70774 0 -50.7115
-152.816 4.14319 0 -59.9203
-305.272 3.68002 0 -50.5133
-302.053 3.69392 0 -50.6122
-446.234 3.07986 0 -38.7426
-436.582 3.10788 0 -39.0427
-147.984 4.18201 0 -60.0694
-151.205 4.15624 0 -59.9698
-441.408 3.0939 0 -38.8923
-292.397 3.73511 0 -50.9114
-149.595 4.16918 0 -60.0195
-298.834 3.70774 0 -50.7115
-295.616 3.72147 0 -50.8112
-436.582 3.10788 0 -39.0427
-426.93 3.13566 0 -39.3454
-144.763 4.20734 0 -60.1698
-147.984 4.18201 0 -60.0694
-431.756 3.1218 0 -39.1937
-285.96 3.76213 0 -51.1129
-146.374 4.19473 0 -60.1195
-292.397 3.73511 0 -50.9114
-289.178 3.74867 0 -51.0119
-426.93 3.13566 0 -39.3454
-417.278 3.16318 0 -39.6504
-141.542 4.23222 0 -60.271
-144.763 4.20734 0 -60.1698
-422.104 3.14945 0 -39.4976
-279.523 3.78878 0 -51.3161
-143.153 4.21984 0 -60.2203
-285.96 3.76213 0 -51.1129
-282.741 3.7755 0 -51.2143
-417.278 3.16318 0 -39.6504
-407.627 3.19045 0 -39.9579
-138.321 4.25666 0 -60.373
-141.542 4.23222 0 -60.271
-412.452 3.17685 0 -39.8039
-273.086 3.81508 0 -51.5208
-139.932 4.2445 0 -60.3219
-279.523 3.78878 0 -51.3161
-276.305 3.80198 0 -51.4182
-407.627 3.19045 0 -39.9579
-397.975 3.21747 0 -40.2677
-135.101 4.28065 0 -60.4759
-138.321 4.25666 0 -60.373
-402.801 3.20399 0 -40.1125
-266.65 3.84101 0 -51.7271
-136.711 4.26871 0 -60.4244
-273.086 3.81508 0 -51.5208
-269.868 3.82809 0 -51.6238
-397.975 3.21747 0 -40.2677
-388.324 3.24422 0 -40.5798
-131.88 4.30419 0 -60.5795
-135.101 4.28065 0 -60.4759
-393.15 3.23087 0 -40.4234
-260.213 3.86658 0 -51.935
-133.49 4.29248 0 -60.5276
-266.65 3.84101 0 -51.7271
-263.431 3.85384 0 -51.8309
-388.324 3.24422 0 -40.5798
-378.673 3.2707 0 -40.8941
-128.66 4.32729 0 -60.6838
-131.88 4.30419 0 -60.5795
-383.498 3.25749 0 -40.7366
-253.777 3.89178 0 -52.1443
-130.27 4.3158 0 -60.6315
-260.213 3.86658 0 -51.935
-256.995 3.87922 0 -52.0395
-378.673 3.2707 0 -40.8941
-369.022 3.29692 0 -41.2105
-125.439 4.34993 0 -60.7889
-128.66 4.32729 0 -60.6838
-373.847 3.28385 0 -41.052
-247.341 3.91661 0 -52.3551
-127.049 4.33866 0 -60.7363
-253.777 3.89178 0 -52.1443
-250.559 3.90424 0 -52.2495
-369.022 3.29692 0 -41.2105
-359.371 3.32287 0 -41.5291
-122.219 4.37212 0 -60.8947
-125.439 4.34993 0 -60.7889
-364.197 3.30993 0 -41.3695
-240.905 3.94107 0 -52.5673
-123.829 4.36108 0 -60.8417
-247.341 3.91661 0 -52.3551
-244.123 3.92888 0 -52.461
-359.371 3.32287 0 -41.5291
-349.721 3.34854 0 -41.8497
-118.999 4.39386 0 -61.0012
-122.219 4.37212 0 -60.8947
-354.546 3.33574 0 -41.6891
-234.469 3.96515 0 -52.7808
-120.609 4.38305 0 -60.9478
-240.905 3.94107 0 -52.5673
-237.687 3.95316 0 -52.6739
-349.721 3.34854 0 -41.8497
-340.07 3.37393 0 -42.1723
-115.779 4.41514 0 -61.1083
-118.999 4.39386 0 -61.0012
-344.895 3.36127 0 -42.0108
-228.033 3.98886 0 -52.9958
-117.389 4.40456 0 -61.0547
-234.469 3.96515 0 -52.7808
-231.251 3.97705 0 -52.8881
-340.07 3.37393 0 -42.1723
-330.42 3.39904 0 -42.4969
-112.56 4.43597 0 -61.2161
-115.779 4.41514 0 -61.1083
-335.245 3.38652 0 -42.3344
-221.598 4.01219 0 -53.212
-114.169 4.42561 0 -61.1622
-228.033 3.98886 0 -52.9958
-224.816 4.00057 0 -53.1037
-330.42 3.39904 0 -42.4969
-320.769 3.42387 0 -42.8233
-109.34 4.45634 0 -61.3246
-112.56 4.43597 0 -61.2161
-325.595 3.41149 0 -42.6599
-215.162 4.03513 0 -53.4294
-110.95 4.44621 0 -61.2703
-221.598 4.01219 0 -53.212
-218.38 4.02371 0 -53.3205
-320.769 3.42387 0 -42.8233
-311.119 3.4484 0 -43.1516
-106.12 4.47624 0 -61.4337
-109.34 4.45634 0 -61.3246
-315.944 3.43617 0 -42.9872
-208.727 4.05769 0 -53.6481
-107.73 4.46635 0 -61.3791
-215.162 4.03513 0 -53.4294
-211.945 4.04646 0 -53.5386
-311.119 3.4484 0 -43.1516
-301.469 3.47264 0 -43.4817
-102.901 4.49569 0 -61.5434
-106.12 4.47624 0 -61.4337
-306.294 3.46056 0 -43.3164
-202.292 4.07986 0 -53.868
-104.511 4.48602 0 -61.4885
-208.727 4.05769 0 -53.6481
-205.51 4.06882 0 -53.7579
-301.469 3.47264 0 -43.4817
-291.819 3.49658 0 -43.8135
-99.6818 4.51467 0 -61.6536
-102.901 4.49569 0 -61.5434
-296.644 3.48465 0 -43.6474
-195.857 4.10163 0 -54.089
-101.291 4.50524 0 -61.5984
-202.292 4.07986 0 -53.868
-199.075 4.09079 0 -53.9784
-291.819 3.49658 0 -43.8135
-282.169 3.52021 0 -44.1469
-96.4626 4.53318 0 -61.7645
-99.6818 4.51467 0 -61.6536
-286.994 3.50844 0 -43.98
-189.422 4.12301 0 -54.3112
-98.0722 4.52398 0 -61.709
-195.857 4.10163 0 -54.089
-192.64 4.11237 0 -54.2
-282.169 3.52021 0 -44.1469
-272.52 3.54354 0 -44.482
-93.2436 4.55121 0 -61.8759
-96.4626 4.53318 0 -61.7645
-277.345 3.53192 0 -44.3142
-182.987 4.14398 0 -54.5344
-94.8531 4.54225 0 -61.8201
-189.422 4.12301 0 -54.3112
-186.205 4.13355 0 -54.4227
-272.52 3.54354 0 -44.482
-262.87 3.56655 0 -44.8186
-90.0246 4.56877 0 -61.9878
-93.2436 4.55121 0 -61.8759
-267.695 3.55508 0 -44.6501
-176.553 4.16455 0 -54.7587
-91.6341 4.56005 0 -61.9317
-182.987 4.14398 0 -54.5344
-179.77 4.15432 0 -54.6464
-262.87 3.56655 0 -44.8186
-253.22 3.58924 0 -45.1567
-86.8058 4.58586 0 -62.1002
-90.0246 4.56877 0 -61.9878
-258.045 3.57793 0 -44.9874
-170.118 4.18471 0 -54.984
-88.4152 4.57737 0 -62.0439
-176.553 4.16455 0 -54.7587
-173.335 4.17468 0 -54.8712
-253.22 3.58924 0 -45.1567
-243.571 3.61161 0 -45.4962
-83.587 4.60246 0 -62.2131
-86.8058 4.58586 0 -62.1002
-248.396 3.60046 0 -45.3262
-163.684 4.20446 0 -55.2102
-85.1964 4.59422 0 -62.1566
-170.118 4.18471 0 -54.984
-166.901 4.19464 0 -55.0969
-243.571 3.61161 0 -45.4962
-233.922 3.63366 0 -45.8371
-80.3683 4.6186 0 -62.3264
-83.587 4.60246 0 -62.2131
-238.746 3.62267 0 -45.6665
-157.249 4.22381 0 -55.4373
-81.9777 4.61059 0 -62.2697
-163.684 4.20446 0 -55.2102
-160.466 4.21419 0 -55.3236
-233.922 3.63366 0 -45.8371
-224.272 3.65541 0 -46.1793
-77.1497 4.63427 0 -62.4402
-80.3683 4.6186 0 -62.3264
-229.097 3.64457 0 -46.008
-150.815 4.24277 0 -55.6653
-78.759 4.62649 0 -62.3833
-157.249 4.22381 0 -55.4373
-154.032 4.23334 0 -55.5512
-224.272 3.65541 0 -46.1793
-214.623 3.67687 0 -46.5228
-73.9312 4.64951 0 -62.5544
-77.1497 4.63427 0 -62.4402
-219.448 3.66617 0 -46.3509
-144.381 4.26137 0 -55.8942
-75.5405 4.64194 0 -62.4973
-150.815 4.24277 0 -55.6653
-147.598 4.25211 0 -55.7796
-214.623 3.67687 0 -46.5228
-204.974 3.69809 0 -46.8675
-70.7128 4.66437 0 -62.669
-73.9312 4.64951 0 -62.5544
-209.798 3.68751 0 -46.695
-137.947 4.27964 0 -56.1238
-72.322 4.65699 0 -62.6116
-144.381 4.26137 0 -55.8942
-141.164 4.27054 0 -56.0089
-204.974 3.69809 0 -46.8675
-195.325 3.71911 0 -47.2134
-67.4944 4.67891 0 -62.7839
-70.7128 4.66437 0 -62.669
-200.149 3.70862 0 -47.0403
-131.513 4.29766 0 -56.3542
-69.1036 4.67167 0 -62.7264
-137.947 4.27964 0 -56.1238
-134.73 4.28868 0 -56.2389
-195.325 3.71911 0 -47.2134
-185.676 3.73999 0 -47.5605
-64.2763 4.69321 0 -62.8991
-67.4944 4.67891 0 -62.7839
-190.5 3.72956 0 -47.3868
-125.079 4.31548 0 -56.5853
-65.8853 4.68608 0 -62.8414
-131.513 4.29766 0 -56.3542
-128.296 4.30659 0 -56.4697
-185.676 3.73999 0 -47.5605
-176.027 3.76073 0 -47.9087
-61.0583 4.7074 0 -63.0146
-64.2763 4.69321 0 -62.8991
-180.852 3.75038 0 -47.7345
-118.646 4.33316 0 -56.8172
-62.6673 4.70031 0 -62.9568
-125.079 4.31548 0 -56.5853
-121.862 4.32434 0 -56.7012
-176.027 3.76073 0 -47.9087
-166.379 3.78126 0 -48.2582
-57.8408 4.72154 0 -63.1307
-61.0583 4.7074 0 -63.0146
-171.203 3.77104 0 -48.0833
-112.213 4.35063 0 -57.05
-59.4495 4.71448 0 -63.0726
-118.646 4.33316 0 -56.8172
-115.429 4.34193 0 -56.9335
-166.379 3.78126 0 -48.2582
-156.731 3.80109 0 -48.6089
-54.6235 4.73566 0 -63.2477
-57.8408 4.72154 0 -63.1307
-161.555 3.79132 0 -48.4334
-105.78 4.36756 0 -57.2839
-56.2321 4.72861 0 -63.1891
-112.213 4.35063 0 -57.05
-108.996 4.35921 0 -57.1668
-156.731 3.80109 0 -48.6089
-147.083 3.81914 0 -48.9609
-51.4067 4.74935 0 -63.3668
-54.6235 4.73566 0 -63.2477
-151.907 3.81045 0 -48.7847
-99.3467 4.38294 0 -57.5197
-53.015 4.74262 0 -63.3069
-105.78 4.36756 0 -57.2839
-102.563 4.37555 0 -57.4015
-147.083 3.81914 0 -48.9609
-137.433 3.83252 0 -49.3144
-48.189 4.76192 0 -63.4906
-51.4067 4.74935 0 -63.3668
-142.258 3.82672 0 -49.1375
-92.9119 4.39451 0 -57.7588
-49.7982 4.75586 0 -63.4279
-99.3467 4.38294 0 -57.5197
-96.1296 4.38947 0 -57.6387
-137.433 3.83252 0 -49.3144
-127.776 3.83618 0 -49.6696
-44.9701 4.77066 0 -63.624
-48.189 4.76192 0 -63.4906
-132.606 3.83608 0 -49.4917
-86.4718 4.39731 0 -58.0043
-46.5796 4.76704 0 -63.5556
-92.9119 4.39451 0 -57.7588
-89.6928 4.39743 0 -57.8804
-127.776 3.83618 0 -49.6696
-118.106 3.81841 0 -50.0264
-41.7429 4.77235 0 -63.7777
-44.9701 4.77066 0 -63.624
-122.942 3.83107 0 -49.8479
-80.0179 4.38253 0 -58.2623
-43.3585 4.77276 0 -63.6974
-86.4718 4.39731 0 -58.0043
-83.2472 4.39313 0 -58.1314
-118.106 3.81841 0 -50.0264
-108.399 3.76257 0 -50.3867
-38.5042 4.75665 0 -63.97
-41.7429 4.77235 0 -63.7777
-113.259 3.79687 0 -50.2058
-73.5336 4.33321 0 -58.5443
-40.1245 4.76753 0 -63.8675
-80.0179 4.38253 0 -58.2623
-76.7809 4.36336 0 -58.3989
-108.399 3.76257 0 -50.3867
-98.6301 3.63232 0 -50.75
-35.2257 4.71576 0 -64.2356
-38.5042 4.75665 0 -63.97
-103.523 3.7097 0 -50.5684
-66.9864 4.22506 0 -58.8709
-36.8736 4.7403 0 -64.0906
-73.5336 4.33321 0 -58.5443
-70.2702 4.28943 0 -58.7012
-98.6301 3.63232 0 -50.75
-88.7126 3.39111 0 -51.1268
-31.8989 4.62081 0 -64.6272
-35.2257 4.71576 0 -64.2356
-93.6997 3.52916 0 -50.9351
-60.3188 4.01686 0 -59.2775
-33.566 4.67667 0 -64.4116
-66.9864 4.22506 0 -58.8709
-63.6726 4.13483 0 -59.0593
-88.7126 3.39111 0 -51.1268
-78.5769 2.95673 0 -51.5197
-28.434 4.47365 0 -65.2313
-31.8989 4.62081 0 -64.6272
-83.6717 3.20237 0 -51.3223
-53.437 3.67478 0 -59.8208
-30.1965 4.55458 0 -64.8952
-60.3188 4.01686 0 -59.2775
-56.9107 3.86827 0 -59.5315
-78.5769 2.95673 0 -51.5197
-67.9655 2.32399 0 -51.9847
-24.84 4.225 0 -66.1451
-28.434 4.47365 0 -65.2313
-73.3616 2.66694 0 -51.7354
-46.1968 3.16063 0 -60.5853
-26.6412 4.36049 0 -65.644
-53.437 3.67478 0 -59.8208
-49.8755 3.43084 0 -60.1607
-67.9655 2.32399 0 -51.9847
-56.7882 1.42775 0 -52.5553
-20.9027 4.013 0 -67.4761
-24.84 4.225 0 -66.1451
-62.4332 1.8968 0 -52.2582
-38.4398 2.59104 0 -61.6719
-22.9505 4.10666 0 -66.7502
-46.1968 3.16063 0 -60.5853
-42.3879 2.88223 0 -61.097
-56.7882 1.42775 0 -52.5553
-44.5091 0.749455 0 -53.4815
-16.8504 3.87995 0 -69.1548
-20.9027 4.013 0 -67.4761
-50.8638 1.02679 0 -52.9423
-30.0168 2.24977 0 -63.1657
-18.8359 3.90653 0 -68.2895
-38.4398 2.59104 0 -61.6719
-34.3351 2.31864 0 -62.3339
-44.5091 0.749455 0 -53.4815
-31.5842 0.891595 0 -54.8877
-12.4017 4.67654 0 -70.7827
-16.8504 3.87995 0 -69.1548
-38.0202 0.581331 0 -54.1274
-21.1816 3.24814 0 -64.9387
-14.7579 4.11419 0 -70.0137
-30.0168 2.24977 0 -63.1657
-25.5941 2.52843 0 -64.0933
-31.5842 0.891595 0 -54.8877
-17.9381 5.09136 0 -57.2331
-8.69417 6.83324 0 -70.8858
-12.4017 4.67654 0 -70.7827
-24.9597 2.24793 0 -55.8956
-12.7012 7.23188 0 -66.1728
-10.2595 5.48565 0 -71.1794
-21.1816 3.24814 0 -64.9387
-16.8878 4.60254 0 -65.6152
-17.9381 5.09136 0 -57.2331
-7.69262 17.5534 0 -58.6003
-5.01532 12.1863 0 -66.8121
-8.69417 6.83324 0 -70.8858
-11.8743 9.63479 0 -58.3093
-6.91049 16.974 0 -63.8502
-7.0734 9.19672 0 -69.5707
-12.7012 7.23188 0 -66.1728
-9.14162 11.4862 0 -65.9457
-7.69262 17.5534 0 -58.6003
-1.39495 47.9626 0 -52.7656
-3.60198 17.43 0 -54.2909
-5.01532 12.1863 0 -66.8121
-4.28659 30.74 0 -57.32
-3.17315 31.9844 0 -52.4871
-3.58171 14.9429 0 -61.9067
-6.91049 16.974 0 -63.8502
-5.20252 23.7054 0 -59.3681
-1.39495 47.9626 0 -52.7656
1.18508 81.1785 0 -25.8836
-3.28581 23.9509 0 -30.5398
-3.60198 17.43 0 -54.2909
0.781753 66.5115 0 -42.6583
0.025192 50.4973 0 -29.9582
-3.86447 20.3504 0 -43.8882
-3.17315 31.9844 0 -52.4871
-1.18516 41.4801 0 -42.9031
-619.913 -185.921 0 246.619
-604.879 -104.7 0 81.9012
595.36 99.6235 0 81.2827
609.814 183 0 246.044
-594.335 -145.876 0 155.6
-5.05613 -2.59614 0 92.4992
584.571 141.694 0 155.115
-5.39708 -1.45475 0 251.445
-5.17004 -2.17682 0 173.95
-604.879 -104.7 0 81.9012
-637.132 -64.5661 0 -16.528
627.898 58.438 0 -17.6148
595.36 99.6235 0 81.2827
-629.82 -82.3775 0 24.0026
-4.94179 -3.12308 0 -11.8915
620.471 76.682 0 23.1492
-5.05613 -2.59614 0 92.4992
-5.0052 -2.89408 0 28.2269
-637.132 -64.5661 0 -16.528
-639.266 -28.0866 0 -60.9747
630.199 21.3589 0 -62.5713
627.898 58.438 0 -17.6148
-635.94 -44.4184 0 -43.3532
-4.87416 -3.46342 0 -60.2711
626.789 37.9619 0 -44.6891
-4.94179 -3.12308 0 -11.8915
-4.89369 -3.31033 0 -39.3864
-639.266 -28.0866 0 -60.9747
-641.024 -11.1531 0 -76.6666
632.11 3.94091 0 -78.7409
630.199 21.3589 0 -62.5713
-642.951 -18.1499 0 -71.5266
-4.81887 -3.69444 0 -78.9622
633.962 11.1704 0 -73.3712
-4.87416 -3.46342 0 -60.2711
-4.85571 -3.58781 0 -73.1136
-641.024 -11.1531 0 -76.6666
-634.159 -2.40635 0 -78.1354
625.379 -5.19168 0 -80.635
632.11 3.94091 0 -78.7409
-636.759 -5.59497 0 -78.2851
-4.75363 -3.88063 0 -82.1512
627.916 -1.82481 0 -80.5773
-4.81887 -3.69444 0 -78.9622
-4.78181 -3.79368 0 -81.3417
-634.159 -2.40635 0 -78.1354
-628.404 -0.856074 0 -75.1076
619.716 -7.0062 0 -77.996
625.379 -5.19168 0 -80.635
-631.91 -1.258 0 -76.9082
-4.70153 -4.00517 0 -79.3852
623.182 -6.48831 0 -79.605
-4.75363 -3.88063 0 -82.1512
-4.72752 -3.9506 0 -81.31
-628.404 -0.856074 0 -75.1076
-621.659 -0.830833 0 -71.2628
613.018 -7.16454 0 -74.5341
619.716 -7.0062 0 -77.996
-624.591 -0.636001 0 -73.1095
-4.66907 -4.07333 0 -75.4694
615.932 -7.30886 0 -76.1887
-4.70153 -4.00517 0 -79.3852
-4.68134 -4.04658 0 -77.2967
-621.659 -0.830833 0 -71.2628
-616.48 -1.78005 0 -68.1706
607.85 -6.23457 0 -71.8299
613.018 -7.16454 0 -74.5341
-619.133 -1.31537 0 -69.6089
-4.65605 -4.08415 0 -72.1605
610.501 -6.70224 0 -73.0733
-4.66907 -4.07333 0 -75.4694
-4.66118 -4.08514 0 -73.7419
-616.48 -1.78005 0 -68.1706
-611.711 -2.48026 0 -65.9685
603.07 -5.46643 0 -70.0243
607.85 -6.23457 0 -71.8299
-613.917 -2.13793 0 -66.9524
-4.65588 -4.0523 0 -69.8586
605.283 -5.85199 0 -70.809
-4.65605 -4.08415 0 -72.1605
-4.65447 -4.07288 0 -70.8596
-611.711 -2.48026 0 -65.9685
-607.721 -3.0401 0 -64.5378
599.06 -4.77862 0 -68.9951
603.07 -5.46643 0 -70.0243
-609.704 -2.79978 0 -65.1757
-4.66204 -3.98878 0 -68.4087
601.053 -5.08891 0 -69.4319
-4.65588 -4.0523 0 -69.8586
-4.65873 -4.02371 0 -69.0537
-607.721 -3.0401 0 -64.5378
-604.003 -3.32996 0 -63.6222
595.322 -4.32328 0 -68.4821
599.06 -4.77862 0 -68.9951
-605.803 -3.2053 0 -64.0267
-4.6695 -3.90579 0 -67.5666
597.132 -4.53425 0 -68.6855
-4.66204 -3.98878 0 -68.4087
-4.66579 -3.94917 0 -67.9212
-604.003 -3.32996 0 -63.6222
-600.556 -3.47687 0 -63.036
591.86 -3.9899 0 -68.2961
595.322 -4.32328 0 -68.4821
-602.271 -3.42267 0 -63.2988
-4.67508 -3.81134 0 -67.1031
593.582 -4.13915 0 -68.3593
-4.6695 -3.90579 0 -67.5666
-4.6727 -3.85957 0 -67.3014
-600.556 -3.47687 0 -63.036
-597.204 -3.50713 0 -62.6389
588.501 -3.7634 0 -68.294
591.86 -3.9899 0 -68.2961
-598.864 -3.5011 0 -62.8197
-4.67732 -3.71156 0 -66.8635
590.164 -3.86827 0 -68.278
-4.67508 -3.81134 0 -67.1031
-4.67666 -3.76186 0 -66.9616
-597.204 -3.50713 0 -62.6389
-593.927 -3.48012 0 -62.3484
585.223 -3.59129 0 -68.3917
588.501 -3.7634 0 -68.294
-595.563 -3.50002 0 -62.4844
-4.6758 -3.61001 0 -66.7458
586.859 -3.67101 0 -68.3344
-4.67732 -3.71156 0 -66.8635
-4.67704 -3.66085 0 -66.7945
-593.927 -3.48012 0 -62.3484
-590.673 -3.41699 0 -62.1141
581.976 -3.4563 0 -68.5382
585.223 -3.59129 0 -68.3917
-592.296 -3.45126 0 -62.2263
-4.67077 -3.50886 0 -66.6921
583.595 -3.52081 0 -68.4609
-4.6758 -3.61001 0 -66.7458
-4.67369 -3.55931 0 -66.7132
-590.673 -3.41699 0 -62.1141
-587.434 -3.33826 0 -61.9096
578.749 -3.33984 0 -68.7066
581.976 -3.4563 0 -68.5382
-589.053 -3.37917 0 -62.0093
-4.6628 -3.40914 0 -66.6693
580.361 -3.39609 0 -68.6208
-4.67077 -3.50886 0 -66.6921
-4.66712 -3.45879 0 -66.6783
-587.434 -3.33826 0 -61.9096
-584.197 -3.25172 0 -61.7204
575.529 -3.23481 0 -68.8826
578.749 -3.33984 0 -68.7066
-585.815 -3.29547 0 -61.8136
-4.65251 -3.31124 0 -66.661
577.138 -3.28639 0 -68.7942
-4.6628 -3.40914 0 -66.6693
-4.6579 -3.35995 0 -66.664
-584.197 -3.25172 0 -61.7204
-580.963 -3.16298 0 -61.5399
572.314 -3.13562 0 -69.0597
575.529 -3.23481 0 -68.8826
-582.58 -3.20751 0 -61.6294
-4.64052 -3.21522 0 -66.6586
573.921 -3.18461 0 -68.9713
-4.65251 -3.31124 0 -66.661
-4.6467 -3.263 0 -66.6594
-580.963 -3.16298 0 -61.5399
-577.727 -3.074 0 -61.3646
569.1 -3.04 0 -69.2347
572.314 -3.13562 0 -69.0597
-579.345 -3.11842 0 -61.4517
-4.62734 -3.1209 0 -66.6583
570.707 -3.08749 0 -69.1476
-4.64052 -3.21522 0 -66.6586
-4.63405 -3.16786 0 -66.6583
-577.727 -3.074 0 -61.3646
-574.491 -2.98586 0 -61.1933
565.887 -2.94643 0 -69.4065
569.1 -3.04 0 -69.2347
-576.109 -3.02981 0 -61.2785
-4.61337 -3.02809 0 -66.6585
567.494 -2.993 0 -69.3211
-4.62734 -3.1209 0 -66.6583
-4.62044 -3.07433 0 -66.6584
-574.491 -2.98586 0 -61.1933
-571.253 -2.89878 0 -61.0254
562.675 -2.85426 0 -69.5747
565.887 -2.94643 0 -69.4065
-572.872 -2.94218 0 -61.109
-4.59892 -2.93656 0 -66.6586
564.281 -2.9002 0 -69.4911
-4.61337 -3.02809 0 -66.6585
-4.60619 -2.98218 0 -66.6586
-571.253 -2.89878 0 -61.0254
-568.016 -2.81281 0 -60.8606
559.462 -2.76306 0 -69.7393
562.675 -2.85426 0 -69.5747
-569.635 -2.85567 0 -60.9426
-4.5842 -2.84609 0 -66.6586
561.068 -2.80855 0 -69.6574
-4.59892 -2.93656 0 -66.6586
-4.59158 -2.8912 0 -66.6586
-568.016 -2.81281 0 -60.8606
-564.778 -2.72782 0 -60.699
556.249 -2.67264 0 -69.9003
559.462 -2.76306 0 -69.7393
-566.397 -2.7702 0 -60.7794
-4.56936 -2.75654 0 -66.6583
557.855 -2.71776 0 -69.8202
-4.5842 -2.84609 0 -66.6586
-4.57679 -2.80121 0 -66.6584
-564.778 -2.72782 0 -60.699
-561.54 -2.64371 0 -60.5405
553.036 -2.58285 0 -70.058
556.249 -2.67264 0 -69.9003
-563.159 -2.68566 0 -60.6194
-4.55448 -2.66777 0 -66.6578
554.642 -2.62767 0 -69.9796
-4.56936 -2.75654 0 -66.6583
-4.56192 -2.71206 0 -66.6581
-561.54 -2.64371 0 -60.5405
-558.302 -2.56037 0 -60.3851
549.823 -2.49363 0 -70.2123
553.036 -2.58285 0 -70.058
-559.921 -2.60195 0 -60.4624
-4.53965 -2.57969 0 -66.6572
551.429 -2.53818 0 -70.1355
-4.55448 -2.66777 0 -66.6578
-4.54706 -2.62365 0 -66.6575
-558.302 -2.56037 0 -60.3851
-555.064 -2.47771 0 -60.2329
546.609 -2.40493 0 -70.3633
549.823 -2.49363 0 -70.2123
-556.683 -2.51896 0 -60.3086
-4.52487 -2.49222 0 -66.6566
548.216 -2.44922 0 -70.2882
-4.53965 -2.57969 0 -66.6572
-4.53225 -2.53588 0 -66.6569
-555.064 -2.47771 0 -60.2329
-551.825 -2.39569 0 -60.0838
543.396 -2.31671 0 -70.5112
546.609 -2.40493 0 -70.3633
-553.445 -2.43663 0 -60.1579
-4.51019 -2.40533 0 -66.6559
545.003 -2.36076 0 -70.4376
-4.52487 -2.49222 0 -66.6566
-4.51752 -2.44871 0 -66.6562
-551.825 -2.39569 0 -60.0838
-548.587 -2.31427 0 -59.9377
540.183 -2.22896 0 -70.6558
543.396 -2.31671 0 -70.5112
-550.206 -2.35491 0 -60.0103
-4.4956 -2.31898 0 -66.6551
541.789 -2.27277 0 -70.5839
-4.51019 -2.40533 0 -66.6559
-4.50288 -2.36209 0 -66.6555
-548.587 -2.31427 0 -59.9377
-545.349 -2.23341 0 -59.7948
536.969 -2.14166 0 -70.7973
540.183 -2.22896 0 -70.6558
-546.968 -2.27377 0 -59.8659
-4.4811 -2.23316 0 -66.6543
538.576 -2.18525 0 -70.7269
-4.4956 -2.31898 0 -66.6551
-4.48834 -2.276 0 -66.6547
-545.349 -2.23341 0 -59.7948
-542.111 -2.15311 0 -59.6549
533.755 -2.05481 0 -70.9357
536.969 -2.14166 0 -70.7973
-543.73 -2.19319 0 -59.7245
-4.46671 -2.14784 0 -66.6535
535.362 -2.09818 0 -70.8669
-4.4811 -2.23316 0 -66.6543
-4.47389 -2.19044 0 -66.6539
-542.111 -2.15311 0 -59.6549
-538.873 -2.07335 0 -59.5181
530.541 -1.96842 0 -71.071
533.755 -2.05481 0 -70.9357
-540.492 -2.11316 0 -59.5861
-4.4524 -2.06304 0 -66.6527
532.148 -2.01156 0 -71.0037
-4.46671 -2.14784 0 -66.6535
-4.45954 -2.10538 0 -66.6531
-538.873 -2.07335 0 -59.5181
-535.635 -1.99412 0 -59.3844
527.327 -1.88247 0 -71.2032
530.541 -1.96842 0 -71.071
-537.254 -2.03367 0 -59.4509
-4.43819 -1.97874 0 -66.6519
528.934 -1.92539 0 -71.1374
-4.4524 -2.06304 0 -66.6527
-4.44529 -2.02082 0 -66.6523
-535.635 -1.99412 0 -59.3844
-532.397 -1.91542 0 -59.2536
524.113 -1.79698 0 -71.3323
527.327 -1.88247 0 -71.2032
-534.016 -1.95471 0 -59.3186
-4.42407 -1.89494 0 -66.651
525.72 -1.83967 0 -71.2681
-4.43819 -1.97874 0 -66.6519
-4.43112 -1.93677 0 -66.6514
-532.397 -1.91542 0 -59.2536
-529.159 -1.83725 0 -59.1259
520.899 -1.71194 0 -71.4584
524.113 -1.79698 0 -71.3323
-530.778 -1.87627 0 -59.1894
-4.41004 -1.81164 0 -66.6501
522.506 -1.7544 0 -71.3957
-4.42407 -1.89494 0 -66.651
-4.41704 -1.85322 0 -66.6506
-529.159 -1.83725 0 -59.1259
-525.922 -1.7596 0 -59.0011
517.684 -1.62737 0 -71.5814
520.899 -1.71194 0 -71.4584
-527.54 -1.79836 0 -59.0631
-4.39609 -1.72884 0 -66.6492
519.292 -1.6696 0 -71.5203
-4.41004 -1.81164 0 -66.6501
-4.40305 -1.77018 0 -66.6497
-525.922 -1.7596 0 -59.0011
-522.684 -1.68248 0 -58.8793
514.47 -1.54326 0 -71.7015
517.684 -1.62737 0 -71.5814
-524.303 -1.72098 0 -58.9399
-4.38223 -1.64655 0 -66.6483
516.077 -1.58526 0 -71.6418
-4.39609 -1.72884 0 -66.6492
-4.38915 -1.68763 0 -66.6488
-522.684 -1.68248 0 -58.8793
-519.446 -1.60587 0 -58.7605
511.256 -1.45963 0 -71.8185
514.47 -1.54326 0 -71.7015
-521.065 -1.64411 0 -58.8196
-4.36844 -1.56476 0 -66.6474
512.863 -1.50139 0 -71.7604
-4.38223 -1.64655 0 -66.6483
-4.37532 -1.60559 0 -66.6478
-519.446 -1.60587 0 -58.7605
-516.208 -1.52978 0 -58.6446
508.041 -1.37646 0 -71.9326
511.256 -1.45963 0 -71.8185
-517.827 -1.56776 0 -58.7022
-4.35475 -1.48348 0 -66.6464
509.648 -1.41799 0 -71.876
-4.36844 -1.56476 0 -66.6474
-4.36159 -1.52406 0 -66.6469
-516.208 -1.52978 0 -58.6446
-512.971 -1.4542 0 -58.5316
504.826 -1.29378 0 -72.0438
508.041 -1.37646 0 -71.9326
-514.59 -1.49192 0 -58.5878
-4.34113 -1.4027 0 -66.6455
506.434 -1.33506 0 -71.9886
-4.35475 -1.48348 0 -66.6464
-4.34793 -1.44303 0 -66.6459
-512.971 -1.4542 0 -58.5316
-509.733 -1.37913 0 -58.4216
501.612 -1.21157 0 -72.152
504.826 -1.29378 0 -72.0438
-511.352 -1.4166 0 -58.4762
-4.3276 -1.32243 0 -66.6445
503.219 -1.25261 0 -72.0983
-4.34113 -1.4027 0 -66.6455
-4.33435 -1.3625 0 -66.645
-509.733 -1.37913 0 -58.4216
-506.496 -1.30457 0 -58.3144
498.397 -1.12985 0 -72.2573
501.612 -1.21157 0 -72.152
-508.115 -1.34179 0 -58.3676
-4.31414 -1.24267 0 -66.6435
500.004 -1.17065 0 -72.205
-4.3276 -1.32243 0 -66.6445
-4.32086 -1.28249 0 -66.644
-506.496 -1.30457 0 -58.3144
-503.258 -1.23051 0 -58.21
495.182 -1.04861 0 -72.3597
498.397 -1.12985 0 -72.2573
-504.877 -1.26748 0 -58.2618
-4.30077 -1.16341 0 -66.6425
496.789 -1.08917 0 -72.3088
-4.31414 -1.24267 0 -66.6435
-4.30745 -1.20297 0 -66.643
-503.258 -1.23051 0 -58.21
-500.021 -1.15696 0 -58.1085
491.967 -0.967864 0 -72.4592
495.182 -1.04861 0 -72.3597
-501.64 -1.19368 0 -58.1589
-4.28748 -1.08466 0 -66.6414
493.575 -1.00818 0 -72.4098
-4.30077 -1.16341 0 -66.6425
-4.29412 -1.12397 0 -66.6419
-500.021 -1.15696 0 -58.1085
-496.784 -1.08391 0 -58.0099
488.752 -0.887611 0 -72.5559
491.967 -0.967864 0 -72.4592
-498.403 -1.12037 0 -58.0588
-4.27428 -1.00641 0 -66.6404
490.36 -0.927676 0 -72.5079
-4.28748 -1.08466 0 -66.6414
-4.28087 -1.04547 0 -66.6409
-496.784 -1.08391 0 -58.0099
-493.547 -1.01136 0 -57.914
485.537 -0.807855 0 -72.6497
488.752 -0.887611 0 -72.5559
-495.165 -1.04757 0 -57.9616
-4.26115 -0.928677 0 -66.6393
487.145 -0.847671 0 -72.6032
-4.27428 -1.00641 0 -66.6404
-4.2677 -0.967482 0 -66.6399
-493.547 -1.01136 0 -57.914
-490.31 -0.939298 0 -57.8209
482.322 -0.728598 0 -72.7407
485.537 -0.807855 0 -72.6497
-491.928 -0.975266 0 -57.8671
-4.24811 -0.851447 0 -66.6382
483.93 -0.768164 0 -72.6956
-4.26115 -0.928677 0 -66.6393
-4.25462 -0.889999 0 -66.6388
-490.31 -0.939298 0 -57.8209
-487.073 -0.867731 0 -57.7306
479.107 -0.649842 0 -72.8289
482.322 -0.728598 0 -72.7407
-488.691 -0.903453 0 -57.7754
-4.23515 -0.774725 0 -66.6372
480.715 -0.689157 0 -72.7852
-4.24811 -0.851447 0 -66.6382
-4.24162 -0.813023 0 -66.6377
-487.073 -0.867731 0 -57.7306
-483.836 -0.796654 0 -57.6431
475.892 -0.571591 0 -72.9144
479.107 -0.649842 0 -72.8289
-485.454 -0.832132 0 -57.6865
-4.22227 -0.698511 0 -66.6361
477.499 -0.610653 0 -72.872
-4.23515 -0.774725 0 -66.6372
-4.2287 -0.736554 0 -66.6366
-483.836 -0.796654 0 -57.6431
-480.599 -0.726065 0 -57.5583
472.677 -0.493846 0 -72.997
475.892 -0.571591 0 -72.9144
-482.217 -0.761299 0 -57.6004
-4.20947 -0.622804 0 -66.635
474.284 -0.532655 0 -72.9561
-4.22227 -0.698511 0 -66.6361
-4.21586 -0.660594 0 -66.6355
-480.599 -0.726065 0 -57.5583
-477.362 -0.65596 0 -57.4762
469.461 -0.416612 0 -73.077
472.677 -0.493846 0 -72.997
-478.981 -0.690952 0 -57.5169
-4.19675 -0.547604 0 -66.6338
471.069 -0.455165 0 -73.0373
-4.20947 -0.622804 0 -66.635
-4.2031 -0.58514 0 -66.6344
-477.362 -0.65596 0 -57.4762
-474.126 -0.586338 0 -57.3968
466.246 -0.339889 0 -73.1542
469.461 -0.416612 0 -73.077
-475.744 -0.621089 0 -57.4362
-4.18412 -0.472913 0 -66.6327
467.854 -0.378186 0 -73.1159
-4.19675 -0.547604 0 -66.6338
-4.19043 -0.510195 0 -66.6333
-474.126 -0.586338 0 -57.3968
-470.889 -0.517196 0 -57.3201
463.031 -0.263682 0 -73.2287
466.246 -0.339889 0 -73.1542
-472.508 -0.551707 0 -57.3581
-4.17157 -0.398729 0 -66.6316
464.638 -0.301721 0 -73.1918
-4.18412 -0.472913 0 -66.6327
-4.17783 -0.435757 0 -66.6321
-470.889 -0.517196 0 -57.3201
-467.653 -0.448532 0 -57.2461
459.815 -0.187991 0 -73.3005
463.031 -0.263682 0 -73.2287
-469.271 -0.482804 0 -57.2828
-4.1591 -0.325053 0 -66.6304
461.423 -0.225771 0 -73.2649
-4.17157 -0.398729 0 -66.6316
-4.16532 -0.361827 0 -66.631
-467.653 -0.448532 0 -57.2461
-464.417 -0.380343 0 -57.1747
456.6 -0.112819 0 -73.3696
459.815 -0.187991 0 -73.3005
-466.035 -0.414378 0 -57.21
-4.14671 -0.251885 0 -66.6292
458.208 -0.15034 0 -73.3354
-4.1591 -0.325053 0 -66.6304
-4.1529 -0.288405 0 -66.6298
-464.417 -0.380343 0 -57.1747
-461.18 -0.312628 0 -57.1059
453.385 -0.0381697 0 -73.4361
456.6 -0.112819 0 -73.3696
-462.799 -0.346427 0 -57.14
-4.13441 -0.179224 0 -66.6281
454.992 -0.0754292 0 -73.4032
-4.14671 -0.251885 0 -66.6292
-4.14055 -0.215491 0 -66.6287
-461.18 -0.312628 0 -57.1059
-457.944 -0.245384 0 -57.0397
450.169 0.0359561 0 -73.5
453.385 -0.0381697 0 -73.4361
-459.562 -0.278948 0 -57.0725
-4.12219 -0.107072 0 -66.6269
451.777 -0.00104115 0 -73.4684
-4.13441 -0.179224 0 -66.6281
-4.12829 -0.143085 0 -66.6275
-457.944 -0.245384 0 -57.0397
-454.708 -0.17861 0 -56.9762
446.954 0.109556 0 -73.5612
450.169 0.0359561 0 -73.5
-456.326 -0.211939 0 -57.0076
-4.11005 -0.0354279 0 -66.6257
448.561 0.0728218 0 -73.5309
-4.12219 -0.107072 0 -66.6269
-4.11611 -0.0711865 0 -66.6263
-454.708 -0.17861 0 -56.9762
-451.473 -0.112302 0 -56.9152
443.738 0.182627 0 -73.6199
446.954 0.109556 0 -73.5612
-453.091 -0.145398 0 -56.9453
-4.098 0.0357082 0 -66.6245
445.346 0.146157 0 -73.5909
-4.11005 -0.0354279 0 -66.6257
-4.10401 0.00020365 0 -66.6251
-451.473 -0.112302 0 -56.9152
-448.237 -0.0464597 0 -56.8567
440.523 0.255168 0 -73.676
443.738 0.182627 0 -73.6199
-449.855 -0.0793229 0 -56.8856
-4.08602 0.106336 0 -66.6233
442.13 0.218964 0 -73.6483
-4.098 0.0357082 0 -66.6245
-4.092 0.0710856 0 -66.6239
-448.237 -0.0464597 0 -56.8567
-445.001 0.0189196 0 -56.8008
437.307 0.327176 0 -73.7295
440.523 0.255168 0 -73.676
-446.619 -0.0137123 0 -56.8284
-4.07413 0.176456 0 -66.622
438.915 0.291239 0 -73.7031
-4.08602 0.106336 0 -66.6233
-4.08007 0.141459 0 -66.6227
-445.001 0.0189196 0 -56.8008
-441.766 0.0838376 0 -56.7474
434.092 0.39865 0 -73.7805
437.307 0.327176 0 -73.7295
-443.384 0.0514361 0 -56.7738
-4.06233 0.246067 0 -66.6208
435.699 0.36298 0 -73.7553
-4.07413 0.176456 0 -66.622
-4.06822 0.211325 0 -66.6214
-441.766 0.0838376 0 -56.7474
-438.53 0.148296 0 -56.6965
430.876 0.469587 0 -73.829
434.092 0.39865 0 -73.7805
-440.148 0.116124 0 -56.7217
-4.0506 0.31517 0 -66.6196
432.484 0.434186 0 -73.8051
-4.06233 0.246067 0 -66.6208
-4.05646 0.280682 0 -66.6202
-438.53 0.148296 0 -56.6965
-435.295 0.212297 0 -56.6481
427.66 0.539986 0 -73.875
430.876 0.469587 0 -73.829
-436.913 0.180354 0 -56.672
-4.03896 0.383765 0 -66.6183
429.268 0.504854 0 -73.8523
-4.0506 0.31517 0 -66.6196
-4.04477 0.349531 0 -66.619
-435.295 0.212297 0 -56.6481
-432.06 0.275842 0 -56.6022
424.445 0.609845 0 -73.9185
427.66 0.539986 0 -73.875
-433.678 0.244127 0 -56.6248
-4.02741 0.451851 0 -66.6171
426.053 0.574983 0 -73.897
-4.03896 0.383765 0 -66.6183
-4.03317 0.417872 0 -66.6177
-432.06 0.275842 0 -56.6022
-428.825 0.338933 0 -56.5587
421.229 0.679162 0 -73.9595
424.445 0.609845 0 -73.9185
-430.443 0.307444 0 -56.5801
-4.01593 0.519429 0 -66.6158
422.837 0.644571 0 -73.9393
-4.02741 0.451851 0 -66.6171
-4.02166 0.485704 0 -66.6165
-428.825 0.338933 0 -56.5587
-425.59 0.401572 0 -56.5176
418.014 0.747934 0 -73.9981
421.229 0.679162 0 -73.9595
-427.208 0.370309 0 -56.5378
-4.00454 0.586498 0 -66.6146
419.621 0.713616 0 -73.9791
-4.01593 0.519429 0 -66.6158
-4.01023 0.553027 0 -66.6152
-425.59 0.401572 0 -56.5176
-422.356 0.46376 0 -56.4789
414.798 0.816162 0 -74.0343
418.014 0.747934 0 -73.9981
-423.973 0.432722 0 -56.498
-3.99323 0.653059 0 -66.6133
416.406 0.782116 0 -74.0165
-4.00454 0.586498 0 -66.6146
-3.99888 0.619842 0 -66.6139
-422.356 0.46376 0 -56.4789
-419.121 0.525498 0 -56.4427
411.582 0.883842 0 -74.0681
414.798 0.816162 0 -74.0343
-420.738 0.494685 0 -56.4605
-3.98201 0.719111 0 -66.612
413.19 0.85007 0 -74.0515
-3.99323 0.653059 0 -66.6133
-3.98761 0.686149 0 -66.6127
-419.121 0.525498 0 -56.4427
-415.887 0.586789 0 -56.4088
408.367 0.950973 0 -74.0995
411.582 0.883842 0 -74.0681
-417.504 0.556199 0 -56.4254
-3.97087 0.784655 0 -66.6108
409.975 0.917476 0 -74.0841
-3.98201 0.719111 0 -66.612
-3.97643 0.751946 0 -66.6114
-415.887 0.586789 0 -56.4088
-412.652 0.647633 0 -56.3772
405.151 1.01755 0 -74.1285
408.367 0.950973 0 -74.0995
-414.27 0.617267 0 -56.3927
-3.95981 0.849689 0 -66.6095
406.759 0.984332 0 -74.1143
-3.97087 0.784655 0 -66.6108
-3.96533 0.817236 0 -66.6101
-412.652 0.647633 0 -56.3772
-409.418 0.708033 0 -56.348
401.936 1.08358 0 -74.1552
405.151 1.01755 0 -74.1285
-411.035 0.677889 0 -56.3623
-3.94884 0.914215 0 -66.6082
403.543 1.05064 0 -74.1422
-3.95981 0.849689 0 -66.6095
-3.95431 0.882016 0 -66.6088
-409.418 0.708033 0 -56.348
-406.184 0.767989 0 -56.3211
398.72 1.14906 0 -74.1796
401.936 1.08358 0 -74.1552
-407.801 0.738067 0 -56.3343
-3.93795 0.978233 0 -66.6069
400.328 1.11639 0 -74.1677
-3.94884 0.914215 0 -66.6082
-3.94338 0.946288 0 -66.6076
-406.184 0.767989 0 -56.3211
-402.95 0.827504 0 -56.2965
395.504 1.21398 0 -74.2016
398.72 1.14906 0 -74.1796
-404.567 0.797802 0 -56.3085
-3.92714 1.04174 0 -66.6056
397.112 1.18159 0 -74.1909
-3.93795 0.978233 0 -66.6069
-3.93253 1.01005 0 -66.6063
-402.95 0.827504 0 -56.2965
-399.717 0.886577 0 -56.2742
392.289 1.27834 0 -74.2214
395.504 1.21398 0 -74.2016
-401.333 0.857096 0 -56.2851
-3.91642 1.10474 0 -66.6043
393.897 1.24623 0 -74.2118
-3.92714 1.04174 0 -66.6056
-3.92177 1.0733 0 -66.605
-399.717 0.886577 0 -56.2742
-396.483 0.945211 0 -56.2542
389.073 1.34215 0 -74.2389
392.289 1.27834 0 -74.2214
-398.1 0.915949 0 -56.2639
-3.90578 1.16723 0 -66.603
390.681 1.31032 0 -74.2304
-3.91642 1.10474 0 -66.6043
-3.91109 1.13605 0 -66.6037
-396.483 0.945211 0 -56.2542
-393.25 1.00341 0 -56.2364
385.858 1.4054 0 -74.2541
389.073 1.34215 0 -74.2389
-394.866 0.974364 0 -56.245
-3.89523 1.22921 0 -66.6017
387.465 1.37384 0 -74.2468
-3.90578 1.16723 0 -66.603
-3.90049 1.19829 0 -66.6024
-393.25 1.00341 0 -56.2364
-390.016 1.06117 0 -56.2208
382.642 1.46808 0 -74.2671
385.858 1.4054 0 -74.2541
-391.633 1.03234 0 -56.2283
-3.88476 1.29069 0 -66.6004
384.25 1.43681 0 -74.2609
-3.89523 1.22921 0 -66.6017
-3.88998 1.26001 0 -66.6011
-390.016 1.06117 0 -56.2208
-386.783 1.11849 0 -56.2075
379.426 1.53021 0 -74.2779
382.642 1.46808 0 -74.2671
-388.4 1.08988 0 -56.2139
-3.87437 1.35165 0 -66.5991
381.034 1.49922 0 -74.2728
-3.88476 1.29069 0 -66.6004
-3.87955 1.32123 0 -66.5998
-386.783 1.11849 0 -56.2075
-383.55 1.17538 0 -56.1963
376.211 1.59177 0 -74.2865
379.426 1.53021 0 -74.2779
-385.167 1.14699 0 -56.2016
-3.86407 1.4121 0 -66.5978
377.819 1.56106 0 -74.2825
-3.87437 1.35165 0 -66.5991
-3.86921 1.38194 0 -66.5985
-383.55 1.17538 0 -56.1963
-380.317 1.23183 0 -56.1873
372.995 1.65277 0 -74.2929
376.211 1.59177 0 -74.2865
-381.934 1.20366 0 -56.1915
-3.85385 1.47205 0 -66.5965
374.603 1.62234 0 -74.29
-3.86407 1.4121 0 -66.5978
-3.85895 1.44214 0 -66.5972
-380.317 1.23183 0 -56.1873
-377.085 1.28785 0 -56.1805
369.78 1.71321 0 -74.2972
372.995 1.65277 0 -74.2929
-378.701 1.2599 0 -56.1836
-3.84372 1.53148 0 -66.5952
371.388 1.68306 0 -74.2953
-3.85385 1.47205 0 -66.5965
-3.84877 1.50183 0 -66.5958
-377.085 1.28785 0 -56.1805
-373.852 1.34344 0 -56.1758
366.564 1.77308 0 -74.2993
369.78 1.71321 0 -74.2972
-375.469 1.3157 0 -56.1778
-3.83367 1.59041 0 -66.5939
368.172 1.74321 0 -74.2985
-3.84372 1.53148 0 -66.5952
-3.83868 1.56101 0 -66.5945
-373.852 1.34344 0 -56.1758
-370.62 1.3986 0 -56.1732
363.349 1.83238 0 -74.2993
366.564 1.77308 0 -74.2993
-372.236 1.37108 0 -56.1742
-3.8237 1.64883 0 -66.5926
364.956 1.8028 0 -74.2996
-3.83367 1.59041 0 -66.5939
-3.82868 1.61968 0 -66.5932
-370.62 1.3986 0 -56.1732
-367.388 1.45333 0 -56.1727
360.133 1.89111 0 -74.2972
363.349 1.83238 0 -74.2993
-369.004 1.42602 0 -56.1727
-3.81382 1.70674 0 -66.5913
361.741 1.86182 0 -74.2985
-3.8237 1.64883 0 -66.5926
-3.81875 1.67785 0 -66.5919
-367.388 1.45333 0 -56.1727
-364.156 1.50763 0 -56.1743
356.918 1.94928 0 -74.293
360.133 1.89111 0 -74.2972
-365.772 1.48054 0 -56.1732
-3.80403 1.76414 0 -66.59
358.525 1.92027 0 -74.2954
-3.81382 1.70674 0 -66.5913
-3.80892 1.7355 0 -66.5906
-364.156 1.50763 0 -56.1743
-360.924 1.56151 0 -56.1779
353.702 2.00687 0 -74.2868
356.918 1.94928 0 -74.293
-362.54 1.53462 0 -56.1759
-3.79432 1.82103 0 -66.5886
355.31 1.97815 0 -74.2902
-3.80403 1.76414 0 -66.59
-3.79916 1.79265 0 -66.5893
-360.924 1.56151 0 -56.1779
-357.692 1.61495 0 -56.1836
350.487 2.0639 0 -74.2785
353.702 2.00687 0 -74.2868
-359.308 1.58828 0 -56.1805
-3.78469 1.87741 0 -66.5873
352.095 2.03546 0 -74.2829
-3.79432 1.82103 0 -66.5886
-3.78949 1.84928 0 -66.588
-357.692 1.61495 0 -56.1836
-354.461 1.66797 0 -56.1914
347.271 2.12035 0 -74.2682
350.487 2.0639 0 -74.2785
-356.076 1.64151 0 -56.1873
-3.77515 1.93328 0 -66.586
348.879 2.0922 0 -74.2736
-3.78469 1.87741 0 -66.5873
-3.77991 1.90541 0 -66.5867
-354.461 1.66797 0 -56.1914
-351.229 1.72056 0 -56.2011
344.056 2.17623 0 -74.2559
347.271 2.12035 0 -74.2682
-352.845 1.69432 0 -56.196
-3.76569 1.98864 0 -66.5847
345.664 2.14836 0 -74.2623
-3.77515 1.93328 0 -66.586
-3.77041 1.96102 0 -66.5854
-351.229 1.72056 0 -56.2011
-347.998 1.77273 0 -56.2129
340.841 2.23154 0 -74.2415
344.056 2.17623 0 -74.2559
-349.614 1.7467 0 -56.2067
-3.75632 2.04349 0 -66.5834
342.448 2.20396 0 -74.2489
-3.76569 1.98864 0 -66.5847
-3.761 2.01613 0 -66.5841
-347.998 1.77273 0 -56.2129
-344.767 1.82447 0 -56.2266
337.625 2.28628 0 -74.2253
340.841 2.23154 0 -74.2415
-346.382 1.79865 0 -56.2195
-3.74703 2.09784 0 -66.5821
339.233 2.25898 0 -74.2336
-3.75632 2.04349 0 -66.5834
-3.75167 2.07073 0 -66.5828
-344.767 1.82447 0 -56.2266
-341.536 1.87579 0 -56.2422
334.41 2.34044 0 -74.207
337.625 2.28628 0 -74.2253
-343.151 1.85018 0 -56.2341
-3.73783 2.15167 0 -66.5808
336.018 2.31343 0 -74.2164
-3.74703 2.09784 0 -66.5821
-3.74242 2.12482 0 -66.5815
-341.536 1.87579 0 -56.2422
-338.305 1.92668 0 -56.2598
331.195 2.39402 0 -74.1869
334.41 2.34044 0 -74.207
-339.921 1.90129 0 -56.2508
-3.72871 2.20499 0 -66.5795
332.802 2.3673 0 -74.1972
-3.73783 2.15167 0 -66.5808
-3.73326 2.1784 0 -66.5802
-338.305 1.92668 0 -56.2598
-335.075 1.97716 0 -56.2793
327.979 2.44703 0 -74.1648
331.195 2.39402 0 -74.1869
-336.69 1.95197 0 -56.2693
-3.71968 2.25781 0 -66.5782
329.587 2.4206 0 -74.1761
-3.72871 2.20499 0 -66.5795
-3.72419 2.23147 0 -66.5789
-335.075 1.97716 0 -56.2793
-331.844 2.02721 0 -56.3007
324.764 2.49947 0 -74.1408
327.979 2.44703 0 -74.1648
-333.459 2.00223 0 -56.2898
-3.71074 2.31011 0 -66.5769
326.372 2.47332 0 -74.153
-3.71968 2.25781 0 -66.5782
-3.7152 2.28402 0 -66.5776
-331.844 2.02721 0 -56.3007
-328.614 2.07683 0 -56.324
321.549 2.55133 0 -74.115
324.764 2.49947 0 -74.1408
-330.229 2.05207 0 -56.3122
-3.70187 2.36191 0 -66.5756
323.156 2.52547 0 -74.1281
-3.71074 2.31011 0 -66.5769
-3.70629 2.33607 0 -66.5763
-328.614 2.07683 0 -56.324
-325.384 2.12604 0 -56.3492
318.333 2.60261 0 -74.0873
321.549 2.55133 0 -74.115
-326.999 2.10149 0 -56.3364
-3.6931 2.41319 0 -66.5744
319.941 2.57704 0 -74.1013
-3.70187 2.36191 0 -66.5756
-3.69748 2.38762 0 -66.575
-325.384 2.12604 0 -56.3492
-322.154 2.17482 0 -56.3762
315.118 2.65331 0 -74.0577
318.333 2.60261 0 -74.0873
-323.769 2.15048 0 -56.3625
-3.68441 2.46397 0 -66.5731
316.726 2.62803 0 -74.0727
-3.6931 2.41319 0 -66.5744
-3.68874 2.43865 0 -66.5737
-322.154 2.17482 0 -56.3762
-318.924 2.22319 0 -56.405
311.903 2.70344 0 -74.0263
315.118 2.65331 0 -74.0577
-320.539 2.19906 0 -56.3904
-3.6758 2.51424 0 -66.5718
313.511 2.67845 0 -74.0423
-3.68441 2.46397 0 -66.5731
-3.68009 2.48917 0 -66.5724
-318.924 2.22319 0 -56.405
-315.695 2.27113 0 -56.4357
308.688 2.75299 0 -73.9932
311.903 2.70344 0 -74.0263
-317.309 2.24721 0 -56.4201
-3.66728 2.56399 0 -66.5705
310.295 2.72828 0 -74.01
-3.6758 2.51424 0 -66.5718
-3.67153 2.53918 0 -66.5712
-315.695 2.27113 0 -56.4357
-312.465 2.31865 0 -56.4681
305.473 2.80195 0 -73.9582
308.688 2.75299 0 -73.9932
-314.08 2.29494 0 -56.4517
-3.65885 2.61324 0 -66.5693
307.08 2.77754 0 -73.9759
-3.66728 2.56399 0 -66.5705
-3.66305 2.58868 0 -66.5699
-312.465 2.31865 0 -56.4681
-309.236 2.36576 0 -56.5023
302.258 2.85035 0 -73.9215
305.473 2.80195 0 -73.9582
-310.851 2.34226 0 -56.485
-3.6505 2.66198 0 -66.568
303.865 2.82622 0 -73.9401
-3.65885 2.61324 0 -66.5693
-3.65466 2.63767 0 -66.5686
-309.236 2.36576 0 -56.5023
-306.007 2.41244 0 -56.5383
299.042 2.89816 0 -73.8831
302.258 2.85035 0 -73.9215
-307.621 2.38915 0 -56.5201
-3.64223 2.7102 0 -66.5667
300.65 2.87432 0 -73.9025
-3.6505 2.66198 0 -66.568
-3.64635 2.68615 0 -66.5674
-306.007 2.41244 0 -56.5383
-302.778 2.4587 0 -56.576
295.827 2.94539 0 -73.8429
299.042 2.89816 0 -73.8831
-304.392 2.43562 0 -56.5569
-3.63405 2.75792 0 -66.5655
297.435 2.92185 0 -73.8632
-3.64223 2.7102 0 -66.5667
-3.63813 2.73413 0 -66.5661
-302.778 2.4587 0 -56.576
-299.549 2.50455 0 -56.6154
292.612 2.99204 0 -73.801
295.827 2.94539 0 -73.8429
-301.164 2.48168 0 -56.5955
-3.62596 2.80513 0 -66.5643
294.22 2.96879 0 -73.8222
-3.63405 2.75792 0 -66.5655
-3.63 2.78159 0 -66.5649
-299.549 2.50455 0 -56.6154
-296.321 2.54997 0 -56.6565
289.397 3.03812 0 -73.7574
292.612 2.99204 0 -73.801
-297.935 2.52731 0 -56.6357
-3.61796 2.85183 0 -66.563
291.005 3.01515 0 -73.7794
-3.62596 2.80513 0 -66.5643
-3.62195 2.82854 0 -66.5636
-296.321 2.54997 0 -56.6565
-293.092 2.59498 0 -56.6993
286.182 3.08361 0 -73.7122
289.397 3.03812 0 -73.7574
-294.707 2.57253 0 -56.6777
-3.61003 2.89801 0 -66.5618
287.79 3.06094 0 -73.735
-3.61796 2.85183 0 -66.563
-3.61398 2.87498 0 -66.5624
-293.092 2.59498 0 -56.6993
-289.864 2.63956 0 -56.7438
282.967 3.12852 0 -73.6653
286.182 3.08361 0 -73.7122
-291.478 2.61732 0 -56.7213
-3.6022 2.94369 0 -66.5606
284.575 3.10614 0 -73.689
-3.61003 2.89801 0 -66.5618
-3.60611 2.92092 0 -66.5612
-289.864 2.63956 0 -56.7438
-286.636 2.68373 0 -56.7899
279.752 3.17286 0 -73.6168
282.967 3.12852 0 -73.6653
-288.25 2.6617 0 -56.7666
-3.59445 2.98886 0 -66.5593
281.36 3.15076 0 -73.6412
-3.6022 2.94369 0 -66.5606
-3.59831 2.96634 0 -66.5599
-286.636 2.68373 0 -56.7899
-283.408 2.72748 0 -56.8376
276.537 3.21661 0 -73.5666
279.752 3.17286 0 -73.6168
-285.022 2.70565 0 -56.8135
-3.58679 3.03352 0 -66.5581
278.145 3.19481 0 -73.5919
-3.59445 2.98886 0 -66.5593
-3.59061 3.01125 0 -66.5587
-283.408 2.72748 0 -56.8376
-280.18 2.7708 0 -56.8869
273.323 3.25979 0 -73.5149
276.537 3.21661 0 -73.5666
-281.794 2.74919 0 -56.8621
-3.57921 3.07767 0 -66.5569
274.93 3.23827 0 -73.541
-3.58679 3.03352 0 -66.5581
-3.58299 3.05566 0 -66.5575
-280.18 2.7708 0 -56.8869
-276.953 2.81371 0 -56.9378
270.108 3.30238 0 -73.4616
273.323 3.25979 0 -73.5149
-278.567 2.79231 0 -56.9122
-3.57172 3.1213 0 -66.5557
271.715 3.28116 0 -73.4884
-3.57921 3.07767 0 -66.5569
-3.57546 3.09955 0 -66.5563
-276.953 2.81371 0 -56.9378
-273.725 2.8562 0 -56.9903
266.893 3.3444 0 -73.4067
270.108 3.30238 0 -73.4616
-275.339 2.83501 0 -56.9639
-3.56432 3.16443 0 -66.5545
268.5 3.32346 0 -73.4344
-3.57172 3.1213 0 -66.5557
-3.56801 3.14293 0 -66.5551
-273.725 2.8562 0 -56.9903
-270.498 2.89827 0 -57.0444
263.678 3.38583 0 -73.3503
266.893 3.3444 0 -73.4067
-272.112 2.87729 0 -57.0172
-3.557 3.20705 0 -66.5533
265.285 3.36519 0 -73.3787
-3.56432 3.16443 0 -66.5545
-3.56065 3.18581 0 -66.5539
-270.498 2.89827 0 -57.0444
-267.271 2.93992 0 -57.1
260.463 3.42669 0 -73.2924
263.678 3.38583 0 -73.3503
-268.885 2.91915 0 -57.072
-3.54976 3.24916 0 -66.5522
262.071 3.40633 0 -73.3215
-3.557 3.20705 0 -66.5533
-3.55337 3.22817 0 -66.5528
-267.271 2.93992 0 -57.1
-264.044 2.98115 0 -57.1571
257.248 3.46696 0 -73.233
260.463 3.42669 0 -73.2924
-265.658 2.96059 0 -57.1284
-3.54262 3.29076 0 -66.551
258.856 3.4469 0 -73.2629
-3.54976 3.24916 0 -66.5522
-3.54618 3.27002 0 -66.5516
-264.044 2.98115 0 -57.1571
-260.818 3.02196 0 -57.2157
254.034 3.50666 0 -73.1721
257.248 3.46696 0 -73.233
-262.431 3.00161 0 -57.1862
-3.53556 3.33185 0 -66.5498
255.641 3.48689 0 -73.2027
-3.54262 3.29076 0 -66.551
-3.53908 3.31137 0 -66.5504
-260.818 3.02196 0 -57.2157
-257.591 3.06235 0 -57.2758
250.819 3.54578 0 -73.1097
254.034 3.50666 0 -73.1721
-259.204 3.04221 0 -57.2456
-3.52859 3.37242 0 -66.5487
252.426 3.52629 0 -73.1411
-3.53556 3.33185 0 -66.5498
-3.53206 3.3522 0 -66.5493
-257.591 3.06235 0 -57.2758
-254.365 3.10232 0 -57.3373
247.604 3.58432 0 -73.0459
250.819 3.54578 0 -73.1097
-255.978 3.08239 0 -57.3064
-3.5217 3.41249 0 -66.5476
249.212 3.56512 0 -73.078
-3.52859 3.37242 0 -66.5487
-3.52513 3.39252 0 -66.5481
-254.365 3.10232 0 -57.3373
-251.138 3.14187 0 -57.4003
244.389 3.62228 0 -72.9806
247.604 3.58432 0 -73.0459
-252.752 3.12215 0 -57.3686
-3.5149 3.45205 0 -66.5464
245.997 3.60337 0 -73.0134
-3.5217 3.41249 0 -66.5476
-3.51829 3.43233 0 -66.547
-251.138 3.14187 0 -57.4003
-247.912 3.18099 0 -57.4647
241.175 3.65966 0 -72.914
244.389 3.62228 0 -72.9806
-249.525 3.16148 0 -57.4323
-3.50818 3.4911 0 -66.5453
242.782 3.64104 0 -72.9475
-3.5149 3.45205 0 -66.5464
-3.51153 3.47164 0 -66.5459
-247.912 3.18099 0 -57.4647
-244.687 3.2197 0 -57.5306
237.96 3.69647 0 -72.8459
241.175 3.65966 0 -72.914
-246.299 3.2004 0 -57.4975
-3.50156 3.52963 0 -66.5442
239.567 3.67814 0 -72.8801
-3.50818 3.4911 0 -66.5453
-3.50486 3.51043 0 -66.5447
-244.687 3.2197 0 -57.5306
-241.461 3.25798 0 -57.5978
234.745 3.7327 0 -72.7765
237.96 3.69647 0 -72.8459
-243.074 3.23889 0 -57.564
-3.49502 3.56766 0 -66.5431
236.353 3.71465 0 -72.8114
-3.50156 3.52963 0 -66.5442
-3.49828 3.54871 0 -66.5436
-241.461 3.25798 0 -57.5978
-238.235 3.29584 0 -57.6664
231.531 3.76835 0 -72.7058
234.745 3.7327 0 -72.7765
-239.848 3.27696 0 -57.6319
-3.48856 3.60518 0 -66.542
233.138 3.75059 0 -72.7413
-3.49502 3.56766 0 -66.5431
-3.49178 3.58648 0 -66.5425
-238.235 3.29584 0 -57.6664
-235.01 3.33328 0 -57.7363
228.316 3.80342 0 -72.6337
231.531 3.76835 0 -72.7058
-236.623 3.31461 0 -57.7012
-3.48219 3.64219 0 -66.5409
229.924 3.78595 0 -72.6699
-3.48856 3.60518 0 -66.542
-3.48537 3.62375 0 -66.5415
-235.01 3.33328 0 -57.7363
-231.785 3.37029 0 -57.8076
225.102 3.83792 0 -72.5603
228.316 3.80342 0 -72.6337
-233.397 3.35184 0 -57.7718
-3.47591 3.67868 0 -66.5398
226.709 3.82074 0 -72.5971
-3.48219 3.64219 0 -66.5409
-3.47904 3.6605 0 -66.5404
-231.785 3.37029 0 -57.8076
-228.56 3.40688 0 -57.8802
221.887 3.87184 0 -72.4856
225.102 3.83792 0 -72.5603
-230.172 3.38864 0 -57.8437
-3.46972 3.71467 0 -66.5388
223.494 3.85495 0 -72.5231
-3.47591 3.67868 0 -66.5398
-3.47281 3.69674 0 -66.5393
-228.56 3.40688 0 -57.8802
-225.335 3.44305 0 -57.954
218.673 3.90518 0 -72.4096
221.887 3.87184 0 -72.4856
-226.947 3.42502 0 -57.9169
-3.46361 3.75015 0 -66.5377
220.28 3.88858 0 -72.4477
-3.46972 3.71467 0 -66.5388
-3.46666 3.73247 0 -66.5383
-225.335 3.44305 0 -57.954
-222.11 3.47879 0 -58.0292
215.458 3.93795 0 -72.3323
218.673 3.90518 0 -72.4096
-223.722 3.46097 0 -57.9915
-3.45759 3.78511 0 -66.5367
217.065 3.92164 0 -72.3711
-3.46361 3.75015 0 -66.5377
-3.46059 3.76769 0 -66.5372
-222.11 3.47879 0 -58.0292
-218.885 3.5141 0 -58.1056
212.243 3.97015 0 -72.2539
215.458 3.93795 0 -72.3323
-220.498 3.4965 0 -58.0673
-3.45166 3.81957 0 -66.5357
213.851 3.95412 0 -72.2932
-3.45759 3.78511 0 -66.5367
-3.45462 3.8024 0 -66.5362
-218.885 3.5141 0 -58.1056
-215.661 3.54899 0 -58.1833
209.029 4.00177 0 -72.1742
212.243 3.97015 0 -72.2539
-217.273 3.5316 0 -58.1443
-3.44581 3.85351 0 -66.5346
210.636 3.98603 0 -72.2142
-3.45166 3.81957 0 -66.5357
-3.44873 3.83661 0 -66.5352
-215.661 3.54899 0 -58.1833
-212.437 3.58346 0 -58.2622
205.814 4.03282 0 -72.0932
209.029 4.00177 0 -72.1742
-214.049 3.56628 0 -58.2226
-3.44005 3.88695 0 -66.5336
207.422 4.01737 0 -72.1339
-3.44581 3.85351 0 -66.5346
-3.44292 3.8703 0 -66.5341
-212.437 3.58346 0 -58.2622
-209.213 3.61749 0 -58.3423
202.6 4.0633 0 -72.0112
205.814 4.03282 0 -72.0932
-210.825 3.60053 0 -58.3021
-3.43438 3.91988 0 -66.5326
204.207 4.04813 0 -72.0524
-3.44005 3.88695 0 -66.5336
-3.43721 3.90348 0 -66.5331
-209.213 3.61749 0 -58.3423
-205.989 3.6511 0 -58.4236
199.385 4.09321 0 -71.9279
202.6 4.0633 0 -72.0112
-207.601 3.63435 0 -58.3828
-3.4288 3.95229 0 -66.5317
200.993 4.07833 0 -71.9697
-3.43438 3.91988 0 -66.5326
-3.43158 3.93615 0 -66.5322
-205.989 3.6511 0 -58.4236
-202.765 3.68428 0 -58.5061
196.171 4.12254 0 -71.8435
199.385 4.09321 0 -71.9279
-204.377 3.66774 0 -58.4647
-3.4233 3.9842 0 -66.5307
197.778 4.10795 0 -71.8858
-3.4288 3.95229 0 -66.5317
-3.42604 3.96831 0 -66.5312
-202.765 3.68428 0 -58.5061
-199.541 3.71703 0 -58.5897
192.957 4.1513 0 -71.758
196.171 4.12254 0 -71.8435
-201.153 3.70071 0 -58.5477
-3.41789 4.01559 0 -66.5297
194.564 4.13699 0 -71.8009
-3.4233 3.9842 0 -66.5307
-3.42058 3.99996 0 -66.5302
-199.541 3.71703 0 -58.5897
-196.318 3.74935 0 -58.6744
189.742 4.1795 0 -71.6713
192.957 4.1513 0 -71.758
-197.93 3.73324 0 -58.6319
-3.41256 4.04647 0 -66.5288
191.349 4.16547 0 -71.7148
-3.41789 4.01559 0 -66.5297
-3.41521 4.0311 0 -66.5293
-196.318 3.74935 0 -58.6744
-193.095 3.78124 0 -58.7603
186.528 4.20712 0 -71.5836
189.742 4.1795 0 -71.6713
-194.706 3.76535 0 -58.7172
-3.40733 4.07685 0 -66.5279
188.135 4.19338 0 -71.6276
-3.41256 4.04647 0 -66.5288
-3.40993 4.06172 0 -66.5283
-193.095 3.78124 0 -58.7603
-189.871 3.8127 0 -58.8473
183.313 4.23418 0 -71.4948
186.528 4.20712 0 -71.5836
-191.483 3.79702 0 -58.8037
-3.40218 4.10671 0 -66.5269
184.92 4.22072 0 -71.5393
-3.40733 4.07685 0 -66.5279
-3.40474 4.09184 0 -66.5274
-189.871 3.8127 0 -58.8473
-186.648 3.84372 0 -58.9353
180.099 4.26067 0 -71.405
183.313 4.23418 0 -71.4948
-188.26 3.82826 0 -58.8912
-3.39712 4.13606 0 -66.526
181.706 4.24749 0 -71.45
-3.40218 4.10671 0 -66.5269
-3.39964 4.12145 0 -66.5265
-186.648 3.84372 0 -58.9353
-183.426 3.87432 0 -59.0244
176.884 4.28659 0 -71.3141
180.099 4.26067 0 -71.405
-185.037 3.85907 0 -58.9797
-3.39214 4.16491 0 -66.5251
178.492 4.2737 0 -71.3596
-3.39712 4.13606 0 -66.526
-3.39462 4.15055 0 -66.5256
-183.426 3.87432 0 -59.0244
-180.203 3.90447 0 -59.1146
173.67 4.31194 0 -71.2222
176.884 4.28659 0 -71.3141
-181.814 3.88945 0 -59.0694
-3.38725 4.19324 0 -66.5243
175.277 4.29934 0 -71.2682
-3.39214 4.16491 0 -66.5251
-3.38969 4.17914 0 -66.5247
-180.203 3.90447 0 -59.1146
-176.98 3.9342 0 -59.2057
170.456 4.33673 0 -71.1292
173.67 4.31194 0 -71.2222
-178.592 3.91939 0 -59.16
-3.38245 4.22106 0 -66.5234
172.063 4.32441 0 -71.1758
-3.38725 4.19324 0 -66.5243
-3.38484 4.20721 0 -66.5238
-176.98 3.9342 0 -59.2057
-173.758 3.96349 0 -59.2979
167.241 4.36096 0 -71.0354
170.456 4.33673 0 -71.1292
-175.369 3.9489 0 -59.2517
-3.37774 4.24837 0 -66.5225
168.848 4.34891 0 -71.0824
-3.38245 4.22106 0 -66.5234
-3.38009 4.23478 0 -66.523
-173.758 3.96349 0 -59.2979
-170.536 3.99234 0 -59.3911
164.027 4.38462 0 -70.9405
167.241 4.36096 0 -71.0354
-172.147 3.97797 0 -59.3444
-3.37312 4.27517 0 -66.5217
165.634 4.37286 0 -70.9881
-3.37774 4.24837 0 -66.5225
-3.37542 4.26184 0 -66.5221
-170.536 3.99234 0 -59.3911
-167.314 4.02076 0 -59.4852
160.812 4.40772 0 -70.8447
164.027 4.38462 0 -70.9405
-168.925 4.0066 0 -59.438
-3.36858 4.30147 0 -66.5209
162.42 4.39624 0 -70.8927
-3.37312 4.27517 0 -66.5217
-3.37084 4.28838 0 -66.5213
-167.314 4.02076 0 -59.4852
-164.092 4.04873 0 -59.5803
157.598 4.43025 0 -70.748
160.812 4.40772 0 -70.8447
-165.703 4.0348 0 -59.5326
-3.36413 4.32725 0 -66.52
159.205 4.41906 0 -70.7965
-3.36858 4.30147 0 -66.5209
-3.36634 4.31442 0 -66.5205
-164.092 4.04873 0 -59.5803
-160.87 4.07627 0 -59.6763
154.384 4.45223 0 -70.6504
157.598 4.43025 0 -70.748
-162.481 4.06256 0 -59.6282
-3.35977 4.35252 0 -66.5192
155.991 4.44131 0 -70.6993
-3.36413 4.32725 0 -66.52
-3.36194 4.33994 0 -66.5196
-160.87 4.07627 0 -59.6763
-157.648 4.10337 0 -59.7733
151.169 4.47364 0 -70.5519
154.384 4.45223 0 -70.6504
-159.259 4.08987 0 -59.7247
-3.35549 4.37728 0 -66.5185
152.776 4.46301 0 -70.6013
-3.35977 4.35252 0 -66.5192
-3.35762 4.36496 0 -66.5189
-157.648 4.10337 0 -59.7733
-154.427 4.13003 0 -59.8711
147.955 4.4945 0 -70.4525
151.169 4.47364 0 -70.5519
-156.037 4.11675 0 -59.8221
-3.35131 4.40153 0 -66.5177
149.562 4.48414 0 -70.5023
-3.35549 4.37728 0 -66.5185
-3.35339 4.38946 0 -66.5181
-154.427 4.13003 0 -59.8711
-151.205 4.15624 0 -59.9698
144.74 4.5148 0 -70.3523
147.955 4.4945 0 -70.4525
-152.816 4.14319 0 -59.9203
-3.34721 4.42526 0 -66.5169
146.347 4.50472 0 -70.4025
-3.35131 4.40153 0 -66.5177
-3.34925 4.41346 0 -66.5173
-151.205 4.15624 0 -59.9698
-147.984 4.18201 0 -60.0694
141.526 4.53454 0 -70.2512
144.74 4.5148 0 -70.3523
-149.595 4.16918 0 -60.0195
-3.3432 4.44849 0 -66.5162
143.133 4.52474 0 -70.3019
-3.34721 4.42526 0 -66.5169
-3.34519 4.43694 0 -66.5166
-147.984 4.18201 0 -60.0694
-144.763 4.20734 0 -60.1698
138.311 4.55373 0 -70.1494
141.526 4.53454 0 -70.2512
-146.374 4.19473 0 -60.1195
-3.33927 4.47121 0 -66.5155
139.919 4.5442 0 -70.2004
-3.3432 4.44849 0 -66.5162
-3.34122 4.45992 0 -66.5158
-144.763 4.20734 0 -60.1698
-141.542 4.23222 0 -60.271
135.097 4.57236 0 -70.0467
138.311 4.55373 0 -70.1494
-143.153 4.21984 0 -60.2203
-3.33544 4.49342 0 -66.5147
136.704 4.56311 0 -70.0981
-3.33927 4.47121 0 -66.5155
-3.33734 4.48238 0 -66.5151
-141.542 4.23222 0 -60.271
-138.321 4.25666 0 -60.373
131.882 4.59043 0 -69.9433
135.097 4.57236 0 -70.0467
-139.932 4.2445 0 -60.3219
-3.33169 4.51512 0 -66.514
133.49 4.58146 0 -69.9951
-3.33544 4.49342 0 -66.5147
-3.33355 4.50433 0 -66.5144
-138.321 4.25666 0 -60.373
-135.101 4.28065 0 -60.4759
128.668 4.60796 0 -69.8391
131.882 4.59043 0 -69.9433
-136.711 4.26871 0 -60.4244
-3.32803 4.5363 0 -66.5134
130.275 4.59926 0 -69.8913
-3.33169 4.51512 0 -66.514
-3.32985 4.52577 0 -66.5137
-135.101 4.28065 0 -60.4759
-131.88 4.30419 0 -60.5795
125.453 4.62493 0 -69.7342
128.668 4.60796 0 -69.8391
-133.49 4.29248 0 -60.5276
-3.32446 4.55698 0 -66.5127
127.061 4.61651 0 -69.7867
-3.32803 4.5363 0 -66.5134
-3.32623 4.54671 0 -66.513
-131.88 4.30419 0 -60.5795
-128.66 4.32729 0 -60.6838
122.239 4.64135 0 -69.6285
125.453 4.62493 0 -69.7342
-130.27 4.3158 0 -60.6315
-3.32097 4.57715 0 -66.512
123.846 4.63321 0 -69.6814
-3.32446 4.55698 0 -66.5127
-3.3227 4.56713 0 -66.5124
-128.66 4.32729 0 -60.6838
-125.439 4.34993 0 -60.7889
119.024 4.65722 0 -69.5221
122.239 4.64135 0 -69.6285
-127.049 4.33866 0 -60.7363
-3.31758 4.5968 0 -66.5114
120.632 4.64935 0 -69.5754
-3.32097 4.57715 0 -66.512
-3.31926 4.58704 0 -66.5117
-125.439 4.34993 0 -60.7889
-122.219 4.37212 0 -60.8947
115.81 4.67254 0 -69.4151
119.024 4.65722 0 -69.5221
-123.829 4.36108 0 -60.8417
-3.31427 4.61595 0 -66.5108
117.417 4.66495 0 -69.4687
-3.31758 4.5968 0 -66.5114
-3.31591 4.60644 0 -66.5111
-122.219 4.37212 0 -60.8947
-118.999 4.39386 0 -61.0012
112.595 4.68731 0 -69.3074
115.81 4.67254 0 -69.4151
-120.609 4.38305 0 -60.9478
-3.31105 4.63458 0 -66.5102
114.203 4.67999 0 -69.3613
-3.31427 4.61595 0 -66.5108
-3.31265 4.62533 0 -66.5105
-118.999 4.39386 0 -61.0012
-115.779 4.41514 0 -61.1083
109.381 4.70154 0 -69.1991
112.595 4.68731 0 -69.3074
-117.389 4.40456 0 -61.0547
-3.30792 4.6527 0 -66.5096
110.988 4.69449 0 -69.2533
-3.31105 4.63458 0 -66.5102
-3.30947 4.6437 0 -66.5099
-115.779 4.41514 0 -61.1083
-112.56 4.43597 0 -61.2161
106.166 4.71521 0 -69.0901
109.381 4.70154 0 -69.1991
-114.169 4.42561 0 -61.1622
-3.30487 4.67031 0 -66.509
107.773 4.70844 0 -69.1447
-3.30792 4.6527 0 -66.5096
-3.30638 4.66157 0 -66.5093
-112.56 4.43597 0 -61.2161
-109.34 4.45634 0 -61.3246
102.952 4.72835 0 -68.9805
106.166 4.71521 0 -69.0901
-110.95 4.44621 0 -61.2703
-3.30191 4.68741 0 -66.5084
104.559 4.72185 0 -69.0354
-3.30487 4.67031 0 -66.509
-3.30338 4.67892 0 -66.5087
-109.34 4.45634 0 -61.3246
-106.12 4.47624 0 -61.4337
99.7369 4.74093 0 -68.8703
102.952 4.72835 0 -68.9805
-107.73 4.46635 0 -61.3791
-3.29904 4.70399 0 -66.5079
101.344 4.73471 0 -68.9255
-3.30191 4.68741 0 -66.5084
-3.30047 4.69577 0 -66.5082
-106.12 4.47624 0 -61.4337
-102.901 4.49569 0 -61.5434
96.5223 4.75297 0 -68.7596
99.7369 4.74093 0 -68.8703
-104.511 4.48602 0 -61.4885
-3.29626 4.72006 0 -66.5074
98.1296 4.74702 0 -68.815
-3.29904 4.70399 0 -66.5079
-3.29764 4.71209 0 -66.5076
-102.901 4.49569 0 -61.5434
-99.6818 4.51467 0 -61.6536
93.3076 4.76446 0 -68.6483
96.5223 4.75297 0 -68.7596
-101.291 4.50524 0 -61.5984
-3.29356 4.73561 0 -66.5069
94.9149 4.75879 0 -68.704
-3.29626 4.72006 0 -66.5074
-3.2949 4.7279 0 -66.5071
-99.6818 4.51467 0 -61.6536
-96.4626 4.53318 0 -61.7645
90.0929 4.77541 0 -68.5365
93.3076 4.76446 0 -68.6483
-98.0722 4.52398 0 -61.709
-3.29094 4.75064 0 -66.5064
91.7002 4.77001 0 -68.5924
-3.29356 4.73561 0 -66.5069
-3.29224 4.74319 0 -66.5066
-96.4626 4.53318 0 -61.7645
-93.2436 4.55121 0 -61.8759
86.8781 4.7858 0 -68.4241
90.0929 4.77541 0 -68.5365
-94.8531 4.54225 0 -61.8201
-3.28839 4.76515 0 -66.5059
88.4855 4.78068 0 -68.4804
-3.29094 4.75064 0 -66.5064
-3.28965 4.75796 0 -66.5061
-93.2436 4.55121 0 -61.8759
-90.0246 4.56877 0 -61.9878
83.6634 4.79565 0 -68.3113
86.8781 4.7858 0 -68.4241
-91.6341 4.56005 0 -61.9317
-3.28592 4.77914 0 -66.5054
85.2707 4.79079 0 -68.3678
-3.28839 4.76515 0 -66.5059
-3.28715 4.77221 0 -66.5056
-90.0246 4.56877 0 -61.9878
-86.8058 4.58586 0 -62.1002
80.4486 4.80494 0 -68.198
83.6634 4.79565 0 -68.3113
-88.4152 4.57737 0 -62.0439
-3.28351 4.7926 0 -66.505
82.056 4.80036 0 -68.2547
-3.28592 4.77914 0 -66.5054
-3.28471 4.78593 0 -66.5052
-86.8058 4.58586 0 -62.1002
-83.587 4.60246 0 -62.2131
77.2339 4.81368 0 -68.0842
80.4486 4.80494 0 -68.198
-85.1964 4.59422 0 -62.1566
-3.28116 4.80553 0 -66.5045
78.8412 4.80938 0 -68.1412
-3.28351 4.7926 0 -66.505
-3.28233 4.79913 0 -66.5047
-83.587 4.60246 0 -62.2131
-80.3683 4.6186 0 -62.3264
74.0191 4.82187 0 -67.97
77.2339 4.81368 0 -68.0842
-81.9777 4.61059 0 -62.2697
-3.27886 4.81794 0 -66.5041
75.6265 4.81785 0 -68.0272
-3.28116 4.80553 0 -66.5045
-3.28 4.8118 0 -66.5043
-80.3683 4.6186 0 -62.3264
-77.1497 4.63427 0 -62.4402
70.8044 4.82953 0 -67.8554
74.0191 4.82187 0 -67.97
-78.759 4.62649 0 -62.3833
-3.27659 4.82985 0 -66.5037
72.4117 4.82577 0 -67.9128
-3.27886 4.81794 0 -66.5041
-3.27772 4.82396 0 -66.5039
-77.1497 4.63427 0 -62.4402
-73.9312 4.64951 0 -62.5544
67.5897 4.83666 0 -67.7403
70.8044 4.82953 0 -67.8554
-75.5405 4.64194 0 -62.4973
-3.27436 4.84127 0 -66.5032
69.197 4.83316 0 -67.7979
-3.27659 4.82985 0 -66.5037
-3.27547 4.83562 0 -66.5034
-73.9312 4.64951 0 -62.5544
-70.7128 4.66437 0 -62.669
64.375 4.8433 0 -67.6248
67.5897 4.83666 0 -67.7403
-72.322 4.65699 0 -62.6116
-3.27215 4.85224 0 -66.5027
65.9823 4.84004 0 -67.6826
-3.27436 4.84127 0 -66.5032
-3.27325 4.84681 0 -66.503
-70.7128 4.66437 0 -62.669
-67.4944 4.67891 0 -62.7839
61.1604 4.84952 0 -67.5088
64.375 4.8433 0 -67.6248
-69.1036 4.67167 0 -62.7264
-3.26997 4.86284 0 -66.5022
62.7677 4.84646 0 -67.5669
-3.27215 4.85224 0 -66.5027
-3.27105 4.85758 0 -66.5024
-67.4944 4.67891 0 -62.7839
-64.2763 4.69321 0 -62.8991
57.9459 4.85544 0 -67.3924
61.1604 4.84952 0 -67.5088
-65.8853 4.68608 0 -62.8414
-3.26786 4.87318 0 -66.5015
59.5532 4.8525 0 -67.4507
-3.26997 4.86284 0 -66.5022
-3.26891 4.86803 0 -66.5018
-64.2763 4.69321 0 -62.8991
-61.0583 4.7074 0 -63.0146
54.7314 4.86126 0 -67.2754
57.9459 4.85544 0 -67.3924
-62.6673 4.70031 0 -62.9568
-3.2659 4.88342 0 -66.5008
56.3387 4.85834 0 -67.334
-3.26786 4.87318 0 -66.5015
-3.26686 4.8783 0 -66.5011
-61.0583 4.7074 0 -63.0146
-57.8408 4.72154 0 -63.1307
51.5168 4.86741 0 -67.158
54.7314 4.86126 0 -67.2754
-59.4495 4.71448 0 -63.0726
-3.26421 4.89383 0 -66.5001
53.1242 4.86426 0 -67.2168
-3.2659 4.88342 0 -66.5008
-3.26501 4.88859 0 -66.5004
-57.8408 4.72154 0 -63.1307
-54.6235 4.73566 0 -63.2477
48.3016 4.87458 0 -67.0404
51.5168 4.86741 0 -67.158
-56.2321 4.72861 0 -63.1891
-3.26305 4.90479 0 -66.4999
49.9094 4.87081 0 -67.0992
-3.26421 4.89383 0 -66.5001
-3.26354 4.89921 0 -66.4999
-54.6235 4.73566 0 -63.2477
-51.4067 4.74935 0 -63.3668
45.0851 4.8842 0 -66.9235
48.3016 4.87458 0 -67.0404
-53.015 4.74262 0 -63.3069
-3.26289 4.91685 0 -66.5015
46.6935 4.87894 0 -66.9818
-3.26305 4.90479 0 -66.4999
-3.26281 4.91064 0 -66.5004
-51.4067 4.74935 0 -63.3668
-48.189 4.76192 0 -63.4906
41.8647 4.89845 0 -66.8091
45.0851 4.8842 0 -66.9235
-49.7982 4.75586 0 -63.4279
-3.26445 4.93082 0 -66.5075
43.4757 4.89054 0 -66.8658
-3.26289 4.91685 0 -66.5015
-3.26339 4.92353 0 -66.5037
-48.189 4.76192 0 -63.4906
-44.9701 4.77066 0 -63.624
38.6378 4.92215 0 -66.7016
41.8647 4.89845 0 -66.8091
-46.5796 4.76704 0 -63.5556
-3.26899 4.94785 0 -66.5238
40.2521 4.90869 0 -66.7541
-3.26445 4.93082 0 -66.5075
-3.26626 4.93886 0 -66.514
-44.9701 4.77066 0 -63.624
-41.7429 4.77235 0 -63.7777
35.3939 4.96158 0 -66.6098
38.6378 4.92215 0 -66.7016
-43.3585 4.77276 0 -63.6974
-3.27848 4.96964 0 -66.5616
37.0192 4.9393 0 -66.6529
-3.26899 4.94785 0 -66.5238
-3.27294 4.95801 0 -66.5388
-41.7429 4.77235 0 -63.7777
-38.5042 4.75665 0 -63.97
32.124 5.0313 0 -66.5501
35.3939 4.96158 0 -66.6098
-40.1245 4.76753 0 -63.8675
-3.29607 4.99856 0 -66.6424
33.7621 4.99148 0 -66.5745
-3.27848 4.96964 0 -66.5616
-3.28605 4.98305 0 -66.5952
-38.5042 4.75665 0 -63.97
-35.2257 4.71576 0 -64.2356
28.7917 5.14515 0 -66.5532
32.124 5.0313 0 -66.5501
-36.8736 4.7403 0 -64.0906
-3.32651 5.03804 0 -66.803
30.4701 5.08129 0 -66.5412
-3.29607 4.99856 0 -66.6424
-3.30922 5.01668 0 -66.7086
-35.2257 4.71576 0 -64.2356
-31.8989 4.62081 0 -64.6272
25.376 5.33975 0 -66.6677
28.7917 5.14515 0 -66.5532
-33.566 4.67667 0 -64.4116
-3.37678 5.09248 0 -67.1046
27.0928 5.23022 0 -66.5926
-3.32651 5.03804 0 -66.803
-3.3488 5.06319 0 -66.9332
-31.8989 4.62081 0 -64.6272
-28.434 4.47365 0 -65.2313
21.7695 5.62323 0 -66.9725
25.376 5.33975 0 -66.6677
-30.1965 4.55458 0 -64.8952
-3.45618 5.16734 0 -67.6361
23.6107 5.46882 0 -66.7898
-3.37678 5.09248 0 -67.1046
-3.4118 5.12678 0 -67.3306
-28.434 4.47365 0 -65.2313
-24.84 4.225 0 -66.1451
17.9625 6.05239 0 -67.5619
21.7695 5.62323 0 -66.9725
-26.6412 4.36049 0 -65.644
-3.57509 5.26652 0 -68.5079
19.8803 5.82096 0 -67.2252
-3.45618 5.16734 0 -67.6361
-3.51067 5.21423 0 -68.0299
-24.84 4.225 0 -66.1451
-20.9027 4.013 0 -67.4761
13.7219 6.48994 0 -68.5414
17.9625 6.05239 0 -67.5619
-22.9505 4.10666 0 -66.7502
-3.74066 5.38864 0 -69.8024
15.9339 6.27819 0 -67.9962
-3.57509 5.26652 0 -68.5079
-3.65049 5.32432 0 -69.0838
-20.9027 4.013 0 -67.4761
-16.8504 3.87995 0 -69.1548
9.28845 6.85843 0 -69.8704
13.7219 6.48994 0 -68.5414
-18.8359 3.90653 0 -68.2895
-3.94277 5.5109 0 -71.4315
11.4717 6.71751 0 -69.1726
-3.74066 5.38864 0 -69.8024
-3.84109 5.45412 0 -70.6199
-16.8504 3.87995 0 -69.1548
-12.4017 4.67654 0 -70.7827
4.44871 6.20574 0 -71.214
9.28845 6.85843 0 -69.8704
-14.7579 4.11419 0 -70.0137
-4.13019 5.56922 0 -72.8223
6.99486 6.71715 0 -70.5797
-3.94277 5.5109 0 -71.4315
-4.03927 5.55099 0 -72.1656
-12.4017 4.67654 0 -70.7827
-8.69417 6.83324 0 -70.8858
0.582098 3.8301 0 -71.247
4.44871 6.20574 0 -71.214
-10.2595 5.48565 0 -71.1794
-4.16936 5.41853 0 -72.4615
2.17381 5.35842 0 -71.5244
-4.13019 5.56922 0 -72.8223
-4.18802 5.53857 0 -73.0929
-8.69417 6.83324 0 -70.8858
-5.01532 12.1863 0 -66.8121
-2.59754 -2.55833 0 -67.4373
0.582098 3.8301 0 -71.247
-7.0734 9.19672 0 -69.5707
-3.85456 4.84774 0 -67.8096
-0.905291 1.08411 0 -70.0437
-4.16936 5.41853 0 -72.4615
-4.05742 5.18829 0 -70.6914
-5.01532 12.1863 0 -66.8121
-3.60198 17.43 0 -54.2909
-2.17117 -10.2719 0 -55.4663
-2.59754 -2.55833 0 -67.4373
-3.58171 14.9429 0 -61.9067
-2.92212 3.60628 0 -55.6297
-3.3256 -6.33724 0 -62.7438
-3.85456 4.84774 0 -67.8096
-3.50609 4.34854 0 -63.1654
-3.60198 17.43 0 -54.2909
-3.28581 23.9509 0 -30.5398
1.12009 -20.9271 0 -32.2977
-2.17117 -10.2719 0 -55.4663
-3.86447 20.3504 0 -43.8882
-0.889764 1.54511 0 -30.5148
-0.337777 -15.0587 0 -45.4143
-2.92212 3.60628 0 -55.6297
-2.06413 2.616 0 -44.736
609.814 183 0 246.044
595.36 99.6235 0 81.2827
1857.5 322.704 0 -6.65901
1709.37 512.079 0 156.328
584.571 141.694 0 155.115
1225.73 210.869 0 47.2882
1809.91 410.637 0 57.9359
1133.99 339.978 0 224.513
1199.08 284.847 0 110.777
595.36 99.6235 0 81.2827
627.898 58.438 0 -17.6148
1893.21 139.947 0 -57.8884
1857.5 322.704 0 -6.65901
620.471 76.682 0 23.1492
1255.23 107.951 0 -32.1497
1873.44 224.633 0 -39.5393
1225.73 210.869 0 47.2882
1239.15 151.242 0 4.308
627.898 58.438 0 -17.6148
630.199 21.3589 0 -62.5713
1911.6 47.4655 0 -68.3358
1893.21 139.947 0 -57.8884
626.789 37.9619 0 -44.6891
1270.59 41.0468 0 -66.6758
1910.62 84.4224 0 -67.1051
1255.23 107.951 0 -32.1497
1267.06 71.2443 0 -55.9072
630.199 21.3589 0 -62.5713
632.11 3.94091 0 -78.7409
1897.31 4.44292 0 -63.9925
1911.6 47.4655 0 -68.3358
633.962 11.1704 0 -73.3712
1266.83 7.86063 0 -74.6366
1903.8 20.8458 0 -65.878
1270.59 41.0468 0 -66.6758
1269.76 20.6409 0 -71.627
632.11 3.94091 0 -78.7409
625.379 -5.19168 0 -80.635
1880.36 -8.2338 0 -61.1843
1897.31 4.44292 0 -63.9925
627.916 -1.82481 0 -80.5773
1255.35 -6.27505 0 -73.8794
1890.27 -3.9686 0 -62.6045
1266.83 7.86063 0 -74.6366
1261.78 -0.810851 0 -75.1507
625.379 -5.19168 0 -80.635
619.716 -7.0062 0 -77.996
1860.72 -11.3862 0 -59.4893
1880.36 -8.2338 0 -61.1843
623.182 -6.48831 0 -79.605
1242.09 -9.64536 0 -71.2662
1869.6 -10.7172 0 -59.9836
1255.35 -6.27505 0 -73.8794
1248.51 -8.89878 0 -72.3712
619.716 -7.0062 0 -77.996
613.018 -7.16454 0 -74.5341
1844.82 -9.89118 0 -59.3753
1860.72 -11.3862 0 -59.4893
615.932 -7.30886 0 -76.1887
1230.07 -9.3278 0 -68.9833
1852.79 -10.8229 0 -59.3968
1242.09 -9.64536 0 -71.2662
1235.9 -9.6997 0 -70.1345
613.018 -7.16454 0 -74.5341
607.85 -6.23457 0 -71.8299
1830.48 -8.00612 0 -59.673
1844.82 -9.89118 0 -59.3753
610.501 -6.70224 0 -73.0733
1219.74 -7.77145 0 -67.5045
1837.2 -8.98585 0 -59.4426
1230.07 -9.3278 0 -68.9833
1224.67 -8.62052 0 -68.0894
607.85 -6.23457 0 -71.8299
603.07 -5.46643 0 -70.0243
1818.3 -6.18801 0 -60.2939
1830.48 -8.00612 0 -59.673
605.283 -5.85199 0 -70.809
1210.87 -6.32609 0 -66.7173
1824.3 -7.02377 0 -59.9853
1219.74 -7.77145 0 -67.5045
1215.16 -7.00069 0 -67.0604
603.07 -5.46643 0 -70.0243
599.06 -4.77862 0 -68.9951
1807.06 -4.9528 0 -60.9417
1818.3 -6.18801 0 -60.2939
601.053 -5.08891 0 -69.4319
1203.01 -5.20123 0 -66.4321
1812.52 -5.51812 0 -60.6071
1210.87 -6.32609 0 -66.7173
1206.84 -5.72175 0 -66.5131
599.06 -4.77862 0 -68.9951
595.322 -4.32328 0 -68.4821
1796.63 -4.10423 0 -61.6117
1807.06 -4.9528 0 -60.9417
597.132 -4.53425 0 -68.6855
1195.78 -4.4449 0 -66.453
1801.8 -4.47704 0 -61.2824
1203.01 -5.20123 0 -66.4321
1199.34 -4.78068 0 -66.4189
595.322 -4.32328 0 -68.4821
591.86 -3.9899 0 -68.2961
1786.53 -3.58392 0 -62.2529
1796.63 -4.10423 0 -61.6117
593.582 -4.13915 0 -68.3593
1188.93 -3.94645 0 -66.6556
1791.53 -3.81524 0 -61.9337
1195.78 -4.4449 0 -66.453
1192.32 -4.16949 0 -66.5355
591.86 -3.9899 0 -68.2961
588.501 -3.7634 0 -68.294
1776.67 -3.24922 0 -62.8746
1786.53 -3.58392 0 -62.2529
590.164 -3.86827 0 -68.278
1182.29 -3.62515 0 -66.9519
1781.58 -3.39632 0 -62.5675
1188.93 -3.94645 0 -66.6556
1185.59 -3.7681 0 -66.7969
588.501 -3.7634 0 -68.294
585.223 -3.59129 0 -68.3917
1766.9 -3.03525 0 -63.4724
1776.67 -3.24922 0 -62.8746
586.859 -3.67101 0 -68.3344
1175.75 -3.40788 0 -67.2948
1771.77 -3.13191 0 -63.1758
1182.29 -3.62515 0 -66.9519
1179.01 -3.50669 0 -67.1192
585.223 -3.59129 0 -68.3917
581.976 -3.4563 0 -68.5382
1757.18 -2.88394 0 -64.0522
1766.9 -3.03525 0 -63.4724
583.595 -3.52081 0 -68.4609
1169.26 -3.2515 0 -67.6558
1762.04 -2.95335 0 -63.7647
1175.75 -3.40788 0 -67.2948
1172.5 -3.32399 0 -67.4744
581.976 -3.4563 0 -68.5382
578.749 -3.33984 0 -68.7066
1747.49 -2.76837 0 -64.6156
1757.18 -2.88394 0 -64.0522
580.361 -3.39609 0 -68.6208
1162.8 -3.12779 0 -68.0214
1752.33 -2.82319 0 -64.3357
1169.26 -3.2515 0 -67.6558
1166.03 -3.18669 0 -67.8385
578.749 -3.33984 0 -68.7066
575.529 -3.23481 0 -68.8826
1737.81 -2.67007 0 -65.1652
1747.49 -2.76837 0 -64.6156
577.138 -3.28639 0 -68.7942
1156.35 -3.02157 0 -68.3842
1742.65 -2.71759 0 -64.8921
1162.8 -3.12779 0 -68.0214
1159.57 -3.07311 0 -68.2034
575.529 -3.23481 0 -68.8826
572.314 -3.13562 0 -69.0597
1728.12 -2.58078 0 -65.7022
1737.81 -2.67007 0 -65.1652
573.921 -3.18461 0 -68.9713
1149.9 -2.92426 0 -68.7415
1732.96 -2.6247 0 -65.4352
1156.35 -3.02157 0 -68.3842
1153.12 -2.97213 0 -68.5636
572.314 -3.13562 0 -69.0597
569.1 -3.04 0 -69.2347
1718.44 -2.4956 0 -66.2276
1728.12 -2.58078 0 -65.7022
570.707 -3.08749 0 -69.1476
1143.46 -2.83153 0 -69.0918
1723.28 -2.53782 0 -65.9663
1149.9 -2.92426 0 -68.7415
1146.68 -2.87748 0 -68.9176
569.1 -3.04 0 -69.2347
565.887 -2.94643 0 -69.4065
1708.76 -2.41248 0 -66.7421
1718.44 -2.4956 0 -66.2276
567.494 -2.993 0 -69.3211
1137.01 -2.74116 0 -69.4351
1713.6 -2.45387 0 -66.4862
1143.46 -2.83153 0 -69.0918
1140.23 -2.78613 0 -69.2644
565.887 -2.94643 0 -69.4065
562.675 -2.85426 0 -69.5747
1699.08 -2.33031 0 -67.2462
1708.76 -2.41248 0 -66.7421
564.281 -2.9002 0 -69.4911
1130.57 -2.65212 0 -69.7713
1703.92 -2.3713 0 -66.9955
1137.01 -2.74116 0 -69.4351
1133.79 -2.69652 0 -69.6041
562.675 -2.85426 0 -69.5747
559.462 -2.76306 0 -69.7393
1689.4 -2.24869 0 -67.7401
1699.08 -2.33031 0 -67.2462
561.068 -2.80855 0 -69.6574
1124.12 -2.56389 0 -70.1005
1694.24 -2.28945 0 -67.4944
1130.57 -2.65212 0 -69.7713
1127.34 -2.60792 0 -69.9368
559.462 -2.76306 0 -69.7393
556.249 -2.67264 0 -69.9003
1679.72 -2.16741 0 -68.224
1689.4 -2.24869 0 -67.7401
557.855 -2.71776 0 -69.8202
1117.68 -2.47624 0 -70.423
1684.56 -2.20801 0 -67.9833
1124.12 -2.56389 0 -70.1005
1120.9 -2.52 0 -70.2626
556.249 -2.67264 0 -69.9003
553.036 -2.58285 0 -70.058
1670.03 -2.08641 0 -68.6981
1679.72 -2.16741 0 -68.224
554.642 -2.62767 0 -69.9796
1111.23 -2.38905 0 -70.7388
1674.87 -2.12688 0 -68.4623
1117.68 -2.47624 0 -70.423
1114.45 -2.43259 0 -70.5817
553.036 -2.58285 0 -70.058
549.823 -2.49363 0 -70.2123
1660.35 -2.00565 0 -69.1625
1670.03 -2.08641 0 -68.6981
551.429 -2.53818 0 -70.1355
1104.79 -2.30228 0 -71.0481
1665.19 -2.046 0 -68.9315
1111.23 -2.38905 0 -70.7388
1108.01 -2.34562 0 -70.8943
549.823 -2.49363 0 -70.2123
546.609 -2.40493 0 -70.3633
1650.67 -1.92514 0 -69.6173
1660.35 -2.00565 0 -69.1625
548.216 -2.44922 0 -70.2882
1098.34 -2.2159 0 -71.351
1655.51 -1.96536 0 -69.3911
1104.79 -2.30228 0 -71.0481
1101.56 -2.25905 0 -71.2004
546.609 -2.40493 0 -70.3633
543.396 -2.31671 0 -70.5112
1640.98 -1.84487 0 -70.0627
1650.67 -1.92514 0 -69.6173
545.003 -2.36076 0 -70.4376
1091.89 -2.12989 0 -71.6475
1645.82 -1.88497 0 -69.8412
1098.34 -2.2159 0 -71.351
1095.12 -2.17285 0 -71.5
543.396 -2.31671 0 -70.5112
540.183 -2.22896 0 -70.6558
1631.3 -1.76485 0 -70.4985
1640.98 -1.84487 0 -70.0627
541.789 -2.27277 0 -70.5839
1085.45 -2.04425 0 -71.9377
1636.14 -1.80483 0 -70.2818
1091.89 -2.12989 0 -71.6475
1088.67 -2.08703 0 -71.7934
540.183 -2.22896 0 -70.6558
536.969 -2.14166 0 -70.7973
1621.62 -1.68509 0 -70.925
1631.3 -1.76485 0 -70.4985
538.576 -2.18525 0 -70.7269
1079 -1.95898 0 -72.2216
1626.46 -1.72494 0 -70.7129
1085.45 -2.04425 0 -71.9377
1082.22 -2.00157 0 -72.0804
536.969 -2.14166 0 -70.7973
533.755 -2.05481 0 -70.9357
1611.93 -1.6056 0 -71.3421
1621.62 -1.68509 0 -70.925
535.362 -2.09818 0 -70.8669
1072.55 -1.87407 0 -72.4993
1616.77 -1.64531 0 -71.1347
1079 -1.95898 0 -72.2216
1075.78 -1.91648 0 -72.3612
533.755 -2.05481 0 -70.9357
530.541 -1.96842 0 -71.071
1602.25 -1.52638 0 -71.75
1611.93 -1.6056 0 -71.3421
532.148 -2.01156 0 -71.0037
1066.11 -1.78954 0 -72.7708
1607.09 -1.56596 0 -71.5472
1072.55 -1.87407 0 -72.4993
1069.33 -1.83176 0 -72.6358
530.541 -1.96842 0 -71.071
527.327 -1.88247 0 -71.2032
1592.56 -1.44745 0 -72.1487
1602.25 -1.52638 0 -71.75
528.934 -1.92539 0 -71.1374
1059.66 -1.70538 0 -73.0361
1597.41 -1.48688 0 -71.9505
1066.11 -1.78954 0 -72.7708
1062.88 -1.74741 0 -72.9042
527.327 -1.88247 0 -71.2032
524.113 -1.79698 0 -71.3323
1582.88 -1.36881 0 -72.5382
1592.56 -1.44745 0 -72.1487
525.72 -1.83967 0 -71.2681
1053.21 -1.62161 0 -73.2954
1587.72 -1.40809 0 -72.3446
1059.66 -1.70538 0 -73.0361
1056.44 -1.66345 0 -73.1665
524.113 -1.79698 0 -71.3323
520.899 -1.71194 0 -71.4584
1573.2 -1.29049 0 -72.9186
1582.88 -1.36881 0 -72.5382
522.506 -1.7544 0 -71.3957
1046.77 -1.53823 0 -73.5486
1578.04 -1.32961 0 -72.7295
1053.21 -1.62161 0 -73.2954
1049.99 -1.57987 0 -73.4227
520.899 -1.71194 0 -71.4584
517.684 -1.62737 0 -71.5814
1563.51 -1.21247 0 -73.29
1573.2 -1.29049 0 -72.9186
519.292 -1.6696 0 -71.5203
1040.32 -1.45525 0 -73.7957
1568.35 -1.25144 0 -73.1054
1046.77 -1.53823 0 -73.5486
1043.54 -1.49669 0 -73.6729
517.684 -1.62737 0 -71.5814
514.47 -1.54326 0 -71.7015
1553.83 -1.13479 0 -73.6523
1563.51 -1.21247 0 -73.29
516.077 -1.58526 0 -71.6418
1033.87 -1.37268 0 -74.0368
1558.67 -1.17359 0 -73.4723
1040.32 -1.45525 0 -73.7957
1037.1 -1.41392 0 -73.917
514.47 -1.54326 0 -71.7015
511.256 -1.45963 0 -71.8185
1544.14 -1.05744 0 -74.0058
1553.83 -1.13479 0 -73.6523
512.863 -1.50139 0 -71.7604
1027.43 -1.29052 0 -74.272
1548.99 -1.09607 0 -73.8302
1033.87 -1.37268 0 -74.0368
1030.65 -1.33155 0 -74.1552
511.256 -1.45963 0 -71.8185
508.041 -1.37646 0 -71.9326
1534.46 -0.980443 0 -74.3503
1544.14 -1.05744 0 -74.0058
509.648 -1.41799 0 -71.876
1020.98 -1.20879 0 -74.5013
1539.3 -1.0189 0 -74.1791
1027.43 -1.29052 0 -74.272
1024.2 -1.2496 0 -74.3874
508.041 -1.37646 0 -71.9326
504.826 -1.29378 0 -72.0438
1524.78 -0.903802 0 -74.686
1534.46 -0.980443 0 -74.3503
506.434 -1.33506 0 -71.9886
1014.53 -1.12748 0 -74.7246
1529.62 -0.942077 0 -74.5193
1020.98 -1.20879 0 -74.5013
1017.76 -1.16808 0 -74.6137
504.826 -1.29378 0 -72.0438
501.612 -1.21157 0 -72.152
1515.09 -0.827529 0 -75.013
1524.78 -0.903802 0 -74.686
503.219 -1.25261 0 -72.0983
1008.08 -1.0466 0 -74.9422
1519.93 -0.865619 0 -74.8506
1014.53 -1.12748 0 -74.7246
1011.31 -1.08699 0 -74.8341
501.612 -1.21157 0 -72.152
498.397 -1.12985 0 -72.2573
1505.41 -0.751632 0 -75.3312
1515.09 -0.827529 0 -75.013
500.004 -1.17065 0 -72.205
1001.64 -0.96617 0 -75.1539
1510.25 -0.789533 0 -75.1732
1008.08 -1.0466 0 -74.9422
1004.86 -1.00633 0 -75.0487
498.397 -1.12985 0 -72.2573
495.182 -1.04861 0 -72.3597
1495.72 -0.67612 0 -75.6408
1505.41 -0.751632 0 -75.3312
496.789 -1.08917 0 -72.3088
995.19 -0.886182 0 -75.3598
1500.57 -0.713827 0 -75.487
1001.64 -0.96617 0 -75.1539
998.414 -0.92612 0 -75.2575
495.182 -1.04861 0 -72.3597
491.967 -0.967864 0 -72.4592
1486.04 -0.601003 0 -75.9417
1495.72 -0.67612 0 -75.6408
493.575 -1.00818 0 -72.4098
988.743 -0.806648 0 -75.56
1490.88 -0.638512 0 -75.7923
995.19 -0.886182 0 -75.3598
991.966 -0.846358 0 -75.4606
491.967 -0.967864 0 -72.4592
488.752 -0.887611 0 -72.5559
1476.36 -0.526289 0 -76.2341
1486.04 -0.601003 0 -75.9417
490.36 -0.927676 0 -72.5079
982.296 -0.727572 0 -75.7545
1481.2 -0.563595 0 -76.089
988.743 -0.806648 0 -75.56
985.519 -0.767052 0 -75.6579
488.752 -0.887611 0 -72.5559
485.537 -0.807855 0 -72.6497
1466.67 -0.451986 0 -76.5181
1476.36 -0.526289 0 -76.2341
487.145 -0.847671 0 -72.6032
975.848 -0.64896 0 -75.9433
1471.51 -0.489086 0 -76.3772
982.296 -0.727572 0 -75.7545
979.072 -0.688208 0 -75.8496
485.537 -0.807855 0 -72.6497
482.322 -0.728598 0 -72.7407
1456.99 -0.378104 0 -76.7936
1466.67 -0.451986 0 -76.5181
483.93 -0.768164 0 -72.6956
969.401 -0.570818 0 -76.1265
1461.83 -0.414992 0 -76.6569
975.848 -0.64896 0 -75.9433
972.625 -0.60983 0 -76.0356
482.322 -0.728598 0 -72.7407
479.107 -0.649842 0 -72.8289
1447.31 -0.304649 0 -77.0607
1456.99 -0.378104 0 -76.7936
480.715 -0.689157 0 -72.7852
962.954 -0.493151 0 -76.3041
1452.15 -0.341322 0 -76.9282
969.401 -0.570818 0 -76.1265
966.177 -0.531925 0 -76.216
479.107 -0.649842 0 -72.8289
475.892 -0.571591 0 -72.9144
1437.62 -0.231629 0 -77.3195
1447.31 -0.304649 0 -77.0607
477.499 -0.610653 0 -72.872
956.507 -0.415965 0 -76.4761
1442.46 -0.268084 0 -77.1911
962.954 -0.493151 0 -76.3041
959.73 -0.454498 0 -76.3908
475.892 -0.571591 0 -72.9144
472.677 -0.493846 0 -72.997
1427.94 -0.159054 0 -77.57
1437.62 -0.231629 0 -77.3195
474.284 -0.532655 0 -72.9561
950.059 -0.339264 0 -76.6427
1432.78 -0.195286 0 -77.4458
956.507 -0.415965 0 -76.4761
953.283 -0.377554 0 -76.5601
472.677 -0.493846 0 -72.997
469.461 -0.416612 0 -73.077
1418.26 -0.0869294 0 -77.8123
1427.94 -0.159054 0 -77.57
471.069 -0.455165 0 -73.0373
943.612 -0.263055 0 -76.8037
1423.1 -0.122935 0 -77.6922
950.059 -0.339264 0 -76.6427
946.836 -0.301098 0 -76.7239
469.461 -0.416612 0 -73.077
466.246 -0.339889 0 -73.1542
1408.57 -0.0152634 0 -78.0465
1418.26 -0.0869294 0 -77.8123
467.854 -0.378186 0 -73.1159
937.165 -0.187341 0 -76.9594
1413.41 -0.0510386 0 -77.9304
943.612 -0.263055 0 -76.8037
940.389 -0.225135 0 -76.8822
466.246 -0.339889 0 -73.1542
463.031 -0.263682 0 -73.2287
1398.89 0.0559365 0 -78.2725
1408.57 -0.0152634 0 -78.0465
464.638 -0.301721 0 -73.1918
930.718 -0.112127 0 -77.1096
1403.73 0.0203952 0 -78.1605
937.165 -0.187341 0 -76.9594
933.941 -0.149671 0 -77.0352
463.031 -0.263682 0 -73.2287
459.815 -0.187991 0 -73.3005
1389.21 0.126663 0 -78.4905
1398.89 0.0559365 0 -78.2725
461.423 -0.225771 0 -73.2649
924.271 -0.0374193 0 -77.2545
1394.05 0.0913596 0 -78.3825
930.718 -0.112127 0 -77.1096
927.494 -0.0747098 0 -77.1827
459.815 -0.187991 0 -73.3005
456.6 -0.112819 0 -73.3696
1379.52 0.19691 0 -78.7006
1389.21 0.126663 0 -78.4905
458.208 -0.15034 0 -73.3354
917.824 0.0367785 0 -77.394
1384.37 0.161847 0 -78.5966
924.271 -0.0374193 0 -77.2545
921.047 -0.000256361 0 -77.3249
456.6 -0.112819 0 -73.3696
453.385 -0.0381697 0 -73.4361
1369.84 0.266671 0 -78.9027
1379.52 0.19691 0 -78.7006
454.992 -0.0754292 0 -73.4032
911.377 0.110462 0 -77.5283
1374.68 0.231852 0 -78.8026
917.824 0.0367785 0 -77.394
914.6 0.0736847 0 -77.4618
453.385 -0.0381697 0 -73.4361
450.169 0.0359561 0 -73.5
1360.16 0.335937 0 -79.0969
1369.84 0.266671 0 -78.9027
451.777 -0.00104115 0 -73.4684
904.93 0.183626 0 -77.6572
1365 0.301366 0 -79.0008
911.377 0.110462 0 -77.5283
908.153 0.147109 0 -77.5934
450.169 0.0359561 0 -73.5
446.954 0.109556 0 -73.5612
1350.48 0.404704 0 -79.2833
1360.16 0.335937 0 -79.0969
448.561 0.0728218 0 -73.5309
898.483 0.256266 0 -77.781
1355.32 0.370383 0 -79.1911
904.93 0.183626 0 -77.6572
901.706 0.220012 0 -77.7198
446.954 0.109556 0 -73.5612
443.738 0.182627 0 -73.6199
1340.8 0.472964 0 -79.4619
1350.48 0.404704 0 -79.2833
445.346 0.146157 0 -73.5909
892.036 0.328379 0 -77.8996
1345.64 0.438898 0 -79.3736
898.483 0.256266 0 -77.781
895.26 0.292389 0 -77.841
443.738 0.182627 0 -73.6199
440.523 0.255168 0 -73.676
1331.11 0.540712 0 -79.6329
1340.8 0.472964 0 -79.4619
442.13 0.218964 0 -73.6483
885.589 0.39996 0 -78.0131
1335.96 0.506902 0 -79.5484
892.036 0.328379 0 -77.8996
888.813 0.364236 0 -77.957
440.523 0.255168 0 -73.676
437.307 0.327176 0 -73.7295
1321.43 0.60794 0 -79.7962
1331.11 0.540712 0 -79.6329
438.915 0.291239 0 -73.7031
879.143 0.471005 0 -78.1215
1326.27 0.574391 0 -79.7155
885.589 0.39996 0 -78.0131
882.366 0.435549 0 -78.0679
437.307 0.327176 0 -73.7295
434.092 0.39865 0 -73.7805
1311.75 0.674645 0 -79.9519
1321.43 0.60794 0 -79.7962
435.699 0.36298 0 -73.7553
872.696 0.54151 0 -78.2248
1316.59 0.641359 0 -79.875
879.143 0.471005 0 -78.1215
875.919 0.506325 0 -78.1737
434.092 0.39865 0 -73.7805
430.876 0.469587 0 -73.829
1302.07 0.740819 0 -80.1
1311.75 0.674645 0 -79.9519
432.484 0.434186 0 -73.8051
866.25 0.611471 0 -78.323
1306.91 0.707798 0 -80.0269
872.696 0.54151 0 -78.2248
869.473 0.576558 0 -78.2745
430.876 0.469587 0 -73.829
427.66 0.539986 0 -73.875
1292.39 0.806456 0 -80.2407
1302.07 0.740819 0 -80.1
429.268 0.504854 0 -73.8523
859.803 0.680884 0 -78.4163
1297.23 0.773705 0 -80.1713
866.25 0.611471 0 -78.323
863.026 0.646246 0 -78.3703
427.66 0.539986 0 -73.875
424.445 0.609845 0 -73.9185
1282.71 0.871553 0 -80.3739
1292.39 0.806456 0 -80.2407
426.053 0.574983 0 -73.897
853.357 0.749746 0 -78.5047
1287.55 0.839073 0 -80.3082
859.803 0.680884 0 -78.4163
856.58 0.715384 0 -78.4611
424.445 0.609845 0 -73.9185
421.229 0.679162 0 -73.9595
1273.03 0.936102 0 -80.4998
1282.71 0.871553 0 -80.3739
422.837 0.644571 0 -73.9393
846.911 0.818053 0 -78.5881
1277.87 0.903896 0 -80.4378
853.357 0.749746 0 -78.5047
850.134 0.783969 0 -78.547
421.229 0.679162 0 -73.9595
418.014 0.747934 0 -73.9981
1263.35 1.0001 0 -80.6184
1273.03 0.936102 0 -80.4998
419.621 0.713616 0 -73.9791
840.464 0.885802 0 -78.6666
1268.19 0.96817 0 -80.56
846.911 0.818053 0 -78.5881
843.688 0.851998 0 -78.628
418.014 0.747934 0 -73.9981
414.798 0.816162 0 -74.0343
1253.67 1.06354 0 -80.7297
1263.35 1.0001 0 -80.6184
416.406 0.782116 0 -74.0165
834.018 0.95299 0 -78.7403
1258.51 1.03189 0 -80.6749
840.464 0.885802 0 -78.6666
837.241 0.919466 0 -78.7041
414.798 0.816162 0 -74.0343
411.582 0.883842 0 -74.0681
1243.99 1.12642 0 -80.8338
1253.67 1.06354 0 -80.7297
413.19 0.85007 0 -74.0515
827.572 1.01961 0 -78.8092
1248.83 1.09505 0 -80.7826
834.018 0.95299 0 -78.7403
830.795 0.986372 0 -78.7754
411.582 0.883842 0 -74.0681
408.367 0.950973 0 -74.0995
1234.31 1.18873 0 -80.9307
1243.99 1.12642 0 -80.8338
409.975 0.917476 0 -74.0841
821.127 1.08567 0 -78.8734
1239.15 1.15764 0 -80.8831
827.572 1.01961 0 -78.8092
824.349 1.05271 0 -78.8419
408.367 0.950973 0 -74.0995
405.151 1.01755 0 -74.1285
1224.63 1.25047 0 -81.0206
1234.31 1.18873 0 -80.9307
406.759 0.984332 0 -74.1143
814.681 1.15115 0 -78.9328
1229.47 1.21967 0 -80.9765
821.127 1.08567 0 -78.8734
817.904 1.11848 0 -78.9037
405.151 1.01755 0 -74.1285
401.936 1.08358 0 -74.1552
1214.95 1.31163 0 -81.1034
1224.63 1.25047 0 -81.0206
403.543 1.05064 0 -74.1422
808.235 1.21606 0 -78.9875
1219.79 1.28112 0 -81.0629
814.681 1.15115 0 -78.9328
811.458 1.18367 0 -78.9607
401.936 1.08358 0 -74.1552
398.72 1.14906 0 -74.1796
1205.27 1.37222 0 -81.1793
1214.95 1.31163 0 -81.1034
400.328 1.11639 0 -74.1677
801.79 1.28039 0 -79.0376
1210.11 1.342 0 -81.1422
808.235 1.21606 0 -78.9875
805.012 1.24829 0 -79.0131
398.72 1.14906 0 -74.1796
395.504 1.21398 0 -74.2016
1195.59 1.43221 0 -81.2482
1205.27 1.37222 0 -81.1793
397.112 1.18159 0 -74.1909
795.344 1.34414 0 -79.083
1200.43 1.40229 0 -81.2146
801.79 1.28039 0 -79.0376
798.567 1.31234 0 -79.0609
395.504 1.21398 0 -74.2016
392.289 1.27834 0 -74.2214
1185.91 1.49162 0 -81.3102
1195.59 1.43221 0 -81.2482
393.897 1.24623 0 -74.2118
788.899 1.40731 0 -79.1239
1190.75 1.46199 0 -81.2801
795.344 1.34414 0 -79.083
792.122 1.37579 0 -79.104
392.289 1.27834 0 -74.2214
389.073 1.34215 0 -74.2389
1176.24 1.55044 0 -81.3655
1185.91 1.49162 0 -81.3102
390.681 1.31032 0 -74.2304
782.454 1.46989 0 -79.1602
1181.08 1.52111 0 -81.3387
788.899 1.40731 0 -79.1239
785.676 1.43867 0 -79.1426
389.073 1.34215 0 -74.2389
385.858 1.4054 0 -74.2541
1166.56 1.60866 0 -81.414
1176.24 1.55044 0 -81.3655
387.465 1.37384 0 -74.2468
776.009 1.53188 0 -79.1921
1171.4 1.57963 0 -81.3906
782.454 1.46989 0 -79.1602
779.231 1.50096 0 -79.1767
385.858 1.4054 0 -74.2541
382.642 1.46808 0 -74.2671
1156.88 1.66628 0 -81.4558
1166.56 1.60866 0 -81.414
384.25 1.43681 0 -74.2609
769.564 1.59328 0 -79.2194
1161.72 1.63755 0 -81.4357
776.009 1.53188 0 -79.1921
772.786 1.56266 0 -79.2063
382.642 1.46808 0 -74.2671
379.426 1.53021 0 -74.2779
1147.2 1.7233 0 -81.4909
1156.88 1.66628 0 -81.4558
381.034 1.49922 0 -74.2728
763.119 1.65409 0 -79.2424
1152.04 1.69486 0 -81.4742
769.564 1.59328 0 -79.2194
766.342 1.62376 0 -79.2314
379.426 1.53021 0 -74.2779
376.211 1.59177 0 -74.2865
1137.53 1.7797 0 -81.5195
1147.2 1.7233 0 -81.4909
377.819 1.56106 0 -74.2825
756.675 1.71431 0 -79.2609
1142.37 1.75158 0 -81.506
763.119 1.65409 0 -79.2424
759.897 1.68428 0 -79.2522
376.211 1.59177 0 -74.2865
372.995 1.65277 0 -74.2929
1127.85 1.8355 0 -81.5416
1137.53 1.7797 0 -81.5195
374.603 1.62234 0 -74.29
750.23 1.77393 0 -79.2751
1132.69 1.80768 0 -81.5313
756.675 1.71431 0 -79.2609
753.452 1.74419 0 -79.2686
372.995 1.65277 0 -74.2929
369.78 1.71321 0 -74.2972
1118.17 1.89069 0 -81.5571
1127.85 1.8355 0 -81.5416
371.388 1.68306 0 -74.2953
743.786 1.83294 0 -79.285
1123.01 1.86317 0 -81.5501
750.23 1.77393 0 -79.2751
747.008 1.80351 0 -79.2806
369.78 1.71321 0 -74.2972
366.564 1.77308 0 -74.2993
1108.5 1.94525 0 -81.5663
1118.17 1.89069 0 -81.5571
368.172 1.74321 0 -74.2985
737.341 1.89136 0 -79.2906
1113.34 1.91805 0 -81.5625
743.786 1.83294 0 -79.285
740.564 1.86223 0 -79.2883
366.564 1.77308 0 -74.2993
363.349 1.83238 0 -74.2993
1098.82 1.9992 0 -81.569
1108.5 1.94525 0 -81.5663
364.956 1.8028 0 -74.2996
730.897 1.94917 0 -79.292
1103.66 1.9723 0 -81.5684
737.341 1.89136 0 -79.2906
734.119 1.92034 0 -79.2918
363.349 1.83238 0 -74.2993
360.133 1.89111 0 -74.2972
1089.15 2.05252 0 -81.5655
1098.82 1.9992 0 -81.569
361.741 1.86182 0 -74.2985
724.453 2.00638 0 -79.2891
1093.98 2.02594 0 -81.5681
730.897 1.94917 0 -79.292
727.675 1.97785 0 -79.2911
360.133 1.89111 0 -74.2972
356.918 1.94928 0 -74.293
1079.47 2.10522 0 -81.5557
1089.15 2.05252 0 -81.5655
358.525 1.92027 0 -74.2954
718.01 2.06297 0 -79.2821
1084.31 2.07895 0 -81.5614
724.453 2.00638 0 -79.2891
721.232 2.03475 0 -79.2861
356.918 1.94928 0 -74.293
353.702 2.00687 0 -74.2868
1069.8 2.15729 0 -81.5398
1079.47 2.10522 0 -81.5557
355.31 1.97815 0 -74.2902
711.566 2.11896 0 -79.271
1074.63 2.13134 0 -81.5485
718.01 2.06297 0 -79.2821
714.788 2.09104 0 -79.277
353.702 2.00687 0 -74.2868
350.487 2.0639 0 -74.2785
1060.12 2.20873 0 -81.5177
1069.8 2.15729 0 -81.5398
352.095 2.03546 0 -74.2829
705.122 2.17434 0 -79.2557
1064.96 2.18309 0 -81.5295
711.566 2.11896 0 -79.271
708.344 2.14673 0 -79.2639
350.487 2.0639 0 -74.2785
347.271 2.12035 0 -74.2682
1050.45 2.25954 0 -81.4895
1060.12 2.20873 0 -81.5177
348.879 2.0922 0 -74.2736
698.679 2.22911 0 -79.2365
1055.29 2.23421 0 -81.5043
705.122 2.17434 0 -79.2557
701.901 2.2018 0 -79.2466
347.271 2.12035 0 -74.2682
344.056 2.17623 0 -74.2559
1040.77 2.30971 0 -81.4552
1050.45 2.25954 0 -81.4895
345.664 2.14836 0 -74.2623
692.236 2.28326 0 -79.2132
1045.61 2.2847 0 -81.4731
698.679 2.22911 0 -79.2365
695.457 2.25626 0 -79.2253
344.056 2.17623 0 -74.2559
340.841 2.23154 0 -74.2415
1031.1 2.35924 0 -81.4151
1040.77 2.30971 0 -81.4552
342.448 2.20396 0 -74.2489
685.793 2.33679 0 -79.1859
1035.94 2.33455 0 -81.4359
692.236 2.28326 0 -79.2132
689.014 2.3101 0 -79.2
340.841 2.23154 0 -74.2415
337.625 2.28628 0 -74.2253
1021.43 2.40814 0 -81.3689
1031.1 2.35924 0 -81.4151
339.233 2.25898 0 -74.2336
679.35 2.38971 0 -79.1546
1026.26 2.38377 0 -81.3927
685.793 2.33679 0 -79.1859
682.571 2.36333 0 -79.1708
337.625 2.28628 0 -74.2253
334.41 2.34044 0 -74.207
1011.75 2.45639 0 -81.317
1021.43 2.40814 0 -81.3689
336.018 2.31343 0 -74.2164
672.907 2.44201 0 -79.1195
1016.59 2.43234 0 -81.3437
679.35 2.38971 0 -79.1546
676.129 2.41594 0 -79.1376
334.41 2.34044 0 -74.207
331.195 2.39402 0 -74.1869
1002.08 2.504 0 -81.2592
1011.75 2.45639 0 -81.317
332.802 2.3673 0 -74.1972
666.465 2.49369 0 -79.0805
1006.92 2.48027 0 -81.2888
672.907 2.44201 0 -79.1195
669.686 2.46793 0 -79.1005
331.195 2.39402 0 -74.1869
327.979 2.44703 0 -74.1648
992.409 2.55096 0 -81.1957
1002.08 2.504 0 -81.2592
329.587 2.4206 0 -74.1761
660.022 2.54475 0 -79.0377
997.246 2.52756 0 -81.2282
666.465 2.49369 0 -79.0805
663.243 2.5193 0 -79.0596
327.979 2.44703 0 -74.1648
324.764 2.49947 0 -74.1408
982.737 2.59728 0 -81.1265
992.409 2.55096 0 -81.1957
326.372 2.47332 0 -74.153
653.58 2.59519 0 -78.9911
987.573 2.5742 0 -81.1618
660.022 2.54475 0 -79.0377
656.801 2.57005 0 -79.0149
324.764 2.49947 0 -74.1408
321.549 2.55133 0 -74.115
973.066 2.64295 0 -81.0516
982.737 2.59728 0 -81.1265
323.156 2.52547 0 -74.1281
647.138 2.64501 0 -78.9407
977.901 2.6202 0 -81.0898
653.58 2.59519 0 -78.9911
650.359 2.62018 0 -78.9664
321.549 2.55133 0 -74.115
318.333 2.60261 0 -74.0873
963.394 2.68797 0 -80.9712
973.066 2.64295 0 -81.0516
319.941 2.57704 0 -74.1013
640.696 2.6942 0 -78.8866
968.23 2.66554 0 -81.0121
647.138 2.64501 0 -78.9407
643.917 2.66968 0 -78.9141
318.333 2.60261 0 -74.0873
315.118 2.65331 0 -74.0577
953.723 2.73234 0 -80.8853
963.394 2.68797 0 -80.9712
316.726 2.62803 0 -74.0727
634.254 2.74277 0 -78.8289
958.559 2.71024 0 -80.9289
640.696 2.6942 0 -78.8866
637.475 2.71856 0 -78.8582
315.118 2.65331 0 -74.0577
311.903 2.70344 0 -74.0263
944.052 2.77606 0 -80.7938
953.723 2.73234 0 -80.8853
313.511 2.67845 0 -74.0423
627.812 2.79071 0 -78.7674
948.888 2.75428 0 -80.8402
634.254 2.74277 0 -78.8289
631.033 2.76682 0 -78.7986
311.903 2.70344 0 -74.0263
308.688 2.75299 0 -73.9932
934.382 2.81913 0 -80.697
944.052 2.77606 0 -80.7938
310.295 2.72828 0 -74.01
621.371 2.83803 0 -78.7024
939.217 2.79768 0 -80.7461
627.812 2.79071 0 -78.7674
624.592 2.81445 0 -78.7354
308.688 2.75299 0 -73.9932
305.473 2.80195 0 -73.9582
924.712 2.86154 0 -80.5948
934.382 2.81913 0 -80.697
307.08 2.77754 0 -73.9759
614.929 2.88472 0 -78.6338
929.547 2.84041 0 -80.6466
621.371 2.83803 0 -78.7024
618.15 2.86146 0 -78.6686
305.473 2.80195 0 -73.9582
302.258 2.85035 0 -73.9215
915.042 2.9033 0 -80.4873
924.712 2.86154 0 -80.5948
303.865 2.82622 0 -73.9401
608.488 2.93079 0 -78.5617
919.877 2.8825 0 -80.5417
614.929 2.88472 0 -78.6338
611.709 2.90783 0 -78.5982
302.258 2.85035 0 -73.9215
299.042 2.89816 0 -73.8831
905.372 2.9444 0 -80.3746
915.042 2.9033 0 -80.4873
300.65 2.87432 0 -73.9025
602.047 2.97622 0 -78.4861
910.207 2.92393 0 -80.4316
608.488 2.93079 0 -78.5617
605.268 2.95358 0 -78.5243
299.042 2.89816 0 -73.8831
295.827 2.94539 0 -73.8429
895.703 2.98485 0 -80.2566
905.372 2.9444 0 -80.3746
297.435 2.92185 0 -73.8632
595.606 3.02103 0 -78.407
900.538 2.96471 0 -80.3163
602.047 2.97622 0 -78.4861
598.827 2.99871 0 -78.447
295.827 2.94539 0 -73.8429
292.612 2.99204 0 -73.801
886.035 3.02464 0 -80.1336
895.703 2.98485 0 -80.2566
294.22 2.96879 0 -73.8222
589.166 3.06521 0 -78.3245
890.869 3.00482 0 -80.1958
595.606 3.02103 0 -78.407
592.386 3.0432 0 -78.3662
292.612 2.99204 0 -73.801
289.397 3.03812 0 -73.7574
876.366 3.06377 0 -80.0054
886.035 3.02464 0 -80.1336
291.005 3.01515 0 -73.7794
582.725 3.10877 0 -78.2386
881.2 3.04429 0 -80.0701
589.166 3.06521 0 -78.3245
585.945 3.08707 0 -78.282
289.397 3.03812 0 -73.7574
286.182 3.08361 0 -73.7122
866.698 3.10225 0 -79.8723
876.366 3.06377 0 -80.0054
287.79 3.06094 0 -73.735
576.285 3.15169 0 -78.1494
871.532 3.08309 0 -79.9395
582.725 3.10877 0 -78.2386
579.505 3.13031 0 -78.1944
286.182 3.08361 0 -73.7122
282.967 3.12852 0 -73.6653
857.03 3.14007 0 -79.7342
866.698 3.10225 0 -79.8723
284.575 3.10614 0 -73.689
569.845 3.19398 0 -78.0569
861.864 3.12124 0 -79.8038
576.285 3.15169 0 -78.1494
573.065 3.17292 0 -78.1036
282.967 3.12852 0 -73.6653
279.752 3.17286 0 -73.6168
847.362 3.17723 0 -79.5911
857.03 3.14007 0 -79.7342
281.36 3.15076 0 -73.6412
563.405 3.23565 0 -77.9611
852.196 3.15873 0 -79.6632
569.845 3.19398 0 -78.0569
566.625 3.2149 0 -78.0094
279.752 3.17286 0 -73.6168
276.537 3.21661 0 -73.5666
837.695 3.21374 0 -79.4432
847.362 3.17723 0 -79.5911
278.145 3.19481 0 -73.5919
556.965 3.27669 0 -77.862
842.529 3.19557 0 -79.5178
563.405 3.23565 0 -77.9611
560.185 3.25625 0 -77.912
276.537 3.21661 0 -73.5666
273.323 3.25979 0 -73.5149
828.028 3.24958 0 -79.2905
837.695 3.21374 0 -79.4432
274.93 3.23827 0 -73.541
550.525 3.31709 0 -77.7598
832.862 3.23174 0 -79.3675
556.965 3.27669 0 -77.862
553.745 3.29697 0 -77.8113
273.323 3.25979 0 -73.5149
270.108 3.30238 0 -73.4616
818.362 3.28477 0 -79.1331
828.028 3.24958 0 -79.2905
271.715 3.28116 0 -73.4884
544.085 3.35687 0 -77.6544
823.195 3.26726 0 -79.2124
550.525 3.31709 0 -77.7598
547.305 3.33706 0 -77.7075
270.108 3.30238 0 -73.4616
266.893 3.3444 0 -73.4067
808.696 3.31931 0 -78.9709
818.362 3.28477 0 -79.1331
268.5 3.32346 0 -73.4344
537.646 3.39602 0 -77.5459
813.529 3.30212 0 -79.0526
544.085 3.35687 0 -77.6544
540.866 3.37653 0 -77.6005
266.893 3.3444 0 -73.4067
263.678 3.38583 0 -73.3503
799.03 3.35318 0 -78.8042
808.696 3.31931 0 -78.9709
265.285 3.36519 0 -73.3787
531.207 3.43454 0 -77.4343
803.863 3.33633 0 -78.8881
537.646 3.39602 0 -77.5459
534.426 3.41536 0 -77.4905
263.678 3.38583 0 -73.3503
260.463 3.42669 0 -73.2924
789.364 3.3864 0 -78.6328
799.03 3.35318 0 -78.8042
262.071 3.40633 0 -73.3215
524.768 3.47244 0 -77.3196
794.197 3.36987 0 -78.7191
531.207 3.43454 0 -77.4343
527.987 3.45357 0 -77.3773
260.463 3.42669 0 -73.2924
257.248 3.46696 0 -73.233
779.699 3.41897 0 -78.457
789.364 3.3864 0 -78.6328
258.856 3.4469 0 -73.2629
518.329 3.5097 0 -77.202
784.531 3.40277 0 -78.5455
524.768 3.47244 0 -77.3196
521.548 3.49115 0 -77.2612
257.248 3.46696 0 -73.233
254.034 3.50666 0 -73.1721
770.034 3.45088 0 -78.2767
779.699 3.41897 0 -78.457
255.641 3.48689 0 -73.2027
511.89 3.54634 0 -77.0813
774.866 3.435 0 -78.3674
518.329 3.5097 0 -77.202
515.109 3.5281 0 -77.142
254.034 3.50666 0 -73.1721
250.819 3.54578 0 -73.1097
760.369 3.48213 0 -78.0919
770.034 3.45088 0 -78.2767
252.426 3.52629 0 -73.1411
505.451 3.58235 0 -76.9578
765.202 3.46658 0 -78.1848
511.89 3.54634 0 -77.0813
508.671 3.56442 0 -77.0199
250.819 3.54578 0 -73.1097
247.604 3.58432 0 -73.0459
750.705 3.51273 0 -77.9028
760.369 3.48213 0 -78.0919
249.212 3.56512 0 -73.078
499.013 3.61773 0 -76.8313
755.537 3.49751 0 -77.9979
505.451 3.58235 0 -76.9578
502.232 3.60012 0 -76.8949
247.604 3.58432 0 -73.0459
244.389 3.62228 0 -72.9806
741.041 3.54268 0 -77.7094
750.705 3.51273 0 -77.9028
245.997 3.60337 0 -73.0134
492.575 3.65249 0 -76.702
745.873 3.52778 0 -77.8067
499.013 3.61773 0 -76.8313
495.794 3.63519 0 -76.767
244.389 3.62228 0 -72.9806
241.175 3.65966 0 -72.914
731.377 3.57197 0 -77.5118
741.041 3.54268 0 -77.7094
242.782 3.64104 0 -72.9475
486.137 3.68662 0 -76.5698
736.209 3.55741 0 -77.6112
492.575 3.65249 0 -76.702
489.356 3.66963 0 -76.6362
241.175 3.65966 0 -72.914
237.96 3.69647 0 -72.8459
721.714 3.60062 0 -77.31
731.377 3.57197 0 -77.5118
239.567 3.67814 0 -72.8801
479.699 3.72013 0 -76.4349
726.546 3.58638 0 -77.4114
486.137 3.68662 0 -76.5698
482.918 3.70345 0 -76.5027
237.96 3.69647 0 -72.8459
234.745 3.7327 0 -72.7765
712.051 3.62861 0 -77.104
721.714 3.60062 0 -77.31
236.353 3.71465 0 -72.8114
473.261 3.75301 0 -76.2972
716.882 3.61469 0 -77.2075
479.699 3.72013 0 -76.4349
476.48 3.73665 0 -76.3664
234.745 3.7327 0 -72.7765
231.531 3.76835 0 -72.7058
702.388 3.65596 0 -76.894
712.051 3.62861 0 -77.104
233.138 3.75059 0 -72.7413
466.823 3.78527 0 -76.1567
707.22 3.64236 0 -76.9995
473.261 3.75301 0 -76.2972
470.042 3.76922 0 -76.2273
231.531 3.76835 0 -72.7058
228.316 3.80342 0 -72.6337
692.726 3.68265 0 -76.68
702.388 3.65596 0 -76.894
229.924 3.78595 0 -72.6699
460.385 3.81691 0 -76.0137
697.557 3.66939 0 -76.7875
466.823 3.78527 0 -76.1567
463.604 3.80117 0 -76.0855
228.316 3.80342 0 -72.6337
225.102 3.83792 0 -72.5603
683.064 3.70871 0 -76.462
692.726 3.68265 0 -76.68
226.709 3.82074 0 -72.5971
453.948 3.84792 0 -75.8679
687.895 3.69576 0 -76.5715
460.385 3.81691 0 -76.0137
457.167 3.83249 0 -75.9411
225.102 3.83792 0 -72.5603
221.887 3.87184 0 -72.4856
673.402 3.73411 0 -76.24
683.064 3.70871 0 -76.462
223.494 3.85495 0 -72.5231
447.511 3.87832 0 -75.7196
678.233 3.72149 0 -76.3515
453.948 3.84792 0 -75.8679
450.729 3.8632 0 -75.7941
221.887 3.87184 0 -72.4856
218.673 3.90518 0 -72.4096
663.74 3.75887 0 -76.0143
673.402 3.73411 0 -76.24
220.28 3.88858 0 -72.4477
441.074 3.90809 0 -75.5687
668.571 3.74657 0 -76.1276
447.511 3.87832 0 -75.7196
444.292 3.89328 0 -75.6445
218.673 3.90518 0 -72.4096
215.458 3.93795 0 -72.3323
654.079 3.783 0 -75.7847
663.74 3.75887 0 -76.0143
217.065 3.92164 0 -72.3711
434.637 3.93725 0 -75.4153
658.91 3.77102 0 -75.8999
441.074 3.90809 0 -75.5687
437.855 3.92275 0 -75.4923
215.458 3.93795 0 -72.3323
212.243 3.97015 0 -72.2539
644.418 3.80648 0 -75.5514
654.079 3.783 0 -75.7847
213.851 3.95412 0 -72.2932
428.2 3.96579 0 -75.2594
649.249 3.79482 0 -75.6685
434.637 3.93725 0 -75.4153
431.418 3.95159 0 -75.3376
212.243 3.97015 0 -72.2539
209.029 4.00177 0 -72.1742
634.758 3.82932 0 -75.3144
644.418 3.80648 0 -75.5514
210.636 3.98603 0 -72.2142
421.763 3.99371 0 -75.101
639.588 3.81798 0 -75.4333
428.2 3.96579 0 -75.2594
424.982 3.97982 0 -75.1805
209.029 4.00177 0 -72.1742
205.814 4.03282 0 -72.0932
625.097 3.85153 0 -75.0737
634.758 3.82932 0 -75.3144
207.422 4.01737 0 -72.1339
415.327 4.02101 0 -74.9402
629.927 3.8405 0 -75.1945
421.763 3.99371 0 -75.101
418.545 4.00744 0 -75.0209
205.814 4.03282 0 -72.0932
202.6 4.0633 0 -72.0112
615.437 3.8731 0 -74.8295
625.097 3.85153 0 -75.0737
204.207 4.04813 0 -72.0524
408.89 4.04771 0 -74.7771
620.267 3.86239 0 -74.9521
415.327 4.02101 0 -74.9402
412.109 4.03444 0 -74.8589
202.6 4.0633 0 -72.0112
199.385 4.09321 0 -71.9279
605.777 3.89403 0 -74.5818
615.437 3.8731 0 -74.8295
200.993 4.07833 0 -71.9697
402.454 4.07379 0 -74.6115
610.607 3.88364 0 -74.7061
408.89 4.04771 0 -74.7771
405.672 4.06082 0 -74.6946
199.385 4.09321 0 -71.9279
196.171 4.12254 0 -71.8435
596.118 3.91434 0 -74.3306
605.777 3.89403 0 -74.5818
197.778 4.10795 0 -71.8858
396.018 4.09925 0 -74.4437
600.948 3.90427 0 -74.4566
402.454 4.07379 0 -74.6115
399.236 4.0866 0 -74.5279
196.171 4.12254 0 -71.8435
192.957 4.1513 0 -71.758
586.459 3.93402 0 -74.076
596.118 3.91434 0 -74.3306
194.564 4.13699 0 -71.8009
389.582 4.12411 0 -74.2736
591.288 3.92426 0 -74.2037
396.018 4.09925 0 -74.4437
392.8 4.11176 0 -74.359
192.957 4.1513 0 -71.758
189.742 4.1795 0 -71.6713
576.8 3.95307 0 -73.818
586.459 3.93402 0 -74.076
191.349 4.16547 0 -71.7148
383.146 4.14836 0 -74.1013
581.629 3.94362 0 -73.9474
389.582 4.12411 0 -74.2736
386.364 4.13631 0 -74.1878
189.742 4.1795 0 -71.6713
186.528 4.20712 0 -71.5836
567.141 3.97149 0 -73.5568
576.8 3.95307 0 -73.818
188.135 4.19338 0 -71.6276
376.711 4.172 0 -73.9268
571.971 3.96236 0 -73.6878
383.146 4.14836 0 -74.1013
379.928 4.16026 0 -74.0143
186.528 4.20712 0 -71.5836
183.313 4.23418 0 -71.4948
557.483 3.9893 0 -73.2922
567.141 3.97149 0 -73.5568
184.92 4.22072 0 -71.5393
370.275 4.19504 0 -73.7502
562.312 3.98047 0 -73.4249
376.711 4.172 0 -73.9268
373.493 4.18359 0 -73.8388
183.313 4.23418 0 -71.4948
180.099 4.26067 0 -71.405
547.825 4.00648 0 -73.0246
557.483 3.9893 0 -73.2922
181.706 4.24749 0 -71.45
363.839 4.21747 0 -73.5714
552.654 3.99797 0 -73.1588
370.275 4.19504 0 -73.7502
367.057 4.20633 0 -73.661
180.099 4.26067 0 -71.405
176.884 4.28659 0 -71.3141
538.167 4.02304 0 -72.7537
547.825 4.00648 0 -73.0246
178.492 4.2737 0 -71.3596
357.404 4.2393 0 -73.3905
542.996 4.01484 0 -72.8895
363.839 4.21747 0 -73.5714
360.622 4.22846 0 -73.4812
176.884 4.28659 0 -71.3141
173.67 4.31194 0 -71.2222
528.51 4.03899 0 -72.4798
538.167 4.02304 0 -72.7537
175.277 4.29934 0 -71.2682
350.969 4.26052 0 -73.2076
533.338 4.0311 0 -72.6172
357.404 4.2393 0 -73.3905
354.186 4.24998 0 -73.2993
173.67 4.31194 0 -71.2222
170.456 4.33673 0 -71.1292
518.852 4.05433 0 -72.2029
528.51 4.03899 0 -72.4798
172.063 4.32441 0 -71.1758
344.534 4.28115 0 -73.0226
523.681 4.04674 0 -72.3417
350.969 4.26052 0 -73.2076
347.751 4.27091 0 -73.1154
170.456 4.33673 0 -71.1292
167.241 4.36096 0 -71.0354
509.195 4.06906 0 -71.923
518.852 4.05433 0 -72.2029
168.848 4.34891 0 -71.0824
338.099 4.30118 0 -72.8357
514.024 4.06177 0 -72.0633
344.534 4.28115 0 -73.0226
341.316 4.29124 0 -72.9294
167.241 4.36096 0 -71.0354
164.027 4.38462 0 -70.9405
499.539 4.08317 0 -71.6402
509.195 4.06906 0 -71.923
165.634 4.37286 0 -70.9881
331.664 4.32061 0 -72.6469
504.367 4.07619 0 -71.782
338.099 4.30118 0 -72.8357
334.881 4.31097 0 -72.7416
164.027 4.38462 0 -70.9405
160.812 4.40772 0 -70.8447
489.882 4.09669 0 -71.3546
499.539 4.08317 0 -71.6402
162.42 4.39624 0 -70.8927
325.229 4.33945 0 -72.4562
494.71 4.09001 0 -71.4977
331.664 4.32061 0 -72.6469
328.447 4.33011 0 -72.5518
160.812 4.40772 0 -70.8447
157.598 4.43025 0 -70.748
480.226 4.1096 0 -71.0661
489.882 4.09669 0 -71.3546
159.205 4.41906 0 -70.7965
318.795 4.3577 0 -72.2636
485.054 4.10322 0 -71.2107
325.229 4.33945 0 -72.4562
322.012 4.34865 0 -72.3601
157.598 4.43025 0 -70.748
154.384 4.45223 0 -70.6504
470.57 4.12191 0 -70.7749
480.226 4.1096 0 -71.0661
155.991 4.44131 0 -70.6993
312.36 4.37535 0 -72.0692
475.398 4.11582 0 -70.9209
318.795 4.3577 0 -72.2636
315.577 4.3666 0 -72.1666
154.384 4.45223 0 -70.6504
151.169 4.47364 0 -70.5519
460.914 4.13362 0 -70.481
470.57 4.12191 0 -70.7749
152.776 4.46301 0 -70.6013
305.926 4.39242 0 -71.8729
465.742 4.12784 0 -70.6283
312.36 4.37535 0 -72.0692
309.143 4.38396 0 -71.9713
151.169 4.47364 0 -70.5519
147.955 4.4945 0 -70.4525
451.259 4.14474 0 -70.1845
460.914 4.13362 0 -70.481
149.562 4.48414 0 -70.5023
299.491 4.4089 0 -71.675
456.087 4.13925 0 -70.3331
305.926 4.39242 0 -71.8729
302.708 4.40073 0 -71.7742
147.955 4.4945 0 -70.4525
144.74 4.5148 0 -70.3523
441.604 4.15526 0 -69.8854
451.259 4.14474 0 -70.1845
146.347 4.50472 0 -70.4025
293.057 4.42479 0 -71.4753
446.431 4.15007 0 -70.0353
299.491 4.4089 0 -71.675
296.274 4.41692 0 -71.5754
144.74 4.5148 0 -70.3523
141.526 4.53454 0 -70.2512
431.949 4.1652 0 -69.5838
441.604 4.15526 0 -69.8854
143.133 4.52474 0 -70.3019
286.623 4.4401 0 -71.274
436.776 4.16031 0 -69.7349
293.057 4.42479 0 -71.4753
289.84 4.43252 0 -71.3748
141.526 4.53454 0 -70.2512
138.311 4.55373 0 -70.1494
422.294 4.17456 0 -69.2797
431.949 4.1652 0 -69.5838
139.919 4.5442 0 -70.2004
280.189 4.45483 0 -71.071
427.121 4.16995 0 -69.432
286.623 4.4401 0 -71.274
283.406 4.44754 0 -71.1727
138.311 4.55373 0 -70.1494
135.097 4.57236 0 -70.0467
412.639 4.18333 0 -68.9732
422.294 4.17456 0 -69.2797
136.704 4.56311 0 -70.0981
273.755 4.46899 0 -70.8664
417.466 4.17901 0 -69.1267
280.189 4.45483 0 -71.071
276.972 4.46198 0 -70.9689
135.097 4.57236 0 -70.0467
131.882 4.59043 0 -69.9433
402.985 4.19152 0 -68.6643
412.639 4.18333 0 -68.9732
133.49 4.58146 0 -69.9951
267.321 4.48256 0 -70.6602
407.812 4.18749 0 -68.8191
273.755 4.46899 0 -70.8664
270.538 4.47584 0 -70.7635
131.882 4.59043 0 -69.9433
128.668 4.60796 0 -69.8391
393.331 4.19913 0 -68.3532
402.985 4.19152 0 -68.6643
130.275 4.59926 0 -69.8913
260.888 4.49556 0 -70.4525
398.158 4.1954 0 -68.509
267.321 4.48256 0 -70.6602
264.104 4.48913 0 -70.5566
128.668 4.60796 0 -69.8391
125.453 4.62493 0 -69.7342
383.677 4.20618 0 -68.0398
393.331 4.19913 0 -68.3532
127.061 4.61651 0 -69.7867
254.454 4.50798 0 -70.2433
388.504 4.20273 0 -68.1968
260.888 4.49556 0 -70.4525
257.671 4.50184 0 -70.3481
125.453 4.62493 0 -69.7342
122.239 4.64135 0 -69.6285
374.023 4.21265 0 -67.7242
383.677 4.20618 0 -68.0398
123.846 4.63321 0 -69.6814
248.02 4.51984 0 -70.0327
378.85 4.20948 0 -67.8822
254.454 4.50798 0 -70.2433
251.237 4.51398 0 -70.1382
122.239 4.64135 0 -69.6285
119.024 4.65722 0 -69.5221
364.37 4.21856 0 -67.4064
374.023 4.21265 0 -67.7242
120.632 4.64935 0 -69.5754
241.587 4.53113 0 -69.8207
369.196 4.21567 0 -67.5656
248.02 4.51984 0 -70.0327
244.804 4.52555 0 -69.9269
119.024 4.65722 0 -69.5221
115.81 4.67254 0 -69.4151
354.716 4.2239 0 -67.0866
364.37 4.21856 0 -67.4064
117.417 4.66495 0 -69.4687
235.153 4.54185 0 -69.6072
359.543 4.2213 0 -67.2468
241.587 4.53113 0 -69.8207
238.37 4.53656 0 -69.7141
115.81 4.67254 0 -69.4151
112.595 4.68731 0 -69.3074
345.063 4.22868 0 -66.7648
354.716 4.2239 0 -67.0866
114.203 4.67999 0 -69.3613
228.72 4.552 0 -69.3924
349.89 4.22636 0 -66.926
235.153 4.54185 0 -69.6072
231.937 4.547 0 -69.5
112.595 4.68731 0 -69.3074
109.381 4.70154 0 -69.1991
335.41 4.23291 0 -66.441
345.063 4.22868 0 -66.7648
110.988 4.69449 0 -69.2533
222.287 4.5616 0 -69.1763
340.237 4.23087 0 -66.6031
228.72 4.552 0 -69.3924
225.503 4.55687 0 -69.2846
109.381 4.70154 0 -69.1991
106.166 4.71521 0 -69.0901
325.758 4.23658 0 -66.1153
335.41 4.23291 0 -66.441
107.773 4.70844 0 -69.1447
215.854 4.57063 0 -68.959
330.584 4.23482 0 -66.2784
222.287 4.5616 0 -69.1763
219.07 4.56618 0 -69.0678
106.166 4.71521 0 -69.0901
102.952 4.72835 0 -68.9805
316.105 4.2397 0 -65.7877
325.758 4.23658 0 -66.1153
104.559 4.72185 0 -69.0354
209.421 4.5791 0 -68.7404
320.932 4.23821 0 -65.9517
215.854 4.57063 0 -68.959
212.637 4.57494 0 -68.8498
102.952 4.72835 0 -68.9805
99.7369 4.74093 0 -68.8703
306.453 4.24228 0 -65.4583
316.105 4.2397 0 -65.7877
101.344 4.73471 0 -68.9255
202.988 4.58702 0 -68.5206
311.279 4.24106 0 -65.6232
209.421 4.5791 0 -68.7404
206.204 4.58313 0 -68.6306
99.7369 4.74093 0 -68.8703
96.5223 4.75297 0 -68.7596
296.801 4.24431 0 -65.1272
306.453 4.24228 0 -65.4583
98.1296 4.74702 0 -68.815
196.555 4.59438 0 -68.2997
301.627 4.24336 0 -65.293
202.988 4.58702 0 -68.5206
199.771 4.59077 0 -68.4103
96.5223 4.75297 0 -68.7596
93.3076 4.76446 0 -68.6483
287.149 4.24579 0 -64.7944
296.801 4.24431 0 -65.1272
94.9149 4.75879 0 -68.704
190.122 4.60118 0 -68.0776
291.975 4.24512 0 -64.961
196.555 4.59438 0 -68.2997
193.338 4.59785 0 -68.1888
93.3076 4.76446 0 -68.6483
90.0929 4.77541 0 -68.5365
277.497 4.24674 0 -64.4599
287.149 4.24579 0 -64.7944
91.7002 4.77001 0 -68.5924
183.689 4.60743 0 -67.8544
282.323 4.24633 0 -64.6274
190.122 4.60118 0 -68.0776
186.905 4.60438 0 -67.9662
90.0929 4.77541 0 -68.5365
86.8781 4.7858 0 -68.4241
267.846 4.24714 0 -64.1239
277.497 4.24674 0 -64.4599
88.4855 4.78068 0 -68.4804
177.256 4.61312 0 -67.6303
272.671 4.24701 0 -64.2921
183.689 4.60743 0 -67.8544
180.472 4.61035 0 -67.7425
86.8781 4.7858 0 -68.4241
83.6634 4.79565 0 -68.3113
258.194 4.24701 0 -63.7864
267.846 4.24714 0 -64.1239
85.2707 4.79079 0 -68.3678
170.823 4.61826 0 -67.4051
263.02 4.24714 0 -63.9553
177.256 4.61312 0 -67.6303
174.04 4.61576 0 -67.5178
83.6634 4.79565 0 -68.3113
80.4486 4.80494 0 -68.198
248.543 4.24634 0 -63.4474
258.194 4.24701 0 -63.7864
82.056 4.80036 0 -68.2547
164.391 4.62284 0 -67.1789
253.368 4.24674 0 -63.6171
170.823 4.61826 0 -67.4051
167.607 4.62062 0 -67.2921
80.4486 4.80494 0 -68.198
77.2339 4.81368 0 -68.0842
238.892 4.24513 0 -63.107
248.543 4.24634 0 -63.4474
78.8412 4.80938 0 -68.1412
157.958 4.62687 0 -66.9518
243.717 4.2458 0 -63.2774
164.391 4.62284 0 -67.1789
161.174 4.62493 0 -67.0655
77.2339 4.81368 0 -68.0842
74.0191 4.82187 0 -67.97
229.241 4.24339 0 -62.7653
238.892 4.24513 0 -63.107
75.6265 4.81785 0 -68.0272
151.526 4.63034 0 -66.7239
234.066 4.24433 0 -62.9363
157.958 4.62687 0 -66.9518
154.742 4.62868 0 -66.8379
74.0191 4.82187 0 -67.97
70.8044 4.82953 0 -67.8554
219.59 4.24112 0 -62.4223
229.241 4.24339 0 -62.7653
72.4117 4.82577 0 -67.9128
145.093 4.63327 0 -66.495
224.415 4.24233 0 -62.5939
151.526 4.63034 0 -66.7239
148.309 4.63187 0 -66.6095
70.8044 4.82953 0 -67.8554
67.5897 4.83666 0 -67.7403
209.939 4.23833 0 -62.078
219.59 4.24112 0 -62.4223
69.197 4.83316 0 -67.7979
138.661 4.63566 0 -66.2654
214.765 4.23979 0 -62.2503
145.093 4.63327 0 -66.495
141.877 4.63453 0 -66.3803
67.5897 4.83666 0 -67.7403
64.375 4.8433 0 -67.6248
200.289 4.23503 0 -61.7326
209.939 4.23833 0 -62.078
65.9823 4.84004 0 -67.6826
132.229 4.63753 0 -66.0349
205.114 4.23674 0 -61.9055
138.661 4.63566 0 -66.2654
135.445 4.63666 0 -66.1502
64.375 4.8433 0 -67.6248
61.1604 4.84952 0 -67.5088
190.639 4.23125 0 -61.386
200.289 4.23503 0 -61.7326
62.7677 4.84646 0 -67.5669
125.797 4.63895 0 -65.8036
195.464 4.23319 0 -61.5595
132.229 4.63753 0 -66.0349
129.013 4.63829 0 -65.9193
61.1604 4.84952 0 -67.5088
57.9459 4.85544 0 -67.3924
180.989 4.22709 0 -61.0382
190.639 4.23125 0 -61.386
59.5532 4.8525 0 -67.4507
119.365 4.64003 0 -65.5714
185.814 4.22921 0 -61.2123
125.797 4.63895 0 -65.8036
122.581 4.63952 0 -65.6876
57.9459 4.85544 0 -67.3924
54.7314 4.86126 0 -67.2754
171.34 4.22273 0 -60.6892
180.989 4.22709 0 -61.0382
56.3387 4.85834 0 -67.334
112.934 4.64099 0 -65.3383
176.165 4.22491 0 -60.8639
119.365 4.64003 0 -65.5714
116.149 4.6405 0 -65.455
54.7314 4.86126 0 -67.2754
51.5168 4.86741 0 -67.158
161.691 4.21858 0 -60.3388
171.34 4.22273 0 -60.6892
53.1242 4.86426 0 -67.2168
106.502 4.64231 0 -65.1043
166.516 4.22059 0 -60.5142
112.934 4.64099 0 -65.3383
109.718 4.64156 0 -65.2214
51.5168 4.86741 0 -67.158
48.3016 4.87458 0 -67.0404
152.043 4.21553 0 -59.9867
161.691 4.21858 0 -60.3388
49.9094 4.87081 0 -67.0992
100.07 4.64492 0 -64.8693
156.867 4.21683 0 -60.163
106.502 4.64231 0 -65.1043
103.286 4.64336 0 -64.9869
48.3016 4.87458 0 -67.0404
45.0851 4.8842 0 -66.9235
142.394 4.21523 0 -59.6323
152.043 4.21553 0 -59.9867
46.6935 4.87894 0 -66.9818
93.6376 4.65067 0 -64.6333
147.218 4.21488 0 -59.8098
100.07 4.64492 0 -64.8693
96.8543 4.64723 0 -64.7514
45.0851 4.8842 0 -66.9235
41.8647 4.89845 0 -66.8091
132.743 4.22131 0 -59.2746
142.394 4.21523 0 -59.6323
43.4757 4.89054 0 -66.8658
87.2011 4.66298 0 -64.3971
137.568 4.21712 0 -59.454
93.6376 4.65067 0 -64.6333
90.42 4.65565 0 -64.5152
41.8647 4.89845 0 -66.8091
38.6378 4.92215 0 -66.7016
123.084 4.23973 0 -58.912
132.743 4.22131 0 -59.2746
40.2521 4.90869 0 -66.7541
80.7559 4.68841 0 -64.1619
127.915 4.2284 0 -59.094
87.2011 4.66298 0 -64.3971
83.98 4.6735 0 -64.2791
38.6378 4.92215 0 -66.7016
35.3939 4.96158 0 -66.6098
113.411 4.28311 0 -58.5415
123.084 4.23973 0 -58.912
37.0192 4.9393 0 -66.6529
74.2913 4.73793 0 -63.9315
118.25 4.25715 0 -58.728
80.7559 4.68841 0 -64.1619
77.5268 4.70901 0 -64.046
35.3939 4.96158 0 -66.6098
32.124 5.0313 0 -66.5501
103.699 4.36927 0 -58.1601
113.411 4.28311 0 -58.5415
33.7621 4.99148 0 -66.5745
67.787 4.83144 0 -63.7131
108.563 4.31913 0 -58.3523
74.2913 4.73793 0 -63.9315
71.0458 4.77775 0 -63.8197
32.124 5.0313 0 -66.5501
28.7917 5.14515 0 -66.5532
93.9218 4.53516 0 -57.7606
103.699 4.36927 0 -58.1601
30.4701 5.08129 0 -66.5412
61.2049 4.99699 0 -63.5214
98.8192 4.43932 0 -57.9635
67.787 4.83144 0 -63.7131
64.5083 4.90209 0 -63.6136
28.7917 5.14515 0 -66.5532
25.376 5.33975 0 -66.6677
83.9888 4.81872 0 -57.3423
93.9218 4.53516 0 -57.7606
27.0928 5.23022 0 -66.5926
54.4789 5.28107 0 -63.3827
88.9849 4.65848 0 -57.5533
61.2049 4.99699 0 -63.5214
57.8658 5.12226 0 -63.4411
25.376 5.33975 0 -66.6677
21.7695 5.62323 0 -66.9725
73.8279 5.30145 0 -56.8945
83.9888 4.81872 0 -57.3423
23.6107 5.46882 0 -66.7898
47.503 5.72335 0 -63.343
78.9365 5.03117 0 -57.1236
54.4789 5.28107 0 -63.3827
51.0286 5.47678 0 -63.3508
21.7695 5.62323 0 -66.9725
17.9625 6.05239 0 -67.5619
63.1689 5.99284 0 -56.4545
73.8279 5.30145 0 -56.8945
19.8803 5.82096 0 -67.2252
40.1153 6.36975 0 -63.4741
68.5931 5.61851 0 -56.6681
47.503 5.72335 0 -63.343
43.8771 6.02801 0 -63.3729
17.9625 6.05239 0 -67.5619
13.7219 6.48994 0 -68.5414
51.9108 6.95751 0 -56.0475
63.1689 5.99284 0 -56.4545
15.9339 6.27819 0 -67.9962
32.1375 7.10623 0 -63.8787
57.6007 6.4537 0 -56.2459
40.1153 6.36975 0 -63.4741
36.2039 6.72919 0 -63.6506
13.7219 6.48994 0 -68.5414
9.28845 6.85843 0 -69.8704
39.4664 7.73782 0 -55.9315
51.9108 6.95751 0 -56.0475
11.4717 6.71751 0 -69.1726
23.4008 7.64461 0 -64.6651
45.9202 7.40175 0 -55.9235
32.1375 7.10623 0 -63.8787
27.894 7.47073 0 -64.1854
9.28845 6.85843 0 -69.8704
4.44871 6.20574 0 -71.214
26.2569 7.73592 0 -56.3332
39.4664 7.73782 0 -55.9315
6.99486 6.71715 0 -70.5797
14.1735 6.81993 0 -65.8334
32.8515 7.97304 0 -56.0501
23.4008 7.64461 0 -64.6651
18.7798 7.46887 0 -65.2668
4.44871 6.20574 0 -71.214
0.582098 3.8301 0 -71.247
12.1014 3.7418 0 -57.9912
26.2569 7.73592 0 -56.3332
2.17381 5.35842 0 -71.5244
5.33813 2.81958 0 -66.7875
19.4157 6.47162 0 -56.9448
14.1735 6.81993 0 -65.8334
9.70144 5.48536 0 -66.3061
0.582098 3.8301 0 -71.247
-2.59754 -2.55833 0 -67.4373
1.38863 -8.79949 0 -59.6733
12.1014 3.7418 0 -57.9912
-0.905291 1.08411 0 -70.0437
-0.293131 -7.64565 0 -64.9377
5.7613 -0.757049 0 -59.0064
5.33813 2.81958 0 -66.7875
1.71395 -1.63281 0 -66.6824
-2.59754 -2.55833 0 -67.4373
-2.17117 -10.2719 0 -55.4663
-4.4341 -40.7323 0 -55.9141
1.38863 -8.79949 0 -59.6733
-3.3256 -6.33724 0 -62.7438
-2.52169 -24.9336 0 -54.7008
-2.01043 -22.4347 0 -59.254
-0.293131 -7.64565 0 -64.9377
-1.42344 -15.3186 0 -60.9663
-2.17117 -10.2719 0 -55.4663
1.12009 -20.9271 0 -32.2977
-3.51366 -79.2086 0 -31.7022
-4.4341 -40.7323 0 -55.9141
-0.337777 -15.0587 0 -45.4143
-2.7975 -47.8362 0 -33.5938
-5.35389 -61.3554 0 -47.2089
-2.52169 -24.9336 0 -54.7008
-3.22414 -36.228 0 -45.8215
1709.37 512.079 0 156.328
1857.5 322.704 0 -6.65901
3149.69 339.448 0 -177.144
2974.16 889.88 0 -121.268
1809.91 410.637 0 57.9359
2463.21 372.898 0 -74.0501
3090.07 640.102 0 -204.501
2431.68 727.895 0 22.9111
2406.58 518.219 0 -24.6148
1857.5 322.704 0 -6.65901
1893.21 139.947 0 -57.8884
3197.73 100.223 0 -86.8018
3149.69 339.448 0 -177.144
1873.44 224.633 0 -39.5393
2551.94 144.917 0 -87.1641
3194.72 174.234 0 -129.131
2463.21 372.898 0 -74.0501
2531.49 250.428 0 -97.0881
1893.21 139.947 0 -57.8884
1911.6 47.4655 0 -68.3358
3157.79 16.7195 0 -35.3483
3197.73 100.223 0 -86.8018
1910.62 84.4224 0 -67.1051
2546.4 40.4442 0 -60.2547
3173.78 48.5681 0 -52.9119
2551.94 144.917 0 -87.1641
2551.02 77.6191 0 -69.9299
1911.6 47.4655 0 -68.3358
1897.31 4.44292 0 -63.9925
3130.11 -1.65213 0 -24.4914
3157.79 16.7195 0 -35.3483
1903.8 20.8458 0 -65.878
2522.32 0.165264 0 -47.3515
3145.54 3.4281 0 -27.9053
2546.4 40.4442 0 -60.2547
2536.12 15.862 0 -53.2926
1897.31 4.44292 0 -63.9925
1880.36 -8.2338 0 -61.1843
3102.35 -8.51424 0 -24.8647
3130.11 -1.65213 0 -24.4914
1890.27 -3.9686 0 -62.6045
2496.25 -9.7663 0 -43.7965
3114 -6.08249 0 -23.509
2522.32 0.165264 0 -47.3515
2508.19 -7.39383 0 -44.1491
1880.36 -8.2338 0 -61.1843
1860.72 -11.3862 0 -59.4893
3083.13 -7.43685 0 -29.7905
3102.35 -8.51424 0 -24.8647
1869.6 -10.7172 0 -59.9836
2474.5 -11.1033 0 -44.8669
3093.03 -8.3327 0 -27.4217
2496.25 -9.7663 0 -43.7965
2485.15 -10.82 0 -44.3121
1860.72 -11.3862 0 -59.4893
1844.82 -9.89118 0 -59.3753
3064.58 -6.26111 0 -34.1349
3083.13 -7.43685 0 -29.7905
1852.79 -10.8229 0 -59.3968
2455.86 -9.07507 0 -47.1394
3073.28 -6.89044 0 -31.9624
2474.5 -11.1033 0 -44.8669
2464.69 -10.3537 0 -45.8303
1844.82 -9.89118 0 -59.3753
1830.48 -8.00612 0 -59.673
3048.11 -4.6226 0 -37.8862
3064.58 -6.26111 0 -34.1349
1837.2 -8.98585 0 -59.4426
2439.71 -7.03098 0 -49.4352
3056.44 -5.39363 0 -36.1878
2455.86 -9.07507 0 -47.1394
2447.6 -7.96177 0 -48.3854
1830.48 -8.00612 0 -59.673
1818.3 -6.18801 0 -60.2939
3031.67 -3.58926 0 -40.5788
3048.11 -4.6226 0 -37.8862
1824.3 -7.02377 0 -59.9853
2424.99 -5.30241 0 -51.3618
3039.77 -4.06252 0 -39.3138
2439.71 -7.03098 0 -49.4352
2432.18 -6.12565 0 -50.4246
1818.3 -6.18801 0 -60.2939
1807.06 -4.9528 0 -60.9417
3015.6 -2.82427 0 -42.6559
3031.67 -3.58926 0 -40.5788
1812.52 -5.51812 0 -60.6071
2411.14 -4.16068 0 -52.8999
3023.66 -3.16105 0 -41.7004
2424.99 -5.30241 0 -51.3618
2418 -4.65742 0 -52.1875
1807.06 -4.9528 0 -60.9417
1796.63 -4.10423 0 -61.6117
2999.47 -2.3735 0 -44.2373
3015.6 -2.82427 0 -42.6559
1801.8 -4.47704 0 -61.2824
2397.77 -3.41078 0 -54.1458
3007.51 -2.57397 0 -43.4873
2411.14 -4.16068 0 -52.8999
2404.41 -3.74737 0 -53.5483
1796.63 -4.10423 0 -61.6117
1786.53 -3.58392 0 -62.2529
2983.38 -2.08121 0 -45.551
2999.47 -2.3735 0 -44.2373
1791.53 -3.81524 0 -61.9337
2384.64 -2.95651 0 -55.1891
2991.44 -2.20851 0 -44.9239
2397.77 -3.41078 0 -54.1458
2391.19 -3.15286 0 -54.6901
1786.53 -3.58392 0 -62.2529
1776.67 -3.24922 0 -62.8746
2967.25 -1.90349 0 -46.6864
2983.38 -2.08121 0 -45.551
1781.58 -3.39632 0 -62.5675
2371.63 -2.6717 0 -56.1066
2975.32 -1.98316 0 -46.1337
2384.64 -2.95651 0 -55.1891
2378.12 -2.7985 0 -55.6591
1776.67 -3.24922 0 -62.8746
1766.9 -3.03525 0 -63.4724
2951.12 -1.78257 0 -47.726
2967.25 -1.90349 0 -46.6864
1771.77 -3.13191 0 -63.1758
2358.68 -2.49053 0 -56.9445
2959.19 -1.83712 0 -47.2161
2371.63 -2.6717 0 -56.1066
2365.15 -2.57122 0 -56.5338
1766.9 -3.03525 0 -63.4724
1757.18 -2.88394 0 -64.0522
2934.97 -1.69553 0 -48.7038
2951.12 -1.78257 0 -47.726
1762.04 -2.95335 0 -63.7647
2345.75 -2.36362 0 -57.7336
2943.04 -1.73639 0 -48.2205
2358.68 -2.49053 0 -56.9445
2352.21 -2.4223 0 -57.3437
1757.18 -2.88394 0 -64.0522
1747.49 -2.76837 0 -64.6156
2918.81 -1.62427 0 -49.6445
2934.97 -1.69553 0 -48.7038
1752.33 -2.82319 0 -64.3357
2332.82 -2.26609 0 -58.4903
2926.89 -1.65839 0 -49.1781
2345.75 -2.36362 0 -57.7336
2339.28 -2.31221 0 -58.1154
1747.49 -2.76837 0 -64.6156
1737.81 -2.67007 0 -65.1652
2902.65 -1.56123 0 -50.558
2918.81 -1.62427 0 -49.6445
1742.65 -2.71759 0 -64.8921
2319.9 -2.1827 0 -59.2239
2910.73 -1.59215 0 -50.1041
2332.82 -2.26609 0 -58.4903
2326.36 -2.2232 0 -58.8595
1737.81 -2.67007 0 -65.1652
1728.12 -2.58078 0 -65.7022
2886.48 -1.50161 0 -51.4504
2902.65 -1.56123 0 -50.558
1732.96 -2.6247 0 -65.4352
2306.98 -2.10621 0 -59.9395
2894.56 -1.53112 0 -51.0066
2319.9 -2.1827 0 -59.2239
2313.44 -2.14387 0 -59.5838
1728.12 -2.58078 0 -65.7022
1718.44 -2.4956 0 -66.2276
2870.31 -1.44346 0 -52.3243
2886.48 -1.50161 0 -51.4504
1723.28 -2.53782 0 -65.9663
2294.06 -2.03273 0 -60.6394
2878.4 -1.47244 0 -51.8895
2306.98 -2.10621 0 -59.9395
2300.52 -2.06923 0 -60.2913
1718.44 -2.4956 0 -66.2276
1708.76 -2.41248 0 -66.7421
2854.14 -1.38575 0 -53.1809
2870.31 -1.44346 0 -52.3243
1713.6 -2.45387 0 -66.4862
2281.14 -1.96058 0 -61.325
2862.23 -1.41458 0 -52.7547
2294.06 -2.03273 0 -60.6394
2287.6 -1.99655 0 -60.9839
1708.76 -2.41248 0 -66.7421
1699.08 -2.33031 0 -67.2462
2837.97 -1.32812 0 -54.0208
2854.14 -1.38575 0 -53.1809
1703.92 -2.3713 0 -66.9955
2268.21 -1.88894 0 -61.9969
2846.05 -1.35694 0 -53.6029
2281.14 -1.96058 0 -61.325
2274.68 -1.92472 0 -61.6626
1699.08 -2.33031 0 -67.2462
1689.4 -2.24869 0 -67.7401
2821.8 -1.2704 0 -54.8444
2837.97 -1.32812 0 -54.0208
1694.24 -2.28945 0 -67.4944
2255.29 -1.81751 0 -62.6555
2829.88 -1.29927 0 -54.4346
2268.21 -1.88894 0 -61.9969
2261.75 -1.85321 0 -62.3278
1689.4 -2.24869 0 -67.7401
1679.72 -2.16741 0 -68.224
2805.63 -1.21255 0 -55.6517
2821.8 -1.2704 0 -54.8444
1684.56 -2.20801 0 -67.9833
2242.36 -1.74618 0 -63.301
2813.71 -1.24149 0 -55.2501
2255.29 -1.81751 0 -62.6555
2248.83 -1.78184 0 -62.9799
1679.72 -2.16741 0 -68.224
1670.03 -2.08641 0 -68.6981
2789.45 -1.15459 0 -56.4429
2805.63 -1.21255 0 -55.6517
1674.87 -2.12688 0 -68.4623
2229.44 -1.67493 0 -63.9336
2797.54 -1.18359 0 -56.0493
2242.36 -1.74618 0 -63.301
2235.9 -1.71055 0 -63.6189
1670.03 -2.08641 0 -68.6981
1660.35 -2.00565 0 -69.1625
2773.28 -1.09654 0 -57.2181
2789.45 -1.15459 0 -56.4429
1665.19 -2.046 0 -68.9315
2216.51 -1.60375 0 -64.5533
2781.37 -1.12557 0 -56.8325
2229.44 -1.67493 0 -63.9336
2222.98 -1.63933 0 -64.245
1660.35 -2.00565 0 -69.1625
1650.67 -1.92514 0 -69.6173
2757.11 -1.0384 0 -57.9774
2773.28 -1.09654 0 -57.2181
1655.51 -1.96536 0 -69.3911
2203.59 -1.53265 0 -65.1602
2765.2 -1.06748 0 -57.5997
2216.51 -1.60375 0 -64.5533
2210.05 -1.56819 0 -64.8583
1650.67 -1.92514 0 -69.6173
1640.98 -1.84487 0 -70.0627
2740.94 -0.980216 0 -58.7209
2757.11 -1.0384 0 -57.9774
1645.82 -1.88497 0 -69.8412
2190.66 -1.46166 0 -65.7545
2749.02 -1.00932 0 -58.3511
2203.59 -1.53265 0 -65.1602
2197.13 -1.49714 0 -65.4589
1640.98 -1.84487 0 -70.0627
1631.3 -1.76485 0 -70.4985
2724.77 -0.921994 0 -59.4486
2740.94 -0.980216 0 -58.7209
1636.14 -1.80483 0 -70.2818
2177.74 -1.39078 0 -66.3362
2732.85 -0.951108 0 -59.0867
2190.66 -1.46166 0 -65.7545
2184.2 -1.42621 0 -66.0469
1631.3 -1.76485 0 -70.4985
1621.62 -1.68509 0 -70.925
2708.59 -0.863756 0 -60.1607
2724.77 -0.921994 0 -59.4486
1626.46 -1.72494 0 -70.7129
2164.81 -1.32004 0 -66.9054
2716.68 -0.892876 0 -59.8066
2177.74 -1.39078 0 -66.3362
2171.28 -1.35539 0 -66.6224
1621.62 -1.68509 0 -70.925
1611.93 -1.6056 0 -71.3421
2692.42 -0.80552 0 -60.8573
2708.59 -0.863756 0 -60.1607
1616.77 -1.64531 0 -71.1347
2151.89 -1.24943 0 -67.4622
2700.51 -0.834637 0 -60.511
2164.81 -1.32004 0 -66.9054
2158.35 -1.28472 0 -67.1854
1611.93 -1.6056 0 -71.3421
1602.25 -1.52638 0 -71.75
2676.25 -0.747305 0 -61.5384
2692.42 -0.80552 0 -60.8573
1607.09 -1.56596 0 -71.5472
2138.96 -1.17899 0 -68.0066
2684.34 -0.776409 0 -61.1998
2151.89 -1.24943 0 -67.4622
2145.42 -1.21419 0 -67.736
1602.25 -1.52638 0 -71.75
1592.56 -1.44745 0 -72.1487
2660.08 -0.689128 0 -62.2042
2676.25 -0.747305 0 -61.5384
1597.41 -1.48688 0 -71.9505
2126.04 -1.10871 0 -68.5388
2668.16 -0.71821 0 -61.8732
2138.96 -1.17899 0 -68.0066
2132.5 -1.14383 0 -68.2742
1592.56 -1.44745 0 -72.1487
1582.88 -1.36881 0 -72.5382
2643.91 -0.631007 0 -62.8547
2660.08 -0.689128 0 -62.2042
1587.72 -1.40809 0 -72.3446
2113.11 -1.03863 0 -69.0587
2651.99 -0.660059 0 -62.5314
2126.04 -1.10871 0 -68.5388
2119.57 -1.07365 0 -68.8002
1582.88 -1.36881 0 -72.5382
1573.2 -1.29049 0 -72.9186
2627.73 -0.572959 0 -63.49
2643.91 -0.631007 0 -62.8547
1578.04 -1.32961 0 -72.7295
2100.18 -0.968741 0 -69.5665
2635.82 -0.601972 0 -63.1743
2113.11 -1.03863 0 -69.0587
2106.65 -1.00366 0 -69.3141
1573.2 -1.29049 0 -72.9186
1563.51 -1.21247 0 -73.29
2611.56 -0.515001 0 -64.1103
2627.73 -0.572959 0 -63.49
1568.35 -1.25144 0 -73.1054
2087.26 -0.899068 0 -70.0622
2619.65 -0.543967 0 -63.802
2100.18 -0.968741 0 -69.5665
2093.72 -0.933877 0 -69.8158
1563.51 -1.21247 0 -73.29
1553.83 -1.13479 0 -73.6523
2595.39 -0.45715 0 -64.7155
2611.56 -0.515001 0 -64.1103
1558.67 -1.17359 0 -73.4723
2074.33 -0.829624 0 -70.5459
2603.48 -0.486061 0 -64.4148
2087.26 -0.899068 0 -70.0622
2080.8 -0.864317 0 -70.3055
1553.83 -1.13479 0 -73.6523
1544.14 -1.05744 0 -74.0058
2579.22 -0.399422 0 -65.3059
2595.39 -0.45715 0 -64.7155
1548.99 -1.09607 0 -73.8302
2061.41 -0.76042 0 -71.0177
2587.31 -0.42827 0 -65.0126
2074.33 -0.829624 0 -70.5459
2067.87 -0.794991 0 -70.7833
1544.14 -1.05744 0 -74.0058
1534.46 -0.980443 0 -74.3503
2563.05 -0.341834 0 -65.8815
2579.22 -0.399422 0 -65.3059
1539.3 -1.0189 0 -74.1791
2048.48 -0.691471 0 -71.4777
2571.14 -0.37061 0 -65.5955
2061.41 -0.76042 0 -71.0177
2054.95 -0.725913 0 -71.2492
1534.46 -0.980443 0 -74.3503
1524.78 -0.903802 0 -74.686
2546.88 -0.284401 0 -66.4423
2563.05 -0.341834 0 -65.8815
1529.62 -0.942077 0 -74.5193
2035.56 -0.622788 0 -71.9259
2554.97 -0.313097 0 -66.1637
2048.48 -0.691471 0 -71.4777
2042.02 -0.657095 0 -71.7033
1524.78 -0.903802 0 -74.686
1515.09 -0.827529 0 -75.013
2530.71 -0.227139 0 -66.9885
2546.88 -0.284401 0 -66.4423
1519.93 -0.865619 0 -74.8506
2022.63 -0.554385 0 -72.3624
2538.79 -0.255748 0 -66.7172
2035.56 -0.622788 0 -71.9259
2029.1 -0.588551 0 -72.1456
1515.09 -0.827529 0 -75.013
1505.41 -0.751632 0 -75.3312
2514.54 -0.170062 0 -67.5202
2530.71 -0.227139 0 -66.9885
1510.25 -0.789533 0 -75.1732
2009.71 -0.486273 0 -72.7873
2522.62 -0.198576 0 -67.2562
2022.63 -0.554385 0 -72.3624
2016.17 -0.520292 0 -72.5763
1505.41 -0.751632 0 -75.3312
1495.72 -0.67612 0 -75.6408
2498.37 -0.113186 0 -68.0375
2514.54 -0.170062 0 -67.5202
1500.57 -0.713827 0 -75.487
1996.78 -0.418466 0 -73.2007
2506.45 -0.141598 0 -67.7807
2009.71 -0.486273 0 -72.7873
2003.25 -0.452331 0 -72.9954
1495.72 -0.67612 0 -75.6408
1486.04 -0.601003 0 -75.9417
2482.2 -0.0565258 0 -68.5404
2498.37 -0.113186 0 -68.0375
1490.88 -0.638512 0 -75.7923
1983.86 -0.350973 0 -73.6025
2490.29 -0.0848283 0 -68.2908
1996.78 -0.418466 0 -73.2007
1990.32 -0.384679 0 -73.403
1486.04 -0.601003 0 -75.9417
1476.36 -0.526289 0 -76.2341
2466.03 -9.46521e-05 0 -69.0291
2482.2 -0.0565258 0 -68.5404
1481.2 -0.563595 0 -76.089
1970.93 -0.283807 0 -73.993
2474.12 -0.0282807 0 -68.7866
1983.86 -0.350973 0 -73.6025
1977.4 -0.317348 0 -73.7992
1476.36 -0.526289 0 -76.2341
1466.67 -0.451986 0 -76.5181
2449.86 0.056093 0 -69.5037
2466.03 -9.46521e-05 0 -69.0291
1471.51 -0.489086 0 -76.3772
1958.01 -0.216979 0 -74.3722
2457.95 0.0280305 0 -69.2682
1970.93 -0.283807 0 -73.993
1964.47 -0.25035 0 -74.184
1466.67 -0.451986 0 -76.5181
1456.99 -0.378104 0 -76.7936
2433.69 0.112024 0 -69.9641
2449.86 0.056093 0 -69.5037
1461.83 -0.414992 0 -76.6569
1945.09 -0.150499 0 -74.7401
2441.78 0.0840913 0 -69.7357
1958.01 -0.216979 0 -74.3722
1951.55 -0.183695 0 -74.5575
1456.99 -0.378104 0 -76.7936
1447.31 -0.304649 0 -77.0607
2417.53 0.167683 0 -70.4107
2433.69 0.112024 0 -69.9641
1452.15 -0.341322 0 -76.9282
1932.16 -0.0843799 0 -75.0968
2425.61 0.139888 0 -70.1891
1945.09 -0.150499 0 -74.7401
1938.62 -0.117394 0 -74.9199
1447.31 -0.304649 0 -77.0607
1437.62 -0.231629 0 -77.3195
2401.36 0.223059 0 -70.8433
2417.53 0.167683 0 -70.4107
1442.46 -0.268084 0 -77.1911
1919.24 -0.0186306 0 -75.4425
2409.44 0.195408 0 -70.6287
1932.16 -0.0843799 0 -75.0968
1925.7 -0.0514583 0 -75.271
1437.62 -0.231629 0 -77.3195
1427.94 -0.159054 0 -77.57
2385.19 0.278139 0 -71.2622
2401.36 0.223059 0 -70.8433
1432.78 -0.195286 0 -77.4458
1906.32 0.046738 0 -75.7771
2393.27 0.250637 0 -71.0544
1919.24 -0.0186306 0 -75.4425
1912.78 0.014102 0 -75.6112
1427.94 -0.159054 0 -77.57
1418.26 -0.0869294 0 -77.8123
2369.02 0.332909 0 -71.6673
2385.19 0.278139 0 -71.2622
1423.1 -0.122935 0 -77.6922
1893.39 0.111716 0 -76.1008
2377.11 0.305563 0 -71.4664
1906.32 0.046738 0 -75.7771
1899.85 0.0792764 0 -75.9403
1418.26 -0.0869294 0 -77.8123
1408.57 -0.0152634 0 -78.0465
2352.86 0.387357 0 -72.0589
2369.02 0.332909 0 -71.6673
1413.41 -0.0510386 0 -77.9304
1880.47 0.176294 0 -76.4136
2360.94 0.360174 0 -71.8648
1893.39 0.111716 0 -76.1008
1886.93 0.144056 0 -76.2585
1408.57 -0.0152634 0 -78.0465
1398.89 0.0559365 0 -78.2725
2336.69 0.441471 0 -72.437
2352.86 0.387357 0 -72.0589
1403.73 0.0203952 0 -78.1605
1867.55 0.240461 0 -76.7156
2344.77 0.414457 0 -72.2496
1880.47 0.176294 0 -76.4136
1874.01 0.208429 0 -76.5659
1398.89 0.0559365 0 -78.2725
1389.21 0.126663 0 -78.4905
2320.53 0.49524 0 -72.8017
2336.69 0.441471 0 -72.437
1394.05 0.0913596 0 -78.3825
1854.63 0.304208 0 -77.0069
2328.61 0.4684 0 -72.621
1867.55 0.240461 0 -76.7156
1861.09 0.272388 0 -76.8626
1389.21 0.126663 0 -78.4905
1379.52 0.19691 0 -78.7006
2304.36 0.548651 0 -73.153
2320.53 0.49524 0 -72.8017
1384.37 0.161847 0 -78.5966
1841.7 0.367526 0 -77.2875
2312.44 0.521991 0 -72.979
1854.63 0.304208 0 -77.0069
1848.16 0.335922 0 -77.1485
1379.52 0.19691 0 -78.7006
1369.84 0.266671 0 -78.9027
2288.2 0.601694 0 -73.4912
2304.36 0.548651 0 -73.153
1374.68 0.231852 0 -78.8026
1828.78 0.430407 0 -77.5576
2296.28 0.57522 0 -73.3238
1841.7 0.367526 0 -77.2875
1835.24 0.399022 0 -77.4239
1369.84 0.266671 0 -78.9027
1360.16 0.335937 0 -79.0969
2272.03 0.654357 0 -73.8162
2288.2 0.601694 0 -73.4912
1365 0.301366 0 -79.0008
1815.86 0.49284 0 -77.8171
2280.11 0.628074 0 -73.6553
1828.78 0.430407 0 -77.5576
1822.32 0.46168 0 -77.6887
1360.16 0.335937 0 -79.0969
1350.48 0.404704 0 -79.2833
2255.87 0.706629 0 -74.1282
2272.03 0.654357 0 -73.8162
1355.32 0.370383 0 -79.1911
1802.94 0.554817 0 -78.0663
2263.95 0.680543 0 -73.9738
1815.86 0.49284 0 -77.8171
1809.4 0.523886 0 -77.943
1350.48 0.404704 0 -79.2833
1340.8 0.472964 0 -79.4619
2239.7 0.758501 0 -74.4272
2255.87 0.706629 0 -74.1282
1345.64 0.438898 0 -79.3736
1790.02 0.61633 0 -78.3051
2247.79 0.732616 0 -74.2793
1802.94 0.554817 0 -78.0663
1796.48 0.585632 0 -78.187
1340.8 0.472964 0 -79.4619
1331.11 0.540712 0 -79.6329
2223.54 0.80996 0 -74.7134
2239.7 0.758501 0 -74.4272
1335.96 0.506902 0 -79.5484
1777.1 0.677371 0 -78.5336
2231.62 0.784283 0 -74.5719
1790.02 0.61633 0 -78.3051
1783.56 0.64691 0 -78.4206
1331.11 0.540712 0 -79.6329
1321.43 0.60794 0 -79.7962
2207.38 0.860998 0 -74.9869
2223.54 0.80996 0 -74.7134
1326.27 0.574391 0 -79.7155
1764.18 0.737931 0 -78.7519
2215.46 0.835533 0 -74.8517
1777.1 0.677371 0 -78.5336
1770.64 0.707711 0 -78.644
1321.43 0.60794 0 -79.7962
1311.75 0.674645 0 -79.9519
2191.22 0.911605 0 -75.2477
2207.38 0.860998 0 -74.9869
1316.59 0.641359 0 -79.875
1751.26 0.798003 0 -78.9601
2199.3 0.886356 0 -75.1189
1764.18 0.737931 0 -78.7519
1757.72 0.768028 0 -78.8572
1311.75 0.674645 0 -79.9519
1302.07 0.740819 0 -80.1
2175.06 0.96177 0 -75.4959
2191.22 0.911605 0 -75.2477
1306.91 0.707798 0 -80.0269
1738.34 0.857578 0 -79.1582
2183.14 0.936743 0 -75.3733
1751.26 0.798003 0 -78.9601
1744.8 0.827853 0 -79.0604
1302.07 0.740819 0 -80.1
1292.39 0.806456 0 -80.2407
2158.89 1.01149 0 -75.7316
2175.06 0.96177 0 -75.4959
1297.23 0.773705 0 -80.1713
1725.42 0.91665 0 -79.3464
2166.97 0.986685 0 -75.6153
1738.34 0.857578 0 -79.1582
1731.88 0.887177 0 -79.2535
1292.39 0.806456 0 -80.2407
1282.71 0.871553 0 -80.3739
2142.73 1.06074 0 -75.955
2158.89 1.01149 0 -75.7316
1287.55 0.839073 0 -80.3082
1712.5 0.975211 0 -79.5246
2150.81 1.03617 0 -75.8449
1725.42 0.91665 0 -79.3464
1718.96 0.945995 0 -79.4367
1282.71 0.871553 0 -80.3739
1273.03 0.936102 0 -80.4998
2126.57 1.10953 0 -76.1661
2142.73 1.06074 0 -75.955
1277.87 0.903896 0 -80.4378
1699.58 1.03325 0 -79.693
2134.65 1.08519 0 -76.0621
1712.5 0.975211 0 -79.5246
1706.04 1.0043 0 -79.61
1273.03 0.936102 0 -80.4998
1263.35 1.0001 0 -80.6184
2110.42 1.15784 0 -76.365
2126.57 1.10953 0 -76.1661
1268.19 0.96817 0 -80.56
1686.66 1.09077 0 -79.8517
2118.49 1.13374 0 -76.2671
1699.58 1.03325 0 -79.693
1693.12 1.06208 0 -79.7736
1263.35 1.0001 0 -80.6184
1253.67 1.06354 0 -80.7297
2094.26 1.20566 0 -76.5518
2110.42 1.15784 0 -76.365
1258.51 1.03189 0 -80.6749
1673.75 1.14776 0 -80.0007
2102.34 1.18181 0 -76.4599
1686.66 1.09077 0 -79.8517
1680.21 1.11933 0 -79.9274
1253.67 1.06354 0 -80.7297
1243.99 1.12642 0 -80.8338
2078.1 1.25299 0 -76.7266
2094.26 1.20566 0 -76.5518
1248.83 1.09505 0 -80.7826
1660.83 1.2042 0 -80.1401
2086.18 1.22939 0 -76.6407
1673.75 1.14776 0 -80.0007
1667.29 1.17605 0 -80.0716
1243.99 1.12642 0 -80.8338
1234.31 1.18873 0 -80.9307
2061.94 1.29982 0 -76.8894
2078.1 1.25299 0 -76.7266
1239.15 1.15764 0 -80.8831
1647.91 1.26011 0 -80.2699
2070.02 1.27647 0 -76.8095
1660.83 1.2042 0 -80.1401
1654.37 1.23222 0 -80.2062
1234.31 1.18873 0 -80.9307
1224.63 1.25047 0 -81.0206
2045.78 1.34614 0 -77.0405
2061.94 1.29982 0 -76.8894
1229.47 1.21967 0 -80.9765
1635 1.31546 0 -80.3903
2053.86 1.32305 0 -76.9664
1647.91 1.26011 0 -80.2699
1641.46 1.28785 0 -80.3313
1224.63 1.25047 0 -81.0206
1214.95 1.31163 0 -81.1034
2029.63 1.39194 0 -77.1798
2045.78 1.34614 0 -77.0405
1219.79 1.28112 0 -81.0629
1622.08 1.37025 0 -80.5014
2037.71 1.36911 0 -77.1116
1635 1.31546 0 -80.3903
1628.54 1.34293 0 -80.447
1214.95 1.31163 0 -81.1034
1205.27 1.37222 0 -81.1793
2013.47 1.43722 0 -77.3075
2029.63 1.39194 0 -77.1798
1210.11 1.342 0 -81.1422
1609.17 1.42449 0 -80.6031
2021.55 1.41465 0 -77.2451
1622.08 1.37025 0 -80.5014
1615.62 1.39744 0 -80.5534
1205.27 1.37222 0 -81.1793
1195.59 1.43221 0 -81.2482
1997.32 1.48197 0 -77.4236
2013.47 1.43722 0 -77.3075
1200.43 1.40229 0 -81.2146
1596.25 1.47815 0 -80.6956
2005.4 1.45966 0 -77.367
1609.17 1.42449 0 -80.6031
1602.71 1.45139 0 -80.6505
1195.59 1.43221 0 -81.2482
1185.91 1.49162 0 -81.3102
1981.16 1.52618 0 -77.5283
1997.32 1.48197 0 -77.4236
1190.75 1.46199 0 -81.2801
1583.34 1.53124 0 -80.7789
1989.24 1.50414 0 -77.4774
1596.25 1.47815 0 -80.6956
1589.79 1.50477 0 -80.7384
1185.91 1.49162 0 -81.3102
1176.24 1.55044 0 -81.3655
1965.01 1.56984 0 -77.6217
1981.16 1.52618 0 -77.5283
1181.08 1.52111 0 -81.3387
1570.42 1.58375 0 -80.8532
1973.09 1.54808 0 -77.5764
1583.34 1.53124 0 -80.7789
1576.88 1.55757 0 -80.8172
1176.24 1.55044 0 -81.3655
1166.56 1.60866 0 -81.414
1948.86 1.61295 0 -77.7037
1965.01 1.56984 0 -77.6217
1171.4 1.57963 0 -81.3906
1557.51 1.63568 0 -80.9184
1956.93 1.59147 0 -77.6641
1570.42 1.58375 0 -80.8532
1563.96 1.60979 0 -80.8869
1166.56 1.60866 0 -81.414
1156.88 1.66628 0 -81.4558
1932.7 1.65551 0 -77.7747
1948.86 1.61295 0 -77.7037
1161.72 1.63755 0 -81.4357
1544.59 1.68702 0 -80.9747
1940.78 1.6343 0 -77.7406
1557.51 1.63568 0 -80.9184
1551.05 1.66142 0 -80.9477
1156.88 1.66628 0 -81.4558
1147.2 1.7233 0 -81.4909
1916.55 1.6975 0 -77.8345
1932.7 1.65551 0 -77.7747
1152.04 1.69486 0 -81.4742
1531.68 1.73776 0 -81.0222
1924.63 1.67658 0 -77.806
1544.59 1.68702 0 -80.9747
1538.14 1.71246 0 -80.9995
1147.2 1.7233 0 -81.4909
1137.53 1.7797 0 -81.5195
1900.4 1.73892 0 -77.8833
1916.55 1.6975 0 -77.8345
1142.37 1.75158 0 -81.506
1518.77 1.7879 0 -81.0608
1908.48 1.71828 0 -77.8603
1531.68 1.73776 0 -81.0222
1525.23 1.76291 0 -81.0426
1137.53 1.7797 0 -81.5195
1127.85 1.8355 0 -81.5416
1884.25 1.77977 0 -77.9213
1900.4 1.73892 0 -77.8833
1132.69 1.80768 0 -81.5313
1505.86 1.83745 0 -81.0908
1892.33 1.75942 0 -77.9037
1518.77 1.7879 0 -81.0608
1512.31 1.81275 0 -81.0769
1127.85 1.8355 0 -81.5416
1118.17 1.89069 0 -81.5571
1868.1 1.82004 0 -77.9485
1884.25 1.77977 0 -77.9213
1123.01 1.86317 0 -81.5501
1492.95 1.88638 0 -81.1121
1876.18 1.79998 0 -77.9362
1505.86 1.83745 0 -81.0908
1499.4 1.86199 0 -81.1025
1118.17 1.89069 0 -81.5571
1108.5 1.94525 0 -81.5663
1851.95 1.85973 0 -77.965
1868.1 1.82004 0 -77.9485
1113.34 1.91805 0 -81.5625
1480.04 1.9347 0 -81.1249
1860.03 1.83996 0 -77.9581
1492.95 1.88638 0 -81.1121
1486.49 1.91062 0 -81.1195
1108.5 1.94525 0 -81.5663
1098.82 1.9992 0 -81.569
1835.8 1.89882 0 -77.9708
1851.95 1.85973 0 -77.965
1103.66 1.9723 0 -81.5684
1467.12 1.98241 0 -81.1291
1843.88 1.87935 0 -77.9692
1480.04 1.9347 0 -81.1249
1473.58 1.95863 0 -81.1281
1098.82 1.9992 0 -81.569
1089.15 2.05252 0 -81.5655
1819.66 1.93732 0 -77.9662
1835.8 1.89882 0 -77.9708
1093.98 2.02594 0 -81.5681
1454.21 2.0295 0 -81.125
1827.73 1.91814 0 -77.9698
1467.12 1.98241 0 -81.1291
1460.67 2.00603 0 -81.1281
1089.15 2.05252 0 -81.5655
1079.47 2.10522 0 -81.5557
1803.51 1.97522 0 -77.9511
1819.66 1.93732 0 -77.9662
1084.31 2.07895 0 -81.5614
1441.31 2.07596 0 -81.1125
1811.58 1.95634 0 -77.9599
1454.21 2.0295 0 -81.125
1447.76 2.05281 0 -81.1198
1079.47 2.10522 0 -81.5557
1069.8 2.15729 0 -81.5398
1787.36 2.01251 0 -77.9257
1803.51 1.97522 0 -77.9511
1074.63 2.13134 0 -81.5485
1428.4 2.1218 0 -81.0918
1795.44 1.99394 0 -77.9397
1441.31 2.07596 0 -81.1125
1434.85 2.09896 0 -81.1032
1069.8 2.15729 0 -81.5398
1060.12 2.20873 0 -81.5177
1771.22 2.0492 0 -77.89
1787.36 2.01251 0 -77.9257
1064.96 2.18309 0 -81.5295
1415.49 2.16701 0 -81.0629
1779.29 2.03093 0 -77.9091
1428.4 2.1218 0 -81.0918
1421.94 2.14449 0 -81.0784
1060.12 2.20873 0 -81.5177
1050.45 2.25954 0 -81.4895
1755.07 2.08528 0 -77.8442
1771.22 2.0492 0 -77.89
1055.29 2.23421 0 -81.5043
1402.58 2.21159 0 -81.0259
1763.15 2.06732 0 -77.8684
1415.49 2.16701 0 -81.0629
1409.03 2.18938 0 -81.0454
1050.45 2.25954 0 -81.4895
1040.77 2.30971 0 -81.4552
1738.93 2.12074 0 -77.7884
1755.07 2.08528 0 -77.8442
1045.61 2.2847 0 -81.4731
1389.67 2.25553 0 -80.9808
1747 2.10309 0 -77.8176
1402.58 2.21159 0 -81.0259
1396.13 2.23364 0 -81.0043
1040.77 2.30971 0 -81.4552
1031.1 2.35924 0 -81.4151
1722.78 2.15558 0 -77.7226
1738.93 2.12074 0 -77.7884
1035.94 2.33455 0 -81.4359
1376.76 2.29883 0 -80.9277
1730.86 2.13824 0 -77.7567
1389.67 2.25553 0 -80.9808
1383.22 2.27726 0 -80.9553
1031.1 2.35924 0 -81.4151
1021.43 2.40814 0 -81.3689
1706.64 2.1898 0 -77.6469
1722.78 2.15558 0 -77.7226
1026.26 2.38377 0 -81.3927
1363.86 2.34149 0 -80.8668
1714.71 2.17277 0 -77.686
1376.76 2.29883 0 -80.9277
1370.31 2.32024 0 -80.8983
1021.43 2.40814 0 -81.3689
1011.75 2.45639 0 -81.317
1690.5 2.2234 0 -77.5615
1706.64 2.1898 0 -77.6469
1016.59 2.43234 0 -81.3437
1350.95 2.38351 0 -80.7981
1698.57 2.20668 0 -77.6054
1363.86 2.34149 0 -80.8668
1357.4 2.36258 0 -80.8334
1011.75 2.45639 0 -81.317
1002.08 2.504 0 -81.2592
1674.36 2.25636 0 -77.4664
1690.5 2.2234 0 -77.5615
1006.92 2.48027 0 -81.2888
1338.05 2.42488 0 -80.7216
1682.43 2.23996 0 -77.5151
1350.95 2.38351 0 -80.7981
1344.5 2.40428 0 -80.7608
1002.08 2.504 0 -81.2592
992.409 2.55096 0 -81.1957
1658.22 2.2887 0 -77.3617
1674.36 2.25636 0 -77.4664
997.246 2.52756 0 -81.2282
1325.14 2.4656 0 -80.6374
1666.29 2.27261 0 -77.4152
1338.05 2.42488 0 -80.7216
1331.59 2.44532 0 -80.6805
992.409 2.55096 0 -81.1957
982.737 2.59728 0 -81.1265
1642.08 2.3204 0 -77.2475
1658.22 2.2887 0 -77.3617
987.573 2.5742 0 -81.1618
1312.24 2.50568 0 -80.5457
1650.15 2.30463 0 -77.3057
1325.14 2.4656 0 -80.6374
1318.69 2.48572 0 -80.5925
982.737 2.59728 0 -81.1265
973.066 2.64295 0 -81.0516
1625.94 2.35146 0 -77.1239
1642.08 2.3204 0 -77.2475
977.901 2.6202 0 -81.0898
1299.33 2.5451 0 -80.4464
1634.01 2.33601 0 -77.1868
1312.24 2.50568 0 -80.5457
1305.78 2.52547 0 -80.497
973.066 2.64295 0 -81.0516
963.394 2.68797 0 -80.9712
1609.8 2.38189 0 -76.991
1625.94 2.35146 0 -77.1239
968.23 2.66554 0 -81.0121
1286.43 2.58386 0 -80.3397
1617.87 2.36676 0 -77.0586
1299.33 2.5451 0 -80.4464
1292.88 2.56456 0 -80.394
963.394 2.68797 0 -80.9712
953.723 2.73234 0 -80.8853
1593.66 2.41168 0 -76.8488
1609.8 2.38189 0 -76.991
958.559 2.71024 0 -80.9289
1273.53 2.62197 0 -80.2257
1601.73 2.39686 0 -76.921
1286.43 2.58386 0 -80.3397
1279.98 2.603 0 -80.2836
953.723 2.73234 0 -80.8853
944.052 2.77606 0 -80.7938
1577.53 2.44082 0 -76.6976
1593.66 2.41168 0 -76.8488
948.888 2.75428 0 -80.8402
1260.62 2.65942 0 -80.1043
1585.59 2.42633 0 -76.7744
1273.53 2.62197 0 -80.2257
1267.07 2.64078 0 -80.1659
944.052 2.77606 0 -80.7938
934.382 2.81913 0 -80.697
1561.39 2.46932 0 -76.5373
1577.53 2.44082 0 -76.6976
939.217 2.79768 0 -80.7461
1247.72 2.69622 0 -79.9757
1569.46 2.45515 0 -76.6186
1260.62 2.65942 0 -80.1043
1254.17 2.6779 0 -80.0409
934.382 2.81913 0 -80.697
924.712 2.86154 0 -80.5948
1545.25 2.49717 0 -76.3681
1561.39 2.46932 0 -76.5373
929.547 2.84041 0 -80.6466
1234.82 2.73235 0 -79.84
1553.32 2.48333 0 -76.4538
1247.72 2.69622 0 -79.9757
1241.27 2.71437 0 -79.9087
924.712 2.86154 0 -80.5948
915.042 2.9033 0 -80.4873
1529.12 2.52438 0 -76.1901
1545.25 2.49717 0 -76.3681
919.877 2.8825 0 -80.5417
1221.92 2.76782 0 -79.6972
1537.19 2.51086 0 -76.2802
1234.82 2.73235 0 -79.84
1228.37 2.75017 0 -79.7695
915.042 2.9033 0 -80.4873
905.372 2.9444 0 -80.3746
1512.99 2.55094 0 -76.0033
1529.12 2.52438 0 -76.1901
910.207 2.92393 0 -80.4316
1209.02 2.80263 0 -79.5474
1521.05 2.53774 0 -76.0978
1221.92 2.76782 0 -79.6972
1215.47 2.78531 0 -79.6231
905.372 2.9444 0 -80.3746
895.703 2.98485 0 -80.2566
1496.85 2.57685 0 -75.8078
1512.99 2.55094 0 -76.0033
900.538 2.96471 0 -80.3163
1196.12 2.83678 0 -79.3907
1504.92 2.56397 0 -75.9066
1209.02 2.80263 0 -79.5474
1202.57 2.81979 0 -79.4699
895.703 2.98485 0 -80.2566
886.035 3.02464 0 -80.1336
1480.72 2.60211 0 -75.6038
1496.85 2.57685 0 -75.8078
890.869 3.00482 0 -80.1958
1183.22 2.87026 0 -79.2271
1488.79 2.58956 0 -75.7069
1196.12 2.83678 0 -79.3907
1189.67 2.8536 0 -79.3097
886.035 3.02464 0 -80.1336
876.366 3.06377 0 -80.0054
1464.59 2.62672 0 -75.3913
1480.72 2.60211 0 -75.6038
881.2 3.04429 0 -80.0701
1170.32 2.90308 0 -79.0567
1472.65 2.61449 0 -75.4986
1183.22 2.87026 0 -79.2271
1176.77 2.88676 0 -79.1427
876.366 3.06377 0 -80.0054
866.698 3.10225 0 -79.8723
1448.46 2.65067 0 -75.1705
1464.59 2.62672 0 -75.3913
871.532 3.08309 0 -79.9395
1157.42 2.93524 0 -78.8797
1456.52 2.63877 0 -75.2819
1170.32 2.90308 0 -79.0567
1163.87 2.91924 0 -78.969
866.698 3.10225 0 -79.8723
857.03 3.14007 0 -79.7342
1432.33 2.67398 0 -74.9413
1448.46 2.65067 0 -75.1705
861.864 3.12124 0 -79.8038
1144.52 2.96673 0 -78.696
1440.39 2.66241 0 -75.0569
1157.42 2.93524 0 -78.8797
1150.97 2.95106 0 -78.7887
857.03 3.14007 0 -79.7342
847.362 3.17723 0 -79.5911
1416.2 2.69663 0 -74.704
1432.33 2.67398 0 -74.9413
852.196 3.15873 0 -79.6632
1131.63 2.99755 0 -78.5058
1424.26 2.68539 0 -74.8237
1144.52 2.96673 0 -78.696
1138.07 2.98222 0 -78.6017
847.362 3.17723 0 -79.5911
837.695 3.21374 0 -79.4432
1400.07 2.71863 0 -74.4585
1416.2 2.69663 0 -74.704
842.529 3.19557 0 -79.5178
1118.73 3.02771 0 -78.3091
1408.13 2.70771 0 -74.5823
1131.63 2.99755 0 -78.5058
1125.18 3.01271 0 -78.4082
837.695 3.21374 0 -79.4432
828.028 3.24958 0 -79.2905
1383.94 2.73998 0 -74.2051
1400.07 2.71863 0 -74.4585
832.862 3.23174 0 -79.3675
1105.83 3.0572 0 -78.106
1392 2.72939 0 -74.3328
1118.73 3.02771 0 -78.3091
1112.28 3.04254 0 -78.2083
828.028 3.24958 0 -79.2905
818.362 3.28477 0 -79.1331
1367.81 2.76068 0 -73.9437
1383.94 2.73998 0 -74.2051
823.195 3.26726 0 -79.2124
1092.94 3.08603 0 -77.8965
1375.88 2.75041 0 -74.0754
1105.83 3.0572 0 -78.106
1099.38 3.0717 0 -78.002
818.362 3.28477 0 -79.1331
808.696 3.31931 0 -78.9709
1351.68 2.78072 0 -73.6745
1367.81 2.76068 0 -73.9437
813.529 3.30212 0 -79.0526
1080.04 3.1142 0 -77.6808
1359.75 2.77078 0 -73.8101
1092.94 3.08603 0 -77.8965
1086.49 3.1002 0 -77.7895
808.696 3.31931 0 -78.9709
799.03 3.35318 0 -78.8042
1335.56 2.80012 0 -73.3976
1351.68 2.78072 0 -73.6745
803.863 3.33633 0 -78.8881
1067.15 3.1417 0 -77.459
1343.62 2.7905 0 -73.537
1080.04 3.1142 0 -77.6808
1073.59 3.12803 0 -77.5707
799.03 3.35318 0 -78.8042
789.364 3.3864 0 -78.6328
1319.43 2.81886 0 -73.1131
1335.56 2.80012 0 -73.3976
794.197 3.36987 0 -78.7191
1054.25 3.16854 0 -77.231
1327.5 2.80957 0 -73.2563
1067.15 3.1417 0 -77.459
1060.7 3.1552 0 -77.3457
789.364 3.3864 0 -78.6328
779.699 3.41897 0 -78.457
1303.31 2.83696 0 -72.821
1319.43 2.81886 0 -73.1131
784.531 3.40277 0 -78.5455
1041.36 3.19471 0 -76.997
1311.37 2.82799 0 -72.9679
1054.25 3.16854 0 -77.231
1047.81 3.18171 0 -77.1147
779.699 3.41897 0 -78.457
770.034 3.45088 0 -78.2767
1287.19 2.85441 0 -72.5214
1303.31 2.83696 0 -72.821
774.866 3.435 0 -78.3674
1028.47 3.22022 0 -76.757
1295.25 2.84576 0 -72.6721
1041.36 3.19471 0 -76.997
1034.91 3.20755 0 -76.8777
770.034 3.45088 0 -78.2767
760.369 3.48213 0 -78.0919
1271.06 2.87121 0 -72.2145
1287.19 2.85441 0 -72.5214
765.202 3.46658 0 -78.1848
1015.57 3.24507 0 -76.5112
1279.12 2.86289 0 -72.3689
1028.47 3.22022 0 -76.757
1022.02 3.23273 0 -76.6348
760.369 3.48213 0 -78.0919
750.705 3.51273 0 -77.9028
1254.94 2.88736 0 -71.9003
1271.06 2.87121 0 -72.2145
755.537 3.49751 0 -77.9979
1002.68 3.26927 0 -76.2595
1263 2.87937 0 -72.0583
1015.57 3.24507 0 -76.5112
1009.13 3.25725 0 -76.3861
750.705 3.51273 0 -77.9028
741.041 3.54268 0 -77.7094
1238.82 2.90287 0 -71.579
1254.94 2.88736 0 -71.9003
745.873 3.52778 0 -77.8067
989.789 3.2928 0 -76.0021
1246.88 2.8952 0 -71.7406
1002.68 3.26927 0 -76.2595
996.234 3.28111 0 -76.1315
741.041 3.54268 0 -77.7094
731.377 3.57197 0 -77.5118
1222.7 2.91774 0 -71.2506
1238.82 2.90287 0 -71.579
736.209 3.55741 0 -77.6112
976.897 3.31567 0 -75.7391
1230.76 2.91039 0 -71.4157
989.789 3.2928 0 -76.0021
983.343 3.30432 0 -75.8713
731.377 3.57197 0 -77.5118
721.714 3.60062 0 -77.31
1206.58 2.93197 0 -70.9152
1222.7 2.91774 0 -71.2506
726.546 3.58638 0 -77.4114
964.007 3.33789 0 -75.4704
1214.64 2.92493 0 -71.0837
976.897 3.31567 0 -75.7391
970.452 3.32686 0 -75.6054
721.714 3.60062 0 -77.31
712.051 3.62861 0 -77.104
1190.46 2.94555 0 -70.5729
1206.58 2.93197 0 -70.9152
716.882 3.61469 0 -77.2075
951.116 3.35945 0 -75.1963
1198.52 2.93884 0 -70.7449
964.007 3.33789 0 -75.4704
957.561 3.34875 0 -75.334
712.051 3.62861 0 -77.104
702.388 3.65596 0 -76.894
1174.34 2.9585 0 -70.2237
1190.46 2.94555 0 -70.5729
707.22 3.64236 0 -76.9995
938.227 3.38036 0 -74.9167
1182.4 2.95211 0 -70.3991
951.116 3.35945 0 -75.1963
944.671 3.36998 0 -75.0571
702.388 3.65596 0 -76.894
692.726 3.68265 0 -76.68
1158.22 2.97082 0 -69.8679
1174.34 2.9585 0 -70.2237
697.557 3.66939 0 -76.7875
925.337 3.40061 0 -74.6317
1166.28 2.96474 0 -70.0467
938.227 3.38036 0 -74.9167
931.782 3.39057 0 -74.7748
692.726 3.68265 0 -76.68
683.064 3.70871 0 -76.462
1142.1 2.9825 0 -69.5055
1158.22 2.97082 0 -69.8679
687.895 3.69576 0 -76.5715
912.449 3.42022 0 -74.3414
1150.16 2.97673 0 -69.6875
925.337 3.40061 0 -74.6317
918.893 3.4105 0 -74.4872
683.064 3.70871 0 -76.462
673.402 3.73411 0 -76.24
1125.99 2.99355 0 -69.1365
1142.1 2.9825 0 -69.5055
678.233 3.72149 0 -76.3515
899.56 3.43918 0 -74.046
1134.04 2.9881 0 -69.3218
912.449 3.42022 0 -74.3414
906.004 3.42978 0 -74.1944
673.402 3.73411 0 -76.24
663.74 3.75887 0 -76.0143
1109.87 3.00397 0 -68.7611
1125.99 2.99355 0 -69.1365
668.571 3.74657 0 -76.1276
886.672 3.45749 0 -73.7454
1117.93 2.99883 0 -68.9496
899.56 3.43918 0 -74.046
893.116 3.44842 0 -73.8963
663.74 3.75887 0 -76.0143
654.079 3.783 0 -75.7847
1093.76 3.01376 0 -68.3794
1109.87 3.00397 0 -68.7611
658.91 3.77102 0 -75.8999
873.785 3.47516 0 -73.4397
1101.81 3.00894 0 -68.5711
886.672 3.45749 0 -73.7454
880.229 3.4664 0 -73.5931
654.079 3.783 0 -75.7847
644.418 3.80648 0 -75.5514
1077.64 3.02293 0 -67.9914
1093.76 3.01376 0 -68.3794
649.249 3.79482 0 -75.6685
860.898 3.49218 0 -73.129
1085.7 3.01843 0 -68.1862
873.785 3.47516 0 -73.4397
867.342 3.48375 0 -73.285
644.418 3.80648 0 -75.5514
634.758 3.82932 0 -75.3144
1061.53 3.03149 0 -67.5973
1077.64 3.02293 0 -67.9914
639.588 3.81798 0 -75.4333
848.012 3.50857 0 -72.8134
1069.58 3.02729 0 -67.7951
860.898 3.49218 0 -73.129
854.455 3.50046 0 -72.9718
634.758 3.82932 0 -75.3144
625.097 3.85153 0 -75.0737
1045.41 3.03942 0 -67.1971
1061.53 3.03149 0 -67.5973
629.927 3.8405 0 -75.1945
835.126 3.52432 0 -72.493
1053.47 3.03553 0 -67.398
848.012 3.50857 0 -72.8134
841.569 3.51652 0 -72.6538
625.097 3.85153 0 -75.0737
615.437 3.8731 0 -74.8295
1029.3 3.04674 0 -66.7909
1045.41 3.03942 0 -67.1971
620.267 3.86239 0 -74.9521
822.241 3.53943 0 -72.1677
1037.36 3.04316 0 -66.9948
835.126 3.52432 0 -72.493
828.683 3.53195 0 -72.3309
615.437 3.8731 0 -74.8295
605.777 3.89403 0 -74.5818
1013.19 3.05345 0 -66.3789
1029.3 3.04674 0 -66.7909
610.607 3.88364 0 -74.7061
809.356 3.55391 0 -71.8378
1021.24 3.05017 0 -66.5856
822.241 3.53943 0 -72.1677
815.798 3.54675 0 -72.0034
605.777 3.89403 0 -74.5818
596.118 3.91434 0 -74.3306
997.078 3.05955 0 -65.9611
1013.19 3.05345 0 -66.3789
600.948 3.90427 0 -74.4566
796.471 3.56776 0 -71.5033
1005.13 3.05658 0 -66.1707
809.356 3.55391 0 -71.8378
802.913 3.56092 0 -71.6711
596.118 3.91434 0 -74.3306
586.459 3.93402 0 -74.076
980.967 3.06505 0 -65.5376
997.078 3.05955 0 -65.9611
591.288 3.92426 0 -74.2037
783.587 3.58099 0 -71.1642
989.022 3.06237 0 -65.75
796.471 3.56776 0 -71.5033
790.029 3.57445 0 -71.3343
586.459 3.93402 0 -74.076
576.8 3.95307 0 -73.818
964.857 3.06994 0 -65.1084
980.967 3.06505 0 -65.5376
581.629 3.94362 0 -73.9474
770.704 3.59358 0 -70.8206
972.912 3.06757 0 -65.3237
783.587 3.58099 0 -71.1642
777.145 3.58736 0 -70.993
576.8 3.95307 0 -73.818
567.141 3.97149 0 -73.5568
948.748 3.07424 0 -64.6738
964.857 3.06994 0 -65.1084
571.971 3.96236 0 -73.6878
757.82 3.60556 0 -70.4727
956.803 3.07217 0 -64.8918
770.704 3.59358 0 -70.8206
764.262 3.59965 0 -70.6472
567.141 3.97149 0 -73.5568
557.483 3.9893 0 -73.2922
932.64 3.07795 0 -64.2338
948.748 3.07424 0 -64.6738
562.312 3.98047 0 -73.4249
744.938 3.61692 0 -70.1204
940.694 3.07617 0 -64.4545
757.82 3.60556 0 -70.4727
751.379 3.61132 0 -70.297
557.483 3.9893 0 -73.2922
547.825 4.00648 0 -73.0246
916.532 3.08106 0 -63.7884
932.64 3.07795 0 -64.2338
552.654 3.99797 0 -73.1588
732.056 3.62767 0 -69.7638
924.586 3.07958 0 -64.0117
744.938 3.61692 0 -70.1204
738.497 3.62237 0 -69.9426
547.825 4.00648 0 -73.0246
538.167 4.02304 0 -72.7537
900.425 3.08359 0 -63.3378
916.532 3.08106 0 -63.7884
542.996 4.01484 0 -72.8895
719.174 3.6378 0 -69.4031
908.478 3.0824 0 -63.5638
732.056 3.62767 0 -69.7638
725.615 3.63281 0 -69.584
538.167 4.02304 0 -72.7537
528.51 4.03899 0 -72.4798
884.318 3.08554 0 -62.8821
900.425 3.08359 0 -63.3378
533.338 4.0311 0 -72.6172
706.293 3.64732 0 -69.0382
892.371 3.08463 0 -63.1106
719.174 3.6378 0 -69.4031
712.733 3.64263 0 -69.2212
528.51 4.03899 0 -72.4798
518.852 4.05433 0 -72.2029
868.212 3.0869 0 -62.4213
884.318 3.08554 0 -62.8821
523.681 4.04674 0 -72.3417
693.412 3.65624 0 -68.6694
876.265 3.08629 0 -62.6523
706.293 3.64732 0 -69.0382
699.852 3.65185 0 -68.8543
518.852 4.05433 0 -72.2029
509.195 4.06906 0 -71.923
852.107 3.0877 0 -61.9556
868.212 3.0869 0 -62.4213
514.024 4.06177 0 -72.0633
680.531 3.66455 0 -68.2965
860.159 3.08737 0 -62.189
693.412 3.65624 0 -68.6694
686.971 3.66047 0 -68.4834
509.195 4.06906 0 -71.923
499.539 4.08317 0 -71.6402
836.002 3.08793 0 -61.485
852.107 3.0877 0 -61.9556
504.367 4.07619 0 -71.782
667.651 3.67227 0 -67.9198
844.054 3.08788 0 -61.7209
680.531 3.66455 0 -68.2965
674.091 3.66848 0 -68.1086
499.539 4.08317 0 -71.6402
489.882 4.09669 0 -71.3546
819.898 3.08759 0 -61.0096
836.002 3.08793 0 -61.485
494.71 4.09001 0 -71.4977
654.772 3.67938 0 -67.5393
827.95 3.08783 0 -61.2479
667.651 3.67227 0 -67.9198
661.211 3.6759 0 -67.73
489.882 4.09669 0 -71.3546
480.226 4.1096 0 -71.0661
803.794 3.08669 0 -60.5296
819.898 3.08759 0 -61.0096
485.054 4.10322 0 -71.2107
641.892 3.68591 0 -67.155
811.846 3.08721 0 -60.7702
654.772 3.67938 0 -67.5393
648.332 3.68272 0 -67.3476
480.226 4.1096 0 -71.0661
470.57 4.12191 0 -70.7749
787.691 3.08523 0 -60.045
803.794 3.08669 0 -60.5296
475.398 4.11582 0 -70.9209
629.014 3.69185 0 -66.7671
795.743 3.08603 0 -60.2878
641.892 3.68591 0 -67.155
635.453 3.68896 0 -66.9615
470.57 4.12191 0 -70.7749
460.914 4.13362 0 -70.481
771.589 3.08323 0 -59.5558
787.691 3.08523 0 -60.045
465.742 4.12784 0 -70.6283
616.135 3.69721 0 -66.3755
779.64 3.0843 0 -59.801
629.014 3.69185 0 -66.7671
622.574 3.6946 0 -66.5717
460.914 4.13362 0 -70.481
451.259 4.14474 0 -70.1845
755.487 3.08068 0 -59.0623
771.589 3.08323 0 -59.5558
456.087 4.13925 0 -70.3331
603.257 3.70198 0 -65.9805
763.538 3.08202 0 -59.3096
616.135 3.69721 0 -66.3755
609.696 3.69967 0 -66.1784
451.259 4.14474 0 -70.1845
441.604 4.15526 0 -69.8854
739.386 3.07758 0 -58.5645
755.487 3.08068 0 -59.0623
446.431 4.15007 0 -70.0353
590.38 3.70618 0 -65.582
747.437 3.0792 0 -58.814
603.257 3.70198 0 -65.9805
596.819 3.70415 0 -65.7817
441.604 4.15526 0 -69.8854
431.949 4.1652 0 -69.5838
723.286 3.07395 0 -58.0625
739.386 3.07758 0 -58.5645
436.776 4.16031 0 -69.7349
577.503 3.7098 0 -65.1801
731.336 3.07583 0 -58.314
590.38 3.70618 0 -65.582
583.941 3.70806 0 -65.3815
431.949 4.1652 0 -69.5838
422.294 4.17456 0 -69.2797
707.186 3.06979 0 -57.5563
723.286 3.07395 0 -58.0625
427.121 4.16995 0 -69.432
564.626 3.71286 0 -64.775
715.236 3.07194 0 -57.8099
577.503 3.7098 0 -65.1801
571.064 3.7114 0 -64.978
422.294 4.17456 0 -69.2797
412.639 4.18333 0 -68.9732
691.086 3.0651 0 -57.0461
707.186 3.06979 0 -57.5563
417.466 4.17901 0 -69.1267
551.75 3.71535 0 -64.3666
699.136 3.06751 0 -57.3017
564.626 3.71286 0 -64.775
558.188 3.71417 0 -64.5712
412.639 4.18333 0 -68.9732
402.985 4.19152 0 -68.6643
674.988 3.05989 0 -56.532
691.086 3.0651 0 -57.0461
407.812 4.18749 0 -68.8191
538.874 3.71728 0 -63.9551
683.037 3.06256 0 -56.7896
551.75 3.71535 0 -64.3666
545.311 3.71639 0 -64.1613
402.985 4.19152 0 -68.6643
393.331 4.19913 0 -68.3532
658.889 3.05416 0 -56.014
674.988 3.05989 0 -56.532
398.158 4.1954 0 -68.509
525.998 3.71865 0 -63.5405
666.938 3.05709 0 -56.2735
538.874 3.71728 0 -63.9551
532.436 3.71804 0 -63.7482
393.331 4.19913 0 -68.3532
383.677 4.20618 0 -68.0398
642.792 3.04793 0 -55.4923
658.889 3.05416 0 -56.014
388.504 4.20273 0 -68.1968
513.123 3.71948 0 -63.1229
650.84 3.05111 0 -55.7536
525.998 3.71865 0 -63.5405
519.56 3.71913 0 -63.3321
383.677 4.20618 0 -68.0398
374.023 4.21265 0 -67.7242
626.695 3.04119 0 -54.9669
642.792 3.04793 0 -55.4923
378.85 4.20948 0 -67.8822
500.248 3.71975 0 -62.7024
634.743 3.04462 0 -55.2301
513.123 3.71948 0 -63.1229
506.685 3.71968 0 -62.913
374.023 4.21265 0 -67.7242
364.37 4.21856 0 -67.4064
610.598 3.03394 0 -54.438
626.695 3.04119 0 -54.9669
369.196 4.21567 0 -67.5656
487.373 3.71948 0 -62.279
618.646 3.03763 0 -54.7029
500.248 3.71975 0 -62.7024
493.81 3.71968 0 -62.4911
364.37 4.21856 0 -67.4064
354.716 4.2239 0 -67.0866
594.502 3.02621 0 -53.9055
610.598 3.03394 0 -54.438
359.543 4.2213 0 -67.2468
474.499 3.71867 0 -61.8529
602.55 3.03014 0 -54.1722
487.373 3.71948 0 -62.279
480.936 3.71914 0 -62.0663
354.716 4.2239 0 -67.0866
345.063 4.22868 0 -66.7648
578.406 3.01798 0 -53.3697
594.502 3.02621 0 -53.9055
349.89 4.22636 0 -66.926
461.625 3.71733 0 -61.424
586.454 3.02215 0 -53.638
474.499 3.71867 0 -61.8529
468.062 3.71806 0 -61.6388
345.063 4.22868 0 -66.7648
335.41 4.23291 0 -66.441
562.311 3.00927 0 -52.8306
578.406 3.01798 0 -53.3697
340.237 4.23087 0 -66.6031
448.752 3.71545 0 -60.9925
570.359 3.01369 0 -53.1006
461.625 3.71733 0 -61.424
455.189 3.71645 0 -61.2086
335.41 4.23291 0 -66.441
325.758 4.23658 0 -66.1153
546.217 3.00008 0 -52.2883
562.311 3.00927 0 -52.8306
330.584 4.23482 0 -66.2784
435.879 3.71305 0 -60.5585
554.264 3.00474 0 -52.5598
448.752 3.71545 0 -60.9925
442.315 3.71432 0 -60.7758
325.758 4.23658 0 -66.1153
316.105 4.2397 0 -65.7877
530.123 2.99043 0 -51.7429
546.217 3.00008 0 -52.2883
320.932 4.23821 0 -65.9517
423.006 3.71013 0 -60.122
538.17 2.99531 0 -52.0159
435.879 3.71305 0 -60.5585
429.442 3.71165 0 -60.3405
316.105 4.2397 0 -65.7877
306.453 4.24228 0 -65.4583
514.029 2.9803 0 -51.1944
530.123 2.99043 0 -51.7429
311.279 4.24106 0 -65.6232
410.133 3.70669 0 -59.683
522.076 2.98542 0 -51.469
423.006 3.71013 0 -60.122
416.57 3.70847 0 -59.9028
306.453 4.24228 0 -65.4583
296.801 4.24431 0 -65.1272
497.936 2.96971 0 -50.6431
514.029 2.9803 0 -51.1944
301.627 4.24336 0 -65.293
397.261 3.70273 0 -59.2418
505.983 2.97506 0 -50.9191
410.133 3.70669 0 -59.683
403.697 3.70478 0 -59.4627
296.801 4.24431 0 -65.1272
287.149 4.24579 0 -64.7944
481.844 2.95867 0 -50.0889
497.936 2.96971 0 -50.6431
291.975 4.24512 0 -64.961
384.39 3.69827 0 -58.7983
489.89 2.96425 0 -50.3663
397.261 3.70273 0 -59.2418
390.825 3.70057 0 -59.0203
287.149 4.24579 0 -64.7944
277.497 4.24674 0 -64.4599
465.752 2.94718 0 -49.5319
481.844 2.95867 0 -50.0889
282.323 4.24633 0 -64.6274
371.518 3.6933 0 -58.3525
473.798 2.95298 0 -49.8107
384.39 3.69827 0 -58.7983
377.954 3.69585 0 -58.5757
277.497 4.24674 0 -64.4599
267.846 4.24714 0 -64.1239
449.66 2.93524 0 -48.9724
465.752 2.94718 0 -49.5319
272.671 4.24701 0 -64.2921
358.647 3.68783 0 -57.9047
457.706 2.94127 0 -49.2525
371.518 3.6933 0 -58.3525
365.082 3.69063 0 -58.1289
267.846 4.24714 0 -64.1239
258.194 4.24701 0 -63.7864
433.569 2.92287 0 -48.4103
449.66 2.93524 0 -48.9724
263.02 4.24714 0 -63.9553
345.776 3.68186 0 -57.4549
441.615 2.92911 0 -48.6916
358.647 3.68783 0 -57.9047
352.211 3.68491 0 -57.6801
258.194 4.24701 0 -63.7864
248.543 4.24634 0 -63.4474
417.479 2.91006 0 -47.8457
433.569 2.92287 0 -48.4103
253.368 4.24674 0 -63.6171
332.905 3.6754 0 -57.0031
425.524 2.91652 0 -48.1283
345.776 3.68186 0 -57.4549
339.341 3.67869 0 -57.2292
248.543 4.24634 0 -63.4474
238.892 4.24513 0 -63.107
401.388 2.89682 0 -47.2788
417.479 2.91006 0 -47.8457
243.717 4.2458 0 -63.2774
320.035 3.66844 0 -56.5494
409.433 2.90349 0 -47.5625
332.905 3.6754 0 -57.0031
326.47 3.67198 0 -56.7765
238.892 4.24513 0 -63.107
229.241 4.24339 0 -62.7653
385.298 2.88316 0 -46.7096
401.388 2.89682 0 -47.2788
234.066 4.24433 0 -62.9363
307.165 3.66099 0 -56.094
393.343 2.89004 0 -46.9945
320.035 3.66844 0 -56.5494
313.6 3.66477 0 -56.3219
229.241 4.24339 0 -62.7653
219.59 4.24112 0 -62.4223
369.209 2.86908 0 -46.1383
385.298 2.88316 0 -46.7096
224.415 4.24233 0 -62.5939
294.295 3.65305 0 -55.6368
377.254 2.87617 0 -46.4242
307.165 3.66099 0 -56.094
300.73 3.65708 0 -55.8656
219.59 4.24112 0 -62.4223
209.939 4.23833 0 -62.078
353.12 2.85458 0 -45.565
369.209 2.86908 0 -46.1383
214.765 4.23979 0 -62.2503
281.426 3.64462 0 -55.178
361.164 2.86188 0 -45.8519
294.295 3.65305 0 -55.6368
287.86 3.64889 0 -55.4076
209.939 4.23833 0 -62.078
200.289 4.23503 0 -61.7326
337.031 2.83967 0 -44.9897
353.12 2.85458 0 -45.565
205.114 4.23674 0 -61.9055
268.557 3.63572 0 -54.7177
345.076 2.84717 0 -45.2776
281.426 3.64462 0 -55.178
274.991 3.64023 0 -54.948
200.289 4.23503 0 -61.7326
190.639 4.23125 0 -61.386
320.943 2.82436 0 -44.4125
337.031 2.83967 0 -44.9897
195.464 4.23319 0 -61.5595
255.688 3.62636 0 -54.2558
328.987 2.83206 0 -44.7013
268.557 3.63572 0 -54.7177
262.122 3.6311 0 -54.4869
190.639 4.23125 0 -61.386
180.989 4.22709 0 -61.0382
304.855 2.80868 0 -43.8336
320.943 2.82436 0 -44.4125
185.814 4.22921 0 -61.2123
242.819 3.6166 0 -53.7925
312.899 2.81656 0 -44.1232
255.688 3.62636 0 -54.2558
249.253 3.62152 0 -54.0243
180.989 4.22709 0 -61.0382
171.34 4.22273 0 -60.6892
288.768 2.79269 0 -43.2529
304.855 2.80868 0 -43.8336
176.165 4.22491 0 -60.8639
229.952 3.60656 0 -53.3276
296.812 2.80072 0 -43.5434
242.819 3.6166 0 -53.7925
236.385 3.6116 0 -53.5602
171.34 4.22273 0 -60.6892
161.691 4.21858 0 -60.3388
272.682 2.77654 0 -42.6704
288.768 2.79269 0 -43.2529
166.516 4.22059 0 -60.5142
217.084 3.59652 0 -52.8611
280.725 2.78462 0 -42.9619
229.952 3.60656 0 -53.3276
223.518 3.60151 0 -53.0946
161.691 4.21858 0 -60.3388
152.043 4.21553 0 -59.9867
256.596 2.76055 0 -42.0857
272.682 2.77654 0 -42.6704
156.867 4.21683 0 -60.163
204.218 3.58714 0 -52.3924
264.639 2.7685 0 -42.3783
217.084 3.59652 0 -52.8611
210.651 3.59169 0 -52.627
152.043 4.21553 0 -59.9867
142.394 4.21523 0 -59.6323
240.513 2.74547 0 -41.4979
256.596 2.76055 0 -42.0857
147.218 4.21488 0 -59.8098
191.353 3.57971 0 -51.9206
248.554 2.75282 0 -41.7923
204.218 3.58714 0 -52.3924
197.785 3.58303 0 -52.157
142.394 4.21523 0 -59.6323
132.743 4.22131 0 -59.2746
224.432 2.73264 0 -40.9052
240.513 2.74547 0 -41.4979
137.568 4.21712 0 -59.454
178.488 3.577 0 -51.4436
232.472 2.73865 0 -41.2023
191.353 3.57971 0 -51.9206
184.92 3.57754 0 -51.6829
132.743 4.22131 0 -59.2746
123.084 4.23973 0 -58.912
208.356 2.72514 0 -40.3029
224.432 2.73264 0 -40.9052
127.915 4.2284 0 -59.094
165.622 3.58393 0 -50.9576
216.393 2.72792 0 -40.6057
178.488 3.577 0 -51.4436
172.055 3.57866 0 -51.2022
123.084 4.23973 0 -58.912
113.411 4.28311 0 -58.5415
192.287 2.72767 0 -39.6838
208.356 2.72514 0 -40.3029
118.25 4.25715 0 -58.728
152.751 3.61065 0 -50.4552
200.321 2.72471 0 -39.9961
165.622 3.58393 0 -50.9576
159.187 3.59415 0 -50.7089
113.411 4.28311 0 -58.5415
103.699 4.36927 0 -58.1601
176.233 2.7513 0 -39.0305
192.287 2.72767 0 -39.6838
108.563 4.31913 0 -58.3523
139.866 3.67254 0 -49.9235
184.257 2.73595 0 -39.3631
152.751 3.61065 0 -50.4552
146.311 3.63512 0 -50.1946
103.699 4.36927 0 -58.1601
93.9218 4.53516 0 -57.7606
160.188 2.80837 0 -38.3192
176.233 2.7513 0 -39.0305
98.8192 4.43932 0 -57.9635
126.945 3.80093 0 -49.3405
168.211 2.77418 0 -38.684
139.866 3.67254 0 -49.9235
133.412 3.72719 0 -49.6393
93.9218 4.53516 0 -57.7606
83.9888 4.81872 0 -57.3423
144.178 2.93415 0 -37.4947
160.188 2.80837 0 -38.3192
88.9849 4.65848 0 -57.5533
113.948 4.0321 0 -48.6725
152.174 2.86096 0 -37.9263
126.945 3.80093 0 -49.3405
120.457 3.89728 0 -49.0221
83.9888 4.81872 0 -57.3423
73.8279 5.30145 0 -56.8945
128.147 3.14429 0 -36.4992
144.178 2.93415 0 -37.4947
78.9365 5.03117 0 -57.1236
100.789 4.44244 0 -47.8716
136.175 3.02393 0 -37.0226
113.948 4.0321 0 -48.6725
107.4 4.2162 0 -48.2878
73.8279 5.30145 0 -56.8945
63.1689 5.99284 0 -56.4545
112.163 3.53985 0 -35.1913
128.147 3.14429 0 -36.4992
68.5931 5.61851 0 -56.6681
87.3379 5.06685 0 -46.8849
120.133 3.32069 0 -35.8973
100.789 4.44244 0 -47.8716
94.1017 4.71121 0 -47.4146
63.1689 5.99284 0 -56.4545
51.9108 6.95751 0 -56.0475
95.9016 4.04157 0 -33.5085
112.163 3.53985 0 -35.1913
57.6007 6.4537 0 -56.2459
73.2864 6.00743 0 -45.6965
104.115 3.76174 0 -34.3996
87.3379 5.06685 0 -46.8849
80.4322 5.52578 0 -46.295
51.9108 6.95751 0 -56.0475
39.4664 7.73782 0 -55.9315
79.4771 4.8952 0 -31.2368
95.9016 4.04157 0 -33.5085
45.9202 7.40175 0 -55.9235
58.3166 6.98906 0 -44.4161
87.6657 4.46798 0 -32.4614
73.2864 6.00743 0 -45.6965
65.8991 6.46506 0 -45.0919
39.4664 7.73782 0 -55.9315
26.2569 7.73592 0 -56.3332
61.3688 5.2041 0 -28.7937
79.4771 4.8952 0 -31.2368
32.8515 7.97304 0 -56.0501
41.5135 7.58302 0 -43.5875
70.8312 5.07393 0 -29.9978
58.3166 6.98906 0 -44.4161
50.3148 7.53226 0 -43.8076
26.2569 7.73592 0 -56.3332
12.1014 3.7418 0 -57.9912
41.6274 5.03978 0 -26.9062
61.3688 5.2041 0 -28.7937
19.4157 6.47162 0 -56.9448
22.8502 4.83668 0 -44.5335
51.6035 5.54444 0 -27.6533
41.5135 7.58302 0 -43.5875
32.2292 6.75256 0 -43.8553
12.1014 3.7418 0 -57.9912
1.38863 -8.79949 0 -59.6733
15.7421 -2.85316 0 -30.5851
41.6274 5.03978 0 -26.9062
5.7613 -0.757049 0 -59.0064
2.28769 -7.83893 0 -49.8619
30.0089 2.25937 0 -27.5897
22.8502 4.83668 0 -44.5335
13.1851 1.021 0 -46.1555
1.38863 -8.79949 0 -59.6733
-4.4341 -40.7323 0 -55.9141
-6.2748 -34.5996 0 -47.186
15.7421 -2.85316 0 -30.5851
-2.01043 -22.4347 0 -59.254
-5.2558 -47.0128 0 -55.6182
3.35253 -11.0784 0 -36.2042
2.28769 -7.83893 0 -49.8619
-5.51128 -23.725 0 -54.0528
-4.4341 -40.7323 0 -55.9141
-3.51366 -79.2086 0 -31.7022
-0.0384025 -158.513 0 -52.9216
-6.2748 -34.5996 0 -47.186
-5.35389 -61.3554 0 -47.2089
4.82749 -114.087 0 -31.6436
-10.1462 -84.9153 0 -57.3849
-5.2558 -47.0128 0 -55.6182
-1.11012 -79.0014 0 -49.7584
2974.16 889.88 0 -121.268
3149.69 339.448 0 -177.144
4233.68 -78.6842 0 55.5131
6560.68 1962.87 0 -1568.79
3090.07 640.102 0 -204.501
3932.43 241.563 0 -230.094
4709.92 -88.8964 0 -225.192
3498.94 1046.73 0 -379.825
3881.96 529.238 0 -357.87
3149.69 339.448 0 -177.144
3197.73 100.223 0 -86.8018
4190.97 -45.1998 0 14.5248
4233.68 -78.6842 0 55.5131
3194.72 174.234 0 -129.131
3784.84 34.7778 0 -42.2988
4197.19 14.1098 0 22.4484
3932.43 241.563 0 -230.094
3832.57 86.8084 0 -95.7646
3197.73 100.223 0 -86.8018
3157.79 16.7195 0 -35.3483
4267.62 14.5469 0 3.46791
4190.97 -45.1998 0 14.5248
3173.78 48.5681 0 -52.9119
3734.6 0.00134036 0 -8.91027
4235.23 -29.0996 0 14.2417
3784.84 34.7778 0 -42.2988
3757.46 12.4458 0 -23.0399
3157.79 16.7195 0 -35.3483
3130.11 -1.65213 0 -24.4914
4286.12 -4.21399 0 -7.61968
4267.62 14.5469 0 3.46791
3145.54 3.4281 0 -27.9053
3711.17 -4.84286 0 -4.93051
4277.95 13.4819 0 -7.56944
3734.6 0.00134036 0 -8.91027
3718.46 -4.88177 0 -2.94461
3130.11 -1.65213 0 -24.4914
3102.35 -8.51424 0 -24.8647
4301.31 4.90549 0 -7.49228
4286.12 -4.21399 0 -7.61968
3114 -6.08249 0 -23.509
3700.25 -4.56053 0 -11.1231
4297.05 -2.9305 0 -5.74036
3711.17 -4.84286 0 -4.93051
3706.77 -4.30554 0 -8.74077
3102.35 -8.51424 0 -24.8647
3083.13 -7.43685 0 -29.7905
4294.98 -0.622848 0 -10.309
4301.31 4.90549 0 -7.49228
3093.03 -8.3327 0 -27.4217
3686.98 -3.69085 0 -16.995
4298.54 3.59791 0 -9.97184
3700.25 -4.56053 0 -11.1231
3693.22 -4.41919 0 -13.7914
3083.13 -7.43685 0 -29.7905
3064.58 -6.26111 0 -34.1349
4285.09 1.10814 0 -11.1894
4294.98 -0.622848 0 -10.309
3073.28 -6.89044 0 -31.9624
3672.96 -2.6689 0 -21.9215
4291.29 -0.482366 0 -10.2746
3686.98 -3.69085 0 -16.995
3680.53 -3.02169 0 -19.8067
3064.58 -6.26111 0 -34.1349
3048.11 -4.6226 0 -37.8862
4267.8 -0.124879 0 -12.9187
4285.09 1.10814 0 -11.1894
3056.44 -5.39363 0 -36.1878
3656.58 -2.06831 0 -25.5494
4276.68 0.779568 0 -12.3076
3672.96 -2.6689 0 -21.9215
3664.81 -2.39454 0 -23.8178
3048.11 -4.6226 0 -37.8862
3031.67 -3.58926 0 -40.5788
4248.71 0.207052 0 -14.2155
4267.8 -0.124879 0 -12.9187
3039.77 -4.06252 0 -39.3138
3639.2 -1.59536 0 -28.2114
4258.62 -0.114314 0 -13.4528
3656.58 -2.06831 0 -25.5494
3648.1 -1.78087 0 -27.0065
3031.67 -3.58926 0 -40.5788
3015.6 -2.82427 0 -42.6559
4227.48 -0.0354131 0 -15.6904
4248.71 0.207052 0 -14.2155
3023.66 -3.16105 0 -41.7004
3620.82 -1.34383 0 -30.2613
4238.19 0.143247 0 -15.0137
3639.2 -1.59536 0 -28.2114
3630.05 -1.46618 0 -29.2906
3015.6 -2.82427 0 -42.6559
2999.47 -2.3735 0 -44.2373
4205.64 0.033118 0 -17.0643
4227.48 -0.0354131 0 -15.6904
3007.51 -2.57397 0 -43.4873
3602.01 -1.16433 0 -31.9031
4216.65 -0.0340987 0 -16.3525
3620.82 -1.34383 0 -30.2613
3611.48 -1.23853 0 -31.1234
2999.47 -2.3735 0 -44.2373
2983.38 -2.08121 0 -45.551
4183.27 -0.000249705 0 -18.4559
4205.64 0.033118 0 -17.0643
2991.44 -2.20851 0 -44.9239
3582.88 -1.06248 0 -33.3226
4194.48 0.0277928 0 -17.7757
3602.01 -1.16433 0 -31.9031
3592.46 -1.11079 0 -32.6338
2983.38 -2.08121 0 -45.551
2967.25 -1.90349 0 -46.6864
4160.74 0.022999 0 -19.8122
4183.27 -0.000249707 0 -18.4559
2975.32 -1.98316 0 -46.1337
3563.61 -0.987062 0 -34.6012
4172.02 0.00454575 0 -19.1308
3582.88 -1.06248 0 -33.3226
3573.26 -1.02038 0 -33.975
2967.25 -1.90349 0 -46.6864
2951.12 -1.78257 0 -47.726
4138.11 0.0306047 0 -21.1523
4160.74 0.022999 0 -19.8122
2959.19 -1.83712 0 -47.2161
3544.26 -0.93358 0 -35.8029
4149.43 0.0289662 0 -20.4877
3563.61 -0.987062 0 -34.6012
3553.94 -0.959521 0 -35.2095
2951.12 -1.78257 0 -47.726
2934.97 -1.69553 0 -48.7038
4115.44 0.0474828 0 -22.4678
4138.11 0.0306047 0 -21.1523
2943.04 -1.73639 0 -48.2205
3524.87 -0.887451 0 -36.9536
4126.78 0.0376739 0 -21.8117
3544.26 -0.93358 0 -35.8029
3534.57 -0.909442 0 -36.3832
2934.97 -1.69553 0 -48.7038
2918.81 -1.62427 0 -49.6445
4092.76 0.0628518 0 -23.7609
4115.44 0.0474828 0 -22.4678
2926.89 -1.65839 0 -49.1781
3505.46 -0.846196 0 -38.0711
4104.1 0.0555143 0 -23.1177
3524.87 -0.887451 0 -36.9536
3515.16 -0.866699 0 -37.5159
2918.81 -1.62427 0 -49.6445
2902.65 -1.56123 0 -50.558
4070.08 0.0797591 0 -25.0307
4092.76 0.0628518 0 -23.7609
2910.73 -1.59215 0 -50.1041
3486.04 -0.806285 0 -39.1622
4081.42 0.071014 0 -24.3984
3505.46 -0.846196 0 -38.0711
3495.75 -0.82605 0 -38.6196
2902.65 -1.56123 0 -50.558
2886.48 -1.50161 0 -51.4504
4047.39 0.0971186 0 -26.2772
4070.08 0.0797591 0 -25.0307
2894.56 -1.53112 0 -51.0066
3466.62 -0.766943 0 -40.2311
4058.73 0.0884371 0 -25.6569
3486.04 -0.806285 0 -39.1622
3476.33 -0.78665 0 -39.6993
2886.48 -1.50161 0 -51.4504
2870.31 -1.44346 0 -52.3243
4024.71 0.115041 0 -27.5007
4047.39 0.0971186 0 -26.2772
2878.4 -1.47244 0 -51.8895
3447.19 -0.727479 0 -41.2791
4036.05 0.10598 0 -26.8918
3466.62 -0.766943 0 -40.2311
3456.91 -0.74722 0 -40.7576
2870.31 -1.44346 0 -52.3243
2854.14 -1.38575 0 -53.1809
4002.03 0.133581 0 -28.7011
4024.71 0.115041 0 -27.5007
2862.23 -1.41458 0 -52.7547
3427.77 -0.687739 0 -42.3072
4013.37 0.124249 0 -28.1038
3447.19 -0.727479 0 -41.2791
3437.48 -0.707662 0 -41.7956
2854.14 -1.38575 0 -53.1809
2837.97 -1.32812 0 -54.0208
3979.34 0.152627 0 -29.8786
4002.03 0.133581 0 -28.7011
2846.05 -1.35694 0 -53.6029
3408.35 -0.647644 0 -43.3155
3990.69 0.143034 0 -29.2927
3427.77 -0.687739 0 -42.3072
3418.06 -0.667732 0 -42.8138
2837.97 -1.32812 0 -54.0208
2821.8 -1.2704 0 -54.8444
3956.66 0.172241 0 -31.0332
3979.34 0.152627 0 -29.8786
2829.88 -1.29927 0 -54.4346
3388.92 -0.607197 0 -44.3044
3968 0.162367 0 -30.4587
3408.35 -0.647644 0 -43.3155
3398.63 -0.627466 0 -43.8124
2821.8 -1.2704 0 -54.8444
2805.63 -1.21255 0 -55.6517
3933.98 0.192353 0 -32.1651
3956.66 0.172241 0 -31.0332
2813.71 -1.24149 0 -55.2501
3369.5 -0.566418 0 -45.2738
3945.32 0.182234 0 -31.602
3388.92 -0.607197 0 -44.3044
3379.21 -0.586847 0 -44.7915
2805.63 -1.21255 0 -55.6517
2789.45 -1.15459 0 -56.4429
3911.3 0.212972 0 -33.2745
3933.98 0.192353 0 -32.1651
2797.54 -1.18359 0 -56.0493
3350.07 -0.525334 0 -46.224
3922.64 0.202601 0 -32.7226
3369.5 -0.566418 0 -45.2738
3359.79 -0.545913 0 -45.7513
2789.45 -1.15459 0 -56.4429
2773.28 -1.09654 0 -57.2181
3888.62 0.234056 0 -34.3615
3911.3 0.212972 0 -33.2745
2781.37 -1.12557 0 -56.8325
3330.65 -0.483972 0 -47.1549
3899.96 0.223457 0 -33.8208
3350.07 -0.525334 0 -46.224
3340.36 -0.504686 0 -46.6918
2773.28 -1.09654 0 -57.2181
2757.11 -1.0384 0 -57.9774
3865.94 0.255588 0 -35.4261
3888.62 0.234056 0 -34.3615
2765.2 -1.06748 0 -57.5997
3311.23 -0.442357 0 -48.0668
3877.28 0.244767 0 -34.8966
3330.65 -0.483972 0 -47.1549
3320.94 -0.463194 0 -47.6132
2757.11 -1.0384 0 -57.9774
2740.94 -0.980216 0 -58.7209
3843.26 0.277538 0 -36.4686
3865.94 0.255588 0 -35.4261
2749.02 -1.00932 0 -58.3511
3291.8 -0.400515 0 -48.9596
3854.6 0.266513 0 -35.9501
3311.23 -0.442357 0 -48.0668
3301.52 -0.421463 0 -48.5156
2740.94 -0.980216 0 -58.7209
2724.77 -0.921994 0 -59.4486
3820.59 0.299883 0 -37.4891
3843.26 0.277538 0 -36.4686
2732.85 -0.951108 0 -59.0867
3272.38 -0.358469 0 -49.8336
3831.93 0.288663 0 -36.9816
3291.8 -0.400515 0 -48.9596
3282.09 -0.379516 0 -49.399
2724.77 -0.921994 0 -59.4486
2708.59 -0.863756 0 -60.1607
3797.91 0.322596 0 -38.4876
3820.59 0.299883 0 -37.4891
2716.68 -0.892876 0 -59.8066
3252.96 -0.316241 0 -50.6888
3809.25 0.311195 0 -37.9911
3272.38 -0.358469 0 -49.8336
3262.67 -0.337376 0 -50.2636
2708.59 -0.863756 0 -60.1607
2692.42 -0.80552 0 -60.8573
3775.23 0.345651 0 -39.4644
3797.91 0.322596 0 -38.4876
2700.51 -0.834637 0 -60.511
3233.53 -0.273854 0 -51.5254
3786.57 0.334082 0 -38.9787
3252.96 -0.316241 0 -50.6888
3243.25 -0.295066 0 -51.1094
2692.42 -0.80552 0 -60.8573
2676.25 -0.747305 0 -61.5384
3752.55 0.369024 0 -40.4195
3775.23 0.345651 0 -39.4644
2684.34 -0.776409 0 -61.1998
3214.11 -0.231328 0 -52.3434
3763.89 0.357299 0 -39.9446
3233.53 -0.273854 0 -51.5254
3223.82 -0.252607 0 -51.9367
2676.25 -0.747305 0 -61.5384
2660.08 -0.689128 0 -62.2042
3729.87 0.392689 0 -41.3531
3752.55 0.369024 0 -40.4195
2668.16 -0.71821 0 -61.8732
3194.69 -0.188687 0 -53.143
3741.21 0.380822 0 -40.889
3214.11 -0.231328 0 -52.3434
3204.4 -0.210021 0 -52.7455
2660.08 -0.689128 0 -62.2042
2643.91 -0.631007 0 -62.8547
3707.2 0.416623 0 -42.2653
3729.87 0.392689 0 -41.3531
2651.99 -0.660059 0 -62.5314
3175.27 -0.145949 0 -53.9243
3718.53 0.404624 0 -41.8119
3194.69 -0.188687 0 -53.143
3184.98 -0.167329 0 -53.5359
2643.91 -0.631007 0 -62.8547
2627.73 -0.572959 0 -63.49
3684.52 0.440802 0 -43.1563
3707.2 0.416623 0 -42.2653
2635.82 -0.601972 0 -63.1743
3155.85 -0.103137 0 -54.6873
3695.86 0.428684 0 -42.7134
3175.27 -0.145949 0 -53.9243
3165.56 -0.124551 0 -54.3081
2627.73 -0.572959 0 -63.49
2611.56 -0.515001 0 -64.1103
3661.84 0.465202 0 -44.0261
3684.52 0.440802 0 -43.1563
2619.65 -0.543967 0 -63.802
3136.42 -0.0602694 0 -55.4323
3673.18 0.452976 0 -43.5938
3155.85 -0.103137 0 -54.6873
3146.14 -0.0817087 0 -55.0621
2611.56 -0.515001 0 -64.1103
2595.39 -0.45715 0 -64.7155
3639.17 0.489799 0 -44.8749
3661.84 0.465202 0 -44.0261
2603.48 -0.486061 0 -64.4148
3117 -0.0173671 0 -56.1592
3650.51 0.477477 0 -44.4531
3136.42 -0.0602694 0 -55.4323
3126.71 -0.0388214 0 -55.798
2595.39 -0.45715 0 -64.7155
2579.22 -0.399422 0 -65.3059
3616.49 0.514573 0 -45.7029
3639.17 0.489799 0 -44.8749
2587.31 -0.42827 0 -65.0126
3097.58 0.0255506 0 -56.8683
3627.83 0.502165 0 -45.2915
3117 -0.0173671 0 -56.1592
3107.29 0.00409099 0 -56.516
2579.22 -0.399422 0 -65.3059
2563.05 -0.341834 0 -65.8815
3593.82 0.539499 0 -46.5101
3616.49 0.514573 0 -45.7029
2571.14 -0.37061 0 -65.5955
3078.16 0.0684646 0 -57.5596
3605.16 0.527018 0 -46.1091
3097.58 0.0255506 0 -56.8683
3087.87 0.0470093 0 -57.2162
2563.05 -0.341834 0 -65.8815
2546.88 -0.284401 0 -66.4423
3571.14 0.564556 0 -47.2968
3593.82 0.539499 0 -46.5101
2554.97 -0.313097 0 -66.1637
3058.74 0.111356 0 -58.2333
3582.48 0.552012 0 -46.906
3078.16 0.0684646 0 -57.5596
3068.45 0.0899143 0 -57.8986
2546.88 -0.284401 0 -66.4423
2530.71 -0.227139 0 -66.9885
3548.47 0.589723 0 -48.0629
3571.14 0.564556 0 -47.2968
2538.79 -0.255748 0 -66.7172
3039.32 0.154207 0 -58.8894
3559.81 0.577128 0 -47.6824
3058.74 0.111356 0 -58.2333
3049.03 0.132788 0 -58.5635
2530.71 -0.227139 0 -66.9885
2514.54 -0.170062 0 -67.5202
3525.8 0.614979 0 -48.8088
3548.47 0.589723 0 -48.0629
2522.62 -0.198576 0 -67.2562
3019.9 0.196998 0 -59.528
3537.13 0.602342 0 -48.4384
3039.32 0.154207 0 -58.8894
3029.61 0.175611 0 -59.2109
2514.54 -0.170062 0 -67.5202
2498.37 -0.113186 0 -68.0375
3503.12 0.640303 0 -49.5344
3525.8 0.614979 0 -48.8088
2506.45 -0.141598 0 -67.7807
3000.48 0.239713 0 -60.1494
3514.46 0.627634 0 -49.1741
3019.9 0.196998 0 -59.528
3010.19 0.218366 0 -59.8409
2498.37 -0.113186 0 -68.0375
2482.2 -0.0565258 0 -68.5404
3480.45 0.665674 0 -50.2399
3503.12 0.640303 0 -49.5344
2490.29 -0.0848283 0 -68.2908
2981.06 0.282333 0 -60.7535
3491.79 0.652984 0 -49.8896
3000.48 0.239713 0 -60.1494
2990.77 0.261036 0 -60.4536
2482.2 -0.0565258 0 -68.5404
2466.03 -9.46521e-05 0 -69.0291
3457.78 0.691073 0 -50.9255
3480.45 0.665674 0 -50.2399
2474.12 -0.0282807 0 -68.7866
2961.65 0.324842 0 -61.3406
3469.12 0.678371 0 -50.5852
2981.06 0.282333 0 -60.7535
2971.36 0.303603 0 -61.0492
2466.03 -9.46521e-05 0 -69.0291
2449.86 0.056093 0 -69.5037
3435.11 0.71648 0 -51.5912
3457.78 0.691073 0 -50.9255
2457.95 0.0280305 0 -69.2682
2942.23 0.367223 0 -61.9106
3446.45 0.703777 0 -51.2608
2961.65 0.324842 0 -61.3406
2951.94 0.34605 0 -61.6277
2449.86 0.056093 0 -69.5037
2433.69 0.112024 0 -69.9641
3412.44 0.741876 0 -52.2373
3435.11 0.71648 0 -51.5912
2441.78 0.0840913 0 -69.7357
2922.81 0.409459 0 -62.4638
3423.78 0.729181 0 -51.9167
2942.23 0.367223 0 -61.9106
2932.52 0.38836 0 -62.1893
2433.69 0.112024 0 -69.9641
2417.53 0.167683 0 -70.4107
3389.77 0.767242 0 -52.8638
3412.44 0.741876 0 -52.2373
2425.61 0.139888 0 -70.1891
2903.4 0.451535 0 -63.0003
3401.11 0.754564 0 -52.553
2922.81 0.409459 0 -62.4638
2913.1 0.430518 0 -62.7341
2417.53 0.167683 0 -70.4107
2401.36 0.223059 0 -70.8433
3367.1 0.79256 0 -53.4709
3389.77 0.767242 0 -52.8638
2409.44 0.195408 0 -70.6287
2883.98 0.493434 0 -63.52
3378.44 0.779908 0 -53.1697
2903.4 0.451535 0 -63.0003
2893.69 0.472507 0 -63.2622
2401.36 0.223059 0 -70.8433
2385.19 0.278139 0 -71.2622
3344.44 0.817811 0 -54.0586
3367.1 0.79256 0 -53.4709
2393.27 0.250637 0 -71.0544
2864.56 0.535141 0 -64.0233
3355.77 0.805195 0 -53.7672
2883.98 0.493434 0 -63.52
2874.27 0.514312 0 -63.7737
2385.19 0.278139 0 -71.2622
2369.02 0.332909 0 -71.6673
3321.77 0.842978 0 -54.6273
3344.44 0.817811 0 -54.0586
2377.11 0.305563 0 -71.4664
2845.15 0.57664 0 -64.5101
3333.1 0.830406 0 -54.3453
2864.56 0.535141 0 -64.0233
2854.86 0.555917 0 -64.2687
2369.02 0.332909 0 -71.6673
2352.86 0.387357 0 -72.0589
3299.1 0.868044 0 -55.1768
3321.77 0.842978 0 -54.6273
2360.94 0.360174 0 -71.8648
2825.73 0.617918 0 -64.9806
3310.44 0.855525 0 -54.9044
2845.15 0.57664 0 -64.5101
2835.44 0.597308 0 -64.7474
2352.86 0.387357 0 -72.0589
2336.69 0.441471 0 -72.437
3276.44 0.892991 0 -55.7075
3299.1 0.868044 0 -55.1768
2344.77 0.414457 0 -72.2496
2806.32 0.658959 0 -65.4349
3287.77 0.880533 0 -55.4445
2825.73 0.617918 0 -64.9806
2816.03 0.638469 0 -65.2098
2336.69 0.441471 0 -72.437
2320.53 0.49524 0 -72.8017
3253.77 0.917804 0 -56.2194
3276.44 0.892991 0 -55.7075
2328.61 0.4684 0 -72.621
2786.91 0.69975 0 -65.8731
3265.11 0.905415 0 -55.9658
2806.32 0.658959 0 -65.4349
2796.61 0.679387 0 -65.656
2320.53 0.49524 0 -72.8017
2304.36 0.548651 0 -73.153
3231.11 0.942465 0 -56.7126
3253.77 0.917804 0 -56.2194
2312.44 0.521991 0 -72.979
2767.5 0.740276 0 -66.2953
3242.44 0.930154 0 -56.4683
2786.91 0.69975 0 -65.8731
2777.2 0.720047 0 -66.0862
2304.36 0.548651 0 -73.153
2288.2 0.601694 0 -73.4912
3208.45 0.966959 0 -57.1874
3231.11 0.942465 0 -56.7126
2296.28 0.57522 0 -73.3238
2748.08 0.780523 0 -66.7017
3219.78 0.954734 0 -56.9523
2767.5 0.740276 0 -66.2953
2757.79 0.760435 0 -66.5005
2288.2 0.601694 0 -73.4912
2272.03 0.654357 0 -73.8162
3185.79 0.991271 0 -57.6437
3208.45 0.966959 0 -57.1874
2280.11 0.628074 0 -73.6553
2728.67 0.820479 0 -67.0923
3197.12 0.979139 0 -57.4178
2748.08 0.780523 0 -66.7017
2738.38 0.800539 0 -66.899
2272.03 0.654357 0 -73.8162
2255.87 0.706629 0 -74.1282
3163.13 1.01538 0 -58.0818
3185.79 0.991271 0 -57.6437
2263.95 0.680543 0 -73.9738
2709.26 0.860131 0 -67.4673
3174.46 1.00335 0 -57.865
2728.67 0.820479 0 -67.0923
2718.97 0.840344 0 -67.2817
2255.87 0.706629 0 -74.1282
2239.7 0.758501 0 -74.4272
3140.47 1.03929 0 -58.5018
3163.13 1.01538 0 -58.0818
2247.79 0.732616 0 -74.2793
2689.85 0.899465 0 -67.8267
3151.8 1.02736 0 -58.2941
2709.26 0.860131 0 -67.4673
2699.56 0.879838 0 -67.6489
2239.7 0.758501 0 -74.4272
2223.54 0.80996 0 -74.7134
3117.81 1.06296 0 -58.9038
3140.47 1.03929 0 -58.5018
2231.62 0.784283 0 -74.5719
2670.44 0.938469 0 -68.1707
3129.14 1.05115 0 -58.705
2689.85 0.899465 0 -67.8267
2680.15 0.919009 0 -68.0007
2223.54 0.80996 0 -74.7134
2207.38 0.860998 0 -74.9869
3095.15 1.08639 0 -59.2879
3117.81 1.06296 0 -58.9038
2215.46 0.835533 0 -74.8517
2651.03 0.977131 0 -68.4995
3106.48 1.07471 0 -59.0981
2670.44 0.938469 0 -68.1707
2660.74 0.957844 0 -68.337
2207.38 0.860998 0 -74.9869
2191.22 0.911605 0 -75.2477
3072.49 1.10957 0 -59.6543
3095.15 1.08639 0 -59.2879
2199.3 0.886356 0 -75.1189
2631.63 1.01544 0 -68.813
3083.82 1.09802 0 -59.4733
2651.03 0.977131 0 -68.4995
2641.33 0.996331 0 -68.6581
2191.22 0.911605 0 -75.2477
2175.06 0.96177 0 -75.4959
3049.83 1.13248 0 -60.0031
3072.49 1.10957 0 -59.6543
2183.14 0.936743 0 -75.3733
2612.22 1.05338 0 -69.1114
3061.16 1.12106 0 -59.8309
2631.63 1.01544 0 -68.813
2621.92 1.03446 0 -68.9641
2175.06 0.96177 0 -75.4959
2158.89 1.01149 0 -75.7316
3027.18 1.15511 0 -60.3344
3049.83 1.13248 0 -60.0031
2166.97 0.986685 0 -75.6153
2592.81 1.09095 0 -69.3949
3038.51 1.14383 0 -60.1709
2612.22 1.05338 0 -69.1114
2602.52 1.07222 0 -69.255
2158.89 1.01149 0 -75.7316
2142.73 1.06074 0 -75.955
3004.53 1.17744 0 -60.6484
3027.18 1.15511 0 -60.3344
2150.81 1.03617 0 -75.8449
2573.41 1.12813 0 -69.6635
3015.85 1.16631 0 -60.4936
2592.81 1.09095 0 -69.3949
2583.11 1.10959 0 -69.531
2142.73 1.06074 0 -75.955
2126.57 1.10953 0 -76.1661
2981.87 1.19947 0 -60.9452
3004.53 1.17744 0 -60.6484
2134.65 1.08519 0 -76.0621
2554 1.16491 0 -69.9174
2993.2 1.1885 0 -60.7989
2573.41 1.12813 0 -69.6635
2563.71 1.14657 0 -69.7923
2126.57 1.10953 0 -76.1661
2110.42 1.15784 0 -76.365
2959.22 1.22118 0 -61.2249
2981.87 1.19947 0 -60.9452
2118.49 1.13374 0 -76.2671
2534.6 1.20129 0 -70.1566
2970.55 1.21037 0 -61.0871
2554 1.16491 0 -69.9174
2544.3 1.18315 0 -70.0388
2110.42 1.15784 0 -76.365
2094.26 1.20566 0 -76.5518
2936.57 1.24256 0 -61.4876
2959.22 1.22118 0 -61.2249
2102.34 1.18181 0 -76.4599
2515.2 1.23724 0 -70.3813
2947.89 1.23191 0 -61.3583
2534.6 1.20129 0 -70.1566
2524.9 1.21932 0 -70.2707
2094.26 1.20566 0 -76.5518
2078.1 1.25299 0 -76.7266
2913.92 1.26359 0 -61.7335
2936.57 1.24256 0 -61.4876
2086.18 1.22939 0 -76.6407
2495.79 1.27277 0 -70.5916
2925.24 1.25312 0 -61.6127
2515.2 1.23724 0 -70.3813
2505.5 1.25506 0 -70.4882
2078.1 1.25299 0 -76.7266
2061.94 1.29982 0 -76.8894
2891.27 1.28428 0 -61.9628
2913.92 1.26359 0 -61.7335
2070.02 1.27647 0 -76.8095
2476.39 1.30786 0 -70.7876
2902.59 1.27398 0 -61.8502
2495.79 1.27277 0 -70.5916
2486.09 1.29037 0 -70.6914
2061.94 1.29982 0 -76.8894
2045.78 1.34614 0 -77.0405
2868.62 1.30459 0 -62.1755
2891.27 1.28428 0 -61.9628
2053.86 1.32305 0 -76.9664
2456.99 1.3425 0 -70.9694
2879.94 1.29448 0 -62.0712
2476.39 1.30786 0 -70.7876
2466.69 1.32523 0 -70.8802
2045.78 1.34614 0 -77.0405
2029.63 1.39194 0 -77.1798
2845.97 1.32454 0 -62.3717
2868.62 1.30459 0 -62.1755
2037.71 1.36911 0 -77.1116
2437.59 1.37668 0 -71.1371
2857.3 1.31461 0 -62.2756
2456.99 1.3425 0 -70.9694
2447.29 1.35965 0 -71.055
2029.63 1.39194 0 -77.1798
2013.47 1.43722 0 -77.3075
2823.33 1.3441 0 -62.5517
2845.97 1.32454 0 -62.3717
2021.55 1.41465 0 -77.2451
2418.19 1.4104 0 -71.2909
2834.65 1.33437 0 -62.4637
2437.59 1.37668 0 -71.1371
2427.89 1.3936 0 -71.2157
2013.47 1.43722 0 -77.3075
1997.32 1.48197 0 -77.4236
2800.68 1.36326 0 -62.7155
2823.33 1.3441 0 -62.5517
2005.4 1.45966 0 -77.367
2398.8 1.44365 0 -71.4308
2812.01 1.35373 0 -62.6356
2418.19 1.4104 0 -71.2909
2408.49 1.42709 0 -71.3625
1997.32 1.48197 0 -77.4236
1981.16 1.52618 0 -77.5283
2778.04 1.38202 0 -62.8633
2800.68 1.36326 0 -62.7155
1989.24 1.50414 0 -77.4774
2379.4 1.47642 0 -71.557
2789.36 1.37269 0 -62.7914
2398.8 1.44365 0 -71.4308
2389.1 1.4601 0 -71.4956
1981.16 1.52618 0 -77.5283
1965.01 1.56984 0 -77.6217
2755.4 1.40037 0 -62.9951
2778.04 1.38202 0 -62.8633
1973.09 1.54808 0 -77.5764
2360 1.50869 0 -71.6695
2766.72 1.39125 0 -62.9312
2379.4 1.47642 0 -71.557
2369.7 1.49262 0 -71.6149
1965.01 1.56984 0 -77.6217
1948.86 1.61295 0 -77.7037
2732.76 1.4183 0 -63.1112
2755.4 1.40037 0 -62.9951
1956.93 1.59147 0 -77.6641
2340.61 1.54047 0 -71.7685
2744.08 1.40939 0 -63.0552
2360 1.50869 0 -71.6695
2350.3 1.52465 0 -71.7207
1948.86 1.61295 0 -77.7037
1932.7 1.65551 0 -77.7747
2710.12 1.43579 0 -63.2117
2732.76 1.4183 0 -63.1112
1940.78 1.6343 0 -77.7406
2321.21 1.57175 0 -71.8541
2721.44 1.4271 0 -63.1634
2340.61 1.54047 0 -71.7685
2330.91 1.55617 0 -71.813
1932.7 1.65551 0 -77.7747
1916.55 1.6975 0 -77.8345
2687.48 1.45284 0 -63.2966
2710.12 1.43579 0 -63.2117
1924.63 1.67658 0 -77.806
2301.82 1.60251 0 -71.9265
2698.8 1.44437 0 -63.2561
2321.21 1.57175 0 -71.8541
2311.51 1.58719 0 -71.892
1916.55 1.6975 0 -77.8345
1900.4 1.73892 0 -77.8833
2664.84 1.46945 0 -63.3662
2687.48 1.45284 0 -63.2966
1908.48 1.71828 0 -77.8603
2282.42 1.63275 0 -71.9856
2676.16 1.4612 0 -63.3333
2301.82 1.60251 0 -71.9265
2292.12 1.6177 0 -71.9577
1900.4 1.73892 0 -77.8833
1884.25 1.77977 0 -77.9213
2642.2 1.4856 0 -63.4205
2664.84 1.46945 0 -63.3662
1892.33 1.75942 0 -77.9037
2263.03 1.66247 0 -72.0317
2653.52 1.47758 0 -63.3952
2282.42 1.63275 0 -71.9856
2272.73 1.64768 0 -72.0103
1884.25 1.77977 0 -77.9213
1868.1 1.82004 0 -77.9485
2619.57 1.50129 0 -63.4597
2642.2 1.4856 0 -63.4205
1876.18 1.79998 0 -77.9362
2243.64 1.69166 0 -72.0648
2630.88 1.49351 0 -63.442
2263.03 1.66247 0 -72.0317
2253.34 1.67713 0 -72.0499
1868.1 1.82004 0 -77.9485
1851.95 1.85973 0 -77.965
2596.93 1.51651 0 -63.4839
2619.57 1.50129 0 -63.4597
1860.03 1.83996 0 -77.9581
2224.25 1.72031 0 -72.0851
2608.25 1.50896 0 -63.4736
2243.64 1.69166 0 -72.0648
2233.95 1.70605 0 -72.0766
1851.95 1.85973 0 -77.965
1835.8 1.89882 0 -77.9708
2574.3 1.53125 0 -63.4932
2596.93 1.51651 0 -63.4839
1843.88 1.87935 0 -77.9692
2204.86 1.74841 0 -72.0926
2585.61 1.52394 0 -63.4904
2224.25 1.72031 0 -72.0851
2214.56 1.73443 0 -72.0905
1835.8 1.89882 0 -77.9708
1819.66 1.93732 0 -77.9662
2551.67 1.54551 0 -63.4878
2574.3 1.53125 0 -63.4932
1827.73 1.91814 0 -77.9698
2185.47 1.77597 0 -72.0876
2562.98 1.53844 0 -63.4923
2204.86 1.74841 0 -72.0926
2195.17 1.76226 0 -72.0917
1819.66 1.93732 0 -77.9662
1803.51 1.97522 0 -77.9511
2529.03 1.55928 0 -63.4678
2551.67 1.54551 0 -63.4878
1811.58 1.95634 0 -77.9599
2166.09 1.80297 0 -72.07
2540.35 1.55246 0 -63.4796
2185.47 1.77597 0 -72.0876
2175.78 1.78954 0 -72.0803
1803.51 1.97522 0 -77.9511
1787.36 2.01251 0 -77.9257
2506.4 1.57256 0 -63.4333
2529.03 1.55928 0 -63.4678
1795.44 1.99394 0 -77.9397
2146.7 1.82941 0 -72.04
2517.72 1.56598 0 -63.4524
2166.09 1.80297 0 -72.07
2156.39 1.81626 0 -72.0565
1787.36 2.01251 0 -77.9257
1771.22 2.0492 0 -77.89
2483.78 1.58533 0 -63.3845
2506.4 1.57256 0 -63.4333
1779.29 2.03093 0 -77.9091
2127.31 1.85529 0 -71.9977
2495.09 1.57901 0 -63.4107
2146.7 1.82941 0 -72.04
2137.01 1.84242 0 -72.0204
1771.22 2.0492 0 -77.89
1755.07 2.08528 0 -77.8442
2461.15 1.59759 0 -63.3215
2483.78 1.58533 0 -63.3845
1763.15 2.06732 0 -77.8684
2107.93 1.88059 0 -71.9432
2472.46 1.59152 0 -63.3548
2127.31 1.85529 0 -71.9977
2117.62 1.86801 0 -71.972
1755.07 2.08528 0 -77.8442
1738.93 2.12074 0 -77.7884
2438.52 1.60935 0 -63.2444
2461.15 1.59759 0 -63.3215
1747 2.10309 0 -77.8176
2088.54 1.90532 0 -71.8767
2449.83 1.60353 0 -63.2847
2107.93 1.88059 0 -71.9432
2098.24 1.89303 0 -71.9115
1738.93 2.12074 0 -77.7884
1722.78 2.15558 0 -77.7226
2415.9 1.62058 0 -63.1534
2438.52 1.60935 0 -63.2444
1730.86 2.13824 0 -77.7567
2069.16 1.92948 0 -71.7982
2427.21 1.61503 0 -63.2006
2088.54 1.90532 0 -71.8767
2078.85 1.91747 0 -71.839
1722.78 2.15558 0 -77.7226
1706.64 2.1898 0 -77.6469
2393.27 1.6313 0 -63.0485
2415.9 1.62058 0 -63.1534
1714.71 2.17277 0 -77.686
2049.78 1.95305 0 -71.7079
2404.58 1.62601 0 -63.1027
2069.16 1.92948 0 -71.7982
2059.47 1.94134 0 -71.7546
1706.64 2.1898 0 -77.6469
1690.5 2.2234 0 -77.5615
2370.65 1.64149 0 -62.93
2393.27 1.6313 0 -63.0485
1698.57 2.20668 0 -77.6054
2030.4 1.97603 0 -71.6059
2381.96 1.63646 0 -62.991
2049.78 1.95305 0 -71.7079
2040.09 1.96461 0 -71.6584
1690.5 2.2234 0 -77.5615
1674.36 2.25636 0 -77.4664
2348.03 1.65114 0 -62.7979
2370.65 1.64149 0 -62.93
1682.43 2.23996 0 -77.5151
2011.02 1.99843 0 -71.4922
2359.34 1.64638 0 -62.8656
2030.4 1.97603 0 -71.6059
2020.71 1.98731 0 -71.5505
1674.36 2.25636 0 -77.4664
1658.22 2.2887 0 -77.3617
2325.41 1.66027 0 -62.6524
2348.03 1.65114 0 -62.7979
1666.29 2.27261 0 -77.4152
1991.64 2.02023 0 -71.3671
2336.72 1.65577 0 -62.7268
2011.02 1.99843 0 -71.4922
2001.33 2.0094 0 -71.4311
1658.22 2.2887 0 -77.3617
1642.08 2.3204 0 -77.2475
2302.79 1.66885 0 -62.4935
2325.41 1.66027 0 -62.6524
1650.15 2.30463 0 -77.3057
1972.26 2.04144 0 -71.2305
2314.1 1.66463 0 -62.5746
1991.64 2.02023 0 -71.3671
1981.95 2.03091 0 -71.3002
1642.08 2.3204 0 -77.2475
1625.94 2.35146 0 -77.1239
2280.17 1.6769 0 -62.3215
2302.79 1.66885 0 -62.4935
1634.01 2.33601 0 -77.1868
1952.89 2.06204 0 -71.0826
2291.48 1.67294 0 -62.4092
1972.26 2.04144 0 -71.2305
1962.57 2.05181 0 -71.158
1625.94 2.35146 0 -77.1239
1609.8 2.38189 0 -76.991
2257.56 1.68439 0 -62.1365
2280.17 1.6769 0 -62.3215
1617.87 2.36676 0 -77.0586
1933.51 2.08205 0 -70.9236
2268.86 1.68071 0 -62.2306
1952.89 2.06204 0 -71.0826
1943.2 2.07212 0 -71.0045
1609.8 2.38189 0 -76.991
1593.66 2.41168 0 -76.8488
2234.94 1.69135 0 -61.9386
2257.56 1.68439 0 -62.1365
1601.73 2.39686 0 -76.921
1914.13 2.10145 0 -70.7535
2246.25 1.68794 0 -62.0391
1933.51 2.08205 0 -70.9236
1923.82 2.09182 0 -70.84
1593.66 2.41168 0 -76.8488
1577.53 2.44082 0 -76.6976
2212.33 1.69775 0 -61.7278
2234.94 1.69135 0 -61.9386
1585.59 2.42633 0 -76.7744
1894.76 2.12024 0 -70.5725
2223.63 1.69462 0 -61.8348
1914.13 2.10145 0 -70.7535
1904.45 2.11092 0 -70.6644
1577.53 2.44082 0 -76.6976
1561.39 2.46932 0 -76.5373
2189.71 1.7036 0 -61.5045
2212.33 1.69775 0 -61.7278
1569.46 2.45515 0 -76.6186
1875.39 2.13843 0 -70.3807
2201.02 1.70074 0 -61.6177
1894.76 2.12024 0 -70.5725
1885.07 2.12941 0 -70.4779
1561.39 2.46932 0 -76.5373
1545.25 2.49717 0 -76.3681
2167.1 1.70889 0 -61.2686
2189.71 1.7036 0 -61.5045
1553.32 2.48333 0 -76.4538
1856.01 2.156 0 -70.1781
2178.41 1.70632 0 -61.3881
1875.39 2.13843 0 -70.3807
1865.7 2.14729 0 -70.2807
1545.25 2.49717 0 -76.3681
1529.12 2.52438 0 -76.1901
2144.49 1.71363 0 -61.0203
2167.1 1.70889 0 -61.2686
1537.19 2.51086 0 -76.2802
1836.64 2.17296 0 -69.9649
2155.8 1.71133 0 -61.146
1856.01 2.156 0 -70.1781
1846.33 2.16456 0 -70.0728
1529.12 2.52438 0 -76.1901
1512.99 2.55094 0 -76.0033
2121.88 1.71781 0 -60.7598
2144.49 1.71363 0 -61.0203
1521.05 2.53774 0 -76.0978
1817.27 2.18931 0 -69.7412
2133.19 1.71579 0 -60.8916
1836.64 2.17296 0 -69.9649
1826.96 2.18121 0 -69.8543
1512.99 2.55094 0 -76.0033
1496.85 2.57685 0 -75.8078
2099.28 1.72143 0 -60.4872
2121.88 1.71781 0 -60.7598
1504.92 2.56397 0 -75.9066
1797.9 2.20504 0 -69.5071
2110.58 1.71969 0 -60.625
1817.27 2.18931 0 -69.7412
1807.59 2.19725 0 -69.6254
1496.85 2.57685 0 -75.8078
1480.72 2.60211 0 -75.6038
2076.67 1.72449 0 -60.2025
2099.28 1.72143 0 -60.4872
1488.79 2.58956 0 -75.7069
1778.54 2.22016 0 -69.2627
2087.97 1.72303 0 -60.3463
1797.9 2.20504 0 -69.5071
1788.22 2.21268 0 -69.3861
1480.72 2.60211 0 -75.6038
1464.59 2.62672 0 -75.3913
2054.07 1.72699 0 -59.906
2076.67 1.72449 0 -60.2025
1472.65 2.61449 0 -75.4986
1759.17 2.23466 0 -69.0081
2065.37 1.72581 0 -60.0557
1778.54 2.22016 0 -69.2627
1768.85 2.22749 0 -69.1367
1464.59 2.62672 0 -75.3913
1448.46 2.65067 0 -75.1705
2031.46 1.72893 0 -59.5978
2054.07 1.72699 0 -59.906
1456.52 2.63877 0 -75.2819
1739.8 2.24855 0 -68.7435
2042.76 1.72803 0 -59.7533
1759.17 2.23466 0 -69.0081
1749.49 2.24168 0 -68.8771
1448.46 2.65067 0 -75.1705
1432.33 2.67398 0 -74.9413
2008.86 1.7303 0 -59.2779
2031.46 1.72893 0 -59.5978
1440.39 2.66241 0 -75.0569
1720.44 2.26181 0 -68.469
2020.16 1.72968 0 -59.4393
1739.8 2.24855 0 -68.7435
1730.12 2.25526 0 -68.6075
1432.33 2.67398 0 -74.9413
1416.2 2.69663 0 -74.704
1986.26 1.73111 0 -58.9466
2008.86 1.7303 0 -59.2779
1424.26 2.68539 0 -74.8237
1701.07 2.27446 0 -68.1846
1997.56 1.73078 0 -59.1137
1720.44 2.26181 0 -68.469
1710.75 2.26821 0 -68.328
1416.2 2.69663 0 -74.704
1400.07 2.71863 0 -74.4585
1963.66 1.73136 0 -58.6039
1986.26 1.73111 0 -58.9466
1408.13 2.70771 0 -74.5823
1681.71 2.28649 0 -67.8905
1974.96 1.7313 0 -58.7766
1701.07 2.27446 0 -68.1846
1691.39 2.28055 0 -68.0388
1400.07 2.71863 0 -74.4585
1383.94 2.73998 0 -74.2051
1941.06 1.73104 0 -58.25
1963.66 1.73136 0 -58.6039
1392 2.72939 0 -74.3328
1662.35 2.2979 0 -67.5868
1952.36 1.73127 0 -58.4283
1681.71 2.28649 0 -67.8905
1672.03 2.29227 0 -67.7398
1383.94 2.73998 0 -74.2051
1367.81 2.76068 0 -73.9437
1918.46 1.73016 0 -57.885
1941.06 1.73104 0 -58.25
1375.88 2.75041 0 -74.0754
1642.99 2.3087 0 -67.2736
1929.76 1.73067 0 -58.0689
1662.35 2.2979 0 -67.5868
1652.67 2.30338 0 -67.4313
1367.81 2.76068 0 -73.9437
1351.68 2.78072 0 -73.6745
1895.86 1.72871 0 -57.5091
1918.46 1.73016 0 -57.885
1359.75 2.77078 0 -73.8101
1623.63 2.31887 0 -66.9509
1907.16 1.72951 0 -57.6984
1642.99 2.3087 0 -67.2736
1633.31 2.31386 0 -67.1134
1351.68 2.78072 0 -73.6745
1335.56 2.80012 0 -73.3976
1873.27 1.72671 0 -57.1223
1895.86 1.72871 0 -57.5091
1343.62 2.7905 0 -73.537
1604.27 2.32843 0 -66.6191
1884.57 1.72778 0 -57.317
1623.63 2.31887 0 -66.9509
1613.95 2.32373 0 -66.7862
1335.56 2.80012 0 -73.3976
1319.43 2.81886 0 -73.1131
1850.68 1.72414 0 -56.7248
1873.27 1.72671 0 -57.1223
1327.5 2.80957 0 -73.2563
1584.91 2.33738 0 -66.278
1861.97 1.7255 0 -56.9249
1604.27 2.32843 0 -66.6191
1594.59 2.33298 0 -66.4497
1319.43 2.81886 0 -73.1131
1303.31 2.83696 0 -72.821
1828.08 1.72102 0 -56.3168
1850.68 1.72414 0 -56.7248
1311.37 2.82799 0 -72.9679
1565.55 2.34571 0 -65.9279
1839.38 1.72265 0 -56.5221
1584.91 2.33738 0 -66.278
1575.23 2.34162 0 -66.1041
1303.31 2.83696 0 -72.821
1287.19 2.85441 0 -72.5214
1805.49 1.71734 0 -55.8983
1828.08 1.72102 0 -56.3168
1295.25 2.84576 0 -72.6721
1546.19 2.35342 0 -65.5689
1816.79 1.71925 0 -56.1089
1565.55 2.34571 0 -65.9279
1555.87 2.34964 0 -65.7495
1287.19 2.85441 0 -72.5214
1271.06 2.87121 0 -72.2145
1782.9 1.7131 0 -55.4696
1805.49 1.71734 0 -55.8983
1279.12 2.86289 0 -72.3689
1526.84 2.36053 0 -65.201
1794.2 1.71529 0 -55.6852
1546.19 2.35342 0 -65.5689
1536.52 2.35705 0 -65.386
1271.06 2.87121 0 -72.2145
1254.94 2.88736 0 -71.9003
1760.31 1.7083 0 -55.0306
1782.9 1.7131 0 -55.4696
1263 2.87937 0 -72.0583
1507.48 2.36702 0 -64.8244
1771.61 1.71077 0 -55.2513
1526.84 2.36053 0 -65.201
1517.16 2.36385 0 -65.0137
1254.94 2.88736 0 -71.9003
1238.82 2.90287 0 -71.579
1737.72 1.70296 0 -54.5816
1760.31 1.7083 0 -55.0306
1246.88 2.8952 0 -71.7406
1488.13 2.3729 0 -64.4391
1749.02 1.7057 0 -54.8074
1507.48 2.36702 0 -64.8244
1497.81 2.37004 0 -64.6328
1238.82 2.90287 0 -71.579
1222.7 2.91774 0 -71.2506
1715.14 1.69706 0 -54.1227
1737.72 1.70296 0 -54.5816
1230.76 2.91039 0 -71.4157
1468.78 2.37818 0 -64.0454
1726.43 1.70008 0 -54.3534
1488.13 2.3729 0 -64.4391
1478.45 2.37562 0 -64.2433
1222.7 2.91774 0 -71.2506
1206.58 2.93197 0 -70.9152
1692.55 1.69061 0 -53.654
1715.14 1.69706 0 -54.1227
1214.64 2.92493 0 -71.0837
1449.43 2.38285 0 -63.6433
1703.84 1.6939 0 -53.8895
1468.78 2.37818 0 -64.0454
1459.1 2.38059 0 -63.8454
1206.58 2.93197 0 -70.9152
1190.46 2.94555 0 -70.5729
1669.97 1.68362 0 -53.1756
1692.55 1.69061 0 -53.654
1198.52 2.93884 0 -70.7449
1430.07 2.38692 0 -63.2329
1681.26 1.68718 0 -53.416
1449.43 2.38285 0 -63.6433
1439.75 2.38496 0 -63.4392
1190.46 2.94555 0 -70.5729
1174.34 2.9585 0 -70.2237
1647.39 1.67608 0 -52.6877
1669.97 1.68362 0 -53.1756
1182.4 2.95211 0 -70.3991
1410.72 2.39039 0 -62.8144
1658.68 1.67992 0 -52.9328
1430.07 2.38692 0 -63.2329
1420.4 2.38873 0 -63.0247
1174.34 2.9585 0 -70.2237
1158.22 2.97082 0 -69.8679
1624.8 1.66801 0 -52.1904
1647.39 1.67608 0 -52.6877
1166.28 2.96474 0 -70.0467
1391.38 2.39326 0 -62.3878
1636.09 1.67211 0 -52.4402
1410.72 2.39039 0 -62.8144
1401.05 2.3919 0 -62.6021
1158.22 2.97082 0 -69.8679
1142.1 2.9825 0 -69.5055
1602.22 1.6594 0 -51.6838
1624.8 1.66801 0 -52.1904
1150.16 2.97673 0 -69.6875
1372.03 2.39553 0 -61.9532
1613.51 1.66377 0 -51.9382
1391.38 2.39326 0 -62.3878
1381.7 2.39447 0 -62.1715
1142.1 2.9825 0 -69.5055
1125.99 2.99355 0 -69.1365
1579.64 1.65025 0 -51.1681
1602.22 1.6594 0 -51.6838
1134.04 2.9881 0 -69.3218
1352.68 2.39721 0 -61.5109
1590.93 1.65489 0 -51.4271
1372.03 2.39553 0 -61.9532
1362.35 2.39644 0 -61.733
1125.99 2.99355 0 -69.1365
1109.87 3.00397 0 -68.7611
1557.07 1.64058 0 -50.6434
1579.64 1.65025 0 -51.1681
1117.93 2.99883 0 -68.9496
1333.33 2.3983 0 -61.0608
1568.36 1.64548 0 -50.9068
1352.68 2.39721 0 -61.5109
1343.01 2.39783 0 -61.2868
1109.87 3.00397 0 -68.7611
1093.76 3.01376 0 -68.3794
1534.49 1.63037 0 -50.1097
1557.07 1.64058 0 -50.6434
1101.81 3.00894 0 -68.5711
1313.99 2.39881 0 -60.603
1545.78 1.63554 0 -50.3777
1333.33 2.3983 0 -61.0608
1323.66 2.39863 0 -60.8328
1093.76 3.01376 0 -68.3794
1077.64 3.02293 0 -67.9914
1511.91 1.61965 0 -49.5674
1534.49 1.63037 0 -50.1097
1085.7 3.01843 0 -68.1862
1294.65 2.39873 0 -60.1378
1523.2 1.62508 0 -49.8396
1313.99 2.39881 0 -60.603
1304.32 2.39884 0 -60.3714
1077.64 3.02293 0 -67.9914
1061.53 3.03149 0 -67.5973
1489.34 1.6084 0 -49.0164
1511.91 1.61965 0 -49.5674
1069.58 3.02729 0 -67.7951
1275.3 2.39807 0 -59.6652
1500.63 1.61409 0 -49.293
1294.65 2.39873 0 -60.1378
1284.97 2.39847 0 -59.9025
1061.53 3.03149 0 -67.5973
1045.41 3.03942 0 -67.1971
1466.77 1.59664 0 -48.4569
1489.34 1.6084 0 -49.0164
1053.47 3.03553 0 -67.398
1255.96 2.39684 0 -59.1854
1478.05 1.60259 0 -48.7377
1275.3 2.39807 0 -59.6652
1265.63 2.39753 0 -59.4262
1045.41 3.03942 0 -67.1971
1029.3 3.04674 0 -66.7909
1444.19 1.58437 0 -47.8891
1466.77 1.59664 0 -48.4569
1037.36 3.04316 0 -66.9948
1236.62 2.39503 0 -58.6983
1455.48 1.59057 0 -48.174
1255.96 2.39684 0 -59.1854
1246.29 2.396 0 -58.9427
1029.3 3.04674 0 -66.7909
1013.19 3.05345 0 -66.3789
1421.62 1.5716 0 -47.313
1444.19 1.58437 0 -47.8891
1021.24 3.05017 0 -66.5856
1217.28 2.39265 0 -58.2042
1432.91 1.57805 0 -47.602
1236.62 2.39503 0 -58.6983
1226.95 2.39391 0 -58.4521
1013.19 3.05345 0 -66.3789
997.078 3.05955 0 -65.9611
1399.05 1.55832 0 -46.7288
1421.62 1.5716 0 -47.313
1005.13 3.05658 0 -66.1707
1197.94 2.38971 0 -57.7032
1410.34 1.56502 0 -47.0219
1217.28 2.39265 0 -58.2042
1207.61 2.39125 0 -57.9545
997.078 3.05955 0 -65.9611
980.967 3.06505 0 -65.5376
1376.49 1.54454 0 -46.1366
1399.05 1.55832 0 -46.7288
989.022 3.06237 0 -65.75
1178.6 2.38621 0 -57.1953
1387.77 1.55149 0 -46.4337
1197.94 2.38971 0 -57.7032
1188.27 2.38803 0 -57.4501
980.967 3.06505 0 -65.5376
964.857 3.06994 0 -65.1084
1353.92 1.53028 0 -45.5366
1376.49 1.54454 0 -46.1366
972.912 3.06757 0 -65.3237
1159.26 2.38215 0 -56.6807
1365.2 1.53747 0 -45.8376
1178.6 2.38621 0 -57.1953
1168.93 2.38425 0 -56.9388
964.857 3.06994 0 -65.1084
948.748 3.07424 0 -64.6738
1331.35 1.51552 0 -44.9289
1353.92 1.53028 0 -45.5366
956.803 3.07217 0 -64.8918
1139.93 2.37753 0 -56.1595
1342.63 1.52296 0 -45.2337
1159.26 2.38215 0 -56.6807
1149.59 2.37991 0 -56.4209
948.748 3.07424 0 -64.6738
932.64 3.07795 0 -64.2338
1308.79 1.50029 0 -44.3136
1331.35 1.51552 0 -44.9289
940.694 3.07617 0 -64.4545
1120.59 2.37237 0 -55.6317
1320.07 1.50797 0 -44.6222
1139.93 2.37753 0 -56.1595
1130.26 2.37502 0 -55.8964
932.64 3.07795 0 -64.2338
916.532 3.08106 0 -63.7884
1286.22 1.48458 0 -43.6908
1308.79 1.50029 0 -44.3136
924.586 3.07958 0 -64.0117
1101.25 2.36667 0 -55.0976
1297.5 1.49249 0 -44.0031
1120.59 2.37237 0 -55.6317
1110.92 2.36959 0 -55.3655
916.532 3.08106 0 -63.7884
900.425 3.08359 0 -63.3378
1263.66 1.46839 0 -43.0607
1286.22 1.48458 0 -43.6908
908.478 3.0824 0 -63.5638
1081.92 2.36043 0 -54.5573
1274.94 1.47654 0 -43.3767
1101.25 2.36667 0 -55.0976
1091.59 2.36362 0 -54.8282
900.425 3.08359 0 -63.3378
884.318 3.08554 0 -62.8821
1241.1 1.45175 0 -42.4234
1263.66 1.46839 0 -43.0607
892.371 3.08463 0 -63.1106
1062.59 2.35365 0 -54.0107
1252.38 1.46013 0 -42.743
1081.92 2.36043 0 -54.5573
1072.25 2.35711 0 -54.2847
884.318 3.08554 0 -62.8821
868.212 3.0869 0 -62.4213
1218.54 1.43464 0 -41.7791
1241.1 1.45175 0 -42.4234
876.265 3.08629 0 -62.6523
1043.25 2.34634 0 -53.4581
1229.82 1.44325 0 -42.1021
1062.59 2.35365 0 -54.0107
1052.92 2.35006 0 -53.7351
868.212 3.0869 0 -62.4213
852.107 3.0877 0 -61.9556
1195.98 1.41708 0 -41.1277
1218.54 1.43464 0 -41.7791
860.159 3.08737 0 -62.189
1023.92 2.33852 0 -52.8995
1207.26 1.42592 0 -41.4543
1043.25 2.34634 0 -53.4581
1033.59 2.3425 0 -53.1795
852.107 3.0877 0 -61.9556
836.002 3.08793 0 -61.485
1173.42 1.39907 0 -40.4696
1195.98 1.41708 0 -41.1277
844.054 3.08788 0 -61.7209
1004.59 2.33017 0 -52.3351
1184.7 1.40813 0 -40.7995
1023.92 2.33852 0 -52.8995
1014.26 2.33441 0 -52.618
836.002 3.08793 0 -61.485
819.898 3.08759 0 -61.0096
1150.86 1.38062 0 -39.8048
1173.42 1.39907 0 -40.4696
827.95 3.08783 0 -61.2479
985.261 2.32131 0 -51.765
1162.14 1.3899 0 -40.138
1004.59 2.33017 0 -52.3351
994.926 2.3258 0 -52.0508
819.898 3.08759 0 -61.0096
803.794 3.08669 0 -60.5296
1128.31 1.36174 0 -39.1335
1150.86 1.38062 0 -39.8048
811.846 3.08721 0 -60.7702
965.932 2.31194 0 -51.1893
1139.58 1.37123 0 -39.4699
985.261 2.32131 0 -51.765
975.596 2.31668 0 -51.4778
803.794 3.08669 0 -60.5296
787.691 3.08523 0 -60.045
1105.75 1.34242 0 -38.4557
1128.31 1.36174 0 -39.1335
795.743 3.08603 0 -60.2878
946.604 2.30206 0 -50.608
1117.03 1.35213 0 -38.7954
965.932 2.31194 0 -51.1893
956.268 2.30706 0 -50.8993
787.691 3.08523 0 -60.045
771.589 3.08323 0 -59.5558
1083.2 1.32269 0 -37.7716
1105.75 1.34242 0 -38.4557
779.64 3.0843 0 -59.801
927.276 2.29169 0 -50.0214
1094.47 1.33261 0 -38.1144
946.604 2.30206 0 -50.608
936.94 2.29694 0 -50.3154
771.589 3.08323 0 -59.5558
755.487 3.08068 0 -59.0623
1060.64 1.30254 0 -37.0813
1083.2 1.32269 0 -37.7716
763.538 3.08202 0 -59.3096
907.949 2.28083 0 -49.4295
1071.92 1.31267 0 -37.4272
927.276 2.29169 0 -50.0214
917.613 2.28632 0 -49.7261
755.487 3.08068 0 -59.0623
739.386 3.07758 0 -58.5645
1038.09 1.28198 0 -36.3851
1060.64 1.30254 0 -37.0813
747.437 3.0792 0 -58.814
888.623 2.26949 0 -48.8324
1049.37 1.29231 0 -36.7339
907.949 2.28083 0 -49.4295
898.286 2.27522 0 -49.1316
739.386 3.07758 0 -58.5645
723.286 3.07395 0 -58.0625
1015.54 1.26102 0 -35.6829
1038.09 1.28198 0 -36.3851
731.336 3.07583 0 -58.314
869.298 2.25766 0 -48.2302
1026.82 1.27155 0 -36.0347
888.623 2.26949 0 -48.8324
878.961 2.26363 0 -48.5319
723.286 3.07395 0 -58.0625
707.186 3.06979 0 -57.5563
992.991 1.23966 0 -34.9749
1015.54 1.26102 0 -35.6829
715.236 3.07194 0 -57.8099
849.974 2.24536 0 -47.6231
1004.27 1.25039 0 -35.3296
869.298 2.25766 0 -48.2302
859.636 2.25157 0 -47.9273
707.186 3.06979 0 -57.5563
691.086 3.0651 0 -57.0461
970.442 1.21792 0 -34.2613
992.991 1.23966 0 -34.9749
699.136 3.06751 0 -57.3017
830.65 2.23259 0 -47.0112
981.716 1.22884 0 -34.6188
849.974 2.24536 0 -47.6231
840.312 2.23903 0 -47.3178
691.086 3.0651 0 -57.0461
674.988 3.05989 0 -56.532
947.894 1.1958 0 -33.5421
970.442 1.21792 0 -34.2613
683.037 3.06256 0 -56.7896
811.328 2.21936 0 -46.3945
959.168 1.2069 0 -33.9024
830.65 2.23259 0 -47.0112
820.989 2.22604 0 -46.7034
674.988 3.05989 0 -56.532
658.889 3.05416 0 -56.014
925.347 1.1733 0 -32.8176
947.894 1.1958 0 -33.5421
666.938 3.05709 0 -56.2735
792.006 2.20568 0 -45.7732
936.621 1.18459 0 -33.1805
811.328 2.21936 0 -46.3945
801.667 2.21258 0 -46.0844
658.889 3.05416 0 -56.014
642.792 3.04793 0 -55.4923
902.801 1.15044 0 -32.0878
925.347 1.1733 0 -32.8176
650.84 3.05111 0 -55.7536
772.684 2.19155 0 -45.1474
914.074 1.16191 0 -32.4534
792.006 2.20568 0 -45.7732
782.345 2.19867 0 -45.4609
642.792 3.04793 0 -55.4923
626.695 3.04119 0 -54.9669
880.257 1.12722 0 -31.3529
902.801 1.15044 0 -32.0878
634.743 3.04462 0 -55.2301
753.364 2.17698 0 -44.5172
891.529 1.13887 0 -31.721
772.684 2.19155 0 -45.1474
763.024 2.18432 0 -44.8329
626.695 3.04119 0 -54.9669
610.598 3.03394 0 -54.438
857.713 1.10364 0 -30.613
880.257 1.12722 0 -31.3529
618.646 3.03763 0 -54.7029
734.044 2.16197 0 -43.8828
868.984 1.11547 0 -30.9836
753.364 2.17698 0 -44.5172
743.704 2.16953 0 -44.2005
610.598 3.03394 0 -54.438
594.502 3.02621 0 -53.9055
835.17 1.07973 0 -29.8682
857.713 1.10364 0 -30.613
602.55 3.03014 0 -54.1722
714.725 2.14653 0 -43.2441
846.441 1.09173 0 -30.2412
734.044 2.16197 0 -43.8828
724.385 2.1543 0 -43.5639
594.502 3.02621 0 -53.9055
578.406 3.01798 0 -53.3697
812.628 1.05548 0 -29.1186
835.17 1.07973 0 -29.8682
586.454 3.02215 0 -53.638
695.407 2.13067 0 -42.6014
823.899 1.06765 0 -29.494
714.725 2.14653 0 -43.2441
705.066 2.13865 0 -42.9232
578.406 3.01798 0 -53.3697
562.311 3.00927 0 -52.8306
790.087 1.0309 0 -28.3644
812.628 1.05548 0 -29.1186
570.359 3.01369 0 -53.1006
676.09 2.11439 0 -41.9547
801.357 1.04323 0 -28.7421
695.407 2.13067 0 -42.6014
685.748 2.12258 0 -42.2785
562.311 3.00927 0 -52.8306
546.217 3.00008 0 -52.2883
767.547 1.00601 0 -27.6058
790.087 1.0309 0 -28.3644
554.264 3.00474 0 -52.5598
656.773 2.09771 0 -41.3042
778.817 1.0185 0 -27.9857
676.09 2.11439 0 -41.9547
666.431 2.1061 0 -41.6299
546.217 3.00008 0 -52.2883
530.123 2.99043 0 -51.7429
745.008 0.980804 0 -26.8428
767.547 1.00601 0 -27.6058
538.17 2.99531 0 -52.0159
637.457 2.08062 0 -40.6499
756.277 0.993445 0 -27.2248
656.773 2.09771 0 -41.3042
647.115 2.08921 0 -40.9775
530.123 2.99043 0 -51.7429
514.029 2.9803 0 -51.1944
722.47 0.955295 0 -26.0755
745.008 0.980804 0 -26.8428
522.076 2.98542 0 -51.469
618.141 2.06314 0 -39.992
733.738 0.968087 0 -26.4597
637.457 2.08062 0 -40.6499
627.799 2.07193 0 -40.3214
514.029 2.9803 0 -51.1944
497.936 2.96971 0 -50.6431
699.932 0.929492 0 -25.3042
722.47 0.955295 0 -26.0755
505.983 2.97506 0 -50.9191
598.827 2.04527 0 -39.3306
711.201 0.94243 0 -25.6904
618.141 2.06314 0 -39.992
608.484 2.05425 0 -39.6618
497.936 2.96971 0 -50.6431
481.844 2.95867 0 -50.0889
677.396 0.903403 0 -24.5289
699.932 0.929492 0 -25.3042
489.89 2.96425 0 -50.3663
579.513 2.02702 0 -38.6659
688.664 0.916482 0 -24.917
598.827 2.04527 0 -39.3306
589.169 2.03619 0 -38.9987
481.844 2.95867 0 -50.0889
465.752 2.94718 0 -49.5319
654.86 0.877035 0 -23.7497
677.396 0.903403 0 -24.5289
473.798 2.95298 0 -49.8107
560.199 2.00839 0 -37.9978
666.128 0.890253 0 -24.1398
579.513 2.02702 0 -38.6659
569.856 2.01775 0 -38.3322
465.752 2.94718 0 -49.5319
449.66 2.93524 0 -48.9724
632.326 0.850399 0 -22.9668
654.86 0.877035 0 -23.7497
457.706 2.94127 0 -49.2525
540.886 1.9894 0 -37.3265
643.593 0.86375 0 -23.3587
560.199 2.00839 0 -37.9978
550.543 1.99894 0 -37.6625
449.66 2.93524 0 -48.9724
433.569 2.92287 0 -48.4103
609.792 0.823502 0 -22.1804
632.326 0.850399 0 -22.9668
441.615 2.92911 0 -48.6916
521.574 1.97005 0 -36.6522
621.059 0.836982 0 -22.574
540.886 1.9894 0 -37.3265
531.23 1.97977 0 -36.9897
433.569 2.92287 0 -48.4103
417.479 2.91006 0 -47.8457
587.259 0.796353 0 -21.3904
609.792 0.823502 0 -22.1804
425.524 2.91652 0 -48.1283
502.263 1.95035 0 -35.9749
598.525 0.809958 0 -21.7858
521.574 1.97005 0 -36.6522
511.919 1.96024 0 -36.3139
417.479 2.91006 0 -47.8457
401.388 2.89682 0 -47.2788
564.727 0.768961 0 -20.5972
587.259 0.796353 0 -21.3904
409.433 2.90349 0 -47.5625
482.952 1.9303 0 -35.2948
575.993 0.782687 0 -20.9942
502.263 1.95035 0 -35.9749
492.607 1.94037 0 -35.6352
401.388 2.89682 0 -47.2788
385.298 2.88316 0 -46.7096
542.196 0.741334 0 -19.8007
564.727 0.768961 0 -20.5972
393.343 2.89004 0 -46.9945
463.642 1.90992 0 -34.612
553.461 0.755176 0 -20.1993
482.952 1.9303 0 -35.2948
473.297 1.92015 0 -34.9537
385.298 2.88316 0 -46.7096
369.209 2.86908 0 -46.1383
519.665 0.713483 0 -19.0012
542.196 0.741334 0 -19.8007
377.254 2.87617 0 -46.4242
444.332 1.8892 0 -33.9265
530.93 0.727436 0 -19.4013
463.642 1.90992 0 -34.612
453.987 1.8996 0 -34.2696
369.209 2.86908 0 -46.1383
353.12 2.85458 0 -45.565
497.135 0.685416 0 -18.1987
519.665 0.713483 0 -19.0012
361.164 2.86188 0 -45.8519
425.023 1.86816 0 -33.2386
508.4 0.699476 0 -18.6003
444.332 1.8892 0 -33.9265
434.677 1.87872 0 -33.5829
353.12 2.85458 0 -45.565
337.031 2.83967 0 -44.9897
474.606 0.657146 0 -17.3934
497.135 0.685416 0 -18.1987
345.076 2.84717 0 -45.2776
405.714 1.8468 0 -32.5483
485.87 0.671306 0 -17.7964
425.023 1.86816 0 -33.2386
415.368 1.85752 0 -32.8938
337.031 2.83967 0 -44.9897
320.943 2.82436 0 -44.4125
452.077 0.628678 0 -16.5854
474.606 0.657146 0 -17.3934
328.987 2.83206 0 -44.7013
386.406 1.82513 0 -31.8558
463.341 0.642935 0 -16.9897
405.714 1.8468 0 -32.5483
396.06 1.836 0 -32.2023
320.943 2.82436 0 -44.4125
304.855 2.80868 0 -43.8336
429.548 0.600035 0 -15.7749
452.077 0.628678 0 -16.5854
312.899 2.81656 0 -44.1232
367.098 1.80316 0 -31.1612
440.813 0.614377 0 -16.1805
386.406 1.82513 0 -31.8558
376.752 1.81418 0 -31.5087
304.855 2.80868 0 -43.8336
288.768 2.79269 0 -43.2529
407.02 0.57122 0 -14.9618
429.548 0.600035 0 -15.7749
296.812 2.80072 0 -43.5434
347.79 1.7809 0 -30.4645
418.284 0.58565 0 -15.3686
367.098 1.80316 0 -31.1612
357.444 1.79206 0 -30.8131
288.768 2.79269 0 -43.2529
272.682 2.77654 0 -42.6704
384.491 0.542256 0 -14.1465
407.02 0.57122 0 -14.9618
280.725 2.78462 0 -42.9619
328.483 1.75838 0 -29.7658
395.756 0.556748 0 -14.5545
347.79 1.7809 0 -30.4645
338.137 1.76968 0 -30.1154
272.682 2.77654 0 -42.6704
256.596 2.76055 0 -42.0857
361.963 0.513196 0 -13.329
384.491 0.542256 0 -14.1465
264.639 2.7685 0 -42.3783
309.177 1.73571 0 -29.0651
373.227 0.527763 0 -13.738
328.483 1.75838 0 -29.7658
318.83 1.74705 0 -29.4157
256.596 2.76055 0 -42.0857
240.513 2.74547 0 -41.4979
339.434 0.483886 0 -12.5094
361.963 0.513196 0 -13.329
248.554 2.75282 0 -41.7923
289.872 1.71295 0 -28.3619
350.698 0.498508 0 -12.9195
309.177 1.73571 0 -29.0651
299.524 1.72434 0 -28.7139
240.513 2.74547 0 -41.4979
224.432 2.73264 0 -40.9052
316.907 0.454879 0 -11.6882
339.434 0.483886 0 -12.5094
232.472 2.73865 0 -41.2023
270.571 1.69062 0 -27.6552
328.17 0.469529 0 -12.0989
289.872 1.71295 0 -28.3619
280.221 1.70168 0 -28.0091
224.432 2.73264 0 -40.9052
208.356 2.72514 0 -40.3029
294.382 0.424516 0 -10.8652
316.907 0.454879 0 -11.6882
216.393 2.72792 0 -40.6057
251.276 1.66906 0 -26.9421
305.644 0.439464 0 -11.2772
270.571 1.69062 0 -27.6552
260.923 1.67976 0 -27.2996
208.356 2.72514 0 -40.3029
192.287 2.72767 0 -39.6838
271.872 0.3968 0 -10.0425
294.382 0.424516 0 -10.8652
200.321 2.72471 0 -39.9961
231.999 1.65032 0 -26.218
283.124 0.411445 0 -10.4531
251.276 1.66906 0 -26.9421
241.634 1.65909 0 -26.582
192.287 2.72767 0 -39.6838
176.233 2.7513 0 -39.0305
249.386 0.360628 0 -9.21807
271.872 0.3968 0 -10.0425
184.257 2.73595 0 -39.3631
212.75 1.63562 0 -25.4713
260.625 0.377422 0 -9.63181
231.999 1.65032 0 -26.218
222.37 1.64264 0 -25.8482
176.233 2.7513 0 -39.0305
160.188 2.80837 0 -38.3192
226.986 0.340118 0 -8.40184
249.386 0.360628 0 -9.21807
168.211 2.77418 0 -38.684
193.568 1.63196 0 -24.6839
238.17 0.354594 0 -8.80579
212.75 1.63562 0 -25.4713
203.146 1.63122 0 -25.0852
160.188 2.80837 0 -38.3192
144.178 2.93415 0 -37.4947
204.701 0.272767 0 -7.58171
226.986 0.340118 0 -8.40184
152.174 2.86096 0 -37.9263
174.491 1.64342 0 -23.8175
215.826 0.299356 0 -7.99825
193.568 1.63196 0 -24.6839
184.016 1.63728 0 -24.2619
144.178 2.93415 0 -37.4947
128.147 3.14429 0 -36.4992
182.796 0.28803 0 -6.80105
204.701 0.272767 0 -7.58171
136.175 3.02393 0 -37.0226
155.645 1.68987 0 -22.8126
193.682 0.302447 0 -7.17296
174.491 1.64342 0 -23.8175
165.022 1.65659 0 -23.343
128.147 3.14429 0 -36.4992
112.163 3.53985 0 -35.1913
161.342 0.0667397 0 -6.00268
182.796 0.28803 0 -6.80105
120.133 3.32069 0 -35.8973
137.108 1.78537 0 -21.5712
171.999 0.139084 0 -6.43206
155.645 1.68987 0 -22.8126
146.348 1.74072 0 -22.2189
112.163 3.53985 0 -35.1913
95.9016 4.04157 0 -33.5085
141.291 0.247263 0 -5.35427
161.342 0.0667397 0 -6.00268
104.115 3.76174 0 -34.3996
119.259 1.97374 0 -19.9202
151.089 0.269509 0 -5.59951
137.108 1.78537 0 -21.5712
128.036 1.84148 0 -20.8393
95.9016 4.04157 0 -33.5085
79.4771 4.8952 0 -31.2368
122.75 -0.687277 0 -4.62369
141.291 0.247263 0 -5.35427
87.6657 4.46798 0 -32.4614
102.03 2.30262 0 -17.7211
131.757 -0.420573 0 -5.13313
119.259 1.97374 0 -19.9202
110.647 2.16822 0 -18.8457
79.4771 4.8952 0 -31.2368
61.3688 5.2041 0 -28.7937
108.691 0.224941 0 -4.36434
122.75 -0.687277 0 -4.62369
70.8312 5.07393 0 -29.9978
86.3706 2.81975 0 -14.579
115.114 0.32071 0 -4.16136
102.03 2.30262 0 -17.7211
93.7821 2.42642 0 -16.4267
61.3688 5.2041 0 -28.7937
41.6274 5.03978 0 -26.9062
99.7067 -3.44011 0 -3.29497
108.691 0.224941 0 -4.36434
51.6035 5.54444 0 -27.6533
70.1421 3.57716 0 -11.1703
102.996 -2.72907 0 -4.66996
86.3706 2.81975 0 -14.579
78.8552 3.37621 0 -12.5876
41.6274 5.03978 0 -26.9062
15.7421 -2.85316 0 -30.5851
108.047 3.02222 0 -0.639831
99.7067 -3.44011 0 -3.29497
30.0089 2.25937 0 -27.5897
52.3071 2.97268 0 -8.76433
101.868 2.0835 0 -1.38763
70.1421 3.57716 0 -11.1703
60.9873 3.35743 0 -10.171
15.7421 -2.85316 0 -30.5851
-6.2748 -34.5996 0 -47.186
152.251 13.6564 0 20.4335
108.047 3.02222 0 -0.639831
3.35253 -11.0784 0 -36.2042
6.35742 -19.2318 0 -27.3525
119.948 -5.04509 0 2.21507
52.3071 2.97268 0 -8.76433
37.2466 -0.833263 0 -12.0111
-6.2748 -34.5996 0 -47.186
-0.0384025 -158.513 0 -52.9216
18.5655 -197.645 0 -134.327
152.251 13.6564 0 20.4335
-10.1462 -84.9153 0 -57.3849
-19.981 -199.221 0 -82.3026
159.149 36.6497 0 7.19922
6.35742 -19.2318 0 -27.3525
-16.3503 -66.2035 0 -51.4871
      </DataArray> 
      <DataArray type="Float64" NumberOfComponents="4" Name="GreenStrain" format="ascii">
-0.00297403 -1.11022e-16 0.00127459 -0.00101153
-0.00212056 0.000672146 0.000620747 3.90001e-05
-0.00152333 0.000302183 0.00052335 -0.000112939
-0.00135283 0 0.000579783 -7.69037e-05
-0.00235883 0.000749656 0.000689646 -0.000142189
-0.0019263 0.000468213 0.000624895 -0.000146435
-0.00144858 0.000142825 0.000559608 -0.000131093
-0.00158954 0 0.000681232 -0.000245368
-0.00185834 0.000316956 0.000660593 -0.00022986
-0.00212056 0.000672146 0.000620747 3.90001e-05
-0.00209628 0.000649456 0.000620067 1.2003e-05
-0.00158264 0.000428247 0.000494741 -5.36281e-05
-0.00152333 0.000302183 0.00052335 -0.000112939
-0.00208979 0.000620154 0.000629842 1.69744e-05
-0.00188332 0.000548783 0.000571944 -2.43302e-05
-0.0015703 0.00039124 0.000505311 -8.1341e-05
-0.0019263 0.000468213 0.000624895 -0.000146435
-0.00189935 0.000530268 0.00058675 -5.90808e-05
-0.00209628 0.000649456 0.000620067 1.2003e-05
-0.00212615 0.000631088 0.000640741 5.58159e-06
-0.00157492 0.000463445 0.000476347 -1.98932e-05
-0.00158264 0.000428247 0.000494741 -5.36281e-05
-0.00211631 0.00064815 0.000629211 1.21804e-05
-0.00186368 0.0005583 0.000559447 -2.42271e-06
-0.00157823 0.000450149 0.000483464 -3.14548e-05
-0.00188332 0.000548783 0.000571944 -2.43302e-05
-0.00187312 0.000555628 0.00056464 -1.17659e-05
-0.00212615 0.000631088 0.000640741 5.58159e-06
-0.00213834 0.000643448 0.000640668 -6.60763e-07
-0.00156381 0.00046816 0.000469563 -1.24821e-05
-0.00157492 0.000463445 0.000476347 -1.98932e-05
-0.00213157 0.000633255 0.000642135 -1.13623e-06
-0.00185288 0.000557082 0.000555342 6.80237e-07
-0.00157076 0.000468071 0.000472582 -1.48967e-05
-0.00186368 0.0005583 0.000559447 -2.42271e-06
-0.00185645 0.000558243 0.000556373 1.68504e-06
-0.00213834 0.000643448 0.000640668 -6.60763e-07
-0.00214454 0.000641115 0.000644326 4.32574e-07
-0.00155099 0.000467296 0.000464441 -1.22311e-05
-0.00156381 0.00046816 0.000469563 -1.24821e-05
-0.00214361 0.00064444 0.000642503 1.07458e-06
-0.00184748 0.00055527 0.000553805 -2.64456e-06
-0.00155643 0.000467874 0.000466522 -1.16114e-05
-0.00185288 0.000557082 0.000555342 6.80237e-07
-0.00185066 0.00055613 0.0005548 -1.46312e-06
-0.00214454 0.000641115 0.000644326 4.32574e-07
-0.00214212 0.000642945 0.000642505 -4.00461e-07
-0.00154126 0.000463824 0.00046176 -1.48447e-05
-0.00155099 0.000467296 0.000464441 -1.22311e-05
-0.00214331 0.000641357 0.000643696 -6.84327e-07
-0.00184075 0.000552838 0.000551962 -5.67504e-06
-0.00154633 0.000465776 0.000463095 -1.36094e-05
-0.00184748 0.00055527 0.000553805 -2.64456e-06
-0.00184397 0.000554139 0.000552783 -3.99272e-06
-0.00214212 0.000642945 0.000642505 -4.00461e-07
-0.00213683 0.000640557 0.000641261 2.22155e-08
-0.00153185 0.000460454 0.000459169 -1.70206e-05
-0.00154126 0.000463824 0.00046176 -1.48447e-05
-0.00214021 0.000642304 0.000641962 1.24177e-07
-0.00183359 0.000550231 0.00055001 -8.05255e-06
-0.00153628 0.000462069 0.000460374 -1.59371e-05
-0.00184075 0.000552838 0.000551962 -5.67504e-06
-0.00183743 0.000551538 0.000551095 -7.09258e-06
-0.00213683 0.000640557 0.000641261 2.22155e-08
-0.00212829 0.000638568 0.000638454 -1.29396e-07
-0.00152339 0.000457185 0.000456943 -1.87837e-05
-0.00153185 0.000460454 0.000459169 -1.70206e-05
-0.00213264 0.000639453 0.000639936 -2.17706e-07
-0.0018253 0.000547487 0.000547632 -9.57766e-06
-0.00152766 0.000458808 0.000458079 -1.80198e-05
-0.00183359 0.000550231 0.00055001 -8.05255e-06
-0.00182947 0.000548877 0.000548824 -8.869e-06
-0.00212829 0.000638568 0.000638454 -1.29396e-07
-0.00211864 0.000635522 0.000635624 -1.47529e-08
-0.00151502 0.000454234 0.000454623 -1.98481e-05
-0.00152339 0.000457185 0.000456943 -1.87837e-05
-0.00212367 0.000637177 0.00063707 5.43381e-09
-0.00181652 0.00054466 0.000545082 -1.04783e-05
-0.00151914 0.000455669 0.000455773 -1.93689e-05
-0.0018253 0.000547487 0.000547632 -9.57766e-06
-0.001821 0.000546079 0.000546396 -1.01086e-05
-0.00211864 0.000635522 0.000635624 -1.47529e-08
-0.00210803 0.000632455 0.000632391 -3.58939e-08
-0.00150688 0.000451479 0.000452315 -2.05149e-05
-0.00151502 0.000454234 0.000454623 -1.98481e-05
-0.00211337 0.000633973 0.000634029 -6.30669e-08
-0.00180728 0.000541797 0.000542349 -1.0993e-05
-0.00151096 0.000452838 0.000453481 -2.02348e-05
-0.00181652 0.00054466 0.000545082 -1.04783e-05
-0.00181192 0.000543232 0.000543722 -1.07693e-05
-0.00210803 0.000632455 0.000632391 -3.58939e-08
-0.00209709 0.000629145 0.00062912 -7.85187e-09
-0.00149875 0.000448874 0.000449949 -2.0868e-05
-0.00150688 0.000451479 0.000452315 -2.05149e-05
-0.00210261 0.000630829 0.000630763 -3.31482e-09
-0.00179785 0.000538909 0.000539544 -1.12569e-05
-0.0015028 0.00045016 0.000451133 -2.07164e-05
-0.00180728 0.000541797 0.000542349 -1.0993e-05
-0.00180259 0.000540355 0.000540959 -1.11497e-05
-0.00209709 0.000629145 0.00062912 -7.85187e-09
-0.00208592 0.000625814 0.000625759 -8.59021e-09
-0.00149067 0.000446356 0.000447565 -2.10594e-05
-0.00149875 0.000448874 0.000449949 -2.0868e-05
-0.00209152 0.000627478 0.000627445 -1.63724e-08
-0.00178827 0.000536013 0.000536681 -1.13924e-05
-0.00149472 0.000447607 0.000448762 -2.09814e-05
-0.00179785 0.000538909 0.000539544 -1.12569e-05
-0.00179306 0.000537462 0.000538115 -1.13362e-05
-0.00208592 0.000625814 0.000625759 -8.59021e-09
-0.00207467 0.000622435 0.000622388 -2.38586e-09
-0.00148259 0.00044389 0.000445159 -2.11486e-05
-0.00149067 0.000446356 0.000447565 -2.10594e-05
-0.0020803 0.000624131 0.000624075 -1.26636e-09
-0.00177864 0.000533113 0.000533797 -1.14524e-05
-0.00148663 0.000445118 0.000446363 -2.1112e-05
-0.00178827 0.000536013 0.000536681 -1.13924e-05
-0.00178346 0.000534564 0.000535242 -1.14289e-05
-0.00207467 0.000622435 0.000622388 -2.38586e-09
-0.00206339 0.000619052 0.000619 -1.62341e-09
-0.00147452 0.000441452 0.000442745 -2.11898e-05
-0.00148259 0.00044389 0.000445159 -2.11486e-05
-0.00206903 0.000620743 0.000620695 -3.60363e-09
-0.00176897 0.000530213 0.000530897 -1.14785e-05
-0.00147856 0.000442668 0.000443953 -2.11739e-05
-0.00177864 0.000533113 0.000533797 -1.14524e-05
-0.00177381 0.000531663 0.000532347 -1.14684e-05
-0.00206339 0.000619052 0.000619 -1.62341e-09
-0.00205209 0.000615662 0.000615612 -4.4874e-10
-0.00146645 0.000439028 0.000440323 -2.1205e-05
-0.00147452 0.000441452 0.000442745 -2.11898e-05
-0.00205774 0.000617358 0.000617306 -1.42875e-10
-0.0017593 0.000527312 0.000527993 -1.14869e-05
-0.00147048 0.000440239 0.000441534 -2.11993e-05
-0.00176897 0.000530213 0.000530897 -1.14785e-05
-0.00176414 0.000528762 0.000529446 -1.1484e-05
-0.00205209 0.000615662 0.000615612 -4.4874e-10
-0.00204079 0.000612273 0.000612223 -1.40056e-10
-0.00145838 0.000436612 0.000437899 -2.12096e-05
-0.00146645 0.000439028 0.000440323 -2.1205e-05
-0.00204644 0.000613968 0.000613918 -5.67075e-10
-0.00174961 0.000524412 0.000525086 -1.14887e-05
-0.00146241 0.000437819 0.000439111 -2.12082e-05
-0.0017593 0.000527312 0.000527993 -1.14869e-05
-0.00175445 0.000525862 0.00052654 -1.14883e-05
-0.00204079 0.000612273 0.000612223 -1.40056e-10
-0.0020295 0.000608884 0.000608835 1.19649e-11
-0.0014503 0.000434198 0.000435473 -2.12094e-05
-0.00145838 0.000436612 0.000437899 -2.12096e-05
-0.00203515 0.000610579 0.000610529 1.06025e-10
-0.00173993 0.000521512 0.000522179 -1.14878e-05
-0.00145434 0.000435405 0.000436686 -2.12098e-05
-0.00174961 0.000524412 0.000525086 -1.14887e-05
-0.00174477 0.000522962 0.000523633 -1.14884e-05
-0.0020295 0.000608884 0.000608835 1.19649e-11
-0.00201821 0.000605496 0.000605447 7.67829e-11
-0.00144223 0.000431786 0.000433047 -2.12081e-05
-0.0014503 0.000434198 0.000435473 -2.12094e-05
-0.00202385 0.00060719 0.000607141 7.5335e-12
-0.00173025 0.000518613 0.000519272 -1.14864e-05
-0.00144627 0.000432992 0.000434261 -2.12088e-05
-0.00173993 0.000521512 0.000522179 -1.14878e-05
-0.00173509 0.000520062 0.000520726 -1.14871e-05
-0.00201821 0.000605496 0.000605447 7.67829e-11
-0.00200691 0.000602109 0.00060206 6.7287e-11
-0.00143416 0.000429375 0.000430621 -2.12066e-05
-0.00144223 0.000431786 0.000433047 -2.12081e-05
-0.00201256 0.000603802 0.000603753 9.8959e-11
-0.00172057 0.000515714 0.000516365 -1.14852e-05
-0.00143819 0.000430581 0.000431834 -2.12073e-05
-0.00173025 0.000518613 0.000519272 -1.14864e-05
-0.00172541 0.000517163 0.000517819 -1.14858e-05
-0.00200691 0.000602109 0.00060206 6.7287e-11
-0.00199563 0.000598722 0.000598673 6.90408e-11
-0.00142609 0.000426963 0.000428195 -2.12055e-05
-0.00143416 0.000429375 0.000430621 -2.12066e-05
-0.00200127 0.000600415 0.000600366 6.53952e-11
-0.00171088 0.000512815 0.000513458 -1.14844e-05
-0.00143012 0.000428169 0.000429408 -2.1206e-05
-0.00172057 0.000515714 0.000516365 -1.14852e-05
-0.00171572 0.000514264 0.000514912 -1.14847e-05
-0.00199563 0.000598722 0.000598673 6.90408e-11
-0.00198434 0.000595335 0.000595287 5.21127e-11
-0.00141801 0.000424552 0.000425769 -2.12048e-05
-0.00142609 0.000426963 0.000428195 -2.12055e-05
-0.00198998 0.000597028 0.00059698 6.30664e-11
-0.0017012 0.000509916 0.000510552 -1.14838e-05
-0.00142205 0.000425758 0.000426982 -2.12051e-05
-0.00171088 0.000512815 0.000513458 -1.14844e-05
-0.00170604 0.000511365 0.000512005 -1.14841e-05
-0.00198434 0.000595335 0.000595287 5.21127e-11
-0.00197305 0.000591949 0.0005919 4.64826e-11
-0.00140994 0.00042214 0.000423343 -2.12043e-05
-0.00141801 0.000424552 0.000425769 -2.12048e-05
-0.00197869 0.000593642 0.000593594 4.95946e-11
-0.00169152 0.000507017 0.000507645 -1.14835e-05
-0.00141398 0.000423346 0.000424556 -2.12045e-05
-0.0017012 0.000509916 0.000510552 -1.14838e-05
-0.00169636 0.000508466 0.000509099 -1.14837e-05
-0.00197305 0.000591949 0.0005919 4.64826e-11
-0.00196176 0.000588562 0.000588514 3.81954e-11
-0.00140187 0.000419728 0.000420917 -2.12041e-05
-0.00140994 0.00042214 0.000423343 -2.12043e-05
-0.00196741 0.000590255 0.000590207 4.18464e-11
-0.00168184 0.000504118 0.000504739 -1.14834e-05
-0.0014059 0.000420934 0.00042213 -2.12042e-05
-0.00169152 0.000507017 0.000507645 -1.14835e-05
-0.00168668 0.000505568 0.000506192 -1.14835e-05
-0.00196176 0.000588562 0.000588514 3.81954e-11
-0.00195047 0.000585176 0.000585128 3.49067e-11
-0.0013938 0.000417317 0.000418491 -2.12041e-05
-0.00140187 0.000419728 0.000420917 -2.12041e-05
-0.00195612 0.000586869 0.000586821 3.66635e-11
-0.00167216 0.000501219 0.000501833 -1.14834e-05
-0.00139783 0.000418522 0.000419704 -2.12041e-05
-0.00168184 0.000504118 0.000504739 -1.14834e-05
-0.001677 0.000502669 0.000503286 -1.14834e-05
-0.00195047 0.000585176 0.000585128 3.49067e-11
-0.00193919 0.00058179 0.000581742 3.18129e-11
-0.00138572 0.000414905 0.000416066 -2.12041e-05
-0.0013938 0.000417317 0.000418491 -2.12041e-05
-0.00194483 0.000583483 0.000583435 3.29394e-11
-0.00166248 0.000498321 0.000498927 -1.14834e-05
-0.00138976 0.000416111 0.000417278 -2.12041e-05
-0.00167216 0.000501219 0.000501833 -1.14834e-05
-0.00166732 0.00049977 0.00050038 -1.14834e-05
-0.00193919 0.00058179 0.000581742 3.18129e-11
-0.0019279 0.000578403 0.000578356 3.05161e-11
-0.00137765 0.000412493 0.00041364 -2.12041e-05
-0.00138572 0.000414905 0.000416066 -2.12041e-05
-0.00193354 0.000580097 0.000580049 3.1139e-11
-0.0016528 0.000495422 0.000496021 -1.14834e-05
-0.00138169 0.000413699 0.000414853 -2.12041e-05
-0.00166248 0.000498321 0.000498927 -1.14834e-05
-0.00165764 0.000496871 0.000497474 -1.14834e-05
-0.0019279 0.000578403 0.000578356 3.0517e-11
-0.00191661 0.000575017 0.00057497 2.9522e-11
-0.00136958 0.000410081 0.000411214 -2.12042e-05
-0.00137765 0.000412493 0.00041364 -2.12041e-05
-0.00192226 0.00057671 0.000576663 2.98396e-11
-0.00164312 0.000492523 0.000493115 -1.14835e-05
-0.00137362 0.000411287 0.000412427 -2.12041e-05
-0.0016528 0.000495422 0.000496021 -1.14834e-05
-0.00164796 0.000493972 0.000494568 -1.14834e-05
-0.00191661 0.000575017 0.00057497 2.9522e-11
-0.00190533 0.000571631 0.000571584 2.90776e-11
-0.00136151 0.000407669 0.000408789 -2.12042e-05
-0.00136958 0.000410081 0.000411214 -2.12042e-05
-0.00191097 0.000573324 0.000573277 2.92679e-11
-0.00163344 0.000489624 0.000490208 -1.14835e-05
-0.00136554 0.000408875 0.000410001 -2.12042e-05
-0.00164312 0.000492523 0.000493115 -1.14835e-05
-0.00163828 0.000491074 0.000491661 -1.14835e-05
-0.00190533 0.000571631 0.000571584 2.90776e-11
-0.00189404 0.000568245 0.000568198 2.87609e-11
-0.00135344 0.000405257 0.000406363 -2.12043e-05
-0.00136151 0.000407669 0.000408789 -2.12042e-05
-0.00189968 0.000569938 0.000569891 2.88473e-11
-0.00162376 0.000486725 0.000487302 -1.14836e-05
-0.00135747 0.000406463 0.000407576 -2.12043e-05
-0.00163344 0.000489624 0.000490208 -1.14835e-05
-0.0016286 0.000488175 0.000488755 -1.14836e-05
-0.00189404 0.000568245 0.000568198 2.87609e-11
-0.00188275 0.000564859 0.000564812 2.85828e-11
-0.00134537 0.000402845 0.000403938 -2.12044e-05
-0.00135344 0.000405257 0.000406363 -2.12043e-05
-0.0018884 0.000566552 0.000566505 2.86536e-11
-0.00161409 0.000483827 0.000484396 -1.14836e-05
-0.0013494 0.000404051 0.00040515 -2.12043e-05
-0.00162376 0.000486725 0.000487302 -1.14836e-05
-0.00161892 0.000485276 0.000485849 -1.14836e-05
-0.00188275 0.000564859 0.000564812 2.85803e-11
-0.00187147 0.000561473 0.000561426 2.843e-11
-0.0013373 0.000400433 0.000401512 -2.12044e-05
-0.00134537 0.000402845 0.000403938 -2.12044e-05
-0.00187711 0.000563166 0.000563119 2.84809e-11
-0.00160441 0.000480928 0.000481491 -1.14837e-05
-0.00134133 0.000401639 0.000402725 -2.12044e-05
-0.00161409 0.000483827 0.000484396 -1.14836e-05
-0.00160925 0.000482377 0.000482944 -1.14836e-05
-0.00187147 0.000561473 0.000561426 2.843e-11
-0.00186018 0.000558086 0.00055804 2.82981e-11
-0.00132922 0.000398021 0.000399087 -2.12045e-05
-0.0013373 0.000400433 0.000401512 -2.12044e-05
-0.00186582 0.000559779 0.000559733 2.83535e-11
-0.00159473 0.000478029 0.000478585 -1.14837e-05
-0.00133326 0.000399227 0.0004003 -2.12045e-05
-0.00160441 0.000480928 0.000481491 -1.14837e-05
-0.00159957 0.000479479 0.000480038 -1.14837e-05
-0.00186018 0.000558086 0.00055804 2.83015e-11
-0.00184889 0.0005547 0.000554654 2.81745e-11
-0.00132115 0.000395609 0.000396662 -2.12045e-05
-0.00132922 0.000398021 0.000399087 -2.12045e-05
-0.00185454 0.000556393 0.000556347 2.82243e-11
-0.00158505 0.00047513 0.000475679 -1.14837e-05
-0.00132519 0.000396815 0.000397874 -2.12045e-05
-0.00159473 0.000478029 0.000478585 -1.14837e-05
-0.00158989 0.00047658 0.000477132 -1.14837e-05
-0.00184889 0.0005547 0.000554654 2.81745e-11
-0.00183761 0.000551314 0.000551268 2.80401e-11
-0.00131308 0.000393197 0.000394237 -2.12046e-05
-0.00132115 0.000395609 0.000396662 -2.12045e-05
-0.00184325 0.000553007 0.000552961 2.80975e-11
-0.00157537 0.000472232 0.000472773 -1.14838e-05
-0.00131712 0.000394403 0.000395449 -2.12045e-05
-0.00158505 0.00047513 0.000475679 -1.14837e-05
-0.00158021 0.000473681 0.000474226 -1.14838e-05
-0.00183761 0.000551314 0.000551268 2.8041e-11
-0.00182632 0.000547928 0.000547882 2.78933e-11
-0.00130501 0.000390785 0.000391811 -2.12046e-05
-0.00131308 0.000393197 0.000394237 -2.12046e-05
-0.00183196 0.000549621 0.000549575 2.79566e-11
-0.00156569 0.000469333 0.000469867 -1.14838e-05
-0.00130905 0.000391991 0.000393024 -2.12046e-05
-0.00157537 0.000472232 0.000472773 -1.14838e-05
-0.00157053 0.000470782 0.00047132 -1.14838e-05
-0.00182632 0.000547928 0.000547882 2.78933e-11
-0.00181503 0.000544542 0.000544496 2.77326e-11
-0.00129694 0.000388372 0.000389386 -2.12046e-05
-0.00130501 0.000390785 0.000391811 -2.12046e-05
-0.00182068 0.000546235 0.000546189 2.78139e-11
-0.00155601 0.000466434 0.000466961 -1.14838e-05
-0.00130098 0.000389578 0.000390599 -2.12046e-05
-0.00156569 0.000469333 0.000469867 -1.14838e-05
-0.00156085 0.000467883 0.000468414 -1.14838e-05
-0.00181503 0.000544542 0.000544496 2.77401e-11
-0.00180375 0.000541156 0.000541111 2.75856e-11
-0.00128887 0.00038596 0.000386961 -2.12047e-05
-0.00129694 0.000388372 0.000389386 -2.12046e-05
-0.00180939 0.000542849 0.000542803 2.76518e-11
-0.00154633 0.000463535 0.000464056 -1.14839e-05
-0.00129291 0.000387166 0.000388174 -2.12047e-05
-0.00155601 0.000466434 0.000466961 -1.14838e-05
-0.00155117 0.000464985 0.000465509 -1.14839e-05
-0.00180375 0.000541156 0.000541111 2.75856e-11
-0.00179246 0.00053777 0.000537725 2.74103e-11
-0.0012808 0.000383548 0.000384536 -2.12047e-05
-0.00128887 0.00038596 0.000386961 -2.12047e-05
-0.0017981 0.000539463 0.000539418 2.75033e-11
-0.00153665 0.000460636 0.00046115 -1.14839e-05
-0.00128483 0.000384754 0.000385749 -2.12047e-05
-0.00154633 0.000463535 0.000464056 -1.14839e-05
-0.00154149 0.000462086 0.000462603 -1.14839e-05
-0.00179246 0.00053777 0.000537725 2.74169e-11
-0.00178118 0.000534384 0.000534339 2.72314e-11
-0.00127273 0.000381136 0.000382111 -2.12047e-05
-0.0012808 0.000383548 0.000384536 -2.12047e-05
-0.00178682 0.000536077 0.000536032 2.73107e-11
-0.00152697 0.000457738 0.000458245 -1.14839e-05
-0.00127676 0.000382342 0.000383324 -2.12047e-05
-0.00153665 0.000460636 0.00046115 -1.14839e-05
-0.00153181 0.000459187 0.000459697 -1.14839e-05
-0.00178118 0.000534384 0.000534339 2.72314e-11
-0.00176989 0.000530998 0.000530953 2.70839e-11
-0.00126466 0.000378724 0.000379687 -2.12048e-05
-0.00127273 0.000381136 0.000382111 -2.12047e-05
-0.00177553 0.000532691 0.000532646 2.71502e-11
-0.0015173 0.000454839 0.000455339 -1.1484e-05
-0.00126869 0.00037993 0.000380899 -2.12047e-05
-0.00152697 0.000457738 0.000458245 -1.14839e-05
-0.00152214 0.000456288 0.000456792 -1.1484e-05
-0.00176989 0.000530998 0.000530953 2.70839e-11
-0.0017586 0.000527612 0.000527567 2.68926e-11
-0.00125659 0.000376311 0.000377262 -2.12048e-05
-0.00126466 0.000378724 0.000379687 -2.12048e-05
-0.00176425 0.000529305 0.00052926 2.69862e-11
-0.00150762 0.00045194 0.000452433 -1.1484e-05
-0.00126062 0.000377518 0.000378474 -2.12048e-05
-0.0015173 0.000454839 0.000455339 -1.1484e-05
-0.00151246 0.000453389 0.000453886 -1.1484e-05
-0.0017586 0.000527612 0.000527567 2.68926e-11
-0.00174732 0.000524227 0.000524182 2.67226e-11
-0.00124852 0.000373899 0.000374837 -2.12048e-05
-0.00125659 0.000376311 0.000377262 -2.12048e-05
-0.00175296 0.00052592 0.000525875 2.67985e-11
-0.00149794 0.000449041 0.000449528 -1.1484e-05
-0.00125255 0.000375105 0.000376049 -2.12048e-05
-0.00150762 0.00045194 0.000452433 -1.1484e-05
-0.00150278 0.000450491 0.000450981 -1.1484e-05
-0.00174732 0.000524227 0.000524182 2.67226e-11
-0.00173603 0.000520841 0.000520796 2.65436e-11
-0.00124045 0.000371487 0.000372412 -2.12048e-05
-0.00124852 0.000373899 0.000374837 -2.12048e-05
-0.00174167 0.000522534 0.000522489 2.66379e-11
-0.00148826 0.000446142 0.000446623 -1.1484e-05
-0.00124448 0.000372693 0.000373625 -2.12048e-05
-0.00149794 0.000449041 0.000449528 -1.1484e-05
-0.0014931 0.000447592 0.000448075 -1.1484e-05
-0.00173603 0.000520841 0.000520796 2.65445e-11
-0.00172475 0.000517455 0.00051741 2.6364e-11
-0.00123238 0.000369075 0.000369988 -2.12049e-05
-0.00124045 0.000371487 0.000372412 -2.12048e-05
-0.00173039 0.000519148 0.000519103 2.64417e-11
-0.00147858 0.000443244 0.000443717 -1.14841e-05
-0.00123641 0.000370281 0.0003712 -2.12048e-05
-0.00148826 0.000446142 0.000446623 -1.1484e-05
-0.00148342 0.000444693 0.00044517 -1.14841e-05
-0.00172475 0.000517455 0.00051741 2.6364e-11
-0.00171346 0.000514069 0.000514025 2.61894e-11
-0.00122431 0.000366662 0.000367563 -2.12049e-05
-0.00123238 0.000369075 0.000369988 -2.12049e-05
-0.0017191 0.000515762 0.000515718 2.62749e-11
-0.00146891 0.000440345 0.000440812 -1.14841e-05
-0.00122834 0.000367868 0.000368775 -2.12049e-05
-0.00147858 0.000443244 0.000443717 -1.14841e-05
-0.00147374 0.000441794 0.000442265 -1.14841e-05
-0.00171346 0.000514069 0.000514025 2.61845e-11
-0.00170217 0.000510683 0.000510639 2.6015e-11
-0.00121624 0.00036425 0.000365139 -2.12049e-05
-0.00122431 0.000366662 0.000367563 -2.12049e-05
-0.00170782 0.000512376 0.000512332 2.60832e-11
-0.00145923 0.000437446 0.000437907 -1.14841e-05
-0.00122027 0.000365456 0.000366351 -2.12049e-05
-0.00146891 0.000440345 0.000440812 -1.14841e-05
-0.00146407 0.000438896 0.000439359 -1.14841e-05
-0.00170217 0.000510683 0.000510639 2.6015e-11
-0.00169089 0.000507298 0.000507254 2.58282e-11
-0.00120817 0.000361838 0.000362714 -2.12049e-05
-0.00121624 0.00036425 0.000365139 -2.12049e-05
-0.00169653 0.000508991 0.000508946 2.59305e-11
-0.00144955 0.000434547 0.000435001 -1.14841e-05
-0.00121221 0.000363044 0.000363926 -2.12049e-05
-0.00145923 0.000437446 0.000437907 -1.14841e-05
-0.00145439 0.000435997 0.000436454 -1.14841e-05
-0.00169089 0.000507298 0.000507254 2.58282e-11
-0.0016796 0.000503912 0.000503868 2.56602e-11
-0.0012001 0.000359425 0.00036029 -2.12049e-05
-0.00120817 0.000361838 0.000362714 -2.12049e-05
-0.00168525 0.000505605 0.000505561 2.57198e-11
-0.00143987 0.000431649 0.000432096 -1.14842e-05
-0.00120414 0.000360631 0.000361502 -2.12049e-05
-0.00144955 0.000434547 0.000435001 -1.14841e-05
-0.00144471 0.000433098 0.000433549 -1.14841e-05
-0.0016796 0.000503912 0.000503868 2.56602e-11
-0.00166832 0.000500526 0.000500483 2.5504e-11
-0.00119203 0.000357013 0.000357865 -2.12049e-05
-0.0012001 0.000359425 0.00036029 -2.12049e-05
-0.00167396 0.000502219 0.000502175 2.55936e-11
-0.0014302 0.00042875 0.000429191 -1.14842e-05
-0.00119607 0.000358219 0.000359078 -2.12049e-05
-0.00143987 0.000431649 0.000432096 -1.14842e-05
-0.00143503 0.000430199 0.000430644 -1.14842e-05
-0.00166832 0.000500526 0.000500483 2.5504e-11
-0.00165703 0.000497141 0.000497097 2.52782e-11
-0.00118396 0.0003546 0.000355441 -2.1205e-05
-0.00119203 0.000357013 0.000357865 -2.12049e-05
-0.00166268 0.000498834 0.00049879 2.54001e-11
-0.00142052 0.000425851 0.000426286 -1.14842e-05
-0.001188 0.000355807 0.000356653 -2.1205e-05
-0.0014302 0.00042875 0.000429191 -1.14842e-05
-0.00142536 0.000427301 0.000427738 -1.14842e-05
-0.00165703 0.000497141 0.000497097 2.52782e-11
-0.00164575 0.000493755 0.000493712 2.51311e-11
-0.00117589 0.000352188 0.000353017 -2.1205e-05
-0.00118396 0.0003546 0.000355441 -2.1205e-05
-0.00165139 0.000495448 0.000495404 2.51871e-11
-0.00141084 0.000422952 0.000423381 -1.14842e-05
-0.00117993 0.000353394 0.000354229 -2.1205e-05
-0.00142052 0.000425851 0.000426286 -1.14842e-05
-0.00141568 0.000424402 0.000424833 -1.14842e-05
-0.00164575 0.000493755 0.000493712 2.51311e-11
-0.00163446 0.00049037 0.000490326 2.49535e-11
-0.00116783 0.000349776 0.000350593 -2.1205e-05
-0.00117589 0.000352188 0.000353017 -2.1205e-05
-0.00164011 0.000492062 0.000492019 2.5053e-11
-0.00140116 0.000420054 0.000420476 -1.14842e-05
-0.00117186 0.000350982 0.000351805 -2.1205e-05
-0.00141084 0.000422952 0.000423381 -1.14842e-05
-0.001406 0.000421503 0.000421928 -1.14842e-05
-0.00163446 0.00049037 0.000490326 2.49552e-11
-0.00162318 0.000486984 0.000486941 2.47617e-11
-0.00115976 0.000347363 0.000348169 -2.1205e-05
-0.00116783 0.000349776 0.000350593 -2.1205e-05
-0.00162882 0.000488677 0.000488634 2.48429e-11
-0.00139149 0.000417155 0.000417571 -1.14843e-05
-0.00116379 0.000348569 0.000349381 -2.1205e-05
-0.00140116 0.000420054 0.000420476 -1.14842e-05
-0.00139633 0.000418604 0.000419023 -1.14842e-05
-0.00162318 0.000486984 0.000486941 2.477e-11
-0.00161189 0.000483599 0.000483555 2.45918e-11
-0.00115169 0.000344951 0.000345745 -2.1205e-05
-0.00115976 0.000347363 0.000348169 -2.1205e-05
-0.00161754 0.000485291 0.000485248 2.468e-11
-0.00138181 0.000414256 0.000414666 -1.14843e-05
-0.00115572 0.000346157 0.000346957 -2.1205e-05
-0.00139149 0.000417155 0.000417571 -1.14843e-05
-0.00138665 0.000415706 0.000416118 -1.14843e-05
-0.00161189 0.000483599 0.000483555 2.45918e-11
-0.00160061 0.000480213 0.00048017 2.44212e-11
-0.00114362 0.000342538 0.000343321 -2.1205e-05
-0.00115169 0.000344951 0.000345745 -2.1205e-05
-0.00160625 0.000481906 0.000481863 2.44913e-11
-0.00137213 0.000411357 0.000411761 -1.14843e-05
-0.00114765 0.000343744 0.000344533 -2.1205e-05
-0.00138181 0.000414256 0.000414666 -1.14843e-05
-0.00137697 0.000412807 0.000413214 -1.14843e-05
-0.00160061 0.000480213 0.00048017 2.44212e-11
-0.00158933 0.000476828 0.000476785 2.42377e-11
-0.00113555 0.000340126 0.000340897 -2.1205e-05
-0.00114362 0.000342538 0.000343321 -2.1205e-05
-0.00159497 0.00047852 0.000478477 2.43381e-11
-0.00136246 0.000408459 0.000408856 -1.14843e-05
-0.00113959 0.000341332 0.000342109 -2.1205e-05
-0.00137213 0.000411357 0.000411761 -1.14843e-05
-0.0013673 0.000409908 0.000410309 -1.14843e-05
-0.00158933 0.000476828 0.000476785 2.42459e-11
-0.00157804 0.000473442 0.0004734 2.40652e-11
-0.00112748 0.000337713 0.000338473 -2.1205e-05
-0.00113555 0.000340126 0.000340897 -2.1205e-05
-0.00158368 0.000475135 0.000475092 2.41603e-11
-0.00135278 0.00040556 0.000405952 -1.14843e-05
-0.00113152 0.000338919 0.000339685 -2.1205e-05
-0.00136246 0.000408459 0.000408856 -1.14843e-05
-0.00135762 0.000407009 0.000407404 -1.14843e-05
-0.00157804 0.000473442 0.0004734 2.40719e-11
-0.00156676 0.000470057 0.000470014 2.38952e-11
-0.00111942 0.0003353 0.000336049 -2.12051e-05
-0.00112748 0.000337713 0.000338473 -2.1205e-05
-0.0015724 0.00047175 0.000471707 2.39649e-11
-0.0013431 0.000402661 0.000403047 -1.14843e-05
-0.00112345 0.000336507 0.000337261 -2.12051e-05
-0.00135278 0.00040556 0.000405952 -1.14843e-05
-0.00134794 0.000404111 0.000404499 -1.14843e-05
-0.00156676 0.000470057 0.000470014 2.38952e-11
-0.00155547 0.000466671 0.000466629 2.37147e-11
-0.00111135 0.000332888 0.000333626 -2.12051e-05
-0.00111942 0.0003353 0.000336049 -2.12051e-05
-0.00156111 0.000468364 0.000468322 2.3799e-11
-0.00133343 0.000399763 0.000400142 -1.14844e-05
-0.00111538 0.000334094 0.000334837 -2.12051e-05
-0.0013431 0.000402661 0.000403047 -1.14843e-05
-0.00133827 0.000401212 0.000401594 -1.14844e-05
-0.00155547 0.000466671 0.000466629 2.37147e-11
-0.00154419 0.000463286 0.000463244 2.35301e-11
-0.00110328 0.000330475 0.000331202 -2.12051e-05
-0.00111135 0.000332888 0.000333626 -2.12051e-05
-0.00154983 0.000464979 0.000464936 2.36228e-11
-0.00132375 0.000396864 0.000397237 -1.14844e-05
-0.00110731 0.000331682 0.000332414 -2.12051e-05
-0.00133343 0.000399763 0.000400142 -1.14844e-05
-0.00132859 0.000398313 0.00039869 -1.14844e-05
-0.00154419 0.000463286 0.000463244 2.35301e-11
-0.0015329 0.000459901 0.000459859 2.33494e-11
-0.00109521 0.000328063 0.000328778 -2.12051e-05
-0.00110328 0.000330475 0.000331202 -2.12051e-05
-0.00153855 0.000461593 0.000461551 2.34346e-11
-0.00131408 0.000393965 0.000394333 -1.14844e-05
-0.00109925 0.000329269 0.00032999 -2.12051e-05
-0.00132375 0.000396864 0.000397237 -1.14844e-05
-0.00131891 0.000395414 0.000395785 -1.14844e-05
-0.0015329 0.000459901 0.000459859 2.33692e-11
-0.00152162 0.000456516 0.000456474 2.31941e-11
-0.00108714 0.00032565 0.000326355 -2.12051e-05
-0.00109521 0.000328063 0.000328778 -2.12051e-05
-0.00152726 0.000458208 0.000458166 2.32694e-11
-0.0013044 0.000391066 0.000391428 -1.14844e-05
-0.00109118 0.000326856 0.000327567 -2.12051e-05
-0.00131408 0.000393965 0.000394333 -1.14844e-05
-0.00130924 0.000392516 0.000392881 -1.14844e-05
-0.00152162 0.000456516 0.000456474 2.31941e-11
-0.00151034 0.00045313 0.000453088 2.30098e-11
-0.00107908 0.000323237 0.000323931 -2.12051e-05
-0.00108714 0.00032565 0.000326355 -2.12051e-05
-0.00151598 0.000454823 0.000454781 2.30947e-11
-0.00129472 0.000388168 0.000388524 -1.14844e-05
-0.00108311 0.000324444 0.000325143 -2.12051e-05
-0.0013044 0.000391066 0.000391428 -1.14844e-05
-0.00129956 0.000389617 0.000389976 -1.14844e-05
-0.00151034 0.00045313 0.000453088 2.30098e-11
-0.00149905 0.000449745 0.000449703 2.2836e-11
-0.00107101 0.000320825 0.000321508 -2.12051e-05
-0.00107908 0.000323237 0.000323931 -2.12051e-05
-0.00150469 0.000451438 0.000451396 2.29048e-11
-0.00128505 0.000385269 0.000385619 -1.14844e-05
-0.00107504 0.000322031 0.00032272 -2.12051e-05
-0.00129472 0.000388168 0.000388524 -1.14844e-05
-0.00128989 0.000386718 0.000387072 -1.14844e-05
-0.00149905 0.000449745 0.000449703 2.28294e-11
-0.00148777 0.00044636 0.000446318 2.2656e-11
-0.00106294 0.000318412 0.000319085 -2.12051e-05
-0.00107101 0.000320825 0.000321508 -2.12051e-05
-0.00149341 0.000448053 0.000448011 2.27445e-11
-0.00127537 0.00038237 0.000382715 -1.14845e-05
-0.00106698 0.000319618 0.000320296 -2.12051e-05
-0.00128505 0.000385269 0.000385619 -1.14844e-05
-0.00128021 0.00038382 0.000384167 -1.14844e-05
-0.00148777 0.00044636 0.000446318 2.26493e-11
-0.00147649 0.000442975 0.000442933 2.24887e-11
-0.00105488 0.000315999 0.000316661 -2.12051e-05
-0.00106294 0.000318412 0.000319085 -2.12051e-05
-0.00148213 0.000444667 0.000444626 2.25622e-11
-0.0012657 0.000379472 0.000379811 -1.14845e-05
-0.00105891 0.000317206 0.000317873 -2.12051e-05
-0.00127537 0.00038237 0.000382715 -1.14845e-05
-0.00127053 0.000380921 0.000381263 -1.14845e-05
-0.00147649 0.000442975 0.000442933 2.24887e-11
-0.0014652 0.00043959 0.000439548 2.23116e-11
-0.00104681 0.000313587 0.000314238 -2.12051e-05
-0.00105488 0.000315999 0.000316661 -2.12051e-05
-0.00147084 0.000441282 0.000441241 2.23844e-11
-0.00125602 0.000376573 0.000376906 -1.14845e-05
-0.00105084 0.000314793 0.00031545 -2.12051e-05
-0.0012657 0.000379472 0.000379811 -1.14845e-05
-0.00126086 0.000378022 0.000378358 -1.14845e-05
-0.0014652 0.00043959 0.000439548 2.23116e-11
-0.00145392 0.000436205 0.000436163 2.21306e-11
-0.00103874 0.000311174 0.000311815 -2.12051e-05
-0.00104681 0.000313587 0.000314238 -2.12051e-05
-0.00145956 0.000437897 0.000437856 2.221e-11
-0.00124635 0.000373674 0.000374002 -1.14845e-05
-0.00104278 0.00031238 0.000313027 -2.12051e-05
-0.00125602 0.000376573 0.000376906 -1.14845e-05
-0.00125118 0.000375124 0.000375454 -1.14845e-05
-0.00145392 0.000436205 0.000436163 2.21388e-11
-0.00144264 0.00043282 0.000432778 2.19449e-11
-0.00103068 0.000308761 0.000309392 -2.12051e-05
-0.00103874 0.000311174 0.000311815 -2.12051e-05
-0.00144828 0.000434512 0.000434471 2.2045e-11
-0.00123667 0.000370776 0.000371098 -1.14845e-05
-0.00103471 0.000309968 0.000310603 -2.12051e-05
-0.00124635 0.000373674 0.000374002 -1.14845e-05
-0.00124151 0.000372225 0.00037255 -1.14845e-05
-0.00144264 0.00043282 0.000432778 2.19581e-11
-0.00143135 0.000429435 0.000429393 2.17685e-11
-0.00102261 0.000306348 0.000306969 -2.12051e-05
-0.00103068 0.000308761 0.000309392 -2.12051e-05
-0.00143699 0.000431127 0.000431086 2.18468e-11
-0.001227 0.000367877 0.000368194 -1.14845e-05
-0.00102664 0.000307555 0.00030818 -2.12051e-05
-0.00123667 0.000370776 0.000371098 -1.14845e-05
-0.00123183 0.000369326 0.000369646 -1.14845e-05
-0.00143135 0.000429435 0.000429393 2.17685e-11
-0.00142007 0.00042605 0.000426009 2.15935e-11
-0.00101454 0.000303936 0.000304546 -2.12051e-05
-0.00102261 0.000306348 0.000306969 -2.12051e-05
-0.00142571 0.000427742 0.000427701 2.16755e-11
-0.00121732 0.000364978 0.00036529 -1.14845e-05
-0.00101858 0.000305142 0.000305757 -2.12051e-05
-0.001227 0.000367877 0.000368194 -1.14845e-05
-0.00122216 0.000366428 0.000366742 -1.14845e-05
-0.00142007 0.00042605 0.000426009 2.15935e-11
-0.00140879 0.000422665 0.000422624 2.14201e-11
-0.00100648 0.000301523 0.000302123 -2.12051e-05
-0.00101454 0.000303936 0.000304546 -2.12051e-05
-0.00141443 0.000424357 0.000424316 2.15046e-11
-0.00120765 0.00036208 0.000362386 -1.14846e-05
-0.00101051 0.000302729 0.000303334 -2.12051e-05
-0.00121732 0.000364978 0.00036529 -1.14845e-05
-0.00121248 0.000363529 0.000363838 -1.14845e-05
-0.00140879 0.000422665 0.000422624 2.14151e-11
-0.0013975 0.00041928 0.000419239 2.12527e-11
-0.000998411 0.00029911 0.0002997 -2.12051e-05
-0.00100648 0.000301523 0.000302123 -2.12051e-05
-0.00140315 0.000420972 0.000420931 2.13353e-11
-0.00119797 0.000359181 0.000359482 -1.14846e-05
-0.00100244 0.000300316 0.000300912 -2.12051e-05
-0.00120765 0.00036208 0.000362386 -1.14846e-05
-0.00120281 0.00036063 0.000360934 -1.14846e-05
-0.0013975 0.00041928 0.000419239 2.12659e-11
-0.00138622 0.000415895 0.000415854 2.10803e-11
-0.000990345 0.000296697 0.000297277 -2.12051e-05
-0.000998411 0.00029911 0.0002997 -2.12051e-05
-0.00139186 0.000417587 0.000417547 2.11584e-11
-0.0011883 0.000356282 0.000356578 -1.14846e-05
-0.000994378 0.000297904 0.000298489 -2.12051e-05
-0.00119797 0.000359181 0.000359482 -1.14846e-05
-0.00119313 0.000357732 0.00035803 -1.14846e-05
-0.00138622 0.000415895 0.000415854 2.10803e-11
-0.00137494 0.00041251 0.000412469 2.08949e-11
-0.000982279 0.000294284 0.000294855 -2.12051e-05
-0.000990345 0.000296697 0.000297277 -2.12051e-05
-0.00138058 0.000414202 0.000414162 2.10133e-11
-0.00117862 0.000353384 0.000353674 -1.14846e-05
-0.000986312 0.000295491 0.000296066 -2.12051e-05
-0.0011883 0.000356282 0.000356578 -1.14846e-05
-0.00118346 0.000354833 0.000355126 -1.14846e-05
-0.00137494 0.00041251 0.000412469 2.08949e-11
-0.00136366 0.000409125 0.000409085 2.07181e-11
-0.000974213 0.000291871 0.000292432 -2.12051e-05
-0.000982279 0.000294284 0.000294855 -2.12051e-05
-0.0013693 0.000410818 0.000410777 2.08249e-11
-0.00116895 0.000350485 0.00035077 -1.14846e-05
-0.000978246 0.000293078 0.000293643 -2.12051e-05
-0.00117862 0.000353384 0.000353674 -1.14846e-05
-0.00117379 0.000351934 0.000352222 -1.14846e-05
-0.00136366 0.000409125 0.000409085 2.07115e-11
-0.00135237 0.00040574 0.0004057 2.05396e-11
-0.000966147 0.000289459 0.000290009 -2.12051e-05
-0.000974213 0.000291871 0.000292432 -2.12051e-05
-0.00135802 0.000407433 0.000407392 2.06031e-11
-0.00115927 0.000347586 0.000347866 -1.14846e-05
-0.00097018 0.000290665 0.000291221 -2.12051e-05
-0.00116895 0.000350485 0.00035077 -1.14846e-05
-0.00116411 0.000349036 0.000349318 -1.14846e-05
-0.00135237 0.00040574 0.0004057 2.05263e-11
-0.00134109 0.000402356 0.000402315 2.03578e-11
-0.000958082 0.000287046 0.000287587 -2.12051e-05
-0.000966147 0.000289459 0.000290009 -2.12051e-05
-0.00134673 0.000404048 0.000404008 2.04695e-11
-0.0011496 0.000344688 0.000344962 -1.14846e-05
-0.000962115 0.000288252 0.000288798 -2.12051e-05
-0.00115927 0.000347586 0.000347866 -1.14846e-05
-0.00115444 0.000346137 0.000346414 -1.14846e-05
-0.00134109 0.000402356 0.000402315 2.03578e-11
-0.00132981 0.000398971 0.000398931 2.01983e-11
-0.000950017 0.000284633 0.000285165 -2.12051e-05
-0.000958082 0.000287046 0.000287587 -2.12051e-05
-0.00133545 0.000400663 0.000400623 2.02788e-11
-0.00113993 0.000341789 0.000342059 -1.14846e-05
-0.000954049 0.000285839 0.000286376 -2.12051e-05
-0.0011496 0.000344688 0.000344962 -1.14846e-05
-0.00114476 0.000343239 0.00034351 -1.14846e-05
-0.00132981 0.000398971 0.000398931 2.01983e-11
-0.00131853 0.000395586 0.000395546 2.00108e-11
-0.000941951 0.00028222 0.000282742 -2.12051e-05
-0.000950017 0.000284633 0.000285165 -2.12051e-05
-0.00132417 0.000397278 0.000397239 2.01307e-11
-0.00113025 0.000338891 0.000339155 -1.14847e-05
-0.000945984 0.000283426 0.000283953 -2.12051e-05
-0.00113993 0.000341789 0.000342059 -1.14846e-05
-0.00113509 0.00034034 0.000340607 -1.14846e-05
-0.00131853 0.000395586 0.000395546 2.00107e-11
-0.00130725 0.000392201 0.000392162 1.98246e-11
-0.000933886 0.000279807 0.00028032 -2.12051e-05
-0.000941951 0.00028222 0.000282742 -2.12051e-05
-0.00131289 0.000393894 0.000393854 1.99273e-11
-0.00112058 0.000335992 0.000336251 -1.14847e-05
-0.000937919 0.000281013 0.000281531 -2.12051e-05
-0.00113025 0.000338891 0.000339155 -1.14847e-05
-0.00112542 0.000337441 0.000337703 -1.14847e-05
-0.00130725 0.000392201 0.000392162 1.98328e-11
-0.00129596 0.000388817 0.000388777 1.96722e-11
-0.000925821 0.000277394 0.000277898 -2.12051e-05
-0.000933886 0.000279807 0.00028032 -2.12051e-05
-0.0013016 0.000390509 0.000390469 1.97494e-11
-0.0011109 0.000333093 0.000333348 -1.14847e-05
-0.000929854 0.0002786 0.000279109 -2.12051e-05
-0.00112058 0.000335992 0.000336251 -1.14847e-05
-0.00111574 0.000334543 0.000334799 -1.14847e-05
-0.00129596 0.000388817 0.000388777 1.96722e-11
-0.00128468 0.000385432 0.000385393 1.95042e-11
-0.000917757 0.000274981 0.000275475 -2.12051e-05
-0.000925821 0.000277394 0.000277898 -2.12051e-05
-0.00129032 0.000387124 0.000387085 1.95854e-11
-0.00110123 0.000330195 0.000330444 -1.14847e-05
-0.000921789 0.000276187 0.000276686 -2.12051e-05
-0.0011109 0.000333093 0.000333348 -1.14847e-05
-0.00110607 0.000331644 0.000331896 -1.14847e-05
-0.00128468 0.000385432 0.000385393 1.95042e-11
-0.0012734 0.000382048 0.000382008 1.93536e-11
-0.000909692 0.000272568 0.000273053 -2.12051e-05
-0.000917757 0.000274981 0.000275475 -2.12051e-05
-0.00127904 0.00038374 0.0003837 1.94309e-11
-0.00109156 0.000327296 0.000327541 -1.14847e-05
-0.000913724 0.000273774 0.000274264 -2.12051e-05
-0.00110123 0.000330195 0.000330444 -1.14847e-05
-0.00109639 0.000328746 0.000328992 -1.14847e-05
-0.0012734 0.000382048 0.000382008 1.93271e-11
-0.00126212 0.000378663 0.000378624 1.91365e-11
-0.000901627 0.000270155 0.000270631 -2.12051e-05
-0.000909692 0.000272568 0.000273053 -2.12051e-05
-0.00126776 0.000380355 0.000380316 1.92402e-11
-0.00108188 0.000324398 0.000324637 -1.14847e-05
-0.00090566 0.000271361 0.000271842 -2.12051e-05
-0.00109156 0.000327296 0.000327541 -1.14847e-05
-0.00108672 0.000325847 0.000326089 -1.14847e-05
-0.00126212 0.000378663 0.000378624 1.91497e-11
-0.00125084 0.000375279 0.000375239 1.89788e-11
-0.000893563 0.000267742 0.000268209 -2.12051e-05
-0.000901627 0.000270155 0.000270631 -2.12051e-05
-0.00125648 0.000376971 0.000376932 1.90639e-11
-0.00107221 0.000321499 0.000321734 -1.14847e-05
-0.000897595 0.000268948 0.00026942 -2.12051e-05
-0.00108188 0.000324398 0.000324637 -1.14847e-05
-0.00107705 0.000322948 0.000323186 -1.14847e-05
-0.00125084 0.000375279 0.000375239 1.89788e-11
-0.00123956 0.000371894 0.000371855 1.88001e-11
-0.000885499 0.000265329 0.000265787 -2.12051e-05
-0.000893563 0.000267742 0.000268209 -2.12051e-05
-0.0012452 0.000373586 0.000373547 1.88981e-11
-0.00106254 0.0003186 0.00031883 -1.14847e-05
-0.000889531 0.000266535 0.000266998 -2.12051e-05
-0.00107221 0.000321499 0.000321734 -1.14847e-05
-0.00106737 0.00032005 0.000320282 -1.14847e-05
-0.00123956 0.000371894 0.000371855 1.88001e-11
-0.00122827 0.00036851 0.000368471 1.86223e-11
-0.000877435 0.000262916 0.000263365 -2.12051e-05
-0.000885499 0.000265329 0.000265787 -2.12051e-05
-0.00123392 0.000370202 0.000370163 1.86925e-11
-0.00105287 0.000315702 0.000315927 -1.14847e-05
-0.000881467 0.000264122 0.000264576 -2.12051e-05
-0.00106254 0.0003186 0.00031883 -1.14847e-05
-0.0010577 0.000317151 0.000317379 -1.14847e-05
-0.00122827 0.00036851 0.000368471 1.86108e-11
-0.00121699 0.000365125 0.000365086 1.84398e-11
-0.000869371 0.000260503 0.000260943 -2.12051e-05
-0.000877435 0.000262916 0.000263365 -2.12051e-05
-0.00122263 0.000366817 0.000366779 1.8531e-11
-0.00104319 0.000312803 0.000313024 -1.14848e-05
-0.000873403 0.000261709 0.000262154 -2.12051e-05
-0.00105287 0.000315702 0.000315927 -1.14847e-05
-0.00104803 0.000314253 0.000314476 -1.14848e-05
-0.00121699 0.000365125 0.000365086 1.84414e-11
-0.00120571 0.000361741 0.000361702 1.8291e-11
-0.000861307 0.000258089 0.000258522 -2.12051e-05
-0.000869371 0.000260503 0.000260943 -2.12051e-05
-0.00121135 0.000363433 0.000363394 1.83836e-11
-0.00103352 0.000309905 0.000310121 -1.14848e-05
-0.000865339 0.000259296 0.000259733 -2.12051e-05
-0.00104319 0.000312803 0.000313024 -1.14848e-05
-0.00103836 0.000311354 0.000311572 -1.14848e-05
-0.00120571 0.000361741 0.000361702 1.8291e-11
-0.00119443 0.000358356 0.000358318 1.81002e-11
-0.000853243 0.000255676 0.0002561 -2.12051e-05
-0.000861307 0.000258089 0.000258522 -2.12051e-05
-0.00120007 0.000360049 0.00036001 1.81964e-11
-0.00102385 0.000307006 0.000307218 -1.14848e-05
-0.000857275 0.000256883 0.000257311 -2.12051e-05
-0.00103352 0.000309905 0.000310121 -1.14848e-05
-0.00102868 0.000308455 0.000308669 -1.14848e-05
-0.00119443 0.000358356 0.000358318 1.81002e-11
-0.00118315 0.000354972 0.000354934 1.7922e-11
-0.000845179 0.000253263 0.000253678 -2.12051e-05
-0.000853243 0.000255676 0.0002561 -2.12051e-05
-0.00118879 0.000356664 0.000356626 1.80169e-11
-0.00101418 0.000304108 0.000304315 -1.14848e-05
-0.000849211 0.00025447 0.000254889 -2.12051e-05
-0.00102385 0.000307006 0.000307218 -1.14848e-05
-0.00101901 0.000305557 0.000305766 -1.14848e-05
-0.00118315 0.000354972 0.000354934 1.79154e-11
-0.00117187 0.000351588 0.000351549 1.77655e-11
-0.000837116 0.00025085 0.000251257 -2.12051e-05
-0.000845179 0.000253263 0.000253678 -2.12051e-05
-0.00117751 0.00035328 0.000353242 1.78337e-11
-0.0010045 0.000301209 0.000301412 -1.14848e-05
-0.000841148 0.000252057 0.000252468 -2.12051e-05
-0.00101418 0.000304108 0.000304315 -1.14848e-05
-0.00100934 0.000302658 0.000302863 -1.14848e-05
-0.00117187 0.000351588 0.000351549 1.77654e-11
-0.00116059 0.000348203 0.000348165 1.75696e-11
-0.000829052 0.000248437 0.000248835 -2.12051e-05
-0.000837116 0.00025085 0.000251257 -2.12051e-05
-0.00116623 0.000349896 0.000349857 1.76625e-11
-0.000994831 0.000298311 0.000298509 -1.14848e-05
-0.000833084 0.000249643 0.000250046 -2.12051e-05
-0.0010045 0.000301209 0.000301412 -1.14848e-05
-0.000999667 0.00029976 0.00029996 -1.14848e-05
-0.00116059 0.000348203 0.000348165 1.75696e-11
-0.00114931 0.000344819 0.000344781 1.74173e-11
-0.000820989 0.000246024 0.000246414 -2.12051e-05
-0.000829052 0.000248437 0.000248835 -2.12051e-05
-0.00115495 0.000346511 0.000346473 1.7478e-11
-0.000985158 0.000295412 0.000295606 -1.14848e-05
-0.000825021 0.00024723 0.000247625 -2.12051e-05
-0.000994831 0.000298311 0.000298509 -1.14848e-05
-0.000989994 0.000296861 0.000297057 -1.14848e-05
-0.00114931 0.000344819 0.000344781 1.74173e-11
-0.00113803 0.000341435 0.000341397 1.72332e-11
-0.000812926 0.00024361 0.000243992 -2.12051e-05
-0.000820989 0.000246024 0.000246414 -2.12051e-05
-0.00114367 0.000343127 0.000343089 1.73103e-11
-0.000975487 0.000292514 0.000292703 -1.14848e-05
-0.000816958 0.000244817 0.000245203 -2.12051e-05
-0.000985158 0.000295412 0.000295606 -1.14848e-05
-0.000980322 0.000293963 0.000294154 -1.14848e-05
-0.00113803 0.000341435 0.000341397 1.72216e-11
-0.00112675 0.000338051 0.000338013 1.70403e-11
-0.000804863 0.000241197 0.000241571 -2.12051e-05
-0.000812926 0.00024361 0.000243992 -2.12051e-05
-0.00113239 0.000339743 0.000339705 1.71548e-11
-0.000965815 0.000289615 0.0002898 -1.14849e-05
-0.000808895 0.000242404 0.000242782 -2.12051e-05
-0.000975487 0.000292514 0.000292703 -1.14848e-05
-0.000970651 0.000291064 0.000291251 -1.14849e-05
-0.00112675 0.000338051 0.000338013 1.70486e-11
-0.00111547 0.000334667 0.000334629 1.68615e-11
-0.0007968 0.000238784 0.00023915 -2.12051e-05
-0.000804863 0.000241197 0.000241571 -2.12051e-05
-0.00112111 0.000336359 0.000336321 1.69669e-11
-0.000956143 0.000286716 0.000286897 -1.14849e-05
-0.000800832 0.00023999 0.000240361 -2.12051e-05
-0.000965815 0.000289615 0.0002898 -1.14849e-05
-0.000960979 0.000288166 0.000288348 -1.14849e-05
-0.00111547 0.000334667 0.000334629 1.68615e-11
-0.00110419 0.000331283 0.000331245 1.67115e-11
-0.000788738 0.000236371 0.000236729 -2.12051e-05
-0.0007968 0.000238784 0.00023915 -2.12051e-05
-0.00110983 0.000332975 0.000332937 1.67765e-11
-0.000946471 0.000283818 0.000283994 -1.14849e-05
-0.000792769 0.000237577 0.000237939 -2.12051e-05
-0.000956143 0.000286716 0.000286897 -1.14849e-05
-0.000951307 0.000285267 0.000285446 -1.14849e-05
-0.00110419 0.000331283 0.000331245 1.67115e-11
-0.00109291 0.000327899 0.000327861 1.65079e-11
-0.000780675 0.000233957 0.000234308 -2.12051e-05
-0.000788738 0.000236371 0.000236729 -2.12051e-05
-0.00109855 0.000329591 0.000329553 1.66231e-11
-0.0009368 0.000280919 0.000281092 -1.14849e-05
-0.000784706 0.000235164 0.000235518 -2.12051e-05
-0.000946471 0.000283818 0.000283994 -1.14849e-05
-0.000941636 0.000282369 0.000282543 -1.14849e-05
-0.00109291 0.000327899 0.000327861 1.65575e-11
-0.00108163 0.000324514 0.000324477 1.63604e-11
-0.000772612 0.000231544 0.000231887 -2.12051e-05
-0.000780675 0.000233957 0.000234308 -2.12051e-05
-0.00108727 0.000326206 0.000326169 1.64454e-11
-0.000927129 0.000278021 0.000278189 -1.14849e-05
-0.000776644 0.000232751 0.000233097 -2.12051e-05
-0.0009368 0.000280919 0.000281092 -1.14849e-05
-0.000931964 0.00027947 0.00027964 -1.14849e-05
-0.00108163 0.000324514 0.000324477 1.63604e-11
-0.00107035 0.00032113 0.000321093 1.61609e-11
-0.00076455 0.000229131 0.000229466 -2.12051e-05
-0.000772612 0.000231544 0.000231887 -2.12051e-05
-0.00107599 0.000322822 0.000322785 1.62611e-11
-0.000917457 0.000275122 0.000275286 -1.14849e-05
-0.000768581 0.000230337 0.000230676 -2.12051e-05
-0.000927129 0.000278021 0.000278189 -1.14849e-05
-0.000922293 0.000276572 0.000276738 -1.14849e-05
-0.00107035 0.00032113 0.000321093 1.61609e-11
-0.00105907 0.000317746 0.000317709 1.6013e-11
-0.000756488 0.000226717 0.000227045 -2.12051e-05
-0.00076455 0.000229131 0.000229466 -2.12051e-05
-0.00106471 0.000319438 0.000319401 1.60779e-11
-0.000907786 0.000272224 0.000272384 -1.14849e-05
-0.000760519 0.000227924 0.000228255 -2.12051e-05
-0.000917457 0.000275122 0.000275286 -1.14849e-05
-0.000912622 0.000273673 0.000273835 -1.14849e-05
-0.00105907 0.000317746 0.000317709 1.6013e-11
-0.00104779 0.000314362 0.000314326 1.58276e-11
-0.000748426 0.000224304 0.000224624 -2.12051e-05
-0.000756488 0.000226717 0.000227045 -2.12051e-05
-0.00105343 0.000316054 0.000316017 1.59032e-11
-0.000898115 0.000269325 0.000269481 -1.1485e-05
-0.000752457 0.000225511 0.000225834 -2.12051e-05
-0.000907786 0.000272224 0.000272384 -1.14849e-05
-0.000902951 0.000270775 0.000270933 -1.1485e-05
-0.00104779 0.000314362 0.000314326 1.58278e-11
-0.00103651 0.000310979 0.000310942 1.56609e-11
-0.000740364 0.00022189 0.000222203 -2.12051e-05
-0.000748426 0.000224304 0.000224624 -2.12051e-05
-0.00104215 0.00031267 0.000312634 1.57544e-11
-0.000888444 0.000266427 0.000266579 -1.1485e-05
-0.000744395 0.000223097 0.000223413 -2.12051e-05
-0.000898115 0.000269325 0.000269481 -1.1485e-05
-0.00089328 0.000267876 0.00026803 -1.1485e-05
-0.00103651 0.000310979 0.000310942 1.56608e-11
-0.00102523 0.000307595 0.000307558 1.54884e-11
-0.000732302 0.000219477 0.000219782 -2.12051e-05
-0.000740364 0.00022189 0.000222203 -2.12051e-05
-0.00103087 0.000309287 0.00030925 1.55863e-11
-0.000878774 0.000263528 0.000263676 -1.1485e-05
-0.000736333 0.000220684 0.000220992 -2.12051e-05
-0.000888444 0.000266427 0.000266579 -1.1485e-05
-0.000883609 0.000264978 0.000265128 -1.1485e-05
-0.00102523 0.000307595 0.000307558 1.54884e-11
-0.00101395 0.000304211 0.000304174 1.53259e-11
-0.00072424 0.000217064 0.000217361 -2.12051e-05
-0.000732302 0.000219477 0.000219782 -2.12051e-05
-0.00101959 0.000305903 0.000305866 1.54251e-11
-0.000869103 0.00026063 0.000260774 -1.1485e-05
-0.000728271 0.00021827 0.000218572 -2.12051e-05
-0.000878774 0.000263528 0.000263676 -1.1485e-05
-0.000873938 0.000262079 0.000262225 -1.1485e-05
-0.00101395 0.000304211 0.000304174 1.53259e-11
-0.00100267 0.000300827 0.00030079 1.51442e-11
-0.000716179 0.00021465 0.000214941 -2.12052e-05
-0.00072424 0.000217064 0.000217361 -2.12051e-05
-0.00100831 0.000302519 0.000302482 1.52129e-11
-0.000859432 0.000257731 0.000257872 -1.1485e-05
-0.00072021 0.000215857 0.000216151 -2.12051e-05
-0.000869103 0.00026063 0.000260774 -1.1485e-05
-0.000864268 0.000259181 0.000259323 -1.1485e-05
-0.00100267 0.000300827 0.00030079 1.51409e-11
-0.000991392 0.000297443 0.000297407 1.49793e-11
-0.000708117 0.000212237 0.00021252 -2.12052e-05
-0.000716179 0.00021465 0.000214941 -2.12052e-05
-0.000997032 0.000299135 0.000299099 1.50581e-11
-0.000849762 0.000254833 0.00025497 -1.1485e-05
-0.000712148 0.000213443 0.000213731 -2.12052e-05
-0.000859432 0.000257731 0.000257872 -1.1485e-05
-0.000854597 0.000256282 0.000256421 -1.1485e-05
-0.000991392 0.000297443 0.000297407 1.49793e-11
-0.000980113 0.000294059 0.000294023 1.47795e-11
-0.000700056 0.000209823 0.0002101 -2.12052e-05
-0.000708117 0.000212237 0.00021252 -2.12052e-05
-0.000985753 0.000295751 0.000295715 1.48872e-11
-0.000840092 0.000251934 0.000252067 -1.14851e-05
-0.000704087 0.00021103 0.00021131 -2.12052e-05
-0.000849762 0.000254833 0.00025497 -1.1485e-05
-0.000844927 0.000253384 0.000253518 -1.1485e-05
-0.000980113 0.000294059 0.000294023 1.47795e-11
-0.000968834 0.000290676 0.00029064 1.46189e-11
-0.000691995 0.00020741 0.000207679 -2.12052e-05
-0.000700056 0.000209823 0.0002101 -2.12052e-05
-0.000974474 0.000292367 0.000292331 1.47141e-11
-0.000830421 0.000249036 0.000249165 -1.14851e-05
-0.000696025 0.000208617 0.00020889 -2.12052e-05
-0.000840092 0.000251934 0.000252067 -1.14851e-05
-0.000835256 0.000250485 0.000250616 -1.14851e-05
-0.000968834 0.000290676 0.00029064 1.46189e-11
-0.000957556 0.000287292 0.000287256 1.44542e-11
-0.000683934 0.000204996 0.000205259 -2.12052e-05
-0.000691995 0.00020741 0.000207679 -2.12052e-05
-0.000963195 0.000288984 0.000288948 1.45194e-11
-0.000820751 0.000246138 0.000246263 -1.14851e-05
-0.000687964 0.000206203 0.000206469 -2.12052e-05
-0.000830421 0.000249036 0.000249165 -1.14851e-05
-0.000825586 0.000247587 0.000247714 -1.14851e-05
-0.000957556 0.000287292 0.000287256 1.44542e-11
-0.000946277 0.000283908 0.000283872 1.42842e-11
-0.000675873 0.000202583 0.000202839 -2.12052e-05
-0.000683934 0.000204996 0.000205259 -2.12052e-05
-0.000951916 0.0002856 0.000285564 1.4366e-11
-0.000811081 0.000243239 0.000243361 -1.14851e-05
-0.000679903 0.000203789 0.000204049 -2.12052e-05
-0.000820751 0.000246138 0.000246263 -1.14851e-05
-0.000815916 0.000244688 0.000244812 -1.14851e-05
-0.000946277 0.000283908 0.000283872 1.42678e-11
-0.000934998 0.000280524 0.000280489 1.41139e-11
-0.000667812 0.000200169 0.000200418 -2.12052e-05
-0.000675873 0.000202583 0.000202839 -2.12052e-05
-0.000940638 0.000282216 0.000282181 1.41865e-11
-0.000801412 0.000240341 0.000240459 -1.14851e-05
-0.000671842 0.000201376 0.000201629 -2.12052e-05
-0.000811081 0.000243239 0.000243361 -1.14851e-05
-0.000806246 0.00024179 0.00024191 -1.14851e-05
-0.000934998 0.000280524 0.000280489 1.41139e-11
-0.00092372 0.000277141 0.000277105 1.39383e-11
-0.000659751 0.000197756 0.000197998 -2.12052e-05
-0.000667812 0.000200169 0.000200418 -2.12052e-05
-0.000929359 0.000278833 0.000278797 1.40245e-11
-0.000791742 0.000237442 0.000237557 -1.14851e-05
-0.000663782 0.000198962 0.000199208 -2.12052e-05
-0.000801412 0.000240341 0.000240459 -1.14851e-05
-0.000796577 0.000238891 0.000239008 -1.14851e-05
-0.00092372 0.000277141 0.000277105 1.39383e-11
-0.000912441 0.000273757 0.000273722 1.37719e-11
-0.000651691 0.000195342 0.000195578 -2.12052e-05
-0.000659751 0.000197756 0.000197998 -2.12052e-05
-0.000918081 0.000275449 0.000275414 1.38717e-11
-0.000782072 0.000234544 0.000234655 -1.14852e-05
-0.000655721 0.000196549 0.000196788 -2.12052e-05
-0.000791742 0.000237442 0.000237557 -1.14851e-05
-0.000786907 0.000235993 0.000236106 -1.14852e-05
-0.000912441 0.000273757 0.000273722 1.37853e-11
-0.000901163 0.000270374 0.000270338 1.35784e-11
-0.00064363 0.000192928 0.000193158 -2.12052e-05
-0.000651691 0.000195342 0.000195578 -2.12052e-05
-0.000906802 0.000272065 0.00027203 1.36752e-11
-0.000772403 0.000231645 0.000231753 -1.14852e-05
-0.000647661 0.000194135 0.000194368 -2.12052e-05
-0.000782072 0.000234544 0.000234655 -1.14852e-05
-0.000777237 0.000233094 0.000233204 -1.14852e-05
-0.000901163 0.000270374 0.000270338 1.35784e-11
-0.000889885 0.00026699 0.000266955 1.33825e-11
-0.00063557 0.000190515 0.000190738 -2.12053e-05
-0.00064363 0.000192928 0.000193158 -2.12052e-05
-0.000895524 0.000268682 0.000268647 1.34727e-11
-0.000762733 0.000228747 0.000228851 -1.14852e-05
-0.0006396 0.000191722 0.000191948 -2.12052e-05
-0.000772403 0.000231645 0.000231753 -1.14852e-05
-0.000767568 0.000230196 0.000230302 -1.14852e-05
-0.000889885 0.00026699 0.000266955 1.33825e-11
-0.000878607 0.000263606 0.000263572 1.32404e-11
-0.00062751 0.000188101 0.000188318 -2.12053e-05
-0.00063557 0.000190515 0.000190738 -2.12053e-05
-0.000884246 0.000265298 0.000265263 1.33352e-11
-0.000753064 0.000225848 0.00022595 -1.14852e-05
-0.00063154 0.000189308 0.000189528 -2.12053e-05
-0.000762733 0.000228747 0.000228851 -1.14852e-05
-0.000757899 0.000227298 0.0002274 -1.14852e-05
-0.000878607 0.000263606 0.000263572 1.32404e-11
-0.000867329 0.000260223 0.000260188 1.30538e-11
-0.00061945 0.000185687 0.000185898 -2.12053e-05
-0.00062751 0.000188101 0.000188318 -2.12053e-05
-0.000872968 0.000261915 0.00026188 1.31409e-11
-0.000743395 0.00022295 0.000223048 -1.14852e-05
-0.00062348 0.000186894 0.000187108 -2.12053e-05
-0.000753064 0.000225848 0.00022595 -1.14852e-05
-0.000748229 0.000224399 0.000224499 -1.14852e-05
-0.000867329 0.000260223 0.000260188 1.30538e-11
-0.000856051 0.00025684 0.000256805 1.28894e-11
-0.00061139 0.000183274 0.000183478 -2.12053e-05
-0.00061945 0.000185687 0.000185898 -2.12053e-05
-0.00086169 0.000258531 0.000258497 1.29752e-11
-0.000733726 0.000220051 0.000220146 -1.14853e-05
-0.00061542 0.000184481 0.000184688 -2.12053e-05
-0.000743395 0.00022295 0.000223048 -1.14852e-05
-0.00073856 0.000221501 0.000221597 -1.14853e-05
-0.000856051 0.00025684 0.000256805 1.29127e-11
-0.000844773 0.000253456 0.000253422 1.27032e-11
-0.00060333 0.00018086 0.000181059 -2.12053e-05
-0.00061139 0.000183274 0.000183478 -2.12053e-05
-0.000850412 0.000255148 0.000255113 1.28299e-11
-0.000724057 0.000217153 0.000217245 -1.14853e-05
-0.00060736 0.000182067 0.000182268 -2.12053e-05
-0.000733726 0.000220051 0.000220146 -1.14853e-05
-0.000728891 0.000218602 0.000218695 -1.14853e-05
-0.000844773 0.000253456 0.000253422 1.27032e-11
-0.000833495 0.000250073 0.000250038 1.25625e-11
-0.00059527 0.000178446 0.000178639 -2.12053e-05
-0.00060333 0.00018086 0.000181059 -2.12053e-05
-0.000839134 0.000251764 0.00025173 1.26326e-11
-0.000714388 0.000214254 0.000214343 -1.14853e-05
-0.0005993 0.000179653 0.000179849 -2.12053e-05
-0.000724057 0.000217153 0.000217245 -1.14853e-05
-0.000719222 0.000215704 0.000215794 -1.14853e-05
-0.000833495 0.000250073 0.000250038 1.25625e-11
-0.000822218 0.000246689 0.000246655 1.23903e-11
-0.000587211 0.000176032 0.000176219 -2.12054e-05
-0.00059527 0.000178446 0.000178639 -2.12053e-05
-0.000827857 0.000248381 0.000248347 1.24608e-11
-0.000704719 0.000211356 0.000211441 -1.14853e-05
-0.000591241 0.000177239 0.000177429 -2.12053e-05
-0.000714388 0.000214254 0.000214343 -1.14853e-05
-0.000709554 0.000212805 0.000212892 -1.14853e-05
-0.000822218 0.000246689 0.000246655 1.23769e-11
-0.00081094 0.000243306 0.000243272 1.21967e-11
-0.000579151 0.000173619 0.0001738 -2.12054e-05
-0.000587211 0.000176032 0.000176219 -2.12054e-05
-0.000816579 0.000244998 0.000244963 1.23038e-11
-0.000695051 0.000208458 0.00020854 -1.14854e-05
-0.000583181 0.000174826 0.00017501 -2.12054e-05
-0.000704719 0.000211356 0.000211441 -1.14853e-05
-0.000699885 0.000209907 0.000209991 -1.14853e-05
-0.00081094 0.000243306 0.000243272 1.21966e-11
-0.000799663 0.000239923 0.000239889 1.2038e-11
-0.000571092 0.000171205 0.00017138 -2.12054e-05
-0.000579151 0.000173619 0.0001738 -2.12054e-05
-0.000805302 0.000241614 0.00024158 1.21145e-11
-0.000685382 0.000205559 0.000205638 -1.14854e-05
-0.000575122 0.000172412 0.00017259 -2.12054e-05
-0.000695051 0.000208458 0.00020854 -1.14854e-05
-0.000690216 0.000207008 0.000207089 -1.14854e-05
-0.000799663 0.000239923 0.000239889 1.2038e-11
-0.000788385 0.000236539 0.000236506 1.18734e-11
-0.000563033 0.000168791 0.000168961 -2.12054e-05
-0.000571092 0.000171205 0.00017138 -2.12054e-05
-0.000794024 0.000238231 0.000238197 1.19405e-11
-0.000675714 0.000202661 0.000202737 -1.14854e-05
-0.000567062 0.000169998 0.000170171 -2.12054e-05
-0.000685382 0.000205559 0.000205638 -1.14854e-05
-0.000680548 0.00020411 0.000204188 -1.14854e-05
-0.000788385 0.000236539 0.000236506 1.18734e-11
-0.000777108 0.000233156 0.000233122 1.16968e-11
-0.000554974 0.000166377 0.000166541 -2.12054e-05
-0.000563033 0.000168791 0.000168961 -2.12054e-05
-0.000782747 0.000234848 0.000234814 1.17617e-11
-0.000666045 0.000199762 0.000199836 -1.14854e-05
-0.000559003 0.000167584 0.000167751 -2.12054e-05
-0.000675714 0.000202661 0.000202737 -1.14854e-05
-0.00067088 0.000201212 0.000201286 -1.14854e-05
-0.000777108 0.000233156 0.000233122 1.16969e-11
-0.000765831 0.000229773 0.000229739 1.15047e-11
-0.000546915 0.000163963 0.000164122 -2.12055e-05
-0.000554974 0.000166377 0.000166541 -2.12054e-05
-0.00077147 0.000231464 0.000231431 1.15896e-11
-0.000656377 0.000196864 0.000196934 -1.14854e-05
-0.000550944 0.00016517 0.000165332 -2.12054e-05
-0.000666045 0.000199762 0.000199836 -1.14854e-05
-0.000661211 0.000198313 0.000198385 -1.14854e-05
-0.000765831 0.000229773 0.000229739 1.15045e-11
-0.000754554 0.000226389 0.000226356 1.13341e-11
-0.000538856 0.000161549 0.000161703 -2.12055e-05
-0.000546915 0.000163963 0.000164122 -2.12055e-05
-0.000760193 0.000228081 0.000228048 1.14211e-11
-0.000646709 0.000193965 0.000194033 -1.14855e-05
-0.000542885 0.000162756 0.000162912 -2.12055e-05
-0.000656377 0.000196864 0.000196934 -1.14854e-05
-0.000651543 0.000195415 0.000195484 -1.14855e-05
-0.000754554 0.000226389 0.000226356 1.13341e-11
-0.000743277 0.000223006 0.000222973 1.117e-11
-0.000530797 0.000159136 0.000159284 -2.12055e-05
-0.000538856 0.000161549 0.000161703 -2.12055e-05
-0.000748915 0.000224698 0.000224665 1.12452e-11
-0.000637041 0.000191067 0.000191132 -1.14855e-05
-0.000534827 0.000160342 0.000160493 -2.12055e-05
-0.000646709 0.000193965 0.000194033 -1.14855e-05
-0.000641875 0.000192516 0.000192582 -1.14855e-05
-0.000743277 0.000223006 0.000222973 1.117e-11
-0.000732 0.000219623 0.00021959 1.10124e-11
-0.000522739 0.000156722 0.000156864 -2.12055e-05
-0.000530797 0.000159136 0.000159284 -2.12055e-05
-0.000737639 0.000221315 0.000221282 1.10755e-11
-0.000627373 0.000188169 0.000188231 -1.14855e-05
-0.000526768 0.000157929 0.000158074 -2.12055e-05
-0.000637041 0.000191067 0.000191132 -1.14855e-05
-0.000632207 0.000189618 0.000189681 -1.14855e-05
-0.000732 0.000219623 0.00021959 1.09958e-11
-0.000720723 0.00021624 0.000216207 1.08291e-11
-0.00051468 0.000154308 0.000154445 -2.12056e-05
-0.000522739 0.000156722 0.000156864 -2.12055e-05
-0.000726362 0.000217932 0.000217899 1.09178e-11
-0.000617706 0.00018527 0.000185329 -1.14856e-05
-0.000518709 0.000155515 0.000155655 -2.12055e-05
-0.000627373 0.000188169 0.000188231 -1.14855e-05
-0.000622539 0.000186719 0.00018678 -1.14855e-05
-0.000720723 0.00021624 0.000216207 1.08292e-11
-0.000709447 0.000212857 0.000212824 1.06548e-11
-0.000506622 0.000151894 0.000152026 -2.12056e-05
-0.00051468 0.000154308 0.000154445 -2.12056e-05
-0.000715085 0.000214548 0.000214516 1.07398e-11
-0.000608038 0.000182372 0.000182428 -1.14856e-05
-0.000510651 0.000153101 0.000153236 -2.12056e-05
-0.000617706 0.00018527 0.000185329 -1.14856e-05
-0.000612872 0.000183821 0.000183879 -1.14856e-05
-0.000709447 0.000212857 0.000212824 1.06548e-11
-0.00069817 0.000209474 0.000209441 1.04898e-11
-0.000498564 0.00014948 0.000149607 -2.12056e-05
-0.000506622 0.000151894 0.000152026 -2.12056e-05
-0.000703808 0.000211165 0.000211133 1.05704e-11
-0.00059837 0.000179473 0.000179527 -1.14856e-05
-0.000502593 0.000150687 0.000150817 -2.12056e-05
-0.000608038 0.000182372 0.000182428 -1.14856e-05
-0.000603204 0.000180922 0.000180978 -1.14856e-05
-0.00069817 0.000209474 0.000209441 1.04898e-11
-0.000686893 0.000206091 0.000206058 1.03261e-11
-0.000490506 0.000147066 0.000147189 -2.12056e-05
-0.000498564 0.00014948 0.000149607 -2.12056e-05
-0.000692532 0.000207782 0.00020775 1.04181e-11
-0.000588703 0.000176575 0.000176626 -1.14856e-05
-0.000494535 0.000148273 0.000148398 -2.12056e-05
-0.00059837 0.000179473 0.000179527 -1.14856e-05
-0.000593537 0.000178024 0.000178077 -1.14856e-05
-0.000686893 0.000206091 0.000206058 1.03263e-11
-0.000675617 0.000202708 0.000202675 1.0115e-11
-0.000482448 0.000144652 0.00014477 -2.12057e-05
-0.000490506 0.000147066 0.000147189 -2.12056e-05
-0.000681255 0.000204399 0.000204367 1.02063e-11
-0.000579036 0.000173676 0.000173725 -1.14857e-05
-0.000486477 0.000145859 0.000145979 -2.12057e-05
-0.000588703 0.000176575 0.000176626 -1.14856e-05
-0.000583869 0.000175126 0.000175176 -1.14857e-05
-0.000675617 0.000202708 0.000202675 1.01253e-11
-0.000664341 0.000199325 0.000199293 9.97374e-12
-0.00047439 0.000142238 0.000142351 -2.12057e-05
-0.000482448 0.000144652 0.00014477 -2.12057e-05
-0.000669979 0.000201016 0.000200984 1.00436e-11
-0.000569368 0.000170778 0.000170824 -1.14857e-05
-0.000478419 0.000143445 0.00014356 -2.12057e-05
-0.000579036 0.000173676 0.000173725 -1.14857e-05
-0.000574202 0.000172227 0.000172275 -1.14857e-05
-0.000664341 0.000199325 0.000199293 9.97374e-12
-0.000653064 0.000195942 0.00019591 9.79214e-12
-0.000466332 0.000139824 0.000139932 -2.12057e-05
-0.00047439 0.000142238 0.000142351 -2.12057e-05
-0.000658703 0.000197633 0.000197601 9.84333e-12
-0.000559701 0.00016788 0.000167924 -1.14857e-05
-0.000470361 0.000141031 0.000141142 -2.12057e-05
-0.000569368 0.000170778 0.000170824 -1.14857e-05
-0.000564535 0.000169329 0.000169374 -1.14857e-05
-0.000653064 0.000195942 0.00019591 9.79214e-12
-0.000641788 0.000192559 0.000192527 9.63485e-12
-0.000458274 0.000137409 0.000137514 -2.12058e-05
-0.000466332 0.000139824 0.000139932 -2.12057e-05
-0.000647426 0.00019425 0.000194218 9.7061e-12
-0.000550034 0.000164981 0.000165023 -1.14858e-05
-0.000462303 0.000138616 0.000138723 -2.12058e-05
-0.000559701 0.00016788 0.000167924 -1.14857e-05
-0.000554868 0.00016643 0.000166473 -1.14857e-05
-0.000641788 0.000192559 0.000192527 9.63128e-12
-0.000630512 0.000189176 0.000189144 9.45769e-12
-0.000450217 0.000134995 0.000135095 -2.12058e-05
-0.000458274 0.000137409 0.000137514 -2.12058e-05
-0.00063615 0.000190867 0.000190836 9.52571e-12
-0.000540367 0.000162083 0.000162122 -1.14858e-05
-0.000454246 0.000136202 0.000136304 -2.12058e-05
-0.000550034 0.000164981 0.000165023 -1.14858e-05
-0.000545201 0.000163532 0.000163572 -1.14858e-05
-0.000630512 0.000189176 0.000189144 9.4576e-12
-0.000619236 0.000185793 0.000185761 9.28752e-12
-0.000442159 0.000132581 0.000132676 -2.12058e-05
-0.000450217 0.000134995 0.000135095 -2.12058e-05
-0.000624874 0.000187484 0.000187453 9.36194e-12
-0.000530701 0.000159184 0.000159221 -1.14858e-05
-0.000446188 0.000133788 0.000133886 -2.12058e-05
-0.000540367 0.000162083 0.000162122 -1.14858e-05
-0.000535534 0.000160633 0.000160672 -1.14858e-05
-0.000619236 0.000185793 0.000185761 9.28752e-12
-0.00060796 0.00018241 0.000182379 9.11762e-12
-0.000434102 0.000130167 0.000130258 -2.12059e-05
-0.000442159 0.000132581 0.000132676 -2.12058e-05
-0.000613598 0.000184101 0.00018407 9.2249e-12
-0.000521034 0.000156286 0.000156321 -1.14859e-05
-0.000438131 0.000131374 0.000131467 -2.12059e-05
-0.000530701 0.000159184 0.000159221 -1.14858e-05
-0.000525867 0.000157735 0.000157771 -1.14858e-05
-0.00060796 0.00018241 0.000182379 9.11762e-12
-0.000596684 0.000179027 0.000178996 8.95318e-12
-0.000426045 0.000127753 0.00012784 -2.12059e-05
-0.000434102 0.000130167 0.000130258 -2.12059e-05
-0.000602322 0.000180718 0.000180687 9.00792e-12
-0.000511367 0.000153387 0.00015342 -1.14859e-05
-0.000430074 0.00012896 0.000129049 -2.12059e-05
-0.000521034 0.000156286 0.000156321 -1.14859e-05
-0.000516201 0.000154837 0.00015487 -1.14859e-05
-0.000596684 0.000179027 0.000178996 8.95298e-12
-0.000585409 0.000175644 0.000175613 8.74238e-12
-0.000417988 0.000125339 0.000125421 -2.1206e-05
-0.000426045 0.000127753 0.00012784 -2.12059e-05
-0.000591046 0.000177336 0.000177305 8.87812e-12
-0.000501701 0.000150489 0.000150519 -1.14859e-05
-0.000422016 0.000126546 0.00012663 -2.12059e-05
-0.000511367 0.000153387 0.00015342 -1.14859e-05
-0.000506534 0.000151938 0.00015197 -1.14859e-05
-0.000585409 0.000175644 0.000175613 8.73908e-12
-0.000574133 0.000172261 0.000172231 8.60005e-12
-0.000409931 0.000122924 0.000123003 -2.1206e-05
-0.000417988 0.000125339 0.000125421 -2.1206e-05
-0.000579771 0.000173953 0.000173922 8.70378e-12
-0.000492034 0.00014759 0.000147619 -1.1486e-05
-0.000413959 0.000124131 0.000124212 -2.1206e-05
-0.000501701 0.000150489 0.000150519 -1.14859e-05
-0.000496868 0.00014904 0.000149069 -1.14859e-05
-0.000574133 0.000172261 0.000172231 8.60005e-12
-0.000562857 0.000168878 0.000168848 8.41611e-12
-0.000401874 0.00012051 0.000120585 -2.12061e-05
-0.000409931 0.000122924 0.000123003 -2.1206e-05
-0.000568495 0.00017057 0.000170539 8.52632e-12
-0.000482368 0.000144692 0.000144718 -1.1486e-05
-0.000405903 0.000121717 0.000121794 -2.1206e-05
-0.000492034 0.00014759 0.000147619 -1.1486e-05
-0.000487201 0.000146141 0.000146169 -1.1486e-05
-0.000562857 0.000168878 0.000168848 8.4195e-12
-0.000551582 0.000165496 0.000165465 8.26576e-12
-0.000393817 0.000118096 0.000118166 -2.12061e-05
-0.000401874 0.00012051 0.000120585 -2.12061e-05
-0.00055722 0.000167187 0.000167157 8.3564e-12
-0.000472702 0.000141794 0.000141818 -1.1486e-05
-0.000397846 0.000119303 0.000119376 -2.12061e-05
-0.000482368 0.000144692 0.000144718 -1.1486e-05
-0.000477535 0.000143243 0.000143268 -1.1486e-05
-0.000551582 0.000165496 0.000165465 8.26576e-12
-0.000540306 0.000162113 0.000162083 8.07195e-12
-0.000385761 0.000115681 0.000115748 -2.12061e-05
-0.000393817 0.000118096 0.000118166 -2.12061e-05
-0.000545944 0.000163804 0.000163774 8.22136e-12
-0.000463036 0.000138895 0.000138917 -1.14861e-05
-0.000389789 0.000116889 0.000116957 -2.12061e-05
-0.000472702 0.000141794 0.000141818 -1.1486e-05
-0.000467869 0.000140344 0.000140368 -1.1486e-05
-0.000540306 0.000162113 0.000162083 8.07195e-12
-0.000529031 0.00015873 0.0001587 7.90342e-12
-0.000377704 0.000113267 0.00011333 -2.12062e-05
-0.000385761 0.000115681 0.000115748 -2.12061e-05
-0.000534669 0.000160422 0.000160392 8.00772e-12
-0.00045337 0.000135997 0.000136017 -1.14861e-05
-0.000381733 0.000114474 0.000114539 -2.12062e-05
-0.000463036 0.000138895 0.000138917 -1.14861e-05
-0.000458203 0.000137446 0.000137467 -1.14861e-05
-0.000529031 0.00015873 0.0001587 7.90342e-12
-0.000517756 0.000155347 0.000155318 7.7229e-12
-0.000369648 0.000110853 0.000110912 -2.12062e-05
-0.000377704 0.000113267 0.00011333 -2.12062e-05
-0.000523393 0.000157039 0.000157009 7.81864e-12
-0.000443704 0.000133098 0.000133117 -1.14861e-05
-0.000373676 0.00011206 0.000112121 -2.12062e-05
-0.00045337 0.000135997 0.000136017 -1.14861e-05
-0.000448537 0.000134547 0.000134567 -1.14861e-05
-0.000517756 0.000155347 0.000155318 7.76246e-12
-0.000506481 0.000151965 0.000151935 7.57518e-12
-0.000361592 0.000108438 0.000108494 -2.12063e-05
-0.000369648 0.000110853 0.000110912 -2.12062e-05
-0.000512118 0.000153656 0.000153627 7.6725e-12
-0.000434038 0.0001302 0.000130216 -1.14862e-05
-0.00036562 0.000109646 0.000109703 -2.12063e-05
-0.000443704 0.000133098 0.000133117 -1.14861e-05
-0.000438871 0.000131649 0.000131667 -1.14862e-05
-0.000506481 0.000151965 0.000151935 7.57518e-12
-0.000495205 0.000148582 0.000148553 7.39895e-12
-0.000353536 0.000106024 0.000106076 -2.12063e-05
-0.000361592 0.000108438 0.000108494 -2.12063e-05
-0.000500843 0.000150273 0.000150244 7.47277e-12
-0.000424372 0.000127301 0.000127316 -1.14862e-05
-0.000357564 0.000107231 0.000107285 -2.12063e-05
-0.000434038 0.0001302 0.000130216 -1.14862e-05
-0.000429205 0.000128751 0.000128766 -1.14862e-05
-0.000495205 0.000148582 0.000148553 7.39895e-12
-0.00048393 0.000145199 0.00014517 7.2464e-12
-0.00034548 0.00010361 0.000103659 -2.12064e-05
-0.000353536 0.000106024 0.000106076 -2.12063e-05
-0.000489568 0.000146891 0.000146862 7.32001e-12
-0.000414707 0.000124403 0.000124416 -1.14863e-05
-0.000349508 0.000104817 0.000104867 -2.12064e-05
-0.000424372 0.000127301 0.000127316 -1.14862e-05
-0.000419539 0.000125852 0.000125866 -1.14862e-05
-0.00048393 0.000145199 0.00014517 7.21973e-12
-0.000472655 0.000141817 0.000141788 7.07987e-12
-0.000337424 0.000101195 0.000101241 -2.12064e-05
-0.00034548 0.00010361 0.000103659 -2.12064e-05
-0.000478293 0.000143508 0.000143479 7.12733e-12
-0.000405041 0.000121504 0.000121516 -1.14863e-05
-0.000341452 0.000102402 0.00010245 -2.12064e-05
-0.000414707 0.000124403 0.000124416 -1.14863e-05
-0.000409874 0.000122954 0.000122966 -1.14863e-05
-0.000472655 0.000141817 0.000141788 7.08005e-12
-0.00046138 0.000138434 0.000138406 6.88728e-12
-0.000329368 9.87806e-05 9.88231e-05 -2.12065e-05
-0.000337424 0.000101195 0.000101241 -2.12064e-05
-0.000467018 0.000140126 0.000140097 6.97409e-12
-0.000395376 0.000118606 0.000118616 -1.14863e-05
-0.000333396 9.99878e-05 0.000100032 -2.12065e-05
-0.000405041 0.000121504 0.000121516 -1.14863e-05
-0.000400208 0.000120055 0.000120066 -1.14863e-05
-0.00046138 0.000138434 0.000138406 6.88728e-12
-0.000450106 0.000135052 0.000135023 6.71631e-12
-0.000321312 9.63661e-05 9.64054e-05 -2.12065e-05
-0.000329368 9.87806e-05 9.88231e-05 -2.12065e-05
-0.000455743 0.000136743 0.000136714 6.84291e-12
-0.00038571 0.000115707 0.000115716 -1.14864e-05
-0.00032534 9.75733e-05 9.76142e-05 -2.12065e-05
-0.000395376 0.000118606 0.000118616 -1.14863e-05
-0.000390543 0.000117157 0.000117166 -1.14864e-05
-0.000450106 0.000135052 0.000135023 6.71631e-12
-0.000438831 0.000131669 0.000131641 6.53538e-12
-0.000313256 9.39516e-05 9.39878e-05 -2.12066e-05
-0.000321312 9.63661e-05 9.64054e-05 -2.12065e-05
-0.000444468 0.00013336 0.000133332 6.58184e-12
-0.000376045 0.000112809 0.000112816 -1.14864e-05
-0.000317284 9.51588e-05 9.51966e-05 -2.12066e-05
-0.00038571 0.000115707 0.000115716 -1.14864e-05
-0.000380878 0.000114258 0.000114266 -1.14864e-05
-0.000438831 0.000131669 0.000131641 6.53538e-12
-0.000427556 0.000128287 0.000128258 6.4143e-12
-0.000305201 9.1537e-05 9.15703e-05 -2.12067e-05
-0.000313256 9.39516e-05 9.39878e-05 -2.12066e-05
-0.000433194 0.000129978 0.00012995 6.47398e-12
-0.00036638 0.00010991 0.000109916 -1.14865e-05
-0.000309229 9.27443e-05 9.2779e-05 -2.12066e-05
-0.000376045 0.000112809 0.000112816 -1.14864e-05
-0.000371213 0.00011136 0.000111365 -1.14864e-05
-0.000427556 0.000128287 0.000128258 6.41099e-12
-0.000416282 0.000124904 0.000124876 6.22167e-12
-0.000297146 8.91224e-05 8.91528e-05 -2.12067e-05
-0.000305201 9.1537e-05 9.15703e-05 -2.12067e-05
-0.000421919 0.000126595 0.000126567 6.30343e-12
-0.000356715 0.000107012 0.000107016 -1.14865e-05
-0.000301173 9.03297e-05 9.03615e-05 -2.12067e-05
-0.00036638 0.00010991 0.000109916 -1.14865e-05
-0.000361547 0.000108461 0.000108466 -1.14865e-05
-0.000416282 0.000124904 0.000124876 6.22167e-12
-0.000405007 0.000121521 0.000121494 6.03661e-12
-0.00028909 8.67078e-05 8.67353e-05 -2.12068e-05
-0.000297146 8.91224e-05 8.91528e-05 -2.12067e-05
-0.000410644 0.000123213 0.000123185 6.17114e-12
-0.00034705 0.000104113 0.000104116 -1.14866e-05
-0.000293118 8.79151e-05 8.79441e-05 -2.12068e-05
-0.000356715 0.000107012 0.000107016 -1.14865e-05
-0.000351882 0.000105563 0.000105566 -1.14865e-05
-0.000405007 0.000121521 0.000121494 6.03661e-12
-0.000393733 0.000118139 0.000118112 5.84938e-12
-0.000281035 8.42932e-05 8.4318e-05 -2.12068e-05
-0.00028909 8.67078e-05 8.67353e-05 -2.12068e-05
-0.00039937 0.00011983 0.000119803 5.94704e-12
-0.000337385 0.000101215 0.000101216 -1.14866e-05
-0.000285063 8.55005e-05 8.55267e-05 -2.12068e-05
-0.00034705 0.000104113 0.000104116 -1.14866e-05
-0.000342217 0.000102664 0.000102666 -1.14866e-05
-0.000393733 0.000118139 0.000118112 5.87588e-12
-0.000382458 0.000114757 0.000114729 5.68492e-12
-0.00027298 8.18785e-05 8.19007e-05 -2.12069e-05
-0.000281035 8.42932e-05 8.4318e-05 -2.12068e-05
-0.000388095 0.000116448 0.00011642 5.76076e-12
-0.00032772 9.83165e-05 9.83159e-05 -1.14867e-05
-0.000277008 8.30859e-05 8.31093e-05 -2.12069e-05
-0.000337385 0.000101215 0.000101216 -1.14866e-05
-0.000332553 9.97658e-05 9.97658e-05 -1.14866e-05
-0.000382458 0.000114757 0.000114729 5.6851e-12
-0.000371184 0.000111374 0.000111347 5.4895e-12
-0.000264925 7.94638e-05 7.94834e-05 -2.1207e-05
-0.00027298 8.18785e-05 8.19007e-05 -2.12069e-05
-0.000376821 0.000113065 0.000113038 5.57804e-12
-0.000318056 9.5418e-05 9.54161e-05 -1.14867e-05
-0.000268953 8.06712e-05 8.0692e-05 -2.12069e-05
-0.00032772 9.83165e-05 9.83159e-05 -1.14867e-05
-0.000322888 9.68673e-05 9.6866e-05 -1.14867e-05
-0.000371184 0.000111374 0.000111347 5.4895e-12
-0.00035991 0.000107992 0.000107965 5.26835e-12
-0.00025687 7.70491e-05 7.70662e-05 -2.1207e-05
-0.000264925 7.94638e-05 7.94834e-05 -2.1207e-05
-0.000365547 0.000109683 0.000109656 5.37637e-12
-0.000308391 9.25195e-05 9.25164e-05 -1.14867e-05
-0.000260898 7.82565e-05 7.82748e-05 -2.1207e-05
-0.000318056 9.5418e-05 9.54161e-05 -1.14867e-05
-0.000313223 9.39687e-05 9.39662e-05 -1.14867e-05
-0.00035991 0.000107992 0.000107965 5.26835e-12
-0.000348636 0.000104609 0.000104583 5.12323e-12
-0.000248815 7.46344e-05 7.4649e-05 -2.12071e-05
-0.00025687 7.70491e-05 7.70662e-05 -2.1207e-05
-0.000354273 0.0001063 0.000106274 5.14062e-12
-0.000298726 8.9621e-05 8.96166e-05 -1.14868e-05
-0.000252843 7.58418e-05 7.58576e-05 -2.12071e-05
-0.000308391 9.25195e-05 9.25164e-05 -1.14867e-05
-0.000303559 9.10702e-05 9.10665e-05 -1.14868e-05
-0.000348636 0.000104609 0.000104583 5.12343e-12
-0.000337361 0.000101227 0.000101201 4.8478e-12
-0.000240761 7.22196e-05 7.2232e-05 -2.12072e-05
-0.000248815 7.46344e-05 7.4649e-05 -2.12071e-05
-0.000342999 0.000102918 0.000102892 4.9771e-12
-0.000289062 8.67225e-05 8.6717e-05 -1.14868e-05
-0.000244788 7.3427e-05 7.34405e-05 -2.12071e-05
-0.000298726 8.9621e-05 8.96166e-05 -1.14868e-05
-0.000293894 8.81717e-05 8.81668e-05 -1.14868e-05
-0.000337361 0.000101227 0.000101201 4.88757e-12
-0.000326087 9.78445e-05 9.78184e-05 4.56879e-12
-0.000232706 6.98048e-05 6.98149e-05 -2.12072e-05
-0.000240761 7.22196e-05 7.2232e-05 -2.12072e-05
-0.000331724 9.95357e-05 9.95095e-05 4.73103e-12
-0.000279398 8.38239e-05 8.38173e-05 -1.14869e-05
-0.000236734 7.10122e-05 7.10234e-05 -2.12072e-05
-0.000289062 8.67225e-05 8.6717e-05 -1.14868e-05
-0.00028423 8.52732e-05 8.52671e-05 -1.14869e-05
-0.000326087 9.78445e-05 9.78184e-05 4.56879e-12
-0.000314813 9.44622e-05 9.44363e-05 4.31708e-12
-0.000224652 6.739e-05 6.7398e-05 -2.12073e-05
-0.000232706 6.98048e-05 6.98149e-05 -2.12072e-05
-0.00032045 9.61534e-05 9.61273e-05 4.46565e-12
-0.000269733 8.09254e-05 8.09177e-05 -1.14869e-05
-0.000228679 6.85974e-05 6.86064e-05 -2.12073e-05
-0.000279398 8.38239e-05 8.38173e-05 -1.14869e-05
-0.000274566 8.23747e-05 8.23675e-05 -1.14869e-05
-0.000314813 9.44622e-05 9.44363e-05 4.31708e-12
-0.00030354 9.10799e-05 9.10542e-05 4.02023e-12
-0.000216598 6.49752e-05 6.4981e-05 -2.12073e-05
-0.000224652 6.739e-05 6.7398e-05 -2.12073e-05
-0.000309177 9.2771e-05 9.27452e-05 4.18902e-12
-0.000260069 7.80269e-05 7.80182e-05 -1.1487e-05
-0.000220625 6.61826e-05 6.61895e-05 -2.12073e-05
-0.000269733 8.09254e-05 8.09177e-05 -1.14869e-05
-0.000264901 7.94761e-05 7.9468e-05 -1.1487e-05
-0.00030354 9.10799e-05 9.10542e-05 4.04671e-12
-0.000292266 8.76976e-05 8.76721e-05 3.76425e-12
-0.000208543 6.25603e-05 6.25642e-05 -2.12074e-05
-0.000216598 6.49752e-05 6.4981e-05 -2.12073e-05
-0.000297903 8.93887e-05 8.93631e-05 3.87725e-12
-0.000250405 7.51283e-05 7.51187e-05 -1.1487e-05
-0.00021257 6.37677e-05 6.37726e-05 -2.12074e-05
-0.000260069 7.80269e-05 7.80182e-05 -1.1487e-05
-0.000255237 7.65776e-05 7.65684e-05 -1.1487e-05
-0.000292266 8.76976e-05 8.76721e-05 3.76443e-12
-0.000280992 8.43153e-05 8.429e-05 3.56292e-12
-0.000200489 6.01454e-05 6.01474e-05 -2.12074e-05
-0.000208543 6.25603e-05 6.25642e-05 -2.12074e-05
-0.000286629 8.60064e-05 8.59811e-05 3.6563e-12
-0.000240741 7.22298e-05 7.22192e-05 -1.1487e-05
-0.000204516 6.13528e-05 6.13558e-05 -2.12074e-05
-0.000250405 7.51283e-05 7.51187e-05 -1.1487e-05
-0.000245573 7.36791e-05 7.36689e-05 -1.1487e-05
-0.000280992 8.43153e-05 8.429e-05 3.56292e-12
-0.000269718 8.09331e-05 8.0908e-05 3.56809e-12
-0.000192435 5.77305e-05 5.77306e-05 -2.12074e-05
-0.000200489 6.01454e-05 6.01474e-05 -2.12074e-05
-0.000275355 8.26242e-05 8.2599e-05 3.49138e-12
-0.000231077 6.93313e-05 6.93198e-05 -1.14871e-05
-0.000196462 5.89379e-05 5.8939e-05 -2.12074e-05
-0.000240741 7.22298e-05 7.22192e-05 -1.1487e-05
-0.000235909 7.07805e-05 7.07695e-05 -1.1487e-05
-0.000269718 8.09331e-05 8.0908e-05 3.56809e-12
-0.000258445 7.75508e-05 7.7526e-05 3.73121e-12
-0.000184381 5.53155e-05 5.53139e-05 -2.12075e-05
-0.000192435 5.77305e-05 5.77306e-05 -2.12074e-05
-0.000264082 7.92419e-05 7.9217e-05 3.61486e-12
-0.000221414 6.64327e-05 6.64204e-05 -1.14871e-05
-0.000188408 5.6523e-05 5.65223e-05 -2.12075e-05
-0.000231077 6.93313e-05 6.93198e-05 -1.14871e-05
-0.000226246 6.7882e-05 6.78701e-05 -1.14871e-05
-0.000258445 7.75508e-05 7.7526e-05 3.73103e-12
-0.000247171 7.41687e-05 7.41441e-05 4.88499e-12
-0.000176328 5.29006e-05 5.28973e-05 -2.12075e-05
-0.000184381 5.53155e-05 5.53139e-05 -2.12075e-05
-0.000252808 7.58597e-05 7.5835e-05 4.11088e-12
-0.00021175 6.35342e-05 6.35211e-05 -1.14871e-05
-0.000180354 5.4108e-05 5.41056e-05 -2.12075e-05
-0.000221414 6.64327e-05 6.64204e-05 -1.14871e-05
-0.000216582 6.49835e-05 6.49707e-05 -1.14871e-05
-0.000247171 7.41687e-05 7.41441e-05 4.9117e-12
-0.000235898 7.07865e-05 7.07621e-05 6.16438e-12
-0.000168274 5.04856e-05 5.04807e-05 -2.12075e-05
-0.000176328 5.29006e-05 5.28973e-05 -2.12075e-05
-0.000241535 7.24776e-05 7.24531e-05 5.32818e-12
-0.000202087 6.06357e-05 6.06218e-05 -1.14871e-05
-0.000172301 5.16931e-05 5.1689e-05 -2.12075e-05
-0.00021175 6.35342e-05 6.35211e-05 -1.14871e-05
-0.000206918 6.20849e-05 6.20714e-05 -1.14871e-05
-0.000235898 7.07865e-05 7.07621e-05 6.16438e-12
-0.000224625 6.74044e-05 6.73802e-05 1.00154e-11
-0.00016022 4.80706e-05 4.80642e-05 -2.12076e-05
-0.000168274 5.04856e-05 5.04807e-05 -2.12075e-05
-0.000230262 6.90954e-05 6.90712e-05 8.32476e-12
-0.000192423 5.77371e-05 5.77226e-05 -1.14872e-05
-0.000164247 4.92781e-05 4.92725e-05 -2.12076e-05
-0.000202087 6.06357e-05 6.06218e-05 -1.14871e-05
-0.000197255 5.91864e-05 5.91722e-05 -1.14872e-05
-0.000224625 6.74044e-05 6.73802e-05 1.00154e-11
-0.000213352 6.40222e-05 6.39983e-05 1.32469e-11
-0.000152167 4.56557e-05 4.56477e-05 -2.12078e-05
-0.00016022 4.80706e-05 4.80642e-05 -2.12076e-05
-0.000218988 6.57133e-05 6.56893e-05 1.07284e-11
-0.00018276 5.48386e-05 5.48233e-05 -1.14873e-05
-0.000156194 4.68632e-05 4.6856e-05 -2.12077e-05
-0.000192423 5.77371e-05 5.77226e-05 -1.14872e-05
-0.000187591 5.62879e-05 5.62729e-05 -1.14873e-05
-0.000213352 6.40222e-05 6.39983e-05 1.32571e-11
-0.000202078 6.064e-05 6.06164e-05 1.97878e-11
-0.000144114 4.32408e-05 4.32313e-05 -2.12081e-05
-0.000152167 4.56557e-05 4.56477e-05 -2.12078e-05
-0.000207715 6.23311e-05 6.23074e-05 2.01049e-11
-0.000173096 5.19401e-05 5.19241e-05 -1.14876e-05
-0.00014814 4.44482e-05 4.44395e-05 -2.12079e-05
-0.00018276 5.48386e-05 5.48233e-05 -1.14873e-05
-0.000177928 5.33893e-05 5.33737e-05 -1.14874e-05
-0.000202078 6.064e-05 6.06164e-05 1.97878e-11
-0.000190805 5.72578e-05 5.72344e-05 2.21091e-11
-0.000136061 4.08259e-05 4.08149e-05 -2.12086e-05
-0.000144114 4.32408e-05 4.32313e-05 -2.12081e-05
-0.000196442 5.89489e-05 5.89255e-05 1.53086e-11
-0.000163433 4.90415e-05 4.90249e-05 -1.1488e-05
-0.000140087 4.20333e-05 4.20231e-05 -2.12083e-05
-0.000173096 5.19401e-05 5.19241e-05 -1.14876e-05
-0.000168265 5.04908e-05 5.04745e-05 -1.14878e-05
-0.000190805 5.72578e-05 5.72344e-05 2.21091e-11
-0.000179531 5.38753e-05 5.38523e-05 9.53728e-12
-0.000128008 3.84108e-05 3.83986e-05 -2.12092e-05
-0.000136061 4.08259e-05 4.08149e-05 -2.12086e-05
-0.000185168 5.55666e-05 5.55434e-05 3.93423e-11
-0.000153769 4.61429e-05 4.61256e-05 -1.14885e-05
-0.000132034 3.96184e-05 3.96068e-05 -2.12089e-05
-0.000163433 4.90415e-05 4.90249e-05 -1.1488e-05
-0.000158601 4.75922e-05 4.75753e-05 -1.14882e-05
-0.000179531 5.38753e-05 5.38523e-05 9.53728e-12
-0.000168256 5.04927e-05 5.047e-05 -8.2347e-12
-0.000119955 3.59955e-05 3.59826e-05 -2.12096e-05
-0.000128008 3.84108e-05 3.83986e-05 -2.12092e-05
-0.000173893 5.21841e-05 5.21612e-05 -3.22789e-11
-0.000144106 4.32441e-05 4.32264e-05 -1.1489e-05
-0.000123981 3.72032e-05 3.71905e-05 -2.12095e-05
-0.000153769 4.61429e-05 4.61256e-05 -1.14885e-05
-0.000148938 4.46935e-05 4.4676e-05 -1.14888e-05
-0.000168256 5.04927e-05 5.047e-05 -8.23488e-12
-0.00015698 4.71096e-05 4.70875e-05 -1.84059e-10
-0.000111902 3.35791e-05 3.35669e-05 -2.12091e-05
-0.000119955 3.59955e-05 3.59826e-05 -2.12096e-05
-0.000162618 4.88011e-05 4.87787e-05 2.33864e-11
-0.000134442 4.03452e-05 4.03274e-05 -1.1489e-05
-0.000115928 3.47875e-05 3.47747e-05 -2.12095e-05
-0.000144106 4.32441e-05 4.32264e-05 -1.1489e-05
-0.000139274 4.17947e-05 4.17768e-05 -1.14891e-05
-0.00015698 4.71096e-05 4.70875e-05 -1.84052e-10
-0.000145704 4.37269e-05 4.37045e-05 -2.74981e-10
-0.000103849 3.11605e-05 3.11523e-05 -2.12053e-05
-0.000111902 3.35791e-05 3.35669e-05 -2.12091e-05
-0.000151342 4.54184e-05 4.5396e-05 -4.08642e-10
-0.00012478 3.7446e-05 3.74288e-05 -1.14871e-05
-0.000107875 3.23702e-05 3.23593e-05 -2.12078e-05
-0.000134442 4.03452e-05 4.03274e-05 -1.1489e-05
-0.000129611 3.88956e-05 3.8878e-05 -1.14884e-05
-0.000145704 4.37269e-05 4.37045e-05 -2.74981e-10
-0.000134431 4.0344e-05 4.03231e-05 -1.29851e-09
-9.57953e-05 2.8737e-05 2.87392e-05 -2.11946e-05
-0.000103849 3.11605e-05 3.11523e-05 -2.12053e-05
-0.000140067 4.20348e-05 4.20137e-05 -2.4547e-10
-0.000115122 3.45465e-05 3.45322e-05 -1.14805e-05
-9.98226e-05 2.99497e-05 2.99455e-05 -2.12012e-05
-0.00012478 3.7446e-05 3.74288e-05 -1.14871e-05
-0.00011995 3.59963e-05 3.59801e-05 -1.14847e-05
-0.000134431 4.0344e-05 4.03231e-05 -1.29851e-09
-0.000123165 3.69668e-05 3.69422e-05 -1.44454e-09
-8.77414e-05 2.63036e-05 2.63305e-05 -2.1167e-05
-9.57953e-05 2.8737e-05 2.87392e-05 -2.11946e-05
-0.000128798 3.86558e-05 3.86322e-05 -2.27355e-09
-0.000105471 3.1647e-05 3.16389e-05 -1.14621e-05
-9.17679e-05 2.75219e-05 2.7534e-05 -2.11839e-05
-0.000115122 3.45465e-05 3.45322e-05 -1.14805e-05
-0.000110295 3.30967e-05 3.30851e-05 -1.14731e-05
-0.000123165 3.69668e-05 3.69422e-05 -1.44455e-09
-0.000111931 3.35922e-05 3.35736e-05 -6.06306e-09
-7.96803e-05 2.3852e-05 2.39264e-05 -2.1109e-05
-8.77414e-05 2.63036e-05 2.63305e-05 -2.1167e-05
-0.000117541 3.52753e-05 3.52566e-05 -1.43513e-09
-9.58431e-05 2.87481e-05 2.8755e-05 -1.14205e-05
-8.3713e-05 2.50812e-05 2.51279e-05 -2.11428e-05
-0.000105471 3.1647e-05 3.16389e-05 -1.14621e-05
-0.000100652 3.01975e-05 3.0195e-05 -1.14458e-05
-0.000111931 3.35922e-05 3.35736e-05 -6.06306e-09
-0.000100747 3.02535e-05 3.02114e-05 -5.18496e-09
-7.16158e-05 2.13658e-05 2.15357e-05 -2.09869e-05
-7.96803e-05 2.3852e-05 2.39264e-05 -2.1109e-05
-0.000106333 3.19246e-05 3.18894e-05 -9.928e-09
-8.62509e-05 2.58507e-05 2.58858e-05 -1.13314e-05
-7.56468e-05 2.26137e-05 2.27285e-05 -2.10592e-05
-9.58431e-05 2.87481e-05 2.8755e-05 -1.14205e-05
-9.10426e-05 2.72986e-05 2.73189e-05 -1.13827e-05
-0.000100747 3.02535e-05 3.02114e-05 -5.18496e-09
-8.97205e-05 2.69261e-05 2.69119e-05 -2.32481e-08
-6.35137e-05 1.88256e-05 1.9152e-05 -2.07668e-05
-7.16158e-05 2.13658e-05 2.15357e-05 -2.09869e-05
-9.51996e-05 2.85692e-05 2.85559e-05 -4.3964e-09
-7.6748e-05 2.29599e-05 2.3052e-05 -1.11552e-05
-6.75755e-05 2.01065e-05 2.03439e-05 -2.08914e-05
-8.62509e-05 2.58507e-05 2.58858e-05 -1.13314e-05
-8.14816e-05 2.44054e-05 2.44612e-05 -1.12611e-05
-8.97205e-05 2.69261e-05 2.69119e-05 -2.32481e-08
-7.89252e-05 2.37729e-05 2.36367e-05 -1.41826e-08
-5.5384e-05 1.61846e-05 1.67997e-05 -2.03603e-05
-6.35137e-05 1.88256e-05 1.9152e-05 -2.07668e-05
-8.4299e-05 2.53606e-05 2.52593e-05 -3.87356e-08
-6.73614e-05 2.00745e-05 2.02658e-05 -1.08285e-05
-5.94449e-05 1.75152e-05 1.79699e-05 -2.05955e-05
-7.6748e-05 2.29599e-05 2.3052e-05 -1.11552e-05
-7.20435e-05 2.15134e-05 2.16558e-05 -1.10089e-05
-7.89252e-05 2.37729e-05 2.36367e-05 -1.41826e-08
-6.87358e-05 2.06252e-05 2.06188e-05 -7.80565e-08
-4.70751e-05 1.34308e-05 1.4419e-05 -1.97338e-05
-5.5384e-05 1.61846e-05 1.67997e-05 -2.03603e-05
-7.37028e-05 2.2108e-05 2.2112e-05 -3.59576e-09
-5.82579e-05 1.72185e-05 1.75883e-05 -1.02345e-05
-5.12782e-05 1.48367e-05 1.56178e-05 -2.00749e-05
-6.73614e-05 2.00745e-05 2.02658e-05 -1.08285e-05
-6.27501e-05 1.86487e-05 1.89006e-05 -1.05927e-05
-6.87358e-05 2.06252e-05 2.06188e-05 -7.80565e-08
-5.94032e-05 1.82302e-05 1.76456e-05 -2.62299e-08
-3.85983e-05 1.04508e-05 1.20632e-05 -1.87536e-05
-4.70751e-05 1.34308e-05 1.4419e-05 -1.97338e-05
-6.39829e-05 1.94965e-05 1.90656e-05 -1.45684e-07
-4.93882e-05 1.43524e-05 1.50153e-05 -9.28806e-06
-4.28301e-05 1.19417e-05 1.32379e-05 -1.92997e-05
-5.82579e-05 1.72185e-05 1.75883e-05 -1.02345e-05
-5.38242e-05 1.57732e-05 1.63076e-05 -9.77666e-06
-5.94032e-05 1.82302e-05 1.76456e-05 -2.62299e-08
-5.19748e-05 1.55886e-05 1.55941e-05 -2.14616e-07
-2.93624e-05 7.48494e-06 9.37606e-06 -1.77005e-05
-3.85983e-05 1.04508e-05 1.20632e-05 -1.87536e-05
-5.52995e-05 1.65356e-05 1.66131e-05 6.40641e-08
-4.11848e-05 1.15717e-05 1.26914e-05 -7.72015e-06
-3.41767e-05 9.01443e-06 1.07838e-05 -1.82053e-05
-4.93882e-05 1.43524e-05 1.50153e-05 -9.28806e-06
-4.51188e-05 1.29809e-05 1.37734e-05 -8.68524e-06
-5.19748e-05 1.55886e-05 1.55941e-05 -2.14616e-07
-4.75876e-05 1.58773e-05 1.35901e-05 3.51747e-07
-1.94354e-05 4.55001e-06 6.37944e-06 -1.70368e-05
-2.93624e-05 7.48494e-06 9.37606e-06 -1.77005e-05
-4.94104e-05 1.61529e-05 1.42532e-05 -4.69426e-07
-3.26249e-05 8.57475e-06 1.03072e-05 -6.0229e-06
-2.43753e-05 5.81328e-06 7.95516e-06 -1.72505e-05
-4.11848e-05 1.15717e-05 1.26914e-05 -7.72015e-06
-3.71617e-05 1.00594e-05 1.16153e-05 -6.67449e-06
-4.75876e-05 1.58773e-05 1.35901e-05 3.51747e-07
-5.00458e-05 1.36011e-05 1.56191e-05 2.08753e-06
-7.94009e-06 4.80928e-06 1.34178e-06 -1.98875e-05
-1.94354e-05 4.55001e-06 6.37944e-06 -1.70368e-05
-4.74762e-05 1.32962e-05 1.46486e-05 1.48759e-06
-2.34842e-05 6.07818e-06 7.45972e-06 -5.01366e-06
-1.41034e-05 4.24041e-06 4.22699e-06 -1.77201e-05
-3.26249e-05 8.57475e-06 1.03072e-05 -6.0229e-06
-2.79429e-05 7.2563e-06 8.86568e-06 -5.64856e-06
-5.00458e-05 1.36011e-05 1.56191e-05 2.08753e-06
-6.8108e-05 1.35787e-05 2.33697e-05 1.61328e-05
-2.58941e-06 1.8036e-05 -6.61997e-06 -3.02086e-05
-7.94009e-06 4.80928e-06 1.34178e-06 -1.98875e-05
-5.65164e-05 1.90587e-05 1.60533e-05 4.36532e-06
-4.82053e-06 1.11862e-05 -2.72815e-06 -1.7621e-05
-3.31294e-06 7.32314e-06 -1.71865e-06 -2.35858e-05
-2.34842e-05 6.07818e-06 7.45972e-06 -5.01366e-06
-1.66449e-05 5.88732e-06 4.61041e-06 -7.43224e-06
-6.8108e-05 1.35787e-05 2.33697e-05 1.61328e-05
-3.73816e-05 0.000105047 -2.89994e-05 -8.25054e-05
-2.41501e-05 7.99981e-05 -2.39348e-05 -3.03797e-05
-2.58941e-06 1.8036e-05 -6.61997e-06 -3.02086e-05
-6.75115e-05 3.72859e-06 2.73355e-05 6.85507e-06
-2.14873e-05 9.84019e-05 -3.29634e-05 -4.88472e-05
-8.59376e-06 4.27159e-05 -1.46238e-05 -3.5486e-05
-4.82053e-06 1.11862e-05 -2.72815e-06 -1.7621e-05
-1.82842e-06 3.22013e-05 -1.3017e-05 -3.24564e-05
-0.00135283 0 0.000579783 -7.69037e-05
-0.00152333 0.000302183 0.00052335 -0.000112939
-0.000882932 0.000116258 0.000328575 -3.2078e-06
-0.000780945 0 0.000334691 0.000102697
-0.00144858 0.000142825 0.000559608 -0.000131093
-0.00117694 0.000182141 0.000426344 -4.66484e-05
-0.000846133 6.53571e-05 0.000334618 3.87445e-05
-0.00110811 0 0.000474903 1.66087e-05
-0.00112689 0.000100961 0.000439683 -1.46178e-05
-0.00152333 0.000302183 0.00052335 -0.000112939
-0.00158264 0.000428247 0.000494741 -5.36281e-05
-0.000927917 0.000212639 0.000306548 -3.61755e-05
-0.000882932 0.000116258 0.000328575 -3.2078e-06
-0.0015703 0.00039124 0.000505311 -8.1341e-05
-0.00125514 0.000309113 0.000405438 -5.45598e-05
-0.000905487 0.000167522 0.000316271 -2.44573e-05
-0.00117694 0.000182141 0.000426344 -4.66484e-05
-0.00122933 0.000253513 0.000418209 -6.13123e-05
-0.00158264 0.000428247 0.000494741 -5.36281e-05
-0.00157492 0.000463445 0.000476347 -1.98932e-05
-0.000950655 0.000261145 0.000295504 -4.25602e-05
-0.000927917 0.000212639 0.000306548 -3.61755e-05
-0.00157823 0.000450149 0.000483464 -3.14548e-05
-0.00126761 0.000359929 0.000389005 -3.66321e-05
-0.000944785 0.000242773 0.000300862 -4.19505e-05
-0.00125514 0.000309113 0.000405438 -5.45598e-05
-0.00126451 0.000342328 0.000395221 -4.31089e-05
-0.00157492 0.000463445 0.000476347 -1.98932e-05
-0.00156381 0.00046816 0.000469563 -1.24821e-05
-0.000949707 0.000280103 0.000286973 -3.94052e-05
-0.000950655 0.000261145 0.000295504 -4.25602e-05
-0.00157076 0.000468071 0.000472582 -1.48967e-05
-0.00126141 0.000376046 0.00037944 -2.79029e-05
-0.000950604 0.000273063 0.000290375 -4.07882e-05
-0.00126761 0.000359929 0.000389005 -3.66321e-05
-0.00126603 0.000370445 0.000383824 -3.1938e-05
-0.00156381 0.00046816 0.000469563 -1.24821e-05
-0.00155099 0.000467296 0.000464441 -1.22311e-05
-0.000942995 0.000283626 0.000282587 -3.72831e-05
-0.000949707 0.000280103 0.000286973 -3.94052e-05
-0.00155643 0.000467874 0.000466522 -1.16114e-05
-0.0012498 0.000376859 0.000374116 -2.52217e-05
-0.000947368 0.0002831 0.000284686 -3.83554e-05
-0.00126141 0.000376046 0.00037944 -2.79029e-05
-0.00125543 0.000377566 0.000376226 -2.5642e-05
-0.00155099 0.000467296 0.000464441 -1.22311e-05
-0.00154126 0.000463824 0.00046176 -1.48447e-05
-0.000933582 0.000282108 0.000279203 -3.58647e-05
-0.000942995 0.000283626 0.000282587 -3.72831e-05
-0.00154633 0.000465776 0.000463095 -1.36094e-05
-0.00123912 0.000374162 0.000370696 -2.54853e-05
-0.000937947 0.000283166 0.000280621 -3.63476e-05
-0.0012498 0.000376859 0.000374116 -2.52217e-05
-0.0012444 0.000375656 0.000372318 -2.53493e-05
-0.00154126 0.000463824 0.00046176 -1.48447e-05
-0.00153185 0.000460454 0.000459169 -1.70206e-05
-0.000925394 0.000278914 0.000277063 -3.54445e-05
-0.000933582 0.000282108 0.000279203 -3.58647e-05
-0.00153628 0.000462069 0.000460374 -1.59371e-05
-0.00122951 0.000370318 0.000368225 -2.64781e-05
-0.000929523 0.000280598 0.000278111 -3.56358e-05
-0.00123912 0.000374162 0.000370696 -2.54853e-05
-0.00123411 0.000372292 0.000369349 -2.58745e-05
-0.00153185 0.000460454 0.000459169 -1.70206e-05
-0.00152339 0.000457185 0.000456943 -1.87837e-05
-0.000917945 0.000275816 0.000275198 -3.5263e-05
-0.000925394 0.000278914 0.000277063 -3.54445e-05
-0.00152766 0.000458808 0.000458079 -1.80198e-05
-0.00122115 0.000366886 0.000366112 -2.74515e-05
-0.00092145 0.000277311 0.00027606 -3.53035e-05
-0.00122951 0.000370318 0.000368225 -2.64781e-05
-0.00122523 0.000368525 0.000367157 -2.70319e-05
-0.00152339 0.000457185 0.000456943 -1.87837e-05
-0.00151502 0.000454234 0.000454623 -1.98481e-05
-0.000911594 0.000273108 0.000273637 -3.52737e-05
-0.000917945 0.000275816 0.000275198 -3.5263e-05
-0.00151914 0.000455669 0.000455773 -1.93689e-05
-0.00121355 0.000363848 0.000364157 -2.81667e-05
-0.000914715 0.000274409 0.000274417 -3.52713e-05
-0.00122115 0.000366886 0.000366112 -2.74515e-05
-0.00121726 0.000365321 0.000365117 -2.78274e-05
-0.00151502 0.000454234 0.000454623 -1.98481e-05
-0.00150688 0.000451479 0.000452315 -2.05149e-05
-0.000905806 0.000270853 0.000272123 -3.52927e-05
-0.000911594 0.000273108 0.000273637 -3.52737e-05
-0.00151096 0.000452838 0.000453481 -2.02348e-05
-0.00120647 0.000361248 0.000362239 -2.86238e-05
-0.000908614 0.000271929 0.000272865 -3.52768e-05
-0.00121355 0.000363848 0.000364157 -2.81667e-05
-0.00120997 0.0003625 0.0003632 -2.84323e-05
-0.00150688 0.000451479 0.000452315 -2.05149e-05
-0.00149875 0.000448874 0.000449949 -2.0868e-05
-0.000900472 0.000268921 0.000270665 -3.5325e-05
-0.000905806 0.000270853 0.000272123 -3.52927e-05
-0.0015028 0.00045016 0.000451133 -2.07164e-05
-0.00119968 0.000358918 0.000360328 -2.88936e-05
-0.000903111 0.000269854 0.000271396 -3.53124e-05
-0.00120647 0.000361248 0.000362239 -2.86238e-05
-0.00120305 0.000360057 0.000361282 -2.87745e-05
-0.00149875 0.000448874 0.000449949 -2.0868e-05
-0.00149067 0.000446356 0.000447565 -2.10594e-05
-0.000895356 0.000267208 0.000269206 -3.53422e-05
-0.000900472 0.000268921 0.000270665 -3.5325e-05
-0.00149472 0.000447607 0.000448762 -2.09814e-05
-0.00119306 0.000356776 0.000358408 -2.90393e-05
-0.000897888 0.000268043 0.000269934 -3.53338e-05
-0.00119968 0.000358918 0.000360328 -2.88936e-05
-0.00119636 0.000357829 0.00035937 -2.89801e-05
-0.00149067 0.000446356 0.000447565 -2.10594e-05
-0.00148259 0.00044389 0.000445159 -2.11486e-05
-0.000890382 0.000265624 0.000267753 -3.53535e-05
-0.000895356 0.000267208 0.000269206 -3.53422e-05
-0.00148663 0.000445118 0.000446363 -2.1112e-05
-0.00118652 0.000354736 0.00035648 -2.91135e-05
-0.00089286 0.000266404 0.000268481 -3.53494e-05
-0.00119306 0.000356776 0.000358408 -2.90393e-05
-0.00118978 0.000355747 0.000357445 -2.90823e-05
-0.00148259 0.00044389 0.000445159 -2.11486e-05
-0.00147452 0.000441452 0.000442745 -2.11898e-05
-0.000885471 0.000264114 0.000266296 -3.53576e-05
-0.000890382 0.000265624 0.000267753 -3.53535e-05
-0.00147856 0.000442668 0.000443953 -2.11739e-05
-0.00118003 0.000352756 0.000354544 -2.91474e-05
-0.00088792 0.000264862 0.000267024 -3.5356e-05
-0.00118652 0.000354736 0.00035648 -2.91135e-05
-0.00118327 0.000353741 0.000355513 -2.91344e-05
-0.00147452 0.000441452 0.000442745 -2.11898e-05
-0.00146645 0.000439028 0.000440323 -2.1205e-05
-0.000880595 0.000262643 0.000264836 -3.53588e-05
-0.000885471 0.000264114 0.000266296 -3.53576e-05
-0.00147048 0.000440239 0.000441534 -2.11993e-05
-0.00117355 0.000350806 0.000352605 -2.91613e-05
-0.000883031 0.000263375 0.000265567 -3.53586e-05
-0.00118003 0.000352756 0.000354544 -2.91474e-05
-0.00117679 0.000351779 0.000353575 -2.91559e-05
-0.00146645 0.000439028 0.000440323 -2.1205e-05
-0.00145838 0.000436612 0.000437899 -2.12096e-05
-0.000875732 0.000261191 0.000263375 -3.53582e-05
-0.000880595 0.000262643 0.000264836 -3.53588e-05
-0.00146241 0.000437819 0.000439111 -2.12082e-05
-0.00116708 0.000348872 0.000350662 -2.91655e-05
-0.000878162 0.000261915 0.000264106 -3.53586e-05
-0.00117355 0.000350806 0.000352605 -2.91613e-05
-0.00117032 0.000349838 0.000351634 -2.91643e-05
-0.00145838 0.000436612 0.000437899 -2.12096e-05
-0.0014503 0.000434198 0.000435473 -2.12094e-05
-0.000870876 0.000259747 0.000261912 -3.53571e-05
-0.000875732 0.000261191 0.000263375 -3.53582e-05
-0.00145434 0.000435405 0.000436686 -2.12098e-05
-0.00116062 0.000346943 0.000348718 -2.91658e-05
-0.000873304 0.000260468 0.000262644 -3.53577e-05
-0.00116708 0.000348872 0.000350662 -2.91655e-05
-0.00116385 0.000347907 0.00034969 -2.91659e-05
-0.0014503 0.000434198 0.000435473 -2.12094e-05
-0.00144223 0.000431786 0.000433047 -2.12081e-05
-0.000866022 0.000258308 0.000260449 -3.53559e-05
-0.000870876 0.000259747 0.000261912 -3.53571e-05
-0.00144627 0.000432992 0.000434261 -2.12088e-05
-0.00115416 0.000345018 0.000346773 -2.91647e-05
-0.000868449 0.000259027 0.000261181 -3.53565e-05
-0.00116062 0.000346943 0.000348718 -2.91658e-05
-0.00115739 0.00034598 0.000347746 -2.91653e-05
-0.00144223 0.000431786 0.000433047 -2.12081e-05
-0.00143416 0.000429375 0.000430621 -2.12066e-05
-0.000861169 0.000256869 0.000258986 -3.5355e-05
-0.000866022 0.000258308 0.000260449 -3.53559e-05
-0.00143819 0.000430581 0.000431834 -2.12073e-05
-0.00114769 0.000343093 0.000344828 -2.91635e-05
-0.000863596 0.000257588 0.000259718 -3.53554e-05
-0.00115416 0.000345018 0.000346773 -2.91647e-05
-0.00115092 0.000344055 0.000345801 -2.91641e-05
-0.00143416 0.000429375 0.000430621 -2.12066e-05
-0.00142609 0.000426963 0.000428195 -2.12055e-05
-0.000856315 0.00025543 0.000257522 -3.53543e-05
-0.000861169 0.000256869 0.000258986 -3.5355e-05
-0.00143012 0.000428169 0.000429408 -2.1206e-05
-0.00114123 0.000341168 0.000342883 -2.91625e-05
-0.000858742 0.000256149 0.000258254 -3.53546e-05
-0.00114769 0.000343093 0.000344828 -2.91635e-05
-0.00114446 0.000342131 0.000343856 -2.91629e-05
-0.00142609 0.000426963 0.000428195 -2.12055e-05
-0.00141801 0.000424552 0.000425769 -2.12048e-05
-0.000851461 0.000253991 0.000256059 -3.53538e-05
-0.000856315 0.00025543 0.000257522 -3.53543e-05
-0.00142205 0.000425758 0.000426982 -2.12051e-05
-0.00113477 0.000339243 0.000340938 -2.91618e-05
-0.000853888 0.000254711 0.00025679 -3.5354e-05
-0.00114123 0.000341168 0.000342883 -2.91625e-05
-0.001138 0.000340206 0.00034191 -2.91621e-05
-0.00141801 0.000424552 0.000425769 -2.12048e-05
-0.00140994 0.00042214 0.000423343 -2.12043e-05
-0.000846607 0.000252552 0.000254595 -3.53535e-05
-0.000851461 0.000253991 0.000256059 -3.53538e-05
-0.00141398 0.000423346 0.000424556 -2.12045e-05
-0.0011283 0.000337318 0.000338993 -2.91613e-05
-0.000849034 0.000253272 0.000255327 -3.53536e-05
-0.00113477 0.000339243 0.000340938 -2.91618e-05
-0.00113153 0.000338281 0.000339965 -2.91615e-05
-0.00140994 0.00042214 0.000423343 -2.12043e-05
-0.00140187 0.000419728 0.000420917 -2.12041e-05
-0.000841753 0.000251112 0.000253132 -3.53534e-05
-0.000846607 0.000252552 0.000254595 -3.53535e-05
-0.0014059 0.000420934 0.00042213 -2.12042e-05
-0.00112184 0.000335393 0.000337048 -2.91611e-05
-0.00084418 0.000251832 0.000253863 -3.53534e-05
-0.0011283 0.000337318 0.000338993 -2.91613e-05
-0.00112507 0.000336356 0.00033802 -2.91612e-05
-0.00140187 0.000419728 0.000420917 -2.12041e-05
-0.0013938 0.000417317 0.000418491 -2.12041e-05
-0.000836899 0.000249673 0.000251668 -3.53533e-05
-0.000841753 0.000251112 0.000253132 -3.53534e-05
-0.00139783 0.000418522 0.000419704 -2.12041e-05
-0.00111537 0.000333468 0.000335103 -2.9161e-05
-0.000839326 0.000250393 0.0002524 -3.53533e-05
-0.00112184 0.000335393 0.000337048 -2.91611e-05
-0.00111861 0.00033443 0.000336076 -2.91611e-05
-0.0013938 0.000417317 0.000418491 -2.12041e-05
-0.00138572 0.000414905 0.000416066 -2.12041e-05
-0.000832045 0.000248233 0.000250205 -3.53533e-05
-0.000836899 0.000249673 0.000251668 -3.53533e-05
-0.00138976 0.000416111 0.000417278 -2.12041e-05
-0.00110891 0.000331542 0.000333158 -2.9161e-05
-0.000834472 0.000248953 0.000250937 -3.53533e-05
-0.00111537 0.000333468 0.000335103 -2.9161e-05
-0.00111214 0.000332505 0.000334131 -2.9161e-05
-0.00138572 0.000414905 0.000416066 -2.12041e-05
-0.00137765 0.000412493 0.00041364 -2.12041e-05
-0.000827191 0.000246793 0.000248742 -3.53533e-05
-0.000832045 0.000248233 0.000250205 -3.53533e-05
-0.00138169 0.000413699 0.000414853 -2.12041e-05
-0.00110245 0.000329617 0.000331214 -2.91611e-05
-0.000829618 0.000247513 0.000249474 -3.53533e-05
-0.00110891 0.000331542 0.000333158 -2.9161e-05
-0.00110568 0.000330579 0.000332186 -2.9161e-05
-0.00137765 0.000412493 0.00041364 -2.12041e-05
-0.00136958 0.000410081 0.000411214 -2.12042e-05
-0.000822337 0.000245353 0.000247279 -3.53533e-05
-0.000827191 0.000246793 0.000248742 -3.53533e-05
-0.00137362 0.000411287 0.000412427 -2.12041e-05
-0.00109599 0.000327691 0.000329269 -2.91611e-05
-0.000824764 0.000246073 0.000248011 -3.53533e-05
-0.00110245 0.000329617 0.000331214 -2.91611e-05
-0.00109922 0.000328654 0.000330241 -2.91611e-05
-0.00136958 0.000410081 0.000411214 -2.12042e-05
-0.00136151 0.000407669 0.000408789 -2.12042e-05
-0.000817483 0.000243913 0.000245816 -3.53533e-05
-0.000822337 0.000245353 0.000247279 -3.53533e-05
-0.00136554 0.000408875 0.000410001 -2.12042e-05
-0.00108952 0.000325765 0.000327325 -2.91612e-05
-0.00081991 0.000244633 0.000246548 -3.53533e-05
-0.00109599 0.000327691 0.000329269 -2.91611e-05
-0.00109275 0.000326728 0.000328297 -2.91611e-05
-0.00136151 0.000407669 0.000408789 -2.12042e-05
-0.00135344 0.000405257 0.000406363 -2.12043e-05
-0.00081263 0.000242472 0.000244353 -3.53533e-05
-0.000817483 0.000243913 0.000245816 -3.53533e-05
-0.00135747 0.000406463 0.000407576 -2.12043e-05
-0.00108306 0.000323839 0.00032538 -2.91612e-05
-0.000815057 0.000243193 0.000245085 -3.53533e-05
-0.00108952 0.000325765 0.000327325 -2.91612e-05
-0.00108629 0.000324802 0.000326352 -2.91612e-05
-0.00135344 0.000405257 0.000406363 -2.12043e-05
-0.00134537 0.000402845 0.000403938 -2.12044e-05
-0.000807776 0.000241032 0.00024289 -3.53534e-05
-0.00081263 0.000242472 0.000244353 -3.53533e-05
-0.0013494 0.000404051 0.00040515 -2.12043e-05
-0.0010766 0.000321913 0.000323436 -2.91613e-05
-0.000810203 0.000241752 0.000243622 -3.53534e-05
-0.00108306 0.000323839 0.00032538 -2.91612e-05
-0.00107983 0.000322876 0.000324408 -2.91612e-05
-0.00134537 0.000402845 0.000403938 -2.12044e-05
-0.0013373 0.000400433 0.000401512 -2.12044e-05
-0.000802923 0.000239592 0.000241428 -3.53534e-05
-0.000807776 0.000241032 0.00024289 -3.53534e-05
-0.00134133 0.000401639 0.000402725 -2.12044e-05
-0.00107013 0.000319988 0.000321491 -2.91613e-05
-0.00080535 0.000240312 0.000242159 -3.53534e-05
-0.0010766 0.000321913 0.000323436 -2.91613e-05
-0.00107337 0.00032095 0.000322464 -2.91613e-05
-0.0013373 0.000400433 0.000401512 -2.12044e-05
-0.00132922 0.000398021 0.000399087 -2.12045e-05
-0.00079807 0.000238151 0.000239965 -3.53534e-05
-0.000802923 0.000239592 0.000241428 -3.53534e-05
-0.00133326 0.000399227 0.0004003 -2.12045e-05
-0.00106367 0.000318062 0.000319547 -2.91613e-05
-0.000800496 0.000238872 0.000240696 -3.53534e-05
-0.00107013 0.000319988 0.000321491 -2.91613e-05
-0.0010669 0.000319025 0.000320519 -2.91613e-05
-0.00132922 0.000398021 0.000399087 -2.12045e-05
-0.00132115 0.000395609 0.000396662 -2.12045e-05
-0.000793217 0.000236711 0.000238502 -3.53534e-05
-0.00079807 0.000238151 0.000239965 -3.53534e-05
-0.00132519 0.000396815 0.000397874 -2.12045e-05
-0.00105721 0.000316136 0.000317603 -2.91614e-05
-0.000795643 0.000237431 0.000239234 -3.53534e-05
-0.00106367 0.000318062 0.000319547 -2.91613e-05
-0.00106044 0.000317099 0.000318575 -2.91614e-05
-0.00132115 0.000395609 0.000396662 -2.12045e-05
-0.00131308 0.000393197 0.000394237 -2.12046e-05
-0.000788364 0.000235271 0.00023704 -3.53534e-05
-0.000793217 0.000236711 0.000238502 -3.53534e-05
-0.00131712 0.000394403 0.000395449 -2.12045e-05
-0.00105075 0.00031421 0.000315659 -2.91614e-05
-0.00079079 0.000235991 0.000237771 -3.53534e-05
-0.00105721 0.000316136 0.000317603 -2.91614e-05
-0.00105398 0.000315173 0.000316631 -2.91614e-05
-0.00131308 0.000393197 0.000394237 -2.12046e-05
-0.00130501 0.000390785 0.000391811 -2.12046e-05
-0.000783511 0.00023383 0.000235577 -3.53533e-05
-0.000788364 0.000235271 0.00023704 -3.53534e-05
-0.00130905 0.000391991 0.000393024 -2.12046e-05
-0.00104428 0.000312284 0.000313715 -2.91614e-05
-0.000785937 0.00023455 0.000236309 -3.53534e-05
-0.00105075 0.00031421 0.000315659 -2.91614e-05
-0.00104752 0.000313247 0.000314687 -2.91614e-05
-0.00130501 0.000390785 0.000391811 -2.12046e-05
-0.00129694 0.000388372 0.000389386 -2.12046e-05
-0.000778658 0.000232389 0.000234115 -3.53533e-05
-0.000783511 0.00023383 0.000235577 -3.53533e-05
-0.00130098 0.000389578 0.000390599 -2.12046e-05
-0.00103782 0.000310358 0.000311771 -2.91614e-05
-0.000781085 0.00023311 0.000234846 -3.53533e-05
-0.00104428 0.000312284 0.000313715 -2.91614e-05
-0.00104105 0.000311321 0.000312743 -2.91614e-05
-0.00129694 0.000388372 0.000389386 -2.12046e-05
-0.00128887 0.00038596 0.000386961 -2.12047e-05
-0.000773806 0.000230949 0.000232653 -3.53533e-05
-0.000778658 0.000232389 0.000234115 -3.53533e-05
-0.00129291 0.000387166 0.000388174 -2.12047e-05
-0.00103136 0.000308431 0.000309827 -2.91614e-05
-0.000776232 0.000231669 0.000233384 -3.53533e-05
-0.00103782 0.000310358 0.000311771 -2.91614e-05
-0.00103459 0.000309395 0.000310799 -2.91614e-05
-0.00128887 0.00038596 0.000386961 -2.12047e-05
-0.0012808 0.000383548 0.000384536 -2.12047e-05
-0.000768953 0.000229508 0.000231191 -3.53533e-05
-0.000773806 0.000230949 0.000232653 -3.53533e-05
-0.00128483 0.000384754 0.000385749 -2.12047e-05
-0.0010249 0.000306505 0.000307883 -2.91615e-05
-0.000771379 0.000230229 0.000231922 -3.53533e-05
-0.00103136 0.000308431 0.000309827 -2.91614e-05
-0.00102813 0.000307468 0.000308855 -2.91615e-05
-0.0012808 0.000383548 0.000384536 -2.12047e-05
-0.00127273 0.000381136 0.000382111 -2.12047e-05
-0.000764101 0.000228067 0.000229729 -3.53533e-05
-0.000768953 0.000229508 0.000231191 -3.53533e-05
-0.00127676 0.000382342 0.000383324 -2.12047e-05
-0.00101844 0.000304579 0.000305939 -2.91615e-05
-0.000766527 0.000228788 0.00023046 -3.53533e-05
-0.0010249 0.000306505 0.000307883 -2.91615e-05
-0.00102167 0.000305542 0.000306911 -2.91615e-05
-0.00127273 0.000381136 0.000382111 -2.12047e-05
-0.00126466 0.000378724 0.000379687 -2.12048e-05
-0.000759249 0.000226627 0.000228267 -3.53532e-05
-0.000764101 0.000228067 0.000229729 -3.53533e-05
-0.00126869 0.00037993 0.000380899 -2.12047e-05
-0.00101198 0.000302653 0.000303996 -2.91615e-05
-0.000761675 0.000227347 0.000228998 -3.53532e-05
-0.00101844 0.000304579 0.000305939 -2.91615e-05
-0.00101521 0.000303616 0.000304968 -2.91615e-05
-0.00126466 0.000378724 0.000379687 -2.12048e-05
-0.00125659 0.000376311 0.000377262 -2.12048e-05
-0.000754397 0.000225186 0.000226805 -3.53532e-05
-0.000759249 0.000226627 0.000228267 -3.53532e-05
-0.00126062 0.000377518 0.000378474 -2.12048e-05
-0.00100551 0.000300727 0.000302052 -2.91615e-05
-0.000756823 0.000225906 0.000227536 -3.53532e-05
-0.00101198 0.000302653 0.000303996 -2.91615e-05
-0.00100875 0.00030169 0.000303024 -2.91615e-05
-0.00125659 0.000376311 0.000377262 -2.12048e-05
-0.00124852 0.000373899 0.000374837 -2.12048e-05
-0.000749545 0.000223745 0.000225343 -3.53532e-05
-0.000754397 0.000225186 0.000226805 -3.53532e-05
-0.00125255 0.000375105 0.000376049 -2.12048e-05
-0.000999054 0.0002988 0.000300109 -2.91615e-05
-0.000751971 0.000224465 0.000226074 -3.53532e-05
-0.00100551 0.000300727 0.000302052 -2.91615e-05
-0.00100228 0.000299763 0.00030108 -2.91615e-05
-0.00124852 0.000373899 0.000374837 -2.12048e-05
-0.00124045 0.000371487 0.000372412 -2.12048e-05
-0.000744693 0.000222304 0.000223881 -3.53531e-05
-0.000749545 0.000223745 0.000225343 -3.53532e-05
-0.00124448 0.000372693 0.000373625 -2.12048e-05
-0.000992593 0.000296874 0.000298165 -2.91615e-05
-0.000747119 0.000223024 0.000224612 -3.53531e-05
-0.000999054 0.0002988 0.000300109 -2.91615e-05
-0.000995823 0.000297837 0.000299137 -2.91615e-05
-0.00124045 0.000371487 0.000372412 -2.12048e-05
-0.00123238 0.000369075 0.000369988 -2.12049e-05
-0.000739841 0.000220863 0.000222419 -3.53531e-05
-0.000744693 0.000222304 0.000223881 -3.53531e-05
-0.00123641 0.000370281 0.0003712 -2.12048e-05
-0.000986132 0.000294948 0.000296222 -2.91615e-05
-0.000742267 0.000221583 0.00022315 -3.53531e-05
-0.000992593 0.000296874 0.000298165 -2.91615e-05
-0.000989362 0.000295911 0.000297193 -2.91615e-05
-0.00123238 0.000369075 0.000369988 -2.12049e-05
-0.00122431 0.000366662 0.000367563 -2.12049e-05
-0.00073499 0.000219422 0.000220958 -3.5353e-05
-0.000739841 0.000220863 0.000222419 -3.53531e-05
-0.00122834 0.000367868 0.000368775 -2.12049e-05
-0.000979671 0.000293021 0.000294278 -2.91615e-05
-0.000737416 0.000220142 0.000221689 -3.53531e-05
-0.000986132 0.000294948 0.000296222 -2.91615e-05
-0.000982901 0.000293984 0.00029525 -2.91615e-05
-0.00122431 0.000366662 0.000367563 -2.12049e-05
-0.00121624 0.00036425 0.000365139 -2.12049e-05
-0.000730139 0.000217981 0.000219496 -3.5353e-05
-0.00073499 0.000219422 0.000220958 -3.5353e-05
-0.00122027 0.000365456 0.000366351 -2.12049e-05
-0.00097321 0.000291095 0.000292335 -2.91615e-05
-0.000732564 0.000218701 0.000220227 -3.5353e-05
-0.000979671 0.000293021 0.000294278 -2.91615e-05
-0.00097644 0.000292058 0.000293307 -2.91615e-05
-0.00121624 0.00036425 0.000365139 -2.12049e-05
-0.00120817 0.000361838 0.000362714 -2.12049e-05
-0.000725287 0.00021654 0.000218035 -3.53529e-05
-0.000730139 0.000217981 0.000219496 -3.5353e-05
-0.00121221 0.000363044 0.000363926 -2.12049e-05
-0.00096675 0.000289168 0.000290392 -2.91615e-05
-0.000727713 0.00021726 0.000218766 -3.5353e-05
-0.00097321 0.000291095 0.000292335 -2.91615e-05
-0.00096998 0.000290132 0.000291364 -2.91615e-05
-0.00120817 0.000361838 0.000362714 -2.12049e-05
-0.0012001 0.000359425 0.00036029 -2.12049e-05
-0.000720436 0.000215098 0.000216573 -3.53529e-05
-0.000725287 0.00021654 0.000218035 -3.53529e-05
-0.00120414 0.000360631 0.000361502 -2.12049e-05
-0.000960289 0.000287242 0.000288449 -2.91615e-05
-0.000722862 0.000215819 0.000217304 -3.53529e-05
-0.00096675 0.000289168 0.000290392 -2.91615e-05
-0.000963519 0.000288205 0.00028942 -2.91615e-05
-0.0012001 0.000359425 0.00036029 -2.12049e-05
-0.00119203 0.000357013 0.000357865 -2.12049e-05
-0.000715585 0.000213657 0.000215112 -3.53528e-05
-0.000720436 0.000215098 0.000216573 -3.53529e-05
-0.00119607 0.000358219 0.000359078 -2.12049e-05
-0.000953829 0.000285315 0.000286506 -2.91615e-05
-0.000718011 0.000214378 0.000215843 -3.53529e-05
-0.000960289 0.000287242 0.000288449 -2.91615e-05
-0.000957059 0.000286279 0.000287477 -2.91615e-05
-0.00119203 0.000357013 0.000357865 -2.12049e-05
-0.00118396 0.0003546 0.000355441 -2.1205e-05
-0.000710735 0.000212216 0.000213651 -3.53528e-05
-0.000715585 0.000213657 0.000215112 -3.53528e-05
-0.001188 0.000355807 0.000356653 -2.1205e-05
-0.000947369 0.000283389 0.000284563 -2.91614e-05
-0.00071316 0.000212936 0.000214382 -3.53528e-05
-0.000953829 0.000285315 0.000286506 -2.91615e-05
-0.000950599 0.000284352 0.000285534 -2.91614e-05
-0.00118396 0.0003546 0.000355441 -2.1205e-05
-0.00117589 0.000352188 0.000353017 -2.1205e-05
-0.000705884 0.000210774 0.00021219 -3.53527e-05
-0.000710735 0.000212216 0.000213651 -3.53528e-05
-0.00117993 0.000353394 0.000354229 -2.1205e-05
-0.000940909 0.000281462 0.00028262 -2.91614e-05
-0.000708309 0.000211495 0.00021292 -3.53528e-05
-0.000947369 0.000283389 0.000284563 -2.91614e-05
-0.000944139 0.000282425 0.000283591 -2.91614e-05
-0.00117589 0.000352188 0.000353017 -2.1205e-05
-0.00116783 0.000349776 0.000350593 -2.1205e-05
-0.000701033 0.000209333 0.000210729 -3.53527e-05
-0.000705884 0.000210774 0.00021219 -3.53527e-05
-0.00117186 0.000350982 0.000351805 -2.1205e-05
-0.000934449 0.000279535 0.000280677 -2.91614e-05
-0.000703459 0.000210054 0.000211459 -3.53527e-05
-0.000940909 0.000281462 0.00028262 -2.91614e-05
-0.000937679 0.000280499 0.000281649 -2.91614e-05
-0.00116783 0.000349776 0.000350593 -2.1205e-05
-0.00115976 0.000347363 0.000348169 -2.1205e-05
-0.000696183 0.000207892 0.000209268 -3.53526e-05
-0.000701033 0.000209333 0.000210729 -3.53527e-05
-0.00116379 0.000348569 0.000349381 -2.1205e-05
-0.000927989 0.000277609 0.000278734 -2.91614e-05
-0.000698608 0.000208612 0.000209998 -3.53527e-05
-0.000934449 0.000279535 0.000280677 -2.91614e-05
-0.000931219 0.000278572 0.000279706 -2.91614e-05
-0.00115976 0.000347363 0.000348169 -2.1205e-05
-0.00115169 0.000344951 0.000345745 -2.1205e-05
-0.000691333 0.00020645 0.000207807 -3.53526e-05
-0.000696183 0.000207892 0.000209268 -3.53526e-05
-0.00115572 0.000346157 0.000346957 -2.1205e-05
-0.000921529 0.000275682 0.000276792 -2.91614e-05
-0.000693758 0.000207171 0.000208537 -3.53526e-05
-0.000927989 0.000277609 0.000278734 -2.91614e-05
-0.000924759 0.000276645 0.000277763 -2.91614e-05
-0.00115169 0.000344951 0.000345745 -2.1205e-05
-0.00114362 0.000342538 0.000343321 -2.1205e-05
-0.000686483 0.000205008 0.000206346 -3.53525e-05
-0.000691333 0.00020645 0.000207807 -3.53526e-05
-0.00114765 0.000343744 0.000344533 -2.1205e-05
-0.00091507 0.000273755 0.000274849 -2.91614e-05
-0.000688908 0.000205729 0.000207077 -3.53525e-05
-0.000921529 0.000275682 0.000276792 -2.91614e-05
-0.000918299 0.000274718 0.00027582 -2.91614e-05
-0.00114362 0.000342538 0.000343321 -2.1205e-05
-0.00113555 0.000340126 0.000340897 -2.1205e-05
-0.000681633 0.000203567 0.000204885 -3.53525e-05
-0.000686483 0.000205008 0.000206346 -3.53525e-05
-0.00113959 0.000341332 0.000342109 -2.1205e-05
-0.00090861 0.000271828 0.000272907 -2.91614e-05
-0.000684058 0.000204288 0.000205616 -3.53525e-05
-0.00091507 0.000273755 0.000274849 -2.91614e-05
-0.00091184 0.000272792 0.000273878 -2.91614e-05
-0.00113555 0.000340126 0.000340897 -2.1205e-05
-0.00112748 0.000337713 0.000338473 -2.1205e-05
-0.000676783 0.000202125 0.000203425 -3.53524e-05
-0.000681633 0.000203567 0.000204885 -3.53525e-05
-0.00113152 0.000338919 0.000339685 -2.1205e-05
-0.000902151 0.000269901 0.000270964 -2.91613e-05
-0.000679208 0.000202846 0.000204155 -3.53524e-05
-0.00090861 0.000271828 0.000272907 -2.91614e-05
-0.000905381 0.000270865 0.000271935 -2.91613e-05
-0.00112748 0.000337713 0.000338473 -2.1205e-05
-0.00111942 0.0003353 0.000336049 -2.12051e-05
-0.000671933 0.000200683 0.000201964 -3.53523e-05
-0.000676783 0.000202125 0.000203425 -3.53524e-05
-0.00112345 0.000336507 0.000337261 -2.12051e-05
-0.000895692 0.000267975 0.000269022 -2.91613e-05
-0.000674358 0.000201404 0.000202694 -3.53524e-05
-0.000902151 0.000269901 0.000270964 -2.91613e-05
-0.000898922 0.000268938 0.000269993 -2.91613e-05
-0.00111942 0.0003353 0.000336049 -2.12051e-05
-0.00111135 0.000332888 0.000333626 -2.12051e-05
-0.000667084 0.000199242 0.000200504 -3.53523e-05
-0.000671933 0.000200683 0.000201964 -3.53523e-05
-0.00111538 0.000334094 0.000334837 -2.12051e-05
-0.000889233 0.000266048 0.000267079 -2.91613e-05
-0.000669508 0.000199963 0.000201234 -3.53523e-05
-0.000895692 0.000267975 0.000269022 -2.91613e-05
-0.000892462 0.000267011 0.000268051 -2.91613e-05
-0.00111135 0.000332888 0.000333626 -2.12051e-05
-0.00110328 0.000330475 0.000331202 -2.12051e-05
-0.000662234 0.0001978 0.000199043 -3.53522e-05
-0.000667084 0.000199242 0.000200504 -3.53523e-05
-0.00110731 0.000331682 0.000332414 -2.12051e-05
-0.000882774 0.000264121 0.000265137 -2.91613e-05
-0.000664659 0.000198521 0.000199774 -3.53522e-05
-0.000889233 0.000266048 0.000267079 -2.91613e-05
-0.000886004 0.000265084 0.000266108 -2.91613e-05
-0.00110328 0.000330475 0.000331202 -2.12051e-05
-0.00109521 0.000328063 0.000328778 -2.12051e-05
-0.000657385 0.000196358 0.000197583 -3.53521e-05
-0.000662234 0.0001978 0.000199043 -3.53522e-05
-0.00109925 0.000329269 0.00032999 -2.12051e-05
-0.000876315 0.000262194 0.000263195 -2.91612e-05
-0.00065981 0.000197079 0.000198313 -3.53522e-05
-0.000882774 0.000264121 0.000265137 -2.91613e-05
-0.000879545 0.000263157 0.000264166 -2.91613e-05
-0.00109521 0.000328063 0.000328778 -2.12051e-05
-0.00108714 0.00032565 0.000326355 -2.12051e-05
-0.000652536 0.000194916 0.000196123 -3.53521e-05
-0.000657385 0.000196358 0.000197583 -3.53521e-05
-0.00109118 0.000326856 0.000327567 -2.12051e-05
-0.000869857 0.000260267 0.000261253 -2.91612e-05
-0.00065496 0.000195637 0.000196853 -3.53521e-05
-0.000876315 0.000262194 0.000263195 -2.91612e-05
-0.000873086 0.00026123 0.000262224 -2.91612e-05
-0.00108714 0.00032565 0.000326355 -2.12051e-05
-0.00107908 0.000323237 0.000323931 -2.12051e-05
-0.000647687 0.000193474 0.000194663 -3.5352e-05
-0.000652536 0.000194916 0.000196123 -3.53521e-05
-0.00108311 0.000324444 0.000325143 -2.12051e-05
-0.000863398 0.00025834 0.000259311 -2.91612e-05
-0.000650111 0.000194195 0.000195393 -3.5352e-05
-0.000869857 0.000260267 0.000261253 -2.91612e-05
-0.000866628 0.000259303 0.000260282 -2.91612e-05
-0.00107908 0.000323237 0.000323931 -2.12051e-05
-0.00107101 0.000320825 0.000321508 -2.12051e-05
-0.000642838 0.000192032 0.000193203 -3.53519e-05
-0.000647687 0.000193474 0.000194663 -3.5352e-05
-0.00107504 0.000322031 0.00032272 -2.12051e-05
-0.00085694 0.000256412 0.000257369 -2.91612e-05
-0.000645262 0.000192753 0.000193933 -3.5352e-05
-0.000863398 0.00025834 0.000259311 -2.91612e-05
-0.000860169 0.000257376 0.00025834 -2.91612e-05
-0.00107101 0.000320825 0.000321508 -2.12051e-05
-0.00106294 0.000318412 0.000319085 -2.12051e-05
-0.000637989 0.00019059 0.000191743 -3.53519e-05
-0.000642838 0.000192032 0.000193203 -3.53519e-05
-0.00106698 0.000319618 0.000320296 -2.12051e-05
-0.000850482 0.000254485 0.000255427 -2.91611e-05
-0.000640414 0.000191311 0.000192473 -3.53519e-05
-0.00085694 0.000256412 0.000257369 -2.91612e-05
-0.000853711 0.000255449 0.000256398 -2.91612e-05
-0.00106294 0.000318412 0.000319085 -2.12051e-05
-0.00105488 0.000315999 0.000316661 -2.12051e-05
-0.000633141 0.000189148 0.000190283 -3.53518e-05
-0.000637989 0.00019059 0.000191743 -3.53519e-05
-0.00105891 0.000317206 0.000317873 -2.12051e-05
-0.000844024 0.000252558 0.000253485 -2.91611e-05
-0.000635565 0.000189869 0.000191013 -3.53518e-05
-0.000850482 0.000254485 0.000255427 -2.91611e-05
-0.000847253 0.000253522 0.000254456 -2.91611e-05
-0.00105488 0.000315999 0.000316661 -2.12051e-05
-0.00104681 0.000313587 0.000314238 -2.12051e-05
-0.000628292 0.000187705 0.000188823 -3.53517e-05
-0.000633141 0.000189148 0.000190283 -3.53518e-05
-0.00105084 0.000314793 0.00031545 -2.12051e-05
-0.000837566 0.000250631 0.000251544 -2.91611e-05
-0.000630716 0.000188427 0.000189553 -3.53518e-05
-0.000844024 0.000252558 0.000253485 -2.91611e-05
-0.000840795 0.000251594 0.000252515 -2.91611e-05
-0.00104681 0.000313587 0.000314238 -2.12051e-05
-0.00103874 0.000311174 0.000311815 -2.12051e-05
-0.000623444 0.000186263 0.000187363 -3.53517e-05
-0.000628292 0.000187705 0.000188823 -3.53517e-05
-0.00104278 0.00031238 0.000313027 -2.12051e-05
-0.000831108 0.000248704 0.000249602 -2.91611e-05
-0.000625868 0.000186984 0.000188093 -3.53517e-05
-0.000837566 0.000250631 0.000251544 -2.91611e-05
-0.000834337 0.000249667 0.000250573 -2.91611e-05
-0.00103874 0.000311174 0.000311815 -2.12051e-05
-0.00103068 0.000308761 0.000309392 -2.12051e-05
-0.000618596 0.000184821 0.000185904 -3.53516e-05
-0.000623444 0.000186263 0.000187363 -3.53517e-05
-0.00103471 0.000309968 0.000310603 -2.12051e-05
-0.000824651 0.000246776 0.00024766 -2.9161e-05
-0.00062102 0.000185542 0.000186633 -3.53516e-05
-0.000831108 0.000248704 0.000249602 -2.91611e-05
-0.00082788 0.00024774 0.000248631 -2.91611e-05
-0.00103068 0.000308761 0.000309392 -2.12051e-05
-0.00102261 0.000306348 0.000306969 -2.12051e-05
-0.000613748 0.000183379 0.000184444 -3.53515e-05
-0.000618596 0.000184821 0.000185904 -3.53516e-05
-0.00102664 0.000307555 0.00030818 -2.12051e-05
-0.000818193 0.000244849 0.000245719 -2.9161e-05
-0.000616172 0.0001841 0.000185174 -3.53515e-05
-0.000824651 0.000246776 0.00024766 -2.9161e-05
-0.000821422 0.000245813 0.00024669 -2.9161e-05
-0.00102261 0.000306348 0.000306969 -2.12051e-05
-0.00101454 0.000303936 0.000304546 -2.12051e-05
-0.0006089 0.000181936 0.000182984 -3.53514e-05
-0.000613748 0.000183379 0.000184444 -3.53515e-05
-0.00101858 0.000305142 0.000305757 -2.12051e-05
-0.000811736 0.000242922 0.000243778 -2.9161e-05
-0.000611324 0.000182657 0.000183714 -3.53515e-05
-0.000818193 0.000244849 0.000245719 -2.9161e-05
-0.000814965 0.000243885 0.000244748 -2.9161e-05
-0.00101454 0.000303936 0.000304546 -2.12051e-05
-0.00100648 0.000301523 0.000302123 -2.12051e-05
-0.000604052 0.000180494 0.000181525 -3.53514e-05
-0.0006089 0.000181936 0.000182984 -3.53514e-05
-0.00101051 0.000302729 0.000303334 -2.12051e-05
-0.000805279 0.000240994 0.000241836 -2.91609e-05
-0.000606476 0.000181215 0.000182255 -3.53514e-05
-0.000811736 0.000242922 0.000243778 -2.9161e-05
-0.000808507 0.000241958 0.000242807 -2.9161e-05
-0.00100648 0.000301523 0.000302123 -2.12051e-05
-0.000998411 0.00029911 0.0002997 -2.12051e-05
-0.000599205 0.000179051 0.000180066 -3.53513e-05
-0.000604052 0.000180494 0.000181525 -3.53514e-05
-0.00100244 0.000300316 0.000300912 -2.12051e-05
-0.000798822 0.000239067 0.000239895 -2.91609e-05
-0.000601628 0.000179772 0.000180795 -3.53513e-05
-0.000805279 0.000240994 0.000241836 -2.91609e-05
-0.00080205 0.00024003 0.000240866 -2.91609e-05
-0.000998411 0.00029911 0.0002997 -2.12051e-05
-0.000990345 0.000296697 0.000297277 -2.12051e-05
-0.000594357 0.000177609 0.000178607 -3.53512e-05
-0.000599205 0.000179051 0.000180066 -3.53513e-05
-0.000994378 0.000297904 0.000298489 -2.12051e-05
-0.000792365 0.000237139 0.000237954 -2.91609e-05
-0.000596781 0.00017833 0.000179336 -3.53512e-05
-0.000798822 0.000239067 0.000239895 -2.91609e-05
-0.000795593 0.000238103 0.000238924 -2.91609e-05
-0.000990345 0.000296697 0.000297277 -2.12051e-05
-0.000982279 0.000294284 0.000294855 -2.12051e-05
-0.00058951 0.000176166 0.000177147 -3.53511e-05
-0.000594357 0.000177609 0.000178607 -3.53512e-05
-0.000986312 0.000295491 0.000296066 -2.12051e-05
-0.000785908 0.000235212 0.000236013 -2.91609e-05
-0.000591933 0.000176887 0.000177877 -3.53512e-05
-0.000792365 0.000237139 0.000237954 -2.91609e-05
-0.000789136 0.000236176 0.000236983 -2.91609e-05
-0.000982279 0.000294284 0.000294855 -2.12051e-05
-0.000974213 0.000291871 0.000292432 -2.12051e-05
-0.000584663 0.000174723 0.000175688 -3.53511e-05
-0.00058951 0.000176166 0.000177147 -3.53511e-05
-0.000978246 0.000293078 0.000293643 -2.12051e-05
-0.000779451 0.000233284 0.000234072 -2.91608e-05
-0.000587086 0.000175445 0.000176418 -3.53511e-05
-0.000785908 0.000235212 0.000236013 -2.91609e-05
-0.00078268 0.000234248 0.000235042 -2.91608e-05
-0.000974213 0.000291871 0.000292432 -2.12051e-05
-0.000966147 0.000289459 0.000290009 -2.12051e-05
-0.000579816 0.000173281 0.000174229 -3.5351e-05
-0.000584663 0.000174723 0.000175688 -3.53511e-05
-0.00097018 0.000290665 0.000291221 -2.12051e-05
-0.000772995 0.000231357 0.000232131 -2.91608e-05
-0.000582239 0.000174002 0.000174959 -3.5351e-05
-0.000779451 0.000233284 0.000234072 -2.91608e-05
-0.000776223 0.00023232 0.000233101 -2.91608e-05
-0.000966147 0.000289459 0.000290009 -2.12051e-05
-0.000958082 0.000287046 0.000287587 -2.12051e-05
-0.000574969 0.000171838 0.00017277 -3.53509e-05
-0.000579816 0.000173281 0.000174229 -3.5351e-05
-0.000962115 0.000288252 0.000288798 -2.12051e-05
-0.000766538 0.000229429 0.00023019 -2.91608e-05
-0.000577392 0.000172559 0.0001735 -3.53509e-05
-0.000772995 0.000231357 0.000232131 -2.91608e-05
-0.000769766 0.000230393 0.00023116 -2.91608e-05
-0.000958082 0.000287046 0.000287587 -2.12051e-05
-0.000950017 0.000284633 0.000285165 -2.12051e-05
-0.000570122 0.000170395 0.000171312 -3.53508e-05
-0.000574969 0.000171838 0.00017277 -3.53509e-05
-0.000954049 0.000285839 0.000286376 -2.12051e-05
-0.000760082 0.000227501 0.000228249 -2.91607e-05
-0.000572545 0.000171116 0.000172041 -3.53509e-05
-0.000766538 0.000229429 0.00023019 -2.91608e-05
-0.00076331 0.000228465 0.000229219 -2.91607e-05
-0.000950017 0.000284633 0.000285165 -2.12051e-05
-0.000941951 0.00028222 0.000282742 -2.12051e-05
-0.000565275 0.000168952 0.000169853 -3.53507e-05
-0.000570122 0.000170395 0.000171312 -3.53508e-05
-0.000945984 0.000283426 0.000283953 -2.12051e-05
-0.000753626 0.000225574 0.000226308 -2.91607e-05
-0.000567699 0.000169674 0.000170582 -3.53508e-05
-0.000760082 0.000227501 0.000228249 -2.91607e-05
-0.000756854 0.000226537 0.000227279 -2.91607e-05
-0.000941951 0.00028222 0.000282742 -2.12051e-05
-0.000933886 0.000279807 0.00028032 -2.12051e-05
-0.000560429 0.000167509 0.000168394 -3.53507e-05
-0.000565275 0.000168952 0.000169853 -3.53507e-05
-0.000937919 0.000281013 0.000281531 -2.12051e-05
-0.00074717 0.000223646 0.000224367 -2.91607e-05
-0.000562852 0.000168231 0.000169123 -3.53507e-05
-0.000753626 0.000225574 0.000226308 -2.91607e-05
-0.000750398 0.00022461 0.000225338 -2.91607e-05
-0.000933886 0.000279807 0.00028032 -2.12051e-05
-0.000925821 0.000277394 0.000277898 -2.12051e-05
-0.000555583 0.000166066 0.000166936 -3.53506e-05
-0.000560429 0.000167509 0.000168394 -3.53507e-05
-0.000929854 0.0002786 0.000279109 -2.12051e-05
-0.000740714 0.000221718 0.000222427 -2.91606e-05
-0.000558006 0.000166788 0.000167665 -3.53506e-05
-0.00074717 0.000223646 0.000224367 -2.91607e-05
-0.000743942 0.000222682 0.000223397 -2.91606e-05
-0.000925821 0.000277394 0.000277898 -2.12051e-05
-0.000917757 0.000274981 0.000275475 -2.12051e-05
-0.000550736 0.000164623 0.000165477 -3.53505e-05
-0.000555583 0.000166066 0.000166936 -3.53506e-05
-0.000921789 0.000276187 0.000276686 -2.12051e-05
-0.000734258 0.00021979 0.000220486 -2.91606e-05
-0.00055316 0.000165345 0.000166206 -3.53506e-05
-0.000740714 0.000221718 0.000222427 -2.91606e-05
-0.000737486 0.000220754 0.000221457 -2.91606e-05
-0.000917757 0.000274981 0.000275475 -2.12051e-05
-0.000909692 0.000272568 0.000273053 -2.12051e-05
-0.00054589 0.00016318 0.000164019 -3.53504e-05
-0.000550736 0.000164623 0.000165477 -3.53505e-05
-0.000913724 0.000273774 0.000274264 -2.12051e-05
-0.000727803 0.000217862 0.000218546 -2.91606e-05
-0.000548313 0.000163902 0.000164748 -3.53505e-05
-0.000734258 0.00021979 0.000220486 -2.91606e-05
-0.000731031 0.000218826 0.000219516 -2.91606e-05
-0.000909692 0.000272568 0.000273053 -2.12051e-05
-0.000901627 0.000270155 0.000270631 -2.12051e-05
-0.000541045 0.000161737 0.00016256 -3.53504e-05
-0.00054589 0.00016318 0.000164019 -3.53504e-05
-0.00090566 0.000271361 0.000271842 -2.12051e-05
-0.000721347 0.000215935 0.000216606 -2.91605e-05
-0.000543467 0.000162459 0.00016329 -3.53504e-05
-0.000727803 0.000217862 0.000218546 -2.91606e-05
-0.000724575 0.000216899 0.000217576 -2.91605e-05
-0.000901627 0.000270155 0.000270631 -2.12051e-05
-0.000893563 0.000267742 0.000268209 -2.12051e-05
-0.000536199 0.000160294 0.000161102 -3.53503e-05
-0.000541045 0.000161737 0.00016256 -3.53504e-05
-0.000897595 0.000268948 0.00026942 -2.12051e-05
-0.000714892 0.000214007 0.000214665 -2.91605e-05
-0.000538622 0.000161015 0.000161831 -3.53503e-05
-0.000721347 0.000215935 0.000216606 -2.91605e-05
-0.00071812 0.000214971 0.000215635 -2.91605e-05
-0.000893563 0.000267742 0.000268209 -2.12051e-05
-0.000885499 0.000265329 0.000265787 -2.12051e-05
-0.000531353 0.000158851 0.000159644 -3.53502e-05
-0.000536199 0.000160294 0.000161102 -3.53503e-05
-0.000889531 0.000266535 0.000266998 -2.12051e-05
-0.000708437 0.000212079 0.000212725 -2.91605e-05
-0.000533776 0.000159572 0.000160373 -3.53502e-05
-0.000714892 0.000214007 0.000214665 -2.91605e-05
-0.000711665 0.000213043 0.000213695 -2.91605e-05
-0.000885499 0.000265329 0.000265787 -2.12051e-05
-0.000877435 0.000262916 0.000263365 -2.12051e-05
-0.000526508 0.000157407 0.000158186 -3.53501e-05
-0.000531353 0.000158851 0.000159644 -3.53502e-05
-0.000881467 0.000264122 0.000264576 -2.12051e-05
-0.000701982 0.000210151 0.000210785 -2.91604e-05
-0.00052893 0.000158129 0.000158915 -3.53502e-05
-0.000708437 0.000212079 0.000212725 -2.91605e-05
-0.00070521 0.000211115 0.000211755 -2.91605e-05
-0.000877435 0.000262916 0.000263365 -2.12051e-05
-0.000869371 0.000260503 0.000260943 -2.12051e-05
-0.000521662 0.000155964 0.000156728 -3.53501e-05
-0.000526508 0.000157407 0.000158186 -3.53501e-05
-0.000873403 0.000261709 0.000262154 -2.12051e-05
-0.000695527 0.000208223 0.000208845 -2.91604e-05
-0.000524085 0.000156686 0.000157457 -3.53501e-05
-0.000701982 0.000210151 0.000210785 -2.91604e-05
-0.000698755 0.000209187 0.000209815 -2.91604e-05
-0.000869371 0.000260503 0.000260943 -2.12051e-05
-0.000861307 0.000258089 0.000258522 -2.12051e-05
-0.000516817 0.000154521 0.00015527 -3.535e-05
-0.000521662 0.000155964 0.000156728 -3.53501e-05
-0.000865339 0.000259296 0.000259733 -2.12051e-05
-0.000689072 0.000206295 0.000206905 -2.91604e-05
-0.00051924 0.000155242 0.000155999 -3.535e-05
-0.000695527 0.000208223 0.000208845 -2.91604e-05
-0.0006923 0.000207259 0.000207875 -2.91604e-05
-0.000861307 0.000258089 0.000258522 -2.12051e-05
-0.000853243 0.000255676 0.0002561 -2.12051e-05
-0.000511972 0.000153077 0.000153812 -3.53499e-05
-0.000516817 0.000154521 0.00015527 -3.535e-05
-0.000857275 0.000256883 0.000257311 -2.12051e-05
-0.000682618 0.000204367 0.000204965 -2.91603e-05
-0.000514395 0.000153799 0.000154541 -3.53499e-05
-0.000689072 0.000206295 0.000206905 -2.91604e-05
-0.000685845 0.000205331 0.000205935 -2.91604e-05
-0.000853243 0.000255676 0.0002561 -2.12051e-05
-0.000845179 0.000253263 0.000253678 -2.12051e-05
-0.000507127 0.000151634 0.000152354 -3.53498e-05
-0.000511972 0.000153077 0.000153812 -3.53499e-05
-0.000849211 0.00025447 0.000254889 -2.12051e-05
-0.000676163 0.000202438 0.000203025 -2.91603e-05
-0.00050955 0.000152355 0.000153083 -3.53499e-05
-0.000682618 0.000204367 0.000204965 -2.91603e-05
-0.000679391 0.000203403 0.000203995 -2.91603e-05
-0.000845179 0.000253263 0.000253678 -2.12051e-05
-0.000837116 0.00025085 0.000251257 -2.12051e-05
-0.000502282 0.00015019 0.000150897 -3.53497e-05
-0.000507127 0.000151634 0.000152354 -3.53498e-05
-0.000841148 0.000252057 0.000252468 -2.12051e-05
-0.000669709 0.00020051 0.000201085 -2.91603e-05
-0.000504705 0.000150912 0.000151626 -3.53498e-05
-0.000676163 0.000202438 0.000203025 -2.91603e-05
-0.000672936 0.000201474 0.000202055 -2.91603e-05
-0.000837116 0.00025085 0.000251257 -2.12051e-05
-0.000829052 0.000248437 0.000248835 -2.12051e-05
-0.000497438 0.000148746 0.000149439 -3.53497e-05
-0.000502282 0.00015019 0.000150897 -3.53497e-05
-0.000833084 0.000249643 0.000250046 -2.12051e-05
-0.000663255 0.000198582 0.000199145 -2.91602e-05
-0.00049986 0.000149468 0.000150168 -3.53497e-05
-0.000669709 0.00020051 0.000201085 -2.91603e-05
-0.000666482 0.000199546 0.000200115 -2.91603e-05
-0.000829052 0.000248437 0.000248835 -2.12051e-05
-0.000820989 0.000246024 0.000246414 -2.12051e-05
-0.000492593 0.000147303 0.000147982 -3.53496e-05
-0.000497438 0.000148746 0.000149439 -3.53497e-05
-0.000825021 0.00024723 0.000247625 -2.12051e-05
-0.000656801 0.000196654 0.000197206 -2.91602e-05
-0.000495016 0.000148025 0.00014871 -3.53496e-05
-0.000663255 0.000198582 0.000199145 -2.91602e-05
-0.000660028 0.000197618 0.000198176 -2.91602e-05
-0.000820989 0.000246024 0.000246414 -2.12051e-05
-0.000812926 0.00024361 0.000243992 -2.12051e-05
-0.000487749 0.000145859 0.000146524 -3.53495e-05
-0.000492593 0.000147303 0.000147982 -3.53496e-05
-0.000816958 0.000244817 0.000245203 -2.12051e-05
-0.000650347 0.000194726 0.000195266 -2.91602e-05
-0.000490171 0.000146581 0.000147253 -3.53496e-05
-0.000656801 0.000196654 0.000197206 -2.91602e-05
-0.000653574 0.00019569 0.000196236 -2.91602e-05
-0.000812926 0.00024361 0.000243992 -2.12051e-05
-0.000804863 0.000241197 0.000241571 -2.12051e-05
-0.000482905 0.000144415 0.000145067 -3.53495e-05
-0.000487749 0.000145859 0.000146524 -3.53495e-05
-0.000808895 0.000242404 0.000242782 -2.12051e-05
-0.000643893 0.000192797 0.000193327 -2.91602e-05
-0.000485327 0.000145137 0.000145796 -3.53495e-05
-0.000650347 0.000194726 0.000195266 -2.91602e-05
-0.00064712 0.000193761 0.000194297 -2.91602e-05
-0.000804863 0.000241197 0.000241571 -2.12051e-05
-0.0007968 0.000238784 0.00023915 -2.12051e-05
-0.000478061 0.000142972 0.00014361 -3.53494e-05
-0.000482905 0.000144415 0.000145067 -3.53495e-05
-0.000800832 0.00023999 0.000240361 -2.12051e-05
-0.000637439 0.000190869 0.000191387 -2.91601e-05
-0.000480483 0.000143693 0.000144338 -3.53494e-05
-0.000643893 0.000192797 0.000193327 -2.91602e-05
-0.000640666 0.000191833 0.000192357 -2.91601e-05
-0.0007968 0.000238784 0.00023915 -2.12051e-05
-0.000788738 0.000236371 0.000236729 -2.12051e-05
-0.000473217 0.000141528 0.000142153 -3.53493e-05
-0.000478061 0.000142972 0.00014361 -3.53494e-05
-0.000792769 0.000237577 0.000237939 -2.12051e-05
-0.000630986 0.00018894 0.000189448 -2.91601e-05
-0.000475639 0.00014225 0.000142881 -3.53493e-05
-0.000637439 0.000190869 0.000191387 -2.91601e-05
-0.000634213 0.000189905 0.000190418 -2.91601e-05
-0.000788738 0.000236371 0.000236729 -2.12051e-05
-0.000780675 0.000233957 0.000234308 -2.12051e-05
-0.000468373 0.000140084 0.000140695 -3.53492e-05
-0.000473217 0.000141528 0.000142153 -3.53493e-05
-0.000784706 0.000235164 0.000235518 -2.12051e-05
-0.000624533 0.000187012 0.000187509 -2.91601e-05
-0.000470795 0.000140806 0.000141424 -3.53493e-05
-0.000630986 0.00018894 0.000189448 -2.91601e-05
-0.000627759 0.000187976 0.000188478 -2.91601e-05
-0.000780675 0.000233957 0.000234308 -2.12051e-05
-0.000772612 0.000231544 0.000231887 -2.12051e-05
-0.000463529 0.00013864 0.000139238 -3.53492e-05
-0.000468373 0.000140084 0.000140695 -3.53492e-05
-0.000776644 0.000232751 0.000233097 -2.12051e-05
-0.000618079 0.000185084 0.00018557 -2.916e-05
-0.000465951 0.000139362 0.000139967 -3.53492e-05
-0.000624533 0.000187012 0.000187509 -2.91601e-05
-0.000621306 0.000186048 0.000186539 -2.91601e-05
-0.000772612 0.000231544 0.000231887 -2.12051e-05
-0.00076455 0.000229131 0.000229466 -2.12051e-05
-0.000458686 0.000137196 0.000137782 -3.53491e-05
-0.000463529 0.00013864 0.000139238 -3.53492e-05
-0.000768581 0.000230337 0.000230676 -2.12051e-05
-0.000611626 0.000183155 0.000183631 -2.916e-05
-0.000461108 0.000137918 0.00013851 -3.53491e-05
-0.000618079 0.000185084 0.00018557 -2.916e-05
-0.000614853 0.000184119 0.0001846 -2.916e-05
-0.00076455 0.000229131 0.000229466 -2.12051e-05
-0.000756488 0.000226717 0.000227045 -2.12051e-05
-0.000453843 0.000135752 0.000136325 -3.5349e-05
-0.000458686 0.000137196 0.000137782 -3.53491e-05
-0.000760519 0.000227924 0.000228255 -2.12051e-05
-0.000605173 0.000181227 0.000181692 -2.916e-05
-0.000456264 0.000136474 0.000137053 -3.53491e-05
-0.000611626 0.000183155 0.000183631 -2.916e-05
-0.0006084 0.000182191 0.000182661 -2.916e-05
-0.000756488 0.000226717 0.000227045 -2.12051e-05
-0.000748426 0.000224304 0.000224624 -2.12051e-05
-0.000448999 0.000134308 0.000134868 -3.5349e-05
-0.000453843 0.000135752 0.000136325 -3.5349e-05
-0.000752457 0.000225511 0.000225834 -2.12051e-05
-0.000598721 0.000179298 0.000179753 -2.916e-05
-0.000451421 0.00013503 0.000135596 -3.5349e-05
-0.000605173 0.000181227 0.000181692 -2.916e-05
-0.000601947 0.000180262 0.000180722 -2.916e-05
-0.000748426 0.000224304 0.000224624 -2.12051e-05
-0.000740364 0.00022189 0.000222203 -2.12051e-05
-0.000444156 0.000132863 0.000133411 -3.53489e-05
-0.000448999 0.000134308 0.000134868 -3.5349e-05
-0.000744395 0.000223097 0.000223413 -2.12051e-05
-0.000592268 0.000177369 0.000177814 -2.91599e-05
-0.000446578 0.000133586 0.00013414 -3.53489e-05
-0.000598721 0.000179298 0.000179753 -2.916e-05
-0.000595494 0.000178334 0.000178783 -2.916e-05
-0.000740364 0.00022189 0.000222203 -2.12051e-05
-0.000732302 0.000219477 0.000219782 -2.12051e-05
-0.000439313 0.000131419 0.000131955 -3.53488e-05
-0.000444156 0.000132863 0.000133411 -3.53489e-05
-0.000736333 0.000220684 0.000220992 -2.12051e-05
-0.000585815 0.000175441 0.000175875 -2.91599e-05
-0.000441735 0.000132141 0.000132683 -3.53489e-05
-0.000592268 0.000177369 0.000177814 -2.91599e-05
-0.000589042 0.000176405 0.000176844 -2.91599e-05
-0.000732302 0.000219477 0.000219782 -2.12051e-05
-0.00072424 0.000217064 0.000217361 -2.12051e-05
-0.000434471 0.000129975 0.000130498 -3.53488e-05
-0.000439313 0.000131419 0.000131955 -3.53488e-05
-0.000728271 0.00021827 0.000218572 -2.12051e-05
-0.000579363 0.000173512 0.000173936 -2.91599e-05
-0.000436892 0.000130697 0.000131226 -3.53488e-05
-0.000585815 0.000175441 0.000175875 -2.91599e-05
-0.000582589 0.000174476 0.000174905 -2.91599e-05
-0.00072424 0.000217064 0.000217361 -2.12051e-05
-0.000716179 0.00021465 0.000214941 -2.12052e-05
-0.000429628 0.000128531 0.000129042 -3.53487e-05
-0.000434471 0.000129975 0.000130498 -3.53488e-05
-0.00072021 0.000215857 0.000216151 -2.12051e-05
-0.000572911 0.000171583 0.000171997 -2.91599e-05
-0.000432049 0.000129253 0.00012977 -3.53487e-05
-0.000579363 0.000173512 0.000173936 -2.91599e-05
-0.000576137 0.000172548 0.000172967 -2.91599e-05
-0.000716179 0.00021465 0.000214941 -2.12052e-05
-0.000708117 0.000212237 0.00021252 -2.12052e-05
-0.000424785 0.000127086 0.000127585 -3.53486e-05
-0.000429628 0.000128531 0.000129042 -3.53487e-05
-0.000712148 0.000213443 0.000213731 -2.12052e-05
-0.000566459 0.000169654 0.000170059 -2.91599e-05
-0.000427207 0.000127808 0.000128314 -3.53487e-05
-0.000572911 0.000171583 0.000171997 -2.91599e-05
-0.000569685 0.000170619 0.000171028 -2.91599e-05
-0.000708117 0.000212237 0.00021252 -2.12052e-05
-0.000700056 0.000209823 0.0002101 -2.12052e-05
-0.000419943 0.000125642 0.000126129 -3.53486e-05
-0.000424785 0.000127086 0.000127585 -3.53486e-05
-0.000704087 0.00021103 0.00021131 -2.12052e-05
-0.000560007 0.000167726 0.00016812 -2.91598e-05
-0.000422364 0.000126364 0.000126857 -3.53486e-05
-0.000566459 0.000169654 0.000170059 -2.91599e-05
-0.000563232 0.00016869 0.00016909 -2.91598e-05
-0.000700056 0.000209823 0.0002101 -2.12052e-05
-0.000691995 0.00020741 0.000207679 -2.12052e-05
-0.000415101 0.000124197 0.000124673 -3.53485e-05
-0.000419943 0.000125642 0.000126129 -3.53486e-05
-0.000696025 0.000208617 0.00020889 -2.12052e-05
-0.000553555 0.000165797 0.000166182 -2.91598e-05
-0.000417522 0.000124919 0.000125401 -3.53485e-05
-0.000560007 0.000167726 0.00016812 -2.91598e-05
-0.000556781 0.000166761 0.000167151 -2.91598e-05
-0.000691995 0.00020741 0.000207679 -2.12052e-05
-0.000683934 0.000204996 0.000205259 -2.12052e-05
-0.000410259 0.000122753 0.000123217 -3.53484e-05
-0.000415101 0.000124197 0.000124673 -3.53485e-05
-0.000687964 0.000206203 0.000206469 -2.12052e-05
-0.000547103 0.000163868 0.000164244 -2.91598e-05
-0.00041268 0.000123475 0.000123945 -3.53485e-05
-0.000553555 0.000165797 0.000166182 -2.91598e-05
-0.000550329 0.000164832 0.000165213 -2.91598e-05
-0.000683934 0.000204996 0.000205259 -2.12052e-05
-0.000675873 0.000202583 0.000202839 -2.12052e-05
-0.000405417 0.000121308 0.000121761 -3.53484e-05
-0.000410259 0.000122753 0.000123217 -3.53484e-05
-0.000679903 0.000203789 0.000204049 -2.12052e-05
-0.000540651 0.000161939 0.000162305 -2.91598e-05
-0.000407838 0.00012203 0.000122489 -3.53484e-05
-0.000547103 0.000163868 0.000164244 -2.91598e-05
-0.000543877 0.000162903 0.000163274 -2.91598e-05
-0.000675873 0.000202583 0.000202839 -2.12052e-05
-0.000667812 0.000200169 0.000200418 -2.12052e-05
-0.000400575 0.000119863 0.000120305 -3.53483e-05
-0.000405417 0.000121308 0.000121761 -3.53484e-05
-0.000671842 0.000201376 0.000201629 -2.12052e-05
-0.0005342 0.00016001 0.000160367 -2.91598e-05
-0.000402996 0.000120586 0.000121033 -3.53483e-05
-0.000540651 0.000161939 0.000162305 -2.91598e-05
-0.000537426 0.000160975 0.000161336 -2.91598e-05
-0.000667812 0.000200169 0.000200418 -2.12052e-05
-0.000659751 0.000197756 0.000197998 -2.12052e-05
-0.000395733 0.000118419 0.000118849 -3.53483e-05
-0.000400575 0.000119863 0.000120305 -3.53483e-05
-0.000663782 0.000198962 0.000199208 -2.12052e-05
-0.000527749 0.000158081 0.000158429 -2.91597e-05
-0.000398154 0.000119141 0.000119577 -3.53483e-05
-0.0005342 0.00016001 0.000160367 -2.91598e-05
-0.000530974 0.000159046 0.000159398 -2.91598e-05
-0.000659751 0.000197756 0.000197998 -2.12052e-05
-0.000651691 0.000195342 0.000195578 -2.12052e-05
-0.000390892 0.000116974 0.000117393 -3.53482e-05
-0.000395733 0.000118419 0.000118849 -3.53483e-05
-0.000655721 0.000196549 0.000196788 -2.12052e-05
-0.000521297 0.000156152 0.000156491 -2.91597e-05
-0.000393313 0.000117696 0.000118121 -3.53482e-05
-0.000527749 0.000158081 0.000158429 -2.91597e-05
-0.000524523 0.000157117 0.00015746 -2.91597e-05
-0.000651691 0.000195342 0.000195578 -2.12052e-05
-0.00064363 0.000192928 0.000193158 -2.12052e-05
-0.00038605 0.000115529 0.000115938 -3.53482e-05
-0.000390892 0.000116974 0.000117393 -3.53482e-05
-0.000647661 0.000194135 0.000194368 -2.12052e-05
-0.000514846 0.000154223 0.000154553 -2.91597e-05
-0.000388471 0.000116252 0.000116666 -3.53482e-05
-0.000521297 0.000156152 0.000156491 -2.91597e-05
-0.000518072 0.000155188 0.000155522 -2.91597e-05
-0.00064363 0.000192928 0.000193158 -2.12052e-05
-0.00063557 0.000190515 0.000190738 -2.12053e-05
-0.000381209 0.000114084 0.000114482 -3.53481e-05
-0.00038605 0.000115529 0.000115938 -3.53482e-05
-0.0006396 0.000191722 0.000191948 -2.12052e-05
-0.000508395 0.000152294 0.000152615 -2.91597e-05
-0.00038363 0.000114807 0.00011521 -3.53481e-05
-0.000514846 0.000154223 0.000154553 -2.91597e-05
-0.000511621 0.000153258 0.000153584 -2.91597e-05
-0.00063557 0.000190515 0.000190738 -2.12053e-05
-0.00062751 0.000188101 0.000188318 -2.12053e-05
-0.000376368 0.000112639 0.000113027 -3.5348e-05
-0.000381209 0.000114084 0.000114482 -3.53481e-05
-0.00063154 0.000189308 0.000189528 -2.12053e-05
-0.000501945 0.000150365 0.000150677 -2.91597e-05
-0.000378789 0.000113362 0.000113754 -3.53481e-05
-0.000508395 0.000152294 0.000152615 -2.91597e-05
-0.00050517 0.000151329 0.000151646 -2.91597e-05
-0.00062751 0.000188101 0.000188318 -2.12053e-05
-0.00061945 0.000185687 0.000185898 -2.12053e-05
-0.000371527 0.000111194 0.000111571 -3.5348e-05
-0.000376368 0.000112639 0.000113027 -3.5348e-05
-0.00062348 0.000186894 0.000187108 -2.12053e-05
-0.000495494 0.000148436 0.000148739 -2.91597e-05
-0.000373948 0.000111917 0.000112299 -3.5348e-05
-0.000501945 0.000150365 0.000150677 -2.91597e-05
-0.000498719 0.0001494 0.000149708 -2.91597e-05
-0.00061945 0.000185687 0.000185898 -2.12053e-05
-0.00061139 0.000183274 0.000183478 -2.12053e-05
-0.000366686 0.000109749 0.000110116 -3.53479e-05
-0.000371527 0.000111194 0.000111571 -3.5348e-05
-0.00061542 0.000184481 0.000184688 -2.12053e-05
-0.000489043 0.000146506 0.000146802 -2.91597e-05
-0.000369107 0.000110472 0.000110843 -3.5348e-05
-0.000495494 0.000148436 0.000148739 -2.91597e-05
-0.000492269 0.000147471 0.00014777 -2.91597e-05
-0.00061139 0.000183274 0.000183478 -2.12053e-05
-0.00060333 0.00018086 0.000181059 -2.12053e-05
-0.000361846 0.000108304 0.000108661 -3.53479e-05
-0.000366686 0.000109749 0.000110116 -3.53479e-05
-0.00060736 0.000182067 0.000182268 -2.12053e-05
-0.000482593 0.000144577 0.000144864 -2.91597e-05
-0.000364266 0.000109027 0.000109388 -3.53479e-05
-0.000489043 0.000146506 0.000146802 -2.91597e-05
-0.000485818 0.000145542 0.000145833 -2.91597e-05
-0.00060333 0.00018086 0.000181059 -2.12053e-05
-0.00059527 0.000178446 0.000178639 -2.12053e-05
-0.000357005 0.000106859 0.000107205 -3.53478e-05
-0.000361846 0.000108304 0.000108661 -3.53479e-05
-0.0005993 0.000179653 0.000179849 -2.12053e-05
-0.000476143 0.000142648 0.000142926 -2.91597e-05
-0.000359425 0.000107582 0.000107933 -3.53479e-05
-0.000482593 0.000144577 0.000144864 -2.91597e-05
-0.000479368 0.000143612 0.000143895 -2.91597e-05
-0.00059527 0.000178446 0.000178639 -2.12053e-05
-0.000587211 0.000176032 0.000176219 -2.12054e-05
-0.000352165 0.000105414 0.00010575 -3.53478e-05
-0.000357005 0.000106859 0.000107205 -3.53478e-05
-0.000591241 0.000177239 0.000177429 -2.12053e-05
-0.000469693 0.000140718 0.000140989 -2.91596e-05
-0.000354585 0.000106137 0.000106478 -3.53478e-05
-0.000476143 0.000142648 0.000142926 -2.91597e-05
-0.000472918 0.000141683 0.000141958 -2.91596e-05
-0.000587211 0.000176032 0.000176219 -2.12054e-05
-0.000579151 0.000173619 0.0001738 -2.12054e-05
-0.000347324 0.000103969 0.000104295 -3.53478e-05
-0.000352165 0.000105414 0.00010575 -3.53478e-05
-0.000583181 0.000174826 0.00017501 -2.12054e-05
-0.000463243 0.000138789 0.000139052 -2.91596e-05
-0.000349744 0.000104691 0.000105023 -3.53478e-05
-0.000469693 0.000140718 0.000140989 -2.91596e-05
-0.000466468 0.000139754 0.00014002 -2.91596e-05
-0.000579151 0.000173619 0.0001738 -2.12054e-05
-0.000571092 0.000171205 0.00017138 -2.12054e-05
-0.000342484 0.000102523 0.00010284 -3.53477e-05
-0.000347324 0.000103969 0.000104295 -3.53478e-05
-0.000575122 0.000172412 0.00017259 -2.12054e-05
-0.000456793 0.00013686 0.000137114 -2.91596e-05
-0.000344904 0.000103246 0.000103568 -3.53477e-05
-0.000463243 0.000138789 0.000139052 -2.91596e-05
-0.000460018 0.000137824 0.000138083 -2.91596e-05
-0.000571092 0.000171205 0.00017138 -2.12054e-05
-0.000563033 0.000168791 0.000168961 -2.12054e-05
-0.000337644 0.000101078 0.000101385 -3.53477e-05
-0.000342484 0.000102523 0.00010284 -3.53477e-05
-0.000567062 0.000169998 0.000170171 -2.12054e-05
-0.000450343 0.00013493 0.000135177 -2.91596e-05
-0.000340064 0.000101801 0.000102113 -3.53477e-05
-0.000456793 0.00013686 0.000137114 -2.91596e-05
-0.000453568 0.000135895 0.000136146 -2.91596e-05
-0.000563033 0.000168791 0.000168961 -2.12054e-05
-0.000554974 0.000166377 0.000166541 -2.12054e-05
-0.000332804 9.96327e-05 9.99307e-05 -3.53476e-05
-0.000337644 0.000101078 0.000101385 -3.53477e-05
-0.000559003 0.000167584 0.000167751 -2.12054e-05
-0.000443893 0.000133001 0.00013324 -2.91596e-05
-0.000335224 0.000100355 0.000100658 -3.53477e-05
-0.000450343 0.00013493 0.000135177 -2.91596e-05
-0.000447118 0.000133965 0.000134208 -2.91596e-05
-0.000554974 0.000166377 0.000166541 -2.12054e-05
-0.000546915 0.000163963 0.000164122 -2.12055e-05
-0.000327964 9.81872e-05 9.8476e-05 -3.53476e-05
-0.000332804 9.96327e-05 9.99307e-05 -3.53476e-05
-0.000550944 0.00016517 0.000165332 -2.12054e-05
-0.000437444 0.000131071 0.000131303 -2.91596e-05
-0.000330384 9.89099e-05 9.92033e-05 -3.53476e-05
-0.000443893 0.000133001 0.00013324 -2.91596e-05
-0.000440669 0.000132036 0.000132271 -2.91596e-05
-0.000546915 0.000163963 0.000164122 -2.12055e-05
-0.000538856 0.000161549 0.000161703 -2.12055e-05
-0.000323125 9.67417e-05 9.70214e-05 -3.53476e-05
-0.000327964 9.81872e-05 9.8476e-05 -3.53476e-05
-0.000542885 0.000162756 0.000162912 -2.12055e-05
-0.000430995 0.000129142 0.000129366 -2.91596e-05
-0.000325545 9.74644e-05 9.77487e-05 -3.53476e-05
-0.000437444 0.000131071 0.000131303 -2.91596e-05
-0.000434219 0.000130106 0.000130334 -2.91596e-05
-0.000538856 0.000161549 0.000161703 -2.12055e-05
-0.000530797 0.000159136 0.000159284 -2.12055e-05
-0.000318285 9.52961e-05 9.55668e-05 -3.53475e-05
-0.000323125 9.67417e-05 9.70214e-05 -3.53476e-05
-0.000534827 0.000160342 0.000160493 -2.12055e-05
-0.000424545 0.000127212 0.000127429 -2.91596e-05
-0.000320705 9.60189e-05 9.62941e-05 -3.53475e-05
-0.000430995 0.000129142 0.000129366 -2.91596e-05
-0.00042777 0.000128177 0.000128397 -2.91596e-05
-0.000530797 0.000159136 0.000159284 -2.12055e-05
-0.000522739 0.000156722 0.000156864 -2.12055e-05
-0.000313446 9.38505e-05 9.41124e-05 -3.53475e-05
-0.000318285 9.52961e-05 9.55668e-05 -3.53475e-05
-0.000526768 0.000157929 0.000158074 -2.12055e-05
-0.000418096 0.000125282 0.000125492 -2.91596e-05
-0.000315866 9.45733e-05 9.48396e-05 -3.53475e-05
-0.000424545 0.000127212 0.000127429 -2.91596e-05
-0.000421321 0.000126247 0.00012646 -2.91596e-05
-0.000522739 0.000156722 0.000156864 -2.12055e-05
-0.00051468 0.000154308 0.000154445 -2.12056e-05
-0.000308607 9.24048e-05 9.2658e-05 -3.53475e-05
-0.000313446 9.38505e-05 9.41124e-05 -3.53475e-05
-0.000518709 0.000155515 0.000155655 -2.12055e-05
-0.000411647 0.000123353 0.000123555 -2.91596e-05
-0.000311026 9.31277e-05 9.33852e-05 -3.53475e-05
-0.000418096 0.000125282 0.000125492 -2.91596e-05
-0.000414872 0.000124317 0.000124523 -2.91596e-05
-0.00051468 0.000154308 0.000154445 -2.12056e-05
-0.000506622 0.000151894 0.000152026 -2.12056e-05
-0.000303768 9.09591e-05 9.12037e-05 -3.53474e-05
-0.000308607 9.24048e-05 9.2658e-05 -3.53475e-05
-0.000510651 0.000153101 0.000153236 -2.12056e-05
-0.000405199 0.000121423 0.000121618 -2.91597e-05
-0.000306187 9.1682e-05 9.19309e-05 -3.53474e-05
-0.000411647 0.000123353 0.000123555 -2.91596e-05
-0.000408423 0.000122388 0.000122587 -2.91597e-05
-0.000506622 0.000151894 0.000152026 -2.12056e-05
-0.000498564 0.00014948 0.000149607 -2.12056e-05
-0.000298929 8.95133e-05 8.97495e-05 -3.53474e-05
-0.000303768 9.09591e-05 9.12037e-05 -3.53474e-05
-0.000502593 0.000150687 0.000150817 -2.12056e-05
-0.00039875 0.000119493 0.000119681 -2.91597e-05
-0.000301348 9.02362e-05 9.04766e-05 -3.53474e-05
-0.000405199 0.000121423 0.000121618 -2.91597e-05
-0.000401974 0.000120458 0.00012065 -2.91597e-05
-0.000498564 0.00014948 0.000149607 -2.12056e-05
-0.000490506 0.000147066 0.000147189 -2.12056e-05
-0.00029409 8.80675e-05 8.82954e-05 -3.53474e-05
-0.000298929 8.95133e-05 8.97495e-05 -3.53474e-05
-0.000494535 0.000148273 0.000148398 -2.12056e-05
-0.000392301 0.000117563 0.000117745 -2.91597e-05
-0.000296509 8.87904e-05 8.90225e-05 -3.53474e-05
-0.00039875 0.000119493 0.000119681 -2.91597e-05
-0.000395526 0.000118528 0.000118713 -2.91597e-05
-0.000490506 0.000147066 0.000147189 -2.12056e-05
-0.000482448 0.000144652 0.00014477 -2.12057e-05
-0.000289251 8.66216e-05 8.68414e-05 -3.53474e-05
-0.00029409 8.80675e-05 8.82954e-05 -3.53474e-05
-0.000486477 0.000145859 0.000145979 -2.12057e-05
-0.000385853 0.000115633 0.000115808 -2.91597e-05
-0.000291671 8.73445e-05 8.75684e-05 -3.53474e-05
-0.000392301 0.000117563 0.000117745 -2.91597e-05
-0.000389077 0.000116598 0.000116777 -2.91597e-05
-0.000482448 0.000144652 0.00014477 -2.12057e-05
-0.00047439 0.000142238 0.000142351 -2.12057e-05
-0.000284413 8.51756e-05 8.53874e-05 -3.53473e-05
-0.000289251 8.66216e-05 8.68414e-05 -3.53474e-05
-0.000478419 0.000143445 0.00014356 -2.12057e-05
-0.000379405 0.000113703 0.000113872 -2.91597e-05
-0.000286832 8.58986e-05 8.61144e-05 -3.53473e-05
-0.000385853 0.000115633 0.000115808 -2.91597e-05
-0.000382629 0.000114668 0.00011484 -2.91597e-05
-0.00047439 0.000142238 0.000142351 -2.12057e-05
-0.000466332 0.000139824 0.000139932 -2.12057e-05
-0.000279575 8.37296e-05 8.39336e-05 -3.53473e-05
-0.000284413 8.51756e-05 8.53874e-05 -3.53473e-05
-0.000470361 0.000141031 0.000141142 -2.12057e-05
-0.000372956 0.000111774 0.000111936 -2.91597e-05
-0.000281994 8.44526e-05 8.46605e-05 -3.53473e-05
-0.000379405 0.000113703 0.000113872 -2.91597e-05
-0.00037618 0.000112739 0.000112904 -2.91597e-05
-0.000466332 0.000139824 0.000139932 -2.12057e-05
-0.000458274 0.000137409 0.000137514 -2.12058e-05
-0.000274736 8.22835e-05 8.24798e-05 -3.53473e-05
-0.000279575 8.37296e-05 8.39336e-05 -3.53473e-05
-0.000462303 0.000138616 0.000138723 -2.12058e-05
-0.000366508 0.000109844 0.000109999 -2.91597e-05
-0.000277155 8.30066e-05 8.32066e-05 -3.53473e-05
-0.000372956 0.000111774 0.000111936 -2.91597e-05
-0.000369732 0.000110809 0.000110967 -2.91597e-05
-0.000458274 0.000137409 0.000137514 -2.12058e-05
-0.000450217 0.000134995 0.000135095 -2.12058e-05
-0.000269898 8.08374e-05 8.1026e-05 -3.53473e-05
-0.000274736 8.22835e-05 8.24798e-05 -3.53473e-05
-0.000454246 0.000136202 0.000136304 -2.12058e-05
-0.00036006 0.000107914 0.000108063 -2.91597e-05
-0.000272317 8.15605e-05 8.17529e-05 -3.53473e-05
-0.000366508 0.000109844 0.000109999 -2.91597e-05
-0.000363284 0.000108879 0.000109031 -2.91597e-05
-0.000450217 0.000134995 0.000135095 -2.12058e-05
-0.000442159 0.000132581 0.000132676 -2.12058e-05
-0.00026506 7.93912e-05 7.95724e-05 -3.53473e-05
-0.000269898 8.08374e-05 8.1026e-05 -3.53473e-05
-0.000446188 0.000133788 0.000133886 -2.12058e-05
-0.000353613 0.000105983 0.000106127 -2.91598e-05
-0.000267479 8.01143e-05 8.02992e-05 -3.53473e-05
-0.00036006 0.000107914 0.000108063 -2.91597e-05
-0.000356837 0.000106949 0.000107095 -2.91598e-05
-0.000442159 0.000132581 0.000132676 -2.12058e-05
-0.000434102 0.000130167 0.000130258 -2.12059e-05
-0.000260222 7.7945e-05 7.81189e-05 -3.53473e-05
-0.00026506 7.93912e-05 7.95724e-05 -3.53473e-05
-0.000438131 0.000131374 0.000131467 -2.12059e-05
-0.000347165 0.000104053 0.000104191 -2.91598e-05
-0.000262641 7.86681e-05 7.88456e-05 -3.53473e-05
-0.000353613 0.000105983 0.000106127 -2.91598e-05
-0.000350389 0.000105018 0.000105159 -2.91598e-05
-0.000434102 0.000130167 0.000130258 -2.12059e-05
-0.000426045 0.000127753 0.00012784 -2.12059e-05
-0.000255385 7.64987e-05 7.66654e-05 -3.53472e-05
-0.000260222 7.7945e-05 7.81189e-05 -3.53473e-05
-0.000430074 0.00012896 0.000129049 -2.12059e-05
-0.000340717 0.000102123 0.000102255 -2.91598e-05
-0.000257803 7.72219e-05 7.73921e-05 -3.53472e-05
-0.000347165 0.000104053 0.000104191 -2.91598e-05
-0.000343941 0.000103088 0.000103223 -2.91598e-05
-0.000426045 0.000127753 0.00012784 -2.12059e-05
-0.000417988 0.000125339 0.000125421 -2.1206e-05
-0.000250547 7.50524e-05 7.5212e-05 -3.53472e-05
-0.000255385 7.64987e-05 7.66654e-05 -3.53472e-05
-0.000422016 0.000126546 0.00012663 -2.12059e-05
-0.00033427 0.000100193 0.000100319 -2.91598e-05
-0.000252966 7.57756e-05 7.59387e-05 -3.53472e-05
-0.000340717 0.000102123 0.000102255 -2.91598e-05
-0.000337494 0.000101158 0.000101287 -2.91598e-05
-0.000417988 0.000125339 0.000125421 -2.1206e-05
-0.000409931 0.000122924 0.000123003 -2.1206e-05
-0.00024571 7.3606e-05 7.37587e-05 -3.53472e-05
-0.000250547 7.50524e-05 7.5212e-05 -3.53472e-05
-0.000413959 0.000124131 0.000124212 -2.1206e-05
-0.000327823 9.82628e-05 9.83828e-05 -2.91599e-05
-0.000248128 7.43292e-05 7.44853e-05 -3.53472e-05
-0.00033427 0.000100193 0.000100319 -2.91598e-05
-0.000331046 9.92279e-05 9.93507e-05 -2.91598e-05
-0.000409931 0.000122924 0.000123003 -2.1206e-05
-0.000401874 0.00012051 0.000120585 -2.12061e-05
-0.000240872 7.21596e-05 7.23054e-05 -3.53472e-05
-0.00024571 7.3606e-05 7.37587e-05 -3.53472e-05
-0.000405903 0.000121717 0.000121794 -2.1206e-05
-0.000321376 9.63326e-05 9.6447e-05 -2.91599e-05
-0.000243291 7.28828e-05 7.30321e-05 -3.53472e-05
-0.000327823 9.82628e-05 9.83828e-05 -2.91599e-05
-0.000324599 9.72977e-05 9.74149e-05 -2.91599e-05
-0.000401874 0.00012051 0.000120585 -2.12061e-05
-0.000393817 0.000118096 0.000118166 -2.12061e-05
-0.000236035 7.0713e-05 7.08523e-05 -3.53472e-05
-0.000240872 7.21596e-05 7.23054e-05 -3.53472e-05
-0.000397846 0.000119303 0.000119376 -2.12061e-05
-0.000314929 9.44023e-05 9.45112e-05 -2.91599e-05
-0.000238454 7.14363e-05 7.15789e-05 -3.53472e-05
-0.000321376 9.63326e-05 9.6447e-05 -2.91599e-05
-0.000318152 9.53674e-05 9.54791e-05 -2.91599e-05
-0.000393817 0.000118096 0.000118166 -2.12061e-05
-0.000385761 0.000115681 0.000115748 -2.12061e-05
-0.000231198 6.92665e-05 6.93992e-05 -3.53472e-05
-0.000236035 7.0713e-05 7.08523e-05 -3.53472e-05
-0.000389789 0.000116889 0.000116957 -2.12061e-05
-0.000308482 9.24719e-05 9.25756e-05 -2.91599e-05
-0.000233617 6.99898e-05 7.01258e-05 -3.53472e-05
-0.000314929 9.44023e-05 9.45112e-05 -2.91599e-05
-0.000311705 9.34371e-05 9.35434e-05 -2.91599e-05
-0.000385761 0.000115681 0.000115748 -2.12061e-05
-0.000377704 0.000113267 0.00011333 -2.12062e-05
-0.000226361 6.78199e-05 6.79462e-05 -3.53472e-05
-0.000231198 6.92665e-05 6.93992e-05 -3.53472e-05
-0.000381733 0.000114474 0.000114539 -2.12062e-05
-0.000302035 9.05415e-05 9.064e-05 -2.916e-05
-0.00022878 6.85432e-05 6.86727e-05 -3.53472e-05
-0.000308482 9.24719e-05 9.25756e-05 -2.91599e-05
-0.000305258 9.15067e-05 9.16078e-05 -2.916e-05
-0.000377704 0.000113267 0.00011333 -2.12062e-05
-0.000369648 0.000110853 0.000110912 -2.12062e-05
-0.000221524 6.63732e-05 6.64933e-05 -3.53472e-05
-0.000226361 6.78199e-05 6.79462e-05 -3.53472e-05
-0.000373676 0.00011206 0.000112121 -2.12062e-05
-0.000295588 8.86111e-05 8.87044e-05 -2.916e-05
-0.000223943 6.70965e-05 6.72198e-05 -3.53472e-05
-0.000302035 9.05415e-05 9.064e-05 -2.916e-05
-0.000298811 8.95763e-05 8.96722e-05 -2.916e-05
-0.000369648 0.000110853 0.000110912 -2.12062e-05
-0.000361592 0.000108438 0.000108494 -2.12063e-05
-0.000216688 6.49265e-05 6.50405e-05 -3.53472e-05
-0.000221524 6.63732e-05 6.64933e-05 -3.53472e-05
-0.00036562 0.000109646 0.000109703 -2.12063e-05
-0.000289142 8.66806e-05 8.6769e-05 -2.916e-05
-0.000219106 6.56498e-05 6.57669e-05 -3.53472e-05
-0.000295588 8.86111e-05 8.87044e-05 -2.916e-05
-0.000292365 8.76458e-05 8.77367e-05 -2.916e-05
-0.000361592 0.000108438 0.000108494 -2.12063e-05
-0.000353536 0.000106024 0.000106076 -2.12063e-05
-0.000211851 6.34797e-05 6.35878e-05 -3.53472e-05
-0.000216688 6.49265e-05 6.50405e-05 -3.53472e-05
-0.000357564 0.000107231 0.000107285 -2.12063e-05
-0.000282695 8.47501e-05 8.48336e-05 -2.91601e-05
-0.000214269 6.42031e-05 6.43141e-05 -3.53472e-05
-0.000289142 8.66806e-05 8.6769e-05 -2.916e-05
-0.000285918 8.57154e-05 8.58013e-05 -2.91601e-05
-0.000353536 0.000106024 0.000106076 -2.12063e-05
-0.00034548 0.00010361 0.000103659 -2.12064e-05
-0.000207015 6.20328e-05 6.21351e-05 -3.53472e-05
-0.000211851 6.34797e-05 6.35878e-05 -3.53472e-05
-0.000349508 0.000104817 0.000104867 -2.12064e-05
-0.000276249 8.28195e-05 8.28983e-05 -2.91601e-05
-0.000209433 6.27563e-05 6.28614e-05 -3.53472e-05
-0.000282695 8.47501e-05 8.48336e-05 -2.91601e-05
-0.000279472 8.37848e-05 8.38659e-05 -2.91601e-05
-0.00034548 0.00010361 0.000103659 -2.12064e-05
-0.000337424 0.000101195 0.000101241 -2.12064e-05
-0.000202178 6.05859e-05 6.06825e-05 -3.53473e-05
-0.000207015 6.20328e-05 6.21351e-05 -3.53472e-05
-0.000341452 0.000102402 0.00010245 -2.12064e-05
-0.000269803 8.08889e-05 8.0963e-05 -2.91602e-05
-0.000204597 6.13094e-05 6.14088e-05 -3.53472e-05
-0.000276249 8.28195e-05 8.28983e-05 -2.91601e-05
-0.000273026 8.18542e-05 8.19306e-05 -2.91601e-05
-0.000337424 0.000101195 0.000101241 -2.12064e-05
-0.000329368 9.87806e-05 9.88231e-05 -2.12065e-05
-0.000197342 5.9139e-05 5.923e-05 -3.53473e-05
-0.000202178 6.05859e-05 6.06825e-05 -3.53473e-05
-0.000333396 9.99878e-05 0.000100032 -2.12065e-05
-0.000263357 7.89583e-05 7.90279e-05 -2.91602e-05
-0.00019976 5.98625e-05 5.99562e-05 -3.53473e-05
-0.000269803 8.08889e-05 8.0963e-05 -2.91602e-05
-0.00026658 7.99236e-05 7.99954e-05 -2.91602e-05
-0.000329368 9.87806e-05 9.88231e-05 -2.12065e-05
-0.000321312 9.63661e-05 9.64054e-05 -2.12065e-05
-0.000192506 5.7692e-05 5.77776e-05 -3.53473e-05
-0.000197342 5.9139e-05 5.923e-05 -3.53473e-05
-0.00032534 9.75733e-05 9.76142e-05 -2.12065e-05
-0.000256911 7.70276e-05 7.70928e-05 -2.91603e-05
-0.000194924 5.84155e-05 5.85038e-05 -3.53473e-05
-0.000263357 7.89583e-05 7.90279e-05 -2.91602e-05
-0.000260134 7.79929e-05 7.80603e-05 -2.91602e-05
-0.000321312 9.63661e-05 9.64054e-05 -2.12065e-05
-0.000313256 9.39516e-05 9.39878e-05 -2.12066e-05
-0.00018767 5.62449e-05 5.63252e-05 -3.53473e-05
-0.000192506 5.7692e-05 5.77776e-05 -3.53473e-05
-0.000317284 9.51588e-05 9.51966e-05 -2.12066e-05
-0.000250465 7.50969e-05 7.51577e-05 -2.91603e-05
-0.000190088 5.69684e-05 5.70514e-05 -3.53473e-05
-0.000256911 7.70276e-05 7.70928e-05 -2.91603e-05
-0.000253688 7.60622e-05 7.61252e-05 -2.91603e-05
-0.000313256 9.39516e-05 9.39878e-05 -2.12066e-05
-0.000305201 9.1537e-05 9.15703e-05 -2.12067e-05
-0.000182835 5.47978e-05 5.48729e-05 -3.53473e-05
-0.00018767 5.62449e-05 5.63252e-05 -3.53473e-05
-0.000309229 9.27443e-05 9.2779e-05 -2.12066e-05
-0.000244019 7.31661e-05 7.32227e-05 -2.91604e-05
-0.000185253 5.55213e-05 5.55991e-05 -3.53473e-05
-0.000250465 7.50969e-05 7.51577e-05 -2.91603e-05
-0.000247242 7.41315e-05 7.41902e-05 -2.91603e-05
-0.000305201 9.1537e-05 9.15703e-05 -2.12067e-05
-0.000297146 8.91224e-05 8.91528e-05 -2.12067e-05
-0.000177999 5.33506e-05 5.34208e-05 -3.53473e-05
-0.000182835 5.47978e-05 5.48729e-05 -3.53473e-05
-0.000301173 9.03297e-05 9.03615e-05 -2.12067e-05
-0.000237574 7.12353e-05 7.12879e-05 -2.91604e-05
-0.000180417 5.40742e-05 5.41468e-05 -3.53473e-05
-0.000244019 7.31661e-05 7.32227e-05 -2.91604e-05
-0.000240796 7.22007e-05 7.22553e-05 -2.91604e-05
-0.000297146 8.91224e-05 8.91528e-05 -2.12067e-05
-0.00028909 8.67078e-05 8.67353e-05 -2.12068e-05
-0.000173164 5.19033e-05 5.19686e-05 -3.53474e-05
-0.000177999 5.33506e-05 5.34208e-05 -3.53473e-05
-0.000293118 8.79151e-05 8.79441e-05 -2.12068e-05
-0.000231128 6.93044e-05 6.9353e-05 -2.91605e-05
-0.000175581 5.2627e-05 5.26947e-05 -3.53474e-05
-0.000237574 7.12353e-05 7.12879e-05 -2.91604e-05
-0.000234351 7.02699e-05 7.03204e-05 -2.91604e-05
-0.00028909 8.67078e-05 8.67353e-05 -2.12068e-05
-0.000281035 8.42932e-05 8.4318e-05 -2.12068e-05
-0.000168328 5.0456e-05 5.05166e-05 -3.53474e-05
-0.000173164 5.19033e-05 5.19686e-05 -3.53474e-05
-0.000285063 8.55005e-05 8.55267e-05 -2.12068e-05
-0.000224683 6.73735e-05 6.74183e-05 -2.91605e-05
-0.000170746 5.11797e-05 5.12426e-05 -3.53474e-05
-0.000231128 6.93044e-05 6.9353e-05 -2.91605e-05
-0.000227905 6.8339e-05 6.83856e-05 -2.91605e-05
-0.000281035 8.42932e-05 8.4318e-05 -2.12068e-05
-0.00027298 8.18785e-05 8.19007e-05 -2.12069e-05
-0.000163493 4.90087e-05 4.90647e-05 -3.53474e-05
-0.000168328 5.0456e-05 5.05166e-05 -3.53474e-05
-0.000277008 8.30859e-05 8.31093e-05 -2.12069e-05
-0.000218238 6.54426e-05 6.54836e-05 -2.91606e-05
-0.000165911 4.97324e-05 4.97906e-05 -3.53474e-05
-0.000224683 6.73735e-05 6.74183e-05 -2.91605e-05
-0.00022146 6.64081e-05 6.64509e-05 -2.91605e-05
-0.00027298 8.18785e-05 8.19007e-05 -2.12069e-05
-0.000264925 7.94638e-05 7.94834e-05 -2.1207e-05
-0.000158658 4.75613e-05 4.76128e-05 -3.53475e-05
-0.000163493 4.90087e-05 4.90647e-05 -3.53474e-05
-0.000268953 8.06712e-05 8.0692e-05 -2.12069e-05
-0.000211793 6.35116e-05 6.3549e-05 -2.91606e-05
-0.000161075 4.8285e-05 4.83387e-05 -3.53474e-05
-0.000218238 6.54426e-05 6.54836e-05 -2.91606e-05
-0.000215015 6.44771e-05 6.45163e-05 -2.91606e-05
-0.000264925 7.94638e-05 7.94834e-05 -2.1207e-05
-0.00025687 7.70491e-05 7.70662e-05 -2.1207e-05
-0.000153823 4.61138e-05 4.6161e-05 -3.53475e-05
-0.000158658 4.75613e-05 4.76128e-05 -3.53475e-05
-0.000260898 7.82565e-05 7.82748e-05 -2.1207e-05
-0.000205348 6.15806e-05 6.16144e-05 -2.91607e-05
-0.00015624 4.68375e-05 4.68869e-05 -3.53475e-05
-0.000211793 6.35116e-05 6.3549e-05 -2.91606e-05
-0.00020857 6.25461e-05 6.25817e-05 -2.91606e-05
-0.00025687 7.70491e-05 7.70662e-05 -2.1207e-05
-0.000248815 7.46344e-05 7.4649e-05 -2.12071e-05
-0.000148988 4.46663e-05 4.47093e-05 -3.53475e-05
-0.000153823 4.61138e-05 4.6161e-05 -3.53475e-05
-0.000252843 7.58418e-05 7.58576e-05 -2.12071e-05
-0.000198903 5.96495e-05 5.96799e-05 -2.91607e-05
-0.000151405 4.539e-05 4.54351e-05 -3.53475e-05
-0.000205348 6.15806e-05 6.16144e-05 -2.91607e-05
-0.000202125 6.0615e-05 6.06472e-05 -2.91607e-05
-0.000248815 7.46344e-05 7.4649e-05 -2.12071e-05
-0.000240761 7.22196e-05 7.2232e-05 -2.12072e-05
-0.000144153 4.32187e-05 4.32577e-05 -3.53476e-05
-0.000148988 4.46663e-05 4.47093e-05 -3.53475e-05
-0.000244788 7.3427e-05 7.34405e-05 -2.12071e-05
-0.000192458 5.77184e-05 5.77455e-05 -2.91608e-05
-0.000146571 4.39425e-05 4.39835e-05 -3.53475e-05
-0.000198903 5.96495e-05 5.96799e-05 -2.91607e-05
-0.00019568 5.86839e-05 5.87127e-05 -2.91608e-05
-0.000240761 7.22196e-05 7.2232e-05 -2.12072e-05
-0.000232706 6.98048e-05 6.98149e-05 -2.12072e-05
-0.000139319 4.1771e-05 4.18061e-05 -3.53476e-05
-0.000144153 4.32187e-05 4.32577e-05 -3.53476e-05
-0.000236734 7.10122e-05 7.10234e-05 -2.12072e-05
-0.000186013 5.57872e-05 5.58112e-05 -2.91608e-05
-0.000141736 4.24949e-05 4.25319e-05 -3.53476e-05
-0.000192458 5.77184e-05 5.77455e-05 -2.91608e-05
-0.000189236 5.67528e-05 5.67783e-05 -2.91608e-05
-0.000232706 6.98048e-05 6.98149e-05 -2.12072e-05
-0.000224652 6.739e-05 6.7398e-05 -2.12073e-05
-0.000134484 4.03233e-05 4.03546e-05 -3.53476e-05
-0.000139319 4.1771e-05 4.18061e-05 -3.53476e-05
-0.000228679 6.85974e-05 6.86064e-05 -2.12073e-05
-0.000179569 5.3856e-05 5.38769e-05 -2.91609e-05
-0.000136901 4.10472e-05 4.10804e-05 -3.53476e-05
-0.000186013 5.57872e-05 5.58112e-05 -2.91608e-05
-0.000182791 5.48216e-05 5.4844e-05 -2.91609e-05
-0.000224652 6.739e-05 6.7398e-05 -2.12073e-05
-0.000216598 6.49752e-05 6.4981e-05 -2.12073e-05
-0.00012965 3.88755e-05 3.89032e-05 -3.53476e-05
-0.000134484 4.03233e-05 4.03546e-05 -3.53476e-05
-0.000220625 6.61826e-05 6.61895e-05 -2.12073e-05
-0.000173124 5.19247e-05 5.19427e-05 -2.91609e-05
-0.000132067 3.95994e-05 3.96289e-05 -3.53476e-05
-0.000179569 5.3856e-05 5.38769e-05 -2.91609e-05
-0.000176347 5.28903e-05 5.29098e-05 -2.91609e-05
-0.000216598 6.49752e-05 6.4981e-05 -2.12073e-05
-0.000208543 6.25603e-05 6.25642e-05 -2.12074e-05
-0.000124816 3.74277e-05 3.74519e-05 -3.53477e-05
-0.00012965 3.88755e-05 3.89032e-05 -3.53476e-05
-0.00021257 6.37677e-05 6.37726e-05 -2.12074e-05
-0.00016668 4.99934e-05 5.00086e-05 -2.9161e-05
-0.000127233 3.81516e-05 3.81776e-05 -3.53476e-05
-0.000173124 5.19247e-05 5.19427e-05 -2.91609e-05
-0.000169902 5.09591e-05 5.09756e-05 -2.9161e-05
-0.000208543 6.25603e-05 6.25642e-05 -2.12074e-05
-0.000200489 6.01454e-05 6.01474e-05 -2.12074e-05
-0.000119981 3.59798e-05 3.60007e-05 -3.53477e-05
-0.000124816 3.74277e-05 3.74519e-05 -3.53477e-05
-0.000204516 6.13528e-05 6.13558e-05 -2.12074e-05
-0.000160236 4.8062e-05 4.80745e-05 -2.9161e-05
-0.000122398 3.67038e-05 3.67263e-05 -3.53477e-05
-0.00016668 4.99934e-05 5.00086e-05 -2.9161e-05
-0.000163458 4.90277e-05 4.90416e-05 -2.9161e-05
-0.000200489 6.01454e-05 6.01474e-05 -2.12074e-05
-0.000192435 5.77305e-05 5.77306e-05 -2.12074e-05
-0.000115147 3.45318e-05 3.45495e-05 -3.53477e-05
-0.000119981 3.59798e-05 3.60007e-05 -3.53477e-05
-0.000196462 5.89379e-05 5.8939e-05 -2.12074e-05
-0.000153792 4.61306e-05 4.61405e-05 -2.9161e-05
-0.000117564 3.52558e-05 3.52751e-05 -3.53477e-05
-0.000160236 4.8062e-05 4.80745e-05 -2.9161e-05
-0.000157014 4.70964e-05 4.71075e-05 -2.9161e-05
-0.000192435 5.77305e-05 5.77306e-05 -2.12074e-05
-0.000184381 5.53155e-05 5.53139e-05 -2.12075e-05
-0.000110313 3.30838e-05 3.30984e-05 -3.53476e-05
-0.000115147 3.45318e-05 3.45495e-05 -3.53477e-05
-0.000188408 5.6523e-05 5.65223e-05 -2.12075e-05
-0.000147348 4.41992e-05 4.42066e-05 -2.9161e-05
-0.00011273 3.38078e-05 3.3824e-05 -3.53476e-05
-0.000153792 4.61306e-05 4.61405e-05 -2.9161e-05
-0.00015057 4.51649e-05 4.51736e-05 -2.9161e-05
-0.000184381 5.53155e-05 5.53139e-05 -2.12075e-05
-0.000176328 5.29006e-05 5.28973e-05 -2.12075e-05
-0.00010548 3.16358e-05 3.16474e-05 -3.53476e-05
-0.000110313 3.30838e-05 3.30984e-05 -3.53476e-05
-0.000180354 5.4108e-05 5.41056e-05 -2.12075e-05
-0.000140904 4.22678e-05 4.22728e-05 -2.9161e-05
-0.000107897 3.23598e-05 3.23729e-05 -3.53476e-05
-0.000147348 4.41992e-05 4.42066e-05 -2.9161e-05
-0.000144126 4.32335e-05 4.32397e-05 -2.9161e-05
-0.000176328 5.29006e-05 5.28973e-05 -2.12075e-05
-0.000168274 5.04856e-05 5.04807e-05 -2.12075e-05
-0.000100646 3.01877e-05 3.01965e-05 -3.53476e-05
-0.00010548 3.16358e-05 3.16474e-05 -3.53476e-05
-0.000172301 5.16931e-05 5.1689e-05 -2.12075e-05
-0.000134461 4.03363e-05 4.0339e-05 -2.91611e-05
-0.000103063 3.09118e-05 3.09219e-05 -3.53476e-05
-0.000140904 4.22678e-05 4.22728e-05 -2.9161e-05
-0.000137682 4.1302e-05 4.13059e-05 -2.91611e-05
-0.000168274 5.04856e-05 5.04807e-05 -2.12075e-05
-0.00016022 4.80706e-05 4.80642e-05 -2.12076e-05
-9.58127e-05 2.87397e-05 2.87456e-05 -3.53476e-05
-0.000100646 3.01877e-05 3.01965e-05 -3.53476e-05
-0.000164247 4.92781e-05 4.92725e-05 -2.12076e-05
-0.000128017 3.84048e-05 3.84052e-05 -2.91611e-05
-9.82294e-05 2.94637e-05 2.9471e-05 -3.53476e-05
-0.000134461 4.03363e-05 4.0339e-05 -2.91611e-05
-0.000131239 3.93706e-05 3.93721e-05 -2.91611e-05
-0.00016022 4.80706e-05 4.80642e-05 -2.12076e-05
-0.000152167 4.56557e-05 4.56477e-05 -2.12078e-05
-9.09795e-05 2.72917e-05 2.72948e-05 -3.53476e-05
-9.58127e-05 2.87397e-05 2.87456e-05 -3.53476e-05
-0.000156194 4.68632e-05 4.6856e-05 -2.12077e-05
-0.000121574 3.64734e-05 3.64716e-05 -2.91613e-05
-9.33961e-05 2.80157e-05 2.80202e-05 -3.53476e-05
-0.000128017 3.84048e-05 3.84052e-05 -2.91611e-05
-0.000124795 3.74391e-05 3.74384e-05 -2.91612e-05
-0.000152167 4.56557e-05 4.56477e-05 -2.12078e-05
-0.000144114 4.32408e-05 4.32313e-05 -2.12081e-05
-8.61466e-05 2.58438e-05 2.58441e-05 -3.53478e-05
-9.09795e-05 2.72917e-05 2.72948e-05 -3.53476e-05
-0.00014814 4.44482e-05 4.44395e-05 -2.12079e-05
-0.000115131 3.45421e-05 3.45379e-05 -2.91615e-05
-8.8563e-05 2.65677e-05 2.65694e-05 -3.53477e-05
-0.000121574 3.64734e-05 3.64716e-05 -2.91613e-05
-0.000118352 3.55077e-05 3.55047e-05 -2.91614e-05
-0.000144114 4.32408e-05 4.32313e-05 -2.12081e-05
-0.000136061 4.08259e-05 4.08149e-05 -2.12086e-05
-8.13139e-05 2.43959e-05 2.43934e-05 -3.5348e-05
-8.61466e-05 2.58438e-05 2.58441e-05 -3.53478e-05
-0.000140087 4.20333e-05 4.20231e-05 -2.12083e-05
-0.000108688 3.26107e-05 3.26044e-05 -2.91619e-05
-8.37302e-05 2.51198e-05 2.51187e-05 -3.53479e-05
-0.000115131 3.45421e-05 3.45379e-05 -2.91615e-05
-0.000111909 3.35764e-05 3.35712e-05 -2.91617e-05
-0.000136061 4.08259e-05 4.08149e-05 -2.12086e-05
-0.000128008 3.84108e-05 3.83986e-05 -2.12092e-05
-7.64813e-05 2.29478e-05 2.29429e-05 -3.53485e-05
-8.13139e-05 2.43959e-05 2.43934e-05 -3.5348e-05
-0.000132034 3.96184e-05 3.96068e-05 -2.12089e-05
-0.000102245 3.06792e-05 3.06711e-05 -2.91624e-05
-7.88976e-05 2.36719e-05 2.36681e-05 -3.53482e-05
-0.000108688 3.26107e-05 3.26044e-05 -2.91619e-05
-0.000105466 3.1645e-05 3.16377e-05 -2.91622e-05
-0.000128008 3.84108e-05 3.83986e-05 -2.12092e-05
-0.000119955 3.59955e-05 3.59826e-05 -2.12096e-05
-7.16484e-05 2.14988e-05 2.14927e-05 -3.53492e-05
-7.64813e-05 2.29478e-05 2.29429e-05 -3.53485e-05
-0.000123981 3.72032e-05 3.71905e-05 -2.12095e-05
-9.58022e-05 2.8747e-05 2.87379e-05 -2.91628e-05
-7.4065e-05 2.22235e-05 2.22178e-05 -3.53488e-05
-0.000102245 3.06792e-05 3.06711e-05 -2.91624e-05
-9.90236e-05 2.97132e-05 2.97044e-05 -2.91627e-05
-0.000119955 3.59955e-05 3.59826e-05 -2.12096e-05
-0.000111902 3.35791e-05 3.35669e-05 -2.12091e-05
-6.68141e-05 2.00474e-05 2.00429e-05 -3.53501e-05
-7.16484e-05 2.14988e-05 2.14927e-05 -3.53492e-05
-0.000115928 3.47875e-05 3.47747e-05 -2.12095e-05
-8.93586e-05 2.68128e-05 2.68053e-05 -2.91623e-05
-6.92315e-05 2.07736e-05 2.07677e-05 -3.53496e-05
-9.58022e-05 2.8747e-05 2.87379e-05 -2.91628e-05
-9.25805e-05 2.77802e-05 2.77716e-05 -2.91627e-05
-0.000111902 3.35791e-05 3.35669e-05 -2.12091e-05
-0.000103849 3.11605e-05 3.11523e-05 -2.12053e-05
-6.19751e-05 1.85901e-05 1.85936e-05 -3.53513e-05
-6.68141e-05 2.00474e-05 2.00429e-05 -3.53501e-05
-0.000107875 3.23702e-05 3.23593e-05 -2.12078e-05
-8.29125e-05 2.4874e-05 2.48736e-05 -2.91594e-05
-6.43956e-05 1.93198e-05 1.93182e-05 -3.53506e-05
-8.93586e-05 2.68128e-05 2.68053e-05 -2.91623e-05
-8.6136e-05 2.58443e-05 2.58393e-05 -2.91614e-05
-0.000103849 3.11605e-05 3.11523e-05 -2.12053e-05
-9.57953e-05 2.8737e-05 2.87392e-05 -2.11946e-05
-5.71265e-05 1.71203e-05 1.71455e-05 -3.53522e-05
-6.19751e-05 1.85901e-05 1.85936e-05 -3.53513e-05
-9.98226e-05 2.99497e-05 2.99455e-05 -2.12012e-05
-7.646e-05 2.29251e-05 2.29435e-05 -2.91507e-05
-5.95522e-05 1.78573e-05 1.78692e-05 -3.53519e-05
-8.29125e-05 2.4874e-05 2.48736e-05 -2.91594e-05
-7.96874e-05 2.39012e-05 2.39083e-05 -2.9156e-05
-9.57953e-05 2.8737e-05 2.87392e-05 -2.11946e-05
-8.77414e-05 2.63036e-05 2.63305e-05 -2.1167e-05
-5.22538e-05 1.56259e-05 1.56976e-05 -3.53531e-05
-5.71265e-05 1.71203e-05 1.71455e-05 -3.53522e-05
-9.17679e-05 2.75219e-05 2.7534e-05 -2.11839e-05
-6.99935e-05 2.09566e-05 2.10158e-05 -2.91299e-05
-5.46947e-05 1.63774e-05 1.64217e-05 -3.53526e-05
-7.646e-05 2.29251e-05 2.29435e-05 -2.91507e-05
-7.32291e-05 2.19444e-05 2.19791e-05 -2.91427e-05
-8.77414e-05 2.63036e-05 2.63305e-05 -2.1167e-05
-7.96803e-05 2.3852e-05 2.39264e-05 -2.1109e-05
-4.73392e-05 1.40853e-05 1.42517e-05 -3.53523e-05
-5.22538e-05 1.56259e-05 1.56976e-05 -3.53531e-05
-8.3713e-05 2.50812e-05 2.51279e-05 -2.11428e-05
-6.34967e-05 1.89494e-05 1.90917e-05 -2.90855e-05
-4.98024e-05 1.48629e-05 1.49741e-05 -3.53533e-05
-6.99935e-05 2.09566e-05 2.10158e-05 -2.91299e-05
-6.67503e-05 1.99589e-05 2.00535e-05 -2.9111e-05
-7.96803e-05 2.3852e-05 2.39264e-05 -2.1109e-05
-7.16158e-05 2.13658e-05 2.15357e-05 -2.09869e-05
-4.23334e-05 1.24665e-05 1.28001e-05 -3.53537e-05
-4.73392e-05 1.40853e-05 1.42517e-05 -3.53523e-05
-7.56468e-05 2.26137e-05 2.27285e-05 -2.10592e-05
-5.6943e-05 1.68779e-05 1.71708e-05 -2.89992e-05
-4.48532e-05 1.3289e-05 1.35275e-05 -3.5352e-05
-6.34967e-05 1.89494e-05 1.90917e-05 -2.90855e-05
-6.0229e-05 1.79253e-05 1.81302e-05 -2.90505e-05
-7.16158e-05 2.13658e-05 2.15357e-05 -2.09869e-05
-6.35137e-05 1.88256e-05 1.9152e-05 -2.07668e-05
-3.71892e-05 1.07182e-05 1.13447e-05 -3.53553e-05
-4.23334e-05 1.24665e-05 1.28001e-05 -3.53537e-05
-6.75755e-05 2.01065e-05 2.03439e-05 -2.08914e-05
-5.0276e-05 1.46896e-05 1.52513e-05 -2.88458e-05
-3.9779e-05 1.16106e-05 1.20722e-05 -3.53553e-05
-5.6943e-05 1.68779e-05 1.71708e-05 -2.89992e-05
-5.36288e-05 1.57993e-05 1.62126e-05 -2.89301e-05
-6.35137e-05 1.88256e-05 1.9152e-05 -2.07668e-05
-5.5384e-05 1.61846e-05 1.67997e-05 -2.03603e-05
-3.17747e-05 8.79658e-06 9.84776e-06 -3.53872e-05
-3.71892e-05 1.07182e-05 1.13447e-05 -3.53553e-05
-5.94449e-05 1.75152e-05 1.79699e-05 -2.05955e-05
-4.34239e-05 1.23448e-05 1.33196e-05 -2.85957e-05
-3.45318e-05 9.78491e-06 1.06058e-05 -3.53632e-05
-5.0276e-05 1.46896e-05 1.52513e-05 -2.88458e-05
-4.6877e-05 1.35458e-05 1.42848e-05 -2.87407e-05
-5.5384e-05 1.61846e-05 1.67997e-05 -2.03603e-05
-4.70751e-05 1.34308e-05 1.4419e-05 -1.97338e-05
-2.60336e-05 6.65417e-06 8.30548e-06 -3.54673e-05
-3.17747e-05 8.79658e-06 9.84776e-06 -3.53872e-05
-5.12782e-05 1.48367e-05 1.56178e-05 -2.00749e-05
-3.62211e-05 9.74751e-06 1.13458e-05 -2.82477e-05
-2.89359e-05 7.74477e-06 9.08192e-06 -3.54215e-05
-4.34239e-05 1.23448e-05 1.33196e-05 -2.85957e-05
-3.98832e-05 1.10696e-05 1.23487e-05 -2.84203e-05
-4.70751e-05 1.34308e-05 1.4419e-05 -1.97338e-05
-3.85983e-05 1.04508e-05 1.20632e-05 -1.87536e-05
-1.97582e-05 4.43925e-06 6.56526e-06 -3.57564e-05
-2.60336e-05 6.65417e-06 8.30548e-06 -3.54673e-05
-4.28301e-05 1.19417e-05 1.32379e-05 -1.92997e-05
-2.85592e-05 6.99109e-06 9.24347e-06 -2.78691e-05
-2.29977e-05 5.5516e-06 7.47691e-06 -3.55662e-05
-3.62211e-05 9.74751e-06 1.13458e-05 -2.82477e-05
-3.24442e-05 8.40147e-06 1.0304e-05 -2.80777e-05
-3.85983e-05 1.04508e-05 1.20632e-05 -1.87536e-05
-2.93624e-05 7.48494e-06 9.37606e-06 -1.77005e-05
-1.326e-05 2.51459e-06 4.60517e-06 -3.63607e-05
-1.97582e-05 4.43925e-06 6.56526e-06 -3.57564e-05
-3.41767e-05 9.01443e-06 1.07838e-05 -1.82053e-05
-2.00876e-05 4.18158e-06 6.81686e-06 -2.78102e-05
-1.6463e-05 3.35633e-06 5.61712e-06 -3.60151e-05
-2.85592e-05 6.99109e-06 9.24347e-06 -2.78691e-05
-2.44717e-05 5.51381e-06 8.12481e-06 -2.7713e-05
-2.93624e-05 7.48494e-06 9.37606e-06 -1.77005e-05
-1.94354e-05 4.55001e-06 6.37944e-06 -1.70368e-05
-6.96197e-06 2.46252e-06 1.92833e-06 -3.76535e-05
-1.326e-05 2.51459e-06 4.60517e-06 -3.63607e-05
-2.43753e-05 5.81328e-06 7.95516e-06 -1.72505e-05
-1.13054e-05 2.83534e-06 3.63001e-06 -2.88282e-05
-1.01071e-05 2.15496e-06 3.40805e-06 -3.68872e-05
-2.00876e-05 4.18158e-06 6.81686e-06 -2.78102e-05
-1.56258e-05 3.23755e-06 5.30926e-06 -2.82046e-05
-1.94354e-05 4.55001e-06 6.37944e-06 -1.70368e-05
-7.94009e-06 4.80928e-06 1.34178e-06 -1.98875e-05
-3.64063e-06 7.08864e-06 -1.47772e-06 -3.85926e-05
-6.96197e-06 2.46252e-06 1.92833e-06 -3.76535e-05
-1.41034e-05 4.24041e-06 4.22699e-06 -1.77201e-05
-3.32312e-06 6.30848e-06 -1.27944e-06 -3.23942e-05
-4.56104e-06 3.77403e-06 3.37291e-07 -3.83144e-05
-1.13054e-05 2.83534e-06 3.63001e-06 -2.88282e-05
-7.1849e-06 3.37206e-06 1.63408e-06 -3.00015e-05
-7.94009e-06 4.80928e-06 1.34178e-06 -1.98875e-05
-2.58941e-06 1.8036e-05 -6.61997e-06 -3.02086e-05
-5.31207e-06 2.16077e-05 -6.98382e-06 -3.53892e-05
-3.64063e-06 7.08864e-06 -1.47772e-06 -3.85926e-05
-3.31294e-06 7.32314e-06 -1.71865e-06 -2.35858e-05
-5.70056e-06 2.46643e-05 -8.12733e-06 -3.51476e-05
-3.96843e-06 1.32238e-05 -3.96661e-06 -3.79974e-05
-3.32312e-06 6.30848e-06 -1.27944e-06 -3.23942e-05
-2.05124e-06 1.31684e-05 -4.7645e-06 -3.48199e-05
-2.58941e-06 1.8036e-05 -6.61997e-06 -3.02086e-05
-2.41501e-05 7.99981e-05 -2.39348e-05 -3.03797e-05
-1.02687e-05 3.90939e-05 -1.23537e-05 -1.86998e-05
-5.31207e-06 2.16077e-05 -6.98382e-06 -3.53892e-05
-8.59376e-06 4.27159e-05 -1.46238e-05 -3.5486e-05
-1.91327e-05 5.76251e-05 -1.64967e-05 -1.77719e-05
-7.47704e-06 3.1027e-05 -1.00929e-05 -2.92306e-05
-5.70056e-06 2.46643e-05 -8.12733e-06 -3.51476e-05
-1.21136e-05 4.05587e-05 -1.21907e-05 -3.04133e-05
-0.000780945 0 0.000334691 0.000102697
-0.000882932 0.000116258 0.000328575 -3.2078e-06
-0.000286871 3.84545e-05 0.000106464 5.31707e-05
-0.00028214 -1.11022e-16 0.000120917 0.000160432
-0.000846133 6.53571e-05 0.000334618 3.87445e-05
-0.000584792 7.74024e-05 0.000217453 3.14792e-05
-0.000275402 1.62601e-05 0.000111061 0.000101172
-0.000520046 0 0.000222877 0.000146702
-0.000560615 3.68463e-05 0.000224472 7.2736e-05
-0.000882932 0.000116258 0.000328575 -3.2078e-06
-0.000927917 0.000212639 0.000306548 -3.61755e-05
-0.000308988 6.33192e-05 0.000105287 -1.10063e-05
-0.000286871 3.84545e-05 0.000106464 5.31707e-05
-0.000905487 0.000167522 0.000316271 -2.44573e-05
-0.000614666 0.000132735 0.000206542 -1.99905e-05
-0.000302685 5.33474e-05 0.000106859 1.54352e-05
-0.000584792 7.74024e-05 0.000217453 3.14792e-05
-0.000600257 0.000108913 0.000210576 3.59875e-06
-0.000927917 0.000212639 0.000306548 -3.61755e-05
-0.000950655 0.000261145 0.000295504 -4.25602e-05
-0.000315464 8.18017e-05 0.000100141 -4.00843e-05
-0.000308988 6.33192e-05 0.000105287 -1.10063e-05
-0.000944785 0.000242773 0.000300862 -4.19505e-05
-0.000632134 0.000168101 0.000198871 -4.21447e-05
-0.000311382 7.31755e-05 0.000102089 -2.85358e-05
-0.000614666 0.000132735 0.000206542 -1.99905e-05
-0.000625973 0.000152662 0.000202848 -3.52927e-05
-0.000950655 0.000261145 0.000295504 -4.25602e-05
-0.000949707 0.000280103 0.000286973 -3.94052e-05
-0.000318826 9.0468e-05 9.78676e-05 -5.04588e-05
-0.000315464 8.18017e-05 0.000100141 -4.00843e-05
-0.000950604 0.000273063 0.000290375 -4.07882e-05
-0.000634989 0.000183766 0.000193381 -4.70582e-05
-0.000318767 8.72881e-05 9.92053e-05 -4.70343e-05
-0.000632134 0.000168101 0.000198871 -4.21447e-05
-0.000634643 0.000177989 0.000195709 -4.52245e-05
-0.000949707 0.000280103 0.000286973 -3.94052e-05
-0.000942995 0.000283626 0.000282587 -3.72831e-05
-0.000316662 9.3768e-05 9.55262e-05 -5.15694e-05
-0.000318826 9.0468e-05 9.78676e-05 -5.04588e-05
-0.000947368 0.0002831 0.000284686 -3.83554e-05
-0.000631201 0.000188846 0.000189581 -4.63431e-05
-0.000317503 9.25833e-05 9.63944e-05 -5.15896e-05
-0.000634989 0.000183766 0.000193381 -4.70582e-05
-0.000633675 0.000187199 0.000191347 -4.72786e-05
-0.000942995 0.000283626 0.000282587 -3.72831e-05
-0.000933582 0.000282108 0.000279203 -3.58647e-05
-0.000313986 9.36497e-05 9.44297e-05 -4.97459e-05
-0.000316662 9.3768e-05 9.55262e-05 -5.15694e-05
-0.000937947 0.000283166 0.000280621 -3.63476e-05
-0.000624974 0.000188368 0.000187117 -4.44309e-05
-0.000315693 9.39884e-05 9.50163e-05 -5.08459e-05
-0.000631201 0.000188846 0.000189581 -4.63431e-05
-0.000628117 0.000189034 0.000188178 -4.52563e-05
-0.000933582 0.000282108 0.000279203 -3.58647e-05
-0.000925394 0.000278914 0.000277063 -3.54445e-05
-0.000310591 9.26266e-05 9.34131e-05 -4.73832e-05
-0.000313986 9.36497e-05 9.44297e-05 -4.97459e-05
-0.000929523 0.000280598 0.000278111 -3.56358e-05
-0.000618873 0.000186324 0.000185378 -4.27215e-05
-0.000312099 9.31755e-05 9.38242e-05 -4.85155e-05
-0.000624974 0.000188368 0.000187117 -4.44309e-05
-0.000621862 0.000187416 0.000186191 -4.35848e-05
-0.000925394 0.000278914 0.000277063 -3.54445e-05
-0.000917945 0.000275816 0.000275198 -3.5263e-05
-0.000307834 9.13523e-05 9.27777e-05 -4.55067e-05
-0.000310591 9.26266e-05 9.34131e-05 -4.73832e-05
-0.00092145 0.000277311 0.00027606 -3.53035e-05
-0.000613456 0.000183972 0.000184065 -4.15181e-05
-0.000309242 9.19939e-05 9.31064e-05 -4.63754e-05
-0.000618873 0.000186324 0.000185378 -4.27215e-05
-0.000616054 0.000185142 0.000184677 -4.20214e-05
-0.000917945 0.000275816 0.000275198 -3.5263e-05
-0.000911594 0.000273108 0.000273637 -3.52737e-05
-0.000305319 9.02632e-05 9.21667e-05 -4.42065e-05
-0.000307834 9.13523e-05 9.27777e-05 -4.55067e-05
-0.000914715 0.000274409 0.000274417 -3.52713e-05
-0.000608804 0.000181938 0.000182943 -4.07503e-05
-0.000306486 9.07773e-05 9.24465e-05 -4.47805e-05
-0.000613456 0.000183972 0.000184065 -4.15181e-05
-0.000611048 0.000182904 0.00018349 -4.11028e-05
-0.000911594 0.000273108 0.000273637 -3.52737e-05
-0.000905806 0.000270853 0.000272123 -3.52927e-05
-0.000303213 8.93596e-05 9.16514e-05 -4.34068e-05
-0.000305319 9.02632e-05 9.21667e-05 -4.42065e-05
-0.000908614 0.000271929 0.000272865 -3.52768e-05
-0.000604713 0.000180241 0.000181917 -4.03006e-05
-0.000304254 8.979e-05 9.19131e-05 -4.37566e-05
-0.000608804 0.000181938 0.000182943 -4.07503e-05
-0.0006067 0.00018105 0.000182421 -4.04861e-05
-0.000905806 0.000270853 0.000272123 -3.52927e-05
-0.000900472 0.000268921 0.000270665 -3.5325e-05
-0.000301283 8.86305e-05 9.11367e-05 -4.29405e-05
-0.000303213 8.93596e-05 9.16514e-05 -4.34068e-05
-0.000903111 0.000269854 0.000271396 -3.53124e-05
-0.000600998 0.000178839 0.000180925 -4.00472e-05
-0.000302216 8.89763e-05 9.13883e-05 -4.31392e-05
-0.000604713 0.000180241 0.000181917 -4.03006e-05
-0.00060282 0.000179509 0.000181419 -4.01586e-05
-0.000900472 0.000268921 0.000270665 -3.5325e-05
-0.000895356 0.000267208 0.000269206 -3.53422e-05
-0.000299509 8.80126e-05 9.06412e-05 -4.2687e-05
-0.000301283 8.86305e-05 9.11367e-05 -4.29405e-05
-0.000897888 0.000268043 0.000269934 -3.53338e-05
-0.000597506 0.000177628 0.000179948 -3.99131e-05
-0.000300389 8.83108e-05 9.08906e-05 -4.27943e-05
-0.000600998 0.000178839 0.000180925 -4.00472e-05
-0.000599232 0.000178215 0.000180436 -3.99676e-05
-0.000895356 0.000267208 0.000269206 -3.53422e-05
-0.000890382 0.000265624 0.000267753 -3.53535e-05
-0.0002978 8.74668e-05 9.01427e-05 -4.25548e-05
-0.000299509 8.80126e-05 9.06412e-05 -4.2687e-05
-0.00089286 0.000266404 0.000268481 -3.53494e-05
-0.000594141 0.000176539 0.000178972 -3.98436e-05
-0.000298645 8.77328e-05 9.03909e-05 -4.26096e-05
-0.000597506 0.000177628 0.000179948 -3.99131e-05
-0.000595813 0.000177072 0.00017946 -3.98733e-05
-0.000890382 0.000265624 0.000267753 -3.53535e-05
-0.000885471 0.000264114 0.000266296 -3.53576e-05
-0.000296136 8.69604e-05 8.96466e-05 -4.24899e-05
-0.0002978 8.74668e-05 9.01427e-05 -4.25548e-05
-0.00088792 0.000264862 0.000267024 -3.5356e-05
-0.000590841 0.000175518 0.000177996 -3.98097e-05
-0.000296966 8.72101e-05 8.98953e-05 -4.25165e-05
-0.000594141 0.000176539 0.000178972 -3.98436e-05
-0.000592485 0.000176022 0.000178484 -3.98233e-05
-0.000885471 0.000264114 0.000266296 -3.53576e-05
-0.000880595 0.000262643 0.000264836 -3.53588e-05
-0.000294489 8.64756e-05 8.91486e-05 -4.24596e-05
-0.000296136 8.69604e-05 8.96466e-05 -4.24899e-05
-0.000883031 0.000263375 0.000265567 -3.53586e-05
-0.000587574 0.000174534 0.000177017 -3.97934e-05
-0.00029531 8.67161e-05 8.93975e-05 -4.24717e-05
-0.000590841 0.000175518 0.000177996 -3.98097e-05
-0.000589205 0.000175023 0.000177507 -3.98003e-05
-0.000880595 0.000262643 0.000264836 -3.53588e-05
-0.000875732 0.000261191 0.000263375 -3.53582e-05
-0.000292852 8.60009e-05 8.86506e-05 -4.24465e-05
-0.000294489 8.64756e-05 8.91486e-05 -4.24596e-05
-0.000878162 0.000261915 0.000264106 -3.53586e-05
-0.000584322 0.000173568 0.000176038 -3.9786e-05
-0.00029367 8.62374e-05 8.88998e-05 -4.24517e-05
-0.000587574 0.000174534 0.000177017 -3.97934e-05
-0.000585947 0.000174049 0.000176528 -3.97889e-05
-0.000875732 0.000261191 0.000263375 -3.53582e-05
-0.000870876 0.000259747 0.000261912 -3.53571e-05
-0.000291218 8.55306e-05 8.81518e-05 -4.24414e-05
-0.000292852 8.60009e-05 8.86506e-05 -4.24465e-05
-0.000873304 0.000260468 0.000262644 -3.53577e-05
-0.000581076 0.00017261 0.000175057 -3.97826e-05
-0.000292035 8.57654e-05 8.84012e-05 -4.24433e-05
-0.000584322 0.000173568 0.000176038 -3.9786e-05
-0.000582699 0.000173088 0.000175548 -3.9784e-05
-0.000870876 0.000259747 0.000261912 -3.53571e-05
-0.000866022 0.000258308 0.000260449 -3.53559e-05
-0.000289585 8.50619e-05 8.76529e-05 -4.24397e-05
-0.000291218 8.55306e-05 8.81518e-05 -4.24414e-05
-0.000868449 0.000259027 0.000261181 -3.53565e-05
-0.000577833 0.000171656 0.000174076 -3.97811e-05
-0.000290402 8.52962e-05 8.79024e-05 -4.24403e-05
-0.000581076 0.00017261 0.000175057 -3.97826e-05
-0.000579454 0.000172133 0.000174567 -3.97817e-05
-0.000866022 0.000258308 0.000260449 -3.53559e-05
-0.000861169 0.000256869 0.000258986 -3.5355e-05
-0.000287952 8.45933e-05 8.71538e-05 -4.24393e-05
-0.000289585 8.50619e-05 8.76529e-05 -4.24397e-05
-0.000863596 0.000257588 0.000259718 -3.53554e-05
-0.000574589 0.000170702 0.000173094 -3.97805e-05
-0.000288769 8.48276e-05 8.74033e-05 -4.24394e-05
-0.000577833 0.000171656 0.000174076 -3.97811e-05
-0.000576211 0.000171179 0.000173585 -3.97807e-05
-0.000861169 0.000256869 0.000258986 -3.5355e-05
-0.000856315 0.00025543 0.000257522 -3.53543e-05
-0.000286319 8.41245e-05 8.66548e-05 -4.24394e-05
-0.000287952 8.45933e-05 8.71538e-05 -4.24393e-05
-0.000858742 0.000256149 0.000258254 -3.53546e-05
-0.000571345 0.000169749 0.000172113 -3.97802e-05
-0.000287136 8.4359e-05 8.69043e-05 -4.24394e-05
-0.000574589 0.000170702 0.000173094 -3.97805e-05
-0.000572967 0.000170225 0.000172604 -3.97803e-05
-0.000856315 0.00025543 0.000257522 -3.53543e-05
-0.000851461 0.000253991 0.000256059 -3.53538e-05
-0.000284685 8.36552e-05 8.61558e-05 -4.24395e-05
-0.000286319 8.41245e-05 8.66548e-05 -4.24394e-05
-0.000853888 0.000254711 0.00025679 -3.5354e-05
-0.000568102 0.000168795 0.000171131 -3.978e-05
-0.000285502 8.38899e-05 8.64053e-05 -4.24395e-05
-0.000571345 0.000169749 0.000172113 -3.97802e-05
-0.000569724 0.000169272 0.000171622 -3.97801e-05
-0.000851461 0.000253991 0.000256059 -3.53538e-05
-0.000846607 0.000252552 0.000254595 -3.53535e-05
-0.000283052 8.31856e-05 8.56569e-05 -4.24397e-05
-0.000284685 8.36552e-05 8.61558e-05 -4.24395e-05
-0.000849034 0.000253272 0.000255327 -3.53536e-05
-0.000564857 0.000167841 0.00017015 -3.97799e-05
-0.000283869 8.34204e-05 8.59064e-05 -4.24396e-05
-0.000568102 0.000168795 0.000171131 -3.978e-05
-0.000566479 0.000168318 0.000170641 -3.97799e-05
-0.000846607 0.000252552 0.000254595 -3.53535e-05
-0.000841753 0.000251112 0.000253132 -3.53534e-05
-0.000281418 8.27156e-05 8.51581e-05 -4.24397e-05
-0.000283052 8.31856e-05 8.56569e-05 -4.24397e-05
-0.00084418 0.000251832 0.000253863 -3.53534e-05
-0.000561613 0.000166887 0.000169169 -3.97799e-05
-0.000282235 8.29506e-05 8.54075e-05 -4.24397e-05
-0.000564857 0.000167841 0.00017015 -3.97799e-05
-0.000563235 0.000167364 0.000169659 -3.97799e-05
-0.000841753 0.000251112 0.000253132 -3.53534e-05
-0.000836899 0.000249673 0.000251668 -3.53533e-05
-0.000279784 8.22453e-05 8.46595e-05 -4.24397e-05
-0.000281418 8.27156e-05 8.51581e-05 -4.24397e-05
-0.000839326 0.000250393 0.0002524 -3.53533e-05
-0.000558369 0.000165932 0.000168187 -3.97798e-05
-0.000280601 8.24805e-05 8.49088e-05 -4.24397e-05
-0.000561613 0.000166887 0.000169169 -3.97799e-05
-0.000559991 0.000166409 0.000168678 -3.97799e-05
-0.000836899 0.000249673 0.000251668 -3.53533e-05
-0.000832045 0.000248233 0.000250205 -3.53533e-05
-0.00027815 8.17749e-05 8.41609e-05 -4.24397e-05
-0.000279784 8.22453e-05 8.46595e-05 -4.24397e-05
-0.000834472 0.000248953 0.000250937 -3.53533e-05
-0.000555125 0.000164977 0.000167206 -3.97798e-05
-0.000278967 8.20101e-05 8.44102e-05 -4.24397e-05
-0.000558369 0.000165932 0.000168187 -3.97798e-05
-0.000556747 0.000165455 0.000167697 -3.97798e-05
-0.000832045 0.000248233 0.000250205 -3.53533e-05
-0.000827191 0.000246793 0.000248742 -3.53533e-05
-0.000276517 8.13043e-05 8.36624e-05 -4.24396e-05
-0.00027815 8.17749e-05 8.41609e-05 -4.24397e-05
-0.000829618 0.000247513 0.000249474 -3.53533e-05
-0.00055188 0.000164022 0.000166225 -3.97798e-05
-0.000277333 8.15396e-05 8.39116e-05 -4.24397e-05
-0.000555125 0.000164977 0.000167206 -3.97798e-05
-0.000553503 0.0001645 0.000166716 -3.97798e-05
-0.000827191 0.000246793 0.000248742 -3.53533e-05
-0.000822337 0.000245353 0.000247279 -3.53533e-05
-0.000274883 8.08336e-05 8.3164e-05 -4.24396e-05
-0.000276517 8.13043e-05 8.36624e-05 -4.24396e-05
-0.000824764 0.000246073 0.000248011 -3.53533e-05
-0.000548636 0.000163067 0.000165244 -3.97798e-05
-0.0002757 8.10689e-05 8.34132e-05 -4.24396e-05
-0.00055188 0.000164022 0.000166225 -3.97798e-05
-0.000550258 0.000163545 0.000165734 -3.97798e-05
-0.000822337 0.000245353 0.000247279 -3.53533e-05
-0.000817483 0.000243913 0.000245816 -3.53533e-05
-0.00027325 8.03628e-05 8.26658e-05 -4.24395e-05
-0.000274883 8.08336e-05 8.3164e-05 -4.24396e-05
-0.00081991 0.000244633 0.000246548 -3.53533e-05
-0.000545393 0.000162112 0.000164263 -3.97798e-05
-0.000274066 8.05982e-05 8.29149e-05 -4.24395e-05
-0.000548636 0.000163067 0.000165244 -3.97798e-05
-0.000547014 0.000162589 0.000164754 -3.97798e-05
-0.000817483 0.000243913 0.000245816 -3.53533e-05
-0.00081263 0.000242472 0.000244353 -3.53533e-05
-0.000271616 7.98919e-05 8.21676e-05 -4.24394e-05
-0.00027325 8.03628e-05 8.26658e-05 -4.24395e-05
-0.000815057 0.000243193 0.000245085 -3.53533e-05
-0.000542149 0.000161157 0.000163282 -3.97797e-05
-0.000272433 8.01274e-05 8.24167e-05 -4.24395e-05
-0.000545393 0.000162112 0.000164263 -3.97798e-05
-0.000543771 0.000161634 0.000163773 -3.97798e-05
-0.00081263 0.000242472 0.000244353 -3.53533e-05
-0.000807776 0.000241032 0.00024289 -3.53534e-05
-0.000269983 7.9421e-05 8.16695e-05 -4.24393e-05
-0.000271616 7.98919e-05 8.21676e-05 -4.24394e-05
-0.000810203 0.000241752 0.000243622 -3.53534e-05
-0.000538905 0.000160201 0.000162302 -3.97797e-05
-0.0002708 7.96564e-05 8.19185e-05 -4.24394e-05
-0.000542149 0.000161157 0.000163282 -3.97797e-05
-0.000540527 0.000160679 0.000162792 -3.97797e-05
-0.000807776 0.000241032 0.00024289 -3.53534e-05
-0.000802923 0.000239592 0.000241428 -3.53534e-05
-0.00026835 7.895e-05 8.11715e-05 -4.24392e-05
-0.000269983 7.9421e-05 8.16695e-05 -4.24393e-05
-0.00080535 0.000240312 0.000242159 -3.53534e-05
-0.000535662 0.000159246 0.000161321 -3.97797e-05
-0.000269167 7.91855e-05 8.14205e-05 -4.24393e-05
-0.000538905 0.000160201 0.000162302 -3.97797e-05
-0.000537283 0.000159724 0.000161811 -3.97797e-05
-0.000802923 0.000239592 0.000241428 -3.53534e-05
-0.00079807 0.000238151 0.000239965 -3.53534e-05
-0.000266717 7.84789e-05 8.06736e-05 -4.24391e-05
-0.00026835 7.895e-05 8.11715e-05 -4.24392e-05
-0.000800496 0.000238872 0.000240696 -3.53534e-05
-0.000532418 0.000158291 0.00016034 -3.97796e-05
-0.000267534 7.87144e-05 8.09225e-05 -4.24392e-05
-0.000535662 0.000159246 0.000161321 -3.97797e-05
-0.00053404 0.000158768 0.000160831 -3.97796e-05
-0.00079807 0.000238151 0.000239965 -3.53534e-05
-0.000793217 0.000236711 0.000238502 -3.53534e-05
-0.000265084 7.80077e-05 8.01757e-05 -4.2439e-05
-0.000266717 7.84789e-05 8.06736e-05 -4.24391e-05
-0.000795643 0.000237431 0.000239234 -3.53534e-05
-0.000529175 0.000157335 0.00015936 -3.97796e-05
-0.000265901 7.82433e-05 8.04246e-05 -4.24391e-05
-0.000532418 0.000158291 0.00016034 -3.97796e-05
-0.000530797 0.000157813 0.00015985 -3.97796e-05
-0.000793217 0.000236711 0.000238502 -3.53534e-05
-0.000788364 0.000235271 0.00023704 -3.53534e-05
-0.000263452 7.75365e-05 7.9678e-05 -4.24389e-05
-0.000265084 7.80077e-05 8.01757e-05 -4.2439e-05
-0.00079079 0.000235991 0.000237771 -3.53534e-05
-0.000525932 0.00015638 0.00015838 -3.97795e-05
-0.000264268 7.77721e-05 7.99268e-05 -4.2439e-05
-0.000529175 0.000157335 0.00015936 -3.97796e-05
-0.000527553 0.000156857 0.00015887 -3.97795e-05
-0.000788364 0.000235271 0.00023704 -3.53534e-05
-0.000783511 0.00023383 0.000235577 -3.53533e-05
-0.000261819 7.70652e-05 7.91803e-05 -4.24388e-05
-0.000263452 7.75365e-05 7.9678e-05 -4.24389e-05
-0.000785937 0.00023455 0.000236309 -3.53534e-05
-0.000522689 0.000155424 0.000157399 -3.97795e-05
-0.000262636 7.73009e-05 7.94292e-05 -4.24389e-05
-0.000525932 0.00015638 0.00015838 -3.97795e-05
-0.00052431 0.000155902 0.000157889 -3.97795e-05
-0.000783511 0.00023383 0.000235577 -3.53533e-05
-0.000778658 0.000232389 0.000234115 -3.53533e-05
-0.000260187 7.65938e-05 7.86828e-05 -4.24387e-05
-0.000261819 7.70652e-05 7.91803e-05 -4.24388e-05
-0.000781085 0.00023311 0.000234846 -3.53533e-05
-0.000519446 0.000154468 0.000156419 -3.97794e-05
-0.000261003 7.68295e-05 7.89315e-05 -4.24388e-05
-0.000522689 0.000155424 0.000157399 -3.97795e-05
-0.000521068 0.000154946 0.000156909 -3.97794e-05
-0.000778658 0.000232389 0.000234115 -3.53533e-05
-0.000773806 0.000230949 0.000232653 -3.53533e-05
-0.000258555 7.61224e-05 7.81853e-05 -4.24386e-05
-0.000260187 7.65938e-05 7.86828e-05 -4.24387e-05
-0.000776232 0.000231669 0.000233384 -3.53533e-05
-0.000516204 0.000153512 0.000155439 -3.97793e-05
-0.000259371 7.63581e-05 7.8434e-05 -4.24386e-05
-0.000519446 0.000154468 0.000156419 -3.97794e-05
-0.000517825 0.00015399 0.000155929 -3.97794e-05
-0.000773806 0.000230949 0.000232653 -3.53533e-05
-0.000768953 0.000229508 0.000231191 -3.53533e-05
-0.000256923 7.56509e-05 7.76879e-05 -4.24385e-05
-0.000258555 7.61224e-05 7.81853e-05 -4.24386e-05
-0.000771379 0.000230229 0.000231922 -3.53533e-05
-0.000512961 0.000152557 0.000154459 -3.97792e-05
-0.000257739 7.58867e-05 7.79366e-05 -4.24385e-05
-0.000516204 0.000153512 0.000155439 -3.97793e-05
-0.000514582 0.000153035 0.000154949 -3.97793e-05
-0.000768953 0.000229508 0.000231191 -3.53533e-05
-0.000764101 0.000228067 0.000229729 -3.53533e-05
-0.000255291 7.51793e-05 7.71906e-05 -4.24383e-05
-0.000256923 7.56509e-05 7.76879e-05 -4.24385e-05
-0.000766527 0.000228788 0.00023046 -3.53533e-05
-0.000509719 0.000151601 0.000153479 -3.97792e-05
-0.000256107 7.54151e-05 7.74393e-05 -4.24384e-05
-0.000512961 0.000152557 0.000154459 -3.97792e-05
-0.00051134 0.000152079 0.000153969 -3.97792e-05
-0.000764101 0.000228067 0.000229729 -3.53533e-05
-0.000759249 0.000226627 0.000228267 -3.53532e-05
-0.000253659 7.47077e-05 7.66934e-05 -4.24382e-05
-0.000255291 7.51793e-05 7.71906e-05 -4.24383e-05
-0.000761675 0.000227347 0.000228998 -3.53532e-05
-0.000506476 0.000150645 0.000152499 -3.97791e-05
-0.000254475 7.49435e-05 7.6942e-05 -4.24383e-05
-0.000509719 0.000151601 0.000153479 -3.97792e-05
-0.000508097 0.000151123 0.000152989 -3.97791e-05
-0.000759249 0.000226627 0.000228267 -3.53532e-05
-0.000754397 0.000225186 0.000226805 -3.53532e-05
-0.000252027 7.4236e-05 7.61963e-05 -4.24381e-05
-0.000253659 7.47077e-05 7.66934e-05 -4.24382e-05
-0.000756823 0.000225906 0.000227536 -3.53532e-05
-0.000503234 0.000149689 0.000151519 -3.9779e-05
-0.000252843 7.44718e-05 7.64448e-05 -4.24381e-05
-0.000506476 0.000150645 0.000152499 -3.97791e-05
-0.000504855 0.000150167 0.000152009 -3.97791e-05
-0.000754397 0.000225186 0.000226805 -3.53532e-05
-0.000749545 0.000223745 0.000225343 -3.53532e-05
-0.000250396 7.37642e-05 7.56993e-05 -4.24379e-05
-0.000252027 7.4236e-05 7.61963e-05 -4.24381e-05
-0.000751971 0.000224465 0.000226074 -3.53532e-05
-0.000499992 0.000148733 0.00015054 -3.97789e-05
-0.000251212 7.40001e-05 7.59478e-05 -4.2438e-05
-0.000503234 0.000149689 0.000151519 -3.9779e-05
-0.000501613 0.000149211 0.00015103 -3.9779e-05
-0.000749545 0.000223745 0.000225343 -3.53532e-05
-0.000744693 0.000222304 0.000223881 -3.53531e-05
-0.000248764 7.32923e-05 7.52023e-05 -4.24378e-05
-0.000250396 7.37642e-05 7.56993e-05 -4.24379e-05
-0.000747119 0.000223024 0.000224612 -3.53531e-05
-0.00049675 0.000147777 0.00014956 -3.97788e-05
-0.00024958 7.35283e-05 7.54508e-05 -4.24379e-05
-0.000499992 0.000148733 0.00015054 -3.97789e-05
-0.000498371 0.000148255 0.00015005 -3.97789e-05
-0.000744693 0.000222304 0.000223881 -3.53531e-05
-0.000739841 0.000220863 0.000222419 -3.53531e-05
-0.000247133 7.28204e-05 7.47055e-05 -4.24377e-05
-0.000248764 7.32923e-05 7.52023e-05 -4.24378e-05
-0.000742267 0.000221583 0.00022315 -3.53531e-05
-0.000493509 0.00014682 0.000148581 -3.97788e-05
-0.000247949 7.30564e-05 7.49539e-05 -4.24377e-05
-0.00049675 0.000147777 0.00014956 -3.97788e-05
-0.000495129 0.000147299 0.00014907 -3.97788e-05
-0.000739841 0.000220863 0.000222419 -3.53531e-05
-0.00073499 0.000219422 0.000220958 -3.5353e-05
-0.000245502 7.23484e-05 7.42087e-05 -4.24375e-05
-0.000247133 7.28204e-05 7.47055e-05 -4.24377e-05
-0.000737416 0.000220142 0.000221689 -3.53531e-05
-0.000490267 0.000145864 0.000147601 -3.97787e-05
-0.000246318 7.25844e-05 7.44571e-05 -4.24376e-05
-0.000493509 0.00014682 0.000148581 -3.97788e-05
-0.000491888 0.000146342 0.000148091 -3.97787e-05
-0.00073499 0.000219422 0.000220958 -3.5353e-05
-0.000730139 0.000217981 0.000219496 -3.5353e-05
-0.000243871 7.18763e-05 7.3712e-05 -4.24374e-05
-0.000245502 7.23484e-05 7.42087e-05 -4.24375e-05
-0.000732564 0.000218701 0.000220227 -3.5353e-05
-0.000487026 0.000144908 0.000146622 -3.97786e-05
-0.000244687 7.21124e-05 7.39604e-05 -4.24374e-05
-0.000490267 0.000145864 0.000147601 -3.97787e-05
-0.000488646 0.000145386 0.000147112 -3.97786e-05
-0.000730139 0.000217981 0.000219496 -3.5353e-05
-0.000725287 0.00021654 0.000218035 -3.53529e-05
-0.00024224 7.14042e-05 7.32154e-05 -4.24372e-05
-0.000243871 7.18763e-05 7.3712e-05 -4.24374e-05
-0.000727713 0.00021726 0.000218766 -3.5353e-05
-0.000483784 0.000143952 0.000145643 -3.97785e-05
-0.000243056 7.16403e-05 7.34637e-05 -4.24373e-05
-0.000487026 0.000144908 0.000146622 -3.97786e-05
-0.000485405 0.00014443 0.000146132 -3.97785e-05
-0.000725287 0.00021654 0.000218035 -3.53529e-05
-0.000720436 0.000215098 0.000216573 -3.53529e-05
-0.00024061 7.0932e-05 7.27189e-05 -4.24371e-05
-0.00024224 7.14042e-05 7.32154e-05 -4.24372e-05
-0.000722862 0.000215819 0.000217304 -3.53529e-05
-0.000480543 0.000142995 0.000144663 -3.97784e-05
-0.000241425 7.11681e-05 7.29672e-05 -4.24372e-05
-0.000483784 0.000143952 0.000145643 -3.97785e-05
-0.000482164 0.000143473 0.000145153 -3.97784e-05
-0.000720436 0.000215098 0.000216573 -3.53529e-05
-0.000715585 0.000213657 0.000215112 -3.53528e-05
-0.000238979 7.04597e-05 7.22225e-05 -4.24369e-05
-0.00024061 7.0932e-05 7.27189e-05 -4.24371e-05
-0.000718011 0.000214378 0.000215843 -3.53529e-05
-0.000477302 0.000142039 0.000143684 -3.97783e-05
-0.000239794 7.06958e-05 7.24707e-05 -4.2437e-05
-0.000480543 0.000142995 0.000144663 -3.97784e-05
-0.000478923 0.000142517 0.000144174 -3.97783e-05
-0.000715585 0.000213657 0.000215112 -3.53528e-05
-0.000710735 0.000212216 0.000213651 -3.53528e-05
-0.000237349 6.99873e-05 7.17262e-05 -4.24368e-05
-0.000238979 7.04597e-05 7.22225e-05 -4.24369e-05
-0.00071316 0.000212936 0.000214382 -3.53528e-05
-0.000474061 0.000141082 0.000142705 -3.97782e-05
-0.000238164 7.02235e-05 7.19744e-05 -4.24369e-05
-0.000477302 0.000142039 0.000143684 -3.97783e-05
-0.000475682 0.00014156 0.000143195 -3.97782e-05
-0.000710735 0.000212216 0.000213651 -3.53528e-05
-0.000705884 0.000210774 0.00021219 -3.53527e-05
-0.000235718 6.95149e-05 7.123e-05 -4.24366e-05
-0.000237349 6.99873e-05 7.17262e-05 -4.24368e-05
-0.000708309 0.000211495 0.00021292 -3.53528e-05
-0.000470821 0.000140125 0.000141726 -3.97781e-05
-0.000236533 6.97511e-05 7.14781e-05 -4.24367e-05
-0.000474061 0.000141082 0.000142705 -3.97782e-05
-0.000472441 0.000140604 0.000142216 -3.97781e-05
-0.000705884 0.000210774 0.00021219 -3.53527e-05
-0.000701033 0.000209333 0.000210729 -3.53527e-05
-0.000234088 6.90424e-05 7.07338e-05 -4.24365e-05
-0.000235718 6.95149e-05 7.123e-05 -4.24366e-05
-0.000703459 0.000210054 0.000211459 -3.53527e-05
-0.00046758 0.000139169 0.000140748 -3.9778e-05
-0.000234903 6.92787e-05 7.09819e-05 -4.24365e-05
-0.000470821 0.000140125 0.000141726 -3.97781e-05
-0.0004692 0.000139647 0.000141237 -3.9778e-05
-0.000701033 0.000209333 0.000210729 -3.53527e-05
-0.000696183 0.000207892 0.000209268 -3.53526e-05
-0.000232458 6.85698e-05 7.02378e-05 -4.24363e-05
-0.000234088 6.90424e-05 7.07338e-05 -4.24365e-05
-0.000698608 0.000208612 0.000209998 -3.53527e-05
-0.000464339 0.000138212 0.000139769 -3.97779e-05
-0.000233273 6.88061e-05 7.04858e-05 -4.24364e-05
-0.00046758 0.000139169 0.000140748 -3.9778e-05
-0.00046596 0.00013869 0.000140258 -3.97779e-05
-0.000696183 0.000207892 0.000209268 -3.53526e-05
-0.000691333 0.00020645 0.000207807 -3.53526e-05
-0.000230828 6.80972e-05 6.97418e-05 -4.24361e-05
-0.000232458 6.85698e-05 7.02378e-05 -4.24363e-05
-0.000693758 0.000207171 0.000208537 -3.53526e-05
-0.000461099 0.000137255 0.00013879 -3.97778e-05
-0.000231643 6.83335e-05 6.99898e-05 -4.24362e-05
-0.000464339 0.000138212 0.000139769 -3.97779e-05
-0.000462719 0.000137734 0.00013928 -3.97778e-05
-0.000691333 0.00020645 0.000207807 -3.53526e-05
-0.000686483 0.000205008 0.000206346 -3.53525e-05
-0.000229198 6.76245e-05 6.9246e-05 -4.2436e-05
-0.000230828 6.80972e-05 6.97418e-05 -4.24361e-05
-0.000688908 0.000205729 0.000207077 -3.53525e-05
-0.000457859 0.000136298 0.000137812 -3.97777e-05
-0.000230013 6.78608e-05 6.94939e-05 -4.24361e-05
-0.000461099 0.000137255 0.00013879 -3.97778e-05
-0.000459479 0.000136777 0.000138301 -3.97777e-05
-0.000686483 0.000205008 0.000206346 -3.53525e-05
-0.000681633 0.000203567 0.000204885 -3.53525e-05
-0.000227569 6.71517e-05 6.87502e-05 -4.24358e-05
-0.000229198 6.76245e-05 6.9246e-05 -4.2436e-05
-0.000684058 0.000204288 0.000205616 -3.53525e-05
-0.000454619 0.000135341 0.000136833 -3.97776e-05
-0.000228384 6.73881e-05 6.89981e-05 -4.24359e-05
-0.000457859 0.000136298 0.000137812 -3.97777e-05
-0.000456239 0.00013582 0.000137322 -3.97776e-05
-0.000681633 0.000203567 0.000204885 -3.53525e-05
-0.000676783 0.000202125 0.000203425 -3.53524e-05
-0.000225939 6.66788e-05 6.82545e-05 -4.24357e-05
-0.000227569 6.71517e-05 6.87502e-05 -4.24358e-05
-0.000679208 0.000202846 0.000204155 -3.53524e-05
-0.000451379 0.000134384 0.000135855 -3.97774e-05
-0.000226754 6.69153e-05 6.85023e-05 -4.24357e-05
-0.000454619 0.000135341 0.000136833 -3.97776e-05
-0.000452999 0.000134863 0.000136344 -3.97775e-05
-0.000676783 0.000202125 0.000203425 -3.53524e-05
-0.000671933 0.000200683 0.000201964 -3.53523e-05
-0.00022431 6.62059e-05 6.77589e-05 -4.24355e-05
-0.000225939 6.66788e-05 6.82545e-05 -4.24357e-05
-0.000674358 0.000201404 0.000202694 -3.53524e-05
-0.000448139 0.000133427 0.000134877 -3.97773e-05
-0.000225125 6.64424e-05 6.80067e-05 -4.24356e-05
-0.000451379 0.000134384 0.000135855 -3.97774e-05
-0.000449759 0.000133906 0.000135366 -3.97774e-05
-0.000671933 0.000200683 0.000201964 -3.53523e-05
-0.000667084 0.000199242 0.000200504 -3.53523e-05
-0.000222681 6.57329e-05 6.72634e-05 -4.24353e-05
-0.00022431 6.62059e-05 6.77589e-05 -4.24355e-05
-0.000669508 0.000199963 0.000201234 -3.53523e-05
-0.0004449 0.00013247 0.000133898 -3.97772e-05
-0.000223495 6.59694e-05 6.75111e-05 -4.24354e-05
-0.000448139 0.000133427 0.000134877 -3.97773e-05
-0.000446519 0.000132949 0.000134387 -3.97773e-05
-0.000667084 0.000199242 0.000200504 -3.53523e-05
-0.000662234 0.0001978 0.000199043 -3.53522e-05
-0.000221052 6.52598e-05 6.67679e-05 -4.24352e-05
-0.000222681 6.57329e-05 6.72634e-05 -4.24353e-05
-0.000664659 0.000198521 0.000199774 -3.53522e-05
-0.00044166 0.000131513 0.00013292 -3.97771e-05
-0.000221866 6.54964e-05 6.70156e-05 -4.24352e-05
-0.0004449 0.00013247 0.000133898 -3.97772e-05
-0.00044328 0.000131991 0.000133409 -3.97772e-05
-0.000662234 0.0001978 0.000199043 -3.53522e-05
-0.000657385 0.000196358 0.000197583 -3.53521e-05
-0.000219423 6.47867e-05 6.62726e-05 -4.2435e-05
-0.000221052 6.52598e-05 6.67679e-05 -4.24352e-05
-0.00065981 0.000197079 0.000198313 -3.53522e-05
-0.000438421 0.000130556 0.000131942 -3.9777e-05
-0.000220237 6.50233e-05 6.65203e-05 -4.24351e-05
-0.00044166 0.000131513 0.00013292 -3.97771e-05
-0.00044004 0.000131034 0.000132431 -3.9777e-05
-0.000657385 0.000196358 0.000197583 -3.53521e-05
-0.000652536 0.000194916 0.000196123 -3.53521e-05
-0.000217794 6.43135e-05 6.57774e-05 -4.24348e-05
-0.000219423 6.47867e-05 6.62726e-05 -4.2435e-05
-0.00065496 0.000195637 0.000196853 -3.53521e-05
-0.000435182 0.000129598 0.000130964 -3.97769e-05
-0.000218608 6.45501e-05 6.6025e-05 -4.24349e-05
-0.000438421 0.000130556 0.000131942 -3.9777e-05
-0.000436801 0.000130077 0.000131453 -3.97769e-05
-0.000652536 0.000194916 0.000196123 -3.53521e-05
-0.000647687 0.000193474 0.000194663 -3.5352e-05
-0.000216165 6.38402e-05 6.52822e-05 -4.24346e-05
-0.000217794 6.43135e-05 6.57774e-05 -4.24348e-05
-0.000650111 0.000194195 0.000195393 -3.5352e-05
-0.000431942 0.000128641 0.000129986 -3.97767e-05
-0.00021698 6.40768e-05 6.55298e-05 -4.24347e-05
-0.000435182 0.000129598 0.000130964 -3.97769e-05
-0.000433562 0.00012912 0.000130475 -3.97768e-05
-0.000647687 0.000193474 0.000194663 -3.5352e-05
-0.000642838 0.000192032 0.000193203 -3.53519e-05
-0.000214537 6.33668e-05 6.47871e-05 -4.24345e-05
-0.000216165 6.38402e-05 6.52822e-05 -4.24346e-05
-0.000645262 0.000192753 0.000193933 -3.5352e-05
-0.000428704 0.000127683 0.000129009 -3.97766e-05
-0.000215351 6.36035e-05 6.50347e-05 -4.24346e-05
-0.000431942 0.000128641 0.000129986 -3.97767e-05
-0.000430323 0.000128162 0.000129498 -3.97767e-05
-0.000642838 0.000192032 0.000193203 -3.53519e-05
-0.000637989 0.00019059 0.000191743 -3.53519e-05
-0.000212908 6.28934e-05 6.42922e-05 -4.24343e-05
-0.000214537 6.33668e-05 6.47871e-05 -4.24345e-05
-0.000640414 0.000191311 0.000192473 -3.53519e-05
-0.000425465 0.000126726 0.000128031 -3.97765e-05
-0.000213723 6.31301e-05 6.45396e-05 -4.24344e-05
-0.000428704 0.000127683 0.000129009 -3.97766e-05
-0.000427084 0.000127205 0.00012852 -3.97766e-05
-0.000637989 0.00019059 0.000191743 -3.53519e-05
-0.000633141 0.000189148 0.000190283 -3.53518e-05
-0.00021128 6.24199e-05 6.37973e-05 -4.24341e-05
-0.000212908 6.28934e-05 6.42922e-05 -4.24343e-05
-0.000635565 0.000189869 0.000191013 -3.53518e-05
-0.000422226 0.000125768 0.000127053 -3.97764e-05
-0.000212094 6.26567e-05 6.40447e-05 -4.24342e-05
-0.000425465 0.000126726 0.000128031 -3.97765e-05
-0.000423845 0.000126247 0.000127542 -3.97764e-05
-0.000633141 0.000189148 0.000190283 -3.53518e-05
-0.000628292 0.000187705 0.000188823 -3.53517e-05
-0.000209652 6.19463e-05 6.33025e-05 -4.24339e-05
-0.00021128 6.24199e-05 6.37973e-05 -4.24341e-05
-0.000630716 0.000188427 0.000189553 -3.53518e-05
-0.000418988 0.000124811 0.000126076 -3.97763e-05
-0.000210466 6.21831e-05 6.35499e-05 -4.2434e-05
-0.000422226 0.000125768 0.000127053 -3.97764e-05
-0.000420607 0.000125289 0.000126565 -3.97763e-05
-0.000628292 0.000187705 0.000188823 -3.53517e-05
-0.000623444 0.000186263 0.000187363 -3.53517e-05
-0.000208024 6.14727e-05 6.28078e-05 -4.24338e-05
-0.000209652 6.19463e-05 6.33025e-05 -4.24339e-05
-0.000625868 0.000186984 0.000188093 -3.53517e-05
-0.000415749 0.000123853 0.000125098 -3.97761e-05
-0.000208838 6.17095e-05 6.30551e-05 -4.24339e-05
-0.000418988 0.000124811 0.000126076 -3.97763e-05
-0.000417368 0.000124332 0.000125587 -3.97762e-05
-0.000623444 0.000186263 0.000187363 -3.53517e-05
-0.000618596 0.000184821 0.000185904 -3.53516e-05
-0.000206396 6.0999e-05 6.23131e-05 -4.24336e-05
-0.000208024 6.14727e-05 6.28078e-05 -4.24338e-05
-0.00062102 0.000185542 0.000186633 -3.53516e-05
-0.000412511 0.000122895 0.000124121 -3.9776e-05
-0.00020721 6.12358e-05 6.25604e-05 -4.24337e-05
-0.000415749 0.000123853 0.000125098 -3.97761e-05
-0.00041413 0.000123374 0.00012461 -3.97761e-05
-0.000618596 0.000184821 0.000185904 -3.53516e-05
-0.000613748 0.000183379 0.000184444 -3.53515e-05
-0.000204769 6.05252e-05 6.18186e-05 -4.24334e-05
-0.000206396 6.0999e-05 6.23131e-05 -4.24336e-05
-0.000616172 0.0001841 0.000185174 -3.53515e-05
-0.000409273 0.000121937 0.000123144 -3.97759e-05
-0.000205582 6.07621e-05 6.20659e-05 -4.24335e-05
-0.000412511 0.000122895 0.000124121 -3.9776e-05
-0.000410892 0.000122416 0.000123632 -3.97759e-05
-0.000613748 0.000183379 0.000184444 -3.53515e-05
-0.0006089 0.000181936 0.000182984 -3.53514e-05
-0.000203141 6.00513e-05 6.13242e-05 -4.24332e-05
-0.000204769 6.05252e-05 6.18186e-05 -4.24334e-05
-0.000611324 0.000182657 0.000183714 -3.53515e-05
-0.000406035 0.000120979 0.000122167 -3.97758e-05
-0.000203955 6.02883e-05 6.15714e-05 -4.24333e-05
-0.000409273 0.000121937 0.000123144 -3.97759e-05
-0.000407654 0.000121458 0.000122655 -3.97758e-05
-0.0006089 0.000181936 0.000182984 -3.53514e-05
-0.000604052 0.000180494 0.000181525 -3.53514e-05
-0.000201514 5.95774e-05 6.08298e-05 -4.2433e-05
-0.000203141 6.00513e-05 6.13242e-05 -4.24332e-05
-0.000606476 0.000181215 0.000182255 -3.53514e-05
-0.000402797 0.000120021 0.00012119 -3.97756e-05
-0.000202327 5.98144e-05 6.1077e-05 -4.24331e-05
-0.000406035 0.000120979 0.000122167 -3.97758e-05
-0.000404416 0.0001205 0.000121678 -3.97757e-05
-0.000604052 0.000180494 0.000181525 -3.53514e-05
-0.000599205 0.000179051 0.000180066 -3.53513e-05
-0.000199886 5.91034e-05 6.03356e-05 -4.24329e-05
-0.000201514 5.95774e-05 6.08298e-05 -4.2433e-05
-0.000601628 0.000179772 0.000180795 -3.53513e-05
-0.00039956 0.000119063 0.000120213 -3.97755e-05
-0.0002007 5.93404e-05 6.05827e-05 -4.2433e-05
-0.000402797 0.000120021 0.00012119 -3.97756e-05
-0.000401178 0.000119542 0.000120701 -3.97756e-05
-0.000599205 0.000179051 0.000180066 -3.53513e-05
-0.000594357 0.000177609 0.000178607 -3.53512e-05
-0.000198259 5.86293e-05 5.98414e-05 -4.24327e-05
-0.000199886 5.91034e-05 6.03356e-05 -4.24329e-05
-0.000596781 0.00017833 0.000179336 -3.53512e-05
-0.000396322 0.000118105 0.000119236 -3.97754e-05
-0.000199073 5.88664e-05 6.00885e-05 -4.24328e-05
-0.00039956 0.000119063 0.000120213 -3.97755e-05
-0.000397941 0.000118584 0.000119724 -3.97754e-05
-0.000594357 0.000177609 0.000178607 -3.53512e-05
-0.00058951 0.000176166 0.000177147 -3.53511e-05
-0.000196632 5.81552e-05 5.93473e-05 -4.24325e-05
-0.000198259 5.86293e-05 5.98414e-05 -4.24327e-05
-0.000591933 0.000176887 0.000177877 -3.53512e-05
-0.000393085 0.000117147 0.000118259 -3.97752e-05
-0.000197446 5.83923e-05 5.95944e-05 -4.24326e-05
-0.000396322 0.000118105 0.000119236 -3.97754e-05
-0.000394703 0.000117626 0.000118747 -3.97753e-05
-0.00058951 0.000176166 0.000177147 -3.53511e-05
-0.000584663 0.000174723 0.000175688 -3.53511e-05
-0.000195005 5.7681e-05 5.88533e-05 -4.24323e-05
-0.000196632 5.81552e-05 5.93473e-05 -4.24325e-05
-0.000587086 0.000175445 0.000176418 -3.53511e-05
-0.000389847 0.000116189 0.000117282 -3.97751e-05
-0.000195819 5.79181e-05 5.91003e-05 -4.24324e-05
-0.000393085 0.000117147 0.000118259 -3.97752e-05
-0.000391466 0.000116668 0.000117771 -3.97752e-05
-0.000584663 0.000174723 0.000175688 -3.53511e-05
-0.000579816 0.000173281 0.000174229 -3.5351e-05
-0.000193379 5.72067e-05 5.83594e-05 -4.24321e-05
-0.000195005 5.7681e-05 5.88533e-05 -4.24323e-05
-0.000582239 0.000174002 0.000174959 -3.5351e-05
-0.00038661 0.000115231 0.000116306 -3.9775e-05
-0.000194192 5.74438e-05 5.86064e-05 -4.24322e-05
-0.000389847 0.000116189 0.000117282 -3.97751e-05
-0.000388229 0.00011571 0.000116794 -3.97751e-05
-0.000579816 0.000173281 0.000174229 -3.5351e-05
-0.000574969 0.000171838 0.00017277 -3.53509e-05
-0.000191752 5.67323e-05 5.78656e-05 -4.24319e-05
-0.000193379 5.72067e-05 5.83594e-05 -4.24321e-05
-0.000577392 0.000172559 0.0001735 -3.53509e-05
-0.000383373 0.000114272 0.000115329 -3.97749e-05
-0.000192565 5.69695e-05 5.81125e-05 -4.2432e-05
-0.00038661 0.000115231 0.000116306 -3.9775e-05
-0.000384992 0.000114751 0.000115817 -3.97749e-05
-0.000574969 0.000171838 0.00017277 -3.53509e-05
-0.000570122 0.000170395 0.000171312 -3.53508e-05
-0.000190126 5.62579e-05 5.73719e-05 -4.24318e-05
-0.000191752 5.67323e-05 5.78656e-05 -4.24319e-05
-0.000572545 0.000171116 0.000172041 -3.53509e-05
-0.000380137 0.000113314 0.000114353 -3.97747e-05
-0.000190939 5.64951e-05 5.76188e-05 -4.24319e-05
-0.000383373 0.000114272 0.000115329 -3.97749e-05
-0.000381755 0.000113793 0.000114841 -3.97748e-05
-0.000570122 0.000170395 0.000171312 -3.53508e-05
-0.000565275 0.000168952 0.000169853 -3.53507e-05
-0.000188499 5.57834e-05 5.68783e-05 -4.24316e-05
-0.000190126 5.62579e-05 5.73719e-05 -4.24318e-05
-0.000567699 0.000169674 0.000170582 -3.53508e-05
-0.0003769 0.000112355 0.000113376 -3.97746e-05
-0.000189312 5.60206e-05 5.71251e-05 -4.24317e-05
-0.000380137 0.000113314 0.000114353 -3.97747e-05
-0.000378518 0.000112835 0.000113864 -3.97747e-05
-0.000565275 0.000168952 0.000169853 -3.53507e-05
-0.000560429 0.000167509 0.000168394 -3.53507e-05
-0.000186873 5.53088e-05 5.63847e-05 -4.24314e-05
-0.000188499 5.57834e-05 5.68783e-05 -4.24316e-05
-0.000562852 0.000168231 0.000169123 -3.53507e-05
-0.000373663 0.000111397 0.0001124 -3.97745e-05
-0.000187686 5.55461e-05 5.66315e-05 -4.24315e-05
-0.0003769 0.000112355 0.000113376 -3.97746e-05
-0.000375282 0.000111876 0.000112888 -3.97745e-05
-0.000560429 0.000167509 0.000168394 -3.53507e-05
-0.000555583 0.000166066 0.000166936 -3.53506e-05
-0.000185247 5.48342e-05 5.58913e-05 -4.24312e-05
-0.000186873 5.53088e-05 5.63847e-05 -4.24314e-05
-0.000558006 0.000166788 0.000167665 -3.53506e-05
-0.000370427 0.000110438 0.000111424 -3.97743e-05
-0.00018606 5.50715e-05 5.6138e-05 -4.24313e-05
-0.000373663 0.000111397 0.0001124 -3.97745e-05
-0.000372045 0.000110918 0.000111912 -3.97744e-05
-0.000555583 0.000166066 0.000166936 -3.53506e-05
-0.000550736 0.000164623 0.000165477 -3.53505e-05
-0.000183621 5.43594e-05 5.53979e-05 -4.2431e-05
-0.000185247 5.48342e-05 5.58913e-05 -4.24312e-05
-0.00055316 0.000165345 0.000166206 -3.53506e-05
-0.000367191 0.00010948 0.000110448 -3.97742e-05
-0.000184434 5.45968e-05 5.56446e-05 -4.24311e-05
-0.000370427 0.000110438 0.000111424 -3.97743e-05
-0.000368809 0.000109959 0.000110936 -3.97743e-05
-0.000550736 0.000164623 0.000165477 -3.53505e-05
-0.00054589 0.00016318 0.000164019 -3.53504e-05
-0.000181996 5.38846e-05 5.49047e-05 -4.24308e-05
-0.000183621 5.43594e-05 5.53979e-05 -4.2431e-05
-0.000548313 0.000163902 0.000164748 -3.53505e-05
-0.000363955 0.000108521 0.000109472 -3.97741e-05
-0.000182808 5.4122e-05 5.51513e-05 -4.24309e-05
-0.000367191 0.00010948 0.000110448 -3.97742e-05
-0.000365573 0.000109 0.00010996 -3.97741e-05
-0.00054589 0.00016318 0.000164019 -3.53504e-05
-0.000541045 0.000161737 0.00016256 -3.53504e-05
-0.00018037 5.34098e-05 5.44115e-05 -4.24307e-05
-0.000181996 5.38846e-05 5.49047e-05 -4.24308e-05
-0.000543467 0.000162459 0.00016329 -3.53504e-05
-0.000360719 0.000107562 0.000108496 -3.9774e-05
-0.000181183 5.36472e-05 5.46581e-05 -4.24307e-05
-0.000363955 0.000108521 0.000109472 -3.97741e-05
-0.000362337 0.000108041 0.000108984 -3.9774e-05
-0.000541045 0.000161737 0.00016256 -3.53504e-05
-0.000536199 0.000160294 0.000161102 -3.53503e-05
-0.000178744 5.29348e-05 5.39184e-05 -4.24305e-05
-0.00018037 5.34098e-05 5.44115e-05 -4.24307e-05
-0.000538622 0.000161015 0.000161831 -3.53503e-05
-0.000357483 0.000106603 0.00010752 -3.97738e-05
-0.000179557 5.31723e-05 5.41649e-05 -4.24306e-05
-0.000360719 0.000107562 0.000108496 -3.9774e-05
-0.000359101 0.000107083 0.000108008 -3.97739e-05
-0.000536199 0.000160294 0.000161102 -3.53503e-05
-0.000531353 0.000158851 0.000159644 -3.53502e-05
-0.000177119 5.24598e-05 5.34254e-05 -4.24303e-05
-0.000178744 5.29348e-05 5.39184e-05 -4.24305e-05
-0.000533776 0.000159572 0.000160373 -3.53502e-05
-0.000354247 0.000105644 0.000106544 -3.97737e-05
-0.000177932 5.26973e-05 5.36719e-05 -4.24304e-05
-0.000357483 0.000106603 0.00010752 -3.97738e-05
-0.000355865 0.000106124 0.000107032 -3.97738e-05
-0.000531353 0.000158851 0.000159644 -3.53502e-05
-0.000526508 0.000157407 0.000158186 -3.53501e-05
-0.000175494 5.19848e-05 5.29325e-05 -4.24301e-05
-0.000177119 5.24598e-05 5.34254e-05 -4.24303e-05
-0.00052893 0.000158129 0.000158915 -3.53502e-05
-0.000351012 0.000104685 0.000105568 -3.97736e-05
-0.000176306 5.22223e-05 5.31789e-05 -4.24302e-05
-0.000354247 0.000105644 0.000106544 -3.97737e-05
-0.000352629 0.000105165 0.000106056 -3.97736e-05
-0.000526508 0.000157407 0.000158186 -3.53501e-05
-0.000521662 0.000155964 0.000156728 -3.53501e-05
-0.000173869 5.15096e-05 5.24397e-05 -4.24299e-05
-0.000175494 5.19848e-05 5.29325e-05 -4.24301e-05
-0.000524085 0.000156686 0.000157457 -3.53501e-05
-0.000347776 0.000103726 0.000104593 -3.97734e-05
-0.000174681 5.17472e-05 5.26861e-05 -4.243e-05
-0.000351012 0.000104685 0.000105568 -3.97736e-05
-0.000349394 0.000104206 0.000105081 -3.97735e-05
-0.000521662 0.000155964 0.000156728 -3.53501e-05
-0.000516817 0.000154521 0.00015527 -3.535e-05
-0.000172244 5.10344e-05 5.19469e-05 -4.24297e-05
-0.000173869 5.15096e-05 5.24397e-05 -4.24299e-05
-0.00051924 0.000155242 0.000155999 -3.535e-05
-0.000344541 0.000102767 0.000103617 -3.97733e-05
-0.000173056 5.1272e-05 5.21933e-05 -4.24298e-05
-0.000347776 0.000103726 0.000104593 -3.97734e-05
-0.000346159 0.000103247 0.000104105 -3.97734e-05
-0.000516817 0.000154521 0.00015527 -3.535e-05
-0.000511972 0.000153077 0.000153812 -3.53499e-05
-0.000170619 5.05591e-05 5.14543e-05 -4.24296e-05
-0.000172244 5.10344e-05 5.19469e-05 -4.24297e-05
-0.000514395 0.000153799 0.000154541 -3.53499e-05
-0.000341306 0.000101808 0.000102642 -3.97732e-05
-0.000171432 5.07967e-05 5.17006e-05 -4.24296e-05
-0.000344541 0.000102767 0.000103617 -3.97733e-05
-0.000342923 0.000102288 0.00010313 -3.97732e-05
-0.000511972 0.000153077 0.000153812 -3.53499e-05
-0.000507127 0.000151634 0.000152354 -3.53498e-05
-0.000168995 5.00837e-05 5.09618e-05 -4.24294e-05
-0.000170619 5.05591e-05 5.14543e-05 -4.24296e-05
-0.00050955 0.000152355 0.000153083 -3.53499e-05
-0.000338071 0.000100849 0.000101667 -3.9773e-05
-0.000169807 5.03214e-05 5.1208e-05 -4.24295e-05
-0.000341306 0.000101808 0.000102642 -3.97732e-05
-0.000339688 0.000101328 0.000102154 -3.97731e-05
-0.000507127 0.000151634 0.000152354 -3.53498e-05
-0.000502282 0.00015019 0.000150897 -3.53497e-05
-0.00016737 4.96083e-05 5.04693e-05 -4.24292e-05
-0.000168995 5.00837e-05 5.09618e-05 -4.24294e-05
-0.000504705 0.000150912 0.000151626 -3.53498e-05
-0.000334836 9.98894e-05 0.000100691 -3.97729e-05
-0.000168182 4.9846e-05 5.07155e-05 -4.24293e-05
-0.000338071 0.000100849 0.000101667 -3.9773e-05
-0.000336454 0.000100369 0.000101179 -3.9773e-05
-0.000502282 0.00015019 0.000150897 -3.53497e-05
-0.000497438 0.000148746 0.000149439 -3.53497e-05
-0.000165746 4.91328e-05 4.99769e-05 -4.2429e-05
-0.00016737 4.96083e-05 5.04693e-05 -4.24292e-05
-0.00049986 0.000149468 0.000150168 -3.53497e-05
-0.000331601 9.893e-05 9.97163e-05 -3.97728e-05
-0.000166558 4.93705e-05 5.02231e-05 -4.24291e-05
-0.000334836 9.98894e-05 0.000100691 -3.97729e-05
-0.000333219 9.94097e-05 0.000100204 -3.97729e-05
-0.000497438 0.000148746 0.000149439 -3.53497e-05
-0.000492593 0.000147303 0.000147982 -3.53496e-05
-0.000164121 4.86572e-05 4.94847e-05 -4.24288e-05
-0.000165746 4.91328e-05 4.99769e-05 -4.2429e-05
-0.000495016 0.000148025 0.00014871 -3.53496e-05
-0.000328367 9.79706e-05 9.87413e-05 -3.97727e-05
-0.000164934 4.8895e-05 4.97308e-05 -4.24289e-05
-0.000331601 9.893e-05 9.97163e-05 -3.97728e-05
-0.000329984 9.84503e-05 9.92288e-05 -3.97727e-05
-0.000492593 0.000147303 0.000147982 -3.53496e-05
-0.000487749 0.000145859 0.000146524 -3.53495e-05
-0.000162497 4.81815e-05 4.89925e-05 -4.24286e-05
-0.000164121 4.86572e-05 4.94847e-05 -4.24288e-05
-0.000490171 0.000146581 0.000147253 -3.53496e-05
-0.000325133 9.70111e-05 9.77663e-05 -3.97725e-05
-0.000163309 4.84194e-05 4.92386e-05 -4.24287e-05
-0.000328367 9.79706e-05 9.87413e-05 -3.97727e-05
-0.00032675 9.74909e-05 9.82538e-05 -3.97726e-05
-0.000487749 0.000145859 0.000146524 -3.53495e-05
-0.000482905 0.000144415 0.000145067 -3.53495e-05
-0.000160873 4.77058e-05 4.85004e-05 -4.24285e-05
-0.000162497 4.81815e-05 4.89925e-05 -4.24286e-05
-0.000485327 0.000145137 0.000145796 -3.53495e-05
-0.000321898 9.60516e-05 9.67915e-05 -3.97724e-05
-0.000161685 4.79437e-05 4.87464e-05 -4.24286e-05
-0.000325133 9.70111e-05 9.77663e-05 -3.97725e-05
-0.000323515 9.65313e-05 9.72789e-05 -3.97725e-05
-0.000482905 0.000144415 0.000145067 -3.53495e-05
-0.000478061 0.000142972 0.00014361 -3.53494e-05
-0.00015925 4.723e-05 4.80084e-05 -4.24283e-05
-0.000160873 4.77058e-05 4.85004e-05 -4.24285e-05
-0.000480483 0.000143693 0.000144338 -3.53494e-05
-0.000318664 9.50919e-05 9.58167e-05 -3.97723e-05
-0.000160061 4.74679e-05 4.82544e-05 -4.24284e-05
-0.000321898 9.60516e-05 9.67915e-05 -3.97724e-05
-0.000320281 9.55717e-05 9.6304e-05 -3.97723e-05
-0.000478061 0.000142972 0.00014361 -3.53494e-05
-0.000473217 0.000141528 0.000142153 -3.53493e-05
-0.000157626 4.67541e-05 4.75165e-05 -4.24281e-05
-0.00015925 4.723e-05 4.80084e-05 -4.24283e-05
-0.000475639 0.00014225 0.000142881 -3.53493e-05
-0.00031543 9.41322e-05 9.4842e-05 -3.97722e-05
-0.000158438 4.69921e-05 4.77624e-05 -4.24282e-05
-0.000318664 9.50919e-05 9.58167e-05 -3.97723e-05
-0.000317047 9.46121e-05 9.53293e-05 -3.97722e-05
-0.000473217 0.000141528 0.000142153 -3.53493e-05
-0.000468373 0.000140084 0.000140695 -3.53492e-05
-0.000156002 4.62782e-05 4.70246e-05 -4.24279e-05
-0.000157626 4.67541e-05 4.75165e-05 -4.24281e-05
-0.000470795 0.000140806 0.000141424 -3.53493e-05
-0.000312196 9.31725e-05 9.38674e-05 -3.9772e-05
-0.000156814 4.65162e-05 4.72705e-05 -4.2428e-05
-0.00031543 9.41322e-05 9.4842e-05 -3.97722e-05
-0.000313813 9.36524e-05 9.43547e-05 -3.97721e-05
-0.000468373 0.000140084 0.000140695 -3.53492e-05
-0.000463529 0.00013864 0.000139238 -3.53492e-05
-0.000154379 4.58022e-05 4.65329e-05 -4.24278e-05
-0.000156002 4.62782e-05 4.70246e-05 -4.24279e-05
-0.000465951 0.000139362 0.000139967 -3.53492e-05
-0.000308963 9.22127e-05 9.28929e-05 -3.97719e-05
-0.000155191 4.60402e-05 4.67788e-05 -4.24278e-05
-0.000312196 9.31725e-05 9.38674e-05 -3.9772e-05
-0.000310579 9.26926e-05 9.33801e-05 -3.9772e-05
-0.000463529 0.00013864 0.000139238 -3.53492e-05
-0.000458686 0.000137196 0.000137782 -3.53491e-05
-0.000152756 4.53261e-05 4.60413e-05 -4.24276e-05
-0.000154379 4.58022e-05 4.65329e-05 -4.24278e-05
-0.000461108 0.000137918 0.00013851 -3.53491e-05
-0.000305729 9.12528e-05 9.19184e-05 -3.97718e-05
-0.000153567 4.55641e-05 4.62871e-05 -4.24277e-05
-0.000308963 9.22127e-05 9.28929e-05 -3.97719e-05
-0.000307346 9.17327e-05 9.24056e-05 -3.97719e-05
-0.000458686 0.000137196 0.000137782 -3.53491e-05
-0.000453843 0.000135752 0.000136325 -3.5349e-05
-0.000151133 4.48499e-05 4.55497e-05 -4.24274e-05
-0.000152756 4.53261e-05 4.60413e-05 -4.24276e-05
-0.000456264 0.000136474 0.000137053 -3.53491e-05
-0.000302496 9.02928e-05 9.09441e-05 -3.97717e-05
-0.000151944 4.5088e-05 4.57955e-05 -4.24275e-05
-0.000305729 9.12528e-05 9.19184e-05 -3.97718e-05
-0.000304112 9.07728e-05 9.14312e-05 -3.97717e-05
-0.000453843 0.000135752 0.000136325 -3.5349e-05
-0.000448999 0.000134308 0.000134868 -3.5349e-05
-0.00014951 4.43737e-05 4.50582e-05 -4.24272e-05
-0.000151133 4.48499e-05 4.55497e-05 -4.24274e-05
-0.000451421 0.00013503 0.000135596 -3.5349e-05
-0.000299262 8.93328e-05 8.99698e-05 -3.97716e-05
-0.000150321 4.46118e-05 4.5304e-05 -4.24273e-05
-0.000302496 9.02928e-05 9.09441e-05 -3.97717e-05
-0.000300879 8.98128e-05 9.04569e-05 -3.97716e-05
-0.000448999 0.000134308 0.000134868 -3.5349e-05
-0.000444156 0.000132863 0.000133411 -3.53489e-05
-0.000147887 4.38974e-05 4.45669e-05 -4.24271e-05
-0.00014951 4.43737e-05 4.50582e-05 -4.24272e-05
-0.000446578 0.000133586 0.00013414 -3.53489e-05
-0.000296029 8.83728e-05 8.89957e-05 -3.97714e-05
-0.000148698 4.41356e-05 4.48125e-05 -4.24271e-05
-0.000299262 8.93328e-05 8.99698e-05 -3.97716e-05
-0.000297646 8.88528e-05 8.94827e-05 -3.97715e-05
-0.000444156 0.000132863 0.000133411 -3.53489e-05
-0.000439313 0.000131419 0.000131955 -3.53488e-05
-0.000146264 4.3421e-05 4.40756e-05 -4.24269e-05
-0.000147887 4.38974e-05 4.45669e-05 -4.24271e-05
-0.000441735 0.000132141 0.000132683 -3.53489e-05
-0.000292796 8.74126e-05 8.80216e-05 -3.97713e-05
-0.000147075 4.36592e-05 4.43212e-05 -4.2427e-05
-0.000296029 8.83728e-05 8.89957e-05 -3.97714e-05
-0.000294413 8.78927e-05 8.85086e-05 -3.97714e-05
-0.000439313 0.000131419 0.000131955 -3.53488e-05
-0.000434471 0.000129975 0.000130498 -3.53488e-05
-0.000144641 4.29446e-05 4.35844e-05 -4.24267e-05
-0.000146264 4.3421e-05 4.40756e-05 -4.24269e-05
-0.000436892 0.000130697 0.000131226 -3.53488e-05
-0.000289563 8.64524e-05 8.70476e-05 -3.97712e-05
-0.000145453 4.31828e-05 4.383e-05 -4.24268e-05
-0.000292796 8.74126e-05 8.80216e-05 -3.97713e-05
-0.00029118 8.69325e-05 8.75346e-05 -3.97713e-05
-0.000434471 0.000129975 0.000130498 -3.53488e-05
-0.000429628 0.000128531 0.000129042 -3.53487e-05
-0.000143019 4.24681e-05 4.30933e-05 -4.24265e-05
-0.000144641 4.29446e-05 4.35844e-05 -4.24267e-05
-0.000432049 0.000129253 0.00012977 -3.53487e-05
-0.000286331 8.54922e-05 8.60737e-05 -3.97711e-05
-0.00014383 4.27063e-05 4.33388e-05 -4.24266e-05
-0.000289563 8.64524e-05 8.70476e-05 -3.97712e-05
-0.000287947 8.59723e-05 8.65606e-05 -3.97711e-05
-0.000429628 0.000128531 0.000129042 -3.53487e-05
-0.000424785 0.000127086 0.000127585 -3.53486e-05
-0.000141397 4.19915e-05 4.26023e-05 -4.24264e-05
-0.000143019 4.24681e-05 4.30933e-05 -4.24265e-05
-0.000427207 0.000127808 0.000128314 -3.53487e-05
-0.000283098 8.45318e-05 8.50999e-05 -3.9771e-05
-0.000142208 4.22298e-05 4.28478e-05 -4.24265e-05
-0.000286331 8.54922e-05 8.60737e-05 -3.97711e-05
-0.000284714 8.5012e-05 8.55868e-05 -3.9771e-05
-0.000424785 0.000127086 0.000127585 -3.53486e-05
-0.000419943 0.000125642 0.000126129 -3.53486e-05
-0.000139775 4.15148e-05 4.21113e-05 -4.24262e-05
-0.000141397 4.19915e-05 4.26023e-05 -4.24264e-05
-0.000422364 0.000126364 0.000126857 -3.53486e-05
-0.000279866 8.35714e-05 8.41262e-05 -3.97709e-05
-0.000140586 4.17531e-05 4.23568e-05 -4.24263e-05
-0.000283098 8.45318e-05 8.50999e-05 -3.9771e-05
-0.000281482 8.40516e-05 8.4613e-05 -3.97709e-05
-0.000419943 0.000125642 0.000126129 -3.53486e-05
-0.000415101 0.000124197 0.000124673 -3.53485e-05
-0.000138153 4.10381e-05 4.16205e-05 -4.2426e-05
-0.000139775 4.15148e-05 4.21113e-05 -4.24262e-05
-0.000417522 0.000124919 0.000125401 -3.53485e-05
-0.000276634 8.2611e-05 8.31525e-05 -3.97707e-05
-0.000138964 4.12764e-05 4.18659e-05 -4.24261e-05
-0.000279866 8.35714e-05 8.41262e-05 -3.97709e-05
-0.00027825 8.30912e-05 8.36393e-05 -3.97708e-05
-0.000415101 0.000124197 0.000124673 -3.53485e-05
-0.000410259 0.000122753 0.000123217 -3.53484e-05
-0.000136531 4.05612e-05 4.11298e-05 -4.24259e-05
-0.000138153 4.10381e-05 4.16205e-05 -4.2426e-05
-0.00041268 0.000123475 0.000123945 -3.53485e-05
-0.000273401 8.16504e-05 8.2179e-05 -3.97706e-05
-0.000137342 4.07997e-05 4.13751e-05 -4.2426e-05
-0.000276634 8.2611e-05 8.31525e-05 -3.97707e-05
-0.000275017 8.21307e-05 8.26657e-05 -3.97707e-05
-0.000410259 0.000122753 0.000123217 -3.53484e-05
-0.000405417 0.000121308 0.000121761 -3.53484e-05
-0.000134909 4.00844e-05 4.06391e-05 -4.24257e-05
-0.000136531 4.05612e-05 4.11298e-05 -4.24259e-05
-0.000407838 0.00012203 0.000122489 -3.53484e-05
-0.000270169 8.06899e-05 8.12055e-05 -3.97705e-05
-0.00013572 4.03228e-05 4.08844e-05 -4.24258e-05
-0.000273401 8.16504e-05 8.2179e-05 -3.97706e-05
-0.000271785 8.11702e-05 8.16922e-05 -3.97706e-05
-0.000405417 0.000121308 0.000121761 -3.53484e-05
-0.000400575 0.000119863 0.000120305 -3.53483e-05
-0.000133287 3.96074e-05 4.01486e-05 -4.24256e-05
-0.000134909 4.00844e-05 4.06391e-05 -4.24257e-05
-0.000402996 0.000120586 0.000121033 -3.53483e-05
-0.000266938 7.97292e-05 8.02321e-05 -3.97704e-05
-0.000134098 3.98459e-05 4.03938e-05 -4.24256e-05
-0.000270169 8.06899e-05 8.12055e-05 -3.97705e-05
-0.000268553 8.02095e-05 8.07188e-05 -3.97705e-05
-0.000400575 0.000119863 0.000120305 -3.53483e-05
-0.000395733 0.000118419 0.000118849 -3.53483e-05
-0.000131666 3.91304e-05 3.96581e-05 -4.24254e-05
-0.000133287 3.96074e-05 4.01486e-05 -4.24256e-05
-0.000398154 0.000119141 0.000119577 -3.53483e-05
-0.000263706 7.87685e-05 7.92589e-05 -3.97703e-05
-0.000132477 3.93689e-05 3.99033e-05 -4.24255e-05
-0.000266938 7.97292e-05 8.02321e-05 -3.97704e-05
-0.000265322 7.92489e-05 7.97455e-05 -3.97704e-05
-0.000395733 0.000118419 0.000118849 -3.53483e-05
-0.000390892 0.000116974 0.000117393 -3.53482e-05
-0.000130045 3.86533e-05 3.91677e-05 -4.24252e-05
-0.000131666 3.91304e-05 3.96581e-05 -4.24254e-05
-0.000393313 0.000117696 0.000118121 -3.53482e-05
-0.000260474 7.78077e-05 7.82857e-05 -3.97702e-05
-0.000130855 3.88918e-05 3.94129e-05 -4.24253e-05
-0.000263706 7.87685e-05 7.92589e-05 -3.97703e-05
-0.00026209 7.82881e-05 7.87723e-05 -3.97702e-05
-0.000390892 0.000116974 0.000117393 -3.53482e-05
-0.00038605 0.000115529 0.000115938 -3.53482e-05
-0.000128423 3.81761e-05 3.86774e-05 -4.24251e-05
-0.000130045 3.86533e-05 3.91677e-05 -4.24252e-05
-0.000388471 0.000116252 0.000116666 -3.53482e-05
-0.000257243 7.68469e-05 7.73126e-05 -3.97701e-05
-0.000129234 3.84147e-05 3.89226e-05 -4.24252e-05
-0.000260474 7.78077e-05 7.82857e-05 -3.97702e-05
-0.000258859 7.73273e-05 7.77991e-05 -3.97701e-05
-0.00038605 0.000115529 0.000115938 -3.53482e-05
-0.000381209 0.000114084 0.000114482 -3.53481e-05
-0.000126802 3.76989e-05 3.81872e-05 -4.24249e-05
-0.000128423 3.81761e-05 3.86774e-05 -4.24251e-05
-0.00038363 0.000114807 0.00011521 -3.53481e-05
-0.000254012 7.58859e-05 7.63395e-05 -3.977e-05
-0.000127613 3.79375e-05 3.84323e-05 -4.2425e-05
-0.000257243 7.68469e-05 7.73126e-05 -3.97701e-05
-0.000255627 7.63664e-05 7.6826e-05 -3.977e-05
-0.000381209 0.000114084 0.000114482 -3.53481e-05
-0.000376368 0.000112639 0.000113027 -3.5348e-05
-0.000125181 3.72215e-05 3.76971e-05 -4.24248e-05
-0.000126802 3.76989e-05 3.81872e-05 -4.24249e-05
-0.000378789 0.000113362 0.000113754 -3.53481e-05
-0.00025078 7.4925e-05 7.53666e-05 -3.97699e-05
-0.000125992 3.74602e-05 3.79422e-05 -4.24248e-05
-0.000254012 7.58859e-05 7.63395e-05 -3.977e-05
-0.000252396 7.54055e-05 7.58531e-05 -3.97699e-05
-0.000376368 0.000112639 0.000113027 -3.5348e-05
-0.000371527 0.000111194 0.000111571 -3.5348e-05
-0.000123561 3.67441e-05 3.72071e-05 -4.24246e-05
-0.000125181 3.72215e-05 3.76971e-05 -4.24248e-05
-0.000373948 0.000111917 0.000112299 -3.5348e-05
-0.000247549 7.39639e-05 7.43938e-05 -3.97698e-05
-0.000124371 3.69829e-05 3.74521e-05 -4.24247e-05
-0.00025078 7.4925e-05 7.53666e-05 -3.97699e-05
-0.000249165 7.44444e-05 7.48802e-05 -3.97698e-05
-0.000371527 0.000111194 0.000111571 -3.5348e-05
-0.000366686 0.000109749 0.000110116 -3.53479e-05
-0.00012194 3.62667e-05 3.67172e-05 -4.24245e-05
-0.000123561 3.67441e-05 3.72071e-05 -4.24246e-05
-0.000369107 0.000110472 0.000110843 -3.5348e-05
-0.000244318 7.30028e-05 7.3421e-05 -3.97697e-05
-0.00012275 3.65054e-05 3.69621e-05 -4.24245e-05
-0.000247549 7.39639e-05 7.43938e-05 -3.97698e-05
-0.000245934 7.34834e-05 7.39074e-05 -3.97697e-05
-0.000366686 0.000109749 0.000110116 -3.53479e-05
-0.000361846 0.000108304 0.000108661 -3.53479e-05
-0.00012032 3.57891e-05 3.62273e-05 -4.24243e-05
-0.00012194 3.62667e-05 3.67172e-05 -4.24245e-05
-0.000364266 0.000109027 0.000109388 -3.53479e-05
-0.000241088 7.20416e-05 7.24483e-05 -3.97696e-05
-0.00012113 3.60279e-05 3.64722e-05 -4.24244e-05
-0.000244318 7.30028e-05 7.3421e-05 -3.97697e-05
-0.000242703 7.25222e-05 7.29346e-05 -3.97696e-05
-0.000361846 0.000108304 0.000108661 -3.53479e-05
-0.000357005 0.000106859 0.000107205 -3.53478e-05
-0.000118699 3.53115e-05 3.57376e-05 -4.24242e-05
-0.00012032 3.57891e-05 3.62273e-05 -4.24243e-05
-0.000359425 0.000107582 0.000107933 -3.53479e-05
-0.000237857 7.10804e-05 7.14757e-05 -3.97695e-05
-0.000119509 3.55504e-05 3.59824e-05 -4.24242e-05
-0.000241088 7.20416e-05 7.24483e-05 -3.97696e-05
-0.000239472 7.1561e-05 7.1962e-05 -3.97695e-05
-0.000357005 0.000106859 0.000107205 -3.53478e-05
-0.000352165 0.000105414 0.00010575 -3.53478e-05
-0.000117079 3.48339e-05 3.52479e-05 -4.2424e-05
-0.000118699 3.53115e-05 3.57376e-05 -4.24242e-05
-0.000354585 0.000106137 0.000106478 -3.53478e-05
-0.000234627 7.01191e-05 7.05032e-05 -3.97694e-05
-0.000117889 3.50727e-05 3.54927e-05 -4.24241e-05
-0.000237857 7.10804e-05 7.14757e-05 -3.97695e-05
-0.000236242 7.05998e-05 7.09895e-05 -3.97694e-05
-0.000352165 0.000105414 0.00010575 -3.53478e-05
-0.000347324 0.000103969 0.000104295 -3.53478e-05
-0.000115459 3.43561e-05 3.47583e-05 -4.24239e-05
-0.000117079 3.48339e-05 3.52479e-05 -4.2424e-05
-0.000349744 0.000104691 0.000105023 -3.53478e-05
-0.000231396 6.91577e-05 6.95308e-05 -3.97693e-05
-0.000116269 3.4595e-05 3.50031e-05 -4.24239e-05
-0.000234627 7.01191e-05 7.05032e-05 -3.97694e-05
-0.000233011 6.96384e-05 7.0017e-05 -3.97694e-05
-0.000347324 0.000103969 0.000104295 -3.53478e-05
-0.000342484 0.000102523 0.00010284 -3.53477e-05
-0.000113839 3.38783e-05 3.42689e-05 -4.24237e-05
-0.000115459 3.43561e-05 3.47583e-05 -4.24239e-05
-0.000344904 0.000103246 0.000103568 -3.53477e-05
-0.000228166 6.81963e-05 6.85585e-05 -3.97692e-05
-0.000114649 3.41172e-05 3.45136e-05 -4.24238e-05
-0.000231396 6.91577e-05 6.95308e-05 -3.97693e-05
-0.000229781 6.8677e-05 6.90447e-05 -3.97693e-05
-0.000342484 0.000102523 0.00010284 -3.53477e-05
-0.000337644 0.000101078 0.000101385 -3.53477e-05
-0.000112219 3.34004e-05 3.37795e-05 -4.24236e-05
-0.000113839 3.38783e-05 3.42689e-05 -4.24237e-05
-0.000340064 0.000101801 0.000102113 -3.53477e-05
-0.000224936 6.72348e-05 6.75863e-05 -3.97691e-05
-0.000113029 3.36393e-05 3.40242e-05 -4.24237e-05
-0.000228166 6.81963e-05 6.85585e-05 -3.97692e-05
-0.000226551 6.77156e-05 6.80724e-05 -3.97692e-05
-0.000337644 0.000101078 0.000101385 -3.53477e-05
-0.000332804 9.96327e-05 9.99307e-05 -3.53476e-05
-0.000110599 3.29224e-05 3.32902e-05 -4.24235e-05
-0.000112219 3.34004e-05 3.37795e-05 -4.24236e-05
-0.000335224 0.000100355 0.000100658 -3.53477e-05
-0.000221706 6.62732e-05 6.66141e-05 -3.9769e-05
-0.000111409 3.31614e-05 3.35348e-05 -4.24235e-05
-0.000224936 6.72348e-05 6.75863e-05 -3.97691e-05
-0.000223321 6.6754e-05 6.71002e-05 -3.97691e-05
-0.000332804 9.96327e-05 9.99307e-05 -3.53476e-05
-0.000327964 9.81872e-05 9.8476e-05 -3.53476e-05
-0.00010898 3.24443e-05 3.2801e-05 -4.24233e-05
-0.000110599 3.29224e-05 3.32902e-05 -4.24235e-05
-0.000330384 9.89099e-05 9.92033e-05 -3.53476e-05
-0.000218476 6.53116e-05 6.56421e-05 -3.9769e-05
-0.00010979 3.26834e-05 3.30456e-05 -4.24234e-05
-0.000221706 6.62732e-05 6.66141e-05 -3.9769e-05
-0.000220091 6.57924e-05 6.61281e-05 -3.9769e-05
-0.000327964 9.81872e-05 9.8476e-05 -3.53476e-05
-0.000323125 9.67417e-05 9.70214e-05 -3.53476e-05
-0.000107361 3.19662e-05 3.23118e-05 -4.24232e-05
-0.00010898 3.24443e-05 3.2801e-05 -4.24233e-05
-0.000325545 9.74644e-05 9.77487e-05 -3.53476e-05
-0.000215247 6.43499e-05 6.46701e-05 -3.97689e-05
-0.00010817 3.22053e-05 3.25564e-05 -4.24233e-05
-0.000218476 6.53116e-05 6.56421e-05 -3.9769e-05
-0.000216862 6.48308e-05 6.51561e-05 -3.97689e-05
-0.000323125 9.67417e-05 9.70214e-05 -3.53476e-05
-0.000318285 9.52961e-05 9.55668e-05 -3.53475e-05
-0.000105741 3.1488e-05 3.18228e-05 -4.24231e-05
-0.000107361 3.19662e-05 3.23118e-05 -4.24232e-05
-0.000320705 9.60189e-05 9.62941e-05 -3.53475e-05
-0.000212017 6.33881e-05 6.36982e-05 -3.97688e-05
-0.000106551 3.17271e-05 3.20673e-05 -4.24231e-05
-0.000215247 6.43499e-05 6.46701e-05 -3.97689e-05
-0.000213632 6.3869e-05 6.41842e-05 -3.97688e-05
-0.000318285 9.52961e-05 9.55668e-05 -3.53475e-05
-0.000313446 9.38505e-05 9.41124e-05 -3.53475e-05
-0.000104122 3.10098e-05 3.13339e-05 -4.24229e-05
-0.000105741 3.1488e-05 3.18228e-05 -4.24231e-05
-0.000315866 9.45733e-05 9.48396e-05 -3.53475e-05
-0.000208788 6.24263e-05 6.27264e-05 -3.97687e-05
-0.000104932 3.12489e-05 3.15783e-05 -4.2423e-05
-0.000212017 6.33881e-05 6.36982e-05 -3.97688e-05
-0.000210403 6.29072e-05 6.32123e-05 -3.97688e-05
-0.000313446 9.38505e-05 9.41124e-05 -3.53475e-05
-0.000308607 9.24048e-05 9.2658e-05 -3.53475e-05
-0.000102503 3.05314e-05 3.0845e-05 -4.24228e-05
-0.000104122 3.10098e-05 3.13339e-05 -4.24229e-05
-0.000311026 9.31277e-05 9.33852e-05 -3.53475e-05
-0.000205559 6.14644e-05 6.17547e-05 -3.97686e-05
-0.000103313 3.07706e-05 3.10894e-05 -4.24229e-05
-0.000208788 6.24263e-05 6.27264e-05 -3.97687e-05
-0.000207173 6.19454e-05 6.22406e-05 -3.97687e-05
-0.000308607 9.24048e-05 9.2658e-05 -3.53475e-05
-0.000303768 9.09591e-05 9.12037e-05 -3.53474e-05
-0.000100884 3.0053e-05 3.03563e-05 -4.24227e-05
-0.000102503 3.05314e-05 3.0845e-05 -4.24228e-05
-0.000306187 9.1682e-05 9.19309e-05 -3.53474e-05
-0.00020233 6.05025e-05 6.07831e-05 -3.97686e-05
-0.000101694 3.02922e-05 3.06006e-05 -4.24227e-05
-0.000205559 6.14644e-05 6.17547e-05 -3.97686e-05
-0.000203944 6.09835e-05 6.12689e-05 -3.97686e-05
-0.000303768 9.09591e-05 9.12037e-05 -3.53474e-05
-0.000298929 8.95133e-05 8.97495e-05 -3.53474e-05
-9.92656e-05 2.95745e-05 2.98676e-05 -4.24225e-05
-0.000100884 3.0053e-05 3.03563e-05 -4.24227e-05
-0.000301348 9.02362e-05 9.04766e-05 -3.53474e-05
-0.000199101 5.95404e-05 5.98116e-05 -3.97685e-05
-0.000100075 2.98138e-05 3.01119e-05 -4.24226e-05
-0.00020233 6.05025e-05 6.07831e-05 -3.97686e-05
-0.000200715 6.00215e-05 6.02973e-05 -3.97685e-05
-0.000298929 8.95133e-05 8.97495e-05 -3.53474e-05
-0.00029409 8.80675e-05 8.82954e-05 -3.53474e-05
-9.7647e-05 2.9096e-05 2.9379e-05 -4.24224e-05
-9.92656e-05 2.95745e-05 2.98676e-05 -4.24225e-05
-0.000296509 8.87904e-05 8.90225e-05 -3.53474e-05
-0.000195872 5.85784e-05 5.88401e-05 -3.97684e-05
-9.84563e-05 2.93353e-05 2.96233e-05 -4.24225e-05
-0.000199101 5.95404e-05 5.98116e-05 -3.97685e-05
-0.000197486 5.90594e-05 5.93258e-05 -3.97684e-05
-0.00029409 8.80675e-05 8.82954e-05 -3.53474e-05
-0.000289251 8.66216e-05 8.68414e-05 -3.53474e-05
-9.60286e-05 2.86173e-05 2.88905e-05 -4.24223e-05
-9.7647e-05 2.9096e-05 2.9379e-05 -4.24224e-05
-0.000291671 8.73445e-05 8.75684e-05 -3.53474e-05
-0.000192643 5.76162e-05 5.78688e-05 -3.97683e-05
-9.68378e-05 2.88567e-05 2.91348e-05 -4.24224e-05
-0.000195872 5.85784e-05 5.88401e-05 -3.97684e-05
-0.000194258 5.80973e-05 5.83544e-05 -3.97684e-05
-0.000289251 8.66216e-05 8.68414e-05 -3.53474e-05
-0.000284413 8.51756e-05 8.53874e-05 -3.53473e-05
-9.44103e-05 2.81386e-05 2.84021e-05 -4.24222e-05
-9.60286e-05 2.86173e-05 2.88905e-05 -4.24223e-05
-0.000286832 8.58986e-05 8.61144e-05 -3.53473e-05
-0.000189415 5.6654e-05 5.68975e-05 -3.97683e-05
-9.52194e-05 2.8378e-05 2.86463e-05 -4.24222e-05
-0.000192643 5.76162e-05 5.78688e-05 -3.97683e-05
-0.000191029 5.71351e-05 5.73831e-05 -3.97683e-05
-0.000284413 8.51756e-05 8.53874e-05 -3.53473e-05
-0.000279575 8.37296e-05 8.39336e-05 -3.53473e-05
-9.27921e-05 2.76599e-05 2.79138e-05 -4.24221e-05
-9.44103e-05 2.81386e-05 2.84021e-05 -4.24222e-05
-0.000281994 8.44526e-05 8.46605e-05 -3.53473e-05
-0.000186186 5.56917e-05 5.59263e-05 -3.97682e-05
-9.36012e-05 2.78992e-05 2.8158e-05 -4.24221e-05
-0.000189415 5.6654e-05 5.68975e-05 -3.97683e-05
-0.000187801 5.61728e-05 5.64119e-05 -3.97682e-05
-0.000279575 8.37296e-05 8.39336e-05 -3.53473e-05
-0.000274736 8.22835e-05 8.24798e-05 -3.53473e-05
-9.11741e-05 2.7181e-05 2.74256e-05 -4.2422e-05
-9.27921e-05 2.76599e-05 2.79138e-05 -4.24221e-05
-0.000277155 8.30066e-05 8.32066e-05 -3.53473e-05
-0.000182958 5.47293e-05 5.49552e-05 -3.97681e-05
-9.19831e-05 2.74204e-05 2.76697e-05 -4.2422e-05
-0.000186186 5.56917e-05 5.59263e-05 -3.97682e-05
-0.000184572 5.52105e-05 5.54408e-05 -3.97682e-05
-0.000274736 8.22835e-05 8.24798e-05 -3.53473e-05
-0.000269898 8.08374e-05 8.1026e-05 -3.53473e-05
-8.95562e-05 2.67021e-05 2.69375e-05 -4.24218e-05
-9.11741e-05 2.7181e-05 2.74256e-05 -4.2422e-05
-0.000272317 8.15605e-05 8.17529e-05 -3.53473e-05
-0.00017973 5.37669e-05 5.39842e-05 -3.97681e-05
-9.03651e-05 2.69415e-05 2.71815e-05 -4.24219e-05
-0.000182958 5.47293e-05 5.49552e-05 -3.97681e-05
-0.000181344 5.42481e-05 5.44697e-05 -3.97681e-05
-0.000269898 8.08374e-05 8.1026e-05 -3.53473e-05
-0.00026506 7.93912e-05 7.95724e-05 -3.53473e-05
-8.79384e-05 2.62231e-05 2.64494e-05 -4.24217e-05
-8.95562e-05 2.67021e-05 2.69375e-05 -4.24218e-05
-0.000267479 8.01143e-05 8.02992e-05 -3.53473e-05
-0.000176502 5.28044e-05 5.30133e-05 -3.9768e-05
-8.87473e-05 2.64626e-05 2.66934e-05 -4.24218e-05
-0.00017973 5.37669e-05 5.39842e-05 -3.97681e-05
-0.000178116 5.32857e-05 5.34987e-05 -3.97681e-05
-0.00026506 7.93912e-05 7.95724e-05 -3.53473e-05
-0.000260222 7.7945e-05 7.81189e-05 -3.53473e-05
-8.63208e-05 2.5744e-05 2.59615e-05 -4.24216e-05
-8.79384e-05 2.62231e-05 2.64494e-05 -4.24217e-05
-0.000262641 7.86681e-05 7.88456e-05 -3.53473e-05
-0.000173274 5.18419e-05 5.20425e-05 -3.9768e-05
-8.71296e-05 2.59835e-05 2.62054e-05 -4.24217e-05
-0.000176502 5.28044e-05 5.30133e-05 -3.9768e-05
-0.000174888 5.23232e-05 5.25279e-05 -3.9768e-05
-0.000260222 7.7945e-05 7.81189e-05 -3.53473e-05
-0.000255385 7.64987e-05 7.66654e-05 -3.53472e-05
-8.47033e-05 2.52649e-05 2.54736e-05 -4.24215e-05
-8.63208e-05 2.5744e-05 2.59615e-05 -4.24216e-05
-0.000257803 7.72219e-05 7.73921e-05 -3.53472e-05
-0.000170047 5.08793e-05 5.10717e-05 -3.97679e-05
-8.5512e-05 2.55044e-05 2.57175e-05 -4.24216e-05
-0.000173274 5.18419e-05 5.20425e-05 -3.9768e-05
-0.00017166 5.13606e-05 5.15571e-05 -3.97679e-05
-0.000255385 7.64987e-05 7.66654e-05 -3.53472e-05
-0.000250547 7.50524e-05 7.5212e-05 -3.53472e-05
-8.3086e-05 2.47856e-05 2.49859e-05 -4.24214e-05
-8.47033e-05 2.52649e-05 2.54736e-05 -4.24215e-05
-0.000252966 7.57756e-05 7.59387e-05 -3.53472e-05
-0.000166819 4.99166e-05 5.0101e-05 -3.97679e-05
-8.38946e-05 2.50253e-05 2.52297e-05 -4.24215e-05
-0.000170047 5.08793e-05 5.10717e-05 -3.97679e-05
-0.000168433 5.03979e-05 5.05864e-05 -3.97679e-05
-0.000250547 7.50524e-05 7.5212e-05 -3.53472e-05
-0.00024571 7.3606e-05 7.37587e-05 -3.53472e-05
-8.14688e-05 2.43063e-05 2.44982e-05 -4.24213e-05
-8.3086e-05 2.47856e-05 2.49859e-05 -4.24214e-05
-0.000248128 7.43292e-05 7.44853e-05 -3.53472e-05
-0.000163592 4.89538e-05 4.91305e-05 -3.97678e-05
-8.22773e-05 2.4546e-05 2.4742e-05 -4.24214e-05
-0.000166819 4.99166e-05 5.0101e-05 -3.97679e-05
-0.000165205 4.94352e-05 4.96157e-05 -3.97678e-05
-0.00024571 7.3606e-05 7.37587e-05 -3.53472e-05
-0.000240872 7.21596e-05 7.23054e-05 -3.53472e-05
-7.98517e-05 2.3827e-05 2.40106e-05 -4.24212e-05
-8.14688e-05 2.43063e-05 2.44982e-05 -4.24213e-05
-0.000243291 7.28828e-05 7.30321e-05 -3.53472e-05
-0.000160364 4.7991e-05 4.816e-05 -3.97678e-05
-8.06602e-05 2.40667e-05 2.42544e-05 -4.24213e-05
-0.000163592 4.89538e-05 4.91305e-05 -3.97678e-05
-0.000161978 4.84724e-05 4.86452e-05 -3.97678e-05
-0.000240872 7.21596e-05 7.23054e-05 -3.53472e-05
-0.000236035 7.0713e-05 7.08523e-05 -3.53472e-05
-7.82347e-05 2.33475e-05 2.35231e-05 -4.24211e-05
-7.98517e-05 2.3827e-05 2.40106e-05 -4.24212e-05
-0.000238454 7.14363e-05 7.15789e-05 -3.53472e-05
-0.000157137 4.70281e-05 4.71896e-05 -3.97677e-05
-7.90432e-05 2.35873e-05 2.37668e-05 -4.24212e-05
-0.000160364 4.7991e-05 4.816e-05 -3.97678e-05
-0.000158751 4.75096e-05 4.76748e-05 -3.97677e-05
-0.000236035 7.0713e-05 7.08523e-05 -3.53472e-05
-0.000231198 6.92665e-05 6.93992e-05 -3.53472e-05
-7.66179e-05 2.2868e-05 2.30357e-05 -4.2421e-05
-7.82347e-05 2.33475e-05 2.35231e-05 -4.24211e-05
-0.000233617 6.99898e-05 7.01258e-05 -3.53472e-05
-0.00015391 4.60652e-05 4.62193e-05 -3.97677e-05
-7.74263e-05 2.31078e-05 2.32794e-05 -4.24211e-05
-0.000157137 4.70281e-05 4.71896e-05 -3.97677e-05
-0.000155524 4.65467e-05 4.67044e-05 -3.97677e-05
-0.000231198 6.92665e-05 6.93992e-05 -3.53472e-05
-0.000226361 6.78199e-05 6.79462e-05 -3.53472e-05
-7.50013e-05 2.23884e-05 2.25484e-05 -4.24209e-05
-7.66179e-05 2.2868e-05 2.30357e-05 -4.2421e-05
-0.00022878 6.85432e-05 6.86727e-05 -3.53472e-05
-0.000150683 4.51022e-05 4.5249e-05 -3.97676e-05
-7.58096e-05 2.26282e-05 2.2792e-05 -4.2421e-05
-0.00015391 4.60652e-05 4.62193e-05 -3.97677e-05
-0.000152297 4.55837e-05 4.57341e-05 -3.97676e-05
-0.000226361 6.78199e-05 6.79462e-05 -3.53472e-05
-0.000221524 6.63732e-05 6.64933e-05 -3.53472e-05
-7.33847e-05 2.19088e-05 2.20611e-05 -4.24209e-05
-7.50013e-05 2.23884e-05 2.25484e-05 -4.24209e-05
-0.000223943 6.70965e-05 6.72198e-05 -3.53472e-05
-0.000147457 4.41391e-05 4.42789e-05 -3.97676e-05
-7.4193e-05 2.21486e-05 2.23047e-05 -4.24209e-05
-0.000150683 4.51022e-05 4.5249e-05 -3.97676e-05
-0.00014907 4.46206e-05 4.4764e-05 -3.97676e-05
-0.000221524 6.63732e-05 6.64933e-05 -3.53472e-05
-0.000216688 6.49265e-05 6.50405e-05 -3.53472e-05
-7.17683e-05 2.1429e-05 2.1574e-05 -4.24208e-05
-7.33847e-05 2.19088e-05 2.20611e-05 -4.24209e-05
-0.000219106 6.56498e-05 6.57669e-05 -3.53472e-05
-0.00014423 4.31759e-05 4.33088e-05 -3.97676e-05
-7.25765e-05 2.16689e-05 2.18175e-05 -4.24208e-05
-0.000147457 4.41391e-05 4.42789e-05 -3.97676e-05
-0.000145843 4.36575e-05 4.37939e-05 -3.97676e-05
-0.000216688 6.49265e-05 6.50405e-05 -3.53472e-05
-0.000211851 6.34797e-05 6.35878e-05 -3.53472e-05
-7.01521e-05 2.09492e-05 2.10869e-05 -4.24207e-05
-7.17683e-05 2.1429e-05 2.1574e-05 -4.24208e-05
-0.000214269 6.42031e-05 6.43141e-05 -3.53472e-05
-0.000141003 4.22127e-05 4.23389e-05 -3.97675e-05
-7.09602e-05 2.11891e-05 2.13304e-05 -4.24207e-05
-0.00014423 4.31759e-05 4.33088e-05 -3.97676e-05
-0.000142617 4.26943e-05 4.28238e-05 -3.97675e-05
-0.000211851 6.34797e-05 6.35878e-05 -3.53472e-05
-0.000207015 6.20328e-05 6.21351e-05 -3.53472e-05
-6.85359e-05 2.04693e-05 2.06e-05 -4.24206e-05
-7.01521e-05 2.09492e-05 2.10869e-05 -4.24207e-05
-0.000209433 6.27563e-05 6.28614e-05 -3.53472e-05
-0.000137777 4.12494e-05 4.1369e-05 -3.97675e-05
-6.9344e-05 2.07093e-05 2.08434e-05 -4.24207e-05
-0.000141003 4.22127e-05 4.23389e-05 -3.97675e-05
-0.00013939 4.17311e-05 4.18539e-05 -3.97675e-05
-0.000207015 6.20328e-05 6.21351e-05 -3.53472e-05
-0.000202178 6.05859e-05 6.06825e-05 -3.53473e-05
-6.69199e-05 1.99894e-05 2.01131e-05 -4.24205e-05
-6.85359e-05 2.04693e-05 2.06e-05 -4.24206e-05
-0.000204597 6.13094e-05 6.14088e-05 -3.53472e-05
-0.000134551 4.02861e-05 4.03992e-05 -3.97675e-05
-6.77279e-05 2.02294e-05 2.03565e-05 -4.24206e-05
-0.000137777 4.12494e-05 4.1369e-05 -3.97675e-05
-0.000136164 4.07678e-05 4.08841e-05 -3.97675e-05
-0.000202178 6.05859e-05 6.06825e-05 -3.53473e-05
-0.000197342 5.9139e-05 5.923e-05 -3.53473e-05
-6.53041e-05 1.95094e-05 1.96263e-05 -4.24205e-05
-6.69199e-05 1.99894e-05 2.01131e-05 -4.24205e-05
-0.00019976 5.98625e-05 5.99562e-05 -3.53473e-05
-0.000131325 3.93227e-05 3.94295e-05 -3.97674e-05
-6.6112e-05 1.97494e-05 1.98697e-05 -4.24205e-05
-0.000134551 4.02861e-05 4.03992e-05 -3.97675e-05
-0.000132938 3.98044e-05 3.99143e-05 -3.97674e-05
-0.000197342 5.9139e-05 5.923e-05 -3.53473e-05
-0.000192506 5.7692e-05 5.77776e-05 -3.53473e-05
-6.36884e-05 1.90292e-05 1.91396e-05 -4.24204e-05
-6.53041e-05 1.95094e-05 1.96263e-05 -4.24205e-05
-0.000194924 5.84155e-05 5.85038e-05 -3.53473e-05
-0.000128099 3.83592e-05 3.84599e-05 -3.97674e-05
-6.44962e-05 1.92693e-05 1.9383e-05 -4.24204e-05
-0.000131325 3.93227e-05 3.94295e-05 -3.97674e-05
-0.000129712 3.88409e-05 3.89447e-05 -3.97674e-05
-0.000192506 5.7692e-05 5.77776e-05 -3.53473e-05
-0.00018767 5.62449e-05 5.63252e-05 -3.53473e-05
-6.20728e-05 1.85491e-05 1.8653e-05 -4.24203e-05
-6.36884e-05 1.90292e-05 1.91396e-05 -4.24204e-05
-0.000190088 5.69684e-05 5.70514e-05 -3.53473e-05
-0.000124873 3.73956e-05 3.74903e-05 -3.97674e-05
-6.28805e-05 1.87892e-05 1.88963e-05 -4.24204e-05
-0.000128099 3.83592e-05 3.84599e-05 -3.97674e-05
-0.000126486 3.78774e-05 3.79751e-05 -3.97674e-05
-0.00018767 5.62449e-05 5.63252e-05 -3.53473e-05
-0.000182835 5.47978e-05 5.48729e-05 -3.53473e-05
-6.04573e-05 1.80688e-05 1.81665e-05 -4.24203e-05
-6.20728e-05 1.85491e-05 1.8653e-05 -4.24203e-05
-0.000185253 5.55213e-05 5.55991e-05 -3.53473e-05
-0.000121647 3.6432e-05 3.65209e-05 -3.97674e-05
-6.1265e-05 1.83089e-05 1.84097e-05 -4.24203e-05
-0.000124873 3.73956e-05 3.74903e-05 -3.97674e-05
-0.00012326 3.69138e-05 3.70056e-05 -3.97674e-05
-0.000182835 5.47978e-05 5.48729e-05 -3.53473e-05
-0.000177999 5.33506e-05 5.34208e-05 -3.53473e-05
-5.8842e-05 1.75885e-05 1.76801e-05 -4.24202e-05
-6.04573e-05 1.80688e-05 1.81665e-05 -4.24203e-05
-0.000180417 5.40742e-05 5.41468e-05 -3.53473e-05
-0.000118422 3.54683e-05 3.55515e-05 -3.97673e-05
-5.96496e-05 1.78287e-05 1.79233e-05 -4.24202e-05
-0.000121647 3.6432e-05 3.65209e-05 -3.97674e-05
-0.000120035 3.59502e-05 3.60362e-05 -3.97674e-05
-0.000177999 5.33506e-05 5.34208e-05 -3.53473e-05
-0.000173164 5.19033e-05 5.19686e-05 -3.53474e-05
-5.72268e-05 1.71081e-05 1.71937e-05 -4.24201e-05
-5.8842e-05 1.75885e-05 1.76801e-05 -4.24202e-05
-0.000175581 5.2627e-05 5.26947e-05 -3.53474e-05
-0.000115196 3.45046e-05 3.45822e-05 -3.97673e-05
-5.80344e-05 1.73483e-05 1.74369e-05 -4.24202e-05
-0.000118422 3.54683e-05 3.55515e-05 -3.97673e-05
-0.000116809 3.49864e-05 3.50669e-05 -3.97673e-05
-0.000173164 5.19033e-05 5.19686e-05 -3.53474e-05
-0.000168328 5.0456e-05 5.05166e-05 -3.53474e-05
-5.56118e-05 1.66276e-05 1.67075e-05 -4.24201e-05
-5.72268e-05 1.71081e-05 1.71937e-05 -4.24201e-05
-0.000170746 5.11797e-05 5.12426e-05 -3.53474e-05
-0.000111971 3.35407e-05 3.3613e-05 -3.97673e-05
-5.64193e-05 1.68679e-05 1.69506e-05 -4.24201e-05
-0.000115196 3.45046e-05 3.45822e-05 -3.97673e-05
-0.000113584 3.40227e-05 3.40976e-05 -3.97673e-05
-0.000168328 5.0456e-05 5.05166e-05 -3.53474e-05
-0.000163493 4.90087e-05 4.90647e-05 -3.53474e-05
-5.39968e-05 1.61471e-05 1.62213e-05 -4.242e-05
-5.56118e-05 1.66276e-05 1.67075e-05 -4.24201e-05
-0.000165911 4.97324e-05 4.97906e-05 -3.53474e-05
-0.000108746 3.25768e-05 3.26439e-05 -3.97673e-05
-5.48043e-05 1.63873e-05 1.64644e-05 -4.242e-05
-0.000111971 3.35407e-05 3.3613e-05 -3.97673e-05
-0.000110359 3.30588e-05 3.31285e-05 -3.97673e-05
-0.000163493 4.90087e-05 4.90647e-05 -3.53474e-05
-0.000158658 4.75613e-05 4.76128e-05 -3.53475e-05
-5.23821e-05 1.56664e-05 1.57353e-05 -4.242e-05
-5.39968e-05 1.61471e-05 1.62213e-05 -4.242e-05
-0.000161075 4.8285e-05 4.83387e-05 -3.53474e-05
-0.000105521 3.16129e-05 3.16749e-05 -3.97673e-05
-5.31894e-05 1.59068e-05 1.59783e-05 -4.242e-05
-0.000108746 3.25768e-05 3.26439e-05 -3.97673e-05
-0.000107133 3.20949e-05 3.21594e-05 -3.97673e-05
-0.000158658 4.75613e-05 4.76128e-05 -3.53475e-05
-0.000153823 4.61138e-05 4.6161e-05 -3.53475e-05
-5.07674e-05 1.51857e-05 1.52493e-05 -4.24199e-05
-5.23821e-05 1.56664e-05 1.57353e-05 -4.242e-05
-0.00015624 4.68375e-05 4.68869e-05 -3.53475e-05
-0.000102296 3.06489e-05 3.0706e-05 -3.97673e-05
-5.15747e-05 1.54261e-05 1.54923e-05 -4.24199e-05
-0.000105521 3.16129e-05 3.16749e-05 -3.97673e-05
-0.000103909 3.11309e-05 3.11904e-05 -3.97673e-05
-0.000153823 4.61138e-05 4.6161e-05 -3.53475e-05
-0.000148988 4.46663e-05 4.47093e-05 -3.53475e-05
-4.91529e-05 1.47049e-05 1.47634e-05 -4.24199e-05
-5.07674e-05 1.51857e-05 1.52493e-05 -4.24199e-05
-0.000151405 4.539e-05 4.54351e-05 -3.53475e-05
-9.90714e-05 2.96848e-05 2.97371e-05 -3.97673e-05
-4.99601e-05 1.49453e-05 1.50063e-05 -4.24199e-05
-0.000102296 3.06489e-05 3.0706e-05 -3.97673e-05
-0.000100684 3.01668e-05 3.02215e-05 -3.97673e-05
-0.000148988 4.46663e-05 4.47093e-05 -3.53475e-05
-0.000144153 4.32187e-05 4.32577e-05 -3.53476e-05
-4.75385e-05 1.42241e-05 1.42776e-05 -4.24198e-05
-4.91529e-05 1.47049e-05 1.47634e-05 -4.24199e-05
-0.000146571 4.39425e-05 4.39835e-05 -3.53475e-05
-9.58467e-05 2.87206e-05 2.87684e-05 -3.97673e-05
-4.83457e-05 1.44645e-05 1.45205e-05 -4.24198e-05
-9.90714e-05 2.96848e-05 2.97371e-05 -3.97673e-05
-9.7459e-05 2.92027e-05 2.92527e-05 -3.97673e-05
-0.000144153 4.32187e-05 4.32577e-05 -3.53476e-05
-0.000139319 4.1771e-05 4.18061e-05 -3.53476e-05
-4.59242e-05 1.37432e-05 1.37919e-05 -4.24198e-05
-4.75385e-05 1.42241e-05 1.42776e-05 -4.24198e-05
-0.000141736 4.24949e-05 4.25319e-05 -3.53476e-05
-9.26223e-05 2.77563e-05 2.77997e-05 -3.97673e-05
-4.67314e-05 1.39836e-05 1.40347e-05 -4.24198e-05
-9.58467e-05 2.87206e-05 2.87684e-05 -3.97673e-05
-9.42345e-05 2.82385e-05 2.8284e-05 -3.97673e-05
-0.000139319 4.1771e-05 4.18061e-05 -3.53476e-05
-0.000134484 4.03233e-05 4.03546e-05 -3.53476e-05
-4.43101e-05 1.32621e-05 1.33063e-05 -4.24197e-05
-4.59242e-05 1.37432e-05 1.37919e-05 -4.24198e-05
-0.000136901 4.10472e-05 4.10804e-05 -3.53476e-05
-8.93979e-05 2.6792e-05 2.68311e-05 -3.97673e-05
-4.51172e-05 1.35027e-05 1.35491e-05 -4.24197e-05
-9.26223e-05 2.77563e-05 2.77997e-05 -3.97673e-05
-9.10101e-05 2.72742e-05 2.73154e-05 -3.97673e-05
-0.000134484 4.03233e-05 4.03546e-05 -3.53476e-05
-0.00012965 3.88755e-05 3.89032e-05 -3.53476e-05
-4.26961e-05 1.2781e-05 1.28207e-05 -4.24197e-05
-4.43101e-05 1.32621e-05 1.33063e-05 -4.24197e-05
-0.000132067 3.95994e-05 3.96289e-05 -3.53476e-05
-8.61737e-05 2.58276e-05 2.58626e-05 -3.97673e-05
-4.35031e-05 1.30216e-05 1.30635e-05 -4.24197e-05
-8.93979e-05 2.6792e-05 2.68311e-05 -3.97673e-05
-8.77858e-05 2.63098e-05 2.63468e-05 -3.97673e-05
-0.00012965 3.88755e-05 3.89032e-05 -3.53476e-05
-0.000124816 3.74277e-05 3.74519e-05 -3.53477e-05
-4.10822e-05 1.22998e-05 1.23353e-05 -4.24196e-05
-4.26961e-05 1.2781e-05 1.28207e-05 -4.24197e-05
-0.000127233 3.81516e-05 3.81776e-05 -3.53476e-05
-8.29495e-05 2.48632e-05 2.48942e-05 -3.97673e-05
-4.18892e-05 1.25404e-05 1.2578e-05 -4.24197e-05
-8.61737e-05 2.58276e-05 2.58626e-05 -3.97673e-05
-8.45616e-05 2.53454e-05 2.53784e-05 -3.97673e-05
-0.000124816 3.74277e-05 3.74519e-05 -3.53477e-05
-0.000119981 3.59798e-05 3.60007e-05 -3.53477e-05
-3.94685e-05 1.18186e-05 1.185e-05 -4.24196e-05
-4.10822e-05 1.22998e-05 1.23353e-05 -4.24196e-05
-0.000122398 3.67038e-05 3.67263e-05 -3.53477e-05
-7.97255e-05 2.38986e-05 2.39258e-05 -3.97672e-05
-4.02753e-05 1.20592e-05 1.20926e-05 -4.24196e-05
-8.29495e-05 2.48632e-05 2.48942e-05 -3.97673e-05
-8.13375e-05 2.43809e-05 2.441e-05 -3.97672e-05
-0.000119981 3.59798e-05 3.60007e-05 -3.53477e-05
-0.000115147 3.45318e-05 3.45495e-05 -3.53477e-05
-3.78548e-05 1.13372e-05 1.13647e-05 -4.24195e-05
-3.94685e-05 1.18186e-05 1.185e-05 -4.24196e-05
-0.000117564 3.52558e-05 3.52751e-05 -3.53477e-05
-7.65017e-05 2.2934e-05 2.29576e-05 -3.97672e-05
-3.86616e-05 1.15779e-05 1.16073e-05 -4.24195e-05
-7.97255e-05 2.38986e-05 2.39258e-05 -3.97672e-05
-7.81136e-05 2.34163e-05 2.34417e-05 -3.97672e-05
-0.000115147 3.45318e-05 3.45495e-05 -3.53477e-05
-0.000110313 3.30838e-05 3.30984e-05 -3.53476e-05
-3.62413e-05 1.08558e-05 1.08795e-05 -4.24194e-05
-3.78548e-05 1.13372e-05 1.13647e-05 -4.24195e-05
-0.00011273 3.38078e-05 3.3824e-05 -3.53476e-05
-7.32779e-05 2.19693e-05 2.19894e-05 -3.97671e-05
-3.7048e-05 1.10965e-05 1.11221e-05 -4.24195e-05
-7.65017e-05 2.2934e-05 2.29576e-05 -3.97672e-05
-7.48898e-05 2.24517e-05 2.24735e-05 -3.97672e-05
-0.000110313 3.30838e-05 3.30984e-05 -3.53476e-05
-0.00010548 3.16358e-05 3.16474e-05 -3.53476e-05
-3.46279e-05 1.03743e-05 1.03944e-05 -4.24193e-05
-3.62413e-05 1.08558e-05 1.08795e-05 -4.24194e-05
-0.000107897 3.23598e-05 3.23729e-05 -3.53476e-05
-7.00543e-05 2.10046e-05 2.10213e-05 -3.97671e-05
-3.54346e-05 1.06151e-05 1.06369e-05 -4.24194e-05
-7.32779e-05 2.19693e-05 2.19894e-05 -3.97671e-05
-7.16661e-05 2.1487e-05 2.15053e-05 -3.97671e-05
-0.00010548 3.16358e-05 3.16474e-05 -3.53476e-05
-0.000100646 3.01877e-05 3.01965e-05 -3.53476e-05
-3.30146e-05 9.8928e-06 9.90935e-06 -4.24192e-05
-3.46279e-05 1.03743e-05 1.03944e-05 -4.24193e-05
-0.000103063 3.09118e-05 3.09219e-05 -3.53476e-05
-6.68308e-05 2.00399e-05 2.00533e-05 -3.9767e-05
-3.38212e-05 1.01336e-05 1.01519e-05 -4.24193e-05
-7.00543e-05 2.10046e-05 2.10213e-05 -3.97671e-05
-6.84426e-05 2.05223e-05 2.05373e-05 -3.97671e-05
-0.000100646 3.01877e-05 3.01965e-05 -3.53476e-05
-9.58127e-05 2.87397e-05 2.87456e-05 -3.53476e-05
-3.14015e-05 9.41129e-06 9.42437e-06 -4.24191e-05
-3.30146e-05 9.8928e-06 9.90935e-06 -4.24192e-05
-9.82294e-05 2.94637e-05 2.9471e-05 -3.53476e-05
-6.36076e-05 1.90752e-05 1.90853e-05 -3.97669e-05
-3.2208e-05 9.65204e-06 9.66685e-06 -4.24191e-05
-6.68308e-05 2.00399e-05 2.00533e-05 -3.9767e-05
-6.52192e-05 1.95575e-05 1.95693e-05 -3.9767e-05
-9.58127e-05 2.87397e-05 2.87456e-05 -3.53476e-05
-9.09795e-05 2.72917e-05 2.72948e-05 -3.53476e-05
-2.97886e-05 8.92983e-06 8.93947e-06 -4.24189e-05
-3.14015e-05 9.41129e-06 9.42437e-06 -4.24191e-05
-9.33961e-05 2.80157e-05 2.80202e-05 -3.53476e-05
-6.03845e-05 1.81105e-05 1.81174e-05 -3.97668e-05
-3.0595e-05 9.17055e-06 9.18191e-06 -4.2419e-05
-6.36076e-05 1.90752e-05 1.90853e-05 -3.97669e-05
-6.1996e-05 1.85928e-05 1.86014e-05 -3.97669e-05
-9.09795e-05 2.72917e-05 2.72948e-05 -3.53476e-05
-8.61466e-05 2.58438e-05 2.58441e-05 -3.53478e-05
-2.81759e-05 8.4485e-06 8.45461e-06 -4.24187e-05
-2.97886e-05 8.92983e-06 8.93947e-06 -4.24189e-05
-8.8563e-05 2.65677e-05 2.65694e-05 -3.53477e-05
-5.71617e-05 1.71459e-05 1.71496e-05 -3.97668e-05
-2.89822e-05 8.68915e-06 8.69703e-06 -4.24188e-05
-6.03845e-05 1.81105e-05 1.81174e-05 -3.97668e-05
-5.8773e-05 1.76282e-05 1.76335e-05 -3.97668e-05
-8.61466e-05 2.58438e-05 2.58441e-05 -3.53478e-05
-8.13139e-05 2.43959e-05 2.43934e-05 -3.5348e-05
-2.65636e-05 7.96734e-06 7.96982e-06 -4.24186e-05
-2.81759e-05 8.4485e-06 8.45461e-06 -4.24187e-05
-8.37302e-05 2.51198e-05 2.51187e-05 -3.53479e-05
-5.39391e-05 1.61814e-05 1.61819e-05 -3.97669e-05
-2.73697e-05 8.2079e-06 8.21221e-06 -4.24186e-05
-5.71617e-05 1.71459e-05 1.71496e-05 -3.97668e-05
-5.55504e-05 1.66637e-05 1.66657e-05 -3.97668e-05
-8.13139e-05 2.43959e-05 2.43934e-05 -3.5348e-05
-7.64813e-05 2.29478e-05 2.29429e-05 -3.53485e-05
-2.49515e-05 7.48633e-06 7.48508e-06 -4.2419e-05
-2.65636e-05 7.96734e-06 7.96982e-06 -4.24186e-05
-7.88976e-05 2.36719e-05 2.36681e-05 -3.53482e-05
-5.07168e-05 1.52168e-05 1.52143e-05 -3.97673e-05
-2.57575e-05 7.72683e-06 7.72745e-06 -4.24187e-05
-5.39391e-05 1.61814e-05 1.61819e-05 -3.97669e-05
-5.2328e-05 1.56991e-05 1.56981e-05 -3.97671e-05
-7.64813e-05 2.29478e-05 2.29429e-05 -3.53485e-05
-7.16484e-05 2.14988e-05 2.14927e-05 -3.53492e-05
-2.33397e-05 7.00524e-06 7.00047e-06 -4.24205e-05
-2.49515e-05 7.48633e-06 7.48508e-06 -4.2419e-05
-7.4065e-05 2.22235e-05 2.22178e-05 -3.53488e-05
-4.74942e-05 1.42514e-05 1.42469e-05 -3.97685e-05
-2.41456e-05 7.24583e-06 7.24274e-06 -4.24195e-05
-5.07168e-05 1.52168e-05 1.52143e-05 -3.97673e-05
-4.91056e-05 1.47343e-05 1.47306e-05 -3.97678e-05
-7.16484e-05 2.14988e-05 2.14927e-05 -3.53492e-05
-6.68141e-05 2.00474e-05 2.00429e-05 -3.53501e-05
-2.17272e-05 6.52341e-06 6.51591e-06 -4.24247e-05
-2.33397e-05 7.00524e-06 7.00047e-06 -4.24205e-05
-6.92315e-05 2.07736e-05 2.07677e-05 -3.53496e-05
-4.42702e-05 1.32839e-05 1.32798e-05 -3.97714e-05
-2.25336e-05 6.76451e-06 6.7582e-06 -4.24221e-05
-4.74942e-05 1.42514e-05 1.42469e-05 -3.97685e-05
-4.58825e-05 1.37681e-05 1.37633e-05 -3.97697e-05
-6.68141e-05 2.00474e-05 2.00429e-05 -3.53501e-05
-6.19751e-05 1.85901e-05 1.85936e-05 -3.53513e-05
-2.01132e-05 6.03918e-06 6.03174e-06 -4.24351e-05
-2.17272e-05 6.52341e-06 6.51591e-06 -4.24247e-05
-6.43956e-05 1.93198e-05 1.93182e-05 -3.53506e-05
-4.10421e-05 1.23111e-05 1.23133e-05 -3.97778e-05
-2.09204e-05 6.28173e-06 6.27372e-06 -4.24289e-05
-4.42702e-05 1.32839e-05 1.32798e-05 -3.97714e-05
-4.26569e-05 1.27984e-05 1.27965e-05 -3.97739e-05
-6.19751e-05 1.85901e-05 1.85936e-05 -3.53513e-05
-5.71265e-05 1.71203e-05 1.71455e-05 -3.53522e-05
-1.84933e-05 5.54939e-06 5.54739e-06 -4.24579e-05
-2.01132e-05 6.03918e-06 6.03174e-06 -4.24351e-05
-5.95522e-05 1.78573e-05 1.78692e-05 -3.53519e-05
-3.7804e-05 1.13269e-05 1.13473e-05 -3.97912e-05
-1.93046e-05 5.79535e-06 5.78967e-06 -4.24443e-05
-4.10421e-05 1.23111e-05 1.23133e-05 -3.97778e-05
-3.94248e-05 1.1821e-05 1.18302e-05 -3.97834e-05
-5.71265e-05 1.71203e-05 1.71455e-05 -3.53522e-05
-5.22538e-05 1.56259e-05 1.56976e-05 -3.53531e-05
-1.68633e-05 5.04749e-06 5.06391e-06 -4.25051e-05
-1.84933e-05 5.54939e-06 5.54739e-06 -4.24579e-05
-5.46947e-05 1.63774e-05 1.64217e-05 -3.53526e-05
-3.45447e-05 1.03201e-05 1.0382e-05 -3.98183e-05
-1.76795e-05 5.30038e-06 5.30533e-06 -4.24775e-05
-3.7804e-05 1.13269e-05 1.13473e-05 -3.97912e-05
-3.6178e-05 1.08272e-05 1.08646e-05 -3.98022e-05
-5.22538e-05 1.56259e-05 1.56976e-05 -3.53531e-05
-4.73392e-05 1.40853e-05 1.42517e-05 -3.53523e-05
-1.52064e-05 4.52375e-06 4.57826e-06 -4.2598e-05
-1.68633e-05 5.04749e-06 5.06391e-06 -4.25051e-05
-4.98024e-05 1.48629e-05 1.49741e-05 -3.53533e-05
-3.12432e-05 9.27246e-06 9.41604e-06 -3.98711e-05
-1.60403e-05 4.78953e-06 4.82177e-06 -4.25439e-05
-3.45447e-05 1.03201e-05 1.0382e-05 -3.98183e-05
-3.29009e-05 9.80321e-06 9.899e-06 -3.98411e-05
-4.73392e-05 1.40853e-05 1.42517e-05 -3.53523e-05
-4.23334e-05 1.24665e-05 1.28001e-05 -3.53537e-05
-1.35114e-05 3.95992e-06 4.09348e-06 -4.277e-05
-1.52064e-05 4.52375e-06 4.57826e-06 -4.2598e-05
-4.48532e-05 1.3289e-05 1.35275e-05 -3.5352e-05
-2.78631e-05 8.15328e-06 8.44706e-06 -3.99703e-05
-1.43629e-05 4.2475e-06 4.33516e-06 -4.26715e-05
-3.12432e-05 9.27246e-06 9.41604e-06 -3.98711e-05
-2.95659e-05 8.72347e-06 8.93247e-06 -3.99119e-05
-4.23334e-05 1.24665e-05 1.28001e-05 -3.53537e-05
-3.71892e-05 1.07182e-05 1.13447e-05 -3.53553e-05
-1.17296e-05 3.33937e-06 3.59582e-06 -4.30751e-05
-1.35114e-05 3.95992e-06 4.09348e-06 -4.277e-05
-3.9779e-05 1.16106e-05 1.20722e-05 -3.53553e-05
-2.43497e-05 6.92892e-06 7.46605e-06 -4.01495e-05
-1.26382e-05 3.65941e-06 3.84804e-06 -4.29014e-05
-2.78631e-05 8.15328e-06 8.44706e-06 -3.99703e-05
-2.6127e-05 7.55803e-06 7.95811e-06 -4.00498e-05
-3.71892e-05 1.07182e-05 1.13447e-05 -3.53553e-05
-3.17747e-05 8.79658e-06 9.84776e-06 -3.53872e-05
-9.8536e-06 2.63419e-06 3.09403e-06 -4.35753e-05
-1.17296e-05 3.33937e-06 3.59582e-06 -4.30751e-05
-3.45318e-05 9.78491e-06 1.06058e-05 -3.53632e-05
-2.06213e-05 5.55475e-06 6.4571e-06 -4.04591e-05
-1.07975e-05 2.99509e-06 3.34388e-06 -4.32969e-05
-2.43497e-05 6.92892e-06 7.46605e-06 -4.01495e-05
-2.25187e-05 6.25914e-06 6.96838e-06 -4.02786e-05
-3.17747e-05 8.79658e-06 9.84776e-06 -3.53872e-05
-2.60336e-05 6.65417e-06 8.30548e-06 -3.54673e-05
-7.79186e-06 1.87619e-06 2.53529e-06 -4.43385e-05
-9.8536e-06 2.63419e-06 3.09403e-06 -4.35753e-05
-2.89359e-05 7.74477e-06 9.08192e-06 -3.54215e-05
-1.66114e-05 4.06049e-06 5.37895e-06 -4.09636e-05
-8.86328e-06 2.26372e-06 2.82838e-06 -4.39193e-05
-2.06213e-05 5.55475e-06 6.4571e-06 -4.04591e-05
-1.86536e-05 4.8227e-06 5.92751e-06 -4.06927e-05
-2.60336e-05 6.65417e-06 8.30548e-06 -3.54673e-05
-1.97582e-05 4.43925e-06 6.56526e-06 -3.57564e-05
-5.66799e-06 1.1239e-06 1.94747e-06 -4.53261e-05
-7.79186e-06 1.87619e-06 2.53529e-06 -4.43385e-05
-2.29977e-05 5.5516e-06 7.47691e-06 -3.55662e-05
-1.22838e-05 2.56146e-06 4.16671e-06 -4.17214e-05
-6.70491e-06 1.47528e-06 2.24127e-06 -4.48135e-05
-1.66114e-05 4.06049e-06 5.37895e-06 -4.09636e-05
-1.44898e-05 3.28018e-06 4.80412e-06 -4.12877e-05
-1.97582e-05 4.43925e-06 6.56526e-06 -3.57564e-05
-1.326e-05 2.51459e-06 4.60517e-06 -3.63607e-05
-3.48757e-06 7.79143e-07 1.16075e-06 -4.62934e-05
-5.66799e-06 1.1239e-06 1.94747e-06 -4.53261e-05
-1.6463e-05 3.35633e-06 5.61712e-06 -3.60151e-05
-7.93702e-06 1.65633e-06 2.69172e-06 -4.26822e-05
-4.61694e-06 8.87108e-07 1.5985e-06 -4.58382e-05
-1.22838e-05 2.56146e-06 4.16671e-06 -4.17214e-05
-1.0073e-05 1.99608e-06 3.46154e-06 -4.2223e-05
-1.326e-05 2.51459e-06 4.60517e-06 -3.63607e-05
-6.96197e-06 2.46252e-06 1.92833e-06 -3.76535e-05
-1.95337e-06 1.29742e-06 2.81122e-07 -4.63229e-05
-3.48757e-06 7.79143e-07 1.16075e-06 -4.62934e-05
-1.01071e-05 2.15496e-06 3.40805e-06 -3.68872e-05
-4.23861e-06 2.32029e-06 8.22137e-07 -4.33738e-05
-2.51976e-06 8.44238e-07 7.18081e-07 -4.65185e-05
-7.93702e-06 1.65633e-06 2.69172e-06 -4.26822e-05
-5.96313e-06 1.65926e-06 1.84451e-06 -4.30499e-05
-6.96197e-06 2.46252e-06 1.92833e-06 -3.76535e-05
-3.64063e-06 7.08864e-06 -1.47772e-06 -3.85926e-05
-1.11099e-06 3.61672e-06 -1.07388e-06 -4.37221e-05
-1.95337e-06 1.29742e-06 2.81122e-07 -4.63229e-05
-4.56104e-06 3.77403e-06 3.37291e-07 -3.83144e-05
-2.91253e-06 6.43091e-06 -1.50788e-06 -4.19628e-05
-1.55994e-06 2.29864e-06 -3.16584e-07 -4.54881e-05
-4.23861e-06 2.32029e-06 8.22137e-07 -4.33738e-05
-3.10717e-06 3.92371e-06 -3.49943e-07 -4.32431e-05
-3.64063e-06 7.08864e-06 -1.47772e-06 -3.85926e-05
-5.31207e-06 2.16077e-05 -6.98382e-06 -3.53892e-05
-1.789e-06 6.62602e-06 -2.07301e-06 -3.56976e-05
-1.11099e-06 3.61672e-06 -1.07388e-06 -4.37221e-05
-3.96843e-06 1.32238e-05 -3.96661e-06 -3.79974e-05
-3.83133e-06 1.39125e-05 -4.32049e-06 -3.48675e-05
-1.04215e-06 5.01501e-06 -1.70265e-06 -4.0574e-05
-2.91253e-06 6.43091e-06 -1.50788e-06 -4.19628e-05
-3.27912e-06 9.75172e-06 -2.77397e-06 -3.91779e-05
-5.31207e-06 2.16077e-05 -6.98382e-06 -3.53892e-05
-1.02687e-05 3.90939e-05 -1.23537e-05 -1.86998e-05
-3.74452e-06 1.09763e-05 -3.09932e-06 -2.04506e-05
-1.789e-06 6.62602e-06 -2.07301e-06 -3.56976e-05
-7.47704e-06 3.1027e-05 -1.00929e-05 -2.92306e-05
-6.07782e-06 2.37593e-05 -7.57777e-06 -2.06315e-05
-2.85524e-06 8.62342e-06 -2.47208e-06 -2.90307e-05
-3.83133e-06 1.39125e-05 -4.32049e-06 -3.48675e-05
-4.71548e-06 1.88166e-05 -6.04335e-06 -2.88351e-05
-0.00028214 0 0.000120917 0.000160432
-0.000286871 3.84545e-05 0.000106464 5.31707e-05
0.000282603 -3.94212e-05 -0.000104221 5.28988e-05
0.000277388 0 -0.000118881 0.000159802
-0.000275402 1.62601e-05 0.000111061 0.000101172
-2.17455e-06 -5.11529e-07 1.15118e-06 6.01243e-05
0.000270919 -1.67924e-05 -0.000108911 0.000100794
-2.45568e-06 0 1.05243e-06 0.000163441
-2.28393e-06 -3.15016e-07 1.11383e-06 0.000113068
-0.000286871 3.84545e-05 0.000106464 5.31707e-05
-0.000308988 6.33192e-05 0.000105287 -1.10063e-05
0.00030508 -6.49359e-05 -0.000102919 -1.11879e-05
0.000282603 -3.94212e-05 -0.000104221 5.28988e-05
-0.000302685 5.33474e-05 0.000106859 1.54352e-05
-1.99186e-06 -8.30977e-07 1.20979e-06 -7.73033e-06
0.000298604 -5.46687e-05 -0.000104544 1.52126e-05
-2.17455e-06 -5.11529e-07 1.15118e-06 6.01243e-05
-2.08652e-06 -6.78955e-07 1.1852e-06 1.83469e-05
-0.000308988 6.33192e-05 0.000105287 -1.10063e-05
-0.000315464 8.18017e-05 0.000100141 -4.00843e-05
0.000311856 -8.38989e-05 -9.76961e-05 -4.02223e-05
0.00030508 -6.49359e-05 -0.000102919 -1.11879e-05
-0.000311382 7.31755e-05 0.000102089 -2.85358e-05
-1.83413e-06 -1.08733e-06 1.25205e-06 -3.91774e-05
0.000307629 -7.50467e-05 -9.9678e-05 -2.86933e-05
-1.99186e-06 -8.30977e-07 1.20979e-06 -7.73033e-06
-1.9055e-06 -9.6732e-07 1.23121e-06 -2.56022e-05
-0.000315464 8.18017e-05 0.000100141 -4.00843e-05
-0.000318826 9.0468e-05 9.78676e-05 -5.04588e-05
0.000315482 -9.29596e-05 -9.53668e-05 -5.05577e-05
0.000311856 -8.38989e-05 -9.76961e-05 -4.02223e-05
-0.000318767 8.72881e-05 9.92053e-05 -4.70343e-05
-1.70688e-06 -1.27845e-06 1.27943e-06 -5.13265e-05
0.000315296 -8.95927e-05 -9.673e-05 -4.71511e-05
-1.83413e-06 -1.08733e-06 1.25205e-06 -3.91774e-05
-1.77033e-06 -1.18976e-06 1.26861e-06 -4.7525e-05
-0.000318826 9.0468e-05 9.78676e-05 -5.04588e-05
-0.000316662 9.3768e-05 9.55262e-05 -5.15694e-05
0.00031353 -9.6561e-05 -9.29869e-05 -5.16326e-05
0.000315482 -9.29596e-05 -9.53668e-05 -5.05577e-05
-0.000317503 9.25833e-05 9.63944e-05 -5.15896e-05
-1.60028e-06 -1.42785e-06 1.29777e-06 -5.33992e-05
0.000314274 -9.52378e-05 -9.38725e-05 -5.16725e-05
-1.70688e-06 -1.27845e-06 1.27943e-06 -5.13265e-05
-1.64911e-06 -1.35834e-06 1.2889e-06 -5.28732e-05
-0.000316662 9.3768e-05 9.55262e-05 -5.15694e-05
-0.000313986 9.36497e-05 9.44297e-05 -4.97459e-05
0.000311004 -9.665e-05 -9.18658e-05 -4.97721e-05
0.00031353 -9.6561e-05 -9.29869e-05 -5.16326e-05
-0.000315693 9.39884e-05 9.50163e-05 -5.08459e-05
-1.52377e-06 -1.52931e-06 1.30846e-06 -5.16012e-05
0.000312643 -9.68964e-05 -9.24629e-05 -5.08886e-05
-1.60028e-06 -1.42785e-06 1.29777e-06 -5.33992e-05
-1.55904e-06 -1.48432e-06 1.3043e-06 -5.28524e-05
-0.000313986 9.36497e-05 9.44297e-05 -4.97459e-05
-0.000310591 9.26266e-05 9.34131e-05 -4.73832e-05
0.000307706 -9.57498e-05 -9.08384e-05 -4.73851e-05
0.000311004 -9.665e-05 -9.18658e-05 -4.97721e-05
-0.000312099 9.31755e-05 9.38242e-05 -4.85155e-05
-1.47247e-06 -1.59256e-06 1.31358e-06 -4.90558e-05
0.000309171 -9.62467e-05 -9.12534e-05 -4.85288e-05
-1.52377e-06 -1.52931e-06 1.30846e-06 -5.16012e-05
-1.49493e-06 -1.56528e-06 1.31152e-06 -5.02436e-05
-0.000310591 9.26266e-05 9.34131e-05 -4.73832e-05
-0.000307834 9.13523e-05 9.27777e-05 -4.55067e-05
0.000305009 -9.45338e-05 -9.02036e-05 -4.54937e-05
0.000307706 -9.57498e-05 -9.08384e-05 -4.73851e-05
-0.000309242 9.19939e-05 9.31064e-05 -4.63754e-05
-1.44122e-06 -1.62259e-06 1.31306e-06 -4.69049e-05
0.000306391 -9.5153e-05 -9.05306e-05 -4.63682e-05
-1.47247e-06 -1.59256e-06 1.31358e-06 -4.90558e-05
-1.45502e-06 -1.61114e-06 1.31407e-06 -4.79328e-05
-0.000307834 9.13523e-05 9.27777e-05 -4.55067e-05
-0.000305319 9.02632e-05 9.21667e-05 -4.42065e-05
0.000302531 -9.34581e-05 -8.96026e-05 -4.41888e-05
0.000305009 -9.45338e-05 -9.02036e-05 -4.54937e-05
-0.000306486 9.07773e-05 9.24465e-05 -4.47805e-05
-1.42189e-06 -1.63041e-06 1.30813e-06 -4.54086e-05
0.000303681 -9.39699e-05 -8.98764e-05 -4.47645e-05
-1.44122e-06 -1.62259e-06 1.31306e-06 -4.69049e-05
-1.43041e-06 -1.62873e-06 1.31106e-06 -4.60593e-05
-0.000305319 9.02632e-05 9.21667e-05 -4.42065e-05
-0.000303213 8.93596e-05 9.16514e-05 -4.34068e-05
0.000300451 -9.25396e-05 -8.91048e-05 -4.33897e-05
0.000302531 -9.34581e-05 -8.96026e-05 -4.41888e-05
-0.000304254 8.979e-05 9.19131e-05 -4.37566e-05
-1.40881e-06 -1.62323e-06 1.29945e-06 -4.44663e-05
0.00030148 -9.29801e-05 -8.9357e-05 -4.37385e-05
-1.42189e-06 -1.63041e-06 1.30813e-06 -4.54086e-05
-1.41493e-06 -1.62827e-06 1.30422e-06 -4.48855e-05
-0.000303213 8.93596e-05 9.16514e-05 -4.34068e-05
-0.000301283 8.86305e-05 9.11367e-05 -4.29405e-05
0.000298543 -9.17798e-05 -8.86129e-05 -4.29277e-05
0.000300451 -9.25396e-05 -8.91048e-05 -4.33897e-05
-0.000302216 8.89763e-05 9.13883e-05 -4.31392e-05
-1.3977e-06 -1.60781e-06 1.28807e-06 -4.39191e-05
0.000299465 -9.21424e-05 -8.88526e-05 -4.3124e-05
-1.40881e-06 -1.62323e-06 1.29945e-06 -4.44663e-05
-1.40319e-06 -1.61624e-06 1.29404e-06 -4.41495e-05
-0.000301283 8.86305e-05 9.11367e-05 -4.29405e-05
-0.000299509 8.80126e-05 9.06412e-05 -4.2687e-05
0.000296793 -9.11235e-05 -8.81441e-05 -4.26795e-05
0.000298543 -9.17798e-05 -8.86129e-05 -4.29277e-05
-0.000300389 8.83108e-05 9.08906e-05 -4.27943e-05
-1.38618e-06 -1.58817e-06 1.27472e-06 -4.3618e-05
0.000297661 -9.14414e-05 -8.83798e-05 -4.2784e-05
-1.3977e-06 -1.60781e-06 1.28807e-06 -4.39191e-05
-1.3921e-06 -1.59832e-06 1.28161e-06 -4.37468e-05
-0.000299509 8.80126e-05 9.06412e-05 -4.2687e-05
-0.0002978 8.74668e-05 9.01427e-05 -4.25548e-05
0.000295111 -9.05367e-05 -8.76746e-05 -4.25527e-05
0.000296793 -9.11235e-05 -8.81441e-05 -4.26795e-05
-0.000298645 8.77328e-05 9.03909e-05 -4.26096e-05
-1.37302e-06 -1.56716e-06 1.26008e-06 -4.34626e-05
0.000295942 -9.08233e-05 -8.79081e-05 -4.26048e-05
-1.38618e-06 -1.58817e-06 1.27472e-06 -4.3618e-05
-1.37984e-06 -1.57772e-06 1.26753e-06 -4.35262e-05
-0.0002978 8.74668e-05 9.01427e-05 -4.25548e-05
-0.000296136 8.69604e-05 8.96466e-05 -4.24899e-05
0.000293478 -8.99899e-05 -8.72092e-05 -4.24926e-05
0.000295111 -9.05367e-05 -8.76746e-05 -4.25527e-05
-0.000296966 8.72101e-05 8.98953e-05 -4.25165e-05
-1.35782e-06 -1.54626e-06 1.24461e-06 -4.33863e-05
0.000294292 -9.02596e-05 -8.74424e-05 -4.2517e-05
-1.37302e-06 -1.56716e-06 1.26008e-06 -4.34626e-05
-1.36568e-06 -1.55664e-06 1.25242e-06 -4.34178e-05
-0.000296136 8.69604e-05 8.96466e-05 -4.24899e-05
-0.000294489 8.64756e-05 8.91486e-05 -4.24596e-05
0.000291866 -8.94662e-05 -8.67427e-05 -4.24663e-05
0.000293478 -8.99899e-05 -8.72092e-05 -4.24926e-05
-0.00029531 8.67161e-05 8.93975e-05 -4.24717e-05
-1.34065e-06 -1.52628e-06 1.22868e-06 -4.33516e-05
0.000292669 -8.97259e-05 -8.69758e-05 -4.24766e-05
-1.35782e-06 -1.54626e-06 1.24461e-06 -4.33863e-05
-1.34947e-06 -1.53613e-06 1.23669e-06 -4.33652e-05
-0.000294489 8.64756e-05 8.91486e-05 -4.24596e-05
-0.000292852 8.60009e-05 8.86506e-05 -4.24465e-05
0.000290267 -8.8955e-05 -8.62765e-05 -4.24563e-05
0.000291866 -8.94662e-05 -8.67427e-05 -4.24663e-05
-0.00029367 8.62374e-05 8.88998e-05 -4.24517e-05
-1.32176e-06 -1.50746e-06 1.21252e-06 -4.33371e-05
0.000291066 -8.92095e-05 -8.65098e-05 -4.246e-05
-1.34065e-06 -1.52628e-06 1.22868e-06 -4.33516e-05
-1.3314e-06 -1.51672e-06 1.22062e-06 -4.33428e-05
-0.000292852 8.60009e-05 8.86506e-05 -4.24465e-05
-0.000291218 8.55306e-05 8.81518e-05 -4.24414e-05
0.000288673 -8.84506e-05 -8.58097e-05 -4.24534e-05
0.000290267 -8.8955e-05 -8.62765e-05 -4.24563e-05
-0.000292035 8.57654e-05 8.84012e-05 -4.24433e-05
-1.30152e-06 -1.48984e-06 1.1963e-06 -4.3332e-05
0.000289469 -8.87022e-05 -8.60431e-05 -4.24543e-05
-1.32176e-06 -1.50746e-06 1.21252e-06 -4.33371e-05
-1.31179e-06 -1.49851e-06 1.20441e-06 -4.33338e-05
-0.000291218 8.55306e-05 8.81518e-05 -4.24414e-05
-0.000289585 8.50619e-05 8.76529e-05 -4.24397e-05
0.000287082 -8.79497e-05 -8.53426e-05 -4.24533e-05
0.000288673 -8.84506e-05 -8.58097e-05 -4.24534e-05
-0.000290402 8.52962e-05 8.79024e-05 -4.24403e-05
-1.28027e-06 -1.47329e-06 1.18009e-06 -4.33307e-05
0.000287878 -8.81998e-05 -8.55762e-05 -4.24531e-05
-1.30152e-06 -1.48984e-06 1.1963e-06 -4.3332e-05
-1.291e-06 -1.48144e-06 1.18819e-06 -4.33311e-05
-0.000289585 8.50619e-05 8.76529e-05 -4.24397e-05
-0.000287952 8.45933e-05 8.71538e-05 -4.24393e-05
0.000285493 -8.74507e-05 -8.48753e-05 -4.24539e-05
0.000287082 -8.79497e-05 -8.53426e-05 -4.24533e-05
-0.000288769 8.48276e-05 8.74033e-05 -4.24394e-05
-1.25831e-06 -1.45762e-06 1.16397e-06 -4.33308e-05
0.000286288 -8.77e-05 -8.5109e-05 -4.24536e-05
-1.28027e-06 -1.47329e-06 1.18009e-06 -4.33307e-05
-1.26936e-06 -1.46535e-06 1.17202e-06 -4.33306e-05
-0.000287952 8.45933e-05 8.71538e-05 -4.24393e-05
-0.000286319 8.41245e-05 8.66548e-05 -4.24394e-05
0.000283904 -8.69527e-05 -8.44077e-05 -4.24547e-05
0.000285493 -8.74507e-05 -8.48753e-05 -4.24539e-05
-0.000287136 8.4359e-05 8.69043e-05 -4.24394e-05
-1.23589e-06 -1.44266e-06 1.14795e-06 -4.33312e-05
0.000284699 -8.72016e-05 -8.46415e-05 -4.24543e-05
-1.25831e-06 -1.45762e-06 1.16397e-06 -4.33308e-05
-1.24715e-06 -1.45006e-06 1.15595e-06 -4.3331e-05
-0.000286319 8.41245e-05 8.66548e-05 -4.24394e-05
-0.000284685 8.36552e-05 8.61558e-05 -4.24395e-05
0.000282315 -8.64554e-05 -8.394e-05 -4.24552e-05
0.000283904 -8.69527e-05 -8.44077e-05 -4.24547e-05
-0.000285502 8.38899e-05 8.64053e-05 -4.24395e-05
-1.21321e-06 -1.42825e-06 1.13206e-06 -4.33316e-05
0.00028311 -8.6704e-05 -8.41739e-05 -4.24549e-05
-1.23589e-06 -1.44266e-06 1.14795e-06 -4.33312e-05
-1.22458e-06 -1.4354e-06 1.13999e-06 -4.33314e-05
-0.000284685 8.36552e-05 8.61558e-05 -4.24395e-05
-0.000283052 8.31856e-05 8.56569e-05 -4.24397e-05
0.000280727 -8.59584e-05 -8.34721e-05 -4.24555e-05
0.000282315 -8.64554e-05 -8.394e-05 -4.24552e-05
-0.000283869 8.34204e-05 8.59064e-05 -4.24396e-05
-1.1904e-06 -1.41425e-06 1.11628e-06 -4.33318e-05
0.000281521 -8.62068e-05 -8.37061e-05 -4.24553e-05
-1.21321e-06 -1.42825e-06 1.13206e-06 -4.33316e-05
-1.20182e-06 -1.4212e-06 1.12415e-06 -4.33317e-05
-0.000283052 8.31856e-05 8.56569e-05 -4.24397e-05
-0.000281418 8.27156e-05 8.51581e-05 -4.24397e-05
0.000279138 -8.54617e-05 -8.30041e-05 -4.24556e-05
0.000280727 -8.59584e-05 -8.34721e-05 -4.24555e-05
-0.000282235 8.29506e-05 8.54075e-05 -4.24397e-05
-1.16756e-06 -1.40055e-06 1.10062e-06 -4.33319e-05
0.000279932 -8.571e-05 -8.32381e-05 -4.24555e-05
-1.1904e-06 -1.41425e-06 1.11628e-06 -4.33318e-05
-1.17898e-06 -1.40737e-06 1.10843e-06 -4.33319e-05
-0.000281418 8.27156e-05 8.51581e-05 -4.24397e-05
-0.000279784 8.22453e-05 8.46595e-05 -4.24397e-05
0.000277549 -8.49651e-05 -8.2536e-05 -4.24556e-05
0.000279138 -8.54617e-05 -8.30041e-05 -4.24556e-05
-0.000280601 8.24805e-05 8.49088e-05 -4.24397e-05
-1.14475e-06 -1.38708e-06 1.08507e-06 -4.33319e-05
0.000278343 -8.52134e-05 -8.277e-05 -4.24556e-05
-1.16756e-06 -1.40055e-06 1.10062e-06 -4.33319e-05
-1.15615e-06 -1.39379e-06 1.09283e-06 -4.33319e-05
-0.000279784 8.22453e-05 8.46595e-05 -4.24397e-05
-0.00027815 8.17749e-05 8.41609e-05 -4.24397e-05
0.00027596 -8.44687e-05 -8.20677e-05 -4.24555e-05
0.000277549 -8.49651e-05 -8.2536e-05 -4.24556e-05
-0.000278967 8.20101e-05 8.44102e-05 -4.24397e-05
-1.12203e-06 -1.37378e-06 1.06963e-06 -4.33319e-05
0.000276755 -8.47169e-05 -8.23019e-05 -4.24555e-05
-1.14475e-06 -1.38708e-06 1.08507e-06 -4.33319e-05
-1.13338e-06 -1.38041e-06 1.07734e-06 -4.33319e-05
-0.00027815 8.17749e-05 8.41609e-05 -4.24397e-05
-0.000276517 8.13043e-05 8.36624e-05 -4.24396e-05
0.000274371 -8.39725e-05 -8.15994e-05 -4.24553e-05
0.00027596 -8.44687e-05 -8.20677e-05 -4.24555e-05
-0.000277333 8.15396e-05 8.39116e-05 -4.24397e-05
-1.09941e-06 -1.36062e-06 1.0543e-06 -4.33318e-05
0.000275166 -8.42206e-05 -8.18336e-05 -4.24554e-05
-1.12203e-06 -1.37378e-06 1.06963e-06 -4.33319e-05
-1.1107e-06 -1.36719e-06 1.06195e-06 -4.33319e-05
-0.000276517 8.13043e-05 8.36624e-05 -4.24396e-05
-0.000274883 8.08336e-05 8.3164e-05 -4.24396e-05
0.000272782 -8.34763e-05 -8.1131e-05 -4.24552e-05
0.000274371 -8.39725e-05 -8.15994e-05 -4.24553e-05
-0.0002757 8.10689e-05 8.34132e-05 -4.24396e-05
-1.07691e-06 -1.34756e-06 1.03906e-06 -4.33317e-05
0.000273576 -8.37243e-05 -8.13652e-05 -4.24553e-05
-1.09941e-06 -1.36062e-06 1.0543e-06 -4.33318e-05
-1.08815e-06 -1.35408e-06 1.04667e-06 -4.33318e-05
-0.000274883 8.08336e-05 8.3164e-05 -4.24396e-05
-0.00027325 8.03628e-05 8.26658e-05 -4.24395e-05
0.000271192 -8.29802e-05 -8.06624e-05 -4.2455e-05
0.000272782 -8.34763e-05 -8.1131e-05 -4.24552e-05
-0.000274066 8.05982e-05 8.29149e-05 -4.24395e-05
-1.05455e-06 -1.3346e-06 1.02392e-06 -4.33316e-05
0.000271987 -8.32282e-05 -8.08967e-05 -4.24551e-05
-1.07691e-06 -1.34756e-06 1.03906e-06 -4.33317e-05
-1.06572e-06 -1.34107e-06 1.03148e-06 -4.33316e-05
-0.00027325 8.03628e-05 8.26658e-05 -4.24395e-05
-0.000271616 7.98919e-05 8.21676e-05 -4.24394e-05
0.000269603 -8.24841e-05 -8.01938e-05 -4.24548e-05
0.000271192 -8.29802e-05 -8.06624e-05 -4.2455e-05
-0.000272433 8.01274e-05 8.24167e-05 -4.24395e-05
-1.03232e-06 -1.32171e-06 1.00887e-06 -4.33314e-05
0.000270398 -8.27321e-05 -8.04281e-05 -4.24549e-05
-1.05455e-06 -1.3346e-06 1.02392e-06 -4.33316e-05
-1.04342e-06 -1.32814e-06 1.01638e-06 -4.33315e-05
-0.000271616 7.98919e-05 8.21676e-05 -4.24394e-05
-0.000269983 7.9421e-05 8.16695e-05 -4.24393e-05
0.000268013 -8.19882e-05 -7.97251e-05 -4.24546e-05
0.000269603 -8.24841e-05 -8.01938e-05 -4.24548e-05
-0.0002708 7.96564e-05 8.19185e-05 -4.24394e-05
-1.01023e-06 -1.3089e-06 9.93916e-07 -4.33313e-05
0.000268808 -8.22361e-05 -7.99595e-05 -4.24547e-05
-1.03232e-06 -1.32171e-06 1.00887e-06 -4.33314e-05
-1.02126e-06 -1.3153e-06 1.00138e-06 -4.33314e-05
-0.000269983 7.9421e-05 8.16695e-05 -4.24393e-05
-0.00026835 7.895e-05 8.11715e-05 -4.24392e-05
0.000266424 -8.14923e-05 -7.92563e-05 -4.24544e-05
0.000268013 -8.19882e-05 -7.97251e-05 -4.24546e-05
-0.000269167 7.91855e-05 8.14205e-05 -4.24393e-05
-9.8828e-07 -1.29617e-06 9.79049e-07 -4.33311e-05
0.000267219 -8.17402e-05 -7.94907e-05 -4.24545e-05
-1.01023e-06 -1.3089e-06 9.93916e-07 -4.33313e-05
-9.99239e-07 -1.30253e-06 9.86471e-07 -4.33312e-05
-0.00026835 7.895e-05 8.11715e-05 -4.24392e-05
-0.000266717 7.84789e-05 8.06736e-05 -4.24391e-05
0.000264834 -8.09965e-05 -7.87874e-05 -4.24542e-05
0.000266424 -8.14923e-05 -7.92563e-05 -4.24544e-05
-0.000267534 7.87144e-05 8.09225e-05 -4.24392e-05
-9.66463e-07 -1.28351e-06 9.64272e-07 -4.3331e-05
0.000265629 -8.12444e-05 -7.90219e-05 -4.24543e-05
-9.8828e-07 -1.29617e-06 9.79049e-07 -4.33311e-05
-9.77355e-07 -1.28983e-06 9.7165e-07 -4.33311e-05
-0.000266717 7.84789e-05 8.06736e-05 -4.24391e-05
-0.000265084 7.80077e-05 8.01757e-05 -4.2439e-05
0.000263244 -8.05007e-05 -7.83185e-05 -4.2454e-05
0.000264834 -8.09965e-05 -7.87874e-05 -4.24542e-05
-0.000265901 7.82433e-05 8.04246e-05 -4.24391e-05
-9.44782e-07 -1.27092e-06 9.49584e-07 -4.33308e-05
0.000264039 -8.07486e-05 -7.8553e-05 -4.24541e-05
-9.66463e-07 -1.28351e-06 9.64272e-07 -4.3331e-05
-9.55606e-07 -1.2772e-06 9.56917e-07 -4.33309e-05
-0.000265084 7.80077e-05 8.01757e-05 -4.2439e-05
-0.000263452 7.75365e-05 7.9678e-05 -4.24389e-05
0.000261654 -8.00051e-05 -7.78494e-05 -4.24538e-05
0.000263244 -8.05007e-05 -7.83185e-05 -4.2454e-05
-0.000264268 7.77721e-05 7.99268e-05 -4.2439e-05
-9.23234e-07 -1.2584e-06 9.34984e-07 -4.33307e-05
0.000262449 -8.02529e-05 -7.8084e-05 -4.24539e-05
-9.44782e-07 -1.27092e-06 9.49584e-07 -4.33308e-05
-9.33991e-07 -1.26465e-06 9.42273e-07 -4.33307e-05
-0.000263452 7.75365e-05 7.9678e-05 -4.24389e-05
-0.000261819 7.70652e-05 7.91803e-05 -4.24388e-05
0.000260063 -7.95095e-05 -7.73803e-05 -4.24536e-05
0.000261654 -8.00051e-05 -7.78494e-05 -4.24538e-05
-0.000262636 7.73009e-05 7.94292e-05 -4.24389e-05
-9.0182e-07 -1.24595e-06 9.20473e-07 -4.33305e-05
0.000260859 -7.97573e-05 -7.76149e-05 -4.24537e-05
-9.23234e-07 -1.2584e-06 9.34984e-07 -4.33307e-05
-9.12511e-07 -1.25216e-06 9.27718e-07 -4.33306e-05
-0.000261819 7.70652e-05 7.91803e-05 -4.24388e-05
-0.000260187 7.65938e-05 7.86828e-05 -4.24387e-05
0.000258473 -7.9014e-05 -7.69111e-05 -4.24534e-05
0.000260063 -7.95095e-05 -7.73803e-05 -4.24536e-05
-0.000261003 7.68295e-05 7.89315e-05 -4.24388e-05
-8.80538e-07 -1.23358e-06 9.06049e-07 -4.33303e-05
0.000259268 -7.92617e-05 -7.71457e-05 -4.24535e-05
-9.0182e-07 -1.24595e-06 9.20473e-07 -4.33305e-05
-8.91163e-07 -1.23975e-06 9.1325e-07 -4.33304e-05
-0.000260187 7.65938e-05 7.86828e-05 -4.24387e-05
-0.000258555 7.61224e-05 7.81853e-05 -4.24386e-05
0.000256883 -7.85185e-05 -7.64418e-05 -4.24532e-05
0.000258473 -7.9014e-05 -7.69111e-05 -4.24534e-05
-0.000259371 7.63581e-05 7.8434e-05 -4.24386e-05
-8.59389e-07 -1.22128e-06 8.91714e-07 -4.33302e-05
0.000257678 -7.87662e-05 -7.66764e-05 -4.24533e-05
-8.80538e-07 -1.23358e-06 9.06049e-07 -4.33303e-05
-8.69947e-07 -1.22742e-06 8.98871e-07 -4.33302e-05
-0.000258555 7.61224e-05 7.81853e-05 -4.24386e-05
-0.000256923 7.56509e-05 7.76879e-05 -4.24385e-05
0.000255292 -7.80231e-05 -7.59724e-05 -4.24529e-05
0.000256883 -7.85185e-05 -7.64418e-05 -4.24532e-05
-0.000257739 7.58867e-05 7.79366e-05 -4.24385e-05
-8.3837e-07 -1.20905e-06 8.77467e-07 -4.333e-05
0.000256087 -7.82708e-05 -7.62071e-05 -4.24531e-05
-8.59389e-07 -1.22128e-06 8.91714e-07 -4.33302e-05
-8.48863e-07 -1.21516e-06 8.8458e-07 -4.33301e-05
-0.000256923 7.56509e-05 7.76879e-05 -4.24385e-05
-0.000255291 7.51793e-05 7.71906e-05 -4.24383e-05
0.000253701 -7.75278e-05 -7.55029e-05 -4.24527e-05
0.000255292 -7.80231e-05 -7.59724e-05 -4.24529e-05
-0.000256107 7.54151e-05 7.74393e-05 -4.24384e-05
-8.17483e-07 -1.1969e-06 8.63308e-07 -4.33298e-05
0.000254497 -7.77755e-05 -7.57376e-05 -4.24528e-05
-8.3837e-07 -1.20905e-06 8.77467e-07 -4.333e-05
-8.2791e-07 -1.20297e-06 8.70377e-07 -4.33299e-05
-0.000255291 7.51793e-05 7.71906e-05 -4.24383e-05
-0.000253659 7.47077e-05 7.66934e-05 -4.24382e-05
0.00025211 -7.70326e-05 -7.50333e-05 -4.24525e-05
0.000253701 -7.75278e-05 -7.55029e-05 -4.24527e-05
-0.000254475 7.49435e-05 7.6942e-05 -4.24383e-05
-7.96726e-07 -1.18483e-06 8.49237e-07 -4.33296e-05
0.000252906 -7.72802e-05 -7.52681e-05 -4.24526e-05
-8.17483e-07 -1.1969e-06 8.63308e-07 -4.33298e-05
-8.07088e-07 -1.19086e-06 8.56262e-07 -4.33297e-05
-0.000253659 7.47077e-05 7.66934e-05 -4.24382e-05
-0.000252027 7.4236e-05 7.61963e-05 -4.24381e-05
0.000250519 -7.65375e-05 -7.45637e-05 -4.24523e-05
0.00025211 -7.70326e-05 -7.50333e-05 -4.24525e-05
-0.000252843 7.44718e-05 7.64448e-05 -4.24381e-05
-7.76101e-07 -1.17283e-06 8.35255e-07 -4.33295e-05
0.000251315 -7.6785e-05 -7.47985e-05 -4.24524e-05
-7.96726e-07 -1.18483e-06 8.49237e-07 -4.33296e-05
-7.86397e-07 -1.17882e-06 8.42235e-07 -4.33295e-05
-0.000252027 7.4236e-05 7.61963e-05 -4.24381e-05
-0.000250396 7.37642e-05 7.56993e-05 -4.24379e-05
0.000248928 -7.60424e-05 -7.4094e-05 -4.24521e-05
0.000250519 -7.65375e-05 -7.45637e-05 -4.24523e-05
-0.000251212 7.40001e-05 7.59478e-05 -4.2438e-05
-7.55606e-07 -1.1609e-06 8.2136e-07 -4.33293e-05
0.000249724 -7.62899e-05 -7.43289e-05 -4.24522e-05
-7.76101e-07 -1.17283e-06 8.35255e-07 -4.33295e-05
-7.65837e-07 -1.16685e-06 8.28296e-07 -4.33294e-05
-0.000250396 7.37642e-05 7.56993e-05 -4.24379e-05
-0.000248764 7.32923e-05 7.52023e-05 -4.24378e-05
0.000247337 -7.55474e-05 -7.36242e-05 -4.24518e-05
0.000248928 -7.60424e-05 -7.4094e-05 -4.24521e-05
-0.00024958 7.35283e-05 7.54508e-05 -4.24379e-05
-7.35242e-07 -1.14905e-06 8.07554e-07 -4.33291e-05
0.000248133 -7.57949e-05 -7.38591e-05 -4.24519e-05
-7.55606e-07 -1.1609e-06 8.2136e-07 -4.33293e-05
-7.45407e-07 -1.15497e-06 8.14446e-07 -4.33292e-05
-0.000248764 7.32923e-05 7.52023e-05 -4.24378e-05
-0.000247133 7.28204e-05 7.47055e-05 -4.24377e-05
0.000245746 -7.50525e-05 -7.31543e-05 -4.24516e-05
0.000247337 -7.55474e-05 -7.36242e-05 -4.24518e-05
-0.000247949 7.30564e-05 7.49539e-05 -4.24377e-05
-7.15008e-07 -1.13728e-06 7.93836e-07 -4.33289e-05
0.000246541 -7.52999e-05 -7.33892e-05 -4.24517e-05
-7.35242e-07 -1.14905e-06 8.07554e-07 -4.33291e-05
-7.25108e-07 -1.14315e-06 8.00684e-07 -4.3329e-05
-0.000247133 7.28204e-05 7.47055e-05 -4.24377e-05
-0.000245502 7.23484e-05 7.42087e-05 -4.24375e-05
0.000244154 -7.45576e-05 -7.26843e-05 -4.24514e-05
0.000245746 -7.50525e-05 -7.31543e-05 -4.24516e-05
-0.000246318 7.25844e-05 7.44571e-05 -4.24376e-05
-6.94905e-07 -1.12558e-06 7.80207e-07 -4.33287e-05
0.00024495 -7.48051e-05 -7.29193e-05 -4.24515e-05
-7.15008e-07 -1.13728e-06 7.93836e-07 -4.33289e-05
-7.0494e-07 -1.13142e-06 7.87011e-07 -4.33288e-05
-0.000245502 7.23484e-05 7.42087e-05 -4.24375e-05
-0.000243871 7.18763e-05 7.3712e-05 -4.24374e-05
0.000242563 -7.40629e-05 -7.22142e-05 -4.24511e-05
0.000244154 -7.45576e-05 -7.26843e-05 -4.24514e-05
-0.000244687 7.21124e-05 7.39604e-05 -4.24374e-05
-6.74933e-07 -1.11395e-06 7.66666e-07 -4.33285e-05
0.000243359 -7.43103e-05 -7.24493e-05 -4.24513e-05
-6.94905e-07 -1.12558e-06 7.80207e-07 -4.33287e-05
-6.84903e-07 -1.11976e-06 7.73426e-07 -4.33286e-05
-0.000243871 7.18763e-05 7.3712e-05 -4.24374e-05
-0.00024224 7.14042e-05 7.32154e-05 -4.24372e-05
0.000240971 -7.35682e-05 -7.17441e-05 -4.24509e-05
0.000242563 -7.40629e-05 -7.22142e-05 -4.24511e-05
-0.000243056 7.16403e-05 7.34637e-05 -4.24373e-05
-6.55091e-07 -1.10241e-06 7.53214e-07 -4.33283e-05
0.000241767 -7.38155e-05 -7.19792e-05 -4.2451e-05
-6.74933e-07 -1.11395e-06 7.66666e-07 -4.33285e-05
-6.64996e-07 -1.10817e-06 7.59929e-07 -4.33284e-05
-0.00024224 7.14042e-05 7.32154e-05 -4.24372e-05
-0.00024061 7.0932e-05 7.27189e-05 -4.24371e-05
0.000239379 -7.30736e-05 -7.12738e-05 -4.24507e-05
0.000240971 -7.35682e-05 -7.17441e-05 -4.24509e-05
-0.000241425 7.11681e-05 7.29672e-05 -4.24372e-05
-6.3538e-07 -1.09093e-06 7.39849e-07 -4.33281e-05
0.000240175 -7.33209e-05 -7.1509e-05 -4.24508e-05
-6.55091e-07 -1.10241e-06 7.53214e-07 -4.33283e-05
-6.4522e-07 -1.09666e-06 7.4652e-07 -4.33282e-05
-0.00024061 7.0932e-05 7.27189e-05 -4.24371e-05
-0.000238979 7.04597e-05 7.22225e-05 -4.24369e-05
0.000237787 -7.2579e-05 -7.08035e-05 -4.24504e-05
0.000239379 -7.30736e-05 -7.12738e-05 -4.24507e-05
-0.000239794 7.06958e-05 7.24707e-05 -4.2437e-05
-6.158e-07 -1.07954e-06 7.26574e-07 -4.33279e-05
0.000238583 -7.28263e-05 -7.10387e-05 -4.24505e-05
-6.3538e-07 -1.09093e-06 7.39849e-07 -4.33281e-05
-6.25574e-07 -1.08523e-06 7.332e-07 -4.3328e-05
-0.000238979 7.04597e-05 7.22225e-05 -4.24369e-05
-0.000237349 6.99873e-05 7.17262e-05 -4.24368e-05
0.000236195 -7.20846e-05 -7.03331e-05 -4.24502e-05
0.000237787 -7.2579e-05 -7.08035e-05 -4.24504e-05
-0.000238164 7.02235e-05 7.19744e-05 -4.24369e-05
-5.96351e-07 -1.06822e-06 7.13386e-07 -4.33277e-05
0.000236991 -7.23318e-05 -7.05683e-05 -4.24503e-05
-6.158e-07 -1.07954e-06 7.26574e-07 -4.33279e-05
-6.0606e-07 -1.07387e-06 7.19969e-07 -4.33278e-05
-0.000237349 6.99873e-05 7.17262e-05 -4.24368e-05
-0.000235718 6.95149e-05 7.123e-05 -4.24366e-05
0.000234603 -7.15902e-05 -6.98626e-05 -4.24499e-05
0.000236195 -7.20846e-05 -7.03331e-05 -4.24502e-05
-0.000236533 6.97511e-05 7.14781e-05 -4.24367e-05
-5.77033e-07 -1.05697e-06 7.00288e-07 -4.33275e-05
0.000235399 -7.18374e-05 -7.00979e-05 -4.24501e-05
-5.96351e-07 -1.06822e-06 7.13386e-07 -4.33277e-05
-5.86676e-07 -1.06259e-06 7.06826e-07 -4.33276e-05
-0.000235718 6.95149e-05 7.123e-05 -4.24366e-05
-0.000234088 6.90424e-05 7.07338e-05 -4.24365e-05
0.000233011 -7.10959e-05 -6.93921e-05 -4.24497e-05
0.000234603 -7.15902e-05 -6.98626e-05 -4.24499e-05
-0.000234903 6.92787e-05 7.09819e-05 -4.24365e-05
-5.57845e-07 -1.0458e-06 6.87277e-07 -4.33273e-05
0.000233807 -7.1343e-05 -6.96274e-05 -4.24498e-05
-5.77033e-07 -1.05697e-06 7.00288e-07 -4.33275e-05
-5.67423e-07 -1.05138e-06 6.93772e-07 -4.33274e-05
-0.000234088 6.90424e-05 7.07338e-05 -4.24365e-05
-0.000232458 6.85698e-05 7.02378e-05 -4.24363e-05
0.000231418 -7.06016e-05 -6.89214e-05 -4.24494e-05
0.000233011 -7.10959e-05 -6.93921e-05 -4.24497e-05
-0.000233273 6.88061e-05 7.04858e-05 -4.24364e-05
-5.38788e-07 -1.03471e-06 6.74356e-07 -4.33271e-05
0.000232214 -7.08487e-05 -6.91567e-05 -4.24496e-05
-5.57845e-07 -1.0458e-06 6.87277e-07 -4.33273e-05
-5.48301e-07 -1.04025e-06 6.80806e-07 -4.33272e-05
-0.000232458 6.85698e-05 7.02378e-05 -4.24363e-05
-0.000230828 6.80972e-05 6.97418e-05 -4.24361e-05
0.000229826 -7.01075e-05 -6.84507e-05 -4.24492e-05
0.000231418 -7.06016e-05 -6.89214e-05 -4.24494e-05
-0.000231643 6.83335e-05 6.99898e-05 -4.24362e-05
-5.19863e-07 -1.02369e-06 6.61523e-07 -4.33269e-05
0.000230622 -7.03545e-05 -6.8686e-05 -4.24493e-05
-5.38788e-07 -1.03471e-06 6.74356e-07 -4.33271e-05
-5.29309e-07 -1.02919e-06 6.67928e-07 -4.3327e-05
-0.000230828 6.80972e-05 6.97418e-05 -4.24361e-05
-0.000229198 6.76245e-05 6.9246e-05 -4.2436e-05
0.000228233 -6.96134e-05 -6.79798e-05 -4.24489e-05
0.000229826 -7.01075e-05 -6.84507e-05 -4.24492e-05
-0.000230013 6.78608e-05 6.94939e-05 -4.24361e-05
-5.01068e-07 -1.01275e-06 6.48778e-07 -4.33267e-05
0.000229029 -6.98604e-05 -6.82153e-05 -4.24491e-05
-5.19863e-07 -1.02369e-06 6.61523e-07 -4.33269e-05
-5.10449e-07 -1.01821e-06 6.55139e-07 -4.33268e-05
-0.000229198 6.76245e-05 6.9246e-05 -4.2436e-05
-0.000227569 6.71517e-05 6.87502e-05 -4.24358e-05
0.00022664 -6.91194e-05 -6.75089e-05 -4.24487e-05
0.000228233 -6.96134e-05 -6.79798e-05 -4.24489e-05
-0.000228384 6.73881e-05 6.89981e-05 -4.24359e-05
-4.82404e-07 -1.00188e-06 6.36122e-07 -4.33265e-05
0.000227437 -6.93664e-05 -6.77444e-05 -4.24488e-05
-5.01068e-07 -1.01275e-06 6.48778e-07 -4.33267e-05
-4.91719e-07 -1.00731e-06 6.42439e-07 -4.33266e-05
-0.000227569 6.71517e-05 6.87502e-05 -4.24358e-05
-0.000225939 6.66788e-05 6.82545e-05 -4.24357e-05
0.000225047 -6.86255e-05 -6.70379e-05 -4.24484e-05
0.00022664 -6.91194e-05 -6.75089e-05 -4.24487e-05
-0.000226754 6.69153e-05 6.85023e-05 -4.24357e-05
-4.63871e-07 -9.9109e-07 6.23555e-07 -4.33263e-05
0.000225844 -6.88724e-05 -6.72734e-05 -4.24485e-05
-4.82404e-07 -1.00188e-06 6.36122e-07 -4.33265e-05
-4.73121e-07 -9.96476e-07 6.29827e-07 -4.33264e-05
-0.000225939 6.66788e-05 6.82545e-05 -4.24357e-05
-0.00022431 6.62059e-05 6.77589e-05 -4.24355e-05
0.000223454 -6.81316e-05 -6.65668e-05 -4.24482e-05
0.000225047 -6.86255e-05 -6.70379e-05 -4.24484e-05
-0.000225125 6.64424e-05 6.80067e-05 -4.24356e-05
-4.45469e-07 -9.80375e-07 6.11076e-07 -4.3326e-05
0.000224251 -6.83785e-05 -6.68024e-05 -4.24483e-05
-4.63871e-07 -9.9109e-07 6.23555e-07 -4.33263e-05
-4.54653e-07 -9.85723e-07 6.17304e-07 -4.33261e-05
-0.00022431 6.62059e-05 6.77589e-05 -4.24355e-05
-0.000222681 6.57329e-05 6.72634e-05 -4.24353e-05
0.000221861 -6.76378e-05 -6.60957e-05 -4.24479e-05
0.000223454 -6.81316e-05 -6.65668e-05 -4.24482e-05
-0.000223495 6.59694e-05 6.75111e-05 -4.24354e-05
-4.27198e-07 -9.69736e-07 5.98686e-07 -4.33258e-05
0.000222658 -6.78847e-05 -6.63313e-05 -4.2448e-05
-4.45469e-07 -9.80375e-07 6.11076e-07 -4.3326e-05
-4.36317e-07 -9.75046e-07 6.0487e-07 -4.33259e-05
-0.000222681 6.57329e-05 6.72634e-05 -4.24353e-05
-0.000221052 6.52598e-05 6.67679e-05 -4.24352e-05
0.000220268 -6.71441e-05 -6.56244e-05 -4.24476e-05
0.000221861 -6.76378e-05 -6.60957e-05 -4.24479e-05
-0.000221866 6.54964e-05 6.70156e-05 -4.24352e-05
-4.09058e-07 -9.59173e-07 5.86385e-07 -4.33256e-05
0.000221064 -6.7391e-05 -6.58601e-05 -4.24478e-05
-4.27198e-07 -9.69736e-07 5.98686e-07 -4.33258e-05
-4.18111e-07 -9.64445e-07 5.92524e-07 -4.33257e-05
-0.000221052 6.52598e-05 6.67679e-05 -4.24352e-05
-0.000219423 6.47867e-05 6.62726e-05 -4.2435e-05
0.000218674 -6.66505e-05 -6.51531e-05 -4.24474e-05
0.000220268 -6.71441e-05 -6.56244e-05 -4.24476e-05
-0.000220237 6.50233e-05 6.65203e-05 -4.24351e-05
-3.91049e-07 -9.48686e-07 5.74172e-07 -4.33254e-05
0.000219471 -6.68973e-05 -6.53888e-05 -4.24475e-05
-4.09058e-07 -9.59173e-07 5.86385e-07 -4.33256e-05
-4.00037e-07 -9.5392e-07 5.80267e-07 -4.33255e-05
-0.000219423 6.47867e-05 6.62726e-05 -4.2435e-05
-0.000217794 6.43135e-05 6.57774e-05 -4.24348e-05
0.000217081 -6.6157e-05 -6.46817e-05 -4.24471e-05
0.000218674 -6.66505e-05 -6.51531e-05 -4.24474e-05
-0.000218608 6.45501e-05 6.6025e-05 -4.24349e-05
-3.73171e-07 -9.38274e-07 5.62048e-07 -4.33252e-05
0.000217878 -6.64037e-05 -6.49174e-05 -4.24472e-05
-3.91049e-07 -9.48686e-07 5.74172e-07 -4.33254e-05
-3.82093e-07 -9.4347e-07 5.68099e-07 -4.33253e-05
-0.000217794 6.43135e-05 6.57774e-05 -4.24348e-05
-0.000216165 6.38402e-05 6.52822e-05 -4.24346e-05
0.000215487 -6.56635e-05 -6.42102e-05 -4.24469e-05
0.000217081 -6.6157e-05 -6.46817e-05 -4.24471e-05
-0.00021698 6.40768e-05 6.55298e-05 -4.24347e-05
-3.55424e-07 -9.27938e-07 5.50012e-07 -4.33249e-05
0.000216284 -6.59102e-05 -6.44459e-05 -4.2447e-05
-3.73171e-07 -9.38274e-07 5.62048e-07 -4.33252e-05
-3.64281e-07 -9.33097e-07 5.56019e-07 -4.3325e-05
-0.000216165 6.38402e-05 6.52822e-05 -4.24346e-05
-0.000214537 6.33668e-05 6.47871e-05 -4.24345e-05
0.000213893 -6.51701e-05 -6.37386e-05 -4.24466e-05
0.000215487 -6.56635e-05 -6.42102e-05 -4.24469e-05
-0.000215351 6.36035e-05 6.50347e-05 -4.24346e-05
-3.37808e-07 -9.17679e-07 5.38066e-07 -4.33247e-05
0.00021469 -6.54168e-05 -6.39744e-05 -4.24467e-05
-3.55424e-07 -9.27938e-07 5.50012e-07 -4.33249e-05
-3.466e-07 -9.22799e-07 5.44028e-07 -4.33248e-05
-0.000214537 6.33668e-05 6.47871e-05 -4.24345e-05
-0.000212908 6.28934e-05 6.42922e-05 -4.24343e-05
0.0002123 -6.46768e-05 -6.32669e-05 -4.24463e-05
0.000213893 -6.51701e-05 -6.37386e-05 -4.24466e-05
-0.000213723 6.31301e-05 6.45396e-05 -4.24344e-05
-3.20324e-07 -9.07495e-07 5.26208e-07 -4.33245e-05
0.000213097 -6.49234e-05 -6.35027e-05 -4.24465e-05
-3.37808e-07 -9.17679e-07 5.38066e-07 -4.33247e-05
-3.2905e-07 -9.12577e-07 5.32126e-07 -4.33246e-05
-0.000212908 6.28934e-05 6.42922e-05 -4.24343e-05
-0.00021128 6.24199e-05 6.37973e-05 -4.24341e-05
0.000210706 -6.41836e-05 -6.27951e-05 -4.24461e-05
0.0002123 -6.46768e-05 -6.32669e-05 -4.24463e-05
-0.000212094 6.26567e-05 6.40447e-05 -4.24342e-05
-3.0297e-07 -8.97387e-07 5.14439e-07 -4.33243e-05
0.000211503 -6.44302e-05 -6.3031e-05 -4.24462e-05
-3.20324e-07 -9.07495e-07 5.26208e-07 -4.33245e-05
-3.11631e-07 -9.02432e-07 5.20312e-07 -4.33244e-05
-0.00021128 6.24199e-05 6.37973e-05 -4.24341e-05
-0.000209652 6.19463e-05 6.33025e-05 -4.24339e-05
0.000209111 -6.36904e-05 -6.23233e-05 -4.24458e-05
0.000210706 -6.41836e-05 -6.27951e-05 -4.24461e-05
-0.000210466 6.21831e-05 6.35499e-05 -4.2434e-05
-2.85748e-07 -8.87356e-07 5.02759e-07 -4.3324e-05
0.000209908 -6.3937e-05 -6.25592e-05 -4.24459e-05
-3.0297e-07 -8.97387e-07 5.14439e-07 -4.33243e-05
-2.94343e-07 -8.92362e-07 5.08588e-07 -4.33241e-05
-0.000209652 6.19463e-05 6.33025e-05 -4.24339e-05
-0.000208024 6.14727e-05 6.28078e-05 -4.24338e-05
0.000207517 -6.31973e-05 -6.18514e-05 -4.24455e-05
0.000209111 -6.36904e-05 -6.23233e-05 -4.24458e-05
-0.000208838 6.17095e-05 6.30551e-05 -4.24339e-05
-2.68657e-07 -8.774e-07 4.91167e-07 -4.33238e-05
0.000208314 -6.34438e-05 -6.20873e-05 -4.24457e-05
-2.85748e-07 -8.87356e-07 5.02759e-07 -4.3324e-05
-2.77186e-07 -8.82368e-07 4.96952e-07 -4.33239e-05
-0.000208024 6.14727e-05 6.28078e-05 -4.24338e-05
-0.000206396 6.0999e-05 6.23131e-05 -4.24336e-05
0.000205923 -6.27043e-05 -6.13794e-05 -4.24452e-05
0.000207517 -6.31973e-05 -6.18514e-05 -4.24455e-05
-0.00020721 6.12358e-05 6.25604e-05 -4.24337e-05
-2.51697e-07 -8.67521e-07 4.79665e-07 -4.33236e-05
0.00020672 -6.29508e-05 -6.16154e-05 -4.24454e-05
-2.68657e-07 -8.774e-07 4.91167e-07 -4.33238e-05
-2.60161e-07 -8.72451e-07 4.85405e-07 -4.33237e-05
-0.000206396 6.0999e-05 6.23131e-05 -4.24336e-05
-0.000204769 6.05252e-05 6.18186e-05 -4.24334e-05
0.000204328 -6.22114e-05 -6.09073e-05 -4.2445e-05
0.000205923 -6.27043e-05 -6.13794e-05 -4.24452e-05
-0.000205582 6.07621e-05 6.20659e-05 -4.24335e-05
-2.34868e-07 -8.57717e-07 4.68251e-07 -4.33233e-05
0.000205126 -6.24578e-05 -6.11433e-05 -4.24451e-05
-2.51697e-07 -8.67521e-07 4.79665e-07 -4.33236e-05
-2.43266e-07 -8.62609e-07 4.73947e-07 -4.33235e-05
-0.000204769 6.05252e-05 6.18186e-05 -4.24334e-05
-0.000203141 6.00513e-05 6.13242e-05 -4.24332e-05
0.000202734 -6.17185e-05 -6.04351e-05 -4.24447e-05
0.000204328 -6.22114e-05 -6.09073e-05 -4.2445e-05
-0.000203955 6.02883e-05 6.15714e-05 -4.24333e-05
-2.18171e-07 -8.4799e-07 4.56926e-07 -4.33231e-05
0.000203531 -6.19649e-05 -6.06712e-05 -4.24448e-05
-2.34868e-07 -8.57717e-07 4.68251e-07 -4.33233e-05
-2.26503e-07 -8.52844e-07 4.62577e-07 -4.33232e-05
-0.000203141 6.00513e-05 6.13242e-05 -4.24332e-05
-0.000201514 5.95774e-05 6.08298e-05 -4.2433e-05
0.000201139 -6.12257e-05 -5.99628e-05 -4.24444e-05
0.000202734 -6.17185e-05 -6.04351e-05 -4.24447e-05
-0.000202327 5.98144e-05 6.1077e-05 -4.24331e-05
-2.01605e-07 -8.38338e-07 4.4569e-07 -4.33229e-05
0.000201936 -6.14721e-05 -6.0199e-05 -4.24446e-05
-2.18171e-07 -8.4799e-07 4.56926e-07 -4.33231e-05
-2.09872e-07 -8.43155e-07 4.51297e-07 -4.3323e-05
-0.000201514 5.95774e-05 6.08298e-05 -4.2433e-05
-0.000199886 5.91034e-05 6.03356e-05 -4.24329e-05
0.000199544 -6.0733e-05 -5.94905e-05 -4.24442e-05
0.000201139 -6.12257e-05 -5.99628e-05 -4.24444e-05
-0.0002007 5.93404e-05 6.05827e-05 -4.2433e-05
-1.8517e-07 -8.28763e-07 4.34543e-07 -4.33226e-05
0.000200342 -6.09794e-05 -5.97266e-05 -4.24443e-05
-2.01605e-07 -8.38338e-07 4.4569e-07 -4.33229e-05
-1.93371e-07 -8.33541e-07 4.40105e-07 -4.33228e-05
-0.000199886 5.91034e-05 6.03356e-05 -4.24329e-05
-0.000198259 5.86293e-05 5.98414e-05 -4.24327e-05
0.000197949 -6.02404e-05 -5.9018e-05 -4.24439e-05
0.000199544 -6.0733e-05 -5.94905e-05 -4.24442e-05
-0.000199073 5.88664e-05 6.00885e-05 -4.24328e-05
-1.68866e-07 -8.19264e-07 4.23485e-07 -4.33224e-05
0.000198747 -6.04867e-05 -5.92542e-05 -4.2444e-05
-1.8517e-07 -8.28763e-07 4.34543e-07 -4.33226e-05
-1.77002e-07 -8.24004e-07 4.29003e-07 -4.33225e-05
-0.000198259 5.86293e-05 5.98414e-05 -4.24327e-05
-0.000196632 5.81552e-05 5.93473e-05 -4.24325e-05
0.000196354 -5.97479e-05 -5.85455e-05 -4.24436e-05
0.000197949 -6.02404e-05 -5.9018e-05 -4.24439e-05
-0.000197446 5.83923e-05 5.95944e-05 -4.24326e-05
-1.52694e-07 -8.09841e-07 4.12515e-07 -4.33222e-05
0.000197152 -5.99941e-05 -5.87818e-05 -4.24437e-05
-1.68866e-07 -8.19264e-07 4.23485e-07 -4.33224e-05
-1.60764e-07 -8.14543e-07 4.17989e-07 -4.33223e-05
-0.000196632 5.81552e-05 5.93473e-05 -4.24325e-05
-0.000195005 5.7681e-05 5.88533e-05 -4.24323e-05
0.000194759 -5.92554e-05 -5.80729e-05 -4.24433e-05
0.000196354 -5.97479e-05 -5.85455e-05 -4.24436e-05
-0.000195819 5.79181e-05 5.91003e-05 -4.24324e-05
-1.36653e-07 -8.00495e-07 4.01635e-07 -4.33219e-05
0.000195556 -5.95016e-05 -5.83092e-05 -4.24435e-05
-1.52694e-07 -8.09841e-07 4.12515e-07 -4.33222e-05
-1.44657e-07 -8.05158e-07 4.07064e-07 -4.33221e-05
-0.000195005 5.7681e-05 5.88533e-05 -4.24323e-05
-0.000193379 5.72067e-05 5.83594e-05 -4.24321e-05
0.000193163 -5.8763e-05 -5.76002e-05 -4.24431e-05
0.000194759 -5.92554e-05 -5.80729e-05 -4.24433e-05
-0.000194192 5.74438e-05 5.86064e-05 -4.24322e-05
-1.20744e-07 -7.91224e-07 3.90843e-07 -4.33217e-05
0.000193961 -5.90092e-05 -5.78366e-05 -4.24432e-05
-1.36653e-07 -8.00495e-07 4.01635e-07 -4.33219e-05
-1.28682e-07 -7.9585e-07 3.96228e-07 -4.33218e-05
-0.000193379 5.72067e-05 5.83594e-05 -4.24321e-05
-0.000191752 5.67323e-05 5.78656e-05 -4.24319e-05
0.000191568 -5.82707e-05 -5.71274e-05 -4.24428e-05
0.000193163 -5.8763e-05 -5.76002e-05 -4.24431e-05
-0.000192565 5.69695e-05 5.81125e-05 -4.2432e-05
-1.04965e-07 -7.8203e-07 3.80141e-07 -4.33215e-05
0.000192366 -5.85168e-05 -5.73638e-05 -4.24429e-05
-1.20744e-07 -7.91224e-07 3.90843e-07 -4.33217e-05
-1.12838e-07 -7.86618e-07 3.85481e-07 -4.33216e-05
-0.000191752 5.67323e-05 5.78656e-05 -4.24319e-05
-0.000190126 5.62579e-05 5.73719e-05 -4.24318e-05
0.000189972 -5.77785e-05 -5.66546e-05 -4.24425e-05
0.000191568 -5.82707e-05 -5.71274e-05 -4.24428e-05
-0.000190939 5.64951e-05 5.76188e-05 -4.24319e-05
-8.93186e-08 -7.72912e-07 3.69527e-07 -4.33212e-05
0.00019077 -5.80246e-05 -5.6891e-05 -4.24427e-05
-1.04965e-07 -7.8203e-07 3.80141e-07 -4.33215e-05
-9.71257e-08 -7.77461e-07 3.74823e-07 -4.33214e-05
-0.000190126 5.62579e-05 5.73719e-05 -4.24318e-05
-0.000188499 5.57834e-05 5.68783e-05 -4.24316e-05
0.000188377 -5.72863e-05 -5.61816e-05 -4.24422e-05
0.000189972 -5.77785e-05 -5.66546e-05 -4.24425e-05
-0.000189312 5.60206e-05 5.71251e-05 -4.24317e-05
-7.38032e-08 -7.6387e-07 3.59003e-07 -4.3321e-05
0.000189175 -5.75324e-05 -5.64181e-05 -4.24424e-05
-8.93186e-08 -7.72912e-07 3.69527e-07 -4.33212e-05
-8.15446e-08 -7.68382e-07 3.64254e-07 -4.33211e-05
-0.000188499 5.57834e-05 5.68783e-05 -4.24316e-05
-0.000186873 5.53088e-05 5.63847e-05 -4.24314e-05
0.000186781 -5.67942e-05 -5.57086e-05 -4.2442e-05
0.000188377 -5.72863e-05 -5.61816e-05 -4.24422e-05
-0.000187686 5.55461e-05 5.66315e-05 -4.24315e-05
-5.84193e-08 -7.54905e-07 3.48567e-07 -4.33208e-05
0.000187579 -5.70402e-05 -5.59451e-05 -4.24421e-05
-7.38032e-08 -7.6387e-07 3.59003e-07 -4.3321e-05
-6.60949e-08 -7.59378e-07 3.53774e-07 -4.33209e-05
-0.000186873 5.53088e-05 5.63847e-05 -4.24314e-05
-0.000185247 5.48342e-05 5.58913e-05 -4.24312e-05
0.000185185 -5.63022e-05 -5.52355e-05 -4.24417e-05
0.000186781 -5.67942e-05 -5.57086e-05 -4.2442e-05
-0.00018606 5.50715e-05 5.6138e-05 -4.24313e-05
-4.31667e-08 -7.46016e-07 3.38221e-07 -4.33205e-05
0.000185983 -5.65482e-05 -5.5472e-05 -4.24418e-05
-5.84193e-08 -7.54905e-07 3.48567e-07 -4.33208e-05
-5.07767e-08 -7.50451e-07 3.43383e-07 -4.33207e-05
-0.000185247 5.48342e-05 5.58913e-05 -4.24312e-05
-0.000183621 5.43594e-05 5.53979e-05 -4.2431e-05
0.000183589 -5.58103e-05 -5.47623e-05 -4.24414e-05
0.000185185 -5.63022e-05 -5.52355e-05 -4.24417e-05
-0.000184434 5.45968e-05 5.56446e-05 -4.24311e-05
-2.80457e-08 -7.37203e-07 3.27964e-07 -4.33203e-05
0.000184387 -5.60562e-05 -5.49989e-05 -4.24415e-05
-4.31667e-08 -7.46016e-07 3.38221e-07 -4.33205e-05
-3.55899e-08 -7.416e-07 3.33081e-07 -4.33204e-05
-0.000183621 5.43594e-05 5.53979e-05 -4.2431e-05
-0.000181996 5.38846e-05 5.49047e-05 -4.24308e-05
0.000181993 -5.53184e-05 -5.4289e-05 -4.24411e-05
0.000183589 -5.58103e-05 -5.47623e-05 -4.24414e-05
-0.000182808 5.4122e-05 5.51513e-05 -4.24309e-05
-1.30561e-08 -7.28466e-07 3.17795e-07 -4.33201e-05
0.000182791 -5.55643e-05 -5.45256e-05 -4.24413e-05
-2.80457e-08 -7.37203e-07 3.27964e-07 -4.33203e-05
-2.05345e-08 -7.32825e-07 3.22868e-07 -4.33202e-05
-0.000181996 5.38846e-05 5.49047e-05 -4.24308e-05
-0.00018037 5.34098e-05 5.44115e-05 -4.24307e-05
0.000180396 -5.48267e-05 -5.38156e-05 -4.24409e-05
0.000181993 -5.53184e-05 -5.4289e-05 -4.24411e-05
-0.000181183 5.36472e-05 5.46581e-05 -4.24307e-05
1.80205e-09 -7.19806e-07 3.07716e-07 -4.33198e-05
0.000181195 -5.50725e-05 -5.40523e-05 -4.2441e-05
-1.30561e-08 -7.28466e-07 3.17795e-07 -4.33201e-05
-5.61065e-09 -7.24127e-07 3.12745e-07 -4.332e-05
-0.00018037 5.34098e-05 5.44115e-05 -4.24307e-05
-0.000178744 5.29348e-05 5.39184e-05 -4.24305e-05
0.0001788 -5.4335e-05 -5.33422e-05 -4.24406e-05
0.000180396 -5.48267e-05 -5.38156e-05 -4.24409e-05
-0.000179557 5.31723e-05 5.41649e-05 -4.24306e-05
1.65287e-08 -7.11222e-07 2.97726e-07 -4.33196e-05
0.000179598 -5.45808e-05 -5.35789e-05 -4.24407e-05
1.80205e-09 -7.19806e-07 3.07716e-07 -4.33198e-05
9.1817e-09 -7.15505e-07 3.0271e-07 -4.33197e-05
-0.000178744 5.29348e-05 5.39184e-05 -4.24305e-05
-0.000177119 5.24598e-05 5.34254e-05 -4.24303e-05
0.000177203 -5.38433e-05 -5.28686e-05 -4.24403e-05
0.0001788 -5.4335e-05 -5.33422e-05 -4.24406e-05
-0.000177932 5.26973e-05 5.36719e-05 -4.24304e-05
3.11238e-08 -7.02715e-07 2.87825e-07 -4.33194e-05
0.000178002 -5.40891e-05 -5.31054e-05 -4.24404e-05
1.65287e-08 -7.11222e-07 2.97726e-07 -4.33196e-05
2.38426e-08 -7.06959e-07 2.92764e-07 -4.33195e-05
-0.000177119 5.24598e-05 5.34254e-05 -4.24303e-05
-0.000175494 5.19848e-05 5.29325e-05 -4.24301e-05
0.000175607 -5.33518e-05 -5.2395e-05 -4.244e-05
0.000177203 -5.38433e-05 -5.28686e-05 -4.24403e-05
-0.000176306 5.22223e-05 5.31789e-05 -4.24302e-05
4.55873e-08 -6.94284e-07 2.78013e-07 -4.33191e-05
0.000176405 -5.35976e-05 -5.26318e-05 -4.24402e-05
3.11238e-08 -7.02715e-07 2.87825e-07 -4.33194e-05
3.83719e-08 -6.9849e-07 2.82908e-07 -4.33193e-05
-0.000175494 5.19848e-05 5.29325e-05 -4.24301e-05
-0.000173869 5.15096e-05 5.24397e-05 -4.24299e-05
0.00017401 -5.28603e-05 -5.19213e-05 -4.24398e-05
0.000175607 -5.33518e-05 -5.2395e-05 -4.244e-05
-0.000174681 5.17472e-05 5.26861e-05 -4.243e-05
5.99193e-08 -6.85929e-07 2.6829e-07 -4.33189e-05
0.000174808 -5.3106e-05 -5.21582e-05 -4.24399e-05
4.55873e-08 -6.94284e-07 2.78013e-07 -4.33191e-05
5.27697e-08 -6.90097e-07 2.7314e-07 -4.3319e-05
-0.000173869 5.15096e-05 5.24397e-05 -4.24299e-05
-0.000172244 5.10344e-05 5.19469e-05 -4.24297e-05
0.000172413 -5.23689e-05 -5.14475e-05 -4.24395e-05
0.00017401 -5.28603e-05 -5.19213e-05 -4.24398e-05
-0.000173056 5.1272e-05 5.21933e-05 -4.24298e-05
7.41197e-08 -6.77651e-07 2.58656e-07 -4.33187e-05
0.000173212 -5.26146e-05 -5.16844e-05 -4.24396e-05
5.99193e-08 -6.85929e-07 2.6829e-07 -4.33189e-05
6.70359e-08 -6.81781e-07 2.63462e-07 -4.33188e-05
-0.000172244 5.10344e-05 5.19469e-05 -4.24297e-05
-0.000170619 5.05591e-05 5.14543e-05 -4.24296e-05
0.000170816 -5.18776e-05 -5.09736e-05 -4.24392e-05
0.000172413 -5.23689e-05 -5.14475e-05 -4.24395e-05
-0.000171432 5.07967e-05 5.17006e-05 -4.24296e-05
8.81886e-08 -6.6945e-07 2.49112e-07 -4.33184e-05
0.000171615 -5.21233e-05 -5.12106e-05 -4.24393e-05
7.41197e-08 -6.77651e-07 2.58656e-07 -4.33187e-05
8.11705e-08 -6.73541e-07 2.53873e-07 -4.33185e-05
-0.000170619 5.05591e-05 5.14543e-05 -4.24296e-05
-0.000168995 5.00837e-05 5.09618e-05 -4.24294e-05
0.000169219 -5.13864e-05 -5.04996e-05 -4.24389e-05
0.000170816 -5.18776e-05 -5.09736e-05 -4.24392e-05
-0.000169807 5.03214e-05 5.1208e-05 -4.24295e-05
1.02126e-07 -6.61324e-07 2.39656e-07 -4.33182e-05
0.000170017 -5.1632e-05 -5.07366e-05 -4.24391e-05
8.81886e-08 -6.6945e-07 2.49112e-07 -4.33184e-05
9.51736e-08 -6.65377e-07 2.44373e-07 -4.33183e-05
-0.000168995 5.00837e-05 5.09618e-05 -4.24294e-05
-0.00016737 4.96083e-05 5.04693e-05 -4.24292e-05
0.000167622 -5.08952e-05 -5.00256e-05 -4.24387e-05
0.000169219 -5.13864e-05 -5.04996e-05 -4.24389e-05
-0.000168182 4.9846e-05 5.07155e-05 -4.24293e-05
1.15931e-07 -6.53275e-07 2.3029e-07 -4.3318e-05
0.00016842 -5.11408e-05 -5.02626e-05 -4.24388e-05
1.02126e-07 -6.61324e-07 2.39656e-07 -4.33182e-05
1.09045e-07 -6.5729e-07 2.34962e-07 -4.33181e-05
-0.00016737 4.96083e-05 5.04693e-05 -4.24292e-05
-0.000165746 4.91328e-05 4.99769e-05 -4.2429e-05
0.000166024 -5.04042e-05 -4.95515e-05 -4.24384e-05
0.000167622 -5.08952e-05 -5.00256e-05 -4.24387e-05
-0.000166558 4.93705e-05 5.02231e-05 -4.24291e-05
1.29605e-07 -6.45303e-07 2.21013e-07 -4.33177e-05
0.000166823 -5.06497e-05 -4.97885e-05 -4.24385e-05
1.15931e-07 -6.53275e-07 2.3029e-07 -4.3318e-05
1.22785e-07 -6.4928e-07 2.25641e-07 -4.33179e-05
-0.000165746 4.91328e-05 4.99769e-05 -4.2429e-05
-0.000164121 4.86572e-05 4.94847e-05 -4.24288e-05
0.000164427 -4.99132e-05 -4.90772e-05 -4.24381e-05
0.000166024 -5.04042e-05 -4.95515e-05 -4.24384e-05
-0.000164934 4.8895e-05 4.97308e-05 -4.24289e-05
1.43148e-07 -6.37407e-07 2.11826e-07 -4.33175e-05
0.000165225 -5.01586e-05 -4.93144e-05 -4.24383e-05
1.29605e-07 -6.45303e-07 2.21013e-07 -4.33177e-05
1.36393e-07 -6.41346e-07 2.16408e-07 -4.33176e-05
-0.000164121 4.86572e-05 4.94847e-05 -4.24288e-05
-0.000162497 4.81815e-05 4.89925e-05 -4.24286e-05
0.000162829 -4.94222e-05 -4.86029e-05 -4.24378e-05
0.000164427 -4.99132e-05 -4.90772e-05 -4.24381e-05
-0.000163309 4.84194e-05 4.92386e-05 -4.24287e-05
1.56559e-07 -6.29588e-07 2.02727e-07 -4.33173e-05
0.000163628 -4.96677e-05 -4.88401e-05 -4.2438e-05
1.43148e-07 -6.37407e-07 2.11826e-07 -4.33175e-05
1.4987e-07 -6.33488e-07 2.07265e-07 -4.33174e-05
-0.000162497 4.81815e-05 4.89925e-05 -4.24286e-05
-0.000160873 4.77058e-05 4.85004e-05 -4.24285e-05
0.000161231 -4.89314e-05 -4.81285e-05 -4.24376e-05
0.000162829 -4.94222e-05 -4.86029e-05 -4.24378e-05
-0.000161685 4.79437e-05 4.87464e-05 -4.24286e-05
1.69838e-07 -6.21846e-07 1.93718e-07 -4.3317e-05
0.00016203 -4.91768e-05 -4.83658e-05 -4.24377e-05
1.56559e-07 -6.29588e-07 2.02727e-07 -4.33173e-05
1.63214e-07 -6.25707e-07 1.98211e-07 -4.33172e-05
-0.000160873 4.77058e-05 4.85004e-05 -4.24285e-05
-0.00015925 4.723e-05 4.80084e-05 -4.24283e-05
0.000159633 -4.84406e-05 -4.76541e-05 -4.24373e-05
0.000161231 -4.89314e-05 -4.81285e-05 -4.24376e-05
-0.000160061 4.74679e-05 4.82544e-05 -4.24284e-05
1.82985e-07 -6.14179e-07 1.84798e-07 -4.33168e-05
0.000160432 -4.8686e-05 -4.78913e-05 -4.24374e-05
1.69838e-07 -6.21846e-07 1.93718e-07 -4.3317e-05
1.76428e-07 -6.18003e-07 1.89247e-07 -4.33169e-05
-0.00015925 4.723e-05 4.80084e-05 -4.24283e-05
-0.000157626 4.67541e-05 4.75165e-05 -4.24281e-05
0.000158035 -4.79499e-05 -4.71795e-05 -4.2437e-05
0.000159633 -4.84406e-05 -4.76541e-05 -4.24373e-05
-0.000158438 4.69921e-05 4.77624e-05 -4.24282e-05
1.96001e-07 -6.0659e-07 1.75967e-07 -4.33166e-05
0.000158834 -4.81953e-05 -4.74168e-05 -4.24372e-05
1.82985e-07 -6.14179e-07 1.84798e-07 -4.33168e-05
1.89509e-07 -6.10375e-07 1.80371e-07 -4.33167e-05
-0.000157626 4.67541e-05 4.75165e-05 -4.24281e-05
-0.000156002 4.62782e-05 4.70246e-05 -4.24279e-05
0.000156437 -4.74593e-05 -4.67049e-05 -4.24368e-05
0.000158035 -4.79499e-05 -4.71795e-05 -4.2437e-05
-0.000156814 4.65162e-05 4.72705e-05 -4.2428e-05
2.08885e-07 -5.99077e-07 1.67225e-07 -4.33164e-05
0.000157236 -4.77046e-05 -4.69422e-05 -4.24369e-05
1.96001e-07 -6.0659e-07 1.75967e-07 -4.33166e-05
2.02459e-07 -6.02824e-07 1.71585e-07 -4.33165e-05
-0.000156002 4.62782e-05 4.70246e-05 -4.24279e-05
-0.000154379 4.58022e-05 4.65329e-05 -4.24278e-05
0.000154839 -4.69688e-05 -4.62301e-05 -4.24365e-05
0.000156437 -4.74593e-05 -4.67049e-05 -4.24368e-05
-0.000155191 4.60402e-05 4.67788e-05 -4.24278e-05
2.21637e-07 -5.9164e-07 1.58573e-07 -4.33161e-05
0.000155638 -4.7214e-05 -4.64675e-05 -4.24366e-05
2.08885e-07 -5.99077e-07 1.67225e-07 -4.33164e-05
2.15277e-07 -5.95349e-07 1.62888e-07 -4.33162e-05
-0.000154379 4.58022e-05 4.65329e-05 -4.24278e-05
-0.000152756 4.53261e-05 4.60413e-05 -4.24276e-05
0.000153241 -4.64783e-05 -4.57553e-05 -4.24362e-05
0.000154839 -4.69688e-05 -4.62301e-05 -4.24365e-05
-0.000153567 4.55641e-05 4.62871e-05 -4.24277e-05
2.34257e-07 -5.84281e-07 1.5001e-07 -4.33159e-05
0.00015404 -4.67235e-05 -4.59927e-05 -4.24364e-05
2.21637e-07 -5.9164e-07 1.58573e-07 -4.33161e-05
2.27963e-07 -5.87951e-07 1.5428e-07 -4.3316e-05
-0.000152756 4.53261e-05 4.60413e-05 -4.24276e-05
-0.000151133 4.48499e-05 4.55497e-05 -4.24274e-05
0.000151642 -4.59879e-05 -4.52804e-05 -4.2436e-05
0.000153241 -4.64783e-05 -4.57553e-05 -4.24362e-05
-0.000151944 4.5088e-05 4.57955e-05 -4.24275e-05
2.46746e-07 -5.76998e-07 1.41536e-07 -4.33157e-05
0.000152441 -4.62331e-05 -4.55179e-05 -4.24361e-05
2.34257e-07 -5.84281e-07 1.5001e-07 -4.33159e-05
2.40518e-07 -5.8063e-07 1.45762e-07 -4.33158e-05
-0.000151133 4.48499e-05 4.55497e-05 -4.24274e-05
-0.00014951 4.43737e-05 4.50582e-05 -4.24272e-05
0.000150044 -4.54976e-05 -4.48054e-05 -4.24357e-05
0.000151642 -4.59879e-05 -4.52804e-05 -4.2436e-05
-0.000150321 4.46118e-05 4.5304e-05 -4.24273e-05
2.59103e-07 -5.69791e-07 1.33152e-07 -4.33155e-05
0.000150843 -4.57428e-05 -4.50429e-05 -4.24358e-05
2.46746e-07 -5.76998e-07 1.41536e-07 -4.33157e-05
2.52941e-07 -5.73385e-07 1.37333e-07 -4.33156e-05
-0.00014951 4.43737e-05 4.50582e-05 -4.24272e-05
-0.000147887 4.38974e-05 4.45669e-05 -4.24271e-05
0.000148445 -4.50074e-05 -4.43304e-05 -4.24354e-05
0.000150044 -4.54976e-05 -4.48054e-05 -4.24357e-05
-0.000148698 4.41356e-05 4.48125e-05 -4.24271e-05
2.71328e-07 -5.62661e-07 1.24857e-07 -4.33152e-05
0.000149244 -4.52525e-05 -4.45679e-05 -4.24356e-05
2.59103e-07 -5.69791e-07 1.33152e-07 -4.33155e-05
2.65232e-07 -5.66217e-07 1.28993e-07 -4.33153e-05
-0.000147887 4.38974e-05 4.45669e-05 -4.24271e-05
-0.000146264 4.3421e-05 4.40756e-05 -4.24269e-05
0.000146846 -4.45172e-05 -4.38552e-05 -4.24352e-05
0.000148445 -4.50074e-05 -4.43304e-05 -4.24354e-05
-0.000147075 4.36592e-05 4.43212e-05 -4.2427e-05
2.83421e-07 -5.55608e-07 1.16651e-07 -4.3315e-05
0.000147645 -4.47623e-05 -4.40928e-05 -4.24353e-05
2.71328e-07 -5.62661e-07 1.24857e-07 -4.33152e-05
2.77391e-07 -5.59125e-07 1.20743e-07 -4.33151e-05
-0.000146264 4.3421e-05 4.40756e-05 -4.24269e-05
-0.000144641 4.29446e-05 4.35844e-05 -4.24267e-05
0.000145247 -4.40272e-05 -4.338e-05 -4.24349e-05
0.000146846 -4.45172e-05 -4.38552e-05 -4.24352e-05
-0.000145453 4.31828e-05 4.383e-05 -4.24268e-05
2.95383e-07 -5.48632e-07 1.08535e-07 -4.33148e-05
0.000146047 -4.42722e-05 -4.36176e-05 -4.2435e-05
2.83421e-07 -5.55608e-07 1.16651e-07 -4.3315e-05
2.89419e-07 -5.5211e-07 1.12582e-07 -4.33149e-05
-0.000144641 4.29446e-05 4.35844e-05 -4.24267e-05
-0.000143019 4.24681e-05 4.30933e-05 -4.24265e-05
0.000143648 -4.35372e-05 -4.29046e-05 -4.24347e-05
0.000145247 -4.40272e-05 -4.338e-05 -4.24349e-05
-0.00014383 4.27063e-05 4.33388e-05 -4.24266e-05
3.07213e-07 -5.41732e-07 1.00508e-07 -4.33146e-05
0.000144448 -4.37822e-05 -4.31423e-05 -4.24348e-05
2.95383e-07 -5.48632e-07 1.08535e-07 -4.33148e-05
3.01314e-07 -5.45172e-07 1.04511e-07 -4.33147e-05
-0.000143019 4.24681e-05 4.30933e-05 -4.24265e-05
-0.000141397 4.19915e-05 4.26023e-05 -4.24264e-05
0.000142049 -4.30473e-05 -4.24292e-05 -4.24344e-05
0.000143648 -4.35372e-05 -4.29046e-05 -4.24347e-05
-0.000142208 4.22298e-05 4.28478e-05 -4.24265e-05
3.18911e-07 -5.34909e-07 9.25706e-08 -4.33144e-05
0.000142848 -4.32922e-05 -4.26669e-05 -4.24345e-05
3.07213e-07 -5.41732e-07 1.00508e-07 -4.33146e-05
3.13078e-07 -5.38311e-07 9.65283e-08 -4.33145e-05
-0.000141397 4.19915e-05 4.26023e-05 -4.24264e-05
-0.000139775 4.15148e-05 4.21113e-05 -4.24262e-05
0.000140449 -4.25574e-05 -4.19537e-05 -4.24341e-05
0.000142049 -4.30473e-05 -4.24292e-05 -4.24344e-05
-0.000140586 4.17531e-05 4.23568e-05 -4.24263e-05
3.30477e-07 -5.28163e-07 8.47225e-08 -4.33141e-05
0.000141249 -4.28023e-05 -4.21915e-05 -4.24343e-05
3.18911e-07 -5.34909e-07 9.25706e-08 -4.33144e-05
3.2471e-07 -5.31526e-07 8.86354e-08 -4.33142e-05
-0.000139775 4.15148e-05 4.21113e-05 -4.24262e-05
-0.000138153 4.10381e-05 4.16205e-05 -4.2426e-05
0.00013885 -4.20677e-05 -4.14781e-05 -4.24339e-05
0.000140449 -4.25574e-05 -4.19537e-05 -4.24341e-05
-0.000138964 4.12764e-05 4.18659e-05 -4.24261e-05
3.41911e-07 -5.21493e-07 7.69637e-08 -4.33139e-05
0.00013965 -4.23125e-05 -4.17159e-05 -4.2434e-05
3.30477e-07 -5.28163e-07 8.47225e-08 -4.33141e-05
3.3621e-07 -5.24818e-07 8.08319e-08 -4.3314e-05
-0.000138153 4.10381e-05 4.16205e-05 -4.2426e-05
-0.000136531 4.05612e-05 4.11298e-05 -4.24259e-05
0.00013725 -4.1578e-05 -4.10025e-05 -4.24336e-05
0.00013885 -4.20677e-05 -4.14781e-05 -4.24339e-05
-0.000137342 4.07997e-05 4.13751e-05 -4.2426e-05
3.53213e-07 -5.149e-07 6.92943e-08 -4.33137e-05
0.00013805 -4.18228e-05 -4.12403e-05 -4.24338e-05
3.41911e-07 -5.21493e-07 7.69637e-08 -4.33139e-05
3.47579e-07 -5.18187e-07 7.31178e-08 -4.33138e-05
-0.000136531 4.05612e-05 4.11298e-05 -4.24259e-05
-0.000134909 4.00844e-05 4.06391e-05 -4.24257e-05
0.000135651 -4.10884e-05 -4.05267e-05 -4.24334e-05
0.00013725 -4.1578e-05 -4.10025e-05 -4.24336e-05
-0.00013572 4.03228e-05 4.08844e-05 -4.24258e-05
3.64384e-07 -5.08384e-07 6.17143e-08 -4.33135e-05
0.000136451 -4.13332e-05 -4.07646e-05 -4.24335e-05
3.53213e-07 -5.149e-07 6.92943e-08 -4.33137e-05
3.58815e-07 -5.11632e-07 6.54932e-08 -4.33136e-05
-0.000134909 4.00844e-05 4.06391e-05 -4.24257e-05
-0.000133287 3.96074e-05 4.01486e-05 -4.24256e-05
0.000134051 -4.05988e-05 -4.00509e-05 -4.24331e-05
0.000135651 -4.10884e-05 -4.05267e-05 -4.24334e-05
-0.000134098 3.98459e-05 4.03938e-05 -4.24256e-05
3.75422e-07 -5.01945e-07 5.42238e-08 -4.33133e-05
0.000134851 -4.08436e-05 -4.02888e-05 -4.24332e-05
3.64384e-07 -5.08384e-07 6.17143e-08 -4.33135e-05
3.6992e-07 -5.05155e-07 5.79579e-08 -4.33134e-05
-0.000133287 3.96074e-05 4.01486e-05 -4.24256e-05
-0.000131666 3.91304e-05 3.96581e-05 -4.24254e-05
0.000132451 -4.01094e-05 -3.95749e-05 -4.24329e-05
0.000134051 -4.05988e-05 -4.00509e-05 -4.24331e-05
-0.000132477 3.93689e-05 3.99033e-05 -4.24255e-05
3.86329e-07 -4.95582e-07 4.68227e-08 -4.33131e-05
0.000133251 -4.03541e-05 -3.98129e-05 -4.2433e-05
3.75422e-07 -5.01945e-07 5.42238e-08 -4.33133e-05
3.80892e-07 -4.98754e-07 5.05121e-08 -4.33132e-05
-0.000131666 3.91304e-05 3.96581e-05 -4.24254e-05
-0.000130045 3.86533e-05 3.91677e-05 -4.24252e-05
0.000130851 -3.962e-05 -3.90989e-05 -4.24326e-05
0.000132451 -4.01094e-05 -3.95749e-05 -4.24329e-05
-0.000130855 3.88918e-05 3.94129e-05 -4.24253e-05
3.97104e-07 -4.89296e-07 3.95111e-08 -4.33129e-05
0.000131651 -3.98647e-05 -3.9337e-05 -4.24327e-05
3.86329e-07 -4.95582e-07 4.68227e-08 -4.33131e-05
3.91733e-07 -4.9243e-07 4.31557e-08 -4.3313e-05
-0.000130045 3.86533e-05 3.91677e-05 -4.24252e-05
-0.000128423 3.81761e-05 3.86774e-05 -4.24251e-05
0.000129251 -3.91307e-05 -3.86228e-05 -4.24324e-05
0.000130851 -3.962e-05 -3.90989e-05 -4.24326e-05
-0.000129234 3.84147e-05 3.89226e-05 -4.24252e-05
4.07747e-07 -4.83088e-07 3.22889e-08 -4.33127e-05
0.000130051 -3.93753e-05 -3.88609e-05 -4.24325e-05
3.97104e-07 -4.89296e-07 3.95111e-08 -4.33129e-05
4.02442e-07 -4.86182e-07 3.58888e-08 -4.33128e-05
-0.000128423 3.81761e-05 3.86774e-05 -4.24251e-05
-0.000126802 3.76989e-05 3.81872e-05 -4.24249e-05
0.00012765 -3.86415e-05 -3.81467e-05 -4.24321e-05
0.000129251 -3.91307e-05 -3.86228e-05 -4.24324e-05
-0.000127613 3.79375e-05 3.84323e-05 -4.2425e-05
4.18258e-07 -4.76955e-07 2.51562e-08 -4.33124e-05
0.000128451 -3.88861e-05 -3.83848e-05 -4.24322e-05
4.07747e-07 -4.83088e-07 3.22889e-08 -4.33127e-05
4.13019e-07 -4.80012e-07 2.87114e-08 -4.33126e-05
-0.000126802 3.76989e-05 3.81872e-05 -4.24249e-05
-0.000125181 3.72215e-05 3.76971e-05 -4.24248e-05
0.00012605 -3.81523e-05 -3.76704e-05 -4.24319e-05
0.00012765 -3.86415e-05 -3.81467e-05 -4.24321e-05
-0.000125992 3.74602e-05 3.79422e-05 -4.24248e-05
4.28637e-07 -4.709e-07 1.81129e-08 -4.33122e-05
0.00012685 -3.83969e-05 -3.79085e-05 -4.2432e-05
4.18258e-07 -4.76955e-07 2.51562e-08 -4.33124e-05
4.23464e-07 -4.73918e-07 2.16234e-08 -4.33123e-05
-0.000125181 3.72215e-05 3.76971e-05 -4.24248e-05
-0.000123561 3.67441e-05 3.72071e-05 -4.24246e-05
0.000124449 -3.76633e-05 -3.7194e-05 -4.24316e-05
0.00012605 -3.81523e-05 -3.76704e-05 -4.24319e-05
-0.000124371 3.69829e-05 3.74521e-05 -4.24247e-05
4.38884e-07 -4.64922e-07 1.11591e-08 -4.3312e-05
0.00012525 -3.79078e-05 -3.74322e-05 -4.24318e-05
4.28637e-07 -4.709e-07 1.81129e-08 -4.33122e-05
4.33777e-07 -4.67901e-07 1.46249e-08 -4.33121e-05
-0.000123561 3.67441e-05 3.72071e-05 -4.24246e-05
-0.00012194 3.62667e-05 3.67172e-05 -4.24245e-05
0.000122849 -3.71743e-05 -3.67176e-05 -4.24314e-05
0.000124449 -3.76633e-05 -3.7194e-05 -4.24316e-05
-0.00012275 3.65054e-05 3.69621e-05 -4.24245e-05
4.48999e-07 -4.5902e-07 4.29488e-09 -4.33118e-05
0.000123649 -3.74188e-05 -3.69558e-05 -4.24315e-05
4.38884e-07 -4.64922e-07 1.11591e-08 -4.3312e-05
4.43958e-07 -4.61961e-07 7.71585e-09 -4.33119e-05
-0.00012194 3.62667e-05 3.67172e-05 -4.24245e-05
-0.00012032 3.57891e-05 3.62273e-05 -4.24243e-05
0.000121248 -3.66854e-05 -3.62411e-05 -4.24311e-05
0.000122849 -3.71743e-05 -3.67176e-05 -4.24314e-05
-0.00012113 3.60279e-05 3.64722e-05 -4.24244e-05
4.58982e-07 -4.53196e-07 -2.47989e-09 -4.33116e-05
0.000122048 -3.69298e-05 -3.64793e-05 -4.24313e-05
4.48999e-07 -4.5902e-07 4.29488e-09 -4.33118e-05
4.54007e-07 -4.56098e-07 8.9633e-10 -4.33117e-05
-0.00012032 3.57891e-05 3.62273e-05 -4.24243e-05
-0.000118699 3.53115e-05 3.57376e-05 -4.24242e-05
0.000119647 -3.61965e-05 -3.57645e-05 -4.24309e-05
0.000121248 -3.66854e-05 -3.62411e-05 -4.24311e-05
-0.000119509 3.55504e-05 3.59824e-05 -4.24242e-05
4.68833e-07 -4.47448e-07 -9.16514e-09 -4.33114e-05
0.000120447 -3.64409e-05 -3.60028e-05 -4.2431e-05
4.58982e-07 -4.53196e-07 -2.47989e-09 -4.33116e-05
4.63924e-07 -4.50312e-07 -5.83368e-09 -4.33115e-05
-0.000118699 3.53115e-05 3.57376e-05 -4.24242e-05
-0.000117079 3.48339e-05 3.52479e-05 -4.2424e-05
0.000118046 -3.57078e-05 -3.52878e-05 -4.24307e-05
0.000119647 -3.61965e-05 -3.57645e-05 -4.24309e-05
-0.000117889 3.50727e-05 3.54927e-05 -4.24241e-05
4.78552e-07 -4.41777e-07 -1.57609e-08 -4.33113e-05
0.000118846 -3.59521e-05 -3.55261e-05 -4.24308e-05
4.68833e-07 -4.47448e-07 -9.16514e-09 -4.33114e-05
4.73709e-07 -4.44603e-07 -1.24742e-08 -4.33113e-05
-0.000117079 3.48339e-05 3.52479e-05 -4.2424e-05
-0.000115459 3.43561e-05 3.47583e-05 -4.24239e-05
0.000116445 -3.52191e-05 -3.4811e-05 -4.24304e-05
0.000118046 -3.57078e-05 -3.52878e-05 -4.24307e-05
-0.000116269 3.4595e-05 3.50031e-05 -4.24239e-05
4.88139e-07 -4.36183e-07 -2.22671e-08 -4.33111e-05
0.000117245 -3.54634e-05 -3.50494e-05 -4.24306e-05
4.78552e-07 -4.41777e-07 -1.57609e-08 -4.33113e-05
4.83362e-07 -4.3897e-07 -1.90251e-08 -4.33112e-05
-0.000115459 3.43561e-05 3.47583e-05 -4.24239e-05
-0.000113839 3.38783e-05 3.42689e-05 -4.24237e-05
0.000114843 -3.47305e-05 -3.43341e-05 -4.24302e-05
0.000116445 -3.52191e-05 -3.4811e-05 -4.24304e-05
-0.000114649 3.41172e-05 3.45136e-05 -4.24238e-05
4.97594e-07 -4.30666e-07 -2.86837e-08 -4.33109e-05
0.000115644 -3.49748e-05 -3.45726e-05 -4.24303e-05
4.88139e-07 -4.36183e-07 -2.22671e-08 -4.33111e-05
4.92883e-07 -4.33415e-07 -2.54866e-08 -4.3311e-05
-0.000113839 3.38783e-05 3.42689e-05 -4.24237e-05
-0.000112219 3.34004e-05 3.37795e-05 -4.24236e-05
0.000113242 -3.4242e-05 -3.38572e-05 -4.243e-05
0.000114843 -3.47305e-05 -3.43341e-05 -4.24302e-05
-0.000113029 3.36393e-05 3.40242e-05 -4.24237e-05
5.06918e-07 -4.25226e-07 -3.50108e-08 -4.33107e-05
0.000114043 -3.44862e-05 -3.40956e-05 -4.24301e-05
4.97594e-07 -4.30666e-07 -2.86837e-08 -4.33109e-05
5.02272e-07 -4.27936e-07 -3.18584e-08 -4.33108e-05
-0.000112219 3.34004e-05 3.37795e-05 -4.24236e-05
-0.000110599 3.29224e-05 3.32902e-05 -4.24235e-05
0.00011164 -3.37535e-05 -3.33801e-05 -4.24297e-05
0.000113242 -3.4242e-05 -3.38572e-05 -4.243e-05
-0.000111409 3.31614e-05 3.35348e-05 -4.24235e-05
5.16109e-07 -4.19862e-07 -4.12484e-08 -4.33105e-05
0.000112441 -3.39977e-05 -3.36186e-05 -4.24299e-05
5.06918e-07 -4.25226e-07 -3.50108e-08 -4.33107e-05
5.1153e-07 -4.22534e-07 -3.81408e-08 -4.33106e-05
-0.000110599 3.29224e-05 3.32902e-05 -4.24235e-05
-0.00010898 3.24443e-05 3.2801e-05 -4.24233e-05
0.000110039 -3.32651e-05 -3.2903e-05 -4.24295e-05
0.00011164 -3.37535e-05 -3.33801e-05 -4.24297e-05
-0.00010979 3.26834e-05 3.30456e-05 -4.24234e-05
5.25168e-07 -4.14576e-07 -4.73964e-08 -4.33103e-05
0.00011084 -3.35093e-05 -3.31416e-05 -4.24296e-05
5.16109e-07 -4.19862e-07 -4.12484e-08 -4.33105e-05
5.20655e-07 -4.1721e-07 -4.43335e-08 -4.33104e-05
-0.00010898 3.24443e-05 3.2801e-05 -4.24233e-05
-0.000107361 3.19662e-05 3.23118e-05 -4.24232e-05
0.000108437 -3.27768e-05 -3.24258e-05 -4.24293e-05
0.000110039 -3.32651e-05 -3.2903e-05 -4.24295e-05
-0.00010817 3.22053e-05 3.25564e-05 -4.24233e-05
5.34095e-07 -4.09367e-07 -5.34548e-08 -4.33101e-05
0.000109238 -3.3021e-05 -3.26644e-05 -4.24294e-05
5.25168e-07 -4.14576e-07 -4.73964e-08 -4.33103e-05
5.29648e-07 -4.11962e-07 -5.04367e-08 -4.33102e-05
-0.000107361 3.19662e-05 3.23118e-05 -4.24232e-05
-0.000105741 3.1488e-05 3.18228e-05 -4.24231e-05
0.000106835 -3.22886e-05 -3.19485e-05 -4.24291e-05
0.000108437 -3.27768e-05 -3.24258e-05 -4.24293e-05
-0.000106551 3.17271e-05 3.20673e-05 -4.24231e-05
5.4289e-07 -4.04234e-07 -5.94236e-08 -4.33099e-05
0.000107636 -3.25327e-05 -3.21871e-05 -4.24292e-05
5.34095e-07 -4.09367e-07 -5.34548e-08 -4.33101e-05
5.38508e-07 -4.06791e-07 -5.64504e-08 -4.331e-05
-0.000105741 3.1488e-05 3.18228e-05 -4.24231e-05
-0.000104122 3.10098e-05 3.13339e-05 -4.24229e-05
0.000105233 -3.18005e-05 -3.14711e-05 -4.24288e-05
0.000106835 -3.22886e-05 -3.19485e-05 -4.24291e-05
-0.000104932 3.12489e-05 3.15783e-05 -4.2423e-05
5.51552e-07 -3.99179e-07 -6.53029e-08 -4.33098e-05
0.000106034 -3.20446e-05 -3.17098e-05 -4.2429e-05
5.4289e-07 -4.04234e-07 -5.94236e-08 -4.33099e-05
5.47237e-07 -4.01697e-07 -6.23744e-08 -4.33098e-05
-0.000104122 3.10098e-05 3.13339e-05 -4.24229e-05
-0.000102503 3.05314e-05 3.0845e-05 -4.24228e-05
0.000103631 -3.13124e-05 -3.09936e-05 -4.24286e-05
0.000105233 -3.18005e-05 -3.14711e-05 -4.24288e-05
-0.000103313 3.07706e-05 3.10894e-05 -4.24229e-05
5.60083e-07 -3.94201e-07 -7.10925e-08 -4.33096e-05
0.000104432 -3.15564e-05 -3.12324e-05 -4.24287e-05
5.51552e-07 -3.99179e-07 -6.53029e-08 -4.33098e-05
5.55834e-07 -3.9668e-07 -6.82089e-08 -4.33097e-05
-0.000102503 3.05314e-05 3.0845e-05 -4.24228e-05
-0.000100884 3.0053e-05 3.03563e-05 -4.24227e-05
0.000102029 -3.08244e-05 -3.05161e-05 -4.24284e-05
0.000103631 -3.13124e-05 -3.09936e-05 -4.24286e-05
-0.000101694 3.02922e-05 3.06006e-05 -4.24227e-05
5.68482e-07 -3.89299e-07 -7.67925e-08 -4.33094e-05
0.00010283 -3.10684e-05 -3.07549e-05 -4.24285e-05
5.60083e-07 -3.94201e-07 -7.10925e-08 -4.33096e-05
5.64299e-07 -3.9174e-07 -7.39537e-08 -4.33095e-05
-0.000100884 3.0053e-05 3.03563e-05 -4.24227e-05
-9.92656e-05 2.95745e-05 2.98676e-05 -4.24225e-05
0.000100426 -3.03365e-05 -3.00384e-05 -4.24282e-05
0.000102029 -3.08244e-05 -3.05161e-05 -4.24284e-05
-0.000100075 2.98138e-05 3.01119e-05 -4.24226e-05
5.76748e-07 -3.84475e-07 -8.2403e-08 -4.33092e-05
0.000101227 -3.05805e-05 -3.02773e-05 -4.24283e-05
5.68482e-07 -3.89299e-07 -7.67925e-08 -4.33094e-05
5.72631e-07 -3.86877e-07 -7.96089e-08 -4.33093e-05
-9.92656e-05 2.95745e-05 2.98676e-05 -4.24225e-05
-9.7647e-05 2.9096e-05 2.9379e-05 -4.24224e-05
9.88237e-05 -2.98487e-05 -2.95607e-05 -4.2428e-05
0.000100426 -3.03365e-05 -3.00384e-05 -4.24282e-05
-9.84563e-05 2.93353e-05 2.96233e-05 -4.24225e-05
5.84883e-07 -3.79727e-07 -8.79238e-08 -4.33091e-05
9.96249e-05 -3.00926e-05 -2.97996e-05 -4.24281e-05
5.76748e-07 -3.84475e-07 -8.2403e-08 -4.33092e-05
5.80832e-07 -3.82091e-07 -8.51746e-08 -4.33091e-05
-9.7647e-05 2.9096e-05 2.9379e-05 -4.24224e-05
-9.60286e-05 2.86173e-05 2.88905e-05 -4.24223e-05
9.7221e-05 -2.93609e-05 -2.90829e-05 -4.24278e-05
9.88237e-05 -2.98487e-05 -2.95607e-05 -4.2428e-05
-9.68378e-05 2.88567e-05 2.91348e-05 -4.24224e-05
5.92885e-07 -3.75057e-07 -9.3355e-08 -4.33089e-05
9.80224e-05 -2.96048e-05 -2.93218e-05 -4.24279e-05
5.84883e-07 -3.79727e-07 -8.79238e-08 -4.33091e-05
5.889e-07 -3.77382e-07 -9.06506e-08 -4.3309e-05
-9.60286e-05 2.86173e-05 2.88905e-05 -4.24223e-05
-9.44103e-05 2.81386e-05 2.84021e-05 -4.24222e-05
9.56182e-05 -2.88733e-05 -2.8605e-05 -4.24276e-05
9.7221e-05 -2.93609e-05 -2.90829e-05 -4.24278e-05
-9.52194e-05 2.8378e-05 2.86463e-05 -4.24222e-05
6.00755e-07 -3.70464e-07 -9.86965e-08 -4.33087e-05
9.64196e-05 -2.91171e-05 -2.88439e-05 -4.24277e-05
5.92885e-07 -3.75057e-07 -9.3355e-08 -4.33089e-05
5.96837e-07 -3.72751e-07 -9.60369e-08 -4.33088e-05
-9.44103e-05 2.81386e-05 2.84021e-05 -4.24222e-05
-9.27921e-05 2.76599e-05 2.79138e-05 -4.24221e-05
9.40153e-05 -2.83857e-05 -2.8127e-05 -4.24273e-05
9.56182e-05 -2.88733e-05 -2.8605e-05 -4.24276e-05
-9.36012e-05 2.78992e-05 2.8158e-05 -4.24221e-05
6.08494e-07 -3.65947e-07 -1.03948e-07 -4.33086e-05
9.48168e-05 -2.86295e-05 -2.8366e-05 -4.24275e-05
6.00755e-07 -3.70464e-07 -9.86965e-08 -4.33087e-05
6.04641e-07 -3.68196e-07 -1.01334e-07 -4.33086e-05
-9.27921e-05 2.76599e-05 2.79138e-05 -4.24221e-05
-9.11741e-05 2.7181e-05 2.74256e-05 -4.2422e-05
9.24123e-05 -2.78982e-05 -2.76489e-05 -4.24271e-05
9.40153e-05 -2.83857e-05 -2.8127e-05 -4.24273e-05
-9.19831e-05 2.74204e-05 2.76697e-05 -4.2422e-05
6.161e-07 -3.61508e-07 -1.09111e-07 -4.33084e-05
9.32138e-05 -2.81419e-05 -2.7888e-05 -4.24272e-05
6.08494e-07 -3.65947e-07 -1.03948e-07 -4.33086e-05
6.12313e-07 -3.63718e-07 -1.06541e-07 -4.33085e-05
-9.11741e-05 2.7181e-05 2.74256e-05 -4.2422e-05
-8.95562e-05 2.67021e-05 2.69375e-05 -4.24218e-05
9.08092e-05 -2.74107e-05 -2.71708e-05 -4.24269e-05
9.24123e-05 -2.78982e-05 -2.76489e-05 -4.24271e-05
-9.03651e-05 2.69415e-05 2.71815e-05 -4.24219e-05
6.23573e-07 -3.57146e-07 -1.14183e-07 -4.33082e-05
9.16107e-05 -2.76544e-05 -2.74099e-05 -4.2427e-05
6.161e-07 -3.61508e-07 -1.09111e-07 -4.33084e-05
6.19853e-07 -3.59317e-07 -1.11658e-07 -4.33083e-05
-8.95562e-05 2.67021e-05 2.69375e-05 -4.24218e-05
-8.79384e-05 2.62231e-05 2.64494e-05 -4.24217e-05
8.92059e-05 -2.69233e-05 -2.66925e-05 -4.24267e-05
9.08092e-05 -2.74107e-05 -2.71708e-05 -4.24269e-05
-8.87473e-05 2.64626e-05 2.66934e-05 -4.24218e-05
6.30915e-07 -3.5286e-07 -1.19166e-07 -4.33081e-05
9.00075e-05 -2.7167e-05 -2.69317e-05 -4.24268e-05
6.23573e-07 -3.57146e-07 -1.14183e-07 -4.33082e-05
6.27261e-07 -3.54993e-07 -1.16686e-07 -4.33082e-05
-8.79384e-05 2.62231e-05 2.64494e-05 -4.24217e-05
-8.63208e-05 2.5744e-05 2.59615e-05 -4.24216e-05
8.76025e-05 -2.6436e-05 -2.62142e-05 -4.24265e-05
8.92059e-05 -2.69233e-05 -2.66925e-05 -4.24267e-05
-8.71296e-05 2.59835e-05 2.62054e-05 -4.24217e-05
6.38125e-07 -3.48652e-07 -1.2406e-07 -4.33079e-05
8.84042e-05 -2.66797e-05 -2.64534e-05 -4.24266e-05
6.30915e-07 -3.5286e-07 -1.19166e-07 -4.33081e-05
6.34536e-07 -3.50747e-07 -1.21624e-07 -4.3308e-05
-8.63208e-05 2.5744e-05 2.59615e-05 -4.24216e-05
-8.47033e-05 2.52649e-05 2.54736e-05 -4.24215e-05
8.5999e-05 -2.59488e-05 -2.57358e-05 -4.24263e-05
8.76025e-05 -2.6436e-05 -2.62142e-05 -4.24265e-05
-8.5512e-05 2.55044e-05 2.57175e-05 -4.24216e-05
6.45202e-07 -3.44521e-07 -1.28863e-07 -4.33078e-05
8.68007e-05 -2.61924e-05 -2.5975e-05 -4.24264e-05
6.38125e-07 -3.48652e-07 -1.2406e-07 -4.33079e-05
6.4168e-07 -3.46577e-07 -1.26473e-07 -4.33078e-05
-8.47033e-05 2.52649e-05 2.54736e-05 -4.24215e-05
-8.3086e-05 2.47856e-05 2.49859e-05 -4.24214e-05
8.43953e-05 -2.54617e-05 -2.52573e-05 -4.24262e-05
8.5999e-05 -2.59488e-05 -2.57358e-05 -4.24263e-05
-8.38946e-05 2.50253e-05 2.52297e-05 -4.24215e-05
6.52147e-07 -3.40467e-07 -1.33577e-07 -4.33076e-05
8.51971e-05 -2.57053e-05 -2.54965e-05 -4.24263e-05
6.45202e-07 -3.44521e-07 -1.28863e-07 -4.33078e-05
6.48691e-07 -3.42485e-07 -1.31231e-07 -4.33077e-05
-8.3086e-05 2.47856e-05 2.49859e-05 -4.24214e-05
-8.14688e-05 2.43063e-05 2.44982e-05 -4.24213e-05
8.27915e-05 -2.49746e-05 -2.47787e-05 -4.2426e-05
8.43953e-05 -2.54617e-05 -2.52573e-05 -4.24262e-05
-8.22773e-05 2.4546e-05 2.4742e-05 -4.24214e-05
6.5896e-07 -3.36491e-07 -1.38201e-07 -4.33075e-05
8.35934e-05 -2.52182e-05 -2.5018e-05 -4.24261e-05
6.52147e-07 -3.40467e-07 -1.33577e-07 -4.33076e-05
6.5557e-07 -3.38469e-07 -1.359e-07 -4.33075e-05
-8.14688e-05 2.43063e-05 2.44982e-05 -4.24213e-05
-7.98517e-05 2.3827e-05 2.40106e-05 -4.24212e-05
8.11876e-05 -2.44877e-05 -2.43e-05 -4.24258e-05
8.27915e-05 -2.49746e-05 -2.47787e-05 -4.2426e-05
-8.06602e-05 2.40667e-05 2.42544e-05 -4.24213e-05
6.65641e-07 -3.32591e-07 -1.42736e-07 -4.33073e-05
8.19896e-05 -2.47311e-05 -2.45393e-05 -4.24259e-05
6.5896e-07 -3.36491e-07 -1.38201e-07 -4.33075e-05
6.62317e-07 -3.34531e-07 -1.4048e-07 -4.33074e-05
-7.98517e-05 2.3827e-05 2.40106e-05 -4.24212e-05
-7.82347e-05 2.33475e-05 2.35231e-05 -4.24211e-05
7.95836e-05 -2.40007e-05 -2.38212e-05 -4.24256e-05
8.11876e-05 -2.44877e-05 -2.43e-05 -4.24258e-05
-7.90432e-05 2.35873e-05 2.37668e-05 -4.24212e-05
6.7219e-07 -3.28768e-07 -1.47181e-07 -4.33072e-05
8.03856e-05 -2.42442e-05 -2.40606e-05 -4.24257e-05
6.65641e-07 -3.32591e-07 -1.42736e-07 -4.33073e-05
6.68932e-07 -3.3067e-07 -1.4497e-07 -4.33073e-05
-7.82347e-05 2.33475e-05 2.35231e-05 -4.24211e-05
-7.66179e-05 2.2868e-05 2.30357e-05 -4.2421e-05
7.79795e-05 -2.35139e-05 -2.33424e-05 -4.24254e-05
7.95836e-05 -2.40007e-05 -2.38212e-05 -4.24256e-05
-7.74263e-05 2.31078e-05 2.32794e-05 -4.24211e-05
6.78606e-07 -3.25023e-07 -1.51536e-07 -4.3307e-05
7.87815e-05 -2.37573e-05 -2.35818e-05 -4.24255e-05
6.7219e-07 -3.28768e-07 -1.47181e-07 -4.33072e-05
6.75414e-07 -3.26886e-07 -1.4937e-07 -4.33071e-05
-7.66179e-05 2.2868e-05 2.30357e-05 -4.2421e-05
-7.50013e-05 2.23884e-05 2.25484e-05 -4.24209e-05
7.63752e-05 -2.30272e-05 -2.28634e-05 -4.24252e-05
7.79795e-05 -2.35139e-05 -2.33424e-05 -4.24254e-05
-7.58096e-05 2.26282e-05 2.2792e-05 -4.2421e-05
6.84891e-07 -3.21354e-07 -1.55801e-07 -4.33069e-05
7.71773e-05 -2.32705e-05 -2.31029e-05 -4.24253e-05
6.78606e-07 -3.25023e-07 -1.51536e-07 -4.3307e-05
6.81765e-07 -3.23179e-07 -1.5368e-07 -4.3307e-05
-7.50013e-05 2.23884e-05 2.25484e-05 -4.24209e-05
-7.33847e-05 2.19088e-05 2.20611e-05 -4.24209e-05
7.47708e-05 -2.25405e-05 -2.23844e-05 -4.2425e-05
7.63752e-05 -2.30272e-05 -2.28634e-05 -4.24252e-05
-7.4193e-05 2.21486e-05 2.23047e-05 -4.24209e-05
6.91043e-07 -3.17763e-07 -1.59977e-07 -4.33068e-05
7.5573e-05 -2.27838e-05 -2.26239e-05 -4.24251e-05
6.84891e-07 -3.21354e-07 -1.55801e-07 -4.33069e-05
6.87983e-07 -3.19549e-07 -1.579e-07 -4.33068e-05
-7.33847e-05 2.19088e-05 2.20611e-05 -4.24209e-05
-7.17683e-05 2.1429e-05 2.1574e-05 -4.24208e-05
7.31663e-05 -2.20539e-05 -2.19053e-05 -4.24249e-05
7.47708e-05 -2.25405e-05 -2.23844e-05 -4.2425e-05
-7.25765e-05 2.16689e-05 2.18175e-05 -4.24208e-05
6.97062e-07 -3.14248e-07 -1.64063e-07 -4.33066e-05
7.39685e-05 -2.22972e-05 -2.21449e-05 -4.2425e-05
6.91043e-07 -3.17763e-07 -1.59977e-07 -4.33068e-05
6.94069e-07 -3.15996e-07 -1.62031e-07 -4.33067e-05
-7.17683e-05 2.1429e-05 2.1574e-05 -4.24208e-05
-7.01521e-05 2.09492e-05 2.10869e-05 -4.24207e-05
7.15616e-05 -2.15674e-05 -2.14261e-05 -4.24247e-05
7.31663e-05 -2.20539e-05 -2.19053e-05 -4.24249e-05
-7.09602e-05 2.11891e-05 2.13304e-05 -4.24207e-05
7.0295e-07 -3.10811e-07 -1.68059e-07 -4.33065e-05
7.23639e-05 -2.18106e-05 -2.16657e-05 -4.24248e-05
6.97062e-07 -3.14248e-07 -1.64063e-07 -4.33066e-05
7.00023e-07 -3.1252e-07 -1.66072e-07 -4.33066e-05
-7.01521e-05 2.09492e-05 2.10869e-05 -4.24207e-05
-6.85359e-05 2.04693e-05 2.06e-05 -4.24206e-05
6.99568e-05 -2.10809e-05 -2.09468e-05 -4.24245e-05
7.15616e-05 -2.15674e-05 -2.14261e-05 -4.24247e-05
-6.9344e-05 2.07093e-05 2.08434e-05 -4.24207e-05
7.08705e-07 -3.07451e-07 -1.71966e-07 -4.33064e-05
7.07592e-05 -2.13241e-05 -2.11865e-05 -4.24246e-05
7.0295e-07 -3.10811e-07 -1.68059e-07 -4.33065e-05
7.05844e-07 -3.09122e-07 -1.70024e-07 -4.33064e-05
-6.85359e-05 2.04693e-05 2.06e-05 -4.24206e-05
-6.69199e-05 1.99894e-05 2.01131e-05 -4.24205e-05
6.83519e-05 -2.05946e-05 -2.04674e-05 -4.24244e-05
6.99568e-05 -2.10809e-05 -2.09468e-05 -4.24245e-05
-6.77279e-05 2.02294e-05 2.03565e-05 -4.24206e-05
7.14328e-07 -3.04169e-07 -1.75783e-07 -4.33063e-05
6.91544e-05 -2.08377e-05 -2.07071e-05 -4.24244e-05
7.08705e-07 -3.07451e-07 -1.71966e-07 -4.33064e-05
7.11533e-07 -3.058e-07 -1.73886e-07 -4.33063e-05
-6.69199e-05 1.99894e-05 2.01131e-05 -4.24205e-05
-6.53041e-05 1.95094e-05 1.96263e-05 -4.24205e-05
6.67469e-05 -2.01083e-05 -1.9988e-05 -4.24242e-05
6.83519e-05 -2.05946e-05 -2.04674e-05 -4.24244e-05
-6.6112e-05 1.97494e-05 1.98697e-05 -4.24205e-05
7.19819e-07 -3.00963e-07 -1.7951e-07 -4.33061e-05
6.75494e-05 -2.03514e-05 -2.02277e-05 -4.24243e-05
7.14328e-07 -3.04169e-07 -1.75783e-07 -4.33063e-05
7.1709e-07 -3.02556e-07 -1.77657e-07 -4.33062e-05
-6.53041e-05 1.95094e-05 1.96263e-05 -4.24205e-05
-6.36884e-05 1.90292e-05 1.91396e-05 -4.24204e-05
6.51417e-05 -1.9622e-05 -1.95084e-05 -4.2424e-05
6.67469e-05 -2.01083e-05 -1.9988e-05 -4.24242e-05
-6.44962e-05 1.92693e-05 1.9383e-05 -4.24204e-05
7.25177e-07 -2.97834e-07 -1.83147e-07 -4.3306e-05
6.59443e-05 -1.98651e-05 -1.97482e-05 -4.24241e-05
7.19819e-07 -3.00963e-07 -1.7951e-07 -4.33061e-05
7.22515e-07 -2.99389e-07 -1.8134e-07 -4.33061e-05
-6.36884e-05 1.90292e-05 1.91396e-05 -4.24204e-05
-6.20728e-05 1.85491e-05 1.8653e-05 -4.24203e-05
6.35365e-05 -1.91359e-05 -1.90288e-05 -4.24239e-05
6.51417e-05 -1.9622e-05 -1.95084e-05 -4.2424e-05
-6.28805e-05 1.87892e-05 1.88963e-05 -4.24204e-05
7.30404e-07 -2.94783e-07 -1.86695e-07 -4.33059e-05
6.43391e-05 -1.9379e-05 -1.92686e-05 -4.2424e-05
7.25177e-07 -2.97834e-07 -1.83147e-07 -4.3306e-05
7.27807e-07 -2.96299e-07 -1.84932e-07 -4.33059e-05
-6.20728e-05 1.85491e-05 1.8653e-05 -4.24203e-05
-6.04573e-05 1.80688e-05 1.81665e-05 -4.24203e-05
6.19311e-05 -1.86498e-05 -1.85491e-05 -4.24237e-05
6.35365e-05 -1.91359e-05 -1.90288e-05 -4.24239e-05
-6.1265e-05 1.83089e-05 1.84097e-05 -4.24203e-05
7.35497e-07 -2.91809e-07 -1.90152e-07 -4.33058e-05
6.27338e-05 -1.88929e-05 -1.8789e-05 -4.24238e-05
7.30404e-07 -2.94783e-07 -1.86695e-07 -4.33059e-05
7.32967e-07 -2.93286e-07 -1.88435e-07 -4.33058e-05
-6.04573e-05 1.80688e-05 1.81665e-05 -4.24203e-05
-5.8842e-05 1.75885e-05 1.76801e-05 -4.24202e-05
6.03255e-05 -1.81639e-05 -1.80693e-05 -4.24236e-05
6.19311e-05 -1.86498e-05 -1.85491e-05 -4.24237e-05
-5.96496e-05 1.78287e-05 1.79233e-05 -4.24202e-05
7.40459e-07 -2.88912e-07 -1.9352e-07 -4.33057e-05
6.11283e-05 -1.84068e-05 -1.83092e-05 -4.24236e-05
7.35497e-07 -2.91809e-07 -1.90152e-07 -4.33058e-05
7.37995e-07 -2.9035e-07 -1.91848e-07 -4.33057e-05
-5.8842e-05 1.75885e-05 1.76801e-05 -4.24202e-05
-5.72268e-05 1.71081e-05 1.71937e-05 -4.24201e-05
5.87199e-05 -1.7678e-05 -1.75894e-05 -4.24234e-05
6.03255e-05 -1.81639e-05 -1.80693e-05 -4.24236e-05
-5.80344e-05 1.73483e-05 1.74369e-05 -4.24202e-05
7.45288e-07 -2.86092e-07 -1.96798e-07 -4.33056e-05
5.95227e-05 -1.79209e-05 -1.78294e-05 -4.24235e-05
7.40459e-07 -2.88912e-07 -1.9352e-07 -4.33057e-05
7.4289e-07 -2.87492e-07 -1.9517e-07 -4.33056e-05
-5.72268e-05 1.71081e-05 1.71937e-05 -4.24201e-05
-5.56118e-05 1.66276e-05 1.67075e-05 -4.24201e-05
5.71141e-05 -1.71921e-05 -1.71094e-05 -4.24233e-05
5.87199e-05 -1.7678e-05 -1.75894e-05 -4.24234e-05
-5.64193e-05 1.68679e-05 1.69506e-05 -4.24201e-05
7.49985e-07 -2.8335e-07 -1.99986e-07 -4.33055e-05
5.7917e-05 -1.7435e-05 -1.73494e-05 -4.24233e-05
7.45288e-07 -2.86092e-07 -1.96798e-07 -4.33056e-05
7.47653e-07 -2.84711e-07 -1.98404e-07 -4.33055e-05
-5.56118e-05 1.66276e-05 1.67075e-05 -4.24201e-05
-5.39968e-05 1.61471e-05 1.62213e-05 -4.242e-05
5.55082e-05 -1.67064e-05 -1.66293e-05 -4.24231e-05
5.71141e-05 -1.71921e-05 -1.71094e-05 -4.24233e-05
-5.48043e-05 1.63873e-05 1.64644e-05 -4.242e-05
7.54551e-07 -2.80686e-07 -2.03085e-07 -4.33053e-05
5.63111e-05 -1.69492e-05 -1.68694e-05 -4.24232e-05
7.49985e-07 -2.8335e-07 -1.99986e-07 -4.33055e-05
7.52284e-07 -2.82009e-07 -2.01547e-07 -4.33054e-05
-5.39968e-05 1.61471e-05 1.62213e-05 -4.242e-05
-5.23821e-05 1.56664e-05 1.57353e-05 -4.242e-05
5.39021e-05 -1.62207e-05 -1.61492e-05 -4.2423e-05
5.55082e-05 -1.67064e-05 -1.66293e-05 -4.24231e-05
-5.31894e-05 1.59068e-05 1.59783e-05 -4.242e-05
7.58984e-07 -2.78101e-07 -2.06093e-07 -4.33052e-05
5.47052e-05 -1.64635e-05 -1.63893e-05 -4.2423e-05
7.54551e-07 -2.80686e-07 -2.03085e-07 -4.33053e-05
7.56784e-07 -2.79384e-07 -2.046e-07 -4.33053e-05
-5.23821e-05 1.56664e-05 1.57353e-05 -4.242e-05
-5.07674e-05 1.51857e-05 1.52493e-05 -4.24199e-05
5.2296e-05 -1.57351e-05 -1.56689e-05 -4.24228e-05
5.39021e-05 -1.62207e-05 -1.61492e-05 -4.2423e-05
-5.15747e-05 1.54261e-05 1.54923e-05 -4.24199e-05
7.63287e-07 -2.75595e-07 -2.09011e-07 -4.33052e-05
5.30991e-05 -1.59779e-05 -1.59091e-05 -4.24229e-05
7.58984e-07 -2.78101e-07 -2.06093e-07 -4.33052e-05
7.61152e-07 -2.76838e-07 -2.07563e-07 -4.33052e-05
-5.07674e-05 1.51857e-05 1.52493e-05 -4.24199e-05
-4.91529e-05 1.47049e-05 1.47634e-05 -4.24199e-05
5.06897e-05 -1.52496e-05 -1.51886e-05 -4.24227e-05
5.2296e-05 -1.57351e-05 -1.56689e-05 -4.24228e-05
-4.99601e-05 1.49453e-05 1.50063e-05 -4.24199e-05
7.6746e-07 -2.73169e-07 -2.11839e-07 -4.33051e-05
5.14928e-05 -1.54923e-05 -1.54288e-05 -4.24228e-05
7.63287e-07 -2.75595e-07 -2.09011e-07 -4.33052e-05
7.6539e-07 -2.74372e-07 -2.10436e-07 -4.33051e-05
-4.91529e-05 1.47049e-05 1.47634e-05 -4.24199e-05
-4.75385e-05 1.42241e-05 1.42776e-05 -4.24198e-05
4.90833e-05 -1.47641e-05 -1.47082e-05 -4.24226e-05
5.06897e-05 -1.52496e-05 -1.51886e-05 -4.24227e-05
-4.83457e-05 1.44645e-05 1.45205e-05 -4.24198e-05
7.71504e-07 -2.70824e-07 -2.14577e-07 -4.3305e-05
4.98865e-05 -1.50068e-05 -1.49484e-05 -4.24226e-05
7.6746e-07 -2.73169e-07 -2.11839e-07 -4.33051e-05
7.69498e-07 -2.71986e-07 -2.13219e-07 -4.3305e-05
-4.75385e-05 1.42241e-05 1.42776e-05 -4.24198e-05
-4.59242e-05 1.37432e-05 1.37919e-05 -4.24198e-05
4.74767e-05 -1.42788e-05 -1.42277e-05 -4.24224e-05
4.90833e-05 -1.47641e-05 -1.47082e-05 -4.24226e-05
-4.67314e-05 1.39836e-05 1.40347e-05 -4.24198e-05
7.7542e-07 -2.68562e-07 -2.17225e-07 -4.33049e-05
4.828e-05 -1.45214e-05 -1.4468e-05 -4.24225e-05
7.71504e-07 -2.70824e-07 -2.14577e-07 -4.3305e-05
7.73478e-07 -2.69683e-07 -2.15912e-07 -4.33049e-05
-4.59242e-05 1.37432e-05 1.37919e-05 -4.24198e-05
-4.43101e-05 1.32621e-05 1.33063e-05 -4.24197e-05
4.58701e-05 -1.37935e-05 -1.37471e-05 -4.24223e-05
4.74767e-05 -1.42788e-05 -1.42277e-05 -4.24224e-05
-4.51172e-05 1.35027e-05 1.35491e-05 -4.24197e-05
7.79212e-07 -2.66385e-07 -2.19783e-07 -4.33048e-05
4.66734e-05 -1.40361e-05 -1.39874e-05 -4.24224e-05
7.7542e-07 -2.68562e-07 -2.17225e-07 -4.33049e-05
7.77331e-07 -2.67463e-07 -2.18515e-07 -4.33048e-05
-4.43101e-05 1.32621e-05 1.33063e-05 -4.24197e-05
-4.26961e-05 1.2781e-05 1.28207e-05 -4.24197e-05
4.42633e-05 -1.33083e-05 -1.32664e-05 -4.24222e-05
4.58701e-05 -1.37935e-05 -1.37471e-05 -4.24223e-05
-4.35031e-05 1.30216e-05 1.30635e-05 -4.24197e-05
7.82881e-07 -2.64294e-07 -2.22251e-07 -4.33047e-05
4.50667e-05 -1.35509e-05 -1.35068e-05 -4.24223e-05
7.79212e-07 -2.66385e-07 -2.19783e-07 -4.33048e-05
7.81061e-07 -2.65329e-07 -2.21028e-07 -4.33047e-05
-4.26961e-05 1.2781e-05 1.28207e-05 -4.24197e-05
-4.10822e-05 1.22998e-05 1.23353e-05 -4.24196e-05
4.26564e-05 -1.28232e-05 -1.27857e-05 -4.24221e-05
4.42633e-05 -1.33083e-05 -1.32664e-05 -4.24222e-05
-4.18892e-05 1.25404e-05 1.2578e-05 -4.24197e-05
7.86432e-07 -2.62292e-07 -2.24632e-07 -4.33046e-05
4.34599e-05 -1.30658e-05 -1.30261e-05 -4.24221e-05
7.82881e-07 -2.64294e-07 -2.22251e-07 -4.33047e-05
7.84671e-07 -2.63282e-07 -2.23452e-07 -4.33047e-05
-4.10822e-05 1.22998e-05 1.23353e-05 -4.24196e-05
-3.94685e-05 1.18186e-05 1.185e-05 -4.24196e-05
4.10494e-05 -1.23382e-05 -1.23048e-05 -4.2422e-05
4.26564e-05 -1.28232e-05 -1.27857e-05 -4.24221e-05
-4.02753e-05 1.20592e-05 1.20926e-05 -4.24196e-05
7.89868e-07 -2.60378e-07 -2.26924e-07 -4.33045e-05
4.18529e-05 -1.25807e-05 -1.25452e-05 -4.2422e-05
7.86432e-07 -2.62292e-07 -2.24632e-07 -4.33046e-05
7.88164e-07 -2.61324e-07 -2.25789e-07 -4.33046e-05
-3.94685e-05 1.18186e-05 1.185e-05 -4.24196e-05
-3.78548e-05 1.13372e-05 1.13647e-05 -4.24195e-05
3.94423e-05 -1.18533e-05 -1.18239e-05 -4.24219e-05
4.10494e-05 -1.23382e-05 -1.23048e-05 -4.2422e-05
-3.86616e-05 1.15779e-05 1.16073e-05 -4.24195e-05
7.93193e-07 -2.58552e-07 -2.29132e-07 -4.33044e-05
4.02459e-05 -1.20957e-05 -1.20644e-05 -4.24219e-05
7.89868e-07 -2.60378e-07 -2.26924e-07 -4.33045e-05
7.91544e-07 -2.59454e-07 -2.28038e-07 -4.33045e-05
-3.78548e-05 1.13372e-05 1.13647e-05 -4.24195e-05
-3.62413e-05 1.08558e-05 1.08795e-05 -4.24194e-05
3.78351e-05 -1.13685e-05 -1.13429e-05 -4.24218e-05
3.94423e-05 -1.18533e-05 -1.18239e-05 -4.24219e-05
-3.7048e-05 1.10965e-05 1.11221e-05 -4.24195e-05
7.9641e-07 -2.5681e-07 -2.31257e-07 -4.33043e-05
3.86388e-05 -1.16109e-05 -1.15834e-05 -4.24218e-05
7.93193e-07 -2.58552e-07 -2.29132e-07 -4.33044e-05
7.94815e-07 -2.57671e-07 -2.30204e-07 -4.33044e-05
-3.62413e-05 1.08558e-05 1.08795e-05 -4.24194e-05
-3.46279e-05 1.03743e-05 1.03944e-05 -4.24193e-05
3.62279e-05 -1.08837e-05 -1.08618e-05 -4.24216e-05
3.78351e-05 -1.13685e-05 -1.13429e-05 -4.24218e-05
-3.54346e-05 1.06151e-05 1.06369e-05 -4.24194e-05
7.99519e-07 -2.55139e-07 -2.33305e-07 -4.33042e-05
3.70315e-05 -1.11261e-05 -1.11023e-05 -4.24217e-05
7.9641e-07 -2.5681e-07 -2.31257e-07 -4.33043e-05
7.97978e-07 -2.55967e-07 -2.32291e-07 -4.33043e-05
-3.46279e-05 1.03743e-05 1.03944e-05 -4.24193e-05
-3.30146e-05 9.8928e-06 9.90935e-06 -4.24192e-05
3.46205e-05 -1.0399e-05 -1.03806e-05 -4.24215e-05
3.62279e-05 -1.08837e-05 -1.08618e-05 -4.24216e-05
-3.38212e-05 1.01336e-05 1.01519e-05 -4.24193e-05
8.02513e-07 -2.53519e-07 -2.35283e-07 -4.33041e-05
3.54242e-05 -1.06414e-05 -1.06212e-05 -4.24216e-05
7.99519e-07 -2.55139e-07 -2.33305e-07 -4.33042e-05
8.01031e-07 -2.54325e-07 -2.34303e-07 -4.33042e-05
-3.30146e-05 9.8928e-06 9.90935e-06 -4.24192e-05
-3.14015e-05 9.41129e-06 9.42437e-06 -4.24191e-05
3.3013e-05 -9.91439e-06 -9.89941e-06 -4.24213e-05
3.46205e-05 -1.0399e-05 -1.03806e-05 -4.24215e-05
-3.2208e-05 9.65204e-06 9.66685e-06 -4.24191e-05
8.05377e-07 -2.51912e-07 -2.37199e-07 -4.33039e-05
3.38168e-05 -1.01567e-05 -1.014e-05 -4.24214e-05
8.02513e-07 -2.53519e-07 -2.35283e-07 -4.33041e-05
8.03963e-07 -2.52717e-07 -2.36248e-07 -4.3304e-05
-3.14015e-05 9.41129e-06 9.42437e-06 -4.24191e-05
-2.97886e-05 8.92983e-06 8.93947e-06 -4.24189e-05
3.14054e-05 -9.42972e-06 -9.41816e-06 -4.2421e-05
3.3013e-05 -9.91439e-06 -9.89941e-06 -4.24213e-05
-3.0595e-05 9.17055e-06 9.18191e-06 -4.2419e-05
8.08078e-07 -2.50257e-07 -2.39066e-07 -4.33036e-05
3.22092e-05 -9.67206e-06 -9.65879e-06 -4.24211e-05
8.05377e-07 -2.51912e-07 -2.37199e-07 -4.33039e-05
8.0675e-07 -2.51096e-07 -2.38138e-07 -4.33037e-05
-2.97886e-05 8.92983e-06 8.93947e-06 -4.24189e-05
-2.81759e-05 8.4485e-06 8.45461e-06 -4.24187e-05
2.97977e-05 -8.9449e-06 -8.9369e-06 -4.24206e-05
3.14054e-05 -9.42972e-06 -9.41816e-06 -4.2421e-05
-2.89822e-05 8.68915e-06 8.69703e-06 -4.24188e-05
8.10553e-07 -2.48458e-07 -2.40898e-07 -4.33033e-05
3.06016e-05 -9.18734e-06 -9.17753e-06 -4.24208e-05
8.08078e-07 -2.50257e-07 -2.39066e-07 -4.33036e-05
8.09348e-07 -2.49383e-07 -2.39985e-07 -4.33034e-05
-2.81759e-05 8.4485e-06 8.45461e-06 -4.24187e-05
-2.65636e-05 7.96734e-06 7.96982e-06 -4.24186e-05
2.81896e-05 -8.45973e-06 -8.45567e-06 -4.24201e-05
2.97977e-05 -8.9449e-06 -8.9369e-06 -4.24206e-05
-2.73697e-05 8.2079e-06 8.21221e-06 -4.24186e-05
8.12703e-07 -2.46372e-07 -2.42713e-07 -4.3303e-05
2.89937e-05 -8.70238e-06 -8.69627e-06 -4.24204e-05
8.10553e-07 -2.48458e-07 -2.40898e-07 -4.33033e-05
8.11677e-07 -2.47462e-07 -2.41806e-07 -4.33031e-05
-2.65636e-05 7.96734e-06 7.96982e-06 -4.24186e-05
-2.49515e-05 7.48633e-06 7.48508e-06 -4.2419e-05
2.65809e-05 -7.97378e-06 -7.97449e-06 -4.24198e-05
2.81896e-05 -8.45973e-06 -8.45567e-06 -4.24201e-05
-2.57575e-05 7.72683e-06 7.72745e-06 -4.24187e-05
8.14362e-07 -2.43793e-07 -2.44529e-07 -4.33031e-05
2.73854e-05 -8.21689e-06 -8.21507e-06 -4.24199e-05
8.12703e-07 -2.46372e-07 -2.42713e-07 -4.3303e-05
8.13606e-07 -2.4516e-07 -2.4362e-07 -4.3303e-05
-2.49515e-05 7.48633e-06 7.48508e-06 -4.2419e-05
-2.33397e-05 7.00524e-06 7.00047e-06 -4.24205e-05
2.49711e-05 -7.48628e-06 -7.49349e-06 -4.24201e-05
2.65809e-05 -7.97378e-06 -7.97449e-06 -4.24198e-05
-2.41456e-05 7.24583e-06 7.24274e-06 -4.24195e-05
8.15283e-07 -2.40436e-07 -2.46363e-07 -4.33044e-05
2.57762e-05 -7.73029e-06 -7.73395e-06 -4.24198e-05
8.14362e-07 -2.43793e-07 -2.44529e-07 -4.33031e-05
8.14933e-07 -2.42234e-07 -2.45443e-07 -4.33035e-05
-2.33397e-05 7.00524e-06 7.00047e-06 -4.24205e-05
-2.17272e-05 6.52341e-06 6.51591e-06 -4.24247e-05
2.33586e-05 -6.99585e-06 -7.0126e-06 -4.24226e-05
2.49711e-05 -7.48628e-06 -7.49349e-06 -4.24201e-05
-2.25336e-05 6.76451e-06 6.7582e-06 -4.24221e-05
8.15102e-07 -2.35915e-07 -2.48223e-07 -4.33086e-05
2.41653e-05 -7.24157e-06 -7.25304e-06 -4.2421e-05
8.15283e-07 -2.40436e-07 -2.46363e-07 -4.33044e-05
8.15357e-07 -2.38349e-07 -2.47289e-07 -4.33059e-05
-2.17272e-05 6.52341e-06 6.51591e-06 -4.24247e-05
-2.01132e-05 6.03918e-06 6.03174e-06 -4.24351e-05
2.17416e-05 -6.4999e-06 -6.53215e-06 -4.243e-05
2.33586e-05 -6.99585e-06 -7.0126e-06 -4.24226e-05
-2.09204e-05 6.28173e-06 6.27372e-06 -4.24289e-05
8.13306e-07 -2.29748e-07 -2.50096e-07 -4.33197e-05
2.25507e-05 -6.74877e-06 -6.77226e-06 -4.24254e-05
8.15102e-07 -2.35915e-07 -2.48223e-07 -4.33086e-05
8.14443e-07 -2.33073e-07 -2.49159e-07 -4.3313e-05
-2.01132e-05 6.03918e-06 6.03174e-06 -4.24351e-05
-1.84933e-05 5.54939e-06 5.54739e-06 -4.24579e-05
2.01143e-05 -5.99415e-06 -6.05149e-06 -4.24485e-05
2.17416e-05 -6.4999e-06 -6.53215e-06 -4.243e-05
-1.93046e-05 5.79535e-06 5.78967e-06 -4.24443e-05
8.09196e-07 -2.21339e-07 -2.51939e-07 -4.33449e-05
2.09299e-05 -6.2487e-06 -6.29194e-06 -4.24373e-05
8.13306e-07 -2.29748e-07 -2.50096e-07 -4.33197e-05
8.1159e-07 -2.25862e-07 -2.51027e-07 -4.33297e-05
-1.84933e-05 5.54939e-06 5.54739e-06 -4.24579e-05
-1.68633e-05 5.04749e-06 5.06391e-06 -4.25051e-05
1.8471e-05 -5.47081e-06 -5.5715e-06 -4.24894e-05
2.01143e-05 -5.99415e-06 -6.05149e-06 -4.24485e-05
-1.76795e-05 5.30038e-06 5.30533e-06 -4.24775e-05
8.01873e-07 -2.10057e-07 -2.53635e-07 -4.33983e-05
1.92947e-05 -5.73519e-06 -5.81123e-06 -4.24653e-05
8.09196e-07 -2.21339e-07 -2.51939e-07 -4.33449e-05
8.05998e-07 -2.16101e-07 -2.52813e-07 -4.33672e-05
-1.68633e-05 5.04749e-06 5.06391e-06 -4.25051e-05
-1.52064e-05 4.52375e-06 4.57826e-06 -4.2598e-05
1.67927e-05 -4.91897e-06 -5.08875e-06 -4.25737e-05
1.8471e-05 -5.47081e-06 -5.5715e-06 -4.24894e-05
-1.60403e-05 4.78953e-06 4.82177e-06 -4.25439e-05
7.90223e-07 -1.95265e-07 -2.54982e-07 -4.35041e-05
1.76385e-05 -5.19969e-06 -5.33092e-06 -4.25243e-05
8.01873e-07 -2.10057e-07 -2.53635e-07 -4.33983e-05
7.96666e-07 -2.03123e-07 -2.54375e-07 -4.3442e-05
-1.52064e-05 4.52375e-06 4.57826e-06 -4.2598e-05
-1.35114e-05 3.95992e-06 4.09348e-06 -4.277e-05
1.5066e-05 -4.31958e-06 -4.60559e-06 -4.27342e-05
1.67927e-05 -4.91897e-06 -5.08875e-06 -4.25737e-05
-1.43629e-05 4.2475e-06 4.33516e-06 -4.26715e-05
7.73048e-07 -1.76667e-07 -2.55592e-07 -4.37021e-05
1.59348e-05 -4.62588e-06 -4.84668e-06 -4.26418e-05
7.90223e-07 -1.95265e-07 -2.54982e-07 -4.35041e-05
7.82399e-07 -1.86457e-07 -2.55404e-07 -4.35897e-05
-1.35114e-05 3.95992e-06 4.09348e-06 -4.277e-05
-1.17296e-05 3.33937e-06 3.59582e-06 -4.30751e-05
1.32397e-05 -3.65639e-06 -4.10713e-06 -4.3025e-05
1.5066e-05 -4.31958e-06 -4.60559e-06 -4.27342e-05
-1.26382e-05 3.65941e-06 3.84804e-06 -4.29014e-05
7.49154e-07 -1.54425e-07 -2.54884e-07 -4.40504e-05
1.41722e-05 -3.99853e-06 -4.36016e-06 -4.28587e-05
7.73048e-07 -1.76667e-07 -2.55592e-07 -4.37021e-05
7.62017e-07 -1.65915e-07 -2.55472e-07 -4.38503e-05
-1.17296e-05 3.33937e-06 3.59582e-06 -4.30751e-05
-9.8536e-06 2.63419e-06 3.09403e-06 -4.35753e-05
1.13051e-05 -2.90411e-06 -3.60043e-06 -4.35086e-05
1.32397e-05 -3.65639e-06 -4.10713e-06 -4.3025e-05
-1.07975e-05 2.99509e-06 3.34388e-06 -4.32969e-05
7.18077e-07 -1.30364e-07 -2.51877e-07 -4.46207e-05
1.22801e-05 -3.28879e-06 -3.85341e-06 -4.32387e-05
7.49154e-07 -1.54425e-07 -2.54884e-07 -4.40504e-05
7.34495e-07 -1.42478e-07 -2.53721e-07 -4.4308e-05
-9.8536e-06 2.63419e-06 3.09403e-06 -4.35753e-05
-7.79186e-06 1.87619e-06 2.53529e-06 -4.43385e-05
9.17146e-06 -2.10161e-06 -3.02994e-06 -4.42558e-05
1.13051e-05 -2.90411e-06 -3.60043e-06 -4.35086e-05
-8.86328e-06 2.26372e-06 2.82838e-06 -4.39193e-05
6.80414e-07 -1.08072e-07 -2.45289e-07 -4.54667e-05
1.02804e-05 -2.51038e-06 -3.33e-06 -4.38442e-05
7.18077e-07 -1.30364e-07 -2.51877e-07 -4.46207e-05
7.00012e-07 -1.18534e-07 -2.49205e-07 -4.49972e-05
-7.79186e-06 1.87619e-06 2.53529e-06 -4.43385e-05
-5.66799e-06 1.1239e-06 1.94747e-06 -4.53261e-05
6.96843e-06 -1.32146e-06 -2.42013e-06 -4.52326e-05
9.17146e-06 -2.10161e-06 -3.02994e-06 -4.42558e-05
-6.70491e-06 1.47528e-06 2.24127e-06 -4.48135e-05
6.40364e-07 -9.61822e-08 -2.33221e-07 -4.65305e-05
8.04519e-06 -1.68334e-06 -2.72651e-06 -4.47245e-05
6.80414e-07 -1.08072e-07 -2.45289e-07 -4.54667e-05
6.6022e-07 -1.00215e-07 -2.40002e-07 -4.60006e-05
-5.66799e-06 1.1239e-06 1.94747e-06 -4.53261e-05
-3.48757e-06 7.79143e-07 1.16075e-06 -4.62934e-05
4.71535e-06 -9.90914e-07 -1.59619e-06 -4.62043e-05
6.96843e-06 -1.32146e-06 -2.42013e-06 -4.52326e-05
-4.61694e-06 8.87108e-07 1.5985e-06 -4.58382e-05
6.05531e-07 -1.06718e-07 -2.13777e-07 -4.7438e-05
5.87915e-06 -1.08448e-06 -2.05486e-06 -4.57441e-05
6.40364e-07 -9.61822e-08 -2.33221e-07 -4.65305e-05
6.21813e-07 -9.74706e-08 -2.24718e-07 -4.70096e-05
-3.48757e-06 7.79143e-07 1.16075e-06 -4.62934e-05
-1.95337e-06 1.29742e-06 2.81122e-07 -4.63229e-05
3.14168e-06 -1.60203e-06 -6.59849e-07 -4.62617e-05
4.71535e-06 -9.90914e-07 -1.59619e-06 -4.62043e-05
-2.51976e-06 8.44238e-07 7.18081e-07 -4.65185e-05
5.91468e-07 -1.59058e-07 -1.85319e-07 -4.72014e-05
3.72141e-06 -1.08978e-06 -1.12784e-06 -4.64399e-05
6.05531e-07 -1.06718e-07 -2.13777e-07 -4.7438e-05
5.94442e-07 -1.26632e-07 -2.0049e-07 -4.76141e-05
-1.95337e-06 1.29742e-06 2.81122e-07 -4.63229e-05
-1.11099e-06 3.61672e-06 -1.07388e-06 -4.37221e-05
2.32439e-06 -4.13308e-06 7.75154e-07 -4.37153e-05
3.14168e-06 -1.60203e-06 -6.59849e-07 -4.62617e-05
-1.55994e-06 2.29864e-06 -3.16584e-07 -4.54881e-05
6.10375e-07 -2.66963e-07 -1.47177e-07 -4.41647e-05
2.75105e-06 -2.69293e-06 -2.49094e-08 -4.54516e-05
5.91468e-07 -1.59058e-07 -1.85319e-07 -4.72014e-05
5.96735e-07 -2.055e-07 -1.67672e-07 -4.60458e-05
-1.11099e-06 3.61672e-06 -1.07388e-06 -4.37221e-05
-1.789e-06 6.62602e-06 -2.07301e-06 -3.56976e-05
3.11227e-06 -7.47018e-06 1.86767e-06 -3.576e-05
2.32439e-06 -4.13308e-06 7.75154e-07 -4.37153e-05
-1.04215e-06 5.01501e-06 -1.70265e-06 -4.0574e-05
6.75724e-07 -4.39094e-07 -1.01413e-07 -3.62172e-05
2.29901e-06 -5.6846e-06 1.45096e-06 -4.05997e-05
6.10375e-07 -2.66963e-07 -1.47177e-07 -4.41647e-05
6.35616e-07 -3.44405e-07 -1.24805e-07 -4.11338e-05
-1.789e-06 6.62602e-06 -2.07301e-06 -3.56976e-05
-3.74452e-06 1.09763e-05 -3.09932e-06 -2.04506e-05
5.23076e-06 -1.21643e-05 2.97151e-06 -2.04067e-05
3.11227e-06 -7.47018e-06 1.86767e-06 -3.576e-05
-2.85524e-06 8.62342e-06 -2.47208e-06 -2.90307e-05
7.91047e-07 -5.62522e-07 -9.79389e-08 -1.98389e-05
4.25817e-06 -9.64886e-06 2.31029e-06 -2.90851e-05
6.75724e-07 -4.39094e-07 -1.01413e-07 -3.62172e-05
7.28315e-07 -5.36988e-07 -8.19974e-08 -2.91113e-05
0.000277388 0 -0.000118881 0.000159802
0.000282603 -3.94212e-05 -0.000104221 5.28988e-05
0.000879372 -0.000116837 -0.000326801 -3.98078e-06
0.00077716 0 -0.000333068 0.000101388
0.000270919 -1.67924e-05 -0.000108911 0.000100794
0.000580788 -7.8216e-05 -0.000215388 3.09082e-05
0.000842471 -6.57265e-05 -0.00033289 3.77252e-05
0.000515701 0 -0.000221015 0.000145719
0.000556413 -3.72403e-05 -0.000222503 7.19863e-05
0.000282603 -3.94212e-05 -0.000104221 5.28988e-05
0.00030508 -6.49359e-05 -0.000102919 -1.11879e-05
0.000924565 -0.000213662 -0.000304673 -3.67306e-05
0.000879372 -0.000116837 -0.000326801 -3.98078e-06
0.000298604 -5.46687e-05 -0.000104544 1.52126e-05
0.000610974 -0.000134159 -0.000204349 -2.03493e-05
0.000902013 -0.000168307 -0.000314446 -2.50834e-05
0.000580788 -7.8216e-05 -0.000215388 3.09082e-05
0.000596432 -0.000110064 -0.000208444 3.1565e-06
0.00030508 -6.49359e-05 -0.000102919 -1.11879e-05
0.000311856 -8.38989e-05 -9.76961e-05 -4.02223e-05
0.000947614 -0.000262733 -0.00029352 -4.29943e-05
0.000924565 -0.000213662 -0.000304673 -3.67306e-05
0.000307629 -7.50467e-05 -9.9678e-05 -2.86933e-05
0.000628721 -0.000169994 -0.000196597 -4.24186e-05
0.00094158 -0.000244076 -0.000298931 -4.24474e-05
0.000610974 -0.000134159 -0.000204349 -2.03493e-05
0.000622406 -0.000154328 -0.000200605 -3.56003e-05
0.000311856 -8.38989e-05 -9.76961e-05 -4.02223e-05
0.000315482 -9.29596e-05 -9.53668e-05 -5.05577e-05
0.000946941 -0.000282146 -0.000284912 -3.96982e-05
0.000947614 -0.000262733 -0.00029352 -4.29943e-05
0.000315296 -8.95927e-05 -9.673e-05 -4.71511e-05
0.000631858 -0.000186081 -0.000191047 -4.72585e-05
0.000947716 -0.000274898 -0.00028835 -4.1158e-05
0.000628721 -0.000169994 -0.000196597 -4.24186e-05
0.000631383 -0.000180102 -0.000193406 -4.5466e-05
0.000315482 -9.29596e-05 -9.53668e-05 -5.05577e-05
0.00031353 -9.6561e-05 -9.29869e-05 -5.16326e-05
0.000940409 -0.000285977 -0.000280471 -3.74301e-05
0.000946941 -0.000282146 -0.000284912 -3.96982e-05
0.000314274 -9.52378e-05 -9.38725e-05 -5.16725e-05
0.000628274 -0.000191466 -0.000187204 -4.64594e-05
0.000944702 -0.000285314 -0.000282595 -3.85698e-05
0.000631858 -0.000186081 -0.000191047 -4.72585e-05
0.000630653 -0.000189681 -0.000188988 -4.74357e-05
0.00031353 -9.6561e-05 -9.29869e-05 -5.16326e-05
0.000311004 -9.665e-05 -9.18658e-05 -4.97721e-05
0.000931103 -0.000284637 -0.000277057 -3.59079e-05
0.000940409 -0.000285977 -0.000280471 -3.74301e-05
0.000312643 -9.68964e-05 -9.24629e-05 -5.08886e-05
0.000622186 -0.000191192 -0.000184711 -4.44761e-05
0.000935423 -0.000285619 -0.000278487 -3.64386e-05
0.000628274 -0.000191466 -0.000187204 -4.64594e-05
0.000625269 -0.000191768 -0.000185786 -4.5335e-05
0.000311004 -9.665e-05 -9.18658e-05 -4.97721e-05
0.000307706 -9.57498e-05 -9.08384e-05 -4.73851e-05
0.000922978 -0.000281536 -0.000274904 -3.5423e-05
0.000931103 -0.000284637 -0.000277057 -3.59079e-05
0.000309171 -9.62467e-05 -9.12534e-05 -4.85288e-05
0.000616168 -0.000189259 -0.000182961 -4.27182e-05
0.000927079 -0.000283181 -0.000275956 -3.56407e-05
0.000622186 -0.000191192 -0.000184711 -4.44761e-05
0.00061912 -0.000190306 -0.000183777 -4.36024e-05
0.000307706 -9.57498e-05 -9.08384e-05 -4.73851e-05
0.000305009 -9.45338e-05 -9.02036e-05 -4.54937e-05
0.000915569 -0.000278473 -0.000273041 -3.52132e-05
0.000922978 -0.000281536 -0.000274904 -3.5423e-05
0.000306391 -9.5153e-05 -9.05306e-05 -4.63682e-05
0.000610801 -0.000186958 -0.000181647 -4.14896e-05
0.000919056 -0.000279956 -0.0002739 -3.52647e-05
0.000616168 -0.000189259 -0.000182961 -4.27182e-05
0.000613378 -0.000188109 -0.000182258 -4.2003e-05
0.000305009 -9.45338e-05 -9.02036e-05 -4.54937e-05
0.000302531 -9.34581e-05 -8.96026e-05 -4.41888e-05
0.000909248 -0.000275768 -0.000271491 -3.52178e-05
0.000915569 -0.000278473 -0.000273041 -3.52132e-05
0.000303681 -9.39699e-05 -8.98764e-05 -4.47645e-05
0.000606183 -0.000184933 -0.000180536 -4.07138e-05
0.000912354 -0.000277071 -0.000272264 -3.52159e-05
0.000610801 -0.000186958 -0.000181647 -4.14896e-05
0.000608412 -0.0001859 -0.000181077 -4.10685e-05
0.000302531 -9.34581e-05 -8.96026e-05 -4.41888e-05
0.000300451 -9.25396e-05 -8.91048e-05 -4.33897e-05
0.000903487 -0.000273497 -0.000269996 -3.52447e-05
0.000909248 -0.000275768 -0.000271491 -3.52178e-05
0.00030148 -9.29801e-05 -8.9357e-05 -4.37385e-05
0.000602117 -0.00018322 -0.000179527 -4.02672e-05
0.000906282 -0.000274583 -0.000270728 -3.52238e-05
0.000606183 -0.000184933 -0.000180536 -4.07138e-05
0.000604092 -0.00018404 -0.000180022 -4.04501e-05
0.000300451 -9.25396e-05 -8.91048e-05 -4.33897e-05
0.000298543 -9.17798e-05 -8.86129e-05 -4.29277e-05
0.000898182 -0.000271539 -0.000268561 -3.52908e-05
0.000903487 -0.000273497 -0.000269996 -3.52447e-05
0.000299465 -9.21424e-05 -8.88526e-05 -4.3124e-05
0.000598427 -0.000181789 -0.000178559 -4.00224e-05
0.000900807 -0.000272486 -0.00026928 -3.52708e-05
0.000602117 -0.00018322 -0.000179527 -4.02672e-05
0.000600237 -0.000182475 -0.000179041 -4.01291e-05
0.000298543 -9.17798e-05 -8.86129e-05 -4.29277e-05
0.000296793 -9.11235e-05 -8.81441e-05 -4.26795e-05
0.000893096 -0.000269796 -0.000267129 -3.53236e-05
0.000898182 -0.000271539 -0.000268561 -3.52908e-05
0.000297661 -9.14414e-05 -8.83798e-05 -4.2784e-05
0.000594961 -0.000180543 -0.000177608 -3.9899e-05
0.000895612 -0.000270646 -0.000267842 -3.53075e-05
0.000598427 -0.000181789 -0.000178559 -4.00224e-05
0.000596673 -0.000181148 -0.000178082 -3.99481e-05
0.000296793 -9.11235e-05 -8.81441e-05 -4.26795e-05
0.000295111 -9.05367e-05 -8.76746e-05 -4.25527e-05
0.000888154 -0.000268181 -0.000265703 -3.53495e-05
0.000893096 -0.000269796 -0.000267129 -3.53236e-05
0.000295942 -9.08233e-05 -8.79081e-05 -4.26048e-05
0.000591624 -0.000179417 -0.00017666 -3.984e-05
0.000890616 -0.000268977 -0.000266417 -3.53383e-05
0.000594961 -0.000180543 -0.000177608 -3.9899e-05
0.000593281 -0.000179968 -0.000177134 -3.98646e-05
0.000295111 -9.05367e-05 -8.76746e-05 -4.25527e-05
0.000293478 -8.99899e-05 -8.72092e-05 -4.24926e-05
0.000883277 -0.000266641 -0.000264273 -3.53659e-05
0.000888154 -0.000268181 -0.000265703 -3.53495e-05
0.000294292 -9.02596e-05 -8.74424e-05 -4.2517e-05
0.000588357 -0.000178359 -0.000175714 -3.98153e-05
0.000885709 -0.000267404 -0.000264988 -3.53584e-05
0.000591624 -0.000179417 -0.00017666 -3.984e-05
0.000589985 -0.000178881 -0.000176187 -3.98244e-05
0.000293478 -8.99899e-05 -8.72092e-05 -4.24926e-05
0.000291866 -8.94662e-05 -8.67427e-05 -4.24663e-05
0.000878438 -0.00026514 -0.000262842 -3.5377e-05
0.000883277 -0.000266641 -0.000264273 -3.53659e-05
0.000292669 -8.97259e-05 -8.69758e-05 -4.24766e-05
0.000585126 -0.000177339 -0.000174766 -3.98064e-05
0.000880855 -0.000265887 -0.000263558 -3.53722e-05
0.000588357 -0.000178359 -0.000175714 -3.98153e-05
0.000586738 -0.000177845 -0.00017524 -3.98097e-05
0.000291866 -8.94662e-05 -8.67427e-05 -4.24663e-05
0.000290267 -8.8955e-05 -8.62765e-05 -4.24563e-05
0.000873613 -0.00026366 -0.000261408 -3.53838e-05
0.000878438 -0.00026514 -0.000262842 -3.5377e-05
0.000291066 -8.92095e-05 -8.65098e-05 -4.246e-05
0.000581912 -0.00017634 -0.000173816 -3.98046e-05
0.000876024 -0.000264398 -0.000262125 -3.53808e-05
0.000585126 -0.000177339 -0.000174766 -3.98064e-05
0.000583517 -0.000176838 -0.000174291 -3.98049e-05
0.000290267 -8.8955e-05 -8.62765e-05 -4.24563e-05
0.000288673 -8.84506e-05 -8.58097e-05 -4.24534e-05
0.000868797 -0.000262191 -0.000259974 -3.5388e-05
0.000873613 -0.00026366 -0.000261408 -3.53838e-05
0.000289469 -8.87022e-05 -8.60431e-05 -4.24543e-05
0.000578706 -0.000175351 -0.000172866 -3.98053e-05
0.000871205 -0.000262925 -0.000260691 -3.53862e-05
0.000581912 -0.00017634 -0.000173816 -3.98046e-05
0.000580308 -0.000175845 -0.000173341 -3.98049e-05
0.000288673 -8.84506e-05 -8.58097e-05 -4.24534e-05
0.000287082 -8.79497e-05 -8.53426e-05 -4.24533e-05
0.000863982 -0.000260726 -0.000258538 -3.53905e-05
0.000868797 -0.000262191 -0.000259974 -3.5388e-05
0.000287878 -8.81998e-05 -8.55762e-05 -4.24531e-05
0.000575503 -0.000174367 -0.000171915 -3.98067e-05
0.000866389 -0.000261458 -0.000259256 -3.53894e-05
0.000578706 -0.000175351 -0.000172866 -3.98053e-05
0.000577104 -0.000174859 -0.000172391 -3.9806e-05
0.000287082 -8.79497e-05 -8.53426e-05 -4.24533e-05
0.000285493 -8.74507e-05 -8.48753e-05 -4.24539e-05
0.000859169 -0.000259264 -0.000257102 -3.5392e-05
0.000863982 -0.000260726 -0.000258538 -3.53905e-05
0.000286288 -8.77e-05 -8.5109e-05 -4.24536e-05
0.000572302 -0.000173386 -0.000170964 -3.9808e-05
0.000861576 -0.000259995 -0.00025782 -3.53913e-05
0.000575503 -0.000174367 -0.000171915 -3.98067e-05
0.000573902 -0.000173876 -0.00017144 -3.98074e-05
0.000285493 -8.74507e-05 -8.48753e-05 -4.24539e-05
0.000283904 -8.69527e-05 -8.44077e-05 -4.24547e-05
0.000854356 -0.000257802 -0.000255666 -3.53927e-05
0.000859169 -0.000259264 -0.000257102 -3.5392e-05
0.000284699 -8.72016e-05 -8.46415e-05 -4.24543e-05
0.000569101 -0.000172406 -0.000170012 -3.98088e-05
0.000856762 -0.000258533 -0.000256384 -3.53924e-05
0.000572302 -0.000173386 -0.000170964 -3.9808e-05
0.000570702 -0.000172896 -0.000170488 -3.98084e-05
0.000283904 -8.69527e-05 -8.44077e-05 -4.24547e-05
0.000282315 -8.64554e-05 -8.394e-05 -4.24552e-05
0.000849542 -0.000256341 -0.000254229 -3.53931e-05
0.000854356 -0.000257802 -0.000255666 -3.53927e-05
0.00028311 -8.6704e-05 -8.41739e-05 -4.24549e-05
0.0005659 -0.000171426 -0.00016906 -3.98094e-05
0.000851949 -0.000257071 -0.000254948 -3.5393e-05
0.000569101 -0.000172406 -0.000170012 -3.98088e-05
0.000567501 -0.000171916 -0.000169536 -3.98091e-05
0.000282315 -8.64554e-05 -8.394e-05 -4.24552e-05
0.000280727 -8.59584e-05 -8.34721e-05 -4.24555e-05
0.000844728 -0.00025488 -0.000252792 -3.53932e-05
0.000849542 -0.000256341 -0.000254229 -3.53931e-05
0.000281521 -8.62068e-05 -8.37061e-05 -4.24553e-05
0.0005627 -0.000170447 -0.000168108 -3.98096e-05
0.000847135 -0.00025561 -0.000253511 -3.53932e-05
0.0005659 -0.000171426 -0.00016906 -3.98094e-05
0.0005643 -0.000170937 -0.000168584 -3.98095e-05
0.000280727 -8.59584e-05 -8.34721e-05 -4.24555e-05
0.000279138 -8.54617e-05 -8.30041e-05 -4.24556e-05
0.000839914 -0.000253419 -0.000251355 -3.53931e-05
0.000844728 -0.00025488 -0.000252792 -3.53932e-05
0.000279932 -8.571e-05 -8.32381e-05 -4.24555e-05
0.000559499 -0.000169468 -0.000167156 -3.98097e-05
0.000842321 -0.000254149 -0.000252074 -3.53932e-05
0.0005627 -0.000170447 -0.000168108 -3.98096e-05
0.000561099 -0.000169957 -0.000167632 -3.98096e-05
0.000279138 -8.54617e-05 -8.30041e-05 -4.24556e-05
0.000277549 -8.49651e-05 -8.2536e-05 -4.24556e-05
0.0008351 -0.000251958 -0.000249918 -3.5393e-05
0.000839914 -0.000253419 -0.000251355 -3.53931e-05
0.000278343 -8.52134e-05 -8.277e-05 -4.24556e-05
0.000556297 -0.000168489 -0.000166204 -3.98096e-05
0.000837507 -0.000252688 -0.000250637 -3.53931e-05
0.000559499 -0.000169468 -0.000167156 -3.98097e-05
0.000557898 -0.000168978 -0.00016668 -3.98096e-05
0.000277549 -8.49651e-05 -8.2536e-05 -4.24556e-05
0.00027596 -8.44687e-05 -8.20677e-05 -4.24555e-05
0.000830286 -0.000250497 -0.000248481 -3.53928e-05
0.0008351 -0.000251958 -0.000249918 -3.5393e-05
0.000276755 -8.47169e-05 -8.23019e-05 -4.24555e-05
0.000553096 -0.00016751 -0.000165251 -3.98094e-05
0.000832693 -0.000251228 -0.000249199 -3.53929e-05
0.000556297 -0.000168489 -0.000166204 -3.98096e-05
0.000554697 -0.000167999 -0.000165727 -3.98095e-05
0.00027596 -8.44687e-05 -8.20677e-05 -4.24555e-05
0.000274371 -8.39725e-05 -8.15994e-05 -4.24553e-05
0.000825472 -0.000249037 -0.000247044 -3.53925e-05
0.000830286 -0.000250497 -0.000248481 -3.53928e-05
0.000275166 -8.42206e-05 -8.18336e-05 -4.24554e-05
0.000549895 -0.000166531 -0.000164299 -3.98092e-05
0.000827879 -0.000249767 -0.000247762 -3.53927e-05
0.000553096 -0.00016751 -0.000165251 -3.98094e-05
0.000551495 -0.000167021 -0.000164775 -3.98093e-05
0.000274371 -8.39725e-05 -8.15994e-05 -4.24553e-05
0.000272782 -8.34763e-05 -8.1131e-05 -4.24552e-05
0.000820657 -0.000247576 -0.000245606 -3.53923e-05
0.000825472 -0.000249037 -0.000247044 -3.53925e-05
0.000273576 -8.37243e-05 -8.13652e-05 -4.24553e-05
0.000546693 -0.000165552 -0.000163346 -3.9809e-05
0.000823064 -0.000248306 -0.000246325 -3.53924e-05
0.000549895 -0.000166531 -0.000164299 -3.98092e-05
0.000548294 -0.000166042 -0.000163822 -3.98091e-05
0.000272782 -8.34763e-05 -8.1131e-05 -4.24552e-05
0.000271192 -8.29802e-05 -8.06624e-05 -4.2455e-05
0.000815843 -0.000246116 -0.000244169 -3.5392e-05
0.000820657 -0.000247576 -0.000245606 -3.53923e-05
0.000271987 -8.32282e-05 -8.08967e-05 -4.24551e-05
0.000543492 -0.000164574 -0.000162393 -3.98088e-05
0.00081825 -0.000246846 -0.000244887 -3.53922e-05
0.000546693 -0.000165552 -0.000163346 -3.9809e-05
0.000545092 -0.000165063 -0.00016287 -3.98089e-05
0.000271192 -8.29802e-05 -8.06624e-05 -4.2455e-05
0.000269603 -8.24841e-05 -8.01938e-05 -4.24548e-05
0.000811028 -0.000244655 -0.000242731 -3.53918e-05
0.000815843 -0.000246116 -0.000244169 -3.5392e-05
0.000270398 -8.27321e-05 -8.04281e-05 -4.24549e-05
0.00054029 -0.000163595 -0.00016144 -3.98086e-05
0.000813435 -0.000245385 -0.00024345 -3.53919e-05
0.000543492 -0.000164574 -0.000162393 -3.98088e-05
0.000541891 -0.000164085 -0.000161917 -3.98087e-05
0.000269603 -8.24841e-05 -8.01938e-05 -4.24548e-05
0.000268013 -8.19882e-05 -7.97251e-05 -4.24546e-05
0.000806213 -0.000243195 -0.000241294 -3.53915e-05
0.000811028 -0.000244655 -0.000242731 -3.53918e-05
0.000268808 -8.22361e-05 -7.99595e-05 -4.24547e-05
0.000537088 -0.000162617 -0.000160488 -3.98083e-05
0.00080862 -0.000243925 -0.000242012 -3.53917e-05
0.00054029 -0.000163595 -0.00016144 -3.98086e-05
0.000538689 -0.000163106 -0.000160964 -3.98085e-05
0.000268013 -8.19882e-05 -7.97251e-05 -4.24546e-05
0.000266424 -8.14923e-05 -7.92563e-05 -4.24544e-05
0.000801398 -0.000241734 -0.000239856 -3.53913e-05
0.000806213 -0.000243195 -0.000241294 -3.53915e-05
0.000267219 -8.17402e-05 -7.94907e-05 -4.24545e-05
0.000533886 -0.000161638 -0.000159535 -3.98081e-05
0.000803806 -0.000242464 -0.000240575 -3.53914e-05
0.000537088 -0.000162617 -0.000160488 -3.98083e-05
0.000535487 -0.000162128 -0.000160011 -3.98082e-05
0.000266424 -8.14923e-05 -7.92563e-05 -4.24544e-05
0.000264834 -8.09965e-05 -7.87874e-05 -4.24542e-05
0.000796583 -0.000240274 -0.000238418 -3.5391e-05
0.000801398 -0.000241734 -0.000239856 -3.53913e-05
0.000265629 -8.12444e-05 -7.90219e-05 -4.24543e-05
0.000530684 -0.00016066 -0.000158582 -3.98079e-05
0.000798991 -0.000241004 -0.000239137 -3.53912e-05
0.000533886 -0.000161638 -0.000159535 -3.98081e-05
0.000532285 -0.000161149 -0.000159058 -3.9808e-05
0.000264834 -8.09965e-05 -7.87874e-05 -4.24542e-05
0.000263244 -8.05007e-05 -7.83185e-05 -4.2454e-05
0.000791768 -0.000238814 -0.00023698 -3.53908e-05
0.000796583 -0.000240274 -0.000238418 -3.5391e-05
0.000264039 -8.07486e-05 -7.8553e-05 -4.24541e-05
0.000527481 -0.000159682 -0.000157628 -3.98076e-05
0.000794175 -0.000239544 -0.000237699 -3.53909e-05
0.000530684 -0.00016066 -0.000158582 -3.98079e-05
0.000529083 -0.000160171 -0.000158105 -3.98077e-05
0.000263244 -8.05007e-05 -7.83185e-05 -4.2454e-05
0.000261654 -8.00051e-05 -7.78494e-05 -4.24538e-05
0.000786953 -0.000237354 -0.000235543 -3.53905e-05
0.000791768 -0.000238814 -0.00023698 -3.53908e-05
0.000262449 -8.02529e-05 -7.8084e-05 -4.24539e-05
0.000524279 -0.000158703 -0.000156675 -3.98074e-05
0.00078936 -0.000238084 -0.000236261 -3.53907e-05
0.000527481 -0.000159682 -0.000157628 -3.98076e-05
0.00052588 -0.000159193 -0.000157152 -3.98075e-05
0.000261654 -8.00051e-05 -7.78494e-05 -4.24538e-05
0.000260063 -7.95095e-05 -7.73803e-05 -4.24536e-05
0.000782137 -0.000235893 -0.000234105 -3.53903e-05
0.000786953 -0.000237354 -0.000235543 -3.53905e-05
0.000260859 -7.97573e-05 -7.76149e-05 -4.24537e-05
0.000521077 -0.000157725 -0.000155722 -3.98072e-05
0.000784545 -0.000236623 -0.000234824 -3.53904e-05
0.000524279 -0.000158703 -0.000156675 -3.98074e-05
0.000522678 -0.000158214 -0.000156199 -3.98073e-05
0.000260063 -7.95095e-05 -7.73803e-05 -4.24536e-05
0.000258473 -7.9014e-05 -7.69111e-05 -4.24534e-05
0.000777322 -0.000234433 -0.000232667 -3.539e-05
0.000782137 -0.000235893 -0.000234105 -3.53903e-05
0.000259268 -7.92617e-05 -7.71457e-05 -4.24535e-05
0.000517874 -0.000156747 -0.000154769 -3.98069e-05
0.00077973 -0.000235163 -0.000233386 -3.53902e-05
0.000521077 -0.000157725 -0.000155722 -3.98072e-05
0.000519475 -0.000157236 -0.000155245 -3.9807e-05
0.000258473 -7.9014e-05 -7.69111e-05 -4.24534e-05
0.000256883 -7.85185e-05 -7.64418e-05 -4.24532e-05
0.000772506 -0.000232973 -0.000231228 -3.53898e-05
0.000777322 -0.000234433 -0.000232667 -3.539e-05
0.000257678 -7.87662e-05 -7.66764e-05 -4.24533e-05
0.000514671 -0.000155769 -0.000153815 -3.98067e-05
0.000774914 -0.000233703 -0.000231948 -3.53899e-05
0.000517874 -0.000156747 -0.000154769 -3.98069e-05
0.000516273 -0.000156258 -0.000154292 -3.98068e-05
0.000256883 -7.85185e-05 -7.64418e-05 -4.24532e-05
0.000255292 -7.80231e-05 -7.59724e-05 -4.24529e-05
0.000767691 -0.000231513 -0.00022979 -3.53895e-05
0.000772506 -0.000232973 -0.000231228 -3.53898e-05
0.000256087 -7.82708e-05 -7.62071e-05 -4.24531e-05
0.000511468 -0.000154791 -0.000152862 -3.98064e-05
0.000770099 -0.000232243 -0.000230509 -3.53896e-05
0.000514671 -0.000155769 -0.000153815 -3.98067e-05
0.00051307 -0.00015528 -0.000153338 -3.98065e-05
0.000255292 -7.80231e-05 -7.59724e-05 -4.24529e-05
0.000253701 -7.75278e-05 -7.55029e-05 -4.24527e-05
0.000762875 -0.000230054 -0.000228352 -3.53893e-05
0.000767691 -0.000231513 -0.00022979 -3.53895e-05
0.000254497 -7.77755e-05 -7.57376e-05 -4.24528e-05
0.000508266 -0.000153813 -0.000151908 -3.98062e-05
0.000765283 -0.000230783 -0.000229071 -3.53894e-05
0.000511468 -0.000154791 -0.000152862 -3.98064e-05
0.000509867 -0.000154302 -0.000152385 -3.98063e-05
0.000253701 -7.75278e-05 -7.55029e-05 -4.24527e-05
0.00025211 -7.70326e-05 -7.50333e-05 -4.24525e-05
0.000758059 -0.000228594 -0.000226914 -3.5389e-05
0.000762875 -0.000230054 -0.000228352 -3.53893e-05
0.000252906 -7.72802e-05 -7.52681e-05 -4.24526e-05
0.000505062 -0.000152836 -0.000150954 -3.98059e-05
0.000760467 -0.000229324 -0.000227633 -3.53891e-05
0.000508266 -0.000153813 -0.000151908 -3.98062e-05
0.000506664 -0.000153325 -0.000151431 -3.98061e-05
0.00025211 -7.70326e-05 -7.50333e-05 -4.24525e-05
0.000250519 -7.65375e-05 -7.45637e-05 -4.24523e-05
0.000753243 -0.000227134 -0.000225475 -3.53887e-05
0.000758059 -0.000228594 -0.000226914 -3.5389e-05
0.000251315 -7.6785e-05 -7.47985e-05 -4.24524e-05
0.000501859 -0.000151858 -0.000150001 -3.98057e-05
0.000755651 -0.000227864 -0.000226195 -3.53889e-05
0.000505062 -0.000152836 -0.000150954 -3.98059e-05
0.000503461 -0.000152347 -0.000150477 -3.98058e-05
0.000250519 -7.65375e-05 -7.45637e-05 -4.24523e-05
0.000248928 -7.60424e-05 -7.4094e-05 -4.24521e-05
0.000748427 -0.000225674 -0.000224037 -3.53885e-05
0.000753243 -0.000227134 -0.000225475 -3.53887e-05
0.000249724 -7.62899e-05 -7.43289e-05 -4.24522e-05
0.000498656 -0.00015088 -0.000149047 -3.98054e-05
0.000750835 -0.000226404 -0.000224756 -3.53886e-05
0.000501859 -0.000151858 -0.000150001 -3.98057e-05
0.000500258 -0.000151369 -0.000149524 -3.98056e-05
0.000248928 -7.60424e-05 -7.4094e-05 -4.24521e-05
0.000247337 -7.55474e-05 -7.36242e-05 -4.24518e-05
0.000743611 -0.000224215 -0.000222599 -3.53882e-05
0.000748427 -0.000225674 -0.000224037 -3.53885e-05
0.000248133 -7.57949e-05 -7.38591e-05 -4.24519e-05
0.000495453 -0.000149903 -0.000148093 -3.98052e-05
0.000746019 -0.000224945 -0.000223318 -3.53883e-05
0.000498656 -0.00015088 -0.000149047 -3.98054e-05
0.000497054 -0.000150391 -0.00014857 -3.98053e-05
0.000247337 -7.55474e-05 -7.36242e-05 -4.24518e-05
0.000245746 -7.50525e-05 -7.31543e-05 -4.24516e-05
0.000738795 -0.000222755 -0.00022116 -3.53879e-05
0.000743611 -0.000224215 -0.000222599 -3.53882e-05
0.000246541 -7.52999e-05 -7.33892e-05 -4.24517e-05
0.000492249 -0.000148925 -0.000147139 -3.98049e-05
0.000741203 -0.000223485 -0.000221879 -3.53881e-05
0.000495453 -0.000149903 -0.000148093 -3.98052e-05
0.000493851 -0.000149414 -0.000147616 -3.9805e-05
0.000245746 -7.50525e-05 -7.31543e-05 -4.24516e-05
0.000244154 -7.45576e-05 -7.26843e-05 -4.24514e-05
0.000733979 -0.000221296 -0.000219721 -3.53877e-05
0.000738795 -0.000222755 -0.00022116 -3.53879e-05
0.00024495 -7.48051e-05 -7.29193e-05 -4.24515e-05
0.000489046 -0.000147948 -0.000146185 -3.98047e-05
0.000736387 -0.000222026 -0.000220441 -3.53878e-05
0.000492249 -0.000148925 -0.000147139 -3.98049e-05
0.000490647 -0.000148436 -0.000146662 -3.98048e-05
0.000244154 -7.45576e-05 -7.26843e-05 -4.24514e-05
0.000242563 -7.40629e-05 -7.22142e-05 -4.24511e-05
0.000729163 -0.000219836 -0.000218283 -3.53874e-05
0.000733979 -0.000221296 -0.000219721 -3.53877e-05
0.000243359 -7.43103e-05 -7.24493e-05 -4.24513e-05
0.000485842 -0.00014697 -0.000145231 -3.98044e-05
0.000731571 -0.000220566 -0.000219002 -3.53875e-05
0.000489046 -0.000147948 -0.000146185 -3.98047e-05
0.000487444 -0.000147459 -0.000145708 -3.98045e-05
0.000242563 -7.40629e-05 -7.22142e-05 -4.24511e-05
0.000240971 -7.35682e-05 -7.17441e-05 -4.24509e-05
0.000724346 -0.000218377 -0.000216844 -3.53871e-05
0.000729163 -0.000219836 -0.000218283 -3.53874e-05
0.000241767 -7.38155e-05 -7.19792e-05 -4.2451e-05
0.000482638 -0.000145993 -0.000144276 -3.98041e-05
0.000726754 -0.000219107 -0.000217563 -3.53873e-05
0.000485842 -0.00014697 -0.000145231 -3.98044e-05
0.00048424 -0.000146482 -0.000144754 -3.98043e-05
0.000240971 -7.35682e-05 -7.17441e-05 -4.24509e-05
0.000239379 -7.30736e-05 -7.12738e-05 -4.24507e-05
0.00071953 -0.000216918 -0.000215405 -3.53869e-05
0.000724346 -0.000218377 -0.000216844 -3.53871e-05
0.000240175 -7.33209e-05 -7.1509e-05 -4.24508e-05
0.000479434 -0.000145016 -0.000143322 -3.98039e-05
0.000721938 -0.000217647 -0.000216124 -3.5387e-05
0.000482638 -0.000145993 -0.000144276 -3.98041e-05
0.000481036 -0.000145504 -0.000143799 -3.9804e-05
0.000239379 -7.30736e-05 -7.12738e-05 -4.24507e-05
0.000237787 -7.2579e-05 -7.08035e-05 -4.24504e-05
0.000714713 -0.000215459 -0.000213966 -3.53866e-05
0.00071953 -0.000216918 -0.000215405 -3.53869e-05
0.000238583 -7.28263e-05 -7.10387e-05 -4.24505e-05
0.00047623 -0.000144039 -0.000142368 -3.98036e-05
0.000717121 -0.000216188 -0.000214686 -3.53867e-05
0.000479434 -0.000145016 -0.000143322 -3.98039e-05
0.000477832 -0.000144527 -0.000142845 -3.98037e-05
0.000237787 -7.2579e-05 -7.08035e-05 -4.24504e-05
0.000236195 -7.20846e-05 -7.03331e-05 -4.24502e-05
0.000709896 -0.000213999 -0.000212527 -3.53863e-05
0.000714713 -0.000215459 -0.000213966 -3.53866e-05
0.000236991 -7.23318e-05 -7.05683e-05 -4.24503e-05
0.000473026 -0.000143062 -0.000141413 -3.98033e-05
0.000712305 -0.000214729 -0.000213247 -3.53864e-05
0.00047623 -0.000144039 -0.000142368 -3.98036e-05
0.000474628 -0.00014355 -0.000141891 -3.98035e-05
0.000236195 -7.20846e-05 -7.03331e-05 -4.24502e-05
0.000234603 -7.15902e-05 -6.98626e-05 -4.24499e-05
0.000705079 -0.00021254 -0.000211088 -3.5386e-05
0.000709896 -0.000213999 -0.000212527 -3.53863e-05
0.000235399 -7.18374e-05 -7.00979e-05 -4.24501e-05
0.000469822 -0.000142085 -0.000140459 -3.9803e-05
0.000707488 -0.00021327 -0.000211808 -3.53862e-05
0.000473026 -0.000143062 -0.000141413 -3.98033e-05
0.000471424 -0.000142573 -0.000140936 -3.98032e-05
0.000234603 -7.15902e-05 -6.98626e-05 -4.24499e-05
0.000233011 -7.10959e-05 -6.93921e-05 -4.24497e-05
0.000700263 -0.000211081 -0.000209649 -3.53857e-05
0.000705079 -0.00021254 -0.000211088 -3.5386e-05
0.000233807 -7.1343e-05 -6.96274e-05 -4.24498e-05
0.000466617 -0.000141108 -0.000139504 -3.98028e-05
0.000702671 -0.000211811 -0.000210369 -3.53859e-05
0.000469822 -0.000142085 -0.000140459 -3.9803e-05
0.00046822 -0.000141596 -0.000139981 -3.98029e-05
0.000233011 -7.10959e-05 -6.93921e-05 -4.24497e-05
0.000231418 -7.06016e-05 -6.89214e-05 -4.24494e-05
0.000695446 -0.000209622 -0.00020821 -3.53855e-05
0.000700263 -0.000211081 -0.000209649 -3.53857e-05
0.000232214 -7.08487e-05 -6.91567e-05 -4.24496e-05
0.000463413 -0.000140131 -0.000138549 -3.98025e-05
0.000697854 -0.000210352 -0.00020893 -3.53856e-05
0.000466617 -0.000141108 -0.000139504 -3.98028e-05
0.000465015 -0.000140619 -0.000139027 -3.98026e-05
0.000231418 -7.06016e-05 -6.89214e-05 -4.24494e-05
0.000229826 -7.01075e-05 -6.84507e-05 -4.24492e-05
0.000690628 -0.000208164 -0.000206771 -3.53852e-05
0.000695446 -0.000209622 -0.00020821 -3.53855e-05
0.000230622 -7.03545e-05 -6.8686e-05 -4.24493e-05
0.000460208 -0.000139154 -0.000137595 -3.98022e-05
0.000693037 -0.000208893 -0.00020749 -3.53853e-05
0.000463413 -0.000140131 -0.000138549 -3.98025e-05
0.000461811 -0.000139643 -0.000138072 -3.98024e-05
0.000229826 -7.01075e-05 -6.84507e-05 -4.24492e-05
0.000228233 -6.96134e-05 -6.79798e-05 -4.24489e-05
0.000685811 -0.000206705 -0.000205331 -3.53849e-05
0.000690628 -0.000208164 -0.000206771 -3.53852e-05
0.000229029 -6.98604e-05 -6.82153e-05 -4.24491e-05
0.000457004 -0.000138177 -0.00013664 -3.98019e-05
0.00068822 -0.000207434 -0.000206051 -3.5385e-05
0.000460208 -0.000139154 -0.000137595 -3.98022e-05
0.000458606 -0.000138666 -0.000137117 -3.98021e-05
0.000228233 -6.96134e-05 -6.79798e-05 -4.24489e-05
0.00022664 -6.91194e-05 -6.75089e-05 -4.24487e-05
0.000680994 -0.000205246 -0.000203892 -3.53846e-05
0.000685811 -0.000206705 -0.000205331 -3.53849e-05
0.000227437 -6.93664e-05 -6.77444e-05 -4.24488e-05
0.000453799 -0.000137201 -0.000135685 -3.98017e-05
0.000683403 -0.000205975 -0.000204612 -3.53847e-05
0.000457004 -0.000138177 -0.00013664 -3.98019e-05
0.000455401 -0.000137689 -0.000136162 -3.98018e-05
0.00022664 -6.91194e-05 -6.75089e-05 -4.24487e-05
0.000225047 -6.86255e-05 -6.70379e-05 -4.24484e-05
0.000676177 -0.000203787 -0.000202453 -3.53843e-05
0.000680994 -0.000205246 -0.000203892 -3.53846e-05
0.000225844 -6.88724e-05 -6.72734e-05 -4.24485e-05
0.000450594 -0.000136224 -0.00013473 -3.98014e-05
0.000678585 -0.000204517 -0.000203172 -3.53844e-05
0.000453799 -0.000137201 -0.000135685 -3.98017e-05
0.000452197 -0.000136713 -0.000135207 -3.98015e-05
0.000225047 -6.86255e-05 -6.70379e-05 -4.24484e-05
0.000223454 -6.81316e-05 -6.65668e-05 -4.24482e-05
0.000671359 -0.000202329 -0.000201013 -3.5384e-05
0.000676177 -0.000203787 -0.000202453 -3.53843e-05
0.000224251 -6.83785e-05 -6.68024e-05 -4.24483e-05
0.000447389 -0.000135248 -0.000133775 -3.98011e-05
0.000673768 -0.000203058 -0.000201733 -3.53842e-05
0.000450594 -0.000136224 -0.00013473 -3.98014e-05
0.000448992 -0.000135736 -0.000134252 -3.98012e-05
0.000223454 -6.81316e-05 -6.65668e-05 -4.24482e-05
0.000221861 -6.76378e-05 -6.60957e-05 -4.24479e-05
0.000666542 -0.00020087 -0.000199573 -3.53837e-05
0.000671359 -0.000202329 -0.000201013 -3.5384e-05
0.000222658 -6.78847e-05 -6.63313e-05 -4.2448e-05
0.000444184 -0.000134271 -0.00013282 -3.98008e-05
0.00066895 -0.000201599 -0.000200293 -3.53839e-05
0.000447389 -0.000135248 -0.000133775 -3.98011e-05
0.000445787 -0.00013476 -0.000133297 -3.98009e-05
0.000221861 -6.76378e-05 -6.60957e-05 -4.24479e-05
0.000220268 -6.71441e-05 -6.56244e-05 -4.24476e-05
0.000661724 -0.000199412 -0.000198134 -3.53834e-05
0.000666542 -0.00020087 -0.000199573 -3.53837e-05
0.000221064 -6.7391e-05 -6.58601e-05 -4.24478e-05
0.000440979 -0.000133295 -0.000131864 -3.98005e-05
0.000664133 -0.000200141 -0.000198854 -3.53836e-05
0.000444184 -0.000134271 -0.00013282 -3.98008e-05
0.000442581 -0.000133783 -0.000132342 -3.98007e-05
0.000220268 -6.71441e-05 -6.56244e-05 -4.24476e-05
0.000218674 -6.66505e-05 -6.51531e-05 -4.24474e-05
0.000656906 -0.000197953 -0.000196694 -3.53831e-05
0.000661724 -0.000199412 -0.000198134 -3.53834e-05
0.000219471 -6.68973e-05 -6.53888e-05 -4.24475e-05
0.000437774 -0.000132319 -0.000130909 -3.98002e-05
0.000659315 -0.000198683 -0.000197414 -3.53833e-05
0.000440979 -0.000133295 -0.000131864 -3.98005e-05
0.000439376 -0.000132807 -0.000131387 -3.98004e-05
0.000218674 -6.66505e-05 -6.51531e-05 -4.24474e-05
0.000217081 -6.6157e-05 -6.46817e-05 -4.24471e-05
0.000652089 -0.000196495 -0.000195254 -3.53828e-05
0.000656906 -0.000197953 -0.000196694 -3.53831e-05
0.000217878 -6.64037e-05 -6.49174e-05 -4.24472e-05
0.000434568 -0.000131343 -0.000129954 -3.97999e-05
0.000654497 -0.000197224 -0.000195974 -3.5383e-05
0.000437774 -0.000132319 -0.000130909 -3.98002e-05
0.000436171 -0.000131831 -0.000130431 -3.98001e-05
0.000217081 -6.6157e-05 -6.46817e-05 -4.24471e-05
0.000215487 -6.56635e-05 -6.42102e-05 -4.24469e-05
0.000647271 -0.000195037 -0.000193815 -3.53825e-05
0.000652089 -0.000196495 -0.000195254 -3.53828e-05
0.000216284 -6.59102e-05 -6.44459e-05 -4.2447e-05
0.000431363 -0.000130366 -0.000128998 -3.97996e-05
0.00064968 -0.000195766 -0.000194534 -3.53827e-05
0.000434568 -0.000131343 -0.000129954 -3.97999e-05
0.000432965 -0.000130855 -0.000129476 -3.97998e-05
0.000215487 -6.56635e-05 -6.42102e-05 -4.24469e-05
0.000213893 -6.51701e-05 -6.37386e-05 -4.24466e-05
0.000642453 -0.000193579 -0.000192375 -3.53822e-05
0.000647271 -0.000195037 -0.000193815 -3.53825e-05
0.00021469 -6.54168e-05 -6.39744e-05 -4.24467e-05
0.000428157 -0.00012939 -0.000128043 -3.97994e-05
0.000644862 -0.000194308 -0.000193095 -3.53824e-05
0.000431363 -0.000130366 -0.000128998 -3.97996e-05
0.00042976 -0.000129878 -0.000128521 -3.97995e-05
0.000213893 -6.51701e-05 -6.37386e-05 -4.24466e-05
0.0002123 -6.46768e-05 -6.32669e-05 -4.24463e-05
0.000637635 -0.00019212 -0.000190935 -3.53819e-05
0.000642453 -0.000193579 -0.000192375 -3.53822e-05
0.000213097 -6.49234e-05 -6.35027e-05 -4.24465e-05
0.000424951 -0.000128414 -0.000127087 -3.97991e-05
0.000640044 -0.000192849 -0.000191655 -3.53821e-05
0.000428157 -0.00012939 -0.000128043 -3.97994e-05
0.000426554 -0.000128902 -0.000127565 -3.97992e-05
0.0002123 -6.46768e-05 -6.32669e-05 -4.24463e-05
0.000210706 -6.41836e-05 -6.27951e-05 -4.24461e-05
0.000632816 -0.000190662 -0.000189495 -3.53817e-05
0.000637635 -0.00019212 -0.000190935 -3.53819e-05
0.000211503 -6.44302e-05 -6.3031e-05 -4.24462e-05
0.000421745 -0.000127439 -0.000126131 -3.97988e-05
0.000635225 -0.000191391 -0.000190215 -3.53818e-05
0.000424951 -0.000128414 -0.000127087 -3.97991e-05
0.000423348 -0.000127927 -0.000126609 -3.97989e-05
0.000210706 -6.41836e-05 -6.27951e-05 -4.24461e-05
0.000209111 -6.36904e-05 -6.23233e-05 -4.24458e-05
0.000627998 -0.000189204 -0.000188054 -3.53814e-05
0.000632816 -0.000190662 -0.000189495 -3.53817e-05
0.000209908 -6.3937e-05 -6.25592e-05 -4.24459e-05
0.000418539 -0.000126463 -0.000125176 -3.97985e-05
0.000630407 -0.000189933 -0.000188775 -3.53815e-05
0.000421745 -0.000127439 -0.000126131 -3.97988e-05
0.000420142 -0.000126951 -0.000125654 -3.97986e-05
0.000209111 -6.36904e-05 -6.23233e-05 -4.24458e-05
0.000207517 -6.31973e-05 -6.18514e-05 -4.24455e-05
0.00062318 -0.000187746 -0.000186614 -3.53811e-05
0.000627998 -0.000189204 -0.000188054 -3.53814e-05
0.000208314 -6.34438e-05 -6.20873e-05 -4.24457e-05
0.000415333 -0.000125487 -0.00012422 -3.97982e-05
0.000625589 -0.000188475 -0.000187334 -3.53812e-05
0.000418539 -0.000126463 -0.000125176 -3.97985e-05
0.000416936 -0.000125975 -0.000124698 -3.97983e-05
0.000207517 -6.31973e-05 -6.18514e-05 -4.24455e-05
0.000205923 -6.27043e-05 -6.13794e-05 -4.24452e-05
0.000618361 -0.000186289 -0.000185174 -3.53808e-05
0.00062318 -0.000187746 -0.000186614 -3.53811e-05
0.00020672 -6.29508e-05 -6.16154e-05 -4.24454e-05
0.000412127 -0.000124511 -0.000123264 -3.97979e-05
0.000620771 -0.000187018 -0.000185894 -3.53809e-05
0.000415333 -0.000125487 -0.00012422 -3.97982e-05
0.00041373 -0.000124999 -0.000123742 -3.9798e-05
0.000205923 -6.27043e-05 -6.13794e-05 -4.24452e-05
0.000204328 -6.22114e-05 -6.09073e-05 -4.2445e-05
0.000613543 -0.000184831 -0.000183734 -3.53804e-05
0.000618361 -0.000186289 -0.000185174 -3.53808e-05
0.000205126 -6.24578e-05 -6.11433e-05 -4.24451e-05
0.000408921 -0.000123536 -0.000122308 -3.97976e-05
0.000615952 -0.00018556 -0.000184454 -3.53806e-05
0.000412127 -0.000124511 -0.000123264 -3.97979e-05
0.000410524 -0.000124024 -0.000122786 -3.97977e-05
0.000204328 -6.22114e-05 -6.09073e-05 -4.2445e-05
0.000202734 -6.17185e-05 -6.04351e-05 -4.24447e-05
0.000608724 -0.000183373 -0.000182293 -3.53801e-05
0.000613543 -0.000184831 -0.000183734 -3.53804e-05
0.000203531 -6.19649e-05 -6.06712e-05 -4.24448e-05
0.000405714 -0.00012256 -0.000121352 -3.97973e-05
0.000611134 -0.000184102 -0.000183014 -3.53803e-05
0.000408921 -0.000123536 -0.000122308 -3.97976e-05
0.000407318 -0.000123048 -0.00012183 -3.97974e-05
0.000202734 -6.17185e-05 -6.04351e-05 -4.24447e-05
0.000201139 -6.12257e-05 -5.99628e-05 -4.24444e-05
0.000603906 -0.000181915 -0.000180853 -3.53798e-05
0.000608724 -0.000183373 -0.000182293 -3.53801e-05
0.000201936 -6.14721e-05 -6.0199e-05 -4.24446e-05
0.000402508 -0.000121585 -0.000120396 -3.9797e-05
0.000606315 -0.000182644 -0.000181573 -3.538e-05
0.000405714 -0.00012256 -0.000121352 -3.97973e-05
0.000404111 -0.000122072 -0.000120874 -3.97971e-05
0.000201139 -6.12257e-05 -5.99628e-05 -4.24444e-05
0.000199544 -6.0733e-05 -5.94905e-05 -4.24442e-05
0.000599087 -0.000180458 -0.000179412 -3.53795e-05
0.000603906 -0.000181915 -0.000180853 -3.53798e-05
0.000200342 -6.09794e-05 -5.97266e-05 -4.24443e-05
0.000399301 -0.000120609 -0.000119439 -3.97967e-05
0.000601496 -0.000181187 -0.000180133 -3.53797e-05
0.000402508 -0.000121585 -0.000120396 -3.9797e-05
0.000400905 -0.000121097 -0.000119918 -3.97968e-05
0.000199544 -6.0733e-05 -5.94905e-05 -4.24442e-05
0.000197949 -6.02404e-05 -5.9018e-05 -4.24439e-05
0.000594268 -0.000179 -0.000177972 -3.53792e-05
0.000599087 -0.000180458 -0.000179412 -3.53795e-05
0.000198747 -6.04867e-05 -5.92542e-05 -4.2444e-05
0.000396095 -0.000119634 -0.000118483 -3.97964e-05
0.000596677 -0.000179729 -0.000178692 -3.53794e-05
0.000399301 -0.000120609 -0.000119439 -3.97967e-05
0.000397698 -0.000120122 -0.000118961 -3.97965e-05
0.000197949 -6.02404e-05 -5.9018e-05 -4.24439e-05
0.000196354 -5.97479e-05 -5.85455e-05 -4.24436e-05
0.000589449 -0.000177543 -0.000176531 -3.53789e-05
0.000594268 -0.000179 -0.000177972 -3.53792e-05
0.000197152 -5.99941e-05 -5.87818e-05 -4.24437e-05
0.000392888 -0.000118659 -0.000117527 -3.97961e-05
0.000591858 -0.000178272 -0.000177251 -3.53791e-05
0.000396095 -0.000119634 -0.000118483 -3.97964e-05
0.000394491 -0.000119146 -0.000118005 -3.97962e-05
0.000196354 -5.97479e-05 -5.85455e-05 -4.24436e-05
0.000194759 -5.92554e-05 -5.80729e-05 -4.24433e-05
0.00058463 -0.000176085 -0.00017509 -3.53786e-05
0.000589449 -0.000177543 -0.000176531 -3.53789e-05
0.000195556 -5.95016e-05 -5.83092e-05 -4.24435e-05
0.000389681 -0.000117684 -0.00011657 -3.97958e-05
0.000587039 -0.000176814 -0.000175811 -3.53788e-05
0.000392888 -0.000118659 -0.000117527 -3.97961e-05
0.000391284 -0.000118171 -0.000117048 -3.97959e-05
0.000194759 -5.92554e-05 -5.80729e-05 -4.24433e-05
0.000193163 -5.8763e-05 -5.76002e-05 -4.24431e-05
0.000579811 -0.000174628 -0.00017365 -3.53783e-05
0.00058463 -0.000176085 -0.00017509 -3.53786e-05
0.000193961 -5.90092e-05 -5.78366e-05 -4.24432e-05
0.000386474 -0.000116709 -0.000115614 -3.97955e-05
0.00058222 -0.000175357 -0.00017437 -3.53785e-05
0.000389681 -0.000117684 -0.00011657 -3.97958e-05
0.000388077 -0.000117196 -0.000116092 -3.97956e-05
0.000193163 -5.8763e-05 -5.76002e-05 -4.24431e-05
0.000191568 -5.82707e-05 -5.71274e-05 -4.24428e-05
0.000574991 -0.000173171 -0.000172209 -3.5378e-05
0.000579811 -0.000174628 -0.00017365 -3.53783e-05
0.000192366 -5.85168e-05 -5.73638e-05 -4.24429e-05
0.000383267 -0.000115734 -0.000114657 -3.97952e-05
0.000577401 -0.000173899 -0.000172929 -3.53782e-05
0.000386474 -0.000116709 -0.000115614 -3.97955e-05
0.00038487 -0.000116221 -0.000115135 -3.97953e-05
0.000191568 -5.82707e-05 -5.71274e-05 -4.24428e-05
0.000189972 -5.77785e-05 -5.66546e-05 -4.24425e-05
0.000570172 -0.000171714 -0.000170768 -3.53777e-05
0.000574991 -0.000173171 -0.000172209 -3.5378e-05
0.00019077 -5.80246e-05 -5.6891e-05 -4.24427e-05
0.00038006 -0.000114759 -0.0001137 -3.97949e-05
0.000572582 -0.000172442 -0.000171488 -3.53779e-05
0.000383267 -0.000115734 -0.000114657 -3.97952e-05
0.000381663 -0.000115246 -0.000114179 -3.9795e-05
0.000189972 -5.77785e-05 -5.66546e-05 -4.24425e-05
0.000188377 -5.72863e-05 -5.61816e-05 -4.24422e-05
0.000565353 -0.000170257 -0.000169327 -3.53774e-05
0.000570172 -0.000171714 -0.000170768 -3.53777e-05
0.000189175 -5.75324e-05 -5.64181e-05 -4.24424e-05
0.000376852 -0.000113784 -0.000112744 -3.97946e-05
0.000567762 -0.000170985 -0.000170047 -3.53776e-05
0.00038006 -0.000114759 -0.0001137 -3.97949e-05
0.000378456 -0.000114271 -0.000113222 -3.97947e-05
0.000188377 -5.72863e-05 -5.61816e-05 -4.24422e-05
0.000186781 -5.67942e-05 -5.57086e-05 -4.2442e-05
0.000560533 -0.0001688 -0.000167886 -3.53771e-05
0.000565353 -0.000170257 -0.000169327 -3.53774e-05
0.000187579 -5.70402e-05 -5.59451e-05 -4.24421e-05
0.000373645 -0.000112809 -0.000111787 -3.97943e-05
0.000562943 -0.000169528 -0.000168606 -3.53773e-05
0.000376852 -0.000113784 -0.000112744 -3.97946e-05
0.000375249 -0.000113296 -0.000112265 -3.97944e-05
0.000186781 -5.67942e-05 -5.57086e-05 -4.2442e-05
0.000185185 -5.63022e-05 -5.52355e-05 -4.24417e-05
0.000555714 -0.000167343 -0.000166445 -3.53768e-05
0.000560533 -0.0001688 -0.000167886 -3.53771e-05
0.000185983 -5.65482e-05 -5.5472e-05 -4.24418e-05
0.000370437 -0.000111834 -0.00011083 -3.9794e-05
0.000558123 -0.000168071 -0.000167165 -3.53769e-05
0.000373645 -0.000112809 -0.000111787 -3.97943e-05
0.000372041 -0.000112322 -0.000111308 -3.97941e-05
0.000185185 -5.63022e-05 -5.52355e-05 -4.24417e-05
0.000183589 -5.58103e-05 -5.47623e-05 -4.24414e-05
0.000550894 -0.000165886 -0.000165004 -3.53765e-05
0.000555714 -0.000167343 -0.000166445 -3.53768e-05
0.000184387 -5.60562e-05 -5.49989e-05 -4.24415e-05
0.00036723 -0.00011086 -0.000109873 -3.97937e-05
0.000553304 -0.000166614 -0.000165724 -3.53766e-05
0.000370437 -0.000111834 -0.00011083 -3.9794e-05
0.000368833 -0.000111347 -0.000110351 -3.97938e-05
0.000183589 -5.58103e-05 -5.47623e-05 -4.24414e-05
0.000181993 -5.53184e-05 -5.4289e-05 -4.24411e-05
0.000546074 -0.000164429 -0.000163562 -3.53762e-05
0.000550894 -0.000165886 -0.000165004 -3.53765e-05
0.000182791 -5.55643e-05 -5.45256e-05 -4.24413e-05
0.000364022 -0.000109885 -0.000108916 -3.97934e-05
0.000548484 -0.000165157 -0.000164283 -3.53763e-05
0.00036723 -0.00011086 -0.000109873 -3.97937e-05
0.000365626 -0.000110372 -0.000109394 -3.97935e-05
0.000181993 -5.53184e-05 -5.4289e-05 -4.24411e-05
0.000180396 -5.48267e-05 -5.38156e-05 -4.24409e-05
0.000541254 -0.000162972 -0.000162121 -3.53759e-05
0.000546074 -0.000164429 -0.000163562 -3.53762e-05
0.000181195 -5.50725e-05 -5.40523e-05 -4.2441e-05
0.000360814 -0.000108911 -0.000107959 -3.97931e-05
0.000543664 -0.0001637 -0.000162842 -3.5376e-05
0.000364022 -0.000109885 -0.000108916 -3.97934e-05
0.000362418 -0.000109398 -0.000108437 -3.97932e-05
0.000180396 -5.48267e-05 -5.38156e-05 -4.24409e-05
0.0001788 -5.4335e-05 -5.33422e-05 -4.24406e-05
0.000536434 -0.000161515 -0.00016068 -3.53756e-05
0.000541254 -0.000162972 -0.000162121 -3.53759e-05
0.000179598 -5.45808e-05 -5.35789e-05 -4.24407e-05
0.000357606 -0.000107936 -0.000107001 -3.97928e-05
0.000538844 -0.000162244 -0.0001614 -3.53757e-05
0.000360814 -0.000108911 -0.000107959 -3.97931e-05
0.00035921 -0.000108424 -0.00010748 -3.97929e-05
0.0001788 -5.4335e-05 -5.33422e-05 -4.24406e-05
0.000177203 -5.38433e-05 -5.28686e-05 -4.24403e-05
0.000531614 -0.000160059 -0.000159238 -3.53753e-05
0.000536434 -0.000161515 -0.00016068 -3.53756e-05
0.000178002 -5.40891e-05 -5.31054e-05 -4.24404e-05
0.000354398 -0.000106962 -0.000106044 -3.97925e-05
0.000534024 -0.000160787 -0.000159959 -3.53754e-05
0.000357606 -0.000107936 -0.000107001 -3.97928e-05
0.000356002 -0.000107449 -0.000106523 -3.97926e-05
0.000177203 -5.38433e-05 -5.28686e-05 -4.24403e-05
0.000175607 -5.33518e-05 -5.2395e-05 -4.244e-05
0.000526794 -0.000158602 -0.000157797 -3.5375e-05
0.000531614 -0.000160059 -0.000159238 -3.53753e-05
0.000176405 -5.35976e-05 -5.26318e-05 -4.24402e-05
0.00035119 -0.000105988 -0.000105087 -3.97922e-05
0.000529204 -0.00015933 -0.000158517 -3.53751e-05
0.000354398 -0.000106962 -0.000106044 -3.97925e-05
0.000352794 -0.000106475 -0.000105565 -3.97923e-05
0.000175607 -5.33518e-05 -5.2395e-05 -4.244e-05
0.00017401 -5.28603e-05 -5.19213e-05 -4.24398e-05
0.000521974 -0.000157146 -0.000156355 -3.53747e-05
0.000526794 -0.000158602 -0.000157797 -3.5375e-05
0.000174808 -5.3106e-05 -5.21582e-05 -4.24399e-05
0.000347981 -0.000105014 -0.000104129 -3.97919e-05
0.000524384 -0.000157874 -0.000157076 -3.53748e-05
0.00035119 -0.000105988 -0.000105087 -3.97922e-05
0.000349586 -0.000105501 -0.000104608 -3.9792e-05
0.00017401 -5.28603e-05 -5.19213e-05 -4.24398e-05
0.000172413 -5.23689e-05 -5.14475e-05 -4.24395e-05
0.000517154 -0.000155689 -0.000154913 -3.53744e-05
0.000521974 -0.000157146 -0.000156355 -3.53747e-05
0.000173212 -5.26146e-05 -5.16844e-05 -4.24396e-05
0.000344773 -0.000104039 -0.000103172 -3.97916e-05
0.000519564 -0.000156417 -0.000155634 -3.53745e-05
0.000347981 -0.000105014 -0.000104129 -3.97919e-05
0.000346377 -0.000104526 -0.00010365 -3.97917e-05
0.000172413 -5.23689e-05 -5.14475e-05 -4.24395e-05
0.000170816 -5.18776e-05 -5.09736e-05 -4.24392e-05
0.000512333 -0.000154233 -0.000153472 -3.53741e-05
0.000517154 -0.000155689 -0.000154913 -3.53744e-05
0.000171615 -5.21233e-05 -5.12106e-05 -4.24393e-05
0.000341564 -0.000103065 -0.000102214 -3.97913e-05
0.000514744 -0.000154961 -0.000154193 -3.53742e-05
0.000344773 -0.000104039 -0.000103172 -3.97916e-05
0.000343169 -0.000103552 -0.000102693 -3.97914e-05
0.000170816 -5.18776e-05 -5.09736e-05 -4.24392e-05
0.000169219 -5.13864e-05 -5.04996e-05 -4.24389e-05
0.000507513 -0.000152776 -0.00015203 -3.53737e-05
0.000512333 -0.000154233 -0.000153472 -3.53741e-05
0.000170017 -5.1632e-05 -5.07366e-05 -4.24391e-05
0.000338356 -0.000102091 -0.000101256 -3.9791e-05
0.000509923 -0.000153505 -0.000152751 -3.53739e-05
0.000341564 -0.000103065 -0.000102214 -3.97913e-05
0.00033996 -0.000102578 -0.000101735 -3.97911e-05
0.000169219 -5.13864e-05 -5.04996e-05 -4.24389e-05
0.000167622 -5.08952e-05 -5.00256e-05 -4.24387e-05
0.000502692 -0.00015132 -0.000150588 -3.53734e-05
0.000507513 -0.000152776 -0.00015203 -3.53737e-05
0.00016842 -5.11408e-05 -5.02626e-05 -4.24388e-05
0.000335147 -0.000101118 -0.000100298 -3.97907e-05
0.000505103 -0.000152048 -0.000151309 -3.53736e-05
0.000338356 -0.000102091 -0.000101256 -3.9791e-05
0.000336751 -0.000101605 -0.000100777 -3.97908e-05
0.000167622 -5.08952e-05 -5.00256e-05 -4.24387e-05
0.000166024 -5.04042e-05 -4.95515e-05 -4.24384e-05
0.000497872 -0.000149864 -0.000149146 -3.53731e-05
0.000502692 -0.00015132 -0.000150588 -3.53734e-05
0.000166823 -5.06497e-05 -4.97885e-05 -4.24385e-05
0.000331938 -0.000100144 -9.93405e-05 -3.97904e-05
0.000500282 -0.000150592 -0.000149867 -3.53733e-05
0.000335147 -0.000101118 -0.000100298 -3.97907e-05
0.000333543 -0.000100631 -9.98194e-05 -3.97905e-05
0.000166024 -5.04042e-05 -4.95515e-05 -4.24384e-05
0.000164427 -4.99132e-05 -4.90772e-05 -4.24381e-05
0.000493051 -0.000148408 -0.000147704 -3.53728e-05
0.000497872 -0.000149864 -0.000149146 -3.53731e-05
0.000165225 -5.01586e-05 -4.93144e-05 -4.24383e-05
0.000328729 -9.917e-05 -9.83825e-05 -3.97901e-05
0.000495461 -0.000149136 -0.000148425 -3.5373e-05
0.000331938 -0.000100144 -9.93405e-05 -3.97904e-05
0.000330334 -9.96569e-05 -9.88615e-05 -3.97902e-05
0.000164427 -4.99132e-05 -4.90772e-05 -4.24381e-05
0.000162829 -4.94222e-05 -4.86029e-05 -4.24378e-05
0.00048823 -0.000146952 -0.000146262 -3.53725e-05
0.000493051 -0.000148408 -0.000147704 -3.53728e-05
0.000163628 -4.96677e-05 -4.88401e-05 -4.2438e-05
0.00032552 -9.81964e-05 -9.74245e-05 -3.97898e-05
0.00049064 -0.00014768 -0.000146983 -3.53727e-05
0.000328729 -9.917e-05 -9.83825e-05 -3.97901e-05
0.000327125 -9.86832e-05 -9.79035e-05 -3.97899e-05
0.000162829 -4.94222e-05 -4.86029e-05 -4.24378e-05
0.000161231 -4.89314e-05 -4.81285e-05 -4.24376e-05
0.000483409 -0.000145496 -0.00014482 -3.53722e-05
0.00048823 -0.000146952 -0.000146262 -3.53725e-05
0.00016203 -4.91768e-05 -4.83658e-05 -4.24377e-05
0.000322311 -9.72228e-05 -9.64664e-05 -3.97895e-05
0.00048582 -0.000146224 -0.000145541 -3.53724e-05
0.00032552 -9.81964e-05 -9.74245e-05 -3.97898e-05
0.000323916 -9.77096e-05 -9.69455e-05 -3.97896e-05
0.000161231 -4.89314e-05 -4.81285e-05 -4.24376e-05
0.000159633 -4.84406e-05 -4.76541e-05 -4.24373e-05
0.000478588 -0.00014404 -0.000143378 -3.53719e-05
0.000483409 -0.000145496 -0.00014482 -3.53722e-05
0.000160432 -4.8686e-05 -4.78913e-05 -4.24374e-05
0.000319102 -9.62493e-05 -9.55082e-05 -3.97892e-05
0.000480999 -0.000144768 -0.000144099 -3.53721e-05
0.000322311 -9.72228e-05 -9.64664e-05 -3.97895e-05
0.000320706 -9.6736e-05 -9.59873e-05 -3.97893e-05
0.000159633 -4.84406e-05 -4.76541e-05 -4.24373e-05
0.000158035 -4.79499e-05 -4.71795e-05 -4.2437e-05
0.000473767 -0.000142584 -0.000141935 -3.53716e-05
0.000478588 -0.00014404 -0.000143378 -3.53719e-05
0.000158834 -4.81953e-05 -4.74168e-05 -4.24372e-05
0.000315892 -9.52758e-05 -9.455e-05 -3.97889e-05
0.000476178 -0.000143312 -0.000142657 -3.53718e-05
0.000319102 -9.62493e-05 -9.55082e-05 -3.97892e-05
0.000317497 -9.57626e-05 -9.50291e-05 -3.97891e-05
0.000158035 -4.79499e-05 -4.71795e-05 -4.2437e-05
0.000156437 -4.74593e-05 -4.67049e-05 -4.24368e-05
0.000468946 -0.000141129 -0.000140493 -3.53713e-05
0.000473767 -0.000142584 -0.000141935 -3.53716e-05
0.000157236 -4.77046e-05 -4.69422e-05 -4.24369e-05
0.000312683 -9.43025e-05 -9.35916e-05 -3.97886e-05
0.000471356 -0.000141856 -0.000141214 -3.53715e-05
0.000315892 -9.52758e-05 -9.455e-05 -3.97889e-05
0.000314288 -9.47892e-05 -9.40708e-05 -3.97888e-05
0.000156437 -4.74593e-05 -4.67049e-05 -4.24368e-05
0.000154839 -4.69688e-05 -4.62301e-05 -4.24365e-05
0.000464125 -0.000139673 -0.000139051 -3.5371e-05
0.000468946 -0.000141129 -0.000140493 -3.53713e-05
0.000155638 -4.7214e-05 -4.64675e-05 -4.24366e-05
0.000309473 -9.33292e-05 -9.26332e-05 -3.97883e-05
0.000466535 -0.000140401 -0.000139772 -3.53712e-05
0.000312683 -9.43025e-05 -9.35916e-05 -3.97886e-05
0.000311078 -9.38158e-05 -9.31124e-05 -3.97885e-05
0.000154839 -4.69688e-05 -4.62301e-05 -4.24365e-05
0.000153241 -4.64783e-05 -4.57553e-05 -4.24362e-05
0.000459303 -0.000138217 -0.000137608 -3.53707e-05
0.000464125 -0.000139673 -0.000139051 -3.5371e-05
0.00015404 -4.67235e-05 -4.59927e-05 -4.24364e-05
0.000306264 -9.2356e-05 -9.16747e-05 -3.9788e-05
0.000461714 -0.000138945 -0.000138329 -3.53709e-05
0.000309473 -9.33292e-05 -9.26332e-05 -3.97883e-05
0.000307869 -9.28426e-05 -9.2154e-05 -3.97882e-05
0.000153241 -4.64783e-05 -4.57553e-05 -4.24362e-05
0.000151642 -4.59879e-05 -4.52804e-05 -4.2436e-05
0.000454482 -0.000136762 -0.000136166 -3.53704e-05
0.000459303 -0.000138217 -0.000137608 -3.53707e-05
0.000152441 -4.62331e-05 -4.55179e-05 -4.24361e-05
0.000303054 -9.13828e-05 -9.07162e-05 -3.97877e-05
0.000456892 -0.000137489 -0.000136887 -3.53706e-05
0.000306264 -9.2356e-05 -9.16747e-05 -3.9788e-05
0.000304659 -9.18694e-05 -9.11955e-05 -3.97879e-05
0.000151642 -4.59879e-05 -4.52804e-05 -4.2436e-05
0.000150044 -4.54976e-05 -4.48054e-05 -4.24357e-05
0.00044966 -0.000135306 -0.000134723 -3.53701e-05
0.000454482 -0.000136762 -0.000136166 -3.53704e-05
0.000150843 -4.57428e-05 -4.50429e-05 -4.24358e-05
0.000299844 -9.04098e-05 -8.97575e-05 -3.97874e-05
0.000452071 -0.000136034 -0.000135444 -3.53703e-05
0.000303054 -9.13828e-05 -9.07162e-05 -3.97877e-05
0.000301449 -9.08963e-05 -9.02369e-05 -3.97876e-05
0.000150044 -4.54976e-05 -4.48054e-05 -4.24357e-05
0.000148445 -4.50074e-05 -4.43304e-05 -4.24354e-05
0.000444838 -0.000133851 -0.00013328 -3.53698e-05
0.00044966 -0.000135306 -0.000134723 -3.53701e-05
0.000149244 -4.52525e-05 -4.45679e-05 -4.24356e-05
0.000296634 -8.94368e-05 -8.87988e-05 -3.97872e-05
0.000447249 -0.000134579 -0.000134002 -3.537e-05
0.000299844 -9.04098e-05 -8.97575e-05 -3.97874e-05
0.000298239 -8.99233e-05 -8.92782e-05 -3.97873e-05
0.000148445 -4.50074e-05 -4.43304e-05 -4.24354e-05
0.000146846 -4.45172e-05 -4.38552e-05 -4.24352e-05
0.000440017 -0.000132395 -0.000131838 -3.53695e-05
0.000444838 -0.000133851 -0.00013328 -3.53698e-05
0.000147645 -4.47623e-05 -4.40928e-05 -4.24353e-05
0.000293424 -8.84639e-05 -8.784e-05 -3.97869e-05
0.000442428 -0.000133123 -0.000132559 -3.53697e-05
0.000296634 -8.94368e-05 -8.87988e-05 -3.97872e-05
0.000295029 -8.89503e-05 -8.83194e-05 -3.9787e-05
0.000146846 -4.45172e-05 -4.38552e-05 -4.24352e-05
0.000145247 -4.40272e-05 -4.338e-05 -4.24349e-05
0.000435195 -0.00013094 -0.000130395 -3.53693e-05
0.000440017 -0.000132395 -0.000131838 -3.53695e-05
0.000146047 -4.42722e-05 -4.36176e-05 -4.2435e-05
0.000290214 -8.7491e-05 -8.68811e-05 -3.97866e-05
0.000437606 -0.000131668 -0.000131116 -3.53694e-05
0.000293424 -8.84639e-05 -8.784e-05 -3.97869e-05
0.000291819 -8.79774e-05 -8.73606e-05 -3.97867e-05
0.000145247 -4.40272e-05 -4.338e-05 -4.24349e-05
0.000143648 -4.35372e-05 -4.29046e-05 -4.24347e-05
0.000430373 -0.000129485 -0.000128952 -3.5369e-05
0.000435195 -0.00013094 -0.000130395 -3.53693e-05
0.000144448 -4.37822e-05 -4.31423e-05 -4.24348e-05
0.000287003 -8.65183e-05 -8.59221e-05 -3.97863e-05
0.000432784 -0.000130213 -0.000129673 -3.53691e-05
0.000290214 -8.7491e-05 -8.68811e-05 -3.97866e-05
0.000288608 -8.70046e-05 -8.64016e-05 -3.97864e-05
0.000143648 -4.35372e-05 -4.29046e-05 -4.24347e-05
0.000142049 -4.30473e-05 -4.24292e-05 -4.24344e-05
0.000425551 -0.00012803 -0.000127509 -3.53687e-05
0.000430373 -0.000129485 -0.000128952 -3.5369e-05
0.000142848 -4.32922e-05 -4.26669e-05 -4.24345e-05
0.000283793 -8.55456e-05 -8.49631e-05 -3.9786e-05
0.000427962 -0.000128757 -0.000128231 -3.53688e-05
0.000287003 -8.65183e-05 -8.59221e-05 -3.97863e-05
0.000285398 -8.60319e-05 -8.54426e-05 -3.97861e-05
0.000142049 -4.30473e-05 -4.24292e-05 -4.24344e-05
0.000140449 -4.25574e-05 -4.19537e-05 -4.24341e-05
0.000420729 -0.000126575 -0.000126066 -3.53684e-05
0.000425551 -0.00012803 -0.000127509 -3.53687e-05
0.000141249 -4.28023e-05 -4.21915e-05 -4.24343e-05
0.000280582 -8.4573e-05 -8.4004e-05 -3.97857e-05
0.00042314 -0.000127302 -0.000126788 -3.53685e-05
0.000283793 -8.55456e-05 -8.49631e-05 -3.9786e-05
0.000282188 -8.50593e-05 -8.44836e-05 -3.97859e-05
0.000140449 -4.25574e-05 -4.19537e-05 -4.24341e-05
0.00013885 -4.20677e-05 -4.14781e-05 -4.24339e-05
0.000415907 -0.00012512 -0.000124623 -3.53681e-05
0.000420729 -0.000126575 -0.000126066 -3.53684e-05
0.00013965 -4.23125e-05 -4.17159e-05 -4.2434e-05
0.000277372 -8.36004e-05 -8.30448e-05 -3.97854e-05
0.000418318 -0.000125847 -0.000125345 -3.53682e-05
0.000280582 -8.4573e-05 -8.4004e-05 -3.97857e-05
0.000278977 -8.40867e-05 -8.35244e-05 -3.97856e-05
0.00013885 -4.20677e-05 -4.14781e-05 -4.24339e-05
0.00013725 -4.1578e-05 -4.10025e-05 -4.24336e-05
0.000411084 -0.000123665 -0.00012318 -3.53678e-05
0.000415907 -0.00012512 -0.000124623 -3.53681e-05
0.00013805 -4.18228e-05 -4.12403e-05 -4.24338e-05
0.000274161 -8.26279e-05 -8.20855e-05 -3.97851e-05
0.000413496 -0.000124392 -0.000123901 -3.53679e-05
0.000277372 -8.36004e-05 -8.30448e-05 -3.97854e-05
0.000275766 -8.31142e-05 -8.25652e-05 -3.97853e-05
0.00013725 -4.1578e-05 -4.10025e-05 -4.24336e-05
0.000135651 -4.10884e-05 -4.05267e-05 -4.24334e-05
0.000406262 -0.00012221 -0.000121737 -3.53675e-05
0.000411084 -0.000123665 -0.00012318 -3.53678e-05
0.000136451 -4.13332e-05 -4.07646e-05 -4.24335e-05
0.00027095 -8.16556e-05 -8.11262e-05 -3.97849e-05
0.000408673 -0.000122937 -0.000122458 -3.53677e-05
0.000274161 -8.26279e-05 -8.20855e-05 -3.97851e-05
0.000272555 -8.21417e-05 -8.16058e-05 -3.9785e-05
0.000135651 -4.10884e-05 -4.05267e-05 -4.24334e-05
0.000134051 -4.05988e-05 -4.00509e-05 -4.24331e-05
0.00040144 -0.000120755 -0.000120293 -3.53672e-05
0.000406262 -0.00012221 -0.000121737 -3.53675e-05
0.000134851 -4.08436e-05 -4.02888e-05 -4.24332e-05
0.000267739 -8.06832e-05 -8.01667e-05 -3.97846e-05
0.000403851 -0.000121483 -0.000121015 -3.53674e-05
0.00027095 -8.16556e-05 -8.11262e-05 -3.97849e-05
0.000269344 -8.11694e-05 -8.06465e-05 -3.97847e-05
0.000134051 -4.05988e-05 -4.00509e-05 -4.24331e-05
0.000132451 -4.01094e-05 -3.95749e-05 -4.24329e-05
0.000396617 -0.0001193 -0.00011885 -3.53669e-05
0.00040144 -0.000120755 -0.000120293 -3.53672e-05
0.000133251 -4.03541e-05 -3.98129e-05 -4.2433e-05
0.000264528 -7.9711e-05 -7.92072e-05 -3.97843e-05
0.000399028 -0.000120028 -0.000119572 -3.53671e-05
0.000267739 -8.06832e-05 -8.01667e-05 -3.97846e-05
0.000266133 -8.01971e-05 -7.9687e-05 -3.97844e-05
0.000132451 -4.01094e-05 -3.95749e-05 -4.24329e-05
0.000130851 -3.962e-05 -3.90989e-05 -4.24326e-05
0.000391794 -0.000117846 -0.000117407 -3.53667e-05
0.000396617 -0.0001193 -0.00011885 -3.53669e-05
0.000131651 -3.98647e-05 -3.9337e-05 -4.24327e-05
0.000261317 -7.87388e-05 -7.82476e-05 -3.9784e-05
0.000394206 -0.000118573 -0.000118128 -3.53668e-05
0.000264528 -7.9711e-05 -7.92072e-05 -3.97843e-05
0.000262922 -7.92249e-05 -7.87274e-05 -3.97842e-05
0.000130851 -3.962e-05 -3.90989e-05 -4.24326e-05
0.000129251 -3.91307e-05 -3.86228e-05 -4.24324e-05
0.000386972 -0.000116391 -0.000115963 -3.53664e-05
0.000391794 -0.000117846 -0.000117407 -3.53667e-05
0.000130051 -3.93753e-05 -3.88609e-05 -4.24325e-05
0.000258105 -7.77667e-05 -7.7288e-05 -3.97838e-05
0.000389383 -0.000117118 -0.000116685 -3.53665e-05
0.000261317 -7.87388e-05 -7.82476e-05 -3.9784e-05
0.000259711 -7.82528e-05 -7.77678e-05 -3.97839e-05
0.000129251 -3.91307e-05 -3.86228e-05 -4.24324e-05
0.00012765 -3.86415e-05 -3.81467e-05 -4.24321e-05
0.000382149 -0.000114937 -0.00011452 -3.53661e-05
0.000386972 -0.000116391 -0.000115963 -3.53664e-05
0.000128451 -3.88861e-05 -3.83848e-05 -4.24322e-05
0.000254894 -7.67947e-05 -7.63282e-05 -3.97835e-05
0.00038456 -0.000115664 -0.000115241 -3.53662e-05
0.000258105 -7.77667e-05 -7.7288e-05 -3.97838e-05
0.0002565 -7.72807e-05 -7.68081e-05 -3.97836e-05
0.00012765 -3.86415e-05 -3.81467e-05 -4.24321e-05
0.00012605 -3.81523e-05 -3.76704e-05 -4.24319e-05
0.000377326 -0.000113482 -0.000113076 -3.53658e-05
0.000382149 -0.000114937 -0.00011452 -3.53661e-05
0.00012685 -3.83969e-05 -3.79085e-05 -4.2432e-05
0.000251682 -7.58228e-05 -7.53684e-05 -3.97832e-05
0.000379737 -0.000114209 -0.000113798 -3.5366e-05
0.000254894 -7.67947e-05 -7.63282e-05 -3.97835e-05
0.000253288 -7.63087e-05 -7.58483e-05 -3.97833e-05
0.00012605 -3.81523e-05 -3.76704e-05 -4.24319e-05
0.000124449 -3.76633e-05 -3.7194e-05 -4.24316e-05
0.000372503 -0.000112028 -0.000111632 -3.53655e-05
0.000377326 -0.000113482 -0.000113076 -3.53658e-05
0.00012525 -3.79078e-05 -3.74322e-05 -4.24318e-05
0.000248471 -7.48509e-05 -7.44085e-05 -3.97829e-05
0.000374914 -0.000112755 -0.000112354 -3.53657e-05
0.000251682 -7.58228e-05 -7.53684e-05 -3.97832e-05
0.000250077 -7.53368e-05 -7.48885e-05 -3.97831e-05
0.000124449 -3.76633e-05 -3.7194e-05 -4.24316e-05
0.000122849 -3.71743e-05 -3.67176e-05 -4.24314e-05
0.00036768 -0.000110573 -0.000110188 -3.53653e-05
0.000372503 -0.000112028 -0.000111632 -3.53655e-05
0.000123649 -3.74188e-05 -3.69558e-05 -4.24315e-05
0.000245259 -7.38791e-05 -7.34485e-05 -3.97827e-05
0.000370091 -0.000111301 -0.00011091 -3.53654e-05
0.000248471 -7.48509e-05 -7.44085e-05 -3.97829e-05
0.000246865 -7.4365e-05 -7.39285e-05 -3.97828e-05
0.000122849 -3.71743e-05 -3.67176e-05 -4.24314e-05
0.000121248 -3.66854e-05 -3.62411e-05 -4.24311e-05
0.000362857 -0.000109119 -0.000108745 -3.5365e-05
0.00036768 -0.000110573 -0.000110188 -3.53653e-05
0.000122048 -3.69298e-05 -3.64793e-05 -4.24313e-05
0.000242047 -7.29074e-05 -7.24885e-05 -3.97824e-05
0.000365268 -0.000109846 -0.000109467 -3.53651e-05
0.000245259 -7.38791e-05 -7.34485e-05 -3.97827e-05
0.000243653 -7.33932e-05 -7.29685e-05 -3.97825e-05
0.000121248 -3.66854e-05 -3.62411e-05 -4.24311e-05
0.000119647 -3.61965e-05 -3.57645e-05 -4.24309e-05
0.000358033 -0.000107665 -0.000107301 -3.53647e-05
0.000362857 -0.000109119 -0.000108745 -3.5365e-05
0.000120447 -3.64409e-05 -3.60028e-05 -4.2431e-05
0.000238835 -7.19357e-05 -7.15283e-05 -3.97821e-05
0.000360445 -0.000108392 -0.000108023 -3.53648e-05
0.000242047 -7.29074e-05 -7.24885e-05 -3.97824e-05
0.000240441 -7.24215e-05 -7.20084e-05 -3.97823e-05
0.000119647 -3.61965e-05 -3.57645e-05 -4.24309e-05
0.000118046 -3.57078e-05 -3.52878e-05 -4.24307e-05
0.00035321 -0.000106211 -0.000105857 -3.53644e-05
0.000358033 -0.000107665 -0.000107301 -3.53647e-05
0.000118846 -3.59521e-05 -3.55261e-05 -4.24308e-05
0.000235623 -7.09641e-05 -7.05681e-05 -3.97819e-05
0.000355622 -0.000106938 -0.000106579 -3.53646e-05
0.000238835 -7.19357e-05 -7.15283e-05 -3.97821e-05
0.000237229 -7.14499e-05 -7.10482e-05 -3.9782e-05
0.000118046 -3.57078e-05 -3.52878e-05 -4.24307e-05
0.000116445 -3.52191e-05 -3.4811e-05 -4.24304e-05
0.000348386 -0.000104757 -0.000104413 -3.53642e-05
0.00035321 -0.000106211 -0.000105857 -3.53644e-05
0.000117245 -3.54634e-05 -3.50494e-05 -4.24306e-05
0.000232411 -6.99926e-05 -6.96078e-05 -3.97816e-05
0.000350798 -0.000105484 -0.000105135 -3.53643e-05
0.000235623 -7.09641e-05 -7.05681e-05 -3.97819e-05
0.000234017 -7.04784e-05 -7.0088e-05 -3.97817e-05
0.000116445 -3.52191e-05 -3.4811e-05 -4.24304e-05
0.000114843 -3.47305e-05 -3.43341e-05 -4.24302e-05
0.000343563 -0.000103303 -0.000102969 -3.53639e-05
0.000348386 -0.000104757 -0.000104413 -3.53642e-05
0.000115644 -3.49748e-05 -3.45726e-05 -4.24303e-05
0.000229199 -6.90212e-05 -6.86474e-05 -3.97813e-05
0.000345975 -0.00010403 -0.000103691 -3.5364e-05
0.000232411 -6.99926e-05 -6.96078e-05 -3.97816e-05
0.000230805 -6.95069e-05 -6.91276e-05 -3.97815e-05
0.000114843 -3.47305e-05 -3.43341e-05 -4.24302e-05
0.000113242 -3.4242e-05 -3.38572e-05 -4.243e-05
0.000338739 -0.000101849 -0.000101524 -3.53636e-05
0.000343563 -0.000103303 -0.000102969 -3.53639e-05
0.000114043 -3.44862e-05 -3.40956e-05 -4.24301e-05
0.000225986 -6.80498e-05 -6.7687e-05 -3.97811e-05
0.000341151 -0.000102576 -0.000102247 -3.53638e-05
0.000229199 -6.90212e-05 -6.86474e-05 -3.97813e-05
0.000227592 -6.85355e-05 -6.81672e-05 -3.97812e-05
0.000113242 -3.4242e-05 -3.38572e-05 -4.243e-05
0.00011164 -3.37535e-05 -3.33801e-05 -4.24297e-05
0.000333915 -0.000100395 -0.00010008 -3.53634e-05
0.000338739 -0.000101849 -0.000101524 -3.53636e-05
0.000112441 -3.39977e-05 -3.36186e-05 -4.24299e-05
0.000222774 -6.70786e-05 -6.67264e-05 -3.97808e-05
0.000336327 -0.000101122 -0.000100802 -3.53635e-05
0.000225986 -6.80498e-05 -6.7687e-05 -3.97811e-05
0.00022438 -6.75642e-05 -6.72067e-05 -3.9781e-05
0.00011164 -3.37535e-05 -3.33801e-05 -4.24297e-05
0.000110039 -3.32651e-05 -3.2903e-05 -4.24295e-05
0.000329092 -9.89412e-05 -9.86359e-05 -3.53631e-05
0.000333915 -0.000100395 -0.00010008 -3.53634e-05
0.00011084 -3.35093e-05 -3.31416e-05 -4.24296e-05
0.000219561 -6.61073e-05 -6.57658e-05 -3.97806e-05
0.000331503 -9.96681e-05 -9.9358e-05 -3.53632e-05
0.000222774 -6.70786e-05 -6.67264e-05 -3.97808e-05
0.000221167 -6.65929e-05 -6.62461e-05 -3.97807e-05
0.000110039 -3.32651e-05 -3.2903e-05 -4.24295e-05
0.000108437 -3.27768e-05 -3.24258e-05 -4.24293e-05
0.000324268 -9.74874e-05 -9.71915e-05 -3.53628e-05
0.000329092 -9.89412e-05 -9.86359e-05 -3.53631e-05
0.000109238 -3.3021e-05 -3.26644e-05 -4.24294e-05
0.000216348 -6.51362e-05 -6.48051e-05 -3.97803e-05
0.00032668 -9.82143e-05 -9.79137e-05 -3.5363e-05
0.000219561 -6.61073e-05 -6.57658e-05 -3.97806e-05
0.000217955 -6.56218e-05 -6.52855e-05 -3.97804e-05
0.000108437 -3.27768e-05 -3.24258e-05 -4.24293e-05
0.000106835 -3.22886e-05 -3.19485e-05 -4.24291e-05
0.000319444 -9.60338e-05 -9.5747e-05 -3.53626e-05
0.000324268 -9.74874e-05 -9.71915e-05 -3.53628e-05
0.000107636 -3.25327e-05 -3.21871e-05 -4.24292e-05
0.000213135 -6.41652e-05 -6.38444e-05 -3.97801e-05
0.000321856 -9.67606e-05 -9.64693e-05 -3.53627e-05
0.000216348 -6.51362e-05 -6.48051e-05 -3.97803e-05
0.000214742 -6.46507e-05 -6.43247e-05 -3.97802e-05
0.000106835 -3.22886e-05 -3.19485e-05 -4.24291e-05
0.000105233 -3.18005e-05 -3.14711e-05 -4.24288e-05
0.000314619 -9.45802e-05 -9.43025e-05 -3.53623e-05
0.000319444 -9.60338e-05 -9.5747e-05 -3.53626e-05
0.000106034 -3.20446e-05 -3.17098e-05 -4.2429e-05
0.000209922 -6.31942e-05 -6.28835e-05 -3.97798e-05
0.000317031 -9.5307e-05 -9.50248e-05 -3.53624e-05
0.000213135 -6.41652e-05 -6.38444e-05 -3.97801e-05
0.000211529 -6.36797e-05 -6.33639e-05 -3.97799e-05
0.000105233 -3.18005e-05 -3.14711e-05 -4.24288e-05
0.000103631 -3.13124e-05 -3.09936e-05 -4.24286e-05
0.000309795 -9.31267e-05 -9.28579e-05 -3.5362e-05
0.000314619 -9.45802e-05 -9.43025e-05 -3.53623e-05
0.000104432 -3.15564e-05 -3.12324e-05 -4.24287e-05
0.000206709 -6.22233e-05 -6.19226e-05 -3.97796e-05
0.000312207 -9.38534e-05 -9.35802e-05 -3.53622e-05
0.000209922 -6.31942e-05 -6.28835e-05 -3.97798e-05
0.000208316 -6.27087e-05 -6.2403e-05 -3.97797e-05
0.000103631 -3.13124e-05 -3.09936e-05 -4.24286e-05
0.000102029 -3.08244e-05 -3.05161e-05 -4.24284e-05
0.000304971 -9.16732e-05 -9.14133e-05 -3.53618e-05
0.000309795 -9.31267e-05 -9.28579e-05 -3.5362e-05
0.00010283 -3.10684e-05 -3.07549e-05 -4.24285e-05
0.000203496 -6.12524e-05 -6.09616e-05 -3.97793e-05
0.000307383 -9.23999e-05 -9.21356e-05 -3.53619e-05
0.000206709 -6.22233e-05 -6.19226e-05 -3.97796e-05
0.000205103 -6.17378e-05 -6.14421e-05 -3.97794e-05
0.000102029 -3.08244e-05 -3.05161e-05 -4.24284e-05
0.000100426 -3.03365e-05 -3.00384e-05 -4.24282e-05
0.000300146 -9.02198e-05 -8.99685e-05 -3.53615e-05
0.000304971 -9.16732e-05 -9.14133e-05 -3.53618e-05
0.000101227 -3.05805e-05 -3.02773e-05 -4.24283e-05
0.000200283 -6.02817e-05 -6.00005e-05 -3.97791e-05
0.000302559 -9.09465e-05 -9.06909e-05 -3.53617e-05
0.000203496 -6.12524e-05 -6.09616e-05 -3.97793e-05
0.000201889 -6.0767e-05 -6.0481e-05 -3.97792e-05
0.000100426 -3.03365e-05 -3.00384e-05 -4.24282e-05
9.88237e-05 -2.98487e-05 -2.95607e-05 -4.2428e-05
0.000295322 -8.87665e-05 -8.85237e-05 -3.53613e-05
0.000300146 -9.02198e-05 -8.99685e-05 -3.53615e-05
9.96249e-05 -3.00926e-05 -2.97996e-05 -4.24281e-05
0.000197069 -5.9311e-05 -5.90393e-05 -3.97788e-05
0.000297734 -8.94931e-05 -8.92461e-05 -3.53614e-05
0.000200283 -6.02817e-05 -6.00005e-05 -3.97791e-05
0.000198676 -5.97963e-05 -5.95199e-05 -3.9779e-05
9.88237e-05 -2.98487e-05 -2.95607e-05 -4.2428e-05
9.7221e-05 -2.93609e-05 -2.90829e-05 -4.24278e-05
0.000290497 -8.73132e-05 -8.70789e-05 -3.5361e-05
0.000295322 -8.87665e-05 -8.85237e-05 -3.53613e-05
9.80224e-05 -2.96048e-05 -2.93218e-05 -4.24279e-05
0.000193856 -5.83403e-05 -5.80781e-05 -3.97786e-05
0.00029291 -8.80398e-05 -8.78013e-05 -3.53611e-05
0.000197069 -5.9311e-05 -5.90393e-05 -3.97788e-05
0.000195463 -5.88256e-05 -5.85587e-05 -3.97787e-05
9.7221e-05 -2.93609e-05 -2.90829e-05 -4.24278e-05
9.56182e-05 -2.88733e-05 -2.8605e-05 -4.24276e-05
0.000285672 -8.586e-05 -8.56339e-05 -3.53608e-05
0.000290497 -8.73132e-05 -8.70789e-05 -3.5361e-05
9.64196e-05 -2.91171e-05 -2.88439e-05 -4.24277e-05
0.000190642 -5.73698e-05 -5.71167e-05 -3.97784e-05
0.000288085 -8.65866e-05 -8.63564e-05 -3.53609e-05
0.000193856 -5.83403e-05 -5.80781e-05 -3.97786e-05
0.000192249 -5.78551e-05 -5.75974e-05 -3.97785e-05
9.56182e-05 -2.88733e-05 -2.8605e-05 -4.24276e-05
9.40153e-05 -2.83857e-05 -2.8127e-05 -4.24273e-05
0.000280848 -8.44069e-05 -8.41889e-05 -3.53605e-05
0.000285672 -8.586e-05 -8.56339e-05 -3.53608e-05
9.48168e-05 -2.86295e-05 -2.8366e-05 -4.24275e-05
0.000187428 -5.63993e-05 -5.61553e-05 -3.97781e-05
0.00028326 -8.51335e-05 -8.49114e-05 -3.53606e-05
0.000190642 -5.73698e-05 -5.71167e-05 -3.97784e-05
0.000189035 -5.68846e-05 -5.6636e-05 -3.97782e-05
9.40153e-05 -2.83857e-05 -2.8127e-05 -4.24273e-05
9.24123e-05 -2.78982e-05 -2.76489e-05 -4.24271e-05
0.000276023 -8.29538e-05 -8.27438e-05 -3.53603e-05
0.000280848 -8.44069e-05 -8.41889e-05 -3.53605e-05
9.32138e-05 -2.81419e-05 -2.7888e-05 -4.24272e-05
0.000184215 -5.54289e-05 -5.51938e-05 -3.97779e-05
0.000278435 -8.36804e-05 -8.34664e-05 -3.53604e-05
0.000187428 -5.63993e-05 -5.61553e-05 -3.97781e-05
0.000185821 -5.59141e-05 -5.56746e-05 -3.9778e-05
9.24123e-05 -2.78982e-05 -2.76489e-05 -4.24271e-05
9.08092e-05 -2.74107e-05 -2.71708e-05 -4.24269e-05
0.000271198 -8.15008e-05 -8.12987e-05 -3.536e-05
0.000276023 -8.29538e-05 -8.27438e-05 -3.53603e-05
9.16107e-05 -2.76544e-05 -2.74099e-05 -4.2427e-05
0.000181001 -5.44586e-05 -5.42323e-05 -3.97776e-05
0.00027361 -8.22273e-05 -8.20213e-05 -3.53602e-05
0.000184215 -5.54289e-05 -5.51938e-05 -3.97779e-05
0.000182608 -5.49438e-05 -5.47131e-05 -3.97778e-05
9.08092e-05 -2.74107e-05 -2.71708e-05 -4.24269e-05
8.92059e-05 -2.69233e-05 -2.66925e-05 -4.24267e-05
0.000266373 -8.00479e-05 -7.98534e-05 -3.53598e-05
0.000271198 -8.15008e-05 -8.12987e-05 -3.536e-05
9.00075e-05 -2.7167e-05 -2.69317e-05 -4.24268e-05
0.000177786 -5.34884e-05 -5.32706e-05 -3.97774e-05
0.000268785 -8.07744e-05 -8.05761e-05 -3.53599e-05
0.000181001 -5.44586e-05 -5.42323e-05 -3.97776e-05
0.000179394 -5.39735e-05 -5.37514e-05 -3.97775e-05
8.92059e-05 -2.69233e-05 -2.66925e-05 -4.24267e-05
8.76025e-05 -2.6436e-05 -2.62142e-05 -4.24265e-05
0.000261547 -7.8595e-05 -7.84082e-05 -3.53595e-05
0.000266373 -8.00479e-05 -7.98534e-05 -3.53598e-05
8.84042e-05 -2.66797e-05 -2.64534e-05 -4.24266e-05
0.000174572 -5.25182e-05 -5.23089e-05 -3.97772e-05
0.00026396 -7.93215e-05 -7.91308e-05 -3.53597e-05
0.000177786 -5.34884e-05 -5.32706e-05 -3.97774e-05
0.000176179 -5.30033e-05 -5.27898e-05 -3.97773e-05
8.76025e-05 -2.6436e-05 -2.62142e-05 -4.24265e-05
8.5999e-05 -2.59488e-05 -2.57358e-05 -4.24263e-05
0.000256722 -7.71422e-05 -7.69628e-05 -3.53593e-05
0.000261547 -7.8595e-05 -7.84082e-05 -3.53595e-05
8.68007e-05 -2.61924e-05 -2.5975e-05 -4.24264e-05
0.000171358 -5.15481e-05 -5.13471e-05 -3.9777e-05
0.000259135 -7.78686e-05 -7.76855e-05 -3.53594e-05
0.000174572 -5.25182e-05 -5.23089e-05 -3.97772e-05
0.000172965 -5.20331e-05 -5.1828e-05 -3.97771e-05
8.5999e-05 -2.59488e-05 -2.57358e-05 -4.24263e-05
8.43953e-05 -2.54617e-05 -2.52573e-05 -4.24262e-05
0.000251897 -7.56895e-05 -7.55174e-05 -3.53591e-05
0.000256722 -7.71422e-05 -7.69628e-05 -3.53593e-05
8.51971e-05 -2.57053e-05 -2.54965e-05 -4.24263e-05
0.000168143 -5.05781e-05 -5.03852e-05 -3.97767e-05
0.000254309 -7.64159e-05 -7.62401e-05 -3.53592e-05
0.000171358 -5.15481e-05 -5.13471e-05 -3.9777e-05
0.000169751 -5.10631e-05 -5.08661e-05 -3.97769e-05
8.43953e-05 -2.54617e-05 -2.52573e-05 -4.24262e-05
8.27915e-05 -2.49746e-05 -2.47787e-05 -4.2426e-05
0.000247071 -7.42369e-05 -7.40719e-05 -3.53588e-05
0.000251897 -7.56895e-05 -7.55174e-05 -3.53591e-05
8.35934e-05 -2.52182e-05 -2.5018e-05 -4.24261e-05
0.000164929 -4.96081e-05 -4.94232e-05 -3.97765e-05
0.000249484 -7.49632e-05 -7.47946e-05 -3.5359e-05
0.000168143 -5.05781e-05 -5.03852e-05 -3.97767e-05
0.000166536 -5.00931e-05 -4.99042e-05 -3.97766e-05
8.27915e-05 -2.49746e-05 -2.47787e-05 -4.2426e-05
8.11876e-05 -2.44877e-05 -2.43e-05 -4.24258e-05
0.000242246 -7.27843e-05 -7.26263e-05 -3.53586e-05
0.000247071 -7.42369e-05 -7.40719e-05 -3.53588e-05
8.19896e-05 -2.47311e-05 -2.45393e-05 -4.24259e-05
0.000161714 -4.86382e-05 -4.84612e-05 -3.97763e-05
0.000244658 -7.35105e-05 -7.33491e-05 -3.53587e-05
0.000164929 -4.96081e-05 -4.94232e-05 -3.97765e-05
0.000163322 -4.91231e-05 -4.89422e-05 -3.97764e-05
8.11876e-05 -2.44877e-05 -2.43e-05 -4.24258e-05
7.95836e-05 -2.40007e-05 -2.38212e-05 -4.24256e-05
0.00023742 -7.13317e-05 -7.11806e-05 -3.53584e-05
0.000242246 -7.27843e-05 -7.26263e-05 -3.53586e-05
8.03856e-05 -2.42442e-05 -2.40606e-05 -4.24257e-05
0.0001585 -4.76684e-05 -4.7499e-05 -3.97761e-05
0.000239833 -7.2058e-05 -7.19035e-05 -3.53585e-05
0.000161714 -4.86382e-05 -4.84612e-05 -3.97763e-05
0.000160107 -4.81533e-05 -4.79801e-05 -3.97762e-05
7.95836e-05 -2.40007e-05 -2.38212e-05 -4.24256e-05
7.79795e-05 -2.35139e-05 -2.33424e-05 -4.24254e-05
0.000232594 -6.98793e-05 -6.97349e-05 -3.53581e-05
0.00023742 -7.13317e-05 -7.11806e-05 -3.53584e-05
7.87815e-05 -2.37573e-05 -2.35818e-05 -4.24255e-05
0.000155285 -4.66987e-05 -4.65368e-05 -3.97759e-05
0.000235007 -7.06055e-05 -7.04578e-05 -3.53583e-05
0.0001585 -4.76684e-05 -4.7499e-05 -3.97761e-05
0.000156892 -4.71835e-05 -4.70179e-05 -3.9776e-05
7.79795e-05 -2.35139e-05 -2.33424e-05 -4.24254e-05
7.63752e-05 -2.30272e-05 -2.28634e-05 -4.24252e-05
0.000227768 -6.84268e-05 -6.82891e-05 -3.53579e-05
0.000232594 -6.98793e-05 -6.97349e-05 -3.53581e-05
7.71773e-05 -2.32705e-05 -2.31029e-05 -4.24253e-05
0.00015207 -4.5729e-05 -4.55745e-05 -3.97757e-05
0.000230181 -6.9153e-05 -6.9012e-05 -3.5358e-05
0.000155285 -4.66987e-05 -4.65368e-05 -3.97759e-05
0.000153677 -4.62138e-05 -4.60557e-05 -3.97758e-05
7.63752e-05 -2.30272e-05 -2.28634e-05 -4.24252e-05
7.47708e-05 -2.25405e-05 -2.23844e-05 -4.2425e-05
0.000222942 -6.69745e-05 -6.68433e-05 -3.53577e-05
0.000227768 -6.84268e-05 -6.82891e-05 -3.53579e-05
7.5573e-05 -2.27838e-05 -2.26239e-05 -4.24251e-05
0.000148854 -4.47594e-05 -4.46122e-05 -3.97754e-05
0.000225355 -6.77007e-05 -6.75662e-05 -3.53578e-05
0.00015207 -4.5729e-05 -4.55745e-05 -3.97757e-05
0.000150462 -4.52442e-05 -4.50934e-05 -3.97756e-05
7.47708e-05 -2.25405e-05 -2.23844e-05 -4.2425e-05
7.31663e-05 -2.20539e-05 -2.19053e-05 -4.24249e-05
0.000218116 -6.55222e-05 -6.53973e-05 -3.53575e-05
0.000222942 -6.69745e-05 -6.68433e-05 -3.53577e-05
7.39685e-05 -2.22972e-05 -2.21449e-05 -4.2425e-05
0.000145639 -4.37899e-05 -4.36497e-05 -3.97752e-05
0.000220529 -6.62484e-05 -6.61203e-05 -3.53576e-05
0.000148854 -4.47594e-05 -4.46122e-05 -3.97754e-05
0.000147247 -4.42746e-05 -4.4131e-05 -3.97753e-05
7.31663e-05 -2.20539e-05 -2.19053e-05 -4.24249e-05
7.15616e-05 -2.15674e-05 -2.14261e-05 -4.24247e-05
0.00021329 -6.407e-05 -6.39513e-05 -3.53573e-05
0.000218116 -6.55222e-05 -6.53973e-05 -3.53575e-05
7.23639e-05 -2.18106e-05 -2.16657e-05 -4.24248e-05
0.000142424 -4.28204e-05 -4.26872e-05 -3.9775e-05
0.000215703 -6.47961e-05 -6.46743e-05 -3.53574e-05
0.000145639 -4.37899e-05 -4.36497e-05 -3.97752e-05
0.000144032 -4.33052e-05 -4.31685e-05 -3.97751e-05
7.15616e-05 -2.15674e-05 -2.14261e-05 -4.24247e-05
6.99568e-05 -2.10809e-05 -2.09468e-05 -4.24245e-05
0.000208464 -6.26179e-05 -6.25053e-05 -3.5357e-05
0.00021329 -6.407e-05 -6.39513e-05 -3.53573e-05
7.07592e-05 -2.13241e-05 -2.11865e-05 -4.24246e-05
0.000139208 -4.18511e-05 -4.17246e-05 -3.97748e-05
0.000210877 -6.3344e-05 -6.32283e-05 -3.53571e-05
0.000142424 -4.28204e-05 -4.26872e-05 -3.9775e-05
0.000140816 -4.23358e-05 -4.22059e-05 -3.97749e-05
6.99568e-05 -2.10809e-05 -2.09468e-05 -4.24245e-05
6.83519e-05 -2.05946e-05 -2.04674e-05 -4.24244e-05
0.000203637 -6.11658e-05 -6.10591e-05 -3.53568e-05
0.000208464 -6.26179e-05 -6.25053e-05 -3.5357e-05
6.91544e-05 -2.08377e-05 -2.07071e-05 -4.24244e-05
0.000135993 -4.08818e-05 -4.07619e-05 -3.97746e-05
0.00020605 -6.18918e-05 -6.17822e-05 -3.53569e-05
0.000139208 -4.18511e-05 -4.17246e-05 -3.97748e-05
0.000137601 -4.13664e-05 -4.12432e-05 -3.97747e-05
6.83519e-05 -2.05946e-05 -2.04674e-05 -4.24244e-05
6.67469e-05 -2.01083e-05 -1.9988e-05 -4.24242e-05
0.000198811 -5.97138e-05 -5.96129e-05 -3.53566e-05
0.000203637 -6.11658e-05 -6.10591e-05 -3.53568e-05
6.75494e-05 -2.03514e-05 -2.02277e-05 -4.24243e-05
0.000132777 -3.99125e-05 -3.97991e-05 -3.97744e-05
0.000201224 -6.04398e-05 -6.0336e-05 -3.53567e-05
0.000135993 -4.08818e-05 -4.07619e-05 -3.97746e-05
0.000134385 -4.03972e-05 -4.02805e-05 -3.97745e-05
6.67469e-05 -2.01083e-05 -1.9988e-05 -4.24242e-05
6.51417e-05 -1.9622e-05 -1.95084e-05 -4.2424e-05
0.000193984 -5.82619e-05 -5.81666e-05 -3.53564e-05
0.000198811 -5.97138e-05 -5.96129e-05 -3.53566e-05
6.59443e-05 -1.98651e-05 -1.97482e-05 -4.24241e-05
0.000129561 -3.89434e-05 -3.88363e-05 -3.97742e-05
0.000196397 -5.89878e-05 -5.88898e-05 -3.53565e-05
0.000132777 -3.99125e-05 -3.97991e-05 -3.97744e-05
0.000131169 -3.9428e-05 -3.93177e-05 -3.97743e-05
6.51417e-05 -1.9622e-05 -1.95084e-05 -4.2424e-05
6.35365e-05 -1.91359e-05 -1.90288e-05 -4.24239e-05
0.000189157 -5.681e-05 -5.67203e-05 -3.53562e-05
0.000193984 -5.82619e-05 -5.81666e-05 -3.53564e-05
6.43391e-05 -1.9379e-05 -1.92686e-05 -4.2424e-05
0.000126345 -3.79743e-05 -3.78733e-05 -3.9774e-05
0.000191571 -5.75359e-05 -5.74434e-05 -3.53563e-05
0.000129561 -3.89434e-05 -3.88363e-05 -3.97742e-05
0.000127953 -3.84588e-05 -3.83548e-05 -3.97741e-05
6.35365e-05 -1.91359e-05 -1.90288e-05 -4.24239e-05
6.19311e-05 -1.86498e-05 -1.85491e-05 -4.24237e-05
0.00018433 -5.53582e-05 -5.52738e-05 -3.5356e-05
0.000189157 -5.681e-05 -5.67203e-05 -3.53562e-05
6.27338e-05 -1.88929e-05 -1.8789e-05 -4.24238e-05
0.000123129 -3.70053e-05 -3.69103e-05 -3.97739e-05
0.000186744 -5.60841e-05 -5.5997e-05 -3.53561e-05
0.000126345 -3.79743e-05 -3.78733e-05 -3.9774e-05
0.000124737 -3.74898e-05 -3.73918e-05 -3.97739e-05
6.19311e-05 -1.86498e-05 -1.85491e-05 -4.24237e-05
6.03255e-05 -1.81639e-05 -1.80693e-05 -4.24236e-05
0.000179503 -5.39064e-05 -5.38273e-05 -3.53558e-05
0.00018433 -5.53582e-05 -5.52738e-05 -3.5356e-05
6.11283e-05 -1.84068e-05 -1.83092e-05 -4.24236e-05
0.000119913 -3.60364e-05 -3.59472e-05 -3.97737e-05
0.000181917 -5.46323e-05 -5.45506e-05 -3.53559e-05
0.000123129 -3.70053e-05 -3.69103e-05 -3.97739e-05
0.000121521 -3.65208e-05 -3.64288e-05 -3.97738e-05
6.03255e-05 -1.81639e-05 -1.80693e-05 -4.24236e-05
5.87199e-05 -1.7678e-05 -1.75894e-05 -4.24234e-05
0.000174676 -5.24547e-05 -5.23807e-05 -3.53556e-05
0.000179503 -5.39064e-05 -5.38273e-05 -3.53558e-05
5.95227e-05 -1.79209e-05 -1.78294e-05 -4.24235e-05
0.000116697 -3.50675e-05 -3.4984e-05 -3.97735e-05
0.00017709 -5.31806e-05 -5.3104e-05 -3.53557e-05
0.000119913 -3.60364e-05 -3.59472e-05 -3.97737e-05
0.000118305 -3.55519e-05 -3.54656e-05 -3.97736e-05
5.87199e-05 -1.7678e-05 -1.75894e-05 -4.24234e-05
5.71141e-05 -1.71921e-05 -1.71094e-05 -4.24233e-05
0.000169849 -5.10031e-05 -5.09341e-05 -3.53554e-05
0.000174676 -5.24547e-05 -5.23807e-05 -3.53556e-05
5.7917e-05 -1.7435e-05 -1.73494e-05 -4.24233e-05
0.000113481 -3.40987e-05 -3.40208e-05 -3.97733e-05
0.000172263 -5.17289e-05 -5.16574e-05 -3.53555e-05
0.000116697 -3.50675e-05 -3.4984e-05 -3.97735e-05
0.000115089 -3.45831e-05 -3.45024e-05 -3.97734e-05
5.71141e-05 -1.71921e-05 -1.71094e-05 -4.24233e-05
5.55082e-05 -1.67064e-05 -1.66293e-05 -4.24231e-05
0.000165022 -4.95515e-05 -4.94874e-05 -3.53552e-05
0.000169849 -5.10031e-05 -5.09341e-05 -3.53554e-05
5.63111e-05 -1.69492e-05 -1.68694e-05 -4.24232e-05
0.000110264 -3.313e-05 -3.30574e-05 -3.97731e-05
0.000167436 -5.02773e-05 -5.02107e-05 -3.53553e-05
0.000113481 -3.40987e-05 -3.40208e-05 -3.97733e-05
0.000111872 -3.36143e-05 -3.35391e-05 -3.97732e-05
5.55082e-05 -1.67064e-05 -1.66293e-05 -4.24231e-05
5.39021e-05 -1.62207e-05 -1.61492e-05 -4.2423e-05
0.000160195 -4.81e-05 -4.80406e-05 -3.5355e-05
0.000165022 -4.95515e-05 -4.94874e-05 -3.53552e-05
5.47052e-05 -1.64635e-05 -1.63893e-05 -4.2423e-05
0.000107047 -3.21613e-05 -3.2094e-05 -3.97729e-05
0.000162608 -4.88258e-05 -4.8764e-05 -3.53551e-05
0.000110264 -3.313e-05 -3.30574e-05 -3.97731e-05
0.000108656 -3.26457e-05 -3.25757e-05 -3.9773e-05
5.39021e-05 -1.62207e-05 -1.61492e-05 -4.2423e-05
5.2296e-05 -1.57351e-05 -1.56689e-05 -4.24228e-05
0.000155367 -4.66486e-05 -4.65937e-05 -3.53548e-05
0.000160195 -4.81e-05 -4.80406e-05 -3.5355e-05
5.30991e-05 -1.59779e-05 -1.59091e-05 -4.24229e-05
0.000103831 -3.11928e-05 -3.11305e-05 -3.97728e-05
0.000157781 -4.73743e-05 -4.73172e-05 -3.53549e-05
0.000107047 -3.21613e-05 -3.2094e-05 -3.97729e-05
0.000105439 -3.16771e-05 -3.16123e-05 -3.97729e-05
5.2296e-05 -1.57351e-05 -1.56689e-05 -4.24228e-05
5.06897e-05 -1.52496e-05 -1.51886e-05 -4.24227e-05
0.00015054 -4.51973e-05 -4.51468e-05 -3.53546e-05
0.000155367 -4.66486e-05 -4.65937e-05 -3.53548e-05
5.14928e-05 -1.54923e-05 -1.54288e-05 -4.24228e-05
0.000100614 -3.02243e-05 -3.01669e-05 -3.97726e-05
0.000152954 -4.59229e-05 -4.58703e-05 -3.53547e-05
0.000103831 -3.11928e-05 -3.11305e-05 -3.97728e-05
0.000102222 -3.07085e-05 -3.06487e-05 -3.97727e-05
5.06897e-05 -1.52496e-05 -1.51886e-05 -4.24227e-05
4.90833e-05 -1.47641e-05 -1.47082e-05 -4.24226e-05
0.000145712 -4.3746e-05 -4.36998e-05 -3.53544e-05
0.00015054 -4.51973e-05 -4.51468e-05 -3.53546e-05
4.98865e-05 -1.50068e-05 -1.49484e-05 -4.24226e-05
9.73968e-05 -2.92559e-05 -2.92033e-05 -3.97724e-05
0.000148126 -4.44716e-05 -4.44233e-05 -3.53545e-05
0.000100614 -3.02243e-05 -3.01669e-05 -3.97726e-05
9.90053e-05 -2.97401e-05 -2.96851e-05 -3.97725e-05
4.90833e-05 -1.47641e-05 -1.47082e-05 -4.24226e-05
4.74767e-05 -1.42788e-05 -1.42277e-05 -4.24224e-05
0.000140884 -4.22947e-05 -4.22527e-05 -3.53542e-05
0.000145712 -4.3746e-05 -4.36998e-05 -3.53544e-05
4.828e-05 -1.45214e-05 -1.4468e-05 -4.24225e-05
9.41797e-05 -2.82875e-05 -2.82395e-05 -3.97723e-05
0.000143298 -4.30203e-05 -4.29762e-05 -3.53543e-05
9.73968e-05 -2.92559e-05 -2.92033e-05 -3.97724e-05
9.57883e-05 -2.87717e-05 -2.87214e-05 -3.97724e-05
4.74767e-05 -1.42788e-05 -1.42277e-05 -4.24224e-05
4.58701e-05 -1.37935e-05 -1.37471e-05 -4.24223e-05
0.000136056 -4.08436e-05 -4.08055e-05 -3.53541e-05
0.000140884 -4.22947e-05 -4.22527e-05 -3.53542e-05
4.66734e-05 -1.40361e-05 -1.39874e-05 -4.24224e-05
9.09625e-05 -2.73192e-05 -2.72757e-05 -3.97721e-05
0.00013847 -4.15691e-05 -4.15291e-05 -3.53542e-05
9.41797e-05 -2.82875e-05 -2.82395e-05 -3.97723e-05
9.25711e-05 -2.78034e-05 -2.77576e-05 -3.97722e-05
4.58701e-05 -1.37935e-05 -1.37471e-05 -4.24223e-05
4.42633e-05 -1.33083e-05 -1.32664e-05 -4.24222e-05
0.000131228 -3.93925e-05 -3.93583e-05 -3.53539e-05
0.000136056 -4.08436e-05 -4.08055e-05 -3.53541e-05
4.50667e-05 -1.35509e-05 -1.35068e-05 -4.24223e-05
8.77452e-05 -2.63511e-05 -2.63118e-05 -3.9772e-05
0.000133642 -4.0118e-05 -4.00819e-05 -3.5354e-05
9.09625e-05 -2.73192e-05 -2.72757e-05 -3.97721e-05
8.93539e-05 -2.68351e-05 -2.67937e-05 -3.97721e-05
4.42633e-05 -1.33083e-05 -1.32664e-05 -4.24222e-05
4.26564e-05 -1.28232e-05 -1.27857e-05 -4.24221e-05
0.0001264 -3.79415e-05 -3.7911e-05 -3.53538e-05
0.000131228 -3.93925e-05 -3.93583e-05 -3.53539e-05
4.34599e-05 -1.30658e-05 -1.30261e-05 -4.24221e-05
8.45278e-05 -2.5383e-05 -2.53478e-05 -3.97718e-05
0.000128814 -3.8667e-05 -3.86346e-05 -3.53538e-05
8.77452e-05 -2.63511e-05 -2.63118e-05 -3.9772e-05
8.61365e-05 -2.5867e-05 -2.58298e-05 -3.97719e-05
4.26564e-05 -1.28232e-05 -1.27857e-05 -4.24221e-05
4.10494e-05 -1.23382e-05 -1.23048e-05 -4.2422e-05
0.000121572 -3.64905e-05 -3.64636e-05 -3.53536e-05
0.0001264 -3.79415e-05 -3.7911e-05 -3.53538e-05
4.18529e-05 -1.25807e-05 -1.25452e-05 -4.2422e-05
8.13102e-05 -2.44149e-05 -2.43837e-05 -3.97717e-05
0.000123986 -3.7216e-05 -3.71873e-05 -3.53537e-05
8.45278e-05 -2.5383e-05 -2.53478e-05 -3.97718e-05
8.2919e-05 -2.48989e-05 -2.48657e-05 -3.97718e-05
4.10494e-05 -1.23382e-05 -1.23048e-05 -4.2422e-05
3.94423e-05 -1.18533e-05 -1.18239e-05 -4.24219e-05
0.000116744 -3.50397e-05 -3.50162e-05 -3.53535e-05
0.000121572 -3.64905e-05 -3.64636e-05 -3.53536e-05
4.02459e-05 -1.20957e-05 -1.20644e-05 -4.24219e-05
7.80926e-05 -2.3447e-05 -2.34195e-05 -3.97716e-05
0.000119158 -3.57651e-05 -3.57399e-05 -3.53536e-05
8.13102e-05 -2.44149e-05 -2.43837e-05 -3.97717e-05
7.97014e-05 -2.3931e-05 -2.39016e-05 -3.97717e-05
3.94423e-05 -1.18533e-05 -1.18239e-05 -4.24219e-05
3.78351e-05 -1.13685e-05 -1.13429e-05 -4.24218e-05
0.000111916 -3.35889e-05 -3.35686e-05 -3.53534e-05
0.000116744 -3.50397e-05 -3.50162e-05 -3.53535e-05
3.86388e-05 -1.16109e-05 -1.15834e-05 -4.24218e-05
7.48749e-05 -2.24792e-05 -2.24553e-05 -3.97715e-05
0.00011433 -3.43143e-05 -3.42924e-05 -3.53535e-05
7.80926e-05 -2.3447e-05 -2.34195e-05 -3.97716e-05
7.64838e-05 -2.29631e-05 -2.29374e-05 -3.97716e-05
3.78351e-05 -1.13685e-05 -1.13429e-05 -4.24218e-05
3.62279e-05 -1.08837e-05 -1.08618e-05 -4.24216e-05
0.000107087 -3.21382e-05 -3.2121e-05 -3.53533e-05
0.000111916 -3.35889e-05 -3.35686e-05 -3.53534e-05
3.70315e-05 -1.11261e-05 -1.11023e-05 -4.24217e-05
7.16571e-05 -2.15114e-05 -2.1491e-05 -3.97714e-05
0.000109501 -3.28635e-05 -3.28448e-05 -3.53534e-05
7.48749e-05 -2.24792e-05 -2.24553e-05 -3.97715e-05
7.3266e-05 -2.19953e-05 -2.19732e-05 -3.97714e-05
3.62279e-05 -1.08837e-05 -1.08618e-05 -4.24216e-05
3.46205e-05 -1.0399e-05 -1.03806e-05 -4.24215e-05
0.000102259 -3.06875e-05 -3.06734e-05 -3.53533e-05
0.000107087 -3.21382e-05 -3.2121e-05 -3.53533e-05
3.54242e-05 -1.06414e-05 -1.06212e-05 -4.24216e-05
6.84392e-05 -2.05437e-05 -2.05267e-05 -3.97713e-05
0.000104673 -3.14128e-05 -3.13972e-05 -3.53533e-05
7.16571e-05 -2.15114e-05 -2.1491e-05 -3.97714e-05
7.00482e-05 -2.10276e-05 -2.10088e-05 -3.97713e-05
3.46205e-05 -1.0399e-05 -1.03806e-05 -4.24215e-05
3.3013e-05 -9.91439e-06 -9.89941e-06 -4.24213e-05
9.74303e-05 -2.9237e-05 -2.92257e-05 -3.53532e-05
0.000102259 -3.06875e-05 -3.06734e-05 -3.53533e-05
3.38168e-05 -1.01567e-05 -1.014e-05 -4.24214e-05
6.52213e-05 -1.95761e-05 -1.95622e-05 -3.97711e-05
9.98445e-05 -2.99623e-05 -2.99496e-05 -3.53532e-05
6.84392e-05 -2.05437e-05 -2.05267e-05 -3.97713e-05
6.68303e-05 -2.00599e-05 -2.00445e-05 -3.97712e-05
3.3013e-05 -9.91439e-06 -9.89941e-06 -4.24213e-05
3.14054e-05 -9.42972e-06 -9.41816e-06 -4.2421e-05
9.26018e-05 -2.77865e-05 -2.7778e-05 -3.5353e-05
9.74303e-05 -2.9237e-05 -2.92257e-05 -3.53532e-05
3.22092e-05 -9.67206e-06 -9.65879e-06 -4.24211e-05
6.20034e-05 -1.86085e-05 -1.85978e-05 -3.97708e-05
9.5016e-05 -2.85117e-05 -2.85018e-05 -3.53531e-05
6.52213e-05 -1.95761e-05 -1.95622e-05 -3.97711e-05
6.36123e-05 -1.90923e-05 -1.908e-05 -3.9771e-05
3.14054e-05 -9.42972e-06 -9.41816e-06 -4.2421e-05
2.97977e-05 -8.9449e-06 -8.9369e-06 -4.24206e-05
8.77732e-05 -2.63359e-05 -2.63303e-05 -3.53527e-05
9.26018e-05 -2.77865e-05 -2.7778e-05 -3.5353e-05
3.06016e-05 -9.18734e-06 -9.17753e-06 -4.24208e-05
5.87853e-05 -1.76408e-05 -1.76334e-05 -3.97704e-05
9.01875e-05 -2.70612e-05 -2.70541e-05 -3.53529e-05
6.20034e-05 -1.86085e-05 -1.85978e-05 -3.97708e-05
6.03943e-05 -1.81246e-05 -1.81156e-05 -3.97707e-05
2.97977e-05 -8.9449e-06 -8.9369e-06 -4.24206e-05
2.81896e-05 -8.45973e-06 -8.45567e-06 -4.24201e-05
8.29446e-05 -2.48851e-05 -2.48827e-05 -3.53522e-05
8.77732e-05 -2.63359e-05 -2.63303e-05 -3.53527e-05
2.89937e-05 -8.70238e-06 -8.69627e-06 -4.24204e-05
5.5567e-05 -1.66727e-05 -1.6669e-05 -3.97699e-05
8.53589e-05 -2.56105e-05 -2.56065e-05 -3.53525e-05
5.87853e-05 -1.76408e-05 -1.76334e-05 -3.97704e-05
5.71762e-05 -1.71568e-05 -1.71512e-05 -3.97702e-05
2.81896e-05 -8.45973e-06 -8.45567e-06 -4.24201e-05
2.65809e-05 -7.97378e-06 -7.97449e-06 -4.24198e-05
7.81157e-05 -2.34335e-05 -2.34352e-05 -3.53511e-05
8.29446e-05 -2.48851e-05 -2.48827e-05 -3.53522e-05
2.73854e-05 -8.21689e-06 -8.21507e-06 -4.24199e-05
5.23482e-05 -1.57037e-05 -1.57048e-05 -3.97691e-05
8.05302e-05 -2.41594e-05 -2.41589e-05 -3.53517e-05
5.5567e-05 -1.66727e-05 -1.6669e-05 -3.97699e-05
5.39577e-05 -1.61883e-05 -1.61869e-05 -3.97695e-05
2.65809e-05 -7.97378e-06 -7.97449e-06 -4.24198e-05
2.49711e-05 -7.48628e-06 -7.49349e-06 -4.24201e-05
7.32857e-05 -2.19802e-05 -2.19881e-05 -3.53493e-05
7.81157e-05 -2.34335e-05 -2.34352e-05 -3.53511e-05
2.57762e-05 -7.73029e-06 -7.73395e-06 -4.24198e-05
4.9128e-05 -1.47327e-05 -1.47408e-05 -3.97682e-05
7.57009e-05 -2.27072e-05 -2.27116e-05 -3.53503e-05
5.23482e-05 -1.57037e-05 -1.57048e-05 -3.97691e-05
5.07383e-05 -1.52185e-05 -1.52228e-05 -3.97686e-05
2.49711e-05 -7.48628e-06 -7.49349e-06 -4.24201e-05
2.33586e-05 -6.99585e-06 -7.0126e-06 -4.24226e-05
6.84536e-05 -2.05231e-05 -2.05416e-05 -3.5346e-05
7.32857e-05 -2.19802e-05 -2.19881e-05 -3.53493e-05
2.41653e-05 -7.24157e-06 -7.25304e-06 -4.2421e-05
4.59049e-05 -1.37578e-05 -1.37773e-05 -3.97677e-05
7.087e-05 -2.12523e-05 -2.12647e-05 -3.53479e-05
4.9128e-05 -1.47327e-05 -1.47408e-05 -3.97682e-05
4.7517e-05 -1.4246e-05 -1.4259e-05 -3.97679e-05
2.33586e-05 -6.99585e-06 -7.0126e-06 -4.24226e-05
2.17416e-05 -6.4999e-06 -6.53215e-06 -4.243e-05
6.36154e-05 -1.90584e-05 -1.90959e-05 -3.53406e-05
6.84536e-05 -2.05231e-05 -2.05416e-05 -3.5346e-05
2.25507e-05 -6.74877e-06 -6.77226e-06 -4.24254e-05
4.26754e-05 -1.27749e-05 -1.28145e-05 -3.97688e-05
6.60356e-05 -1.97921e-05 -1.98187e-05 -3.53436e-05
4.59049e-05 -1.37578e-05 -1.37773e-05 -3.97677e-05
4.42912e-05 -1.32677e-05 -1.32958e-05 -3.97679e-05
2.17416e-05 -6.4999e-06 -6.53215e-06 -4.243e-05
2.01143e-05 -5.99415e-06 -6.05149e-06 -4.24485e-05
5.87657e-05 -1.75785e-05 -1.76517e-05 -3.53314e-05
6.36154e-05 -1.90584e-05 -1.90959e-05 -3.53406e-05
2.09299e-05 -6.2487e-06 -6.29194e-06 -4.24373e-05
3.94326e-05 -1.17772e-05 -1.18523e-05 -3.97743e-05
6.11923e-05 -1.8321e-05 -1.83734e-05 -3.53366e-05
4.26754e-05 -1.27749e-05 -1.28145e-05 -3.97688e-05
4.10562e-05 -1.22786e-05 -1.23333e-05 -3.97709e-05
2.01143e-05 -5.99415e-06 -6.05149e-06 -4.24485e-05
1.8471e-05 -5.47081e-06 -5.5715e-06 -4.24894e-05
5.38894e-05 -1.60708e-05 -1.6208e-05 -3.53176e-05
5.87657e-05 -1.75785e-05 -1.76517e-05 -3.53314e-05
1.92947e-05 -5.73519e-06 -5.81123e-06 -4.24653e-05
3.61638e-05 -1.0752e-05 -1.08908e-05 -3.97899e-05
5.63325e-05 -1.68294e-05 -1.69299e-05 -3.53251e-05
3.94326e-05 -1.17772e-05 -1.18523e-05 -3.97743e-05
3.78025e-05 -1.12689e-05 -1.13715e-05 -3.97801e-05
1.8471e-05 -5.47081e-06 -5.5715e-06 -4.24894e-05
1.67927e-05 -4.91897e-06 -5.08875e-06 -4.25737e-05
4.89676e-05 -1.45125e-05 -1.47665e-05 -3.5296e-05
5.38894e-05 -1.60708e-05 -1.6208e-05 -3.53176e-05
1.76385e-05 -5.19969e-06 -5.33092e-06 -4.25243e-05
3.28466e-05 -9.68038e-06 -9.9284e-06 -3.98267e-05
5.14349e-05 -1.52995e-05 -1.54866e-05 -3.53082e-05
3.61638e-05 -1.0752e-05 -1.08908e-05 -3.97899e-05
3.45131e-05 -1.02239e-05 -1.04096e-05 -3.98053e-05
1.67927e-05 -4.91897e-06 -5.08875e-06 -4.25737e-05
1.5066e-05 -4.31958e-06 -4.60559e-06 -4.27342e-05
4.39494e-05 -1.28712e-05 -1.33192e-05 -3.5269e-05
4.89676e-05 -1.45125e-05 -1.47665e-05 -3.5296e-05
1.59348e-05 -4.62588e-06 -4.84668e-06 -4.26418e-05
2.94423e-05 -8.53053e-06 -8.9622e-06 -3.99044e-05
4.64761e-05 -1.37056e-05 -1.40445e-05 -3.52825e-05
3.28466e-05 -9.68038e-06 -9.9284e-06 -3.98267e-05
3.11584e-05 -9.11688e-06 -9.44637e-06 -3.98575e-05
1.5066e-05 -4.31958e-06 -4.60559e-06 -4.27342e-05
1.32397e-05 -3.65639e-06 -4.10713e-06 -4.3025e-05
3.87862e-05 -1.1095e-05 -1.18677e-05 -3.52336e-05
4.39494e-05 -1.28712e-05 -1.33192e-05 -3.5269e-05
1.41722e-05 -3.99853e-06 -4.36016e-06 -4.28587e-05
2.58942e-05 -7.26906e-06 -7.98221e-06 -4.00563e-05
4.13865e-05 -1.2002e-05 -1.25933e-05 -3.52532e-05
2.94423e-05 -8.53053e-06 -8.9622e-06 -3.99044e-05
2.76903e-05 -7.91754e-06 -8.47403e-06 -3.9971e-05
1.32397e-05 -3.65639e-06 -4.10713e-06 -4.3025e-05
1.13051e-05 -2.90411e-06 -3.60043e-06 -4.35086e-05
3.33435e-05 -9.14053e-06 -1.03727e-05 -3.52205e-05
3.87862e-05 -1.1095e-05 -1.18677e-05 -3.52336e-05
1.22801e-05 -3.28879e-06 -3.85341e-06 -4.32387e-05
2.21182e-05 -5.85239e-06 -6.97108e-06 -4.03338e-05
3.61161e-05 -1.01459e-05 -1.11301e-05 -3.52198e-05
2.58942e-05 -7.26906e-06 -7.98221e-06 -4.00563e-05
2.40412e-05 -6.57841e-06 -7.48405e-06 -4.01698e-05
1.13051e-05 -2.90411e-06 -3.60043e-06 -4.35086e-05
9.17146e-06 -2.10161e-06 -3.02994e-06 -4.42558e-05
2.75624e-05 -6.96182e-06 -8.82883e-06 -3.52499e-05
3.33435e-05 -9.14053e-06 -1.03727e-05 -3.52205e-05
1.02804e-05 -2.51038e-06 -3.33e-06 -4.38442e-05
1.80472e-05 -4.31576e-06 -5.8849e-06 -4.08053e-05
3.04863e-05 -8.07073e-06 -9.60667e-06 -3.52299e-05
2.21182e-05 -5.85239e-06 -6.97108e-06 -4.03338e-05
2.01215e-05 -5.0988e-06 -6.43831e-06 -4.05507e-05
9.17146e-06 -2.10161e-06 -3.02994e-06 -4.42558e-05
6.96843e-06 -1.32146e-06 -2.42013e-06 -4.52326e-05
2.12305e-05 -4.71211e-06 -7.07932e-06 -3.54924e-05
2.75624e-05 -6.96182e-06 -8.82883e-06 -3.52499e-05
8.04519e-06 -1.68334e-06 -2.72651e-06 -4.47245e-05
1.36451e-05 -2.78308e-06 -4.65516e-06 -4.15379e-05
2.45008e-05 -5.84134e-06 -7.99693e-06 -3.53241e-05
1.80472e-05 -4.31576e-06 -5.8849e-06 -4.08053e-05
1.58901e-05 -3.51632e-06 -5.30306e-06 -4.11148e-05
6.96843e-06 -1.32146e-06 -2.42013e-06 -4.52326e-05
4.71535e-06 -9.90914e-07 -1.59619e-06 -4.62043e-05
1.4658e-05 -2.76349e-06 -5.09765e-06 -3.60703e-05
2.12305e-05 -4.71211e-06 -7.07932e-06 -3.54924e-05
5.87915e-06 -1.08448e-06 -2.05486e-06 -4.57441e-05
9.21952e-06 -1.87576e-06 -3.14733e-06 -4.24973e-05
1.79001e-05 -3.61448e-06 -6.12239e-06 -3.57339e-05
1.36451e-05 -2.78308e-06 -4.65516e-06 -4.15379e-05
1.13943e-05 -2.21111e-06 -3.93563e-06 -4.20347e-05
4.71535e-06 -9.90914e-07 -1.59619e-06 -4.62043e-05
3.14168e-06 -1.60203e-06 -6.59849e-07 -4.62617e-05
8.26876e-06 -2.7267e-06 -2.37517e-06 -3.73897e-05
1.4658e-05 -2.76349e-06 -5.09765e-06 -3.60703e-05
3.72141e-06 -1.08978e-06 -1.12784e-06 -4.64399e-05
5.45247e-06 -2.60134e-06 -1.22192e-06 -4.32323e-05
1.14618e-05 -2.4042e-06 -3.88182e-06 -3.6601e-05
9.21952e-06 -1.87576e-06 -3.14733e-06 -4.24973e-05
7.20943e-06 -1.89805e-06 -2.2763e-06 -4.28792e-05
3.14168e-06 -1.60203e-06 -6.59849e-07 -4.62617e-05
2.32439e-06 -4.13308e-06 7.75154e-07 -4.37153e-05
4.87303e-06 -7.4701e-06 1.11303e-06 -3.84366e-05
8.26876e-06 -2.7267e-06 -2.37517e-06 -3.73897e-05
2.75105e-06 -2.69293e-06 -2.49094e-08 -4.54516e-05
4.1136e-06 -6.89603e-06 1.19247e-06 -4.19174e-05
5.82413e-06 -4.07582e-06 -7.49276e-07 -3.80922e-05
5.45247e-06 -2.60134e-06 -1.22192e-06 -4.32323e-05
4.30256e-06 -4.27822e-06 -1.0435e-08 -4.31444e-05
2.32439e-06 -4.13308e-06 7.75154e-07 -4.37153e-05
3.11227e-06 -7.47018e-06 1.86767e-06 -3.576e-05
6.54777e-06 -2.23592e-05 6.77631e-06 -3.5373e-05
4.87303e-06 -7.4701e-06 1.11303e-06 -3.84366e-05
2.29901e-06 -5.6846e-06 1.45096e-06 -4.05997e-05
5.0873e-06 -1.46995e-05 4.1195e-06 -3.49202e-05
5.18954e-06 -1.37486e-05 3.66818e-06 -3.79191e-05
4.1136e-06 -6.89603e-06 1.19247e-06 -4.19174e-05
4.50278e-06 -1.03659e-05 2.51277e-06 -3.9186e-05
3.11227e-06 -7.47018e-06 1.86767e-06 -3.576e-05
5.23076e-06 -1.21643e-05 2.97151e-06 -2.04067e-05
1.15812e-05 -4.05362e-05 1.24093e-05 -1.87318e-05
6.54777e-06 -2.23592e-05 6.77631e-06 -3.5373e-05
4.25817e-06 -9.64886e-06 2.31029e-06 -2.90851e-05
7.35064e-06 -2.50739e-05 7.5957e-06 -2.06948e-05
8.74564e-06 -3.20966e-05 1.00076e-05 -2.92568e-05
5.0873e-06 -1.46995e-05 4.1195e-06 -3.49202e-05
5.99422e-06 -1.98046e-05 5.91875e-06 -2.89101e-05
0.00077716 0 -0.000333068 0.000101388
0.000879372 -0.000116837 -0.000326801 -3.98078e-06
0.00152107 -0.000301692 -0.000522593 -0.000113962
0.00135142 2.22045e-16 -0.000579178 -7.85209e-05
0.000842471 -6.57265e-05 -0.00033289 3.77252e-05
0.00117396 -0.00018232 -0.00042499 -4.74989e-05
0.00144647 -0.000142311 -0.000558927 -0.000132144
0.00110519 0 -0.000473654 1.48453e-05
0.001124 -0.000101125 -0.000438373 -1.57309e-05
0.000879372 -0.000116837 -0.000326801 -3.98078e-06
0.000924565 -0.000213662 -0.000304673 -3.67306e-05
0.00158069 -0.000428585 -0.000493759 -5.45659e-05
0.00152107 -0.000301692 -0.000522593 -0.000113962
0.000902013 -0.000168307 -0.000314446 -2.50834e-05
0.00125229 -0.000309715 -0.000403962 -5.53091e-05
0.00156816 -0.000391106 -0.000504451 -8.2393e-05
0.00117396 -0.00018232 -0.00042499 -4.74989e-05
0.00122633 -0.000253843 -0.000416778 -6.20935e-05
0.000924565 -0.000213662 -0.000304673 -3.67306e-05
0.000947614 -0.000262733 -0.00029352 -4.29943e-05
0.00157322 -0.000464381 -0.000475218 -2.04923e-05
0.00158069 -0.000428585 -0.000493759 -5.45659e-05
0.00094158 -0.000244076 -0.000298931 -4.24474e-05
0.00126514 -0.000361176 -0.000387415 -3.72135e-05
0.00157645 -0.000450841 -0.000482403 -3.22376e-05
0.00125229 -0.000309715 -0.000403962 -5.53091e-05
0.00126189 -0.000343257 -0.000393699 -4.38045e-05
0.000947614 -0.000262733 -0.00029352 -4.29943e-05
0.000946941 -0.000282146 -0.000284912 -3.96982e-05
0.00156218 -0.000469437 -0.000468317 -1.27602e-05
0.00157322 -0.000464381 -0.000475218 -2.04923e-05
0.000947716 -0.000274898 -0.00028835 -4.1158e-05
0.00125916 -0.000377737 -0.000377753 -2.8239e-05
0.0015691 -0.0004692 -0.000471387 -1.53153e-05
0.00126514 -0.000361176 -0.000387415 -3.72135e-05
0.00126369 -0.000371943 -0.000382178 -3.23899e-05
0.000946941 -0.000282146 -0.000284912 -3.96982e-05
0.000940409 -0.000285977 -0.000280471 -3.74301e-05
0.00154939 -0.000468736 -0.000463136 -1.23138e-05
0.00156218 -0.000469437 -0.000468317 -1.27602e-05
0.000944702 -0.000285314 -0.000282595 -3.85698e-05
0.00124767 -0.000378823 -0.000372362 -2.53648e-05
0.00155481 -0.00046925 -0.000465241 -1.17812e-05
0.00125916 -0.000377737 -0.000377753 -2.8239e-05
0.00125325 -0.000379412 -0.000374504 -2.58752e-05
0.000940409 -0.000285977 -0.000280471 -3.74301e-05
0.000931103 -0.000284637 -0.000277057 -3.59079e-05
0.00153967 -0.000465347 -0.000460426 -1.4818e-05
0.00154939 -0.000468736 -0.000463136 -1.23138e-05
0.000935423 -0.000285619 -0.000278487 -3.64386e-05
0.00123705 -0.000376262 -0.000368909 -2.55027e-05
0.00154473 -0.000467264 -0.000461771 -1.36254e-05
0.00124767 -0.000378823 -0.000372362 -2.53648e-05
0.0012423 -0.000377701 -0.000370543 -2.54196e-05
0.000931103 -0.000284637 -0.000277057 -3.59079e-05
0.000922978 -0.000281536 -0.000274904 -3.5423e-05
0.00153029 -0.000462013 -0.000457832 -1.69496e-05
0.00153967 -0.000465347 -0.000460426 -1.4818e-05
0.000927079 -0.000283181 -0.000275956 -3.56407e-05
0.00122748 -0.000372485 -0.000366426 -2.64313e-05
0.0015347 -0.000463614 -0.000459037 -1.58837e-05
0.00123705 -0.000376262 -0.000368909 -2.55027e-05
0.00123206 -0.000374431 -0.000367554 -2.58539e-05
0.000922978 -0.000281536 -0.000274904 -3.5423e-05
0.000915569 -0.000278473 -0.000273041 -3.52132e-05
0.00152187 -0.000458758 -0.000455617 -1.87019e-05
0.00153029 -0.000462013 -0.000457832 -1.69496e-05
0.000919056 -0.000279956 -0.0002739 -3.52647e-05
0.00121915 -0.000369074 -0.000364319 -2.73804e-05
0.00152612 -0.000460375 -0.000456746 -1.79394e-05
0.00122748 -0.000372485 -0.000366426 -2.64313e-05
0.00122321 -0.000370707 -0.000365359 -2.69687e-05
0.000915569 -0.000278473 -0.000273041 -3.52132e-05
0.000909248 -0.000275768 -0.000271491 -3.52178e-05
0.00151355 -0.000455809 -0.000453316 -1.9776e-05
0.00152187 -0.000458758 -0.000455617 -1.87019e-05
0.000912354 -0.000277071 -0.000272264 -3.52159e-05
0.00121158 -0.000366036 -0.000362378 -2.80965e-05
0.00151764 -0.000457244 -0.000454456 -1.92908e-05
0.00121915 -0.000369074 -0.000364319 -2.73804e-05
0.00121528 -0.00036751 -0.00036333 -2.77546e-05
0.000909248 -0.000275768 -0.000271491 -3.52178e-05
0.000903487 -0.000273497 -0.000269996 -3.52447e-05
0.00150545 -0.000453049 -0.000451031 -2.04601e-05
0.00151355 -0.000455809 -0.000453316 -1.9776e-05
0.000906282 -0.000274583 -0.000270728 -3.52238e-05
0.00120454 -0.000363422 -0.00036048 -2.85669e-05
0.00150951 -0.000454411 -0.000452185 -2.01706e-05
0.00121158 -0.000366036 -0.000362378 -2.80965e-05
0.00120802 -0.000364682 -0.00036143 -2.83676e-05
0.000903487 -0.000273497 -0.000269996 -3.52447e-05
0.000898182 -0.000271539 -0.000268561 -3.52908e-05
0.00149738 -0.000450436 -0.000448689 -2.0833e-05
0.00150545 -0.000453049 -0.000451031 -2.04601e-05
0.000900807 -0.000272486 -0.00026928 -3.52708e-05
0.00119779 -0.000361073 -0.000358592 -2.88551e-05
0.0015014 -0.000451727 -0.00044986 -2.06717e-05
0.00120454 -0.000363422 -0.00036048 -2.85669e-05
0.00120114 -0.000362222 -0.000359535 -2.87265e-05
0.000898182 -0.000271539 -0.000268561 -3.52908e-05
0.000893096 -0.000269796 -0.000267129 -3.53236e-05
0.00148934 -0.000447908 -0.000446329 -2.10428e-05
0.00149738 -0.000450436 -0.000448689 -2.0833e-05
0.000895612 -0.000270646 -0.000267842 -3.53075e-05
0.0011912 -0.000358909 -0.000356697 -2.90194e-05
0.00149336 -0.000449164 -0.000447513 -2.09558e-05
0.00119779 -0.000361073 -0.000358592 -2.88551e-05
0.00119448 -0.000359973 -0.000357646 -2.8951e-05
0.000893096 -0.000269796 -0.000267129 -3.53236e-05
0.000888154 -0.000268181 -0.000265703 -3.53495e-05
0.0014813 -0.000445431 -0.000443945 -2.11478e-05
0.00148934 -0.000447908 -0.000446329 -2.10428e-05
0.000890616 -0.000268977 -0.000266417 -3.53383e-05
0.0011847 -0.000356847 -0.000354795 -2.91103e-05
0.00148532 -0.000446665 -0.000445138 -2.11037e-05
0.0011912 -0.000358909 -0.000356697 -2.90194e-05
0.00118794 -0.000357869 -0.000355747 -2.90711e-05
0.000888154 -0.000268181 -0.000265703 -3.53495e-05
0.000883277 -0.000266641 -0.000264273 -3.53659e-05
0.00147327 -0.000442981 -0.000441553 -2.12015e-05
0.0014813 -0.000445431 -0.000443945 -2.11478e-05
0.000885709 -0.000267404 -0.000264988 -3.53584e-05
0.00117824 -0.000354845 -0.000352885 -2.91581e-05
0.00147729 -0.000444204 -0.000442751 -2.11797e-05
0.0011847 -0.000356847 -0.000354795 -2.91103e-05
0.00118147 -0.000355841 -0.000353841 -2.91385e-05
0.000883277 -0.000266641 -0.000264273 -3.53659e-05
0.000878438 -0.00026514 -0.000262842 -3.5377e-05
0.00146524 -0.000440546 -0.000439152 -2.12262e-05
0.00147327 -0.000442981 -0.000441553 -2.12015e-05
0.000880855 -0.000265887 -0.000263558 -3.53722e-05
0.0011718 -0.000352874 -0.00035097 -2.91827e-05
0.00146925 -0.000441762 -0.000440353 -2.12161e-05
0.00117824 -0.000354845 -0.000352885 -2.91581e-05
0.00117502 -0.000353857 -0.000351928 -2.91723e-05
0.000878438 -0.00026514 -0.000262842 -3.5377e-05
0.000873613 -0.00026366 -0.000261408 -3.53838e-05
0.0014572 -0.000438118 -0.000436749 -2.12376e-05
0.00146524 -0.000440546 -0.000439152 -2.12262e-05
0.000876024 -0.000264398 -0.000262125 -3.53808e-05
0.00116537 -0.000350919 -0.000349052 -2.91948e-05
0.00146122 -0.000439331 -0.000437951 -2.12331e-05
0.0011718 -0.000352874 -0.00035097 -2.91827e-05
0.00116859 -0.000351895 -0.000350012 -2.91899e-05
0.000873613 -0.00026366 -0.000261408 -3.53838e-05
0.000868797 -0.000262191 -0.000259974 -3.5388e-05
0.00144916 -0.000435693 -0.000434343 -2.12423e-05
0.0014572 -0.000438118 -0.000436749 -2.12376e-05
0.000871205 -0.000262925 -0.000260691 -3.53862e-05
0.00115895 -0.000348971 -0.000347133 -2.92007e-05
0.00145318 -0.000436905 -0.000435546 -2.12405e-05
0.00116537 -0.000350919 -0.000349052 -2.91948e-05
0.00116216 -0.000349944 -0.000348093 -2.91983e-05
0.000868797 -0.000262191 -0.000259974 -3.5388e-05
0.000863982 -0.000260726 -0.000258538 -3.53905e-05
0.00144112 -0.00043327 -0.000431936 -2.12441e-05
0.00144916 -0.000435693 -0.000434343 -2.12423e-05
0.000866389 -0.000261458 -0.000259256 -3.53894e-05
0.00115252 -0.000347027 -0.000345212 -2.92034e-05
0.00144514 -0.000434481 -0.000433139 -2.12435e-05
0.00115895 -0.000348971 -0.000347133 -2.92007e-05
0.00115573 -0.000347999 -0.000346172 -2.92024e-05
0.000863982 -0.000260726 -0.000258538 -3.53905e-05
0.000859169 -0.000259264 -0.000257102 -3.5392e-05
0.00143308 -0.000430847 -0.000429528 -2.12446e-05
0.00144112 -0.00043327 -0.000431936 -2.12441e-05
0.000861576 -0.000259995 -0.00025782 -3.53913e-05
0.00114609 -0.000345084 -0.00034329 -2.92047e-05
0.0014371 -0.000432058 -0.000430732 -2.12445e-05
0.00115252 -0.000347027 -0.000345212 -2.92034e-05
0.00114931 -0.000346055 -0.000344251 -2.92042e-05
0.000859169 -0.000259264 -0.000257102 -3.5392e-05
0.000854356 -0.000257802 -0.000255666 -3.53927e-05
0.00142504 -0.000428424 -0.00042712 -2.12447e-05
0.00143308 -0.000430847 -0.000429528 -2.12446e-05
0.000856762 -0.000258533 -0.000256384 -3.53924e-05
0.00113967 -0.000343141 -0.000341368 -2.92051e-05
0.00142906 -0.000429635 -0.000428324 -2.12447e-05
0.00114609 -0.000345084 -0.00034329 -2.92047e-05
0.00114288 -0.000344112 -0.000342329 -2.9205e-05
0.000854356 -0.000257802 -0.000255666 -3.53927e-05
0.000849542 -0.000256341 -0.000254229 -3.53931e-05
0.001417 -0.000426001 -0.000424712 -2.12445e-05
0.00142504 -0.000428424 -0.00042712 -2.12447e-05
0.000851949 -0.000257071 -0.000254948 -3.5393e-05
0.00113324 -0.000341199 -0.000339446 -2.92052e-05
0.00142102 -0.000427212 -0.000425916 -2.12446e-05
0.00113967 -0.000343141 -0.000341368 -2.92051e-05
0.00113645 -0.00034217 -0.000340407 -2.92052e-05
0.000849542 -0.000256341 -0.000254229 -3.53931e-05
0.000844728 -0.00025488 -0.000252792 -3.53932e-05
0.00140895 -0.000423578 -0.000422304 -2.12443e-05
0.001417 -0.000426001 -0.000424712 -2.12445e-05
0.000847135 -0.00025561 -0.000253511 -3.53932e-05
0.00112681 -0.000339257 -0.000337524 -2.92051e-05
0.00141297 -0.00042479 -0.000423508 -2.12444e-05
0.00113324 -0.000341199 -0.000339446 -2.92052e-05
0.00113003 -0.000340228 -0.000338485 -2.92052e-05
0.000844728 -0.00025488 -0.000252792 -3.53932e-05
0.000839914 -0.000253419 -0.000251355 -3.53931e-05
0.00140091 -0.000421156 -0.000419895 -2.12441e-05
0.00140895 -0.000423578 -0.000422304 -2.12443e-05
0.000842321 -0.000254149 -0.000252074 -3.53932e-05
0.00112039 -0.000337315 -0.000335602 -2.9205e-05
0.00140493 -0.000422367 -0.0004211 -2.12442e-05
0.00112681 -0.000339257 -0.000337524 -2.92051e-05
0.0011236 -0.000338286 -0.000336563 -2.92051e-05
0.000839914 -0.000253419 -0.000251355 -3.53931e-05
0.0008351 -0.000251958 -0.000249918 -3.5393e-05
0.00139287 -0.000418733 -0.000417487 -2.12438e-05
0.00140091 -0.000421156 -0.000419895 -2.12441e-05
0.000837507 -0.000252688 -0.000250637 -3.53931e-05
0.00111396 -0.000335373 -0.000333679 -2.92047e-05
0.00139689 -0.000419944 -0.000418691 -2.1244e-05
0.00112039 -0.000337315 -0.000335602 -2.9205e-05
0.00111717 -0.000336344 -0.00033464 -2.92049e-05
0.0008351 -0.000251958 -0.000249918 -3.5393e-05
0.000830286 -0.000250497 -0.000248481 -3.53928e-05
0.00138483 -0.00041631 -0.000415079 -2.12436e-05
0.00139287 -0.000418733 -0.000417487 -2.12438e-05
0.000832693 -0.000251228 -0.000249199 -3.53929e-05
0.00110753 -0.000333431 -0.000331757 -2.92045e-05
0.00138885 -0.000417522 -0.000416283 -2.12437e-05
0.00111396 -0.000335373 -0.000333679 -2.92047e-05
0.00111074 -0.000334402 -0.000332718 -2.92046e-05
0.000830286 -0.000250497 -0.000248481 -3.53928e-05
0.000825472 -0.000249037 -0.000247044 -3.53925e-05
0.00137679 -0.000413888 -0.00041267 -2.12434e-05
0.00138483 -0.00041631 -0.000415079 -2.12436e-05
0.000827879 -0.000249767 -0.000247762 -3.53927e-05
0.0011011 -0.000331489 -0.000329834 -2.92043e-05
0.00138081 -0.000415099 -0.000413875 -2.12435e-05
0.00110753 -0.000333431 -0.000331757 -2.92045e-05
0.00110432 -0.00033246 -0.000330795 -2.92044e-05
0.000825472 -0.000249037 -0.000247044 -3.53925e-05
0.000820657 -0.000247576 -0.000245606 -3.53923e-05
0.00136874 -0.000411465 -0.000410262 -2.12432e-05
0.00137679 -0.000413888 -0.00041267 -2.12434e-05
0.000823064 -0.000248306 -0.000246325 -3.53924e-05
0.00109467 -0.000329547 -0.000327911 -2.9204e-05
0.00137276 -0.000412676 -0.000411466 -2.12433e-05
0.0011011 -0.000331489 -0.000329834 -2.92043e-05
0.00109789 -0.000330518 -0.000328873 -2.92041e-05
0.000820657 -0.000247576 -0.000245606 -3.53923e-05
0.000815843 -0.000246116 -0.000244169 -3.5392e-05
0.0013607 -0.000409043 -0.000407853 -2.12429e-05
0.00136874 -0.000411465 -0.000410262 -2.12432e-05
0.00081825 -0.000246846 -0.000244887 -3.53922e-05
0.00108825 -0.000327605 -0.000325989 -2.92038e-05
0.00136472 -0.000410254 -0.000409058 -2.1243e-05
0.00109467 -0.000329547 -0.000327911 -2.9204e-05
0.00109146 -0.000328576 -0.00032695 -2.92039e-05
0.000815843 -0.000246116 -0.000244169 -3.5392e-05
0.000811028 -0.000244655 -0.000242731 -3.53918e-05
0.00135266 -0.00040662 -0.000405445 -2.12427e-05
0.0013607 -0.000409043 -0.000407853 -2.12429e-05
0.000813435 -0.000245385 -0.00024345 -3.53919e-05
0.00108182 -0.000325663 -0.000324066 -2.92035e-05
0.00135668 -0.000407831 -0.000406649 -2.12428e-05
0.00108825 -0.000327605 -0.000325989 -2.92038e-05
0.00108503 -0.000326634 -0.000325027 -2.92036e-05
0.000811028 -0.000244655 -0.000242731 -3.53918e-05
0.000806213 -0.000243195 -0.000241294 -3.53915e-05
0.00134462 -0.000404198 -0.000403036 -2.12425e-05
0.00135266 -0.00040662 -0.000405445 -2.12427e-05
0.00080862 -0.000243925 -0.000242012 -3.53917e-05
0.00107539 -0.000323722 -0.000322143 -2.92033e-05
0.00134864 -0.000405409 -0.000404241 -2.12426e-05
0.00108182 -0.000325663 -0.000324066 -2.92035e-05
0.0010786 -0.000324692 -0.000323105 -2.92034e-05
0.000806213 -0.000243195 -0.000241294 -3.53915e-05
0.000801398 -0.000241734 -0.000239856 -3.53913e-05
0.00133657 -0.000401775 -0.000400628 -2.12423e-05
0.00134462 -0.000404198 -0.000403036 -2.12425e-05
0.000803806 -0.000242464 -0.000240575 -3.53914e-05
0.00106896 -0.00032178 -0.00032022 -2.9203e-05
0.00134059 -0.000402986 -0.000401832 -2.12424e-05
0.00107539 -0.000323722 -0.000322143 -2.92033e-05
0.00107217 -0.000322751 -0.000321182 -2.92031e-05
0.000801398 -0.000241734 -0.000239856 -3.53913e-05
0.000796583 -0.000240274 -0.000238418 -3.5391e-05
0.00132853 -0.000399353 -0.000398219 -2.12421e-05
0.00133657 -0.000401775 -0.000400628 -2.12423e-05
0.000798991 -0.000241004 -0.000239137 -3.53912e-05
0.00106253 -0.000319838 -0.000318297 -2.92028e-05
0.00133255 -0.000400564 -0.000399423 -2.12422e-05
0.00106896 -0.00032178 -0.00032022 -2.9203e-05
0.00106575 -0.000320809 -0.000319259 -2.92029e-05
0.000796583 -0.000240274 -0.000238418 -3.5391e-05
0.000791768 -0.000238814 -0.00023698 -3.53908e-05
0.00132049 -0.000396931 -0.00039581 -2.12419e-05
0.00132853 -0.000399353 -0.000398219 -2.12421e-05
0.000794175 -0.000239544 -0.000237699 -3.53909e-05
0.0010561 -0.000317897 -0.000316374 -2.92025e-05
0.00132451 -0.000398142 -0.000397015 -2.1242e-05
0.00106253 -0.000319838 -0.000318297 -2.92028e-05
0.00105932 -0.000318867 -0.000317336 -2.92026e-05
0.000791768 -0.000238814 -0.00023698 -3.53908e-05
0.000786953 -0.000237354 -0.000235543 -3.53905e-05
0.00131244 -0.000394508 -0.000393401 -2.12417e-05
0.00132049 -0.000396931 -0.00039581 -2.12419e-05
0.00078936 -0.000238084 -0.000236261 -3.53907e-05
0.00104967 -0.000315955 -0.000314451 -2.92023e-05
0.00131647 -0.000395719 -0.000394606 -2.12418e-05
0.0010561 -0.000317897 -0.000316374 -2.92025e-05
0.00105289 -0.000316926 -0.000315413 -2.92024e-05
0.000786953 -0.000237354 -0.000235543 -3.53905e-05
0.000782137 -0.000235893 -0.000234105 -3.53903e-05
0.0013044 -0.000392086 -0.000390993 -2.12415e-05
0.00131244 -0.000394508 -0.000393401 -2.12417e-05
0.000784545 -0.000236623 -0.000234824 -3.53904e-05
0.00104325 -0.000314014 -0.000312528 -2.9202e-05
0.00130842 -0.000393297 -0.000392197 -2.12416e-05
0.00104967 -0.000315955 -0.000314451 -2.92023e-05
0.00104646 -0.000314984 -0.00031349 -2.92022e-05
0.000782137 -0.000235893 -0.000234105 -3.53903e-05
0.000777322 -0.000234433 -0.000232667 -3.539e-05
0.00129636 -0.000389664 -0.000388584 -2.12413e-05
0.0013044 -0.000392086 -0.000390993 -2.12415e-05
0.00077973 -0.000235163 -0.000233386 -3.53902e-05
0.00103682 -0.000312072 -0.000310605 -2.92018e-05
0.00130038 -0.000390875 -0.000389788 -2.12414e-05
0.00104325 -0.000314014 -0.000312528 -2.9202e-05
0.00104003 -0.000313043 -0.000311567 -2.92019e-05
0.000777322 -0.000234433 -0.000232667 -3.539e-05
0.000772506 -0.000232973 -0.000231228 -3.53898e-05
0.00128832 -0.000387242 -0.000386175 -2.12411e-05
0.00129636 -0.000389664 -0.000388584 -2.12413e-05
0.000774914 -0.000233703 -0.000231948 -3.53899e-05
0.00103039 -0.000310131 -0.000308682 -2.92016e-05
0.00129234 -0.000388453 -0.000387379 -2.12412e-05
0.00103682 -0.000312072 -0.000310605 -2.92018e-05
0.0010336 -0.000311102 -0.000309643 -2.92017e-05
0.000772506 -0.000232973 -0.000231228 -3.53898e-05
0.000767691 -0.000231513 -0.00022979 -3.53895e-05
0.00128027 -0.000384819 -0.000383766 -2.12409e-05
0.00128832 -0.000387242 -0.000386175 -2.12411e-05
0.000770099 -0.000232243 -0.000230509 -3.53896e-05
0.00102396 -0.00030819 -0.000306758 -2.92013e-05
0.0012843 -0.00038603 -0.000384971 -2.1241e-05
0.00103039 -0.000310131 -0.000308682 -2.92016e-05
0.00102717 -0.00030916 -0.00030772 -2.92014e-05
0.000767691 -0.000231513 -0.00022979 -3.53895e-05
0.000762875 -0.000230054 -0.000228352 -3.53893e-05
0.00127223 -0.000382397 -0.000381357 -2.12407e-05
0.00128027 -0.000384819 -0.000383766 -2.12409e-05
0.000765283 -0.000230783 -0.000229071 -3.53894e-05
0.00101753 -0.000306248 -0.000304835 -2.92011e-05
0.00127625 -0.000383608 -0.000382562 -2.12408e-05
0.00102396 -0.00030819 -0.000306758 -2.92013e-05
0.00102074 -0.000307219 -0.000305797 -2.92012e-05
0.000762875 -0.000230054 -0.000228352 -3.53893e-05
0.000758059 -0.000228594 -0.000226914 -3.5389e-05
0.00126419 -0.000379975 -0.000378948 -2.12405e-05
0.00127223 -0.000382397 -0.000381357 -2.12407e-05
0.000760467 -0.000229324 -0.000227633 -3.53891e-05
0.0010111 -0.000304307 -0.000302912 -2.92008e-05
0.00126821 -0.000381186 -0.000380153 -2.12406e-05
0.00101753 -0.000306248 -0.000304835 -2.92011e-05
0.00101432 -0.000305278 -0.000303873 -2.9201e-05
0.000758059 -0.000228594 -0.000226914 -3.5389e-05
0.000753243 -0.000227134 -0.000225475 -3.53887e-05
0.00125614 -0.000377553 -0.000376539 -2.12403e-05
0.00126419 -0.000379975 -0.000378948 -2.12405e-05
0.000755651 -0.000227864 -0.000226195 -3.53889e-05
0.00100467 -0.000302366 -0.000300988 -2.92006e-05
0.00126017 -0.000378764 -0.000377744 -2.12404e-05
0.0010111 -0.000304307 -0.000302912 -2.92008e-05
0.00100789 -0.000303336 -0.00030195 -2.92007e-05
0.000753243 -0.000227134 -0.000225475 -3.53887e-05
0.000748427 -0.000225674 -0.000224037 -3.53885e-05
0.0012481 -0.000375131 -0.00037413 -2.12401e-05
0.00125614 -0.000377553 -0.000376539 -2.12403e-05
0.000750835 -0.000226404 -0.000224756 -3.53886e-05
0.000998243 -0.000300425 -0.000299065 -2.92003e-05
0.00125212 -0.000376342 -0.000375335 -2.12402e-05
0.00100467 -0.000302366 -0.000300988 -2.92006e-05
0.00100146 -0.000301395 -0.000300027 -2.92005e-05
0.000748427 -0.000225674 -0.000224037 -3.53885e-05
0.000743611 -0.000224215 -0.000222599 -3.53882e-05
0.00124006 -0.000372709 -0.000371721 -2.12399e-05
0.0012481 -0.000375131 -0.00037413 -2.12401e-05
0.000746019 -0.000224945 -0.000223318 -3.53883e-05
0.000991813 -0.000298484 -0.000297141 -2.92001e-05
0.00124408 -0.00037392 -0.000372926 -2.124e-05
0.000998243 -0.000300425 -0.000299065 -2.92003e-05
0.000995028 -0.000299454 -0.000298103 -2.92002e-05
0.000743611 -0.000224215 -0.000222599 -3.53882e-05
0.000738795 -0.000222755 -0.00022116 -3.53879e-05
0.00123202 -0.000370287 -0.000369312 -2.12397e-05
0.00124006 -0.000372709 -0.000371721 -2.12399e-05
0.000741203 -0.000223485 -0.000221879 -3.53881e-05
0.000985384 -0.000296543 -0.000295218 -2.91998e-05
0.00123604 -0.000371498 -0.000370516 -2.12398e-05
0.000991813 -0.000298484 -0.000297141 -2.92001e-05
0.000988599 -0.000297513 -0.000296179 -2.92e-05
0.000738795 -0.000222755 -0.00022116 -3.53879e-05
0.000733979 -0.000221296 -0.000219721 -3.53877e-05
0.00122397 -0.000367866 -0.000366903 -2.12395e-05
0.00123202 -0.000370287 -0.000369312 -2.12397e-05
0.000736387 -0.000222026 -0.000220441 -3.53878e-05
0.000978954 -0.000294602 -0.000293294 -2.91996e-05
0.00122799 -0.000369076 -0.000368107 -2.12396e-05
0.000985384 -0.000296543 -0.000295218 -2.91998e-05
0.000982169 -0.000295572 -0.000294256 -2.91997e-05
0.000733979 -0.000221296 -0.000219721 -3.53877e-05
0.000729163 -0.000219836 -0.000218283 -3.53874e-05
0.00121593 -0.000365444 -0.000364493 -2.12393e-05
0.00122397 -0.000367866 -0.000366903 -2.12395e-05
0.000731571 -0.000220566 -0.000219002 -3.53875e-05
0.000972525 -0.000292661 -0.00029137 -2.91993e-05
0.00121995 -0.000366655 -0.000365698 -2.12394e-05
0.000978954 -0.000294602 -0.000293294 -2.91996e-05
0.00097574 -0.000293631 -0.000292332 -2.91995e-05
0.000729163 -0.000219836 -0.000218283 -3.53874e-05
0.000724346 -0.000218377 -0.000216844 -3.53871e-05
0.00120789 -0.000363022 -0.000362084 -2.12391e-05
0.00121593 -0.000365444 -0.000364493 -2.12393e-05
0.000726754 -0.000219107 -0.000217563 -3.53873e-05
0.000966095 -0.00029072 -0.000289446 -2.91991e-05
0.00121191 -0.000364233 -0.000363289 -2.12392e-05
0.000972525 -0.000292661 -0.00029137 -2.91993e-05
0.00096931 -0.00029169 -0.000290408 -2.91992e-05
0.000724346 -0.000218377 -0.000216844 -3.53871e-05
0.00071953 -0.000216918 -0.000215405 -3.53869e-05
0.00119984 -0.0003606 -0.000359675 -2.12389e-05
0.00120789 -0.000363022 -0.000362084 -2.12391e-05
0.000721938 -0.000217647 -0.000216124 -3.5387e-05
0.000959665 -0.000288779 -0.000287523 -2.91988e-05
0.00120386 -0.000361811 -0.00036088 -2.1239e-05
0.000966095 -0.00029072 -0.000289446 -2.91991e-05
0.00096288 -0.00028975 -0.000288485 -2.91989e-05
0.00071953 -0.000216918 -0.000215405 -3.53869e-05
0.000714713 -0.000215459 -0.000213966 -3.53866e-05
0.0011918 -0.000358179 -0.000357266 -2.12387e-05
0.00119984 -0.0003606 -0.000359675 -2.12389e-05
0.000717121 -0.000216188 -0.000214686 -3.53867e-05
0.000953236 -0.000286839 -0.000285599 -2.91986e-05
0.00119582 -0.000359389 -0.00035847 -2.12388e-05
0.000959665 -0.000288779 -0.000287523 -2.91988e-05
0.000956451 -0.000287809 -0.000286561 -2.91987e-05
0.000714713 -0.000215459 -0.000213966 -3.53866e-05
0.000709896 -0.000213999 -0.000212527 -3.53863e-05
0.00118375 -0.000355757 -0.000354856 -2.12385e-05
0.0011918 -0.000358179 -0.000357266 -2.12387e-05
0.000712305 -0.000214729 -0.000213247 -3.53864e-05
0.000946806 -0.000284898 -0.000283675 -2.91983e-05
0.00118778 -0.000356968 -0.000356061 -2.12386e-05
0.000953236 -0.000286839 -0.000285599 -2.91986e-05
0.000950021 -0.000285868 -0.000284637 -2.91984e-05
0.000709896 -0.000213999 -0.000212527 -3.53863e-05
0.000705079 -0.00021254 -0.000211088 -3.5386e-05
0.00117571 -0.000353335 -0.000352447 -2.12382e-05
0.00118375 -0.000355757 -0.000354856 -2.12385e-05
0.000707488 -0.00021327 -0.000211808 -3.53862e-05
0.000940376 -0.000282957 -0.000281751 -2.9198e-05
0.00117973 -0.000354546 -0.000353651 -2.12383e-05
0.000946806 -0.000284898 -0.000283675 -2.91983e-05
0.000943591 -0.000283928 -0.000282713 -2.91982e-05
0.000705079 -0.00021254 -0.000211088 -3.5386e-05
0.000700263 -0.000211081 -0.000209649 -3.53857e-05
0.00116767 -0.000350914 -0.000350037 -2.1238e-05
0.00117571 -0.000353335 -0.000352447 -2.12382e-05
0.000702671 -0.000211811 -0.000210369 -3.53859e-05
0.000933946 -0.000281017 -0.000279827 -2.91978e-05
0.00117169 -0.000352124 -0.000351242 -2.12381e-05
0.000940376 -0.000282957 -0.000281751 -2.9198e-05
0.000937161 -0.000281987 -0.000280789 -2.91979e-05
0.000700263 -0.000211081 -0.000209649 -3.53857e-05
0.000695446 -0.000209622 -0.00020821 -3.53855e-05
0.00115962 -0.000348492 -0.000347628 -2.12378e-05
0.00116767 -0.000350914 -0.000350037 -2.1238e-05
0.000697854 -0.000210352 -0.00020893 -3.53856e-05
0.000927516 -0.000279076 -0.000277903 -2.91975e-05
0.00116365 -0.000349703 -0.000348833 -2.12379e-05
0.000933946 -0.000281017 -0.000279827 -2.91978e-05
0.000930731 -0.000280046 -0.000278865 -2.91976e-05
0.000695446 -0.000209622 -0.00020821 -3.53855e-05
0.000690628 -0.000208164 -0.000206771 -3.53852e-05
0.00115158 -0.000346071 -0.000345218 -2.12376e-05
0.00115962 -0.000348492 -0.000347628 -2.12378e-05
0.000693037 -0.000208893 -0.00020749 -3.53853e-05
0.000921086 -0.000277136 -0.000275979 -2.91972e-05
0.0011556 -0.000347281 -0.000346423 -2.12377e-05
0.000927516 -0.000279076 -0.000277903 -2.91975e-05
0.000924301 -0.000278106 -0.000276941 -2.91974e-05
0.000690628 -0.000208164 -0.000206771 -3.53852e-05
0.000685811 -0.000206705 -0.000205331 -3.53849e-05
0.00114354 -0.000343649 -0.000342809 -2.12374e-05
0.00115158 -0.000346071 -0.000345218 -2.12376e-05
0.00068822 -0.000207434 -0.000206051 -3.5385e-05
0.000914655 -0.000275195 -0.000274054 -2.9197e-05
0.00114756 -0.00034486 -0.000344014 -2.12375e-05
0.000921086 -0.000277136 -0.000275979 -2.91972e-05
0.000917871 -0.000276166 -0.000275016 -2.91971e-05
0.000685811 -0.000206705 -0.000205331 -3.53849e-05
0.000680994 -0.000205246 -0.000203892 -3.53846e-05
0.00113549 -0.000341228 -0.000340399 -2.12372e-05
0.00114354 -0.000343649 -0.000342809 -2.12374e-05
0.000683403 -0.000205975 -0.000204612 -3.53847e-05
0.000908225 -0.000273255 -0.00027213 -2.91967e-05
0.00113951 -0.000342439 -0.000341604 -2.12373e-05
0.000914655 -0.000275195 -0.000274054 -2.9197e-05
0.00091144 -0.000274225 -0.000273092 -2.91968e-05
0.000680994 -0.000205246 -0.000203892 -3.53846e-05
0.000676177 -0.000203787 -0.000202453 -3.53843e-05
0.00112745 -0.000338806 -0.00033799 -2.12369e-05
0.00113549 -0.000341228 -0.000340399 -2.12372e-05
0.000678585 -0.000204517 -0.000203172 -3.53844e-05
0.000901795 -0.000271315 -0.000270206 -2.91964e-05
0.00113147 -0.000340017 -0.000339194 -2.12371e-05
0.000908225 -0.000273255 -0.00027213 -2.91967e-05
0.00090501 -0.000272285 -0.000271168 -2.91966e-05
0.000676177 -0.000203787 -0.000202453 -3.53843e-05
0.000671359 -0.000202329 -0.000201013 -3.5384e-05
0.0011194 -0.000336385 -0.00033558 -2.12367e-05
0.00112745 -0.000338806 -0.00033799 -2.12369e-05
0.000673768 -0.000203058 -0.000201733 -3.53842e-05
0.000895364 -0.000269375 -0.000268281 -2.91962e-05
0.00112343 -0.000337596 -0.000336785 -2.12368e-05
0.000901795 -0.000271315 -0.000270206 -2.91964e-05
0.00089858 -0.000270345 -0.000269244 -2.91963e-05
0.000671359 -0.000202329 -0.000201013 -3.5384e-05
0.000666542 -0.00020087 -0.000199573 -3.53837e-05
0.00111136 -0.000333964 -0.00033317 -2.12365e-05
0.0011194 -0.000336385 -0.00033558 -2.12367e-05
0.00066895 -0.000201599 -0.000200293 -3.53839e-05
0.000888934 -0.000267434 -0.000266357 -2.91959e-05
0.00111538 -0.000335174 -0.000334375 -2.12366e-05
0.000895364 -0.000269375 -0.000268281 -2.91962e-05
0.000892149 -0.000268404 -0.000267319 -2.9196e-05
0.000666542 -0.00020087 -0.000199573 -3.53837e-05
0.000661724 -0.000199412 -0.000198134 -3.53834e-05
0.00110332 -0.000331543 -0.00033076 -2.12363e-05
0.00111136 -0.000333964 -0.00033317 -2.12365e-05
0.000664133 -0.000200141 -0.000198854 -3.53836e-05
0.000882503 -0.000265494 -0.000264432 -2.91956e-05
0.00110734 -0.000332753 -0.000331965 -2.12364e-05
0.000888934 -0.000267434 -0.000266357 -2.91959e-05
0.000885719 -0.000266464 -0.000265395 -2.91957e-05
0.000661724 -0.000199412 -0.000198134 -3.53834e-05
0.000656906 -0.000197953 -0.000196694 -3.53831e-05
0.00109527 -0.000329121 -0.000328351 -2.12361e-05
0.00110332 -0.000331543 -0.00033076 -2.12363e-05
0.000659315 -0.000198683 -0.000197414 -3.53833e-05
0.000876073 -0.000263554 -0.000262508 -2.91953e-05
0.00109929 -0.000330332 -0.000329556 -2.12362e-05
0.000882503 -0.000265494 -0.000264432 -2.91956e-05
0.000879288 -0.000264524 -0.00026347 -2.91955e-05
0.000656906 -0.000197953 -0.000196694 -3.53831e-05
0.000652089 -0.000196495 -0.000195254 -3.53828e-05
0.00108723 -0.0003267 -0.000325941 -2.12358e-05
0.00109527 -0.000329121 -0.000328351 -2.12361e-05
0.000654497 -0.000197224 -0.000195974 -3.5383e-05
0.000869642 -0.000261614 -0.000260583 -2.91951e-05
0.00109125 -0.000327911 -0.000327146 -2.12359e-05
0.000876073 -0.000263554 -0.000262508 -2.91953e-05
0.000872857 -0.000262584 -0.000261546 -2.91952e-05
0.000652089 -0.000196495 -0.000195254 -3.53828e-05
0.000647271 -0.000195037 -0.000193815 -3.53825e-05
0.00107918 -0.000324279 -0.000323531 -2.12356e-05
0.00108723 -0.0003267 -0.000325941 -2.12358e-05
0.00064968 -0.000195766 -0.000194534 -3.53827e-05
0.000863211 -0.000259674 -0.000258659 -2.91948e-05
0.00108321 -0.00032549 -0.000324736 -2.12357e-05
0.000869642 -0.000261614 -0.000260583 -2.91951e-05
0.000866427 -0.000260644 -0.000259621 -2.91949e-05
0.000647271 -0.000195037 -0.000193815 -3.53825e-05
0.000642453 -0.000193579 -0.000192375 -3.53822e-05
0.00107114 -0.000321858 -0.000321121 -2.12354e-05
0.00107918 -0.000324279 -0.000323531 -2.12356e-05
0.000644862 -0.000194308 -0.000193095 -3.53824e-05
0.000856781 -0.000257734 -0.000256734 -2.91945e-05
0.00107516 -0.000323069 -0.000322326 -2.12355e-05
0.000863211 -0.000259674 -0.000258659 -2.91948e-05
0.000859996 -0.000258704 -0.000257696 -2.91947e-05
0.000642453 -0.000193579 -0.000192375 -3.53822e-05
0.000637635 -0.00019212 -0.000190935 -3.53819e-05
0.0010631 -0.000319437 -0.000318711 -2.12352e-05
0.00107114 -0.000321858 -0.000321121 -2.12354e-05
0.000640044 -0.000192849 -0.000191655 -3.53821e-05
0.00085035 -0.000255795 -0.000254809 -2.91942e-05
0.00106712 -0.000320648 -0.000319916 -2.12353e-05
0.000856781 -0.000257734 -0.000256734 -2.91945e-05
0.000853565 -0.000256765 -0.000255772 -2.91944e-05
0.000637635 -0.00019212 -0.000190935 -3.53819e-05
0.000632816 -0.000190662 -0.000189495 -3.53817e-05
0.00105505 -0.000317016 -0.000316301 -2.12349e-05
0.0010631 -0.000319437 -0.000318711 -2.12352e-05
0.000635225 -0.000191391 -0.000190215 -3.53818e-05
0.000843919 -0.000253855 -0.000252884 -2.9194e-05
0.00105907 -0.000318227 -0.000317506 -2.12351e-05
0.00085035 -0.000255795 -0.000254809 -2.91942e-05
0.000847134 -0.000254825 -0.000253847 -2.91941e-05
0.000632816 -0.000190662 -0.000189495 -3.53817e-05
0.000627998 -0.000189204 -0.000188054 -3.53814e-05
0.00104701 -0.000314595 -0.000313891 -2.12347e-05
0.00105505 -0.000317016 -0.000316301 -2.12349e-05
0.000630407 -0.000189933 -0.000188775 -3.53815e-05
0.000837488 -0.000251915 -0.00025096 -2.91937e-05
0.00105103 -0.000315806 -0.000315096 -2.12348e-05
0.000843919 -0.000253855 -0.000252884 -2.9194e-05
0.000840703 -0.000252885 -0.000251922 -2.91938e-05
0.000627998 -0.000189204 -0.000188054 -3.53814e-05
0.00062318 -0.000187746 -0.000186614 -3.53811e-05
0.00103896 -0.000312174 -0.000311481 -2.12345e-05
0.00104701 -0.000314595 -0.000313891 -2.12347e-05
0.000625589 -0.000188475 -0.000187334 -3.53812e-05
0.000831057 -0.000249976 -0.000249035 -2.91934e-05
0.00104299 -0.000313385 -0.000312686 -2.12346e-05
0.000837488 -0.000251915 -0.00025096 -2.91937e-05
0.000834272 -0.000250945 -0.000249997 -2.91935e-05
0.00062318 -0.000187746 -0.000186614 -3.53811e-05
0.000618361 -0.000186289 -0.000185174 -3.53808e-05
0.00103092 -0.000309754 -0.000309071 -2.12343e-05
0.00103896 -0.000312174 -0.000311481 -2.12345e-05
0.000620771 -0.000187018 -0.000185894 -3.53809e-05
0.000824625 -0.000248036 -0.00024711 -2.91931e-05
0.00103494 -0.000310964 -0.000310276 -2.12344e-05
0.000831057 -0.000249976 -0.000249035 -2.91934e-05
0.000827841 -0.000249006 -0.000248072 -2.91933e-05
0.000618361 -0.000186289 -0.000185174 -3.53808e-05
0.000613543 -0.000184831 -0.000183734 -3.53804e-05
0.00102287 -0.000307333 -0.000306661 -2.1234e-05
0.00103092 -0.000309754 -0.000309071 -2.12343e-05
0.000615952 -0.00018556 -0.000184454 -3.53806e-05
0.000818194 -0.000246096 -0.000245185 -2.91928e-05
0.0010269 -0.000308543 -0.000307866 -2.12342e-05
0.000824625 -0.000248036 -0.00024711 -2.91931e-05
0.00082141 -0.000247066 -0.000246147 -2.9193e-05
0.000613543 -0.000184831 -0.000183734 -3.53804e-05
0.000608724 -0.000183373 -0.000182293 -3.53801e-05
0.00101483 -0.000304912 -0.000304251 -2.12338e-05
0.00102287 -0.000307333 -0.000306661 -2.1234e-05
0.000611134 -0.000184102 -0.000183014 -3.53803e-05
0.000811763 -0.000244157 -0.00024326 -2.91926e-05
0.00101885 -0.000306122 -0.000305456 -2.12339e-05
0.000818194 -0.000246096 -0.000245185 -2.91928e-05
0.000814979 -0.000245127 -0.000244222 -2.91927e-05
0.000608724 -0.000183373 -0.000182293 -3.53801e-05
0.000603906 -0.000181915 -0.000180853 -3.53798e-05
0.00100679 -0.000302491 -0.000301841 -2.12336e-05
0.00101483 -0.000304912 -0.000304251 -2.12338e-05
0.000606315 -0.000182644 -0.000181573 -3.538e-05
0.000805331 -0.000242218 -0.000241335 -2.91923e-05
0.00101081 -0.000303702 -0.000303046 -2.12337e-05
0.000811763 -0.000244157 -0.00024326 -2.91926e-05
0.000808547 -0.000243187 -0.000242297 -2.91924e-05
0.000603906 -0.000181915 -0.000180853 -3.53798e-05
0.000599087 -0.000180458 -0.000179412 -3.53795e-05
0.000998741 -0.000300071 -0.00029943 -2.12334e-05
0.00100679 -0.000302491 -0.000301841 -2.12336e-05
0.000601496 -0.000181187 -0.000180133 -3.53797e-05
0.0007989 -0.000240278 -0.000239409 -2.9192e-05
0.00100276 -0.000301281 -0.000300635 -2.12335e-05
0.000805331 -0.000242218 -0.000241335 -2.91923e-05
0.000802116 -0.000241248 -0.000240372 -2.91921e-05
0.000599087 -0.000180458 -0.000179412 -3.53795e-05
0.000594268 -0.000179 -0.000177972 -3.53792e-05
0.000990697 -0.00029765 -0.00029702 -2.12331e-05
0.000998741 -0.000300071 -0.00029943 -2.12334e-05
0.000596677 -0.000179729 -0.000178692 -3.53794e-05
0.000792469 -0.000238339 -0.000237484 -2.91917e-05
0.000994719 -0.00029886 -0.000298225 -2.12332e-05
0.0007989 -0.000240278 -0.000239409 -2.9192e-05
0.000795684 -0.000239309 -0.000238447 -2.91919e-05
0.000594268 -0.000179 -0.000177972 -3.53792e-05
0.000589449 -0.000177543 -0.000176531 -3.53789e-05
0.000982652 -0.000295229 -0.00029461 -2.12329e-05
0.000990697 -0.00029765 -0.00029702 -2.12331e-05
0.000591858 -0.000178272 -0.000177251 -3.53791e-05
0.000786037 -0.0002364 -0.000235559 -2.91914e-05
0.000986674 -0.00029644 -0.000295815 -2.1233e-05
0.000792469 -0.000238339 -0.000237484 -2.91917e-05
0.000789253 -0.000237369 -0.000236521 -2.91916e-05
0.000589449 -0.000177543 -0.000176531 -3.53789e-05
0.00058463 -0.000176085 -0.00017509 -3.53786e-05
0.000974607 -0.000292809 -0.000292199 -2.12327e-05
0.000982652 -0.000295229 -0.00029461 -2.12329e-05
0.000587039 -0.000176814 -0.000175811 -3.53788e-05
0.000779605 -0.000234461 -0.000233633 -2.91912e-05
0.00097863 -0.000294019 -0.000293405 -2.12328e-05
0.000786037 -0.0002364 -0.000235559 -2.91914e-05
0.000782821 -0.00023543 -0.000234596 -2.91913e-05
0.00058463 -0.000176085 -0.00017509 -3.53786e-05
0.000579811 -0.000174628 -0.00017365 -3.53783e-05
0.000966563 -0.000290388 -0.000289789 -2.12324e-05
0.000974607 -0.000292809 -0.000292199 -2.12327e-05
0.00058222 -0.000175357 -0.00017437 -3.53785e-05
0.000773174 -0.000232521 -0.000231708 -2.91909e-05
0.000970585 -0.000291599 -0.000290994 -2.12326e-05
0.000779605 -0.000234461 -0.000233633 -2.91912e-05
0.000776389 -0.000233491 -0.000232671 -2.9191e-05
0.000579811 -0.000174628 -0.00017365 -3.53783e-05
0.000574991 -0.000173171 -0.000172209 -3.5378e-05
0.000958518 -0.000287968 -0.000287379 -2.12322e-05
0.000966563 -0.000290388 -0.000289789 -2.12324e-05
0.000577401 -0.000173899 -0.000172929 -3.53782e-05
0.000766742 -0.000230582 -0.000229783 -2.91906e-05
0.00096254 -0.000289178 -0.000288584 -2.12323e-05
0.000773174 -0.000232521 -0.000231708 -2.91909e-05
0.000769958 -0.000231552 -0.000230745 -2.91907e-05
0.000574991 -0.000173171 -0.000172209 -3.5378e-05
0.000570172 -0.000171714 -0.000170768 -3.53777e-05
0.000950473 -0.000285548 -0.000284968 -2.1232e-05
0.000958518 -0.000287968 -0.000287379 -2.12322e-05
0.000572582 -0.000172442 -0.000171488 -3.53779e-05
0.00076031 -0.000228643 -0.000227857 -2.91903e-05
0.000954496 -0.000286758 -0.000286173 -2.12321e-05
0.000766742 -0.000230582 -0.000229783 -2.91906e-05
0.000763526 -0.000229613 -0.00022882 -2.91904e-05
0.000570172 -0.000171714 -0.000170768 -3.53777e-05
0.000565353 -0.000170257 -0.000169327 -3.53774e-05
0.000942428 -0.000283127 -0.000282558 -2.12318e-05
0.000950473 -0.000285548 -0.000284968 -2.1232e-05
0.000567762 -0.000170985 -0.000170047 -3.53776e-05
0.000753878 -0.000226704 -0.000225932 -2.919e-05
0.000946451 -0.000284337 -0.000283763 -2.12319e-05
0.00076031 -0.000228643 -0.000227857 -2.91903e-05
0.000757094 -0.000227674 -0.000226894 -2.91902e-05
0.000565353 -0.000170257 -0.000169327 -3.53774e-05
0.000560533 -0.0001688 -0.000167886 -3.53771e-05
0.000934384 -0.000280707 -0.000280147 -2.12315e-05
0.000942428 -0.000283127 -0.000282558 -2.12318e-05
0.000562943 -0.000169528 -0.000168606 -3.53773e-05
0.000747446 -0.000224765 -0.000224006 -2.91897e-05
0.000938406 -0.000281917 -0.000281352 -2.12316e-05
0.000753878 -0.000226704 -0.000225932 -2.919e-05
0.000750662 -0.000225735 -0.000224969 -2.91899e-05
0.000560533 -0.0001688 -0.000167886 -3.53771e-05
0.000555714 -0.000167343 -0.000166445 -3.53768e-05
0.000926339 -0.000278287 -0.000277737 -2.12313e-05
0.000934384 -0.000280707 -0.000280147 -2.12315e-05
0.000558123 -0.000168071 -0.000167165 -3.53769e-05
0.000741014 -0.000222827 -0.00022208 -2.91895e-05
0.000930361 -0.000279497 -0.000278942 -2.12314e-05
0.000747446 -0.000224765 -0.000224006 -2.91897e-05
0.00074423 -0.000223796 -0.000223043 -2.91896e-05
0.000555714 -0.000167343 -0.000166445 -3.53768e-05
0.000550894 -0.000165886 -0.000165004 -3.53765e-05
0.000918294 -0.000275866 -0.000275326 -2.12311e-05
0.000926339 -0.000278287 -0.000277737 -2.12313e-05
0.000553304 -0.000166614 -0.000165724 -3.53766e-05
0.000734582 -0.000220888 -0.000220155 -2.91892e-05
0.000922316 -0.000277076 -0.000276531 -2.12312e-05
0.000741014 -0.000222827 -0.00022208 -2.91895e-05
0.000737798 -0.000221857 -0.000221117 -2.91893e-05
0.000550894 -0.000165886 -0.000165004 -3.53765e-05
0.000546074 -0.000164429 -0.000163562 -3.53762e-05
0.000910249 -0.000273446 -0.000272915 -2.12308e-05
0.000918294 -0.000275866 -0.000275326 -2.12311e-05
0.000548484 -0.000165157 -0.000164283 -3.53763e-05
0.00072815 -0.000218949 -0.000218229 -2.91889e-05
0.000914271 -0.000274656 -0.000274121 -2.1231e-05
0.000734582 -0.000220888 -0.000220155 -2.91892e-05
0.000731366 -0.000219918 -0.000219192 -2.9189e-05
0.000546074 -0.000164429 -0.000163562 -3.53762e-05
0.000541254 -0.000162972 -0.000162121 -3.53759e-05
0.000902204 -0.000271026 -0.000270505 -2.12306e-05
0.000910249 -0.000273446 -0.000272915 -2.12308e-05
0.000543664 -0.0001637 -0.000162842 -3.5376e-05
0.000721718 -0.00021701 -0.000216303 -2.91886e-05
0.000906226 -0.000272236 -0.00027171 -2.12307e-05
0.00072815 -0.000218949 -0.000218229 -2.91889e-05
0.000724934 -0.00021798 -0.000217266 -2.91887e-05
0.000541254 -0.000162972 -0.000162121 -3.53759e-05
0.000536434 -0.000161515 -0.00016068 -3.53756e-05
0.000894159 -0.000268606 -0.000268094 -2.12304e-05
0.000902204 -0.000271026 -0.000270505 -2.12306e-05
0.000538844 -0.000162244 -0.0001614 -3.53757e-05
0.000715285 -0.000215072 -0.000214377 -2.91883e-05
0.000898181 -0.000269816 -0.000269299 -2.12305e-05
0.000721718 -0.00021701 -0.000216303 -2.91886e-05
0.000718501 -0.000216041 -0.00021534 -2.91885e-05
0.000536434 -0.000161515 -0.00016068 -3.53756e-05
0.000531614 -0.000160059 -0.000159238 -3.53753e-05
0.000886113 -0.000266186 -0.000265683 -2.12302e-05
0.000894159 -0.000268606 -0.000268094 -2.12304e-05
0.000534024 -0.000160787 -0.000159959 -3.53754e-05
0.000708853 -0.000213133 -0.000212451 -2.9188e-05
0.000890136 -0.000267396 -0.000266889 -2.12303e-05
0.000715285 -0.000215072 -0.000214377 -2.91883e-05
0.000712069 -0.000214103 -0.000213414 -2.91882e-05
0.000531614 -0.000160059 -0.000159238 -3.53753e-05
0.000526794 -0.000158602 -0.000157797 -3.5375e-05
0.000878068 -0.000263766 -0.000263272 -2.12299e-05
0.000886113 -0.000266186 -0.000265683 -2.12302e-05
0.000529204 -0.00015933 -0.000158517 -3.53751e-05
0.00070242 -0.000211195 -0.000210525 -2.91878e-05
0.000882091 -0.000264976 -0.000264478 -2.123e-05
0.000708853 -0.000213133 -0.000212451 -2.9188e-05
0.000705637 -0.000212164 -0.000211488 -2.91879e-05
0.000526794 -0.000158602 -0.000157797 -3.5375e-05
0.000521974 -0.000157146 -0.000156355 -3.53747e-05
0.000870023 -0.000261346 -0.000260862 -2.12297e-05
0.000878068 -0.000263766 -0.000263272 -2.12299e-05
0.000524384 -0.000157874 -0.000157076 -3.53748e-05
0.000695988 -0.000209256 -0.000208599 -2.91875e-05
0.000874046 -0.000262556 -0.000262067 -2.12298e-05
0.00070242 -0.000211195 -0.000210525 -2.91878e-05
0.000699204 -0.000210226 -0.000209562 -2.91876e-05
0.000521974 -0.000157146 -0.000156355 -3.53747e-05
0.000517154 -0.000155689 -0.000154913 -3.53744e-05
0.000861978 -0.000258926 -0.000258451 -2.12295e-05
0.000870023 -0.000261346 -0.000260862 -2.12297e-05
0.000519564 -0.000156417 -0.000155634 -3.53745e-05
0.000689555 -0.000207318 -0.000206673 -2.91872e-05
0.000866 -0.000260136 -0.000259656 -2.12296e-05
0.000695988 -0.000209256 -0.000208599 -2.91875e-05
0.000692772 -0.000208287 -0.000207636 -2.91873e-05
0.000517154 -0.000155689 -0.000154913 -3.53744e-05
0.000512333 -0.000154233 -0.000153472 -3.53741e-05
0.000853932 -0.000256506 -0.00025604 -2.12292e-05
0.000861978 -0.000258926 -0.000258451 -2.12295e-05
0.000514744 -0.000154961 -0.000154193 -3.53742e-05
0.000683123 -0.00020538 -0.000204747 -2.91869e-05
0.000857955 -0.000257716 -0.000257245 -2.12294e-05
0.000689555 -0.000207318 -0.000206673 -2.91872e-05
0.000686339 -0.000206349 -0.00020571 -2.9187e-05
0.000512333 -0.000154233 -0.000153472 -3.53741e-05
0.000507513 -0.000152776 -0.00015203 -3.53737e-05
0.000845887 -0.000254086 -0.000253629 -2.1229e-05
0.000853932 -0.000256506 -0.00025604 -2.12292e-05
0.000509923 -0.000153505 -0.000152751 -3.53739e-05
0.00067669 -0.000203441 -0.000202821 -2.91866e-05
0.00084991 -0.000255296 -0.000254834 -2.12291e-05
0.000683123 -0.00020538 -0.000204747 -2.91869e-05
0.000679906 -0.000204411 -0.000203784 -2.91868e-05
0.000507513 -0.000152776 -0.00015203 -3.53737e-05
0.000502692 -0.00015132 -0.000150588 -3.53734e-05
0.000837842 -0.000251667 -0.000251218 -2.12288e-05
0.000845887 -0.000254086 -0.000253629 -2.1229e-05
0.000505103 -0.000152048 -0.000151309 -3.53736e-05
0.000670257 -0.000201503 -0.000200895 -2.91863e-05
0.000841864 -0.000252876 -0.000252423 -2.12289e-05
0.00067669 -0.000203441 -0.000202821 -2.91866e-05
0.000673474 -0.000202472 -0.000201858 -2.91865e-05
0.000502692 -0.00015132 -0.000150588 -3.53734e-05
0.000497872 -0.000149864 -0.000149146 -3.53731e-05
0.000829796 -0.000249247 -0.000248807 -2.12286e-05
0.000837842 -0.000251667 -0.000251218 -2.12288e-05
0.000500282 -0.000150592 -0.000149867 -3.53733e-05
0.000663824 -0.000199565 -0.000198968 -2.91861e-05
0.000833819 -0.000250457 -0.000250012 -2.12287e-05
0.000670257 -0.000201503 -0.000200895 -2.91863e-05
0.000667041 -0.000200534 -0.000199931 -2.91862e-05
0.000497872 -0.000149864 -0.000149146 -3.53731e-05
0.000493051 -0.000148408 -0.000147704 -3.53728e-05
0.000821751 -0.000246827 -0.000246396 -2.12283e-05
0.000829796 -0.000249247 -0.000248807 -2.12286e-05
0.000495461 -0.000149136 -0.000148425 -3.5373e-05
0.000657391 -0.000197627 -0.000197042 -2.91858e-05
0.000825774 -0.000248037 -0.000247601 -2.12284e-05
0.000663824 -0.000199565 -0.000198968 -2.91861e-05
0.000660608 -0.000198596 -0.000198005 -2.91859e-05
0.000493051 -0.000148408 -0.000147704 -3.53728e-05
0.00048823 -0.000146952 -0.000146262 -3.53725e-05
0.000813705 -0.000244407 -0.000243985 -2.12281e-05
0.000821751 -0.000246827 -0.000246396 -2.12283e-05
0.00049064 -0.00014768 -0.000146983 -3.53727e-05
0.000650958 -0.000195689 -0.000195115 -2.91855e-05
0.000817728 -0.000245617 -0.00024519 -2.12282e-05
0.000657391 -0.000197627 -0.000197042 -2.91858e-05
0.000654175 -0.000196658 -0.000196079 -2.91856e-05
0.00048823 -0.000146952 -0.000146262 -3.53725e-05
0.000483409 -0.000145496 -0.00014482 -3.53722e-05
0.00080566 -0.000241988 -0.000241574 -2.12279e-05
0.000813705 -0.000244407 -0.000243985 -2.12281e-05
0.00048582 -0.000146224 -0.000145541 -3.53724e-05
0.000644525 -0.000193751 -0.000193189 -2.91852e-05
0.000809683 -0.000243198 -0.000242779 -2.1228e-05
0.000650958 -0.000195689 -0.000195115 -2.91855e-05
0.000647742 -0.00019472 -0.000194152 -2.91854e-05
0.000483409 -0.000145496 -0.00014482 -3.53722e-05
0.000478588 -0.00014404 -0.000143378 -3.53719e-05
0.000797614 -0.000239568 -0.000239163 -2.12277e-05
0.00080566 -0.000241988 -0.000241574 -2.12279e-05
0.000480999 -0.000144768 -0.000144099 -3.53721e-05
0.000638092 -0.000191813 -0.000191262 -2.91849e-05
0.000801637 -0.000240778 -0.000240368 -2.12278e-05
0.000644525 -0.000193751 -0.000193189 -2.91852e-05
0.000641309 -0.000192782 -0.000192226 -2.91851e-05
0.000478588 -0.00014404 -0.000143378 -3.53719e-05
0.000473767 -0.000142584 -0.000141935 -3.53716e-05
0.000789569 -0.000237149 -0.000236751 -2.12274e-05
0.000797614 -0.000239568 -0.000239163 -2.12277e-05
0.000476178 -0.000143312 -0.000142657 -3.53718e-05
0.000631659 -0.000189875 -0.000189336 -2.91847e-05
0.000793591 -0.000238359 -0.000237957 -2.12275e-05
0.000638092 -0.000191813 -0.000191262 -2.91849e-05
0.000634876 -0.000190844 -0.000190299 -2.91848e-05
0.000473767 -0.000142584 -0.000141935 -3.53716e-05
0.000468946 -0.000141129 -0.000140493 -3.53713e-05
0.000781523 -0.000234729 -0.00023434 -2.12272e-05
0.000789569 -0.000237149 -0.000236751 -2.12274e-05
0.000471356 -0.000141856 -0.000141214 -3.53715e-05
0.000625226 -0.000187938 -0.000187409 -2.91844e-05
0.000785546 -0.000235939 -0.000235546 -2.12273e-05
0.000631659 -0.000189875 -0.000189336 -2.91847e-05
0.000628442 -0.000188906 -0.000188373 -2.91845e-05
0.000468946 -0.000141129 -0.000140493 -3.53713e-05
0.000464125 -0.000139673 -0.000139051 -3.5371e-05
0.000773477 -0.00023231 -0.000231929 -2.1227e-05
0.000781523 -0.000234729 -0.00023434 -2.12272e-05
0.000466535 -0.000140401 -0.000139772 -3.53712e-05
0.000618792 -0.000186 -0.000185483 -2.91841e-05
0.0007775 -0.00023352 -0.000233134 -2.12271e-05
0.000625226 -0.000187938 -0.000187409 -2.91844e-05
0.000622009 -0.000186969 -0.000186446 -2.91842e-05
0.000464125 -0.000139673 -0.000139051 -3.5371e-05
0.000459303 -0.000138217 -0.000137608 -3.53707e-05
0.000765431 -0.000229891 -0.000229518 -2.12268e-05
0.000773477 -0.00023231 -0.000231929 -2.1227e-05
0.000461714 -0.000138945 -0.000138329 -3.53709e-05
0.000612359 -0.000184062 -0.000183556 -2.91838e-05
0.000769454 -0.0002311 -0.000230723 -2.12269e-05
0.000618792 -0.000186 -0.000185483 -2.91841e-05
0.000615576 -0.000185031 -0.000184519 -2.9184e-05
0.000459303 -0.000138217 -0.000137608 -3.53707e-05
0.000454482 -0.000136762 -0.000136166 -3.53704e-05
0.000757386 -0.000227471 -0.000227106 -2.12265e-05
0.000765431 -0.000229891 -0.000229518 -2.12268e-05
0.000456892 -0.000137489 -0.000136887 -3.53706e-05
0.000605926 -0.000182124 -0.000181629 -2.91835e-05
0.000761409 -0.000228681 -0.000228312 -2.12266e-05
0.000612359 -0.000184062 -0.000183556 -2.91838e-05
0.000609142 -0.000183093 -0.000182592 -2.91837e-05
0.000454482 -0.000136762 -0.000136166 -3.53704e-05
0.00044966 -0.000135306 -0.000134723 -3.53701e-05
0.00074934 -0.000225052 -0.000224695 -2.12263e-05
0.000757386 -0.000227471 -0.000227106 -2.12265e-05
0.000452071 -0.000136034 -0.000135444 -3.53703e-05
0.000599492 -0.000180187 -0.000179702 -2.91833e-05
0.000753363 -0.000226262 -0.0002259 -2.12264e-05
0.000605926 -0.000182124 -0.000181629 -2.91835e-05
0.000602709 -0.000181156 -0.000180666 -2.91834e-05
0.00044966 -0.000135306 -0.000134723 -3.53701e-05
0.000444838 -0.000133851 -0.00013328 -3.53698e-05
0.000741294 -0.000222633 -0.000222283 -2.12261e-05
0.00074934 -0.000225052 -0.000224695 -2.12263e-05
0.000447249 -0.000134579 -0.000134002 -3.537e-05
0.000593058 -0.000178249 -0.000177775 -2.9183e-05
0.000745317 -0.000223842 -0.000223489 -2.12262e-05
0.000599492 -0.000180187 -0.000179702 -2.91833e-05
0.000596275 -0.000179218 -0.000178739 -2.91831e-05
0.000444838 -0.000133851 -0.00013328 -3.53698e-05
0.000440017 -0.000132395 -0.000131838 -3.53695e-05
0.000733248 -0.000220213 -0.000219872 -2.12259e-05
0.000741294 -0.000222633 -0.000222283 -2.12261e-05
0.000442428 -0.000133123 -0.000132559 -3.53697e-05
0.000586625 -0.000176312 -0.000175848 -2.91827e-05
0.000737271 -0.000221423 -0.000221078 -2.1226e-05
0.000593058 -0.000178249 -0.000177775 -2.9183e-05
0.000589842 -0.000177281 -0.000176812 -2.91829e-05
0.000440017 -0.000132395 -0.000131838 -3.53695e-05
0.000435195 -0.00013094 -0.000130395 -3.53693e-05
0.000725202 -0.000217794 -0.00021746 -2.12256e-05
0.000733248 -0.000220213 -0.000219872 -2.12259e-05
0.000437606 -0.000131668 -0.000131116 -3.53694e-05
0.000580191 -0.000174375 -0.000173921 -2.91824e-05
0.000729225 -0.000219004 -0.000218666 -2.12258e-05
0.000586625 -0.000176312 -0.000175848 -2.91827e-05
0.000583408 -0.000175343 -0.000174885 -2.91826e-05
0.000435195 -0.00013094 -0.000130395 -3.53693e-05
0.000430373 -0.000129485 -0.000128952 -3.5369e-05
0.000717156 -0.000215375 -0.000215049 -2.12254e-05
0.000725202 -0.000217794 -0.00021746 -2.12256e-05
0.000432784 -0.000130213 -0.000129673 -3.53691e-05
0.000573757 -0.000172437 -0.000171994 -2.91822e-05
0.000721179 -0.000216585 -0.000216255 -2.12255e-05
0.000580191 -0.000174375 -0.000173921 -2.91824e-05
0.000576974 -0.000173406 -0.000172958 -2.91823e-05
0.000430373 -0.000129485 -0.000128952 -3.5369e-05
0.000425551 -0.00012803 -0.000127509 -3.53687e-05
0.00070911 -0.000212956 -0.000212637 -2.12252e-05
0.000717156 -0.000215375 -0.000215049 -2.12254e-05
0.000427962 -0.000128757 -0.000128231 -3.53688e-05
0.000567323 -0.0001705 -0.000170067 -2.91819e-05
0.000713133 -0.000214166 -0.000213843 -2.12253e-05
0.000573757 -0.000172437 -0.000171994 -2.91822e-05
0.00057054 -0.000171469 -0.000171031 -2.9182e-05
0.000425551 -0.00012803 -0.000127509 -3.53687e-05
0.000420729 -0.000126575 -0.000126066 -3.53684e-05
0.000701064 -0.000210537 -0.000210226 -2.1225e-05
0.00070911 -0.000212956 -0.000212637 -2.12252e-05
0.00042314 -0.000127302 -0.000126788 -3.53685e-05
0.000560889 -0.000168563 -0.00016814 -2.91816e-05
0.000705087 -0.000211747 -0.000211432 -2.12251e-05
0.000567323 -0.0001705 -0.000170067 -2.91819e-05
0.000564106 -0.000169531 -0.000169104 -2.91818e-05
0.000420729 -0.000126575 -0.000126066 -3.53684e-05
0.000415907 -0.00012512 -0.000124623 -3.53681e-05
0.000693017 -0.000208118 -0.000207814 -2.12248e-05
0.000701064 -0.000210537 -0.000210226 -2.1225e-05
0.000418318 -0.000125847 -0.000125345 -3.53682e-05
0.000554455 -0.000166626 -0.000166213 -2.91814e-05
0.000697041 -0.000209328 -0.00020902 -2.12249e-05
0.000560889 -0.000168563 -0.00016814 -2.91816e-05
0.000557672 -0.000167594 -0.000167176 -2.91815e-05
0.000415907 -0.00012512 -0.000124623 -3.53681e-05
0.000411084 -0.000123665 -0.00012318 -3.53678e-05
0.000684971 -0.000205699 -0.000205402 -2.12245e-05
0.000693017 -0.000208118 -0.000207814 -2.12248e-05
0.000413496 -0.000124392 -0.000123901 -3.53679e-05
0.000548021 -0.000164689 -0.000164285 -2.91811e-05
0.000688994 -0.000206909 -0.000206608 -2.12247e-05
0.000554455 -0.000166626 -0.000166213 -2.91814e-05
0.000551238 -0.000165657 -0.000165249 -2.91812e-05
0.000411084 -0.000123665 -0.00012318 -3.53678e-05
0.000406262 -0.00012221 -0.000121737 -3.53675e-05
0.000676925 -0.00020328 -0.000202991 -2.12243e-05
0.000684971 -0.000205699 -0.000205402 -2.12245e-05
0.000408673 -0.000122937 -0.000122458 -3.53677e-05
0.000541587 -0.000162751 -0.000162358 -2.91808e-05
0.000680948 -0.00020449 -0.000204197 -2.12244e-05
0.000548021 -0.000164689 -0.000164285 -2.91811e-05
0.000544804 -0.00016372 -0.000163322 -2.9181e-05
0.000406262 -0.00012221 -0.000121737 -3.53675e-05
0.00040144 -0.000120755 -0.000120293 -3.53672e-05
0.000668879 -0.000200861 -0.000200579 -2.12241e-05
0.000676925 -0.00020328 -0.000202991 -2.12243e-05
0.000403851 -0.000121483 -0.000121015 -3.53674e-05
0.000535153 -0.000160815 -0.000160431 -2.91806e-05
0.000672902 -0.000202071 -0.000201785 -2.12242e-05
0.000541587 -0.000162751 -0.000162358 -2.91808e-05
0.00053837 -0.000161783 -0.000161394 -2.91807e-05
0.00040144 -0.000120755 -0.000120293 -3.53672e-05
0.000396617 -0.0001193 -0.00011885 -3.53669e-05
0.000660832 -0.000198443 -0.000198167 -2.12239e-05
0.000668879 -0.000200861 -0.000200579 -2.12241e-05
0.000399028 -0.000120028 -0.000119572 -3.53671e-05
0.000528719 -0.000158878 -0.000158503 -2.91803e-05
0.000664856 -0.000199652 -0.000199373 -2.1224e-05
0.000535153 -0.000160815 -0.000160431 -2.91806e-05
0.000531936 -0.000159846 -0.000159467 -2.91804e-05
0.000396617 -0.0001193 -0.00011885 -3.53669e-05
0.000391794 -0.000117846 -0.000117407 -3.53667e-05
0.000652786 -0.000196024 -0.000195755 -2.12237e-05
0.000660832 -0.000198443 -0.000198167 -2.12239e-05
0.000394206 -0.000118573 -0.000118128 -3.53668e-05
0.000522284 -0.000156941 -0.000156576 -2.918e-05
0.000656809 -0.000197233 -0.000196961 -2.12238e-05
0.000528719 -0.000158878 -0.000158503 -2.91803e-05
0.000525501 -0.000157909 -0.00015754 -2.91802e-05
0.000391794 -0.000117846 -0.000117407 -3.53667e-05
0.000386972 -0.000116391 -0.000115963 -3.53664e-05
0.000644739 -0.000193605 -0.000193343 -2.12235e-05
0.000652786 -0.000196024 -0.000195755 -2.12237e-05
0.000389383 -0.000117118 -0.000116685 -3.53665e-05
0.00051585 -0.000155004 -0.000154648 -2.91798e-05
0.000648763 -0.000194814 -0.000194549 -2.12236e-05
0.000522284 -0.000156941 -0.000156576 -2.918e-05
0.000519067 -0.000155972 -0.000155612 -2.91799e-05
0.000386972 -0.000116391 -0.000115963 -3.53664e-05
0.000382149 -0.000114937 -0.00011452 -3.53661e-05
0.000636693 -0.000191186 -0.000190931 -2.12232e-05
0.000644739 -0.000193605 -0.000193343 -2.12235e-05
0.00038456 -0.000115664 -0.000115241 -3.53662e-05
0.000509415 -0.000153067 -0.000152721 -2.91795e-05
0.000640716 -0.000192396 -0.000192137 -2.12234e-05
0.00051585 -0.000155004 -0.000154648 -2.91798e-05
0.000512632 -0.000154036 -0.000153684 -2.91796e-05
0.000382149 -0.000114937 -0.00011452 -3.53661e-05
0.000377326 -0.000113482 -0.000113076 -3.53658e-05
0.000628646 -0.000188768 -0.000188519 -2.1223e-05
0.000636693 -0.000191186 -0.000190931 -2.12232e-05
0.000379737 -0.000114209 -0.000113798 -3.5366e-05
0.000502981 -0.00015113 -0.000150793 -2.91792e-05
0.00063267 -0.000189977 -0.000189725 -2.12231e-05
0.000509415 -0.000153067 -0.000152721 -2.91795e-05
0.000506198 -0.000152099 -0.000151757 -2.91794e-05
0.000377326 -0.000113482 -0.000113076 -3.53658e-05
0.000372503 -0.000112028 -0.000111632 -3.53655e-05
0.0006206 -0.000186349 -0.000186107 -2.12228e-05
0.000628646 -0.000188768 -0.000188519 -2.1223e-05
0.000374914 -0.000112755 -0.000112354 -3.53657e-05
0.000496546 -0.000149194 -0.000148865 -2.9179e-05
0.000624623 -0.000187558 -0.000187313 -2.12229e-05
0.000502981 -0.00015113 -0.000150793 -2.91792e-05
0.000499763 -0.000150162 -0.000149829 -2.91791e-05
0.000372503 -0.000112028 -0.000111632 -3.53655e-05
0.00036768 -0.000110573 -0.000110188 -3.53653e-05
0.000612553 -0.000183931 -0.000183695 -2.12226e-05
0.0006206 -0.000186349 -0.000186107 -2.12228e-05
0.000370091 -0.000111301 -0.00011091 -3.53654e-05
0.000490111 -0.000147257 -0.000146937 -2.91787e-05
0.000616577 -0.00018514 -0.000184901 -2.12227e-05
0.000496546 -0.000149194 -0.000148865 -2.9179e-05
0.000493329 -0.000148226 -0.000147901 -2.91788e-05
0.00036768 -0.000110573 -0.000110188 -3.53653e-05
0.000362857 -0.000109119 -0.000108745 -3.5365e-05
0.000604506 -0.000181512 -0.000181283 -2.12224e-05
0.000612553 -0.000183931 -0.000183695 -2.12226e-05
0.000365268 -0.000109846 -0.000109467 -3.53651e-05
0.000483676 -0.000145321 -0.00014501 -2.91785e-05
0.00060853 -0.000182721 -0.000182489 -2.12225e-05
0.000490111 -0.000147257 -0.000146937 -2.91787e-05
0.000486894 -0.000146289 -0.000145974 -2.91786e-05
0.000362857 -0.000109119 -0.000108745 -3.5365e-05
0.000358033 -0.000107665 -0.000107301 -3.53647e-05
0.00059646 -0.000179094 -0.000178871 -2.12222e-05
0.000604506 -0.000181512 -0.000181283 -2.12224e-05
0.000360445 -0.000108392 -0.000108023 -3.53648e-05
0.000477242 -0.000143384 -0.000143082 -2.91782e-05
0.000600483 -0.000180303 -0.000180077 -2.12223e-05
0.000483676 -0.000145321 -0.00014501 -2.91785e-05
0.000480459 -0.000144352 -0.000144046 -2.91783e-05
0.000358033 -0.000107665 -0.000107301 -3.53647e-05
0.00035321 -0.000106211 -0.000105857 -3.53644e-05
0.000588413 -0.000176675 -0.000176459 -2.1222e-05
0.00059646 -0.000179094 -0.000178871 -2.12222e-05
0.000355622 -0.000106938 -0.000106579 -3.53646e-05
0.000470807 -0.000141448 -0.000141154 -2.91779e-05
0.000592436 -0.000177884 -0.000177665 -2.12221e-05
0.000477242 -0.000143384 -0.000143082 -2.91782e-05
0.000474024 -0.000142416 -0.000142118 -2.91781e-05
0.00035321 -0.000106211 -0.000105857 -3.53644e-05
0.000348386 -0.000104757 -0.000104413 -3.53642e-05
0.000580366 -0.000174257 -0.000174047 -2.12218e-05
0.000588413 -0.000176675 -0.000176459 -2.1222e-05
0.000350798 -0.000105484 -0.000105135 -3.53643e-05
0.000464372 -0.000139511 -0.000139226 -2.91777e-05
0.00058439 -0.000175466 -0.000175253 -2.12219e-05
0.000470807 -0.000141448 -0.000141154 -2.91779e-05
0.000467589 -0.00014048 -0.00014019 -2.91778e-05
0.000348386 -0.000104757 -0.000104413 -3.53642e-05
0.000343563 -0.000103303 -0.000102969 -3.53639e-05
0.000572319 -0.000171838 -0.000171635 -2.12216e-05
0.000580366 -0.000174257 -0.000174047 -2.12218e-05
0.000345975 -0.00010403 -0.000103691 -3.5364e-05
0.000457936 -0.000137575 -0.000137298 -2.91774e-05
0.000576343 -0.000173048 -0.000172841 -2.12217e-05
0.000464372 -0.000139511 -0.000139226 -2.91777e-05
0.000461154 -0.000138543 -0.000138262 -2.91776e-05
0.000343563 -0.000103303 -0.000102969 -3.53639e-05
0.000338739 -0.000101849 -0.000101524 -3.53636e-05
0.000564272 -0.00016942 -0.000169222 -2.12214e-05
0.000572319 -0.000171838 -0.000171635 -2.12216e-05
0.000341151 -0.000102576 -0.000102247 -3.53638e-05
0.000451501 -0.000135639 -0.00013537 -2.91772e-05
0.000568296 -0.000170629 -0.000170429 -2.12215e-05
0.000457936 -0.000137575 -0.000137298 -2.91774e-05
0.000454719 -0.000136607 -0.000136334 -2.91773e-05
0.000338739 -0.000101849 -0.000101524 -3.53636e-05
0.000333915 -0.000100395 -0.00010008 -3.53634e-05
0.000556225 -0.000167002 -0.00016681 -2.12211e-05
0.000564272 -0.00016942 -0.000169222 -2.12214e-05
0.000336327 -0.000101122 -0.000100802 -3.53635e-05
0.000445066 -0.000133703 -0.000133441 -2.91769e-05
0.000560249 -0.000168211 -0.000168016 -2.12212e-05
0.000451501 -0.000135639 -0.00013537 -2.91772e-05
0.000448284 -0.000134671 -0.000134405 -2.9177e-05
0.000333915 -0.000100395 -0.00010008 -3.53634e-05
0.000329092 -9.89412e-05 -9.86359e-05 -3.53631e-05
0.000548178 -0.000164584 -0.000164398 -2.12209e-05
0.000556225 -0.000167002 -0.00016681 -2.12211e-05
0.000331503 -9.96681e-05 -9.9358e-05 -3.53632e-05
0.000438631 -0.000131767 -0.000131513 -2.91767e-05
0.000552202 -0.000165793 -0.000165604 -2.1221e-05
0.000445066 -0.000133703 -0.000133441 -2.91769e-05
0.000441848 -0.000132735 -0.000132477 -2.91768e-05
0.000329092 -9.89412e-05 -9.86359e-05 -3.53631e-05
0.000324268 -9.74874e-05 -9.71915e-05 -3.53628e-05
0.000540131 -0.000162165 -0.000161985 -2.12207e-05
0.000548178 -0.000164584 -0.000164398 -2.12209e-05
0.00032668 -9.82143e-05 -9.79137e-05 -3.5363e-05
0.000432195 -0.000129831 -0.000129585 -2.91764e-05
0.000544155 -0.000163375 -0.000163191 -2.12208e-05
0.000438631 -0.000131767 -0.000131513 -2.91767e-05
0.000435413 -0.000130799 -0.000130549 -2.91765e-05
0.000324268 -9.74874e-05 -9.71915e-05 -3.53628e-05
0.000319444 -9.60338e-05 -9.5747e-05 -3.53626e-05
0.000532084 -0.000159747 -0.000159573 -2.12205e-05
0.000540131 -0.000162165 -0.000161985 -2.12207e-05
0.000321856 -9.67606e-05 -9.64693e-05 -3.53627e-05
0.00042576 -0.000127895 -0.000127657 -2.91762e-05
0.000536108 -0.000160956 -0.000160779 -2.12206e-05
0.000432195 -0.000129831 -0.000129585 -2.91764e-05
0.000428978 -0.000128863 -0.000128621 -2.91763e-05
0.000319444 -9.60338e-05 -9.5747e-05 -3.53626e-05
0.000314619 -9.45802e-05 -9.43025e-05 -3.53623e-05
0.000524037 -0.000157329 -0.00015716 -2.12203e-05
0.000532084 -0.000159747 -0.000159573 -2.12205e-05
0.000317031 -9.5307e-05 -9.50248e-05 -3.53624e-05
0.000419324 -0.000125959 -0.000125728 -2.91759e-05
0.00052806 -0.000158538 -0.000158367 -2.12204e-05
0.00042576 -0.000127895 -0.000127657 -2.91762e-05
0.000422542 -0.000126927 -0.000126692 -2.91761e-05
0.000314619 -9.45802e-05 -9.43025e-05 -3.53623e-05
0.000309795 -9.31267e-05 -9.28579e-05 -3.5362e-05
0.000515989 -0.000154911 -0.000154748 -2.12201e-05
0.000524037 -0.000157329 -0.00015716 -2.12203e-05
0.000312207 -9.38534e-05 -9.35802e-05 -3.53622e-05
0.000412889 -0.000124023 -0.0001238 -2.91757e-05
0.000520013 -0.00015612 -0.000155954 -2.12202e-05
0.000419324 -0.000125959 -0.000125728 -2.91759e-05
0.000416106 -0.000124991 -0.000124764 -2.91758e-05
0.000309795 -9.31267e-05 -9.28579e-05 -3.5362e-05
0.000304971 -9.16732e-05 -9.14133e-05 -3.53618e-05
0.000507942 -0.000152493 -0.000152335 -2.12199e-05
0.000515989 -0.000154911 -0.000154748 -2.12201e-05
0.000307383 -9.23999e-05 -9.21356e-05 -3.53619e-05
0.000406453 -0.000122087 -0.000121871 -2.91754e-05
0.000511966 -0.000153702 -0.000153542 -2.122e-05
0.000412889 -0.000124023 -0.0001238 -2.91757e-05
0.000409671 -0.000123055 -0.000122835 -2.91756e-05
0.000304971 -9.16732e-05 -9.14133e-05 -3.53618e-05
0.000300146 -9.02198e-05 -8.99685e-05 -3.53615e-05
0.000499895 -0.000150075 -0.000149923 -2.12197e-05
0.000507942 -0.000152493 -0.000152335 -2.12199e-05
0.000302559 -9.09465e-05 -9.06909e-05 -3.53617e-05
0.000400017 -0.000120151 -0.000119943 -2.91752e-05
0.000503919 -0.000151284 -0.000151129 -2.12198e-05
0.000406453 -0.000122087 -0.000121871 -2.91754e-05
0.000403235 -0.000121119 -0.000120907 -2.91753e-05
0.000300146 -9.02198e-05 -8.99685e-05 -3.53615e-05
0.000295322 -8.87665e-05 -8.85237e-05 -3.53613e-05
0.000491847 -0.000147657 -0.00014751 -2.12195e-05
0.000499895 -0.000150075 -0.000149923 -2.12197e-05
0.000297734 -8.94931e-05 -8.92461e-05 -3.53614e-05
0.000393581 -0.000118215 -0.000118014 -2.9175e-05
0.000495871 -0.000148866 -0.000148716 -2.12196e-05
0.000400017 -0.000120151 -0.000119943 -2.91752e-05
0.000396799 -0.000119183 -0.000118978 -2.91751e-05
0.000295322 -8.87665e-05 -8.85237e-05 -3.53613e-05
0.000290497 -8.73132e-05 -8.70789e-05 -3.5361e-05
0.0004838 -0.000145239 -0.000145097 -2.12193e-05
0.000491847 -0.000147657 -0.00014751 -2.12195e-05
0.00029291 -8.80398e-05 -8.78013e-05 -3.53611e-05
0.000387145 -0.00011628 -0.000116085 -2.91747e-05
0.000487824 -0.000146448 -0.000146304 -2.12194e-05
0.000393581 -0.000118215 -0.000118014 -2.9175e-05
0.000390363 -0.000117247 -0.00011705 -2.91748e-05
0.000290497 -8.73132e-05 -8.70789e-05 -3.5361e-05
0.000285672 -8.586e-05 -8.56339e-05 -3.53608e-05
0.000475752 -0.000142822 -0.000142685 -2.12191e-05
0.0004838 -0.000145239 -0.000145097 -2.12193e-05
0.000288085 -8.65866e-05 -8.63564e-05 -3.53609e-05
0.000380709 -0.000114344 -0.000114157 -2.91745e-05
0.000479776 -0.00014403 -0.000143891 -2.12192e-05
0.000387145 -0.00011628 -0.000116085 -2.91747e-05
0.000383927 -0.000115312 -0.000115121 -2.91746e-05
0.000285672 -8.586e-05 -8.56339e-05 -3.53608e-05
0.000280848 -8.44069e-05 -8.41889e-05 -3.53605e-05
0.000467705 -0.000140404 -0.000140272 -2.12189e-05
0.000475752 -0.000142822 -0.000142685 -2.12191e-05
0.00028326 -8.51335e-05 -8.49114e-05 -3.53606e-05
0.000374273 -0.000112408 -0.000112228 -2.91742e-05
0.000471729 -0.000141613 -0.000141478 -2.1219e-05
0.000380709 -0.000114344 -0.000114157 -2.91745e-05
0.000377491 -0.000113376 -0.000113192 -2.91744e-05
0.000280848 -8.44069e-05 -8.41889e-05 -3.53605e-05
0.000276023 -8.29538e-05 -8.27438e-05 -3.53603e-05
0.000459657 -0.000137986 -0.000137859 -2.12188e-05
0.000467705 -0.000140404 -0.000140272 -2.12189e-05
0.000278435 -8.36804e-05 -8.34664e-05 -3.53604e-05
0.000367837 -0.000110473 -0.000110299 -2.9174e-05
0.000463681 -0.000139195 -0.000139065 -2.12189e-05
0.000374273 -0.000112408 -0.000112228 -2.91742e-05
0.000371055 -0.000111441 -0.000111263 -2.91741e-05
0.000276023 -8.29538e-05 -8.27438e-05 -3.53603e-05
0.000271198 -8.15008e-05 -8.12987e-05 -3.536e-05
0.000451609 -0.000135568 -0.000135446 -2.12186e-05
0.000459657 -0.000137986 -0.000137859 -2.12188e-05
0.00027361 -8.22273e-05 -8.20213e-05 -3.53602e-05
0.000361401 -0.000108537 -0.00010837 -2.91738e-05
0.000455633 -0.000136777 -0.000136653 -2.12187e-05
0.000367837 -0.000110473 -0.000110299 -2.9174e-05
0.000364619 -0.000109505 -0.000109334 -2.91739e-05
0.000271198 -8.15008e-05 -8.12987e-05 -3.536e-05
0.000266373 -8.00479e-05 -7.98534e-05 -3.53598e-05
0.000443562 -0.000133151 -0.000133033 -2.12184e-05
0.000451609 -0.000135568 -0.000135446 -2.12186e-05
0.000268785 -8.07744e-05 -8.05761e-05 -3.53599e-05
0.000354964 -0.000106602 -0.000106441 -2.91735e-05
0.000447586 -0.000134359 -0.00013424 -2.12185e-05
0.000361401 -0.000108537 -0.00010837 -2.91738e-05
0.000358183 -0.00010757 -0.000107406 -2.91737e-05
0.000266373 -8.00479e-05 -7.98534e-05 -3.53598e-05
0.000261547 -7.8595e-05 -7.84082e-05 -3.53595e-05
0.000435514 -0.000130733 -0.00013062 -2.12182e-05
0.000443562 -0.000133151 -0.000133033 -2.12184e-05
0.00026396 -7.93215e-05 -7.91308e-05 -3.53597e-05
0.000348528 -0.000104667 -0.000104512 -2.91733e-05
0.000439538 -0.000131942 -0.000131827 -2.12183e-05
0.000354964 -0.000106602 -0.000106441 -2.91735e-05
0.000351746 -0.000105634 -0.000105477 -2.91734e-05
0.000261547 -7.8595e-05 -7.84082e-05 -3.53595e-05
0.000256722 -7.71422e-05 -7.69628e-05 -3.53593e-05
0.000427466 -0.000128315 -0.000128207 -2.1218e-05
0.000435514 -0.000130733 -0.00013062 -2.12182e-05
0.000259135 -7.78686e-05 -7.76855e-05 -3.53594e-05
0.000342091 -0.000102731 -0.000102583 -2.91731e-05
0.00043149 -0.000129524 -0.000129414 -2.12181e-05
0.000348528 -0.000104667 -0.000104512 -2.91733e-05
0.00034531 -0.000103699 -0.000103547 -2.91732e-05
0.000256722 -7.71422e-05 -7.69628e-05 -3.53593e-05
0.000251897 -7.56895e-05 -7.55174e-05 -3.53591e-05
0.000419418 -0.000125898 -0.000125794 -2.12178e-05
0.000427466 -0.000128315 -0.000128207 -2.1218e-05
0.000254309 -7.64159e-05 -7.62401e-05 -3.53592e-05
0.000335655 -0.000100796 -0.000100654 -2.91729e-05
0.000423442 -0.000127107 -0.000127001 -2.12179e-05
0.000342091 -0.000102731 -0.000102583 -2.91731e-05
0.000338873 -0.000101764 -0.000101618 -2.9173e-05
0.000251897 -7.56895e-05 -7.55174e-05 -3.53591e-05
0.000247071 -7.42369e-05 -7.40719e-05 -3.53588e-05
0.00041137 -0.00012348 -0.000123381 -2.12176e-05
0.000419418 -0.000125898 -0.000125794 -2.12178e-05
0.000249484 -7.49632e-05 -7.47946e-05 -3.5359e-05
0.000329218 -9.88609e-05 -9.87246e-05 -2.91726e-05
0.000415394 -0.000124689 -0.000124588 -2.12177e-05
0.000335655 -0.000100796 -0.000100654 -2.91729e-05
0.000332437 -9.98285e-05 -9.96892e-05 -2.91727e-05
0.000247071 -7.42369e-05 -7.40719e-05 -3.53588e-05
0.000242246 -7.27843e-05 -7.26263e-05 -3.53586e-05
0.000403322 -0.000121063 -0.000120968 -2.12174e-05
0.00041137 -0.00012348 -0.000123381 -2.12176e-05
0.000244658 -7.35105e-05 -7.33491e-05 -3.53587e-05
0.000322781 -9.69258e-05 -9.67953e-05 -2.91724e-05
0.000407346 -0.000122271 -0.000122175 -2.12175e-05
0.000329218 -9.88609e-05 -9.87246e-05 -2.91726e-05
0.000326 -9.78933e-05 -9.77599e-05 -2.91725e-05
0.000242246 -7.27843e-05 -7.26263e-05 -3.53586e-05
0.00023742 -7.13317e-05 -7.11806e-05 -3.53584e-05
0.000395274 -0.000118645 -0.000118555 -2.12173e-05
0.000403322 -0.000121063 -0.000120968 -2.12174e-05
0.000239833 -7.2058e-05 -7.19035e-05 -3.53585e-05
0.000316345 -9.49907e-05 -9.4866e-05 -2.91722e-05
0.000399298 -0.000119854 -0.000119762 -2.12173e-05
0.000322781 -9.69258e-05 -9.67953e-05 -2.91724e-05
0.000319563 -9.59582e-05 -9.58307e-05 -2.91723e-05
0.00023742 -7.13317e-05 -7.11806e-05 -3.53584e-05
0.000232594 -6.98793e-05 -6.97349e-05 -3.53581e-05
0.000387226 -0.000116228 -0.000116142 -2.12171e-05
0.000395274 -0.000118645 -0.000118555 -2.12173e-05
0.000235007 -7.06055e-05 -7.04578e-05 -3.53583e-05
0.000309908 -9.30557e-05 -9.29366e-05 -2.9172e-05
0.00039125 -0.000117437 -0.000117349 -2.12172e-05
0.000316345 -9.49907e-05 -9.4866e-05 -2.91722e-05
0.000313126 -9.40232e-05 -9.39013e-05 -2.91721e-05
0.000232594 -6.98793e-05 -6.97349e-05 -3.53581e-05
0.000227768 -6.84268e-05 -6.82891e-05 -3.53579e-05
0.000379178 -0.000113811 -0.000113729 -2.12169e-05
0.000387226 -0.000116228 -0.000116142 -2.12171e-05
0.000230181 -6.9153e-05 -6.9012e-05 -3.5358e-05
0.000303471 -9.11207e-05 -9.10072e-05 -2.91718e-05
0.000383202 -0.000115019 -0.000114935 -2.1217e-05
0.000309908 -9.30557e-05 -9.29366e-05 -2.9172e-05
0.000306689 -9.20882e-05 -9.19719e-05 -2.91719e-05
0.000227768 -6.84268e-05 -6.82891e-05 -3.53579e-05
0.000222942 -6.69745e-05 -6.68433e-05 -3.53577e-05
0.000371129 -0.000111393 -0.000111315 -2.12167e-05
0.000379178 -0.000113811 -0.000113729 -2.12169e-05
0.000225355 -6.77007e-05 -6.75662e-05 -3.53578e-05
0.000297034 -8.91858e-05 -8.90777e-05 -2.91715e-05
0.000375153 -0.000112602 -0.000112522 -2.12168e-05
0.000303471 -9.11207e-05 -9.10072e-05 -2.91718e-05
0.000300252 -9.01532e-05 -9.00424e-05 -2.91716e-05
0.000222942 -6.69745e-05 -6.68433e-05 -3.53577e-05
0.000218116 -6.55222e-05 -6.53973e-05 -3.53575e-05
0.000363081 -0.000108976 -0.000108902 -2.12165e-05
0.000371129 -0.000111393 -0.000111315 -2.12167e-05
0.000220529 -6.62484e-05 -6.61203e-05 -3.53576e-05
0.000290597 -8.72509e-05 -8.71481e-05 -2.91713e-05
0.000367105 -0.000110185 -0.000110109 -2.12166e-05
0.000297034 -8.91858e-05 -8.90777e-05 -2.91715e-05
0.000293815 -8.82184e-05 -8.81129e-05 -2.91714e-05
0.000218116 -6.55222e-05 -6.53973e-05 -3.53575e-05
0.00021329 -6.407e-05 -6.39513e-05 -3.53573e-05
0.000355032 -0.000106559 -0.000106489 -2.12164e-05
0.000363081 -0.000108976 -0.000108902 -2.12165e-05
0.000215703 -6.47961e-05 -6.46743e-05 -3.53574e-05
0.000284159 -8.53161e-05 -8.52185e-05 -2.91711e-05
0.000359057 -0.000107767 -0.000107695 -2.12164e-05
0.000290597 -8.72509e-05 -8.71481e-05 -2.91713e-05
0.000287378 -8.62835e-05 -8.61833e-05 -2.91712e-05
0.00021329 -6.407e-05 -6.39513e-05 -3.53573e-05
0.000208464 -6.26179e-05 -6.25053e-05 -3.5357e-05
0.000346984 -0.000104142 -0.000104075 -2.12162e-05
0.000355032 -0.000106559 -0.000106489 -2.12164e-05
0.000210877 -6.3344e-05 -6.32283e-05 -3.53571e-05
0.000277722 -8.33814e-05 -8.32889e-05 -2.91709e-05
0.000351008 -0.00010535 -0.000105282 -2.12163e-05
0.000284159 -8.53161e-05 -8.52185e-05 -2.91711e-05
0.000280941 -8.43487e-05 -8.42537e-05 -2.9171e-05
0.000208464 -6.26179e-05 -6.25053e-05 -3.5357e-05
0.000203637 -6.11658e-05 -6.10591e-05 -3.53568e-05
0.000338935 -0.000101724 -0.000101662 -2.1216e-05
0.000346984 -0.000104142 -0.000104075 -2.12162e-05
0.00020605 -6.18918e-05 -6.17822e-05 -3.53569e-05
0.000271285 -8.14467e-05 -8.13591e-05 -2.91707e-05
0.00034296 -0.000102933 -0.000102869 -2.12161e-05
0.000277722 -8.33814e-05 -8.32889e-05 -2.91709e-05
0.000274503 -8.2414e-05 -8.2324e-05 -2.91708e-05
0.000203637 -6.11658e-05 -6.10591e-05 -3.53568e-05
0.000198811 -5.97138e-05 -5.96129e-05 -3.53566e-05
0.000330887 -9.93072e-05 -9.92484e-05 -2.12158e-05
0.000338935 -0.000101724 -0.000101662 -2.1216e-05
0.000201224 -6.04398e-05 -6.0336e-05 -3.53567e-05
0.000264847 -7.9512e-05 -7.94293e-05 -2.91705e-05
0.000334911 -0.000100516 -0.000100455 -2.12159e-05
0.000271285 -8.14467e-05 -8.13591e-05 -2.91707e-05
0.000268066 -8.04793e-05 -8.03942e-05 -2.91706e-05
0.000198811 -5.97138e-05 -5.96129e-05 -3.53566e-05
0.000193984 -5.82619e-05 -5.81666e-05 -3.53564e-05
0.000322838 -9.68901e-05 -9.68349e-05 -2.12157e-05
0.000330887 -9.93072e-05 -9.92484e-05 -2.12158e-05
0.000196397 -5.89878e-05 -5.88898e-05 -3.53565e-05
0.00025841 -7.75774e-05 -7.74995e-05 -2.91703e-05
0.000326863 -9.80987e-05 -9.80417e-05 -2.12157e-05
0.000264847 -7.9512e-05 -7.94293e-05 -2.91705e-05
0.000261628 -7.85447e-05 -7.84644e-05 -2.91704e-05
0.000193984 -5.82619e-05 -5.81666e-05 -3.53564e-05
0.000189157 -5.681e-05 -5.67203e-05 -3.53562e-05
0.000314789 -9.44731e-05 -9.44213e-05 -2.12155e-05
0.000322838 -9.68901e-05 -9.68349e-05 -2.12157e-05
0.000191571 -5.75359e-05 -5.74434e-05 -3.53563e-05
0.000251972 -7.56429e-05 -7.55696e-05 -2.91701e-05
0.000318814 -9.56816e-05 -9.56281e-05 -2.12156e-05
0.00025841 -7.75774e-05 -7.74995e-05 -2.91703e-05
0.000255191 -7.66102e-05 -7.65345e-05 -2.91702e-05
0.000189157 -5.681e-05 -5.67203e-05 -3.53562e-05
0.00018433 -5.53582e-05 -5.52738e-05 -3.5356e-05
0.000306741 -9.20561e-05 -9.20077e-05 -2.12153e-05
0.000314789 -9.44731e-05 -9.44213e-05 -2.12155e-05
0.000186744 -5.60841e-05 -5.5997e-05 -3.53561e-05
0.000245534 -7.37084e-05 -7.36396e-05 -2.91699e-05
0.000310765 -9.32646e-05 -9.32145e-05 -2.12154e-05
0.000251972 -7.56429e-05 -7.55696e-05 -2.91701e-05
0.000248753 -7.46757e-05 -7.46046e-05 -2.917e-05
0.00018433 -5.53582e-05 -5.52738e-05 -3.5356e-05
0.000179503 -5.39064e-05 -5.38273e-05 -3.53558e-05
0.000298692 -8.96391e-05 -8.9594e-05 -2.12151e-05
0.000306741 -9.20561e-05 -9.20077e-05 -2.12153e-05
0.000181917 -5.46323e-05 -5.45506e-05 -3.53559e-05
0.000239096 -7.1774e-05 -7.17096e-05 -2.91697e-05
0.000302716 -9.08476e-05 -9.08008e-05 -2.12152e-05
0.000245534 -7.37084e-05 -7.36396e-05 -2.91699e-05
0.000242315 -7.27412e-05 -7.26746e-05 -2.91698e-05
0.000179503 -5.39064e-05 -5.38273e-05 -3.53558e-05
0.000174676 -5.24547e-05 -5.23807e-05 -3.53556e-05
0.000290643 -8.72222e-05 -8.71803e-05 -2.1215e-05
0.000298692 -8.96391e-05 -8.9594e-05 -2.12151e-05
0.00017709 -5.31806e-05 -5.3104e-05 -3.53557e-05
0.000232658 -6.98396e-05 -6.97795e-05 -2.91695e-05
0.000294667 -8.84306e-05 -8.83872e-05 -2.12151e-05
0.000239096 -7.1774e-05 -7.17096e-05 -2.91697e-05
0.000235877 -7.08068e-05 -7.07445e-05 -2.91696e-05
0.000174676 -5.24547e-05 -5.23807e-05 -3.53556e-05
0.000169849 -5.10031e-05 -5.09341e-05 -3.53554e-05
0.000282594 -8.48053e-05 -8.47665e-05 -2.12148e-05
0.000290643 -8.72222e-05 -8.71803e-05 -2.1215e-05
0.000172263 -5.17289e-05 -5.16574e-05 -3.53555e-05
0.00022622 -6.79053e-05 -6.78493e-05 -2.91693e-05
0.000286618 -8.60137e-05 -8.59734e-05 -2.12149e-05
0.000232658 -6.98396e-05 -6.97795e-05 -2.91695e-05
0.000229439 -6.88724e-05 -6.88144e-05 -2.91694e-05
0.000169849 -5.10031e-05 -5.09341e-05 -3.53554e-05
0.000165022 -4.95515e-05 -4.94874e-05 -3.53552e-05
0.000274545 -8.23884e-05 -8.23527e-05 -2.12146e-05
0.000282594 -8.48053e-05 -8.47665e-05 -2.12148e-05
0.000167436 -5.02773e-05 -5.02107e-05 -3.53553e-05
0.000219782 -6.5971e-05 -6.59191e-05 -2.91691e-05
0.000278569 -8.35968e-05 -8.35596e-05 -2.12147e-05
0.00022622 -6.79053e-05 -6.78493e-05 -2.91693e-05
0.000223001 -6.69381e-05 -6.68843e-05 -2.91692e-05
0.000165022 -4.95515e-05 -4.94874e-05 -3.53552e-05
0.000160195 -4.81e-05 -4.80406e-05 -3.5355e-05
0.000266496 -7.99716e-05 -7.99389e-05 -2.12145e-05
0.000274545 -8.23884e-05 -8.23527e-05 -2.12146e-05
0.000162608 -4.88258e-05 -4.8764e-05 -3.53551e-05
0.000213344 -6.40368e-05 -6.39889e-05 -2.91689e-05
0.00027052 -8.118e-05 -8.11458e-05 -2.12146e-05
0.000219782 -6.5971e-05 -6.59191e-05 -2.91691e-05
0.000216563 -6.50039e-05 -6.4954e-05 -2.9169e-05
0.000160195 -4.81e-05 -4.80406e-05 -3.5355e-05
0.000155367 -4.66486e-05 -4.65937e-05 -3.53548e-05
0.000258446 -7.75548e-05 -7.7525e-05 -2.12143e-05
0.000266496 -7.99716e-05 -7.99389e-05 -2.12145e-05
0.000157781 -4.73743e-05 -4.73172e-05 -3.53549e-05
0.000206906 -6.21026e-05 -6.20585e-05 -2.91687e-05
0.000262471 -7.87632e-05 -7.87319e-05 -2.12144e-05
0.000213344 -6.40368e-05 -6.39889e-05 -2.91689e-05
0.000210125 -6.30697e-05 -6.30237e-05 -2.91688e-05
0.000155367 -4.66486e-05 -4.65937e-05 -3.53548e-05
0.00015054 -4.51973e-05 -4.51468e-05 -3.53546e-05
0.000250397 -7.51381e-05 -7.51111e-05 -2.12142e-05
0.000258446 -7.75548e-05 -7.7525e-05 -2.12143e-05
0.000152954 -4.59229e-05 -4.58703e-05 -3.53547e-05
0.000200468 -6.01685e-05 -6.01282e-05 -2.91685e-05
0.000254422 -7.63464e-05 -7.6318e-05 -2.12142e-05
0.000206906 -6.21026e-05 -6.20585e-05 -2.91687e-05
0.000203687 -6.11356e-05 -6.10934e-05 -2.91686e-05
0.00015054 -4.51973e-05 -4.51468e-05 -3.53546e-05
0.000145712 -4.3746e-05 -4.36998e-05 -3.53544e-05
0.000242348 -7.27213e-05 -7.26971e-05 -2.1214e-05
0.000250397 -7.51381e-05 -7.51111e-05 -2.12142e-05
0.000148126 -4.44716e-05 -4.44233e-05 -3.53545e-05
0.000194029 -5.82345e-05 -5.81977e-05 -2.91683e-05
0.000246373 -7.39297e-05 -7.39041e-05 -2.12141e-05
0.000200468 -6.01685e-05 -6.01282e-05 -2.91685e-05
0.000197248 -5.92015e-05 -5.91629e-05 -2.91684e-05
0.000145712 -4.3746e-05 -4.36998e-05 -3.53544e-05
0.000140884 -4.22947e-05 -4.22527e-05 -3.53542e-05
0.000234298 -7.03047e-05 -7.0283e-05 -2.12139e-05
0.000242348 -7.27213e-05 -7.26971e-05 -2.1214e-05
0.000143298 -4.30203e-05 -4.29762e-05 -3.53543e-05
0.000187591 -5.63005e-05 -5.62672e-05 -2.91682e-05
0.000238323 -7.1513e-05 -7.14901e-05 -2.12139e-05
0.000194029 -5.82345e-05 -5.81977e-05 -2.91683e-05
0.00019081 -5.72675e-05 -5.72325e-05 -2.91682e-05
0.000140884 -4.22947e-05 -4.22527e-05 -3.53542e-05
0.000136056 -4.08436e-05 -4.08055e-05 -3.53541e-05
0.000226249 -6.7888e-05 -6.7869e-05 -2.12137e-05
0.000234298 -7.03047e-05 -7.0283e-05 -2.12139e-05
0.00013847 -4.15691e-05 -4.15291e-05 -3.53542e-05
0.000181152 -5.43665e-05 -5.43366e-05 -2.9168e-05
0.000230274 -6.90964e-05 -6.9076e-05 -2.12138e-05
0.000187591 -5.63005e-05 -5.62672e-05 -2.91682e-05
0.000184371 -5.53335e-05 -5.53019e-05 -2.91681e-05
0.000136056 -4.08436e-05 -4.08055e-05 -3.53541e-05
0.000131228 -3.93925e-05 -3.93583e-05 -3.53539e-05
0.000218199 -6.54714e-05 -6.54548e-05 -2.12136e-05
0.000226249 -6.7888e-05 -6.7869e-05 -2.12137e-05
0.000133642 -4.0118e-05 -4.00819e-05 -3.5354e-05
0.000174713 -5.24326e-05 -5.2406e-05 -2.91678e-05
0.000222224 -6.66797e-05 -6.66619e-05 -2.12137e-05
0.000181152 -5.43665e-05 -5.43366e-05 -2.9168e-05
0.000177933 -5.33996e-05 -5.33713e-05 -2.91679e-05
0.000131228 -3.93925e-05 -3.93583e-05 -3.53539e-05
0.0001264 -3.79415e-05 -3.7911e-05 -3.53538e-05
0.00021015 -6.30549e-05 -6.30406e-05 -2.12135e-05
0.000218199 -6.54714e-05 -6.54548e-05 -2.12136e-05
0.000128814 -3.8667e-05 -3.86346e-05 -3.53538e-05
0.000168274 -5.04988e-05 -5.04753e-05 -2.91677e-05
0.000214175 -6.42632e-05 -6.42477e-05 -2.12135e-05
0.000174713 -5.24326e-05 -5.2406e-05 -2.91678e-05
0.000171494 -5.14657e-05 -5.14406e-05 -2.91678e-05
0.0001264 -3.79415e-05 -3.7911e-05 -3.53538e-05
0.000121572 -3.64905e-05 -3.64636e-05 -3.53536e-05
0.0002021 -6.06384e-05 -6.06264e-05 -2.12134e-05
0.00021015 -6.30549e-05 -6.30406e-05 -2.12135e-05
0.000123986 -3.7216e-05 -3.71873e-05 -3.53537e-05
0.000161836 -4.8565e-05 -4.85445e-05 -2.91676e-05
0.000206125 -6.18466e-05 -6.18335e-05 -2.12134e-05
0.000168274 -5.04988e-05 -5.04753e-05 -2.91677e-05
0.000165055 -4.95319e-05 -4.95099e-05 -2.91676e-05
0.000121572 -3.64905e-05 -3.64636e-05 -3.53536e-05
0.000116744 -3.50397e-05 -3.50162e-05 -3.53535e-05
0.00019405 -5.82219e-05 -5.82121e-05 -2.12133e-05
0.0002021 -6.06384e-05 -6.06264e-05 -2.12134e-05
0.000119158 -3.57651e-05 -3.57399e-05 -3.53536e-05
0.000155397 -4.66313e-05 -4.66137e-05 -2.91675e-05
0.000198075 -5.94301e-05 -5.94193e-05 -2.12133e-05
0.000161836 -4.8565e-05 -4.85445e-05 -2.91676e-05
0.000158616 -4.75981e-05 -4.75791e-05 -2.91675e-05
0.000116744 -3.50397e-05 -3.50162e-05 -3.53535e-05
0.000111916 -3.35889e-05 -3.35686e-05 -3.53534e-05
0.000186 -5.58054e-05 -5.57978e-05 -2.12132e-05
0.00019405 -5.82219e-05 -5.82121e-05 -2.12133e-05
0.00011433 -3.43143e-05 -3.42924e-05 -3.53535e-05
0.000148957 -4.46976e-05 -4.46828e-05 -2.91674e-05
0.000190025 -5.70137e-05 -5.7005e-05 -2.12133e-05
0.000155397 -4.66313e-05 -4.66137e-05 -2.91675e-05
0.000152177 -4.56645e-05 -4.56482e-05 -2.91674e-05
0.000111916 -3.35889e-05 -3.35686e-05 -3.53534e-05
0.000107087 -3.21382e-05 -3.2121e-05 -3.53533e-05
0.00017795 -5.3389e-05 -5.33834e-05 -2.12132e-05
0.000186 -5.58054e-05 -5.57978e-05 -2.12132e-05
0.000109501 -3.28635e-05 -3.28448e-05 -3.53534e-05
0.000142518 -4.2764e-05 -4.27518e-05 -2.91673e-05
0.000181975 -5.45972e-05 -5.45906e-05 -2.12132e-05
0.000148957 -4.46976e-05 -4.46828e-05 -2.91674e-05
0.000145738 -4.37308e-05 -4.37173e-05 -2.91674e-05
0.000107087 -3.21382e-05 -3.2121e-05 -3.53533e-05
0.000102259 -3.06875e-05 -3.06734e-05 -3.53533e-05
0.0001699 -5.09727e-05 -5.0969e-05 -2.12132e-05
0.00017795 -5.3389e-05 -5.33834e-05 -2.12132e-05
0.000104673 -3.14128e-05 -3.13972e-05 -3.53533e-05
0.000136079 -4.08305e-05 -4.08208e-05 -2.91673e-05
0.000173925 -5.21808e-05 -5.21762e-05 -2.12132e-05
0.000142518 -4.2764e-05 -4.27518e-05 -2.91673e-05
0.000139299 -4.17973e-05 -4.17863e-05 -2.91673e-05
0.000102259 -3.06875e-05 -3.06734e-05 -3.53533e-05
9.74303e-05 -2.9237e-05 -2.92257e-05 -3.53532e-05
0.00016185 -4.85563e-05 -4.85545e-05 -2.12133e-05
0.0001699 -5.09727e-05 -5.0969e-05 -2.12132e-05
9.98445e-05 -2.99623e-05 -2.99496e-05 -3.53532e-05
0.00012964 -3.88971e-05 -3.88898e-05 -2.91673e-05
0.000165875 -4.97645e-05 -4.97617e-05 -2.12132e-05
0.000136079 -4.08305e-05 -4.08208e-05 -2.91673e-05
0.00013286 -3.98638e-05 -3.98553e-05 -2.91673e-05
9.74303e-05 -2.9237e-05 -2.92257e-05 -3.53532e-05
9.26018e-05 -2.77865e-05 -2.7778e-05 -3.5353e-05
0.0001538 -4.614e-05 -4.614e-05 -2.12134e-05
0.00016185 -4.85563e-05 -4.85545e-05 -2.12133e-05
9.5016e-05 -2.85117e-05 -2.85018e-05 -3.53531e-05
0.000123201 -3.69637e-05 -3.69587e-05 -2.91673e-05
0.000157825 -4.73482e-05 -4.73472e-05 -2.12133e-05
0.00012964 -3.88971e-05 -3.88898e-05 -2.91673e-05
0.00012642 -3.79304e-05 -3.79242e-05 -2.91673e-05
9.26018e-05 -2.77865e-05 -2.7778e-05 -3.5353e-05
8.77732e-05 -2.63359e-05 -2.63303e-05 -3.53527e-05
0.00014575 -4.37238e-05 -4.37254e-05 -2.12134e-05
0.0001538 -4.614e-05 -4.614e-05 -2.12134e-05
9.01875e-05 -2.70612e-05 -2.70541e-05 -3.53529e-05
0.000116761 -3.50303e-05 -3.50276e-05 -2.91672e-05
0.000149775 -4.49319e-05 -4.49327e-05 -2.12134e-05
0.000123201 -3.69637e-05 -3.69587e-05 -2.91673e-05
0.000119981 -3.5997e-05 -3.59931e-05 -2.91672e-05
8.77732e-05 -2.63359e-05 -2.63303e-05 -3.53527e-05
8.29446e-05 -2.48851e-05 -2.48827e-05 -3.53522e-05
0.0001377 -4.13075e-05 -4.13109e-05 -2.12134e-05
0.00014575 -4.37238e-05 -4.37254e-05 -2.12134e-05
8.53589e-05 -2.56105e-05 -2.56065e-05 -3.53525e-05
0.000110322 -3.30967e-05 -3.30966e-05 -2.91668e-05
0.000141725 -4.25156e-05 -4.25181e-05 -2.12134e-05
0.000116761 -3.50303e-05 -3.50276e-05 -2.91672e-05
0.000113542 -3.40635e-05 -3.40621e-05 -2.9167e-05
8.29446e-05 -2.48851e-05 -2.48827e-05 -3.53522e-05
7.81157e-05 -2.34335e-05 -2.34352e-05 -3.53511e-05
0.00012965 -3.8891e-05 -3.88965e-05 -2.12129e-05
0.0001377 -4.13075e-05 -4.13109e-05 -2.12134e-05
8.05302e-05 -2.41594e-05 -2.41589e-05 -3.53517e-05
0.000103883 -3.11628e-05 -3.11658e-05 -2.91659e-05
0.000133675 -4.00993e-05 -4.01037e-05 -2.12132e-05
0.000110322 -3.30967e-05 -3.30966e-05 -2.91668e-05
0.000107103 -3.21298e-05 -3.21312e-05 -2.91664e-05
7.81157e-05 -2.34335e-05 -2.34352e-05 -3.53511e-05
7.32857e-05 -2.19802e-05 -2.19881e-05 -3.53493e-05
0.0001216 -3.64741e-05 -3.64825e-05 -2.12114e-05
0.00012965 -3.8891e-05 -3.88965e-05 -2.12129e-05
7.57009e-05 -2.27072e-05 -2.27116e-05 -3.53503e-05
9.74435e-05 -2.92277e-05 -2.92354e-05 -2.91637e-05
0.000125625 -3.76826e-05 -3.76895e-05 -2.12124e-05
0.000103883 -3.11628e-05 -3.11658e-05 -2.91659e-05
0.000100663 -3.01954e-05 -3.02005e-05 -2.9165e-05
7.32857e-05 -2.19802e-05 -2.19881e-05 -3.53493e-05
6.84536e-05 -2.05231e-05 -2.05416e-05 -3.5346e-05
0.000113551 -3.40561e-05 -3.40692e-05 -2.12075e-05
0.0001216 -3.64741e-05 -3.64825e-05 -2.12114e-05
7.087e-05 -2.12523e-05 -2.12647e-05 -3.53479e-05
9.10032e-05 -2.72899e-05 -2.73057e-05 -2.9159e-05
0.000117575 -3.52653e-05 -3.52758e-05 -2.12099e-05
9.74435e-05 -2.92277e-05 -2.92354e-05 -2.91637e-05
9.42235e-05 -2.82592e-05 -2.82704e-05 -2.91618e-05
6.84536e-05 -2.05231e-05 -2.05416e-05 -3.5346e-05
6.36154e-05 -1.90584e-05 -1.90959e-05 -3.53406e-05
0.000105503 -3.16357e-05 -3.16575e-05 -2.11983e-05
0.000113551 -3.40561e-05 -3.40692e-05 -2.12075e-05
6.60356e-05 -1.97921e-05 -1.98187e-05 -3.53436e-05
8.45603e-05 -2.53466e-05 -2.53773e-05 -2.91494e-05
0.000109527 -3.28463e-05 -3.2863e-05 -2.12039e-05
9.10032e-05 -2.72899e-05 -2.73057e-05 -2.9159e-05
8.77822e-05 -2.63193e-05 -2.63413e-05 -2.91551e-05
6.36154e-05 -1.90584e-05 -1.90959e-05 -3.53406e-05
5.87657e-05 -1.75785e-05 -1.76517e-05 -3.53314e-05
9.74558e-05 -2.92102e-05 -2.92481e-05 -2.11791e-05
0.000105503 -3.16357e-05 -3.16575e-05 -2.11983e-05
6.11923e-05 -1.8321e-05 -1.83734e-05 -3.53366e-05
7.81109e-05 -2.33917e-05 -2.34511e-05 -2.91304e-05
0.00010148 -3.04239e-05 -3.04525e-05 -2.11904e-05
8.45603e-05 -2.53466e-05 -2.53773e-05 -2.91494e-05
8.13367e-05 -2.4371e-05 -2.44139e-05 -2.91413e-05
5.87657e-05 -1.75785e-05 -1.76517e-05 -3.53314e-05
5.38894e-05 -1.60708e-05 -1.6208e-05 -3.53176e-05
8.9411e-05 -2.67747e-05 -2.68441e-05 -2.11385e-05
9.74558e-05 -2.92102e-05 -2.92481e-05 -2.11791e-05
5.63325e-05 -1.68294e-05 -1.69299e-05 -3.53251e-05
7.16474e-05 -2.14156e-05 -2.15279e-05 -2.90941e-05
9.34326e-05 -2.79941e-05 -2.80451e-05 -2.11626e-05
7.81109e-05 -2.33917e-05 -2.34511e-05 -2.91304e-05
7.48816e-05 -2.24075e-05 -2.24889e-05 -2.91154e-05
5.38894e-05 -1.60708e-05 -1.6208e-05 -3.53176e-05
4.89676e-05 -1.45125e-05 -1.47665e-05 -3.5296e-05
8.13626e-05 -2.43209e-05 -2.44464e-05 -2.10617e-05
8.9411e-05 -2.67747e-05 -2.68441e-05 -2.11385e-05
5.14349e-05 -1.52995e-05 -1.54866e-05 -3.53082e-05
6.51536e-05 -1.93983e-05 -1.96094e-05 -2.90276e-05
8.53885e-05 -2.55512e-05 -2.56445e-05 -2.11058e-05
7.16474e-05 -2.14156e-05 -2.15279e-05 -2.90941e-05
6.84057e-05 -2.04131e-05 -2.05683e-05 -2.90651e-05
4.89676e-05 -1.45125e-05 -1.47665e-05 -3.5296e-05
4.39494e-05 -1.28712e-05 -1.33192e-05 -3.5269e-05
7.33159e-05 -2.18325e-05 -2.20643e-05 -2.09129e-05
8.13626e-05 -2.43209e-05 -2.44464e-05 -2.10617e-05
4.64761e-05 -1.37056e-05 -1.40445e-05 -3.52825e-05
5.86024e-05 -1.73143e-05 -1.76949e-05 -2.89107e-05
7.73372e-05 -2.30814e-05 -2.32525e-05 -2.09997e-05
6.51536e-05 -1.93983e-05 -1.96094e-05 -2.90276e-05
6.18871e-05 -1.83683e-05 -1.86509e-05 -2.89785e-05
4.39494e-05 -1.28712e-05 -1.33192e-05 -3.5269e-05
3.87862e-05 -1.1095e-05 -1.18677e-05 -3.52336e-05
6.52377e-05 -1.92905e-05 -1.96916e-05 -2.06562e-05
7.33159e-05 -2.18325e-05 -2.20643e-05 -2.09129e-05
4.13865e-05 -1.2002e-05 -1.25933e-05 -3.52532e-05
5.1937e-05 -1.51101e-05 -1.5783e-05 -2.87164e-05
6.92867e-05 -2.05723e-05 -2.08776e-05 -2.08004e-05
5.86024e-05 -1.73143e-05 -1.76949e-05 -2.89107e-05
5.52892e-05 -1.62281e-05 -1.67405e-05 -2.88225e-05
3.87862e-05 -1.1095e-05 -1.18677e-05 -3.52336e-05
3.33435e-05 -9.14053e-06 -1.03727e-05 -3.52205e-05
5.71399e-05 -1.66478e-05 -1.73538e-05 -2.02009e-05
6.52377e-05 -1.92905e-05 -1.96916e-05 -2.06562e-05
3.61161e-05 -1.01459e-05 -1.11301e-05 -3.52198e-05
4.50845e-05 -1.27464e-05 -1.38592e-05 -2.84141e-05
6.11838e-05 -1.79791e-05 -1.85163e-05 -2.04622e-05
5.1937e-05 -1.51101e-05 -1.5783e-05 -2.87164e-05
4.8538e-05 -1.39574e-05 -1.48203e-05 -2.85868e-05
3.33435e-05 -9.14053e-06 -1.03727e-05 -3.52205e-05
2.75624e-05 -6.96182e-06 -8.82883e-06 -3.52499e-05
4.88698e-05 -1.38926e-05 -1.49902e-05 -1.95121e-05
5.71399e-05 -1.66478e-05 -1.73538e-05 -2.02009e-05
3.04863e-05 -8.07073e-06 -9.60667e-06 -3.52299e-05
3.78754e-05 -1.01255e-05 -1.18928e-05 -2.80035e-05
5.3053e-05 -1.52994e-05 -1.61801e-05 -1.9886e-05
4.50845e-05 -1.27464e-05 -1.38592e-05 -2.84141e-05
4.15418e-05 -1.14598e-05 -1.28923e-05 -2.82084e-05
2.75624e-05 -6.96182e-06 -8.82883e-06 -3.52499e-05
2.12305e-05 -4.71211e-06 -7.07932e-06 -3.54924e-05
4.04372e-05 -1.0909e-05 -1.26549e-05 -1.84545e-05
4.88698e-05 -1.38926e-05 -1.49902e-05 -1.95121e-05
2.45008e-05 -5.84134e-06 -7.99693e-06 -3.53241e-05
3.01973e-05 -7.3427e-06 -9.79482e-06 -2.75566e-05
4.4646e-05 -1.24018e-05 -1.3819e-05 -1.90413e-05
3.78754e-05 -1.01255e-05 -1.18928e-05 -2.80035e-05
3.40918e-05 -8.76696e-06 -1.08535e-05 -2.77999e-05
2.12305e-05 -4.71211e-06 -7.07932e-06 -3.54924e-05
1.4658e-05 -2.76349e-06 -5.09765e-06 -3.60703e-05
3.12369e-05 -7.93789e-06 -9.98531e-06 -1.73133e-05
4.04372e-05 -1.0909e-05 -1.26549e-05 -1.84545e-05
1.79001e-05 -3.61448e-06 -6.12239e-06 -3.57339e-05
2.16835e-05 -4.50168e-06 -7.36363e-06 -2.74376e-05
3.60364e-05 -9.47138e-06 -1.1385e-05 -1.78633e-05
3.01973e-05 -7.3427e-06 -9.79482e-06 -2.75566e-05
2.60939e-05 -5.84956e-06 -8.67613e-06 -2.73675e-05
1.4658e-05 -2.76349e-06 -5.09765e-06 -3.60703e-05
8.26876e-06 -2.7267e-06 -2.37517e-06 -3.73897e-05
2.13187e-05 -4.98612e-06 -6.99967e-06 -1.65604e-05
3.12369e-05 -7.93789e-06 -9.98531e-06 -1.73133e-05
1.14618e-05 -2.4042e-06 -3.88182e-06 -3.6601e-05
1.28243e-05 -3.13576e-06 -4.15223e-06 -2.84338e-05
2.6258e-05 -6.25739e-06 -8.57169e-06 -1.6817e-05
2.16835e-05 -4.50168e-06 -7.36363e-06 -2.74376e-05
1.71867e-05 -3.54503e-06 -5.84645e-06 -2.78145e-05
8.26876e-06 -2.7267e-06 -2.37517e-06 -3.73897e-05
4.87303e-06 -7.4701e-06 1.11303e-06 -3.84366e-05
9.75392e-06 -5.24374e-06 -1.93294e-06 -1.93781e-05
2.13187e-05 -4.98612e-06 -6.99967e-06 -1.65604e-05
5.82413e-06 -4.07582e-06 -7.49276e-07 -3.80922e-05
4.70818e-06 -6.6534e-06 8.33666e-07 -3.20779e-05
1.59677e-05 -4.6747e-06 -4.83987e-06 -1.72161e-05
1.28243e-05 -3.13576e-06 -4.15223e-06 -2.84338e-05
8.64763e-06 -3.67745e-06 -2.13008e-06 -2.9626e-05
4.87303e-06 -7.4701e-06 1.11303e-06 -3.84366e-05
6.54777e-06 -2.23592e-05 6.77631e-06 -3.5373e-05
4.29846e-06 -1.86067e-05 6.13211e-06 -2.99055e-05
9.75392e-06 -5.24374e-06 -1.93294e-06 -1.93781e-05
5.18954e-06 -1.37486e-05 3.66818e-06 -3.79191e-05
7.06144e-06 -2.53587e-05 7.84167e-06 -3.50495e-05
5.06745e-06 -7.77275e-06 1.15941e-06 -2.31208e-05
4.70818e-06 -6.6534e-06 8.33666e-07 -3.20779e-05
3.38608e-06 -1.36215e-05 4.38662e-06 -3.46005e-05
6.54777e-06 -2.23592e-05 6.77631e-06 -3.5373e-05
1.15812e-05 -4.05362e-05 1.24093e-05 -1.87318e-05
2.61652e-05 -8.16665e-05 2.37863e-05 -3.04934e-05
4.29846e-06 -1.86067e-05 6.13211e-06 -2.99055e-05
8.74564e-06 -3.20966e-05 1.00076e-05 -2.92568e-05
2.09434e-05 -5.91881e-05 1.63906e-05 -1.76539e-05
1.036e-05 -4.36358e-05 1.42611e-05 -3.53998e-05
7.06144e-06 -2.53587e-05 7.84167e-06 -3.50495e-05
1.36189e-05 -4.16616e-05 1.20183e-05 -3.03825e-05
0.00135142 2.22045e-16 -0.000579178 -7.85209e-05
0.00152107 -0.000301692 -0.000522593 -0.000113962
0.00212271 -0.00067267 -0.000621445 3.84182e-05
0.00297627 -1.11022e-16 -0.00127554 -0.00101111
0.00144647 -0.000142311 -0.000558927 -0.000132144
0.00192538 -0.000467616 -0.000624758 -0.000147502
0.00236129 -0.000749184 -0.000690902 -0.000142954
0.00158949 0 -0.000681211 -0.00024577
0.0018574 -0.000316143 -0.00066054 -0.000230789
0.00152107 -0.000301692 -0.000522593 -0.000113962
0.00158069 -0.000428585 -0.000493759 -5.45659e-05
0.00209653 -0.000649566 -0.000620126 1.21035e-05
0.00212271 -0.00067267 -0.000621445 3.84182e-05
0.00156816 -0.000391106 -0.000504451 -8.2393e-05
0.00188265 -0.000548967 -0.000571577 -2.51915e-05
0.00209077 -0.000620773 -0.000629998 1.70149e-05
0.00192538 -0.000467616 -0.000624758 -0.000147502
0.00189868 -0.000530084 -0.000586542 -6.01654e-05
0.00158069 -0.000428585 -0.000493759 -5.45659e-05
0.00157322 -0.000464381 -0.000475218 -2.04923e-05
0.00212575 -0.00063108 -0.000640571 5.62306e-06
0.00209653 -0.000649566 -0.000620126 1.21035e-05
0.00157645 -0.000450841 -0.000482403 -3.22376e-05
0.0018628 -0.000558847 -0.000558837 -2.81739e-06
0.00211613 -0.0006481 -0.000629156 1.22264e-05
0.00188265 -0.000548967 -0.000571577 -2.51915e-05
0.00187234 -0.000556045 -0.000564125 -1.23462e-05
0.00157322 -0.000464381 -0.000475218 -2.04923e-05
0.00156218 -0.000469437 -0.000468317 -1.27602e-05
0.00213776 -0.000643256 -0.000640501 -6.22088e-07
0.00212575 -0.00063108 -0.000640571 5.62306e-06
0.0015691 -0.0004692 -0.000471387 -1.53153e-05
0.00185186 -0.000557769 -0.000554609 5.37933e-07
0.00213106 -0.000633173 -0.000641952 -1.07592e-06
0.0018628 -0.000558847 -0.000558837 -2.81739e-06
0.00185549 -0.000558874 -0.000555692 1.42844e-06
0.00156218 -0.000469437 -0.000468317 -1.27602e-05
0.00154939 -0.000468736 -0.000463136 -1.23138e-05
0.00214395 -0.000640953 -0.000644142 4.34211e-07
0.00213776 -0.000643256 -0.000640501 -6.22088e-07
0.00155481 -0.00046925 -0.000465241 -1.17812e-05
0.0018464 -0.000556013 -0.000553022 -2.65054e-06
0.002143 -0.00064424 -0.000642325 1.08194e-06
0.00185186 -0.000557769 -0.000554609 5.37933e-07
0.0018496 -0.000556852 -0.000554034 -1.52055e-06
0.00154939 -0.000468736 -0.000463136 -1.23138e-05
0.00153967 -0.000465347 -0.000460426 -1.4818e-05
0.00214164 -0.000642787 -0.000642364 -3.92583e-07
0.00214395 -0.000640953 -0.000644142 4.34211e-07
0.00154473 -0.000467264 -0.000461771 -1.36254e-05
0.00183968 -0.000553614 -0.000551172 -5.6251e-06
0.00214278 -0.000641202 -0.000643533 -6.74961e-07
0.0018464 -0.000556013 -0.000553022 -2.65054e-06
0.00184288 -0.0005549 -0.000551993 -3.96536e-06
0.00153967 -0.000465347 -0.000460426 -1.4818e-05
0.00153029 -0.000462013 -0.000457832 -1.69496e-05
0.00213646 -0.000640447 -0.00064115 2.09481e-08
0.00214164 -0.000642787 -0.000642364 -3.92583e-07
0.0015347 -0.000463614 -0.000459037 -1.58837e-05
0.00183257 -0.00055103 -0.000549233 -7.98507e-06
0.00213978 -0.000642165 -0.000641835 1.24453e-07
0.00183968 -0.000553614 -0.000551172 -5.6251e-06
0.00183638 -0.000552327 -0.000550309 -7.02996e-06
0.00153029 -0.000462013 -0.000457832 -1.69496e-05
0.00152187 -0.000458758 -0.000455617 -1.87019e-05
0.00212806 -0.000638492 -0.000638385 -1.2789e-07
0.00213646 -0.000640447 -0.00064115 2.09481e-08
0.00152612 -0.000460375 -0.000456746 -1.79394e-05
0.00182435 -0.000548304 -0.000546878 -9.51322e-06
0.00213234 -0.000639362 -0.000639847 -2.16276e-07
0.00183257 -0.00055103 -0.000549233 -7.98507e-06
0.00182849 -0.000549686 -0.000548057 -8.80139e-06
0.00152187 -0.000458758 -0.000455617 -1.87019e-05
0.00151355 -0.000455809 -0.000453316 -1.9776e-05
0.00211852 -0.000635483 -0.000635587 -1.56505e-08
0.00212806 -0.000638492 -0.000638385 -1.2789e-07
0.00151764 -0.000457244 -0.000454456 -1.92908e-05
0.00181565 -0.00054549 -0.000544354 -1.04263e-05
0.00212349 -0.000637119 -0.000637017 4.87375e-09
0.00182435 -0.000548304 -0.000546878 -9.51322e-06
0.0018201 -0.000546903 -0.000545655 -1.00498e-05
0.00151355 -0.000455809 -0.000453316 -1.9776e-05
0.00150545 -0.000453049 -0.000451031 -2.04601e-05
0.00210801 -0.000632444 -0.000632383 -3.59087e-08
0.00211852 -0.000635483 -0.000635587 -1.56505e-08
0.00150951 -0.000454411 -0.000452185 -2.01706e-05
0.00180648 -0.000542637 -0.000541647 -1.0956e-05
0.0021133 -0.000633949 -0.000634008 -6.31629e-08
0.00181565 -0.00054549 -0.000544354 -1.04263e-05
0.00181108 -0.000544067 -0.000543007 -1.07247e-05
0.00150545 -0.000453049 -0.000451031 -2.04601e-05
0.00149738 -0.000450436 -0.000448689 -2.0833e-05
0.00209714 -0.000629159 -0.000629135 -8.42326e-09
0.00210801 -0.000632444 -0.000632383 -3.59087e-08
0.0015014 -0.000451727 -0.00044986 -2.06717e-05
0.00179711 -0.000539755 -0.000538867 -1.12348e-05
0.00210262 -0.000630831 -0.000630768 -3.86204e-09
0.00180648 -0.000542637 -0.000541647 -1.0956e-05
0.00180183 -0.000541198 -0.000540269 -1.11204e-05
0.00149738 -0.000450436 -0.000448689 -2.0833e-05
0.00148934 -0.000447908 -0.000446329 -2.10428e-05
0.00208603 -0.000625846 -0.000625793 -8.87519e-09
0.00209714 -0.000629159 -0.000629135 -8.42326e-09
0.00149336 -0.000449164 -0.000447513 -2.09558e-05
0.00178759 -0.000536864 -0.000536025 -1.13831e-05
0.0020916 -0.000627501 -0.00062747 -1.67095e-08
0.00179711 -0.000539755 -0.000538867 -1.12348e-05
0.00179236 -0.00053831 -0.000537449 -1.13208e-05
0.00148934 -0.000447908 -0.000446329 -2.10428e-05
0.0014813 -0.000445431 -0.000443945 -2.11478e-05
0.00207483 -0.000622482 -0.000622436 -2.75538e-09
0.00208603 -0.000625846 -0.000625793 -8.8752e-09
0.00148532 -0.000446665 -0.000445138 -2.11037e-05
0.00177801 -0.000533965 -0.00053316 -1.14536e-05
0.00208044 -0.00062417 -0.000624116 -1.66667e-09
0.00178759 -0.000536864 -0.000536025 -1.13831e-05
0.00178281 -0.000535415 -0.000534596 -1.14252e-05
0.0014813 -0.000445431 -0.000443945 -2.11478e-05
0.00147327 -0.000442981 -0.000441553 -2.12015e-05
0.00206358 -0.00061911 -0.00061906 -1.87772e-09
0.00207483 -0.000622482 -0.000622436 -2.75538e-09
0.00147729 -0.000444204 -0.000442751 -2.11797e-05
0.00176838 -0.000531065 -0.000530278 -1.14877e-05
0.00206921 -0.000620796 -0.000620749 -3.89496e-09
0.00177801 -0.000533965 -0.00053316 -1.14536e-05
0.00177319 -0.000532515 -0.00053172 -1.14738e-05
0.00147327 -0.000442981 -0.000441553 -2.12015e-05
0.00146524 -0.000440546 -0.000439152 -2.12262e-05
0.00205232 -0.00061573 -0.000615681 -6.85841e-10
0.00206358 -0.00061911 -0.00061906 -1.87772e-09
0.00146925 -0.000441762 -0.000440353 -2.12161e-05
0.00175874 -0.000528163 -0.00052739 -1.1502e-05
0.00205795 -0.000617421 -0.00061737 -4.08582e-10
0.00176838 -0.000531065 -0.000530278 -1.14877e-05
0.00176356 -0.000529614 -0.000528835 -1.14964e-05
0.00146524 -0.000440546 -0.000439152 -2.12262e-05
0.0014572 -0.000438118 -0.000436749 -2.12376e-05
0.00204105 -0.000612348 -0.000612299 -3.19518e-10
0.00205232 -0.00061573 -0.000615681 -6.85841e-10
0.00146122 -0.000439331 -0.000437951 -2.12331e-05
0.00174909 -0.00052526 -0.000524498 -1.1508e-05
0.00204668 -0.000614039 -0.00061399 -7.70844e-10
0.00175874 -0.000528163 -0.00052739 -1.1502e-05
0.00175391 -0.000526711 -0.000525944 -1.15057e-05
0.0014572 -0.000438118 -0.000436749 -2.12376e-05
0.00144916 -0.000435693 -0.000434343 -2.12423e-05
0.00202977 -0.000608965 -0.000608917 -1.40517e-10
0.00204105 -0.000612348 -0.000612299 -3.19518e-10
0.00145318 -0.000436905 -0.000435546 -2.12405e-05
0.00173943 -0.000522358 -0.000521604 -1.15099e-05
0.00203541 -0.000610657 -0.000610608 -6.48166e-11
0.00174909 -0.00052526 -0.000524498 -1.1508e-05
0.00174426 -0.000523809 -0.000523051 -1.15093e-05
0.00144916 -0.000435693 -0.000434343 -2.12423e-05
0.00144112 -0.00043327 -0.000431936 -2.12441e-05
0.0020185 -0.000605582 -0.000605534 -4.47918e-11
0.00202977 -0.000608965 -0.000608917 -1.40517e-10
0.00144514 -0.000434481 -0.000433139 -2.12435e-05
0.00172978 -0.000519455 -0.00051871 -1.15104e-05
0.00202413 -0.000607274 -0.000607226 -1.28094e-10
0.00173943 -0.000522358 -0.000521604 -1.15099e-05
0.00173461 -0.000520906 -0.000520157 -1.15103e-05
0.00144112 -0.00043327 -0.000431936 -2.12441e-05
0.00143308 -0.000430847 -0.000429528 -2.12446e-05
0.00200722 -0.0006022 -0.000602152 -3.56767e-11
0.0020185 -0.000605582 -0.000605534 -4.47918e-11
0.0014371 -0.000432058 -0.000430732 -2.12445e-05
0.00172012 -0.000516552 -0.000515815 -1.15103e-05
0.00201286 -0.000603891 -0.000603843 -1.40553e-11
0.00172978 -0.000519455 -0.00051871 -1.15104e-05
0.00172495 -0.000518003 -0.000517263 -1.15104e-05
0.00143308 -0.000430847 -0.000429528 -2.12446e-05
0.00142504 -0.000428424 -0.00042712 -2.12447e-05
0.00199595 -0.000598818 -0.00059877 -1.7963e-11
0.00200722 -0.0006022 -0.000602152 -3.56767e-11
0.00142906 -0.000429635 -0.000428324 -2.12447e-05
0.00171046 -0.000513649 -0.000512921 -1.15101e-05
0.00200159 -0.000600509 -0.000600461 -2.88095e-11
0.00172012 -0.000516552 -0.000515815 -1.15103e-05
0.00171529 -0.000515101 -0.000514368 -1.15102e-05
0.00142504 -0.000428424 -0.00042712 -2.12447e-05
0.001417 -0.000426001 -0.000424712 -2.12445e-05
0.00198468 -0.000595435 -0.000595389 -2.47119e-11
0.00199595 -0.000598818 -0.00059877 -1.7963e-11
0.00142102 -0.000427212 -0.000425916 -2.12446e-05
0.00170081 -0.000510747 -0.000510026 -1.15098e-05
0.00199031 -0.000597126 -0.000597079 -1.86349e-11
0.00171046 -0.000513649 -0.000512921 -1.15101e-05
0.00170564 -0.000512198 -0.000511473 -1.151e-05
0.001417 -0.000426001 -0.000424712 -2.12445e-05
0.00140895 -0.000423578 -0.000422304 -2.12443e-05
0.0019734 -0.000592053 -0.000592007 -2.27382e-11
0.00198468 -0.000595435 -0.000595389 -2.47119e-11
0.00141297 -0.00042479 -0.000423508 -2.12444e-05
0.00169115 -0.000507844 -0.000507131 -1.15096e-05
0.00197904 -0.000593744 -0.000593698 -2.29056e-11
0.00170081 -0.000510747 -0.000510026 -1.15098e-05
0.00169598 -0.000509295 -0.000508579 -1.15097e-05
0.00140895 -0.000423578 -0.000422304 -2.12443e-05
0.00140091 -0.000421156 -0.000419895 -2.12441e-05
0.00196213 -0.000588671 -0.000588625 -2.62198e-11
0.0019734 -0.000592053 -0.000592007 -2.27382e-11
0.00140493 -0.000422367 -0.0004211 -2.12442e-05
0.00168149 -0.000504941 -0.000504237 -1.15094e-05
0.00196777 -0.000590362 -0.000590316 -2.46638e-11
0.00169115 -0.000507844 -0.000507131 -1.15096e-05
0.00168632 -0.000506392 -0.000505684 -1.15095e-05
0.00140091 -0.000421156 -0.000419895 -2.12441e-05
0.00139287 -0.000418733 -0.000417487 -2.12438e-05
0.00195086 -0.000585289 -0.000585243 -2.62153e-11
0.00196213 -0.000588671 -0.000588625 -2.62198e-11
0.00139689 -0.000419944 -0.000418691 -2.1244e-05
0.00167184 -0.000502038 -0.000501342 -1.15093e-05
0.00195649 -0.00058698 -0.000586934 -2.578e-11
0.00168149 -0.000504941 -0.000504237 -1.15094e-05
0.00167666 -0.00050349 -0.000502789 -1.15093e-05
0.00139287 -0.000418733 -0.000417487 -2.12438e-05
0.00138483 -0.00041631 -0.000415079 -2.12436e-05
0.00193958 -0.000581907 -0.000581862 -2.72806e-11
0.00195086 -0.000585289 -0.000585243 -2.62183e-11
0.00138885 -0.000417522 -0.000416283 -2.12437e-05
0.00166218 -0.000499136 -0.000498447 -1.15091e-05
0.00194522 -0.000583598 -0.000583552 -2.69547e-11
0.00167184 -0.000502038 -0.000501342 -1.15093e-05
0.00166701 -0.000500587 -0.000499894 -1.15092e-05
0.00138483 -0.00041631 -0.000415079 -2.12436e-05
0.00137679 -0.000413888 -0.00041267 -2.12434e-05
0.00192831 -0.000578525 -0.00057848 -2.72729e-11
0.00193958 -0.000581907 -0.000581862 -2.72806e-11
0.00138081 -0.000415099 -0.000413875 -2.12435e-05
0.00165252 -0.000496233 -0.000495552 -1.1509e-05
0.00193395 -0.000580216 -0.000580171 -2.71268e-11
0.00166218 -0.000499136 -0.000498447 -1.15091e-05
0.00165735 -0.000497684 -0.000497 -1.1509e-05
0.00137679 -0.000413888 -0.00041267 -2.12434e-05
0.00136874 -0.000411465 -0.000410262 -2.12432e-05
0.00191704 -0.000575143 -0.000575098 -2.74791e-11
0.00192831 -0.000578525 -0.00057848 -2.72762e-11
0.00137276 -0.000412676 -0.000411466 -2.12433e-05
0.00164286 -0.00049333 -0.000492657 -1.15088e-05
0.00192267 -0.000576834 -0.000576789 -2.74459e-11
0.00165252 -0.000496233 -0.000495552 -1.1509e-05
0.00164769 -0.000494782 -0.000494105 -1.15089e-05
0.00136874 -0.000411465 -0.000410262 -2.12432e-05
0.0013607 -0.000409043 -0.000407853 -2.12429e-05
0.00190577 -0.000571761 -0.000571716 -2.7411e-11
0.00191704 -0.000575143 -0.000575098 -2.74791e-11
0.00136472 -0.000410254 -0.000409058 -2.1243e-05
0.00163321 -0.000490428 -0.000489763 -1.15087e-05
0.0019114 -0.000573452 -0.000573407 -2.73926e-11
0.00164286 -0.00049333 -0.000492657 -1.15088e-05
0.00163804 -0.000491879 -0.00049121 -1.15087e-05
0.0013607 -0.000409043 -0.000407853 -2.12429e-05
0.00135266 -0.00040662 -0.000405445 -2.12427e-05
0.00189449 -0.000568379 -0.000568335 -2.73802e-11
0.00190577 -0.000571761 -0.000571716 -2.74151e-11
0.00135668 -0.000407831 -0.000406649 -2.12428e-05
0.00162355 -0.000487525 -0.000486868 -1.15086e-05
0.00190013 -0.00057007 -0.000570026 -2.74101e-11
0.00163321 -0.000490428 -0.000489763 -1.15087e-05
0.00162838 -0.000488977 -0.000488315 -1.15086e-05
0.00135266 -0.00040662 -0.000405445 -2.12427e-05
0.00134462 -0.000404198 -0.000403036 -2.12425e-05
0.00188322 -0.000564997 -0.000564953 -2.72882e-11
0.00189449 -0.000568379 -0.000568335 -2.73802e-11
0.00134864 -0.000405409 -0.000404241 -2.12426e-05
0.00161389 -0.000484623 -0.000483973 -1.15084e-05
0.00188886 -0.000566688 -0.000566644 -2.73238e-11
0.00162355 -0.000487525 -0.000486868 -1.15086e-05
0.00161872 -0.000486074 -0.00048542 -1.15085e-05
0.00134462 -0.000404198 -0.000403036 -2.12425e-05
0.00133657 -0.000401775 -0.000400628 -2.12423e-05
0.00187195 -0.000561615 -0.000561571 -2.72027e-11
0.00188322 -0.000564997 -0.000564953 -2.72924e-11
0.00134059 -0.000402986 -0.000401832 -2.12424e-05
0.00160424 -0.00048172 -0.000481078 -1.15083e-05
0.00187758 -0.000563306 -0.000563262 -2.72528e-11
0.00161389 -0.000484623 -0.000483973 -1.15084e-05
0.00160906 -0.000483171 -0.000482525 -1.15084e-05
0.00133657 -0.000401775 -0.000400628 -2.12423e-05
0.00132853 -0.000399353 -0.000398219 -2.12421e-05
0.00186068 -0.000558233 -0.00055819 -2.71014e-11
0.00187195 -0.000561615 -0.000561571 -2.72027e-11
0.00133255 -0.000400564 -0.000399423 -2.12422e-05
0.00159458 -0.000478818 -0.000478183 -1.15082e-05
0.00186631 -0.000559924 -0.000559881 -2.71511e-11
0.00160424 -0.00048172 -0.000481078 -1.15083e-05
0.00159941 -0.000480269 -0.000479631 -1.15082e-05
0.00132853 -0.000399353 -0.000398219 -2.12421e-05
0.00132049 -0.000396931 -0.00039581 -2.12419e-05
0.0018494 -0.000554851 -0.000554808 -2.69886e-11
0.00186068 -0.000558233 -0.00055819 -2.71042e-11
0.00132451 -0.000398142 -0.000397015 -2.1242e-05
0.00158492 -0.000475915 -0.000475288 -1.15081e-05
0.00185504 -0.000556542 -0.000556499 -2.70473e-11
0.00159458 -0.000478818 -0.000478183 -1.15082e-05
0.00158975 -0.000477366 -0.000476736 -1.15081e-05
0.00132049 -0.000396931 -0.00039581 -2.12419e-05
0.00131244 -0.000394508 -0.000393401 -2.12417e-05
0.00183813 -0.000551469 -0.000551426 -2.68626e-11
0.0018494 -0.000554851 -0.000554808 -2.69886e-11
0.00131647 -0.000395719 -0.000394606 -2.12418e-05
0.00157526 -0.000473013 -0.000472393 -1.15079e-05
0.00184377 -0.00055316 -0.000553117 -2.69292e-11
0.00158492 -0.000475915 -0.000475288 -1.15081e-05
0.00158009 -0.000474464 -0.000473841 -1.1508e-05
0.00131244 -0.000394508 -0.000393401 -2.12417e-05
0.0013044 -0.000392086 -0.000390993 -2.12415e-05
0.00182686 -0.000548087 -0.000548045 -2.67317e-11
0.00183813 -0.000551469 -0.000551426 -2.68625e-11
0.00130842 -0.000393297 -0.000392197 -2.12416e-05
0.00156561 -0.00047011 -0.000469498 -1.15078e-05
0.00183249 -0.000549778 -0.000549736 -2.68014e-11
0.00157526 -0.000473013 -0.000472393 -1.15079e-05
0.00157043 -0.000471562 -0.000470946 -1.15079e-05
0.0013044 -0.000392086 -0.000390993 -2.12415e-05
0.00129636 -0.000389664 -0.000388584 -2.12413e-05
0.00181559 -0.000544705 -0.000544663 -2.6598e-11
0.00182686 -0.000548087 -0.000548045 -2.67317e-11
0.00130038 -0.000390875 -0.000389788 -2.12414e-05
0.00155595 -0.000467208 -0.000466603 -1.15077e-05
0.00182122 -0.000546396 -0.000546354 -2.66669e-11
0.00156561 -0.00047011 -0.000469498 -1.15078e-05
0.00156078 -0.000468659 -0.000468051 -1.15078e-05
0.00129636 -0.000389664 -0.000388584 -2.12413e-05
0.00128832 -0.000387242 -0.000386175 -2.12411e-05
0.00180431 -0.000541323 -0.000541281 -2.64434e-11
0.00181559 -0.000544705 -0.000544663 -2.65888e-11
0.00129234 -0.000388453 -0.000387379 -2.12412e-05
0.00154629 -0.000464305 -0.000463708 -1.15076e-05
0.00180995 -0.000543014 -0.000542972 -2.65201e-11
0.00155595 -0.000467208 -0.000466603 -1.15077e-05
0.00155112 -0.000465757 -0.000465156 -1.15076e-05
0.00128832 -0.000387242 -0.000386175 -2.12411e-05
0.00128027 -0.000384819 -0.000383766 -2.12409e-05
0.00179304 -0.00053794 -0.0005379 -2.62869e-11
0.00180431 -0.000541323 -0.000541281 -2.64434e-11
0.0012843 -0.00038603 -0.000384971 -2.1241e-05
0.00153663 -0.000461403 -0.000460813 -1.15075e-05
0.00179868 -0.000539631 -0.000539591 -2.63719e-11
0.00154629 -0.000464305 -0.000463708 -1.15076e-05
0.00154146 -0.000462854 -0.000462261 -1.15075e-05
0.00128027 -0.000384819 -0.000383766 -2.12409e-05
0.00127223 -0.000382397 -0.000381357 -2.12407e-05
0.00178177 -0.000534558 -0.000534518 -2.61449e-11
0.00179304 -0.00053794 -0.0005379 -2.62906e-11
0.00127625 -0.000383608 -0.000382562 -2.12408e-05
0.00152698 -0.000458501 -0.000457918 -1.15073e-05
0.0017874 -0.000536249 -0.000536209 -2.6221e-11
0.00153663 -0.000461403 -0.000460813 -1.15075e-05
0.00153181 -0.000459952 -0.000459366 -1.15074e-05
0.00127223 -0.000382397 -0.000381357 -2.12407e-05
0.00126419 -0.000379975 -0.000378948 -2.12405e-05
0.00177049 -0.000531176 -0.000531137 -2.59536e-11
0.00178177 -0.000534558 -0.000534518 -2.61449e-11
0.00126821 -0.000381186 -0.000380153 -2.12406e-05
0.00151732 -0.000455598 -0.000455023 -1.15072e-05
0.00177613 -0.000532867 -0.000532827 -2.60522e-11
0.00152698 -0.000458501 -0.000457918 -1.15073e-05
0.00152215 -0.00045705 -0.000456471 -1.15073e-05
0.00126419 -0.000379975 -0.000378948 -2.12405e-05
0.00125614 -0.000377553 -0.000376539 -2.12403e-05
0.00175922 -0.000527794 -0.000527755 -2.58127e-11
0.00177049 -0.000531176 -0.000531137 -2.59536e-11
0.00126017 -0.000378764 -0.000377744 -2.12404e-05
0.00150766 -0.000452696 -0.000452128 -1.15071e-05
0.00176486 -0.000529485 -0.000529446 -2.58902e-11
0.00151732 -0.000455598 -0.000455023 -1.15072e-05
0.00151249 -0.000454147 -0.000453576 -1.15072e-05
0.00125614 -0.000377553 -0.000376539 -2.12403e-05
0.0012481 -0.000375131 -0.00037413 -2.12401e-05
0.00174795 -0.000524412 -0.000524373 -2.56458e-11
0.00175922 -0.000527794 -0.000527755 -2.58272e-11
0.00125212 -0.000376342 -0.000375335 -2.12402e-05
0.001498 -0.000449794 -0.000449233 -1.1507e-05
0.00175359 -0.000526103 -0.000526064 -2.57482e-11
0.00150766 -0.000452696 -0.000452128 -1.15071e-05
0.00150283 -0.000451245 -0.00045068 -1.1507e-05
0.0012481 -0.000375131 -0.00037413 -2.12401e-05
0.00124006 -0.000372709 -0.000371721 -2.12399e-05
0.00173668 -0.00052103 -0.000520992 -2.54803e-11
0.00174795 -0.000524412 -0.000524373 -2.56458e-11
0.00124408 -0.00037392 -0.000372926 -2.124e-05
0.00148835 -0.000446892 -0.000446338 -1.15069e-05
0.00174231 -0.000522721 -0.000522682 -2.55665e-11
0.001498 -0.000449794 -0.000449233 -1.1507e-05
0.00149318 -0.000448343 -0.000447785 -1.15069e-05
0.00124006 -0.000372709 -0.000371721 -2.12399e-05
0.00123202 -0.000370287 -0.000369312 -2.12397e-05
0.0017254 -0.000517648 -0.00051761 -2.53167e-11
0.00173668 -0.00052103 -0.000520992 -2.54877e-11
0.00123604 -0.000371498 -0.000370516 -2.12398e-05
0.00147869 -0.000443989 -0.000443443 -1.15067e-05
0.00173104 -0.000519339 -0.000519301 -2.54031e-11
0.00148835 -0.000446892 -0.000446338 -1.15069e-05
0.00148352 -0.00044544 -0.00044489 -1.15068e-05
0.00123202 -0.000370287 -0.000369312 -2.12397e-05
0.00122397 -0.000367866 -0.000366903 -2.12395e-05
0.00171413 -0.000514266 -0.000514228 -2.51655e-11
0.0017254 -0.000517648 -0.00051761 -2.53167e-11
0.00122799 -0.000369076 -0.000368107 -2.12396e-05
0.00146903 -0.000441087 -0.000440547 -1.15066e-05
0.00171977 -0.000515957 -0.000515919 -2.52333e-11
0.00147869 -0.000443989 -0.000443443 -1.15067e-05
0.00147386 -0.000442538 -0.000441995 -1.15067e-05
0.00122397 -0.000367866 -0.000366903 -2.12395e-05
0.00121593 -0.000365444 -0.000364493 -2.12393e-05
0.00170286 -0.000510884 -0.000510847 -2.4982e-11
0.00171413 -0.000514266 -0.000514228 -2.51527e-11
0.00121995 -0.000366655 -0.000365698 -2.12394e-05
0.00145937 -0.000438185 -0.000437652 -1.15065e-05
0.0017085 -0.000512575 -0.000512537 -2.50833e-11
0.00146903 -0.000441087 -0.000440547 -1.15066e-05
0.0014642 -0.000439636 -0.0004391 -1.15065e-05
0.00121593 -0.000365444 -0.000364493 -2.12393e-05
0.00120789 -0.000363022 -0.000362084 -2.12391e-05
0.00169159 -0.000507502 -0.000507465 -2.48375e-11
0.00170286 -0.000510884 -0.000510847 -2.4982e-11
0.00121191 -0.000364233 -0.000363289 -2.12392e-05
0.00144972 -0.000435283 -0.000434757 -1.15064e-05
0.00169722 -0.000509193 -0.000509156 -2.4902e-11
0.00145937 -0.000438185 -0.000437652 -1.15065e-05
0.00145454 -0.000436734 -0.000436205 -1.15064e-05
0.00120789 -0.000363022 -0.000362084 -2.12391e-05
0.00119984 -0.0003606 -0.000359675 -2.12389e-05
0.00168031 -0.00050412 -0.000504083 -2.46763e-11
0.00169159 -0.000507502 -0.000507465 -2.48316e-11
0.00120386 -0.000361811 -0.00036088 -2.1239e-05
0.00144006 -0.000432381 -0.000431862 -1.15062e-05
0.00168595 -0.000505811 -0.000505774 -2.47723e-11
0.00144972 -0.000435283 -0.000434757 -1.15064e-05
0.00144489 -0.000433832 -0.000433309 -1.15063e-05
0.00119984 -0.0003606 -0.000359675 -2.12389e-05
0.0011918 -0.000358179 -0.000357266 -2.12387e-05
0.00166904 -0.000500738 -0.000500702 -2.4476e-11
0.00168031 -0.00050412 -0.000504083 -2.46763e-11
0.00119582 -0.000359389 -0.00035847 -2.12388e-05
0.0014304 -0.000429478 -0.000428967 -1.15061e-05
0.00167468 -0.000502429 -0.000502393 -2.45566e-11
0.00144006 -0.000432381 -0.000431862 -1.15062e-05
0.00143523 -0.000430929 -0.000430414 -1.15062e-05
0.0011918 -0.000358179 -0.000357266 -2.12387e-05
0.00118375 -0.000355757 -0.000354856 -2.12385e-05
0.00165777 -0.000497356 -0.00049732 -2.4365e-11
0.00166904 -0.000500738 -0.000500702 -2.44697e-11
0.00118778 -0.000356968 -0.000356061 -2.12386e-05
0.00142074 -0.000426576 -0.000426071 -1.1506e-05
0.00166341 -0.000499047 -0.000499011 -2.44227e-11
0.0014304 -0.000429478 -0.000428967 -1.15061e-05
0.00142557 -0.000428027 -0.000427519 -1.1506e-05
0.00118375 -0.000355757 -0.000354856 -2.12385e-05
0.00117571 -0.000353335 -0.000352447 -2.12382e-05
0.0016465 -0.000493974 -0.000493939 -2.41584e-11
0.00165777 -0.000497356 -0.00049732 -2.4365e-11
0.00117973 -0.000354546 -0.000353651 -2.12383e-05
0.00141108 -0.000423674 -0.000423176 -1.15058e-05
0.00165213 -0.000495665 -0.000495629 -2.42856e-11
0.00142074 -0.000426576 -0.000426071 -1.1506e-05
0.00141591 -0.000425125 -0.000424624 -1.15059e-05
0.00117571 -0.000353335 -0.000352447 -2.12382e-05
0.00116767 -0.000350914 -0.000350037 -2.1238e-05
0.00163523 -0.000490592 -0.000490557 -2.39963e-11
0.0016465 -0.000493974 -0.000493939 -2.41584e-11
0.00117169 -0.000352124 -0.000351242 -2.12381e-05
0.00140143 -0.000420772 -0.000420281 -1.15057e-05
0.00164086 -0.000492283 -0.000492248 -2.40693e-11
0.00141108 -0.000423674 -0.000423176 -1.15058e-05
0.00140626 -0.000422223 -0.000421728 -1.15058e-05
0.00116767 -0.000350914 -0.000350037 -2.1238e-05
0.00115962 -0.000348492 -0.000347628 -2.12378e-05
0.00162395 -0.00048721 -0.000487175 -2.3835e-11
0.00163523 -0.000490592 -0.000490557 -2.39913e-11
0.00116365 -0.000349703 -0.000348833 -2.12379e-05
0.00139177 -0.00041787 -0.000417385 -1.15056e-05
0.00162959 -0.000488901 -0.000488866 -2.39353e-11
0.00140143 -0.000420772 -0.000420281 -1.15057e-05
0.0013966 -0.000419321 -0.000418833 -1.15057e-05
0.00115962 -0.000348492 -0.000347628 -2.12378e-05
0.00115158 -0.000346071 -0.000345218 -2.12376e-05
0.00161268 -0.000483828 -0.000483794 -2.36758e-11
0.00162395 -0.00048721 -0.000487175 -2.38492e-11
0.0011556 -0.000347281 -0.000346423 -2.12377e-05
0.00138211 -0.000414968 -0.00041449 -1.15055e-05
0.00161832 -0.000485519 -0.000485485 -2.37469e-11
0.00139177 -0.00041787 -0.000417385 -1.15056e-05
0.00138694 -0.000416419 -0.000415938 -1.15055e-05
0.00115158 -0.000346071 -0.000345218 -2.12376e-05
0.00114354 -0.000343649 -0.000342809 -2.12374e-05
0.00160141 -0.000480446 -0.000480412 -2.3506e-11
0.00161268 -0.000483828 -0.000483794 -2.36758e-11
0.00114756 -0.00034486 -0.000344014 -2.12375e-05
0.00137245 -0.000412066 -0.000411595 -1.15053e-05
0.00160704 -0.000482137 -0.000482103 -2.35962e-11
0.00138211 -0.000414968 -0.00041449 -1.15055e-05
0.00137728 -0.000413517 -0.000413042 -1.15054e-05
0.00114354 -0.000343649 -0.000342809 -2.12374e-05
0.00113549 -0.000341228 -0.000340399 -2.12372e-05
0.00159014 -0.000477064 -0.000477031 -2.33526e-11
0.00160141 -0.000480446 -0.000480412 -2.3506e-11
0.00113951 -0.000342439 -0.000341604 -2.12373e-05
0.0013628 -0.000409164 -0.000408699 -1.15052e-05
0.00159577 -0.000478755 -0.000478721 -2.34252e-11
0.00137245 -0.000412066 -0.000411595 -1.15053e-05
0.00136762 -0.000410615 -0.000410147 -1.15053e-05
0.00113549 -0.000341228 -0.000340399 -2.12372e-05
0.00112745 -0.000338806 -0.00033799 -2.12369e-05
0.00157886 -0.000473682 -0.000473649 -2.31865e-11
0.00159014 -0.000477064 -0.000477031 -2.33596e-11
0.00113147 -0.000340017 -0.000339194 -2.12371e-05
0.00135314 -0.000406262 -0.000405804 -1.15051e-05
0.0015845 -0.000475373 -0.00047534 -2.32744e-11
0.0013628 -0.000409164 -0.000408699 -1.15052e-05
0.00135797 -0.000407713 -0.000407252 -1.15051e-05
0.00112745 -0.000338806 -0.00033799 -2.12369e-05
0.0011194 -0.000336385 -0.00033558 -2.12367e-05
0.00156759 -0.0004703 -0.000470267 -2.30142e-11
0.00157886 -0.000473682 -0.000473649 -2.31912e-11
0.00112343 -0.000337596 -0.000336785 -2.12368e-05
0.00134348 -0.00040336 -0.000402909 -1.15049e-05
0.00157323 -0.000471991 -0.000471958 -2.31086e-11
0.00135314 -0.000406262 -0.000405804 -1.15051e-05
0.00134831 -0.000404811 -0.000404356 -1.1505e-05
0.0011194 -0.000336385 -0.00033558 -2.12367e-05
0.00111136 -0.000333964 -0.00033317 -2.12365e-05
0.00155632 -0.000466918 -0.000466886 -2.28526e-11
0.00156759 -0.0004703 -0.000470267 -2.30142e-11
0.00111538 -0.000335174 -0.000334375 -2.12366e-05
0.00133382 -0.000400459 -0.000400013 -1.15048e-05
0.00156195 -0.000468609 -0.000468577 -2.29593e-11
0.00134348 -0.00040336 -0.000402909 -1.15049e-05
0.00133865 -0.000401909 -0.000401461 -1.15049e-05
0.00111136 -0.000333964 -0.00033317 -2.12365e-05
0.00110332 -0.000331543 -0.00033076 -2.12363e-05
0.00154505 -0.000463536 -0.000463504 -2.26898e-11
0.00155632 -0.000466918 -0.000466886 -2.28526e-11
0.00110734 -0.000332753 -0.000331965 -2.12364e-05
0.00132416 -0.000397557 -0.000397118 -1.15047e-05
0.00155068 -0.000465227 -0.000465195 -2.27651e-11
0.00133382 -0.000400459 -0.000400013 -1.15048e-05
0.00132899 -0.000399008 -0.000398565 -1.15047e-05
0.00110332 -0.000331543 -0.00033076 -2.12363e-05
0.00109527 -0.000329121 -0.000328351 -2.12361e-05
0.00153377 -0.000460154 -0.000460123 -2.25163e-11
0.00154505 -0.000463536 -0.000463504 -2.26818e-11
0.00109929 -0.000330332 -0.000329556 -2.12362e-05
0.00131451 -0.000394655 -0.000394222 -1.15045e-05
0.00153941 -0.000461845 -0.000461813 -2.26012e-11
0.00132416 -0.000397557 -0.000397118 -1.15047e-05
0.00131934 -0.000396106 -0.00039567 -1.15046e-05
0.00109527 -0.000329121 -0.000328351 -2.12361e-05
0.00108723 -0.0003267 -0.000325941 -2.12358e-05
0.0015225 -0.000456772 -0.000456741 -2.23645e-11
0.00153377 -0.000460154 -0.000460123 -2.25296e-11
0.00109125 -0.000327911 -0.000327146 -2.12359e-05
0.00130485 -0.000391753 -0.000391327 -1.15044e-05
0.00152814 -0.000458463 -0.000458432 -2.24459e-11
0.00131451 -0.000394655 -0.000394222 -1.15045e-05
0.00130968 -0.000393204 -0.000392774 -1.15045e-05
0.00108723 -0.0003267 -0.000325941 -2.12358e-05
0.00107918 -0.000324279 -0.000323531 -2.12356e-05
0.00151123 -0.00045339 -0.00045336 -2.22051e-11
0.0015225 -0.000456772 -0.000456741 -2.23645e-11
0.00108321 -0.00032549 -0.000324736 -2.12357e-05
0.00129519 -0.000388851 -0.000388431 -1.15043e-05
0.00151687 -0.000455081 -0.00045505 -2.2292e-11
0.00130485 -0.000391753 -0.000391327 -1.15044e-05
0.00130002 -0.000390302 -0.000389879 -1.15043e-05
0.00107918 -0.000324279 -0.000323531 -2.12356e-05
0.00107114 -0.000321858 -0.000321121 -2.12354e-05
0.00149996 -0.000450008 -0.000449978 -2.20436e-11
0.00151123 -0.00045339 -0.00045336 -2.22051e-11
0.00107516 -0.000323069 -0.000322326 -2.12355e-05
0.00128553 -0.000385949 -0.000385536 -1.15041e-05
0.00150559 -0.000451699 -0.000451669 -2.21296e-11
0.00129519 -0.000388851 -0.000388431 -1.15043e-05
0.00129036 -0.0003874 -0.000386983 -1.15042e-05
0.00107114 -0.000321858 -0.000321121 -2.12354e-05
0.0010631 -0.000319437 -0.000318711 -2.12352e-05
0.00148868 -0.000446626 -0.000446596 -2.1858e-11
0.00149996 -0.000450008 -0.000449978 -2.20452e-11
0.00106712 -0.000320648 -0.000319916 -2.12353e-05
0.00127587 -0.000383048 -0.00038264 -1.1504e-05
0.00149432 -0.000448317 -0.000448287 -2.19561e-11
0.00128553 -0.000385949 -0.000385536 -1.15041e-05
0.0012807 -0.000384499 -0.000384088 -1.15041e-05
0.0010631 -0.000319437 -0.000318711 -2.12352e-05
0.00105505 -0.000317016 -0.000316301 -2.12349e-05
0.00147741 -0.000443245 -0.000443215 -2.16932e-11
0.00148868 -0.000446626 -0.000446596 -2.18663e-11
0.00105907 -0.000318227 -0.000317506 -2.12351e-05
0.00126622 -0.000380146 -0.000379745 -1.15039e-05
0.00148305 -0.000444936 -0.000444906 -2.17873e-11
0.00127587 -0.000383048 -0.00038264 -1.1504e-05
0.00127105 -0.000381597 -0.000381192 -1.15039e-05
0.00105505 -0.000317016 -0.000316301 -2.12349e-05
0.00104701 -0.000314595 -0.000313891 -2.12347e-05
0.00146614 -0.000439863 -0.000439833 -2.15407e-11
0.00147741 -0.000443245 -0.000443215 -2.16932e-11
0.00105103 -0.000315806 -0.000315096 -2.12348e-05
0.00125656 -0.000377244 -0.000376849 -1.15037e-05
0.00147178 -0.000441554 -0.000441524 -2.16239e-11
0.00126622 -0.000380146 -0.000379745 -1.15039e-05
0.00126139 -0.000378695 -0.000378297 -1.15038e-05
0.00104701 -0.000314595 -0.000313891 -2.12347e-05
0.00103896 -0.000312174 -0.000311481 -2.12345e-05
0.00145487 -0.000436481 -0.000436452 -2.13665e-11
0.00146614 -0.000439863 -0.000439833 -2.15407e-11
0.00104299 -0.000313385 -0.000312686 -2.12346e-05
0.0012469 -0.000374343 -0.000373953 -1.15036e-05
0.0014605 -0.000438172 -0.000438143 -2.14491e-11
0.00125656 -0.000377244 -0.000376849 -1.15037e-05
0.00125173 -0.000375794 -0.000375401 -1.15037e-05
0.00103896 -0.000312174 -0.000311481 -2.12345e-05
0.00103092 -0.000309754 -0.000309071 -2.12343e-05
0.0014436 -0.000433099 -0.00043307 -2.12017e-11
0.00145487 -0.000436481 -0.000436452 -2.13732e-11
0.00103494 -0.000310964 -0.000310276 -2.12344e-05
0.00123724 -0.000371441 -0.000371058 -1.15035e-05
0.00144923 -0.00043479 -0.000434761 -2.1293e-11
0.0012469 -0.000374343 -0.000373953 -1.15036e-05
0.00124207 -0.000372892 -0.000372506 -1.15035e-05
0.00103092 -0.000309754 -0.000309071 -2.12343e-05
0.00102287 -0.000307333 -0.000306661 -2.1234e-05
0.00143232 -0.000429717 -0.000429689 -2.1034e-11
0.0014436 -0.000433099 -0.00043307 -2.1228e-11
0.0010269 -0.000308543 -0.000307866 -2.12342e-05
0.00122758 -0.00036854 -0.000368162 -1.15033e-05
0.00143796 -0.000431408 -0.00043138 -2.114e-11
0.00123724 -0.000371441 -0.000371058 -1.15035e-05
0.00123241 -0.00036999 -0.00036961 -1.15034e-05
0.00102287 -0.000307333 -0.000306661 -2.1234e-05
0.00101483 -0.000304912 -0.000304251 -2.12338e-05
0.00142105 -0.000426335 -0.000426307 -2.08717e-11
0.00143232 -0.000429717 -0.000429689 -2.1034e-11
0.00101885 -0.000306122 -0.000305456 -2.12339e-05
0.00121793 -0.000365638 -0.000365267 -1.15032e-05
0.00142669 -0.000428026 -0.000427998 -2.09621e-11
0.00122758 -0.00036854 -0.000368162 -1.15033e-05
0.00122276 -0.000367089 -0.000366714 -1.15033e-05
0.00101483 -0.000304912 -0.000304251 -2.12338e-05
0.00100679 -0.000302491 -0.000301841 -2.12336e-05
0.00140978 -0.000422953 -0.000422926 -2.07072e-11
0.00142105 -0.000426335 -0.000426307 -2.08717e-11
0.00101081 -0.000303702 -0.000303046 -2.12337e-05
0.00120827 -0.000362736 -0.000362371 -1.15031e-05
0.00141542 -0.000424644 -0.000424617 -2.07873e-11
0.00121793 -0.000365638 -0.000365267 -1.15032e-05
0.0012131 -0.000364187 -0.000363819 -1.15031e-05
0.00100679 -0.000302491 -0.000301841 -2.12336e-05
0.000998741 -0.000300071 -0.00029943 -2.12334e-05
0.00139851 -0.000419571 -0.000419544 -2.05519e-11
0.00140978 -0.000422953 -0.000422926 -2.07155e-11
0.00100276 -0.000301281 -0.000300635 -2.12335e-05
0.00119861 -0.000359835 -0.000359475 -1.15029e-05
0.00140414 -0.000421262 -0.000421235 -2.06439e-11
0.00120827 -0.000362736 -0.000362371 -1.15031e-05
0.00120344 -0.000361286 -0.000360923 -1.1503e-05
0.000998741 -0.000300071 -0.00029943 -2.12334e-05
0.000990697 -0.00029765 -0.00029702 -2.12331e-05
0.00138724 -0.000416189 -0.000416163 -2.03816e-11
0.00139851 -0.000419571 -0.000419544 -2.05536e-11
0.000994719 -0.00029886 -0.000298225 -2.12332e-05
0.00118895 -0.000356933 -0.00035658 -1.15028e-05
0.00139287 -0.00041788 -0.000417853 -2.04664e-11
0.00119861 -0.000359835 -0.000359475 -1.15029e-05
0.00119378 -0.000358384 -0.000358027 -1.15029e-05
0.000990697 -0.00029765 -0.00029702 -2.12331e-05
0.000982652 -0.000295229 -0.00029461 -2.12329e-05
0.00137596 -0.000412807 -0.000412781 -2.02242e-11
0.00138724 -0.000416189 -0.000416163 -2.03816e-11
0.000986674 -0.00029644 -0.000295815 -2.1233e-05
0.00117929 -0.000354032 -0.000353684 -1.15027e-05
0.0013816 -0.000414498 -0.000414472 -2.03003e-11
0.00118895 -0.000356933 -0.00035658 -1.15028e-05
0.00118412 -0.000355483 -0.000355132 -1.15027e-05
0.000982652 -0.000295229 -0.00029461 -2.12329e-05
0.000974607 -0.000292809 -0.000292199 -2.12327e-05
0.00136469 -0.000409425 -0.0004094 -2.00648e-11
0.00137596 -0.000412807 -0.000412781 -2.02242e-11
0.00097863 -0.000294019 -0.000293405 -2.12328e-05
0.00116964 -0.00035113 -0.000350788 -1.15025e-05
0.00137033 -0.000411116 -0.000411091 -2.01464e-11
0.00117929 -0.000354032 -0.000353684 -1.15027e-05
0.00117447 -0.000352581 -0.000352236 -1.15026e-05
0.000974607 -0.000292809 -0.000292199 -2.12327e-05
0.000966563 -0.000290388 -0.000289789 -2.12324e-05
0.00135342 -0.000406043 -0.000406018 -1.98808e-11
0.00136469 -0.000409425 -0.0004094 -2.00448e-11
0.000970585 -0.000291599 -0.000290994 -2.12326e-05
0.00115998 -0.000348229 -0.000347892 -1.15024e-05
0.00135906 -0.000407734 -0.000407709 -1.99789e-11
0.00116964 -0.00035113 -0.000350788 -1.15025e-05
0.00116481 -0.00034968 -0.00034934 -1.15025e-05
0.000966563 -0.000290388 -0.000289789 -2.12324e-05
0.000958518 -0.000287968 -0.000287379 -2.12322e-05
0.00134215 -0.000402662 -0.000402637 -1.9735e-11
0.00135342 -0.000406043 -0.000406018 -1.98937e-11
0.00096254 -0.000289178 -0.000288584 -2.12323e-05
0.00115032 -0.000345328 -0.000344997 -1.15022e-05
0.00134778 -0.000404352 -0.000404328 -1.97872e-11
0.00115998 -0.000348229 -0.000347892 -1.15024e-05
0.00115515 -0.000346778 -0.000346445 -1.15023e-05
0.000958518 -0.000287968 -0.000287379 -2.12322e-05
0.000950473 -0.000285548 -0.000284968 -2.1232e-05
0.00133088 -0.00039928 -0.000399255 -1.95605e-11
0.00134215 -0.000402662 -0.000402637 -1.9735e-11
0.000954496 -0.000286758 -0.000286173 -2.12321e-05
0.00114066 -0.000342426 -0.000342101 -1.15021e-05
0.00133651 -0.000400971 -0.000400946 -1.96431e-11
0.00115032 -0.000345328 -0.000344997 -1.15022e-05
0.00114549 -0.000343877 -0.000343549 -1.15022e-05
0.000950473 -0.000285548 -0.000284968 -2.1232e-05
0.000942428 -0.000283127 -0.000282558 -2.12318e-05
0.0013196 -0.000395898 -0.000395874 -1.93891e-11
0.00133088 -0.00039928 -0.000399255 -1.95605e-11
0.000946451 -0.000284337 -0.000283763 -2.12319e-05
0.001131 -0.000339525 -0.000339205 -1.1502e-05
0.00132524 -0.000397589 -0.000397565 -1.94802e-11
0.00114066 -0.000342426 -0.000342101 -1.15021e-05
0.00113583 -0.000340976 -0.000340653 -1.1502e-05
0.000942428 -0.000283127 -0.000282558 -2.12318e-05
0.000934384 -0.000280707 -0.000280147 -2.12315e-05
0.00130833 -0.000392516 -0.000392492 -1.92362e-11
0.0013196 -0.000395898 -0.000395874 -1.94024e-11
0.000938406 -0.000281917 -0.000281352 -2.12316e-05
0.00112135 -0.000336624 -0.000336309 -1.15018e-05
0.00131397 -0.000394207 -0.000394183 -1.93445e-11
0.001131 -0.000339525 -0.000339205 -1.1502e-05
0.00112617 -0.000338074 -0.000337757 -1.15019e-05
0.000934384 -0.000280707 -0.000280147 -2.12315e-05
0.000926339 -0.000278287 -0.000277737 -2.12313e-05
0.00129706 -0.000389134 -0.000389111 -1.90769e-11
0.00130833 -0.000392516 -0.000392492 -1.92308e-11
0.000930361 -0.000279497 -0.000278942 -2.12314e-05
0.00111169 -0.000333722 -0.000333413 -1.15017e-05
0.0013027 -0.000390825 -0.000390802 -1.91526e-11
0.00112135 -0.000336624 -0.000336309 -1.15018e-05
0.00111652 -0.000335173 -0.000334861 -1.15018e-05
0.000926339 -0.000278287 -0.000277737 -2.12313e-05
0.000918294 -0.000275866 -0.000275326 -2.12311e-05
0.00128579 -0.000385752 -0.00038573 -1.89072e-11
0.00129706 -0.000389134 -0.000389111 -1.90769e-11
0.000922316 -0.000277076 -0.000276531 -2.12312e-05
0.00110203 -0.000330821 -0.000330518 -1.15016e-05
0.00129142 -0.000387443 -0.00038742 -1.8995e-11
0.00111169 -0.000333722 -0.000333413 -1.15017e-05
0.00110686 -0.000332272 -0.000331966 -1.15016e-05
0.000918294 -0.000275866 -0.000275326 -2.12311e-05
0.000910249 -0.000273446 -0.000272915 -2.12308e-05
0.00127452 -0.00038237 -0.000382348 -1.87377e-11
0.00128579 -0.000385752 -0.00038573 -1.89072e-11
0.000914271 -0.000274656 -0.000274121 -2.1231e-05
0.00109237 -0.00032792 -0.000327622 -1.15014e-05
0.00128015 -0.000384061 -0.000384039 -1.88243e-11
0.00110203 -0.000330821 -0.000330518 -1.15016e-05
0.0010972 -0.000329371 -0.00032907 -1.15015e-05
0.000910249 -0.000273446 -0.000272915 -2.12308e-05
0.000902204 -0.000271026 -0.000270505 -2.12306e-05
0.00126324 -0.000378988 -0.000378967 -1.85668e-11
0.00127452 -0.00038237 -0.000382348 -1.87378e-11
0.000906226 -0.000272236 -0.00027171 -2.12307e-05
0.00108271 -0.000325019 -0.000324726 -1.15013e-05
0.00126888 -0.000380679 -0.000380657 -1.86564e-11
0.00109237 -0.00032792 -0.000327622 -1.15014e-05
0.00108754 -0.000326469 -0.000326174 -1.15014e-05
0.000902204 -0.000271026 -0.000270505 -2.12306e-05
0.000894159 -0.000268606 -0.000268094 -2.12304e-05
0.00125197 -0.000375607 -0.000375585 -1.84282e-11
0.00126324 -0.000378988 -0.000378967 -1.85798e-11
0.000898181 -0.000269816 -0.000269299 -2.12305e-05
0.00107305 -0.000322118 -0.00032183 -1.15012e-05
0.00125761 -0.000377298 -0.000377276 -1.85035e-11
0.00108271 -0.000325019 -0.000324726 -1.15013e-05
0.00107788 -0.000323568 -0.000323278 -1.15012e-05
0.000894159 -0.000268606 -0.000268094 -2.12304e-05
0.000886113 -0.000266186 -0.000265683 -2.12302e-05
0.0012407 -0.000372225 -0.000372204 -1.82646e-11
0.00125197 -0.000375607 -0.000375585 -1.84282e-11
0.000890136 -0.000267396 -0.000266889 -2.12303e-05
0.0010634 -0.000319216 -0.000318934 -1.1501e-05
0.00124634 -0.000373916 -0.000373895 -1.83447e-11
0.00107305 -0.000322118 -0.00032183 -1.15012e-05
0.00106823 -0.000320667 -0.000320382 -1.15011e-05
0.000886113 -0.000266186 -0.000265683 -2.12302e-05
0.000878068 -0.000263766 -0.000263272 -2.12299e-05
0.00122943 -0.000368843 -0.000368822 -1.80902e-11
0.0012407 -0.000372225 -0.000372204 -1.82646e-11
0.000882091 -0.000264976 -0.000264478 -2.123e-05
0.00105374 -0.000316315 -0.000316038 -1.15009e-05
0.00123506 -0.000370534 -0.000370513 -1.81744e-11
0.0010634 -0.000319216 -0.000318934 -1.1501e-05
0.00105857 -0.000317766 -0.000317486 -1.1501e-05
0.000878068 -0.000263766 -0.000263272 -2.12299e-05
0.000870023 -0.000261346 -0.000260862 -2.12297e-05
0.00121816 -0.000365461 -0.000365441 -1.79379e-11
0.00122943 -0.000368843 -0.000368822 -1.8092e-11
0.000874046 -0.000262556 -0.000262067 -2.12298e-05
0.00104408 -0.000313414 -0.000313142 -1.15008e-05
0.00122379 -0.000367152 -0.000367132 -1.80205e-11
0.00105374 -0.000316315 -0.000316038 -1.15009e-05
0.00104891 -0.000314865 -0.00031459 -1.15008e-05
0.000870023 -0.000261346 -0.000260862 -2.12297e-05
0.000861978 -0.000258926 -0.000258451 -2.12295e-05
0.00120689 -0.000362079 -0.00036206 -1.77642e-11
0.00121816 -0.000365461 -0.000365441 -1.79395e-11
0.000866 -0.000260136 -0.000259656 -2.12296e-05
0.00103442 -0.000310513 -0.000310246 -1.15006e-05
0.00121252 -0.00036377 -0.00036375 -1.78514e-11
0.00104408 -0.000313414 -0.000313142 -1.15008e-05
0.00103925 -0.000311964 -0.000311694 -1.15007e-05
0.000861978 -0.000258926 -0.000258451 -2.12295e-05
0.000853932 -0.000256506 -0.00025604 -2.12292e-05
0.00119561 -0.000358697 -0.000358678 -1.75789e-11
0.00120689 -0.000362079 -0.00036206 -1.77642e-11
0.000857955 -0.000257716 -0.000257245 -2.12294e-05
0.00102476 -0.000307612 -0.00030735 -1.15005e-05
0.00120125 -0.000360388 -0.000360369 -1.76845e-11
0.00103442 -0.000310513 -0.000310246 -1.15006e-05
0.00102959 -0.000309063 -0.000308798 -1.15005e-05
0.000853932 -0.000256506 -0.00025604 -2.12292e-05
0.000845887 -0.000254086 -0.000253629 -2.1229e-05
0.00118434 -0.000355316 -0.000355297 -1.74306e-11
0.00119561 -0.000358697 -0.000358678 -1.75789e-11
0.00084991 -0.000255296 -0.000254834 -2.12291e-05
0.0010151 -0.000304711 -0.000304454 -1.15003e-05
0.00118998 -0.000357007 -0.000356987 -1.75306e-11
0.00102476 -0.000307612 -0.00030735 -1.15005e-05
0.00101993 -0.000306162 -0.000305902 -1.15004e-05
0.000845887 -0.000254086 -0.000253629 -2.1229e-05
0.000837842 -0.000251667 -0.000251218 -2.12288e-05
0.00117307 -0.000351934 -0.000351915 -1.72744e-11
0.00118434 -0.000355316 -0.000355297 -1.74306e-11
0.000841864 -0.000252876 -0.000252423 -2.12289e-05
0.00100545 -0.00030181 -0.000301558 -1.15002e-05
0.00117871 -0.000353625 -0.000353606 -1.7332e-11
0.0010151 -0.000304711 -0.000304454 -1.15003e-05
0.00101028 -0.000303261 -0.000303006 -1.15003e-05
0.000837842 -0.000251667 -0.000251218 -2.12288e-05
0.000829796 -0.000249247 -0.000248807 -2.12286e-05
0.0011618 -0.000348552 -0.000348534 -1.70962e-11
0.00117307 -0.000351934 -0.000351915 -1.72758e-11
0.000833819 -0.000250457 -0.000250012 -2.12287e-05
0.000995788 -0.000298909 -0.000298662 -1.15001e-05
0.00116743 -0.000350243 -0.000350225 -1.71788e-11
0.00100545 -0.00030181 -0.000301558 -1.15002e-05
0.00100062 -0.00030036 -0.00030011 -1.15001e-05
0.000829796 -0.000249247 -0.000248807 -2.12286e-05
0.000821751 -0.000246827 -0.000246396 -2.12283e-05
0.00115053 -0.00034517 -0.000345153 -1.69406e-11
0.0011618 -0.000348552 -0.000348534 -1.70962e-11
0.000825774 -0.000248037 -0.000247601 -2.12284e-05
0.000986129 -0.000296008 -0.000295766 -1.14999e-05
0.00115616 -0.000346861 -0.000346843 -1.70377e-11
0.000995788 -0.000298909 -0.000298662 -1.15001e-05
0.000990958 -0.000297459 -0.000297214 -1.15e-05
0.000821751 -0.000246827 -0.000246396 -2.12283e-05
0.000813705 -0.000244407 -0.000243985 -2.12281e-05
0.00113925 -0.000341788 -0.000341771 -1.67705e-11
0.00115053 -0.00034517 -0.000345153 -1.69406e-11
0.000817728 -0.000245617 -0.00024519 -2.12282e-05
0.000976471 -0.000293107 -0.00029287 -1.14998e-05
0.00114489 -0.000343479 -0.000343462 -1.68783e-11
0.000986129 -0.000296008 -0.000295766 -1.14999e-05
0.0009813 -0.000294558 -0.000294318 -1.14999e-05
0.000813705 -0.000244407 -0.000243985 -2.12281e-05
0.00080566 -0.000241988 -0.000241574 -2.12279e-05
0.00112798 -0.000338407 -0.00033839 -1.66135e-11
0.00113925 -0.000341788 -0.000341771 -1.67724e-11
0.000809683 -0.000243198 -0.000242779 -2.1228e-05
0.000966812 -0.000290206 -0.000289974 -1.14997e-05
0.00113362 -0.000340098 -0.000340081 -1.66765e-11
0.000976471 -0.000293107 -0.00029287 -1.14998e-05
0.000971642 -0.000291657 -0.000291422 -1.14997e-05
0.00080566 -0.000241988 -0.000241574 -2.12279e-05
0.000797614 -0.000239568 -0.000239163 -2.12277e-05
0.00111671 -0.000335025 -0.000335009 -1.64474e-11
0.00112798 -0.000338407 -0.00033839 -1.6614e-11
0.000801637 -0.000240778 -0.000240368 -2.12278e-05
0.000957154 -0.000287306 -0.000287078 -1.14995e-05
0.00112235 -0.000336716 -0.000336699 -1.65311e-11
0.000966812 -0.000290206 -0.000289974 -1.14997e-05
0.000961983 -0.000288756 -0.000288526 -1.14996e-05
0.000797614 -0.000239568 -0.000239163 -2.12277e-05
0.000789569 -0.000237149 -0.000236751 -2.12274e-05
0.00110544 -0.000331643 -0.000331627 -1.62859e-11
0.00111671 -0.000335025 -0.000335009 -1.64474e-11
0.000793591 -0.000238359 -0.000237957 -2.12275e-05
0.000947496 -0.000284405 -0.000284182 -1.14994e-05
0.00111108 -0.000333334 -0.000333318 -1.63695e-11
0.000957154 -0.000287306 -0.000287078 -1.14995e-05
0.000952325 -0.000285855 -0.00028563 -1.14995e-05
0.000789569 -0.000237149 -0.000236751 -2.12274e-05
0.000781523 -0.000234729 -0.00023434 -2.12272e-05
0.00109417 -0.000328261 -0.000328246 -1.61183e-11
0.00110544 -0.000331643 -0.000331627 -1.62859e-11
0.000785546 -0.000235939 -0.000235546 -2.12273e-05
0.000937837 -0.000281504 -0.000281286 -1.14993e-05
0.0010998 -0.000329952 -0.000329937 -1.61932e-11
0.000947496 -0.000284405 -0.000284182 -1.14994e-05
0.000942666 -0.000282954 -0.000282734 -1.14993e-05
0.000781523 -0.000234729 -0.00023434 -2.12272e-05
0.000773477 -0.00023231 -0.000231929 -2.1227e-05
0.0010829 -0.00032488 -0.000324865 -1.59483e-11
0.00109417 -0.000328261 -0.000328246 -1.61179e-11
0.0007775 -0.00023352 -0.000233134 -2.12271e-05
0.000928179 -0.000278603 -0.000278389 -1.14991e-05
0.00108853 -0.000326571 -0.000326555 -1.6029e-11
0.000937837 -0.000281504 -0.000281286 -1.14993e-05
0.000933008 -0.000280054 -0.000279838 -1.14992e-05
0.000773477 -0.00023231 -0.000231929 -2.1227e-05
0.000765431 -0.000229891 -0.000229518 -2.12268e-05
0.00107163 -0.000321498 -0.000321483 -1.58173e-11
0.0010829 -0.00032488 -0.000324865 -1.59482e-11
0.000769454 -0.0002311 -0.000230723 -2.12269e-05
0.00091852 -0.000275702 -0.000275493 -1.1499e-05
0.00107726 -0.000323189 -0.000323174 -1.58902e-11
0.000928179 -0.000278603 -0.000278389 -1.14991e-05
0.000923349 -0.000277153 -0.000276941 -1.14991e-05
0.000765431 -0.000229891 -0.000229518 -2.12268e-05
0.000757386 -0.000227471 -0.000227106 -2.12265e-05
0.00106035 -0.000318116 -0.000318102 -1.56403e-11
0.00107163 -0.000321498 -0.000321483 -1.58173e-11
0.000761409 -0.000228681 -0.000228312 -2.12266e-05
0.000908862 -0.000272802 -0.000272597 -1.14989e-05
0.00106599 -0.000319807 -0.000319792 -1.57172e-11
0.00091852 -0.000275702 -0.000275493 -1.1499e-05
0.000913691 -0.000274252 -0.000274045 -1.14989e-05
0.000757386 -0.000227471 -0.000227106 -2.12265e-05
0.00074934 -0.000225052 -0.000224695 -2.12263e-05
0.00104908 -0.000314734 -0.00031472 -1.54798e-11
0.00106035 -0.000318116 -0.000318102 -1.56403e-11
0.000753363 -0.000226262 -0.0002259 -2.12264e-05
0.000899203 -0.000269901 -0.000269701 -1.14987e-05
0.00105472 -0.000316425 -0.000316411 -1.55481e-11
0.000908862 -0.000272802 -0.000272597 -1.14989e-05
0.000904032 -0.000271351 -0.000271149 -1.14988e-05
0.00074934 -0.000225052 -0.000224695 -2.12263e-05
0.000741294 -0.000222633 -0.000222283 -2.12261e-05
0.00103781 -0.000311353 -0.000311339 -1.52967e-11
0.00104908 -0.000314734 -0.00031472 -1.54798e-11
0.000745317 -0.000223842 -0.000223489 -2.12262e-05
0.000889545 -0.000267 -0.000266805 -1.14986e-05
0.00104345 -0.000313044 -0.00031303 -1.53843e-11
0.000899203 -0.000269901 -0.000269701 -1.14987e-05
0.000894374 -0.000268451 -0.000268253 -1.14987e-05
0.000741294 -0.000222633 -0.000222283 -2.12261e-05
0.000733248 -0.000220213 -0.000219872 -2.12259e-05
0.00102654 -0.000307971 -0.000307958 -1.51309e-11
0.00103781 -0.000311353 -0.000311339 -1.52932e-11
0.000737271 -0.000221423 -0.000221078 -2.1226e-05
0.000879886 -0.0002641 -0.000263908 -1.14985e-05
0.00103217 -0.000309662 -0.000309649 -1.52073e-11
0.000889545 -0.000267 -0.000266805 -1.14986e-05
0.000884715 -0.00026555 -0.000265357 -1.14985e-05
0.000733248 -0.000220213 -0.000219872 -2.12259e-05
0.000725202 -0.000217794 -0.00021746 -2.12256e-05
0.00101527 -0.000304589 -0.000304577 -1.49332e-11
0.00102654 -0.000307971 -0.000307958 -1.51309e-11
0.000729225 -0.000219004 -0.000218666 -2.12258e-05
0.000870227 -0.000261199 -0.000261012 -1.14983e-05
0.0010209 -0.00030628 -0.000306267 -1.50346e-11
0.000879886 -0.0002641 -0.000263908 -1.14985e-05
0.000875057 -0.000262649 -0.00026246 -1.14984e-05
0.000725202 -0.000217794 -0.00021746 -2.12256e-05
0.000717156 -0.000215375 -0.000215049 -2.12254e-05
0.001004 -0.000301207 -0.000301195 -1.4784e-11
0.00101527 -0.000304589 -0.000304577 -1.49332e-11
0.000721179 -0.000216585 -0.000216255 -2.12255e-05
0.000860569 -0.000258299 -0.000258116 -1.14982e-05
0.00100963 -0.000302898 -0.000302886 -1.48722e-11
0.000870227 -0.000261199 -0.000261012 -1.14983e-05
0.000865398 -0.000259749 -0.000259564 -1.14983e-05
0.000717156 -0.000215375 -0.000215049 -2.12254e-05
0.00070911 -0.000212956 -0.000212637 -2.12252e-05
0.000992725 -0.000297826 -0.000297814 -1.46241e-11
0.001004 -0.000301207 -0.000301195 -1.47968e-11
0.000713133 -0.000214166 -0.000213843 -2.12253e-05
0.00085091 -0.000255398 -0.00025522 -1.14981e-05
0.000998361 -0.000299517 -0.000299505 -1.47068e-11
0.000860569 -0.000258299 -0.000258116 -1.14982e-05
0.00085574 -0.000256848 -0.000256668 -1.14981e-05
0.00070911 -0.000212956 -0.000212637 -2.12252e-05
0.000701064 -0.000210537 -0.000210226 -2.1225e-05
0.000981453 -0.000294444 -0.000294433 -1.44973e-11
0.000992725 -0.000297826 -0.000297814 -1.4624e-11
0.000705087 -0.000211747 -0.000211432 -2.12251e-05
0.000841252 -0.000252497 -0.000252323 -1.14979e-05
0.000987089 -0.000296135 -0.000296123 -1.45404e-11
0.00085091 -0.000255398 -0.00025522 -1.14981e-05
0.000846081 -0.000253948 -0.000253771 -1.1498e-05
0.000701064 -0.000210537 -0.000210226 -2.1225e-05
0.000693017 -0.000208118 -0.000207814 -2.12248e-05
0.000970182 -0.000291062 -0.000291051 -1.43083e-11
0.000981453 -0.000294444 -0.000294433 -1.44973e-11
0.000697041 -0.000209328 -0.00020902 -2.12249e-05
0.000831593 -0.000249597 -0.000249427 -1.14978e-05
0.000975818 -0.000292753 -0.000292742 -1.43791e-11
0.000841252 -0.000252497 -0.000252323 -1.14979e-05
0.000836422 -0.000251047 -0.000250875 -1.14979e-05
0.000693017 -0.000208118 -0.000207814 -2.12248e-05
0.000684971 -0.000205699 -0.000205402 -2.12245e-05
0.000958911 -0.000287681 -0.00028767 -1.41493e-11
0.000970182 -0.000291062 -0.000291051 -1.43083e-11
0.000688994 -0.000206909 -0.000206608 -2.12247e-05
0.000821934 -0.000246696 -0.000246531 -1.14977e-05
0.000964546 -0.000289372 -0.000289361 -1.42295e-11
0.000831593 -0.000249597 -0.000249427 -1.14978e-05
0.000826764 -0.000248147 -0.000247979 -1.14977e-05
0.000684971 -0.000205699 -0.000205402 -2.12245e-05
0.000676925 -0.00020328 -0.000202991 -2.12243e-05
0.000947639 -0.000284299 -0.000284289 -1.39804e-11
0.000958911 -0.000287681 -0.00028767 -1.41491e-11
0.000680948 -0.00020449 -0.000204197 -2.12244e-05
0.000812276 -0.000243796 -0.000243634 -1.14975e-05
0.000953275 -0.00028599 -0.000285979 -1.40706e-11
0.000821934 -0.000246696 -0.000246531 -1.14977e-05
0.000817105 -0.000245246 -0.000245082 -1.14976e-05
0.000676925 -0.00020328 -0.000202991 -2.12243e-05
0.000668879 -0.000200861 -0.000200579 -2.12241e-05
0.000936368 -0.000280917 -0.000280907 -1.3813e-11
0.000947639 -0.000284299 -0.000284289 -1.39634e-11
0.000672902 -0.000202071 -0.000201785 -2.12242e-05
0.000802617 -0.000240896 -0.000240738 -1.14974e-05
0.000942004 -0.000282608 -0.000282598 -1.39014e-11
0.000812276 -0.000243796 -0.000243634 -1.14975e-05
0.000807446 -0.000242346 -0.000242186 -1.14975e-05
0.000668879 -0.000200861 -0.000200579 -2.12241e-05
0.000660832 -0.000198443 -0.000198167 -2.12239e-05
0.000925097 -0.000277536 -0.000277526 -1.36335e-11
0.000936368 -0.000280917 -0.000280907 -1.3813e-11
0.000664856 -0.000199652 -0.000199373 -2.1224e-05
0.000792958 -0.000237995 -0.000237841 -1.14973e-05
0.000930732 -0.000279226 -0.000279217 -1.37171e-11
0.000802617 -0.000240896 -0.000240738 -1.14974e-05
0.000797788 -0.000239445 -0.00023929 -1.14973e-05
0.000660832 -0.000198443 -0.000198167 -2.12239e-05
0.000652786 -0.000196024 -0.000195755 -2.12237e-05
0.000913825 -0.000274154 -0.000274145 -1.34557e-11
0.000925097 -0.000277536 -0.000277526 -1.36335e-11
0.000656809 -0.000197233 -0.000196961 -2.12238e-05
0.0007833 -0.000235095 -0.000234945 -1.14972e-05
0.000919461 -0.000275845 -0.000275835 -1.35526e-11
0.000792958 -0.000237995 -0.000237841 -1.14973e-05
0.000788129 -0.000236545 -0.000236393 -1.14972e-05
0.000652786 -0.000196024 -0.000195755 -2.12237e-05
0.000644739 -0.000193605 -0.000193343 -2.12235e-05
0.000902554 -0.000270772 -0.000270764 -1.3331e-11
0.000913825 -0.000274154 -0.000274145 -1.34778e-11
0.000648763 -0.000194814 -0.000194549 -2.12236e-05
0.000773641 -0.000232194 -0.000232048 -1.1497e-05
0.00090819 -0.000272463 -0.000272454 -1.34093e-11
0.0007833 -0.000235095 -0.000234945 -1.14972e-05
0.00077847 -0.000233645 -0.000233497 -1.14971e-05
0.000644739 -0.000193605 -0.000193343 -2.12235e-05
0.000636693 -0.000191186 -0.000190931 -2.12232e-05
0.000891283 -0.000267391 -0.000267382 -1.31554e-11
0.000902554 -0.000270772 -0.000270764 -1.33309e-11
0.000640716 -0.000192396 -0.000192137 -2.12234e-05
0.000763982 -0.000229294 -0.000229152 -1.14969e-05
0.000896918 -0.000269081 -0.000269073 -1.32149e-11
0.000773641 -0.000232194 -0.000232048 -1.1497e-05
0.000768811 -0.000230744 -0.0002306 -1.1497e-05
0.000636693 -0.000191186 -0.000190931 -2.12232e-05
0.000628646 -0.000188768 -0.000188519 -2.1223e-05
0.000880011 -0.000264009 -0.000264001 -1.29671e-11
0.000891283 -0.000267391 -0.000267382 -1.31554e-11
0.00063267 -0.000189977 -0.000189725 -2.12231e-05
0.000754323 -0.000226394 -0.000226255 -1.14968e-05
0.000885647 -0.0002657 -0.000265692 -1.30698e-11
0.000763982 -0.000229294 -0.000229152 -1.14969e-05
0.000759153 -0.000227844 -0.000227704 -1.14968e-05
0.000628646 -0.000188768 -0.000188519 -2.1223e-05
0.0006206 -0.000186349 -0.000186107 -2.12228e-05
0.00086874 -0.000260627 -0.00026062 -1.28122e-11
0.000880011 -0.000264009 -0.000264001 -1.29671e-11
0.000624623 -0.000187558 -0.000187313 -2.12229e-05
0.000744664 -0.000223494 -0.000223359 -1.14966e-05
0.000874376 -0.000262318 -0.00026231 -1.2907e-11
0.000754323 -0.000226394 -0.000226255 -1.14968e-05
0.000749494 -0.000224944 -0.000224807 -1.14967e-05
0.0006206 -0.000186349 -0.000186107 -2.12228e-05
0.000612553 -0.000183931 -0.000183695 -2.12226e-05
0.000857469 -0.000257246 -0.000257238 -1.26551e-11
0.00086874 -0.000260627 -0.00026062 -1.28122e-11
0.000616577 -0.00018514 -0.000184901 -2.12227e-05
0.000735006 -0.000220593 -0.000220462 -1.14965e-05
0.000863104 -0.000258936 -0.000258929 -1.27412e-11
0.000744664 -0.000223494 -0.000223359 -1.14966e-05
0.000739835 -0.000222043 -0.000221911 -1.14966e-05
0.000612553 -0.000183931 -0.000183695 -2.12226e-05
0.000604506 -0.000181512 -0.000181283 -2.12224e-05
0.000846197 -0.000253864 -0.000253857 -1.25199e-11
0.000857469 -0.000257246 -0.000257238 -1.2655e-11
0.00060853 -0.000182721 -0.000182489 -2.12225e-05
0.000725347 -0.000217693 -0.000217566 -1.14964e-05
0.000851833 -0.000255555 -0.000255548 -1.25909e-11
0.000735006 -0.000220593 -0.000220462 -1.14965e-05
0.000730176 -0.000219143 -0.000219014 -1.14965e-05
0.000604506 -0.000181512 -0.000181283 -2.12224e-05
0.00059646 -0.000179094 -0.000178871 -2.12222e-05
0.000834926 -0.000250482 -0.000250476 -1.23071e-11
0.000846197 -0.000253864 -0.000253857 -1.25199e-11
0.000600483 -0.000180303 -0.000180077 -2.12223e-05
0.000715688 -0.000214793 -0.000214669 -1.14963e-05
0.000840562 -0.000252173 -0.000252167 -1.24281e-11
0.000725347 -0.000217693 -0.000217566 -1.14964e-05
0.000720517 -0.000216243 -0.000216118 -1.14963e-05
0.00059646 -0.000179094 -0.000178871 -2.12222e-05
0.000588413 -0.000176675 -0.000176459 -2.1222e-05
0.000823655 -0.000247101 -0.000247095 -1.21503e-11
0.000834926 -0.000250482 -0.000250476 -1.23071e-11
0.000592436 -0.000177884 -0.000177665 -2.12221e-05
0.000706029 -0.000211893 -0.000211773 -1.14961e-05
0.00082929 -0.000248791 -0.000248785 -1.22503e-11
0.000715688 -0.000214793 -0.000214669 -1.14963e-05
0.000710858 -0.000213343 -0.000213221 -1.14962e-05
0.000588413 -0.000176675 -0.000176459 -2.1222e-05
0.000580366 -0.000174257 -0.000174047 -2.12218e-05
0.000812384 -0.000243719 -0.000243713 -1.20039e-11
0.000823655 -0.000247101 -0.000247095 -1.21764e-11
0.00058439 -0.000175466 -0.000175253 -2.12219e-05
0.00069637 -0.000208993 -0.000208876 -1.1496e-05
0.000818019 -0.00024541 -0.000245404 -1.20834e-11
0.000706029 -0.000211893 -0.000211773 -1.14961e-05
0.0007012 -0.000210443 -0.000210324 -1.14961e-05
0.000580366 -0.000174257 -0.000174047 -2.12218e-05
0.000572319 -0.000171838 -0.000171635 -2.12216e-05
0.000801112 -0.000240337 -0.000240332 -1.1852e-11
0.000812384 -0.000243719 -0.000243713 -1.20041e-11
0.000576343 -0.000173048 -0.000172841 -2.12217e-05
0.000686711 -0.000206092 -0.000205979 -1.14959e-05
0.000806748 -0.000242028 -0.000242023 -1.19138e-11
0.00069637 -0.000208993 -0.000208876 -1.1496e-05
0.000691541 -0.000207542 -0.000207428 -1.14959e-05
0.000572319 -0.000171838 -0.000171635 -2.12216e-05
0.000564272 -0.00016942 -0.000169222 -2.12214e-05
0.000789841 -0.000236956 -0.000236951 -1.16792e-11
0.000801112 -0.000240337 -0.000240332 -1.1852e-11
0.000568296 -0.000170629 -0.000170429 -2.12215e-05
0.000677052 -0.000203192 -0.000203083 -1.14958e-05
0.000795477 -0.000238646 -0.000238642 -1.17663e-11
0.000686711 -0.000206092 -0.000205979 -1.14959e-05
0.000681882 -0.000204642 -0.000204531 -1.14958e-05
0.000564272 -0.00016942 -0.000169222 -2.12214e-05
0.000556225 -0.000167002 -0.00016681 -2.12211e-05
0.00077857 -0.000233574 -0.00023357 -1.15103e-11
0.000789841 -0.000236956 -0.000236951 -1.16792e-11
0.000560249 -0.000168211 -0.000168016 -2.12212e-05
0.000667393 -0.000200292 -0.000200186 -1.14956e-05
0.000784205 -0.000235265 -0.00023526 -1.15946e-11
0.000677052 -0.000203192 -0.000203083 -1.14958e-05
0.000672223 -0.000201742 -0.000201634 -1.14957e-05
0.000556225 -0.000167002 -0.00016681 -2.12211e-05
0.000548178 -0.000164584 -0.000164398 -2.12209e-05
0.000767299 -0.000230192 -0.000230188 -1.1338e-11
0.00077857 -0.000233574 -0.00023357 -1.15105e-11
0.000552202 -0.000165793 -0.000165604 -2.1221e-05
0.000657734 -0.000197392 -0.000197289 -1.14955e-05
0.000772934 -0.000231883 -0.000231879 -1.14353e-11
0.000667393 -0.000200292 -0.000200186 -1.14956e-05
0.000662564 -0.000198842 -0.000198738 -1.14956e-05
0.000548178 -0.000164584 -0.000164398 -2.12209e-05
0.000540131 -0.000162165 -0.000161985 -2.12207e-05
0.000756027 -0.000226811 -0.000226807 -1.11847e-11
0.000767299 -0.000230192 -0.000230188 -1.13376e-11
0.000544155 -0.000163375 -0.000163191 -2.12208e-05
0.000648075 -0.000194492 -0.000194393 -1.14954e-05
0.000761663 -0.000228501 -0.000228498 -1.12856e-11
0.000657734 -0.000197392 -0.000197289 -1.14955e-05
0.000652905 -0.000195942 -0.000195841 -1.14955e-05
0.000540131 -0.000162165 -0.000161985 -2.12207e-05
0.000532084 -0.000159747 -0.000159573 -2.12205e-05
0.000744756 -0.000223429 -0.000223426 -1.09962e-11
0.000756027 -0.000226811 -0.000226807 -1.11847e-11
0.000536108 -0.000160956 -0.000160779 -2.12206e-05
0.000638416 -0.000191592 -0.000191496 -1.14953e-05
0.000750392 -0.00022512 -0.000225117 -1.1101e-11
0.000648075 -0.000194492 -0.000194393 -1.14954e-05
0.000643246 -0.000193042 -0.000192944 -1.14953e-05
0.000532084 -0.000159747 -0.000159573 -2.12205e-05
0.000524037 -0.000157329 -0.00015716 -2.12203e-05
0.000733485 -0.000220047 -0.000220045 -1.08261e-11
0.000744756 -0.000223429 -0.000223426 -1.09962e-11
0.00052806 -0.000158538 -0.000158367 -2.12204e-05
0.000628757 -0.000188692 -0.000188599 -1.14951e-05
0.000739121 -0.000221738 -0.000221735 -1.09133e-11
0.000638416 -0.000191592 -0.000191496 -1.14953e-05
0.000633587 -0.000190142 -0.000190048 -1.14952e-05
0.000524037 -0.000157329 -0.00015716 -2.12203e-05
0.000515989 -0.000154911 -0.000154748 -2.12201e-05
0.000722214 -0.000216666 -0.000216663 -1.06749e-11
0.000733485 -0.000220047 -0.000220045 -1.08619e-11
0.000520013 -0.00015612 -0.000155954 -2.12202e-05
0.000619098 -0.000185792 -0.000185702 -1.1495e-05
0.000727849 -0.000218357 -0.000218354 -1.07717e-11
0.000628757 -0.000188692 -0.000188599 -1.14951e-05
0.000623927 -0.000187242 -0.000187151 -1.14951e-05
0.000515989 -0.000154911 -0.000154748 -2.12201e-05
0.000507942 -0.000152493 -0.000152335 -2.12199e-05
0.000710943 -0.000213284 -0.000213282 -1.05162e-11
0.000722214 -0.000216666 -0.000216663 -1.06749e-11
0.000511966 -0.000153702 -0.000153542 -2.122e-05
0.000609439 -0.000182892 -0.000182806 -1.14949e-05
0.000716578 -0.000214975 -0.000214973 -1.05998e-11
0.000619098 -0.000185792 -0.000185702 -1.1495e-05
0.000614268 -0.000184342 -0.000184254 -1.1495e-05
0.000507942 -0.000152493 -0.000152335 -2.12199e-05
0.000499895 -0.000150075 -0.000149923 -2.12197e-05
0.000699671 -0.000209902 -0.000209901 -1.03604e-11
0.000710943 -0.000213284 -0.000213282 -1.05162e-11
0.000503919 -0.000151284 -0.000151129 -2.12198e-05
0.00059978 -0.000179992 -0.000179909 -1.14948e-05
0.000705307 -0.000211593 -0.000211592 -1.04255e-11
0.000609439 -0.000182892 -0.000182806 -1.14949e-05
0.000604609 -0.000181442 -0.000181357 -1.14948e-05
0.000499895 -0.000150075 -0.000149923 -2.12197e-05
0.000491847 -0.000147657 -0.00014751 -2.12195e-05
0.0006884 -0.000206521 -0.00020652 -1.02027e-11
0.000699671 -0.000209902 -0.000209901 -1.03604e-11
0.000495871 -0.000148866 -0.000148716 -2.12196e-05
0.00059012 -0.000177092 -0.000177012 -1.14947e-05
0.000694036 -0.000208212 -0.00020821 -1.02638e-11
0.00059978 -0.000179992 -0.000179909 -1.14948e-05
0.00059495 -0.000178542 -0.00017846 -1.14947e-05
0.000491847 -0.000147657 -0.00014751 -2.12195e-05
0.0004838 -0.000145239 -0.000145097 -2.12193e-05
0.000677129 -0.000203139 -0.000203138 -1.00364e-11
0.0006884 -0.000206521 -0.00020652 -1.02024e-11
0.000487824 -0.000146448 -0.000146304 -2.12194e-05
0.000580461 -0.000174193 -0.000174115 -1.14945e-05
0.000682764 -0.00020483 -0.000204829 -1.00899e-11
0.00059012 -0.000177092 -0.000177012 -1.14947e-05
0.000585291 -0.000175643 -0.000175564 -1.14946e-05
0.0004838 -0.000145239 -0.000145097 -2.12193e-05
0.000475752 -0.000142822 -0.000142685 -2.12191e-05
0.000665858 -0.000199758 -0.000199757 -9.86583e-12
0.000677129 -0.000203139 -0.000203138 -1.00493e-11
0.000479776 -0.00014403 -0.000143891 -2.12192e-05
0.000570802 -0.000171293 -0.000171218 -1.14944e-05
0.000671493 -0.000201448 -0.000201448 -9.9612e-12
0.000580461 -0.000174193 -0.000174115 -1.14945e-05
0.000575632 -0.000172743 -0.000172667 -1.14945e-05
0.000475752 -0.000142822 -0.000142685 -2.12191e-05
0.000467705 -0.000140404 -0.000140272 -2.12189e-05
0.000654586 -0.000196376 -0.000196376 -9.71006e-12
0.000665858 -0.000199758 -0.000199757 -9.86583e-12
0.000471729 -0.000141613 -0.000141478 -2.1219e-05
0.000561143 -0.000168393 -0.000168321 -1.14943e-05
0.000660222 -0.000198067 -0.000198067 -9.79509e-12
0.000570802 -0.000171293 -0.000171218 -1.14944e-05
0.000565972 -0.000169843 -0.00016977 -1.14944e-05
0.000467705 -0.000140404 -0.000140272 -2.12189e-05
0.000459657 -0.000137986 -0.000137859 -2.12188e-05
0.000643315 -0.000192994 -0.000192995 -9.50867e-12
0.000654586 -0.000196376 -0.000196376 -9.71006e-12
0.000463681 -0.000139195 -0.000139065 -2.12189e-05
0.000551483 -0.000165493 -0.000165424 -1.14942e-05
0.000648951 -0.000194685 -0.000194685 -9.57554e-12
0.000561143 -0.000168393 -0.000168321 -1.14943e-05
0.000556313 -0.000166943 -0.000166873 -1.14943e-05
0.000459657 -0.000137986 -0.000137859 -2.12188e-05
0.000451609 -0.000135568 -0.000135446 -2.12186e-05
0.000632044 -0.000189613 -0.000189613 -9.39061e-12
0.000643315 -0.000192994 -0.000192995 -9.53432e-12
0.000455633 -0.000136777 -0.000136653 -2.12187e-05
0.000541824 -0.000162593 -0.000162527 -1.14941e-05
0.00063768 -0.000191304 -0.000191304 -9.40408e-12
0.000551483 -0.000165493 -0.000165424 -1.14942e-05
0.000546654 -0.000164043 -0.000163976 -1.14941e-05
0.000451609 -0.000135568 -0.000135446 -2.12186e-05
0.000443562 -0.000133151 -0.000133033 -2.12184e-05
0.000620773 -0.000186231 -0.000186232 -9.18403e-12
0.000632044 -0.000189613 -0.000189613 -9.39077e-12
0.000447586 -0.000134359 -0.00013424 -2.12185e-05
0.000532165 -0.000159694 -0.00015963 -1.1494e-05
0.000626408 -0.000187922 -0.000187923 -9.33897e-12
0.000541824 -0.000162593 -0.000162527 -1.14941e-05
0.000536994 -0.000161143 -0.000161079 -1.1494e-05
0.000443562 -0.000133151 -0.000133033 -2.12184e-05
0.000435514 -0.000130733 -0.00013062 -2.12182e-05
0.000609502 -0.00018285 -0.000182851 -9.03042e-12
0.000620773 -0.000186231 -0.000186232 -9.18403e-12
0.000439538 -0.000131942 -0.000131827 -2.12183e-05
0.000522505 -0.000156794 -0.000156733 -1.14938e-05
0.000615137 -0.00018454 -0.000184542 -9.10193e-12
0.000532165 -0.000159694 -0.00015963 -1.1494e-05
0.000527335 -0.000158244 -0.000158182 -1.14939e-05
0.000435514 -0.000130733 -0.00013062 -2.12182e-05
0.000427466 -0.000128315 -0.000128207 -2.1218e-05
0.00059823 -0.000179468 -0.00017947 -8.86762e-12
0.000609502 -0.00018285 -0.000182851 -9.03042e-12
0.00043149 -0.000129524 -0.000129414 -2.12181e-05
0.000512846 -0.000153894 -0.000153836 -1.14937e-05
0.000603866 -0.000181159 -0.00018116 -8.93056e-12
0.000522505 -0.000156794 -0.000156733 -1.14938e-05
0.000517675 -0.000155344 -0.000155285 -1.14938e-05
0.000427466 -0.000128315 -0.000128207 -2.1218e-05
0.000419418 -0.000125898 -0.000125794 -2.12178e-05
0.000586959 -0.000176086 -0.000176088 -8.71009e-12
0.00059823 -0.000179468 -0.00017947 -8.86778e-12
0.000423442 -0.000127107 -0.000127001 -2.12179e-05
0.000503186 -0.000150994 -0.000150939 -1.14936e-05
0.000592595 -0.000177777 -0.000177779 -8.80279e-12
0.000512846 -0.000153894 -0.000153836 -1.14937e-05
0.000508016 -0.000152444 -0.000152388 -1.14937e-05
0.000419418 -0.000125898 -0.000125794 -2.12178e-05
0.00041137 -0.00012348 -0.000123381 -2.12176e-05
0.000575688 -0.000172705 -0.000172707 -8.51538e-12
0.000586959 -0.000176086 -0.000176088 -8.70992e-12
0.000415394 -0.000124689 -0.000124588 -2.12177e-05
0.000493527 -0.000148095 -0.000148042 -1.14935e-05
0.000581324 -0.000174395 -0.000174398 -8.59801e-12
0.000503186 -0.000150994 -0.000150939 -1.14936e-05
0.000498356 -0.000149545 -0.000149491 -1.14936e-05
0.00041137 -0.00012348 -0.000123381 -2.12176e-05
0.000403322 -0.000121063 -0.000120968 -2.12174e-05
0.000564417 -0.000169323 -0.000169326 -8.36182e-12
0.000575688 -0.000172705 -0.000172707 -8.51538e-12
0.000407346 -0.000122271 -0.000122175 -2.12175e-05
0.000483867 -0.000145195 -0.000145145 -1.14934e-05
0.000570052 -0.000171014 -0.000171017 -8.46775e-12
0.000493527 -0.000148095 -0.000148042 -1.14935e-05
0.000488697 -0.000146645 -0.000146594 -1.14934e-05
0.000403322 -0.000121063 -0.000120968 -2.12174e-05
0.000395274 -0.000118645 -0.000118555 -2.12173e-05
0.000553146 -0.000165941 -0.000165945 -8.24142e-12
0.000564417 -0.000169323 -0.000169326 -8.35779e-12
0.000399298 -0.000119854 -0.000119762 -2.12173e-05
0.000474208 -0.000142296 -0.000142248 -1.14933e-05
0.000558781 -0.000167632 -0.000167635 -8.29315e-12
0.000483867 -0.000145195 -0.000145145 -1.14934e-05
0.000479037 -0.000143745 -0.000143697 -1.14933e-05
0.000395274 -0.000118645 -0.000118555 -2.12173e-05
0.000387226 -0.000116228 -0.000116142 -2.12171e-05
0.000541874 -0.00016256 -0.000162563 -8.03035e-12
0.000553146 -0.000165941 -0.000165945 -8.24142e-12
0.00039125 -0.000117437 -0.000117349 -2.12172e-05
0.000464548 -0.000139396 -0.000139351 -1.14932e-05
0.00054751 -0.000164251 -0.000164254 -8.1174e-12
0.000474208 -0.000142296 -0.000142248 -1.14933e-05
0.000469378 -0.000140846 -0.000140799 -1.14932e-05
0.000387226 -0.000116228 -0.000116142 -2.12171e-05
0.000379178 -0.000113811 -0.000113729 -2.12169e-05
0.000530603 -0.000159178 -0.000159182 -7.87508e-12
0.000541874 -0.00016256 -0.000162563 -8.03035e-12
0.000383202 -0.000115019 -0.000114935 -2.1217e-05
0.000454888 -0.000136496 -0.000136454 -1.14931e-05
0.000536239 -0.000160869 -0.000160873 -7.94141e-12
0.000464548 -0.000139396 -0.000139351 -1.14932e-05
0.000459718 -0.000137946 -0.000137902 -1.14931e-05
0.000379178 -0.000113811 -0.000113729 -2.12169e-05
0.000371129 -0.000111393 -0.000111315 -2.12167e-05
0.000519332 -0.000155797 -0.000155801 -7.70668e-12
0.000530603 -0.000159178 -0.000159182 -7.87489e-12
0.000375153 -0.000112602 -0.000112522 -2.12168e-05
0.000445229 -0.000133597 -0.000133556 -1.14929e-05
0.000524968 -0.000157487 -0.000157492 -7.85283e-12
0.000454888 -0.000136496 -0.000136454 -1.14931e-05
0.000450058 -0.000135047 -0.000135005 -1.1493e-05
0.000371129 -0.000111393 -0.000111315 -2.12167e-05
0.000363081 -0.000108976 -0.000108902 -2.12165e-05
0.000508061 -0.000152415 -0.00015242 -7.56891e-12
0.000519332 -0.000155797 -0.000155801 -7.69014e-12
0.000367105 -0.000110185 -0.000110109 -2.12166e-05
0.000435569 -0.000130697 -0.000130659 -1.14928e-05
0.000513696 -0.000154106 -0.00015411 -7.616e-12
0.000445229 -0.000133597 -0.000133556 -1.14929e-05
0.000440399 -0.000132147 -0.000132108 -1.14929e-05
0.000363081 -0.000108976 -0.000108902 -2.12165e-05
0.000355032 -0.000106559 -0.000106489 -2.12164e-05
0.000496789 -0.000149033 -0.000149038 -7.38405e-12
0.000508061 -0.000152415 -0.00015242 -7.56891e-12
0.000359057 -0.000107767 -0.000107695 -2.12164e-05
0.000425909 -0.000127798 -0.000127762 -1.14927e-05
0.000502425 -0.000150724 -0.000150729 -7.45071e-12
0.000435569 -0.000130697 -0.000130659 -1.14928e-05
0.000430739 -0.000129248 -0.000129211 -1.14928e-05
0.000355032 -0.000106559 -0.000106489 -2.12164e-05
0.000346984 -0.000104142 -0.000104075 -2.12162e-05
0.000485518 -0.000145652 -0.000145657 -7.19243e-12
0.000496789 -0.000149033 -0.000149038 -7.38405e-12
0.000351008 -0.00010535 -0.000105282 -2.12163e-05
0.000416249 -0.000124898 -0.000124865 -1.14926e-05
0.000491154 -0.000147342 -0.000147348 -7.25411e-12
0.000425909 -0.000127798 -0.000127762 -1.14927e-05
0.000421079 -0.000126348 -0.000126313 -1.14927e-05
0.000346984 -0.000104142 -0.000104075 -2.12162e-05
0.000338935 -0.000101724 -0.000101662 -2.1216e-05
0.000474247 -0.00014227 -0.000142276 -7.03334e-12
0.000485518 -0.000145652 -0.000145657 -7.23192e-12
0.00034296 -0.000102933 -0.000102869 -2.12161e-05
0.00040659 -0.000121999 -0.000121967 -1.14925e-05
0.000479882 -0.000143961 -0.000143966 -7.11497e-12
0.000416249 -0.000124898 -0.000124865 -1.14926e-05
0.000411419 -0.000123449 -0.000123416 -1.14926e-05
0.000338935 -0.000101724 -0.000101662 -2.1216e-05
0.000330887 -9.93072e-05 -9.92484e-05 -2.12158e-05
0.000462976 -0.000138888 -0.000138894 -6.86979e-12
0.000474247 -0.00014227 -0.000142276 -7.03334e-12
0.000334911 -0.000100516 -0.000100455 -2.12159e-05
0.00039693 -0.000119099 -0.00011907 -1.14924e-05
0.000468611 -0.000140579 -0.000140585 -6.98051e-12
0.00040659 -0.000121999 -0.000121967 -1.14925e-05
0.00040176 -0.000120549 -0.000120519 -1.14925e-05
0.000330887 -9.93072e-05 -9.92484e-05 -2.12158e-05
0.000322838 -9.68901e-05 -9.68349e-05 -2.12157e-05
0.000451704 -0.000135507 -0.000135513 -6.69665e-12
0.000462976 -0.000138888 -0.000138894 -6.86979e-12
0.000326863 -9.80987e-05 -9.80417e-05 -2.12157e-05
0.00038727 -0.0001162 -0.000116173 -1.14923e-05
0.00045734 -0.000137198 -0.000137204 -6.75835e-12
0.00039693 -0.000119099 -0.00011907 -1.14924e-05
0.0003921 -0.00011765 -0.000117621 -1.14924e-05
0.000322838 -9.68901e-05 -9.68349e-05 -2.12157e-05
0.000314789 -9.44731e-05 -9.44213e-05 -2.12155e-05
0.000440433 -0.000132125 -0.000132132 -6.5342e-12
0.000451704 -0.000135507 -0.000135513 -6.69665e-12
0.000318814 -9.56816e-05 -9.56281e-05 -2.12156e-05
0.00037761 -0.0001133 -0.000113275 -1.14922e-05
0.000446069 -0.000133816 -0.000133823 -6.6505e-12
0.00038727 -0.0001162 -0.000116173 -1.14923e-05
0.00038244 -0.00011475 -0.000114724 -1.14923e-05
0.000314789 -9.44731e-05 -9.44213e-05 -2.12155e-05
0.000306741 -9.20561e-05 -9.20077e-05 -2.12153e-05
0.000429162 -0.000128743 -0.000128751 -6.36459e-12
0.000440433 -0.000132125 -0.000132132 -6.53419e-12
0.000310765 -9.32646e-05 -9.32145e-05 -2.12154e-05
0.00036795 -0.000110401 -0.000110378 -1.14921e-05
0.000434797 -0.000130434 -0.000130441 -6.49788e-12
0.00037761 -0.0001133 -0.000113275 -1.14922e-05
0.00037278 -0.000111851 -0.000111827 -1.14921e-05
0.000306741 -9.20561e-05 -9.20077e-05 -2.12153e-05
0.000298692 -8.96391e-05 -8.9594e-05 -2.12151e-05
0.00041789 -0.000125362 -0.000125369 -6.21714e-12
0.000429162 -0.000128743 -0.000128751 -6.36054e-12
0.000302716 -9.08476e-05 -9.08008e-05 -2.12152e-05
0.00035829 -0.000107502 -0.000107481 -1.1492e-05
0.000423526 -0.000127053 -0.00012706 -6.26359e-12
0.00036795 -0.000110401 -0.000110378 -1.14921e-05
0.00036312 -0.000108951 -0.000108929 -1.1492e-05
0.000298692 -8.96391e-05 -8.9594e-05 -2.12151e-05
0.000290643 -8.72222e-05 -8.71803e-05 -2.1215e-05
0.000406619 -0.00012198 -0.000121988 -6.05801e-12
0.00041789 -0.000125362 -0.000125369 -6.21714e-12
0.000294667 -8.84306e-05 -8.83872e-05 -2.12151e-05
0.00034863 -0.000104602 -0.000104583 -1.14919e-05
0.000412255 -0.000123671 -0.000123679 -6.13458e-12
0.00035829 -0.000107502 -0.000107481 -1.1492e-05
0.00035346 -0.000106052 -0.000106032 -1.14919e-05
0.000290643 -8.72222e-05 -8.71803e-05 -2.1215e-05
0.000282594 -8.48053e-05 -8.47665e-05 -2.12148e-05
0.000395348 -0.000118599 -0.000118607 -5.88753e-12
0.000406619 -0.00012198 -0.000121988 -6.05801e-12
0.000286618 -8.60137e-05 -8.59734e-05 -2.12149e-05
0.00033897 -0.000101703 -0.000101686 -1.14918e-05
0.000400983 -0.000120289 -0.000120297 -5.99571e-12
0.00034863 -0.000104602 -0.000104583 -1.14919e-05
0.0003438 -0.000103153 -0.000103134 -1.14918e-05
0.000282594 -8.48053e-05 -8.47665e-05 -2.12148e-05
0.000274545 -8.23884e-05 -8.23527e-05 -2.12146e-05
0.000384076 -0.000115217 -0.000115225 -5.70955e-12
0.000395348 -0.000118599 -0.000118607 -5.8905e-12
0.000278569 -8.35968e-05 -8.35596e-05 -2.12147e-05
0.000329309 -9.88037e-05 -9.87882e-05 -1.14917e-05
0.000389712 -0.000116908 -0.000116916 -5.80215e-12
0.00033897 -0.000101703 -0.000101686 -1.14918e-05
0.000334139 -0.000100253 -0.000100237 -1.14917e-05
0.000274545 -8.23884e-05 -8.23527e-05 -2.12146e-05
0.000266496 -7.99716e-05 -7.99389e-05 -2.12145e-05
0.000372805 -0.000111835 -0.000111844 -5.52211e-12
0.000384076 -0.000115217 -0.000115225 -5.70976e-12
0.00027052 -8.118e-05 -8.11458e-05 -2.12146e-05
0.000319649 -9.59044e-05 -9.58906e-05 -1.14916e-05
0.00037844 -0.000113526 -0.000113535 -5.60834e-12
0.000329309 -9.88037e-05 -9.87882e-05 -1.14917e-05
0.000324479 -9.7354e-05 -9.73394e-05 -1.14916e-05
0.000266496 -7.99716e-05 -7.99389e-05 -2.12145e-05
0.000258446 -7.75548e-05 -7.7525e-05 -2.12143e-05
0.000361533 -0.000108454 -0.000108463 -5.34406e-12
0.000372805 -0.000111835 -0.000111844 -5.52211e-12
0.000262471 -7.87632e-05 -7.87319e-05 -2.12144e-05
0.000309989 -9.30051e-05 -9.29931e-05 -1.14915e-05
0.000367169 -0.000110144 -0.000110153 -5.46438e-12
0.000319649 -9.59044e-05 -9.58906e-05 -1.14916e-05
0.000314819 -9.44548e-05 -9.44418e-05 -1.14915e-05
0.000258446 -7.75548e-05 -7.7525e-05 -2.12143e-05
0.000250397 -7.51381e-05 -7.51111e-05 -2.12142e-05
0.000350262 -0.000105072 -0.000105081 -5.13017e-12
0.000361533 -0.000108454 -0.000108463 -5.34406e-12
0.000254422 -7.63464e-05 -7.6318e-05 -2.12142e-05
0.000300329 -9.01059e-05 -9.00955e-05 -1.14914e-05
0.000355898 -0.000106763 -0.000106772 -5.21342e-12
0.000309989 -9.30051e-05 -9.29931e-05 -1.14915e-05
0.000305159 -9.15555e-05 -9.15443e-05 -1.14914e-05
0.000250397 -7.51381e-05 -7.51111e-05 -2.12142e-05
0.000242348 -7.27213e-05 -7.26971e-05 -2.1214e-05
0.00033899 -0.00010169 -0.0001017 -4.87362e-12
0.000350262 -0.000105072 -0.000105081 -5.13071e-12
0.000246373 -7.39297e-05 -7.39041e-05 -2.12141e-05
0.000290668 -8.72066e-05 -8.71979e-05 -1.14913e-05
0.000344626 -0.000103381 -0.000103391 -5.00746e-12
0.000300329 -9.01059e-05 -9.00955e-05 -1.14914e-05
0.000295498 -8.86562e-05 -8.86467e-05 -1.14913e-05
0.000242348 -7.27213e-05 -7.26971e-05 -2.1214e-05
0.000234298 -7.03047e-05 -7.0283e-05 -2.12139e-05
0.000327719 -9.83085e-05 -9.83187e-05 -4.62536e-12
0.00033899 -0.00010169 -0.0001017 -4.87305e-12
0.000238323 -7.1513e-05 -7.14901e-05 -2.12139e-05
0.000281008 -8.43074e-05 -8.43002e-05 -1.14912e-05
0.000333355 -9.99994e-05 -0.000100009 -4.79397e-12
0.000290668 -8.72066e-05 -8.71979e-05 -1.14913e-05
0.000285838 -8.5757e-05 -8.5749e-05 -1.14912e-05
0.000234298 -7.03047e-05 -7.0283e-05 -2.12139e-05
0.000226249 -6.7888e-05 -6.7869e-05 -2.12137e-05
0.000316447 -9.49268e-05 -9.49374e-05 -4.33159e-12
0.000327719 -9.83085e-05 -9.83187e-05 -4.62536e-12
0.000230274 -6.90964e-05 -6.9076e-05 -2.12138e-05
0.000271347 -8.14082e-05 -8.14025e-05 -1.14911e-05
0.000322083 -9.66177e-05 -9.66281e-05 -4.50306e-12
0.000281008 -8.43074e-05 -8.43002e-05 -1.14912e-05
0.000276178 -8.28578e-05 -8.28514e-05 -1.14912e-05
0.000226249 -6.7888e-05 -6.7869e-05 -2.12137e-05
0.000218199 -6.54714e-05 -6.54548e-05 -2.12136e-05
0.000305176 -9.15452e-05 -9.1556e-05 -3.9702e-12
0.000316447 -9.49268e-05 -9.49374e-05 -4.33159e-12
0.000222224 -6.66797e-05 -6.66619e-05 -2.12137e-05
0.000261687 -7.8509e-05 -7.85048e-05 -1.1491e-05
0.000310812 -9.3236e-05 -9.32467e-05 -4.17866e-12
0.000271347 -8.14082e-05 -8.14025e-05 -1.14911e-05
0.000266517 -7.99586e-05 -7.99537e-05 -1.14911e-05
0.000218199 -6.54714e-05 -6.54548e-05 -2.12136e-05
0.00021015 -6.30549e-05 -6.30406e-05 -2.12135e-05
0.000293904 -8.81635e-05 -8.81746e-05 -3.54312e-12
0.000305176 -9.15452e-05 -9.1556e-05 -3.9962e-12
0.000214175 -6.42632e-05 -6.42477e-05 -2.12135e-05
0.000252026 -7.56098e-05 -7.56071e-05 -1.1491e-05
0.00029954 -8.98543e-05 -8.98653e-05 -3.759e-12
0.000261687 -7.8509e-05 -7.85048e-05 -1.1491e-05
0.000256857 -7.70594e-05 -7.7056e-05 -1.1491e-05
0.00021015 -6.30549e-05 -6.30406e-05 -2.12135e-05
0.0002021 -6.06384e-05 -6.06264e-05 -2.12134e-05
0.000282633 -8.47817e-05 -8.47932e-05 -3.06515e-12
0.000293904 -8.81635e-05 -8.81746e-05 -3.54277e-12
0.000206125 -6.18466e-05 -6.18335e-05 -2.12134e-05
0.000242366 -7.27106e-05 -7.27093e-05 -1.14909e-05
0.000288268 -8.64726e-05 -8.64839e-05 -3.28414e-12
0.000252026 -7.56098e-05 -7.56071e-05 -1.1491e-05
0.000247196 -7.41602e-05 -7.41582e-05 -1.14909e-05
0.0002021 -6.06384e-05 -6.06264e-05 -2.12134e-05
0.00019405 -5.82219e-05 -5.82121e-05 -2.12133e-05
0.000271361 -8.14e-05 -8.14118e-05 -2.33125e-12
0.000282633 -8.47817e-05 -8.47932e-05 -3.06515e-12
0.000198075 -5.94301e-05 -5.94193e-05 -2.12133e-05
0.000232705 -6.98115e-05 -6.98115e-05 -1.14908e-05
0.000276997 -8.30909e-05 -8.31025e-05 -2.69187e-12
0.000242366 -7.27106e-05 -7.27093e-05 -1.14909e-05
0.000237535 -7.1261e-05 -7.12604e-05 -1.14909e-05
0.00019405 -5.82219e-05 -5.82121e-05 -2.12133e-05
0.000186 -5.58054e-05 -5.57978e-05 -2.12132e-05
0.000260089 -7.80182e-05 -7.80304e-05 -1.61147e-12
0.000271361 -8.14e-05 -8.14118e-05 -2.33125e-12
0.000190025 -5.70137e-05 -5.7005e-05 -2.12133e-05
0.000223044 -6.69123e-05 -6.69137e-05 -1.14908e-05
0.000265725 -7.97091e-05 -7.97211e-05 -1.91483e-12
0.000232705 -6.98115e-05 -6.98115e-05 -1.14908e-05
0.000227875 -6.83619e-05 -6.83626e-05 -1.14908e-05
0.000186 -5.58054e-05 -5.57978e-05 -2.12132e-05
0.00017795 -5.3389e-05 -5.33834e-05 -2.12132e-05
0.000248817 -7.46365e-05 -7.46489e-05 -1.76397e-13
0.000260089 -7.80182e-05 -7.80304e-05 -1.61182e-12
0.000181975 -5.45972e-05 -5.45906e-05 -2.12132e-05
0.000213383 -6.40132e-05 -6.40158e-05 -1.14908e-05
0.000254453 -7.63274e-05 -7.63397e-05 -8.44856e-13
0.000223044 -6.69123e-05 -6.69137e-05 -1.14908e-05
0.000218214 -6.54627e-05 -6.54647e-05 -1.14908e-05
0.00017795 -5.3389e-05 -5.33834e-05 -2.12132e-05
0.0001699 -5.09727e-05 -5.0969e-05 -2.12132e-05
0.000237545 -7.12546e-05 -7.12674e-05 7.18406e-13
0.000248817 -7.46365e-05 -7.46489e-05 -2.02299e-13
0.000173925 -5.21808e-05 -5.21762e-05 -2.12132e-05
0.000203722 -6.1114e-05 -6.11178e-05 -1.14908e-05
0.000243181 -7.29456e-05 -7.29582e-05 3.30534e-13
0.000213383 -6.40132e-05 -6.40158e-05 -1.14908e-05
0.000208553 -6.25636e-05 -6.25668e-05 -1.14908e-05
0.0001699 -5.09727e-05 -5.0969e-05 -2.12132e-05
0.00016185 -4.85563e-05 -4.85545e-05 -2.12133e-05
0.000226273 -6.78727e-05 -6.78859e-05 3.06346e-12
0.000237545 -7.12546e-05 -7.12674e-05 7.18406e-13
0.000165875 -4.97645e-05 -4.97617e-05 -2.12132e-05
0.000194061 -5.82149e-05 -5.82198e-05 -1.14909e-05
0.000231909 -6.95637e-05 -6.95767e-05 2.56083e-12
0.000203722 -6.1114e-05 -6.11178e-05 -1.14908e-05
0.000198892 -5.96644e-05 -5.96688e-05 -1.14908e-05
0.00016185 -4.85563e-05 -4.85545e-05 -2.12133e-05
0.0001538 -4.614e-05 -4.614e-05 -2.12134e-05
0.000215001 -6.44908e-05 -6.45042e-05 3.10067e-12
0.000226273 -6.78727e-05 -6.78859e-05 3.06346e-12
0.000157825 -4.73482e-05 -4.73472e-05 -2.12133e-05
0.0001844 -5.53157e-05 -5.53218e-05 -1.1491e-05
0.000220637 -6.61818e-05 -6.61951e-05 2.66976e-12
0.000194061 -5.82149e-05 -5.82198e-05 -1.14909e-05
0.000189231 -5.67653e-05 -5.67708e-05 -1.14909e-05
0.0001538 -4.614e-05 -4.614e-05 -2.12134e-05
0.00014575 -4.37238e-05 -4.37254e-05 -2.12134e-05
0.000203728 -6.11087e-05 -6.11225e-05 3.11501e-12
0.000215001 -6.44908e-05 -6.45042e-05 3.02157e-12
0.000149775 -4.49319e-05 -4.49327e-05 -2.12134e-05
0.000174738 -5.24165e-05 -5.24237e-05 -1.14912e-05
0.000209364 -6.27998e-05 -6.28134e-05 7.64339e-12
0.0001844 -5.53157e-05 -5.53218e-05 -1.1491e-05
0.000179569 -5.38661e-05 -5.38727e-05 -1.14911e-05
0.00014575 -4.37238e-05 -4.37254e-05 -2.12134e-05
0.0001377 -4.13075e-05 -4.13109e-05 -2.12134e-05
0.000192455 -5.77265e-05 -5.77406e-05 -4.61031e-12
0.000203728 -6.11087e-05 -6.11225e-05 3.11522e-12
0.000141725 -4.25156e-05 -4.25181e-05 -2.12134e-05
0.000165077 -4.95173e-05 -4.95255e-05 -1.14913e-05
0.000198091 -5.94176e-05 -5.94316e-05 -5.48378e-12
0.000174738 -5.24165e-05 -5.24237e-05 -1.14912e-05
0.000169908 -5.09669e-05 -5.09746e-05 -1.14912e-05
0.0001377 -4.13075e-05 -4.13109e-05 -2.12134e-05
0.00012965 -3.8891e-05 -3.88965e-05 -2.12129e-05
0.000181181 -5.43441e-05 -5.43586e-05 -3.52473e-11
0.000192455 -5.77265e-05 -5.77406e-05 -4.61031e-12
0.000133675 -4.00993e-05 -4.01037e-05 -2.12132e-05
0.000155415 -4.66181e-05 -4.66274e-05 -1.14913e-05
0.000186818 -5.60353e-05 -5.60496e-05 5.27369e-12
0.000165077 -4.95173e-05 -4.95255e-05 -1.14913e-05
0.000160246 -4.80677e-05 -4.80764e-05 -1.14913e-05
0.00012965 -3.8891e-05 -3.88965e-05 -2.12129e-05
0.0001216 -3.64741e-05 -3.64825e-05 -2.12114e-05
0.000169907 -5.09616e-05 -5.09764e-05 -7.65262e-11
0.000181181 -5.43441e-05 -5.43586e-05 -3.52473e-11
0.000125625 -3.76826e-05 -3.76895e-05 -2.12124e-05
0.000145754 -4.3719e-05 -4.37293e-05 -1.14908e-05
0.000175544 -5.26529e-05 -5.26675e-05 -8.80275e-11
0.000155415 -4.66181e-05 -4.66274e-05 -1.14913e-05
0.000150585 -4.51685e-05 -4.51783e-05 -1.14912e-05
0.0001216 -3.64741e-05 -3.64825e-05 -2.12114e-05
0.000113551 -3.40561e-05 -3.40692e-05 -2.12075e-05
0.000158633 -4.7579e-05 -4.75944e-05 -2.9445e-10
0.000169907 -5.09616e-05 -5.09764e-05 -7.65267e-11
0.000117575 -3.52653e-05 -3.52758e-05 -2.12099e-05
0.000136094 -4.08198e-05 -4.08319e-05 -1.14891e-05
0.000164269 -4.92702e-05 -4.92854e-05 -6.31626e-11
0.000145754 -4.3719e-05 -4.37293e-05 -1.14908e-05
0.000140924 -4.22694e-05 -4.22805e-05 -1.14902e-05
0.000113551 -3.40561e-05 -3.40692e-05 -2.12075e-05
0.000105503 -3.16357e-05 -3.16575e-05 -2.11983e-05
0.00014736 -4.41972e-05 -4.42125e-05 -4.30425e-10
0.000158633 -4.7579e-05 -4.75944e-05 -2.94446e-10
0.000109527 -3.28463e-05 -3.2863e-05 -2.12039e-05
0.000126437 -3.79209e-05 -3.79354e-05 -1.14841e-05
0.000152996 -4.58882e-05 -4.59033e-05 -5.42758e-10
0.000136094 -4.08198e-05 -4.08319e-05 -1.14891e-05
0.000131265 -3.93703e-05 -3.93835e-05 -1.14871e-05
0.000105503 -3.16357e-05 -3.16575e-05 -2.11983e-05
9.74558e-05 -2.92102e-05 -2.92481e-05 -2.11791e-05
0.000136094 -4.08164e-05 -4.08332e-05 -1.54289e-09
0.00014736 -4.41972e-05 -4.42125e-05 -4.30425e-10
0.00010148 -3.04239e-05 -3.04525e-05 -2.11904e-05
0.000116787 -3.50224e-05 -3.50419e-05 -1.14725e-05
0.000141725 -4.2506e-05 -4.25225e-05 -4.40453e-10
0.000126437 -3.79209e-05 -3.79354e-05 -1.14841e-05
0.00012161 -3.64715e-05 -3.64881e-05 -1.14795e-05
9.74558e-05 -2.92102e-05 -2.92481e-05 -2.11791e-05
8.9411e-05 -2.67747e-05 -2.68441e-05 -2.11385e-05
0.00012484 -3.7443e-05 -3.74559e-05 -1.75815e-09
0.000136094 -4.08164e-05 -4.08332e-05 -1.54289e-09
9.34326e-05 -2.79941e-05 -2.80451e-05 -2.11626e-05
0.000107149 -3.2125e-05 -3.21532e-05 -1.14466e-05
0.000130465 -3.91299e-05 -3.91438e-05 -2.56244e-09
0.000116787 -3.50224e-05 -3.50419e-05 -1.14725e-05
0.000111966 -3.35734e-05 -3.35969e-05 -1.14618e-05
8.9411e-05 -2.67747e-05 -2.68441e-05 -2.11385e-05
8.13626e-05 -2.43209e-05 -2.44464e-05 -2.10617e-05
0.000113627 -3.4075e-05 -3.40939e-05 -6.55441e-09
0.00012484 -3.7443e-05 -3.74559e-05 -1.75814e-09
8.53885e-05 -2.55512e-05 -2.56445e-05 -2.11058e-05
9.75409e-05 -2.92299e-05 -2.92761e-05 -1.13937e-05
0.000119225 -3.57544e-05 -3.57732e-05 -1.82295e-09
0.000107149 -3.2125e-05 -3.21532e-05 -1.14466e-05
0.000102339 -3.06772e-05 -3.07123e-05 -1.14253e-05
8.13626e-05 -2.43209e-05 -2.44464e-05 -2.10617e-05
7.33159e-05 -2.18325e-05 -2.20643e-05 -2.09129e-05
0.000102479 -3.07473e-05 -3.0742e-05 -5.75931e-09
0.000113627 -3.4075e-05 -3.40939e-05 -6.55441e-09
7.73372e-05 -2.30814e-05 -2.32525e-05 -2.09997e-05
8.79786e-05 -2.63391e-05 -2.6417e-05 -1.12882e-05
0.000108046 -3.24123e-05 -3.24142e-05 -1.05081e-08
9.75409e-05 -2.92299e-05 -2.92761e-05 -1.13937e-05
9.27539e-05 -2.77833e-05 -2.78445e-05 -1.13485e-05
7.33159e-05 -2.18325e-05 -2.20643e-05 -2.09129e-05
6.52377e-05 -1.92905e-05 -1.96916e-05 -2.06562e-05
9.15082e-05 -2.74366e-05 -2.74593e-05 -2.41858e-08
0.000102479 -3.07473e-05 -3.0742e-05 -5.75931e-09
6.92867e-05 -2.05723e-05 -2.08776e-05 -2.08004e-05
7.852e-05 -2.34586e-05 -2.35977e-05 -1.10889e-05
9.69563e-05 -2.90702e-05 -2.90941e-05 -5.06718e-09
8.79786e-05 -2.63391e-05 -2.6417e-05 -1.12882e-05
8.32293e-05 -2.48984e-05 -2.4999e-05 -1.12075e-05
6.52377e-05 -1.92905e-05 -1.96916e-05 -2.06562e-05
5.71399e-05 -1.66478e-05 -1.73538e-05 -2.02009e-05
8.07975e-05 -2.43104e-05 -2.42088e-05 -1.52487e-08
9.15082e-05 -2.74366e-05 -2.74593e-05 -2.41858e-08
6.11838e-05 -1.79791e-05 -1.85163e-05 -2.04622e-05
6.91963e-05 -2.05881e-05 -2.08321e-05 -1.07305e-05
8.6125e-05 -2.58836e-05 -2.58178e-05 -3.99801e-08
7.852e-05 -2.34586e-05 -2.35977e-05 -1.10889e-05
7.38444e-05 -2.20187e-05 -2.2211e-05 -1.09279e-05
5.71399e-05 -1.66478e-05 -1.73538e-05 -2.02009e-05
4.88698e-05 -1.38926e-05 -1.49902e-05 -1.95121e-05
7.07338e-05 -2.11999e-05 -2.12288e-05 -7.99863e-08
8.07975e-05 -2.43104e-05 -2.42088e-05 -1.52487e-08
5.3053e-05 -1.52994e-05 -1.61801e-05 -1.9886e-05
6.01819e-05 -1.77539e-05 -1.81834e-05 -1.00929e-05
7.56317e-05 -2.26614e-05 -2.27016e-05 -4.5409e-09
6.91963e-05 -2.05881e-05 -2.08321e-05 -1.07305e-05
6.46255e-05 -1.91724e-05 -1.94799e-05 -1.0475e-05
4.88698e-05 -1.38926e-05 -1.49902e-05 -1.95121e-05
4.04372e-05 -1.0909e-05 -1.26549e-05 -1.84545e-05
6.15856e-05 -1.88671e-05 -1.83079e-05 -2.88015e-08
7.07338e-05 -2.11999e-05 -2.12288e-05 -7.99863e-08
4.4646e-05 -1.24018e-05 -1.3819e-05 -1.90413e-05
5.14296e-05 -1.49156e-05 -1.56489e-05 -9.08877e-06
6.60648e-05 -2.01012e-05 -1.96987e-05 -1.49303e-07
6.01819e-05 -1.77539e-05 -1.81834e-05 -1.00929e-05
5.58038e-05 -1.63213e-05 -1.6921e-05 -9.60767e-06
4.04372e-05 -1.0909e-05 -1.26549e-05 -1.84545e-05
3.12369e-05 -7.93789e-06 -9.98531e-06 -1.73133e-05
5.44214e-05 -1.63034e-05 -1.63363e-05 -2.1991e-07
6.15856e-05 -1.88671e-05 -1.83079e-05 -2.88015e-08
3.60364e-05 -9.47138e-06 -1.1385e-05 -1.78633e-05
4.33867e-05 -1.21718e-05 -1.33778e-05 -7.44048e-06
5.76024e-05 -1.72033e-05 -1.73139e-05 6.34104e-08
5.14296e-05 -1.49156e-05 -1.56489e-05 -9.08877e-06
4.72327e-05 -1.35619e-05 -1.44304e-05 -8.45074e-06
3.12369e-05 -7.93789e-06 -9.98531e-06 -1.73133e-05
2.13187e-05 -4.98612e-06 -6.99967e-06 -1.65604e-05
5.04326e-05 -1.67417e-05 -1.44389e-05 3.46094e-07
5.44214e-05 -1.63034e-05 -1.63363e-05 -2.1991e-07
2.6258e-05 -6.25739e-06 -8.57169e-06 -1.6817e-05
3.5011e-05 -9.21039e-06 -1.10574e-05 -5.63895e-06
5.20342e-05 -1.69434e-05 -1.50389e-05 -4.83547e-07
4.33867e-05 -1.21718e-05 -1.33778e-05 -7.44048e-06
3.94574e-05 -1.06779e-05 -1.23341e-05 -6.34352e-06
2.13187e-05 -4.98612e-06 -6.99967e-06 -1.65604e-05
9.75392e-06 -5.24374e-06 -1.93294e-06 -1.93781e-05
5.35035e-05 -1.46317e-05 -1.66593e-05 2.11396e-06
5.04326e-05 -1.67417e-05 -1.44389e-05 3.46094e-07
1.59677e-05 -4.6747e-06 -4.83987e-06 -1.72161e-05
2.60847e-05 -6.73737e-06 -8.2917e-06 -4.49335e-06
5.05959e-05 -1.42151e-05 -1.55917e-05 1.5021e-06
3.5011e-05 -9.21039e-06 -1.10574e-05 -5.63895e-06
3.04269e-05 -7.90713e-06 -9.65134e-06 -5.20584e-06
9.75392e-06 -5.24374e-06 -1.93294e-06 -1.93781e-05
4.29846e-06 -1.86067e-05 6.13211e-06 -2.99055e-05
7.29602e-05 -1.48972e-05 -2.48841e-05 1.65862e-05
5.35035e-05 -1.46317e-05 -1.66593e-05 2.11396e-06
5.06745e-06 -7.77275e-06 1.15941e-06 -2.31208e-05
7.35865e-06 -1.18655e-05 1.93151e-06 -1.71136e-05
6.05075e-05 -2.0295e-05 -1.72339e-05 4.44708e-06
2.60847e-05 -6.73737e-06 -8.2917e-06 -4.49335e-06
1.92923e-05 -6.54807e-06 -5.4618e-06 -6.86846e-06
4.29846e-06 -1.86067e-05 6.13211e-06 -2.99055e-05
2.61652e-05 -8.16665e-05 2.37863e-05 -3.04934e-05
4.52505e-05 -0.000107955 2.68736e-05 -8.18296e-05
7.29602e-05 -1.48972e-05 -2.48841e-05 1.65862e-05
1.036e-05 -4.36358e-05 1.42611e-05 -3.53998e-05
2.37062e-05 -0.00010044 3.2886e-05 -4.90306e-05
7.36119e-05 -5.08578e-06 -2.93683e-05 7.62743e-06
7.35865e-06 -1.18655e-05 1.93151e-06 -1.71136e-05
4.19371e-06 -3.30905e-05 1.23843e-05 -3.21737e-05
      </DataArray> 
    </PointData>
    <CellData>
      <DataArray type="Float64" NumberOfComponents="1" Name="Process" format="ascii">
3
3
3
3
3
3
3
3
3
3
3
3
3
3
3
3
3
3
3
3
3
3
3
3
3
2
2
2
2
2
2
2
2
2
2
2
2
2
2
2
2
2
2
2
2
2
2
2
2
1
1
1
1
1
1
1
1
1
1
1
1
1
1
1
1
1
1
1
1
1
1
1
1
1
0
0
0
0
0
0
0
0
0
0
0
0
0
0
0
0
0
0
0
0
0
0
0
0
0
5
5
5
5
5
5
5
5
5
5
5
5
5
5
5
5
5
5
5
5
5
5
5
5
5
4
4
4
4
4
4
4
4
4
4
4
4
4
4
4
4
4
4
4
4
4
4
4
4
7
7
7
7
7
7
7
7
7
7
7
7
7
7
7
7
7
7
7
7
7
7
7
7
7
6
6
6
6
6
6
6
6
6
6
6
6
6
6
6
6
6
6
6
6
6
6
6
6
3
3
3
3
3
3
3
3
3
3
3
3
3
3
3
3
3
3
3
3
3
3
3
3
3
2
2
2
2
2
2
2
2
2
2
2
2
2
2
2
2
2
2
2
2
2
2
2
2
1
1
1
1
1
1
1
1
1
1
1
1
1
1
1
1
1
1
1
1
1
1
1
1
1
0
0
0
0
0
0
0
0
0
0
0
0
0
0
0
0
0
0
0
0
0
0
0
0
0
5
5
5
5
5
5
5
5
5
5
5
5
5
5
5
5
5
5
5
5
5
5
5
5
5
4
4
4
4
4
4
4
4
4
4
4
4
4
4
4
4
4
4
4
4
4
4
4
4
7
7
7
7
7
7
7
7
7
7
7
7
7
7
7
7
7
7
7
7
7
7
7
7
7
6
6
6
6
6
6
6
6
6
6
6
6
6
6
6
6
6
6
6
6
6
6
6
6
3
3
3
3
3
3
3
3
3
3
3
3
3
3
3
3
3
3
3
3
3
3
3
3
3
2
2
2
2
2
2
2
2
2
2
2
2
2
2
2
2
2
2
2
2
2
2
2
2
1
1
1
1
1
1
1
1
1
1
1
1
1
1
1
1
1
1
1
1
1
1
1
1
1
0
0
0
0
0
0
0
0
0
0
0
0
0
0
0
0
0
0
0
0
0
0
0
0
0
5
5
5
5
5
5
5
5
5
5
5
5
5
5
5
5
5
5
5
5
5
5
5
5
5
4
4
4
4
4
4
4
4
4
4
4
4
4
4
4
4
4
4
4
4
4
4
4
4
7
7
7
7
7
7
7
7
7
7
7
7
7
7
7
7
7
7
7
7
7
7
7
7
7
6
6
6
6
6
6
6
6
6
6
6
6
6
6
6
6
6
6
6
6
6
6
6
6
3
3
3
3
3
3
3
3
3
3
3
3
3
3
3
3
3
3
3
3
3
3
3
3
3
2
2
2
2
2
2
2
2
2
2
2
2
2
2
2
2
2
2
2
2
2
2
2
2
1
1
1
1
1
1
1
1
1
1
1
1
1
1
1
1
1
1
1
1
1
1
1
1
1
0
0
0
0
0
0
0
0
0
0
0
0
0
0
0
0
0
0
0
0
0
0
0
0
0
5
5
5
5
5
5
5
5
5
5
5
5
5
5
5
5
5
5
5
5
5
5
5
5
5
4
4
4
4
4
4
4
4
4
4
4
4
4
4
4
4
4
4
4
4
4
4
4
4
7
7
7
7
7
7
7
7
7
7
7
7
7
7
7
7
7
7
7
7
7
7
7
7
7
6
6
6
6
6
6
6
6
6
6
6
6
6
6
6
6
6
6
6
6
6
6
6
6
3
3
3
3
3
3
3
3
3
3
3
3
3
3
3
3
3
3
3
3
3
3
3
3
3
2
2
2
2
2
2
2
2
2
2
2
2
2
2
2
2
2
2
2
2
2
2
2
2
1
1
1
1
1
1
1
1
1
1
1
1
1
1
1
1
1
1
1
1
1
1
1
1
1
0
0
0
0
0
0
0
0
0
0
0
0
0
0
0
0
0
0
0
0
0
0
0
0
0
5
5
5
5
5
5
5
5
5
5
5
5
5
5
5
5
5
5
5
5
5
5
5
5
5
4
4
4
4
4
4
4
4
4
4
4
4
4
4
4
4
4
4
4
4
4
4
4
4
7
7
7
7
7
7
7
7
7
7
7
7
7
7
7
7
7
7
7
7
7
7
7
7
7
6
6
6
6
6
6
6
6
6
6
6
6
6
6
6
6
6
6
6
6
6
6
6
6
3
3
3
3
3
3
3
3
3
3
3
3
3
3
3
3
3
3
3
3
3
3
3
3
3
2
2
2
2
2
2
2
2
2
2
2
2
2
2
2
2
2
2
2
2
2
2
2
2
1
1
1
1
1
1
1
1
1
1
1
1
1
1
1
1
1
1
1
1
1
1
1
1
1
0
0
0
0
0
0
0
0
0
0
0
0
0
0
0
0
0
0
0
0
0
0
0
0
0
5
5
5
5
5
5
5
5
5
5
5
5
5
5
5
5
5
5
5
5
5
5
5
5
5
4
4
4
4
4
4
4
4
4
4
4
4
4
4
4
4
4
4
4
4
4
4
4
4
7
7
7
7
7
7
7
7
7
7
7
7
7
7
7
7
7
7
7
7
7
7
7
7
7
6
6
6
6
6
6
6
6
6
6
6
6
6
6
6
6
6
6
6
6
6
6
6
6
3
3
3
3
3
3
3
3
3
3
3
3
3
3
3
3
3
3
3
3
3
3
3
3
3
2
2
2
2
2
2
2
2
2
2
2
2
2
2
2
2
2
2
2
2
2
2
2
2
1
1
1
1
1
1
1
1
1
1
1
1
1
1
1
1
1
1
1
1
1
1
1
1
1
0
0
0
0
0
0
0
0
0
0
0
0
0
0
0
0
0
0
0
0
0
0
0
0
0
5
5
5
5
5
5
5
5
5
5
5
5
5
5
5
5
5
5
5
5
5
5
5
5
5
4
4
4
4
4
4
4
4
4
4
4
4
4
4
4
4
4
4
4
4
4
4
4
4
7
7
7
7
7
7
7
7
7
7
7
7
7
7
7
7
7
7
7
7
7
7
7
7
7
6
6
6
6
6
6
6
6
6
6
6
6
6
6
6
6
6
6
6
6
6
6
6
6
      </DataArray> 
    </CellData>
  </Piece>
  </UnstructuredGrid>
</VTKFile>
