<?xml version="1.0"?>
<VTKFile type="UnstructuredGrid">
  <UnstructuredGrid>
  <Piece NumberOfPoints="12411"  NumberOfCells="1379">
    <Points>
      <DataArray type="Float64" NumberOfComponents="3" format="ascii">
0 0 0
2.53422 -0.00191898 0
2.53578 4.28507 0
0 4.28571 0
1.26694 -0.00119633 0
2.53517 2.1417 0
1.26792 4.28548 0
0 2.14286 0
1.26765 2.14235 0
2.53422 -0.00191898 0
5.06897 -0.00333263 0
5.07137 4.28384 0
2.53578 4.28507 0
3.80159 -0.0025991 0
5.07023 2.14033 0
3.80358 4.28451 0
2.53517 2.1417 0
3.80269 2.14103 0
5.06897 -0.00333263 0
7.60368 -0.00503817 0
7.60693 4.28216 0
5.07137 4.28384 0
6.33633 -0.00413542 0
7.60532 2.13862 0
6.33915 4.28306 0
5.07023 2.14033 0
6.33777 2.13953 0
7.60368 -0.00503817 0
10.1384 -0.00723297 0
10.1425 4.27997 0
7.60693 4.28216 0
8.87103 -0.00606925 0
10.1404 2.13643 0
8.87472 4.28113 0
7.60532 2.13862 0
8.87288 2.13759 0
10.1384 -0.00723297 0
12.673 -0.00996235 0
12.6781 4.27724 0
10.1425 4.27997 0
11.4057 -0.00852897 0
12.6756 2.13369 0
11.4103 4.27867 0
10.1404 2.13643 0
11.408 2.13513 0
12.673 -0.00996235 0
15.2077 -0.013257 0
15.2137 4.27393 0
12.6781 4.27724 0
13.9404 -0.0115383 0
15.2107 2.1304 0
13.9459 4.27566 0
12.6756 2.13369 0
13.9431 2.13212 0
15.2077 -0.013257 0
17.7424 -0.0171211 0
17.7494 4.27006 0
15.2137 4.27393 0
16.475 -0.0151176 0
17.7459 2.12653 0
16.4815 4.27207 0
15.2107 2.1304 0
16.4783 2.12854 0
17.7424 -0.0171211 0
20.2771 -0.0215583 0
20.285 4.26562 0
17.7494 4.27006 0
19.0097 -0.0192681 0
20.281 2.12209 0
19.0172 4.26791 0
17.7459 2.12653 0
19.0135 2.12438 0
20.2771 -0.0215583 0
22.8117 -0.0265665 0
22.8206 4.2606 0
20.285 4.26562 0
21.5444 -0.0239912 0
22.8162 2.11708 0
21.5528 4.26318 0
20.281 2.12209 0
21.5486 2.11965 0
22.8117 -0.0265665 0
25.3465 -0.0321437 0
25.3563 4.25501 0
22.8206 4.2606 0
24.0791 -0.0292842 0
25.3514 2.11149 0
24.0885 4.25788 0
22.8162 2.11708 0
24.0838 2.11436 0
25.3465 -0.0321437 0
27.8812 -0.0382866 0
27.892 4.24886 0
25.3563 4.25501 0
26.6138 -0.0351446 0
27.8866 2.10535 0
26.6242 4.25201 0
25.3514 2.11149 0
26.619 2.10849 0
27.8812 -0.0382866 0
30.4159 -0.0449922 0
30.4277 4.24214 0
27.892 4.24886 0
29.1485 -0.0415692 0
30.4218 2.09864 0
29.1598 4.24557 0
27.8866 2.10535 0
29.1542 2.10206 0
30.4159 -0.0449922 0
32.9507 -0.0522574 0
32.9634 4.23487 0
30.4277 4.24214 0
31.6833 -0.048555 0
32.957 2.09136 0
31.6955 4.23857 0
30.4218 2.09864 0
31.6894 2.09507 0
32.9507 -0.0522574 0
35.4855 -0.0600791 0
35.4991 4.22703 0
32.9634 4.23487 0
34.2181 -0.0560989 0
35.4923 2.08354 0
34.2312 4.23102 0
32.957 2.09136 0
34.2247 2.08752 0
35.4855 -0.0600791 0
38.0202 -0.0684541 0
38.0348 4.21865 0
35.4991 4.22703 0
36.7528 -0.0641976 0
38.0275 2.07516 0
36.767 4.22291 0
35.4923 2.08354 0
36.7599 2.07942 0
38.0202 -0.0684541 0
40.5551 -0.0773795 0
40.5706 4.20971 0
38.0348 4.21865 0
39.2876 -0.0728482 0
40.5628 2.06622 0
39.3027 4.21425 0
38.0275 2.07516 0
39.2952 2.07076 0
40.5551 -0.0773795 0
43.0899 -0.0868523 0
43.1063 4.20023 0
40.5706 4.20971 0
41.8225 -0.0820477 0
43.0981 2.05675 0
41.8384 4.20504 0
40.5628 2.06622 0
41.8305 2.06155 0
43.0899 -0.0868523 0
45.6247 -0.0968693 0
45.6421 4.1902 0
43.1063 4.20023 0
44.3573 -0.0917929 0
45.6334 2.04672 0
44.3742 4.19528 0
43.0981 2.05675 0
44.3657 2.0518 0
45.6247 -0.0968693 0
48.1596 -0.107428 0
48.1778 4.17963 0
45.6421 4.1902 0
46.8921 -0.102081 0
48.1687 2.03616 0
46.9099 4.18498 0
45.6334 2.04672 0
46.901 2.04151 0
48.1596 -0.107428 0
50.6944 -0.118524 0
50.7136 4.16852 0
48.1778 4.17963 0
49.427 -0.112909 0
50.704 2.02506 0
49.4457 4.17414 0
48.1687 2.03616 0
49.4364 2.03067 0
50.6944 -0.118524 0
53.2293 -0.130156 0
53.2494 4.15688 0
50.7136 4.16852 0
51.9619 -0.124273 0
53.2394 2.01342 0
51.9815 4.16277 0
50.704 2.02506 0
51.9717 2.0193 0
53.2293 -0.130156 0
55.7642 -0.14232 0
55.7852 4.1447 0
53.2494 4.15688 0
54.4968 -0.136171 0
55.7747 2.00125 0
54.5173 4.15086 0
53.2394 2.01342 0
54.507 2.0074 0
55.7642 -0.14232 0
58.2991 -0.155013 0
58.321 4.132 0
55.7852 4.1447 0
57.0317 -0.1486 0
58.3101 1.98855 0
57.0531 4.13842 0
55.7747 2.00125 0
57.0424 1.99496 0
58.2991 -0.155013 0
60.8341 -0.168232 0
60.8568 4.11877 0
58.321 4.132 0
59.5666 -0.161557 0
60.8455 1.97532 0
59.5889 4.12545 0
58.3101 1.98855 0
59.5778 1.982 0
60.8341 -0.168232 0
63.369 -0.181974 0
63.3926 4.10501 0
60.8568 4.11877 0
62.1015 -0.175038 0
63.3808 1.96157 0
62.1247 4.11195 0
60.8455 1.97532 0
62.1131 1.96851 0
63.369 -0.181974 0
65.904 -0.196237 0
65.9285 4.09073 0
63.3926 4.10501 0
64.6365 -0.189041 0
65.9162 1.9473 0
64.6606 4.09794 0
63.3808 1.96157 0
64.6485 1.9545 0
65.904 -0.196237 0
68.4389 -0.211017 0
68.4643 4.07594 0
65.9285 4.09073 0
67.1715 -0.203562 0
68.4516 1.93252 0
67.1964 4.0834 0
65.9162 1.9473 0
67.1839 1.93998 0
68.4389 -0.211017 0
70.9739 -0.22631 0
71.0002 4.06064 0
68.4643 4.07594 0
69.7064 -0.218599 0
70.9871 1.91722 0
69.7323 4.06835 0
68.4516 1.93252 0
69.7194 1.92493 0
70.9739 -0.22631 0
73.5089 -0.242115 0
73.536 4.04482 0
71.0002 4.06064 0
72.2414 -0.234149 0
73.5225 1.90141 0
72.2681 4.05279 0
70.9871 1.91722 0
72.2548 1.90938 0
73.5089 -0.242115 0
76.044 -0.258428 0
76.0719 4.02849 0
73.536 4.04482 0
74.7765 -0.250208 0
76.058 1.88509 0
74.804 4.03672 0
73.5225 1.90141 0
74.7902 1.89331 0
76.044 -0.258428 0
78.579 -0.275246 0
78.6078 4.01166 0
76.0719 4.02849 0
77.3115 -0.266774 0
78.5934 1.86826 0
77.3399 4.02014 0
76.058 1.88509 0
77.3257 1.87674 0
78.579 -0.275246 0
81.114 -0.292566 0
81.1437 3.99433 0
78.6078 4.01166 0
79.8465 -0.283843 0
81.1289 1.85093 0
79.8758 4.00306 0
78.5934 1.86826 0
79.8612 1.85966 0
81.114 -0.292566 0
83.6491 -0.310385 0
83.6796 3.97649 0
81.1437 3.99433 0
82.3816 -0.301413 0
83.6644 1.83311 0
82.4117 3.98547 0
81.1289 1.85093 0
82.3966 1.84208 0
83.6491 -0.310385 0
86.1842 -0.3287 0
86.2155 3.95817 0
83.6796 3.97649 0
84.9167 -0.319481 0
86.1999 1.81479 0
84.9476 3.96739 0
83.6644 1.83311 0
84.9321 1.82401 0
86.1842 -0.3287 0
88.7193 -0.347508 0
88.7515 3.93934 0
86.2155 3.95817 0
87.4517 -0.338043 0
88.7354 1.79597 0
87.4835 3.94882 0
86.1999 1.81479 0
87.4676 1.80544 0
88.7193 -0.347508 0
91.2544 -0.366806 0
91.2874 3.92003 0
88.7515 3.93934 0
89.9868 -0.357096 0
91.2709 1.77666 0
90.0194 3.92975 0
88.7354 1.79597 0
90.0031 1.78638 0
91.2544 -0.366806 0
93.7895 -0.386591 0
93.8233 3.90023 0
91.2874 3.92003 0
92.522 -0.376638 0
93.8064 1.75687 0
92.5554 3.91019 0
91.2709 1.77666 0
92.5387 1.76683 0
93.7895 -0.386591 0
96.3246 -0.40686 0
96.3593 3.87995 0
93.8233 3.90023 0
95.0571 -0.396665 0
96.342 1.7366 0
95.0913 3.89015 0
93.8064 1.75687 0
95.0742 1.74679 0
96.3246 -0.40686 0
98.8598 -0.427609 0
98.8952 3.85919 0
96.3593 3.87995 0
97.5922 -0.417175 0
98.8775 1.71584 0
97.6273 3.86963 0
96.342 1.7366 0
97.6098 1.72628 0
98.8598 -0.427609 0
101.395 -0.448837 0
101.431 3.83794 0
98.8952 3.85919 0
100.127 -0.438164 0
101.413 1.6946 0
100.163 3.84862 0
98.8775 1.71584 0
100.145 1.70528 0
101.395 -0.448837 0
103.93 -0.470539 0
103.967 3.81623 0
101.431 3.83794 0
102.663 -0.459629 0
103.949 1.67289 0
102.699 3.82714 0
101.413 1.6946 0
102.681 1.68381 0
103.93 -0.470539 0
106.465 -0.492714 0
106.503 3.79404 0
103.967 3.81623 0
105.198 -0.481568 0
106.484 1.65071 0
105.235 3.80519 0
103.949 1.67289 0
105.216 1.66186 0
106.465 -0.492714 0
109.001 -0.515357 0
109.039 3.77138 0
106.503 3.79404 0
107.733 -0.503977 0
109.02 1.62806 0
107.771 3.78277 0
106.484 1.65071 0
107.752 1.63944 0
109.001 -0.515357 0
111.536 -0.538466 0
111.575 3.74826 0
109.039 3.77138 0
110.268 -0.526853 0
111.555 1.60494 0
110.307 3.75988 0
109.02 1.62806 0
110.288 1.61656 0
111.536 -0.538466 0
114.071 -0.562037 0
114.111 3.72467 0
111.575 3.74826 0
112.803 -0.550194 0
114.091 1.58136 0
112.843 3.73652 0
111.555 1.60494 0
112.823 1.59321 0
114.071 -0.562037 0
116.606 -0.586069 0
116.647 3.70062 0
114.111 3.72467 0
115.339 -0.573996 0
116.627 1.55733 0
115.379 3.7127 0
114.091 1.58136 0
115.359 1.5694 0
116.606 -0.586069 0
119.141 -0.610557 0
119.183 3.67612 0
116.647 3.70062 0
117.874 -0.598256 0
119.162 1.53283 0
117.915 3.68843 0
116.627 1.55733 0
117.895 1.54513 0
119.141 -0.610557 0
121.677 -0.635499 0
121.719 3.65116 0
119.183 3.67612 0
120.409 -0.622972 0
121.698 1.50788 0
120.451 3.6637 0
119.162 1.53283 0
120.43 1.52041 0
121.677 -0.635499 0
124.212 -0.660892 0
124.255 3.62575 0
121.719 3.65116 0
122.944 -0.648139 0
124.234 1.48248 0
122.987 3.63851 0
121.698 1.50788 0
122.966 1.49523 0
124.212 -0.660892 0
126.747 -0.686732 0
126.791 3.5999 0
124.255 3.62575 0
125.48 -0.673756 0
126.769 1.45663 0
125.523 3.61288 0
124.234 1.48248 0
125.502 1.46961 0
126.747 -0.686732 0
129.283 -0.713018 0
129.327 3.5736 0
126.791 3.5999 0
128.015 -0.69982 0
129.305 1.43034 0
128.059 3.5868 0
126.769 1.45663 0
128.037 1.44354 0
129.283 -0.713018 0
131.818 -0.739744 0
131.863 3.54685 0
129.327 3.5736 0
130.55 -0.726326 0
131.841 1.4036 0
130.595 3.56028 0
129.305 1.43034 0
130.573 1.41702 0
131.818 -0.739744 0
134.353 -0.76691 0
134.4 3.51967 0
131.863 3.54685 0
133.086 -0.753272 0
134.376 1.37643 0
133.132 3.53332 0
131.841 1.4036 0
133.109 1.39007 0
134.353 -0.76691 0
136.889 -0.794511 0
136.936 3.49206 0
134.4 3.51967 0
135.621 -0.780656 0
136.912 1.34882 0
135.668 3.50592 0
134.376 1.37643 0
135.644 1.36268 0
136.889 -0.794511 0
139.424 -0.822545 0
139.472 3.46401 0
136.936 3.49206 0
138.156 -0.808474 0
139.448 1.32078 0
138.204 3.47809 0
136.912 1.34882 0
138.18 1.33485 0
139.424 -0.822545 0
141.959 -0.851008 0
142.008 3.43553 0
139.472 3.46401 0
140.692 -0.836723 0
141.984 1.29231 0
140.74 3.44982 0
139.448 1.32078 0
140.716 1.30659 0
141.959 -0.851008 0
144.495 -0.879898 0
144.544 3.40662 0
142.008 3.43553 0
143.227 -0.8654 0
144.519 1.26341 0
143.276 3.42113 0
141.984 1.29231 0
143.252 1.27791 0
144.495 -0.879898 0
147.03 -0.909211 0
147.08 3.37729 0
144.544 3.40662 0
145.763 -0.894502 0
147.055 1.23409 0
145.812 3.39201 0
144.519 1.26341 0
145.787 1.2488 0
147.03 -0.909211 0
149.566 -0.938945 0
149.616 3.34754 0
147.08 3.37729 0
148.298 -0.924026 0
149.591 1.20434 0
148.348 3.36247 0
147.055 1.23409 0
148.323 1.21927 0
149.566 -0.938945 0
152.101 -0.969096 0
152.152 3.31737 0
149.616 3.34754 0
150.833 -0.953969 0
152.127 1.17418 0
150.884 3.33251 0
149.591 1.20434 0
150.859 1.18932 0
152.101 -0.969096 0
154.637 -0.999662 0
154.688 3.28679 0
152.152 3.31737 0
153.369 -0.984328 0
154.663 1.14361 0
153.42 3.30214 0
152.127 1.17418 0
153.395 1.15895 0
154.637 -0.999662 0
157.172 -1.03064 0
157.225 3.2558 0
154.688 3.28679 0
155.904 -1.0151 0
157.198 1.11262 0
155.957 3.27135 0
154.663 1.14361 0
155.93 1.12817 0
157.172 -1.03064 0
159.707 -1.06203 0
159.761 3.2244 0
157.225 3.2558 0
158.44 -1.04628 0
159.734 1.08123 0
158.493 3.24015 0
157.198 1.11262 0
158.466 1.09698 0
159.707 -1.06203 0
162.243 -1.09382 0
162.297 3.19259 0
159.761 3.2244 0
160.975 -1.07787 0
162.27 1.04943 0
161.029 3.20854 0
159.734 1.08123 0
161.002 1.06538 0
162.243 -1.09382 0
164.778 -1.12601 0
164.833 3.16038 0
162.297 3.19259 0
163.511 -1.10986 0
164.806 1.01723 0
163.565 3.17653 0
162.27 1.04943 0
163.538 1.03338 0
164.778 -1.12601 0
167.314 -1.1586 0
167.369 3.12777 0
164.833 3.16038 0
166.046 -1.14226 0
167.342 0.984625 0
166.101 3.14412 0
164.806 1.01723 0
166.074 1.00098 0
167.314 -1.1586 0
169.849 -1.19159 0
169.905 3.09476 0
167.369 3.12777 0
168.582 -1.17505 0
169.877 0.951627 0
168.637 3.11132 0
167.342 0.984625 0
168.61 0.968176 0
169.849 -1.19159 0
172.385 -1.22498 0
172.442 3.06136 0
169.905 3.09476 0
171.117 -1.20824 0
172.413 0.918236 0
171.174 3.07811 0
169.877 0.951627 0
171.145 0.934981 0
172.385 -1.22498 0
174.921 -1.25875 0
174.978 3.02757 0
172.442 3.06136 0
173.653 -1.24181 0
174.949 0.884454 0
173.71 3.04452 0
172.413 0.918236 0
173.681 0.901394 0
174.921 -1.25875 0
177.456 -1.29291 0
177.514 2.9934 0
174.978 3.02757 0
176.188 -1.27578 0
177.485 0.850285 0
176.246 3.01053 0
174.949 0.884454 0
176.217 0.867418 0
177.456 -1.29291 0
179.992 -1.32745 0
180.05 2.95884 0
177.514 2.9934 0
178.724 -1.31013 0
180.021 0.815732 0
178.782 2.97617 0
177.485 0.850285 0
178.753 0.833056 0
179.992 -1.32745 0
182.527 -1.36238 0
182.587 2.92389 0
180.05 2.95884 0
181.259 -1.34487 0
182.557 0.780797 0
181.318 2.94141 0
180.021 0.815732 0
181.289 0.798312 0
182.527 -1.36238 0
185.063 -1.39768 0
185.123 2.88857 0
182.587 2.92389 0
183.795 -1.37999 0
185.093 0.745484 0
183.855 2.90628 0
182.557 0.780797 0
183.825 0.763188 0
185.063 -1.39768 0
187.598 -1.43336 0
187.659 2.85288 0
185.123 2.88857 0
186.331 -1.41548 0
187.629 0.709796 0
186.391 2.87077 0
185.093 0.745484 0
186.361 0.727687 0
187.598 -1.43336 0
190.134 -1.46942 0
190.195 2.81681 0
187.659 2.85288 0
188.866 -1.45134 0
190.165 0.673735 0
188.927 2.83489 0
187.629 0.709796 0
188.897 0.691812 0
190.134 -1.46942 0
192.67 -1.50584 0
192.732 2.78037 0
190.195 2.81681 0
191.402 -1.48758 0
192.701 0.637306 0
191.463 2.79864 0
190.165 0.673735 0
191.433 0.655566 0
192.67 -1.50584 0
195.205 -1.54262 0
195.268 2.74357 0
192.732 2.78037 0
193.938 -1.52419 0
195.237 0.60051 0
194 2.76201 0
192.701 0.637306 0
193.969 0.618953 0
195.205 -1.54262 0
197.741 -1.57977 0
197.804 2.7064 0
195.268 2.74357 0
196.473 -1.56115 0
197.773 0.563351 0
196.536 2.72503 0
195.237 0.60051 0
196.505 0.581976 0
197.741 -1.57977 0
200.277 -1.61729 0
200.34 2.66887 0
197.804 2.7064 0
199.009 -1.59849 0
200.309 0.525832 0
199.072 2.68768 0
197.773 0.563351 0
199.041 0.544636 0
200.277 -1.61729 0
202.812 -1.65515 0
202.877 2.63099 0
200.34 2.66887 0
201.545 -1.63617 0
202.845 0.487955 0
201.608 2.64997 0
200.309 0.525832 0
201.577 0.506938 0
202.812 -1.65515 0
205.348 -1.69337 0
205.413 2.59275 0
202.877 2.63099 0
204.08 -1.67422 0
205.381 0.449725 0
204.145 2.61191 0
202.845 0.487955 0
204.113 0.468884 0
205.348 -1.69337 0
207.884 -1.73195 0
207.949 2.55416 0
205.413 2.59275 0
206.616 -1.71262 0
207.917 0.411144 0
206.681 2.5735 0
205.381 0.449725 0
206.649 0.430478 0
207.884 -1.73195 0
210.42 -1.77087 0
210.486 2.51522 0
207.949 2.55416 0
209.152 -1.75136 0
210.453 0.372214 0
209.217 2.53473 0
207.917 0.411144 0
209.185 0.391722 0
210.42 -1.77087 0
212.955 -1.81013 0
213.022 2.47594 0
210.486 2.51522 0
211.687 -1.79046 0
212.989 0.332939 0
211.754 2.49562 0
210.453 0.372214 0
211.721 0.35262 0
212.955 -1.81013 0
215.491 -1.84974 0
215.558 2.43632 0
213.022 2.47594 0
214.223 -1.8299 0
215.525 0.293323 0
214.29 2.45617 0
212.989 0.332939 0
214.257 0.313174 0
215.491 -1.84974 0
218.027 -1.88969 0
218.095 2.39635 0
215.558 2.43632 0
216.759 -1.86967 0
218.061 0.253367 0
216.826 2.41638 0
215.525 0.293323 0
216.793 0.273387 0
218.027 -1.88969 0
220.563 -1.92997 0
220.631 2.35605 0
218.095 2.39635 0
219.295 -1.90979 0
220.597 0.213076 0
219.363 2.37624 0
218.061 0.253367 0
219.329 0.233263 0
220.563 -1.92997 0
223.098 -1.97059 0
223.167 2.31542 0
220.631 2.35605 0
221.83 -1.95024 0
223.133 0.172451 0
221.899 2.33578 0
220.597 0.213076 0
221.865 0.192805 0
223.098 -1.97059 0
225.634 -2.01153 0
225.704 2.27446 0
223.167 2.31542 0
224.366 -1.99102 0
225.669 0.131497 0
224.435 2.29498 0
223.133 0.172451 0
224.401 0.152015 0
225.634 -2.01153 0
228.17 -2.05281 0
228.24 2.23317 0
225.704 2.27446 0
226.902 -2.03213 0
228.205 0.0902156 0
226.972 2.25385 0
225.669 0.131497 0
226.937 0.110897 0
228.17 -2.05281 0
230.706 -2.0944 0
230.776 2.19155 0
228.24 2.23317 0
229.438 -2.07356 0
230.741 0.0486104 0
229.508 2.2124 0
228.205 0.0902156 0
229.473 0.0694533 0
230.706 -2.0944 0
233.242 -2.13632 0
233.313 2.14962 0
230.776 2.19155 0
231.974 -2.11532 0
233.277 0.00668429 0
232.044 2.17063 0
230.741 0.0486104 0
232.009 0.0276872 0
233.242 -2.13632 0
235.777 -2.17855 0
235.849 2.10737 0
233.313 2.14962 0
234.51 -2.1574 0
235.813 -0.0355596 0
234.581 2.12853 0
233.277 0.00668429 0
234.545 -0.0143981 0
235.777 -2.17855 0
238.313 -2.22111 0
238.385 2.0648 0
235.849 2.10737 0
237.045 -2.19979 0
238.349 -0.0781184 0
237.117 2.08612 0
235.813 -0.0355596 0
237.081 -0.0567998 0
238.313 -2.22111 0
240.849 -2.26397 0
240.922 2.02192 0
238.385 2.0648 0
239.581 -2.2425 0
240.886 -0.120989 0
239.654 2.0434 0
238.349 -0.0781184 0
239.617 -0.0995149 0
240.849 -2.26397 0
243.385 -2.30714 0
243.458 1.97874 0
240.922 2.02192 0
242.117 -2.28551 0
243.422 -0.164168 0
242.19 2.00037 0
240.886 -0.120989 0
242.154 -0.14254 0
243.385 -2.30714 0
245.921 -2.35061 0
245.995 1.93524 0
243.458 1.97874 0
244.653 -2.32884 0
245.958 -0.207653 0
244.726 1.95703 0
243.422 -0.164168 0
244.69 -0.185873 0
245.921 -2.35061 0
248.457 -2.39439 0
248.531 1.89145 0
245.995 1.93524 0
247.189 -2.37247 0
248.494 -0.251441 0
247.263 1.91338 0
245.958 -0.207653 0
247.226 -0.22951 0
248.457 -2.39439 0
250.993 -2.43847 0
251.068 1.84735 0
248.531 1.89145 0
249.725 -2.4164 0
251.03 -0.295529 0
249.799 1.86944 0
248.494 -0.251441 0
249.762 -0.273448 0
250.993 -2.43847 0
253.529 -2.48285 0
253.604 1.80296 0
251.068 1.84735 0
252.261 -2.46062 0
253.566 -0.339913 0
252.336 1.82519 0
251.03 -0.295529 0
252.298 -0.317684 0
253.529 -2.48285 0
256.065 -2.52752 0
256.14 1.75827 0
253.604 1.80296 0
254.797 -2.50515 0
256.103 -0.384591 0
254.872 1.78065 0
253.566 -0.339913 0
254.834 -0.362215 0
256.065 -2.52752 0
258.601 -2.57248 0
258.677 1.7133 0
256.14 1.75827 0
257.333 -2.54996 0
258.639 -0.429559 0
257.409 1.73582 0
256.103 -0.384591 0
257.371 -0.407039 0
258.601 -2.57248 0
261.137 -2.61772 0
261.213 1.66803 0
258.677 1.7133 0
259.869 -2.59507 0
261.175 -0.474815 0
259.945 1.6907 0
258.639 -0.429559 0
259.907 -0.452152 0
261.137 -2.61772 0
263.673 -2.66326 0
263.75 1.62248 0
261.213 1.66803 0
262.405 -2.64046 0
263.711 -0.520356 0
262.482 1.64529 0
261.175 -0.474815 0
262.443 -0.49755 0
263.673 -2.66326 0
266.209 -2.70907 0
266.286 1.57665 0
263.75 1.62248 0
264.941 -2.68613 0
266.247 -0.566179 0
265.018 1.5996 0
263.711 -0.520356 0
264.979 -0.543232 0
266.209 -2.70907 0
268.745 -2.75516 0
268.823 1.53055 0
266.286 1.57665 0
267.477 -2.73208 0
268.784 -0.612279 0
267.554 1.55364 0
266.247 -0.566179 0
267.516 -0.589194 0
268.745 -2.75516 0
271.281 -2.80153 0
271.359 1.48416 0
268.823 1.53055 0
270.013 -2.77831 0
271.32 -0.658656 0
270.091 1.50739 0
268.784 -0.612279 0
270.052 -0.635433 0
271.281 -2.80153 0
273.817 -2.84817 0
273.896 1.43751 0
271.359 1.48416 0
272.549 -2.82482 0
273.856 -0.705305 0
272.627 1.46087 0
271.32 -0.658656 0
272.588 -0.681946 0
273.817 -2.84817 0
276.353 -2.89508 0
276.432 1.39058 0
273.896 1.43751 0
275.085 -2.87159 0
276.393 -0.752223 0
275.164 1.41408 0
273.856 -0.705305 0
275.124 -0.728731 0
276.353 -2.89508 0
278.889 -2.94226 0
278.969 1.34339 0
276.432 1.39058 0
277.621 -2.91864 0
278.929 -0.799408 0
277.7 1.36702 0
276.393 -0.752223 0
277.661 -0.775783 0
278.889 -2.94226 0
281.425 -2.9897 0
281.505 1.29593 0
278.969 1.34339 0
280.157 -2.96595 0
281.465 -0.846856 0
280.237 1.31969 0
278.929 -0.799408 0
280.197 -0.8231 0
281.425 -2.9897 0
283.961 -3.0374 0
284.042 1.24821 0
281.505 1.29593 0
282.693 -3.01352 0
284.001 -0.894565 0
282.774 1.2721 0
281.465 -0.846856 0
282.733 -0.870678 0
283.961 -3.0374 0
286.497 -3.08536 0
286.578 1.20024 0
284.042 1.24821 0
285.229 -3.06135 0
286.538 -0.942531 0
285.31 1.22426 0
284.001 -0.894565 0
285.27 -0.918516 0
286.497 -3.08536 0
289.033 -3.13357 0
289.115 1.15201 0
286.578 1.20024 0
287.765 -3.10943 0
289.074 -0.990752 0
287.847 1.17616 0
286.538 -0.942531 0
287.806 -0.96661 0
289.033 -3.13357 0
291.569 -3.18203 0
291.651 1.10353 0
289.115 1.15201 0
290.301 -3.15777 0
291.61 -1.03922 0
290.383 1.1278 0
289.074 -0.990752 0
290.342 -1.01496 0
291.569 -3.18203 0
294.106 -3.23074 0
294.188 1.0548 0
291.651 1.10353 0
292.837 -3.20636 0
294.147 -1.08794 0
292.92 1.0792 0
291.61 -1.03922 0
292.879 -1.06355 0
294.106 -3.23074 0
296.642 -3.2797 0
296.725 1.00583 0
294.188 1.0548 0
295.374 -3.25519 0
296.683 -1.13691 0
295.456 1.03035 0
294.147 -1.08794 0
295.415 -1.1124 0
296.642 -3.2797 0
299.178 -3.3289 0
299.261 0.956616 0
296.725 1.00583 0
297.91 -3.30427 0
299.22 -1.18612 0
297.993 0.981254 0
296.683 -1.13691 0
297.951 -1.16148 0
299.178 -3.3289 0
301.714 -3.37834 0
301.798 0.907162 0
299.261 0.956616 0
300.446 -3.35359 0
301.756 -1.23556 0
300.529 0.931919 0
299.22 -1.18612 0
300.488 -1.21081 0
301.714 -3.37834 0
304.25 -3.42802 0
304.334 0.857471 0
301.798 0.907162 0
302.982 -3.40315 0
304.292 -1.28525 0
303.066 0.882346 0
301.756 -1.23556 0
303.024 -1.26038 0
304.25 -3.42802 0
306.786 -3.47792 0
306.871 0.807547 0
304.334 0.857471 0
305.518 -3.45294 0
306.829 -1.33516 0
305.603 0.832538 0
304.292 -1.28525 0
305.56 -1.31018 0
306.786 -3.47792 0
309.323 -3.52806 0
309.408 0.757393 0
306.871 0.807547 0
308.055 -3.50297 0
309.365 -1.38531 0
308.139 0.782498 0
306.829 -1.33516 0
308.097 -1.36021 0
309.323 -3.52806 0
311.859 -3.57843 0
311.944 0.707012 0
309.408 0.757393 0
310.591 -3.55322 0
311.902 -1.43569 0
310.676 0.73223 0
309.365 -1.38531 0
310.633 -1.41047 0
311.859 -3.57843 0
314.395 -3.62902 0
314.481 0.656406 0
311.944 0.707012 0
313.127 -3.6037 0
314.438 -1.48628 0
313.212 0.681737 0
311.902 -1.43569 0
313.17 -1.46096 0
314.395 -3.62902 0
316.931 -3.67983 0
317.017 0.60558 0
314.481 0.656406 0
315.663 -3.6544 0
316.974 -1.5371 0
315.749 0.63102 0
314.438 -1.48628 0
315.706 -1.51167 0
316.931 -3.67983 0
319.468 -3.73086 0
319.554 0.554535 0
317.017 0.60558 0
318.2 -3.70532 0
319.511 -1.58814 0
318.286 0.580084 0
316.974 -1.5371 0
318.243 -1.56259 0
319.468 -3.73086 0
322.004 -3.7821 0
322.091 0.503275 0
319.554 0.554535 0
320.736 -3.75646 0
322.047 -1.63939 0
320.822 0.528932 0
319.511 -1.58814 0
320.779 -1.61374 0
322.004 -3.7821 0
324.54 -3.83356 0
324.627 0.451804 0
322.091 0.503275 0
323.272 -3.80781 0
324.584 -1.69086 0
323.359 0.477566 0
322.047 -1.63939 0
323.316 -1.6651 0
324.54 -3.83356 0
327.077 -3.88523 0
327.164 0.400123 0
324.627 0.451804 0
325.808 -3.85937 0
327.12 -1.74253 0
325.896 0.425989 0
324.584 -1.69086 0
325.852 -1.71667 0
327.077 -3.88523 0
329.613 -3.9371 0
329.701 0.348237 0
327.164 0.400123 0
328.345 -3.91114 0
329.657 -1.79441 0
328.432 0.374205 0
327.12 -1.74253 0
328.389 -1.76844 0
329.613 -3.9371 0
332.149 -3.98917 0
332.237 0.296147 0
329.701 0.348237 0
330.881 -3.96311 0
332.193 -1.84649 0
330.969 0.322217 0
329.657 -1.79441 0
330.925 -1.82043 0
332.149 -3.98917 0
334.686 -4.04145 0
334.774 0.243857 0
332.237 0.296147 0
333.417 -4.01529 0
334.73 -1.89877 0
333.506 0.270027 0
332.193 -1.84649 0
333.462 -1.87261 0
334.686 -4.04145 0
337.222 -4.09392 0
337.311 0.191371 0
334.774 0.243857 0
335.954 -4.06766 0
337.266 -1.95125 0
336.042 0.217639 0
334.73 -1.89877 0
335.998 -1.92499 0
337.222 -4.09392 0
339.758 -4.14659 0
339.848 0.138691 0
337.311 0.191371 0
338.49 -4.12023 0
339.803 -2.00393 0
338.579 0.165055 0
337.266 -1.95125 0
338.535 -1.97757 0
339.758 -4.14659 0
342.295 -4.19944 0
342.384 0.0858196 0
339.848 0.138691 0
341.027 -4.17299 0
342.34 -2.05679 0
341.116 0.112279 0
339.803 -2.00393 0
341.071 -2.03034 0
342.295 -4.19944 0
344.831 -4.25249 0
344.921 0.0327607 0
342.384 0.0858196 0
343.563 -4.22594 0
344.876 -2.10984 0
343.653 0.0593134 0
342.34 -2.05679 0
343.608 -2.08329 0
344.831 -4.25249 0
347.368 -4.30572 0
347.458 -0.0204831 0
344.921 0.0327607 0
346.099 -4.27908 0
347.413 -2.16308 0
346.189 0.00616167 0
344.876 -2.10984 0
346.144 -2.13644 0
347.368 -4.30572 0
349.904 -4.35913 0
349.994 -0.0739087 0
347.458 -0.0204831 0
348.636 -4.3324 0
349.949 -2.2165 0
348.726 -0.0471734 0
347.413 -2.16308 0
348.681 -2.18977 0
349.904 -4.35913 0
352.441 -4.41272 0
352.531 -0.127513 0
349.994 -0.0739087 0
351.172 -4.3859 0
352.486 -2.2701 0
351.263 -0.100689 0
349.949 -2.2165 0
351.218 -2.24328 0
352.441 -4.41272 0
354.977 -4.46649 0
355.068 -0.181293 0
352.531 -0.127513 0
353.709 -4.43958 0
355.023 -2.32387 0
353.8 -0.154381 0
352.486 -2.2701 0
353.754 -2.29696 0
354.977 -4.46649 0
357.514 -4.52042 0
357.605 -0.235246 0
355.068 -0.181293 0
356.245 -4.49343 0
357.559 -2.37782 0
356.336 -0.208248 0
355.023 -2.32387 0
356.291 -2.35082 0
357.514 -4.52042 0
360.05 -4.57453 0
360.142 -0.289368 0
357.605 -0.235246 0
358.782 -4.54746 0
360.096 -2.43193 0
358.873 -0.262286 0
357.559 -2.37782 0
358.827 -2.40485 0
360.05 -4.57453 0
362.587 -4.62881 0
362.678 -0.343658 0
360.142 -0.289368 0
361.318 -4.60165 0
362.632 -2.48622 0
361.41 -0.316492 0
360.096 -2.43193 0
361.364 -2.45905 0
362.587 -4.62881 0
365.123 -4.68325 0
365.215 -0.39811 0
362.678 -0.343658 0
363.855 -4.65601 0
365.169 -2.54066 0
363.947 -0.370864 0
362.632 -2.48622 0
363.901 -2.51342 0
365.123 -4.68325 0
367.66 -4.73785 0
367.752 -0.452724 0
365.215 -0.39811 0
366.391 -4.71053 0
367.706 -2.59527 0
366.484 -0.425397 0
365.169 -2.54066 0
366.437 -2.56795 0
367.66 -4.73785 0
370.196 -4.7926 0
370.289 -0.507495 0
367.752 -0.452724 0
368.928 -4.76521 0
370.242 -2.65003 0
369.02 -0.48009 0
367.706 -2.59527 0
368.974 -2.62263 0
370.196 -4.7926 0
372.733 -4.84752 0
372.826 -0.56242 0
370.289 -0.507495 0
371.464 -4.82004 0
372.779 -2.70495 0
371.557 -0.534939 0
370.242 -2.65003 0
371.511 -2.67747 0
372.733 -4.84752 0
375.269 -4.90258 0
375.362 -0.617498 0
372.826 -0.56242 0
374.001 -4.87503 0
375.316 -2.76002 0
374.094 -0.58994 0
372.779 -2.70495 0
374.048 -2.73247 0
375.269 -4.90258 0
377.806 -4.95779 0
377.899 -0.672723 0
375.362 -0.617498 0
376.538 -4.93017 0
377.853 -2.81524 0
376.631 -0.645092 0
375.316 -2.76002 0
376.584 -2.78762 0
377.806 -4.95779 0
380.343 -5.01315 0
380.436 -0.728094 0
377.899 -0.672723 0
379.074 -4.98545 0
380.389 -2.87061 0
379.168 -0.700391 0
377.853 -2.81524 0
379.121 -2.84291 0
380.343 -5.01315 0
382.879 -5.06865 0
382.973 -0.783608 0
380.436 -0.728094 0
381.611 -5.04088 0
382.926 -2.92612 0
381.705 -0.755834 0
380.389 -2.87061 0
381.658 -2.89834 0
382.879 -5.06865 0
385.416 -5.12429 0
385.51 -0.839261 0
382.973 -0.783608 0
384.148 -5.09646 0
385.463 -2.98176 0
384.241 -0.811417 0
382.926 -2.92612 0
384.195 -2.95392 0
385.416 -5.12429 0
387.953 -5.18007 0
388.047 -0.895051 0
385.51 -0.839261 0
386.684 -5.15216 0
388 -3.03755 0
386.778 -0.867139 0
385.463 -2.98176 0
386.731 -3.00964 0
387.953 -5.18007 0
390.489 -5.23598 0
390.584 -0.950974 0
388.047 -0.895051 0
389.221 -5.20801 0
390.536 -3.09346 0
389.315 -0.922996 0
388 -3.03755 0
389.268 -3.06549 0
390.489 -5.23598 0
393.026 -5.29202 0
393.121 -1.00703 0
390.584 -0.950974 0
391.758 -5.26398 0
393.073 -3.14951 0
391.852 -0.978984 0
390.536 -3.09346 0
391.805 -3.12147 0
393.026 -5.29202 0
395.563 -5.34819 0
395.658 -1.06321 0
393.121 -1.00703 0
394.294 -5.32009 0
395.61 -3.20568 0
394.389 -1.0351 0
393.073 -3.14951 0
394.342 -3.17758 0
395.563 -5.34819 0
398.099 -5.40448 0
398.194 -1.11951 0
395.658 -1.06321 0
396.831 -5.37632 0
398.147 -3.26198 0
396.926 -1.09134 0
395.61 -3.20568 0
396.878 -3.23382 0
398.099 -5.40448 0
400.636 -5.4609 0
400.731 -1.17594 0
398.194 -1.11951 0
399.368 -5.43267 0
400.684 -3.3184 0
399.463 -1.14771 0
398.147 -3.26198 0
399.415 -3.29018 0
400.636 -5.4609 0
403.173 -5.51743 0
403.268 -1.23248 0
400.731 -1.17594 0
401.904 -5.48915 0
403.221 -3.37494 0
402 -1.2042 0
400.684 -3.3184 0
401.952 -3.34666 0
403.173 -5.51743 0
405.71 -5.57408 0
405.805 -1.28914 0
403.268 -1.23248 0
404.441 -5.54574 0
405.757 -3.4316 0
404.537 -1.2608 0
403.221 -3.37494 0
404.489 -3.40326 0
405.71 -5.57408 0
408.246 -5.63084 0
408.342 -1.34592 0
405.805 -1.28914 0
406.978 -5.60244 0
408.294 -3.48836 0
407.074 -1.31752 0
405.757 -3.4316 0
407.026 -3.45997 0
408.246 -5.63084 0
410.783 -5.6877 0
410.879 -1.4028 0
408.342 -1.34592 0
409.515 -5.65926 0
410.831 -3.54524 0
409.611 -1.37434 0
408.294 -3.48836 0
409.563 -3.51679 0
410.783 -5.6877 0
413.32 -5.74468 0
413.416 -1.45978 0
410.879 -1.4028 0
412.052 -5.71618 0
413.368 -3.60222 0
412.148 -1.43128 0
410.831 -3.54524 0
412.1 -3.57372 0
413.32 -5.74468 0
415.857 -5.80176 0
415.953 -1.51687 0
413.416 -1.45978 0
414.588 -5.77321 0
415.905 -3.65931 0
414.685 -1.48832 0
413.368 -3.60222 0
414.637 -3.63075 0
415.857 -5.80176 0
418.394 -5.85894 0
418.49 -1.57407 0
415.953 -1.51687 0
417.125 -5.83034 0
418.442 -3.71649 0
417.222 -1.54546 0
415.905 -3.65931 0
417.174 -3.68789 0
418.394 -5.85894 0
420.931 -5.91621 0
421.027 -1.63135 0
418.49 -1.57407 0
419.662 -5.88756 0
420.979 -3.77377 0
419.759 -1.6027 0
418.442 -3.71649 0
419.71 -3.74512 0
420.931 -5.91621 0
423.467 -5.97359 0
423.564 -1.68873 0
421.027 -1.63135 0
422.199 -5.94489 0
423.516 -3.83115 0
422.296 -1.66003 0
420.979 -3.77377 0
422.247 -3.80245 0
423.467 -5.97359 0
426.004 -6.03105 0
426.101 -1.74621 0
423.564 -1.68873 0
424.736 -6.00231 0
426.053 -3.88862 0
424.833 -1.71746 0
423.516 -3.83115 0
424.784 -3.85987 0
426.004 -6.03105 0
428.541 -6.0886 0
428.638 -1.80377 0
426.101 -1.74621 0
427.273 -6.05981 0
428.59 -3.94617 0
427.37 -1.77498 0
426.053 -3.88862 0
427.321 -3.91739 0
428.541 -6.0886 0
431.078 -6.14623 0
431.175 -1.86141 0
428.638 -1.80377 0
429.81 -6.1174 0
431.127 -4.00382 0
429.907 -1.83258 0
428.59 -3.94617 0
429.858 -3.97498 0
431.078 -6.14623 0
433.615 -6.20395 0
433.713 -1.91914 0
431.175 -1.86141 0
432.347 -6.17508 0
433.664 -4.06154 0
432.444 -1.89027 0
431.127 -4.00382 0
432.395 -4.03267 0
433.615 -6.20395 0
436.152 -6.26175 0
436.25 -1.97695 0
433.713 -1.91914 0
434.884 -6.23284 0
436.201 -4.11934 0
434.981 -1.94804 0
433.664 -4.06154 0
434.932 -4.09043 0
436.152 -6.26175 0
438.689 -6.31962 0
438.787 -2.03483 0
436.25 -1.97695 0
437.421 -6.29067 0
438.738 -4.17722 0
437.518 -2.00588 0
436.201 -4.11934 0
437.469 -4.14827 0
438.689 -6.31962 0
441.226 -6.37756 0
441.324 -2.09279 0
438.787 -2.03483 0
439.957 -6.34858 0
441.275 -4.23517 0
440.055 -2.0638 0
438.738 -4.17722 0
440.006 -4.20618 0
441.226 -6.37756 0
443.763 -6.43558 0
443.861 -2.15081 0
441.324 -2.09279 0
442.494 -6.40656 0
443.812 -4.29319 0
442.592 -2.12179 0
441.275 -4.23517 0
442.543 -4.26417 0
443.763 -6.43558 0
446.3 -6.49366 0
446.398 -2.20891 0
443.861 -2.15081 0
445.032 -6.46461 0
446.349 -4.35128 0
445.13 -2.17985 0
443.812 -4.29319 0
445.081 -4.32223 0
446.3 -6.49366 0
448.837 -6.55181 0
448.935 -2.26706 0
446.398 -2.20891 0
447.569 -6.52273 0
448.886 -4.40943 0
447.667 -2.23798 0
446.349 -4.35128 0
447.618 -4.38035 0
448.837 -6.55181 0
451.374 -6.61001 0
451.472 -2.32528 0
448.935 -2.26706 0
450.106 -6.5809 0
451.423 -4.46764 0
450.204 -2.29616 0
448.886 -4.40943 0
450.155 -4.43853 0
451.374 -6.61001 0
453.911 -6.66828 0
454.01 -2.38355 0
451.472 -2.32528 0
452.643 -6.63914 0
453.96 -4.52591 0
452.741 -2.35441 0
451.423 -4.46764 0
452.692 -4.49677 0
453.911 -6.66828 0
456.448 -6.7266 0
456.547 -2.44188 0
454.01 -2.38355 0
455.18 -6.69743 0
456.498 -4.58424 0
455.278 -2.41271 0
453.96 -4.52591 0
455.229 -4.55507 0
456.448 -6.7266 0
458.985 -6.78497 0
459.084 -2.50027 0
456.547 -2.44188 0
457.717 -6.75578 0
459.035 -4.64261 0
457.815 -2.47107 0
456.498 -4.58424 0
457.766 -4.61342 0
458.985 -6.78497 0
461.522 -6.84339 0
461.621 -2.5587 0
459.084 -2.50027 0
460.254 -6.81418 0
461.572 -4.70104 0
460.353 -2.52948 0
459.035 -4.64261 0
460.303 -4.67182 0
461.522 -6.84339 0
464.06 -6.90186 0
464.158 -2.61717 0
461.621 -2.5587 0
462.791 -6.87262 0
464.109 -4.75951 0
462.89 -2.58793 0
461.572 -4.70104 0
462.84 -4.73027 0
464.06 -6.90186 0
466.597 -6.96037 0
466.696 -2.67569 0
464.158 -2.61717 0
465.328 -6.93111 0
466.646 -4.81802 0
465.427 -2.64643 0
464.109 -4.75951 0
465.378 -4.78876 0
466.597 -6.96037 0
469.134 -7.01892 0
469.233 -2.73425 0
466.696 -2.67569 0
467.865 -6.98964 0
469.183 -4.87658 0
467.964 -2.70496 0
466.646 -4.81802 0
467.915 -4.8473 0
469.134 -7.01892 0
471.671 -7.0775 0
471.77 -2.79284 0
469.233 -2.73425 0
470.403 -7.0482 0
471.721 -4.93517 0
470.501 -2.76354 0
469.183 -4.87658 0
470.452 -4.90587 0
471.671 -7.0775 0
474.208 -7.13612 0
474.307 -2.85147 0
471.77 -2.79284 0
472.94 -7.10681 0
474.258 -4.99379 0
473.039 -2.82215 0
471.721 -4.93517 0
472.989 -4.96448 0
474.208 -7.13612 0
476.746 -7.19477 0
476.845 -2.91013 0
474.307 -2.85147 0
475.477 -7.16544 0
476.795 -5.05245 0
475.576 -2.8808 0
474.258 -4.99379 0
475.526 -5.02312 0
476.746 -7.19477 0
479.283 -7.25345 0
479.382 -2.96882 0
476.845 -2.91013 0
478.014 -7.22411 0
479.332 -5.11113 0
478.113 -2.93947 0
476.795 -5.05245 0
478.064 -5.08178 0
479.283 -7.25345 0
481.82 -7.31215 0
481.919 -3.02753 0
479.382 -2.96882 0
480.551 -7.28279 0
481.87 -5.16983 0
480.651 -2.99817 0
479.332 -5.11113 0
480.601 -5.14048 0
481.82 -7.31215 0
484.357 -7.37087 0
484.456 -3.08626 0
481.919 -3.02753 0
483.089 -7.34151 0
484.407 -5.22856 0
483.188 -3.05689 0
481.87 -5.16983 0
483.138 -5.1992 0
484.357 -7.37087 0
486.895 -7.42961 0
486.994 -3.14501 0
484.456 -3.08626 0
485.626 -7.40024 0
486.944 -5.28731 0
485.725 -3.11563 0
484.407 -5.22856 0
485.676 -5.25793 0
486.895 -7.42961 0
489.432 -7.48837 0
489.531 -3.20378 0
486.994 -3.14501 0
488.163 -7.45899 0
489.482 -5.34607 0
488.262 -3.17439 0
486.944 -5.28731 0
488.213 -5.31669 0
489.432 -7.48837 0
491.969 -7.54715 0
492.069 -3.26256 0
489.531 -3.20378 0
490.701 -7.51776 0
492.019 -5.40485 0
490.8 -3.23317 0
489.482 -5.34607 0
490.75 -5.37546 0
491.969 -7.54715 0
494.507 -7.60595 0
494.606 -3.32137 0
492.069 -3.26256 0
493.238 -7.57655 0
494.556 -5.46366 0
493.337 -3.29196 0
492.019 -5.40485 0
493.288 -5.43425 0
494.507 -7.60595 0
497.044 -7.66481 0
497.143 -3.38021 0
494.606 -3.32137 0
495.775 -7.63537 0
497.094 -5.52251 0
495.875 -3.35078 0
494.556 -5.46366 0
495.825 -5.49307 0
497.044 -7.66481 0
499.581 -7.7239 0
499.681 -3.43908 0
497.143 -3.38021 0
498.313 -7.69429 0
499.631 -5.58148 0
498.412 -3.40965 0
497.094 -5.52251 0
498.362 -5.55198 0
0 4.28571 0
2.53578 4.28507 0
2.53674 8.57129 0
0 8.57143 0
1.26792 4.28548 0
2.53628 6.42824 0
1.26839 8.57147 0
0 6.42857 0
1.26815 6.4285 0
2.53578 4.28507 0
5.07137 4.28384 0
5.07337 8.57039 0
2.53674 8.57129 0
3.80358 4.28451 0
5.0724 6.42719 0
3.80506 8.57093 0
2.53628 6.42824 0
3.80435 6.4278 0
5.07137 4.28384 0
7.60693 4.28216 0
7.60995 8.56884 0
5.07337 8.57039 0
6.33915 4.28306 0
7.60847 6.42557 0
6.34166 8.5697 0
5.0724 6.42719 0
6.34044 6.42645 0
7.60693 4.28216 0
10.1425 4.27997 0
10.1465 8.56669 0
7.60995 8.56884 0
8.87472 4.28113 0
10.1445 6.42339 0
8.87823 8.56784 0
7.60847 6.42557 0
8.8765 6.42455 0
10.1425 4.27997 0
12.6781 4.27724 0
12.6831 8.56396 0
10.1465 8.56669 0
11.4103 4.27867 0
12.6806 6.42066 0
11.4148 8.5654 0
10.1445 6.42339 0
11.4126 6.4221 0
12.6781 4.27724 0
15.2137 4.27393 0
15.2197 8.56065 0
12.6831 8.56396 0
13.9459 4.27566 0
15.2167 6.41735 0
13.9514 8.56237 0
12.6806 6.42066 0
13.9487 6.41908 0
15.2137 4.27393 0
17.7494 4.27006 0
17.7563 8.55676 0
15.2197 8.56065 0
16.4815 4.27207 0
17.7528 6.41347 0
16.488 8.55878 0
15.2167 6.41735 0
16.4848 6.41548 0
17.7494 4.27006 0
20.285 4.26562 0
20.2929 8.55231 0
17.7563 8.55676 0
19.0172 4.26791 0
20.2889 6.40902 0
19.0246 8.55461 0
17.7528 6.41347 0
19.0209 6.41132 0
20.285 4.26562 0
22.8206 4.2606 0
22.8295 8.54728 0
20.2929 8.55231 0
21.5528 4.26318 0
22.8251 6.404 0
21.5612 8.54986 0
20.2889 6.40902 0
21.557 6.40658 0
22.8206 4.2606 0
25.3563 4.25501 0
25.3661 8.54168 0
22.8295 8.54728 0
24.0885 4.25788 0
25.3612 6.39841 0
24.0978 8.54455 0
22.8251 6.404 0
24.0931 6.40127 0
25.3563 4.25501 0
27.892 4.24886 0
27.9027 8.53552 0
25.3661 8.54168 0
26.6242 4.25201 0
27.8974 6.39225 0
26.6344 8.53867 0
25.3612 6.39841 0
26.6293 6.3954 0
27.892 4.24886 0
30.4277 4.24214 0
30.4394 8.5288 0
27.9027 8.53552 0
29.1598 4.24557 0
30.4335 6.38553 0
29.171 8.53223 0
27.8974 6.39225 0
29.1654 6.38896 0
30.4277 4.24214 0
32.9634 4.23487 0
32.976 8.52151 0
30.4394 8.5288 0
31.6955 4.23857 0
32.9697 6.37825 0
31.7077 8.52523 0
30.4335 6.38553 0
31.7016 6.38196 0
32.9634 4.23487 0
35.4991 4.22703 0
35.5127 8.51367 0
32.976 8.52151 0
34.2312 4.23102 0
35.5059 6.37041 0
34.2443 8.51766 0
32.9697 6.37825 0
34.2378 6.3744 0
35.4991 4.22703 0
38.0348 4.21865 0
38.0493 8.50528 0
35.5127 8.51367 0
36.767 4.22291 0
38.0421 6.36202 0
36.781 8.50955 0
35.5059 6.37041 0
36.774 6.36629 0
38.0348 4.21865 0
40.5706 4.20971 0
40.586 8.49633 0
38.0493 8.50528 0
39.3027 4.21425 0
40.5783 6.35308 0
39.3176 8.50088 0
38.0421 6.36202 0
39.3102 6.35762 0
40.5706 4.20971 0
43.1063 4.20023 0
43.1226 8.48684 0
40.586 8.49633 0
41.8384 4.20504 0
43.1145 6.34359 0
41.8543 8.49166 0
40.5783 6.35308 0
41.8464 6.34841 0
43.1063 4.20023 0
45.6421 4.1902 0
45.6593 8.4768 0
43.1226 8.48684 0
44.3742 4.19528 0
45.6507 6.33356 0
44.391 8.48189 0
43.1145 6.34359 0
44.3826 6.33864 0
45.6421 4.1902 0
48.1778 4.17963 0
48.196 8.46623 0
45.6593 8.4768 0
46.9099 4.18498 0
48.1869 6.32299 0
46.9277 8.47158 0
45.6507 6.33356 0
46.9188 6.32834 0
48.1778 4.17963 0
50.7136 4.16852 0
50.7327 8.45511 0
48.196 8.46623 0
49.4457 4.17414 0
50.7231 6.31187 0
49.4643 8.46073 0
48.1869 6.32299 0
49.455 6.3175 0
50.7136 4.16852 0
53.2494 4.15688 0
53.2694 8.44346 0
50.7327 8.45511 0
51.9815 4.16277 0
53.2594 6.30022 0
52.001 8.44935 0
50.7231 6.31187 0
51.9913 6.30611 0
53.2494 4.15688 0
55.7852 4.1447 0
55.8061 8.43127 0
53.2694 8.44346 0
54.5173 4.15086 0
55.7956 6.28804 0
54.5377 8.43743 0
53.2594 6.30022 0
54.5275 6.2942 0
55.7852 4.1447 0
58.321 4.132 0
58.3428 8.41856 0
55.8061 8.43127 0
57.0531 4.13842 0
58.3319 6.27533 0
57.0744 8.42498 0
55.7956 6.28804 0
57.0638 6.28175 0
58.321 4.132 0
60.8568 4.11877 0
60.8795 8.40531 0
58.3428 8.41856 0
59.5889 4.12545 0
60.8681 6.2621 0
59.6111 8.412 0
58.3319 6.27533 0
59.6 6.26878 0
60.8568 4.11877 0
63.3926 4.10501 0
63.4162 8.39155 0
60.8795 8.40531 0
62.1247 4.11195 0
63.4044 6.24834 0
62.1478 8.3985 0
60.8681 6.2621 0
62.1363 6.25528 0
63.3926 4.10501 0
65.9285 4.09073 0
65.9529 8.37726 0
63.4162 8.39155 0
64.6606 4.09794 0
65.9407 6.23405 0
64.6845 8.38447 0
63.4044 6.24834 0
64.6726 6.24126 0
65.9285 4.09073 0
68.4643 4.07594 0
68.4896 8.36246 0
65.9529 8.37726 0
67.1964 4.0834 0
68.477 6.21926 0
67.2213 8.36993 0
65.9407 6.23405 0
67.2088 6.22672 0
68.4643 4.07594 0
71.0002 4.06064 0
71.0263 8.34714 0
68.4896 8.36246 0
69.7323 4.06835 0
71.0133 6.20394 0
69.758 8.35487 0
68.477 6.21926 0
69.7451 6.21166 0
71.0002 4.06064 0
73.536 4.04482 0
73.5631 8.33132 0
71.0263 8.34714 0
72.2681 4.05279 0
73.5496 6.18812 0
72.2947 8.33929 0
71.0133 6.20394 0
72.2814 6.1961 0
73.536 4.04482 0
76.0719 4.02849 0
76.0998 8.31498 0
73.5631 8.33132 0
74.804 4.03672 0
76.0859 6.17179 0
74.8314 8.32321 0
73.5496 6.18812 0
74.8177 6.18002 0
76.0719 4.02849 0
78.6078 4.01166 0
78.6365 8.29814 0
76.0998 8.31498 0
77.3399 4.02014 0
78.6222 6.15495 0
77.3682 8.30662 0
76.0859 6.17179 0
77.354 6.16343 0
78.6078 4.01166 0
81.1437 3.99433 0
81.1733 8.28079 0
78.6365 8.29814 0
79.8758 4.00306 0
81.1585 6.13761 0
79.9049 8.28953 0
78.6222 6.15495 0
79.8903 6.14634 0
81.1437 3.99433 0
83.6796 3.97649 0
83.71 8.26295 0
81.1733 8.28079 0
82.4117 3.98547 0
83.6948 6.11977 0
82.4417 8.27193 0
81.1585 6.13761 0
82.4267 6.12876 0
83.6796 3.97649 0
86.2155 3.95817 0
86.2468 8.24461 0
83.71 8.26295 0
84.9476 3.96739 0
86.2312 6.10144 0
84.9784 8.25384 0
83.6948 6.11977 0
84.963 6.11067 0
86.2155 3.95817 0
88.7515 3.93934 0
88.7835 8.22578 0
86.2468 8.24461 0
87.4835 3.94882 0
88.7675 6.08261 0
87.5152 8.23525 0
86.2312 6.10144 0
87.4993 6.09209 0
88.7515 3.93934 0
91.2874 3.92003 0
91.3203 8.20645 0
88.7835 8.22578 0
90.0194 3.92975 0
91.3038 6.06329 0
90.0519 8.21617 0
88.7675 6.08261 0
90.0357 6.07301 0
91.2874 3.92003 0
93.8233 3.90023 0
93.8571 8.18664 0
91.3203 8.20645 0
92.5554 3.91019 0
93.8402 6.04349 0
92.5887 8.19661 0
91.3038 6.06329 0
92.572 6.05345 0
93.8233 3.90023 0
96.3593 3.87995 0
96.3938 8.16635 0
93.8571 8.18664 0
95.0913 3.89015 0
96.3766 6.0232 0
95.1254 8.17655 0
93.8402 6.04349 0
95.1084 6.0334 0
96.3593 3.87995 0
98.8952 3.85919 0
98.9306 8.14557 0
96.3938 8.16635 0
97.6273 3.86963 0
98.9129 6.00243 0
97.6622 8.15602 0
96.3766 6.0232 0
97.6447 6.01287 0
98.8952 3.85919 0
101.431 3.83794 0
101.467 8.12432 0
98.9306 8.14557 0
100.163 3.84862 0
101.449 5.98118 0
100.199 8.135 0
98.9129 6.00243 0
100.181 5.99186 0
101.431 3.83794 0
103.967 3.81623 0
104.004 8.10259 0
101.467 8.12432 0
102.699 3.82714 0
103.986 5.95946 0
102.736 8.11351 0
101.449 5.98118 0
102.717 5.97038 0
103.967 3.81623 0
106.503 3.79404 0
106.541 8.08039 0
104.004 8.10259 0
105.235 3.80519 0
106.522 5.93726 0
105.273 8.09155 0
103.986 5.95946 0
105.254 5.94842 0
106.503 3.79404 0
109.039 3.77138 0
109.078 8.05772 0
106.541 8.08039 0
107.771 3.78277 0
109.058 5.9146 0
107.809 8.06911 0
106.522 5.93726 0
107.79 5.92599 0
109.039 3.77138 0
111.575 3.74826 0
111.614 8.03458 0
109.078 8.05772 0
110.307 3.75988 0
111.595 5.89147 0
110.346 8.04621 0
109.058 5.9146 0
110.327 5.90309 0
111.575 3.74826 0
114.111 3.72467 0
114.151 8.01098 0
111.614 8.03458 0
112.843 3.73652 0
114.131 5.86787 0
112.883 8.02284 0
111.595 5.89147 0
112.863 5.87973 0
114.111 3.72467 0
116.647 3.70062 0
116.688 7.98692 0
114.151 8.01098 0
115.379 3.7127 0
116.668 5.84382 0
115.42 7.99901 0
114.131 5.86787 0
115.399 5.8559 0
116.647 3.70062 0
119.183 3.67612 0
119.225 7.96241 0
116.688 7.98692 0
117.915 3.68843 0
119.204 5.81931 0
117.956 7.97472 0
116.668 5.84382 0
117.936 5.83162 0
119.183 3.67612 0
121.719 3.65116 0
121.762 7.93744 0
119.225 7.96241 0
120.451 3.6637 0
121.74 5.79435 0
120.493 7.94998 0
119.204 5.81931 0
120.472 5.80689 0
121.719 3.65116 0
124.255 3.62575 0
124.298 7.91202 0
121.762 7.93744 0
122.987 3.63851 0
124.277 5.76893 0
123.03 7.92478 0
121.74 5.79435 0
123.009 5.7817 0
124.255 3.62575 0
126.791 3.5999 0
126.835 7.88615 0
124.298 7.91202 0
125.523 3.61288 0
126.813 5.74307 0
125.567 7.89914 0
124.277 5.76893 0
125.545 5.75606 0
126.791 3.5999 0
129.327 3.5736 0
129.372 7.85983 0
126.835 7.88615 0
128.059 3.5868 0
129.35 5.71676 0
128.104 7.87304 0
126.813 5.74307 0
128.082 5.72997 0
129.327 3.5736 0
131.863 3.54685 0
131.909 7.83308 0
129.372 7.85983 0
130.595 3.56028 0
131.886 5.69001 0
130.641 7.84651 0
129.35 5.71676 0
130.618 5.70344 0
131.863 3.54685 0
134.4 3.51967 0
134.446 7.80588 0
131.909 7.83308 0
133.132 3.53332 0
134.423 5.66282 0
133.177 7.81954 0
131.886 5.69001 0
133.154 5.67647 0
134.4 3.51967 0
136.936 3.49206 0
136.983 7.77825 0
134.446 7.80588 0
135.668 3.50592 0
136.959 5.6352 0
135.714 7.79212 0
134.423 5.66282 0
135.691 5.64907 0
136.936 3.49206 0
139.472 3.46401 0
139.519 7.75019 0
136.983 7.77825 0
138.204 3.47809 0
139.496 5.60714 0
138.251 7.76428 0
136.959 5.6352 0
138.227 5.62123 0
139.472 3.46401 0
142.008 3.43553 0
142.056 7.7217 0
139.519 7.75019 0
140.74 3.44982 0
142.032 5.57866 0
140.788 7.736 0
139.496 5.60714 0
140.764 5.59296 0
142.008 3.43553 0
144.544 3.40662 0
144.593 7.69278 0
142.056 7.7217 0
143.276 3.42113 0
144.569 5.54975 0
143.325 7.70729 0
142.032 5.57866 0
143.3 5.56426 0
144.544 3.40662 0
147.08 3.37729 0
147.13 7.66344 0
144.593 7.69278 0
145.812 3.39201 0
147.105 5.52041 0
145.861 7.67816 0
144.569 5.54975 0
145.837 5.53513 0
147.08 3.37729 0
149.616 3.34754 0
149.667 7.63367 0
147.13 7.66344 0
148.348 3.36247 0
149.641 5.49065 0
148.398 7.64861 0
147.105 5.52041 0
148.373 5.50558 0
149.616 3.34754 0
152.152 3.31737 0
152.204 7.60349 0
149.667 7.63367 0
150.884 3.33251 0
152.178 5.46048 0
150.935 7.61863 0
149.641 5.49065 0
150.91 5.47562 0
152.152 3.31737 0
154.688 3.28679 0
154.74 7.5729 0
152.204 7.60349 0
153.42 3.30214 0
154.714 5.42989 0
153.472 7.58825 0
152.178 5.46048 0
153.446 5.44523 0
154.688 3.28679 0
157.225 3.2558 0
157.277 7.54189 0
154.74 7.5729 0
155.957 3.27135 0
157.251 5.39889 0
156.009 7.55744 0
154.714 5.42989 0
155.983 5.41444 0
157.225 3.2558 0
159.761 3.2244 0
159.814 7.51047 0
157.277 7.54189 0
158.493 3.24015 0
159.787 5.36748 0
158.546 7.52623 0
157.251 5.39889 0
158.519 5.38323 0
159.761 3.2244 0
162.297 3.19259 0
162.351 7.47865 0
159.814 7.51047 0
161.029 3.20854 0
162.324 5.33566 0
161.082 7.49461 0
159.787 5.36748 0
161.056 5.35162 0
162.297 3.19259 0
164.833 3.16038 0
164.888 7.44643 0
162.351 7.47865 0
163.565 3.17653 0
164.86 5.30345 0
163.619 7.46259 0
162.324 5.33566 0
163.592 5.31961 0
164.833 3.16038 0
167.369 3.12777 0
167.425 7.4138 0
164.888 7.44643 0
166.101 3.14412 0
167.397 5.27083 0
166.156 7.43017 0
164.86 5.30345 0
166.129 5.28719 0
167.369 3.12777 0
169.905 3.09476 0
169.961 7.38079 0
167.425 7.4138 0
168.637 3.11132 0
169.933 5.23782 0
168.693 7.39734 0
167.397 5.27083 0
168.665 5.25437 0
169.905 3.09476 0
172.442 3.06136 0
172.498 7.34737 0
169.961 7.38079 0
171.174 3.07811 0
172.47 5.20441 0
171.23 7.36413 0
169.933 5.23782 0
171.202 5.22116 0
172.442 3.06136 0
174.978 3.02757 0
175.035 7.31357 0
172.498 7.34737 0
173.71 3.04452 0
175.007 5.17061 0
173.767 7.33052 0
172.47 5.20441 0
173.738 5.18756 0
174.978 3.02757 0
177.514 2.9934 0
177.572 7.27938 0
175.035 7.31357 0
176.246 3.01053 0
177.543 5.13643 0
176.304 7.29652 0
175.007 5.17061 0
176.275 5.15357 0
177.514 2.9934 0
180.05 2.95884 0
180.109 7.2448 0
177.572 7.27938 0
178.782 2.97617 0
180.08 5.10186 0
178.84 7.26214 0
177.543 5.13643 0
178.811 5.11919 0
180.05 2.95884 0
182.587 2.92389 0
182.646 7.20985 0
180.109 7.2448 0
181.318 2.94141 0
182.616 5.06691 0
181.377 7.22737 0
180.08 5.10186 0
181.348 5.08443 0
182.587 2.92389 0
185.123 2.88857 0
185.183 7.17451 0
182.646 7.20985 0
183.855 2.90628 0
185.153 5.03158 0
183.914 7.19222 0
182.616 5.06691 0
183.884 5.04929 0
185.123 2.88857 0
187.659 2.85288 0
187.72 7.1388 0
185.183 7.17451 0
186.391 2.87077 0
187.689 4.99588 0
186.451 7.1567 0
185.153 5.03158 0
186.421 5.01378 0
187.659 2.85288 0
190.195 2.81681 0
190.256 7.10272 0
187.72 7.1388 0
188.927 2.83489 0
190.226 4.9598 0
188.988 7.12081 0
187.689 4.99588 0
188.958 4.97789 0
190.195 2.81681 0
192.732 2.78037 0
192.793 7.06627 0
190.256 7.10272 0
191.463 2.79864 0
192.762 4.92336 0
191.525 7.08454 0
190.226 4.9598 0
191.494 4.94163 0
192.732 2.78037 0
195.268 2.74357 0
195.33 7.02945 0
192.793 7.06627 0
194 2.76201 0
195.299 4.88655 0
194.062 7.0479 0
192.762 4.92336 0
194.031 4.905 0
195.268 2.74357 0
197.804 2.7064 0
197.867 6.99227 0
195.33 7.02945 0
196.536 2.72503 0
197.836 4.84937 0
196.599 7.0109 0
195.299 4.88655 0
196.567 4.868 0
197.804 2.7064 0
200.34 2.66887 0
200.404 6.95473 0
197.867 6.99227 0
199.072 2.68768 0
200.372 4.81184 0
199.135 6.97354 0
197.836 4.84937 0
199.104 4.83065 0
200.34 2.66887 0
202.877 2.63099 0
202.941 6.91683 0
200.404 6.95473 0
201.608 2.64997 0
202.909 4.77395 0
201.672 6.93582 0
200.372 4.81184 0
201.64 4.79294 0
202.877 2.63099 0
205.413 2.59275 0
205.478 6.87857 0
202.941 6.91683 0
204.145 2.61191 0
205.445 4.7357 0
204.209 6.89774 0
202.909 4.77395 0
204.177 4.75487 0
205.413 2.59275 0
207.949 2.55416 0
208.015 6.83997 0
205.478 6.87857 0
206.681 2.5735 0
207.982 4.6971 0
206.746 6.85932 0
205.445 4.7357 0
206.714 4.71644 0
207.949 2.55416 0
210.486 2.51522 0
210.551 6.80102 0
208.015 6.83997 0
209.217 2.53473 0
210.519 4.65816 0
209.283 6.82054 0
207.982 4.6971 0
209.25 4.67767 0
210.486 2.51522 0
213.022 2.47594 0
213.088 6.76172 0
210.551 6.80102 0
211.754 2.49562 0
213.055 4.61887 0
211.82 6.78141 0
210.519 4.65816 0
211.787 4.63856 0
213.022 2.47594 0
215.558 2.43632 0
215.625 6.72208 0
213.088 6.76172 0
214.29 2.45617 0
215.592 4.57924 0
214.357 6.74195 0
213.055 4.61887 0
214.323 4.59909 0
215.558 2.43632 0
218.095 2.39635 0
218.162 6.68211 0
215.625 6.72208 0
216.826 2.41638 0
218.128 4.53926 0
216.894 6.70214 0
215.592 4.57924 0
216.86 4.55929 0
218.095 2.39635 0
220.631 2.35605 0
220.699 6.64179 0
218.162 6.68211 0
219.363 2.37624 0
220.665 4.49896 0
219.431 6.66199 0
218.128 4.53926 0
219.397 4.51915 0
220.631 2.35605 0
223.167 2.31542 0
223.236 6.60115 0
220.699 6.64179 0
221.899 2.33578 0
223.202 4.45832 0
221.968 6.62151 0
220.665 4.49896 0
221.933 4.47868 0
223.167 2.31542 0
225.704 2.27446 0
225.773 6.56017 0
223.236 6.60115 0
224.435 2.29498 0
225.738 4.41735 0
224.504 6.5807 0
223.202 4.45832 0
224.47 4.43787 0
225.704 2.27446 0
228.24 2.23317 0
228.31 6.51887 0
225.773 6.56017 0
226.972 2.25385 0
228.275 4.37605 0
227.041 6.53956 0
225.738 4.41735 0
227.007 4.39674 0
228.24 2.23317 0
230.776 2.19155 0
230.847 6.47724 0
228.31 6.51887 0
229.508 2.2124 0
230.812 4.33443 0
229.578 6.49809 0
228.275 4.37605 0
229.543 4.35528 0
230.776 2.19155 0
233.313 2.14962 0
233.384 6.43529 0
230.847 6.47724 0
232.044 2.17063 0
233.348 4.29249 0
232.115 6.4563 0
230.812 4.33443 0
232.08 4.3135 0
233.313 2.14962 0
235.849 2.10737 0
235.921 6.39302 0
233.384 6.43529 0
234.581 2.12853 0
235.885 4.25023 0
234.652 6.4142 0
233.348 4.29249 0
234.616 4.2714 0
235.849 2.10737 0
238.385 2.0648 0
238.457 6.35044 0
235.921 6.39302 0
237.117 2.08612 0
238.421 4.20766 0
237.189 6.37177 0
235.885 4.25023 0
237.153 4.22898 0
238.385 2.0648 0
240.922 2.02192 0
240.994 6.30755 0
238.457 6.35044 0
239.654 2.0434 0
240.958 4.16477 0
239.726 6.32904 0
238.421 4.20766 0
239.69 4.18625 0
240.922 2.02192 0
243.458 1.97874 0
243.531 6.26435 0
240.994 6.30755 0
242.19 2.00037 0
243.495 4.12158 0
242.263 6.28599 0
240.958 4.16477 0
242.226 4.14321 0
243.458 1.97874 0
245.995 1.93524 0
246.068 6.22084 0
243.531 6.26435 0
244.726 1.95703 0
246.031 4.07808 0
244.8 6.24263 0
243.495 4.12158 0
244.763 4.09986 0
245.995 1.93524 0
248.531 1.89145 0
248.605 6.17703 0
246.068 6.22084 0
247.263 1.91338 0
248.568 4.03427 0
247.337 6.19898 0
246.031 4.07808 0
247.3 4.05621 0
248.531 1.89145 0
251.068 1.84735 0
251.142 6.13292 0
248.605 6.17703 0
249.799 1.86944 0
251.105 3.99017 0
249.874 6.15502 0
248.568 4.03427 0
249.836 4.01226 0
251.068 1.84735 0
253.604 1.80296 0
253.679 6.08852 0
251.142 6.13292 0
252.336 1.82519 0
253.641 3.94577 0
252.411 6.11076 0
251.105 3.99017 0
252.373 3.96801 0
253.604 1.80296 0
256.14 1.75827 0
256.216 6.04382 0
253.679 6.08852 0
254.872 1.78065 0
256.178 3.90108 0
254.948 6.0662 0
253.641 3.94577 0
254.91 3.92346 0
256.14 1.75827 0
258.677 1.7133 0
258.753 5.99883 0
256.216 6.04382 0
257.409 1.73582 0
258.715 3.85609 0
257.484 6.02136 0
256.178 3.90108 0
257.447 3.87862 0
258.677 1.7133 0
261.213 1.66803 0
261.29 5.95355 0
258.753 5.99883 0
259.945 1.6907 0
261.252 3.81082 0
260.021 5.97622 0
258.715 3.85609 0
259.983 3.83349 0
261.213 1.66803 0
263.75 1.62248 0
263.827 5.90799 0
261.29 5.95355 0
262.482 1.64529 0
263.788 3.76527 0
262.558 5.9308 0
261.252 3.81082 0
262.52 3.78808 0
263.75 1.62248 0
266.286 1.57665 0
266.364 5.86214 0
263.827 5.90799 0
265.018 1.5996 0
266.325 3.71943 0
265.095 5.8851 0
263.788 3.76527 0
265.057 3.74238 0
266.286 1.57665 0
268.823 1.53055 0
268.901 5.81602 0
266.364 5.86214 0
267.554 1.55364 0
268.862 3.67331 0
267.632 5.83912 0
266.325 3.71943 0
267.593 3.69641 0
268.823 1.53055 0
271.359 1.48416 0
271.438 5.76962 0
268.901 5.81602 0
270.091 1.50739 0
271.398 3.62692 0
270.169 5.79286 0
268.862 3.67331 0
270.13 3.65015 0
271.359 1.48416 0
273.896 1.43751 0
273.975 5.72295 0
271.438 5.76962 0
272.627 1.46087 0
273.935 3.58026 0
272.706 5.74632 0
271.398 3.62692 0
272.667 3.60362 0
273.896 1.43751 0
276.432 1.39058 0
276.512 5.67601 0
273.975 5.72295 0
275.164 1.41408 0
276.472 3.53332 0
275.243 5.69952 0
273.935 3.58026 0
275.204 3.55682 0
276.432 1.39058 0
278.969 1.34339 0
279.049 5.62881 0
276.512 5.67601 0
277.7 1.36702 0
279.009 3.48613 0
277.78 5.65244 0
276.472 3.53332 0
277.74 3.50976 0
278.969 1.34339 0
281.505 1.29593 0
281.586 5.58134 0
279.049 5.62881 0
280.237 1.31969 0
281.545 3.43866 0
280.317 5.60511 0
279.009 3.48613 0
280.277 3.46243 0
281.505 1.29593 0
284.042 1.24821 0
284.122 5.53361 0
281.586 5.58134 0
282.774 1.2721 0
284.082 3.39094 0
282.854 5.55751 0
281.545 3.43866 0
282.814 3.41483 0
284.042 1.24821 0
286.578 1.20024 0
286.659 5.48562 0
284.122 5.53361 0
285.31 1.22426 0
286.619 3.34296 0
285.391 5.50965 0
284.082 3.39094 0
285.351 3.36698 0
286.578 1.20024 0
289.115 1.15201 0
289.196 5.43738 0
286.659 5.48562 0
287.847 1.17616 0
289.156 3.29472 0
287.928 5.46153 0
286.619 3.34296 0
287.887 3.31887 0
289.115 1.15201 0
291.651 1.10353 0
291.733 5.38889 0
289.196 5.43738 0
290.383 1.1278 0
291.692 3.24624 0
290.465 5.41316 0
289.156 3.29472 0
290.424 3.27051 0
291.651 1.10353 0
294.188 1.0548 0
294.27 5.34015 0
291.733 5.38889 0
292.92 1.0792 0
294.229 3.1975 0
293.002 5.36455 0
291.692 3.24624 0
292.961 3.2219 0
294.188 1.0548 0
296.725 1.00583 0
296.807 5.29116 0
294.27 5.34015 0
295.456 1.03035 0
296.766 3.14852 0
295.539 5.31568 0
294.229 3.1975 0
295.498 3.17304 0
296.725 1.00583 0
299.261 0.956616 0
299.344 5.24193 0
296.807 5.29116 0
297.993 0.981254 0
299.303 3.0993 0
298.076 5.26658 0
296.766 3.14852 0
298.034 3.12394 0
299.261 0.956616 0
301.798 0.907162 0
301.881 5.19246 0
299.344 5.24193 0
300.529 0.931919 0
301.84 3.04984 0
300.613 5.21723 0
299.303 3.0993 0
300.571 3.0746 0
301.798 0.907162 0
304.334 0.857471 0
304.418 5.14276 0
301.881 5.19246 0
303.066 0.882346 0
304.376 3.00014 0
303.15 5.16764 0
301.84 3.04984 0
303.108 3.02502 0
304.334 0.857471 0
306.871 0.807547 0
306.955 5.09282 0
304.418 5.14276 0
305.603 0.832538 0
306.913 2.95021 0
305.687 5.11782 0
304.376 3.00014 0
305.645 2.9752 0
306.871 0.807547 0
309.408 0.757393 0
309.492 5.04266 0
306.955 5.09282 0
308.139 0.782498 0
309.45 2.90005 0
308.224 5.06777 0
306.913 2.95021 0
308.182 2.92516 0
309.408 0.757393 0
311.944 0.707012 0
312.029 4.99226 0
309.492 5.04266 0
310.676 0.73223 0
311.987 2.84966 0
310.761 5.01749 0
309.45 2.90005 0
310.718 2.87488 0
311.944 0.707012 0
314.481 0.656406 0
314.566 4.94164 0
312.029 4.99226 0
313.212 0.681737 0
314.524 2.79905 0
313.298 4.96698 0
311.987 2.84966 0
313.255 2.82438 0
314.481 0.656406 0
317.017 0.60558 0
317.103 4.89081 0
314.566 4.94164 0
315.749 0.63102 0
317.06 2.74822 0
315.835 4.91625 0
314.524 2.79905 0
315.792 2.77366 0
317.017 0.60558 0
319.554 0.554535 0
319.64 4.83975 0
317.103 4.89081 0
318.286 0.580084 0
319.597 2.69716 0
318.372 4.8653 0
317.06 2.74822 0
318.329 2.72272 0
319.554 0.554535 0
322.091 0.503275 0
322.177 4.78848 0
319.64 4.83975 0
320.822 0.528932 0
322.134 2.6459 0
320.909 4.81414 0
319.597 2.69716 0
320.866 2.67156 0
322.091 0.503275 0
324.627 0.451804 0
324.714 4.73699 0
322.177 4.78848 0
323.359 0.477566 0
324.671 2.59442 0
323.446 4.76276 0
322.134 2.6459 0
323.402 2.62019 0
324.627 0.451804 0
327.164 0.400123 0
327.251 4.6853 0
324.714 4.73699 0
325.896 0.425989 0
327.208 2.54273 0
325.983 4.71117 0
324.671 2.59442 0
325.939 2.5686 0
327.164 0.400123 0
329.701 0.348237 0
329.788 4.6334 0
327.251 4.6853 0
328.432 0.374205 0
329.745 2.49084 0
328.52 4.65938 0
327.208 2.54273 0
328.476 2.51681 0
329.701 0.348237 0
332.237 0.296147 0
332.325 4.5813 0
329.788 4.6334 0
330.969 0.322217 0
332.281 2.43874 0
331.057 4.60737 0
329.745 2.49084 0
331.013 2.46482 0
332.237 0.296147 0
334.774 0.243857 0
334.862 4.529 0
332.325 4.5813 0
333.506 0.270027 0
334.818 2.38645 0
333.594 4.55517 0
332.281 2.43874 0
333.55 2.41262 0
334.774 0.243857 0
337.311 0.191371 0
337.399 4.4765 0
334.862 4.529 0
336.042 0.217639 0
337.355 2.33396 0
336.131 4.50277 0
334.818 2.38645 0
336.087 2.36023 0
337.311 0.191371 0
339.848 0.138691 0
339.937 4.42381 0
337.399 4.4765 0
338.579 0.165055 0
339.892 2.28127 0
338.668 4.45018 0
337.355 2.33396 0
338.624 2.30764 0
339.848 0.138691 0
342.384 0.0858196 0
342.474 4.37092 0
339.937 4.42381 0
341.116 0.112279 0
342.429 2.22839 0
341.205 4.39739 0
339.892 2.28127 0
341.16 2.25485 0
342.384 0.0858196 0
344.921 0.0327607 0
345.011 4.31785 0
342.474 4.37092 0
343.653 0.0593134 0
344.966 2.17533 0
343.742 4.34441 0
342.429 2.22839 0
343.697 2.20188 0
344.921 0.0327607 0
347.458 -0.0204831 0
347.548 4.2646 0
345.011 4.31785 0
346.189 0.00616167 0
347.503 2.12208 0
346.279 4.29125 0
344.966 2.17533 0
346.234 2.14872 0
347.458 -0.0204831 0
349.994 -0.0739087 0
350.085 4.21116 0
347.548 4.2646 0
348.726 -0.0471734 0
350.04 2.06864 0
348.816 4.2379 0
347.503 2.12208 0
348.771 2.09538 0
349.994 -0.0739087 0
352.531 -0.127513 0
352.622 4.15754 0
350.085 4.21116 0
351.263 -0.100689 0
352.576 2.01503 0
351.353 4.18437 0
350.04 2.06864 0
351.308 2.04186 0
352.531 -0.127513 0
355.068 -0.181293 0
355.159 4.10375 0
352.622 4.15754 0
353.8 -0.154381 0
355.113 1.96125 0
353.89 4.13067 0
352.576 2.01503 0
353.845 1.98816 0
355.068 -0.181293 0
357.605 -0.235246 0
357.696 4.04979 0
355.159 4.10375 0
356.336 -0.208248 0
357.65 1.90729 0
356.427 4.07679 0
355.113 1.96125 0
356.382 1.93429 0
357.605 -0.235246 0
360.142 -0.289368 0
360.233 3.99566 0
357.696 4.04979 0
358.873 -0.262286 0
360.187 1.85316 0
358.964 4.02274 0
357.65 1.90729 0
358.919 1.88025 0
360.142 -0.289368 0
362.678 -0.343658 0
362.77 3.94135 0
360.233 3.99566 0
361.41 -0.316492 0
362.724 1.79887 0
361.501 3.96853 0
360.187 1.85316 0
361.456 1.82603 0
362.678 -0.343658 0
365.215 -0.39811 0
365.307 3.88689 0
362.77 3.94135 0
363.947 -0.370864 0
365.261 1.74441 0
364.039 3.91414 0
362.724 1.79887 0
363.993 1.77166 0
365.215 -0.39811 0
367.752 -0.452724 0
367.844 3.83227 0
365.307 3.88689 0
366.484 -0.425397 0
367.798 1.68979 0
366.576 3.8596 0
365.261 1.74441 0
366.53 1.71712 0
367.752 -0.452724 0
370.289 -0.507495 0
370.381 3.77748 0
367.844 3.83227 0
369.02 -0.48009 0
370.335 1.63501 0
369.113 3.8049 0
367.798 1.68979 0
369.067 1.66242 0
370.289 -0.507495 0
372.826 -0.56242 0
372.918 3.72255 0
370.381 3.77748 0
371.557 -0.534939 0
372.872 1.58008 0
371.65 3.75004 0
370.335 1.63501 0
371.604 1.60756 0
372.826 -0.56242 0
375.362 -0.617498 0
375.455 3.66746 0
372.918 3.72255 0
374.094 -0.58994 0
375.409 1.525 0
374.187 3.69502 0
372.872 1.58008 0
374.14 1.55256 0
375.362 -0.617498 0
377.899 -0.672723 0
377.993 3.61222 0
375.455 3.66746 0
376.631 -0.645092 0
377.946 1.46977 0
376.724 3.63986 0
375.409 1.525 0
376.677 1.4974 0
377.899 -0.672723 0
380.436 -0.728094 0
380.53 3.55684 0
377.993 3.61222 0
379.168 -0.700391 0
380.483 1.41439 0
379.261 3.58455 0
377.946 1.46977 0
379.214 1.4421 0
380.436 -0.728094 0
382.973 -0.783608 0
383.067 3.50132 0
380.53 3.55684 0
381.705 -0.755834 0
383.02 1.35887 0
381.798 3.5291 0
380.483 1.41439 0
381.751 1.38665 0
382.973 -0.783608 0
385.51 -0.839261 0
385.604 3.44566 0
383.067 3.50132 0
384.241 -0.811417 0
385.557 1.30321 0
384.335 3.4735 0
383.02 1.35887 0
384.288 1.33106 0
385.51 -0.839261 0
388.047 -0.895051 0
388.141 3.38986 0
385.604 3.44566 0
386.778 -0.867139 0
388.094 1.24742 0
386.872 3.41777 0
385.557 1.30321 0
386.825 1.27533 0
388.047 -0.895051 0
390.584 -0.950974 0
390.678 3.33392 0
388.141 3.38986 0
389.315 -0.922996 0
390.631 1.19149 0
389.41 3.36191 0
388.094 1.24742 0
389.362 1.21947 0
390.584 -0.950974 0
393.121 -1.00703 0
393.215 3.27786 0
390.678 3.33392 0
391.852 -0.978984 0
393.168 1.13543 0
391.947 3.30591 0
390.631 1.19149 0
391.899 1.16348 0
393.121 -1.00703 0
395.658 -1.06321 0
395.752 3.22167 0
393.215 3.27786 0
394.389 -1.0351 0
395.705 1.07924 0
394.484 3.24978 0
393.168 1.13543 0
394.436 1.10735 0
395.658 -1.06321 0
398.194 -1.11951 0
398.29 3.16535 0
395.752 3.22167 0
396.926 -1.09134 0
398.242 1.02293 0
397.021 3.19353 0
395.705 1.07924 0
396.973 1.0511 0
398.194 -1.11951 0
400.731 -1.17594 0
400.827 3.10892 0
398.29 3.16535 0
399.463 -1.14771 0
400.779 0.966502 0
399.558 3.13715 0
398.242 1.02293 0
399.511 0.994733 0
400.731 -1.17594 0
403.268 -1.23248 0
403.364 3.05236 0
400.827 3.10892 0
402 -1.2042 0
403.316 0.909953 0
402.095 3.08066 0
400.779 0.966502 0
402.048 0.938242 0
403.268 -1.23248 0
405.805 -1.28914 0
405.901 2.9957 0
403.364 3.05236 0
404.537 -1.2608 0
405.853 0.853288 0
404.632 3.02404 0
403.316 0.909953 0
404.585 0.881634 0
405.805 -1.28914 0
408.342 -1.34592 0
408.438 2.93891 0
405.901 2.9957 0
407.074 -1.31752 0
408.39 0.796511 0
407.17 2.96732 0
405.853 0.853288 0
407.122 0.824913 0
408.342 -1.34592 0
410.879 -1.4028 0
410.975 2.88202 0
408.438 2.93891 0
409.611 -1.37434 0
410.927 0.739625 0
409.707 2.91048 0
408.39 0.796511 0
409.659 0.768081 0
410.879 -1.4028 0
413.416 -1.45978 0
413.512 2.82503 0
410.975 2.88202 0
412.148 -1.43128 0
413.464 0.682632 0
412.244 2.85354 0
410.927 0.739625 0
412.196 0.711142 0
413.416 -1.45978 0
415.953 -1.51687 0
416.05 2.76793 0
413.512 2.82503 0
414.685 -1.48832 0
416.001 0.625537 0
414.781 2.79649 0
413.464 0.682632 0
414.733 0.654097 0
415.953 -1.51687 0
418.49 -1.57407 0
418.587 2.71073 0
416.05 2.76793 0
417.222 -1.54546 0
418.539 0.568341 0
417.318 2.73934 0
416.001 0.625537 0
417.27 0.596951 0
418.49 -1.57407 0
421.027 -1.63135 0
421.124 2.65343 0
418.587 2.71073 0
419.759 -1.6027 0
421.076 0.511049 0
419.855 2.68209 0
418.539 0.568341 0
419.807 0.539707 0
421.027 -1.63135 0
423.564 -1.68873 0
423.661 2.59604 0
421.124 2.65343 0
422.296 -1.66003 0
423.613 0.453662 0
422.393 2.62475 0
421.076 0.511049 0
422.344 0.482367 0
423.564 -1.68873 0
426.101 -1.74621 0
426.198 2.53856 0
423.661 2.59604 0
424.833 -1.71746 0
426.15 0.396185 0
424.93 2.56731 0
423.613 0.453662 0
424.881 0.424935 0
426.101 -1.74621 0
428.638 -1.80377 0
428.736 2.48099 0
426.198 2.53856 0
427.37 -1.77498 0
428.687 0.338619 0
427.467 2.50978 0
426.15 0.396185 0
427.418 0.367413 0
428.638 -1.80377 0
431.175 -1.86141 0
431.273 2.42333 0
428.736 2.48099 0
429.907 -1.83258 0
431.224 0.280969 0
430.004 2.45217 0
428.687 0.338619 0
429.956 0.309804 0
431.175 -1.86141 0
433.713 -1.91914 0
433.81 2.3656 0
431.273 2.42333 0
432.444 -1.89027 0
433.761 0.223236 0
432.541 2.39448 0
431.224 0.280969 0
432.493 0.252113 0
433.713 -1.91914 0
436.25 -1.97695 0
436.347 2.30778 0
433.81 2.3656 0
434.981 -1.94804 0
436.298 0.165425 0
435.079 2.3367 0
433.761 0.223236 0
435.03 0.19434 0
436.25 -1.97695 0
438.787 -2.03483 0
438.884 2.24989 0
436.347 2.30778 0
437.518 -2.00588 0
438.836 0.107538 0
437.616 2.27885 0
436.298 0.165425 0
437.567 0.136491 0
438.787 -2.03483 0
441.324 -2.09279 0
441.422 2.19193 0
438.884 2.24989 0
440.055 -2.0638 0
441.373 0.0495776 0
440.153 2.22092 0
438.836 0.107538 0
440.104 0.0785666 0
441.324 -2.09279 0
443.861 -2.15081 0
443.959 2.1339 0
441.422 2.19193 0
442.592 -2.12179 0
443.91 -0.00845225 0
442.69 2.16292 0
441.373 0.0495776 0
442.641 0.0205712 0
443.861 -2.15081 0
446.398 -2.20891 0
446.496 2.0758 0
443.959 2.1339 0
445.13 -2.17985 0
446.447 -0.0665489 0
445.228 2.10485 0
443.91 -0.00845225 0
445.179 -0.0374924 0
446.398 -2.20891 0
448.935 -2.26706 0
449.033 2.01763 0
446.496 2.0758 0
447.667 -2.23798 0
448.984 -0.124709 0
447.765 2.04672 0
446.447 -0.0665489 0
447.716 -0.0956214 0
448.935 -2.26706 0
451.472 -2.32528 0
451.571 1.95941 0
449.033 2.01763 0
450.204 -2.29616 0
451.522 -0.182931 0
450.302 1.98853 0
448.984 -0.124709 0
450.253 -0.153813 0
451.472 -2.32528 0
454.01 -2.38355 0
454.108 1.90112 0
451.571 1.95941 0
452.741 -2.35441 0
454.059 -0.24121 0
452.839 1.93027 0
451.522 -0.182931 0
452.79 -0.212063 0
454.01 -2.38355 0
456.547 -2.44188 0
456.645 1.84279 0
454.108 1.90112 0
455.278 -2.41271 0
456.596 -0.299543 0
455.377 1.87196 0
454.059 -0.24121 0
455.327 -0.27037 0
456.547 -2.44188 0
459.084 -2.50027 0
459.182 1.7844 0
456.645 1.84279 0
457.815 -2.47107 0
459.133 -0.357929 0
457.914 1.8136 0
456.596 -0.299543 0
457.865 -0.32873 0
459.084 -2.50027 0
461.621 -2.5587 0
461.72 1.72596 0
459.182 1.7844 0
460.353 -2.52948 0
461.67 -0.416362 0
460.451 1.75519 0
459.133 -0.357929 0
460.402 -0.38714 0
461.621 -2.5587 0
464.158 -2.61717 0
464.257 1.66748 0
461.72 1.72596 0
462.89 -2.58793 0
464.208 -0.474842 0
462.988 1.69673 0
461.67 -0.416362 0
462.939 -0.445597 0
464.158 -2.61717 0
466.696 -2.67569 0
466.794 1.60895 0
464.257 1.66748 0
465.427 -2.64643 0
466.745 -0.533364 0
465.526 1.63822 0
464.208 -0.474842 0
465.476 -0.504098 0
466.696 -2.67569 0
469.233 -2.73425 0
469.332 1.55039 0
466.794 1.60895 0
467.964 -2.70496 0
469.282 -0.591926 0
468.063 1.57968 0
466.745 -0.533364 0
468.014 -0.56264 0
469.233 -2.73425 0
471.77 -2.79284 0
471.869 1.49179 0
469.332 1.55039 0
470.501 -2.76354 0
471.819 -0.650524 0
470.6 1.52109 0
469.282 -0.591926 0
470.551 -0.621221 0
471.77 -2.79284 0
474.307 -2.85147 0
474.406 1.43315 0
471.869 1.49179 0
473.039 -2.82215 0
474.357 -0.709156 0
473.138 1.46247 0
471.819 -0.650524 0
473.088 -0.679836 0
474.307 -2.85147 0
476.845 -2.91013 0
476.944 1.37449 0
474.406 1.43315 0
475.576 -2.8808 0
476.894 -0.767818 0
475.675 1.40382 0
474.357 -0.709156 0
475.625 -0.738483 0
476.845 -2.91013 0
479.382 -2.96882 0
479.481 1.3158 0
476.944 1.37449 0
478.113 -2.93947 0
479.431 -0.826508 0
478.212 1.34514 0
476.894 -0.767818 0
478.163 -0.79716 0
479.382 -2.96882 0
481.919 -3.02753 0
482.018 1.25708 0
479.481 1.3158 0
480.651 -2.99817 0
481.969 -0.885222 0
480.75 1.28644 0
479.431 -0.826508 0
480.7 -0.855862 0
481.919 -3.02753 0
484.456 -3.08626 0
484.556 1.19834 0
482.018 1.25708 0
483.188 -3.05689 0
484.506 -0.943957 0
483.287 1.22771 0
481.969 -0.885222 0
483.237 -0.914587 0
484.456 -3.08626 0
486.994 -3.14501 0
487.093 1.13958 0
484.556 1.19834 0
485.725 -3.11563 0
487.043 -1.00271 0
485.824 1.16896 0
484.506 -0.943957 0
485.775 -0.973332 0
486.994 -3.14501 0
489.531 -3.20378 0
489.63 1.08081 0
487.093 1.13958 0
488.262 -3.17439 0
489.581 -1.06148 0
488.362 1.11019 0
487.043 -1.00271 0
488.312 -1.0321 0
489.531 -3.20378 0
492.069 -3.26256 0
492.168 1.02202 0
489.63 1.08081 0
490.8 -3.23317 0
492.118 -1.12027 0
490.899 1.05141 0
489.581 -1.06148 0
490.849 -1.09088 0
492.069 -3.26256 0
494.606 -3.32137 0
494.705 0.963216 0
492.168 1.02202 0
493.337 -3.29196 0
494.655 -1.17908 0
493.436 0.992617 0
492.118 -1.12027 0
493.387 -1.14967 0
494.606 -3.32137 0
497.143 -3.38021 0
497.242 0.904418 0
494.705 0.963216 0
495.875 -3.35078 0
497.193 -1.2379 0
495.974 0.933815 0
494.655 -1.17908 0
495.924 -1.20849 0
497.143 -3.38021 0
499.681 -3.43908 0
499.78 0.845646 0
497.242 0.904418 0
498.412 -3.40965 0
499.73 -1.2967 0
498.511 0.875026 0
497.193 -1.2379 0
498.462 -1.26731 0
0 8.57143 0
2.53674 8.57129 0
2.53763 12.8572 0
0 12.8571 0
1.26839 8.57147 0
2.53719 10.7143 0
1.26882 12.8573 0
0 10.7143 0
1.26861 10.7144 0
2.53674 8.57129 0
5.07337 8.57039 0
5.07522 12.8565 0
2.53763 12.8572 0
3.80506 8.57093 0
5.07431 10.7135 0
3.80643 12.8569 0
2.53719 10.7143 0
3.80575 10.714 0
5.07337 8.57039 0
7.60995 8.56884 0
7.6128 12.855 0
5.07522 12.8565 0
6.34166 8.5697 0
7.61139 10.712 0
6.34401 12.8558 0
5.07431 10.7135 0
6.34285 10.7128 0
7.60995 8.56884 0
10.1465 8.56669 0
10.1504 12.8529 0
7.6128 12.855 0
8.87823 8.56784 0
10.1485 10.7099 0
8.88159 12.854 0
7.61139 10.712 0
8.87992 10.711 0
10.1465 8.56669 0
12.6831 8.56396 0
12.6879 12.8502 0
10.1504 12.8529 0
11.4148 8.5654 0
12.6855 10.7071 0
11.4192 12.8516 0
10.1485 10.7099 0
11.417 10.7086 0
12.6831 8.56396 0
15.2197 8.56065 0
15.2255 12.8469 0
12.6879 12.8502 0
13.9514 8.56237 0
15.2226 10.7038 0
13.9567 12.8486 0
12.6855 10.7071 0
13.9541 10.7055 0
15.2197 8.56065 0
17.7563 8.55676 0
17.7631 12.843 0
15.2255 12.8469 0
16.488 8.55878 0
17.7597 10.6999 0
16.4943 12.845 0
15.2226 10.7038 0
16.4911 10.7019 0
17.7563 8.55676 0
20.2929 8.55231 0
20.3007 12.8385 0
17.7631 12.843 0
19.0246 8.55461 0
20.2968 10.6955 0
19.0319 12.8408 0
17.7597 10.6999 0
19.0282 10.6978 0
20.2929 8.55231 0
22.8295 8.54728 0
22.8382 12.8335 0
20.3007 12.8385 0
21.5612 8.54986 0
22.8339 10.6904 0
21.5694 12.8361 0
20.2968 10.6955 0
21.5653 10.693 0
22.8295 8.54728 0
25.3661 8.54168 0
25.3758 12.8279 0
22.8382 12.8335 0
24.0978 8.54455 0
25.371 10.6848 0
24.107 12.8307 0
22.8339 10.6904 0
24.1024 10.6877 0
25.3661 8.54168 0
27.9027 8.53552 0
27.9134 12.8217 0
25.3758 12.8279 0
26.6344 8.53867 0
27.9081 10.6787 0
26.6446 12.8249 0
25.371 10.6848 0
26.6395 10.6818 0
27.9027 8.53552 0
30.4394 8.5288 0
30.451 12.815 0
27.9134 12.8217 0
29.171 8.53223 0
30.4452 10.6719 0
29.1822 12.8184 0
27.9081 10.6787 0
29.1766 10.6754 0
30.4394 8.5288 0
32.976 8.52151 0
32.9886 12.8077 0
30.451 12.815 0
31.7077 8.52523 0
32.9823 10.6647 0
31.7198 12.8114 0
30.4452 10.6719 0
31.7137 10.6684 0
32.976 8.52151 0
35.5127 8.51367 0
35.5262 12.7998 0
32.9886 12.8077 0
34.2443 8.51766 0
35.5194 10.6568 0
34.2574 12.8038 0
32.9823 10.6647 0
34.2509 10.6608 0
35.5127 8.51367 0
38.0493 8.50528 0
38.0638 12.7914 0
35.5262 12.7998 0
36.781 8.50955 0
38.0565 10.6484 0
36.795 12.7957 0
35.5194 10.6568 0
36.788 10.6527 0
38.0493 8.50528 0
40.586 8.49633 0
40.6013 12.7825 0
38.0638 12.7914 0
39.3176 8.50088 0
40.5937 10.6395 0
39.3325 12.787 0
38.0565 10.6484 0
39.3251 10.644 0
40.586 8.49633 0
43.1226 8.48684 0
43.1389 12.773 0
40.6013 12.7825 0
41.8543 8.49166 0
43.1308 10.63 0
41.8701 12.7778 0
40.5937 10.6395 0
41.8622 10.6348 0
43.1226 8.48684 0
45.6593 8.4768 0
45.6765 12.7629 0
43.1389 12.773 0
44.391 8.48189 0
45.6679 10.6199 0
44.4077 12.768 0
43.1308 10.63 0
44.3994 10.625 0
45.6593 8.4768 0
48.196 8.46623 0
48.2141 12.7524 0
45.6765 12.7629 0
46.9277 8.47158 0
48.2051 10.6094 0
46.9453 12.7577 0
45.6679 10.6199 0
46.9365 10.6147 0
48.196 8.46623 0
50.7327 8.45511 0
50.7517 12.7412 0
48.2141 12.7524 0
49.4643 8.46073 0
50.7422 10.5982 0
49.4829 12.7469 0
48.2051 10.6094 0
49.4736 10.6039 0
50.7327 8.45511 0
53.2694 8.44346 0
53.2893 12.7296 0
50.7517 12.7412 0
52.001 8.44935 0
53.2793 10.5866 0
52.0205 12.7355 0
50.7422 10.5982 0
52.0108 10.5925 0
53.2694 8.44346 0
55.8061 8.43127 0
55.8269 12.7174 0
53.2893 12.7296 0
54.5377 8.43743 0
55.8165 10.5744 0
54.5581 12.7235 0
53.2793 10.5866 0
54.5479 10.5805 0
55.8061 8.43127 0
58.3428 8.41856 0
58.3645 12.7047 0
55.8269 12.7174 0
57.0744 8.42498 0
58.3536 10.5617 0
57.0957 12.7111 0
55.8165 10.5744 0
57.0851 10.5681 0
58.3428 8.41856 0
60.8795 8.40531 0
60.9021 12.6914 0
58.3645 12.7047 0
59.6111 8.412 0
60.8908 10.5484 0
59.6333 12.6981 0
58.3536 10.5617 0
59.6222 10.5551 0
60.8795 8.40531 0
63.4162 8.39155 0
63.4397 12.6776 0
60.9021 12.6914 0
62.1478 8.3985 0
63.4279 10.5347 0
62.1709 12.6846 0
60.8908 10.5484 0
62.1594 10.5416 0
63.4162 8.39155 0
65.9529 8.37726 0
65.9773 12.6633 0
63.4397 12.6776 0
64.6845 8.38447 0
65.9651 10.5204 0
64.7085 12.6706 0
63.4279 10.5347 0
64.6965 10.5276 0
65.9529 8.37726 0
68.4896 8.36246 0
68.5149 12.6485 0
65.9773 12.6633 0
67.2213 8.36993 0
68.5022 10.5056 0
67.2461 12.656 0
65.9651 10.5204 0
67.2337 10.513 0
68.4896 8.36246 0
71.0263 8.34714 0
71.0524 12.6332 0
68.5149 12.6485 0
69.758 8.35487 0
71.0394 10.4902 0
69.7836 12.6409 0
68.5022 10.5056 0
69.7708 10.498 0
71.0263 8.34714 0
73.5631 8.33132 0
73.59 12.6174 0
71.0524 12.6332 0
72.2947 8.33929 0
73.5766 10.4744 0
72.3212 12.6254 0
71.0394 10.4902 0
72.308 10.4824 0
73.5631 8.33132 0
76.0998 8.31498 0
76.1276 12.601 0
73.59 12.6174 0
74.8314 8.32321 0
76.1137 10.4581 0
74.8588 12.6093 0
73.5766 10.4744 0
74.8451 10.4663 0
76.0998 8.31498 0
78.6365 8.29814 0
78.6652 12.5842 0
76.1276 12.601 0
77.3682 8.30662 0
78.6509 10.4412 0
77.3964 12.5927 0
76.1137 10.4581 0
77.3823 10.4497 0
78.6365 8.29814 0
81.1733 8.28079 0
81.2028 12.5668 0
78.6652 12.5842 0
79.9049 8.28953 0
81.188 10.4239 0
79.934 12.5756 0
78.6509 10.4412 0
79.9195 10.4326 0
81.1733 8.28079 0
83.71 8.26295 0
83.7404 12.549 0
81.2028 12.5668 0
82.4417 8.27193 0
83.7252 10.406 0
82.4716 12.558 0
81.188 10.4239 0
82.4566 10.415 0
83.71 8.26295 0
86.2468 8.24461 0
86.278 12.5306 0
83.7404 12.549 0
84.9784 8.25384 0
86.2624 10.3877 0
85.0092 12.5399 0
83.7252 10.406 0
84.9938 10.3969 0
86.2468 8.24461 0
88.7835 8.22578 0
88.8156 12.5118 0
86.278 12.5306 0
87.5152 8.23525 0
88.7995 10.3688 0
87.5468 12.5213 0
86.2624 10.3877 0
87.531 10.3783 0
88.7835 8.22578 0
91.3203 8.20645 0
91.3531 12.4925 0
88.8156 12.5118 0
90.0519 8.21617 0
91.3367 10.3495 0
90.0843 12.5022 0
88.7995 10.3688 0
90.0681 10.3592 0
91.3203 8.20645 0
93.8571 8.18664 0
93.8907 12.4726 0
91.3531 12.4925 0
92.5887 8.19661 0
93.8739 10.3297 0
92.6219 12.4826 0
91.3367 10.3495 0
92.6053 10.3397 0
93.8571 8.18664 0
96.3938 8.16635 0
96.4283 12.4523 0
93.8907 12.4726 0
95.1254 8.17655 0
96.4111 10.3094 0
95.1595 12.4625 0
93.8739 10.3297 0
95.1425 10.3196 0
96.3938 8.16635 0
98.9306 8.14557 0
98.9659 12.4315 0
96.4283 12.4523 0
97.6622 8.15602 0
98.9482 10.2886 0
97.6971 12.442 0
96.4111 10.3094 0
97.6797 10.2991 0
98.9306 8.14557 0
101.467 8.12432 0
101.503 12.4103 0
98.9659 12.4315 0
100.199 8.135 0
101.485 10.2674 0
100.235 12.421 0
98.9482 10.2886 0
100.217 10.278 0
101.467 8.12432 0
104.004 8.10259 0
104.041 12.3885 0
101.503 12.4103 0
102.736 8.11351 0
104.023 10.2456 0
102.772 12.3995 0
101.485 10.2674 0
102.754 10.2565 0
104.004 8.10259 0
106.541 8.08039 0
106.579 12.3663 0
104.041 12.3885 0
105.273 8.09155 0
106.56 10.2234 0
105.31 12.3775 0
104.023 10.2456 0
105.291 10.2346 0
106.541 8.08039 0
109.078 8.05772 0
109.116 12.3437 0
106.579 12.3663 0
107.809 8.06911 0
109.097 10.2007 0
107.847 12.3551 0
106.56 10.2234 0
107.828 10.2121 0
109.078 8.05772 0
111.614 8.03458 0
111.654 12.3205 0
109.116 12.3437 0
110.346 8.04621 0
111.634 10.1776 0
110.385 12.3321 0
109.097 10.2007 0
110.366 10.1892 0
111.614 8.03458 0
114.151 8.01098 0
114.191 12.2969 0
111.654 12.3205 0
112.883 8.02284 0
114.171 10.154 0
112.923 12.3088 0
111.634 10.1776 0
112.903 10.1658 0
114.151 8.01098 0
116.688 7.98692 0
116.729 12.2728 0
114.191 12.2969 0
115.42 7.99901 0
116.708 10.1299 0
115.46 12.2849 0
114.171 10.154 0
115.44 10.142 0
116.688 7.98692 0
119.225 7.96241 0
119.266 12.2483 0
116.729 12.2728 0
117.956 7.97472 0
119.246 10.1054 0
117.998 12.2606 0
116.708 10.1299 0
117.977 10.1177 0
119.225 7.96241 0
121.762 7.93744 0
121.804 12.2233 0
119.266 12.2483 0
120.493 7.94998 0
121.783 10.0804 0
120.535 12.2359 0
119.246 10.1054 0
120.514 10.093 0
121.762 7.93744 0
124.298 7.91202 0
124.342 12.1979 0
121.804 12.2233 0
123.03 7.92478 0
124.32 10.055 0
123.073 12.2107 0
121.783 10.0804 0
123.051 10.0678 0
124.298 7.91202 0
126.835 7.88615 0
126.879 12.172 0
124.342 12.1979 0
125.567 7.89914 0
126.857 10.0291 0
125.61 12.185 0
124.32 10.055 0
125.589 10.0421 0
126.835 7.88615 0
129.372 7.85983 0
129.417 12.1457 0
126.879 12.172 0
128.104 7.87304 0
129.394 10.0028 0
128.148 12.1589 0
126.857 10.0291 0
128.126 10.016 0
129.372 7.85983 0
131.909 7.83308 0
131.954 12.1189 0
129.417 12.1457 0
130.641 7.84651 0
131.932 9.97605 0
130.685 12.1324 0
129.394 10.0028 0
130.663 9.98948 0
131.909 7.83308 0
134.446 7.80588 0
134.492 12.0917 0
131.954 12.1189 0
133.177 7.81954 0
134.469 9.94885 0
133.223 12.1054 0
131.932 9.97605 0
133.2 9.9625 0
134.446 7.80588 0
136.983 7.77825 0
137.029 12.0641 0
134.492 12.0917 0
135.714 7.79212 0
137.006 9.92121 0
135.761 12.078 0
134.469 9.94885 0
135.737 9.93509 0
136.983 7.77825 0
139.519 7.75019 0
139.567 12.036 0
137.029 12.0641 0
138.251 7.76428 0
139.543 9.89314 0
138.298 12.0501 0
137.006 9.92121 0
138.275 9.90723 0
139.519 7.75019 0
142.056 7.7217 0
142.104 12.0075 0
139.567 12.036 0
140.788 7.736 0
142.08 9.86465 0
140.836 12.0218 0
139.543 9.89314 0
140.812 9.87895 0
142.056 7.7217 0
144.593 7.69278 0
144.642 11.9786 0
142.104 12.0075 0
143.325 7.70729 0
144.618 9.83572 0
143.373 11.9931 0
142.08 9.86465 0
143.349 9.85024 0
144.593 7.69278 0
147.13 7.66344 0
147.18 11.9492 0
144.642 11.9786 0
145.861 7.67816 0
147.155 9.80637 0
145.911 11.964 0
144.618 9.83572 0
145.886 9.8211 0
147.13 7.66344 0
149.667 7.63367 0
149.717 11.9194 0
147.18 11.9492 0
148.398 7.64861 0
149.692 9.7766 0
148.448 11.9344 0
147.155 9.80637 0
148.423 9.79154 0
149.667 7.63367 0
152.204 7.60349 0
152.255 11.8893 0
149.717 11.9194 0
150.935 7.61863 0
152.229 9.74642 0
150.986 11.9044 0
149.692 9.7766 0
150.961 9.76156 0
152.204 7.60349 0
154.74 7.5729 0
154.792 11.8586 0
152.255 11.8893 0
153.472 7.58825 0
154.766 9.71582 0
153.523 11.874 0
152.229 9.74642 0
153.498 9.73117 0
154.74 7.5729 0
157.277 7.54189 0
157.33 11.8276 0
154.792 11.8586 0
156.009 7.55744 0
157.303 9.6848 0
156.061 11.8432 0
154.766 9.71582 0
156.035 9.70036 0
157.277 7.54189 0
159.814 7.51047 0
159.867 11.7962 0
157.33 11.8276 0
158.546 7.52623 0
159.841 9.65338 0
158.598 11.812 0
157.303 9.6848 0
158.572 9.66914 0
159.814 7.51047 0
162.351 7.47865 0
162.405 11.7644 0
159.867 11.7962 0
161.082 7.49461 0
162.378 9.62155 0
161.136 11.7803 0
159.841 9.65338 0
161.109 9.63752 0
162.351 7.47865 0
164.888 7.44643 0
164.942 11.7321 0
162.405 11.7644 0
163.619 7.46259 0
164.915 9.58932 0
163.674 11.7483 0
162.378 9.62155 0
163.646 9.60549 0
164.888 7.44643 0
167.425 7.4138 0
167.48 11.6995 0
164.942 11.7321 0
166.156 7.43017 0
167.452 9.5567 0
166.211 11.7159 0
164.915 9.58932 0
166.184 9.57306 0
167.425 7.4138 0
169.961 7.38079 0
170.017 11.6665 0
167.48 11.6995 0
168.693 7.39734 0
169.989 9.52367 0
168.749 11.683 0
167.452 9.5567 0
168.721 9.54023 0
169.961 7.38079 0
172.498 7.34737 0
172.555 11.633 0
170.017 11.6665 0
171.23 7.36413 0
172.527 9.49025 0
171.286 11.6498 0
169.989 9.52367 0
171.258 9.50701 0
172.498 7.34737 0
175.035 7.31357 0
175.092 11.5992 0
172.555 11.633 0
173.767 7.33052 0
175.064 9.45644 0
173.824 11.6162 0
172.527 9.49025 0
173.795 9.47339 0
175.035 7.31357 0
177.572 7.27938 0
177.63 11.565 0
175.092 11.5992 0
176.304 7.29652 0
177.601 9.42224 0
176.361 11.5822 0
175.064 9.45644 0
176.332 9.43939 0
177.572 7.27938 0
180.109 7.2448 0
180.167 11.5304 0
177.63 11.565 0
178.84 7.26214 0
180.138 9.38766 0
178.899 11.5478 0
177.601 9.42224 0
178.87 9.405 0
180.109 7.2448 0
182.646 7.20985 0
182.705 11.4955 0
180.167 11.5304 0
181.377 7.22737 0
182.675 9.3527 0
181.436 11.513 0
180.138 9.38766 0
181.407 9.37023 0
182.646 7.20985 0
185.183 7.17451 0
185.242 11.4601 0
182.705 11.4955 0
183.914 7.19222 0
185.213 9.31736 0
183.974 11.4778 0
182.675 9.3527 0
183.944 9.33508 0
185.183 7.17451 0
187.72 7.1388 0
187.78 11.4244 0
185.242 11.4601 0
186.451 7.1567 0
187.75 9.28164 0
186.511 11.4423 0
185.213 9.31736 0
186.481 9.29955 0
187.72 7.1388 0
190.256 7.10272 0
190.317 11.3883 0
187.78 11.4244 0
188.988 7.12081 0
190.287 9.24555 0
189.049 11.4064 0
187.75 9.28164 0
189.018 9.26364 0
190.256 7.10272 0
192.793 7.06627 0
192.855 11.3518 0
190.317 11.3883 0
191.525 7.08454 0
192.824 9.2091 0
191.586 11.3701 0
190.287 9.24555 0
191.556 9.22737 0
192.793 7.06627 0
195.33 7.02945 0
195.392 11.315 0
192.855 11.3518 0
194.062 7.0479 0
195.361 9.17227 0
194.124 11.3335 0
192.824 9.2091 0
194.093 9.19073 0
195.33 7.02945 0
197.867 6.99227 0
197.93 11.2778 0
195.392 11.315 0
196.599 7.0109 0
197.898 9.13509 0
196.661 11.2965 0
195.361 9.17227 0
196.63 9.15372 0
197.867 6.99227 0
200.404 6.95473 0
200.467 11.2403 0
197.93 11.2778 0
199.135 6.97354 0
200.436 9.09754 0
199.199 11.2591 0
197.898 9.13509 0
199.167 9.11636 0
200.404 6.95473 0
202.941 6.91683 0
203.005 11.2024 0
200.467 11.2403 0
201.672 6.93582 0
202.973 9.05963 0
201.736 11.2214 0
200.436 9.09754 0
201.704 9.07863 0
202.941 6.91683 0
205.478 6.87857 0
205.542 11.1641 0
203.005 11.2024 0
204.209 6.89774 0
205.51 9.02137 0
204.274 11.1833 0
202.973 9.05963 0
204.241 9.04055 0
205.478 6.87857 0
208.015 6.83997 0
208.08 11.1255 0
205.542 11.1641 0
206.746 6.85932 0
208.047 8.98276 0
206.811 11.1448 0
205.51 9.02137 0
206.779 9.00211 0
208.015 6.83997 0
210.551 6.80102 0
210.617 11.0865 0
208.08 11.1255 0
209.283 6.82054 0
210.584 8.94381 0
209.349 11.106 0
208.047 8.98276 0
209.316 8.96333 0
210.551 6.80102 0
213.088 6.76172 0
213.155 11.0472 0
210.617 11.0865 0
211.82 6.78141 0
213.122 8.9045 0
211.886 11.0669 0
210.584 8.94381 0
211.853 8.9242 0
213.088 6.76172 0
215.625 6.72208 0
215.692 11.0076 0
213.155 11.0472 0
214.357 6.74195 0
215.659 8.86486 0
214.424 11.0274 0
213.122 8.9045 0
214.39 8.88472 0
215.625 6.72208 0
218.162 6.68211 0
218.23 10.9676 0
215.692 11.0076 0
216.894 6.70214 0
218.196 8.82488 0
216.961 10.9876 0
215.659 8.86486 0
216.927 8.84491 0
218.162 6.68211 0
220.699 6.64179 0
220.767 10.9272 0
218.23 10.9676 0
219.431 6.66199 0
220.733 8.78456 0
219.499 10.9475 0
218.196 8.82488 0
219.465 8.80476 0
220.699 6.64179 0
223.236 6.60115 0
223.305 10.8866 0
220.767 10.9272 0
221.968 6.62151 0
223.27 8.7439 0
222.036 10.907 0
220.733 8.78456 0
222.002 8.76427 0
223.236 6.60115 0
225.773 6.56017 0
225.842 10.8456 0
223.305 10.8866 0
224.504 6.5807 0
225.808 8.70292 0
224.573 10.8661 0
223.27 8.7439 0
224.539 8.72345 0
225.773 6.56017 0
228.31 6.51887 0
228.38 10.8043 0
225.842 10.8456 0
227.041 6.53956 0
228.345 8.66161 0
227.111 10.825 0
225.808 8.70292 0
227.076 8.68231 0
228.31 6.51887 0
230.847 6.47724 0
230.917 10.7626 0
228.38 10.8043 0
229.578 6.49809 0
230.882 8.61998 0
229.648 10.7835 0
228.345 8.66161 0
229.613 8.64083 0
230.847 6.47724 0
233.384 6.43529 0
233.455 10.7207 0
230.917 10.7626 0
232.115 6.4563 0
233.419 8.57802 0
232.186 10.7417 0
230.882 8.61998 0
232.151 8.59904 0
233.384 6.43529 0
235.921 6.39302 0
235.992 10.6784 0
233.455 10.7207 0
234.652 6.4142 0
235.956 8.53575 0
234.723 10.6996 0
233.419 8.57802 0
234.688 8.55693 0
235.921 6.39302 0
238.457 6.35044 0
238.529 10.6358 0
235.992 10.6784 0
237.189 6.37177 0
238.493 8.49316 0
237.261 10.6572 0
235.956 8.53575 0
237.225 8.5145 0
238.457 6.35044 0
240.994 6.30755 0
241.067 10.5929 0
238.529 10.6358 0
239.726 6.32904 0
241.031 8.45027 0
239.798 10.6144 0
238.493 8.49316 0
239.762 8.47175 0
240.994 6.30755 0
243.531 6.26435 0
243.604 10.5497 0
241.067 10.5929 0
242.263 6.28599 0
243.568 8.40706 0
242.336 10.5713 0
241.031 8.45027 0
242.299 8.4287 0
243.531 6.26435 0
246.068 6.22084 0
246.142 10.5062 0
243.604 10.5497 0
244.8 6.24263 0
246.105 8.36355 0
244.873 10.528 0
243.568 8.40706 0
244.836 8.38534 0
246.068 6.22084 0
248.605 6.17703 0
248.679 10.4624 0
246.142 10.5062 0
247.337 6.19898 0
248.642 8.31973 0
247.411 10.4843 0
246.105 8.36355 0
247.374 8.34168 0
248.605 6.17703 0
251.142 6.13292 0
251.217 10.4182 0
248.679 10.4624 0
249.874 6.15502 0
251.179 8.27561 0
249.948 10.4403 0
248.642 8.31973 0
249.911 8.29771 0
251.142 6.13292 0
253.679 6.08852 0
253.754 10.3738 0
251.217 10.4182 0
252.411 6.11076 0
253.717 8.2312 0
252.485 10.3961 0
251.179 8.27561 0
252.448 8.25345 0
253.679 6.08852 0
256.216 6.04382 0
256.292 10.3291 0
253.754 10.3738 0
254.948 6.0662 0
256.254 8.1865 0
255.023 10.3515 0
253.717 8.2312 0
254.985 8.20889 0
256.216 6.04382 0
258.753 5.99883 0
258.829 10.2841 0
256.292 10.3291 0
257.484 6.02136 0
258.791 8.1415 0
257.56 10.3066 0
256.254 8.1865 0
257.522 8.16404 0
258.753 5.99883 0
261.29 5.95355 0
261.366 10.2388 0
258.829 10.2841 0
260.021 5.97622 0
261.328 8.09622 0
260.098 10.2615 0
258.791 8.1415 0
260.06 8.11889 0
261.29 5.95355 0
263.827 5.90799 0
263.904 10.1933 0
261.366 10.2388 0
262.558 5.9308 0
263.865 8.05065 0
262.635 10.2161 0
261.328 8.09622 0
262.597 8.07347 0
263.827 5.90799 0
266.364 5.86214 0
266.441 10.1474 0
263.904 10.1933 0
265.095 5.8851 0
266.402 8.0048 0
265.173 10.1704 0
263.865 8.05065 0
265.134 8.02776 0
266.364 5.86214 0
268.901 5.81602 0
268.979 10.1013 0
266.441 10.1474 0
267.632 5.83912 0
268.94 7.95867 0
267.71 10.1244 0
266.402 8.0048 0
267.671 7.98177 0
268.901 5.81602 0
271.438 5.76962 0
271.516 10.0549 0
268.979 10.1013 0
270.169 5.79286 0
271.477 7.91227 0
270.247 10.0781 0
268.94 7.95867 0
270.208 7.9355 0
271.438 5.76962 0
273.975 5.72295 0
274.053 10.0082 0
271.516 10.0549 0
272.706 5.74632 0
274.014 7.86559 0
272.785 10.0315 0
271.477 7.91227 0
272.745 7.88896 0
273.975 5.72295 0
276.512 5.67601 0
276.591 9.96122 0
274.053 10.0082 0
275.243 5.69952 0
276.551 7.81865 0
275.322 9.98473 0
274.014 7.86559 0
275.283 7.84215 0
276.512 5.67601 0
279.049 5.62881 0
279.128 9.914 0
276.591 9.96122 0
277.78 5.65244 0
279.088 7.77143 0
277.86 9.93765 0
276.551 7.81865 0
277.82 7.79507 0
279.049 5.62881 0
281.586 5.58134 0
281.666 9.86652 0
279.128 9.914 0
280.317 5.60511 0
281.626 7.72396 0
280.397 9.8903 0
279.088 7.77143 0
280.357 7.74773 0
281.586 5.58134 0
284.122 5.53361 0
284.203 9.81878 0
281.666 9.86652 0
282.854 5.55751 0
284.163 7.67622 0
282.934 9.84269 0
281.626 7.72396 0
282.894 7.70012 0
284.122 5.53361 0
286.659 5.48562 0
286.74 9.77079 0
284.203 9.81878 0
285.391 5.50965 0
286.7 7.62823 0
285.472 9.79482 0
284.163 7.67622 0
285.431 7.65226 0
286.659 5.48562 0
289.196 5.43738 0
289.278 9.72253 0
286.74 9.77079 0
287.928 5.46153 0
289.237 7.57998 0
288.009 9.74669 0
286.7 7.62823 0
287.969 7.60414 0
289.196 5.43738 0
291.733 5.38889 0
291.815 9.67403 0
289.278 9.72253 0
290.465 5.41316 0
291.774 7.53149 0
290.547 9.69831 0
289.237 7.57998 0
290.506 7.55577 0
291.733 5.38889 0
294.27 5.34015 0
294.353 9.62528 0
291.815 9.67403 0
293.002 5.36455 0
294.312 7.48274 0
293.084 9.64969 0
291.774 7.53149 0
293.043 7.50714 0
294.27 5.34015 0
296.807 5.29116 0
296.89 9.57628 0
294.353 9.62528 0
295.539 5.31568 0
296.849 7.43375 0
295.621 9.60081 0
294.312 7.48274 0
295.58 7.45827 0
296.807 5.29116 0
299.344 5.24193 0
299.427 9.52704 0
296.89 9.57628 0
298.076 5.26658 0
299.386 7.38451 0
298.159 9.55169 0
296.849 7.43375 0
298.117 7.40916 0
299.344 5.24193 0
301.881 5.19246 0
301.965 9.47757 0
299.427 9.52704 0
300.613 5.21723 0
301.923 7.33504 0
300.696 9.50233 0
299.386 7.38451 0
300.654 7.35981 0
301.881 5.19246 0
304.418 5.14276 0
304.502 9.42785 0
301.965 9.47757 0
303.15 5.16764 0
304.46 7.28533 0
303.234 9.45274 0
301.923 7.33504 0
303.192 7.31021 0
304.418 5.14276 0
306.955 5.09282 0
307.04 9.3779 0
304.502 9.42785 0
305.687 5.11782 0
306.997 7.23539 0
305.771 9.40291 0
304.46 7.28533 0
305.729 7.26039 0
306.955 5.09282 0
309.492 5.04266 0
309.577 9.32773 0
307.04 9.3779 0
308.224 5.06777 0
309.535 7.18522 0
308.308 9.35284 0
306.997 7.23539 0
308.266 7.21033 0
309.492 5.04266 0
312.029 4.99226 0
312.114 9.27732 0
309.577 9.32773 0
310.761 5.01749 0
312.072 7.13482 0
310.846 9.30255 0
309.535 7.18522 0
310.803 7.16004 0
312.029 4.99226 0
314.566 4.94164 0
314.652 9.22669 0
312.114 9.27732 0
313.298 4.96698 0
314.609 7.08419 0
313.383 9.25204 0
312.072 7.13482 0
313.34 7.10953 0
314.566 4.94164 0
317.103 4.89081 0
317.189 9.17585 0
314.652 9.22669 0
315.835 4.91625 0
317.146 7.03335 0
315.92 9.2013 0
314.609 7.08419 0
315.878 7.0588 0
317.103 4.89081 0
319.64 4.83975 0
319.727 9.12478 0
317.189 9.17585 0
318.372 4.8653 0
319.683 6.98229 0
318.458 9.15034 0
317.146 7.03335 0
318.415 7.00784 0
319.64 4.83975 0
322.177 4.78848 0
322.264 9.0735 0
319.727 9.12478 0
320.909 4.81414 0
322.221 6.93101 0
320.995 9.09916 0
319.683 6.98229 0
320.952 6.95667 0
322.177 4.78848 0
324.714 4.73699 0
324.801 9.022 0
322.264 9.0735 0
323.446 4.76276 0
324.758 6.87952 0
323.533 9.04778 0
322.221 6.93101 0
323.489 6.90529 0
324.714 4.73699 0
327.251 4.6853 0
327.339 8.9703 0
324.801 9.022 0
325.983 4.71117 0
327.295 6.82782 0
326.07 8.99618 0
324.758 6.87952 0
326.026 6.8537 0
327.251 4.6853 0
329.788 4.6334 0
329.876 8.91839 0
327.339 8.9703 0
328.52 4.65938 0
329.832 6.77592 0
328.607 8.94437 0
327.295 6.82782 0
328.564 6.8019 0
329.788 4.6334 0
332.325 4.5813 0
332.413 8.86628 0
329.876 8.91839 0
331.057 4.60737 0
332.369 6.72381 0
331.145 8.89236 0
329.832 6.77592 0
331.101 6.74989 0
332.325 4.5813 0
334.862 4.529 0
334.951 8.81397 0
332.413 8.86628 0
333.594 4.55517 0
334.907 6.6715 0
333.682 8.84015 0
332.369 6.72381 0
333.638 6.69768 0
334.862 4.529 0
337.399 4.4765 0
337.488 8.76146 0
334.951 8.81397 0
336.131 4.50277 0
337.444 6.619 0
336.219 8.78774 0
334.907 6.6715 0
336.175 6.64528 0
337.399 4.4765 0
339.937 4.42381 0
340.025 8.70876 0
337.488 8.76146 0
338.668 4.45018 0
339.981 6.5663 0
338.757 8.73514 0
337.444 6.619 0
338.712 6.59268 0
339.937 4.42381 0
342.474 4.37092 0
342.563 8.65587 0
340.025 8.70876 0
341.205 4.39739 0
342.518 6.51342 0
341.294 8.68234 0
339.981 6.5663 0
341.25 6.53988 0
342.474 4.37092 0
345.011 4.31785 0
345.1 8.60279 0
342.563 8.65587 0
343.742 4.34441 0
345.055 6.46034 0
343.832 8.62935 0
342.518 6.51342 0
343.787 6.4869 0
345.011 4.31785 0
347.548 4.2646 0
347.638 8.54952 0
345.1 8.60279 0
346.279 4.29125 0
347.593 6.40708 0
346.369 8.57618 0
345.055 6.46034 0
346.324 6.43373 0
347.548 4.2646 0
350.085 4.21116 0
350.175 8.49608 0
347.638 8.54952 0
348.816 4.2379 0
350.13 6.35364 0
348.906 8.52282 0
347.593 6.40708 0
348.861 6.38038 0
350.085 4.21116 0
352.622 4.15754 0
352.712 8.44245 0
350.175 8.49608 0
351.353 4.18437 0
352.667 6.30002 0
351.444 8.46929 0
350.13 6.35364 0
351.398 6.32685 0
352.622 4.15754 0
355.159 4.10375 0
355.25 8.38865 0
352.712 8.44245 0
353.89 4.13067 0
355.204 6.24622 0
353.981 8.41557 0
352.667 6.30002 0
353.936 6.27314 0
355.159 4.10375 0
357.696 4.04979 0
357.787 8.33468 0
355.25 8.38865 0
356.427 4.07679 0
357.741 6.19225 0
356.518 8.36169 0
355.204 6.24622 0
356.473 6.21926 0
357.696 4.04979 0
360.233 3.99566 0
360.324 8.28054 0
357.787 8.33468 0
358.964 4.02274 0
360.279 6.13811 0
359.056 8.30763 0
357.741 6.19225 0
359.01 6.1652 0
360.233 3.99566 0
362.77 3.94135 0
362.862 8.22623 0
360.324 8.28054 0
361.501 3.96853 0
362.816 6.08381 0
361.593 8.2534 0
360.279 6.13811 0
361.547 6.11098 0
362.77 3.94135 0
365.307 3.88689 0
365.399 8.17176 0
362.862 8.22623 0
364.039 3.91414 0
365.353 6.02934 0
364.13 8.19901 0
362.816 6.08381 0
364.084 6.0566 0
365.307 3.88689 0
367.844 3.83227 0
367.936 8.11712 0
365.399 8.17176 0
366.576 3.8596 0
367.89 5.97471 0
366.668 8.14446 0
365.353 6.02934 0
366.622 6.00205 0
367.844 3.83227 0
370.381 3.77748 0
370.474 8.06233 0
367.936 8.11712 0
369.113 3.8049 0
370.427 5.91993 0
369.205 8.08975 0
367.89 5.97471 0
369.159 5.94734 0
370.381 3.77748 0
372.918 3.72255 0
373.011 8.00739 0
370.474 8.06233 0
371.65 3.75004 0
372.965 5.86498 0
371.742 8.03488 0
370.427 5.91993 0
371.696 5.89247 0
372.918 3.72255 0
375.455 3.66746 0
375.548 7.95229 0
373.011 8.00739 0
374.187 3.69502 0
375.502 5.80989 0
374.28 7.97986 0
372.965 5.86498 0
374.233 5.83746 0
375.455 3.66746 0
377.993 3.61222 0
378.086 7.89705 0
375.548 7.95229 0
376.724 3.63986 0
378.039 5.75465 0
376.817 7.92469 0
375.502 5.80989 0
376.771 5.78229 0
377.993 3.61222 0
380.53 3.55684 0
380.623 7.84166 0
378.086 7.89705 0
379.261 3.58455 0
380.576 5.69927 0
379.354 7.86937 0
378.039 5.75465 0
379.308 5.72698 0
380.53 3.55684 0
383.067 3.50132 0
383.16 7.78613 0
380.623 7.84166 0
381.798 3.5291 0
383.114 5.64374 0
381.892 7.81391 0
380.576 5.69927 0
381.845 5.67152 0
383.067 3.50132 0
385.604 3.44566 0
385.698 7.73046 0
383.16 7.78613 0
384.335 3.4735 0
385.651 5.58807 0
384.429 7.75831 0
383.114 5.64374 0
384.382 5.61592 0
385.604 3.44566 0
388.141 3.38986 0
388.235 7.67465 0
385.698 7.73046 0
386.872 3.41777 0
388.188 5.53227 0
386.966 7.70257 0
385.651 5.58807 0
386.919 5.56019 0
388.141 3.38986 0
390.678 3.33392 0
390.772 7.61871 0
388.235 7.67465 0
389.41 3.36191 0
390.725 5.47633 0
389.504 7.6467 0
388.188 5.53227 0
389.457 5.50431 0
390.678 3.33392 0
393.215 3.27786 0
393.31 7.56264 0
390.772 7.61871 0
391.947 3.30591 0
393.263 5.42026 0
392.041 7.59069 0
390.725 5.47633 0
391.994 5.44831 0
393.215 3.27786 0
395.752 3.22167 0
395.847 7.50644 0
393.31 7.56264 0
394.484 3.24978 0
395.8 5.36407 0
394.578 7.53456 0
393.263 5.42026 0
394.531 5.39218 0
395.752 3.22167 0
398.29 3.16535 0
398.385 7.45012 0
395.847 7.50644 0
397.021 3.19353 0
398.337 5.30775 0
397.116 7.4783 0
395.8 5.36407 0
397.068 5.33592 0
398.29 3.16535 0
400.827 3.10892 0
400.922 7.39368 0
398.385 7.45012 0
399.558 3.13715 0
400.874 5.25131 0
399.653 7.42191 0
398.337 5.30775 0
399.606 5.27954 0
400.827 3.10892 0
403.364 3.05236 0
403.459 7.33711 0
400.922 7.39368 0
402.095 3.08066 0
403.412 5.19475 0
402.191 7.36541 0
400.874 5.25131 0
402.143 5.22305 0
403.364 3.05236 0
405.901 2.9957 0
405.997 7.28044 0
403.459 7.33711 0
404.632 3.02404 0
405.949 5.13808 0
404.728 7.30879 0
403.412 5.19475 0
404.68 5.16643 0
405.901 2.9957 0
408.438 2.93891 0
408.534 7.22365 0
405.997 7.28044 0
407.17 2.96732 0
408.486 5.08129 0
407.265 7.25206 0
405.949 5.13808 0
407.217 5.1097 0
408.438 2.93891 0
410.975 2.88202 0
411.071 7.16675 0
408.534 7.22365 0
409.707 2.91048 0
411.023 5.0244 0
409.803 7.19522 0
408.486 5.08129 0
409.755 5.05286 0
410.975 2.88202 0
413.512 2.82503 0
413.609 7.10975 0
411.071 7.16675 0
412.244 2.85354 0
413.561 4.9674 0
412.34 7.13826 0
411.023 5.0244 0
412.292 4.99591 0
413.512 2.82503 0
416.05 2.76793 0
416.146 7.05264 0
413.609 7.10975 0
414.781 2.79649 0
416.098 4.9103 0
414.877 7.08121 0
413.561 4.9674 0
414.829 4.93886 0
416.05 2.76793 0
418.587 2.71073 0
418.683 6.99544 0
416.146 7.05264 0
417.318 2.73934 0
418.635 4.85309 0
417.415 7.02405 0
416.098 4.9103 0
417.366 4.88171 0
418.587 2.71073 0
421.124 2.65343 0
421.221 6.93814 0
418.683 6.99544 0
419.855 2.68209 0
421.172 4.79579 0
419.952 6.9668 0
418.635 4.85309 0
419.904 4.82446 0
421.124 2.65343 0
423.661 2.59604 0
423.758 6.88074 0
421.221 6.93814 0
422.393 2.62475 0
423.71 4.7384 0
422.489 6.90945 0
421.172 4.79579 0
422.441 4.76711 0
423.661 2.59604 0
426.198 2.53856 0
426.295 6.82325 0
423.758 6.88074 0
424.93 2.56731 0
426.247 4.68091 0
425.027 6.85201 0
423.71 4.7384 0
424.978 4.70967 0
426.198 2.53856 0
428.736 2.48099 0
428.833 6.76568 0
426.295 6.82325 0
427.467 2.50978 0
428.784 4.62334 0
427.564 6.79447 0
426.247 4.68091 0
427.515 4.65214 0
428.736 2.48099 0
431.273 2.42333 0
431.37 6.70802 0
428.833 6.76568 0
430.004 2.45217 0
431.321 4.56568 0
430.101 6.73686 0
428.784 4.62334 0
430.053 4.59452 0
431.273 2.42333 0
433.81 2.3656 0
433.907 6.65027 0
431.37 6.70802 0
432.541 2.39448 0
433.859 4.50794 0
432.639 6.67915 0
431.321 4.56568 0
432.59 4.53682 0
433.81 2.3656 0
436.347 2.30778 0
436.445 6.59245 0
433.907 6.65027 0
435.079 2.3367 0
436.396 4.45013 0
435.176 6.62137 0
433.859 4.50794 0
435.127 4.47905 0
436.347 2.30778 0
438.884 2.24989 0
438.982 6.53456 0
436.445 6.59245 0
437.616 2.27885 0
438.933 4.39223 0
437.713 6.56351 0
436.396 4.45013 0
437.665 4.42119 0
438.884 2.24989 0
441.422 2.19193 0
441.519 6.47659 0
438.982 6.53456 0
440.153 2.22092 0
441.471 4.33427 0
440.251 6.50558 0
438.933 4.39223 0
440.202 4.36326 0
441.422 2.19193 0
443.959 2.1339 0
444.057 6.41855 0
441.519 6.47659 0
442.69 2.16292 0
444.008 4.27623 0
442.788 6.44758 0
441.471 4.33427 0
442.739 4.30526 0
443.959 2.1339 0
446.496 2.0758 0
446.594 6.36044 0
444.057 6.41855 0
445.228 2.10485 0
446.545 4.21813 0
445.325 6.3895 0
444.008 4.27623 0
445.276 4.24719 0
446.496 2.0758 0
449.033 2.01763 0
449.131 6.30228 0
446.594 6.36044 0
447.765 2.04672 0
449.082 4.15996 0
447.863 6.33137 0
446.545 4.21813 0
447.814 4.18905 0
449.033 2.01763 0
451.571 1.95941 0
451.669 6.24405 0
449.131 6.30228 0
450.302 1.98853 0
451.62 4.10173 0
450.4 6.27317 0
449.082 4.15996 0
450.351 4.13085 0
451.571 1.95941 0
454.108 1.90112 0
454.206 6.18576 0
451.669 6.24405 0
452.839 1.93027 0
454.157 4.04345 0
452.937 6.21491 0
451.62 4.10173 0
452.888 4.0726 0
454.108 1.90112 0
456.645 1.84279 0
456.744 6.12742 0
454.206 6.18576 0
455.377 1.87196 0
456.694 3.98511 0
455.475 6.15659 0
454.157 4.04345 0
455.426 4.01428 0
456.645 1.84279 0
459.182 1.7844 0
459.281 6.06902 0
456.744 6.12742 0
457.914 1.8136 0
459.232 3.92672 0
458.012 6.09823 0
456.694 3.98511 0
457.963 3.95592 0
459.182 1.7844 0
461.72 1.72596 0
461.818 6.01058 0
459.281 6.06902 0
460.451 1.75519 0
461.769 3.86828 0
460.55 6.03981 0
459.232 3.92672 0
460.5 3.8975 0
461.72 1.72596 0
464.257 1.66748 0
464.356 5.9521 0
461.818 6.01058 0
462.988 1.69673 0
464.306 3.80979 0
463.087 5.98134 0
461.769 3.86828 0
463.038 3.83904 0
464.257 1.66748 0
466.794 1.60895 0
466.893 5.89357 0
464.356 5.9521 0
465.526 1.63822 0
466.844 3.75126 0
465.624 5.92284 0
464.306 3.80979 0
465.575 3.78053 0
466.794 1.60895 0
469.332 1.55039 0
469.43 5.835 0
466.893 5.89357 0
468.063 1.57968 0
469.381 3.6927 0
468.162 5.86429 0
466.844 3.75126 0
468.112 3.72199 0
469.332 1.55039 0
471.869 1.49179 0
471.968 5.77639 0
469.43 5.835 0
470.6 1.52109 0
471.918 3.63409 0
470.699 5.8057 0
469.381 3.6927 0
470.65 3.6634 0
471.869 1.49179 0
474.406 1.43315 0
474.505 5.71775 0
471.968 5.77639 0
473.138 1.46247 0
474.456 3.57546 0
473.236 5.74708 0
471.918 3.63409 0
473.187 3.60478 0
474.406 1.43315 0
476.944 1.37449 0
477.042 5.65908 0
474.505 5.71775 0
475.675 1.40382 0
476.993 3.51679 0
475.774 5.68842 0
474.456 3.57546 0
475.724 3.54613 0
476.944 1.37449 0
479.481 1.3158 0
479.58 5.60039 0
477.042 5.65908 0
478.212 1.34514 0
479.53 3.45809 0
478.311 5.62974 0
476.993 3.51679 0
478.262 3.48744 0
479.481 1.3158 0
482.018 1.25708 0
482.117 5.54166 0
479.58 5.60039 0
480.75 1.28644 0
482.068 3.39937 0
480.848 5.57103 0
479.53 3.45809 0
480.799 3.42874 0
482.018 1.25708 0
484.556 1.19834 0
484.655 5.48292 0
482.117 5.54166 0
483.287 1.22771 0
484.605 3.34063 0
483.386 5.5123 0
482.068 3.39937 0
483.336 3.37 0
484.556 1.19834 0
487.093 1.13958 0
487.192 5.42416 0
484.655 5.48292 0
485.824 1.16896 0
487.142 3.28187 0
485.923 5.45354 0
484.605 3.34063 0
485.874 3.31125 0
487.093 1.13958 0
489.63 1.08081 0
489.729 5.36538 0
487.192 5.42416 0
488.362 1.11019 0
489.68 3.22309 0
488.461 5.39477 0
487.142 3.28187 0
488.411 3.25248 0
489.63 1.08081 0
492.168 1.02202 0
492.267 5.30659 0
489.729 5.36538 0
490.899 1.05141 0
492.217 3.1643 0
490.998 5.33599 0
489.68 3.22309 0
490.948 3.1937 0
492.168 1.02202 0
494.705 0.963216 0
494.804 5.2478 0
492.267 5.30659 0
493.436 0.992617 0
494.755 3.10551 0
493.535 5.2772 0
492.217 3.1643 0
493.486 3.13491 0
494.705 0.963216 0
497.242 0.904418 0
497.341 5.18902 0
494.804 5.2478 0
495.974 0.933815 0
497.292 3.04673 0
496.073 5.21841 0
494.755 3.10551 0
496.023 3.07612 0
497.242 0.904418 0
499.78 0.845646 0
499.879 5.13028 0
497.341 5.18902 0
498.511 0.875026 0
499.829 2.98797 0
498.61 5.15965 0
497.292 3.04673 0
498.561 3.01734 0
0 12.8571 0
2.53763 12.8572 0
2.53851 17.1429 0
0 17.1429 0
1.26882 12.8573 0
2.53807 15.0001 0
1.26925 17.143 0
0 15 0
1.26903 15.0002 0
2.53763 12.8572 0
5.07522 12.8565 0
5.07705 17.1422 0
2.53851 17.1429 0
3.80643 12.8569 0
5.07614 14.9994 0
3.80777 17.1427 0
2.53807 15.0001 0
3.8071 14.9998 0
5.07522 12.8565 0
7.6128 12.855 0
7.61561 17.1407 0
5.07705 17.1422 0
6.34401 12.8558 0
7.61421 14.9979 0
6.34633 17.1415 0
5.07614 14.9994 0
6.34517 14.9987 0
7.6128 12.855 0
10.1504 12.8529 0
10.1542 17.1386 0
7.61561 17.1407 0
8.88159 12.854 0
10.1523 14.9958 0
8.8849 17.1397 0
7.61421 14.9979 0
8.88324 14.9969 0
10.1504 12.8529 0
12.6879 12.8502 0
12.6928 17.1359 0
10.1542 17.1386 0
11.4192 12.8516 0
12.6903 14.9931 0
11.4235 17.1373 0
10.1523 14.9958 0
11.4213 14.9945 0
12.6879 12.8502 0
15.2255 12.8469 0
15.2313 17.1326 0
12.6928 17.1359 0
13.9567 12.8486 0
15.2284 14.9898 0
13.962 17.1343 0
12.6903 14.9931 0
13.9594 14.9915 0
15.2255 12.8469 0
17.7631 12.843 0
17.7699 17.1287 0
15.2313 17.1326 0
16.4943 12.845 0
17.7665 14.9859 0
16.5006 17.1307 0
15.2284 14.9898 0
16.4974 14.9879 0
17.7631 12.843 0
20.3007 12.8385 0
20.3084 17.1242 0
17.7699 17.1287 0
19.0319 12.8408 0
20.3045 14.9814 0
19.0392 17.1265 0
17.7665 14.9859 0
19.0355 14.9837 0
20.3007 12.8385 0
22.8382 12.8335 0
22.847 17.1192 0
20.3084 17.1242 0
21.5694 12.8361 0
22.8426 14.9764 0
21.5777 17.1218 0
20.3045 14.9814 0
21.5736 14.979 0
22.8382 12.8335 0
25.3758 12.8279 0
25.3855 17.1136 0
22.847 17.1192 0
24.107 12.8307 0
25.3807 14.9708 0
24.1163 17.1164 0
22.8426 14.9764 0
24.1116 14.9737 0
25.3758 12.8279 0
27.9134 12.8217 0
27.9241 17.1074 0
25.3855 17.1136 0
26.6446 12.8249 0
27.9187 14.9646 0
26.6548 17.1106 0
25.3807 14.9708 0
26.6497 14.9678 0
27.9134 12.8217 0
30.451 12.815 0
30.4626 17.1007 0
27.9241 17.1074 0
29.1822 12.8184 0
30.4568 14.9579 0
29.1933 17.1041 0
27.9187 14.9646 0
29.1878 14.9613 0
30.451 12.815 0
32.9886 12.8077 0
33.0011 17.0934 0
30.4626 17.1007 0
31.7198 12.8114 0
32.9949 14.9506 0
31.7319 17.0971 0
30.4568 14.9579 0
31.7258 14.9543 0
32.9886 12.8077 0
35.5262 12.7998 0
35.5397 17.0855 0
33.0011 17.0934 0
34.2574 12.8038 0
35.5329 14.9427 0
34.2704 17.0895 0
32.9949 14.9506 0
34.2639 14.9467 0
35.5262 12.7998 0
38.0638 12.7914 0
38.0782 17.0771 0
35.5397 17.0855 0
36.795 12.7957 0
38.071 14.9343 0
36.8089 17.0814 0
35.5329 14.9427 0
36.8019 14.9386 0
38.0638 12.7914 0
40.6013 12.7825 0
40.6167 17.0682 0
38.0782 17.0771 0
39.3325 12.787 0
40.609 14.9254 0
39.3474 17.0727 0
38.071 14.9343 0
39.34 14.9299 0
40.6013 12.7825 0
43.1389 12.773 0
43.1552 17.0587 0
40.6167 17.0682 0
41.8701 12.7778 0
43.1471 14.9159 0
41.886 17.0635 0
40.609 14.9254 0
41.878 14.9207 0
43.1389 12.773 0
45.6765 12.7629 0
45.6937 17.0486 0
43.1552 17.0587 0
44.4077 12.768 0
45.6851 14.9058 0
44.4245 17.0537 0
43.1471 14.9159 0
44.4161 14.9109 0
45.6765 12.7629 0
48.2141 12.7524 0
48.2322 17.038 0
45.6937 17.0486 0
46.9453 12.7577 0
48.2232 14.8953 0
46.963 17.0434 0
45.6851 14.9058 0
46.9541 14.9006 0
48.2141 12.7524 0
50.7517 12.7412 0
50.7707 17.0269 0
48.2322 17.038 0
49.4829 12.7469 0
50.7612 14.8841 0
49.5015 17.0325 0
48.2232 14.8953 0
49.4922 14.8898 0
50.7517 12.7412 0
53.2893 12.7296 0
53.3092 17.0152 0
50.7707 17.0269 0
52.0205 12.7355 0
53.2993 14.8725 0
52.04 17.0211 0
50.7612 14.8841 0
52.0302 14.8784 0
53.2893 12.7296 0
55.8269 12.7174 0
55.8477 17.003 0
53.3092 17.0152 0
54.5581 12.7235 0
55.8373 14.8603 0
54.5785 17.0092 0
53.2993 14.8725 0
54.5683 14.8664 0
55.8269 12.7174 0
58.3645 12.7047 0
58.3862 16.9903 0
55.8477 17.003 0
57.0957 12.7111 0
58.3753 14.8475 0
57.1169 16.9967 0
55.8373 14.8603 0
57.1063 14.854 0
58.3645 12.7047 0
60.9021 12.6914 0
60.9247 16.9771 0
58.3862 16.9903 0
59.6333 12.6981 0
60.9134 14.8343 0
59.6554 16.9838 0
58.3753 14.8475 0
59.6444 14.841 0
60.9021 12.6914 0
63.4397 12.6776 0
63.4631 16.9633 0
60.9247 16.9771 0
62.1709 12.6846 0
63.4514 14.8205 0
62.1939 16.9702 0
60.9134 14.8343 0
62.1824 14.8275 0
63.4397 12.6776 0
65.9773 12.6633 0
66.0016 16.949 0
63.4631 16.9633 0
64.7085 12.6706 0
65.9894 14.8062 0
64.7324 16.9562 0
63.4514 14.8205 0
64.7204 14.8134 0
65.9773 12.6633 0
68.5149 12.6485 0
68.5401 16.9342 0
66.0016 16.949 0
67.2461 12.656 0
68.5275 14.7914 0
67.2708 16.9416 0
65.9894 14.8062 0
67.2584 14.7989 0
68.5149 12.6485 0
71.0524 12.6332 0
71.0785 16.9188 0
68.5401 16.9342 0
69.7836 12.6409 0
71.0655 14.7761 0
69.8093 16.9266 0
68.5275 14.7914 0
69.7965 14.7838 0
71.0524 12.6332 0
73.59 12.6174 0
73.617 16.903 0
71.0785 16.9188 0
72.3212 12.6254 0
73.6035 14.7602 0
72.3478 16.911 0
71.0655 14.7761 0
72.3345 14.7682 0
73.59 12.6174 0
76.1276 12.601 0
76.1554 16.8867 0
73.617 16.903 0
74.8588 12.6093 0
76.1415 14.7439 0
74.8862 16.8949 0
73.6035 14.7602 0
74.8725 14.7521 0
76.1276 12.601 0
78.6652 12.5842 0
78.6939 16.8698 0
76.1554 16.8867 0
77.3964 12.5927 0
78.6795 14.727 0
77.4246 16.8783 0
76.1415 14.7439 0
77.4105 14.7355 0
78.6652 12.5842 0
81.2028 12.5668 0
81.2323 16.8524 0
78.6939 16.8698 0
79.934 12.5756 0
81.2175 14.7097 0
79.9631 16.8612 0
78.6795 14.727 0
79.9485 14.7184 0
81.2028 12.5668 0
83.7404 12.549 0
83.7707 16.8346 0
81.2323 16.8524 0
82.4716 12.558 0
83.7556 14.6918 0
82.5015 16.8436 0
81.2175 14.7097 0
82.4866 14.7008 0
83.7404 12.549 0
86.278 12.5306 0
86.3091 16.8162 0
83.7707 16.8346 0
85.0092 12.5399 0
86.2936 14.6735 0
85.0399 16.8255 0
83.7556 14.6918 0
85.0246 14.6827 0
86.278 12.5306 0
88.8156 12.5118 0
88.8476 16.7974 0
86.3091 16.8162 0
87.5468 12.5213 0
88.8316 14.6546 0
87.5784 16.8069 0
86.2936 14.6735 0
87.5626 14.6641 0
88.8156 12.5118 0
91.3531 12.4925 0
91.386 16.778 0
88.8476 16.7974 0
90.0843 12.5022 0
91.3696 14.6353 0
90.1168 16.7878 0
88.8316 14.6546 0
90.1006 14.645 0
91.3531 12.4925 0
93.8907 12.4726 0
93.9244 16.7582 0
91.386 16.778 0
92.6219 12.4826 0
93.9075 14.6155 0
92.6552 16.7682 0
91.3696 14.6353 0
92.6386 14.6254 0
93.8907 12.4726 0
96.4283 12.4523 0
96.4628 16.7379 0
93.9244 16.7582 0
95.1595 12.4625 0
96.4455 14.5952 0
95.1936 16.7481 0
93.9075 14.6155 0
95.1765 14.6054 0
96.4283 12.4523 0
98.9659 12.4315 0
99.0012 16.7171 0
96.4628 16.7379 0
97.6971 12.442 0
98.9835 14.5744 0
97.732 16.7276 0
96.4455 14.5952 0
97.7145 14.5848 0
98.9659 12.4315 0
101.503 12.4103 0
101.54 16.6958 0
99.0012 16.7171 0
100.235 12.421 0
101.522 14.5531 0
100.27 16.7065 0
98.9835 14.5744 0
100.253 14.5638 0
101.503 12.4103 0
104.041 12.3885 0
104.078 16.6741 0
101.54 16.6958 0
102.772 12.3995 0
104.059 14.5314 0
102.809 16.685 0
101.522 14.5531 0
102.79 14.5423 0
104.041 12.3885 0
106.579 12.3663 0
106.616 16.6519 0
104.078 16.6741 0
105.31 12.3775 0
106.597 14.5092 0
105.347 16.663 0
104.059 14.5314 0
105.328 14.5203 0
106.579 12.3663 0
109.116 12.3437 0
109.155 16.6292 0
106.616 16.6519 0
107.847 12.3551 0
109.135 14.4865 0
107.885 16.6406 0
106.597 14.5092 0
107.866 14.4979 0
109.116 12.3437 0
111.654 12.3205 0
111.693 16.606 0
109.155 16.6292 0
110.385 12.3321 0
111.673 14.4633 0
110.424 16.6177 0
109.135 14.4865 0
110.404 14.475 0
111.654 12.3205 0
114.191 12.2969 0
114.231 16.5824 0
111.693 16.606 0
112.923 12.3088 0
114.211 14.4397 0
112.962 16.5943 0
111.673 14.4633 0
112.942 14.4516 0
114.191 12.2969 0
116.729 12.2728 0
116.77 16.5583 0
114.231 16.5824 0
115.46 12.2849 0
116.749 14.4156 0
115.501 16.5704 0
114.211 14.4397 0
115.48 14.4277 0
116.729 12.2728 0
119.266 12.2483 0
119.308 16.5338 0
116.77 16.5583 0
117.998 12.2606 0
119.287 14.3911 0
118.039 16.5461 0
116.749 14.4156 0
118.018 14.4034 0
119.266 12.2483 0
121.804 12.2233 0
121.846 16.5088 0
119.308 16.5338 0
120.535 12.2359 0
121.825 14.3661 0
120.577 16.5214 0
119.287 14.3911 0
120.556 14.3787 0
121.804 12.2233 0
124.342 12.1979 0
124.385 16.4834 0
121.846 16.5088 0
123.073 12.2107 0
124.363 14.3407 0
123.116 16.4962 0
121.825 14.3661 0
123.094 14.3535 0
124.342 12.1979 0
126.879 12.172 0
126.923 16.4575 0
124.385 16.4834 0
125.61 12.185 0
126.901 14.3148 0
125.654 16.4705 0
124.363 14.3407 0
125.632 14.3278 0
126.879 12.172 0
129.417 12.1457 0
129.461 16.4312 0
126.923 16.4575 0
128.148 12.1589 0
129.439 14.2885 0
128.192 16.4444 0
126.901 14.3148 0
128.17 14.3017 0
129.417 12.1457 0
131.954 12.1189 0
132 16.4044 0
129.461 16.4312 0
130.685 12.1324 0
131.977 14.2617 0
130.73 16.4178 0
129.439 14.2885 0
130.708 14.2751 0
131.954 12.1189 0
134.492 12.0917 0
134.538 16.3772 0
132 16.4044 0
133.223 12.1054 0
134.515 14.2345 0
133.269 16.3908 0
131.977 14.2617 0
133.246 14.2482 0
134.492 12.0917 0
137.029 12.0641 0
137.076 16.3495 0
134.538 16.3772 0
135.761 12.078 0
137.053 14.2069 0
135.807 16.3634 0
134.515 14.2345 0
135.784 14.2207 0
137.029 12.0641 0
139.567 12.036 0
139.614 16.3215 0
137.076 16.3495 0
138.298 12.0501 0
139.591 14.1788 0
138.345 16.3356 0
137.053 14.2069 0
138.322 14.1929 0
139.567 12.036 0
142.104 12.0075 0
142.153 16.2929 0
139.614 16.3215 0
140.836 12.0218 0
142.129 14.1503 0
140.884 16.3073 0
139.591 14.1788 0
140.86 14.1646 0
142.104 12.0075 0
144.642 11.9786 0
144.691 16.264 0
142.153 16.2929 0
143.373 11.9931 0
144.667 14.1213 0
143.422 16.2785 0
142.129 14.1503 0
143.398 14.1359 0
144.642 11.9786 0
147.18 11.9492 0
147.229 16.2346 0
144.691 16.264 0
145.911 11.964 0
147.204 14.092 0
145.96 16.2494 0
144.667 14.1213 0
145.935 14.1067 0
147.18 11.9492 0
149.717 11.9194 0
149.768 16.2049 0
147.229 16.2346 0
148.448 11.9344 0
149.742 14.0622 0
148.498 16.2198 0
147.204 14.092 0
148.473 14.0771 0
149.717 11.9194 0
152.255 11.8893 0
152.306 16.1747 0
149.768 16.2049 0
150.986 11.9044 0
152.28 14.032 0
151.037 16.1898 0
149.742 14.0622 0
151.011 14.0472 0
152.255 11.8893 0
154.792 11.8586 0
154.844 16.144 0
152.306 16.1747 0
153.523 11.874 0
154.818 14.0014 0
153.575 16.1594 0
152.28 14.032 0
153.549 14.0167 0
154.792 11.8586 0
157.33 11.8276 0
157.382 16.113 0
154.844 16.144 0
156.061 11.8432 0
157.356 13.9704 0
156.113 16.1286 0
154.818 14.0014 0
156.087 13.9859 0
157.33 11.8276 0
159.867 11.7962 0
159.92 16.0816 0
157.382 16.113 0
158.598 11.812 0
159.894 13.9389 0
158.651 16.0974 0
157.356 13.9704 0
158.625 13.9547 0
159.867 11.7962 0
162.405 11.7644 0
162.459 16.0497 0
159.92 16.0816 0
161.136 11.7803 0
162.432 13.9071 0
161.19 16.0657 0
159.894 13.9389 0
161.163 13.9231 0
162.405 11.7644 0
164.942 11.7321 0
164.997 16.0175 0
162.459 16.0497 0
163.674 11.7483 0
164.97 13.8749 0
163.728 16.0337 0
162.432 13.9071 0
163.701 13.891 0
164.942 11.7321 0
167.48 11.6995 0
167.535 15.9849 0
164.997 16.0175 0
166.211 11.7159 0
167.507 13.8422 0
166.266 16.0012 0
164.97 13.8749 0
166.239 13.8586 0
167.48 11.6995 0
170.017 11.6665 0
170.073 15.9518 0
167.535 15.9849 0
168.749 11.683 0
170.045 13.8092 0
168.804 15.9684 0
167.507 13.8422 0
168.776 13.8258 0
170.017 11.6665 0
172.555 11.633 0
172.611 15.9184 0
170.073 15.9518 0
171.286 11.6498 0
172.583 13.7758 0
171.342 15.9352 0
170.045 13.8092 0
171.314 13.7925 0
172.555 11.633 0
175.092 11.5992 0
175.15 15.8846 0
172.611 15.9184 0
173.824 11.6162 0
175.121 13.7419 0
173.881 15.9015 0
172.583 13.7758 0
173.852 13.7589 0
175.092 11.5992 0
177.63 11.565 0
177.688 15.8504 0
175.15 15.8846 0
176.361 11.5822 0
177.659 13.7077 0
176.419 15.8675 0
175.121 13.7419 0
176.39 13.7249 0
177.63 11.565 0
180.167 11.5304 0
180.226 15.8158 0
177.688 15.8504 0
178.899 11.5478 0
180.197 13.6731 0
178.957 15.8331 0
177.659 13.7077 0
178.928 13.6905 0
180.167 11.5304 0
182.705 11.4955 0
182.764 15.7808 0
180.226 15.8158 0
181.436 11.513 0
182.735 13.6382 0
181.495 15.7983 0
180.197 13.6731 0
181.466 13.6557 0
182.705 11.4955 0
185.242 11.4601 0
185.302 15.7454 0
182.764 15.7808 0
183.974 11.4778 0
185.272 13.6028 0
184.033 15.7631 0
182.735 13.6382 0
184.003 13.6205 0
185.242 11.4601 0
187.78 11.4244 0
187.84 15.7097 0
185.302 15.7454 0
186.511 11.4423 0
187.81 13.5671 0
186.571 15.7276 0
185.272 13.6028 0
186.541 13.585 0
187.78 11.4244 0
190.317 11.3883 0
190.378 15.6736 0
187.84 15.7097 0
189.049 11.4064 0
190.348 13.531 0
189.109 15.6917 0
187.81 13.5671 0
189.079 13.5491 0
190.317 11.3883 0
192.855 11.3518 0
192.917 15.6371 0
190.378 15.6736 0
191.586 11.3701 0
192.886 13.4945 0
191.648 15.6554 0
190.348 13.531 0
191.617 13.5128 0
192.855 11.3518 0
195.392 11.315 0
195.455 15.6003 0
192.917 15.6371 0
194.124 11.3335 0
195.424 13.4577 0
194.186 15.6187 0
192.886 13.4945 0
194.155 13.4762 0
195.392 11.315 0
197.93 11.2778 0
197.993 15.5631 0
195.455 15.6003 0
196.661 11.2965 0
197.961 13.4205 0
196.724 15.5817 0
195.424 13.4577 0
196.692 13.4391 0
197.93 11.2778 0
200.467 11.2403 0
200.531 15.5255 0
197.993 15.5631 0
199.199 11.2591 0
200.499 13.3829 0
199.262 15.5443 0
197.961 13.4205 0
199.23 13.4018 0
200.467 11.2403 0
203.005 11.2024 0
203.069 15.4876 0
200.531 15.5255 0
201.736 11.2214 0
203.037 13.345 0
201.8 15.5066 0
200.499 13.3829 0
201.768 13.364 0
203.005 11.2024 0
205.542 11.1641 0
205.607 15.4493 0
203.069 15.4876 0
204.274 11.1833 0
205.575 13.3067 0
204.338 15.4685 0
203.037 13.345 0
204.306 13.3259 0
205.542 11.1641 0
208.08 11.1255 0
208.145 15.4107 0
205.607 15.4493 0
206.811 11.1448 0
208.113 13.2681 0
206.876 15.4301 0
205.575 13.3067 0
206.844 13.2875 0
208.08 11.1255 0
210.617 11.0865 0
210.683 15.3717 0
208.145 15.4107 0
209.349 11.106 0
210.65 13.2292 0
209.414 15.3913 0
208.113 13.2681 0
209.381 13.2487 0
210.617 11.0865 0
213.155 11.0472 0
213.221 15.3324 0
210.683 15.3717 0
211.886 11.0669 0
213.188 13.1898 0
211.952 15.3521 0
210.65 13.2292 0
211.919 13.2095 0
213.155 11.0472 0
215.692 11.0076 0
215.759 15.2928 0
213.221 15.3324 0
214.424 11.0274 0
215.726 13.1502 0
214.49 15.3126 0
213.188 13.1898 0
214.457 13.1701 0
215.692 11.0076 0
218.23 10.9676 0
218.297 15.2528 0
215.759 15.2928 0
216.961 10.9876 0
218.264 13.1102 0
217.028 15.2728 0
215.726 13.1502 0
216.995 13.1302 0
218.23 10.9676 0
220.767 10.9272 0
220.835 15.2124 0
218.297 15.2528 0
219.499 10.9475 0
220.801 13.0699 0
219.566 15.2326 0
218.264 13.1102 0
219.532 13.0901 0
220.767 10.9272 0
223.305 10.8866 0
223.373 15.1718 0
220.835 15.2124 0
222.036 10.907 0
223.339 13.0292 0
222.104 15.1921 0
220.801 13.0699 0
222.07 13.0496 0
223.305 10.8866 0
225.842 10.8456 0
225.911 15.1308 0
223.373 15.1718 0
224.573 10.8661 0
225.877 12.9882 0
224.642 15.1513 0
223.339 13.0292 0
224.608 13.0088 0
225.842 10.8456 0
228.38 10.8043 0
228.449 15.0894 0
225.911 15.1308 0
227.111 10.825 0
228.415 12.9469 0
227.18 15.1101 0
225.877 12.9882 0
227.146 12.9676 0
228.38 10.8043 0
230.917 10.7626 0
230.987 15.0478 0
228.449 15.0894 0
229.648 10.7835 0
230.952 12.9053 0
229.718 15.0686 0
228.415 12.9469 0
229.683 12.9261 0
230.917 10.7626 0
233.455 10.7207 0
233.525 15.0058 0
230.987 15.0478 0
232.186 10.7417 0
233.49 12.8633 0
232.256 15.0268 0
230.952 12.9053 0
232.221 12.8843 0
233.455 10.7207 0
235.992 10.6784 0
236.063 14.9635 0
233.525 15.0058 0
234.723 10.6996 0
236.028 12.821 0
234.794 14.9847 0
233.49 12.8633 0
234.759 12.8422 0
235.992 10.6784 0
238.529 10.6358 0
238.601 14.9209 0
236.063 14.9635 0
237.261 10.6572 0
238.565 12.7784 0
237.332 14.9423 0
236.028 12.821 0
237.297 12.7997 0
238.529 10.6358 0
241.067 10.5929 0
241.139 14.878 0
238.601 14.9209 0
239.798 10.6144 0
241.103 12.7355 0
239.87 14.8995 0
238.565 12.7784 0
239.834 12.757 0
241.067 10.5929 0
243.604 10.5497 0
243.677 14.8348 0
241.139 14.878 0
242.336 10.5713 0
243.641 12.6923 0
242.408 14.8564 0
241.103 12.7355 0
242.372 12.7139 0
243.604 10.5497 0
246.142 10.5062 0
246.215 14.7913 0
243.677 14.8348 0
244.873 10.528 0
246.179 12.6488 0
244.946 14.8131 0
243.641 12.6923 0
244.91 12.6706 0
246.142 10.5062 0
248.679 10.4624 0
248.753 14.7474 0
246.215 14.7913 0
247.411 10.4843 0
248.716 12.6049 0
247.484 14.7694 0
246.179 12.6488 0
247.447 12.6269 0
248.679 10.4624 0
251.217 10.4182 0
251.291 14.7033 0
248.753 14.7474 0
249.948 10.4403 0
251.254 12.5608 0
250.022 14.7254 0
248.716 12.6049 0
249.985 12.5829 0
251.217 10.4182 0
253.754 10.3738 0
253.829 14.6589 0
251.291 14.7033 0
252.485 10.3961 0
253.792 12.5164 0
252.56 14.6811 0
251.254 12.5608 0
252.523 12.5386 0
253.754 10.3738 0
256.292 10.3291 0
256.367 14.6142 0
253.829 14.6589 0
255.023 10.3515 0
256.329 12.4717 0
255.098 14.6366 0
253.792 12.5164 0
255.06 12.4941 0
256.292 10.3291 0
258.829 10.2841 0
258.905 14.5692 0
256.367 14.6142 0
257.56 10.3066 0
258.867 12.4267 0
257.636 14.5917 0
256.329 12.4717 0
257.598 12.4492 0
258.829 10.2841 0
261.366 10.2388 0
261.443 14.5239 0
258.905 14.5692 0
260.098 10.2615 0
261.405 12.3814 0
260.174 14.5465 0
258.867 12.4267 0
260.136 12.4041 0
261.366 10.2388 0
263.904 10.1933 0
263.981 14.4783 0
261.443 14.5239 0
262.635 10.2161 0
263.942 12.3358 0
262.712 14.5011 0
261.405 12.3814 0
262.673 12.3586 0
263.904 10.1933 0
266.441 10.1474 0
266.519 14.4324 0
263.981 14.4783 0
265.173 10.1704 0
266.48 12.2899 0
265.25 14.4554 0
263.942 12.3358 0
265.211 12.3129 0
266.441 10.1474 0
268.979 10.1013 0
269.057 14.3863 0
266.519 14.4324 0
267.71 10.1244 0
269.018 12.2438 0
267.788 14.4094 0
266.48 12.2899 0
267.749 12.2669 0
268.979 10.1013 0
271.516 10.0549 0
271.594 14.3398 0
269.057 14.3863 0
270.247 10.0781 0
271.555 12.1974 0
270.325 14.3631 0
269.018 12.2438 0
270.286 12.2206 0
271.516 10.0549 0
274.053 10.0082 0
274.132 14.2932 0
271.594 14.3398 0
272.785 10.0315 0
274.093 12.1507 0
272.863 14.3165 0
271.555 12.1974 0
272.824 12.1741 0
274.053 10.0082 0
276.591 9.96122 0
276.67 14.2462 0
274.132 14.2932 0
275.322 9.98473 0
276.631 12.1037 0
275.401 14.2697 0
274.093 12.1507 0
275.362 12.1273 0
276.591 9.96122 0
279.128 9.914 0
279.208 14.199 0
276.67 14.2462 0
277.86 9.93765 0
279.168 12.0565 0
277.939 14.2226 0
276.631 12.1037 0
277.899 12.0802 0
279.128 9.914 0
281.666 9.86652 0
281.746 14.1515 0
279.208 14.199 0
280.397 9.8903 0
281.706 12.009 0
280.477 14.1753 0
279.168 12.0565 0
280.437 12.0328 0
281.666 9.86652 0
284.203 9.81878 0
284.284 14.1037 0
281.746 14.1515 0
282.934 9.84269 0
284.243 11.9613 0
283.015 14.1276 0
281.706 12.009 0
282.975 11.9852 0
284.203 9.81878 0
286.74 9.77079 0
286.822 14.0557 0
284.284 14.1037 0
285.472 9.79482 0
286.781 11.9133 0
285.553 14.0798 0
284.243 11.9613 0
285.512 11.9373 0
286.74 9.77079 0
289.278 9.72253 0
289.359 14.0075 0
286.822 14.0557 0
288.009 9.74669 0
289.319 11.865 0
288.09 14.0316 0
286.781 11.9133 0
288.05 11.8892 0
289.278 9.72253 0
291.815 9.67403 0
291.897 13.959 0
289.359 14.0075 0
290.547 9.69831 0
291.856 11.8165 0
290.628 13.9832 0
289.319 11.865 0
290.587 11.8408 0
291.815 9.67403 0
294.353 9.62528 0
294.435 13.9102 0
291.897 13.959 0
293.084 9.64969 0
294.394 11.7678 0
293.166 13.9346 0
291.856 11.8165 0
293.125 11.7922 0
294.353 9.62528 0
296.89 9.57628 0
296.973 13.8612 0
294.435 13.9102 0
295.621 9.60081 0
296.931 11.7188 0
295.704 13.8857 0
294.394 11.7678 0
295.663 11.7433 0
296.89 9.57628 0
299.427 9.52704 0
299.511 13.812 0
296.973 13.8612 0
298.159 9.55169 0
299.469 11.6695 0
298.242 13.8366 0
296.931 11.7188 0
298.2 11.6942 0
299.427 9.52704 0
301.965 9.47757 0
302.048 13.7625 0
299.511 13.812 0
300.696 9.50233 0
302.007 11.62 0
300.779 13.7872 0
299.469 11.6695 0
300.738 11.6448 0
301.965 9.47757 0
304.502 9.42785 0
304.586 13.7127 0
302.048 13.7625 0
303.234 9.45274 0
304.544 11.5703 0
303.317 13.7376 0
302.007 11.62 0
303.275 11.5952 0
304.502 9.42785 0
307.04 9.3779 0
307.124 13.6628 0
304.586 13.7127 0
305.771 9.40291 0
307.082 11.5204 0
305.855 13.6878 0
304.544 11.5703 0
305.813 11.5454 0
307.04 9.3779 0
309.577 9.32773 0
309.662 13.6126 0
307.124 13.6628 0
308.308 9.35284 0
309.619 11.4702 0
308.393 13.6377 0
307.082 11.5204 0
308.351 11.4953 0
309.577 9.32773 0
312.114 9.27732 0
312.199 13.5622 0
309.662 13.6126 0
310.846 9.30255 0
312.157 11.4198 0
310.931 13.5874 0
309.619 11.4702 0
310.888 11.445 0
312.114 9.27732 0
314.652 9.22669 0
314.737 13.5116 0
312.199 13.5622 0
313.383 9.25204 0
314.695 11.3691 0
313.468 13.5369 0
312.157 11.4198 0
313.426 11.3945 0
314.652 9.22669 0
317.189 9.17585 0
317.275 13.4607 0
314.737 13.5116 0
315.92 9.2013 0
317.232 11.3183 0
316.006 13.4862 0
314.695 11.3691 0
315.963 11.3437 0
317.189 9.17585 0
319.727 9.12478 0
319.813 13.4096 0
317.275 13.4607 0
318.458 9.15034 0
319.77 11.2672 0
318.544 13.4352 0
317.232 11.3183 0
318.501 11.2928 0
319.727 9.12478 0
322.264 9.0735 0
322.35 13.3583 0
319.813 13.4096 0
320.995 9.09916 0
322.307 11.2159 0
321.082 13.384 0
319.77 11.2672 0
321.038 11.2416 0
322.264 9.0735 0
324.801 9.022 0
324.888 13.3068 0
322.35 13.3583 0
323.533 9.04778 0
324.845 11.1644 0
323.619 13.3326 0
322.307 11.2159 0
323.576 11.1902 0
324.801 9.022 0
327.339 8.9703 0
327.426 13.2551 0
324.888 13.3068 0
326.07 8.99618 0
327.382 11.1127 0
326.157 13.281 0
324.845 11.1644 0
326.113 11.1386 0
327.339 8.9703 0
329.876 8.91839 0
329.964 13.2032 0
327.426 13.2551 0
328.607 8.94437 0
329.92 11.0608 0
328.695 13.2292 0
327.382 11.1127 0
328.651 11.0868 0
329.876 8.91839 0
332.413 8.86628 0
332.501 13.1511 0
329.964 13.2032 0
331.145 8.89236 0
332.457 11.0087 0
331.232 13.1772 0
329.92 11.0608 0
331.189 11.0348 0
332.413 8.86628 0
334.951 8.81397 0
335.039 13.0988 0
332.501 13.1511 0
333.682 8.84015 0
334.995 10.9564 0
333.77 13.125 0
332.457 11.0087 0
333.726 10.9826 0
334.951 8.81397 0
337.488 8.76146 0
337.577 13.0463 0
335.039 13.0988 0
336.219 8.78774 0
337.532 10.9039 0
336.308 13.0725 0
334.995 10.9564 0
336.264 10.9302 0
337.488 8.76146 0
340.025 8.70876 0
340.114 12.9936 0
337.577 13.0463 0
338.757 8.73514 0
340.07 10.8512 0
338.846 13.0199 0
337.532 10.9039 0
338.801 10.8776 0
340.025 8.70876 0
342.563 8.65587 0
342.652 12.9407 0
340.114 12.9936 0
341.294 8.68234 0
342.607 10.7983 0
341.383 12.9671 0
340.07 10.8512 0
341.339 10.8248 0
342.563 8.65587 0
345.1 8.60279 0
345.19 12.8876 0
342.652 12.9407 0
343.832 8.62935 0
345.145 10.7452 0
343.921 12.9141 0
342.607 10.7983 0
343.876 10.7718 0
345.1 8.60279 0
347.638 8.54952 0
347.727 12.8343 0
345.19 12.8876 0
346.369 8.57618 0
347.682 10.6919 0
346.459 12.861 0
345.145 10.7452 0
346.414 10.7186 0
347.638 8.54952 0
350.175 8.49608 0
350.265 12.7808 0
347.727 12.8343 0
348.906 8.52282 0
350.22 10.6385 0
348.996 12.8076 0
347.682 10.6919 0
348.951 10.6652 0
350.175 8.49608 0
352.712 8.44245 0
352.803 12.7272 0
350.265 12.7808 0
351.444 8.46929 0
352.757 10.5849 0
351.534 12.754 0
350.22 10.6385 0
351.489 10.6117 0
352.712 8.44245 0
355.25 8.38865 0
355.34 12.6734 0
352.803 12.7272 0
353.981 8.41557 0
355.295 10.531 0
354.072 12.7003 0
352.757 10.5849 0
354.026 10.558 0
355.25 8.38865 0
357.787 8.33468 0
357.878 12.6194 0
355.34 12.6734 0
356.518 8.36169 0
357.832 10.4771 0
356.609 12.6464 0
355.295 10.531 0
356.564 10.5041 0
357.787 8.33468 0
360.324 8.28054 0
360.416 12.5653 0
357.878 12.6194 0
359.056 8.30763 0
360.37 10.4229 0
359.147 12.5924 0
357.832 10.4771 0
359.101 10.45 0
360.324 8.28054 0
362.862 8.22623 0
362.953 12.511 0
360.416 12.5653 0
361.593 8.2534 0
362.907 10.3686 0
361.684 12.5381 0
360.37 10.4229 0
361.639 10.3958 0
362.862 8.22623 0
365.399 8.17176 0
365.491 12.4565 0
362.953 12.511 0
364.13 8.19901 0
365.445 10.3141 0
364.222 12.4837 0
362.907 10.3686 0
364.176 10.3414 0
365.399 8.17176 0
367.936 8.11712 0
368.029 12.4018 0
365.491 12.4565 0
366.668 8.14446 0
367.982 10.2595 0
366.76 12.4292 0
365.445 10.3141 0
366.714 10.2868 0
367.936 8.11712 0
370.474 8.06233 0
370.566 12.3471 0
368.029 12.4018 0
369.205 8.08975 0
370.52 10.2047 0
369.297 12.3745 0
367.982 10.2595 0
369.251 10.2321 0
370.474 8.06233 0
373.011 8.00739 0
373.104 12.2921 0
370.566 12.3471 0
371.742 8.03488 0
373.057 10.1498 0
371.835 12.3196 0
370.52 10.2047 0
371.789 10.1773 0
373.011 8.00739 0
375.548 7.95229 0
375.641 12.237 0
373.104 12.2921 0
374.28 7.97986 0
375.595 10.0947 0
374.373 12.2646 0
373.057 10.1498 0
374.326 10.1222 0
375.548 7.95229 0
378.086 7.89705 0
378.179 12.1817 0
375.641 12.237 0
376.817 7.92469 0
378.132 10.0394 0
376.91 12.2094 0
375.595 10.0947 0
376.864 10.0671 0
378.086 7.89705 0
380.623 7.84166 0
380.717 12.1264 0
378.179 12.1817 0
379.354 7.86937 0
380.67 9.98402 0
379.448 12.1541 0
378.132 10.0394 0
379.401 10.0117 0
380.623 7.84166 0
383.16 7.78613 0
383.254 12.0708 0
380.717 12.1264 0
381.892 7.81391 0
383.207 9.92849 0
381.985 12.0986 0
380.67 9.98402 0
381.939 9.95627 0
383.16 7.78613 0
385.698 7.73046 0
385.792 12.0151 0
383.254 12.0708 0
384.429 7.75831 0
385.745 9.87281 0
384.523 12.043 0
383.207 9.92849 0
384.476 9.90067 0
385.698 7.73046 0
388.235 7.67465 0
388.329 11.9593 0
385.792 12.0151 0
386.966 7.70257 0
388.282 9.817 0
387.06 11.9873 0
385.745 9.87281 0
387.013 9.84493 0
388.235 7.67465 0
390.772 7.61871 0
390.867 11.9034 0
388.329 11.9593 0
389.504 7.6467 0
390.82 9.76106 0
389.598 11.9314 0
388.282 9.817 0
389.551 9.78905 0
390.772 7.61871 0
393.31 7.56264 0
393.404 11.8473 0
390.867 11.9034 0
392.041 7.59069 0
393.357 9.70499 0
392.136 11.8754 0
390.82 9.76106 0
392.088 9.73304 0
393.31 7.56264 0
395.847 7.50644 0
395.942 11.7911 0
393.404 11.8473 0
394.578 7.53456 0
395.895 9.64879 0
394.673 11.8192 0
393.357 9.70499 0
394.626 9.6769 0
395.847 7.50644 0
398.385 7.45012 0
398.479 11.7348 0
395.942 11.7911 0
397.116 7.4783 0
398.432 9.59246 0
397.211 11.763 0
395.895 9.64879 0
397.163 9.62064 0
398.385 7.45012 0
400.922 7.39368 0
401.017 11.6783 0
398.479 11.7348 0
399.653 7.42191 0
400.969 9.53602 0
399.748 11.7066 0
398.432 9.59246 0
399.701 9.56425 0
400.922 7.39368 0
403.459 7.33711 0
403.555 11.6218 0
401.017 11.6783 0
402.191 7.36541 0
403.507 9.47945 0
402.286 11.6501 0
400.969 9.53602 0
402.238 9.50775 0
403.459 7.33711 0
405.997 7.28044 0
406.092 11.5651 0
403.555 11.6218 0
404.728 7.30879 0
406.044 9.42277 0
404.823 11.5934 0
403.507 9.47945 0
404.776 9.45113 0
405.997 7.28044 0
408.534 7.22365 0
408.63 11.5083 0
406.092 11.5651 0
407.265 7.25206 0
408.582 9.36598 0
407.361 11.5367 0
406.044 9.42277 0
407.313 9.39439 0
408.534 7.22365 0
411.071 7.16675 0
411.167 11.4514 0
408.63 11.5083 0
409.803 7.19522 0
411.119 9.30908 0
409.898 11.4799 0
408.582 9.36598 0
409.85 9.33755 0
411.071 7.16675 0
413.609 7.10975 0
413.705 11.3944 0
411.167 11.4514 0
412.34 7.13826 0
413.657 9.25208 0
412.436 11.4229 0
411.119 9.30908 0
412.388 9.2806 0
413.609 7.10975 0
416.146 7.05264 0
416.242 11.3373 0
413.705 11.3944 0
414.877 7.08121 0
416.194 9.19497 0
414.973 11.3658 0
413.657 9.25208 0
414.925 9.22354 0
416.146 7.05264 0
418.683 6.99544 0
418.78 11.2801 0
416.242 11.3373 0
417.415 7.02405 0
418.731 9.13776 0
417.511 11.3087 0
416.194 9.19497 0
417.463 9.16638 0
418.683 6.99544 0
421.221 6.93814 0
421.317 11.2228 0
418.78 11.2801 0
419.952 6.9668 0
421.269 9.08046 0
420.048 11.2514 0
418.731 9.13776 0
420 9.10912 0
421.221 6.93814 0
423.758 6.88074 0
423.855 11.1654 0
421.317 11.2228 0
422.489 6.90945 0
423.806 9.02306 0
422.586 11.1941 0
421.269 9.08046 0
422.538 9.05177 0
423.758 6.88074 0
426.295 6.82325 0
426.392 11.1079 0
423.855 11.1654 0
425.027 6.85201 0
426.344 8.96557 0
425.123 11.1366 0
423.806 9.02306 0
425.075 8.99433 0
426.295 6.82325 0
428.833 6.76568 0
428.93 11.0503 0
426.392 11.1079 0
427.564 6.79447 0
428.881 8.90799 0
427.661 11.0791 0
426.344 8.96557 0
427.612 8.93679 0
428.833 6.76568 0
431.37 6.70802 0
431.467 10.9926 0
428.93 11.0503 0
430.101 6.73686 0
431.419 8.85033 0
430.198 11.0215 0
428.881 8.90799 0
430.15 8.87917 0
431.37 6.70802 0
433.907 6.65027 0
434.005 10.9349 0
431.467 10.9926 0
432.639 6.67915 0
433.956 8.79259 0
432.736 10.9638 0
431.419 8.85033 0
432.687 8.82147 0
433.907 6.65027 0
436.445 6.59245 0
436.542 10.8771 0
434.005 10.9349 0
435.176 6.62137 0
436.493 8.73476 0
435.273 10.906 0
433.956 8.79259 0
435.225 8.76368 0
436.445 6.59245 0
438.982 6.53456 0
439.08 10.8192 0
436.542 10.8771 0
437.713 6.56351 0
439.031 8.67687 0
437.811 10.8481 0
436.493 8.73476 0
437.762 8.70582 0
438.982 6.53456 0
441.519 6.47659 0
441.617 10.7612 0
439.08 10.8192 0
440.251 6.50558 0
441.568 8.6189 0
440.348 10.7902 0
439.031 8.67687 0
440.3 8.64789 0
441.519 6.47659 0
444.057 6.41855 0
444.155 10.7031 0
441.617 10.7612 0
442.788 6.44758 0
444.106 8.56085 0
442.886 10.7322 0
441.568 8.6189 0
442.837 8.58988 0
444.057 6.41855 0
446.594 6.36044 0
446.692 10.645 0
444.155 10.7031 0
445.325 6.3895 0
446.643 8.50275 0
445.423 10.6741 0
444.106 8.56085 0
445.374 8.53181 0
446.594 6.36044 0
449.131 6.30228 0
449.229 10.5869 0
446.692 10.645 0
447.863 6.33137 0
449.18 8.44458 0
447.961 10.616 0
446.643 8.50275 0
447.912 8.47367 0
449.131 6.30228 0
451.669 6.24405 0
451.767 10.5286 0
449.229 10.5869 0
450.4 6.27317 0
451.718 8.38635 0
450.498 10.5578 0
449.18 8.44458 0
450.449 8.41547 0
451.669 6.24405 0
454.206 6.18576 0
454.304 10.4703 0
451.767 10.5286 0
452.937 6.21491 0
454.255 8.32806 0
453.036 10.4995 0
451.718 8.38635 0
452.987 8.35721 0
454.206 6.18576 0
456.744 6.12742 0
456.842 10.412 0
454.304 10.4703 0
455.475 6.15659 0
456.793 8.26972 0
455.573 10.4412 0
454.255 8.32806 0
455.524 8.29889 0
456.744 6.12742 0
459.281 6.06902 0
459.379 10.3536 0
456.842 10.412 0
458.012 6.09823 0
459.33 8.21132 0
458.111 10.3828 0
456.793 8.26972 0
458.061 8.24052 0
459.281 6.06902 0
461.818 6.01058 0
461.917 10.2952 0
459.379 10.3536 0
460.55 6.03981 0
461.867 8.15288 0
460.648 10.3244 0
459.33 8.21132 0
460.599 8.18211 0
461.818 6.01058 0
464.356 5.9521 0
464.454 10.2367 0
461.917 10.2952 0
463.087 5.98134 0
464.405 8.09439 0
463.185 10.2659 0
461.867 8.15288 0
463.136 8.12364 0
464.356 5.9521 0
466.893 5.89357 0
466.992 10.1781 0
464.454 10.2367 0
465.624 5.92284 0
466.942 8.03586 0
465.723 10.2074 0
464.405 8.09439 0
465.674 8.06513 0
466.893 5.89357 0
469.43 5.835 0
469.529 10.1196 0
466.992 10.1781 0
468.162 5.86429 0
469.48 7.97729 0
468.26 10.1489 0
466.942 8.03586 0
468.211 8.00658 0
469.43 5.835 0
471.968 5.77639 0
472.066 10.061 0
469.529 10.1196 0
470.699 5.8057 0
472.017 7.91868 0
470.798 10.0903 0
469.48 7.97729 0
470.748 7.94799 0
471.968 5.77639 0
474.505 5.71775 0
474.604 10.0023 0
472.066 10.061 0
473.236 5.74708 0
474.554 7.86004 0
473.335 10.0317 0
472.017 7.91868 0
473.286 7.88937 0
474.505 5.71775 0
477.042 5.65908 0
477.141 9.94366 0
474.604 10.0023 0
475.774 5.68842 0
477.092 7.80137 0
475.873 9.973 0
474.554 7.86004 0
475.823 7.83071 0
477.042 5.65908 0
479.58 5.60039 0
479.679 9.88496 0
477.141 9.94366 0
478.311 5.62974 0
479.629 7.74268 0
478.41 9.91431 0
477.092 7.80137 0
478.361 7.77203 0
479.58 5.60039 0
482.117 5.54166 0
482.216 9.82624 0
479.679 9.88496 0
480.848 5.57103 0
482.167 7.68395 0
480.947 9.8556 0
479.629 7.74268 0
480.898 7.71332 0
482.117 5.54166 0
484.655 5.48292 0
484.754 9.76749 0
482.216 9.82624 0
483.386 5.5123 0
484.704 7.62521 0
483.485 9.79687 0
482.167 7.68395 0
483.435 7.65458 0
484.655 5.48292 0
487.192 5.42416 0
487.291 9.70873 0
484.754 9.76749 0
485.923 5.45354 0
487.241 7.56644 0
486.022 9.73811 0
484.704 7.62521 0
485.973 7.59583 0
487.192 5.42416 0
489.729 5.36538 0
489.828 9.64995 0
487.291 9.70873 0
488.461 5.39477 0
489.779 7.50767 0
488.56 9.67934 0
487.241 7.56644 0
488.51 7.53706 0
489.729 5.36538 0
492.267 5.30659 0
492.366 9.59116 0
489.828 9.64995 0
490.998 5.33599 0
492.316 7.44888 0
491.097 9.62056 0
489.779 7.50767 0
491.047 7.47827 0
492.267 5.30659 0
494.804 5.2478 0
494.903 9.53237 0
492.366 9.59116 0
493.535 5.2772 0
494.854 7.39009 0
493.634 9.56177 0
492.316 7.44888 0
493.585 7.41948 0
494.804 5.2478 0
497.341 5.18902 0
497.44 9.47359 0
494.903 9.53237 0
496.073 5.21841 0
497.391 7.33131 0
496.172 9.50298 0
494.854 7.39009 0
496.122 7.3607 0
497.341 5.18902 0
499.879 5.13028 0
499.978 9.41485 0
497.44 9.47359 0
498.61 5.15965 0
499.928 7.27257 0
498.709 9.44422 0
497.391 7.33131 0
498.66 7.30194 0
0 17.1429 0
2.53851 17.1429 0
2.5394 21.4284 0
0 21.4286 0
1.26925 17.143 0
2.53895 19.2857 0
1.26968 21.4286 0
0 19.2857 0
1.26946 19.2858 0
2.53851 17.1429 0
5.07705 17.1422 0
5.0789 21.4275 0
2.5394 21.4284 0
3.80777 17.1427 0
5.07797 19.2849 0
3.80914 21.4281 0
2.53895 19.2857 0
3.80845 19.2854 0
5.07705 17.1422 0
7.61561 17.1407 0
7.61847 21.426 0
5.0789 21.4275 0
6.34633 17.1415 0
7.61703 19.2834 0
6.34868 21.4268 0
5.07797 19.2849 0
6.34749 19.2842 0
7.61561 17.1407 0
10.1542 17.1386 0
10.158 21.4238 0
7.61847 21.426 0
8.8849 17.1397 0
10.1561 19.2813 0
8.88825 21.425 0
7.61703 19.2834 0
8.88656 19.2824 0
10.1542 17.1386 0
12.6928 17.1359 0
12.6976 21.4211 0
10.158 21.4238 0
11.4235 17.1373 0
12.6952 19.2785 0
11.4278 21.4225 0
10.1561 19.2813 0
11.4256 19.28 0
12.6928 17.1359 0
15.2313 17.1326 0
15.2372 21.4178 0
12.6976 21.4211 0
13.962 17.1343 0
15.2342 19.2752 0
13.9674 21.4195 0
12.6952 19.2785 0
13.9647 19.277 0
15.2313 17.1326 0
17.7699 17.1287 0
17.7767 21.4139 0
15.2372 21.4178 0
16.5006 17.1307 0
17.7733 19.2713 0
16.5069 21.4159 0
15.2342 19.2752 0
16.5038 19.2734 0
17.7699 17.1287 0
20.3084 17.1242 0
20.3162 21.4094 0
17.7767 21.4139 0
19.0392 17.1265 0
20.3123 19.2669 0
19.0465 21.4117 0
17.7733 19.2713 0
19.0428 19.2692 0
20.3084 17.1242 0
22.847 17.1192 0
22.8557 21.4044 0
20.3162 21.4094 0
21.5777 17.1218 0
22.8514 19.2618 0
21.586 21.407 0
20.3123 19.2669 0
21.5818 19.2644 0
22.847 17.1192 0
25.3855 17.1136 0
25.3952 21.3988 0
22.8557 21.4044 0
24.1163 17.1164 0
25.3904 19.2562 0
24.1255 21.4017 0
22.8514 19.2618 0
24.1209 19.2591 0
25.3855 17.1136 0
27.9241 17.1074 0
27.9347 21.3926 0
25.3952 21.3988 0
26.6548 17.1106 0
27.9294 19.2501 0
26.665 21.3958 0
25.3904 19.2562 0
26.6599 19.2532 0
27.9241 17.1074 0
30.4626 17.1007 0
30.4742 21.3859 0
27.9347 21.3926 0
29.1933 17.1041 0
30.4684 19.2433 0
29.2045 21.3893 0
27.9294 19.2501 0
29.1989 19.2468 0
30.4626 17.1007 0
33.0011 17.0934 0
33.0137 21.3786 0
30.4742 21.3859 0
31.7319 17.0971 0
33.0074 19.236 0
31.744 21.3823 0
30.4684 19.2433 0
31.7379 19.2398 0
33.0011 17.0934 0
35.5397 17.0855 0
35.5532 21.3707 0
33.0137 21.3786 0
34.2704 17.0895 0
35.5464 19.2282 0
34.2834 21.3747 0
33.0074 19.236 0
34.2769 19.2322 0
35.5397 17.0855 0
38.0782 17.0771 0
38.0926 21.3623 0
35.5532 21.3707 0
36.8089 17.0814 0
38.0854 19.2198 0
36.8229 21.3666 0
35.5464 19.2282 0
36.8159 19.2241 0
38.0782 17.0771 0
40.6167 17.0682 0
40.6321 21.3534 0
38.0926 21.3623 0
39.3474 17.0727 0
40.6244 19.2108 0
39.3623 21.3579 0
38.0854 19.2198 0
39.3549 19.2154 0
40.6167 17.0682 0
43.1552 17.0587 0
43.1715 21.3439 0
40.6321 21.3534 0
41.886 17.0635 0
43.1633 19.2013 0
41.9018 21.3487 0
40.6244 19.2108 0
41.8939 19.2062 0
43.1552 17.0587 0
45.6937 17.0486 0
45.7109 21.3338 0
43.1715 21.3439 0
44.4245 17.0537 0
45.7023 19.1913 0
44.4412 21.3389 0
43.1633 19.2013 0
44.4328 19.1964 0
45.6937 17.0486 0
48.2322 17.038 0
48.2503 21.3232 0
45.7109 21.3338 0
46.963 17.0434 0
48.2413 19.1807 0
46.9806 21.3286 0
45.7023 19.1913 0
46.9718 19.1861 0
48.2322 17.038 0
50.7707 17.0269 0
50.7897 21.3121 0
48.2503 21.3232 0
49.5015 17.0325 0
50.7802 19.1696 0
49.52 21.3177 0
48.2413 19.1807 0
49.5108 19.1752 0
50.7707 17.0269 0
53.3092 17.0152 0
53.3291 21.3005 0
50.7897 21.3121 0
52.04 17.0211 0
53.3192 19.1579 0
52.0594 21.3064 0
50.7802 19.1696 0
52.0497 19.1638 0
53.3092 17.0152 0
55.8477 17.003 0
55.8685 21.2883 0
53.3291 21.3005 0
54.5785 17.0092 0
55.8581 19.1457 0
54.5988 21.2944 0
53.3192 19.1579 0
54.5886 19.1519 0
55.8477 17.003 0
58.3862 16.9903 0
58.4079 21.2755 0
55.8685 21.2883 0
57.1169 16.9967 0
58.397 19.133 0
57.1382 21.282 0
55.8581 19.1457 0
57.1276 19.1394 0
58.3862 16.9903 0
60.9247 16.9771 0
60.9473 21.2623 0
58.4079 21.2755 0
59.6554 16.9838 0
60.936 19.1197 0
59.6776 21.269 0
58.397 19.133 0
59.6665 19.1264 0
60.9247 16.9771 0
63.4631 16.9633 0
63.4866 21.2485 0
60.9473 21.2623 0
62.1939 16.9702 0
63.4749 19.1059 0
62.2169 21.2554 0
60.936 19.1197 0
62.2054 19.1129 0
63.4631 16.9633 0
66.0016 16.949 0
66.026 21.2342 0
63.4866 21.2485 0
64.7324 16.9562 0
66.0138 19.0916 0
64.7563 21.2414 0
63.4749 19.1059 0
64.7443 19.0989 0
66.0016 16.949 0
68.5401 16.9342 0
68.5653 21.2194 0
66.026 21.2342 0
67.2708 16.9416 0
68.5527 19.0768 0
67.2956 21.2268 0
66.0138 19.0916 0
67.2832 19.0843 0
68.5401 16.9342 0
71.0785 16.9188 0
71.1046 21.204 0
68.5653 21.2194 0
69.8093 16.9266 0
71.0916 19.0615 0
69.835 21.2118 0
68.5527 19.0768 0
69.8221 19.0692 0
71.0785 16.9188 0
73.617 16.903 0
73.6439 21.1882 0
71.1046 21.204 0
72.3478 16.911 0
73.6305 19.0457 0
72.3743 21.1962 0
71.0916 19.0615 0
72.361 19.0536 0
73.617 16.903 0
76.1554 16.8867 0
76.1832 21.1718 0
73.6439 21.1882 0
74.8862 16.8949 0
76.1693 19.0293 0
74.9136 21.1801 0
73.6305 19.0457 0
74.8999 19.0375 0
76.1554 16.8867 0
78.6939 16.8698 0
78.7225 21.155 0
76.1832 21.1718 0
77.4246 16.8783 0
78.7082 19.0124 0
77.4529 21.1635 0
76.1693 19.0293 0
77.4388 19.0209 0
78.6939 16.8698 0
81.2323 16.8524 0
81.2618 21.1376 0
78.7225 21.155 0
79.9631 16.8612 0
81.247 18.9951 0
79.9922 21.1464 0
78.7082 19.0124 0
79.9776 19.0038 0
81.2323 16.8524 0
83.7707 16.8346 0
83.8011 21.1198 0
81.2618 21.1376 0
82.5015 16.8436 0
83.7859 18.9772 0
82.5314 21.1288 0
81.247 18.9951 0
82.5165 18.9862 0
83.7707 16.8346 0
86.3091 16.8162 0
86.3403 21.1014 0
83.8011 21.1198 0
85.0399 16.8255 0
86.3247 18.9589 0
85.0707 21.1106 0
83.7859 18.9772 0
85.0553 18.9681 0
86.3091 16.8162 0
88.8476 16.7974 0
88.8796 21.0826 0
86.3403 21.1014 0
87.5784 16.8069 0
88.8636 18.94 0
87.61 21.092 0
86.3247 18.9589 0
87.5942 18.9495 0
88.8476 16.7974 0
91.386 16.778 0
91.4188 21.0632 0
88.8796 21.0826 0
90.1168 16.7878 0
91.4024 18.9207 0
90.1492 21.0729 0
88.8636 18.94 0
90.133 18.9304 0
91.386 16.778 0
93.9244 16.7582 0
93.958 21.0434 0
91.4188 21.0632 0
92.6552 16.7682 0
93.9412 18.9009 0
92.6884 21.0534 0
91.4024 18.9207 0
92.6718 18.9108 0
93.9244 16.7582 0
96.4628 16.7379 0
96.4973 21.0231 0
93.958 21.0434 0
95.1936 16.7481 0
96.48 18.8805 0
95.2276 21.0333 0
93.9412 18.9009 0
95.2106 18.8908 0
96.4628 16.7379 0
99.0012 16.7171 0
99.0365 21.0023 0
96.4973 21.0231 0
97.732 16.7276 0
99.0188 18.8597 0
97.7669 21.0127 0
96.48 18.8805 0
97.7494 18.8702 0
99.0012 16.7171 0
101.54 16.6958 0
101.576 20.981 0
99.0365 21.0023 0
100.27 16.7065 0
101.558 18.8385 0
100.306 20.9917 0
99.0188 18.8597 0
100.288 18.8492 0
101.54 16.6958 0
104.078 16.6741 0
104.115 20.9592 0
101.576 20.981 0
102.809 16.685 0
104.096 18.8167 0
102.845 20.9702 0
101.558 18.8385 0
102.827 18.8277 0
104.078 16.6741 0
106.616 16.6519 0
106.654 20.937 0
104.115 20.9592 0
105.347 16.663 0
106.635 18.7945 0
105.384 20.9482 0
104.096 18.8167 0
105.366 18.8057 0
106.616 16.6519 0
109.155 16.6292 0
109.193 20.9143 0
106.654 20.937 0
107.885 16.6406 0
109.174 18.7718 0
107.924 20.9257 0
106.635 18.7945 0
107.905 18.7832 0
109.155 16.6292 0
111.693 16.606 0
111.732 20.8912 0
109.193 20.9143 0
110.424 16.6177 0
111.713 18.7487 0
110.463 20.9028 0
109.174 18.7718 0
110.443 18.7603 0
111.693 16.606 0
114.231 16.5824 0
114.271 20.8676 0
111.732 20.8912 0
112.962 16.5943 0
114.251 18.725 0
113.002 20.8794 0
111.713 18.7487 0
112.982 18.7369 0
114.231 16.5824 0
116.77 16.5583 0
116.811 20.8435 0
114.271 20.8676 0
115.501 16.5704 0
116.79 18.701 0
115.541 20.8556 0
114.251 18.725 0
115.521 18.7131 0
116.77 16.5583 0
119.308 16.5338 0
119.35 20.8189 0
116.811 20.8435 0
118.039 16.5461 0
119.329 18.6764 0
118.08 20.8313 0
116.79 18.701 0
118.059 18.6888 0
119.308 16.5338 0
121.846 16.5088 0
121.889 20.7939 0
119.35 20.8189 0
120.577 16.5214 0
121.868 18.6514 0
120.619 20.8065 0
119.329 18.6764 0
120.598 18.664 0
121.846 16.5088 0
124.385 16.4834 0
124.428 20.7685 0
121.889 20.7939 0
123.116 16.4962 0
124.406 18.626 0
123.158 20.7813 0
121.868 18.6514 0
123.137 18.6388 0
124.385 16.4834 0
126.923 16.4575 0
126.967 20.7426 0
124.428 20.7685 0
125.654 16.4705 0
126.945 18.6001 0
125.697 20.7556 0
124.406 18.626 0
125.676 18.6131 0
126.923 16.4575 0
129.461 16.4312 0
129.506 20.7163 0
126.967 20.7426 0
128.192 16.4444 0
129.484 18.5738 0
128.236 20.7295 0
126.945 18.6001 0
128.214 18.587 0
129.461 16.4312 0
132 16.4044 0
132.045 20.6895 0
129.506 20.7163 0
130.73 16.4178 0
132.022 18.547 0
130.775 20.7029 0
129.484 18.5738 0
130.753 18.5604 0
132 16.4044 0
134.538 16.3772 0
134.584 20.6623 0
132.045 20.6895 0
133.269 16.3908 0
134.561 18.5198 0
133.314 20.6759 0
132.022 18.547 0
133.292 18.5334 0
134.538 16.3772 0
137.076 16.3495 0
137.123 20.6346 0
134.584 20.6623 0
135.807 16.3634 0
137.1 18.4921 0
135.854 20.6485 0
134.561 18.5198 0
135.83 18.506 0
137.076 16.3495 0
139.614 16.3215 0
139.662 20.6065 0
137.123 20.6346 0
138.345 16.3356 0
139.638 18.464 0
138.393 20.6206 0
137.1 18.4921 0
138.369 18.4781 0
139.614 16.3215 0
142.153 16.2929 0
142.201 20.578 0
139.662 20.6065 0
140.884 16.3073 0
142.177 18.4355 0
140.932 20.5923 0
139.638 18.464 0
140.908 18.4498 0
142.153 16.2929 0
144.691 16.264 0
144.74 20.5491 0
142.201 20.578 0
143.422 16.2785 0
144.716 18.4066 0
143.471 20.5636 0
142.177 18.4355 0
143.446 18.4211 0
144.691 16.264 0
147.229 16.2346 0
147.279 20.5197 0
144.74 20.5491 0
145.96 16.2494 0
147.254 18.3772 0
146.01 20.5344 0
144.716 18.4066 0
145.985 18.392 0
147.229 16.2346 0
149.768 16.2049 0
149.818 20.4899 0
147.279 20.5197 0
148.498 16.2198 0
149.793 18.3474 0
148.548 20.5049 0
147.254 18.3772 0
148.523 18.3624 0
149.768 16.2049 0
152.306 16.1747 0
152.357 20.4597 0
149.818 20.4899 0
151.037 16.1898 0
152.331 18.3172 0
151.087 20.4749 0
149.793 18.3474 0
151.062 18.3324 0
152.306 16.1747 0
154.844 16.144 0
154.896 20.4291 0
152.357 20.4597 0
153.575 16.1594 0
154.87 18.2866 0
153.626 20.4445 0
152.331 18.3172 0
153.601 18.302 0
154.844 16.144 0
157.382 16.113 0
157.435 20.3981 0
154.896 20.4291 0
156.113 16.1286 0
157.408 18.2556 0
156.165 20.4136 0
154.87 18.2866 0
156.139 18.2712 0
157.382 16.113 0
159.92 16.0816 0
159.974 20.3666 0
157.435 20.3981 0
158.651 16.0974 0
159.947 18.2241 0
158.704 20.3824 0
157.408 18.2556 0
158.678 18.2399 0
159.92 16.0816 0
162.459 16.0497 0
162.513 20.3348 0
159.974 20.3666 0
161.19 16.0657 0
162.486 18.1923 0
161.243 20.3507 0
159.947 18.2241 0
161.216 18.2083 0
162.459 16.0497 0
164.997 16.0175 0
165.051 20.3025 0
162.513 20.3348 0
163.728 16.0337 0
165.024 18.1601 0
163.782 20.3187 0
162.486 18.1923 0
163.755 18.1762 0
164.997 16.0175 0
167.535 15.9849 0
167.59 20.2699 0
165.051 20.3025 0
166.266 16.0012 0
167.563 18.1274 0
166.321 20.2863 0
165.024 18.1601 0
166.293 18.1438 0
167.535 15.9849 0
170.073 15.9518 0
170.129 20.2368 0
167.59 20.2699 0
168.804 15.9684 0
170.101 18.0944 0
168.86 20.2534 0
167.563 18.1274 0
168.832 18.1109 0
170.073 15.9518 0
172.611 15.9184 0
172.668 20.2034 0
170.129 20.2368 0
171.342 15.9352 0
172.64 18.0609 0
171.399 20.2202 0
170.101 18.0944 0
171.37 18.0777 0
172.611 15.9184 0
175.15 15.8846 0
175.207 20.1696 0
172.668 20.2034 0
173.881 15.9015 0
175.178 18.0271 0
173.937 20.1865 0
172.64 18.0609 0
173.909 18.0441 0
175.15 15.8846 0
177.688 15.8504 0
177.746 20.1353 0
175.207 20.1696 0
176.419 15.8675 0
177.717 17.9929 0
176.476 20.1525 0
175.178 18.0271 0
176.447 18.01 0
177.688 15.8504 0
180.226 15.8158 0
180.284 20.1007 0
177.746 20.1353 0
178.957 15.8331 0
180.255 17.9583 0
179.015 20.1181 0
177.717 17.9929 0
178.986 17.9756 0
180.226 15.8158 0
182.764 15.7808 0
182.823 20.0658 0
180.284 20.1007 0
181.495 15.7983 0
182.794 17.9233 0
181.554 20.0833 0
180.255 17.9583 0
181.524 17.9408 0
182.764 15.7808 0
185.302 15.7454 0
185.362 20.0304 0
182.823 20.0658 0
184.033 15.7631 0
185.332 17.888 0
184.093 20.0481 0
182.794 17.9233 0
184.063 17.9057 0
185.302 15.7454 0
187.84 15.7097 0
187.901 19.9947 0
185.362 20.0304 0
186.571 15.7276 0
187.871 17.8522 0
186.631 20.0126 0
185.332 17.888 0
186.601 17.8701 0
187.84 15.7097 0
190.378 15.6736 0
190.44 19.9586 0
187.901 19.9947 0
189.109 15.6917 0
190.409 17.8161 0
189.17 19.9767 0
187.871 17.8522 0
189.14 17.8342 0
190.378 15.6736 0
192.917 15.6371 0
192.978 19.9221 0
190.44 19.9586 0
191.648 15.6554 0
192.947 17.7796 0
191.709 19.9404 0
190.409 17.8161 0
191.678 17.7979 0
192.917 15.6371 0
195.455 15.6003 0
195.517 19.8852 0
192.978 19.9221 0
194.186 15.6187 0
195.486 17.7428 0
194.248 19.9037 0
192.947 17.7796 0
194.217 17.7613 0
195.455 15.6003 0
197.993 15.5631 0
198.056 19.848 0
195.517 19.8852 0
196.724 15.5817 0
198.024 17.7056 0
196.786 19.8667 0
195.486 17.7428 0
196.755 17.7242 0
197.993 15.5631 0
200.531 15.5255 0
200.594 19.8105 0
198.056 19.848 0
199.262 15.5443 0
200.563 17.668 0
199.325 19.8293 0
198.024 17.7056 0
199.293 17.6869 0
200.531 15.5255 0
203.069 15.4876 0
203.133 19.7725 0
200.594 19.8105 0
201.8 15.5066 0
203.101 17.6301 0
201.864 19.7915 0
200.563 17.668 0
201.832 17.6491 0
203.069 15.4876 0
205.607 15.4493 0
205.672 19.7342 0
203.133 19.7725 0
204.338 15.4685 0
205.639 17.5918 0
204.402 19.7534 0
203.101 17.6301 0
204.37 17.611 0
205.607 15.4493 0
208.145 15.4107 0
208.21 19.6956 0
205.672 19.7342 0
206.876 15.4301 0
208.178 17.5532 0
206.941 19.715 0
205.639 17.5918 0
206.909 17.5726 0
208.145 15.4107 0
210.683 15.3717 0
210.749 19.6566 0
208.21 19.6956 0
209.414 15.3913 0
210.716 17.5142 0
209.48 19.6762 0
208.178 17.5532 0
209.447 17.5338 0
210.683 15.3717 0
213.221 15.3324 0
213.288 19.6173 0
210.749 19.6566 0
211.952 15.3521 0
213.255 17.4749 0
212.018 19.637 0
210.716 17.5142 0
211.985 17.4946 0
213.221 15.3324 0
215.759 15.2928 0
215.826 19.5777 0
213.288 19.6173 0
214.49 15.3126 0
215.793 17.4352 0
214.557 19.5975 0
213.255 17.4749 0
214.524 17.4551 0
215.759 15.2928 0
218.297 15.2528 0
218.365 19.5376 0
215.826 19.5777 0
217.028 15.2728 0
218.331 17.3952 0
217.096 19.5577 0
215.793 17.4352 0
217.062 17.4153 0
218.297 15.2528 0
220.835 15.2124 0
220.904 19.4973 0
218.365 19.5376 0
219.566 15.2326 0
220.869 17.3549 0
219.634 19.5175 0
218.331 17.3952 0
219.6 17.3751 0
220.835 15.2124 0
223.373 15.1718 0
223.442 19.4566 0
220.904 19.4973 0
222.104 15.1921 0
223.408 17.3142 0
222.173 19.477 0
220.869 17.3549 0
222.139 17.3346 0
223.373 15.1718 0
225.911 15.1308 0
225.981 19.4156 0
223.442 19.4566 0
224.642 15.1513 0
225.946 17.2732 0
224.711 19.4362 0
223.408 17.3142 0
224.677 17.2938 0
225.911 15.1308 0
228.449 15.0894 0
228.519 19.3743 0
225.981 19.4156 0
227.18 15.1101 0
228.484 17.2319 0
227.25 19.395 0
225.946 17.2732 0
227.215 17.2526 0
228.449 15.0894 0
230.987 15.0478 0
231.058 19.3326 0
228.519 19.3743 0
229.718 15.0686 0
231.023 17.1902 0
229.789 19.3535 0
228.484 17.2319 0
229.754 17.2111 0
230.987 15.0478 0
233.525 15.0058 0
233.596 19.2907 0
231.058 19.3326 0
232.256 15.0268 0
233.561 17.1483 0
232.327 19.3117 0
231.023 17.1902 0
232.292 17.1693 0
233.525 15.0058 0
236.063 14.9635 0
236.135 19.2484 0
233.596 19.2907 0
234.794 14.9847 0
236.099 17.106 0
234.866 19.2696 0
233.561 17.1483 0
234.83 17.1272 0
236.063 14.9635 0
238.601 14.9209 0
238.673 19.2058 0
236.135 19.2484 0
237.332 14.9423 0
238.637 17.0634 0
237.404 19.2271 0
236.099 17.106 0
237.368 17.0847 0
238.601 14.9209 0
241.139 14.878 0
241.212 19.1629 0
238.673 19.2058 0
239.87 14.8995 0
241.176 17.0205 0
239.943 19.1843 0
238.637 17.0634 0
239.907 17.042 0
241.139 14.878 0
243.677 14.8348 0
243.75 19.1196 0
241.212 19.1629 0
242.408 14.8564 0
243.714 16.9772 0
242.481 19.1413 0
241.176 17.0205 0
242.445 16.9989 0
243.677 14.8348 0
246.215 14.7913 0
246.289 19.0761 0
243.75 19.1196 0
244.946 14.8131 0
246.252 16.9337 0
245.02 19.0979 0
243.714 16.9772 0
244.983 16.9555 0
246.215 14.7913 0
248.753 14.7474 0
248.827 19.0323 0
246.289 19.0761 0
247.484 14.7694 0
248.79 16.8899 0
247.558 19.0542 0
246.252 16.9337 0
247.521 16.9118 0
248.753 14.7474 0
251.291 14.7033 0
251.366 18.9881 0
248.827 19.0323 0
250.022 14.7254 0
251.328 16.8457 0
250.097 19.0102 0
248.79 16.8899 0
250.059 16.8678 0
251.291 14.7033 0
253.829 14.6589 0
253.904 18.9437 0
251.366 18.9881 0
252.56 14.6811 0
253.867 16.8013 0
252.635 18.9659 0
251.328 16.8457 0
252.598 16.8236 0
253.829 14.6589 0
256.367 14.6142 0
256.443 18.899 0
253.904 18.9437 0
255.098 14.6366 0
256.405 16.7566 0
255.173 18.9214 0
253.867 16.8013 0
255.136 16.779 0
256.367 14.6142 0
258.905 14.5692 0
258.981 18.8539 0
256.443 18.899 0
257.636 14.5917 0
258.943 16.7116 0
257.712 18.8765 0
256.405 16.7566 0
257.674 16.7341 0
258.905 14.5692 0
261.443 14.5239 0
261.519 18.8086 0
258.981 18.8539 0
260.174 14.5465 0
261.481 16.6663 0
260.25 18.8313 0
258.943 16.7116 0
260.212 16.689 0
261.443 14.5239 0
263.981 14.4783 0
264.058 18.7631 0
261.519 18.8086 0
262.712 14.5011 0
264.019 16.6207 0
262.789 18.7859 0
261.481 16.6663 0
262.75 16.6435 0
263.981 14.4783 0
266.519 14.4324 0
266.596 18.7172 0
264.058 18.7631 0
265.25 14.4554 0
266.557 16.5748 0
265.327 18.7402 0
264.019 16.6207 0
265.288 16.5978 0
266.519 14.4324 0
269.057 14.3863 0
269.134 18.671 0
266.596 18.7172 0
267.788 14.4094 0
269.096 16.5287 0
267.865 18.6941 0
266.557 16.5748 0
267.826 16.5518 0
269.057 14.3863 0
271.594 14.3398 0
271.673 18.6246 0
269.134 18.671 0
270.325 14.3631 0
271.634 16.4823 0
270.404 18.6479 0
269.096 16.5287 0
270.365 16.5055 0
271.594 14.3398 0
274.132 14.2932 0
274.211 18.5779 0
271.673 18.6246 0
272.863 14.3165 0
274.172 16.4356 0
272.942 18.6013 0
271.634 16.4823 0
272.903 16.4589 0
274.132 14.2932 0
276.67 14.2462 0
276.749 18.531 0
274.211 18.5779 0
275.401 14.2697 0
276.71 16.3886 0
275.48 18.5545 0
274.172 16.4356 0
275.441 16.4121 0
276.67 14.2462 0
279.208 14.199 0
279.288 18.4837 0
276.749 18.531 0
277.939 14.2226 0
279.248 16.3414 0
278.019 18.5074 0
276.71 16.3886 0
277.979 16.365 0
279.208 14.199 0
281.746 14.1515 0
281.826 18.4362 0
279.288 18.4837 0
280.477 14.1753 0
281.786 16.2939 0
280.557 18.46 0
279.248 16.3414 0
280.517 16.3177 0
281.746 14.1515 0
284.284 14.1037 0
284.364 18.3885 0
281.826 18.4362 0
283.015 14.1276 0
284.324 16.2461 0
283.095 18.4124 0
281.786 16.2939 0
283.055 16.27 0
284.284 14.1037 0
286.822 14.0557 0
286.903 18.3405 0
284.364 18.3885 0
285.553 14.0798 0
286.862 16.1981 0
285.633 18.3645 0
284.324 16.2461 0
285.593 16.2222 0
286.822 14.0557 0
289.359 14.0075 0
289.441 18.2922 0
286.903 18.3405 0
288.09 14.0316 0
289.4 16.1499 0
288.172 18.3164 0
286.862 16.1981 0
288.131 16.174 0
289.359 14.0075 0
291.897 13.959 0
291.979 18.2437 0
289.441 18.2922 0
290.628 13.9832 0
291.938 16.1013 0
290.71 18.268 0
289.4 16.1499 0
290.669 16.1256 0
291.897 13.959 0
294.435 13.9102 0
294.517 18.1949 0
291.979 18.2437 0
293.166 13.9346 0
294.476 16.0526 0
293.248 18.2193 0
291.938 16.1013 0
293.207 16.077 0
294.435 13.9102 0
296.973 13.8612 0
297.056 18.1459 0
294.517 18.1949 0
295.704 13.8857 0
297.014 16.0036 0
295.786 18.1704 0
294.476 16.0526 0
295.745 16.0281 0
296.973 13.8612 0
299.511 13.812 0
299.594 18.0967 0
297.056 18.1459 0
298.242 13.8366 0
299.552 15.9543 0
298.325 18.1213 0
297.014 16.0036 0
298.283 15.979 0
299.511 13.812 0
302.048 13.7625 0
302.132 18.0472 0
299.594 18.0967 0
300.779 13.7872 0
302.09 15.9048 0
300.863 18.0719 0
299.552 15.9543 0
300.821 15.9296 0
302.048 13.7625 0
304.586 13.7127 0
304.67 17.9974 0
302.132 18.0472 0
303.317 13.7376 0
304.628 15.8551 0
303.401 18.0223 0
302.09 15.9048 0
303.359 15.88 0
304.586 13.7127 0
307.124 13.6628 0
307.208 17.9475 0
304.67 17.9974 0
305.855 13.6878 0
307.166 15.8052 0
305.939 17.9725 0
304.628 15.8551 0
305.897 15.8302 0
307.124 13.6628 0
309.662 13.6126 0
309.746 17.8973 0
307.208 17.9475 0
308.393 13.6377 0
309.704 15.755 0
308.477 17.9224 0
307.166 15.8052 0
308.435 15.7801 0
309.662 13.6126 0
312.199 13.5622 0
312.285 17.8469 0
309.746 17.8973 0
310.931 13.5874 0
312.242 15.7046 0
311.015 17.8721 0
309.704 15.755 0
310.973 15.7298 0
312.199 13.5622 0
314.737 13.5116 0
314.823 17.7962 0
312.285 17.8469 0
313.468 13.5369 0
314.78 15.6539 0
313.554 17.8216 0
312.242 15.7046 0
313.511 15.6793 0
314.737 13.5116 0
317.275 13.4607 0
317.361 17.7454 0
314.823 17.7962 0
316.006 13.4862 0
317.318 15.6031 0
316.092 17.7708 0
314.78 15.6539 0
316.049 15.6285 0
317.275 13.4607 0
319.813 13.4096 0
319.899 17.6943 0
317.361 17.7454 0
318.544 13.4352 0
319.856 15.552 0
318.63 17.7199 0
317.318 15.6031 0
318.587 15.5775 0
319.813 13.4096 0
322.35 13.3583 0
322.437 17.643 0
319.899 17.6943 0
321.082 13.384 0
322.394 15.5007 0
321.168 17.6687 0
319.856 15.552 0
321.125 15.5264 0
322.35 13.3583 0
324.888 13.3068 0
324.975 17.5915 0
322.437 17.643 0
323.619 13.3326 0
324.932 15.4492 0
323.706 17.6173 0
322.394 15.5007 0
323.663 15.475 0
324.888 13.3068 0
327.426 13.2551 0
327.513 17.5398 0
324.975 17.5915 0
326.157 13.281 0
327.47 15.3975 0
326.244 17.5657 0
324.932 15.4492 0
326.201 15.4234 0
327.426 13.2551 0
329.964 13.2032 0
330.051 17.4879 0
327.513 17.5398 0
328.695 13.2292 0
330.007 15.3456 0
328.782 17.5138 0
327.47 15.3975 0
328.738 15.3715 0
329.964 13.2032 0
332.501 13.1511 0
332.589 17.4357 0
330.051 17.4879 0
331.232 13.1772 0
332.545 15.2934 0
331.32 17.4618 0
330.007 15.3456 0
331.276 15.3195 0
332.501 13.1511 0
335.039 13.0988 0
335.127 17.3834 0
332.589 17.4357 0
333.77 13.125 0
335.083 15.2411 0
333.858 17.4096 0
332.545 15.2934 0
333.814 15.2673 0
335.039 13.0988 0
337.577 13.0463 0
337.665 17.3309 0
335.127 17.3834 0
336.308 13.0725 0
337.621 15.1886 0
336.396 17.3572 0
335.083 15.2411 0
336.352 15.2149 0
337.577 13.0463 0
340.114 12.9936 0
340.203 17.2782 0
337.665 17.3309 0
338.846 13.0199 0
340.159 15.1359 0
338.934 17.3046 0
337.621 15.1886 0
338.89 15.1623 0
340.114 12.9936 0
342.652 12.9407 0
342.741 17.2253 0
340.203 17.2782 0
341.383 12.9671 0
342.697 15.083 0
341.472 17.2518 0
340.159 15.1359 0
341.428 15.1095 0
342.652 12.9407 0
345.19 12.8876 0
345.279 17.1722 0
342.741 17.2253 0
343.921 12.9141 0
345.235 15.0299 0
344.01 17.1988 0
342.697 15.083 0
343.966 15.0565 0
345.19 12.8876 0
347.727 12.8343 0
347.817 17.1189 0
345.279 17.1722 0
346.459 12.861 0
347.772 14.9766 0
346.548 17.1456 0
345.235 15.0299 0
346.503 15.0033 0
347.727 12.8343 0
350.265 12.7808 0
350.355 17.0655 0
347.817 17.1189 0
348.996 12.8076 0
350.31 14.9232 0
349.086 17.0922 0
347.772 14.9766 0
349.041 14.9499 0
350.265 12.7808 0
352.803 12.7272 0
352.893 17.0118 0
350.355 17.0655 0
351.534 12.754 0
352.848 14.8695 0
351.624 17.0387 0
350.31 14.9232 0
351.579 14.8964 0
352.803 12.7272 0
355.34 12.6734 0
355.431 16.958 0
352.893 17.0118 0
354.072 12.7003 0
355.386 14.8157 0
354.162 16.9849 0
352.848 14.8695 0
354.117 14.8427 0
355.34 12.6734 0
357.878 12.6194 0
357.969 16.904 0
355.431 16.958 0
356.609 12.6464 0
357.924 14.7617 0
356.7 16.931 0
355.386 14.8157 0
356.655 14.7888 0
357.878 12.6194 0
360.416 12.5653 0
360.507 16.8499 0
357.969 16.904 0
359.147 12.5924 0
360.461 14.7076 0
359.238 16.877 0
357.924 14.7617 0
359.192 14.7347 0
360.416 12.5653 0
362.953 12.511 0
363.045 16.7956 0
360.507 16.8499 0
361.684 12.5381 0
362.999 14.6533 0
361.776 16.8227 0
360.461 14.7076 0
361.73 14.6805 0
362.953 12.511 0
365.491 12.4565 0
365.583 16.7411 0
363.045 16.7956 0
364.222 12.4837 0
365.537 14.5988 0
364.314 16.7683 0
362.999 14.6533 0
364.268 14.6261 0
365.491 12.4565 0
368.029 12.4018 0
368.121 16.6864 0
365.583 16.7411 0
366.76 12.4292 0
368.075 14.5442 0
366.852 16.7138 0
365.537 14.5988 0
366.806 14.5715 0
368.029 12.4018 0
370.566 12.3471 0
370.659 16.6316 0
368.121 16.6864 0
369.297 12.3745 0
370.612 14.4894 0
369.39 16.6591 0
368.075 14.5442 0
369.343 14.5168 0
370.566 12.3471 0
373.104 12.2921 0
373.196 16.5767 0
370.659 16.6316 0
371.835 12.3196 0
373.15 14.4344 0
371.928 16.6042 0
370.612 14.4894 0
371.881 14.4619 0
373.104 12.2921 0
375.641 12.237 0
375.734 16.5216 0
373.196 16.5767 0
374.373 12.2646 0
375.688 14.3793 0
374.465 16.5491 0
373.15 14.4344 0
374.419 14.4069 0
375.641 12.237 0
378.179 12.1817 0
378.272 16.4663 0
375.734 16.5216 0
376.91 12.2094 0
378.226 14.3241 0
377.003 16.494 0
375.688 14.3793 0
376.957 14.3517 0
378.179 12.1817 0
380.717 12.1264 0
380.81 16.4109 0
378.272 16.4663 0
379.448 12.1541 0
380.763 14.2687 0
379.541 16.4386 0
378.226 14.3241 0
379.494 14.2964 0
380.717 12.1264 0
383.254 12.0708 0
383.348 16.3554 0
380.81 16.4109 0
381.985 12.0986 0
383.301 14.2131 0
382.079 16.3832 0
380.763 14.2687 0
382.032 14.2409 0
383.254 12.0708 0
385.792 12.0151 0
385.886 16.2997 0
383.348 16.3554 0
384.523 12.043 0
385.839 14.1574 0
384.617 16.3276 0
383.301 14.2131 0
384.57 14.1853 0
385.792 12.0151 0
388.329 11.9593 0
388.423 16.2439 0
385.886 16.2997 0
387.06 11.9873 0
388.376 14.1016 0
387.154 16.2718 0
385.839 14.1574 0
387.107 14.1296 0
388.329 11.9593 0
390.867 11.9034 0
390.961 16.1879 0
388.423 16.2439 0
389.598 11.9314 0
390.914 14.0457 0
389.692 16.2159 0
388.376 14.1016 0
389.645 14.0737 0
390.867 11.9034 0
393.404 11.8473 0
393.499 16.1319 0
390.961 16.1879 0
392.136 11.8754 0
393.452 13.9896 0
392.23 16.1599 0
390.914 14.0457 0
392.183 14.0177 0
393.404 11.8473 0
395.942 11.7911 0
396.037 16.0757 0
393.499 16.1319 0
394.673 11.8192 0
395.989 13.9334 0
394.768 16.1038 0
393.452 13.9896 0
394.721 13.9615 0
395.942 11.7911 0
398.479 11.7348 0
398.574 16.0193 0
396.037 16.0757 0
397.211 11.763 0
398.527 13.8771 0
397.306 16.0475 0
395.989 13.9334 0
397.258 13.9053 0
398.479 11.7348 0
401.017 11.6783 0
401.112 15.9629 0
398.574 16.0193 0
399.748 11.7066 0
401.065 13.8206 0
399.843 15.9911 0
398.527 13.8771 0
399.796 13.8489 0
401.017 11.6783 0
403.555 11.6218 0
403.65 15.9063 0
401.112 15.9629 0
402.286 11.6501 0
403.602 13.7641 0
402.381 15.9346 0
401.065 13.8206 0
402.333 13.7924 0
403.555 11.6218 0
406.092 11.5651 0
406.188 15.8496 0
403.65 15.9063 0
404.823 11.5934 0
406.14 13.7074 0
404.919 15.878 0
403.602 13.7641 0
404.871 13.7357 0
406.092 11.5651 0
408.63 11.5083 0
408.725 15.7928 0
406.188 15.8496 0
407.361 11.5367 0
408.678 13.6506 0
407.457 15.8213 0
406.14 13.7074 0
407.409 13.679 0
408.63 11.5083 0
411.167 11.4514 0
411.263 15.7359 0
408.725 15.7928 0
409.898 11.4799 0
411.215 13.5937 0
409.994 15.7644 0
408.678 13.6506 0
409.946 13.6221 0
411.167 11.4514 0
413.705 11.3944 0
413.801 15.6789 0
411.263 15.7359 0
412.436 11.4229 0
413.753 13.5367 0
412.532 15.7075 0
411.215 13.5937 0
412.484 13.5652 0
413.705 11.3944 0
416.242 11.3373 0
416.339 15.6218 0
413.801 15.6789 0
414.973 11.3658 0
416.29 13.4796 0
415.07 15.6504 0
413.753 13.5367 0
415.022 13.5081 0
416.242 11.3373 0
418.78 11.2801 0
418.876 15.5646 0
416.339 15.6218 0
417.511 11.3087 0
418.828 13.4223 0
417.607 15.5932 0
416.29 13.4796 0
417.559 13.451 0
418.78 11.2801 0
421.317 11.2228 0
421.414 15.5073 0
418.876 15.5646 0
420.048 11.2514 0
421.366 13.365 0
420.145 15.536 0
418.828 13.4223 0
420.097 13.3937 0
421.317 11.2228 0
423.855 11.1654 0
423.952 15.4499 0
421.414 15.5073 0
422.586 11.1941 0
423.903 13.3076 0
422.683 15.4786 0
421.366 13.365 0
422.634 13.3364 0
423.855 11.1654 0
426.392 11.1079 0
426.489 15.3924 0
423.952 15.4499 0
425.123 11.1366 0
426.441 13.2501 0
425.22 15.4212 0
423.903 13.3076 0
425.172 13.2789 0
426.392 11.1079 0
428.93 11.0503 0
429.027 15.3348 0
426.489 15.3924 0
427.661 11.0791 0
428.978 13.1926 0
427.758 15.3636 0
426.441 13.2501 0
427.709 13.2214 0
428.93 11.0503 0
431.467 10.9926 0
431.564 15.2772 0
429.027 15.3348 0
430.198 11.0215 0
431.516 13.1349 0
430.296 15.306 0
428.978 13.1926 0
430.247 13.1637 0
431.467 10.9926 0
434.005 10.9349 0
434.102 15.2194 0
431.564 15.2772 0
432.736 10.9638 0
434.053 13.0772 0
432.833 15.2483 0
431.516 13.1349 0
432.785 13.106 0
434.005 10.9349 0
436.542 10.8771 0
436.64 15.1616 0
434.102 15.2194 0
435.273 10.906 0
436.591 13.0193 0
435.371 15.1905 0
434.053 13.0772 0
435.322 13.0483 0
436.542 10.8771 0
439.08 10.8192 0
439.177 15.1037 0
436.64 15.1616 0
437.811 10.8481 0
439.128 12.9614 0
437.908 15.1327 0
436.591 13.0193 0
437.86 12.9904 0
439.08 10.8192 0
441.617 10.7612 0
441.715 15.0457 0
439.177 15.1037 0
440.348 10.7902 0
441.666 12.9035 0
440.446 15.0747 0
439.128 12.9614 0
440.397 12.9325 0
441.617 10.7612 0
444.155 10.7031 0
444.252 14.9877 0
441.715 15.0457 0
442.886 10.7322 0
444.203 12.8454 0
442.984 15.0167 0
441.666 12.9035 0
442.935 12.8745 0
444.155 10.7031 0
446.692 10.645 0
446.79 14.9296 0
444.252 14.9877 0
445.423 10.6741 0
446.741 12.7873 0
445.521 14.9586 0
444.203 12.8454 0
445.472 12.8164 0
446.692 10.645 0
449.229 10.5869 0
449.328 14.8714 0
446.79 14.9296 0
447.961 10.616 0
449.279 12.7291 0
448.059 14.9005 0
446.741 12.7873 0
448.01 12.7582 0
449.229 10.5869 0
451.767 10.5286 0
451.865 14.8132 0
449.328 14.8714 0
450.498 10.5578 0
451.816 12.6709 0
450.596 14.8423 0
449.279 12.7291 0
450.547 12.7 0
451.767 10.5286 0
454.304 10.4703 0
454.403 14.7549 0
451.865 14.8132 0
453.036 10.4995 0
454.354 12.6126 0
453.134 14.784 0
451.816 12.6709 0
453.085 12.6418 0
454.304 10.4703 0
456.842 10.412 0
456.94 14.6965 0
454.403 14.7549 0
455.573 10.4412 0
456.891 12.5543 0
455.671 14.7257 0
454.354 12.6126 0
455.622 12.5835 0
456.842 10.412 0
459.379 10.3536 0
459.478 14.6381 0
456.94 14.6965 0
458.111 10.3828 0
459.428 12.4959 0
458.209 14.6674 0
456.891 12.5543 0
458.16 12.5251 0
459.379 10.3536 0
461.917 10.2952 0
462.015 14.5797 0
459.478 14.6381 0
460.648 10.3244 0
461.966 12.4374 0
460.746 14.6089 0
459.428 12.4959 0
460.697 12.4667 0
461.917 10.2952 0
464.454 10.2367 0
464.553 14.5212 0
462.015 14.5797 0
463.185 10.2659 0
464.503 12.379 0
463.284 14.5505 0
461.966 12.4374 0
463.235 12.4082 0
464.454 10.2367 0
466.992 10.1781 0
467.09 14.4627 0
464.553 14.5212 0
465.723 10.2074 0
467.041 12.3204 0
465.821 14.492 0
464.503 12.379 0
465.772 12.3497 0
466.992 10.1781 0
469.529 10.1196 0
469.628 14.4041 0
467.09 14.4627 0
468.26 10.1489 0
469.578 12.2619 0
468.359 14.4334 0
467.041 12.3204 0
468.31 12.2911 0
469.529 10.1196 0
472.066 10.061 0
472.165 14.3455 0
469.628 14.4041 0
470.798 10.0903 0
472.116 12.2032 0
470.896 14.3748 0
469.578 12.2619 0
470.847 12.2326 0
472.066 10.061 0
474.604 10.0023 0
474.703 14.2869 0
472.165 14.3455 0
473.335 10.0317 0
474.653 12.1446 0
473.434 14.3162 0
472.116 12.2032 0
473.385 12.1739 0
474.604 10.0023 0
477.141 9.94366 0
477.24 14.2282 0
474.703 14.2869 0
475.873 9.973 0
477.191 12.0859 0
475.971 14.2575 0
474.653 12.1446 0
475.922 12.1153 0
477.141 9.94366 0
479.679 9.88496 0
479.778 14.1695 0
477.24 14.2282 0
478.41 9.91431 0
479.728 12.0272 0
478.509 14.1989 0
477.191 12.0859 0
478.459 12.0566 0
479.679 9.88496 0
482.216 9.82624 0
482.315 14.1108 0
479.778 14.1695 0
480.947 9.8556 0
482.266 11.9685 0
481.046 14.1402 0
479.728 12.0272 0
480.997 11.9979 0
482.216 9.82624 0
484.754 9.76749 0
484.852 14.0521 0
482.315 14.1108 0
483.485 9.79687 0
484.803 11.9098 0
483.584 14.0814 0
482.266 11.9685 0
483.534 11.9391 0
484.754 9.76749 0
487.291 9.70873 0
487.39 13.9933 0
484.852 14.0521 0
486.022 9.73811 0
487.34 11.851 0
486.121 14.0227 0
484.803 11.9098 0
486.072 11.8804 0
487.291 9.70873 0
489.828 9.64995 0
489.927 13.9345 0
487.39 13.9933 0
488.56 9.67934 0
489.878 11.7922 0
488.659 13.9639 0
487.34 11.851 0
488.609 11.8216 0
489.828 9.64995 0
492.366 9.59116 0
492.465 13.8757 0
489.927 13.9345 0
491.097 9.62056 0
492.415 11.7334 0
491.196 13.9051 0
489.878 11.7922 0
491.147 11.7628 0
492.366 9.59116 0
494.903 9.53237 0
495.002 13.8169 0
492.465 13.8757 0
493.634 9.56177 0
494.953 11.6746 0
493.733 13.8463 0
492.415 11.7334 0
493.684 11.704 0
494.903 9.53237 0
497.44 9.47359 0
497.54 13.7581 0
495.002 13.8169 0
496.172 9.50298 0
497.49 11.6159 0
496.271 13.7875 0
494.953 11.6746 0
496.221 11.6453 0
497.44 9.47359 0
499.978 9.41485 0
500.077 13.6994 0
497.54 13.7581 0
498.709 9.44422 0
500.027 11.5571 0
498.808 13.7287 0
497.49 11.6159 0
498.759 11.5865 0
0 21.4286 0
2.5394 21.4284 0
2.54036 25.7136 0
0 25.7143 0
1.26968 21.4286 0
2.53986 23.5711 0
1.27015 25.7141 0
0 23.5714 0
1.26992 23.5714 0
2.5394 21.4284 0
5.0789 21.4275 0
5.08091 25.7124 0
2.54036 25.7136 0
3.80914 21.4281 0
5.07987 23.57 0
3.81062 25.7131 0
2.53986 23.5711 0
3.80985 23.5706 0
5.0789 21.4275 0
7.61847 21.426 0
7.62148 25.7107 0
5.08091 25.7124 0
6.34868 21.4268 0
7.61994 23.5684 0
6.3512 25.7116 0
5.07987 23.57 0
6.34991 23.5693 0
7.61847 21.426 0
10.158 21.4238 0
10.162 25.7085 0
7.62148 25.7107 0
8.88825 21.425 0
10.16 23.5662 0
8.89176 25.7097 0
7.61994 23.5684 0
8.88998 23.5674 0
10.158 21.4238 0
12.6976 21.4211 0
12.7026 25.7058 0
10.162 25.7085 0
11.4278 21.4225 0
12.7001 23.5635 0
11.4323 25.7072 0
10.16 23.5662 0
11.43 23.5649 0
12.6976 21.4211 0
15.2372 21.4178 0
15.2431 25.7025 0
12.7026 25.7058 0
13.9674 21.4195 0
15.2401 23.5602 0
13.9728 25.7042 0
12.7001 23.5635 0
13.9701 23.5619 0
15.2372 21.4178 0
17.7767 21.4139 0
17.7836 25.6986 0
15.2431 25.7025 0
16.5069 21.4159 0
17.7801 23.5563 0
16.5133 25.7006 0
15.2401 23.5602 0
16.5101 23.5583 0
17.7767 21.4139 0
20.3162 21.4094 0
20.3241 25.6941 0
17.7836 25.6986 0
19.0465 21.4117 0
20.3201 23.5518 0
19.0538 25.6964 0
17.7801 23.5563 0
19.0501 23.5541 0
20.3162 21.4094 0
22.8557 21.4044 0
22.8646 25.6891 0
20.3241 25.6941 0
21.586 21.407 0
22.8601 23.5468 0
21.5943 25.6917 0
20.3201 23.5518 0
21.5901 23.5494 0
22.8557 21.4044 0
25.3952 21.3988 0
25.405 25.6835 0
22.8646 25.6891 0
24.1255 21.4017 0
25.4001 23.5412 0
24.1348 25.6864 0
22.8601 23.5468 0
24.1301 23.5441 0
25.3952 21.3988 0
27.9347 21.3926 0
27.9455 25.6774 0
25.405 25.6835 0
26.665 21.3958 0
27.9401 23.535 0
26.6752 25.6805 0
25.4001 23.5412 0
26.6701 23.5382 0
27.9347 21.3926 0
30.4742 21.3859 0
30.4859 25.6706 0
27.9455 25.6774 0
29.2045 21.3893 0
30.48 23.5283 0
29.2157 25.6741 0
27.9401 23.535 0
29.2101 23.5317 0
30.4742 21.3859 0
33.0137 21.3786 0
33.0263 25.6633 0
30.4859 25.6706 0
31.744 21.3823 0
33.02 23.521 0
31.7561 25.667 0
30.48 23.5283 0
31.75 23.5247 0
33.0137 21.3786 0
35.5532 21.3707 0
35.5667 25.6555 0
33.0263 25.6633 0
34.2834 21.3747 0
35.5599 23.5132 0
34.2965 25.6595 0
33.02 23.521 0
34.29 23.5172 0
35.5532 21.3707 0
38.0926 21.3623 0
38.1071 25.6471 0
35.5667 25.6555 0
36.8229 21.3666 0
38.0998 23.5048 0
36.8369 25.6514 0
35.5599 23.5132 0
36.8299 23.509 0
38.0926 21.3623 0
40.6321 21.3534 0
40.6475 25.6381 0
38.1071 25.6471 0
39.3623 21.3579 0
40.6398 23.4958 0
39.3773 25.6427 0
38.0998 23.5048 0
39.3698 23.5004 0
40.6321 21.3534 0
43.1715 21.3439 0
43.1878 25.6286 0
40.6475 25.6381 0
41.9018 21.3487 0
43.1797 23.4863 0
41.9177 25.6335 0
40.6398 23.4958 0
41.9097 23.4911 0
43.1715 21.3439 0
45.7109 21.3338 0
45.7282 25.6186 0
43.1878 25.6286 0
44.4412 21.3389 0
45.7195 23.4763 0
44.458 25.6237 0
43.1797 23.4863 0
44.4496 23.4814 0
45.7109 21.3338 0
48.2503 21.3232 0
48.2685 25.608 0
45.7282 25.6186 0
46.9806 21.3286 0
48.2594 23.4657 0
46.9983 25.6134 0
45.7195 23.4763 0
46.9895 23.471 0
48.2503 21.3232 0
50.7897 21.3121 0
50.8088 25.5969 0
48.2685 25.608 0
49.52 21.3177 0
50.7993 23.4546 0
49.5387 25.6025 0
48.2594 23.4657 0
49.5293 23.4602 0
50.7897 21.3121 0
53.3291 21.3005 0
53.3491 25.5852 0
50.8088 25.5969 0
52.0594 21.3064 0
53.3391 23.4429 0
52.079 25.5911 0
50.7993 23.4546 0
52.0692 23.4488 0
53.3291 21.3005 0
55.8685 21.2883 0
55.8894 25.573 0
53.3491 25.5852 0
54.5988 21.2944 0
55.879 23.4307 0
54.6193 25.5792 0
53.3391 23.4429 0
54.609 23.4369 0
55.8685 21.2883 0
58.4079 21.2755 0
58.4297 25.5603 0
55.8894 25.573 0
57.1382 21.282 0
58.4188 23.418 0
57.1595 25.5667 0
55.879 23.4307 0
57.1489 23.4244 0
58.4079 21.2755 0
60.9473 21.2623 0
60.9699 25.547 0
58.4297 25.5603 0
59.6776 21.269 0
60.9586 23.4047 0
59.6998 25.5537 0
58.4188 23.418 0
59.6887 23.4114 0
60.9473 21.2623 0
63.4866 21.2485 0
63.5102 25.5332 0
60.9699 25.547 0
62.2169 21.2554 0
63.4984 23.3909 0
62.24 25.5402 0
60.9586 23.4047 0
62.2285 23.3979 0
63.4866 21.2485 0
66.026 21.2342 0
66.0504 25.5189 0
63.5102 25.5332 0
64.7563 21.2414 0
66.0382 23.3766 0
64.7803 25.5262 0
63.4984 23.3909 0
64.7683 23.3838 0
66.026 21.2342 0
68.5653 21.2194 0
68.5906 25.5041 0
66.0504 25.5189 0
67.2956 21.2268 0
68.5779 23.3618 0
67.3205 25.5116 0
66.0382 23.3766 0
67.308 23.3693 0
68.5653 21.2194 0
71.1046 21.204 0
71.1308 25.4888 0
68.5906 25.5041 0
69.835 21.2118 0
71.1177 23.3465 0
69.8607 25.4965 0
68.5779 23.3618 0
69.8478 23.3542 0
71.1046 21.204 0
73.6439 21.1882 0
73.6709 25.473 0
71.1308 25.4888 0
72.3743 21.1962 0
73.6574 23.3306 0
72.4009 25.4809 0
71.1177 23.3465 0
72.3876 23.3386 0
73.6439 21.1882 0
76.1832 21.1718 0
76.2111 25.4566 0
73.6709 25.473 0
74.9136 21.1801 0
76.1972 23.3143 0
74.941 25.4648 0
73.6574 23.3306 0
74.9273 23.3225 0
76.1832 21.1718 0
78.7225 21.155 0
78.7512 25.4397 0
76.2111 25.4566 0
77.4529 21.1635 0
78.7369 23.2974 0
77.4812 25.4482 0
76.1972 23.3143 0
77.467 23.3059 0
78.7225 21.155 0
81.2618 21.1376 0
81.2914 25.4224 0
78.7512 25.4397 0
79.9922 21.1464 0
81.2766 23.2801 0
80.0213 25.4311 0
78.7369 23.2974 0
80.0067 23.2888 0
81.2618 21.1376 0
83.8011 21.1198 0
83.8315 25.4045 0
81.2914 25.4224 0
82.5314 21.1288 0
83.8163 23.2622 0
82.5614 25.4135 0
81.2766 23.2801 0
82.5464 23.2712 0
83.8011 21.1198 0
86.3403 21.1014 0
86.3716 25.3862 0
83.8315 25.4045 0
85.0707 21.1106 0
86.3559 23.2438 0
85.1015 25.3954 0
83.8163 23.2622 0
85.0861 23.2531 0
86.3403 21.1014 0
88.8796 21.0826 0
88.9116 25.3673 0
86.3716 25.3862 0
87.61 21.092 0
88.8956 23.225 0
87.6416 25.3768 0
86.3559 23.2438 0
87.6258 23.2345 0
88.8796 21.0826 0
91.4188 21.0632 0
91.4517 25.348 0
88.9116 25.3673 0
90.1492 21.0729 0
91.4353 23.2056 0
90.1817 25.3577 0
88.8956 23.225 0
90.1654 23.2154 0
91.4188 21.0632 0
93.958 21.0434 0
93.9918 25.3281 0
91.4517 25.348 0
92.6884 21.0534 0
93.9749 23.1858 0
92.7217 25.3381 0
91.4353 23.2056 0
92.7051 23.1958 0
93.958 21.0434 0
96.4973 21.0231 0
96.5318 25.3078 0
93.9918 25.3281 0
95.2276 21.0333 0
96.5145 23.1655 0
95.2618 25.318 0
93.9749 23.1858 0
95.2447 23.1757 0
96.4973 21.0231 0
99.0365 21.0023 0
99.0718 25.287 0
96.5318 25.3078 0
97.7669 21.0127 0
99.0541 23.1447 0
97.8018 25.2975 0
96.5145 23.1655 0
97.7843 23.1552 0
99.0365 21.0023 0
101.576 20.981 0
101.612 25.2657 0
99.0718 25.287 0
100.306 20.9917 0
101.594 23.1234 0
100.342 25.2764 0
99.0541 23.1447 0
100.324 23.1341 0
101.576 20.981 0
104.115 20.9592 0
104.152 25.244 0
101.612 25.2657 0
102.845 20.9702 0
104.133 23.1017 0
102.882 25.2549 0
101.594 23.1234 0
102.863 23.1126 0
104.115 20.9592 0
106.654 20.937 0
106.692 25.2218 0
104.152 25.244 0
105.384 20.9482 0
106.673 23.0794 0
105.422 25.2329 0
104.133 23.1017 0
105.403 23.0906 0
106.654 20.937 0
109.193 20.9143 0
109.232 25.1991 0
106.692 25.2218 0
107.924 20.9257 0
109.212 23.0568 0
107.962 25.2105 0
106.673 23.0794 0
107.943 23.0682 0
109.193 20.9143 0
111.732 20.8912 0
111.772 25.1759 0
109.232 25.1991 0
110.463 20.9028 0
111.752 23.0336 0
110.502 25.1876 0
109.212 23.0568 0
110.482 23.0452 0
111.732 20.8912 0
114.271 20.8676 0
114.311 25.1523 0
111.772 25.1759 0
113.002 20.8794 0
114.291 23.01 0
113.042 25.1642 0
111.752 23.0336 0
113.022 23.0218 0
114.271 20.8676 0
116.811 20.8435 0
116.851 25.1282 0
114.311 25.1523 0
115.541 20.8556 0
116.831 22.9859 0
115.581 25.1403 0
114.291 23.01 0
115.561 22.998 0
116.811 20.8435 0
119.35 20.8189 0
119.391 25.1037 0
116.851 25.1282 0
118.08 20.8313 0
119.37 22.9614 0
118.121 25.116 0
116.831 22.9859 0
118.101 22.9737 0
119.35 20.8189 0
121.889 20.7939 0
121.931 25.0787 0
119.391 25.1037 0
120.619 20.8065 0
121.91 22.9364 0
120.661 25.0912 0
119.37 22.9614 0
120.64 22.9489 0
121.889 20.7939 0
124.428 20.7685 0
124.471 25.0532 0
121.931 25.0787 0
123.158 20.7813 0
124.449 22.9109 0
123.201 25.066 0
121.91 22.9364 0
123.18 22.9237 0
124.428 20.7685 0
126.967 20.7426 0
127.011 25.0273 0
124.471 25.0532 0
125.697 20.7556 0
126.989 22.885 0
125.741 25.0403 0
124.449 22.9109 0
125.719 22.898 0
126.967 20.7426 0
129.506 20.7163 0
129.551 25.001 0
127.011 25.0273 0
128.236 20.7295 0
129.528 22.8587 0
128.281 25.0142 0
126.989 22.885 0
128.259 22.8719 0
129.506 20.7163 0
132.045 20.6895 0
132.09 24.9742 0
129.551 25.001 0
130.775 20.7029 0
132.068 22.8319 0
130.82 24.9877 0
129.528 22.8587 0
130.798 22.8453 0
132.045 20.6895 0
134.584 20.6623 0
134.63 24.947 0
132.09 24.9742 0
133.314 20.6759 0
134.607 22.8047 0
133.36 24.9607 0
132.068 22.8319 0
133.337 22.8183 0
134.584 20.6623 0
137.123 20.6346 0
137.17 24.9193 0
134.63 24.947 0
135.854 20.6485 0
137.146 22.777 0
135.9 24.9332 0
134.607 22.8047 0
135.877 22.7909 0
137.123 20.6346 0
139.662 20.6065 0
139.71 24.8913 0
137.17 24.9193 0
138.393 20.6206 0
139.686 22.7489 0
138.44 24.9053 0
137.146 22.777 0
138.416 22.763 0
139.662 20.6065 0
142.201 20.578 0
142.249 24.8627 0
139.71 24.8913 0
140.932 20.5923 0
142.225 22.7204 0
140.98 24.877 0
139.686 22.7489 0
140.956 22.7347 0
142.201 20.578 0
144.74 20.5491 0
144.789 24.8338 0
142.249 24.8627 0
143.471 20.5636 0
144.765 22.6915 0
143.519 24.8483 0
142.225 22.7204 0
143.495 22.706 0
144.74 20.5491 0
147.279 20.5197 0
147.329 24.8044 0
144.789 24.8338 0
146.01 20.5344 0
147.304 22.6621 0
146.059 24.8192 0
144.765 22.6915 0
146.034 22.6768 0
147.279 20.5197 0
149.818 20.4899 0
149.868 24.7746 0
147.329 24.8044 0
148.548 20.5049 0
149.843 22.6323 0
148.599 24.7896 0
147.304 22.6621 0
148.574 22.6473 0
149.818 20.4899 0
152.357 20.4597 0
152.408 24.7444 0
149.868 24.7746 0
151.087 20.4749 0
152.382 22.6021 0
151.138 24.7596 0
149.843 22.6323 0
151.113 22.6173 0
152.357 20.4597 0
154.896 20.4291 0
154.948 24.7138 0
152.408 24.7444 0
153.626 20.4445 0
154.922 22.5715 0
153.678 24.7292 0
152.382 22.6021 0
153.652 22.5868 0
154.896 20.4291 0
157.435 20.3981 0
157.487 24.6828 0
154.948 24.7138 0
156.165 20.4136 0
157.461 22.5405 0
156.217 24.6983 0
154.922 22.5715 0
156.191 22.556 0
157.435 20.3981 0
159.974 20.3666 0
160.027 24.6513 0
157.487 24.6828 0
158.704 20.3824 0
160 22.509 0
158.757 24.6671 0
157.461 22.5405 0
158.731 22.5248 0
159.974 20.3666 0
162.513 20.3348 0
162.566 24.6195 0
160.027 24.6513 0
161.243 20.3507 0
162.539 22.4772 0
161.297 24.6354 0
160 22.509 0
161.27 22.4931 0
162.513 20.3348 0
165.051 20.3025 0
165.106 24.5872 0
162.566 24.6195 0
163.782 20.3187 0
165.079 22.4449 0
163.836 24.6034 0
162.539 22.4772 0
163.809 22.4611 0
165.051 20.3025 0
167.59 20.2699 0
167.646 24.5546 0
165.106 24.5872 0
166.321 20.2863 0
167.618 22.4123 0
166.376 24.5709 0
165.079 22.4449 0
166.348 22.4286 0
167.59 20.2699 0
170.129 20.2368 0
170.185 24.5215 0
167.646 24.5546 0
168.86 20.2534 0
170.157 22.3792 0
168.915 24.5381 0
167.618 22.4123 0
168.888 22.3958 0
170.129 20.2368 0
172.668 20.2034 0
172.725 24.4881 0
170.185 24.5215 0
171.399 20.2202 0
172.696 22.3458 0
171.455 24.5048 0
170.157 22.3792 0
171.427 22.3625 0
172.668 20.2034 0
175.207 20.1696 0
175.264 24.4542 0
172.725 24.4881 0
173.937 20.1865 0
175.235 22.3119 0
173.994 24.4712 0
172.696 22.3458 0
173.966 22.3289 0
175.207 20.1696 0
177.746 20.1353 0
177.804 24.42 0
175.264 24.4542 0
176.476 20.1525 0
177.775 22.2777 0
176.534 24.4372 0
175.235 22.3119 0
176.505 22.2949 0
177.746 20.1353 0
180.284 20.1007 0
180.343 24.3854 0
177.804 24.42 0
179.015 20.1181 0
180.314 22.2431 0
179.073 24.4028 0
177.775 22.2777 0
179.044 22.2605 0
180.284 20.1007 0
182.823 20.0658 0
182.882 24.3504 0
180.343 24.3854 0
181.554 20.0833 0
182.853 22.2081 0
181.613 24.368 0
180.314 22.2431 0
181.583 22.2257 0
182.823 20.0658 0
185.362 20.0304 0
185.422 24.3151 0
182.882 24.3504 0
184.093 20.0481 0
185.392 22.1728 0
184.152 24.3328 0
182.853 22.2081 0
184.122 22.1905 0
185.362 20.0304 0
187.901 19.9947 0
187.961 24.2793 0
185.422 24.3151 0
186.631 20.0126 0
187.931 22.137 0
186.692 24.2972 0
185.392 22.1728 0
186.661 22.1549 0
187.901 19.9947 0
190.44 19.9586 0
190.501 24.2432 0
187.961 24.2793 0
189.17 19.9767 0
190.47 22.1009 0
189.231 24.2613 0
187.931 22.137 0
189.201 22.119 0
190.44 19.9586 0
192.978 19.9221 0
193.04 24.2067 0
190.501 24.2432 0
191.709 19.9404 0
193.009 22.0644 0
191.77 24.225 0
190.47 22.1009 0
191.74 22.0827 0
192.978 19.9221 0
195.517 19.8852 0
195.579 24.1699 0
193.04 24.2067 0
194.248 19.9037 0
195.548 22.0276 0
194.31 24.1883 0
193.009 22.0644 0
194.279 22.0461 0
195.517 19.8852 0
198.056 19.848 0
198.119 24.1327 0
195.579 24.1699 0
196.786 19.8667 0
198.087 21.9904 0
196.849 24.1513 0
195.548 22.0276 0
196.818 22.009 0
198.056 19.848 0
200.594 19.8105 0
200.658 24.0951 0
198.119 24.1327 0
199.325 19.8293 0
200.626 21.9528 0
199.388 24.1139 0
198.087 21.9904 0
199.357 21.9716 0
200.594 19.8105 0
203.133 19.7725 0
203.197 24.0572 0
200.658 24.0951 0
201.864 19.7915 0
203.165 21.9149 0
201.928 24.0762 0
200.626 21.9528 0
201.896 21.9339 0
203.133 19.7725 0
205.672 19.7342 0
205.737 24.0189 0
203.197 24.0572 0
204.402 19.7534 0
205.704 21.8766 0
204.467 24.0381 0
203.165 21.9149 0
204.435 21.8958 0
205.672 19.7342 0
208.21 19.6956 0
208.276 23.9802 0
205.737 24.0189 0
206.941 19.715 0
208.243 21.838 0
207.006 23.9996 0
205.704 21.8766 0
206.974 21.8573 0
208.21 19.6956 0
210.749 19.6566 0
210.815 23.9413 0
208.276 23.9802 0
209.48 19.6762 0
210.782 21.799 0
209.545 23.9608 0
208.243 21.838 0
209.513 21.8185 0
210.749 19.6566 0
213.288 19.6173 0
213.354 23.9019 0
210.815 23.9413 0
212.018 19.637 0
213.321 21.7597 0
212.085 23.9216 0
210.782 21.799 0
212.052 21.7794 0
213.288 19.6173 0
215.826 19.5777 0
215.893 23.8623 0
213.354 23.9019 0
214.557 19.5975 0
215.86 21.72 0
214.624 23.8821 0
213.321 21.7597 0
214.59 21.7399 0
215.826 19.5777 0
218.365 19.5376 0
218.433 23.8223 0
215.893 23.8623 0
217.096 19.5577 0
218.399 21.68 0
217.163 23.8423 0
215.86 21.72 0
217.129 21.7 0
218.365 19.5376 0
220.904 19.4973 0
220.972 23.7819 0
218.433 23.8223 0
219.634 19.5175 0
220.938 21.6396 0
219.702 23.8021 0
218.399 21.68 0
219.668 21.6599 0
220.904 19.4973 0
223.442 19.4566 0
223.511 23.7412 0
220.972 23.7819 0
222.173 19.477 0
223.477 21.599 0
222.241 23.7616 0
220.938 21.6396 0
222.207 21.6193 0
223.442 19.4566 0
225.981 19.4156 0
226.05 23.7002 0
223.511 23.7412 0
224.711 19.4362 0
226.015 21.558 0
224.78 23.7208 0
223.477 21.599 0
224.746 21.5785 0
225.981 19.4156 0
228.519 19.3743 0
228.589 23.6589 0
226.05 23.7002 0
227.25 19.395 0
228.554 21.5166 0
227.32 23.6796 0
226.015 21.558 0
227.285 21.5373 0
228.519 19.3743 0
231.058 19.3326 0
231.128 23.6172 0
228.589 23.6589 0
229.789 19.3535 0
231.093 21.475 0
229.859 23.6381 0
228.554 21.5166 0
229.824 21.4958 0
231.058 19.3326 0
233.596 19.2907 0
233.667 23.5753 0
231.128 23.6172 0
232.327 19.3117 0
233.632 21.433 0
232.398 23.5963 0
231.093 21.475 0
232.362 21.454 0
233.596 19.2907 0
236.135 19.2484 0
236.206 23.533 0
233.667 23.5753 0
234.866 19.2696 0
236.171 21.3907 0
234.937 23.5541 0
233.632 21.433 0
234.901 21.4119 0
236.135 19.2484 0
238.673 19.2058 0
238.745 23.4903 0
236.206 23.533 0
237.404 19.2271 0
238.709 21.3481 0
237.476 23.5117 0
236.171 21.3907 0
237.44 21.3694 0
238.673 19.2058 0
241.212 19.1629 0
241.284 23.4474 0
238.745 23.4903 0
239.943 19.1843 0
241.248 21.3052 0
240.015 23.4689 0
238.709 21.3481 0
239.979 21.3267 0
241.212 19.1629 0
243.75 19.1196 0
243.823 23.4042 0
241.284 23.4474 0
242.481 19.1413 0
243.787 21.2619 0
242.554 23.4258 0
241.248 21.3052 0
242.518 21.2836 0
243.75 19.1196 0
246.289 19.0761 0
246.362 23.3607 0
243.823 23.4042 0
245.02 19.0979 0
246.326 21.2184 0
245.093 23.3825 0
243.787 21.2619 0
245.056 21.2402 0
246.289 19.0761 0
248.827 19.0323 0
248.901 23.3168 0
246.362 23.3607 0
247.558 19.0542 0
248.864 21.1746 0
247.632 23.3388 0
246.326 21.2184 0
247.595 21.1965 0
248.827 19.0323 0
251.366 18.9881 0
251.44 23.2727 0
248.901 23.3168 0
250.097 19.0102 0
251.403 21.1304 0
250.171 23.2948 0
248.864 21.1746 0
250.134 21.1525 0
251.366 18.9881 0
253.904 18.9437 0
253.979 23.2282 0
251.44 23.2727 0
252.635 18.9659 0
253.942 21.086 0
252.71 23.2505 0
251.403 21.1304 0
252.672 21.1082 0
253.904 18.9437 0
256.443 18.899 0
256.518 23.1835 0
253.979 23.2282 0
255.173 18.9214 0
256.48 21.0413 0
255.249 23.2059 0
253.942 21.086 0
255.211 21.0637 0
256.443 18.899 0
258.981 18.8539 0
259.057 23.1385 0
256.518 23.1835 0
257.712 18.8765 0
259.019 20.9962 0
257.788 23.161 0
256.48 21.0413 0
257.75 21.0188 0
258.981 18.8539 0
261.519 18.8086 0
261.596 23.0932 0
259.057 23.1385 0
260.25 18.8313 0
261.558 20.9509 0
260.326 23.1159 0
259.019 20.9962 0
260.288 20.9736 0
261.519 18.8086 0
264.058 18.7631 0
264.135 23.0476 0
261.596 23.0932 0
262.789 18.7859 0
264.096 20.9054 0
262.865 23.0704 0
261.558 20.9509 0
262.827 20.9282 0
264.058 18.7631 0
266.596 18.7172 0
266.674 23.0017 0
264.135 23.0476 0
265.327 18.7402 0
266.635 20.8595 0
265.404 23.0247 0
264.096 20.9054 0
265.366 20.8825 0
266.596 18.7172 0
269.134 18.671 0
269.212 22.9556 0
266.674 23.0017 0
267.865 18.6941 0
269.173 20.8133 0
267.943 22.9787 0
266.635 20.8595 0
267.904 20.8364 0
269.134 18.671 0
271.673 18.6246 0
271.751 22.9091 0
269.212 22.9556 0
270.404 18.6479 0
271.712 20.7669 0
270.482 22.9324 0
269.173 20.8133 0
270.443 20.7902 0
271.673 18.6246 0
274.211 18.5779 0
274.29 22.8624 0
271.751 22.9091 0
272.942 18.6013 0
274.251 20.7202 0
273.021 22.8858 0
271.712 20.7669 0
272.981 20.7436 0
274.211 18.5779 0
276.749 18.531 0
276.829 22.8155 0
274.29 22.8624 0
275.48 18.5545 0
276.789 20.6732 0
275.559 22.839 0
274.251 20.7202 0
275.52 20.6968 0
276.749 18.531 0
279.288 18.4837 0
279.368 22.7682 0
276.829 22.8155 0
278.019 18.5074 0
279.328 20.626 0
278.098 22.7919 0
276.789 20.6732 0
278.058 20.6497 0
279.288 18.4837 0
281.826 18.4362 0
281.906 22.7207 0
279.368 22.7682 0
280.557 18.46 0
281.866 20.5785 0
280.637 22.7445 0
279.328 20.626 0
280.597 20.6023 0
281.826 18.4362 0
284.364 18.3885 0
284.445 22.673 0
281.906 22.7207 0
283.095 18.4124 0
284.405 20.5308 0
283.176 22.6969 0
281.866 20.5785 0
283.135 20.5547 0
284.364 18.3885 0
286.903 18.3405 0
286.984 22.625 0
284.445 22.673 0
285.633 18.3645 0
286.943 20.4827 0
285.714 22.649 0
284.405 20.5308 0
285.674 20.5068 0
286.903 18.3405 0
289.441 18.2922 0
289.522 22.5767 0
286.984 22.625 0
288.172 18.3164 0
289.482 20.4345 0
288.253 22.6009 0
286.943 20.4827 0
288.212 20.4586 0
289.441 18.2922 0
291.979 18.2437 0
292.061 22.5282 0
289.522 22.5767 0
290.71 18.268 0
292.02 20.386 0
290.792 22.5525 0
289.482 20.4345 0
290.751 20.4102 0
291.979 18.2437 0
294.517 18.1949 0
294.6 22.4794 0
292.061 22.5282 0
293.248 18.2193 0
294.558 20.3372 0
293.33 22.5038 0
292.02 20.386 0
293.289 20.3616 0
294.517 18.1949 0
297.056 18.1459 0
297.138 22.4304 0
294.6 22.4794 0
295.786 18.1704 0
297.097 20.2882 0
295.869 22.4549 0
294.558 20.3372 0
295.828 20.3127 0
297.056 18.1459 0
299.594 18.0967 0
299.677 22.3812 0
297.138 22.4304 0
298.325 18.1213 0
299.635 20.2389 0
298.408 22.4058 0
297.097 20.2882 0
298.366 20.2636 0
299.594 18.0967 0
302.132 18.0472 0
302.216 22.3317 0
299.677 22.3812 0
300.863 18.0719 0
302.174 20.1894 0
300.946 22.3564 0
299.635 20.2389 0
300.905 20.2142 0
302.132 18.0472 0
304.67 17.9974 0
304.754 22.2819 0
302.216 22.3317 0
303.401 18.0223 0
304.712 20.1397 0
303.485 22.3068 0
302.174 20.1894 0
303.443 20.1646 0
304.67 17.9974 0
307.208 17.9475 0
307.293 22.232 0
304.754 22.2819 0
305.939 17.9725 0
307.25 20.0897 0
306.023 22.257 0
304.712 20.1397 0
305.981 20.1148 0
307.208 17.9475 0
309.746 17.8973 0
309.831 22.1818 0
307.293 22.232 0
308.477 17.9224 0
309.789 20.0396 0
308.562 22.2069 0
307.25 20.0897 0
308.52 20.0647 0
309.746 17.8973 0
312.285 17.8469 0
312.37 22.1314 0
309.831 22.1818 0
311.015 17.8721 0
312.327 19.9891 0
311.1 22.1566 0
309.789 20.0396 0
311.058 20.0144 0
312.285 17.8469 0
314.823 17.7962 0
314.908 22.0807 0
312.37 22.1314 0
313.554 17.8216 0
314.865 19.9385 0
313.639 22.1061 0
312.327 19.9891 0
313.596 19.9638 0
314.823 17.7962 0
317.361 17.7454 0
317.447 22.0298 0
314.908 22.0807 0
316.092 17.7708 0
317.404 19.8876 0
316.177 22.0553 0
314.865 19.9385 0
316.135 19.9131 0
317.361 17.7454 0
319.899 17.6943 0
319.985 21.9788 0
317.447 22.0298 0
318.63 17.7199 0
319.942 19.8366 0
318.716 22.0043 0
317.404 19.8876 0
318.673 19.8621 0
319.899 17.6943 0
322.437 17.643 0
322.524 21.9275 0
319.985 21.9788 0
321.168 17.6687 0
322.48 19.7853 0
321.254 21.9531 0
319.942 19.8366 0
321.211 19.8109 0
322.437 17.643 0
324.975 17.5915 0
325.062 21.876 0
322.524 21.9275 0
323.706 17.6173 0
325.019 19.7337 0
323.793 21.9017 0
322.48 19.7853 0
323.749 19.7595 0
324.975 17.5915 0
327.513 17.5398 0
327.6 21.8242 0
325.062 21.876 0
326.244 17.5657 0
327.557 19.682 0
326.331 21.8501 0
325.019 19.7337 0
326.288 19.7079 0
327.513 17.5398 0
330.051 17.4879 0
330.139 21.7723 0
327.6 21.8242 0
328.782 17.5138 0
330.095 19.6301 0
328.87 21.7983 0
327.557 19.682 0
328.826 19.6561 0
330.051 17.4879 0
332.589 17.4357 0
332.677 21.7202 0
330.139 21.7723 0
331.32 17.4618 0
332.633 19.578 0
331.408 21.7463 0
330.095 19.6301 0
331.364 19.6041 0
332.589 17.4357 0
335.127 17.3834 0
335.216 21.6679 0
332.677 21.7202 0
333.858 17.4096 0
335.171 19.5257 0
333.946 21.6941 0
332.633 19.578 0
333.902 19.5519 0
335.127 17.3834 0
337.665 17.3309 0
337.754 21.6154 0
335.216 21.6679 0
336.396 17.3572 0
337.71 19.4731 0
336.485 21.6416 0
335.171 19.5257 0
336.441 19.4994 0
337.665 17.3309 0
340.203 17.2782 0
340.292 21.5626 0
337.754 21.6154 0
338.934 17.3046 0
340.248 19.4204 0
339.023 21.589 0
337.71 19.4731 0
338.979 19.4468 0
340.203 17.2782 0
342.741 17.2253 0
342.831 21.5097 0
340.292 21.5626 0
341.472 17.2518 0
342.786 19.3675 0
341.561 21.5362 0
340.248 19.4204 0
341.517 19.394 0
342.741 17.2253 0
345.279 17.1722 0
345.369 21.4566 0
342.831 21.5097 0
344.01 17.1988 0
345.324 19.3144 0
344.1 21.4832 0
342.786 19.3675 0
344.055 19.341 0
345.279 17.1722 0
347.817 17.1189 0
347.907 21.4034 0
345.369 21.4566 0
346.548 17.1456 0
347.862 19.2612 0
346.638 21.43 0
345.324 19.3144 0
346.593 19.2878 0
347.817 17.1189 0
350.355 17.0655 0
350.445 21.3499 0
347.907 21.4034 0
349.086 17.0922 0
350.4 19.2077 0
349.176 21.3767 0
347.862 19.2612 0
349.131 19.2345 0
350.355 17.0655 0
352.893 17.0118 0
352.984 21.2963 0
350.445 21.3499 0
351.624 17.0387 0
352.938 19.1541 0
351.715 21.3231 0
350.4 19.2077 0
351.669 19.1809 0
352.893 17.0118 0
355.431 16.958 0
355.522 21.2425 0
352.984 21.2963 0
354.162 16.9849 0
355.477 19.1003 0
354.253 21.2694 0
352.938 19.1541 0
354.208 19.1272 0
355.431 16.958 0
357.969 16.904 0
358.06 21.1885 0
355.522 21.2425 0
356.7 16.931 0
358.015 19.0463 0
356.791 21.2155 0
355.477 19.1003 0
356.746 19.0733 0
357.969 16.904 0
360.507 16.8499 0
360.598 21.1343 0
358.06 21.1885 0
359.238 16.877 0
360.553 18.9921 0
359.329 21.1614 0
358.015 19.0463 0
359.284 19.0192 0
360.507 16.8499 0
363.045 16.7956 0
363.137 21.08 0
360.598 21.1343 0
361.776 16.8227 0
363.091 18.9378 0
361.868 21.1072 0
360.553 18.9921 0
361.822 18.965 0
363.045 16.7956 0
365.583 16.7411 0
365.675 21.0255 0
363.137 21.08 0
364.314 16.7683 0
365.629 18.8833 0
364.406 21.0528 0
363.091 18.9378 0
364.36 18.9106 0
365.583 16.7411 0
368.121 16.6864 0
368.213 20.9709 0
365.675 21.0255 0
366.852 16.7138 0
368.167 18.8287 0
366.944 20.9982 0
365.629 18.8833 0
366.898 18.856 0
368.121 16.6864 0
370.659 16.6316 0
370.751 20.9161 0
368.213 20.9709 0
369.39 16.6591 0
370.705 18.7739 0
369.482 20.9435 0
368.167 18.8287 0
369.436 18.8013 0
370.659 16.6316 0
373.196 16.5767 0
373.289 20.8611 0
370.751 20.9161 0
371.928 16.6042 0
373.243 18.7189 0
372.02 20.8886 0
370.705 18.7739 0
371.974 18.7464 0
373.196 16.5767 0
375.734 16.5216 0
375.827 20.806 0
373.289 20.8611 0
374.465 16.5491 0
375.781 18.6638 0
374.558 20.8336 0
373.243 18.7189 0
374.512 18.6914 0
375.734 16.5216 0
378.272 16.4663 0
378.365 20.7508 0
375.827 20.806 0
377.003 16.494 0
378.319 18.6086 0
377.096 20.7784 0
375.781 18.6638 0
377.05 18.6362 0
378.272 16.4663 0
380.81 16.4109 0
380.903 20.6954 0
378.365 20.7508 0
379.541 16.4386 0
380.857 18.5532 0
379.634 20.7231 0
378.319 18.6086 0
379.588 18.5809 0
380.81 16.4109 0
383.348 16.3554 0
383.442 20.6398 0
380.903 20.6954 0
382.079 16.3832 0
383.395 18.4976 0
382.172 20.6676 0
380.857 18.5532 0
382.126 18.5254 0
383.348 16.3554 0
385.886 16.2997 0
385.98 20.5842 0
383.442 20.6398 0
384.617 16.3276 0
385.933 18.442 0
384.711 20.612 0
383.395 18.4976 0
384.664 18.4698 0
385.886 16.2997 0
388.423 16.2439 0
388.518 20.5283 0
385.98 20.5842 0
387.154 16.2718 0
388.47 18.3861 0
387.249 20.5563 0
385.933 18.442 0
387.202 18.4141 0
388.423 16.2439 0
390.961 16.1879 0
391.056 20.4724 0
388.518 20.5283 0
389.692 16.2159 0
391.008 18.3302 0
389.787 20.5004 0
388.47 18.3861 0
389.739 18.3582 0
390.961 16.1879 0
393.499 16.1319 0
393.594 20.4163 0
391.056 20.4724 0
392.23 16.1599 0
393.546 18.2741 0
392.325 20.4444 0
391.008 18.3302 0
392.277 18.3022 0
393.499 16.1319 0
396.037 16.0757 0
396.132 20.3601 0
393.594 20.4163 0
394.768 16.1038 0
396.084 18.2179 0
394.863 20.3882 0
393.546 18.2741 0
394.815 18.246 0
396.037 16.0757 0
398.574 16.0193 0
398.67 20.3038 0
396.132 20.3601 0
397.306 16.0475 0
398.622 18.1616 0
397.401 20.332 0
396.084 18.2179 0
397.353 18.1898 0
398.574 16.0193 0
401.112 15.9629 0
401.207 20.2473 0
398.67 20.3038 0
399.843 15.9911 0
401.16 18.1051 0
399.939 20.2756 0
398.622 18.1616 0
399.891 18.1334 0
401.112 15.9629 0
403.65 15.9063 0
403.745 20.1908 0
401.207 20.2473 0
402.381 15.9346 0
403.698 18.0486 0
402.476 20.2191 0
401.16 18.1051 0
402.429 18.0769 0
403.65 15.9063 0
406.188 15.8496 0
406.283 20.1341 0
403.745 20.1908 0
404.919 15.878 0
406.236 17.9919 0
405.014 20.1624 0
403.698 18.0486 0
404.967 18.0202 0
406.188 15.8496 0
408.725 15.7928 0
408.821 20.0773 0
406.283 20.1341 0
407.457 15.8213 0
408.773 17.9351 0
407.552 20.1057 0
406.236 17.9919 0
407.504 17.9635 0
408.725 15.7928 0
411.263 15.7359 0
411.359 20.0204 0
408.821 20.0773 0
409.994 15.7644 0
411.311 17.8782 0
410.09 20.0489 0
408.773 17.9351 0
410.042 17.9066 0
411.263 15.7359 0
413.801 15.6789 0
413.897 19.9634 0
411.359 20.0204 0
412.532 15.7075 0
413.849 17.8212 0
412.628 19.9919 0
411.311 17.8782 0
412.58 17.8497 0
413.801 15.6789 0
416.339 15.6218 0
416.435 19.9063 0
413.897 19.9634 0
415.07 15.6504 0
416.387 17.7641 0
415.166 19.9348 0
413.849 17.8212 0
415.118 17.7926 0
416.339 15.6218 0
418.876 15.5646 0
418.973 19.8491 0
416.435 19.9063 0
417.607 15.5932 0
418.924 17.7069 0
417.704 19.8777 0
416.387 17.7641 0
417.656 17.7355 0
418.876 15.5646 0
421.414 15.5073 0
421.511 19.7918 0
418.973 19.8491 0
420.145 15.536 0
421.462 17.6495 0
420.242 19.8204 0
418.924 17.7069 0
420.193 17.6782 0
421.414 15.5073 0
423.952 15.4499 0
424.048 19.7344 0
421.511 19.7918 0
422.683 15.4786 0
424 17.5921 0
422.779 19.7631 0
421.462 17.6495 0
422.731 17.6209 0
423.952 15.4499 0
426.489 15.3924 0
426.586 19.6769 0
424.048 19.7344 0
425.22 15.4212 0
426.538 17.5347 0
425.317 19.7056 0
424 17.5921 0
425.269 17.5634 0
426.489 15.3924 0
429.027 15.3348 0
429.124 19.6193 0
426.586 19.6769 0
427.758 15.3636 0
429.075 17.4771 0
427.855 19.6481 0
426.538 17.5347 0
427.806 17.5059 0
429.027 15.3348 0
431.564 15.2772 0
431.662 19.5616 0
429.124 19.6193 0
430.296 15.306 0
431.613 17.4194 0
430.393 19.5905 0
429.075 17.4771 0
430.344 17.4483 0
431.564 15.2772 0
434.102 15.2194 0
434.199 19.5039 0
431.662 19.5616 0
432.833 15.2483 0
434.151 17.3617 0
432.931 19.5328 0
431.613 17.4194 0
432.882 17.3905 0
434.102 15.2194 0
436.64 15.1616 0
436.737 19.4461 0
434.199 19.5039 0
435.371 15.1905 0
436.688 17.3038 0
435.468 19.475 0
434.151 17.3617 0
435.42 17.3328 0
436.64 15.1616 0
439.177 15.1037 0
439.275 19.3882 0
436.737 19.4461 0
437.908 15.1327 0
439.226 17.2459 0
438.006 19.4171 0
436.688 17.3038 0
437.957 17.2749 0
439.177 15.1037 0
441.715 15.0457 0
441.813 19.3302 0
439.275 19.3882 0
440.446 15.0747 0
441.764 17.188 0
440.544 19.3592 0
439.226 17.2459 0
440.495 17.217 0
441.715 15.0457 0
444.252 14.9877 0
444.35 19.2722 0
441.813 19.3302 0
442.984 15.0167 0
444.301 17.1299 0
443.081 19.3012 0
441.764 17.188 0
443.033 17.159 0
444.252 14.9877 0
446.79 14.9296 0
446.888 19.2141 0
444.35 19.2722 0
445.521 14.9586 0
446.839 17.0718 0
445.619 19.2431 0
444.301 17.1299 0
445.57 17.1009 0
446.79 14.9296 0
449.328 14.8714 0
449.426 19.1559 0
446.888 19.2141 0
448.059 14.9005 0
449.377 17.0137 0
448.157 19.185 0
446.839 17.0718 0
448.108 17.0428 0
449.328 14.8714 0
451.865 14.8132 0
451.963 19.0977 0
449.426 19.1559 0
450.596 14.8423 0
451.914 16.9554 0
450.694 19.1268 0
449.377 17.0137 0
450.645 16.9845 0
451.865 14.8132 0
454.403 14.7549 0
454.501 19.0394 0
451.963 19.0977 0
453.134 14.784 0
454.452 16.8971 0
453.232 19.0685 0
451.914 16.9554 0
453.183 16.9263 0
454.403 14.7549 0
456.94 14.6965 0
457.039 18.981 0
454.501 19.0394 0
455.671 14.7257 0
456.989 16.8388 0
455.77 19.0102 0
454.452 16.8971 0
455.721 16.868 0
456.94 14.6965 0
459.478 14.6381 0
459.576 18.9226 0
457.039 18.981 0
458.209 14.6674 0
459.527 16.7804 0
458.307 18.9519 0
456.989 16.8388 0
458.258 16.8096 0
459.478 14.6381 0
462.015 14.5797 0
462.114 18.8642 0
459.576 18.9226 0
460.746 14.6089 0
462.064 16.722 0
460.845 18.8934 0
459.527 16.7804 0
460.796 16.7512 0
462.015 14.5797 0
464.553 14.5212 0
464.651 18.8057 0
462.114 18.8642 0
463.284 14.5505 0
464.602 16.6635 0
463.383 18.835 0
462.064 16.722 0
463.333 16.6927 0
464.553 14.5212 0
467.09 14.4627 0
467.189 18.7472 0
464.651 18.8057 0
465.821 14.492 0
467.14 16.6049 0
465.92 18.7765 0
464.602 16.6635 0
465.871 16.6342 0
467.09 14.4627 0
469.628 14.4041 0
469.726 18.6886 0
467.189 18.7472 0
468.359 14.4334 0
469.677 16.5464 0
468.458 18.7179 0
467.14 16.6049 0
468.408 16.5757 0
469.628 14.4041 0
472.165 14.3455 0
472.264 18.63 0
469.726 18.6886 0
470.896 14.3748 0
472.215 16.4878 0
470.995 18.6593 0
469.677 16.5464 0
470.946 16.5171 0
472.165 14.3455 0
474.703 14.2869 0
474.802 18.5714 0
472.264 18.63 0
473.434 14.3162 0
474.752 16.4291 0
473.533 18.6007 0
472.215 16.4878 0
473.483 16.4585 0
474.703 14.2869 0
477.24 14.2282 0
477.339 18.5127 0
474.802 18.5714 0
475.971 14.2575 0
477.29 16.3705 0
476.07 18.5421 0
474.752 16.4291 0
476.021 16.3998 0
477.24 14.2282 0
479.778 14.1695 0
479.877 18.454 0
477.339 18.5127 0
478.509 14.1989 0
479.827 16.3118 0
478.608 18.4834 0
477.29 16.3705 0
478.558 16.3411 0
479.778 14.1695 0
482.315 14.1108 0
482.414 18.3953 0
479.877 18.454 0
481.046 14.1402 0
482.365 16.2531 0
481.145 18.4247 0
479.827 16.3118 0
481.096 16.2824 0
482.315 14.1108 0
484.852 14.0521 0
484.952 18.3366 0
482.414 18.3953 0
483.584 14.0814 0
484.902 16.1943 0
483.683 18.366 0
482.365 16.2531 0
483.633 16.2237 0
484.852 14.0521 0
487.39 13.9933 0
487.489 18.2778 0
484.952 18.3366 0
486.121 14.0227 0
487.439 16.1356 0
486.22 18.3072 0
484.902 16.1943 0
486.171 16.1649 0
487.39 13.9933 0
489.927 13.9345 0
490.026 18.2191 0
487.489 18.2778 0
488.659 13.9639 0
489.977 16.0768 0
488.758 18.2485 0
487.439 16.1356 0
488.708 16.1062 0
489.927 13.9345 0
492.465 13.8757 0
492.564 18.1603 0
490.026 18.2191 0
491.196 13.9051 0
492.514 16.018 0
491.295 18.1897 0
489.977 16.0768 0
491.246 16.0474 0
492.465 13.8757 0
495.002 13.8169 0
495.101 18.1015 0
492.564 18.1603 0
493.733 13.8463 0
495.052 15.9592 0
493.833 18.1309 0
492.514 16.018 0
493.783 15.9886 0
495.002 13.8169 0
497.54 13.7581 0
497.639 18.0426 0
495.101 18.1015 0
496.271 13.7875 0
497.589 15.9004 0
496.37 18.0721 0
495.052 15.9592 0
496.32 15.9298 0
497.54 13.7581 0
500.077 13.6994 0
500.176 17.9838 0
497.639 18.0426 0
498.808 13.7287 0
500.127 15.8416 0
498.907 18.0132 0
497.589 15.9004 0
498.858 15.871 0
0 25.7143 0
2.54036 25.7136 0
2.54191 29.9981 0
0 30 0
1.27015 25.7141 0
2.54096 27.856 0
1.27113 29.9988 0
0 27.8571 0
1.27042 27.8566 0
2.54036 25.7136 0
5.08091 25.7124 0
5.08331 29.9967 0
2.54191 29.9981 0
3.81062 25.7131 0
5.08205 27.8546 0
3.81262 29.9974 0
2.54096 27.856 0
3.81151 27.8553 0
5.08091 25.7124 0
7.62148 25.7107 0
7.62473 29.9949 0
5.08331 29.9967 0
6.3512 25.7116 0
7.62309 27.8529 0
6.35401 29.9959 0
5.08205 27.8546 0
6.35257 27.8538 0
7.62148 25.7107 0
10.162 25.7085 0
10.1662 29.9927 0
7.62473 29.9949 0
8.89176 25.7097 0
10.1641 27.8507 0
8.89545 29.9939 0
7.62309 27.8529 0
8.8936 27.8519 0
10.162 25.7085 0
12.7026 25.7058 0
12.7076 29.99 0
10.1662 29.9927 0
11.4323 25.7072 0
12.7051 27.848 0
11.4369 29.9914 0
10.1641 27.8507 0
11.4346 27.8494 0
12.7026 25.7058 0
15.2431 25.7025 0
15.2491 29.9867 0
12.7076 29.99 0
13.9728 25.7042 0
15.2461 27.8446 0
13.9784 29.9884 0
12.7051 27.848 0
13.9756 27.8464 0
15.2431 25.7025 0
17.7836 25.6986 0
17.7906 29.9828 0
15.2491 29.9867 0
16.5133 25.7006 0
17.7871 27.8408 0
16.5198 29.9848 0
15.2461 27.8446 0
16.5166 27.8428 0
17.7836 25.6986 0
20.3241 25.6941 0
20.332 29.9784 0
17.7906 29.9828 0
19.0538 25.6964 0
20.328 27.8363 0
19.0613 29.9807 0
17.7871 27.8408 0
19.0576 27.8386 0
20.3241 25.6941 0
22.8646 25.6891 0
22.8735 29.9734 0
20.332 29.9784 0
21.5943 25.6917 0
22.869 27.8313 0
21.6027 29.9759 0
20.328 27.8363 0
21.5985 27.8339 0
22.8646 25.6891 0
25.405 25.6835 0
25.4149 29.9678 0
22.8735 29.9734 0
24.1348 25.6864 0
25.4099 27.8257 0
24.1442 29.9706 0
22.869 27.8313 0
24.1395 27.8286 0
25.405 25.6835 0
27.9455 25.6774 0
27.9563 29.9616 0
25.4149 29.9678 0
26.6752 25.6805 0
27.9509 27.8195 0
26.6856 29.9648 0
25.4099 27.8257 0
26.6804 27.8227 0
27.9455 25.6774 0
30.4859 25.6706 0
30.4976 29.9549 0
27.9563 29.9616 0
29.2157 25.6741 0
30.4918 27.8128 0
29.227 29.9583 0
27.9509 27.8195 0
29.2213 27.8162 0
30.4859 25.6706 0
33.0263 25.6633 0
33.039 29.9476 0
30.4976 29.9549 0
31.7561 25.667 0
33.0326 27.8055 0
31.7683 29.9513 0
30.4918 27.8128 0
31.7622 27.8092 0
33.0263 25.6633 0
35.5667 25.6555 0
35.5803 29.9398 0
33.039 29.9476 0
34.2965 25.6595 0
35.5735 27.7977 0
34.3097 29.9437 0
33.0326 27.8055 0
34.3031 27.8017 0
35.5667 25.6555 0
38.1071 25.6471 0
38.1217 29.9314 0
35.5803 29.9398 0
36.8369 25.6514 0
38.1144 27.7893 0
36.851 29.9356 0
35.5735 27.7977 0
36.8439 27.7936 0
38.1071 25.6471 0
40.6475 25.6381 0
40.663 29.9224 0
38.1217 29.9314 0
39.3773 25.6427 0
40.6552 27.7803 0
39.3923 29.927 0
38.1144 27.7893 0
39.3848 27.7849 0
40.6475 25.6381 0
43.1878 25.6286 0
43.2042 29.9129 0
40.663 29.9224 0
41.9177 25.6335 0
43.196 27.7708 0
41.9336 29.9177 0
40.6552 27.7803 0
41.9256 27.7757 0
43.1878 25.6286 0
45.7282 25.6186 0
45.7455 29.9029 0
43.2042 29.9129 0
44.458 25.6237 0
45.7368 27.7608 0
44.4749 29.908 0
43.196 27.7708 0
44.4664 27.7659 0
45.7282 25.6186 0
48.2685 25.608 0
48.2868 29.8923 0
45.7455 29.9029 0
46.9983 25.6134 0
48.2776 27.7502 0
47.0161 29.8977 0
45.7368 27.7608 0
47.0072 27.7556 0
48.2685 25.608 0
50.8088 25.5969 0
50.828 29.8812 0
48.2868 29.8923 0
49.5387 25.6025 0
50.8184 27.7391 0
49.5574 29.8868 0
48.2776 27.7502 0
49.548 27.7447 0
50.8088 25.5969 0
53.3491 25.5852 0
53.3692 29.8695 0
50.828 29.8812 0
52.079 25.5911 0
53.3591 27.7274 0
52.0986 29.8754 0
50.8184 27.7391 0
52.0888 27.7333 0
53.3491 25.5852 0
55.8894 25.573 0
55.9104 29.8573 0
53.3692 29.8695 0
54.6193 25.5792 0
55.8999 27.7152 0
54.6398 29.8635 0
53.3591 27.7274 0
54.6295 27.7214 0
55.8894 25.573 0
58.4297 25.5603 0
58.4515 29.8446 0
55.9104 29.8573 0
57.1595 25.5667 0
58.4406 27.7025 0
57.1809 29.851 0
55.8999 27.7152 0
57.1702 27.7089 0
58.4297 25.5603 0
60.9699 25.547 0
60.9926 29.8313 0
58.4515 29.8446 0
59.6998 25.5537 0
60.9813 27.6892 0
59.7221 29.838 0
58.4406 27.7025 0
59.7109 27.6959 0
60.9699 25.547 0
63.5102 25.5332 0
63.5338 29.8176 0
60.9926 29.8313 0
62.24 25.5402 0
63.5219 27.6755 0
62.2632 29.8245 0
60.9813 27.6892 0
62.2516 27.6824 0
63.5102 25.5332 0
66.0504 25.5189 0
66.0749 29.8033 0
63.5338 29.8176 0
64.7803 25.5262 0
66.0626 27.6612 0
64.8043 29.8105 0
63.5219 27.6755 0
64.7923 27.6684 0
66.0504 25.5189 0
68.5906 25.5041 0
68.6159 29.7884 0
66.0749 29.8033 0
67.3205 25.5116 0
68.6032 27.6463 0
67.3454 29.7959 0
66.0626 27.6612 0
67.3329 27.6538 0
68.5906 25.5041 0
71.1308 25.4888 0
71.157 29.7731 0
68.6159 29.7884 0
69.8607 25.4965 0
71.1439 27.631 0
69.8865 29.7808 0
68.6032 27.6463 0
69.8736 27.6387 0
71.1308 25.4888 0
73.6709 25.473 0
73.698 29.7573 0
71.157 29.7731 0
72.4009 25.4809 0
73.6845 27.6152 0
72.4275 29.7653 0
71.1439 27.631 0
72.4142 27.6232 0
73.6709 25.473 0
76.2111 25.4566 0
76.239 29.7409 0
73.698 29.7573 0
74.941 25.4648 0
76.2251 27.5988 0
74.9685 29.7492 0
73.6845 27.6152 0
74.9548 27.6071 0
76.2111 25.4566 0
78.7512 25.4397 0
78.78 29.7241 0
76.239 29.7409 0
77.4812 25.4482 0
78.7656 27.582 0
77.5095 29.7326 0
76.2251 27.5988 0
77.4953 27.5905 0
78.7512 25.4397 0
81.2914 25.4224 0
81.321 29.7067 0
78.78 29.7241 0
80.0213 25.4311 0
81.3062 27.5646 0
80.0505 29.7155 0
78.7656 27.582 0
80.0359 27.5733 0
81.2914 25.4224 0
83.8315 25.4045 0
83.862 29.6888 0
81.321 29.7067 0
82.5614 25.4135 0
83.8467 27.5467 0
82.5915 29.6978 0
81.3062 27.5646 0
82.5764 27.5557 0
83.8315 25.4045 0
86.3716 25.3862 0
86.4029 29.6705 0
83.862 29.6888 0
85.1015 25.3954 0
86.3872 27.5284 0
85.1324 29.6797 0
83.8467 27.5467 0
85.117 27.5376 0
86.3716 25.3862 0
88.9116 25.3673 0
88.9438 29.6516 0
86.4029 29.6705 0
87.6416 25.3768 0
88.9277 27.5095 0
87.6733 29.6611 0
86.3872 27.5284 0
87.6575 27.519 0
88.9116 25.3673 0
91.4517 25.348 0
91.4847 29.6323 0
88.9438 29.6516 0
90.1817 25.3577 0
91.4682 27.4902 0
90.2142 29.642 0
88.9277 27.5095 0
90.1979 27.4999 0
91.4517 25.348 0
93.9918 25.3281 0
94.0255 29.6125 0
91.4847 29.6323 0
92.7217 25.3381 0
94.0086 27.4704 0
92.7551 29.6224 0
91.4682 27.4902 0
92.7384 27.4803 0
93.9918 25.3281 0
96.5318 25.3078 0
96.5664 29.5922 0
94.0255 29.6125 0
95.2618 25.318 0
96.5491 27.45 0
95.296 29.6024 0
94.0086 27.4704 0
95.2789 27.4603 0
96.5318 25.3078 0
99.0718 25.287 0
99.1072 29.5714 0
96.5664 29.5922 0
97.8018 25.2975 0
99.0895 27.4292 0
97.8368 29.5818 0
96.5491 27.45 0
97.8193 27.4397 0
99.0718 25.287 0
101.612 25.2657 0
101.648 29.5501 0
99.1072 29.5714 0
100.342 25.2764 0
101.63 27.408 0
100.378 29.5608 0
99.0895 27.4292 0
100.36 27.4187 0
101.612 25.2657 0
104.152 25.244 0
104.189 29.5283 0
101.648 29.5501 0
102.882 25.2549 0
104.17 27.3862 0
102.918 29.5393 0
101.63 27.408 0
102.9 27.3972 0
104.152 25.244 0
106.692 25.2218 0
106.73 29.5061 0
104.189 29.5283 0
105.422 25.2329 0
106.711 27.364 0
105.459 29.5173 0
104.17 27.3862 0
105.44 27.3752 0
106.692 25.2218 0
109.232 25.1991 0
109.27 29.4834 0
106.73 29.5061 0
107.962 25.2105 0
109.251 27.3413 0
108 29.4948 0
106.711 27.364 0
107.981 27.3527 0
109.232 25.1991 0
111.772 25.1759 0
111.811 29.4603 0
109.27 29.4834 0
110.502 25.1876 0
111.791 27.3181 0
110.541 29.4719 0
109.251 27.3413 0
110.521 27.3298 0
111.772 25.1759 0
114.311 25.1523 0
114.352 29.4366 0
111.811 29.4603 0
113.042 25.1642 0
114.332 27.2945 0
113.081 29.4485 0
111.791 27.3181 0
113.061 27.3064 0
114.311 25.1523 0
116.851 25.1282 0
116.892 29.4126 0
114.352 29.4366 0
115.581 25.1403 0
116.872 27.2704 0
115.622 29.4247 0
114.332 27.2945 0
115.602 27.2825 0
116.851 25.1282 0
119.391 25.1037 0
119.433 29.388 0
116.892 29.4126 0
118.121 25.116 0
119.412 27.2459 0
118.163 29.4003 0
116.872 27.2704 0
118.142 27.2582 0
119.391 25.1037 0
121.931 25.0787 0
121.974 29.363 0
119.433 29.388 0
120.661 25.0912 0
121.952 27.2209 0
120.703 29.3756 0
119.412 27.2459 0
120.682 27.2335 0
121.931 25.0787 0
124.471 25.0532 0
124.514 29.3376 0
121.974 29.363 0
123.201 25.066 0
124.493 27.1955 0
123.244 29.3504 0
121.952 27.2209 0
123.222 27.2082 0
124.471 25.0532 0
127.011 25.0273 0
127.055 29.3117 0
124.514 29.3376 0
125.741 25.0403 0
127.033 27.1696 0
125.784 29.3247 0
124.493 27.1955 0
125.763 27.1826 0
127.011 25.0273 0
129.551 25.001 0
129.595 29.2853 0
127.055 29.3117 0
128.281 25.0142 0
129.573 27.1432 0
128.325 29.2986 0
127.033 27.1696 0
128.303 27.1564 0
129.551 25.001 0
132.09 24.9742 0
132.136 29.2586 0
129.595 29.2853 0
130.82 24.9877 0
132.113 27.1164 0
130.866 29.272 0
129.573 27.1432 0
130.843 27.1299 0
132.09 24.9742 0
134.63 24.947 0
134.676 29.2313 0
132.136 29.2586 0
133.36 24.9607 0
134.653 27.0892 0
133.406 29.245 0
132.113 27.1164 0
133.383 27.1029 0
134.63 24.947 0
137.17 24.9193 0
137.217 29.2037 0
134.676 29.2313 0
135.9 24.9332 0
137.193 27.0616 0
135.947 29.2176 0
134.653 27.0892 0
135.923 27.0754 0
137.17 24.9193 0
139.71 24.8913 0
139.757 29.1756 0
137.217 29.2037 0
138.44 24.9053 0
139.733 27.0335 0
138.487 29.1897 0
137.193 27.0616 0
138.463 27.0476 0
139.71 24.8913 0
142.249 24.8627 0
142.298 29.1471 0
139.757 29.1756 0
140.98 24.877 0
142.274 27.0049 0
141.028 29.1614 0
139.733 27.0335 0
141.004 27.0193 0
142.249 24.8627 0
144.789 24.8338 0
144.838 29.1181 0
142.298 29.1471 0
143.519 24.8483 0
144.814 26.976 0
143.568 29.1327 0
142.274 27.0049 0
143.544 26.9905 0
144.789 24.8338 0
147.329 24.8044 0
147.379 29.0888 0
144.838 29.1181 0
146.059 24.8192 0
147.354 26.9466 0
146.108 29.1035 0
144.814 26.976 0
146.084 26.9614 0
147.329 24.8044 0
149.868 24.7746 0
149.919 29.059 0
147.379 29.0888 0
148.599 24.7896 0
149.894 26.9168 0
148.649 29.0739 0
147.354 26.9466 0
148.624 26.9318 0
149.868 24.7746 0
152.408 24.7444 0
152.459 29.0288 0
149.919 29.059 0
151.138 24.7596 0
152.434 26.8866 0
151.189 29.0439 0
149.894 26.9168 0
151.164 26.9018 0
152.408 24.7444 0
154.948 24.7138 0
155 28.9981 0
152.459 29.0288 0
153.678 24.7292 0
154.974 26.856 0
153.729 29.0135 0
152.434 26.8866 0
153.704 26.8714 0
154.948 24.7138 0
157.487 24.6828 0
157.54 28.9671 0
155 28.9981 0
156.217 24.6983 0
157.514 26.825 0
156.27 28.9827 0
154.974 26.856 0
156.244 26.8405 0
157.487 24.6828 0
160.027 24.6513 0
160.08 28.9357 0
157.54 28.9671 0
158.757 24.6671 0
160.054 26.7935 0
158.81 28.9514 0
157.514 26.825 0
158.784 26.8093 0
160.027 24.6513 0
162.566 24.6195 0
162.62 28.9038 0
160.08 28.9357 0
161.297 24.6354 0
162.593 26.7617 0
161.35 28.9198 0
160.054 26.7935 0
161.324 26.7776 0
162.566 24.6195 0
165.106 24.5872 0
165.161 28.8715 0
162.62 28.9038 0
163.836 24.6034 0
165.133 26.7294 0
163.891 28.8877 0
162.593 26.7617 0
163.863 26.7456 0
165.106 24.5872 0
167.646 24.5546 0
167.701 28.8389 0
165.161 28.8715 0
166.376 24.5709 0
167.673 26.6968 0
166.431 28.8553 0
165.133 26.7294 0
166.403 26.7131 0
167.646 24.5546 0
170.185 24.5215 0
170.241 28.8058 0
167.701 28.8389 0
168.915 24.5381 0
170.213 26.6637 0
168.971 28.8224 0
167.673 26.6968 0
168.943 26.6803 0
170.185 24.5215 0
172.725 24.4881 0
172.781 28.7724 0
170.241 28.8058 0
171.455 24.5048 0
172.753 26.6303 0
171.511 28.7892 0
170.213 26.6637 0
171.483 26.647 0
172.725 24.4881 0
175.264 24.4542 0
175.321 28.7386 0
172.781 28.7724 0
173.994 24.4712 0
175.293 26.5964 0
174.051 28.7555 0
172.753 26.6303 0
174.023 26.6134 0
175.264 24.4542 0
177.804 24.42 0
177.862 28.7043 0
175.321 28.7386 0
176.534 24.4372 0
177.833 26.5622 0
176.591 28.7215 0
175.293 26.5964 0
176.563 26.5794 0
177.804 24.42 0
180.343 24.3854 0
180.402 28.6697 0
177.862 28.7043 0
179.073 24.4028 0
180.372 26.5276 0
179.132 28.6871 0
177.833 26.5622 0
179.102 26.545 0
180.343 24.3854 0
182.882 24.3504 0
182.942 28.6347 0
180.402 28.6697 0
181.613 24.368 0
182.912 26.4926 0
181.672 28.6523 0
180.372 26.5276 0
181.642 26.5102 0
182.882 24.3504 0
185.422 24.3151 0
185.482 28.5994 0
182.942 28.6347 0
184.152 24.3328 0
185.452 26.4573 0
184.212 28.6171 0
182.912 26.4926 0
184.182 26.475 0
185.422 24.3151 0
187.961 24.2793 0
188.022 28.5636 0
185.482 28.5994 0
186.692 24.2972 0
187.992 26.4215 0
186.752 28.5816 0
185.452 26.4573 0
186.722 26.4394 0
187.961 24.2793 0
190.501 24.2432 0
190.562 28.5275 0
188.022 28.5636 0
189.231 24.2613 0
190.531 26.3854 0
189.292 28.5456 0
187.992 26.4215 0
189.261 26.4035 0
190.501 24.2432 0
193.04 24.2067 0
193.102 28.491 0
190.562 28.5275 0
191.77 24.225 0
193.071 26.3489 0
191.832 28.5093 0
190.531 26.3854 0
191.801 26.3672 0
193.04 24.2067 0
195.579 24.1699 0
195.642 28.4542 0
193.102 28.491 0
194.31 24.1883 0
195.611 26.3121 0
194.372 28.4727 0
193.071 26.3489 0
194.341 26.3305 0
195.579 24.1699 0
198.119 24.1327 0
198.182 28.417 0
195.642 28.4542 0
196.849 24.1513 0
198.15 26.2749 0
196.912 28.4356 0
195.611 26.3121 0
196.88 26.2935 0
198.119 24.1327 0
200.658 24.0951 0
200.722 28.3794 0
198.182 28.417 0
199.388 24.1139 0
200.69 26.2373 0
199.452 28.3982 0
198.15 26.2749 0
199.42 26.2561 0
200.658 24.0951 0
203.197 24.0572 0
203.261 28.3415 0
200.722 28.3794 0
201.928 24.0762 0
203.229 26.1994 0
201.992 28.3605 0
200.69 26.2373 0
201.96 26.2184 0
203.197 24.0572 0
205.737 24.0189 0
205.801 28.3032 0
203.261 28.3415 0
204.467 24.0381 0
205.769 26.1611 0
204.531 28.3224 0
203.229 26.1994 0
204.499 26.1803 0
205.737 24.0189 0
208.276 23.9802 0
208.341 28.2646 0
205.801 28.3032 0
207.006 23.9996 0
208.308 26.1224 0
207.071 28.2839 0
205.769 26.1611 0
207.039 26.1418 0
208.276 23.9802 0
210.815 23.9413 0
210.881 28.2256 0
208.341 28.2646 0
209.545 23.9608 0
210.848 26.0835 0
209.611 28.2451 0
208.308 26.1224 0
209.578 26.103 0
210.815 23.9413 0
213.354 23.9019 0
213.421 28.1862 0
210.881 28.2256 0
212.085 23.9216 0
213.388 26.0441 0
212.151 28.206 0
210.848 26.0835 0
212.118 26.0638 0
213.354 23.9019 0
215.893 23.8623 0
215.961 28.1466 0
213.421 28.1862 0
214.624 23.8821 0
215.927 26.0045 0
214.691 28.1665 0
213.388 26.0441 0
214.657 26.0243 0
215.893 23.8623 0
218.433 23.8223 0
218.5 28.1066 0
215.961 28.1466 0
217.163 23.8423 0
218.466 25.9644 0
217.23 28.1266 0
215.927 26.0045 0
217.197 25.9845 0
218.433 23.8223 0
220.972 23.7819 0
221.04 28.0662 0
218.5 28.1066 0
219.702 23.8021 0
221.006 25.9241 0
219.77 28.0864 0
218.466 25.9644 0
219.736 25.9443 0
220.972 23.7819 0
223.511 23.7412 0
223.58 28.0255 0
221.04 28.0662 0
222.241 23.7616 0
223.545 25.8834 0
222.31 28.0459 0
221.006 25.9241 0
222.276 25.9038 0
223.511 23.7412 0
226.05 23.7002 0
226.119 27.9845 0
223.58 28.0255 0
224.78 23.7208 0
226.085 25.8424 0
224.85 28.0051 0
223.545 25.8834 0
224.815 25.863 0
226.05 23.7002 0
228.589 23.6589 0
228.659 27.9432 0
226.119 27.9845 0
227.32 23.6796 0
228.624 25.8011 0
227.389 27.9639 0
226.085 25.8424 0
227.354 25.8218 0
228.589 23.6589 0
231.128 23.6172 0
231.199 27.9015 0
228.659 27.9432 0
229.859 23.6381 0
231.163 25.7594 0
229.929 27.9224 0
228.624 25.8011 0
229.894 25.7803 0
231.128 23.6172 0
233.667 23.5753 0
233.738 27.8596 0
231.199 27.9015 0
232.398 23.5963 0
233.703 25.7174 0
232.469 27.8806 0
231.163 25.7594 0
232.433 25.7385 0
233.667 23.5753 0
236.206 23.533 0
236.278 27.8173 0
233.738 27.8596 0
234.937 23.5541 0
236.242 25.6751 0
235.008 27.8385 0
233.703 25.7174 0
234.972 25.6963 0
236.206 23.533 0
238.745 23.4903 0
238.818 27.7747 0
236.278 27.8173 0
237.476 23.5117 0
238.781 25.6325 0
237.548 27.796 0
236.242 25.6751 0
237.512 25.6539 0
238.745 23.4903 0
241.284 23.4474 0
241.357 27.7317 0
238.818 27.7747 0
240.015 23.4689 0
241.321 25.5896 0
240.087 27.7532 0
238.781 25.6325 0
240.051 25.6111 0
241.284 23.4474 0
243.823 23.4042 0
243.897 27.6885 0
241.357 27.7317 0
242.554 23.4258 0
243.86 25.5464 0
242.627 27.7102 0
241.321 25.5896 0
242.59 25.568 0
243.823 23.4042 0
246.362 23.3607 0
246.436 27.645 0
243.897 27.6885 0
245.093 23.3825 0
246.399 25.5028 0
245.166 27.6668 0
243.86 25.5464 0
245.13 25.5246 0
246.362 23.3607 0
248.901 23.3168 0
248.976 27.6011 0
246.436 27.645 0
247.632 23.3388 0
248.938 25.459 0
247.706 27.6231 0
246.399 25.5028 0
247.669 25.481 0
248.901 23.3168 0
251.44 23.2727 0
251.515 27.557 0
248.976 27.6011 0
250.171 23.2948 0
251.478 25.4149 0
250.245 27.5791 0
248.938 25.459 0
250.208 25.437 0
251.44 23.2727 0
253.979 23.2282 0
254.054 27.5125 0
251.515 27.557 0
252.71 23.2505 0
254.017 25.3704 0
252.785 27.5348 0
251.478 25.4149 0
252.747 25.3927 0
253.979 23.2282 0
256.518 23.1835 0
256.594 27.4678 0
254.054 27.5125 0
255.249 23.2059 0
256.556 25.3257 0
255.324 27.4902 0
254.017 25.3704 0
255.286 25.3481 0
256.518 23.1835 0
259.057 23.1385 0
259.133 27.4228 0
256.594 27.4678 0
257.788 23.161 0
259.095 25.2807 0
257.864 27.4453 0
256.556 25.3257 0
257.826 25.3032 0
259.057 23.1385 0
261.596 23.0932 0
261.673 27.3775 0
259.133 27.4228 0
260.326 23.1159 0
261.634 25.2354 0
260.403 27.4002 0
259.095 25.2807 0
260.365 25.2581 0
261.596 23.0932 0
264.135 23.0476 0
264.212 27.3319 0
261.673 27.3775 0
262.865 23.0704 0
264.173 25.1898 0
262.942 27.3547 0
261.634 25.2354 0
262.904 25.2126 0
264.135 23.0476 0
266.674 23.0017 0
266.751 27.286 0
264.212 27.3319 0
265.404 23.0247 0
266.712 25.1439 0
265.482 27.309 0
264.173 25.1898 0
265.443 25.1669 0
266.674 23.0017 0
269.212 22.9556 0
269.29 27.2399 0
266.751 27.286 0
267.943 22.9787 0
269.251 25.0977 0
268.021 27.263 0
266.712 25.1439 0
267.982 25.1209 0
269.212 22.9556 0
271.751 22.9091 0
271.83 27.1934 0
269.29 27.2399 0
270.482 22.9324 0
271.79 25.0513 0
270.56 27.2167 0
269.251 25.0977 0
270.521 25.0746 0
271.751 22.9091 0
274.29 22.8624 0
274.369 27.1467 0
271.83 27.1934 0
273.021 22.8858 0
274.329 25.0046 0
273.099 27.1701 0
271.79 25.0513 0
273.06 25.028 0
274.29 22.8624 0
276.829 22.8155 0
276.908 27.0998 0
274.369 27.1467 0
275.559 22.839 0
276.868 24.9577 0
275.639 27.1233 0
274.329 25.0046 0
275.599 24.9812 0
276.829 22.8155 0
279.368 22.7682 0
279.447 27.0525 0
276.908 27.0998 0
278.098 22.7919 0
279.407 24.9104 0
278.178 27.0762 0
276.868 24.9577 0
278.138 24.9341 0
279.368 22.7682 0
281.906 22.7207 0
281.987 27.005 0
279.447 27.0525 0
280.637 22.7445 0
281.946 24.8629 0
280.717 27.0288 0
279.407 24.9104 0
280.677 24.8867 0
281.906 22.7207 0
284.445 22.673 0
284.526 26.9573 0
281.987 27.005 0
283.176 22.6969 0
284.485 24.8152 0
283.256 26.9812 0
281.946 24.8629 0
283.216 24.8391 0
284.445 22.673 0
286.984 22.625 0
287.065 26.9093 0
284.526 26.9573 0
285.714 22.649 0
287.024 24.7671 0
285.795 26.9333 0
284.485 24.8152 0
285.755 24.7912 0
286.984 22.625 0
289.522 22.5767 0
289.604 26.861 0
287.065 26.9093 0
288.253 22.6009 0
289.563 24.7189 0
288.334 26.8852 0
287.024 24.7671 0
288.294 24.743 0
289.522 22.5767 0
292.061 22.5282 0
292.143 26.8125 0
289.604 26.861 0
290.792 22.5525 0
292.102 24.6704 0
290.874 26.8368 0
289.563 24.7189 0
290.833 24.6946 0
292.061 22.5282 0
294.6 22.4794 0
294.682 26.7637 0
292.143 26.8125 0
293.33 22.5038 0
294.641 24.6216 0
293.413 26.7881 0
292.102 24.6704 0
293.371 24.646 0
294.6 22.4794 0
297.138 22.4304 0
297.221 26.7147 0
294.682 26.7637 0
295.869 22.4549 0
297.18 24.5726 0
295.952 26.7392 0
294.641 24.6216 0
295.91 24.5971 0
297.138 22.4304 0
299.677 22.3812 0
299.76 26.6654 0
297.221 26.7147 0
298.408 22.4058 0
299.719 24.5233 0
298.491 26.6901 0
297.18 24.5726 0
298.449 24.548 0
299.677 22.3812 0
302.216 22.3317 0
302.299 26.6159 0
299.76 26.6654 0
300.946 22.3564 0
302.257 24.4738 0
301.03 26.6407 0
299.719 24.5233 0
300.988 24.4986 0
302.216 22.3317 0
304.754 22.2819 0
304.838 26.5662 0
302.299 26.6159 0
303.485 22.3068 0
304.796 24.4241 0
303.569 26.5911 0
302.257 24.4738 0
303.527 24.449 0
304.754 22.2819 0
307.293 22.232 0
307.377 26.5163 0
304.838 26.5662 0
306.023 22.257 0
307.335 24.3741 0
306.108 26.5413 0
304.796 24.4241 0
306.065 24.3991 0
307.293 22.232 0
309.831 22.1818 0
309.916 26.4661 0
307.377 26.5163 0
308.562 22.2069 0
309.874 24.3239 0
308.647 26.4912 0
307.335 24.3741 0
308.604 24.3491 0
309.831 22.1818 0
312.37 22.1314 0
312.455 26.4156 0
309.916 26.4661 0
311.1 22.1566 0
312.412 24.2735 0
311.185 26.4409 0
309.874 24.3239 0
311.143 24.2988 0
312.37 22.1314 0
314.908 22.0807 0
314.994 26.365 0
312.455 26.4156 0
313.639 22.1061 0
314.951 24.2229 0
313.724 26.3904 0
312.412 24.2735 0
313.682 24.2482 0
314.908 22.0807 0
317.447 22.0298 0
317.533 26.3141 0
314.994 26.365 0
316.177 22.0553 0
317.49 24.172 0
316.263 26.3396 0
314.951 24.2229 0
316.22 24.1975 0
317.447 22.0298 0
319.985 21.9788 0
320.071 26.2631 0
317.533 26.3141 0
318.716 22.0043 0
320.028 24.1209 0
318.802 26.2886 0
317.49 24.172 0
318.759 24.1465 0
319.985 21.9788 0
322.524 21.9275 0
322.61 26.2118 0
320.071 26.2631 0
321.254 21.9531 0
322.567 24.0696 0
321.341 26.2374 0
320.028 24.1209 0
321.298 24.0953 0
322.524 21.9275 0
325.062 21.876 0
325.149 26.1603 0
322.61 26.2118 0
323.793 21.9017 0
325.106 24.0181 0
323.88 26.186 0
322.567 24.0696 0
323.836 24.0439 0
325.062 21.876 0
327.6 21.8242 0
327.688 26.1085 0
325.149 26.1603 0
326.331 21.8501 0
327.644 23.9664 0
326.418 26.1344 0
325.106 24.0181 0
326.375 23.9923 0
327.6 21.8242 0
330.139 21.7723 0
330.227 26.0566 0
327.688 26.1085 0
328.87 21.7983 0
330.183 23.9145 0
328.957 26.0826 0
327.644 23.9664 0
328.913 23.9405 0
330.139 21.7723 0
332.677 21.7202 0
332.765 26.0045 0
330.227 26.0566 0
331.408 21.7463 0
332.721 23.8624 0
331.496 26.0306 0
330.183 23.9145 0
331.452 23.8885 0
332.677 21.7202 0
335.216 21.6679 0
335.304 25.9522 0
332.765 26.0045 0
333.946 21.6941 0
335.26 23.81 0
334.035 25.9784 0
332.721 23.8624 0
333.991 23.8362 0
335.216 21.6679 0
337.754 21.6154 0
337.843 25.8997 0
335.304 25.9522 0
336.485 21.6416 0
337.798 23.7575 0
336.573 25.9259 0
335.26 23.81 0
336.529 23.7838 0
337.754 21.6154 0
340.292 21.5626 0
340.381 25.8469 0
337.843 25.8997 0
339.023 21.589 0
340.337 23.7048 0
339.112 25.8733 0
337.798 23.7575 0
339.068 23.7312 0
340.292 21.5626 0
342.831 21.5097 0
342.92 25.794 0
340.381 25.8469 0
341.561 21.5362 0
342.875 23.6519 0
341.651 25.8205 0
340.337 23.7048 0
341.606 23.6784 0
342.831 21.5097 0
345.369 21.4566 0
345.459 25.7409 0
342.92 25.794 0
344.1 21.4832 0
345.414 23.5988 0
344.189 25.7675 0
342.875 23.6519 0
344.145 23.6254 0
345.369 21.4566 0
347.907 21.4034 0
347.997 25.6877 0
345.459 25.7409 0
346.638 21.43 0
347.952 23.5455 0
346.728 25.7143 0
345.414 23.5988 0
346.683 23.5722 0
347.907 21.4034 0
350.445 21.3499 0
350.536 25.6342 0
347.997 25.6877 0
349.176 21.3767 0
350.491 23.4921 0
349.267 25.661 0
347.952 23.5455 0
349.221 23.5188 0
350.445 21.3499 0
352.984 21.2963 0
353.074 25.5806 0
350.536 25.6342 0
351.715 21.3231 0
353.029 23.4384 0
351.805 25.6074 0
350.491 23.4921 0
351.76 23.4653 0
352.984 21.2963 0
355.522 21.2425 0
355.613 25.5268 0
353.074 25.5806 0
354.253 21.2694 0
355.567 23.3846 0
354.344 25.5537 0
353.029 23.4384 0
354.298 23.4116 0
355.522 21.2425 0
358.06 21.1885 0
358.151 25.4728 0
355.613 25.5268 0
356.791 21.2155 0
358.106 23.3307 0
356.882 25.4998 0
355.567 23.3846 0
356.837 23.3577 0
358.06 21.1885 0
360.598 21.1343 0
360.69 25.4186 0
358.151 25.4728 0
359.329 21.1614 0
360.644 23.2765 0
359.421 25.4457 0
358.106 23.3307 0
359.375 23.3036 0
360.598 21.1343 0
363.137 21.08 0
363.228 25.3643 0
360.69 25.4186 0
361.868 21.1072 0
363.182 23.2222 0
361.959 25.3915 0
360.644 23.2765 0
361.913 23.2494 0
363.137 21.08 0
365.675 21.0255 0
365.767 25.3098 0
363.228 25.3643 0
364.406 21.0528 0
365.721 23.1677 0
364.498 25.3371 0
363.182 23.2222 0
364.452 23.195 0
365.675 21.0255 0
368.213 20.9709 0
368.305 25.2552 0
365.767 25.3098 0
366.944 20.9982 0
368.259 23.1131 0
367.036 25.2825 0
365.721 23.1677 0
366.99 23.1404 0
368.213 20.9709 0
370.751 20.9161 0
370.844 25.2004 0
368.305 25.2552 0
369.482 20.9435 0
370.797 23.0583 0
369.574 25.2278 0
368.259 23.1131 0
369.528 23.0857 0
370.751 20.9161 0
373.289 20.8611 0
373.382 25.1455 0
370.844 25.2004 0
372.02 20.8886 0
373.336 23.0033 0
372.113 25.1729 0
370.797 23.0583 0
372.066 23.0308 0
373.289 20.8611 0
375.827 20.806 0
375.92 25.0904 0
373.382 25.1455 0
374.558 20.8336 0
375.874 22.9482 0
374.651 25.1179 0
373.336 23.0033 0
374.605 22.9758 0
375.827 20.806 0
378.365 20.7508 0
378.459 25.0351 0
375.92 25.0904 0
377.096 20.7784 0
378.412 22.893 0
377.19 25.0627 0
375.874 22.9482 0
377.143 22.9206 0
378.365 20.7508 0
380.903 20.6954 0
380.997 24.9797 0
378.459 25.0351 0
379.634 20.7231 0
380.95 22.8376 0
379.728 25.0074 0
378.412 22.893 0
379.681 22.8653 0
380.903 20.6954 0
383.442 20.6398 0
383.535 24.9242 0
380.997 24.9797 0
382.172 20.6676 0
383.488 22.782 0
382.266 24.952 0
380.95 22.8376 0
382.219 22.8098 0
383.442 20.6398 0
385.98 20.5842 0
386.074 24.8685 0
383.535 24.9242 0
384.711 20.612 0
386.027 22.7263 0
384.804 24.8963 0
383.488 22.782 0
384.757 22.7542 0
385.98 20.5842 0
388.518 20.5283 0
388.612 24.8127 0
386.074 24.8685 0
387.249 20.5563 0
388.565 22.6705 0
387.343 24.8406 0
386.027 22.7263 0
387.296 22.6985 0
388.518 20.5283 0
391.056 20.4724 0
391.15 24.7567 0
388.612 24.8127 0
389.787 20.5004 0
391.103 22.6146 0
389.881 24.7847 0
388.565 22.6705 0
389.834 22.6426 0
391.056 20.4724 0
393.594 20.4163 0
393.688 24.7007 0
391.15 24.7567 0
392.325 20.4444 0
393.641 22.5585 0
392.419 24.7287 0
391.103 22.6146 0
392.372 22.5866 0
393.594 20.4163 0
396.132 20.3601 0
396.226 24.6445 0
393.688 24.7007 0
394.863 20.3882 0
396.179 22.5023 0
394.957 24.6726 0
393.641 22.5585 0
394.91 22.5304 0
396.132 20.3601 0
398.67 20.3038 0
398.765 24.5881 0
396.226 24.6445 0
397.401 20.332 0
398.717 22.446 0
397.496 24.6163 0
396.179 22.5023 0
397.448 22.4742 0
398.67 20.3038 0
401.207 20.2473 0
401.303 24.5317 0
398.765 24.5881 0
399.939 20.2756 0
401.255 22.3895 0
400.034 24.5599 0
398.717 22.446 0
399.986 22.4178 0
401.207 20.2473 0
403.745 20.1908 0
403.841 24.4751 0
401.303 24.5317 0
402.476 20.2191 0
403.793 22.333 0
402.572 24.5034 0
401.255 22.3895 0
402.524 22.3613 0
403.745 20.1908 0
406.283 20.1341 0
406.379 24.4185 0
403.841 24.4751 0
405.014 20.1624 0
406.331 22.2763 0
405.11 24.4468 0
403.793 22.333 0
405.062 22.3046 0
406.283 20.1341 0
408.821 20.0773 0
408.917 24.3617 0
406.379 24.4185 0
407.552 20.1057 0
408.869 22.2195 0
407.648 24.3901 0
406.331 22.2763 0
407.6 22.2479 0
408.821 20.0773 0
411.359 20.0204 0
411.455 24.3048 0
408.917 24.3617 0
410.09 20.0489 0
411.407 22.1626 0
410.186 24.3332 0
408.869 22.2195 0
410.138 22.1911 0
411.359 20.0204 0
413.897 19.9634 0
413.993 24.2478 0
411.455 24.3048 0
412.628 19.9919 0
413.945 22.1056 0
412.724 24.2763 0
411.407 22.1626 0
412.676 22.1341 0
413.897 19.9634 0
416.435 19.9063 0
416.531 24.1907 0
413.993 24.2478 0
415.166 19.9348 0
416.483 22.0485 0
415.262 24.2192 0
413.945 22.1056 0
415.214 22.077 0
416.435 19.9063 0
418.973 19.8491 0
419.069 24.1334 0
416.531 24.1907 0
417.704 19.8777 0
419.021 21.9913 0
417.8 24.1621 0
416.483 22.0485 0
417.752 22.0199 0
418.973 19.8491 0
421.511 19.7918 0
421.607 24.0761 0
419.069 24.1334 0
420.242 19.8204 0
421.559 21.934 0
420.338 24.1048 0
419.021 21.9913 0
420.29 21.9626 0
421.511 19.7918 0
424.048 19.7344 0
424.145 24.0188 0
421.607 24.0761 0
422.779 19.7631 0
424.097 21.8766 0
422.876 24.0475 0
421.559 21.934 0
422.828 21.9053 0
424.048 19.7344 0
426.586 19.6769 0
426.683 23.9613 0
424.145 24.0188 0
425.317 19.7056 0
426.635 21.8191 0
425.414 23.99 0
424.097 21.8766 0
425.366 21.8478 0
426.586 19.6769 0
429.124 19.6193 0
429.221 23.9037 0
426.683 23.9613 0
427.855 19.6481 0
429.173 21.7615 0
427.952 23.9325 0
426.635 21.8191 0
427.904 21.7903 0
429.124 19.6193 0
431.662 19.5616 0
431.759 23.846 0
429.221 23.9037 0
430.393 19.5905 0
431.71 21.7038 0
430.49 23.8749 0
429.173 21.7615 0
430.441 21.7327 0
431.662 19.5616 0
434.199 19.5039 0
434.297 23.7883 0
431.759 23.846 0
432.931 19.5328 0
434.248 21.6461 0
433.028 23.8172 0
431.71 21.7038 0
432.979 21.675 0
434.199 19.5039 0
436.737 19.4461 0
436.835 23.7305 0
434.297 23.7883 0
435.468 19.475 0
436.786 21.5883 0
435.566 23.7594 0
434.248 21.6461 0
435.517 21.6172 0
436.737 19.4461 0
439.275 19.3882 0
439.373 23.6726 0
436.835 23.7305 0
438.006 19.4171 0
439.324 21.5304 0
438.104 23.7015 0
436.786 21.5883 0
438.055 21.5593 0
439.275 19.3882 0
441.813 19.3302 0
441.91 23.6146 0
439.373 23.6726 0
440.544 19.3592 0
441.862 21.4724 0
440.642 23.6436 0
439.324 21.5304 0
440.593 21.5014 0
441.813 19.3302 0
444.35 19.2722 0
444.448 23.5566 0
441.91 23.6146 0
443.081 19.3012 0
444.399 21.4144 0
443.179 23.5856 0
441.862 21.4724 0
443.13 21.4434 0
444.35 19.2722 0
446.888 19.2141 0
446.986 23.4985 0
444.448 23.5566 0
445.619 19.2431 0
446.937 21.3563 0
445.717 23.5275 0
444.399 21.4144 0
445.668 21.3853 0
446.888 19.2141 0
449.426 19.1559 0
449.524 23.4403 0
446.986 23.4985 0
448.157 19.185 0
449.475 21.2981 0
448.255 23.4694 0
446.937 21.3563 0
448.206 21.3272 0
449.426 19.1559 0
451.963 19.0977 0
452.062 23.3821 0
449.524 23.4403 0
450.694 19.1268 0
452.012 21.2399 0
450.793 23.4112 0
449.475 21.2981 0
450.744 21.269 0
451.963 19.0977 0
454.501 19.0394 0
454.599 23.3238 0
452.062 23.3821 0
453.232 19.0685 0
454.55 21.1816 0
453.33 23.353 0
452.012 21.2399 0
453.281 21.2108 0
454.501 19.0394 0
457.039 18.981 0
457.137 23.2655 0
454.599 23.3238 0
455.77 19.0102 0
457.088 21.1233 0
455.868 23.2947 0
454.55 21.1816 0
455.819 21.1524 0
457.039 18.981 0
459.576 18.9226 0
459.675 23.2071 0
457.137 23.2655 0
458.307 18.9519 0
459.625 21.0649 0
458.406 23.2363 0
457.088 21.1233 0
458.357 21.0941 0
459.576 18.9226 0
462.114 18.8642 0
462.212 23.1487 0
459.675 23.2071 0
460.845 18.8934 0
462.163 21.0064 0
460.944 23.1779 0
459.625 21.0649 0
460.894 21.0357 0
462.114 18.8642 0
464.651 18.8057 0
464.75 23.0902 0
462.212 23.1487 0
463.383 18.835 0
464.701 20.948 0
463.481 23.1194 0
462.163 21.0064 0
463.432 20.9772 0
464.651 18.8057 0
467.189 18.7472 0
467.288 23.0317 0
464.75 23.0902 0
465.92 18.7765 0
467.238 20.8894 0
466.019 23.0609 0
464.701 20.948 0
465.97 20.9187 0
467.189 18.7472 0
469.726 18.6886 0
469.825 22.9731 0
467.288 23.0317 0
468.458 18.7179 0
469.776 20.8309 0
468.557 23.0024 0
467.238 20.8894 0
468.507 20.8602 0
469.726 18.6886 0
472.264 18.63 0
472.363 22.9145 0
469.825 22.9731 0
470.995 18.6593 0
472.313 20.7723 0
471.094 22.9438 0
469.776 20.8309 0
471.045 20.8016 0
472.264 18.63 0
474.802 18.5714 0
474.901 22.8559 0
472.363 22.9145 0
473.533 18.6007 0
474.851 20.7136 0
473.632 22.8852 0
472.313 20.7723 0
473.582 20.743 0
474.802 18.5714 0
477.339 18.5127 0
477.438 22.7972 0
474.901 22.8559 0
476.07 18.5421 0
477.389 20.655 0
476.169 22.8266 0
474.851 20.7136 0
476.12 20.6843 0
477.339 18.5127 0
479.877 18.454 0
479.976 22.7386 0
477.438 22.7972 0
478.608 18.4834 0
479.926 20.5963 0
478.707 22.7679 0
477.389 20.655 0
478.657 20.6256 0
479.877 18.454 0
482.414 18.3953 0
482.513 22.6798 0
479.976 22.7386 0
481.145 18.4247 0
482.464 20.5376 0
481.244 22.7092 0
479.926 20.5963 0
481.195 20.5669 0
482.414 18.3953 0
484.952 18.3366 0
485.051 22.6211 0
482.513 22.6798 0
483.683 18.366 0
485.001 20.4789 0
483.782 22.6505 0
482.464 20.5376 0
483.732 20.5082 0
484.952 18.3366 0
487.489 18.2778 0
487.588 22.5624 0
485.051 22.6211 0
486.22 18.3072 0
487.539 20.4201 0
486.319 22.5917 0
485.001 20.4789 0
486.27 20.4495 0
487.489 18.2778 0
490.026 18.2191 0
490.126 22.5036 0
487.588 22.5624 0
488.758 18.2485 0
490.076 20.3613 0
488.857 22.533 0
487.539 20.4201 0
488.807 20.3907 0
490.026 18.2191 0
492.564 18.1603 0
492.663 22.4448 0
490.126 22.5036 0
491.295 18.1897 0
492.613 20.3026 0
491.394 22.4742 0
490.076 20.3613 0
491.345 20.332 0
492.564 18.1603 0
495.101 18.1015 0
495.201 22.386 0
492.663 22.4448 0
493.833 18.1309 0
495.151 20.2437 0
493.932 22.4154 0
492.613 20.3026 0
493.882 20.2732 0
495.101 18.1015 0
497.639 18.0426 0
497.738 22.3272 0
495.201 22.386 0
496.37 18.0721 0
497.688 20.1849 0
496.469 22.3566 0
495.151 20.2437 0
496.42 20.2143 0
497.639 18.0426 0
500.176 17.9838 0
500.276 22.2681 0
497.738 22.3272 0
498.907 18.0132 0
500.226 20.1259 0
499.007 22.2977 0
497.688 20.1849 0
498.957 20.1554 0
      </DataArray>
    </Points>
    <Cells>
      <DataArray type="Int32" Name="connectivity" format="ascii">
0 1 2 3 4 5 6 7 8 
9 10 11 12 13 14 15 16 17 
18 19 20 21 22 23 24 25 26 
27 28 29 30 31 32 33 34 35 
36 37 38 39 40 41 42 43 44 
45 46 47 48 49 50 51 52 53 
54 55 56 57 58 59 60 61 62 
63 64 65 66 67 68 69 70 71 
72 73 74 75 76 77 78 79 80 
81 82 83 84 85 86 87 88 89 
90 91 92 93 94 95 96 97 98 
99 100 101 102 103 104 105 106 107 
108 109 110 111 112 113 114 115 116 
117 118 119 120 121 122 123 124 125 
126 127 128 129 130 131 132 133 134 
135 136 137 138 139 140 141 142 143 
144 145 146 147 148 149 150 151 152 
153 154 155 156 157 158 159 160 161 
162 163 164 165 166 167 168 169 170 
171 172 173 174 175 176 177 178 179 
180 181 182 183 184 185 186 187 188 
189 190 191 192 193 194 195 196 197 
198 199 200 201 202 203 204 205 206 
207 208 209 210 211 212 213 214 215 
216 217 218 219 220 221 222 223 224 
225 226 227 228 229 230 231 232 233 
234 235 236 237 238 239 240 241 242 
243 244 245 246 247 248 249 250 251 
252 253 254 255 256 257 258 259 260 
261 262 263 264 265 266 267 268 269 
270 271 272 273 274 275 276 277 278 
279 280 281 282 283 284 285 286 287 
288 289 290 291 292 293 294 295 296 
297 298 299 300 301 302 303 304 305 
306 307 308 309 310 311 312 313 314 
315 316 317 318 319 320 321 322 323 
324 325 326 327 328 329 330 331 332 
333 334 335 336 337 338 339 340 341 
342 343 344 345 346 347 348 349 350 
351 352 353 354 355 356 357 358 359 
360 361 362 363 364 365 366 367 368 
369 370 371 372 373 374 375 376 377 
378 379 380 381 382 383 384 385 386 
387 388 389 390 391 392 393 394 395 
396 397 398 399 400 401 402 403 404 
405 406 407 408 409 410 411 412 413 
414 415 416 417 418 419 420 421 422 
423 424 425 426 427 428 429 430 431 
432 433 434 435 436 437 438 439 440 
441 442 443 444 445 446 447 448 449 
450 451 452 453 454 455 456 457 458 
459 460 461 462 463 464 465 466 467 
468 469 470 471 472 473 474 475 476 
477 478 479 480 481 482 483 484 485 
486 487 488 489 490 491 492 493 494 
495 496 497 498 499 500 501 502 503 
504 505 506 507 508 509 510 511 512 
513 514 515 516 517 518 519 520 521 
522 523 524 525 526 527 528 529 530 
531 532 533 534 535 536 537 538 539 
540 541 542 543 544 545 546 547 548 
549 550 551 552 553 554 555 556 557 
558 559 560 561 562 563 564 565 566 
567 568 569 570 571 572 573 574 575 
576 577 578 579 580 581 582 583 584 
585 586 587 588 589 590 591 592 593 
594 595 596 597 598 599 600 601 602 
603 604 605 606 607 608 609 610 611 
612 613 614 615 616 617 618 619 620 
621 622 623 624 625 626 627 628 629 
630 631 632 633 634 635 636 637 638 
639 640 641 642 643 644 645 646 647 
648 649 650 651 652 653 654 655 656 
657 658 659 660 661 662 663 664 665 
666 667 668 669 670 671 672 673 674 
675 676 677 678 679 680 681 682 683 
684 685 686 687 688 689 690 691 692 
693 694 695 696 697 698 699 700 701 
702 703 704 705 706 707 708 709 710 
711 712 713 714 715 716 717 718 719 
720 721 722 723 724 725 726 727 728 
729 730 731 732 733 734 735 736 737 
738 739 740 741 742 743 744 745 746 
747 748 749 750 751 752 753 754 755 
756 757 758 759 760 761 762 763 764 
765 766 767 768 769 770 771 772 773 
774 775 776 777 778 779 780 781 782 
783 784 785 786 787 788 789 790 791 
792 793 794 795 796 797 798 799 800 
801 802 803 804 805 806 807 808 809 
810 811 812 813 814 815 816 817 818 
819 820 821 822 823 824 825 826 827 
828 829 830 831 832 833 834 835 836 
837 838 839 840 841 842 843 844 845 
846 847 848 849 850 851 852 853 854 
855 856 857 858 859 860 861 862 863 
864 865 866 867 868 869 870 871 872 
873 874 875 876 877 878 879 880 881 
882 883 884 885 886 887 888 889 890 
891 892 893 894 895 896 897 898 899 
900 901 902 903 904 905 906 907 908 
909 910 911 912 913 914 915 916 917 
918 919 920 921 922 923 924 925 926 
927 928 929 930 931 932 933 934 935 
936 937 938 939 940 941 942 943 944 
945 946 947 948 949 950 951 952 953 
954 955 956 957 958 959 960 961 962 
963 964 965 966 967 968 969 970 971 
972 973 974 975 976 977 978 979 980 
981 982 983 984 985 986 987 988 989 
990 991 992 993 994 995 996 997 998 
999 1000 1001 1002 1003 1004 1005 1006 1007 
1008 1009 1010 1011 1012 1013 1014 1015 1016 
1017 1018 1019 1020 1021 1022 1023 1024 1025 
1026 1027 1028 1029 1030 1031 1032 1033 1034 
1035 1036 1037 1038 1039 1040 1041 1042 1043 
1044 1045 1046 1047 1048 1049 1050 1051 1052 
1053 1054 1055 1056 1057 1058 1059 1060 1061 
1062 1063 1064 1065 1066 1067 1068 1069 1070 
1071 1072 1073 1074 1075 1076 1077 1078 1079 
1080 1081 1082 1083 1084 1085 1086 1087 1088 
1089 1090 1091 1092 1093 1094 1095 1096 1097 
1098 1099 1100 1101 1102 1103 1104 1105 1106 
1107 1108 1109 1110 1111 1112 1113 1114 1115 
1116 1117 1118 1119 1120 1121 1122 1123 1124 
1125 1126 1127 1128 1129 1130 1131 1132 1133 
1134 1135 1136 1137 1138 1139 1140 1141 1142 
1143 1144 1145 1146 1147 1148 1149 1150 1151 
1152 1153 1154 1155 1156 1157 1158 1159 1160 
1161 1162 1163 1164 1165 1166 1167 1168 1169 
1170 1171 1172 1173 1174 1175 1176 1177 1178 
1179 1180 1181 1182 1183 1184 1185 1186 1187 
1188 1189 1190 1191 1192 1193 1194 1195 1196 
1197 1198 1199 1200 1201 1202 1203 1204 1205 
1206 1207 1208 1209 1210 1211 1212 1213 1214 
1215 1216 1217 1218 1219 1220 1221 1222 1223 
1224 1225 1226 1227 1228 1229 1230 1231 1232 
1233 1234 1235 1236 1237 1238 1239 1240 1241 
1242 1243 1244 1245 1246 1247 1248 1249 1250 
1251 1252 1253 1254 1255 1256 1257 1258 1259 
1260 1261 1262 1263 1264 1265 1266 1267 1268 
1269 1270 1271 1272 1273 1274 1275 1276 1277 
1278 1279 1280 1281 1282 1283 1284 1285 1286 
1287 1288 1289 1290 1291 1292 1293 1294 1295 
1296 1297 1298 1299 1300 1301 1302 1303 1304 
1305 1306 1307 1308 1309 1310 1311 1312 1313 
1314 1315 1316 1317 1318 1319 1320 1321 1322 
1323 1324 1325 1326 1327 1328 1329 1330 1331 
1332 1333 1334 1335 1336 1337 1338 1339 1340 
1341 1342 1343 1344 1345 1346 1347 1348 1349 
1350 1351 1352 1353 1354 1355 1356 1357 1358 
1359 1360 1361 1362 1363 1364 1365 1366 1367 
1368 1369 1370 1371 1372 1373 1374 1375 1376 
1377 1378 1379 1380 1381 1382 1383 1384 1385 
1386 1387 1388 1389 1390 1391 1392 1393 1394 
1395 1396 1397 1398 1399 1400 1401 1402 1403 
1404 1405 1406 1407 1408 1409 1410 1411 1412 
1413 1414 1415 1416 1417 1418 1419 1420 1421 
1422 1423 1424 1425 1426 1427 1428 1429 1430 
1431 1432 1433 1434 1435 1436 1437 1438 1439 
1440 1441 1442 1443 1444 1445 1446 1447 1448 
1449 1450 1451 1452 1453 1454 1455 1456 1457 
1458 1459 1460 1461 1462 1463 1464 1465 1466 
1467 1468 1469 1470 1471 1472 1473 1474 1475 
1476 1477 1478 1479 1480 1481 1482 1483 1484 
1485 1486 1487 1488 1489 1490 1491 1492 1493 
1494 1495 1496 1497 1498 1499 1500 1501 1502 
1503 1504 1505 1506 1507 1508 1509 1510 1511 
1512 1513 1514 1515 1516 1517 1518 1519 1520 
1521 1522 1523 1524 1525 1526 1527 1528 1529 
1530 1531 1532 1533 1534 1535 1536 1537 1538 
1539 1540 1541 1542 1543 1544 1545 1546 1547 
1548 1549 1550 1551 1552 1553 1554 1555 1556 
1557 1558 1559 1560 1561 1562 1563 1564 1565 
1566 1567 1568 1569 1570 1571 1572 1573 1574 
1575 1576 1577 1578 1579 1580 1581 1582 1583 
1584 1585 1586 1587 1588 1589 1590 1591 1592 
1593 1594 1595 1596 1597 1598 1599 1600 1601 
1602 1603 1604 1605 1606 1607 1608 1609 1610 
1611 1612 1613 1614 1615 1616 1617 1618 1619 
1620 1621 1622 1623 1624 1625 1626 1627 1628 
1629 1630 1631 1632 1633 1634 1635 1636 1637 
1638 1639 1640 1641 1642 1643 1644 1645 1646 
1647 1648 1649 1650 1651 1652 1653 1654 1655 
1656 1657 1658 1659 1660 1661 1662 1663 1664 
1665 1666 1667 1668 1669 1670 1671 1672 1673 
1674 1675 1676 1677 1678 1679 1680 1681 1682 
1683 1684 1685 1686 1687 1688 1689 1690 1691 
1692 1693 1694 1695 1696 1697 1698 1699 1700 
1701 1702 1703 1704 1705 1706 1707 1708 1709 
1710 1711 1712 1713 1714 1715 1716 1717 1718 
1719 1720 1721 1722 1723 1724 1725 1726 1727 
1728 1729 1730 1731 1732 1733 1734 1735 1736 
1737 1738 1739 1740 1741 1742 1743 1744 1745 
1746 1747 1748 1749 1750 1751 1752 1753 1754 
1755 1756 1757 1758 1759 1760 1761 1762 1763 
1764 1765 1766 1767 1768 1769 1770 1771 1772 
1773 1774 1775 1776 1777 1778 1779 1780 1781 
1782 1783 1784 1785 1786 1787 1788 1789 1790 
1791 1792 1793 1794 1795 1796 1797 1798 1799 
1800 1801 1802 1803 1804 1805 1806 1807 1808 
1809 1810 1811 1812 1813 1814 1815 1816 1817 
1818 1819 1820 1821 1822 1823 1824 1825 1826 
1827 1828 1829 1830 1831 1832 1833 1834 1835 
1836 1837 1838 1839 1840 1841 1842 1843 1844 
1845 1846 1847 1848 1849 1850 1851 1852 1853 
1854 1855 1856 1857 1858 1859 1860 1861 1862 
1863 1864 1865 1866 1867 1868 1869 1870 1871 
1872 1873 1874 1875 1876 1877 1878 1879 1880 
1881 1882 1883 1884 1885 1886 1887 1888 1889 
1890 1891 1892 1893 1894 1895 1896 1897 1898 
1899 1900 1901 1902 1903 1904 1905 1906 1907 
1908 1909 1910 1911 1912 1913 1914 1915 1916 
1917 1918 1919 1920 1921 1922 1923 1924 1925 
1926 1927 1928 1929 1930 1931 1932 1933 1934 
1935 1936 1937 1938 1939 1940 1941 1942 1943 
1944 1945 1946 1947 1948 1949 1950 1951 1952 
1953 1954 1955 1956 1957 1958 1959 1960 1961 
1962 1963 1964 1965 1966 1967 1968 1969 1970 
1971 1972 1973 1974 1975 1976 1977 1978 1979 
1980 1981 1982 1983 1984 1985 1986 1987 1988 
1989 1990 1991 1992 1993 1994 1995 1996 1997 
1998 1999 2000 2001 2002 2003 2004 2005 2006 
2007 2008 2009 2010 2011 2012 2013 2014 2015 
2016 2017 2018 2019 2020 2021 2022 2023 2024 
2025 2026 2027 2028 2029 2030 2031 2032 2033 
2034 2035 2036 2037 2038 2039 2040 2041 2042 
2043 2044 2045 2046 2047 2048 2049 2050 2051 
2052 2053 2054 2055 2056 2057 2058 2059 2060 
2061 2062 2063 2064 2065 2066 2067 2068 2069 
2070 2071 2072 2073 2074 2075 2076 2077 2078 
2079 2080 2081 2082 2083 2084 2085 2086 2087 
2088 2089 2090 2091 2092 2093 2094 2095 2096 
2097 2098 2099 2100 2101 2102 2103 2104 2105 
2106 2107 2108 2109 2110 2111 2112 2113 2114 
2115 2116 2117 2118 2119 2120 2121 2122 2123 
2124 2125 2126 2127 2128 2129 2130 2131 2132 
2133 2134 2135 2136 2137 2138 2139 2140 2141 
2142 2143 2144 2145 2146 2147 2148 2149 2150 
2151 2152 2153 2154 2155 2156 2157 2158 2159 
2160 2161 2162 2163 2164 2165 2166 2167 2168 
2169 2170 2171 2172 2173 2174 2175 2176 2177 
2178 2179 2180 2181 2182 2183 2184 2185 2186 
2187 2188 2189 2190 2191 2192 2193 2194 2195 
2196 2197 2198 2199 2200 2201 2202 2203 2204 
2205 2206 2207 2208 2209 2210 2211 2212 2213 
2214 2215 2216 2217 2218 2219 2220 2221 2222 
2223 2224 2225 2226 2227 2228 2229 2230 2231 
2232 2233 2234 2235 2236 2237 2238 2239 2240 
2241 2242 2243 2244 2245 2246 2247 2248 2249 
2250 2251 2252 2253 2254 2255 2256 2257 2258 
2259 2260 2261 2262 2263 2264 2265 2266 2267 
2268 2269 2270 2271 2272 2273 2274 2275 2276 
2277 2278 2279 2280 2281 2282 2283 2284 2285 
2286 2287 2288 2289 2290 2291 2292 2293 2294 
2295 2296 2297 2298 2299 2300 2301 2302 2303 
2304 2305 2306 2307 2308 2309 2310 2311 2312 
2313 2314 2315 2316 2317 2318 2319 2320 2321 
2322 2323 2324 2325 2326 2327 2328 2329 2330 
2331 2332 2333 2334 2335 2336 2337 2338 2339 
2340 2341 2342 2343 2344 2345 2346 2347 2348 
2349 2350 2351 2352 2353 2354 2355 2356 2357 
2358 2359 2360 2361 2362 2363 2364 2365 2366 
2367 2368 2369 2370 2371 2372 2373 2374 2375 
2376 2377 2378 2379 2380 2381 2382 2383 2384 
2385 2386 2387 2388 2389 2390 2391 2392 2393 
2394 2395 2396 2397 2398 2399 2400 2401 2402 
2403 2404 2405 2406 2407 2408 2409 2410 2411 
2412 2413 2414 2415 2416 2417 2418 2419 2420 
2421 2422 2423 2424 2425 2426 2427 2428 2429 
2430 2431 2432 2433 2434 2435 2436 2437 2438 
2439 2440 2441 2442 2443 2444 2445 2446 2447 
2448 2449 2450 2451 2452 2453 2454 2455 2456 
2457 2458 2459 2460 2461 2462 2463 2464 2465 
2466 2467 2468 2469 2470 2471 2472 2473 2474 
2475 2476 2477 2478 2479 2480 2481 2482 2483 
2484 2485 2486 2487 2488 2489 2490 2491 2492 
2493 2494 2495 2496 2497 2498 2499 2500 2501 
2502 2503 2504 2505 2506 2507 2508 2509 2510 
2511 2512 2513 2514 2515 2516 2517 2518 2519 
2520 2521 2522 2523 2524 2525 2526 2527 2528 
2529 2530 2531 2532 2533 2534 2535 2536 2537 
2538 2539 2540 2541 2542 2543 2544 2545 2546 
2547 2548 2549 2550 2551 2552 2553 2554 2555 
2556 2557 2558 2559 2560 2561 2562 2563 2564 
2565 2566 2567 2568 2569 2570 2571 2572 2573 
2574 2575 2576 2577 2578 2579 2580 2581 2582 
2583 2584 2585 2586 2587 2588 2589 2590 2591 
2592 2593 2594 2595 2596 2597 2598 2599 2600 
2601 2602 2603 2604 2605 2606 2607 2608 2609 
2610 2611 2612 2613 2614 2615 2616 2617 2618 
2619 2620 2621 2622 2623 2624 2625 2626 2627 
2628 2629 2630 2631 2632 2633 2634 2635 2636 
2637 2638 2639 2640 2641 2642 2643 2644 2645 
2646 2647 2648 2649 2650 2651 2652 2653 2654 
2655 2656 2657 2658 2659 2660 2661 2662 2663 
2664 2665 2666 2667 2668 2669 2670 2671 2672 
2673 2674 2675 2676 2677 2678 2679 2680 2681 
2682 2683 2684 2685 2686 2687 2688 2689 2690 
2691 2692 2693 2694 2695 2696 2697 2698 2699 
2700 2701 2702 2703 2704 2705 2706 2707 2708 
2709 2710 2711 2712 2713 2714 2715 2716 2717 
2718 2719 2720 2721 2722 2723 2724 2725 2726 
2727 2728 2729 2730 2731 2732 2733 2734 2735 
2736 2737 2738 2739 2740 2741 2742 2743 2744 
2745 2746 2747 2748 2749 2750 2751 2752 2753 
2754 2755 2756 2757 2758 2759 2760 2761 2762 
2763 2764 2765 2766 2767 2768 2769 2770 2771 
2772 2773 2774 2775 2776 2777 2778 2779 2780 
2781 2782 2783 2784 2785 2786 2787 2788 2789 
2790 2791 2792 2793 2794 2795 2796 2797 2798 
2799 2800 2801 2802 2803 2804 2805 2806 2807 
2808 2809 2810 2811 2812 2813 2814 2815 2816 
2817 2818 2819 2820 2821 2822 2823 2824 2825 
2826 2827 2828 2829 2830 2831 2832 2833 2834 
2835 2836 2837 2838 2839 2840 2841 2842 2843 
2844 2845 2846 2847 2848 2849 2850 2851 2852 
2853 2854 2855 2856 2857 2858 2859 2860 2861 
2862 2863 2864 2865 2866 2867 2868 2869 2870 
2871 2872 2873 2874 2875 2876 2877 2878 2879 
2880 2881 2882 2883 2884 2885 2886 2887 2888 
2889 2890 2891 2892 2893 2894 2895 2896 2897 
2898 2899 2900 2901 2902 2903 2904 2905 2906 
2907 2908 2909 2910 2911 2912 2913 2914 2915 
2916 2917 2918 2919 2920 2921 2922 2923 2924 
2925 2926 2927 2928 2929 2930 2931 2932 2933 
2934 2935 2936 2937 2938 2939 2940 2941 2942 
2943 2944 2945 2946 2947 2948 2949 2950 2951 
2952 2953 2954 2955 2956 2957 2958 2959 2960 
2961 2962 2963 2964 2965 2966 2967 2968 2969 
2970 2971 2972 2973 2974 2975 2976 2977 2978 
2979 2980 2981 2982 2983 2984 2985 2986 2987 
2988 2989 2990 2991 2992 2993 2994 2995 2996 
2997 2998 2999 3000 3001 3002 3003 3004 3005 
3006 3007 3008 3009 3010 3011 3012 3013 3014 
3015 3016 3017 3018 3019 3020 3021 3022 3023 
3024 3025 3026 3027 3028 3029 3030 3031 3032 
3033 3034 3035 3036 3037 3038 3039 3040 3041 
3042 3043 3044 3045 3046 3047 3048 3049 3050 
3051 3052 3053 3054 3055 3056 3057 3058 3059 
3060 3061 3062 3063 3064 3065 3066 3067 3068 
3069 3070 3071 3072 3073 3074 3075 3076 3077 
3078 3079 3080 3081 3082 3083 3084 3085 3086 
3087 3088 3089 3090 3091 3092 3093 3094 3095 
3096 3097 3098 3099 3100 3101 3102 3103 3104 
3105 3106 3107 3108 3109 3110 3111 3112 3113 
3114 3115 3116 3117 3118 3119 3120 3121 3122 
3123 3124 3125 3126 3127 3128 3129 3130 3131 
3132 3133 3134 3135 3136 3137 3138 3139 3140 
3141 3142 3143 3144 3145 3146 3147 3148 3149 
3150 3151 3152 3153 3154 3155 3156 3157 3158 
3159 3160 3161 3162 3163 3164 3165 3166 3167 
3168 3169 3170 3171 3172 3173 3174 3175 3176 
3177 3178 3179 3180 3181 3182 3183 3184 3185 
3186 3187 3188 3189 3190 3191 3192 3193 3194 
3195 3196 3197 3198 3199 3200 3201 3202 3203 
3204 3205 3206 3207 3208 3209 3210 3211 3212 
3213 3214 3215 3216 3217 3218 3219 3220 3221 
3222 3223 3224 3225 3226 3227 3228 3229 3230 
3231 3232 3233 3234 3235 3236 3237 3238 3239 
3240 3241 3242 3243 3244 3245 3246 3247 3248 
3249 3250 3251 3252 3253 3254 3255 3256 3257 
3258 3259 3260 3261 3262 3263 3264 3265 3266 
3267 3268 3269 3270 3271 3272 3273 3274 3275 
3276 3277 3278 3279 3280 3281 3282 3283 3284 
3285 3286 3287 3288 3289 3290 3291 3292 3293 
3294 3295 3296 3297 3298 3299 3300 3301 3302 
3303 3304 3305 3306 3307 3308 3309 3310 3311 
3312 3313 3314 3315 3316 3317 3318 3319 3320 
3321 3322 3323 3324 3325 3326 3327 3328 3329 
3330 3331 3332 3333 3334 3335 3336 3337 3338 
3339 3340 3341 3342 3343 3344 3345 3346 3347 
3348 3349 3350 3351 3352 3353 3354 3355 3356 
3357 3358 3359 3360 3361 3362 3363 3364 3365 
3366 3367 3368 3369 3370 3371 3372 3373 3374 
3375 3376 3377 3378 3379 3380 3381 3382 3383 
3384 3385 3386 3387 3388 3389 3390 3391 3392 
3393 3394 3395 3396 3397 3398 3399 3400 3401 
3402 3403 3404 3405 3406 3407 3408 3409 3410 
3411 3412 3413 3414 3415 3416 3417 3418 3419 
3420 3421 3422 3423 3424 3425 3426 3427 3428 
3429 3430 3431 3432 3433 3434 3435 3436 3437 
3438 3439 3440 3441 3442 3443 3444 3445 3446 
3447 3448 3449 3450 3451 3452 3453 3454 3455 
3456 3457 3458 3459 3460 3461 3462 3463 3464 
3465 3466 3467 3468 3469 3470 3471 3472 3473 
3474 3475 3476 3477 3478 3479 3480 3481 3482 
3483 3484 3485 3486 3487 3488 3489 3490 3491 
3492 3493 3494 3495 3496 3497 3498 3499 3500 
3501 3502 3503 3504 3505 3506 3507 3508 3509 
3510 3511 3512 3513 3514 3515 3516 3517 3518 
3519 3520 3521 3522 3523 3524 3525 3526 3527 
3528 3529 3530 3531 3532 3533 3534 3535 3536 
3537 3538 3539 3540 3541 3542 3543 3544 3545 
3546 3547 3548 3549 3550 3551 3552 3553 3554 
3555 3556 3557 3558 3559 3560 3561 3562 3563 
3564 3565 3566 3567 3568 3569 3570 3571 3572 
3573 3574 3575 3576 3577 3578 3579 3580 3581 
3582 3583 3584 3585 3586 3587 3588 3589 3590 
3591 3592 3593 3594 3595 3596 3597 3598 3599 
3600 3601 3602 3603 3604 3605 3606 3607 3608 
3609 3610 3611 3612 3613 3614 3615 3616 3617 
3618 3619 3620 3621 3622 3623 3624 3625 3626 
3627 3628 3629 3630 3631 3632 3633 3634 3635 
3636 3637 3638 3639 3640 3641 3642 3643 3644 
3645 3646 3647 3648 3649 3650 3651 3652 3653 
3654 3655 3656 3657 3658 3659 3660 3661 3662 
3663 3664 3665 3666 3667 3668 3669 3670 3671 
3672 3673 3674 3675 3676 3677 3678 3679 3680 
3681 3682 3683 3684 3685 3686 3687 3688 3689 
3690 3691 3692 3693 3694 3695 3696 3697 3698 
3699 3700 3701 3702 3703 3704 3705 3706 3707 
3708 3709 3710 3711 3712 3713 3714 3715 3716 
3717 3718 3719 3720 3721 3722 3723 3724 3725 
3726 3727 3728 3729 3730 3731 3732 3733 3734 
3735 3736 3737 3738 3739 3740 3741 3742 3743 
3744 3745 3746 3747 3748 3749 3750 3751 3752 
3753 3754 3755 3756 3757 3758 3759 3760 3761 
3762 3763 3764 3765 3766 3767 3768 3769 3770 
3771 3772 3773 3774 3775 3776 3777 3778 3779 
3780 3781 3782 3783 3784 3785 3786 3787 3788 
3789 3790 3791 3792 3793 3794 3795 3796 3797 
3798 3799 3800 3801 3802 3803 3804 3805 3806 
3807 3808 3809 3810 3811 3812 3813 3814 3815 
3816 3817 3818 3819 3820 3821 3822 3823 3824 
3825 3826 3827 3828 3829 3830 3831 3832 3833 
3834 3835 3836 3837 3838 3839 3840 3841 3842 
3843 3844 3845 3846 3847 3848 3849 3850 3851 
3852 3853 3854 3855 3856 3857 3858 3859 3860 
3861 3862 3863 3864 3865 3866 3867 3868 3869 
3870 3871 3872 3873 3874 3875 3876 3877 3878 
3879 3880 3881 3882 3883 3884 3885 3886 3887 
3888 3889 3890 3891 3892 3893 3894 3895 3896 
3897 3898 3899 3900 3901 3902 3903 3904 3905 
3906 3907 3908 3909 3910 3911 3912 3913 3914 
3915 3916 3917 3918 3919 3920 3921 3922 3923 
3924 3925 3926 3927 3928 3929 3930 3931 3932 
3933 3934 3935 3936 3937 3938 3939 3940 3941 
3942 3943 3944 3945 3946 3947 3948 3949 3950 
3951 3952 3953 3954 3955 3956 3957 3958 3959 
3960 3961 3962 3963 3964 3965 3966 3967 3968 
3969 3970 3971 3972 3973 3974 3975 3976 3977 
3978 3979 3980 3981 3982 3983 3984 3985 3986 
3987 3988 3989 3990 3991 3992 3993 3994 3995 
3996 3997 3998 3999 4000 4001 4002 4003 4004 
4005 4006 4007 4008 4009 4010 4011 4012 4013 
4014 4015 4016 4017 4018 4019 4020 4021 4022 
4023 4024 4025 4026 4027 4028 4029 4030 4031 
4032 4033 4034 4035 4036 4037 4038 4039 4040 
4041 4042 4043 4044 4045 4046 4047 4048 4049 
4050 4051 4052 4053 4054 4055 4056 4057 4058 
4059 4060 4061 4062 4063 4064 4065 4066 4067 
4068 4069 4070 4071 4072 4073 4074 4075 4076 
4077 4078 4079 4080 4081 4082 4083 4084 4085 
4086 4087 4088 4089 4090 4091 4092 4093 4094 
4095 4096 4097 4098 4099 4100 4101 4102 4103 
4104 4105 4106 4107 4108 4109 4110 4111 4112 
4113 4114 4115 4116 4117 4118 4119 4120 4121 
4122 4123 4124 4125 4126 4127 4128 4129 4130 
4131 4132 4133 4134 4135 4136 4137 4138 4139 
4140 4141 4142 4143 4144 4145 4146 4147 4148 
4149 4150 4151 4152 4153 4154 4155 4156 4157 
4158 4159 4160 4161 4162 4163 4164 4165 4166 
4167 4168 4169 4170 4171 4172 4173 4174 4175 
4176 4177 4178 4179 4180 4181 4182 4183 4184 
4185 4186 4187 4188 4189 4190 4191 4192 4193 
4194 4195 4196 4197 4198 4199 4200 4201 4202 
4203 4204 4205 4206 4207 4208 4209 4210 4211 
4212 4213 4214 4215 4216 4217 4218 4219 4220 
4221 4222 4223 4224 4225 4226 4227 4228 4229 
4230 4231 4232 4233 4234 4235 4236 4237 4238 
4239 4240 4241 4242 4243 4244 4245 4246 4247 
4248 4249 4250 4251 4252 4253 4254 4255 4256 
4257 4258 4259 4260 4261 4262 4263 4264 4265 
4266 4267 4268 4269 4270 4271 4272 4273 4274 
4275 4276 4277 4278 4279 4280 4281 4282 4283 
4284 4285 4286 4287 4288 4289 4290 4291 4292 
4293 4294 4295 4296 4297 4298 4299 4300 4301 
4302 4303 4304 4305 4306 4307 4308 4309 4310 
4311 4312 4313 4314 4315 4316 4317 4318 4319 
4320 4321 4322 4323 4324 4325 4326 4327 4328 
4329 4330 4331 4332 4333 4334 4335 4336 4337 
4338 4339 4340 4341 4342 4343 4344 4345 4346 
4347 4348 4349 4350 4351 4352 4353 4354 4355 
4356 4357 4358 4359 4360 4361 4362 4363 4364 
4365 4366 4367 4368 4369 4370 4371 4372 4373 
4374 4375 4376 4377 4378 4379 4380 4381 4382 
4383 4384 4385 4386 4387 4388 4389 4390 4391 
4392 4393 4394 4395 4396 4397 4398 4399 4400 
4401 4402 4403 4404 4405 4406 4407 4408 4409 
4410 4411 4412 4413 4414 4415 4416 4417 4418 
4419 4420 4421 4422 4423 4424 4425 4426 4427 
4428 4429 4430 4431 4432 4433 4434 4435 4436 
4437 4438 4439 4440 4441 4442 4443 4444 4445 
4446 4447 4448 4449 4450 4451 4452 4453 4454 
4455 4456 4457 4458 4459 4460 4461 4462 4463 
4464 4465 4466 4467 4468 4469 4470 4471 4472 
4473 4474 4475 4476 4477 4478 4479 4480 4481 
4482 4483 4484 4485 4486 4487 4488 4489 4490 
4491 4492 4493 4494 4495 4496 4497 4498 4499 
4500 4501 4502 4503 4504 4505 4506 4507 4508 
4509 4510 4511 4512 4513 4514 4515 4516 4517 
4518 4519 4520 4521 4522 4523 4524 4525 4526 
4527 4528 4529 4530 4531 4532 4533 4534 4535 
4536 4537 4538 4539 4540 4541 4542 4543 4544 
4545 4546 4547 4548 4549 4550 4551 4552 4553 
4554 4555 4556 4557 4558 4559 4560 4561 4562 
4563 4564 4565 4566 4567 4568 4569 4570 4571 
4572 4573 4574 4575 4576 4577 4578 4579 4580 
4581 4582 4583 4584 4585 4586 4587 4588 4589 
4590 4591 4592 4593 4594 4595 4596 4597 4598 
4599 4600 4601 4602 4603 4604 4605 4606 4607 
4608 4609 4610 4611 4612 4613 4614 4615 4616 
4617 4618 4619 4620 4621 4622 4623 4624 4625 
4626 4627 4628 4629 4630 4631 4632 4633 4634 
4635 4636 4637 4638 4639 4640 4641 4642 4643 
4644 4645 4646 4647 4648 4649 4650 4651 4652 
4653 4654 4655 4656 4657 4658 4659 4660 4661 
4662 4663 4664 4665 4666 4667 4668 4669 4670 
4671 4672 4673 4674 4675 4676 4677 4678 4679 
4680 4681 4682 4683 4684 4685 4686 4687 4688 
4689 4690 4691 4692 4693 4694 4695 4696 4697 
4698 4699 4700 4701 4702 4703 4704 4705 4706 
4707 4708 4709 4710 4711 4712 4713 4714 4715 
4716 4717 4718 4719 4720 4721 4722 4723 4724 
4725 4726 4727 4728 4729 4730 4731 4732 4733 
4734 4735 4736 4737 4738 4739 4740 4741 4742 
4743 4744 4745 4746 4747 4748 4749 4750 4751 
4752 4753 4754 4755 4756 4757 4758 4759 4760 
4761 4762 4763 4764 4765 4766 4767 4768 4769 
4770 4771 4772 4773 4774 4775 4776 4777 4778 
4779 4780 4781 4782 4783 4784 4785 4786 4787 
4788 4789 4790 4791 4792 4793 4794 4795 4796 
4797 4798 4799 4800 4801 4802 4803 4804 4805 
4806 4807 4808 4809 4810 4811 4812 4813 4814 
4815 4816 4817 4818 4819 4820 4821 4822 4823 
4824 4825 4826 4827 4828 4829 4830 4831 4832 
4833 4834 4835 4836 4837 4838 4839 4840 4841 
4842 4843 4844 4845 4846 4847 4848 4849 4850 
4851 4852 4853 4854 4855 4856 4857 4858 4859 
4860 4861 4862 4863 4864 4865 4866 4867 4868 
4869 4870 4871 4872 4873 4874 4875 4876 4877 
4878 4879 4880 4881 4882 4883 4884 4885 4886 
4887 4888 4889 4890 4891 4892 4893 4894 4895 
4896 4897 4898 4899 4900 4901 4902 4903 4904 
4905 4906 4907 4908 4909 4910 4911 4912 4913 
4914 4915 4916 4917 4918 4919 4920 4921 4922 
4923 4924 4925 4926 4927 4928 4929 4930 4931 
4932 4933 4934 4935 4936 4937 4938 4939 4940 
4941 4942 4943 4944 4945 4946 4947 4948 4949 
4950 4951 4952 4953 4954 4955 4956 4957 4958 
4959 4960 4961 4962 4963 4964 4965 4966 4967 
4968 4969 4970 4971 4972 4973 4974 4975 4976 
4977 4978 4979 4980 4981 4982 4983 4984 4985 
4986 4987 4988 4989 4990 4991 4992 4993 4994 
4995 4996 4997 4998 4999 5000 5001 5002 5003 
5004 5005 5006 5007 5008 5009 5010 5011 5012 
5013 5014 5015 5016 5017 5018 5019 5020 5021 
5022 5023 5024 5025 5026 5027 5028 5029 5030 
5031 5032 5033 5034 5035 5036 5037 5038 5039 
5040 5041 5042 5043 5044 5045 5046 5047 5048 
5049 5050 5051 5052 5053 5054 5055 5056 5057 
5058 5059 5060 5061 5062 5063 5064 5065 5066 
5067 5068 5069 5070 5071 5072 5073 5074 5075 
5076 5077 5078 5079 5080 5081 5082 5083 5084 
5085 5086 5087 5088 5089 5090 5091 5092 5093 
5094 5095 5096 5097 5098 5099 5100 5101 5102 
5103 5104 5105 5106 5107 5108 5109 5110 5111 
5112 5113 5114 5115 5116 5117 5118 5119 5120 
5121 5122 5123 5124 5125 5126 5127 5128 5129 
5130 5131 5132 5133 5134 5135 5136 5137 5138 
5139 5140 5141 5142 5143 5144 5145 5146 5147 
5148 5149 5150 5151 5152 5153 5154 5155 5156 
5157 5158 5159 5160 5161 5162 5163 5164 5165 
5166 5167 5168 5169 5170 5171 5172 5173 5174 
5175 5176 5177 5178 5179 5180 5181 5182 5183 
5184 5185 5186 5187 5188 5189 5190 5191 5192 
5193 5194 5195 5196 5197 5198 5199 5200 5201 
5202 5203 5204 5205 5206 5207 5208 5209 5210 
5211 5212 5213 5214 5215 5216 5217 5218 5219 
5220 5221 5222 5223 5224 5225 5226 5227 5228 
5229 5230 5231 5232 5233 5234 5235 5236 5237 
5238 5239 5240 5241 5242 5243 5244 5245 5246 
5247 5248 5249 5250 5251 5252 5253 5254 5255 
5256 5257 5258 5259 5260 5261 5262 5263 5264 
5265 5266 5267 5268 5269 5270 5271 5272 5273 
5274 5275 5276 5277 5278 5279 5280 5281 5282 
5283 5284 5285 5286 5287 5288 5289 5290 5291 
5292 5293 5294 5295 5296 5297 5298 5299 5300 
5301 5302 5303 5304 5305 5306 5307 5308 5309 
5310 5311 5312 5313 5314 5315 5316 5317 5318 
5319 5320 5321 5322 5323 5324 5325 5326 5327 
5328 5329 5330 5331 5332 5333 5334 5335 5336 
5337 5338 5339 5340 5341 5342 5343 5344 5345 
5346 5347 5348 5349 5350 5351 5352 5353 5354 
5355 5356 5357 5358 5359 5360 5361 5362 5363 
5364 5365 5366 5367 5368 5369 5370 5371 5372 
5373 5374 5375 5376 5377 5378 5379 5380 5381 
5382 5383 5384 5385 5386 5387 5388 5389 5390 
5391 5392 5393 5394 5395 5396 5397 5398 5399 
5400 5401 5402 5403 5404 5405 5406 5407 5408 
5409 5410 5411 5412 5413 5414 5415 5416 5417 
5418 5419 5420 5421 5422 5423 5424 5425 5426 
5427 5428 5429 5430 5431 5432 5433 5434 5435 
5436 5437 5438 5439 5440 5441 5442 5443 5444 
5445 5446 5447 5448 5449 5450 5451 5452 5453 
5454 5455 5456 5457 5458 5459 5460 5461 5462 
5463 5464 5465 5466 5467 5468 5469 5470 5471 
5472 5473 5474 5475 5476 5477 5478 5479 5480 
5481 5482 5483 5484 5485 5486 5487 5488 5489 
5490 5491 5492 5493 5494 5495 5496 5497 5498 
5499 5500 5501 5502 5503 5504 5505 5506 5507 
5508 5509 5510 5511 5512 5513 5514 5515 5516 
5517 5518 5519 5520 5521 5522 5523 5524 5525 
5526 5527 5528 5529 5530 5531 5532 5533 5534 
5535 5536 5537 5538 5539 5540 5541 5542 5543 
5544 5545 5546 5547 5548 5549 5550 5551 5552 
5553 5554 5555 5556 5557 5558 5559 5560 5561 
5562 5563 5564 5565 5566 5567 5568 5569 5570 
5571 5572 5573 5574 5575 5576 5577 5578 5579 
5580 5581 5582 5583 5584 5585 5586 5587 5588 
5589 5590 5591 5592 5593 5594 5595 5596 5597 
5598 5599 5600 5601 5602 5603 5604 5605 5606 
5607 5608 5609 5610 5611 5612 5613 5614 5615 
5616 5617 5618 5619 5620 5621 5622 5623 5624 
5625 5626 5627 5628 5629 5630 5631 5632 5633 
5634 5635 5636 5637 5638 5639 5640 5641 5642 
5643 5644 5645 5646 5647 5648 5649 5650 5651 
5652 5653 5654 5655 5656 5657 5658 5659 5660 
5661 5662 5663 5664 5665 5666 5667 5668 5669 
5670 5671 5672 5673 5674 5675 5676 5677 5678 
5679 5680 5681 5682 5683 5684 5685 5686 5687 
5688 5689 5690 5691 5692 5693 5694 5695 5696 
5697 5698 5699 5700 5701 5702 5703 5704 5705 
5706 5707 5708 5709 5710 5711 5712 5713 5714 
5715 5716 5717 5718 5719 5720 5721 5722 5723 
5724 5725 5726 5727 5728 5729 5730 5731 5732 
5733 5734 5735 5736 5737 5738 5739 5740 5741 
5742 5743 5744 5745 5746 5747 5748 5749 5750 
5751 5752 5753 5754 5755 5756 5757 5758 5759 
5760 5761 5762 5763 5764 5765 5766 5767 5768 
5769 5770 5771 5772 5773 5774 5775 5776 5777 
5778 5779 5780 5781 5782 5783 5784 5785 5786 
5787 5788 5789 5790 5791 5792 5793 5794 5795 
5796 5797 5798 5799 5800 5801 5802 5803 5804 
5805 5806 5807 5808 5809 5810 5811 5812 5813 
5814 5815 5816 5817 5818 5819 5820 5821 5822 
5823 5824 5825 5826 5827 5828 5829 5830 5831 
5832 5833 5834 5835 5836 5837 5838 5839 5840 
5841 5842 5843 5844 5845 5846 5847 5848 5849 
5850 5851 5852 5853 5854 5855 5856 5857 5858 
5859 5860 5861 5862 5863 5864 5865 5866 5867 
5868 5869 5870 5871 5872 5873 5874 5875 5876 
5877 5878 5879 5880 5881 5882 5883 5884 5885 
5886 5887 5888 5889 5890 5891 5892 5893 5894 
5895 5896 5897 5898 5899 5900 5901 5902 5903 
5904 5905 5906 5907 5908 5909 5910 5911 5912 
5913 5914 5915 5916 5917 5918 5919 5920 5921 
5922 5923 5924 5925 5926 5927 5928 5929 5930 
5931 5932 5933 5934 5935 5936 5937 5938 5939 
5940 5941 5942 5943 5944 5945 5946 5947 5948 
5949 5950 5951 5952 5953 5954 5955 5956 5957 
5958 5959 5960 5961 5962 5963 5964 5965 5966 
5967 5968 5969 5970 5971 5972 5973 5974 5975 
5976 5977 5978 5979 5980 5981 5982 5983 5984 
5985 5986 5987 5988 5989 5990 5991 5992 5993 
5994 5995 5996 5997 5998 5999 6000 6001 6002 
6003 6004 6005 6006 6007 6008 6009 6010 6011 
6012 6013 6014 6015 6016 6017 6018 6019 6020 
6021 6022 6023 6024 6025 6026 6027 6028 6029 
6030 6031 6032 6033 6034 6035 6036 6037 6038 
6039 6040 6041 6042 6043 6044 6045 6046 6047 
6048 6049 6050 6051 6052 6053 6054 6055 6056 
6057 6058 6059 6060 6061 6062 6063 6064 6065 
6066 6067 6068 6069 6070 6071 6072 6073 6074 
6075 6076 6077 6078 6079 6080 6081 6082 6083 
6084 6085 6086 6087 6088 6089 6090 6091 6092 
6093 6094 6095 6096 6097 6098 6099 6100 6101 
6102 6103 6104 6105 6106 6107 6108 6109 6110 
6111 6112 6113 6114 6115 6116 6117 6118 6119 
6120 6121 6122 6123 6124 6125 6126 6127 6128 
6129 6130 6131 6132 6133 6134 6135 6136 6137 
6138 6139 6140 6141 6142 6143 6144 6145 6146 
6147 6148 6149 6150 6151 6152 6153 6154 6155 
6156 6157 6158 6159 6160 6161 6162 6163 6164 
6165 6166 6167 6168 6169 6170 6171 6172 6173 
6174 6175 6176 6177 6178 6179 6180 6181 6182 
6183 6184 6185 6186 6187 6188 6189 6190 6191 
6192 6193 6194 6195 6196 6197 6198 6199 6200 
6201 6202 6203 6204 6205 6206 6207 6208 6209 
6210 6211 6212 6213 6214 6215 6216 6217 6218 
6219 6220 6221 6222 6223 6224 6225 6226 6227 
6228 6229 6230 6231 6232 6233 6234 6235 6236 
6237 6238 6239 6240 6241 6242 6243 6244 6245 
6246 6247 6248 6249 6250 6251 6252 6253 6254 
6255 6256 6257 6258 6259 6260 6261 6262 6263 
6264 6265 6266 6267 6268 6269 6270 6271 6272 
6273 6274 6275 6276 6277 6278 6279 6280 6281 
6282 6283 6284 6285 6286 6287 6288 6289 6290 
6291 6292 6293 6294 6295 6296 6297 6298 6299 
6300 6301 6302 6303 6304 6305 6306 6307 6308 
6309 6310 6311 6312 6313 6314 6315 6316 6317 
6318 6319 6320 6321 6322 6323 6324 6325 6326 
6327 6328 6329 6330 6331 6332 6333 6334 6335 
6336 6337 6338 6339 6340 6341 6342 6343 6344 
6345 6346 6347 6348 6349 6350 6351 6352 6353 
6354 6355 6356 6357 6358 6359 6360 6361 6362 
6363 6364 6365 6366 6367 6368 6369 6370 6371 
6372 6373 6374 6375 6376 6377 6378 6379 6380 
6381 6382 6383 6384 6385 6386 6387 6388 6389 
6390 6391 6392 6393 6394 6395 6396 6397 6398 
6399 6400 6401 6402 6403 6404 6405 6406 6407 
6408 6409 6410 6411 6412 6413 6414 6415 6416 
6417 6418 6419 6420 6421 6422 6423 6424 6425 
6426 6427 6428 6429 6430 6431 6432 6433 6434 
6435 6436 6437 6438 6439 6440 6441 6442 6443 
6444 6445 6446 6447 6448 6449 6450 6451 6452 
6453 6454 6455 6456 6457 6458 6459 6460 6461 
6462 6463 6464 6465 6466 6467 6468 6469 6470 
6471 6472 6473 6474 6475 6476 6477 6478 6479 
6480 6481 6482 6483 6484 6485 6486 6487 6488 
6489 6490 6491 6492 6493 6494 6495 6496 6497 
6498 6499 6500 6501 6502 6503 6504 6505 6506 
6507 6508 6509 6510 6511 6512 6513 6514 6515 
6516 6517 6518 6519 6520 6521 6522 6523 6524 
6525 6526 6527 6528 6529 6530 6531 6532 6533 
6534 6535 6536 6537 6538 6539 6540 6541 6542 
6543 6544 6545 6546 6547 6548 6549 6550 6551 
6552 6553 6554 6555 6556 6557 6558 6559 6560 
6561 6562 6563 6564 6565 6566 6567 6568 6569 
6570 6571 6572 6573 6574 6575 6576 6577 6578 
6579 6580 6581 6582 6583 6584 6585 6586 6587 
6588 6589 6590 6591 6592 6593 6594 6595 6596 
6597 6598 6599 6600 6601 6602 6603 6604 6605 
6606 6607 6608 6609 6610 6611 6612 6613 6614 
6615 6616 6617 6618 6619 6620 6621 6622 6623 
6624 6625 6626 6627 6628 6629 6630 6631 6632 
6633 6634 6635 6636 6637 6638 6639 6640 6641 
6642 6643 6644 6645 6646 6647 6648 6649 6650 
6651 6652 6653 6654 6655 6656 6657 6658 6659 
6660 6661 6662 6663 6664 6665 6666 6667 6668 
6669 6670 6671 6672 6673 6674 6675 6676 6677 
6678 6679 6680 6681 6682 6683 6684 6685 6686 
6687 6688 6689 6690 6691 6692 6693 6694 6695 
6696 6697 6698 6699 6700 6701 6702 6703 6704 
6705 6706 6707 6708 6709 6710 6711 6712 6713 
6714 6715 6716 6717 6718 6719 6720 6721 6722 
6723 6724 6725 6726 6727 6728 6729 6730 6731 
6732 6733 6734 6735 6736 6737 6738 6739 6740 
6741 6742 6743 6744 6745 6746 6747 6748 6749 
6750 6751 6752 6753 6754 6755 6756 6757 6758 
6759 6760 6761 6762 6763 6764 6765 6766 6767 
6768 6769 6770 6771 6772 6773 6774 6775 6776 
6777 6778 6779 6780 6781 6782 6783 6784 6785 
6786 6787 6788 6789 6790 6791 6792 6793 6794 
6795 6796 6797 6798 6799 6800 6801 6802 6803 
6804 6805 6806 6807 6808 6809 6810 6811 6812 
6813 6814 6815 6816 6817 6818 6819 6820 6821 
6822 6823 6824 6825 6826 6827 6828 6829 6830 
6831 6832 6833 6834 6835 6836 6837 6838 6839 
6840 6841 6842 6843 6844 6845 6846 6847 6848 
6849 6850 6851 6852 6853 6854 6855 6856 6857 
6858 6859 6860 6861 6862 6863 6864 6865 6866 
6867 6868 6869 6870 6871 6872 6873 6874 6875 
6876 6877 6878 6879 6880 6881 6882 6883 6884 
6885 6886 6887 6888 6889 6890 6891 6892 6893 
6894 6895 6896 6897 6898 6899 6900 6901 6902 
6903 6904 6905 6906 6907 6908 6909 6910 6911 
6912 6913 6914 6915 6916 6917 6918 6919 6920 
6921 6922 6923 6924 6925 6926 6927 6928 6929 
6930 6931 6932 6933 6934 6935 6936 6937 6938 
6939 6940 6941 6942 6943 6944 6945 6946 6947 
6948 6949 6950 6951 6952 6953 6954 6955 6956 
6957 6958 6959 6960 6961 6962 6963 6964 6965 
6966 6967 6968 6969 6970 6971 6972 6973 6974 
6975 6976 6977 6978 6979 6980 6981 6982 6983 
6984 6985 6986 6987 6988 6989 6990 6991 6992 
6993 6994 6995 6996 6997 6998 6999 7000 7001 
7002 7003 7004 7005 7006 7007 7008 7009 7010 
7011 7012 7013 7014 7015 7016 7017 7018 7019 
7020 7021 7022 7023 7024 7025 7026 7027 7028 
7029 7030 7031 7032 7033 7034 7035 7036 7037 
7038 7039 7040 7041 7042 7043 7044 7045 7046 
7047 7048 7049 7050 7051 7052 7053 7054 7055 
7056 7057 7058 7059 7060 7061 7062 7063 7064 
7065 7066 7067 7068 7069 7070 7071 7072 7073 
7074 7075 7076 7077 7078 7079 7080 7081 7082 
7083 7084 7085 7086 7087 7088 7089 7090 7091 
7092 7093 7094 7095 7096 7097 7098 7099 7100 
7101 7102 7103 7104 7105 7106 7107 7108 7109 
7110 7111 7112 7113 7114 7115 7116 7117 7118 
7119 7120 7121 7122 7123 7124 7125 7126 7127 
7128 7129 7130 7131 7132 7133 7134 7135 7136 
7137 7138 7139 7140 7141 7142 7143 7144 7145 
7146 7147 7148 7149 7150 7151 7152 7153 7154 
7155 7156 7157 7158 7159 7160 7161 7162 7163 
7164 7165 7166 7167 7168 7169 7170 7171 7172 
7173 7174 7175 7176 7177 7178 7179 7180 7181 
7182 7183 7184 7185 7186 7187 7188 7189 7190 
7191 7192 7193 7194 7195 7196 7197 7198 7199 
7200 7201 7202 7203 7204 7205 7206 7207 7208 
7209 7210 7211 7212 7213 7214 7215 7216 7217 
7218 7219 7220 7221 7222 7223 7224 7225 7226 
7227 7228 7229 7230 7231 7232 7233 7234 7235 
7236 7237 7238 7239 7240 7241 7242 7243 7244 
7245 7246 7247 7248 7249 7250 7251 7252 7253 
7254 7255 7256 7257 7258 7259 7260 7261 7262 
7263 7264 7265 7266 7267 7268 7269 7270 7271 
7272 7273 7274 7275 7276 7277 7278 7279 7280 
7281 7282 7283 7284 7285 7286 7287 7288 7289 
7290 7291 7292 7293 7294 7295 7296 7297 7298 
7299 7300 7301 7302 7303 7304 7305 7306 7307 
7308 7309 7310 7311 7312 7313 7314 7315 7316 
7317 7318 7319 7320 7321 7322 7323 7324 7325 
7326 7327 7328 7329 7330 7331 7332 7333 7334 
7335 7336 7337 7338 7339 7340 7341 7342 7343 
7344 7345 7346 7347 7348 7349 7350 7351 7352 
7353 7354 7355 7356 7357 7358 7359 7360 7361 
7362 7363 7364 7365 7366 7367 7368 7369 7370 
7371 7372 7373 7374 7375 7376 7377 7378 7379 
7380 7381 7382 7383 7384 7385 7386 7387 7388 
7389 7390 7391 7392 7393 7394 7395 7396 7397 
7398 7399 7400 7401 7402 7403 7404 7405 7406 
7407 7408 7409 7410 7411 7412 7413 7414 7415 
7416 7417 7418 7419 7420 7421 7422 7423 7424 
7425 7426 7427 7428 7429 7430 7431 7432 7433 
7434 7435 7436 7437 7438 7439 7440 7441 7442 
7443 7444 7445 7446 7447 7448 7449 7450 7451 
7452 7453 7454 7455 7456 7457 7458 7459 7460 
7461 7462 7463 7464 7465 7466 7467 7468 7469 
7470 7471 7472 7473 7474 7475 7476 7477 7478 
7479 7480 7481 7482 7483 7484 7485 7486 7487 
7488 7489 7490 7491 7492 7493 7494 7495 7496 
7497 7498 7499 7500 7501 7502 7503 7504 7505 
7506 7507 7508 7509 7510 7511 7512 7513 7514 
7515 7516 7517 7518 7519 7520 7521 7522 7523 
7524 7525 7526 7527 7528 7529 7530 7531 7532 
7533 7534 7535 7536 7537 7538 7539 7540 7541 
7542 7543 7544 7545 7546 7547 7548 7549 7550 
7551 7552 7553 7554 7555 7556 7557 7558 7559 
7560 7561 7562 7563 7564 7565 7566 7567 7568 
7569 7570 7571 7572 7573 7574 7575 7576 7577 
7578 7579 7580 7581 7582 7583 7584 7585 7586 
7587 7588 7589 7590 7591 7592 7593 7594 7595 
7596 7597 7598 7599 7600 7601 7602 7603 7604 
7605 7606 7607 7608 7609 7610 7611 7612 7613 
7614 7615 7616 7617 7618 7619 7620 7621 7622 
7623 7624 7625 7626 7627 7628 7629 7630 7631 
7632 7633 7634 7635 7636 7637 7638 7639 7640 
7641 7642 7643 7644 7645 7646 7647 7648 7649 
7650 7651 7652 7653 7654 7655 7656 7657 7658 
7659 7660 7661 7662 7663 7664 7665 7666 7667 
7668 7669 7670 7671 7672 7673 7674 7675 7676 
7677 7678 7679 7680 7681 7682 7683 7684 7685 
7686 7687 7688 7689 7690 7691 7692 7693 7694 
7695 7696 7697 7698 7699 7700 7701 7702 7703 
7704 7705 7706 7707 7708 7709 7710 7711 7712 
7713 7714 7715 7716 7717 7718 7719 7720 7721 
7722 7723 7724 7725 7726 7727 7728 7729 7730 
7731 7732 7733 7734 7735 7736 7737 7738 7739 
7740 7741 7742 7743 7744 7745 7746 7747 7748 
7749 7750 7751 7752 7753 7754 7755 7756 7757 
7758 7759 7760 7761 7762 7763 7764 7765 7766 
7767 7768 7769 7770 7771 7772 7773 7774 7775 
7776 7777 7778 7779 7780 7781 7782 7783 7784 
7785 7786 7787 7788 7789 7790 7791 7792 7793 
7794 7795 7796 7797 7798 7799 7800 7801 7802 
7803 7804 7805 7806 7807 7808 7809 7810 7811 
7812 7813 7814 7815 7816 7817 7818 7819 7820 
7821 7822 7823 7824 7825 7826 7827 7828 7829 
7830 7831 7832 7833 7834 7835 7836 7837 7838 
7839 7840 7841 7842 7843 7844 7845 7846 7847 
7848 7849 7850 7851 7852 7853 7854 7855 7856 
7857 7858 7859 7860 7861 7862 7863 7864 7865 
7866 7867 7868 7869 7870 7871 7872 7873 7874 
7875 7876 7877 7878 7879 7880 7881 7882 7883 
7884 7885 7886 7887 7888 7889 7890 7891 7892 
7893 7894 7895 7896 7897 7898 7899 7900 7901 
7902 7903 7904 7905 7906 7907 7908 7909 7910 
7911 7912 7913 7914 7915 7916 7917 7918 7919 
7920 7921 7922 7923 7924 7925 7926 7927 7928 
7929 7930 7931 7932 7933 7934 7935 7936 7937 
7938 7939 7940 7941 7942 7943 7944 7945 7946 
7947 7948 7949 7950 7951 7952 7953 7954 7955 
7956 7957 7958 7959 7960 7961 7962 7963 7964 
7965 7966 7967 7968 7969 7970 7971 7972 7973 
7974 7975 7976 7977 7978 7979 7980 7981 7982 
7983 7984 7985 7986 7987 7988 7989 7990 7991 
7992 7993 7994 7995 7996 7997 7998 7999 8000 
8001 8002 8003 8004 8005 8006 8007 8008 8009 
8010 8011 8012 8013 8014 8015 8016 8017 8018 
8019 8020 8021 8022 8023 8024 8025 8026 8027 
8028 8029 8030 8031 8032 8033 8034 8035 8036 
8037 8038 8039 8040 8041 8042 8043 8044 8045 
8046 8047 8048 8049 8050 8051 8052 8053 8054 
8055 8056 8057 8058 8059 8060 8061 8062 8063 
8064 8065 8066 8067 8068 8069 8070 8071 8072 
8073 8074 8075 8076 8077 8078 8079 8080 8081 
8082 8083 8084 8085 8086 8087 8088 8089 8090 
8091 8092 8093 8094 8095 8096 8097 8098 8099 
8100 8101 8102 8103 8104 8105 8106 8107 8108 
8109 8110 8111 8112 8113 8114 8115 8116 8117 
8118 8119 8120 8121 8122 8123 8124 8125 8126 
8127 8128 8129 8130 8131 8132 8133 8134 8135 
8136 8137 8138 8139 8140 8141 8142 8143 8144 
8145 8146 8147 8148 8149 8150 8151 8152 8153 
8154 8155 8156 8157 8158 8159 8160 8161 8162 
8163 8164 8165 8166 8167 8168 8169 8170 8171 
8172 8173 8174 8175 8176 8177 8178 8179 8180 
8181 8182 8183 8184 8185 8186 8187 8188 8189 
8190 8191 8192 8193 8194 8195 8196 8197 8198 
8199 8200 8201 8202 8203 8204 8205 8206 8207 
8208 8209 8210 8211 8212 8213 8214 8215 8216 
8217 8218 8219 8220 8221 8222 8223 8224 8225 
8226 8227 8228 8229 8230 8231 8232 8233 8234 
8235 8236 8237 8238 8239 8240 8241 8242 8243 
8244 8245 8246 8247 8248 8249 8250 8251 8252 
8253 8254 8255 8256 8257 8258 8259 8260 8261 
8262 8263 8264 8265 8266 8267 8268 8269 8270 
8271 8272 8273 8274 8275 8276 8277 8278 8279 
8280 8281 8282 8283 8284 8285 8286 8287 8288 
8289 8290 8291 8292 8293 8294 8295 8296 8297 
8298 8299 8300 8301 8302 8303 8304 8305 8306 
8307 8308 8309 8310 8311 8312 8313 8314 8315 
8316 8317 8318 8319 8320 8321 8322 8323 8324 
8325 8326 8327 8328 8329 8330 8331 8332 8333 
8334 8335 8336 8337 8338 8339 8340 8341 8342 
8343 8344 8345 8346 8347 8348 8349 8350 8351 
8352 8353 8354 8355 8356 8357 8358 8359 8360 
8361 8362 8363 8364 8365 8366 8367 8368 8369 
8370 8371 8372 8373 8374 8375 8376 8377 8378 
8379 8380 8381 8382 8383 8384 8385 8386 8387 
8388 8389 8390 8391 8392 8393 8394 8395 8396 
8397 8398 8399 8400 8401 8402 8403 8404 8405 
8406 8407 8408 8409 8410 8411 8412 8413 8414 
8415 8416 8417 8418 8419 8420 8421 8422 8423 
8424 8425 8426 8427 8428 8429 8430 8431 8432 
8433 8434 8435 8436 8437 8438 8439 8440 8441 
8442 8443 8444 8445 8446 8447 8448 8449 8450 
8451 8452 8453 8454 8455 8456 8457 8458 8459 
8460 8461 8462 8463 8464 8465 8466 8467 8468 
8469 8470 8471 8472 8473 8474 8475 8476 8477 
8478 8479 8480 8481 8482 8483 8484 8485 8486 
8487 8488 8489 8490 8491 8492 8493 8494 8495 
8496 8497 8498 8499 8500 8501 8502 8503 8504 
8505 8506 8507 8508 8509 8510 8511 8512 8513 
8514 8515 8516 8517 8518 8519 8520 8521 8522 
8523 8524 8525 8526 8527 8528 8529 8530 8531 
8532 8533 8534 8535 8536 8537 8538 8539 8540 
8541 8542 8543 8544 8545 8546 8547 8548 8549 
8550 8551 8552 8553 8554 8555 8556 8557 8558 
8559 8560 8561 8562 8563 8564 8565 8566 8567 
8568 8569 8570 8571 8572 8573 8574 8575 8576 
8577 8578 8579 8580 8581 8582 8583 8584 8585 
8586 8587 8588 8589 8590 8591 8592 8593 8594 
8595 8596 8597 8598 8599 8600 8601 8602 8603 
8604 8605 8606 8607 8608 8609 8610 8611 8612 
8613 8614 8615 8616 8617 8618 8619 8620 8621 
8622 8623 8624 8625 8626 8627 8628 8629 8630 
8631 8632 8633 8634 8635 8636 8637 8638 8639 
8640 8641 8642 8643 8644 8645 8646 8647 8648 
8649 8650 8651 8652 8653 8654 8655 8656 8657 
8658 8659 8660 8661 8662 8663 8664 8665 8666 
8667 8668 8669 8670 8671 8672 8673 8674 8675 
8676 8677 8678 8679 8680 8681 8682 8683 8684 
8685 8686 8687 8688 8689 8690 8691 8692 8693 
8694 8695 8696 8697 8698 8699 8700 8701 8702 
8703 8704 8705 8706 8707 8708 8709 8710 8711 
8712 8713 8714 8715 8716 8717 8718 8719 8720 
8721 8722 8723 8724 8725 8726 8727 8728 8729 
8730 8731 8732 8733 8734 8735 8736 8737 8738 
8739 8740 8741 8742 8743 8744 8745 8746 8747 
8748 8749 8750 8751 8752 8753 8754 8755 8756 
8757 8758 8759 8760 8761 8762 8763 8764 8765 
8766 8767 8768 8769 8770 8771 8772 8773 8774 
8775 8776 8777 8778 8779 8780 8781 8782 8783 
8784 8785 8786 8787 8788 8789 8790 8791 8792 
8793 8794 8795 8796 8797 8798 8799 8800 8801 
8802 8803 8804 8805 8806 8807 8808 8809 8810 
8811 8812 8813 8814 8815 8816 8817 8818 8819 
8820 8821 8822 8823 8824 8825 8826 8827 8828 
8829 8830 8831 8832 8833 8834 8835 8836 8837 
8838 8839 8840 8841 8842 8843 8844 8845 8846 
8847 8848 8849 8850 8851 8852 8853 8854 8855 
8856 8857 8858 8859 8860 8861 8862 8863 8864 
8865 8866 8867 8868 8869 8870 8871 8872 8873 
8874 8875 8876 8877 8878 8879 8880 8881 8882 
8883 8884 8885 8886 8887 8888 8889 8890 8891 
8892 8893 8894 8895 8896 8897 8898 8899 8900 
8901 8902 8903 8904 8905 8906 8907 8908 8909 
8910 8911 8912 8913 8914 8915 8916 8917 8918 
8919 8920 8921 8922 8923 8924 8925 8926 8927 
8928 8929 8930 8931 8932 8933 8934 8935 8936 
8937 8938 8939 8940 8941 8942 8943 8944 8945 
8946 8947 8948 8949 8950 8951 8952 8953 8954 
8955 8956 8957 8958 8959 8960 8961 8962 8963 
8964 8965 8966 8967 8968 8969 8970 8971 8972 
8973 8974 8975 8976 8977 8978 8979 8980 8981 
8982 8983 8984 8985 8986 8987 8988 8989 8990 
8991 8992 8993 8994 8995 8996 8997 8998 8999 
9000 9001 9002 9003 9004 9005 9006 9007 9008 
9009 9010 9011 9012 9013 9014 9015 9016 9017 
9018 9019 9020 9021 9022 9023 9024 9025 9026 
9027 9028 9029 9030 9031 9032 9033 9034 9035 
9036 9037 9038 9039 9040 9041 9042 9043 9044 
9045 9046 9047 9048 9049 9050 9051 9052 9053 
9054 9055 9056 9057 9058 9059 9060 9061 9062 
9063 9064 9065 9066 9067 9068 9069 9070 9071 
9072 9073 9074 9075 9076 9077 9078 9079 9080 
9081 9082 9083 9084 9085 9086 9087 9088 9089 
9090 9091 9092 9093 9094 9095 9096 9097 9098 
9099 9100 9101 9102 9103 9104 9105 9106 9107 
9108 9109 9110 9111 9112 9113 9114 9115 9116 
9117 9118 9119 9120 9121 9122 9123 9124 9125 
9126 9127 9128 9129 9130 9131 9132 9133 9134 
9135 9136 9137 9138 9139 9140 9141 9142 9143 
9144 9145 9146 9147 9148 9149 9150 9151 9152 
9153 9154 9155 9156 9157 9158 9159 9160 9161 
9162 9163 9164 9165 9166 9167 9168 9169 9170 
9171 9172 9173 9174 9175 9176 9177 9178 9179 
9180 9181 9182 9183 9184 9185 9186 9187 9188 
9189 9190 9191 9192 9193 9194 9195 9196 9197 
9198 9199 9200 9201 9202 9203 9204 9205 9206 
9207 9208 9209 9210 9211 9212 9213 9214 9215 
9216 9217 9218 9219 9220 9221 9222 9223 9224 
9225 9226 9227 9228 9229 9230 9231 9232 9233 
9234 9235 9236 9237 9238 9239 9240 9241 9242 
9243 9244 9245 9246 9247 9248 9249 9250 9251 
9252 9253 9254 9255 9256 9257 9258 9259 9260 
9261 9262 9263 9264 9265 9266 9267 9268 9269 
9270 9271 9272 9273 9274 9275 9276 9277 9278 
9279 9280 9281 9282 9283 9284 9285 9286 9287 
9288 9289 9290 9291 9292 9293 9294 9295 9296 
9297 9298 9299 9300 9301 9302 9303 9304 9305 
9306 9307 9308 9309 9310 9311 9312 9313 9314 
9315 9316 9317 9318 9319 9320 9321 9322 9323 
9324 9325 9326 9327 9328 9329 9330 9331 9332 
9333 9334 9335 9336 9337 9338 9339 9340 9341 
9342 9343 9344 9345 9346 9347 9348 9349 9350 
9351 9352 9353 9354 9355 9356 9357 9358 9359 
9360 9361 9362 9363 9364 9365 9366 9367 9368 
9369 9370 9371 9372 9373 9374 9375 9376 9377 
9378 9379 9380 9381 9382 9383 9384 9385 9386 
9387 9388 9389 9390 9391 9392 9393 9394 9395 
9396 9397 9398 9399 9400 9401 9402 9403 9404 
9405 9406 9407 9408 9409 9410 9411 9412 9413 
9414 9415 9416 9417 9418 9419 9420 9421 9422 
9423 9424 9425 9426 9427 9428 9429 9430 9431 
9432 9433 9434 9435 9436 9437 9438 9439 9440 
9441 9442 9443 9444 9445 9446 9447 9448 9449 
9450 9451 9452 9453 9454 9455 9456 9457 9458 
9459 9460 9461 9462 9463 9464 9465 9466 9467 
9468 9469 9470 9471 9472 9473 9474 9475 9476 
9477 9478 9479 9480 9481 9482 9483 9484 9485 
9486 9487 9488 9489 9490 9491 9492 9493 9494 
9495 9496 9497 9498 9499 9500 9501 9502 9503 
9504 9505 9506 9507 9508 9509 9510 9511 9512 
9513 9514 9515 9516 9517 9518 9519 9520 9521 
9522 9523 9524 9525 9526 9527 9528 9529 9530 
9531 9532 9533 9534 9535 9536 9537 9538 9539 
9540 9541 9542 9543 9544 9545 9546 9547 9548 
9549 9550 9551 9552 9553 9554 9555 9556 9557 
9558 9559 9560 9561 9562 9563 9564 9565 9566 
9567 9568 9569 9570 9571 9572 9573 9574 9575 
9576 9577 9578 9579 9580 9581 9582 9583 9584 
9585 9586 9587 9588 9589 9590 9591 9592 9593 
9594 9595 9596 9597 9598 9599 9600 9601 9602 
9603 9604 9605 9606 9607 9608 9609 9610 9611 
9612 9613 9614 9615 9616 9617 9618 9619 9620 
9621 9622 9623 9624 9625 9626 9627 9628 9629 
9630 9631 9632 9633 9634 9635 9636 9637 9638 
9639 9640 9641 9642 9643 9644 9645 9646 9647 
9648 9649 9650 9651 9652 9653 9654 9655 9656 
9657 9658 9659 9660 9661 9662 9663 9664 9665 
9666 9667 9668 9669 9670 9671 9672 9673 9674 
9675 9676 9677 9678 9679 9680 9681 9682 9683 
9684 9685 9686 9687 9688 9689 9690 9691 9692 
9693 9694 9695 9696 9697 9698 9699 9700 9701 
9702 9703 9704 9705 9706 9707 9708 9709 9710 
9711 9712 9713 9714 9715 9716 9717 9718 9719 
9720 9721 9722 9723 9724 9725 9726 9727 9728 
9729 9730 9731 9732 9733 9734 9735 9736 9737 
9738 9739 9740 9741 9742 9743 9744 9745 9746 
9747 9748 9749 9750 9751 9752 9753 9754 9755 
9756 9757 9758 9759 9760 9761 9762 9763 9764 
9765 9766 9767 9768 9769 9770 9771 9772 9773 
9774 9775 9776 9777 9778 9779 9780 9781 9782 
9783 9784 9785 9786 9787 9788 9789 9790 9791 
9792 9793 9794 9795 9796 9797 9798 9799 9800 
9801 9802 9803 9804 9805 9806 9807 9808 9809 
9810 9811 9812 9813 9814 9815 9816 9817 9818 
9819 9820 9821 9822 9823 9824 9825 9826 9827 
9828 9829 9830 9831 9832 9833 9834 9835 9836 
9837 9838 9839 9840 9841 9842 9843 9844 9845 
9846 9847 9848 9849 9850 9851 9852 9853 9854 
9855 9856 9857 9858 9859 9860 9861 9862 9863 
9864 9865 9866 9867 9868 9869 9870 9871 9872 
9873 9874 9875 9876 9877 9878 9879 9880 9881 
9882 9883 9884 9885 9886 9887 9888 9889 9890 
9891 9892 9893 9894 9895 9896 9897 9898 9899 
9900 9901 9902 9903 9904 9905 9906 9907 9908 
9909 9910 9911 9912 9913 9914 9915 9916 9917 
9918 9919 9920 9921 9922 9923 9924 9925 9926 
9927 9928 9929 9930 9931 9932 9933 9934 9935 
9936 9937 9938 9939 9940 9941 9942 9943 9944 
9945 9946 9947 9948 9949 9950 9951 9952 9953 
9954 9955 9956 9957 9958 9959 9960 9961 9962 
9963 9964 9965 9966 9967 9968 9969 9970 9971 
9972 9973 9974 9975 9976 9977 9978 9979 9980 
9981 9982 9983 9984 9985 9986 9987 9988 9989 
9990 9991 9992 9993 9994 9995 9996 9997 9998 
9999 10000 10001 10002 10003 10004 10005 10006 10007 
10008 10009 10010 10011 10012 10013 10014 10015 10016 
10017 10018 10019 10020 10021 10022 10023 10024 10025 
10026 10027 10028 10029 10030 10031 10032 10033 10034 
10035 10036 10037 10038 10039 10040 10041 10042 10043 
10044 10045 10046 10047 10048 10049 10050 10051 10052 
10053 10054 10055 10056 10057 10058 10059 10060 10061 
10062 10063 10064 10065 10066 10067 10068 10069 10070 
10071 10072 10073 10074 10075 10076 10077 10078 10079 
10080 10081 10082 10083 10084 10085 10086 10087 10088 
10089 10090 10091 10092 10093 10094 10095 10096 10097 
10098 10099 10100 10101 10102 10103 10104 10105 10106 
10107 10108 10109 10110 10111 10112 10113 10114 10115 
10116 10117 10118 10119 10120 10121 10122 10123 10124 
10125 10126 10127 10128 10129 10130 10131 10132 10133 
10134 10135 10136 10137 10138 10139 10140 10141 10142 
10143 10144 10145 10146 10147 10148 10149 10150 10151 
10152 10153 10154 10155 10156 10157 10158 10159 10160 
10161 10162 10163 10164 10165 10166 10167 10168 10169 
10170 10171 10172 10173 10174 10175 10176 10177 10178 
10179 10180 10181 10182 10183 10184 10185 10186 10187 
10188 10189 10190 10191 10192 10193 10194 10195 10196 
10197 10198 10199 10200 10201 10202 10203 10204 10205 
10206 10207 10208 10209 10210 10211 10212 10213 10214 
10215 10216 10217 10218 10219 10220 10221 10222 10223 
10224 10225 10226 10227 10228 10229 10230 10231 10232 
10233 10234 10235 10236 10237 10238 10239 10240 10241 
10242 10243 10244 10245 10246 10247 10248 10249 10250 
10251 10252 10253 10254 10255 10256 10257 10258 10259 
10260 10261 10262 10263 10264 10265 10266 10267 10268 
10269 10270 10271 10272 10273 10274 10275 10276 10277 
10278 10279 10280 10281 10282 10283 10284 10285 10286 
10287 10288 10289 10290 10291 10292 10293 10294 10295 
10296 10297 10298 10299 10300 10301 10302 10303 10304 
10305 10306 10307 10308 10309 10310 10311 10312 10313 
10314 10315 10316 10317 10318 10319 10320 10321 10322 
10323 10324 10325 10326 10327 10328 10329 10330 10331 
10332 10333 10334 10335 10336 10337 10338 10339 10340 
10341 10342 10343 10344 10345 10346 10347 10348 10349 
10350 10351 10352 10353 10354 10355 10356 10357 10358 
10359 10360 10361 10362 10363 10364 10365 10366 10367 
10368 10369 10370 10371 10372 10373 10374 10375 10376 
10377 10378 10379 10380 10381 10382 10383 10384 10385 
10386 10387 10388 10389 10390 10391 10392 10393 10394 
10395 10396 10397 10398 10399 10400 10401 10402 10403 
10404 10405 10406 10407 10408 10409 10410 10411 10412 
10413 10414 10415 10416 10417 10418 10419 10420 10421 
10422 10423 10424 10425 10426 10427 10428 10429 10430 
10431 10432 10433 10434 10435 10436 10437 10438 10439 
10440 10441 10442 10443 10444 10445 10446 10447 10448 
10449 10450 10451 10452 10453 10454 10455 10456 10457 
10458 10459 10460 10461 10462 10463 10464 10465 10466 
10467 10468 10469 10470 10471 10472 10473 10474 10475 
10476 10477 10478 10479 10480 10481 10482 10483 10484 
10485 10486 10487 10488 10489 10490 10491 10492 10493 
10494 10495 10496 10497 10498 10499 10500 10501 10502 
10503 10504 10505 10506 10507 10508 10509 10510 10511 
10512 10513 10514 10515 10516 10517 10518 10519 10520 
10521 10522 10523 10524 10525 10526 10527 10528 10529 
10530 10531 10532 10533 10534 10535 10536 10537 10538 
10539 10540 10541 10542 10543 10544 10545 10546 10547 
10548 10549 10550 10551 10552 10553 10554 10555 10556 
10557 10558 10559 10560 10561 10562 10563 10564 10565 
10566 10567 10568 10569 10570 10571 10572 10573 10574 
10575 10576 10577 10578 10579 10580 10581 10582 10583 
10584 10585 10586 10587 10588 10589 10590 10591 10592 
10593 10594 10595 10596 10597 10598 10599 10600 10601 
10602 10603 10604 10605 10606 10607 10608 10609 10610 
10611 10612 10613 10614 10615 10616 10617 10618 10619 
10620 10621 10622 10623 10624 10625 10626 10627 10628 
10629 10630 10631 10632 10633 10634 10635 10636 10637 
10638 10639 10640 10641 10642 10643 10644 10645 10646 
10647 10648 10649 10650 10651 10652 10653 10654 10655 
10656 10657 10658 10659 10660 10661 10662 10663 10664 
10665 10666 10667 10668 10669 10670 10671 10672 10673 
10674 10675 10676 10677 10678 10679 10680 10681 10682 
10683 10684 10685 10686 10687 10688 10689 10690 10691 
10692 10693 10694 10695 10696 10697 10698 10699 10700 
10701 10702 10703 10704 10705 10706 10707 10708 10709 
10710 10711 10712 10713 10714 10715 10716 10717 10718 
10719 10720 10721 10722 10723 10724 10725 10726 10727 
10728 10729 10730 10731 10732 10733 10734 10735 10736 
10737 10738 10739 10740 10741 10742 10743 10744 10745 
10746 10747 10748 10749 10750 10751 10752 10753 10754 
10755 10756 10757 10758 10759 10760 10761 10762 10763 
10764 10765 10766 10767 10768 10769 10770 10771 10772 
10773 10774 10775 10776 10777 10778 10779 10780 10781 
10782 10783 10784 10785 10786 10787 10788 10789 10790 
10791 10792 10793 10794 10795 10796 10797 10798 10799 
10800 10801 10802 10803 10804 10805 10806 10807 10808 
10809 10810 10811 10812 10813 10814 10815 10816 10817 
10818 10819 10820 10821 10822 10823 10824 10825 10826 
10827 10828 10829 10830 10831 10832 10833 10834 10835 
10836 10837 10838 10839 10840 10841 10842 10843 10844 
10845 10846 10847 10848 10849 10850 10851 10852 10853 
10854 10855 10856 10857 10858 10859 10860 10861 10862 
10863 10864 10865 10866 10867 10868 10869 10870 10871 
10872 10873 10874 10875 10876 10877 10878 10879 10880 
10881 10882 10883 10884 10885 10886 10887 10888 10889 
10890 10891 10892 10893 10894 10895 10896 10897 10898 
10899 10900 10901 10902 10903 10904 10905 10906 10907 
10908 10909 10910 10911 10912 10913 10914 10915 10916 
10917 10918 10919 10920 10921 10922 10923 10924 10925 
10926 10927 10928 10929 10930 10931 10932 10933 10934 
10935 10936 10937 10938 10939 10940 10941 10942 10943 
10944 10945 10946 10947 10948 10949 10950 10951 10952 
10953 10954 10955 10956 10957 10958 10959 10960 10961 
10962 10963 10964 10965 10966 10967 10968 10969 10970 
10971 10972 10973 10974 10975 10976 10977 10978 10979 
10980 10981 10982 10983 10984 10985 10986 10987 10988 
10989 10990 10991 10992 10993 10994 10995 10996 10997 
10998 10999 11000 11001 11002 11003 11004 11005 11006 
11007 11008 11009 11010 11011 11012 11013 11014 11015 
11016 11017 11018 11019 11020 11021 11022 11023 11024 
11025 11026 11027 11028 11029 11030 11031 11032 11033 
11034 11035 11036 11037 11038 11039 11040 11041 11042 
11043 11044 11045 11046 11047 11048 11049 11050 11051 
11052 11053 11054 11055 11056 11057 11058 11059 11060 
11061 11062 11063 11064 11065 11066 11067 11068 11069 
11070 11071 11072 11073 11074 11075 11076 11077 11078 
11079 11080 11081 11082 11083 11084 11085 11086 11087 
11088 11089 11090 11091 11092 11093 11094 11095 11096 
11097 11098 11099 11100 11101 11102 11103 11104 11105 
11106 11107 11108 11109 11110 11111 11112 11113 11114 
11115 11116 11117 11118 11119 11120 11121 11122 11123 
11124 11125 11126 11127 11128 11129 11130 11131 11132 
11133 11134 11135 11136 11137 11138 11139 11140 11141 
11142 11143 11144 11145 11146 11147 11148 11149 11150 
11151 11152 11153 11154 11155 11156 11157 11158 11159 
11160 11161 11162 11163 11164 11165 11166 11167 11168 
11169 11170 11171 11172 11173 11174 11175 11176 11177 
11178 11179 11180 11181 11182 11183 11184 11185 11186 
11187 11188 11189 11190 11191 11192 11193 11194 11195 
11196 11197 11198 11199 11200 11201 11202 11203 11204 
11205 11206 11207 11208 11209 11210 11211 11212 11213 
11214 11215 11216 11217 11218 11219 11220 11221 11222 
11223 11224 11225 11226 11227 11228 11229 11230 11231 
11232 11233 11234 11235 11236 11237 11238 11239 11240 
11241 11242 11243 11244 11245 11246 11247 11248 11249 
11250 11251 11252 11253 11254 11255 11256 11257 11258 
11259 11260 11261 11262 11263 11264 11265 11266 11267 
11268 11269 11270 11271 11272 11273 11274 11275 11276 
11277 11278 11279 11280 11281 11282 11283 11284 11285 
11286 11287 11288 11289 11290 11291 11292 11293 11294 
11295 11296 11297 11298 11299 11300 11301 11302 11303 
11304 11305 11306 11307 11308 11309 11310 11311 11312 
11313 11314 11315 11316 11317 11318 11319 11320 11321 
11322 11323 11324 11325 11326 11327 11328 11329 11330 
11331 11332 11333 11334 11335 11336 11337 11338 11339 
11340 11341 11342 11343 11344 11345 11346 11347 11348 
11349 11350 11351 11352 11353 11354 11355 11356 11357 
11358 11359 11360 11361 11362 11363 11364 11365 11366 
11367 11368 11369 11370 11371 11372 11373 11374 11375 
11376 11377 11378 11379 11380 11381 11382 11383 11384 
11385 11386 11387 11388 11389 11390 11391 11392 11393 
11394 11395 11396 11397 11398 11399 11400 11401 11402 
11403 11404 11405 11406 11407 11408 11409 11410 11411 
11412 11413 11414 11415 11416 11417 11418 11419 11420 
11421 11422 11423 11424 11425 11426 11427 11428 11429 
11430 11431 11432 11433 11434 11435 11436 11437 11438 
11439 11440 11441 11442 11443 11444 11445 11446 11447 
11448 11449 11450 11451 11452 11453 11454 11455 11456 
11457 11458 11459 11460 11461 11462 11463 11464 11465 
11466 11467 11468 11469 11470 11471 11472 11473 11474 
11475 11476 11477 11478 11479 11480 11481 11482 11483 
11484 11485 11486 11487 11488 11489 11490 11491 11492 
11493 11494 11495 11496 11497 11498 11499 11500 11501 
11502 11503 11504 11505 11506 11507 11508 11509 11510 
11511 11512 11513 11514 11515 11516 11517 11518 11519 
11520 11521 11522 11523 11524 11525 11526 11527 11528 
11529 11530 11531 11532 11533 11534 11535 11536 11537 
11538 11539 11540 11541 11542 11543 11544 11545 11546 
11547 11548 11549 11550 11551 11552 11553 11554 11555 
11556 11557 11558 11559 11560 11561 11562 11563 11564 
11565 11566 11567 11568 11569 11570 11571 11572 11573 
11574 11575 11576 11577 11578 11579 11580 11581 11582 
11583 11584 11585 11586 11587 11588 11589 11590 11591 
11592 11593 11594 11595 11596 11597 11598 11599 11600 
11601 11602 11603 11604 11605 11606 11607 11608 11609 
11610 11611 11612 11613 11614 11615 11616 11617 11618 
11619 11620 11621 11622 11623 11624 11625 11626 11627 
11628 11629 11630 11631 11632 11633 11634 11635 11636 
11637 11638 11639 11640 11641 11642 11643 11644 11645 
11646 11647 11648 11649 11650 11651 11652 11653 11654 
11655 11656 11657 11658 11659 11660 11661 11662 11663 
11664 11665 11666 11667 11668 11669 11670 11671 11672 
11673 11674 11675 11676 11677 11678 11679 11680 11681 
11682 11683 11684 11685 11686 11687 11688 11689 11690 
11691 11692 11693 11694 11695 11696 11697 11698 11699 
11700 11701 11702 11703 11704 11705 11706 11707 11708 
11709 11710 11711 11712 11713 11714 11715 11716 11717 
11718 11719 11720 11721 11722 11723 11724 11725 11726 
11727 11728 11729 11730 11731 11732 11733 11734 11735 
11736 11737 11738 11739 11740 11741 11742 11743 11744 
11745 11746 11747 11748 11749 11750 11751 11752 11753 
11754 11755 11756 11757 11758 11759 11760 11761 11762 
11763 11764 11765 11766 11767 11768 11769 11770 11771 
11772 11773 11774 11775 11776 11777 11778 11779 11780 
11781 11782 11783 11784 11785 11786 11787 11788 11789 
11790 11791 11792 11793 11794 11795 11796 11797 11798 
11799 11800 11801 11802 11803 11804 11805 11806 11807 
11808 11809 11810 11811 11812 11813 11814 11815 11816 
11817 11818 11819 11820 11821 11822 11823 11824 11825 
11826 11827 11828 11829 11830 11831 11832 11833 11834 
11835 11836 11837 11838 11839 11840 11841 11842 11843 
11844 11845 11846 11847 11848 11849 11850 11851 11852 
11853 11854 11855 11856 11857 11858 11859 11860 11861 
11862 11863 11864 11865 11866 11867 11868 11869 11870 
11871 11872 11873 11874 11875 11876 11877 11878 11879 
11880 11881 11882 11883 11884 11885 11886 11887 11888 
11889 11890 11891 11892 11893 11894 11895 11896 11897 
11898 11899 11900 11901 11902 11903 11904 11905 11906 
11907 11908 11909 11910 11911 11912 11913 11914 11915 
11916 11917 11918 11919 11920 11921 11922 11923 11924 
11925 11926 11927 11928 11929 11930 11931 11932 11933 
11934 11935 11936 11937 11938 11939 11940 11941 11942 
11943 11944 11945 11946 11947 11948 11949 11950 11951 
11952 11953 11954 11955 11956 11957 11958 11959 11960 
11961 11962 11963 11964 11965 11966 11967 11968 11969 
11970 11971 11972 11973 11974 11975 11976 11977 11978 
11979 11980 11981 11982 11983 11984 11985 11986 11987 
11988 11989 11990 11991 11992 11993 11994 11995 11996 
11997 11998 11999 12000 12001 12002 12003 12004 12005 
12006 12007 12008 12009 12010 12011 12012 12013 12014 
12015 12016 12017 12018 12019 12020 12021 12022 12023 
12024 12025 12026 12027 12028 12029 12030 12031 12032 
12033 12034 12035 12036 12037 12038 12039 12040 12041 
12042 12043 12044 12045 12046 12047 12048 12049 12050 
12051 12052 12053 12054 12055 12056 12057 12058 12059 
12060 12061 12062 12063 12064 12065 12066 12067 12068 
12069 12070 12071 12072 12073 12074 12075 12076 12077 
12078 12079 12080 12081 12082 12083 12084 12085 12086 
12087 12088 12089 12090 12091 12092 12093 12094 12095 
12096 12097 12098 12099 12100 12101 12102 12103 12104 
12105 12106 12107 12108 12109 12110 12111 12112 12113 
12114 12115 12116 12117 12118 12119 12120 12121 12122 
12123 12124 12125 12126 12127 12128 12129 12130 12131 
12132 12133 12134 12135 12136 12137 12138 12139 12140 
12141 12142 12143 12144 12145 12146 12147 12148 12149 
12150 12151 12152 12153 12154 12155 12156 12157 12158 
12159 12160 12161 12162 12163 12164 12165 12166 12167 
12168 12169 12170 12171 12172 12173 12174 12175 12176 
12177 12178 12179 12180 12181 12182 12183 12184 12185 
12186 12187 12188 12189 12190 12191 12192 12193 12194 
12195 12196 12197 12198 12199 12200 12201 12202 12203 
12204 12205 12206 12207 12208 12209 12210 12211 12212 
12213 12214 12215 12216 12217 12218 12219 12220 12221 
12222 12223 12224 12225 12226 12227 12228 12229 12230 
12231 12232 12233 12234 12235 12236 12237 12238 12239 
12240 12241 12242 12243 12244 12245 12246 12247 12248 
12249 12250 12251 12252 12253 12254 12255 12256 12257 
12258 12259 12260 12261 12262 12263 12264 12265 12266 
12267 12268 12269 12270 12271 12272 12273 12274 12275 
12276 12277 12278 12279 12280 12281 12282 12283 12284 
12285 12286 12287 12288 12289 12290 12291 12292 12293 
12294 12295 12296 12297 12298 12299 12300 12301 12302 
12303 12304 12305 12306 12307 12308 12309 12310 12311 
12312 12313 12314 12315 12316 12317 12318 12319 12320 
12321 12322 12323 12324 12325 12326 12327 12328 12329 
12330 12331 12332 12333 12334 12335 12336 12337 12338 
12339 12340 12341 12342 12343 12344 12345 12346 12347 
12348 12349 12350 12351 12352 12353 12354 12355 12356 
12357 12358 12359 12360 12361 12362 12363 12364 12365 
12366 12367 12368 12369 12370 12371 12372 12373 12374 
12375 12376 12377 12378 12379 12380 12381 12382 12383 
12384 12385 12386 12387 12388 12389 12390 12391 12392 
12393 12394 12395 12396 12397 12398 12399 12400 12401 
12402 12403 12404 12405 12406 12407 12408 12409 12410 
      </DataArray>
      <DataArray type="Int32" Name="offsets" format="ascii">
9
18
27
36
45
54
63
72
81
90
99
108
117
126
135
144
153
162
171
180
189
198
207
216
225
234
243
252
261
270
279
288
297
306
315
324
333
342
351
360
369
378
387
396
405
414
423
432
441
450
459
468
477
486
495
504
513
522
531
540
549
558
567
576
585
594
603
612
621
630
639
648
657
666
675
684
693
702
711
720
729
738
747
756
765
774
783
792
801
810
819
828
837
846
855
864
873
882
891
900
909
918
927
936
945
954
963
972
981
990
999
1008
1017
1026
1035
1044
1053
1062
1071
1080
1089
1098
1107
1116
1125
1134
1143
1152
1161
1170
1179
1188
1197
1206
1215
1224
1233
1242
1251
1260
1269
1278
1287
1296
1305
1314
1323
1332
1341
1350
1359
1368
1377
1386
1395
1404
1413
1422
1431
1440
1449
1458
1467
1476
1485
1494
1503
1512
1521
1530
1539
1548
1557
1566
1575
1584
1593
1602
1611
1620
1629
1638
1647
1656
1665
1674
1683
1692
1701
1710
1719
1728
1737
1746
1755
1764
1773
1782
1791
1800
1809
1818
1827
1836
1845
1854
1863
1872
1881
1890
1899
1908
1917
1926
1935
1944
1953
1962
1971
1980
1989
1998
2007
2016
2025
2034
2043
2052
2061
2070
2079
2088
2097
2106
2115
2124
2133
2142
2151
2160
2169
2178
2187
2196
2205
2214
2223
2232
2241
2250
2259
2268
2277
2286
2295
2304
2313
2322
2331
2340
2349
2358
2367
2376
2385
2394
2403
2412
2421
2430
2439
2448
2457
2466
2475
2484
2493
2502
2511
2520
2529
2538
2547
2556
2565
2574
2583
2592
2601
2610
2619
2628
2637
2646
2655
2664
2673
2682
2691
2700
2709
2718
2727
2736
2745
2754
2763
2772
2781
2790
2799
2808
2817
2826
2835
2844
2853
2862
2871
2880
2889
2898
2907
2916
2925
2934
2943
2952
2961
2970
2979
2988
2997
3006
3015
3024
3033
3042
3051
3060
3069
3078
3087
3096
3105
3114
3123
3132
3141
3150
3159
3168
3177
3186
3195
3204
3213
3222
3231
3240
3249
3258
3267
3276
3285
3294
3303
3312
3321
3330
3339
3348
3357
3366
3375
3384
3393
3402
3411
3420
3429
3438
3447
3456
3465
3474
3483
3492
3501
3510
3519
3528
3537
3546
3555
3564
3573
3582
3591
3600
3609
3618
3627
3636
3645
3654
3663
3672
3681
3690
3699
3708
3717
3726
3735
3744
3753
3762
3771
3780
3789
3798
3807
3816
3825
3834
3843
3852
3861
3870
3879
3888
3897
3906
3915
3924
3933
3942
3951
3960
3969
3978
3987
3996
4005
4014
4023
4032
4041
4050
4059
4068
4077
4086
4095
4104
4113
4122
4131
4140
4149
4158
4167
4176
4185
4194
4203
4212
4221
4230
4239
4248
4257
4266
4275
4284
4293
4302
4311
4320
4329
4338
4347
4356
4365
4374
4383
4392
4401
4410
4419
4428
4437
4446
4455
4464
4473
4482
4491
4500
4509
4518
4527
4536
4545
4554
4563
4572
4581
4590
4599
4608
4617
4626
4635
4644
4653
4662
4671
4680
4689
4698
4707
4716
4725
4734
4743
4752
4761
4770
4779
4788
4797
4806
4815
4824
4833
4842
4851
4860
4869
4878
4887
4896
4905
4914
4923
4932
4941
4950
4959
4968
4977
4986
4995
5004
5013
5022
5031
5040
5049
5058
5067
5076
5085
5094
5103
5112
5121
5130
5139
5148
5157
5166
5175
5184
5193
5202
5211
5220
5229
5238
5247
5256
5265
5274
5283
5292
5301
5310
5319
5328
5337
5346
5355
5364
5373
5382
5391
5400
5409
5418
5427
5436
5445
5454
5463
5472
5481
5490
5499
5508
5517
5526
5535
5544
5553
5562
5571
5580
5589
5598
5607
5616
5625
5634
5643
5652
5661
5670
5679
5688
5697
5706
5715
5724
5733
5742
5751
5760
5769
5778
5787
5796
5805
5814
5823
5832
5841
5850
5859
5868
5877
5886
5895
5904
5913
5922
5931
5940
5949
5958
5967
5976
5985
5994
6003
6012
6021
6030
6039
6048
6057
6066
6075
6084
6093
6102
6111
6120
6129
6138
6147
6156
6165
6174
6183
6192
6201
6210
6219
6228
6237
6246
6255
6264
6273
6282
6291
6300
6309
6318
6327
6336
6345
6354
6363
6372
6381
6390
6399
6408
6417
6426
6435
6444
6453
6462
6471
6480
6489
6498
6507
6516
6525
6534
6543
6552
6561
6570
6579
6588
6597
6606
6615
6624
6633
6642
6651
6660
6669
6678
6687
6696
6705
6714
6723
6732
6741
6750
6759
6768
6777
6786
6795
6804
6813
6822
6831
6840
6849
6858
6867
6876
6885
6894
6903
6912
6921
6930
6939
6948
6957
6966
6975
6984
6993
7002
7011
7020
7029
7038
7047
7056
7065
7074
7083
7092
7101
7110
7119
7128
7137
7146
7155
7164
7173
7182
7191
7200
7209
7218
7227
7236
7245
7254
7263
7272
7281
7290
7299
7308
7317
7326
7335
7344
7353
7362
7371
7380
7389
7398
7407
7416
7425
7434
7443
7452
7461
7470
7479
7488
7497
7506
7515
7524
7533
7542
7551
7560
7569
7578
7587
7596
7605
7614
7623
7632
7641
7650
7659
7668
7677
7686
7695
7704
7713
7722
7731
7740
7749
7758
7767
7776
7785
7794
7803
7812
7821
7830
7839
7848
7857
7866
7875
7884
7893
7902
7911
7920
7929
7938
7947
7956
7965
7974
7983
7992
8001
8010
8019
8028
8037
8046
8055
8064
8073
8082
8091
8100
8109
8118
8127
8136
8145
8154
8163
8172
8181
8190
8199
8208
8217
8226
8235
8244
8253
8262
8271
8280
8289
8298
8307
8316
8325
8334
8343
8352
8361
8370
8379
8388
8397
8406
8415
8424
8433
8442
8451
8460
8469
8478
8487
8496
8505
8514
8523
8532
8541
8550
8559
8568
8577
8586
8595
8604
8613
8622
8631
8640
8649
8658
8667
8676
8685
8694
8703
8712
8721
8730
8739
8748
8757
8766
8775
8784
8793
8802
8811
8820
8829
8838
8847
8856
8865
8874
8883
8892
8901
8910
8919
8928
8937
8946
8955
8964
8973
8982
8991
9000
9009
9018
9027
9036
9045
9054
9063
9072
9081
9090
9099
9108
9117
9126
9135
9144
9153
9162
9171
9180
9189
9198
9207
9216
9225
9234
9243
9252
9261
9270
9279
9288
9297
9306
9315
9324
9333
9342
9351
9360
9369
9378
9387
9396
9405
9414
9423
9432
9441
9450
9459
9468
9477
9486
9495
9504
9513
9522
9531
9540
9549
9558
9567
9576
9585
9594
9603
9612
9621
9630
9639
9648
9657
9666
9675
9684
9693
9702
9711
9720
9729
9738
9747
9756
9765
9774
9783
9792
9801
9810
9819
9828
9837
9846
9855
9864
9873
9882
9891
9900
9909
9918
9927
9936
9945
9954
9963
9972
9981
9990
9999
10008
10017
10026
10035
10044
10053
10062
10071
10080
10089
10098
10107
10116
10125
10134
10143
10152
10161
10170
10179
10188
10197
10206
10215
10224
10233
10242
10251
10260
10269
10278
10287
10296
10305
10314
10323
10332
10341
10350
10359
10368
10377
10386
10395
10404
10413
10422
10431
10440
10449
10458
10467
10476
10485
10494
10503
10512
10521
10530
10539
10548
10557
10566
10575
10584
10593
10602
10611
10620
10629
10638
10647
10656
10665
10674
10683
10692
10701
10710
10719
10728
10737
10746
10755
10764
10773
10782
10791
10800
10809
10818
10827
10836
10845
10854
10863
10872
10881
10890
10899
10908
10917
10926
10935
10944
10953
10962
10971
10980
10989
10998
11007
11016
11025
11034
11043
11052
11061
11070
11079
11088
11097
11106
11115
11124
11133
11142
11151
11160
11169
11178
11187
11196
11205
11214
11223
11232
11241
11250
11259
11268
11277
11286
11295
11304
11313
11322
11331
11340
11349
11358
11367
11376
11385
11394
11403
11412
11421
11430
11439
11448
11457
11466
11475
11484
11493
11502
11511
11520
11529
11538
11547
11556
11565
11574
11583
11592
11601
11610
11619
11628
11637
11646
11655
11664
11673
11682
11691
11700
11709
11718
11727
11736
11745
11754
11763
11772
11781
11790
11799
11808
11817
11826
11835
11844
11853
11862
11871
11880
11889
11898
11907
11916
11925
11934
11943
11952
11961
11970
11979
11988
11997
12006
12015
12024
12033
12042
12051
12060
12069
12078
12087
12096
12105
12114
12123
12132
12141
12150
12159
12168
12177
12186
12195
12204
12213
12222
12231
12240
12249
12258
12267
12276
12285
12294
12303
12312
12321
12330
12339
12348
12357
12366
12375
12384
12393
12402
12411
      </DataArray>
      <DataArray type="UInt8" Name="types" format="ascii">
70
70
70
70
70
70
70
70
70
70
70
70
70
70
70
70
70
70
70
70
70
70
70
70
70
70
70
70
70
70
70
70
70
70
70
70
70
70
70
70
70
70
70
70
70
70
70
70
70
70
70
70
70
70
70
70
70
70
70
70
70
70
70
70
70
70
70
70
70
70
70
70
70
70
70
70
70
70
70
70
70
70
70
70
70
70
70
70
70
70
70
70
70
70
70
70
70
70
70
70
70
70
70
70
70
70
70
70
70
70
70
70
70
70
70
70
70
70
70
70
70
70
70
70
70
70
70
70
70
70
70
70
70
70
70
70
70
70
70
70
70
70
70
70
70
70
70
70
70
70
70
70
70
70
70
70
70
70
70
70
70
70
70
70
70
70
70
70
70
70
70
70
70
70
70
70
70
70
70
70
70
70
70
70
70
70
70
70
70
70
70
70
70
70
70
70
70
70
70
70
70
70
70
70
70
70
70
70
70
70
70
70
70
70
70
70
70
70
70
70
70
70
70
70
70
70
70
70
70
70
70
70
70
70
70
70
70
70
70
70
70
70
70
70
70
70
70
70
70
70
70
70
70
70
70
70
70
70
70
70
70
70
70
70
70
70
70
70
70
70
70
70
70
70
70
70
70
70
70
70
70
70
70
70
70
70
70
70
70
70
70
70
70
70
70
70
70
70
70
70
70
70
70
70
70
70
70
70
70
70
70
70
70
70
70
70
70
70
70
70
70
70
70
70
70
70
70
70
70
70
70
70
70
70
70
70
70
70
70
70
70
70
70
70
70
70
70
70
70
70
70
70
70
70
70
70
70
70
70
70
70
70
70
70
70
70
70
70
70
70
70
70
70
70
70
70
70
70
70
70
70
70
70
70
70
70
70
70
70
70
70
70
70
70
70
70
70
70
70
70
70
70
70
70
70
70
70
70
70
70
70
70
70
70
70
70
70
70
70
70
70
70
70
70
70
70
70
70
70
70
70
70
70
70
70
70
70
70
70
70
70
70
70
70
70
70
70
70
70
70
70
70
70
70
70
70
70
70
70
70
70
70
70
70
70
70
70
70
70
70
70
70
70
70
70
70
70
70
70
70
70
70
70
70
70
70
70
70
70
70
70
70
70
70
70
70
70
70
70
70
70
70
70
70
70
70
70
70
70
70
70
70
70
70
70
70
70
70
70
70
70
70
70
70
70
70
70
70
70
70
70
70
70
70
70
70
70
70
70
70
70
70
70
70
70
70
70
70
70
70
70
70
70
70
70
70
70
70
70
70
70
70
70
70
70
70
70
70
70
70
70
70
70
70
70
70
70
70
70
70
70
70
70
70
70
70
70
70
70
70
70
70
70
70
70
70
70
70
70
70
70
70
70
70
70
70
70
70
70
70
70
70
70
70
70
70
70
70
70
70
70
70
70
70
70
70
70
70
70
70
70
70
70
70
70
70
70
70
70
70
70
70
70
70
70
70
70
70
70
70
70
70
70
70
70
70
70
70
70
70
70
70
70
70
70
70
70
70
70
70
70
70
70
70
70
70
70
70
70
70
70
70
70
70
70
70
70
70
70
70
70
70
70
70
70
70
70
70
70
70
70
70
70
70
70
70
70
70
70
70
70
70
70
70
70
70
70
70
70
70
70
70
70
70
70
70
70
70
70
70
70
70
70
70
70
70
70
70
70
70
70
70
70
70
70
70
70
70
70
70
70
70
70
70
70
70
70
70
70
70
70
70
70
70
70
70
70
70
70
70
70
70
70
70
70
70
70
70
70
70
70
70
70
70
70
70
70
70
70
70
70
70
70
70
70
70
70
70
70
70
70
70
70
70
70
70
70
70
70
70
70
70
70
70
70
70
70
70
70
70
70
70
70
70
70
70
70
70
70
70
70
70
70
70
70
70
70
70
70
70
70
70
70
70
70
70
70
70
70
70
70
70
70
70
70
70
70
70
70
70
70
70
70
70
70
70
70
70
70
70
70
70
70
70
70
70
70
70
70
70
70
70
70
70
70
70
70
70
70
70
70
70
70
70
70
70
70
70
70
70
70
70
70
70
70
70
70
70
70
70
70
70
70
70
70
70
70
70
70
70
70
70
70
70
70
70
70
70
70
70
70
70
70
70
70
70
70
70
70
70
70
70
70
70
70
70
70
70
70
70
70
70
70
70
70
70
70
70
70
70
70
70
70
70
70
70
70
70
70
70
70
70
70
70
70
70
70
70
70
70
70
70
70
70
70
70
70
70
70
70
70
70
70
70
70
70
70
70
70
70
70
70
70
70
70
70
70
70
70
70
70
70
70
70
70
70
70
70
70
70
70
70
70
70
70
70
70
70
70
70
70
70
70
70
70
70
70
70
70
70
70
70
70
70
70
70
70
70
70
70
70
70
70
70
70
70
70
70
70
70
70
70
70
70
70
70
70
70
70
70
70
70
70
70
70
70
70
70
70
70
70
70
70
70
70
70
70
70
70
70
70
70
70
70
70
70
70
70
70
70
70
70
70
70
70
70
70
70
70
70
70
70
70
70
70
70
70
70
70
70
70
70
70
70
70
70
70
70
70
70
70
70
70
70
70
70
70
70
70
70
70
70
70
70
70
70
70
70
70
70
70
70
70
70
70
70
70
70
70
70
70
70
70
70
70
70
70
70
70
70
70
70
70
70
70
70
70
70
70
70
70
70
70
70
70
70
70
70
70
70
70
70
70
70
70
70
70
70
70
70
70
70
70
70
70
70
70
70
70
70
70
70
70
70
70
70
70
70
70
70
70
70
70
70
70
70
70
70
70
70
70
70
70
70
70
70
70
70
70
70
70
70
70
70
70
70
70
70
70
70
70
70
70
70
70
70
70
70
70
70
70
70
70
70
70
70
70
70
70
70
70
70
70
70
70
70
70
70
70
70
70
70
70
70
70
70
70
70
70
70
70
70
70
70
70
70
70
70
70
70
70
70
70
70
70
70
70
70
70
70
70
70
70
70
70
70
70
70
70
70
70
70
70
70
70
70
70
70
70
70
70
70
70
70
70
70
70
70
70
70
70
70
70
70
70
70
70
70
70
70
70
70
70
70
70
70
70
70
70
70
70
70
70
70
70
70
70
70
70
70
70
70
70
70
70
70
70
70
70
      </DataArray>
    </Cells>
    <PointData>
      <DataArray type="Float64" NumberOfComponents="3" Name="Displacement" format="ascii">
0 0 0
-0.00384674 -0.00191898 -0.00191898
-0.00229334 -0.000648301 -0.000648301
0 0 0
-0.00209313 -0.00119633 -0.00119633
-0.0028971 -0.00115978 -0.00115978
-0.00111283 -0.000232318 -0.000232318
0 0 0
-0.00138169 -0.000511217 -0.000511217
-0.00384674 -0.00191898 -0.00191898
-0.0071752 -0.00333263 -0.00333263
-0.00477656 -0.00187201 -0.00187201
-0.00229334 -0.000648301 -0.000648301
-0.00551585 -0.0025991 -0.0025991
-0.00591552 -0.00252831 -0.00252831
-0.00352314 -0.00120105 -0.00120105
-0.0028971 -0.00115978 -0.00115978
-0.00441482 -0.00182344 -0.00182344
-0.0071752 -0.00333263 -0.00333263
-0.0105331 -0.00503817 -0.00503817
-0.0072822 -0.00355343 -0.00355343
-0.00477656 -0.00187201 -0.00187201
-0.0088482 -0.00413542 -0.00413542
-0.00888977 -0.00423974 -0.00423974
-0.00603087 -0.00265354 -0.00265354
-0.00591552 -0.00252831 -0.00252831
-0.00740651 -0.00332826 -0.00332826
-0.0105331 -0.00503817 -0.00503817
-0.0139185 -0.00723297 -0.00723297
-0.00977537 -0.0057435 -0.0057435
-0.0072822 -0.00355343 -0.00355343
-0.0122233 -0.00606925 -0.00606925
-0.0118386 -0.00642965 -0.00642965
-0.00853093 -0.0045819 -0.0045819
-0.00888977 -0.00423974 -0.00423974
-0.0103663 -0.00527036 -0.00527036
-0.0139185 -0.00723297 -0.00723297
-0.0173221 -0.00996235 -0.00996235
-0.0122476 -0.0084785 -0.0084785
-0.00977537 -0.0057435 -0.0057435
-0.015619 -0.00852897 -0.00852897
-0.0147776 -0.00916234 -0.00916234
-0.0110139 -0.00704133 -0.00704133
-0.0118386 -0.00642965 -0.00642965
-0.0133091 -0.00772615 -0.00772615
-0.0173221 -0.00996235 -0.00996235
-0.020727 -0.013257 -0.013257
-0.0147038 -0.0117794 -0.0117794
-0.0122476 -0.0084785 -0.0084785
-0.0190249 -0.0115383 -0.0115383
-0.0177069 -0.0124583 -0.0124583
-0.0134775 -0.0100576 -0.0100576
-0.0147776 -0.00916234 -0.00916234
-0.0162435 -0.0107393 -0.0107393
-0.020727 -0.013257 -0.013257
-0.0241275 -0.0171211 -0.0171211
-0.0171451 -0.0156522 -0.0156522
-0.0147038 -0.0117794 -0.0117794
-0.0224282 -0.0151176 -0.0151176
-0.0206264 -0.0163264 -0.0163264
-0.0159262 -0.0136442 -0.0136442
-0.0177069 -0.0124583 -0.0124583
-0.0191679 -0.0143207 -0.0143207
-0.0241275 -0.0171211 -0.0171211
-0.0275173 -0.0215583 -0.0215583
-0.0195736 -0.0200983 -0.0200983
-0.0171451 -0.0156522 -0.0156522
-0.0258239 -0.0192681 -0.0192681
-0.0235344 -0.0207677 -0.0207677
-0.0183609 -0.0178036 -0.0178036
-0.0206264 -0.0163264 -0.0163264
-0.0220819 -0.0184755 -0.0184755
-0.0275173 -0.0215583 -0.0215583
-0.0308938 -0.0265665 -0.0265665
-0.0219896 -0.0251161 -0.0251161
-0.0195736 -0.0200983 -0.0200983
-0.0292073 -0.0239912 -0.0239912
-0.0264299 -0.0257808 -0.0257808
-0.0207831 -0.0225359 -0.0225359
-0.0235344 -0.0207677 -0.0207677
-0.0249838 -0.0232029 -0.0232029
-0.0308938 -0.0265665 -0.0265665
-0.0342553 -0.0321437 -0.0321437
-0.0243938 -0.0307031 -0.0307031
-0.0219896 -0.0251161 -0.0251161
-0.0325765 -0.0292842 -0.0292842
-0.0293123 -0.0313629 -0.0313629
-0.0231932 -0.0278386 -0.0278386
-0.0264299 -0.0257808 -0.0257808
-0.0278728 -0.0285009 -0.0285009
-0.0342553 -0.0321437 -0.0321437
-0.037601 -0.0382866 -0.0382866
-0.0267864 -0.0368561 -0.0368561
-0.0243938 -0.0307031 -0.0307031
-0.0359302 -0.0351446 -0.0351446
-0.0321813 -0.0375111 -0.0375111
-0.0255916 -0.033709 -0.033709
-0.0293123 -0.0313629 -0.0313629
-0.0307485 -0.0343664 -0.0343664
-0.037601 -0.0382866 -0.0382866
-0.0409306 -0.0449922 -0.0449922
-0.0291676 -0.043572 -0.043572
-0.0267864 -0.0368561 -0.0368561
-0.0392679 -0.0415692 -0.0415692
-0.0350365 -0.0442221 -0.0442221
-0.0279785 -0.0401438 -0.0401438
-0.0321813 -0.0375111 -0.0375111
-0.0336106 -0.0407964 -0.0407964
-0.0409306 -0.0449922 -0.0449922
-0.0442439 -0.0522574 -0.0522574
-0.0315376 -0.0508476 -0.0508476
-0.0291676 -0.043572 -0.043572
-0.0425893 -0.048555 -0.048555
-0.0378781 -0.0514929 -0.0514929
-0.030354 -0.04714 -0.04714
-0.0350365 -0.0442221 -0.0442221
-0.036459 -0.0477877 -0.0477877
-0.0442439 -0.0522574 -0.0522574
-0.047541 -0.0600791 -0.0600791
-0.0338963 -0.05868 -0.05868
-0.0315376 -0.0508476 -0.0508476
-0.0458945 -0.0560989 -0.0560989
-0.0407059 -0.0593202 -0.0593202
-0.0327183 -0.0546944 -0.0546944
-0.0378781 -0.0514929 -0.0514929
-0.0392937 -0.0553371 -0.0553371
-0.047541 -0.0600791 -0.0600791
-0.050822 -0.0684541 -0.0684541
-0.0362441 -0.0670659 -0.0670659
-0.0338963 -0.05868 -0.05868
-0.0491835 -0.0641976 -0.0641976
-0.0435203 -0.067701 -0.067701
-0.0350716 -0.0628039 -0.0628039
-0.0407059 -0.0593202 -0.0593202
-0.0421148 -0.0634416 -0.0634416
-0.050822 -0.0684541 -0.0684541
-0.0540869 -0.0773795 -0.0773795
-0.0385809 -0.0760023 -0.0760023
-0.0362441 -0.0670659 -0.0670659
-0.0524564 -0.0728482 -0.0728482
-0.0463211 -0.0766323 -0.0766323
-0.0374138 -0.0714655 -0.0714655
-0.0435203 -0.067701 -0.067701
-0.0449224 -0.072098 -0.072098
-0.0540869 -0.0773795 -0.0773795
-0.0573358 -0.0868523 -0.0868523
-0.0409069 -0.0854862 -0.0854862
-0.0385809 -0.0760023 -0.0760023
-0.0557133 -0.0820477 -0.0820477
-0.0491085 -0.0861109 -0.0861109
-0.0397452 -0.080676 -0.080676
-0.0463211 -0.0766323 -0.0766323
-0.0477165 -0.0813033 -0.0813033
-0.0573358 -0.0868523 -0.0868523
-0.0605689 -0.0968693 -0.0968693
-0.0432222 -0.0955146 -0.0955146
-0.0409069 -0.0854862 -0.0854862
-0.0589543 -0.0917929 -0.0917929
-0.0518827 -0.0961339 -0.0961339
-0.0420659 -0.0904326 -0.0904326
-0.0491085 -0.0861109 -0.0861109
-0.0504973 -0.0910546 -0.0910546
-0.0605689 -0.0968693 -0.0968693
-0.0637862 -0.107428 -0.107428
-0.0455268 -0.106084 -0.106084
-0.0432222 -0.0955146 -0.0955146
-0.0621795 -0.102081 -0.102081
-0.0546437 -0.106698 -0.106698
-0.0443758 -0.100732 -0.100732
-0.0518827 -0.0961339 -0.0961339
-0.0532649 -0.101349 -0.101349
-0.0637862 -0.107428 -0.107428
-0.066988 -0.118524 -0.118524
-0.047821 -0.117193 -0.117193
-0.0455268 -0.106084 -0.106084
-0.0653891 -0.112909 -0.112909
-0.0573917 -0.117801 -0.117801
-0.0466752 -0.111571 -0.111571
-0.0546437 -0.106698 -0.106698
-0.0560193 -0.112183 -0.112183
-0.066988 -0.118524 -0.118524
-0.0701742 -0.130156 -0.130156
-0.0501048 -0.128836 -0.128836
-0.047821 -0.117193 -0.117193
-0.068583 -0.124273 -0.124273
-0.0601266 -0.129439 -0.129439
-0.0489642 -0.122948 -0.122948
-0.0573917 -0.117801 -0.117801
-0.0587608 -0.123553 -0.123553
-0.0701742 -0.130156 -0.130156
-0.073345 -0.14232 -0.14232
-0.0523782 -0.141012 -0.141012
-0.0501048 -0.128836 -0.128836
-0.0717615 -0.136171 -0.136171
-0.0628487 -0.141609 -0.141609
-0.0512428 -0.134858 -0.134858
-0.0601266 -0.129439 -0.129439
-0.0614893 -0.135458 -0.135458
-0.073345 -0.14232 -0.14232
-0.0765004 -0.155013 -0.155013
-0.0546415 -0.153718 -0.153718
-0.0523782 -0.141012 -0.141012
-0.0749246 -0.1486 -0.1486
-0.0655581 -0.154309 -0.154309
-0.0535111 -0.147299 -0.147299
-0.0628487 -0.141609 -0.141609
-0.064205 -0.147893 -0.147893
-0.0765004 -0.155013 -0.155013
-0.0796406 -0.168232 -0.168232
-0.0568946 -0.166949 -0.166949
-0.0546415 -0.153718 -0.153718
-0.0780724 -0.161557 -0.161557
-0.0682547 -0.167535 -0.167535
-0.0557693 -0.160268 -0.160268
-0.0655581 -0.154309 -0.154309
-0.066908 -0.160856 -0.160856
-0.0796406 -0.168232 -0.168232
-0.0827657 -0.181974 -0.181974
-0.0591377 -0.180704 -0.180704
-0.0568946 -0.166949 -0.166949
-0.0812051 -0.175038 -0.175038
-0.0709388 -0.181284 -0.181284
-0.0580174 -0.173761 -0.173761
-0.0682547 -0.167535 -0.167535
-0.0695983 -0.174344 -0.174344
-0.0827657 -0.181974 -0.181974
-0.0858757 -0.196237 -0.196237
-0.0613709 -0.194979 -0.194979
-0.0591377 -0.180704 -0.180704
-0.0843226 -0.189041 -0.189041
-0.0736104 -0.195553 -0.195553
-0.0602555 -0.187777 -0.187777
-0.0709388 -0.181284 -0.181284
-0.0722762 -0.188353 -0.188353
-0.0858757 -0.196237 -0.196237
-0.0889708 -0.211017 -0.211017
-0.0635942 -0.209772 -0.209772
-0.0613709 -0.194979 -0.194979
-0.0874251 -0.203562 -0.203562
-0.0762696 -0.210339 -0.210339
-0.0624837 -0.202311 -0.202311
-0.0736104 -0.195553 -0.195553
-0.0749415 -0.202881 -0.202881
-0.0889708 -0.211017 -0.211017
-0.092051 -0.22631 -0.22631
-0.0658078 -0.225079 -0.225079
-0.0635942 -0.209772 -0.209772
-0.0905127 -0.218599 -0.218599
-0.0789165 -0.22564 -0.22564
-0.0647022 -0.217361 -0.217361
-0.0762696 -0.210339 -0.210339
-0.0775946 -0.217925 -0.217925
-0.092051 -0.22631 -0.22631
-0.0951164 -0.242115 -0.242115
-0.0680117 -0.240897 -0.240897
-0.0658078 -0.225079 -0.225079
-0.0935855 -0.234149 -0.234149
-0.0815511 -0.241451 -0.241451
-0.0669109 -0.232924 -0.232924
-0.0789165 -0.22564 -0.22564
-0.0802353 -0.233482 -0.233482
-0.0951164 -0.242115 -0.242115
-0.0981671 -0.258428 -0.258428
-0.070206 -0.257223 -0.257223
-0.0680117 -0.240897 -0.240897
-0.0966436 -0.250208 -0.250208
-0.0841736 -0.257771 -0.257771
-0.06911 -0.248996 -0.248996
-0.0815511 -0.241451 -0.241451
-0.0828639 -0.249548 -0.249548
-0.0981671 -0.258428 -0.258428
-0.101203 -0.275246 -0.275246
-0.0723908 -0.274054 -0.274054
-0.070206 -0.257223 -0.257223
-0.099687 -0.266774 -0.266774
-0.086784 -0.274596 -0.274596
-0.0712996 -0.265575 -0.265575
-0.0841736 -0.257771 -0.257771
-0.0854803 -0.266121 -0.266121
-0.101203 -0.275246 -0.275246
-0.104225 -0.292566 -0.292566
-0.0745662 -0.291388 -0.291388
-0.0723908 -0.274054 -0.274054
-0.102716 -0.283843 -0.283843
-0.0893825 -0.291923 -0.291923
-0.0734797 -0.282658 -0.282658
-0.086784 -0.274596 -0.274596
-0.0880848 -0.283197 -0.283197
-0.104225 -0.292566 -0.292566
-0.107232 -0.310385 -0.310385
-0.0767322 -0.30922 -0.30922
-0.0745662 -0.291388 -0.291388
-0.10573 -0.301413 -0.301413
-0.0919691 -0.30975 -0.30975
-0.0756504 -0.300242 -0.300242
-0.0893825 -0.291923 -0.291923
-0.0906773 -0.300774 -0.300774
-0.107232 -0.310385 -0.310385
-0.110224 -0.3287 -0.3287
-0.078889 -0.327549 -0.327549
-0.0767322 -0.30922 -0.30922
-0.10873 -0.319481 -0.319481
-0.0945438 -0.328072 -0.328072
-0.0778118 -0.318323 -0.318323
-0.0919691 -0.30975 -0.30975
-0.0932579 -0.318849 -0.318849
-0.110224 -0.3287 -0.3287
-0.113203 -0.347508 -0.347508
-0.0810366 -0.346371 -0.346371
-0.078889 -0.327549 -0.327549
-0.111715 -0.338043 -0.338043
-0.0971067 -0.346887 -0.346887
-0.0799639 -0.336899 -0.336899
-0.0945438 -0.328072 -0.328072
-0.0958267 -0.337418 -0.337418
-0.113203 -0.347508 -0.347508
-0.116167 -0.366806 -0.366806
-0.0831751 -0.365683 -0.365683
-0.0810366 -0.346371 -0.346371
-0.114687 -0.357096 -0.357096
-0.099658 -0.366192 -0.366192
-0.082107 -0.355966 -0.355966
-0.0971067 -0.346887 -0.346887
-0.0983839 -0.356479 -0.356479
-0.116167 -0.366806 -0.366806
-0.119117 -0.386591 -0.386591
-0.0853045 -0.385482 -0.385482
-0.0831751 -0.365683 -0.365683
-0.117644 -0.376638 -0.376638
-0.102198 -0.385985 -0.385985
-0.0842409 -0.375522 -0.375522
-0.099658 -0.366192 -0.366192
-0.100929 -0.376028 -0.376028
-0.119117 -0.386591 -0.386591
-0.122053 -0.40686 -0.40686
-0.0874249 -0.405765 -0.405765
-0.0853045 -0.385482 -0.385482
-0.120587 -0.396665 -0.396665
-0.104726 -0.406261 -0.406261
-0.0863658 -0.395563 -0.395563
-0.102198 -0.385985 -0.385985
-0.103463 -0.396062 -0.396062
-0.122053 -0.40686 -0.40686
-0.124975 -0.427609 -0.427609
-0.0895364 -0.426529 -0.426529
-0.0874249 -0.405765 -0.405765
-0.123516 -0.417175 -0.417175
-0.107243 -0.427018 -0.427018
-0.0884818 -0.416087 -0.416087
-0.104726 -0.406261 -0.406261
-0.105986 -0.41658 -0.41658
-0.124975 -0.427609 -0.427609
-0.127883 -0.448837 -0.448837
-0.0916391 -0.447771 -0.447771
-0.0895364 -0.426529 -0.426529
-0.12643 -0.438164 -0.438164
-0.109748 -0.448253 -0.448253
-0.0905889 -0.437091 -0.437091
-0.107243 -0.427018 -0.427018
-0.108497 -0.437576 -0.437576
-0.127883 -0.448837 -0.448837
-0.130777 -0.470539 -0.470539
-0.093733 -0.469488 -0.469488
-0.0916391 -0.447771 -0.447771
-0.129331 -0.459629 -0.459629
-0.112242 -0.469963 -0.469963
-0.0926871 -0.458571 -0.458571
-0.109748 -0.448253 -0.448253
-0.110996 -0.459049 -0.459049
-0.130777 -0.470539 -0.470539
-0.133657 -0.492714 -0.492714
-0.0958182 -0.491677 -0.491677
-0.093733 -0.469488 -0.469488
-0.132218 -0.481568 -0.481568
-0.114724 -0.492145 -0.492145
-0.0947767 -0.480524 -0.480524
-0.112242 -0.469963 -0.469963
-0.113484 -0.480995 -0.480995
-0.133657 -0.492714 -0.492714
-0.136523 -0.515357 -0.515357
-0.0978947 -0.514335 -0.514335
-0.0958182 -0.491677 -0.491677
-0.135092 -0.503977 -0.503977
-0.117196 -0.514796 -0.514796
-0.0968575 -0.502948 -0.502948
-0.114724 -0.492145 -0.492145
-0.115962 -0.503412 -0.503412
-0.136523 -0.515357 -0.515357
-0.139376 -0.538466 -0.538466
-0.0999626 -0.537459 -0.537459
-0.0978947 -0.514335 -0.514335
-0.137951 -0.526853 -0.526853
-0.119656 -0.537913 -0.537913
-0.0989297 -0.525839 -0.525839
-0.117196 -0.514796 -0.514796
-0.118427 -0.526296 -0.526296
-0.139376 -0.538466 -0.538466
-0.142215 -0.562037 -0.562037
-0.102022 -0.561046 -0.561046
-0.0999626 -0.537459 -0.537459
-0.140797 -0.550194 -0.550194
-0.122105 -0.561492 -0.561492
-0.100993 -0.549195 -0.549195
-0.119656 -0.537913 -0.537913
-0.120882 -0.549645 -0.549645
-0.142215 -0.562037 -0.562037
-0.14504 -0.586069 -0.586069
-0.104073 -0.585092 -0.585092
-0.102022 -0.561046 -0.561046
-0.143629 -0.573996 -0.573996
-0.124543 -0.585532 -0.585532
-0.103048 -0.573012 -0.573012
-0.122105 -0.561492 -0.561492
-0.123326 -0.573455 -0.573455
-0.14504 -0.586069 -0.586069
-0.147852 -0.610557 -0.610557
-0.106115 -0.609596 -0.609596
-0.104073 -0.585092 -0.585092
-0.146448 -0.598256 -0.598256
-0.126971 -0.610028 -0.610028
-0.105095 -0.597287 -0.597287
-0.124543 -0.585532 -0.585532
-0.125758 -0.597723 -0.597723
-0.147852 -0.610557 -0.610557
-0.15065 -0.635499 -0.635499
-0.108149 -0.634553 -0.634553
-0.106115 -0.609596 -0.609596
-0.149253 -0.622972 -0.622972
-0.129387 -0.634978 -0.634978
-0.107133 -0.622018 -0.622018
-0.126971 -0.610028 -0.610028
-0.12818 -0.622446 -0.622446
-0.15065 -0.635499 -0.635499
-0.153435 -0.660892 -0.660892
-0.110175 -0.659961 -0.659961
-0.108149 -0.634553 -0.634553
-0.152044 -0.648139 -0.648139
-0.131792 -0.660379 -0.660379
-0.109163 -0.647201 -0.647201
-0.129387 -0.634978 -0.634978
-0.130591 -0.647622 -0.647622
-0.153435 -0.660892 -0.660892
-0.156207 -0.686732 -0.686732
-0.112193 -0.685817 -0.685817
-0.110175 -0.659961 -0.659961
-0.154823 -0.673756 -0.673756
-0.134187 -0.686227 -0.686227
-0.111185 -0.672833 -0.672833
-0.131792 -0.660379 -0.660379
-0.132991 -0.673247 -0.673247
-0.156207 -0.686732 -0.686732
-0.158965 -0.713018 -0.713018
-0.114202 -0.712118 -0.712118
-0.112193 -0.685817 -0.685817
-0.157587 -0.69982 -0.69982
-0.13657 -0.71252 -0.71252
-0.113198 -0.698912 -0.698912
-0.134187 -0.686227 -0.686227
-0.13538 -0.699318 -0.699318
-0.158965 -0.713018 -0.713018
-0.16171 -0.739744 -0.739744
-0.116203 -0.73886 -0.73886
-0.114202 -0.712118 -0.712118
-0.160339 -0.726326 -0.726326
-0.138943 -0.739255 -0.739255
-0.115203 -0.725434 -0.725434
-0.13657 -0.71252 -0.71252
-0.137758 -0.725833 -0.725833
-0.16171 -0.739744 -0.739744
-0.164441 -0.76691 -0.76691
-0.118196 -0.766041 -0.766041
-0.116203 -0.73886 -0.73886
-0.163077 -0.753272 -0.753272
-0.141305 -0.766429 -0.766429
-0.1172 -0.752396 -0.752396
-0.138943 -0.739255 -0.739255
-0.140126 -0.752788 -0.752788
-0.164441 -0.76691 -0.76691
-0.16716 -0.794511 -0.794511
-0.120181 -0.793658 -0.793658
-0.118196 -0.766041 -0.766041
-0.165802 -0.780656 -0.780656
-0.143657 -0.794038 -0.794038
-0.119189 -0.779795 -0.779795
-0.141305 -0.766429 -0.766429
-0.142483 -0.780179 -0.780179
-0.16716 -0.794511 -0.794511
-0.169865 -0.822545 -0.822545
-0.122157 -0.821708 -0.821708
-0.120181 -0.793658 -0.793658
-0.168514 -0.808474 -0.808474
-0.145998 -0.82208 -0.82208
-0.12117 -0.807629 -0.807629
-0.143657 -0.794038 -0.794038
-0.144829 -0.808005 -0.808005
-0.169865 -0.822545 -0.822545
-0.172557 -0.851008 -0.851008
-0.124126 -0.850187 -0.850187
-0.122157 -0.821708 -0.821708
-0.171213 -0.836723 -0.836723
-0.148328 -0.850552 -0.850552
-0.123143 -0.835894 -0.835894
-0.145998 -0.82208 -0.82208
-0.147165 -0.836262 -0.836262
-0.172557 -0.851008 -0.851008
-0.175236 -0.879898 -0.879898
-0.126087 -0.879093 -0.879093
-0.124126 -0.850187 -0.850187
-0.173898 -0.8654 -0.8654
-0.150648 -0.87945 -0.87945
-0.125108 -0.864586 -0.864586
-0.148328 -0.850552 -0.850552
-0.14949 -0.864948 -0.864948
-0.175236 -0.879898 -0.879898
-0.177902 -0.909211 -0.909211
-0.12804 -0.908422 -0.908422
-0.126087 -0.879093 -0.879093
-0.176571 -0.894502 -0.894502
-0.152958 -0.908772 -0.908772
-0.127064 -0.893704 -0.893704
-0.150648 -0.87945 -0.87945
-0.151804 -0.894058 -0.894058
-0.177902 -0.909211 -0.909211
-0.180555 -0.938945 -0.938945
-0.129985 -0.938172 -0.938172
-0.12804 -0.908422 -0.908422
-0.17923 -0.924026 -0.924026
-0.155257 -0.938514 -0.938514
-0.129013 -0.923245 -0.923245
-0.152958 -0.908772 -0.908772
-0.154109 -0.92359 -0.92359
-0.180555 -0.938945 -0.938945
-0.183195 -0.969096 -0.969096
-0.131922 -0.968339 -0.968339
-0.129985 -0.938172 -0.938172
-0.181876 -0.953969 -0.953969
-0.157545 -0.968674 -0.968674
-0.130954 -0.953204 -0.953204
-0.155257 -0.938514 -0.938514
-0.156402 -0.953542 -0.953542
-0.183195 -0.969096 -0.969096
-0.185822 -0.999662 -0.999662
-0.133851 -0.998922 -0.998922
-0.131922 -0.968339 -0.968339
-0.18451 -0.984328 -0.984328
-0.159823 -0.999248 -0.999248
-0.132887 -0.983579 -0.983579
-0.157545 -0.968674 -0.968674
-0.158686 -0.983909 -0.983909
-0.185822 -0.999662 -0.999662
-0.188436 -1.03064 -1.03064
-0.135773 -1.02992 -1.02992
-0.133851 -0.998922 -0.998922
-0.18713 -1.0151 -1.0151
-0.162091 -1.03023 -1.03023
-0.134813 -1.01437 -1.01437
-0.159823 -0.999248 -0.999248
-0.160958 -1.01469 -1.01469
-0.188436 -1.03064 -1.03064
-0.191037 -1.06203 -1.06203
-0.137686 -1.06132 -1.06132
-0.135773 -1.02992 -1.02992
-0.189738 -1.04628 -1.04628
-0.164348 -1.06163 -1.06163
-0.13673 -1.04557 -1.04557
-0.162091 -1.03023 -1.03023
-0.163221 -1.04588 -1.04588
-0.191037 -1.06203 -1.06203
-0.193625 -1.09382 -1.09382
-0.139592 -1.09312 -1.09312
-0.137686 -1.06132 -1.06132
-0.192333 -1.07787 -1.07787
-0.166596 -1.09343 -1.09343
-0.13864 -1.07717 -1.07717
-0.164348 -1.06163 -1.06163
-0.165473 -1.07748 -1.07748
-0.193625 -1.09382 -1.09382
-0.196201 -1.12601 -1.12601
-0.14149 -1.12533 -1.12533
-0.139592 -1.09312 -1.09312
-0.194915 -1.10986 -1.10986
-0.168832 -1.12563 -1.12563
-0.140542 -1.10918 -1.10918
-0.166596 -1.09343 -1.09343
-0.167715 -1.10948 -1.10948
-0.196201 -1.12601 -1.12601
-0.198763 -1.1586 -1.1586
-0.143381 -1.15794 -1.15794
-0.14149 -1.12533 -1.12533
-0.197484 -1.14226 -1.14226
-0.171059 -1.15823 -1.15823
-0.142436 -1.14159 -1.14159
-0.168832 -1.12563 -1.12563
-0.169947 -1.14188 -1.14188
-0.198763 -1.1586 -1.1586
-0.201313 -1.19159 -1.19159
-0.145264 -1.19095 -1.19095
-0.143381 -1.15794 -1.15794
-0.20004 -1.17505 -1.17505
-0.173275 -1.19123 -1.19123
-0.144323 -1.1744 -1.1744
-0.171059 -1.15823 -1.15823
-0.172168 -1.17468 -1.17468
-0.201313 -1.19159 -1.19159
-0.20385 -1.22498 -1.22498
-0.147139 -1.22435 -1.22435
-0.145264 -1.19095 -1.19095
-0.202583 -1.20824 -1.20824
-0.175481 -1.22462 -1.22462
-0.146202 -1.2076 -1.2076
-0.173275 -1.19123 -1.19123
-0.17438 -1.20788 -1.20788
-0.20385 -1.22498 -1.22498
-0.206375 -1.25875 -1.25875
-0.149006 -1.25814 -1.25814
-0.147139 -1.22435 -1.22435
-0.205114 -1.24181 -1.24181
-0.177677 -1.2584 -1.2584
-0.148073 -1.2412 -1.2412
-0.175481 -1.22462 -1.22462
-0.176581 -1.24146 -1.24146
-0.206375 -1.25875 -1.25875
-0.208886 -1.29291 -1.29291
-0.150866 -1.29232 -1.29232
-0.149006 -1.25814 -1.25814
-0.207632 -1.27578 -1.27578
-0.179863 -1.29257 -1.29257
-0.149937 -1.27518 -1.27518
-0.177677 -1.2584 -1.2584
-0.178771 -1.27544 -1.27544
-0.208886 -1.29291 -1.29291
-0.211385 -1.32745 -1.32745
-0.152719 -1.32688 -1.32688
-0.150866 -1.29232 -1.29232
-0.210137 -1.31013 -1.31013
-0.182039 -1.32713 -1.32713
-0.151793 -1.30955 -1.30955
-0.179863 -1.29257 -1.29257
-0.180952 -1.3098 -1.3098
-0.211385 -1.32745 -1.32745
-0.213871 -1.36238 -1.36238
-0.154563 -1.36182 -1.36182
-0.152719 -1.32688 -1.32688
-0.21263 -1.34487 -1.34487
-0.184204 -1.36206 -1.36206
-0.153642 -1.3443 -1.3443
-0.182039 -1.32713 -1.32713
-0.183123 -1.34455 -1.34455
-0.213871 -1.36238 -1.36238
-0.216345 -1.39768 -1.39768
-0.1564 -1.39714 -1.39714
-0.154563 -1.36182 -1.36182
-0.21511 -1.37999 -1.37999
-0.18636 -1.39737 -1.39737
-0.155483 -1.37943 -1.37943
-0.184204 -1.36206 -1.36206
-0.185283 -1.37967 -1.37967
-0.216345 -1.39768 -1.39768
-0.218806 -1.43336 -1.43336
-0.15823 -1.43284 -1.43284
-0.1564 -1.39714 -1.39714
-0.217577 -1.41548 -1.41548
-0.188505 -1.43306 -1.43306
-0.157316 -1.41494 -1.41494
-0.18636 -1.39737 -1.39737
-0.187433 -1.41517 -1.41517
-0.218806 -1.43336 -1.43336
-0.221254 -1.46942 -1.46942
-0.160052 -1.46891 -1.46891
-0.15823 -1.43284 -1.43284
-0.220031 -1.45134 -1.45134
-0.19064 -1.46912 -1.46912
-0.159142 -1.45083 -1.45083
-0.188505 -1.43306 -1.43306
-0.189574 -1.45105 -1.45105
-0.221254 -1.46942 -1.46942
-0.22369 -1.50584 -1.50584
-0.161867 -1.50534 -1.50534
-0.160052 -1.46891 -1.46891
-0.222473 -1.48758 -1.48758
-0.192765 -1.50555 -1.50555
-0.16096 -1.48708 -1.48708
-0.19064 -1.46912 -1.46912
-0.191704 -1.48729 -1.48729
-0.22369 -1.50584 -1.50584
-0.226112 -1.54262 -1.54262
-0.163674 -1.54215 -1.54215
-0.161867 -1.50534 -1.50534
-0.224903 -1.52419 -1.52419
-0.19488 -1.54235 -1.54235
-0.162771 -1.5237 -1.5237
-0.192765 -1.50555 -1.50555
-0.193824 -1.5239 -1.5239
-0.226112 -1.54262 -1.54262
-0.228523 -1.57977 -1.57977
-0.165473 -1.57931 -1.57931
-0.163674 -1.54215 -1.54215
-0.227319 -1.56115 -1.56115
-0.196985 -1.57951 -1.57951
-0.164575 -1.56069 -1.56069
-0.19488 -1.54235 -1.54235
-0.195934 -1.56088 -1.56088
-0.228523 -1.57977 -1.57977
-0.230921 -1.61729 -1.61729
-0.167266 -1.61684 -1.61684
-0.165473 -1.57931 -1.57931
-0.229723 -1.59849 -1.59849
-0.19908 -1.61703 -1.61703
-0.16637 -1.59803 -1.59803
-0.196985 -1.57951 -1.57951
-0.198034 -1.59822 -1.59822
-0.230921 -1.61729 -1.61729
-0.233306 -1.65515 -1.65515
-0.16905 -1.65473 -1.65473
-0.167266 -1.61684 -1.61684
-0.232115 -1.63617 -1.63617
-0.201165 -1.6549 -1.6549
-0.168159 -1.63574 -1.63574
-0.19908 -1.61703 -1.61703
-0.200124 -1.63592 -1.63592
-0.233306 -1.65515 -1.65515
-0.235678 -1.69337 -1.69337
-0.170827 -1.69296 -1.69296
-0.16905 -1.65473 -1.65473
-0.234493 -1.67422 -1.67422
-0.20324 -1.69313 -1.69313
-0.16994 -1.6738 -1.6738
-0.201165 -1.6549 -1.6549
-0.202203 -1.67397 -1.67397
-0.235678 -1.69337 -1.69337
-0.238038 -1.73195 -1.73195
-0.172597 -1.73155 -1.73155
-0.170827 -1.69296 -1.69296
-0.23686 -1.71262 -1.71262
-0.205304 -1.73171 -1.73171
-0.171713 -1.71222 -1.71222
-0.20324 -1.69313 -1.69313
-0.204273 -1.71238 -1.71238
-0.238038 -1.73195 -1.73195
-0.240385 -1.77087 -1.77087
-0.174359 -1.77049 -1.77049
-0.172597 -1.73155 -1.73155
-0.239213 -1.75136 -1.75136
-0.207359 -1.77064 -1.77064
-0.173479 -1.75098 -1.75098
-0.205304 -1.73171 -1.73171
-0.206333 -1.75114 -1.75114
-0.240385 -1.77087 -1.77087
-0.24272 -1.81013 -1.81013
-0.176114 -1.80977 -1.80977
-0.174359 -1.77049 -1.77049
-0.241554 -1.79046 -1.79046
-0.209404 -1.80992 -1.80992
-0.175237 -1.79009 -1.79009
-0.207359 -1.77064 -1.77064
-0.208383 -1.79024 -1.79024
-0.24272 -1.81013 -1.81013
-0.245042 -1.84974 -1.84974
-0.177861 -1.8494 -1.8494
-0.176114 -1.80977 -1.80977
-0.243883 -1.8299 -1.8299
-0.211438 -1.84953 -1.84953
-0.176988 -1.82954 -1.82954
-0.209404 -1.80992 -1.80992
-0.210422 -1.82968 -1.82968
-0.245042 -1.84974 -1.84974
-0.247352 -1.88969 -1.88969
-0.179601 -1.88936 -1.88936
-0.177861 -1.8494 -1.8494
-0.246199 -1.86967 -1.86967
-0.213463 -1.88949 -1.88949
-0.178732 -1.86934 -1.86934
-0.211438 -1.84953 -1.84953
-0.212452 -1.86947 -1.86947
-0.247352 -1.88969 -1.88969
-0.249649 -1.92997 -1.92997
-0.181333 -1.92966 -1.92966
-0.179601 -1.88936 -1.88936
-0.248502 -1.90979 -1.90979
-0.215478 -1.92978 -1.92978
-0.180468 -1.90947 -1.90947
-0.213463 -1.88949 -1.88949
-0.214472 -1.90959 -1.90959
-0.249649 -1.92997 -1.92997
-0.251933 -1.97059 -1.97059
-0.183058 -1.97029 -1.97029
-0.181333 -1.92966 -1.92966
-0.250793 -1.95024 -1.95024
-0.217482 -1.97041 -1.97041
-0.182196 -1.94994 -1.94994
-0.215478 -1.92978 -1.92978
-0.216481 -1.95005 -1.95005
-0.251933 -1.97059 -1.97059
-0.254205 -2.01153 -2.01153
-0.184775 -2.01126 -2.01126
-0.183058 -1.97029 -1.97029
-0.253071 -1.99102 -1.99102
-0.219477 -2.01136 -2.01136
-0.183917 -1.99073 -1.99073
-0.217482 -1.97041 -1.97041
-0.218481 -1.99084 -1.99084
-0.254205 -2.01153 -2.01153
-0.256464 -2.05281 -2.05281
-0.186485 -2.05255 -2.05255
-0.184775 -2.01126 -2.01126
-0.255336 -2.03213 -2.03213
-0.221461 -2.05264 -2.05264
-0.185631 -2.03186 -2.03186
-0.219477 -2.01136 -2.01136
-0.22047 -2.03196 -2.03196
-0.256464 -2.05281 -2.05281
-0.258711 -2.0944 -2.0944
-0.188187 -2.09416 -2.09416
-0.186485 -2.05255 -2.05255
-0.257589 -2.07356 -2.07356
-0.223436 -2.09425 -2.09425
-0.187337 -2.07331 -2.07331
-0.221461 -2.05264 -2.05264
-0.22245 -2.0734 -2.0734
-0.258711 -2.0944 -2.0944
-0.260944 -2.13632 -2.13632
-0.189882 -2.13609 -2.13609
-0.188187 -2.09416 -2.09416
-0.259829 -2.11532 -2.11532
-0.2254 -2.13617 -2.13617
-0.189035 -2.11509 -2.11509
-0.223436 -2.09425 -2.09425
-0.224419 -2.11517 -2.11517
-0.260944 -2.13632 -2.13632
-0.263166 -2.17855 -2.17855
-0.191569 -2.17835 -2.17835
-0.189882 -2.13609 -2.13609
-0.262057 -2.1574 -2.1574
-0.227354 -2.17842 -2.17842
-0.190726 -2.15718 -2.15718
-0.2254 -2.13617 -2.13617
-0.226378 -2.15726 -2.15726
-0.263166 -2.17855 -2.17855
-0.265374 -2.22111 -2.22111
-0.193248 -2.22091 -2.22091
-0.191569 -2.17835 -2.17835
-0.264272 -2.19979 -2.19979
-0.229298 -2.22098 -2.22098
-0.19241 -2.19959 -2.19959
-0.227354 -2.17842 -2.17842
-0.228327 -2.19966 -2.19966
-0.265374 -2.22111 -2.22111
-0.26757 -2.26397 -2.26397
-0.194921 -2.26379 -2.26379
-0.193248 -2.22091 -2.22091
-0.266474 -2.2425 -2.2425
-0.231232 -2.26385 -2.26385
-0.194085 -2.24231 -2.24231
-0.229298 -2.22098 -2.22098
-0.230266 -2.24237 -2.24237
-0.26757 -2.26397 -2.26397
-0.269753 -2.30714 -2.30714
-0.196585 -2.30698 -2.30698
-0.194921 -2.26379 -2.26379
-0.268663 -2.28551 -2.28551
-0.233156 -2.30703 -2.30703
-0.195754 -2.28535 -2.28535
-0.231232 -2.26385 -2.26385
-0.232195 -2.2854 -2.2854
-0.269753 -2.30714 -2.30714
-0.271924 -2.35061 -2.35061
-0.198242 -2.35047 -2.35047
-0.196585 -2.30698 -2.30698
-0.27084 -2.32884 -2.32884
-0.23507 -2.35051 -2.35051
-0.197415 -2.32869 -2.32869
-0.233156 -2.30703 -2.30703
-0.234114 -2.32873 -2.32873
-0.271924 -2.35061 -2.35061
-0.274082 -2.39439 -2.39439
-0.199892 -2.39427 -2.39427
-0.198242 -2.35047 -2.35047
-0.273005 -2.37247 -2.37247
-0.236974 -2.3943 -2.3943
-0.199068 -2.37233 -2.37233
-0.23507 -2.35051 -2.35051
-0.236023 -2.37237 -2.37237
-0.274082 -2.39439 -2.39439
-0.276227 -2.43847 -2.43847
-0.201533 -2.43836 -2.43836
-0.199892 -2.39427 -2.39427
-0.275156 -2.4164 -2.4164
-0.238867 -2.43839 -2.43839
-0.200713 -2.41628 -2.41628
-0.236974 -2.3943 -2.3943
-0.237922 -2.4163 -2.4163
-0.276227 -2.43847 -2.43847
-0.278359 -2.48285 -2.48285
-0.203168 -2.48275 -2.48275
-0.201533 -2.43836 -2.43836
-0.277295 -2.46062 -2.46062
-0.24075 -2.48277 -2.48277
-0.202351 -2.46052 -2.46052
-0.238867 -2.43839 -2.43839
-0.23981 -2.46054 -2.46054
-0.278359 -2.48285 -2.48285
-0.280479 -2.52752 -2.52752
-0.204794 -2.52744 -2.52744
-0.203168 -2.48275 -2.48275
-0.279421 -2.50515 -2.50515
-0.242624 -2.52745 -2.52745
-0.203982 -2.50506 -2.50506
-0.24075 -2.48277 -2.48277
-0.241688 -2.50507 -2.50507
-0.280479 -2.52752 -2.52752
-0.282586 -2.57248 -2.57248
-0.206413 -2.57242 -2.57242
-0.204794 -2.52744 -2.52744
-0.281534 -2.54996 -2.54996
-0.244486 -2.57242 -2.57242
-0.205605 -2.54989 -2.54989
-0.242624 -2.52745 -2.52745
-0.243556 -2.5499 -2.5499
-0.282586 -2.57248 -2.57248
-0.28468 -2.61772 -2.61772
-0.208024 -2.61768 -2.61768
-0.206413 -2.57242 -2.57242
-0.283635 -2.59507 -2.59507
-0.246339 -2.61767 -2.61767
-0.20722 -2.59501 -2.59501
-0.244486 -2.57242 -2.57242
-0.245414 -2.59501 -2.59501
-0.28468 -2.61772 -2.61772
-0.286761 -2.66326 -2.66326
-0.209628 -2.66323 -2.66323
-0.208024 -2.61768 -2.61768
-0.285722 -2.64046 -2.64046
-0.248181 -2.66321 -2.66321
-0.208827 -2.64042 -2.64042
-0.246339 -2.61767 -2.61767
-0.247262 -2.64041 -2.64041
-0.286761 -2.66326 -2.66326
-0.28883 -2.70907 -2.70907
-0.211224 -2.70906 -2.70906
-0.209628 -2.66323 -2.66323
-0.287797 -2.68613 -2.68613
-0.250014 -2.70904 -2.70904
-0.210427 -2.68611 -2.68611
-0.248181 -2.66321 -2.66321
-0.249099 -2.68609 -2.68609
-0.28883 -2.70907 -2.70907
-0.290885 -2.75516 -2.75516
-0.212812 -2.75517 -2.75517
-0.211224 -2.70906 -2.70906
-0.289859 -2.73208 -2.73208
-0.251835 -2.75514 -2.75514
-0.212019 -2.73208 -2.73208
-0.250014 -2.70904 -2.70904
-0.250926 -2.73205 -2.73205
-0.290885 -2.75516 -2.75516
-0.292928 -2.80153 -2.80153
-0.214392 -2.80155 -2.80155
-0.212812 -2.75517 -2.75517
-0.291908 -2.77831 -2.77831
-0.253647 -2.80151 -2.80151
-0.213603 -2.77833 -2.77833
-0.251835 -2.75514 -2.75514
-0.252742 -2.77829 -2.77829
-0.292928 -2.80153 -2.80153
-0.294958 -2.84817 -2.84817
-0.215964 -2.84821 -2.84821
-0.214392 -2.80155 -2.80155
-0.293945 -2.82482 -2.82482
-0.255448 -2.84816 -2.84816
-0.215179 -2.82485 -2.82485
-0.253647 -2.80151 -2.80151
-0.254549 -2.8248 -2.8248
-0.294958 -2.84817 -2.84817
-0.296975 -2.89508 -2.89508
-0.217529 -2.89514 -2.89514
-0.215964 -2.84821 -2.84821
-0.295968 -2.87159 -2.87159
-0.257239 -2.89508 -2.89508
-0.216748 -2.87164 -2.87164
-0.255448 -2.84816 -2.84816
-0.256345 -2.87159 -2.87159
-0.296975 -2.89508 -2.89508
-0.298979 -2.94226 -2.94226
-0.219086 -2.94233 -2.94233
-0.217529 -2.89514 -2.89514
-0.297978 -2.91864 -2.91864
-0.259019 -2.94227 -2.94227
-0.218308 -2.9187 -2.9187
-0.257239 -2.89508 -2.89508
-0.25813 -2.91864 -2.91864
-0.298979 -2.94226 -2.94226
-0.30097 -2.9897 -2.9897
-0.220635 -2.98978 -2.98978
-0.219086 -2.94233 -2.94233
-0.299976 -2.96595 -2.96595
-0.260789 -2.98971 -2.98971
-0.219861 -2.96602 -2.96602
-0.259019 -2.94227 -2.94227
-0.259905 -2.96596 -2.96596
-0.30097 -2.9897 -2.9897
-0.302947 -3.0374 -3.0374
-0.222176 -3.0375 -3.0375
-0.220635 -2.98978 -2.98978
-0.30196 -3.01352 -3.01352
-0.262548 -3.03742 -3.03742
-0.221406 -3.01361 -3.01361
-0.260789 -2.98971 -2.98971
-0.26167 -3.01354 -3.01354
-0.302947 -3.0374 -3.0374
-0.304912 -3.08536 -3.08536
-0.223709 -3.08547 -3.08547
-0.222176 -3.0375 -3.0375
-0.303931 -3.06135 -3.06135
-0.264297 -3.08539 -3.08539
-0.222943 -3.06146 -3.06146
-0.262548 -3.03742 -3.03742
-0.263424 -3.06137 -3.06137
-0.304912 -3.08536 -3.08536
-0.306864 -3.13357 -3.13357
-0.225234 -3.1337 -3.1337
-0.223709 -3.08547 -3.08547
-0.30589 -3.10943 -3.10943
-0.266036 -3.13361 -3.13361
-0.224472 -3.10956 -3.10956
-0.264297 -3.08539 -3.08539
-0.265168 -3.10947 -3.10947
-0.306864 -3.13357 -3.13357
-0.308803 -3.18203 -3.18203
-0.226751 -3.18218 -3.18218
-0.225234 -3.1337 -3.1337
-0.307835 -3.15777 -3.15777
-0.267764 -3.18208 -3.18208
-0.225994 -3.15791 -3.15791
-0.266036 -3.13361 -3.13361
-0.266901 -3.15781 -3.15781
-0.308803 -3.18203 -3.18203
-0.310728 -3.23074 -3.23074
-0.22826 -3.23091 -3.23091
-0.226751 -3.18218 -3.18218
-0.309767 -3.20636 -3.20636
-0.269481 -3.2308 -3.2308
-0.227507 -3.20651 -3.20651
-0.267764 -3.18208 -3.18208
-0.268624 -3.20641 -3.20641
-0.310728 -3.23074 -3.23074
-0.31264 -3.2797 -3.2797
-0.229761 -3.27988 -3.27988
-0.22826 -3.23091 -3.23091
-0.311686 -3.25519 -3.25519
-0.271188 -3.27977 -3.27977
-0.229012 -3.25537 -3.25537
-0.269481 -3.2308 -3.2308
-0.270336 -3.25525 -3.25525
-0.31264 -3.2797 -3.2797
-0.314539 -3.3289 -3.3289
-0.231254 -3.3291 -3.3291
-0.229761 -3.27988 -3.27988
-0.313591 -3.30427 -3.30427
-0.272884 -3.32897 -3.32897
-0.230509 -3.30446 -3.30446
-0.271188 -3.27977 -3.27977
-0.272037 -3.30434 -3.30434
-0.314539 -3.3289 -3.3289
-0.316425 -3.37834 -3.37834
-0.232739 -3.37855 -3.37855
-0.231254 -3.3291 -3.3291
-0.315484 -3.35359 -3.35359
-0.274569 -3.37842 -3.37842
-0.231997 -3.3538 -3.3538
-0.272884 -3.32897 -3.32897
-0.273728 -3.35367 -3.35367
-0.316425 -3.37834 -3.37834
-0.318298 -3.42802 -3.42802
-0.234215 -3.42824 -3.42824
-0.232739 -3.37855 -3.37855
-0.317363 -3.40315 -3.40315
-0.276243 -3.42811 -3.42811
-0.233478 -3.40337 -3.40337
-0.274569 -3.37842 -3.37842
-0.275408 -3.40323 -3.40323
-0.318298 -3.42802 -3.42802
-0.320157 -3.47792 -3.47792
-0.235684 -3.47817 -3.47817
-0.234215 -3.42824 -3.42824
-0.319229 -3.45294 -3.45294
-0.277907 -3.47802 -3.47802
-0.234951 -3.45318 -3.45318
-0.276243 -3.42811 -3.42811
-0.277077 -3.45303 -3.45303
-0.320157 -3.47792 -3.47792
-0.322003 -3.52806 -3.52806
-0.237144 -3.52832 -3.52832
-0.235684 -3.47817 -3.47817
-0.321081 -3.50297 -3.50297
-0.27956 -3.52817 -3.52817
-0.236415 -3.50322 -3.50322
-0.277907 -3.47802 -3.47802
-0.278735 -3.50307 -3.50307
-0.322003 -3.52806 -3.52806
-0.323835 -3.57843 -3.57843
-0.238596 -3.5787 -3.5787
-0.237144 -3.52832 -3.52832
-0.322921 -3.55322 -3.55322
-0.281202 -3.57854 -3.57854
-0.237871 -3.55348 -3.55348
-0.27956 -3.52817 -3.52817
-0.280383 -3.55333 -3.55333
-0.323835 -3.57843 -3.57843
-0.325654 -3.62902 -3.62902
-0.240039 -3.62931 -3.62931
-0.238596 -3.5787 -3.5787
-0.324746 -3.6037 -3.6037
-0.282834 -3.62914 -3.62914
-0.239318 -3.60398 -3.60398
-0.281202 -3.57854 -3.57854
-0.282019 -3.60381 -3.60381
-0.325654 -3.62902 -3.62902
-0.32746 -3.67983 -3.67983
-0.241474 -3.68013 -3.68013
-0.240039 -3.62931 -3.62931
-0.326559 -3.6544 -3.6544
-0.284454 -3.67996 -3.67996
-0.240758 -3.65469 -3.65469
-0.282834 -3.62914 -3.62914
-0.283645 -3.65452 -3.65452
-0.32746 -3.67983 -3.67983
-0.329252 -3.73086 -3.73086
-0.242901 -3.73118 -3.73118
-0.241474 -3.68013 -3.68013
-0.328357 -3.70532 -3.70532
-0.286063 -3.731 -3.731
-0.242189 -3.70563 -3.70563
-0.284454 -3.67996 -3.67996
-0.28526 -3.70545 -3.70545
-0.329252 -3.73086 -3.73086
-0.33103 -3.7821 -3.7821
-0.244319 -3.78244 -3.78244
-0.242901 -3.73118 -3.73118
-0.330142 -3.75646 -3.75646
-0.287662 -3.78225 -3.78225
-0.243611 -3.75678 -3.75678
-0.286063 -3.731 -3.731
-0.286864 -3.7566 -3.7566
-0.33103 -3.7821 -3.7821
-0.332795 -3.83356 -3.83356
-0.245729 -3.83391 -3.83391
-0.244319 -3.78244 -3.78244
-0.331914 -3.80781 -3.80781
-0.289249 -3.83371 -3.83371
-0.245025 -3.80815 -3.80815
-0.287662 -3.78225 -3.78225
-0.288457 -3.80796 -3.80796
-0.332795 -3.83356 -3.83356
-0.334546 -3.88523 -3.88523
-0.24713 -3.88559 -3.88559
-0.245729 -3.83391 -3.83391
-0.333672 -3.85937 -3.85937
-0.290825 -3.88539 -3.88539
-0.246431 -3.85972 -3.85972
-0.289249 -3.83371 -3.83371
-0.290038 -3.85952 -3.85952
-0.334546 -3.88523 -3.88523
-0.336283 -3.9371 -3.9371
-0.248523 -3.93748 -3.93748
-0.24713 -3.88559 -3.88559
-0.335416 -3.91114 -3.91114
-0.29239 -3.93727 -3.93727
-0.247828 -3.91151 -3.91151
-0.290825 -3.88539 -3.88539
-0.291609 -3.9113 -3.9113
-0.336283 -3.9371 -3.9371
-0.338007 -3.98917 -3.98917
-0.249907 -3.98957 -3.98957
-0.248523 -3.93748 -3.93748
-0.337147 -3.96311 -3.96311
-0.293944 -3.98935 -3.98935
-0.249216 -3.9635 -3.9635
-0.29239 -3.93727 -3.93727
-0.293168 -3.96328 -3.96328
-0.338007 -3.98917 -3.98917
-0.339717 -4.04145 -4.04145
-0.251282 -4.04186 -4.04186
-0.249907 -3.98957 -3.98957
-0.338864 -4.01529 -4.01529
-0.295486 -4.04163 -4.04163
-0.250595 -4.01569 -4.01569
-0.293944 -3.98935 -3.98935
-0.294717 -4.01547 -4.01547
-0.339717 -4.04145 -4.04145
-0.341413 -4.09392 -4.09392
-0.252649 -4.09434 -4.09434
-0.251282 -4.04186 -4.04186
-0.340567 -4.06766 -4.06766
-0.297018 -4.09411 -4.09411
-0.251966 -4.06808 -4.06808
-0.295486 -4.04163 -4.04163
-0.296254 -4.06785 -4.06785
-0.341413 -4.09392 -4.09392
-0.343095 -4.14659 -4.14659
-0.254006 -4.14702 -4.14702
-0.252649 -4.09434 -4.09434
-0.342256 -4.12023 -4.12023
-0.298538 -4.14678 -4.14678
-0.253329 -4.12066 -4.12066
-0.297018 -4.09411 -4.09411
-0.297779 -4.12042 -4.12042
-0.343095 -4.14659 -4.14659
-0.344763 -4.19944 -4.19944
-0.255355 -4.19989 -4.19989
-0.254006 -4.14702 -4.14702
-0.343931 -4.17299 -4.17299
-0.300046 -4.19965 -4.19965
-0.254682 -4.17344 -4.17344
-0.298538 -4.14678 -4.14678
-0.299294 -4.17319 -4.17319
-0.344763 -4.19944 -4.19944
-0.346418 -4.25249 -4.25249
-0.256696 -4.25295 -4.25295
-0.255355 -4.19989 -4.19989
-0.345592 -4.22594 -4.22594
-0.301544 -4.2527 -4.2527
-0.256027 -4.2264 -4.2264
-0.300046 -4.19965 -4.19965
-0.300796 -4.22615 -4.22615
-0.346418 -4.25249 -4.25249
-0.348058 -4.30572 -4.30572
-0.258027 -4.3062 -4.3062
-0.256696 -4.25295 -4.25295
-0.347239 -4.27908 -4.27908
-0.303029 -4.30594 -4.30594
-0.257362 -4.27955 -4.27955
-0.301544 -4.2527 -4.2527
-0.302288 -4.2793 -4.2793
-0.348058 -4.30572 -4.30572
-0.349684 -4.35913 -4.35913
-0.259349 -4.35962 -4.35962
-0.258027 -4.3062 -4.3062
-0.348873 -4.3324 -4.3324
-0.304504 -4.35936 -4.35936
-0.258689 -4.33289 -4.33289
-0.303029 -4.30594 -4.30594
-0.303768 -4.33263 -4.33263
-0.349684 -4.35913 -4.35913
-0.351296 -4.41272 -4.41272
-0.260662 -4.41323 -4.41323
-0.259349 -4.35962 -4.35962
-0.350492 -4.3859 -4.3859
-0.305966 -4.41295 -4.41295
-0.260007 -4.3864 -4.3864
-0.304504 -4.35936 -4.35936
-0.305236 -4.38613 -4.38613
-0.351296 -4.41272 -4.41272
-0.352894 -4.46649 -4.46649
-0.261966 -4.46701 -4.46701
-0.260662 -4.41323 -4.41323
-0.352097 -4.43958 -4.43958
-0.307417 -4.46673 -4.46673
-0.261315 -4.4401 -4.4401
-0.305966 -4.41295 -4.41295
-0.306693 -4.43982 -4.43982
-0.352894 -4.46649 -4.46649
-0.354477 -4.52042 -4.52042
-0.263261 -4.52096 -4.52096
-0.261966 -4.46701 -4.46701
-0.353687 -4.49343 -4.49343
-0.308856 -4.52067 -4.52067
-0.262615 -4.49396 -4.49396
-0.307417 -4.46673 -4.46673
-0.308138 -4.49368 -4.49368
-0.354477 -4.52042 -4.52042
-0.356047 -4.57453 -4.57453
-0.264547 -4.57508 -4.57508
-0.263261 -4.52096 -4.52096
-0.355264 -4.54746 -4.54746
-0.310284 -4.57479 -4.57479
-0.263905 -4.548 -4.548
-0.308856 -4.52067 -4.52067
-0.309572 -4.54771 -4.54771
-0.356047 -4.57453 -4.57453
-0.357602 -4.62881 -4.62881
-0.265824 -4.62937 -4.62937
-0.264547 -4.57508 -4.57508
-0.356826 -4.60165 -4.60165
-0.3117 -4.62907 -4.62907
-0.265187 -4.60221 -4.60221
-0.310284 -4.57479 -4.57479
-0.310993 -4.60191 -4.60191
-0.357602 -4.62881 -4.62881
-0.359142 -4.68325 -4.68325
-0.267091 -4.68382 -4.68382
-0.265824 -4.62937 -4.62937
-0.358374 -4.65601 -4.65601
-0.313104 -4.68352 -4.68352
-0.266459 -4.65658 -4.65658
-0.3117 -4.62907 -4.62907
-0.312403 -4.65628 -4.65628
-0.359142 -4.68325 -4.68325
-0.360668 -4.73785 -4.73785
-0.268349 -4.73844 -4.73844
-0.267091 -4.68382 -4.68382
-0.359907 -4.71053 -4.71053
-0.314496 -4.73813 -4.73813
-0.267721 -4.71111 -4.71111
-0.313104 -4.68352 -4.68352
-0.313801 -4.7108 -4.7108
-0.360668 -4.73785 -4.73785
-0.36218 -4.7926 -4.7926
-0.269598 -4.79321 -4.79321
-0.268349 -4.73844 -4.73844
-0.361426 -4.76521 -4.76521
-0.315876 -4.79289 -4.79289
-0.268975 -4.7658 -4.7658
-0.314496 -4.73813 -4.73813
-0.315187 -4.76549 -4.76549
-0.36218 -4.7926 -4.7926
-0.363677 -4.84752 -4.84752
-0.270837 -4.84813 -4.84813
-0.269598 -4.79321 -4.79321
-0.36293 -4.82004 -4.82004
-0.317244 -4.84781 -4.84781
-0.270219 -4.82065 -4.82065
-0.315876 -4.79289 -4.79289
-0.316562 -4.82033 -4.82033
-0.363677 -4.84752 -4.84752
-0.36516 -4.90258 -4.90258
-0.272067 -4.90321 -4.90321
-0.270837 -4.84813 -4.84813
-0.36442 -4.87503 -4.87503
-0.3186 -4.90288 -4.90288
-0.271453 -4.87565 -4.87565
-0.317244 -4.84781 -4.84781
-0.317924 -4.87533 -4.87533
-0.36516 -4.90258 -4.90258
-0.366627 -4.95779 -4.95779
-0.273287 -4.95844 -4.95844
-0.272067 -4.90321 -4.90321
-0.365895 -4.93017 -4.93017
-0.319944 -4.9581 -4.9581
-0.272678 -4.93081 -4.93081
-0.3186 -4.90288 -4.90288
-0.319274 -4.93047 -4.93047
-0.366627 -4.95779 -4.95779
-0.36808 -5.01315 -5.01315
-0.274497 -5.01381 -5.01381
-0.273287 -4.95844 -4.95844
-0.367356 -4.98545 -4.98545
-0.321276 -5.01347 -5.01347
-0.273893 -4.98611 -4.98611
-0.319944 -4.9581 -4.9581
-0.320612 -4.98576 -4.98576
-0.36808 -5.01315 -5.01315
-0.369519 -5.06865 -5.06865
-0.275698 -5.06932 -5.06932
-0.274497 -5.01381 -5.01381
-0.368801 -5.04088 -5.04088
-0.322595 -5.06897 -5.06897
-0.275099 -5.04155 -5.04155
-0.321276 -5.01347 -5.01347
-0.321937 -5.0412 -5.0412
-0.369519 -5.06865 -5.06865
-0.370942 -5.12429 -5.12429
-0.276889 -5.12498 -5.12498
-0.275698 -5.06932 -5.06932
-0.370232 -5.09646 -5.09646
-0.323903 -5.12462 -5.12462
-0.276295 -5.09713 -5.09713
-0.322595 -5.06897 -5.06897
-0.323251 -5.09678 -5.09678
-0.370942 -5.12429 -5.12429
-0.372351 -5.18007 -5.18007
-0.27807 -5.18076 -5.18076
-0.276889 -5.12498 -5.12498
-0.371648 -5.15216 -5.15216
-0.325198 -5.1804 -5.1804
-0.277481 -5.15285 -5.15285
-0.323903 -5.12462 -5.12462
-0.324552 -5.15249 -5.15249
-0.372351 -5.18007 -5.18007
-0.373744 -5.23598 -5.23598
-0.279242 -5.23669 -5.23669
-0.27807 -5.18076 -5.18076
-0.373049 -5.20801 -5.20801
-0.32648 -5.23632 -5.23632
-0.278657 -5.20871 -5.20871
-0.325198 -5.1804 -5.1804
-0.32584 -5.20835 -5.20835
-0.373744 -5.23598 -5.23598
-0.375123 -5.29202 -5.29202
-0.280403 -5.29274 -5.29274
-0.279242 -5.23669 -5.23669
-0.374435 -5.26398 -5.26398
-0.32775 -5.29237 -5.29237
-0.279824 -5.2647 -5.2647
-0.32648 -5.23632 -5.23632
-0.327117 -5.26433 -5.26433
-0.375123 -5.29202 -5.29202
-0.376486 -5.34819 -5.34819
-0.281555 -5.34892 -5.34892
-0.280403 -5.29274 -5.29274
-0.375806 -5.32009 -5.32009
-0.329008 -5.34854 -5.34854
-0.28098 -5.32082 -5.32082
-0.32775 -5.29237 -5.29237
-0.328381 -5.32044 -5.32044
-0.376486 -5.34819 -5.34819
-0.377835 -5.40448 -5.40448
-0.282696 -5.40523 -5.40523
-0.281555 -5.34892 -5.34892
-0.377162 -5.37632 -5.37632
-0.330253 -5.40484 -5.40484
-0.282127 -5.37706 -5.37706
-0.329008 -5.34854 -5.34854
-0.329632 -5.37668 -5.37668
-0.377835 -5.40448 -5.40448
-0.379168 -5.4609 -5.4609
-0.283828 -5.46165 -5.46165
-0.282696 -5.40523 -5.40523
-0.378503 -5.43267 -5.43267
-0.331485 -5.46126 -5.46126
-0.283263 -5.43342 -5.43342
-0.330253 -5.40484 -5.40484
-0.33087 -5.43304 -5.43304
-0.379168 -5.4609 -5.4609
-0.380486 -5.51743 -5.51743
-0.284949 -5.5182 -5.5182
-0.283828 -5.46165 -5.46165
-0.379829 -5.48915 -5.48915
-0.332705 -5.5178 -5.5178
-0.28439 -5.48991 -5.48991
-0.331485 -5.46126 -5.46126
-0.332096 -5.48952 -5.48952
-0.380486 -5.51743 -5.51743
-0.381788 -5.57408 -5.57408
-0.28606 -5.57486 -5.57486
-0.284949 -5.5182 -5.5182
-0.381139 -5.54574 -5.54574
-0.333911 -5.57445 -5.57445
-0.285506 -5.54651 -5.54651
-0.332705 -5.5178 -5.5178
-0.33331 -5.54611 -5.54611
-0.381788 -5.57408 -5.57408
-0.383075 -5.63084 -5.63084
-0.287161 -5.63163 -5.63163
-0.28606 -5.57486 -5.57486
-0.382434 -5.60244 -5.60244
-0.335105 -5.63122 -5.63122
-0.286612 -5.60323 -5.60323
-0.333911 -5.57445 -5.57445
-0.33451 -5.60282 -5.60282
-0.383075 -5.63084 -5.63084
-0.384347 -5.6877 -5.6877
-0.288251 -5.68851 -5.68851
-0.287161 -5.63163 -5.63163
-0.383713 -5.65926 -5.65926
-0.336286 -5.6881 -5.6881
-0.287708 -5.66006 -5.66006
-0.335105 -5.63122 -5.63122
-0.335697 -5.65965 -5.65965
-0.384347 -5.6877 -5.6877
-0.385603 -5.74468 -5.74468
-0.289332 -5.7455 -5.7455
-0.288251 -5.68851 -5.68851
-0.384977 -5.71618 -5.71618
-0.337454 -5.74508 -5.74508
-0.288793 -5.71699 -5.71699
-0.336286 -5.6881 -5.6881
-0.336872 -5.71657 -5.71657
-0.385603 -5.74468 -5.74468
-0.386844 -5.80176 -5.80176
-0.290401 -5.80259 -5.80259
-0.289332 -5.7455 -5.7455
-0.386225 -5.77321 -5.77321
-0.33861 -5.80216 -5.80216
-0.289868 -5.77403 -5.77403
-0.337454 -5.74508 -5.74508
-0.338034 -5.77361 -5.77361
-0.386844 -5.80176 -5.80176
-0.388069 -5.85894 -5.85894
-0.29146 -5.85978 -5.85978
-0.290401 -5.80259 -5.80259
-0.387458 -5.83034 -5.83034
-0.339752 -5.85935 -5.85935
-0.290932 -5.83117 -5.83117
-0.33861 -5.80216 -5.80216
-0.339182 -5.83074 -5.83074
-0.388069 -5.85894 -5.85894
-0.389278 -5.91621 -5.91621
-0.292509 -5.91707 -5.91707
-0.29146 -5.85978 -5.85978
-0.388675 -5.88756 -5.88756
-0.34088 -5.91663 -5.91663
-0.291986 -5.88841 -5.88841
-0.339752 -5.85935 -5.85935
-0.340318 -5.88798 -5.88798
-0.389278 -5.91621 -5.91621
-0.390471 -5.97359 -5.97359
-0.293546 -5.97445 -5.97445
-0.292509 -5.91707 -5.91707
-0.389876 -5.94489 -5.94489
-0.341996 -5.97401 -5.97401
-0.293029 -5.94575 -5.94575
-0.34088 -5.91663 -5.91663
-0.34144 -5.94531 -5.94531
-0.390471 -5.97359 -5.97359
-0.391649 -6.03105 -6.03105
-0.294573 -6.03192 -6.03192
-0.293546 -5.97445 -5.97445
-0.391062 -6.00231 -6.00231
-0.343098 -6.03148 -6.03148
-0.294061 -6.00317 -6.00317
-0.341996 -5.97401 -5.97401
-0.342549 -6.00273 -6.00273
-0.391649 -6.03105 -6.03105
-0.392811 -6.0886 -6.0886
-0.29559 -6.08948 -6.08948
-0.294573 -6.03192 -6.03192
-0.392232 -6.05981 -6.05981
-0.344187 -6.08903 -6.08903
-0.295083 -6.06069 -6.06069
-0.343098 -6.03148 -6.03148
-0.343645 -6.06024 -6.06024
-0.392811 -6.0886 -6.0886
-0.393956 -6.14623 -6.14623
-0.296595 -6.14713 -6.14713
-0.29559 -6.08948 -6.08948
-0.393386 -6.1174 -6.1174
-0.345263 -6.14667 -6.14667
-0.296094 -6.1183 -6.1183
-0.344187 -6.08903 -6.08903
-0.344727 -6.11784 -6.11784
-0.393956 -6.14623 -6.14623
-0.395086 -6.20395 -6.20395
-0.29759 -6.20486 -6.20486
-0.296595 -6.14713 -6.14713
-0.394523 -6.17508 -6.17508
-0.346325 -6.2044 -6.2044
-0.297094 -6.17598 -6.17598
-0.345263 -6.14667 -6.14667
-0.345796 -6.17552 -6.17552
-0.395086 -6.20395 -6.20395
-0.3962 -6.26175 -6.26175
-0.298573 -6.26266 -6.26266
-0.29759 -6.20486 -6.20486
-0.395645 -6.23284 -6.23284
-0.347374 -6.2622 -6.2622
-0.298083 -6.23375 -6.23375
-0.346325 -6.2044 -6.2044
-0.346851 -6.23329 -6.23329
-0.3962 -6.26175 -6.26175
-0.397297 -6.31962 -6.31962
-0.299546 -6.32055 -6.32055
-0.298573 -6.26266 -6.26266
-0.396751 -6.29067 -6.29067
-0.348409 -6.32007 -6.32007
-0.299061 -6.2916 -6.2916
-0.347374 -6.2622 -6.2622
-0.347893 -6.29113 -6.29113
-0.397297 -6.31962 -6.31962
-0.398378 -6.37756 -6.37756
-0.300507 -6.3785 -6.3785
-0.299546 -6.32055 -6.32055
-0.39784 -6.34858 -6.34858
-0.34943 -6.37803 -6.37803
-0.300028 -6.34952 -6.34952
-0.348409 -6.32007 -6.32007
-0.348921 -6.34904 -6.34904
-0.398378 -6.37756 -6.37756
-0.399443 -6.43558 -6.43558
-0.301457 -6.43653 -6.43653
-0.300507 -6.3785 -6.3785
-0.398913 -6.40656 -6.40656
-0.350438 -6.43605 -6.43605
-0.300983 -6.40751 -6.40751
-0.34943 -6.37803 -6.37803
-0.349935 -6.40703 -6.40703
-0.399443 -6.43558 -6.43558
-0.400492 -6.49366 -6.49366
-0.302396 -6.49462 -6.49462
-0.301457 -6.43653 -6.43653
-0.39997 -6.46461 -6.46461
-0.351431 -6.49413 -6.49413
-0.301928 -6.46557 -6.46557
-0.350438 -6.43605 -6.43605
-0.350936 -6.46508 -6.46508
-0.400492 -6.49366 -6.49366
-0.401524 -6.55181 -6.55181
-0.303324 -6.55278 -6.55278
-0.302396 -6.49462 -6.49462
-0.40101 -6.52273 -6.52273
-0.352411 -6.55229 -6.55229
-0.302861 -6.52369 -6.52369
-0.351431 -6.49413 -6.49413
-0.351923 -6.5232 -6.5232
-0.401524 -6.55181 -6.55181
-0.40254 -6.61001 -6.61001
-0.30424 -6.61099 -6.61099
-0.303324 -6.55278 -6.55278
-0.402034 -6.5809 -6.5809
-0.353377 -6.6105 -6.6105
-0.303783 -6.58188 -6.58188
-0.352411 -6.55229 -6.55229
-0.352896 -6.58138 -6.58138
-0.40254 -6.61001 -6.61001
-0.403539 -6.66828 -6.66828
-0.305144 -6.66927 -6.66927
-0.30424 -6.61099 -6.61099
-0.403041 -6.63914 -6.63914
-0.354329 -6.66877 -6.66877
-0.304694 -6.64012 -6.64012
-0.353377 -6.6105 -6.6105
-0.353855 -6.63963 -6.63963
-0.403539 -6.66828 -6.66828
-0.404521 -6.7266 -6.7266
-0.306038 -6.7276 -6.7276
-0.305144 -6.66927 -6.66927
-0.404032 -6.69743 -6.69743
-0.355267 -6.72709 -6.72709
-0.305593 -6.69843 -6.69843
-0.354329 -6.66877 -6.66877
-0.3548 -6.69792 -6.69792
-0.404521 -6.7266 -6.7266
-0.405487 -6.78497 -6.78497
-0.306919 -6.78598 -6.78598
-0.306038 -6.7276 -6.7276
-0.405006 -6.75578 -6.75578
-0.356191 -6.78547 -6.78547
-0.30648 -6.75678 -6.75678
-0.355267 -6.72709 -6.72709
-0.35573 -6.75628 -6.75628
-0.405487 -6.78497 -6.78497
-0.406436 -6.84339 -6.84339
-0.307789 -6.84441 -6.84441
-0.306919 -6.78598 -6.78598
-0.405964 -6.81418 -6.81418
-0.3571 -6.8439 -6.8439
-0.307356 -6.81519 -6.81519
-0.356191 -6.78547 -6.78547
-0.356647 -6.81468 -6.81468
-0.406436 -6.84339 -6.84339
-0.407368 -6.90186 -6.90186
-0.308647 -6.90289 -6.90289
-0.307789 -6.84441 -6.84441
-0.406904 -6.87262 -6.87262
-0.357995 -6.90237 -6.90237
-0.30822 -6.87364 -6.87364
-0.3571 -6.8439 -6.8439
-0.357549 -6.87313 -6.87313
-0.407368 -6.90186 -6.90186
-0.408283 -6.96037 -6.96037
-0.309494 -6.9614 -6.9614
-0.308647 -6.90289 -6.90289
-0.407828 -6.93111 -6.93111
-0.358876 -6.96088 -6.96088
-0.309072 -6.93214 -6.93214
-0.357995 -6.90237 -6.90237
-0.358437 -6.93162 -6.93162
-0.408283 -6.96037 -6.96037
-0.409182 -7.01892 -7.01892
-0.310328 -7.01996 -7.01996
-0.309494 -6.9614 -6.9614
-0.408735 -6.98964 -6.98964
-0.359742 -7.01944 -7.01944
-0.309913 -6.99068 -6.99068
-0.358876 -6.96088 -6.96088
-0.359311 -6.99015 -6.99015
-0.409182 -7.01892 -7.01892
-0.410063 -7.0775 -7.0775
-0.311151 -7.07856 -7.07856
-0.310328 -7.01996 -7.01996
-0.409624 -7.0482 -7.0482
-0.360594 -7.07803 -7.07803
-0.310741 -7.04926 -7.04926
-0.359742 -7.01944 -7.01944
-0.36017 -7.04873 -7.04873
-0.410063 -7.0775 -7.0775
-0.410927 -7.13612 -7.13612
-0.311962 -7.13719 -7.13719
-0.311151 -7.07856 -7.07856
-0.410497 -7.10681 -7.10681
-0.361432 -7.13665 -7.13665
-0.311558 -7.10787 -7.10787
-0.360594 -7.07803 -7.07803
-0.361015 -7.10733 -7.10733
-0.410927 -7.13612 -7.13612
-0.411774 -7.19477 -7.19477
-0.31276 -7.19584 -7.19584
-0.311962 -7.13719 -7.13719
-0.411353 -7.16544 -7.16544
-0.362255 -7.1953 -7.1953
-0.312362 -7.16651 -7.16651
-0.361432 -7.13665 -7.13665
-0.361845 -7.16597 -7.16597
-0.411774 -7.19477 -7.19477
-0.412604 -7.25345 -7.25345
-0.313546 -7.25453 -7.25453
-0.31276 -7.19584 -7.19584
-0.412191 -7.22411 -7.22411
-0.363063 -7.25399 -7.25399
-0.313155 -7.22518 -7.22518
-0.362255 -7.1953 -7.1953
-0.362661 -7.22464 -7.22464
-0.412604 -7.25345 -7.25345
-0.413417 -7.31215 -7.31215
-0.31432 -7.31324 -7.31324
-0.313546 -7.25453 -7.25453
-0.413013 -7.28279 -7.28279
-0.363857 -7.31269 -7.31269
-0.313935 -7.28388 -7.28388
-0.363063 -7.25399 -7.25399
-0.363462 -7.28334 -7.28334
-0.413417 -7.31215 -7.31215
-0.414214 -7.37087 -7.37087
-0.315082 -7.37197 -7.37197
-0.31432 -7.31324 -7.31324
-0.413818 -7.34151 -7.34151
-0.364637 -7.37142 -7.37142
-0.314703 -7.3426 -7.3426
-0.363857 -7.31269 -7.31269
-0.364248 -7.34205 -7.34205
-0.414214 -7.37087 -7.37087
-0.414996 -7.42961 -7.42961
-0.315831 -7.43072 -7.43072
-0.315082 -7.37197 -7.37197
-0.414607 -7.40024 -7.40024
-0.365402 -7.43017 -7.43017
-0.315458 -7.40134 -7.40134
-0.364637 -7.37142 -7.37142
-0.365021 -7.40079 -7.40079
-0.414996 -7.42961 -7.42961
-0.415765 -7.48837 -7.48837
-0.316566 -7.48949 -7.48949
-0.315831 -7.43072 -7.43072
-0.415382 -7.45899 -7.45899
-0.366155 -7.48893 -7.48893
-0.3162 -7.4601 -7.4601
-0.365402 -7.43017 -7.43017
-0.36578 -7.45954 -7.45954
-0.415765 -7.48837 -7.48837
-0.416525 -7.54715 -7.54715
-0.317286 -7.54827 -7.54827
-0.316566 -7.48949 -7.48949
-0.416146 -7.51776 -7.51776
-0.366895 -7.54771 -7.54771
-0.316928 -7.51888 -7.51888
-0.366155 -7.48893 -7.48893
-0.366527 -7.51832 -7.51832
-0.416525 -7.54715 -7.54715
-0.417284 -7.60595 -7.60595
-0.31799 -7.60708 -7.60708
-0.317286 -7.54827 -7.54827
-0.416904 -7.57655 -7.57655
-0.367622 -7.60651 -7.60651
-0.31764 -7.57767 -7.57767
-0.366895 -7.54771 -7.54771
-0.36726 -7.57711 -7.57711
-0.417284 -7.60595 -7.60595
-0.418058 -7.66481 -7.66481
-0.318679 -7.66593 -7.66593
-0.31799 -7.60708 -7.60708
-0.417667 -7.63537 -7.63537
-0.36833 -7.66537 -7.66537
-0.318335 -7.6365 -7.6365
-0.367622 -7.60651 -7.60651
-0.36798 -7.63593 -7.63593
-0.418058 -7.66481 -7.66481
-0.418847 -7.7239 -7.7239
-0.319378 -7.72479 -7.72479
-0.318679 -7.66593 -7.66593
-0.418457 -7.69429 -7.69429
-0.369025 -7.72434 -7.72434
-0.319024 -7.69536 -7.69536
-0.36833 -7.66537 -7.66537
-0.368674 -7.69484 -7.69484
0 0 0
-0.00229334 -0.000648301 -0.000648301
-0.00133428 -0.000136194 -0.000136194
0 0 0
-0.00111283 -0.000232318 -0.000232318
-0.00179603 -0.00033006 -0.00033006
-0.000646887 4.0982e-05 4.0982e-05
0 0 0
-0.000884345 -6.97807e-05 -6.97807e-05
-0.00229334 -0.000648301 -0.000648301
-0.00477656 -0.00187201 -0.00187201
-0.00277047 -0.00103395 -0.00103395
-0.00133428 -0.000136194 -0.000136194
-0.00352314 -0.00120105 -0.00120105
-0.00373959 -0.00138085 -0.00138085
-0.00204341 -0.000498886 -0.000498886
-0.00179603 -0.00033006 -0.00033006
-0.00275226 -0.000775128 -0.000775128
-0.00477656 -0.00187201 -0.00187201
-0.0072822 -0.00355343 -0.00355343
-0.00426656 -0.00258753 -0.00258753
-0.00277047 -0.00103395 -0.00103395
-0.00603087 -0.00265354 -0.00265354
-0.00574479 -0.00300281 -0.00300281
-0.00351394 -0.00173304 -0.00173304
-0.00373959 -0.00138085 -0.00138085
-0.00473966 -0.00212391 -0.00212391
-0.0072822 -0.00355343 -0.00355343
-0.00977537 -0.0057435 -0.0057435
-0.00577511 -0.00473883 -0.00473883
-0.00426656 -0.00258753 -0.00258753
-0.00853093 -0.0045819 -0.0045819
-0.00775376 -0.00517827 -0.00517827
-0.00502095 -0.00359009 -0.00359009
-0.00574479 -0.00300281 -0.00300281
-0.00675043 -0.00402077 -0.00402077
-0.00977537 -0.0057435 -0.0057435
-0.0122476 -0.0084785 -0.0084785
-0.00727883 -0.00747208 -0.00747208
-0.00577511 -0.00473883 -0.00473883
-0.0110139 -0.00704133 -0.00704133
-0.00974738 -0.00791387 -0.00791387
-0.00652822 -0.00603315 -0.00603315
-0.00775376 -0.00517827 -0.00517827
-0.00875279 -0.00647545 -0.00647545
-0.0122476 -0.0084785 -0.0084785
-0.0147038 -0.0117794 -0.0117794
-0.00876905 -0.0107812 -0.0107812
-0.00727883 -0.00747208 -0.00747208
-0.0134775 -0.0100576 -0.0100576
-0.0117241 -0.0112195 -0.0112195
-0.00802571 -0.00905478 -0.00905478
-0.00974738 -0.00791387 -0.00791387
-0.0107378 -0.00949514 -0.00949514
-0.0147038 -0.0117794 -0.0117794
-0.0171451 -0.0156522 -0.0156522
-0.0102465 -0.0146652 -0.0146652
-0.00876905 -0.0107812 -0.0107812
-0.0159262 -0.0136442 -0.0136442
-0.0136854 -0.015098 -0.015098
-0.0095093 -0.0126514 -0.0126514
-0.0117241 -0.0112195 -0.0112195
-0.0127066 -0.0130871 -0.0130871
-0.0171451 -0.0156522 -0.0156522
-0.0195736 -0.0200983 -0.0200983
-0.0117123 -0.0191219 -0.0191219
-0.0102465 -0.0146652 -0.0146652
-0.0183609 -0.0178036 -0.0178036
-0.0156335 -0.0195495 -0.0195495
-0.0109808 -0.0168221 -0.0168221
-0.0136854 -0.015098 -0.015098
-0.014661 -0.0172522 -0.0172522
-0.0195736 -0.0200983 -0.0200983
-0.0219896 -0.0251161 -0.0251161
-0.0131684 -0.0241496 -0.0241496
-0.0117123 -0.0191219 -0.0191219
-0.0207831 -0.0225359 -0.0225359
-0.0175701 -0.0245723 -0.0245723
-0.0124414 -0.0215645 -0.0215645
-0.0156335 -0.0195495 -0.0195495
-0.0166032 -0.0219896 -0.0219896
-0.0219896 -0.0251161 -0.0251161
-0.0243938 -0.0307031 -0.0307031
-0.0146159 -0.0297455 -0.0297455
-0.0131684 -0.0241496 -0.0241496
-0.0231932 -0.0278386 -0.0278386
-0.0194962 -0.0301639 -0.0301639
-0.0138931 -0.0268766 -0.0268766
-0.0175701 -0.0245723 -0.0245723
-0.0185344 -0.0272972 -0.0272972
-0.0243938 -0.0307031 -0.0307031
-0.0267864 -0.0368561 -0.0368561
-0.0160561 -0.0359069 -0.0359069
-0.0146159 -0.0297455 -0.0297455
-0.0255916 -0.033709 -0.033709
-0.0214127 -0.0363213 -0.0363213
-0.0153369 -0.0327557 -0.0327557
-0.0194962 -0.0301639 -0.0301639
-0.0204556 -0.0331721 -0.0331721
-0.0267864 -0.0368561 -0.0368561
-0.0291676 -0.043572 -0.043572
-0.0174894 -0.042631 -0.042631
-0.0160561 -0.0359069 -0.0359069
-0.0279785 -0.0401438 -0.0401438
-0.02332 -0.0430416 -0.0430416
-0.0167736 -0.0391988 -0.0391988
-0.0214127 -0.0363213 -0.0363213
-0.0223674 -0.0396113 -0.0396113
-0.0291676 -0.043572 -0.043572
-0.0315376 -0.0508476 -0.0508476
-0.0189162 -0.0499148 -0.0499148
-0.0174894 -0.042631 -0.042631
-0.030354 -0.04714 -0.04714
-0.0252183 -0.0503216 -0.0503216
-0.0182036 -0.0462031 -0.0462031
-0.02332 -0.0430416 -0.0430416
-0.0242702 -0.0466118 -0.0466118
-0.0315376 -0.0508476 -0.0508476
-0.0338963 -0.05868 -0.05868
-0.0203369 -0.0577553 -0.0577553
-0.0189162 -0.0499148 -0.0499148
-0.0327183 -0.0546944 -0.0546944
-0.0271081 -0.0581584 -0.0581584
-0.0196273 -0.0537657 -0.0537657
-0.0252183 -0.0503216 -0.0503216
-0.0261643 -0.0541706 -0.0541706
-0.0338963 -0.05868 -0.05868
-0.0362441 -0.0670659 -0.0670659
-0.0217516 -0.0661495 -0.0661495
-0.0203369 -0.0577553 -0.0577553
-0.0350716 -0.0628039 -0.0628039
-0.0289893 -0.0665487 -0.0665487
-0.021045 -0.0618834 -0.0618834
-0.0271081 -0.0581584 -0.0581584
-0.0280497 -0.0622845 -0.0622845
-0.0362441 -0.0670659 -0.0670659
-0.0385809 -0.0760023 -0.0760023
-0.0231605 -0.0750944 -0.0750944
-0.0217516 -0.0661495 -0.0661495
-0.0374138 -0.0714655 -0.0714655
-0.0308621 -0.0754897 -0.0754897
-0.0224568 -0.0705533 -0.0705533
-0.0289893 -0.0665487 -0.0665487
-0.0299267 -0.0709506 -0.0709506
-0.0385809 -0.0760023 -0.0760023
-0.0409069 -0.0854862 -0.0854862
-0.0245636 -0.0845869 -0.0845869
-0.0231605 -0.0750944 -0.0750944
-0.0397452 -0.080676 -0.080676
-0.0327267 -0.0849783 -0.0849783
-0.0238628 -0.0797724 -0.0797724
-0.0308621 -0.0754897 -0.0754897
-0.0317954 -0.0801657 -0.0801657
-0.0409069 -0.0854862 -0.0854862
-0.0432222 -0.0955146 -0.0955146
-0.0259612 -0.0946241 -0.0946241
-0.0245636 -0.0845869 -0.0845869
-0.0420659 -0.0904326 -0.0904326
-0.0345831 -0.0950113 -0.0950113
-0.0252631 -0.0895376 -0.0895376
-0.0327267 -0.0849783 -0.0849783
-0.0336559 -0.0899269 -0.0899269
-0.0432222 -0.0955146 -0.0955146
-0.0455268 -0.106084 -0.106084
-0.0273533 -0.105203 -0.105203
-0.0259612 -0.0946241 -0.0946241
-0.0443758 -0.100732 -0.100732
-0.0364314 -0.105586 -0.105586
-0.0266579 -0.0998459 -0.0998459
-0.0345831 -0.0950113 -0.0950113
-0.0355082 -0.100231 -0.100231
-0.0455268 -0.106084 -0.106084
-0.047821 -0.117193 -0.117193
-0.02874 -0.11632 -0.11632
-0.0273533 -0.105203 -0.105203
-0.0466752 -0.111571 -0.111571
-0.0382718 -0.116699 -0.116699
-0.0280473 -0.110694 -0.110694
-0.0364314 -0.105586 -0.105586
-0.0373526 -0.111075 -0.111075
-0.047821 -0.117193 -0.117193
-0.0501048 -0.128836 -0.128836
-0.0301214 -0.127973 -0.127973
-0.02874 -0.11632 -0.11632
-0.0489642 -0.122948 -0.122948
-0.0401044 -0.128348 -0.128348
-0.0294313 -0.12208 -0.12208
-0.0382718 -0.116699 -0.116699
-0.0391891 -0.122457 -0.122457
-0.0501048 -0.128836 -0.128836
-0.0523782 -0.141012 -0.141012
-0.0314976 -0.140158 -0.140158
-0.0301214 -0.127973 -0.127973
-0.0512428 -0.134858 -0.134858
-0.0419292 -0.140529 -0.140529
-0.0308101 -0.133999 -0.133999
-0.0401044 -0.128348 -0.128348
-0.0410178 -0.134372 -0.134372
-0.0523782 -0.141012 -0.141012
-0.0546415 -0.153718 -0.153718
-0.0328687 -0.152873 -0.152873
-0.0314976 -0.140158 -0.140158
-0.0535111 -0.147299 -0.147299
-0.0437464 -0.153239 -0.153239
-0.0321838 -0.14645 -0.14645
-0.0419292 -0.140529 -0.140529
-0.0428388 -0.146818 -0.146818
-0.0546415 -0.153718 -0.153718
-0.0568946 -0.166949 -0.166949
-0.0342348 -0.166115 -0.166115
-0.0328687 -0.152873 -0.152873
-0.0557693 -0.160268 -0.160268
-0.045556 -0.166476 -0.166476
-0.0335524 -0.159428 -0.159428
-0.0437464 -0.153239 -0.153239
-0.0446521 -0.159792 -0.159792
-0.0568946 -0.166949 -0.166949
-0.0591377 -0.180704 -0.180704
-0.035596 -0.17988 -0.17988
-0.0342348 -0.166115 -0.166115
-0.0580174 -0.173761 -0.173761
-0.0473581 -0.180236 -0.180236
-0.034916 -0.172932 -0.172932
-0.045556 -0.166476 -0.166476
-0.046458 -0.173291 -0.173291
-0.0591377 -0.180704 -0.180704
-0.0613709 -0.194979 -0.194979
-0.0369524 -0.194165 -0.194165
-0.035596 -0.17988 -0.17988
-0.0602555 -0.187777 -0.187777
-0.0491529 -0.194517 -0.194517
-0.0362748 -0.186957 -0.186957
-0.0473581 -0.180236 -0.180236
-0.0482564 -0.187312 -0.187312
-0.0613709 -0.194979 -0.194979
-0.0635942 -0.209772 -0.209772
-0.0383041 -0.208968 -0.208968
-0.0369524 -0.194165 -0.194165
-0.0624837 -0.202311 -0.202311
-0.0509404 -0.209315 -0.209315
-0.0376288 -0.201502 -0.201502
-0.0491529 -0.194517 -0.194517
-0.0500476 -0.201851 -0.201851
-0.0635942 -0.209772 -0.209772
-0.0658078 -0.225079 -0.225079
-0.0396511 -0.224285 -0.224285
-0.0383041 -0.208968 -0.208968
-0.0647022 -0.217361 -0.217361
-0.0527207 -0.224627 -0.224627
-0.0389781 -0.216562 -0.216562
-0.0509404 -0.209315 -0.209315
-0.0518314 -0.216907 -0.216907
-0.0658078 -0.225079 -0.225079
-0.0680117 -0.240897 -0.240897
-0.0409936 -0.240113 -0.240113
-0.0396511 -0.224285 -0.224285
-0.0669109 -0.232924 -0.232924
-0.0544939 -0.24045 -0.24045
-0.0403229 -0.232135 -0.232135
-0.0527207 -0.224627 -0.224627
-0.0536082 -0.232475 -0.232475
-0.0680117 -0.240897 -0.240897
-0.070206 -0.257223 -0.257223
-0.0423316 -0.25645 -0.25645
-0.0409936 -0.240113 -0.240113
-0.06911 -0.248996 -0.248996
-0.05626 -0.256782 -0.256782
-0.0416631 -0.248218 -0.248218
-0.0544939 -0.24045 -0.24045
-0.0553778 -0.248553 -0.248553
-0.070206 -0.257223 -0.257223
-0.0723908 -0.274054 -0.274054
-0.0436652 -0.273292 -0.273292
-0.0423316 -0.25645 -0.25645
-0.0712996 -0.265575 -0.265575
-0.0580192 -0.273619 -0.273619
-0.0429989 -0.264808 -0.264808
-0.05626 -0.256782 -0.256782
-0.0571405 -0.265138 -0.265138
-0.0723908 -0.274054 -0.274054
-0.0745662 -0.291388 -0.291388
-0.0449945 -0.290637 -0.290637
-0.0436652 -0.273292 -0.273292
-0.0734797 -0.282658 -0.282658
-0.0597716 -0.290959 -0.290959
-0.0443304 -0.281902 -0.281902
-0.0580192 -0.273619 -0.273619
-0.0588963 -0.282226 -0.282226
-0.0745662 -0.291388 -0.291388
-0.0767322 -0.30922 -0.30922
-0.0463196 -0.30848 -0.30848
-0.0449945 -0.290637 -0.290637
-0.0756504 -0.300242 -0.300242
-0.0615171 -0.308797 -0.308797
-0.0456576 -0.299496 -0.299496
-0.0597716 -0.290959 -0.290959
-0.0606452 -0.299816 -0.299816
-0.0767322 -0.30922 -0.30922
-0.078889 -0.327549 -0.327549
-0.0476405 -0.32682 -0.32682
-0.0463196 -0.30848 -0.30848
-0.0778118 -0.318323 -0.318323
-0.063256 -0.327132 -0.327132
-0.0469806 -0.317588 -0.317588
-0.0615171 -0.308797 -0.308797
-0.0623874 -0.317903 -0.317903
-0.078889 -0.327549 -0.327549
-0.0810366 -0.346371 -0.346371
-0.0489574 -0.345653 -0.345653
-0.0476405 -0.32682 -0.32682
-0.0799639 -0.336899 -0.336899
-0.0649882 -0.34596 -0.34596
-0.0482994 -0.336175 -0.336175
-0.063256 -0.327132 -0.327132
-0.0641229 -0.336484 -0.336484
-0.0810366 -0.346371 -0.346371
-0.0831751 -0.365683 -0.365683
-0.0502702 -0.364977 -0.364977
-0.0489574 -0.345653 -0.345653
-0.082107 -0.355966 -0.355966
-0.0667138 -0.365278 -0.365278
-0.0496143 -0.355254 -0.355254
-0.0649882 -0.34596 -0.34596
-0.0658518 -0.355558 -0.355558
-0.0831751 -0.365683 -0.365683
-0.0853045 -0.385482 -0.385482
-0.0515791 -0.384787 -0.384787
-0.0502702 -0.364977 -0.364977
-0.0842409 -0.375522 -0.375522
-0.068433 -0.385083 -0.385083
-0.0509251 -0.374821 -0.374821
-0.0667138 -0.365278 -0.365278
-0.0675742 -0.37512 -0.37512
-0.0853045 -0.385482 -0.385482
-0.0874249 -0.405765 -0.405765
-0.0528842 -0.405082 -0.405082
-0.0515791 -0.384787 -0.384787
-0.0863658 -0.395563 -0.395563
-0.0701457 -0.405372 -0.405372
-0.0522321 -0.394874 -0.394874
-0.068433 -0.385083 -0.385083
-0.0692902 -0.395167 -0.395167
-0.0874249 -0.405765 -0.405765
-0.0895364 -0.426529 -0.426529
-0.0541854 -0.425858 -0.425858
-0.0528842 -0.405082 -0.405082
-0.0884818 -0.416087 -0.416087
-0.0718521 -0.426142 -0.426142
-0.0535353 -0.41541 -0.41541
-0.0701457 -0.405372 -0.405372
-0.0709997 -0.415697 -0.415697
-0.0895364 -0.426529 -0.426529
-0.0916391 -0.447771 -0.447771
-0.055483 -0.447112 -0.447112
-0.0541854 -0.425858 -0.425858
-0.0905889 -0.437091 -0.437091
-0.0735522 -0.447391 -0.447391
-0.0548347 -0.436425 -0.436425
-0.0718521 -0.426142 -0.426142
-0.0727029 -0.436707 -0.436707
-0.0916391 -0.447771 -0.447771
-0.093733 -0.469488 -0.469488
-0.0567768 -0.468841 -0.468841
-0.055483 -0.447112 -0.447112
-0.0926871 -0.458571 -0.458571
-0.0752461 -0.469114 -0.469114
-0.0561303 -0.457917 -0.457917
-0.0735522 -0.447391 -0.447391
-0.0743999 -0.458193 -0.458193
-0.093733 -0.469488 -0.469488
-0.0958182 -0.491677 -0.491677
-0.0580671 -0.491042 -0.491042
-0.0567768 -0.468841 -0.468841
-0.0947767 -0.480524 -0.480524
-0.0769338 -0.49131 -0.49131
-0.0574224 -0.479883 -0.479883
-0.0752461 -0.469114 -0.469114
-0.0760907 -0.480153 -0.480153
-0.0958182 -0.491677 -0.491677
-0.0978947 -0.514335 -0.514335
-0.0593538 -0.513712 -0.513712
-0.0580671 -0.491042 -0.491042
-0.0968575 -0.502948 -0.502948
-0.0786154 -0.513974 -0.513974
-0.0587109 -0.502319 -0.502319
-0.0769338 -0.49131 -0.49131
-0.0777753 -0.502583 -0.502583
-0.0978947 -0.514335 -0.514335
-0.0999626 -0.537459 -0.537459
-0.060637 -0.536848 -0.536848
-0.0593538 -0.513712 -0.513712
-0.0989297 -0.525839 -0.525839
-0.080291 -0.537104 -0.537104
-0.0599958 -0.525222 -0.525222
-0.0786154 -0.513974 -0.513974
-0.0794539 -0.525481 -0.525481
-0.0999626 -0.537459 -0.537459
-0.102022 -0.561046 -0.561046
-0.0619168 -0.560448 -0.560448
-0.060637 -0.536848 -0.536848
-0.100993 -0.549195 -0.549195
-0.0819605 -0.560697 -0.560697
-0.0612773 -0.54859 -0.54859
-0.080291 -0.537104 -0.537104
-0.0811265 -0.548843 -0.548843
-0.102022 -0.561046 -0.561046
-0.104073 -0.585092 -0.585092
-0.0631933 -0.584507 -0.584507
-0.0619168 -0.560448 -0.560448
-0.103048 -0.573012 -0.573012
-0.0836242 -0.584751 -0.584751
-0.0625555 -0.57242 -0.57242
-0.0819605 -0.560697 -0.560697
-0.0827931 -0.572667 -0.572667
-0.104073 -0.585092 -0.585092
-0.106115 -0.609596 -0.609596
-0.0644664 -0.609023 -0.609023
-0.0631933 -0.584507 -0.584507
-0.105095 -0.597287 -0.597287
-0.085282 -0.609261 -0.609261
-0.0638302 -0.596708 -0.596708
-0.0836242 -0.584751 -0.584751
-0.0844538 -0.596949 -0.596949
-0.106115 -0.609596 -0.609596
-0.108149 -0.634553 -0.634553
-0.0657362 -0.633993 -0.633993
-0.0644664 -0.609023 -0.609023
-0.107133 -0.622018 -0.622018
-0.086934 -0.634225 -0.634225
-0.0651017 -0.621451 -0.621451
-0.085282 -0.609261 -0.609261
-0.0861087 -0.621686 -0.621686
-0.108149 -0.634553 -0.634553
-0.110175 -0.659961 -0.659961
-0.0670029 -0.659413 -0.659413
-0.0657362 -0.633993 -0.633993
-0.109163 -0.647201 -0.647201
-0.0885802 -0.65964 -0.65964
-0.06637 -0.646647 -0.646647
-0.086934 -0.634225 -0.634225
-0.0877578 -0.646876 -0.646876
-0.110175 -0.659961 -0.659961
-0.112193 -0.685817 -0.685817
-0.0682664 -0.685282 -0.685282
-0.0670029 -0.659413 -0.659413
-0.111185 -0.672833 -0.672833
-0.0902206 -0.685502 -0.685502
-0.067635 -0.672292 -0.672292
-0.0885802 -0.65964 -0.65964
-0.0894011 -0.672515 -0.672515
-0.112193 -0.685817 -0.685817
-0.114202 -0.712118 -0.712118
-0.0695268 -0.711596 -0.711596
-0.0682664 -0.685282 -0.685282
-0.113198 -0.698912 -0.698912
-0.0918554 -0.71181 -0.71181
-0.068897 -0.698384 -0.698384
-0.0902206 -0.685502 -0.685502
-0.0910387 -0.6986 -0.6986
-0.114202 -0.712118 -0.712118
-0.116203 -0.73886 -0.73886
-0.0707841 -0.738351 -0.738351
-0.0695268 -0.711596 -0.711596
-0.115203 -0.725434 -0.725434
-0.0934846 -0.738559 -0.738559
-0.0701558 -0.724918 -0.724918
-0.0918554 -0.71181 -0.71181
-0.0926707 -0.725129 -0.725129
-0.116203 -0.73886 -0.73886
-0.118196 -0.766041 -0.766041
-0.0720383 -0.765545 -0.765545
-0.0707841 -0.738351 -0.738351
-0.1172 -0.752396 -0.752396
-0.0951082 -0.765747 -0.765747
-0.0714116 -0.751894 -0.751894
-0.0934846 -0.738559 -0.738559
-0.0942971 -0.752098 -0.752098
-0.118196 -0.766041 -0.766041
-0.120181 -0.793658 -0.793658
-0.0732897 -0.793175 -0.793175
-0.0720383 -0.765545 -0.765545
-0.119189 -0.779795 -0.779795
-0.0967263 -0.79337 -0.79337
-0.0726644 -0.779306 -0.779306
-0.0951082 -0.765747 -0.765747
-0.0959179 -0.779504 -0.779504
-0.120181 -0.793658 -0.793658
-0.122157 -0.821708 -0.821708
-0.074538 -0.821238 -0.821238
-0.0732897 -0.793175 -0.793175
-0.12117 -0.807629 -0.807629
-0.0983388 -0.821427 -0.821427
-0.0739142 -0.807153 -0.807153
-0.0967263 -0.79337 -0.79337
-0.0975332 -0.807345 -0.807345
-0.122157 -0.821708 -0.821708
-0.124126 -0.850187 -0.850187
-0.0757835 -0.84973 -0.84973
-0.074538 -0.821238 -0.821238
-0.123143 -0.835894 -0.835894
-0.099946 -0.849913 -0.849913
-0.0751611 -0.835431 -0.835431
-0.0983388 -0.821427 -0.821427
-0.0991431 -0.835616 -0.835616
-0.124126 -0.850187 -0.850187
-0.126087 -0.879093 -0.879093
-0.0770261 -0.878649 -0.878649
-0.0757835 -0.84973 -0.84973
-0.125108 -0.864586 -0.864586
-0.101548 -0.878826 -0.878826
-0.0764051 -0.864137 -0.864137
-0.099946 -0.849913 -0.849913
-0.100747 -0.864316 -0.864316
-0.126087 -0.879093 -0.879093
-0.12804 -0.908422 -0.908422
-0.0782659 -0.907992 -0.907992
-0.0770261 -0.878649 -0.878649
-0.127064 -0.893704 -0.893704
-0.103144 -0.908162 -0.908162
-0.0776463 -0.893268 -0.893268
-0.101548 -0.878826 -0.878826
-0.102346 -0.893441 -0.893441
-0.12804 -0.908422 -0.908422
-0.129985 -0.938172 -0.938172
-0.0795029 -0.937756 -0.937756
-0.0782659 -0.907992 -0.907992
-0.129013 -0.923245 -0.923245
-0.104735 -0.937919 -0.937919
-0.0788847 -0.922822 -0.922822
-0.103144 -0.908162 -0.908162
-0.10394 -0.922988 -0.922988
-0.129985 -0.938172 -0.938172
-0.131922 -0.968339 -0.968339
-0.0807371 -0.967937 -0.967937
-0.0795029 -0.937756 -0.937756
-0.130954 -0.953204 -0.953204
-0.106321 -0.968094 -0.968094
-0.0801203 -0.952794 -0.952794
-0.104735 -0.937919 -0.937919
-0.105528 -0.952954 -0.952954
-0.131922 -0.968339 -0.968339
-0.133851 -0.998922 -0.998922
-0.0819686 -0.998532 -0.998532
-0.0807371 -0.967937 -0.967937
-0.132887 -0.983579 -0.983579
-0.107901 -0.998683 -0.998683
-0.0813532 -0.983183 -0.983183
-0.106321 -0.968094 -0.968094
-0.107111 -0.983337 -0.983337
-0.133851 -0.998922 -0.998922
-0.135773 -1.02992 -1.02992
-0.0831975 -1.02954 -1.02954
-0.0819686 -0.998532 -0.998532
-0.134813 -1.01437 -1.01437
-0.109476 -1.02968 -1.02968
-0.0825834 -1.01398 -1.01398
-0.107901 -0.998683 -0.998683
-0.108689 -1.01413 -1.01413
-0.135773 -1.02992 -1.02992
-0.137686 -1.06132 -1.06132
-0.0844236 -1.06096 -1.06096
-0.0831975 -1.02954 -1.02954
-0.13673 -1.04557 -1.04557
-0.111046 -1.06109 -1.06109
-0.0838109 -1.0452 -1.0452
-0.109476 -1.02968 -1.02968
-0.110262 -1.04534 -1.04534
-0.137686 -1.06132 -1.06132
-0.139592 -1.09312 -1.09312
-0.0856472 -1.09278 -1.09278
-0.0844236 -1.06096 -1.06096
-0.13864 -1.07717 -1.07717
-0.112611 -1.09291 -1.09291
-0.0850357 -1.07682 -1.07682
-0.111046 -1.06109 -1.06109
-0.111829 -1.07695 -1.07695
-0.139592 -1.09312 -1.09312
-0.14149 -1.12533 -1.12533
-0.0868681 -1.125 -1.125
-0.0856472 -1.09278 -1.09278
-0.140542 -1.10918 -1.10918
-0.11417 -1.12513 -1.12513
-0.086258 -1.10884 -1.10884
-0.112611 -1.09291 -1.09291
-0.113391 -1.10897 -1.10897
-0.14149 -1.12533 -1.12533
-0.143381 -1.15794 -1.15794
-0.0880865 -1.15762 -1.15762
-0.0868681 -1.125 -1.125
-0.142436 -1.14159 -1.14159
-0.115725 -1.15774 -1.15774
-0.0874776 -1.14126 -1.14126
-0.11417 -1.12513 -1.12513
-0.114948 -1.14138 -1.14138
-0.143381 -1.15794 -1.15794
-0.145264 -1.19095 -1.19095
-0.0893022 -1.19064 -1.19064
-0.0880865 -1.15762 -1.15762
-0.144323 -1.1744 -1.1744
-0.117274 -1.19075 -1.19075
-0.0886947 -1.17408 -1.17408
-0.115725 -1.15774 -1.15774
-0.1165 -1.1742 -1.1742
-0.145264 -1.19095 -1.19095
-0.147139 -1.22435 -1.22435
-0.0905155 -1.22406 -1.22406
-0.0893022 -1.19064 -1.19064
-0.146202 -1.2076 -1.2076
-0.118818 -1.22416 -1.22416
-0.0899092 -1.2073 -1.2073
-0.117274 -1.19075 -1.19075
-0.118047 -1.20741 -1.20741
-0.147139 -1.22435 -1.22435
-0.149006 -1.25814 -1.25814
-0.0917262 -1.25786 -1.25786
-0.0905155 -1.22406 -1.22406
-0.148073 -1.2412 -1.2412
-0.120357 -1.25796 -1.25796
-0.0911212 -1.24091 -1.24091
-0.118818 -1.22416 -1.22416
-0.119588 -1.24101 -1.24101
-0.149006 -1.25814 -1.25814
-0.150866 -1.29232 -1.29232
-0.0929345 -1.29205 -1.29205
-0.0917262 -1.25786 -1.25786
-0.149937 -1.27518 -1.27518
-0.121891 -1.29214 -1.29214
-0.0923307 -1.27491 -1.27491
-0.120357 -1.25796 -1.25796
-0.121125 -1.275 -1.275
-0.150866 -1.29232 -1.29232
-0.152719 -1.32688 -1.32688
-0.0941403 -1.32663 -1.32663
-0.0929345 -1.29205 -1.29205
-0.151793 -1.30955 -1.30955
-0.12342 -1.32671 -1.32671
-0.0935377 -1.30929 -1.30929
-0.121891 -1.29214 -1.29214
-0.122657 -1.30938 -1.30938
-0.152719 -1.32688 -1.32688
-0.154563 -1.36182 -1.36182
-0.0953436 -1.36158 -1.36158
-0.0941403 -1.32663 -1.32663
-0.153642 -1.3443 -1.3443
-0.124944 -1.36166 -1.36166
-0.0947422 -1.34406 -1.34406
-0.12342 -1.32671 -1.32671
-0.124183 -1.34414 -1.34414
-0.154563 -1.36182 -1.36182
-0.1564 -1.39714 -1.39714
-0.0965444 -1.39692 -1.39692
-0.0953436 -1.36158 -1.36158
-0.155483 -1.37943 -1.37943
-0.126464 -1.39699 -1.39699
-0.0959443 -1.3792 -1.3792
-0.124944 -1.36166 -1.36166
-0.125705 -1.37928 -1.37928
-0.1564 -1.39714 -1.39714
-0.15823 -1.43284 -1.43284
-0.0977429 -1.43263 -1.43263
-0.0965444 -1.39692 -1.39692
-0.157316 -1.41494 -1.41494
-0.127978 -1.43269 -1.43269
-0.097144 -1.41473 -1.41473
-0.126464 -1.39699 -1.39699
-0.127221 -1.41479 -1.41479
-0.15823 -1.43284 -1.43284
-0.160052 -1.46891 -1.46891
-0.0989389 -1.46871 -1.46871
-0.0977429 -1.43263 -1.43263
-0.159142 -1.45083 -1.45083
-0.129487 -1.46877 -1.46877
-0.0983412 -1.45062 -1.45062
-0.127978 -1.43269 -1.43269
-0.128733 -1.45068 -1.45068
-0.160052 -1.46891 -1.46891
-0.161867 -1.50534 -1.50534
-0.100132 -1.50516 -1.50516
-0.0989389 -1.46871 -1.46871
-0.16096 -1.48708 -1.48708
-0.130991 -1.50521 -1.50521
-0.099536 -1.48689 -1.48689
-0.129487 -1.46877 -1.46877
-0.130239 -1.48695 -1.48695
-0.161867 -1.50534 -1.50534
-0.163674 -1.54215 -1.54215
-0.101324 -1.54198 -1.54198
-0.100132 -1.50516 -1.50516
-0.162771 -1.5237 -1.5237
-0.13249 -1.54203 -1.54203
-0.100728 -1.52353 -1.52353
-0.130991 -1.50521 -1.50521
-0.131741 -1.52357 -1.52357
-0.163674 -1.54215 -1.54215
-0.165473 -1.57931 -1.57931
-0.102513 -1.57916 -1.57916
-0.101324 -1.54198 -1.54198
-0.164575 -1.56069 -1.56069
-0.133984 -1.5792 -1.5792
-0.101918 -1.56053 -1.56053
-0.13249 -1.54203 -1.54203
-0.133238 -1.56057 -1.56057
-0.165473 -1.57931 -1.57931
-0.167266 -1.61684 -1.61684
-0.103699 -1.6167 -1.6167
-0.102513 -1.57916 -1.57916
-0.16637 -1.59803 -1.59803
-0.135473 -1.61673 -1.61673
-0.103106 -1.59789 -1.59789
-0.133984 -1.5792 -1.5792
-0.134729 -1.59792 -1.59792
-0.167266 -1.61684 -1.61684
-0.16905 -1.65473 -1.65473
-0.104883 -1.6546 -1.6546
-0.103699 -1.6167 -1.6167
-0.168159 -1.63574 -1.63574
-0.136958 -1.65463 -1.65463
-0.104291 -1.63561 -1.63561
-0.135473 -1.61673 -1.61673
-0.136216 -1.63564 -1.63564
-0.16905 -1.65473 -1.65473
-0.170827 -1.69296 -1.69296
-0.106065 -1.69285 -1.69285
-0.104883 -1.6546 -1.6546
-0.16994 -1.6738 -1.6738
-0.138437 -1.69287 -1.69287
-0.105474 -1.67368 -1.67368
-0.136958 -1.65463 -1.65463
-0.137698 -1.6737 -1.6737
-0.170827 -1.69296 -1.69296
-0.172597 -1.73155 -1.73155
-0.107244 -1.73146 -1.73146
-0.106065 -1.69285 -1.69285
-0.171713 -1.71222 -1.71222
-0.139912 -1.73147 -1.73147
-0.106655 -1.71211 -1.71211
-0.138437 -1.69287 -1.69287
-0.139175 -1.71213 -1.71213
-0.172597 -1.73155 -1.73155
-0.174359 -1.77049 -1.77049
-0.108421 -1.77041 -1.77041
-0.107244 -1.73146 -1.73146
-0.173479 -1.75098 -1.75098
-0.141381 -1.77041 -1.77041
-0.107833 -1.75089 -1.75089
-0.139912 -1.73147 -1.73147
-0.140647 -1.7509 -1.7509
-0.174359 -1.77049 -1.77049
-0.176114 -1.80977 -1.80977
-0.109596 -1.80971 -1.80971
-0.108421 -1.77041 -1.77041
-0.175237 -1.79009 -1.79009
-0.142846 -1.8097 -1.8097
-0.109009 -1.79001 -1.79001
-0.141381 -1.77041 -1.77041
-0.142114 -1.79002 -1.79002
-0.176114 -1.80977 -1.80977
-0.177861 -1.8494 -1.8494
-0.110768 -1.84934 -1.84934
-0.109596 -1.80971 -1.80971
-0.176988 -1.82954 -1.82954
-0.144305 -1.84934 -1.84934
-0.110182 -1.82948 -1.82948
-0.142846 -1.8097 -1.8097
-0.143576 -1.82948 -1.82948
-0.177861 -1.8494 -1.8494
-0.179601 -1.88936 -1.88936
-0.111938 -1.88932 -1.88932
-0.110768 -1.84934 -1.84934
-0.178732 -1.86934 -1.86934
-0.14576 -1.88931 -1.88931
-0.111353 -1.86929 -1.86929
-0.144305 -1.84934 -1.84934
-0.145033 -1.86928 -1.86928
-0.179601 -1.88936 -1.88936
-0.181333 -1.92966 -1.92966
-0.113105 -1.92964 -1.92964
-0.111938 -1.88932 -1.88932
-0.180468 -1.90947 -1.90947
-0.14721 -1.92961 -1.92961
-0.112522 -1.90944 -1.90944
-0.14576 -1.88931 -1.88931
-0.146486 -1.90942 -1.90942
-0.181333 -1.92966 -1.92966
-0.183058 -1.97029 -1.97029
-0.11427 -1.97028 -1.97028
-0.113105 -1.92964 -1.92964
-0.182196 -1.94994 -1.94994
-0.148655 -1.97025 -1.97025
-0.113688 -1.94992 -1.94992
-0.14721 -1.92961 -1.92961
-0.147933 -1.94989 -1.94989
-0.183058 -1.97029 -1.97029
-0.184775 -2.01126 -2.01126
-0.115433 -2.01126 -2.01126
-0.11427 -1.97028 -1.97028
-0.183917 -1.99073 -1.99073
-0.150095 -2.01122 -2.01122
-0.114852 -1.99073 -1.99073
-0.148655 -1.97025 -1.97025
-0.149376 -1.9907 -1.9907
-0.184775 -2.01126 -2.01126
-0.186485 -2.05255 -2.05255
-0.116594 -2.05256 -2.05256
-0.115433 -2.01126 -2.01126
-0.185631 -2.03186 -2.03186
-0.15153 -2.05252 -2.05252
-0.116014 -2.03187 -2.03187
-0.150095 -2.01122 -2.01122
-0.150813 -2.03183 -2.03183
-0.186485 -2.05255 -2.05255
-0.188187 -2.09416 -2.09416
-0.117752 -2.09419 -2.09419
-0.116594 -2.05256 -2.05256
-0.187337 -2.07331 -2.07331
-0.15296 -2.09414 -2.09414
-0.117173 -2.07334 -2.07334
-0.15153 -2.05252 -2.05252
-0.152246 -2.07329 -2.07329
-0.188187 -2.09416 -2.09416
-0.189882 -2.13609 -2.13609
-0.118907 -2.13614 -2.13614
-0.117752 -2.09419 -2.09419
-0.189035 -2.11509 -2.11509
-0.154385 -2.13608 -2.13608
-0.11833 -2.11512 -2.11512
-0.15296 -2.09414 -2.09414
-0.153673 -2.11507 -2.11507
-0.189882 -2.13609 -2.13609
-0.191569 -2.17835 -2.17835
-0.12006 -2.1784 -2.1784
-0.118907 -2.13614 -2.13614
-0.190726 -2.15718 -2.15718
-0.155806 -2.17834 -2.17834
-0.119484 -2.15723 -2.15723
-0.154385 -2.13608 -2.13608
-0.155096 -2.15717 -2.15717
-0.191569 -2.17835 -2.17835
-0.193248 -2.22091 -2.22091
-0.121211 -2.22099 -2.22099
-0.12006 -2.1784 -2.1784
-0.19241 -2.19959 -2.19959
-0.157221 -2.22092 -2.22092
-0.120636 -2.19966 -2.19966
-0.155806 -2.17834 -2.17834
-0.156514 -2.19959 -2.19959
-0.193248 -2.22091 -2.22091
-0.194921 -2.26379 -2.26379
-0.122359 -2.26388 -2.26388
-0.121211 -2.22099 -2.22099
-0.194085 -2.24231 -2.24231
-0.158631 -2.2638 -2.2638
-0.121785 -2.24239 -2.24239
-0.157221 -2.22092 -2.22092
-0.157927 -2.24232 -2.24232
-0.194921 -2.26379 -2.26379
-0.196585 -2.30698 -2.30698
-0.123505 -2.30708 -2.30708
-0.122359 -2.26388 -2.26388
-0.195754 -2.28535 -2.28535
-0.160036 -2.307 -2.307
-0.122933 -2.28544 -2.28544
-0.158631 -2.2638 -2.2638
-0.159334 -2.28536 -2.28536
-0.196585 -2.30698 -2.30698
-0.198242 -2.35047 -2.35047
-0.124649 -2.35059 -2.35059
-0.123505 -2.30708 -2.30708
-0.197415 -2.32869 -2.32869
-0.161436 -2.3505 -2.3505
-0.124077 -2.32879 -2.32879
-0.160036 -2.307 -2.307
-0.160737 -2.32871 -2.32871
-0.198242 -2.35047 -2.35047
-0.199892 -2.39427 -2.39427
-0.12579 -2.3944 -2.3944
-0.124649 -2.35059 -2.35059
-0.199068 -2.37233 -2.37233
-0.162832 -2.3943 -2.3943
-0.125219 -2.37245 -2.37245
-0.161436 -2.3505 -2.3505
-0.162135 -2.37236 -2.37236
-0.199892 -2.39427 -2.39427
-0.201533 -2.43836 -2.43836
-0.126928 -2.4385 -2.4385
-0.12579 -2.3944 -2.3944
-0.200713 -2.41628 -2.41628
-0.164222 -2.4384 -2.4384
-0.126359 -2.41641 -2.41641
-0.162832 -2.3943 -2.3943
-0.163527 -2.41631 -2.41631
-0.201533 -2.43836 -2.43836
-0.203168 -2.48275 -2.48275
-0.128064 -2.48291 -2.48291
-0.126928 -2.4385 -2.4385
-0.202351 -2.46052 -2.46052
-0.165607 -2.4828 -2.4828
-0.127496 -2.46067 -2.46067
-0.164222 -2.4384 -2.4384
-0.164915 -2.46056 -2.46056
-0.203168 -2.48275 -2.48275
-0.204794 -2.52744 -2.52744
-0.129197 -2.52761 -2.52761
-0.128064 -2.48291 -2.48291
-0.203982 -2.50506 -2.50506
-0.166987 -2.52749 -2.52749
-0.128631 -2.50522 -2.50522
-0.165607 -2.4828 -2.4828
-0.166298 -2.50511 -2.50511
-0.204794 -2.52744 -2.52744
-0.206413 -2.57242 -2.57242
-0.130328 -2.5726 -2.5726
-0.129197 -2.52761 -2.52761
-0.205605 -2.54989 -2.54989
-0.168362 -2.57248 -2.57248
-0.129763 -2.55007 -2.55007
-0.166987 -2.52749 -2.52749
-0.167675 -2.54995 -2.54995
-0.206413 -2.57242 -2.57242
-0.208024 -2.61768 -2.61768
-0.131457 -2.61788 -2.61788
-0.130328 -2.5726 -2.5726
-0.20722 -2.59501 -2.59501
-0.169732 -2.61775 -2.61775
-0.130893 -2.5952 -2.5952
-0.168362 -2.57248 -2.57248
-0.169047 -2.59508 -2.59508
-0.208024 -2.61768 -2.61768
-0.209628 -2.66323 -2.66323
-0.132582 -2.66344 -2.66344
-0.131457 -2.61788 -2.61788
-0.208827 -2.64042 -2.64042
-0.171096 -2.66331 -2.66331
-0.13202 -2.64062 -2.64062
-0.169732 -2.61775 -2.61775
-0.170415 -2.64049 -2.64049
-0.209628 -2.66323 -2.66323
-0.211224 -2.70906 -2.70906
-0.133706 -2.70928 -2.70928
-0.132582 -2.66344 -2.66344
-0.210427 -2.68611 -2.68611
-0.172456 -2.70914 -2.70914
-0.133144 -2.68633 -2.68633
-0.171096 -2.66331 -2.66331
-0.171777 -2.68619 -2.68619
-0.211224 -2.70906 -2.70906
-0.212812 -2.75517 -2.75517
-0.134826 -2.75541 -2.75541
-0.133706 -2.70928 -2.70928
-0.212019 -2.73208 -2.73208
-0.17381 -2.75526 -2.75526
-0.134266 -2.73231 -2.73231
-0.172456 -2.70914 -2.70914
-0.173133 -2.73217 -2.73217
-0.212812 -2.75517 -2.75517
-0.214392 -2.80155 -2.80155
-0.135944 -2.8018 -2.8018
-0.134826 -2.75541 -2.75541
-0.213603 -2.77833 -2.77833
-0.175159 -2.80165 -2.80165
-0.135385 -2.77857 -2.77857
-0.17381 -2.75526 -2.75526
-0.174485 -2.77842 -2.77842
-0.214392 -2.80155 -2.80155
-0.215964 -2.84821 -2.84821
-0.137059 -2.84848 -2.84848
-0.135944 -2.8018 -2.8018
-0.215179 -2.82485 -2.82485
-0.176503 -2.84831 -2.84831
-0.136502 -2.82511 -2.82511
-0.175159 -2.80165 -2.80165
-0.175832 -2.82495 -2.82495
-0.215964 -2.84821 -2.84821
-0.217529 -2.89514 -2.89514
-0.138171 -2.89541 -2.89541
-0.137059 -2.84848 -2.84848
-0.216748 -2.87164 -2.87164
-0.177841 -2.89525 -2.89525
-0.137616 -2.87191 -2.87191
-0.176503 -2.84831 -2.84831
-0.177173 -2.87175 -2.87175
-0.217529 -2.89514 -2.89514
-0.219086 -2.94233 -2.94233
-0.139281 -2.94262 -2.94262
-0.138171 -2.89541 -2.89541
-0.218308 -2.9187 -2.9187
-0.179175 -2.94245 -2.94245
-0.138727 -2.91898 -2.91898
-0.177841 -2.89525 -2.89525
-0.178509 -2.91881 -2.91881
-0.219086 -2.94233 -2.94233
-0.220635 -2.98978 -2.98978
-0.140388 -2.99009 -2.99009
-0.139281 -2.94262 -2.94262
-0.219861 -2.96602 -2.96602
-0.180503 -2.98991 -2.98991
-0.139835 -2.96632 -2.96632
-0.179175 -2.94245 -2.94245
-0.179839 -2.96615 -2.96615
-0.220635 -2.98978 -2.98978
-0.222176 -3.0375 -3.0375
-0.141492 -3.03782 -3.03782
-0.140388 -2.99009 -2.99009
-0.221406 -3.01361 -3.01361
-0.181825 -3.03763 -3.03763
-0.14094 -3.01392 -3.01392
-0.180503 -2.98991 -2.98991
-0.181164 -3.01374 -3.01374
-0.222176 -3.0375 -3.0375
-0.223709 -3.08547 -3.08547
-0.142593 -3.08581 -3.08581
-0.141492 -3.03782 -3.03782
-0.222943 -3.06146 -3.06146
-0.183142 -3.08561 -3.08561
-0.142043 -3.06178 -3.06178
-0.181825 -3.03763 -3.03763
-0.182484 -3.06159 -3.06159
-0.223709 -3.08547 -3.08547
-0.225234 -3.1337 -3.1337
-0.143692 -3.13405 -3.13405
-0.142593 -3.08581 -3.08581
-0.224472 -3.10956 -3.10956
-0.184454 -3.13385 -3.13385
-0.143143 -3.1099 -3.1099
-0.183142 -3.08561 -3.08561
-0.183799 -3.1097 -3.1097
-0.225234 -3.1337 -3.1337
-0.226751 -3.18218 -3.18218
-0.144787 -3.18254 -3.18254
-0.143692 -3.13405 -3.13405
-0.225994 -3.15791 -3.15791
-0.18576 -3.18234 -3.18234
-0.14424 -3.15826 -3.15826
-0.184454 -3.13385 -3.13385
-0.185108 -3.15806 -3.15806
-0.226751 -3.18218 -3.18218
-0.22826 -3.23091 -3.23091
-0.14588 -3.23128 -3.23128
-0.144787 -3.18254 -3.18254
-0.227507 -3.20651 -3.20651
-0.187061 -3.23107 -3.23107
-0.145334 -3.20688 -3.20688
-0.18576 -3.18234 -3.18234
-0.186412 -3.20667 -3.20667
-0.22826 -3.23091 -3.23091
-0.229761 -3.27988 -3.27988
-0.14697 -3.28027 -3.28027
-0.14588 -3.23128 -3.23128
-0.229012 -3.25537 -3.25537
-0.188357 -3.28005 -3.28005
-0.146425 -3.25575 -3.25575
-0.187061 -3.23107 -3.23107
-0.18771 -3.25553 -3.25553
-0.229761 -3.27988 -3.27988
-0.231254 -3.3291 -3.3291
-0.148056 -3.3295 -3.3295
-0.14697 -3.28027 -3.28027
-0.230509 -3.30446 -3.30446
-0.189646 -3.32927 -3.32927
-0.147514 -3.30485 -3.30485
-0.188357 -3.28005 -3.28005
-0.189002 -3.30463 -3.30463
-0.231254 -3.3291 -3.3291
-0.232739 -3.37855 -3.37855
-0.14914 -3.37896 -3.37896
-0.148056 -3.3295 -3.3295
-0.231997 -3.3538 -3.3538
-0.190931 -3.37873 -3.37873
-0.148599 -3.3542 -3.3542
-0.189646 -3.32927 -3.32927
-0.190289 -3.35397 -3.35397
-0.232739 -3.37855 -3.37855
-0.234215 -3.42824 -3.42824
-0.150221 -3.42867 -3.42867
-0.14914 -3.37896 -3.37896
-0.233478 -3.40337 -3.40337
-0.192209 -3.42843 -3.42843
-0.149681 -3.40379 -3.40379
-0.190931 -3.37873 -3.37873
-0.191571 -3.40355 -3.40355
-0.234215 -3.42824 -3.42824
-0.235684 -3.47817 -3.47817
-0.151298 -3.47861 -3.47861
-0.150221 -3.42867 -3.42867
-0.234951 -3.45318 -3.45318
-0.193482 -3.47836 -3.47836
-0.15076 -3.45361 -3.45361
-0.192209 -3.42843 -3.42843
-0.192846 -3.45337 -3.45337
-0.235684 -3.47817 -3.47817
-0.237144 -3.52832 -3.52832
-0.152373 -3.52877 -3.52877
-0.151298 -3.47861 -3.47861
-0.236415 -3.50322 -3.50322
-0.194749 -3.52852 -3.52852
-0.151836 -3.50366 -3.50366
-0.193482 -3.47836 -3.47836
-0.194116 -3.50341 -3.50341
-0.237144 -3.52832 -3.52832
-0.238596 -3.5787 -3.5787
-0.153444 -3.57917 -3.57917
-0.152373 -3.52877 -3.52877
-0.237871 -3.55348 -3.55348
-0.196011 -3.57891 -3.57891
-0.152909 -3.55394 -3.55394
-0.194749 -3.52852 -3.52852
-0.195381 -3.55369 -3.55369
-0.238596 -3.5787 -3.5787
-0.240039 -3.62931 -3.62931
-0.154512 -3.62978 -3.62978
-0.153444 -3.57917 -3.57917
-0.239318 -3.60398 -3.60398
-0.197267 -3.62952 -3.62952
-0.153978 -3.60445 -3.60445
-0.196011 -3.57891 -3.57891
-0.196639 -3.60419 -3.60419
-0.240039 -3.62931 -3.62931
-0.241474 -3.68013 -3.68013
-0.155576 -3.68062 -3.68062
-0.154512 -3.62978 -3.62978
-0.240758 -3.65469 -3.65469
-0.198516 -3.68036 -3.68036
-0.155045 -3.65518 -3.65518
-0.197267 -3.62952 -3.62952
-0.197892 -3.65491 -3.65491
-0.241474 -3.68013 -3.68013
-0.242901 -3.73118 -3.73118
-0.156638 -3.73168 -3.73168
-0.155576 -3.68062 -3.68062
-0.242189 -3.70563 -3.70563
-0.199761 -3.73141 -3.73141
-0.156108 -3.70612 -3.70612
-0.198516 -3.68036 -3.68036
-0.199139 -3.70585 -3.70585
-0.242901 -3.73118 -3.73118
-0.244319 -3.78244 -3.78244
-0.157696 -3.78295 -3.78295
-0.156638 -3.73168 -3.73168
-0.243611 -3.75678 -3.75678
-0.200999 -3.78267 -3.78267
-0.157167 -3.75729 -3.75729
-0.199761 -3.73141 -3.73141
-0.20038 -3.75701 -3.75701
-0.244319 -3.78244 -3.78244
-0.245729 -3.83391 -3.83391
-0.158751 -3.83444 -3.83444
-0.157696 -3.78295 -3.78295
-0.245025 -3.80815 -3.80815
-0.202231 -3.83415 -3.83415
-0.158224 -3.80867 -3.80867
-0.200999 -3.78267 -3.78267
-0.201616 -3.80839 -3.80839
-0.245729 -3.83391 -3.83391
-0.24713 -3.88559 -3.88559
-0.159802 -3.88613 -3.88613
-0.158751 -3.83444 -3.83444
-0.246431 -3.85972 -3.85972
-0.203457 -3.88584 -3.88584
-0.159277 -3.86026 -3.86026
-0.202231 -3.83415 -3.83415
-0.202845 -3.85997 -3.85997
-0.24713 -3.88559 -3.88559
-0.248523 -3.93748 -3.93748
-0.16085 -3.93803 -3.93803
-0.159802 -3.88613 -3.88613
-0.247828 -3.91151 -3.91151
-0.204677 -3.93773 -3.93773
-0.160326 -3.91205 -3.91205
-0.203457 -3.88584 -3.88584
-0.204068 -3.91176 -3.91176
-0.248523 -3.93748 -3.93748
-0.249907 -3.98957 -3.98957
-0.161894 -3.99013 -3.99013
-0.16085 -3.93803 -3.93803
-0.249216 -3.9635 -3.9635
-0.205891 -3.98983 -3.98983
-0.161372 -3.96405 -3.96405
-0.204677 -3.93773 -3.93773
-0.205285 -3.96375 -3.96375
-0.249907 -3.98957 -3.98957
-0.251282 -4.04186 -4.04186
-0.162934 -4.04243 -4.04243
-0.161894 -3.99013 -3.99013
-0.250595 -4.01569 -4.01569
-0.207099 -4.04212 -4.04212
-0.162415 -4.01626 -4.01626
-0.205891 -3.98983 -3.98983
-0.206496 -4.01595 -4.01595
-0.251282 -4.04186 -4.04186
-0.252649 -4.09434 -4.09434
-0.163972 -4.09493 -4.09493
-0.162934 -4.04243 -4.04243
-0.251966 -4.06808 -4.06808
-0.208301 -4.09462 -4.09462
-0.163453 -4.06866 -4.06866
-0.207099 -4.04212 -4.04212
-0.207701 -4.06835 -4.06835
-0.252649 -4.09434 -4.09434
-0.254006 -4.14702 -4.14702
-0.165005 -4.14762 -4.14762
-0.163972 -4.09493 -4.09493
-0.253329 -4.12066 -4.12066
-0.209497 -4.1473 -4.1473
-0.164489 -4.12125 -4.12125
-0.208301 -4.09462 -4.09462
-0.2089 -4.12094 -4.12094
-0.254006 -4.14702 -4.14702
-0.255355 -4.19989 -4.19989
-0.166035 -4.2005 -4.2005
-0.165005 -4.14762 -4.14762
-0.254682 -4.17344 -4.17344
-0.210686 -4.20018 -4.20018
-0.16552 -4.17404 -4.17404
-0.209497 -4.1473 -4.1473
-0.210092 -4.17372 -4.17372
-0.255355 -4.19989 -4.19989
-0.256696 -4.25295 -4.25295
-0.167061 -4.25358 -4.25358
-0.166035 -4.2005 -4.2005
-0.256027 -4.2264 -4.2264
-0.211869 -4.25325 -4.25325
-0.166548 -4.22702 -4.22702
-0.210686 -4.20018 -4.20018
-0.211279 -4.22669 -4.22669
-0.256696 -4.25295 -4.25295
-0.258027 -4.3062 -4.3062
-0.168083 -4.30683 -4.30683
-0.167061 -4.25358 -4.25358
-0.257362 -4.27955 -4.27955
-0.213046 -4.3065 -4.3065
-0.167572 -4.28018 -4.28018
-0.211869 -4.25325 -4.25325
-0.212458 -4.27985 -4.27985
-0.258027 -4.3062 -4.3062
-0.259349 -4.35962 -4.35962
-0.169101 -4.36027 -4.36027
-0.168083 -4.30683 -4.30683
-0.258689 -4.33289 -4.33289
-0.214216 -4.35993 -4.35993
-0.168592 -4.33353 -4.33353
-0.213046 -4.3065 -4.3065
-0.213632 -4.33319 -4.33319
-0.259349 -4.35962 -4.35962
-0.260662 -4.41323 -4.41323
-0.170115 -4.41388 -4.41388
-0.169101 -4.36027 -4.36027
-0.260007 -4.3864 -4.3864
-0.21538 -4.41354 -4.41354
-0.169609 -4.38705 -4.38705
-0.214216 -4.35993 -4.35993
-0.214799 -4.38671 -4.38671
-0.260662 -4.41323 -4.41323
-0.261966 -4.46701 -4.46701
-0.171126 -4.46768 -4.46768
-0.170115 -4.41388 -4.41388
-0.261315 -4.4401 -4.4401
-0.216537 -4.46732 -4.46732
-0.170621 -4.44076 -4.44076
-0.21538 -4.41354 -4.41354
-0.215959 -4.44041 -4.44041
-0.261966 -4.46701 -4.46701
-0.263261 -4.52096 -4.52096
-0.172132 -4.52164 -4.52164
-0.171126 -4.46768 -4.46768
-0.262615 -4.49396 -4.49396
-0.217688 -4.52128 -4.52128
-0.17163 -4.49464 -4.49464
-0.216537 -4.46732 -4.46732
-0.217113 -4.49428 -4.49428
-0.263261 -4.52096 -4.52096
-0.264547 -4.57508 -4.57508
-0.173135 -4.57577 -4.57577
-0.172132 -4.52164 -4.52164
-0.263905 -4.548 -4.548
-0.218832 -4.57541 -4.57541
-0.172634 -4.54869 -4.54869
-0.217688 -4.52128 -4.52128
-0.218261 -4.54833 -4.54833
-0.264547 -4.57508 -4.57508
-0.265824 -4.62937 -4.62937
-0.174133 -4.63007 -4.63007
-0.173135 -4.57577 -4.57577
-0.265187 -4.60221 -4.60221
-0.21997 -4.62971 -4.62971
-0.173634 -4.6029 -4.6029
-0.218832 -4.57541 -4.57541
-0.219402 -4.60254 -4.60254
-0.265824 -4.62937 -4.62937
-0.267091 -4.68382 -4.68382
-0.175127 -4.68454 -4.68454
-0.174133 -4.63007 -4.63007
-0.266459 -4.65658 -4.65658
-0.2211 -4.68416 -4.68416
-0.17463 -4.65729 -4.65729
-0.21997 -4.62971 -4.62971
-0.220536 -4.65691 -4.65691
-0.267091 -4.68382 -4.68382
-0.268349 -4.73844 -4.73844
-0.176117 -4.73916 -4.73916
-0.175127 -4.68454 -4.68454
-0.267721 -4.71111 -4.71111
-0.222224 -4.73878 -4.73878
-0.175622 -4.71183 -4.71183
-0.2211 -4.68416 -4.68416
-0.221663 -4.71145 -4.71145
-0.268349 -4.73844 -4.73844
-0.269598 -4.79321 -4.79321
-0.177102 -4.79394 -4.79394
-0.176117 -4.73916 -4.73916
-0.268975 -4.7658 -4.7658
-0.223341 -4.79356 -4.79356
-0.17661 -4.76653 -4.76653
-0.222224 -4.73878 -4.73878
-0.222784 -4.76615 -4.76615
-0.269598 -4.79321 -4.79321
-0.270837 -4.84813 -4.84813
-0.178083 -4.84888 -4.84888
-0.177102 -4.79394 -4.79394
-0.270219 -4.82065 -4.82065
-0.224451 -4.84849 -4.84849
-0.177593 -4.82139 -4.82139
-0.223341 -4.79356 -4.79356
-0.223897 -4.82101 -4.82101
-0.270837 -4.84813 -4.84813
-0.272067 -4.90321 -4.90321
-0.17906 -4.90397 -4.90397
-0.178083 -4.84888 -4.84888
-0.271453 -4.87565 -4.87565
-0.225555 -4.90357 -4.90357
-0.178572 -4.87641 -4.87641
-0.224451 -4.84849 -4.84849
-0.225004 -4.87601 -4.87601
-0.272067 -4.90321 -4.90321
-0.273287 -4.95844 -4.95844
-0.180033 -4.9592 -4.9592
-0.17906 -4.90397 -4.90397
-0.272678 -4.93081 -4.93081
-0.226651 -4.95881 -4.95881
-0.179547 -4.93157 -4.93157
-0.225555 -4.90357 -4.90357
-0.226104 -4.93117 -4.93117
-0.273287 -4.95844 -4.95844
-0.274497 -5.01381 -5.01381
-0.181 -5.01459 -5.01459
-0.180033 -4.9592 -4.9592
-0.273893 -4.98611 -4.98611
-0.22774 -5.01418 -5.01418
-0.180517 -4.98688 -4.98688
-0.226651 -4.95881 -4.95881
-0.227196 -4.98648 -4.98648
-0.274497 -5.01381 -5.01381
-0.275698 -5.06932 -5.06932
-0.181964 -5.07011 -5.07011
-0.181 -5.01459 -5.01459
-0.275099 -5.04155 -5.04155
-0.228822 -5.0697 -5.0697
-0.181483 -5.04233 -5.04233
-0.22774 -5.01418 -5.01418
-0.228282 -5.04192 -5.04192
-0.275698 -5.06932 -5.06932
-0.276889 -5.12498 -5.12498
-0.182922 -5.12577 -5.12577
-0.181964 -5.07011 -5.07011
-0.276295 -5.09713 -5.09713
-0.229897 -5.12536 -5.12536
-0.182444 -5.09792 -5.09792
-0.228822 -5.0697 -5.0697
-0.229361 -5.09751 -5.09751
-0.276889 -5.12498 -5.12498
-0.27807 -5.18076 -5.18076
-0.183876 -5.18157 -5.18157
-0.182922 -5.12577 -5.12577
-0.277481 -5.15285 -5.15285
-0.230965 -5.18115 -5.18115
-0.1834 -5.15366 -5.15366
-0.229897 -5.12536 -5.12536
-0.230432 -5.15324 -5.15324
-0.27807 -5.18076 -5.18076
-0.279242 -5.23669 -5.23669
-0.184826 -5.23751 -5.23751
-0.183876 -5.18157 -5.18157
-0.278657 -5.20871 -5.20871
-0.232025 -5.23708 -5.23708
-0.184352 -5.20952 -5.20952
-0.230965 -5.18115 -5.18115
-0.231496 -5.2091 -5.2091
-0.279242 -5.23669 -5.23669
-0.280403 -5.29274 -5.29274
-0.18577 -5.29357 -5.29357
-0.184826 -5.23751 -5.23751
-0.279824 -5.2647 -5.2647
-0.233078 -5.29314 -5.29314
-0.185299 -5.26552 -5.26552
-0.232025 -5.23708 -5.23708
-0.232553 -5.2651 -5.2651
-0.280403 -5.29274 -5.29274
-0.281555 -5.34892 -5.34892
-0.18671 -5.34976 -5.34976
-0.18577 -5.29357 -5.29357
-0.28098 -5.32082 -5.32082
-0.234124 -5.34933 -5.34933
-0.186241 -5.32165 -5.32165
-0.233078 -5.29314 -5.29314
-0.233602 -5.32122 -5.32122
-0.281555 -5.34892 -5.34892
-0.282696 -5.40523 -5.40523
-0.187644 -5.40607 -5.40607
-0.18671 -5.34976 -5.34976
-0.282127 -5.37706 -5.37706
-0.235162 -5.40564 -5.40564
-0.187178 -5.3779 -5.3779
-0.234124 -5.34933 -5.34933
-0.234644 -5.37747 -5.37747
-0.282696 -5.40523 -5.40523
-0.283828 -5.46165 -5.46165
-0.188574 -5.46251 -5.46251
-0.187644 -5.40607 -5.40607
-0.283263 -5.43342 -5.43342
-0.236192 -5.46207 -5.46207
-0.18811 -5.43428 -5.43428
-0.235162 -5.40564 -5.40564
-0.235678 -5.43384 -5.43384
-0.283828 -5.46165 -5.46165
-0.284949 -5.5182 -5.5182
-0.189499 -5.51906 -5.51906
-0.188574 -5.46251 -5.46251
-0.28439 -5.48991 -5.48991
-0.237215 -5.51862 -5.51862
-0.189037 -5.49077 -5.49077
-0.236192 -5.46207 -5.46207
-0.236705 -5.49033 -5.49033
-0.284949 -5.5182 -5.5182
-0.28606 -5.57486 -5.57486
-0.190418 -5.57573 -5.57573
-0.189499 -5.51906 -5.51906
-0.285506 -5.54651 -5.54651
-0.238231 -5.57528 -5.57528
-0.189959 -5.54738 -5.54738
-0.237215 -5.51862 -5.51862
-0.237724 -5.54694 -5.54694
-0.28606 -5.57486 -5.57486
-0.287161 -5.63163 -5.63163
-0.191333 -5.63251 -5.63251
-0.190418 -5.57573 -5.57573
-0.286612 -5.60323 -5.60323
-0.239238 -5.63206 -5.63206
-0.190876 -5.60411 -5.60411
-0.238231 -5.57528 -5.57528
-0.238735 -5.60366 -5.60366
-0.287161 -5.63163 -5.63163
-0.288251 -5.68851 -5.68851
-0.192242 -5.68941 -5.68941
-0.191333 -5.63251 -5.63251
-0.287708 -5.66006 -5.66006
-0.240238 -5.68895 -5.68895
-0.191788 -5.66095 -5.66095
-0.239238 -5.63206 -5.63206
-0.239739 -5.66049 -5.66049
-0.288251 -5.68851 -5.68851
-0.289332 -5.7455 -5.7455
-0.193146 -5.7464 -5.7464
-0.192242 -5.68941 -5.68941
-0.288793 -5.71699 -5.71699
-0.24123 -5.74594 -5.74594
-0.192695 -5.71789 -5.71789
-0.240238 -5.68895 -5.68895
-0.240735 -5.71743 -5.71743
-0.289332 -5.7455 -5.7455
-0.290401 -5.80259 -5.80259
-0.194044 -5.8035 -5.8035
-0.193146 -5.7464 -5.7464
-0.289868 -5.77403 -5.77403
-0.242214 -5.80303 -5.80303
-0.193596 -5.77494 -5.77494
-0.24123 -5.74594 -5.74594
-0.241723 -5.77447 -5.77447
-0.290401 -5.80259 -5.80259
-0.29146 -5.85978 -5.85978
-0.194937 -5.8607 -5.8607
-0.194044 -5.8035 -5.8035
-0.290932 -5.83117 -5.83117
-0.24319 -5.86023 -5.86023
-0.194492 -5.83209 -5.83209
-0.242214 -5.80303 -5.80303
-0.242703 -5.83162 -5.83162
-0.29146 -5.85978 -5.85978
-0.292509 -5.91707 -5.91707
-0.195825 -5.918 -5.918
-0.194937 -5.8607 -5.8607
-0.291986 -5.88841 -5.88841
-0.244158 -5.91752 -5.91752
-0.195382 -5.88934 -5.88934
-0.24319 -5.86023 -5.86023
-0.243675 -5.88886 -5.88886
-0.292509 -5.91707 -5.91707
-0.293546 -5.97445 -5.97445
-0.196707 -5.97539 -5.97539
-0.195825 -5.918 -5.918
-0.293029 -5.94575 -5.94575
-0.245118 -5.97491 -5.97491
-0.196267 -5.94668 -5.94668
-0.244158 -5.91752 -5.91752
-0.244639 -5.9462 -5.9462
-0.293546 -5.97445 -5.97445
-0.294573 -6.03192 -6.03192
-0.197583 -6.03287 -6.03287
-0.196707 -5.97539 -5.97539
-0.294061 -6.00317 -6.00317
-0.24607 -6.03239 -6.03239
-0.197146 -6.00412 -6.00412
-0.245118 -5.97491 -5.97491
-0.245595 -6.00364 -6.00364
-0.294573 -6.03192 -6.03192
-0.29559 -6.08948 -6.08948
-0.198454 -6.09044 -6.09044
-0.197583 -6.03287 -6.03287
-0.295083 -6.06069 -6.06069
-0.247013 -6.08995 -6.08995
-0.19802 -6.06164 -6.06164
-0.24607 -6.03239 -6.03239
-0.246543 -6.06116 -6.06116
-0.29559 -6.08948 -6.08948
-0.296595 -6.14713 -6.14713
-0.199319 -6.14809 -6.14809
-0.198454 -6.09044 -6.09044
-0.296094 -6.1183 -6.1183
-0.247949 -6.1476 -6.1476
-0.198887 -6.11926 -6.11926
-0.247013 -6.08995 -6.08995
-0.247482 -6.11877 -6.11877
-0.296595 -6.14713 -6.14713
-0.29759 -6.20486 -6.20486
-0.200178 -6.20583 -6.20583
-0.199319 -6.14809 -6.14809
-0.297094 -6.17598 -6.17598
-0.248875 -6.20534 -6.20534
-0.19975 -6.17695 -6.17695
-0.247949 -6.1476 -6.1476
-0.248413 -6.17646 -6.17646
-0.29759 -6.20486 -6.20486
-0.298573 -6.26266 -6.26266
-0.201032 -6.26364 -6.26364
-0.200178 -6.20583 -6.20583
-0.298083 -6.23375 -6.23375
-0.249794 -6.26315 -6.26315
-0.200606 -6.23473 -6.23473
-0.248875 -6.20534 -6.20534
-0.249336 -6.23423 -6.23423
-0.298573 -6.26266 -6.26266
-0.299546 -6.32055 -6.32055
-0.201879 -6.32154 -6.32154
-0.201032 -6.26364 -6.26364
-0.299061 -6.2916 -6.2916
-0.250704 -6.32103 -6.32103
-0.201456 -6.29258 -6.29258
-0.249794 -6.26315 -6.26315
-0.25025 -6.29208 -6.29208
-0.299546 -6.32055 -6.32055
-0.300507 -6.3785 -6.3785
-0.202721 -6.3795 -6.3795
-0.201879 -6.32154 -6.32154
-0.300028 -6.34952 -6.34952
-0.251605 -6.37899 -6.37899
-0.202301 -6.35051 -6.35051
-0.250704 -6.32103 -6.32103
-0.251156 -6.35 -6.35
-0.300507 -6.3785 -6.3785
-0.301457 -6.43653 -6.43653
-0.203556 -6.43753 -6.43753
-0.202721 -6.3795 -6.3795
-0.300983 -6.40751 -6.40751
-0.252498 -6.43702 -6.43702
-0.203139 -6.40851 -6.40851
-0.251605 -6.37899 -6.37899
-0.252053 -6.408 -6.408
-0.301457 -6.43653 -6.43653
-0.302396 -6.49462 -6.49462
-0.204385 -6.49563 -6.49563
-0.203556 -6.43753 -6.43753
-0.301928 -6.46557 -6.46557
-0.253382 -6.49512 -6.49512
-0.203971 -6.46657 -6.46657
-0.252498 -6.43702 -6.43702
-0.252941 -6.46606 -6.46606
-0.302396 -6.49462 -6.49462
-0.303324 -6.55278 -6.55278
-0.205208 -6.5538 -6.5538
-0.204385 -6.49563 -6.49563
-0.302861 -6.52369 -6.52369
-0.254257 -6.55328 -6.55328
-0.204797 -6.52471 -6.52471
-0.253382 -6.49512 -6.49512
-0.253821 -6.52419 -6.52419
-0.303324 -6.55278 -6.55278
-0.30424 -6.61099 -6.61099
-0.206025 -6.61202 -6.61202
-0.205208 -6.5538 -6.5538
-0.303783 -6.58188 -6.58188
-0.255124 -6.6115 -6.6115
-0.205617 -6.5829 -6.5829
-0.254257 -6.55328 -6.55328
-0.254692 -6.58238 -6.58238
-0.30424 -6.61099 -6.61099
-0.305144 -6.66927 -6.66927
-0.206835 -6.6703 -6.6703
-0.206025 -6.61202 -6.61202
-0.304694 -6.64012 -6.64012
-0.255981 -6.66978 -6.66978
-0.206431 -6.64116 -6.64116
-0.255124 -6.6115 -6.6115
-0.255554 -6.64063 -6.64063
-0.305144 -6.66927 -6.66927
-0.306038 -6.7276 -6.7276
-0.207639 -6.72864 -6.72864
-0.206835 -6.6703 -6.6703
-0.305593 -6.69843 -6.69843
-0.25683 -6.72811 -6.72811
-0.207238 -6.69947 -6.69947
-0.255981 -6.66978 -6.66978
-0.256407 -6.69894 -6.69894
-0.306038 -6.7276 -6.7276
-0.306919 -6.78598 -6.78598
-0.208436 -6.78703 -6.78703
-0.207639 -6.72864 -6.72864
-0.30648 -6.75678 -6.75678
-0.257669 -6.7865 -6.7865
-0.208038 -6.75783 -6.75783
-0.25683 -6.72811 -6.72811
-0.257251 -6.7573 -6.7573
-0.306919 -6.78598 -6.78598
-0.307789 -6.84441 -6.84441
-0.209227 -6.84547 -6.84547
-0.208436 -6.78703 -6.78703
-0.307356 -6.81519 -6.81519
-0.2585 -6.84493 -6.84493
-0.208833 -6.81624 -6.81624
-0.257669 -6.7865 -6.7865
-0.258086 -6.81571 -6.81571
-0.307789 -6.84441 -6.84441
-0.308647 -6.90289 -6.90289
-0.210011 -6.90395 -6.90395
-0.209227 -6.84547 -6.84547
-0.30822 -6.87364 -6.87364
-0.259321 -6.90341 -6.90341
-0.20962 -6.8747 -6.8747
-0.2585 -6.84493 -6.84493
-0.258911 -6.87417 -6.87417
-0.308647 -6.90289 -6.90289
-0.309494 -6.9614 -6.9614
-0.210789 -6.96247 -6.96247
-0.210011 -6.90395 -6.90395
-0.309072 -6.93214 -6.93214
-0.260133 -6.96194 -6.96194
-0.210401 -6.93321 -6.93321
-0.259321 -6.90341 -6.90341
-0.259728 -6.93267 -6.93267
-0.309494 -6.9614 -6.9614
-0.310328 -7.01996 -7.01996
-0.21156 -7.02104 -7.02104
-0.210789 -6.96247 -6.96247
-0.309913 -6.99068 -6.99068
-0.260936 -7.0205 -7.0205
-0.211175 -6.99175 -6.99175
-0.260133 -6.96194 -6.96194
-0.260535 -6.99121 -6.99121
-0.310328 -7.01996 -7.01996
-0.311151 -7.07856 -7.07856
-0.212324 -7.07964 -7.07964
-0.21156 -7.02104 -7.02104
-0.310741 -7.04926 -7.04926
-0.261729 -7.0791 -7.0791
-0.211942 -7.05034 -7.05034
-0.260936 -7.0205 -7.0205
-0.261333 -7.04979 -7.04979
-0.311151 -7.07856 -7.07856
-0.311962 -7.13719 -7.13719
-0.21308 -7.13828 -7.13828
-0.212324 -7.07964 -7.07964
-0.311558 -7.10787 -7.10787
-0.262513 -7.13773 -7.13773
-0.212703 -7.10895 -7.10895
-0.261729 -7.0791 -7.0791
-0.262122 -7.10841 -7.10841
-0.311962 -7.13719 -7.13719
-0.31276 -7.19584 -7.19584
-0.21383 -7.19694 -7.19694
-0.21308 -7.13828 -7.13828
-0.312362 -7.16651 -7.16651
-0.263287 -7.19639 -7.19639
-0.213456 -7.1676 -7.1676
-0.262513 -7.13773 -7.13773
-0.262901 -7.16705 -7.16705
-0.31276 -7.19584 -7.19584
-0.313546 -7.25453 -7.25453
-0.214573 -7.25563 -7.25563
-0.21383 -7.19694 -7.19694
-0.313155 -7.22518 -7.22518
-0.264051 -7.25508 -7.25508
-0.214202 -7.22628 -7.22628
-0.263287 -7.19639 -7.19639
-0.26367 -7.22573 -7.22573
-0.313546 -7.25453 -7.25453
-0.31432 -7.31324 -7.31324
-0.215307 -7.31435 -7.31435
-0.214573 -7.25563 -7.25563
-0.313935 -7.28388 -7.28388
-0.264805 -7.31379 -7.31379
-0.214941 -7.28499 -7.28499
-0.264051 -7.25508 -7.25508
-0.264429 -7.28443 -7.28443
-0.31432 -7.31324 -7.31324
-0.315082 -7.37197 -7.37197
-0.216033 -7.37309 -7.37309
-0.215307 -7.31435 -7.31435
-0.314703 -7.3426 -7.3426
-0.265549 -7.37253 -7.37253
-0.215671 -7.34372 -7.34372
-0.264805 -7.31379 -7.31379
-0.265178 -7.34316 -7.34316
-0.315082 -7.37197 -7.37197
-0.315831 -7.43072 -7.43072
-0.21675 -7.43185 -7.43185
-0.216033 -7.37309 -7.37309
-0.315458 -7.40134 -7.40134
-0.266281 -7.43128 -7.43128
-0.216393 -7.40247 -7.40247
-0.265549 -7.37253 -7.37253
-0.265916 -7.4019 -7.4019
-0.315831 -7.43072 -7.43072
-0.316566 -7.48949 -7.48949
-0.217458 -7.49062 -7.49062
-0.21675 -7.43185 -7.43185
-0.3162 -7.4601 -7.4601
-0.267 -7.49005 -7.49005
-0.217105 -7.46123 -7.46123
-0.266281 -7.43128 -7.43128
-0.266642 -7.46067 -7.46067
-0.316566 -7.48949 -7.48949
-0.317286 -7.54827 -7.54827
-0.218155 -7.54941 -7.54941
-0.217458 -7.49062 -7.49062
-0.316928 -7.51888 -7.51888
-0.267707 -7.54884 -7.54884
-0.217807 -7.52002 -7.52002
-0.267 -7.49005 -7.49005
-0.267355 -7.51945 -7.51945
-0.317286 -7.54827 -7.54827
-0.31799 -7.60708 -7.60708
-0.218844 -7.60821 -7.60821
-0.218155 -7.54941 -7.54941
-0.31764 -7.57767 -7.57767
-0.2684 -7.60765 -7.60765
-0.2185 -7.57881 -7.57881
-0.267707 -7.54884 -7.54884
-0.268055 -7.57824 -7.57824
-0.31799 -7.60708 -7.60708
-0.318679 -7.66593 -7.66593
-0.219532 -7.66701 -7.66701
-0.218844 -7.60821 -7.60821
-0.318335 -7.6365 -7.6365
-0.269086 -7.66647 -7.66647
-0.219188 -7.63761 -7.63761
-0.2684 -7.60765 -7.60765
-0.268743 -7.63706 -7.63706
-0.318679 -7.66593 -7.66593
-0.319378 -7.72479 -7.72479
-0.220225 -7.72578 -7.72578
-0.219532 -7.66701 -7.66701
-0.319024 -7.69536 -7.69536
-0.269788 -7.72527 -7.72527
-0.219878 -7.6964 -7.6964
-0.269086 -7.66647 -7.66647
-0.269435 -7.69588 -7.69588
0 0 0
-0.00133428 -0.000136194 -0.000136194
-0.000440493 7.14464e-05 7.14464e-05
0 0 0
-0.000646887 4.0982e-05 4.0982e-05
-0.000884079 -6.34345e-06 -6.34345e-06
-0.000219294 0.000143425 0.000143425
0 0 0
-0.000429182 0.000108635 0.000108635
-0.00133428 -0.000136194 -0.000136194
-0.00277047 -0.00103395 -0.00103395
-0.00091718 -0.000673358 -0.000673358
-0.000440493 7.14464e-05 7.14464e-05
-0.00204341 -0.000498886 -0.000498886
-0.00183536 -0.000803691 -0.000803691
-0.000674408 -0.000205392 -0.000205392
-0.000884079 -6.34345e-06 -6.34345e-06
-0.00135375 -0.00031394 -0.00031394
-0.00277047 -0.00103395 -0.00103395
-0.00426656 -0.00258753 -0.00258753
-0.00141104 -0.00213417 -0.00213417
-0.00091718 -0.000673358 -0.000673358
-0.00351394 -0.00173304 -0.00173304
-0.00282678 -0.00230083 -0.00230083
-0.00116276 -0.00131912 -0.00131912
-0.00183536 -0.000803691 -0.000803691
-0.00232755 -0.00146933 -0.00146933
-0.00426656 -0.00258753 -0.00258753
-0.00577511 -0.00473883 -0.00473883
-0.00191585 -0.00424574 -0.00424574
-0.00141104 -0.00213417 -0.00213417
-0.00502095 -0.00359009 -0.00359009
-0.00383328 -0.00442882 -0.00442882
-0.0016627 -0.00311155 -0.00311155
-0.00282678 -0.00230083 -0.00230083
-0.00332939 -0.00328865 -0.00328865
-0.00577511 -0.00473883 -0.00473883
-0.00727883 -0.00747208 -0.00747208
-0.0024203 -0.00696773 -0.00696773
-0.00191585 -0.00424574 -0.00424574
-0.00652822 -0.00603315 -0.00603315
-0.00483916 -0.00715637 -0.00715637
-0.00216841 -0.00553204 -0.00553204
-0.00383328 -0.00442882 -0.00442882
-0.00433689 -0.00571884 -0.00571884
-0.00727883 -0.00747208 -0.00747208
-0.00876905 -0.0107812 -0.0107812
-0.0029223 -0.0102796 -0.0102796
-0.0024203 -0.00696773 -0.00696773
-0.00802571 -0.00905478 -0.00905478
-0.00583726 -0.0104673 -0.0104673
-0.00267173 -0.00855073 -0.00855073
-0.00483916 -0.00715637 -0.00715637
-0.00533935 -0.00873945 -0.00873945
-0.00876905 -0.0107812 -0.0107812
-0.0102465 -0.0146652 -0.0146652
-0.00341976 -0.0141704 -0.0141704
-0.0029223 -0.0102796 -0.0102796
-0.0095093 -0.0126514 -0.0126514
-0.00682633 -0.0143555 -0.0143555
-0.00317159 -0.012153 -0.012153
-0.00583726 -0.0104673 -0.0104673
-0.00633289 -0.0123395 -0.0123395
-0.0102465 -0.0146652 -0.0146652
-0.0117123 -0.0191219 -0.0191219
-0.00391353 -0.018635 -0.018635
-0.00341976 -0.0141704 -0.0141704
-0.0109808 -0.0168221 -0.0168221
-0.00780716 -0.0188167 -0.0188167
-0.00366706 -0.0163312 -0.0163312
-0.00682633 -0.0143555 -0.0143555
-0.00731769 -0.0165146 -0.0165146
-0.0117123 -0.0191219 -0.0191219
-0.0131684 -0.0241496 -0.0241496
-0.00440407 -0.0236698 -0.0236698
-0.00391353 -0.018635 -0.018635
-0.0124414 -0.0215645 -0.0215645
-0.00878112 -0.0238485 -0.0238485
-0.00415916 -0.0210813 -0.0210813
-0.00780716 -0.0188167 -0.0188167
-0.00829492 -0.0212615 -0.0212615
-0.0131684 -0.0241496 -0.0241496
-0.0146159 -0.0297455 -0.0297455
-0.00489224 -0.0292722 -0.0292722
-0.00440407 -0.0236698 -0.0236698
-0.0138931 -0.0268766 -0.0268766
-0.00974936 -0.0294481 -0.0294481
-0.00464842 -0.0264002 -0.0264002
-0.00878112 -0.0238485 -0.0238485
-0.0092659 -0.0265775 -0.0265775
-0.0146159 -0.0297455 -0.0297455
-0.0160561 -0.0359069 -0.0359069
-0.00537849 -0.0354397 -0.0354397
-0.00489224 -0.0292722 -0.0292722
-0.0153369 -0.0327557 -0.0327557
-0.0107128 -0.035613 -0.035613
-0.00513557 -0.0322855 -0.0322855
-0.00974936 -0.0294481 -0.0294481
-0.0102316 -0.0324601 -0.0324601
-0.0160561 -0.0359069 -0.0359069
-0.0174894 -0.042631 -0.042631
-0.00586327 -0.0421695 -0.0421695
-0.00537849 -0.0354397 -0.0354397
-0.0167736 -0.0391988 -0.0391988
-0.0116719 -0.0423403 -0.0423403
-0.00562104 -0.0387344 -0.0387344
-0.0107128 -0.035613 -0.035613
-0.0111928 -0.0389065 -0.0389065
-0.0174894 -0.042631 -0.042631
-0.0189162 -0.0499148 -0.0499148
-0.00634684 -0.0494588 -0.0494588
-0.00586327 -0.0421695 -0.0421695
-0.0182036 -0.0462031 -0.0462031
-0.0126271 -0.0496272 -0.0496272
-0.00610519 -0.0457444 -0.0457444
-0.0116719 -0.0423403 -0.0423403
-0.01215 -0.045914 -0.045914
-0.0189162 -0.0499148 -0.0499148
-0.0203369 -0.0577553 -0.0577553
-0.0068294 -0.057305 -0.057305
-0.00634684 -0.0494588 -0.0494588
-0.0196273 -0.0537657 -0.0537657
-0.0135788 -0.0574709 -0.0574709
-0.00658823 -0.0533125 -0.0533125
-0.0126271 -0.0496272 -0.0496272
-0.0131034 -0.0534796 -0.0534796
-0.0203369 -0.0577553 -0.0577553
-0.0217516 -0.0661495 -0.0661495
-0.00731113 -0.0657048 -0.0657048
-0.0068294 -0.057305 -0.057305
-0.021045 -0.0618834 -0.0618834
-0.014527 -0.0658682 -0.0658682
-0.00707036 -0.0614359 -0.0614359
-0.0135788 -0.0574709 -0.0574709
-0.0140533 -0.0616005 -0.0616005
-0.0217516 -0.0661495 -0.0661495
-0.0231605 -0.0750944 -0.0750944
-0.00779214 -0.0746555 -0.0746555
-0.00731113 -0.0657048 -0.0657048
-0.0224568 -0.0705533 -0.0705533
-0.0154719 -0.0748163 -0.0748163
-0.00755171 -0.0701115 -0.0701115
-0.014527 -0.0658682 -0.0658682
-0.0149998 -0.0702736 -0.0702736
-0.0231605 -0.0750944 -0.0750944
-0.0245636 -0.0845869 -0.0845869
-0.00827256 -0.084154 -0.084154
-0.00779214 -0.0746555 -0.0746555
-0.0238628 -0.0797724 -0.0797724
-0.0164137 -0.0843122 -0.0843122
-0.00803242 -0.0793365 -0.0793365
-0.0154719 -0.0748163 -0.0748163
-0.0159432 -0.079496 -0.079496
-0.0245636 -0.0845869 -0.0845869
-0.0259612 -0.0946241 -0.0946241
-0.0087525 -0.0941973 -0.0941973
-0.00827256 -0.084154 -0.084154
-0.0252631 -0.0895376 -0.0895376
-0.0173524 -0.0943527 -0.0943527
-0.00851258 -0.0891078 -0.0891078
-0.0164137 -0.0843122 -0.0843122
-0.0168834 -0.0892646 -0.0892646
-0.0259612 -0.0946241 -0.0946241
-0.0273533 -0.105203 -0.105203
-0.00923207 -0.104782 -0.104782
-0.0087525 -0.0941973 -0.0941973
-0.0266579 -0.0998459 -0.0998459
-0.0182882 -0.104935 -0.104935
-0.00899232 -0.0994223 -0.0994223
-0.0173524 -0.0943527 -0.0943527
-0.0178207 -0.0995763 -0.0995763
-0.0273533 -0.105203 -0.105203
-0.02874 -0.11632 -0.11632
-0.00971136 -0.115906 -0.115906
-0.00923207 -0.104782 -0.104782
-0.0280473 -0.110694 -0.110694
-0.0192212 -0.116056 -0.116056
-0.00947174 -0.110277 -0.110277
-0.0182882 -0.104935 -0.104935
-0.0187551 -0.110428 -0.110428
-0.02874 -0.11632 -0.11632
-0.0301214 -0.127973 -0.127973
-0.0101905 -0.127566 -0.127566
-0.00971136 -0.115906 -0.115906
-0.0294313 -0.12208 -0.12208
-0.0201514 -0.127712 -0.127712
-0.00995093 -0.121669 -0.121669
-0.0192212 -0.116056 -0.116056
-0.0196867 -0.121817 -0.121817
-0.0301214 -0.127973 -0.127973
-0.0314976 -0.140158 -0.140158
-0.0106695 -0.139758 -0.139758
-0.0101905 -0.127566 -0.127566
-0.0308101 -0.133999 -0.133999
-0.0210791 -0.139902 -0.139902
-0.01043 -0.133595 -0.133595
-0.0201514 -0.127712 -0.127712
-0.0206156 -0.133741 -0.133741
-0.0314976 -0.140158 -0.140158
-0.0328687 -0.152873 -0.152873
-0.0111486 -0.15248 -0.15248
-0.0106695 -0.139758 -0.139758
-0.0321838 -0.14645 -0.14645
-0.0220041 -0.15262 -0.15262
-0.010909 -0.146053 -0.146053
-0.0210791 -0.139902 -0.139902
-0.0215419 -0.146195 -0.146195
-0.0328687 -0.152873 -0.152873
-0.0342348 -0.166115 -0.166115
-0.0116278 -0.165728 -0.165728
-0.0111486 -0.15248 -0.15248
-0.0335524 -0.159428 -0.159428
-0.0229268 -0.165866 -0.165866
-0.0113881 -0.159039 -0.159039
-0.0220041 -0.15262 -0.15262
-0.0224658 -0.159177 -0.159177
-0.0342348 -0.166115 -0.166115
-0.035596 -0.17988 -0.17988
-0.0121071 -0.179501 -0.179501
-0.0116278 -0.165728 -0.165728
-0.034916 -0.172932 -0.172932
-0.0238471 -0.179634 -0.179634
-0.0118674 -0.172549 -0.172549
-0.0229268 -0.165866 -0.165866
-0.0233872 -0.172685 -0.172685
-0.035596 -0.17988 -0.17988
-0.0369524 -0.194165 -0.194165
-0.0125868 -0.193793 -0.193793
-0.0121071 -0.179501 -0.179501
-0.0362748 -0.186957 -0.186957
-0.0247651 -0.193924 -0.193924
-0.0123469 -0.186582 -0.186582
-0.0238471 -0.179634 -0.179634
-0.0243064 -0.186714 -0.186714
-0.0369524 -0.194165 -0.194165
-0.0383041 -0.208968 -0.208968
-0.0130669 -0.208604 -0.208604
-0.0125868 -0.193793 -0.193793
-0.0376288 -0.201502 -0.201502
-0.025681 -0.208731 -0.208731
-0.0128268 -0.201134 -0.201134
-0.0247651 -0.193924 -0.193924
-0.0252233 -0.201263 -0.201263
-0.0383041 -0.208968 -0.208968
-0.0396511 -0.224285 -0.224285
-0.0135475 -0.223929 -0.223929
-0.0130669 -0.208604 -0.208604
-0.0389781 -0.216562 -0.216562
-0.0265947 -0.224052 -0.224052
-0.0133071 -0.216202 -0.216202
-0.025681 -0.208731 -0.208731
-0.0261381 -0.216327 -0.216327
-0.0396511 -0.224285 -0.224285
-0.0409936 -0.240113 -0.240113
-0.0140286 -0.239765 -0.239765
-0.0135475 -0.223929 -0.223929
-0.0403229 -0.232135 -0.232135
-0.0275065 -0.239885 -0.239885
-0.0137879 -0.231783 -0.231783
-0.0265947 -0.224052 -0.224052
-0.0270509 -0.231905 -0.231905
-0.0409936 -0.240113 -0.240113
-0.0423316 -0.25645 -0.25645
-0.0145103 -0.25611 -0.25611
-0.0140286 -0.239765 -0.239765
-0.0416631 -0.248218 -0.248218
-0.0284164 -0.256226 -0.256226
-0.0142694 -0.247874 -0.247874
-0.0275065 -0.239885 -0.239885
-0.0279617 -0.247992 -0.247992
-0.0423316 -0.25645 -0.25645
-0.0436652 -0.273292 -0.273292
-0.0149928 -0.27296 -0.27296
-0.0145103 -0.25611 -0.25611
-0.0429989 -0.264808 -0.264808
-0.0293244 -0.273072 -0.273072
-0.0147515 -0.264472 -0.264472
-0.0284164 -0.256226 -0.256226
-0.0288706 -0.264586 -0.264586
-0.0436652 -0.273292 -0.273292
-0.0449945 -0.290637 -0.290637
-0.0154761 -0.290313 -0.290313
-0.0149928 -0.27296 -0.27296
-0.0443304 -0.281902 -0.281902
-0.0302307 -0.290421 -0.290421
-0.0152344 -0.281574 -0.281574
-0.0293244 -0.273072 -0.273072
-0.0297778 -0.281684 -0.281684
-0.0449945 -0.290637 -0.290637
-0.0463196 -0.30848 -0.30848
-0.0159603 -0.308165 -0.308165
-0.0154761 -0.290313 -0.290313
-0.0456576 -0.299496 -0.299496
-0.0311354 -0.30827 -0.30827
-0.0157181 -0.299177 -0.299177
-0.0302307 -0.290421 -0.290421
-0.0306833 -0.299283 -0.299283
-0.0463196 -0.30848 -0.30848
-0.0476405 -0.32682 -0.32682
-0.0164455 -0.326514 -0.326514
-0.0159603 -0.308165 -0.308165
-0.0469806 -0.317588 -0.317588
-0.0320384 -0.326614 -0.326614
-0.0162028 -0.317278 -0.317278
-0.0311354 -0.30827 -0.30827
-0.0315871 -0.31738 -0.31738
-0.0476405 -0.32682 -0.32682
-0.0489574 -0.345653 -0.345653
-0.0169316 -0.345356 -0.345356
-0.0164455 -0.326514 -0.326514
-0.0482994 -0.336175 -0.336175
-0.0329399 -0.345452 -0.345452
-0.0166884 -0.335873 -0.335873
-0.0320384 -0.326614 -0.326614
-0.0324893 -0.335972 -0.335972
-0.0489574 -0.345653 -0.345653
-0.0502702 -0.364977 -0.364977
-0.0174189 -0.364688 -0.364688
-0.0169316 -0.345356 -0.345356
-0.0496143 -0.355254 -0.355254
-0.03384 -0.36478 -0.36478
-0.0171751 -0.354961 -0.354961
-0.0329399 -0.345452 -0.345452
-0.0333901 -0.355055 -0.355055
-0.0502702 -0.364977 -0.364977
-0.0515791 -0.384787 -0.384787
-0.0179074 -0.384507 -0.384507
-0.0174189 -0.364688 -0.364688
-0.0509251 -0.374821 -0.374821
-0.0347387 -0.384596 -0.384596
-0.017663 -0.374537 -0.374537
-0.03384 -0.36478 -0.36478
-0.0342895 -0.374627 -0.374627
-0.0515791 -0.384787 -0.384787
-0.0528842 -0.405082 -0.405082
-0.0183971 -0.404811 -0.404811
-0.0179074 -0.384507 -0.384507
-0.0522321 -0.394874 -0.394874
-0.035636 -0.404895 -0.404895
-0.0181521 -0.394599 -0.394599
-0.0347387 -0.384596 -0.384596
-0.0351875 -0.394685 -0.394685
-0.0528842 -0.405082 -0.405082
-0.0541854 -0.425858 -0.425858
-0.0188882 -0.425596 -0.425596
-0.0183971 -0.404811 -0.404811
-0.0535353 -0.41541 -0.41541
-0.0365322 -0.425676 -0.425676
-0.0186425 -0.415144 -0.415144
-0.035636 -0.404895 -0.404895
-0.0360843 -0.415226 -0.415226
-0.0541854 -0.425858 -0.425858
-0.055483 -0.447112 -0.447112
-0.0193806 -0.446859 -0.446859
-0.0188882 -0.425596 -0.425596
-0.0548347 -0.436425 -0.436425
-0.0374272 -0.446935 -0.446935
-0.0191342 -0.436168 -0.436168
-0.0365322 -0.425676 -0.425676
-0.0369798 -0.436246 -0.436246
-0.055483 -0.447112 -0.447112
-0.0567768 -0.468841 -0.468841
-0.0198745 -0.468598 -0.468598
-0.0193806 -0.446859 -0.446859
-0.0561303 -0.457917 -0.457917
-0.038321 -0.468669 -0.468669
-0.0196274 -0.457669 -0.457669
-0.0374272 -0.446935 -0.446935
-0.0378742 -0.457743 -0.457743
-0.0567768 -0.468841 -0.468841
-0.0580671 -0.491042 -0.491042
-0.0203699 -0.490808 -0.490808
-0.0198745 -0.468598 -0.468598
-0.0574224 -0.479883 -0.479883
-0.0392138 -0.490875 -0.490875
-0.020122 -0.479644 -0.479644
-0.038321 -0.468669 -0.468669
-0.0387676 -0.479713 -0.479713
-0.0580671 -0.491042 -0.491042
-0.0593538 -0.513712 -0.513712
-0.0208669 -0.513488 -0.513488
-0.0203699 -0.490808 -0.490808
-0.0587109 -0.502319 -0.502319
-0.0401057 -0.51355 -0.51355
-0.0206182 -0.50209 -0.50209
-0.0392138 -0.490875 -0.490875
-0.0396599 -0.502154 -0.502154
-0.0593538 -0.513712 -0.513712
-0.060637 -0.536848 -0.536848
-0.0213654 -0.536634 -0.536634
-0.0208669 -0.513488 -0.513488
-0.0599958 -0.525222 -0.525222
-0.0409966 -0.536692 -0.536692
-0.0211159 -0.525003 -0.525003
-0.0401057 -0.51355 -0.51355
-0.0405512 -0.525063 -0.525063
-0.060637 -0.536848 -0.536848
-0.0619168 -0.560448 -0.560448
-0.0218657 -0.560243 -0.560243
-0.0213654 -0.536634 -0.536634
-0.0612773 -0.54859 -0.54859
-0.0418866 -0.560296 -0.560296
-0.0216154 -0.548381 -0.548381
-0.0409966 -0.536692 -0.536692
-0.0414417 -0.548436 -0.548436
-0.0619168 -0.560448 -0.560448
-0.0631933 -0.584507 -0.584507
-0.0223678 -0.584312 -0.584312
-0.0218657 -0.560243 -0.560243
-0.0625555 -0.57242 -0.57242
-0.0427758 -0.58436 -0.58436
-0.0221165 -0.57222 -0.57222
-0.0418866 -0.560296 -0.560296
-0.0423313 -0.572271 -0.572271
-0.0631933 -0.584507 -0.584507
-0.0644664 -0.609023 -0.609023
-0.0228716 -0.608838 -0.608838
-0.0223678 -0.584312 -0.584312
-0.0638302 -0.596708 -0.596708
-0.0436643 -0.608882 -0.608882
-0.0226195 -0.596518 -0.596518
-0.0427758 -0.58436 -0.58436
-0.0432202 -0.596564 -0.596564
-0.0644664 -0.609023 -0.609023
-0.0657362 -0.633993 -0.633993
-0.0233773 -0.633818 -0.633818
-0.0228716 -0.608838 -0.608838
-0.0651017 -0.621451 -0.621451
-0.0445521 -0.633857 -0.633857
-0.0231242 -0.621271 -0.621271
-0.0436643 -0.608882 -0.608882
-0.0441083 -0.621313 -0.621313
-0.0657362 -0.633993 -0.633993
-0.0670029 -0.659413 -0.659413
-0.0238849 -0.659249 -0.659249
-0.0233773 -0.633818 -0.633818
-0.06637 -0.646647 -0.646647
-0.0454392 -0.659283 -0.659283
-0.0236308 -0.646477 -0.646477
-0.0445521 -0.633857 -0.633857
-0.0449957 -0.646514 -0.646514
-0.0670029 -0.659413 -0.659413
-0.0682664 -0.685282 -0.685282
-0.0243944 -0.685128 -0.685128
-0.0238849 -0.659249 -0.659249
-0.067635 -0.672292 -0.672292
-0.0463257 -0.685157 -0.685157
-0.0241394 -0.672132 -0.672132
-0.0454392 -0.659283 -0.659283
-0.0458825 -0.672165 -0.672165
-0.0682664 -0.685282 -0.685282
-0.0695268 -0.711596 -0.711596
-0.024906 -0.711452 -0.711452
-0.0243944 -0.685128 -0.685128
-0.068897 -0.698384 -0.698384
-0.0472117 -0.711476 -0.711476
-0.0246499 -0.698234 -0.698234
-0.0463257 -0.685157 -0.685157
-0.0467688 -0.698262 -0.698262
-0.0695268 -0.711596 -0.711596
-0.0707841 -0.738351 -0.738351
-0.0254195 -0.738217 -0.738217
-0.024906 -0.711452 -0.711452
-0.0701558 -0.724918 -0.724918
-0.0480971 -0.738237 -0.738237
-0.0251625 -0.724779 -0.724779
-0.0472117 -0.711476 -0.711476
-0.0476544 -0.724802 -0.724802
-0.0707841 -0.738351 -0.738351
-0.0720383 -0.765545 -0.765545
-0.0259352 -0.765422 -0.765422
-0.0254195 -0.738217 -0.738217
-0.0714116 -0.751894 -0.751894
-0.0489821 -0.765437 -0.765437
-0.0256771 -0.751765 -0.751765
-0.0480971 -0.738237 -0.738237
-0.0485396 -0.751783 -0.751783
-0.0720383 -0.765545 -0.765545
-0.0732897 -0.793175 -0.793175
-0.026453 -0.793062 -0.793062
-0.0259352 -0.765422 -0.765422
-0.0726644 -0.779306 -0.779306
-0.0498666 -0.793073 -0.793073
-0.0261939 -0.779188 -0.779188
-0.0489821 -0.765437 -0.765437
-0.0494244 -0.779201 -0.779201
-0.0732897 -0.793175 -0.793175
-0.074538 -0.821238 -0.821238
-0.026973 -0.821136 -0.821136
-0.026453 -0.793062 -0.793062
-0.0739142 -0.807153 -0.807153
-0.0507508 -0.821141 -0.821141
-0.0267128 -0.807045 -0.807045
-0.0498666 -0.793073 -0.793073
-0.0503088 -0.807053 -0.807053
-0.074538 -0.821238 -0.821238
-0.0757835 -0.84973 -0.84973
-0.0274952 -0.849639 -0.849639
-0.026973 -0.821136 -0.821136
-0.0751611 -0.835431 -0.835431
-0.0516346 -0.849639 -0.849639
-0.0272338 -0.835334 -0.835334
-0.0507508 -0.821141 -0.821141
-0.0511928 -0.835336 -0.835336
-0.0757835 -0.84973 -0.84973
-0.0770261 -0.878649 -0.878649
-0.0280197 -0.878569 -0.878569
-0.0274952 -0.849639 -0.849639
-0.0764051 -0.864137 -0.864137
-0.0525182 -0.878564 -0.878564
-0.0277572 -0.864051 -0.864051
-0.0516346 -0.849639 -0.849639
-0.0520764 -0.864048 -0.864048
-0.0770261 -0.878649 -0.878649
-0.0782659 -0.907992 -0.907992
-0.0285464 -0.907922 -0.907922
-0.0280197 -0.878569 -0.878569
-0.0776463 -0.893268 -0.893268
-0.0534014 -0.907912 -0.907912
-0.0282828 -0.893193 -0.893193
-0.0525182 -0.878564 -0.878564
-0.0529598 -0.893185 -0.893185
-0.0782659 -0.907992 -0.907992
-0.0795029 -0.937756 -0.937756
-0.0290755 -0.937696 -0.937696
-0.0285464 -0.907922 -0.907922
-0.0788847 -0.922822 -0.922822
-0.0542845 -0.937681 -0.937681
-0.0288107 -0.922757 -0.922757
-0.0534014 -0.907912 -0.907912
-0.053843 -0.922744 -0.922744
-0.0795029 -0.937756 -0.937756
-0.0807371 -0.967937 -0.967937
-0.029607 -0.967888 -0.967888
-0.0290755 -0.937696 -0.937696
-0.0801203 -0.952794 -0.952794
-0.0551673 -0.967868 -0.967868
-0.0293409 -0.95274 -0.95274
-0.0542845 -0.937681 -0.937681
-0.0547259 -0.952723 -0.952723
-0.0807371 -0.967937 -0.967937
-0.0819686 -0.998532 -0.998532
-0.0301408 -0.998495 -0.998495
-0.029607 -0.967888 -0.967888
-0.0813532 -0.983183 -0.983183
-0.05605 -0.99847 -0.99847
-0.0298736 -0.98314 -0.98314
-0.0551673 -0.967868 -0.967868
-0.0556087 -0.983117 -0.983117
-0.0819686 -0.998532 -0.998532
-0.0831975 -1.02954 -1.02954
-0.0306771 -1.02951 -1.02951
-0.0301408 -0.998495 -0.998495
-0.0825834 -1.01398 -1.01398
-0.0569325 -1.02948 -1.02948
-0.0304086 -1.01395 -1.01395
-0.05605 -0.99847 -0.99847
-0.0564913 -1.01392 -1.01392
-0.0831975 -1.02954 -1.02954
-0.0844236 -1.06096 -1.06096
-0.0312158 -1.06094 -1.06094
-0.0306771 -1.02951 -1.02951
-0.0838109 -1.0452 -1.0452
-0.057815 -1.0609 -1.0609
-0.0309461 -1.04518 -1.04518
-0.0569325 -1.02948 -1.02948
-0.0573738 -1.04514 -1.04514
-0.0844236 -1.06096 -1.06096
-0.0856472 -1.09278 -1.09278
-0.031757 -1.09277 -1.09277
-0.0312158 -1.06094 -1.06094
-0.0850357 -1.07682 -1.07682
-0.0586973 -1.09273 -1.09273
-0.0314861 -1.07681 -1.07681
-0.057815 -1.0609 -1.0609
-0.0582562 -1.07677 -1.07677
-0.0856472 -1.09278 -1.09278
-0.0868681 -1.125 -1.125
-0.0323007 -1.12501 -1.12501
-0.031757 -1.09277 -1.09277
-0.086258 -1.10884 -1.10884
-0.0595796 -1.12496 -1.12496
-0.0320285 -1.10884 -1.10884
-0.0586973 -1.09273 -1.09273
-0.0591385 -1.1088 -1.1088
-0.0868681 -1.125 -1.125
-0.0880865 -1.15762 -1.15762
-0.0328469 -1.15764 -1.15764
-0.0323007 -1.12501 -1.12501
-0.0874776 -1.14126 -1.14126
-0.0604619 -1.15759 -1.15759
-0.0325735 -1.14127 -1.14127
-0.0595796 -1.12496 -1.12496
-0.0600208 -1.14123 -1.14123
-0.0880865 -1.15762 -1.15762
-0.0893022 -1.19064 -1.19064
-0.0333957 -1.19067 -1.19067
-0.0328469 -1.15764 -1.15764
-0.0886947 -1.17408 -1.17408
-0.0613442 -1.19062 -1.19062
-0.033121 -1.17411 -1.17411
-0.0604619 -1.15759 -1.15759
-0.0609031 -1.17405 -1.17405
-0.0893022 -1.19064 -1.19064
-0.0905155 -1.22406 -1.22406
-0.033947 -1.2241 -1.2241
-0.0333957 -1.19067 -1.19067
-0.0899092 -1.2073 -1.2073
-0.0622265 -1.22404 -1.22404
-0.033671 -1.20734 -1.20734
-0.0613442 -1.19062 -1.19062
-0.0617854 -1.20728 -1.20728
-0.0905155 -1.22406 -1.22406
-0.0917262 -1.25786 -1.25786
-0.034501 -1.25791 -1.25791
-0.033947 -1.2241 -1.2241
-0.0911212 -1.24091 -1.24091
-0.0631089 -1.25784 -1.25784
-0.0342237 -1.24096 -1.24096
-0.0622265 -1.22404 -1.22404
-0.0626677 -1.24089 -1.24089
-0.0917262 -1.25786 -1.25786
-0.0929345 -1.29205 -1.29205
-0.0350576 -1.29211 -1.29211
-0.034501 -1.25791 -1.25791
-0.0923307 -1.27491 -1.27491
-0.0639913 -1.29204 -1.29204
-0.034779 -1.27497 -1.27497
-0.0631089 -1.25784 -1.25784
-0.0635501 -1.2749 -1.2749
-0.0929345 -1.29205 -1.29205
-0.0941403 -1.32663 -1.32663
-0.0356168 -1.3267 -1.3267
-0.0350576 -1.29211 -1.29211
-0.0935377 -1.30929 -1.30929
-0.0648738 -1.32662 -1.32662
-0.0353369 -1.30936 -1.30936
-0.0639913 -1.29204 -1.29204
-0.0644325 -1.30928 -1.30928
-0.0941403 -1.32663 -1.32663
-0.0953436 -1.36158 -1.36158
-0.0361787 -1.36167 -1.36167
-0.0356168 -1.3267 -1.3267
-0.0947422 -1.34406 -1.34406
-0.0657564 -1.36159 -1.36159
-0.0358974 -1.34414 -1.34414
-0.0648738 -1.32662 -1.32662
-0.0653151 -1.34406 -1.34406
-0.0953436 -1.36158 -1.36158
-0.0965444 -1.39692 -1.39692
-0.0367433 -1.39702 -1.39702
-0.0361787 -1.36167 -1.36167
-0.0959443 -1.3792 -1.3792
-0.0666391 -1.39693 -1.39693
-0.0364606 -1.3793 -1.3793
-0.0657564 -1.36159 -1.36159
-0.0661977 -1.37921 -1.37921
-0.0965444 -1.39692 -1.39692
-0.0977429 -1.43263 -1.43263
-0.0373105 -1.43274 -1.43274
-0.0367433 -1.39702 -1.39702
-0.097144 -1.41473 -1.41473
-0.0675219 -1.43264 -1.43264
-0.0370265 -1.41483 -1.41483
-0.0666391 -1.39693 -1.39693
-0.0670805 -1.41474 -1.41474
-0.0977429 -1.43263 -1.43263
-0.0989389 -1.46871 -1.46871
-0.0378804 -1.46883 -1.46883
-0.0373105 -1.43274 -1.43274
-0.0983412 -1.45062 -1.45062
-0.0684049 -1.46873 -1.46873
-0.0375951 -1.45074 -1.45074
-0.0675219 -1.43264 -1.43264
-0.0679634 -1.45064 -1.45064
-0.0989389 -1.46871 -1.46871
-0.100132 -1.50516 -1.50516
-0.038453 -1.50529 -1.50529
-0.0378804 -1.46883 -1.46883
-0.099536 -1.48689 -1.48689
-0.069288 -1.50519 -1.50519
-0.0381664 -1.48702 -1.48702
-0.0684049 -1.46873 -1.46873
-0.0688464 -1.48691 -1.48691
-0.100132 -1.50516 -1.50516
-0.101324 -1.54198 -1.54198
-0.0390284 -1.54212 -1.54212
-0.038453 -1.50529 -1.50529
-0.100728 -1.52353 -1.52353
-0.0701713 -1.54201 -1.54201
-0.0387404 -1.52366 -1.52366
-0.069288 -1.50519 -1.50519
-0.0697296 -1.52356 -1.52356
-0.101324 -1.54198 -1.54198
-0.102513 -1.57916 -1.57916
-0.0396065 -1.57932 -1.57932
-0.0390284 -1.54212 -1.54212
-0.101918 -1.56053 -1.56053
-0.0710547 -1.5792 -1.5792
-0.0393171 -1.56067 -1.56067
-0.0701713 -1.54201 -1.54201
-0.070613 -1.56056 -1.56056
-0.102513 -1.57916 -1.57916
-0.103699 -1.6167 -1.6167
-0.0401873 -1.61687 -1.61687
-0.0396065 -1.57932 -1.57932
-0.103106 -1.59789 -1.59789
-0.0719384 -1.61675 -1.61675
-0.0398965 -1.59805 -1.59805
-0.0710547 -1.5792 -1.5792
-0.0714965 -1.59793 -1.59793
-0.103699 -1.6167 -1.6167
-0.104883 -1.6546 -1.6546
-0.0407708 -1.65478 -1.65478
-0.0401873 -1.61687 -1.61687
-0.104291 -1.63561 -1.63561
-0.0728222 -1.65465 -1.65465
-0.0404787 -1.63578 -1.63578
-0.0719384 -1.61675 -1.61675
-0.0723802 -1.63566 -1.63566
-0.104883 -1.6546 -1.6546
-0.106065 -1.69285 -1.69285
-0.0413571 -1.69304 -1.69304
-0.0407708 -1.65478 -1.65478
-0.105474 -1.67368 -1.67368
-0.0737062 -1.69291 -1.69291
-0.0410636 -1.67387 -1.67387
-0.0728222 -1.65465 -1.65465
-0.0732641 -1.67374 -1.67374
-0.106065 -1.69285 -1.69285
-0.107244 -1.73146 -1.73146
-0.0419461 -1.73166 -1.73166
-0.0413571 -1.69304 -1.69304
-0.106655 -1.71211 -1.71211
-0.0745903 -1.73152 -1.73152
-0.0416513 -1.71231 -1.71231
-0.0737062 -1.69291 -1.69291
-0.0741482 -1.71217 -1.71217
-0.107244 -1.73146 -1.73146
-0.108421 -1.77041 -1.77041
-0.0425379 -1.77062 -1.77062
-0.0419461 -1.73166 -1.73166
-0.107833 -1.75089 -1.75089
-0.0754747 -1.77048 -1.77048
-0.0422417 -1.7511 -1.7511
-0.0745903 -1.73152 -1.73152
-0.0750325 -1.75096 -1.75096
-0.108421 -1.77041 -1.77041
-0.109596 -1.80971 -1.80971
-0.0431325 -1.80993 -1.80993
-0.0425379 -1.77062 -1.77062
-0.109009 -1.79001 -1.79001
-0.0763593 -1.80978 -1.80978
-0.0428348 -1.79023 -1.79023
-0.0754747 -1.77048 -1.77048
-0.075917 -1.79009 -1.79009
-0.109596 -1.80971 -1.80971
-0.110768 -1.84934 -1.84934
-0.0437297 -1.84958 -1.84958
-0.0431325 -1.80993 -1.80993
-0.110182 -1.82948 -1.82948
-0.077244 -1.84943 -1.84943
-0.0434308 -1.82971 -1.82971
-0.0763593 -1.80978 -1.80978
-0.0768016 -1.82956 -1.82956
-0.110768 -1.84934 -1.84934
-0.111938 -1.88932 -1.88932
-0.0443298 -1.88957 -1.88957
-0.0437297 -1.84958 -1.84958
-0.111353 -1.86929 -1.86929
-0.078129 -1.88941 -1.88941
-0.0440294 -1.86953 -1.86953
-0.077244 -1.84943 -1.84943
-0.0776865 -1.86938 -1.86938
-0.111938 -1.88932 -1.88932
-0.113105 -1.92964 -1.92964
-0.0449325 -1.92989 -1.92989
-0.0443298 -1.88957 -1.88957
-0.112522 -1.90944 -1.90944
-0.0790141 -1.92973 -1.92973
-0.0446308 -1.90969 -1.90969
-0.078129 -1.88941 -1.88941
-0.0785715 -1.90953 -1.90953
-0.113105 -1.92964 -1.92964
-0.11427 -1.97028 -1.97028
-0.0455381 -1.97055 -1.97055
-0.0449325 -1.92989 -1.92989
-0.113688 -1.94992 -1.94992
-0.0798995 -1.97038 -1.97038
-0.045235 -1.95018 -1.95018
-0.0790141 -1.92973 -1.92973
-0.0794568 -1.95001 -1.95001
-0.11427 -1.97028 -1.97028
-0.115433 -2.01126 -2.01126
-0.0461463 -2.01154 -2.01154
-0.0455381 -1.97055 -1.97055
-0.114852 -1.99073 -1.99073
-0.080785 -2.01137 -2.01137
-0.0458419 -1.99101 -1.99101
-0.0798995 -1.97038 -1.97038
-0.0803422 -1.99083 -1.99083
-0.115433 -2.01126 -2.01126
-0.116594 -2.05256 -2.05256
-0.0467573 -2.05286 -2.05286
-0.0461463 -2.01154 -2.01154
-0.116014 -2.03187 -2.03187
-0.0816707 -2.05267 -2.05267
-0.0464515 -2.03216 -2.03216
-0.080785 -2.01137 -2.01137
-0.0812278 -2.03198 -2.03198
-0.116594 -2.05256 -2.05256
-0.117752 -2.09419 -2.09419
-0.047371 -2.09449 -2.09449
-0.0467573 -2.05286 -2.05286
-0.117173 -2.07334 -2.07334
-0.0825565 -2.09431 -2.09431
-0.0470638 -2.07363 -2.07363
-0.0816707 -2.05267 -2.05267
-0.0821136 -2.07345 -2.07345
-0.117752 -2.09419 -2.09419
-0.118907 -2.13614 -2.13614
-0.0479875 -2.13645 -2.13645
-0.047371 -2.09449 -2.09449
-0.11833 -2.11512 -2.11512
-0.0834425 -2.13626 -2.13626
-0.0476789 -2.11543 -2.11543
-0.0825565 -2.09431 -2.09431
-0.0829995 -2.11525 -2.11525
-0.118907 -2.13614 -2.13614
-0.12006 -2.1784 -2.1784
-0.0486066 -2.17873 -2.17873
-0.0479875 -2.13645 -2.13645
-0.119484 -2.15723 -2.15723
-0.0843287 -2.17853 -2.17853
-0.0482967 -2.15755 -2.15755
-0.0834425 -2.13626 -2.13626
-0.0838856 -2.15736 -2.15736
-0.12006 -2.1784 -2.1784
-0.121211 -2.22099 -2.22099
-0.0492284 -2.22132 -2.22132
-0.0486066 -2.17873 -2.17873
-0.120636 -2.19966 -2.19966
-0.085215 -2.22112 -2.22112
-0.0489172 -2.19999 -2.19999
-0.0843287 -2.17853 -2.17853
-0.0847718 -2.19979 -2.19979
-0.121211 -2.22099 -2.22099
-0.122359 -2.26388 -2.26388
-0.0498529 -2.26423 -2.26423
-0.0492284 -2.22132 -2.22132
-0.121785 -2.24239 -2.24239
-0.0861014 -2.26402 -2.26402
-0.0495403 -2.24274 -2.24274
-0.085215 -2.22112 -2.22112
-0.0856582 -2.24253 -2.24253
-0.122359 -2.26388 -2.26388
-0.123505 -2.30708 -2.30708
-0.0504801 -2.30744 -2.30744
-0.0498529 -2.26423 -2.26423
-0.122933 -2.28544 -2.28544
-0.0869879 -2.30723 -2.30723
-0.0501662 -2.2858 -2.2858
-0.0861014 -2.26402 -2.26402
-0.0865446 -2.28559 -2.28559
-0.123505 -2.30708 -2.30708
-0.124649 -2.35059 -2.35059
-0.0511099 -2.35096 -2.35096
-0.0504801 -2.30744 -2.30744
-0.124077 -2.32879 -2.32879
-0.0878745 -2.35074 -2.35074
-0.0507947 -2.32916 -2.32916
-0.0869879 -2.30723 -2.30723
-0.0874312 -2.32895 -2.32895
-0.124649 -2.35059 -2.35059
-0.12579 -2.3944 -2.3944
-0.0517424 -2.39478 -2.39478
-0.0511099 -2.35096 -2.35096
-0.125219 -2.37245 -2.37245
-0.0887613 -2.39456 -2.39456
-0.0514258 -2.37283 -2.37283
-0.0878745 -2.35074 -2.35074
-0.0883179 -2.37261 -2.37261
-0.12579 -2.3944 -2.3944
-0.126928 -2.4385 -2.4385
-0.0523775 -2.4389 -2.4389
-0.0517424 -2.39478 -2.39478
-0.126359 -2.41641 -2.41641
-0.089648 -2.43867 -2.43867
-0.0520596 -2.4168 -2.4168
-0.0887613 -2.39456 -2.39456
-0.0892046 -2.41658 -2.41658
-0.126928 -2.4385 -2.4385
-0.128064 -2.48291 -2.48291
-0.0530152 -2.48332 -2.48332
-0.0523775 -2.4389 -2.4389
-0.127496 -2.46067 -2.46067
-0.0905349 -2.48308 -2.48308
-0.052696 -2.46107 -2.46107
-0.089648 -2.43867 -2.43867
-0.0900914 -2.46084 -2.46084
-0.128064 -2.48291 -2.48291
-0.129197 -2.52761 -2.52761
-0.0536555 -2.52803 -2.52803
-0.0530152 -2.48332 -2.48332
-0.128631 -2.50522 -2.50522
-0.0914217 -2.52779 -2.52779
-0.053335 -2.50564 -2.50564
-0.0905349 -2.48308 -2.48308
-0.0909783 -2.5054 -2.5054
-0.129197 -2.52761 -2.52761
-0.130328 -2.5726 -2.5726
-0.0542983 -2.57303 -2.57303
-0.0536555 -2.52803 -2.52803
-0.129763 -2.55007 -2.55007
-0.0923086 -2.57278 -2.57278
-0.0539766 -2.55049 -2.55049
-0.0914217 -2.52779 -2.52779
-0.0918652 -2.55025 -2.55025
-0.130328 -2.5726 -2.5726
-0.131457 -2.61788 -2.61788
-0.0549437 -2.61832 -2.61832
-0.0542983 -2.57303 -2.57303
-0.130893 -2.5952 -2.5952
-0.0931954 -2.61807 -2.61807
-0.0546207 -2.59564 -2.59564
-0.0923086 -2.57278 -2.57278
-0.092752 -2.59539 -2.59539
-0.131457 -2.61788 -2.61788
-0.132582 -2.66344 -2.66344
-0.0555916 -2.66389 -2.66389
-0.0549437 -2.61832 -2.61832
-0.13202 -2.64062 -2.64062
-0.0940823 -2.66364 -2.66364
-0.0552674 -2.64107 -2.64107
-0.0931954 -2.61807 -2.61807
-0.0936389 -2.64082 -2.64082
-0.132582 -2.66344 -2.66344
-0.133706 -2.70928 -2.70928
-0.0562421 -2.70975 -2.70975
-0.0555916 -2.66389 -2.66389
-0.133144 -2.68633 -2.68633
-0.0949691 -2.70949 -2.70949
-0.0559165 -2.68679 -2.68679
-0.0940823 -2.66364 -2.66364
-0.0945257 -2.68653 -2.68653
-0.133706 -2.70928 -2.70928
-0.134826 -2.75541 -2.75541
-0.056895 -2.75588 -2.75588
-0.0562421 -2.70975 -2.70975
-0.134266 -2.73231 -2.73231
-0.0958558 -2.75561 -2.75561
-0.0565682 -2.73278 -2.73278
-0.0949691 -2.70949 -2.70949
-0.0954124 -2.73252 -2.73252
-0.134826 -2.75541 -2.75541
-0.135944 -2.8018 -2.8018
-0.0575503 -2.80229 -2.80229
-0.056895 -2.75588 -2.75588
-0.135385 -2.77857 -2.77857
-0.0967424 -2.80202 -2.80202
-0.0572223 -2.77905 -2.77905
-0.0958558 -2.75561 -2.75561
-0.0962991 -2.77878 -2.77878
-0.135944 -2.8018 -2.8018
-0.137059 -2.84848 -2.84848
-0.0582081 -2.84897 -2.84897
-0.0575503 -2.80229 -2.80229
-0.136502 -2.82511 -2.82511
-0.0976288 -2.84869 -2.84869
-0.0578789 -2.8256 -2.8256
-0.0967424 -2.80202 -2.80202
-0.0971856 -2.82532 -2.82532
-0.137059 -2.84848 -2.84848
-0.138171 -2.89541 -2.89541
-0.0588683 -2.89592 -2.89592
-0.0582081 -2.84897 -2.84897
-0.137616 -2.87191 -2.87191
-0.0985151 -2.89564 -2.89564
-0.0585379 -2.87241 -2.87241
-0.0976288 -2.84869 -2.84869
-0.098072 -2.87213 -2.87213
-0.138171 -2.89541 -2.89541
-0.139281 -2.94262 -2.94262
-0.0595309 -2.94314 -2.94314
-0.0588683 -2.89592 -2.89592
-0.138727 -2.91898 -2.91898
-0.0994013 -2.94285 -2.94285
-0.0591993 -2.9195 -2.9195
-0.0985151 -2.89564 -2.89564
-0.0989582 -2.91921 -2.91921
-0.139281 -2.94262 -2.94262
-0.140388 -2.99009 -2.99009
-0.0601958 -2.99062 -2.99062
-0.0595309 -2.94314 -2.94314
-0.139835 -2.96632 -2.96632
-0.100287 -2.99033 -2.99033
-0.059863 -2.96685 -2.96685
-0.0994013 -2.94285 -2.94285
-0.0998443 -2.96656 -2.96656
-0.140388 -2.99009 -2.99009
-0.141492 -3.03782 -3.03782
-0.060863 -3.03836 -3.03836
-0.0601958 -2.99062 -2.99062
-0.14094 -3.01392 -3.01392
-0.101173 -3.03806 -3.03806
-0.0605291 -3.01446 -3.01446
-0.100287 -2.99033 -2.99033
-0.10073 -3.01416 -3.01416
-0.141492 -3.03782 -3.03782
-0.142593 -3.08581 -3.08581
-0.0615325 -3.08636 -3.08636
-0.060863 -3.03836 -3.03836
-0.142043 -3.06178 -3.06178
-0.102058 -3.08606 -3.08606
-0.0611975 -3.06233 -3.06233
-0.101173 -3.03806 -3.03806
-0.101616 -3.06203 -3.06203
-0.142593 -3.08581 -3.08581
-0.143692 -3.13405 -3.13405
-0.0622043 -3.13461 -3.13461
-0.0615325 -3.08636 -3.08636
-0.143143 -3.1099 -3.1099
-0.102943 -3.1343 -3.1343
-0.0618681 -3.11045 -3.11045
-0.102058 -3.08606 -3.08606
-0.102501 -3.11015 -3.11015
-0.143692 -3.13405 -3.13405
-0.144787 -3.18254 -3.18254
-0.0628783 -3.18311 -3.18311
-0.0622043 -3.13461 -3.13461
-0.14424 -3.15826 -3.15826
-0.103828 -3.1828 -3.1828
-0.062541 -3.15883 -3.15883
-0.102943 -3.1343 -3.1343
-0.103386 -3.15852 -3.15852
-0.144787 -3.18254 -3.18254
-0.14588 -3.23128 -3.23128
-0.0635545 -3.23186 -3.23186
-0.0628783 -3.18311 -3.18311
-0.145334 -3.20688 -3.20688
-0.104713 -3.23155 -3.23155
-0.0632161 -3.20746 -3.20746
-0.103828 -3.1828 -3.1828
-0.10427 -3.20714 -3.20714
-0.14588 -3.23128 -3.23128
-0.14697 -3.28027 -3.28027
-0.0642328 -3.28086 -3.28086
-0.0635545 -3.23186 -3.23186
-0.146425 -3.25575 -3.25575
-0.105597 -3.28054 -3.28054
-0.0638934 -3.25633 -3.25633
-0.104713 -3.23155 -3.23155
-0.105155 -3.25601 -3.25601
-0.14697 -3.28027 -3.28027
-0.148056 -3.3295 -3.3295
-0.0649133 -3.3301 -3.3301
-0.0642328 -3.28086 -3.28086
-0.147514 -3.30485 -3.30485
-0.10648 -3.32977 -3.32977
-0.0645728 -3.30545 -3.30545
-0.105597 -3.28054 -3.28054
-0.106038 -3.30513 -3.30513
-0.148056 -3.3295 -3.3295
-0.14914 -3.37896 -3.37896
-0.0655958 -3.37958 -3.37958
-0.0649133 -3.3301 -3.3301
-0.148599 -3.3542 -3.3542
-0.107363 -3.37925 -3.37925
-0.0652543 -3.35481 -3.35481
-0.10648 -3.32977 -3.32977
-0.106922 -3.35448 -3.35448
-0.14914 -3.37896 -3.37896
-0.150221 -3.42867 -3.42867
-0.0662804 -3.42929 -3.42929
-0.0655958 -3.37958 -3.37958
-0.149681 -3.40379 -3.40379
-0.108246 -3.42896 -3.42896
-0.0659378 -3.40441 -3.40441
-0.107363 -3.37925 -3.37925
-0.107805 -3.40407 -3.40407
-0.150221 -3.42867 -3.42867
-0.151298 -3.47861 -3.47861
-0.066967 -3.47924 -3.47924
-0.0662804 -3.42929 -3.42929
-0.15076 -3.45361 -3.45361
-0.109128 -3.4789 -3.4789
-0.0666234 -3.45424 -3.45424
-0.108246 -3.42896 -3.42896
-0.108687 -3.4539 -3.4539
-0.151298 -3.47861 -3.47861
-0.152373 -3.52877 -3.52877
-0.0676556 -3.52942 -3.52942
-0.066967 -3.47924 -3.47924
-0.151836 -3.50366 -3.50366
-0.110009 -3.52907 -3.52907
-0.067311 -3.5043 -3.5043
-0.109128 -3.4789 -3.4789
-0.109569 -3.50396 -3.50396
-0.152373 -3.52877 -3.52877
-0.153444 -3.57917 -3.57917
-0.0683461 -3.57982 -3.57982
-0.0676556 -3.52942 -3.52942
-0.152909 -3.55394 -3.55394
-0.11089 -3.57947 -3.57947
-0.0680006 -3.55459 -3.55459
-0.110009 -3.52907 -3.52907
-0.11045 -3.55424 -3.55424
-0.153444 -3.57917 -3.57917
-0.154512 -3.62978 -3.62978
-0.0690385 -3.63045 -3.63045
-0.0683461 -3.57982 -3.57982
-0.153978 -3.60445 -3.60445
-0.11177 -3.63009 -3.63009
-0.068692 -3.60511 -3.60511
-0.11089 -3.57947 -3.57947
-0.11133 -3.60475 -3.60475
-0.154512 -3.62978 -3.62978
-0.155576 -3.68062 -3.68062
-0.0697327 -3.6813 -3.6813
-0.0690385 -3.63045 -3.63045
-0.155045 -3.65518 -3.65518
-0.11265 -3.68094 -3.68094
-0.0693853 -3.65585 -3.65585
-0.11177 -3.63009 -3.63009
-0.11221 -3.65549 -3.65549
-0.155576 -3.68062 -3.68062
-0.156638 -3.73168 -3.73168
-0.0704288 -3.73236 -3.73236
-0.0697327 -3.6813 -3.6813
-0.156108 -3.70612 -3.70612
-0.113529 -3.732 -3.732
-0.0700805 -3.7068 -3.7068
-0.11265 -3.68094 -3.68094
-0.113089 -3.70644 -3.70644
-0.156638 -3.73168 -3.73168
-0.157696 -3.78295 -3.78295
-0.0711266 -3.78365 -3.78365
-0.0704288 -3.73236 -3.73236
-0.157167 -3.75729 -3.75729
-0.114407 -3.78328 -3.78328
-0.0707775 -3.75798 -3.75798
-0.113529 -3.732 -3.732
-0.113968 -3.75761 -3.75761
-0.157696 -3.78295 -3.78295
-0.158751 -3.83444 -3.83444
-0.0718261 -3.83514 -3.83514
-0.0711266 -3.78365 -3.78365
-0.158224 -3.80867 -3.80867
-0.115284 -3.83477 -3.83477
-0.0714762 -3.80937 -3.80937
-0.114407 -3.78328 -3.78328
-0.114845 -3.80899 -3.80899
-0.158751 -3.83444 -3.83444
-0.159802 -3.88613 -3.88613
-0.0725274 -3.88684 -3.88684
-0.0718261 -3.83514 -3.83514
-0.159277 -3.86026 -3.86026
-0.11616 -3.88646 -3.88646
-0.0721766 -3.86097 -3.86097
-0.115284 -3.83477 -3.83477
-0.115722 -3.86059 -3.86059
-0.159802 -3.88613 -3.88613
-0.16085 -3.93803 -3.93803
-0.0732303 -3.93875 -3.93875
-0.0725274 -3.88684 -3.88684
-0.160326 -3.91205 -3.91205
-0.117035 -3.93837 -3.93837
-0.0728786 -3.91277 -3.91277
-0.11616 -3.88646 -3.88646
-0.116598 -3.91239 -3.91239
-0.16085 -3.93803 -3.93803
-0.161894 -3.99013 -3.99013
-0.0739347 -3.99086 -3.99086
-0.0732303 -3.93875 -3.93875
-0.161372 -3.96405 -3.96405
-0.11791 -3.99047 -3.99047
-0.0735823 -3.96478 -3.96478
-0.117035 -3.93837 -3.93837
-0.117473 -3.9644 -3.9644
-0.161894 -3.99013 -3.99013
-0.162934 -4.04243 -4.04243
-0.0746407 -4.04317 -4.04317
-0.0739347 -3.99086 -3.99086
-0.162415 -4.01626 -4.01626
-0.118783 -4.04278 -4.04278
-0.0742875 -4.01699 -4.01699
-0.11791 -3.99047 -3.99047
-0.118346 -4.0166 -4.0166
-0.162934 -4.04243 -4.04243
-0.163972 -4.09493 -4.09493
-0.0753482 -4.09568 -4.09568
-0.0746407 -4.04317 -4.04317
-0.163453 -4.06866 -4.06866
-0.119655 -4.09528 -4.09528
-0.0749943 -4.0694 -4.0694
-0.118783 -4.04278 -4.04278
-0.119219 -4.06901 -4.06901
-0.163972 -4.09493 -4.09493
-0.165005 -4.14762 -4.14762
-0.0760572 -4.14838 -4.14838
-0.0753482 -4.09568 -4.09568
-0.164489 -4.12125 -4.12125
-0.120526 -4.14798 -4.14798
-0.0757025 -4.12201 -4.12201
-0.119655 -4.09528 -4.09528
-0.120091 -4.12161 -4.12161
-0.165005 -4.14762 -4.14762
-0.166035 -4.2005 -4.2005
-0.0767676 -4.20127 -4.20127
-0.0760572 -4.14838 -4.14838
-0.16552 -4.17404 -4.17404
-0.121397 -4.20087 -4.20087
-0.0764122 -4.1748 -4.1748
-0.120526 -4.14798 -4.14798
-0.120962 -4.1744 -4.1744
-0.166035 -4.2005 -4.2005
-0.167061 -4.25358 -4.25358
-0.0774793 -4.25435 -4.25435
-0.0767676 -4.20127 -4.20127
-0.166548 -4.22702 -4.22702
-0.122265 -4.25395 -4.25395
-0.0771232 -4.22779 -4.22779
-0.121397 -4.20087 -4.20087
-0.121831 -4.22738 -4.22738
-0.167061 -4.25358 -4.25358
-0.168083 -4.30683 -4.30683
-0.0781923 -4.30762 -4.30762
-0.0774793 -4.25435 -4.25435
-0.167572 -4.28018 -4.28018
-0.123133 -4.30721 -4.30721
-0.0778356 -4.28096 -4.28096
-0.122265 -4.25395 -4.25395
-0.122699 -4.28055 -4.28055
-0.168083 -4.30683 -4.30683
-0.169101 -4.36027 -4.36027
-0.0789066 -4.36107 -4.36107
-0.0781923 -4.30762 -4.30762
-0.168592 -4.33353 -4.33353
-0.123999 -4.36065 -4.36065
-0.0785493 -4.33432 -4.33432
-0.123133 -4.30721 -4.30721
-0.123566 -4.3339 -4.3339
-0.169101 -4.36027 -4.36027
-0.170115 -4.41388 -4.41388
-0.0796221 -4.41469 -4.41469
-0.0789066 -4.36107 -4.36107
-0.169609 -4.38705 -4.38705
-0.124864 -4.41427 -4.41427
-0.0792642 -4.38786 -4.38786
-0.123999 -4.36065 -4.36065
-0.124432 -4.38744 -4.38744
-0.170115 -4.41388 -4.41388
-0.171126 -4.46768 -4.46768
-0.0803387 -4.46849 -4.46849
-0.0796221 -4.41469 -4.41469
-0.170621 -4.44076 -4.44076
-0.125728 -4.46806 -4.46806
-0.0799802 -4.44157 -4.44157
-0.124864 -4.41427 -4.41427
-0.125296 -4.44114 -4.44114
-0.171126 -4.46768 -4.46768
-0.172132 -4.52164 -4.52164
-0.0810564 -4.52246 -4.52246
-0.0803387 -4.46849 -4.46849
-0.17163 -4.49464 -4.49464
-0.12659 -4.52203 -4.52203
-0.0806974 -4.49546 -4.49546
-0.125728 -4.46806 -4.46806
-0.126159 -4.49503 -4.49503
-0.172132 -4.52164 -4.52164
-0.173135 -4.57577 -4.57577
-0.0817752 -4.57661 -4.57661
-0.0810564 -4.52246 -4.52246
-0.172634 -4.54869 -4.54869
-0.12745 -4.57617 -4.57617
-0.0814157 -4.54951 -4.54951
-0.12659 -4.52203 -4.52203
-0.12702 -4.54908 -4.54908
-0.173135 -4.57577 -4.57577
-0.174133 -4.63007 -4.63007
-0.082495 -4.63091 -4.63091
-0.0817752 -4.57661 -4.57661
-0.173634 -4.6029 -4.6029
-0.128309 -4.63048 -4.63048
-0.082135 -4.60374 -4.60374
-0.12745 -4.57617 -4.57617
-0.12788 -4.6033 -4.6033
-0.174133 -4.63007 -4.63007
-0.175127 -4.68454 -4.68454
-0.0832157 -4.68539 -4.68539
-0.082495 -4.63091 -4.63091
-0.17463 -4.65729 -4.65729
-0.129167 -4.68494 -4.68494
-0.0828552 -4.65813 -4.65813
-0.128309 -4.63048 -4.63048
-0.128738 -4.65769 -4.65769
-0.175127 -4.68454 -4.68454
-0.176117 -4.73916 -4.73916
-0.0839373 -4.74002 -4.74002
-0.0832157 -4.68539 -4.68539
-0.175622 -4.71183 -4.71183
-0.130022 -4.73957 -4.73957
-0.0835764 -4.71268 -4.71268
-0.129167 -4.68494 -4.68494
-0.129595 -4.71224 -4.71224
-0.176117 -4.73916 -4.73916
-0.177102 -4.79394 -4.79394
-0.0846597 -4.79481 -4.79481
-0.0839373 -4.74002 -4.74002
-0.17661 -4.76653 -4.76653
-0.130876 -4.79436 -4.79436
-0.0842984 -4.76739 -4.76739
-0.130022 -4.73957 -4.73957
-0.13045 -4.76695 -4.76695
-0.177102 -4.79394 -4.79394
-0.178083 -4.84888 -4.84888
-0.0853829 -4.84975 -4.84975
-0.0846597 -4.79481 -4.79481
-0.177593 -4.82139 -4.82139
-0.131729 -4.8493 -4.8493
-0.0850212 -4.82226 -4.82226
-0.130876 -4.79436 -4.79436
-0.131303 -4.82181 -4.82181
-0.178083 -4.84888 -4.84888
-0.17906 -4.90397 -4.90397
-0.0861069 -4.90485 -4.90485
-0.0853829 -4.84975 -4.84975
-0.178572 -4.87641 -4.87641
-0.132579 -4.90439 -4.90439
-0.0857448 -4.87728 -4.87728
-0.131729 -4.8493 -4.8493
-0.132154 -4.87683 -4.87683
-0.17906 -4.90397 -4.90397
-0.180033 -4.9592 -4.9592
-0.0868315 -4.96009 -4.96009
-0.0861069 -4.90485 -4.90485
-0.179547 -4.93157 -4.93157
-0.133428 -4.95963 -4.95963
-0.0864691 -4.93245 -4.93245
-0.132579 -4.90439 -4.90439
-0.133004 -4.93199 -4.93199
-0.180033 -4.9592 -4.9592
-0.181 -5.01459 -5.01459
-0.0875567 -5.01548 -5.01548
-0.0868315 -4.96009 -4.96009
-0.180517 -4.98688 -4.98688
-0.134274 -5.01502 -5.01502
-0.087194 -4.98777 -4.98777
-0.133428 -4.95963 -4.95963
-0.133851 -4.98731 -4.98731
-0.181 -5.01459 -5.01459
-0.181964 -5.07011 -5.07011
-0.0882824 -5.07102 -5.07102
-0.0875567 -5.01548 -5.01548
-0.181483 -5.04233 -5.04233
-0.135119 -5.07055 -5.07055
-0.0879195 -5.04323 -5.04323
-0.134274 -5.01502 -5.01502
-0.134697 -5.04277 -5.04277
-0.181964 -5.07011 -5.07011
-0.182922 -5.12577 -5.12577
-0.0890086 -5.12669 -5.12669
-0.0882824 -5.07102 -5.07102
-0.182444 -5.09792 -5.09792
-0.135961 -5.12622 -5.12622
-0.0886455 -5.09883 -5.09883
-0.135119 -5.07055 -5.07055
-0.13554 -5.09836 -5.09836
-0.182922 -5.12577 -5.12577
-0.183876 -5.18157 -5.18157
-0.0897353 -5.18249 -5.18249
-0.0890086 -5.12669 -5.12669
-0.1834 -5.15366 -5.15366
-0.136801 -5.18202 -5.18202
-0.0893719 -5.15457 -5.15457
-0.135961 -5.12622 -5.12622
-0.136381 -5.1541 -5.1541
-0.183876 -5.18157 -5.18157
-0.184826 -5.23751 -5.23751
-0.0904623 -5.23843 -5.23843
-0.0897353 -5.18249 -5.18249
-0.184352 -5.20952 -5.20952
-0.13764 -5.23796 -5.23796
-0.0900988 -5.21045 -5.21045
-0.136801 -5.18202 -5.18202
-0.137221 -5.20997 -5.20997
-0.184826 -5.23751 -5.23751
-0.18577 -5.29357 -5.29357
-0.0911897 -5.2945 -5.2945
-0.0904623 -5.23843 -5.23843
-0.185299 -5.26552 -5.26552
-0.138475 -5.29402 -5.29402
-0.090826 -5.26645 -5.26645
-0.13764 -5.23796 -5.23796
-0.138058 -5.26597 -5.26597
-0.18577 -5.29357 -5.29357
-0.18671 -5.34976 -5.34976
-0.0919173 -5.3507 -5.3507
-0.0911897 -5.2945 -5.2945
-0.186241 -5.32165 -5.32165
-0.139309 -5.35022 -5.35022
-0.0915534 -5.32259 -5.32259
-0.138475 -5.29402 -5.29402
-0.138893 -5.3221 -5.3221
-0.18671 -5.34976 -5.34976
-0.187644 -5.40607 -5.40607
-0.0926451 -5.40702 -5.40702
-0.0919173 -5.3507 -5.3507
-0.187178 -5.3779 -5.3779
-0.14014 -5.40654 -5.40654
-0.0922811 -5.37885 -5.37885
-0.139309 -5.35022 -5.35022
-0.139725 -5.37836 -5.37836
-0.187644 -5.40607 -5.40607
-0.188574 -5.46251 -5.46251
-0.093373 -5.46347 -5.46347
-0.0926451 -5.40702 -5.40702
-0.18811 -5.43428 -5.43428
-0.140969 -5.46298 -5.46298
-0.093009 -5.43523 -5.43523
-0.14014 -5.40654 -5.40654
-0.140555 -5.43474 -5.43474
-0.188574 -5.46251 -5.46251
-0.189499 -5.51906 -5.51906
-0.094101 -5.52003 -5.52003
-0.093373 -5.46347 -5.46347
-0.189037 -5.49077 -5.49077
-0.141795 -5.51953 -5.51953
-0.093737 -5.49173 -5.49173
-0.140969 -5.46298 -5.46298
-0.141383 -5.49124 -5.49124
-0.189499 -5.51906 -5.51906
-0.190418 -5.57573 -5.57573
-0.0948289 -5.5767 -5.5767
-0.094101 -5.52003 -5.52003
-0.189959 -5.54738 -5.54738
-0.142619 -5.57621 -5.57621
-0.094465 -5.54835 -5.54835
-0.141795 -5.51953 -5.51953
-0.142208 -5.54786 -5.54786
-0.190418 -5.57573 -5.57573
-0.191333 -5.63251 -5.63251
-0.0955569 -5.63349 -5.63349
-0.0948289 -5.5767 -5.5767
-0.190876 -5.60411 -5.60411
-0.14344 -5.63299 -5.63299
-0.0951929 -5.60508 -5.60508
-0.142619 -5.57621 -5.57621
-0.14303 -5.60459 -5.60459
-0.191333 -5.63251 -5.63251
-0.192242 -5.68941 -5.68941
-0.0962847 -5.69039 -5.69039
-0.0955569 -5.63349 -5.63349
-0.191788 -5.66095 -5.66095
-0.144259 -5.68989 -5.68989
-0.0959208 -5.66193 -5.66193
-0.14344 -5.63299 -5.63299
-0.14385 -5.66143 -5.66143
-0.192242 -5.68941 -5.68941
-0.193146 -5.7464 -5.7464
-0.0970123 -5.74739 -5.74739
-0.0962847 -5.69039 -5.69039
-0.192695 -5.71789 -5.71789
-0.145075 -5.74689 -5.74689
-0.0966485 -5.71888 -5.71888
-0.144259 -5.68989 -5.68989
-0.144667 -5.71837 -5.71837
-0.193146 -5.7464 -5.7464
-0.194044 -5.8035 -5.8035
-0.0977397 -5.8045 -5.8045
-0.0970123 -5.74739 -5.74739
-0.193596 -5.77494 -5.77494
-0.145888 -5.80399 -5.80399
-0.0973761 -5.77593 -5.77593
-0.145075 -5.74689 -5.74689
-0.145481 -5.77543 -5.77543
-0.194044 -5.8035 -5.8035
-0.194937 -5.8607 -5.8607
-0.0984668 -5.8617 -5.8617
-0.0977397 -5.8045 -5.8045
-0.194492 -5.83209 -5.83209
-0.146698 -5.86119 -5.86119
-0.0981033 -5.83309 -5.83309
-0.145888 -5.80399 -5.80399
-0.146293 -5.83258 -5.83258
-0.194937 -5.8607 -5.8607
-0.195825 -5.918 -5.918
-0.0991935 -5.91901 -5.91901
-0.0984668 -5.8617 -5.8617
-0.195382 -5.88934 -5.88934
-0.147505 -5.91849 -5.91849
-0.0988302 -5.89034 -5.89034
-0.146698 -5.86119 -5.86119
-0.147102 -5.88983 -5.88983
-0.195825 -5.918 -5.918
-0.196707 -5.97539 -5.97539
-0.0999197 -5.9764 -5.9764
-0.0991935 -5.91901 -5.91901
-0.196267 -5.94668 -5.94668
-0.148309 -5.97589 -5.97589
-0.0995567 -5.94769 -5.94769
-0.147505 -5.91849 -5.91849
-0.147907 -5.94718 -5.94718
-0.196707 -5.97539 -5.97539
-0.197583 -6.03287 -6.03287
-0.100646 -6.03389 -6.03389
-0.0999197 -5.9764 -5.9764
-0.197146 -6.00412 -6.00412
-0.14911 -6.03337 -6.03337
-0.100283 -6.00514 -6.00514
-0.148309 -5.97589 -5.97589
-0.14871 -6.00462 -6.00462
-0.197583 -6.03287 -6.03287
-0.198454 -6.09044 -6.09044
-0.101371 -6.09147 -6.09147
-0.100646 -6.03389 -6.03389
-0.19802 -6.06164 -6.06164
-0.149908 -6.09094 -6.09094
-0.101008 -6.06267 -6.06267
-0.14911 -6.03337 -6.03337
-0.149509 -6.06215 -6.06215
-0.198454 -6.09044 -6.09044
-0.199319 -6.14809 -6.14809
-0.102095 -6.14913 -6.14913
-0.101371 -6.09147 -6.09147
-0.198887 -6.11926 -6.11926
-0.150703 -6.1486 -6.1486
-0.101733 -6.12029 -6.12029
-0.149908 -6.09094 -6.09094
-0.150306 -6.11976 -6.11976
-0.199319 -6.14809 -6.14809
-0.200178 -6.20583 -6.20583
-0.102819 -6.20687 -6.20687
-0.102095 -6.14913 -6.14913
-0.19975 -6.17695 -6.17695
-0.151494 -6.20634 -6.20634
-0.102457 -6.17799 -6.17799
-0.150703 -6.1486 -6.1486
-0.151099 -6.17746 -6.17746
-0.200178 -6.20583 -6.20583
-0.201032 -6.26364 -6.26364
-0.103542 -6.26469 -6.26469
-0.102819 -6.20687 -6.20687
-0.200606 -6.23473 -6.23473
-0.152283 -6.26416 -6.26416
-0.103181 -6.23577 -6.23577
-0.151494 -6.20634 -6.20634
-0.151889 -6.23524 -6.23524
-0.201032 -6.26364 -6.26364
-0.201879 -6.32154 -6.32154
-0.104264 -6.32259 -6.32259
-0.103542 -6.26469 -6.26469
-0.201456 -6.29258 -6.29258
-0.153067 -6.32205 -6.32205
-0.103903 -6.29363 -6.29363
-0.152283 -6.26416 -6.26416
-0.152675 -6.2931 -6.2931
-0.201879 -6.32154 -6.32154
-0.202721 -6.3795 -6.3795
-0.104986 -6.38055 -6.38055
-0.104264 -6.32259 -6.32259
-0.202301 -6.35051 -6.35051
-0.153849 -6.38002 -6.38002
-0.104625 -6.35156 -6.35156
-0.153067 -6.32205 -6.32205
-0.153459 -6.35103 -6.35103
-0.202721 -6.3795 -6.3795
-0.203556 -6.43753 -6.43753
-0.105706 -6.43859 -6.43859
-0.104986 -6.38055 -6.38055
-0.203139 -6.40851 -6.40851
-0.154627 -6.43806 -6.43806
-0.105346 -6.40957 -6.40957
-0.153849 -6.38002 -6.38002
-0.154238 -6.40903 -6.40903
-0.203556 -6.43753 -6.43753
-0.204385 -6.49563 -6.49563
-0.106426 -6.4967 -6.4967
-0.105706 -6.43859 -6.43859
-0.203971 -6.46657 -6.46657
-0.155401 -6.49616 -6.49616
-0.106066 -6.46764 -6.46764
-0.154627 -6.43806 -6.43806
-0.155014 -6.4671 -6.4671
-0.204385 -6.49563 -6.49563
-0.205208 -6.5538 -6.5538
-0.107144 -6.55487 -6.55487
-0.106426 -6.4967 -6.4967
-0.204797 -6.52471 -6.52471
-0.156172 -6.55433 -6.55433
-0.106785 -6.52578 -6.52578
-0.155401 -6.49616 -6.49616
-0.155787 -6.52523 -6.52523
-0.205208 -6.5538 -6.5538
-0.206025 -6.61202 -6.61202
-0.107861 -6.6131 -6.6131
-0.107144 -6.55487 -6.55487
-0.205617 -6.5829 -6.5829
-0.156938 -6.61255 -6.61255
-0.107502 -6.58398 -6.58398
-0.156172 -6.55433 -6.55433
-0.156555 -6.58343 -6.58343
-0.206025 -6.61202 -6.61202
-0.206835 -6.6703 -6.6703
-0.108577 -6.67138 -6.67138
-0.107861 -6.6131 -6.6131
-0.206431 -6.64116 -6.64116
-0.157701 -6.67084 -6.67084
-0.108219 -6.64223 -6.64223
-0.156938 -6.61255 -6.61255
-0.15732 -6.64169 -6.64169
-0.206835 -6.6703 -6.6703
-0.207639 -6.72864 -6.72864
-0.109291 -6.72973 -6.72973
-0.108577 -6.67138 -6.67138
-0.207238 -6.69947 -6.69947
-0.158461 -6.72918 -6.72918
-0.108934 -6.70055 -6.70055
-0.157701 -6.67084 -6.67084
-0.158082 -6.7 -6.7
-0.207639 -6.72864 -6.72864
-0.208436 -6.78703 -6.78703
-0.110004 -6.78812 -6.78812
-0.109291 -6.72973 -6.72973
-0.208038 -6.75783 -6.75783
-0.159216 -6.78757 -6.78757
-0.109648 -6.75892 -6.75892
-0.158461 -6.72918 -6.72918
-0.158839 -6.75837 -6.75837
-0.208436 -6.78703 -6.78703
-0.209227 -6.84547 -6.84547
-0.110716 -6.84656 -6.84656
-0.110004 -6.78812 -6.78812
-0.208833 -6.81624 -6.81624
-0.159967 -6.84601 -6.84601
-0.11036 -6.81733 -6.81733
-0.159216 -6.78757 -6.78757
-0.159592 -6.81678 -6.81678
-0.209227 -6.84547 -6.84547
-0.210011 -6.90395 -6.90395
-0.111426 -6.90505 -6.90505
-0.110716 -6.84656 -6.84656
-0.20962 -6.8747 -6.8747
-0.160715 -6.90449 -6.90449
-0.111071 -6.8758 -6.8758
-0.159967 -6.84601 -6.84601
-0.160341 -6.87525 -6.87525
-0.210011 -6.90395 -6.90395
-0.210789 -6.96247 -6.96247
-0.112135 -6.96358 -6.96358
-0.111426 -6.90505 -6.90505
-0.210401 -6.93321 -6.93321
-0.161458 -6.96302 -6.96302
-0.111781 -6.93431 -6.93431
-0.160715 -6.90449 -6.90449
-0.161087 -6.93375 -6.93375
-0.210789 -6.96247 -6.96247
-0.21156 -7.02104 -7.02104
-0.112842 -7.02215 -7.02215
-0.112135 -6.96358 -6.96358
-0.211175 -6.99175 -6.99175
-0.162197 -7.02159 -7.02159
-0.112489 -6.99286 -6.99286
-0.161458 -6.96302 -6.96302
-0.161828 -6.9923 -6.9923
-0.21156 -7.02104 -7.02104
-0.212324 -7.07964 -7.07964
-0.113547 -7.08075 -7.08075
-0.112842 -7.02215 -7.02215
-0.211942 -7.05034 -7.05034
-0.162931 -7.08019 -7.08019
-0.113195 -7.05144 -7.05144
-0.162197 -7.02159 -7.02159
-0.162564 -7.05089 -7.05089
-0.212324 -7.07964 -7.07964
-0.21308 -7.13828 -7.13828
-0.114251 -7.13939 -7.13939
-0.113547 -7.08075 -7.08075
-0.212703 -7.10895 -7.10895
-0.163661 -7.13883 -7.13883
-0.113899 -7.11007 -7.11007
-0.162931 -7.08019 -7.08019
-0.163297 -7.10951 -7.10951
-0.21308 -7.13828 -7.13828
-0.21383 -7.19694 -7.19694
-0.114952 -7.19806 -7.19806
-0.114251 -7.13939 -7.13939
-0.213456 -7.1676 -7.1676
-0.164387 -7.1975 -7.1975
-0.114602 -7.16872 -7.16872
-0.163661 -7.13883 -7.13883
-0.164025 -7.16816 -7.16816
-0.21383 -7.19694 -7.19694
-0.214573 -7.25563 -7.25563
-0.115651 -7.25676 -7.25676
-0.114952 -7.19806 -7.19806
-0.214202 -7.22628 -7.22628
-0.165107 -7.25619 -7.25619
-0.115302 -7.2274 -7.2274
-0.164387 -7.1975 -7.1975
-0.164748 -7.22684 -7.22684
-0.214573 -7.25563 -7.25563
-0.215307 -7.31435 -7.31435
-0.116348 -7.31548 -7.31548
-0.115651 -7.25676 -7.25676
-0.214941 -7.28499 -7.28499
-0.165823 -7.31491 -7.31491
-0.116 -7.28611 -7.28611
-0.165107 -7.25619 -7.25619
-0.165466 -7.28555 -7.28555
-0.215307 -7.31435 -7.31435
-0.216033 -7.37309 -7.37309
-0.117043 -7.37422 -7.37422
-0.116348 -7.31548 -7.31548
-0.215671 -7.34372 -7.34372
-0.166533 -7.37365 -7.37365
-0.116696 -7.34485 -7.34485
-0.165823 -7.31491 -7.31491
-0.166179 -7.34428 -7.34428
-0.216033 -7.37309 -7.37309
-0.21675 -7.43185 -7.43185
-0.117734 -7.43298 -7.43298
-0.117043 -7.37422 -7.37422
-0.216393 -7.40247 -7.40247
-0.167237 -7.43242 -7.43242
-0.117389 -7.4036 -7.4036
-0.166533 -7.37365 -7.37365
-0.166885 -7.40303 -7.40303
-0.21675 -7.43185 -7.43185
-0.217458 -7.49062 -7.49062
-0.118422 -7.49176 -7.49176
-0.117734 -7.43298 -7.43298
-0.217105 -7.46123 -7.46123
-0.167934 -7.49119 -7.49119
-0.118079 -7.46237 -7.46237
-0.167237 -7.43242 -7.43242
-0.167586 -7.4618 -7.4618
-0.217458 -7.49062 -7.49062
-0.218155 -7.54941 -7.54941
-0.119108 -7.55055 -7.55055
-0.118422 -7.49176 -7.49176
-0.217807 -7.52002 -7.52002
-0.168624 -7.54998 -7.54998
-0.118765 -7.52116 -7.52116
-0.167934 -7.49119 -7.49119
-0.16828 -7.52059 -7.52059
-0.218155 -7.54941 -7.54941
-0.218844 -7.60821 -7.60821
-0.119792 -7.60934 -7.60934
-0.119108 -7.55055 -7.55055
-0.2185 -7.57881 -7.57881
-0.169311 -7.60878 -7.60878
-0.11945 -7.57995 -7.57995
-0.168624 -7.54998 -7.54998
-0.168968 -7.57938 -7.57938
-0.218844 -7.60821 -7.60821
-0.219532 -7.66701 -7.66701
-0.120474 -7.66812 -7.66812
-0.119792 -7.60934 -7.60934
-0.219188 -7.63761 -7.63761
-0.169997 -7.66756 -7.66756
-0.120133 -7.63873 -7.63873
-0.169311 -7.60878 -7.60878
-0.169654 -7.63817 -7.63817
-0.219532 -7.66701 -7.66701
-0.220225 -7.72578 -7.72578
-0.121159 -7.72686 -7.72686
-0.120474 -7.66812 -7.66812
-0.219878 -7.6964 -7.6964
-0.170686 -7.72631 -7.72631
-0.120817 -7.6975 -7.6975
-0.169997 -7.66756 -7.66756
-0.170341 -7.69694 -7.69694
0 0 0
-0.000440493 7.14464e-05 7.14464e-05
0.000435936 7.05154e-05 7.05154e-05
0 0 0
-0.000219294 0.000143425 0.000143425
-2.28915e-06 9.70617e-05 9.70617e-05
0.000216949 0.000142902 0.000142902
0 0 0
-1.18342e-06 0.000154233 0.000154233
-0.000440493 7.14464e-05 7.14464e-05
-0.00091718 -0.000673358 -0.000673358
0.000908246 -0.000675126 -0.000675126
0.000435936 7.05154e-05 7.05154e-05
-0.000674408 -0.000205392 -0.000205392
-4.47195e-06 -0.000631289 -0.000631289
0.000667675 -0.00020673 -0.00020673
-2.28915e-06 9.70617e-05 9.70617e-05
-3.37578e-06 -0.000169886 -0.000169886
-0.00091718 -0.000673358 -0.000673358
-0.00141104 -0.00213417 -0.00213417
0.00139743 -0.00213689 -0.00213689
0.000908246 -0.000675126 -0.000675126
-0.00116276 -0.00131912 -0.00131912
-6.78541e-06 -0.00208004 -0.00208004
0.00115155 -0.00132135 -0.00132135
-4.47195e-06 -0.000631289 -0.000631289
-5.59981e-06 -0.0012706 -0.0012706
-0.00141104 -0.00213417 -0.00213417
-0.00191585 -0.00424574 -0.00424574
0.00189693 -0.00424956 -0.00424956
0.00139743 -0.00213689 -0.00213689
-0.0016627 -0.00311155 -0.00311155
-9.42177e-06 -0.00418622 -0.00418622
0.00164653 -0.00311481 -0.00311481
-6.78541e-06 -0.00208004 -0.00208004
-8.05378e-06 -0.00305394 -0.00305394
-0.00191585 -0.00424574 -0.00424574
-0.0024203 -0.00696773 -0.00696773
0.00239513 -0.00697281 -0.00697281
0.00189693 -0.00424956 -0.00424956
-0.00216841 -0.00553204 -0.00553204
-1.25226e-05 -0.00690653 -0.00690653
0.00214651 -0.00553647 -0.00553647
-9.42177e-06 -0.00418622 -0.00418622
-1.0905e-05 -0.00547135 -0.00547135
-0.0024203 -0.00696773 -0.00696773
-0.0029223 -0.0102796 -0.0102796
0.00288968 -0.0102861 -0.0102861
0.00239513 -0.00697281 -0.00697281
-0.00267173 -0.00855073 -0.00855073
-1.62371e-05 -0.0102191 -0.0102191
0.00264301 -0.0085565 -0.0085565
-1.25226e-05 -0.00690653 -0.00690653
-1.42939e-05 -0.00848969 -0.00848969
-0.0029223 -0.0102796 -0.0102796
-0.00341976 -0.0141704 -0.0141704
0.00337816 -0.0141785 -0.0141785
0.00288968 -0.0102861 -0.0102861
-0.00317159 -0.012153 -0.012153
-2.07107e-05 -0.0141114 -0.0141114
0.00313469 -0.0121603 -0.0121603
-1.62371e-05 -0.0102191 -0.0102191
-1.83698e-05 -0.0120932 -0.0120932
-0.00341976 -0.0141704 -0.0141704
-0.00391353 -0.018635 -0.018635
0.00386114 -0.0186448 -0.0186448
0.00337816 -0.0141785 -0.0141785
-0.00366706 -0.0163312 -0.0163312
-2.60894e-05 -0.0185776 -0.0185776
0.00362031 -0.0163401 -0.0163401
-2.07107e-05 -0.0141114 -0.0141114
-2.32781e-05 -0.016273 -0.016273
-0.00391353 -0.018635 -0.018635
-0.00440407 -0.0236698 -0.0236698
0.00433881 -0.0236815 -0.0236815
0.00386114 -0.0186448 -0.0186448
-0.00415916 -0.0210813 -0.0210813
-3.25108e-05 -0.0236141 -0.0236141
0.00410061 -0.021092 -0.021092
-2.60894e-05 -0.0185776 -0.0185776
-2.91614e-05 -0.0210248 -0.0210248
-0.00440407 -0.0236698 -0.0236698
-0.00489224 -0.0292722 -0.0292722
0.00481175 -0.0292859 -0.0292859
0.00433881 -0.0236815 -0.0236815
-0.00464842 -0.0264002 -0.0264002
-4.01063e-05 -0.0292182 -0.0292182
0.00457585 -0.0264129 -0.0264129
-3.25108e-05 -0.0236141 -0.0236141
-3.61538e-05 -0.0263453 -0.0263453
-0.00489224 -0.0292722 -0.0292722
-0.00537849 -0.0354397 -0.0354397
0.00528018 -0.0354556 -0.0354556
0.00481175 -0.0292859 -0.0292859
-0.00513557 -0.0322855 -0.0322855
-4.90003e-05 -0.0353872 -0.0353872
0.00504651 -0.0323003 -0.0323003
-4.01063e-05 -0.0292182 -0.0292182
-4.43834e-05 -0.0322322 -0.0322322
-0.00537849 -0.0354397 -0.0354397
-0.00586327 -0.0421695 -0.0421695
0.0057443 -0.0421878 -0.0421878
0.00528018 -0.0354556 -0.0354556
-0.00562104 -0.0387344 -0.0387344
-5.93125e-05 -0.0421187 -0.0421187
0.00551278 -0.0387516 -0.0387516
-4.90003e-05 -0.0353872 -0.0353872
-5.39718e-05 -0.0386828 -0.0386828
-0.00586327 -0.0421695 -0.0421695
-0.00634684 -0.0494588 -0.0494588
0.00620415 -0.0494798 -0.0494798
0.0057443 -0.0421878 -0.0421878
-0.00610519 -0.0457444 -0.0457444
-7.11583e-05 -0.0494097 -0.0494097
0.00597476 -0.045764 -0.045764
-5.93125e-05 -0.0421187 -0.0421187
-6.50366e-05 -0.0456944 -0.0456944
-0.00634684 -0.0494588 -0.0494588
-0.0068294 -0.057305 -0.057305
0.0066597 -0.0573288 -0.0573288
0.00620415 -0.0494798 -0.0494798
-0.00658823 -0.0533125 -0.0533125
-8.46506e-05 -0.0572576 -0.0572576
0.00643247 -0.0533349 -0.0533349
-7.11583e-05 -0.0494097 -0.0494097
-7.76917e-05 -0.0532642 -0.0532642
-0.0068294 -0.057305 -0.057305
-0.00731113 -0.0657048 -0.0657048
0.0071109 -0.0657316 -0.0657316
0.0066597 -0.0573288 -0.0573288
-0.00707036 -0.0614359 -0.0614359
-9.98998e-05 -0.0656593 -0.0656593
0.00688585 -0.0614611 -0.0614611
-8.46506e-05 -0.0572576 -0.0572576
-9.20488e-05 -0.0613894 -0.0613894
-0.00731113 -0.0657048 -0.0657048
-0.00779214 -0.0746555 -0.0746555
0.00755766 -0.0746855 -0.0746855
0.0071109 -0.0657316 -0.0657316
-0.00755171 -0.0701115 -0.0701115
-0.000117014 -0.0746119 -0.0746119
0.00733484 -0.0701399 -0.0701399
-9.98998e-05 -0.0656593 -0.0656593
-0.000108217 -0.070067 -0.070067
-0.00779214 -0.0746555 -0.0746555
-0.00827256 -0.084154 -0.084154
0.00799989 -0.0841874 -0.0841874
0.00755766 -0.0746855 -0.0746855
-0.00803242 -0.0793365 -0.0793365
-0.000136101 -0.0841125 -0.0841125
0.00777935 -0.0793682 -0.0793682
-0.000117014 -0.0746119 -0.0746119
-0.000126305 -0.0792939 -0.0792939
-0.00827256 -0.084154 -0.084154
-0.0087525 -0.0941973 -0.0941973
0.00843748 -0.0942343 -0.0942343
0.00799989 -0.0841874 -0.0841874
-0.00851258 -0.0891078 -0.0891078
-0.000157265 -0.0941579 -0.0941579
0.00821927 -0.0891429 -0.0891429
-0.000136101 -0.0841125 -0.0841125
-0.000146417 -0.0890672 -0.0890672
-0.0087525 -0.0941973 -0.0941973
-0.00923207 -0.104782 -0.104782
0.00887033 -0.104823 -0.104823
0.00843748 -0.0942343 -0.0942343
-0.00899232 -0.0994223 -0.0994223
-0.00018061 -0.104745 -0.104745
0.0086545 -0.0994611 -0.0994611
-0.000157265 -0.0941579 -0.0941579
-0.000168659 -0.0993839 -0.0993839
-0.00923207 -0.104782 -0.104782
-0.00971136 -0.115906 -0.115906
0.00929834 -0.115951 -0.115951
0.00887033 -0.104823 -0.104823
-0.00947174 -0.110277 -0.110277
-0.000206238 -0.115871 -0.115871
0.00908495 -0.11032 -0.11032
-0.00018061 -0.104745 -0.104745
-0.000193133 -0.110241 -0.110241
-0.00971136 -0.115906 -0.115906
-0.0101905 -0.127566 -0.127566
0.00972142 -0.127614 -0.127614
0.00929834 -0.115951 -0.115951
-0.00995093 -0.121669 -0.121669
-0.000234249 -0.127533 -0.127533
0.0095105 -0.121716 -0.121716
-0.000206238 -0.115871 -0.115871
-0.00021994 -0.121635 -0.121635
-0.0101905 -0.127566 -0.127566
-0.0106695 -0.139758 -0.139758
0.0101395 -0.139811 -0.139811
0.00972142 -0.127614 -0.127614
-0.01043 -0.133595 -0.133595
-0.000264741 -0.139728 -0.139728
0.00993107 -0.133646 -0.133646
-0.000234249 -0.127533 -0.127533
-0.000249179 -0.133564 -0.133564
-0.0106695 -0.139758 -0.139758
-0.0111486 -0.15248 -0.15248
0.0105524 -0.152537 -0.152537
0.0101395 -0.139811 -0.139811
-0.010909 -0.146053 -0.146053
-0.000297811 -0.152452 -0.152452
0.0103466 -0.146108 -0.146108
-0.000264741 -0.139728 -0.139728
-0.000280948 -0.146024 -0.146024
-0.0111486 -0.15248 -0.15248
-0.0116278 -0.165728 -0.165728
0.01096 -0.16579 -0.16579
0.0105524 -0.152537 -0.152537
-0.0113881 -0.159039 -0.159039
-0.000333554 -0.165703 -0.165703
0.0107569 -0.159098 -0.159098
-0.000297811 -0.152452 -0.152452
-0.000315343 -0.159012 -0.159012
-0.0116278 -0.165728 -0.165728
-0.0121071 -0.179501 -0.179501
0.0113624 -0.179567 -0.179567
0.01096 -0.16579 -0.16579
-0.0118674 -0.172549 -0.172549
-0.000372062 -0.179478 -0.179478
0.0111619 -0.172613 -0.172613
-0.000333554 -0.165703 -0.165703
-0.000352457 -0.172526 -0.172526
-0.0121071 -0.179501 -0.179501
-0.0125868 -0.193793 -0.193793
0.0117593 -0.193865 -0.193865
0.0113624 -0.179567 -0.179567
-0.0123469 -0.186582 -0.186582
-0.000413427 -0.193774 -0.193774
0.0115615 -0.186651 -0.186651
-0.000372062 -0.179478 -0.179478
-0.000392382 -0.186561 -0.186561
-0.0125868 -0.193793 -0.193793
-0.0130669 -0.208604 -0.208604
0.0121508 -0.20868 -0.20868
0.0117593 -0.193865 -0.193865
-0.0128268 -0.201134 -0.201134
-0.000457738 -0.208587 -0.208587
0.0119557 -0.201208 -0.201208
-0.000413427 -0.193774 -0.193774
-0.000435209 -0.201116 -0.201116
-0.0130669 -0.208604 -0.208604
-0.0135475 -0.223929 -0.223929
0.0125366 -0.22401 -0.22401
0.0121508 -0.20868 -0.20868
-0.0133071 -0.216202 -0.216202
-0.000505082 -0.223915 -0.223915
0.0123444 -0.216281 -0.216281
-0.000457738 -0.208587 -0.208587
-0.000481025 -0.216187 -0.216187
-0.0135475 -0.223929 -0.223929
-0.0140286 -0.239765 -0.239765
0.0129168 -0.239852 -0.239852
0.0125366 -0.22401 -0.22401
-0.0137879 -0.231783 -0.231783
-0.000555545 -0.239754 -0.239754
0.0127274 -0.231867 -0.231867
-0.000505082 -0.223915 -0.223915
-0.000529918 -0.231771 -0.231771
-0.0140286 -0.239765 -0.239765
-0.0145103 -0.25611 -0.25611
0.0132912 -0.256202 -0.256202
0.0129168 -0.239852 -0.239852
-0.0142694 -0.247874 -0.247874
-0.00060921 -0.256102 -0.256102
0.0131047 -0.247964 -0.247964
-0.000555545 -0.239754 -0.239754
-0.000581972 -0.247865 -0.247865
-0.0145103 -0.25611 -0.25611
-0.0149928 -0.27296 -0.27296
0.0136598 -0.273058 -0.273058
0.0132912 -0.256202 -0.256202
-0.0147515 -0.264472 -0.264472
-0.000666161 -0.272955 -0.272955
0.0134762 -0.264567 -0.264567
-0.00060921 -0.256102 -0.256102
-0.00063727 -0.264466 -0.264466
-0.0149928 -0.27296 -0.27296
-0.0154761 -0.290313 -0.290313
0.0140224 -0.290417 -0.290417
0.0136598 -0.273058 -0.273058
-0.0152344 -0.281574 -0.281574
-0.000726476 -0.290311 -0.290311
0.0138418 -0.281675 -0.281675
-0.000666161 -0.272955 -0.272955
-0.000695893 -0.281571 -0.281571
-0.0154761 -0.290313 -0.290313
-0.0159603 -0.308165 -0.308165
0.0143791 -0.308275 -0.308275
0.0140224 -0.290417 -0.290417
-0.0157181 -0.299177 -0.299177
-0.000790234 -0.308167 -0.308167
0.0142015 -0.299283 -0.299283
-0.000726476 -0.290311 -0.290311
-0.000757919 -0.299177 -0.299177
-0.0159603 -0.308165 -0.308165
-0.0164455 -0.326514 -0.326514
0.0147296 -0.326629 -0.326629
0.0143791 -0.308275 -0.308275
-0.0162028 -0.317278 -0.317278
-0.000857511 -0.326519 -0.326519
0.0145551 -0.31739 -0.31739
-0.000790234 -0.308167 -0.308167
-0.000823428 -0.317281 -0.317281
-0.0164455 -0.326514 -0.326514
-0.0169316 -0.345356 -0.345356
0.0150741 -0.345477 -0.345477
0.0147296 -0.326629 -0.326629
-0.0166884 -0.335873 -0.335873
-0.000928383 -0.345364 -0.345364
0.0149026 -0.335992 -0.335992
-0.000857511 -0.326519 -0.326519
-0.000892493 -0.33588 -0.33588
-0.0169316 -0.345356 -0.345356
-0.0174189 -0.364688 -0.364688
0.0154123 -0.364816 -0.364816
0.0150741 -0.345477 -0.345477
-0.0171751 -0.354961 -0.354961
-0.00100292 -0.3647 -0.3647
0.0152439 -0.355085 -0.355085
-0.000928383 -0.345364 -0.345364
-0.00096519 -0.354971 -0.354971
-0.0174189 -0.364688 -0.364688
-0.0179074 -0.384507 -0.384507
0.0157442 -0.384641 -0.384641
0.0154123 -0.364816 -0.364816
-0.017663 -0.374537 -0.374537
-0.0010812 -0.384523 -0.384523
0.015579 -0.374668 -0.374668
-0.00100292 -0.3647 -0.3647
-0.00104159 -0.37455 -0.37455
-0.0179074 -0.384507 -0.384507
-0.0183971 -0.404811 -0.404811
0.0160697 -0.404952 -0.404952
0.0157442 -0.384641 -0.384641
-0.0181521 -0.394599 -0.394599
-0.00116329 -0.40483 -0.40483
0.0159077 -0.394736 -0.394736
-0.0010812 -0.384523 -0.384523
-0.00112176 -0.394616 -0.394616
-0.0183971 -0.404811 -0.404811
-0.0188882 -0.425596 -0.425596
0.0163888 -0.425743 -0.425743
0.0160697 -0.404952 -0.404952
-0.0186425 -0.415144 -0.415144
-0.00124925 -0.425618 -0.425618
0.0162301 -0.415287 -0.415287
-0.00116329 -0.40483 -0.40483
-0.00120578 -0.415164 -0.415164
-0.0188882 -0.425596 -0.425596
-0.0193806 -0.446859 -0.446859
0.0167014 -0.447013 -0.447013
0.0163888 -0.425743 -0.425743
-0.0191342 -0.436168 -0.436168
-0.00133915 -0.446885 -0.446885
0.0165459 -0.436319 -0.436319
-0.00124925 -0.425618 -0.425618
-0.0012937 -0.436192 -0.436192
-0.0193806 -0.446859 -0.446859
-0.0198745 -0.468598 -0.468598
0.0170075 -0.468758 -0.468758
0.0167014 -0.447013 -0.447013
-0.0196274 -0.457669 -0.457669
-0.00143306 -0.468628 -0.468628
0.0168553 -0.457827 -0.457827
-0.00133915 -0.446885 -0.446885
-0.0013856 -0.457697 -0.457697
-0.0198745 -0.468598 -0.468598
-0.0203699 -0.490808 -0.490808
0.0173069 -0.490976 -0.490976
0.0170075 -0.468758 -0.468758
-0.020122 -0.479644 -0.479644
-0.00153104 -0.490842 -0.490842
0.017158 -0.479808 -0.479808
-0.00143306 -0.468628 -0.468628
-0.00148154 -0.479676 -0.479676
-0.0203699 -0.490808 -0.490808
-0.0208669 -0.513488 -0.513488
0.0175996 -0.513663 -0.513663
0.0173069 -0.490976 -0.490976
-0.0206182 -0.50209 -0.50209
-0.00163315 -0.513525 -0.513525
0.0174541 -0.502261 -0.502261
-0.00153104 -0.490842 -0.490842
-0.00158157 -0.502125 -0.502125
-0.0208669 -0.513488 -0.513488
-0.0213654 -0.536634 -0.536634
0.0178856 -0.536816 -0.536816
0.0175996 -0.513663 -0.513663
-0.0211159 -0.525003 -0.525003
-0.00173944 -0.536675 -0.536675
0.0177435 -0.525181 -0.525181
-0.00163315 -0.513525 -0.513525
-0.00168577 -0.525042 -0.525042
-0.0213654 -0.536634 -0.536634
-0.0218657 -0.560243 -0.560243
0.0181648 -0.560432 -0.560432
0.0178856 -0.536816 -0.536816
-0.0216154 -0.548381 -0.548381
-0.00184999 -0.560288 -0.560288
0.0180261 -0.548566 -0.548566
-0.00173944 -0.536675 -0.536675
-0.00179418 -0.548424 -0.548424
-0.0218657 -0.560243 -0.560243
-0.0223678 -0.584312 -0.584312
0.0184371 -0.584508 -0.584508
0.0181648 -0.560432 -0.560432
-0.0221165 -0.57222 -0.57222
-0.00196483 -0.584361 -0.584361
0.0183018 -0.572412 -0.572412
-0.00184999 -0.560288 -0.560288
-0.00190687 -0.572267 -0.572267
-0.0223678 -0.584312 -0.584312
-0.0228716 -0.608838 -0.608838
0.0187026 -0.609041 -0.609041
0.0184371 -0.584508 -0.584508
-0.0226195 -0.596518 -0.596518
-0.00208403 -0.608891 -0.608891
0.0185707 -0.596718 -0.596718
-0.00196483 -0.584361 -0.584361
-0.00202388 -0.596569 -0.596569
-0.0228716 -0.608838 -0.608838
-0.0233773 -0.633818 -0.633818
0.018961 -0.634029 -0.634029
0.0187026 -0.609041 -0.609041
-0.0231242 -0.621271 -0.621271
-0.00220765 -0.633875 -0.633875
0.0188327 -0.621478 -0.621478
-0.00208403 -0.608891 -0.608891
-0.00214529 -0.621326 -0.621326
-0.0233773 -0.633818 -0.633818
-0.0238849 -0.659249 -0.659249
0.0192124 -0.659467 -0.659467
0.018961 -0.634029 -0.634029
-0.0236308 -0.646477 -0.646477
-0.00233572 -0.65931 -0.65931
0.0190876 -0.646692 -0.646692
-0.00220765 -0.633875 -0.633875
-0.00227112 -0.646536 -0.646536
-0.0238849 -0.659249 -0.659249
-0.0243944 -0.685128 -0.685128
0.0194568 -0.685354 -0.685354
0.0192124 -0.659467 -0.659467
-0.0241394 -0.672132 -0.672132
-0.0024683 -0.685193 -0.685193
0.0193355 -0.672355 -0.672355
-0.00233572 -0.65931 -0.65931
-0.00240144 -0.672196 -0.672196
-0.0243944 -0.685128 -0.685128
-0.024906 -0.711452 -0.711452
0.0196941 -0.711685 -0.711685
0.0194568 -0.685354 -0.685354
-0.0246499 -0.698234 -0.698234
-0.00260544 -0.711521 -0.711521
0.0195763 -0.698464 -0.698464
-0.0024683 -0.685193 -0.685193
-0.0025363 -0.698302 -0.698302
-0.024906 -0.711452 -0.711452
-0.0254195 -0.738217 -0.738217
0.0199242 -0.738459 -0.738459
0.0196941 -0.711685 -0.711685
-0.0251625 -0.724779 -0.724779
-0.00274718 -0.738291 -0.738291
0.01981 -0.725017 -0.725017
-0.00260544 -0.711521 -0.711521
-0.00267573 -0.724851 -0.724851
-0.0254195 -0.738217 -0.738217
-0.0259352 -0.765422 -0.765422
0.020147 -0.765671 -0.765671
0.0199242 -0.738459 -0.738459
-0.0256771 -0.751765 -0.751765
-0.00289357 -0.7655 -0.7655
0.0200365 -0.752011 -0.752011
-0.00274718 -0.738291 -0.738291
-0.00281979 -0.751841 -0.751841
-0.0259352 -0.765422 -0.765422
-0.026453 -0.793062 -0.793062
0.0203627 -0.79332 -0.79332
0.020147 -0.765671 -0.765671
-0.0261939 -0.779188 -0.779188
-0.00304466 -0.793145 -0.793145
0.0202558 -0.779441 -0.779441
-0.00289357 -0.7655 -0.7655
-0.00296853 -0.779268 -0.779268
-0.026453 -0.793062 -0.793062
-0.026973 -0.821136 -0.821136
0.020571 -0.821401 -0.821401
0.0203627 -0.79332 -0.79332
-0.0267128 -0.807045 -0.807045
-0.00320047 -0.821222 -0.821222
0.0204678 -0.807307 -0.807307
-0.00304466 -0.793145 -0.793145
-0.00312197 -0.80713 -0.80713
-0.026973 -0.821136 -0.821136
-0.0274952 -0.849639 -0.849639
0.0207721 -0.849912 -0.849912
0.020571 -0.821401 -0.821401
-0.0272338 -0.835334 -0.835334
-0.00336106 -0.84973 -0.84973
0.0206725 -0.835603 -0.835603
-0.00320047 -0.821222 -0.821222
-0.00328017 -0.835423 -0.835423
-0.0274952 -0.849639 -0.849639
-0.0280197 -0.878569 -0.878569
0.0209657 -0.87885 -0.87885
0.0207721 -0.849912 -0.849912
-0.0277572 -0.864051 -0.864051
-0.00352646 -0.878664 -0.878664
0.0208698 -0.864328 -0.864328
-0.00336106 -0.84973 -0.84973
-0.00344316 -0.864144 -0.864144
-0.0280197 -0.878569 -0.878569
-0.0285464 -0.907922 -0.907922
0.021152 -0.908212 -0.908212
0.0209657 -0.87885 -0.87885
-0.0282828 -0.893193 -0.893193
-0.00369671 -0.908022 -0.908022
0.0210598 -0.893478 -0.893478
-0.00352646 -0.878664 -0.878664
-0.00361098 -0.89329 -0.89329
-0.0285464 -0.907922 -0.907922
-0.0290755 -0.937696 -0.937696
0.0213308 -0.937995 -0.937995
0.021152 -0.908212 -0.908212
-0.0288107 -0.922757 -0.922757
-0.00387184 -0.937801 -0.937801
0.0212423 -0.923051 -0.923051
-0.00369671 -0.908022 -0.908022
-0.00378366 -0.922859 -0.922859
-0.0290755 -0.937696 -0.937696
-0.029607 -0.967888 -0.967888
0.0215021 -0.968195 -0.968195
0.0213308 -0.937995 -0.937995
-0.0293409 -0.95274 -0.95274
-0.00405189 -0.967997 -0.967997
0.0214174 -0.953043 -0.953043
-0.00387184 -0.937801 -0.937801
-0.00396125 -0.952847 -0.952847
-0.029607 -0.967888 -0.967888
-0.0301408 -0.998495 -0.998495
0.0216659 -0.99881 -0.99881
0.0215021 -0.968195 -0.968195
-0.0298736 -0.98314 -0.98314
-0.00423689 -0.998608 -0.998608
0.021585 -0.983451 -0.983451
-0.00405189 -0.967997 -0.967997
-0.00414377 -0.983251 -0.983251
-0.0301408 -0.998495 -0.998495
-0.0306771 -1.02951 -1.02951
0.0218222 -1.02984 -1.02984
0.0216659 -0.99881 -0.99881
-0.0304086 -1.01395 -1.01395
-0.00442687 -1.02963 -1.02963
0.021745 -1.01427 -1.01427
-0.00423689 -0.998608 -0.998608
-0.00433126 -1.01407 -1.01407
-0.0306771 -1.02951 -1.02951
-0.0312158 -1.06094 -1.06094
0.0219709 -1.06127 -1.06127
0.0218222 -1.02984 -1.02984
-0.0309461 -1.04518 -1.04518
-0.00462186 -1.06106 -1.06106
0.0218975 -1.0455 -1.0455
-0.00442687 -1.02963 -1.02963
-0.00452374 -1.0453 -1.0453
-0.0312158 -1.06094 -1.06094
-0.031757 -1.09277 -1.09277
0.0221121 -1.09311 -1.09311
0.0219709 -1.06127 -1.06127
-0.0314861 -1.07681 -1.07681
-0.00482189 -1.0929 -1.0929
0.0220425 -1.07714 -1.07714
-0.00462186 -1.06106 -1.06106
-0.00472124 -1.07693 -1.07693
-0.031757 -1.09277 -1.09277
-0.0323007 -1.12501 -1.12501
0.0222456 -1.12536 -1.12536
0.0221121 -1.09311 -1.09311
-0.0320285 -1.10884 -1.10884
-0.00502698 -1.12514 -1.12514
0.0221798 -1.10918 -1.10918
-0.00482189 -1.0929 -1.0929
-0.0049238 -1.10897 -1.10897
-0.0323007 -1.12501 -1.12501
-0.0328469 -1.15764 -1.15764
0.0223715 -1.158 -1.158
0.0222456 -1.12536 -1.12536
-0.0325735 -1.14127 -1.14127
-0.00523716 -1.15778 -1.15778
0.0223095 -1.14163 -1.14163
-0.00502698 -1.12514 -1.12514
-0.00513143 -1.14141 -1.14141
-0.0328469 -1.15764 -1.15764
-0.0333957 -1.19067 -1.19067
0.0224896 -1.19104 -1.19104
0.0223715 -1.158 -1.158
-0.033121 -1.17411 -1.17411
-0.00545246 -1.19081 -1.19081
0.0224315 -1.17447 -1.17447
-0.00523716 -1.15778 -1.15778
-0.00534417 -1.17425 -1.17425
-0.0333957 -1.19067 -1.19067
-0.033947 -1.2241 -1.2241
0.0226002 -1.22447 -1.22447
0.0224896 -1.19104 -1.19104
-0.033671 -1.20734 -1.20734
-0.00567289 -1.22424 -1.22424
0.0225459 -1.20771 -1.20771
-0.00545246 -1.19081 -1.19081
-0.00556203 -1.20748 -1.20748
-0.033947 -1.2241 -1.2241
-0.034501 -1.25791 -1.25791
0.0227029 -1.2583 -1.2583
0.0226002 -1.22447 -1.22447
-0.0342237 -1.24096 -1.24096
-0.00589847 -1.25806 -1.25806
0.0226525 -1.24134 -1.24134
-0.00567289 -1.22424 -1.22424
-0.00578503 -1.2411 -1.2411
-0.034501 -1.25791 -1.25791
-0.0350576 -1.29211 -1.29211
0.022798 -1.29251 -1.29251
0.0227029 -1.2583 -1.2583
-0.034779 -1.27497 -1.27497
-0.00612924 -1.29227 -1.29227
0.0227514 -1.27535 -1.27535
-0.00589847 -1.25806 -1.25806
-0.00601321 -1.27512 -1.27512
-0.0350576 -1.29211 -1.29211
-0.0356168 -1.3267 -1.3267
0.0228853 -1.3271 -1.3271
0.022798 -1.29251 -1.29251
-0.0353369 -1.30936 -1.30936
-0.00636519 -1.32686 -1.32686
0.0228426 -1.30976 -1.30976
-0.00612924 -1.29227 -1.29227
-0.00624656 -1.30952 -1.30952
-0.0356168 -1.3267 -1.3267
-0.0361787 -1.36167 -1.36167
0.0229649 -1.36208 -1.36208
0.0228853 -1.3271 -1.3271
-0.0358974 -1.34414 -1.34414
-0.00660636 -1.36183 -1.36183
0.0229261 -1.34454 -1.34454
-0.00636519 -1.32686 -1.32686
-0.00648512 -1.3443 -1.3443
-0.0361787 -1.36167 -1.36167
-0.0367433 -1.39702 -1.39702
0.0230366 -1.39743 -1.39743
0.0229649 -1.36208 -1.36208
-0.0364606 -1.3793 -1.3793
-0.00685275 -1.39718 -1.39718
0.0230017 -1.37971 -1.37971
-0.00660636 -1.36183 -1.36183
-0.0067289 -1.37946 -1.37946
-0.0367433 -1.39702 -1.39702
-0.0373105 -1.43274 -1.43274
0.0231006 -1.43316 -1.43316
0.0230366 -1.39743 -1.39743
-0.0370265 -1.41483 -1.41483
-0.00710438 -1.43291 -1.43291
0.0230696 -1.41525 -1.41525
-0.00685275 -1.39718 -1.39718
-0.00697791 -1.415 -1.415
-0.0373105 -1.43274 -1.43274
-0.0378804 -1.46883 -1.46883
0.0231567 -1.46927 -1.46927
0.0231006 -1.43316 -1.43316
-0.0375951 -1.45074 -1.45074
-0.00736126 -1.46901 -1.46901
0.0231296 -1.45117 -1.45117
-0.00710438 -1.43291 -1.43291
-0.00723216 -1.45091 -1.45091
-0.0378804 -1.46883 -1.46883
-0.038453 -1.50529 -1.50529
0.0232051 -1.50574 -1.50574
0.0231567 -1.46927 -1.46927
-0.0381664 -1.48702 -1.48702
-0.00762341 -1.50548 -1.50548
0.0231819 -1.48746 -1.48746
-0.00736126 -1.46901 -1.46901
-0.00749168 -1.4872 -1.4872
-0.038453 -1.50529 -1.50529
-0.0390284 -1.54212 -1.54212
0.0232456 -1.54258 -1.54258
0.0232051 -1.50574 -1.50574
-0.0387404 -1.52366 -1.52366
-0.00789083 -1.54231 -1.54231
0.0232263 -1.52411 -1.52411
-0.00762341 -1.50548 -1.50548
-0.00775646 -1.52385 -1.52385
-0.0390284 -1.54212 -1.54212
-0.0396065 -1.57932 -1.57932
0.0232783 -1.57978 -1.57978
0.0232456 -1.54258 -1.54258
-0.0393171 -1.56067 -1.56067
-0.00816353 -1.57951 -1.57951
0.0232629 -1.56113 -1.56113
-0.00789083 -1.54231 -1.54231
-0.00802652 -1.56087 -1.56087
-0.0396065 -1.57932 -1.57932
-0.0401873 -1.61687 -1.61687
0.0233031 -1.61734 -1.61734
0.0232783 -1.57978 -1.57978
-0.0398965 -1.59805 -1.59805
-0.00844152 -1.61707 -1.61707
0.0232916 -1.59852 -1.59852
-0.00816353 -1.57951 -1.57951
-0.00830186 -1.59824 -1.59824
-0.0401873 -1.61687 -1.61687
-0.0407708 -1.65478 -1.65478
0.02332 -1.65526 -1.65526
0.0233031 -1.61734 -1.61734
-0.0404787 -1.63578 -1.63578
-0.0087248 -1.65498 -1.65498
0.0233125 -1.63626 -1.63626
-0.00844152 -1.61707 -1.61707
-0.0085825 -1.63598 -1.63598
-0.0407708 -1.65478 -1.65478
-0.0413571 -1.69304 -1.69304
0.0233292 -1.69353 -1.69353
0.02332 -1.65526 -1.65526
-0.0410636 -1.67387 -1.67387
-0.00901339 -1.69325 -1.69325
0.0233256 -1.67435 -1.67435
-0.0087248 -1.65498 -1.65498
-0.00886843 -1.67407 -1.67407
-0.0413571 -1.69304 -1.69304
-0.0419461 -1.73166 -1.73166
0.0233304 -1.73216 -1.73216
0.0233292 -1.69353 -1.69353
-0.0416513 -1.71231 -1.71231
-0.00930728 -1.73187 -1.73187
0.0233308 -1.7128 -1.7128
-0.00901339 -1.69325 -1.69325
-0.00915967 -1.71252 -1.71252
-0.0419461 -1.73166 -1.73166
-0.0425379 -1.77062 -1.77062
0.0233238 -1.77113 -1.77113
0.0233304 -1.73216 -1.73216
-0.0422417 -1.7511 -1.7511
-0.00960647 -1.77084 -1.77084
0.0233281 -1.7516 -1.7516
-0.00930728 -1.73187 -1.73187
-0.00945621 -1.75131 -1.75131
-0.0425379 -1.77062 -1.77062
-0.0431325 -1.80993 -1.80993
0.0233094 -1.81045 -1.81045
0.0233238 -1.77113 -1.77113
-0.0428348 -1.79023 -1.79023
-0.00991097 -1.81015 -1.81015
0.0233176 -1.79074 -1.79074
-0.00960647 -1.77084 -1.77084
-0.00975806 -1.79045 -1.79045
-0.0431325 -1.80993 -1.80993
-0.0437297 -1.84958 -1.84958
0.023287 -1.85011 -1.85011
0.0233094 -1.81045 -1.81045
-0.0434308 -1.82971 -1.82971
-0.0102208 -1.84981 -1.84981
0.0232992 -1.83023 -1.83023
-0.00991097 -1.81015 -1.81015
-0.0100652 -1.82994 -1.82994
-0.0437297 -1.84958 -1.84958
-0.0443298 -1.88957 -1.88957
0.0232568 -1.8901 -1.8901
0.023287 -1.85011 -1.85011
-0.0440294 -1.86953 -1.86953
-0.0105359 -1.8898 -1.8898
0.0232729 -1.87006 -1.87006
-0.0102208 -1.84981 -1.84981
-0.0103777 -1.86976 -1.86976
-0.0443298 -1.88957 -1.88957
-0.0449325 -1.92989 -1.92989
0.0232188 -1.93044 -1.93044
0.0232568 -1.8901 -1.8901
-0.0446308 -1.90969 -1.90969
-0.0108563 -1.93013 -1.93013
0.0232388 -1.91023 -1.91023
-0.0105359 -1.8898 -1.8898
-0.0106954 -1.90992 -1.90992
-0.0449325 -1.92989 -1.92989
-0.0455381 -1.97055 -1.97055
0.0231729 -1.9711 -1.9711
0.0232188 -1.93044 -1.93044
-0.045235 -1.95018 -1.95018
-0.011182 -1.97079 -1.97079
0.0231968 -1.95073 -1.95073
-0.0108563 -1.93013 -1.93013
-0.0110185 -1.95042 -1.95042
-0.0455381 -1.97055 -1.97055
-0.0461463 -2.01154 -2.01154
0.0231191 -2.0121 -2.0121
0.0231729 -1.9711 -1.9711
-0.0458419 -1.99101 -1.99101
-0.011513 -2.01179 -2.01179
0.023147 -1.99156 -1.99156
-0.011182 -1.97079 -1.97079
-0.0113469 -1.99125 -1.99125
-0.0461463 -2.01154 -2.01154
-0.0467573 -2.05286 -2.05286
0.0230575 -2.05343 -2.05343
0.0231191 -2.0121 -2.0121
-0.0464515 -2.03216 -2.03216
-0.0118493 -2.05311 -2.05311
0.0230893 -2.03272 -2.03272
-0.011513 -2.01179 -2.01179
-0.0116805 -2.03241 -2.03241
-0.0467573 -2.05286 -2.05286
-0.047371 -2.09449 -2.09449
0.0229881 -2.09507 -2.09507
0.0230575 -2.05343 -2.05343
-0.0470638 -2.07363 -2.07363
-0.0121909 -2.09475 -2.09475
0.0230238 -2.07421 -2.07421
-0.0118493 -2.05311 -2.05311
-0.0120194 -2.07389 -2.07389
-0.047371 -2.09449 -2.09449
-0.0479875 -2.13645 -2.13645
0.0229109 -2.13704 -2.13704
0.0229881 -2.09507 -2.09507
-0.0476789 -2.11543 -2.11543
-0.0125377 -2.13671 -2.13671
0.0229505 -2.11602 -2.11602
-0.0121909 -2.09475 -2.09475
-0.0123636 -2.11569 -2.11569
-0.0479875 -2.13645 -2.13645
-0.0486066 -2.17873 -2.17873
0.0228258 -2.17933 -2.17933
0.0229109 -2.13704 -2.13704
-0.0482967 -2.15755 -2.15755
-0.0128898 -2.179 -2.179
0.0228693 -2.15815 -2.15815
-0.0125377 -2.13671 -2.13671
-0.0127131 -2.15782 -2.15782
-0.0486066 -2.17873 -2.17873
-0.0492284 -2.22132 -2.22132
0.0227329 -2.22193 -2.22193
0.0228258 -2.17933 -2.17933
-0.0489172 -2.19999 -2.19999
-0.0132472 -2.22159 -2.22159
0.0227803 -2.20059 -2.20059
-0.0128898 -2.179 -2.179
-0.0130678 -2.20026 -2.20026
-0.0492284 -2.22132 -2.22132
-0.0498529 -2.26423 -2.26423
0.0226322 -2.26484 -2.26484
0.0227329 -2.22193 -2.22193
-0.0495403 -2.24274 -2.24274
-0.0136098 -2.2645 -2.2645
0.0226835 -2.24335 -2.24335
-0.0132472 -2.22159 -2.22159
-0.0134278 -2.24301 -2.24301
-0.0498529 -2.26423 -2.26423
-0.0504801 -2.30744 -2.30744
0.0225238 -2.30806 -2.30806
0.0226322 -2.26484 -2.26484
-0.0501662 -2.2858 -2.2858
-0.0139776 -2.30772 -2.30772
0.022579 -2.28641 -2.28641
-0.0136098 -2.2645 -2.2645
-0.013793 -2.28607 -2.28607
-0.0504801 -2.30744 -2.30744
-0.0511099 -2.35096 -2.35096
0.0224076 -2.35159 -2.35159
0.0225238 -2.30806 -2.30806
-0.0507947 -2.32916 -2.32916
-0.0143506 -2.35124 -2.35124
0.0224666 -2.32979 -2.32979
-0.0139776 -2.30772 -2.30772
-0.0141635 -2.32944 -2.32944
-0.0511099 -2.35096 -2.35096
-0.0517424 -2.39478 -2.39478
0.0222836 -2.39542 -2.39542
0.0224076 -2.35159 -2.35159
-0.0514258 -2.37283 -2.37283
-0.0147288 -2.39507 -2.39507
0.0223465 -2.37347 -2.37347
-0.0143506 -2.35124 -2.35124
-0.0145391 -2.37312 -2.37312
-0.0517424 -2.39478 -2.39478
-0.0523775 -2.4389 -2.4389
0.0221519 -2.43955 -2.43955
0.0222836 -2.39542 -2.39542
-0.0520596 -2.4168 -2.4168
-0.0151122 -2.43919 -2.43919
0.0222187 -2.41745 -2.41745
-0.0147288 -2.39507 -2.39507
-0.0149199 -2.41709 -2.41709
-0.0523775 -2.4389 -2.4389
-0.0530152 -2.48332 -2.48332
0.0220125 -2.48398 -2.48398
0.0221519 -2.43955 -2.43955
-0.052696 -2.46107 -2.46107
-0.0155008 -2.48362 -2.48362
0.0220831 -2.46173 -2.46173
-0.0151122 -2.43919 -2.43919
-0.0153059 -2.46137 -2.46137
-0.0530152 -2.48332 -2.48332
-0.0536555 -2.52803 -2.52803
0.0218653 -2.5287 -2.5287
0.0220125 -2.48398 -2.48398
-0.053335 -2.50564 -2.50564
-0.0158945 -2.52833 -2.52833
0.0219399 -2.5063 -2.5063
-0.0155008 -2.48362 -2.48362
-0.015697 -2.50594 -2.50594
-0.0536555 -2.52803 -2.52803
-0.0542983 -2.57303 -2.57303
0.0217105 -2.57371 -2.57371
0.0218653 -2.5287 -2.5287
-0.0539766 -2.55049 -2.55049
-0.0162933 -2.57334 -2.57334
0.0217889 -2.55116 -2.55116
-0.0158945 -2.52833 -2.52833
-0.0160933 -2.5508 -2.5508
-0.0542983 -2.57303 -2.57303
-0.0549437 -2.61832 -2.61832
0.0215481 -2.619 -2.619
0.0217105 -2.57371 -2.57371
-0.0546207 -2.59564 -2.59564
-0.0166973 -2.61863 -2.61863
0.0216303 -2.59632 -2.59632
-0.0162933 -2.57334 -2.57334
-0.0164947 -2.59595 -2.59595
-0.0549437 -2.61832 -2.61832
-0.0555916 -2.66389 -2.66389
0.021378 -2.66458 -2.66458
0.0215481 -2.619 -2.619
-0.0552674 -2.64107 -2.64107
-0.0171063 -2.66421 -2.66421
0.021464 -2.64176 -2.64176
-0.0166973 -2.61863 -2.61863
-0.0169011 -2.64138 -2.64138
-0.0555916 -2.66389 -2.66389
-0.0562421 -2.70975 -2.70975
0.0212003 -2.71045 -2.71045
0.021378 -2.66458 -2.66458
-0.0559165 -2.68679 -2.68679
-0.0175204 -2.71007 -2.71007
0.0212901 -2.68748 -2.68748
-0.0171063 -2.66421 -2.66421
-0.0173127 -2.6871 -2.6871
-0.0562421 -2.70975 -2.70975
-0.056895 -2.75588 -2.75588
0.021015 -2.75659 -2.75659
0.0212003 -2.71045 -2.71045
-0.0565682 -2.73278 -2.73278
-0.0179395 -2.75621 -2.75621
0.0211086 -2.73348 -2.73348
-0.0175204 -2.71007 -2.71007
-0.0177293 -2.7331 -2.7331
-0.056895 -2.75588 -2.75588
-0.0575503 -2.80229 -2.80229
0.0208221 -2.80301 -2.80301
0.021015 -2.75659 -2.75659
-0.0572223 -2.77905 -2.77905
-0.0183636 -2.80262 -2.80262
0.0209195 -2.77976 -2.77976
-0.0179395 -2.75621 -2.75621
-0.0181509 -2.77938 -2.77938
-0.0575503 -2.80229 -2.80229
-0.0582081 -2.84897 -2.84897
0.0206217 -2.8497 -2.8497
0.0208221 -2.80301 -2.80301
-0.0578789 -2.8256 -2.8256
-0.0187927 -2.84931 -2.84931
0.0207228 -2.82632 -2.82632
-0.0183636 -2.80262 -2.80262
-0.0185775 -2.82593 -2.82593
-0.0582081 -2.84897 -2.84897
-0.0588683 -2.89592 -2.89592
0.0204138 -2.89666 -2.89666
0.0206217 -2.8497 -2.8497
-0.0585379 -2.87241 -2.87241
-0.0192267 -2.89626 -2.89626
0.0205187 -2.87314 -2.87314
-0.0187927 -2.84931 -2.84931
-0.0190091 -2.87275 -2.87275
-0.0588683 -2.89592 -2.89592
-0.0595309 -2.94314 -2.94314
0.0201983 -2.94388 -2.94388
0.0204138 -2.89666 -2.89666
-0.0591993 -2.9195 -2.9195
-0.0196657 -2.94348 -2.94348
0.020307 -2.92024 -2.92024
-0.0192267 -2.89626 -2.89626
-0.0194456 -2.91984 -2.91984
-0.0595309 -2.94314 -2.94314
-0.0601958 -2.99062 -2.99062
0.0199755 -2.99137 -2.99137
0.0201983 -2.94388 -2.94388
-0.059863 -2.96685 -2.96685
-0.0201096 -2.99097 -2.99097
0.0200878 -2.96759 -2.96759
-0.0196657 -2.94348 -2.94348
-0.0198871 -2.96719 -2.96719
-0.0601958 -2.99062 -2.99062
-0.060863 -3.03836 -3.03836
0.0197452 -3.03912 -3.03912
0.0199755 -2.99137 -2.99137
-0.0605291 -3.01446 -3.01446
-0.0205584 -3.03871 -3.03871
0.0198613 -3.01521 -3.01521
-0.0201096 -2.99097 -2.99097
-0.0203334 -3.01481 -3.01481
-0.060863 -3.03836 -3.03836
-0.0615325 -3.08636 -3.08636
0.0195075 -3.08712 -3.08712
0.0197452 -3.03912 -3.03912
-0.0611975 -3.06233 -3.06233
-0.021012 -3.08671 -3.08671
0.0196273 -3.06309 -3.06309
-0.0205584 -3.03871 -3.03871
-0.0207846 -3.06268 -3.06268
-0.0615325 -3.08636 -3.08636
-0.0622043 -3.13461 -3.13461
0.0192624 -3.13538 -3.13538
0.0195075 -3.08712 -3.08712
-0.0618681 -3.11045 -3.11045
-0.0214704 -3.13497 -3.13497
0.0193859 -3.11122 -3.11122
-0.021012 -3.08671 -3.08671
-0.0212406 -3.11081 -3.11081
-0.0622043 -3.13461 -3.13461
-0.0628783 -3.18311 -3.18311
0.01901 -3.1839 -3.1839
0.0192624 -3.13538 -3.13538
-0.062541 -3.15883 -3.15883
-0.0219336 -3.18348 -3.18348
0.0191372 -3.15961 -3.15961
-0.0214704 -3.13497 -3.13497
-0.0217014 -3.15919 -3.15919
-0.0628783 -3.18311 -3.18311
-0.0635545 -3.23186 -3.23186
0.0187504 -3.23266 -3.23266
0.01901 -3.1839 -3.1839
-0.0632161 -3.20746 -3.20746
-0.0224015 -3.23223 -3.23223
0.0188811 -3.20824 -3.20824
-0.0219336 -3.18348 -3.18348
-0.022167 -3.20782 -3.20782
-0.0635545 -3.23186 -3.23186
-0.0642328 -3.28086 -3.28086
0.0184834 -3.28166 -3.28166
0.0187504 -3.23266 -3.23266
-0.0638934 -3.25633 -3.25633
-0.0228742 -3.28123 -3.28123
0.0186178 -3.25713 -3.25713
-0.0224015 -3.23223 -3.23223
-0.0226373 -3.2567 -3.2567
-0.0642328 -3.28086 -3.28086
-0.0649133 -3.3301 -3.3301
0.0182092 -3.33091 -3.33091
0.0184834 -3.28166 -3.28166
-0.0645728 -3.30545 -3.30545
-0.0233515 -3.33048 -3.33048
0.0183472 -3.30625 -3.30625
-0.0228742 -3.28123 -3.28123
-0.0231123 -3.30583 -3.30583
-0.0649133 -3.3301 -3.3301
-0.0655958 -3.37958 -3.37958
0.0179278 -3.38039 -3.38039
0.0182092 -3.33091 -3.33091
-0.0652543 -3.35481 -3.35481
-0.0238335 -3.37996 -3.37996
0.0180694 -3.35562 -3.35562
-0.0233515 -3.33048 -3.33048
-0.0235919 -3.35519 -3.35519
-0.0655958 -3.37958 -3.37958
-0.0662804 -3.42929 -3.42929
0.0176393 -3.43011 -3.43011
0.0179278 -3.38039 -3.38039
-0.0659378 -3.40441 -3.40441
-0.0243201 -3.42968 -3.42968
0.0177844 -3.40522 -3.40522
-0.0238335 -3.37996 -3.37996
-0.0240762 -3.40479 -3.40479
-0.0662804 -3.42929 -3.42929
-0.066967 -3.47924 -3.47924
0.0173436 -3.48007 -3.48007
0.0176393 -3.43011 -3.43011
-0.0666234 -3.45424 -3.45424
-0.0248112 -3.47963 -3.47963
0.0174923 -3.45506 -3.45506
-0.0243201 -3.42968 -3.42968
-0.0245651 -3.45462 -3.45462
-0.066967 -3.47924 -3.47924
-0.0676556 -3.52942 -3.52942
0.0170409 -3.53025 -3.53025
0.0173436 -3.48007 -3.48007
-0.067311 -3.5043 -3.5043
-0.0253069 -3.52981 -3.52981
0.0171931 -3.50513 -3.50513
-0.0248112 -3.47963 -3.47963
-0.0250585 -3.50469 -3.50469
-0.0676556 -3.52942 -3.52942
-0.0683461 -3.57982 -3.57982
0.0167311 -3.58067 -3.58067
0.0170409 -3.53025 -3.53025
-0.0680006 -3.55459 -3.55459
-0.025807 -3.58022 -3.58022
0.0168868 -3.55543 -3.55543
-0.0253069 -3.52981 -3.52981
-0.0255564 -3.55499 -3.55499
-0.0683461 -3.57982 -3.57982
-0.0690385 -3.63045 -3.63045
0.0164143 -3.6313 -3.6313
0.0167311 -3.58067 -3.58067
-0.068692 -3.60511 -3.60511
-0.0263116 -3.63085 -3.63085
0.0165735 -3.60596 -3.60596
-0.025807 -3.58022 -3.58022
-0.0260588 -3.60551 -3.60551
-0.0690385 -3.63045 -3.63045
-0.0697327 -3.6813 -3.6813
0.0160905 -3.68216 -3.68216
0.0164143 -3.6313 -3.6313
-0.0693853 -3.65585 -3.65585
-0.0268206 -3.6817 -3.6817
0.0162532 -3.6567 -3.6567
-0.0263116 -3.63085 -3.63085
-0.0265656 -3.65625 -3.65625
-0.0697327 -3.6813 -3.6813
-0.0704288 -3.73236 -3.73236
0.0157598 -3.73323 -3.73323
0.0160905 -3.68216 -3.68216
-0.0700805 -3.7068 -3.7068
-0.027334 -3.73277 -3.73277
0.015926 -3.70767 -3.70767
-0.0268206 -3.6817 -3.6817
-0.0270768 -3.70721 -3.70721
-0.0704288 -3.73236 -3.73236
-0.0711266 -3.78365 -3.78365
0.0154223 -3.78452 -3.78452
0.0157598 -3.73323 -3.73323
-0.0707775 -3.75798 -3.75798
-0.0278517 -3.78406 -3.78406
0.0155919 -3.75885 -3.75885
-0.027334 -3.73277 -3.73277
-0.0275923 -3.75839 -3.75839
-0.0711266 -3.78365 -3.78365
-0.0718261 -3.83514 -3.83514
0.0150779 -3.83602 -3.83602
0.0154223 -3.78452 -3.78452
-0.0714762 -3.80937 -3.80937
-0.0283737 -3.83556 -3.83556
0.0152509 -3.81025 -3.81025
-0.0278517 -3.78406 -3.78406
-0.0281122 -3.80978 -3.80978
-0.0718261 -3.83514 -3.83514
-0.0725274 -3.88684 -3.88684
0.0147267 -3.88773 -3.88773
0.0150779 -3.83602 -3.83602
-0.0721766 -3.86097 -3.86097
-0.0288999 -3.88727 -3.88727
0.0149031 -3.86185 -3.86185
-0.0283737 -3.83556 -3.83556
-0.0286363 -3.86139 -3.86139
-0.0725274 -3.88684 -3.88684
-0.0732303 -3.93875 -3.93875
0.0143687 -3.93965 -3.93965
0.0147267 -3.88773 -3.88773
-0.0728786 -3.91277 -3.91277
-0.0294303 -3.93918 -3.93918
0.0145485 -3.91366 -3.91366
-0.0288999 -3.88727 -3.88727
-0.0291646 -3.9132 -3.9132
-0.0732303 -3.93875 -3.93875
-0.0739347 -3.99086 -3.99086
0.0140041 -3.99177 -3.99177
0.0143687 -3.93965 -3.93965
-0.0735823 -3.96478 -3.96478
-0.0299649 -3.99129 -3.99129
0.0141872 -3.96568 -3.96568
-0.0294303 -3.93918 -3.93918
-0.0296971 -3.96521 -3.96521
-0.0739347 -3.99086 -3.99086
-0.0746407 -4.04317 -4.04317
0.0136328 -4.04408 -4.04408
0.0140041 -3.99177 -3.99177
-0.0742875 -4.01699 -4.01699
-0.0305035 -4.04361 -4.04361
0.0138193 -4.0179 -4.0179
-0.0299649 -3.99129 -3.99129
-0.0302337 -4.01742 -4.01742
-0.0746407 -4.04317 -4.04317
-0.0753482 -4.09568 -4.09568
0.0132549 -4.0966 -4.0966
0.0136328 -4.04408 -4.04408
-0.0749943 -4.0694 -4.0694
-0.0310462 -4.09612 -4.09612
0.0134446 -4.07032 -4.07032
-0.0305035 -4.04361 -4.04361
-0.0307744 -4.06984 -4.06984
-0.0753482 -4.09568 -4.09568
-0.0760572 -4.14838 -4.14838
0.0128704 -4.14931 -4.14931
0.0132549 -4.0966 -4.0966
-0.0757025 -4.12201 -4.12201
-0.031593 -4.14882 -4.14882
0.0130635 -4.12293 -4.12293
-0.0310462 -4.09612 -4.09612
-0.0313191 -4.12245 -4.12245
-0.0760572 -4.14838 -4.14838
-0.0767676 -4.20127 -4.20127
0.0124794 -4.2022 -4.2022
0.0128704 -4.14931 -4.14931
-0.0764122 -4.1748 -4.1748
-0.0321436 -4.20172 -4.20172
0.0126757 -4.17573 -4.17573
-0.031593 -4.14882 -4.14882
-0.0318678 -4.17525 -4.17525
-0.0767676 -4.20127 -4.20127
-0.0774793 -4.25435 -4.25435
0.012082 -4.25529 -4.25529
0.0124794 -4.2022 -4.2022
-0.0771232 -4.22779 -4.22779
-0.0326982 -4.2548 -4.2548
0.0122815 -4.22872 -4.22872
-0.0321436 -4.20172 -4.20172
-0.0324205 -4.22824 -4.22824
-0.0774793 -4.25435 -4.25435
-0.0781923 -4.30762 -4.30762
0.0116781 -4.30856 -4.30856
0.012082 -4.25529 -4.25529
-0.0778356 -4.28096 -4.28096
-0.0332567 -4.30807 -4.30807
0.0118808 -4.2819 -4.2819
-0.0326982 -4.2548 -4.2548
-0.032977 -4.28141 -4.28141
-0.0781923 -4.30762 -4.30762
-0.0789066 -4.36107 -4.36107
0.0112679 -4.36201 -4.36201
0.0116781 -4.30856 -4.30856
-0.0785493 -4.33432 -4.33432
-0.0338189 -4.36152 -4.36152
0.0114738 -4.33527 -4.33527
-0.0332567 -4.30807 -4.30807
-0.0335373 -4.33477 -4.33477
-0.0789066 -4.36107 -4.36107
-0.0796221 -4.41469 -4.41469
0.0108513 -4.41565 -4.41565
0.0112679 -4.36201 -4.36201
-0.0792642 -4.38786 -4.38786
-0.034385 -4.41515 -4.41515
0.0110604 -4.38881 -4.38881
-0.0338189 -4.36152 -4.36152
-0.0341015 -4.38831 -4.38831
-0.0796221 -4.41469 -4.41469
-0.0803387 -4.46849 -4.46849
0.0104285 -4.46945 -4.46945
0.0108513 -4.41565 -4.41565
-0.0799802 -4.44157 -4.44157
-0.0349547 -4.46895 -4.46895
0.0106407 -4.44253 -4.44253
-0.034385 -4.41515 -4.41515
-0.0346694 -4.44203 -4.44203
-0.0803387 -4.46849 -4.46849
-0.0810564 -4.52246 -4.52246
0.00999949 -4.52343 -4.52343
0.0104285 -4.46945 -4.46945
-0.0806974 -4.49546 -4.49546
-0.0355281 -4.52293 -4.52293
0.0102148 -4.49642 -4.49642
-0.0349547 -4.46895 -4.46895
-0.0352409 -4.49592 -4.49592
-0.0810564 -4.52246 -4.52246
-0.0817752 -4.57661 -4.57661
0.00956431 -4.57758 -4.57758
0.00999949 -4.52343 -4.52343
-0.0814157 -4.54951 -4.54951
-0.0361051 -4.57707 -4.57707
0.00978267 -4.55048 -4.55048
-0.0355281 -4.52293 -4.52293
-0.0358161 -4.54998 -4.54998
-0.0817752 -4.57661 -4.57661
-0.082495 -4.63091 -4.63091
0.00912303 -4.63189 -4.63189
0.00956431 -4.57758 -4.57758
-0.082135 -4.60374 -4.60374
-0.0366856 -4.63139 -4.63139
0.00934443 -4.60472 -4.60472
-0.0361051 -4.57707 -4.57707
-0.0363949 -4.60421 -4.60421
-0.082495 -4.63091 -4.63091
-0.0832157 -4.68539 -4.68539
0.0086757 -4.68637 -4.68637
0.00912303 -4.63189 -4.63189
-0.0828552 -4.65813 -4.65813
-0.0372696 -4.68586 -4.68586
0.00890012 -4.65911 -4.65911
-0.0366856 -4.63139 -4.63139
-0.0369772 -4.6586 -4.6586
-0.0832157 -4.68539 -4.68539
-0.0839373 -4.74002 -4.74002
0.00822237 -4.74101 -4.74101
0.0086757 -4.68637 -4.68637
-0.0835764 -4.71268 -4.71268
-0.0378571 -4.7405 -4.7405
0.00844978 -4.71367 -4.71367
-0.0372696 -4.68586 -4.68586
-0.0375629 -4.71316 -4.71316
-0.0839373 -4.74002 -4.74002
-0.0846597 -4.79481 -4.79481
0.0077631 -4.79581 -4.79581
0.00822237 -4.74101 -4.74101
-0.0842984 -4.76739 -4.76739
-0.038448 -4.79529 -4.79529
0.00799347 -4.76839 -4.76839
-0.0378571 -4.7405 -4.7405
-0.0381521 -4.76788 -4.76788
-0.0846597 -4.79481 -4.79481
-0.0853829 -4.84975 -4.84975
0.00729794 -4.85076 -4.85076
0.0077631 -4.79581 -4.79581
-0.0850212 -4.82226 -4.82226
-0.0390421 -4.85024 -4.85024
0.00753125 -4.82326 -4.82326
-0.038448 -4.79529 -4.79529
-0.0387446 -4.82275 -4.82275
-0.0853829 -4.84975 -4.84975
-0.0861069 -4.90485 -4.90485
0.00682695 -4.90586 -4.90586
0.00729794 -4.85076 -4.85076
-0.0857448 -4.87728 -4.87728
-0.0396396 -4.90534 -4.90534
0.00706317 -4.87829 -4.87829
-0.0390421 -4.85024 -4.85024
-0.0393405 -4.87777 -4.87777
-0.0861069 -4.90485 -4.90485
-0.0868315 -4.96009 -4.96009
0.00635019 -4.96111 -4.96111
0.00682695 -4.90586 -4.90586
-0.0864691 -4.93245 -4.93245
-0.0402403 -4.96059 -4.96059
0.00658929 -4.93346 -4.93346
-0.0396396 -4.90534 -4.90534
-0.0399396 -4.93294 -4.93294
-0.0868315 -4.96009 -4.96009
-0.0875567 -5.01548 -5.01548
0.00586772 -5.0165 -5.0165
0.00635019 -4.96111 -4.96111
-0.087194 -4.98777 -4.98777
-0.0408441 -5.01598 -5.01598
0.00610966 -4.98879 -4.98879
-0.0402403 -4.96059 -4.96059
-0.0405418 -4.98826 -4.98826
-0.0875567 -5.01548 -5.01548
-0.0882824 -5.07102 -5.07102
0.00537958 -5.07204 -5.07204
0.00586772 -5.0165 -5.0165
-0.0879195 -5.04323 -5.04323
-0.0414511 -5.07151 -5.07151
0.00562435 -5.04425 -5.04425
-0.0408441 -5.01598 -5.01598
-0.0411472 -5.04373 -5.04373
-0.0882824 -5.07102 -5.07102
-0.0890086 -5.12669 -5.12669
0.00488585 -5.12772 -5.12772
0.00537958 -5.07204 -5.07204
-0.0886455 -5.09883 -5.09883
-0.0420611 -5.12719 -5.12719
0.00513341 -5.09986 -5.09986
-0.0414511 -5.07151 -5.07151
-0.0417557 -5.09933 -5.09933
-0.0890086 -5.12669 -5.12669
-0.0897353 -5.18249 -5.18249
0.00438658 -5.18353 -5.18353
0.00488585 -5.12772 -5.12772
-0.0893719 -5.15457 -5.15457
-0.042674 -5.183 -5.183
0.0046369 -5.1556 -5.1556
-0.0420611 -5.12719 -5.12719
-0.0423672 -5.15507 -5.15507
-0.0897353 -5.18249 -5.18249
-0.0904623 -5.23843 -5.23843
0.00388182 -5.23947 -5.23947
0.00438658 -5.18353 -5.18353
-0.0900988 -5.21045 -5.21045
-0.0432899 -5.23894 -5.23894
0.00413488 -5.21148 -5.21148
-0.042674 -5.183 -5.183
-0.0429816 -5.21095 -5.21095
-0.0904623 -5.23843 -5.23843
-0.0911897 -5.2945 -5.2945
0.00337165 -5.29555 -5.29555
0.00388182 -5.23947 -5.23947
-0.090826 -5.26645 -5.26645
-0.0439087 -5.29501 -5.29501
0.00362741 -5.26749 -5.26749
-0.0432899 -5.23894 -5.23894
-0.043599 -5.26696 -5.26696
-0.0911897 -5.2945 -5.2945
-0.0919173 -5.3507 -5.3507
0.00285611 -5.35175 -5.35175
0.00337165 -5.29555 -5.29555
-0.0915534 -5.32259 -5.32259
-0.0445303 -5.35121 -5.35121
0.00311455 -5.32363 -5.32363
-0.0439087 -5.29501 -5.29501
-0.0442192 -5.3231 -5.3231
-0.0919173 -5.3507 -5.3507
-0.0926451 -5.40702 -5.40702
0.00233527 -5.40808 -5.40808
0.00285611 -5.35175 -5.35175
-0.0922811 -5.37885 -5.37885
-0.0451546 -5.40754 -5.40754
0.00259635 -5.3799 -5.3799
-0.0445303 -5.35121 -5.35121
-0.0448421 -5.37936 -5.37936
-0.0926451 -5.40702 -5.40702
-0.093373 -5.46347 -5.46347
0.0018092 -5.46452 -5.46452
0.00233527 -5.40808 -5.40808
-0.093009 -5.43523 -5.43523
-0.0457816 -5.46398 -5.46398
0.00207289 -5.43629 -5.43629
-0.0451546 -5.40754 -5.40754
-0.0454678 -5.43575 -5.43575
-0.093373 -5.46347 -5.46347
-0.094101 -5.52003 -5.52003
0.00127794 -5.52109 -5.52109
0.0018092 -5.46452 -5.46452
-0.093737 -5.49173 -5.49173
-0.0464112 -5.52055 -5.52055
0.00154421 -5.49279 -5.49279
-0.0457816 -5.46398 -5.46398
-0.0460961 -5.49225 -5.49225
-0.094101 -5.52003 -5.52003
-0.0948289 -5.5767 -5.5767
0.000741571 -5.57777 -5.57777
0.00127794 -5.52109 -5.52109
-0.094465 -5.54835 -5.54835
-0.0470434 -5.57723 -5.57723
0.00101039 -5.54942 -5.54942
-0.0464112 -5.52055 -5.52055
-0.046727 -5.54887 -5.54887
-0.0948289 -5.5767 -5.5767
-0.0955569 -5.63349 -5.63349
0.000200147 -5.63456 -5.63456
0.000741571 -5.57777 -5.57777
-0.0951929 -5.60508 -5.60508
-0.0476781 -5.63402 -5.63402
0.000471487 -5.60615 -5.60615
-0.0470434 -5.57723 -5.57723
-0.0473605 -5.60561 -5.60561
-0.0955569 -5.63349 -5.63349
-0.0962847 -5.69039 -5.69039
-0.000346268 -5.69146 -5.69146
0.000200147 -5.63456 -5.63456
-0.0959208 -5.66193 -5.66193
-0.0483152 -5.69092 -5.69092
-7.24408e-05 -5.663 -5.663
-0.0476781 -5.63402 -5.63402
-0.0479964 -5.66245 -5.66245
-0.0962847 -5.69039 -5.69039
-0.0970123 -5.74739 -5.74739
-0.000897611 -5.74847 -5.74847
-0.000346268 -5.69146 -5.69146
-0.0966485 -5.71888 -5.71888
-0.0489547 -5.74792 -5.74792
-0.000621328 -5.71995 -5.71995
-0.0483152 -5.69092 -5.69092
-0.0486347 -5.7194 -5.7194
-0.0970123 -5.74739 -5.74739
-0.0977397 -5.8045 -5.8045
-0.00145382 -5.80558 -5.80558
-0.000897611 -5.74847 -5.74847
-0.0973761 -5.77593 -5.77593
-0.0495965 -5.80503 -5.80503
-0.00117511 -5.77701 -5.77701
-0.0489547 -5.74792 -5.74792
-0.0492753 -5.77646 -5.77646
-0.0977397 -5.8045 -5.8045
-0.0984668 -5.8617 -5.8617
-0.00201482 -5.86279 -5.86279
-0.00145382 -5.80558 -5.80558
-0.0981033 -5.83309 -5.83309
-0.0502406 -5.86224 -5.86224
-0.00173372 -5.83417 -5.83417
-0.0495965 -5.80503 -5.80503
-0.0499183 -5.83362 -5.83362
-0.0984668 -5.8617 -5.8617
-0.0991935 -5.91901 -5.91901
-0.00258057 -5.9201 -5.9201
-0.00201482 -5.86279 -5.86279
-0.0988302 -5.89034 -5.89034
-0.0508868 -5.91954 -5.91954
-0.00229711 -5.89143 -5.89143
-0.0502406 -5.86224 -5.86224
-0.0505634 -5.89088 -5.89088
-0.0991935 -5.91901 -5.91901
-0.0999197 -5.9764 -5.9764
-0.00315098 -5.9775 -5.9775
-0.00258057 -5.9201 -5.9201
-0.0995567 -5.94769 -5.94769
-0.0515351 -5.97694 -5.97694
-0.00286519 -5.94879 -5.94879
-0.0508868 -5.91954 -5.91954
-0.0512107 -5.94823 -5.94823
-0.0999197 -5.9764 -5.9764
-0.100646 -6.03389 -6.03389
-0.003726 -6.03499 -6.03499
-0.00315098 -5.9775 -5.9775
-0.100283 -6.00514 -6.00514
-0.0521855 -6.03443 -6.03443
-0.00343792 -6.00623 -6.00623
-0.0515351 -5.97694 -5.97694
-0.0518601 -6.00567 -6.00567
-0.100646 -6.03389 -6.03389
-0.101371 -6.09147 -6.09147
-0.00430556 -6.09257 -6.09257
-0.003726 -6.03499 -6.03499
-0.101008 -6.06267 -6.06267
-0.0528379 -6.09201 -6.09201
-0.00401522 -6.06377 -6.06377
-0.0521855 -6.03443 -6.03443
-0.0525115 -6.06321 -6.06321
-0.101371 -6.09147 -6.09147
-0.102095 -6.14913 -6.14913
-0.0048896 -6.15023 -6.15023
-0.00430556 -6.09257 -6.09257
-0.101733 -6.12029 -6.12029
-0.0534922 -6.14967 -6.14967
-0.00459702 -6.12139 -6.12139
-0.0528379 -6.09201 -6.09201
-0.0531648 -6.12083 -6.12083
-0.102095 -6.14913 -6.14913
-0.102819 -6.20687 -6.20687
-0.00547804 -6.20797 -6.20797
-0.0048896 -6.15023 -6.15023
-0.102457 -6.17799 -6.17799
-0.0541484 -6.20741 -6.20741
-0.00518327 -6.17909 -6.17909
-0.0534922 -6.14967 -6.14967
-0.0538201 -6.17853 -6.17853
-0.102819 -6.20687 -6.20687
-0.103542 -6.26469 -6.26469
-0.00607083 -6.2658 -6.2658
-0.00547804 -6.20797 -6.20797
-0.103181 -6.23577 -6.23577
-0.0548063 -6.26524 -6.26524
-0.0057739 -6.23688 -6.23688
-0.0541484 -6.20741 -6.20741
-0.0544771 -6.23632 -6.23632
-0.103542 -6.26469 -6.26469
-0.104264 -6.32259 -6.32259
-0.00666789 -6.3237 -6.3237
-0.00607083 -6.2658 -6.2658
-0.103903 -6.29363 -6.29363
-0.055466 -6.32313 -6.32313
-0.00636883 -6.29474 -6.29474
-0.0548063 -6.26524 -6.26524
-0.0551359 -6.29418 -6.29418
-0.104264 -6.32259 -6.32259
-0.104986 -6.38055 -6.38055
-0.00726917 -6.38167 -6.38167
-0.00666789 -6.3237 -6.3237
-0.104625 -6.35156 -6.35156
-0.0561273 -6.3811 -6.3811
-0.00696801 -6.35267 -6.35267
-0.055466 -6.32313 -6.32313
-0.0557964 -6.35211 -6.35211
-0.104986 -6.38055 -6.38055
-0.105706 -6.43859 -6.43859
-0.00787459 -6.43971 -6.43971
-0.00726917 -6.38167 -6.38167
-0.105346 -6.40957 -6.40957
-0.0567902 -6.43915 -6.43915
-0.00757136 -6.41068 -6.41068
-0.0561273 -6.3811 -6.3811
-0.0564586 -6.41012 -6.41012
-0.105706 -6.43859 -6.43859
-0.106426 -6.4967 -6.4967
-0.00848408 -6.49782 -6.49782
-0.00787459 -6.43971 -6.43971
-0.106066 -6.46764 -6.46764
-0.0574546 -6.49725 -6.49725
-0.00817883 -6.46876 -6.46876
-0.0567902 -6.43915 -6.43915
-0.0571222 -6.46819 -6.46819
-0.106426 -6.4967 -6.4967
-0.107144 -6.55487 -6.55487
-0.00909758 -6.55599 -6.55599
-0.00848408 -6.49782 -6.49782
-0.106785 -6.52578 -6.52578
-0.0581205 -6.55542 -6.55542
-0.00879033 -6.5269 -6.5269
-0.0574546 -6.49725 -6.49725
-0.0577874 -6.52633 -6.52633
-0.107144 -6.55487 -6.55487
-0.107861 -6.6131 -6.6131
-0.00971502 -6.61422 -6.61422
-0.00909758 -6.55599 -6.55599
-0.107502 -6.58398 -6.58398
-0.0587878 -6.61365 -6.61365
-0.00940581 -6.5851 -6.5851
-0.0581205 -6.55542 -6.55542
-0.058454 -6.58453 -6.58453
-0.107861 -6.6131 -6.6131
-0.108577 -6.67138 -6.67138
-0.0103363 -6.67251 -6.67251
-0.00971502 -6.61422 -6.61422
-0.108219 -6.64223 -6.64223
-0.0594564 -6.67194 -6.67194
-0.0100252 -6.64336 -6.64336
-0.0587878 -6.61365 -6.61365
-0.0591219 -6.64279 -6.64279
-0.108577 -6.67138 -6.67138
-0.109291 -6.72973 -6.72973
-0.0109614 -6.73085 -6.73085
-0.0103363 -6.67251 -6.67251
-0.108934 -6.70055 -6.70055
-0.0601262 -6.73028 -6.73028
-0.0106484 -6.70168 -6.70168
-0.0594564 -6.67194 -6.67194
-0.0597912 -6.70111 -6.70111
-0.109291 -6.72973 -6.72973
-0.110004 -6.78812 -6.78812
-0.0115903 -6.78925 -6.78925
-0.0109614 -6.73085 -6.73085
-0.109648 -6.75892 -6.75892
-0.0607972 -6.78868 -6.78868
-0.0112754 -6.76005 -6.76005
-0.0601262 -6.73028 -6.73028
-0.0604616 -6.75948 -6.75948
-0.110004 -6.78812 -6.78812
-0.110716 -6.84656 -6.84656
-0.0122228 -6.84769 -6.84769
-0.0115903 -6.78925 -6.78925
-0.11036 -6.81733 -6.81733
-0.0614694 -6.84712 -6.84712
-0.0119061 -6.81847 -6.81847
-0.0607972 -6.78868 -6.78868
-0.0611332 -6.81789 -6.81789
-0.110716 -6.84656 -6.84656
-0.111426 -6.90505 -6.90505
-0.0128589 -6.90618 -6.90618
-0.0122228 -6.84769 -6.84769
-0.111071 -6.8758 -6.8758
-0.0621425 -6.90561 -6.90561
-0.0125404 -6.87693 -6.87693
-0.0614694 -6.84712 -6.84712
-0.0618058 -6.87636 -6.87636
-0.111426 -6.90505 -6.90505
-0.112135 -6.96358 -6.96358
-0.0134986 -6.96471 -6.96471
-0.0128589 -6.90618 -6.90618
-0.111781 -6.93431 -6.93431
-0.0628167 -6.96414 -6.96414
-0.0131783 -6.93544 -6.93544
-0.0621425 -6.90561 -6.90561
-0.0624795 -6.93487 -6.93487
-0.112135 -6.96358 -6.96358
-0.112842 -7.02215 -7.02215
-0.0141417 -7.02328 -7.02328
-0.0134986 -6.96471 -6.96471
-0.112489 -6.99286 -6.99286
-0.0634918 -7.02271 -7.02271
-0.0138197 -6.99399 -6.99399
-0.0628167 -6.96414 -6.96414
-0.0631541 -6.99342 -6.99342
-0.112842 -7.02215 -7.02215
-0.113547 -7.08075 -7.08075
-0.0147883 -7.08189 -7.08189
-0.0141417 -7.02328 -7.02328
-0.113195 -7.05144 -7.05144
-0.0641677 -7.08132 -7.08132
-0.0144646 -7.05258 -7.05258
-0.0634918 -7.02271 -7.02271
-0.0638296 -7.05201 -7.05201
-0.113547 -7.08075 -7.08075
-0.114251 -7.13939 -7.13939
-0.0154383 -7.14053 -7.14053
-0.0147883 -7.08189 -7.08189
-0.113899 -7.11007 -7.11007
-0.0648444 -7.13996 -7.13996
-0.0151129 -7.11121 -7.11121
-0.0641677 -7.08132 -7.08132
-0.0645059 -7.11063 -7.11063
-0.114251 -7.13939 -7.13939
-0.114952 -7.19806 -7.19806
-0.0160917 -7.1992 -7.1992
-0.0154383 -7.14053 -7.14053
-0.114602 -7.16872 -7.16872
-0.0655218 -7.19863 -7.19863
-0.0157645 -7.16986 -7.16986
-0.0648444 -7.13996 -7.13996
-0.065183 -7.16929 -7.16929
-0.114952 -7.19806 -7.19806
-0.115651 -7.25676 -7.25676
-0.0167485 -7.2579 -7.2579
-0.0160917 -7.1992 -7.1992
-0.115302 -7.2274 -7.2274
-0.0661999 -7.25732 -7.25732
-0.0164196 -7.22855 -7.22855
-0.0655218 -7.19863 -7.19863
-0.0658607 -7.22797 -7.22797
-0.115651 -7.25676 -7.25676
-0.116348 -7.31548 -7.31548
-0.0174088 -7.31662 -7.31662
-0.0167485 -7.2579 -7.2579
-0.116 -7.28611 -7.28611
-0.0668785 -7.31605 -7.31605
-0.0170782 -7.28726 -7.28726
-0.0661999 -7.25732 -7.25732
-0.0665391 -7.28668 -7.28668
-0.116348 -7.31548 -7.31548
-0.117043 -7.37422 -7.37422
-0.0180728 -7.37537 -7.37537
-0.0174088 -7.31662 -7.31662
-0.116696 -7.34485 -7.34485
-0.0675577 -7.37479 -7.37479
-0.0177403 -7.34599 -7.34599
-0.0668785 -7.31605 -7.31605
-0.0672181 -7.34542 -7.34542
-0.117043 -7.37422 -7.37422
-0.117734 -7.43298 -7.43298
-0.0187408 -7.43413 -7.43413
-0.0180728 -7.37537 -7.37537
-0.117389 -7.4036 -7.4036
-0.0682374 -7.43356 -7.43356
-0.0184063 -7.40474 -7.40474
-0.0675577 -7.37479 -7.37479
-0.0678975 -7.40417 -7.40417
-0.117734 -7.43298 -7.43298
-0.118422 -7.49176 -7.49176
-0.0194126 -7.49291 -7.49291
-0.0187408 -7.43413 -7.43413
-0.118079 -7.46237 -7.46237
-0.0689175 -7.49233 -7.49233
-0.0190762 -7.46352 -7.46352
-0.0682374 -7.43356 -7.43356
-0.0685774 -7.46294 -7.46294
-0.118422 -7.49176 -7.49176
-0.119108 -7.55055 -7.55055
-0.0200878 -7.5517 -7.5517
-0.0194126 -7.49291 -7.49291
-0.118765 -7.52116 -7.52116
-0.0695978 -7.55112 -7.55112
-0.0197499 -7.5223 -7.5223
-0.0689175 -7.49233 -7.49233
-0.0692577 -7.52173 -7.52173
-0.119108 -7.55055 -7.55055
-0.119792 -7.60934 -7.60934
-0.0207648 -7.61049 -7.61049
-0.0200878 -7.5517 -7.5517
-0.11945 -7.57995 -7.57995
-0.0702782 -7.60991 -7.60991
-0.0204262 -7.58109 -7.58109
-0.0695978 -7.55112 -7.55112
-0.069938 -7.58052 -7.58052
-0.119792 -7.60934 -7.60934
-0.120474 -7.66812 -7.66812
-0.021442 -7.66926 -7.66926
-0.0207648 -7.61049 -7.61049
-0.120133 -7.63873 -7.63873
-0.0709581 -7.66869 -7.66869
-0.0211036 -7.63988 -7.63988
-0.0702782 -7.60991 -7.60991
-0.0706182 -7.6393 -7.6393
-0.120474 -7.66812 -7.66812
-0.121159 -7.72686 -7.72686
-0.0221156 -7.72801 -7.72801
-0.021442 -7.66926 -7.66926
-0.120817 -7.6975 -7.6975
-0.0716373 -7.72743 -7.72743
-0.0217793 -7.69864 -7.69864
-0.0709581 -7.66869 -7.66869
-0.0712978 -7.69806 -7.69806
0 0 0
0.000435936 7.05154e-05 7.05154e-05
0.00132991 -0.000138662 -0.000138662
0 0 0
0.000216949 0.000142902 0.000142902
0.000879588 -8.12019e-06 -8.12019e-06
0.000644706 3.97224e-05 3.97224e-05
0 0 0
0.000426901 0.000107712 0.000107712
0.000435936 7.05154e-05 7.05154e-05
0.000908246 -0.000675126 -0.000675126
0.00276151 -0.00103888 -0.00103888
0.00132991 -0.000138662 -0.000138662
0.000667675 -0.00020673 -0.00020673
0.00182645 -0.000807149 -0.000807149
0.00203679 -0.000502556 -0.000502556
0.000879588 -8.12019e-06 -8.12019e-06
0.00134707 -0.000316547 -0.000316547
0.000908246 -0.000675126 -0.000675126
0.00139743 -0.00213689 -0.00213689
0.00425259 -0.00259535 -0.00259535
0.00276151 -0.00103888 -0.00103888
0.00115155 -0.00132135 -0.00132135
0.00281305 -0.00230618 -0.00230618
0.00350254 -0.00173935 -0.00173935
0.00182645 -0.000807149 -0.000807149
0.00231629 -0.00147369 -0.00147369
0.00139743 -0.00213689 -0.00213689
0.00189693 -0.00424956 -0.00424956
0.00575554 -0.00475004 -0.00475004
0.00425259 -0.00259535 -0.00259535
0.00164653 -0.00311481 -0.00311481
0.00381412 -0.00443639 -0.00443639
0.00500427 -0.00359955 -0.00359955
0.00281305 -0.00230618 -0.00230618
0.00331304 -0.00329507 -0.00329507
0.00189693 -0.00424956 -0.00424956
0.00239513 -0.00697281 -0.00697281
0.00725277 -0.0074871 -0.0074871
0.00575554 -0.00475004 -0.00475004
0.00214651 -0.00553647 -0.00553647
0.00481366 -0.00716647 -0.00716647
0.00650553 -0.00604621 -0.00604621
0.00381412 -0.00443639 -0.00443639
0.00431469 -0.00572764 -0.00572764
0.00239513 -0.00697281 -0.00697281
0.00288968 -0.0102861 -0.0102861
0.00873528 -0.0108004 -0.0108004
0.00725277 -0.0074871 -0.0074871
0.00264301 -0.0085565 -0.0085565
0.0058042 -0.0104802 -0.0104802
0.00799596 -0.00907185 -0.00907185
0.00481366 -0.00716647 -0.00716647
0.00531024 -0.00875092 -0.00875092
0.00288968 -0.0102861 -0.0102861
0.00337816 -0.0141785 -0.0141785
0.0102035 -0.014689 -0.014689
0.00873528 -0.0108004 -0.0108004
0.00313469 -0.0121603 -0.0121603
0.00678419 -0.0143715 -0.0143715
0.00947112 -0.0126729 -0.0126729
0.0058042 -0.0104802 -0.0104802
0.0062955 -0.0123539 -0.0123539
0.00337816 -0.0141785 -0.0141785
0.00386114 -0.0186448 -0.0186448
0.0116582 -0.0191509 -0.0191509
0.0102035 -0.014689 -0.014689
0.00362031 -0.0163401 -0.0163401
0.00775414 -0.0188362 -0.0188362
0.0109325 -0.0168484 -0.0168484
0.00678419 -0.0143715 -0.0143715
0.00727036 -0.0165323 -0.0165323
0.00386114 -0.0186448 -0.0186448
0.00433881 -0.0236815 -0.0236815
0.0131011 -0.0241841 -0.0241841
0.0116582 -0.0191509 -0.0191509
0.00410061 -0.021092 -0.021092
0.00871512 -0.0238717 -0.0238717
0.0123811 -0.0215962 -0.0215962
0.00775414 -0.0188362 -0.0188362
0.00823569 -0.0212827 -0.0212827
0.00433881 -0.0236815 -0.0236815
0.00481175 -0.0292859 -0.0292859
0.0145332 -0.0297862 -0.0297862
0.0131011 -0.0241841 -0.0241841
0.00457585 -0.0264129 -0.0264129
0.00966804 -0.0294754 -0.0294754
0.0138185 -0.0269142 -0.0269142
0.00871512 -0.0238717 -0.0238717
0.00919254 -0.0266027 -0.0266027
0.00481175 -0.0292859 -0.0292859
0.00528018 -0.0354556 -0.0354556
0.0159553 -0.0359544 -0.0359544
0.0145332 -0.0297862 -0.0297862
0.00504651 -0.0323003 -0.0323003
0.0106135 -0.0356447 -0.0356447
0.0152455 -0.0327997 -0.0327997
0.00966804 -0.0294754 -0.0294754
0.0101417 -0.0324895 -0.0324895
0.00528018 -0.0354556 -0.0354556
0.0057443 -0.0421878 -0.0421878
0.0173677 -0.0426858 -0.0426858
0.0159553 -0.0359544 -0.0359544
0.00551278 -0.0387516 -0.0387516
0.0115519 -0.0423769 -0.0423769
0.0166627 -0.0392499 -0.0392499
0.0106135 -0.0356447 -0.0356447
0.0110836 -0.0389407 -0.0389407
0.0057443 -0.0421878 -0.0421878
0.00620415 -0.0494798 -0.0494798
0.0187706 -0.0499775 -0.0499775
0.0173677 -0.0426858 -0.0426858
0.00597476 -0.045764 -0.045764
0.0124833 -0.0496691 -0.0496691
0.0180703 -0.0462618 -0.0462618
0.0115519 -0.0423769 -0.0423769
0.0120185 -0.0459532 -0.0459532
0.00620415 -0.0494798 -0.0494798
0.0066597 -0.0573288 -0.0573288
0.020164 -0.0578265 -0.0578265
0.0187706 -0.0499775 -0.0499775
0.00643247 -0.0533349 -0.0533349
0.0134079 -0.0575184 -0.0575184
0.0194685 -0.0538325 -0.0538325
0.0124833 -0.0496691 -0.0496691
0.0129465 -0.0535243 -0.0535243
0.0066597 -0.0573288 -0.0573288
0.0071109 -0.0657316 -0.0657316
0.021548 -0.0662297 -0.0662297
0.020164 -0.0578265 -0.0578265
0.00688585 -0.0614611 -0.0614611
0.0143255 -0.0659218 -0.0659218
0.0208572 -0.061959 -0.061959
0.0134079 -0.0575184 -0.0575184
0.0138675 -0.061651 -0.061651
0.0071109 -0.0657316 -0.0657316
0.00755766 -0.0746855 -0.0746855
0.0229224 -0.0751842 -0.0751842
0.021548 -0.0662297 -0.0662297
0.00733484 -0.0701399 -0.0701399
0.0152361 -0.0748763 -0.0748763
0.0222364 -0.0706382 -0.0706382
0.0143255 -0.0659218 -0.0659218
0.0147817 -0.0703303 -0.0703303
0.00755766 -0.0746855 -0.0746855
0.00799989 -0.0841874 -0.0841874
0.0242872 -0.0846868 -0.0846868
0.0229224 -0.0751842 -0.0751842
0.00777935 -0.0793682 -0.0793682
0.0161396 -0.0843789 -0.0843789
0.023606 -0.0798671 -0.0798671
0.0152361 -0.0748763 -0.0748763
0.0156887 -0.0795593 -0.0795593
0.00799989 -0.0841874 -0.0841874
0.00843748 -0.0942343 -0.0942343
0.0256422 -0.0947346 -0.0947346
0.0242872 -0.0846868 -0.0846868
0.00821927 -0.0891429 -0.0891429
0.0170359 -0.0944265 -0.0944265
0.0249659 -0.0896428 -0.0896428
0.0161396 -0.0843789 -0.0843789
0.0165887 -0.0893348 -0.0893348
0.00843748 -0.0942343 -0.0942343
0.00887033 -0.104823 -0.104823
0.0269874 -0.105325 -0.105325
0.0256422 -0.0947346 -0.0947346
0.0086545 -0.0994611 -0.0994611
0.0179249 -0.105016 -0.105016
0.0263161 -0.099962 -0.099962
0.0170359 -0.0944265 -0.0944265
0.0174813 -0.0996538 -0.0996538
0.00887033 -0.104823 -0.104823
0.00929834 -0.115951 -0.115951
0.0283227 -0.116454 -0.116454
0.0269874 -0.105325 -0.105325
0.00908495 -0.11032 -0.11032
0.0188066 -0.116145 -0.116145
0.0276563 -0.110822 -0.110822
0.0179249 -0.105016 -0.105016
0.0183667 -0.110513 -0.110513
0.00929834 -0.115951 -0.115951
0.00972142 -0.127614 -0.127614
0.0296478 -0.128119 -0.128119
0.0283227 -0.116454 -0.116454
0.0095105 -0.121716 -0.121716
0.0196807 -0.12781 -0.12781
0.0289865 -0.122219 -0.122219
0.0188066 -0.116145 -0.116145
0.0192446 -0.12191 -0.12191
0.00972142 -0.127614 -0.127614
0.0101395 -0.139811 -0.139811
0.0309629 -0.140317 -0.140317
0.0296478 -0.128119 -0.128119
0.00993107 -0.133646 -0.133646
0.0205473 -0.140007 -0.140007
0.0303066 -0.134151 -0.134151
0.0196807 -0.12781 -0.12781
0.0201149 -0.133842 -0.133842
0.0101395 -0.139811 -0.139811
0.0105524 -0.152537 -0.152537
0.0322677 -0.153045 -0.153045
0.0309629 -0.140317 -0.140317
0.0103466 -0.146108 -0.146108
0.0214061 -0.152735 -0.152735
0.0316166 -0.146615 -0.146615
0.0205473 -0.140007 -0.140007
0.0209777 -0.146305 -0.146305
0.0105524 -0.152537 -0.152537
0.01096 -0.16579 -0.16579
0.0335621 -0.1663 -0.1663
0.0322677 -0.153045 -0.153045
0.0107569 -0.159098 -0.159098
0.0222572 -0.165989 -0.165989
0.0329162 -0.159607 -0.159607
0.0214061 -0.152735 -0.152735
0.0218326 -0.159296 -0.159296
0.01096 -0.16579 -0.16579
0.0113624 -0.179567 -0.179567
0.0348461 -0.180079 -0.180079
0.0335621 -0.1663 -0.1663
0.0111619 -0.172613 -0.172613
0.0231004 -0.179767 -0.179767
0.0342054 -0.173124 -0.173124
0.0222572 -0.165989 -0.165989
0.0226798 -0.172813 -0.172813
0.0113624 -0.179567 -0.179567
0.0117593 -0.193865 -0.193865
0.0361196 -0.194379 -0.194379
0.0348461 -0.180079 -0.180079
0.0115615 -0.186651 -0.186651
0.0239356 -0.194067 -0.194067
0.0354842 -0.187164 -0.187164
0.0231004 -0.179767 -0.179767
0.023519 -0.186852 -0.186852
0.0117593 -0.193865 -0.193865
0.0121508 -0.20868 -0.20868
0.0373825 -0.209197 -0.209197
0.0361196 -0.194379 -0.194379
0.0119557 -0.201208 -0.201208
0.0247628 -0.208883 -0.208883
0.0367524 -0.201723 -0.201723
0.0239356 -0.194067 -0.194067
0.0243502 -0.201411 -0.201411
0.0121508 -0.20868 -0.20868
0.0125366 -0.22401 -0.22401
0.0386347 -0.224529 -0.224529
0.0373825 -0.209197 -0.209197
0.0123444 -0.216281 -0.216281
0.0255818 -0.224215 -0.224215
0.0380099 -0.216799 -0.216799
0.0247628 -0.208883 -0.208883
0.0251733 -0.216485 -0.216485
0.0125366 -0.22401 -0.22401
0.0129168 -0.239852 -0.239852
0.0398761 -0.240374 -0.240374
0.0386347 -0.224529 -0.224529
0.0127274 -0.231867 -0.231867
0.0263926 -0.240058 -0.240058
0.0392567 -0.232388 -0.232388
0.0255818 -0.224215 -0.224215
0.0259882 -0.232073 -0.232073
0.0129168 -0.239852 -0.239852
0.0132912 -0.256202 -0.256202
0.0411066 -0.256727 -0.256727
0.0398761 -0.240374 -0.240374
0.0131047 -0.247964 -0.247964
0.0271951 -0.256411 -0.256411
0.0404927 -0.248487 -0.248487
0.0263926 -0.240058 -0.240058
0.0267949 -0.248171 -0.248171
0.0132912 -0.256202 -0.256202
0.0136598 -0.273058 -0.273058
0.0423261 -0.273586 -0.273586
0.0411066 -0.256727 -0.256727
0.0134762 -0.264567 -0.264567
0.0279891 -0.273268 -0.273268
0.0417177 -0.265093 -0.265093
0.0271951 -0.256411 -0.256411
0.0275932 -0.264776 -0.264776
0.0136598 -0.273058 -0.273058
0.0140224 -0.290417 -0.290417
0.0435347 -0.290948 -0.290948
0.0423261 -0.273586 -0.273586
0.0138418 -0.281675 -0.281675
0.0287747 -0.290629 -0.290629
0.0429318 -0.282204 -0.282204
0.0279891 -0.273268 -0.273268
0.028383 -0.281886 -0.281886
0.0140224 -0.290417 -0.290417
0.0143791 -0.308275 -0.308275
0.0447321 -0.308809 -0.308809
0.0435347 -0.290948 -0.290948
0.0142015 -0.299283 -0.299283
0.0295518 -0.308489 -0.308489
0.0441348 -0.299816 -0.299816
0.0287747 -0.290629 -0.290629
0.0291643 -0.299496 -0.299496
0.0143791 -0.308275 -0.308275
0.0147296 -0.326629 -0.326629
0.0459183 -0.327167 -0.327167
0.0447321 -0.308809 -0.308809
0.0145551 -0.31739 -0.31739
0.0303202 -0.326845 -0.326845
0.0453266 -0.317926 -0.317926
0.0295518 -0.308489 -0.308489
0.0299371 -0.317605 -0.317605
0.0147296 -0.326629 -0.326629
0.0150741 -0.345477 -0.345477
0.0470933 -0.346018 -0.346018
0.0459183 -0.327167 -0.327167
0.0149026 -0.335992 -0.335992
0.0310799 -0.345695 -0.345695
0.0465072 -0.336531 -0.336531
0.0303202 -0.326845 -0.326845
0.0307011 -0.336209 -0.336209
0.0150741 -0.345477 -0.345477
0.0154123 -0.364816 -0.364816
0.0482569 -0.36536 -0.36536
0.0470933 -0.346018 -0.346018
0.0152439 -0.355085 -0.355085
0.0318308 -0.365036 -0.365036
0.0476765 -0.355628 -0.355628
0.0310799 -0.345695 -0.345695
0.0314565 -0.355304 -0.355304
0.0154123 -0.364816 -0.364816
0.0157442 -0.384641 -0.384641
0.0494092 -0.38519 -0.38519
0.0482569 -0.36536 -0.36536
0.015579 -0.374668 -0.374668
0.0325729 -0.384864 -0.384864
0.0488345 -0.375214 -0.375214
0.0318308 -0.365036 -0.365036
0.032203 -0.374889 -0.374889
0.0157442 -0.384641 -0.384641
0.0160697 -0.404952 -0.404952
0.0505499 -0.405504 -0.405504
0.0494092 -0.38519 -0.38519
0.0159077 -0.394736 -0.394736
0.033306 -0.405176 -0.405176
0.049981 -0.395287 -0.395287
0.0325729 -0.384864 -0.384864
0.0329406 -0.39496 -0.39496
0.0160697 -0.404952 -0.404952
0.0163888 -0.425743 -0.425743
0.0516791 -0.4263 -0.4263
0.0505499 -0.405504 -0.405504
0.0162301 -0.415287 -0.415287
0.0340302 -0.42597 -0.42597
0.051116 -0.415842 -0.415842
0.033306 -0.405176 -0.405176
0.0336693 -0.415513 -0.415513
0.0163888 -0.425743 -0.425743
0.0167014 -0.447013 -0.447013
0.0527967 -0.447574 -0.447574
0.0516791 -0.4263 -0.4263
0.0165459 -0.436319 -0.436319
0.0347453 -0.447243 -0.447243
0.0522394 -0.436877 -0.436877
0.0340302 -0.42597 -0.42597
0.0343889 -0.436547 -0.436547
0.0167014 -0.447013 -0.447013
0.0170075 -0.468758 -0.468758
0.0539026 -0.469323 -0.469323
0.0527967 -0.447574 -0.447574
0.0168553 -0.457827 -0.457827
0.0354513 -0.46899 -0.46899
0.0533511 -0.458389 -0.458389
0.0347453 -0.447243 -0.447243
0.0350995 -0.458057 -0.458057
0.0170075 -0.468758 -0.468758
0.0173069 -0.490976 -0.490976
0.0549968 -0.491545 -0.491545
0.0539026 -0.469323 -0.469323
0.017158 -0.479808 -0.479808
0.0361481 -0.49121 -0.49121
0.0544512 -0.480375 -0.480375
0.0354513 -0.46899 -0.46899
0.0358009 -0.480041 -0.480041
0.0173069 -0.490976 -0.490976
0.0175996 -0.513663 -0.513663
0.0560792 -0.514236 -0.514236
0.0549968 -0.491545 -0.491545
0.0174541 -0.502261 -0.502261
0.0368357 -0.513899 -0.513899
0.0555395 -0.502832 -0.502832
0.0361481 -0.49121 -0.49121
0.0364931 -0.502496 -0.502496
0.0175996 -0.513663 -0.513663
0.0178856 -0.536816 -0.536816
0.0571497 -0.537393 -0.537393
0.0560792 -0.514236 -0.514236
0.0177435 -0.525181 -0.525181
0.037514 -0.537055 -0.537055
0.056616 -0.525757 -0.525757
0.0368357 -0.513899 -0.513899
0.037176 -0.525419 -0.525419
0.0178856 -0.536816 -0.536816
0.0181648 -0.560432 -0.560432
0.0582084 -0.561014 -0.561014
0.0571497 -0.537393 -0.537393
0.0180261 -0.548566 -0.548566
0.0381829 -0.560674 -0.560674
0.0576805 -0.549146 -0.549146
0.037514 -0.537055 -0.537055
0.0378496 -0.548807 -0.548807
0.0181648 -0.560432 -0.560432
0.0184371 -0.584508 -0.584508
0.059255 -0.585095 -0.585095
0.0582084 -0.561014 -0.561014
0.0183018 -0.572412 -0.572412
0.0388424 -0.584753 -0.584753
0.0587332 -0.572997 -0.572997
0.0381829 -0.560674 -0.560674
0.0385138 -0.572656 -0.572656
0.0184371 -0.584508 -0.584508
0.0187026 -0.609041 -0.609041
0.0602896 -0.609633 -0.609633
0.059255 -0.585095 -0.585095
0.0185707 -0.596718 -0.596718
0.0394924 -0.609289 -0.609289
0.0597738 -0.597307 -0.597307
0.0388424 -0.584753 -0.584753
0.0391686 -0.596964 -0.596964
0.0187026 -0.609041 -0.609041
0.018961 -0.634029 -0.634029
0.0613122 -0.634626 -0.634626
0.0602896 -0.609633 -0.609633
0.0188327 -0.621478 -0.621478
0.0401329 -0.634279 -0.634279
0.0608024 -0.622073 -0.622073
0.0394924 -0.609289 -0.609289
0.0398138 -0.621727 -0.621727
0.018961 -0.634029 -0.634029
0.0192124 -0.659467 -0.659467
0.0623226 -0.660069 -0.660069
0.0613122 -0.634626 -0.634626
0.0190876 -0.646692 -0.646692
0.0407638 -0.65972 -0.65972
0.0618189 -0.647291 -0.647291
0.0401329 -0.634279 -0.634279
0.0404495 -0.646943 -0.646943
0.0192124 -0.659467 -0.659467
0.0194568 -0.685354 -0.685354
0.0633208 -0.685961 -0.685961
0.0623226 -0.660069 -0.660069
0.0193355 -0.672355 -0.672355
0.0413851 -0.68561 -0.68561
0.0628232 -0.672959 -0.672959
0.0407638 -0.65972 -0.65972
0.0410757 -0.672609 -0.672609
0.0194568 -0.685354 -0.685354
0.0196941 -0.711685 -0.711685
0.0643068 -0.712297 -0.712297
0.0633208 -0.685961 -0.685961
0.0195763 -0.698464 -0.698464
0.0419968 -0.711944 -0.711944
0.0638153 -0.699074 -0.699074
0.0413851 -0.68561 -0.68561
0.0416921 -0.698721 -0.698721
0.0196941 -0.711685 -0.711685
0.0199242 -0.738459 -0.738459
0.0652805 -0.739076 -0.739076
0.0643068 -0.712297 -0.712297
0.01981 -0.725017 -0.725017
0.0425987 -0.738721 -0.738721
0.0647952 -0.725632 -0.725632
0.0419968 -0.711944 -0.711944
0.0422989 -0.725277 -0.725277
0.0199242 -0.738459 -0.738459
0.020147 -0.765671 -0.765671
0.066242 -0.766294 -0.766294
0.0652805 -0.739076 -0.739076
0.0200365 -0.752011 -0.752011
0.0431908 -0.765936 -0.765936
0.0657628 -0.75263 -0.75263
0.0425987 -0.738721 -0.738721
0.042896 -0.752274 -0.752274
0.020147 -0.765671 -0.765671
0.0203627 -0.79332 -0.79332
0.067191 -0.793948 -0.793948
0.066242 -0.766294 -0.766294
0.0202558 -0.779441 -0.779441
0.0437732 -0.793587 -0.793587
0.066718 -0.780066 -0.780066
0.0431908 -0.765936 -0.765936
0.0434832 -0.779707 -0.779707
0.0203627 -0.79332 -0.79332
0.020571 -0.821401 -0.821401
0.0681277 -0.822034 -0.822034
0.067191 -0.793948 -0.793948
0.0204678 -0.807307 -0.807307
0.0443457 -0.821672 -0.821672
0.0676609 -0.807937 -0.807937
0.0437732 -0.793587 -0.793587
0.0440607 -0.807576 -0.807576
0.020571 -0.821401 -0.821401
0.0207721 -0.849912 -0.849912
0.0690519 -0.850551 -0.850551
0.0681277 -0.822034 -0.822034
0.0206725 -0.835603 -0.835603
0.0449083 -0.850186 -0.850186
0.0685914 -0.836239 -0.836239
0.0443457 -0.821672 -0.821672
0.0446282 -0.835875 -0.835875
0.0207721 -0.849912 -0.849912
0.0209657 -0.87885 -0.87885
0.0699636 -0.879494 -0.879494
0.0690519 -0.850551 -0.850551
0.0208698 -0.864328 -0.864328
0.045461 -0.879127 -0.879127
0.0695093 -0.86497 -0.86497
0.0449083 -0.850186 -0.850186
0.0451859 -0.864603 -0.864603
0.0209657 -0.87885 -0.87885
0.021152 -0.908212 -0.908212
0.0708629 -0.908862 -0.908862
0.0699636 -0.879494 -0.879494
0.0210598 -0.893478 -0.893478
0.0460038 -0.908492 -0.908492
0.0704148 -0.894125 -0.894125
0.045461 -0.879127 -0.879127
0.0457336 -0.893757 -0.893757
0.021152 -0.908212 -0.908212
0.0213308 -0.937995 -0.937995
0.0717495 -0.93865 -0.93865
0.0708629 -0.908862 -0.908862
0.0212423 -0.923051 -0.923051
0.0465365 -0.938278 -0.938278
0.0713078 -0.923703 -0.923703
0.0460038 -0.908492 -0.908492
0.0462714 -0.923332 -0.923332
0.0213308 -0.937995 -0.937995
0.0215021 -0.968195 -0.968195
0.0726236 -0.968856 -0.968856
0.0717495 -0.93865 -0.93865
0.0214174 -0.953043 -0.953043
0.0470592 -0.968481 -0.968481
0.0721881 -0.953701 -0.953701
0.0465365 -0.938278 -0.938278
0.0467991 -0.953327 -0.953327
0.0215021 -0.968195 -0.968195
0.0216659 -0.99881 -0.99881
0.0734851 -0.999477 -0.999477
0.0726236 -0.968856 -0.968856
0.021585 -0.983451 -0.983451
0.0475719 -0.999099 -0.999099
0.0730559 -0.984115 -0.984115
0.0470592 -0.968481 -0.968481
0.0473168 -0.983738 -0.983738
0.0216659 -0.99881 -0.99881
0.0218222 -1.02984 -1.02984
0.0743339 -1.03051 -1.03051
0.0734851 -0.999477 -0.999477
0.021745 -1.01427 -1.01427
0.0480744 -1.03013 -1.03013
0.0739111 -1.01494 -1.01494
0.0475719 -0.999099 -0.999099
0.0478244 -1.01456 -1.01456
0.0218222 -1.02984 -1.02984
0.0219709 -1.06127 -1.06127
0.07517 -1.06195 -1.06195
0.0743339 -1.03051 -1.03051
0.0218975 -1.0455 -1.0455
0.0485668 -1.06157 -1.06157
0.0747535 -1.04618 -1.04618
0.0480744 -1.03013 -1.03013
0.0483219 -1.0458 -1.0458
0.0219709 -1.06127 -1.06127
0.0221121 -1.09311 -1.09311
0.0759935 -1.0938 -1.0938
0.07517 -1.06195 -1.06195
0.0220425 -1.07714 -1.07714
0.0490491 -1.09341 -1.09341
0.0755833 -1.07782 -1.07782
0.0485668 -1.06157 -1.06157
0.0488093 -1.07744 -1.07744
0.0221121 -1.09311 -1.09311
0.0222456 -1.12536 -1.12536
0.0768042 -1.12605 -1.12605
0.0759935 -1.0938 -1.0938
0.0221798 -1.10918 -1.10918
0.0495212 -1.12566 -1.12566
0.0764004 -1.10987 -1.10987
0.0490491 -1.09341 -1.09341
0.0492865 -1.10949 -1.10949
0.0222456 -1.12536 -1.12536
0.0223715 -1.158 -1.158
0.0776021 -1.1587 -1.1587
0.0768042 -1.12605 -1.12605
0.0223095 -1.14163 -1.14163
0.0499831 -1.15831 -1.15831
0.0772047 -1.14232 -1.14232
0.0495212 -1.12566 -1.12566
0.0497535 -1.14193 -1.14193
0.0223715 -1.158 -1.158
0.0224896 -1.19104 -1.19104
0.0783873 -1.19174 -1.19174
0.0776021 -1.1587 -1.1587
0.0224315 -1.17447 -1.17447
0.0504348 -1.19135 -1.19135
0.0779963 -1.17517 -1.17517
0.0499831 -1.15831 -1.15831
0.0502103 -1.17478 -1.17478
0.0224896 -1.19104 -1.19104
0.0226002 -1.22447 -1.22447
0.0791596 -1.22518 -1.22518
0.0783873 -1.19174 -1.19174
0.0225459 -1.20771 -1.20771
0.0508763 -1.22478 -1.22478
0.078775 -1.20841 -1.20841
0.0504348 -1.19135 -1.19135
0.0506568 -1.20802 -1.20802
0.0226002 -1.22447 -1.22447
0.0227029 -1.2583 -1.2583
0.0799192 -1.25901 -1.25901
0.0791596 -1.22518 -1.22518
0.0226525 -1.24134 -1.24134
0.0513074 -1.25861 -1.25861
0.079541 -1.24205 -1.24205
0.0508763 -1.22478 -1.22478
0.0510931 -1.24165 -1.24165
0.0227029 -1.2583 -1.2583
0.022798 -1.29251 -1.29251
0.0806658 -1.29323 -1.29323
0.0799192 -1.25901 -1.25901
0.0227514 -1.27535 -1.27535
0.0517283 -1.29283 -1.29283
0.0802941 -1.27607 -1.27607
0.0513074 -1.25861 -1.25861
0.0515191 -1.27567 -1.27567
0.022798 -1.29251 -1.29251
0.0228853 -1.3271 -1.3271
0.0813997 -1.32783 -1.32783
0.0806658 -1.29323 -1.29323
0.0228426 -1.30976 -1.30976
0.0521389 -1.32742 -1.32742
0.0810344 -1.31048 -1.31048
0.0517283 -1.29283 -1.29283
0.0519349 -1.31008 -1.31008
0.0228853 -1.3271 -1.3271
0.0229649 -1.36208 -1.36208
0.0821206 -1.36281 -1.36281
0.0813997 -1.32783 -1.32783
0.0229261 -1.34454 -1.34454
0.0525391 -1.3624 -1.3624
0.0817618 -1.34527 -1.34527
0.0521389 -1.32742 -1.32742
0.0523403 -1.34487 -1.34487
0.0229649 -1.36208 -1.36208
0.0230366 -1.39743 -1.39743
0.0828287 -1.39817 -1.39817
0.0821206 -1.36281 -1.36281
0.0230017 -1.37971 -1.37971
0.052929 -1.39776 -1.39776
0.0824763 -1.38045 -1.38045
0.0525391 -1.3624 -1.3624
0.0527354 -1.38004 -1.38004
0.0230366 -1.39743 -1.39743
0.0231006 -1.43316 -1.43316
0.0835238 -1.43391 -1.43391
0.0828287 -1.39817 -1.39817
0.0230696 -1.41525 -1.41525
0.0533086 -1.4335 -1.4335
0.0831779 -1.416 -1.416
0.052929 -1.39776 -1.39776
0.0531201 -1.41558 -1.41558
0.0231006 -1.43316 -1.43316
0.0231567 -1.46927 -1.46927
0.0842061 -1.47002 -1.47002
0.0835238 -1.43391 -1.43391
0.0231296 -1.45117 -1.45117
0.0536778 -1.4696 -1.4696
0.0838666 -1.45192 -1.45192
0.0533086 -1.4335 -1.4335
0.0534945 -1.4515 -1.4515
0.0231567 -1.46927 -1.46927
0.0232051 -1.50574 -1.50574
0.0848754 -1.5065 -1.5065
0.0842061 -1.47002 -1.47002
0.0231819 -1.48746 -1.48746
0.0540366 -1.50608 -1.50608
0.0845423 -1.48821 -1.48821
0.0536778 -1.4696 -1.4696
0.0538585 -1.4878 -1.4878
0.0232051 -1.50574 -1.50574
0.0232456 -1.54258 -1.54258
0.0855317 -1.54334 -1.54334
0.0848754 -1.5065 -1.5065
0.0232263 -1.52411 -1.52411
0.054385 -1.54292 -1.54292
0.0852052 -1.52487 -1.52487
0.0540366 -1.50608 -1.50608
0.0542121 -1.52445 -1.52445
0.0232456 -1.54258 -1.54258
0.0232783 -1.57978 -1.57978
0.0861751 -1.58055 -1.58055
0.0855317 -1.54334 -1.54334
0.0232629 -1.56113 -1.56113
0.0547231 -1.58013 -1.58013
0.085855 -1.5619 -1.5619
0.054385 -1.54292 -1.54292
0.0545554 -1.56148 -1.56148
0.0232783 -1.57978 -1.57978
0.0233031 -1.61734 -1.61734
0.0868056 -1.61812 -1.61812
0.0861751 -1.58055 -1.58055
0.0232916 -1.59852 -1.59852
0.0550507 -1.61769 -1.61769
0.086492 -1.59929 -1.59929
0.0547231 -1.58013 -1.58013
0.0548882 -1.59886 -1.59886
0.0233031 -1.61734 -1.61734
0.02332 -1.65526 -1.65526
0.0874231 -1.65604 -1.65604
0.0868056 -1.61812 -1.61812
0.0233125 -1.63626 -1.63626
0.0553679 -1.65561 -1.65561
0.0871159 -1.63704 -1.63704
0.0550507 -1.61769 -1.61769
0.0552106 -1.63661 -1.63661
0.02332 -1.65526 -1.65526
0.0233292 -1.69353 -1.69353
0.0880276 -1.69432 -1.69432
0.0874231 -1.65604 -1.65604
0.0233256 -1.67435 -1.67435
0.0556748 -1.69389 -1.69389
0.0877269 -1.67514 -1.67514
0.0553679 -1.65561 -1.65561
0.0555227 -1.67471 -1.67471
0.0233292 -1.69353 -1.69353
0.0233304 -1.73216 -1.73216
0.0886191 -1.73295 -1.73295
0.0880276 -1.69432 -1.69432
0.0233308 -1.7128 -1.7128
0.0559712 -1.73252 -1.73252
0.088325 -1.71359 -1.71359
0.0556748 -1.69389 -1.69389
0.0558243 -1.71316 -1.71316
0.0233304 -1.73216 -1.73216
0.0233238 -1.77113 -1.77113
0.0891977 -1.77193 -1.77193
0.0886191 -1.73295 -1.73295
0.0233281 -1.7516 -1.7516
0.0562572 -1.77149 -1.77149
0.08891 -1.7524 -1.7524
0.0559712 -1.73252 -1.73252
0.0561155 -1.75196 -1.75196
0.0233238 -1.77113 -1.77113
0.0233094 -1.81045 -1.81045
0.0897633 -1.81126 -1.81126
0.0891977 -1.77193 -1.77193
0.0233176 -1.79074 -1.79074
0.0565327 -1.81081 -1.81081
0.0894821 -1.79155 -1.79155
0.0562572 -1.77149 -1.77149
0.0563962 -1.79111 -1.79111
0.0233094 -1.81045 -1.81045
0.023287 -1.85011 -1.85011
0.0903159 -1.85092 -1.85092
0.0897633 -1.81126 -1.81126
0.0232992 -1.83023 -1.83023
0.0567979 -1.85048 -1.85048
0.0900412 -1.83105 -1.83105
0.0565327 -1.81081 -1.81081
0.0566666 -1.8306 -1.8306
0.023287 -1.85011 -1.85011
0.0232568 -1.8901 -1.8901
0.0908556 -1.89093 -1.89093
0.0903159 -1.85092 -1.85092
0.0232729 -1.87006 -1.87006
0.0570526 -1.89048 -1.89048
0.0905874 -1.87088 -1.87088
0.0567979 -1.85048 -1.85048
0.0569265 -1.87044 -1.87044
0.0232568 -1.8901 -1.8901
0.0232188 -1.93044 -1.93044
0.0913823 -1.93127 -1.93127
0.0908556 -1.89093 -1.89093
0.0232388 -1.91023 -1.91023
0.0572969 -1.93082 -1.93082
0.0911206 -1.91105 -1.91105
0.0570526 -1.89048 -1.89048
0.0571761 -1.91061 -1.91061
0.0232188 -1.93044 -1.93044
0.0231729 -1.9711 -1.9711
0.091896 -1.97194 -1.97194
0.0913823 -1.93127 -1.93127
0.0231968 -1.95073 -1.95073
0.0575308 -1.97149 -1.97149
0.0916408 -1.95156 -1.95156
0.0572969 -1.93082 -1.93082
0.0574152 -1.95111 -1.95111
0.0231729 -1.9711 -1.9711
0.0231191 -2.0121 -2.0121
0.0923968 -2.01294 -2.01294
0.091896 -1.97194 -1.97194
0.023147 -1.99156 -1.99156
0.0577543 -2.01249 -2.01249
0.092148 -1.9924 -1.9924
0.0575308 -1.97149 -1.97149
0.0576439 -1.99195 -1.99195
0.0231191 -2.0121 -2.0121
0.0230575 -2.05343 -2.05343
0.0928846 -2.05427 -2.05427
0.0923968 -2.01294 -2.01294
0.0230893 -2.03272 -2.03272
0.0579674 -2.05381 -2.05381
0.0926423 -2.03357 -2.03357
0.0577543 -2.01249 -2.01249
0.0578622 -2.03311 -2.03311
0.0230575 -2.05343 -2.05343
0.0229881 -2.09507 -2.09507
0.0933594 -2.09593 -2.09593
0.0928846 -2.05427 -2.05427
0.0230238 -2.07421 -2.07421
0.0581702 -2.09547 -2.09547
0.0931236 -2.07506 -2.07506
0.0579674 -2.05381 -2.05381
0.0580701 -2.0746 -2.0746
0.0229881 -2.09507 -2.09507
0.0229109 -2.13704 -2.13704
0.0938214 -2.1379 -2.1379
0.0933594 -2.09593 -2.09593
0.0229505 -2.11602 -2.11602
0.0583625 -2.13744 -2.13744
0.093592 -2.11687 -2.11687
0.0581702 -2.09547 -2.09547
0.0582676 -2.11641 -2.11641
0.0229109 -2.13704 -2.13704
0.0228258 -2.17933 -2.17933
0.0942704 -2.18019 -2.18019
0.0938214 -2.1379 -2.1379
0.0228693 -2.15815 -2.15815
0.0585445 -2.17973 -2.17973
0.0940475 -2.15901 -2.15901
0.0583625 -2.13744 -2.13744
0.0584548 -2.15854 -2.15854
0.0228258 -2.17933 -2.17933
0.0227329 -2.22193 -2.22193
0.0947064 -2.2228 -2.2228
0.0942704 -2.18019 -2.18019
0.0227803 -2.20059 -2.20059
0.058716 -2.22233 -2.22233
0.09449 -2.20146 -2.20146
0.0585445 -2.17973 -2.17973
0.0586315 -2.20099 -2.20099
0.0227329 -2.22193 -2.22193
0.0226322 -2.26484 -2.26484
0.0951296 -2.26572 -2.26572
0.0947064 -2.2228 -2.2228
0.0226835 -2.24335 -2.24335
0.0588773 -2.26525 -2.26525
0.0949196 -2.24422 -2.24422
0.058716 -2.22233 -2.22233
0.058798 -2.24375 -2.24375
0.0226322 -2.26484 -2.26484
0.0225238 -2.30806 -2.30806
0.0955399 -2.30895 -2.30895
0.0951296 -2.26572 -2.26572
0.022579 -2.28641 -2.28641
0.0590282 -2.30847 -2.30847
0.0953364 -2.2873 -2.2873
0.0588773 -2.26525 -2.26525
0.058954 -2.28682 -2.28682
0.0225238 -2.30806 -2.30806
0.0224076 -2.35159 -2.35159
0.0959373 -2.35248 -2.35248
0.0955399 -2.30895 -2.30895
0.0224666 -2.32979 -2.32979
0.0591688 -2.352 -2.352
0.0957402 -2.33068 -2.33068
0.0590282 -2.30847 -2.30847
0.0590998 -2.3302 -2.3302
0.0224076 -2.35159 -2.35159
0.0222836 -2.39542 -2.39542
0.0963218 -2.39632 -2.39632
0.0959373 -2.35248 -2.35248
0.0223465 -2.37347 -2.37347
0.0592991 -2.39584 -2.39584
0.0961312 -2.37436 -2.37436
0.0591688 -2.352 -2.352
0.0592352 -2.37388 -2.37388
0.0222836 -2.39542 -2.39542
0.0221519 -2.43955 -2.43955
0.0966935 -2.44045 -2.44045
0.0963218 -2.39632 -2.39632
0.0222187 -2.41745 -2.41745
0.0594191 -2.43997 -2.43997
0.0965093 -2.41835 -2.41835
0.0592991 -2.39584 -2.39584
0.0593604 -2.41787 -2.41787
0.0221519 -2.43955 -2.43955
0.0220125 -2.48398 -2.48398
0.0970524 -2.48488 -2.48488
0.0966935 -2.44045 -2.44045
0.0220831 -2.46173 -2.46173
0.0595288 -2.4844 -2.4844
0.0968746 -2.46263 -2.46263
0.0594191 -2.43997 -2.43997
0.0594752 -2.46215 -2.46215
0.0220125 -2.48398 -2.48398
0.0218653 -2.5287 -2.5287
0.0973984 -2.52961 -2.52961
0.0970524 -2.48488 -2.48488
0.0219399 -2.5063 -2.5063
0.0596283 -2.52912 -2.52912
0.097227 -2.50721 -2.50721
0.0595288 -2.4844 -2.4844
0.0595798 -2.50672 -2.50672
0.0218653 -2.5287 -2.5287
0.0217105 -2.57371 -2.57371
0.0977317 -2.57463 -2.57463
0.0973984 -2.52961 -2.52961
0.0217889 -2.55116 -2.55116
0.0597175 -2.57413 -2.57413
0.0975667 -2.55208 -2.55208
0.0596283 -2.52912 -2.52912
0.0596741 -2.55159 -2.55159
0.0217105 -2.57371 -2.57371
0.0215481 -2.619 -2.619
0.0980522 -2.61993 -2.61993
0.0977317 -2.57463 -2.57463
0.0216303 -2.59632 -2.59632
0.0597965 -2.61944 -2.61944
0.0978936 -2.59724 -2.59724
0.0597175 -2.57413 -2.57413
0.0597583 -2.59675 -2.59675
0.0215481 -2.619 -2.619
0.021378 -2.66458 -2.66458
0.09836 -2.66552 -2.66552
0.0980522 -2.61993 -2.61993
0.021464 -2.64176 -2.64176
0.0598653 -2.66502 -2.66502
0.0982077 -2.64269 -2.64269
0.0597965 -2.61944 -2.61944
0.0598322 -2.64219 -2.64219
0.021378 -2.66458 -2.66458
0.0212003 -2.71045 -2.71045
0.098655 -2.71139 -2.71139
0.09836 -2.66552 -2.66552
0.0212901 -2.68748 -2.68748
0.059924 -2.71089 -2.71089
0.0985091 -2.68842 -2.68842
0.0598653 -2.66502 -2.66502
0.0598959 -2.68792 -2.68792
0.0212003 -2.71045 -2.71045
0.021015 -2.75659 -2.75659
0.0989373 -2.75754 -2.75754
0.098655 -2.71139 -2.71139
0.0211086 -2.73348 -2.73348
0.0599725 -2.75703 -2.75703
0.0987977 -2.73443 -2.73443
0.059924 -2.71089 -2.71089
0.0599495 -2.73393 -2.73393
0.021015 -2.75659 -2.75659
0.0208221 -2.80301 -2.80301
0.0992069 -2.80396 -2.80396
0.0989373 -2.75754 -2.75754
0.0209195 -2.77976 -2.77976
0.0600109 -2.80345 -2.80345
0.0990737 -2.78071 -2.78071
0.0599725 -2.75703 -2.75703
0.0599929 -2.78021 -2.78021
0.0208221 -2.80301 -2.80301
0.0206217 -2.8497 -2.8497
0.0994639 -2.85065 -2.85065
0.0992069 -2.80396 -2.80396
0.0207228 -2.82632 -2.82632
0.0600392 -2.85015 -2.85015
0.099337 -2.82727 -2.82727
0.0600109 -2.80345 -2.80345
0.0600263 -2.82677 -2.82677
0.0206217 -2.8497 -2.8497
0.0204138 -2.89666 -2.89666
0.0997083 -2.89762 -2.89762
0.0994639 -2.85065 -2.85065
0.0205187 -2.87314 -2.87314
0.0600574 -2.89711 -2.89711
0.0995877 -2.8741 -2.8741
0.0600392 -2.85015 -2.85015
0.0600495 -2.87359 -2.87359
0.0204138 -2.89666 -2.89666
0.0201983 -2.94388 -2.94388
0.0999401 -2.94485 -2.94485
0.0997083 -2.89762 -2.89762
0.020307 -2.92024 -2.92024
0.0600656 -2.94434 -2.94434
0.0998258 -2.9212 -2.9212
0.0600574 -2.89711 -2.89711
0.0600627 -2.92069 -2.92069
0.0201983 -2.94388 -2.94388
0.0199755 -2.99137 -2.99137
0.100159 -2.99234 -2.99234
0.0999401 -2.94485 -2.94485
0.0200878 -2.96759 -2.96759
0.0600637 -2.99183 -2.99183
0.100051 -2.96856 -2.96856
0.0600656 -2.94434 -2.94434
0.0600659 -2.96805 -2.96805
0.0199755 -2.99137 -2.99137
0.0197452 -3.03912 -3.03912
0.100366 -3.0401 -3.0401
0.100159 -2.99234 -2.99234
0.0198613 -3.01521 -3.01521
0.0600519 -3.03958 -3.03958
0.100264 -3.01619 -3.01619
0.0600637 -2.99183 -2.99183
0.0600591 -3.01567 -3.01567
0.0197452 -3.03912 -3.03912
0.0195075 -3.08712 -3.08712
0.10056 -3.08811 -3.08811
0.100366 -3.0401 -3.0401
0.0196273 -3.06309 -3.06309
0.0600301 -3.08759 -3.08759
0.100465 -3.06407 -3.06407
0.0600519 -3.03958 -3.03958
0.0600423 -3.06355 -3.06355
0.0195075 -3.08712 -3.08712
0.0192624 -3.13538 -3.13538
0.100742 -3.13637 -3.13637
0.10056 -3.08811 -3.08811
0.0193859 -3.11122 -3.11122
0.0599984 -3.13585 -3.13585
0.100653 -3.11221 -3.11221
0.0600301 -3.08759 -3.08759
0.0600155 -3.11169 -3.11169
0.0192624 -3.13538 -3.13538
0.01901 -3.1839 -3.1839
0.100911 -3.18489 -3.18489
0.100742 -3.13637 -3.13637
0.0191372 -3.15961 -3.15961
0.0599569 -3.18437 -3.18437
0.100828 -3.1606 -3.1606
0.0599984 -3.13585 -3.13585
0.0599789 -3.16008 -3.16008
0.01901 -3.1839 -3.1839
0.0187504 -3.23266 -3.23266
0.101068 -3.23366 -3.23366
0.100911 -3.18489 -3.18489
0.0188811 -3.20824 -3.20824
0.0599054 -3.23313 -3.23313
0.100991 -3.20924 -3.20924
0.0599569 -3.18437 -3.18437
0.0599324 -3.20872 -3.20872
0.0187504 -3.23266 -3.23266
0.0184834 -3.28166 -3.28166
0.101212 -3.28267 -3.28267
0.101068 -3.23366 -3.23366
0.0186178 -3.25713 -3.25713
0.0598442 -3.28214 -3.28214
0.101142 -3.25813 -3.25813
0.0599054 -3.23313 -3.23313
0.059876 -3.2576 -3.2576
0.0184834 -3.28166 -3.28166
0.0182092 -3.33091 -3.33091
0.101344 -3.33192 -3.33192
0.101212 -3.28267 -3.28267
0.0183472 -3.30625 -3.30625
0.0597731 -3.33139 -3.33139
0.10128 -3.30726 -3.30726
0.0598442 -3.28214 -3.28214
0.0598099 -3.30673 -3.30673
0.0182092 -3.33091 -3.33091
0.0179278 -3.38039 -3.38039
0.101464 -3.38141 -3.38141
0.101344 -3.33192 -3.33192
0.0180694 -3.35562 -3.35562
0.0596923 -3.38088 -3.38088
0.101406 -3.35663 -3.35663
0.0597731 -3.33139 -3.33139
0.0597339 -3.3561 -3.3561
0.0179278 -3.38039 -3.38039
0.0176393 -3.43011 -3.43011
0.101572 -3.43114 -3.43114
0.101464 -3.38141 -3.38141
0.0177844 -3.40522 -3.40522
0.0596018 -3.4306 -3.4306
0.101519 -3.40624 -3.40624
0.0596923 -3.38088 -3.38088
0.0596483 -3.40571 -3.40571
0.0176393 -3.43011 -3.43011
0.0173436 -3.48007 -3.48007
0.101667 -3.4811 -3.4811
0.101572 -3.43114 -3.43114
0.0174923 -3.45506 -3.45506
0.0595016 -3.48056 -3.48056
0.101621 -3.45609 -3.45609
0.0596018 -3.4306 -3.4306
0.0595529 -3.45555 -3.45555
0.0173436 -3.48007 -3.48007
0.0170409 -3.53025 -3.53025
0.10175 -3.53129 -3.53129
0.101667 -3.4811 -3.4811
0.0171931 -3.50513 -3.50513
0.0593918 -3.53075 -3.53075
0.10171 -3.50616 -3.50616
0.0595016 -3.48056 -3.48056
0.0594479 -3.50562 -3.50562
0.0170409 -3.53025 -3.53025
0.0167311 -3.58067 -3.58067
0.101821 -3.5817 -3.5817
0.10175 -3.53129 -3.53129
0.0168868 -3.55543 -3.55543
0.0592724 -3.58116 -3.58116
0.101787 -3.55647 -3.55647
0.0593918 -3.53075 -3.53075
0.0593333 -3.55592 -3.55592
0.0167311 -3.58067 -3.58067
0.0164143 -3.6313 -3.6313
0.10188 -3.63234 -3.63234
0.101821 -3.5817 -3.5817
0.0165735 -3.60596 -3.60596
0.0591434 -3.6318 -3.6318
0.101852 -3.60699 -3.60699
0.0592724 -3.58116 -3.58116
0.0592091 -3.60645 -3.60645
0.0164143 -3.6313 -3.6313
0.0160905 -3.68216 -3.68216
0.101927 -3.6832 -3.6832
0.10188 -3.63234 -3.63234
0.0162532 -3.6567 -3.6567
0.0590049 -3.68266 -3.68266
0.101905 -3.65775 -3.65775
0.0591434 -3.6318 -3.6318
0.0590753 -3.6572 -3.6572
0.0160905 -3.68216 -3.68216
0.0157598 -3.73323 -3.73323
0.101961 -3.73428 -3.73428
0.101927 -3.6832 -3.6832
0.015926 -3.70767 -3.70767
0.0588569 -3.73373 -3.73373
0.101946 -3.70872 -3.70872
0.0590049 -3.68266 -3.68266
0.0589321 -3.70817 -3.70817
0.0157598 -3.73323 -3.73323
0.0154223 -3.78452 -3.78452
0.101984 -3.78558 -3.78558
0.101961 -3.73428 -3.73428
0.0155919 -3.75885 -3.75885
0.0586995 -3.78503 -3.78503
0.101974 -3.7599 -3.7599
0.0588569 -3.73373 -3.73373
0.0587794 -3.75935 -3.75935
0.0154223 -3.78452 -3.78452
0.0150779 -3.83602 -3.83602
0.101995 -3.83708 -3.83708
0.101984 -3.78558 -3.78558
0.0152509 -3.81025 -3.81025
0.0585327 -3.83653 -3.83653
0.101991 -3.8113 -3.8113
0.0586995 -3.78503 -3.78503
0.0586172 -3.81075 -3.81075
0.0150779 -3.83602 -3.83602
0.0147267 -3.88773 -3.88773
0.101994 -3.8888 -3.8888
0.101995 -3.83708 -3.83708
0.0149031 -3.86185 -3.86185
0.0583565 -3.88824 -3.88824
0.101996 -3.86291 -3.86291
0.0585327 -3.83653 -3.83653
0.0584458 -3.86236 -3.86236
0.0147267 -3.88773 -3.88773
0.0143687 -3.93965 -3.93965
0.101981 -3.94072 -3.94072
0.101994 -3.8888 -3.8888
0.0145485 -3.91366 -3.91366
0.0581711 -3.94016 -3.94016
0.101989 -3.91473 -3.91473
0.0583565 -3.88824 -3.88824
0.0582649 -3.91418 -3.91418
0.0143687 -3.93965 -3.93965
0.0140041 -3.99177 -3.99177
0.101956 -3.99284 -3.99284
0.101981 -3.94072 -3.94072
0.0141872 -3.96568 -3.96568
0.0579763 -3.99228 -3.99228
0.10197 -3.96675 -3.96675
0.0581711 -3.94016 -3.94016
0.0580748 -3.9662 -3.9662
0.0140041 -3.99177 -3.99177
0.0136328 -4.04408 -4.04408
0.10192 -4.04516 -4.04516
0.101956 -3.99284 -3.99284
0.0138193 -4.0179 -4.0179
0.0577724 -4.0446 -4.0446
0.101939 -4.01898 -4.01898
0.0579763 -3.99228 -3.99228
0.0578755 -4.01842 -4.01842
0.0136328 -4.04408 -4.04408
0.0132549 -4.0966 -4.0966
0.101871 -4.09768 -4.09768
0.10192 -4.04516 -4.04516
0.0134446 -4.07032 -4.07032
0.0575593 -4.09712 -4.09712
0.101897 -4.0714 -4.0714
0.0577724 -4.0446 -4.0446
0.057667 -4.07084 -4.07084
0.0132549 -4.0966 -4.0966
0.0128704 -4.14931 -4.14931
0.101811 -4.15039 -4.15039
0.101871 -4.09768 -4.09768
0.0130635 -4.12293 -4.12293
0.0573371 -4.14983 -4.14983
0.101843 -4.12401 -4.12401
0.0575593 -4.09712 -4.09712
0.0574493 -4.12345 -4.12345
0.0128704 -4.14931 -4.14931
0.0124794 -4.2022 -4.2022
0.10174 -4.2033 -4.2033
0.101811 -4.15039 -4.15039
0.0126757 -4.17573 -4.17573
0.0571058 -4.20273 -4.20273
0.101777 -4.17682 -4.17682
0.0573371 -4.14983 -4.14983
0.0572226 -4.17626 -4.17626
0.0124794 -4.2022 -4.2022
0.012082 -4.25529 -4.25529
0.101657 -4.25639 -4.25639
0.10174 -4.2033 -4.2033
0.0122815 -4.22872 -4.22872
0.0568655 -4.25582 -4.25582
0.1017 -4.22982 -4.22982
0.0571058 -4.20273 -4.20273
0.0569868 -4.22925 -4.22925
0.012082 -4.25529 -4.25529
0.0116781 -4.30856 -4.30856
0.101562 -4.30966 -4.30966
0.101657 -4.25639 -4.25639
0.0118808 -4.2819 -4.2819
0.0566162 -4.30909 -4.30909
0.101611 -4.283 -4.283
0.0568655 -4.25582 -4.25582
0.056742 -4.28243 -4.28243
0.0116781 -4.30856 -4.30856
0.0112679 -4.36201 -4.36201
0.101456 -4.36312 -4.36312
0.101562 -4.30966 -4.30966
0.0114738 -4.33527 -4.33527
0.0563581 -4.36255 -4.36255
0.10151 -4.33637 -4.33637
0.0566162 -4.30909 -4.30909
0.0564883 -4.3358 -4.3358
0.0112679 -4.36201 -4.36201
0.0108513 -4.41565 -4.41565
0.101338 -4.41675 -4.41675
0.101456 -4.36312 -4.36312
0.0110604 -4.38881 -4.38881
0.056091 -4.41618 -4.41618
0.101398 -4.38991 -4.38991
0.0563581 -4.36255 -4.36255
0.0562256 -4.38934 -4.38934
0.0108513 -4.41565 -4.41565
0.0104285 -4.46945 -4.46945
0.101209 -4.47056 -4.47056
0.101338 -4.41675 -4.41675
0.0106407 -4.44253 -4.44253
0.0558151 -4.46999 -4.46999
0.101275 -4.44364 -4.44364
0.056091 -4.41618 -4.41618
0.0559542 -4.44306 -4.44306
0.0104285 -4.46945 -4.46945
0.00999949 -4.52343 -4.52343
0.101069 -4.52454 -4.52454
0.101209 -4.47056 -4.47056
0.0102148 -4.49642 -4.49642
0.0555305 -4.52397 -4.52397
0.101141 -4.49753 -4.49753
0.0558151 -4.46999 -4.46999
0.0556739 -4.49696 -4.49696
0.00999949 -4.52343 -4.52343
0.00956431 -4.57758 -4.57758
0.100918 -4.5787 -4.5787
0.101069 -4.52454 -4.52454
0.00978267 -4.55048 -4.55048
0.0552371 -4.57812 -4.57812
0.100995 -4.5516 -4.5516
0.0555305 -4.52397 -4.52397
0.0553849 -4.55102 -4.55102
0.00956431 -4.57758 -4.57758
0.00912303 -4.63189 -4.63189
0.100755 -4.63301 -4.63301
0.100918 -4.5787 -4.5787
0.00934443 -4.60472 -4.60472
0.0549351 -4.63244 -4.63244
0.100838 -4.60583 -4.60583
0.0552371 -4.57812 -4.57812
0.0550872 -4.60526 -4.60526
0.00912303 -4.63189 -4.63189
0.0086757 -4.68637 -4.68637
0.100581 -4.6875 -4.6875
0.100755 -4.63301 -4.63301
0.00890012 -4.65911 -4.65911
0.0546245 -4.68692 -4.68692
0.100669 -4.66023 -4.66023
0.0549351 -4.63244 -4.63244
0.0547809 -4.65966 -4.65966
0.0086757 -4.68637 -4.68637
0.00822237 -4.74101 -4.74101
0.100396 -4.74214 -4.74214
0.100581 -4.6875 -4.6875
0.00844978 -4.71367 -4.71367
0.0543053 -4.74156 -4.74156
0.10049 -4.7148 -4.7148
0.0546245 -4.68692 -4.68692
0.0544659 -4.71422 -4.71422
0.00822237 -4.74101 -4.74101
0.0077631 -4.79581 -4.79581
0.1002 -4.79694 -4.79694
0.100396 -4.74214 -4.74214
0.00799347 -4.76839 -4.76839
0.0539776 -4.79635 -4.79635
0.100299 -4.76952 -4.76952
0.0543053 -4.74156 -4.74156
0.0541425 -4.76894 -4.76894
0.0077631 -4.79581 -4.79581
0.00729794 -4.85076 -4.85076
0.0999927 -4.85189 -4.85189
0.1002 -4.79694 -4.79694
0.00753125 -4.82326 -4.82326
0.0536415 -4.85131 -4.85131
0.100098 -4.82439 -4.82439
0.0539776 -4.79635 -4.79635
0.0538106 -4.82381 -4.82381
0.00729794 -4.85076 -4.85076
0.00682695 -4.90586 -4.90586
0.0997747 -4.90699 -4.90699
0.0999927 -4.85189 -4.85189
0.00706317 -4.87829 -4.87829
0.053297 -4.90641 -4.90641
0.0998851 -4.87942 -4.87942
0.0536415 -4.85131 -4.85131
0.0534703 -4.87884 -4.87884
0.00682695 -4.90586 -4.90586
0.00635019 -4.96111 -4.96111
0.0995459 -4.96225 -4.96225
0.0997747 -4.90699 -4.90699
0.00658929 -4.93346 -4.93346
0.0529442 -4.96166 -4.96166
0.0996617 -4.9346 -4.9346
0.053297 -4.90641 -4.90641
0.0531216 -4.93402 -4.93402
0.00635019 -4.96111 -4.96111
0.00586772 -5.0165 -5.0165
0.0993062 -5.01764 -5.01764
0.0995459 -4.96225 -4.96225
0.00610966 -4.98879 -4.98879
0.0525831 -5.01706 -5.01706
0.0994274 -4.98993 -4.98993
0.0529442 -4.96166 -4.96166
0.0527647 -4.98934 -4.98934
0.00586772 -5.0165 -5.0165
0.00537958 -5.07204 -5.07204
0.0990557 -5.07318 -5.07318
0.0993062 -5.01764 -5.01764
0.00562435 -5.04425 -5.04425
0.0522138 -5.0726 -5.0726
0.0991823 -5.0454 -5.0454
0.0525831 -5.01706 -5.01706
0.0523995 -5.04481 -5.04481
0.00537958 -5.07204 -5.07204
0.00488585 -5.12772 -5.12772
0.0987945 -5.12886 -5.12886
0.0990557 -5.07318 -5.07318
0.00513341 -5.09986 -5.09986
0.0518363 -5.12827 -5.12827
0.0989264 -5.101 -5.101
0.0522138 -5.0726 -5.0726
0.0520261 -5.10042 -5.10042
0.00488585 -5.12772 -5.12772
0.00438658 -5.18353 -5.18353
0.0985227 -5.18468 -5.18468
0.0987945 -5.12886 -5.12886
0.0046369 -5.1556 -5.1556
0.0514508 -5.18409 -5.18409
0.0986599 -5.15675 -5.15675
0.0518363 -5.12827 -5.12827
0.0516445 -5.15616 -5.15616
0.00438658 -5.18353 -5.18353
0.00388182 -5.23947 -5.23947
0.0982403 -5.24062 -5.24062
0.0985227 -5.18468 -5.18468
0.00413488 -5.21148 -5.21148
0.0510572 -5.24003 -5.24003
0.0983828 -5.21263 -5.21263
0.0514508 -5.18409 -5.18409
0.051255 -5.21204 -5.21204
0.00388182 -5.23947 -5.23947
0.00337165 -5.29555 -5.29555
0.0979473 -5.2967 -5.2967
0.0982403 -5.24062 -5.24062
0.00362741 -5.26749 -5.26749
0.0506556 -5.29611 -5.29611
0.0980951 -5.26865 -5.26865
0.0510572 -5.24003 -5.24003
0.0508574 -5.26806 -5.26806
0.00337165 -5.29555 -5.29555
0.00285611 -5.35175 -5.35175
0.0976439 -5.35291 -5.35291
0.0979473 -5.2967 -5.2967
0.00311455 -5.32363 -5.32363
0.0502461 -5.35231 -5.35231
0.0977969 -5.32479 -5.32479
0.0506556 -5.29611 -5.29611
0.0504518 -5.3242 -5.3242
0.00285611 -5.35175 -5.35175
0.00233527 -5.40808 -5.40808
0.09733 -5.40923 -5.40923
0.0976439 -5.35291 -5.35291
0.00259635 -5.3799 -5.3799
0.0498288 -5.40864 -5.40864
0.0974883 -5.38105 -5.38105
0.0502461 -5.35231 -5.35231
0.0500384 -5.38046 -5.38046
0.00233527 -5.40808 -5.40808
0.0018092 -5.46452 -5.46452
0.0970059 -5.46568 -5.46568
0.09733 -5.40923 -5.40923
0.00207289 -5.43629 -5.43629
0.0494036 -5.46509 -5.46509
0.0971692 -5.43744 -5.43744
0.0498288 -5.40864 -5.40864
0.0496172 -5.43685 -5.43685
0.0018092 -5.46452 -5.46452
0.00127794 -5.52109 -5.52109
0.0966714 -5.52225 -5.52225
0.0970059 -5.46568 -5.46568
0.00154421 -5.49279 -5.49279
0.0489707 -5.52166 -5.52166
0.0968399 -5.49395 -5.49395
0.0494036 -5.46509 -5.46509
0.0491881 -5.49336 -5.49336
0.00127794 -5.52109 -5.52109
0.000741571 -5.57777 -5.57777
0.0963267 -5.57893 -5.57893
0.0966714 -5.52225 -5.52225
0.00101039 -5.54942 -5.54942
0.0485302 -5.57834 -5.57834
0.0965003 -5.55058 -5.55058
0.0489707 -5.52166 -5.52166
0.0487514 -5.54998 -5.54998
0.000741571 -5.57777 -5.57777
0.000200147 -5.63456 -5.63456
0.0959718 -5.63573 -5.63573
0.0963267 -5.57893 -5.57893
0.000471487 -5.60615 -5.60615
0.0480821 -5.63513 -5.63513
0.0961505 -5.60732 -5.60732
0.0485302 -5.57834 -5.57834
0.0483071 -5.60672 -5.60672
0.000200147 -5.63456 -5.63456
-0.000346268 -5.69146 -5.69146
0.0956069 -5.69263 -5.69263
0.0959718 -5.63573 -5.63573
-7.24408e-05 -5.663 -5.663
0.0476264 -5.69204 -5.69204
0.0957906 -5.66416 -5.66416
0.0480821 -5.63513 -5.63513
0.0478552 -5.66357 -5.66357
-0.000346268 -5.69146 -5.69146
-0.000897611 -5.74847 -5.74847
0.0952319 -5.74964 -5.74964
0.0956069 -5.69263 -5.69263
-0.000621328 -5.71995 -5.71995
0.0471632 -5.74904 -5.74904
0.0954206 -5.72112 -5.72112
0.0476264 -5.69204 -5.69204
0.0473957 -5.72053 -5.72053
-0.000897611 -5.74847 -5.74847
-0.00145382 -5.80558 -5.80558
0.0948469 -5.80675 -5.80675
0.0952319 -5.74964 -5.74964
-0.00117511 -5.77701 -5.77701
0.0466926 -5.80615 -5.80615
0.0950406 -5.77818 -5.77818
0.0471632 -5.74904 -5.74904
0.0469288 -5.77759 -5.77759
-0.00145382 -5.80558 -5.80558
-0.00201482 -5.86279 -5.86279
0.094452 -5.86396 -5.86396
0.0948469 -5.80675 -5.80675
-0.00173372 -5.83417 -5.83417
0.0462146 -5.86336 -5.86336
0.0946507 -5.83534 -5.83534
0.0466926 -5.80615 -5.80615
0.0464545 -5.83475 -5.83475
-0.00201482 -5.86279 -5.86279
-0.00258057 -5.9201 -5.9201
0.0940473 -5.92127 -5.92127
0.094452 -5.86396 -5.86396
-0.00229711 -5.89143 -5.89143
0.0457294 -5.92067 -5.92067
0.0942509 -5.8926 -5.8926
0.0462146 -5.86336 -5.86336
0.0459729 -5.89201 -5.89201
-0.00258057 -5.9201 -5.9201
-0.00315098 -5.9775 -5.9775
0.0936328 -5.97867 -5.97867
0.0940473 -5.92127 -5.92127
-0.00286519 -5.94879 -5.94879
0.0452369 -5.97807 -5.97807
0.0938412 -5.94996 -5.94996
0.0457294 -5.92067 -5.92067
0.0454841 -5.94936 -5.94936
-0.00315098 -5.9775 -5.9775
-0.003726 -6.03499 -6.03499
0.0932085 -6.03616 -6.03616
0.0936328 -5.97867 -5.97867
-0.00343792 -6.00623 -6.00623
0.0447373 -6.03556 -6.03556
0.0934219 -6.0074 -6.0074
0.0452369 -5.97807 -5.97807
0.044988 -6.00681 -6.00681
-0.003726 -6.03499 -6.03499
-0.00430556 -6.09257 -6.09257
0.0927747 -6.09374 -6.09374
0.0932085 -6.03616 -6.03616
-0.00401522 -6.06377 -6.06377
0.0442306 -6.09314 -6.09314
0.0929928 -6.06494 -6.06494
0.0447373 -6.03556 -6.03556
0.0444848 -6.06434 -6.06434
-0.00430556 -6.09257 -6.09257
-0.0048896 -6.15023 -6.15023
0.0923312 -6.1514 -6.1514
0.0927747 -6.09374 -6.09374
-0.00459702 -6.12139 -6.12139
0.0437168 -6.15081 -6.15081
0.0925541 -6.12256 -6.12256
0.0442306 -6.09314 -6.09314
0.0439746 -6.12197 -6.12197
-0.0048896 -6.15023 -6.15023
-0.00547804 -6.20797 -6.20797
0.0918782 -6.20915 -6.20915
0.0923312 -6.1514 -6.1514
-0.00518327 -6.17909 -6.17909
0.0431961 -6.20855 -6.20855
0.0921059 -6.18027 -6.18027
0.0437168 -6.15081 -6.15081
0.0434573 -6.17967 -6.17967
-0.00547804 -6.20797 -6.20797
-0.00607083 -6.2658 -6.2658
0.0914158 -6.26697 -6.26697
0.0918782 -6.20915 -6.20915
-0.0057739 -6.23688 -6.23688
0.0426685 -6.26638 -6.26638
0.0916482 -6.23805 -6.23805
0.0431961 -6.20855 -6.20855
0.0429331 -6.23746 -6.23746
-0.00607083 -6.2658 -6.2658
-0.00666789 -6.3237 -6.3237
0.090944 -6.32487 -6.32487
0.0914158 -6.26697 -6.26697
-0.00636883 -6.29474 -6.29474
0.042134 -6.32428 -6.32428
0.0911811 -6.29591 -6.29591
0.0426685 -6.26638 -6.26638
0.0424021 -6.29532 -6.29532
-0.00666789 -6.3237 -6.3237
-0.00726917 -6.38167 -6.38167
0.0904628 -6.38284 -6.38284
0.090944 -6.32487 -6.32487
-0.00696801 -6.35267 -6.35267
0.0415928 -6.38225 -6.38225
0.0907046 -6.35385 -6.35385
0.042134 -6.32428 -6.32428
0.0418643 -6.35325 -6.35325
-0.00726917 -6.38167 -6.38167
-0.00787459 -6.43971 -6.43971
0.0899725 -6.44089 -6.44089
0.0904628 -6.38284 -6.38284
-0.00757136 -6.41068 -6.41068
0.0410449 -6.44029 -6.44029
0.0902188 -6.41186 -6.41186
0.0415928 -6.38225 -6.38225
0.0413197 -6.41126 -6.41126
-0.00787459 -6.43971 -6.43971
-0.00848408 -6.49782 -6.49782
0.0894729 -6.49899 -6.49899
0.0899725 -6.44089 -6.44089
-0.00817883 -6.46876 -6.46876
0.0404904 -6.4984 -6.4984
0.0897238 -6.46993 -6.46993
0.0410449 -6.44029 -6.44029
0.0407685 -6.46934 -6.46934
-0.00848408 -6.49782 -6.49782
-0.00909758 -6.55599 -6.55599
0.0889642 -6.55716 -6.55716
0.0894729 -6.49899 -6.49899
-0.00879033 -6.5269 -6.5269
0.0399293 -6.55657 -6.55657
0.0892197 -6.52807 -6.52807
0.0404904 -6.4984 -6.4984
0.0402106 -6.52748 -6.52748
-0.00909758 -6.55599 -6.55599
-0.00971502 -6.61422 -6.61422
0.0884464 -6.6154 -6.6154
0.0889642 -6.55716 -6.55716
-0.00940581 -6.5851 -6.5851
0.0393617 -6.6148 -6.6148
0.0887064 -6.58627 -6.58627
0.0399293 -6.55657 -6.55657
0.0396463 -6.58568 -6.58568
-0.00971502 -6.61422 -6.61422
-0.0103363 -6.67251 -6.67251
0.0879197 -6.67368 -6.67368
0.0884464 -6.6154 -6.6154
-0.0100252 -6.64336 -6.64336
0.0387876 -6.67309 -6.67309
0.0881842 -6.64453 -6.64453
0.0393617 -6.6148 -6.6148
0.0390755 -6.64394 -6.64394
-0.0103363 -6.67251 -6.67251
-0.0109614 -6.73085 -6.73085
0.0873841 -6.73203 -6.73203
0.0879197 -6.67368 -6.67368
-0.0106484 -6.70168 -6.70168
0.0382073 -6.73144 -6.73144
0.087653 -6.70285 -6.70285
0.0387876 -6.67309 -6.67309
0.0384982 -6.70226 -6.70226
-0.0109614 -6.73085 -6.73085
-0.0115903 -6.78925 -6.78925
0.0868396 -6.79042 -6.79042
0.0873841 -6.73203 -6.73203
-0.0112754 -6.76005 -6.76005
0.0376206 -6.78983 -6.78983
0.0871129 -6.76122 -6.76122
0.0382073 -6.73144 -6.73144
0.0379147 -6.76063 -6.76063
-0.0115903 -6.78925 -6.78925
-0.0122228 -6.84769 -6.84769
0.0862863 -6.84886 -6.84886
0.0868396 -6.79042 -6.79042
-0.0119061 -6.81847 -6.81847
0.0370277 -6.84827 -6.84827
0.0865641 -6.81964 -6.81964
0.0376206 -6.78983 -6.78983
0.0373249 -6.81905 -6.81905
-0.0122228 -6.84769 -6.84769
-0.0128589 -6.90618 -6.90618
0.0857244 -6.90735 -6.90735
0.0862863 -6.84886 -6.84886
-0.0125404 -6.87693 -6.87693
0.0364286 -6.90676 -6.90676
0.0860064 -6.8781 -6.8781
0.0370277 -6.84827 -6.84827
0.0367289 -6.87751 -6.87751
-0.0128589 -6.90618 -6.90618
-0.0134986 -6.96471 -6.96471
0.0851538 -6.96588 -6.96588
0.0857244 -6.90735 -6.90735
-0.0131783 -6.93544 -6.93544
0.0358235 -6.96529 -6.96529
0.0854401 -6.93661 -6.93661
0.0364286 -6.90676 -6.90676
0.0361268 -6.93602 -6.93602
-0.0134986 -6.96471 -6.96471
-0.0141417 -7.02328 -7.02328
0.0845745 -7.02445 -7.02445
0.0851538 -6.96588 -6.96588
-0.0138197 -6.99399 -6.99399
0.0352123 -7.02386 -7.02386
0.0848652 -6.99516 -6.99516
0.0358235 -6.96529 -6.96529
0.0355186 -6.99457 -6.99457
-0.0141417 -7.02328 -7.02328
-0.0147883 -7.08189 -7.08189
0.0839868 -7.08306 -7.08306
0.0845745 -7.02445 -7.02445
-0.0144646 -7.05258 -7.05258
0.0345951 -7.08247 -7.08247
0.0842817 -7.05375 -7.05375
0.0352123 -7.02386 -7.02386
0.0349044 -7.05316 -7.05316
-0.0147883 -7.08189 -7.08189
-0.0154383 -7.14053 -7.14053
0.0833905 -7.14169 -7.14169
0.0839868 -7.08306 -7.08306
-0.0151129 -7.11121 -7.11121
0.0339719 -7.14111 -7.14111
0.0836897 -7.11237 -7.11237
0.0345951 -7.08247 -7.08247
0.0342843 -7.11179 -7.11179
-0.0154383 -7.14053 -7.14053
-0.0160917 -7.1992 -7.1992
0.0827856 -7.20036 -7.20036
0.0833905 -7.14169 -7.14169
-0.0157645 -7.16986 -7.16986
0.0333427 -7.19978 -7.19978
0.0830891 -7.17103 -7.17103
0.0339719 -7.14111 -7.14111
0.0336581 -7.17044 -7.17044
-0.0160917 -7.1992 -7.1992
-0.0167485 -7.2579 -7.2579
0.0821721 -7.25906 -7.25906
0.0827856 -7.20036 -7.20036
-0.0164196 -7.22855 -7.22855
0.0327074 -7.25848 -7.25848
0.0824799 -7.22971 -7.22971
0.0333427 -7.19978 -7.19978
0.0330258 -7.22912 -7.22912
-0.0167485 -7.2579 -7.2579
-0.0174088 -7.31662 -7.31662
0.0815496 -7.31778 -7.31778
0.0821721 -7.25906 -7.25906
-0.0170782 -7.28726 -7.28726
0.0320657 -7.3172 -7.3172
0.081862 -7.28842 -7.28842
0.0327074 -7.25848 -7.25848
0.0323874 -7.28783 -7.28783
-0.0174088 -7.31662 -7.31662
-0.0180728 -7.37537 -7.37537
0.0809176 -7.37652 -7.37652
0.0815496 -7.31778 -7.31778
-0.0177403 -7.34599 -7.34599
0.0314173 -7.37594 -7.37594
0.0812348 -7.34715 -7.34715
0.0320657 -7.3172 -7.3172
0.0317424 -7.34657 -7.34657
-0.0180728 -7.37537 -7.37537
-0.0187408 -7.43413 -7.43413
0.0802758 -7.43528 -7.43528
0.0809176 -7.37652 -7.37652
-0.0184063 -7.40474 -7.40474
0.0307618 -7.4347 -7.4347
0.080598 -7.4059 -7.4059
0.0314173 -7.37594 -7.37594
0.0310905 -7.40532 -7.40532
-0.0187408 -7.43413 -7.43413
-0.0194126 -7.49291 -7.49291
0.0796231 -7.49406 -7.49406
0.0802758 -7.43528 -7.43528
-0.0190762 -7.46352 -7.46352
0.0300988 -7.49348 -7.49348
0.0799508 -7.46467 -7.46467
0.0307618 -7.4347 -7.4347
0.0304312 -7.46409 -7.46409
-0.0194126 -7.49291 -7.49291
-0.0200878 -7.5517 -7.5517
0.07896 -7.55285 -7.55285
0.0796231 -7.49406 -7.49406
-0.0197499 -7.5223 -7.5223
0.029429 -7.55227 -7.55227
0.0792928 -7.52345 -7.52345
0.0300988 -7.49348 -7.49348
0.0297647 -7.52287 -7.52287
-0.0200878 -7.5517 -7.5517
-0.0207648 -7.61049 -7.61049
0.078288 -7.61165 -7.61165
0.07896 -7.55285 -7.55285
-0.0204262 -7.58109 -7.58109
0.0287547 -7.61107 -7.61107
0.0786247 -7.58225 -7.58225
0.029429 -7.55227 -7.55227
0.0290921 -7.58167 -7.58167
-0.0207648 -7.61049 -7.61049
-0.021442 -7.66926 -7.66926
0.077615 -7.67045 -7.67045
0.078288 -7.61165 -7.61165
-0.0211036 -7.63988 -7.63988
0.0280807 -7.66985 -7.66985
0.0779511 -7.64105 -7.64105
0.0287547 -7.61107 -7.61107
0.0284174 -7.64046 -7.64046
-0.021442 -7.66926 -7.66926
-0.0221156 -7.72801 -7.72801
0.0769481 -7.72922 -7.72922
0.077615 -7.67045 -7.67045
-0.0217793 -7.69864 -7.69864
0.0274098 -7.7286 -7.7286
0.0772804 -7.69984 -7.69984
0.0280807 -7.66985 -7.66985
0.0277446 -7.69923 -7.69923
0 0 0
0.00132991 -0.000138662 -0.000138662
0.00228909 -0.000651275 -0.000651275
0 0 0
0.000644706 3.97224e-05 3.97224e-05
0.00179182 -0.000332981 -0.000332981
0.00111092 -0.000233791 -0.000233791
0 0 0
0.000882289 -7.13291e-05 -7.13291e-05
0.00132991 -0.000138662 -0.000138662
0.00276151 -0.00103888 -0.00103888
0.00476718 -0.0018791 -0.0018791
0.00228909 -0.000651275 -0.000651275
0.00203679 -0.000502556 -0.000502556
0.00373049 -0.00138694 -0.00138694
0.00351636 -0.00120591 -0.00120591
0.00179182 -0.000332981 -0.000332981
0.00274567 -0.000779535 -0.000779535
0.00276151 -0.00103888 -0.00103888
0.00425259 -0.00259535 -0.00259535
0.00726744 -0.00356569 -0.00356569
0.00476718 -0.0018791 -0.0018791
0.00350254 -0.00173935 -0.00173935
0.00573045 -0.00301291 -0.00301291
0.00601884 -0.00266313 -0.00266313
0.00373049 -0.00138694 -0.00138694
0.00472798 -0.00213192 -0.00213192
0.00425259 -0.00259535 -0.00259535
0.00575554 -0.00475004 -0.00475004
0.00975462 -0.0057615 -0.0057615
0.00726744 -0.00356569 -0.00356569
0.00500427 -0.00359955 -0.00359955
0.00773362 -0.00519296 -0.00519296
0.00851328 -0.00459697 -0.00459697
0.00573045 -0.00301291 -0.00301291
0.00673329 -0.0040331 -0.0040331
0.00575554 -0.00475004 -0.00475004
0.00725277 -0.0074871 -0.0074871
0.0122199 -0.00850277 -0.00850277
0.00975462 -0.0057615 -0.0057615
0.00650553 -0.00604621 -0.00604621
0.00972056 -0.00793364 -0.00793364
0.0109898 -0.0070624 -0.0070624
0.00773362 -0.00519296 -0.00519296
0.00872945 -0.00649262 -0.00649262
0.00725277 -0.0074871 -0.0074871
0.00873528 -0.0108004 -0.0108004
0.0146678 -0.0118106 -0.0118106
0.0122199 -0.00850277 -0.00850277
0.00799596 -0.00907185 -0.00907185
0.0116894 -0.0112449 -0.0112449
0.0134459 -0.0100852 -0.0100852
0.00972056 -0.00793364 -0.00793364
0.0107072 -0.00951762 -0.00951762
0.00873528 -0.0108004 -0.0108004
0.0102035 -0.014689 -0.014689
0.0170993 -0.0156909 -0.0156909
0.0146678 -0.0118106 -0.0118106
0.00947112 -0.0126729 -0.0126729
0.0136412 -0.0151294 -0.0151294
0.0158855 -0.013679 -0.013679
0.0116894 -0.0112449 -0.0112449
0.0126673 -0.0131154 -0.0131154
0.0102035 -0.014689 -0.014689
0.0116582 -0.0191509 -0.0191509
0.0195161 -0.0201456 -0.0201456
0.0170993 -0.0156909 -0.0156909
0.0109325 -0.0168484 -0.0168484
0.015578 -0.0195877 -0.0195877
0.0183095 -0.0178465 -0.0178465
0.0136412 -0.0151294 -0.0151294
0.0146114 -0.0172869 -0.0172869
0.0116582 -0.0191509 -0.0191509
0.0131011 -0.0241841 -0.0241841
0.0219184 -0.0251727 -0.0251727
0.0195161 -0.0201456 -0.0201456
0.0123811 -0.0215962 -0.0215962
0.0175011 -0.024618 -0.024618
0.020719 -0.0225877 -0.0225877
0.015578 -0.0195877 -0.0195877
0.0165412 -0.0220315 -0.0220315
0.0131011 -0.0241841 -0.0241841
0.0145332 -0.0297862 -0.0297862
0.0243066 -0.03077 -0.03077
0.0219184 -0.0251727 -0.0251727
0.0138185 -0.0269142 -0.0269142
0.0194115 -0.0302178 -0.0302178
0.0231143 -0.0279003 -0.0279003
0.0175011 -0.024618 -0.024618
0.0184579 -0.0273469 -0.0273469
0.0145332 -0.0297862 -0.0297862
0.0159553 -0.0359544 -0.0359544
0.0266806 -0.0369342 -0.0369342
0.0243066 -0.03077 -0.03077
0.0152455 -0.0327997 -0.0327997
0.0213097 -0.0363843 -0.0363843
0.0254954 -0.0337814 -0.0337814
0.0194115 -0.0302178 -0.0302178
0.0203621 -0.0332304 -0.0332304
0.0159553 -0.0359544 -0.0359544
0.0173677 -0.0426858 -0.0426858
0.0290405 -0.0436623 -0.0436623
0.0266806 -0.0369342 -0.0369342
0.0166627 -0.0392499 -0.0392499
0.0231959 -0.0431143 -0.0431143
0.0278623 -0.040228 -0.040228
0.0213097 -0.0363843 -0.0363843
0.0222543 -0.039679 -0.039679
0.0173677 -0.0426858 -0.0426858
0.0187706 -0.0499775 -0.0499775
0.031386 -0.0509512 -0.0509512
0.0290405 -0.0436623 -0.0436623
0.0180703 -0.0462618 -0.0462618
0.0250701 -0.0504049 -0.0504049
0.030215 -0.0472369 -0.0472369
0.0231959 -0.0431143 -0.0431143
0.0241345 -0.0466897 -0.0466897
0.0187706 -0.0499775 -0.0499775
0.020164 -0.0578265 -0.0578265
0.0337171 -0.0587977 -0.0587977
0.031386 -0.0509512 -0.0509512
0.0194685 -0.0538325 -0.0538325
0.0269324 -0.0582529 -0.0582529
0.0325534 -0.0548049 -0.0548049
0.0250701 -0.0504049 -0.0504049
0.0260028 -0.0542594 -0.0542594
0.020164 -0.0578265 -0.0578265
0.021548 -0.0662297 -0.0662297
0.0360337 -0.0671987 -0.0671987
0.0337171 -0.0587977 -0.0587977
0.0208572 -0.061959 -0.061959
0.0287827 -0.0666553 -0.0666553
0.0348772 -0.0629291 -0.0629291
0.0269324 -0.0582529 -0.0582529
0.0278591 -0.062385 -0.062385
0.021548 -0.0662297 -0.0662297
0.0229224 -0.0751842 -0.0751842
0.0383357 -0.0761511 -0.0761511
0.0360337 -0.0671987 -0.0671987
0.0222364 -0.0706382 -0.0706382
0.0306209 -0.0756091 -0.0756091
0.0371865 -0.0716062 -0.0716062
0.0287827 -0.0666553 -0.0666553
0.0297033 -0.0710635 -0.0710635
0.0229224 -0.0751842 -0.0751842
0.0242872 -0.0846868 -0.0846868
0.0406229 -0.085652 -0.085652
0.0383357 -0.0761511 -0.0761511
0.023606 -0.0798671 -0.0798671
0.0324469 -0.0851112 -0.0851112
0.0394812 -0.0808332 -0.0808332
0.0306209 -0.0756091 -0.0756091
0.0315354 -0.0802918 -0.0802918
0.0242872 -0.0846868 -0.0846868
0.0256422 -0.0947346 -0.0947346
0.0428953 -0.0956982 -0.0956982
0.0406229 -0.085652 -0.085652
0.0249659 -0.0896428 -0.0896428
0.0342606 -0.0951585 -0.0951585
0.041761 -0.0906071 -0.0906071
0.0324469 -0.0851112 -0.0851112
0.0333553 -0.0900669 -0.0900669
0.0256422 -0.0947346 -0.0947346
0.0269874 -0.105325 -0.105325
0.0451527 -0.106287 -0.106287
0.0428953 -0.0956982 -0.0956982
0.0263161 -0.099962 -0.099962
0.036062 -0.105748 -0.105748
0.0440259 -0.100925 -0.100925
0.0342606 -0.0951585 -0.0951585
0.0351629 -0.100386 -0.100386
0.0269874 -0.105325 -0.105325
0.0283227 -0.116454 -0.116454
0.0473951 -0.117415 -0.117415
0.0451527 -0.106287 -0.106287
0.0276563 -0.110822 -0.110822
0.0378508 -0.116877 -0.116877
0.0462758 -0.111783 -0.111783
0.036062 -0.105748 -0.105748
0.0369579 -0.111245 -0.111245
0.0283227 -0.116454 -0.116454
0.0296478 -0.128119 -0.128119
0.0496223 -0.129079 -0.129079
0.0473951 -0.117415 -0.117415
0.0289865 -0.122219 -0.122219
0.039627 -0.128542 -0.128542
0.0485106 -0.12318 -0.12318
0.0378508 -0.116877 -0.116877
0.0387405 -0.122642 -0.122642
0.0296478 -0.128119 -0.128119
0.0309629 -0.140317 -0.140317
0.0518343 -0.141276 -0.141276
0.0496223 -0.129079 -0.129079
0.0303066 -0.134151 -0.134151
0.0413905 -0.14074 -0.14074
0.0507302 -0.135111 -0.135111
0.039627 -0.128542 -0.128542
0.0405103 -0.134574 -0.134574
0.0309629 -0.140317 -0.140317
0.0322677 -0.153045 -0.153045
0.0540309 -0.154003 -0.154003
0.0518343 -0.141276 -0.141276
0.0316166 -0.146615 -0.146615
0.0431412 -0.153468 -0.153468
0.0529345 -0.147573 -0.147573
0.0413905 -0.14074 -0.14074
0.0422674 -0.147038 -0.147038
0.0322677 -0.153045 -0.153045
0.0335621 -0.1663 -0.1663
0.056212 -0.167258 -0.167258
0.0540309 -0.154003 -0.154003
0.0329162 -0.159607 -0.159607
0.044879 -0.166723 -0.166723
0.0551234 -0.160565 -0.160565
0.0431412 -0.153468 -0.153468
0.0440117 -0.16003 -0.16003
0.0335621 -0.1663 -0.1663
0.0348461 -0.180079 -0.180079
0.0583776 -0.181036 -0.181036
0.056212 -0.167258 -0.167258
0.0342054 -0.173124 -0.173124
0.0466038 -0.180502 -0.180502
0.0572968 -0.174082 -0.174082
0.044879 -0.166723 -0.166723
0.045743 -0.173547 -0.173547
0.0348461 -0.180079 -0.180079
0.0361196 -0.194379 -0.194379
0.0605276 -0.195336 -0.195336
0.0583776 -0.181036 -0.181036
0.0354842 -0.187164 -0.187164
0.0483156 -0.194802 -0.194802
0.0594546 -0.188121 -0.188121
0.0466038 -0.180502 -0.180502
0.0474613 -0.187587 -0.187587
0.0361196 -0.194379 -0.194379
0.0373825 -0.209197 -0.209197
0.0626618 -0.210153 -0.210153
0.0605276 -0.195336 -0.195336
0.0367524 -0.201723 -0.201723
0.0500141 -0.20962 -0.20962
0.0615967 -0.20268 -0.20268
0.0483156 -0.194802 -0.194802
0.0491665 -0.202147 -0.202147
0.0373825 -0.209197 -0.209197
0.0386347 -0.224529 -0.224529
0.0647803 -0.225486 -0.225486
0.0626618 -0.210153 -0.210153
0.0380099 -0.216799 -0.216799
0.0516994 -0.224953 -0.224953
0.063723 -0.217756 -0.217756
0.0500141 -0.20962 -0.20962
0.0508584 -0.217222 -0.217222
0.0386347 -0.224529 -0.224529
0.0398761 -0.240374 -0.240374
0.0668828 -0.241331 -0.241331
0.0647803 -0.225486 -0.225486
0.0392567 -0.232388 -0.232388
0.0533714 -0.240798 -0.240798
0.0658335 -0.233345 -0.233345
0.0516994 -0.224953 -0.224953
0.0525371 -0.232812 -0.232812
0.0398761 -0.240374 -0.240374
0.0411066 -0.256727 -0.256727
0.0689694 -0.257684 -0.257684
0.0668828 -0.241331 -0.241331
0.0404927 -0.248487 -0.248487
0.0550299 -0.257152 -0.257152
0.0679281 -0.249444 -0.249444
0.0533714 -0.240798 -0.240798
0.0542024 -0.248911 -0.248911
0.0411066 -0.256727 -0.256727
0.0423261 -0.273586 -0.273586
0.0710398 -0.274543 -0.274543
0.0689694 -0.257684 -0.257684
0.0417177 -0.265093 -0.265093
0.056675 -0.274011 -0.274011
0.0700066 -0.266051 -0.266051
0.0550299 -0.257152 -0.257152
0.0558542 -0.265518 -0.265518
0.0423261 -0.273586 -0.273586
0.0435347 -0.290948 -0.290948
0.0730942 -0.291906 -0.291906
0.0710398 -0.274543 -0.274543
0.0429318 -0.282204 -0.282204
0.0583064 -0.291373 -0.291373
0.072069 -0.283162 -0.283162
0.056675 -0.274011 -0.274011
0.0574924 -0.282629 -0.282629
0.0435347 -0.290948 -0.290948
0.0447321 -0.308809 -0.308809
0.0751323 -0.309768 -0.309768
0.0730942 -0.291906 -0.291906
0.0441348 -0.299816 -0.299816
0.0599242 -0.309235 -0.309235
0.0741153 -0.300774 -0.300774
0.0583064 -0.291373 -0.291373
0.059117 -0.300242 -0.300242
0.0447321 -0.308809 -0.308809
0.0459183 -0.327167 -0.327167
0.0771541 -0.328126 -0.328126
0.0751323 -0.309768 -0.309768
0.0453266 -0.317926 -0.317926
0.0615283 -0.327594 -0.327594
0.0761453 -0.318885 -0.318885
0.0599242 -0.309235 -0.309235
0.060728 -0.318353 -0.318353
0.0459183 -0.327167 -0.327167
0.0470933 -0.346018 -0.346018
0.0791596 -0.346979 -0.346979
0.0771541 -0.328126 -0.328126
0.0465072 -0.336531 -0.336531
0.0631185 -0.346446 -0.346446
0.0781589 -0.337491 -0.337491
0.0615283 -0.327594 -0.327594
0.0623251 -0.336958 -0.336958
0.0470933 -0.346018 -0.346018
0.0482569 -0.36536 -0.36536
0.0811486 -0.366322 -0.366322
0.0791596 -0.346979 -0.346979
0.0476765 -0.355628 -0.355628
0.0646948 -0.365789 -0.365789
0.0801562 -0.356589 -0.356589
0.0631185 -0.346446 -0.346446
0.0639084 -0.356056 -0.356056
0.0482569 -0.36536 -0.36536
0.0494092 -0.38519 -0.38519
0.0831211 -0.386153 -0.386153
0.0811486 -0.366322 -0.366322
0.0488345 -0.375214 -0.375214
0.0662572 -0.385619 -0.385619
0.0821369 -0.376176 -0.376176
0.0646948 -0.365789 -0.365789
0.0654777 -0.375643 -0.375643
0.0494092 -0.38519 -0.38519
0.0505499 -0.405504 -0.405504
0.085077 -0.406468 -0.406468
0.0831211 -0.386153 -0.386153
0.049981 -0.395287 -0.395287
0.0678055 -0.405935 -0.405935
0.0841011 -0.39625 -0.39625
0.0662572 -0.385619 -0.385619
0.0670331 -0.395717 -0.395717
0.0505499 -0.405504 -0.405504
0.0516791 -0.4263 -0.4263
0.0870162 -0.427265 -0.427265
0.085077 -0.406468 -0.406468
0.051116 -0.415842 -0.415842
0.0693397 -0.426731 -0.426731
0.0860487 -0.416807 -0.416807
0.0678055 -0.405935 -0.405935
0.0685744 -0.416273 -0.416273
0.0516791 -0.4263 -0.4263
0.0527967 -0.447574 -0.447574
0.0889388 -0.448541 -0.448541
0.0870162 -0.427265 -0.427265
0.0522394 -0.436877 -0.436877
0.0708598 -0.448006 -0.448006
0.0879796 -0.437843 -0.437843
0.0693397 -0.426731 -0.426731
0.0701015 -0.437309 -0.437309
0.0527967 -0.447574 -0.447574
0.0539026 -0.469323 -0.469323
0.0908445 -0.470292 -0.470292
0.0889388 -0.448541 -0.448541
0.0533511 -0.458389 -0.458389
0.0723656 -0.469757 -0.469757
0.0898938 -0.459357 -0.459357
0.0708598 -0.448006 -0.448006
0.0716145 -0.458822 -0.458822
0.0539026 -0.469323 -0.469323
0.0549968 -0.491545 -0.491545
0.0927334 -0.492515 -0.492515
0.0908445 -0.470292 -0.470292
0.0544512 -0.480375 -0.480375
0.0738572 -0.49198 -0.49198
0.0917911 -0.481345 -0.481345
0.0723656 -0.469757 -0.469757
0.0731132 -0.480809 -0.480809
0.0549968 -0.491545 -0.491545
0.0560792 -0.514236 -0.514236
0.0946054 -0.515208 -0.515208
0.0927334 -0.492515 -0.492515
0.0555395 -0.502832 -0.502832
0.0753344 -0.514672 -0.514672
0.0936715 -0.503803 -0.503803
0.0738572 -0.49198 -0.49198
0.0745976 -0.503268 -0.503268
0.0560792 -0.514236 -0.514236
0.0571497 -0.537393 -0.537393
0.0964604 -0.538368 -0.538368
0.0946054 -0.515208 -0.515208
0.056616 -0.525757 -0.525757
0.0767972 -0.537831 -0.537831
0.095535 -0.52673 -0.52673
0.0753344 -0.514672 -0.514672
0.0760676 -0.526193 -0.526193
0.0571497 -0.537393 -0.537393
0.0582084 -0.561014 -0.561014
0.0982984 -0.56199 -0.56199
0.0964604 -0.538368 -0.538368
0.0576805 -0.549146 -0.549146
0.0782455 -0.561453 -0.561453
0.0973816 -0.550121 -0.550121
0.0767972 -0.537831 -0.537831
0.0775231 -0.549584 -0.549584
0.0582084 -0.561014 -0.561014
0.059255 -0.585095 -0.585095
0.100119 -0.586073 -0.586073
0.0982984 -0.56199 -0.56199
0.0587332 -0.572997 -0.572997
0.0796793 -0.585535 -0.585535
0.099211 -0.573974 -0.573974
0.0782455 -0.561453 -0.561453
0.0789642 -0.573437 -0.573437
0.059255 -0.585095 -0.585095
0.0602896 -0.609633 -0.609633
0.101923 -0.610614 -0.610614
0.100119 -0.586073 -0.586073
0.0597738 -0.597307 -0.597307
0.0810985 -0.610075 -0.610075
0.101023 -0.598287 -0.598287
0.0796793 -0.585535 -0.585535
0.0803907 -0.597748 -0.597748
0.0602896 -0.609633 -0.609633
0.0613122 -0.634626 -0.634626
0.10371 -0.635608 -0.635608
0.101923 -0.610614 -0.610614
0.0608024 -0.622073 -0.622073
0.082503 -0.635069 -0.635069
0.102819 -0.623054 -0.623054
0.0810985 -0.610075 -0.610075
0.0818026 -0.622515 -0.622515
0.0613122 -0.634626 -0.634626
0.0623226 -0.660069 -0.660069
0.105479 -0.661054 -0.661054
0.10371 -0.635608 -0.635608
0.0618189 -0.647291 -0.647291
0.0838929 -0.660514 -0.660514
0.104597 -0.648275 -0.648275
0.082503 -0.635069 -0.635069
0.0831998 -0.647735 -0.647735
0.0623226 -0.660069 -0.660069
0.0633208 -0.685961 -0.685961
0.107231 -0.686948 -0.686948
0.105479 -0.661054 -0.661054
0.0628232 -0.672959 -0.672959
0.0852681 -0.686407 -0.686407
0.106357 -0.673945 -0.673945
0.0838929 -0.660514 -0.660514
0.0845823 -0.673404 -0.673404
0.0633208 -0.685961 -0.685961
0.0643068 -0.712297 -0.712297
0.108966 -0.713288 -0.713288
0.107231 -0.686948 -0.686948
0.0638153 -0.699074 -0.699074
0.0866284 -0.712745 -0.712745
0.108101 -0.700062 -0.700062
0.0852681 -0.686407 -0.686407
0.0859501 -0.699521 -0.699521
0.0643068 -0.712297 -0.712297
0.0652805 -0.739076 -0.739076
0.110683 -0.740069 -0.740069
0.108966 -0.713288 -0.713288
0.0647952 -0.725632 -0.725632
0.087974 -0.739526 -0.739526
0.109827 -0.726623 -0.726623
0.0866284 -0.712745 -0.712745
0.0873031 -0.72608 -0.72608
0.0652805 -0.739076 -0.739076
0.066242 -0.766294 -0.766294
0.112383 -0.767289 -0.767289
0.110683 -0.740069 -0.740069
0.0657628 -0.75263 -0.75263
0.0893047 -0.766745 -0.766745
0.111535 -0.753624 -0.753624
0.087974 -0.739526 -0.739526
0.0886412 -0.753081 -0.753081
0.066242 -0.766294 -0.766294
0.067191 -0.793948 -0.793948
0.114066 -0.794946 -0.794946
0.112383 -0.767289 -0.767289
0.066718 -0.780066 -0.780066
0.0906204 -0.7944 -0.7944
0.113226 -0.781063 -0.781063
0.0893047 -0.766745 -0.766745
0.0899644 -0.780518 -0.780518
0.067191 -0.793948 -0.793948
0.0681277 -0.822034 -0.822034
0.11573 -0.823035 -0.823035
0.114066 -0.794946 -0.794946
0.0676609 -0.807937 -0.807937
0.0919212 -0.822489 -0.822489
0.1149 -0.808937 -0.808937
0.0906204 -0.7944 -0.7944
0.0912727 -0.808391 -0.808391
0.0681277 -0.822034 -0.822034
0.0690519 -0.850551 -0.850551
0.117378 -0.851555 -0.851555
0.11573 -0.823035 -0.823035
0.0685914 -0.836239 -0.836239
0.093207 -0.851007 -0.851007
0.116556 -0.837242 -0.837242
0.0919212 -0.822489 -0.822489
0.092566 -0.836695 -0.836695
0.0690519 -0.850551 -0.850551
0.0699636 -0.879494 -0.879494
0.119008 -0.880501 -0.880501
0.117378 -0.851555 -0.851555
0.0695093 -0.86497 -0.86497
0.0944778 -0.879953 -0.879953
0.118195 -0.865975 -0.865975
0.093207 -0.851007 -0.851007
0.0938443 -0.865427 -0.865427
0.0699636 -0.879494 -0.879494
0.0708629 -0.908862 -0.908862
0.12062 -0.909872 -0.909872
0.119008 -0.880501 -0.880501
0.0704148 -0.894125 -0.894125
0.0957335 -0.909322 -0.909322
0.119816 -0.895134 -0.895134
0.0944778 -0.879953 -0.879953
0.0951075 -0.894584 -0.894584
0.0708629 -0.908862 -0.908862
0.0717495 -0.93865 -0.93865
0.122214 -0.939663 -0.939663
0.12062 -0.909872 -0.909872
0.0713078 -0.923703 -0.923703
0.0969741 -0.939112 -0.939112
0.121419 -0.924715 -0.924715
0.0957335 -0.909322 -0.909322
0.0963557 -0.924164 -0.924164
0.0717495 -0.93865 -0.93865
0.0726236 -0.968856 -0.968856
0.123791 -0.969872 -0.969872
0.122214 -0.939663 -0.939663
0.0721881 -0.953701 -0.953701
0.0981995 -0.96932 -0.96932
0.123005 -0.954716 -0.954716
0.0969741 -0.939112 -0.939112
0.0975887 -0.954164 -0.954164
0.0726236 -0.968856 -0.968856
0.0734851 -0.999477 -0.999477
0.12535 -1.0005 -1.0005
0.123791 -0.969872 -0.969872
0.0730559 -0.984115 -0.984115
0.0994098 -0.999942 -0.999942
0.124573 -0.985133 -0.985133
0.0981995 -0.96932 -0.96932
0.0988065 -0.984579 -0.984579
0.0734851 -0.999477 -0.999477
0.0743339 -1.03051 -1.03051
0.126891 -1.03153 -1.03153
0.12535 -1.0005 -1.0005
0.0739111 -1.01494 -1.01494
0.100605 -1.03098 -1.03098
0.126123 -1.01596 -1.01596
0.0994098 -0.999942 -0.999942
0.100009 -1.01541 -1.01541
0.0743339 -1.03051 -1.03051
0.07517 -1.06195 -1.06195
0.128415 -1.06298 -1.06298
0.126891 -1.03153 -1.03153
0.0747535 -1.04618 -1.04618
0.101785 -1.06242 -1.06242
0.127655 -1.0472 -1.0472
0.100605 -1.03098 -1.03098
0.101197 -1.04665 -1.04665
0.07517 -1.06195 -1.06195
0.0759935 -1.0938 -1.0938
0.129921 -1.09483 -1.09483
0.128415 -1.06298 -1.06298
0.0755833 -1.07782 -1.07782
0.102949 -1.09427 -1.09427
0.12917 -1.07885 -1.07885
0.101785 -1.06242 -1.06242
0.102369 -1.07829 -1.07829
0.0759935 -1.0938 -1.0938
0.0768042 -1.12605 -1.12605
0.131409 -1.12708 -1.12708
0.129921 -1.09483 -1.09483
0.0764004 -1.10987 -1.10987
0.104099 -1.12652 -1.12652
0.130667 -1.1109 -1.1109
0.102949 -1.09427 -1.09427
0.103526 -1.11034 -1.11034
0.0768042 -1.12605 -1.12605
0.0776021 -1.1587 -1.1587
0.132879 -1.15973 -1.15973
0.131409 -1.12708 -1.12708
0.0772047 -1.14232 -1.14232
0.105233 -1.15917 -1.15917
0.132146 -1.14336 -1.14336
0.104099 -1.12652 -1.12652
0.104667 -1.1428 -1.1428
0.0776021 -1.1587 -1.1587
0.0783873 -1.19174 -1.19174
0.134331 -1.19278 -1.19278
0.132879 -1.15973 -1.15973
0.0779963 -1.17517 -1.17517
0.106351 -1.19222 -1.19222
0.133607 -1.17621 -1.17621
0.105233 -1.15917 -1.15917
0.105794 -1.17565 -1.17565
0.0783873 -1.19174 -1.19174
0.0791596 -1.22518 -1.22518
0.135765 -1.22622 -1.22622
0.134331 -1.19278 -1.19278
0.078775 -1.20841 -1.20841
0.107454 -1.22566 -1.22566
0.13505 -1.20945 -1.20945
0.106351 -1.19222 -1.19222
0.106905 -1.20889 -1.20889
0.0791596 -1.22518 -1.22518
0.0799192 -1.25901 -1.25901
0.137181 -1.26006 -1.26006
0.135765 -1.22622 -1.22622
0.079541 -1.24205 -1.24205
0.108542 -1.25949 -1.25949
0.136475 -1.24309 -1.24309
0.107454 -1.22566 -1.22566
0.108 -1.24253 -1.24253
0.0799192 -1.25901 -1.25901
0.0806658 -1.29323 -1.29323
0.138579 -1.29428 -1.29428
0.137181 -1.26006 -1.26006
0.0802941 -1.27607 -1.27607
0.109615 -1.29371 -1.29371
0.137883 -1.27712 -1.27712
0.108542 -1.25949 -1.25949
0.109081 -1.27655 -1.27655
0.0806658 -1.29323 -1.29323
0.0813997 -1.32783 -1.32783
0.13996 -1.32888 -1.32888
0.138579 -1.29428 -1.29428
0.0810344 -1.31048 -1.31048
0.110672 -1.32832 -1.32832
0.139272 -1.31153 -1.31153
0.109615 -1.29371 -1.29371
0.110145 -1.31097 -1.31097
0.0813997 -1.32783 -1.32783
0.0821206 -1.36281 -1.36281
0.141322 -1.36387 -1.36387
0.13996 -1.32888 -1.32888
0.0817618 -1.34527 -1.34527
0.111714 -1.3633 -1.3633
0.140643 -1.34633 -1.34633
0.110672 -1.32832 -1.32832
0.111195 -1.34576 -1.34576
0.0821206 -1.36281 -1.36281
0.0828287 -1.39817 -1.39817
0.142666 -1.39923 -1.39923
0.141322 -1.36387 -1.36387
0.0824763 -1.38045 -1.38045
0.11274 -1.39866 -1.39866
0.141997 -1.3815 -1.3815
0.111714 -1.3633 -1.3633
0.112229 -1.38093 -1.38093
0.0828287 -1.39817 -1.39817
0.0835238 -1.43391 -1.43391
0.143993 -1.43497 -1.43497
0.142666 -1.39923 -1.39923
0.0831779 -1.416 -1.416
0.113751 -1.4344 -1.4344
0.143332 -1.41706 -1.41706
0.11274 -1.39866 -1.39866
0.113247 -1.41649 -1.41649
0.0835238 -1.43391 -1.43391
0.0842061 -1.47002 -1.47002
0.145301 -1.47109 -1.47109
0.143993 -1.43497 -1.43497
0.0838666 -1.45192 -1.45192
0.114746 -1.47051 -1.47051
0.144649 -1.45298 -1.45298
0.113751 -1.4344 -1.4344
0.11425 -1.45241 -1.45241
0.0842061 -1.47002 -1.47002
0.0848754 -1.5065 -1.5065
0.146591 -1.50757 -1.50757
0.145301 -1.47109 -1.47109
0.0845423 -1.48821 -1.48821
0.115726 -1.50699 -1.50699
0.145948 -1.48928 -1.48928
0.114746 -1.47051 -1.47051
0.115238 -1.48871 -1.48871
0.0848754 -1.5065 -1.5065
0.0855317 -1.54334 -1.54334
0.147864 -1.54442 -1.54442
0.146591 -1.50757 -1.50757
0.0852052 -1.52487 -1.52487
0.11669 -1.54384 -1.54384
0.14723 -1.52595 -1.52595
0.115726 -1.50699 -1.50699
0.11621 -1.52537 -1.52537
0.0855317 -1.54334 -1.54334
0.0861751 -1.58055 -1.58055
0.149118 -1.58163 -1.58163
0.147864 -1.54442 -1.54442
0.085855 -1.5619 -1.5619
0.117639 -1.58105 -1.58105
0.148493 -1.56298 -1.56298
0.11669 -1.54384 -1.54384
0.117166 -1.5624 -1.5624
0.0861751 -1.58055 -1.58055
0.0868056 -1.61812 -1.61812
0.150354 -1.6192 -1.6192
0.149118 -1.58163 -1.58163
0.086492 -1.59929 -1.59929
0.118572 -1.61862 -1.61862
0.149738 -1.60037 -1.60037
0.117639 -1.58105 -1.58105
0.118107 -1.59979 -1.59979
0.0868056 -1.61812 -1.61812
0.0874231 -1.65604 -1.65604
0.151572 -1.65713 -1.65713
0.150354 -1.6192 -1.6192
0.0871159 -1.63704 -1.63704
0.11949 -1.65655 -1.65655
0.150965 -1.63812 -1.63812
0.118572 -1.61862 -1.61862
0.119033 -1.63754 -1.63754
0.0874231 -1.65604 -1.65604
0.0880276 -1.69432 -1.69432
0.152772 -1.69541 -1.69541
0.151572 -1.65713 -1.65713
0.0877269 -1.67514 -1.67514
0.120392 -1.69483 -1.69483
0.152174 -1.67623 -1.67623
0.11949 -1.65655 -1.65655
0.119943 -1.67565 -1.67565
0.0880276 -1.69432 -1.69432
0.0886191 -1.73295 -1.73295
0.153954 -1.73405 -1.73405
0.152772 -1.69541 -1.69541
0.088325 -1.71359 -1.71359
0.121279 -1.73346 -1.73346
0.153365 -1.71469 -1.71469
0.120392 -1.69483 -1.69483
0.120837 -1.7141 -1.7141
0.0886191 -1.73295 -1.73295
0.0891977 -1.77193 -1.77193
0.155117 -1.77303 -1.77303
0.153954 -1.73405 -1.73405
0.08891 -1.7524 -1.7524
0.12215 -1.77244 -1.77244
0.154538 -1.7535 -1.7535
0.121279 -1.73346 -1.73346
0.121716 -1.75291 -1.75291
0.0891977 -1.77193 -1.77193
0.0897633 -1.81126 -1.81126
0.156263 -1.81236 -1.81236
0.155117 -1.77303 -1.77303
0.0894821 -1.79155 -1.79155
0.123005 -1.81177 -1.81177
0.155692 -1.79265 -1.79265
0.12215 -1.77244 -1.77244
0.122579 -1.79206 -1.79206
0.0897633 -1.81126 -1.81126
0.0903159 -1.85092 -1.85092
0.157391 -1.85203 -1.85203
0.156263 -1.81236 -1.81236
0.0900412 -1.83105 -1.83105
0.123845 -1.85144 -1.85144
0.156829 -1.83215 -1.83215
0.123005 -1.81177 -1.81177
0.123427 -1.83156 -1.83156
0.0903159 -1.85092 -1.85092
0.0908556 -1.89093 -1.89093
0.1585 -1.89204 -1.89204
0.157391 -1.85203 -1.85203
0.0905874 -1.87088 -1.87088
0.12467 -1.89144 -1.89144
0.157948 -1.87199 -1.87199
0.123845 -1.85144 -1.85144
0.12426 -1.8714 -1.8714
0.0908556 -1.89093 -1.89093
0.0913823 -1.93127 -1.93127
0.159591 -1.93238 -1.93238
0.1585 -1.89204 -1.89204
0.0911206 -1.91105 -1.91105
0.125479 -1.93179 -1.93179
0.159048 -1.91217 -1.91217
0.12467 -1.89144 -1.89144
0.125076 -1.91157 -1.91157
0.0913823 -1.93127 -1.93127
0.091896 -1.97194 -1.97194
0.160665 -1.97306 -1.97306
0.159591 -1.93238 -1.93238
0.0916408 -1.95156 -1.95156
0.126273 -1.97246 -1.97246
0.16013 -1.95268 -1.95268
0.125479 -1.93179 -1.93179
0.125878 -1.95208 -1.95208
0.091896 -1.97194 -1.97194
0.0923968 -2.01294 -2.01294
0.16172 -2.01406 -2.01406
0.160665 -1.97306 -1.97306
0.092148 -1.9924 -1.9924
0.127051 -2.01347 -2.01347
0.161195 -1.99352 -1.99352
0.126273 -1.97246 -1.97246
0.126664 -1.99292 -1.99292
0.0923968 -2.01294 -2.01294
0.0928846 -2.05427 -2.05427
0.162757 -2.0554 -2.0554
0.16172 -2.01406 -2.01406
0.0926423 -2.03357 -2.03357
0.127813 -2.0548 -2.0548
0.162241 -2.03469 -2.03469
0.127051 -2.01347 -2.01347
0.127434 -2.03409 -2.03409
0.0928846 -2.05427 -2.05427
0.0933594 -2.09593 -2.09593
0.163776 -2.09706 -2.09706
0.162757 -2.0554 -2.0554
0.0931236 -2.07506 -2.07506
0.12856 -2.09646 -2.09646
0.163269 -2.07619 -2.07619
0.127813 -2.0548 -2.0548
0.128189 -2.07559 -2.07559
0.0933594 -2.09593 -2.09593
0.0938214 -2.1379 -2.1379
0.164778 -2.13903 -2.13903
0.163776 -2.09706 -2.09706
0.093592 -2.11687 -2.11687
0.129292 -2.13843 -2.13843
0.164279 -2.118 -2.118
0.12856 -2.09646 -2.09646
0.128928 -2.11741 -2.11741
0.0938214 -2.1379 -2.1379
0.0942704 -2.18019 -2.18019
0.165761 -2.18133 -2.18133
0.164778 -2.13903 -2.13903
0.0940475 -2.15901 -2.15901
0.130008 -2.18073 -2.18073
0.165271 -2.16014 -2.16014
0.129292 -2.13843 -2.13843
0.129652 -2.15954 -2.15954
0.0942704 -2.18019 -2.18019
0.0947064 -2.2228 -2.2228
0.166726 -2.22394 -2.22394
0.165761 -2.18133 -2.18133
0.09449 -2.20146 -2.20146
0.130708 -2.22334 -2.22334
0.166245 -2.2026 -2.2026
0.130008 -2.18073 -2.18073
0.13036 -2.20199 -2.20199
0.0947064 -2.2228 -2.2228
0.0951296 -2.26572 -2.26572
0.167673 -2.26686 -2.26686
0.166726 -2.22394 -2.22394
0.0949196 -2.24422 -2.24422
0.131393 -2.26626 -2.26626
0.167201 -2.24536 -2.24536
0.130708 -2.22334 -2.22334
0.131053 -2.24476 -2.24476
0.0951296 -2.26572 -2.26572
0.0955399 -2.30895 -2.30895
0.168602 -2.31009 -2.31009
0.167673 -2.26686 -2.26686
0.0953364 -2.2873 -2.2873
0.132063 -2.30949 -2.30949
0.168139 -2.28844 -2.28844
0.131393 -2.26626 -2.26626
0.13173 -2.28784 -2.28784
0.0955399 -2.30895 -2.30895
0.0959373 -2.35248 -2.35248
0.169513 -2.35363 -2.35363
0.168602 -2.31009 -2.31009
0.0957402 -2.33068 -2.33068
0.132717 -2.35302 -2.35302
0.16906 -2.33183 -2.33183
0.132063 -2.30949 -2.30949
0.132392 -2.33122 -2.33122
0.0959373 -2.35248 -2.35248
0.0963218 -2.39632 -2.39632
0.170406 -2.39747 -2.39747
0.169513 -2.35363 -2.35363
0.0961312 -2.37436 -2.37436
0.133356 -2.39686 -2.39686
0.169962 -2.37551 -2.37551
0.132717 -2.35302 -2.35302
0.133039 -2.37491 -2.37491
0.0963218 -2.39632 -2.39632
0.0966935 -2.44045 -2.44045
0.171281 -2.44161 -2.44161
0.170406 -2.39747 -2.39747
0.0965093 -2.41835 -2.41835
0.133979 -2.441 -2.441
0.170846 -2.4195 -2.4195
0.133356 -2.39686 -2.39686
0.13367 -2.41889 -2.41889
0.0966935 -2.44045 -2.44045
0.0970524 -2.48488 -2.48488
0.172138 -2.48605 -2.48605
0.171281 -2.44161 -2.44161
0.0968746 -2.46263 -2.46263
0.134587 -2.48543 -2.48543
0.171712 -2.46379 -2.46379
0.133979 -2.441 -2.441
0.134285 -2.46318 -2.46318
0.0970524 -2.48488 -2.48488
0.0973984 -2.52961 -2.52961
0.172977 -2.53077 -2.53077
0.172138 -2.48605 -2.48605
0.097227 -2.50721 -2.50721
0.13518 -2.53016 -2.53016
0.17256 -2.50837 -2.50837
0.134587 -2.48543 -2.48543
0.134886 -2.50776 -2.50776
0.0973984 -2.52961 -2.52961
0.0977317 -2.57463 -2.57463
0.173799 -2.57579 -2.57579
0.172977 -2.53077 -2.53077
0.0975667 -2.55208 -2.55208
0.135757 -2.57518 -2.57518
0.17339 -2.55325 -2.55325
0.13518 -2.53016 -2.53016
0.135471 -2.55263 -2.55263
0.0977317 -2.57463 -2.57463
0.0980522 -2.61993 -2.61993
0.174602 -2.6211 -2.6211
0.173799 -2.57579 -2.57579
0.0978936 -2.59724 -2.59724
0.136319 -2.62049 -2.62049
0.174203 -2.59841 -2.59841
0.135757 -2.57518 -2.57518
0.13604 -2.5978 -2.5978
0.0980522 -2.61993 -2.61993
0.09836 -2.66552 -2.66552
0.175388 -2.66669 -2.66669
0.174602 -2.6211 -2.6211
0.0982077 -2.64269 -2.64269
0.136866 -2.66608 -2.66608
0.174997 -2.64386 -2.64386
0.136319 -2.62049 -2.62049
0.136595 -2.64324 -2.64324
0.09836 -2.66552 -2.66552
0.098655 -2.71139 -2.71139
0.176156 -2.71257 -2.71257
0.175388 -2.66669 -2.66669
0.0985091 -2.68842 -2.68842
0.137397 -2.71195 -2.71195
0.175774 -2.68959 -2.68959
0.136866 -2.66608 -2.66608
0.137134 -2.68898 -2.68898
0.098655 -2.71139 -2.71139
0.0989373 -2.75754 -2.75754
0.176906 -2.75872 -2.75872
0.176156 -2.71257 -2.71257
0.0987977 -2.73443 -2.73443
0.137914 -2.7581 -2.7581
0.176533 -2.73561 -2.73561
0.137397 -2.71195 -2.71195
0.137657 -2.73499 -2.73499
0.0989373 -2.75754 -2.75754
0.0992069 -2.80396 -2.80396
0.177638 -2.80514 -2.80514
0.176906 -2.75872 -2.75872
0.0990737 -2.78071 -2.78071
0.138415 -2.80452 -2.80452
0.177274 -2.7819 -2.7819
0.137914 -2.7581 -2.7581
0.138166 -2.78127 -2.78127
0.0992069 -2.80396 -2.80396
0.0994639 -2.85065 -2.85065
0.178352 -2.85184 -2.85184
0.177638 -2.80514 -2.80514
0.099337 -2.82727 -2.82727
0.1389 -2.85122 -2.85122
0.177997 -2.82846 -2.82846
0.138415 -2.80452 -2.80452
0.138659 -2.82784 -2.82784
0.0994639 -2.85065 -2.85065
0.0997083 -2.89762 -2.89762
0.179049 -2.89881 -2.89881
0.178352 -2.85184 -2.85184
0.0995877 -2.8741 -2.8741
0.139371 -2.89819 -2.89819
0.178703 -2.87529 -2.87529
0.1389 -2.85122 -2.85122
0.139137 -2.87467 -2.87467
0.0997083 -2.89762 -2.89762
0.0999401 -2.94485 -2.94485
0.179728 -2.94604 -2.94604
0.179049 -2.89881 -2.89881
0.0998258 -2.9212 -2.9212
0.139826 -2.94542 -2.94542
0.179391 -2.92239 -2.92239
0.139371 -2.89819 -2.89819
0.1396 -2.92177 -2.92177
0.0999401 -2.94485 -2.94485
0.100159 -2.99234 -2.99234
0.180389 -2.99354 -2.99354
0.179728 -2.94604 -2.94604
0.100051 -2.96856 -2.96856
0.140266 -2.99291 -2.99291
0.180061 -2.96976 -2.96976
0.139826 -2.94542 -2.94542
0.140048 -2.96913 -2.96913
0.100159 -2.99234 -2.99234
0.100366 -3.0401 -3.0401
0.181033 -3.0413 -3.0413
0.180389 -2.99354 -2.99354
0.100264 -3.01619 -3.01619
0.140692 -3.04067 -3.04067
0.180713 -3.01739 -3.01739
0.140266 -2.99291 -2.99291
0.140481 -3.01676 -3.01676
0.100366 -3.0401 -3.0401
0.10056 -3.08811 -3.08811
0.181659 -3.08931 -3.08931
0.181033 -3.0413 -3.0413
0.100465 -3.06407 -3.06407
0.141102 -3.08868 -3.08868
0.181348 -3.06527 -3.06527
0.140692 -3.04067 -3.04067
0.140898 -3.06464 -3.06464
0.10056 -3.08811 -3.08811
0.100742 -3.13637 -3.13637
0.182267 -3.13758 -3.13758
0.181659 -3.08931 -3.08931
0.100653 -3.11221 -3.11221
0.141497 -3.13695 -3.13695
0.181965 -3.11342 -3.11342
0.141102 -3.08868 -3.08868
0.141301 -3.11279 -3.11279
0.100742 -3.13637 -3.13637
0.100911 -3.18489 -3.18489
0.182858 -3.1861 -3.1861
0.182267 -3.13758 -3.13758
0.100828 -3.1606 -3.1606
0.141877 -3.18547 -3.18547
0.182565 -3.16181 -3.16181
0.141497 -3.13695 -3.13695
0.141689 -3.16118 -3.16118
0.100911 -3.18489 -3.18489
0.101068 -3.23366 -3.23366
0.183432 -3.23487 -3.23487
0.182858 -3.1861 -3.1861
0.100991 -3.20924 -3.20924
0.142242 -3.23424 -3.23424
0.183147 -3.21045 -3.21045
0.141877 -3.18547 -3.18547
0.142061 -3.20982 -3.20982
0.101068 -3.23366 -3.23366
0.101212 -3.28267 -3.28267
0.183987 -3.28388 -3.28388
0.183432 -3.23487 -3.23487
0.101142 -3.25813 -3.25813
0.142592 -3.28325 -3.28325
0.183712 -3.25934 -3.25934
0.142242 -3.23424 -3.23424
0.142419 -3.25871 -3.25871
0.101212 -3.28267 -3.28267
0.101344 -3.33192 -3.33192
0.184526 -3.33314 -3.33314
0.183987 -3.28388 -3.28388
0.10128 -3.30726 -3.30726
0.142927 -3.3325 -3.3325
0.184259 -3.30848 -3.30848
0.142592 -3.28325 -3.28325
0.142761 -3.30784 -3.30784
0.101344 -3.33192 -3.33192
0.101464 -3.38141 -3.38141
0.185047 -3.38263 -3.38263
0.184526 -3.33314 -3.33314
0.101406 -3.35663 -3.35663
0.143248 -3.38199 -3.38199
0.184789 -3.35785 -3.35785
0.142927 -3.3325 -3.3325
0.143089 -3.35722 -3.35722
0.101464 -3.38141 -3.38141
0.101572 -3.43114 -3.43114
0.185551 -3.43236 -3.43236
0.185047 -3.38263 -3.38263
0.101519 -3.40624 -3.40624
0.143553 -3.43172 -3.43172
0.185301 -3.40746 -3.40746
0.143248 -3.38199 -3.38199
0.143402 -3.40683 -3.40683
0.101572 -3.43114 -3.43114
0.101667 -3.4811 -3.4811
0.186037 -3.48232 -3.48232
0.185551 -3.43236 -3.43236
0.101621 -3.45609 -3.45609
0.143844 -3.48168 -3.48168
0.185796 -3.45731 -3.45731
0.143553 -3.43172 -3.43172
0.1437 -3.45667 -3.45667
0.101667 -3.4811 -3.4811
0.10175 -3.53129 -3.53129
0.186506 -3.53251 -3.53251
0.186037 -3.48232 -3.48232
0.10171 -3.50616 -3.50616
0.14412 -3.53188 -3.53188
0.186273 -3.50739 -3.50739
0.143844 -3.48168 -3.48168
0.143984 -3.50675 -3.50675
0.10175 -3.53129 -3.53129
0.101821 -3.5817 -3.5817
0.186958 -3.58293 -3.58293
0.186506 -3.53251 -3.53251
0.101787 -3.55647 -3.55647
0.144381 -3.58229 -3.58229
0.186734 -3.55769 -3.55769
0.14412 -3.53188 -3.53188
0.144253 -3.55706 -3.55706
0.101821 -3.5817 -3.5817
0.10188 -3.63234 -3.63234
0.187392 -3.63357 -3.63357
0.186958 -3.58293 -3.58293
0.101852 -3.60699 -3.60699
0.144628 -3.63294 -3.63294
0.187177 -3.60823 -3.60823
0.144381 -3.58229 -3.58229
0.144507 -3.60759 -3.60759
0.10188 -3.63234 -3.63234
0.101927 -3.6832 -3.6832
0.187809 -3.68444 -3.68444
0.187392 -3.63357 -3.63357
0.101905 -3.65775 -3.65775
0.14486 -3.6838 -3.6838
0.187603 -3.65898 -3.65898
0.144628 -3.63294 -3.63294
0.144746 -3.65834 -3.65834
0.101927 -3.6832 -3.6832
0.101961 -3.73428 -3.73428
0.18821 -3.73552 -3.73552
0.187809 -3.68444 -3.68444
0.101946 -3.70872 -3.70872
0.145078 -3.73488 -3.73488
0.188012 -3.70995 -3.70995
0.14486 -3.6838 -3.6838
0.144971 -3.70931 -3.70931
0.101961 -3.73428 -3.73428
0.101984 -3.78558 -3.78558
0.188593 -3.78682 -3.78682
0.18821 -3.73552 -3.73552
0.101974 -3.7599 -3.7599
0.14528 -3.78617 -3.78617
0.188403 -3.76114 -3.76114
0.145078 -3.73488 -3.73488
0.145181 -3.7605 -3.7605
0.101984 -3.78558 -3.78558
0.101995 -3.83708 -3.83708
0.188959 -3.83832 -3.83832
0.188593 -3.78682 -3.78682
0.101991 -3.8113 -3.8113
0.145469 -3.83768 -3.83768
0.188778 -3.81254 -3.81254
0.14528 -3.78617 -3.78617
0.145376 -3.8119 -3.8119
0.101995 -3.83708 -3.83708
0.101994 -3.8888 -3.8888
0.189308 -3.89004 -3.89004
0.188959 -3.83832 -3.83832
0.101996 -3.86291 -3.86291
0.145643 -3.8894 -3.8894
0.189135 -3.86416 -3.86416
0.145469 -3.83768 -3.83768
0.145558 -3.86351 -3.86351
0.101994 -3.8888 -3.8888
0.101981 -3.94072 -3.94072
0.18964 -3.94196 -3.94196
0.189308 -3.89004 -3.89004
0.101989 -3.91473 -3.91473
0.145802 -3.94132 -3.94132
0.189476 -3.91597 -3.91597
0.145643 -3.8894 -3.8894
0.145724 -3.91533 -3.91533
0.101981 -3.94072 -3.94072
0.101956 -3.99284 -3.99284
0.189955 -3.99409 -3.99409
0.18964 -3.94196 -3.94196
0.10197 -3.96675 -3.96675
0.145948 -3.99344 -3.99344
0.189799 -3.968 -3.968
0.145802 -3.94132 -3.94132
0.145877 -3.96735 -3.96735
0.101956 -3.99284 -3.99284
0.10192 -4.04516 -4.04516
0.190253 -4.04641 -4.04641
0.189955 -3.99409 -3.99409
0.101939 -4.01898 -4.01898
0.146078 -4.04576 -4.04576
0.190106 -4.02022 -4.02022
0.145948 -3.99344 -3.99344
0.146015 -4.01958 -4.01958
0.10192 -4.04516 -4.04516
0.101871 -4.09768 -4.09768
0.190534 -4.09893 -4.09893
0.190253 -4.04641 -4.04641
0.101897 -4.0714 -4.0714
0.146195 -4.09828 -4.09828
0.190396 -4.07265 -4.07265
0.146078 -4.04576 -4.04576
0.146138 -4.072 -4.072
0.101871 -4.09768 -4.09768
0.101811 -4.15039 -4.15039
0.190799 -4.15164 -4.15164
0.190534 -4.09893 -4.09893
0.101843 -4.12401 -4.12401
0.146297 -4.151 -4.151
0.190669 -4.12526 -4.12526
0.146195 -4.09828 -4.09828
0.146248 -4.12462 -4.12462
0.101811 -4.15039 -4.15039
0.10174 -4.2033 -4.2033
0.191047 -4.20455 -4.20455
0.190799 -4.15164 -4.15164
0.101777 -4.17682 -4.17682
0.146385 -4.2039 -4.2039
0.190925 -4.17807 -4.17807
0.146297 -4.151 -4.151
0.146343 -4.17743 -4.17743
0.10174 -4.2033 -4.2033
0.101657 -4.25639 -4.25639
0.191278 -4.25764 -4.25764
0.191047 -4.20455 -4.20455
0.1017 -4.22982 -4.22982
0.146459 -4.25699 -4.25699
0.191165 -4.23107 -4.23107
0.146385 -4.2039 -4.2039
0.146424 -4.23042 -4.23042
0.101657 -4.25639 -4.25639
0.101562 -4.30966 -4.30966
0.191493 -4.31092 -4.31092
0.191278 -4.25764 -4.25764
0.101611 -4.283 -4.283
0.146519 -4.31027 -4.31027
0.191388 -4.28425 -4.28425
0.146459 -4.25699 -4.25699
0.146491 -4.28361 -4.28361
0.101562 -4.30966 -4.30966
0.101456 -4.36312 -4.36312
0.191691 -4.36437 -4.36437
0.191493 -4.31092 -4.31092
0.10151 -4.33637 -4.33637
0.146565 -4.36373 -4.36373
0.191594 -4.33762 -4.33762
0.146519 -4.31027 -4.31027
0.146544 -4.33697 -4.33697
0.101456 -4.36312 -4.36312
0.101338 -4.41675 -4.41675
0.191872 -4.41801 -4.41801
0.191691 -4.36437 -4.36437
0.101398 -4.38991 -4.38991
0.146597 -4.41736 -4.41736
0.191784 -4.39117 -4.39117
0.146565 -4.36373 -4.36373
0.146583 -4.39052 -4.39052
0.101338 -4.41675 -4.41675
0.101209 -4.47056 -4.47056
0.192037 -4.47182 -4.47182
0.191872 -4.41801 -4.41801
0.101275 -4.44364 -4.44364
0.146615 -4.47117 -4.47117
0.191957 -4.44489 -4.44489
0.146597 -4.41736 -4.41736
0.146608 -4.44425 -4.44425
0.101209 -4.47056 -4.47056
0.101069 -4.52454 -4.52454
0.192186 -4.5258 -4.5258
0.192037 -4.47182 -4.47182
0.101141 -4.49753 -4.49753
0.146619 -4.52516 -4.52516
0.192114 -4.49879 -4.49879
0.146615 -4.47117 -4.47117
0.146619 -4.49814 -4.49814
0.101069 -4.52454 -4.52454
0.100918 -4.5787 -4.5787
0.192318 -4.57996 -4.57996
0.192186 -4.5258 -4.5258
0.100995 -4.5516 -4.5516
0.14661 -4.57931 -4.57931
0.192254 -4.55286 -4.55286
0.146619 -4.52516 -4.52516
0.146616 -4.55221 -4.55221
0.100918 -4.5787 -4.5787
0.100755 -4.63301 -4.63301
0.192434 -4.63428 -4.63428
0.192318 -4.57996 -4.57996
0.100838 -4.60583 -4.60583
0.146586 -4.63363 -4.63363
0.192378 -4.6071 -4.6071
0.14661 -4.57931 -4.57931
0.1466 -4.60645 -4.60645
0.100755 -4.63301 -4.63301
0.100581 -4.6875 -4.6875
0.192533 -4.68876 -4.68876
0.192434 -4.63428 -4.63428
0.100669 -4.66023 -4.66023
0.146549 -4.68811 -4.68811
0.192486 -4.6615 -4.6615
0.146586 -4.63363 -4.63363
0.146569 -4.66085 -4.66085
0.100581 -4.6875 -4.6875
0.100396 -4.74214 -4.74214
0.192617 -4.7434 -4.7434
0.192533 -4.68876 -4.68876
0.10049 -4.7148 -4.7148
0.146498 -4.74275 -4.74275
0.192577 -4.71606 -4.71606
0.146549 -4.68811 -4.68811
0.146525 -4.71541 -4.71541
0.100396 -4.74214 -4.74214
0.1002 -4.79694 -4.79694
0.192684 -4.7982 -4.7982
0.192617 -4.7434 -4.7434
0.100299 -4.76952 -4.76952
0.146434 -4.79755 -4.79755
0.192652 -4.77078 -4.77078
0.146498 -4.74275 -4.74275
0.146468 -4.77013 -4.77013
0.1002 -4.79694 -4.79694
0.0999927 -4.85189 -4.85189
0.192735 -4.85315 -4.85315
0.192684 -4.7982 -4.7982
0.100098 -4.82439 -4.82439
0.146356 -4.8525 -4.8525
0.192711 -4.82566 -4.82566
0.146434 -4.79755 -4.79755
0.146397 -4.82501 -4.82501
0.0999927 -4.85189 -4.85189
0.0997747 -4.90699 -4.90699
0.19277 -4.90826 -4.90826
0.192735 -4.85315 -4.85315
0.0998851 -4.87942 -4.87942
0.146264 -4.90761 -4.90761
0.192755 -4.88069 -4.88069
0.146356 -4.8525 -4.8525
0.146312 -4.88004 -4.88004
0.0997747 -4.90699 -4.90699
0.0995459 -4.96225 -4.96225
0.192789 -4.96351 -4.96351
0.19277 -4.90826 -4.90826
0.0996617 -4.9346 -4.9346
0.146159 -4.96286 -4.96286
0.192782 -4.93586 -4.93586
0.146264 -4.90761 -4.90761
0.146214 -4.93522 -4.93522
0.0995459 -4.96225 -4.96225
0.0993062 -5.01764 -5.01764
0.192792 -5.01891 -5.01891
0.192789 -4.96351 -4.96351
0.0994274 -4.98993 -4.98993
0.146041 -5.01826 -5.01826
0.192793 -4.99119 -4.99119
0.146159 -4.96286 -4.96286
0.146102 -4.99054 -4.99054
0.0993062 -5.01764 -5.01764
0.0990557 -5.07318 -5.07318
0.192779 -5.07445 -5.07445
0.192792 -5.01891 -5.01891
0.0991823 -5.0454 -5.0454
0.14591 -5.0738 -5.0738
0.192788 -5.04666 -5.04666
0.146041 -5.01826 -5.01826
0.145977 -5.04601 -5.04601
0.0990557 -5.07318 -5.07318
0.0987945 -5.12886 -5.12886
0.192751 -5.13012 -5.13012
0.192779 -5.07445 -5.07445
0.0989264 -5.101 -5.101
0.145765 -5.12948 -5.12948
0.192767 -5.10227 -5.10227
0.14591 -5.0738 -5.0738
0.145839 -5.10162 -5.10162
0.0987945 -5.12886 -5.12886
0.0985227 -5.18468 -5.18468
0.192707 -5.18594 -5.18594
0.192751 -5.13012 -5.13012
0.0986599 -5.15675 -5.15675
0.145607 -5.18529 -5.18529
0.192731 -5.15802 -5.15802
0.145765 -5.12948 -5.12948
0.145687 -5.15737 -5.15737
0.0985227 -5.18468 -5.18468
0.0982403 -5.24062 -5.24062
0.192646 -5.24189 -5.24189
0.192707 -5.18594 -5.18594
0.0983828 -5.21263 -5.21263
0.145435 -5.24124 -5.24124
0.192678 -5.2139 -5.2139
0.145607 -5.18529 -5.18529
0.145523 -5.21325 -5.21325
0.0982403 -5.24062 -5.24062
0.0979473 -5.2967 -5.2967
0.192571 -5.29796 -5.29796
0.192646 -5.24189 -5.24189
0.0980951 -5.26865 -5.26865
0.145251 -5.29732 -5.29732
0.192611 -5.26991 -5.26991
0.145435 -5.24124 -5.24124
0.145345 -5.26926 -5.26926
0.0979473 -5.2967 -5.2967
0.0976439 -5.35291 -5.35291
0.19248 -5.35417 -5.35417
0.192571 -5.29796 -5.29796
0.0977969 -5.32479 -5.32479
0.145054 -5.35352 -5.35352
0.192527 -5.32605 -5.32605
0.145251 -5.29732 -5.29732
0.145154 -5.32541 -5.32541
0.0976439 -5.35291 -5.35291
0.09733 -5.40923 -5.40923
0.192373 -5.4105 -5.4105
0.19248 -5.35417 -5.35417
0.0974883 -5.38105 -5.38105
0.144843 -5.40985 -5.40985
0.192428 -5.38232 -5.38232
0.145054 -5.35352 -5.35352
0.14495 -5.38167 -5.38167
0.09733 -5.40923 -5.40923
0.0970059 -5.46568 -5.46568
0.192251 -5.46694 -5.46694
0.192373 -5.4105 -5.4105
0.0971692 -5.43744 -5.43744
0.14462 -5.4663 -5.4663
0.192314 -5.43871 -5.43871
0.144843 -5.40985 -5.40985
0.144733 -5.43806 -5.43806
0.0970059 -5.46568 -5.46568
0.0966714 -5.52225 -5.52225
0.192113 -5.52351 -5.52351
0.192251 -5.46694 -5.46694
0.0968399 -5.49395 -5.49395
0.144384 -5.52287 -5.52287
0.192184 -5.49521 -5.49521
0.14462 -5.4663 -5.4663
0.144504 -5.49457 -5.49457
0.0966714 -5.52225 -5.52225
0.0963267 -5.57893 -5.57893
0.19196 -5.58019 -5.58019
0.192113 -5.52351 -5.52351
0.0965003 -5.55058 -5.55058
0.144135 -5.57955 -5.57955
0.192038 -5.55184 -5.55184
0.144384 -5.52287 -5.52287
0.144261 -5.5512 -5.5512
0.0963267 -5.57893 -5.57893
0.0959718 -5.63573 -5.63573
0.191792 -5.63698 -5.63698
0.19196 -5.58019 -5.58019
0.0961505 -5.60732 -5.60732
0.143874 -5.63634 -5.63634
0.191878 -5.60857 -5.60857
0.144135 -5.57955 -5.57955
0.144006 -5.60793 -5.60793
0.0959718 -5.63573 -5.63573
0.0956069 -5.69263 -5.69263
0.191608 -5.69389 -5.69389
0.191792 -5.63698 -5.63698
0.0957906 -5.66416 -5.66416
0.143599 -5.69325 -5.69325
0.191702 -5.66542 -5.66542
0.143874 -5.63634 -5.63634
0.143738 -5.66478 -5.66478
0.0956069 -5.69263 -5.69263
0.0952319 -5.74964 -5.74964
0.19141 -5.75089 -5.75089
0.191608 -5.69389 -5.69389
0.0954206 -5.72112 -5.72112
0.143313 -5.75025 -5.75025
0.191511 -5.72238 -5.72238
0.143599 -5.69325 -5.69325
0.143458 -5.72174 -5.72174
0.0952319 -5.74964 -5.74964
0.0948469 -5.80675 -5.80675
0.191196 -5.808 -5.808
0.19141 -5.75089 -5.75089
0.0950406 -5.77818 -5.77818
0.143013 -5.80737 -5.80737
0.191305 -5.77944 -5.77944
0.143313 -5.75025 -5.75025
0.143164 -5.7788 -5.7788
0.0948469 -5.80675 -5.80675
0.094452 -5.86396 -5.86396
0.190967 -5.86521 -5.86521
0.191196 -5.808 -5.808
0.0946507 -5.83534 -5.83534
0.142701 -5.86458 -5.86458
0.191083 -5.8366 -5.8366
0.143013 -5.80737 -5.80737
0.142859 -5.83596 -5.83596
0.094452 -5.86396 -5.86396
0.0940473 -5.92127 -5.92127
0.190724 -5.92252 -5.92252
0.190967 -5.86521 -5.86521
0.0942509 -5.8926 -5.8926
0.142377 -5.92188 -5.92188
0.190847 -5.89385 -5.89385
0.142701 -5.86458 -5.86458
0.142541 -5.89322 -5.89322
0.0940473 -5.92127 -5.92127
0.0936328 -5.97867 -5.97867
0.190465 -5.97992 -5.97992
0.190724 -5.92252 -5.92252
0.0938412 -5.94996 -5.94996
0.142041 -5.97928 -5.97928
0.190596 -5.95121 -5.95121
0.142377 -5.92188 -5.92188
0.142211 -5.95057 -5.95057
0.0936328 -5.97867 -5.97867
0.0932085 -6.03616 -6.03616
0.190192 -6.03741 -6.03741
0.190465 -5.97992 -5.97992
0.0934219 -6.0074 -6.0074
0.141692 -6.03677 -6.03677
0.19033 -6.00865 -6.00865
0.142041 -5.97928 -5.97928
0.141868 -6.00802 -6.00802
0.0932085 -6.03616 -6.03616
0.0927747 -6.09374 -6.09374
0.189904 -6.09499 -6.09499
0.190192 -6.03741 -6.03741
0.0929928 -6.06494 -6.06494
0.141331 -6.09435 -6.09435
0.190049 -6.06619 -6.06619
0.141692 -6.03677 -6.03677
0.141513 -6.06555 -6.06555
0.0927747 -6.09374 -6.09374
0.0923312 -6.1514 -6.1514
0.189601 -6.15265 -6.15265
0.189904 -6.09499 -6.09499
0.0925541 -6.12256 -6.12256
0.140958 -6.15202 -6.15202
0.189754 -6.12381 -6.12381
0.141331 -6.09435 -6.09435
0.141146 -6.12317 -6.12317
0.0923312 -6.1514 -6.1514
0.0918782 -6.20915 -6.20915
0.189283 -6.21039 -6.21039
0.189601 -6.15265 -6.15265
0.0921059 -6.18027 -6.18027
0.140573 -6.20976 -6.20976
0.189444 -6.18151 -6.18151
0.140958 -6.15202 -6.15202
0.140767 -6.18088 -6.18088
0.0918782 -6.20915 -6.20915
0.0914158 -6.26697 -6.26697
0.188951 -6.26821 -6.26821
0.189283 -6.21039 -6.21039
0.0916482 -6.23805 -6.23805
0.140175 -6.26758 -6.26758
0.189119 -6.23929 -6.23929
0.140573 -6.20976 -6.20976
0.140375 -6.23866 -6.23866
0.0914158 -6.26697 -6.26697
0.090944 -6.32487 -6.32487
0.188605 -6.32611 -6.32611
0.188951 -6.26821 -6.26821
0.0911811 -6.29591 -6.29591
0.139766 -6.32548 -6.32548
0.18878 -6.29715 -6.29715
0.140175 -6.26758 -6.26758
0.139972 -6.29652 -6.29652
0.090944 -6.32487 -6.32487
0.0904628 -6.38284 -6.38284
0.188244 -6.38408 -6.38408
0.188605 -6.32611 -6.32611
0.0907046 -6.35385 -6.35385
0.139345 -6.38345 -6.38345
0.188426 -6.35509 -6.35509
0.139766 -6.32548 -6.32548
0.139557 -6.35446 -6.35446
0.0904628 -6.38284 -6.38284
0.0899725 -6.44089 -6.44089
0.187868 -6.44212 -6.44212
0.188244 -6.38408 -6.38408
0.0902188 -6.41186 -6.41186
0.138912 -6.44149 -6.44149
0.188058 -6.41309 -6.41309
0.139345 -6.38345 -6.38345
0.13913 -6.41247 -6.41247
0.0899725 -6.44089 -6.44089
0.0894729 -6.49899 -6.49899
0.187479 -6.50022 -6.50022
0.187868 -6.44212 -6.44212
0.0897238 -6.46993 -6.46993
0.138468 -6.4996 -6.4996
0.187675 -6.47116 -6.47116
0.138912 -6.44149 -6.44149
0.138691 -6.47054 -6.47054
0.0894729 -6.49899 -6.49899
0.0889642 -6.55716 -6.55716
0.187075 -6.55839 -6.55839
0.187479 -6.50022 -6.50022
0.0892197 -6.52807 -6.52807
0.138011 -6.55777 -6.55777
0.187279 -6.5293 -6.5293
0.138468 -6.4996 -6.4996
0.138241 -6.52868 -6.52868
0.0889642 -6.55716 -6.55716
0.0884464 -6.6154 -6.6154
0.186657 -6.61662 -6.61662
0.187075 -6.55839 -6.55839
0.0887064 -6.58627 -6.58627
0.137544 -6.616 -6.616
0.186868 -6.5875 -6.5875
0.138011 -6.55777 -6.55777
0.137779 -6.58688 -6.58688
0.0884464 -6.6154 -6.6154
0.0879197 -6.67368 -6.67368
0.186225 -6.67491 -6.67491
0.186657 -6.61662 -6.61662
0.0881842 -6.64453 -6.64453
0.137064 -6.67429 -6.67429
0.186443 -6.64576 -6.64576
0.137544 -6.616 -6.616
0.137305 -6.64514 -6.64514
0.0879197 -6.67368 -6.67368
0.0873841 -6.73203 -6.73203
0.185779 -6.73325 -6.73325
0.186225 -6.67491 -6.67491
0.087653 -6.70285 -6.70285
0.136573 -6.73263 -6.73263
0.186004 -6.70407 -6.70407
0.137064 -6.67429 -6.67429
0.13682 -6.70345 -6.70345
0.0873841 -6.73203 -6.73203
0.0868396 -6.79042 -6.79042
0.185319 -6.79164 -6.79164
0.185779 -6.73325 -6.73325
0.0871129 -6.76122 -6.76122
0.136071 -6.79102 -6.79102
0.185551 -6.76243 -6.76243
0.136573 -6.73263 -6.73263
0.136323 -6.76182 -6.76182
0.0868396 -6.79042 -6.79042
0.0862863 -6.84886 -6.84886
0.184845 -6.85008 -6.85008
0.185319 -6.79164 -6.79164
0.0865641 -6.81964 -6.81964
0.135557 -6.84947 -6.84947
0.185084 -6.82085 -6.82085
0.136071 -6.79102 -6.79102
0.135816 -6.82024 -6.82024
0.0862863 -6.84886 -6.84886
0.0857244 -6.90735 -6.90735
0.184357 -6.90856 -6.90856
0.184845 -6.85008 -6.85008
0.0860064 -6.8781 -6.8781
0.135032 -6.90795 -6.90795
0.184603 -6.87931 -6.87931
0.135557 -6.84947 -6.84947
0.135296 -6.8787 -6.8787
0.0857244 -6.90735 -6.90735
0.0851538 -6.96588 -6.96588
0.183856 -6.96709 -6.96709
0.184357 -6.90856 -6.90856
0.0854401 -6.93661 -6.93661
0.134496 -6.96648 -6.96648
0.184108 -6.93782 -6.93782
0.135032 -6.90795 -6.90795
0.134766 -6.93721 -6.93721
0.0851538 -6.96588 -6.96588
0.0845745 -7.02445 -7.02445
0.18334 -7.02565 -7.02565
0.183856 -6.96709 -6.96709
0.0848652 -6.99516 -6.99516
0.133949 -7.02505 -7.02505
0.1836 -6.99636 -6.99636
0.134496 -6.96648 -6.96648
0.134224 -6.99576 -6.99576
0.0845745 -7.02445 -7.02445
0.0839868 -7.08306 -7.08306
0.182812 -7.08425 -7.08425
0.18334 -7.02565 -7.02565
0.0842817 -7.05375 -7.05375
0.133391 -7.08365 -7.08365
0.183078 -7.05495 -7.05495
0.133949 -7.02505 -7.02505
0.133671 -7.05434 -7.05434
0.0839868 -7.08306 -7.08306
0.0833905 -7.14169 -7.14169
0.182269 -7.14289 -7.14289
0.182812 -7.08425 -7.08425
0.0836897 -7.11237 -7.11237
0.132822 -7.14229 -7.14229
0.182542 -7.11357 -7.11357
0.133391 -7.08365 -7.08365
0.133108 -7.11297 -7.11297
0.0833905 -7.14169 -7.14169
0.0827856 -7.20036 -7.20036
0.181714 -7.20155 -7.20155
0.182269 -7.14289 -7.14289
0.0830891 -7.17103 -7.17103
0.132241 -7.20095 -7.20095
0.181993 -7.17222 -7.17222
0.132822 -7.14229 -7.14229
0.132533 -7.17162 -7.17162
0.0827856 -7.20036 -7.20036
0.0821721 -7.25906 -7.25906
0.181144 -7.26024 -7.26024
0.181714 -7.20155 -7.20155
0.0824799 -7.22971 -7.22971
0.13165 -7.25965 -7.25965
0.181431 -7.23089 -7.23089
0.132241 -7.20095 -7.20095
0.131947 -7.2303 -7.2303
0.0821721 -7.25906 -7.25906
0.0815496 -7.31778 -7.31778
0.180562 -7.31896 -7.31896
0.181144 -7.26024 -7.26024
0.081862 -7.28842 -7.28842
0.131047 -7.31837 -7.31837
0.180855 -7.2896 -7.2896
0.13165 -7.25965 -7.25965
0.13135 -7.289 -7.289
0.0815496 -7.31778 -7.31778
0.0809176 -7.37652 -7.37652
0.179966 -7.37769 -7.37769
0.180562 -7.31896 -7.31896
0.0812348 -7.34715 -7.34715
0.130433 -7.3771 -7.3771
0.180265 -7.34832 -7.34832
0.131047 -7.31837 -7.31837
0.130741 -7.34773 -7.34773
0.0809176 -7.37652 -7.37652
0.0802758 -7.43528 -7.43528
0.179356 -7.43645 -7.43645
0.179966 -7.37769 -7.37769
0.080598 -7.4059 -7.4059
0.129806 -7.43586 -7.43586
0.179663 -7.40707 -7.40707
0.130433 -7.3771 -7.3771
0.130121 -7.40648 -7.40648
0.0802758 -7.43528 -7.43528
0.0796231 -7.49406 -7.49406
0.178732 -7.49522 -7.49522
0.179356 -7.43645 -7.43645
0.0799508 -7.46467 -7.46467
0.129166 -7.49463 -7.49463
0.179046 -7.46583 -7.46583
0.129806 -7.43586 -7.43586
0.129488 -7.46525 -7.46525
0.0796231 -7.49406 -7.49406
0.07896 -7.55285 -7.55285
0.178092 -7.554 -7.554
0.178732 -7.49522 -7.49522
0.0792928 -7.52345 -7.52345
0.128512 -7.55342 -7.55342
0.178414 -7.52461 -7.52461
0.129166 -7.49463 -7.49463
0.128841 -7.52403 -7.52403
0.07896 -7.55285 -7.55285
0.078288 -7.61165 -7.61165
0.177435 -7.61281 -7.61281
0.178092 -7.554 -7.554
0.0786247 -7.58225 -7.58225
0.127844 -7.61223 -7.61223
0.177766 -7.5834 -7.5834
0.128512 -7.55342 -7.55342
0.12818 -7.58282 -7.58282
0.078288 -7.61165 -7.61165
0.077615 -7.67045 -7.67045
0.176762 -7.67166 -7.67166
0.177435 -7.61281 -7.61281
0.0779511 -7.64105 -7.64105
0.127169 -7.67105 -7.67105
0.1771 -7.64223 -7.64223
0.127844 -7.61223 -7.61223
0.127506 -7.64164 -7.64164
0.077615 -7.67045 -7.67045
0.0769481 -7.72922 -7.72922
0.176097 -7.73053 -7.73053
0.176762 -7.67166 -7.67166
0.0772804 -7.69984 -7.69984
0.126509 -7.72986 -7.72986
0.176425 -7.70109 -7.70109
0.127169 -7.67105 -7.67105
0.126836 -7.70046 -7.70046
0 0 0
0.00228909 -0.000651275 -0.000651275
0.00384161 -0.00192229 -0.00192229
0 0 0
0.00111092 -0.000233791 -0.000233791
0.00289246 -0.0011625 -0.0011625
0.00208962 -0.00119719 -0.00119719
0 0 0
0.00137968 -0.000512127 -0.000512127
0.00228909 -0.000651275 -0.000651275
0.00476718 -0.0018791 -0.0018791
0.00716597 -0.00334191 -0.00334191
0.00384161 -0.00192229 -0.00192229
0.00351636 -0.00120591 -0.00120591
0.00590585 -0.00253643 -0.00253643
0.00550892 -0.00260529 -0.00260529
0.00289246 -0.0011625 -0.0011625
0.00440764 -0.00182865 -0.00182865
0.00476718 -0.0018791 -0.0018791
0.00726744 -0.00356569 -0.00356569
0.0105181 -0.00505428 -0.00505428
0.00716597 -0.00334191 -0.00334191
0.00601884 -0.00266313 -0.00266313
0.00887469 -0.00425407 -0.00425407
0.00883626 -0.00414803 -0.00414803
0.00590585 -0.00253643 -0.00253643
0.00739423 -0.00333942 -0.00333942
0.00726744 -0.00356569 -0.00356569
0.00975462 -0.0057615 -0.0057615
0.0138966 -0.00725657 -0.00725657
0.0105181 -0.00505428 -0.00505428
0.00851328 -0.00459697 -0.00459697
0.0118173 -0.0064507 -0.0064507
0.012205 -0.00608901 -0.00608901
0.00887469 -0.00425407 -0.00425407
0.0103482 -0.00528797 -0.00528797
0.00975462 -0.0057615 -0.0057615
0.0122199 -0.00850277 -0.00850277
0.0172921 -0.00999433 -0.00999433
0.0138966 -0.00725657 -0.00725657
0.0109898 -0.0070624 -0.0070624
0.0147488 -0.00919075 -0.00919075
0.0155932 -0.00855664 -0.00855664
0.0118173 -0.0064507 -0.0064507
0.0132842 -0.00775078 -0.00775078
0.0122199 -0.00850277 -0.00850277
0.0146678 -0.0118106 -0.0118106
0.0206876 -0.0132984 -0.0132984
0.0172921 -0.00999433 -0.00999433
0.0134459 -0.0100852 -0.0100852
0.0176694 -0.0124949 -0.0124949
0.0189904 -0.0115748 -0.0115748
0.0147488 -0.00919075 -0.00919075
0.0162105 -0.0107717 -0.0107717
0.0146678 -0.0118106 -0.0118106
0.0170993 -0.0156909 -0.0156909
0.0240772 -0.017173 -0.017173
0.0206876 -0.0132984 -0.0132984
0.0158855 -0.013679 -0.013679
0.0205786 -0.0163721 -0.0163721
0.0223836 -0.0151642 -0.0151642
0.0176694 -0.0124949 -0.0124949
0.0191255 -0.0143617 -0.0143617
0.0170993 -0.0156909 -0.0156909
0.0195161 -0.0201456 -0.0201456
0.0274544 -0.0216221 -0.0216221
0.0240772 -0.017173 -0.017173
0.0183095 -0.0178465 -0.0178465
0.0234745 -0.0208235 -0.0208235
0.0257676 -0.0193258 -0.0193258
0.0205786 -0.0163721 -0.0163721
0.0220283 -0.0185261 -0.0185261
0.0195161 -0.0201456 -0.0201456
0.0219184 -0.0251727 -0.0251727
0.0308164 -0.0266435 -0.0266435
0.0274544 -0.0216221 -0.0216221
0.020719 -0.0225877 -0.0225877
0.0263559 -0.0258478 -0.0258478
0.0291374 -0.0240614 -0.0240614
0.0234745 -0.0208235 -0.0208235
0.0249171 -0.0232642 -0.0232642
0.0219184 -0.0251727 -0.0251727
0.0243066 -0.03077 -0.03077
0.0341611 -0.0322351 -0.0322351
0.0308164 -0.0266435 -0.0266435
0.0231143 -0.0279003 -0.0279003
0.0292219 -0.0314423 -0.0314423
0.032491 -0.0293682 -0.0293682
0.0263559 -0.0258478 -0.0258478
0.0277909 -0.0285739 -0.0285739
0.0243066 -0.03077 -0.03077
0.0266806 -0.0369342 -0.0369342
0.0374875 -0.0383938 -0.0383938
0.0341611 -0.0322351 -0.0322351
0.0254954 -0.0337814 -0.0337814
0.0320719 -0.037604 -0.037604
0.0358266 -0.0352438 -0.0352438
0.0292219 -0.0314423 -0.0314423
0.030649 -0.0344524 -0.0344524
0.0266806 -0.0369342 -0.0369342
0.0290405 -0.0436623 -0.0436623
0.0407951 -0.0451167 -0.0451167
0.0374875 -0.0383938 -0.0383938
0.0278623 -0.040228 -0.040228
0.0349055 -0.0443298 -0.0443298
0.0391437 -0.0416849 -0.0416849
0.0320719 -0.037604 -0.037604
0.0334908 -0.0408966 -0.0408966
0.0290405 -0.0436623 -0.0436623
0.031386 -0.0509512 -0.0509512
0.0440834 -0.0524005 -0.0524005
0.0407951 -0.0451167 -0.0451167
0.030215 -0.0472369 -0.0472369
0.0377224 -0.0516164 -0.0516164
0.0424416 -0.0486887 -0.0486887
0.0349055 -0.0443298 -0.0443298
0.036316 -0.0479032 -0.0479032
0.031386 -0.0509512 -0.0509512
0.0337171 -0.0587977 -0.0587977
0.0473522 -0.060242 -0.060242
0.0440834 -0.0524005 -0.0524005
0.0325534 -0.0548049 -0.0548049
0.0405223 -0.0594607 -0.0594607
0.0457202 -0.0562517 -0.0562517
0.0377224 -0.0516164 -0.0516164
0.0391245 -0.055469 -0.055469
0.0337171 -0.0587977 -0.0587977
0.0360337 -0.0671987 -0.0671987
0.0506015 -0.0686383 -0.0686383
0.0473522 -0.060242 -0.060242
0.0348772 -0.0629291 -0.0629291
0.0433052 -0.0678597 -0.0678597
0.0489793 -0.064371 -0.064371
0.0405223 -0.0594607 -0.0594607
0.0419159 -0.0635911 -0.0635911
0.0360337 -0.0671987 -0.0671987
0.0383357 -0.0761511 -0.0761511
0.053831 -0.0775863 -0.0775863
0.0506015 -0.0686383 -0.0686383
0.0371865 -0.0716062 -0.0716062
0.046071 -0.0768102 -0.0768102
0.0522187 -0.0730435 -0.0730435
0.0433052 -0.0678597 -0.0678597
0.0446903 -0.0722662 -0.0722662
0.0383357 -0.0761511 -0.0761511
0.0406229 -0.085652 -0.085652
0.0570406 -0.0870828 -0.0870828
0.053831 -0.0775863 -0.0775863
0.0394812 -0.0808332 -0.0808332
0.0488194 -0.0863092 -0.0863092
0.0554383 -0.0822662 -0.0822662
0.046071 -0.0768102 -0.0768102
0.0474474 -0.0814913 -0.0814913
0.0406229 -0.085652 -0.085652
0.0428953 -0.0956982 -0.0956982
0.0602302 -0.0971248 -0.0971248
0.0570406 -0.0870828 -0.0870828
0.041761 -0.0906071 -0.0906071
0.0515504 -0.0963537 -0.0963537
0.0586379 -0.0920358 -0.0920358
0.0488194 -0.0863092 -0.0863092
0.0501871 -0.0912635 -0.0912635
0.0428953 -0.0956982 -0.0956982
0.0451527 -0.106287 -0.106287
0.0633998 -0.107709 -0.107709
0.0602302 -0.0971248 -0.0971248
0.0440259 -0.100925 -0.100925
0.054264 -0.106941 -0.106941
0.0618176 -0.102349 -0.102349
0.0515504 -0.0963537 -0.0963537
0.0529094 -0.101579 -0.101579
0.0451527 -0.106287 -0.106287
0.0473951 -0.117415 -0.117415
0.0665493 -0.118833 -0.118833
0.0633998 -0.107709 -0.107709
0.0462758 -0.111783 -0.111783
0.0569599 -0.118067 -0.118067
0.0649771 -0.113204 -0.113204
0.054264 -0.106941 -0.106941
0.0556141 -0.112436 -0.112436
0.0473951 -0.117415 -0.117415
0.0496223 -0.129079 -0.129079
0.0696784 -0.130494 -0.130494
0.0665493 -0.118833 -0.118833
0.0485106 -0.12318 -0.12318
0.0596381 -0.129729 -0.129729
0.0681164 -0.124597 -0.124597
0.0569599 -0.118067 -0.118067
0.0583012 -0.123831 -0.123831
0.0496223 -0.129079 -0.129079
0.0518343 -0.141276 -0.141276
0.0727872 -0.142687 -0.142687
0.0696784 -0.130494 -0.130494
0.0507302 -0.135111 -0.135111
0.0622985 -0.141925 -0.141925
0.0712354 -0.136524 -0.136524
0.0596381 -0.129729 -0.129729
0.0609705 -0.135761 -0.135761
0.0518343 -0.141276 -0.141276
0.0540309 -0.154003 -0.154003
0.0758755 -0.155412 -0.155412
0.0727872 -0.142687 -0.142687
0.0529345 -0.147573 -0.147573
0.0649409 -0.154651 -0.154651
0.0743339 -0.148983 -0.148983
0.0622985 -0.141925 -0.141925
0.0636219 -0.148222 -0.148222
0.0540309 -0.154003 -0.154003
0.056212 -0.167258 -0.167258
0.0789433 -0.168663 -0.168663
0.0758755 -0.155412 -0.155412
0.0551234 -0.160565 -0.160565
0.0675654 -0.167904 -0.167904
0.077412 -0.161971 -0.161971
0.0649409 -0.154651 -0.154651
0.0662554 -0.161212 -0.161212
0.056212 -0.167258 -0.167258
0.0583776 -0.181036 -0.181036
0.0819904 -0.182438 -0.182438
0.0789433 -0.168663 -0.168663
0.0572968 -0.174082 -0.174082
0.0701718 -0.181682 -0.181682
0.0804694 -0.175485 -0.175485
0.0675654 -0.167904 -0.167904
0.0688708 -0.174728 -0.174728
0.0583776 -0.181036 -0.181036
0.0605276 -0.195336 -0.195336
0.0850168 -0.196735 -0.196735
0.0819904 -0.182438 -0.182438
0.0594546 -0.188121 -0.188121
0.0727599 -0.19598 -0.19598
0.0835062 -0.189522 -0.189522
0.0701718 -0.181682 -0.181682
0.0714681 -0.188766 -0.188766
0.0605276 -0.195336 -0.195336
0.0626618 -0.210153 -0.210153
0.0880223 -0.21155 -0.21155
0.0850168 -0.196735 -0.196735
0.0615967 -0.20268 -0.20268
0.0753298 -0.210797 -0.210797
0.0865222 -0.204078 -0.204078
0.0727599 -0.19598 -0.19598
0.0740472 -0.203324 -0.203324
0.0626618 -0.210153 -0.210153
0.0647803 -0.225486 -0.225486
0.0910069 -0.22688 -0.22688
0.0880223 -0.21155 -0.21155
0.063723 -0.217756 -0.217756
0.0778814 -0.226128 -0.226128
0.0895173 -0.219151 -0.219151
0.0753298 -0.210797 -0.210797
0.0766079 -0.218398 -0.218398
0.0647803 -0.225486 -0.225486
0.0668828 -0.241331 -0.241331
0.0939705 -0.242722 -0.242722
0.0910069 -0.22688 -0.22688
0.0658335 -0.233345 -0.233345
0.0804145 -0.241972 -0.241972
0.0924914 -0.234737 -0.234737
0.0778814 -0.226128 -0.226128
0.0791502 -0.233986 -0.233986
0.0668828 -0.241331 -0.241331
0.0689694 -0.257684 -0.257684
0.0969131 -0.259073 -0.259073
0.0939705 -0.242722 -0.242722
0.0679281 -0.249444 -0.249444
0.082929 -0.258325 -0.258325
0.0954444 -0.250834 -0.250834
0.0804145 -0.241972 -0.241972
0.081674 -0.250085 -0.250085
0.0689694 -0.257684 -0.257684
0.0710398 -0.274543 -0.274543
0.0998344 -0.275931 -0.275931
0.0969131 -0.259073 -0.259073
0.0700066 -0.266051 -0.266051
0.0854249 -0.275183 -0.275183
0.0983764 -0.267439 -0.267439
0.082929 -0.258325 -0.258325
0.0841793 -0.266691 -0.266691
0.0710398 -0.274543 -0.274543
0.0730942 -0.291906 -0.291906
0.102735 -0.293291 -0.293291
0.0998344 -0.275931 -0.275931
0.072069 -0.283162 -0.283162
0.0879022 -0.292545 -0.292545
0.101287 -0.284548 -0.284548
0.0854249 -0.275183 -0.275183
0.0866659 -0.283801 -0.283801
0.0730942 -0.291906 -0.291906
0.0751323 -0.309768 -0.309768
0.105613 -0.311151 -0.311151
0.102735 -0.293291 -0.293291
0.0741153 -0.300774 -0.300774
0.0903606 -0.310406 -0.310406
0.104177 -0.302159 -0.302159
0.0879022 -0.292545 -0.292545
0.0891337 -0.301413 -0.301413
0.0751323 -0.309768 -0.309768
0.0771541 -0.328126 -0.328126
0.108471 -0.329508 -0.329508
0.105613 -0.311151 -0.311151
0.0761453 -0.318885 -0.318885
0.0928002 -0.328764 -0.328764
0.107045 -0.320267 -0.320267
0.0903606 -0.310406 -0.310406
0.0915828 -0.319523 -0.319523
0.0771541 -0.328126 -0.328126
0.0791596 -0.346979 -0.346979
0.111307 -0.348359 -0.348359
0.108471 -0.329508 -0.329508
0.0781589 -0.337491 -0.337491
0.0952209 -0.347616 -0.347616
0.109891 -0.338872 -0.338872
0.0928002 -0.328764 -0.328764
0.0940129 -0.338129 -0.338129
0.0791596 -0.346979 -0.346979
0.0811486 -0.366322 -0.366322
0.114121 -0.3677 -0.3677
0.111307 -0.348359 -0.348359
0.0801562 -0.356589 -0.356589
0.0976225 -0.366959 -0.366959
0.112716 -0.357968 -0.357968
0.0952209 -0.347616 -0.347616
0.0964241 -0.357226 -0.357226
0.0811486 -0.366322 -0.366322
0.0831211 -0.386153 -0.386153
0.116914 -0.38753 -0.38753
0.114121 -0.3677 -0.3677
0.0821369 -0.376176 -0.376176
0.100005 -0.386789 -0.386789
0.11552 -0.377554 -0.377554
0.0976225 -0.366959 -0.366959
0.0988162 -0.376813 -0.376813
0.0831211 -0.386153 -0.386153
0.085077 -0.406468 -0.406468
0.119685 -0.407844 -0.407844
0.116914 -0.38753 -0.38753
0.0841011 -0.39625 -0.39625
0.102369 -0.407104 -0.407104
0.118302 -0.397626 -0.397626
0.100005 -0.386789 -0.386789
0.101189 -0.396887 -0.396887
0.085077 -0.406468 -0.406468
0.0870162 -0.427265 -0.427265
0.122434 -0.42864 -0.42864
0.119685 -0.407844 -0.407844
0.0860487 -0.416807 -0.416807
0.104713 -0.427901 -0.427901
0.121062 -0.418182 -0.418182
0.102369 -0.407104 -0.407104
0.103543 -0.417443 -0.417443
0.0870162 -0.427265 -0.427265
0.0889388 -0.448541 -0.448541
0.125161 -0.449914 -0.449914
0.122434 -0.42864 -0.42864
0.0879796 -0.437843 -0.437843
0.107038 -0.449177 -0.449177
0.1238 -0.439217 -0.439217
0.104713 -0.427901 -0.427901
0.105878 -0.438479 -0.438479
0.0889388 -0.448541 -0.448541
0.0908445 -0.470292 -0.470292
0.127867 -0.471664 -0.471664
0.125161 -0.449914 -0.449914
0.0898938 -0.459357 -0.459357
0.109343 -0.470927 -0.470927
0.126517 -0.46073 -0.46073
0.107038 -0.449177 -0.449177
0.108193 -0.459993 -0.459993
0.0908445 -0.470292 -0.470292
0.0927334 -0.492515 -0.492515
0.13055 -0.493887 -0.493887
0.127867 -0.471664 -0.471664
0.0917911 -0.481345 -0.481345
0.11163 -0.493151 -0.493151
0.129211 -0.482717 -0.482717
0.109343 -0.470927 -0.470927
0.110489 -0.48198 -0.48198
0.0927334 -0.492515 -0.492515
0.0946054 -0.515208 -0.515208
0.133212 -0.516579 -0.516579
0.13055 -0.493887 -0.493887
0.0936715 -0.503803 -0.503803
0.113896 -0.515844 -0.515844
0.131884 -0.505175 -0.505175
0.11163 -0.493151 -0.493151
0.112766 -0.504439 -0.504439
0.0946054 -0.515208 -0.515208
0.0964604 -0.538368 -0.538368
0.135851 -0.539738 -0.539738
0.133212 -0.516579 -0.516579
0.095535 -0.52673 -0.52673
0.116144 -0.539003 -0.539003
0.134534 -0.5281 -0.5281
0.113896 -0.515844 -0.515844
0.115023 -0.527365 -0.527365
0.0964604 -0.538368 -0.538368
0.0982984 -0.56199 -0.56199
0.138469 -0.56336 -0.56336
0.135851 -0.539738 -0.539738
0.0973816 -0.550121 -0.550121
0.118371 -0.562626 -0.562626
0.137163 -0.551491 -0.551491
0.116144 -0.539003 -0.539003
0.11726 -0.550757 -0.550757
0.0982984 -0.56199 -0.56199
0.100119 -0.586073 -0.586073
0.141064 -0.587443 -0.587443
0.138469 -0.56336 -0.56336
0.099211 -0.573974 -0.573974
0.120579 -0.586709 -0.586709
0.139769 -0.575344 -0.575344
0.118371 -0.562626 -0.562626
0.119478 -0.57461 -0.57461
0.100119 -0.586073 -0.586073
0.101923 -0.610614 -0.610614
0.143637 -0.611983 -0.611983
0.141064 -0.587443 -0.587443
0.101023 -0.598287 -0.598287
0.122768 -0.61125 -0.61125
0.142353 -0.599656 -0.599656
0.120579 -0.586709 -0.586709
0.121676 -0.598922 -0.598922
0.101923 -0.610614 -0.610614
0.10371 -0.635608 -0.635608
0.146187 -0.636977 -0.636977
0.143637 -0.611983 -0.611983
0.102819 -0.623054 -0.623054
0.124936 -0.636245 -0.636245
0.144915 -0.624423 -0.624423
0.122768 -0.61125 -0.61125
0.123855 -0.623691 -0.623691
0.10371 -0.635608 -0.635608
0.105479 -0.661054 -0.661054
0.148715 -0.662423 -0.662423
0.146187 -0.636977 -0.636977
0.104597 -0.648275 -0.648275
0.127085 -0.661691 -0.661691
0.147454 -0.649644 -0.649644
0.124936 -0.636245 -0.636245
0.126013 -0.648911 -0.648911
0.105479 -0.661054 -0.661054
0.107231 -0.686948 -0.686948
0.151221 -0.688317 -0.688317
0.148715 -0.662423 -0.662423
0.106357 -0.673945 -0.673945
0.129214 -0.687585 -0.687585
0.149971 -0.675314 -0.675314
0.127085 -0.661691 -0.661691
0.128152 -0.674582 -0.674582
0.107231 -0.686948 -0.686948
0.108966 -0.713288 -0.713288
0.153705 -0.714656 -0.714656
0.151221 -0.688317 -0.688317
0.108101 -0.700062 -0.700062
0.131323 -0.713925 -0.713925
0.152466 -0.701431 -0.701431
0.129214 -0.687585 -0.687585
0.130271 -0.700699 -0.700699
0.108966 -0.713288 -0.713288
0.110683 -0.740069 -0.740069
0.156166 -0.741438 -0.741438
0.153705 -0.714656 -0.714656
0.109827 -0.726623 -0.726623
0.133412 -0.740706 -0.740706
0.154938 -0.727992 -0.727992
0.131323 -0.713925 -0.713925
0.13237 -0.72726 -0.72726
0.110683 -0.740069 -0.740069
0.112383 -0.767289 -0.767289
0.158604 -0.768658 -0.768658
0.156166 -0.741438 -0.741438
0.111535 -0.753624 -0.753624
0.135481 -0.767927 -0.767927
0.157388 -0.754993 -0.754993
0.133412 -0.740706 -0.740706
0.134449 -0.754262 -0.754262
0.112383 -0.767289 -0.767289
0.114066 -0.794946 -0.794946
0.16102 -0.796315 -0.796315
0.158604 -0.768658 -0.768658
0.113226 -0.781063 -0.781063
0.137531 -0.795584 -0.795584
0.159815 -0.782432 -0.782432
0.135481 -0.767927 -0.767927
0.136509 -0.781701 -0.781701
0.114066 -0.794946 -0.794946
0.11573 -0.823035 -0.823035
0.163413 -0.824405 -0.824405
0.16102 -0.796315 -0.796315
0.1149 -0.808937 -0.808937
0.13956 -0.823674 -0.823674
0.162219 -0.810306 -0.810306
0.137531 -0.795584 -0.795584
0.138548 -0.809575 -0.809575
0.11573 -0.823035 -0.823035
0.117378 -0.851555 -0.851555
0.165783 -0.852924 -0.852924
0.163413 -0.824405 -0.824405
0.116556 -0.837242 -0.837242
0.141569 -0.852194 -0.852194
0.164601 -0.838611 -0.838611
0.13956 -0.823674 -0.823674
0.140567 -0.83788 -0.83788
0.117378 -0.851555 -0.851555
0.119008 -0.880501 -0.880501
0.168131 -0.881871 -0.881871
0.165783 -0.852924 -0.852924
0.118195 -0.865975 -0.865975
0.143557 -0.881141 -0.881141
0.16696 -0.867345 -0.867345
0.141569 -0.852194 -0.852194
0.142565 -0.866614 -0.866614
0.119008 -0.880501 -0.880501
0.12062 -0.909872 -0.909872
0.170456 -0.911242 -0.911242
0.168131 -0.881871 -0.881871
0.119816 -0.895134 -0.895134
0.145526 -0.910512 -0.910512
0.169297 -0.896504 -0.896504
0.143557 -0.881141 -0.881141
0.144544 -0.895774 -0.895774
0.12062 -0.909872 -0.909872
0.122214 -0.939663 -0.939663
0.172759 -0.941034 -0.941034
0.170456 -0.911242 -0.911242
0.121419 -0.924715 -0.924715
0.147474 -0.940304 -0.940304
0.17161 -0.926086 -0.926086
0.145526 -0.910512 -0.910512
0.146503 -0.925355 -0.925355
0.122214 -0.939663 -0.939663
0.123791 -0.969872 -0.969872
0.175038 -0.971244 -0.971244
0.172759 -0.941034 -0.941034
0.123005 -0.954716 -0.954716
0.149403 -0.970514 -0.970514
0.173901 -0.956087 -0.956087
0.147474 -0.940304 -0.940304
0.148441 -0.955357 -0.955357
0.123791 -0.969872 -0.969872
0.12535 -1.0005 -1.0005
0.177295 -1.00187 -1.00187
0.175038 -0.971244 -0.971244
0.124573 -0.985133 -0.985133
0.15131 -1.00114 -1.00114
0.176169 -0.986504 -0.986504
0.149403 -0.970514 -0.970514
0.150359 -0.985774 -0.985774
0.12535 -1.0005 -1.0005
0.126891 -1.03153 -1.03153
0.179529 -1.0329 -1.0329
0.177295 -1.00187 -1.00187
0.126123 -1.01596 -1.01596
0.153198 -1.03217 -1.03217
0.178415 -1.01734 -1.01734
0.15131 -1.00114 -1.00114
0.152257 -1.01661 -1.01661
0.126891 -1.03153 -1.03153
0.128415 -1.06298 -1.06298
0.181739 -1.06435 -1.06435
0.179529 -1.0329 -1.0329
0.127655 -1.0472 -1.0472
0.155065 -1.06362 -1.06362
0.180637 -1.04858 -1.04858
0.153198 -1.03217 -1.03217
0.154134 -1.04785 -1.04785
0.128415 -1.06298 -1.06298
0.129921 -1.09483 -1.09483
0.183927 -1.0962 -1.0962
0.181739 -1.06435 -1.06435
0.12917 -1.07885 -1.07885
0.156912 -1.09547 -1.09547
0.182836 -1.08022 -1.08022
0.155065 -1.06362 -1.06362
0.155991 -1.07949 -1.07949
0.129921 -1.09483 -1.09483
0.131409 -1.12708 -1.12708
0.186092 -1.12845 -1.12845
0.183927 -1.0962 -1.0962
0.130667 -1.1109 -1.1109
0.158738 -1.12772 -1.12772
0.185013 -1.11228 -1.11228
0.156912 -1.09547 -1.09547
0.157828 -1.11155 -1.11155
0.131409 -1.12708 -1.12708
0.132879 -1.15973 -1.15973
0.188234 -1.16111 -1.16111
0.186092 -1.12845 -1.12845
0.132146 -1.14336 -1.14336
0.160545 -1.16038 -1.16038
0.187166 -1.14473 -1.14473
0.158738 -1.12772 -1.12772
0.159644 -1.144 -1.144
0.132879 -1.15973 -1.15973
0.134331 -1.19278 -1.19278
0.190353 -1.19416 -1.19416
0.188234 -1.16111 -1.16111
0.133607 -1.17621 -1.17621
0.16233 -1.19343 -1.19343
0.189297 -1.17758 -1.17758
0.160545 -1.16038 -1.16038
0.16144 -1.17685 -1.17685
0.134331 -1.19278 -1.19278
0.135765 -1.22622 -1.22622
0.19245 -1.2276 -1.2276
0.190353 -1.19416 -1.19416
0.13505 -1.20945 -1.20945
0.164095 -1.22687 -1.22687
0.191404 -1.21083 -1.21083
0.16233 -1.19343 -1.19343
0.163215 -1.2101 -1.2101
0.135765 -1.22622 -1.22622
0.137181 -1.26006 -1.26006
0.194522 -1.26144 -1.26144
0.19245 -1.2276 -1.2276
0.136475 -1.24309 -1.24309
0.16584 -1.2607 -1.2607
0.193489 -1.24447 -1.24447
0.164095 -1.22687 -1.22687
0.16497 -1.24374 -1.24374
0.137181 -1.26006 -1.26006
0.138579 -1.29428 -1.29428
0.196572 -1.29566 -1.29566
0.194522 -1.26144 -1.26144
0.137883 -1.27712 -1.27712
0.167564 -1.29493 -1.29493
0.19555 -1.2785 -1.2785
0.16584 -1.2607 -1.2607
0.166704 -1.27777 -1.27777
0.138579 -1.29428 -1.29428
0.13996 -1.32888 -1.32888
0.198599 -1.33026 -1.33026
0.196572 -1.29566 -1.29566
0.139272 -1.31153 -1.31153
0.169267 -1.32953 -1.32953
0.197589 -1.31291 -1.31291
0.167564 -1.29493 -1.29493
0.168418 -1.31218 -1.31218
0.13996 -1.32888 -1.32888
0.141322 -1.36387 -1.36387
0.200603 -1.36525 -1.36525
0.198599 -1.33026 -1.33026
0.140643 -1.34633 -1.34633
0.170951 -1.36452 -1.36452
0.199604 -1.34771 -1.34771
0.169267 -1.32953 -1.32953
0.170112 -1.34698 -1.34698
0.141322 -1.36387 -1.36387
0.142666 -1.39923 -1.39923
0.202584 -1.40062 -1.40062
0.200603 -1.36525 -1.36525
0.141997 -1.3815 -1.3815
0.172613 -1.39989 -1.39989
0.201596 -1.38289 -1.38289
0.170951 -1.36452 -1.36452
0.171784 -1.38216 -1.38216
0.142666 -1.39923 -1.39923
0.143993 -1.43497 -1.43497
0.204541 -1.43636 -1.43636
0.202584 -1.40062 -1.40062
0.143332 -1.41706 -1.41706
0.174255 -1.43563 -1.43563
0.203565 -1.41844 -1.41844
0.172613 -1.39989 -1.39989
0.173437 -1.41771 -1.41771
0.143993 -1.43497 -1.43497
0.145301 -1.47109 -1.47109
0.206475 -1.47247 -1.47247
0.204541 -1.43636 -1.43636
0.144649 -1.45298 -1.45298
0.175876 -1.47174 -1.47174
0.205511 -1.45437 -1.45437
0.174255 -1.43563 -1.43563
0.175068 -1.45364 -1.45364
0.145301 -1.47109 -1.47109
0.146591 -1.50757 -1.50757
0.208387 -1.50896 -1.50896
0.206475 -1.47247 -1.47247
0.145948 -1.48928 -1.48928
0.177477 -1.50822 -1.50822
0.207434 -1.49067 -1.49067
0.175876 -1.47174 -1.47174
0.176679 -1.48994 -1.48994
0.146591 -1.50757 -1.50757
0.147864 -1.54442 -1.54442
0.210275 -1.54581 -1.54581
0.208387 -1.50896 -1.50896
0.14723 -1.52595 -1.52595
0.179057 -1.54507 -1.54507
0.209333 -1.52734 -1.52734
0.177477 -1.50822 -1.50822
0.17827 -1.5266 -1.5266
0.147864 -1.54442 -1.54442
0.149118 -1.58163 -1.58163
0.212139 -1.58302 -1.58302
0.210275 -1.54581 -1.54581
0.148493 -1.56298 -1.56298
0.180617 -1.58229 -1.58229
0.21121 -1.56437 -1.56437
0.179057 -1.54507 -1.54507
0.179839 -1.56363 -1.56363
0.149118 -1.58163 -1.58163
0.150354 -1.6192 -1.6192
0.213981 -1.62059 -1.62059
0.212139 -1.58302 -1.58302
0.149738 -1.60037 -1.60037
0.182155 -1.61986 -1.61986
0.213063 -1.60176 -1.60176
0.180617 -1.58229 -1.58229
0.181389 -1.60103 -1.60103
0.150354 -1.6192 -1.6192
0.151572 -1.65713 -1.65713
0.2158 -1.65852 -1.65852
0.213981 -1.62059 -1.62059
0.150965 -1.63812 -1.63812
0.183674 -1.65779 -1.65779
0.214893 -1.63951 -1.63951
0.182155 -1.61986 -1.61986
0.182917 -1.63878 -1.63878
0.151572 -1.65713 -1.65713
0.152772 -1.69541 -1.69541
0.217595 -1.69681 -1.69681
0.2158 -1.65852 -1.65852
0.152174 -1.67623 -1.67623
0.185171 -1.69607 -1.69607
0.2167 -1.67762 -1.67762
0.183674 -1.65779 -1.65779
0.184425 -1.67689 -1.67689
0.152772 -1.69541 -1.69541
0.153954 -1.73405 -1.73405
0.219367 -1.73544 -1.73544
0.217595 -1.69681 -1.69681
0.153365 -1.71469 -1.71469
0.186648 -1.73471 -1.73471
0.218484 -1.71608 -1.71608
0.185171 -1.69607 -1.69607
0.185912 -1.71535 -1.71535
0.153954 -1.73405 -1.73405
0.155117 -1.77303 -1.77303
0.221116 -1.77442 -1.77442
0.219367 -1.73544 -1.73544
0.154538 -1.7535 -1.7535
0.188105 -1.77369 -1.77369
0.220244 -1.75489 -1.75489
0.186648 -1.73471 -1.73471
0.187379 -1.75416 -1.75416
0.155117 -1.77303 -1.77303
0.156263 -1.81236 -1.81236
0.222842 -1.81375 -1.81375
0.221116 -1.77442 -1.77442
0.155692 -1.79265 -1.79265
0.18954 -1.81302 -1.81302
0.221982 -1.79405 -1.79405
0.188105 -1.77369 -1.77369
0.188825 -1.79331 -1.79331
0.156263 -1.81236 -1.81236
0.157391 -1.85203 -1.85203
0.224544 -1.85342 -1.85342
0.222842 -1.81375 -1.81375
0.156829 -1.83215 -1.83215
0.190955 -1.85269 -1.85269
0.223696 -1.83355 -1.83355
0.18954 -1.81302 -1.81302
0.19025 -1.83281 -1.83281
0.157391 -1.85203 -1.85203
0.1585 -1.89204 -1.89204
0.226224 -1.89343 -1.89343
0.224544 -1.85342 -1.85342
0.157948 -1.87199 -1.87199
0.19235 -1.8927 -1.8927
0.225387 -1.87339 -1.87339
0.190955 -1.85269 -1.85269
0.191655 -1.87265 -1.87265
0.1585 -1.89204 -1.89204
0.159591 -1.93238 -1.93238
0.22788 -1.93378 -1.93378
0.226224 -1.89343 -1.89343
0.159048 -1.91217 -1.91217
0.193724 -1.93304 -1.93304
0.227055 -1.91356 -1.91356
0.19235 -1.8927 -1.8927
0.193039 -1.91283 -1.91283
0.159591 -1.93238 -1.93238
0.160665 -1.97306 -1.97306
0.229513 -1.97446 -1.97446
0.22788 -1.93378 -1.93378
0.16013 -1.95268 -1.95268
0.195077 -1.97372 -1.97372
0.228699 -1.95408 -1.95408
0.193724 -1.93304 -1.93304
0.194403 -1.95334 -1.95334
0.160665 -1.97306 -1.97306
0.16172 -2.01406 -2.01406
0.231123 -2.01547 -2.01547
0.229513 -1.97446 -1.97446
0.161195 -1.99352 -1.99352
0.196409 -2.01473 -2.01473
0.230321 -1.99492 -1.99492
0.195077 -1.97372 -1.97372
0.195746 -1.99418 -1.99418
0.16172 -2.01406 -2.01406
0.162757 -2.0554 -2.0554
0.232709 -2.0568 -2.0568
0.231123 -2.01547 -2.01547
0.162241 -2.03469 -2.03469
0.197721 -2.05606 -2.05606
0.231919 -2.03609 -2.03609
0.196409 -2.01473 -2.01473
0.197068 -2.03536 -2.03536
0.162757 -2.0554 -2.0554
0.163776 -2.09706 -2.09706
0.234273 -2.09846 -2.09846
0.232709 -2.0568 -2.0568
0.163269 -2.07619 -2.07619
0.199013 -2.09772 -2.09772
0.233494 -2.07759 -2.07759
0.197721 -2.05606 -2.05606
0.19837 -2.07685 -2.07685
0.163776 -2.09706 -2.09706
0.164778 -2.13903 -2.13903
0.235813 -2.14044 -2.14044
0.234273 -2.09846 -2.09846
0.164279 -2.118 -2.118
0.200283 -2.1397 -2.1397
0.235046 -2.11941 -2.11941
0.199013 -2.09772 -2.09772
0.199651 -2.11867 -2.11867
0.164778 -2.13903 -2.13903
0.165761 -2.18133 -2.18133
0.23733 -2.18274 -2.18274
0.235813 -2.14044 -2.14044
0.165271 -2.16014 -2.16014
0.201533 -2.182 -2.182
0.236575 -2.16155 -2.16155
0.200283 -2.1397 -2.1397
0.200911 -2.16081 -2.16081
0.165761 -2.18133 -2.18133
0.166726 -2.22394 -2.22394
0.238824 -2.22535 -2.22535
0.23733 -2.18274 -2.18274
0.166245 -2.2026 -2.2026
0.202763 -2.22461 -2.22461
0.23808 -2.204 -2.204
0.201533 -2.182 -2.182
0.202151 -2.20327 -2.20327
0.166726 -2.22394 -2.22394
0.167673 -2.26686 -2.26686
0.240295 -2.26827 -2.26827
0.238824 -2.22535 -2.22535
0.167201 -2.24536 -2.24536
0.203972 -2.26753 -2.26753
0.239563 -2.24677 -2.24677
0.202763 -2.22461 -2.22461
0.20337 -2.24603 -2.24603
0.167673 -2.26686 -2.26686
0.168602 -2.31009 -2.31009
0.241743 -2.3115 -2.3115
0.240295 -2.26827 -2.26827
0.168139 -2.28844 -2.28844
0.20516 -2.31077 -2.31077
0.241022 -2.28985 -2.28985
0.203972 -2.26753 -2.26753
0.204569 -2.28911 -2.28911
0.168602 -2.31009 -2.31009
0.169513 -2.35363 -2.35363
0.243168 -2.35504 -2.35504
0.241743 -2.3115 -2.3115
0.16906 -2.33183 -2.33183
0.206328 -2.3543 -2.3543
0.242458 -2.33324 -2.33324
0.20516 -2.31077 -2.31077
0.205747 -2.3325 -2.3325
0.169513 -2.35363 -2.35363
0.170406 -2.39747 -2.39747
0.244569 -2.39888 -2.39888
0.243168 -2.35504 -2.35504
0.169962 -2.37551 -2.37551
0.207476 -2.39814 -2.39814
0.243871 -2.37692 -2.37692
0.206328 -2.3543 -2.3543
0.206904 -2.37619 -2.37619
0.170406 -2.39747 -2.39747
0.171281 -2.44161 -2.44161
0.245948 -2.44302 -2.44302
0.244569 -2.39888 -2.39888
0.170846 -2.4195 -2.4195
0.208602 -2.44228 -2.44228
0.245261 -2.42092 -2.42092
0.207476 -2.39814 -2.39814
0.208042 -2.42018 -2.42018
0.171281 -2.44161 -2.44161
0.172138 -2.48605 -2.48605
0.247303 -2.48746 -2.48746
0.245948 -2.44302 -2.44302
0.171712 -2.46379 -2.46379
0.209709 -2.48672 -2.48672
0.246628 -2.4652 -2.4652
0.208602 -2.44228 -2.44228
0.209158 -2.46447 -2.46447
0.172138 -2.48605 -2.48605
0.172977 -2.53077 -2.53077
0.248636 -2.53219 -2.53219
0.247303 -2.48746 -2.48746
0.17256 -2.50837 -2.50837
0.210795 -2.53145 -2.53145
0.247972 -2.50979 -2.50979
0.209709 -2.48672 -2.48672
0.210254 -2.50905 -2.50905
0.172977 -2.53077 -2.53077
0.173799 -2.57579 -2.57579
0.249945 -2.57721 -2.57721
0.248636 -2.53219 -2.53219
0.17339 -2.55325 -2.55325
0.21186 -2.57647 -2.57647
0.249293 -2.55466 -2.55466
0.210795 -2.53145 -2.53145
0.21133 -2.55392 -2.55392
0.173799 -2.57579 -2.57579
0.174602 -2.6211 -2.6211
0.251232 -2.62252 -2.62252
0.249945 -2.57721 -2.57721
0.174203 -2.59841 -2.59841
0.212905 -2.62178 -2.62178
0.250591 -2.59983 -2.59983
0.21186 -2.57647 -2.57647
0.212385 -2.59909 -2.59909
0.174602 -2.6211 -2.6211
0.175388 -2.66669 -2.66669
0.252495 -2.66811 -2.66811
0.251232 -2.62252 -2.62252
0.174997 -2.64386 -2.64386
0.213929 -2.66737 -2.66737
0.251866 -2.64528 -2.64528
0.212905 -2.62178 -2.62178
0.21342 -2.64454 -2.64454
0.175388 -2.66669 -2.66669
0.176156 -2.71257 -2.71257
0.253736 -2.71398 -2.71398
0.252495 -2.66811 -2.66811
0.175774 -2.68959 -2.68959
0.214934 -2.71324 -2.71324
0.253118 -2.69101 -2.69101
0.213929 -2.66737 -2.66737
0.214434 -2.69027 -2.69027
0.176156 -2.71257 -2.71257
0.176906 -2.75872 -2.75872
0.254953 -2.76013 -2.76013
0.253736 -2.71398 -2.71398
0.176533 -2.73561 -2.73561
0.215917 -2.7594 -2.7594
0.254347 -2.73702 -2.73702
0.214934 -2.71324 -2.71324
0.215428 -2.73629 -2.73629
0.176906 -2.75872 -2.75872
0.177638 -2.80514 -2.80514
0.256148 -2.80656 -2.80656
0.254953 -2.76013 -2.76013
0.177274 -2.7819 -2.7819
0.216881 -2.80582 -2.80582
0.255554 -2.78331 -2.78331
0.215917 -2.7594 -2.7594
0.216402 -2.78258 -2.78258
0.177638 -2.80514 -2.80514
0.178352 -2.85184 -2.85184
0.25732 -2.85326 -2.85326
0.256148 -2.80656 -2.80656
0.177997 -2.82846 -2.82846
0.217824 -2.85252 -2.85252
0.256737 -2.82988 -2.82988
0.216881 -2.80582 -2.80582
0.217355 -2.82914 -2.82914
0.178352 -2.85184 -2.85184
0.179049 -2.89881 -2.89881
0.258469 -2.90023 -2.90023
0.25732 -2.85326 -2.85326
0.178703 -2.87529 -2.87529
0.218747 -2.89949 -2.89949
0.257897 -2.87671 -2.87671
0.217824 -2.85252 -2.85252
0.218288 -2.87597 -2.87597
0.179049 -2.89881 -2.89881
0.179728 -2.94604 -2.94604
0.259595 -2.94746 -2.94746
0.258469 -2.90023 -2.90023
0.179391 -2.92239 -2.92239
0.219649 -2.94673 -2.94673
0.259035 -2.92381 -2.92381
0.218747 -2.89949 -2.89949
0.219201 -2.92307 -2.92307
0.179728 -2.94604 -2.94604
0.180389 -2.99354 -2.99354
0.260699 -2.99496 -2.99496
0.259595 -2.94746 -2.94746
0.180061 -2.96976 -2.96976
0.220532 -2.99422 -2.99422
0.26015 -2.97118 -2.97118
0.219649 -2.94673 -2.94673
0.220093 -2.97044 -2.97044
0.180389 -2.99354 -2.99354
0.181033 -3.0413 -3.0413
0.261779 -3.04272 -3.04272
0.260699 -2.99496 -2.99496
0.180713 -3.01739 -3.01739
0.221394 -3.04198 -3.04198
0.261242 -3.01881 -3.01881
0.220532 -2.99422 -2.99422
0.220965 -3.01807 -3.01807
0.181033 -3.0413 -3.0413
0.181659 -3.08931 -3.08931
0.262837 -3.09073 -3.09073
0.261779 -3.04272 -3.04272
0.181348 -3.06527 -3.06527
0.222236 -3.09 -3.09
0.262311 -3.0667 -3.0667
0.221394 -3.04198 -3.04198
0.221817 -3.06596 -3.06596
0.181659 -3.08931 -3.08931
0.182267 -3.13758 -3.13758
0.263872 -3.139 -3.139
0.262837 -3.09073 -3.09073
0.181965 -3.11342 -3.11342
0.223058 -3.13827 -3.13827
0.263358 -3.11484 -3.11484
0.222236 -3.09 -3.09
0.222649 -3.1141 -3.1141
0.182267 -3.13758 -3.13758
0.182858 -3.1861 -3.1861
0.264885 -3.18752 -3.18752
0.263872 -3.139 -3.139
0.182565 -3.16181 -3.16181
0.22386 -3.18679 -3.18679
0.264382 -3.16323 -3.16323
0.223058 -3.13827 -3.13827
0.223461 -3.16249 -3.16249
0.182858 -3.1861 -3.1861
0.183432 -3.23487 -3.23487
0.265875 -3.23629 -3.23629
0.264885 -3.18752 -3.18752
0.183147 -3.21045 -3.21045
0.224641 -3.23555 -3.23555
0.265383 -3.21188 -3.21188
0.22386 -3.18679 -3.18679
0.224253 -3.21114 -3.21114
0.183432 -3.23487 -3.23487
0.183987 -3.28388 -3.28388
0.266842 -3.2853 -3.2853
0.265875 -3.23629 -3.23629
0.183712 -3.25934 -3.25934
0.225403 -3.28457 -3.28457
0.266361 -3.26077 -3.26077
0.224641 -3.23555 -3.23555
0.225024 -3.26003 -3.26003
0.183987 -3.28388 -3.28388
0.184526 -3.33314 -3.33314
0.267787 -3.33456 -3.33456
0.266842 -3.2853 -3.2853
0.184259 -3.30848 -3.30848
0.226144 -3.33382 -3.33382
0.267318 -3.3099 -3.3099
0.225403 -3.28457 -3.28457
0.225776 -3.30916 -3.30916
0.184526 -3.33314 -3.33314
0.185047 -3.38263 -3.38263
0.268709 -3.38405 -3.38405
0.267787 -3.33456 -3.33456
0.184789 -3.35785 -3.35785
0.226866 -3.38332 -3.38332
0.268251 -3.35928 -3.35928
0.226144 -3.33382 -3.33382
0.226508 -3.35854 -3.35854
0.185047 -3.38263 -3.38263
0.185551 -3.43236 -3.43236
0.269609 -3.43378 -3.43378
0.268709 -3.38405 -3.38405
0.185301 -3.40746 -3.40746
0.227568 -3.43305 -3.43305
0.269162 -3.40889 -3.40889
0.226866 -3.38332 -3.38332
0.227219 -3.40815 -3.40815
0.185551 -3.43236 -3.43236
0.186037 -3.48232 -3.48232
0.270486 -3.48374 -3.48374
0.269609 -3.43378 -3.43378
0.185796 -3.45731 -3.45731
0.22825 -3.48301 -3.48301
0.270051 -3.45873 -3.45873
0.227568 -3.43305 -3.43305
0.227911 -3.458 -3.458
0.186037 -3.48232 -3.48232
0.186506 -3.53251 -3.53251
0.271341 -3.53394 -3.53394
0.270486 -3.48374 -3.48374
0.186273 -3.50739 -3.50739
0.228912 -3.5332 -3.5332
0.270917 -3.50881 -3.50881
0.22825 -3.48301 -3.48301
0.228583 -3.50808 -3.50808
0.186506 -3.53251 -3.53251
0.186958 -3.58293 -3.58293
0.272174 -3.58435 -3.58435
0.271341 -3.53394 -3.53394
0.186734 -3.55769 -3.55769
0.229554 -3.58362 -3.58362
0.27176 -3.55912 -3.55912
0.228912 -3.5332 -3.5332
0.229235 -3.55838 -3.55838
0.186958 -3.58293 -3.58293
0.187392 -3.63357 -3.63357
0.272984 -3.635 -3.635
0.272174 -3.58435 -3.58435
0.187177 -3.60823 -3.60823
0.230176 -3.63426 -3.63426
0.272582 -3.60965 -3.60965
0.229554 -3.58362 -3.58362
0.229867 -3.60891 -3.60891
0.187392 -3.63357 -3.63357
0.187809 -3.68444 -3.68444
0.273772 -3.68586 -3.68586
0.272984 -3.635 -3.635
0.187603 -3.65898 -3.65898
0.230779 -3.68513 -3.68513
0.273381 -3.6604 -3.6604
0.230176 -3.63426 -3.63426
0.23048 -3.65967 -3.65967
0.187809 -3.68444 -3.68444
0.18821 -3.73552 -3.73552
0.274538 -3.73694 -3.73694
0.273772 -3.68586 -3.68586
0.188012 -3.70995 -3.70995
0.231362 -3.73621 -3.73621
0.274158 -3.71137 -3.71137
0.230779 -3.68513 -3.68513
0.231073 -3.71064 -3.71064
0.18821 -3.73552 -3.73552
0.188593 -3.78682 -3.78682
0.275281 -3.78824 -3.78824
0.274538 -3.73694 -3.73694
0.188403 -3.76114 -3.76114
0.231925 -3.7875 -3.7875
0.274912 -3.76256 -3.76256
0.231362 -3.73621 -3.73621
0.231646 -3.76183 -3.76183
0.188593 -3.78682 -3.78682
0.188959 -3.83832 -3.83832
0.276002 -3.83974 -3.83974
0.275281 -3.78824 -3.78824
0.188778 -3.81254 -3.81254
0.232468 -3.83901 -3.83901
0.275645 -3.81396 -3.81396
0.231925 -3.7875 -3.7875
0.232199 -3.81323 -3.81323
0.188959 -3.83832 -3.83832
0.189308 -3.89004 -3.89004
0.276702 -3.89146 -3.89146
0.276002 -3.83974 -3.83974
0.189135 -3.86416 -3.86416
0.232993 -3.89073 -3.89073
0.276355 -3.86558 -3.86558
0.232468 -3.83901 -3.83901
0.232733 -3.86484 -3.86484
0.189308 -3.89004 -3.89004
0.18964 -3.94196 -3.94196
0.277379 -3.94338 -3.94338
0.276702 -3.89146 -3.89146
0.189476 -3.91597 -3.91597
0.233497 -3.94265 -3.94265
0.277043 -3.91739 -3.91739
0.232993 -3.89073 -3.89073
0.233247 -3.91666 -3.91666
0.18964 -3.94196 -3.94196
0.189955 -3.99409 -3.99409
0.278034 -3.9955 -3.9955
0.277379 -3.94338 -3.94338
0.189799 -3.968 -3.968
0.233982 -3.99477 -3.99477
0.277709 -3.96942 -3.96942
0.233497 -3.94265 -3.94265
0.233742 -3.96869 -3.96869
0.189955 -3.99409 -3.99409
0.190253 -4.04641 -4.04641
0.278667 -4.04783 -4.04783
0.278034 -3.9955 -3.9955
0.190106 -4.02022 -4.02022
0.234448 -4.0471 -4.0471
0.278353 -4.02164 -4.02164
0.233982 -3.99477 -3.99477
0.234217 -4.02091 -4.02091
0.190253 -4.04641 -4.04641
0.190534 -4.09893 -4.09893
0.279278 -4.10035 -4.10035
0.278667 -4.04783 -4.04783
0.190396 -4.07265 -4.07265
0.234894 -4.09962 -4.09962
0.278975 -4.07406 -4.07406
0.234448 -4.0471 -4.0471
0.234673 -4.07333 -4.07333
0.190534 -4.09893 -4.09893
0.190799 -4.15164 -4.15164
0.279867 -4.15306 -4.15306
0.279278 -4.10035 -4.10035
0.190669 -4.12526 -4.12526
0.235321 -4.15233 -4.15233
0.279575 -4.12668 -4.12668
0.234894 -4.09962 -4.09962
0.23511 -4.12595 -4.12595
0.190799 -4.15164 -4.15164
0.191047 -4.20455 -4.20455
0.280435 -4.20596 -4.20596
0.279867 -4.15306 -4.15306
0.190925 -4.17807 -4.17807
0.235729 -4.20523 -4.20523
0.280154 -4.17949 -4.17949
0.235321 -4.15233 -4.15233
0.235527 -4.17876 -4.17876
0.191047 -4.20455 -4.20455
0.191278 -4.25764 -4.25764
0.28098 -4.25905 -4.25905
0.280435 -4.20596 -4.20596
0.191165 -4.23107 -4.23107
0.236117 -4.25833 -4.25833
0.28071 -4.23248 -4.23248
0.235729 -4.20523 -4.20523
0.235925 -4.23176 -4.23176
0.191278 -4.25764 -4.25764
0.191493 -4.31092 -4.31092
0.281504 -4.31233 -4.31233
0.28098 -4.25905 -4.25905
0.191388 -4.28425 -4.28425
0.236486 -4.3116 -4.3116
0.281245 -4.28567 -4.28567
0.236117 -4.25833 -4.25833
0.236304 -4.28494 -4.28494
0.191493 -4.31092 -4.31092
0.191691 -4.36437 -4.36437
0.282006 -4.36578 -4.36578
0.281504 -4.31233 -4.31233
0.191594 -4.33762 -4.33762
0.236836 -4.36506 -4.36506
0.281758 -4.33903 -4.33903
0.236486 -4.3116 -4.3116
0.236664 -4.33831 -4.33831
0.191691 -4.36437 -4.36437
0.191872 -4.41801 -4.41801
0.282487 -4.41942 -4.41942
0.282006 -4.36578 -4.36578
0.191784 -4.39117 -4.39117
0.237167 -4.41869 -4.41869
0.282249 -4.39258 -4.39258
0.236836 -4.36506 -4.36506
0.237004 -4.39185 -4.39185
0.191872 -4.41801 -4.41801
0.192037 -4.47182 -4.47182
0.282946 -4.47323 -4.47323
0.282487 -4.41942 -4.41942
0.191957 -4.44489 -4.44489
0.237479 -4.47251 -4.47251
0.282719 -4.4463 -4.4463
0.237167 -4.41869 -4.41869
0.237326 -4.44558 -4.44558
0.192037 -4.47182 -4.47182
0.192186 -4.5258 -4.5258
0.283383 -4.52721 -4.52721
0.282946 -4.47323 -4.47323
0.192114 -4.49879 -4.49879
0.237772 -4.52649 -4.52649
0.283167 -4.5002 -4.5002
0.237479 -4.47251 -4.47251
0.237628 -4.49948 -4.49948
0.192186 -4.5258 -4.5258
0.192318 -4.57996 -4.57996
0.283799 -4.58136 -4.58136
0.283383 -4.52721 -4.52721
0.192254 -4.55286 -4.55286
0.238046 -4.58064 -4.58064
0.283594 -4.55426 -4.55426
0.237772 -4.52649 -4.52649
0.237912 -4.55354 -4.55354
0.192318 -4.57996 -4.57996
0.192434 -4.63428 -4.63428
0.284194 -4.63568 -4.63568
0.283799 -4.58136 -4.58136
0.192378 -4.6071 -4.6071
0.238301 -4.63496 -4.63496
0.283999 -4.6085 -4.6085
0.238046 -4.58064 -4.58064
0.238176 -4.60778 -4.60778
0.192434 -4.63428 -4.63428
0.192533 -4.68876 -4.68876
0.284567 -4.69016 -4.69016
0.284194 -4.63568 -4.63568
0.192486 -4.6615 -4.6615
0.238538 -4.68944 -4.68944
0.284383 -4.6629 -4.6629
0.238301 -4.63496 -4.63496
0.238422 -4.66218 -4.66218
0.192533 -4.68876 -4.68876
0.192617 -4.7434 -4.7434
0.284918 -4.7448 -4.7448
0.284567 -4.69016 -4.69016
0.192577 -4.71606 -4.71606
0.238755 -4.74408 -4.74408
0.284745 -4.71746 -4.71746
0.238538 -4.68944 -4.68944
0.238649 -4.71674 -4.71674
0.192617 -4.7434 -4.7434
0.192684 -4.7982 -4.7982
0.285249 -4.7996 -4.7996
0.284918 -4.7448 -4.7448
0.192652 -4.77078 -4.77078
0.238954 -4.79888 -4.79888
0.285086 -4.77218 -4.77218
0.238755 -4.74408 -4.74408
0.238857 -4.77146 -4.77146
0.192684 -4.7982 -4.7982
0.192735 -4.85315 -4.85315
0.285558 -4.85455 -4.85455
0.285249 -4.7996 -4.7996
0.192711 -4.82566 -4.82566
0.239134 -4.85383 -4.85383
0.285406 -4.82705 -4.82705
0.238954 -4.79888 -4.79888
0.239047 -4.82634 -4.82634
0.192735 -4.85315 -4.85315
0.19277 -4.90826 -4.90826
0.285846 -4.90965 -4.90965
0.285558 -4.85455 -4.85455
0.192755 -4.88069 -4.88069
0.239296 -4.90894 -4.90894
0.285705 -4.88208 -4.88208
0.239134 -4.85383 -4.85383
0.239217 -4.88137 -4.88137
0.19277 -4.90826 -4.90826
0.192789 -4.96351 -4.96351
0.286113 -4.9649 -4.9649
0.285846 -4.90965 -4.90965
0.192782 -4.93586 -4.93586
0.239439 -4.96419 -4.96419
0.285982 -4.93726 -4.93726
0.239296 -4.90894 -4.90894
0.23937 -4.93654 -4.93654
0.192789 -4.96351 -4.96351
0.192792 -5.01891 -5.01891
0.286359 -5.02029 -5.02029
0.286113 -4.9649 -4.9649
0.192793 -4.99119 -4.99119
0.239564 -5.01958 -5.01958
0.286239 -4.99258 -4.99258
0.239439 -4.96419 -4.96419
0.239504 -4.99187 -4.99187
0.192792 -5.01891 -5.01891
0.192779 -5.07445 -5.07445
0.286584 -5.07583 -5.07583
0.286359 -5.02029 -5.02029
0.192788 -5.04666 -5.04666
0.23967 -5.07512 -5.07512
0.286474 -5.04804 -5.04804
0.239564 -5.01958 -5.01958
0.239619 -5.04734 -5.04734
0.192779 -5.07445 -5.07445
0.192751 -5.13012 -5.13012
0.286788 -5.13151 -5.13151
0.286584 -5.07583 -5.07583
0.192767 -5.10227 -5.10227
0.239757 -5.1308 -5.1308
0.286689 -5.10365 -5.10365
0.23967 -5.07512 -5.07512
0.239716 -5.10295 -5.10295
0.192751 -5.13012 -5.13012
0.192707 -5.18594 -5.18594
0.286972 -5.18732 -5.18732
0.286788 -5.13151 -5.13151
0.192731 -5.15802 -5.15802
0.239827 -5.18661 -5.18661
0.286883 -5.1594 -5.1594
0.239757 -5.1308 -5.1308
0.239794 -5.15869 -5.15869
0.192707 -5.18594 -5.18594
0.192646 -5.24189 -5.24189
0.287134 -5.24326 -5.24326
0.286972 -5.18732 -5.18732
0.192678 -5.2139 -5.2139
0.239878 -5.24256 -5.24256
0.287055 -5.21527 -5.21527
0.239827 -5.18661 -5.18661
0.239855 -5.21457 -5.21457
0.192646 -5.24189 -5.24189
0.192571 -5.29796 -5.29796
0.287276 -5.29934 -5.29934
0.287134 -5.24326 -5.24326
0.192611 -5.26991 -5.26991
0.239911 -5.29864 -5.29864
0.287207 -5.27128 -5.27128
0.239878 -5.24256 -5.24256
0.239897 -5.27058 -5.27058
0.192571 -5.29796 -5.29796
0.19248 -5.35417 -5.35417
0.287397 -5.35554 -5.35554
0.287276 -5.29934 -5.29934
0.192527 -5.32605 -5.32605
0.239926 -5.35484 -5.35484
0.287339 -5.32742 -5.32742
0.239911 -5.29864 -5.29864
0.239921 -5.32672 -5.32672
0.19248 -5.35417 -5.35417
0.192373 -5.4105 -5.4105
0.287497 -5.41186 -5.41186
0.287397 -5.35554 -5.35554
0.192428 -5.38232 -5.38232
0.239923 -5.41117 -5.41117
0.287449 -5.38369 -5.38369
0.239926 -5.35484 -5.35484
0.239926 -5.38299 -5.38299
0.192373 -5.4105 -5.4105
0.192251 -5.46694 -5.46694
0.287577 -5.46831 -5.46831
0.287497 -5.41186 -5.41186
0.192314 -5.43871 -5.43871
0.239901 -5.46761 -5.46761
0.287539 -5.44007 -5.44007
0.239923 -5.41117 -5.41117
0.239914 -5.43937 -5.43937
0.192251 -5.46694 -5.46694
0.192113 -5.52351 -5.52351
0.287636 -5.52487 -5.52487
0.287577 -5.46831 -5.46831
0.192184 -5.49521 -5.49521
0.239862 -5.52418 -5.52418
0.287609 -5.49658 -5.49658
0.239901 -5.46761 -5.46761
0.239884 -5.49588 -5.49588
0.192113 -5.52351 -5.52351
0.19196 -5.58019 -5.58019
0.287675 -5.58155 -5.58155
0.287636 -5.52487 -5.52487
0.192038 -5.55184 -5.55184
0.239805 -5.58086 -5.58086
0.287658 -5.5532 -5.5532
0.239862 -5.52418 -5.52418
0.239836 -5.5525 -5.5525
0.19196 -5.58019 -5.58019
0.191792 -5.63698 -5.63698
0.287693 -5.63834 -5.63834
0.287675 -5.58155 -5.58155
0.191878 -5.60857 -5.60857
0.23973 -5.63765 -5.63765
0.287687 -5.60993 -5.60993
0.239805 -5.58086 -5.58086
0.23977 -5.60924 -5.60924
0.191792 -5.63698 -5.63698
0.191608 -5.69389 -5.69389
0.287691 -5.69524 -5.69524
0.287693 -5.63834 -5.63834
0.191702 -5.66542 -5.66542
0.239637 -5.69455 -5.69455
0.287695 -5.66677 -5.66677
0.23973 -5.63765 -5.63765
0.239686 -5.66609 -5.66609
0.191608 -5.69389 -5.69389
0.19141 -5.75089 -5.75089
0.287669 -5.75224 -5.75224
0.287691 -5.69524 -5.69524
0.191511 -5.72238 -5.72238
0.239527 -5.75156 -5.75156
0.287683 -5.72372 -5.72372
0.239637 -5.69455 -5.69455
0.239584 -5.72304 -5.72304
0.19141 -5.75089 -5.75089
0.191196 -5.808 -5.808
0.287627 -5.80935 -5.80935
0.287669 -5.75224 -5.75224
0.191305 -5.77944 -5.77944
0.239399 -5.80866 -5.80866
0.28765 -5.78078 -5.78078
0.239527 -5.75156 -5.75156
0.239465 -5.7801 -5.7801
0.191196 -5.808 -5.808
0.190967 -5.86521 -5.86521
0.287564 -5.86655 -5.86655
0.287627 -5.80935 -5.80935
0.191083 -5.8366 -5.8366
0.239253 -5.86587 -5.86587
0.287598 -5.83794 -5.83794
0.239399 -5.80866 -5.80866
0.239328 -5.83725 -5.83725
0.190967 -5.86521 -5.86521
0.190724 -5.92252 -5.92252
0.287482 -5.92385 -5.92385
0.287564 -5.86655 -5.86655
0.190847 -5.89385 -5.89385
0.23909 -5.92318 -5.92318
0.287526 -5.89519 -5.89519
0.239253 -5.86587 -5.86587
0.239174 -5.89451 -5.89451
0.190724 -5.92252 -5.92252
0.190465 -5.97992 -5.97992
0.287379 -5.98125 -5.98125
0.287482 -5.92385 -5.92385
0.190596 -5.95121 -5.95121
0.23891 -5.98057 -5.98057
0.287433 -5.95254 -5.95254
0.23909 -5.92318 -5.92318
0.239002 -5.95186 -5.95186
0.190465 -5.97992 -5.97992
0.190192 -6.03741 -6.03741
0.287257 -6.03873 -6.03873
0.287379 -5.98125 -5.98125
0.19033 -6.00865 -6.00865
0.238712 -6.03806 -6.03806
0.287321 -6.00998 -6.00998
0.23891 -5.98057 -5.98057
0.238813 -6.00931 -6.00931
0.190192 -6.03741 -6.03741
0.189904 -6.09499 -6.09499
0.287114 -6.09631 -6.09631
0.287257 -6.03873 -6.03873
0.190049 -6.06619 -6.06619
0.238497 -6.09564 -6.09564
0.287188 -6.06751 -6.06751
0.238712 -6.03806 -6.03806
0.238606 -6.06684 -6.06684
0.189904 -6.09499 -6.09499
0.189601 -6.15265 -6.15265
0.286952 -6.15396 -6.15396
0.287114 -6.09631 -6.09631
0.189754 -6.12381 -6.12381
0.238264 -6.1533 -6.1533
0.287036 -6.12512 -6.12512
0.238497 -6.09564 -6.09564
0.238383 -6.12446 -6.12446
0.189601 -6.15265 -6.15265
0.189283 -6.21039 -6.21039
0.28677 -6.2117 -6.2117
0.286952 -6.15396 -6.15396
0.189444 -6.18151 -6.18151
0.238014 -6.21104 -6.21104
0.286864 -6.18282 -6.18282
0.238264 -6.1533 -6.1533
0.238141 -6.18216 -6.18216
0.189283 -6.21039 -6.21039
0.188951 -6.26821 -6.26821
0.286569 -6.26952 -6.26952
0.28677 -6.2117 -6.2117
0.189119 -6.23929 -6.23929
0.237748 -6.26886 -6.26886
0.286672 -6.2406 -6.2406
0.238014 -6.21104 -6.21104
0.237883 -6.23994 -6.23994
0.188951 -6.26821 -6.26821
0.188605 -6.32611 -6.32611
0.286348 -6.32741 -6.32741
0.286569 -6.26952 -6.26952
0.18878 -6.29715 -6.29715
0.237464 -6.32675 -6.32675
0.286461 -6.29846 -6.29846
0.237748 -6.26886 -6.26886
0.237608 -6.2978 -6.2978
0.188605 -6.32611 -6.32611
0.188244 -6.38408 -6.38408
0.286107 -6.38538 -6.38538
0.286348 -6.32741 -6.32741
0.188426 -6.35509 -6.35509
0.237163 -6.38472 -6.38472
0.28623 -6.35638 -6.35638
0.237464 -6.32675 -6.32675
0.237316 -6.35573 -6.35573
0.188244 -6.38408 -6.38408
0.187868 -6.44212 -6.44212
0.285847 -6.44341 -6.44341
0.286107 -6.38538 -6.38538
0.188058 -6.41309 -6.41309
0.236845 -6.44276 -6.44276
0.285979 -6.41438 -6.41438
0.237163 -6.38472 -6.38472
0.237006 -6.41373 -6.41373
0.187868 -6.44212 -6.44212
0.187479 -6.50022 -6.50022
0.285567 -6.50151 -6.50151
0.285847 -6.44341 -6.44341
0.187675 -6.47116 -6.47116
0.236511 -6.50086 -6.50086
0.28571 -6.47245 -6.47245
0.236845 -6.44276 -6.44276
0.23668 -6.4718 -6.4718
0.187479 -6.50022 -6.50022
0.187075 -6.55839 -6.55839
0.285268 -6.55967 -6.55967
0.285567 -6.50151 -6.50151
0.187279 -6.5293 -6.5293
0.236159 -6.55902 -6.55902
0.28542 -6.53058 -6.53058
0.236511 -6.50086 -6.50086
0.236337 -6.52993 -6.52993
0.187075 -6.55839 -6.55839
0.186657 -6.61662 -6.61662
0.28495 -6.6179 -6.6179
0.285268 -6.55967 -6.55967
0.186868 -6.5875 -6.5875
0.235791 -6.61725 -6.61725
0.285112 -6.58878 -6.58878
0.236159 -6.55902 -6.55902
0.235977 -6.58813 -6.58813
0.186657 -6.61662 -6.61662
0.186225 -6.67491 -6.67491
0.284613 -6.67618 -6.67618
0.28495 -6.6179 -6.6179
0.186443 -6.64576 -6.64576
0.235406 -6.67553 -6.67553
0.284784 -6.64703 -6.64703
0.235791 -6.61725 -6.61725
0.235601 -6.64639 -6.64639
0.186225 -6.67491 -6.67491
0.185779 -6.73325 -6.73325
0.284256 -6.73451 -6.73451
0.284613 -6.67618 -6.67618
0.186004 -6.70407 -6.70407
0.235005 -6.73387 -6.73387
0.284437 -6.70534 -6.70534
0.235406 -6.67553 -6.67553
0.235208 -6.7047 -6.7047
0.185779 -6.73325 -6.73325
0.185319 -6.79164 -6.79164
0.283881 -6.79289 -6.79289
0.284256 -6.73451 -6.73451
0.185551 -6.76243 -6.76243
0.234587 -6.79226 -6.79226
0.284071 -6.7637 -6.7637
0.235005 -6.73387 -6.73387
0.234798 -6.76306 -6.76306
0.185319 -6.79164 -6.79164
0.184845 -6.85008 -6.85008
0.283486 -6.85133 -6.85133
0.283881 -6.79289 -6.79289
0.185084 -6.82085 -6.82085
0.234153 -6.8507 -6.8507
0.283686 -6.82211 -6.82211
0.234587 -6.79226 -6.79226
0.234372 -6.82147 -6.82147
0.184845 -6.85008 -6.85008
0.184357 -6.90856 -6.90856
0.283073 -6.90981 -6.90981
0.283486 -6.85133 -6.85133
0.184603 -6.87931 -6.87931
0.233702 -6.90918 -6.90918
0.283282 -6.88056 -6.88056
0.234153 -6.8507 -6.8507
0.23393 -6.87993 -6.87993
0.184357 -6.90856 -6.90856
0.183856 -6.96709 -6.96709
0.28264 -6.96833 -6.96833
0.283073 -6.90981 -6.90981
0.184108 -6.93782 -6.93782
0.233236 -6.9677 -6.9677
0.282859 -6.93906 -6.93906
0.233702 -6.90918 -6.90918
0.233471 -6.93844 -6.93844
0.183856 -6.96709 -6.96709
0.18334 -7.02565 -7.02565
0.282189 -7.02689 -7.02689
0.28264 -6.96833 -6.96833
0.1836 -6.99636 -6.99636
0.232752 -7.02626 -7.02626
0.282417 -6.9976 -6.9976
0.233236 -6.9677 -6.9677
0.232996 -6.99698 -6.99698
0.18334 -7.02565 -7.02565
0.182812 -7.08425 -7.08425
0.281719 -7.08548 -7.08548
0.282189 -7.02689 -7.02689
0.183078 -7.05495 -7.05495
0.232253 -7.08486 -7.08486
0.281957 -7.05618 -7.05618
0.232752 -7.02626 -7.02626
0.232505 -7.05556 -7.05556
0.182812 -7.08425 -7.08425
0.182269 -7.14289 -7.14289
0.281231 -7.14411 -7.14411
0.281719 -7.08548 -7.08548
0.182542 -7.11357 -7.11357
0.231738 -7.14349 -7.14349
0.281477 -7.11479 -7.11479
0.232253 -7.08486 -7.08486
0.231997 -7.11417 -7.11417
0.182269 -7.14289 -7.14289
0.181714 -7.20155 -7.20155
0.280724 -7.20277 -7.20277
0.281231 -7.14411 -7.14411
0.181993 -7.17222 -7.17222
0.231206 -7.20216 -7.20216
0.28098 -7.17343 -7.17343
0.231738 -7.14349 -7.14349
0.231474 -7.17282 -7.17282
0.181714 -7.20155 -7.20155
0.181144 -7.26024 -7.26024
0.280199 -7.26145 -7.26145
0.280724 -7.20277 -7.20277
0.181431 -7.23089 -7.23089
0.230659 -7.26084 -7.26084
0.280464 -7.2321 -7.2321
0.231206 -7.20216 -7.20216
0.230935 -7.2315 -7.2315
0.181144 -7.26024 -7.26024
0.180562 -7.31896 -7.31896
0.279656 -7.32016 -7.32016
0.280199 -7.26145 -7.26145
0.180855 -7.2896 -7.2896
0.230097 -7.31955 -7.31955
0.27993 -7.2908 -7.2908
0.230659 -7.26084 -7.26084
0.23038 -7.2902 -7.2902
0.180562 -7.31896 -7.31896
0.179966 -7.37769 -7.37769
0.279096 -7.37889 -7.37889
0.279656 -7.32016 -7.32016
0.180265 -7.34832 -7.34832
0.229519 -7.37829 -7.37829
0.279378 -7.34952 -7.34952
0.230097 -7.31955 -7.31955
0.22981 -7.34892 -7.34892
0.179966 -7.37769 -7.37769
0.179356 -7.43645 -7.43645
0.27852 -7.43763 -7.43763
0.279096 -7.37889 -7.37889
0.179663 -7.40707 -7.40707
0.228927 -7.43704 -7.43704
0.27881 -7.40826 -7.40826
0.229519 -7.37829 -7.37829
0.229225 -7.40766 -7.40766
0.179356 -7.43645 -7.43645
0.178732 -7.49522 -7.49522
0.277931 -7.4964 -7.4964
0.27852 -7.43763 -7.43763
0.179046 -7.46583 -7.46583
0.228321 -7.4958 -7.4958
0.278227 -7.46701 -7.46701
0.228927 -7.43704 -7.43704
0.228626 -7.46642 -7.46642
0.178732 -7.49522 -7.49522
0.178092 -7.554 -7.554
0.277332 -7.55518 -7.55518
0.277931 -7.4964 -7.4964
0.178414 -7.52461 -7.52461
0.227702 -7.55459 -7.55459
0.277632 -7.52578 -7.52578
0.228321 -7.4958 -7.4958
0.228014 -7.52519 -7.52519
0.178092 -7.554 -7.554
0.177435 -7.61281 -7.61281
0.276731 -7.61398 -7.61398
0.277332 -7.55518 -7.55518
0.177766 -7.5834 -7.5834
0.227069 -7.61339 -7.61339
0.277031 -7.58458 -7.58458
0.227702 -7.55459 -7.55459
0.227387 -7.58399 -7.58399
0.177435 -7.61281 -7.61281
0.176762 -7.67166 -7.67166
0.276145 -7.67285 -7.67285
0.276731 -7.61398 -7.61398
0.1771 -7.64223 -7.64223
0.226415 -7.67225 -7.67225
0.276434 -7.6434 -7.6434
0.227069 -7.61339 -7.61339
0.226746 -7.64281 -7.64281
0.176762 -7.67166 -7.67166
0.176097 -7.73053 -7.73053
0.275564 -7.73195 -7.73195
0.276145 -7.67285 -7.67285
0.176425 -7.70109 -7.70109
0.225741 -7.73123 -7.73123
0.275861 -7.70233 -7.70233
0.226415 -7.67225 -7.67225
0.226075 -7.70172 -7.70172
      </DataArray> 
      <DataArray type="Float64" NumberOfComponents="4" Name="CauchyStress" format="ascii">
-4079.1 -1225.84 0 -967.601
-2632.28 49.4835 0 38.7963
-1965.65 -212.808 0 -108.093
-1856.75 -557.953 0 -74.0713
-2926.96 57.7231 0 -134.842
-2449.83 -150.833 0 -139.793
-1928.96 -401.137 0 -125.798
-2181.73 -655.676 0 -235.385
-2419.18 -330.859 0 -220.14
-2632.28 49.4835 0 38.7963
-2607.97 28.3407 0 13.1529
-1994.92 -63.7172 0 -50.6316
-1965.65 -212.808 0 -108.093
-2611.33 -9.23255 0 17.78
-2357.58 -22.1587 0 -22.1767
-1993.28 -109.622 0 -77.4928
-2449.83 -150.833 0 -139.793
-2387.25 -54.3175 0 -55.771
-2607.97 28.3407 0 13.1529
-2656.33 -9.24718 0 7.38932
-1969.8 -12.0034 0 -17.7487
-1994.92 -63.7172 0 -50.6316
-2635.86 18.2636 0 13.4968
-2326.63 -0.868134 0 -0.619618
-1979.83 -31.7067 0 -29.0986
-2357.58 -22.1587 0 -22.1767
-2340.72 -8.47203 0 -9.84567
-2656.33 -9.24718 0 7.38932
-2667.91 2.70383 0 1.9624
-1952.6 -0.853338 0 -10.158
-1969.8 -12.0034 0 -17.7487
-2662.85 -8.50431 0 1.21735
-2312.28 1.95414 0 2.8713
-1962.18 -3.88024 0 -12.7073
-2326.63 -0.868134 0 -0.619618
-2316.71 2.05961 0 3.57683
-2667.91 2.70383 0 1.9624
-2677.36 -3.06314 0 3.59045
-1935.39 3.28991 0 -9.46794
-1952.6 -0.853338 0 -10.158
-2674.71 1.8878 0 3.91464
-2305.62 1.71475 0 0.20011
-1942.6 1.82371 0 -9.09689
-2312.28 1.95414 0 2.8713
-2309.63 1.57562 0 1.07612
-2677.36 -3.06314 0 3.59045
-2673.33 0.446139 0 3.39207
-1923.5 2.56058 0 -11.5434
-1935.39 3.28991 0 -9.46794
-2675.6 -2.22399 0 2.81892
-2297.42 1.1622 0 -2.19946
-1929.63 3.14081 0 -10.5712
-2305.62 1.71475 0 0.20011
-2301.28 1.6176 0 -0.838916
-2673.33 0.446139 0 3.39207
-2667.09 -0.655156 0 4.38723
-1912 1.82879 0 -13.2129
-1923.5 2.56058 0 -11.5434
-2670.99 0.351357 0 4.19147
-2288.7 0.541395 0 -3.97809
-1917.39 2.21482 0 -12.3817
-2297.42 1.1622 0 -2.19946
-2293.41 0.750929 0 -3.30709
-2667.09 -0.655156 0 4.38723
-2656.25 0.129812 0 4.82585
-1901.77 0.836421 0 -14.4951
-1912 1.82879 0 -13.2129
-2661.82 -0.443312 0 4.45019
-2278.5 0.194881 0 -4.94805
-1906.94 1.30035 0 -13.9655
-2288.7 0.541395 0 -3.97809
-2283.62 0.383631 0 -4.51381
-2656.25 0.129812 0 4.82585
-2644.32 -0.0805206 0 5.50746
-1891.54 0.236464 0 -15.1153
-1901.77 0.836421 0 -14.4951
-2650.51 0.122047 0 5.24244
-2267.66 -0.0685882 0 -5.32688
-1896.58 0.507968 0 -14.8553
-2278.5 0.194881 0 -4.94805
-2273.21 0.0311085 0 -5.21373
-2644.32 -0.0805206 0 5.50746
-2631.07 0.0769924 0 6.04904
-1881.54 -0.189308 0 -15.3604
-1891.54 0.236464 0 -15.1153
-2637.75 -0.0377708 0 5.74331
-2256.21 -0.192595 0 -5.34379
-1886.56 -0.00534876 0 -15.2881
-2267.66 -0.0685882 0 -5.32688
-2261.96 -0.132693 0 -5.36666
-2631.07 0.0769924 0 6.04904
-2617.47 0.0365343 0 6.62695
-1871.5 -0.416623 0 -15.3108
-1881.54 -0.189308 0 -15.3604
-2624.32 0.0773311 0 6.35708
-2244.49 -0.272217 0 -5.12791
-1876.51 -0.318715 0 -15.3589
-2256.21 -0.192595 0 -5.34379
-2250.39 -0.24205 0 -5.25858
-2617.47 0.0365343 0 6.62695
-2603.55 0.0622051 0 7.16748
-1861.49 -0.544425 0 -15.1121
-1871.5 -0.416623 0 -15.3108
-2610.52 0.0422072 0 6.89061
-2232.58 -0.303783 0 -4.79671
-1866.5 -0.492251 0 -15.2277
-2244.49 -0.272217 0 -5.12791
-2238.55 -0.289547 0 -4.97246
-2603.55 0.0622051 0 7.16748
-2589.55 0.0520047 0 7.70486
-1851.45 -0.601125 0 -14.8213
-1861.49 -0.544425 0 -15.1121
-2596.56 0.0613244 0 7.44142
-2220.6 -0.319488 0 -4.40065
-1856.46 -0.578451 0 -14.9736
-2232.58 -0.303783 0 -4.79671
-2226.6 -0.31432 0 -4.60394
-2589.55 0.0520047 0 7.70486
-2575.5 0.0524258 0 8.22761
-1841.4 -0.623029 0 -14.4903
-1851.45 -0.601125 0 -14.8213
-2582.53 0.0508094 0 7.96587
-2208.56 -0.32187 0 -3.97964
-1846.43 -0.615664 0 -14.6595
-2220.6 -0.319488 0 -4.40065
-2214.58 -0.321131 0 -4.192
-2575.5 0.0524258 0 8.22761
-2561.43 0.0472105 0 8.74142
-1831.35 -0.624534 0 -14.1402
-1841.4 -0.623029 0 -14.4903
-2568.46 0.0506314 0 8.48653
-2196.51 -0.31997 0 -3.54921
-1836.38 -0.625354 0 -14.3163
-2208.56 -0.32187 0 -3.97964
-2202.54 -0.321565 0 -3.76476
-2561.43 0.0472105 0 8.74142
-2547.35 0.0433696 0 9.2452
-1821.3 -0.616866 0 -13.7861
-1831.35 -0.624534 0 -14.1402
-2554.39 0.0450293 0 8.99419
-2184.45 -0.315199 0 -3.12005
-1826.33 -0.621559 0 -13.9633
-2196.51 -0.31997 0 -3.54921
-2190.48 -0.317644 0 -3.33415
-2547.35 0.0433696 0 9.2452
-2533.28 0.0388283 0 9.73969
-1811.25 -0.604666 0 -13.4336
-1821.3 -0.616866 0 -13.7861
-2540.32 0.0412441 0 9.49374
-2172.39 -0.309703 0 -2.69586
-1816.27 -0.611079 0 -13.6093
-2184.45 -0.315199 0 -3.12005
-2178.42 -0.312562 0 -2.90714
-2533.28 0.0388283 0 9.73969
-2519.21 0.0343105 0 10.225
-1801.19 -0.590828 0 -13.0861
-1811.25 -0.604666 0 -13.4336
-2526.25 0.036534 0 9.98346
-2160.33 -0.303906 0 -2.27885
-1806.22 -0.597877 0 -13.2591
-2172.39 -0.309703 0 -2.69586
-2166.36 -0.306778 0 -2.4864
-2519.21 0.0343105 0 10.225
-2505.15 0.0296956 0 10.7013
-1791.13 -0.576467 0 -12.7447
-1801.19 -0.590828 0 -13.0861
-2512.18 0.0320329 0 10.4643
-2148.26 -0.29821 0 -1.86956
-1796.16 -0.58366 0 -12.9145
-2160.33 -0.303906 0 -2.27885
-2154.3 -0.301052 0 -2.07322
-2505.15 0.0296956 0 10.7013
-2491.08 0.024949 0 11.1686
-1781.08 -0.562159 0 -12.4098
-1791.13 -0.576467 0 -12.7447
-2498.11 0.0273296 0 10.9361
-2136.2 -0.292688 0 -1.46822
-1786.11 -0.569295 0 -12.5764
-2148.26 -0.29821 0 -1.86956
-2142.23 -0.295417 0 -1.6679
-2491.08 0.024949 0 11.1686
-2477.02 0.020118 0 11.627
-1771.02 -0.548073 0 -12.0817
-1781.08 -0.562159 0 -12.4098
-2484.05 0.0225482 0 11.3989
-2124.14 -0.287376 0 -1.07476
-1776.05 -0.555081 0 -12.2449
-2136.2 -0.292688 0 -1.46822
-2130.17 -0.290009 0 -1.27051
-2477.02 0.020118 0 11.627
-2462.95 0.0151541 0 12.0766
-1760.96 -0.534263 0 -11.7601
-1771.02 -0.548073 0 -12.0817
-2469.98 0.0176502 0 11.8529
-2112.08 -0.282268 0 -0.689092
-1765.99 -0.541134 0 -11.92
-2124.14 -0.287376 0 -1.07476
-2118.11 -0.284797 0 -0.880959
-2462.95 0.0151541 0 12.0766
-2448.88 0.0100868 0 12.5173
-1750.9 -0.520716 0 -11.4449
-1760.96 -0.534263 0 -11.7601
-2455.92 0.0126339 0 12.298
-2100.01 -0.277348 0 -0.311102
-1755.93 -0.527458 0 -11.6017
-2112.08 -0.282268 0 -0.689092
-2106.04 -0.279786 0 -0.499143
-2448.88 0.0100868 0 12.5173
-2434.82 0.00490038 0 12.9493
-1740.85 -0.50741 0 -11.1361
-1750.9 -0.520716 0 -11.4449
-2441.85 0.00750761 0 12.7344
-2087.95 -0.2726 0 0.0592987
-1745.88 -0.514035 0 -11.2897
-2100.01 -0.277348 0 -0.311102
-2093.98 -0.274953 0 -0.124958
-2434.82 0.00490038 0 12.9493
-2420.75 -0.000390628 0 13.3726
-1730.79 -0.494319 0 -10.8336
-1740.85 -0.50741 0 -11.1361
-2427.79 0.00226775 0 13.162
-2075.89 -0.268012 0 0.422189
-1735.82 -0.500839 0 -10.9841
-2087.95 -0.2726 0 0.0592987
-2081.92 -0.270287 0 0.241678
-2420.75 -0.000390628 0 13.3726
-2406.69 -0.00578676 0 13.7872
-1720.73 -0.481423 0 -10.5374
-1730.79 -0.494319 0 -10.8336
-2413.72 -0.00307605 0 13.5809
-2063.82 -0.263573 0 0.777632
-1725.76 -0.487848 0 -10.6847
-2075.89 -0.268012 0 0.422189
-2069.86 -0.265775 0 0.600837
-2406.69 -0.00578676 0 13.7872
-2392.62 -0.0112792 0 14.1932
-1710.67 -0.468708 0 -10.2473
-1720.73 -0.481423 0 -10.5374
-2399.65 -0.00852131 0 13.9912
-2051.76 -0.259274 0 1.12568
-1715.7 -0.475044 0 -10.3915
-2063.82 -0.263573 0 0.777632
-2057.79 -0.261407 0 0.952578
-2392.62 -0.0112792 0 14.1932
-2378.55 -0.0168636 0 14.5906
-1700.61 -0.456161 0 -9.96327
-1710.67 -0.468708 0 -10.2473
-2385.59 -0.0140603 0 14.393
-2039.7 -0.255107 0 1.46639
-1705.64 -0.462414 0 -10.1045
-2051.76 -0.259274 0 1.12568
-2045.73 -0.257175 0 1.29695
-2378.55 -0.0168636 0 14.5906
-2364.48 -0.0225331 0 14.9796
-1690.56 -0.443775 0 -9.68537
-1700.61 -0.456161 0 -9.96327
-2371.52 -0.0196881 0 14.7861
-2027.63 -0.251067 0 1.79981
-1695.58 -0.449949 0 -9.82356
-2039.7 -0.255107 0 1.46639
-2033.67 -0.253072 0 1.63401
-2364.48 -0.0225331 0 14.9796
-2350.42 -0.0282819 0 15.36
-1680.5 -0.431544 0 -9.41351
-1690.56 -0.443775 0 -9.68537
-2357.45 -0.0253979 0 15.1708
-2015.57 -0.247147 0 2.12597
-1685.53 -0.437641 0 -9.54869
-2027.63 -0.251067 0 1.79981
-2021.6 -0.249092 0 1.9638
-2350.42 -0.0282818 0 15.36
-2336.35 -0.0341038 0 15.7321
-1670.44 -0.419461 0 -9.14766
-1680.5 -0.431544 0 -9.41351
-2343.38 -0.031184 0 15.5471
-2003.51 -0.243341 0 2.44493
-1675.47 -0.425484 0 -9.27984
-2015.57 -0.247147 0 2.12597
-2009.54 -0.24523 0 2.28635
-2336.35 -0.0341038 0 15.7321
-2322.28 -0.0399931 0 16.0958
-1660.38 -0.407523 0 -8.88777
-1670.44 -0.419461 0 -9.14766
-2329.32 -0.0370404 0 15.915
-1991.44 -0.239646 0 2.75672
-1665.41 -0.413474 0 -9.01697
-2003.51 -0.243341 0 2.44493
-1997.47 -0.24148 0 2.60172
-2322.28 -0.0399931 0 16.0958
-2308.21 -0.0459438 0 16.4512
-1650.32 -0.395724 0 -8.63382
-1660.38 -0.407523 0 -8.88777
-2315.25 -0.0429611 0 16.2745
-1979.38 -0.236055 0 3.0614
-1655.35 -0.401606 0 -8.76006
-1991.44 -0.239646 0 2.75672
-1985.41 -0.237838 0 2.90995
-2308.21 -0.0459438 0 16.4512
-2294.14 -0.0519503 0 16.7983
-1640.26 -0.384062 0 -8.38577
-1650.32 -0.395724 0 -8.63382
-2301.18 -0.0489404 0 16.6258
-1967.31 -0.232564 0 3.35899
-1645.29 -0.389876 0 -8.50906
-1979.38 -0.236055 0 3.0614
-1973.34 -0.234298 0 3.21108
-2294.14 -0.0519503 0 16.7983
-2280.08 -0.0580069 0 17.1373
-1630.2 -0.372531 0 -8.14359
-1640.26 -0.384062 0 -8.38577
-2287.11 -0.0549727 0 16.9688
-1955.25 -0.229169 0 3.64955
-1635.23 -0.37828 0 -8.26395
-1967.31 -0.232564 0 3.35899
-1961.28 -0.230855 0 3.50515
-2280.08 -0.0580069 0 17.1373
-2266.01 -0.0641081 0 17.468
-1620.14 -0.361128 0 -7.90723
-1630.2 -0.372531 0 -8.14359
-2273.04 -0.0610522 0 17.3037
-1943.18 -0.225863 0 3.93311
-1625.17 -0.366814 0 -8.02468
-1955.25 -0.229169 0 3.64955
-1949.21 -0.227505 0 3.7922
-2266.01 -0.0641081 0 17.468
-2251.94 -0.0702484 0 17.7907
-1610.08 -0.349849 0 -7.67666
-1620.14 -0.361128 0 -7.90723
-2258.97 -0.0671737 0 17.6304
-1931.12 -0.222644 0 4.20973
-1615.11 -0.355473 0 -7.79122
-1943.18 -0.225863 0 3.93311
-1937.15 -0.224243 0 4.07229
-2251.94 -0.0702484 0 17.7907
-2237.87 -0.0764226 0 18.1053
-1600.02 -0.338691 0 -7.45184
-1610.08 -0.349849 0 -7.67666
-2244.9 -0.0733316 0 17.949
-1919.05 -0.219505 0 4.47944
-1605.05 -0.344255 0 -7.56353
-1931.12 -0.222644 0 4.20973
-1925.08 -0.221065 0 4.34544
-2237.87 -0.0764226 0 18.1053
-2223.8 -0.0826254 0 18.4119
-1589.96 -0.32765 0 -7.23275
-1600.02 -0.338691 0 -7.45184
-2230.83 -0.0795207 0 18.2596
-1906.98 -0.216444 0 4.74228
-1594.99 -0.333156 0 -7.34159
-1919.05 -0.219505 0 4.47944
-1913.02 -0.217965 0 4.61171
-2223.8 -0.0826254 0 18.4119
-2209.73 -0.0888516 0 18.7106
-1579.9 -0.316722 0 -7.01935
-1589.96 -0.32765 0 -7.23275
-2216.76 -0.0857359 0 18.5622
-1894.92 -0.213455 0 4.9983
-1584.93 -0.322172 0 -7.12534
-1906.98 -0.216444 0 4.74228
-1900.95 -0.214941 0 4.87114
-2209.73 -0.0888516 0 18.7106
-2195.66 -0.0950963 0 19.0013
-1569.84 -0.305903 0 -6.81159
-1579.9 -0.316722 0 -7.01935
-2202.69 -0.091972 0 18.8569
-1882.85 -0.210534 0 5.24755
-1574.87 -0.311299 0 -6.91476
-1894.92 -0.213455 0 4.9983
-1888.89 -0.211986 0 5.12377
-2195.66 -0.0950963 0 19.0013
-2181.59 -0.101354 0 19.2842
-1559.78 -0.295191 0 -6.60944
-1569.84 -0.305903 0 -6.81159
-2188.62 -0.098224 0 19.1437
-1870.79 -0.207677 0 5.49006
-1564.81 -0.300534 0 -6.70981
-1882.85 -0.210534 0 5.24755
-1876.82 -0.209097 0 5.36964
-2181.59 -0.101354 0 19.2842
-2167.51 -0.107621 0 19.5593
-1549.72 -0.284582 0 -6.41287
-1559.78 -0.295191 0 -6.60944
-2174.55 -0.104487 0 19.4227
-1858.72 -0.204879 0 5.72588
-1554.75 -0.289874 0 -6.51046
-1870.79 -0.207677 0 5.49006
-1864.75 -0.206271 0 5.6088
-2167.51 -0.107621 0 19.5593
-2153.44 -0.113892 0 19.8266
-1539.66 -0.274071 0 -6.22185
-1549.72 -0.284582 0 -6.41287
-2160.48 -0.110756 0 19.6939
-1846.65 -0.202137 0 5.95505
-1544.69 -0.279314 0 -6.31667
-1858.72 -0.204879 0 5.72588
-1852.69 -0.203502 0 5.84129
-2153.44 -0.113892 0 19.8266
-2139.37 -0.120162 0 20.0862
-1529.6 -0.263657 0 -6.03632
-1539.66 -0.274071 0 -6.22185
-2146.41 -0.117027 0 19.9573
-1834.59 -0.199447 0 6.17761
-1534.63 -0.268852 0 -6.1284
-1846.65 -0.202137 0 5.95505
-1840.62 -0.200786 0 6.06715
-2139.37 -0.120162 0 20.0862
-2125.3 -0.126426 0 20.3382
-1519.54 -0.253336 0 -5.85627
-1529.6 -0.263657 0 -6.03632
-2132.34 -0.123295 0 20.2131
-1822.52 -0.196805 0 6.39361
-1524.57 -0.258485 0 -5.94562
-1834.59 -0.199447 0 6.17761
-1828.55 -0.19812 0 6.28643
-2125.3 -0.126426 0 20.3382
-2111.23 -0.132681 0 20.5825
-1509.48 -0.243104 0 -5.68165
-1519.54 -0.253336 0 -5.85627
-2118.26 -0.129555 0 20.4613
-1810.45 -0.194206 0 6.60309
-1514.51 -0.248209 0 -5.76828
-1822.52 -0.196805 0 6.39361
-1816.49 -0.1955 0 6.49917
-2111.23 -0.132681 0 20.5825
-2097.16 -0.138921 0 20.8193
-1499.42 -0.232959 0 -5.51243
-1509.48 -0.243104 0 -5.68165
-2104.19 -0.135803 0 20.7018
-1798.39 -0.191648 0 6.8061
-1504.45 -0.238021 0 -5.59637
-1810.45 -0.194206 0 6.60309
-1804.42 -0.192922 0 6.7054
-2097.16 -0.138921 0 20.8193
-2083.08 -0.145142 0 21.0486
-1489.36 -0.222897 0 -5.34857
-1499.42 -0.232959 0 -5.51243
-2090.12 -0.142034 0 20.9349
-1786.32 -0.189126 0 7.00267
-1494.39 -0.227918 0 -5.42983
-1798.39 -0.191648 0 6.8061
-1792.35 -0.190383 0 6.90519
-2083.08 -0.145142 0 21.0486
-2069.01 -0.151341 0 21.2704
-1479.3 -0.212916 0 -5.19004
-1489.36 -0.222897 0 -5.34857
-2076.05 -0.148245 0 21.1604
-1774.25 -0.186637 0 7.19285
-1484.33 -0.217896 0 -5.26864
-1786.32 -0.189126 0 7.00267
-1780.29 -0.187878 0 7.09856
-2069.01 -0.151341 0 21.2704
-2054.94 -0.157513 0 21.4849
-1469.24 -0.203012 0 -5.03679
-1479.3 -0.212916 0 -5.19004
-2061.98 -0.154431 0 21.3786
-1762.18 -0.184178 0 7.37669
-1474.27 -0.207954 0 -5.11275
-1774.25 -0.186637 0 7.19285
-1768.22 -0.185404 0 7.28556
-2054.94 -0.157513 0 21.4849
-2040.87 -0.163654 0 21.692
-1459.18 -0.193183 0 -4.8888
-1469.24 -0.203012 0 -5.03679
-2047.9 -0.160588 0 21.5893
-1750.12 -0.181744 0 7.55422
-1464.21 -0.198088 0 -4.96214
-1762.18 -0.184178 0 7.37669
-1756.15 -0.182958 0 7.46624
-2040.87 -0.163654 0 21.692
-2026.79 -0.16976 0 21.8917
-1449.11 -0.183425 0 -4.74603
-1459.18 -0.193183 0 -4.8888
-2033.83 -0.166712 0 21.7928
-1738.05 -0.179333 0 7.72549
-1454.14 -0.188295 0 -4.81676
-1750.12 -0.181744 0 7.55422
-1744.08 -0.180536 0 7.64064
-2026.79 -0.16976 0 21.8917
-2012.72 -0.175827 0 22.0843
-1439.05 -0.173737 0 -4.60844
-1449.11 -0.183425 0 -4.74603
-2019.76 -0.172799 0 21.9889
-1725.98 -0.17694 0 7.89055
-1444.08 -0.178572 0 -4.67659
-1738.05 -0.179333 0 7.72549
-1732.01 -0.178134 0 7.80879
-2012.72 -0.175827 0 22.0843
-1998.65 -0.181852 0 22.2696
-1428.99 -0.164115 0 -4.47599
-1439.05 -0.173737 0 -4.60844
-2005.69 -0.178845 0 22.1778
-1713.91 -0.174564 0 8.04942
-1434.02 -0.168918 0 -4.54157
-1725.98 -0.17694 0 7.89055
-1719.95 -0.175751 0 7.97075
-1998.65 -0.181852 0 22.2696
-1984.58 -0.18783 0 22.4478
-1418.93 -0.154557 0 -4.34866
-1428.99 -0.164115 0 -4.47599
-1991.61 -0.184847 0 22.3596
-1701.85 -0.172201 0 8.20217
-1423.96 -0.159328 0 -4.41169
-1713.91 -0.174564 0 8.04942
-1707.88 -0.173381 0 8.12656
-1984.58 -0.18783 0 22.4478
-1970.5 -0.193759 0 22.6188
-1408.87 -0.14506 0 -4.22639
-1418.93 -0.154557 0 -4.34866
-1977.54 -0.190801 0 22.5342
-1689.78 -0.169847 0 8.34883
-1413.9 -0.149801 0 -4.28689
-1701.85 -0.172201 0 8.20217
-1695.81 -0.171023 0 8.27626
-1970.5 -0.193759 0 22.6188
-1956.43 -0.199634 0 22.7828
-1398.81 -0.135621 0 -4.10917
-1408.87 -0.14506 0 -4.22639
-1963.47 -0.196703 0 22.7017
-1677.71 -0.1675 0 8.48944
-1403.84 -0.140333 0 -4.16716
-1689.78 -0.169847 0 8.34883
-1683.74 -0.168673 0 8.41989
-1956.43 -0.199634 0 22.7828
-1942.36 -0.205452 0 22.9399
-1388.75 -0.126239 0 -3.99695
-1398.81 -0.135621 0 -4.10917
-1949.39 -0.20255 0 22.8622
-1665.64 -0.165157 0 8.62405
-1393.78 -0.130924 0 -4.05244
-1677.71 -0.1675 0 8.48944
-1671.68 -0.166328 0 8.5575
-1942.36 -0.205452 0 22.9399
-1928.28 -0.21121 0 23.0899
-1378.69 -0.116911 0 -3.8897
-1388.75 -0.126239 0 -3.99695
-1935.32 -0.208339 0 23.0158
-1653.57 -0.162815 0 8.75271
-1383.72 -0.121569 0 -3.94271
-1665.64 -0.165157 0 8.62405
-1659.61 -0.163986 0 8.68912
-1928.28 -0.21121 0 23.0899
-1914.21 -0.216904 0 23.2331
-1368.62 -0.107635 0 -3.78737
-1378.69 -0.116911 0 -3.8897
-1921.24 -0.214065 0 23.1624
-1641.5 -0.16047 0 8.87544
-1373.66 -0.112267 0 -3.83792
-1653.57 -0.162815 0 8.75271
-1647.54 -0.161643 0 8.81481
-1914.21 -0.216904 0 23.2331
-1900.13 -0.222532 0 23.3694
-1358.56 -0.0984076 0 -3.68995
-1368.62 -0.107635 0 -3.78737
-1907.17 -0.219726 0 23.3021
-1629.44 -0.158121 0 8.99231
-1363.59 -0.103015 0 -3.73805
-1641.5 -0.16047 0 8.87544
-1635.47 -0.159297 0 8.93461
-1900.13 -0.222532 0 23.3694
-1886.06 -0.22809 0 23.4989
-1348.5 -0.0892274 0 -3.59738
-1358.56 -0.0984076 0 -3.68995
-1893.1 -0.22532 0 23.435
-1617.37 -0.155765 0 9.10334
-1353.53 -0.0938118 0 -3.64306
-1629.44 -0.158121 0 8.99231
-1623.4 -0.156944 0 9.04855
-1886.06 -0.22809 0 23.4989
-1871.98 -0.233575 0 23.6217
-1338.44 -0.0800922 0 -3.50963
-1348.5 -0.0892274 0 -3.59738
-1879.02 -0.230841 0 23.5611
-1605.3 -0.153399 0 9.20859
-1343.47 -0.0846543 0 -3.5529
-1617.37 -0.155765 0 9.10334
-1611.33 -0.154583 0 9.15669
-1871.98 -0.233575 0 23.6217
-1857.91 -0.238984 0 23.7377
-1328.38 -0.0709998 0 -3.42667
-1338.44 -0.0800922 0 -3.50963
-1864.95 -0.236289 0 23.6805
-1593.23 -0.15102 0 9.30809
-1333.41 -0.0755407 0 -3.46755
-1605.3 -0.153399 0 9.20859
-1599.26 -0.152211 0 9.25906
-1857.91 -0.238984 0 23.7377
-1843.84 -0.244314 0 23.8472
-1318.32 -0.0619481 0 -3.34846
-1328.38 -0.0709998 0 -3.42667
-1850.87 -0.241659 0 23.7933
-1581.16 -0.148626 0 9.4019
-1323.35 -0.066469 0 -3.38697
-1593.23 -0.15102 0 9.30809
-1587.2 -0.149825 0 9.35571
-1843.84 -0.244314 0 23.8472
-1829.76 -0.249563 0 23.95
-1308.26 -0.0529353 0 -3.27496
-1318.32 -0.0619481 0 -3.34846
-1836.8 -0.246949 0 23.8994
-1569.09 -0.146216 0 9.49005
-1313.29 -0.057437 0 -3.31112
-1581.16 -0.148626 0 9.4019
-1575.13 -0.147423 0 9.44668
-1829.76 -0.249563 0 23.95
-1815.69 -0.254728 0 24.0462
-1298.19 -0.0439594 0 -3.20614
-1308.26 -0.0529353 0 -3.27496
-1822.72 -0.252156 0 23.9989
-1557.02 -0.143785 0 9.57258
-1303.22 -0.0484429 0 -3.23997
-1569.09 -0.146216 0 9.49005
-1563.06 -0.145003 0 9.53201
-1815.69 -0.254728 0 24.0462
-1801.61 -0.259805 0 24.136
-1288.13 -0.0350185 0 -3.14197
-1298.19 -0.0439594 0 -3.20614
-1808.65 -0.257278 0 24.0919
-1544.95 -0.141333 0 9.64954
-1293.16 -0.0394847 0 -3.17348
-1557.02 -0.143785 0 9.57258
-1550.99 -0.142562 0 9.61175
-1801.61 -0.259805 0 24.136
-1787.54 -0.264794 0 24.2193
-1278.07 -0.0261108 0 -3.0824
-1288.13 -0.0350185 0 -3.14197
-1794.57 -0.262311 0 24.1785
-1532.89 -0.138856 0 9.72098
-1283.1 -0.0305606 0 -3.11161
-1544.95 -0.141333 0 9.64954
-1538.92 -0.140098 0 9.68595
-1787.54 -0.264794 0 24.2193
-1773.46 -0.26969 0 24.2963
-1268.01 -0.0172345 0 -3.02741
-1278.07 -0.0261108 0 -3.0824
-1780.5 -0.267254 0 24.2586
-1520.82 -0.136353 0 9.78693
-1273.04 -0.0216688 0 -3.05433
-1532.89 -0.138856 0 9.72098
-1526.85 -0.137608 0 9.75464
-1773.46 -0.26969 0 24.2963
-1759.39 -0.274493 0 24.3668
-1257.95 -0.00838795 0 -2.97694
-1268.01 -0.0172345 0 -3.02741
-1766.42 -0.272103 0 24.3323
-1508.75 -0.133823 0 9.84744
-1262.98 -0.0128076 0 -3.00161
-1520.82 -0.136353 0 9.78693
-1514.78 -0.135092 0 9.81786
-1759.39 -0.274493 0 24.3668
-1745.31 -0.279198 0 24.4311
-1247.89 0.000430532 0 -2.93098
-1257.95 -0.00838795 0 -2.97694
-1752.35 -0.276857 0 24.3998
-1496.68 -0.131261 0 9.90255
-1252.92 -0.0039753 0 -2.9534
-1508.75 -0.133823 0 9.84744
-1502.71 -0.132546 0 9.87567
-1745.31 -0.279198 0 24.4311
-1731.23 -0.283805 0 24.4891
-1237.82 0.00922253 0 -2.88948
-1247.89 0.000430525 0 -2.93098
-1738.27 -0.281514 0 24.4609
-1484.61 -0.128668 0 9.95231
-1242.86 0.00482974 0 -2.90968
-1496.68 -0.131261 0 9.90255
-1490.64 -0.129969 0 9.92809
-1731.23 -0.283805 0 24.4891
-1717.16 -0.28831 0 24.541
-1227.76 0.0179896 0 -2.85241
-1237.82 0.00922253 0 -2.88948
-1724.2 -0.28607 0 24.5158
-1472.54 -0.126041 0 9.99675
-1232.79 0.0136091 0 -2.8704
-1484.61 -0.128668 0 9.95231
-1478.57 -0.127359 0 9.97519
-1717.16 -0.28831 0 24.541
-1703.08 -0.292712 0 24.5867
-1217.7 0.0267333 0 -2.81973
-1227.76 0.0179896 0 -2.85241
-1710.12 -0.290524 0 24.5646
-1460.47 -0.123377 0 10.0359
-1222.73 0.0223643 0 -2.83553
-1472.54 -0.126041 0 9.99675
-1466.51 -0.124713 0 10.017
-1703.08 -0.292712 0 24.5867
-1689.01 -0.297009 0 24.6263
-1207.64 0.0354549 0 -2.79141
-1217.7 0.0267333 0 -2.81973
-1696.05 -0.294874 0 24.6072
-1448.4 -0.120676 0 10.0699
-1212.67 0.0310968 0 -2.80503
-1460.47 -0.123377 0 10.0359
-1454.44 -0.122032 0 10.0536
-1689.01 -0.297009 0 24.6263
-1674.93 -0.301199 0 24.6598
-1197.58 0.044156 0 -2.7674
-1207.64 0.0354549 0 -2.79141
-1681.97 -0.299117 0 24.6438
-1436.33 -0.117936 0 10.0986
-1202.61 0.039808 0 -2.77887
-1448.4 -0.120676 0 10.0699
-1442.37 -0.119311 0 10.0849
-1674.93 -0.301199 0 24.6598
-1660.86 -0.305279 0 24.6874
-1187.52 0.0528378 0 -2.74768
-1197.58 0.044156 0 -2.7674
-1667.89 -0.303253 0 24.6743
-1424.26 -0.115155 0 10.1223
-1192.55 0.0484992 0 -2.75701
-1436.33 -0.117936 0 10.0986
-1430.3 -0.116551 0 10.1111
-1660.86 -0.305279 0 24.6874
-1646.78 -0.309249 0 24.709
-1177.45 0.0615017 0 -2.7322
-1187.52 0.0528378 0 -2.74768
-1653.82 -0.307278 0 24.6989
-1412.19 -0.112331 0 10.1408
-1182.49 0.0571719 0 -2.73941
-1424.26 -0.115155 0 10.1223
-1418.23 -0.113749 0 10.1322
-1646.78 -0.309249 0 24.709
-1632.7 -0.313105 0 24.7247
-1167.39 0.0701489 0 -2.72094
-1177.45 0.0615017 0 -2.7322
-1639.74 -0.311191 0 24.7176
-1400.12 -0.109464 0 10.1543
-1172.42 0.0658273 0 -2.72605
-1412.19 -0.112331 0 10.1408
-1406.16 -0.110903 0 10.1482
-1632.7 -0.313105 0 24.7247
-1618.63 -0.316848 0 24.7346
-1157.33 0.0787805 0 -2.71385
-1167.39 0.0701489 0 -2.72094
-1625.67 -0.314991 0 24.7304
-1388.05 -0.106551 0 10.1628
-1162.36 0.0744665 0 -2.71687
-1400.12 -0.109464 0 10.1543
-1394.09 -0.108013 0 10.1591
-1618.63 -0.316848 0 24.7346
-1604.55 -0.320474 0 24.7386
-1147.27 0.0873977 0 -2.7109
-1157.33 0.0787805 0 -2.71385
-1611.59 -0.318675 0 24.7373
-1375.98 -0.103591 0 10.1663
-1152.3 0.0830908 0 -2.71186
-1388.05 -0.106551 0 10.1628
-1382.02 -0.105077 0 10.1651
-1604.55 -0.320474 0 24.7386
-1590.48 -0.323983 0 24.737
-1137.21 0.0960017 0 -2.71206
-1147.27 0.0873977 0 -2.7109
-1597.51 -0.322243 0 24.7385
-1363.92 -0.100583 0 10.1648
-1142.24 0.0917013 0 -2.71097
-1375.98 -0.103591 0 10.1663
-1369.95 -0.102093 0 10.1662
-1590.48 -0.323983 0 24.737
-1576.4 -0.327372 0 24.7296
-1127.15 0.104593 0 -2.71728
-1137.21 0.0960017 0 -2.71206
-1583.44 -0.325692 0 24.734
-1351.85 -0.0975262 0 10.1585
-1132.18 0.100299 0 -2.71416
-1363.92 -0.100583 0 10.1648
-1357.88 -0.0990611 0 10.1623
-1576.4 -0.327372 0 24.7296
-1562.32 -0.330641 0 24.7166
-1117.08 0.113174 0 -2.72653
-1127.15 0.104593 0 -2.71728
-1569.36 -0.329022 0 24.7238
-1339.78 -0.0944184 0 10.1474
-1122.12 0.108885 0 -2.7214
-1351.85 -0.0975262 0 10.1585
-1345.81 -0.0959787 0 10.1536
-1562.32 -0.330641 0 24.7166
-1548.25 -0.333789 0 24.698
-1107.02 0.121744 0 -2.73978
-1117.08 0.113174 0 -2.72653
-1555.28 -0.33223 0 24.708
-1327.71 -0.0912589 0 10.1315
-1112.05 0.11746 0 -2.73266
-1339.78 -0.0944184 0 10.1474
-1333.74 -0.0928452 0 10.14
-1548.25 -0.333789 0 24.698
-1534.17 -0.336813 0 24.6739
-1096.96 0.130305 0 -2.75699
-1107.02 0.121744 0 -2.73978
-1541.21 -0.335316 0 24.6866
-1315.64 -0.0880465 0 10.1108
-1101.99 0.126026 0 -2.74789
-1327.71 -0.0912589 0 10.1315
-1321.67 -0.0896594 0 10.1217
-1534.17 -0.336813 0 24.6739
-1520.09 -0.339712 0 24.6443
-1086.9 0.138857 0 -2.77812
-1096.96 0.130305 0 -2.75699
-1527.13 -0.338278 0 24.6598
-1303.57 -0.0847803 0 10.0854
-1091.93 0.134582 0 -2.76707
-1315.64 -0.0880465 0 10.1108
-1309.6 -0.0864202 0 10.0987
-1520.09 -0.339712 0 24.6443
-1506.02 -0.342487 0 24.6092
-1076.84 0.147402 0 -2.80315
-1086.9 0.138857 0 -2.77812
-1513.05 -0.341115 0 24.6274
-1291.5 -0.0814592 0 10.0553
-1081.87 0.14313 0 -2.79015
-1303.57 -0.0847803 0 10.0854
-1297.53 -0.0831267 0 10.0709
-1506.02 -0.342487 0 24.6092
-1491.94 -0.345134 0 24.5687
-1066.78 0.155939 0 -2.83202
-1076.84 0.147402 0 -2.80315
-1498.98 -0.343826 0 24.5896
-1279.43 -0.0780824 0 10.0207
-1071.81 0.151671 0 -2.8171
-1291.5 -0.0814592 0 10.0553
-1285.46 -0.0797779 0 10.0386
-1491.94 -0.345134 0 24.5687
-1477.86 -0.347654 0 24.5229
-1056.72 0.16447 0 -2.86471
-1066.78 0.155939 0 -2.83202
-1484.9 -0.34641 0 24.5465
-1267.36 -0.074649 0 9.9814
-1061.75 0.160205 0 -2.84789
-1279.43 -0.0780824 0 10.0207
-1273.39 -0.0763728 0 10.0016
-1477.86 -0.347654 0 24.5229
-1463.79 -0.350046 0 24.4718
-1046.65 0.172996 0 -2.90118
-1056.72 0.16447 0 -2.86471
-1470.82 -0.348866 0 24.498
-1255.29 -0.071158 0 9.93761
-1051.68 0.168734 0 -2.88247
-1267.36 -0.074649 0 9.9814
-1261.32 -0.0729107 0 9.96007
-1463.79 -0.350046 0 24.4718
-1449.71 -0.352308 0 24.4155
-1036.59 0.181517 0 -2.94139
-1046.65 0.172996 0 -2.90118
-1456.75 -0.351193 0 24.4443
-1243.22 -0.0676089 0 9.88933
-1041.62 0.177257 0 -2.92082
-1255.29 -0.071158 0 9.93761
-1249.25 -0.0693908 0 9.91403
-1449.71 -0.352308 0 24.4155
-1435.63 -0.354439 0 24.354
-1026.53 0.190033 0 -2.98531
-1036.59 0.181517 0 -2.94139
-1442.67 -0.35339 0 24.3854
-1231.15 -0.0640008 0 9.8366
-1031.56 0.185776 0 -2.96289
-1243.22 -0.0676089 0 9.88933
-1237.18 -0.0658123 0 9.86352
-1435.63 -0.354439 0 24.354
-1421.55 -0.35644 0 24.2873
-1016.47 0.198546 0 -3.0329
-1026.53 0.190033 0 -2.98531
-1428.59 -0.355456 0 24.3213
-1219.08 -0.0603332 0 9.77946
-1021.5 0.19429 0 -3.00865
-1231.15 -0.0640008 0 9.8366
-1225.11 -0.0621745 0 9.80858
-1421.55 -0.35644 0 24.2873
-1407.48 -0.358309 0 24.2156
-1006.41 0.207055 0 -3.08413
-1016.47 0.198546 0 -3.0329
-1414.52 -0.357391 0 24.2521
-1207.01 -0.0566053 0 9.71796
-1011.44 0.202801 0 -3.05806
-1219.08 -0.0603332 0 9.77946
-1213.04 -0.0584768 0 9.74925
-1407.48 -0.358309 0 24.2156
-1393.4 -0.360045 0 24.1388
-996.347 0.215561 0 -3.13896
-1006.41 0.207055 0 -3.08413
-1400.44 -0.359193 0 24.1778
-1194.94 -0.0528168 0 9.65214
-1001.38 0.211309 0 -3.1111
-1207.01 -0.0566053 0 9.71796
-1200.97 -0.0547187 0 9.68559
-1393.4 -0.360045 0 24.1388
-1379.32 -0.361648 0 24.057
-986.285 0.224065 0 -3.19735
-996.347 0.215561 0 -3.13896
-1386.36 -0.360863 0 24.0985
-1182.87 -0.0489669 0 9.58204
-991.316 0.219814 0 -3.16771
-1194.94 -0.0528168 0 9.65214
-1188.9 -0.0508995 0 9.61762
-1379.32 -0.361648 0 24.057
-1365.25 -0.363118 0 23.9703
-976.224 0.232567 0 -3.25927
-986.285 0.224065 0 -3.19735
-1372.28 -0.3624 0 24.0143
-1170.8 -0.0450554 0 9.50771
-981.255 0.228317 0 -3.22788
-1182.87 -0.0489669 0 9.58204
-1176.83 -0.0470189 0 9.54541
-1365.25 -0.363118 0 23.9703
-1351.17 -0.364453 0 23.8787
-966.163 0.241067 0 -3.32469
-976.224 0.232567 0 -3.25927
-1358.21 -0.363802 0 23.9251
-1158.73 -0.0410817 0 9.4292
-971.193 0.236817 0 -3.29155
-1170.8 -0.0450554 0 9.50771
-1164.76 -0.0430763 0 9.46898
-1351.17 -0.364453 0 23.8787
-1337.09 -0.365655 0 23.7823
-956.101 0.249566 0 -3.39356
-966.163 0.241067 0 -3.32469
-1344.13 -0.365071 0 23.8311
-1146.66 -0.0370456 0 9.34653
-961.132 0.245317 0 -3.35869
-1158.73 -0.0410817 0 9.4292
-1152.69 -0.0390715 0 9.38838
-1337.09 -0.365655 0 23.7823
-1323.01 -0.366721 0 23.6811
-946.04 0.258063 0 -3.46585
-956.101 0.249566 0 -3.39356
-1330.05 -0.366205 0 23.7323
-1134.59 -0.0329467 0 9.25976
-951.071 0.253815 0 -3.42928
-1146.66 -0.0370456 0 9.34653
-1140.62 -0.035004 0 9.30366
-1323.01 -0.366721 0 23.6811
-1308.94 -0.367652 0 23.5751
-935.979 0.26656 0 -3.54152
-946.04 0.258063 0 -3.46585
-1315.97 -0.367203 0 23.6287
-1122.52 -0.0287848 0 9.16893
-941.009 0.262312 0 -3.50327
-1134.59 -0.0329467 0 9.25976
-1128.55 -0.0308737 0 9.21485
-1308.94 -0.367652 0 23.5751
-1294.86 -0.368448 0 23.4645
-925.917 0.275055 0 -3.62055
-935.979 0.26656 0 -3.54152
-1301.9 -0.368067 0 23.5204
-1110.45 -0.0245597 0 9.07408
-930.948 0.270807 0 -3.58062
-1122.52 -0.0287848 0 9.16893
-1116.48 -0.0266802 0 9.12201
-1294.86 -0.368448 0 23.4645
-1280.78 -0.369108 0 23.3492
-915.856 0.28355 0 -3.70288
-925.917 0.275055 0 -3.62055
-1287.82 -0.368795 0 23.4074
-1098.38 -0.0202712 0 8.97526
-920.887 0.279303 0 -3.6613
-1110.45 -0.0245597 0 9.07408
-1104.41 -0.0224234 0 9.02517
-1280.78 -0.369108 0 23.3492
-1266.7 -0.369632 0 23.2293
-905.795 0.292044 0 -3.78849
-915.856 0.28355 0 -3.70288
-1273.74 -0.369387 0 23.2898
-1086.31 -0.0159192 0 8.87251
-910.825 0.287797 0 -3.74528
-1098.38 -0.0202712 0 8.97526
-1092.34 -0.0181031 0 8.92437
-1266.7 -0.369632 0 23.2293
-1252.62 -0.370021 0 23.1049
-895.733 0.300538 0 -3.87735
-905.795 0.292044 0 -3.78849
-1259.66 -0.369844 0 23.1677
-1074.24 -0.0115036 0 8.76587
-900.764 0.296291 0 -3.83252
-1086.31 -0.0159192 0 8.87251
-1080.27 -0.0137193 0 8.81967
-1252.62 -0.370021 0 23.1049
-1238.55 -0.370274 0 22.976
-885.672 0.309031 0 -3.96941
-895.733 0.300538 0 -3.87735
-1245.59 -0.370164 0 23.041
-1062.17 -0.00702443 0 8.65538
-890.703 0.304784 0 -3.92298
-1074.24 -0.0115036 0 8.76587
-1068.2 -0.00927196 0 8.7111
-1238.55 -0.370274 0 22.976
-1224.47 -0.37039 0 22.8427
-875.611 0.317523 0 -4.06463
-885.672 0.309031 0 -3.96941
-1231.51 -0.370349 0 22.9099
-1050.1 -0.00248168 0 8.5411
-880.642 0.313277 0 -4.01662
-1062.17 -0.00702442 0 8.65538
-1056.13 -0.00476099 0 8.59871
-1224.47 -0.37039 0 22.8427
-1210.39 -0.370372 0 22.705
-865.55 0.326015 0 -4.16299
-875.611 0.317523 0 -4.06463
-1217.43 -0.370398 0 22.7744
-1038.03 0.00212456 0 8.42305
-870.58 0.321769 0 -4.11342
-1050.1 -0.00248168 0 8.5411
-1044.06 -0.000186492 0 8.48254
-1210.39 -0.370372 0 22.705
-1196.31 -0.370217 0 22.5629
-855.489 0.334506 0 -4.26445
-865.55 0.326015 0 -4.16299
-1203.35 -0.370311 0 22.6345
-1025.96 0.00679419 0 8.30129
-860.519 0.33026 0 -4.21333
-1038.03 0.00212456 0 8.42305
-1031.99 0.00445146 0 8.36263
-1196.31 -0.370217 0 22.5629
-1182.23 -0.369927 0 22.4166
-845.428 0.342996 0 -4.36896
-855.489 0.334506 0 -4.26445
-1189.27 -0.370089 0 22.4903
-1013.89 0.0115271 0 8.17586
-850.458 0.338751 0 -4.31632
-1025.96 0.00679419 0 8.30129
-1019.92 0.00915273 0 8.23903
-1182.23 -0.369927 0 22.4166
-1168.16 -0.369502 0 22.2661
-835.367 0.351485 0 -4.4765
-845.428 0.342996 0 -4.36896
-1175.19 -0.369731 0 22.3419
-1001.82 0.0163229 0 8.0468
-840.397 0.34724 0 -4.42236
-1013.89 0.0115271 0 8.17586
-1007.85 0.0139171 0 8.11178
-1168.16 -0.369502 0 22.2661
-1154.08 -0.368942 0 22.1113
-825.305 0.359972 0 -4.58703
-835.367 0.351485 0 -4.4765
-1161.12 -0.369239 0 22.1892
-989.749 0.0211816 0 7.91415
-830.336 0.355729 0 -4.5314
-1001.82 0.0163229 0 8.0468
-995.784 0.0187445 0 7.98092
-1154.08 -0.368942 0 22.1113
-1140 -0.368247 0 21.9525
-815.244 0.368458 0 -4.70052
-825.305 0.359972 0 -4.58703
-1147.04 -0.368611 0 22.0324
-977.679 0.0261028 0 7.77796
-820.275 0.364215 0 -4.64341
-989.749 0.0211816 0 7.91415
-983.714 0.0236344 0 7.84649
-1140 -0.368247 0 21.9525
-1125.92 -0.367418 0 21.7895
-805.183 0.376943 0 -4.81692
-815.244 0.368458 0 -4.70052
-1132.96 -0.367849 0 21.8715
-965.608 0.0310862 0 7.63827
-810.214 0.372701 0 -4.75835
-977.679 0.0261028 0 7.77796
-971.644 0.0285867 0 7.70855
-1125.92 -0.367418 0 21.7895
-1111.84 -0.366455 0 21.6225
-795.122 0.385425 0 -4.9362
-805.183 0.376943 0 -4.81692
-1118.88 -0.366953 0 21.7065
-953.538 0.0361314 0 7.49512
-800.153 0.381184 0 -4.8762
-965.608 0.0310862 0 7.63827
-959.573 0.0336011 0 7.56713
-1111.84 -0.366455 0 21.6225
-1097.76 -0.365359 0 21.4516
-785.061 0.393905 0 -5.05832
-795.122 0.385425 0 -4.9362
-1104.8 -0.365924 0 21.5375
-941.468 0.0412379 0 7.34856
-790.092 0.389665 0 -4.99691
-953.538 0.0361314 0 7.49512
-947.503 0.038677 0 7.42227
-1097.76 -0.365359 0 21.4516
-1083.69 -0.36413 0 21.2767
-775 0.402382 0 -5.18326
-785.061 0.393905 0 -5.05832
-1090.72 -0.364761 0 21.3646
-929.398 0.0464054 0 7.19863
-780.031 0.398143 0 -5.12044
-941.468 0.0412379 0 7.34856
-935.433 0.0438141 0 7.27402
-1083.69 -0.36413 0 21.2767
-1069.61 -0.362768 0 21.0979
-764.939 0.410855 0 -5.31096
-775 0.402382 0 -5.18326
-1076.65 -0.363466 0 21.1878
-917.328 0.0516334 0 7.04538
-769.97 0.406619 0 -5.24677
-929.398 0.0464054 0 7.19863
-923.363 0.0490119 0 7.12242
-1069.61 -0.362768 0 21.0979
-1055.53 -0.361275 0 20.9153
-754.878 0.419325 0 -5.44141
-764.939 0.410855 0 -5.31096
-1062.57 -0.362038 0 21.0071
-905.257 0.0569214 0 6.88884
-759.909 0.415091 0 -5.37585
-917.328 0.0516334 0 7.04538
-911.293 0.0542699 0 6.96751
-1055.53 -0.361275 0 20.9153
-1041.45 -0.359651 0 20.7289
-744.817 0.427791 0 -5.57456
-754.878 0.419325 0 -5.44141
-1048.49 -0.36048 0 20.8225
-893.187 0.0622687 0 6.72906
-749.848 0.423559 0 -5.50765
-905.257 0.0569214 0 6.88884
-899.222 0.0595876 0 6.80935
-1041.45 -0.359651 0 20.7289
-1027.37 -0.357897 0 20.5388
-734.756 0.436252 0 -5.71037
-744.817 0.427791 0 -5.57456
-1034.41 -0.35879 0 20.6343
-881.117 0.0676747 0 6.56608
-739.787 0.432022 0 -5.64213
-893.187 0.0622687 0 6.72906
-887.152 0.0649644 0 6.64796
-1027.37 -0.357897 0 20.5388
-1013.29 -0.356013 0 20.345
-724.695 0.444708 0 -5.84881
-734.756 0.436252 0 -5.71037
-1020.33 -0.356971 0 20.4423
-869.047 0.0731389 0 6.39994
-729.726 0.440481 0 -5.77926
-881.117 0.0676747 0 6.56608
-875.082 0.0703996 0 6.4834
-1013.29 -0.356013 0 20.345
-999.212 -0.354 0 20.1475
-714.635 0.453158 0 -5.98984
-724.695 0.444708 0 -5.84881
-1006.25 -0.355023 0 20.2467
-856.976 0.0786605 0 6.2307
-719.665 0.448934 0 -5.919
-869.047 0.0731389 0 6.39994
-863.012 0.0758926 0 6.31571
-999.212 -0.354 0 20.1475
-985.133 -0.35186 0 19.9465
-704.574 0.461602 0 -6.13344
-714.635 0.453158 0 -5.98984
-992.173 -0.352946 0 20.0475
-844.906 0.0842389 0 6.05839
-709.604 0.457381 0 -6.06132
-856.976 0.0786605 0 6.2307
-850.941 0.0814427 0 6.14492
-985.133 -0.35186 0 19.9465
-971.054 -0.349592 0 19.742
-694.513 0.470038 0 -6.27955
-704.574 0.461602 0 -6.13344
-978.094 -0.350742 0 19.8447
-832.836 0.0898733 0 5.88305
-699.543 0.465821 0 -6.20618
-844.906 0.0842389 0 6.05839
-838.871 0.0870491 0 5.97109
-971.054 -0.349592 0 19.742
-956.975 -0.347198 0 19.534
-684.452 0.478467 0 -6.42815
-694.513 0.470038 0 -6.27955
-964.015 -0.348411 0 19.6384
-820.765 0.0955628 0 5.70473
-689.482 0.474254 0 -6.35354
-832.836 0.0898733 0 5.88305
-826.8 0.0927112 0 5.79426
-956.975 -0.347198 0 19.534
-942.896 -0.344679 0 19.3226
-674.391 0.486888 0 -6.5792
-684.452 0.478467 0 -6.42815
-949.935 -0.345954 0 19.4287
-808.695 0.101307 0 5.52347
-679.421 0.482679 0 -6.50337
-820.765 0.0955628 0 5.70473
-814.73 0.098428 0 5.61447
-942.896 -0.344679 0 19.3226
-928.816 -0.342035 0 19.1077
-664.33 0.495299 0 -6.73266
-674.391 0.486888 0 -6.5792
-935.856 -0.343372 0 19.2156
-796.624 0.107104 0 5.33932
-669.361 0.491095 0 -6.65563
-808.695 0.101307 0 5.52347
-802.66 0.104199 0 5.43176
-928.816 -0.342035 0 19.1077
-914.737 -0.339269 0 18.8896
-654.269 0.503701 0 -6.8885
-664.33 0.495299 0 -6.73266
-921.777 -0.340667 0 18.9991
-784.554 0.112954 0 5.15231
-659.3 0.499501 0 -6.81028
-796.624 0.107104 0 5.33932
-790.589 0.110023 0 5.24617
-914.737 -0.339269 0 18.8896
-900.658 -0.33638 0 18.6682
-644.209 0.512092 0 -7.04668
-654.269 0.503701 0 -6.8885
-907.697 -0.33784 0 18.7793
-772.483 0.118856 0 4.9625
-649.239 0.507898 0 -6.9673
-784.554 0.112954 0 5.15231
-778.519 0.115899 0 5.05776
-900.658 -0.33638 0 18.6682
-886.578 -0.33337 0 18.4435
-634.148 0.520471 0 -7.20716
-644.209 0.512092 0 -7.04668
-893.618 -0.33489 0 18.5563
-760.413 0.124808 0 4.76992
-639.178 0.516283 0 -7.12663
-772.483 0.118856 0 4.9625
-766.448 0.121826 0 4.86655
-886.578 -0.33337 0 18.4435
-872.498 -0.330241 0 18.2157
-624.087 0.528838 0 -7.36992
-634.148 0.520471 0 -7.20716
-879.538 -0.33182 0 18.33
-748.342 0.130811 0 4.57461
-629.117 0.524656 0 -7.28826
-760.413 0.124808 0 4.76992
-754.378 0.127803 0 4.6726
-872.498 -0.330241 0 18.2157
-858.419 -0.326992 0 17.9848
-614.026 0.537193 0 -7.53491
-624.087 0.528838 0 -7.36992
-865.459 -0.328631 0 18.1006
-736.272 0.136862 0 4.37663
-619.056 0.533017 0 -7.45214
-748.342 0.130811 0 4.57461
-742.307 0.13383 0 4.47596
-858.419 -0.326992 0 17.9848
-844.339 -0.323627 0 17.7507
-603.965 0.545533 0 -7.7021
-614.026 0.537193 0 -7.53491
-851.379 -0.325324 0 17.8681
-724.201 0.14296 0 4.17601
-608.996 0.541365 0 -7.61823
-736.272 0.136862 0 4.37663
-730.236 0.139905 0 4.27665
-844.339 -0.323627 0 17.7507
-830.259 -0.320145 0 17.5137
-593.904 0.553858 0 -7.87145
-603.965 0.545533 0 -7.7021
-837.299 -0.3219 0 17.6326
-712.13 0.149105 0 3.9728
-598.935 0.549697 0 -7.78651
-724.201 0.14296 0 4.17601
-718.166 0.146027 0 4.07473
-830.259 -0.320145 0 17.5137
-816.179 -0.316548 0 17.2737
-583.844 0.562167 0 -8.04293
-593.904 0.553858 0 -7.87145
-823.219 -0.318361 0 17.394
-700.06 0.155296 0 3.76703
-588.874 0.558015 0 -7.95692
-712.13 0.149105 0 3.9728
-706.095 0.152195 0 3.87023
-816.179 -0.316548 0 17.2737
-802.099 -0.312838 0 17.0307
-573.783 0.57046 0 -8.21649
-583.844 0.562167 0 -8.04293
-809.139 -0.314707 0 17.1526
-687.989 0.161531 0 3.55876
-578.813 0.566316 0 -8.12945
-700.06 0.155296 0 3.76703
-694.024 0.158408 0 3.66321
-802.099 -0.312838 0 17.0307
-788.019 -0.309015 0 16.7849
-563.722 0.578735 0 -8.39211
-573.783 0.57046 0 -8.21649
-795.059 -0.310941 0 16.9082
-675.918 0.167809 0 3.34803
-568.752 0.5746 0 -8.30405
-687.989 0.161531 0 3.55876
-681.954 0.164665 0 3.4537
-788.019 -0.309015 0 16.7849
-773.939 -0.305082 0 16.5362
-553.661 0.586991 0 -8.56975
-563.722 0.578735 0 -8.39211
-780.979 -0.307062 0 16.6609
-663.847 0.174129 0 3.13487
-558.692 0.582865 0 -8.48068
-675.918 0.167809 0 3.34803
-669.883 0.170964 0 3.24175
-773.939 -0.305082 0 16.5362
-759.858 -0.301039 0 16.2848
-543.6 0.595227 0 -8.74937
-553.661 0.586991 0 -8.56975
-766.898 -0.303074 0 16.4109
-651.777 0.18049 0 2.91934
-548.631 0.591112 0 -8.65931
-663.847 0.174129 0 3.13487
-657.812 0.177305 0 3.0274
-759.858 -0.301039 0 16.2848
-745.778 -0.296889 0 16.0307
-533.54 0.603443 0 -8.93094
-543.6 0.595227 0 -8.74937
-752.818 -0.298977 0 16.1581
-639.706 0.186891 0 2.70147
-538.57 0.599338 0 -8.83991
-651.777 0.18049 0 2.91934
-645.741 0.183686 0 2.81069
-745.778 -0.296889 0 16.0307
-731.697 -0.292632 0 15.7739
-523.479 0.611636 0 -9.11441
-533.54 0.603443 0 -8.93094
-738.738 -0.294774 0 15.9026
-627.635 0.193329 0 2.48131
-528.509 0.607542 0 -9.02244
-639.706 0.186891 0 2.70147
-633.67 0.190105 0 2.59167
-731.697 -0.292632 0 15.7739
-717.617 -0.28827 0 15.5144
-513.418 0.619807 0 -9.29976
-523.479 0.611636 0 -9.11441
-724.657 -0.290464 0 15.6445
-615.564 0.199805 0 2.2589
-518.448 0.615724 0 -9.20686
-627.635 0.193329 0 2.48131
-621.599 0.196562 0 2.37038
-717.617 -0.28827 0 15.5144
-703.536 -0.283805 0 15.2524
-503.357 0.627953 0 -9.48695
-513.418 0.619807 0 -9.29976
-710.576 -0.28605 0 15.3838
-603.493 0.206316 0 2.03429
-508.388 0.623883 0 -9.39313
-615.564 0.199805 0 2.2589
-609.528 0.203056 0 2.14686
-703.536 -0.283805 0 15.2524
-689.455 -0.279238 0 14.9879
-493.296 0.636074 0 -9.67595
-503.357 0.627953 0 -9.48695
-696.496 -0.281534 0 15.1205
-591.422 0.212861 0 1.80751
-498.327 0.632017 0 -9.58123
-603.493 0.206316 0 2.03429
-597.457 0.209584 0 1.92116
-689.455 -0.279238 0 14.9879
-675.374 -0.274571 0 14.7209
-483.236 0.644168 0 -9.8667
-493.296 0.636074 0 -9.67595
-682.415 -0.276917 0 14.8547
-579.351 0.219438 0 1.57861
-488.266 0.640124 0 -9.77111
-591.422 0.212861 0 1.80751
-585.386 0.216146 0 1.69332
-675.374 -0.274571 0 14.7209
-661.293 -0.269805 0 14.4515
-473.175 0.652235 0 -10.0592
-483.236 0.644168 0 -9.8667
-668.334 -0.2722 0 14.5865
-567.279 0.226048 0 1.34764
-478.205 0.648205 0 -9.96273
-579.351 0.219438 0 1.57861
-573.315 0.222739 0 1.46339
-661.293 -0.269805 0 14.4515
-647.212 -0.264943 0 14.1797
-463.114 0.660273 0 -10.2534
-473.175 0.652235 0 -10.0592
-654.253 -0.267386 0 14.3159
-555.208 0.232687 0 1.11464
-468.144 0.656258 0 -10.1561
-567.279 0.226048 0 1.34764
-561.244 0.229364 0 1.23139
-647.212 -0.264943 0 14.1797
-633.131 -0.259986 0 13.9056
-453.053 0.668281 0 -10.4492
-463.114 0.660273 0 -10.2534
-640.172 -0.262476 0 14.0429
-543.137 0.239354 0 0.879649
-458.083 0.664281 0 -10.3511
-555.208 0.232687 0 1.11464
-549.173 0.236017 0 0.997391
-633.131 -0.259986 0 13.9056
-619.05 -0.254935 0 13.6292
-442.992 0.676258 0 -10.6467
-453.053 0.668281 0 -10.4492
-626.09 -0.257472 0 13.7677
-531.066 0.246049 0 0.64271
-448.023 0.672273 0 -10.5477
-543.137 0.239354 0 0.879649
-537.101 0.242698 0 0.76142
-619.05 -0.254935 0 13.6292
-604.968 -0.249793 0 13.3506
-432.931 0.684202 0 -10.8457
-442.992 0.676258 0 -10.6467
-612.009 -0.252375 0 13.4902
-518.994 0.252769 0 0.403867
-437.962 0.680234 0 -10.746
-531.066 0.246049 0 0.64271
-525.03 0.249406 0 0.523524
-604.968 -0.249793 0 13.3506
-590.887 -0.244561 0 13.0698
-422.87 0.692112 0 -11.0463
-432.931 0.684202 0 -10.8457
-597.927 -0.247188 0 13.2105
-506.923 0.259513 0 0.163165
-427.901 0.688161 0 -10.9458
-518.994 0.252769 0 0.403867
-512.958 0.256138 0 0.283746
-590.887 -0.244561 0 13.0698
-576.805 -0.239241 0 12.7869
-412.809 0.699987 0 -11.2485
-422.87 0.692112 0 -11.0463
-583.846 -0.241912 0 12.9286
-494.851 0.266279 0 -0.0793538
-417.84 0.696054 0 -11.1472
-506.923 0.259513 0 0.163165
-500.887 0.262893 0 0.0421302
-576.805 -0.239241 0 12.7869
-562.723 -0.233834 0 12.502
-402.748 0.707825 0 -11.452
-412.809 0.699987 0 -11.2485
-569.764 -0.236548 0 12.6447
-482.78 0.273066 0 -0.323647
-407.779 0.703911 0 -11.3501
-494.851 0.266279 0 -0.0793538
-488.815 0.26967 0 -0.201281
-562.723 -0.233834 0 12.502
-548.641 -0.228344 0 12.215
-392.687 0.715626 0 -11.6571
-402.748 0.707825 0 -11.452
-555.682 -0.231099 0 12.3587
-470.708 0.279873 0 -0.56967
-397.718 0.711731 0 -11.5544
-482.78 0.273066 0 -0.323647
-476.744 0.276467 0 -0.446445
-548.641 -0.228344 0 12.215
-534.559 -0.222771 0 11.926
-382.626 0.723388 0 -11.8635
-392.687 0.715626 0 -11.6571
-541.6 -0.225567 0 12.0707
-458.636 0.286697 0 -0.817381
-387.657 0.719512 0 -11.7601
-470.708 0.279873 0 -0.56967
-464.672 0.283283 0 -0.693317
-534.559 -0.222771 0 11.926
-520.477 -0.217117 0 11.6352
-372.565 0.731109 0 -12.0713
-382.626 0.723388 0 -11.8635
-527.518 -0.219954 0 11.7808
-446.564 0.293537 0 -1.06674
-377.596 0.727253 0 -11.9673
-458.636 0.286697 0 -0.817381
-452.6 0.290115 0 -0.941856
-520.477 -0.217117 0 11.6352
-506.395 -0.211385 0 11.3424
-362.504 0.738788 0 -12.2805
-372.565 0.731109 0 -12.0713
-513.436 -0.214261 0 11.489
-434.492 0.300391 0 -1.31769
-367.535 0.734954 0 -12.1758
-446.564 0.293537 0 -1.06674
-440.528 0.296962 0 -1.19202
-506.395 -0.211385 0 11.3424
-492.312 -0.205576 0 11.0479
-352.443 0.746424 0 -12.4909
-362.504 0.738788 0 -12.2805
-499.354 -0.20849 0 11.1954
-422.421 0.307258 0 -1.57021
-357.474 0.742611 0 -12.3856
-434.492 0.300391 0 -1.31769
-428.457 0.303823 0 -1.44376
-492.312 -0.205576 0 11.0479
-478.23 -0.199693 0 10.7516
-342.382 0.754015 0 -12.7027
-352.443 0.746424 0 -12.4909
-485.271 -0.202644 0 10.8999
-410.348 0.314135 0 -1.82424
-347.412 0.750225 0 -12.5966
-422.421 0.307258 0 -1.57021
-416.385 0.310695 0 -1.69704
-478.23 -0.199693 0 10.7516
-464.147 -0.193736 0 10.4535
-332.321 0.761559 0 -12.9156
-342.382 0.754015 0 -12.7027
-471.188 -0.196723 0 10.6028
-398.276 0.321022 0 -2.07974
-337.351 0.757793 0 -12.809
-410.348 0.314135 0 -1.82424
-404.312 0.317578 0 -1.95181
-464.147 -0.193736 0 10.4535
-450.064 -0.187709 0 10.1538
-322.26 0.769056 0 -13.1297
-332.321 0.761559 0 -12.9156
-457.106 -0.190732 0 10.3039
-386.204 0.327916 0 -2.33667
-327.29 0.765314 0 -13.0225
-398.276 0.321022 0 -2.07974
-392.24 0.324468 0 -2.20803
-450.064 -0.187709 0 10.1538
-435.981 -0.181614 0 9.85252
-312.198 0.776503 0 -13.345
-322.26 0.769056 0 -13.1297
-443.023 -0.18467 0 10.0034
-374.132 0.334816 0 -2.59498
-317.229 0.772786 0 -13.2372
-386.204 0.327916 0 -2.33667
-380.168 0.331366 0 -2.46565
-435.981 -0.181614 0 9.85252
-421.898 -0.175452 0 9.54964
-302.137 0.783899 0 -13.5614
-312.198 0.776503 0 -13.345
-428.94 -0.178541 0 9.70127
-362.06 0.34172 0 -2.85464
-307.168 0.780208 0 -13.4531
-374.132 0.334816 0 -2.59498
-368.096 0.338268 0 -2.72464
-421.898 -0.175452 0 9.54964
-407.815 -0.169225 0 9.24525
-292.076 0.791243 0 -13.7789
-302.137 0.783899 0 -13.5614
-414.857 -0.172346 0 9.39763
-349.987 0.348626 0 -3.11559
-297.106 0.787578 0 -13.67
-362.06 0.34172 0 -2.85464
-356.023 0.345173 0 -2.98495
-407.815 -0.169225 0 9.24525
-393.732 -0.162936 0 8.93939
-282.014 0.798532 0 -13.9974
-292.076 0.791243 0 -13.7789
-400.773 -0.166088 0 9.0925
-337.915 0.355532 0 -3.3778
-287.045 0.794894 0 -13.888
-349.987 0.348626 0 -3.11559
-343.951 0.352079 0 -3.24654
-393.732 -0.162936 0 8.93939
-379.648 -0.156586 0 8.63212
-271.953 0.805764 0 -14.217
-282.014 0.798532 0 -13.9974
-386.69 -0.159768 0 8.78593
-325.842 0.362436 0 -3.64122
-276.984 0.802155 0 -14.1071
-337.915 0.355532 0 -3.3778
-331.878 0.358984 0 -3.50936
-379.648 -0.156586 0 8.63212
-365.564 -0.150178 0 8.32348
-261.892 0.81294 0 -14.4375
-271.953 0.805764 0 -14.217
-372.606 -0.153389 0 8.47797
-313.769 0.369336 0 -3.9058
-266.922 0.809359 0 -14.3271
-325.842 0.362436 0 -3.64122
-319.806 0.365886 0 -3.77336
-365.564 -0.150178 0 8.32348
-351.481 -0.143714 0 8.01353
-251.83 0.820057 0 -14.6589
-261.892 0.81294 0 -14.4375
-358.523 -0.146953 0 8.16867
-301.697 0.376231 0 -4.17151
-256.861 0.816506 0 -14.5481
-313.769 0.369336 0 -3.9058
-307.733 0.372784 0 -4.03852
-351.481 -0.143714 0 8.01353
-337.397 -0.137196 0 7.70232
-241.769 0.827117 0 -14.8813
-251.83 0.820057 0 -14.6589
-344.439 -0.140461 0 7.85808
-289.624 0.38312 0 -4.4383
-246.799 0.823594 0 -14.77
-301.697 0.376231 0 -4.17151
-295.66 0.379677 0 -4.30477
-337.397 -0.137196 0 7.70232
-323.313 -0.130626 0 7.38989
-231.707 0.834121 0 -15.1045
-241.769 0.827117 0 -14.8813
-330.355 -0.133917 0 7.54625
-277.551 0.390002 0 -4.70612
-236.738 0.830626 0 -14.9928
-289.624 0.38312 0 -4.4383
-283.587 0.386562 0 -4.57208
-323.313 -0.130626 0 7.38989
-309.228 -0.124007 0 7.07631
-221.645 0.841073 0 -15.3285
-231.707 0.834121 0 -15.1045
-316.271 -0.127322 0 7.23324
-265.478 0.396876 0 -4.97495
-226.676 0.837603 0 -15.2164
-277.551 0.390002 0 -4.70612
-271.514 0.39344 0 -4.84042
-309.228 -0.124007 0 7.07631
-295.144 -0.117343 0 6.76161
-211.584 0.847982 0 -15.5534
-221.645 0.841073 0 -15.3285
-302.186 -0.120681 0 6.91909
-253.405 0.403746 0 -5.24475
-216.615 0.844533 0 -15.4408
-265.478 0.396876 0 -4.97495
-259.441 0.400311 0 -5.10973
-295.144 -0.117343 0 6.76161
-281.06 -0.110635 0 6.44585
-201.522 0.854858 0 -15.779
-211.584 0.847982 0 -15.5534
-288.102 -0.113994 0 6.60386
-241.331 0.410613 0 -5.51549
-206.553 0.851423 0 -15.6661
-253.405 0.403746 0 -5.24475
-247.368 0.40718 0 -5.38001
-281.06 -0.110635 0 6.44585
-266.975 -0.103892 0 6.12908
-191.46 0.86171 0 -16.0055
-201.522 0.854858 0 -15.779
-274.017 -0.107267 0 6.28759
-229.258 0.417484 0 -5.78716
-196.491 0.858287 0 -15.8922
-241.331 0.410613 0 -5.51549
-235.295 0.414047 0 -5.65121
-266.975 -0.103892 0 6.12908
-252.89 -0.0971143 0 5.81134
-181.399 0.868536 0 -16.2327
-191.46 0.86171 0 -16.0055
-259.932 -0.100509 0 5.97033
-217.184 0.424359 0 -6.05975
-186.43 0.865127 0 -16.119
-229.258 0.417484 0 -5.78716
-223.221 0.420922 0 -5.92334
-252.89 -0.0971143 0 5.81134
-238.804 -0.0903139 0 5.49268
-171.337 0.875288 0 -16.4607
-181.399 0.868536 0 -16.2327
-245.847 -0.0937105 0 5.65212
-205.111 0.431241 0 -6.33323
-176.368 0.871929 0 -16.3466
-217.184 0.424359 0 -6.05975
-211.148 0.427798 0 -6.19638
-238.804 -0.0903139 0 5.49268
-224.717 -0.083516 0 5.17313
-161.275 0.881825 0 -16.6893
-171.337 0.875288 0 -16.4607
-231.761 -0.0869312 0 5.33303
-193.037 0.43808 0 -6.60755
-166.306 0.878597 0 -16.575
-205.111 0.431241 0 -6.33323
-199.074 0.434673 0 -6.47029
-224.717 -0.083516 0 5.17313
-210.629 -0.0766336 0 4.85274
-151.214 0.887723 0 -16.9182
-161.275 0.881825 0 -16.6893
-217.674 -0.0800414 0 5.013
-180.962 0.44482 0 -6.88244
-156.245 0.884903 0 -16.8038
-193.037 0.43808 0 -6.60755
-186.999 0.441462 0 -6.74494
-210.629 -0.0766336 0 4.85274
-196.541 -0.0699778 0 4.53141
-141.153 0.892158 0 -17.1465
-151.214 0.887723 0 -16.9182
-203.585 -0.0734002 0 4.69228
-168.888 0.451117 0 -7.1574
-146.183 0.890199 0 -17.0325
-180.962 0.44482 0 -6.88244
-174.925 0.448065 0 -7.01997
-196.541 -0.0699778 0 4.53141
-182.452 -0.0625734 0 4.20945
-131.093 0.893072 0 -17.3719
-141.153 0.892158 0 -17.1465
-189.496 -0.0660995 0 4.37035
-156.816 0.456605 0 -7.43079
-136.122 0.893262 0 -17.2598
-168.888 0.451117 0 -7.1574
-162.852 0.453966 0 -7.2944
-182.452 -0.0625734 0 4.20945
-168.367 -0.0567388 0 3.88602
-121.033 0.887237 0 -17.5906
-131.093 0.893072 0 -17.3719
-175.408 -0.0601952 0 4.0483
-144.75 0.459718 0 -7.69983
-126.063 0.891302 0 -17.4824
-156.816 0.456605 0 -7.43079
-150.781 0.458656 0 -7.56622
-168.367 -0.0567388 0 3.88602
-154.291 -0.0458809 0 3.56313
-110.977 0.866759 0 -17.7929
-121.033 0.887237 0 -17.5906
-161.328 -0.0503926 0 3.72377
-132.695 0.458909 0 -7.9574
-116.004 0.879493 0 -17.6948
-144.75 0.459718 0 -7.69983
-138.721 0.459746 0 -7.83046
-154.291 -0.0458809 0 3.56313
-140.26 -0.0441787 0 3.23617
-100.919 0.822484 0 -17.9659
-110.977 0.866759 0 -17.7929
-147.267 -0.0479028 0 3.40169
-120.67 0.448486 0 -8.192
-105.95 0.848629 0 -17.8841
-132.695 0.458909 0 -7.9574
-126.676 0.455818 0 -8.07923
-140.26 -0.0441787 0 3.23617
-126.285 -0.0142546 0 2.916
-90.8677 0.728676 0 -18.0771
-100.919 0.822484 0 -17.9659
-133.264 -0.0243236 0 3.07191
-108.695 0.423173 0 -8.37948
-95.8897 0.783227 0 -18.0324
-120.67 0.448486 0 -8.192
-114.677 0.436899 0 -8.29244
-126.285 -0.0142546 0 2.916
-112.528 -0.0330878 0 2.58099
-80.7842 0.571537 0 -18.0947
-90.8677 0.728676 0 -18.0771
-119.367 -0.0384543 0 2.75677
-96.8387 0.365923 0 -8.48029
-85.8367 0.661227 0 -18.0996
-108.695 0.423173 0 -8.37948
-102.743 0.402826 0 -8.44759
-112.528 -0.0330878 0 2.58099
-99.0216 0.0912978 0 2.28086
-70.698 0.278172 0 -17.9341
-80.7842 0.571537 0 -18.0947
-105.738 0.0550928 0 2.41139
-85.1374 0.260997 0 -8.4325
-75.7328 0.441808 0 -18.0452
-96.8387 0.365923 0 -8.48029
-90.9744 0.313596 0 -8.47334
-99.0216 0.0912978 0 2.28086
-86.3578 -0.0241882 0 1.92401
-60.404 -0.106676 0 -17.5664
-70.698 0.278172 0 -17.9341
-92.5486 -0.0409448 0 2.13853
-73.8068 0.06737 0 -8.11887
-65.6069 0.106883 0 -17.7755
-85.1374 0.260997 0 -8.4325
-79.3912 0.194682 0 -8.33612
-86.3578 -0.0241882 0 1.92401
-74.5681 0.537431 0 1.71426
-49.9581 -0.749743 0 -16.865
-60.404 -0.106676 0 -17.5664
-80.3178 0.391357 0 1.7286
-62.7924 -0.253037 0 -7.4592
-55.1738 -0.421563 0 -17.2699
-73.8068 0.0673701 0 -8.11887
-68.3062 -0.109546 0 -7.80434
-74.5681 0.537431 0 1.71426
-65.5255 -0.0172009 0 1.31047
-38.4581 -1.06316 0 -16.1085
-49.9581 -0.749743 0 -16.865
-69.6555 -0.102039 0 1.67317
-52.6404 -0.760199 0 -6.18147
-44.4583 -0.924362 0 -16.4606
-62.7924 -0.253037 0 -7.4592
-57.4845 -0.403012 0 -6.99862
-65.5255 -0.0172009 0 1.31047
-59.446 2.17285 0 1.76611
-26.0071 -1.03242 0 -15.7409
-38.4581 -1.06316 0 -16.1085
-61.8213 1.83377 0 1.02078
-42.0879 -1.42533 0 -4.78787
-32.2803 -1.32424 0 -15.8159
-52.6404 -0.760199 0 -6.18147
-47.7143 -1.22651 0 -5.29007
-59.446 2.17285 0 1.76611
-63.8294 -2.05108 0 3.44797
-10.2189 4.20067 0 -18.7248
-26.0071 -1.03242 0 -15.7409
-60.3742 -1.38502 0 2.80289
-30.57 -1.13845 0 -4.0514
-18.8363 0.774515 0 -16.5182
-42.0879 -1.42533 0 -4.78787
-36.2078 -1.32469 0 -4.55058
-63.8294 -2.05108 0 3.44797
-88.3537 -10.2021 0 17.4323
2.16646 25.0845 0 -28.5044
-10.2189 4.20067 0 -18.7248
-70.4837 2.68494 0 5.9166
-3.36926 14.1553 0 -16.4702
-2.97393 9.73781 0 -22.334
-30.57 -1.13845 0 -4.0514
-21.3737 1.52675 0 -6.52383
-88.3537 -10.2021 0 17.4323
-13.4653 132.75 0 -75.9178
-1.88006 101.577 0 -26.8786
2.16646 25.0845 0 -28.5044
-92.3303 -23.1639 0 8.35121
8.52257 128.87 0 -44.2788
3.88085 56.8326 0 -32.9299
-3.36926 14.1553 0 -16.4702
8.81167 44.9921 0 -30.3644
-1856.75 -557.953 0 -74.0713
-1965.65 -212.808 0 -108.093
-1163.48 -203.893 0 -3.00989
-1071.46 -321.727 0 98.4027
-1928.96 -401.137 0 -125.798
-1539.88 -234.753 0 -44.6328
-1133.96 -258.732 0 37.1244
-1520.65 -456.828 0 15.6297
-1504.73 -325.742 0 -14.0942
-1965.65 -212.808 0 -108.093
-1994.92 -63.7172 0 -50.6316
-1185.48 -89.8167 0 -34.3471
-1163.48 -203.893 0 -3.00989
-1993.28 -109.622 0 -77.4928
-1594.76 -92.2885 0 -51.795
-1173.29 -142.661 0 -23.258
-1539.88 -234.753 0 -44.6328
-1582.29 -158.167 0 -58.4951
-1994.92 -63.7172 0 -50.6316
-1969.8 -12.0034 0 -17.7487
-1196.73 -32.3556 0 -40.1491
-1185.48 -89.8167 0 -34.3471
-1979.83 -31.7067 0 -29.0986
-1590.94 -27.4142 0 -34.1599
-1196.23 -55.2672 0 -39.726
-1594.76 -92.2885 0 -51.795
-1593.94 -50.4124 0 -40.591
-1969.8 -12.0034 0 -17.7487
-1952.6 -0.853338 0 -10.158
-1187.66 -5.78832 0 -36.8053
-1196.73 -32.3556 0 -40.1491
-1962.18 -3.88024 0 -12.7073
-1575.8 -2.59201 0 -25.3678
-1191.77 -15.89 0 -38.2898
-1590.94 -27.4142 0 -34.1599
-1584.45 -12.2465 0 -29.443
-1952.6 -0.853338 0 -10.158
-1935.39 3.28991 0 -9.46794
-1177.03 1.90155 0 -34.4722
-1187.66 -5.78832 0 -36.8053
-1942.6 1.82371 0 -9.09689
-1559.56 3.38358 0 -22.4161
-1183.23 -0.660151 0 -35.6455
-1575.8 -2.59201 0 -25.3678
-1566.98 2.00108 0 -23.0054
-1935.39 3.28991 0 -9.46794
-1923.5 2.56058 0 -11.5434
-1164.77 3.74582 0 -32.8368
-1177.03 1.90155 0 -34.4722
-1929.63 3.14081 0 -10.5712
-1546.04 4.12046 0 -22.3122
-1170.31 3.37821 0 -33.4356
-1559.56 3.38358 0 -22.4161
-1552.66 3.97941 0 -22.3574
-1923.5 2.56058 0 -11.5434
-1912 1.82879 0 -13.2129
-1154.87 2.76513 0 -32.1743
-1164.77 3.74582 0 -32.8368
-1917.39 2.21482 0 -12.3817
-1534.47 2.82585 0 -22.9262
-1159.83 3.3625 0 -32.4854
-1546.04 4.12046 0 -22.3122
-1539.95 3.63133 0 -22.5146
-1912 1.82879 0 -13.2129
-1901.77 0.836421 0 -14.4951
-1145.95 1.59686 0 -31.7525
-1154.87 2.76513 0 -32.1743
-1906.94 1.30035 0 -13.9655
-1524.44 1.57233 0 -23.532
-1150.13 2.19843 0 -31.9144
-1534.47 2.82585 0 -22.9262
-1529.34 2.13742 0 -23.2923
-1901.77 0.836421 0 -14.4951
-1891.54 0.236464 0 -15.1153
-1138.38 0.506067 0 -31.5221
-1145.95 1.59686 0 -31.7525
-1896.58 0.507968 0 -14.8553
-1515.29 0.540588 0 -23.8984
-1142.11 1.0023 0 -31.6393
-1524.44 1.57233 0 -23.532
-1519.77 1.02853 0 -23.7319
-1891.54 0.236464 0 -15.1153
-1881.54 -0.189308 0 -15.3604
-1131.39 -0.199094 0 -31.3052
-1138.38 0.506067 0 -31.5221
-1886.56 -0.00534876 0 -15.2881
-1506.68 -0.109439 0 -24.0228
-1134.79 0.118768 0 -31.407
-1515.29 0.540588 0 -23.8984
-1510.95 0.167997 0 -23.9954
-1881.54 -0.189308 0 -15.3604
-1871.5 -0.416623 0 -15.3108
-1124.89 -0.650777 0 -31.1049
-1131.39 -0.199094 0 -31.3052
-1876.51 -0.318715 0 -15.3589
-1498.36 -0.508394 0 -23.9726
-1128.12 -0.45812 0 -31.208
-1506.68 -0.109439 0 -24.0228
-1502.49 -0.333396 0 -24.0122
-1871.5 -0.416623 0 -15.3108
-1861.49 -0.544425 0 -15.1121
-1118.6 -0.891584 0 -30.8937
-1124.89 -0.650777 0 -31.1049
-1866.5 -0.492251 0 -15.2277
-1490.18 -0.719701 0 -23.8078
-1121.72 -0.789667 0 -30.9991
-1498.36 -0.508394 0 -23.9726
-1494.26 -0.633461 0 -23.9026
-1861.49 -0.544425 0 -15.1121
-1851.45 -0.601125 0 -14.8213
-1112.46 -1.01423 0 -30.68
-1118.6 -0.891584 0 -30.8937
-1856.46 -0.578451 0 -14.9736
-1482.08 -0.824742 0 -23.5789
-1115.52 -0.965669 0 -30.7879
-1490.18 -0.719701 0 -23.8078
-1486.12 -0.78195 0 -23.6984
-1851.45 -0.601125 0 -14.8213
-1841.4 -0.623029 0 -14.4903
-1106.37 -1.06133 0 -30.4627
-1112.46 -1.01423 0 -30.68
-1846.43 -0.615664 0 -14.6595
-1474.01 -0.865518 0 -23.3158
-1109.4 -1.04417 0 -30.5713
-1482.08 -0.824742 0 -23.5789
-1478.04 -0.851209 0 -23.4505
-1841.4 -0.623029 0 -14.4903
-1831.35 -0.624534 0 -14.1402
-1100.31 -1.07018 0 -30.2459
-1106.37 -1.06133 0 -30.4627
-1836.38 -0.625354 0 -14.3163
-1465.96 -0.873433 0 -23.0381
-1103.34 -1.0695 0 -30.3543
-1474.01 -0.865518 0 -23.3158
-1469.98 -0.87232 0 -23.1778
-1831.35 -0.624534 0 -14.1402
-1821.3 -0.616866 0 -13.7861
-1094.26 -1.05803 0 -30.0307
-1100.31 -1.07018 0 -30.2459
-1826.33 -0.621559 0 -13.9633
-1457.91 -0.864092 0 -22.7557
-1097.28 -1.06578 0 -30.138
-1465.96 -0.873433 0 -23.0381
-1461.93 -0.870271 0 -22.8971
-1821.3 -0.616866 0 -13.7861
-1811.25 -0.604666 0 -13.4336
-1088.22 -1.03651 0 -29.8186
-1094.26 -1.05803 0 -30.0307
-1816.27 -0.611079 0 -13.6093
-1449.86 -0.846999 0 -22.4743
-1091.24 -1.04811 0 -29.9243
-1457.91 -0.864092 0 -22.7557
-1453.88 -0.856159 0 -22.6146
-1811.25 -0.604666 0 -13.4336
-1801.19 -0.590828 0 -13.0861
-1082.18 -1.01068 0 -29.61
-1088.22 -1.03651 0 -29.8186
-1806.22 -0.597877 0 -13.2591
-1441.81 -0.82654 0 -22.1965
-1085.2 -1.02389 0 -29.7138
-1449.86 -0.846999 0 -22.4743
-1445.83 -0.837024 0 -22.3349
-1801.19 -0.590828 0 -13.0861
-1791.13 -0.576467 0 -12.7447
-1076.14 -0.983463 0 -29.4052
-1082.18 -1.01068 0 -29.61
-1796.16 -0.58366 0 -12.9145
-1433.76 -0.805011 0 -21.9234
-1079.16 -0.99717 0 -29.5071
-1441.81 -0.82654 0 -22.1965
-1437.78 -0.815832 0 -22.0593
-1791.13 -0.576467 0 -12.7447
-1781.08 -0.562159 0 -12.4098
-1070.1 -0.955956 0 -29.2043
-1076.14 -0.983463 0 -29.4052
-1786.11 -0.569295 0 -12.5764
-1425.71 -0.783333 0 -21.6555
-1073.12 -0.969698 0 -29.3042
-1433.76 -0.805011 0 -21.9234
-1429.73 -0.79416 0 -21.7888
-1781.08 -0.562159 0 -12.4098
-1771.02 -0.548073 0 -12.0817
-1064.06 -0.928684 0 -29.0074
-1070.1 -0.955956 0 -29.2043
-1776.05 -0.555081 0 -12.2449
-1417.66 -0.761894 0 -21.3928
-1067.08 -0.942282 0 -29.1053
-1425.71 -0.783333 0 -21.6555
-1421.68 -0.772574 0 -21.5235
-1771.02 -0.548073 0 -12.0817
-1760.96 -0.534263 0 -11.7601
-1058.01 -0.901771 0 -28.8143
-1064.06 -0.928684 0 -29.0074
-1765.99 -0.541134 0 -11.92
-1409.61 -0.74079 0 -21.1354
-1061.03 -0.915179 0 -28.9104
-1417.66 -0.761894 0 -21.3928
-1413.63 -0.751299 0 -21.2635
-1760.96 -0.534263 0 -11.7601
-1750.9 -0.520716 0 -11.4449
-1051.97 -0.875235 0 -28.6251
-1058.01 -0.901771 0 -28.8143
-1755.93 -0.527458 0 -11.6017
-1401.56 -0.720022 0 -20.8832
-1054.99 -0.888459 0 -28.7192
-1409.61 -0.74079 0 -21.1354
-1405.58 -0.730366 0 -21.0087
-1750.9 -0.520716 0 -11.4449
-1740.85 -0.50741 0 -11.1361
-1045.93 -0.849037 0 -28.4398
-1051.97 -0.875235 0 -28.6251
-1745.88 -0.514035 0 -11.2897
-1393.51 -0.699555 0 -20.6361
-1048.95 -0.862096 0 -28.532
-1401.56 -0.720022 0 -20.8832
-1397.53 -0.709753 0 -20.759
-1740.85 -0.50741 0 -11.1361
-1730.79 -0.494319 0 -10.8336
-1039.89 -0.823136 0 -28.2581
-1045.93 -0.849037 0 -28.4398
-1735.82 -0.500839 0 -10.9841
-1385.45 -0.679354 0 -20.394
-1042.91 -0.836052 0 -28.3485
-1393.51 -0.699555 0 -20.6361
-1389.48 -0.689424 0 -20.5144
-1730.79 -0.494319 0 -10.8336
-1720.73 -0.481423 0 -10.5374
-1033.84 -0.797497 0 -28.0803
-1039.89 -0.823136 0 -28.2581
-1725.76 -0.487848 0 -10.6847
-1377.4 -0.659389 0 -20.1569
-1036.86 -0.810285 0 -28.1687
-1385.45 -0.679354 0 -20.394
-1381.43 -0.669344 0 -20.2749
-1720.73 -0.481423 0 -10.5374
-1710.67 -0.468708 0 -10.2473
-1027.8 -0.772094 0 -27.9061
-1033.84 -0.797497 0 -28.0803
-1715.7 -0.475044 0 -10.3915
-1369.35 -0.639638 0 -19.9248
-1030.82 -0.784767 0 -27.9927
-1377.4 -0.659389 0 -20.1569
-1373.38 -0.649488 0 -20.0402
-1710.67 -0.468708 0 -10.2473
-1700.61 -0.456161 0 -9.96327
-1021.76 -0.746908 0 -27.7356
-1027.8 -0.772094 0 -27.9061
-1705.64 -0.462414 0 -10.1045
-1361.3 -0.620084 0 -19.6975
-1024.78 -0.759475 0 -27.8204
-1369.35 -0.639638 0 -19.9248
-1365.33 -0.629837 0 -19.8106
-1700.61 -0.456161 0 -9.96327
-1690.56 -0.443775 0 -9.68537
-1015.72 -0.721929 0 -27.5687
-1021.76 -0.746908 0 -27.7356
-1695.58 -0.449949 0 -9.82356
-1353.25 -0.600719 0 -19.4752
-1018.74 -0.734394 0 -27.6517
-1361.3 -0.620084 0 -19.6975
-1357.27 -0.610379 0 -19.5857
-1690.56 -0.443775 0 -9.68537
-1680.5 -0.431544 0 -9.41351
-1009.67 -0.697148 0 -27.4055
-1015.72 -0.721929 0 -27.5687
-1685.53 -0.437641 0 -9.54869
-1345.2 -0.581534 0 -19.2576
-1012.69 -0.709514 0 -27.4866
-1353.25 -0.600719 0 -19.4752
-1349.22 -0.591104 0 -19.3658
-1680.5 -0.431544 0 -9.41351
-1670.44 -0.419461 0 -9.14766
-1003.63 -0.67256 0 -27.2458
-1009.67 -0.697148 0 -27.4055
-1675.47 -0.425484 0 -9.27984
-1337.15 -0.562524 0 -19.0449
-1006.65 -0.68483 0 -27.3252
-1345.2 -0.581534 0 -19.2576
-1341.17 -0.572007 0 -19.1506
-1670.44 -0.419461 0 -9.14766
-1660.38 -0.407523 0 -8.88777
-997.587 -0.648161 0 -27.0898
-1003.63 -0.67256 0 -27.2458
-1665.41 -0.413474 0 -9.01697
-1329.09 -0.543684 0 -18.8369
-1000.61 -0.660337 0 -27.1674
-1337.15 -0.562524 0 -19.0449
-1333.12 -0.553083 0 -18.9403
-1660.38 -0.407523 0 -8.88777
-1650.32 -0.395724 0 -8.63382
-991.544 -0.623947 0 -26.9373
-997.587 -0.648161 0 -27.0898
-1655.35 -0.401606 0 -8.76006
-1321.04 -0.525011 0 -18.6337
-994.565 -0.636031 0 -27.0131
-1329.09 -0.543684 0 -18.8369
-1325.07 -0.534327 0 -18.7347
-1650.32 -0.395724 0 -8.63382
-1640.26 -0.384062 0 -8.38577
-985.501 -0.599916 0 -26.7883
-991.544 -0.623947 0 -26.9373
-1645.29 -0.389876 0 -8.50906
-1312.99 -0.506502 0 -18.4352
-988.522 -0.611909 0 -26.8624
-1321.04 -0.525011 0 -18.6337
-1317.02 -0.515737 0 -18.5338
-1640.26 -0.384062 0 -8.38577
-1630.2 -0.372531 0 -8.14359
-979.458 -0.576067 0 -26.6429
-985.501 -0.599916 0 -26.7883
-1635.23 -0.37828 0 -8.26395
-1304.94 -0.488153 0 -18.2413
-982.479 -0.587969 0 -26.7152
-1312.99 -0.506502 0 -18.4352
-1308.96 -0.497308 0 -18.3377
-1630.2 -0.372531 0 -8.14359
-1620.14 -0.361128 0 -7.90723
-973.415 -0.552396 0 -26.501
-979.458 -0.576067 0 -26.6429
-1625.17 -0.366814 0 -8.02468
-1296.89 -0.469962 0 -18.0522
-976.436 -0.564209 0 -26.5715
-1304.94 -0.488153 0 -18.2413
-1300.91 -0.479038 0 -18.1462
-1620.14 -0.361128 0 -7.90723
-1610.08 -0.349849 0 -7.67666
-967.372 -0.528902 0 -26.3625
-973.415 -0.552396 0 -26.501
-1615.11 -0.355473 0 -7.79122
-1288.83 -0.451925 0 -17.8677
-970.393 -0.540627 0 -26.4313
-1296.89 -0.469962 0 -18.0522
-1292.86 -0.460925 0 -17.9593
-1610.08 -0.349849 0 -7.67666
-1600.02 -0.338691 0 -7.45184
-961.329 -0.505583 0 -26.2275
-967.372 -0.528902 0 -26.3625
-1605.05 -0.344255 0 -7.56353
-1280.78 -0.43404 0 -17.6877
-964.35 -0.517221 0 -26.2945
-1288.83 -0.451925 0 -17.8677
-1284.81 -0.442964 0 -17.7771
-1600.02 -0.338691 0 -7.45184
-1589.96 -0.32765 0 -7.23275
-955.286 -0.482436 0 -26.0959
-961.329 -0.505583 0 -26.2275
-1594.99 -0.333156 0 -7.34159
-1272.73 -0.416304 0 -17.5124
-958.307 -0.493988 0 -26.1613
-1280.78 -0.43404 0 -17.6877
-1276.76 -0.425153 0 -17.5995
-1589.96 -0.32765 0 -7.23275
-1579.9 -0.316722 0 -7.01935
-949.242 -0.45946 0 -25.9677
-955.286 -0.482436 0 -26.0959
-1584.93 -0.322172 0 -7.12534
-1264.68 -0.398713 0 -17.3416
-952.264 -0.470927 0 -26.0314
-1272.73 -0.416304 0 -17.5124
-1268.7 -0.40749 0 -17.4264
-1579.9 -0.316722 0 -7.01935
-1569.84 -0.305903 0 -6.81159
-943.199 -0.436652 0 -25.8429
-949.242 -0.45946 0 -25.9677
-1574.87 -0.311299 0 -6.91476
-1256.62 -0.381266 0 -17.1753
-946.221 -0.448035 0 -25.9049
-1264.68 -0.398713 0 -17.3416
-1260.65 -0.389972 0 -17.2579
-1569.84 -0.305903 0 -6.81159
-1559.78 -0.295191 0 -6.60944
-937.156 -0.41401 0 -25.7215
-943.199 -0.436652 0 -25.8429
-1564.81 -0.300534 0 -6.70981
-1248.57 -0.363959 0 -17.0136
-940.178 -0.42531 0 -25.7818
-1256.62 -0.381266 0 -17.1753
-1252.6 -0.372595 0 -17.0939
-1559.78 -0.295191 0 -6.60944
-1549.72 -0.284582 0 -6.41287
-931.113 -0.391533 0 -25.6034
-937.156 -0.41401 0 -25.7215
-1554.75 -0.289874 0 -6.51046
-1240.52 -0.346789 0 -16.8562
-934.135 -0.402751 0 -25.6621
-1248.57 -0.363959 0 -17.0136
-1244.55 -0.355357 0 -16.9343
-1549.72 -0.284582 0 -6.41287
-1539.66 -0.274071 0 -6.22185
-925.07 -0.369219 0 -25.4887
-931.113 -0.391533 0 -25.6034
-1544.69 -0.279314 0 -6.31667
-1232.47 -0.329755 0 -16.7033
-928.091 -0.380356 0 -25.5457
-1240.52 -0.346789 0 -16.8562
-1236.49 -0.338255 0 -16.7792
-1539.66 -0.274071 0 -6.22185
-1529.6 -0.263657 0 -6.03632
-919.027 -0.347065 0 -25.3773
-925.07 -0.369219 0 -25.4887
-1534.63 -0.268852 0 -6.1284
-1224.41 -0.312852 0 -16.5549
-922.048 -0.358122 0 -25.4326
-1232.47 -0.329755 0 -16.7033
-1228.44 -0.321287 0 -16.6286
-1529.6 -0.263657 0 -6.03632
-1519.54 -0.253336 0 -5.85627
-912.983 -0.325069 0 -25.2691
-919.027 -0.347065 0 -25.3773
-1524.57 -0.258485 0 -5.94562
-1216.36 -0.29608 0 -16.4108
-916.005 -0.336047 0 -25.3228
-1224.41 -0.312852 0 -16.5549
-1220.39 -0.30445 0 -16.4823
-1519.54 -0.253336 0 -5.85627
-1509.48 -0.243104 0 -5.68165
-906.94 -0.303231 0 -25.1642
-912.983 -0.325069 0 -25.2691
-1514.51 -0.248209 0 -5.76828
-1208.31 -0.279435 0 -16.271
-909.962 -0.31413 0 -25.2162
-1216.36 -0.29608 0 -16.4108
-1212.33 -0.287742 0 -16.3403
-1509.48 -0.243104 0 -5.68165
-1499.42 -0.232959 0 -5.51243
-900.897 -0.281547 0 -25.0625
-906.94 -0.303231 0 -25.1642
-1504.45 -0.238021 0 -5.59637
-1200.26 -0.262914 0 -16.1356
-903.919 -0.292369 0 -25.113
-1208.31 -0.279435 0 -16.271
-1204.28 -0.271159 0 -16.2027
-1499.42 -0.232959 0 -5.51243
-1489.36 -0.222897 0 -5.34857
-894.854 -0.260016 0 -24.9641
-900.897 -0.281547 0 -25.0625
-1494.39 -0.227918 0 -5.42983
-1192.2 -0.246516 0 -16.0044
-897.875 -0.270762 0 -25.0129
-1200.26 -0.262914 0 -16.1356
-1196.23 -0.2547 0 -16.0694
-1489.36 -0.222897 0 -5.34857
-1479.3 -0.212916 0 -5.19004
-888.811 -0.238636 0 -24.8688
-894.854 -0.260016 0 -24.9641
-1484.33 -0.217896 0 -5.26864
-1184.15 -0.230238 0 -15.8775
-891.832 -0.249307 0 -24.9161
-1192.2 -0.246516 0 -16.0044
-1188.18 -0.238362 0 -15.9404
-1479.3 -0.212916 0 -5.19004
-1469.24 -0.203012 0 -5.03679
-882.767 -0.217407 0 -24.7768
-888.811 -0.238636 0 -24.8688
-1474.27 -0.207954 0 -5.11275
-1176.1 -0.214077 0 -15.7548
-885.789 -0.228003 0 -24.8224
-1184.15 -0.230238 0 -15.8775
-1180.12 -0.222143 0 -15.8157
-1469.24 -0.203012 0 -5.03679
-1459.18 -0.193183 0 -4.8888
-876.724 -0.196325 0 -24.6878
-882.767 -0.217407 0 -24.7768
-1464.21 -0.198088 0 -4.96214
-1168.04 -0.198032 0 -15.6364
-879.746 -0.206847 0 -24.7319
-1176.1 -0.214077 0 -15.7548
-1172.07 -0.20604 0 -15.6951
-1459.18 -0.193183 0 -4.8888
-1449.11 -0.183425 0 -4.74603
-870.681 -0.175389 0 -24.602
-876.724 -0.196325 0 -24.6878
-1454.14 -0.188295 0 -4.81676
-1159.99 -0.1821 0 -15.5221
-873.703 -0.185839 0 -24.6446
-1168.04 -0.198032 0 -15.6364
-1164.02 -0.190052 0 -15.5787
-1449.11 -0.183425 0 -4.74603
-1439.05 -0.173737 0 -4.60844
-864.638 -0.154598 0 -24.5194
-870.681 -0.175389 0 -24.602
-1444.08 -0.178572 0 -4.67659
-1151.94 -0.166278 0 -15.412
-867.659 -0.164975 0 -24.5603
-1159.99 -0.1821 0 -15.5221
-1155.97 -0.174175 0 -15.4665
-1439.05 -0.173737 0 -4.60844
-1428.99 -0.164115 0 -4.47599
-858.595 -0.133949 0 -24.4398
-864.638 -0.154598 0 -24.5194
-1434.02 -0.168918 0 -4.54157
-1143.89 -0.150566 0 -15.306
-861.616 -0.144256 0 -24.4792
-1151.94 -0.166278 0 -15.412
-1147.91 -0.158409 0 -15.3585
-1428.99 -0.164115 0 -4.47599
-1418.93 -0.154557 0 -4.34866
-852.552 -0.113443 0 -24.3632
-858.595 -0.133949 0 -24.4398
-1423.96 -0.159328 0 -4.41169
-1135.83 -0.13496 0 -15.204
-855.573 -0.123679 0 -24.4011
-1143.89 -0.150566 0 -15.306
-1139.86 -0.142749 0 -15.2545
-1418.93 -0.154557 0 -4.34866
-1408.87 -0.14506 0 -4.22639
-846.508 -0.093076 0 -24.2898
-852.552 -0.113443 0 -24.3632
-1413.9 -0.149801 0 -4.28689
-1127.78 -0.119458 0 -15.1062
-849.53 -0.103242 0 -24.3261
-1135.83 -0.13496 0 -15.204
-1131.81 -0.127196 0 -15.1546
-1408.87 -0.14506 0 -4.22639
-1398.81 -0.135621 0 -4.10917
-840.465 -0.0728477 0 -24.2193
-846.508 -0.093076 0 -24.2898
-1403.84 -0.140333 0 -4.16716
-1119.73 -0.10406 0 -15.0123
-843.487 -0.0829446 0 -24.2542
-1127.78 -0.119458 0 -15.1062
-1123.75 -0.111746 0 -15.0587
-1398.81 -0.135621 0 -4.10917
-1388.75 -0.126239 0 -3.99695
-834.422 -0.0527564 0 -24.1518
-840.465 -0.0728477 0 -24.2193
-1393.78 -0.130924 0 -4.05244
-1111.67 -0.0887616 0 -14.9225
-837.444 -0.062785 0 -24.1852
-1119.73 -0.10406 0 -15.0123
-1115.7 -0.0963982 0 -14.9669
-1388.75 -0.126239 0 -3.99695
-1378.69 -0.116911 0 -3.8897
-828.379 -0.0328008 0 -24.0874
-834.422 -0.0527564 0 -24.1518
-1383.72 -0.121569 0 -3.94271
-1103.62 -0.0735624 0 -14.8366
-831.401 -0.0427618 0 -24.1192
-1111.67 -0.0887616 0 -14.9225
-1107.65 -0.0811498 0 -14.879
-1378.69 -0.116911 0 -3.8897
-1368.62 -0.107635 0 -3.78737
-822.336 -0.0129794 0 -24.0258
-828.379 -0.0328008 0 -24.0874
-1373.66 -0.112267 0 -3.83792
-1095.57 -0.0584602 0 -14.7547
-825.358 -0.0228734 0 -24.0562
-1103.62 -0.0735624 0 -14.8366
-1099.59 -0.0659993 0 -14.7952
-1368.62 -0.107635 0 -3.78737
-1358.56 -0.0984076 0 -3.68995
-816.293 0.00670905 0 -23.9673
-822.336 -0.0129794 0 -24.0258
-1363.59 -0.103015 0 -3.73805
-1087.52 -0.0434531 0 -14.6767
-819.315 -0.00311865 0 -23.9962
-1095.57 -0.0584602 0 -14.7547
-1091.54 -0.0509448 0 -14.7152
-1358.56 -0.0984076 0 -3.68995
-1348.5 -0.0892274 0 -3.59738
-810.25 0.0262659 0 -23.9116
-816.293 0.00670905 0 -23.9673
-1353.53 -0.0938118 0 -3.64306
-1079.46 -0.0285394 0 -14.6026
-813.272 0.0165038 0 -23.9391
-1087.52 -0.0434531 0 -14.6767
-1083.49 -0.0359847 0 -14.6391
-1348.5 -0.0892274 0 -3.59738
-1338.44 -0.0800922 0 -3.50963
-804.207 0.0456924 0 -23.8588
-810.25 0.0262659 0 -23.9116
-1343.47 -0.0846543 0 -3.5529
-1071.41 -0.0137174 0 -14.5323
-807.229 0.0359954 0 -23.8848
-1079.46 -0.0285394 0 -14.6026
-1075.44 -0.021117 0 -14.567
-1338.44 -0.0800922 0 -3.50963
-1328.38 -0.0709998 0 -3.42667
-798.164 0.0649898 0 -23.8089
-804.207 0.0456924 0 -23.8588
-1333.41 -0.0755407 0 -3.46755
-1063.36 0.00101463 0 -14.4659
-801.186 0.0553571 0 -23.8335
-1071.41 -0.0137174 0 -14.5323
-1067.38 -0.00634021 0 -14.4986
-1328.38 -0.0709998 0 -3.42667
-1318.32 -0.0619481 0 -3.34846
-792.121 0.0841592 0 -23.7619
-798.164 0.0649898 0 -23.8089
-1323.35 -0.066469 0 -3.38697
-1055.3 0.0156582 0 -14.4033
-795.143 0.0745904 0 -23.785
-1063.36 0.00101463 0 -14.4659
-1059.33 0.00834738 0 -14.4341
-1318.32 -0.0619481 0 -3.34846
-1308.26 -0.0529353 0 -3.27496
-786.079 0.103202 0 -23.7176
-792.121 0.0841592 0 -23.7619
-1313.29 -0.057437 0 -3.31112
-1047.25 0.030215 0 -14.3444
-789.1 0.0936963 0 -23.7394
-1055.3 0.0156582 0 -14.4033
-1051.28 0.0229474 0 -14.3734
-1308.26 -0.0529353 0 -3.27496
-1298.19 -0.0439594 0 -3.20614
-780.036 0.122119 0 -23.6762
-786.079 0.103202 0 -23.7176
-1303.22 -0.0484429 0 -3.23997
-1039.2 0.0446864 0 -14.2893
-783.057 0.112676 0 -23.6966
-1047.25 0.030215 0 -14.3444
-1043.22 0.0374613 0 -14.3164
-1298.19 -0.0439594 0 -3.20614
-1288.13 -0.0350185 0 -3.14197
-773.993 0.140912 0 -23.6376
-780.036 0.122119 0 -23.6762
-1293.16 -0.0394847 0 -3.17348
-1031.15 0.0590741 0 -14.2379
-777.014 0.131531 0 -23.6566
-1039.2 0.0446864 0 -14.2893
-1035.17 0.0518906 0 -14.2631
-1288.13 -0.0350185 0 -3.14197
-1278.07 -0.0261108 0 -3.0824
-767.95 0.159581 0 -23.6017
-773.993 0.140912 0 -23.6376
-1283.1 -0.0305606 0 -3.11161
-1023.09 0.0733793 0 -14.1902
-770.972 0.150261 0 -23.6193
-1031.15 0.0590741 0 -14.2379
-1027.12 0.0662369 0 -14.2136
-1278.07 -0.0261108 0 -3.0824
-1268.01 -0.0172345 0 -3.02741
-761.907 0.178127 0 -23.5686
-767.95 0.159581 0 -23.6017
-1273.04 -0.0216688 0 -3.05433
-1015.04 0.0876036 0 -14.1461
-764.929 0.168869 0 -23.5848
-1023.09 0.0733793 0 -14.1902
-1019.07 0.0805015 0 -14.1677
-1268.01 -0.0172345 0 -3.02741
-1257.95 -0.00838795 0 -2.97694
-755.865 0.196553 0 -23.5382
-761.907 0.178127 0 -23.5686
-1262.98 -0.0128076 0 -3.00161
-1006.99 0.101748 0 -14.1057
-758.886 0.187355 0 -23.5531
-1015.04 0.0876036 0 -14.1461
-1011.01 0.0946858 0 -14.1255
-1257.95 -0.00838795 0 -2.97694
-1247.89 0.000430531 0 -2.93098
-749.822 0.214857 0 -23.5105
-755.865 0.196553 0 -23.5382
-1252.92 -0.0039753 0 -2.9534
-998.934 0.115815 0 -14.0689
-752.843 0.20572 0 -23.524
-1006.99 0.101748 0 -14.1057
-1002.96 0.108791 0 -14.0868
-1247.89 0.000430525 0 -2.93098
-1237.82 0.00922253 0 -2.88948
-743.78 0.233043 0 -23.4855
-749.822 0.214857 0 -23.5105
-1242.86 0.00482974 0 -2.90968
-990.881 0.129804 0 -14.0356
-746.801 0.223965 0 -23.4977
-998.934 0.115815 0 -14.0689
-994.908 0.122819 0 -14.0518
-1237.82 0.00922253 0 -2.88948
-1227.76 0.0179896 0 -2.85241
-737.737 0.25111 0 -23.4631
-743.78 0.233043 0 -23.4855
-1232.79 0.0136091 0 -2.8704
-982.829 0.143718 0 -14.0059
-740.758 0.242091 0 -23.474
-990.881 0.129804 0 -14.0356
-986.855 0.13677 0 -14.0203
-1227.76 0.0179896 0 -2.85241
-1217.7 0.0267333 0 -2.81973
-731.694 0.269058 0 -23.4434
-737.737 0.25111 0 -23.4631
-1222.73 0.0223643 0 -2.83553
-974.776 0.157556 0 -13.9797
-734.716 0.260099 0 -23.4529
-982.829 0.143718 0 -14.0059
-978.802 0.150646 0 -13.9924
-1217.7 0.0267333 0 -2.81973
-1207.64 0.0354549 0 -2.79141
-725.652 0.286891 0 -23.4263
-731.694 0.269058 0 -23.4434
-1212.67 0.0310968 0 -2.80503
-966.723 0.171322 0 -13.957
-728.673 0.277989 0 -23.4345
-974.776 0.157556 0 -13.9797
-970.749 0.164448 0 -13.9679
-1207.64 0.0354549 0 -2.79141
-1197.58 0.044156 0 -2.7674
-719.61 0.304607 0 -23.4118
-725.652 0.286891 0 -23.4263
-1202.61 0.039808 0 -2.77887
-958.67 0.185015 0 -13.9377
-722.631 0.295763 0 -23.4187
-966.723 0.171322 0 -13.957
-962.697 0.178177 0 -13.9469
-1197.58 0.044156 0 -2.7674
-1187.52 0.0528378 0 -2.74768
-713.567 0.322207 0 -23.3998
-719.61 0.304607 0 -23.4118
-1192.55 0.0484992 0 -2.75701
-950.618 0.198637 0 -13.9219
-716.588 0.313421 0 -23.4055
-958.67 0.185015 0 -13.9377
-954.644 0.191835 0 -13.9294
-1187.52 0.0528378 0 -2.74768
-1177.45 0.0615017 0 -2.7322
-707.525 0.339694 0 -23.3904
-713.567 0.322207 0 -23.3998
-1182.49 0.0571719 0 -2.73941
-942.565 0.212188 0 -13.9095
-710.546 0.330965 0 -23.3948
-950.618 0.198637 0 -13.9219
-946.591 0.205421 0 -13.9153
-1177.45 0.0615017 0 -2.7322
-1167.39 0.0701488 0 -2.72094
-701.482 0.357066 0 -23.3835
-707.525 0.339694 0 -23.3904
-1172.42 0.0658273 0 -2.72605
-934.513 0.22567 0 -13.9004
-704.504 0.348394 0 -23.3867
-942.565 0.212188 0 -13.9095
-938.539 0.218938 0 -13.9045
-1167.39 0.0701489 0 -2.72094
-1157.33 0.0787805 0 -2.71385
-695.44 0.374325 0 -23.3792
-701.482 0.357066 0 -23.3835
-1162.36 0.0744665 0 -2.71687
-926.46 0.239084 0 -13.8947
-698.461 0.36571 0 -23.381
-934.513 0.22567 0 -13.9004
-930.486 0.232385 0 -13.8971
-1157.33 0.0787805 0 -2.71385
-1147.27 0.0873977 0 -2.7109
-689.398 0.391472 0 -23.3773
-695.44 0.374325 0 -23.3792
-1152.3 0.0830908 0 -2.71186
-918.408 0.25243 0 -13.8923
-692.419 0.382913 0 -23.3779
-926.46 0.239084 0 -13.8947
-922.434 0.245765 0 -13.8931
-1147.27 0.0873977 0 -2.7109
-1137.21 0.0960017 0 -2.71206
-683.356 0.408507 0 -23.3779
-689.398 0.391472 0 -23.3773
-1142.24 0.0917013 0 -2.71097
-910.355 0.26571 0 -13.8931
-686.377 0.400004 0 -23.3773
-918.408 0.25243 0 -13.8923
-914.381 0.259078 0 -13.8923
-1137.21 0.0960017 0 -2.71206
-1127.15 0.104593 0 -2.71728
-677.314 0.425431 0 -23.3809
-683.356 0.408507 0 -23.3779
-1132.18 0.100299 0 -2.71416
-902.303 0.278924 0 -13.8973
-680.335 0.416983 0 -23.3791
-910.355 0.26571 0 -13.8931
-906.329 0.272325 0 -13.8948
-1127.15 0.104593 0 -2.71728
-1117.08 0.113174 0 -2.72653
-671.272 0.442245 0 -23.3863
-677.314 0.425431 0 -23.3809
-1122.12 0.108885 0 -2.7214
-894.25 0.292073 0 -13.9046
-674.293 0.433852 0 -23.3833
-902.303 0.278924 0 -13.8973
-898.276 0.285506 0 -13.9005
-1117.08 0.113174 0 -2.72653
-1107.02 0.121744 0 -2.73978
-665.23 0.458948 0 -23.3942
-671.272 0.442245 0 -23.3863
-1112.05 0.11746 0 -2.73266
-886.198 0.305157 0 -13.9152
-668.251 0.45061 0 -23.39
-894.25 0.292073 0 -13.9046
-890.224 0.298623 0 -13.9095
-1107.02 0.121744 0 -2.73978
-1096.96 0.130305 0 -2.75699
-659.188 0.475541 0 -23.4044
-665.23 0.458948 0 -23.3942
-1101.99 0.126026 0 -2.74789
-878.145 0.318179 0 -13.9289
-662.209 0.467258 0 -23.399
-886.198 0.305157 0 -13.9152
-882.172 0.311676 0 -13.9216
-1096.96 0.130305 0 -2.75699
-1086.9 0.138857 0 -2.77812
-653.146 0.492026 0 -23.417
-659.188 0.475541 0 -23.4044
-1091.93 0.134582 0 -2.76707
-870.093 0.331137 0 -13.9458
-656.167 0.483797 0 -23.4104
-878.145 0.318179 0 -13.9289
-874.119 0.324666 0 -13.9369
-1086.9 0.138857 0 -2.77812
-1076.84 0.147402 0 -2.80315
-647.104 0.508402 0 -23.4319
-653.146 0.492026 0 -23.417
-1081.87 0.14313 0 -2.79015
-862.041 0.344033 0 -13.9657
-650.125 0.500227 0 -23.4241
-870.093 0.331137 0 -13.9458
-866.067 0.337593 0 -13.9553
-1076.84 0.147402 0 -2.80315
-1066.78 0.155939 0 -2.83202
-641.062 0.52467 0 -23.4491
-647.104 0.508402 0 -23.4319
-1071.81 0.151671 0 -2.8171
-853.989 0.356868 0 -13.9888
-644.083 0.516549 0 -23.4402
-862.041 0.344033 0 -13.9657
-858.015 0.350458 0 -13.9769
-1066.78 0.155939 0 -2.83202
-1056.72 0.16447 0 -2.86471
-635.02 0.54083 0 -23.4686
-641.062 0.52467 0 -23.4491
-1061.75 0.160205 0 -2.84789
-845.936 0.369641 0 -14.0149
-638.041 0.532763 0 -23.4585
-853.989 0.356868 0 -13.9888
-849.963 0.363262 0 -14.0014
-1056.72 0.16447 0 -2.86471
-1046.65 0.172996 0 -2.90118
-628.979 0.556883 0 -23.4904
-635.02 0.54083 0 -23.4686
-1051.68 0.168734 0 -2.88247
-837.884 0.382354 0 -14.044
-632 0.54887 0 -23.4792
-845.936 0.369641 0 -14.0149
-841.91 0.376005 0 -14.0291
-1046.65 0.172996 0 -2.90118
-1036.59 0.181517 0 -2.94139
-622.937 0.572828 0 -23.5144
-628.979 0.556883 0 -23.4904
-1041.62 0.177257 0 -2.92082
-829.832 0.395007 0 -14.0761
-625.958 0.564869 0 -23.5021
-837.884 0.382354 0 -14.044
-833.858 0.388688 0 -14.0597
-1036.59 0.181517 0 -2.94139
-1026.53 0.190033 0 -2.98531
-616.895 0.588667 0 -23.5406
-622.937 0.572828 0 -23.5144
-1031.56 0.185776 0 -2.96289
-821.78 0.4076 0 -14.1112
-619.916 0.580761 0 -23.5272
-829.832 0.395007 0 -14.0761
-825.806 0.401311 0 -14.0933
-1026.53 0.190033 0 -2.98531
-1016.47 0.198546 0 -3.0329
-610.854 0.6044 0 -23.5691
-616.895 0.588667 0 -23.5406
-1021.5 0.19429 0 -3.00865
-813.728 0.420135 0 -14.1492
-613.875 0.596547 0 -23.5546
-821.78 0.4076 0 -14.1112
-817.754 0.413875 0 -14.1299
-1016.47 0.198546 0 -3.0329
-1006.41 0.207055 0 -3.08413
-604.813 0.620027 0 -23.5997
-610.854 0.6044 0 -23.5691
-1011.44 0.202801 0 -3.05806
-805.676 0.43261 0 -14.1902
-607.833 0.612227 0 -23.5841
-813.728 0.420135 0 -14.1492
-809.702 0.42638 0 -14.1694
-1006.41 0.207055 0 -3.08413
-996.347 0.215561 0 -3.13896
-598.771 0.635548 0 -23.6325
-604.813 0.620027 0 -23.5997
-1001.38 0.211309 0 -3.1111
-797.624 0.445027 0 -14.234
-601.792 0.6278 0 -23.6158
-805.676 0.43261 0 -14.1902
-801.65 0.438826 0 -14.2117
-996.347 0.215561 0 -3.13896
-986.285 0.224065 0 -3.19735
-592.73 0.650963 0 -23.6674
-598.771 0.635548 0 -23.6325
-991.316 0.219814 0 -3.16771
-789.572 0.457386 0 -14.2807
-595.75 0.643268 0 -23.6497
-797.624 0.445027 0 -14.234
-793.598 0.451214 0 -14.257
-986.285 0.224065 0 -3.19735
-976.224 0.232567 0 -3.25927
-586.688 0.666273 0 -23.7045
-592.73 0.650963 0 -23.6674
-981.255 0.228317 0 -3.22788
-781.52 0.469688 0 -14.3302
-589.709 0.658631 0 -23.6857
-789.572 0.457386 0 -14.2807
-785.546 0.463544 0 -14.3051
-976.224 0.232567 0 -3.25927
-966.163 0.241067 0 -3.32469
-580.647 0.681477 0 -23.7436
-586.688 0.666273 0 -23.7045
-971.193 0.236817 0 -3.29155
-773.469 0.481931 0 -14.3825
-583.668 0.673888 0 -23.7238
-781.52 0.469688 0 -14.3302
-777.494 0.475817 0 -14.356
-966.163 0.241067 0 -3.32469
-956.101 0.249566 0 -3.39356
-574.606 0.696577 0 -23.7849
-580.647 0.681477 0 -23.7436
-961.132 0.245317 0 -3.35869
-765.417 0.494118 0 -14.4375
-577.627 0.68904 0 -23.764
-773.469 0.481931 0 -14.3825
-769.443 0.488032 0 -14.4096
-956.101 0.249566 0 -3.39356
-946.04 0.258063 0 -3.46585
-568.565 0.711572 0 -23.8281
-574.606 0.696577 0 -23.7849
-951.071 0.253815 0 -3.42928
-757.365 0.506247 0 -14.4953
-571.585 0.704087 0 -23.8062
-765.417 0.494118 0 -14.4375
-761.391 0.500189 0 -14.4661
-946.04 0.258063 0 -3.46585
-935.979 0.26656 0 -3.54152
-562.524 0.726461 0 -23.8735
-568.565 0.711572 0 -23.8281
-941.009 0.262312 0 -3.50327
-749.313 0.518319 0 -14.5558
-565.544 0.71903 0 -23.8505
-757.365 0.506247 0 -14.4953
-753.339 0.51229 0 -14.5252
-935.979 0.26656 0 -3.54152
-925.917 0.275055 0 -3.62055
-556.483 0.741247 0 -23.9208
-562.524 0.726461 0 -23.8735
-930.948 0.270807 0 -3.58062
-741.262 0.530335 0 -14.619
-559.503 0.733867 0 -23.8969
-749.313 0.518319 0 -14.5558
-745.288 0.524334 0 -14.5871
-925.917 0.275055 0 -3.62055
-915.856 0.28355 0 -3.70288
-550.442 0.755927 0 -23.9701
-556.483 0.741247 0 -23.9208
-920.887 0.279303 0 -3.6613
-733.21 0.542293 0 -14.6848
-553.462 0.7486 0 -23.9452
-741.262 0.530335 0 -14.619
-737.236 0.536321 0 -14.6516
-915.856 0.28355 0 -3.70288
-905.795 0.292044 0 -3.78849
-544.401 0.770503 0 -24.0214
-550.442 0.755927 0 -23.9701
-910.825 0.287797 0 -3.74528
-725.159 0.554196 0 -14.7533
-547.421 0.763228 0 -23.9955
-733.21 0.542293 0 -14.6848
-729.184 0.548252 0 -14.7187
-905.795 0.292044 0 -3.78849
-895.733 0.300538 0 -3.87735
-538.36 0.784974 0 -24.0746
-544.401 0.770503 0 -24.0214
-900.764 0.296291 0 -3.83252
-717.107 0.566041 0 -14.8243
-541.38 0.777752 0 -24.0477
-725.159 0.554196 0 -14.7533
-721.133 0.560125 0 -14.7885
-895.733 0.300538 0 -3.87735
-885.672 0.309031 0 -3.96941
-532.319 0.799341 0 -24.1297
-538.36 0.784974 0 -24.0746
-890.703 0.304784 0 -3.92298
-709.056 0.57783 0 -14.8979
-535.34 0.792171 0 -24.1019
-717.107 0.566041 0 -14.8243
-713.081 0.571942 0 -14.8608
-885.672 0.309031 0 -3.96941
-875.611 0.317523 0 -4.06463
-526.279 0.813603 0 -24.1868
-532.319 0.799341 0 -24.1297
-880.642 0.313277 0 -4.01662
-701.004 0.589562 0 -14.9741
-529.299 0.806485 0 -24.158
-709.056 0.57783 0 -14.8979
-705.03 0.583703 0 -14.9357
-875.611 0.317523 0 -4.06463
-865.55 0.326015 0 -4.16299
-520.238 0.82776 0 -24.2457
-526.279 0.813603 0 -24.1868
-870.58 0.321769 0 -4.11342
-692.953 0.601237 0 -15.0527
-523.258 0.820694 0 -24.216
-701.004 0.589562 0 -14.9741
-696.978 0.595407 0 -15.0131
-865.55 0.326015 0 -4.16299
-855.489 0.334506 0 -4.26445
-514.197 0.841812 0 -24.3065
-520.238 0.82776 0 -24.2457
-860.519 0.33026 0 -4.21333
-684.901 0.612856 0 -15.1338
-517.218 0.834799 0 -24.2759
-692.953 0.601237 0 -15.0527
-688.927 0.607053 0 -15.093
-855.489 0.334506 0 -4.26445
-845.428 0.342996 0 -4.36896
-508.157 0.85576 0 -24.3691
-514.197 0.841812 0 -24.3065
-850.458 0.338751 0 -4.31632
-676.85 0.624417 0 -15.2174
-511.177 0.848799 0 -24.3376
-684.901 0.612856 0 -15.1338
-680.876 0.618644 0 -15.1753
-845.428 0.342996 0 -4.36896
-835.367 0.351485 0 -4.4765
-502.116 0.869603 0 -24.4335
-508.157 0.85576 0 -24.3691
-840.397 0.34724 0 -4.42236
-668.799 0.635922 0 -15.3034
-505.136 0.862694 0 -24.4011
-676.85 0.624417 0 -15.2174
-672.825 0.630177 0 -15.2601
-835.367 0.351485 0 -4.4765
-825.305 0.359972 0 -4.58703
-496.076 0.88334 0 -24.4998
-502.116 0.869603 0 -24.4335
-830.336 0.355729 0 -4.5314
-660.748 0.647369 0 -15.3918
-499.096 0.876484 0 -24.4664
-668.799 0.635922 0 -15.3034
-664.773 0.641652 0 -15.3473
-825.305 0.359972 0 -4.58703
-815.244 0.368458 0 -4.70052
-490.035 0.896972 0 -24.5678
-496.076 0.88334 0 -24.4998
-820.275 0.364215 0 -4.64341
-652.697 0.658759 0 -15.4826
-493.056 0.890169 0 -24.5336
-660.748 0.647369 0 -15.3918
-656.722 0.653071 0 -15.4369
-815.244 0.368458 0 -4.70052
-805.183 0.376943 0 -4.81692
-483.995 0.910499 0 -24.6375
-490.035 0.896972 0 -24.5678
-810.214 0.372701 0 -4.75835
-644.645 0.670091 0 -15.5756
-487.015 0.903749 0 -24.6024
-652.697 0.658759 0 -15.4826
-648.671 0.664432 0 -15.5288
-805.183 0.376943 0 -4.81692
-795.122 0.385425 0 -4.9362
-477.955 0.92392 0 -24.709
-483.995 0.910499 0 -24.6375
-800.153 0.381184 0 -4.8762
-636.594 0.681365 0 -15.671
-480.975 0.917223 0 -24.6731
-644.645 0.670091 0 -15.5756
-640.62 0.675735 0 -15.6231
-795.122 0.385425 0 -4.9362
-785.061 0.393905 0 -5.05832
-471.915 0.937235 0 -24.7822
-477.955 0.92392 0 -24.709
-790.092 0.389665 0 -4.99691
-628.543 0.692581 0 -15.7687
-474.935 0.930591 0 -24.7454
-636.594 0.681365 0 -15.671
-632.569 0.68698 0 -15.7196
-785.061 0.393905 0 -5.05832
-775 0.402382 0 -5.18326
-465.874 0.950444 0 -24.8571
-471.915 0.937235 0 -24.7822
-780.031 0.398143 0 -5.12044
-620.492 0.703738 0 -15.8686
-468.895 0.943853 0 -24.8195
-628.543 0.692581 0 -15.7687
-624.518 0.698167 0 -15.8184
-775 0.402382 0 -5.18326
-764.939 0.410855 0 -5.31096
-459.834 0.963546 0 -24.9337
-465.874 0.950444 0 -24.8571
-769.97 0.406619 0 -5.24677
-612.441 0.714837 0 -15.9708
-462.854 0.957008 0 -24.8952
-620.492 0.703738 0 -15.8686
-616.467 0.709295 0 -15.9194
-764.939 0.410855 0 -5.31096
-754.878 0.419325 0 -5.44141
-453.794 0.976542 0 -25.0118
-459.834 0.963546 0 -24.9337
-759.909 0.415091 0 -5.37585
-604.39 0.725876 0 -16.0751
-456.814 0.970058 0 -24.9725
-612.441 0.714837 0 -15.9708
-608.416 0.720364 0 -16.0227
-754.878 0.419325 0 -5.44141
-744.817 0.427791 0 -5.57456
-447.754 0.989431 0 -25.0917
-453.794 0.976542 0 -25.0118
-749.848 0.423559 0 -5.50765
-596.34 0.736855 0 -16.1816
-450.774 0.983 0 -25.0515
-604.39 0.725876 0 -16.0751
-600.365 0.731373 0 -16.1281
-744.817 0.427791 0 -5.57456
-734.756 0.436252 0 -5.71037
-441.714 1.00221 0 -25.1731
-447.754 0.989431 0 -25.0917
-739.787 0.432022 0 -5.64213
-588.289 0.747775 0 -16.2902
-444.734 0.995835 0 -25.1322
-596.34 0.736855 0 -16.1816
-592.314 0.742323 0 -16.2356
-734.756 0.436252 0 -5.71037
-724.695 0.444708 0 -5.84881
-435.674 1.01489 0 -25.2561
-441.714 1.00221 0 -25.1731
-729.726 0.440481 0 -5.77926
-580.238 0.758634 0 -16.4009
-438.694 1.00856 0 -25.2144
-588.289 0.747775 0 -16.2902
-584.263 0.753212 0 -16.3453
-724.695 0.444708 0 -5.84881
-714.635 0.453158 0 -5.98984
-429.635 1.02745 0 -25.3406
-435.674 1.01489 0 -25.2561
-719.665 0.448934 0 -5.919
-572.187 0.769432 0 -16.5137
-432.655 1.02118 0 -25.2981
-580.238 0.758634 0 -16.4009
-576.213 0.764041 0 -16.4571
-714.635 0.453158 0 -5.98984
-704.574 0.461602 0 -6.13344
-423.595 1.03991 0 -25.4267
-429.635 1.02745 0 -25.3406
-709.604 0.457381 0 -6.06132
-564.137 0.780169 0 -16.6286
-426.615 1.03369 0 -25.3835
-572.187 0.769432 0 -16.5137
-568.162 0.774808 0 -16.5709
-704.574 0.461602 0 -6.13344
-694.513 0.470038 0 -6.27955
-417.555 1.05226 0 -25.5143
-423.595 1.03991 0 -25.4267
-699.543 0.465821 0 -6.20618
-556.086 0.790843 0 -16.7454
-420.575 1.0461 0 -25.4703
-564.137 0.780169 0 -16.6286
-560.111 0.785514 0 -16.6868
-694.513 0.470038 0 -6.27955
-684.452 0.478467 0 -6.42815
-411.515 1.0645 0 -25.6034
-417.555 1.05226 0 -25.5143
-689.482 0.474254 0 -6.35354
-548.035 0.801456 0 -16.8643
-414.535 1.05839 0 -25.5587
-556.086 0.790843 0 -16.7454
-552.061 0.796157 0 -16.8046
-684.452 0.478467 0 -6.42815
-674.391 0.486888 0 -6.5792
-405.476 1.07663 0 -25.694
-411.515 1.0645 0 -25.6034
-679.421 0.482678 0 -6.50337
-539.985 0.812005 0 -16.9851
-408.496 1.07058 0 -25.6485
-548.035 0.801456 0 -16.8643
-544.01 0.806738 0 -16.9245
-674.391 0.486888 0 -6.5792
-664.33 0.495299 0 -6.73266
-399.436 1.08865 0 -25.786
-405.476 1.07663 0 -25.694
-669.361 0.491095 0 -6.65563
-531.934 0.822491 0 -17.1079
-402.456 1.08265 0 -25.7398
-539.985 0.812005 0 -16.9851
-535.959 0.817256 0 -17.0463
-664.33 0.495299 0 -6.73266
-654.269 0.503701 0 -6.8885
-393.397 1.10056 0 -25.8794
-399.436 1.08865 0 -25.786
-659.3 0.499501 0 -6.81028
-523.884 0.832912 0 -17.2325
-396.417 1.09462 0 -25.8325
-531.934 0.822491 0 -17.1079
-527.909 0.827709 0 -17.17
-654.269 0.503701 0 -6.8885
-644.209 0.512092 0 -7.04668
-387.357 1.11236 0 -25.9743
-393.397 1.10056 0 -25.8794
-649.239 0.507898 0 -6.9673
-515.833 0.843268 0 -17.359
-390.377 1.10647 0 -25.9267
-523.884 0.832912 0 -17.2325
-519.858 0.838098 0 -17.2955
-644.209 0.512092 0 -7.04668
-634.148 0.520471 0 -7.20716
-381.318 1.12404 0 -26.0705
-387.357 1.11236 0 -25.9743
-639.178 0.516283 0 -7.12663
-507.783 0.853559 0 -17.4874
-384.338 1.11821 0 -26.0222
-515.833 0.843268 0 -17.359
-511.808 0.848422 0 -17.423
-634.148 0.520471 0 -7.20716
-624.087 0.528838 0 -7.36992
-375.279 1.13562 0 -26.1681
-381.318 1.12404 0 -26.0705
-629.117 0.524656 0 -7.28826
-499.732 0.863784 0 -17.6176
-378.298 1.12985 0 -26.1191
-507.783 0.853559 0 -17.4874
-503.757 0.85868 0 -17.5523
-624.087 0.528838 0 -7.36992
-614.026 0.537193 0 -7.53491
-369.239 1.14708 0 -26.267
-375.279 1.13562 0 -26.1681
-619.056 0.533017 0 -7.45214
-491.682 0.873942 0 -17.7496
-372.259 1.14136 0 -26.2174
-499.732 0.863784 0 -17.6176
-495.707 0.868872 0 -17.6834
-614.026 0.537193 0 -7.53491
-603.965 0.545533 0 -7.7021
-363.2 1.15843 0 -26.3673
-369.239 1.14708 0 -26.267
-608.996 0.541365 0 -7.61823
-483.632 0.884033 0 -17.8833
-366.22 1.15277 0 -26.317
-491.682 0.873942 0 -17.7496
-487.657 0.878996 0 -17.8162
-603.965 0.545533 0 -7.7021
-593.904 0.553858 0 -7.87145
-357.161 1.16967 0 -26.4688
-363.2 1.15843 0 -26.3673
-598.935 0.549697 0 -7.78651
-475.581 0.894055 0 -18.0188
-360.18 1.16406 0 -26.4179
-483.632 0.884033 0 -17.8833
-479.606 0.889052 0 -17.9508
-593.904 0.553858 0 -7.87145
-583.844 0.562167 0 -8.04293
-351.122 1.18079 0 -26.5717
-357.161 1.16967 0 -26.4688
-588.874 0.558015 0 -7.95692
-467.531 0.904008 0 -18.1559
-354.141 1.17524 0 -26.5201
-475.581 0.894055 0 -18.0188
-471.556 0.89904 0 -18.0871
-583.844 0.562167 0 -8.04293
-573.783 0.57046 0 -8.21649
-345.082 1.1918 0 -26.6758
-351.122 1.18079 0 -26.5717
-578.813 0.566316 0 -8.12945
-459.481 0.913891 0 -18.2948
-348.102 1.18631 0 -26.6236
-467.531 0.904008 0 -18.1559
-463.506 0.908958 0 -18.2251
-573.783 0.57046 0 -8.21649
-563.722 0.578735 0 -8.39211
-339.043 1.20269 0 -26.7811
-345.082 1.1918 0 -26.6758
-568.752 0.5746 0 -8.30405
-451.43 0.923704 0 -18.4352
-342.063 1.19726 0 -26.7283
-459.481 0.913891 0 -18.2948
-455.456 0.918806 0 -18.3648
-563.722 0.578735 0 -8.39211
-553.661 0.586991 0 -8.56975
-333.004 1.21346 0 -26.8876
-339.043 1.20269 0 -26.7811
-558.692 0.582865 0 -8.48068
-443.38 0.933445 0 -18.5773
-336.024 1.20809 0 -26.8342
-451.43 0.923704 0 -18.4352
-447.405 0.928583 0 -18.5061
-553.661 0.586991 0 -8.56975
-543.6 0.595227 0 -8.74937
-326.965 1.22412 0 -26.9953
-333.004 1.21346 0 -26.8876
-548.631 0.591112 0 -8.65931
-435.33 0.943114 0 -18.721
-329.985 1.21881 0 -26.9413
-443.38 0.933445 0 -18.5773
-439.355 0.938289 0 -18.649
-543.6 0.595227 0 -8.74937
-533.54 0.603443 0 -8.93094
-320.926 1.23466 0 -27.1042
-326.965 1.22412 0 -26.9953
-538.57 0.599338 0 -8.83991
-427.28 0.95271 0 -18.8663
-323.946 1.22941 0 -27.0496
-435.33 0.943114 0 -18.721
-431.305 0.947921 0 -18.7934
-533.54 0.603443 0 -8.93094
-523.479 0.611636 0 -9.11441
-314.888 1.24509 0 -27.2143
-320.926 1.23466 0 -27.1042
-528.509 0.607542 0 -9.02244
-419.23 0.962232 0 -19.013
-317.907 1.23989 0 -27.1591
-427.28 0.95271 0 -18.8663
-423.255 0.95748 0 -18.9395
-523.479 0.611636 0 -9.11441
-513.418 0.619807 0 -9.29976
-308.849 1.25539 0 -27.3254
-314.888 1.24509 0 -27.2143
-518.448 0.615724 0 -9.20686
-411.18 0.971679 0 -19.1613
-311.868 1.25026 0 -27.2697
-419.23 0.962232 0 -19.013
-415.205 0.966965 0 -19.087
-513.418 0.619807 0 -9.29976
-503.357 0.627953 0 -9.48695
-302.81 1.26558 0 -27.4377
-308.849 1.25539 0 -27.3254
-508.388 0.623883 0 -9.39313
-403.13 0.98105 0 -19.311
-305.829 1.2605 0 -27.3814
-411.18 0.971679 0 -19.1613
-407.155 0.976374 0 -19.236
-503.357 0.627953 0 -9.48695
-493.296 0.636074 0 -9.67595
-296.771 1.27565 0 -27.5511
-302.81 1.26558 0 -27.4377
-498.327 0.632017 0 -9.58123
-395.079 0.990345 0 -19.4622
-299.79 1.27063 0 -27.4943
-403.13 0.98105 0 -19.311
-399.104 0.985707 0 -19.3865
-493.296 0.636074 0 -9.67595
-483.236 0.644168 0 -9.8667
-290.732 1.28559 0 -27.6655
-296.771 1.27565 0 -27.5511
-488.266 0.640124 0 -9.77111
-387.029 0.999562 0 -19.6148
-293.752 1.28063 0 -27.6082
-395.079 0.990345 0 -19.4622
-391.054 0.994963 0 -19.5383
-483.236 0.644168 0 -9.8667
-473.175 0.652235 0 -10.0592
-284.694 1.29542 0 -27.7809
-290.732 1.28559 0 -27.6655
-478.205 0.648205 0 -9.96273
-378.979 1.0087 0 -19.7688
-287.713 1.29052 0 -27.7231
-387.029 0.999562 0 -19.6148
-383.004 1.00414 0 -19.6916
-473.175 0.652235 0 -10.0592
-463.114 0.660273 0 -10.2534
-278.655 1.30512 0 -27.8974
-284.694 1.29542 0 -27.7809
-468.144 0.656258 0 -10.1561
-370.929 1.01776 0 -19.9241
-281.674 1.30028 0 -27.8391
-378.979 1.0087 0 -19.7688
-374.954 1.01324 0 -19.8463
-463.114 0.660273 0 -10.2534
-453.053 0.668281 0 -10.4492
-272.616 1.3147 0 -28.0149
-278.655 1.30512 0 -27.8974
-458.083 0.664281 0 -10.3511
-362.879 1.02674 0 -20.0808
-275.636 1.30992 0 -27.956
-370.929 1.01776 0 -19.9241
-366.904 1.02226 0 -20.0023
-453.053 0.668281 0 -10.4492
-442.992 0.676258 0 -10.6467
-266.578 1.32415 0 -28.1333
-272.616 1.3147 0 -28.0149
-448.023 0.672273 0 -10.5477
-354.829 1.03563 0 -20.2388
-269.597 1.31944 0 -28.074
-362.879 1.02674 0 -20.0808
-358.854 1.0312 0 -20.1596
-442.992 0.676258 0 -10.6467
-432.931 0.684202 0 -10.8457
-260.539 1.33349 0 -28.2527
-266.578 1.32415 0 -28.1333
-437.962 0.680234 0 -10.746
-346.779 1.04445 0 -20.398
-263.558 1.32883 0 -28.1929
-354.829 1.03563 0 -20.2388
-350.804 1.04005 0 -20.3182
-432.931 0.684202 0 -10.8457
-422.87 0.692112 0 -11.0463
-254.501 1.34269 0 -28.3731
-260.539 1.33349 0 -28.2527
-427.901 0.688161 0 -10.9458
-338.729 1.05318 0 -20.5585
-257.52 1.3381 0 -28.3128
-346.779 1.04445 0 -20.398
-342.754 1.04883 0 -20.4781
-422.87 0.692112 0 -11.0463
-412.809 0.699987 0 -11.2485
-248.462 1.35177 0 -28.4943
-254.501 1.34269 0 -28.3731
-417.84 0.696054 0 -11.1472
-330.68 1.06183 0 -20.7202
-251.481 1.34725 0 -28.4336
-338.729 1.05318 0 -20.5585
-334.705 1.05751 0 -20.6392
-412.809 0.699987 0 -11.2485
-402.748 0.707825 0 -11.452
-242.424 1.36073 0 -28.6164
-248.462 1.35177 0 -28.4943
-407.779 0.703911 0 -11.3501
-322.63 1.07039 0 -20.883
-245.443 1.35626 0 -28.5553
-330.68 1.06183 0 -20.7202
-326.655 1.06612 0 -20.8015
-402.748 0.707825 0 -11.452
-392.687 0.715626 0 -11.6571
-236.385 1.36955 0 -28.7394
-242.424 1.36073 0 -28.6164
-397.718 0.711731 0 -11.5544
-314.58 1.07886 0 -21.0471
-239.405 1.36516 0 -28.6778
-322.63 1.07039 0 -20.883
-318.605 1.07464 0 -20.9649
-392.687 0.715626 0 -11.6571
-382.626 0.723388 0 -11.8635
-230.347 1.37825 0 -28.8633
-236.385 1.36955 0 -28.7394
-387.657 0.719512 0 -11.7601
-306.53 1.08725 0 -21.2122
-233.366 1.37392 0 -28.8013
-314.58 1.07886 0 -21.0471
-310.555 1.08307 0 -21.1295
-382.626 0.723388 0 -11.8635
-372.565 0.731109 0 -12.0713
-224.309 1.38682 0 -28.988
-230.347 1.37825 0 -28.8633
-377.596 0.727253 0 -11.9673
-298.48 1.09554 0 -21.3785
-227.328 1.38255 0 -28.9255
-306.53 1.08725 0 -21.2122
-302.505 1.09141 0 -21.2952
-372.565 0.731109 0 -12.0713
-362.504 0.738788 0 -12.2805
-218.27 1.39526 0 -29.1134
-224.309 1.38682 0 -28.988
-367.535 0.734954 0 -12.1758
-290.43 1.10375 0 -21.5458
-221.289 1.39105 0 -29.0506
-298.48 1.09554 0 -21.3785
-294.455 1.09966 0 -21.462
-362.504 0.738788 0 -12.2805
-352.443 0.746424 0 -12.4909
-212.232 1.40357 0 -29.2397
-218.27 1.39526 0 -29.1134
-357.474 0.742611 0 -12.3856
-282.38 1.11187 0 -21.7142
-215.251 1.39943 0 -29.1765
-290.43 1.10375 0 -21.5458
-286.405 1.10782 0 -21.6299
-352.443 0.746424 0 -12.4909
-342.382 0.754015 0 -12.7027
-206.194 1.41174 0 -29.3667
-212.232 1.40357 0 -29.2397
-347.412 0.750225 0 -12.5966
-274.33 1.11989 0 -21.8835
-209.213 1.40767 0 -29.3031
-282.38 1.11187 0 -21.7142
-278.355 1.11589 0 -21.7987
-342.382 0.754015 0 -12.7027
-332.321 0.761559 0 -12.9156
-200.155 1.41978 0 -29.4944
-206.194 1.41174 0 -29.3667
-337.351 0.757793 0 -12.809
-266.28 1.12782 0 -22.0539
-203.175 1.41578 0 -29.4305
-274.33 1.11989 0 -21.8835
-270.305 1.12387 0 -21.9686
-332.321 0.761559 0 -12.9156
-322.26 0.769056 0 -13.1297
-194.117 1.42769 0 -29.6229
-200.155 1.41978 0 -29.4944
-327.29 0.765314 0 -13.0225
-258.23 1.13566 0 -22.2252
-197.136 1.42375 0 -29.5586
-266.28 1.12782 0 -22.0539
-262.255 1.13175 0 -22.1394
-322.26 0.769056 0 -13.1297
-312.198 0.776503 0 -13.345
-188.079 1.43546 0 -29.7521
-194.117 1.42769 0 -29.6229
-317.229 0.772786 0 -13.2372
-250.181 1.14339 0 -22.3974
-191.098 1.43159 0 -29.6874
-258.23 1.13566 0 -22.2252
-254.206 1.13954 0 -22.3112
-312.198 0.776503 0 -13.345
-302.137 0.783899 0 -13.5614
-182.041 1.4431 0 -29.8819
-188.079 1.43546 0 -29.7521
-307.168 0.780208 0 -13.4531
-242.131 1.15103 0 -22.5706
-185.06 1.4393 0 -29.8169
-250.181 1.14339 0 -22.3974
-246.156 1.14723 0 -22.4839
-302.137 0.783899 0 -13.5614
-292.076 0.791243 0 -13.7789
-176.003 1.4506 0 -30.0124
-182.041 1.4431 0 -29.8819
-297.106 0.787578 0 -13.67
-234.081 1.15857 0 -22.7445
-179.022 1.44687 0 -29.9471
-242.131 1.15103 0 -22.5706
-238.106 1.15482 0 -22.6574
-292.076 0.791243 0 -13.7789
-282.014 0.798532 0 -13.9974
-169.965 1.45795 0 -30.1435
-176.003 1.4506 0 -30.0124
-287.045 0.794894 0 -13.888
-226.031 1.16601 0 -22.9194
-172.984 1.45429 0 -30.0778
-234.081 1.15857 0 -22.7445
-230.056 1.16231 0 -22.8319
-282.014 0.798532 0 -13.9974
-271.953 0.805764 0 -14.217
-163.926 1.46517 0 -30.2752
-169.965 1.45795 0 -30.1435
-276.984 0.802155 0 -14.1071
-217.981 1.17335 0 -23.095
-166.946 1.46158 0 -30.2093
-226.031 1.16601 0 -22.9194
-222.006 1.16969 0 -23.0071
-271.953 0.805764 0 -14.217
-261.892 0.81294 0 -14.4375
-157.888 1.47225 0 -30.4075
-163.926 1.46517 0 -30.2752
-266.922 0.809359 0 -14.3271
-209.931 1.18058 0 -23.2714
-160.907 1.46873 0 -30.3413
-217.981 1.17335 0 -23.095
-213.956 1.17698 0 -23.1831
-261.892 0.81294 0 -14.4375
-251.83 0.820057 0 -14.6589
-151.85 1.47918 0 -30.5403
-157.888 1.47225 0 -30.4075
-256.861 0.816506 0 -14.5481
-201.881 1.18771 0 -23.4486
-154.869 1.47573 0 -30.4738
-209.931 1.18058 0 -23.2714
-205.906 1.18416 0 -23.3599
-251.83 0.820057 0 -14.6589
-241.769 0.827117 0 -14.8813
-145.812 1.48598 0 -30.6737
-151.85 1.47918 0 -30.5403
-246.799 0.823594 0 -14.77
-193.831 1.19474 0 -23.6264
-148.831 1.4826 0 -30.607
-201.881 1.18771 0 -23.4486
-197.856 1.19124 0 -23.5374
-241.769 0.827117 0 -14.8813
-231.707 0.834121 0 -15.1045
-139.774 1.49265 0 -30.8076
-145.812 1.48598 0 -30.6737
-236.738 0.830626 0 -14.9928
-185.781 1.20168 0 -23.805
-142.793 1.48933 0 -30.7406
-193.831 1.19474 0 -23.6264
-189.806 1.19822 0 -23.7156
-231.707 0.834121 0 -15.1045
-221.645 0.841073 0 -15.3285
-133.736 1.4992 0 -30.942
-139.774 1.49265 0 -30.8076
-226.676 0.837603 0 -15.2164
-177.732 1.20852 0 -23.9842
-136.755 1.49594 0 -30.8747
-185.781 1.20168 0 -23.805
-181.756 1.20511 0 -23.8945
-221.645 0.841073 0 -15.3285
-211.584 0.847982 0 -15.5534
-127.698 1.50564 0 -31.0769
-133.736 1.4992 0 -30.942
-216.615 0.844533 0 -15.4408
-169.682 1.2153 0 -24.1641
-130.717 1.50243 0 -31.0094
-177.732 1.20852 0 -23.9842
-173.707 1.21192 0 -24.0741
-211.584 0.847982 0 -15.5534
-201.522 0.854858 0 -15.779
-121.66 1.51201 0 -31.2122
-127.698 1.50564 0 -31.0769
-206.553 0.851423 0 -15.6661
-161.632 1.22201 0 -24.3446
-124.679 1.50884 0 -31.1445
-169.682 1.2153 0 -24.1641
-165.657 1.21866 0 -24.2543
-201.522 0.854858 0 -15.779
-191.46 0.86171 0 -16.0055
-115.623 1.51831 0 -31.348
-121.66 1.51201 0 -31.2122
-196.491 0.858287 0 -15.8922
-153.582 1.22869 0 -24.5258
-118.641 1.51517 0 -31.2801
-161.632 1.22201 0 -24.3446
-157.607 1.22535 0 -24.4351
-191.46 0.86171 0 -16.0055
-181.399 0.868536 0 -16.2327
-109.585 1.52454 0 -31.4842
-115.623 1.51831 0 -31.348
-186.43 0.865127 0 -16.119
-145.532 1.23531 0 -24.7075
-112.604 1.52144 0 -31.4161
-153.582 1.22869 0 -24.5258
-149.557 1.23201 0 -24.6166
-181.399 0.868536 0 -16.2327
-171.337 0.875288 0 -16.4607
-103.547 1.53059 0 -31.6209
-109.585 1.52454 0 -31.4842
-176.368 0.871929 0 -16.3466
-137.483 1.2418 0 -24.8899
-106.566 1.5276 0 -31.5525
-145.532 1.23531 0 -24.7075
-141.507 1.23858 0 -24.7987
-171.337 0.875288 0 -16.4607
-161.275 0.881825 0 -16.6893
-97.5099 1.53612 0 -31.758
-103.547 1.53059 0 -31.6209
-166.306 0.878597 0 -16.575
-129.433 1.24787 0 -25.0727
-100.529 1.53346 0 -31.6894
-137.483 1.2418 0 -24.8899
-133.458 1.24491 0 -24.9813
-161.275 0.881825 0 -16.6893
-151.214 0.887723 0 -16.9182
-91.4722 1.54037 0 -31.8956
-97.5099 1.53612 0 -31.758
-156.245 0.884903 0 -16.8038
-121.384 1.25286 0 -25.2557
-94.4912 1.53848 0 -31.8268
-129.433 1.24787 0 -25.0727
-125.408 1.25058 0 -25.1642
-151.214 0.887723 0 -16.9182
-141.153 0.892158 0 -17.1465
-85.4333 1.54143 0 -32.0335
-91.4722 1.54037 0 -31.8956
-146.183 0.890199 0 -17.0325
-113.334 1.25518 0 -25.4381
-88.4529 1.5415 0 -31.9645
-121.384 1.25286 0 -25.2557
-117.359 1.25448 0 -25.347
-141.153 0.892158 0 -17.1465
-131.093 0.893072 0 -17.3719
-79.3901 1.53602 0 -32.1717
-85.4333 1.54143 0 -32.0335
-136.122 0.893262 0 -17.2598
-105.282 1.25186 0 -25.6182
-82.4126 1.53987 0 -32.1025
-113.334 1.25518 0 -25.4381
-109.308 1.2546 0 -25.5286
-131.093 0.893072 0 -17.3719
-121.033 0.887237 0 -17.5906
-73.3384 1.51669 0 -32.3099
-79.3901 1.53602 0 -32.1717
-126.063 0.891302 0 -17.4824
-97.2255 1.23648 0 -25.7929
-76.3654 1.52879 0 -32.2409
-105.282 1.25186 0 -25.6182
-101.255 1.2461 0 -25.7064
-121.033 0.887237 0 -17.5906
-110.977 0.866759 0 -17.7929
-67.2632 1.47284 0 -32.4486
-73.3384 1.51669 0 -32.3099
-116.004 0.879493 0 -17.6948
-89.1572 1.19903 0 -25.9561
-70.3053 1.49885 0 -32.379
-97.2255 1.23648 0 -25.7929
-93.1933 1.22189 0 -25.8768
-110.977 0.866759 0 -17.7929
-100.919 0.822484 0 -17.9659
-61.1486 1.38161 0 -32.5868
-67.2632 1.47284 0 -32.4486
-105.95 0.848629 0 -17.8841
-81.0622 1.11897 0 -26.0973
-64.2111 1.43499 0 -32.5181
-89.1572 1.19903 0 -25.9561
-85.1146 1.16514 0 -26.0298
-100.919 0.822484 0 -17.9659
-90.8677 0.728676 0 -18.0771
-54.94 1.2199 0 -32.7297
-61.1486 1.38161 0 -32.5868
-95.8897 0.783227 0 -18.0324
-72.9136 0.971628 0 -26.1998
-58.0623 1.31183 0 -32.6568
-81.0622 1.11897 0 -26.0973
-76.9959 1.05799 0 -26.1561
-90.8677 0.728676 0 -18.0771
-80.7842 0.571537 0 -18.0947
-48.5934 0.936287 0 -32.8775
-54.94 1.2199 0 -32.7297
-85.8367 0.661227 0 -18.0996
-64.6543 0.706609 0 -26.2413
-51.7837 1.096 0 -32.8038
-72.9136 0.971628 0 -26.1998
-68.8044 0.852987 0 -26.2272
-80.7842 0.571537 0 -18.0947
-70.698 0.278172 0 -17.9341
-41.9461 0.526886 0 -33.0631
-48.5934 0.936287 0 -32.8775
-75.7328 0.441808 0 -18.0452
-56.2006 0.297984 0 -26.1957
-45.3269 0.748527 0 -32.961
-64.6543 0.706609 0 -26.2413
-60.4537 0.531463 0 -26.2367
-70.698 0.278172 0 -17.9341
-60.404 -0.106676 0 -17.5664
-34.9406 -0.0489954 0 -33.3064
-41.9461 0.526886 0 -33.0631
-65.6069 0.106883 0 -17.7755
-47.3636 -0.318039 0 -26.0678
-38.4792 0.252149 0 -33.1781
-56.2006 0.297984 0 -26.1957
-51.856 -0.00296612 0 -26.1286
-60.404 -0.106676 0 -17.5664
-49.9581 -0.749743 0 -16.865
-27.2358 -0.492959 0 -33.765
-34.9406 -0.0489954 0 -33.3064
-55.1738 -0.421563 0 -17.2699
-37.9578 -0.964552 0 -25.9235
-31.2247 -0.308664 0 -33.4892
-47.3636 -0.318039 0 -26.0678
-42.7229 -0.618486 0 -26.0123
-49.9581 -0.749743 0 -16.865
-38.4581 -1.06316 0 -16.1085
-19.1138 -0.427942 0 -34.5287
-27.2358 -0.492959 0 -33.765
-44.4583 -0.924362 0 -16.4606
-27.4695 -1.33481 0 -26.1074
-23.16 -0.609872 0 -34.1081
-37.9578 -0.964552 0 -25.9235
-32.943 -1.31662 0 -25.8914
-38.4581 -1.06316 0 -16.1085
-26.0071 -1.03242 0 -15.7409
-10.5173 2.16929 0 -35.9176
-19.1138 -0.427942 0 -34.5287
-32.2803 -1.32424 0 -15.8159
-15.9887 0.487263 0 -27.3076
-14.9437 0.406556 0 -35.1138
-27.4695 -1.33481 0 -26.1074
-21.7398 -0.772892 0 -26.6037
-26.0071 -1.03242 0 -15.7409
-10.2189 4.20067 0 -18.7248
-4.06 9.97388 0 -36.8105
-10.5173 2.16929 0 -35.9176
-18.8363 0.774515 0 -16.5182
-3.71182 8.73481 0 -30.8494
-6.69356 5.00486 0 -36.5846
-15.9887 0.487263 0 -27.3076
-10.1447 2.98356 0 -28.5185
-10.2189 4.20067 0 -18.7248
2.16646 25.0845 0 -28.5044
-0.19413 29.182 0 -33.3962
-4.06 9.97388 0 -36.8105
-2.97393 9.73781 0 -22.334
0.507768 33.1856 0 -33.0721
-1.93812 18.2783 0 -36.1084
-3.71182 8.73481 0 -30.8494
0.779359 18.8241 0 -33.0733
2.16646 25.0845 0 -28.5044
-1.88006 101.577 0 -26.8786
0.989935 50.5856 0 -16.8654
-0.19413 29.182 0 -33.3962
3.88085 56.8326 0 -32.9299
-3.6141 72.3349 0 -15.334
1.00939 41.033 0 -27.2269
0.507768 33.1856 0 -33.0721
-1.53666 52.2564 0 -28.0363
-1071.46 -321.727 0 98.4027
-1163.48 -203.893 0 -3.00989
-377.017 -64.8552 0 51.1351
-386.348 -115.883 0 154.113
-1133.96 -258.732 0 37.1244
-770.131 -134.237 0 30.282
-370.397 -90.7014 0 97.223
-713.152 -214.033 0 140.791
-753.648 -180.089 0 69.8141
-1163.48 -203.893 0 -3.00989
-1185.48 -89.8167 0 -34.3471
-397.213 -39.6414 0 -10.4523
-377.017 -64.8552 0 51.1351
-1173.29 -142.661 0 -23.258
-788.38 -70.3419 0 -18.9537
-392.628 -50.8273 0 14.9126
-770.131 -134.237 0 30.282
-778.394 -97.2232 0 3.60286
-1185.48 -89.8167 0 -34.3471
-1196.73 -32.3556 0 -40.1491
-398.566 -16.7656 0 -38.2973
-397.213 -39.6414 0 -10.4523
-1196.23 -55.2672 0 -39.726
-797.845 -28.792 0 -40.021
-396.477 -27.0074 0 -27.251
-788.38 -70.3419 0 -18.9537
-795.717 -47.5391 0 -33.5462
-1196.73 -32.3556 0 -40.1491
-1187.66 -5.78832 0 -36.8053
-399.684 -6.12233 0 -48.1627
-398.566 -16.7656 0 -38.2973
-1191.77 -15.89 0 -38.2898
-795.37 -8.32037 0 -44.5322
-400.879 -10.5239 0 -44.9227
-797.845 -28.792 0 -40.021
-797.247 -16.1746 0 -42.8745
-1187.66 -5.78832 0 -36.8053
-1177.03 1.90155 0 -34.4722
-395.408 -0.608659 0 -49.1303
-399.684 -6.12233 0 -48.1627
-1183.23 -0.660151 0 -35.6455
-788.123 0.307025 0 -43.6449
-397.026 -2.62312 0 -49.1998
-795.37 -8.32037 0 -44.5322
-792.176 -3.01394 0 -44.6421
-1177.03 1.90155 0 -34.4722
-1164.77 3.74582 0 -32.8368
-391.822 0.391868 0 -47.2826
-395.408 -0.608659 0 -49.1303
-1170.31 3.37821 0 -33.4356
-779.808 2.27466 0 -41.622
-394.008 0.126821 0 -48.386
-788.123 0.307025 0 -43.6449
-783.832 1.86802 0 -42.5062
-1164.77 3.74582 0 -32.8368
-1154.87 2.76513 0 -32.1743
-387.612 0.423624 0 -44.9237
-391.822 0.391868 0 -47.2826
-1159.83 3.3625 0 -32.4854
-772.303 2.01595 0 -39.8046
-389.442 0.53931 0 -46.0557
-779.808 2.27466 0 -41.622
-775.944 2.26976 0 -40.7203
-1154.87 2.76513 0 -32.1743
-1145.95 1.59686 0 -31.7525
-384.376 -0.167095 0 -43.0359
-387.612 0.423624 0 -44.9237
-1150.13 2.19843 0 -31.9144
-765.861 1.03948 0 -38.482
-386.033 0.123532 0 -43.9123
-772.303 2.01595 0 -39.8046
-768.934 1.56583 0 -39.0479
-1145.95 1.59686 0 -31.7525
-1138.38 0.506067 0 -31.5221
-381.394 -0.612321 0 -41.7056
-384.376 -0.167095 0 -43.0359
-1142.11 1.0023 0 -31.6393
-760.337 0.175719 0 -37.5834
-382.774 -0.393493 0 -42.2974
-765.861 1.03948 0 -38.482
-763.007 0.573196 0 -38.0019
-1138.38 0.506067 0 -31.5221
-1131.39 -0.199094 0 -31.3052
-378.898 -0.976759 0 -40.8583
-381.394 -0.612321 0 -41.7056
-1134.79 0.118768 0 -31.407
-755.444 -0.461036 0 -36.9945
-380.139 -0.8186 0 -41.2335
-760.337 0.175719 0 -37.5834
-757.826 -0.171495 0 -37.2507
-1131.39 -0.199094 0 -31.3052
-1124.89 -0.650777 0 -31.1049
-376.573 -1.17675 0 -40.3331
-378.898 -0.976759 0 -40.8583
-1128.12 -0.45812 0 -31.208
-750.947 -0.850709 0 -36.597
-377.699 -1.08901 0 -40.5624
-755.444 -0.461036 0 -36.9945
-753.16 -0.683893 0 -36.7808
-1124.89 -0.650777 0 -31.1049
-1118.6 -0.891584 0 -30.8937
-374.417 -1.28978 0 -40.0137
-376.573 -1.17675 0 -40.3331
-1121.72 -0.789667 0 -30.9991
-746.679 -1.07062 0 -36.3166
-375.49 -1.2451 0 -40.1545
-750.947 -0.850709 0 -36.597
-748.793 -0.977764 0 -36.4444
-1118.6 -0.891584 0 -30.8937
-1112.46 -1.01423 0 -30.68
-372.322 -1.33097 0 -39.8119
-374.417 -1.28978 0 -40.0137
-1115.52 -0.965669 0 -30.7879
-742.535 -1.17586 0 -36.1004
-373.36 -1.31599 0 -39.9018
-746.679 -1.07062 0 -36.3166
-744.597 -1.13457 0 -36.2034
-1112.46 -1.01423 0 -30.68
-1106.37 -1.06133 0 -30.4627
-370.275 -1.33665 0 -39.6759
-372.322 -1.33097 0 -39.8119
-1109.4 -1.04417 0 -30.5713
-738.454 -1.21522 0 -35.9206
-371.297 -1.33781 0 -39.7382
-742.535 -1.17586 0 -36.1004
-740.489 -1.20167 0 -36.007
-1106.37 -1.06133 0 -30.4627
-1100.31 -1.07018 0 -30.2459
-368.242 -1.31958 0 -39.5743
-370.275 -1.33665 0 -39.6759
-1103.34 -1.0695 0 -30.3543
-734.403 -1.21717 0 -35.7598
-369.256 -1.32984 0 -39.6221
-738.454 -1.21522 0 -35.9206
-736.426 -1.21961 0 -35.8386
-1100.31 -1.07018 0 -30.2459
-1094.26 -1.05803 0 -30.0307
-366.22 -1.29238 0 -39.4903
-368.242 -1.31958 0 -39.5743
-1097.28 -1.06578 0 -30.138
-730.366 -1.20014 0 -35.6097
-367.231 -1.307 0 -39.5308
-734.403 -1.21717 0 -35.7598
-732.384 -1.2103 0 -35.6837
-1094.26 -1.05803 0 -30.0307
-1088.22 -1.03651 0 -29.8186
-364.2 -1.25982 0 -39.415
-366.22 -1.29238 0 -39.4903
-1091.24 -1.04811 0 -29.9243
-726.334 -1.17383 0 -35.4658
-365.21 -1.27646 0 -39.4519
-730.366 -1.20014 0 -35.6097
-728.35 -1.18776 0 -35.5372
-1088.22 -1.03651 0 -29.8186
-1082.18 -1.01068 0 -29.61
-362.182 -1.22543 0 -39.3442
-364.2 -1.25982 0 -39.415
-1085.2 -1.02389 0 -29.7138
-722.303 -1.14359 0 -35.3261
-363.191 -1.24278 0 -39.3792
-726.334 -1.17383 0 -35.4658
-724.319 -1.159 0 -35.3955
-1082.18 -1.01068 0 -29.61
-1076.14 -0.983463 0 -29.4052
-360.163 -1.19046 0 -39.2759
-362.182 -1.22543 0 -39.3442
-1079.16 -0.99717 0 -29.5071
-718.273 -1.11194 0 -35.1895
-361.172 -1.20795 0 -39.3098
-722.303 -1.14359 0 -35.3261
-720.288 -1.12785 0 -35.2574
-1076.14 -0.983463 0 -29.4052
-1070.1 -0.955956 0 -29.2043
-358.144 -1.15564 0 -39.2092
-360.163 -1.19046 0 -39.2759
-1073.12 -0.969698 0 -29.3042
-714.242 -1.08008 0 -35.0558
-359.153 -1.17302 0 -39.2424
-718.273 -1.11194 0 -35.1895
-716.257 -1.096 0 -35.1223
-1070.1 -0.955956 0 -29.2043
-1064.06 -0.928684 0 -29.0074
-356.124 -1.12116 0 -39.1438
-358.144 -1.15564 0 -39.2092
-1067.08 -0.942282 0 -29.1053
-710.211 -1.04846 0 -34.9246
-357.134 -1.13835 0 -39.1763
-714.242 -1.08008 0 -35.0558
-712.226 -1.06423 0 -34.9899
-1064.06 -0.928684 0 -29.0074
-1058.01 -0.901771 0 -28.8143
-354.105 -1.0871 0 -39.0796
-356.124 -1.12116 0 -39.1438
-1061.03 -0.915179 0 -28.9104
-706.179 -1.01723 0 -34.796
-355.115 -1.10408 0 -39.1115
-710.211 -1.04846 0 -34.9246
-708.195 -1.0328 0 -34.86
-1058.01 -0.901771 0 -28.8143
-1051.97 -0.875235 0 -28.6251
-352.085 -1.05342 0 -39.0166
-354.105 -1.0871 0 -39.0796
-1054.99 -0.888459 0 -28.7192
-702.147 -0.986377 0 -34.6699
-353.095 -1.07021 0 -39.0479
-706.179 -1.01723 0 -34.796
-704.163 -1.00175 0 -34.7326
-1051.97 -0.875235 0 -28.6251
-1045.93 -0.849037 0 -28.4398
-350.065 -1.02007 0 -38.9547
-352.085 -1.05342 0 -39.0166
-1048.95 -0.862096 0 -28.532
-698.115 -0.955881 0 -34.5463
-351.075 -1.0367 0 -38.9855
-702.147 -0.986377 0 -34.6699
-700.131 -0.971088 0 -34.6077
-1045.93 -0.849037 0 -28.4398
-1039.89 -0.823136 0 -28.2581
-348.045 -0.987026 0 -38.8941
-350.065 -1.02007 0 -38.9547
-1042.91 -0.836052 0 -28.3485
-694.083 -0.925694 0 -34.4251
-349.055 -1.00351 0 -38.9243
-698.115 -0.955881 0 -34.5463
-696.099 -0.940751 0 -34.4854
-1039.89 -0.823136 0 -28.2581
-1033.84 -0.797497 0 -28.0803
-346.025 -0.954243 0 -38.8347
-348.045 -0.987026 0 -38.8941
-1036.86 -0.810285 0 -28.1687
-690.051 -0.89578 0 -34.3065
-347.035 -0.970603 0 -38.8643
-694.083 -0.925694 0 -34.4251
-692.067 -0.910705 0 -34.3655
-1033.84 -0.797497 0 -28.0803
-1027.8 -0.772094 0 -27.9061
-344.005 -0.921701 0 -38.7765
-346.025 -0.954243 0 -38.8347
-1030.82 -0.784767 0 -27.9927
-686.019 -0.866112 0 -34.1903
-345.015 -0.937943 0 -38.8055
-690.051 -0.89578 0 -34.3065
-688.035 -0.880917 0 -34.2481
-1027.8 -0.772094 0 -27.9061
-1021.76 -0.746908 0 -27.7356
-341.986 -0.889382 0 -38.7196
-344.005 -0.921701 0 -38.7765
-1024.78 -0.759475 0 -27.8204
-681.986 -0.836671 0 -34.0765
-342.995 -0.905514 0 -38.7479
-686.019 -0.866112 0 -34.1903
-684.003 -0.851364 0 -34.1331
-1021.76 -0.746908 0 -27.7356
-1015.72 -0.721929 0 -27.5687
-339.966 -0.857276 0 -38.6638
-341.986 -0.889382 0 -38.7196
-1018.74 -0.734394 0 -27.6517
-677.954 -0.807445 0 -33.9652
-340.976 -0.873303 0 -38.6915
-681.986 -0.836671 0 -34.0765
-679.97 -0.822032 0 -34.0206
-1015.72 -0.721929 0 -27.5687
-1009.67 -0.697148 0 -27.4055
-337.946 -0.825378 0 -38.6092
-339.966 -0.857276 0 -38.6638
-1012.69 -0.709514 0 -27.4866
-673.922 -0.778426 0 -33.8563
-338.956 -0.841301 0 -38.6364
-677.954 -0.807445 0 -33.9652
-675.938 -0.79291 0 -33.9105
-1009.67 -0.697148 0 -27.4055
-1003.63 -0.67256 0 -27.2458
-335.926 -0.793682 0 -38.5559
-337.946 -0.825378 0 -38.6092
-1006.65 -0.68483 0 -27.3252
-669.89 -0.749609 0 -33.7498
-336.936 -0.809505 0 -38.5824
-673.922 -0.778426 0 -33.8563
-671.906 -0.763993 0 -33.8027
-1003.63 -0.67256 0 -27.2458
-997.587 -0.648161 0 -27.0898
-333.906 -0.762187 0 -38.5037
-335.926 -0.793682 0 -38.5559
-1000.61 -0.660337 0 -27.1674
-665.858 -0.720992 0 -33.6457
-334.916 -0.77791 0 -38.5296
-669.89 -0.749609 0 -33.7498
-667.874 -0.735276 0 -33.6974
-997.587 -0.648161 0 -27.0898
-991.544 -0.623947 0 -26.9373
-331.886 -0.730892 0 -38.4527
-333.906 -0.762187 0 -38.5037
-994.565 -0.636031 0 -27.0131
-661.825 -0.69257 0 -33.5439
-332.896 -0.746515 0 -38.4781
-665.858 -0.720992 0 -33.6457
-663.841 -0.706756 0 -33.5945
-991.544 -0.623947 0 -26.9373
-985.501 -0.599916 0 -26.7883
-329.867 -0.699795 0 -38.4029
-331.886 -0.730892 0 -38.4527
-988.522 -0.611909 0 -26.8624
-657.793 -0.664344 0 -33.4445
-330.877 -0.715318 0 -38.4276
-661.825 -0.69257 0 -33.5439
-659.809 -0.678433 0 -33.4939
-985.501 -0.599916 0 -26.7883
-979.458 -0.576067 0 -26.6429
-327.847 -0.668895 0 -38.3542
-329.867 -0.699795 0 -38.4029
-982.479 -0.587969 0 -26.7152
-653.761 -0.636311 0 -33.3475
-328.857 -0.68432 0 -38.3784
-657.793 -0.664344 0 -33.4445
-655.777 -0.650303 0 -33.3957
-979.458 -0.576067 0 -26.6429
-973.415 -0.552396 0 -26.501
-325.827 -0.638193 0 -38.3068
-327.847 -0.668895 0 -38.3542
-976.436 -0.564209 0 -26.5715
-649.729 -0.60847 0 -33.2527
-326.837 -0.65352 0 -38.3304
-653.761 -0.636311 0 -33.3475
-651.745 -0.622366 0 -33.2998
-973.415 -0.552396 0 -26.501
-967.372 -0.528902 0 -26.3625
-323.807 -0.607688 0 -38.2604
-325.827 -0.638193 0 -38.3068
-970.393 -0.540627 0 -26.4313
-645.696 -0.58082 0 -33.1603
-324.817 -0.622916 0 -38.2834
-649.729 -0.60847 0 -33.2527
-647.712 -0.594621 0 -33.2063
-967.372 -0.528902 0 -26.3625
-961.329 -0.505583 0 -26.2275
-321.788 -0.577379 0 -38.2153
-323.807 -0.607688 0 -38.2604
-964.35 -0.517221 0 -26.2945
-641.664 -0.553359 0 -33.0702
-322.798 -0.592509 0 -38.2377
-645.696 -0.58082 0 -33.1603
-643.68 -0.567066 0 -33.115
-961.329 -0.505583 0 -26.2275
-955.286 -0.482436 0 -26.0959
-319.768 -0.547267 0 -38.1712
-321.788 -0.577379 0 -38.2153
-958.307 -0.493988 0 -26.1613
-637.632 -0.526087 0 -32.9824
-320.778 -0.562299 0 -38.1931
-641.664 -0.553359 0 -33.0702
-639.648 -0.539699 0 -33.026
-955.286 -0.482436 0 -26.0959
-949.242 -0.45946 0 -25.9677
-317.749 -0.517349 0 -38.1283
-319.768 -0.547267 0 -38.1712
-952.264 -0.470927 0 -26.0314
-633.6 -0.499001 0 -32.8969
-318.758 -0.532284 0 -38.1496
-637.632 -0.526087 0 -32.9824
-635.616 -0.512521 0 -32.9394
-949.242 -0.45946 0 -25.9677
-943.199 -0.436652 0 -25.8429
-315.729 -0.487627 0 -38.0865
-317.749 -0.517349 0 -38.1283
-946.221 -0.448035 0 -25.9049
-629.568 -0.472102 0 -32.8136
-316.739 -0.502464 0 -38.1073
-633.6 -0.499001 0 -32.8969
-631.584 -0.485528 0 -32.855
-943.199 -0.436652 0 -25.8429
-937.156 -0.41401 0 -25.7215
-313.709 -0.458099 0 -38.0459
-315.729 -0.487627 0 -38.0865
-940.178 -0.42531 0 -25.7818
-625.535 -0.445387 0 -32.7325
-314.719 -0.472838 0 -38.0661
-629.568 -0.472102 0 -32.8136
-627.551 -0.458721 0 -32.7728
-937.156 -0.41401 0 -25.7215
-931.113 -0.391533 0 -25.6034
-311.69 -0.428764 0 -38.0063
-313.709 -0.458099 0 -38.0459
-934.135 -0.402751 0 -25.6621
-621.503 -0.418854 0 -32.6537
-312.7 -0.443407 0 -38.026
-625.535 -0.445387 0 -32.7325
-623.519 -0.432098 0 -32.6929
-931.113 -0.391533 0 -25.6034
-925.07 -0.369219 0 -25.4887
-309.67 -0.399623 0 -37.9679
-311.69 -0.428764 0 -38.0063
-928.091 -0.380356 0 -25.5457
-617.471 -0.392504 0 -32.5771
-310.68 -0.414169 0 -37.987
-621.503 -0.418854 0 -32.6537
-619.487 -0.405657 0 -32.6152
-925.07 -0.369219 0 -25.4887
-919.027 -0.347065 0 -25.3773
-307.651 -0.370674 0 -37.9306
-309.67 -0.399623 0 -37.9679
-922.048 -0.358122 0 -25.4326
-613.439 -0.366335 0 -32.5027
-308.661 -0.385124 0 -37.9491
-617.471 -0.392504 0 -32.5771
-615.455 -0.379397 0 -32.5397
-919.027 -0.347065 0 -25.3773
-912.983 -0.325069 0 -25.2691
-305.631 -0.341917 0 -37.8943
-307.651 -0.370674 0 -37.9306
-916.005 -0.336047 0 -25.3228
-609.407 -0.340344 0 -32.4305
-306.641 -0.356272 0 -37.9123
-613.439 -0.366335 0 -32.5027
-611.423 -0.353317 0 -32.4664
-912.983 -0.325069 0 -25.2691
-906.94 -0.303231 0 -25.1642
-303.612 -0.313352 0 -37.8592
-305.631 -0.341917 0 -37.8943
-909.962 -0.31413 0 -25.2162
-605.375 -0.314532 0 -32.3605
-304.622 -0.327611 0 -37.8766
-609.407 -0.340344 0 -32.4305
-607.391 -0.327416 0 -32.3953
-906.94 -0.303231 0 -25.1642
-900.897 -0.281547 0 -25.0625
-301.592 -0.284978 0 -37.8251
-303.612 -0.313352 0 -37.8592
-903.919 -0.292369 0 -25.113
-601.343 -0.288897 0 -32.2926
-302.602 -0.299141 0 -37.842
-605.375 -0.314532 0 -32.3605
-603.359 -0.301693 0 -32.3263
-900.897 -0.281547 0 -25.0625
-894.854 -0.260016 0 -24.9641
-299.573 -0.256794 0 -37.7921
-301.592 -0.284978 0 -37.8251
-897.875 -0.270762 0 -25.0129
-597.31 -0.263438 0 -32.2269
-300.583 -0.270862 0 -37.8085
-601.343 -0.288897 0 -32.2926
-599.326 -0.276146 0 -32.2595
-894.854 -0.260016 0 -24.9641
-888.811 -0.238636 0 -24.8688
-297.554 -0.228799 0 -37.7601
-299.573 -0.256794 0 -37.7921
-891.832 -0.249307 0 -24.9161
-593.278 -0.238153 0 -32.1633
-298.563 -0.242773 0 -37.776
-597.31 -0.263438 0 -32.2269
-595.294 -0.250773 0 -32.1948
-888.811 -0.238636 0 -24.8688
-882.767 -0.217407 0 -24.7768
-295.534 -0.200994 0 -37.7293
-297.554 -0.228799 0 -37.7601
-885.789 -0.228003 0 -24.8224
-589.246 -0.213041 0 -32.1018
-296.544 -0.214873 0 -37.7446
-593.278 -0.238153 0 -32.1633
-591.262 -0.225576 0 -32.1323
-882.767 -0.217407 0 -24.7768
-876.724 -0.196325 0 -24.6878
-293.515 -0.173378 0 -37.6994
-295.534 -0.200994 0 -37.7293
-879.746 -0.206847 0 -24.7319
-585.214 -0.188102 0 -32.0424
-294.525 -0.187162 0 -37.7142
-589.246 -0.213041 0 -32.1018
-587.23 -0.20055 0 -32.0719
-876.724 -0.196325 0 -24.6878
-870.681 -0.175389 0 -24.602
-291.496 -0.14595 0 -37.6706
-293.515 -0.173378 0 -37.6994
-873.703 -0.185839 0 -24.6446
-581.182 -0.163335 0 -31.9851
-292.506 -0.15964 0 -37.6849
-585.214 -0.188102 0 -32.0424
-583.198 -0.175697 0 -32.0135
-870.681 -0.175389 0 -24.602
-864.638 -0.154598 0 -24.5194
-289.477 -0.118709 0 -37.6429
-291.496 -0.14595 0 -37.6706
-867.659 -0.164975 0 -24.5603
-577.15 -0.138737 0 -31.9299
-290.486 -0.132306 0 -37.6566
-581.182 -0.163335 0 -31.9851
-579.166 -0.151015 0 -31.9573
-864.638 -0.154598 0 -24.5194
-858.595 -0.133949 0 -24.4398
-287.458 -0.0916557 0 -37.6161
-289.477 -0.118709 0 -37.6429
-861.616 -0.144256 0 -24.4792
-573.119 -0.114308 0 -31.8767
-288.467 -0.105159 0 -37.6294
-577.15 -0.138737 0 -31.9299
-575.135 -0.126502 0 -31.9031
-858.595 -0.133949 0 -24.4398
-852.552 -0.113443 0 -24.3632
-285.438 -0.0647891 0 -37.5904
-287.458 -0.0916557 0 -37.6161
-855.573 -0.123679 0 -24.4011
-569.087 -0.0900482 0 -31.8256
-286.448 -0.0781991 0 -37.6031
-573.119 -0.114308 0 -31.8767
-571.103 -0.102157 0 -31.8509
-852.552 -0.113443 0 -24.3632
-846.508 -0.093076 0 -24.2898
-283.419 -0.0381089 0 -37.5657
-285.438 -0.0647891 0 -37.5904
-849.53 -0.103242 0 -24.3261
-565.055 -0.0659551 0 -31.7765
-284.429 -0.0514257 0 -37.5779
-569.087 -0.0900482 0 -31.8256
-567.071 -0.0779808 0 -31.8008
-846.508 -0.093076 0 -24.2898
-840.465 -0.0728477 0 -24.2193
-281.4 -0.0116144 0 -37.542
-283.419 -0.0381089 0 -37.5657
-843.487 -0.0829446 0 -24.2542
-561.023 -0.0420282 0 -31.7294
-282.41 -0.0248384 0 -37.5537
-565.055 -0.0659551 0 -31.7765
-563.039 -0.0539709 0 -31.7527
-840.465 -0.0728477 0 -24.2193
-834.422 -0.0527564 0 -24.1518
-279.381 0.0146946 0 -37.5193
-281.4 -0.0116144 0 -37.542
-837.444 -0.062785 0 -24.1852
-556.991 -0.0182665 0 -31.6843
-280.391 0.00156327 0 -37.5305
-561.023 -0.0420282 0 -31.7294
-559.007 -0.0301268 0 -31.7066
-834.422 -0.0527564 0 -24.1518
-828.379 -0.0328008 0 -24.0874
-277.362 0.0408187 0 -37.4976
-279.381 0.0146946 0 -37.5193
-831.401 -0.0427618 0 -24.1192
-552.96 0.00533076 0 -31.6413
-278.372 0.0277798 0 -37.5083
-556.991 -0.0182665 0 -31.6843
-554.975 -0.0064474 0 -31.6626
-828.379 -0.0328008 0 -24.0874
-822.336 -0.0129794 0 -24.0258
-275.343 0.0667583 0 -37.4769
-277.362 0.0408187 0 -37.4976
-825.358 -0.0228734 0 -24.0562
-548.928 0.0287646 0 -31.6001
-276.353 0.0538116 0 -37.4871
-552.96 0.00533077 0 -31.6413
-550.944 0.0170681 0 -31.6205
-822.336 -0.0129794 0 -24.0258
-816.293 0.00670905 0 -23.9673
-273.324 0.0925137 0 -37.4572
-275.343 0.0667583 0 -37.4769
-819.315 -0.00311865 0 -23.9962
-544.896 0.0520359 0 -31.561
-274.334 0.079659 0 -37.4669
-548.928 0.0287646 0 -31.6001
-546.912 0.0404205 0 -31.5803
-816.293 0.00670905 0 -23.9673
-810.25 0.0262659 0 -23.9116
-271.306 0.118085 0 -37.4384
-273.324 0.0925137 0 -37.4572
-813.272 0.0165038 0 -23.9391
-540.865 0.0751454 0 -31.5238
-272.315 0.105322 0 -37.4477
-544.896 0.0520359 0 -31.561
-542.88 0.0636108 0 -31.5421
-810.25 0.0262659 0 -23.9116
-804.207 0.0456924 0 -23.8588
-269.287 0.143474 0 -37.4206
-271.306 0.118085 0 -37.4384
-807.229 0.0359954 0 -23.8848
-536.833 0.098094 0 -31.4885
-270.296 0.130802 0 -37.4294
-540.865 0.0751454 0 -31.5238
-538.849 0.0866397 0 -31.5059
-804.207 0.0456924 0 -23.8588
-798.164 0.0649898 0 -23.8089
-267.268 0.168679 0 -37.4038
-269.287 0.143474 0 -37.4206
-801.186 0.0553571 0 -23.8335
-532.801 0.120882 0 -31.4551
-268.277 0.156099 0 -37.4121
-536.833 0.098094 0 -31.4885
-534.817 0.109508 0 -31.4715
-798.164 0.0649898 0 -23.8089
-792.121 0.0841592 0 -23.7619
-265.249 0.193701 0 -37.3879
-267.268 0.168679 0 -37.4038
-795.143 0.0745904 0 -23.785
-528.77 0.143512 0 -31.4236
-266.259 0.181213 0 -37.3957
-532.801 0.120882 0 -31.4551
-530.786 0.132217 0 -31.4391
-792.121 0.0841592 0 -23.7619
-786.079 0.103202 0 -23.7176
-263.231 0.218542 0 -37.3729
-265.249 0.193701 0 -37.3879
-789.1 0.0936963 0 -23.7394
-524.738 0.165982 0 -31.394
-264.24 0.206144 0 -37.3803
-528.77 0.143512 0 -31.4236
-526.754 0.154767 0 -31.4086
-786.079 0.103202 0 -23.7176
-780.036 0.122119 0 -23.6762
-261.212 0.2432 0 -37.3589
-263.231 0.218542 0 -37.3729
-783.057 0.112676 0 -23.6966
-520.707 0.188295 0 -31.3663
-262.221 0.230894 0 -37.3658
-524.738 0.165982 0 -31.394
-522.723 0.177158 0 -31.3799
-780.036 0.122119 0 -23.6762
-773.993 0.140912 0 -23.6376
-259.193 0.267677 0 -37.3458
-261.212 0.2432 0 -37.3589
-777.014 0.131531 0 -23.6566
-516.676 0.210451 0 -31.3404
-260.203 0.255461 0 -37.3522
-520.707 0.188295 0 -31.3663
-518.691 0.199392 0 -31.3531
-773.993 0.140912 0 -23.6376
-767.95 0.159581 0 -23.6017
-257.175 0.291972 0 -37.3336
-259.193 0.267677 0 -37.3458
-770.972 0.150261 0 -23.6193
-512.644 0.23245 0 -31.3164
-258.184 0.279847 0 -37.3396
-516.676 0.210451 0 -31.3404
-514.66 0.22147 0 -31.3282
-767.95 0.159581 0 -23.6017
-761.907 0.178127 0 -23.5686
-255.156 0.316087 0 -37.3224
-257.175 0.291972 0 -37.3336
-764.929 0.168869 0 -23.5848
-508.613 0.254293 0 -31.2942
-256.165 0.304052 0 -37.3279
-512.644 0.23245 0 -31.3164
-510.629 0.243391 0 -31.3051
-761.907 0.178127 0 -23.5686
-755.865 0.196553 0 -23.5382
-253.138 0.340021 0 -37.312
-255.156 0.316087 0 -37.3224
-758.886 0.187355 0 -23.5531
-504.582 0.275982 0 -31.2739
-254.147 0.328076 0 -37.3171
-508.613 0.254293 0 -31.2942
-506.597 0.265157 0 -31.2838
-755.865 0.196553 0 -23.5382
-749.822 0.214857 0 -23.5105
-251.119 0.363774 0 -37.3026
-253.138 0.340021 0 -37.312
-752.843 0.20572 0 -23.524
-500.551 0.297515 0 -31.2553
-252.128 0.35192 0 -37.3072
-504.582 0.275982 0 -31.2739
-502.566 0.286768 0 -31.2644
-749.822 0.214857 0 -23.5105
-743.78 0.233043 0 -23.4855
-249.101 0.387347 0 -37.294
-251.119 0.363774 0 -37.3026
-746.801 0.223965 0 -23.4977
-496.519 0.318895 0 -31.2385
-250.11 0.375583 0 -37.2982
-500.551 0.297515 0 -31.2553
-498.535 0.308225 0 -31.2467
-743.78 0.233043 0 -23.4855
-737.737 0.25111 0 -23.4631
-247.083 0.41074 0 -37.2863
-249.101 0.387347 0 -37.294
-740.758 0.242091 0 -23.474
-492.488 0.340122 0 -31.2235
-248.092 0.399066 0 -37.2901
-496.519 0.318895 0 -31.2385
-494.504 0.329528 0 -31.2308
-737.737 0.25111 0 -23.4631
-731.694 0.269058 0 -23.4434
-245.064 0.433954 0 -37.2796
-247.083 0.41074 0 -37.2863
-734.716 0.260099 0 -23.4529
-488.457 0.361196 0 -31.2102
-246.073 0.42237 0 -37.2828
-492.488 0.340122 0 -31.2235
-490.473 0.350678 0 -31.2166
-731.694 0.269058 0 -23.4434
-725.652 0.286891 0 -23.4263
-243.046 0.456988 0 -37.2736
-245.064 0.433954 0 -37.2796
-728.673 0.277989 0 -23.4345
-484.426 0.382118 0 -31.1987
-244.055 0.445494 0 -37.2765
-488.457 0.361196 0 -31.2102
-486.442 0.371676 0 -31.2043
-725.652 0.286891 0 -23.4263
-719.61 0.304607 0 -23.4118
-241.028 0.479844 0 -37.2686
-243.046 0.456988 0 -37.2736
-722.631 0.295763 0 -23.4187
-480.395 0.402888 0 -31.1889
-242.037 0.468438 0 -37.271
-484.426 0.382118 0 -31.1987
-482.411 0.392522 0 -31.1936
-719.61 0.304607 0 -23.4118
-713.567 0.322207 0 -23.3998
-239.01 0.50252 0 -37.2644
-241.028 0.479844 0 -37.2686
-716.588 0.313421 0 -23.4055
-476.364 0.423507 0 -31.1808
-240.019 0.491204 0 -37.2664
-480.395 0.402888 0 -31.1889
-478.38 0.413216 0 -31.1847
-713.567 0.322207 0 -23.3998
-707.525 0.339694 0 -23.3904
-236.992 0.525017 0 -37.261
-239.01 0.50252 0 -37.2644
-710.546 0.330965 0 -23.3948
-472.334 0.443975 0 -31.1745
-238.001 0.513791 0 -37.2626
-476.364 0.423507 0 -31.1808
-474.349 0.43376 0 -31.1774
-707.525 0.339694 0 -23.3904
-701.482 0.357066 0 -23.3835
-234.974 0.547336 0 -37.2585
-236.992 0.525017 0 -37.261
-704.504 0.348394 0 -23.3867
-468.303 0.464293 0 -31.1698
-235.983 0.536199 0 -37.2597
-472.334 0.443975 0 -31.1745
-470.318 0.454153 0 -31.1719
-701.482 0.357066 0 -23.3835
-695.44 0.374325 0 -23.3792
-232.955 0.569477 0 -37.2569
-234.974 0.547336 0 -37.2585
-698.461 0.36571 0 -23.381
-464.272 0.484461 0 -31.1668
-233.964 0.558429 0 -37.2576
-468.303 0.464293 0 -31.1698
-466.287 0.474396 0 -31.1681
-695.44 0.374325 0 -23.3792
-689.398 0.391472 0 -23.3773
-230.938 0.59144 0 -37.256
-232.955 0.569477 0 -37.2569
-692.419 0.382913 0 -23.3779
-460.241 0.50448 0 -31.1654
-231.947 0.580481 0 -37.2563
-464.272 0.484461 0 -31.1668
-462.257 0.49449 0 -31.1659
-689.398 0.391472 0 -23.3773
-683.356 0.408507 0 -23.3779
-228.92 0.613225 0 -37.256
-230.938 0.59144 0 -37.256
-686.377 0.400004 0 -23.3773
-456.211 0.524351 0 -31.1657
-229.929 0.602354 0 -37.2559
-460.241 0.50448 0 -31.1654
-458.226 0.514434 0 -31.1653
-683.356 0.408507 0 -23.3779
-677.314 0.425431 0 -23.3809
-226.902 0.634832 0 -37.2568
-228.92 0.613225 0 -37.256
-680.335 0.416983 0 -23.3791
-452.18 0.544072 0 -31.1676
-227.911 0.62405 0 -37.2563
-456.211 0.524351 0 -31.1657
-454.195 0.53423 0 -31.1664
-677.314 0.425431 0 -23.3809
-671.272 0.442245 0 -23.3863
-224.884 0.656261 0 -37.2584
-226.902 0.634832 0 -37.2568
-674.293 0.433852 0 -23.3833
-448.15 0.563645 0 -31.1711
-225.893 0.645568 0 -37.2575
-452.18 0.544072 0 -31.1676
-450.165 0.553877 0 -31.1691
-671.272 0.442245 0 -23.3863
-665.23 0.458948 0 -23.3942
-222.866 0.677513 0 -37.2608
-224.884 0.656261 0 -37.2584
-668.251 0.45061 0 -23.39
-444.119 0.583071 0 -31.1762
-223.875 0.666909 0 -37.2595
-448.15 0.563645 0 -31.1711
-446.134 0.573377 0 -31.1735
-665.23 0.458948 0 -23.3942
-659.188 0.475541 0 -23.4044
-220.848 0.698588 0 -37.264
-222.866 0.677513 0 -37.2608
-662.209 0.467258 0 -23.399
-440.089 0.602349 0 -31.1829
-221.857 0.688072 0 -37.2623
-444.119 0.583071 0 -31.1762
-442.104 0.592729 0 -31.1794
-659.188 0.475541 0 -23.4044
-653.146 0.492026 0 -23.417
-218.831 0.719485 0 -37.2679
-220.848 0.698588 0 -37.264
-656.167 0.483797 0 -23.4104
-436.058 0.62148 0 -31.1912
-219.84 0.709058 0 -37.2659
-440.089 0.602349 0 -31.1829
-438.074 0.611933 0 -31.1869
-653.146 0.492026 0 -23.417
-647.104 0.508402 0 -23.4319
-216.813 0.740205 0 -37.2727
-218.831 0.719485 0 -37.2679
-650.125 0.500227 0 -23.4241
-432.028 0.640464 0 -31.201
-217.822 0.729867 0 -37.2702
-436.058 0.62148 0 -31.1912
-434.043 0.63099 0 -31.1959
-647.104 0.508402 0 -23.4319
-641.062 0.52467 0 -23.4491
-214.796 0.760749 0 -37.2782
-216.813 0.740205 0 -37.2727
-644.083 0.516549 0 -23.4402
-427.998 0.659302 0 -31.2124
-215.804 0.750499 0 -37.2754
-432.028 0.640464 0 -31.201
-430.013 0.649901 0 -31.2065
-641.062 0.52467 0 -23.4491
-635.02 0.54083 0 -23.4686
-212.778 0.781116 0 -37.2845
-214.796 0.760749 0 -37.2782
-638.041 0.532763 0 -23.4585
-423.968 0.677993 0 -31.2253
-213.787 0.770954 0 -37.2813
-427.998 0.659302 0 -31.2124
-425.983 0.668666 0 -31.2187
-635.02 0.54083 0 -23.4686
-628.979 0.556883 0 -23.4904
-210.761 0.801305 0 -37.2916
-212.778 0.781116 0 -37.2845
-632 0.54887 0 -23.4792
-419.937 0.696538 0 -31.2397
-211.769 0.791233 0 -37.2879
-423.968 0.677993 0 -31.2253
-421.953 0.687284 0 -31.2323
-628.979 0.556883 0 -23.4904
-622.937 0.572828 0 -23.5144
-208.743 0.821319 0 -37.2994
-210.761 0.801305 0 -37.2916
-625.958 0.564869 0 -23.5021
-415.907 0.714937 0 -31.2556
-209.752 0.811334 0 -37.2954
-419.937 0.696538 0 -31.2397
-417.922 0.705756 0 -31.2475
-622.937 0.572828 0 -23.5144
-616.895 0.588667 0 -23.5406
-206.726 0.841155 0 -37.3079
-208.743 0.821319 0 -37.2994
-619.916 0.580761 0 -23.5272
-411.877 0.733191 0 -31.273
-207.735 0.831259 0 -37.3035
-415.907 0.714937 0 -31.2556
-413.892 0.724082 0 -31.2641
-616.895 0.588667 0 -23.5406
-610.854 0.6044 0 -23.5691
-204.709 0.860816 0 -37.3172
-206.726 0.841155 0 -37.3079
-613.875 0.596547 0 -23.5546
-407.847 0.751299 0 -31.2919
-205.717 0.851008 0 -37.3124
-411.877 0.733191 0 -31.273
-409.862 0.742263 0 -31.2823
-610.854 0.6044 0 -23.5691
-604.813 0.620027 0 -23.5997
-202.691 0.880299 0 -37.3272
-204.709 0.860816 0 -37.3172
-607.833 0.612227 0 -23.5841
-403.818 0.769261 0 -31.3122
-203.7 0.87058 0 -37.3221
-407.847 0.751299 0 -31.2919
-405.833 0.760298 0 -31.3019
-604.813 0.620027 0 -23.5997
-598.771 0.635548 0 -23.6325
-200.674 0.899607 0 -37.3379
-202.691 0.880299 0 -37.3272
-601.792 0.6278 0 -23.6158
-399.788 0.787079 0 -31.334
-201.683 0.889975 0 -37.3324
-403.818 0.769261 0 -31.3122
-401.803 0.778188 0 -31.3229
-598.771 0.635548 0 -23.6325
-592.73 0.650963 0 -23.6674
-198.657 0.918738 0 -37.3493
-200.674 0.899607 0 -37.3379
-595.75 0.643268 0 -23.6497
-395.758 0.804751 0 -31.3572
-199.666 0.909194 0 -37.3435
-399.788 0.787079 0 -31.334
-397.773 0.795933 0 -31.3454
-592.73 0.650963 0 -23.6674
-586.688 0.666273 0 -23.7045
-196.64 0.937693 0 -37.3615
-198.657 0.918738 0 -37.3493
-589.709 0.658631 0 -23.6857
-391.728 0.822279 0 -31.3818
-197.648 0.928237 0 -37.3553
-395.758 0.804751 0 -31.3572
-393.743 0.813533 0 -31.3693
-586.688 0.666273 0 -23.7045
-580.647 0.681477 0 -23.7436
-194.623 0.956471 0 -37.3743
-196.64 0.937693 0 -37.3615
-583.668 0.673888 0 -23.7238
-387.699 0.839662 0 -31.4078
-195.631 0.947104 0 -37.3678
-391.728 0.822279 0 -31.3818
-389.713 0.830989 0 -31.3946
-580.647 0.681477 0 -23.7436
-574.606 0.696577 0 -23.7849
-192.606 0.975074 0 -37.3879
-194.623 0.956471 0 -37.3743
-577.627 0.68904 0 -23.764
-383.669 0.8569 0 -31.4351
-193.614 0.965795 0 -37.381
-387.699 0.839662 0 -31.4078
-385.684 0.848299 0 -31.4213
-574.606 0.696577 0 -23.7849
-568.565 0.711572 0 -23.8281
-190.589 0.9935 0 -37.4021
-192.606 0.975074 0 -37.3879
-571.585 0.704087 0 -23.8062
-379.639 0.873994 0 -31.4639
-191.597 0.984309 0 -37.3949
-383.669 0.8569 0 -31.4351
-381.654 0.865465 0 -31.4493
-568.565 0.711572 0 -23.8281
-562.524 0.726461 0 -23.8735
-188.572 1.01175 0 -37.417
-190.589 0.9935 0 -37.4021
-565.544 0.71903 0 -23.8505
-375.61 0.890943 0 -31.494
-189.58 1.00265 0 -37.4095
-379.639 0.873994 0 -31.4639
-377.625 0.882487 0 -31.4788
-562.524 0.726461 0 -23.8735
-556.483 0.741247 0 -23.9208
-186.555 1.02982 0 -37.4326
-188.572 1.01175 0 -37.417
-559.503 0.733867 0 -23.8969
-371.581 0.907748 0 -31.5254
-187.564 1.02081 0 -37.4247
-375.61 0.890943 0 -31.494
-373.595 0.899363 0 -31.5096
-556.483 0.741247 0 -23.9208
-550.442 0.755927 0 -23.9701
-184.538 1.04772 0 -37.4488
-186.555 1.02982 0 -37.4326
-553.462 0.7486 0 -23.9452
-367.551 0.924408 0 -31.5582
-185.547 1.03879 0 -37.4406
-371.581 0.907748 0 -31.5254
-369.566 0.916096 0 -31.5417
-550.442 0.755927 0 -23.9701
-544.401 0.770503 0 -24.0214
-182.522 1.06544 0 -37.4657
-184.538 1.04772 0 -37.4488
-547.421 0.763228 0 -23.9955
-363.522 0.940923 0 -31.5923
-183.53 1.0566 0 -37.4572
-367.551 0.924408 0 -31.5582
-365.537 0.932683 0 -31.5751
-544.401 0.770503 0 -24.0214
-538.36 0.784974 0 -24.0746
-180.505 1.08299 0 -37.4832
-182.522 1.06544 0 -37.4657
-541.38 0.777752 0 -24.0477
-359.493 0.957294 0 -31.6277
-181.513 1.07424 0 -37.4744
-363.522 0.940923 0 -31.5923
-361.507 0.949127 0 -31.6098
-538.36 0.784974 0 -24.0746
-532.319 0.799341 0 -24.1297
-178.488 1.10036 0 -37.5014
-180.505 1.08299 0 -37.4832
-535.34 0.792171 0 -24.1019
-355.464 0.973521 0 -31.6644
-179.497 1.09169 0 -37.4922
-359.493 0.957294 0 -31.6277
-357.478 0.965426 0 -31.6459
-532.319 0.799341 0 -24.1297
-526.279 0.813603 0 -24.1868
-176.472 1.11755 0 -37.5202
-178.488 1.10036 0 -37.5014
-529.299 0.806485 0 -24.158
-351.434 0.989603 0 -31.7023
-177.48 1.10897 0 -37.5107
-355.464 0.973521 0 -31.6644
-353.449 0.98158 0 -31.6832
-526.279 0.813603 0 -24.1868
-520.238 0.82776 0 -24.2457
-174.455 1.13457 0 -37.5397
-176.472 1.11755 0 -37.5202
-523.258 0.820694 0 -24.216
-347.405 1.00554 0 -31.7415
-175.464 1.12608 0 -37.5299
-351.434 0.989603 0 -31.7023
-349.42 0.99759 0 -31.7217
-520.238 0.82776 0 -24.2457
-514.197 0.841812 0 -24.3065
-172.439 1.1514 0 -37.5598
-174.455 1.13457 0 -37.5397
-517.218 0.834799 0 -24.2759
-343.376 1.02133 0 -31.7819
-173.447 1.14301 0 -37.5496
-347.405 1.00554 0 -31.7415
-345.391 1.01345 0 -31.7616
-514.197 0.841812 0 -24.3065
-508.157 0.85576 0 -24.3691
-170.422 1.16807 0 -37.5804
-172.439 1.1514 0 -37.5598
-511.177 0.848799 0 -24.3376
-339.347 1.03698 0 -31.8236
-171.431 1.15976 0 -37.57
-343.376 1.02133 0 -31.7819
-341.362 1.02918 0 -31.8026
-508.157 0.85576 0 -24.3691
-502.116 0.869603 0 -24.4335
-168.406 1.18455 0 -37.6017
-170.422 1.16807 0 -37.5804
-505.136 0.862694 0 -24.4011
-335.319 1.05248 0 -31.8664
-169.414 1.17633 0 -37.591
-339.347 1.03698 0 -31.8236
-337.333 1.04475 0 -31.8449
-502.116 0.869603 0 -24.4335
-496.076 0.88334 0 -24.4998
-166.39 1.20087 0 -37.6236
-168.406 1.18455 0 -37.6017
-499.096 0.876484 0 -24.4664
-331.29 1.06784 0 -31.9105
-167.398 1.19273 0 -37.6126
-335.319 1.05248 0 -31.8664
-333.304 1.06018 0 -31.8883
-496.076 0.88334 0 -24.4998
-490.035 0.896972 0 -24.5678
-164.373 1.217 0 -37.6461
-166.39 1.20087 0 -37.6236
-493.056 0.890169 0 -24.5336
-327.261 1.08306 0 -31.9558
-165.382 1.20895 0 -37.6348
-331.29 1.06784 0 -31.9105
-329.275 1.07547 0 -31.933
-490.035 0.896972 0 -24.5678
-483.995 0.910499 0 -24.6375
-162.357 1.23296 0 -37.6692
-164.373 1.217 0 -37.6461
-487.015 0.903749 0 -24.6024
-323.232 1.09812 0 -32.0022
-163.365 1.225 0 -37.6576
-327.261 1.08306 0 -31.9558
-325.247 1.09061 0 -31.9788
-483.995 0.910499 0 -24.6375
-477.955 0.92392 0 -24.709
-160.341 1.24874 0 -37.6928
-162.357 1.23296 0 -37.6692
-480.975 0.917223 0 -24.6731
-319.204 1.11305 0 -32.0497
-161.349 1.24087 0 -37.6809
-323.232 1.09812 0 -32.0022
-321.218 1.1056 0 -32.0258
-477.955 0.92392 0 -24.709
-471.915 0.937235 0 -24.7822
-158.325 1.26434 0 -37.717
-160.341 1.24874 0 -37.6928
-474.935 0.930591 0 -24.7454
-315.175 1.12783 0 -32.0985
-159.333 1.25656 0 -37.7049
-319.204 1.11305 0 -32.0497
-317.189 1.12045 0 -32.074
-471.915 0.937235 0 -24.7822
-465.874 0.950444 0 -24.8571
-156.309 1.27976 0 -37.7418
-158.325 1.26434 0 -37.717
-468.895 0.943853 0 -24.8195
-311.147 1.14246 0 -32.1483
-157.317 1.27207 0 -37.7294
-315.175 1.12783 0 -32.0985
-313.161 1.13516 0 -32.1232
-465.874 0.950444 0 -24.8571
-459.834 0.963546 0 -24.9337
-154.293 1.29501 0 -37.7672
-156.309 1.27976 0 -37.7418
-462.854 0.957008 0 -24.8952
-307.118 1.15694 0 -32.1992
-155.301 1.28741 0 -37.7544
-311.147 1.14246 0 -32.1483
-309.132 1.14972 0 -32.1736
-459.834 0.963546 0 -24.9337
-453.794 0.976542 0 -25.0118
-152.277 1.31008 0 -37.793
-154.293 1.29501 0 -37.7672
-456.814 0.970058 0 -24.9725
-303.09 1.17128 0 -32.2513
-153.285 1.30257 0 -37.78
-307.118 1.15694 0 -32.1992
-305.104 1.16413 0 -32.2251
-453.794 0.976542 0 -25.0118
-447.754 0.989431 0 -25.0917
-150.261 1.32498 0 -37.8195
-152.277 1.31008 0 -37.793
-450.774 0.983 0 -25.0515
-299.061 1.18548 0 -32.3044
-151.269 1.31755 0 -37.8062
-303.09 1.17128 0 -32.2513
-301.076 1.1784 0 -32.2777
-447.754 0.989431 0 -25.0917
-441.714 1.00221 0 -25.1731
-148.245 1.3397 0 -37.8464
-150.261 1.32498 0 -37.8195
-444.734 0.995835 0 -25.1322
-295.033 1.19952 0 -32.3586
-149.253 1.33236 0 -37.8329
-299.061 1.18548 0 -32.3044
-297.047 1.19252 0 -32.3314
-441.714 1.00221 0 -25.1731
-435.674 1.01489 0 -25.2561
-146.229 1.35423 0 -37.8739
-148.245 1.3397 0 -37.8464
-438.694 1.00856 0 -25.2144
-291.005 1.21342 0 -32.4139
-147.237 1.34699 0 -37.8601
-295.033 1.19952 0 -32.3586
-293.019 1.20649 0 -32.3861
-435.674 1.01489 0 -25.2561
-429.635 1.02745 0 -25.3406
-144.214 1.3686 0 -37.9019
-146.229 1.35423 0 -37.8739
-432.655 1.02118 0 -25.2981
-286.977 1.22718 0 -32.4701
-145.222 1.36144 0 -37.8879
-291.005 1.21342 0 -32.4139
-288.991 1.22032 0 -32.4419
-429.635 1.02745 0 -25.3406
-423.595 1.03991 0 -25.4267
-142.198 1.38278 0 -37.9305
-144.214 1.3686 0 -37.9019
-426.615 1.03369 0 -25.3835
-282.949 1.24078 0 -32.5274
-143.206 1.37571 0 -37.9161
-286.977 1.22718 0 -32.4701
-284.963 1.234 0 -32.4987
-423.595 1.03991 0 -25.4267
-417.555 1.05226 0 -25.5143
-140.182 1.39678 0 -37.9595
-142.198 1.38278 0 -37.9305
-420.575 1.0461 0 -25.4703
-278.921 1.25424 0 -32.5858
-141.19 1.3898 0 -37.9449
-282.949 1.24078 0 -32.5274
-280.935 1.24753 0 -32.5565
-417.555 1.05226 0 -25.5143
-411.515 1.0645 0 -25.6034
-138.167 1.41061 0 -37.989
-140.182 1.39678 0 -37.9595
-414.535 1.05839 0 -25.5587
-274.893 1.26755 0 -32.6451
-139.175 1.40372 0 -37.9742
-278.921 1.25424 0 -32.5858
-276.907 1.26092 0 -32.6153
-411.515 1.0645 0 -25.6034
-405.476 1.07663 0 -25.694
-136.151 1.42426 0 -38.0191
-138.167 1.41061 0 -37.989
-408.496 1.07058 0 -25.6485
-270.865 1.28072 0 -32.7054
-137.159 1.41746 0 -38.004
-274.893 1.26755 0 -32.6451
-272.879 1.27415 0 -32.6751
-405.476 1.07663 0 -25.694
-399.436 1.08865 0 -25.786
-134.136 1.43773 0 -38.0496
-136.151 1.42426 0 -38.0191
-402.456 1.08265 0 -25.7398
-266.837 1.29373 0 -32.7667
-135.144 1.43102 0 -38.0343
-270.865 1.28072 0 -32.7054
-268.851 1.28724 0 -32.7359
-399.436 1.08865 0 -25.786
-393.397 1.10056 0 -25.8794
-132.12 1.45102 0 -38.0806
-134.136 1.43773 0 -38.0496
-396.417 1.09462 0 -25.8325
-262.809 1.3066 0 -32.8289
-133.128 1.4444 0 -38.065
-266.837 1.29373 0 -32.7667
-264.823 1.30018 0 -32.7976
-393.397 1.10056 0 -25.8794
-387.357 1.11236 0 -25.9743
-130.105 1.46413 0 -38.112
-132.12 1.45102 0 -38.0806
-390.377 1.10647 0 -25.9267
-258.781 1.31932 0 -32.892
-131.113 1.4576 0 -38.0962
-262.809 1.3066 0 -32.8289
-260.795 1.31298 0 -32.8603
-387.357 1.11236 0 -25.9743
-381.318 1.12404 0 -26.0705
-128.09 1.47707 0 -38.1439
-130.105 1.46413 0 -38.112
-384.338 1.11821 0 -26.0222
-254.754 1.33188 0 -32.9561
-129.097 1.47062 0 -38.1279
-258.781 1.31932 0 -32.892
-256.767 1.32562 0 -32.924
-381.318 1.12404 0 -26.0705
-375.279 1.13562 0 -26.1681
-126.074 1.48982 0 -38.1763
-128.09 1.47707 0 -38.1439
-378.298 1.12985 0 -26.1191
-250.726 1.3443 0 -33.0211
-127.082 1.48347 0 -38.1601
-254.754 1.33188 0 -32.9561
-252.74 1.33811 0 -32.9885
-375.279 1.13562 0 -26.1681
-369.239 1.14708 0 -26.267
-124.059 1.5024 0 -38.2092
-126.074 1.48982 0 -38.1763
-372.259 1.14136 0 -26.2174
-246.698 1.35657 0 -33.087
-125.067 1.49613 0 -38.1927
-250.726 1.3443 0 -33.0211
-248.712 1.35045 0 -33.0539
-369.239 1.14708 0 -26.267
-363.2 1.15843 0 -26.3673
-122.044 1.51479 0 -38.2424
-124.059 1.5024 0 -38.2092
-366.22 1.15277 0 -26.317
-242.671 1.36869 0 -33.1538
-123.052 1.50862 0 -38.2257
-246.698 1.35657 0 -33.087
-244.685 1.36265 0 -33.1203
-363.2 1.15843 0 -26.3673
-357.161 1.16967 0 -26.4688
-120.029 1.52701 0 -38.2761
-122.044 1.51479 0 -38.2424
-360.18 1.16406 0 -26.4179
-238.643 1.38065 0 -33.2214
-121.036 1.52092 0 -38.2592
-242.671 1.36869 0 -33.1538
-240.657 1.37469 0 -33.1875
-357.161 1.16967 0 -26.4688
-351.122 1.18079 0 -26.5717
-118.014 1.53904 0 -38.3103
-120.029 1.52701 0 -38.2761
-354.141 1.17524 0 -26.5201
-234.616 1.39247 0 -33.2899
-119.021 1.53305 0 -38.2931
-238.643 1.38065 0 -33.2214
-236.63 1.38658 0 -33.2555
-351.122 1.18079 0 -26.5717
-345.082 1.1918 0 -26.6758
-115.999 1.5509 0 -38.3448
-118.014 1.53904 0 -38.3103
-348.102 1.18631 0 -26.6236
-230.588 1.40413 0 -33.3592
-117.006 1.54499 0 -38.3275
-234.616 1.39247 0 -33.2899
-232.602 1.39832 0 -33.3244
-345.082 1.1918 0 -26.6758
-339.043 1.20269 0 -26.7811
-113.984 1.56257 0 -38.3798
-115.999 1.5509 0 -38.3448
-342.063 1.19726 0 -26.7283
-226.561 1.41565 0 -33.4294
-114.991 1.55676 0 -38.3622
-230.588 1.40413 0 -33.3592
-228.575 1.40991 0 -33.3942
-339.043 1.20269 0 -26.7811
-333.004 1.21346 0 -26.8876
-111.969 1.57406 0 -38.4152
-113.984 1.56257 0 -38.3798
-336.024 1.20809 0 -26.8342
-222.534 1.42701 0 -33.5003
-112.976 1.56834 0 -38.3974
-226.561 1.41565 0 -33.4294
-224.548 1.42134 0 -33.4647
-333.004 1.21346 0 -26.8876
-326.965 1.22412 0 -26.9953
-109.954 1.58538 0 -38.4509
-111.969 1.57406 0 -38.4152
-329.985 1.21881 0 -26.9413
-218.507 1.43821 0 -33.5721
-110.961 1.57974 0 -38.433
-222.534 1.42701 0 -33.5003
-220.52 1.43263 0 -33.5361
-326.965 1.22412 0 -26.9953
-320.926 1.23466 0 -27.1042
-107.939 1.59651 0 -38.4871
-109.954 1.58538 0 -38.4509
-323.946 1.22941 0 -27.0496
-214.479 1.44927 0 -33.6446
-108.947 1.59096 0 -38.469
-218.507 1.43821 0 -33.5721
-216.493 1.44376 0 -33.6082
-320.926 1.23466 0 -27.1042
-314.888 1.24509 0 -27.2143
-105.924 1.60746 0 -38.5236
-107.939 1.59651 0 -38.4871
-317.907 1.23989 0 -27.1591
-210.452 1.46017 0 -33.7179
-106.932 1.602 0 -38.5053
-214.479 1.44927 0 -33.6446
-212.466 1.45474 0 -33.6812
-314.888 1.24509 0 -27.2143
-308.849 1.25539 0 -27.3254
-103.91 1.61823 0 -38.5606
-105.924 1.60746 0 -38.5236
-311.868 1.25026 0 -27.2697
-206.425 1.47091 0 -33.792
-104.917 1.61286 0 -38.5421
-210.452 1.46017 0 -33.7179
-208.439 1.46556 0 -33.7548
-308.849 1.25539 0 -27.3254
-302.81 1.26558 0 -27.4377
-101.895 1.62881 0 -38.5979
-103.91 1.61823 0 -38.5606
-305.829 1.2605 0 -27.3814
-202.398 1.4815 0 -33.8667
-102.902 1.62354 0 -38.5792
-206.425 1.47091 0 -33.792
-204.412 1.47623 0 -33.8293
-302.81 1.26558 0 -27.4377
-296.771 1.27565 0 -27.5511
-99.8804 1.63922 0 -38.6355
-101.895 1.62881 0 -38.5979
-299.79 1.27063 0 -27.4943
-198.371 1.49194 0 -33.9423
-100.888 1.63404 0 -38.6167
-202.398 1.4815 0 -33.8667
-200.385 1.48674 0 -33.9044
-296.771 1.27565 0 -27.5511
-290.732 1.28559 0 -27.6655
-97.8658 1.64944 0 -38.6735
-99.8804 1.63922 0 -38.6355
-293.752 1.28063 0 -27.6082
-194.344 1.50222 0 -34.0185
-98.8731 1.64435 0 -38.6545
-198.371 1.49194 0 -33.9423
-196.358 1.4971 0 -33.9803
-290.732 1.28559 0 -27.6655
-284.694 1.29542 0 -27.7809
-95.8512 1.65948 0 -38.7119
-97.8658 1.64944 0 -38.6735
-287.713 1.29052 0 -27.7231
-190.318 1.51234 0 -34.0954
-96.8585 1.65448 0 -38.6927
-194.344 1.50222 0 -34.0185
-192.331 1.5073 0 -34.0569
-284.694 1.29542 0 -27.7809
-278.655 1.30512 0 -27.8974
-93.8367 1.66933 0 -38.7506
-95.8512 1.65948 0 -38.7119
-281.674 1.30028 0 -27.8391
-186.291 1.52231 0 -34.173
-94.844 1.66443 0 -38.7312
-190.318 1.51234 0 -34.0954
-188.304 1.51735 0 -34.1341
-278.655 1.30512 0 -27.8974
-272.616 1.3147 0 -28.0149
-91.8223 1.67901 0 -38.7897
-93.8367 1.66933 0 -38.7506
-275.636 1.30992 0 -27.956
-182.264 1.53212 0 -34.2513
-92.8295 1.67419 0 -38.7701
-186.291 1.52231 0 -34.173
-184.277 1.52724 0 -34.212
-272.616 1.3147 0 -28.0149
-266.578 1.32415 0 -28.1333
-89.8079 1.6885 0 -38.829
-91.8223 1.67901 0 -38.7897
-269.597 1.31944 0 -28.074
-178.237 1.54178 0 -34.3302
-90.8151 1.68377 0 -38.8093
-182.264 1.53212 0 -34.2513
-180.251 1.53697 0 -34.2906
-266.578 1.32415 0 -28.1333
-260.539 1.33349 0 -28.2527
-87.7935 1.6978 0 -38.8687
-89.8079 1.6885 0 -38.829
-263.558 1.32883 0 -28.1929
-174.211 1.55127 0 -34.4097
-88.8007 1.69317 0 -38.8488
-178.237 1.54178 0 -34.3302
-176.224 1.54654 0 -34.3699
-260.539 1.33349 0 -28.2527
-254.501 1.34269 0 -28.3731
-85.7792 1.70692 0 -38.9087
-87.7935 1.6978 0 -38.8687
-257.52 1.3381 0 -28.3128
-170.184 1.56061 0 -34.4899
-86.7864 1.70239 0 -38.8887
-174.211 1.55127 0 -34.4097
-172.197 1.55596 0 -34.4497
-254.501 1.34269 0 -28.3731
-248.462 1.35177 0 -28.4943
-83.765 1.71586 0 -38.949
-85.7792 1.70692 0 -38.9087
-251.481 1.34725 0 -28.4336
-166.157 1.56979 0 -34.5707
-84.7721 1.71142 0 -38.9288
-170.184 1.56061 0 -34.4899
-168.171 1.56522 0 -34.5302
-248.462 1.35177 0 -28.4943
-242.424 1.36073 0 -28.6164
-81.7507 1.72462 0 -38.9896
-83.765 1.71586 0 -38.949
-245.443 1.35626 0 -28.5553
-162.131 1.5788 0 -34.652
-82.7578 1.72026 0 -38.9693
-166.157 1.56979 0 -34.5707
-164.144 1.57432 0 -34.6113
-242.424 1.36073 0 -28.6164
-236.385 1.36955 0 -28.7394
-79.7366 1.73318 0 -39.0305
-81.7507 1.72462 0 -38.9896
-239.405 1.36516 0 -28.6778
-158.104 1.58766 0 -34.734
-80.7436 1.72892 0 -39.0101
-162.131 1.5788 0 -34.652
-160.118 1.58325 0 -34.693
-236.385 1.36955 0 -28.7394
-230.347 1.37825 0 -28.8633
-77.7224 1.74157 0 -39.0717
-79.7366 1.73318 0 -39.0305
-233.366 1.37392 0 -28.8013
-154.078 1.59636 0 -34.8165
-78.7295 1.7374 0 -39.0511
-158.104 1.58766 0 -34.734
-156.091 1.59203 0 -34.7752
-230.347 1.37825 0 -28.8633
-224.309 1.38682 0 -28.988
-75.7084 1.74977 0 -39.1132
-77.7224 1.74157 0 -39.0717
-227.328 1.38255 0 -28.9255
-150.051 1.6049 0 -34.8996
-76.7154 1.74569 0 -39.0924
-154.078 1.59636 0 -34.8165
-152.065 1.60065 0 -34.858
-224.309 1.38682 0 -28.988
-218.27 1.39526 0 -29.1134
-73.6943 1.75778 0 -39.1549
-75.7084 1.74977 0 -39.1132
-221.289 1.39105 0 -29.0506
-146.025 1.61327 0 -34.9832
-74.7013 1.7538 0 -39.134
-150.051 1.6049 0 -34.8996
-148.038 1.6091 0 -34.9413
-218.27 1.39526 0 -29.1134
-212.232 1.40357 0 -29.2397
-71.6803 1.7656 0 -39.1969
-73.6943 1.75778 0 -39.1549
-215.251 1.39943 0 -29.1765
-141.999 1.62148 0 -35.0673
-72.6873 1.76171 0 -39.1759
-146.025 1.61327 0 -34.9832
-144.012 1.61739 0 -35.0252
-212.232 1.40357 0 -29.2397
-206.194 1.41174 0 -29.3667
-69.6664 1.77324 0 -39.2392
-71.6803 1.7656 0 -39.1969
-209.213 1.40767 0 -29.3031
-137.972 1.62953 0 -35.152
-70.6733 1.76945 0 -39.218
-141.999 1.62148 0 -35.0673
-139.986 1.62552 0 -35.1096
-206.194 1.41174 0 -29.3667
-200.155 1.41978 0 -29.4944
-67.6525 1.7807 0 -39.2817
-69.6664 1.77324 0 -39.2392
-203.175 1.41578 0 -29.4305
-133.946 1.63741 0 -35.2371
-68.6594 1.77699 0 -39.2604
-137.972 1.62953 0 -35.152
-135.959 1.63349 0 -35.1945
-200.155 1.41978 0 -29.4944
-194.117 1.42769 0 -29.6229
-65.6386 1.78796 0 -39.3244
-67.6525 1.7807 0 -39.2817
-197.136 1.42375 0 -29.5586
-129.92 1.64513 0 -35.3227
-66.6455 1.78435 0 -39.303
-133.946 1.63741 0 -35.2371
-131.933 1.64129 0 -35.2798
-194.117 1.42769 0 -29.6229
-188.079 1.43546 0 -29.7521
-63.6248 1.79503 0 -39.3674
-65.6386 1.78796 0 -39.3244
-191.098 1.43159 0 -29.6874
-125.894 1.65268 0 -35.4088
-64.6317 1.79152 0 -39.3459
-129.92 1.64513 0 -35.3227
-127.907 1.64892 0 -35.3657
-188.079 1.43546 0 -29.7521
-182.041 1.4431 0 -29.8819
-61.611 1.80192 0 -39.4106
-63.6248 1.79503 0 -39.3674
-185.06 1.4393 0 -29.8169
-121.868 1.66006 0 -35.4953
-62.6179 1.7985 0 -39.3889
-125.894 1.65268 0 -35.4088
-123.881 1.65639 0 -35.452
-182.041 1.4431 0 -29.8819
-176.003 1.4506 0 -30.0124
-59.5973 1.80861 0 -39.454
-61.611 1.80192 0 -39.4106
-179.022 1.44687 0 -29.9471
-117.842 1.66728 0 -35.5822
-60.6041 1.80529 0 -39.4323
-121.868 1.66006 0 -35.4953
-119.855 1.66369 0 -35.5387
-176.003 1.4506 0 -30.0124
-169.965 1.45795 0 -30.1435
-57.5835 1.81511 0 -39.4976
-59.5973 1.80861 0 -39.454
-172.984 1.45429 0 -30.0778
-113.815 1.67432 0 -35.6696
-58.5904 1.81189 0 -39.4758
-117.842 1.66728 0 -35.5822
-115.828 1.67082 0 -35.6259
-169.965 1.45795 0 -30.1435
-163.926 1.46517 0 -30.2752
-55.5699 1.82142 0 -39.5414
-57.5835 1.81511 0 -39.4976
-166.946 1.46158 0 -30.2093
-109.789 1.6812 0 -35.7574
-56.5767 1.81829 0 -39.5195
-113.815 1.67432 0 -35.6696
-111.802 1.67778 0 -35.7134
-163.926 1.46517 0 -30.2752
-157.888 1.47225 0 -30.4075
-53.5562 1.82754 0 -39.5855
-55.5699 1.82142 0 -39.5414
-160.907 1.46873 0 -30.3413
-105.763 1.6879 0 -35.8455
-54.5631 1.8245 0 -39.5634
-109.789 1.6812 0 -35.7574
-107.776 1.68457 0 -35.8014
-157.888 1.47225 0 -30.4075
-151.85 1.47918 0 -30.5403
-51.5426 1.83346 0 -39.6297
-53.5562 1.82754 0 -39.5855
-154.869 1.47573 0 -30.4738
-101.737 1.69443 0 -35.9341
-52.5494 1.83052 0 -39.6076
-105.763 1.6879 0 -35.8455
-103.75 1.69119 0 -35.8898
-151.85 1.47918 0 -30.5403
-145.812 1.48598 0 -30.6737
-49.5291 1.83919 0 -39.6741
-51.5426 1.83346 0 -39.6297
-148.831 1.4826 0 -30.607
-97.7115 1.7008 0 -36.023
-50.5358 1.83635 0 -39.6519
-101.737 1.69443 0 -35.9341
-99.7244 1.69763 0 -35.9785
-145.812 1.48598 0 -30.6737
-139.774 1.49265 0 -30.8076
-47.5155 1.84474 0 -39.7186
-49.5291 1.83919 0 -39.6741
-142.793 1.48933 0 -30.7406
-93.6856 1.707 0 -36.1122
-48.5223 1.84199 0 -39.6963
-97.7115 1.7008 0 -36.023
-95.6985 1.70392 0 -36.0675
-139.774 1.49265 0 -30.8076
-133.736 1.4992 0 -30.942
-45.502 1.85012 0 -39.7633
-47.5155 1.84474 0 -39.7186
-136.755 1.49594 0 -30.8747
-89.6597 1.71306 0 -36.2017
-46.5087 1.84745 0 -39.741
-93.6856 1.707 0 -36.1122
-91.6726 1.71005 0 -36.1569
-133.736 1.4992 0 -30.942
-127.698 1.50564 0 -31.0769
-43.4885 1.85534 0 -39.8082
-45.502 1.85012 0 -39.7633
-130.717 1.50243 0 -31.0094
-85.6338 1.719 0 -36.2916
-44.4952 1.85275 0 -39.7857
-89.6597 1.71306 0 -36.2017
-87.6467 1.71604 0 -36.2466
-127.698 1.50564 0 -31.0769
-121.66 1.51201 0 -31.2122
-41.4751 1.86044 0 -39.8531
-43.4885 1.85534 0 -39.8082
-124.679 1.50884 0 -31.1445
-81.6081 1.72482 0 -36.3817
-42.4818 1.8579 0 -39.8306
-85.6338 1.719 0 -36.2916
-83.6209 1.72192 0 -36.3366
-121.66 1.51201 0 -31.2122
-115.623 1.51831 0 -31.348
-39.4617 1.86544 0 -39.8981
-41.4751 1.86044 0 -39.8531
-118.641 1.51517 0 -31.2801
-77.5824 1.73057 0 -36.4721
-40.4684 1.86295 0 -39.8756
-81.6081 1.72482 0 -36.3817
-79.5952 1.72771 0 -36.4269
-115.623 1.51831 0 -31.348
-109.585 1.52454 0 -31.4842
-37.4485 1.87038 0 -39.9433
-39.4617 1.86544 0 -39.8981
-112.604 1.52144 0 -31.4161
-73.5569 1.73623 0 -36.5628
-38.4551 1.86792 0 -39.9207
-77.5824 1.73057 0 -36.4721
-75.5696 1.73342 0 -36.5174
-109.585 1.52454 0 -31.4842
-103.547 1.53059 0 -31.6209
-35.4354 1.87525 0 -39.9887
-37.4485 1.87038 0 -39.9433
-106.566 1.5276 0 -31.5525
-69.5316 1.74172 0 -36.6538
-36.4419 1.87283 0 -39.966
-73.5569 1.73623 0 -36.5628
-71.5442 1.73901 0 -36.6083
-103.547 1.53059 0 -31.6209
-97.5099 1.53612 0 -31.758
-33.4224 1.87997 0 -40.0345
-35.4354 1.87525 0 -39.9887
-100.529 1.53346 0 -31.6894
-65.5063 1.74675 0 -36.7453
-34.4289 1.87763 0 -40.0115
-69.5316 1.74172 0 -36.6538
-67.5189 1.74433 0 -36.6995
-97.5099 1.53612 0 -31.758
-91.4722 1.54037 0 -31.8956
-31.4095 1.88416 0 -40.0815
-33.4224 1.87997 0 -40.0345
-94.4912 1.53848 0 -31.8268
-61.4807 1.75059 0 -36.8377
-32.4159 1.88217 0 -40.0578
-65.5063 1.74675 0 -36.7453
-63.4936 1.7489 0 -36.7913
-91.4722 1.54037 0 -31.8956
-85.4333 1.54143 0 -32.0335
-29.3956 1.88721 0 -40.1312
-31.4095 1.88416 0 -40.0815
-88.4529 1.5415 0 -31.9645
-57.4538 1.75167 0 -36.9317
-30.4028 1.88589 0 -40.1059
-61.4807 1.75059 0 -36.8377
-59.4676 1.75166 0 -36.8844
-85.4333 1.54143 0 -32.0335
-79.3901 1.53602 0 -32.1717
-27.3803 1.88717 0 -40.1867
-29.3956 1.88721 0 -40.1312
-82.4126 1.53987 0 -32.1025
-53.4231 1.7467 0 -37.0292
-28.3881 1.88777 0 -40.158
-57.4538 1.75167 0 -36.9317
-55.4392 1.75023 0 -36.9798
-79.3901 1.53602 0 -32.1717
-73.3384 1.51669 0 -32.3099
-25.3588 1.88166 0 -40.2544
-27.3803 1.88717 0 -40.1867
-76.3654 1.52879 0 -32.2409
-49.3831 1.72988 0 -37.1336
-26.3709 1.88536 0 -40.2185
-53.4231 1.7467 0 -37.0292
-51.4047 1.74042 0 -37.0804
-73.3384 1.51669 0 -32.3099
-67.2632 1.47284 0 -32.4486
-23.3282 1.86369 0 -40.3458
-25.3588 1.88166 0 -40.2544
-70.3053 1.49885 0 -32.379
-45.3227 1.69022 0 -37.2518
-24.3444 1.87481 0 -40.2962
-49.3831 1.72988 0 -37.1336
-47.3563 1.71367 0 -37.1901
-67.2632 1.47284 0 -32.4486
-61.1486 1.38161 0 -32.5868
-21.2702 1.82765 0 -40.4818
-23.3282 1.86369 0 -40.3458
-64.2111 1.43499 0 -32.5181
-41.2212 1.61206 0 -37.3959
-22.3051 1.84858 0 -40.4063
-45.3227 1.69022 0 -37.2518
-43.2786 1.65782 0 -37.3201
-61.1486 1.38161 0 -32.5868
-54.94 1.2199 0 -32.7297
-19.1776 1.75455 0 -40.6953
-21.2702 1.82765 0 -40.4818
-58.0623 1.31183 0 -32.6568
-37.0414 1.46892 0 -37.5871
-20.2268 1.79681 0 -40.5764
-41.2212 1.61206 0 -37.3959
-39.1443 1.54954 0 -37.4826
-54.94 1.2199 0 -32.7297
-48.5934 0.936287 0 -32.8775
-16.9923 1.64433 0 -41.0395
-19.1776 1.75455 0 -40.6953
-51.7837 1.096 0 -32.8038
-32.7231 1.23889 0 -37.8597
-18.1047 1.70469 0 -40.8465
-37.0414 1.46892 0 -37.5871
-34.9034 1.36833 0 -37.713
-48.5934 0.936287 0 -32.8775
-41.9461 0.526886 0 -33.0631
-14.7177 1.46527 0 -41.5749
-16.9923 1.64433 0 -41.0395
-45.3269 0.748527 0 -32.961
-28.1741 0.897095 0 -38.265
-15.8588 1.56246 0 -41.2797
-32.7231 1.23889 0 -37.8597
-30.4863 1.07689 0 -38.0366
-41.9461 0.526886 0 -33.0631
-34.9406 -0.0489954 0 -33.3064
-12.2177 1.30367 0 -42.3685
-14.7177 1.46527 0 -41.5749
-38.4792 0.252149 0 -33.1781
-23.2929 0.516231 0 -38.8666
-13.5187 1.3774 0 -41.9344
-28.1741 0.897095 0 -38.265
-25.778 0.710983 0 -38.5467
-34.9406 -0.0489954 0 -33.3064
-27.2358 -0.492959 0 -33.765
-9.63681 1.19033 0 -43.3799
-12.2177 1.30367 0 -42.3685
-31.2247 -0.308664 0 -33.4892
-17.9845 0.274487 0 -39.7202
-10.9026 1.22157 0 -42.8571
-23.2929 0.516231 0 -38.8666
-20.7076 0.332453 0 -39.2401
-27.2358 -0.492959 0 -33.765
-19.1138 -0.427942 0 -34.5287
-6.8075 1.66961 0 -44.3668
-9.63681 1.19033 0 -43.3799
-23.16 -0.609872 0 -34.1081
-12.41 0.874081 0 -40.7605
-8.30386 1.32485 0 -43.9007
-17.9845 0.274487 0 -39.7202
-15.1936 0.434312 0 -40.2634
-19.1138 -0.427942 0 -34.5287
-10.5173 2.16929 0 -35.9176
-4.47051 3.04353 0 -44.4225
-6.8075 1.66961 0 -44.3668
-14.9437 0.406556 0 -35.1138
-7.06452 3.36535 0 -41.5006
-5.45205 2.17948 0 -44.605
-12.41 0.874081 0 -40.7605
-9.70315 1.71731 0 -41.1604
-10.5173 2.16929 0 -35.9176
-4.06 9.97388 0 -36.8105
-2.23113 6.51424 0 -41.8996
-4.47051 3.04353 0 -44.4225
-6.69356 5.00486 0 -36.5846
-3.4669 9.54567 0 -40.0996
-3.47377 4.56715 0 -43.611
-7.06452 3.36535 0 -41.5006
-4.83265 6.04987 0 -41.3721
-4.06 9.97388 0 -36.8105
-0.19413 29.182 0 -33.3962
-1.56738 10.0866 0 -34.1174
-2.23113 6.51424 0 -41.8996
-1.93812 18.2783 0 -36.1084
-1.31574 19.2066 0 -33.1112
-1.41917 8.35933 0 -38.8501
-3.4669 9.54567 0 -40.0996
-2.47079 13.8689 0 -37.3507
-0.19413 29.182 0 -33.3962
0.989935 50.5856 0 -16.8654
-1.79495 14.6508 0 -19.3049
-1.56738 10.0866 0 -34.1174
1.00939 41.033 0 -27.2269
0.331836 31.306 0 -19.1624
-1.91778 12.1335 0 -27.6405
-1.31574 19.2066 0 -33.1112
-0.22843 25.3597 0 -27.189
-386.348 -115.883 0 154.113
-377.017 -64.8552 0 51.1351
373.297 62.8713 0 50.8934
382.402 114.742 0 153.889
-370.397 -90.7014 0 97.223
-1.97581 -1.0145 0 57.8329
366.581 89.0669 0 97.0335
-2.10906 -0.568471 0 157.198
-2.02033 -0.850647 0 108.751
-377.017 -64.8552 0 51.1351
-397.213 -39.6414 0 -10.4523
393.604 37.2468 0 -10.877
373.297 62.8713 0 50.8934
-392.628 -50.8273 0 14.9126
-1.93112 -1.22041 0 -7.42643
388.975 48.6016 0 14.5791
-1.97581 -1.0145 0 57.8329
-1.9559 -1.13092 0 17.6534
-397.213 -39.6414 0 -10.4523
-398.566 -16.7656 0 -38.2973
395.023 14.1366 0 -38.9213
393.604 37.2468 0 -10.877
-396.477 -27.0074 0 -27.251
-1.90467 -1.35339 0 -37.6704
392.901 24.4844 0 -27.773
-1.93112 -1.22041 0 -7.42643
-1.91231 -1.29357 0 -24.6146
-398.566 -16.7656 0 -38.2973
-399.684 -6.12233 0 -48.1627
396.2 3.30407 0 -48.9733
395.023 14.1366 0 -38.9213
-400.879 -10.5239 0 -44.9227
-1.88304 -1.44365 0 -49.3547
397.367 7.79654 0 -45.6436
-1.90467 -1.35339 0 -37.6704
-1.89745 -1.40199 0 -45.6986
-399.684 -6.12233 0 -48.1627
-395.408 -0.608659 0 -49.1303
391.977 -2.36033 0 -50.1071
396.2 3.30407 0 -48.9733
-397.026 -2.62312 0 -49.1998
-1.85753 -1.51639 0 -51.3479
393.57 -0.276236 0 -50.0956
-1.88304 -1.44365 0 -49.3547
-1.86855 -1.48242 0 -50.8421
-395.408 -0.608659 0 -49.1303
-391.822 0.391868 0 -47.2826
388.427 -3.46409 0 -48.4114
391.977 -2.36033 0 -50.1071
-394.008 0.126821 0 -48.386
-1.83714 -1.56504 0 -49.6184
390.598 -3.15374 0 -49.4399
-1.85753 -1.51639 0 -51.3479
-1.84731 -1.54373 0 -50.8218
-391.822 0.391868 0 -47.2826
-387.612 0.423624 0 -44.9237
384.235 -3.54783 0 -46.2021
388.427 -3.46409 0 -48.4114
-389.442 0.53931 0 -46.0557
-1.82443 -1.59166 0 -47.1702
386.058 -3.64379 0 -47.2591
-1.83714 -1.56504 0 -49.6184
-1.82924 -1.58122 0 -48.3127
-387.612 0.423624 0 -44.9237
-384.376 -0.167095 0 -43.0359
381.004 -2.96459 0 -44.4659
384.235 -3.54783 0 -46.2021
-386.033 0.123532 0 -43.9123
-1.81932 -1.59587 0 -45.1015
382.66 -3.2564 0 -45.2662
-1.82443 -1.59166 0 -47.1702
-1.82134 -1.59627 0 -46.0901
-384.376 -0.167095 0 -43.0359
-381.394 -0.612321 0 -41.7056
378.018 -2.49278 0 -43.2906
381.004 -2.96459 0 -44.4659
-382.774 -0.393493 0 -42.2974
-1.81922 -1.5834 0 -43.6624
379.4 -2.72852 0 -43.8045
-1.81932 -1.59587 0 -45.1015
-1.81869 -1.59146 0 -44.2882
-381.394 -0.612321 0 -41.7056
-378.898 -0.976759 0 -40.8583
375.514 -2.07828 0 -42.6002
378.018 -2.49278 0 -43.2906
-380.139 -0.8186 0 -41.2335
-1.8216 -1.55856 0 -42.756
376.759 -2.2638 0 -42.8968
-1.81922 -1.5834 0 -43.6624
-1.82032 -1.57222 0 -43.1592
-378.898 -0.976759 0 -40.8583
-376.573 -1.17675 0 -40.3331
373.181 -1.81356 0 -42.2324
375.514 -2.07828 0 -42.6002
-377.699 -1.08901 0 -40.5624
-1.82448 -1.5261 0 -42.2297
374.311 -1.93506 0 -42.3831
-1.8216 -1.55856 0 -42.756
-1.82305 -1.54306 0 -42.4514
-376.573 -1.17675 0 -40.3331
-374.417 -1.28978 0 -40.0137
371.02 -1.62761 0 -42.0694
373.181 -1.81356 0 -42.2324
-375.49 -1.2451 0 -40.1545
-1.82662 -1.48916 0 -41.9401
372.095 -1.70947 0 -42.1322
-1.82448 -1.5261 0 -42.2297
-1.82571 -1.50802 0 -42.064
-374.417 -1.28978 0 -40.0137
-372.322 -1.33097 0 -39.8119
368.922 -1.50966 0 -42.0219
371.02 -1.62761 0 -42.0694
-373.36 -1.31599 0 -39.9018
-1.82746 -1.45013 0 -41.7905
369.96 -1.56331 0 -42.0349
-1.82662 -1.48916 0 -41.9401
-1.82722 -1.4698 0 -41.8517
-372.322 -1.33097 0 -39.8119
-370.275 -1.33665 0 -39.6759
366.874 -1.42609 0 -42.0377
368.922 -1.50966 0 -42.0219
-371.297 -1.33781 0 -39.7382
-1.82683 -1.41041 0 -41.7171
367.896 -1.4639 0 -42.0244
-1.82746 -1.45013 0 -41.7905
-1.82733 -1.4303 0 -41.7474
-370.275 -1.33665 0 -39.6759
-368.242 -1.31958 0 -39.5743
364.845 -1.36566 0 -42.0848
366.874 -1.42609 0 -42.0377
-369.256 -1.32984 0 -39.6221
-1.82482 -1.37084 0 -41.6837
365.857 -1.39404 0 -42.0586
-1.82683 -1.41041 0 -41.7171
-1.82598 -1.39058 0 -41.6968
-368.242 -1.31958 0 -39.5743
-366.22 -1.29238 0 -39.4903
362.827 -1.31651 0 -42.1466
364.845 -1.36566 0 -42.0848
-367.231 -1.307 0 -39.5308
-1.82165 -1.33183 0 -41.6697
363.835 -1.33989 0 -42.1146
-1.82482 -1.37084 0 -41.6837
-1.82337 -1.35125 0 -41.6752
-366.22 -1.29238 0 -39.4903
-364.2 -1.25982 0 -39.415
360.814 -1.2741 0 -42.2141
362.827 -1.31651 0 -42.1466
-365.21 -1.27646 0 -39.4519
-1.81759 -1.29353 0 -41.6647
361.82 -1.29477 0 -42.1799
-1.82165 -1.33183 0 -41.6697
-1.81972 -1.31259 0 -41.6665
-364.2 -1.25982 0 -39.415
-362.182 -1.22543 0 -39.3442
358.803 -1.23495 0 -42.2831
360.814 -1.2741 0 -42.2141
-363.191 -1.24278 0 -39.3792
-1.81285 -1.25595 0 -41.6634
359.808 -1.2542 0 -42.2485
-1.81759 -1.29353 0 -41.6647
-1.81529 -1.27465 0 -41.6638
-362.182 -1.22543 0 -39.3442
-360.163 -1.19046 0 -39.2759
356.793 -1.19769 0 -42.3516
358.803 -1.23495 0 -42.2831
-361.172 -1.20795 0 -39.3098
-1.80764 -1.21904 0 -41.6635
357.798 -1.21616 0 -42.3175
-1.81285 -1.25595 0 -41.6634
-1.81029 -1.23742 0 -41.6634
-360.163 -1.19046 0 -39.2759
-358.144 -1.15564 0 -39.2092
354.783 -1.16139 0 -42.419
356.793 -1.19769 0 -42.3516
-359.153 -1.17302 0 -39.2424
-1.80213 -1.18272 0 -41.6639
355.788 -1.17944 0 -42.3855
-1.80764 -1.21904 0 -41.6635
-1.80492 -1.20082 0 -41.6637
-358.144 -1.15564 0 -39.2092
-356.124 -1.12116 0 -39.1438
352.773 -1.1257 0 -42.485
354.783 -1.16139 0 -42.419
-357.134 -1.13835 0 -39.1763
-1.79642 -1.14689 0 -41.6642
353.778 -1.14349 0 -42.4522
-1.80213 -1.18272 0 -41.6639
-1.79929 -1.16475 0 -41.664
-356.124 -1.12116 0 -39.1438
-354.105 -1.0871 0 -39.0796
350.764 -1.09041 0 -42.5495
352.773 -1.1257 0 -42.485
-355.115 -1.10408 0 -39.1115
-1.7906 -1.11148 0 -41.6644
351.768 -1.10801 0 -42.5174
-1.79642 -1.14689 0 -41.6642
-1.79352 -1.12914 0 -41.6643
-354.105 -1.0871 0 -39.0796
-352.085 -1.05342 0 -39.0166
348.754 -1.05541 0 -42.6126
350.764 -1.09041 0 -42.5495
-353.095 -1.07021 0 -39.0479
-1.78474 -1.07642 0 -41.6644
349.759 -1.07288 0 -42.5813
-1.7906 -1.11148 0 -41.6644
-1.78767 -1.09391 0 -41.6644
-352.085 -1.05342 0 -39.0166
-350.065 -1.02007 0 -38.9547
346.744 -1.02067 0 -42.6744
348.754 -1.05541 0 -42.6126
-351.075 -1.0367 0 -38.9855
-1.77886 -1.04166 0 -41.6644
347.749 -1.03801 0 -42.6437
-1.78474 -1.07642 0 -41.6644
-1.7818 -1.05901 0 -41.6644
-350.065 -1.02007 0 -38.9547
-348.045 -0.987026 0 -38.8941
344.734 -0.986143 0 -42.7348
346.744 -1.02067 0 -42.6744
-349.055 -1.00351 0 -38.9243
-1.77299 -1.00717 0 -41.6643
345.739 -1.00338 0 -42.7048
-1.77886 -1.04166 0 -41.6644
-1.77592 -1.02439 0 -41.6644
-348.045 -0.987026 0 -38.8941
-346.025 -0.954243 0 -38.8347
342.724 -0.95182 0 -42.794
344.734 -0.986143 0 -42.7348
-347.035 -0.970603 0 -38.8643
-1.76715 -0.972922 0 -41.6642
343.729 -0.968957 0 -42.7646
-1.77299 -1.00717 0 -41.6643
-1.77006 -0.990019 0 -41.6643
-346.025 -0.954243 0 -38.8347
-344.005 -0.921701 0 -38.7765
340.714 -0.917688 0 -42.8519
342.724 -0.95182 0 -42.794
-345.015 -0.937943 0 -38.8055
-1.76133 -0.938892 0 -41.664
341.719 -0.93473 0 -42.8231
-1.76715 -0.972922 0 -41.6642
-1.76423 -0.95588 0 -41.6641
-344.005 -0.921701 0 -38.7765
-341.986 -0.889382 0 -38.7196
338.704 -0.883742 0 -42.9085
340.714 -0.917688 0 -42.8519
-342.995 -0.905514 0 -38.7479
-1.75555 -0.905071 0 -41.6638
339.709 -0.900692 0 -42.8803
-1.76133 -0.938892 0 -41.664
-1.75844 -0.921956 0 -41.6639
-341.986 -0.889382 0 -38.7196
-339.966 -0.857276 0 -38.6638
336.693 -0.849978 0 -42.9639
338.704 -0.883742 0 -42.9085
-340.976 -0.873303 0 -38.6915
-1.74981 -0.871453 0 -41.6637
337.699 -0.866837 0 -42.9364
-1.75555 -0.905071 0 -41.6638
-1.75268 -0.888237 0 -41.6637
-339.966 -0.857276 0 -38.6638
-337.946 -0.825378 0 -38.6092
334.683 -0.816394 0 -43.0181
336.693 -0.849978 0 -42.9639
-338.956 -0.841301 0 -38.6364
-1.7441 -0.838033 0 -41.6635
335.688 -0.833164 0 -42.9912
-1.74981 -0.871453 0 -41.6637
-1.74695 -0.854719 0 -41.6636
-337.946 -0.825378 0 -38.6092
-335.926 -0.793682 0 -38.5559
332.673 -0.78299 0 -43.0711
334.683 -0.816394 0 -43.0181
-336.936 -0.809505 0 -38.5824
-1.73843 -0.804809 0 -41.6633
333.678 -0.79967 0 -43.0448
-1.7441 -0.838033 0 -41.6635
-1.74126 -0.821397 0 -41.6634
-335.926 -0.793682 0 -38.5559
-333.906 -0.762187 0 -38.5037
330.663 -0.749766 0 -43.1229
332.673 -0.78299 0 -43.0711
-334.916 -0.77791 0 -38.5296
-1.73279 -0.771778 0 -41.6631
331.668 -0.766355 0 -43.0972
-1.73843 -0.804809 0 -41.6633
-1.73561 -0.788269 0 -41.6632
-333.906 -0.762187 0 -38.5037
-331.886 -0.730892 0 -38.4527
328.652 -0.716722 0 -43.1735
330.663 -0.749766 0 -43.1229
-332.896 -0.746515 0 -38.4781
-1.72719 -0.738942 0 -41.6628
329.658 -0.733221 0 -43.1484
-1.73279 -0.771778 0 -41.6631
-1.72999 -0.755336 0 -41.6629
-331.886 -0.730892 0 -38.4527
-329.867 -0.699795 0 -38.4029
326.642 -0.68386 0 -43.2229
328.652 -0.716722 0 -43.1735
-330.877 -0.715318 0 -38.4276
-1.72162 -0.706299 0 -41.6626
327.647 -0.700268 0 -43.1984
-1.72719 -0.738942 0 -41.6628
-1.7244 -0.722596 0 -41.6627
-329.867 -0.699795 0 -38.4029
-327.847 -0.668895 0 -38.3542
324.632 -0.65118 0 -43.2712
326.642 -0.68386 0 -43.2229
-328.857 -0.68432 0 -38.3784
-1.71607 -0.673851 0 -41.6624
325.637 -0.667497 0 -43.2472
-1.72162 -0.706299 0 -41.6626
-1.71884 -0.690051 0 -41.6625
-327.847 -0.668895 0 -38.3542
-325.827 -0.638193 0 -38.3068
322.621 -0.618685 0 -43.3182
324.632 -0.65118 0 -43.2712
-326.837 -0.65352 0 -38.3304
-1.71056 -0.641598 0 -41.6622
323.626 -0.63491 0 -43.2948
-1.71607 -0.673851 0 -41.6624
-1.71332 -0.6577 0 -41.6623
-325.827 -0.638193 0 -38.3068
-323.807 -0.607688 0 -38.2604
320.611 -0.586374 0 -43.3641
322.621 -0.618685 0 -43.3182
-324.817 -0.622916 0 -38.2834
-1.70508 -0.609539 0 -41.662
321.616 -0.602506 0 -43.3413
-1.71056 -0.641598 0 -41.6622
-1.70782 -0.625544 0 -41.6621
-323.807 -0.607688 0 -38.2604
-321.788 -0.577379 0 -38.2153
318.6 -0.554249 0 -43.4089
320.611 -0.586374 0 -43.3641
-322.798 -0.592509 0 -38.2377
-1.69964 -0.577675 0 -41.6617
319.606 -0.570288 0 -43.3866
-1.70508 -0.609539 0 -41.662
-1.70236 -0.593583 0 -41.6618
-321.788 -0.577379 0 -38.2153
-319.768 -0.547267 0 -38.1712
316.59 -0.522311 0 -43.4524
318.6 -0.554249 0 -43.4089
-320.778 -0.562299 0 -38.1931
-1.69422 -0.546007 0 -41.6615
317.595 -0.538257 0 -43.4308
-1.69964 -0.577675 0 -41.6617
-1.69692 -0.561817 0 -41.6616
-319.768 -0.547267 0 -38.1712
-317.749 -0.517349 0 -38.1283
314.579 -0.490561 0 -43.4949
316.59 -0.522311 0 -43.4524
-318.758 -0.532284 0 -38.1496
-1.68883 -0.514535 0 -41.6612
315.585 -0.506413 0 -43.4738
-1.69422 -0.546007 0 -41.6615
-1.69152 -0.530247 0 -41.6614
-317.749 -0.517349 0 -38.1283
-315.729 -0.487627 0 -38.0865
312.569 -0.459 0 -43.5362
314.579 -0.490561 0 -43.4949
-316.739 -0.502464 0 -38.1073
-1.68347 -0.483259 0 -41.661
313.574 -0.474757 0 -43.5157
-1.68883 -0.514535 0 -41.6612
-1.68615 -0.498872 0 -41.6611
-315.729 -0.487627 0 -38.0865
-313.709 -0.458099 0 -38.0459
310.558 -0.427629 0 -43.5764
312.569 -0.459 0 -43.5362
-314.719 -0.472838 0 -38.0661
-1.67814 -0.452179 0 -41.6608
311.564 -0.443291 0 -43.5564
-1.68347 -0.483259 0 -41.661
-1.6808 -0.467694 0 -41.6609
-313.709 -0.458099 0 -38.0459
-311.69 -0.428764 0 -38.0063
308.548 -0.396449 0 -43.6154
310.558 -0.427629 0 -43.5764
-312.7 -0.443407 0 -38.026
-1.67285 -0.421295 0 -41.6605
309.553 -0.412015 0 -43.5961
-1.67814 -0.452179 0 -41.6608
-1.67549 -0.436712 0 -41.6606
-311.69 -0.428764 0 -38.0063
-309.67 -0.399623 0 -37.9679
306.537 -0.36546 0 -43.6534
308.548 -0.396449 0 -43.6154
-310.68 -0.414169 0 -37.987
-1.66758 -0.390607 0 -41.6602
307.542 -0.38093 0 -43.6346
-1.67285 -0.421295 0 -41.6605
-1.67021 -0.405926 0 -41.6604
-309.67 -0.399623 0 -37.9679
-307.651 -0.370674 0 -37.9306
304.526 -0.334663 0 -43.6902
306.537 -0.36546 0 -43.6534
-308.661 -0.385124 0 -37.9491
-1.66235 -0.360116 0 -41.66
305.532 -0.350037 0 -43.6719
-1.66758 -0.390607 0 -41.6602
-1.66496 -0.375337 0 -41.6601
-307.651 -0.370674 0 -37.9306
-305.631 -0.341917 0 -37.8943
302.516 -0.304059 0 -43.726
304.526 -0.334663 0 -43.6902
-306.641 -0.356272 0 -37.9123
-1.65714 -0.329821 0 -41.6597
303.521 -0.319336 0 -43.7082
-1.66235 -0.360116 0 -41.66
-1.65974 -0.344944 0 -41.6599
-305.631 -0.341917 0 -37.8943
-303.612 -0.313352 0 -37.8592
300.505 -0.273648 0 -43.7606
302.516 -0.304059 0 -43.726
-304.622 -0.327611 0 -37.8766
-1.65197 -0.299723 0 -41.6595
301.51 -0.288829 0 -43.7434
-1.65714 -0.329821 0 -41.6597
-1.65455 -0.314747 0 -41.6596
-303.612 -0.313352 0 -37.8592
-301.592 -0.284978 0 -37.8251
298.494 -0.243432 0 -43.7942
300.505 -0.273648 0 -43.7606
-302.602 -0.299141 0 -37.842
-1.64682 -0.269822 0 -41.6592
299.5 -0.258516 0 -43.7775
-1.65197 -0.299723 0 -41.6595
-1.64939 -0.284748 0 -41.6593
-301.592 -0.284978 0 -37.8251
-299.573 -0.256794 0 -37.7921
296.484 -0.213412 0 -43.8267
298.494 -0.243432 0 -43.7942
-300.583 -0.270862 0 -37.8085
-1.64171 -0.240117 0 -41.6589
297.489 -0.228398 0 -43.8106
-1.64682 -0.269822 0 -41.6592
-1.64426 -0.254945 0 -41.6591
-299.573 -0.256794 0 -37.7921
-297.554 -0.228799 0 -37.7601
294.473 -0.183587 0 -43.8581
296.484 -0.213412 0 -43.8267
-298.563 -0.242773 0 -37.776
-1.63663 -0.210609 0 -41.6586
295.478 -0.198475 0 -43.8425
-1.64171 -0.240117 0 -41.6589
-1.63916 -0.225339 0 -41.6588
-297.554 -0.228799 0 -37.7601
-295.534 -0.200994 0 -37.7293
292.462 -0.153958 0 -43.8884
294.473 -0.183587 0 -43.8581
-296.544 -0.214873 0 -37.7446
-1.63158 -0.181298 0 -41.6584
293.468 -0.168748 0 -43.8734
-1.63663 -0.210609 0 -41.6586
-1.6341 -0.195929 0 -41.6585
-295.534 -0.200994 0 -37.7293
-293.515 -0.173378 0 -37.6994
290.451 -0.124526 0 -43.9177
292.462 -0.153958 0 -43.8884
-294.525 -0.187162 0 -37.7142
-1.62656 -0.152184 0 -41.6581
291.457 -0.139218 0 -43.9032
-1.63158 -0.181298 0 -41.6584
-1.62906 -0.166717 0 -41.6582
-293.515 -0.173378 0 -37.6994
-291.496 -0.14595 0 -37.6706
288.441 -0.0952927 0 -43.946
290.451 -0.124526 0 -43.9177
-292.506 -0.15964 0 -37.6849
-1.62157 -0.123267 0 -41.6578
289.446 -0.109885 0 -43.932
-1.62656 -0.152184 0 -41.6581
-1.62406 -0.137701 0 -41.6579
-291.496 -0.14595 0 -37.6706
-289.477 -0.118709 0 -37.6429
286.43 -0.0662573 0 -43.9732
288.441 -0.0952927 0 -43.946
-290.486 -0.132306 0 -37.6566
-1.61661 -0.0945476 0 -41.6575
287.435 -0.0807502 0 -43.9597
-1.62157 -0.123267 0 -41.6578
-1.61909 -0.108883 0 -41.6577
-289.477 -0.118709 0 -37.6429
-287.458 -0.0916557 0 -37.6161
284.419 -0.0374209 0 -43.9994
286.43 -0.0662573 0 -43.9732
-288.467 -0.105159 0 -37.6294
-1.61169 -0.066025 0 -41.6572
285.424 -0.0518142 0 -43.9864
-1.61661 -0.0945476 0 -41.6575
-1.61414 -0.0802617 0 -41.6574
-287.458 -0.0916557 0 -37.6161
-285.438 -0.0647891 0 -37.5904
282.408 -0.00878403 0 -44.0245
284.419 -0.0374209 0 -43.9994
-286.448 -0.0781991 0 -37.6031
-1.60679 -0.0376995 0 -41.6569
283.414 -0.0230775 0 -44.0121
-1.61169 -0.066025 0 -41.6572
-1.60923 -0.0518376 0 -41.6571
-285.438 -0.0647891 0 -37.5904
-283.419 -0.0381089 0 -37.5657
280.397 0.0196526 0 -44.0487
282.408 -0.00878403 0 -44.0245
-284.429 -0.0514257 0 -37.5779
-1.60193 -0.00957135 0 -41.6567
281.403 0.00545937 0 -44.0367
-1.60679 -0.0376995 0 -41.6569
-1.60436 -0.0236108 0 -41.6568
-283.419 -0.0381089 0 -37.5657
-281.4 -0.0116144 0 -37.542
278.387 0.0478886 0 -44.0718
280.397 0.0196526 0 -44.0487
-282.41 -0.0248384 0 -37.5537
-1.5971 0.0183595 0 -41.6564
279.392 0.0337957 0 -44.0603
-1.60193 -0.00957135 0 -41.6567
-1.59951 0.00441874 0 -41.6565
-281.4 -0.0116144 0 -37.542
-279.381 0.0146946 0 -37.5193
276.376 0.0759232 0 -44.0939
278.387 0.0478886 0 -44.0718
-280.391 0.00156327 0 -37.5305
-1.5923 0.0460929 0 -41.6561
277.381 0.0619311 0 -44.083
-1.5971 0.0183595 0 -41.6564
-1.59469 0.0322509 0 -41.6562
-279.381 0.0146946 0 -37.5193
-277.362 0.0408187 0 -37.4976
274.365 0.103756 0 -44.115
276.376 0.0759232 0 -44.0939
-278.372 0.0277798 0 -37.5083
-1.58753 0.0736288 0 -41.6558
275.37 0.0898648 0 -44.1046
-1.5923 0.0460929 0 -41.6561
-1.58991 0.0598855 0 -41.6559
-277.362 0.0408187 0 -37.4976
-275.343 0.0667583 0 -37.4769
272.354 0.131386 0 -44.1352
274.365 0.103756 0 -44.115
-276.353 0.0538116 0 -37.4871
-1.58279 0.100967 0 -41.6555
273.359 0.117596 0 -44.1252
-1.58753 0.0736288 0 -41.6558
-1.58515 0.0873227 0 -41.6556
-275.343 0.0667583 0 -37.4769
-273.324 0.0925137 0 -37.4572
270.343 0.158814 0 -44.1543
272.354 0.131386 0 -44.1352
-274.334 0.079659 0 -37.4669
-1.57808 0.128108 0 -41.6552
271.348 0.145125 0 -44.1448
-1.58279 0.100967 0 -41.6555
-1.58043 0.114562 0 -41.6553
-273.324 0.0925137 0 -37.4572
-271.306 0.118085 0 -37.4384
268.332 0.186038 0 -44.1725
270.343 0.158814 0 -44.1543
-272.315 0.105322 0 -37.4477
-1.57341 0.155051 0 -41.6549
269.337 0.172451 0 -44.1635
-1.57808 0.128108 0 -41.6552
-1.57574 0.141604 0 -41.655
-271.306 0.118085 0 -37.4384
-269.287 0.143474 0 -37.4206
266.321 0.213058 0 -44.1897
268.332 0.186038 0 -44.1725
-270.296 0.130802 0 -37.4294
-1.56877 0.181797 0 -41.6546
267.326 0.199573 0 -44.1812
-1.57341 0.155051 0 -41.6549
-1.57109 0.168449 0 -41.6547
-269.287 0.143474 0 -37.4206
-267.268 0.168679 0 -37.4038
264.31 0.239873 0 -44.2059
266.321 0.213058 0 -44.1897
-268.277 0.156099 0 -37.4121
-1.56416 0.208344 0 -41.6543
265.316 0.226491 0 -44.1979
-1.56877 0.181797 0 -41.6546
-1.56646 0.195095 0 -41.6544
-267.268 0.168679 0 -37.4038
-265.249 0.193701 0 -37.3879
262.299 0.266484 0 -44.2212
264.31 0.239873 0 -44.2059
-266.259 0.181213 0 -37.3957
-1.55958 0.234694 0 -41.6539
263.305 0.253204 0 -44.2137
-1.56416 0.208344 0 -41.6543
-1.56187 0.221544 0 -41.6541
-265.249 0.193701 0 -37.3879
-263.231 0.218542 0 -37.3729
260.288 0.292889 0 -44.2356
262.299 0.266484 0 -44.2212
-264.24 0.206144 0 -37.3803
-1.55504 0.260846 0 -41.6536
261.294 0.279712 0 -44.2285
-1.55958 0.234694 0 -41.6539
-1.55731 0.247795 0 -41.6538
-263.231 0.218542 0 -37.3729
-261.212 0.2432 0 -37.3589
258.277 0.319088 0 -44.249
260.288 0.292889 0 -44.2356
-262.221 0.230894 0 -37.3658
-1.55052 0.2868 0 -41.6533
259.283 0.306014 0 -44.2424
-1.55504 0.260846 0 -41.6536
-1.55278 0.273848 0 -41.6535
-261.212 0.2432 0 -37.3589
-259.193 0.267677 0 -37.3458
256.266 0.345081 0 -44.2615
258.277 0.319088 0 -44.249
-260.203 0.255461 0 -37.3522
-1.54604 0.312556 0 -41.653
257.272 0.332111 0 -44.2553
-1.55052 0.2868 0 -41.6533
-1.54828 0.299703 0 -41.6532
-259.193 0.267677 0 -37.3458
-257.175 0.291972 0 -37.3336
254.255 0.370868 0 -44.273
256.266 0.345081 0 -44.2615
-258.184 0.279847 0 -37.3396
-1.54159 0.338114 0 -41.6527
255.261 0.358 0 -44.2674
-1.54604 0.312556 0 -41.653
-1.54381 0.325359 0 -41.6529
-257.175 0.291972 0 -37.3336
-255.156 0.316087 0 -37.3224
252.244 0.396447 0 -44.2837
254.255 0.370868 0 -44.273
-256.165 0.304052 0 -37.3279
-1.53718 0.363473 0 -41.6524
253.25 0.383683 0 -44.2784
-1.54159 0.338114 0 -41.6527
-1.53938 0.350818 0 -41.6525
-255.156 0.316087 0 -37.3224
-253.138 0.340021 0 -37.312
250.233 0.421818 0 -44.2934
252.244 0.396447 0 -44.2837
-254.147 0.328076 0 -37.3171
-1.53279 0.388635 0 -41.6521
251.239 0.409159 0 -44.2886
-1.53718 0.363473 0 -41.6524
-1.53498 0.376079 0 -41.6522
-253.138 0.340021 0 -37.312
-251.119 0.363774 0 -37.3026
248.222 0.446982 0 -44.3022
250.233 0.421818 0 -44.2934
-252.128 0.35192 0 -37.3072
-1.52844 0.413598 0 -41.6518
249.228 0.434426 0 -44.2979
-1.53279 0.388635 0 -41.6521
-1.53061 0.401141 0 -41.6519
-251.119 0.363774 0 -37.3026
-249.101 0.387347 0 -37.294
246.211 0.471937 0 -44.3101
248.222 0.446982 0 -44.3022
-250.11 0.375583 0 -37.2982
-1.52412 0.438363 0 -41.6514
247.216 0.459486 0 -44.3063
-1.52844 0.413598 0 -41.6518
-1.52628 0.426005 0 -41.6516
-249.101 0.387347 0 -37.294
-247.083 0.41074 0 -37.2863
244.2 0.496684 0 -44.3172
246.211 0.471937 0 -44.3101
-248.092 0.399066 0 -37.2901
-1.51983 0.46293 0 -41.6511
245.205 0.484337 0 -44.3138
-1.52412 0.438363 0 -41.6514
-1.52197 0.450671 0 -41.6513
-247.083 0.41074 0 -37.2863
-245.064 0.433954 0 -37.2796
242.189 0.521221 0 -44.3234
244.2 0.496684 0 -44.3172
-246.073 0.42237 0 -37.2828
-1.51558 0.487298 0 -41.6508
243.194 0.508979 0 -44.3204
-1.51983 0.46293 0 -41.6511
-1.5177 0.475139 0 -41.651
-245.064 0.433954 0 -37.2796
-243.046 0.456988 0 -37.2736
240.178 0.545549 0 -44.3287
242.189 0.521221 0 -44.3234
-244.055 0.445494 0 -37.2765
-1.51136 0.511468 0 -41.6505
241.183 0.533412 0 -44.3261
-1.51558 0.487298 0 -41.6508
-1.51346 0.499408 0 -41.6506
-243.046 0.456988 0 -37.2736
-241.028 0.479844 0 -37.2686
238.167 0.569668 0 -44.3331
240.178 0.545549 0 -44.3287
-242.037 0.468438 0 -37.271
-1.50717 0.535439 0 -41.6502
239.172 0.557635 0 -44.331
-1.51136 0.511468 0 -41.6505
-1.50926 0.523478 0 -41.6503
-241.028 0.479844 0 -37.2686
-239.01 0.50252 0 -37.2644
236.156 0.593576 0 -44.3367
238.167 0.569668 0 -44.3331
-240.019 0.491204 0 -37.2664
-1.50301 0.559212 0 -41.6498
237.161 0.581648 0 -44.335
-1.50717 0.535439 0 -41.6502
-1.50509 0.54735 0 -41.65
-239.01 0.50252 0 -37.2644
-236.992 0.525017 0 -37.261
234.144 0.617274 0 -44.3394
236.156 0.593576 0 -44.3367
-238.001 0.513791 0 -37.2626
-1.49889 0.582786 0 -41.6495
235.15 0.605451 0 -44.3381
-1.50301 0.559212 0 -41.6498
-1.50095 0.571023 0 -41.6497
-236.992 0.525017 0 -37.261
-234.974 0.547336 0 -37.2585
232.133 0.64076 0 -44.3412
234.144 0.617274 0 -44.3394
-235.983 0.536199 0 -37.2597
-1.4948 0.606161 0 -41.6492
233.139 0.629043 0 -44.3404
-1.49889 0.582786 0 -41.6495
-1.49684 0.594498 0 -41.6494
-234.974 0.547336 0 -37.2585
-232.955 0.569477 0 -37.2569
230.122 0.664036 0 -44.3423
232.133 0.64076 0 -44.3412
-233.964 0.558429 0 -37.2576
-1.49074 0.629338 0 -41.6489
231.128 0.652425 0 -44.3419
-1.4948 0.606161 0 -41.6492
-1.49277 0.617774 0 -41.649
-232.955 0.569477 0 -37.2569
-230.938 0.59144 0 -37.256
228.111 0.687101 0 -44.3425
230.122 0.664036 0 -44.3423
-231.947 0.580481 0 -37.2563
-1.48672 0.652315 0 -41.6486
229.117 0.675595 0 -44.3425
-1.49074 0.629338 0 -41.6489
-1.48872 0.640851 0 -41.6487
-230.938 0.59144 0 -37.256
-228.92 0.613225 0 -37.256
226.1 0.709954 0 -44.3419
228.111 0.687101 0 -44.3425
-229.929 0.602354 0 -37.2559
-1.48272 0.675094 0 -41.6482
227.106 0.698554 0 -44.3423
-1.48672 0.652315 0 -41.6486
-1.48472 0.66373 0 -41.6484
-228.92 0.613225 0 -37.256
-226.902 0.634832 0 -37.2568
224.089 0.732595 0 -44.3405
226.1 0.709954 0 -44.3419
-227.911 0.62405 0 -37.2563
-1.47877 0.697675 0 -41.6479
225.094 0.721301 0 -44.3413
-1.48272 0.675094 0 -41.6482
-1.48074 0.686409 0 -41.6481
-226.902 0.634832 0 -37.2568
-224.884 0.656261 0 -37.2584
222.078 0.755024 0 -44.3382
224.089 0.732595 0 -44.3405
-225.893 0.645569 0 -37.2575
-1.47484 0.720056 0 -41.6476
223.083 0.743836 0 -44.3395
-1.47877 0.697675 0 -41.6479
-1.4768 0.70889 0 -41.6478
-224.884 0.656261 0 -37.2584
-222.866 0.677513 0 -37.2608
220.067 0.77724 0 -44.3352
222.078 0.755024 0 -44.3382
-223.875 0.666909 0 -37.2595
-1.47095 0.742238 0 -41.6473
221.072 0.766159 0 -44.3368
-1.47484 0.720056 0 -41.6476
-1.47289 0.731172 0 -41.6474
-222.866 0.677513 0 -37.2608
-220.848 0.698588 0 -37.264
218.055 0.799244 0 -44.3314
220.067 0.77724 0 -44.3352
-221.857 0.688072 0 -37.2623
-1.46709 0.764221 0 -41.647
219.061 0.788269 0 -44.3334
-1.47095 0.742238 0 -41.6473
-1.46902 0.753255 0 -41.6471
-220.848 0.698588 0 -37.264
-218.831 0.719485 0 -37.2679
216.044 0.821035 0 -44.3268
218.055 0.799244 0 -44.3314
-219.84 0.709058 0 -37.2659
-1.46327 0.786005 0 -41.6466
217.05 0.810166 0 -44.3292
-1.46709 0.764221 0 -41.647
-1.46517 0.775138 0 -41.6468
-218.831 0.719485 0 -37.2679
-216.813 0.740205 0 -37.2727
214.033 0.842613 0 -44.3214
216.044 0.821035 0 -44.3268
-217.822 0.729867 0 -37.2702
-1.45947 0.80759 0 -41.6463
215.039 0.831851 0 -44.3242
-1.46327 0.786005 0 -41.6466
-1.46137 0.796823 0 -41.6465
-216.813 0.740205 0 -37.2727
-214.796 0.760749 0 -37.2782
212.022 0.863978 0 -44.3152
214.033 0.842613 0 -44.3214
-215.804 0.750499 0 -37.2754
-1.45571 0.828976 0 -41.646
213.028 0.853322 0 -44.3184
-1.45947 0.80759 0 -41.6463
-1.45759 0.818308 0 -41.6462
-214.796 0.760749 0 -37.2782
-212.778 0.781116 0 -37.2845
210.011 0.885129 0 -44.3083
212.022 0.863978 0 -44.3152
-213.787 0.770954 0 -37.2813
-1.45199 0.850163 0 -41.6457
211.016 0.87458 0 -44.3119
-1.45571 0.828976 0 -41.646
-1.45385 0.839594 0 -41.6458
-212.778 0.781116 0 -37.2845
-210.761 0.801305 0 -37.2916
208 0.906066 0 -44.3006
210.011 0.885129 0 -44.3083
-211.769 0.791233 0 -37.2879
-1.4483 0.87115 0 -41.6454
209.005 0.895624 0 -44.3046
-1.45199 0.850163 0 -41.6457
-1.45014 0.860681 0 -41.6455
-210.761 0.801305 0 -37.2916
-208.743 0.821319 0 -37.2994
205.988 0.92679 0 -44.2922
208 0.906066 0 -44.3006
-209.752 0.811334 0 -37.2954
-1.44464 0.891938 0 -41.6451
206.994 0.916455 0 -44.2965
-1.4483 0.87115 0 -41.6454
-1.44646 0.881569 0 -41.6452
-208.743 0.821319 0 -37.2994
-206.726 0.841155 0 -37.3079
203.977 0.947299 0 -44.2831
205.988 0.92679 0 -44.2922
-207.735 0.831259 0 -37.3035
-1.44102 0.912527 0 -41.6447
204.983 0.937071 0 -44.2877
-1.44464 0.891938 0 -41.6451
-1.44282 0.902258 0 -41.6449
-206.726 0.841155 0 -37.3079
-204.709 0.860816 0 -37.3172
201.966 0.967595 0 -44.2732
203.977 0.947299 0 -44.2831
-205.717 0.851008 0 -37.3124
-1.43742 0.932916 0 -41.6444
202.972 0.957474 0 -44.2782
-1.44102 0.912527 0 -41.6447
-1.43922 0.922747 0 -41.6446
-204.709 0.860816 0 -37.3172
-202.691 0.880299 0 -37.3272
199.955 0.987676 0 -44.2625
201.966 0.967595 0 -44.2732
-203.7 0.87058 0 -37.3221
-1.43387 0.953106 0 -41.6441
200.96 0.977662 0 -44.2679
-1.43742 0.932916 0 -41.6444
-1.43564 0.943036 0 -41.6443
-202.691 0.880299 0 -37.3272
-200.674 0.899607 0 -37.3379
197.944 1.00754 0 -44.2512
199.955 0.987676 0 -44.2625
-201.683 0.889975 0 -37.3324
-1.43034 0.973097 0 -41.6438
198.949 0.997636 0 -44.2569
-1.43387 0.953106 0 -41.6441
-1.4321 0.963126 0 -41.644
-200.674 0.899607 0 -37.3379
-198.657 0.918738 0 -37.3493
195.932 1.02719 0 -44.2391
197.944 1.00754 0 -44.2512
-199.666 0.909194 0 -37.3435
-1.42686 0.992887 0 -41.6435
196.938 1.0174 0 -44.2452
-1.43034 0.973097 0 -41.6438
-1.4286 0.983017 0 -41.6436
-198.657 0.918738 0 -37.3493
-196.64 0.937693 0 -37.3615
193.921 1.04663 0 -44.2264
195.932 1.02719 0 -44.2391
-197.648 0.928237 0 -37.3553
-1.4234 1.01248 0 -41.6432
194.927 1.03694 0 -44.2328
-1.42686 0.992887 0 -41.6435
-1.42512 1.00271 0 -41.6433
-196.64 0.937693 0 -37.3615
-194.623 0.956471 0 -37.3743
191.91 1.06585 0 -44.2129
193.921 1.04663 0 -44.2264
-195.631 0.947104 0 -37.3678
-1.41998 1.03187 0 -41.6429
192.916 1.05627 0 -44.2197
-1.4234 1.01248 0 -41.6432
-1.42168 1.0222 0 -41.643
-194.623 0.956471 0 -37.3743
-192.606 0.975074 0 -37.3879
189.899 1.08486 0 -44.1988
191.91 1.06585 0 -44.2129
-193.614 0.965795 0 -37.381
-1.41659 1.05106 0 -41.6426
190.904 1.07538 0 -44.2059
-1.41998 1.03187 0 -41.6429
-1.41828 1.04149 0 -41.6427
-192.606 0.975074 0 -37.3879
-190.589 0.9935 0 -37.4021
187.888 1.10365 0 -44.1839
189.899 1.08486 0 -44.1988
-191.597 0.984309 0 -37.3949
-1.41324 1.07005 0 -41.6423
188.893 1.09428 0 -44.1914
-1.41659 1.05106 0 -41.6426
-1.41491 1.06058 0 -41.6424
-190.589 0.9935 0 -37.4021
-188.572 1.01175 0 -37.417
185.876 1.12223 0 -44.1684
187.888 1.10365 0 -44.1839
-189.58 1.00265 0 -37.4095
-1.40992 1.08885 0 -41.6419
186.882 1.11297 0 -44.1763
-1.41324 1.07005 0 -41.6423
-1.41157 1.07948 0 -41.6421
-188.572 1.01175 0 -37.417
-186.555 1.02982 0 -37.4326
183.865 1.14059 0 -44.1522
185.876 1.12223 0 -44.1684
-187.564 1.02081 0 -37.4247
-1.40663 1.10744 0 -41.6416
184.871 1.13144 0 -44.1604
-1.40992 1.08885 0 -41.6419
-1.40827 1.09817 0 -41.6418
-186.555 1.02982 0 -37.4326
-184.538 1.04772 0 -37.4488
181.854 1.15874 0 -44.1354
183.865 1.14059 0 -44.1522
-185.547 1.03879 0 -37.4406
-1.40338 1.12583 0 -41.6413
182.859 1.14969 0 -44.1439
-1.40663 1.10744 0 -41.6416
-1.405 1.11666 0 -41.6415
-184.538 1.04772 0 -37.4488
-182.522 1.06544 0 -37.4657
179.843 1.17667 0 -44.1179
181.854 1.15874 0 -44.1354
-183.53 1.0566 0 -37.4572
-1.40016 1.14403 0 -41.641
180.848 1.16773 0 -44.1267
-1.40338 1.12583 0 -41.6413
-1.40177 1.13495 0 -41.6412
-182.522 1.06544 0 -37.4657
-180.505 1.08299 0 -37.4832
177.831 1.19439 0 -44.0998
179.843 1.17667 0 -44.1179
-181.513 1.07424 0 -37.4744
-1.39698 1.16202 0 -41.6407
178.837 1.18555 0 -44.1089
-1.40016 1.14403 0 -41.641
-1.39857 1.15305 0 -41.6409
-180.505 1.08299 0 -37.4832
-178.488 1.10036 0 -37.5014
175.82 1.21189 0 -44.081
177.831 1.19439 0 -44.0998
-179.497 1.09169 0 -37.4922
-1.39383 1.17981 0 -41.6404
176.826 1.20316 0 -44.0905
-1.39698 1.16202 0 -41.6407
-1.3954 1.17094 0 -41.6406
-178.488 1.10036 0 -37.5014
-176.472 1.11755 0 -37.5202
173.809 1.22917 0 -44.0616
175.82 1.21189 0 -44.081
-177.48 1.10897 0 -37.5107
-1.39072 1.19741 0 -41.6401
174.814 1.22055 0 -44.0714
-1.39383 1.17981 0 -41.6404
-1.39227 1.18863 0 -41.6403
-176.472 1.11755 0 -37.5202
-174.455 1.13457 0 -37.5397
171.798 1.24624 0 -44.0416
173.809 1.22917 0 -44.0616
-175.464 1.12608 0 -37.5299
-1.38764 1.2148 0 -41.6398
172.803 1.23773 0 -44.0516
-1.39072 1.19741 0 -41.6401
-1.38917 1.20613 0 -41.64
-174.455 1.13457 0 -37.5397
-172.439 1.1514 0 -37.5598
169.786 1.26309 0 -44.0209
171.798 1.24624 0 -44.0416
-173.447 1.14301 0 -37.5496
-1.38459 1.23199 0 -41.6396
170.792 1.25469 0 -44.0313
-1.38764 1.2148 0 -41.6398
-1.38611 1.22342 0 -41.6397
-172.439 1.1514 0 -37.5598
-170.422 1.16807 0 -37.5804
167.775 1.27973 0 -43.9996
169.786 1.26309 0 -44.0209
-171.431 1.15976 0 -37.57
-1.38158 1.24899 0 -41.6393
168.781 1.27144 0 -44.0103
-1.38459 1.23199 0 -41.6396
-1.38308 1.24051 0 -41.6394
-170.422 1.16807 0 -37.5804
-168.406 1.18455 0 -37.6017
165.764 1.29615 0 -43.9778
167.775 1.27973 0 -43.9996
-169.414 1.17633 0 -37.591
-1.3786 1.26578 0 -41.639
166.769 1.28797 0 -43.9888
-1.38158 1.24899 0 -41.6393
-1.38009 1.25741 0 -41.6391
-168.406 1.18455 0 -37.6017
-166.39 1.20087 0 -37.6236
163.752 1.31236 0 -43.9553
165.764 1.29615 0 -43.9778
-167.398 1.19273 0 -37.6126
-1.37566 1.28237 0 -41.6387
164.758 1.30428 0 -43.9666
-1.3786 1.26578 0 -41.639
-1.37713 1.2741 0 -41.6388
-166.39 1.20087 0 -37.6236
-164.373 1.217 0 -37.6461
161.741 1.32835 0 -43.9323
163.752 1.31236 0 -43.9553
-165.382 1.20895 0 -37.6348
-1.37275 1.29876 0 -41.6384
162.747 1.32038 0 -43.9439
-1.37566 1.28237 0 -41.6387
-1.3742 1.29059 0 -41.6385
-164.373 1.217 0 -37.6461
-162.357 1.23296 0 -37.6692
159.73 1.34413 0 -43.9086
161.741 1.32835 0 -43.9323
-163.365 1.225 0 -37.6576
-1.36988 1.31496 0 -41.6381
160.735 1.33627 0 -43.9205
-1.37275 1.29876 0 -41.6384
-1.37131 1.30689 0 -41.6383
-162.357 1.23296 0 -37.6692
-160.341 1.24874 0 -37.6928
157.718 1.35969 0 -43.8844
159.73 1.34413 0 -43.9086
-161.349 1.24087 0 -37.6809
-1.36704 1.33095 0 -41.6378
158.724 1.35193 0 -43.8966
-1.36988 1.31496 0 -41.6381
-1.36846 1.32298 0 -41.638
-160.341 1.24874 0 -37.6928
-158.325 1.26434 0 -37.717
155.707 1.37503 0 -43.8596
157.718 1.35969 0 -43.8844
-159.333 1.25656 0 -37.7049
-1.36424 1.34674 0 -41.6376
156.713 1.36739 0 -43.8721
-1.36704 1.33095 0 -41.6378
-1.36564 1.33887 0 -41.6377
-158.325 1.26434 0 -37.717
-156.309 1.27976 0 -37.7418
153.696 1.39016 0 -43.8343
155.707 1.37503 0 -43.8596
-157.317 1.27207 0 -37.7294
-1.36147 1.36233 0 -41.6373
154.701 1.38262 0 -43.8471
-1.36424 1.34674 0 -41.6376
-1.36285 1.35456 0 -41.6374
-156.309 1.27976 0 -37.7418
-154.293 1.29501 0 -37.7672
151.684 1.40507 0 -43.8084
153.696 1.39016 0 -43.8343
-155.301 1.28741 0 -37.7544
-1.35874 1.37772 0 -41.637
152.69 1.39764 0 -43.8214
-1.36147 1.36233 0 -41.6373
-1.3601 1.37005 0 -41.6371
-154.293 1.29501 0 -37.7672
-152.277 1.31008 0 -37.793
149.673 1.41977 0 -43.782
151.684 1.40507 0 -43.8084
-153.285 1.30257 0 -37.78
-1.35604 1.39292 0 -41.6367
150.679 1.41245 0 -43.7953
-1.35874 1.37772 0 -41.637
-1.35738 1.38535 0 -41.6369
-152.277 1.31008 0 -37.793
-150.261 1.32498 0 -37.8195
147.662 1.43425 0 -43.755
149.673 1.41977 0 -43.782
-151.269 1.31755 0 -37.8062
-1.35337 1.40791 0 -41.6365
148.667 1.42704 0 -43.7686
-1.35604 1.39292 0 -41.6367
-1.3547 1.40044 0 -41.6366
-150.261 1.32498 0 -37.8195
-148.245 1.3397 0 -37.8464
145.65 1.44852 0 -43.7275
147.662 1.43425 0 -43.755
-149.253 1.33236 0 -37.8329
-1.35074 1.4227 0 -41.6362
146.656 1.44141 0 -43.7414
-1.35337 1.40791 0 -41.6365
-1.35205 1.41533 0 -41.6363
-148.245 1.3397 0 -37.8464
-146.229 1.35423 0 -37.8739
143.639 1.46257 0 -43.6995
145.65 1.44852 0 -43.7275
-147.237 1.34699 0 -37.8601
-1.34815 1.43729 0 -41.6359
144.645 1.45557 0 -43.7136
-1.35074 1.4227 0 -41.6362
-1.34944 1.43002 0 -41.6361
-146.229 1.35423 0 -37.8739
-144.214 1.3686 0 -37.9019
141.628 1.47641 0 -43.671
143.639 1.46257 0 -43.6995
-145.222 1.36144 0 -37.8879
-1.34559 1.45167 0 -41.6357
142.633 1.46952 0 -43.6853
-1.34815 1.43729 0 -41.6359
-1.34686 1.44451 0 -41.6358
-144.214 1.3686 0 -37.9019
-142.198 1.38278 0 -37.9305
139.616 1.49003 0 -43.6419
141.628 1.47641 0 -43.671
-143.206 1.37571 0 -37.9161
-1.34306 1.46586 0 -41.6354
140.622 1.48325 0 -43.6565
-1.34559 1.45167 0 -41.6357
-1.34432 1.45879 0 -41.6355
-142.198 1.38278 0 -37.9305
-140.182 1.39678 0 -37.9595
137.605 1.50344 0 -43.6124
139.616 1.49003 0 -43.6419
-141.19 1.3898 0 -37.9449
-1.34057 1.47985 0 -41.6352
138.611 1.49676 0 -43.6272
-1.34306 1.46586 0 -41.6354
-1.34182 1.47288 0 -41.6353
-140.182 1.39678 0 -37.9595
-138.167 1.41061 0 -37.989
135.594 1.51663 0 -43.5824
137.605 1.50344 0 -43.6124
-139.175 1.40372 0 -37.9742
-1.33812 1.49364 0 -41.6349
136.599 1.51006 0 -43.5974
-1.34058 1.47985 0 -41.6352
-1.33934 1.48677 0 -41.635
-138.167 1.41061 0 -37.989
-136.151 1.42426 0 -38.0191
133.582 1.52961 0 -43.5518
135.594 1.51663 0 -43.5824
-137.159 1.41746 0 -38.004
-1.3357 1.50722 0 -41.6347
134.588 1.52315 0 -43.5672
-1.33812 1.49364 0 -41.6349
-1.33691 1.50046 0 -41.6348
-136.151 1.42426 0 -38.0191
-134.136 1.43773 0 -38.0496
131.571 1.54237 0 -43.5208
133.582 1.52961 0 -43.5518
-135.144 1.43102 0 -38.0343
-1.33332 1.52061 0 -41.6344
132.576 1.53602 0 -43.5364
-1.3357 1.50722 0 -41.6347
-1.3345 1.51394 0 -41.6345
-134.136 1.43773 0 -38.0496
-132.12 1.45102 0 -38.0806
129.559 1.55492 0 -43.4893
131.571 1.54237 0 -43.5208
-133.128 1.4444 0 -38.065
-1.33097 1.5338 0 -41.6342
130.565 1.54867 0 -43.5051
-1.33332 1.52061 0 -41.6344
-1.33214 1.52723 0 -41.6343
-132.12 1.45102 0 -38.0806
-130.105 1.46413 0 -38.112
127.548 1.56725 0 -43.4574
129.559 1.55492 0 -43.4893
-131.113 1.4576 0 -38.0962
-1.32865 1.54678 0 -41.6339
128.554 1.56111 0 -43.4734
-1.33097 1.5338 0 -41.6342
-1.32981 1.54031 0 -41.634
-130.105 1.46413 0 -38.112
-128.09 1.47707 0 -38.1439
125.536 1.57937 0 -43.425
127.548 1.56725 0 -43.4574
-129.097 1.47062 0 -38.1279
-1.32637 1.55956 0 -41.6337
126.542 1.57334 0 -43.4413
-1.32865 1.54678 0 -41.6339
-1.32751 1.5532 0 -41.6338
-128.09 1.47707 0 -38.1439
-126.074 1.48982 0 -38.1763
123.525 1.59128 0 -43.3921
125.536 1.57937 0 -43.425
-127.082 1.48347 0 -38.1601
-1.32413 1.57215 0 -41.6334
124.531 1.58535 0 -43.4086
-1.32637 1.55956 0 -41.6337
-1.32525 1.56588 0 -41.6336
-126.074 1.48982 0 -38.1763
-124.059 1.5024 0 -38.2092
121.513 1.60297 0 -43.3588
123.525 1.59128 0 -43.3921
-125.067 1.49613 0 -38.1927
-1.32192 1.58453 0 -41.6332
122.519 1.59715 0 -43.3756
-1.32413 1.57215 0 -41.6334
-1.32302 1.57836 0 -41.6333
-124.059 1.5024 0 -38.2092
-122.044 1.51479 0 -38.2424
119.502 1.61445 0 -43.3251
121.513 1.60297 0 -43.3588
-123.052 1.50862 0 -38.2257
-1.31975 1.59671 0 -41.633
120.508 1.60873 0 -43.342
-1.32192 1.58453 0 -41.6332
-1.32083 1.59065 0 -41.6331
-122.044 1.51479 0 -38.2424
-120.029 1.52701 0 -38.2761
117.491 1.62571 0 -43.291
119.502 1.61445 0 -43.3251
-121.036 1.52092 0 -38.2592
-1.31761 1.60869 0 -41.6327
118.496 1.6201 0 -43.3081
-1.31975 1.59671 0 -41.633
-1.31868 1.60273 0 -41.6329
-120.029 1.52701 0 -38.2761
-118.014 1.53904 0 -38.3103
115.479 1.63676 0 -43.2564
117.491 1.62571 0 -43.291
-119.021 1.53305 0 -38.2931
-1.31551 1.62047 0 -41.6325
116.485 1.63126 0 -43.2737
-1.31761 1.60869 0 -41.6327
-1.31656 1.61461 0 -41.6326
-118.014 1.53904 0 -38.3103
-115.999 1.5509 0 -38.3448
113.468 1.6476 0 -43.2214
115.479 1.63676 0 -43.2564
-117.006 1.54499 0 -38.3275
-1.31344 1.63205 0 -41.6323
114.473 1.6422 0 -43.2389
-1.31551 1.62047 0 -41.6325
-1.31447 1.62629 0 -41.6324
-115.999 1.5509 0 -38.3448
-113.984 1.56257 0 -38.3798
111.456 1.65822 0 -43.186
113.468 1.6476 0 -43.2214
-114.991 1.55676 0 -38.3622
-1.31141 1.64343 0 -41.6321
112.462 1.65293 0 -43.2037
-1.31344 1.63205 0 -41.6323
-1.31242 1.63776 0 -41.6322
-113.984 1.56257 0 -38.3798
-111.969 1.57406 0 -38.4152
109.445 1.66863 0 -43.1502
111.456 1.65822 0 -43.186
-112.976 1.56834 0 -38.3974
-1.30941 1.65461 0 -41.6319
110.45 1.66345 0 -43.1681
-1.31141 1.64343 0 -41.6321
-1.31041 1.64904 0 -41.632
-111.969 1.57406 0 -38.4152
-109.954 1.58538 0 -38.4509
107.433 1.67883 0 -43.114
109.445 1.66863 0 -43.1502
-110.961 1.57974 0 -38.433
-1.30745 1.66558 0 -41.6317
108.439 1.67376 0 -43.1321
-1.30941 1.65461 0 -41.6319
-1.30843 1.66012 0 -41.6318
-109.954 1.58538 0 -38.4509
-107.939 1.59651 0 -38.4871
105.421 1.68881 0 -43.0774
107.433 1.67883 0 -43.114
-108.947 1.59096 0 -38.469
-1.30553 1.67636 0 -41.6314
106.427 1.68385 0 -43.0957
-1.30745 1.66558 0 -41.6317
-1.30649 1.67099 0 -41.6315
-107.939 1.59651 0 -38.4871
-105.924 1.60746 0 -38.5236
103.41 1.69858 0 -43.0404
105.421 1.68881 0 -43.0774
-106.932 1.602 0 -38.5053
-1.30364 1.68693 0 -41.6312
104.416 1.69372 0 -43.059
-1.30553 1.67636 0 -41.6314
-1.30458 1.68167 0 -41.6313
-105.924 1.60746 0 -38.5236
-103.91 1.61823 0 -38.5606
101.398 1.70814 0 -43.0031
103.41 1.69858 0 -43.0404
-104.917 1.61286 0 -38.5421
-1.30178 1.6973 0 -41.631
102.404 1.70339 0 -43.0218
-1.30364 1.68693 0 -41.6312
-1.30271 1.69214 0 -41.6311
-103.91 1.61823 0 -38.5606
-101.895 1.62881 0 -38.5979
99.3868 1.71749 0 -42.9654
101.398 1.70814 0 -43.0031
-102.902 1.62354 0 -38.5792
-1.29997 1.70747 0 -41.6308
100.393 1.71284 0 -42.9843
-1.30178 1.6973 0 -41.631
-1.30087 1.70241 0 -41.6309
-101.895 1.62881 0 -38.5979
-99.8804 1.63922 0 -38.6355
97.3752 1.72663 0 -42.9273
99.3868 1.71749 0 -42.9654
-100.888 1.63404 0 -38.6167
-1.29818 1.71745 0 -41.6306
98.381 1.72209 0 -42.9464
-1.29997 1.70747 0 -41.6308
-1.29907 1.71249 0 -41.6307
-99.8804 1.63922 0 -38.6355
-97.8658 1.64944 0 -38.6735
95.3636 1.73555 0 -42.8889
97.3752 1.72663 0 -42.9273
-98.8731 1.64435 0 -38.6545
-1.29643 1.72722 0 -41.6304
96.3694 1.73112 0 -42.9082
-1.29818 1.71745 0 -41.6306
-1.2973 1.72236 0 -41.6305
-97.8658 1.64944 0 -38.6735
-95.8512 1.65948 0 -38.7119
93.352 1.74427 0 -42.8502
95.3636 1.73555 0 -42.8889
-96.8585 1.65448 0 -38.6927
-1.29472 1.73678 0 -41.6303
94.3578 1.73994 0 -42.8696
-1.29643 1.72722 0 -41.6304
-1.29557 1.73202 0 -41.6304
-95.8512 1.65948 0 -38.7119
-93.8367 1.66933 0 -38.7506
91.3403 1.75277 0 -42.8111
93.352 1.74427 0 -42.8502
-94.844 1.66443 0 -38.7312
-1.29305 1.74615 0 -41.6301
92.3461 1.74854 0 -42.8307
-1.29472 1.73678 0 -41.6303
-1.29388 1.74149 0 -41.6302
-93.8367 1.66933 0 -38.7506
-91.8223 1.67901 0 -38.7897
89.3287 1.76106 0 -42.7717
91.3403 1.75277 0 -42.8111
-92.8295 1.67419 0 -38.7701
-1.29141 1.75532 0 -41.6299
90.3345 1.75694 0 -42.7915
-1.29305 1.74615 0 -41.6301
-1.29222 1.75076 0 -41.63
-91.8223 1.67901 0 -38.7897
-89.8079 1.6885 0 -38.829
87.317 1.76914 0 -42.732
89.3287 1.76106 0 -42.7717
-90.8151 1.68377 0 -38.8093
-1.2898 1.76428 0 -41.6297
88.3228 1.76512 0 -42.7519
-1.29141 1.75532 0 -41.6299
-1.2906 1.75983 0 -41.6298
-89.8079 1.6885 0 -38.829
-87.7935 1.6978 0 -38.8687
85.3053 1.77701 0 -42.692
87.317 1.76914 0 -42.732
-88.8007 1.69317 0 -38.8488
-1.28823 1.77305 0 -41.6295
86.3112 1.7731 0 -42.712
-1.2898 1.76428 0 -41.6297
-1.28901 1.76869 0 -41.6296
-87.7935 1.6978 0 -38.8687
-85.7792 1.70692 0 -38.9087
83.2936 1.78466 0 -42.6516
85.3053 1.77701 0 -42.692
-86.7864 1.70239 0 -38.8887
-1.2867 1.78161 0 -41.6294
84.2995 1.78086 0 -42.6718
-1.28823 1.77305 0 -41.6295
-1.28746 1.77735 0 -41.6295
-85.7792 1.70692 0 -38.9087
-83.765 1.71586 0 -38.949
81.2819 1.79211 0 -42.611
83.2936 1.78466 0 -42.6516
-84.7721 1.71142 0 -38.9288
-1.2852 1.78997 0 -41.6292
82.2878 1.78841 0 -42.6313
-1.2867 1.78161 0 -41.6294
-1.28595 1.78582 0 -41.6293
-83.765 1.71586 0 -38.949
-81.7507 1.72462 0 -38.9896
79.2702 1.79935 0 -42.57
81.2819 1.79211 0 -42.611
-82.7578 1.72026 0 -38.9693
-1.28374 1.79813 0 -41.629
80.2761 1.79576 0 -42.5905
-1.2852 1.78997 0 -41.6292
-1.28447 1.79408 0 -41.6291
-81.7507 1.72462 0 -38.9896
-79.7366 1.73318 0 -39.0305
77.2585 1.80638 0 -42.5288
79.2702 1.79935 0 -42.57
-80.7436 1.72892 0 -39.0101
-1.28232 1.80609 0 -41.6289
78.2644 1.80289 0 -42.5495
-1.28374 1.79813 0 -41.629
-1.28303 1.80214 0 -41.629
-79.7366 1.73318 0 -39.0305
-77.7224 1.74157 0 -39.0717
75.2467 1.8132 0 -42.4873
77.2585 1.80638 0 -42.5288
-78.7295 1.7374 0 -39.0511
-1.28093 1.81385 0 -41.6287
76.2526 1.80982 0 -42.5081
-1.28232 1.80609 0 -41.6289
-1.28162 1.80999 0 -41.6288
-77.7224 1.74157 0 -39.0717
-75.7084 1.74977 0 -39.1132
73.235 1.81981 0 -42.4455
75.2467 1.8132 0 -42.4873
-76.7154 1.74569 0 -39.0924
-1.27957 1.8214 0 -41.6286
74.2408 1.81653 0 -42.4665
-1.28093 1.81385 0 -41.6287
-1.28025 1.81765 0 -41.6286
-75.7084 1.74977 0 -39.1132
-73.6943 1.75778 0 -39.1549
71.2232 1.82621 0 -42.4035
73.235 1.81981 0 -42.4455
-74.7013 1.7538 0 -39.134
-1.27826 1.82876 0 -41.6284
72.2291 1.82304 0 -42.4246
-1.27957 1.8214 0 -41.6286
-1.27891 1.82511 0 -41.6285
-73.6943 1.75778 0 -39.1549
-71.6803 1.7656 0 -39.1969
69.2114 1.8324 0 -42.3612
71.2232 1.82621 0 -42.4035
-72.6873 1.76171 0 -39.1759
-1.27697 1.83591 0 -41.6283
70.2173 1.82933 0 -42.3824
-1.27826 1.82876 0 -41.6284
-1.27761 1.83236 0 -41.6283
-71.6803 1.7656 0 -39.1969
-69.6664 1.77324 0 -39.2392
67.1995 1.83839 0 -42.3187
69.2114 1.8324 0 -42.3612
-70.6733 1.76945 0 -39.218
-1.27573 1.84286 0 -41.6281
68.2055 1.83542 0 -42.34
-1.27697 1.83591 0 -41.6283
-1.27635 1.83941 0 -41.6282
-69.6664 1.77324 0 -39.2392
-67.6525 1.7807 0 -39.2817
65.1877 1.84416 0 -42.2759
67.1995 1.83839 0 -42.3187
-68.6594 1.77699 0 -39.2604
-1.27452 1.84961 0 -41.628
66.1936 1.8413 0 -42.2973
-1.27573 1.84286 0 -41.6281
-1.27512 1.84626 0 -41.6281
-67.6525 1.7807 0 -39.2817
-65.6386 1.78796 0 -39.3244
63.1758 1.84973 0 -42.2329
65.1877 1.84416 0 -42.2759
-66.6455 1.78435 0 -39.303
-1.27334 1.85616 0 -41.6279
64.1818 1.84697 0 -42.2545
-1.27452 1.84961 0 -41.628
-1.27393 1.85291 0 -41.6279
-65.6386 1.78796 0 -39.3244
-63.6248 1.79503 0 -39.3674
61.164 1.85508 0 -42.1897
63.1758 1.84973 0 -42.2329
-64.6317 1.79152 0 -39.3459
-1.2722 1.8625 0 -41.6277
62.1699 1.85243 0 -42.2113
-1.27334 1.85616 0 -41.6279
-1.27277 1.85935 0 -41.6278
-63.6248 1.79503 0 -39.3674
-61.611 1.80192 0 -39.4106
59.1521 1.86023 0 -42.1462
61.164 1.85508 0 -42.1897
-62.6179 1.7985 0 -39.3889
-1.2711 1.86864 0 -41.6276
60.158 1.85768 0 -42.168
-1.2722 1.8625 0 -41.6277
-1.27165 1.8656 0 -41.6277
-61.611 1.80192 0 -39.4106
-59.5973 1.80861 0 -39.454
57.1402 1.86517 0 -42.1026
59.1521 1.86023 0 -42.1462
-60.6041 1.80529 0 -39.4323
-1.27002 1.87457 0 -41.6275
58.1461 1.86272 0 -42.1244
-1.2711 1.86864 0 -41.6276
-1.27056 1.87163 0 -41.6275
-59.5973 1.80861 0 -39.454
-57.5835 1.81511 0 -39.4976
55.1282 1.86989 0 -42.0587
57.1402 1.86517 0 -42.1026
-58.5904 1.81189 0 -39.4758
-1.26898 1.8803 0 -41.6274
56.1342 1.86755 0 -42.0807
-1.27002 1.87457 0 -41.6275
-1.2695 1.87746 0 -41.6274
-57.5835 1.81511 0 -39.4976
-55.5699 1.82142 0 -39.5414
53.1163 1.8744 0 -42.0147
55.1282 1.86989 0 -42.0587
-56.5767 1.81829 0 -39.5195
-1.26797 1.88582 0 -41.6273
54.1223 1.87217 0 -42.0367
-1.26898 1.8803 0 -41.6274
-1.26847 1.88309 0 -41.6273
-55.5699 1.82142 0 -39.5414
-53.5562 1.82754 0 -39.5855
51.1043 1.8787 0 -41.9704
53.1163 1.8744 0 -42.0147
-54.5631 1.8245 0 -39.5634
-1.26699 1.89114 0 -41.6271
52.1103 1.87658 0 -41.9926
-1.26797 1.88582 0 -41.6273
-1.26748 1.8885 0 -41.6272
-53.5562 1.82754 0 -39.5855
-51.5426 1.83346 0 -39.6297
49.0924 1.88279 0 -41.926
51.1043 1.8787 0 -41.9704
-52.5494 1.83052 0 -39.6076
-1.26603 1.89624 0 -41.627
50.0984 1.88077 0 -41.9482
-1.26699 1.89114 0 -41.6271
-1.2665 1.89371 0 -41.6271
-51.5426 1.83346 0 -39.6297
-49.5291 1.83919 0 -39.6741
47.0804 1.88666 0 -41.8814
49.0924 1.88279 0 -41.926
-50.5358 1.83635 0 -39.6519
-1.26509 1.90114 0 -41.6269
48.0864 1.88475 0 -41.9037
-1.26603 1.89624 0 -41.627
-1.26555 1.89872 0 -41.627
-49.5291 1.83919 0 -39.6741
-47.5155 1.84474 0 -39.7186
45.0685 1.89033 0 -41.8366
47.0804 1.88666 0 -41.8814
-48.5223 1.84199 0 -39.6963
-1.26416 1.90584 0 -41.6268
46.0744 1.88852 0 -41.859
-1.26509 1.90114 0 -41.6269
-1.26462 1.90352 0 -41.6269
-47.5155 1.84474 0 -39.7186
-45.502 1.85012 0 -39.7633
43.0565 1.89378 0 -41.7916
45.0685 1.89033 0 -41.8366
-46.5087 1.84745 0 -39.741
-1.26325 1.91035 0 -41.6267
44.0625 1.89208 0 -41.8141
-1.26416 1.90584 0 -41.6268
-1.2637 1.90812 0 -41.6267
-45.502 1.85012 0 -39.7633
-43.4885 1.85534 0 -39.8082
41.0446 1.89705 0 -41.7465
43.0565 1.89378 0 -41.7916
-44.4952 1.85275 0 -39.7857
-1.26235 1.91468 0 -41.6265
42.0506 1.89544 0 -41.7691
-1.26325 1.91035 0 -41.6267
-1.2628 1.91254 0 -41.6266
-43.4885 1.85534 0 -39.8082
-41.4751 1.86044 0 -39.8531
39.0327 1.90015 0 -41.7011
41.0446 1.89705 0 -41.7465
-42.4818 1.8579 0 -39.8306
-1.26147 1.91887 0 -41.6263
40.0387 1.89862 0 -41.7238
-1.26235 1.91468 0 -41.6265
-1.26191 1.91679 0 -41.6264
-41.4751 1.86044 0 -39.8531
-39.4617 1.86544 0 -39.8981
37.0209 1.90313 0 -41.6556
39.0327 1.90015 0 -41.7011
-40.4684 1.86295 0 -39.8756
-1.26061 1.92295 0 -41.626
38.0268 1.90164 0 -41.6784
-1.26147 1.91887 0 -41.6263
-1.26103 1.92092 0 -41.6261
-39.4617 1.86544 0 -39.8981
-37.4485 1.87038 0 -39.9433
35.009 1.90608 0 -41.6098
37.0209 1.90313 0 -41.6556
-38.4551 1.86792 0 -39.9207
-1.25981 1.92699 0 -41.6256
36.0149 1.9046 0 -41.6327
-1.26061 1.92295 0 -41.626
-1.2602 1.92497 0 -41.6258
-37.4485 1.87038 0 -39.9433
-35.4354 1.87525 0 -39.9887
32.9972 1.90922 0 -41.5638
35.009 1.90608 0 -41.6098
-36.4419 1.87283 0 -39.966
-1.25912 1.9311 0 -41.6254
34.0031 1.90761 0 -41.5868
-1.25981 1.92699 0 -41.6256
-1.25945 1.92903 0 -41.6255
-35.4354 1.87525 0 -39.9887
-33.4224 1.87997 0 -40.0345
30.985 1.91289 0 -41.5179
32.9972 1.90922 0 -41.5638
-34.4289 1.87763 0 -40.0115
-1.25864 1.93541 0 -41.6254
31.9912 1.91096 0 -41.5408
-1.25912 1.9311 0 -41.6254
-1.25885 1.93321 0 -41.6253
-33.4224 1.87997 0 -40.0345
-31.4095 1.88416 0 -40.0815
28.9722 1.91788 0 -41.4726
30.985 1.91289 0 -41.5179
-32.4159 1.88217 0 -40.0578
-1.25856 1.94016 0 -41.6266
29.9787 1.91514 0 -41.4951
-1.25864 1.93541 0 -41.6254
-1.25854 1.93771 0 -41.6258
-31.4095 1.88416 0 -40.0815
-29.3956 1.88721 0 -40.1312
26.9573 1.92537 0 -41.4292
28.9722 1.91788 0 -41.4726
-30.4028 1.88589 0 -40.1059
-1.25915 1.94565 0 -41.6305
27.9652 1.9212 0 -41.4505
-1.25856 1.94016 0 -41.6266
-1.25874 1.94278 0 -41.628
-29.3956 1.88721 0 -40.1312
-27.3803 1.88717 0 -40.1867
24.9389 1.93815 0 -41.3904
26.9573 1.92537 0 -41.4292
-28.3881 1.88777 0 -40.158
-1.2609 1.95234 0 -41.641
25.9486 1.93085 0 -41.4089
-1.25915 1.94565 0 -41.6305
-1.25984 1.94881 0 -41.6347
-27.3803 1.88717 0 -40.1867
-25.3588 1.88166 0 -40.2544
22.9109 1.9598 0 -41.3621
24.9389 1.93815 0 -41.3904
-26.3709 1.88536 0 -40.2185
-1.2646 1.96088 0 -41.6651
23.9269 1.94752 0 -41.3744
-1.2609 1.95234 0 -41.641
-1.26244 1.95632 0 -41.6506
-25.3588 1.88166 0 -40.2544
-23.3282 1.86369 0 -40.3458
20.8683 1.99894 0 -41.3549
22.9109 1.9598 0 -41.3621
-24.3444 1.87481 0 -40.2962
-1.27146 1.97222 0 -41.7161
21.8913 1.97649 0 -41.355
-1.2646 1.96088 0 -41.6651
-1.26755 1.96614 0 -41.6864
-23.3282 1.86369 0 -40.3458
-21.2702 1.82765 0 -40.4818
18.7891 2.06357 0 -41.3883
20.8683 1.99894 0 -41.3549
-22.3051 1.84858 0 -40.4063
-1.28336 1.98769 0 -41.8174
19.8359 2.02724 0 -41.3648
-1.27146 1.97222 0 -41.7161
-1.2766 1.97932 0 -41.7579
-21.2702 1.82765 0 -40.4818
-19.1776 1.75455 0 -40.6953
16.6618 2.1757 0 -41.4934
18.7891 2.06357 0 -41.3883
-20.2268 1.79681 0 -40.5764
-1.30301 2.00901 0 -42.0071
17.7304 2.11242 0 -41.4294
-1.28336 1.98769 0 -41.8174
-1.29207 1.99754 0 -41.8993
-19.1776 1.75455 0 -40.6953
-16.9923 1.64433 0 -41.0395
14.4211 2.3393 0 -41.7205
16.6618 2.1757 0 -41.4934
-18.1047 1.70469 0 -40.8465
-1.33406 2.03832 0 -42.3411
15.5643 2.25017 0 -41.5875
-1.30301 2.00901 0 -42.0071
-1.31671 2.02244 0 -42.1492
-16.9923 1.64433 0 -41.0395
-14.7177 1.46527 0 -41.5749
12.0632 2.58903 0 -42.129
14.4211 2.3393 0 -41.7205
-15.8588 1.56246 0 -41.2797
-1.38057 2.07714 0 -42.8883
13.25 2.45428 0 -41.8981
-1.33406 2.03832 0 -42.3411
-1.35537 2.05668 0 -42.5883
-14.7177 1.46527 0 -41.5749
-12.2177 1.30367 0 -42.3685
9.44464 2.83891 0 -42.7851
12.0632 2.58903 0 -42.129
-13.5187 1.3774 0 -41.9344
-1.44532 2.12494 0 -43.7005
10.8099 2.71895 0 -42.4217
-1.38057 2.07714 0 -42.8883
-1.41006 2.09977 0 -43.2497
-12.2177 1.30367 0 -42.3685
-9.63681 1.19033 0 -43.3799
6.71466 3.0444 0 -43.6598
9.44464 2.83891 0 -42.7851
-10.9026 1.22157 0 -42.8571
-1.52436 2.1728 0 -44.722
8.0578 2.96841 0 -43.2025
-1.44532 2.12494 0 -43.7005
-1.4846 2.15058 0 -44.2131
-9.63681 1.19033 0 -43.3799
-6.8075 1.66961 0 -44.3668
3.73244 2.62149 0 -44.5354
6.71466 3.0444 0 -43.6598
-8.30386 1.32485 0 -43.9007
-1.59765 2.19565 0 -45.5936
5.30308 2.94628 0 -44.122
-1.52436 2.1728 0 -44.722
-1.5621 2.1885 0 -45.1821
-6.8075 1.66961 0 -44.3668
-4.47051 3.04353 0 -44.4225
1.33331 1.16199 0 -44.5638
3.73244 2.62149 0 -44.5354
-5.45205 2.17948 0 -44.605
-1.61292 2.13674 0 -45.3668
2.32511 2.0967 0 -44.7399
-1.59765 2.19565 0 -45.5936
-1.62024 2.18368 0 -45.7629
-4.47051 3.04353 0 -44.4225
-2.23113 6.51424 0 -41.8996
-0.71066 -2.71362 0 -42.1441
1.33331 1.16199 0 -44.5638
-3.47377 4.56715 0 -43.611
-1.48972 1.9135 0 -42.4506
0.388805 -0.511207 0 -43.796
-1.61292 2.13674 0 -45.3668
-1.5691 2.0467 0 -44.2571
-2.23113 6.51424 0 -41.8996
-1.56738 10.0866 0 -34.1174
-0.654649 -7.25206 0 -34.5772
-0.71066 -2.71362 0 -42.1441
-1.41917 8.35933 0 -38.8501
-1.12491 1.42793 0 -34.817
-1.24656 -4.95856 0 -39.1775
-1.48972 1.9135 0 -42.4506
-1.35337 1.71825 0 -39.5396
-1.56738 10.0866 0 -34.1174
-1.79495 14.6508 0 -19.3049
0.984065 -13.4333 0 -19.9924
-0.654649 -7.25206 0 -34.5772
-1.91778 12.1335 0 -27.6405
-0.329954 0.621695 0 -19.0822
0.310277 -10.0289 0 -28.2374
-1.12491 1.42793 0 -34.817
-0.789275 1.04059 0 -27.991
382.402 114.742 0 153.889
373.297 62.8713 0 50.8934
1161.72 202.228 0 -3.89127
1069.25 320.489 0 97.889
366.581 89.0669 0 97.0335
767.143 132.376 0 29.7337
1132.02 257.169 0 36.433
709.881 212.878 0 140.46
750.525 178.533 0 69.3872
373.297 62.8713 0 50.8934
393.604 37.2468 0 -10.877
1183.97 88.0162 0 -35.7582
1161.72 202.228 0 -3.89127
388.975 48.6016 0 14.5791
785.543 68.1385 0 -19.8284
1171.65 140.936 0 -24.3755
767.143 132.376 0 29.7337
775.505 95.1603 0 2.90868
393.604 37.2468 0 -10.877
395.023 14.1366 0 -38.9213
1195.41 30.2818 0 -42.1207
1183.97 88.0162 0 -35.7582
392.901 24.4844 0 -27.773
795.114 26.3762 0 -41.2929
1194.82 53.3417 0 -41.4315
785.543 68.1385 0 -19.8284
792.922 45.2243 0 -34.6204
395.023 14.1366 0 -38.9213
396.2 3.30407 0 -48.9733
1186.44 3.46094 0 -39.2601
1195.41 30.2818 0 -42.1207
397.367 7.79654 0 -45.6436
792.734 5.69253 0 -46.1618
1190.51 13.6805 0 -40.5096
795.114 26.3762 0 -41.2929
794.574 13.6512 0 -44.3322
396.2 3.30407 0 -48.9733
391.977 -2.36033 0 -50.1071
1175.84 -4.41057 0 -37.3709
1186.44 3.46094 0 -39.2601
393.57 -0.276236 0 -50.0956
785.539 -3.09663 0 -45.5926
1182.04 -1.76792 0 -38.3248
792.734 5.69253 0 -46.1618
789.568 0.297674 0 -46.4342
391.977 -2.36033 0 -50.1071
388.427 -3.46409 0 -48.4114
1163.57 -6.35286 0 -36.1781
1175.84 -4.41057 0 -37.3709
390.598 -3.15374 0 -49.4399
777.245 -5.17199 0 -43.8689
1169.12 -5.94597 0 -36.5541
785.539 -3.09663 0 -45.5926
781.263 -4.71885 0 -44.6044
388.427 -3.46409 0 -48.4114
384.235 -3.54783 0 -46.2021
1153.64 -5.40844 0 -35.9702
1163.57 -6.35286 0 -36.1781
386.058 -3.64379 0 -47.2591
769.738 -4.96012 0 -42.3515
1158.62 -5.99394 0 -36.0524
777.245 -5.17199 0 -43.8689
773.38 -5.19726 0 -43.1164
384.235 -3.54783 0 -46.2021
381.004 -2.96459 0 -44.4659
1144.69 -4.23325 0 -36.0159
1153.64 -5.40844 0 -35.9702
382.66 -3.2564 0 -45.2662
763.284 -3.98695 0 -41.335
1148.89 -4.84274 0 -35.9425
769.738 -4.96012 0 -42.3515
766.364 -4.51641 0 -41.7469
381.004 -2.96459 0 -44.4659
378.018 -2.49278 0 -43.2906
1137.08 -3.10826 0 -36.2612
1144.69 -4.23325 0 -36.0159
379.4 -2.72852 0 -43.8045
757.744 -3.09325 0 -40.749
1140.83 -3.62415 0 -36.1399
763.284 -3.98695 0 -41.335
760.423 -3.50903 0 -41.0106
378.018 -2.49278 0 -43.2906
375.514 -2.07828 0 -42.6002
1130.07 -2.35271 0 -36.5225
1137.08 -3.10826 0 -36.2612
376.759 -2.2638 0 -42.8968
752.837 -2.40614 0 -40.476
1133.48 -2.69731 0 -36.3852
757.744 -3.09325 0 -40.749
755.226 -2.72287 0 -40.574
375.514 -2.07828 0 -42.6002
373.181 -1.81356 0 -42.2324
1123.56 -1.84172 0 -36.7985
1130.07 -2.35271 0 -36.5225
374.311 -1.93506 0 -42.3831
748.327 -1.95335 0 -40.3944
1126.79 -2.06478 0 -36.664
752.837 -2.40614 0 -40.476
750.545 -2.15289 0 -40.4204
373.181 -1.81356 0 -42.2324
371.02 -1.62761 0 -42.0694
1117.25 -1.53736 0 -37.0581
1123.56 -1.84172 0 -36.7985
372.095 -1.70947 0 -42.1322
744.049 -1.66385 0 -40.4271
1120.37 -1.67139 0 -36.9289
748.327 -1.95335 0 -40.3944
746.167 -1.79205 0 -40.3989
371.02 -1.62761 0 -42.0694
368.922 -1.50966 0 -42.0219
1111.09 -1.34965 0 -37.3077
1117.25 -1.53736 0 -37.0581
369.96 -1.56331 0 -42.0349
739.898 -1.48605 0 -40.5198
1114.16 -1.43081 0 -37.185
744.049 -1.66385 0 -40.4271
741.962 -1.56382 0 -40.469
368.922 -1.50966 0 -42.0219
366.874 -1.42609 0 -42.0377
1104.99 -1.23753 0 -37.5451
1111.09 -1.34965 0 -37.3077
367.896 -1.4639 0 -42.0244
735.813 -1.37357 0 -40.6433
1108.04 -1.28713 0 -37.4275
739.898 -1.48605 0 -40.5198
737.85 -1.42367 0 -40.5788
366.874 -1.42609 0 -42.0377
364.845 -1.36566 0 -42.0848
1098.93 -1.16445 0 -37.7739
1104.99 -1.23753 0 -37.5451
365.857 -1.39404 0 -42.0586
731.761 -1.29906 0 -40.7799
1101.96 -1.19711 0 -37.6606
735.813 -1.37357 0 -40.6433
733.785 -1.33278 0 -40.7108
364.845 -1.36566 0 -42.0848
362.827 -1.31651 0 -42.1466
1092.87 -1.11351 0 -37.9952
1098.93 -1.16445 0 -37.7739
363.835 -1.33989 0 -42.1146
727.725 -1.24469 0 -40.9212
1095.9 -1.13716 0 -37.8853
731.761 -1.29906 0 -40.7799
729.742 -1.27007 0 -40.8503
362.827 -1.31651 0 -42.1466
360.814 -1.2741 0 -42.2141
1086.82 -1.07311 0 -38.2105
1092.87 -1.11351 0 -37.9952
361.82 -1.29477 0 -42.1799
723.694 -1.20094 0 -41.0626
1089.85 -1.09233 0 -38.1036
727.725 -1.24469 0 -40.9212
725.709 -1.22188 0 -40.9921
360.814 -1.2741 0 -42.2141
358.803 -1.23495 0 -42.2831
1080.78 -1.03812 0 -38.4207
1086.82 -1.07311 0 -38.2105
359.808 -1.2542 0 -42.2485
719.666 -1.16242 0 -41.2023
1083.8 -1.05519 0 -38.3162
723.694 -1.20094 0 -41.0626
721.68 -1.18123 0 -41.1327
358.803 -1.23495 0 -42.2831
356.793 -1.19769 0 -42.3516
1074.73 -1.0055 0 -38.6261
1080.78 -1.03812 0 -38.4207
357.798 -1.21616 0 -42.3175
715.639 -1.12649 0 -41.3394
1077.76 -1.0216 0 -38.524
719.666 -1.16242 0 -41.2023
717.653 -1.14423 0 -41.2712
356.793 -1.19769 0 -42.3516
354.783 -1.16139 0 -42.419
1068.69 -0.974012 0 -38.8273
1074.73 -1.0055 0 -38.6261
355.788 -1.17944 0 -42.3855
711.612 -1.09178 0 -41.4738
1071.71 -0.989673 0 -38.7272
715.639 -1.12649 0 -41.3394
713.626 -1.10903 0 -41.407
354.783 -1.16139 0 -42.419
352.773 -1.1257 0 -42.485
1062.64 -0.942995 0 -39.0243
1068.69 -0.974012 0 -38.8273
353.778 -1.14349 0 -42.4522
707.585 -1.0577 0 -41.6053
1065.66 -0.958461 0 -38.9263
711.612 -1.09178 0 -41.4738
709.599 -1.07469 0 -41.5399
352.773 -1.1257 0 -42.485
350.764 -1.09041 0 -42.5495
1056.59 -0.912221 0 -39.2173
1062.64 -0.942995 0 -39.0243
351.768 -1.10801 0 -42.5174
703.558 -1.02396 0 -41.7342
1059.62 -0.927588 0 -39.1213
707.585 -1.0577 0 -41.6053
705.572 -1.0408 0 -41.6701
350.764 -1.09041 0 -42.5495
348.754 -1.05541 0 -42.6126
1050.55 -0.881586 0 -39.4065
1056.59 -0.912221 0 -39.2173
349.759 -1.07288 0 -42.5813
699.531 -0.990457 0 -41.8603
1053.57 -0.896888 0 -39.3124
703.558 -1.02396 0 -41.7342
701.544 -1.00719 0 -41.7976
348.754 -1.05541 0 -42.6126
346.744 -1.02067 0 -42.6744
1044.5 -0.851065 0 -39.5918
1050.55 -0.881586 0 -39.4065
347.749 -1.03801 0 -42.6437
695.503 -0.95713 0 -41.9838
1047.52 -0.866312 0 -39.4996
699.531 -0.990457 0 -41.8603
697.517 -0.973772 0 -41.9224
346.744 -1.02067 0 -42.6744
344.734 -0.986143 0 -42.7348
1038.45 -0.820649 0 -39.7734
1044.5 -0.851065 0 -39.5918
345.739 -1.00338 0 -42.7048
691.475 -0.923967 0 -42.1048
1041.48 -0.835843 0 -39.6831
695.503 -0.95713 0 -41.9838
693.489 -0.940529 0 -42.0446
344.734 -0.986143 0 -42.7348
342.724 -0.95182 0 -42.794
1032.4 -0.790342 0 -39.9512
1038.45 -0.820649 0 -39.7734
343.729 -0.968957 0 -42.7646
687.448 -0.890961 0 -42.2233
1035.43 -0.805482 0 -39.8627
691.475 -0.923967 0 -42.1048
689.461 -0.907445 0 -42.1643
342.724 -0.95182 0 -42.794
340.714 -0.917688 0 -42.8519
1026.36 -0.760148 0 -40.1253
1032.4 -0.790342 0 -39.9512
341.719 -0.93473 0 -42.8231
683.42 -0.858109 0 -42.3392
1029.38 -0.775231 0 -40.0387
687.448 -0.890961 0 -42.2233
685.434 -0.874516 0 -42.2815
340.714 -0.917688 0 -42.8519
338.704 -0.883742 0 -42.9085
1020.31 -0.730069 0 -40.2957
1026.36 -0.760148 0 -40.1253
339.709 -0.900692 0 -42.8803
679.392 -0.825411 0 -42.4527
1023.33 -0.745094 0 -40.2109
683.42 -0.858109 0 -42.3392
681.406 -0.841741 0 -42.3963
338.704 -0.883742 0 -42.9085
336.693 -0.849978 0 -42.9639
1014.26 -0.700109 0 -40.4624
1020.31 -0.730069 0 -40.2957
337.699 -0.866837 0 -42.9364
675.364 -0.792867 0 -42.5638
1017.29 -0.715074 0 -40.3795
679.392 -0.825411 0 -42.4527
677.378 -0.80912 0 -42.5086
336.693 -0.849978 0 -42.9639
334.683 -0.816394 0 -43.0181
1008.22 -0.670271 0 -40.6255
1014.26 -0.700109 0 -40.4624
335.688 -0.833164 0 -42.9912
671.336 -0.760477 0 -42.6724
1011.24 -0.685175 0 -40.5444
675.364 -0.792867 0 -42.5638
673.35 -0.776653 0 -42.6184
334.683 -0.816394 0 -43.0181
332.673 -0.78299 0 -43.0711
1002.17 -0.640557 0 -40.785
1008.22 -0.670271 0 -40.6255
333.678 -0.79967 0 -43.0448
667.308 -0.728244 0 -42.7786
1005.19 -0.655399 0 -40.7057
671.336 -0.760477 0 -42.6724
669.322 -0.744341 0 -42.7258
332.673 -0.78299 0 -43.0711
330.663 -0.749766 0 -43.1229
996.12 -0.610971 0 -40.9409
1002.17 -0.640557 0 -40.785
331.668 -0.766355 0 -43.0972
663.28 -0.696167 0 -42.8825
999.144 -0.625748 0 -40.8634
667.308 -0.728244 0 -42.7786
665.294 -0.712186 0 -42.8309
330.663 -0.749766 0 -43.1229
328.652 -0.716722 0 -43.1735
990.073 -0.581514 0 -41.0932
996.12 -0.610971 0 -40.9409
329.658 -0.733221 0 -43.1484
659.252 -0.66425 0 -42.9839
993.097 -0.596226 0 -41.0175
663.28 -0.696167 0 -42.8825
661.266 -0.680189 0 -42.9335
328.652 -0.716722 0 -43.1735
326.642 -0.68386 0 -43.2229
984.026 -0.552191 0 -41.242
990.073 -0.581514 0 -41.0932
327.647 -0.700268 0 -43.1984
655.224 -0.632494 0 -43.083
987.049 -0.566836 0 -41.168
659.252 -0.66425 0 -42.9839
657.238 -0.648352 0 -43.0337
326.642 -0.68386 0 -43.2229
324.632 -0.65118 0 -43.2712
977.978 -0.523002 0 -41.3872
984.026 -0.552191 0 -41.242
325.637 -0.667497 0 -43.2472
651.196 -0.600901 0 -43.1797
981.002 -0.537579 0 -41.315
655.224 -0.632494 0 -43.083
653.21 -0.616677 0 -43.1316
324.632 -0.65118 0 -43.2712
322.621 -0.618685 0 -43.3182
971.931 -0.493952 0 -41.529
977.978 -0.523002 0 -41.3872
323.626 -0.63491 0 -43.2948
647.168 -0.569473 0 -43.2741
974.955 -0.508459 0 -41.4585
651.196 -0.600901 0 -43.1797
649.182 -0.585166 0 -43.2272
322.621 -0.618685 0 -43.3182
320.611 -0.586374 0 -43.3641
965.884 -0.465042 0 -41.6672
971.931 -0.493952 0 -41.529
321.616 -0.602506 0 -43.3413
643.14 -0.538212 0 -43.3661
968.907 -0.479479 0 -41.5985
647.168 -0.569473 0 -43.2741
645.154 -0.553821 0 -43.3204
320.611 -0.586374 0 -43.3641
318.6 -0.554249 0 -43.4089
959.836 -0.436276 0 -41.802
965.884 -0.465042 0 -41.6672
319.606 -0.570288 0 -43.3866
639.112 -0.507119 0 -43.4559
962.86 -0.450641 0 -41.735
643.14 -0.538212 0 -43.3661
641.126 -0.522644 0 -43.4113
318.6 -0.554249 0 -43.4089
316.59 -0.522311 0 -43.4524
953.789 -0.407655 0 -41.9333
959.836 -0.436276 0 -41.802
317.595 -0.538257 0 -43.4308
635.084 -0.476197 0 -43.5433
956.813 -0.421947 0 -41.8681
639.112 -0.507119 0 -43.4559
637.098 -0.491637 0 -43.4999
316.59 -0.522311 0 -43.4524
314.579 -0.490561 0 -43.4949
947.742 -0.379182 0 -42.0612
953.789 -0.407655 0 -41.9333
315.585 -0.506413 0 -43.4738
631.056 -0.445447 0 -43.6285
950.765 -0.3934 0 -41.9977
635.084 -0.476197 0 -43.5433
633.07 -0.460801 0 -43.5862
314.579 -0.490561 0 -43.4949
312.569 -0.459 0 -43.5362
941.694 -0.350861 0 -42.1857
947.742 -0.379182 0 -42.0612
313.574 -0.474757 0 -43.5157
627.028 -0.414871 0 -43.7114
944.718 -0.365003 0 -42.1239
631.056 -0.445447 0 -43.6285
629.042 -0.430137 0 -43.6702
312.569 -0.459 0 -43.5362
310.558 -0.427629 0 -43.5764
935.647 -0.322691 0 -42.3069
941.694 -0.350861 0 -42.1857
311.564 -0.443291 0 -43.5564
623 -0.38447 0 -43.792
938.671 -0.336757 0 -42.2467
627.028 -0.414871 0 -43.7114
625.014 -0.399649 0 -43.752
310.558 -0.427629 0 -43.5764
308.548 -0.396449 0 -43.6154
929.6 -0.294677 0 -42.4246
935.647 -0.322691 0 -42.3069
309.553 -0.412015 0 -43.5961
618.972 -0.354246 0 -43.8704
932.623 -0.308665 0 -42.3662
623 -0.38447 0 -43.792
620.986 -0.369336 0 -43.8315
308.548 -0.396449 0 -43.6154
306.537 -0.36546 0 -43.6534
923.553 -0.266821 0 -42.5391
929.6 -0.294677 0 -42.4246
307.542 -0.38093 0 -43.6346
614.944 -0.324201 0 -43.9466
926.576 -0.280729 0 -42.4823
618.972 -0.354246 0 -43.8704
616.958 -0.339201 0 -43.9088
306.537 -0.36546 0 -43.6534
304.526 -0.334663 0 -43.6902
917.505 -0.239123 0 -42.6502
923.553 -0.266821 0 -42.5391
305.532 -0.350037 0 -43.6719
610.916 -0.294335 0 -44.0205
920.529 -0.252952 0 -42.595
614.944 -0.324201 0 -43.9466
612.93 -0.309245 0 -43.9838
304.526 -0.334663 0 -43.6902
302.516 -0.304059 0 -43.726
911.458 -0.211587 0 -42.758
917.505 -0.239123 0 -42.6502
303.521 -0.319336 0 -43.7082
606.888 -0.26465 0 -44.0923
914.482 -0.225335 0 -42.7045
610.916 -0.294335 0 -44.0205
608.902 -0.27947 0 -44.0567
302.516 -0.304059 0 -43.726
300.505 -0.273648 0 -43.7606
905.411 -0.184214 0 -42.8626
911.458 -0.211587 0 -42.758
301.51 -0.288829 0 -43.7434
602.859 -0.235149 0 -44.1619
908.435 -0.19788 0 -42.8107
606.888 -0.26465 0 -44.0923
604.874 -0.249877 0 -44.1274
300.505 -0.273648 0 -43.7606
298.494 -0.243432 0 -43.7942
899.364 -0.157007 0 -42.9639
905.411 -0.184214 0 -42.8626
299.5 -0.258516 0 -43.7775
598.831 -0.205831 0 -44.2293
902.388 -0.17059 0 -42.9136
602.859 -0.235149 0 -44.1619
600.845 -0.220466 0 -44.1959
298.494 -0.243432 0 -43.7942
296.484 -0.213412 0 -43.8267
893.317 -0.129968 0 -43.062
899.364 -0.157007 0 -42.9639
297.489 -0.228398 0 -43.8106
594.803 -0.176698 0 -44.2946
896.34 -0.143466 0 -43.0133
598.831 -0.205831 0 -44.2293
596.817 -0.191241 0 -44.2622
296.484 -0.213412 0 -43.8267
294.473 -0.183587 0 -43.8581
887.27 -0.103097 0 -43.1568
893.317 -0.129967 0 -43.062
295.478 -0.198475 0 -43.8425
590.775 -0.147752 0 -44.3577
890.293 -0.116511 0 -43.1098
594.803 -0.176698 0 -44.2946
592.789 -0.162202 0 -44.3264
294.473 -0.183587 0 -43.8581
292.462 -0.153958 0 -43.8884
881.223 -0.0763976 0 -43.2485
887.27 -0.103097 0 -43.1568
293.468 -0.168748 0 -43.8734
586.747 -0.118994 0 -44.4187
884.246 -0.0897258 0 -43.2031
590.775 -0.147752 0 -44.3577
588.761 -0.133349 0 -44.3885
292.462 -0.153958 0 -43.8884
290.451 -0.124526 0 -43.9177
875.176 -0.0498714 0 -43.3371
881.223 -0.0763976 0 -43.2485
291.457 -0.139218 0 -43.9032
582.719 -0.0904249 0 -44.4776
878.199 -0.0631128 0 -43.2932
586.747 -0.118994 0 -44.4187
584.733 -0.104686 0 -44.4484
290.451 -0.124526 0 -43.9177
288.441 -0.0952927 0 -43.946
869.129 -0.0235198 0 -43.4225
875.176 -0.0498714 0 -43.3371
289.446 -0.109885 0 -43.932
578.691 -0.0620463 0 -44.5344
872.153 -0.0366736 0 -43.3802
582.719 -0.0904249 0 -44.4776
580.705 -0.0762117 0 -44.5063
288.441 -0.0952927 0 -43.946
286.43 -0.0662573 0 -43.9732
863.082 0.00265511 0 -43.5047
869.129 -0.0235198 0 -43.4225
287.435 -0.0807502 0 -43.9597
574.663 -0.0338591 0 -44.5892
866.106 -0.0104102 0 -43.464
578.691 -0.0620463 0 -44.5344
576.677 -0.0479287 0 -44.5621
286.43 -0.0662573 0 -43.9732
284.419 -0.0374209 0 -43.9994
857.035 0.0286518 0 -43.5839
863.082 0.00265511 0 -43.5047
285.424 -0.0518142 0 -43.9864
570.635 -0.00586463 0 -44.6418
860.059 0.0156758 0 -43.5447
574.663 -0.0338591 0 -44.5892
572.649 -0.0198377 0 -44.6158
284.419 -0.0374209 0 -43.9994
282.408 -0.00878403 0 -44.0245
850.989 0.0544685 0 -43.66
857.035 0.0286518 0 -43.5839
283.414 -0.0230775 0 -44.0121
566.607 0.021936 0 -44.6925
854.012 0.0415828 0 -43.6224
570.635 -0.00586463 0 -44.6418
568.621 0.00806 0 -44.6674
282.408 -0.00878403 0 -44.0245
280.397 0.0196526 0 -44.0487
844.942 0.0801037 0 -43.7331
850.989 0.0544685 0 -43.66
281.403 0.00545937 0 -44.0367
562.579 0.0495417 0 -44.741
847.965 0.0673089 0 -43.6969
566.607 0.021936 0 -44.6925
564.593 0.0357633 0 -44.717
280.397 0.0196526 0 -44.0487
278.387 0.0478886 0 -44.0718
838.895 0.105556 0 -43.8031
844.942 0.0801037 0 -43.7331
279.392 0.0337957 0 -44.0603
558.551 0.0769514 0 -44.7876
841.919 0.0928527 0 -43.7685
562.579 0.0495417 0 -44.741
560.565 0.0632711 0 -44.7646
278.387 0.0478886 0 -44.0718
276.376 0.0759232 0 -44.0939
832.849 0.130823 0 -43.8701
838.895 0.105556 0 -43.8031
277.381 0.0619311 0 -44.083
554.523 0.104164 0 -44.8321
835.872 0.118212 0 -43.837
558.551 0.0769514 0 -44.7876
556.537 0.0905824 0 -44.8101
276.376 0.0759232 0 -44.0939
274.365 0.103756 0 -44.115
826.802 0.155904 0 -43.9341
832.849 0.130823 0 -43.8701
275.37 0.0898648 0 -44.1046
550.495 0.131178 0 -44.8747
829.825 0.143387 0 -43.9025
554.523 0.104164 0 -44.8321
552.509 0.117696 0 -44.8537
274.365 0.103756 0 -44.115
272.354 0.131386 0 -44.1352
820.755 0.180797 0 -43.9952
826.802 0.155904 0 -43.9341
273.359 0.117596 0 -44.1252
546.467 0.157994 0 -44.9153
823.779 0.168374 0 -43.965
550.495 0.131178 0 -44.8747
548.481 0.144611 0 -44.8952
272.354 0.131386 0 -44.1352
270.343 0.158814 0 -44.1543
814.709 0.205501 0 -44.0533
820.755 0.180797 0 -43.9952
271.348 0.145125 0 -44.1448
542.439 0.184609 0 -44.9539
817.732 0.193172 0 -44.0246
546.467 0.157994 0 -44.9153
544.453 0.171326 0 -44.9348
270.343 0.158814 0 -44.1543
268.332 0.186038 0 -44.1725
808.663 0.230014 0 -44.1085
814.709 0.205501 0 -44.0533
269.337 0.172451 0 -44.1635
538.411 0.211023 0 -44.9906
811.686 0.217781 0 -44.0813
542.439 0.184609 0 -44.9539
540.425 0.197841 0 -44.9725
268.332 0.186038 0 -44.1725
266.321 0.213058 0 -44.1897
802.616 0.254335 0 -44.1608
808.663 0.230014 0 -44.1085
267.326 0.199573 0 -44.1812
534.383 0.237235 0 -45.0253
805.639 0.242198 0 -44.135
538.411 0.211023 0 -44.9906
536.397 0.224154 0 -45.0082
266.321 0.213058 0 -44.1897
264.31 0.239873 0 -44.2059
796.57 0.278462 0 -44.2102
802.616 0.254335 0 -44.1608
265.316 0.226491 0 -44.1979
530.355 0.263243 0 -45.0581
799.593 0.266423 0 -44.1859
534.383 0.237235 0 -45.0253
532.369 0.250264 0 -45.042
264.31 0.239873 0 -44.2059
262.299 0.266484 0 -44.2212
790.524 0.302395 0 -44.2568
796.57 0.278462 0 -44.2102
263.305 0.253204 0 -44.2137
526.327 0.289048 0 -45.089
793.547 0.290453 0 -44.2338
530.355 0.263243 0 -45.0581
528.341 0.276171 0 -45.0738
262.299 0.266484 0 -44.2212
260.288 0.292889 0 -44.2356
784.478 0.326132 0 -44.3005
790.524 0.302395 0 -44.2568
261.294 0.279712 0 -44.2285
522.299 0.314649 0 -45.1181
787.501 0.314288 0 -44.279
526.327 0.289048 0 -45.089
524.313 0.301874 0 -45.1038
260.288 0.292889 0 -44.2356
258.277 0.319088 0 -44.249
778.431 0.349672 0 -44.3414
784.478 0.326132 0 -44.3005
259.283 0.306014 0 -44.2424
518.271 0.340043 0 -45.1452
781.455 0.337927 0 -44.3213
522.299 0.314649 0 -45.1181
520.285 0.327372 0 -45.1319
258.277 0.319088 0 -44.249
256.266 0.345081 0 -44.2615
772.385 0.373013 0 -44.3795
778.431 0.349672 0 -44.3414
257.272 0.332111 0 -44.2553
514.243 0.365231 0 -45.1705
775.408 0.361367 0 -44.3608
518.271 0.340043 0 -45.1452
516.257 0.352663 0 -45.1581
256.266 0.345081 0 -44.2615
254.255 0.370868 0 -44.273
766.339 0.396154 0 -44.4149
772.385 0.373013 0 -44.3795
255.261 0.358 0 -44.2674
510.215 0.390212 0 -45.1939
769.362 0.384608 0 -44.3975
514.243 0.365231 0 -45.1705
512.229 0.377748 0 -45.1825
254.255 0.370868 0 -44.273
252.244 0.396447 0 -44.2837
760.294 0.419094 0 -44.4475
766.339 0.396154 0 -44.4149
253.25 0.383683 0 -44.2784
506.188 0.414985 0 -45.2156
763.317 0.407649 0 -44.4315
510.215 0.390212 0 -45.1939
508.202 0.402625 0 -45.205
252.244 0.396447 0 -44.2837
250.233 0.421818 0 -44.2934
754.248 0.441833 0 -44.4773
760.294 0.419094 0 -44.4475
251.239 0.409159 0 -44.2886
502.16 0.439549 0 -45.2353
757.271 0.430489 0 -44.4627
506.188 0.414985 0 -45.2156
504.174 0.427293 0 -45.2257
250.233 0.421818 0 -44.2934
248.222 0.446982 0 -44.3022
748.202 0.464368 0 -44.5045
754.248 0.441833 0 -44.4773
249.228 0.434426 0 -44.2979
498.132 0.463903 0 -45.2533
751.225 0.453126 0 -44.4913
502.16 0.439549 0 -45.2353
500.146 0.451752 0 -45.2446
248.222 0.446982 0 -44.3022
246.211 0.471937 0 -44.3101
742.156 0.4867 0 -44.529
748.202 0.464368 0 -44.5045
247.216 0.459486 0 -44.3063
494.104 0.488047 0 -45.2695
745.179 0.47556 0 -44.5171
498.132 0.463903 0 -45.2533
496.118 0.476002 0 -45.2617
246.211 0.471937 0 -44.3101
244.2 0.496684 0 -44.3172
736.111 0.508826 0 -44.5508
742.156 0.4867 0 -44.529
245.205 0.484337 0 -44.3138
490.077 0.51198 0 -45.284
739.133 0.497789 0 -44.5402
494.104 0.488047 0 -45.2695
492.091 0.50004 0 -45.277
244.2 0.496684 0 -44.3172
242.189 0.521221 0 -44.3234
730.065 0.530746 0 -44.57
736.111 0.508826 0 -44.5508
243.194 0.508979 0 -44.3204
486.049 0.535702 0 -45.2966
733.088 0.519812 0 -44.5607
490.077 0.51198 0 -45.284
488.063 0.523868 0 -45.2905
242.189 0.521221 0 -44.3234
240.178 0.545549 0 -44.3287
724.02 0.552459 0 -44.5866
730.065 0.530746 0 -44.57
241.183 0.533412 0 -44.3261
482.021 0.559211 0 -45.3075
727.042 0.541629 0 -44.5786
486.049 0.535702 0 -45.2966
484.035 0.547483 0 -45.3023
240.178 0.545549 0 -44.3287
238.167 0.569668 0 -44.3331
717.974 0.573965 0 -44.6006
724.02 0.552459 0 -44.5866
239.172 0.557635 0 -44.331
477.994 0.582507 0 -45.3167
720.997 0.563238 0 -44.5939
482.021 0.559211 0 -45.3075
480.008 0.570886 0 -45.3124
238.167 0.569668 0 -44.3331
236.156 0.593576 0 -44.3367
711.929 0.595261 0 -44.612
717.974 0.573965 0 -44.6006
237.161 0.581648 0 -44.335
473.966 0.60559 0 -45.3242
714.952 0.584639 0 -44.6066
477.994 0.582507 0 -45.3167
475.98 0.594075 0 -45.3207
236.156 0.593576 0 -44.3367
234.144 0.617274 0 -44.3394
705.884 0.616347 0 -44.6208
711.929 0.595261 0 -44.612
235.15 0.605451 0 -44.3381
469.939 0.628459 0 -45.33
708.906 0.60583 0 -44.6167
473.966 0.60559 0 -45.3242
471.952 0.617051 0 -45.3273
234.144 0.617274 0 -44.3394
232.133 0.64076 0 -44.3412
699.838 0.637223 0 -44.6271
705.884 0.616347 0 -44.6208
233.139 0.629043 0 -44.3404
465.911 0.651112 0 -45.3341
702.861 0.626812 0 -44.6243
469.939 0.628459 0 -45.33
467.925 0.639812 0 -45.3322
232.133 0.64076 0 -44.3412
230.122 0.664036 0 -44.3423
693.793 0.657888 0 -44.6309
699.838 0.637223 0 -44.6271
231.128 0.652425 0 -44.3419
461.884 0.673551 0 -45.3365
696.816 0.647582 0 -44.6293
465.911 0.651112 0 -45.3341
463.897 0.662359 0 -45.3355
230.122 0.664036 0 -44.3423
228.111 0.687101 0 -44.3425
687.748 0.678341 0 -44.6322
693.793 0.657888 0 -44.6309
229.117 0.675595 0 -44.3425
457.856 0.695774 0 -45.3372
690.771 0.668141 0 -44.6319
461.884 0.673551 0 -45.3365
459.87 0.684689 0 -45.3371
228.111 0.687101 0 -44.3425
226.1 0.709954 0 -44.3419
681.703 0.69858 0 -44.6311
687.748 0.678341 0 -44.6322
227.106 0.698554 0 -44.3423
453.829 0.71778 0 -45.3364
684.726 0.688487 0 -44.632
457.856 0.695774 0 -45.3372
455.842 0.706804 0 -45.337
226.1 0.709954 0 -44.3419
224.089 0.732595 0 -44.3405
675.658 0.718606 0 -44.6275
681.703 0.69858 0 -44.6311
225.094 0.721301 0 -44.3413
449.801 0.73957 0 -45.3339
678.681 0.70862 0 -44.6296
453.829 0.71778 0 -45.3364
451.815 0.728702 0 -45.3353
224.089 0.732595 0 -44.3405
222.078 0.755024 0 -44.3382
669.614 0.738418 0 -44.6215
675.658 0.718606 0 -44.6275
223.083 0.743836 0 -44.3395
445.774 0.761142 0 -45.3297
672.636 0.728539 0 -44.6248
449.801 0.73957 0 -45.3339
447.788 0.750383 0 -45.332
222.078 0.755024 0 -44.3382
220.067 0.77724 0 -44.3352
663.569 0.758015 0 -44.6131
669.614 0.738418 0 -44.6215
221.072 0.766159 0 -44.3368
441.747 0.782497 0 -45.324
666.591 0.748244 0 -44.6176
445.774 0.761142 0 -45.3297
443.76 0.771847 0 -45.3271
220.067 0.77724 0 -44.3352
218.055 0.799244 0 -44.3314
657.524 0.777397 0 -44.6023
663.569 0.758015 0 -44.6131
219.061 0.788269 0 -44.3334
437.719 0.803634 0 -45.3167
660.547 0.767733 0 -44.608
441.747 0.782497 0 -45.324
439.733 0.793093 0 -45.3205
218.055 0.799244 0 -44.3314
216.044 0.821035 0 -44.3268
651.48 0.796562 0 -44.5892
657.524 0.777397 0 -44.6023
217.05 0.810166 0 -44.3292
433.692 0.824552 0 -45.3078
654.502 0.787006 0 -44.596
437.719 0.803634 0 -45.3167
435.706 0.81412 0 -45.3124
216.044 0.821035 0 -44.3268
214.033 0.842613 0 -44.3214
645.435 0.815511 0 -44.5737
651.48 0.796562 0 -44.5892
215.039 0.831851 0 -44.3242
429.665 0.845251 0 -45.2974
648.458 0.806064 0 -44.5817
433.692 0.824552 0 -45.3078
431.678 0.834929 0 -45.3028
214.033 0.842613 0 -44.3214
212.022 0.863978 0 -44.3152
639.391 0.834242 0 -44.5559
645.435 0.815511 0 -44.5737
213.028 0.853322 0 -44.3184
425.638 0.865731 0 -45.2854
642.413 0.824904 0 -44.5651
429.665 0.845251 0 -45.2974
427.651 0.855518 0 -45.2916
212.022 0.863978 0 -44.3152
210.011 0.885129 0 -44.3083
633.347 0.852756 0 -44.5358
639.391 0.834242 0 -44.5559
211.016 0.87458 0 -44.3119
421.61 0.885991 0 -45.2719
636.369 0.843526 0 -44.5462
425.638 0.865731 0 -45.2854
423.624 0.875888 0 -45.2788
210.011 0.885129 0 -44.3083
208 0.906066 0 -44.3006
627.302 0.871052 0 -44.5135
633.347 0.852756 0 -44.5358
209.005 0.895624 0 -44.3046
417.583 0.906031 0 -45.2568
630.324 0.861931 0 -44.5249
421.61 0.885991 0 -45.2719
419.597 0.896039 0 -45.2645
208 0.906066 0 -44.3006
205.988 0.92679 0 -44.2922
621.258 0.889129 0 -44.4889
627.302 0.871052 0 -44.5135
206.994 0.916455 0 -44.2965
413.556 0.925851 0 -45.2403
624.28 0.880117 0 -44.5015
417.583 0.906031 0 -45.2568
415.57 0.915969 0 -45.2488
205.988 0.92679 0 -44.2922
203.977 0.947299 0 -44.2831
615.214 0.906986 0 -44.4621
621.258 0.889129 0 -44.4889
204.983 0.937071 0 -44.2877
409.529 0.94545 0 -45.2223
618.236 0.898085 0 -44.4757
413.556 0.925851 0 -45.2403
411.543 0.935678 0 -45.2315
203.977 0.947299 0 -44.2831
201.966 0.967595 0 -44.2732
609.17 0.924625 0 -44.433
615.214 0.906986 0 -44.4621
202.972 0.957474 0 -44.2782
405.502 0.964829 0 -45.2029
612.192 0.915833 0 -44.4478
409.529 0.94545 0 -45.2223
407.515 0.955167 0 -45.2128
201.966 0.967595 0 -44.2732
199.955 0.987676 0 -44.2625
603.126 0.942044 0 -44.4018
609.17 0.924625 0 -44.433
200.96 0.977662 0 -44.2679
401.475 0.983986 0 -45.1819
606.148 0.933362 0 -44.4177
405.502 0.964829 0 -45.2029
403.488 0.974435 0 -45.1926
199.955 0.987676 0 -44.2625
197.944 1.00754 0 -44.2512
597.082 0.959242 0 -44.3684
603.126 0.942044 0 -44.4018
198.949 0.997636 0 -44.2569
397.448 1.00292 0 -45.1596
600.104 0.95067 0 -44.3854
401.475 0.983986 0 -45.1819
399.461 0.993482 0 -45.1709
197.944 1.00754 0 -44.2512
195.932 1.02719 0 -44.2391
591.039 0.97622 0 -44.3329
597.082 0.959242 0 -44.3684
196.938 1.0174 0 -44.2452
393.421 1.02164 0 -45.1358
594.061 0.967759 0 -44.351
397.448 1.00292 0 -45.1596
395.434 1.01231 0 -45.1478
195.932 1.02719 0 -44.2391
193.921 1.04663 0 -44.2264
584.995 0.992977 0 -44.2953
591.039 0.97622 0 -44.3329
194.927 1.03694 0 -44.2328
389.394 1.04013 0 -45.1106
588.017 0.984626 0 -44.3144
393.421 1.02164 0 -45.1358
391.408 1.03091 0 -45.1233
193.921 1.04663 0 -44.2264
191.91 1.06585 0 -44.2129
578.952 1.00951 0 -44.2556
584.995 0.992977 0 -44.2953
192.916 1.05627 0 -44.2197
385.367 1.0584 0 -45.084
581.973 1.00127 0 -44.2757
389.394 1.04013 0 -45.1106
387.381 1.04929 0 -45.0974
191.91 1.06585 0 -44.2129
189.899 1.08486 0 -44.1988
572.908 1.02583 0 -44.2138
578.952 1.00951 0 -44.2556
190.904 1.07538 0 -44.2059
381.34 1.07645 0 -45.056
575.93 1.0177 0 -44.2349
385.367 1.0584 0 -45.084
383.354 1.06745 0 -45.0702
189.899 1.08486 0 -44.1988
187.888 1.10365 0 -44.1839
566.865 1.04192 0 -44.1699
572.908 1.02583 0 -44.2138
188.893 1.09428 0 -44.1914
377.314 1.09427 0 -45.0266
569.886 1.0339 0 -44.1921
381.34 1.07645 0 -45.056
379.327 1.08539 0 -45.0415
187.888 1.10365 0 -44.1839
185.876 1.12223 0 -44.1684
560.821 1.05779 0 -44.1241
566.865 1.04192 0 -44.1699
186.882 1.11297 0 -44.1763
373.287 1.11188 0 -44.9959
563.843 1.04989 0 -44.1473
377.314 1.09427 0 -45.0266
375.3 1.1031 0 -45.0115
185.876 1.12223 0 -44.1684
183.865 1.14059 0 -44.1522
554.778 1.07344 0 -44.0762
560.821 1.05779 0 -44.1241
184.871 1.13144 0 -44.1604
369.26 1.12926 0 -44.9639
557.8 1.06565 0 -44.1004
373.287 1.11188 0 -44.9959
371.273 1.12059 0 -44.9801
183.865 1.14059 0 -44.1522
181.854 1.15874 0 -44.1354
548.735 1.08887 0 -44.0263
554.778 1.07344 0 -44.0762
182.859 1.14969 0 -44.1439
365.233 1.14642 0 -44.9305
551.757 1.08118 0 -44.0515
369.26 1.12926 0 -44.9639
367.247 1.13786 0 -44.9474
181.854 1.15874 0 -44.1354
179.843 1.17667 0 -44.1179
542.692 1.10408 0 -43.9745
548.735 1.08887 0 -44.0263
180.848 1.16773 0 -44.1267
361.207 1.16335 0 -44.8959
545.713 1.0965 0 -44.0006
365.233 1.14642 0 -44.9305
363.22 1.15491 0 -44.9134
179.843 1.17667 0 -44.1179
177.831 1.19439 0 -44.0998
536.649 1.11906 0 -43.9207
542.692 1.10408 0 -43.9745
178.837 1.18555 0 -44.1089
357.18 1.18006 0 -44.8599
539.67 1.1116 0 -43.9478
361.207 1.16335 0 -44.8959
359.193 1.17173 0 -44.878
177.831 1.19439 0 -44.0998
175.82 1.21189 0 -44.081
530.606 1.13382 0 -43.865
536.649 1.11906 0 -43.9207
176.826 1.20316 0 -44.0905
353.153 1.19655 0 -44.8226
533.628 1.12647 0 -43.8931
357.18 1.18006 0 -44.8599
355.167 1.18834 0 -44.8414
175.82 1.21189 0 -44.081
173.809 1.22917 0 -44.0616
524.563 1.14836 0 -43.8074
530.606 1.13382 0 -43.865
174.814 1.22055 0 -44.0714
349.127 1.21282 0 -44.7841
527.585 1.14112 0 -43.8364
353.153 1.19655 0 -44.8226
351.14 1.20471 0 -44.8035
173.809 1.22917 0 -44.0616
171.798 1.24624 0 -44.0416
518.521 1.16268 0 -43.7479
524.563 1.14836 0 -43.8074
172.803 1.23773 0 -44.0516
345.1 1.22886 0 -44.7444
521.542 1.15555 0 -43.7778
349.127 1.21282 0 -44.7841
347.113 1.22087 0 -44.7644
171.798 1.24624 0 -44.0416
169.786 1.26309 0 -44.0209
512.478 1.17677 0 -43.6865
518.521 1.16268 0 -43.7479
170.792 1.25469 0 -44.0313
341.074 1.24468 0 -44.7034
515.499 1.16975 0 -43.7174
345.1 1.22886 0 -44.7444
343.087 1.2368 0 -44.724
169.786 1.26309 0 -44.0209
167.775 1.27973 0 -43.9996
506.435 1.19064 0 -43.6234
512.478 1.17677 0 -43.6865
168.781 1.27144 0 -44.0103
337.047 1.26028 0 -44.6611
509.457 1.18374 0 -43.6552
341.074 1.24468 0 -44.7034
339.06 1.25251 0 -44.6824
167.775 1.27973 0 -43.9996
165.764 1.29615 0 -43.9778
500.393 1.20429 0 -43.5584
506.435 1.19064 0 -43.6234
166.769 1.28797 0 -43.9888
333.021 1.27565 0 -44.6177
503.414 1.1975 0 -43.5911
337.047 1.26028 0 -44.6611
335.034 1.268 0 -44.6396
165.764 1.29615 0 -43.9778
163.752 1.31236 0 -43.9553
494.351 1.21772 0 -43.4916
500.393 1.20429 0 -43.5584
164.758 1.30428 0 -43.9666
328.994 1.29081 0 -44.5731
497.372 1.21103 0 -43.5252
333.021 1.27565 0 -44.6177
331.008 1.28326 0 -44.5955
163.752 1.31236 0 -43.9553
161.741 1.32835 0 -43.9323
488.308 1.23093 0 -43.423
494.351 1.21772 0 -43.4916
162.747 1.32038 0 -43.9439
324.968 1.30574 0 -44.5273
491.329 1.22435 0 -43.4575
328.994 1.29081 0 -44.5731
326.981 1.2983 0 -44.5503
161.741 1.32835 0 -43.9323
159.73 1.34413 0 -43.9086
482.266 1.24391 0 -43.3527
488.308 1.23093 0 -43.423
160.735 1.33627 0 -43.9205
320.942 1.32044 0 -44.4803
485.287 1.23745 0 -43.3881
324.968 1.30574 0 -44.5273
322.955 1.31312 0 -44.5039
159.73 1.34413 0 -43.9086
157.718 1.35969 0 -43.8844
476.224 1.25667 0 -43.2807
482.266 1.24391 0 -43.3527
158.724 1.35193 0 -43.8966
316.915 1.33492 0 -44.4322
479.245 1.25032 0 -43.3169
320.942 1.32044 0 -44.4803
318.929 1.32771 0 -44.4564
157.718 1.35969 0 -43.8844
155.707 1.37503 0 -43.8596
470.182 1.26921 0 -43.207
476.224 1.25667 0 -43.2807
156.713 1.36739 0 -43.8721
312.889 1.34918 0 -44.3829
473.203 1.26297 0 -43.244
316.915 1.33492 0 -44.4322
314.902 1.34208 0 -44.4077
155.707 1.37503 0 -43.8596
153.696 1.39016 0 -43.8343
464.14 1.28153 0 -43.1316
470.182 1.26921 0 -43.207
154.701 1.38262 0 -43.8471
308.863 1.36322 0 -44.3325
467.161 1.2754 0 -43.1695
312.889 1.34918 0 -44.3829
310.876 1.35623 0 -44.3579
153.696 1.39016 0 -43.8343
151.684 1.40507 0 -43.8084
458.098 1.29363 0 -43.0545
464.14 1.28153 0 -43.1316
152.69 1.39764 0 -43.8214
304.837 1.37704 0 -44.281
461.119 1.28761 0 -43.0932
308.863 1.36322 0 -44.3325
306.85 1.37016 0 -44.3069
151.684 1.40507 0 -43.8084
149.673 1.41977 0 -43.782
452.056 1.3055 0 -42.9758
458.098 1.29363 0 -43.0545
150.679 1.41245 0 -43.7953
300.81 1.39063 0 -44.2285
455.077 1.29959 0 -43.0153
304.837 1.37704 0 -44.281
302.824 1.38386 0 -44.2549
149.673 1.41977 0 -43.782
147.662 1.43425 0 -43.755
446.014 1.31716 0 -42.8954
452.056 1.3055 0 -42.9758
148.667 1.42704 0 -43.7686
296.784 1.404 0 -44.1748
449.035 1.31136 0 -42.9358
300.81 1.39063 0 -44.2285
298.797 1.39734 0 -44.2018
147.662 1.43425 0 -43.755
145.65 1.44852 0 -43.7275
439.973 1.32859 0 -42.8135
446.014 1.31716 0 -42.8954
146.656 1.44141 0 -43.7414
292.758 1.41715 0 -44.1201
442.994 1.3229 0 -42.8547
296.784 1.404 0 -44.1748
294.771 1.4106 0 -44.1476
145.65 1.44852 0 -43.7275
143.639 1.46257 0 -43.6995
433.931 1.33981 0 -42.73
439.973 1.32859 0 -42.8135
144.645 1.45557 0 -43.7136
288.732 1.43008 0 -44.0643
436.952 1.33423 0 -42.7719
292.758 1.41715 0 -44.1201
290.745 1.42364 0 -44.0923
143.639 1.46257 0 -43.6995
141.628 1.47641 0 -43.671
427.89 1.3508 0 -42.6449
433.931 1.33981 0 -42.73
142.633 1.46952 0 -43.6853
284.706 1.44278 0 -44.0075
430.91 1.34533 0 -42.6877
288.732 1.43008 0 -44.0643
286.719 1.43646 0 -44.0361
141.628 1.47641 0 -43.671
139.616 1.49003 0 -43.6419
421.848 1.36157 0 -42.5583
427.89 1.3508 0 -42.6449
140.622 1.48325 0 -43.6565
280.68 1.45527 0 -43.9497
424.869 1.35621 0 -42.6018
284.706 1.44278 0 -44.0075
282.693 1.44905 0 -43.9787
139.616 1.49003 0 -43.6419
137.605 1.50344 0 -43.6124
415.807 1.37213 0 -42.4702
421.848 1.36157 0 -42.5583
138.611 1.49676 0 -43.6272
276.654 1.46753 0 -43.8909
418.828 1.36688 0 -42.5145
280.68 1.45527 0 -43.9497
278.667 1.46142 0 -43.9204
137.605 1.50344 0 -43.6124
135.594 1.51663 0 -43.5824
409.766 1.38247 0 -42.3807
415.807 1.37213 0 -42.4702
136.599 1.51006 0 -43.5974
272.628 1.47957 0 -43.8311
412.786 1.37732 0 -42.4256
276.654 1.46753 0 -43.8909
274.641 1.47358 0 -43.8611
135.594 1.51663 0 -43.5824
133.582 1.52961 0 -43.5518
403.724 1.39258 0 -42.2896
409.766 1.38247 0 -42.3807
134.588 1.52315 0 -43.5672
268.602 1.49139 0 -43.7703
406.745 1.38755 0 -42.3353
272.628 1.47957 0 -43.8311
270.615 1.48551 0 -43.8008
133.582 1.52961 0 -43.5518
131.571 1.54237 0 -43.5208
397.683 1.40248 0 -42.1971
403.724 1.39258 0 -42.2896
132.576 1.53602 0 -43.5364
264.576 1.50299 0 -43.7085
400.704 1.39756 0 -42.2435
268.602 1.49139 0 -43.7703
266.589 1.49722 0 -43.7395
131.571 1.54237 0 -43.5208
129.559 1.55492 0 -43.4893
391.642 1.41216 0 -42.1032
397.683 1.40248 0 -42.1971
130.565 1.54867 0 -43.5051
260.55 1.51437 0 -43.6458
394.663 1.40735 0 -42.1503
264.576 1.50299 0 -43.7085
262.563 1.50871 0 -43.6773
129.559 1.55492 0 -43.4893
127.548 1.56725 0 -43.4574
385.601 1.42163 0 -42.0079
391.642 1.41216 0 -42.1032
128.554 1.56111 0 -43.4734
256.524 1.52553 0 -43.5822
388.622 1.41692 0 -42.0557
260.55 1.51437 0 -43.6458
258.537 1.51998 0 -43.6141
127.548 1.56725 0 -43.4574
125.536 1.57937 0 -43.425
379.56 1.43087 0 -41.9112
385.601 1.42163 0 -42.0079
126.542 1.57334 0 -43.4413
252.499 1.53647 0 -43.5176
382.581 1.42628 0 -41.9597
256.524 1.52553 0 -43.5822
254.512 1.53103 0 -43.55
125.536 1.57937 0 -43.425
123.525 1.59128 0 -43.3921
373.52 1.4399 0 -41.8131
379.56 1.43087 0 -41.9112
124.531 1.58535 0 -43.4086
248.473 1.54719 0 -43.4521
376.54 1.43541 0 -41.8623
252.499 1.53647 0 -43.5176
250.486 1.54186 0 -43.485
123.525 1.59128 0 -43.3921
121.513 1.60297 0 -43.3588
367.479 1.44871 0 -41.7137
373.52 1.4399 0 -41.8131
122.519 1.59715 0 -43.3756
244.447 1.55769 0 -43.3858
370.499 1.44433 0 -41.7636
248.473 1.54719 0 -43.4521
246.46 1.55247 0 -43.4191
121.513 1.60297 0 -43.3588
119.502 1.61445 0 -43.3251
361.438 1.45731 0 -41.613
367.479 1.44871 0 -41.7137
120.508 1.60873 0 -43.342
240.421 1.56798 0 -43.3186
364.459 1.45304 0 -41.6635
244.447 1.55769 0 -43.3858
242.434 1.56286 0 -43.3523
119.502 1.61445 0 -43.3251
117.491 1.62571 0 -43.291
355.398 1.4657 0 -41.511
361.438 1.45731 0 -41.613
118.496 1.6201 0 -43.3081
236.396 1.57804 0 -43.2505
358.418 1.46153 0 -41.5621
240.421 1.56798 0 -43.3186
238.408 1.57304 0 -43.2846
117.491 1.62571 0 -43.291
115.479 1.63676 0 -43.2564
349.357 1.47386 0 -41.4077
355.398 1.4657 0 -41.511
116.485 1.63126 0 -43.2737
232.37 1.58789 0 -43.1815
352.377 1.46981 0 -41.4595
236.396 1.57804 0 -43.2505
234.383 1.58299 0 -43.2161
115.479 1.63676 0 -43.2564
113.468 1.6476 0 -43.2214
343.317 1.48182 0 -41.3032
349.357 1.47386 0 -41.4077
114.473 1.6422 0 -43.2389
228.344 1.59751 0 -43.1118
346.337 1.47787 0 -41.3556
232.37 1.58789 0 -43.1815
230.357 1.59273 0 -43.1467
113.468 1.6476 0 -43.2214
111.456 1.65822 0 -43.186
337.276 1.48956 0 -41.1974
343.317 1.48182 0 -41.3032
112.462 1.65293 0 -43.2037
224.319 1.60693 0 -43.0412
340.297 1.48571 0 -41.2505
228.344 1.59751 0 -43.1118
226.331 1.60225 0 -43.0766
111.456 1.65822 0 -43.186
109.445 1.66863 0 -43.1502
331.236 1.49709 0 -41.0905
337.276 1.48956 0 -41.1974
110.45 1.66345 0 -43.1681
220.293 1.61612 0 -42.9698
334.256 1.49335 0 -41.1441
224.319 1.60693 0 -43.0412
222.306 1.61155 0 -43.0056
109.445 1.66863 0 -43.1502
107.433 1.67883 0 -43.114
325.196 1.5044 0 -40.9823
331.236 1.49709 0 -41.0905
108.439 1.67376 0 -43.1321
216.267 1.6251 0 -42.8976
328.216 1.50077 0 -41.0365
220.293 1.61612 0 -42.9698
218.28 1.62064 0 -42.9338
107.433 1.67883 0 -43.114
105.421 1.68881 0 -43.0774
319.156 1.5115 0 -40.873
325.196 1.5044 0 -40.9823
106.427 1.68385 0 -43.0957
212.242 1.63386 0 -42.8247
322.176 1.50798 0 -40.9278
216.267 1.6251 0 -42.8976
214.255 1.6295 0 -42.8612
105.421 1.68881 0 -43.0774
103.41 1.69858 0 -43.0404
313.116 1.5184 0 -40.7626
319.156 1.5115 0 -40.873
104.416 1.69372 0 -43.059
208.216 1.6424 0 -42.751
316.136 1.51498 0 -40.8179
212.242 1.63386 0 -42.8247
210.229 1.63816 0 -42.7879
103.41 1.69858 0 -43.0404
101.398 1.70814 0 -43.0031
307.075 1.52508 0 -40.651
313.116 1.5184 0 -40.7626
102.404 1.70339 0 -43.0218
204.191 1.65073 0 -42.6765
310.095 1.52176 0 -40.7069
208.216 1.6424 0 -42.751
206.204 1.64659 0 -42.7138
101.398 1.70814 0 -43.0031
99.3868 1.71749 0 -42.9654
301.036 1.53155 0 -40.5383
307.075 1.52508 0 -40.651
100.393 1.71284 0 -42.9843
200.165 1.65885 0 -42.6013
304.055 1.52834 0 -40.5948
204.191 1.65073 0 -42.6765
202.178 1.65482 0 -42.639
99.3868 1.71749 0 -42.9654
97.3752 1.72663 0 -42.9273
294.996 1.53781 0 -40.4246
301.036 1.53155 0 -40.5383
98.381 1.72209 0 -42.9464
196.14 1.66675 0 -42.5254
298.016 1.53471 0 -40.4816
200.165 1.65885 0 -42.6013
198.152 1.66282 0 -42.5634
97.3752 1.72663 0 -42.9273
95.3636 1.73555 0 -42.8889
288.956 1.54387 0 -40.3098
294.996 1.53781 0 -40.4246
96.3694 1.73112 0 -42.9082
192.114 1.67443 0 -42.4488
291.976 1.54087 0 -40.3673
196.14 1.66675 0 -42.5254
194.127 1.67062 0 -42.4872
95.3636 1.73555 0 -42.8889
93.352 1.74427 0 -42.8502
282.916 1.54971 0 -40.194
288.956 1.54387 0 -40.3098
94.3578 1.73994 0 -42.8696
188.089 1.6819 0 -42.3715
285.936 1.54682 0 -40.252
192.114 1.67443 0 -42.4488
190.102 1.6782 0 -42.4102
93.352 1.74427 0 -42.8502
91.3403 1.75277 0 -42.8111
276.876 1.55535 0 -40.0771
282.916 1.54971 0 -40.194
92.3461 1.74854 0 -42.8307
184.063 1.68916 0 -42.2935
279.896 1.55256 0 -40.1357
188.089 1.6819 0 -42.3715
186.076 1.68556 0 -42.3326
91.3403 1.75277 0 -42.8111
89.3287 1.76106 0 -42.7717
270.837 1.56079 0 -39.9593
276.876 1.55535 0 -40.0771
90.3345 1.75694 0 -42.7915
180.038 1.69621 0 -42.2149
273.856 1.55809 0 -40.0183
184.063 1.68916 0 -42.2935
182.051 1.69271 0 -42.2543
89.3287 1.76106 0 -42.7717
87.317 1.76914 0 -42.732
264.797 1.56601 0 -39.8405
270.837 1.56079 0 -39.9593
88.3228 1.76512 0 -42.7519
176.013 1.70304 0 -42.1357
267.817 1.56342 0 -39.9
180.038 1.69621 0 -42.2149
178.025 1.69965 0 -42.1754
87.317 1.76914 0 -42.732
85.3053 1.77701 0 -42.692
258.757 1.57103 0 -39.7207
264.797 1.56601 0 -39.8405
86.3112 1.7731 0 -42.712
171.987 1.70966 0 -42.0558
261.777 1.56855 0 -39.7807
176.013 1.70304 0 -42.1357
174 1.70638 0 -42.0958
85.3053 1.77701 0 -42.692
83.2936 1.78466 0 -42.6516
252.718 1.57585 0 -39.6001
258.757 1.57103 0 -39.7207
84.2995 1.78086 0 -42.6718
167.962 1.71607 0 -41.9752
255.738 1.57347 0 -39.6605
171.987 1.70966 0 -42.0558
169.975 1.71289 0 -42.0156
83.2936 1.78466 0 -42.6516
81.2819 1.79211 0 -42.611
246.679 1.58046 0 -39.4785
252.718 1.57585 0 -39.6001
82.2878 1.78841 0 -42.6313
163.936 1.72227 0 -41.8941
249.698 1.57818 0 -39.5394
167.962 1.71607 0 -41.9752
165.949 1.7192 0 -41.9348
81.2819 1.79211 0 -42.611
79.2702 1.79935 0 -42.57
240.639 1.58488 0 -39.356
246.679 1.58046 0 -39.4785
80.2761 1.79576 0 -42.5905
159.911 1.72826 0 -41.8124
243.659 1.58269 0 -39.4174
163.936 1.72227 0 -41.8941
161.924 1.72529 0 -41.8533
79.2702 1.79935 0 -42.57
77.2585 1.80638 0 -42.5288
234.6 1.58908 0 -39.2327
240.639 1.58488 0 -39.356
78.2644 1.80289 0 -42.5495
155.886 1.73404 0 -41.7301
237.62 1.587 0 -39.2945
159.911 1.72826 0 -41.8124
157.899 1.73118 0 -41.7714
77.2585 1.80638 0 -42.5288
75.2467 1.8132 0 -42.4873
228.561 1.59309 0 -39.1085
234.6 1.58908 0 -39.2327
76.2526 1.80982 0 -42.5081
151.861 1.73961 0 -41.6473
231.58 1.59111 0 -39.1707
155.886 1.73404 0 -41.7301
153.873 1.73685 0 -41.6888
75.2467 1.8132 0 -42.4873
73.235 1.81981 0 -42.4455
222.521 1.5969 0 -38.9836
228.561 1.59309 0 -39.1085
74.2408 1.81653 0 -42.4665
147.835 1.74497 0 -41.5639
225.541 1.59502 0 -39.0462
151.861 1.73961 0 -41.6473
149.848 1.74232 0 -41.6057
73.235 1.81981 0 -42.4455
71.2232 1.82621 0 -42.4035
216.482 1.60051 0 -38.8578
222.521 1.5969 0 -38.9836
72.2291 1.82304 0 -42.4246
143.81 1.75012 0 -41.48
219.502 1.59873 0 -38.9208
147.835 1.74497 0 -41.5639
145.823 1.74757 0 -41.5221
71.2232 1.82621 0 -42.4035
69.2114 1.8324 0 -42.3612
210.443 1.60391 0 -38.7313
216.482 1.60051 0 -38.8578
70.2173 1.82933 0 -42.3824
139.785 1.75507 0 -41.3956
213.463 1.60223 0 -38.7946
143.81 1.75012 0 -41.48
141.797 1.75262 0 -41.4379
69.2114 1.8324 0 -42.3612
67.1995 1.83839 0 -42.3187
204.404 1.60712 0 -38.604
210.443 1.60391 0 -38.7313
68.2055 1.83542 0 -42.34
135.759 1.7598 0 -41.3107
207.424 1.60554 0 -38.6677
139.785 1.75507 0 -41.3956
137.772 1.75746 0 -41.3532
67.1995 1.83839 0 -42.3187
65.1877 1.84416 0 -42.2759
198.365 1.61014 0 -38.4759
204.404 1.60712 0 -38.604
66.1936 1.8413 0 -42.2973
131.734 1.76433 0 -41.2253
201.385 1.60865 0 -38.54
135.759 1.7598 0 -41.3107
133.747 1.76209 0 -41.2681
65.1877 1.84416 0 -42.2759
63.1758 1.84973 0 -42.2329
192.326 1.61295 0 -38.3472
198.365 1.61014 0 -38.4759
64.1818 1.84697 0 -42.2545
127.709 1.76865 0 -41.1394
195.346 1.61157 0 -38.4117
131.734 1.76433 0 -41.2253
129.722 1.76652 0 -41.1824
63.1758 1.84973 0 -42.2329
61.164 1.85508 0 -42.1897
186.287 1.61557 0 -38.2178
192.326 1.61295 0 -38.3472
62.1699 1.85243 0 -42.2113
123.684 1.77277 0 -41.0531
189.307 1.61428 0 -38.2826
127.709 1.76865 0 -41.1394
125.696 1.77074 0 -41.0963
61.164 1.85508 0 -42.1897
59.1521 1.86023 0 -42.1462
180.248 1.61799 0 -38.0877
186.287 1.61557 0 -38.2178
60.158 1.85768 0 -42.168
119.659 1.77667 0 -40.9663
183.268 1.6168 0 -38.1528
123.684 1.77277 0 -41.0531
121.671 1.77475 0 -41.0098
59.1521 1.86023 0 -42.1462
57.1402 1.86517 0 -42.1026
174.21 1.62022 0 -37.957
180.248 1.61799 0 -38.0877
58.1461 1.86272 0 -42.1244
115.633 1.78037 0 -40.8791
177.229 1.61913 0 -38.0224
119.659 1.77667 0 -40.9663
117.646 1.77855 0 -40.9228
57.1402 1.86517 0 -42.1026
55.1282 1.86989 0 -42.0587
168.171 1.62225 0 -37.8257
174.21 1.62022 0 -37.957
56.1342 1.86755 0 -42.0807
111.608 1.78387 0 -40.7915
171.19 1.62126 0 -37.8914
115.633 1.78037 0 -40.8791
113.621 1.78215 0 -40.8354
55.1282 1.86989 0 -42.0587
53.1163 1.8744 0 -42.0147
162.132 1.62408 0 -37.6937
168.171 1.62225 0 -37.8257
54.1223 1.87217 0 -42.0367
107.583 1.78715 0 -40.7035
165.151 1.62319 0 -37.7598
111.608 1.78387 0 -40.7915
109.596 1.78553 0 -40.7476
53.1163 1.8744 0 -42.0147
51.1043 1.8787 0 -41.9704
156.093 1.62571 0 -37.5612
162.132 1.62408 0 -37.6937
52.1103 1.87658 0 -41.9926
103.558 1.79022 0 -40.6151
159.113 1.62492 0 -37.6275
107.583 1.78715 0 -40.7035
105.57 1.78871 0 -40.6594
51.1043 1.8787 0 -41.9704
49.0924 1.88279 0 -41.926
150.055 1.62715 0 -37.4281
156.093 1.62571 0 -37.5612
50.0984 1.88077 0 -41.9482
99.5326 1.79309 0 -40.5264
153.074 1.62646 0 -37.4947
103.558 1.79022 0 -40.6151
101.545 1.79168 0 -40.5708
49.0924 1.88279 0 -41.926
47.0804 1.88666 0 -41.8814
144.016 1.62839 0 -37.2946
150.055 1.62715 0 -37.4281
48.0864 1.88475 0 -41.9037
95.5075 1.79574 0 -40.4373
147.035 1.6278 0 -37.3614
99.5326 1.79309 0 -40.5264
97.5201 1.79444 0 -40.4819
47.0804 1.88666 0 -41.8814
45.0685 1.89033 0 -41.8366
137.978 1.62943 0 -37.1605
144.016 1.62839 0 -37.2946
46.0744 1.88852 0 -41.859
91.4824 1.79818 0 -40.3478
140.997 1.62894 0 -37.2276
95.5075 1.79574 0 -40.4373
93.4949 1.79699 0 -40.3926
45.0685 1.89033 0 -41.8366
43.0565 1.89378 0 -41.7916
131.939 1.63027 0 -37.0259
137.978 1.62943 0 -37.1605
44.0625 1.89208 0 -41.8141
87.4573 1.80041 0 -40.2581
134.958 1.62988 0 -37.0932
91.4824 1.79818 0 -40.3478
89.4698 1.79932 0 -40.303
43.0565 1.89378 0 -41.7916
41.0446 1.89705 0 -41.7465
125.901 1.63091 0 -36.8909
131.939 1.63027 0 -37.0259
42.0506 1.89544 0 -41.7691
83.4323 1.80244 0 -40.168
128.92 1.63062 0 -36.9584
87.4573 1.80041 0 -40.2581
85.4448 1.80145 0 -40.2131
41.0446 1.89705 0 -41.7465
39.0327 1.90015 0 -41.7011
119.863 1.63137 0 -36.7554
125.901 1.63091 0 -36.8909
40.0387 1.89862 0 -41.7238
79.4074 1.80429 0 -40.0775
122.882 1.63116 0 -36.8232
83.4323 1.80244 0 -40.168
81.4198 1.80339 0 -40.1228
39.0327 1.90015 0 -41.7011
37.0209 1.90313 0 -41.6556
113.825 1.63167 0 -36.6194
119.863 1.63137 0 -36.7554
38.0268 1.90164 0 -41.6784
75.3826 1.80601 0 -39.9867
116.844 1.63154 0 -36.6874
79.4074 1.80429 0 -40.0775
77.395 1.80516 0 -40.0322
37.0209 1.90313 0 -41.6556
35.009 1.90608 0 -41.6098
107.787 1.63193 0 -36.4829
113.825 1.63167 0 -36.6194
36.0149 1.9046 0 -41.6327
71.3579 1.80771 0 -39.8956
110.806 1.6318 0 -36.5512
75.3826 1.80601 0 -39.9867
73.3702 1.80685 0 -39.9412
35.009 1.90608 0 -41.6098
32.9972 1.90922 0 -41.5638
101.749 1.63235 0 -36.3459
107.787 1.63193 0 -36.4829
34.0031 1.90761 0 -41.5868
67.3333 1.80963 0 -39.804
104.768 1.6321 0 -36.4145
71.3579 1.80771 0 -39.8956
69.3456 1.80862 0 -39.8498
32.9972 1.90922 0 -41.5638
30.985 1.91289 0 -41.5179
95.7115 1.63345 0 -36.2081
101.749 1.63235 0 -36.3459
31.9912 1.91096 0 -41.5408
63.3085 1.81231 0 -39.7121
98.7302 1.63276 0 -36.2771
67.3333 1.80963 0 -39.804
65.3209 1.81082 0 -39.7581
30.985 1.91289 0 -41.5179
28.9722 1.91788 0 -41.4726
89.6735 1.6362 0 -36.0694
95.7115 1.63345 0 -36.2081
29.9787 1.91514 0 -41.4951
59.2831 1.81679 0 -39.62
92.6926 1.63452 0 -36.1389
63.3085 1.81231 0 -39.7121
61.2959 1.81422 0 -39.666
28.9722 1.91788 0 -41.4726
26.9573 1.92537 0 -41.4292
83.6343 1.6428 0 -35.9291
89.6735 1.6362 0 -36.0694
27.9652 1.9212 0 -41.4505
55.2555 1.82511 0 -39.5281
86.6541 1.6388 0 -35.9995
59.2831 1.81679 0 -39.62
57.2697 1.82026 0 -39.574
26.9573 1.92537 0 -41.4292
24.9389 1.93815 0 -41.3904
77.5905 1.6569 0 -35.7866
83.6343 1.6428 0 -35.9291
25.9486 1.93085 0 -41.4089
51.2229 1.84118 0 -39.4375
80.6134 1.64856 0 -35.8582
55.2555 1.82511 0 -39.5281
53.2401 1.83184 0 -39.4825
24.9389 1.93815 0 -41.3904
22.9109 1.9598 0 -41.3621
71.5377 1.6863 0 -35.6403
77.5905 1.6569 0 -35.7866
23.9269 1.94752 0 -41.3744
47.1786 1.87164 0 -39.351
74.5653 1.66897 0 -35.7141
51.2229 1.84118 0 -39.4375
49.2027 1.8539 0 -39.3937
22.9109 1.9598 0 -41.3621
20.8683 1.99894 0 -41.3549
65.4605 1.74205 0 -35.4889
71.5377 1.6863 0 -35.6403
21.8913 1.97649 0 -41.355
43.1105 1.92862 0 -39.2734
68.5038 1.70982 0 -35.5653
47.1786 1.87164 0 -39.351
45.1486 1.89594 0 -39.3103
20.8683 1.99894 0 -41.3549
18.7891 2.06357 0 -41.3883
59.3426 1.84727 0 -35.3288
65.4605 1.74205 0 -35.4889
19.8359 2.02724 0 -41.3648
38.9954 2.02928 0 -39.2148
62.4069 1.78664 0 -35.4104
43.1105 1.92862 0 -39.2734
41.0605 1.97156 0 -39.2415
18.7891 2.06357 0 -41.3883
16.6618 2.1757 0 -41.4934
53.1279 2.02558 0 -35.1607
59.3426 1.84727 0 -35.3288
17.7304 2.11242 0 -41.4294
34.7927 2.20216 0 -39.1927
56.2537 1.92495 0 -35.2453
38.9954 2.02928 0 -39.2148
36.9086 2.10554 0 -39.1964
16.6618 2.1757 0 -41.4934
14.4211 2.3393 0 -41.7205
46.7714 2.32815 0 -34.9797
53.1279 2.02558 0 -35.1607
15.5643 2.25017 0 -41.5875
30.4376 2.47143 0 -39.2373
49.9672 2.15878 0 -35.0727
34.7927 2.20216 0 -39.1927
32.6382 2.3212 0 -39.2068
14.4211 2.3393 0 -41.7205
12.0632 2.58903 0 -42.129
40.1056 2.76053 0 -34.8113
46.7714 2.32815 0 -34.9797
13.25 2.45428 0 -41.8981
25.831 2.865 0 -39.3949
43.4973 2.52659 0 -34.8902
30.4376 2.47143 0 -39.2373
28.1757 2.6572 0 -39.2929
12.0632 2.58903 0 -42.129
9.44464 2.83891 0 -42.7851
33.0684 3.36322 0 -34.6722
40.1056 2.76053 0 -34.8113
10.8099 2.71895 0 -42.4217
20.8635 3.3112 0 -39.7296
36.6246 3.04846 0 -34.7377
25.831 2.865 0 -39.3949
23.3948 3.08284 0 -39.5454
9.44464 2.83891 0 -42.7851
6.71466 3.0444 0 -43.6598
25.299 3.84714 0 -34.7231
33.0684 3.36322 0 -34.6722
8.0578 2.96841 0 -43.2025
15.4323 3.63011 0 -40.3066
29.3267 3.63985 0 -34.6551
20.8635 3.3112 0 -39.7296
18.2238 3.53104 0 -39.9641
6.71466 3.0444 0 -43.6598
3.73244 2.62149 0 -44.5354
17.0657 3.83705 0 -35.0939
25.299 3.84714 0 -34.7231
5.30308 2.94628 0 -44.122
9.70454 3.09853 0 -41.1103
21.1739 3.99033 0 -34.8599
15.4323 3.63011 0 -40.3066
12.5639 3.51058 0 -40.7222
3.73244 2.62149 0 -44.5354
1.33331 1.16199 0 -44.5638
8.27004 1.32034 0 -36.214
17.0657 3.83705 0 -35.0939
2.32511 2.0967 0 -44.7399
4.22027 0.600845 0 -41.7409
12.8108 3.03859 0 -35.5241
9.70454 3.09853 0 -41.1103
6.92796 2.2631 0 -41.4306
1.33331 1.16199 0 -44.5638
-0.71066 -2.71362 0 -42.1441
1.63006 -6.51514 0 -37.2301
8.27004 1.32034 0 -36.214
0.388805 -0.511207 0 -43.796
0.685148 -5.86225 0 -40.525
4.33827 -1.49775 0 -36.8571
4.22027 0.600845 0 -41.7409
1.96318 -2.16113 0 -41.6602
-0.71066 -2.71362 0 -42.1441
-0.654649 -7.25206 0 -34.5772
-2.04978 -26.3191 0 -34.6276
1.63006 -6.51514 0 -37.2301
-1.24656 -4.95856 0 -39.1775
-0.875676 -16.414 0 -33.977
-0.48899 -14.995 0 -36.8648
0.685148 -5.86225 0 -40.525
-0.0849223 -10.5537 0 -37.9758
-0.654649 -7.25206 0 -34.5772
0.984065 -13.4333 0 -19.9924
-1.86425 -49.7801 0 -19.1412
-2.04978 -26.3191 0 -34.6276
0.310277 -10.0289 0 -28.2374
-1.37981 -30.2302 0 -20.5844
-2.76147 -38.9813 0 -29.0068
-0.875676 -16.414 0 -33.977
-1.46004 -23.2705 0 -28.3306
1069.25 320.489 0 97.889
1161.72 202.228 0 -3.89127
1968.22 212.332 0 -110.125
1858.68 556.677 0 -75.4045
1132.02 257.169 0 36.433
1539.85 233.484 0 -45.9039
1931.08 400.373 0 -127.366
1520.25 455.446 0 14.6294
1504.51 324.365 0 -15.0841
1161.72 202.228 0 -3.89127
1183.97 88.0162 0 -35.7582
1998.07 62.8836 0 -53.4202
1968.22 212.332 0 -110.125
1171.65 140.936 0 -24.3755
1595.18 90.9732 0 -53.8629
1996.24 109.069 0 -79.9745
1539.85 233.484 0 -45.9039
1582.47 156.915 0 -60.1814
1183.97 88.0162 0 -35.7582
1195.41 30.2818 0 -42.1207
1973.07 10.7923 0 -21.0883
1998.07 62.8836 0 -53.4202
1194.82 53.3417 0 -41.4315
1591.64 25.7614 0 -36.8526
1983.07 30.6554 0 -32.1538
1595.18 90.9732 0 -53.8629
1594.55 48.9464 0 -42.9896
1195.41 30.2818 0 -42.1207
1186.44 3.46094 0 -39.2601
1955.79 -0.616792 0 -14.1153
1973.07 10.7923 0 -21.0883
1190.51 13.6805 0 -40.5096
1576.56 0.662409 0 -28.6183
1965.42 2.52536 0 -16.3455
1591.64 25.7614 0 -36.8526
1585.19 10.4392 0 -32.4159
1186.44 3.46094 0 -39.2601
1175.84 -4.41057 0 -37.3709
1938.47 -4.87378 0 -14.1352
1955.79 -0.616792 0 -14.1153
1182.04 -1.76792 0 -38.3248
1560.28 -5.49355 0 -26.2272
1945.73 -3.36555 0 -13.3978
1576.56 0.662409 0 -28.6183
1567.74 -4.03311 0 -26.5329
1175.84 -4.41057 0 -37.3709
1163.57 -6.35286 0 -36.1781
1926.48 -4.18852 0 -16.9825
1938.47 -4.87378 0 -14.1352
1169.12 -5.94597 0 -36.5541
1546.71 -6.30749 0 -26.7176
1932.66 -4.75263 0 -15.6192
1560.28 -5.49355 0 -26.2272
1553.35 -6.13823 0 -26.4614
1163.57 -6.35286 0 -36.1781
1153.64 -5.40844 0 -35.9702
1914.92 -3.45555 0 -19.4565
1926.48 -4.18852 0 -16.9825
1158.62 -5.99394 0 -36.0524
1535.07 -5.03445 0 -27.9519
1920.34 -3.8466 0 -18.2201
1546.71 -6.30749 0 -26.7176
1540.58 -5.83465 0 -27.2274
1153.64 -5.40844 0 -35.9702
1144.69 -4.23325 0 -36.0159
1904.64 -2.44018 0 -21.556
1914.92 -3.45555 0 -19.4565
1148.89 -4.84274 0 -35.9425
1524.99 -3.76343 0 -29.1954
1909.84 -2.9172 0 -20.6172
1535.07 -5.03445 0 -27.9519
1529.92 -4.3408 0 -28.6354
1144.69 -4.23325 0 -36.0159
1137.08 -3.10826 0 -36.2612
1894.37 -1.8066 0 -22.9935
1904.64 -2.44018 0 -21.556
1140.83 -3.62415 0 -36.1399
1515.81 -2.6955 0 -30.2062
1899.43 -2.09592 0 -22.3254
1524.99 -3.76343 0 -29.1954
1520.3 -3.20325 0 -29.7172
1137.08 -3.10826 0 -36.2612
1130.07 -2.35271 0 -36.5225
1884.34 -1.34249 0 -24.0485
1894.37 -1.8066 0 -22.9935
1133.48 -2.69731 0 -36.3852
1507.17 -1.99804 0 -30.9744
1889.38 -1.54586 0 -23.5726
1515.81 -2.6955 0 -30.2062
1511.45 -2.30012 0 -30.6256
1130.07 -2.35271 0 -36.5225
1123.56 -1.84172 0 -36.7985
1874.28 -1.0755 0 -24.7972
1884.34 -1.34249 0 -24.0485
1126.79 -2.06478 0 -36.664
1498.82 -1.54712 0 -31.5618
1879.3 -1.19335 0 -24.4478
1507.17 -1.99804 0 -30.9744
1502.97 -1.74847 0 -31.2836
1123.56 -1.84172 0 -36.7985
1117.25 -1.53736 0 -37.0581
1864.23 -0.907867 0 -25.3827
1874.28 -1.0755 0 -24.7972
1120.37 -1.67139 0 -36.9289
1490.62 -1.28183 0 -32.0252
1869.26 -0.97989 0 -25.108
1498.82 -1.54712 0 -31.5618
1494.71 -1.39518 0 -31.8073
1117.25 -1.53736 0 -37.0581
1111.09 -1.34965 0 -37.3077
1854.16 -0.811924 0 -25.8612
1864.23 -0.907867 0 -25.3827
1114.16 -1.43081 0 -37.185
1482.5 -1.1227 0 -32.4135
1859.2 -0.854145 0 -25.6308
1490.62 -1.28183 0 -32.0252
1486.55 -1.1925 0 -32.2259
1111.09 -1.34965 0 -37.3077
1104.99 -1.23753 0 -37.5451
1844.09 -0.751485 0 -26.2844
1854.16 -0.811924 0 -25.8612
1108.04 -1.28713 0 -37.4275
1474.41 -1.02838 0 -32.7556
1849.13 -0.778017 0 -26.0784
1482.5 -1.1227 0 -32.4135
1478.45 -1.06936 0 -32.5892
1104.99 -1.23753 0 -37.5451
1098.93 -1.16445 0 -37.7739
1834.01 -0.712206 0 -26.6735
1844.09 -0.751485 0 -26.2844
1101.96 -1.19711 0 -37.6606
1466.34 -0.967853 0 -33.0708
1839.05 -0.730186 0 -26.4819
1474.41 -1.02838 0 -32.7556
1470.38 -0.995148 0 -32.9156
1098.93 -1.16445 0 -37.7739
1092.87 -1.11351 0 -37.9952
1823.93 -0.682782 0 -27.0439
1834.01 -0.712206 0 -26.6735
1095.9 -1.13716 0 -37.8853
1458.27 -0.925559 0 -33.3694
1828.97 -0.696554 0 -26.8606
1466.34 -0.967853 0 -33.0708
1462.31 -0.945075 0 -33.2218
1092.87 -1.11351 0 -37.9952
1086.82 -1.07311 0 -38.2105
1813.84 -0.658497 0 -27.4015
1823.93 -0.682782 0 -27.0439
1089.85 -1.09233 0 -38.1036
1450.21 -0.891965 0 -33.6572
1818.88 -0.670258 0 -27.2239
1458.27 -0.925559 0 -33.3694
1454.24 -0.908036 0 -33.5144
1086.82 -1.07311 0 -38.2105
1080.78 -1.03812 0 -38.4207
1803.75 -0.636364 0 -27.7502
1813.84 -0.658497 0 -27.4015
1083.8 -1.05519 0 -38.3162
1442.14 -0.862574 0 -33.9371
1808.8 -0.647241 0 -27.5769
1450.21 -0.891965 0 -33.6572
1446.17 -0.876917 0 -33.798
1080.78 -1.03812 0 -38.4207
1074.73 -1.0055 0 -38.6261
1793.66 -0.615194 0 -28.0914
1803.75 -0.636364 0 -27.7502
1077.76 -1.0216 0 -38.524
1434.07 -0.834981 0 -34.2106
1798.7 -0.625717 0 -27.9217
1442.14 -0.862574 0 -33.9371
1438.11 -0.848637 0 -34.0745
1074.73 -1.0055 0 -38.6261
1068.69 -0.974012 0 -38.8273
1783.57 -0.594346 0 -28.4259
1793.66 -0.615194 0 -28.0914
1071.71 -0.989673 0 -38.7272
1426 -0.808152 0 -34.4784
1788.61 -0.604745 0 -28.2595
1434.07 -0.834981 0 -34.2106
1430.04 -0.821507 0 -34.3451
1068.69 -0.974012 0 -38.8273
1062.64 -0.942995 0 -39.0243
1773.48 -0.573597 0 -28.7539
1783.57 -0.594346 0 -28.4259
1065.66 -0.958461 0 -38.9263
1417.94 -0.781608 0 -34.7408
1778.52 -0.583969 0 -28.5907
1426 -0.808152 0 -34.4784
1421.97 -0.794859 0 -34.6103
1062.64 -0.942995 0 -39.0243
1056.59 -0.912221 0 -39.2173
1763.38 -0.552854 0 -29.0755
1773.48 -0.573597 0 -28.7539
1059.62 -0.927588 0 -39.1213
1409.87 -0.755178 0 -34.9981
1768.43 -0.563226 0 -28.9155
1417.94 -0.781608 0 -34.7408
1413.9 -0.768384 0 -34.8701
1056.59 -0.912221 0 -39.2173
1050.55 -0.881586 0 -39.4065
1753.29 -0.532098 0 -29.3909
1763.38 -0.552854 0 -29.0755
1053.57 -0.896888 0 -39.3124
1401.8 -0.728802 0 -35.2503
1758.34 -0.542478 0 -29.234
1409.87 -0.755178 0 -34.9981
1405.83 -0.741985 0 -35.1249
1050.55 -0.881586 0 -39.4065
1044.5 -0.851065 0 -39.5918
1743.2 -0.511331 0 -29.6999
1753.29 -0.532098 0 -29.3909
1047.52 -0.866312 0 -39.4996
1393.73 -0.70247 0 -35.4975
1748.25 -0.521715 0 -29.5462
1401.8 -0.728802 0 -35.2503
1397.77 -0.71563 0 -35.3745
1044.5 -0.851065 0 -39.5918
1038.45 -0.820649 0 -39.7734
1733.11 -0.490563 0 -30.0028
1743.2 -0.511331 0 -29.6999
1041.48 -0.835843 0 -39.6831
1385.66 -0.676188 0 -35.7397
1738.16 -0.500947 0 -29.8521
1393.73 -0.70247 0 -35.4975
1389.7 -0.689322 0 -35.6192
1038.45 -0.820649 0 -39.7734
1032.4 -0.790342 0 -39.9512
1723.02 -0.469803 0 -30.2994
1733.11 -0.490563 0 -30.0028
1035.43 -0.805482 0 -39.8627
1377.59 -0.649964 0 -35.9769
1728.06 -0.480182 0 -30.1519
1385.66 -0.676188 0 -35.7397
1381.63 -0.663068 0 -35.8589
1032.4 -0.790342 0 -39.9512
1026.36 -0.760148 0 -40.1253
1712.93 -0.449059 0 -30.5899
1723.02 -0.469803 0 -30.2994
1029.38 -0.775231 0 -40.0387
1369.53 -0.623805 0 -36.2091
1717.97 -0.459429 0 -30.4455
1377.59 -0.649964 0 -35.9769
1373.56 -0.636876 0 -36.0936
1026.36 -0.760148 0 -40.1253
1020.31 -0.730069 0 -40.2957
1702.83 -0.428337 0 -30.8743
1712.93 -0.449059 0 -30.5899
1023.33 -0.745094 0 -40.2109
1361.46 -0.597719 0 -36.4365
1707.88 -0.438695 0 -30.7329
1369.53 -0.623805 0 -36.2091
1365.49 -0.610753 0 -36.3234
1020.31 -0.730069 0 -40.2957
1014.26 -0.700109 0 -40.4624
1692.74 -0.407644 0 -31.1525
1702.83 -0.428337 0 -30.8743
1017.29 -0.715074 0 -40.3795
1353.39 -0.571709 0 -36.6589
1697.79 -0.417987 0 -31.0142
1361.46 -0.597719 0 -36.4365
1357.42 -0.584704 0 -36.5483
1014.26 -0.700109 0 -40.4624
1008.22 -0.670271 0 -40.6255
1682.65 -0.386985 0 -31.4247
1692.74 -0.407644 0 -31.1525
1011.24 -0.685175 0 -40.5444
1345.32 -0.545781 0 -36.8766
1687.7 -0.39731 0 -31.2894
1353.39 -0.571709 0 -36.6589
1349.35 -0.558735 0 -36.7684
1008.22 -0.670271 0 -40.6255
1002.17 -0.640557 0 -40.785
1672.56 -0.366363 0 -31.6909
1682.65 -0.386985 0 -31.4247
1005.19 -0.655399 0 -40.7057
1337.25 -0.519938 0 -37.0894
1677.6 -0.376669 0 -31.5586
1345.32 -0.545781 0 -36.8766
1341.29 -0.532849 0 -36.9836
1002.17 -0.640557 0 -40.785
996.12 -0.610971 0 -40.9409
1662.47 -0.345785 0 -31.9511
1672.56 -0.366363 0 -31.6909
999.144 -0.625748 0 -40.8634
1329.18 -0.494184 0 -37.2974
1667.51 -0.356068 0 -31.8217
1337.25 -0.519938 0 -37.0894
1333.22 -0.50705 0 -37.194
996.12 -0.610971 0 -40.9409
990.073 -0.581514 0 -41.0932
1652.38 -0.325253 0 -32.2053
1662.47 -0.345785 0 -31.9511
993.097 -0.596226 0 -41.0175
1321.11 -0.468523 0 -37.5006
1657.42 -0.335513 0 -32.0789
1329.18 -0.494184 0 -37.2974
1325.15 -0.481341 0 -37.3996
990.073 -0.581514 0 -41.0932
984.026 -0.552191 0 -41.242
1642.29 -0.304774 0 -32.4536
1652.38 -0.325253 0 -32.2053
987.049 -0.566836 0 -41.168
1313.05 -0.442957 0 -37.6991
1647.33 -0.315007 0 -32.3302
1321.11 -0.468523 0 -37.5006
1317.08 -0.455728 0 -37.6005
984.026 -0.552191 0 -41.242
977.978 -0.523002 0 -41.3872
1632.19 -0.28435 0 -32.696
1642.29 -0.304774 0 -32.4536
981.002 -0.537579 0 -41.315
1304.98 -0.417492 0 -37.8929
1637.24 -0.294555 0 -32.5755
1313.05 -0.442957 0 -37.6991
1309.01 -0.430212 0 -37.7966
977.978 -0.523002 0 -41.3872
971.931 -0.493952 0 -41.529
1622.1 -0.263986 0 -32.9326
1632.19 -0.28435 0 -32.696
974.955 -0.508459 0 -41.4585
1296.91 -0.392129 0 -38.0821
1627.15 -0.27416 0 -32.815
1304.98 -0.417492 0 -37.8929
1300.94 -0.404797 0 -37.9881
971.931 -0.493952 0 -41.529
965.884 -0.465042 0 -41.6672
1612.01 -0.243687 0 -33.1633
1622.1 -0.263986 0 -32.9326
968.907 -0.479479 0 -41.5985
1288.84 -0.366873 0 -38.2665
1617.06 -0.253828 0 -33.0487
1296.91 -0.392129 0 -38.0821
1292.87 -0.379488 0 -38.1749
965.884 -0.465042 0 -41.6672
959.836 -0.436276 0 -41.802
1601.92 -0.223455 0 -33.3883
1612.01 -0.243687 0 -33.1633
962.86 -0.450641 0 -41.735
1280.77 -0.341727 0 -38.4464
1606.97 -0.233562 0 -33.2765
1288.84 -0.366873 0 -38.2665
1284.81 -0.354286 0 -38.357
959.836 -0.436276 0 -41.802
953.789 -0.407655 0 -41.9333
1591.83 -0.203296 0 -33.6075
1601.92 -0.223455 0 -33.3883
956.813 -0.421947 0 -41.8681
1272.7 -0.316694 0 -38.6216
1596.88 -0.213366 0 -33.4986
1280.77 -0.341727 0 -38.4464
1276.74 -0.329196 0 -38.5346
953.789 -0.407655 0 -41.9333
947.742 -0.379182 0 -42.0612
1581.74 -0.183212 0 -33.8211
1591.83 -0.203296 0 -33.6075
950.765 -0.3934 0 -41.9977
1264.64 -0.291777 0 -38.7923
1586.78 -0.193244 0 -33.715
1272.7 -0.316694 0 -38.6216
1268.67 -0.304221 0 -38.7076
947.742 -0.379182 0 -42.0612
941.694 -0.350861 0 -42.1857
1571.65 -0.163208 0 -34.0289
1581.74 -0.183212 0 -33.8211
944.718 -0.365003 0 -42.1239
1256.57 -0.266979 0 -38.9585
1576.69 -0.1732 0 -33.9257
1264.64 -0.291777 0 -38.7923
1260.6 -0.279363 0 -38.876
941.694 -0.350861 0 -42.1857
935.647 -0.322691 0 -42.3069
1561.56 -0.143288 0 -34.2311
1571.65 -0.163208 0 -34.0289
938.671 -0.336757 0 -42.2467
1248.5 -0.242304 0 -39.1202
1566.6 -0.153237 0 -34.1307
1256.57 -0.266979 0 -38.9585
1252.53 -0.254626 0 -39.0399
935.647 -0.322691 0 -42.3069
929.6 -0.294677 0 -42.4246
1551.47 -0.123454 0 -34.4278
1561.56 -0.143288 0 -34.2311
932.623 -0.308665 0 -42.3662
1240.43 -0.217753 0 -39.2773
1556.51 -0.13336 0 -34.3302
1248.5 -0.242304 0 -39.1202
1244.47 -0.230012 0 -39.1993
929.6 -0.294677 0 -42.4246
923.553 -0.266821 0 -42.5391
1541.38 -0.103711 0 -34.6189
1551.47 -0.123454 0 -34.4278
926.576 -0.280729 0 -42.4823
1232.36 -0.19333 0 -39.4301
1546.42 -0.113571 0 -34.524
1240.43 -0.217753 0 -39.2773
1236.4 -0.205525 0 -39.3543
923.553 -0.266821 0 -42.5391
917.505 -0.239123 0 -42.6502
1531.29 -0.0840618 0 -34.8044
1541.38 -0.103711 0 -34.6189
920.529 -0.252952 0 -42.595
1224.3 -0.169038 0 -39.5784
1536.33 -0.0938745 0 -34.7123
1232.36 -0.19333 0 -39.4301
1228.33 -0.181168 0 -39.5048
917.505 -0.239123 0 -42.6502
911.458 -0.211587 0 -42.758
1521.2 -0.0645101 0 -34.9845
1531.29 -0.0840618 0 -34.8044
914.482 -0.225335 0 -42.7045
1216.23 -0.14488 0 -39.7223
1526.24 -0.0742736 0 -34.8951
1224.3 -0.169038 0 -39.5784
1220.26 -0.156942 0 -39.6509
911.458 -0.211587 0 -42.758
905.411 -0.184214 0 -42.8626
1511.11 -0.045059 0 -35.1591
1521.2 -0.0645101 0 -34.9845
908.435 -0.19788 0 -42.8107
1208.16 -0.120857 0 -39.8619
1516.15 -0.0547717 0 -35.0725
1216.23 -0.14488 0 -39.7223
1212.19 -0.132851 0 -39.7926
905.411 -0.184214 0 -42.8626
899.364 -0.157007 0 -42.9639
1501.02 -0.0257119 0 -35.3283
1511.11 -0.045059 0 -35.1591
902.388 -0.17059 0 -42.9136
1200.09 -0.0969736 0 -39.9971
1506.06 -0.0353723 0 -35.2444
1208.16 -0.120857 0 -39.8619
1204.13 -0.108898 0 -39.93
899.364 -0.157007 0 -42.9639
893.317 -0.129968 0 -43.062
1490.93 -0.00647203 0 -35.4921
1501.02 -0.0257119 0 -35.3283
896.34 -0.143466 0 -43.0133
1192.03 -0.0732314 0 -40.128
1495.97 -0.0160783 0 -35.4109
1200.09 -0.0969736 0 -39.9971
1196.06 -0.0850846 0 -40.0631
893.317 -0.129967 0 -43.062
887.27 -0.103097 0 -43.1568
1480.84 0.0126576 0 -35.6506
1490.93 -0.00647203 0 -35.4921
890.293 -0.116511 0 -43.1098
1183.96 -0.049633 0 -40.2547
1485.88 0.00310669 0 -35.572
1192.03 -0.0732314 0 -40.128
1187.99 -0.0614141 0 -40.1919
887.27 -0.103097 0 -43.1568
881.223 -0.0763976 0 -43.2485
1470.75 0.0316739 0 -35.8037
1480.84 0.0126576 0 -35.6506
884.246 -0.0897258 0 -43.2031
1175.89 -0.0261809 0 -40.3771
1475.79 0.0221801 0 -35.7278
1183.96 -0.049633 0 -40.2547
1179.92 -0.0378884 0 -40.3164
881.223 -0.0763976 0 -43.2485
875.176 -0.0498714 0 -43.3371
1460.66 0.0505736 0 -35.9516
1470.75 0.0316739 0 -35.8037
878.199 -0.0631128 0 -43.2932
1167.82 -0.00287762 0 -40.4953
1465.7 0.0411385 0 -35.8784
1175.89 -0.0261809 0 -40.3771
1171.86 -0.0145105 0 -40.4367
875.176 -0.0498714 0 -43.3371
869.129 -0.0235198 0 -43.4225
1450.57 0.0693541 0 -36.0943
1460.66 0.0505736 0 -35.9516
872.153 -0.0366736 0 -43.3802
1159.76 0.0202745 0 -40.6093
1455.61 0.059979 0 -36.0236
1167.82 -0.00287762 0 -40.4953
1163.79 0.0087175 0 -40.5528
869.129 -0.0235198 0 -43.4225
863.082 0.00265511 0 -43.5047
1440.48 0.0880123 0 -36.2318
1450.57 0.0693541 0 -36.0943
866.106 -0.0104102 0 -43.464
1151.69 0.0432732 0 -40.7192
1445.53 0.0786987 0 -36.1637
1159.76 0.0202745 0 -40.6093
1155.72 0.0317932 0 -40.6648
863.082 0.00265511 0 -43.5047
857.035 0.0286518 0 -43.5839
1430.39 0.106546 0 -36.3641
1440.48 0.0880123 0 -36.2318
860.059 0.0156758 0 -43.5447
1143.62 0.0661162 0 -40.8249
1435.44 0.0972948 0 -36.2986
1151.69 0.0432732 0 -40.7192
1147.65 0.0547143 0 -40.7726
857.035 0.0286518 0 -43.5839
850.989 0.0544685 0 -43.66
1420.3 0.124951 0 -36.4913
1430.39 0.106546 0 -36.3641
854.012 0.0415828 0 -43.6224
1135.55 0.0888012 0 -40.9265
1425.35 0.115764 0 -36.4283
1143.62 0.0661162 0 -40.8249
1139.59 0.0774786 0 -40.8762
850.989 0.0544685 0 -43.66
844.942 0.0801037 0 -43.7331
1410.22 0.143226 0 -36.6134
1420.3 0.124951 0 -36.4913
847.965 0.0673089 0 -43.6969
1127.49 0.111326 0 -41.0241
1415.26 0.134105 0 -36.553
1135.55 0.0888012 0 -40.9265
1131.52 0.100084 0 -40.9758
844.942 0.0801037 0 -43.7331
838.895 0.105556 0 -43.8031
1400.13 0.161368 0 -36.7304
1410.22 0.143226 0 -36.6134
841.919 0.0928527 0 -43.7685
1119.42 0.133689 0 -41.1176
1405.17 0.152313 0 -36.6725
1127.49 0.111326 0 -41.0241
1123.45 0.122528 0 -41.0713
838.895 0.105556 0 -43.8031
832.849 0.130823 0 -43.8701
1390.04 0.179374 0 -36.8425
1400.13 0.161368 0 -36.7304
835.872 0.118212 0 -43.837
1111.35 0.155887 0 -41.2071
1395.08 0.170388 0 -36.7871
1119.42 0.133689 0 -41.1176
1115.39 0.144809 0 -41.1629
832.849 0.130823 0 -43.8701
826.802 0.155904 0 -43.9341
1379.95 0.197241 0 -36.9495
1390.04 0.179374 0 -36.8425
829.825 0.143387 0 -43.9025
1103.29 0.177919 0 -41.2926
1384.99 0.188325 0 -36.8966
1111.35 0.155887 0 -41.2071
1107.32 0.166924 0 -41.2504
826.802 0.155904 0 -43.9341
820.755 0.180797 0 -43.9952
1369.86 0.214968 0 -37.0516
1379.95 0.197241 0 -36.9495
823.779 0.168374 0 -43.965
1095.22 0.199783 0 -41.3742
1374.91 0.206123 0 -37.0012
1103.29 0.177919 0 -41.2926
1099.25 0.188872 0 -41.3339
820.755 0.180797 0 -43.9952
814.709 0.205501 0 -44.0533
1359.77 0.232552 0 -37.1488
1369.86 0.214968 0 -37.0516
817.732 0.193172 0 -44.0246
1087.15 0.221476 0 -41.4518
1364.82 0.223778 0 -37.1008
1095.22 0.199783 0 -41.3742
1091.19 0.210651 0 -41.4135
814.709 0.205501 0 -44.0533
808.663 0.230014 0 -44.1085
1349.69 0.249991 0 -37.2412
1359.77 0.232552 0 -37.1488
811.686 0.217781 0 -44.0813
1079.09 0.242998 0 -41.5256
1354.73 0.24129 0 -37.1956
1087.15 0.221476 0 -41.4518
1083.12 0.232259 0 -41.4892
808.663 0.230014 0 -44.1085
802.616 0.254335 0 -44.1608
1339.6 0.267282 0 -37.3286
1349.69 0.249991 0 -37.2412
805.639 0.242198 0 -44.135
1071.02 0.264345 0 -41.5955
1344.64 0.258655 0 -37.2855
1079.09 0.242998 0 -41.5256
1075.05 0.253693 0 -41.561
802.616 0.254335 0 -44.1608
796.57 0.278462 0 -44.2102
1329.51 0.284423 0 -37.4113
1339.6 0.267282 0 -37.3286
799.593 0.266423 0 -44.1859
1062.96 0.285517 0 -41.6615
1334.56 0.275871 0 -37.3706
1071.02 0.264345 0 -41.5955
1066.99 0.274953 0 -41.629
796.57 0.278462 0 -44.2102
790.524 0.302395 0 -44.2568
1319.43 0.301412 0 -37.4893
1329.51 0.284423 0 -37.4113
793.547 0.290453 0 -44.2338
1054.89 0.306511 0 -41.7237
1324.47 0.292936 0 -37.4509
1062.96 0.285517 0 -41.6615
1058.92 0.296036 0 -41.6931
790.524 0.302395 0 -44.2568
784.478 0.326132 0 -44.3005
1309.34 0.318246 0 -37.5625
1319.43 0.301412 0 -37.4893
787.501 0.314288 0 -44.279
1046.82 0.327326 0 -41.7822
1314.38 0.309848 0 -37.5265
1054.89 0.306511 0 -41.7237
1050.86 0.316941 0 -41.7534
784.478 0.326132 0 -44.3005
778.431 0.349672 0 -44.3414
1299.25 0.334925 0 -37.631
1309.34 0.318246 0 -37.5625
781.455 0.337927 0 -44.3213
1038.76 0.34796 0 -41.8369
1304.3 0.326605 0 -37.5973
1046.82 0.327326 0 -41.7822
1042.79 0.337666 0 -41.81
778.431 0.349672 0 -44.3414
772.385 0.373013 0 -44.3795
1289.17 0.351445 0 -37.6949
1299.25 0.334925 0 -37.631
775.408 0.361367 0 -44.3608
1030.69 0.368412 0 -41.8878
1294.21 0.343205 0 -37.6635
1038.76 0.34796 0 -41.8369
1034.73 0.358209 0 -41.8628
772.385 0.373013 0 -44.3795
766.339 0.396154 0 -44.4149
1279.08 0.367805 0 -37.7541
1289.17 0.351445 0 -37.6949
769.362 0.384608 0 -44.3975
1022.63 0.38868 0 -41.9351
1284.12 0.359645 0 -37.7251
1030.69 0.368412 0 -41.8878
1026.66 0.378569 0 -41.912
766.339 0.396154 0 -44.4149
760.294 0.419094 0 -44.4475
1268.99 0.384003 0 -37.8088
1279.08 0.367805 0 -37.7541
763.317 0.407649 0 -44.4315
1014.56 0.408762 0 -41.9788
1274.04 0.375925 0 -37.782
1022.63 0.38868 0 -41.9351
1018.59 0.398744 0 -41.9574
760.294 0.419094 0 -44.4475
754.248 0.441833 0 -44.4773
1258.91 0.400037 0 -37.8589
1268.99 0.384003 0 -37.8088
757.271 0.430489 0 -44.4627
1006.5 0.428657 0 -42.0187
1263.95 0.392041 0 -37.8344
1014.56 0.408762 0 -41.9788
1010.53 0.418733 0 -41.9992
754.248 0.441833 0 -44.4773
748.202 0.464368 0 -44.5045
1248.82 0.415906 0 -37.9045
1258.91 0.400037 0 -37.8589
751.225 0.453126 0 -44.4913
998.432 0.448364 0 -42.0551
1253.86 0.407992 0 -37.8823
1006.5 0.428657 0 -42.0187
1002.46 0.438534 0 -42.0374
748.202 0.464368 0 -44.5045
742.156 0.4867 0 -44.529
1238.74 0.431607 0 -37.9457
1248.82 0.415906 0 -37.9045
745.179 0.47556 0 -44.5171
990.367 0.467881 0 -42.0879
1243.78 0.423778 0 -37.9257
998.432 0.448364 0 -42.0551
994.399 0.458147 0 -42.072
742.156 0.4867 0 -44.529
736.111 0.508826 0 -44.5508
1228.65 0.447139 0 -37.9824
1238.74 0.431607 0 -37.9457
739.133 0.497789 0 -44.5402
982.302 0.487207 0 -42.1172
1233.69 0.439394 0 -37.9646
990.367 0.467881 0 -42.0879
986.334 0.477568 0 -42.103
736.111 0.508826 0 -44.5508
730.065 0.530746 0 -44.57
1218.57 0.462501 0 -38.0147
1228.65 0.447139 0 -37.9824
733.088 0.519812 0 -44.5607
974.237 0.506341 0 -42.1429
1223.61 0.454841 0 -37.9991
982.302 0.487207 0 -42.1172
978.269 0.496798 0 -42.1305
730.065 0.530746 0 -44.57
724.02 0.552459 0 -44.5866
1208.48 0.47769 0 -38.0427
1218.57 0.462501 0 -38.0147
727.042 0.541629 0 -44.5786
966.173 0.525281 0 -42.1651
1213.52 0.470117 0 -38.0292
974.237 0.506341 0 -42.1429
970.205 0.515835 0 -42.1545
724.02 0.552459 0 -44.5866
717.974 0.573965 0 -44.6006
1198.4 0.492706 0 -38.0663
1208.48 0.47769 0 -38.0427
720.997 0.563238 0 -44.5939
958.108 0.544026 0 -42.1839
1203.44 0.48522 0 -38.055
966.173 0.525281 0 -42.1651
962.14 0.534678 0 -42.175
717.974 0.573965 0 -44.6006
711.929 0.595261 0 -44.612
1188.31 0.507546 0 -38.0856
1198.4 0.492706 0 -38.0663
714.952 0.584639 0 -44.6066
950.044 0.562575 0 -42.1993
1193.35 0.500148 0 -38.0765
958.108 0.544026 0 -42.1839
954.076 0.553325 0 -42.192
711.929 0.595261 0 -44.612
705.884 0.616347 0 -44.6208
1178.23 0.52221 0 -38.1007
1188.31 0.507546 0 -38.0856
708.906 0.60583 0 -44.6167
941.98 0.580926 0 -42.2112
1183.27 0.514901 0 -38.0937
950.044 0.562575 0 -42.1993
946.012 0.571775 0 -42.2057
705.884 0.616347 0 -44.6208
699.838 0.637223 0 -44.6271
1168.14 0.536697 0 -38.1115
1178.23 0.52221 0 -38.1007
702.861 0.626812 0 -44.6243
933.915 0.59908 0 -42.2198
1173.18 0.529476 0 -38.1066
941.98 0.580926 0 -42.2112
937.948 0.590028 0 -42.2159
699.838 0.637223 0 -44.6271
693.793 0.657888 0 -44.6309
1158.06 0.551004 0 -38.1182
1168.14 0.536697 0 -38.1115
696.816 0.647582 0 -44.6293
925.852 0.617034 0 -42.225
1163.1 0.543873 0 -38.1154
933.915 0.59908 0 -42.2198
929.884 0.608082 0 -42.2228
693.793 0.657888 0 -44.6309
687.748 0.678341 0 -44.6322
1147.97 0.56513 0 -38.1207
1158.06 0.551004 0 -38.1182
690.771 0.668141 0 -44.6319
917.788 0.634788 0 -42.2269
1153.02 0.558089 0 -38.12
925.852 0.617034 0 -42.225
921.82 0.625936 0 -42.2264
687.748 0.678341 0 -44.6322
681.703 0.69858 0 -44.6311
1137.89 0.579075 0 -38.1192
1147.97 0.56513 0 -38.1207
684.726 0.688487 0 -44.632
909.724 0.65234 0 -42.2256
1142.93 0.572125 0 -38.1205
917.788 0.634788 0 -42.2269
913.756 0.643589 0 -42.2267
681.703 0.69858 0 -44.6311
675.658 0.718606 0 -44.6275
1127.81 0.592837 0 -38.1135
1137.89 0.579075 0 -38.1192
678.681 0.70862 0 -44.6296
901.661 0.66969 0 -42.2209
1132.85 0.585979 0 -38.1168
909.724 0.65234 0 -42.2256
905.692 0.661041 0 -42.2236
675.658 0.718606 0 -44.6275
669.614 0.738418 0 -44.6215
1117.72 0.606416 0 -38.1038
1127.81 0.592837 0 -38.1135
672.636 0.728539 0 -44.6248
893.597 0.686838 0 -42.2131
1122.77 0.599649 0 -38.1092
901.661 0.66969 0 -42.2209
897.629 0.678289 0 -42.2174
669.614 0.738418 0 -44.6215
663.569 0.758015 0 -44.6131
1107.64 0.619809 0 -38.0901
1117.72 0.606416 0 -38.1038
666.591 0.748244 0 -44.6176
885.534 0.703781 0 -42.202
1112.68 0.613135 0 -38.0975
893.597 0.686838 0 -42.2131
889.566 0.695335 0 -42.2079
663.569 0.758015 0 -44.6131
657.524 0.777397 0 -44.6023
1097.56 0.633016 0 -38.0725
1107.64 0.619809 0 -38.0901
660.547 0.767733 0 -44.608
877.471 0.720519 0 -42.1878
1102.6 0.626436 0 -38.0818
885.534 0.703781 0 -42.202
881.502 0.712176 0 -42.1953
657.524 0.777397 0 -44.6023
651.48 0.796562 0 -44.5892
1087.48 0.646037 0 -38.0509
1097.56 0.633016 0 -38.0725
654.502 0.787006 0 -44.596
869.408 0.737052 0 -42.1704
1092.52 0.63955 0 -38.0621
877.471 0.720519 0 -42.1878
873.439 0.728811 0 -42.1795
651.48 0.796562 0 -44.5892
645.435 0.815511 0 -44.5737
1077.39 0.65887 0 -38.0254
1087.48 0.646037 0 -38.0509
648.458 0.806064 0 -44.5817
861.345 0.753379 0 -42.1499
1082.44 0.652477 0 -38.0386
869.408 0.737052 0 -42.1704
865.376 0.745241 0 -42.1605
645.435 0.815511 0 -44.5737
639.391 0.834242 0 -44.5559
1067.31 0.671514 0 -37.996
1077.39 0.65887 0 -38.0254
642.413 0.824904 0 -44.5651
853.282 0.769498 0 -42.1263
1072.35 0.665216 0 -38.0112
861.345 0.753379 0 -42.1499
857.314 0.761464 0 -42.1385
639.391 0.834242 0 -44.5559
633.347 0.852756 0 -44.5358
1057.23 0.683969 0 -37.9629
1067.31 0.671514 0 -37.996
636.369 0.843526 0 -44.5462
845.22 0.78541 0 -42.0997
1062.27 0.677765 0 -37.9799
853.282 0.769498 0 -42.1263
849.251 0.77748 0 -42.1134
633.347 0.852756 0 -44.5358
627.302 0.871052 0 -44.5135
1047.15 0.696233 0 -37.926
1057.23 0.683969 0 -37.9629
630.324 0.861931 0 -44.5249
837.157 0.801114 0 -42.07
1052.19 0.690125 0 -37.9449
845.22 0.78541 0 -42.0997
841.189 0.793288 0 -42.0852
627.302 0.871052 0 -44.5135
621.258 0.889129 0 -44.4889
1037.07 0.708307 0 -37.8853
1047.15 0.696233 0 -37.926
624.28 0.880117 0 -44.5015
829.095 0.816609 0 -42.0374
1042.11 0.702294 0 -37.9061
837.157 0.801114 0 -42.07
833.126 0.808887 0 -42.0541
621.258 0.889129 0 -44.4889
615.214 0.906986 0 -44.4621
1026.99 0.720189 0 -37.8409
1037.07 0.708307 0 -37.8853
618.236 0.898085 0 -44.4757
821.033 0.831894 0 -42.0017
1032.03 0.714272 0 -37.8635
829.095 0.816609 0 -42.0374
825.064 0.824278 0 -42.0199
615.214 0.906986 0 -44.4621
609.17 0.924625 0 -44.433
1016.9 0.731879 0 -37.7928
1026.99 0.720189 0 -37.8409
612.192 0.915833 0 -44.4478
812.971 0.84697 0 -41.9632
1021.95 0.726058 0 -37.8173
821.033 0.831894 0 -42.0017
817.002 0.839458 0 -41.9828
609.17 0.924625 0 -44.433
603.126 0.942044 0 -44.4018
1006.82 0.743376 0 -37.7411
1016.9 0.731879 0 -37.7928
606.148 0.933362 0 -44.4177
804.909 0.861835 0 -41.9217
1011.86 0.737651 0 -37.7674
812.971 0.84697 0 -41.9632
808.94 0.854429 0 -41.9428
603.126 0.942044 0 -44.4018
597.082 0.959242 0 -44.3684
996.743 0.754679 0 -37.6858
1006.82 0.743376 0 -37.7411
600.104 0.95067 0 -44.3854
796.848 0.876489 0 -41.8773
1001.78 0.749052 0 -37.7139
804.909 0.861835 0 -41.9217
800.878 0.869188 0 -41.8999
597.082 0.959242 0 -44.3684
591.039 0.97622 0 -44.3329
986.663 0.765789 0 -37.6269
996.743 0.754679 0 -37.6858
594.061 0.967759 0 -44.351
788.786 0.890932 0 -41.8301
991.703 0.760258 0 -37.6568
796.848 0.876489 0 -41.8773
792.817 0.883737 0 -41.8541
591.039 0.97622 0 -44.3329
584.995 0.992977 0 -44.2953
976.583 0.776704 0 -37.5645
986.663 0.765789 0 -37.6269
588.017 0.984626 0 -44.3144
780.725 0.905164 0 -41.7801
981.623 0.771271 0 -37.5961
788.786 0.890932 0 -41.8301
784.755 0.898075 0 -41.8055
584.995 0.992977 0 -44.2953
578.952 1.00951 0 -44.2556
966.503 0.787425 0 -37.4986
976.583 0.776704 0 -37.5645
581.973 1.00127 0 -44.2757
772.663 0.919183 0 -41.7273
971.542 0.782089 0 -37.5319
780.725 0.905164 0 -41.7801
776.694 0.9122 0 -41.754
578.952 1.00951 0 -44.2556
572.908 1.02583 0 -44.2138
956.423 0.79795 0 -37.4292
966.503 0.787425 0 -37.4986
575.93 1.0177 0 -44.2349
764.602 0.932991 0 -41.6717
961.463 0.792712 0 -37.4643
772.663 0.919183 0 -41.7273
768.633 0.926114 0 -41.6998
572.908 1.02583 0 -44.2138
566.865 1.04192 0 -44.1699
946.343 0.808281 0 -37.3564
956.423 0.79795 0 -37.4292
569.886 1.0339 0 -44.1921
756.541 0.946585 0 -41.6133
951.383 0.80314 0 -37.3932
764.602 0.932991 0 -41.6717
760.572 0.939815 0 -41.6429
566.865 1.04192 0 -44.1699
560.821 1.05779 0 -44.1241
936.264 0.818415 0 -37.2802
946.343 0.808281 0 -37.3564
563.843 1.04989 0 -44.1473
748.48 0.959967 0 -41.5523
941.304 0.813372 0 -37.3187
756.541 0.946585 0 -41.6133
752.511 0.953303 0 -41.5832
560.821 1.05779 0 -44.1241
554.778 1.07344 0 -44.0762
926.185 0.828353 0 -37.2007
936.264 0.818415 0 -37.2802
557.8 1.06565 0 -44.1004
740.42 0.973136 0 -41.4886
931.224 0.823409 0 -37.2409
748.48 0.959967 0 -41.5523
744.45 0.966579 0 -41.5208
554.778 1.07344 0 -44.0762
548.735 1.08887 0 -44.0263
916.106 0.838095 0 -37.1179
926.185 0.828353 0 -37.2007
551.757 1.08118 0 -44.0515
732.359 0.986092 0 -41.4222
921.145 0.833249 0 -37.1597
740.42 0.973136 0 -41.4886
736.389 0.979641 0 -41.4557
548.735 1.08887 0 -44.0263
542.692 1.10408 0 -43.9745
906.027 0.847641 0 -37.0318
916.106 0.838095 0 -37.1179
545.713 1.0965 0 -44.0006
724.299 0.998835 0 -41.3532
911.067 0.842893 0 -37.0752
732.359 0.986092 0 -41.4222
728.329 0.99249 0 -41.3881
542.692 1.10408 0 -43.9745
536.649 1.11906 0 -43.9207
895.949 0.856991 0 -36.9424
906.027 0.847641 0 -37.0318
539.67 1.1116 0 -43.9478
716.239 1.01136 0 -41.2817
900.988 0.85234 0 -36.9875
724.299 0.998835 0 -41.3532
720.269 1.00513 0 -41.3178
536.649 1.11906 0 -43.9207
530.606 1.13382 0 -43.865
885.87 0.866143 0 -36.8498
895.949 0.856991 0 -36.9424
533.628 1.12647 0 -43.8931
708.178 1.02368 0 -41.2075
890.91 0.861592 0 -36.8965
716.239 1.01136 0 -41.2817
712.208 1.01755 0 -41.2449
530.606 1.13382 0 -43.865
524.563 1.14836 0 -43.8074
875.792 0.875099 0 -36.7541
885.87 0.866143 0 -36.8498
527.585 1.14112 0 -43.8364
700.118 1.03578 0 -41.1308
880.831 0.870646 0 -36.8024
708.178 1.02368 0 -41.2075
704.148 1.02976 0 -41.1695
524.563 1.14836 0 -43.8074
518.521 1.16268 0 -43.7479
865.715 0.883859 0 -36.6552
875.792 0.875099 0 -36.7541
521.542 1.15555 0 -43.7778
692.059 1.04767 0 -41.0516
870.754 0.879504 0 -36.7051
700.118 1.03578 0 -41.1308
696.089 1.04175 0 -41.0915
518.521 1.16268 0 -43.7479
512.478 1.17677 0 -43.6865
855.637 0.892422 0 -36.5533
865.715 0.883859 0 -36.6552
515.499 1.16975 0 -43.7174
683.999 1.05935 0 -40.97
860.676 0.888165 0 -36.6047
692.059 1.04767 0 -41.0516
688.029 1.05353 0 -41.0111
512.478 1.17677 0 -43.6865
506.435 1.19064 0 -43.6234
845.56 0.900788 0 -36.4483
855.637 0.892422 0 -36.5533
509.457 1.18374 0 -43.6552
675.939 1.07081 0 -40.8859
850.598 0.89663 0 -36.5012
683.999 1.05935 0 -40.97
679.969 1.0651 0 -40.9282
506.435 1.19064 0 -43.6234
500.393 1.20429 0 -43.5584
835.482 0.908958 0 -36.3402
845.56 0.900788 0 -36.4483
503.414 1.1975 0 -43.5911
667.88 1.08206 0 -40.7993
840.521 0.904898 0 -36.3946
675.939 1.07081 0 -40.8859
671.91 1.07646 0 -40.8429
500.393 1.20429 0 -43.5584
494.351 1.21772 0 -43.4916
825.405 0.916932 0 -36.2292
835.482 0.908958 0 -36.3402
497.372 1.21103 0 -43.5252
659.821 1.09309 0 -40.7104
830.444 0.912969 0 -36.2851
667.88 1.08206 0 -40.7993
663.85 1.0876 0 -40.7552
494.351 1.21772 0 -43.4916
488.308 1.23093 0 -43.423
815.329 0.924709 0 -36.1152
825.405 0.916932 0 -36.2292
491.329 1.22435 0 -43.4575
651.762 1.10391 0 -40.6191
820.367 0.920845 0 -36.1726
659.821 1.09309 0 -40.7104
655.791 1.09853 0 -40.6651
488.308 1.23093 0 -43.423
482.266 1.24391 0 -43.3527
805.252 0.932291 0 -35.9983
815.329 0.924709 0 -36.1152
485.287 1.23745 0 -43.3881
643.703 1.11452 0 -40.5255
810.29 0.928524 0 -36.0571
651.762 1.10391 0 -40.6191
647.732 1.10924 0 -40.5726
482.266 1.24391 0 -43.3527
476.224 1.25667 0 -43.2807
795.176 0.939677 0 -35.8785
805.252 0.932291 0 -35.9983
479.245 1.25032 0 -43.3169
635.644 1.12492 0 -40.4296
800.214 0.936008 0 -35.9388
643.703 1.11452 0 -40.5255
639.673 1.11975 0 -40.4779
476.224 1.25667 0 -43.2807
470.182 1.26921 0 -43.207
785.1 0.946867 0 -35.7559
795.176 0.939677 0 -35.8785
473.203 1.26297 0 -43.244
627.585 1.1351 0 -40.3314
790.138 0.943296 0 -35.8176
635.644 1.12492 0 -40.4296
631.615 1.13003 0 -40.3808
470.182 1.26921 0 -43.207
464.14 1.28153 0 -43.1316
775.024 0.953862 0 -35.6305
785.1 0.946867 0 -35.7559
467.161 1.2754 0 -43.1695
619.527 1.14507 0 -40.231
780.062 0.950389 0 -35.6935
627.585 1.1351 0 -40.3314
623.556 1.14011 0 -40.2815
464.14 1.28153 0 -43.1316
458.098 1.29363 0 -43.0545
764.948 0.960663 0 -35.5023
775.024 0.953862 0 -35.6305
461.119 1.28761 0 -43.0932
611.468 1.15483 0 -40.1283
769.986 0.957287 0 -35.5667
619.527 1.14507 0 -40.231
615.498 1.14998 0 -40.1799
458.098 1.29363 0 -43.0545
452.056 1.3055 0 -42.9758
754.873 0.967269 0 -35.3713
764.948 0.960663 0 -35.5023
455.077 1.29959 0 -43.0153
603.41 1.16438 0 -40.0235
759.91 0.96399 0 -35.4372
611.468 1.15483 0 -40.1283
607.439 1.15963 0 -40.0762
452.056 1.3055 0 -42.9758
446.014 1.31716 0 -42.8954
744.797 0.973681 0 -35.2377
754.873 0.967269 0 -35.3713
449.035 1.31136 0 -42.9358
595.352 1.17371 0 -39.9165
749.835 0.970499 0 -35.3049
603.41 1.16438 0 -40.0235
599.381 1.16907 0 -39.9703
446.014 1.31716 0 -42.8954
439.973 1.32859 0 -42.8135
734.722 0.9799 0 -35.1014
744.797 0.973681 0 -35.2377
442.994 1.3229 0 -42.8547
587.294 1.18284 0 -39.8074
739.76 0.976815 0 -35.1699
595.352 1.17371 0 -39.9165
591.323 1.1783 0 -39.8622
439.973 1.32859 0 -42.8135
433.931 1.33981 0 -42.73
724.648 0.985926 0 -34.9625
734.722 0.9799 0 -35.1014
436.952 1.33423 0 -42.7719
579.236 1.19175 0 -39.6962
729.685 0.982937 0 -35.0323
587.294 1.18284 0 -39.8074
583.265 1.18732 0 -39.752
433.931 1.33981 0 -42.73
427.89 1.3508 0 -42.6449
714.573 0.991759 0 -34.821
724.648 0.985926 0 -34.9625
430.91 1.34533 0 -42.6877
571.179 1.20045 0 -39.5829
719.61 0.988867 0 -34.8921
579.236 1.19175 0 -39.6962
575.207 1.19613 0 -39.6398
427.89 1.3508 0 -42.6449
421.848 1.36157 0 -42.5583
704.498 0.9974 0 -34.6769
714.573 0.991759 0 -34.821
424.869 1.35621 0 -42.6018
563.121 1.20895 0 -39.4675
709.536 0.994604 0 -34.7493
571.179 1.20045 0 -39.5829
567.15 1.20473 0 -39.5255
421.848 1.36157 0 -42.5583
415.807 1.37213 0 -42.4702
694.424 1.00285 0 -34.5303
704.498 0.9974 0 -34.6769
418.828 1.36688 0 -42.5145
555.064 1.21723 0 -39.3502
699.461 1.00015 0 -34.6039
563.121 1.20895 0 -39.4675
559.092 1.21311 0 -39.4091
415.807 1.37213 0 -42.4702
409.766 1.38247 0 -42.3807
684.35 1.00811 0 -34.3812
694.424 1.00285 0 -34.5303
412.786 1.37732 0 -42.4256
547.006 1.22531 0 -39.2308
689.387 1.0055 0 -34.4561
555.064 1.21723 0 -39.3502
551.035 1.22129 0 -39.2907
409.766 1.38247 0 -42.3807
403.724 1.39258 0 -42.2896
674.276 1.01318 0 -34.2297
684.35 1.00811 0 -34.3812
406.745 1.38755 0 -42.3353
538.949 1.23317 0 -39.1095
679.313 1.01067 0 -34.3058
547.006 1.22531 0 -39.2308
542.978 1.22926 0 -39.1704
403.724 1.39258 0 -42.2896
397.683 1.40248 0 -42.1971
664.203 1.01806 0 -34.0758
674.276 1.01318 0 -34.2297
400.704 1.39756 0 -42.2435
530.892 1.24083 0 -38.9863
669.24 1.01564 0 -34.1531
538.949 1.23317 0 -39.1095
534.921 1.23703 0 -39.0482
397.683 1.40248 0 -42.1971
391.642 1.41216 0 -42.1032
654.129 1.02275 0 -33.9195
664.203 1.01806 0 -34.0758
394.663 1.40735 0 -42.1503
522.835 1.24828 0 -38.8612
659.166 1.02043 0 -33.998
530.892 1.24083 0 -38.9863
526.864 1.24458 0 -38.924
391.642 1.41216 0 -42.1032
385.601 1.42163 0 -42.0079
644.056 1.02725 0 -33.7609
654.129 1.02275 0 -33.9195
388.622 1.41692 0 -42.0557
514.779 1.25553 0 -38.7342
649.093 1.02502 0 -33.8405
522.835 1.24828 0 -38.8612
518.807 1.25193 0 -38.7979
385.601 1.42163 0 -42.0079
379.56 1.43087 0 -41.9112
633.983 1.03157 0 -33.5999
644.056 1.02725 0 -33.7609
382.581 1.42628 0 -41.9597
506.722 1.26256 0 -38.6054
639.02 1.02943 0 -33.6807
514.779 1.25553 0 -38.7342
510.75 1.25907 0 -38.67
379.56 1.43087 0 -41.9112
373.52 1.4399 0 -41.8131
623.91 1.03569 0 -33.4367
633.983 1.03157 0 -33.5999
376.54 1.43541 0 -41.8623
498.665 1.2694 0 -38.4747
628.947 1.03365 0 -33.5186
506.722 1.26256 0 -38.6054
502.694 1.26601 0 -38.5403
373.52 1.4399 0 -41.8131
367.479 1.44871 0 -41.7137
613.838 1.03964 0 -33.2713
623.91 1.03569 0 -33.4367
370.499 1.44433 0 -41.7636
490.609 1.27602 0 -38.3423
618.874 1.03769 0 -33.3543
498.665 1.2694 0 -38.4747
494.637 1.27273 0 -38.4087
367.479 1.44871 0 -41.7137
361.438 1.45731 0 -41.613
603.765 1.04339 0 -33.1037
613.838 1.03964 0 -33.2713
364.459 1.45304 0 -41.6635
482.553 1.28245 0 -38.2081
608.802 1.04154 0 -33.1877
490.609 1.27602 0 -38.3423
486.581 1.27926 0 -38.2754
361.438 1.45731 0 -41.613
355.398 1.4657 0 -41.511
593.693 1.04697 0 -32.9339
603.765 1.04339 0 -33.1037
358.418 1.46153 0 -41.5621
474.497 1.28866 0 -38.0722
598.729 1.0452 0 -33.019
482.553 1.28245 0 -38.2081
478.525 1.28558 0 -38.1404
355.398 1.4657 0 -41.511
349.357 1.47386 0 -41.4077
583.621 1.05036 0 -32.762
593.693 1.04697 0 -32.9339
352.377 1.46981 0 -41.4595
466.441 1.29468 0 -37.9346
588.657 1.04869 0 -32.8482
474.497 1.28866 0 -38.0722
470.469 1.2917 0 -38.0036
349.357 1.47386 0 -41.4077
343.317 1.48182 0 -41.3032
573.549 1.05357 0 -32.588
583.621 1.05036 0 -32.762
346.337 1.47787 0 -41.3556
458.385 1.3005 0 -37.7953
578.585 1.05199 0 -32.6752
466.441 1.29468 0 -37.9346
462.413 1.29761 0 -37.8652
343.317 1.48182 0 -41.3032
337.276 1.48956 0 -41.1974
563.478 1.05659 0 -32.4119
573.549 1.05357 0 -32.588
340.297 1.48571 0 -41.2505
450.329 1.30611 0 -37.6544
568.513 1.0551 0 -32.5002
458.385 1.3005 0 -37.7953
454.357 1.30333 0 -37.7251
337.276 1.48956 0 -41.1974
331.236 1.49709 0 -41.0905
553.406 1.05944 0 -32.2339
563.478 1.05659 0 -32.4119
334.256 1.49335 0 -41.1441
442.274 1.31152 0 -37.5119
558.442 1.05804 0 -32.3232
450.329 1.30611 0 -37.6544
446.302 1.30884 0 -37.5834
331.236 1.49709 0 -41.0905
325.196 1.5044 0 -40.9823
543.335 1.06211 0 -32.0539
553.406 1.05944 0 -32.2339
328.216 1.50077 0 -41.0365
434.218 1.31673 0 -37.3678
548.371 1.0608 0 -32.1441
442.274 1.31152 0 -37.5119
438.246 1.31415 0 -37.4401
325.196 1.5044 0 -40.9823
319.156 1.5115 0 -40.873
533.264 1.0646 0 -31.8719
543.335 1.06211 0 -32.0539
322.176 1.50798 0 -40.9278
426.163 1.32174 0 -37.2222
538.299 1.06337 0 -31.9631
434.218 1.31673 0 -37.3678
430.191 1.31926 0 -37.2952
319.156 1.5115 0 -40.873
313.116 1.5184 0 -40.7626
523.193 1.06691 0 -31.688
533.264 1.0646 0 -31.8719
316.136 1.51498 0 -40.8179
418.108 1.32656 0 -37.075
528.228 1.06577 0 -31.7802
426.163 1.32174 0 -37.2222
422.135 1.32418 0 -37.1488
313.116 1.5184 0 -40.7626
307.075 1.52508 0 -40.651
513.122 1.06904 0 -31.5023
523.193 1.06691 0 -31.688
310.095 1.52176 0 -40.7069
410.053 1.33118 0 -36.9263
518.158 1.068 0 -31.5954
418.108 1.32656 0 -37.075
414.08 1.32889 0 -37.0008
307.075 1.52508 0 -40.651
301.036 1.53155 0 -40.5383
503.052 1.071 0 -31.3147
513.122 1.06904 0 -31.5023
304.055 1.52834 0 -40.5948
401.998 1.3356 0 -36.7762
508.087 1.07004 0 -31.4087
410.053 1.33118 0 -36.9263
406.025 1.33341 0 -36.8514
301.036 1.53155 0 -40.5383
294.996 1.53781 0 -40.4246
492.982 1.07279 0 -31.1253
503.052 1.071 0 -31.3147
298.016 1.53471 0 -40.4816
393.943 1.33982 0 -36.6246
498.017 1.07192 0 -31.2202
401.998 1.3356 0 -36.7762
397.97 1.33773 0 -36.7006
294.996 1.53781 0 -40.4246
288.956 1.54387 0 -40.3098
482.911 1.0744 0 -30.9342
492.982 1.07279 0 -31.1253
291.976 1.54087 0 -40.3673
385.888 1.34385 0 -36.4717
487.946 1.07362 0 -31.03
393.943 1.33982 0 -36.6246
389.915 1.34186 0 -36.5483
288.956 1.54387 0 -40.3098
282.916 1.54971 0 -40.194
472.841 1.07584 0 -30.7413
482.911 1.0744 0 -30.9342
285.936 1.54682 0 -40.252
377.833 1.34769 0 -36.3173
477.876 1.07514 0 -30.838
385.888 1.34385 0 -36.4717
381.861 1.34579 0 -36.3946
282.916 1.54971 0 -40.194
276.876 1.55535 0 -40.0771
462.772 1.07711 0 -30.5468
472.841 1.07584 0 -30.7413
279.896 1.55256 0 -40.1357
369.779 1.35133 0 -36.1616
467.807 1.0765 0 -30.6442
377.833 1.34769 0 -36.3173
373.806 1.34953 0 -36.2396
276.876 1.55535 0 -40.0771
270.837 1.56079 0 -39.9593
452.702 1.07821 0 -30.3506
462.772 1.07711 0 -30.5468
273.856 1.55809 0 -40.0183
361.725 1.35478 0 -36.0046
457.737 1.07768 0 -30.4489
369.779 1.35133 0 -36.1616
365.752 1.35308 0 -36.0832
270.837 1.56079 0 -39.9593
264.797 1.56601 0 -39.8405
442.633 1.07914 0 -30.1527
452.702 1.07821 0 -30.3506
267.817 1.56342 0 -39.9
353.67 1.35804 0 -35.8462
447.667 1.0787 0 -30.2519
361.725 1.35478 0 -36.0046
357.697 1.35643 0 -35.9256
264.797 1.56601 0 -39.8405
258.757 1.57103 0 -39.7207
432.563 1.07991 0 -29.9533
442.633 1.07914 0 -30.1527
261.777 1.56855 0 -39.7807
345.616 1.36111 0 -35.6867
437.598 1.07955 0 -30.0532
353.67 1.35804 0 -35.8462
349.643 1.3596 0 -35.7666
258.757 1.57103 0 -39.7207
252.718 1.57585 0 -39.6001
422.494 1.08051 0 -29.7524
432.563 1.07991 0 -29.9533
255.738 1.57347 0 -39.6605
337.562 1.36399 0 -35.5258
427.529 1.08023 0 -29.8531
345.616 1.36111 0 -35.6867
341.589 1.36257 0 -35.6064
252.718 1.57585 0 -39.6001
246.679 1.58046 0 -39.4785
412.425 1.08094 0 -29.55
422.494 1.08051 0 -29.7524
249.698 1.57818 0 -39.5394
329.508 1.36668 0 -35.3638
417.46 1.08075 0 -29.6514
337.562 1.36399 0 -35.5258
333.535 1.36536 0 -35.445
246.679 1.58046 0 -39.4785
240.639 1.58488 0 -39.356
402.357 1.08121 0 -29.346
412.425 1.08094 0 -29.55
243.659 1.58269 0 -39.4174
321.454 1.36918 0 -35.2006
407.391 1.0811 0 -29.4482
329.508 1.36668 0 -35.3638
325.481 1.36796 0 -35.2824
240.639 1.58488 0 -39.356
234.6 1.58908 0 -39.2327
392.288 1.08132 0 -29.1407
402.357 1.08121 0 -29.346
237.62 1.587 0 -39.2945
313.401 1.3715 0 -35.0363
397.322 1.08129 0 -29.2435
321.454 1.36918 0 -35.2006
317.427 1.37037 0 -35.1186
234.6 1.58908 0 -39.2327
228.561 1.59309 0 -39.1085
382.22 1.08127 0 -28.9339
392.288 1.08132 0 -29.1407
231.58 1.59111 0 -39.1707
305.347 1.37364 0 -34.8708
387.254 1.08132 0 -29.0375
313.401 1.3715 0 -35.0363
309.374 1.37259 0 -34.9537
228.561 1.59309 0 -39.1085
222.521 1.5969 0 -38.9836
372.152 1.08106 0 -28.7258
382.22 1.08127 0 -28.9339
225.541 1.59502 0 -39.0462
297.293 1.37559 0 -34.7043
377.186 1.08119 0 -28.83
305.347 1.37364 0 -34.8708
301.32 1.37464 0 -34.7877
222.521 1.5969 0 -38.9836
216.482 1.60051 0 -38.8578
362.084 1.08069 0 -28.5164
372.152 1.08106 0 -28.7258
219.502 1.59873 0 -38.9208
289.24 1.37735 0 -34.5366
367.118 1.0809 0 -28.6212
297.293 1.37559 0 -34.7043
293.267 1.37649 0 -34.6206
216.482 1.60051 0 -38.8578
210.443 1.60391 0 -38.7313
352.016 1.08017 0 -28.3056
362.084 1.08069 0 -28.5164
213.463 1.60223 0 -38.7946
281.187 1.37894 0 -34.368
357.05 1.08045 0 -28.4111
289.24 1.37735 0 -34.5366
285.213 1.37817 0 -34.4524
210.443 1.60391 0 -38.7313
204.404 1.60712 0 -38.604
341.948 1.07949 0 -28.0936
352.016 1.08017 0 -28.3056
207.424 1.60554 0 -38.6677
273.134 1.38034 0 -34.1983
346.982 1.07985 0 -28.1998
281.187 1.37894 0 -34.368
277.16 1.37966 0 -34.2833
204.404 1.60712 0 -38.604
198.365 1.61014 0 -38.4759
331.88 1.07865 0 -27.8804
341.948 1.07949 0 -28.0936
201.385 1.60865 0 -38.54
265.08 1.38157 0 -34.0277
336.914 1.07909 0 -27.9872
273.134 1.38034 0 -34.1983
269.107 1.38098 0 -34.1131
198.365 1.61014 0 -38.4759
192.326 1.61295 0 -38.3472
321.813 1.07766 0 -27.666
331.88 1.07865 0 -27.8804
195.346 1.61157 0 -38.4117
257.027 1.38261 0 -33.8561
326.847 1.07818 0 -27.7733
265.08 1.38157 0 -34.0277
261.054 1.38211 0 -33.942
192.326 1.61295 0 -38.3472
186.287 1.61557 0 -38.2178
311.746 1.07652 0 -27.4505
321.813 1.07766 0 -27.666
189.307 1.61428 0 -38.2826
248.974 1.38348 0 -33.6836
316.779 1.07711 0 -27.5584
257.027 1.38261 0 -33.8561
253.001 1.38307 0 -33.77
186.287 1.61557 0 -38.2178
180.248 1.61799 0 -38.0877
301.679 1.07523 0 -27.2338
311.746 1.07652 0 -27.4505
183.268 1.6168 0 -38.1528
240.922 1.38417 0 -33.5103
306.712 1.0759 0 -27.3423
248.974 1.38348 0 -33.6836
244.948 1.38385 0 -33.5971
180.248 1.61799 0 -38.0877
174.21 1.62022 0 -37.957
291.612 1.0738 0 -27.0161
301.679 1.07523 0 -27.2338
177.229 1.61913 0 -38.0224
232.869 1.38468 0 -33.336
296.645 1.07453 0 -27.1251
240.922 1.38417 0 -33.5103
236.895 1.38445 0 -33.4232
174.21 1.62022 0 -37.957
168.171 1.62225 0 -37.8257
281.545 1.07221 0 -26.7973
291.612 1.0738 0 -27.0161
171.19 1.62126 0 -37.8914
224.816 1.38502 0 -33.161
286.578 1.07302 0 -26.9068
232.869 1.38468 0 -33.336
228.843 1.38487 0 -33.2486
168.171 1.62225 0 -37.8257
162.132 1.62408 0 -37.6937
271.478 1.07048 0 -26.5775
281.545 1.07221 0 -26.7973
165.151 1.62319 0 -37.7598
216.764 1.38518 0 -32.9851
276.511 1.07136 0 -26.6875
224.816 1.38502 0 -33.161
220.79 1.38512 0 -33.0731
162.132 1.62408 0 -37.6937
156.093 1.62571 0 -37.5612
261.412 1.0686 0 -26.3568
271.478 1.07048 0 -26.5775
159.113 1.62492 0 -37.6275
208.711 1.38517 0 -32.8085
266.445 1.06956 0 -26.4673
216.764 1.38518 0 -32.9851
212.737 1.3852 0 -32.8969
156.093 1.62571 0 -37.5612
150.055 1.62715 0 -37.4281
251.345 1.06658 0 -26.1352
261.412 1.0686 0 -26.3568
153.074 1.62646 0 -37.4947
200.659 1.38498 0 -32.6311
256.378 1.06761 0 -26.2461
208.711 1.38517 0 -32.8085
204.685 1.38509 0 -32.7199
150.055 1.62715 0 -37.4281
144.016 1.62839 0 -37.2946
241.279 1.06441 0 -25.9126
251.345 1.06658 0 -26.1352
147.035 1.6278 0 -37.3614
192.607 1.38461 0 -32.4531
246.312 1.06551 0 -26.024
200.659 1.38498 0 -32.6311
196.633 1.38481 0 -32.5422
144.016 1.62839 0 -37.2946
137.978 1.62943 0 -37.1605
231.213 1.06209 0 -25.6893
241.279 1.06441 0 -25.9126
140.997 1.62894 0 -37.2276
184.554 1.38406 0 -32.2743
236.246 1.06327 0 -25.8011
192.607 1.38461 0 -32.4531
188.58 1.38436 0 -32.3638
137.978 1.62943 0 -37.1605
131.939 1.63027 0 -37.0259
221.147 1.05963 0 -25.4651
231.213 1.06209 0 -25.6893
134.958 1.62988 0 -37.0932
176.502 1.38334 0 -32.095
226.18 1.06088 0 -25.5773
184.554 1.38406 0 -32.2743
180.528 1.38372 0 -32.1847
131.939 1.63027 0 -37.0259
125.901 1.63091 0 -36.8909
211.081 1.05703 0 -25.2402
221.147 1.05963 0 -25.4651
128.92 1.63062 0 -36.9584
168.45 1.38243 0 -31.915
216.114 1.05835 0 -25.3527
176.502 1.38334 0 -32.095
172.476 1.38291 0 -32.005
125.901 1.63091 0 -36.8909
119.863 1.63137 0 -36.7554
201.015 1.05427 0 -25.0145
211.081 1.05703 0 -25.2402
122.882 1.63116 0 -36.8232
160.398 1.38135 0 -31.7344
206.048 1.05567 0 -25.1274
168.45 1.38243 0 -31.915
164.424 1.38191 0 -31.8248
119.863 1.63137 0 -36.7554
113.825 1.63167 0 -36.6194
190.95 1.05139 0 -24.7882
201.015 1.05427 0 -25.0145
116.844 1.63154 0 -36.6874
152.347 1.38011 0 -31.5533
195.982 1.05285 0 -24.9015
160.398 1.38135 0 -31.7344
156.373 1.38075 0 -31.6439
113.825 1.63167 0 -36.6194
107.787 1.63193 0 -36.4829
180.884 1.04839 0 -24.5612
190.95 1.05139 0 -24.7882
110.806 1.6318 0 -36.5512
144.295 1.37879 0 -31.3716
185.917 1.0499 0 -24.6748
152.347 1.38011 0 -31.5533
148.321 1.37945 0 -31.4625
107.787 1.63193 0 -36.4829
101.749 1.63235 0 -36.3459
170.819 1.04538 0 -24.3335
180.884 1.04839 0 -24.5612
104.768 1.6321 0 -36.4145
136.244 1.37752 0 -31.1892
175.852 1.04688 0 -24.4475
144.295 1.37879 0 -31.3716
140.27 1.37813 0 -31.2805
101.749 1.63235 0 -36.3459
95.7115 1.63345 0 -36.2081
160.754 1.04253 0 -24.1049
170.819 1.04538 0 -24.3335
98.7302 1.63276 0 -36.2771
128.194 1.37671 0 -31.0058
165.787 1.04392 0 -24.2194
136.244 1.37752 0 -31.1892
132.219 1.37703 0 -31.0976
95.7115 1.63345 0 -36.2081
89.6735 1.6362 0 -36.0694
150.691 1.0403 0 -23.8749
160.754 1.04253 0 -24.1049
92.6926 1.63452 0 -36.1389
120.143 1.37712 0 -30.8211
155.722 1.04129 0 -23.9902
128.194 1.37671 0 -31.0058
124.168 1.37667 0 -30.9137
89.6735 1.6362 0 -36.0694
83.6343 1.6428 0 -35.9291
140.628 1.03955 0 -23.6423
150.691 1.0403 0 -23.8749
86.6541 1.6388 0 -35.9995
112.093 1.38048 0 -30.6336
145.659 1.03967 0 -23.759
120.143 1.37712 0 -30.8211
116.118 1.37829 0 -30.7278
83.6343 1.6428 0 -35.9291
77.5905 1.6569 0 -35.7866
130.569 1.04224 0 -23.4045
140.628 1.03955 0 -23.6423
80.6134 1.64856 0 -35.8582
104.042 1.38983 0 -30.4413
135.598 1.04027 0 -23.5243
112.093 1.38048 0 -30.6336
108.067 1.38403 0 -30.5384
77.5905 1.6569 0 -35.7866
71.5377 1.6863 0 -35.6403
120.512 1.05139 0 -23.1569
130.569 1.04224 0 -23.4045
74.5653 1.66897 0 -35.7141
95.9868 1.41158 0 -30.2399
125.54 1.04572 0 -23.2823
104.042 1.38983 0 -30.4413
100.015 1.39874 0 -30.342
71.5377 1.6863 0 -35.6403
65.4605 1.74205 0 -35.4889
110.464 1.07416 0 -22.8891
120.512 1.05139 0 -23.1569
68.5038 1.70982 0 -35.5653
87.9222 1.45546 0 -30.0217
115.486 1.06049 0 -23.0266
95.9868 1.41158 0 -30.2399
91.9561 1.42943 0 -30.1338
65.4605 1.74205 0 -35.4889
59.3426 1.84727 0 -35.3288
100.419 1.11864 0 -22.5866
110.464 1.07416 0 -22.8891
62.4069 1.78664 0 -35.4104
79.834 1.54133 0 -29.7737
105.442 1.09273 0 -22.7434
87.9222 1.45546 0 -30.0217
83.8825 1.49236 0 -29.9019
59.3426 1.84727 0 -35.3288
53.1279 2.02558 0 -35.1607
90.3921 1.20776 0 -22.2152
100.419 1.11864 0 -22.5866
56.2537 1.92495 0 -35.2453
71.697 1.69239 0 -29.4759
95.4002 1.15646 0 -22.4128
79.834 1.54133 0 -29.7737
75.7727 1.60464 0 -29.634
53.1279 2.02558 0 -35.1607
46.7714 2.32815 0 -34.9797
80.3478 1.35229 0 -21.7397
90.3921 1.20776 0 -22.2152
49.9672 2.15878 0 -35.0727
63.456 1.9571 0 -29.1
85.3786 1.27007 0 -21.993
71.697 1.69239 0 -29.4759
67.5962 1.81136 0 -29.2971
46.7714 2.32815 0 -34.9797
40.1056 2.76053 0 -34.8113
70.3251 1.61773 0 -21.0726
80.3478 1.35229 0 -21.7397
43.4973 2.52659 0 -34.8902
55.029 2.35832 0 -28.6145
75.3242 1.47079 0 -21.4384
63.456 1.9571 0 -29.1
59.267 2.13003 0 -28.8789
40.1056 2.76053 0 -34.8113
33.0684 3.36322 0 -34.6722
60.1207 1.95575 0 -20.177
70.3251 1.61773 0 -21.0726
36.6246 3.04846 0 -34.7377
46.2244 2.96004 0 -28.013
65.2758 1.76785 0 -20.6546
55.029 2.35832 0 -28.6145
50.7016 2.65201 0 -28.315
33.0684 3.36322 0 -34.6722
25.299 3.84714 0 -34.7231
49.8023 2.5231 0 -18.9206
60.1207 1.95575 0 -20.177
29.3267 3.63985 0 -34.6551
36.8463 3.58903 0 -27.3634
54.9485 2.23766 0 -19.6041
46.2244 2.96004 0 -28.013
41.5968 3.25324 0 -27.7091
25.299 3.84714 0 -34.7231
17.0657 3.83705 0 -35.0939
38.4301 2.75303 0 -17.5691
49.8023 2.5231 0 -18.9206
21.1739 3.99033 0 -34.8599
26.3363 3.96826 0 -27.0075
44.3705 2.6537 0 -18.2304
36.8463 3.58903 0 -27.3634
31.8365 3.93558 0 -27.0632
17.0657 3.83705 0 -35.0939
8.27004 1.32034 0 -36.214
26.0525 2.67644 0 -16.5753
38.4301 2.75303 0 -17.5691
12.8108 3.03859 0 -35.5241
14.7038 2.23374 0 -27.7413
32.3028 2.9819 0 -16.9523
26.3363 3.96826 0 -27.0075
20.5449 3.4429 0 -27.2516
8.27004 1.32034 0 -36.214
1.63006 -6.51514 0 -37.2301
9.95146 -2.31958 0 -19.0372
26.0525 2.67644 0 -16.5753
4.33827 -1.49775 0 -36.8571
1.97913 -5.76423 0 -31.1266
18.8056 0.92624 0 -17.0843
14.7038 2.23374 0 -27.7413
8.70463 -0.175474 0 -28.8028
1.63006 -6.51514 0 -37.2301
-2.04978 -26.3191 0 -34.6276
-3.48797 -22.4155 0 -29.2916
9.95146 -2.31958 0 -19.0372
-0.48899 -14.995 0 -36.8648
-2.60606 -30.2645 0 -34.4097
2.31993 -7.55255 0 -22.5776
1.97913 -5.76423 0 -31.1266
-2.80328 -15.7381 0 -33.6584
-2.04978 -26.3191 0 -34.6276
-1.86425 -49.7801 0 -19.1412
0.505375 -99.7254 0 -31.6661
-3.48797 -22.4155 0 -29.2916
-2.76147 -38.9813 0 -29.0068
3.22513 -71.5891 0 -18.7538
-5.7228 -53.9647 0 -35.2224
-2.60606 -30.2645 0 -34.4097
-0.124715 -50.0664 0 -30.4193
1858.68 556.677 0 -75.4045
1968.22 212.332 0 -110.125
2643.3 -49.284 0 35.6514
4096.23 1226.78 0 -977.689
1931.08 400.373 0 -127.366
2456.35 150.954 0 -142.903
2940.32 -56.0851 0 -139.404
2186.02 654.651 0 -236.968
2425 330.84 0 -222.891
1968.22 212.332 0 -110.125
1998.07 62.8836 0 -53.4202
2617.16 -28.3019 0 10.0248
2643.3 -49.284 0 35.6514
1996.24 109.069 0 -79.9745
2364.08 21.817 0 -25.4532
2620.92 8.88704 0 14.9028
2456.35 150.954 0 -142.903
2393.88 54.2604 0 -58.9169
1998.07 62.8836 0 -53.4202
1973.07 10.7923 0 -21.0883
2665.18 9.10192 0 3.37764
2617.16 -28.3019 0 10.0248
1983.07 30.6554 0 -32.1538
2332.78 0.178715 0 -4.4221
2644.87 -18.2342 0 9.9677
2364.08 21.817 0 -25.4532
2347.03 7.91846 0 -13.346
1973.07 10.7923 0 -21.0883
1955.79 -0.616792 0 -14.1153
2676.75 -2.67703 0 -3.2059
2665.18 9.10192 0 3.37764
1965.42 2.52536 0 -16.3455
2318.21 -2.80292 0 -1.7023
2671.65 8.41857 0 -3.35384
2332.78 0.178715 0 -4.4221
2322.73 -2.84556 0 -0.58473
1955.79 -0.616792 0 -14.1153
1938.47 -4.87378 0 -14.1352
2686.24 3.03765 0 -2.76833
2676.75 -2.67703 0 -3.2059
1945.73 -3.36555 0 -13.3978
2311.42 -2.61297 0 -5.29619
2683.58 -1.87209 0 -1.85148
2318.21 -2.80292 0 -1.7023
2315.48 -2.45769 0 -3.94863
1938.47 -4.87378 0 -14.1352
1926.48 -4.18852 0 -16.9825
2682.27 -0.431808 0 -4.16775
2686.24 3.03765 0 -2.76833
1932.66 -4.75263 0 -15.6192
2303.15 -2.06849 0 -8.67311
2684.51 2.21462 0 -4.13827
2311.42 -2.61297 0 -5.29619
2307.04 -2.52316 0 -6.81886
1926.48 -4.18852 0 -16.9825
1914.92 -3.45555 0 -19.4565
2676.08 0.652647 0 -4.36058
2682.27 -0.431808 0 -4.16775
1920.34 -3.8466 0 -18.2201
2294.4 -1.4354 0 -11.452
2679.96 -0.343336 0 -3.96634
2303.15 -2.06849 0 -8.67311
2299.12 -1.65256 0 -10.2805
1914.92 -3.45555 0 -19.4565
1904.64 -2.44018 0 -21.556
2665.27 -0.123605 0 -5.08997
2676.08 0.652647 0 -4.36058
1909.84 -2.9172 0 -20.6172
2284.18 -1.06851 0 -13.4199
2670.82 0.444692 0 -4.88328
2294.4 -1.4354 0 -11.452
2289.31 -1.26796 0 -12.4873
1904.64 -2.44018 0 -21.556
1894.37 -1.8066 0 -22.9935
2653.34 0.0819076 0 -5.55532
2665.27 -0.123605 0 -5.08997
1899.43 -2.09592 0 -22.3254
2273.32 -0.782476 0 -14.7868
2659.53 -0.118005 0 -5.25021
2284.18 -1.06851 0 -13.4199
2278.88 -0.893557 0 -14.1815
1894.37 -1.8066 0 -22.9935
1884.34 -1.34249 0 -24.0485
2640.08 -0.0738869 0 -6.13861
2653.34 0.0819076 0 -5.55532
1889.38 -1.54586 0 -23.5726
2261.84 -0.635346 0 -15.7758
2646.77 0.0399632 0 -5.88426
2273.32 -0.782476 0 -14.7868
2267.61 -0.706752 0 -15.3146
1884.34 -1.34249 0 -24.0485
1874.28 -1.0755 0 -24.7972
2626.44 -0.0347576 0 -6.66501
2640.08 -0.0738869 0 -6.13861
1879.3 -1.19335 0 -24.4478
2250.1 -0.533348 0 -16.5148
2633.32 -0.074878 0 -6.38546
2261.84 -0.635346 0 -15.7758
2256.01 -0.574615 0 -16.1703
1874.28 -1.0755 0 -24.7972
1864.23 -0.907867 0 -25.3827
2612.48 -0.0601172 0 -7.20853
2626.44 -0.0347576 0 -6.66501
1869.26 -0.97989 0 -25.108
2238.16 -0.480001 0 -17.1204
2619.48 -0.0402938 0 -6.94576
2250.1 -0.533348 0 -16.5148
2244.14 -0.505031 0 -16.83
1864.23 -0.907867 0 -25.3827
1854.16 -0.811924 0 -25.8612
2598.42 -0.0502274 0 -7.73585
2612.48 -0.0601172 0 -7.20853
1859.2 -0.854145 0 -25.6308
2226.13 -0.443233 0 -17.6432
2605.46 -0.0593994 0 -7.46939
2238.16 -0.480001 0 -17.1204
2232.16 -0.458862 0 -17.3893
1854.16 -0.811924 0 -25.8612
1844.09 -0.751485 0 -26.2844
2584.3 -0.0505337 0 -8.25876
2598.42 -0.0502274 0 -7.73585
1849.13 -0.778017 0 -26.0784
2214.05 -0.420287 0 -18.1234
2591.37 -0.0489878 0 -8
2226.13 -0.443233 0 -17.6432
2220.1 -0.431247 0 -17.8873
1844.09 -0.751485 0 -26.2844
1834.01 -0.712206 0 -26.6735
2570.16 -0.0453049 0 -8.77197
2584.3 -0.0505337 0 -8.25876
1839.05 -0.730186 0 -26.4819
2201.95 -0.402053 0 -18.5768
2577.24 -0.0487384 0 -8.51569
2214.05 -0.420287 0 -18.1234
2208.01 -0.410482 0 -18.3526
1834.01 -0.712206 0 -26.6735
1823.93 -0.682782 0 -27.0439
2556.02 -0.0413282 0 -9.27673
2570.16 -0.0453049 0 -8.77197
1828.97 -0.696554 0 -26.8606
2189.84 -0.387004 0 -19.0147
2563.09 -0.0430639 0 -9.02576
2201.95 -0.402053 0 -18.5768
2195.9 -0.394433 0 -18.7974
1823.93 -0.682782 0 -27.0439
1813.84 -0.658497 0 -27.4015
2541.87 -0.0366537 0 -9.77249
2556.02 -0.0413282 0 -9.27673
1818.88 -0.670258 0 -27.2239
2177.73 -0.372941 0 -19.441
2548.94 -0.0391397 0 -9.52559
2189.84 -0.387004 0 -19.0147
2183.79 -0.379834 0 -19.2291
1813.84 -0.658497 0 -27.4015
1803.75 -0.636364 0 -27.7502
2527.72 -0.0319601 0 -10.2592
2541.87 -0.0366537 0 -9.77249
1808.8 -0.647241 0 -27.5769
2165.61 -0.359384 0 -19.8583
2534.8 -0.0342759 0 -10.017
2177.73 -0.372941 0 -19.441
2171.67 -0.366166 0 -19.6507
1803.75 -0.636364 0 -27.7502
1793.66 -0.615194 0 -28.0914
2513.57 -0.0271584 0 -10.737
2527.72 -0.0319601 0 -10.2592
1798.7 -0.625717 0 -27.9217
2153.49 -0.345901 0 -20.2674
2520.65 -0.0295915 0 -10.4992
2165.61 -0.359384 0 -19.8583
2159.55 -0.352629 0 -20.0638
1793.66 -0.615194 0 -28.0914
1783.57 -0.594346 0 -28.4259
2499.43 -0.0222057 0 -11.2057
2513.57 -0.0271584 0 -10.737
1788.61 -0.604745 0 -28.2595
2141.38 -0.332395 0 -20.6687
2506.5 -0.0246919 0 -10.9725
2153.49 -0.345901 0 -20.2674
2147.44 -0.339163 0 -20.469
1783.57 -0.594346 0 -28.4259
1773.48 -0.573597 0 -28.7539
2485.28 -0.0171579 0 -11.6655
2499.43 -0.0222057 0 -11.2057
1778.52 -0.583969 0 -28.5907
2129.26 -0.318812 0 -21.0624
2492.36 -0.0196981 0 -11.4367
2141.38 -0.332395 0 -20.6687
2135.32 -0.325611 0 -20.8665
1773.48 -0.573597 0 -28.7539
1763.38 -0.552854 0 -29.0755
2471.14 -0.0119656 0 -12.1164
2485.28 -0.0171579 0 -11.6655
1768.43 -0.563226 0 -28.9155
2117.14 -0.305148 0 -21.4486
2478.21 -0.0145775 0 -11.8921
2129.26 -0.318812 0 -21.0624
2123.2 -0.311992 0 -21.2564
1763.38 -0.552854 0 -29.0755
1753.29 -0.532098 0 -29.3909
2457 -0.00666071 0 -12.5585
2471.14 -0.0119656 0 -12.1164
1758.34 -0.542478 0 -29.234
2105.02 -0.29141 0 -21.8272
2464.07 -0.00932789 0 -12.3385
2117.14 -0.305148 0 -21.4486
2111.08 -0.298287 0 -21.6388
1753.29 -0.532098 0 -29.3909
1743.2 -0.511331 0 -29.6999
2442.85 -0.00122773 0 -12.9917
2457 -0.00666071 0 -12.5585
1748.25 -0.521715 0 -29.5462
2092.91 -0.277606 0 -22.1983
2449.92 -0.00395944 0 -12.7762
2105.02 -0.29141 0 -21.8272
2098.97 -0.284516 0 -22.0137
1743.2 -0.511331 0 -29.6999
1733.11 -0.490563 0 -30.0028
2428.71 0.00431806 0 -13.4162
2442.85 -0.00122772 0 -12.9917
1738.16 -0.500947 0 -29.8521
2080.79 -0.263746 0 -22.5619
2435.78 0.00153125 0 -13.205
2092.91 -0.277606 0 -22.1983
2086.85 -0.270682 0 -22.381
1733.11 -0.490563 0 -30.0028
1723.02 -0.469803 0 -30.2994
2414.56 0.00997691 0 -13.832
2428.71 0.00431806 0 -13.4162
1728.06 -0.480182 0 -30.1519
2068.67 -0.249839 0 -22.9181
2421.64 0.00713384 0 -13.6252
2080.79 -0.263746 0 -22.5619
2074.73 -0.256798 0 -22.7409
1723.02 -0.469803 0 -30.2994
1712.93 -0.449059 0 -30.5899
2400.42 0.0157398 0 -14.2391
2414.56 0.00997691 0 -13.832
1717.97 -0.459429 0 -30.4455
2056.56 -0.235892 0 -23.2669
2407.49 0.0128457 0 -14.0367
2068.67 -0.249839 0 -22.9181
2062.62 -0.24287 0 -23.0934
1712.93 -0.449059 0 -30.5899
1702.83 -0.428337 0 -30.8743
2386.28 0.0216021 0 -14.6377
2400.42 0.0157398 0 -14.2391
1707.88 -0.438695 0 -30.7329
2044.44 -0.221911 0 -23.6083
2393.35 0.0186589 0 -14.4395
2056.56 -0.235892 0 -23.2669
2050.5 -0.228905 0 -23.4385
1702.83 -0.428337 0 -30.8743
1692.74 -0.407644 0 -31.1525
2372.13 0.0275567 0 -15.0277
2386.28 0.0216021 0 -14.6377
1697.79 -0.417987 0 -31.0142
2032.32 -0.207902 0 -23.9424
2379.21 0.0245682 0 -14.8338
2044.44 -0.221911 0 -23.6083
2038.38 -0.21491 0 -23.7763
1692.74 -0.407644 0 -31.1525
1682.65 -0.386985 0 -31.4247
2357.99 0.0335978 0 -15.4092
2372.13 0.0275567 0 -15.0277
1687.7 -0.39731 0 -31.2894
2020.21 -0.193871 0 -24.2692
2365.06 0.0305669 0 -15.2195
2032.32 -0.207902 0 -23.9424
2026.27 -0.200889 0 -24.1067
1682.65 -0.386985 0 -31.4247
1672.56 -0.366363 0 -31.6909
2343.85 0.0397191 0 -15.7823
2357.99 0.0335978 0 -15.4092
1677.6 -0.376669 0 -31.5586
2008.09 -0.179824 0 -24.5888
2350.92 0.0366488 0 -15.5968
2020.21 -0.193871 0 -24.2692
2014.15 -0.186849 0 -24.4299
1672.56 -0.366363 0 -31.6909
1662.47 -0.345785 0 -31.9511
2329.71 0.0459146 0 -16.147
2343.85 0.0397191 0 -15.7823
1667.51 -0.356068 0 -31.8217
1995.98 -0.165764 0 -24.9012
2336.78 0.042808 0 -15.9657
2008.09 -0.179824 0 -24.5888
2002.03 -0.172795 0 -24.7459
1662.47 -0.345785 0 -31.9511
1652.38 -0.325253 0 -32.2053
2315.56 0.0521783 0 -16.5033
2329.71 0.0459146 0 -16.147
1657.42 -0.335513 0 -32.0789
1983.86 -0.151699 0 -25.2065
2322.64 0.0490383 0 -16.3262
1995.98 -0.165764 0 -24.9012
1989.92 -0.158732 0 -25.0547
1652.38 -0.325253 0 -32.2053
1642.29 -0.304774 0 -32.4536
2301.42 0.0585043 0 -16.8513
2315.56 0.0521783 0 -16.5033
1647.33 -0.315007 0 -32.3302
1971.74 -0.137632 0 -25.5046
2308.49 0.0553339 0 -16.6783
1983.86 -0.151699 0 -25.2065
1977.8 -0.144665 0 -25.3564
1642.29 -0.304774 0 -32.4536
1632.19 -0.28435 0 -32.696
2287.28 0.0648867 0 -17.1911
2301.42 0.0585043 0 -16.8513
1637.24 -0.294555 0 -32.5755
1959.63 -0.123569 0 -25.7957
2294.35 0.0616888 0 -17.0222
1971.74 -0.137632 0 -25.5046
1965.69 -0.1306 0 -25.651
1632.19 -0.28435 0 -32.696
1622.1 -0.263986 0 -32.9326
2273.14 0.07132 0 -17.5227
2287.28 0.0648867 0 -17.1911
1627.15 -0.27416 0 -32.815
1947.51 -0.109515 0 -26.0797
2280.21 0.0680974 0 -17.3579
1959.63 -0.123569 0 -25.7957
1953.57 -0.116541 0 -25.9386
1622.1 -0.263986 0 -32.9326
1612.01 -0.243687 0 -33.1633
2259 0.0777986 0 -17.8462
2273.14 0.07132 0 -17.5227
1617.06 -0.253828 0 -33.0487
1935.4 -0.0954746 0 -26.3568
2266.07 0.074554 0 -17.6855
1947.51 -0.109515 0 -26.0797
1941.45 -0.102493 0 -26.2191
1612.01 -0.243687 0 -33.1633
1601.92 -0.223455 0 -33.3883
2244.86 0.0843168 0 -18.1616
2259 0.0777986 0 -17.8462
1606.97 -0.233562 0 -33.2765
1923.28 -0.0814523 0 -26.6269
2251.93 0.0810531 0 -18.0049
1935.4 -0.0954746 0 -26.3568
1929.34 -0.0884609 0 -26.4927
1601.92 -0.223455 0 -33.3883
1591.83 -0.203296 0 -33.6075
2230.71 0.0908695 0 -18.4689
2244.86 0.0843169 0 -18.1616
1596.88 -0.213366 0 -33.4986
1911.17 -0.067453 0 -26.8902
2237.79 0.0875892 0 -18.3162
1923.28 -0.0814523 0 -26.6269
1917.22 -0.0744495 0 -26.7594
1591.83 -0.203296 0 -33.6075
1581.74 -0.183212 0 -33.8211
2216.57 0.0974511 0 -18.7682
2230.71 0.0908695 0 -18.4689
1586.78 -0.193244 0 -33.715
1899.05 -0.0534812 0 -27.1466
2223.64 0.094157 0 -18.6196
1911.17 -0.067453 0 -26.8902
1905.11 -0.0604633 0 -27.0193
1581.74 -0.183212 0 -33.8211
1571.65 -0.163208 0 -34.0289
2202.43 0.104057 0 -19.0596
2216.57 0.0974511 0 -18.7682
1576.69 -0.1732 0 -33.9257
1886.94 -0.0395414 0 -27.3962
2209.5 0.100751 0 -18.9149
1899.05 -0.0534812 0 -27.1466
1892.99 -0.046507 0 -27.2723
1571.65 -0.163208 0 -34.0289
1561.56 -0.143288 0 -34.2311
2188.29 0.110681 0 -19.3432
2202.43 0.104057 0 -19.0596
1566.6 -0.153237 0 -34.1307
1874.82 -0.0256379 0 -27.6391
2195.36 0.107367 0 -19.2024
1886.94 -0.0395414 0 -27.3962
1880.88 -0.0325848 0 -27.5185
1561.56 -0.143288 0 -34.2311
1551.47 -0.123454 0 -34.4278
2174.15 0.117319 0 -19.6188
2188.29 0.110681 0 -19.3432
1556.51 -0.13336 0 -34.3302
1862.71 -0.0117751 0 -27.8752
2181.22 0.113999 0 -19.482
1874.82 -0.0256379 0 -27.6391
1868.77 -0.0187012 0 -27.758
1551.47 -0.123454 0 -34.4278
1541.38 -0.103711 0 -34.6189
2160.01 0.123966 0 -19.8867
2174.15 0.117319 0 -19.6188
1546.42 -0.113571 0 -34.524
1850.59 0.00204269 0 -28.1047
2167.08 0.120642 0 -19.7538
1862.71 -0.0117751 0 -27.8752
1856.65 -0.00486035 0 -27.9908
1541.38 -0.103711 0 -34.6189
1531.29 -0.0840618 0 -34.8044
2145.87 0.130616 0 -20.1469
2160.01 0.123966 0 -19.8867
1536.33 -0.0938745 0 -34.7123
1838.48 0.0158115 0 -28.3275
2152.94 0.127291 0 -20.0178
1850.59 0.00204269 0 -28.1047
1844.54 0.00893347 0 -28.2169
1531.29 -0.0840618 0 -34.8044
1521.2 -0.0645101 0 -34.9845
2131.73 0.137266 0 -20.3994
2145.87 0.130616 0 -20.1469
1526.24 -0.0742736 0 -34.8951
1826.37 0.0295271 0 -28.5437
2138.8 0.133942 0 -20.2741
1838.48 0.0158115 0 -28.3275
1832.42 0.0226762 0 -28.4364
1521.2 -0.0645101 0 -34.9845
1511.11 -0.045059 0 -35.1591
2117.59 0.143911 0 -20.6442
2131.73 0.137266 0 -20.3994
1516.15 -0.0547717 0 -35.0725
1814.25 0.0431856 0 -28.7534
2124.66 0.14059 0 -20.5228
1826.37 0.0295271 0 -28.5437
1820.31 0.0363637 0 -28.6494
1511.11 -0.045059 0 -35.1591
1501.02 -0.0257119 0 -35.3283
2103.46 0.150546 0 -20.8815
2117.59 0.143911 0 -20.6442
1506.06 -0.0353723 0 -35.2444
1802.14 0.0567831 0 -28.9567
2110.52 0.14723 0 -20.7638
1814.25 0.0431856 0 -28.7534
1808.19 0.0499922 0 -28.8559
1501.02 -0.0257119 0 -35.3283
1490.93 -0.00647203 0 -35.4921
2089.32 0.157166 0 -21.1112
2103.46 0.150546 0 -20.8815
1495.97 -0.0160783 0 -35.4109
1790.02 0.0703156 0 -29.1534
2096.39 0.153858 0 -20.9973
1802.14 0.0567831 0 -28.9567
1796.08 0.0635578 0 -29.0558
1490.93 -0.00647203 0 -35.4921
1480.84 0.0126576 0 -35.6506
2075.18 0.163767 0 -21.3335
2089.32 0.157166 0 -21.1112
1485.88 0.00310669 0 -35.572
1777.91 0.0837796 0 -29.3437
2082.25 0.160469 0 -21.2233
1790.02 0.0703156 0 -29.1534
1783.97 0.0770564 0 -29.2494
1480.84 0.0126576 0 -35.6506
1470.75 0.0316739 0 -35.8037
2061.04 0.170346 0 -21.5483
2075.18 0.163767 0 -21.3335
1475.79 0.0221801 0 -35.7278
1765.8 0.0971714 0 -29.5277
2068.11 0.16706 0 -21.4418
1777.91 0.0837796 0 -29.3437
1771.86 0.0904848 0 -29.4365
1470.75 0.0316739 0 -35.8037
1460.66 0.0505736 0 -35.9516
2046.9 0.176897 0 -21.7558
2061.04 0.170346 0 -21.5483
1465.7 0.0411385 0 -35.8784
1753.69 0.110487 0 -29.7054
2053.97 0.173625 0 -21.653
1765.8 0.0971714 0 -29.5277
1759.74 0.103839 0 -29.6173
1460.66 0.0505736 0 -35.9516
1450.57 0.0693541 0 -36.0943
2032.77 0.183417 0 -21.9559
2046.9 0.176897 0 -21.7558
1455.61 0.059979 0 -36.0236
1741.57 0.123724 0 -29.8767
2039.83 0.180161 0 -21.8567
1753.69 0.110487 0 -29.7054
1747.63 0.117115 0 -29.7918
1450.57 0.0693541 0 -36.0943
1440.48 0.0880123 0 -36.2318
2018.63 0.189901 0 -22.1487
2032.77 0.183417 0 -21.9559
1445.53 0.0786987 0 -36.1637
1729.46 0.136877 0 -30.0419
2025.7 0.186664 0 -22.0532
1741.57 0.123724 0 -29.8767
1735.52 0.130311 0 -29.9601
1440.48 0.0880123 0 -36.2318
1430.39 0.106546 0 -36.3641
2004.49 0.196346 0 -22.3343
2018.63 0.189901 0 -22.1487
1435.44 0.0972948 0 -36.2986
1717.35 0.149944 0 -30.2008
2011.56 0.193129 0 -22.2424
1729.46 0.136877 0 -30.0419
1723.4 0.143422 0 -30.1221
1430.39 0.106546 0 -36.3641
1420.3 0.124951 0 -36.4913
1990.35 0.202748 0 -22.5128
2004.49 0.196346 0 -22.3343
1425.35 0.115764 0 -36.4283
1705.24 0.162922 0 -30.3536
1997.42 0.199553 0 -22.4244
1717.35 0.149944 0 -30.2008
1711.29 0.156445 0 -30.278
1420.3 0.124951 0 -36.4913
1410.22 0.143226 0 -36.6134
1976.22 0.209103 0 -22.6841
1990.35 0.202748 0 -22.5128
1415.26 0.134105 0 -36.553
1693.13 0.175807 0 -30.5003
1983.29 0.205932 0 -22.5993
1705.24 0.162922 0 -30.3536
1699.18 0.169376 0 -30.4277
1410.22 0.143226 0 -36.6134
1400.13 0.161368 0 -36.7304
1962.08 0.215408 0 -22.8483
1976.22 0.209103 0 -22.6841
1405.17 0.152313 0 -36.6725
1681.01 0.188596 0 -30.6409
1969.15 0.212262 0 -22.7671
1693.13 0.175807 0 -30.5003
1687.07 0.182214 0 -30.5713
1400.13 0.161368 0 -36.7304
1390.04 0.179374 0 -36.8425
1947.95 0.221658 0 -23.0055
1962.08 0.215408 0 -22.8483
1395.08 0.170388 0 -36.7871
1668.9 0.201286 0 -30.7755
1955.01 0.21854 0 -22.9278
1681.01 0.188596 0 -30.6409
1674.96 0.194954 0 -30.7089
1390.04 0.179374 0 -36.8425
1379.95 0.197241 0 -36.9495
1933.81 0.227851 0 -23.1558
1947.95 0.221658 0 -23.0055
1384.99 0.188325 0 -36.8966
1656.79 0.213874 0 -30.9041
1940.88 0.224762 0 -23.0815
1668.9 0.201286 0 -30.7755
1662.85 0.207593 0 -30.8405
1379.95 0.197241 0 -36.9495
1369.86 0.214968 0 -37.0516
1919.68 0.233983 0 -23.2991
1933.81 0.227851 0 -23.1558
1374.91 0.206123 0 -37.0012
1644.68 0.226357 0 -31.0268
1926.74 0.230925 0 -23.2283
1656.79 0.213874 0 -30.9041
1650.74 0.220129 0 -30.9662
1369.86 0.214968 0 -37.0516
1359.77 0.232552 0 -37.1488
1905.54 0.24005 0 -23.4355
1919.68 0.233983 0 -23.2991
1364.82 0.223778 0 -37.1008
1632.57 0.238733 0 -31.1436
1912.61 0.237025 0 -23.3682
1644.68 0.226357 0 -31.0268
1638.63 0.232559 0 -31.0859
1359.77 0.232552 0 -37.1488
1349.69 0.249991 0 -37.2412
1891.41 0.24605 0 -23.5652
1905.54 0.24005 0 -23.4355
1354.73 0.24129 0 -37.1956
1620.46 0.250997 0 -31.2546
1898.47 0.243059 0 -23.5012
1632.57 0.238733 0 -31.1436
1626.52 0.244879 0 -31.1998
1349.69 0.249991 0 -37.2412
1339.6 0.267282 0 -37.3286
1877.27 0.251979 0 -23.688
1891.41 0.24605 0 -23.5652
1344.64 0.258655 0 -37.2855
1608.35 0.263149 0 -31.3597
1884.34 0.249024 0 -23.6274
1620.46 0.250997 0 -31.2546
1614.41 0.257087 0 -31.3079
1339.6 0.267282 0 -37.3286
1329.51 0.284423 0 -37.4113
1863.14 0.257834 0 -23.8042
1877.27 0.251979 0 -23.688
1334.56 0.275871 0 -37.3706
1596.24 0.275184 0 -31.4591
1870.21 0.254916 0 -23.7469
1608.35 0.263149 0 -31.3597
1602.3 0.269181 0 -31.4101
1329.51 0.284423 0 -37.4113
1319.43 0.301412 0 -37.4893
1849.01 0.263612 0 -23.9136
1863.14 0.257834 0 -23.8042
1324.47 0.292936 0 -37.4509
1584.13 0.287101 0 -31.5528
1856.07 0.260733 0 -23.8597
1596.24 0.275184 0 -31.4591
1590.19 0.281158 0 -31.5067
1319.43 0.301412 0 -37.4893
1309.34 0.318246 0 -37.5625
1834.87 0.269311 0 -24.0165
1849.01 0.263612 0 -23.9136
1314.38 0.309848 0 -37.5265
1572.02 0.298897 0 -31.6408
1841.94 0.266472 0 -23.9659
1584.13 0.287101 0 -31.5528
1578.08 0.293014 0 -31.5975
1309.34 0.318246 0 -37.5625
1299.25 0.334925 0 -37.631
1820.74 0.274926 0 -24.1128
1834.87 0.269311 0 -24.0165
1304.3 0.326605 0 -37.5973
1559.91 0.310569 0 -31.7232
1827.81 0.272129 0 -24.0654
1572.02 0.298897 0 -31.6408
1565.97 0.304749 0 -31.6827
1299.25 0.334925 0 -37.631
1289.17 0.351445 0 -37.6949
1806.61 0.280457 0 -24.2025
1820.74 0.274926 0 -24.1128
1294.21 0.343205 0 -37.6635
1547.8 0.322116 0 -31.8
1813.67 0.277702 0 -24.1585
1559.91 0.310569 0 -31.7232
1553.86 0.316358 0 -31.7623
1289.17 0.351445 0 -37.6949
1279.08 0.367805 0 -37.7541
1792.48 0.285899 0 -24.2858
1806.61 0.280457 0 -24.2025
1284.12 0.359645 0 -37.7251
1535.7 0.333534 0 -31.8712
1799.54 0.283189 0 -24.245
1547.8 0.322116 0 -31.8
1541.75 0.327841 0 -31.8363
1279.08 0.367805 0 -37.7541
1268.99 0.384003 0 -37.8088
1778.34 0.29125 0 -24.3627
1792.48 0.285899 0 -24.2858
1274.04 0.375925 0 -37.782
1523.59 0.344822 0 -31.937
1785.41 0.288586 0 -24.3251
1535.7 0.333534 0 -31.8712
1529.64 0.339194 0 -31.9048
1268.99 0.384003 0 -37.8088
1258.91 0.400037 0 -37.8589
1764.21 0.296509 0 -24.4332
1778.34 0.29125 0 -24.3627
1263.95 0.392041 0 -37.8344
1511.48 0.355977 0 -31.9973
1771.28 0.293891 0 -24.3988
1523.59 0.344822 0 -31.937
1517.53 0.350416 0 -31.9678
1258.91 0.400037 0 -37.8589
1248.82 0.415906 0 -37.9045
1750.08 0.301671 0 -24.4974
1764.21 0.296509 0 -24.4332
1253.86 0.407992 0 -37.8823
1499.37 0.366997 0 -32.0522
1757.15 0.299102 0 -24.4661
1511.48 0.355977 0 -31.9973
1505.43 0.361504 0 -32.0254
1248.82 0.415906 0 -37.9045
1238.74 0.431607 0 -37.9457
1735.95 0.306736 0 -24.5554
1750.08 0.301671 0 -24.4974
1243.78 0.423778 0 -37.9257
1487.26 0.377881 0 -32.1017
1743.02 0.304216 0 -24.5272
1499.37 0.366997 0 -32.0522
1493.32 0.372456 0 -32.0776
1238.74 0.431607 0 -37.9457
1228.65 0.447139 0 -37.9824
1721.82 0.3117 0 -24.6071
1735.95 0.306736 0 -24.5554
1233.69 0.439394 0 -37.9646
1475.16 0.388626 0 -32.1459
1728.89 0.30923 0 -24.582
1487.26 0.377881 0 -32.1017
1481.21 0.383271 0 -32.1245
1228.65 0.447139 0 -37.9824
1218.57 0.462501 0 -38.0147
1707.69 0.316561 0 -24.6527
1721.82 0.3117 0 -24.6071
1223.61 0.454841 0 -37.9991
1463.05 0.39923 0 -32.1848
1714.76 0.314143 0 -24.6307
1475.16 0.388626 0 -32.1459
1469.1 0.393946 0 -32.166
1218.57 0.462501 0 -38.0147
1208.48 0.47769 0 -38.0427
1693.56 0.321318 0 -24.6922
1707.69 0.316561 0 -24.6527
1213.52 0.470117 0 -38.0292
1450.94 0.409692 0 -32.2185
1700.63 0.318953 0 -24.6732
1463.05 0.39923 0 -32.1848
1457 0.404479 0 -32.2023
1208.48 0.47769 0 -38.0427
1198.4 0.492706 0 -38.0663
1679.43 0.325967 0 -24.7256
1693.56 0.321318 0 -24.6922
1203.44 0.48522 0 -38.055
1438.84 0.420009 0 -32.247
1686.5 0.323656 0 -24.7096
1450.94 0.409692 0 -32.2185
1444.89 0.414868 0 -32.2334
1198.4 0.492706 0 -38.0663
1188.31 0.507546 0 -38.0856
1665.3 0.330508 0 -24.753
1679.43 0.325967 0 -24.7256
1193.35 0.500148 0 -38.0765
1426.73 0.43018 0 -32.2704
1672.37 0.328252 0 -24.74
1438.84 0.420009 0 -32.247
1432.78 0.425113 0 -32.2593
1188.31 0.507546 0 -38.0856
1178.23 0.52221 0 -38.1007
1651.17 0.334938 0 -24.7744
1665.3 0.330508 0 -24.753
1183.27 0.514901 0 -38.0937
1414.62 0.440204 0 -32.2886
1658.24 0.332737 0 -24.7644
1426.73 0.43018 0 -32.2704
1420.68 0.43521 0 -32.2801
1178.23 0.52221 0 -38.1007
1168.14 0.536697 0 -38.1115
1637.05 0.339256 0 -24.7899
1651.17 0.334938 0 -24.7744
1173.18 0.529476 0 -38.1066
1402.52 0.450078 0 -32.3018
1644.11 0.337111 0 -24.7829
1414.62 0.440204 0 -32.2886
1408.57 0.445159 0 -32.2958
1168.14 0.536697 0 -38.1115
1158.06 0.551004 0 -38.1182
1622.92 0.343459 0 -24.7996
1637.05 0.339256 0 -24.7899
1163.1 0.543873 0 -38.1154
1390.41 0.459801 0 -32.3099
1629.98 0.341372 0 -24.7955
1402.52 0.450078 0 -32.3018
1396.47 0.454958 0 -32.3065
1158.06 0.551004 0 -38.1182
1147.97 0.56513 0 -38.1207
1608.79 0.347545 0 -24.8035
1622.92 0.343459 0 -24.7996
1153.02 0.558089 0 -38.12
1378.31 0.469372 0 -32.3131
1615.86 0.345516 0 -24.8023
1390.41 0.459801 0 -32.3099
1384.36 0.464605 0 -32.3121
1147.97 0.56513 0 -38.1207
1137.89 0.579075 0 -38.1192
1594.66 0.351514 0 -24.8016
1608.79 0.347545 0 -24.8035
1142.93 0.572125 0 -38.1205
1366.2 0.478789 0 -32.3113
1601.73 0.349544 0 -24.8032
1378.31 0.469372 0 -32.3131
1372.26 0.4741 0 -32.3128
1137.89 0.579075 0 -38.1192
1127.81 0.592837 0 -38.1135
1580.54 0.355363 0 -24.794
1594.66 0.351514 0 -24.8016
1132.85 0.585979 0 -38.1168
1354.1 0.488051 0 -32.3047
1587.6 0.353454 0 -24.7985
1366.2 0.478789 0 -32.3113
1360.15 0.483439 0 -32.3086
1127.81 0.592837 0 -38.1135
1117.72 0.606416 0 -38.1038
1566.41 0.359092 0 -24.7807
1580.54 0.355363 0 -24.794
1122.77 0.599649 0 -38.1092
1342 0.497156 0 -32.2932
1573.47 0.357243 0 -24.7881
1354.1 0.488051 0 -32.3047
1348.05 0.492623 0 -32.2996
1117.72 0.606416 0 -38.1038
1107.64 0.619809 0 -38.0901
1552.29 0.362698 0 -24.7619
1566.41 0.359092 0 -24.7807
1112.68 0.613135 0 -38.0975
1329.89 0.506104 0 -32.2769
1559.35 0.36091 0 -24.772
1342 0.497156 0 -32.2932
1335.94 0.50165 0 -32.2857
1107.64 0.619809 0 -38.0901
1097.56 0.633016 0 -38.0725
1538.16 0.36618 0 -24.7375
1552.29 0.362698 0 -24.7619
1102.6 0.626436 0 -38.0818
1317.79 0.514892 0 -32.2559
1545.22 0.364454 0 -24.7504
1329.89 0.506104 0 -32.2769
1323.84 0.510518 0 -32.267
1097.56 0.633016 0 -38.0725
1087.48 0.646037 0 -38.0509
1524.04 0.369537 0 -24.7076
1538.16 0.36618 0 -24.7375
1092.52 0.63955 0 -38.0621
1305.69 0.523521 0 -32.2301
1531.1 0.367874 0 -24.7232
1317.79 0.514892 0 -32.2559
1311.74 0.519227 0 -32.2436
1087.48 0.646037 0 -38.0509
1077.39 0.65887 0 -38.0254
1509.91 0.372767 0 -24.6722
1524.04 0.369537 0 -24.7076
1082.44 0.652477 0 -38.0386
1293.58 0.531988 0 -32.1997
1516.97 0.371168 0 -24.6906
1305.69 0.523521 0 -32.2301
1299.63 0.527775 0 -32.2155
1077.39 0.65887 0 -38.0254
1067.31 0.671514 0 -37.996
1495.79 0.37587 0 -24.6315
1509.91 0.372767 0 -24.6722
1072.35 0.665216 0 -38.0112
1281.48 0.540294 0 -32.1646
1502.85 0.374335 0 -24.6525
1293.58 0.531988 0 -32.1997
1287.53 0.536161 0 -32.1827
1067.31 0.671514 0 -37.996
1057.23 0.683969 0 -37.9629
1481.66 0.378845 0 -24.5854
1495.79 0.37587 0 -24.6315
1062.27 0.677765 0 -37.9799
1269.38 0.548436 0 -32.125
1488.72 0.377374 0 -24.6091
1281.48 0.540294 0 -32.1646
1275.43 0.544385 0 -32.1454
1057.23 0.683969 0 -37.9629
1047.15 0.696233 0 -37.926
1467.54 0.381689 0 -24.534
1481.66 0.378845 0 -24.5854
1052.19 0.690125 0 -37.9449
1257.28 0.556414 0 -32.0808
1474.6 0.380283 0 -24.5603
1269.38 0.548436 0 -32.125
1263.33 0.552446 0 -32.1034
1047.15 0.696233 0 -37.926
1037.07 0.708307 0 -37.8853
1453.42 0.384403 0 -24.4773
1467.54 0.381689 0 -24.534
1042.11 0.702294 0 -37.9061
1245.17 0.564227 0 -32.0321
1460.48 0.383063 0 -24.5063
1257.28 0.556414 0 -32.0808
1251.22 0.560341 0 -32.057
1037.07 0.708307 0 -37.8853
1026.99 0.720189 0 -37.8409
1439.29 0.386985 0 -24.4155
1453.42 0.384403 0 -24.4773
1032.03 0.714272 0 -37.8635
1233.07 0.571875 0 -31.9789
1446.35 0.385711 0 -24.447
1245.17 0.564227 0 -32.0321
1239.12 0.568072 0 -32.0061
1026.99 0.720189 0 -37.8409
1016.9 0.731879 0 -37.7928
1425.17 0.389435 0 -24.3485
1439.29 0.386985 0 -24.4155
1021.95 0.726058 0 -37.8173
1220.97 0.579356 0 -31.9214
1432.23 0.388227 0 -24.3826
1233.07 0.571875 0 -31.9789
1227.02 0.575636 0 -31.9507
1016.9 0.731879 0 -37.7928
1006.82 0.743376 0 -37.7411
1411.05 0.391751 0 -24.2764
1425.17 0.389435 0 -24.3485
1011.86 0.737651 0 -37.7674
1208.87 0.58667 0 -31.8595
1418.11 0.39061 0 -24.3131
1220.97 0.579356 0 -31.9214
1214.92 0.583034 0 -31.891
1006.82 0.743376 0 -37.7411
996.743 0.754679 0 -37.6858
1396.93 0.393934 0 -24.1992
1411.05 0.391751 0 -24.2764
1001.78 0.749052 0 -37.7139
1196.77 0.593816 0 -31.7932
1403.99 0.392859 0 -24.2384
1208.87 0.58667 0 -31.8595
1202.82 0.590264 0 -31.8269
996.743 0.754679 0 -37.6858
986.663 0.765789 0 -37.6269
1382.81 0.395981 0 -24.1171
1396.93 0.393934 0 -24.1992
991.703 0.760258 0 -37.6568
1184.67 0.600794 0 -31.7227
1389.87 0.394974 0 -24.1588
1196.77 0.593816 0 -31.7932
1190.72 0.597326 0 -31.7585
986.663 0.765789 0 -37.6269
976.583 0.776704 0 -37.5645
1368.68 0.397893 0 -24.03
1382.81 0.395981 0 -24.1171
981.623 0.771271 0 -37.5961
1172.57 0.607603 0 -31.6479
1375.75 0.396954 0 -24.0742
1184.67 0.600794 0 -31.7227
1178.62 0.60422 0 -31.6858
976.583 0.776704 0 -37.5645
966.503 0.787425 0 -37.4986
1354.56 0.399669 0 -23.938
1368.68 0.397893 0 -24.03
971.542 0.782089 0 -37.5319
1160.47 0.614242 0 -31.569
1361.62 0.398798 0 -23.9846
1172.57 0.607603 0 -31.6479
1166.52 0.610944 0 -31.609
966.503 0.787425 0 -37.4986
956.423 0.79795 0 -37.4292
1340.44 0.401309 0 -23.8412
1354.56 0.399669 0 -23.938
961.463 0.792712 0 -37.4643
1148.37 0.620712 0 -31.4859
1347.5 0.400506 0 -23.8902
1160.47 0.614242 0 -31.569
1154.42 0.617498 0 -31.5279
956.423 0.79795 0 -37.4292
946.343 0.808281 0 -37.3564
1326.32 0.402812 0 -23.7396
1340.44 0.401309 0 -23.8412
951.383 0.80314 0 -37.3932
1136.27 0.627011 0 -31.3986
1333.38 0.402078 0 -23.791
1148.37 0.620712 0 -31.4859
1142.32 0.623883 0 -31.4428
946.343 0.808281 0 -37.3564
936.264 0.818415 0 -37.2802
1312.21 0.404177 0 -23.6333
1326.32 0.402812 0 -23.7396
941.304 0.813372 0 -37.3187
1124.17 0.63314 0 -31.3074
1319.26 0.403512 0 -23.687
1136.27 0.627011 0 -31.3986
1130.22 0.630097 0 -31.3535
936.264 0.818415 0 -37.2802
926.185 0.828353 0 -37.2007
1298.09 0.405405 0 -23.5222
1312.21 0.404177 0 -23.6333
931.224 0.823409 0 -37.2409
1112.07 0.639098 0 -31.2121
1305.15 0.404808 0 -23.5783
1124.17 0.63314 0 -31.3074
1118.12 0.636141 0 -31.2602
926.185 0.828353 0 -37.2007
916.106 0.838095 0 -37.1179
1283.97 0.406495 0 -23.4065
1298.09 0.405405 0 -23.5222
921.145 0.833249 0 -37.1597
1099.98 0.644885 0 -31.1128
1291.03 0.405967 0 -23.465
1112.07 0.639098 0 -31.2121
1106.02 0.642013 0 -31.1629
916.106 0.838095 0 -37.1179
906.027 0.847641 0 -37.0318
1269.85 0.407447 0 -23.2863
1283.97 0.406495 0 -23.4065
911.067 0.842893 0 -37.0752
1087.88 0.650501 0 -31.0096
1276.91 0.406988 0 -23.347
1099.98 0.644885 0 -31.1128
1093.93 0.647714 0 -31.0617
906.027 0.847641 0 -37.0318
895.949 0.856991 0 -36.9424
1255.73 0.408261 0 -23.1615
1269.85 0.407447 0 -23.2863
900.988 0.85234 0 -36.9875
1075.78 0.655945 0 -30.9025
1262.79 0.407871 0 -23.2244
1087.88 0.650501 0 -31.0096
1081.83 0.653244 0 -30.9565
895.949 0.856991 0 -36.9424
885.87 0.866143 0 -36.8498
1241.61 0.408936 0 -23.0322
1255.73 0.408261 0 -23.1615
890.91 0.861592 0 -36.8965
1063.68 0.661217 0 -30.7915
1248.67 0.408615 0 -23.0974
1075.78 0.655945 0 -30.9025
1069.73 0.658602 0 -30.8475
885.87 0.866143 0 -36.8498
875.792 0.875099 0 -36.7541
1227.5 0.409473 0 -22.8984
1241.61 0.408936 0 -23.0322
880.831 0.870646 0 -36.8024
1051.59 0.666318 0 -30.6768
1234.56 0.409221 0 -22.9658
1063.68 0.661217 0 -30.7915
1057.63 0.663789 0 -30.7346
875.792 0.875099 0 -36.7541
865.715 0.883859 0 -36.6552
1213.38 0.409871 0 -22.7603
1227.5 0.409473 0 -22.8984
870.754 0.879504 0 -36.7051
1039.49 0.671248 0 -30.5583
1220.44 0.409689 0 -22.8299
1051.59 0.666318 0 -30.6768
1045.54 0.668804 0 -30.618
865.715 0.883859 0 -36.6552
855.637 0.892422 0 -36.5533
1199.26 0.410131 0 -22.6178
1213.38 0.409871 0 -22.7603
860.676 0.888165 0 -36.6047
1027.39 0.676005 0 -30.436
1206.32 0.410018 0 -22.6896
1039.49 0.671248 0 -30.5583
1033.44 0.673648 0 -30.4976
855.637 0.892422 0 -36.5533
845.56 0.900788 0 -36.4483
1185.15 0.410252 0 -22.4711
1199.26 0.410131 0 -22.6178
850.598 0.89663 0 -36.5012
1015.3 0.680592 0 -30.3101
1192.21 0.410209 0 -22.545
1027.39 0.676005 0 -30.436
1021.34 0.67832 0 -30.3735
845.56 0.900788 0 -36.4483
835.482 0.908958 0 -36.3402
1171.03 0.410236 0 -22.3201
1185.15 0.410252 0 -22.4711
840.521 0.904898 0 -36.3946
1003.2 0.685007 0 -30.1806
1178.09 0.410261 0 -22.3961
1015.3 0.680592 0 -30.3101
1009.25 0.682821 0 -30.2458
835.482 0.908958 0 -36.3402
825.405 0.916932 0 -36.2292
1156.92 0.410081 0 -22.1649
1171.03 0.410236 0 -22.3201
830.444 0.912969 0 -36.2851
991.105 0.68925 0 -30.0475
1163.98 0.410176 0 -22.243
1003.2 0.685007 0 -30.1806
997.152 0.68715 0 -30.1145
825.405 0.916932 0 -36.2292
815.329 0.924709 0 -36.1152
1142.8 0.409789 0 -22.0056
1156.92 0.410081 0 -22.1649
820.367 0.920845 0 -36.1726
979.009 0.693323 0 -29.9108
1149.86 0.409952 0 -22.0858
991.105 0.68925 0 -30.0475
985.057 0.691308 0 -29.9796
815.329 0.924709 0 -36.1152
805.252 0.932291 0 -35.9983
1128.69 0.409359 0 -21.8422
1142.8 0.409789 0 -22.0056
810.29 0.928524 0 -36.0571
966.914 0.697225 0 -29.7707
1135.75 0.409591 0 -21.9244
979.009 0.693323 0 -29.9108
972.962 0.695296 0 -29.8412
805.252 0.932291 0 -35.9983
795.176 0.939677 0 -35.8785
1114.58 0.408793 0 -21.6748
1128.69 0.409359 0 -21.8422
800.214 0.936008 0 -35.9388
954.82 0.700957 0 -29.6271
1121.63 0.409093 0 -21.759
966.914 0.697225 0 -29.7707
960.867 0.699112 0 -29.6993
795.176 0.939677 0 -35.8785
785.1 0.946867 0 -35.7559
1100.46 0.40809 0 -21.5034
1114.58 0.408793 0 -21.6748
790.138 0.943296 0 -35.8176
942.725 0.704518 0 -29.48
1107.52 0.408458 0 -21.5896
954.82 0.700957 0 -29.6271
948.773 0.702759 0 -29.554
785.1 0.946867 0 -35.7559
775.024 0.953862 0 -35.6305
1086.35 0.40725 0 -21.3281
1100.46 0.40809 0 -21.5034
780.062 0.950389 0 -35.6935
930.631 0.70791 0 -29.3296
1093.41 0.407687 0 -21.4162
942.725 0.704518 0 -29.48
936.678 0.706236 0 -29.4053
775.024 0.953862 0 -35.6305
764.948 0.960663 0 -35.5023
1072.24 0.406275 0 -21.1489
1086.35 0.40725 0 -21.3281
769.986 0.957287 0 -35.5667
918.538 0.711133 0 -29.1759
1079.29 0.406779 0 -21.239
930.631 0.70791 0 -29.3296
924.584 0.709543 0 -29.2532
764.948 0.960663 0 -35.5023
754.873 0.967269 0 -35.3713
1058.12 0.405165 0 -20.9658
1072.24 0.406275 0 -21.1489
759.91 0.96399 0 -35.4372
906.444 0.714187 0 -29.0189
1065.18 0.405737 0 -21.0578
918.538 0.711133 0 -29.1759
912.491 0.712681 0 -29.0978
754.873 0.967269 0 -35.3713
744.797 0.973681 0 -35.2377
1044.01 0.40392 0 -20.779
1058.12 0.405165 0 -20.9658
749.835 0.970499 0 -35.3049
894.351 0.717072 0 -28.8587
1051.07 0.404559 0 -20.8729
906.444 0.714187 0 -29.0189
900.397 0.71565 0 -28.9392
744.797 0.973681 0 -35.2377
734.722 0.9799 0 -35.1014
1029.9 0.402541 0 -20.5884
1044.01 0.40392 0 -20.779
739.76 0.976815 0 -35.1699
882.258 0.71979 0 -28.6952
1036.96 0.403247 0 -20.6842
894.351 0.717072 0 -28.8587
888.304 0.718452 0 -28.7773
734.722 0.9799 0 -35.1014
724.648 0.985926 0 -34.9625
1015.79 0.401029 0 -20.3942
1029.9 0.402541 0 -20.5884
729.685 0.982937 0 -35.0323
870.165 0.72234 0 -28.5286
1022.85 0.401802 0 -20.4918
882.258 0.71979 0 -28.6952
876.212 0.721086 0 -28.6123
724.648 0.985926 0 -34.9625
714.573 0.991759 0 -34.821
1001.68 0.399385 0 -20.1963
1015.79 0.401029 0 -20.3942
719.61 0.988867 0 -34.8921
858.073 0.724724 0 -28.3589
1008.73 0.400224 0 -20.2957
870.165 0.72234 0 -28.5286
864.119 0.723553 0 -28.4441
714.573 0.991759 0 -34.821
704.498 0.9974 0 -34.6769
987.568 0.397609 0 -19.9949
1001.68 0.399385 0 -20.1963
709.536 0.994604 0 -34.7493
845.981 0.726942 0 -28.1861
994.624 0.398513 0 -20.0961
858.073 0.724724 0 -28.3589
852.027 0.725854 0 -28.2729
704.498 0.9974 0 -34.6769
694.424 1.00285 0 -34.5303
973.458 0.395702 0 -19.7899
987.568 0.397609 0 -19.9949
699.461 1.00015 0 -34.6039
833.889 0.728995 0 -28.0103
980.513 0.396672 0 -19.8928
845.981 0.726942 0 -28.1861
839.935 0.727989 0 -28.0986
694.424 1.00285 0 -34.5303
684.35 1.00811 0 -34.3812
959.349 0.393665 0 -19.5815
973.458 0.395702 0 -19.7899
689.387 1.0055 0 -34.4561
821.798 0.730883 0 -27.8316
966.403 0.394699 0 -19.6861
833.889 0.728995 0 -28.0103
827.843 0.72996 0 -27.9213
684.35 1.00811 0 -34.3812
674.276 1.01318 0 -34.2297
945.239 0.391498 0 -19.3696
959.349 0.393665 0 -19.5815
679.313 1.01067 0 -34.3058
809.706 0.732608 0 -27.6499
952.294 0.392598 0 -19.476
821.798 0.730883 0 -27.8316
815.752 0.731766 0 -27.7411
674.276 1.01318 0 -34.2297
664.203 1.01806 0 -34.0758
931.13 0.389204 0 -19.1543
945.239 0.391498 0 -19.3696
669.24 1.01564 0 -34.1531
797.615 0.73417 0 -27.4653
938.185 0.390367 0 -19.2624
809.706 0.732608 0 -27.6499
803.661 0.733409 0 -27.5579
664.203 1.01806 0 -34.0758
654.129 1.02275 0 -33.9195
917.022 0.386782 0 -18.9358
931.13 0.389204 0 -19.1543
659.166 1.02043 0 -33.998
785.525 0.735569 0 -27.2778
924.076 0.388009 0 -19.0455
797.615 0.73417 0 -27.4653
791.57 0.73489 0 -27.3719
654.129 1.02275 0 -33.9195
644.056 1.02725 0 -33.7609
902.914 0.384234 0 -18.7139
917.022 0.386782 0 -18.9358
649.093 1.02502 0 -33.8405
773.434 0.736808 0 -27.0875
909.968 0.385524 0 -18.8253
785.525 0.735569 0 -27.2778
779.48 0.736208 0 -27.183
644.056 1.02725 0 -33.7609
633.983 1.03157 0 -33.5999
888.806 0.381561 0 -18.4889
902.914 0.384234 0 -18.7139
639.02 1.02943 0 -33.6807
761.344 0.737886 0 -26.8945
895.86 0.382913 0 -18.6018
773.434 0.736808 0 -27.0875
767.389 0.737367 0 -26.9914
633.983 1.03157 0 -33.5999
623.91 1.03569 0 -33.4367
874.698 0.378763 0 -18.2606
888.806 0.381561 0 -18.4889
628.947 1.03365 0 -33.5186
749.255 0.738804 0 -26.6988
881.752 0.380177 0 -18.3751
761.344 0.737886 0 -26.8945
755.299 0.738365 0 -26.797
623.91 1.03569 0 -33.4367
613.838 1.03964 0 -33.2713
860.591 0.375843 0 -18.0292
874.698 0.378763 0 -18.2606
618.874 1.03769 0 -33.3543
737.165 0.739564 0 -26.5004
867.645 0.377319 0 -18.1453
749.255 0.738804 0 -26.6988
743.21 0.739204 0 -26.5999
613.838 1.03964 0 -33.2713
603.765 1.04339 0 -33.1037
846.485 0.372801 0 -17.7948
860.591 0.375843 0 -18.0292
608.802 1.04154 0 -33.1877
725.076 0.740167 0 -26.2993
853.538 0.374337 0 -17.9124
737.165 0.739564 0 -26.5004
731.12 0.739885 0 -26.4002
603.765 1.04339 0 -33.1037
593.693 1.04697 0 -32.9339
832.378 0.369638 0 -17.5573
846.485 0.372801 0 -17.7948
598.729 1.0452 0 -33.019
712.987 0.740614 0 -26.0957
839.431 0.371235 0 -17.6764
725.076 0.740167 0 -26.2993
719.031 0.74041 0 -26.1978
593.693 1.04697 0 -32.9339
583.621 1.05036 0 -32.762
818.272 0.366357 0 -17.3169
832.378 0.369638 0 -17.5573
588.657 1.04869 0 -32.8482
700.898 0.740905 0 -25.8895
825.325 0.368012 0 -17.4375
712.987 0.740614 0 -26.0957
706.943 0.740778 0 -25.9929
583.621 1.05036 0 -32.762
573.549 1.05357 0 -32.588
804.167 0.362957 0 -17.0735
818.272 0.366357 0 -17.3169
578.585 1.05199 0 -32.6752
688.81 0.741041 0 -25.6808
811.219 0.364671 0 -17.1956
700.898 0.740905 0 -25.8895
694.854 0.740992 0 -25.7855
573.549 1.05357 0 -32.588
563.478 1.05659 0 -32.4119
790.061 0.35944 0 -16.8273
804.167 0.362957 0 -17.0735
568.513 1.0551 0 -32.5002
676.722 0.741025 0 -25.4697
797.114 0.361213 0 -16.9508
688.81 0.741041 0 -25.6808
682.766 0.741052 0 -25.5755
563.478 1.05659 0 -32.4119
553.406 1.05944 0 -32.2339
775.956 0.355808 0 -16.5783
790.061 0.35944 0 -16.8273
558.442 1.05804 0 -32.3232
664.634 0.740857 0 -25.2561
783.009 0.357638 0 -16.7031
676.722 0.741025 0 -25.4697
670.678 0.74096 0 -25.3632
553.406 1.05944 0 -32.2339
543.335 1.06211 0 -32.0539
761.852 0.352062 0 -16.3265
775.956 0.355808 0 -16.5783
548.371 1.0608 0 -32.1441
652.546 0.740538 0 -25.0401
768.904 0.353949 0 -16.4527
664.634 0.740857 0 -25.2561
658.59 0.740716 0 -25.1484
543.335 1.06211 0 -32.0539
533.264 1.0646 0 -31.8719
747.748 0.348203 0 -16.0719
761.852 0.352062 0 -16.3265
538.299 1.06337 0 -31.9631
640.459 0.74007 0 -24.8219
754.8 0.350147 0 -16.1995
652.546 0.740538 0 -25.0401
646.502 0.740322 0 -24.9313
533.264 1.0646 0 -31.8719
523.193 1.06691 0 -31.688
733.644 0.344234 0 -15.8147
747.748 0.348203 0 -16.0719
528.228 1.06577 0 -31.7802
628.372 0.739453 0 -24.6013
740.696 0.346232 0 -15.9436
640.459 0.74007 0 -24.8219
634.415 0.73978 0 -24.7119
523.193 1.06691 0 -31.688
513.122 1.06904 0 -31.5023
719.54 0.340154 0 -15.5549
733.644 0.344234 0 -15.8147
518.158 1.068 0 -31.5954
616.285 0.738689 0 -24.3785
726.592 0.342208 0 -15.6851
628.372 0.739453 0 -24.6013
622.328 0.739089 0 -24.4902
513.122 1.06904 0 -31.5023
503.052 1.071 0 -31.3147
705.437 0.335967 0 -15.2925
719.54 0.340154 0 -15.5549
508.087 1.07004 0 -31.4087
604.198 0.737779 0 -24.1535
712.489 0.338074 0 -15.424
616.285 0.738689 0 -24.3785
610.242 0.738252 0 -24.2663
503.052 1.071 0 -31.3147
492.982 1.07279 0 -31.1253
691.334 0.331673 0 -15.0276
705.437 0.335967 0 -15.2925
498.017 1.07192 0 -31.2202
592.112 0.736725 0 -23.9264
698.386 0.333833 0 -15.1604
604.198 0.737779 0 -24.1535
598.155 0.73727 0 -24.0402
492.982 1.07279 0 -31.1253
482.911 1.0744 0 -30.9342
677.232 0.327274 0 -14.7602
691.334 0.331673 0 -15.0276
487.946 1.07362 0 -31.03
580.026 0.735528 0 -23.6971
684.283 0.329487 0 -14.8942
592.112 0.736725 0 -23.9264
586.069 0.736145 0 -23.812
482.911 1.0744 0 -30.9342
472.841 1.07584 0 -30.7413
663.13 0.322772 0 -14.4904
677.232 0.327274 0 -14.7602
477.876 1.07514 0 -30.838
567.94 0.73419 0 -23.4658
670.181 0.325036 0 -14.6256
580.026 0.735528 0 -23.6971
573.983 0.734877 0 -23.5817
472.841 1.07584 0 -30.7413
462.772 1.07711 0 -30.5468
649.028 0.318168 0 -14.2183
663.13 0.322772 0 -14.4904
467.807 1.0765 0 -30.6442
555.855 0.732711 0 -23.2324
656.079 0.320482 0 -14.3547
567.94 0.73419 0 -23.4658
561.897 0.733468 0 -23.3493
462.772 1.07711 0 -30.5468
452.702 1.07821 0 -30.3506
634.926 0.313464 0 -13.9438
649.028 0.318168 0 -14.2183
457.737 1.07768 0 -30.4489
543.769 0.731093 0 -22.9971
641.977 0.315828 0 -14.0813
555.855 0.732711 0 -23.2324
549.812 0.731919 0 -23.115
452.702 1.07821 0 -30.3506
442.633 1.07914 0 -30.1527
620.825 0.308661 0 -13.6671
634.926 0.313464 0 -13.9438
447.667 1.0787 0 -30.2519
531.684 0.729338 0 -22.7598
627.876 0.311074 0 -13.8057
543.769 0.731093 0 -22.9971
537.727 0.730232 0 -22.8786
442.633 1.07914 0 -30.1527
432.563 1.07991 0 -29.9533
606.725 0.303762 0 -13.3881
620.825 0.308661 0 -13.6671
437.598 1.07955 0 -30.0532
519.6 0.727447 0 -22.5206
613.775 0.306223 0 -13.5279
531.684 0.729338 0 -22.7598
525.642 0.728409 0 -22.6404
432.563 1.07991 0 -29.9533
422.494 1.08051 0 -29.7524
592.624 0.298768 0 -13.107
606.725 0.303762 0 -13.3881
427.529 1.08023 0 -29.8531
507.515 0.725421 0 -22.2795
599.674 0.301277 0 -13.2479
519.6 0.727447 0 -22.5206
513.557 0.72645 0 -22.4003
422.494 1.08051 0 -29.7524
412.425 1.08094 0 -29.55
578.524 0.293681 0 -12.8238
592.624 0.298768 0 -13.107
417.46 1.08075 0 -29.6514
495.431 0.723262 0 -22.0367
585.574 0.296236 0 -12.9657
507.515 0.725421 0 -22.2795
501.473 0.724358 0 -22.1583
412.425 1.08094 0 -29.55
402.357 1.08121 0 -29.346
564.424 0.288502 0 -12.5385
578.524 0.293681 0 -12.8238
407.391 1.0811 0 -29.4482
483.347 0.720972 0 -21.7921
571.474 0.291103 0 -12.6814
495.431 0.723262 0 -22.0367
489.389 0.722134 0 -21.9146
402.357 1.08121 0 -29.346
392.288 1.08132 0 -29.1407
550.325 0.283234 0 -12.2512
564.424 0.288502 0 -12.5385
397.322 1.08129 0 -29.2435
471.263 0.718553 0 -21.5457
557.374 0.285879 0 -12.3951
483.347 0.720972 0 -21.7921
477.305 0.719779 0 -21.6691
392.288 1.08132 0 -29.1407
382.22 1.08127 0 -28.9339
536.226 0.277878 0 -11.962
550.325 0.283234 0 -12.2512
387.254 1.08132 0 -29.0375
459.179 0.716005 0 -21.2977
543.275 0.280567 0 -12.1068
471.263 0.718553 0 -21.5457
465.221 0.717295 0 -21.4219
382.22 1.08127 0 -28.9339
372.152 1.08106 0 -28.7258
522.127 0.272437 0 -11.6708
536.226 0.277878 0 -11.962
377.186 1.08119 0 -28.83
447.096 0.71333 0 -21.048
529.176 0.275168 0 -11.8166
459.179 0.716005 0 -21.2977
453.138 0.714683 0 -21.1731
372.152 1.08106 0 -28.7258
362.084 1.08069 0 -28.5164
508.028 0.266911 0 -11.3778
522.127 0.272437 0 -11.6708
367.118 1.0809 0 -28.6212
435.013 0.71053 0 -20.7968
515.077 0.269684 0 -11.5245
447.096 0.71333 0 -21.048
441.054 0.711946 0 -20.9226
362.084 1.08069 0 -28.5164
352.016 1.08017 0 -28.3056
493.93 0.261304 0 -11.0829
508.028 0.266911 0 -11.3778
357.05 1.08045 0 -28.4111
422.93 0.707607 0 -20.544
500.979 0.264118 0 -11.2306
435.013 0.71053 0 -20.7968
428.971 0.709084 0 -20.6706
352.016 1.08017 0 -28.3056
341.948 1.07949 0 -28.0936
479.832 0.255616 0 -10.7863
493.93 0.261304 0 -11.0829
346.982 1.07985 0 -28.1998
410.847 0.704563 0 -20.2897
486.881 0.25847 0 -10.9349
422.93 0.707607 0 -20.544
416.889 0.7061 0 -20.417
341.948 1.07949 0 -28.0936
331.88 1.07865 0 -27.8804
465.735 0.249851 0 -10.488
479.832 0.255616 0 -10.7863
336.914 1.07909 0 -27.9872
398.765 0.701398 0 -20.0339
472.783 0.252743 0 -10.6374
410.847 0.704563 0 -20.2897
404.806 0.702995 0 -20.162
331.88 1.07865 0 -27.8804
321.813 1.07766 0 -27.666
451.637 0.244009 0 -10.1881
465.735 0.249851 0 -10.488
326.847 1.07818 0 -27.7733
386.683 0.698115 0 -19.7767
458.686 0.246939 0 -10.3382
398.765 0.701398 0 -20.0339
392.724 0.699771 0 -19.9055
321.813 1.07766 0 -27.666
311.746 1.07652 0 -27.4505
437.54 0.238093 0 -9.88648
451.637 0.244009 0 -10.1881
316.779 1.07711 0 -27.5584
374.601 0.694715 0 -19.5181
444.589 0.24106 0 -10.0375
386.683 0.698115 0 -19.7767
380.642 0.696429 0 -19.6476
311.746 1.07652 0 -27.4505
301.679 1.07523 0 -27.2338
423.444 0.232106 0 -9.58335
437.54 0.238093 0 -9.88648
306.712 1.0759 0 -27.3423
362.519 0.6912 0 -19.2582
430.492 0.235108 0 -9.73511
374.601 0.694715 0 -19.5181
368.56 0.692972 0 -19.3883
301.679 1.07523 0 -27.2338
291.612 1.0738 0 -27.0161
409.347 0.226048 0 -9.27871
423.444 0.232106 0 -9.58335
296.645 1.07453 0 -27.1251
350.438 0.687572 0 -18.997
416.396 0.229085 0 -9.43121
362.519 0.6912 0 -19.2582
356.478 0.6894 0 -19.1278
291.612 1.0738 0 -27.0161
281.545 1.07221 0 -26.7973
395.251 0.219922 0 -8.97261
409.347 0.226048 0 -9.27871
286.578 1.07302 0 -26.9068
338.356 0.683832 0 -18.7346
402.299 0.222993 0 -9.12583
350.438 0.687572 0 -18.997
344.397 0.685715 0 -18.8659
281.545 1.07221 0 -26.7973
271.478 1.07048 0 -26.5775
381.156 0.213731 0 -8.6651
395.251 0.219922 0 -8.97261
276.511 1.07136 0 -26.6875
326.275 0.679982 0 -18.4709
388.203 0.216834 0 -8.81902
338.356 0.683832 0 -18.7346
332.316 0.68192 0 -18.6029
271.478 1.07048 0 -26.5775
261.412 1.0686 0 -26.3568
367.06 0.207475 0 -8.35624
381.156 0.213731 0 -8.6651
266.445 1.06956 0 -26.4673
314.194 0.676024 0 -18.2061
374.108 0.210611 0 -8.51083
326.275 0.679982 0 -18.4709
320.235 0.678016 0 -18.3387
261.412 1.0686 0 -26.3568
251.345 1.06658 0 -26.1352
352.965 0.201159 0 -8.04607
367.06 0.207475 0 -8.35624
256.378 1.06761 0 -26.2461
302.114 0.671959 0 -17.9402
360.012 0.204324 0 -8.20131
314.194 0.676024 0 -18.2061
308.154 0.674004 0 -18.0733
251.345 1.06658 0 -26.1352
241.279 1.06441 0 -25.9126
338.87 0.194782 0 -7.73464
352.965 0.201159 0 -8.04607
246.312 1.06551 0 -26.024
290.033 0.667788 0 -17.6732
345.917 0.197978 0 -7.89051
302.114 0.671959 0 -17.9402
296.073 0.669887 0 -17.8068
241.279 1.06441 0 -25.9126
231.213 1.06209 0 -25.6893
324.775 0.18835 0 -7.42201
338.87 0.194782 0 -7.73464
236.246 1.06327 0 -25.8011
277.953 0.663514 0 -17.4052
331.823 0.191573 0 -7.57847
290.033 0.667788 0 -17.6732
283.993 0.665664 0 -17.5393
231.213 1.06209 0 -25.6893
221.147 1.05963 0 -25.4651
310.681 0.181862 0 -7.10822
324.775 0.18835 0 -7.42201
226.18 1.06088 0 -25.5773
265.873 0.659136 0 -17.1362
317.728 0.185112 0 -7.26526
277.953 0.663514 0 -17.4052
271.913 0.661338 0 -17.2708
221.147 1.05963 0 -25.4651
211.081 1.05703 0 -25.2402
296.586 0.175325 0 -6.79332
310.681 0.181862 0 -7.10822
216.114 1.05835 0 -25.3527
253.793 0.654656 0 -16.8663
303.633 0.178599 0 -6.95091
265.873 0.659136 0 -17.1362
259.833 0.656909 0 -17.0014
211.081 1.05703 0 -25.2402
201.015 1.05427 0 -25.0145
282.492 0.168737 0 -6.47737
296.586 0.175325 0 -6.79332
206.048 1.05567 0 -25.1274
241.713 0.650074 0 -16.5956
289.539 0.172037 0 -6.63548
253.793 0.654656 0 -16.8663
247.753 0.652377 0 -16.731
201.015 1.05427 0 -25.0145
190.95 1.05139 0 -24.7882
268.398 0.162111 0 -6.16041
282.492 0.168737 0 -6.47737
195.982 1.05285 0 -24.9015
229.633 0.64539 0 -16.324
275.445 0.165428 0 -6.31901
241.713 0.650074 0 -16.5956
235.673 0.647745 0 -16.4599
190.95 1.05139 0 -24.7882
180.884 1.04839 0 -24.5612
254.304 0.155443 0 -5.84248
268.398 0.162111 0 -6.16041
185.917 1.0499 0 -24.6748
217.553 0.640613 0 -16.0516
261.351 0.158783 0 -6.00156
229.633 0.64539 0 -16.324
223.593 0.643011 0 -16.1879
180.884 1.04839 0 -24.5612
170.819 1.04538 0 -24.3335
240.209 0.148747 0 -5.52365
254.304 0.155443 0 -5.84248
175.852 1.04688 0 -24.4475
205.474 0.63575 0 -15.7785
247.256 0.152093 0 -5.68318
217.553 0.640613 0 -16.0516
211.514 0.638193 0 -15.9152
170.819 1.04538 0 -24.3335
160.754 1.04253 0 -24.1049
226.114 0.142049 0 -5.20398
240.209 0.148747 0 -5.52365
165.787 1.04392 0 -24.2194
193.394 0.630864 0 -15.5046
233.162 0.145414 0 -5.3639
205.474 0.63575 0 -15.7785
199.434 0.633302 0 -15.6417
160.754 1.04253 0 -24.1049
150.691 1.0403 0 -23.8749
212.019 0.135254 0 -4.88349
226.114 0.142049 0 -5.20398
155.722 1.04129 0 -23.9902
181.316 0.626006 0 -15.2296
219.067 0.138623 0 -5.04386
193.394 0.630864 0 -15.5046
187.355 0.628432 0 -15.3673
150.691 1.0403 0 -23.8749
140.628 1.03955 0 -23.6423
197.924 0.128697 0 -4.56242
212.019 0.135254 0 -4.88349
145.659 1.03967 0 -23.759
169.239 0.621502 0 -14.9529
204.972 0.132063 0 -4.72292
181.316 0.626006 0 -15.2296
175.277 0.623673 0 -15.0916
140.628 1.03955 0 -23.6423
130.569 1.04224 0 -23.4045
183.831 0.121349 0 -4.2406
197.924 0.128697 0 -4.56242
135.598 1.04027 0 -23.5243
157.165 0.617602 0 -14.6728
190.877 0.124865 0 -4.40177
169.239 0.621502 0 -14.9529
163.201 0.619482 0 -14.8134
130.569 1.04224 0 -23.4045
120.512 1.05139 0 -23.1569
169.745 0.115664 0 -3.91922
183.831 0.121349 0 -4.2406
125.54 1.04572 0 -23.2823
145.101 0.615661 0 -14.3864
176.786 0.119007 0 -4.07941
157.165 0.617602 0 -14.6728
151.131 0.61622 0 -14.5307
120.512 1.05139 0 -23.1569
110.464 1.07416 0 -22.8891
155.673 0.104773 0 -3.59678
169.745 0.115664 0 -3.91922
115.486 1.06049 0 -23.0266
133.054 0.61663 0 -14.0863
162.707 0.109382 0 -3.75892
145.101 0.615661 0 -14.3864
139.075 0.615881 0 -14.2384
110.464 1.07416 0 -22.8891
100.419 1.11864 0 -22.5866
141.653 0.103524 0 -3.27916
155.673 0.104773 0 -3.59678
105.442 1.09273 0 -22.7434
121.045 0.625194 0 -13.7612
148.653 0.106847 0 -3.43551
133.054 0.61663 0 -14.0863
127.042 0.619181 0 -13.9285
100.419 1.11864 0 -22.5866
90.3921 1.20776 0 -22.2152
127.701 0.0731949 0 -2.95792
141.653 0.103524 0 -3.27916
95.4002 1.15646 0 -22.4128
109.098 0.64454 0 -13.3871
134.666 0.0838219 0 -3.12264
121.045 0.625194 0 -13.7612
115.064 0.634411 0 -13.5811
90.3921 1.20776 0 -22.2152
80.3478 1.35229 0 -21.7397
113.981 0.09375 0 -2.6589
127.701 0.0731949 0 -2.95792
85.3786 1.27007 0 -21.993
97.2904 0.688135 0 -12.9261
120.8 0.0975246 0 -2.79767
109.098 0.64454 0 -13.3871
103.167 0.659583 0 -13.1742
80.3478 1.35229 0 -21.7397
70.3251 1.61773 0 -21.0726
100.538 -0.03278 0 -2.34295
113.981 0.09375 0 -2.6589
75.3242 1.47079 0 -21.4384
85.6666 0.76639 0 -12.3166
107.217 0.00607047 0 -2.52002
97.2904 0.688135 0 -12.9261
91.4613 0.728716 0 -12.6383
70.3251 1.61773 0 -21.0726
60.1207 1.95575 0 -20.177
87.9635 0.0889051 0 -2.11188
100.538 -0.03278 0 -2.34295
65.2758 1.76785 0 -20.6546
74.459 0.909763 0 -11.4483
94.1086 0.0995184 0 -2.18112
85.6666 0.76639 0 -12.3166
79.973 0.812732 0 -11.9416
60.1207 1.95575 0 -20.177
49.8023 2.5231 0 -18.9206
76.3182 -0.483044 0 -1.80654
87.9635 0.0889052 0 -2.11188
54.9485 2.23766 0 -19.6041
63.6227 1.15004 0 -10.2356
81.9803 -0.324635 0 -2.04963
74.459 0.909763 0 -11.4483
69.0436 1.04819 0 -10.8576
49.8023 2.5231 0 -18.9206
38.4301 2.75303 0 -17.5691
67.4638 0.0897588 0 -1.77215
76.3182 -0.483044 0 -1.80654
44.3705 2.6537 0 -18.2304
53.7403 1.52382 0 -8.42561
71.5083 0.152911 0 -1.59215
63.6227 1.15004 0 -10.2356
58.4267 1.24822 0 -9.50512
38.4301 2.75303 0 -17.5691
26.0525 2.67644 0 -16.5753
61.7373 -2.17629 0 -1.1473
67.4638 0.0897588 0 -1.77215
32.3028 2.9819 0 -16.9523
43.4911 2.05035 0 -6.46022
63.8687 -1.75726 0 -1.98418
53.7403 1.52382 0 -8.42561
48.9847 1.90327 0 -7.25968
26.0525 2.67644 0 -16.5753
9.95146 -2.31958 0 -19.0372
66.7606 1.90654 0 0.526557
61.7373 -2.17629 0 -1.1473
18.8056 0.92624 0 -17.0843
32.2459 1.70284 0 -5.12936
62.9893 1.30325 0 0.0135832
43.4911 2.05035 0 -6.46022
37.7265 1.92611 0 -5.92319
9.95146 -2.31958 0 -19.0372
-3.48797 -22.4155 0 -29.2916
93.6866 8.89621 0 13.9212
66.7606 1.90654 0 0.526557
2.31993 -7.55255 0 -22.5776
3.85993 -12.4971 0 -16.9513
74.0273 -3.07378 0 2.4782
32.2459 1.70284 0 -5.12936
22.875 -0.737483 0 -7.26389
-3.48797 -22.4155 0 -29.2916
0.505375 -99.7254 0 -31.6661
12.1402 -125.756 0 -82.143
93.6866 8.89621 0 13.9212
-5.7228 -53.9647 0 -35.2224
-11.476 -125.614 0 -49.8319
97.911 22.9582 0 5.46028
3.85993 -12.4971 0 -16.9513
-9.85813 -42.2192 0 -31.7846
      </DataArray> 
      <DataArray type="Float64" NumberOfComponents="4" Name="GreenStrain" format="ascii">
-0.00185945 -1.11022e-16 0.000796909 -0.0006323
-0.00132588 0.000420258 0.000388124 2.43117e-05
-0.000952025 0.000188852 0.000327074 -7.07199e-05
-0.000845534 0 0.000362372 -4.82629e-05
-0.00147488 0.00046859 0.000431265 -8.8978e-05
-0.00120409 0.000292634 0.000390624 -9.16662e-05
-0.000905309 8.92269e-05 0.00034975 -8.20725e-05
-0.000993673 0 0.00042586 -0.000153436
-0.0011616 0.000198049 0.000412952 -0.000143803
-0.00132588 0.000420258 0.000388124 2.43117e-05
-0.00131048 0.000406024 0.000387625 7.51574e-06
-0.000989137 0.00026776 0.000309162 -3.36324e-05
-0.000952025 0.000188852 0.000327074 -7.07199e-05
-0.00130651 0.000387768 0.000393747 1.06165e-05
-0.00117725 0.000343096 0.000357495 -1.53094e-05
-0.000981398 0.000244569 0.000315784 -5.09703e-05
-0.00120409 0.000292634 0.000390624 -9.16662e-05
-0.00118727 0.000331477 0.000366769 -3.70598e-05
-0.00131048 0.000406024 0.000387625 7.51574e-06
-0.00132908 0.000394529 0.000400523 3.49407e-06
-0.00098434 0.000289835 0.000297645 -1.25034e-05
-0.000989137 0.00026776 0.000309162 -3.36324e-05
-0.00132296 0.00040519 0.000393328 7.61974e-06
-0.00116495 0.000349089 0.000349654 -1.55917e-06
-0.000986399 0.000281494 0.000302102 -1.97527e-05
-0.00117725 0.000343096 0.000357495 -1.53094e-05
-0.00117086 0.000347403 0.000352911 -7.42176e-06
-0.00132908 0.000394529 0.000400523 3.49407e-06
-0.00133668 0.000402234 0.000400478 -4.08468e-07
-0.000977401 0.000292823 0.000293391 -7.83269e-06
-0.00098434 0.000289835 0.000297645 -1.25034e-05
-0.00133246 0.000395875 0.000401393 -7.03097e-07
-0.00115818 0.000348344 0.000347073 4.10256e-07
-0.000981745 0.00029275 0.000295284 -9.35869e-06
-0.00116495 0.000349089 0.000349654 -1.55917e-06
-0.00116042 0.000349063 0.000347723 1.02497e-06
-0.00133668 0.000402234 0.000400478 -4.08468e-07
-0.00134056 0.000400779 0.000402764 2.70577e-07
-0.000969394 0.000292302 0.000290182 -7.65286e-06
-0.000977401 0.000292823 0.000293391 -7.83269e-06
-0.00133998 0.000402853 0.000401625 6.72548e-07
-0.0011548 0.000347218 0.000346107 -1.65224e-06
-0.000972789 0.000292656 0.000291486 -7.27571e-06
-0.00115818 0.000348344 0.000347073 4.10256e-07
-0.00115679 0.000347753 0.000346731 -9.19685e-07
-0.00134056 0.000400779 0.000402764 2.70577e-07
-0.00133906 0.000401924 0.000401631 -2.49408e-07
-0.000963315 0.000290142 0.000288503 -9.27389e-06
-0.000969394 0.000292302 0.000290182 -7.65286e-06
-0.0013398 0.000400932 0.000402373 -4.26661e-07
-0.0011506 0.000345702 0.000344955 -3.54018e-06
-0.00096648 0.000291357 0.000289338 -8.50664e-06
-0.0011548 0.000347218 0.000346107 -1.65224e-06
-0.0011526 0.000346513 0.000345467 -2.49114e-06
-0.00133906 0.000401924 0.000401631 -2.49408e-07
-0.00133577 0.000400437 0.000400857 1.37277e-08
-0.000957434 0.000288039 0.000286883 -1.0629e-05
-0.000963315 0.000290142 0.000288503 -9.27389e-06
-0.00133788 0.000401526 0.000401294 7.76298e-08
-0.00114613 0.000344075 0.000343736 -5.02442e-06
-0.000960199 0.000289047 0.000287637 -9.95367e-06
-0.0011506 0.000345702 0.000344955 -3.54018e-06
-0.00114852 0.000344891 0.000344413 -4.42486e-06
-0.00133577 0.000400437 0.000400857 1.37277e-08
-0.00133045 0.000399198 0.000399108 -8.07114e-08
-0.00095215 0.000285997 0.000285494 -1.17298e-05
-0.000957434 0.000288039 0.000286883 -1.0629e-05
-0.00133316 0.000399749 0.000400032 -1.35916e-07
-0.00114095 0.000342362 0.000342253 -5.9782e-06
-0.000954817 0.000287011 0.000286203 -1.12525e-05
-0.00114613 0.000344075 0.000343736 -5.02442e-06
-0.00114355 0.00034323 0.000342996 -5.53481e-06
-0.00133045 0.000399198 0.000399108 -8.07114e-08
-0.00132443 0.000397299 0.000397343 -9.33156e-09
-0.000946927 0.000284153 0.000284046 -1.23964e-05
-0.00095215 0.000285997 0.000285494 -1.17298e-05
-0.00132757 0.000398331 0.000398245 3.32031e-09
-0.00113548 0.000340597 0.000340662 -6.5427e-06
-0.000949497 0.00028505 0.000284763 -1.20961e-05
-0.00114095 0.000342362 0.000342253 -5.9782e-06
-0.00113827 0.000341483 0.000341482 -6.31077e-06
-0.00132443 0.000397299 0.000397343 -9.33156e-09
-0.00131781 0.000395385 0.000395326 -2.244e-08
-0.000941844 0.00028243 0.000282606 -1.28153e-05
-0.000946927 0.000284153 0.000284046 -1.23964e-05
-0.00132115 0.000396332 0.000396349 -3.94328e-08
-0.00112971 0.000338808 0.000338957 -6.86624e-06
-0.000944391 0.00028328 0.000283333 -1.26391e-05
-0.00113548 0.000340597 0.000340662 -6.5427e-06
-0.0011326 0.000339705 0.000339814 -6.72551e-06
-0.00131781 0.000395385 0.000395326 -2.244e-08
-0.00131098 0.000393319 0.000393285 -4.97674e-09
-0.000936772 0.000280801 0.00028113 -1.30384e-05
-0.000941844 0.00028243 0.000282606 -1.28153e-05
-0.00131443 0.000394371 0.000394311 -2.14002e-09
-0.00112382 0.000337004 0.000337207 -7.03294e-06
-0.000939299 0.000281606 0.000281869 -1.29424e-05
-0.00112971 0.000338808 0.000338957 -6.86624e-06
-0.00112678 0.000337908 0.00033809 -6.96507e-06
-0.00131098 0.000393319 0.000393285 -4.97674e-09
-0.00130401 0.00039124 0.000391187 -5.40344e-09
-0.000931727 0.000279226 0.000279643 -1.31602e-05
-0.000936772 0.000280801 0.00028113 -1.30384e-05
-0.0013075 0.000392278 0.000392239 -1.02734e-08
-0.00111784 0.000335195 0.00033542 -7.11918e-06
-0.000934251 0.000280009 0.000280389 -1.31103e-05
-0.00112382 0.000337004 0.000337207 -7.03294e-06
-0.00112084 0.0003361 0.000336315 -7.08333e-06
-0.00130401 0.00039124 0.000391187 -5.40344e-09
-0.00129699 0.00038913 0.000389081 -1.5353e-09
-0.000926682 0.000277684 0.000278142 -1.32178e-05
-0.000931727 0.000279226 0.000279643 -1.31602e-05
-0.0013005 0.000390188 0.000390135 -8.39784e-10
-0.00111183 0.000333383 0.00033362 -7.15791e-06
-0.000929203 0.000278452 0.000278893 -1.3194e-05
-0.00111784 0.000335195 0.00033542 -7.11918e-06
-0.00111484 0.000334289 0.000334522 -7.14263e-06
-0.00129699 0.00038913 0.000389081 -1.5353e-09
-0.00128994 0.000387017 0.000386965 -1.04476e-09
-0.000921641 0.000276159 0.000276635 -1.32451e-05
-0.000926682 0.000277684 0.000278142 -1.32178e-05
-0.00129346 0.000388073 0.000388024 -2.28666e-09
-0.00110579 0.00033157 0.00033181 -7.17516e-06
-0.000924162 0.00027692 0.00027739 -1.32344e-05
-0.00111183 0.000333383 0.00033362 -7.15791e-06
-0.00110881 0.000332476 0.000332715 -7.16839e-06
-0.00128994 0.000387017 0.000386965 -1.04476e-09
-0.00128288 0.000384899 0.000384849 -3.08614e-10
-0.0009166 0.000274643 0.000275125 -1.32557e-05
-0.000921641 0.000276159 0.000276635 -1.32451e-05
-0.00128641 0.000385958 0.000385907 -1.20943e-10
-0.00109975 0.000329757 0.000329997 -7.1811e-06
-0.00091912 0.0002754 0.00027588 -1.32516e-05
-0.00110579 0.00033157 0.00033181 -7.17516e-06
-0.00110277 0.000330663 0.000330904 -7.17899e-06
-0.00128288 0.000384899 0.000384849 -3.08614e-10
-0.00127582 0.000382781 0.000382732 -1.08761e-10
-0.000911559 0.000273131 0.000273612 -1.32594e-05
-0.0009166 0.000274643 0.000275125 -1.32557e-05
-0.00127935 0.00038384 0.00038379 -3.78453e-10
-0.0010937 0.000327944 0.000328182 -7.18273e-06
-0.000914079 0.000273886 0.000274368 -1.32581e-05
-0.00109975 0.000329757 0.000329997 -7.1811e-06
-0.00109672 0.00032885 0.000329089 -7.18224e-06
-0.00127582 0.000382781 0.000382732 -1.08761e-10
-0.00126876 0.000380664 0.000380615 -1.06592e-11
-0.000906517 0.000271621 0.000272098 -1.32599e-05
-0.000911559 0.000273131 0.000273612 -1.32594e-05
-0.00127229 0.000381723 0.000381673 4.59594e-11
-0.00108765 0.000326131 0.000326366 -7.18251e-06
-0.000909038 0.000272376 0.000272855 -1.32598e-05
-0.0010937 0.000327944 0.000328182 -7.18273e-06
-0.00109068 0.000327037 0.000327274 -7.18272e-06
-0.00126876 0.000380664 0.000380615 -1.06592e-11
-0.00126171 0.000378547 0.000378498 3.35227e-11
-0.000901475 0.000270112 0.000270584 -1.32594e-05
-0.000906517 0.000271621 0.000272098 -1.32599e-05
-0.00126524 0.000379606 0.000379556 -1.13886e-11
-0.0010816 0.000324318 0.000324551 -7.18189e-06
-0.000903996 0.000270867 0.000271341 -1.32597e-05
-0.00108765 0.000326131 0.000326366 -7.18251e-06
-0.00108463 0.000325225 0.000325459 -7.18221e-06
-0.00126171 0.000378547 0.000378498 3.35227e-11
-0.00125465 0.000376431 0.000376382 2.97261e-11
-0.000896434 0.000268604 0.00026907 -1.32587e-05
-0.000901475 0.000270112 0.000270584 -1.32594e-05
-0.00125818 0.000377489 0.00037744 4.83497e-11
-0.00107556 0.000322506 0.000322735 -7.18127e-06
-0.000898955 0.000269358 0.000269827 -1.32591e-05
-0.0010816 0.000324318 0.000324551 -7.18189e-06
-0.00107858 0.000323412 0.000323643 -7.18156e-06
-0.00125465 0.000376431 0.000376382 2.97261e-11
-0.0012476 0.000374314 0.000374265 3.27015e-11
-0.000891392 0.000267095 0.000267556 -1.32582e-05
-0.000896434 0.000268604 0.00026907 -1.32587e-05
-0.00125113 0.000375372 0.000375324 2.95868e-11
-0.00106951 0.000320694 0.00032092 -7.18083e-06
-0.000893913 0.000267849 0.000268313 -1.32584e-05
-0.00107556 0.000322506 0.000322735 -7.18127e-06
-0.00107253 0.0003216 0.000321828 -7.18102e-06
-0.0012476 0.000374314 0.000374265 3.27015e-11
-0.00124055 0.000372198 0.000372149 2.32948e-11
-0.00088635 0.000265587 0.000266042 -1.32578e-05
-0.000891392 0.000267095 0.000267556 -1.32582e-05
-0.00124407 0.000373256 0.000373207 2.95722e-11
-0.00106346 0.000318881 0.000319105 -7.18054e-06
-0.000888871 0.000266341 0.000266799 -1.3258e-05
-0.00106951 0.000320694 0.00032092 -7.18083e-06
-0.00106648 0.000319788 0.000320013 -7.18066e-06
-0.00124055 0.000372198 0.000372149 2.32948e-11
-0.00123349 0.000370082 0.000370034 2.06664e-11
-0.000881309 0.000264078 0.000264527 -1.32576e-05
-0.00088635 0.000265587 0.000266042 -1.32578e-05
-0.00123702 0.00037114 0.000371092 2.22298e-11
-0.00105741 0.000317069 0.00031729 -7.18038e-06
-0.000883829 0.000264832 0.000265284 -1.32577e-05
-0.00106346 0.000318881 0.000319105 -7.18054e-06
-0.00106044 0.000317975 0.000318197 -7.18044e-06
-0.00123349 0.000370082 0.000370034 2.06664e-11
-0.00122644 0.000367966 0.000367918 1.60485e-11
-0.000876267 0.000262569 0.000263013 -1.32575e-05
-0.000881309 0.000264078 0.000264527 -1.32576e-05
-0.00122997 0.000369024 0.000368976 1.80822e-11
-0.00105136 0.000315257 0.000315475 -7.1803e-06
-0.000878788 0.000263324 0.00026377 -1.32575e-05
-0.00105741 0.000317069 0.00031729 -7.18038e-06
-0.00105439 0.000316163 0.000316382 -7.18033e-06
-0.00122644 0.000367966 0.000367918 1.60485e-11
-0.00121939 0.00036585 0.000365802 1.43717e-11
-0.000871225 0.000261061 0.000261499 -1.32574e-05
-0.000876267 0.000262569 0.000263013 -1.32575e-05
-0.00122291 0.000366908 0.00036686 1.532e-11
-0.00104532 0.000313445 0.00031366 -7.18027e-06
-0.000873746 0.000261815 0.000262256 -1.32575e-05
-0.00105136 0.000315257 0.000315475 -7.1803e-06
-0.00104834 0.000314351 0.000314567 -7.18028e-06
-0.00121939 0.00036585 0.000365802 1.43754e-11
-0.00121233 0.000363734 0.000363686 1.26776e-11
-0.000866184 0.000259552 0.000259985 -1.32574e-05
-0.000871225 0.000261061 0.000261499 -1.32574e-05
-0.00121586 0.000364792 0.000364744 1.32936e-11
-0.00103927 0.000311633 0.000311845 -7.18027e-06
-0.000868705 0.000260306 0.000260742 -1.32574e-05
-0.00104532 0.000313445 0.00031366 -7.18027e-06
-0.00104229 0.000312539 0.000312752 -7.18027e-06
-0.00121233 0.000363734 0.000363686 1.26776e-11
-0.00120528 0.000361618 0.00036157 1.20188e-11
-0.000861142 0.000258043 0.000258471 -1.32575e-05
-0.000866184 0.000259552 0.000259985 -1.32574e-05
-0.00120881 0.000362676 0.000362628 1.23544e-11
-0.00103322 0.00030982 0.00031003 -7.18029e-06
-0.000863663 0.000258798 0.000259228 -1.32574e-05
-0.00103927 0.000311633 0.000311845 -7.18027e-06
-0.00103625 0.000310726 0.000310937 -7.18028e-06
-0.00120528 0.000361618 0.00036157 1.20197e-11
-0.00119823 0.000359502 0.000359455 1.14917e-11
-0.000856101 0.000256535 0.000256957 -1.32575e-05
-0.000861142 0.000258043 0.000258471 -1.32575e-05
-0.00120176 0.00036056 0.000360512 1.16547e-11
-0.00102718 0.000308008 0.000308215 -7.18031e-06
-0.000858622 0.000257289 0.000257714 -1.32575e-05
-0.00103322 0.00030982 0.00031003 -7.18029e-06
-0.0010302 0.000308914 0.000309122 -7.1803e-06
-0.00119823 0.000359502 0.000359455 1.14917e-11
-0.00119118 0.000357386 0.000357339 1.12741e-11
-0.00085106 0.000255026 0.000255443 -1.32575e-05
-0.000856101 0.000256535 0.000256957 -1.32575e-05
-0.0011947 0.000358444 0.000358397 1.13732e-11
-0.00102113 0.000306196 0.0003064 -7.18034e-06
-0.00085358 0.00025578 0.0002562 -1.32575e-05
-0.00102718 0.000308008 0.000308215 -7.18031e-06
-0.00102415 0.000307102 0.000307307 -7.18033e-06
-0.00119118 0.000357386 0.000357339 1.12741e-11
-0.00118412 0.00035527 0.000355223 1.11157e-11
-0.000846018 0.000253517 0.000253929 -1.32576e-05
-0.00085106 0.000255026 0.000255443 -1.32575e-05
-0.00118765 0.000356328 0.000356281 1.11573e-11
-0.00101508 0.000304384 0.000304585 -7.18036e-06
-0.000848539 0.000254271 0.000254686 -1.32575e-05
-0.00102113 0.000306196 0.0003064 -7.18034e-06
-0.0010181 0.00030529 0.000305492 -7.18035e-06
-0.00118412 0.00035527 0.000355223 1.11157e-11
-0.00117707 0.000353154 0.000353107 1.10389e-11
-0.000840977 0.000252008 0.000252415 -1.32576e-05
-0.000846018 0.000253517 0.000253929 -1.32576e-05
-0.0011806 0.000354212 0.000354165 1.10706e-11
-0.00100903 0.000302571 0.00030277 -7.18039e-06
-0.000843498 0.000252763 0.000253172 -1.32576e-05
-0.00101508 0.000304384 0.000304585 -7.18036e-06
-0.00101206 0.000303477 0.000303677 -7.18038e-06
-0.00117707 0.000353154 0.000353107 1.10364e-11
-0.00117002 0.000351038 0.000350991 1.09717e-11
-0.000835936 0.0002505 0.000250901 -1.32576e-05
-0.000840977 0.000252008 0.000252415 -1.32576e-05
-0.00117354 0.000352096 0.000352049 1.09979e-11
-0.00100299 0.000300759 0.000300955 -7.18041e-06
-0.000838456 0.000251254 0.000251658 -1.32576e-05
-0.00100903 0.000302571 0.00030277 -7.18039e-06
-0.00100601 0.000301665 0.000301862 -7.1804e-06
-0.00117002 0.000351038 0.000350991 1.09717e-11
-0.00116297 0.000348922 0.000348876 1.09168e-11
-0.000830894 0.000248991 0.000249387 -1.32577e-05
-0.000835936 0.0002505 0.000250901 -1.32576e-05
-0.00116649 0.00034998 0.000349934 1.09441e-11
-0.00099694 0.000298947 0.00029914 -7.18043e-06
-0.000833415 0.000249745 0.000250144 -1.32576e-05
-0.00100299 0.000300759 0.000300955 -7.18041e-06
-0.000999963 0.000299853 0.000300047 -7.18042e-06
-0.00116297 0.000348922 0.000348876 1.09168e-11
-0.00115591 0.000346806 0.00034676 1.08696e-11
-0.000825853 0.000247482 0.000247873 -1.32577e-05
-0.000830894 0.000248991 0.000249387 -1.32577e-05
-0.00115944 0.000347864 0.000347818 1.08949e-11
-0.000990893 0.000297135 0.000297325 -7.18045e-06
-0.000828374 0.000248236 0.00024863 -1.32577e-05
-0.00099694 0.000298947 0.00029914 -7.18043e-06
-0.000993916 0.000298041 0.000298232 -7.18044e-06
-0.00115591 0.000346806 0.00034676 1.08696e-11
-0.00114886 0.00034469 0.000344644 1.08257e-11
-0.000820812 0.000245973 0.000246359 -1.32577e-05
-0.000825853 0.000247482 0.000247873 -1.32577e-05
-0.00115239 0.000345748 0.000345702 1.08456e-11
-0.000984845 0.000295322 0.00029551 -7.18047e-06
-0.000823332 0.000246728 0.000247116 -1.32577e-05
-0.000990893 0.000297135 0.000297325 -7.18045e-06
-0.000987869 0.000296228 0.000296417 -7.18046e-06
-0.00114886 0.00034469 0.000344644 1.08257e-11
-0.00114181 0.000342574 0.000342528 1.07633e-11
-0.000815771 0.000244464 0.000244846 -1.32577e-05
-0.000820812 0.000245973 0.000246359 -1.32577e-05
-0.00114533 0.000343632 0.000343586 1.07855e-11
-0.000978798 0.00029351 0.000293695 -7.18049e-06
-0.000818291 0.000245219 0.000245603 -1.32577e-05
-0.000984845 0.000295322 0.00029551 -7.18047e-06
-0.000981822 0.000294416 0.000294602 -7.18048e-06
-0.00114181 0.000342574 0.000342528 1.07633e-11
-0.00113475 0.000340459 0.000340413 1.06961e-11
-0.00081073 0.000242956 0.000243332 -1.32578e-05
-0.000815771 0.000244464 0.000244846 -1.32577e-05
-0.00113828 0.000341516 0.000341471 1.07245e-11
-0.000972751 0.000291698 0.00029188 -7.18051e-06
-0.00081325 0.00024371 0.000244089 -1.32578e-05
-0.000978798 0.00029351 0.000293695 -7.18049e-06
-0.000975775 0.000292604 0.000292788 -7.1805e-06
-0.00113475 0.000340459 0.000340413 1.07027e-11
-0.0011277 0.000338343 0.000338297 1.06445e-11
-0.000805689 0.000241447 0.000241818 -1.32578e-05
-0.00081073 0.000242956 0.000243332 -1.32578e-05
-0.00113123 0.000339401 0.000339355 1.06713e-11
-0.000966705 0.000289886 0.000290065 -7.18053e-06
-0.000808209 0.000242201 0.000242575 -1.32578e-05
-0.000972751 0.000291698 0.00029188 -7.18051e-06
-0.000969728 0.000290792 0.000290973 -7.18052e-06
-0.0011277 0.000338343 0.000338297 1.06445e-11
-0.00112065 0.000336227 0.000336181 1.05786e-11
-0.000800648 0.000239938 0.000240304 -1.32578e-05
-0.000805689 0.000241447 0.000241818 -1.32578e-05
-0.00112418 0.000337285 0.000337239 1.06196e-11
-0.000960658 0.000288073 0.00028825 -7.18055e-06
-0.000803168 0.000240692 0.000241061 -1.32578e-05
-0.000966705 0.000289886 0.000290065 -7.18053e-06
-0.000963681 0.00028898 0.000289158 -7.18054e-06
-0.00112065 0.000336227 0.000336181 1.05811e-11
-0.0011136 0.000334111 0.000334066 1.05059e-11
-0.000795607 0.000238429 0.00023879 -1.32578e-05
-0.000800648 0.000239938 0.000240304 -1.32578e-05
-0.00111712 0.000335169 0.000335123 1.05381e-11
-0.000954611 0.000286261 0.000286436 -7.18057e-06
-0.000798127 0.000239183 0.000239547 -1.32578e-05
-0.000960658 0.000288073 0.00028825 -7.18055e-06
-0.000957634 0.000287167 0.000287343 -7.18056e-06
-0.0011136 0.000334111 0.000334066 1.05059e-11
-0.00110654 0.000331995 0.00033195 1.0451e-11
-0.000790566 0.00023692 0.000237277 -1.32579e-05
-0.000795607 0.000238429 0.00023879 -1.32578e-05
-0.00111007 0.000333053 0.000333008 1.0476e-11
-0.000948564 0.000284449 0.000284621 -7.18058e-06
-0.000793086 0.000237675 0.000238033 -1.32579e-05
-0.000954611 0.000286261 0.000286436 -7.18057e-06
-0.000951587 0.000285355 0.000285528 -7.18058e-06
-0.00110654 0.000331995 0.00033195 1.0451e-11
-0.00109949 0.000329879 0.000329834 1.03668e-11
-0.000785525 0.000235411 0.000235763 -1.32579e-05
-0.000790566 0.00023692 0.000237277 -1.32579e-05
-0.00110302 0.000330937 0.000330892 1.0403e-11
-0.000942517 0.000282637 0.000282806 -7.1806e-06
-0.000788045 0.000236166 0.00023652 -1.32579e-05
-0.000948564 0.000284449 0.000284621 -7.18058e-06
-0.000945541 0.000283543 0.000283713 -7.18059e-06
-0.00109949 0.000329879 0.000329834 1.03668e-11
-0.00109244 0.000327763 0.000327718 1.03043e-11
-0.000780484 0.000233902 0.000234249 -1.32579e-05
-0.000785525 0.000235411 0.000235763 -1.32579e-05
-0.00109597 0.000328821 0.000328776 1.03391e-11
-0.00093647 0.000280824 0.000280991 -7.18062e-06
-0.000783004 0.000234657 0.000235006 -1.32579e-05
-0.000942517 0.000282637 0.000282806 -7.1806e-06
-0.000939494 0.000281731 0.000281899 -7.18061e-06
-0.00109244 0.000327763 0.000327718 1.03043e-11
-0.00108539 0.000325648 0.000325603 1.02386e-11
-0.000775443 0.000232394 0.000232735 -1.32579e-05
-0.000780484 0.000233902 0.000234249 -1.32579e-05
-0.00108891 0.000326705 0.000326661 1.02739e-11
-0.000930424 0.000279012 0.000279176 -7.18064e-06
-0.000777963 0.000233148 0.000233492 -1.32579e-05
-0.00093647 0.000280824 0.000280991 -7.18062e-06
-0.000933447 0.000279918 0.000280084 -7.18063e-06
-0.00108539 0.000325648 0.000325603 1.02394e-11
-0.00107834 0.000323532 0.000323487 1.01618e-11
-0.000770402 0.000230885 0.000231222 -1.3258e-05
-0.000775443 0.000232394 0.000232735 -1.32579e-05
-0.00108186 0.00032459 0.000324545 1.01985e-11
-0.000924377 0.0002772 0.000277362 -7.18065e-06
-0.000772923 0.000231639 0.000231979 -1.32579e-05
-0.000930424 0.000279012 0.000279176 -7.18064e-06
-0.0009274 0.000278106 0.000278269 -7.18064e-06
-0.00107834 0.000323532 0.000323487 1.01618e-11
-0.00107128 0.000321416 0.000321371 1.00914e-11
-0.000765361 0.000229376 0.000229708 -1.3258e-05
-0.000770402 0.000230885 0.000231222 -1.3258e-05
-0.00107481 0.000322474 0.000322429 1.01376e-11
-0.00091833 0.000275388 0.000275547 -7.18067e-06
-0.000767882 0.00023013 0.000230465 -1.3258e-05
-0.000924377 0.0002772 0.000277362 -7.18065e-06
-0.000921354 0.000276294 0.000276454 -7.18066e-06
-0.00107128 0.000321416 0.000321371 1.00922e-11
-0.00106423 0.0003193 0.000319256 1.00289e-11
-0.000760321 0.000227867 0.000228195 -1.3258e-05
-0.000765361 0.000229376 0.000229708 -1.3258e-05
-0.00106776 0.000320358 0.000320314 1.006e-11
-0.000912284 0.000273575 0.000273732 -7.18069e-06
-0.000762841 0.000228621 0.000228951 -1.3258e-05
-0.00091833 0.000275388 0.000275547 -7.18067e-06
-0.000915307 0.000274482 0.000274639 -7.18068e-06
-0.00106423 0.0003193 0.000319256 1.00289e-11
-0.00105718 0.000317184 0.00031714 9.95367e-12
-0.00075528 0.000226358 0.000226681 -1.3258e-05
-0.000760321 0.000227867 0.000228195 -1.3258e-05
-0.0010607 0.000318242 0.000318198 9.99528e-12
-0.000906237 0.000271763 0.000271917 -7.1807e-06
-0.0007578 0.000227112 0.000227438 -1.3258e-05
-0.000912284 0.000273575 0.000273732 -7.18069e-06
-0.00090926 0.000272669 0.000272825 -7.18069e-06
-0.00105718 0.000317184 0.00031714 9.9537e-12
-0.00105013 0.000315068 0.000315025 9.88609e-12
-0.000750239 0.000224849 0.000225167 -1.3258e-05
-0.00075528 0.000226358 0.000226681 -1.3258e-05
-0.00105365 0.000316126 0.000316082 9.90646e-12
-0.00090019 0.000269951 0.000270103 -7.18072e-06
-0.00075276 0.000225603 0.000225924 -1.3258e-05
-0.000906237 0.000271763 0.000271917 -7.1807e-06
-0.000903214 0.000270857 0.00027101 -7.18071e-06
-0.00105013 0.000315068 0.000315025 9.88609e-12
-0.00104307 0.000312953 0.000312909 9.83584e-12
-0.000745199 0.00022334 0.000223654 -1.32581e-05
-0.000750239 0.000224849 0.000225167 -1.3258e-05
-0.0010466 0.000314011 0.000313967 9.86609e-12
-0.000894144 0.000268139 0.000268288 -7.18073e-06
-0.000747719 0.000224095 0.000224411 -1.32581e-05
-0.00090019 0.000269951 0.000270103 -7.18072e-06
-0.000897167 0.000269045 0.000269195 -7.18073e-06
-0.00104307 0.000312953 0.000312909 9.84246e-12
-0.00103602 0.000310837 0.000310793 9.73084e-12
-0.000740158 0.000221831 0.00022214 -1.32581e-05
-0.000745199 0.00022334 0.000223654 -1.32581e-05
-0.00103955 0.000311895 0.000311851 9.80249e-12
-0.000888097 0.000266326 0.000266473 -7.18075e-06
-0.000742679 0.000222586 0.000222897 -1.32581e-05
-0.000894144 0.000268139 0.000268288 -7.18073e-06
-0.000891121 0.000267233 0.000267381 -7.18074e-06
-0.00103602 0.000310837 0.000310793 9.73084e-12
-0.00102897 0.000308721 0.000308678 9.67854e-12
-0.000735118 0.000220322 0.000220627 -1.32581e-05
-0.000740158 0.000221831 0.00022214 -1.32581e-05
-0.0010325 0.000309779 0.000309735 9.70316e-12
-0.000882051 0.000264514 0.000264659 -7.18077e-06
-0.000737638 0.000221077 0.000221383 -1.32581e-05
-0.000888097 0.000266326 0.000266473 -7.18075e-06
-0.000885074 0.00026542 0.000265566 -7.18076e-06
-0.00102897 0.000308721 0.000308678 9.67854e-12
-0.00102192 0.000306605 0.000306562 9.61581e-12
-0.000730077 0.000218813 0.000219113 -1.32581e-05
-0.000735118 0.000220322 0.000220627 -1.32581e-05
-0.00102544 0.000307663 0.00030762 9.66284e-12
-0.000876005 0.000262702 0.000262844 -7.18078e-06
-0.000732598 0.000219568 0.00021987 -1.32581e-05
-0.000882051 0.000264514 0.000264659 -7.18077e-06
-0.000879028 0.000263608 0.000263751 -7.18077e-06
-0.00102192 0.000306605 0.000306562 9.61085e-12
-0.00101486 0.00030449 0.000304446 9.53649e-12
-0.000725037 0.000217304 0.0002176 -1.32581e-05
-0.000730077 0.000218813 0.000219113 -1.32581e-05
-0.00101839 0.000305548 0.000305504 9.57513e-12
-0.000869958 0.00026089 0.000261029 -7.1808e-06
-0.000727557 0.000218059 0.000218356 -1.32581e-05
-0.000876005 0.000262702 0.000262844 -7.18078e-06
-0.000872981 0.000261796 0.000261937 -7.18079e-06
-0.00101486 0.00030449 0.000304446 9.54474e-12
-0.00100781 0.000302374 0.000302331 9.47348e-12
-0.000719997 0.000215795 0.000216086 -1.32582e-05
-0.000725037 0.000217304 0.0002176 -1.32581e-05
-0.00101134 0.000303432 0.000303389 9.51763e-12
-0.000863912 0.000259077 0.000259215 -7.18081e-06
-0.000722517 0.00021655 0.000216843 -1.32582e-05
-0.000869958 0.00026089 0.000261029 -7.1808e-06
-0.000866935 0.000259984 0.000260122 -7.18081e-06
-0.00100781 0.000302374 0.000302331 9.47348e-12
-0.00100076 0.000300258 0.000300215 9.40802e-12
-0.000714956 0.000214286 0.000214573 -1.32582e-05
-0.000719997 0.000215795 0.000216086 -1.32582e-05
-0.00100429 0.000301316 0.000301273 9.43363e-12
-0.000857866 0.000257265 0.0002574 -7.18083e-06
-0.000717476 0.000215041 0.00021533 -1.32582e-05
-0.000863912 0.000259077 0.000259215 -7.18081e-06
-0.000860889 0.000258171 0.000258307 -7.18082e-06
-0.00100076 0.000300258 0.000300215 9.40802e-12
-0.000993708 0.000298143 0.0002981 9.33387e-12
-0.000709916 0.000212777 0.000213059 -1.32582e-05
-0.000714956 0.000214286 0.000214573 -1.32582e-05
-0.000997235 0.0002992 0.000299157 9.37588e-12
-0.000851819 0.000255453 0.000255586 -7.18084e-06
-0.000712436 0.000213532 0.000213816 -1.32582e-05
-0.000857866 0.000257265 0.0002574 -7.18083e-06
-0.000854842 0.000256359 0.000256493 -7.18084e-06
-0.000993708 0.000298143 0.0002981 9.3355e-12
-0.000986656 0.000296027 0.000295984 9.26688e-12
-0.000704876 0.000211268 0.000211546 -1.32582e-05
-0.000709916 0.000212777 0.000213059 -1.32582e-05
-0.000990182 0.000297085 0.000297042 9.30418e-12
-0.000845773 0.000253641 0.000253771 -7.18086e-06
-0.000707396 0.000212023 0.000212303 -1.32582e-05
-0.000851819 0.000255453 0.000255586 -7.18084e-06
-0.000848796 0.000254547 0.000254678 -7.18085e-06
-0.000986656 0.000296027 0.000295984 9.26689e-12
-0.000979604 0.000293911 0.000293869 9.19538e-12
-0.000699836 0.000209759 0.000210033 -1.32582e-05
-0.000704876 0.000211268 0.000211546 -1.32582e-05
-0.00098313 0.000294969 0.000294926 9.22243e-12
-0.000839727 0.000251828 0.000251957 -7.18087e-06
-0.000702356 0.000210514 0.000210789 -1.32582e-05
-0.000845773 0.000253641 0.000253771 -7.18086e-06
-0.00084275 0.000252735 0.000252864 -7.18087e-06
-0.000979604 0.000293911 0.000293869 9.19538e-12
-0.000972553 0.000291796 0.000291753 9.14066e-12
-0.000694795 0.00020825 0.000208519 -1.32583e-05
-0.000699836 0.000209759 0.000210033 -1.32582e-05
-0.000976079 0.000292853 0.000292811 9.16661e-12
-0.000833681 0.000250016 0.000250142 -7.18089e-06
-0.000697316 0.000209005 0.000209276 -1.32582e-05
-0.000839727 0.000251828 0.000251957 -7.18087e-06
-0.000836704 0.000250922 0.000251049 -7.18088e-06
-0.000972553 0.000291796 0.000291753 9.14066e-12
-0.000965501 0.00028968 0.000289637 9.05483e-12
-0.000689755 0.000206741 0.000207006 -1.32583e-05
-0.000694795 0.00020825 0.000208519 -1.32583e-05
-0.000969027 0.000290738 0.000290695 9.09972e-12
-0.000827635 0.000248204 0.000248327 -7.1809e-06
-0.000692275 0.000207496 0.000207763 -1.32583e-05
-0.000833681 0.000250016 0.000250142 -7.18089e-06
-0.000830658 0.00024911 0.000249235 -7.1809e-06
-0.000965501 0.00028968 0.000289637 9.0548e-12
-0.000958449 0.000287564 0.000287522 8.99206e-12
-0.000684715 0.000205232 0.000205493 -1.32583e-05
-0.000689755 0.000206741 0.000207006 -1.32583e-05
-0.000961975 0.000288622 0.00028858 9.01843e-12
-0.000821589 0.000246392 0.000246513 -7.18092e-06
-0.000687235 0.000205987 0.000206249 -1.32583e-05
-0.000827635 0.000248204 0.000248327 -7.1809e-06
-0.000824612 0.000247298 0.00024742 -7.18091e-06
-0.000958449 0.000287564 0.000287522 8.99206e-12
-0.000951397 0.000285449 0.000285406 8.93377e-12
-0.000679675 0.000203723 0.000203979 -1.32583e-05
-0.000684715 0.000205232 0.000205493 -1.32583e-05
-0.000954923 0.000286506 0.000286464 8.95677e-12
-0.000815543 0.000244579 0.000244698 -7.18093e-06
-0.000682195 0.000204478 0.000204736 -1.32583e-05
-0.000821589 0.000246392 0.000246513 -7.18092e-06
-0.000818566 0.000245486 0.000245606 -7.18093e-06
-0.000951397 0.000285449 0.000285406 8.93377e-12
-0.000944345 0.000283333 0.000283291 8.86725e-12
-0.000674635 0.000202214 0.000202466 -1.32583e-05
-0.000679675 0.000203723 0.000203979 -1.32583e-05
-0.000947871 0.000284391 0.000284349 8.89003e-12
-0.000809497 0.000242767 0.000242884 -7.18095e-06
-0.000677155 0.000202969 0.000203223 -1.32583e-05
-0.000815543 0.000244579 0.000244698 -7.18093e-06
-0.00081252 0.000243673 0.000243791 -7.18094e-06
-0.000944345 0.000283333 0.000283291 8.86725e-12
-0.000937293 0.000281217 0.000281175 8.79513e-12
-0.000669595 0.000200705 0.000200953 -1.32583e-05
-0.000674635 0.000202214 0.000202466 -1.32583e-05
-0.000940819 0.000282275 0.000282233 8.81934e-12
-0.000803451 0.000240955 0.00024107 -7.18096e-06
-0.000672115 0.00020146 0.00020171 -1.32583e-05
-0.000809497 0.000242767 0.000242884 -7.18095e-06
-0.000806474 0.000241861 0.000241977 -7.18095e-06
-0.000937293 0.000281217 0.000281175 8.78185e-12
-0.000930241 0.000279102 0.00027906 8.7224e-12
-0.000664556 0.000199196 0.00019944 -1.32584e-05
-0.000669595 0.000200705 0.000200953 -1.32583e-05
-0.000933767 0.000280159 0.000280118 8.74578e-12
-0.000797405 0.000239143 0.000239255 -7.18098e-06
-0.000667075 0.000199951 0.000200196 -1.32584e-05
-0.000803451 0.000240955 0.00024107 -7.18096e-06
-0.000800428 0.000240049 0.000240162 -7.18097e-06
-0.000930241 0.000279102 0.00027906 8.70916e-12
-0.00092319 0.000276986 0.000276944 8.65302e-12
-0.000659516 0.000197687 0.000197927 -1.32584e-05
-0.000664556 0.000199196 0.00019944 -1.32584e-05
-0.000926716 0.000278044 0.000278002 8.68027e-12
-0.000791359 0.00023733 0.000237441 -7.18099e-06
-0.000662036 0.000198441 0.000198683 -1.32584e-05
-0.000797405 0.000239143 0.000239255 -7.18098e-06
-0.000794382 0.000238237 0.000238348 -7.18098e-06
-0.00092319 0.000276986 0.000276944 8.65302e-12
-0.000916138 0.00027487 0.000274829 8.58297e-12
-0.000654476 0.000196178 0.000196413 -1.32584e-05
-0.000659516 0.000197687 0.000197927 -1.32584e-05
-0.000919664 0.000275928 0.000275887 8.60233e-12
-0.000785313 0.000235518 0.000235626 -7.181e-06
-0.000656996 0.000196932 0.00019717 -1.32584e-05
-0.000791359 0.00023733 0.000237441 -7.18099e-06
-0.000788336 0.000236424 0.000236534 -7.181e-06
-0.000916138 0.00027487 0.000274829 8.58297e-12
-0.000909086 0.000272755 0.000272713 8.5033e-12
-0.000649436 0.000194669 0.0001949 -1.32584e-05
-0.000654476 0.000196178 0.000196413 -1.32584e-05
-0.000912612 0.000273813 0.000273771 8.54345e-12
-0.000779267 0.000233706 0.000233812 -7.18102e-06
-0.000651956 0.000195423 0.000195657 -1.32584e-05
-0.000785313 0.000235518 0.000235626 -7.181e-06
-0.00078229 0.000234612 0.000234719 -7.18101e-06
-0.000909086 0.000272755 0.000272713 8.49832e-12
-0.000902035 0.000270639 0.000270598 8.43301e-12
-0.000644396 0.00019316 0.000193387 -1.32584e-05
-0.000649436 0.000194669 0.0001949 -1.32584e-05
-0.00090556 0.000271697 0.000271656 8.4726e-12
-0.000773221 0.000231894 0.000231998 -7.18103e-06
-0.000646916 0.000193914 0.000194144 -1.32584e-05
-0.000779267 0.000233706 0.000233812 -7.18102e-06
-0.000776244 0.0002328 0.000232905 -7.18103e-06
-0.000902035 0.000270639 0.000270598 8.44131e-12
-0.000894983 0.000268524 0.000268483 8.37461e-12
-0.000639357 0.00019165 0.000191874 -1.32585e-05
-0.000644396 0.00019316 0.000193387 -1.32584e-05
-0.000898509 0.000269581 0.00026954 8.41015e-12
-0.000767176 0.000230081 0.000230183 -7.18105e-06
-0.000641877 0.000192405 0.000192631 -1.32584e-05
-0.000773221 0.000231894 0.000231998 -7.18103e-06
-0.000770198 0.000230988 0.00023109 -7.18104e-06
-0.000894983 0.000268524 0.000268483 8.37461e-12
-0.000887931 0.000266408 0.000266367 8.30737e-12
-0.000634317 0.000190141 0.000190361 -1.32585e-05
-0.000639357 0.00019165 0.000191874 -1.32585e-05
-0.000891457 0.000267466 0.000267425 8.32642e-12
-0.00076113 0.000228269 0.000228369 -7.18106e-06
-0.000636837 0.000190896 0.000191118 -1.32585e-05
-0.000767176 0.000230081 0.000230183 -7.18105e-06
-0.000764153 0.000229175 0.000229276 -7.18105e-06
-0.000887931 0.000266408 0.000266367 8.30737e-12
-0.00088088 0.000264293 0.000264252 8.23615e-12
-0.000629278 0.000188632 0.000188848 -1.32585e-05
-0.000634317 0.000190141 0.000190361 -1.32585e-05
-0.000884406 0.00026535 0.000265309 8.27349e-12
-0.000755084 0.000226457 0.000226555 -7.18108e-06
-0.000631797 0.000189387 0.000189604 -1.32585e-05
-0.00076113 0.000228269 0.000228369 -7.18106e-06
-0.000758107 0.000227363 0.000227462 -7.18107e-06
-0.00088088 0.000264293 0.000264252 8.23615e-12
-0.000873828 0.000262177 0.000262136 8.18071e-12
-0.000624238 0.000187123 0.000187335 -1.32585e-05
-0.000629278 0.000188632 0.000188848 -1.32585e-05
-0.000877354 0.000263235 0.000263194 8.199e-12
-0.000749039 0.000224645 0.00022474 -7.18109e-06
-0.000626758 0.000187878 0.000188091 -1.32585e-05
-0.000755084 0.000226457 0.000226555 -7.18108e-06
-0.000752061 0.000225551 0.000225647 -7.18108e-06
-0.000873828 0.000262177 0.000262136 8.17409e-12
-0.000866777 0.000260061 0.000260021 8.10023e-12
-0.000619198 0.000185614 0.000185822 -1.32585e-05
-0.000624238 0.000187123 0.000187335 -1.32585e-05
-0.000870303 0.000261119 0.000261079 8.12301e-12
-0.000742993 0.000222832 0.000222926 -7.1811e-06
-0.000621718 0.000186369 0.000186578 -1.32585e-05
-0.000749039 0.000224645 0.00022474 -7.18109e-06
-0.000746016 0.000223739 0.000223833 -7.1811e-06
-0.000866777 0.000260061 0.000260021 8.10023e-12
-0.000859725 0.000257946 0.000257905 8.03791e-12
-0.000614159 0.000184105 0.000184309 -1.32585e-05
-0.000619198 0.000185614 0.000185822 -1.32585e-05
-0.000863251 0.000259004 0.000258963 8.0839e-12
-0.000736947 0.00022102 0.000221112 -7.18112e-06
-0.000616679 0.000184859 0.000185065 -1.32585e-05
-0.000742993 0.000222832 0.000222926 -7.1811e-06
-0.00073997 0.000221926 0.000222019 -7.18111e-06
-0.000859725 0.000257946 0.000257905 8.03791e-12
-0.000852674 0.00025583 0.00025579 7.9542e-12
-0.00060912 0.000182596 0.000182796 -1.32586e-05
-0.000614159 0.000184105 0.000184309 -1.32585e-05
-0.0008562 0.000256888 0.000256848 7.99373e-12
-0.000730902 0.000219208 0.000219297 -7.18113e-06
-0.000611639 0.00018335 0.000183552 -1.32585e-05
-0.000736947 0.00022102 0.000221112 -7.18112e-06
-0.000733925 0.000220114 0.000220205 -7.18112e-06
-0.000852674 0.00025583 0.00025579 7.96245e-12
-0.000845623 0.000253715 0.000253675 7.88118e-12
-0.00060408 0.000181086 0.000181283 -1.32586e-05
-0.00060912 0.000182596 0.000182796 -1.32586e-05
-0.000849148 0.000254773 0.000254732 7.91868e-12
-0.000724857 0.000217396 0.000217483 -7.18114e-06
-0.0006066 0.000181841 0.00018204 -1.32586e-05
-0.000730902 0.000219208 0.000219297 -7.18113e-06
-0.000727879 0.000218302 0.00021839 -7.18114e-06
-0.000845623 0.000253715 0.000253675 7.87951e-12
-0.000838571 0.000251599 0.000251559 7.81917e-12
-0.000599041 0.000179577 0.00017977 -1.32586e-05
-0.00060408 0.000181086 0.000181283 -1.32586e-05
-0.000842097 0.000252657 0.000252617 7.87968e-12
-0.000718811 0.000215583 0.000215669 -7.18116e-06
-0.000601561 0.000180332 0.000180527 -1.32586e-05
-0.000724857 0.000217396 0.000217483 -7.18114e-06
-0.000721834 0.000216489 0.000216576 -7.18115e-06
-0.000838571 0.000251599 0.000251559 7.81917e-12
-0.00083152 0.000249484 0.000249444 7.76549e-12
-0.000594002 0.000178068 0.000178257 -1.32586e-05
-0.000599041 0.000179577 0.00017977 -1.32586e-05
-0.000835045 0.000250542 0.000250502 7.7924e-12
-0.000712766 0.000213771 0.000213855 -7.18117e-06
-0.000596521 0.000178823 0.000179014 -1.32586e-05
-0.000718811 0.000215583 0.000215669 -7.18116e-06
-0.000715788 0.000214677 0.000214762 -7.18117e-06
-0.00083152 0.000249484 0.000249444 7.76549e-12
-0.000824469 0.000247368 0.000247329 7.68665e-12
-0.000588962 0.000176559 0.000176744 -1.32586e-05
-0.000594002 0.000178068 0.000178257 -1.32586e-05
-0.000827994 0.000248426 0.000248386 7.73065e-12
-0.00070672 0.000211959 0.000212041 -7.18119e-06
-0.000591482 0.000177313 0.000177501 -1.32586e-05
-0.000712766 0.000213771 0.000213855 -7.18117e-06
-0.000709743 0.000212865 0.000212948 -7.18118e-06
-0.000824469 0.000247368 0.000247329 7.69324e-12
-0.000817417 0.000245253 0.000245213 7.62033e-12
-0.000583923 0.00017505 0.000175232 -1.32586e-05
-0.000588962 0.000176559 0.000176744 -1.32586e-05
-0.000820943 0.000246311 0.000246271 7.66159e-12
-0.000700675 0.000210147 0.000210226 -7.1812e-06
-0.000586443 0.000175804 0.000175988 -1.32586e-05
-0.00070672 0.000211959 0.000212041 -7.18119e-06
-0.000703698 0.000211053 0.000211134 -7.18119e-06
-0.000817417 0.000245253 0.000245213 7.60873e-12
-0.000810366 0.000243138 0.000243098 7.55205e-12
-0.000578884 0.00017354 0.000173719 -1.32587e-05
-0.000583923 0.00017505 0.000175232 -1.32586e-05
-0.000813892 0.000244195 0.000244156 7.57304e-12
-0.00069463 0.000208334 0.000208412 -7.18121e-06
-0.000581404 0.000174295 0.000174475 -1.32586e-05
-0.000700675 0.000210147 0.000210226 -7.1812e-06
-0.000697652 0.00020924 0.000209319 -7.18121e-06
-0.000810366 0.000243138 0.000243098 7.55205e-12
-0.000803315 0.000241022 0.000240983 7.49333e-12
-0.000573845 0.000172031 0.000172206 -1.32587e-05
-0.000578884 0.00017354 0.000173719 -1.32587e-05
-0.00080684 0.00024208 0.00024204 7.51662e-12
-0.000688585 0.000206522 0.000206598 -7.18123e-06
-0.000576365 0.000172786 0.000172962 -1.32587e-05
-0.00069463 0.000208334 0.000208412 -7.18121e-06
-0.000691607 0.000207428 0.000207505 -7.18122e-06
-0.000803315 0.000241022 0.000240983 7.49333e-12
-0.000796264 0.000238907 0.000238867 7.42236e-12
-0.000568806 0.000170522 0.000170693 -1.32587e-05
-0.000573845 0.000172031 0.000172206 -1.32587e-05
-0.000799789 0.000239964 0.000239925 7.44877e-12
-0.000682539 0.00020471 0.000204784 -7.18124e-06
-0.000571325 0.000171277 0.00017145 -1.32587e-05
-0.000688585 0.000206522 0.000206598 -7.18123e-06
-0.000685562 0.000205616 0.000205691 -7.18123e-06
-0.000796264 0.000238907 0.000238867 7.42235e-12
-0.000789212 0.000236791 0.000236752 7.35321e-12
-0.000563767 0.000169013 0.00016918 -1.32587e-05
-0.000568806 0.000170522 0.000170693 -1.32587e-05
-0.000792738 0.000237849 0.00023781 7.39782e-12
-0.000676494 0.000202898 0.00020297 -7.18126e-06
-0.000566286 0.000169767 0.000169937 -1.32587e-05
-0.000682539 0.00020471 0.000204784 -7.18124e-06
-0.000679517 0.000203804 0.000203877 -7.18125e-06
-0.000789212 0.000236791 0.000236752 7.34e-12
-0.000782161 0.000234676 0.000234637 7.28846e-12
-0.000558728 0.000167503 0.000167668 -1.32587e-05
-0.000563767 0.000169013 0.00016918 -1.32587e-05
-0.000785687 0.000235734 0.000235694 7.33411e-12
-0.000670449 0.000201085 0.000201156 -7.18127e-06
-0.000561247 0.000168258 0.000168424 -1.32587e-05
-0.000676494 0.000202898 0.00020297 -7.18126e-06
-0.000673472 0.000201991 0.000202063 -7.18126e-06
-0.000782161 0.000234676 0.000234637 7.28846e-12
-0.00077511 0.00023256 0.000232521 7.23569e-12
-0.000553689 0.000165994 0.000166155 -1.32587e-05
-0.000558728 0.000167503 0.000167668 -1.32587e-05
-0.000778636 0.000233618 0.000233579 7.27549e-12
-0.000664404 0.000199273 0.000199342 -7.18128e-06
-0.000556209 0.000166749 0.000166911 -1.32587e-05
-0.000670449 0.000201085 0.000201156 -7.18127e-06
-0.000667427 0.000200179 0.000200249 -7.18128e-06
-0.00077511 0.00023256 0.000232521 7.23569e-12
-0.000768059 0.000230445 0.000230406 7.13649e-12
-0.00054865 0.000164485 0.000164642 -1.32588e-05
-0.000553689 0.000165994 0.000166155 -1.32587e-05
-0.000771585 0.000231503 0.000231464 7.18029e-12
-0.000658359 0.000197461 0.000197528 -7.1813e-06
-0.00055117 0.00016524 0.000165399 -1.32587e-05
-0.000664404 0.000199273 0.000199342 -7.18128e-06
-0.000661381 0.000198367 0.000198435 -7.18129e-06
-0.000768059 0.000230445 0.000230406 7.1365e-12
-0.000761008 0.00022833 0.000228291 7.09378e-12
-0.000543611 0.000162976 0.00016313 -1.32588e-05
-0.00054865 0.000164485 0.000164642 -1.32588e-05
-0.000764534 0.000229387 0.000229348 7.10886e-12
-0.000652314 0.000195649 0.000195714 -7.18131e-06
-0.000546131 0.00016373 0.000163886 -1.32588e-05
-0.000658359 0.000197461 0.000197528 -7.1813e-06
-0.000655336 0.000196555 0.000196621 -7.1813e-06
-0.000761008 0.00022833 0.000228291 7.08217e-12
-0.000753957 0.000226214 0.000226176 7.03096e-12
-0.000538573 0.000161466 0.000161617 -1.32588e-05
-0.000543611 0.000162976 0.00016313 -1.32588e-05
-0.000757483 0.000227272 0.000227233 7.06569e-12
-0.000646269 0.000193836 0.0001939 -7.18132e-06
-0.000541092 0.000162221 0.000162373 -1.32588e-05
-0.000652314 0.000195649 0.000195714 -7.18131e-06
-0.000649291 0.000194742 0.000194807 -7.18132e-06
-0.000753957 0.000226214 0.000226176 7.03096e-12
-0.000746906 0.000224099 0.00022406 6.95282e-12
-0.000533534 0.000159957 0.000160104 -1.32588e-05
-0.000538573 0.000161466 0.000161617 -1.32588e-05
-0.000750432 0.000225157 0.000225118 6.97761e-12
-0.000640224 0.000192024 0.000192086 -7.18134e-06
-0.000536053 0.000160712 0.000160861 -1.32588e-05
-0.000646269 0.000193836 0.0001939 -7.18132e-06
-0.000643247 0.00019293 0.000192993 -7.18133e-06
-0.000746906 0.000224099 0.00022406 6.95282e-12
-0.000739855 0.000221984 0.000221945 6.87117e-12
-0.000528495 0.000158448 0.000158592 -1.32588e-05
-0.000533534 0.000159957 0.000160104 -1.32588e-05
-0.000743381 0.000223041 0.000223003 6.92711e-12
-0.000634179 0.000190212 0.000190272 -7.18135e-06
-0.000531014 0.000159202 0.000159348 -1.32588e-05
-0.000640224 0.000192024 0.000192086 -7.18134e-06
-0.000637202 0.000191118 0.000191179 -7.18134e-06
-0.000739855 0.000221984 0.000221945 6.85963e-12
-0.000732804 0.000219868 0.00021983 6.80488e-12
-0.000523457 0.000156938 0.000157079 -1.32588e-05
-0.000528495 0.000158448 0.000158592 -1.32588e-05
-0.00073633 0.000220926 0.000220887 6.83517e-12
-0.000628134 0.0001884 0.000188458 -7.18137e-06
-0.000525976 0.000157693 0.000157835 -1.32588e-05
-0.000634179 0.000190212 0.000190272 -7.18135e-06
-0.000631157 0.000189306 0.000189365 -7.18136e-06
-0.000732804 0.000219868 0.00021983 6.80317e-12
-0.000725754 0.000217753 0.000217715 6.72779e-12
-0.000518418 0.000155429 0.000155567 -1.32589e-05
-0.000523457 0.000156938 0.000157079 -1.32588e-05
-0.000729279 0.00021881 0.000218772 6.77442e-12
-0.00062209 0.000186587 0.000186644 -7.18138e-06
-0.000520937 0.000156184 0.000156323 -1.32588e-05
-0.000628134 0.0001884 0.000188458 -7.18137e-06
-0.000625112 0.000187493 0.000187551 -7.18137e-06
-0.000725754 0.000217753 0.000217715 6.72779e-12
-0.000718703 0.000215637 0.000215599 6.68022e-12
-0.000513379 0.00015392 0.000154054 -1.32589e-05
-0.000518418 0.000155429 0.000155567 -1.32589e-05
-0.000722228 0.000216695 0.000216657 6.6925e-12
-0.000616045 0.000184775 0.00018483 -7.18139e-06
-0.000515899 0.000154674 0.00015481 -1.32589e-05
-0.00062209 0.000186587 0.000186644 -7.18138e-06
-0.000619067 0.000185681 0.000185737 -7.18139e-06
-0.000718703 0.000215637 0.000215599 6.68022e-12
-0.000711652 0.000213522 0.000213484 6.59981e-12
-0.000508341 0.00015241 0.000152542 -1.32589e-05
-0.000513379 0.00015392 0.000154054 -1.32589e-05
-0.000715177 0.00021458 0.000214542 6.62932e-12
-0.00061 0.000182963 0.000183016 -7.18141e-06
-0.00051086 0.000153165 0.000153298 -1.32589e-05
-0.000616045 0.000184775 0.00018483 -7.18139e-06
-0.000613022 0.000183869 0.000183923 -7.1814e-06
-0.000711652 0.000213522 0.000213484 6.61311e-12
-0.000704601 0.000211407 0.000211369 6.54799e-12
-0.000503302 0.000150901 0.000151029 -1.32589e-05
-0.000508341 0.00015241 0.000152542 -1.32589e-05
-0.000708127 0.000212464 0.000212427 6.59165e-12
-0.000603955 0.00018115 0.000181202 -7.18142e-06
-0.000505822 0.000151656 0.000151785 -1.32589e-05
-0.00061 0.000182963 0.000183016 -7.18141e-06
-0.000606978 0.000182057 0.000182109 -7.18141e-06
-0.000704601 0.000211407 0.000211369 6.53635e-12
-0.00069755 0.000209292 0.000209254 6.46102e-12
-0.000498264 0.000149392 0.000149517 -1.32589e-05
-0.000503302 0.000150901 0.000151029 -1.32589e-05
-0.000701076 0.000210349 0.000210311 6.51019e-12
-0.000597911 0.000179338 0.000179388 -7.18144e-06
-0.000500783 0.000150146 0.000150273 -1.32589e-05
-0.000603955 0.00018115 0.000181202 -7.18142e-06
-0.000600933 0.000180244 0.000180295 -7.18143e-06
-0.00069755 0.000209292 0.000209254 6.46102e-12
-0.0006905 0.000207176 0.000207139 6.40954e-12
-0.000493226 0.000147882 0.000148004 -1.32589e-05
-0.000498264 0.000149392 0.000149517 -1.32589e-05
-0.000694025 0.000208234 0.000208196 6.40595e-12
-0.000591866 0.000177526 0.000177574 -7.18145e-06
-0.000495745 0.000148637 0.00014876 -1.32589e-05
-0.000597911 0.000179338 0.000179388 -7.18144e-06
-0.000594888 0.000178432 0.000178481 -7.18144e-06
-0.0006905 0.000207176 0.000207139 6.40954e-12
-0.000683449 0.000205061 0.000205023 6.33208e-12
-0.000488187 0.000146373 0.000146492 -1.3259e-05
-0.000493226 0.000147882 0.000148004 -1.32589e-05
-0.000686974 0.000206119 0.000206081 6.37339e-12
-0.000585821 0.000175714 0.00017576 -7.18146e-06
-0.000490706 0.000147128 0.000147248 -1.32589e-05
-0.000591866 0.000177526 0.000177574 -7.18145e-06
-0.000588844 0.00017662 0.000176667 -7.18146e-06
-0.000683449 0.000205061 0.000205023 6.34197e-12
-0.000676398 0.000202946 0.000202908 6.27828e-12
-0.000483149 0.000144864 0.000144979 -1.3259e-05
-0.000488187 0.000146373 0.000146492 -1.3259e-05
-0.000679924 0.000204003 0.000203966 6.29635e-12
-0.000579777 0.000173901 0.000173947 -7.18148e-06
-0.000485668 0.000145618 0.000145736 -1.3259e-05
-0.000585821 0.000175714 0.00017576 -7.18146e-06
-0.000582799 0.000174808 0.000174854 -7.18147e-06
-0.000676398 0.000202946 0.000202908 6.27833e-12
-0.000669348 0.00020083 0.000200793 6.18405e-12
-0.000478111 0.000143354 0.000143467 -1.3259e-05
-0.000483149 0.000144864 0.000144979 -1.3259e-05
-0.000672873 0.000201888 0.000201851 6.22564e-12
-0.000573732 0.000172089 0.000172133 -7.18149e-06
-0.00048063 0.000144109 0.000144223 -1.3259e-05
-0.000579777 0.000173901 0.000173947 -7.18148e-06
-0.000576755 0.000172995 0.00017304 -7.18149e-06
-0.000669348 0.00020083 0.000200793 6.18405e-12
-0.000662297 0.000198715 0.000198678 6.13232e-12
-0.000473072 0.000141845 0.000141955 -1.3259e-05
-0.000478111 0.000143354 0.000143467 -1.3259e-05
-0.000665822 0.000199773 0.000199736 6.14897e-12
-0.000567688 0.000170277 0.000170319 -7.18151e-06
-0.000475592 0.0001426 0.000142711 -1.3259e-05
-0.000573732 0.000172089 0.000172133 -7.18149e-06
-0.00057071 0.000171183 0.000171226 -7.1815e-06
-0.000662297 0.000198715 0.000198678 6.13232e-12
-0.000655247 0.0001966 0.000196563 6.07021e-12
-0.000468034 0.000140335 0.000140442 -1.3259e-05
-0.000473072 0.000141845 0.000141955 -1.3259e-05
-0.000658772 0.000197657 0.00019762 6.08589e-12
-0.000561644 0.000168465 0.000168505 -7.18152e-06
-0.000470553 0.00014109 0.000141199 -1.3259e-05
-0.000567688 0.000170277 0.000170319 -7.18151e-06
-0.000564666 0.000169371 0.000169412 -7.18151e-06
-0.000655247 0.0001966 0.000196563 6.07031e-12
-0.000648196 0.000194485 0.000194448 5.99863e-12
-0.000462996 0.000138826 0.00013893 -1.3259e-05
-0.000468034 0.000140335 0.000140442 -1.3259e-05
-0.000651721 0.000195542 0.000195505 6.04072e-12
-0.000555599 0.000166652 0.000166692 -7.18154e-06
-0.000465515 0.000139581 0.000139686 -1.3259e-05
-0.000561644 0.000168465 0.000168505 -7.18152e-06
-0.000558621 0.000167558 0.000167598 -7.18153e-06
-0.000648196 0.000194485 0.000194448 6.01203e-12
-0.000641146 0.000192369 0.000192333 5.91016e-12
-0.000457958 0.000137317 0.000137418 -1.32591e-05
-0.000462996 0.000138826 0.00013893 -1.3259e-05
-0.000644671 0.000193427 0.00019339 5.96571e-12
-0.000549555 0.00016484 0.000164878 -7.18155e-06
-0.000460477 0.000138071 0.000138174 -1.32591e-05
-0.000555599 0.000166652 0.000166692 -7.18154e-06
-0.000552577 0.000165746 0.000165785 -7.18154e-06
-0.000641146 0.000192369 0.000192333 5.91016e-12
-0.000634095 0.000190254 0.000190218 5.8595e-12
-0.00045292 0.000135807 0.000135906 -1.32591e-05
-0.000457958 0.000137317 0.000137418 -1.32591e-05
-0.00063762 0.000191312 0.000191275 5.89312e-12
-0.000543511 0.000163028 0.000163064 -7.18157e-06
-0.000455439 0.000136562 0.000136662 -1.32591e-05
-0.000549555 0.00016484 0.000164878 -7.18155e-06
-0.000546533 0.000163934 0.000163971 -7.18156e-06
-0.000634095 0.000190254 0.000190218 5.8595e-12
-0.000627045 0.000188139 0.000188102 5.76779e-12
-0.000447882 0.000134298 0.000134393 -1.32591e-05
-0.00045292 0.000135807 0.000135906 -1.32591e-05
-0.00063057 0.000189197 0.00018916 5.81208e-12
-0.000537466 0.000161215 0.00016125 -7.18158e-06
-0.000450401 0.000135052 0.000135149 -1.32591e-05
-0.000543511 0.000163028 0.000163064 -7.18157e-06
-0.000540488 0.000162122 0.000162157 -7.18157e-06
-0.000627045 0.000188139 0.000188102 5.79426e-12
-0.000619994 0.000186024 0.000185987 5.71293e-12
-0.000442844 0.000132788 0.000132881 -1.32591e-05
-0.000447882 0.000134298 0.000134393 -1.32591e-05
-0.00062352 0.000187081 0.000187045 5.74507e-12
-0.000531422 0.000159403 0.000159437 -7.1816e-06
-0.000445363 0.000133543 0.000133637 -1.32591e-05
-0.000537466 0.000161215 0.00016125 -7.18158e-06
-0.000534444 0.000160309 0.000160343 -7.18159e-06
-0.000619994 0.000186024 0.000185987 5.71303e-12
-0.000612944 0.000183909 0.000183872 5.66918e-12
-0.000437806 0.000131279 0.000131369 -1.32591e-05
-0.000442844 0.000132788 0.000132881 -1.32591e-05
-0.000616469 0.000184966 0.00018493 5.68431e-12
-0.000525378 0.000157591 0.000157623 -7.18161e-06
-0.000440325 0.000132033 0.000132125 -1.32591e-05
-0.000531422 0.000159403 0.000159437 -7.1816e-06
-0.0005284 0.000158497 0.00015853 -7.1816e-06
-0.000612944 0.000183909 0.000183872 5.66918e-12
-0.000605894 0.000181793 0.000181757 5.57153e-12
-0.000432768 0.000129769 0.000129857 -1.32592e-05
-0.000437806 0.000131279 0.000131369 -1.32591e-05
-0.000609419 0.000182851 0.000182815 5.5861e-12
-0.000519334 0.000155779 0.000155809 -7.18163e-06
-0.000435287 0.000130524 0.000130613 -1.32591e-05
-0.000525378 0.000157591 0.000157623 -7.18161e-06
-0.000522356 0.000156685 0.000156716 -7.18162e-06
-0.000605894 0.000181793 0.000181757 5.57153e-12
-0.000598843 0.000179678 0.000179642 5.49929e-12
-0.000427731 0.00012826 0.000128345 -1.32592e-05
-0.000432768 0.000129769 0.000129857 -1.32592e-05
-0.000602368 0.000180736 0.0001807 5.52614e-12
-0.00051329 0.000153966 0.000153996 -7.18164e-06
-0.000430249 0.000129014 0.000129101 -1.32592e-05
-0.000519334 0.000155779 0.000155809 -7.18163e-06
-0.000516312 0.000154873 0.000154902 -7.18163e-06
-0.000598843 0.000179678 0.000179642 5.49928e-12
-0.000591793 0.000177563 0.000177527 5.43448e-12
-0.000422693 0.00012675 0.000126833 -1.32592e-05
-0.000427731 0.00012826 0.000128345 -1.32592e-05
-0.000595318 0.000178621 0.000178585 5.45044e-12
-0.000507245 0.000152154 0.000152182 -7.18166e-06
-0.000425212 0.000127505 0.000127589 -1.32592e-05
-0.00051329 0.000153966 0.000153996 -7.18164e-06
-0.000510267 0.00015306 0.000153089 -7.18165e-06
-0.000591793 0.000177563 0.000177527 5.43113e-12
-0.000584743 0.000175448 0.000175412 5.38987e-12
-0.000417655 0.000125241 0.00012532 -1.32592e-05
-0.000422693 0.00012675 0.000126833 -1.32592e-05
-0.000588268 0.000176505 0.00017647 5.40883e-12
-0.000501201 0.000150342 0.000150368 -7.18167e-06
-0.000420174 0.000125995 0.000126076 -1.32592e-05
-0.000507245 0.000152154 0.000152182 -7.18166e-06
-0.000504223 0.000151248 0.000151275 -7.18166e-06
-0.000584743 0.000175448 0.000175412 5.38987e-12
-0.000577693 0.000173333 0.000173297 5.29702e-12
-0.000412617 0.000123731 0.000123808 -1.32592e-05
-0.000417655 0.000125241 0.00012532 -1.32592e-05
-0.000581218 0.00017439 0.000174355 5.32714e-12
-0.000495157 0.00014853 0.000148555 -7.18169e-06
-0.000415136 0.000124486 0.000124564 -1.32592e-05
-0.000501201 0.000150342 0.000150368 -7.18167e-06
-0.000498179 0.000149436 0.000149462 -7.18168e-06
-0.000577693 0.000173333 0.000173297 5.29702e-12
-0.000570642 0.000171217 0.000171182 5.23406e-12
-0.00040758 0.000122222 0.000122296 -1.32592e-05
-0.000412617 0.000123731 0.000123808 -1.32592e-05
-0.000574168 0.000172275 0.00017224 5.26036e-12
-0.000489113 0.000146717 0.000146741 -7.1817e-06
-0.000410099 0.000122976 0.000123052 -1.32592e-05
-0.000495157 0.00014853 0.000148555 -7.18169e-06
-0.000492135 0.000147623 0.000147648 -7.18169e-06
-0.000570642 0.000171217 0.000171182 5.2472e-12
-0.000563592 0.000169102 0.000169067 5.1951e-12
-0.000402542 0.000120712 0.000120784 -1.32593e-05
-0.00040758 0.000122222 0.000122296 -1.32592e-05
-0.000567117 0.00017016 0.000170125 5.22464e-12
-0.00048307 0.000144905 0.000144928 -7.18172e-06
-0.000405061 0.000121467 0.00012154 -1.32593e-05
-0.000489113 0.000146717 0.000146741 -7.1817e-06
-0.000486091 0.000145811 0.000145834 -7.18171e-06
-0.000563592 0.000169102 0.000169067 5.1951e-12
-0.000556542 0.000166987 0.000166952 5.11267e-12
-0.000397505 0.000119203 0.000119272 -1.32593e-05
-0.000402542 0.000120712 0.000120784 -1.32593e-05
-0.000560067 0.000168045 0.00016801 5.14585e-12
-0.000477026 0.000143093 0.000143114 -7.18173e-06
-0.000400023 0.000119957 0.000120028 -1.32593e-05
-0.00048307 0.000144905 0.000144928 -7.18172e-06
-0.000480048 0.000143999 0.000144021 -7.18172e-06
-0.000556542 0.000166987 0.000166952 5.11267e-12
-0.000549492 0.000164872 0.000164837 5.0375e-12
-0.000392467 0.000117693 0.00011776 -1.32593e-05
-0.000397505 0.000119203 0.000119272 -1.32593e-05
-0.000553017 0.00016593 0.000165895 5.0846e-12
-0.000470982 0.00014128 0.000141301 -7.18175e-06
-0.000394986 0.000118448 0.000118516 -1.32593e-05
-0.000477026 0.000143093 0.000143114 -7.18173e-06
-0.000474004 0.000142187 0.000142207 -7.18174e-06
-0.000549492 0.000164872 0.000164837 5.0375e-12
-0.000542442 0.000162757 0.000162722 4.97814e-12
-0.00038743 0.000116183 0.000116248 -1.32593e-05
-0.000392467 0.000117693 0.00011776 -1.32593e-05
-0.000545967 0.000163815 0.00016378 5.00802e-12
-0.000464938 0.000139468 0.000139487 -7.18176e-06
-0.000389948 0.000116938 0.000117004 -1.32593e-05
-0.000470982 0.00014128 0.000141301 -7.18175e-06
-0.00046796 0.000140374 0.000140394 -7.18176e-06
-0.000542442 0.000162757 0.000162722 4.97814e-12
-0.000535392 0.000160642 0.000160607 4.92361e-12
-0.000382392 0.000114674 0.000114736 -1.32593e-05
-0.00038743 0.000116183 0.000116248 -1.32593e-05
-0.000538917 0.000161699 0.000161665 4.95455e-12
-0.000458894 0.000137656 0.000137674 -7.18178e-06
-0.000384911 0.000115429 0.000115492 -1.32593e-05
-0.000464938 0.000139468 0.000139487 -7.18176e-06
-0.000461916 0.000138562 0.00013858 -7.18177e-06
-0.000535392 0.000160642 0.000160607 4.95012e-12
-0.000528342 0.000158527 0.000158492 4.84849e-12
-0.000377355 0.000113164 0.000113225 -1.32594e-05
-0.000382392 0.000114674 0.000114736 -1.32593e-05
-0.000531867 0.000159584 0.00015955 4.9108e-12
-0.00045285 0.000135844 0.00013586 -7.1818e-06
-0.000379874 0.000113919 0.00011398 -1.32594e-05
-0.000458894 0.000137656 0.000137674 -7.18178e-06
-0.000455872 0.00013675 0.000136767 -7.18179e-06
-0.000528342 0.000158527 0.000158492 4.84849e-12
-0.000521292 0.000156412 0.000156377 4.7856e-12
-0.000372318 0.000111655 0.000111713 -1.32594e-05
-0.000377355 0.000113164 0.000113225 -1.32594e-05
-0.000524817 0.000157469 0.000157435 4.82531e-12
-0.000446807 0.000134031 0.000134047 -7.18181e-06
-0.000374836 0.000112409 0.000112469 -1.32594e-05
-0.00045285 0.000135844 0.00013586 -7.1818e-06
-0.000449829 0.000134937 0.000134953 -7.1818e-06
-0.000521292 0.000156412 0.000156377 4.7856e-12
-0.000514242 0.000154297 0.000154262 4.71142e-12
-0.00036728 0.000110145 0.000110201 -1.32594e-05
-0.000372318 0.000111655 0.000111713 -1.32594e-05
-0.000517767 0.000155354 0.00015532 4.74755e-12
-0.000440763 0.000132219 0.000132233 -7.18183e-06
-0.000369799 0.0001109 0.000110957 -1.32594e-05
-0.000446807 0.000134031 0.000134047 -7.18181e-06
-0.000443785 0.000133125 0.00013314 -7.18182e-06
-0.000514242 0.000154297 0.000154262 4.71489e-12
-0.000507192 0.000152182 0.000152147 4.64803e-12
-0.000362243 0.000108635 0.000108689 -1.32594e-05
-0.00036728 0.000110145 0.000110201 -1.32594e-05
-0.000510717 0.000153239 0.000153205 4.66868e-12
-0.000434719 0.000130407 0.00013042 -7.18185e-06
-0.000364762 0.00010939 0.000109445 -1.32594e-05
-0.000440763 0.000132219 0.000132233 -7.18183e-06
-0.000437741 0.000131313 0.000131326 -7.18184e-06
-0.000507192 0.000152182 0.000152147 4.64803e-12
-0.000500142 0.000150066 0.000150033 4.55626e-12
-0.000357206 0.000107126 0.000107177 -1.32595e-05
-0.000362243 0.000108635 0.000108689 -1.32594e-05
-0.000503667 0.000151124 0.00015109 4.61136e-12
-0.000428676 0.000128594 0.000128606 -7.18186e-06
-0.000359724 0.000107881 0.000107933 -1.32594e-05
-0.000434719 0.000130407 0.00013042 -7.18185e-06
-0.000431698 0.000129501 0.000129513 -7.18185e-06
-0.000500142 0.000150066 0.000150033 4.55626e-12
-0.000493092 0.000147951 0.000147918 4.52901e-12
-0.000352169 0.000105616 0.000105665 -1.32595e-05
-0.000357206 0.000107126 0.000107177 -1.32595e-05
-0.000496617 0.000149009 0.000148975 4.53614e-12
-0.000422632 0.000126782 0.000126793 -7.18188e-06
-0.000354687 0.000106371 0.000106421 -1.32595e-05
-0.000428676 0.000128594 0.000128606 -7.18186e-06
-0.000425654 0.000127688 0.0001277 -7.18187e-06
-0.000493092 0.000147951 0.000147918 4.52901e-12
-0.000486043 0.000145836 0.000145803 4.43909e-12
-0.000347132 0.000104107 0.000104154 -1.32595e-05
-0.000352169 0.000105616 0.000105665 -1.32595e-05
-0.000489568 0.000146894 0.00014686 4.46289e-12
-0.000416589 0.00012497 0.00012498 -7.1819e-06
-0.00034965 0.000104861 0.000104909 -1.32595e-05
-0.000422632 0.000126782 0.000126793 -7.18188e-06
-0.000419611 0.000125876 0.000125886 -7.18189e-06
-0.000486043 0.000145836 0.000145803 4.43909e-12
-0.000478993 0.000143721 0.000143688 4.39943e-12
-0.000342094 0.000102597 0.000102642 -1.32595e-05
-0.000347132 0.000104107 0.000104154 -1.32595e-05
-0.000482518 0.000144779 0.000144745 4.4188e-12
-0.000410545 0.000123157 0.000123166 -7.18191e-06
-0.000344613 0.000103352 0.000103398 -1.32595e-05
-0.000416589 0.00012497 0.00012498 -7.1819e-06
-0.000413567 0.000124064 0.000124073 -7.1819e-06
-0.000478993 0.000143721 0.000143688 4.37294e-12
-0.000471943 0.000141606 0.000141573 4.32318e-12
-0.000337057 0.000101087 0.00010113 -1.32595e-05
-0.000342094 0.000102597 0.000102642 -1.32595e-05
-0.000475468 0.000142664 0.00014263 4.35432e-12
-0.000404502 0.000121345 0.000121353 -7.18193e-06
-0.000339576 0.000101842 0.000101886 -1.32595e-05
-0.000410545 0.000123157 0.000123166 -7.18191e-06
-0.000407524 0.000122251 0.00012226 -7.18192e-06
-0.000471943 0.000141606 0.000141573 4.32318e-12
-0.000464893 0.000139491 0.000139458 4.2359e-12
-0.00033202 9.95775e-05 9.96184e-05 -1.32596e-05
-0.000337057 0.000101087 0.00010113 -1.32595e-05
-0.000468418 0.000140549 0.000140516 4.27539e-12
-0.000398458 0.000119533 0.00011954 -7.18195e-06
-0.000334539 0.000100332 0.000100374 -1.32596e-05
-0.000404502 0.000121345 0.000121353 -7.18193e-06
-0.00040148 0.000120439 0.000120446 -7.18194e-06
-0.000464893 0.000139491 0.000139458 4.2359e-12
-0.000457844 0.000137376 0.000137343 4.17839e-12
-0.000326983 9.80678e-05 9.81067e-05 -1.32596e-05
-0.00033202 9.95775e-05 9.96184e-05 -1.32596e-05
-0.000461369 0.000138434 0.000138401 4.20242e-12
-0.000392415 0.000117721 0.000117726 -7.18196e-06
-0.000329502 9.88227e-05 9.88625e-05 -1.32596e-05
-0.000398458 0.000119533 0.00011954 -7.18195e-06
-0.000395437 0.000118627 0.000118633 -7.18195e-06
-0.000457844 0.000137376 0.000137343 4.17504e-12
-0.000450794 0.000135261 0.000135228 4.08685e-12
-0.000321947 9.65581e-05 9.6595e-05 -1.32596e-05
-0.000326983 9.80678e-05 9.81067e-05 -1.32596e-05
-0.000454319 0.000136319 0.000136286 4.13553e-12
-0.000386372 0.000115908 0.000115913 -7.18198e-06
-0.000324465 9.7313e-05 9.73509e-05 -1.32596e-05
-0.000392415 0.000117721 0.000117726 -7.18196e-06
-0.000389393 0.000116814 0.00011682 -7.18197e-06
-0.000450794 0.000135261 0.000135228 4.08705e-12
-0.000443744 0.000133146 0.000133114 4.06162e-12
-0.00031691 9.50484e-05 9.50834e-05 -1.32596e-05
-0.000321947 9.65581e-05 9.6595e-05 -1.32596e-05
-0.000447269 0.000134204 0.000134171 4.10161e-12
-0.000380328 0.000114096 0.0001141 -7.182e-06
-0.000319428 9.58033e-05 9.58392e-05 -1.32596e-05
-0.000386372 0.000115908 0.000115913 -7.18198e-06
-0.00038335 0.000115002 0.000115006 -7.18199e-06
-0.000443744 0.000133146 0.000133114 4.06162e-12
-0.000436695 0.000131031 0.000130999 3.97082e-12
-0.000311873 9.35387e-05 9.35718e-05 -1.32597e-05
-0.00031691 9.50484e-05 9.50834e-05 -1.32596e-05
-0.00044022 0.000132089 0.000132056 4.03077e-12
-0.000374285 0.000112284 0.000112286 -7.18202e-06
-0.000314391 9.42935e-05 9.43276e-05 -1.32596e-05
-0.000380328 0.000114096 0.0001141 -7.182e-06
-0.000377307 0.00011319 0.000113193 -7.18201e-06
-0.000436695 0.000131031 0.000130999 3.97082e-12
-0.000429645 0.000128916 0.000128884 3.9367e-12
-0.000306836 9.2029e-05 9.20602e-05 -1.32597e-05
-0.000311873 9.35387e-05 9.35718e-05 -1.32597e-05
-0.00043317 0.000129974 0.000129941 3.91217e-12
-0.000368242 0.000110471 0.000110473 -7.18203e-06
-0.000309354 9.27838e-05 9.2816e-05 -1.32597e-05
-0.000374285 0.000112284 0.000112286 -7.18202e-06
-0.000371264 0.000111377 0.00011138 -7.18203e-06
-0.000429645 0.000128916 0.000128884 3.93673e-12
-0.000422596 0.000126801 0.000126769 3.83513e-12
-0.000301799 9.05192e-05 9.05486e-05 -1.32597e-05
-0.000306836 9.2029e-05 9.20602e-05 -1.32597e-05
-0.00042612 0.000127859 0.000127826 3.86037e-12
-0.000362199 0.000108659 0.00010866 -7.18205e-06
-0.000304318 9.12741e-05 9.13044e-05 -1.32597e-05
-0.000368242 0.000110471 0.000110473 -7.18203e-06
-0.00036522 0.000109565 0.000109567 -7.18204e-06
-0.000422596 0.000126801 0.000126769 3.85836e-12
-0.000415546 0.000124686 0.000124654 3.79984e-12
-0.000296763 8.90095e-05 8.90371e-05 -1.32597e-05
-0.000301799 9.05192e-05 9.05486e-05 -1.32597e-05
-0.000419071 0.000125744 0.000125712 3.79617e-12
-0.000356156 0.000106847 0.000106847 -7.18207e-06
-0.000299281 8.97643e-05 8.97929e-05 -1.32597e-05
-0.000362199 0.000108659 0.00010866 -7.18205e-06
-0.000359177 0.000107753 0.000107753 -7.18206e-06
-0.000415546 0.000124686 0.000124654 3.79984e-12
-0.000408497 0.000122571 0.000122539 3.70337e-12
-0.000291726 8.74997e-05 8.75256e-05 -1.32598e-05
-0.000296763 8.90095e-05 8.90371e-05 -1.32597e-05
-0.000412021 0.000123629 0.000123597 3.7379e-12
-0.000350113 0.000105034 0.000105034 -7.18209e-06
-0.000294244 8.82546e-05 8.82813e-05 -1.32597e-05
-0.000356156 0.000106847 0.000106847 -7.18207e-06
-0.000353134 0.00010594 0.00010594 -7.18208e-06
-0.000408497 0.000122571 0.000122539 3.70337e-12
-0.000401447 0.000120456 0.000120425 3.64892e-12
-0.000286689 8.59899e-05 8.60141e-05 -1.32598e-05
-0.000291726 8.74997e-05 8.75256e-05 -1.32598e-05
-0.000404972 0.000121514 0.000121482 3.65698e-12
-0.000344069 0.000103222 0.00010322 -7.18211e-06
-0.000289208 8.67448e-05 8.67698e-05 -1.32598e-05
-0.000350113 0.000105034 0.000105034 -7.18209e-06
-0.000347091 0.000104128 0.000104127 -7.1821e-06
-0.000401447 0.000120456 0.000120425 3.64562e-12
-0.000394398 0.000118341 0.00011831 3.57819e-12
-0.000281653 8.44801e-05 8.45026e-05 -1.32598e-05
-0.000286689 8.59899e-05 8.60141e-05 -1.32598e-05
-0.000397922 0.000119399 0.000119367 3.60239e-12
-0.000338026 0.00010141 0.000101407 -7.18213e-06
-0.000284171 8.5235e-05 8.52583e-05 -1.32598e-05
-0.000344069 0.000103222 0.00010322 -7.18211e-06
-0.000341048 0.000102316 0.000102314 -7.18212e-06
-0.000394398 0.000118341 0.00011831 3.57819e-12
-0.000387348 0.000116226 0.000116195 3.52022e-12
-0.000276616 8.29703e-05 8.29911e-05 -1.32598e-05
-0.000281653 8.44801e-05 8.45026e-05 -1.32598e-05
-0.000390873 0.000117284 0.000117252 3.56044e-12
-0.000331983 9.95973e-05 9.9594e-05 -7.18214e-06
-0.000279135 8.37252e-05 8.37469e-05 -1.32598e-05
-0.000338026 0.00010141 0.000101407 -7.18213e-06
-0.000335005 0.000100503 0.000100501 -7.18214e-06
-0.000387348 0.000116226 0.000116195 3.52022e-12
-0.000380299 0.000114111 0.00011408 3.42468e-12
-0.00027158 8.14605e-05 8.14797e-05 -1.32599e-05
-0.000276616 8.29703e-05 8.29911e-05 -1.32598e-05
-0.000383824 0.000115169 0.000115138 3.52343e-12
-0.00032594 9.7785e-05 9.77809e-05 -7.18216e-06
-0.000274098 8.22154e-05 8.22354e-05 -1.32598e-05
-0.000331983 9.95973e-05 9.9594e-05 -7.18214e-06
-0.000328962 9.86911e-05 9.86875e-05 -7.18215e-06
-0.000380299 0.000114111 0.00011408 3.42468e-12
-0.000373249 0.000111997 0.000111966 3.38582e-12
-0.000266543 7.99507e-05 7.99683e-05 -1.32599e-05
-0.00027158 8.14605e-05 8.14797e-05 -1.32599e-05
-0.000376774 0.000113054 0.000113023 3.34758e-12
-0.000319897 9.59726e-05 9.59678e-05 -7.18218e-06
-0.000269062 8.07056e-05 8.0724e-05 -1.32599e-05
-0.00032594 9.7785e-05 9.77809e-05 -7.18216e-06
-0.000322919 9.68788e-05 9.68743e-05 -7.18217e-06
-0.000373249 0.000111997 0.000111966 3.38582e-12
-0.0003662 0.000109882 0.000109851 3.27019e-12
-0.000261507 7.84409e-05 7.84569e-05 -1.32599e-05
-0.000266543 7.99507e-05 7.99683e-05 -1.32599e-05
-0.000369725 0.000110939 0.000110908 3.31319e-12
-0.000313855 9.41603e-05 9.41547e-05 -7.1822e-06
-0.000264025 7.91958e-05 7.92126e-05 -1.32599e-05
-0.000319897 9.59726e-05 9.59678e-05 -7.18218e-06
-0.000316876 9.50665e-05 9.50612e-05 -7.18219e-06
-0.0003662 0.000109882 0.000109851 3.29331e-12
-0.000359151 0.000107767 0.000107736 3.28453e-12
-0.000256471 7.6931e-05 7.69456e-05 -1.32599e-05
-0.000261507 7.84409e-05 7.84569e-05 -1.32599e-05
-0.000362675 0.000108824 0.000108793 3.29022e-12
-0.000307812 9.23479e-05 9.23416e-05 -7.18222e-06
-0.000258989 7.7686e-05 7.77012e-05 -1.32599e-05
-0.000313855 9.41603e-05 9.41547e-05 -7.1822e-06
-0.000310833 9.32541e-05 9.32481e-05 -7.18221e-06
-0.000359151 0.000107767 0.000107736 3.28453e-12
-0.000352102 0.000105652 0.000105621 3.16928e-12
-0.000251434 7.54212e-05 7.54342e-05 -1.326e-05
-0.000256471 7.6931e-05 7.69456e-05 -1.32599e-05
-0.000355626 0.000106709 0.000106679 3.2131e-12
-0.000301769 9.05356e-05 9.05285e-05 -7.18224e-06
-0.000253952 7.61761e-05 7.61899e-05 -1.326e-05
-0.000307812 9.23479e-05 9.23416e-05 -7.18222e-06
-0.00030479 9.14418e-05 9.14351e-05 -7.18223e-06
-0.000352102 0.000105652 0.000105621 3.19901e-12
-0.000345052 0.000103537 0.000103507 3.1381e-12
-0.000246398 7.39113e-05 7.39229e-05 -1.326e-05
-0.000251434 7.54212e-05 7.54342e-05 -1.326e-05
-0.000348577 0.000104594 0.000104564 3.21745e-12
-0.000295726 8.87232e-05 8.87155e-05 -7.18226e-06
-0.000248916 7.46663e-05 7.46785e-05 -1.326e-05
-0.000301769 9.05356e-05 9.05285e-05 -7.18224e-06
-0.000298747 8.96294e-05 8.9622e-05 -7.18225e-06
-0.000345052 0.000103537 0.000103507 3.1381e-12
-0.000338003 0.000101422 0.000101392 3.04051e-12
-0.000241362 7.24015e-05 7.24116e-05 -1.326e-05
-0.000246398 7.39113e-05 7.39229e-05 -1.326e-05
-0.000341528 0.000102479 0.000102449 3.07629e-12
-0.000289683 8.69109e-05 8.69024e-05 -7.18228e-06
-0.00024388 7.31564e-05 7.31672e-05 -1.326e-05
-0.000295726 8.87232e-05 8.87155e-05 -7.18226e-06
-0.000292705 8.78171e-05 8.7809e-05 -7.18227e-06
-0.000338003 0.000101422 0.000101392 3.04051e-12
-0.000330954 9.93071e-05 9.92772e-05 2.99238e-12
-0.000236326 7.08916e-05 7.09003e-05 -1.32601e-05
-0.000241362 7.24015e-05 7.24116e-05 -1.326e-05
-0.000334478 0.000100365 0.000100335 3.04745e-12
-0.000283641 8.50985e-05 8.50894e-05 -7.1823e-06
-0.000238844 7.16465e-05 7.16559e-05 -1.326e-05
-0.000289683 8.69109e-05 8.69024e-05 -7.18228e-06
-0.000286662 8.60047e-05 8.59959e-05 -7.18229e-06
-0.000330954 9.93071e-05 9.92772e-05 2.99225e-12
-0.000323905 9.71922e-05 9.71625e-05 2.88574e-12
-0.000231289 6.93817e-05 6.93891e-05 -1.32601e-05
-0.000236326 7.08916e-05 7.09003e-05 -1.32601e-05
-0.000327429 9.82496e-05 9.82198e-05 2.97407e-12
-0.000277598 8.32862e-05 8.32764e-05 -7.18232e-06
-0.000233808 7.01366e-05 7.01447e-05 -1.32601e-05
-0.000283641 8.50985e-05 8.50894e-05 -7.1823e-06
-0.000280619 8.41924e-05 8.41829e-05 -7.18231e-06
-0.000323905 9.71922e-05 9.71625e-05 2.92552e-12
-0.000316856 9.50773e-05 9.50478e-05 2.8646e-12
-0.000226253 6.78718e-05 6.78778e-05 -1.32601e-05
-0.000231289 6.93817e-05 6.93891e-05 -1.32601e-05
-0.00032038 9.61347e-05 9.61051e-05 2.91543e-12
-0.000271555 8.14738e-05 8.14634e-05 -7.18234e-06
-0.000228771 6.86267e-05 6.86334e-05 -1.32601e-05
-0.000277598 8.32862e-05 8.32764e-05 -7.18232e-06
-0.000274577 8.238e-05 8.23699e-05 -7.18233e-06
-0.000316856 9.50773e-05 9.50478e-05 2.8646e-12
-0.000309806 9.29624e-05 9.29331e-05 2.77448e-12
-0.000221217 6.63619e-05 6.63666e-05 -1.32601e-05
-0.000226253 6.78718e-05 6.78778e-05 -1.32601e-05
-0.000313331 9.40199e-05 9.39905e-05 2.80676e-12
-0.000265513 7.96615e-05 7.96505e-05 -7.18236e-06
-0.000223735 6.71168e-05 6.71222e-05 -1.32601e-05
-0.000271555 8.14738e-05 8.14634e-05 -7.18234e-06
-0.000268534 8.05676e-05 8.0557e-05 -7.18235e-06
-0.000309806 9.29624e-05 9.29331e-05 2.77448e-12
-0.000302757 9.08476e-05 9.08185e-05 2.72927e-12
-0.000216181 6.48519e-05 6.48554e-05 -1.32602e-05
-0.000221217 6.63619e-05 6.63666e-05 -1.32601e-05
-0.000306282 9.1905e-05 9.18758e-05 2.70332e-12
-0.00025947 7.78491e-05 7.78375e-05 -7.18238e-06
-0.000218699 6.56069e-05 6.5611e-05 -1.32602e-05
-0.000265513 7.96615e-05 7.96505e-05 -7.18236e-06
-0.000262491 7.87553e-05 7.8744e-05 -7.18237e-06
-0.000302757 9.08476e-05 9.08185e-05 2.71605e-12
-0.000295708 8.87327e-05 8.87038e-05 2.67026e-12
-0.000211145 6.3342e-05 6.33443e-05 -1.32602e-05
-0.000216181 6.48519e-05 6.48554e-05 -1.32602e-05
-0.000299233 8.97901e-05 8.97611e-05 2.67009e-12
-0.000253427 7.60367e-05 7.60246e-05 -7.1824e-06
-0.000213663 6.4097e-05 6.40998e-05 -1.32602e-05
-0.00025947 7.78491e-05 7.78375e-05 -7.18238e-06
-0.000256449 7.69429e-05 7.6931e-05 -7.18239e-06
-0.000295708 8.87327e-05 8.87038e-05 2.67026e-12
-0.000288659 8.66179e-05 8.65891e-05 2.58073e-12
-0.000206109 6.1832e-05 6.18331e-05 -1.32602e-05
-0.000211145 6.3342e-05 6.33443e-05 -1.32602e-05
-0.000292184 8.76753e-05 8.76465e-05 2.58026e-12
-0.000247385 7.42244e-05 7.42116e-05 -7.18242e-06
-0.000208627 6.2587e-05 6.25887e-05 -1.32602e-05
-0.000253427 7.60367e-05 7.60246e-05 -7.1824e-06
-0.000250406 7.51305e-05 7.51181e-05 -7.18241e-06
-0.000288659 8.66179e-05 8.65891e-05 2.58073e-12
-0.00028161 8.4503e-05 8.44745e-05 2.53257e-12
-0.000201073 6.03221e-05 6.0322e-05 -1.32603e-05
-0.000206109 6.1832e-05 6.18331e-05 -1.32602e-05
-0.000285135 8.55604e-05 8.55318e-05 2.5651e-12
-0.000241342 7.2412e-05 7.23987e-05 -7.18244e-06
-0.000203591 6.10771e-05 6.10776e-05 -1.32602e-05
-0.000247385 7.42244e-05 7.42116e-05 -7.18242e-06
-0.000244364 7.33182e-05 7.33052e-05 -7.18243e-06
-0.00028161 8.4503e-05 8.44745e-05 2.53257e-12
-0.000274561 8.23882e-05 8.23598e-05 2.44231e-12
-0.000196038 5.88121e-05 5.88109e-05 -1.32603e-05
-0.000201073 6.03221e-05 6.0322e-05 -1.32603e-05
-0.000278086 8.34456e-05 8.34172e-05 2.46993e-12
-0.0002353 7.05996e-05 7.05858e-05 -7.18247e-06
-0.000198555 5.95671e-05 5.95664e-05 -1.32603e-05
-0.000241342 7.2412e-05 7.23987e-05 -7.18244e-06
-0.000238321 7.15058e-05 7.14923e-05 -7.18246e-06
-0.000274561 8.23882e-05 8.23598e-05 2.44231e-12
-0.000267512 8.02733e-05 8.02452e-05 2.40487e-12
-0.000191002 5.73021e-05 5.72998e-05 -1.32603e-05
-0.000196038 5.88121e-05 5.88109e-05 -1.32603e-05
-0.000271037 8.13308e-05 8.13025e-05 2.42679e-12
-0.000229257 6.87872e-05 6.8773e-05 -7.18249e-06
-0.00019352 5.80571e-05 5.80554e-05 -1.32603e-05
-0.0002353 7.05996e-05 7.05858e-05 -7.18247e-06
-0.000232279 6.96934e-05 6.96794e-05 -7.18248e-06
-0.000267512 8.02733e-05 8.02452e-05 2.3883e-12
-0.000260463 7.81585e-05 7.81306e-05 2.31836e-12
-0.000185966 5.57921e-05 5.57888e-05 -1.32603e-05
-0.000191002 5.73021e-05 5.72998e-05 -1.32603e-05
-0.000263988 7.92159e-05 7.91879e-05 2.34029e-12
-0.000223215 6.69748e-05 6.69601e-05 -7.18251e-06
-0.000188484 5.65471e-05 5.65443e-05 -1.32603e-05
-0.000229257 6.87872e-05 6.8773e-05 -7.18249e-06
-0.000226236 6.7881e-05 6.78665e-05 -7.1825e-06
-0.000260463 7.81585e-05 7.81306e-05 2.31836e-12
-0.000253414 7.60437e-05 7.6016e-05 2.26746e-12
-0.00018093 5.42821e-05 5.42777e-05 -1.32604e-05
-0.000185966 5.57921e-05 5.57888e-05 -1.32603e-05
-0.000256939 7.71011e-05 7.70733e-05 2.30091e-12
-0.000217173 6.51624e-05 6.51473e-05 -7.18253e-06
-0.000183448 5.50371e-05 5.50332e-05 -1.32604e-05
-0.000223215 6.69748e-05 6.69601e-05 -7.18251e-06
-0.000220194 6.60686e-05 6.60537e-05 -7.18252e-06
-0.000253414 7.60437e-05 7.6016e-05 2.26746e-12
-0.000246365 7.39289e-05 7.39014e-05 2.16833e-12
-0.000175894 5.27721e-05 5.27667e-05 -1.32604e-05
-0.00018093 5.42821e-05 5.42777e-05 -1.32604e-05
-0.00024989 7.49863e-05 7.49587e-05 2.24821e-12
-0.00021113 6.33501e-05 6.33344e-05 -7.18255e-06
-0.000178412 5.35271e-05 5.35222e-05 -1.32604e-05
-0.000217173 6.51624e-05 6.51473e-05 -7.18253e-06
-0.000214152 6.42562e-05 6.42408e-05 -7.18254e-06
-0.000246365 7.39289e-05 7.39014e-05 2.19828e-12
-0.000239317 7.18141e-05 7.17868e-05 2.11874e-12
-0.000170859 5.12621e-05 5.12557e-05 -1.32604e-05
-0.000175894 5.27721e-05 5.27667e-05 -1.32604e-05
-0.000242841 7.28715e-05 7.28441e-05 2.11887e-12
-0.000205088 6.15377e-05 6.15216e-05 -7.18258e-06
-0.000173377 5.20171e-05 5.20112e-05 -1.32604e-05
-0.00021113 6.33501e-05 6.33344e-05 -7.18255e-06
-0.000208109 6.24439e-05 6.2428e-05 -7.18256e-06
-0.000239317 7.18141e-05 7.17868e-05 2.11883e-12
-0.000232268 6.96993e-05 6.96722e-05 2.04077e-12
-0.000165823 4.9752e-05 4.97448e-05 -1.32605e-05
-0.000170859 5.12621e-05 5.12557e-05 -1.32604e-05
-0.000235792 7.07567e-05 7.07295e-05 2.04997e-12
-0.000199046 5.97253e-05 5.97088e-05 -7.1826e-06
-0.000168341 5.0507e-05 5.05002e-05 -1.32605e-05
-0.000205088 6.15377e-05 6.15216e-05 -7.18258e-06
-0.000202067 6.06315e-05 6.06152e-05 -7.18259e-06
-0.000232268 6.96993e-05 6.96722e-05 2.04077e-12
-0.000225219 6.75845e-05 6.75576e-05 1.98331e-12
-0.000160788 4.8242e-05 4.82338e-05 -1.32605e-05
-0.000165823 4.9752e-05 4.97448e-05 -1.32605e-05
-0.000228743 6.86419e-05 6.86149e-05 2.01058e-12
-0.000193004 5.79129e-05 5.7896e-05 -7.18262e-06
-0.000163305 4.8997e-05 4.89893e-05 -1.32605e-05
-0.000199046 5.97253e-05 5.97088e-05 -7.1826e-06
-0.000196025 5.88191e-05 5.88024e-05 -7.18261e-06
-0.000225219 6.75845e-05 6.75576e-05 1.98331e-12
-0.00021817 6.54697e-05 6.5443e-05 1.86444e-12
-0.000155752 4.67319e-05 4.67229e-05 -1.32605e-05
-0.000160788 4.8242e-05 4.82338e-05 -1.32605e-05
-0.000221694 6.65271e-05 6.65003e-05 1.9018e-12
-0.000186961 5.61004e-05 5.60833e-05 -7.18264e-06
-0.00015827 4.74869e-05 4.74784e-05 -1.32605e-05
-0.000193004 5.79129e-05 5.7896e-05 -7.18262e-06
-0.000189982 5.70067e-05 5.69896e-05 -7.18263e-06
-0.00021817 6.54697e-05 6.5443e-05 1.86445e-12
-0.000211121 6.33549e-05 6.33284e-05 1.78811e-12
-0.000150716 4.52218e-05 4.5212e-05 -1.32606e-05
-0.000155752 4.67319e-05 4.67229e-05 -1.32605e-05
-0.000214646 6.44123e-05 6.43857e-05 1.82399e-12
-0.000180919 5.4288e-05 5.42705e-05 -7.18266e-06
-0.000153234 4.59769e-05 4.59674e-05 -1.32606e-05
-0.000186961 5.61004e-05 5.60833e-05 -7.18264e-06
-0.00018394 5.51942e-05 5.51769e-05 -7.18265e-06
-0.000211121 6.33549e-05 6.33284e-05 1.82802e-12
-0.000204072 6.12401e-05 6.12139e-05 1.67976e-12
-0.000145681 4.37117e-05 4.37011e-05 -1.32606e-05
-0.000150716 4.52218e-05 4.5212e-05 -1.32606e-05
-0.000207597 6.22975e-05 6.22712e-05 1.73271e-12
-0.000174877 5.24756e-05 5.24578e-05 -7.18269e-06
-0.000148199 4.44668e-05 4.44565e-05 -1.32606e-05
-0.000180919 5.4288e-05 5.42705e-05 -7.18266e-06
-0.000177898 5.33818e-05 5.33641e-05 -7.18268e-06
-0.000204072 6.12401e-05 6.12139e-05 1.67976e-12
-0.000197024 5.91253e-05 5.90993e-05 1.59781e-12
-0.000140646 4.22016e-05 4.21903e-05 -1.32606e-05
-0.000145681 4.37117e-05 4.37011e-05 -1.32606e-05
-0.000200548 6.01827e-05 6.01566e-05 1.6454e-12
-0.000168835 5.06632e-05 5.0645e-05 -7.18271e-06
-0.000143163 4.29567e-05 4.29457e-05 -1.32606e-05
-0.000174877 5.24756e-05 5.24578e-05 -7.18269e-06
-0.000171856 5.15694e-05 5.15514e-05 -7.1827e-06
-0.000197024 5.91253e-05 5.90993e-05 1.59781e-12
-0.000189975 5.70106e-05 5.69848e-05 1.49354e-12
-0.00013561 4.06915e-05 4.06794e-05 -1.32607e-05
-0.000140646 4.22016e-05 4.21903e-05 -1.32606e-05
-0.000193499 5.80679e-05 5.80421e-05 1.54172e-12
-0.000162793 4.88508e-05 4.88323e-05 -7.18272e-06
-0.000138128 4.14466e-05 4.14348e-05 -1.32606e-05
-0.000168835 5.06632e-05 5.0645e-05 -7.18271e-06
-0.000165814 4.9757e-05 4.97387e-05 -7.18272e-06
-0.000189975 5.70106e-05 5.69848e-05 1.53357e-12
-0.000182926 5.48958e-05 5.48702e-05 1.40246e-12
-0.000130575 3.91814e-05 3.91686e-05 -1.32607e-05
-0.00013561 4.06915e-05 4.06794e-05 -1.32607e-05
-0.000186451 5.59532e-05 5.59275e-05 1.44568e-12
-0.000156751 4.70384e-05 4.70196e-05 -7.18274e-06
-0.000133092 3.99365e-05 3.9924e-05 -1.32607e-05
-0.000162793 4.88508e-05 4.88323e-05 -7.18272e-06
-0.000159772 4.79446e-05 4.7926e-05 -7.18273e-06
-0.000182926 5.48958e-05 5.48702e-05 1.40237e-12
-0.000175878 5.2781e-05 5.27557e-05 1.35237e-12
-0.000125539 3.76713e-05 3.76578e-05 -1.32607e-05
-0.000130575 3.91814e-05 3.91686e-05 -1.32607e-05
-0.000179402 5.38384e-05 5.3813e-05 1.38734e-12
-0.000150709 4.52259e-05 4.5207e-05 -7.18276e-06
-0.000128057 3.84263e-05 3.84132e-05 -1.32607e-05
-0.000156751 4.70384e-05 4.70196e-05 -7.18274e-06
-0.00015373 4.61322e-05 4.61133e-05 -7.18275e-06
-0.000175878 5.2781e-05 5.27557e-05 1.35237e-12
-0.000168829 5.06663e-05 5.06412e-05 1.45956e-12
-0.000120504 3.61611e-05 3.6147e-05 -1.32607e-05
-0.000125539 3.76713e-05 3.76578e-05 -1.32607e-05
-0.000172353 5.17237e-05 5.16985e-05 1.4069e-12
-0.000144667 4.34135e-05 4.33943e-05 -7.18277e-06
-0.000123022 3.69162e-05 3.69024e-05 -1.32607e-05
-0.000150709 4.52259e-05 4.5207e-05 -7.18276e-06
-0.000147688 4.43197e-05 4.43006e-05 -7.18276e-06
-0.000168829 5.06663e-05 5.06412e-05 1.45956e-12
-0.000161781 4.85516e-05 4.85267e-05 1.62126e-12
-0.000115469 3.4651e-05 3.46363e-05 -1.32607e-05
-0.000120504 3.61611e-05 3.6147e-05 -1.32607e-05
-0.000165305 4.96089e-05 4.9584e-05 1.54339e-12
-0.000138625 4.16011e-05 4.15817e-05 -7.18278e-06
-0.000117987 3.5406e-05 3.53917e-05 -1.32607e-05
-0.000144667 4.34135e-05 4.33943e-05 -7.18277e-06
-0.000141646 4.25073e-05 4.2488e-05 -7.18278e-06
-0.000161781 4.85516e-05 4.85267e-05 1.62113e-12
-0.000154732 4.64368e-05 4.64122e-05 2.33998e-12
-0.000110434 3.31408e-05 3.31256e-05 -1.32608e-05
-0.000115469 3.4651e-05 3.46363e-05 -1.32607e-05
-0.000158256 4.74942e-05 4.74695e-05 1.91575e-12
-0.000132583 3.97887e-05 3.9769e-05 -7.1828e-06
-0.000112951 3.38959e-05 3.38809e-05 -1.32608e-05
-0.000138625 4.16011e-05 4.15817e-05 -7.18278e-06
-0.000135604 4.06949e-05 4.06754e-05 -7.18279e-06
-0.000154732 4.64368e-05 4.64122e-05 2.37985e-12
-0.000147683 4.43221e-05 4.42977e-05 3.12702e-12
-0.000105399 3.16306e-05 3.16149e-05 -1.32608e-05
-0.000110434 3.31408e-05 3.31256e-05 -1.32608e-05
-0.000151208 4.53795e-05 4.5355e-05 2.64464e-12
-0.000126541 3.79762e-05 3.79564e-05 -7.18283e-06
-0.000107916 3.23857e-05 3.23702e-05 -1.32608e-05
-0.000132583 3.97887e-05 3.9769e-05 -7.1828e-06
-0.000129562 3.88824e-05 3.88627e-05 -7.18281e-06
-0.000147683 4.43221e-05 4.42977e-05 3.12702e-12
-0.000140635 4.22074e-05 4.21832e-05 5.35381e-12
-0.000100364 3.01205e-05 3.01042e-05 -1.32609e-05
-0.000105399 3.16306e-05 3.16149e-05 -1.32608e-05
-0.000144159 4.32648e-05 4.32405e-05 4.41803e-12
-0.000120499 3.61638e-05 3.61438e-05 -7.18288e-06
-0.000102881 3.08756e-05 3.08595e-05 -1.32608e-05
-0.000126541 3.79762e-05 3.79564e-05 -7.18283e-06
-0.00012352 3.707e-05 3.70501e-05 -7.18285e-06
-0.000140635 4.22074e-05 4.21832e-05 5.35381e-12
-0.000133586 4.00927e-05 4.00688e-05 7.01245e-12
-9.53285e-05 2.86103e-05 2.85935e-05 -1.3261e-05
-0.000100364 3.01205e-05 3.01042e-05 -1.32609e-05
-0.000137111 4.115e-05 4.1126e-05 5.70285e-12
-0.000114458 3.43514e-05 3.43312e-05 -7.18297e-06
-9.78461e-05 2.93654e-05 2.93488e-05 -1.32609e-05
-0.000120499 3.61638e-05 3.61438e-05 -7.18288e-06
-0.000117479 3.52576e-05 3.52375e-05 -7.18292e-06
-0.000133586 4.00927e-05 4.00688e-05 7.02231e-12
-0.000126538 3.79779e-05 3.79543e-05 1.03448e-11
-9.02936e-05 2.71002e-05 2.70829e-05 -1.32612e-05
-9.53285e-05 2.86103e-05 2.85935e-05 -1.3261e-05
-0.000130062 3.90353e-05 3.90115e-05 1.0992e-11
-0.000108416 3.25389e-05 3.25187e-05 -7.18311e-06
-9.28111e-05 2.78553e-05 2.78382e-05 -1.32611e-05
-0.000114458 3.43514e-05 3.43312e-05 -7.18297e-06
-0.000111437 3.34451e-05 3.34249e-05 -7.18303e-06
-0.000126538 3.79779e-05 3.79543e-05 1.03448e-11
-0.000119489 3.58631e-05 3.58397e-05 1.06104e-11
-8.52587e-05 2.55901e-05 2.55723e-05 -1.32614e-05
-9.02936e-05 2.71002e-05 2.70829e-05 -1.32612e-05
-0.000123013 3.69205e-05 3.6897e-05 7.03083e-12
-0.000102374 3.07265e-05 3.0706e-05 -7.18333e-06
-8.77761e-05 2.63452e-05 2.63276e-05 -1.32613e-05
-0.000108416 3.25389e-05 3.25187e-05 -7.18311e-06
-0.000105395 3.16327e-05 3.16124e-05 -7.18321e-06
-0.000119489 3.58631e-05 3.58397e-05 1.06104e-11
-0.00011244 3.37482e-05 3.37251e-05 6.6116e-13
-8.02238e-05 2.40799e-05 2.40617e-05 -1.32617e-05
-8.52587e-05 2.55901e-05 2.55723e-05 -1.32614e-05
-0.000115965 3.48056e-05 3.47824e-05 2.0524e-11
-9.6332e-05 2.8914e-05 2.88934e-05 -7.18361e-06
-8.27412e-05 2.4835e-05 2.4817e-05 -1.32615e-05
-0.000102374 3.07265e-05 3.0706e-05 -7.18333e-06
-9.93529e-05 2.98202e-05 2.97997e-05 -7.18346e-06
-0.00011244 3.37482e-05 3.37251e-05 6.6116e-13
-0.00010539 3.16331e-05 3.16103e-05 -1.32112e-11
-7.51891e-05 2.25694e-05 2.25513e-05 -1.32617e-05
-8.02238e-05 2.40799e-05 2.40617e-05 -1.32617e-05
-0.000108915 3.26907e-05 3.26677e-05 -2.67436e-11
-9.029e-05 2.71014e-05 2.70808e-05 -7.18381e-06
-7.77064e-05 2.33247e-05 2.33065e-05 -1.32617e-05
-9.6332e-05 2.8914e-05 2.88934e-05 -7.18361e-06
-9.3311e-05 2.80077e-05 2.79871e-05 -7.18373e-06
-0.00010539 3.16331e-05 3.16103e-05 -1.32111e-11
-9.83404e-05 2.95178e-05 2.94954e-05 -1.28112e-10
-7.01544e-05 2.10584e-05 2.10412e-05 -1.3261e-05
-7.51891e-05 2.25694e-05 2.25513e-05 -1.32617e-05
-0.000101865 3.05754e-05 3.05528e-05 4.4486e-12
-8.42484e-05 2.52888e-05 2.52684e-05 -7.18363e-06
-7.26718e-05 2.1814e-05 2.17962e-05 -1.32615e-05
-9.029e-05 2.71014e-05 2.70808e-05 -7.18381e-06
-8.72691e-05 2.61951e-05 2.61746e-05 -7.18381e-06
-9.83404e-05 2.95178e-05 2.94954e-05 -1.28102e-10
-9.12903e-05 2.74028e-05 2.73804e-05 -1.90259e-10
-6.512e-05 1.95459e-05 1.95318e-05 -1.3258e-05
-7.01544e-05 2.10584e-05 2.10412e-05 -1.3261e-05
-9.48154e-05 2.84604e-05 2.84379e-05 -2.71276e-10
-7.82075e-05 2.3476e-05 2.34563e-05 -7.18205e-06
-6.76371e-05 2.03024e-05 2.02863e-05 -1.32599e-05
-8.42484e-05 2.52888e-05 2.52684e-05 -7.18363e-06
-8.12278e-05 2.43824e-05 2.43623e-05 -7.18309e-06
-9.12903e-05 2.74028e-05 2.73804e-05 -1.90259e-10
-8.42427e-05 2.52878e-05 2.52664e-05 -8.40571e-10
-6.00851e-05 1.80303e-05 1.80235e-05 -1.32503e-05
-6.512e-05 1.95459e-05 1.95318e-05 -1.3258e-05
-8.77658e-05 2.63449e-05 2.63233e-05 -1.76381e-10
-7.21695e-05 2.16632e-05 2.16456e-05 -7.17734e-06
-6.26027e-05 1.87886e-05 1.87775e-05 -1.3255e-05
-7.82075e-05 2.3476e-05 2.34563e-05 -7.18205e-06
-7.51878e-05 2.25696e-05 2.25507e-05 -7.18032e-06
-8.42427e-05 2.52878e-05 2.52664e-05 -8.40571e-10
-7.72e-05 2.31766e-05 2.31529e-05 -9.40055e-10
-5.50504e-05 1.65085e-05 1.65179e-05 -1.32315e-05
-6.00851e-05 1.80303e-05 1.80235e-05 -1.32503e-05
-8.07208e-05 2.42324e-05 2.42093e-05 -1.45553e-09
-6.6137e-05 1.98504e-05 1.98371e-05 -7.16495e-06
-5.75674e-05 1.72704e-05 1.72702e-05 -1.32429e-05
-7.21695e-05 2.16632e-05 2.16456e-05 -7.17734e-06
-6.91525e-05 2.07567e-05 2.07411e-05 -7.17237e-06
-7.72e-05 2.31766e-05 2.31529e-05 -9.40094e-10
-7.01781e-05 2.10673e-05 2.10475e-05 -3.84853e-09
-5.00116e-05 1.49753e-05 1.50156e-05 -1.3193e-05
-5.50504e-05 1.65085e-05 1.65179e-05 -1.32315e-05
-7.36844e-05 2.21193e-05 2.20993e-05 -9.42766e-10
-6.01193e-05 1.80382e-05 1.80347e-05 -7.13765e-06
-5.25323e-05 1.5744e-05 1.57664e-05 -1.32154e-05
-6.6137e-05 1.98504e-05 1.98371e-05 -7.16495e-06
-6.31252e-05 1.89443e-05 1.89347e-05 -7.15422e-06
-7.01781e-05 2.10673e-05 2.10475e-05 -3.84853e-09
-6.31894e-05 1.89809e-05 1.89465e-05 -3.3094e-09
-4.49713e-05 1.34205e-05 1.35218e-05 -1.31136e-05
-5.00116e-05 1.49753e-05 1.50156e-05 -1.3193e-05
-6.66801e-05 2.00252e-05 1.9995e-05 -6.27582e-09
-5.41253e-05 1.62274e-05 1.6242e-05 -7.08e-06
-4.74906e-05 1.42009e-05 1.4267e-05 -1.31605e-05
-6.01193e-05 1.80382e-05 1.80347e-05 -7.13765e-06
-5.71194e-05 1.71323e-05 1.71373e-05 -7.11314e-06
-6.31894e-05 1.89809e-05 1.89465e-05 -3.3094e-09
-5.63017e-05 1.69024e-05 1.68854e-05 -1.46459e-08
-3.99082e-05 1.1832e-05 1.20327e-05 -1.29717e-05
-4.49713e-05 1.34205e-05 1.35218e-05 -1.31136e-05
-5.97239e-05 1.79286e-05 1.79123e-05 -2.82717e-09
-4.81887e-05 1.4421e-05 1.44719e-05 -6.96712e-06
-4.24464e-05 1.2633e-05 1.27772e-05 -1.30519e-05
-5.41253e-05 1.62274e-05 1.6242e-05 -7.08e-06
-5.11456e-05 1.53242e-05 1.5352e-05 -7.03484e-06
-5.63017e-05 1.69024e-05 1.68854e-05 -1.46459e-08
-4.95618e-05 1.49339e-05 1.48405e-05 -8.99289e-09
-3.48288e-05 1.01804e-05 1.05636e-05 -1.27118e-05
-3.99082e-05 1.1832e-05 1.20327e-05 -1.29717e-05
-5.29164e-05 1.5925e-05 1.58535e-05 -2.43664e-08
-4.23271e-05 1.26186e-05 1.27322e-05 -6.75914e-06
-3.7366e-05 1.10125e-05 1.12943e-05 -1.28619e-05
-4.81887e-05 1.4421e-05 1.44719e-05 -6.96712e-06
-4.52506e-05 1.35173e-05 1.36e-05 -6.87396e-06
-4.95618e-05 1.49339e-05 1.48405e-05 -8.99289e-09
-4.32055e-05 1.29701e-05 1.2958e-05 -4.9032e-08
-2.96382e-05 8.45837e-06 9.07708e-06 -1.23128e-05
-3.48288e-05 1.01804e-05 1.05636e-05 -1.27118e-05
-4.63031e-05 1.38948e-05 1.38893e-05 -2.3577e-09
-3.66455e-05 1.08354e-05 1.10615e-05 -6.38261e-06
-3.22639e-05 9.33757e-06 9.82555e-06 -1.25299e-05
-4.23271e-05 1.26186e-05 1.27322e-05 -6.75914e-06
-3.94486e-05 1.17283e-05 1.18801e-05 -6.60939e-06
-4.32055e-05 1.29701e-05 1.2958e-05 -4.9032e-08
-3.73919e-05 1.14799e-05 1.11051e-05 -1.67015e-08
-2.43432e-05 6.59462e-06 7.60652e-06 -1.16908e-05
-2.96382e-05 8.45837e-06 9.07708e-06 -1.23128e-05
-4.02436e-05 1.22679e-05 1.19896e-05 -9.15172e-08
-3.11134e-05 9.04655e-06 9.45722e-06 -5.7841e-06
-2.69864e-05 7.5271e-06 8.33972e-06 -1.20371e-05
-3.66455e-05 1.08354e-05 1.10615e-05 -6.38261e-06
-3.38798e-05 9.93313e-06 1.02628e-05 -6.09316e-06
-3.73919e-05 1.14799e-05 1.11051e-05 -1.67015e-08
-3.27782e-05 9.83725e-06 9.83183e-06 -1.34814e-07
-1.85726e-05 4.73955e-06 5.92843e-06 -1.10221e-05
-2.43432e-05 6.59462e-06 7.60652e-06 -1.16908e-05
-3.48402e-05 1.04239e-05 1.04641e-05 3.99843e-08
-2.6003e-05 7.31214e-06 8.01036e-06 -4.79432e-06
-2.1581e-05 5.69637e-06 6.8077e-06 -1.1343e-05
-3.11134e-05 9.04655e-06 9.45722e-06 -5.7841e-06
-2.84524e-05 8.19103e-06 8.68346e-06 -5.40305e-06
-3.27782e-05 9.83725e-06 9.83183e-06 -1.34814e-07
-3.00818e-05 1.00353e-05 8.59134e-06 2.19275e-07
-1.23666e-05 2.90241e-06 4.05609e-06 -1.05966e-05
-1.85726e-05 4.73955e-06 5.92843e-06 -1.10221e-05
-3.11955e-05 1.0199e-05 8.99853e-06 -2.95177e-07
-2.06724e-05 5.4424e-06 6.52716e-06 -3.72087e-06
-1.54553e-05 3.69326e-06 5.04087e-06 -1.07353e-05
-2.6003e-05 7.31214e-06 8.01036e-06 -4.79432e-06
-2.34985e-05 6.36871e-06 7.34135e-06 -4.1345e-06
-3.00818e-05 1.00353e-05 8.59134e-06 2.19275e-07
-3.16906e-05 8.63159e-06 9.88245e-06 1.30834e-06
-5.17098e-06 3.06425e-06 9.02888e-07 -1.23752e-05
-1.23666e-05 2.90241e-06 4.05609e-06 -1.05966e-05
-3.00443e-05 8.42781e-06 9.26422e-06 9.31843e-07
-1.49823e-05 3.88408e-06 4.75636e-06 -3.07384e-06
-9.03054e-06 2.70858e-06 2.70941e-06 -1.10206e-05
-2.06724e-05 5.4424e-06 6.52716e-06 -3.72087e-06
-1.77564e-05 4.61977e-06 5.63e-06 -3.47992e-06
-3.16906e-05 8.63159e-06 9.88245e-06 1.30834e-06
-4.31476e-05 8.65145e-06 1.47841e-05 1.01404e-05
-1.81325e-06 1.13502e-05 -4.08727e-06 -1.88528e-05
-5.17098e-06 3.06425e-06 9.02888e-07 -1.23752e-05
-3.5799e-05 1.20682e-05 1.01703e-05 2.73904e-06
-3.30536e-06 7.08017e-06 -1.61778e-06 -1.09582e-05
-2.2709e-06 4.63777e-06 -1.01437e-06 -1.46928e-05
-1.49823e-05 3.88408e-06 4.75636e-06 -3.07384e-06
-1.07115e-05 3.76488e-06 2.97711e-06 -4.58098e-06
-4.31476e-05 8.65145e-06 1.47841e-05 1.01404e-05
-2.42896e-05 6.60292e-05 -1.78884e-05 -5.15086e-05
-1.53306e-05 5.02213e-05 -1.49532e-05 -1.90086e-05
-1.81325e-06 1.13502e-05 -4.08727e-06 -1.88528e-05
-4.29211e-05 2.49696e-06 1.73246e-05 4.37674e-06
-1.36895e-05 6.17719e-05 -2.06067e-05 -3.05639e-05
-5.57438e-06 2.68225e-05 -9.10632e-06 -2.2178e-05
-3.30536e-06 7.08017e-06 -1.61778e-06 -1.09582e-05
-1.4144e-06 2.02446e-05 -8.07008e-06 -2.02607e-05
-0.000845534 0 0.000362372 -4.82629e-05
-0.000952025 0.000188852 0.000327074 -7.07199e-05
-0.000551535 7.27467e-05 0.000205195 -2.0916e-06
-0.000487752 0 0.000209037 6.4051e-05
-0.000905309 8.92269e-05 0.00034975 -8.20725e-05
-0.0007354 0.000113887 0.000266363 -2.92579e-05
-0.000528518 4.09015e-05 0.000208979 2.41056e-05
-0.000692376 0 0.000296733 1.01794e-05
-0.000704118 6.31351e-05 0.000274707 -9.265e-06
-0.000952025 0.000188852 0.000327074 -7.07199e-05
-0.000989137 0.00026776 0.000309162 -3.36324e-05
-0.000579681 0.000133052 0.000191413 -2.26755e-05
-0.000551535 7.27467e-05 0.000205195 -2.0916e-06
-0.000981398 0.000244569 0.000315784 -5.09703e-05
-0.000784297 0.000193314 0.000253279 -3.41918e-05
-0.000565645 0.000104819 0.000197497 -1.53583e-05
-0.0007354 0.000113887 0.000266363 -2.92579e-05
-0.000768148 0.000158523 0.000261268 -3.84168e-05
-0.000989137 0.00026776 0.000309162 -3.36324e-05
-0.00098434 0.000289835 0.000297645 -1.25034e-05
-0.000593932 0.000163442 0.000184496 -2.66525e-05
-0.000579681 0.000133052 0.000191413 -2.26755e-05
-0.000986399 0.000281494 0.000302102 -1.97527e-05
-0.000792138 0.000225157 0.000242992 -2.29646e-05
-0.000590244 0.000151923 0.000187852 -2.62788e-05
-0.000784297 0.000193314 0.000253279 -3.41918e-05
-0.000790184 0.000214117 0.000246886 -2.7027e-05
-0.00098434 0.000289835 0.000297645 -1.25034e-05
-0.000977401 0.000292823 0.000293391 -7.83269e-06
-0.000593372 0.000175347 0.000179154 -2.46635e-05
-0.000593932 0.000163442 0.000184496 -2.66525e-05
-0.000981745 0.00029275 0.000295284 -9.35869e-06
-0.000788288 0.000235285 0.000237001 -1.74788e-05
-0.000593919 0.000170921 0.000181285 -2.55372e-05
-0.000792138 0.000225157 0.000242992 -2.29646e-05
-0.000791169 0.000231761 0.000239747 -2.00149e-05
-0.000977401 0.000292823 0.000293391 -7.83269e-06
-0.000969394 0.000292302 0.000290182 -7.65286e-06
-0.000589198 0.000177586 0.000176405 -2.33197e-05
-0.000593372 0.000175347 0.000179154 -2.46635e-05
-0.000972789 0.000292656 0.000291486 -7.27571e-06
-0.000781044 0.000235826 0.000233665 -1.57799e-05
-0.000591922 0.000177241 0.00017772 -2.39979e-05
-0.000788288 0.000235285 0.000237001 -1.74788e-05
-0.000784559 0.000236254 0.000234988 -1.60533e-05
-0.000969394 0.000292302 0.000290182 -7.65286e-06
-0.000963315 0.000290142 0.000288503 -9.27389e-06
-0.000583327 0.000176658 0.000174287 -2.24207e-05
-0.000589198 0.000177586 0.000176405 -2.33197e-05
-0.00096648 0.000291357 0.000289338 -8.50664e-06
-0.000774376 0.000234156 0.000231523 -1.59299e-05
-0.00058605 0.00017731 0.000175174 -2.27282e-05
-0.000781044 0.000235826 0.000233665 -1.57799e-05
-0.000777674 0.000235083 0.000232539 -1.58511e-05
-0.000963315 0.000290142 0.000288503 -9.27389e-06
-0.000957434 0.000288039 0.000286883 -1.0629e-05
-0.000578216 0.000174672 0.000172947 -2.21503e-05
-0.000583327 0.000176658 0.000174287 -2.24207e-05
-0.000960199 0.000289047 0.000287637 -9.95367e-06
-0.000768375 0.000231761 0.000229978 -1.6543e-05
-0.000580793 0.00017572 0.000173603 -2.22731e-05
-0.000774376 0.000234156 0.000231523 -1.59299e-05
-0.000771246 0.000232991 0.000230681 -1.61687e-05
-0.000957434 0.000288039 0.000286883 -1.0629e-05
-0.00095215 0.000285997 0.000285494 -1.17298e-05
-0.000573565 0.00017274 0.000171782 -2.20335e-05
-0.000578216 0.000174672 0.000172947 -2.21503e-05
-0.000954817 0.000287011 0.000286203 -1.12525e-05
-0.000763153 0.000229618 0.000228658 -1.71486e-05
-0.000575753 0.000173673 0.00017232 -2.20602e-05
-0.000768375 0.000231761 0.000229978 -1.6543e-05
-0.000765699 0.000230642 0.00022931 -1.68872e-05
-0.00095215 0.000285997 0.000285494 -1.17298e-05
-0.000946927 0.000284153 0.000284046 -1.23964e-05
-0.000569598 0.000171047 0.000170808 -2.20395e-05
-0.000573565 0.00017274 0.000171782 -2.20335e-05
-0.000949497 0.00028505 0.000284763 -1.20961e-05
-0.000758407 0.000227719 0.000227437 -1.75958e-05
-0.000571547 0.000171861 0.000171294 -2.20381e-05
-0.000763153 0.000229618 0.000228658 -1.71486e-05
-0.000760725 0.00022864 0.000228037 -1.73834e-05
-0.000946927 0.000284153 0.000284046 -1.23964e-05
-0.000941844 0.00028243 0.000282606 -1.28153e-05
-0.000565984 0.000169636 0.000169863 -2.20523e-05
-0.000569598 0.000171047 0.000170808 -2.20395e-05
-0.000944391 0.00028328 0.000283333 -1.26391e-05
-0.000753988 0.000226092 0.000226241 -1.78831e-05
-0.000567737 0.00017031 0.000170326 -2.20418e-05
-0.000758407 0.000227719 0.000227437 -1.75958e-05
-0.00075617 0.000226876 0.00022684 -1.77625e-05
-0.000941844 0.00028243 0.000282606 -1.28153e-05
-0.000936772 0.000280801 0.00028113 -1.30384e-05
-0.000562654 0.000168425 0.000168955 -2.20741e-05
-0.000565984 0.000169636 0.000169863 -2.20523e-05
-0.000939299 0.000281606 0.000281869 -1.29424e-05
-0.000749749 0.000224634 0.000225049 -1.8054e-05
-0.000564302 0.00016901 0.000169411 -2.20654e-05
-0.000753988 0.000226092 0.000226241 -1.78831e-05
-0.000751851 0.000225347 0.000225645 -1.79784e-05
-0.000936772 0.000280801 0.00028113 -1.30384e-05
-0.000931727 0.000279226 0.000279643 -1.31602e-05
-0.00055946 0.000167351 0.000168047 -2.20867e-05
-0.000562654 0.000168425 0.000168955 -2.20741e-05
-0.000934251 0.000280009 0.000280389 -1.31103e-05
-0.000745614 0.000223292 0.000223852 -1.81472e-05
-0.00056104 0.000167875 0.000168499 -2.20805e-05
-0.000749749 0.000224634 0.000225049 -1.8054e-05
-0.000747673 0.000223952 0.000224452 -1.81091e-05
-0.000931727 0.000279226 0.000279643 -1.31602e-05
-0.000926682 0.000277684 0.000278142 -1.32178e-05
-0.000556355 0.000166358 0.000167142 -2.20955e-05
-0.00055946 0.000167351 0.000168047 -2.20867e-05
-0.000929203 0.000278452 0.000278893 -1.3194e-05
-0.000741532 0.000222015 0.00022265 -1.81956e-05
-0.000557902 0.000166847 0.000167595 -2.20921e-05
-0.000745614 0.000223292 0.000223852 -1.81472e-05
-0.000743569 0.000222648 0.000223252 -1.81752e-05
-0.000926682 0.000277684 0.000278142 -1.32178e-05
-0.000921641 0.000276159 0.000276635 -1.32451e-05
-0.000553289 0.00016541 0.000166234 -2.20995e-05
-0.000556355 0.000166358 0.000167142 -2.20955e-05
-0.000924162 0.00027692 0.00027739 -1.32344e-05
-0.000737477 0.000220775 0.000221444 -1.82184e-05
-0.000554818 0.00016588 0.000166688 -2.20978e-05
-0.000741532 0.000222015 0.00022265 -1.81956e-05
-0.000739502 0.000221391 0.000222048 -1.82095e-05
-0.000921641 0.000276159 0.000276635 -1.32451e-05
-0.0009166 0.000274643 0.000275125 -1.32557e-05
-0.000550246 0.000164487 0.000165325 -2.21015e-05
-0.000553289 0.00016541 0.000166234 -2.20995e-05
-0.00091912 0.0002754 0.00027588 -1.32516e-05
-0.000733434 0.000219554 0.000220234 -1.82284e-05
-0.000551766 0.000164947 0.00016578 -2.21008e-05
-0.000737477 0.000220775 0.000221444 -1.82184e-05
-0.000735454 0.000220163 0.000220839 -1.82244e-05
-0.0009166 0.000274643 0.000275125 -1.32557e-05
-0.000911559 0.000273131 0.000273612 -1.32594e-05
-0.000547211 0.000163577 0.000164415 -2.2102e-05
-0.000550246 0.000164487 0.000165325 -2.21015e-05
-0.000914079 0.000273886 0.000274368 -1.32581e-05
-0.000729396 0.000218342 0.000219023 -1.8232e-05
-0.000548728 0.000164031 0.00016487 -2.21018e-05
-0.000733434 0.000219554 0.000220234 -1.82284e-05
-0.000731414 0.000218947 0.000219629 -1.82308e-05
-0.000911559 0.000273131 0.000273612 -1.32594e-05
-0.000906517 0.000271621 0.000272098 -1.32599e-05
-0.000544181 0.000162671 0.000163504 -2.21019e-05
-0.000547211 0.000163577 0.000164415 -2.2102e-05
-0.000909038 0.000272376 0.000272855 -1.32598e-05
-0.00072536 0.000217135 0.000217811 -1.82328e-05
-0.000545696 0.000163123 0.00016396 -2.2102e-05
-0.000729396 0.000218342 0.000219023 -1.8232e-05
-0.000727378 0.000217738 0.000218417 -1.82326e-05
-0.000906517 0.000271621 0.000272098 -1.32599e-05
-0.000901475 0.000270112 0.000270584 -1.32594e-05
-0.000541152 0.000161769 0.000162593 -2.21017e-05
-0.000544181 0.000162671 0.000163504 -2.21019e-05
-0.000903996 0.000270867 0.000271341 -1.32597e-05
-0.000721325 0.000215929 0.000216598 -1.82326e-05
-0.000542666 0.00016222 0.000163049 -2.21018e-05
-0.00072536 0.000217135 0.000217811 -1.82328e-05
-0.000723342 0.000216532 0.000217205 -1.82328e-05
-0.000901475 0.000270112 0.000270584 -1.32594e-05
-0.000896434 0.000268604 0.00026907 -1.32587e-05
-0.000538123 0.000160867 0.000161681 -2.21014e-05
-0.000541152 0.000161769 0.000162593 -2.21017e-05
-0.000898955 0.000269358 0.000269827 -1.32591e-05
-0.00071729 0.000214724 0.000215385 -1.82322e-05
-0.000539638 0.000161317 0.000162137 -2.21015e-05
-0.000721325 0.000215929 0.000216598 -1.82326e-05
-0.000719307 0.000215326 0.000215992 -1.82324e-05
-0.000896434 0.000268604 0.00026907 -1.32587e-05
-0.000891392 0.000267095 0.000267556 -1.32582e-05
-0.000535094 0.000159965 0.00016077 -2.21012e-05
-0.000538123 0.000160867 0.000161681 -2.21014e-05
-0.000893913 0.000267849 0.000268313 -1.32584e-05
-0.000713254 0.000213519 0.000214172 -1.82317e-05
-0.000536609 0.000160416 0.000161226 -2.21013e-05
-0.00071729 0.000214724 0.000215385 -1.82322e-05
-0.000715272 0.000214121 0.000214779 -1.82319e-05
-0.000891392 0.000267095 0.000267556 -1.32582e-05
-0.00088635 0.000265587 0.000266042 -1.32578e-05
-0.000532065 0.000159063 0.000159858 -2.2101e-05
-0.000535094 0.000159965 0.00016077 -2.21012e-05
-0.000888871 0.000266341 0.000266799 -1.3258e-05
-0.000709219 0.000212314 0.000212959 -1.82314e-05
-0.00053358 0.000159514 0.000160314 -2.21011e-05
-0.000713254 0.000213519 0.000214172 -1.82317e-05
-0.000711237 0.000212916 0.000213566 -1.82316e-05
-0.00088635 0.000265587 0.000266042 -1.32578e-05
-0.000881309 0.000264078 0.000264527 -1.32576e-05
-0.000529036 0.000158161 0.000158947 -2.21009e-05
-0.000532065 0.000159063 0.000159858 -2.2101e-05
-0.000883829 0.000264832 0.000265284 -1.32577e-05
-0.000705183 0.000211109 0.000211746 -1.82312e-05
-0.000530551 0.000158612 0.000159402 -2.21009e-05
-0.000709219 0.000212314 0.000212959 -1.82314e-05
-0.000707201 0.000211711 0.000212353 -1.82313e-05
-0.000881309 0.000264078 0.000264527 -1.32576e-05
-0.000876267 0.000262569 0.000263013 -1.32575e-05
-0.000526007 0.000157258 0.000158035 -2.21009e-05
-0.000529036 0.000158161 0.000158947 -2.21009e-05
-0.000878788 0.000263324 0.00026377 -1.32575e-05
-0.000701148 0.000209903 0.000210533 -1.82311e-05
-0.000527522 0.00015771 0.000158491 -2.21009e-05
-0.000705183 0.000211109 0.000211746 -1.82312e-05
-0.000703166 0.000210506 0.00021114 -1.82312e-05
-0.000876267 0.000262569 0.000263013 -1.32575e-05
-0.000871225 0.000261061 0.000261499 -1.32574e-05
-0.000522978 0.000156356 0.000157124 -2.21008e-05
-0.000526007 0.000157258 0.000158035 -2.21009e-05
-0.000873746 0.000261815 0.000262256 -1.32575e-05
-0.000697112 0.000208698 0.00020932 -1.82311e-05
-0.000524493 0.000156807 0.000157579 -2.21009e-05
-0.000701148 0.000209903 0.000210533 -1.82311e-05
-0.00069913 0.000209301 0.000209927 -1.82311e-05
-0.000871225 0.000261061 0.000261499 -1.32574e-05
-0.000866184 0.000259552 0.000259985 -1.32574e-05
-0.000519949 0.000155454 0.000156212 -2.21009e-05
-0.000522978 0.000156356 0.000157124 -2.21008e-05
-0.000868705 0.000260306 0.000260742 -1.32574e-05
-0.000693077 0.000207493 0.000208108 -1.82311e-05
-0.000521463 0.000155905 0.000156668 -2.21008e-05
-0.000697112 0.000208698 0.00020932 -1.82311e-05
-0.000695095 0.000208095 0.000208714 -1.82311e-05
-0.000866184 0.000259552 0.000259985 -1.32574e-05
-0.000861142 0.000258043 0.000258471 -1.32575e-05
-0.00051692 0.000154551 0.000155301 -2.21009e-05
-0.000519949 0.000155454 0.000156212 -2.21009e-05
-0.000863663 0.000258798 0.000259228 -1.32574e-05
-0.000689041 0.000206287 0.000206895 -1.82311e-05
-0.000518434 0.000155003 0.000155756 -2.21009e-05
-0.000693077 0.000207493 0.000208108 -1.82311e-05
-0.000691059 0.00020689 0.000207501 -1.82311e-05
-0.000861142 0.000258043 0.000258471 -1.32575e-05
-0.000856101 0.000256535 0.000256957 -1.32575e-05
-0.000513891 0.000153649 0.000154389 -2.21009e-05
-0.00051692 0.000154551 0.000155301 -2.21009e-05
-0.000858622 0.000257289 0.000257714 -1.32575e-05
-0.000685006 0.000205082 0.000205682 -1.82311e-05
-0.000515405 0.0001541 0.000154845 -2.21009e-05
-0.000689041 0.000206287 0.000206895 -1.82311e-05
-0.000687024 0.000205684 0.000206288 -1.82311e-05
-0.000856101 0.000256535 0.000256957 -1.32575e-05
-0.00085106 0.000255026 0.000255443 -1.32575e-05
-0.000510861 0.000152746 0.000153478 -2.21009e-05
-0.000513891 0.000153649 0.000154389 -2.21009e-05
-0.00085358 0.00025578 0.0002562 -1.32575e-05
-0.000680971 0.000203876 0.000204469 -1.82312e-05
-0.000512376 0.000153198 0.000153934 -2.21009e-05
-0.000685006 0.000205082 0.000205682 -1.82311e-05
-0.000682988 0.000204479 0.000205076 -1.82312e-05
-0.00085106 0.000255026 0.000255443 -1.32575e-05
-0.000846018 0.000253517 0.000253929 -1.32576e-05
-0.000507832 0.000151844 0.000152566 -2.21009e-05
-0.000510861 0.000152746 0.000153478 -2.21009e-05
-0.000848539 0.000254271 0.000254686 -1.32575e-05
-0.000676935 0.000202671 0.000203256 -1.82312e-05
-0.000509347 0.000152295 0.000153022 -2.21009e-05
-0.000680971 0.000203876 0.000204469 -1.82312e-05
-0.000678953 0.000203273 0.000203863 -1.82312e-05
-0.000846018 0.000253517 0.000253929 -1.32576e-05
-0.000840977 0.000252008 0.000252415 -1.32576e-05
-0.000504803 0.000150941 0.000151655 -2.2101e-05
-0.000507832 0.000151844 0.000152566 -2.21009e-05
-0.000843498 0.000252763 0.000253172 -1.32576e-05
-0.0006729 0.000201465 0.000202044 -1.82312e-05
-0.000506318 0.000151393 0.000152111 -2.2101e-05
-0.000676935 0.000202671 0.000203256 -1.82312e-05
-0.000674918 0.000202068 0.00020265 -1.82312e-05
-0.000840977 0.000252008 0.000252415 -1.32576e-05
-0.000835936 0.0002505 0.000250901 -1.32576e-05
-0.000501774 0.000150039 0.000150744 -2.2101e-05
-0.000504803 0.000150941 0.000151655 -2.2101e-05
-0.000838456 0.000251254 0.000251658 -1.32576e-05
-0.000668865 0.000200259 0.000200831 -1.82313e-05
-0.000503289 0.00015049 0.000151199 -2.2101e-05
-0.0006729 0.000201465 0.000202044 -1.82312e-05
-0.000670882 0.000200862 0.000201437 -1.82313e-05
-0.000835936 0.0002505 0.000250901 -1.32576e-05
-0.000830894 0.000248991 0.000249387 -1.32577e-05
-0.000498746 0.000149136 0.000149833 -2.2101e-05
-0.000501774 0.000150039 0.000150744 -2.2101e-05
-0.000833415 0.000249745 0.000250144 -1.32576e-05
-0.00066483 0.000199054 0.000199618 -1.82313e-05
-0.00050026 0.000149588 0.000150288 -2.2101e-05
-0.000668865 0.000200259 0.000200831 -1.82313e-05
-0.000666847 0.000199657 0.000200225 -1.82313e-05
-0.000830894 0.000248991 0.000249387 -1.32577e-05
-0.000825853 0.000247482 0.000247873 -1.32577e-05
-0.000495717 0.000148234 0.000148921 -2.2101e-05
-0.000498746 0.000149136 0.000149833 -2.2101e-05
-0.000828374 0.000248236 0.00024863 -1.32577e-05
-0.000660794 0.000197848 0.000198405 -1.82313e-05
-0.000497231 0.000148685 0.000149377 -2.2101e-05
-0.00066483 0.000199054 0.000199618 -1.82313e-05
-0.000662812 0.000198451 0.000199012 -1.82313e-05
-0.000825853 0.000247482 0.000247873 -1.32577e-05
-0.000820812 0.000245973 0.000246359 -1.32577e-05
-0.000492688 0.000147331 0.00014801 -2.2101e-05
-0.000495717 0.000148234 0.000148921 -2.2101e-05
-0.000823332 0.000246728 0.000247116 -1.32577e-05
-0.000656759 0.000196643 0.000197193 -1.82314e-05
-0.000494202 0.000147782 0.000148466 -2.2101e-05
-0.000660794 0.000197848 0.000198405 -1.82313e-05
-0.000658777 0.000197246 0.000197799 -1.82313e-05
-0.000820812 0.000245973 0.000246359 -1.32577e-05
-0.000815771 0.000244464 0.000244846 -1.32577e-05
-0.000489659 0.000146428 0.000147099 -2.21011e-05
-0.000492688 0.000147331 0.00014801 -2.2101e-05
-0.000818291 0.000245219 0.000245603 -1.32577e-05
-0.000652724 0.000195437 0.00019598 -1.82314e-05
-0.000491174 0.00014688 0.000147554 -2.2101e-05
-0.000656759 0.000196643 0.000197193 -1.82314e-05
-0.000654742 0.00019604 0.000196587 -1.82314e-05
-0.000815771 0.000244464 0.000244846 -1.32577e-05
-0.00081073 0.000242956 0.000243332 -1.32578e-05
-0.000486631 0.000145526 0.000146188 -2.21011e-05
-0.000489659 0.000146428 0.000147099 -2.21011e-05
-0.00081325 0.00024371 0.000244089 -1.32578e-05
-0.000648689 0.000194231 0.000194768 -1.82314e-05
-0.000488145 0.000145977 0.000146643 -2.21011e-05
-0.000652724 0.000195437 0.00019598 -1.82314e-05
-0.000650707 0.000194834 0.000195374 -1.82314e-05
-0.00081073 0.000242956 0.000243332 -1.32578e-05
-0.000805689 0.000241447 0.000241818 -1.32578e-05
-0.000483602 0.000144623 0.000145277 -2.21011e-05
-0.000486631 0.000145526 0.000146188 -2.21011e-05
-0.000808209 0.000242201 0.000242575 -1.32578e-05
-0.000644654 0.000193026 0.000193555 -1.82314e-05
-0.000485116 0.000145074 0.000145732 -2.21011e-05
-0.000648689 0.000194231 0.000194768 -1.82314e-05
-0.000646672 0.000193629 0.000194161 -1.82314e-05
-0.000805689 0.000241447 0.000241818 -1.32578e-05
-0.000800648 0.000239938 0.000240304 -1.32578e-05
-0.000480573 0.00014372 0.000144366 -2.21011e-05
-0.000483602 0.000144623 0.000145277 -2.21011e-05
-0.000803168 0.000240692 0.000241061 -1.32578e-05
-0.000640619 0.00019182 0.000192343 -1.82315e-05
-0.000482088 0.000144172 0.000144821 -2.21011e-05
-0.000644654 0.000193026 0.000193555 -1.82314e-05
-0.000642637 0.000192423 0.000192949 -1.82314e-05
-0.000800648 0.000239938 0.000240304 -1.32578e-05
-0.000795607 0.000238429 0.00023879 -1.32578e-05
-0.000477545 0.000142818 0.000143454 -2.21011e-05
-0.000480573 0.00014372 0.000144366 -2.21011e-05
-0.000798127 0.000239183 0.000239547 -1.32578e-05
-0.000636585 0.000190615 0.00019113 -1.82315e-05
-0.000479059 0.000143269 0.00014391 -2.21011e-05
-0.000640619 0.00019182 0.000192343 -1.82315e-05
-0.000638602 0.000191217 0.000191736 -1.82315e-05
-0.000795607 0.000238429 0.00023879 -1.32578e-05
-0.000790566 0.00023692 0.000237277 -1.32579e-05
-0.000474516 0.000141915 0.000142543 -2.21011e-05
-0.000477545 0.000142818 0.000143454 -2.21011e-05
-0.000793086 0.000237675 0.000238033 -1.32579e-05
-0.00063255 0.000189409 0.000189918 -1.82315e-05
-0.00047603 0.000142366 0.000142999 -2.21011e-05
-0.000636585 0.000190615 0.00019113 -1.82315e-05
-0.000634567 0.000190012 0.000190524 -1.82315e-05
-0.000790566 0.00023692 0.000237277 -1.32579e-05
-0.000785525 0.000235411 0.000235763 -1.32579e-05
-0.000471488 0.000141012 0.000141632 -2.21011e-05
-0.000474516 0.000141915 0.000142543 -2.21011e-05
-0.000788045 0.000236166 0.00023652 -1.32579e-05
-0.000628515 0.000188203 0.000188705 -1.82315e-05
-0.000473002 0.000141464 0.000142088 -2.21011e-05
-0.00063255 0.000189409 0.000189918 -1.82315e-05
-0.000630532 0.000188806 0.000189311 -1.82315e-05
-0.000785525 0.000235411 0.000235763 -1.32579e-05
-0.000780484 0.000233902 0.000234249 -1.32579e-05
-0.000468459 0.000140109 0.000140721 -2.21011e-05
-0.000471488 0.000141012 0.000141632 -2.21011e-05
-0.000783004 0.000234657 0.000235006 -1.32579e-05
-0.00062448 0.000186997 0.000187493 -1.82315e-05
-0.000469974 0.000140561 0.000141177 -2.21011e-05
-0.000628515 0.000188203 0.000188705 -1.82315e-05
-0.000626498 0.0001876 0.000188099 -1.82315e-05
-0.000780484 0.000233902 0.000234249 -1.32579e-05
-0.000775443 0.000232394 0.000232735 -1.32579e-05
-0.000465431 0.000139207 0.00013981 -2.21011e-05
-0.000468459 0.000140109 0.000140721 -2.21011e-05
-0.000777963 0.000233148 0.000233492 -1.32579e-05
-0.000620445 0.000185792 0.00018628 -1.82315e-05
-0.000466945 0.000139658 0.000140266 -2.21011e-05
-0.00062448 0.000186997 0.000187493 -1.82315e-05
-0.000622463 0.000186395 0.000186886 -1.82315e-05
-0.000775443 0.000232394 0.000232735 -1.32579e-05
-0.000770402 0.000230885 0.000231222 -1.3258e-05
-0.000462403 0.000138304 0.0001389 -2.21011e-05
-0.000465431 0.000139207 0.00013981 -2.21011e-05
-0.000772923 0.000231639 0.000231979 -1.32579e-05
-0.000616411 0.000184586 0.000185068 -1.82316e-05
-0.000463917 0.000138755 0.000139355 -2.21011e-05
-0.000620445 0.000185792 0.00018628 -1.82315e-05
-0.000618428 0.000185189 0.000185674 -1.82316e-05
-0.000770402 0.000230885 0.000231222 -1.3258e-05
-0.000765361 0.000229376 0.000229708 -1.3258e-05
-0.000459374 0.000137401 0.000137989 -2.21011e-05
-0.000462403 0.000138304 0.0001389 -2.21011e-05
-0.000767882 0.00023013 0.000230465 -1.3258e-05
-0.000612376 0.00018338 0.000183855 -1.82316e-05
-0.000460889 0.000137852 0.000138444 -2.21011e-05
-0.000616411 0.000184586 0.000185068 -1.82316e-05
-0.000614393 0.000183983 0.000184462 -1.82316e-05
-0.000765361 0.000229376 0.000229708 -1.3258e-05
-0.000760321 0.000227867 0.000228195 -1.3258e-05
-0.000456346 0.000136498 0.000137078 -2.21012e-05
-0.000459374 0.000137401 0.000137989 -2.21011e-05
-0.000762841 0.000228621 0.000228951 -1.3258e-05
-0.000608342 0.000182174 0.000182643 -1.82316e-05
-0.00045786 0.000136949 0.000137533 -2.21012e-05
-0.000612376 0.00018338 0.000183855 -1.82316e-05
-0.000610359 0.000182777 0.000183249 -1.82316e-05
-0.000760321 0.000227867 0.000228195 -1.3258e-05
-0.00075528 0.000226358 0.000226681 -1.3258e-05
-0.000453318 0.000135595 0.000136167 -2.21012e-05
-0.000456346 0.000136498 0.000137078 -2.21012e-05
-0.0007578 0.000227112 0.000227438 -1.3258e-05
-0.000604307 0.000180969 0.000181431 -1.82316e-05
-0.000454832 0.000136047 0.000136622 -2.21012e-05
-0.000608342 0.000182174 0.000182643 -1.82316e-05
-0.000606324 0.000181571 0.000182037 -1.82316e-05
-0.00075528 0.000226358 0.000226681 -1.3258e-05
-0.000750239 0.000224849 0.000225167 -1.3258e-05
-0.00045029 0.000134692 0.000135256 -2.21012e-05
-0.000453318 0.000135595 0.000136167 -2.21012e-05
-0.00075276 0.000225603 0.000225924 -1.3258e-05
-0.000600273 0.000179763 0.000180219 -1.82316e-05
-0.000451804 0.000135144 0.000135712 -2.21012e-05
-0.000604307 0.000180969 0.000181431 -1.82316e-05
-0.00060229 0.000180366 0.000180825 -1.82316e-05
-0.000750239 0.000224849 0.000225167 -1.3258e-05
-0.000745199 0.00022334 0.000223654 -1.32581e-05
-0.000447262 0.000133789 0.000134345 -2.21012e-05
-0.00045029 0.000134692 0.000135256 -2.21012e-05
-0.000747719 0.000224095 0.000224411 -1.32581e-05
-0.000596238 0.000178557 0.000179006 -1.82317e-05
-0.000448776 0.000134241 0.000134801 -2.21012e-05
-0.000600273 0.000179763 0.000180219 -1.82316e-05
-0.000598255 0.00017916 0.000179612 -1.82316e-05
-0.000745199 0.00022334 0.000223654 -1.32581e-05
-0.000740158 0.000221831 0.00022214 -1.32581e-05
-0.000444234 0.000132886 0.000133435 -2.21012e-05
-0.000447262 0.000133789 0.000134345 -2.21012e-05
-0.000742679 0.000222586 0.000222897 -1.32581e-05
-0.000592204 0.000177351 0.000177794 -1.82317e-05
-0.000445748 0.000133338 0.00013389 -2.21012e-05
-0.000596238 0.000178557 0.000179006 -1.82317e-05
-0.000594221 0.000177954 0.0001784 -1.82317e-05
-0.000740158 0.000221831 0.00022214 -1.32581e-05
-0.000735118 0.000220322 0.000220627 -1.32581e-05
-0.000441206 0.000131983 0.000132524 -2.21012e-05
-0.000444234 0.000132886 0.000133435 -2.21012e-05
-0.000737638 0.000221077 0.000221383 -1.32581e-05
-0.00058817 0.000176145 0.000176582 -1.82317e-05
-0.00044272 0.000132435 0.000132979 -2.21012e-05
-0.000592204 0.000177351 0.000177794 -1.82317e-05
-0.000590187 0.000176748 0.000177188 -1.82317e-05
-0.000735118 0.000220322 0.000220627 -1.32581e-05
-0.000730077 0.000218813 0.000219113 -1.32581e-05
-0.000438178 0.00013108 0.000131613 -2.21012e-05
-0.000441206 0.000131983 0.000132524 -2.21012e-05
-0.000732598 0.000219568 0.00021987 -1.32581e-05
-0.000584135 0.000174939 0.00017537 -1.82317e-05
-0.000439692 0.000131532 0.000132069 -2.21012e-05
-0.00058817 0.000176145 0.000176582 -1.82317e-05
-0.000586152 0.000175542 0.000175976 -1.82317e-05
-0.000730077 0.000218813 0.000219113 -1.32581e-05
-0.000725037 0.000217304 0.0002176 -1.32581e-05
-0.00043515 0.000130177 0.000130703 -2.21012e-05
-0.000438178 0.00013108 0.000131613 -2.21012e-05
-0.000727557 0.000218059 0.000218356 -1.32581e-05
-0.000580101 0.000173733 0.000174158 -1.82317e-05
-0.000436664 0.000130629 0.000131158 -2.21012e-05
-0.000584135 0.000174939 0.00017537 -1.82317e-05
-0.000582118 0.000174336 0.000174764 -1.82317e-05
-0.000725037 0.000217304 0.0002176 -1.32581e-05
-0.000719997 0.000215795 0.000216086 -1.32582e-05
-0.000432122 0.000129274 0.000129792 -2.21012e-05
-0.00043515 0.000130177 0.000130703 -2.21012e-05
-0.000722517 0.00021655 0.000216843 -1.32582e-05
-0.000576067 0.000172528 0.000172945 -1.82317e-05
-0.000433636 0.000129726 0.000130247 -2.21012e-05
-0.000580101 0.000173733 0.000174158 -1.82317e-05
-0.000578084 0.000173131 0.000173551 -1.82317e-05
-0.000719997 0.000215795 0.000216086 -1.32582e-05
-0.000714956 0.000214286 0.000214573 -1.32582e-05
-0.000429095 0.000128371 0.000128881 -2.21012e-05
-0.000432122 0.000129274 0.000129792 -2.21012e-05
-0.000717476 0.000215041 0.00021533 -1.32582e-05
-0.000572033 0.000171322 0.000171733 -1.82317e-05
-0.000430609 0.000128823 0.000129337 -2.21012e-05
-0.000576067 0.000172528 0.000172945 -1.82317e-05
-0.00057405 0.000171925 0.000172339 -1.82317e-05
-0.000714956 0.000214286 0.000214573 -1.32582e-05
-0.000709916 0.000212777 0.000213059 -1.32582e-05
-0.000426067 0.000127468 0.000127971 -2.21012e-05
-0.000429095 0.000128371 0.000128881 -2.21012e-05
-0.000712436 0.000213532 0.000213816 -1.32582e-05
-0.000567999 0.000170116 0.000170521 -1.82318e-05
-0.000427581 0.00012792 0.000128426 -2.21012e-05
-0.000572033 0.000171322 0.000171733 -1.82317e-05
-0.000570016 0.000170719 0.000171127 -1.82317e-05
-0.000709916 0.000212777 0.000213059 -1.32582e-05
-0.000704876 0.000211268 0.000211546 -1.32582e-05
-0.000423039 0.000126565 0.00012706 -2.21012e-05
-0.000426067 0.000127468 0.000127971 -2.21012e-05
-0.000707396 0.000212023 0.000212303 -1.32582e-05
-0.000563965 0.00016891 0.000169309 -1.82318e-05
-0.000424553 0.000127017 0.000127516 -2.21012e-05
-0.000567999 0.000170116 0.000170521 -1.82318e-05
-0.000565982 0.000169513 0.000169915 -1.82318e-05
-0.000704876 0.000211268 0.000211546 -1.32582e-05
-0.000699836 0.000209759 0.000210033 -1.32582e-05
-0.000420012 0.000125662 0.00012615 -2.21012e-05
-0.000423039 0.000126565 0.00012706 -2.21012e-05
-0.000702356 0.000210514 0.000210789 -1.32582e-05
-0.000559931 0.000167704 0.000168097 -1.82318e-05
-0.000421526 0.000126114 0.000126605 -2.21012e-05
-0.000563965 0.00016891 0.000169309 -1.82318e-05
-0.000561948 0.000168307 0.000168703 -1.82318e-05
-0.000699836 0.000209759 0.000210033 -1.32582e-05
-0.000694795 0.00020825 0.000208519 -1.32583e-05
-0.000416984 0.000124759 0.000125239 -2.21012e-05
-0.000420012 0.000125662 0.00012615 -2.21012e-05
-0.000697316 0.000209005 0.000209276 -1.32582e-05
-0.000555897 0.000166498 0.000166885 -1.82318e-05
-0.000418498 0.00012521 0.000125695 -2.21012e-05
-0.000559931 0.000167704 0.000168097 -1.82318e-05
-0.000557914 0.000167101 0.000167491 -1.82318e-05
-0.000694795 0.00020825 0.000208519 -1.32583e-05
-0.000689755 0.000206741 0.000207006 -1.32583e-05
-0.000413957 0.000123856 0.000124329 -2.21012e-05
-0.000416984 0.000124759 0.000125239 -2.21012e-05
-0.000692275 0.000207496 0.000207763 -1.32583e-05
-0.000551863 0.000165292 0.000165673 -1.82318e-05
-0.00041547 0.000124307 0.000124784 -2.21012e-05
-0.000555897 0.000166498 0.000166885 -1.82318e-05
-0.00055388 0.000165895 0.000166279 -1.82318e-05
-0.000689755 0.000206741 0.000207006 -1.32583e-05
-0.000684715 0.000205232 0.000205493 -1.32583e-05
-0.000410929 0.000122952 0.000123419 -2.21012e-05
-0.000413957 0.000123856 0.000124329 -2.21012e-05
-0.000687235 0.000205987 0.000206249 -1.32583e-05
-0.000547829 0.000164086 0.000164461 -1.82318e-05
-0.000412443 0.000123404 0.000123874 -2.21012e-05
-0.000551863 0.000165292 0.000165673 -1.82318e-05
-0.000549846 0.000164689 0.000165067 -1.82318e-05
-0.000684715 0.000205232 0.000205493 -1.32583e-05
-0.000679675 0.000203723 0.000203979 -1.32583e-05
-0.000407902 0.000122049 0.000122508 -2.21012e-05
-0.000410929 0.000122952 0.000123419 -2.21012e-05
-0.000682195 0.000204478 0.000204736 -1.32583e-05
-0.000543795 0.00016288 0.000163249 -1.82318e-05
-0.000409416 0.000122501 0.000122963 -2.21012e-05
-0.000547829 0.000164086 0.000164461 -1.82318e-05
-0.000545812 0.000163483 0.000163855 -1.82318e-05
-0.000679675 0.000203723 0.000203979 -1.32583e-05
-0.000674635 0.000202214 0.000202466 -1.32583e-05
-0.000404874 0.000121146 0.000121598 -2.21012e-05
-0.000407902 0.000122049 0.000122508 -2.21012e-05
-0.000677155 0.000202969 0.000203223 -1.32583e-05
-0.000539761 0.000161674 0.000162038 -1.82318e-05
-0.000406388 0.000121598 0.000122053 -2.21012e-05
-0.000543795 0.00016288 0.000163249 -1.82318e-05
-0.000541778 0.000162277 0.000162643 -1.82318e-05
-0.000674635 0.000202214 0.000202466 -1.32583e-05
-0.000669595 0.000200705 0.000200953 -1.32583e-05
-0.000401847 0.000120243 0.000120688 -2.21012e-05
-0.000404874 0.000121146 0.000121598 -2.21012e-05
-0.000672115 0.00020146 0.00020171 -1.32583e-05
-0.000535728 0.000160468 0.000160826 -1.82319e-05
-0.000403361 0.000120694 0.000121143 -2.21012e-05
-0.000539761 0.000161674 0.000162038 -1.82318e-05
-0.000537744 0.000161071 0.000161432 -1.82319e-05
-0.000669595 0.000200705 0.000200953 -1.32583e-05
-0.000664556 0.000199196 0.00019944 -1.32584e-05
-0.00039882 0.00011934 0.000119777 -2.21012e-05
-0.000401847 0.000120243 0.000120688 -2.21012e-05
-0.000667075 0.000199951 0.000200196 -1.32584e-05
-0.000531694 0.000159262 0.000159614 -1.82319e-05
-0.000400334 0.000119791 0.000120232 -2.21012e-05
-0.000535728 0.000160468 0.000160826 -1.82319e-05
-0.000533711 0.000159865 0.00016022 -1.82319e-05
-0.000664556 0.000199196 0.00019944 -1.32584e-05
-0.000659516 0.000197687 0.000197927 -1.32584e-05
-0.000395793 0.000118436 0.000118867 -2.21012e-05
-0.00039882 0.00011934 0.000119777 -2.21012e-05
-0.000662036 0.000198441 0.000198683 -1.32584e-05
-0.00052766 0.000158055 0.000158402 -1.82319e-05
-0.000397306 0.000118888 0.000119322 -2.21012e-05
-0.000531694 0.000159262 0.000159614 -1.82319e-05
-0.000529677 0.000158659 0.000159008 -1.82319e-05
-0.000659516 0.000197687 0.000197927 -1.32584e-05
-0.000654476 0.000196178 0.000196413 -1.32584e-05
-0.000392766 0.000117533 0.000117957 -2.21012e-05
-0.000395793 0.000118436 0.000118867 -2.21012e-05
-0.000656996 0.000196932 0.00019717 -1.32584e-05
-0.000523627 0.000156849 0.00015719 -1.82319e-05
-0.000394279 0.000117985 0.000118412 -2.21012e-05
-0.00052766 0.000158055 0.000158402 -1.82319e-05
-0.000525644 0.000157452 0.000157796 -1.82319e-05
-0.000654476 0.000196178 0.000196413 -1.32584e-05
-0.000649436 0.000194669 0.0001949 -1.32584e-05
-0.000389738 0.00011663 0.000117047 -2.21012e-05
-0.000392766 0.000117533 0.000117957 -2.21012e-05
-0.000651956 0.000195423 0.000195657 -1.32584e-05
-0.000519593 0.000155643 0.000155979 -1.82319e-05
-0.000391252 0.000117081 0.000117502 -2.21012e-05
-0.000523627 0.000156849 0.00015719 -1.82319e-05
-0.00052161 0.000156246 0.000156584 -1.82319e-05
-0.000649436 0.000194669 0.0001949 -1.32584e-05
-0.000644396 0.00019316 0.000193387 -1.32584e-05
-0.000386711 0.000115726 0.000116137 -2.21012e-05
-0.000389738 0.00011663 0.000117047 -2.21012e-05
-0.000646916 0.000193914 0.000194144 -1.32584e-05
-0.00051556 0.000154437 0.000154767 -1.82319e-05
-0.000388225 0.000116178 0.000116592 -2.21012e-05
-0.000519593 0.000155643 0.000155979 -1.82319e-05
-0.000517576 0.00015504 0.000155373 -1.82319e-05
-0.000644396 0.00019316 0.000193387 -1.32584e-05
-0.000639357 0.00019165 0.000191874 -1.32585e-05
-0.000383684 0.000114823 0.000115226 -2.21012e-05
-0.000386711 0.000115726 0.000116137 -2.21012e-05
-0.000641877 0.000192405 0.000192631 -1.32584e-05
-0.000511526 0.000153231 0.000153555 -1.82319e-05
-0.000385198 0.000115275 0.000115681 -2.21012e-05
-0.00051556 0.000154437 0.000154767 -1.82319e-05
-0.000513543 0.000153834 0.000154161 -1.82319e-05
-0.000639357 0.00019165 0.000191874 -1.32585e-05
-0.000634317 0.000190141 0.000190361 -1.32585e-05
-0.000380657 0.000113919 0.000114316 -2.21012e-05
-0.000383684 0.000114823 0.000115226 -2.21012e-05
-0.000636837 0.000190896 0.000191118 -1.32585e-05
-0.000507493 0.000152025 0.000152343 -1.82319e-05
-0.000382171 0.000114371 0.000114771 -2.21012e-05
-0.000511526 0.000153231 0.000153555 -1.82319e-05
-0.00050951 0.000152628 0.000152949 -1.82319e-05
-0.000634317 0.000190141 0.000190361 -1.32585e-05
-0.000629278 0.000188632 0.000188848 -1.32585e-05
-0.000377631 0.000113016 0.000113406 -2.21012e-05
-0.000380657 0.000113919 0.000114316 -2.21012e-05
-0.000631797 0.000189387 0.000189604 -1.32585e-05
-0.00050346 0.000150819 0.000151132 -1.82319e-05
-0.000379144 0.000113468 0.000113861 -2.21012e-05
-0.000507493 0.000152025 0.000152343 -1.82319e-05
-0.000505476 0.000151422 0.000151738 -1.82319e-05
-0.000629278 0.000188632 0.000188848 -1.32585e-05
-0.000624238 0.000187123 0.000187335 -1.32585e-05
-0.000374604 0.000112113 0.000112496 -2.21012e-05
-0.000377631 0.000113016 0.000113406 -2.21012e-05
-0.000626758 0.000187878 0.000188091 -1.32585e-05
-0.000499426 0.000149612 0.00014992 -1.8232e-05
-0.000376117 0.000112564 0.000112951 -2.21012e-05
-0.00050346 0.000150819 0.000151132 -1.82319e-05
-0.000501443 0.000150216 0.000150526 -1.8232e-05
-0.000624238 0.000187123 0.000187335 -1.32585e-05
-0.000619198 0.000185614 0.000185822 -1.32585e-05
-0.000371577 0.000111209 0.000111586 -2.21012e-05
-0.000374604 0.000112113 0.000112496 -2.21012e-05
-0.000621718 0.000186369 0.000186578 -1.32585e-05
-0.000495393 0.000148406 0.000148709 -1.8232e-05
-0.00037309 0.000111661 0.000112041 -2.21012e-05
-0.000499426 0.000149612 0.00014992 -1.8232e-05
-0.00049741 0.000149009 0.000149314 -1.8232e-05
-0.000619198 0.000185614 0.000185822 -1.32585e-05
-0.000614159 0.000184105 0.000184309 -1.32585e-05
-0.00036855 0.000110306 0.000110676 -2.21012e-05
-0.000371577 0.000111209 0.000111586 -2.21012e-05
-0.000616679 0.000184859 0.000185065 -1.32585e-05
-0.00049136 0.0001472 0.000147497 -1.8232e-05
-0.000370064 0.000110757 0.000111131 -2.21012e-05
-0.000495393 0.000148406 0.000148709 -1.8232e-05
-0.000493377 0.000147803 0.000148103 -1.8232e-05
-0.000614159 0.000184105 0.000184309 -1.32585e-05
-0.00060912 0.000182596 0.000182796 -1.32586e-05
-0.000365524 0.000109402 0.000109766 -2.21012e-05
-0.00036855 0.000110306 0.000110676 -2.21012e-05
-0.000611639 0.00018335 0.000183552 -1.32585e-05
-0.000487327 0.000145994 0.000146286 -1.8232e-05
-0.000367037 0.000109854 0.000110221 -2.21012e-05
-0.00049136 0.0001472 0.000147497 -1.8232e-05
-0.000489343 0.000146597 0.000146891 -1.8232e-05
-0.00060912 0.000182596 0.000182796 -1.32586e-05
-0.00060408 0.000181086 0.000181283 -1.32586e-05
-0.000362497 0.000108499 0.000108856 -2.21012e-05
-0.000365524 0.000109402 0.000109766 -2.21012e-05
-0.0006066 0.000181841 0.00018204 -1.32586e-05
-0.000483294 0.000144787 0.000145074 -1.8232e-05
-0.00036401 0.00010895 0.000109311 -2.21012e-05
-0.000487327 0.000145994 0.000146286 -1.8232e-05
-0.00048531 0.000145391 0.00014568 -1.8232e-05
-0.00060408 0.000181086 0.000181283 -1.32586e-05
-0.000599041 0.000179577 0.00017977 -1.32586e-05
-0.00035947 0.000107595 0.000107947 -2.21012e-05
-0.000362497 0.000108499 0.000108856 -2.21012e-05
-0.000601561 0.000180332 0.000180527 -1.32586e-05
-0.000479261 0.000143581 0.000143863 -1.8232e-05
-0.000360984 0.000108047 0.000108401 -2.21012e-05
-0.000483294 0.000144787 0.000145074 -1.8232e-05
-0.000481277 0.000144184 0.000144468 -1.8232e-05
-0.000599041 0.000179577 0.00017977 -1.32586e-05
-0.000594002 0.000178068 0.000178257 -1.32586e-05
-0.000356444 0.000106692 0.000107037 -2.21012e-05
-0.00035947 0.000107595 0.000107947 -2.21012e-05
-0.000596521 0.000178823 0.000179014 -1.32586e-05
-0.000475228 0.000142375 0.000142651 -1.8232e-05
-0.000357957 0.000107143 0.000107492 -2.21012e-05
-0.000479261 0.000143581 0.000143863 -1.8232e-05
-0.000477244 0.000142978 0.000143257 -1.8232e-05
-0.000594002 0.000178068 0.000178257 -1.32586e-05
-0.000588962 0.000176559 0.000176744 -1.32586e-05
-0.000353417 0.000105788 0.000106127 -2.21012e-05
-0.000356444 0.000106692 0.000107037 -2.21012e-05
-0.000591482 0.000177313 0.000177501 -1.32586e-05
-0.000471195 0.000141169 0.00014144 -1.8232e-05
-0.000354931 0.00010624 0.000106582 -2.21012e-05
-0.000475228 0.000142375 0.000142651 -1.8232e-05
-0.000473211 0.000141772 0.000142045 -1.8232e-05
-0.000588962 0.000176559 0.000176744 -1.32586e-05
-0.000583923 0.00017505 0.000175232 -1.32586e-05
-0.000350391 0.000104884 0.000105217 -2.21012e-05
-0.000353417 0.000105788 0.000106127 -2.21012e-05
-0.000586443 0.000175804 0.000175988 -1.32586e-05
-0.000467162 0.000139962 0.000140228 -1.8232e-05
-0.000351904 0.000105336 0.000105672 -2.21012e-05
-0.000471195 0.000141169 0.00014144 -1.8232e-05
-0.000469178 0.000140565 0.000140834 -1.8232e-05
-0.000583923 0.00017505 0.000175232 -1.32586e-05
-0.000578884 0.00017354 0.000173719 -1.32587e-05
-0.000347364 0.000103981 0.000104307 -2.21012e-05
-0.000350391 0.000104884 0.000105217 -2.21012e-05
-0.000581404 0.000174295 0.000174475 -1.32586e-05
-0.000463129 0.000138756 0.000139017 -1.82321e-05
-0.000348878 0.000104433 0.000104762 -2.21012e-05
-0.000467162 0.000139962 0.000140228 -1.8232e-05
-0.000465145 0.000139359 0.000139623 -1.8232e-05
-0.000578884 0.00017354 0.000173719 -1.32587e-05
-0.000573845 0.000172031 0.000172206 -1.32587e-05
-0.000344338 0.000103077 0.000103398 -2.21012e-05
-0.000347364 0.000103981 0.000104307 -2.21012e-05
-0.000576365 0.000172786 0.000172962 -1.32587e-05
-0.000459096 0.00013755 0.000137806 -1.82321e-05
-0.000345851 0.000103529 0.000103852 -2.21012e-05
-0.000463129 0.000138756 0.000139017 -1.82321e-05
-0.000461113 0.000138153 0.000138411 -1.82321e-05
-0.000573845 0.000172031 0.000172206 -1.32587e-05
-0.000568806 0.000170522 0.000170693 -1.32587e-05
-0.000341312 0.000102173 0.000102488 -2.21012e-05
-0.000344338 0.000103077 0.000103398 -2.21012e-05
-0.000571325 0.000171277 0.00017145 -1.32587e-05
-0.000455063 0.000136343 0.000136594 -1.82321e-05
-0.000342825 0.000102625 0.000102943 -2.21012e-05
-0.000459096 0.00013755 0.000137806 -1.82321e-05
-0.00045708 0.000136946 0.0001372 -1.82321e-05
-0.000568806 0.000170522 0.000170693 -1.32587e-05
-0.000563767 0.000169013 0.00016918 -1.32587e-05
-0.000338286 0.00010127 0.000101578 -2.21012e-05
-0.000341312 0.000102173 0.000102488 -2.21012e-05
-0.000566286 0.000169767 0.000169937 -1.32587e-05
-0.000451031 0.000135137 0.000135383 -1.82321e-05
-0.000339799 0.000101722 0.000102033 -2.21012e-05
-0.000455063 0.000136343 0.000136594 -1.82321e-05
-0.000453047 0.00013574 0.000135989 -1.82321e-05
-0.000563767 0.000169013 0.00016918 -1.32587e-05
-0.000558728 0.000167503 0.000167668 -1.32587e-05
-0.000335259 0.000100366 0.000100669 -2.21012e-05
-0.000338286 0.00010127 0.000101578 -2.21012e-05
-0.000561247 0.000168258 0.000168424 -1.32587e-05
-0.000446998 0.00013393 0.000134172 -1.82321e-05
-0.000336773 0.000100818 0.000101123 -2.21012e-05
-0.000451031 0.000135137 0.000135383 -1.82321e-05
-0.000449014 0.000134534 0.000134778 -1.82321e-05
-0.000558728 0.000167503 0.000167668 -1.32587e-05
-0.000553689 0.000165994 0.000166155 -1.32587e-05
-0.000332233 9.94622e-05 9.97591e-05 -2.21012e-05
-0.000335259 0.000100366 0.000100669 -2.21012e-05
-0.000556209 0.000166749 0.000166911 -1.32587e-05
-0.000442966 0.000132724 0.000132961 -1.82321e-05
-0.000333746 9.99141e-05 0.000100214 -2.21012e-05
-0.000446998 0.00013393 0.000134172 -1.82321e-05
-0.000444982 0.000133327 0.000133566 -1.82321e-05
-0.000553689 0.000165994 0.000166155 -1.32587e-05
-0.00054865 0.000164485 0.000164642 -1.32588e-05
-0.000329207 9.85584e-05 9.88495e-05 -2.21012e-05
-0.000332233 9.94622e-05 9.97591e-05 -2.21012e-05
-0.00055117 0.00016524 0.000165399 -1.32587e-05
-0.000438933 0.000131518 0.000131749 -1.82321e-05
-0.00033072 9.90103e-05 9.93043e-05 -2.21012e-05
-0.000442966 0.000132724 0.000132961 -1.82321e-05
-0.000440949 0.000132121 0.000132355 -1.82321e-05
-0.00054865 0.000164485 0.000164642 -1.32588e-05
-0.000543611 0.000162976 0.00016313 -1.32588e-05
-0.000326181 9.76547e-05 9.794e-05 -2.21012e-05
-0.000329207 9.85584e-05 9.88495e-05 -2.21012e-05
-0.000546131 0.00016373 0.000163886 -1.32588e-05
-0.0004349 0.000130311 0.000130538 -1.82321e-05
-0.000327694 9.81066e-05 9.83947e-05 -2.21012e-05
-0.000438933 0.000131518 0.000131749 -1.82321e-05
-0.000436917 0.000130914 0.000131144 -1.82321e-05
-0.000543611 0.000162976 0.00016313 -1.32588e-05
-0.000538573 0.000161466 0.000161617 -1.32588e-05
-0.000323155 9.67509e-05 9.70305e-05 -2.21012e-05
-0.000326181 9.76547e-05 9.794e-05 -2.21012e-05
-0.000541092 0.000162221 0.000162373 -1.32588e-05
-0.000430868 0.000129105 0.000129327 -1.82321e-05
-0.000324668 9.72028e-05 9.74852e-05 -2.21012e-05
-0.0004349 0.000130311 0.000130538 -1.82321e-05
-0.000432884 0.000129708 0.000129933 -1.82321e-05
-0.000538573 0.000161466 0.000161617 -1.32588e-05
-0.000533534 0.000159957 0.000160104 -1.32588e-05
-0.000320129 9.5847e-05 9.6121e-05 -2.21012e-05
-0.000323155 9.67509e-05 9.70305e-05 -2.21012e-05
-0.000536053 0.000160712 0.000160861 -1.32588e-05
-0.000426836 0.000127898 0.000128116 -1.82321e-05
-0.000321642 9.6299e-05 9.65757e-05 -2.21012e-05
-0.000430868 0.000129105 0.000129327 -1.82321e-05
-0.000428852 0.000128501 0.000128722 -1.82321e-05
-0.000533534 0.000159957 0.000160104 -1.32588e-05
-0.000528495 0.000158448 0.000158592 -1.32588e-05
-0.000317104 9.49432e-05 9.52116e-05 -2.21011e-05
-0.000320129 9.5847e-05 9.6121e-05 -2.21012e-05
-0.000531014 0.000159202 0.000159348 -1.32588e-05
-0.000422803 0.000126692 0.000126905 -1.82322e-05
-0.000318616 9.53951e-05 9.56663e-05 -2.21011e-05
-0.000426836 0.000127898 0.000128116 -1.82321e-05
-0.000424819 0.000127295 0.000127511 -1.82322e-05
-0.000528495 0.000158448 0.000158592 -1.32588e-05
-0.000523457 0.000156938 0.000157079 -1.32588e-05
-0.000314078 9.40393e-05 9.43022e-05 -2.21011e-05
-0.000317104 9.49432e-05 9.52116e-05 -2.21011e-05
-0.000525976 0.000157693 0.000157835 -1.32588e-05
-0.000418771 0.000125485 0.000125694 -1.82322e-05
-0.000315591 9.44913e-05 9.47569e-05 -2.21011e-05
-0.000422803 0.000126692 0.000126905 -1.82322e-05
-0.000420787 0.000126088 0.000126299 -1.82322e-05
-0.000523457 0.000156938 0.000157079 -1.32588e-05
-0.000518418 0.000155429 0.000155567 -1.32589e-05
-0.000311052 9.31354e-05 9.33928e-05 -2.21011e-05
-0.000314078 9.40393e-05 9.43022e-05 -2.21011e-05
-0.000520937 0.000156184 0.000156323 -1.32588e-05
-0.000414739 0.000124279 0.000124483 -1.82322e-05
-0.000312565 9.35874e-05 9.38475e-05 -2.21011e-05
-0.000418771 0.000125485 0.000125694 -1.82322e-05
-0.000416755 0.000124882 0.000125088 -1.82322e-05
-0.000518418 0.000155429 0.000155567 -1.32589e-05
-0.000513379 0.00015392 0.000154054 -1.32589e-05
-0.000308026 9.22315e-05 9.24834e-05 -2.21011e-05
-0.000311052 9.31354e-05 9.33928e-05 -2.21011e-05
-0.000515899 0.000154674 0.00015481 -1.32589e-05
-0.000410707 0.000123072 0.000123272 -1.82322e-05
-0.000309539 9.26835e-05 9.29381e-05 -2.21011e-05
-0.000414739 0.000124279 0.000124483 -1.82322e-05
-0.000412723 0.000123675 0.000123877 -1.82322e-05
-0.000513379 0.00015392 0.000154054 -1.32589e-05
-0.000508341 0.00015241 0.000152542 -1.32589e-05
-0.000305001 9.13276e-05 9.15741e-05 -2.21011e-05
-0.000308026 9.22315e-05 9.24834e-05 -2.21011e-05
-0.00051086 0.000153165 0.000153298 -1.32589e-05
-0.000406674 0.000121865 0.000122061 -1.82322e-05
-0.000306513 9.17796e-05 9.20288e-05 -2.21011e-05
-0.000410707 0.000123072 0.000123272 -1.82322e-05
-0.00040869 0.000122469 0.000122666 -1.82322e-05
-0.000508341 0.00015241 0.000152542 -1.32589e-05
-0.000503302 0.000150901 0.000151029 -1.32589e-05
-0.000301975 9.04236e-05 9.06649e-05 -2.21011e-05
-0.000305001 9.13276e-05 9.15741e-05 -2.21011e-05
-0.000505822 0.000151656 0.000151785 -1.32589e-05
-0.000402642 0.000120659 0.00012085 -1.82322e-05
-0.000303488 9.08756e-05 9.11195e-05 -2.21011e-05
-0.000406674 0.000121865 0.000122061 -1.82322e-05
-0.000404658 0.000121262 0.000121455 -1.82322e-05
-0.000503302 0.000150901 0.000151029 -1.32589e-05
-0.000498264 0.000149392 0.000149517 -1.32589e-05
-0.000298949 8.95197e-05 8.97556e-05 -2.21011e-05
-0.000301975 9.04236e-05 9.06649e-05 -2.21011e-05
-0.000500783 0.000150146 0.000150273 -1.32589e-05
-0.00039861 0.000119452 0.000119639 -1.82322e-05
-0.000300462 8.99716e-05 9.02102e-05 -2.21011e-05
-0.000402642 0.000120659 0.00012085 -1.82322e-05
-0.000400626 0.000120056 0.000120245 -1.82322e-05
-0.000498264 0.000149392 0.000149517 -1.32589e-05
-0.000493226 0.000147882 0.000148004 -1.32589e-05
-0.000295924 8.86157e-05 8.88464e-05 -2.21011e-05
-0.000298949 8.95197e-05 8.97556e-05 -2.21011e-05
-0.000495745 0.000148637 0.00014876 -1.32589e-05
-0.000394578 0.000118246 0.000118428 -1.82322e-05
-0.000297437 8.90677e-05 8.9301e-05 -2.21011e-05
-0.00039861 0.000119452 0.000119639 -1.82322e-05
-0.000396594 0.000118849 0.000119034 -1.82322e-05
-0.000493226 0.000147882 0.000148004 -1.32589e-05
-0.000488187 0.000146373 0.000146492 -1.3259e-05
-0.000292898 8.77116e-05 8.79372e-05 -2.21011e-05
-0.000295924 8.86157e-05 8.88464e-05 -2.21011e-05
-0.000490706 0.000147128 0.000147248 -1.32589e-05
-0.000390546 0.000117039 0.000117217 -1.82322e-05
-0.000294411 8.81637e-05 8.83918e-05 -2.21011e-05
-0.000394578 0.000118246 0.000118428 -1.82322e-05
-0.000392562 0.000117642 0.000117823 -1.82322e-05
-0.000488187 0.000146373 0.000146492 -1.3259e-05
-0.000483149 0.000144864 0.000144979 -1.3259e-05
-0.000289873 8.68076e-05 8.70281e-05 -2.21011e-05
-0.000292898 8.77116e-05 8.79372e-05 -2.21011e-05
-0.000485668 0.000145618 0.000145736 -1.3259e-05
-0.000386514 0.000115832 0.000116007 -1.82323e-05
-0.000291386 8.72596e-05 8.74826e-05 -2.21011e-05
-0.000390546 0.000117039 0.000117217 -1.82322e-05
-0.00038853 0.000116436 0.000116612 -1.82323e-05
-0.000483149 0.000144864 0.000144979 -1.3259e-05
-0.000478111 0.000143354 0.000143467 -1.3259e-05
-0.000286848 8.59035e-05 8.61189e-05 -2.21011e-05
-0.000289873 8.68076e-05 8.70281e-05 -2.21011e-05
-0.00048063 0.000144109 0.000144223 -1.3259e-05
-0.000382482 0.000114626 0.000114796 -1.82323e-05
-0.00028836 8.63556e-05 8.65735e-05 -2.21011e-05
-0.000386514 0.000115832 0.000116007 -1.82323e-05
-0.000384498 0.000115229 0.000115401 -1.82323e-05
-0.000478111 0.000143354 0.000143467 -1.3259e-05
-0.000473072 0.000141845 0.000141955 -1.3259e-05
-0.000283822 8.49994e-05 8.52098e-05 -2.21011e-05
-0.000286848 8.59035e-05 8.61189e-05 -2.21011e-05
-0.000475592 0.0001426 0.000142711 -1.3259e-05
-0.000378451 0.000113419 0.000113585 -1.82323e-05
-0.000285335 8.54515e-05 8.56644e-05 -2.21011e-05
-0.000382482 0.000114626 0.000114796 -1.82323e-05
-0.000380466 0.000114022 0.00011419 -1.82323e-05
-0.000473072 0.000141845 0.000141955 -1.3259e-05
-0.000468034 0.000140335 0.000140442 -1.3259e-05
-0.000280797 8.40953e-05 8.43008e-05 -2.21011e-05
-0.000283822 8.49994e-05 8.52098e-05 -2.21011e-05
-0.000470553 0.00014109 0.000141199 -1.3259e-05
-0.000374419 0.000112212 0.000112374 -1.82323e-05
-0.00028231 8.45474e-05 8.47553e-05 -2.21011e-05
-0.000378451 0.000113419 0.000113585 -1.82323e-05
-0.000376435 0.000112816 0.00011298 -1.82323e-05
-0.000468034 0.000140335 0.000140442 -1.3259e-05
-0.000462996 0.000138826 0.00013893 -1.3259e-05
-0.000277772 8.31912e-05 8.33917e-05 -2.21011e-05
-0.000280797 8.40953e-05 8.43008e-05 -2.21011e-05
-0.000465515 0.000139581 0.000139686 -1.3259e-05
-0.000370387 0.000111006 0.000111163 -1.82323e-05
-0.000279285 8.36433e-05 8.38463e-05 -2.21011e-05
-0.000374419 0.000112212 0.000112374 -1.82323e-05
-0.000372403 0.000111609 0.000111769 -1.82323e-05
-0.000462996 0.000138826 0.00013893 -1.3259e-05
-0.000457958 0.000137317 0.000137418 -1.32591e-05
-0.000274747 8.22871e-05 8.24828e-05 -2.21011e-05
-0.000277772 8.31912e-05 8.33917e-05 -2.21011e-05
-0.000460477 0.000138071 0.000138174 -1.32591e-05
-0.000366355 0.000109799 0.000109953 -1.82323e-05
-0.000276259 8.27391e-05 8.29372e-05 -2.21011e-05
-0.000370387 0.000111006 0.000111163 -1.82323e-05
-0.000368371 0.000110402 0.000110558 -1.82323e-05
-0.000457958 0.000137317 0.000137418 -1.32591e-05
-0.00045292 0.000135807 0.000135906 -1.32591e-05
-0.000271722 8.13829e-05 8.15738e-05 -2.21011e-05
-0.000274747 8.22871e-05 8.24828e-05 -2.21011e-05
-0.000455439 0.000136562 0.000136662 -1.32591e-05
-0.000362324 0.000108592 0.000108742 -1.82323e-05
-0.000273234 8.1835e-05 8.20283e-05 -2.21011e-05
-0.000366355 0.000109799 0.000109953 -1.82323e-05
-0.00036434 0.000109196 0.000109347 -1.82323e-05
-0.00045292 0.000135807 0.000135906 -1.32591e-05
-0.000447882 0.000134298 0.000134393 -1.32591e-05
-0.000268697 8.04787e-05 8.06649e-05 -2.21011e-05
-0.000271722 8.13829e-05 8.15738e-05 -2.21011e-05
-0.000450401 0.000135052 0.000135149 -1.32591e-05
-0.000358292 0.000107385 0.000107532 -1.82323e-05
-0.000270209 8.09308e-05 8.11193e-05 -2.21011e-05
-0.000362324 0.000108592 0.000108742 -1.82323e-05
-0.000360308 0.000107989 0.000108137 -1.82323e-05
-0.000447882 0.000134298 0.000134393 -1.32591e-05
-0.000442844 0.000132788 0.000132881 -1.32591e-05
-0.000265672 7.95745e-05 7.9756e-05 -2.21011e-05
-0.000268697 8.04787e-05 8.06649e-05 -2.21011e-05
-0.000445363 0.000133543 0.000133637 -1.32591e-05
-0.000354261 0.000106179 0.000106321 -1.82324e-05
-0.000267184 8.00266e-05 8.02104e-05 -2.21011e-05
-0.000358292 0.000107385 0.000107532 -1.82323e-05
-0.000356276 0.000106782 0.000106926 -1.82324e-05
-0.000442844 0.000132788 0.000132881 -1.32591e-05
-0.000437806 0.000131279 0.000131369 -1.32591e-05
-0.000262647 7.86702e-05 7.88471e-05 -2.21011e-05
-0.000265672 7.95745e-05 7.9756e-05 -2.21011e-05
-0.000440325 0.000132033 0.000132125 -1.32591e-05
-0.000350229 0.000104972 0.00010511 -1.82324e-05
-0.000264159 7.91224e-05 7.93015e-05 -2.21011e-05
-0.000354261 0.000106179 0.000106321 -1.82324e-05
-0.000352245 0.000105575 0.000105716 -1.82324e-05
-0.000437806 0.000131279 0.000131369 -1.32591e-05
-0.000432768 0.000129769 0.000129857 -1.32592e-05
-0.000259622 7.7766e-05 7.79382e-05 -2.21011e-05
-0.000262647 7.86702e-05 7.88471e-05 -2.21011e-05
-0.000435287 0.000130524 0.000130613 -1.32591e-05
-0.000346198 0.000103765 0.0001039 -1.82324e-05
-0.000261134 7.82181e-05 7.83927e-05 -2.21011e-05
-0.000350229 0.000104972 0.00010511 -1.82324e-05
-0.000348213 0.000104368 0.000104505 -1.82324e-05
-0.000432768 0.000129769 0.000129857 -1.32592e-05
-0.000427731 0.00012826 0.000128345 -1.32592e-05
-0.000256597 7.68617e-05 7.70294e-05 -2.21011e-05
-0.000259622 7.7766e-05 7.79382e-05 -2.21011e-05
-0.000430249 0.000129014 0.000129101 -1.32592e-05
-0.000342166 0.000102558 0.000102689 -1.82324e-05
-0.000258109 7.73138e-05 7.74838e-05 -2.21011e-05
-0.000346198 0.000103765 0.0001039 -1.82324e-05
-0.000344182 0.000103162 0.000103294 -1.82324e-05
-0.000427731 0.00012826 0.000128345 -1.32592e-05
-0.000422693 0.00012675 0.000126833 -1.32592e-05
-0.000253572 7.59574e-05 7.61207e-05 -2.21011e-05
-0.000256597 7.68617e-05 7.70294e-05 -2.21011e-05
-0.000425212 0.000127505 0.000127589 -1.32592e-05
-0.000338135 0.000101351 0.000101479 -1.82324e-05
-0.000255085 7.64095e-05 7.6575e-05 -2.21011e-05
-0.000342166 0.000102558 0.000102689 -1.82324e-05
-0.000340151 0.000101955 0.000102084 -1.82324e-05
-0.000422693 0.00012675 0.000126833 -1.32592e-05
-0.000417655 0.000125241 0.00012532 -1.32592e-05
-0.000250548 7.50531e-05 7.52119e-05 -2.21011e-05
-0.000253572 7.59574e-05 7.61207e-05 -2.21011e-05
-0.000420174 0.000125995 0.000126076 -1.32592e-05
-0.000334104 0.000100144 0.000100268 -1.82324e-05
-0.00025206 7.55052e-05 7.56663e-05 -2.21011e-05
-0.000338135 0.000101351 0.000101479 -1.82324e-05
-0.000336119 0.000100748 0.000100874 -1.82324e-05
-0.000417655 0.000125241 0.00012532 -1.32592e-05
-0.000412617 0.000123731 0.000123808 -1.32592e-05
-0.000247523 7.41487e-05 7.43032e-05 -2.21012e-05
-0.000250548 7.50531e-05 7.52119e-05 -2.21011e-05
-0.000415136 0.000124486 0.000124564 -1.32592e-05
-0.000330073 9.89376e-05 9.90578e-05 -1.82324e-05
-0.000249035 7.46009e-05 7.47575e-05 -2.21011e-05
-0.000334104 0.000100144 0.000100268 -1.82324e-05
-0.000332088 9.9541e-05 9.9663e-05 -1.82324e-05
-0.000412617 0.000123731 0.000123808 -1.32592e-05
-0.00040758 0.000122222 0.000122296 -1.32592e-05
-0.000244498 7.32443e-05 7.33945e-05 -2.21012e-05
-0.000247523 7.41487e-05 7.43032e-05 -2.21012e-05
-0.000410099 0.000122976 0.000123052 -1.32592e-05
-0.000326041 9.77307e-05 9.78474e-05 -1.82325e-05
-0.000246011 7.36965e-05 7.38489e-05 -2.21012e-05
-0.000330073 9.89376e-05 9.90578e-05 -1.82324e-05
-0.000328057 9.83341e-05 9.84526e-05 -1.82325e-05
-0.00040758 0.000122222 0.000122296 -1.32592e-05
-0.000402542 0.000120712 0.000120784 -1.32593e-05
-0.000241474 7.23399e-05 7.24859e-05 -2.21012e-05
-0.000244498 7.32443e-05 7.33945e-05 -2.21012e-05
-0.000405061 0.000121467 0.00012154 -1.32593e-05
-0.00032201 9.65238e-05 9.6637e-05 -1.82325e-05
-0.000242986 7.27921e-05 7.29402e-05 -2.21012e-05
-0.000326041 9.77307e-05 9.78474e-05 -1.82325e-05
-0.000324026 9.71272e-05 9.72422e-05 -1.82325e-05
-0.000402542 0.000120712 0.000120784 -1.32593e-05
-0.000397505 0.000119203 0.000119272 -1.32593e-05
-0.000238449 7.14355e-05 7.15772e-05 -2.21012e-05
-0.000241474 7.23399e-05 7.24859e-05 -2.21012e-05
-0.000400023 0.000119957 0.000120028 -1.32593e-05
-0.000317979 9.53168e-05 9.54267e-05 -1.82325e-05
-0.000239961 7.18877e-05 7.20316e-05 -2.21012e-05
-0.00032201 9.65238e-05 9.6637e-05 -1.82325e-05
-0.000319995 9.59203e-05 9.60319e-05 -1.82325e-05
-0.000397505 0.000119203 0.000119272 -1.32593e-05
-0.000392467 0.000117693 0.00011776 -1.32593e-05
-0.000235425 7.05311e-05 7.06687e-05 -2.21012e-05
-0.000238449 7.14355e-05 7.15772e-05 -2.21012e-05
-0.000394986 0.000118448 0.000118516 -1.32593e-05
-0.000313948 9.41099e-05 9.42163e-05 -1.82325e-05
-0.000236937 7.09833e-05 7.11229e-05 -2.21012e-05
-0.000317979 9.53168e-05 9.54267e-05 -1.82325e-05
-0.000315964 9.47134e-05 9.48215e-05 -1.82325e-05
-0.000392467 0.000117693 0.00011776 -1.32593e-05
-0.00038743 0.000116183 0.000116248 -1.32593e-05
-0.0002324 6.96266e-05 6.97601e-05 -2.21012e-05
-0.000235425 7.05311e-05 7.06687e-05 -2.21012e-05
-0.000389948 0.000116938 0.000117004 -1.32593e-05
-0.000309917 9.29029e-05 9.3006e-05 -1.82325e-05
-0.000233912 7.00789e-05 7.02144e-05 -2.21012e-05
-0.000313948 9.41099e-05 9.42163e-05 -1.82325e-05
-0.000311933 9.35064e-05 9.36112e-05 -1.82325e-05
-0.00038743 0.000116183 0.000116248 -1.32593e-05
-0.000382392 0.000114674 0.000114736 -1.32593e-05
-0.000229376 6.87221e-05 6.88516e-05 -2.21012e-05
-0.0002324 6.96266e-05 6.97601e-05 -2.21012e-05
-0.000384911 0.000115429 0.000115492 -1.32593e-05
-0.000305886 9.1696e-05 9.17958e-05 -1.82325e-05
-0.000230888 6.91744e-05 6.93058e-05 -2.21012e-05
-0.000309917 9.29029e-05 9.3006e-05 -1.82325e-05
-0.000307902 9.22995e-05 9.24009e-05 -1.82325e-05
-0.000382392 0.000114674 0.000114736 -1.32593e-05
-0.000377355 0.000113164 0.000113225 -1.32594e-05
-0.000226351 6.78176e-05 6.79431e-05 -2.21012e-05
-0.000229376 6.87221e-05 6.88516e-05 -2.21012e-05
-0.000379874 0.000113919 0.00011398 -1.32594e-05
-0.000301855 9.0489e-05 9.05855e-05 -1.82326e-05
-0.000227864 6.82699e-05 6.83973e-05 -2.21012e-05
-0.000305886 9.1696e-05 9.17958e-05 -1.82325e-05
-0.000303871 9.10925e-05 9.11906e-05 -1.82325e-05
-0.000377355 0.000113164 0.000113225 -1.32594e-05
-0.000372318 0.000111655 0.000111713 -1.32594e-05
-0.000223327 6.69131e-05 6.70346e-05 -2.21012e-05
-0.000226351 6.78176e-05 6.79431e-05 -2.21012e-05
-0.000374836 0.000112409 0.000112469 -1.32594e-05
-0.000297824 8.9282e-05 8.93753e-05 -1.82326e-05
-0.000224839 6.73654e-05 6.74888e-05 -2.21012e-05
-0.000301855 9.0489e-05 9.05855e-05 -1.82326e-05
-0.00029984 8.98855e-05 8.99804e-05 -1.82326e-05
-0.000372318 0.000111655 0.000111713 -1.32594e-05
-0.00036728 0.000110145 0.000110201 -1.32594e-05
-0.000220303 6.60086e-05 6.61262e-05 -2.21012e-05
-0.000223327 6.69131e-05 6.70346e-05 -2.21012e-05
-0.000369799 0.0001109 0.000110957 -1.32594e-05
-0.000293794 8.80749e-05 8.81651e-05 -1.82326e-05
-0.000221815 6.64608e-05 6.65804e-05 -2.21012e-05
-0.000297824 8.9282e-05 8.93753e-05 -1.82326e-05
-0.000295809 8.86784e-05 8.87702e-05 -1.82326e-05
-0.00036728 0.000110145 0.000110201 -1.32594e-05
-0.000362243 0.000108635 0.000108689 -1.32594e-05
-0.000217279 6.5104e-05 6.52178e-05 -2.21012e-05
-0.000220303 6.60086e-05 6.61262e-05 -2.21012e-05
-0.000364762 0.00010939 0.000109445 -1.32594e-05
-0.000289763 8.68679e-05 8.6955e-05 -1.82326e-05
-0.000218791 6.55563e-05 6.5672e-05 -2.21012e-05
-0.000293794 8.80749e-05 8.81651e-05 -1.82326e-05
-0.000291778 8.74714e-05 8.756e-05 -1.82326e-05
-0.000362243 0.000108635 0.000108689 -1.32594e-05
-0.000357206 0.000107126 0.000107177 -1.32595e-05
-0.000214255 6.41994e-05 6.43094e-05 -2.21012e-05
-0.000217279 6.5104e-05 6.52178e-05 -2.21012e-05
-0.000359724 0.000107881 0.000107933 -1.32594e-05
-0.000285732 8.56608e-05 8.57448e-05 -1.82326e-05
-0.000215767 6.46517e-05 6.47636e-05 -2.21012e-05
-0.000289763 8.68679e-05 8.6955e-05 -1.82326e-05
-0.000287747 8.62644e-05 8.63499e-05 -1.82326e-05
-0.000357206 0.000107126 0.000107177 -1.32595e-05
-0.000352169 0.000105616 0.000105665 -1.32595e-05
-0.000211231 6.32948e-05 6.34011e-05 -2.21012e-05
-0.000214255 6.41994e-05 6.43094e-05 -2.21012e-05
-0.000354687 0.000106371 0.000106421 -1.32595e-05
-0.000281701 8.44537e-05 8.45347e-05 -1.82326e-05
-0.000212743 6.37471e-05 6.38553e-05 -2.21012e-05
-0.000285732 8.56608e-05 8.57448e-05 -1.82326e-05
-0.000283717 8.50573e-05 8.51398e-05 -1.82326e-05
-0.000352169 0.000105616 0.000105665 -1.32595e-05
-0.000347132 0.000104107 0.000104154 -1.32595e-05
-0.000208207 6.23901e-05 6.24928e-05 -2.21012e-05
-0.000211231 6.32948e-05 6.34011e-05 -2.21012e-05
-0.00034965 0.000104861 0.000104909 -1.32595e-05
-0.000277671 8.32466e-05 8.33246e-05 -1.82327e-05
-0.000209719 6.28425e-05 6.29469e-05 -2.21012e-05
-0.000281701 8.44537e-05 8.45347e-05 -1.82326e-05
-0.000279686 8.38502e-05 8.39297e-05 -1.82326e-05
-0.000347132 0.000104107 0.000104154 -1.32595e-05
-0.000342094 0.000102597 0.000102642 -1.32595e-05
-0.000205183 6.14855e-05 6.15845e-05 -2.21012e-05
-0.000208207 6.23901e-05 6.24928e-05 -2.21012e-05
-0.000344613 0.000103352 0.000103398 -1.32595e-05
-0.00027364 8.20395e-05 8.21146e-05 -1.82327e-05
-0.000206695 6.19378e-05 6.20386e-05 -2.21012e-05
-0.000277671 8.32466e-05 8.33246e-05 -1.82327e-05
-0.000275655 8.26431e-05 8.27196e-05 -1.82327e-05
-0.000342094 0.000102597 0.000102642 -1.32595e-05
-0.000337057 0.000101087 0.00010113 -1.32595e-05
-0.000202159 6.05808e-05 6.06763e-05 -2.21012e-05
-0.000205183 6.14855e-05 6.15845e-05 -2.21012e-05
-0.000339576 0.000101842 0.000101886 -1.32595e-05
-0.00026961 8.08324e-05 8.09046e-05 -1.82327e-05
-0.000203671 6.10331e-05 6.11304e-05 -2.21012e-05
-0.00027364 8.20395e-05 8.21146e-05 -1.82327e-05
-0.000271625 8.1436e-05 8.15096e-05 -1.82327e-05
-0.000337057 0.000101087 0.00010113 -1.32595e-05
-0.00033202 9.95775e-05 9.96184e-05 -1.32596e-05
-0.000199135 5.96761e-05 5.97681e-05 -2.21012e-05
-0.000202159 6.05808e-05 6.06763e-05 -2.21012e-05
-0.000334539 0.000100332 0.000100374 -1.32596e-05
-0.000265579 7.96253e-05 7.96946e-05 -1.82327e-05
-0.000200647 6.01284e-05 6.02222e-05 -2.21012e-05
-0.00026961 8.08324e-05 8.09046e-05 -1.82327e-05
-0.000267594 8.02288e-05 8.02995e-05 -1.82327e-05
-0.00033202 9.95775e-05 9.96184e-05 -1.32596e-05
-0.000326983 9.80678e-05 9.81067e-05 -1.32596e-05
-0.000196111 5.87713e-05 5.88599e-05 -2.21012e-05
-0.000199135 5.96761e-05 5.97681e-05 -2.21012e-05
-0.000329502 9.88227e-05 9.88625e-05 -1.32596e-05
-0.000261549 7.84181e-05 7.84846e-05 -1.82327e-05
-0.000197623 5.92237e-05 5.9314e-05 -2.21012e-05
-0.000265579 7.96253e-05 7.96946e-05 -1.82327e-05
-0.000263564 7.90217e-05 7.90896e-05 -1.82327e-05
-0.000326983 9.80678e-05 9.81067e-05 -1.32596e-05
-0.000321947 9.65581e-05 9.6595e-05 -1.32596e-05
-0.000193087 5.78666e-05 5.79517e-05 -2.21013e-05
-0.000196111 5.87713e-05 5.88599e-05 -2.21012e-05
-0.000324465 9.7313e-05 9.73509e-05 -1.32596e-05
-0.000257518 7.72109e-05 7.72746e-05 -1.82328e-05
-0.000194599 5.8319e-05 5.84058e-05 -2.21013e-05
-0.000261549 7.84181e-05 7.84846e-05 -1.82327e-05
-0.000259534 7.78145e-05 7.78796e-05 -1.82327e-05
-0.000321947 9.65581e-05 9.6595e-05 -1.32596e-05
-0.00031691 9.50484e-05 9.50834e-05 -1.32596e-05
-0.000190064 5.69618e-05 5.70436e-05 -2.21013e-05
-0.000193087 5.78666e-05 5.79517e-05 -2.21013e-05
-0.000319428 9.58033e-05 9.58392e-05 -1.32596e-05
-0.000253488 7.60037e-05 7.60647e-05 -1.82328e-05
-0.000191575 5.74142e-05 5.74977e-05 -2.21013e-05
-0.000257518 7.72109e-05 7.72746e-05 -1.82328e-05
-0.000255503 7.66073e-05 7.66697e-05 -1.82328e-05
-0.00031691 9.50484e-05 9.50834e-05 -1.32596e-05
-0.000311873 9.35387e-05 9.35718e-05 -1.32597e-05
-0.00018704 5.6057e-05 5.61355e-05 -2.21013e-05
-0.000190064 5.69618e-05 5.70436e-05 -2.21013e-05
-0.000314391 9.42935e-05 9.43276e-05 -1.32596e-05
-0.000249458 7.47965e-05 7.48548e-05 -1.82328e-05
-0.000188552 5.65094e-05 5.65896e-05 -2.21013e-05
-0.000253488 7.60037e-05 7.60647e-05 -1.82328e-05
-0.000251473 7.54001e-05 7.54598e-05 -1.82328e-05
-0.000311873 9.35387e-05 9.35718e-05 -1.32597e-05
-0.000306836 9.2029e-05 9.20602e-05 -1.32597e-05
-0.000184016 5.51522e-05 5.52275e-05 -2.21013e-05
-0.00018704 5.6057e-05 5.61355e-05 -2.21013e-05
-0.000309354 9.27838e-05 9.2816e-05 -1.32597e-05
-0.000245428 7.35893e-05 7.3645e-05 -1.82328e-05
-0.000185528 5.56046e-05 5.56815e-05 -2.21013e-05
-0.000249458 7.47965e-05 7.48548e-05 -1.82328e-05
-0.000247443 7.41929e-05 7.42499e-05 -1.82328e-05
-0.000306836 9.2029e-05 9.20602e-05 -1.32597e-05
-0.000301799 9.05192e-05 9.05486e-05 -1.32597e-05
-0.000180993 5.42473e-05 5.43195e-05 -2.21013e-05
-0.000184016 5.51522e-05 5.52275e-05 -2.21013e-05
-0.000304318 9.12741e-05 9.13044e-05 -1.32597e-05
-0.000241397 7.2382e-05 7.24351e-05 -1.82328e-05
-0.000182505 5.46998e-05 5.47735e-05 -2.21013e-05
-0.000245428 7.35893e-05 7.3645e-05 -1.82328e-05
-0.000243412 7.29856e-05 7.30401e-05 -1.82328e-05
-0.000301799 9.05192e-05 9.05486e-05 -1.32597e-05
-0.000296763 8.90095e-05 8.90371e-05 -1.32597e-05
-0.000177969 5.33425e-05 5.34115e-05 -2.21013e-05
-0.000180993 5.42473e-05 5.43195e-05 -2.21013e-05
-0.000299281 8.97643e-05 8.97929e-05 -1.32597e-05
-0.000237367 7.11747e-05 7.12253e-05 -1.82329e-05
-0.000179481 5.37949e-05 5.38655e-05 -2.21013e-05
-0.000241397 7.2382e-05 7.24351e-05 -1.82328e-05
-0.000239382 7.17784e-05 7.18302e-05 -1.82328e-05
-0.000296763 8.90095e-05 8.90371e-05 -1.32597e-05
-0.000291726 8.74997e-05 8.75256e-05 -1.32598e-05
-0.000174946 5.24376e-05 5.25035e-05 -2.21013e-05
-0.000177969 5.33425e-05 5.34115e-05 -2.21013e-05
-0.000294244 8.82546e-05 8.82813e-05 -1.32597e-05
-0.000233337 6.99675e-05 7.00156e-05 -1.82329e-05
-0.000176457 5.289e-05 5.29575e-05 -2.21013e-05
-0.000237367 7.11747e-05 7.12253e-05 -1.82329e-05
-0.000235352 7.05711e-05 7.06205e-05 -1.82329e-05
-0.000291726 8.74997e-05 8.75256e-05 -1.32598e-05
-0.000286689 8.59899e-05 8.60141e-05 -1.32598e-05
-0.000171922 5.15327e-05 5.15956e-05 -2.21013e-05
-0.000174946 5.24376e-05 5.25035e-05 -2.21013e-05
-0.000289208 8.67448e-05 8.67698e-05 -1.32598e-05
-0.000229307 6.87602e-05 6.88058e-05 -1.82329e-05
-0.000173434 5.19851e-05 5.20495e-05 -2.21013e-05
-0.000233337 6.99675e-05 7.00156e-05 -1.82329e-05
-0.000231322 6.93638e-05 6.94107e-05 -1.82329e-05
-0.000286689 8.59899e-05 8.60141e-05 -1.32598e-05
-0.000281653 8.44801e-05 8.45026e-05 -1.32598e-05
-0.000168899 5.06277e-05 5.06877e-05 -2.21013e-05
-0.000171922 5.15327e-05 5.15956e-05 -2.21013e-05
-0.000284171 8.5235e-05 8.52583e-05 -1.32598e-05
-0.000225277 6.75528e-05 6.75961e-05 -1.82329e-05
-0.000170411 5.10802e-05 5.11416e-05 -2.21013e-05
-0.000229307 6.87602e-05 6.88058e-05 -1.82329e-05
-0.000227292 6.81565e-05 6.8201e-05 -1.82329e-05
-0.000281653 8.44801e-05 8.45026e-05 -1.32598e-05
-0.000276616 8.29703e-05 8.29911e-05 -1.32598e-05
-0.000165876 4.97228e-05 4.97798e-05 -2.21014e-05
-0.000168899 5.06277e-05 5.06877e-05 -2.21013e-05
-0.000279135 8.37252e-05 8.37469e-05 -1.32598e-05
-0.000221247 6.63455e-05 6.63864e-05 -1.82329e-05
-0.000167387 5.01753e-05 5.02337e-05 -2.21014e-05
-0.000225277 6.75528e-05 6.75961e-05 -1.82329e-05
-0.000223262 6.69492e-05 6.69912e-05 -1.82329e-05
-0.000276616 8.29703e-05 8.29911e-05 -1.32598e-05
-0.00027158 8.14605e-05 8.14797e-05 -1.32599e-05
-0.000162852 4.88178e-05 4.8872e-05 -2.21014e-05
-0.000165876 4.97228e-05 4.97798e-05 -2.21014e-05
-0.000274098 8.22154e-05 8.22354e-05 -1.32598e-05
-0.000217217 6.51381e-05 6.51767e-05 -1.8233e-05
-0.000164364 4.92703e-05 4.93259e-05 -2.21014e-05
-0.000221247 6.63455e-05 6.63864e-05 -1.82329e-05
-0.000219232 6.57418e-05 6.57816e-05 -1.8233e-05
-0.00027158 8.14605e-05 8.14797e-05 -1.32599e-05
-0.000266543 7.99507e-05 7.99683e-05 -1.32599e-05
-0.000159829 4.79128e-05 4.79642e-05 -2.21014e-05
-0.000162852 4.88178e-05 4.8872e-05 -2.21014e-05
-0.000269062 8.07056e-05 8.0724e-05 -1.32599e-05
-0.000213187 6.39308e-05 6.39671e-05 -1.8233e-05
-0.000161341 4.83653e-05 4.84181e-05 -2.21014e-05
-0.000217217 6.51381e-05 6.51767e-05 -1.8233e-05
-0.000215202 6.45345e-05 6.45719e-05 -1.8233e-05
-0.000266543 7.99507e-05 7.99683e-05 -1.32599e-05
-0.000261507 7.84409e-05 7.84569e-05 -1.32599e-05
-0.000156806 4.70078e-05 4.70564e-05 -2.21014e-05
-0.000159829 4.79128e-05 4.79642e-05 -2.21014e-05
-0.000264025 7.91958e-05 7.92126e-05 -1.32599e-05
-0.000209158 6.27234e-05 6.27575e-05 -1.8233e-05
-0.000158318 4.74603e-05 4.75103e-05 -2.21014e-05
-0.000213187 6.39308e-05 6.39671e-05 -1.8233e-05
-0.000211172 6.33271e-05 6.33623e-05 -1.8233e-05
-0.000261507 7.84409e-05 7.84569e-05 -1.32599e-05
-0.000256471 7.6931e-05 7.69456e-05 -1.32599e-05
-0.000153783 4.61027e-05 4.61487e-05 -2.21014e-05
-0.000156806 4.70078e-05 4.70564e-05 -2.21014e-05
-0.000258989 7.7686e-05 7.77012e-05 -1.32599e-05
-0.000205128 6.1516e-05 6.15479e-05 -1.8233e-05
-0.000155294 4.65552e-05 4.66025e-05 -2.21014e-05
-0.000209158 6.27234e-05 6.27575e-05 -1.8233e-05
-0.000207143 6.21197e-05 6.21527e-05 -1.8233e-05
-0.000256471 7.6931e-05 7.69456e-05 -1.32599e-05
-0.000251434 7.54212e-05 7.54342e-05 -1.326e-05
-0.00015076 4.51976e-05 4.52409e-05 -2.21014e-05
-0.000153783 4.61027e-05 4.61487e-05 -2.21014e-05
-0.000253952 7.61761e-05 7.61899e-05 -1.326e-05
-0.000201098 6.03085e-05 6.03383e-05 -1.82331e-05
-0.000152271 4.56502e-05 4.56948e-05 -2.21014e-05
-0.000205128 6.1516e-05 6.15479e-05 -1.8233e-05
-0.000203113 6.09123e-05 6.09431e-05 -1.82331e-05
-0.000251434 7.54212e-05 7.54342e-05 -1.326e-05
-0.000246398 7.39113e-05 7.39229e-05 -1.326e-05
-0.000147737 4.42925e-05 4.43333e-05 -2.21014e-05
-0.00015076 4.51976e-05 4.52409e-05 -2.21014e-05
-0.000248916 7.46663e-05 7.46785e-05 -1.326e-05
-0.000197068 5.91011e-05 5.91288e-05 -1.82331e-05
-0.000149248 4.47451e-05 4.47871e-05 -2.21014e-05
-0.000201098 6.03085e-05 6.03383e-05 -1.82331e-05
-0.000199083 5.97048e-05 5.97336e-05 -1.82331e-05
-0.000246398 7.39113e-05 7.39229e-05 -1.326e-05
-0.000241362 7.24015e-05 7.24116e-05 -1.326e-05
-0.000144714 4.33874e-05 4.34256e-05 -2.21015e-05
-0.000147737 4.42925e-05 4.43333e-05 -2.21014e-05
-0.00024388 7.31564e-05 7.31672e-05 -1.326e-05
-0.000193039 5.78936e-05 5.79193e-05 -1.82331e-05
-0.000146225 4.384e-05 4.38794e-05 -2.21015e-05
-0.000197068 5.91011e-05 5.91288e-05 -1.82331e-05
-0.000195054 5.84974e-05 5.85241e-05 -1.82331e-05
-0.000241362 7.24015e-05 7.24116e-05 -1.326e-05
-0.000236326 7.08916e-05 7.09003e-05 -1.32601e-05
-0.000141691 4.24823e-05 4.2518e-05 -2.21015e-05
-0.000144714 4.33874e-05 4.34256e-05 -2.21015e-05
-0.000238844 7.16465e-05 7.16559e-05 -1.326e-05
-0.000189009 5.66862e-05 5.67098e-05 -1.82331e-05
-0.000143202 4.29349e-05 4.29718e-05 -2.21015e-05
-0.000193039 5.78936e-05 5.79193e-05 -1.82331e-05
-0.000191024 5.72899e-05 5.73146e-05 -1.82331e-05
-0.000236326 7.08916e-05 7.09003e-05 -1.32601e-05
-0.000231289 6.93817e-05 6.93891e-05 -1.32601e-05
-0.000138668 4.15771e-05 4.16104e-05 -2.21015e-05
-0.000141691 4.24823e-05 4.2518e-05 -2.21015e-05
-0.000233808 7.01366e-05 7.01447e-05 -1.32601e-05
-0.00018498 5.54787e-05 5.55004e-05 -1.82332e-05
-0.00014018 4.20297e-05 4.20642e-05 -2.21015e-05
-0.000189009 5.66862e-05 5.67098e-05 -1.82331e-05
-0.000186994 5.60824e-05 5.61051e-05 -1.82332e-05
-0.000231289 6.93817e-05 6.93891e-05 -1.32601e-05
-0.000226253 6.78718e-05 6.78778e-05 -1.32601e-05
-0.000135645 4.06719e-05 4.07029e-05 -2.21015e-05
-0.000138668 4.15771e-05 4.16104e-05 -2.21015e-05
-0.000228771 6.86267e-05 6.86334e-05 -1.32601e-05
-0.00018095 5.42711e-05 5.4291e-05 -1.82332e-05
-0.000137157 4.11245e-05 4.11566e-05 -2.21015e-05
-0.00018498 5.54787e-05 5.55004e-05 -1.82332e-05
-0.000182965 5.48749e-05 5.48957e-05 -1.82332e-05
-0.000226253 6.78718e-05 6.78778e-05 -1.32601e-05
-0.000221217 6.63619e-05 6.63666e-05 -1.32601e-05
-0.000132623 3.97667e-05 3.97953e-05 -2.21015e-05
-0.000135645 4.06719e-05 4.07029e-05 -2.21015e-05
-0.000223735 6.71168e-05 6.71222e-05 -1.32601e-05
-0.000176921 5.30636e-05 5.30816e-05 -1.82332e-05
-0.000134134 4.02193e-05 4.02491e-05 -2.21015e-05
-0.00018095 5.42711e-05 5.4291e-05 -1.82332e-05
-0.000178935 5.36674e-05 5.36863e-05 -1.82332e-05
-0.000221217 6.63619e-05 6.63666e-05 -1.32601e-05
-0.000216181 6.48519e-05 6.48554e-05 -1.32602e-05
-0.0001296 3.88615e-05 3.88879e-05 -2.21016e-05
-0.000132623 3.97667e-05 3.97953e-05 -2.21015e-05
-0.000218699 6.56069e-05 6.5611e-05 -1.32602e-05
-0.000172891 5.18561e-05 5.18722e-05 -1.82333e-05
-0.000131111 3.93141e-05 3.93416e-05 -2.21015e-05
-0.000176921 5.30636e-05 5.30816e-05 -1.82332e-05
-0.000174906 5.24598e-05 5.24769e-05 -1.82332e-05
-0.000216181 6.48519e-05 6.48554e-05 -1.32602e-05
-0.000211145 6.3342e-05 6.33443e-05 -1.32602e-05
-0.000126577 3.79562e-05 3.79804e-05 -2.21016e-05
-0.0001296 3.88615e-05 3.88879e-05 -2.21016e-05
-0.000213663 6.4097e-05 6.40998e-05 -1.32602e-05
-0.000168862 5.06485e-05 5.06629e-05 -1.82333e-05
-0.000128088 3.84089e-05 3.84341e-05 -2.21016e-05
-0.000172891 5.18561e-05 5.18722e-05 -1.82333e-05
-0.000170877 5.12523e-05 5.12675e-05 -1.82333e-05
-0.000211145 6.3342e-05 6.33443e-05 -1.32602e-05
-0.000206109 6.1832e-05 6.18331e-05 -1.32602e-05
-0.000123555 3.70509e-05 3.7073e-05 -2.21016e-05
-0.000126577 3.79562e-05 3.79804e-05 -2.21016e-05
-0.000208627 6.2587e-05 6.25887e-05 -1.32602e-05
-0.000164833 4.94409e-05 4.94536e-05 -1.82333e-05
-0.000125066 3.75036e-05 3.75267e-05 -2.21016e-05
-0.000168862 5.06485e-05 5.06629e-05 -1.82333e-05
-0.000166847 5.00447e-05 5.00582e-05 -1.82333e-05
-0.000206109 6.1832e-05 6.18331e-05 -1.32602e-05
-0.000201073 6.03221e-05 6.0322e-05 -1.32603e-05
-0.000120532 3.61456e-05 3.61656e-05 -2.21016e-05
-0.000123555 3.70509e-05 3.7073e-05 -2.21016e-05
-0.000203591 6.10771e-05 6.10776e-05 -1.32602e-05
-0.000160803 4.82333e-05 4.82443e-05 -1.82333e-05
-0.000122043 3.65983e-05 3.66193e-05 -2.21016e-05
-0.000164833 4.94409e-05 4.94536e-05 -1.82333e-05
-0.000162818 4.88371e-05 4.88489e-05 -1.82333e-05
-0.000201073 6.03221e-05 6.0322e-05 -1.32603e-05
-0.000196038 5.88121e-05 5.88109e-05 -1.32603e-05
-0.000117509 3.52403e-05 3.52582e-05 -2.21016e-05
-0.000120532 3.61456e-05 3.61656e-05 -2.21016e-05
-0.000198555 5.95671e-05 5.95664e-05 -1.32603e-05
-0.000156774 4.70257e-05 4.7035e-05 -1.82334e-05
-0.000119021 3.5693e-05 3.57119e-05 -2.21016e-05
-0.000160803 4.82333e-05 4.82443e-05 -1.82333e-05
-0.000158789 4.76295e-05 4.76396e-05 -1.82334e-05
-0.000196038 5.88121e-05 5.88109e-05 -1.32603e-05
-0.000191002 5.73021e-05 5.72998e-05 -1.32603e-05
-0.000114487 3.43349e-05 3.43509e-05 -2.21017e-05
-0.000117509 3.52403e-05 3.52582e-05 -2.21016e-05
-0.00019352 5.80571e-05 5.80554e-05 -1.32603e-05
-0.000152745 4.5818e-05 4.58258e-05 -1.82334e-05
-0.000115998 3.47876e-05 3.48045e-05 -2.21016e-05
-0.000156774 4.70257e-05 4.7035e-05 -1.82334e-05
-0.000154759 4.64219e-05 4.64304e-05 -1.82334e-05
-0.000191002 5.73021e-05 5.72998e-05 -1.32603e-05
-0.000185966 5.57921e-05 5.57888e-05 -1.32603e-05
-0.000111465 3.34296e-05 3.34436e-05 -2.21017e-05
-0.000114487 3.43349e-05 3.43509e-05 -2.21017e-05
-0.000188484 5.65471e-05 5.65443e-05 -1.32603e-05
-0.000148716 4.46104e-05 4.46166e-05 -1.82334e-05
-0.000112976 3.38823e-05 3.38972e-05 -2.21017e-05
-0.000152745 4.5818e-05 4.58258e-05 -1.82334e-05
-0.00015073 4.52142e-05 4.52212e-05 -1.82334e-05
-0.000185966 5.57921e-05 5.57888e-05 -1.32603e-05
-0.00018093 5.42821e-05 5.42777e-05 -1.32604e-05
-0.000108442 3.25242e-05 3.25363e-05 -2.21017e-05
-0.000111465 3.34296e-05 3.34436e-05 -2.21017e-05
-0.000183448 5.50371e-05 5.50332e-05 -1.32604e-05
-0.000144687 4.34027e-05 4.34074e-05 -1.82335e-05
-0.000109953 3.29769e-05 3.29899e-05 -2.21017e-05
-0.000148716 4.46104e-05 4.46166e-05 -1.82334e-05
-0.000146701 4.40065e-05 4.4012e-05 -1.82334e-05
-0.00018093 5.42821e-05 5.42777e-05 -1.32604e-05
-0.000175894 5.27721e-05 5.27667e-05 -1.32604e-05
-0.00010542 3.16188e-05 3.1629e-05 -2.21017e-05
-0.000108442 3.25242e-05 3.25363e-05 -2.21017e-05
-0.000178412 5.35271e-05 5.35222e-05 -1.32604e-05
-0.000140658 4.2195e-05 4.21983e-05 -1.82335e-05
-0.000106931 3.20715e-05 3.20827e-05 -2.21017e-05
-0.000144687 4.34027e-05 4.34074e-05 -1.82335e-05
-0.000142672 4.27988e-05 4.28028e-05 -1.82335e-05
-0.000175894 5.27721e-05 5.27667e-05 -1.32604e-05
-0.000170859 5.12621e-05 5.12557e-05 -1.32604e-05
-0.000102398 3.07133e-05 3.07218e-05 -2.21017e-05
-0.00010542 3.16188e-05 3.1629e-05 -2.21017e-05
-0.000173377 5.20171e-05 5.20112e-05 -1.32604e-05
-0.000136629 4.09873e-05 4.09891e-05 -1.82335e-05
-0.000103909 3.1166e-05 3.11754e-05 -2.21017e-05
-0.000140658 4.2195e-05 4.21983e-05 -1.82335e-05
-0.000138643 4.15911e-05 4.15937e-05 -1.82335e-05
-0.000170859 5.12621e-05 5.12557e-05 -1.32604e-05
-0.000165823 4.9752e-05 4.97448e-05 -1.32605e-05
-9.93754e-05 2.98078e-05 2.98147e-05 -2.21018e-05
-0.000102398 3.07133e-05 3.07218e-05 -2.21017e-05
-0.000168341 5.0507e-05 5.05002e-05 -1.32605e-05
-0.0001326 3.97796e-05 3.978e-05 -1.82336e-05
-0.000100886 3.02606e-05 3.02682e-05 -2.21018e-05
-0.000136629 4.09873e-05 4.09891e-05 -1.82335e-05
-0.000134614 4.03834e-05 4.03846e-05 -1.82335e-05
-0.000165823 4.9752e-05 4.97448e-05 -1.32605e-05
-0.000160788 4.8242e-05 4.82338e-05 -1.32605e-05
-9.63532e-05 2.89023e-05 2.89075e-05 -2.21018e-05
-9.93754e-05 2.98078e-05 2.98147e-05 -2.21018e-05
-0.000163305 4.8997e-05 4.89893e-05 -1.32605e-05
-0.000128571 3.85718e-05 3.8571e-05 -1.82336e-05
-9.78643e-05 2.93551e-05 2.93611e-05 -2.21018e-05
-0.0001326 3.97796e-05 3.978e-05 -1.82336e-05
-0.000130585 3.91757e-05 3.91755e-05 -1.82336e-05
-0.000160788 4.8242e-05 4.82338e-05 -1.32605e-05
-0.000155752 4.67319e-05 4.67229e-05 -1.32605e-05
-9.33311e-05 2.79968e-05 2.80004e-05 -2.21018e-05
-9.63532e-05 2.89023e-05 2.89075e-05 -2.21018e-05
-0.00015827 4.74869e-05 4.74784e-05 -1.32605e-05
-0.000124542 3.7364e-05 3.73619e-05 -1.82336e-05
-9.48421e-05 2.84496e-05 2.84539e-05 -2.21018e-05
-0.000128571 3.85718e-05 3.8571e-05 -1.82336e-05
-0.000126556 3.79679e-05 3.79665e-05 -1.82336e-05
-0.000155752 4.67319e-05 4.67229e-05 -1.32605e-05
-0.000150716 4.52218e-05 4.5212e-05 -1.32606e-05
-9.0309e-05 2.70913e-05 2.70933e-05 -2.21018e-05
-9.33311e-05 2.79968e-05 2.80004e-05 -2.21018e-05
-0.000153234 4.59769e-05 4.59674e-05 -1.32606e-05
-0.000120513 3.61562e-05 3.61529e-05 -1.82337e-05
-9.182e-05 2.75441e-05 2.75468e-05 -2.21018e-05
-0.000124542 3.7364e-05 3.73619e-05 -1.82336e-05
-0.000122527 3.67601e-05 3.67574e-05 -1.82336e-05
-0.000150716 4.52218e-05 4.5212e-05 -1.32606e-05
-0.000145681 4.37117e-05 4.37011e-05 -1.32606e-05
-8.72869e-05 2.61857e-05 2.61862e-05 -2.21019e-05
-9.0309e-05 2.70913e-05 2.70933e-05 -2.21018e-05
-0.000148199 4.44668e-05 4.44565e-05 -1.32606e-05
-0.000116484 3.49484e-05 3.49439e-05 -1.82337e-05
-8.8798e-05 2.66385e-05 2.66398e-05 -2.21019e-05
-0.000120513 3.61562e-05 3.61529e-05 -1.82337e-05
-0.000118499 3.55523e-05 3.55484e-05 -1.82337e-05
-0.000145681 4.37117e-05 4.37011e-05 -1.32606e-05
-0.000140646 4.22016e-05 4.21903e-05 -1.32606e-05
-8.4265e-05 2.52801e-05 2.52792e-05 -2.21019e-05
-8.72869e-05 2.61857e-05 2.61862e-05 -2.21019e-05
-0.000143163 4.29567e-05 4.29457e-05 -1.32606e-05
-0.000112456 3.37406e-05 3.3735e-05 -1.82337e-05
-8.57759e-05 2.57329e-05 2.57327e-05 -2.21019e-05
-0.000116484 3.49484e-05 3.49439e-05 -1.82337e-05
-0.00011447 3.43445e-05 3.43395e-05 -1.82337e-05
-0.000140646 4.22016e-05 4.21903e-05 -1.32606e-05
-0.00013561 4.06915e-05 4.06794e-05 -1.32607e-05
-8.1243e-05 2.43745e-05 2.43722e-05 -2.21019e-05
-8.4265e-05 2.52801e-05 2.52792e-05 -2.21019e-05
-0.000138128 4.14466e-05 4.14348e-05 -1.32606e-05
-0.000108427 3.25328e-05 3.2526e-05 -1.82337e-05
-8.2754e-05 2.48273e-05 2.48257e-05 -2.21019e-05
-0.000112456 3.37406e-05 3.3735e-05 -1.82337e-05
-0.000110441 3.31367e-05 3.31305e-05 -1.82337e-05
-0.00013561 4.06915e-05 4.06794e-05 -1.32607e-05
-0.000130575 3.91814e-05 3.91686e-05 -1.32607e-05
-7.82211e-05 2.34689e-05 2.34653e-05 -2.21019e-05
-8.1243e-05 2.43745e-05 2.43722e-05 -2.21019e-05
-0.000133092 3.99365e-05 3.9924e-05 -1.32607e-05
-0.000104398 3.13249e-05 3.13171e-05 -1.82338e-05
-7.97321e-05 2.39217e-05 2.39187e-05 -2.21019e-05
-0.000108427 3.25328e-05 3.2526e-05 -1.82337e-05
-0.000106413 3.19288e-05 3.19216e-05 -1.82337e-05
-0.000130575 3.91814e-05 3.91686e-05 -1.32607e-05
-0.000125539 3.76713e-05 3.76578e-05 -1.32607e-05
-7.51993e-05 2.25632e-05 2.25583e-05 -2.21019e-05
-7.82211e-05 2.34689e-05 2.34653e-05 -2.21019e-05
-0.000128057 3.84263e-05 3.84132e-05 -1.32607e-05
-0.00010037 3.0117e-05 3.01083e-05 -1.82338e-05
-7.67102e-05 2.3016e-05 2.30118e-05 -2.21019e-05
-0.000104398 3.13249e-05 3.13171e-05 -1.82338e-05
-0.000102384 3.0721e-05 3.07127e-05 -1.82338e-05
-0.000125539 3.76713e-05 3.76578e-05 -1.32607e-05
-0.000120504 3.61611e-05 3.6147e-05 -1.32607e-05
-7.21775e-05 2.16575e-05 2.16514e-05 -2.21019e-05
-7.51993e-05 2.25632e-05 2.25583e-05 -2.21019e-05
-0.000123022 3.69162e-05 3.69024e-05 -1.32607e-05
-9.63411e-05 2.89091e-05 2.88994e-05 -1.82338e-05
-7.36884e-05 2.21103e-05 2.21049e-05 -2.21019e-05
-0.00010037 3.0117e-05 3.01083e-05 -1.82338e-05
-9.83554e-05 2.95131e-05 2.95038e-05 -1.82338e-05
-0.000120504 3.61611e-05 3.6147e-05 -1.32607e-05
-0.000115469 3.4651e-05 3.46363e-05 -1.32607e-05
-6.91557e-05 2.07518e-05 2.07446e-05 -2.21019e-05
-7.21775e-05 2.16575e-05 2.16514e-05 -2.21019e-05
-0.000117987 3.5406e-05 3.53917e-05 -1.32607e-05
-9.23126e-05 2.77012e-05 2.76906e-05 -1.82338e-05
-7.06666e-05 2.12046e-05 2.1198e-05 -2.21019e-05
-9.63411e-05 2.89091e-05 2.88994e-05 -1.82338e-05
-9.43268e-05 2.83052e-05 2.8295e-05 -1.82338e-05
-0.000115469 3.4651e-05 3.46363e-05 -1.32607e-05
-0.000110434 3.31408e-05 3.31256e-05 -1.32608e-05
-6.61341e-05 1.98461e-05 1.98377e-05 -2.21019e-05
-6.91557e-05 2.07518e-05 2.07446e-05 -2.21019e-05
-0.000112951 3.38959e-05 3.38809e-05 -1.32608e-05
-8.82841e-05 2.64933e-05 2.64818e-05 -1.82338e-05
-6.76449e-05 2.02989e-05 2.02911e-05 -2.21019e-05
-9.23126e-05 2.77012e-05 2.76906e-05 -1.82338e-05
-9.02983e-05 2.70972e-05 2.70862e-05 -1.82338e-05
-0.000110434 3.31408e-05 3.31256e-05 -1.32608e-05
-0.000105399 3.16306e-05 3.16149e-05 -1.32608e-05
-6.31124e-05 1.89404e-05 1.89309e-05 -2.21019e-05
-6.61341e-05 1.98461e-05 1.98377e-05 -2.21019e-05
-0.000107916 3.23857e-05 3.23702e-05 -1.32608e-05
-8.42557e-05 2.52854e-05 2.5273e-05 -1.82339e-05
-6.46232e-05 1.93932e-05 1.93843e-05 -2.21019e-05
-8.82841e-05 2.64933e-05 2.64818e-05 -1.82338e-05
-8.62699e-05 2.58893e-05 2.58774e-05 -1.82338e-05
-0.000105399 3.16306e-05 3.16149e-05 -1.32608e-05
-0.000100364 3.01205e-05 3.01042e-05 -1.32609e-05
-6.00909e-05 1.80347e-05 1.80241e-05 -2.2102e-05
-6.31124e-05 1.89404e-05 1.89309e-05 -2.21019e-05
-0.000102881 3.08756e-05 3.08595e-05 -1.32608e-05
-8.02274e-05 2.40775e-05 2.40643e-05 -1.82339e-05
-6.16017e-05 1.84875e-05 1.84775e-05 -2.21019e-05
-8.42557e-05 2.52854e-05 2.5273e-05 -1.82339e-05
-8.22416e-05 2.46814e-05 2.46686e-05 -1.82339e-05
-0.000100364 3.01205e-05 3.01042e-05 -1.32609e-05
-9.53285e-05 2.86103e-05 2.85935e-05 -1.3261e-05
-5.70695e-05 1.7129e-05 1.71174e-05 -2.2102e-05
-6.00909e-05 1.80347e-05 1.80241e-05 -2.2102e-05
-9.78461e-05 2.93654e-05 2.93488e-05 -1.32609e-05
-7.61992e-05 2.28696e-05 2.28555e-05 -1.8234e-05
-5.85802e-05 1.75818e-05 1.75707e-05 -2.2102e-05
-8.02274e-05 2.40775e-05 2.40643e-05 -1.82339e-05
-7.82133e-05 2.34735e-05 2.34599e-05 -1.82339e-05
-9.53285e-05 2.86103e-05 2.85935e-05 -1.3261e-05
-9.02936e-05 2.71002e-05 2.70829e-05 -1.32612e-05
-5.40482e-05 1.62233e-05 1.62106e-05 -2.2102e-05
-5.70695e-05 1.7129e-05 1.71174e-05 -2.2102e-05
-9.28111e-05 2.78553e-05 2.78382e-05 -1.32611e-05
-7.21711e-05 2.16617e-05 2.16469e-05 -1.82341e-05
-5.55588e-05 1.66762e-05 1.6664e-05 -2.2102e-05
-7.61992e-05 2.28696e-05 2.28555e-05 -1.8234e-05
-7.41851e-05 2.22656e-05 2.22512e-05 -1.8234e-05
-9.02936e-05 2.71002e-05 2.70829e-05 -1.32612e-05
-8.52587e-05 2.55901e-05 2.55723e-05 -1.32614e-05
-5.1027e-05 1.53177e-05 1.5304e-05 -2.21021e-05
-5.40482e-05 1.62233e-05 1.62106e-05 -2.2102e-05
-8.77761e-05 2.63452e-05 2.63276e-05 -1.32613e-05
-6.8143e-05 2.04538e-05 2.04382e-05 -1.82343e-05
-5.25376e-05 1.57705e-05 1.57573e-05 -2.21021e-05
-7.21711e-05 2.16617e-05 2.16469e-05 -1.82341e-05
-7.0157e-05 2.10578e-05 2.10425e-05 -1.82342e-05
-8.52587e-05 2.55901e-05 2.55723e-05 -1.32614e-05
-8.02238e-05 2.40799e-05 2.40617e-05 -1.32617e-05
-4.80058e-05 1.44118e-05 1.43974e-05 -2.21022e-05
-5.1027e-05 1.53177e-05 1.5304e-05 -2.21021e-05
-8.27412e-05 2.4835e-05 2.4817e-05 -1.32615e-05
-6.41151e-05 1.92458e-05 1.92297e-05 -1.82344e-05
-4.95164e-05 1.48648e-05 1.48507e-05 -2.21022e-05
-6.8143e-05 2.04538e-05 2.04382e-05 -1.82343e-05
-6.61291e-05 1.98499e-05 1.98339e-05 -1.82344e-05
-8.02238e-05 2.40799e-05 2.40617e-05 -1.32617e-05
-7.51891e-05 2.25694e-05 2.25513e-05 -1.32617e-05
-4.49843e-05 1.35053e-05 1.3491e-05 -2.21024e-05
-4.80058e-05 1.44118e-05 1.43974e-05 -2.21022e-05
-7.77064e-05 2.33247e-05 2.33065e-05 -1.32617e-05
-6.00871e-05 1.80373e-05 1.80213e-05 -1.82344e-05
-4.64952e-05 1.39587e-05 1.39442e-05 -2.21023e-05
-6.41151e-05 1.92458e-05 1.92297e-05 -1.82344e-05
-6.21011e-05 1.86417e-05 1.86255e-05 -1.82345e-05
-7.51891e-05 2.25694e-05 2.25513e-05 -1.32617e-05
-7.01544e-05 2.10584e-05 2.10412e-05 -1.3261e-05
-4.19619e-05 1.25971e-05 1.25849e-05 -2.21025e-05
-4.49843e-05 1.35053e-05 1.3491e-05 -2.21024e-05
-7.26718e-05 2.1814e-05 2.17962e-05 -1.32615e-05
-5.60586e-05 1.68275e-05 1.68133e-05 -1.82336e-05
-4.34733e-05 1.30515e-05 1.30379e-05 -2.21025e-05
-6.00871e-05 1.80373e-05 1.80213e-05 -1.82344e-05
-5.80729e-05 1.74327e-05 1.74173e-05 -1.82341e-05
-7.01544e-05 2.10584e-05 2.10412e-05 -1.3261e-05
-6.512e-05 1.95459e-05 1.95318e-05 -1.3258e-05
-3.89364e-05 1.16851e-05 1.16792e-05 -2.21025e-05
-4.19619e-05 1.25971e-05 1.25849e-05 -2.21025e-05
-6.76371e-05 2.03024e-05 2.02863e-05 -1.32599e-05
-5.20285e-05 1.56147e-05 1.56059e-05 -1.8231e-05
-4.04498e-05 1.21418e-05 1.2132e-05 -2.21025e-05
-5.60586e-05 1.68275e-05 1.68133e-05 -1.82336e-05
-5.40438e-05 1.62217e-05 1.62095e-05 -1.82327e-05
-6.512e-05 1.95459e-05 1.95318e-05 -1.3258e-05
-6.00851e-05 1.80303e-05 1.80235e-05 -1.32503e-05
-3.59047e-05 1.07648e-05 1.07742e-05 -2.21019e-05
-3.89364e-05 1.16851e-05 1.16792e-05 -2.21025e-05
-6.26027e-05 1.87886e-05 1.87775e-05 -1.3255e-05
-4.79944e-05 1.43954e-05 1.43996e-05 -1.82244e-05
-3.74215e-05 1.12263e-05 1.12265e-05 -2.21023e-05
-5.20285e-05 1.56147e-05 1.56059e-05 -1.8231e-05
-5.00122e-05 1.50062e-05 1.50026e-05 -1.82283e-05
-6.00851e-05 1.80303e-05 1.80235e-05 -1.32503e-05
-5.50504e-05 1.65085e-05 1.65179e-05 -1.32315e-05
-3.28576e-05 9.82891e-06 9.86942e-06 -2.21007e-05
-3.59047e-05 1.07648e-05 1.07742e-05 -2.21019e-05
-5.75674e-05 1.72704e-05 1.72702e-05 -1.32429e-05
-4.39516e-05 1.31637e-05 1.31948e-05 -1.82096e-05
-3.4384e-05 1.02996e-05 1.03219e-05 -2.21013e-05
-4.79944e-05 1.43954e-05 1.43996e-05 -1.82244e-05
-4.59745e-05 1.37819e-05 1.37968e-05 -1.82185e-05
-5.50504e-05 1.65085e-05 1.65179e-05 -1.32315e-05
-5.00116e-05 1.49753e-05 1.50156e-05 -1.3193e-05
-2.97838e-05 8.86349e-06 8.96585e-06 -2.20978e-05
-3.28576e-05 9.82891e-06 9.86942e-06 -2.21007e-05
-5.25323e-05 1.5744e-05 1.57664e-05 -1.32154e-05
-3.98898e-05 1.19075e-05 1.19924e-05 -1.81792e-05
-3.13244e-05 9.35085e-06 9.41725e-06 -2.20997e-05
-4.39516e-05 1.31637e-05 1.31948e-05 -1.82096e-05
-4.19239e-05 1.25393e-05 1.25934e-05 -1.81966e-05
-5.00116e-05 1.49753e-05 1.50156e-05 -1.3193e-05
-4.49713e-05 1.34205e-05 1.35218e-05 -1.31136e-05
-2.66524e-05 7.8487e-06 8.05875e-06 -2.20954e-05
-2.97838e-05 8.86349e-06 8.96585e-06 -2.20978e-05
-4.74906e-05 1.42009e-05 1.4267e-05 -1.31605e-05
-3.57923e-05 1.06108e-05 1.07921e-05 -1.81217e-05
-2.82288e-05 8.36435e-06 8.51333e-06 -2.20961e-05
-3.98898e-05 1.19075e-05 1.19924e-05 -1.81792e-05
-3.78467e-05 1.12664e-05 1.13916e-05 -1.81557e-05
-4.49713e-05 1.34205e-05 1.35218e-05 -1.31136e-05
-3.99082e-05 1.1832e-05 1.20327e-05 -1.29717e-05
-2.34338e-05 6.75224e-06 7.14922e-06 -2.2092e-05
-2.66524e-05 7.8487e-06 8.05875e-06 -2.20954e-05
-4.24464e-05 1.2633e-05 1.27772e-05 -1.30519e-05
-3.16239e-05 9.24061e-06 9.59284e-06 -1.8021e-05
-2.50543e-05 7.31195e-06 7.60385e-06 -2.20943e-05
-3.57923e-05 1.06108e-05 1.07921e-05 -1.81217e-05
-3.37202e-05 9.93546e-06 1.01935e-05 -1.80762e-05
-3.99082e-05 1.1832e-05 1.20327e-05 -1.29717e-05
-3.48288e-05 1.01804e-05 1.05636e-05 -1.27118e-05
-2.0045e-05 5.54688e-06 6.21349e-06 -2.21067e-05
-2.34338e-05 6.75224e-06 7.14922e-06 -2.2092e-05
-3.7366e-05 1.10125e-05 1.12943e-05 -1.28619e-05
-2.73395e-05 7.77227e-06 8.38597e-06 -1.78585e-05
-2.17707e-05 6.16685e-06 6.68738e-06 -2.20944e-05
-3.16239e-05 9.24061e-06 9.59284e-06 -1.8021e-05
-2.94986e-05 8.52438e-06 8.98897e-06 -1.79524e-05
-3.48288e-05 1.01804e-05 1.05636e-05 -1.27118e-05
-2.96382e-05 8.45837e-06 9.07708e-06 -1.23128e-05
-1.64507e-05 4.20303e-06 5.24899e-06 -2.21508e-05
-2.0045e-05 5.54688e-06 6.21349e-06 -2.21067e-05
-3.22639e-05 9.33757e-06 9.82555e-06 -1.25299e-05
-2.28352e-05 6.14548e-06 7.15273e-06 -1.76336e-05
-1.82679e-05 4.8871e-06 5.73463e-06 -2.21252e-05
-2.73395e-05 7.77227e-06 8.38597e-06 -1.78585e-05
-2.51254e-05 6.97355e-06 7.77938e-06 -1.77452e-05
-2.96382e-05 8.45837e-06 9.07708e-06 -1.23128e-05
-2.43432e-05 6.59462e-06 7.60652e-06 -1.16908e-05
-1.25203e-05 2.81402e-06 4.15983e-06 -2.23262e-05
-1.64507e-05 4.20303e-06 5.24899e-06 -2.21508e-05
-2.69864e-05 7.5271e-06 8.33972e-06 -1.20371e-05
-1.80426e-05 4.41887e-06 5.83875e-06 -1.73888e-05
-1.45495e-05 3.51152e-06 4.73054e-06 -2.22098e-05
-2.28352e-05 6.14548e-06 7.15273e-06 -1.76336e-05
-2.04729e-05 5.30237e-06 6.50165e-06 -1.75233e-05
-2.43432e-05 6.59462e-06 7.60652e-06 -1.16908e-05
-1.85726e-05 4.73955e-06 5.92843e-06 -1.10221e-05
-8.44854e-06 1.60776e-06 2.93176e-06 -2.27009e-05
-1.25203e-05 2.81402e-06 4.15983e-06 -2.23262e-05
-2.1581e-05 5.69637e-06 6.8077e-06 -1.1343e-05
-1.27407e-05 2.65845e-06 4.32098e-06 -1.7345e-05
-1.04558e-05 2.13517e-06 3.56598e-06 -2.24859e-05
-1.80426e-05 4.41887e-06 5.83875e-06 -1.73888e-05
-1.5485e-05 3.4933e-06 5.13931e-06 -1.72873e-05
-1.85726e-05 4.73955e-06 5.92843e-06 -1.10221e-05
-1.23666e-05 2.90241e-06 4.05609e-06 -1.05966e-05
-4.49997e-06 1.57695e-06 1.25272e-06 -2.35124e-05
-8.44854e-06 1.60776e-06 2.93176e-06 -2.27009e-05
-1.54553e-05 3.69326e-06 5.04087e-06 -1.07353e-05
-7.24057e-06 1.81434e-06 2.32553e-06 -1.79789e-05
-6.47208e-06 1.38292e-06 2.18107e-06 -2.30306e-05
-1.27407e-05 2.65845e-06 4.32098e-06 -1.7345e-05
-9.94688e-06 2.06668e-06 3.37723e-06 -1.75895e-05
-1.23666e-05 2.90241e-06 4.05609e-06 -1.05966e-05
-5.17098e-06 3.06425e-06 9.02888e-07 -1.23752e-05
-2.4146e-06 4.48318e-06 -8.86534e-07 -2.41122e-05
-4.49997e-06 1.57695e-06 1.25272e-06 -2.35124e-05
-9.03054e-06 2.70858e-06 2.70941e-06 -1.10206e-05
-2.23394e-06 3.99109e-06 -7.53064e-07 -2.02178e-05
-2.99366e-06 2.40136e-06 2.53841e-07 -2.39305e-05
-7.24057e-06 1.81434e-06 2.32553e-06 -1.79789e-05
-4.65764e-06 2.15047e-06 1.0745e-06 -1.87148e-05
-5.17098e-06 3.06425e-06 9.02888e-07 -1.23752e-05
-1.81325e-06 1.13502e-05 -4.08727e-06 -1.88528e-05
-3.46016e-06 1.36047e-05 -4.34766e-06 -2.21256e-05
-2.4146e-06 4.48318e-06 -8.86534e-07 -2.41122e-05
-2.2709e-06 4.63777e-06 -1.01437e-06 -1.46928e-05
-3.71776e-06 1.55092e-05 -5.05347e-06 -2.1965e-05
-2.61827e-06 8.33605e-06 -2.45048e-06 -2.37491e-05
-2.23394e-06 3.99109e-06 -7.53064e-07 -2.02178e-05
-1.43285e-06 8.29299e-06 -2.94006e-06 -2.17458e-05
-1.81325e-06 1.13502e-05 -4.08727e-06 -1.88528e-05
-1.53306e-05 5.02213e-05 -1.49532e-05 -1.90086e-05
-6.56842e-06 2.4619e-05 -7.73598e-06 -1.1696e-05
-3.46016e-06 1.36047e-05 -4.34766e-06 -2.21256e-05
-5.57438e-06 2.68225e-05 -9.10632e-06 -2.2178e-05
-1.21693e-05 3.622e-05 -1.03075e-05 -1.10982e-05
-4.81773e-06 1.95315e-05 -6.30591e-06 -1.82799e-05
-3.71776e-06 1.55092e-05 -5.05347e-06 -2.1965e-05
-7.74461e-06 2.54952e-05 -7.60737e-06 -1.90127e-05
-0.000487752 0 0.000209037 6.4051e-05
-0.000551535 7.27467e-05 0.000205195 -2.0916e-06
-0.000178833 2.41532e-05 6.62913e-05 3.32124e-05
-0.000175819 -1.11022e-16 7.53511e-05 0.000100224
-0.000528518 4.09015e-05 0.000208979 2.41056e-05
-0.000365106 4.84837e-05 0.000135695 1.96167e-05
-0.000171638 1.02275e-05 6.9176e-05 6.32073e-05
-0.00032459 0 0.00013911 9.15991e-05
-0.000349968 2.30808e-05 0.000140095 4.53871e-05
-0.000551535 7.27467e-05 0.000205195 -2.0916e-06
-0.000579681 0.000133052 0.000191413 -2.26755e-05
-0.000192702 3.97737e-05 6.55406e-05 -6.89666e-06
-0.000178833 2.41532e-05 6.62913e-05 3.32124e-05
-0.000565645 0.000104819 0.000197497 -1.53583e-05
-0.000383817 8.31466e-05 0.000128859 -1.25341e-05
-0.000188741 3.35051e-05 6.65298e-05 9.62816e-06
-0.000365106 4.84837e-05 0.000135695 1.96167e-05
-0.000374794 6.82222e-05 0.000131388 2.20268e-06
-0.000579681 0.000133052 0.000191413 -2.26755e-05
-0.000593932 0.000163442 0.000184496 -2.66525e-05
-0.000196785 5.13843e-05 6.23146e-05 -2.50693e-05
-0.000192702 3.97737e-05 6.55406e-05 -6.89666e-06
-0.000590244 0.000151923 0.000187852 -2.62788e-05
-0.00039477 0.000105311 0.000124054 -2.63735e-05
-0.000194217 4.59652e-05 6.35363e-05 -1.78522e-05
-0.000383817 8.31466e-05 0.000128859 -1.25341e-05
-0.0003909 9.56322e-05 0.000126543 -2.20941e-05
-0.000593932 0.000163442 0.000184496 -2.66525e-05
-0.000593372 0.000175347 0.000179154 -2.46635e-05
-0.000198918 5.68484e-05 6.08869e-05 -3.15501e-05
-0.000196785 5.13843e-05 6.23146e-05 -2.50693e-05
-0.000593919 0.000170921 0.000181285 -2.55372e-05
-0.000396588 0.000115153 0.000120615 -2.94364e-05
-0.000198866 5.48385e-05 6.17261e-05 -2.94114e-05
-0.00039477 0.000105311 0.000124054 -2.63735e-05
-0.000396356 0.000111518 0.000122073 -2.8295e-05
-0.000593372 0.000175347 0.000179154 -2.46635e-05
-0.000589198 0.000177586 0.000176405 -2.33197e-05
-0.00019759 5.89468e-05 5.94187e-05 -3.224e-05
-0.000198918 5.68484e-05 6.08869e-05 -3.15501e-05
-0.000591922 0.000177241 0.00017772 -2.39979e-05
-0.000394244 0.000118365 0.000118234 -2.89793e-05
-0.000198105 5.819e-05 5.99634e-05 -3.2255e-05
-0.000396588 0.000115153 0.000120615 -2.94364e-05
-0.000395779 0.000117319 0.00011934 -2.9569e-05
-0.000589198 0.000177586 0.000176405 -2.33197e-05
-0.000583327 0.000176658 0.000174287 -2.24207e-05
-0.000195935 5.88972e-05 5.87303e-05 -3.10955e-05
-0.00019759 5.89468e-05 5.94187e-05 -3.224e-05
-0.00058605 0.00017731 0.000175174 -2.27282e-05
-0.000390368 0.00011809 0.00011669 -2.77755e-05
-0.000196994 5.90982e-05 5.90983e-05 -3.17852e-05
-0.000394244 0.000118365 0.000118234 -2.89793e-05
-0.000392326 0.000118496 0.000117356 -2.82954e-05
-0.000583327 0.000176658 0.000174287 -2.24207e-05
-0.000578216 0.000174672 0.000172947 -2.21503e-05
-0.000193824 5.82721e-05 5.80937e-05 -2.96155e-05
-0.000195935 5.88972e-05 5.87303e-05 -3.10955e-05
-0.000580793 0.00017572 0.000173603 -2.22731e-05
-0.000386564 0.000116825 0.000115602 -2.67011e-05
-0.000194762 5.86091e-05 5.83511e-05 -3.03248e-05
-0.000390368 0.00011809 0.00011669 -2.77755e-05
-0.000388428 0.000117503 0.000116111 -2.72433e-05
-0.000578216 0.000174672 0.000172947 -2.21503e-05
-0.000573565 0.00017274 0.000171782 -2.20335e-05
-0.000192108 5.74824e-05 5.76966e-05 -2.84406e-05
-0.000193824 5.82721e-05 5.80937e-05 -2.96155e-05
-0.000575753 0.000173673 0.00017232 -2.20602e-05
-0.000383184 0.000115361 0.000114781 -2.59458e-05
-0.000192985 5.78809e-05 5.79018e-05 -2.89844e-05
-0.000386564 0.000116825 0.000115602 -2.67011e-05
-0.000384806 0.00011609 0.000115164 -2.62616e-05
-0.000573565 0.00017274 0.000171782 -2.20335e-05
-0.000569598 0.000171047 0.000170808 -2.20395e-05
-0.00019054 5.68032e-05 5.73158e-05 -2.76273e-05
-0.000192108 5.74824e-05 5.76966e-05 -2.84406e-05
-0.000571547 0.000171861 0.000171294 -2.20381e-05
-0.00038028 0.000114091 0.000114081 -2.54648e-05
-0.000191268 5.71243e-05 5.749e-05 -2.79863e-05
-0.000383184 0.000115361 0.000114781 -2.59458e-05
-0.000381681 0.000114695 0.000114423 -2.56854e-05
-0.000569598 0.000171047 0.000170808 -2.20395e-05
-0.000565984 0.000169636 0.000169863 -2.20523e-05
-0.000189227 5.62366e-05 5.69958e-05 -2.71274e-05
-0.00019054 5.68032e-05 5.73158e-05 -2.76273e-05
-0.000567737 0.00017031 0.000170326 -2.20418e-05
-0.000377726 0.000113028 0.000113442 -2.5184e-05
-0.000189876 5.65068e-05 5.71583e-05 -2.73459e-05
-0.00038028 0.000114091 0.000114081 -2.54648e-05
-0.000378967 0.000113536 0.000113756 -2.52997e-05
-0.000565984 0.000169636 0.000169863 -2.20523e-05
-0.000562654 0.000168425 0.000168955 -2.20741e-05
-0.000188023 5.57773e-05 5.66768e-05 -2.68364e-05
-0.000189227 5.62366e-05 5.69958e-05 -2.71274e-05
-0.000564302 0.00016901 0.000169411 -2.20654e-05
-0.000375407 0.000112148 0.000112825 -2.50266e-05
-0.000188605 5.59954e-05 5.68327e-05 -2.69603e-05
-0.000377726 0.000113028 0.000113442 -2.5184e-05
-0.000376545 0.000112569 0.000113132 -2.50957e-05
-0.000562654 0.000168425 0.000168955 -2.20741e-05
-0.00055946 0.000167351 0.000168047 -2.20867e-05
-0.000186917 5.53866e-05 5.63702e-05 -2.66785e-05
-0.000188023 5.57773e-05 5.66768e-05 -2.68364e-05
-0.00056104 0.000167875 0.000168499 -2.20805e-05
-0.000373228 0.000111388 0.000112217 -2.4944e-05
-0.000187466 5.55753e-05 5.65245e-05 -2.67453e-05
-0.000375407 0.000112148 0.000112825 -2.50266e-05
-0.000374305 0.000111756 0.000112521 -2.49775e-05
-0.00055946 0.000167351 0.000168047 -2.20867e-05
-0.000556355 0.000166358 0.000167142 -2.20955e-05
-0.000185852 5.50407e-05 5.6062e-05 -2.65965e-05
-0.000186917 5.53866e-05 5.63702e-05 -2.66785e-05
-0.000557902 0.000166847 0.000167595 -2.20921e-05
-0.000371128 0.000110703 0.000111611 -2.49019e-05
-0.000186379 5.52093e-05 5.62155e-05 -2.66305e-05
-0.000373228 0.000111388 0.000112217 -2.4944e-05
-0.000372171 0.000111038 0.000111914 -2.49198e-05
-0.000556355 0.000166358 0.000167142 -2.20955e-05
-0.000553289 0.00016541 0.000166234 -2.20995e-05
-0.000184816 5.47194e-05 5.57556e-05 -2.65566e-05
-0.000185852 5.50407e-05 5.6062e-05 -2.65965e-05
-0.000554818 0.00016588 0.000166688 -2.20978e-05
-0.000369069 0.00011006 0.000111004 -2.48818e-05
-0.000185333 5.48778e-05 5.59092e-05 -2.65729e-05
-0.000371128 0.000110703 0.000111611 -2.49019e-05
-0.000370095 0.000110378 0.000111307 -2.48897e-05
-0.000553289 0.00016541 0.000166234 -2.20995e-05
-0.000550246 0.000164487 0.000165325 -2.21015e-05
-0.000183791 5.44119e-05 5.5448e-05 -2.65381e-05
-0.000184816 5.47194e-05 5.57556e-05 -2.65566e-05
-0.000551766 0.000164947 0.00016578 -2.21008e-05
-0.000367032 0.000109441 0.000110396 -2.48725e-05
-0.000184302 5.45645e-05 5.56017e-05 -2.65455e-05
-0.000369069 0.00011006 0.000111004 -2.48818e-05
-0.000368049 0.000109748 0.0001107 -2.48763e-05
-0.000550246 0.000164487 0.000165325 -2.21015e-05
-0.000547211 0.000163577 0.000164415 -2.2102e-05
-0.000182772 5.41109e-05 5.51405e-05 -2.65304e-05
-0.000183791 5.44119e-05 5.5448e-05 -2.65381e-05
-0.000548728 0.000164031 0.00016487 -2.21018e-05
-0.000365004 0.000108833 0.000109787 -2.48686e-05
-0.000183281 5.42608e-05 5.52944e-05 -2.65334e-05
-0.000367032 0.000109441 0.000110396 -2.48725e-05
-0.000366017 0.000109136 0.000110092 -2.48701e-05
-0.000547211 0.000163577 0.000164415 -2.2102e-05
-0.000544181 0.000162671 0.000163504 -2.21019e-05
-0.000181755 5.3813e-05 5.48325e-05 -2.65274e-05
-0.000182772 5.41109e-05 5.51405e-05 -2.65304e-05
-0.000545696 0.000163123 0.00016396 -2.2102e-05
-0.00036298 0.000108231 0.000109178 -2.4867e-05
-0.000182263 5.39617e-05 5.49865e-05 -2.65285e-05
-0.000365004 0.000108833 0.000109787 -2.48686e-05
-0.000363991 0.000108532 0.000109483 -2.48676e-05
-0.000544181 0.000162671 0.000163504 -2.21019e-05
-0.000541152 0.000161769 0.000162593 -2.21017e-05
-0.00018074 5.35163e-05 5.45244e-05 -2.65266e-05
-0.000181755 5.3813e-05 5.48325e-05 -2.65274e-05
-0.000542666 0.00016222 0.000163049 -2.21018e-05
-0.000360957 0.000107631 0.000108568 -2.48664e-05
-0.000181248 5.36646e-05 5.46785e-05 -2.65269e-05
-0.00036298 0.000108231 0.000109178 -2.4867e-05
-0.000361968 0.000107931 0.000108873 -2.48666e-05
-0.000541152 0.000161769 0.000162593 -2.21017e-05
-0.000538123 0.000160867 0.000161681 -2.21014e-05
-0.000179724 5.32199e-05 5.42162e-05 -2.65265e-05
-0.00018074 5.35163e-05 5.45244e-05 -2.65266e-05
-0.000539638 0.000161317 0.000162137 -2.21015e-05
-0.000358935 0.000107032 0.000107958 -2.48662e-05
-0.000180232 5.33681e-05 5.43703e-05 -2.65265e-05
-0.000360957 0.000107631 0.000108568 -2.48664e-05
-0.000359946 0.000107331 0.000108263 -2.48663e-05
-0.000538123 0.000160867 0.000161681 -2.21014e-05
-0.000535094 0.000159965 0.00016077 -2.21012e-05
-0.000178709 5.29235e-05 5.39079e-05 -2.65267e-05
-0.000179724 5.32199e-05 5.42162e-05 -2.65265e-05
-0.000536609 0.000160416 0.000161226 -2.21013e-05
-0.000356913 0.000106433 0.000107348 -2.48662e-05
-0.000179217 5.30717e-05 5.40621e-05 -2.65266e-05
-0.000358935 0.000107032 0.000107958 -2.48662e-05
-0.000357924 0.000106732 0.000107653 -2.48662e-05
-0.000535094 0.000159965 0.00016077 -2.21012e-05
-0.000532065 0.000159063 0.000159858 -2.2101e-05
-0.000177693 5.26269e-05 5.35997e-05 -2.65269e-05
-0.000178709 5.29235e-05 5.39079e-05 -2.65267e-05
-0.00053358 0.000159514 0.000160314 -2.21011e-05
-0.00035489 0.000105834 0.000106738 -2.48662e-05
-0.000178201 5.27752e-05 5.37538e-05 -2.65268e-05
-0.000356913 0.000106433 0.000107348 -2.48662e-05
-0.000355901 0.000106133 0.000107043 -2.48662e-05
-0.000532065 0.000159063 0.000159858 -2.2101e-05
-0.000529036 0.000158161 0.000158947 -2.21009e-05
-0.000176677 5.23302e-05 5.32915e-05 -2.6527e-05
-0.000177693 5.26269e-05 5.35997e-05 -2.65269e-05
-0.000530551 0.000158612 0.000159402 -2.21009e-05
-0.000352868 0.000105235 0.000106128 -2.48663e-05
-0.000177185 5.24786e-05 5.34456e-05 -2.65269e-05
-0.00035489 0.000105834 0.000106738 -2.48662e-05
-0.000353879 0.000105534 0.000106433 -2.48663e-05
-0.000529036 0.000158161 0.000158947 -2.21009e-05
-0.000526007 0.000157258 0.000158035 -2.21009e-05
-0.000175661 5.20333e-05 5.29834e-05 -2.65271e-05
-0.000176677 5.23302e-05 5.32915e-05 -2.6527e-05
-0.000527522 0.00015771 0.000158491 -2.21009e-05
-0.000350845 0.000104635 0.000105518 -2.48663e-05
-0.000176169 5.21818e-05 5.31374e-05 -2.65271e-05
-0.000352868 0.000105235 0.000106128 -2.48663e-05
-0.000351856 0.000104935 0.000105823 -2.48663e-05
-0.000526007 0.000157258 0.000158035 -2.21009e-05
-0.000522978 0.000156356 0.000157124 -2.21008e-05
-0.000174645 5.17364e-05 5.26753e-05 -2.65271e-05
-0.000175661 5.20333e-05 5.29834e-05 -2.65271e-05
-0.000524493 0.000156807 0.000157579 -2.21009e-05
-0.000348822 0.000104036 0.000104909 -2.48663e-05
-0.000175153 5.18849e-05 5.28293e-05 -2.65271e-05
-0.000350845 0.000104635 0.000105518 -2.48663e-05
-0.000349834 0.000104335 0.000105214 -2.48663e-05
-0.000522978 0.000156356 0.000157124 -2.21008e-05
-0.000519949 0.000155454 0.000156212 -2.21009e-05
-0.000173629 5.14393e-05 5.23672e-05 -2.65272e-05
-0.000174645 5.17364e-05 5.26753e-05 -2.65271e-05
-0.000521463 0.000155905 0.000156668 -2.21008e-05
-0.0003468 0.000103436 0.000104299 -2.48663e-05
-0.000174137 5.15879e-05 5.25212e-05 -2.65272e-05
-0.000348822 0.000104036 0.000104909 -2.48663e-05
-0.000347811 0.000103736 0.000104604 -2.48663e-05
-0.000519949 0.000155454 0.000156212 -2.21009e-05
-0.00051692 0.000154551 0.000155301 -2.21009e-05
-0.000172614 5.11422e-05 5.20591e-05 -2.65272e-05
-0.000173629 5.14393e-05 5.23672e-05 -2.65272e-05
-0.000518434 0.000155003 0.000155756 -2.21009e-05
-0.000344777 0.000102836 0.000103689 -2.48664e-05
-0.000173121 5.12908e-05 5.22132e-05 -2.65272e-05
-0.0003468 0.000103436 0.000104299 -2.48663e-05
-0.000345788 0.000103136 0.000103994 -2.48663e-05
-0.00051692 0.000154551 0.000155301 -2.21009e-05
-0.000513891 0.000153649 0.000154389 -2.21009e-05
-0.000171598 5.08451e-05 5.17511e-05 -2.65272e-05
-0.000172614 5.11422e-05 5.20591e-05 -2.65272e-05
-0.000515405 0.0001541 0.000154845 -2.21009e-05
-0.000342754 0.000102237 0.000103079 -2.48664e-05
-0.000172106 5.09936e-05 5.19051e-05 -2.65272e-05
-0.000344777 0.000102836 0.000103689 -2.48664e-05
-0.000343766 0.000102537 0.000103384 -2.48664e-05
-0.000513891 0.000153649 0.000154389 -2.21009e-05
-0.000510861 0.000152746 0.000153478 -2.21009e-05
-0.000170582 5.05479e-05 5.14432e-05 -2.65272e-05
-0.000171598 5.08451e-05 5.17511e-05 -2.65272e-05
-0.000512376 0.000153198 0.000153934 -2.21009e-05
-0.000340732 0.000101637 0.000102469 -2.48664e-05
-0.00017109 5.06965e-05 5.15972e-05 -2.65272e-05
-0.000342754 0.000102237 0.000103079 -2.48664e-05
-0.000341743 0.000101937 0.000102774 -2.48664e-05
-0.000510861 0.000152746 0.000153478 -2.21009e-05
-0.000507832 0.000151844 0.000152566 -2.21009e-05
-0.000169566 5.02506e-05 5.11352e-05 -2.65272e-05
-0.000170582 5.05479e-05 5.14432e-05 -2.65272e-05
-0.000509347 0.000152295 0.000153022 -2.21009e-05
-0.000338709 0.000101037 0.000101859 -2.48664e-05
-0.000170074 5.03993e-05 5.12892e-05 -2.65272e-05
-0.000340732 0.000101637 0.000102469 -2.48664e-05
-0.000339721 0.000101337 0.000102164 -2.48664e-05
-0.000507832 0.000151844 0.000152566 -2.21009e-05
-0.000504803 0.000150941 0.000151655 -2.2101e-05
-0.000168551 4.99534e-05 5.08273e-05 -2.65271e-05
-0.000169566 5.02506e-05 5.11352e-05 -2.65272e-05
-0.000506318 0.000151393 0.000152111 -2.2101e-05
-0.000336687 0.000100438 0.00010125 -2.48664e-05
-0.000169058 5.0102e-05 5.09813e-05 -2.65271e-05
-0.000338709 0.000101037 0.000101859 -2.48664e-05
-0.000337698 0.000100737 0.000101555 -2.48664e-05
-0.000504803 0.000150941 0.000151655 -2.2101e-05
-0.000501774 0.000150039 0.000150744 -2.2101e-05
-0.000167535 4.96561e-05 5.05195e-05 -2.65271e-05
-0.000168551 4.99534e-05 5.08273e-05 -2.65271e-05
-0.000503289 0.00015049 0.000151199 -2.2101e-05
-0.000334664 9.98377e-05 0.00010064 -2.48664e-05
-0.000168043 4.98047e-05 5.06734e-05 -2.65271e-05
-0.000336687 0.000100438 0.00010125 -2.48664e-05
-0.000335676 0.000100138 0.000100945 -2.48664e-05
-0.000501774 0.000150039 0.000150744 -2.2101e-05
-0.000498746 0.000149136 0.000149833 -2.2101e-05
-0.000166519 4.93588e-05 5.02117e-05 -2.65271e-05
-0.000167535 4.96561e-05 5.05195e-05 -2.65271e-05
-0.00050026 0.000149588 0.000150288 -2.2101e-05
-0.000332642 9.92379e-05 0.00010003 -2.48664e-05
-0.000167027 4.95075e-05 5.03656e-05 -2.65271e-05
-0.000334664 9.98377e-05 0.00010064 -2.48664e-05
-0.000333653 9.95378e-05 0.000100335 -2.48664e-05
-0.000498746 0.000149136 0.000149833 -2.2101e-05
-0.000495717 0.000148234 0.000148921 -2.2101e-05
-0.000165504 4.90615e-05 4.99039e-05 -2.65271e-05
-0.000166519 4.93588e-05 5.02117e-05 -2.65271e-05
-0.000497231 0.000148685 0.000149377 -2.2101e-05
-0.00033062 9.86381e-05 9.94208e-05 -2.48664e-05
-0.000166012 4.92101e-05 5.00578e-05 -2.65271e-05
-0.000332642 9.92379e-05 0.00010003 -2.48664e-05
-0.000331631 9.8938e-05 9.97256e-05 -2.48664e-05
-0.000495717 0.000148234 0.000148921 -2.2101e-05
-0.000492688 0.000147331 0.00014801 -2.2101e-05
-0.000164488 4.87641e-05 4.95961e-05 -2.65271e-05
-0.000165504 4.90615e-05 4.99039e-05 -2.65271e-05
-0.000494202 0.000147782 0.000148466 -2.2101e-05
-0.000328598 9.80382e-05 9.88112e-05 -2.48664e-05
-0.000164996 4.89128e-05 4.975e-05 -2.65271e-05
-0.00033062 9.86381e-05 9.94208e-05 -2.48664e-05
-0.000329609 9.83381e-05 9.9116e-05 -2.48664e-05
-0.000492688 0.000147331 0.00014801 -2.2101e-05
-0.000489659 0.000146428 0.000147099 -2.21011e-05
-0.000163473 4.84667e-05 4.92884e-05 -2.6527e-05
-0.000164488 4.87641e-05 4.95961e-05 -2.65271e-05
-0.000491174 0.00014688 0.000147554 -2.2101e-05
-0.000326575 9.74383e-05 9.82016e-05 -2.48664e-05
-0.000163981 4.86154e-05 4.94422e-05 -2.65271e-05
-0.000328598 9.80382e-05 9.88112e-05 -2.48664e-05
-0.000327587 9.77382e-05 9.85064e-05 -2.48664e-05
-0.000489659 0.000146428 0.000147099 -2.21011e-05
-0.000486631 0.000145526 0.000146188 -2.21011e-05
-0.000162458 4.81693e-05 4.89807e-05 -2.6527e-05
-0.000163473 4.84667e-05 4.92884e-05 -2.6527e-05
-0.000488145 0.000145977 0.000146643 -2.21011e-05
-0.000324553 9.68384e-05 9.75921e-05 -2.48664e-05
-0.000162965 4.8318e-05 4.91345e-05 -2.6527e-05
-0.000326575 9.74383e-05 9.82016e-05 -2.48664e-05
-0.000325564 9.71383e-05 9.78969e-05 -2.48664e-05
-0.000486631 0.000145526 0.000146188 -2.21011e-05
-0.000483602 0.000144623 0.000145277 -2.21011e-05
-0.000161442 4.78719e-05 4.8673e-05 -2.6527e-05
-0.000162458 4.81693e-05 4.89807e-05 -2.6527e-05
-0.000485116 0.000145074 0.000145732 -2.21011e-05
-0.000322531 9.62384e-05 9.69826e-05 -2.48664e-05
-0.00016195 4.80206e-05 4.88269e-05 -2.6527e-05
-0.000324553 9.68384e-05 9.75921e-05 -2.48664e-05
-0.000323542 9.65384e-05 9.72874e-05 -2.48664e-05
-0.000483602 0.000144623 0.000145277 -2.21011e-05
-0.000480573 0.00014372 0.000144366 -2.21011e-05
-0.000160427 4.75744e-05 4.83654e-05 -2.6527e-05
-0.000161442 4.78719e-05 4.8673e-05 -2.6527e-05
-0.000482088 0.000144172 0.000144821 -2.21011e-05
-0.000320509 9.56384e-05 9.63732e-05 -2.48664e-05
-0.000160935 4.77231e-05 4.85192e-05 -2.6527e-05
-0.000322531 9.62384e-05 9.69826e-05 -2.48664e-05
-0.00032152 9.59384e-05 9.66779e-05 -2.48664e-05
-0.000480573 0.00014372 0.000144366 -2.21011e-05
-0.000477545 0.000142818 0.000143454 -2.21011e-05
-0.000159412 4.72769e-05 4.80578e-05 -2.6527e-05
-0.000160427 4.75744e-05 4.83654e-05 -2.6527e-05
-0.000479059 0.000143269 0.00014391 -2.21011e-05
-0.000318487 9.50384e-05 9.57637e-05 -2.48664e-05
-0.000159919 4.74257e-05 4.82116e-05 -2.6527e-05
-0.000320509 9.56384e-05 9.63732e-05 -2.48664e-05
-0.000319498 9.53384e-05 9.60684e-05 -2.48664e-05
-0.000477545 0.000142818 0.000143454 -2.21011e-05
-0.000474516 0.000141915 0.000142543 -2.21011e-05
-0.000158397 4.69794e-05 4.77503e-05 -2.65269e-05
-0.000159412 4.72769e-05 4.80578e-05 -2.6527e-05
-0.00047603 0.000142366 0.000142999 -2.21011e-05
-0.000316465 9.44384e-05 9.51543e-05 -2.48664e-05
-0.000158904 4.71281e-05 4.7904e-05 -2.65269e-05
-0.000318487 9.50384e-05 9.57637e-05 -2.48664e-05
-0.000317476 9.47384e-05 9.5459e-05 -2.48664e-05
-0.000474516 0.000141915 0.000142543 -2.21011e-05
-0.000471488 0.000141012 0.000141632 -2.21011e-05
-0.000157382 4.66818e-05 4.74427e-05 -2.65269e-05
-0.000158397 4.69794e-05 4.77503e-05 -2.65269e-05
-0.000473002 0.000141464 0.000142088 -2.21011e-05
-0.000314443 9.38384e-05 9.4545e-05 -2.48664e-05
-0.000157889 4.68306e-05 4.75965e-05 -2.65269e-05
-0.000316465 9.44384e-05 9.51543e-05 -2.48664e-05
-0.000315454 9.41384e-05 9.48497e-05 -2.48664e-05
-0.000471488 0.000141012 0.000141632 -2.21011e-05
-0.000468459 0.000140109 0.000140721 -2.21011e-05
-0.000156367 4.63843e-05 4.71353e-05 -2.65269e-05
-0.000157382 4.66818e-05 4.74427e-05 -2.65269e-05
-0.000469974 0.000140561 0.000141177 -2.21011e-05
-0.000312421 9.32383e-05 9.39357e-05 -2.48664e-05
-0.000156874 4.6533e-05 4.7289e-05 -2.65269e-05
-0.000314443 9.38384e-05 9.4545e-05 -2.48664e-05
-0.000313432 9.35383e-05 9.42403e-05 -2.48664e-05
-0.000468459 0.000140109 0.000140721 -2.21011e-05
-0.000465431 0.000139207 0.00013981 -2.21011e-05
-0.000155352 4.60867e-05 4.68278e-05 -2.65269e-05
-0.000156367 4.63843e-05 4.71353e-05 -2.65269e-05
-0.000466945 0.000139658 0.000140266 -2.21011e-05
-0.0003104 9.26382e-05 9.33264e-05 -2.48664e-05
-0.000155859 4.62355e-05 4.69815e-05 -2.65269e-05
-0.000312421 9.32383e-05 9.39357e-05 -2.48664e-05
-0.000311411 9.29383e-05 9.3631e-05 -2.48664e-05
-0.000465431 0.000139207 0.00013981 -2.21011e-05
-0.000462403 0.000138304 0.0001389 -2.21011e-05
-0.000154337 4.5789e-05 4.65204e-05 -2.65268e-05
-0.000155352 4.60867e-05 4.68278e-05 -2.65269e-05
-0.000463917 0.000138755 0.000139355 -2.21011e-05
-0.000308378 9.20381e-05 9.27171e-05 -2.48663e-05
-0.000154844 4.59378e-05 4.66741e-05 -2.65268e-05
-0.0003104 9.26382e-05 9.33264e-05 -2.48664e-05
-0.000309389 9.23382e-05 9.30217e-05 -2.48663e-05
-0.000462403 0.000138304 0.0001389 -2.21011e-05
-0.000459374 0.000137401 0.000137989 -2.21011e-05
-0.000153322 4.54914e-05 4.6213e-05 -2.65268e-05
-0.000154337 4.5789e-05 4.65204e-05 -2.65268e-05
-0.000460889 0.000137852 0.000138444 -2.21011e-05
-0.000306356 9.14379e-05 9.21079e-05 -2.48663e-05
-0.000153829 4.56402e-05 4.63667e-05 -2.65268e-05
-0.000308378 9.20381e-05 9.27171e-05 -2.48663e-05
-0.000307367 9.1738e-05 9.24125e-05 -2.48663e-05
-0.000459374 0.000137401 0.000137989 -2.21011e-05
-0.000456346 0.000136498 0.000137078 -2.21012e-05
-0.000152307 4.51937e-05 4.59056e-05 -2.65268e-05
-0.000153322 4.54914e-05 4.6213e-05 -2.65268e-05
-0.00045786 0.000136949 0.000137533 -2.21012e-05
-0.000304335 9.08378e-05 9.14987e-05 -2.48663e-05
-0.000152814 4.53425e-05 4.60593e-05 -2.65268e-05
-0.000306356 9.14379e-05 9.21079e-05 -2.48663e-05
-0.000305345 9.11379e-05 9.18033e-05 -2.48663e-05
-0.000456346 0.000136498 0.000137078 -2.21012e-05
-0.000453318 0.000135595 0.000136167 -2.21012e-05
-0.000151292 4.4896e-05 4.55983e-05 -2.65267e-05
-0.000152307 4.51937e-05 4.59056e-05 -2.65268e-05
-0.000454832 0.000136047 0.000136622 -2.21012e-05
-0.000302313 9.02376e-05 9.08895e-05 -2.48663e-05
-0.000151799 4.50448e-05 4.5752e-05 -2.65268e-05
-0.000304335 9.08378e-05 9.14987e-05 -2.48663e-05
-0.000303324 9.05377e-05 9.11941e-05 -2.48663e-05
-0.000453318 0.000135595 0.000136167 -2.21012e-05
-0.00045029 0.000134692 0.000135256 -2.21012e-05
-0.000150277 4.45982e-05 4.5291e-05 -2.65267e-05
-0.000151292 4.4896e-05 4.55983e-05 -2.65267e-05
-0.000451804 0.000135144 0.000135712 -2.21012e-05
-0.000300292 8.96374e-05 9.02804e-05 -2.48663e-05
-0.000150785 4.47471e-05 4.54447e-05 -2.65267e-05
-0.000302313 9.02376e-05 9.08895e-05 -2.48663e-05
-0.000301302 8.99375e-05 9.05849e-05 -2.48663e-05
-0.00045029 0.000134692 0.000135256 -2.21012e-05
-0.000447262 0.000133789 0.000134345 -2.21012e-05
-0.000149263 4.43004e-05 4.49838e-05 -2.65267e-05
-0.000150277 4.45982e-05 4.5291e-05 -2.65267e-05
-0.000448776 0.000134241 0.000134801 -2.21012e-05
-0.00029827 8.90371e-05 8.96713e-05 -2.48663e-05
-0.00014977 4.44493e-05 4.51374e-05 -2.65267e-05
-0.000300292 8.96374e-05 9.02804e-05 -2.48663e-05
-0.000299281 8.93372e-05 8.99758e-05 -2.48663e-05
-0.000447262 0.000133789 0.000134345 -2.21012e-05
-0.000444234 0.000132886 0.000133435 -2.21012e-05
-0.000148248 4.40026e-05 4.46766e-05 -2.65267e-05
-0.000149263 4.43004e-05 4.49838e-05 -2.65267e-05
-0.000445748 0.000133338 0.00013389 -2.21012e-05
-0.000296249 8.84368e-05 8.90622e-05 -2.48663e-05
-0.000148755 4.41515e-05 4.48302e-05 -2.65267e-05
-0.00029827 8.90371e-05 8.96713e-05 -2.48663e-05
-0.000297259 8.8737e-05 8.93667e-05 -2.48663e-05
-0.000444234 0.000132886 0.000133435 -2.21012e-05
-0.000441206 0.000131983 0.000132524 -2.21012e-05
-0.000147233 4.37048e-05 4.43694e-05 -2.65266e-05
-0.000148248 4.40026e-05 4.46766e-05 -2.65267e-05
-0.00044272 0.000132435 0.000132979 -2.21012e-05
-0.000294227 8.78365e-05 8.84532e-05 -2.48663e-05
-0.000147741 4.38537e-05 4.4523e-05 -2.65266e-05
-0.000296249 8.84368e-05 8.90622e-05 -2.48663e-05
-0.000295238 8.81367e-05 8.87577e-05 -2.48663e-05
-0.000441206 0.000131983 0.000132524 -2.21012e-05
-0.000438178 0.00013108 0.000131613 -2.21012e-05
-0.000146219 4.3407e-05 4.40622e-05 -2.65266e-05
-0.000147233 4.37048e-05 4.43694e-05 -2.65266e-05
-0.000439692 0.000131532 0.000132069 -2.21012e-05
-0.000292206 8.72362e-05 8.78442e-05 -2.48663e-05
-0.000146726 4.35559e-05 4.42158e-05 -2.65266e-05
-0.000294227 8.78365e-05 8.84532e-05 -2.48663e-05
-0.000293217 8.75364e-05 8.81487e-05 -2.48663e-05
-0.000438178 0.00013108 0.000131613 -2.21012e-05
-0.00043515 0.000130177 0.000130703 -2.21012e-05
-0.000145204 4.31091e-05 4.37551e-05 -2.65266e-05
-0.000146219 4.3407e-05 4.40622e-05 -2.65266e-05
-0.000436664 0.000130629 0.000131158 -2.21012e-05
-0.000290185 8.66359e-05 8.72352e-05 -2.48662e-05
-0.000145712 4.3258e-05 4.39087e-05 -2.65266e-05
-0.000292206 8.72362e-05 8.78442e-05 -2.48663e-05
-0.000291195 8.69361e-05 8.75397e-05 -2.48662e-05
-0.00043515 0.000130177 0.000130703 -2.21012e-05
-0.000432122 0.000129274 0.000129792 -2.21012e-05
-0.00014419 4.28112e-05 4.3448e-05 -2.65265e-05
-0.000145204 4.31091e-05 4.37551e-05 -2.65266e-05
-0.000433636 0.000129726 0.000130247 -2.21012e-05
-0.000288163 8.60355e-05 8.66263e-05 -2.48662e-05
-0.000144697 4.29601e-05 4.36016e-05 -2.65265e-05
-0.000290185 8.66359e-05 8.72352e-05 -2.48662e-05
-0.000289174 8.63357e-05 8.69307e-05 -2.48662e-05
-0.000432122 0.000129274 0.000129792 -2.21012e-05
-0.000429095 0.000128371 0.000128881 -2.21012e-05
-0.000143176 4.25132e-05 4.3141e-05 -2.65265e-05
-0.00014419 4.28112e-05 4.3448e-05 -2.65265e-05
-0.000430609 0.000128823 0.000129337 -2.21012e-05
-0.000286142 8.54351e-05 8.60174e-05 -2.48662e-05
-0.000143683 4.26622e-05 4.32945e-05 -2.65265e-05
-0.000288163 8.60355e-05 8.66263e-05 -2.48662e-05
-0.000287153 8.57353e-05 8.63218e-05 -2.48662e-05
-0.000429095 0.000128371 0.000128881 -2.21012e-05
-0.000426067 0.000127468 0.000127971 -2.21012e-05
-0.000142161 4.22153e-05 4.2834e-05 -2.65265e-05
-0.000143176 4.25132e-05 4.3141e-05 -2.65265e-05
-0.000427581 0.00012792 0.000128426 -2.21012e-05
-0.000284121 8.48347e-05 8.54085e-05 -2.48662e-05
-0.000142668 4.23643e-05 4.29875e-05 -2.65265e-05
-0.000286142 8.54351e-05 8.60174e-05 -2.48662e-05
-0.000285132 8.51349e-05 8.57129e-05 -2.48662e-05
-0.000426067 0.000127468 0.000127971 -2.21012e-05
-0.000423039 0.000126565 0.00012706 -2.21012e-05
-0.000141147 4.19173e-05 4.2527e-05 -2.65264e-05
-0.000142161 4.22153e-05 4.2834e-05 -2.65265e-05
-0.000424553 0.000127017 0.000127516 -2.21012e-05
-0.0002821 8.42342e-05 8.47997e-05 -2.48662e-05
-0.000141654 4.20663e-05 4.26805e-05 -2.65264e-05
-0.000284121 8.48347e-05 8.54085e-05 -2.48662e-05
-0.000283111 8.45345e-05 8.51041e-05 -2.48662e-05
-0.000423039 0.000126565 0.00012706 -2.21012e-05
-0.000420012 0.000125662 0.00012615 -2.21012e-05
-0.000140133 4.16193e-05 4.22201e-05 -2.65264e-05
-0.000141147 4.19173e-05 4.2527e-05 -2.65264e-05
-0.000421526 0.000126114 0.000126605 -2.21012e-05
-0.000280079 8.36338e-05 8.41909e-05 -2.48662e-05
-0.00014064 4.17683e-05 4.23735e-05 -2.65264e-05
-0.0002821 8.42342e-05 8.47997e-05 -2.48662e-05
-0.00028109 8.3934e-05 8.44953e-05 -2.48662e-05
-0.000420012 0.000125662 0.00012615 -2.21012e-05
-0.000416984 0.000124759 0.000125239 -2.21012e-05
-0.000139119 4.13212e-05 4.19131e-05 -2.65264e-05
-0.000140133 4.16193e-05 4.22201e-05 -2.65264e-05
-0.000418498 0.00012521 0.000125695 -2.21012e-05
-0.000278058 8.30333e-05 8.35821e-05 -2.48662e-05
-0.000139626 4.14702e-05 4.20666e-05 -2.65264e-05
-0.000280079 8.36338e-05 8.41909e-05 -2.48662e-05
-0.000279069 8.33335e-05 8.38865e-05 -2.48662e-05
-0.000416984 0.000124759 0.000125239 -2.21012e-05
-0.000413957 0.000123856 0.000124329 -2.21012e-05
-0.000138104 4.10231e-05 4.16063e-05 -2.65263e-05
-0.000139119 4.13212e-05 4.19131e-05 -2.65264e-05
-0.00041547 0.000124307 0.000124784 -2.21012e-05
-0.000276037 8.24327e-05 8.29734e-05 -2.48661e-05
-0.000138611 4.11722e-05 4.17597e-05 -2.65263e-05
-0.000278058 8.30333e-05 8.35821e-05 -2.48662e-05
-0.000277048 8.2733e-05 8.32777e-05 -2.48661e-05
-0.000413957 0.000123856 0.000124329 -2.21012e-05
-0.000410929 0.000122952 0.000123419 -2.21012e-05
-0.00013709 4.0725e-05 4.12994e-05 -2.65263e-05
-0.000138104 4.10231e-05 4.16063e-05 -2.65263e-05
-0.000412443 0.000123404 0.000123874 -2.21012e-05
-0.000274016 8.18322e-05 8.23647e-05 -2.48661e-05
-0.000137597 4.08741e-05 4.14528e-05 -2.65263e-05
-0.000276037 8.24327e-05 8.29734e-05 -2.48661e-05
-0.000275027 8.21325e-05 8.2669e-05 -2.48661e-05
-0.000410929 0.000122952 0.000123419 -2.21012e-05
-0.000407902 0.000122049 0.000122508 -2.21012e-05
-0.000136076 4.04269e-05 4.09926e-05 -2.65263e-05
-0.00013709 4.0725e-05 4.12994e-05 -2.65263e-05
-0.000409416 0.000122501 0.000122963 -2.21012e-05
-0.000271996 8.12316e-05 8.1756e-05 -2.48661e-05
-0.000136583 4.0576e-05 4.1146e-05 -2.65263e-05
-0.000274016 8.18322e-05 8.23647e-05 -2.48661e-05
-0.000273006 8.15319e-05 8.20603e-05 -2.48661e-05
-0.000407902 0.000122049 0.000122508 -2.21012e-05
-0.000404874 0.000121146 0.000121598 -2.21012e-05
-0.000135062 4.01287e-05 4.06859e-05 -2.65262e-05
-0.000136076 4.04269e-05 4.09926e-05 -2.65263e-05
-0.000406388 0.000121598 0.000122053 -2.21012e-05
-0.000269975 8.0631e-05 8.11473e-05 -2.48661e-05
-0.000135569 4.02778e-05 4.08392e-05 -2.65262e-05
-0.000271996 8.12316e-05 8.1756e-05 -2.48661e-05
-0.000270985 8.09313e-05 8.14517e-05 -2.48661e-05
-0.000404874 0.000121146 0.000121598 -2.21012e-05
-0.000401847 0.000120243 0.000120688 -2.21012e-05
-0.000134048 3.98305e-05 4.03791e-05 -2.65262e-05
-0.000135062 4.01287e-05 4.06859e-05 -2.65262e-05
-0.000403361 0.000120694 0.000121143 -2.21012e-05
-0.000267954 8.00304e-05 8.05387e-05 -2.48661e-05
-0.000134555 3.99796e-05 4.05325e-05 -2.65262e-05
-0.000269975 8.0631e-05 8.11473e-05 -2.48661e-05
-0.000268964 8.03307e-05 8.0843e-05 -2.48661e-05
-0.000401847 0.000120243 0.000120688 -2.21012e-05
-0.00039882 0.00011934 0.000119777 -2.21012e-05
-0.000133035 3.95323e-05 4.00724e-05 -2.65261e-05
-0.000134048 3.98305e-05 4.03791e-05 -2.65262e-05
-0.000400334 0.000119791 0.000120232 -2.21012e-05
-0.000265933 7.94297e-05 7.99302e-05 -2.48661e-05
-0.000133542 3.96814e-05 4.02258e-05 -2.65262e-05
-0.000267954 8.00304e-05 8.05387e-05 -2.48661e-05
-0.000266944 7.97301e-05 8.02345e-05 -2.48661e-05
-0.00039882 0.00011934 0.000119777 -2.21012e-05
-0.000395793 0.000118436 0.000118867 -2.21012e-05
-0.000132021 3.92341e-05 3.97657e-05 -2.65261e-05
-0.000133035 3.95323e-05 4.00724e-05 -2.65261e-05
-0.000397306 0.000118888 0.000119322 -2.21012e-05
-0.000263913 7.88291e-05 7.93216e-05 -2.4866e-05
-0.000132528 3.93832e-05 3.99191e-05 -2.65261e-05
-0.000265933 7.94297e-05 7.99302e-05 -2.48661e-05
-0.000264923 7.91294e-05 7.96259e-05 -2.4866e-05
-0.000395793 0.000118436 0.000118867 -2.21012e-05
-0.000392766 0.000117533 0.000117957 -2.21012e-05
-0.000131007 3.89358e-05 3.94591e-05 -2.65261e-05
-0.000132021 3.92341e-05 3.97657e-05 -2.65261e-05
-0.000394279 0.000117985 0.000118412 -2.21012e-05
-0.000261892 7.82284e-05 7.87131e-05 -2.4866e-05
-0.000131514 3.90849e-05 3.96124e-05 -2.65261e-05
-0.000263913 7.88291e-05 7.93216e-05 -2.4866e-05
-0.000262903 7.85287e-05 7.90174e-05 -2.4866e-05
-0.000392766 0.000117533 0.000117957 -2.21012e-05
-0.000389738 0.00011663 0.000117047 -2.21012e-05
-0.000129993 3.86375e-05 3.91525e-05 -2.6526e-05
-0.000131007 3.89358e-05 3.94591e-05 -2.65261e-05
-0.000391252 0.000117081 0.000117502 -2.21012e-05
-0.000259872 7.76276e-05 7.81047e-05 -2.4866e-05
-0.0001305 3.87867e-05 3.93058e-05 -2.65261e-05
-0.000261892 7.82284e-05 7.87131e-05 -2.4866e-05
-0.000260882 7.7928e-05 7.84089e-05 -2.4866e-05
-0.000389738 0.00011663 0.000117047 -2.21012e-05
-0.000386711 0.000115726 0.000116137 -2.21012e-05
-0.00012898 3.83392e-05 3.88459e-05 -2.6526e-05
-0.000129993 3.86375e-05 3.91525e-05 -2.6526e-05
-0.000388225 0.000116178 0.000116592 -2.21012e-05
-0.000257851 7.70269e-05 7.74962e-05 -2.4866e-05
-0.000129487 3.84883e-05 3.89992e-05 -2.6526e-05
-0.000259872 7.76276e-05 7.81047e-05 -2.4866e-05
-0.000258862 7.73273e-05 7.78004e-05 -2.4866e-05
-0.000386711 0.000115726 0.000116137 -2.21012e-05
-0.000383684 0.000114823 0.000115226 -2.21012e-05
-0.000127966 3.80408e-05 3.85394e-05 -2.6526e-05
-0.00012898 3.83392e-05 3.88459e-05 -2.6526e-05
-0.000385198 0.000115275 0.000115681 -2.21012e-05
-0.000255831 7.64261e-05 7.68878e-05 -2.4866e-05
-0.000128473 3.819e-05 3.86927e-05 -2.6526e-05
-0.000257851 7.70269e-05 7.74962e-05 -2.4866e-05
-0.000256841 7.67265e-05 7.7192e-05 -2.4866e-05
-0.000383684 0.000114823 0.000115226 -2.21012e-05
-0.000380657 0.000113919 0.000114316 -2.21012e-05
-0.000126953 3.77424e-05 3.82329e-05 -2.65259e-05
-0.000127966 3.80408e-05 3.85394e-05 -2.6526e-05
-0.000382171 0.000114371 0.000114771 -2.21012e-05
-0.000253811 7.58253e-05 7.62794e-05 -2.48659e-05
-0.000127459 3.78916e-05 3.83862e-05 -2.65259e-05
-0.000255831 7.64261e-05 7.68878e-05 -2.4866e-05
-0.000254821 7.61257e-05 7.65836e-05 -2.4866e-05
-0.000380657 0.000113919 0.000114316 -2.21012e-05
-0.000377631 0.000113016 0.000113406 -2.21012e-05
-0.000125939 3.7444e-05 3.79265e-05 -2.65259e-05
-0.000126953 3.77424e-05 3.82329e-05 -2.65259e-05
-0.000379144 0.000113468 0.000113861 -2.21012e-05
-0.00025179 7.52245e-05 7.56711e-05 -2.48659e-05
-0.000126446 3.75932e-05 3.80797e-05 -2.65259e-05
-0.000253811 7.58253e-05 7.62794e-05 -2.48659e-05
-0.000252801 7.55249e-05 7.59753e-05 -2.48659e-05
-0.000377631 0.000113016 0.000113406 -2.21012e-05
-0.000374604 0.000112113 0.000112496 -2.21012e-05
-0.000124926 3.71456e-05 3.762e-05 -2.65258e-05
-0.000125939 3.7444e-05 3.79265e-05 -2.65259e-05
-0.000376117 0.000112564 0.000112951 -2.21012e-05
-0.00024977 7.46236e-05 7.50628e-05 -2.48659e-05
-0.000125432 3.72948e-05 3.77732e-05 -2.65259e-05
-0.00025179 7.52245e-05 7.56711e-05 -2.48659e-05
-0.00025078 7.49241e-05 7.5367e-05 -2.48659e-05
-0.000374604 0.000112113 0.000112496 -2.21012e-05
-0.000371577 0.000111209 0.000111586 -2.21012e-05
-0.000123912 3.68471e-05 3.73136e-05 -2.65258e-05
-0.000124926 3.71456e-05 3.762e-05 -2.65258e-05
-0.00037309 0.000111661 0.000112041 -2.21012e-05
-0.00024775 7.40228e-05 7.44545e-05 -2.48659e-05
-0.000124419 3.69963e-05 3.74668e-05 -2.65258e-05
-0.00024977 7.46236e-05 7.50628e-05 -2.48659e-05
-0.00024876 7.43232e-05 7.47587e-05 -2.48659e-05
-0.000371577 0.000111209 0.000111586 -2.21012e-05
-0.00036855 0.000110306 0.000110676 -2.21012e-05
-0.000122899 3.65486e-05 3.70073e-05 -2.65258e-05
-0.000123912 3.68471e-05 3.73136e-05 -2.65258e-05
-0.000370064 0.000110757 0.000111131 -2.21012e-05
-0.00024573 7.34219e-05 7.38463e-05 -2.48659e-05
-0.000123406 3.66978e-05 3.71605e-05 -2.65258e-05
-0.00024775 7.40228e-05 7.44545e-05 -2.48659e-05
-0.00024674 7.37223e-05 7.41504e-05 -2.48659e-05
-0.00036855 0.000110306 0.000110676 -2.21012e-05
-0.000365524 0.000109402 0.000109766 -2.21012e-05
-0.000121886 3.62501e-05 3.6701e-05 -2.65257e-05
-0.000122899 3.65486e-05 3.70073e-05 -2.65258e-05
-0.000367037 0.000109854 0.000110221 -2.21012e-05
-0.00024371 7.28209e-05 7.32381e-05 -2.48659e-05
-0.000122392 3.63993e-05 3.68541e-05 -2.65258e-05
-0.00024573 7.34219e-05 7.38463e-05 -2.48659e-05
-0.00024472 7.31214e-05 7.35422e-05 -2.48659e-05
-0.000365524 0.000109402 0.000109766 -2.21012e-05
-0.000362497 0.000108499 0.000108856 -2.21012e-05
-0.000120872 3.59515e-05 3.63947e-05 -2.65257e-05
-0.000121886 3.62501e-05 3.6701e-05 -2.65257e-05
-0.00036401 0.00010895 0.000109311 -2.21012e-05
-0.00024169 7.222e-05 7.26299e-05 -2.48658e-05
-0.000121379 3.61008e-05 3.65478e-05 -2.65257e-05
-0.00024371 7.28209e-05 7.32381e-05 -2.48659e-05
-0.0002427 7.25205e-05 7.2934e-05 -2.48658e-05
-0.000362497 0.000108499 0.000108856 -2.21012e-05
-0.00035947 0.000107595 0.000107947 -2.21012e-05
-0.000119859 3.56529e-05 3.60884e-05 -2.65257e-05
-0.000120872 3.59515e-05 3.63947e-05 -2.65257e-05
-0.000360984 0.000108047 0.000108401 -2.21012e-05
-0.00023967 7.1619e-05 7.20218e-05 -2.48658e-05
-0.000120366 3.58022e-05 3.62415e-05 -2.65257e-05
-0.00024169 7.222e-05 7.26299e-05 -2.48658e-05
-0.00024068 7.19195e-05 7.23259e-05 -2.48658e-05
-0.00035947 0.000107595 0.000107947 -2.21012e-05
-0.000356444 0.000106692 0.000107037 -2.21012e-05
-0.000118846 3.53543e-05 3.57822e-05 -2.65256e-05
-0.000119859 3.56529e-05 3.60884e-05 -2.65257e-05
-0.000357957 0.000107143 0.000107492 -2.21012e-05
-0.00023765 7.1018e-05 7.14137e-05 -2.48658e-05
-0.000119353 3.55036e-05 3.59353e-05 -2.65256e-05
-0.00023967 7.1619e-05 7.20218e-05 -2.48658e-05
-0.00023866 7.13185e-05 7.17177e-05 -2.48658e-05
-0.000356444 0.000106692 0.000107037 -2.21012e-05
-0.000353417 0.000105788 0.000106127 -2.21012e-05
-0.000117833 3.50557e-05 3.5476e-05 -2.65256e-05
-0.000118846 3.53543e-05 3.57822e-05 -2.65256e-05
-0.000354931 0.00010624 0.000106582 -2.21012e-05
-0.00023563 7.0417e-05 7.08056e-05 -2.48658e-05
-0.00011834 3.5205e-05 3.56291e-05 -2.65256e-05
-0.00023765 7.1018e-05 7.14137e-05 -2.48658e-05
-0.00023664 7.07175e-05 7.11096e-05 -2.48658e-05
-0.000353417 0.000105788 0.000106127 -2.21012e-05
-0.000350391 0.000104884 0.000105217 -2.21012e-05
-0.00011682 3.4757e-05 3.51699e-05 -2.65255e-05
-0.000117833 3.50557e-05 3.5476e-05 -2.65256e-05
-0.000351904 0.000105336 0.000105672 -2.21012e-05
-0.00023361 6.98159e-05 7.01976e-05 -2.48658e-05
-0.000117327 3.49063e-05 3.53229e-05 -2.65256e-05
-0.00023563 7.0417e-05 7.08056e-05 -2.48658e-05
-0.00023462 7.01164e-05 7.05016e-05 -2.48658e-05
-0.000350391 0.000104884 0.000105217 -2.21012e-05
-0.000347364 0.000103981 0.000104307 -2.21012e-05
-0.000115807 3.44583e-05 3.48638e-05 -2.65255e-05
-0.00011682 3.4757e-05 3.51699e-05 -2.65255e-05
-0.000348878 0.000104433 0.000104762 -2.21012e-05
-0.000231591 6.92148e-05 6.95896e-05 -2.48657e-05
-0.000116314 3.46077e-05 3.50168e-05 -2.65255e-05
-0.00023361 6.98159e-05 7.01976e-05 -2.48658e-05
-0.0002326 6.95154e-05 6.98936e-05 -2.48657e-05
-0.000347364 0.000103981 0.000104307 -2.21012e-05
-0.000344338 0.000103077 0.000103398 -2.21012e-05
-0.000114794 3.41596e-05 3.45577e-05 -2.65255e-05
-0.000115807 3.44583e-05 3.48638e-05 -2.65255e-05
-0.000345851 0.000103529 0.000103852 -2.21012e-05
-0.000229571 6.86137e-05 6.89816e-05 -2.48657e-05
-0.000115301 3.43089e-05 3.47107e-05 -2.65255e-05
-0.000231591 6.92148e-05 6.95896e-05 -2.48657e-05
-0.000230581 6.89143e-05 6.92856e-05 -2.48657e-05
-0.000344338 0.000103077 0.000103398 -2.21012e-05
-0.000341312 0.000102173 0.000102488 -2.21012e-05
-0.000113781 3.38608e-05 3.42516e-05 -2.65254e-05
-0.000114794 3.41596e-05 3.45577e-05 -2.65255e-05
-0.000342825 0.000102625 0.000102943 -2.21012e-05
-0.000227551 6.80126e-05 6.83737e-05 -2.48657e-05
-0.000114288 3.40102e-05 3.44047e-05 -2.65254e-05
-0.000229571 6.86137e-05 6.89816e-05 -2.48657e-05
-0.000228561 6.83131e-05 6.86776e-05 -2.48657e-05
-0.000341312 0.000102173 0.000102488 -2.21012e-05
-0.000338286 0.00010127 0.000101578 -2.21012e-05
-0.000112769 3.3562e-05 3.39456e-05 -2.65254e-05
-0.000113781 3.38608e-05 3.42516e-05 -2.65254e-05
-0.000339799 0.000101722 0.000102033 -2.21012e-05
-0.000225532 6.74114e-05 6.77658e-05 -2.48657e-05
-0.000113275 3.37114e-05 3.40986e-05 -2.65254e-05
-0.000227551 6.80126e-05 6.83737e-05 -2.48657e-05
-0.000226541 6.7712e-05 6.80697e-05 -2.48657e-05
-0.000338286 0.00010127 0.000101578 -2.21012e-05
-0.000335259 0.000100366 0.000100669 -2.21012e-05
-0.000111756 3.32632e-05 3.36397e-05 -2.65253e-05
-0.000112769 3.3562e-05 3.39456e-05 -2.65254e-05
-0.000336773 0.000100818 0.000101123 -2.21012e-05
-0.000223512 6.68102e-05 6.71579e-05 -2.48657e-05
-0.000112262 3.34126e-05 3.37926e-05 -2.65254e-05
-0.000225532 6.74114e-05 6.77658e-05 -2.48657e-05
-0.000224522 6.71108e-05 6.74618e-05 -2.48657e-05
-0.000335259 0.000100366 0.000100669 -2.21012e-05
-0.000332233 9.94622e-05 9.97591e-05 -2.21012e-05
-0.000110743 3.29644e-05 3.33337e-05 -2.65253e-05
-0.000111756 3.32632e-05 3.36397e-05 -2.65253e-05
-0.000333746 9.99141e-05 0.000100214 -2.21012e-05
-0.000221493 6.6209e-05 6.65501e-05 -2.48656e-05
-0.000111249 3.31138e-05 3.34867e-05 -2.65253e-05
-0.000223512 6.68102e-05 6.71579e-05 -2.48657e-05
-0.000222502 6.65096e-05 6.6854e-05 -2.48657e-05
-0.000332233 9.94622e-05 9.97591e-05 -2.21012e-05
-0.000329207 9.85584e-05 9.88495e-05 -2.21012e-05
-0.00010973 3.26655e-05 3.30278e-05 -2.65253e-05
-0.000110743 3.29644e-05 3.33337e-05 -2.65253e-05
-0.00033072 9.90103e-05 9.93043e-05 -2.21012e-05
-0.000219473 6.56078e-05 6.59423e-05 -2.48656e-05
-0.000110237 3.2815e-05 3.31808e-05 -2.65253e-05
-0.000221493 6.6209e-05 6.65501e-05 -2.48656e-05
-0.000220483 6.59084e-05 6.62462e-05 -2.48656e-05
-0.000329207 9.85584e-05 9.88495e-05 -2.21012e-05
-0.000326181 9.76547e-05 9.794e-05 -2.21012e-05
-0.000108718 3.23666e-05 3.27219e-05 -2.65252e-05
-0.00010973 3.26655e-05 3.30278e-05 -2.65253e-05
-0.000327694 9.81066e-05 9.83947e-05 -2.21012e-05
-0.000217454 6.50065e-05 6.53345e-05 -2.48656e-05
-0.000109224 3.25161e-05 3.28749e-05 -2.65253e-05
-0.000219473 6.56078e-05 6.59423e-05 -2.48656e-05
-0.000218463 6.53071e-05 6.56384e-05 -2.48656e-05
-0.000326181 9.76547e-05 9.794e-05 -2.21012e-05
-0.000323155 9.67509e-05 9.70305e-05 -2.21012e-05
-0.000107705 3.20677e-05 3.24161e-05 -2.65252e-05
-0.000108718 3.23666e-05 3.27219e-05 -2.65252e-05
-0.000324668 9.72028e-05 9.74852e-05 -2.21012e-05
-0.000215434 6.44052e-05 6.47268e-05 -2.48656e-05
-0.000108212 3.22172e-05 3.2569e-05 -2.65252e-05
-0.000217454 6.50065e-05 6.53345e-05 -2.48656e-05
-0.000216444 6.47059e-05 6.50306e-05 -2.48656e-05
-0.000323155 9.67509e-05 9.70305e-05 -2.21012e-05
-0.000320129 9.5847e-05 9.6121e-05 -2.21012e-05
-0.000106693 3.17687e-05 3.21103e-05 -2.65252e-05
-0.000107705 3.20677e-05 3.24161e-05 -2.65252e-05
-0.000321642 9.6299e-05 9.65757e-05 -2.21012e-05
-0.000213415 6.38039e-05 6.41191e-05 -2.48656e-05
-0.000107199 3.19182e-05 3.22632e-05 -2.65252e-05
-0.000215434 6.44052e-05 6.47268e-05 -2.48656e-05
-0.000214425 6.41046e-05 6.44229e-05 -2.48656e-05
-0.000320129 9.5847e-05 9.6121e-05 -2.21012e-05
-0.000317104 9.49432e-05 9.52116e-05 -2.21011e-05
-0.00010568 3.14698e-05 3.18045e-05 -2.65251e-05
-0.000106693 3.17687e-05 3.21103e-05 -2.65252e-05
-0.000318616 9.53951e-05 9.56663e-05 -2.21011e-05
-0.000211396 6.32026e-05 6.35114e-05 -2.48655e-05
-0.000106187 3.16192e-05 3.19574e-05 -2.65251e-05
-0.000213415 6.38039e-05 6.41191e-05 -2.48656e-05
-0.000212405 6.35032e-05 6.38152e-05 -2.48656e-05
-0.000317104 9.49432e-05 9.52116e-05 -2.21011e-05
-0.000314078 9.40393e-05 9.43022e-05 -2.21011e-05
-0.000104668 3.11707e-05 3.14988e-05 -2.65251e-05
-0.00010568 3.14698e-05 3.18045e-05 -2.65251e-05
-0.000315591 9.44913e-05 9.47569e-05 -2.21011e-05
-0.000209377 6.26012e-05 6.29038e-05 -2.48655e-05
-0.000105174 3.13202e-05 3.16517e-05 -2.65251e-05
-0.000211396 6.32026e-05 6.35114e-05 -2.48655e-05
-0.000210386 6.29019e-05 6.32076e-05 -2.48655e-05
-0.000314078 9.40393e-05 9.43022e-05 -2.21011e-05
-0.000311052 9.31354e-05 9.33928e-05 -2.21011e-05
-0.000103656 3.08717e-05 3.11931e-05 -2.6525e-05
-0.000104668 3.11707e-05 3.14988e-05 -2.65251e-05
-0.000312565 9.35874e-05 9.38475e-05 -2.21011e-05
-0.000207358 6.19998e-05 6.22962e-05 -2.48655e-05
-0.000104162 3.10212e-05 3.1346e-05 -2.65251e-05
-0.000209377 6.26012e-05 6.29038e-05 -2.48655e-05
-0.000208367 6.23005e-05 6.26e-05 -2.48655e-05
-0.000311052 9.31354e-05 9.33928e-05 -2.21011e-05
-0.000308026 9.22315e-05 9.24834e-05 -2.21011e-05
-0.000102643 3.05726e-05 3.08875e-05 -2.6525e-05
-0.000103656 3.08717e-05 3.11931e-05 -2.6525e-05
-0.000309539 9.26835e-05 9.29381e-05 -2.21011e-05
-0.000205339 6.13984e-05 6.16886e-05 -2.48655e-05
-0.000103149 3.07222e-05 3.10403e-05 -2.6525e-05
-0.000207358 6.19998e-05 6.22962e-05 -2.48655e-05
-0.000206348 6.16991e-05 6.19924e-05 -2.48655e-05
-0.000308026 9.22315e-05 9.24834e-05 -2.21011e-05
-0.000305001 9.13276e-05 9.15741e-05 -2.21011e-05
-0.000101631 3.02735e-05 3.05818e-05 -2.6525e-05
-0.000102643 3.05726e-05 3.08875e-05 -2.6525e-05
-0.000306513 9.17796e-05 9.20288e-05 -2.21011e-05
-0.00020332 6.0797e-05 6.10811e-05 -2.48655e-05
-0.000102137 3.04231e-05 3.07346e-05 -2.6525e-05
-0.000205339 6.13984e-05 6.16886e-05 -2.48655e-05
-0.000204329 6.10977e-05 6.13849e-05 -2.48655e-05
-0.000305001 9.13276e-05 9.15741e-05 -2.21011e-05
-0.000301975 9.04236e-05 9.06649e-05 -2.21011e-05
-0.000100619 2.99744e-05 3.02762e-05 -2.65249e-05
-0.000101631 3.02735e-05 3.05818e-05 -2.6525e-05
-0.000303488 9.08756e-05 9.11195e-05 -2.21011e-05
-0.000201301 6.01955e-05 6.04736e-05 -2.48655e-05
-0.000101125 3.0124e-05 3.0429e-05 -2.6525e-05
-0.00020332 6.0797e-05 6.10811e-05 -2.48655e-05
-0.00020231 6.04962e-05 6.07773e-05 -2.48655e-05
-0.000301975 9.04236e-05 9.06649e-05 -2.21011e-05
-0.000298949 8.95197e-05 8.97556e-05 -2.21011e-05
-9.96069e-05 2.96752e-05 2.99707e-05 -2.65249e-05
-0.000100619 2.99744e-05 3.02762e-05 -2.65249e-05
-0.000300462 8.99716e-05 9.02102e-05 -2.21011e-05
-0.000199282 5.9594e-05 5.98661e-05 -2.48654e-05
-0.000100113 2.98248e-05 3.01235e-05 -2.65249e-05
-0.000201301 6.01955e-05 6.04736e-05 -2.48655e-05
-0.000200291 5.98947e-05 6.01699e-05 -2.48654e-05
-0.000298949 8.95197e-05 8.97556e-05 -2.21011e-05
-0.000295924 8.86157e-05 8.88464e-05 -2.21011e-05
-9.85948e-05 2.93761e-05 2.96652e-05 -2.65249e-05
-9.96069e-05 2.96752e-05 2.99707e-05 -2.65249e-05
-0.000297437 8.90677e-05 8.9301e-05 -2.21011e-05
-0.000197263 5.89925e-05 5.92587e-05 -2.48654e-05
-9.91008e-05 2.95257e-05 2.98179e-05 -2.65249e-05
-0.000199282 5.9594e-05 5.98661e-05 -2.48654e-05
-0.000198272 5.92932e-05 5.95624e-05 -2.48654e-05
-0.000295924 8.86157e-05 8.88464e-05 -2.21011e-05
-0.000292898 8.77116e-05 8.79372e-05 -2.21011e-05
-9.75828e-05 2.90769e-05 2.93597e-05 -2.65248e-05
-9.85948e-05 2.93761e-05 2.96652e-05 -2.65249e-05
-0.000294411 8.81637e-05 8.83918e-05 -2.21011e-05
-0.000195244 5.83909e-05 5.86513e-05 -2.48654e-05
-9.80888e-05 2.92265e-05 2.95124e-05 -2.65248e-05
-0.000197263 5.89925e-05 5.92587e-05 -2.48654e-05
-0.000196253 5.86917e-05 5.8955e-05 -2.48654e-05
-0.000292898 8.77116e-05 8.79372e-05 -2.21011e-05
-0.000289873 8.68076e-05 8.70281e-05 -2.21011e-05
-9.65708e-05 2.87776e-05 2.90542e-05 -2.65248e-05
-9.75828e-05 2.90769e-05 2.93597e-05 -2.65248e-05
-0.000291386 8.72596e-05 8.74826e-05 -2.21011e-05
-0.000193225 5.77893e-05 5.8044e-05 -2.48654e-05
-9.70768e-05 2.89272e-05 2.9207e-05 -2.65248e-05
-0.000195244 5.83909e-05 5.86513e-05 -2.48654e-05
-0.000194235 5.80901e-05 5.83476e-05 -2.48654e-05
-0.000289873 8.68076e-05 8.70281e-05 -2.21011e-05
-0.000286848 8.59035e-05 8.61189e-05 -2.21011e-05
-9.55589e-05 2.84783e-05 2.87488e-05 -2.65247e-05
-9.65708e-05 2.87776e-05 2.90542e-05 -2.65248e-05
-0.00028836 8.63556e-05 8.65735e-05 -2.21011e-05
-0.000191207 5.71877e-05 5.74366e-05 -2.48654e-05
-9.60649e-05 2.8628e-05 2.89015e-05 -2.65248e-05
-0.000193225 5.77893e-05 5.8044e-05 -2.48654e-05
-0.000192216 5.74885e-05 5.77403e-05 -2.48654e-05
-0.000286848 8.59035e-05 8.61189e-05 -2.21011e-05
-0.000283822 8.49994e-05 8.52098e-05 -2.21011e-05
-9.45471e-05 2.8179e-05 2.84434e-05 -2.65247e-05
-9.55589e-05 2.84783e-05 2.87488e-05 -2.65247e-05
-0.000285335 8.54515e-05 8.56644e-05 -2.21011e-05
-0.000189188 5.65861e-05 5.68293e-05 -2.48653e-05
-9.5053e-05 2.83287e-05 2.85961e-05 -2.65247e-05
-0.000191207 5.71877e-05 5.74366e-05 -2.48654e-05
-0.000190197 5.68869e-05 5.7133e-05 -2.48654e-05
-0.000283822 8.49994e-05 8.52098e-05 -2.21011e-05
-0.000280797 8.40953e-05 8.43008e-05 -2.21011e-05
-9.35353e-05 2.78797e-05 2.81381e-05 -2.65247e-05
-9.45471e-05 2.8179e-05 2.84434e-05 -2.65247e-05
-0.00028231 8.45474e-05 8.47553e-05 -2.21011e-05
-0.000187169 5.59845e-05 5.62221e-05 -2.48653e-05
-9.40412e-05 2.80294e-05 2.82908e-05 -2.65247e-05
-0.000189188 5.65861e-05 5.68293e-05 -2.48653e-05
-0.000188179 5.62853e-05 5.65257e-05 -2.48653e-05
-0.000280797 8.40953e-05 8.43008e-05 -2.21011e-05
-0.000277772 8.31912e-05 8.33917e-05 -2.21011e-05
-9.25235e-05 2.75804e-05 2.78328e-05 -2.65246e-05
-9.35353e-05 2.78797e-05 2.81381e-05 -2.65247e-05
-0.000279285 8.36433e-05 8.38463e-05 -2.21011e-05
-0.000185151 5.53828e-05 5.56148e-05 -2.48653e-05
-9.30294e-05 2.773e-05 2.79854e-05 -2.65247e-05
-0.000187169 5.59845e-05 5.62221e-05 -2.48653e-05
-0.00018616 5.56836e-05 5.59185e-05 -2.48653e-05
-0.000277772 8.31912e-05 8.33917e-05 -2.21011e-05
-0.000274747 8.22871e-05 8.24828e-05 -2.21011e-05
-9.15118e-05 2.7281e-05 2.75275e-05 -2.65246e-05
-9.25235e-05 2.75804e-05 2.78328e-05 -2.65246e-05
-0.000276259 8.27391e-05 8.29372e-05 -2.21011e-05
-0.000183132 5.47811e-05 5.50077e-05 -2.48653e-05
-9.20177e-05 2.74307e-05 2.76801e-05 -2.65246e-05
-0.000185151 5.53828e-05 5.56148e-05 -2.48653e-05
-0.000184142 5.50819e-05 5.53112e-05 -2.48653e-05
-0.000274747 8.22871e-05 8.24828e-05 -2.21011e-05
-0.000271722 8.13829e-05 8.15738e-05 -2.21011e-05
-9.05002e-05 2.69816e-05 2.72223e-05 -2.65246e-05
-9.15118e-05 2.7281e-05 2.75275e-05 -2.65246e-05
-0.000273234 8.1835e-05 8.20283e-05 -2.21011e-05
-0.000181114 5.41794e-05 5.44005e-05 -2.48653e-05
-9.1006e-05 2.71313e-05 2.73749e-05 -2.65246e-05
-0.000183132 5.47811e-05 5.50077e-05 -2.48653e-05
-0.000182123 5.44802e-05 5.47041e-05 -2.48653e-05
-0.000271722 8.13829e-05 8.15738e-05 -2.21011e-05
-0.000268697 8.04787e-05 8.06649e-05 -2.21011e-05
-8.94886e-05 2.66821e-05 2.69171e-05 -2.65245e-05
-9.05002e-05 2.69816e-05 2.72223e-05 -2.65246e-05
-0.000270209 8.09308e-05 8.11193e-05 -2.21011e-05
-0.000179095 5.35776e-05 5.37934e-05 -2.48653e-05
-8.99944e-05 2.68318e-05 2.70697e-05 -2.65246e-05
-0.000181114 5.41794e-05 5.44005e-05 -2.48653e-05
-0.000180105 5.38785e-05 5.40969e-05 -2.48653e-05
-0.000268697 8.04787e-05 8.06649e-05 -2.21011e-05
-0.000265672 7.95745e-05 7.9756e-05 -2.21011e-05
-8.84771e-05 2.63826e-05 2.66119e-05 -2.65245e-05
-8.94886e-05 2.66821e-05 2.69171e-05 -2.65245e-05
-0.000267184 8.00266e-05 8.02104e-05 -2.21011e-05
-0.000177077 5.29758e-05 5.31863e-05 -2.48653e-05
-8.89828e-05 2.65324e-05 2.67645e-05 -2.65245e-05
-0.000179095 5.35776e-05 5.37934e-05 -2.48653e-05
-0.000178086 5.32767e-05 5.34898e-05 -2.48653e-05
-0.000265672 7.95745e-05 7.9756e-05 -2.21011e-05
-0.000262647 7.86702e-05 7.88471e-05 -2.21011e-05
-8.74656e-05 2.60831e-05 2.63068e-05 -2.65245e-05
-8.84771e-05 2.63826e-05 2.66119e-05 -2.65245e-05
-0.000264159 7.91224e-05 7.93015e-05 -2.21011e-05
-0.000175059 5.2374e-05 5.25792e-05 -2.48652e-05
-8.79713e-05 2.62329e-05 2.64593e-05 -2.65245e-05
-0.000177077 5.29758e-05 5.31863e-05 -2.48653e-05
-0.000176068 5.26749e-05 5.28828e-05 -2.48652e-05
-0.000262647 7.86702e-05 7.88471e-05 -2.21011e-05
-0.000259622 7.7766e-05 7.79382e-05 -2.21011e-05
-8.64542e-05 2.57836e-05 2.60017e-05 -2.65244e-05
-8.74656e-05 2.60831e-05 2.63068e-05 -2.65245e-05
-0.000261134 7.82181e-05 7.83927e-05 -2.21011e-05
-0.000173041 5.17722e-05 5.19722e-05 -2.48652e-05
-8.69599e-05 2.59334e-05 2.61542e-05 -2.65245e-05
-0.000175059 5.2374e-05 5.25792e-05 -2.48652e-05
-0.00017405 5.20731e-05 5.22757e-05 -2.48652e-05
-0.000259622 7.7766e-05 7.79382e-05 -2.21011e-05
-0.000256597 7.68617e-05 7.70294e-05 -2.21011e-05
-8.54428e-05 2.54841e-05 2.56966e-05 -2.65244e-05
-8.64542e-05 2.57836e-05 2.60017e-05 -2.65244e-05
-0.000258109 7.73138e-05 7.74838e-05 -2.21011e-05
-0.000171022 5.11703e-05 5.13652e-05 -2.48652e-05
-8.59485e-05 2.56338e-05 2.58491e-05 -2.65244e-05
-0.000173041 5.17722e-05 5.19722e-05 -2.48652e-05
-0.000172032 5.14713e-05 5.16687e-05 -2.48652e-05
-0.000256597 7.68617e-05 7.70294e-05 -2.21011e-05
-0.000253572 7.59574e-05 7.61207e-05 -2.21011e-05
-8.44315e-05 2.51845e-05 2.53916e-05 -2.65244e-05
-8.54428e-05 2.54841e-05 2.56966e-05 -2.65244e-05
-0.000255085 7.64095e-05 7.6575e-05 -2.21011e-05
-0.000169004 5.05684e-05 5.07583e-05 -2.48652e-05
-8.49371e-05 2.53343e-05 2.55441e-05 -2.65244e-05
-0.000171022 5.11703e-05 5.13652e-05 -2.48652e-05
-0.000170013 5.08694e-05 5.10617e-05 -2.48652e-05
-0.000253572 7.59574e-05 7.61207e-05 -2.21011e-05
-0.000250548 7.50531e-05 7.52119e-05 -2.21011e-05
-8.34202e-05 2.48848e-05 2.50866e-05 -2.65243e-05
-8.44315e-05 2.51845e-05 2.53916e-05 -2.65244e-05
-0.00025206 7.55052e-05 7.56663e-05 -2.21011e-05
-0.000166986 4.99665e-05 5.01513e-05 -2.48652e-05
-8.39258e-05 2.50347e-05 2.52391e-05 -2.65244e-05
-0.000169004 5.05684e-05 5.07583e-05 -2.48652e-05
-0.000167995 5.02675e-05 5.04548e-05 -2.48652e-05
-0.000250548 7.50531e-05 7.52119e-05 -2.21011e-05
-0.000247523 7.41487e-05 7.43032e-05 -2.21012e-05
-8.2409e-05 2.45852e-05 2.47816e-05 -2.65243e-05
-8.34202e-05 2.48848e-05 2.50866e-05 -2.65243e-05
-0.000249035 7.46009e-05 7.47575e-05 -2.21011e-05
-0.000164968 4.93646e-05 4.95445e-05 -2.48652e-05
-8.29146e-05 2.4735e-05 2.49341e-05 -2.65243e-05
-0.000166986 4.99665e-05 5.01513e-05 -2.48652e-05
-0.000165977 4.96656e-05 4.98479e-05 -2.48652e-05
-0.000247523 7.41487e-05 7.43032e-05 -2.21012e-05
-0.000244498 7.32443e-05 7.33945e-05 -2.21012e-05
-8.13978e-05 2.42855e-05 2.44767e-05 -2.65243e-05
-8.2409e-05 2.45852e-05 2.47816e-05 -2.65243e-05
-0.000246011 7.36965e-05 7.38489e-05 -2.21012e-05
-0.00016295 4.87626e-05 4.89376e-05 -2.48652e-05
-8.19034e-05 2.44354e-05 2.46292e-05 -2.65243e-05
-0.000164968 4.93646e-05 4.95445e-05 -2.48652e-05
-0.000163959 4.90636e-05 4.9241e-05 -2.48652e-05
-0.000244498 7.32443e-05 7.33945e-05 -2.21012e-05
-0.000241474 7.23399e-05 7.24859e-05 -2.21012e-05
-8.03867e-05 2.39858e-05 2.41718e-05 -2.65242e-05
-8.13978e-05 2.42855e-05 2.44767e-05 -2.65243e-05
-0.000242986 7.27921e-05 7.29402e-05 -2.21012e-05
-0.000160932 4.81606e-05 4.83308e-05 -2.48651e-05
-8.08922e-05 2.41357e-05 2.43242e-05 -2.65243e-05
-0.00016295 4.87626e-05 4.89376e-05 -2.48652e-05
-0.000161941 4.84616e-05 4.86342e-05 -2.48651e-05
-0.000241474 7.23399e-05 7.24859e-05 -2.21012e-05
-0.000238449 7.14355e-05 7.15772e-05 -2.21012e-05
-7.93756e-05 2.36861e-05 2.3867e-05 -2.65242e-05
-8.03867e-05 2.39858e-05 2.41718e-05 -2.65242e-05
-0.000239961 7.18877e-05 7.20316e-05 -2.21012e-05
-0.000158915 4.75586e-05 4.7724e-05 -2.48651e-05
-7.98812e-05 2.3836e-05 2.40194e-05 -2.65242e-05
-0.000160932 4.81606e-05 4.83308e-05 -2.48651e-05
-0.000159924 4.78596e-05 4.80274e-05 -2.48651e-05
-0.000238449 7.14355e-05 7.15772e-05 -2.21012e-05
-0.000235425 7.05311e-05 7.06687e-05 -2.21012e-05
-7.83646e-05 2.33863e-05 2.35621e-05 -2.65242e-05
-7.93756e-05 2.36861e-05 2.3867e-05 -2.65242e-05
-0.000236937 7.09833e-05 7.11229e-05 -2.21012e-05
-0.000156897 4.69566e-05 4.71173e-05 -2.48651e-05
-7.88701e-05 2.35362e-05 2.37145e-05 -2.65242e-05
-0.000158915 4.75586e-05 4.7724e-05 -2.48651e-05
-0.000157906 4.72576e-05 4.74206e-05 -2.48651e-05
-0.000235425 7.05311e-05 7.06687e-05 -2.21012e-05
-0.0002324 6.96266e-05 6.97601e-05 -2.21012e-05
-7.73537e-05 2.30865e-05 2.32574e-05 -2.65241e-05
-7.83646e-05 2.33863e-05 2.35621e-05 -2.65242e-05
-0.000233912 7.00789e-05 7.02144e-05 -2.21012e-05
-0.000154879 4.63545e-05 4.65105e-05 -2.48651e-05
-7.78592e-05 2.32364e-05 2.34097e-05 -2.65242e-05
-0.000156897 4.69566e-05 4.71173e-05 -2.48651e-05
-0.000155888 4.66555e-05 4.68139e-05 -2.48651e-05
-0.0002324 6.96266e-05 6.97601e-05 -2.21012e-05
-0.000229376 6.87221e-05 6.88516e-05 -2.21012e-05
-7.63428e-05 2.27867e-05 2.29526e-05 -2.65241e-05
-7.73537e-05 2.30865e-05 2.32574e-05 -2.65241e-05
-0.000230888 6.91744e-05 6.93058e-05 -2.21012e-05
-0.000152861 4.57524e-05 4.59039e-05 -2.48651e-05
-7.68482e-05 2.29366e-05 2.3105e-05 -2.65241e-05
-0.000154879 4.63545e-05 4.65105e-05 -2.48651e-05
-0.00015387 4.60534e-05 4.62072e-05 -2.48651e-05
-0.000229376 6.87221e-05 6.88516e-05 -2.21012e-05
-0.000226351 6.78176e-05 6.79431e-05 -2.21012e-05
-7.53319e-05 2.24869e-05 2.26479e-05 -2.65241e-05
-7.63428e-05 2.27867e-05 2.29526e-05 -2.65241e-05
-0.000227864 6.82699e-05 6.83973e-05 -2.21012e-05
-0.000150844 4.51503e-05 4.52972e-05 -2.48651e-05
-7.58374e-05 2.26368e-05 2.28002e-05 -2.65241e-05
-0.000152861 4.57524e-05 4.59039e-05 -2.48651e-05
-0.000151853 4.54513e-05 4.56005e-05 -2.48651e-05
-0.000226351 6.78176e-05 6.79431e-05 -2.21012e-05
-0.000223327 6.69131e-05 6.70346e-05 -2.21012e-05
-7.43212e-05 2.2187e-05 2.23432e-05 -2.65241e-05
-7.53319e-05 2.24869e-05 2.26479e-05 -2.65241e-05
-0.000224839 6.73654e-05 6.74888e-05 -2.21012e-05
-0.000148826 4.45481e-05 4.46906e-05 -2.48651e-05
-7.48265e-05 2.23369e-05 2.24956e-05 -2.65241e-05
-0.000150844 4.51503e-05 4.52972e-05 -2.48651e-05
-0.000149835 4.48492e-05 4.49939e-05 -2.48651e-05
-0.000223327 6.69131e-05 6.70346e-05 -2.21012e-05
-0.000220303 6.60086e-05 6.61262e-05 -2.21012e-05
-7.33104e-05 2.18871e-05 2.20386e-05 -2.6524e-05
-7.43212e-05 2.2187e-05 2.23432e-05 -2.65241e-05
-0.000221815 6.64608e-05 6.65804e-05 -2.21012e-05
-0.000146809 4.39459e-05 4.4084e-05 -2.48651e-05
-7.38158e-05 2.2037e-05 2.21909e-05 -2.6524e-05
-0.000148826 4.45481e-05 4.46906e-05 -2.48651e-05
-0.000147817 4.4247e-05 4.43873e-05 -2.48651e-05
-0.000220303 6.60086e-05 6.61262e-05 -2.21012e-05
-0.000217279 6.5104e-05 6.52178e-05 -2.21012e-05
-7.22997e-05 2.15871e-05 2.1734e-05 -2.6524e-05
-7.33104e-05 2.18871e-05 2.20386e-05 -2.6524e-05
-0.000218791 6.55563e-05 6.5672e-05 -2.21012e-05
-0.000144791 4.33437e-05 4.34775e-05 -2.4865e-05
-7.28051e-05 2.17371e-05 2.18863e-05 -2.6524e-05
-0.000146809 4.39459e-05 4.4084e-05 -2.48651e-05
-0.0001458 4.36448e-05 4.37807e-05 -2.48651e-05
-0.000217279 6.5104e-05 6.52178e-05 -2.21012e-05
-0.000214255 6.41994e-05 6.43094e-05 -2.21012e-05
-7.12891e-05 2.12872e-05 2.14294e-05 -2.6524e-05
-7.22997e-05 2.15871e-05 2.1734e-05 -2.6524e-05
-0.000215767 6.46517e-05 6.47636e-05 -2.21012e-05
-0.000142774 4.27415e-05 4.2871e-05 -2.4865e-05
-7.17944e-05 2.14372e-05 2.15817e-05 -2.6524e-05
-0.000144791 4.33437e-05 4.34775e-05 -2.4865e-05
-0.000143782 4.30426e-05 4.31742e-05 -2.4865e-05
-0.000214255 6.41994e-05 6.43094e-05 -2.21012e-05
-0.000211231 6.32948e-05 6.34011e-05 -2.21012e-05
-7.02785e-05 2.09872e-05 2.11249e-05 -2.65239e-05
-7.12891e-05 2.12872e-05 2.14294e-05 -2.6524e-05
-0.000212743 6.37471e-05 6.38553e-05 -2.21012e-05
-0.000140756 4.21392e-05 4.22645e-05 -2.4865e-05
-7.07838e-05 2.11372e-05 2.12771e-05 -2.6524e-05
-0.000142774 4.27415e-05 4.2871e-05 -2.4865e-05
-0.000141765 4.24404e-05 4.25677e-05 -2.4865e-05
-0.000211231 6.32948e-05 6.34011e-05 -2.21012e-05
-0.000208207 6.23901e-05 6.24928e-05 -2.21012e-05
-6.9268e-05 2.06872e-05 2.08204e-05 -2.65239e-05
-7.02785e-05 2.09872e-05 2.11249e-05 -2.65239e-05
-0.000209719 6.28425e-05 6.29469e-05 -2.21012e-05
-0.000138739 4.1537e-05 4.1658e-05 -2.4865e-05
-6.97733e-05 2.08372e-05 2.09726e-05 -2.65239e-05
-0.000140756 4.21392e-05 4.22645e-05 -2.4865e-05
-0.000139748 4.18381e-05 4.19612e-05 -2.4865e-05
-0.000208207 6.23901e-05 6.24928e-05 -2.21012e-05
-0.000205183 6.14855e-05 6.15845e-05 -2.21012e-05
-6.82575e-05 2.03871e-05 2.05159e-05 -2.65239e-05
-6.9268e-05 2.06872e-05 2.08204e-05 -2.65239e-05
-0.000206695 6.19378e-05 6.20386e-05 -2.21012e-05
-0.000136722 4.09347e-05 4.10516e-05 -2.4865e-05
-6.87628e-05 2.05371e-05 2.06681e-05 -2.65239e-05
-0.000138739 4.1537e-05 4.1658e-05 -2.4865e-05
-0.00013773 4.12358e-05 4.13548e-05 -2.4865e-05
-0.000205183 6.14855e-05 6.15845e-05 -2.21012e-05
-0.000202159 6.05808e-05 6.06763e-05 -2.21012e-05
-6.72471e-05 2.0087e-05 2.02115e-05 -2.65239e-05
-6.82575e-05 2.03871e-05 2.05159e-05 -2.65239e-05
-0.000203671 6.10331e-05 6.11304e-05 -2.21012e-05
-0.000134705 4.03323e-05 4.04452e-05 -2.4865e-05
-6.77523e-05 2.02371e-05 2.03637e-05 -2.65239e-05
-0.000136722 4.09347e-05 4.10516e-05 -2.4865e-05
-0.000135713 4.06335e-05 4.07484e-05 -2.4865e-05
-0.000202159 6.05808e-05 6.06763e-05 -2.21012e-05
-0.000199135 5.96761e-05 5.97681e-05 -2.21012e-05
-6.62367e-05 1.97869e-05 1.99071e-05 -2.65238e-05
-6.72471e-05 2.0087e-05 2.02115e-05 -2.65239e-05
-0.000200647 6.01284e-05 6.02222e-05 -2.21012e-05
-0.000132687 3.973e-05 3.98389e-05 -2.4865e-05
-6.67419e-05 1.9937e-05 2.00593e-05 -2.65239e-05
-0.000134705 4.03323e-05 4.04452e-05 -2.4865e-05
-0.000133696 4.00311e-05 4.01421e-05 -2.4865e-05
-0.000199135 5.96761e-05 5.97681e-05 -2.21012e-05
-0.000196111 5.87713e-05 5.88599e-05 -2.21012e-05
-6.52264e-05 1.94868e-05 1.96027e-05 -2.65238e-05
-6.62367e-05 1.97869e-05 1.99071e-05 -2.65238e-05
-0.000197623 5.92237e-05 5.9314e-05 -2.21012e-05
-0.00013067 3.91276e-05 3.92326e-05 -2.4865e-05
-6.57316e-05 1.96368e-05 1.97549e-05 -2.65238e-05
-0.000132687 3.973e-05 3.98389e-05 -2.4865e-05
-0.000131679 3.94288e-05 3.95357e-05 -2.4865e-05
-0.000196111 5.87713e-05 5.88599e-05 -2.21012e-05
-0.000193087 5.78666e-05 5.79517e-05 -2.21013e-05
-6.42162e-05 1.91866e-05 1.92984e-05 -2.65238e-05
-6.52264e-05 1.94868e-05 1.96027e-05 -2.65238e-05
-0.000194599 5.8319e-05 5.84058e-05 -2.21013e-05
-0.000128653 3.85251e-05 3.86263e-05 -2.4865e-05
-6.47213e-05 1.93367e-05 1.94505e-05 -2.65238e-05
-0.00013067 3.91276e-05 3.92326e-05 -2.4865e-05
-0.000129662 3.88264e-05 3.89294e-05 -2.4865e-05
-0.000193087 5.78666e-05 5.79517e-05 -2.21013e-05
-0.000190064 5.69618e-05 5.70436e-05 -2.21013e-05
-6.3206e-05 1.88864e-05 1.89941e-05 -2.65238e-05
-6.42162e-05 1.91866e-05 1.92984e-05 -2.65238e-05
-0.000191575 5.74142e-05 5.74977e-05 -2.21013e-05
-0.000126636 3.79227e-05 3.80201e-05 -2.4865e-05
-6.37111e-05 1.90365e-05 1.91462e-05 -2.65238e-05
-0.000128653 3.85251e-05 3.86263e-05 -2.4865e-05
-0.000127645 3.82239e-05 3.83232e-05 -2.4865e-05
-0.000190064 5.69618e-05 5.70436e-05 -2.21013e-05
-0.00018704 5.6057e-05 5.61355e-05 -2.21013e-05
-6.21958e-05 1.85862e-05 1.86898e-05 -2.65237e-05
-6.3206e-05 1.88864e-05 1.89941e-05 -2.65238e-05
-0.000188552 5.65094e-05 5.65896e-05 -2.21013e-05
-0.000124619 3.73202e-05 3.74139e-05 -2.4865e-05
-6.27009e-05 1.87363e-05 1.8842e-05 -2.65238e-05
-0.000126636 3.79227e-05 3.80201e-05 -2.4865e-05
-0.000125628 3.76215e-05 3.7717e-05 -2.4865e-05
-0.00018704 5.6057e-05 5.61355e-05 -2.21013e-05
-0.000184016 5.51522e-05 5.52275e-05 -2.21013e-05
-6.11857e-05 1.82859e-05 1.83856e-05 -2.65237e-05
-6.21958e-05 1.85862e-05 1.86898e-05 -2.65237e-05
-0.000185528 5.56046e-05 5.56815e-05 -2.21013e-05
-0.000122602 3.67177e-05 3.68077e-05 -2.4865e-05
-6.16907e-05 1.8436e-05 1.85377e-05 -2.65237e-05
-0.000124619 3.73202e-05 3.74139e-05 -2.4865e-05
-0.000123611 3.7019e-05 3.71108e-05 -2.4865e-05
-0.000184016 5.51522e-05 5.52275e-05 -2.21013e-05
-0.000180993 5.42473e-05 5.43195e-05 -2.21013e-05
-6.01756e-05 1.79856e-05 1.80814e-05 -2.65237e-05
-6.11857e-05 1.82859e-05 1.83856e-05 -2.65237e-05
-0.000182505 5.46998e-05 5.47735e-05 -2.21013e-05
-0.000120585 3.61152e-05 3.62016e-05 -2.4865e-05
-6.06807e-05 1.81358e-05 1.82335e-05 -2.65237e-05
-0.000122602 3.67177e-05 3.68077e-05 -2.4865e-05
-0.000121594 3.64165e-05 3.65046e-05 -2.4865e-05
-0.000180993 5.42473e-05 5.43195e-05 -2.21013e-05
-0.000177969 5.33425e-05 5.34115e-05 -2.21013e-05
-5.91657e-05 1.76853e-05 1.77773e-05 -2.65237e-05
-6.01756e-05 1.79856e-05 1.80814e-05 -2.65237e-05
-0.000179481 5.37949e-05 5.38655e-05 -2.21013e-05
-0.000118569 3.55127e-05 3.55954e-05 -2.4865e-05
-5.96706e-05 1.78355e-05 1.79294e-05 -2.65237e-05
-0.000120585 3.61152e-05 3.62016e-05 -2.4865e-05
-0.000119577 3.58139e-05 3.58985e-05 -2.4865e-05
-0.000177969 5.33425e-05 5.34115e-05 -2.21013e-05
-0.000174946 5.24376e-05 5.25035e-05 -2.21013e-05
-5.81557e-05 1.73849e-05 1.74732e-05 -2.65236e-05
-5.91657e-05 1.76853e-05 1.77773e-05 -2.65237e-05
-0.000176457 5.289e-05 5.29575e-05 -2.21013e-05
-0.000116552 3.49101e-05 3.49894e-05 -2.4865e-05
-5.86607e-05 1.75351e-05 1.76252e-05 -2.65237e-05
-0.000118569 3.55127e-05 3.55954e-05 -2.4865e-05
-0.00011756 3.52114e-05 3.52924e-05 -2.4865e-05
-0.000174946 5.24376e-05 5.25035e-05 -2.21013e-05
-0.000171922 5.15327e-05 5.15956e-05 -2.21013e-05
-5.71458e-05 1.70846e-05 1.71691e-05 -2.65236e-05
-5.81557e-05 1.73849e-05 1.74732e-05 -2.65236e-05
-0.000173434 5.19851e-05 5.20495e-05 -2.21013e-05
-0.000114535 3.43075e-05 3.43833e-05 -2.4865e-05
-5.76508e-05 1.72348e-05 1.73211e-05 -2.65236e-05
-0.000116552 3.49101e-05 3.49894e-05 -2.4865e-05
-0.000115544 3.46088e-05 3.46863e-05 -2.4865e-05
-0.000171922 5.15327e-05 5.15956e-05 -2.21013e-05
-0.000168899 5.06277e-05 5.06877e-05 -2.21013e-05
-5.6136e-05 1.67842e-05 1.68651e-05 -2.65236e-05
-5.71458e-05 1.70846e-05 1.71691e-05 -2.65236e-05
-0.000170411 5.10802e-05 5.11416e-05 -2.21013e-05
-0.000112519 3.37048e-05 3.37773e-05 -2.48649e-05
-5.66409e-05 1.69344e-05 1.70171e-05 -2.65236e-05
-0.000114535 3.43075e-05 3.43833e-05 -2.4865e-05
-0.000113527 3.40062e-05 3.40803e-05 -2.48649e-05
-0.000168899 5.06277e-05 5.06877e-05 -2.21013e-05
-0.000165876 4.97228e-05 4.97798e-05 -2.21014e-05
-5.51262e-05 1.64837e-05 1.65611e-05 -2.65236e-05
-5.6136e-05 1.67842e-05 1.68651e-05 -2.65236e-05
-0.000167387 5.01753e-05 5.02337e-05 -2.21014e-05
-0.000110502 3.31022e-05 3.31714e-05 -2.48649e-05
-5.56311e-05 1.6634e-05 1.67131e-05 -2.65236e-05
-0.000112519 3.37048e-05 3.37773e-05 -2.48649e-05
-0.00011151 3.34035e-05 3.34743e-05 -2.48649e-05
-0.000165876 4.97228e-05 4.97798e-05 -2.21014e-05
-0.000162852 4.88178e-05 4.8872e-05 -2.21014e-05
-5.41165e-05 1.61833e-05 1.62571e-05 -2.65236e-05
-5.51262e-05 1.64837e-05 1.65611e-05 -2.65236e-05
-0.000164364 4.92703e-05 4.93259e-05 -2.21014e-05
-0.000108485 3.24995e-05 3.25654e-05 -2.48649e-05
-5.46213e-05 1.63335e-05 1.64091e-05 -2.65236e-05
-0.000110502 3.31022e-05 3.31714e-05 -2.48649e-05
-0.000109494 3.28009e-05 3.28684e-05 -2.48649e-05
-0.000162852 4.88178e-05 4.8872e-05 -2.21014e-05
-0.000159829 4.79128e-05 4.79642e-05 -2.21014e-05
-5.31068e-05 1.58828e-05 1.59531e-05 -2.65236e-05
-5.41165e-05 1.61833e-05 1.62571e-05 -2.65236e-05
-0.000161341 4.83653e-05 4.84181e-05 -2.21014e-05
-0.000106469 3.18968e-05 3.19595e-05 -2.48649e-05
-5.36116e-05 1.6033e-05 1.61051e-05 -2.65236e-05
-0.000108485 3.24995e-05 3.25654e-05 -2.48649e-05
-0.000107477 3.21982e-05 3.22625e-05 -2.48649e-05
-0.000159829 4.79128e-05 4.79642e-05 -2.21014e-05
-0.000156806 4.70078e-05 4.70564e-05 -2.21014e-05
-5.20972e-05 1.55822e-05 1.56492e-05 -2.65235e-05
-5.31068e-05 1.58828e-05 1.59531e-05 -2.65236e-05
-0.000158318 4.74603e-05 4.75103e-05 -2.21014e-05
-0.000104453 3.12941e-05 3.13537e-05 -2.48649e-05
-5.2602e-05 1.57325e-05 1.58012e-05 -2.65235e-05
-0.000106469 3.18968e-05 3.19595e-05 -2.48649e-05
-0.000105461 3.15954e-05 3.16566e-05 -2.48649e-05
-0.000156806 4.70078e-05 4.70564e-05 -2.21014e-05
-0.000153783 4.61027e-05 4.61487e-05 -2.21014e-05
-5.10876e-05 1.52817e-05 1.53454e-05 -2.65235e-05
-5.20972e-05 1.55822e-05 1.56492e-05 -2.65235e-05
-0.000155294 4.65552e-05 4.66025e-05 -2.21014e-05
-0.000102436 3.06913e-05 3.07478e-05 -2.48649e-05
-5.15924e-05 1.5432e-05 1.54973e-05 -2.65235e-05
-0.000104453 3.12941e-05 3.13537e-05 -2.48649e-05
-0.000103444 3.09927e-05 3.10507e-05 -2.48649e-05
-0.000153783 4.61027e-05 4.61487e-05 -2.21014e-05
-0.00015076 4.51976e-05 4.52409e-05 -2.21014e-05
-5.00781e-05 1.49811e-05 1.50416e-05 -2.65235e-05
-5.10876e-05 1.52817e-05 1.53454e-05 -2.65235e-05
-0.000152271 4.56502e-05 4.56948e-05 -2.21014e-05
-0.00010042 3.00885e-05 3.0142e-05 -2.48649e-05
-5.05828e-05 1.51314e-05 1.51935e-05 -2.65235e-05
-0.000102436 3.06913e-05 3.07478e-05 -2.48649e-05
-0.000101428 3.03899e-05 3.04449e-05 -2.48649e-05
-0.00015076 4.51976e-05 4.52409e-05 -2.21014e-05
-0.000147737 4.42925e-05 4.43333e-05 -2.21014e-05
-4.90686e-05 1.46805e-05 1.47378e-05 -2.65235e-05
-5.00781e-05 1.49811e-05 1.50416e-05 -2.65235e-05
-0.000149248 4.47451e-05 4.47871e-05 -2.21014e-05
-9.84036e-05 2.94857e-05 2.95363e-05 -2.48649e-05
-4.95733e-05 1.48308e-05 1.48897e-05 -2.65235e-05
-0.00010042 3.00885e-05 3.0142e-05 -2.48649e-05
-9.94117e-05 2.97871e-05 2.98391e-05 -2.48649e-05
-0.000147737 4.42925e-05 4.43333e-05 -2.21014e-05
-0.000144714 4.33874e-05 4.34256e-05 -2.21015e-05
-4.80592e-05 1.43799e-05 1.4434e-05 -2.65235e-05
-4.90686e-05 1.46805e-05 1.47378e-05 -2.65235e-05
-0.000146225 4.384e-05 4.38794e-05 -2.21015e-05
-9.63874e-05 2.88828e-05 2.89305e-05 -2.48649e-05
-4.85639e-05 1.45302e-05 1.45859e-05 -2.65235e-05
-9.84036e-05 2.94857e-05 2.95363e-05 -2.48649e-05
-9.73955e-05 2.91843e-05 2.92334e-05 -2.48649e-05
-0.000144714 4.33874e-05 4.34256e-05 -2.21015e-05
-0.000141691 4.24823e-05 4.2518e-05 -2.21015e-05
-4.70498e-05 1.40792e-05 1.41303e-05 -2.65234e-05
-4.80592e-05 1.43799e-05 1.4434e-05 -2.65235e-05
-0.000143202 4.29349e-05 4.29718e-05 -2.21015e-05
-9.43712e-05 2.828e-05 2.83248e-05 -2.48649e-05
-4.75545e-05 1.42295e-05 1.42821e-05 -2.65235e-05
-9.63874e-05 2.88828e-05 2.89305e-05 -2.48649e-05
-9.53793e-05 2.85814e-05 2.86277e-05 -2.48649e-05
-0.000141691 4.24823e-05 4.2518e-05 -2.21015e-05
-0.000138668 4.15771e-05 4.16104e-05 -2.21015e-05
-4.60405e-05 1.37785e-05 1.38266e-05 -2.65234e-05
-4.70498e-05 1.40792e-05 1.41303e-05 -2.65234e-05
-0.00014018 4.20297e-05 4.20642e-05 -2.21015e-05
-9.23551e-05 2.76771e-05 2.77192e-05 -2.4865e-05
-4.65452e-05 1.39288e-05 1.39784e-05 -2.65234e-05
-9.43712e-05 2.828e-05 2.83248e-05 -2.48649e-05
-9.33631e-05 2.79785e-05 2.8022e-05 -2.4865e-05
-0.000138668 4.15771e-05 4.16104e-05 -2.21015e-05
-0.000135645 4.06719e-05 4.07029e-05 -2.21015e-05
-4.50313e-05 1.34778e-05 1.35229e-05 -2.65234e-05
-4.60405e-05 1.37785e-05 1.38266e-05 -2.65234e-05
-0.000137157 4.11245e-05 4.11566e-05 -2.21015e-05
-9.0339e-05 2.70741e-05 2.71135e-05 -2.4865e-05
-4.55359e-05 1.36281e-05 1.36748e-05 -2.65234e-05
-9.23551e-05 2.76771e-05 2.77192e-05 -2.4865e-05
-9.1347e-05 2.73756e-05 2.74163e-05 -2.4865e-05
-0.000135645 4.06719e-05 4.07029e-05 -2.21015e-05
-0.000132623 3.97667e-05 3.97953e-05 -2.21015e-05
-4.40221e-05 1.3177e-05 1.32193e-05 -2.65234e-05
-4.50313e-05 1.34778e-05 1.35229e-05 -2.65234e-05
-0.000134134 4.02193e-05 4.02491e-05 -2.21015e-05
-8.8323e-05 2.64712e-05 2.65079e-05 -2.4865e-05
-4.45266e-05 1.33274e-05 1.33711e-05 -2.65234e-05
-9.0339e-05 2.70741e-05 2.71135e-05 -2.4865e-05
-8.9331e-05 2.67727e-05 2.68107e-05 -2.4865e-05
-0.000132623 3.97667e-05 3.97953e-05 -2.21015e-05
-0.0001296 3.88615e-05 3.88879e-05 -2.21016e-05
-4.30129e-05 1.28762e-05 1.29157e-05 -2.65234e-05
-4.40221e-05 1.3177e-05 1.32193e-05 -2.65234e-05
-0.000131111 3.93141e-05 3.93416e-05 -2.21015e-05
-8.6307e-05 2.58682e-05 2.59024e-05 -2.4865e-05
-4.35175e-05 1.30266e-05 1.30675e-05 -2.65234e-05
-8.8323e-05 2.64712e-05 2.65079e-05 -2.4865e-05
-8.7315e-05 2.61697e-05 2.62051e-05 -2.4865e-05
-0.0001296 3.88615e-05 3.88879e-05 -2.21016e-05
-0.000126577 3.79562e-05 3.79804e-05 -2.21016e-05
-4.20038e-05 1.25754e-05 1.26122e-05 -2.65234e-05
-4.30129e-05 1.28762e-05 1.29157e-05 -2.65234e-05
-0.000128088 3.84089e-05 3.84341e-05 -2.21016e-05
-8.42911e-05 2.52652e-05 2.52968e-05 -2.4865e-05
-4.25083e-05 1.27258e-05 1.2764e-05 -2.65234e-05
-8.6307e-05 2.58682e-05 2.59024e-05 -2.4865e-05
-8.52991e-05 2.55667e-05 2.55996e-05 -2.4865e-05
-0.000126577 3.79562e-05 3.79804e-05 -2.21016e-05
-0.000123555 3.70509e-05 3.7073e-05 -2.21016e-05
-4.09948e-05 1.22745e-05 1.23087e-05 -2.65234e-05
-4.20038e-05 1.25754e-05 1.26122e-05 -2.65234e-05
-0.000125066 3.75036e-05 3.75267e-05 -2.21016e-05
-8.22753e-05 2.46621e-05 2.46913e-05 -2.4865e-05
-4.14993e-05 1.2425e-05 1.24604e-05 -2.65234e-05
-8.42911e-05 2.52652e-05 2.52968e-05 -2.4865e-05
-8.32832e-05 2.49637e-05 2.49941e-05 -2.4865e-05
-0.000123555 3.70509e-05 3.7073e-05 -2.21016e-05
-0.000120532 3.61456e-05 3.61656e-05 -2.21016e-05
-3.99858e-05 1.19737e-05 1.20052e-05 -2.65234e-05
-4.09948e-05 1.22745e-05 1.23087e-05 -2.65234e-05
-0.000122043 3.65983e-05 3.66193e-05 -2.21016e-05
-8.02595e-05 2.40591e-05 2.40859e-05 -2.4865e-05
-4.04903e-05 1.21241e-05 1.21569e-05 -2.65234e-05
-8.22753e-05 2.46621e-05 2.46913e-05 -2.4865e-05
-8.12674e-05 2.43606e-05 2.43886e-05 -2.4865e-05
-0.000120532 3.61456e-05 3.61656e-05 -2.21016e-05
-0.000117509 3.52403e-05 3.52582e-05 -2.21016e-05
-3.89768e-05 1.16727e-05 1.17017e-05 -2.65234e-05
-3.99858e-05 1.19737e-05 1.20052e-05 -2.65234e-05
-0.000119021 3.5693e-05 3.57119e-05 -2.21016e-05
-7.82437e-05 2.3456e-05 2.34804e-05 -2.4865e-05
-3.94813e-05 1.18232e-05 1.18535e-05 -2.65234e-05
-8.02595e-05 2.40591e-05 2.40859e-05 -2.4865e-05
-7.92516e-05 2.37575e-05 2.37832e-05 -2.4865e-05
-0.000117509 3.52403e-05 3.52582e-05 -2.21016e-05
-0.000114487 3.43349e-05 3.43509e-05 -2.21017e-05
-3.79679e-05 1.13718e-05 1.13983e-05 -2.65233e-05
-3.89768e-05 1.16727e-05 1.17017e-05 -2.65234e-05
-0.000115998 3.47876e-05 3.48045e-05 -2.21016e-05
-7.6228e-05 2.28529e-05 2.28751e-05 -2.4865e-05
-3.84724e-05 1.15223e-05 1.155e-05 -2.65233e-05
-7.82437e-05 2.3456e-05 2.34804e-05 -2.4865e-05
-7.72358e-05 2.31544e-05 2.31777e-05 -2.4865e-05
-0.000114487 3.43349e-05 3.43509e-05 -2.21017e-05
-0.000111465 3.34296e-05 3.34436e-05 -2.21017e-05
-3.69591e-05 1.10708e-05 1.1095e-05 -2.65233e-05
-3.79679e-05 1.13718e-05 1.13983e-05 -2.65233e-05
-0.000112976 3.38823e-05 3.38972e-05 -2.21017e-05
-7.42123e-05 2.22497e-05 2.22697e-05 -2.4865e-05
-3.74635e-05 1.12213e-05 1.12467e-05 -2.65233e-05
-7.6228e-05 2.28529e-05 2.28751e-05 -2.4865e-05
-7.52202e-05 2.25513e-05 2.25724e-05 -2.4865e-05
-0.000111465 3.34296e-05 3.34436e-05 -2.21017e-05
-0.000108442 3.25242e-05 3.25363e-05 -2.21017e-05
-3.59503e-05 1.07698e-05 1.07916e-05 -2.65233e-05
-3.69591e-05 1.10708e-05 1.1095e-05 -2.65233e-05
-0.000109953 3.29769e-05 3.29899e-05 -2.21017e-05
-7.21967e-05 2.16466e-05 2.16644e-05 -2.4865e-05
-3.64547e-05 1.09203e-05 1.09433e-05 -2.65233e-05
-7.42123e-05 2.22497e-05 2.22697e-05 -2.4865e-05
-7.32045e-05 2.19481e-05 2.1967e-05 -2.4865e-05
-0.000108442 3.25242e-05 3.25363e-05 -2.21017e-05
-0.00010542 3.16188e-05 3.1629e-05 -2.21017e-05
-3.49416e-05 1.04688e-05 1.04883e-05 -2.65233e-05
-3.59503e-05 1.07698e-05 1.07916e-05 -2.65233e-05
-0.000106931 3.20715e-05 3.20827e-05 -2.21017e-05
-7.01812e-05 2.10434e-05 2.10591e-05 -2.4865e-05
-3.54459e-05 1.06193e-05 1.064e-05 -2.65233e-05
-7.21967e-05 2.16466e-05 2.16644e-05 -2.4865e-05
-7.1189e-05 2.1345e-05 2.13617e-05 -2.4865e-05
-0.00010542 3.16188e-05 3.1629e-05 -2.21017e-05
-0.000102398 3.07133e-05 3.07218e-05 -2.21017e-05
-3.39329e-05 1.01678e-05 1.01851e-05 -2.65233e-05
-3.49416e-05 1.04688e-05 1.04883e-05 -2.65233e-05
-0.000103909 3.1166e-05 3.11754e-05 -2.21017e-05
-6.81657e-05 2.04401e-05 2.04538e-05 -2.4865e-05
-3.44372e-05 1.03183e-05 1.03367e-05 -2.65233e-05
-7.01812e-05 2.10434e-05 2.10591e-05 -2.4865e-05
-6.91734e-05 2.07417e-05 2.07564e-05 -2.4865e-05
-0.000102398 3.07133e-05 3.07218e-05 -2.21017e-05
-9.93754e-05 2.98078e-05 2.98147e-05 -2.21018e-05
-3.29243e-05 9.86666e-06 9.88184e-06 -2.65233e-05
-3.39329e-05 1.01678e-05 1.01851e-05 -2.65233e-05
-0.000100886 3.02606e-05 3.02682e-05 -2.21018e-05
-6.61502e-05 1.98369e-05 1.98486e-05 -2.4865e-05
-3.34286e-05 1.00172e-05 1.00334e-05 -2.65233e-05
-6.81657e-05 2.04401e-05 2.04538e-05 -2.4865e-05
-6.7158e-05 2.01385e-05 2.01512e-05 -2.4865e-05
-9.93754e-05 2.98078e-05 2.98147e-05 -2.21018e-05
-9.63532e-05 2.89023e-05 2.89075e-05 -2.21018e-05
-3.19157e-05 9.56554e-06 9.57864e-06 -2.65233e-05
-3.29243e-05 9.86666e-06 9.88184e-06 -2.65233e-05
-9.78643e-05 2.93551e-05 2.93611e-05 -2.21018e-05
-6.41348e-05 1.92336e-05 1.92434e-05 -2.48651e-05
-3.242e-05 9.71611e-06 9.73024e-06 -2.65233e-05
-6.61502e-05 1.98369e-05 1.98486e-05 -2.4865e-05
-6.51425e-05 1.95352e-05 1.9546e-05 -2.48651e-05
-9.63532e-05 2.89023e-05 2.89075e-05 -2.21018e-05
-9.33311e-05 2.79968e-05 2.80004e-05 -2.21018e-05
-3.09072e-05 9.26439e-06 9.27548e-06 -2.65233e-05
-3.19157e-05 9.56554e-06 9.57864e-06 -2.65233e-05
-9.48421e-05 2.84496e-05 2.84539e-05 -2.21018e-05
-6.21195e-05 1.86303e-05 1.86382e-05 -2.48651e-05
-3.14114e-05 9.41497e-06 9.42706e-06 -2.65233e-05
-6.41348e-05 1.92336e-05 1.92434e-05 -2.48651e-05
-6.31272e-05 1.89319e-05 1.89408e-05 -2.48651e-05
-9.33311e-05 2.79968e-05 2.80004e-05 -2.21018e-05
-9.0309e-05 2.70913e-05 2.70933e-05 -2.21018e-05
-2.98987e-05 8.96321e-06 8.97236e-06 -2.65233e-05
-3.09072e-05 9.26439e-06 9.27548e-06 -2.65233e-05
-9.182e-05 2.75441e-05 2.75468e-05 -2.21018e-05
-6.01042e-05 1.80269e-05 1.80331e-05 -2.48651e-05
-3.04029e-05 9.11381e-06 9.12392e-06 -2.65233e-05
-6.21195e-05 1.86303e-05 1.86382e-05 -2.48651e-05
-6.11118e-05 1.83286e-05 1.83357e-05 -2.48651e-05
-9.0309e-05 2.70913e-05 2.70933e-05 -2.21018e-05
-8.72869e-05 2.61857e-05 2.61862e-05 -2.21019e-05
-2.88903e-05 8.662e-06 8.66927e-06 -2.65233e-05
-2.98987e-05 8.96321e-06 8.97236e-06 -2.65233e-05
-8.8798e-05 2.66385e-05 2.66398e-05 -2.21019e-05
-5.80889e-05 1.74236e-05 1.7428e-05 -2.48651e-05
-2.93945e-05 8.81261e-06 8.82081e-06 -2.65233e-05
-6.01042e-05 1.80269e-05 1.80331e-05 -2.48651e-05
-5.90966e-05 1.77253e-05 1.77306e-05 -2.48651e-05
-8.72869e-05 2.61857e-05 2.61862e-05 -2.21019e-05
-8.4265e-05 2.52801e-05 2.52792e-05 -2.21019e-05
-2.78819e-05 8.36075e-06 8.36622e-06 -2.65233e-05
-2.88903e-05 8.662e-06 8.66927e-06 -2.65233e-05
-8.57759e-05 2.57329e-05 2.57327e-05 -2.21019e-05
-5.60737e-05 1.68202e-05 1.6823e-05 -2.48651e-05
-2.83861e-05 8.51138e-06 8.51774e-06 -2.65233e-05
-5.80889e-05 1.74236e-05 1.7428e-05 -2.48651e-05
-5.70813e-05 1.71219e-05 1.71255e-05 -2.48651e-05
-8.4265e-05 2.52801e-05 2.52792e-05 -2.21019e-05
-8.1243e-05 2.43745e-05 2.43722e-05 -2.21019e-05
-2.68736e-05 8.05948e-06 8.0632e-06 -2.65233e-05
-2.78819e-05 8.36075e-06 8.36622e-06 -2.65233e-05
-8.2754e-05 2.48273e-05 2.48257e-05 -2.21019e-05
-5.40586e-05 1.62167e-05 1.62179e-05 -2.48651e-05
-2.73778e-05 8.21012e-06 8.2147e-06 -2.65233e-05
-5.60737e-05 1.68202e-05 1.6823e-05 -2.48651e-05
-5.50662e-05 1.65185e-05 1.65204e-05 -2.48651e-05
-8.1243e-05 2.43745e-05 2.43722e-05 -2.21019e-05
-7.82211e-05 2.34689e-05 2.34653e-05 -2.21019e-05
-2.58653e-05 7.75816e-06 7.76022e-06 -2.65233e-05
-2.68736e-05 8.05948e-06 8.0632e-06 -2.65233e-05
-7.97321e-05 2.39217e-05 2.39187e-05 -2.21019e-05
-5.20435e-05 1.56133e-05 1.5613e-05 -2.48651e-05
-2.63695e-05 7.90882e-06 7.9117e-06 -2.65233e-05
-5.40586e-05 1.62167e-05 1.62179e-05 -2.48651e-05
-5.3051e-05 1.5915e-05 1.59154e-05 -2.48651e-05
-7.82211e-05 2.34689e-05 2.34653e-05 -2.21019e-05
-7.51993e-05 2.25632e-05 2.25583e-05 -2.21019e-05
-2.48571e-05 7.45682e-06 7.45727e-06 -2.65232e-05
-2.58653e-05 7.75816e-06 7.76022e-06 -2.65233e-05
-7.67102e-05 2.3016e-05 2.30118e-05 -2.21019e-05
-5.00284e-05 1.50098e-05 1.5008e-05 -2.48651e-05
-2.53612e-05 7.6075e-06 7.60874e-06 -2.65233e-05
-5.20435e-05 1.56133e-05 1.5613e-05 -2.48651e-05
-5.1036e-05 1.53115e-05 1.53105e-05 -2.48651e-05
-7.51993e-05 2.25632e-05 2.25583e-05 -2.21019e-05
-7.21775e-05 2.16575e-05 2.16514e-05 -2.21019e-05
-2.38489e-05 7.15544e-06 7.15435e-06 -2.65232e-05
-2.48571e-05 7.45682e-06 7.45727e-06 -2.65232e-05
-7.36884e-05 2.21103e-05 2.21049e-05 -2.21019e-05
-4.80134e-05 1.44063e-05 1.44031e-05 -2.48651e-05
-2.4353e-05 7.30614e-06 7.3058e-06 -2.65232e-05
-5.00284e-05 1.50098e-05 1.5008e-05 -2.48651e-05
-4.90209e-05 1.4708e-05 1.47055e-05 -2.48651e-05
-7.21775e-05 2.16575e-05 2.16514e-05 -2.21019e-05
-6.91557e-05 2.07518e-05 2.07446e-05 -2.21019e-05
-2.28408e-05 6.85404e-06 6.85147e-06 -2.65232e-05
-2.38489e-05 7.15544e-06 7.15435e-06 -2.65232e-05
-7.06666e-05 2.12046e-05 2.1198e-05 -2.21019e-05
-4.59985e-05 1.38027e-05 1.37982e-05 -2.48651e-05
-2.33449e-05 7.00474e-06 7.00291e-06 -2.65232e-05
-4.80134e-05 1.44063e-05 1.44031e-05 -2.48651e-05
-4.7006e-05 1.41045e-05 1.41006e-05 -2.48651e-05
-6.91557e-05 2.07518e-05 2.07446e-05 -2.21019e-05
-6.61341e-05 1.98461e-05 1.98377e-05 -2.21019e-05
-2.18327e-05 6.55261e-06 6.54862e-06 -2.65232e-05
-2.28408e-05 6.85404e-06 6.85147e-06 -2.65232e-05
-6.76449e-05 2.02989e-05 2.02911e-05 -2.21019e-05
-4.39836e-05 1.31992e-05 1.31933e-05 -2.48651e-05
-2.23368e-05 6.70333e-06 6.70004e-06 -2.65232e-05
-4.59985e-05 1.38027e-05 1.37982e-05 -2.48651e-05
-4.4991e-05 1.3501e-05 1.34957e-05 -2.48651e-05
-6.61341e-05 1.98461e-05 1.98377e-05 -2.21019e-05
-6.31124e-05 1.89404e-05 1.89309e-05 -2.21019e-05
-2.08247e-05 6.25118e-06 6.24579e-06 -2.65231e-05
-2.18327e-05 6.55261e-06 6.54862e-06 -2.65232e-05
-6.46232e-05 1.93932e-05 1.93843e-05 -2.21019e-05
-4.19688e-05 1.25956e-05 1.25885e-05 -2.4865e-05
-2.13287e-05 6.4019e-06 6.3972e-06 -2.65231e-05
-4.39836e-05 1.31992e-05 1.31933e-05 -2.48651e-05
-4.29762e-05 1.28974e-05 1.28909e-05 -2.48651e-05
-6.31124e-05 1.89404e-05 1.89309e-05 -2.21019e-05
-6.00909e-05 1.80347e-05 1.80241e-05 -2.2102e-05
-1.98167e-05 5.94975e-06 5.943e-06 -2.6523e-05
-2.08247e-05 6.25118e-06 6.24579e-06 -2.65231e-05
-6.16017e-05 1.84875e-05 1.84775e-05 -2.21019e-05
-3.9954e-05 1.19921e-05 1.19837e-05 -2.4865e-05
-2.03207e-05 6.10046e-06 6.09439e-06 -2.65231e-05
-4.19688e-05 1.25956e-05 1.25885e-05 -2.4865e-05
-4.09614e-05 1.22938e-05 1.22861e-05 -2.4865e-05
-6.00909e-05 1.80347e-05 1.80241e-05 -2.2102e-05
-5.70695e-05 1.7129e-05 1.71174e-05 -2.2102e-05
-1.88089e-05 5.64834e-06 5.64023e-06 -2.65229e-05
-1.98167e-05 5.94975e-06 5.943e-06 -2.6523e-05
-5.85802e-05 1.75818e-05 1.75707e-05 -2.2102e-05
-3.79394e-05 1.13886e-05 1.13789e-05 -2.4865e-05
-1.93128e-05 5.79904e-06 5.79161e-06 -2.6523e-05
-3.9954e-05 1.19921e-05 1.19837e-05 -2.4865e-05
-3.89467e-05 1.16903e-05 1.16813e-05 -2.4865e-05
-5.70695e-05 1.7129e-05 1.71174e-05 -2.2102e-05
-5.40482e-05 1.62233e-05 1.62106e-05 -2.2102e-05
-1.78011e-05 5.34698e-06 5.33749e-06 -2.65228e-05
-1.88089e-05 5.64834e-06 5.64023e-06 -2.65229e-05
-5.55588e-05 1.66762e-05 1.6664e-05 -2.2102e-05
-3.59248e-05 1.07851e-05 1.07742e-05 -2.48649e-05
-1.8305e-05 5.49766e-06 5.48886e-06 -2.65229e-05
-3.79394e-05 1.13886e-05 1.13789e-05 -2.4865e-05
-3.69321e-05 1.10868e-05 1.10765e-05 -2.48649e-05
-5.40482e-05 1.62233e-05 1.62106e-05 -2.2102e-05
-5.1027e-05 1.53177e-05 1.5304e-05 -2.21021e-05
-1.67935e-05 5.04567e-06 5.03479e-06 -2.65227e-05
-1.78011e-05 5.34698e-06 5.33749e-06 -2.65228e-05
-5.25376e-05 1.57705e-05 1.57573e-05 -2.21021e-05
-3.39104e-05 1.01816e-05 1.01695e-05 -2.48649e-05
-1.72973e-05 5.19632e-06 5.18613e-06 -2.65227e-05
-3.59248e-05 1.07851e-05 1.07742e-05 -2.48649e-05
-3.49176e-05 1.04834e-05 1.04718e-05 -2.48649e-05
-5.1027e-05 1.53177e-05 1.5304e-05 -2.21021e-05
-4.80058e-05 1.44118e-05 1.43974e-05 -2.21022e-05
-1.57859e-05 4.74434e-06 4.73211e-06 -2.65229e-05
-1.67935e-05 5.04567e-06 5.03479e-06 -2.65227e-05
-4.95164e-05 1.48648e-05 1.48507e-05 -2.21022e-05
-3.1896e-05 9.57794e-06 9.5649e-06 -2.48651e-05
-1.62897e-05 4.89501e-06 4.88345e-06 -2.65228e-05
-3.39104e-05 1.01816e-05 1.01695e-05 -2.48649e-05
-3.29032e-05 9.87981e-06 9.86718e-06 -2.4865e-05
-4.80058e-05 1.44118e-05 1.43974e-05 -2.21022e-05
-4.49843e-05 1.35053e-05 1.3491e-05 -2.21024e-05
-1.47784e-05 4.44278e-06 4.42953e-06 -2.65237e-05
-1.57859e-05 4.74434e-06 4.73211e-06 -2.65229e-05
-4.64952e-05 1.39587e-05 1.39442e-05 -2.21023e-05
-2.98814e-05 8.97368e-06 8.96044e-06 -2.48656e-05
-1.52821e-05 4.59361e-06 4.5808e-06 -2.65232e-05
-3.1896e-05 9.57794e-06 9.5649e-06 -2.48651e-05
-3.08888e-05 9.27593e-06 9.26265e-06 -2.48652e-05
-4.49843e-05 1.35053e-05 1.3491e-05 -2.21024e-05
-4.19619e-05 1.25971e-05 1.25849e-05 -2.21025e-05
-1.37701e-05 4.14051e-06 4.12698e-06 -2.65262e-05
-1.47784e-05 4.44278e-06 4.42953e-06 -2.65237e-05
-4.34733e-05 1.30515e-05 1.30379e-05 -2.21025e-05
-2.78657e-05 8.36786e-06 8.3562e-06 -2.4867e-05
-1.42744e-05 4.29179e-06 4.27826e-06 -2.65247e-05
-2.98814e-05 8.97368e-06 8.96044e-06 -2.48656e-05
-2.88737e-05 8.67107e-06 8.65828e-06 -2.48661e-05
-4.19619e-05 1.25971e-05 1.25849e-05 -2.21025e-05
-3.89364e-05 1.16851e-05 1.16792e-05 -2.21025e-05
-1.27606e-05 3.83636e-06 3.82468e-06 -2.65323e-05
-1.37701e-05 4.14051e-06 4.12698e-06 -2.65262e-05
-4.04498e-05 1.21418e-05 1.2132e-05 -2.21025e-05
-2.58471e-05 7.75839e-06 7.7523e-06 -2.48704e-05
-1.32655e-05 3.98876e-06 3.97576e-06 -2.65286e-05
-2.78657e-05 8.36786e-06 8.3562e-06 -2.4867e-05
-2.68569e-05 8.06376e-06 8.05419e-06 -2.48683e-05
-3.89364e-05 1.16851e-05 1.16792e-05 -2.21025e-05
-3.59047e-05 1.07648e-05 1.07742e-05 -2.21019e-05
-1.17469e-05 3.52825e-06 3.52227e-06 -2.65461e-05
-1.27606e-05 3.83636e-06 3.82468e-06 -2.65323e-05
-3.74215e-05 1.12263e-05 1.12265e-05 -2.21023e-05
-2.38219e-05 7.14146e-06 7.14877e-06 -2.48779e-05
-1.22546e-05 3.68304e-06 3.67355e-06 -2.65379e-05
-2.58471e-05 7.75839e-06 7.7523e-06 -2.48704e-05
-2.48356e-05 7.45126e-06 7.45045e-06 -2.48735e-05
-3.59047e-05 1.07648e-05 1.07742e-05 -2.21019e-05
-3.28576e-05 9.82891e-06 9.86942e-06 -2.21007e-05
-1.07261e-05 3.21191e-06 3.22038e-06 -2.65749e-05
-1.17469e-05 3.52825e-06 3.52227e-06 -2.65461e-05
-3.4384e-05 1.02996e-05 1.03219e-05 -2.21013e-05
-2.17829e-05 6.50974e-06 6.54563e-06 -2.48934e-05
-1.12374e-05 3.37138e-06 3.37113e-06 -2.6558e-05
-2.38219e-05 7.14146e-06 7.14877e-06 -2.48779e-05
-2.28047e-05 6.828e-06 6.84717e-06 -2.48841e-05
-3.28576e-05 9.82891e-06 9.86942e-06 -2.21007e-05
-2.97838e-05 8.86349e-06 8.96585e-06 -2.20978e-05
-9.68764e-06 2.88115e-06 2.91707e-06 -2.6632e-05
-1.07261e-05 3.21191e-06 3.22038e-06 -2.65749e-05
-3.13244e-05 9.35085e-06 9.41725e-06 -2.20997e-05
-1.97168e-05 5.8519e-06 5.94209e-06 -2.49246e-05
-1.02105e-05 3.04908e-06 3.06917e-06 -2.65987e-05
-2.17829e-05 6.50974e-06 6.54563e-06 -2.48934e-05
-2.07543e-05 6.18526e-06 6.24386e-06 -2.49068e-05
-2.97838e-05 8.86349e-06 8.96585e-06 -2.20978e-05
-2.66524e-05 7.8487e-06 8.05875e-06 -2.20954e-05
-8.6241e-06 2.52444e-06 2.61414e-06 -2.67382e-05
-9.68764e-06 2.88115e-06 2.91707e-06 -2.6632e-05
-2.82288e-05 8.36435e-06 8.51333e-06 -2.20961e-05
-1.76005e-05 5.14851e-06 5.33656e-06 -2.49841e-05
-9.15855e-06 2.70644e-06 2.76519e-06 -2.66773e-05
-1.97168e-05 5.8519e-06 5.94209e-06 -2.49246e-05
-1.86667e-05 5.50693e-06 5.63992e-06 -2.49489e-05
-2.66524e-05 7.8487e-06 8.05875e-06 -2.20954e-05
-2.34338e-05 6.75224e-06 7.14922e-06 -2.2092e-05
-7.50482e-06 2.13143e-06 2.30288e-06 -2.69273e-05
-8.6241e-06 2.52444e-06 2.61414e-06 -2.67382e-05
-2.50543e-05 7.31195e-06 7.60385e-06 -2.20943e-05
-1.53997e-05 4.37861e-06 4.7233e-06 -2.5093e-05
-8.07572e-06 2.33413e-06 2.46068e-06 -2.68195e-05
-1.76005e-05 5.14851e-06 5.33656e-06 -2.49841e-05
-1.65131e-05 4.77424e-06 5.03094e-06 -2.50323e-05
-2.34338e-05 6.75224e-06 7.14922e-06 -2.2092e-05
-2.0045e-05 5.54688e-06 6.21349e-06 -2.21067e-05
-6.32496e-06 1.68498e-06 1.98857e-06 -2.72381e-05
-7.50482e-06 2.13143e-06 2.30288e-06 -2.69273e-05
-2.17707e-05 6.16685e-06 6.68738e-06 -2.20944e-05
-1.30629e-05 3.5144e-06 4.0922e-06 -2.52828e-05
-6.91878e-06 1.91343e-06 2.14515e-06 -2.7065e-05
-1.53997e-05 4.37861e-06 4.7233e-06 -2.5093e-05
-1.42522e-05 3.95737e-06 4.41208e-06 -2.51719e-05
-2.0045e-05 5.54688e-06 6.21349e-06 -2.21067e-05
-1.64507e-05 4.20303e-06 5.24899e-06 -2.21508e-05
-5.02741e-06 1.20581e-06 1.63783e-06 -2.77134e-05
-6.32496e-06 1.68498e-06 1.98857e-06 -2.72381e-05
-1.82679e-05 4.8871e-06 5.73463e-06 -2.21252e-05
-1.05485e-05 2.57512e-06 3.41715e-06 -2.55944e-05
-5.70172e-06 1.45061e-06 1.82191e-06 -2.74522e-05
-1.30629e-05 3.5144e-06 4.0922e-06 -2.52828e-05
-1.18291e-05 3.05415e-06 3.7607e-06 -2.54269e-05
-1.64507e-05 4.20303e-06 5.24899e-06 -2.21508e-05
-1.25203e-05 2.81402e-06 4.15983e-06 -2.23262e-05
-3.69016e-06 7.32157e-07 1.26772e-06 -2.83297e-05
-5.02741e-06 1.20581e-06 1.63783e-06 -2.77134e-05
-1.45495e-05 3.51152e-06 4.73054e-06 -2.22098e-05
-7.83387e-06 1.63387e-06 2.65715e-06 -2.60652e-05
-4.34317e-06 9.53094e-07 1.45289e-06 -2.80097e-05
-1.05485e-05 2.57512e-06 3.41715e-06 -2.55944e-05
-9.21776e-06 2.08497e-06 3.05691e-06 -2.57953e-05
-1.25203e-05 2.81402e-06 4.15983e-06 -2.23262e-05
-8.44854e-06 1.60776e-06 2.93176e-06 -2.27009e-05
-2.31832e-06 5.18249e-07 7.71459e-07 -2.8935e-05
-3.69016e-06 7.32157e-07 1.26772e-06 -2.83297e-05
-1.04558e-05 2.13517e-06 3.56598e-06 -2.24859e-05
-5.10677e-06 1.06764e-06 1.73106e-06 -2.66659e-05
-3.0285e-06 5.84073e-07 1.04761e-06 -2.86498e-05
-7.83387e-06 1.63387e-06 2.65715e-06 -2.60652e-05
-6.44686e-06 1.27957e-06 2.21455e-06 -2.63783e-05
-8.44854e-06 1.60776e-06 2.93176e-06 -2.27009e-05
-4.49997e-06 1.57695e-06 1.25272e-06 -2.35124e-05
-1.35443e-06 8.53178e-07 2.14822e-07 -2.89567e-05
-2.31832e-06 5.18249e-07 7.71459e-07 -2.8935e-05
-6.47208e-06 1.38292e-06 2.18107e-06 -2.30306e-05
-2.78628e-06 1.48998e-06 5.55557e-07 -2.71034e-05
-1.71012e-06 5.62903e-07 4.91667e-07 -2.9077e-05
-5.10677e-06 1.06764e-06 1.73106e-06 -2.66659e-05
-3.86835e-06 1.07173e-06 1.19855e-06 -2.68974e-05
-4.49997e-06 1.57695e-06 1.25272e-06 -2.35124e-05
-2.4146e-06 4.48318e-06 -8.86534e-07 -2.41122e-05
-8.30681e-07 2.32816e-06 -6.41775e-07 -2.7337e-05
-1.35443e-06 8.53178e-07 2.14822e-07 -2.89567e-05
-2.99366e-06 2.40136e-06 2.53841e-07 -2.39305e-05
-1.95567e-06 4.08174e-06 -9.11171e-07 -2.62324e-05
-1.10877e-06 1.48971e-06 -1.63259e-07 -2.84377e-05
-2.78628e-06 1.48998e-06 5.55557e-07 -2.71034e-05
-2.07669e-06 2.50113e-06 -1.81904e-07 -2.70267e-05
-2.4146e-06 4.48318e-06 -8.86534e-07 -2.41122e-05
-3.46016e-06 1.36047e-05 -4.34766e-06 -2.21256e-05
-1.26752e-06 4.24816e-06 -1.27742e-06 -2.23276e-05
-8.30681e-07 2.32816e-06 -6.41775e-07 -2.7337e-05
-2.61827e-06 8.33605e-06 -2.45048e-06 -2.37491e-05
-2.53665e-06 8.79737e-06 -2.68317e-06 -2.18075e-05
-7.92742e-07 3.2204e-06 -1.04043e-06 -2.53724e-05
-1.95567e-06 4.08174e-06 -9.11171e-07 -2.62324e-05
-2.18756e-06 6.17557e-06 -1.70915e-06 -2.44974e-05
-3.46016e-06 1.36047e-05 -4.34766e-06 -2.21256e-05
-6.56842e-06 2.4619e-05 -7.73598e-06 -1.1696e-05
-2.50938e-06 7.00851e-06 -1.9282e-06 -1.27818e-05
-1.26752e-06 4.24816e-06 -1.27742e-06 -2.23276e-05
-4.81773e-06 1.95315e-05 -6.30591e-06 -1.82799e-05
-3.94333e-06 1.5016e-05 -4.74544e-06 -1.29075e-05
-1.94355e-06 5.5183e-06 -1.53203e-06 -1.81582e-05
-2.53665e-06 8.79737e-06 -2.68317e-06 -2.18075e-05
-3.09217e-06 1.18873e-05 -3.76934e-06 -1.80383e-05
-0.000175819 0 7.53511e-05 0.000100224
-0.000178833 2.41532e-05 6.62913e-05 3.32124e-05
0.000177165 -2.4531e-05 -6.54148e-05 3.31061e-05
0.000173962 0 -7.45553e-05 9.99778e-05
-0.000171638 1.02275e-05 6.9176e-05 6.32073e-05
-8.49763e-07 -1.9989e-07 4.49852e-07 3.75913e-05
0.000169886 -1.04355e-05 -6.8336e-05 6.30597e-05
-9.59625e-07 0 4.11268e-07 0.000102179
-8.92505e-07 -1.231e-07 4.35259e-07 7.06886e-05
-0.000178833 2.41532e-05 6.62913e-05 3.32124e-05
-0.000192702 3.97737e-05 6.55406e-05 -6.89666e-06
0.000191174 -4.04054e-05 -6.46152e-05 -6.96765e-06
0.000177165 -2.4531e-05 -6.54148e-05 3.31061e-05
-0.000188741 3.35051e-05 6.65298e-05 9.62816e-06
-7.78367e-07 -3.24716e-07 4.7275e-07 -4.82739e-06
0.000187147 -3.40214e-05 -6.5625e-05 9.54119e-06
-8.49763e-07 -1.9989e-07 4.49852e-07 3.75913e-05
-8.15361e-07 -2.65312e-07 4.63146e-07 1.14745e-05
-0.000192702 3.97737e-05 6.55406e-05 -6.89666e-06
-0.000196785 5.13843e-05 6.23146e-05 -2.50693e-05
0.000195375 -5.22039e-05 -6.13593e-05 -2.51232e-05
0.000191174 -4.04054e-05 -6.46152e-05 -6.96765e-06
-0.000194217 4.59652e-05 6.35363e-05 -1.78522e-05
-7.16725e-07 -4.24886e-07 4.89262e-07 -2.44861e-05
0.00019275 -4.66964e-05 -6.25943e-05 -1.79137e-05
-7.78367e-07 -3.24716e-07 4.7275e-07 -4.82739e-06
-7.44619e-07 -3.77992e-07 4.81119e-07 -1.59998e-05
-0.000196785 5.13843e-05 6.23146e-05 -2.50693e-05
-0.000198918 5.68484e-05 6.08869e-05 -3.15501e-05
0.000197611 -5.7822e-05 -5.99097e-05 -3.15887e-05
0.000195375 -5.22039e-05 -6.13593e-05 -2.51232e-05
-0.000198866 5.48385e-05 6.17261e-05 -2.94114e-05
-6.66995e-07 -4.99564e-07 4.99954e-07 -3.20808e-05
0.00019751 -5.57391e-05 -6.07589e-05 -2.94571e-05
-7.16725e-07 -4.24886e-07 4.89262e-07 -2.44861e-05
-6.91794e-07 -4.6491e-07 4.9573e-07 -2.97044e-05
-0.000198918 5.68484e-05 6.08869e-05 -3.15501e-05
-0.00019759 5.89468e-05 5.94187e-05 -3.224e-05
0.000196366 -6.00382e-05 -5.84264e-05 -3.22647e-05
0.000197611 -5.7822e-05 -5.99097e-05 -3.15887e-05
-0.000198105 5.819e-05 5.99634e-05 -3.2255e-05
-6.25332e-07 -5.57938e-07 5.07116e-07 -3.33764e-05
0.000196843 -5.92272e-05 -5.8978e-05 -3.22874e-05
-6.66995e-07 -4.99564e-07 4.99954e-07 -3.20808e-05
-6.44415e-07 -5.30779e-07 5.03654e-07 -3.30476e-05
-0.00019759 5.89468e-05 5.94187e-05 -3.224e-05
-0.000195935 5.88972e-05 5.87303e-05 -3.10955e-05
0.000194769 -6.00696e-05 -5.77285e-05 -3.11058e-05
0.000196366 -6.00382e-05 -5.84264e-05 -3.22647e-05
-0.000196994 5.90982e-05 5.90983e-05 -3.17852e-05
-5.95424e-07 -5.97582e-07 5.11288e-07 -3.22521e-05
0.000195802 -6.02345e-05 -5.81005e-05 -3.18019e-05
-6.25332e-07 -5.57938e-07 5.07116e-07 -3.33764e-05
-6.09211e-07 -5.80003e-07 5.09663e-07 -3.30344e-05
-0.000195935 5.88972e-05 5.87303e-05 -3.10955e-05
-0.000193824 5.82721e-05 5.80937e-05 -2.96155e-05
0.000192697 -5.94925e-05 -5.70876e-05 -2.96163e-05
0.000194769 -6.00696e-05 -5.77285e-05 -3.11058e-05
-0.000194762 5.86091e-05 5.83511e-05 -3.03248e-05
-5.75369e-07 -6.2229e-07 5.13282e-07 -3.06608e-05
0.000193618 -5.98092e-05 -5.73465e-05 -3.033e-05
-5.95424e-07 -5.97582e-07 5.11288e-07 -3.22521e-05
-5.8415e-07 -6.11634e-07 5.12479e-07 -3.14034e-05
-0.000193824 5.82721e-05 5.80937e-05 -2.96155e-05
-0.000192108 5.74824e-05 5.76966e-05 -2.84406e-05
0.000191004 -5.87256e-05 -5.66907e-05 -2.84356e-05
0.000192697 -5.94925e-05 -5.70876e-05 -2.96163e-05
-0.000192985 5.78809e-05 5.79018e-05 -2.89844e-05
-5.63149e-07 -6.34018e-07 5.13072e-07 -2.93161e-05
0.000191871 -5.91153e-05 -5.68953e-05 -2.89816e-05
-5.75369e-07 -6.2229e-07 5.13282e-07 -3.06608e-05
-5.68549e-07 -6.29546e-07 5.13469e-07 -2.99587e-05
-0.000192108 5.74824e-05 5.76966e-05 -2.84406e-05
-0.00019054 5.68032e-05 5.73158e-05 -2.76273e-05
0.000189451 -5.80515e-05 -5.63139e-05 -2.76203e-05
0.000191004 -5.87256e-05 -5.66907e-05 -2.84356e-05
-0.000191268 5.71243e-05 5.749e-05 -2.79863e-05
-5.55587e-07 -6.37066e-07 5.11137e-07 -2.83807e-05
0.000190172 -5.83718e-05 -5.64857e-05 -2.798e-05
-5.63149e-07 -6.34018e-07 5.13072e-07 -2.93161e-05
-5.58922e-07 -6.36413e-07 5.12287e-07 -2.87875e-05
-0.00019054 5.68032e-05 5.73158e-05 -2.76273e-05
-0.000189227 5.62366e-05 5.69958e-05 -2.71274e-05
0.000188148 -5.74791e-05 -5.60008e-05 -2.71207e-05
0.000189451 -5.80515e-05 -5.63139e-05 -2.76203e-05
-0.000189876 5.65068e-05 5.71583e-05 -2.73459e-05
-5.50468e-07 -6.3425e-07 5.07736e-07 -2.77916e-05
0.000188792 -5.77533e-05 -5.61595e-05 -2.73388e-05
-5.55587e-07 -6.37066e-07 5.11137e-07 -2.83807e-05
-5.52861e-07 -6.36222e-07 5.09607e-07 -2.80537e-05
-0.000189227 5.62366e-05 5.69958e-05 -2.71274e-05
-0.000188023 5.57773e-05 5.66768e-05 -2.68364e-05
0.000186953 -5.70078e-05 -5.56907e-05 -2.68314e-05
0.000188148 -5.74791e-05 -5.60008e-05 -2.71207e-05
-0.000188605 5.59954e-05 5.68327e-05 -2.69603e-05
-5.46114e-07 -6.28211e-07 5.03282e-07 -2.74495e-05
0.00018753 -5.72325e-05 -5.58419e-05 -2.69544e-05
-5.50468e-07 -6.3425e-07 5.07736e-07 -2.77916e-05
-5.48266e-07 -6.31513e-07 5.05619e-07 -2.75936e-05
-0.000188023 5.57773e-05 5.66768e-05 -2.68364e-05
-0.000186917 5.53866e-05 5.63702e-05 -2.66785e-05
0.000185856 -5.66021e-05 -5.53946e-05 -2.66756e-05
0.000186953 -5.70078e-05 -5.56907e-05 -2.68314e-05
-0.000187466 5.55753e-05 5.65245e-05 -2.67453e-05
-5.416e-07 -6.20524e-07 4.98053e-07 -2.72613e-05
0.0001864 -5.67985e-05 -5.55435e-05 -2.67413e-05
-5.46114e-07 -6.28211e-07 5.03282e-07 -2.74495e-05
-5.43921e-07 -6.24496e-07 5.0075e-07 -2.73418e-05
-0.000186917 5.53866e-05 5.63702e-05 -2.66785e-05
-0.000185852 5.50407e-05 5.6062e-05 -2.65965e-05
0.000184802 -5.62401e-05 -5.50978e-05 -2.65957e-05
0.000185856 -5.66021e-05 -5.53946e-05 -2.66756e-05
-0.000186379 5.52093e-05 5.62155e-05 -2.66305e-05
-5.36445e-07 -6.12303e-07 4.9232e-07 -2.71641e-05
0.000185323 -5.64168e-05 -5.52454e-05 -2.66286e-05
-5.416e-07 -6.20524e-07 4.98053e-07 -2.72613e-05
-5.39119e-07 -6.16434e-07 4.95237e-07 -2.72039e-05
-0.000185852 5.50407e-05 5.6062e-05 -2.65965e-05
-0.000184816 5.47194e-05 5.57556e-05 -2.65566e-05
0.000183777 -5.5903e-05 -5.48033e-05 -2.65576e-05
0.000184802 -5.62401e-05 -5.50978e-05 -2.65957e-05
-0.000185333 5.48778e-05 5.59092e-05 -2.65729e-05
-5.30494e-07 -6.04122e-07 4.86264e-07 -2.71165e-05
0.000184288 -5.60693e-05 -5.49509e-05 -2.65731e-05
-5.36445e-07 -6.12303e-07 4.9232e-07 -2.71641e-05
-5.33572e-07 -6.08184e-07 4.89324e-07 -2.71362e-05
-0.000184816 5.47194e-05 5.57556e-05 -2.65566e-05
-0.000183791 5.44119e-05 5.5448e-05 -2.65381e-05
0.000182766 -5.55803e-05 -5.45081e-05 -2.65407e-05
0.000183777 -5.5903e-05 -5.48033e-05 -2.65576e-05
-0.000184302 5.45645e-05 5.56017e-05 -2.65455e-05
-5.23767e-07 -5.96296e-07 4.80027e-07 -2.70949e-05
0.00018327 -5.57403e-05 -5.46556e-05 -2.65474e-05
-5.30494e-07 -6.04122e-07 4.86264e-07 -2.71165e-05
-5.27223e-07 -6.00155e-07 4.83162e-07 -2.71034e-05
-0.000183791 5.44119e-05 5.5448e-05 -2.65381e-05
-0.000182772 5.41109e-05 5.51405e-05 -2.65304e-05
0.000181762 -5.5265e-05 -5.4213e-05 -2.65342e-05
0.000182766 -5.55803e-05 -5.45081e-05 -2.65407e-05
-0.000183281 5.42608e-05 5.52944e-05 -2.65334e-05
-5.16372e-07 -5.88928e-07 4.737e-07 -2.70858e-05
0.000182263 -5.5422e-05 -5.43606e-05 -2.65366e-05
-5.23767e-07 -5.96296e-07 4.80027e-07 -2.70949e-05
-5.20145e-07 -5.92553e-07 4.7687e-07 -2.70894e-05
-0.000182772 5.41109e-05 5.51405e-05 -2.65304e-05
-0.000181755 5.3813e-05 5.48325e-05 -2.65274e-05
0.000180761 -5.49537e-05 -5.39175e-05 -2.65321e-05
0.000181762 -5.5265e-05 -5.4213e-05 -2.65342e-05
-0.000182263 5.39617e-05 5.49865e-05 -2.65285e-05
-5.08445e-07 -5.82025e-07 4.67344e-07 -2.70826e-05
0.000181261 -5.5109e-05 -5.40652e-05 -2.65328e-05
-5.16372e-07 -5.88928e-07 4.737e-07 -2.70858e-05
-5.12466e-07 -5.8542e-07 4.70523e-07 -2.70838e-05
-0.000181755 5.3813e-05 5.48325e-05 -2.65274e-05
-0.00018074 5.35163e-05 5.45244e-05 -2.65266e-05
0.000179762 -5.46444e-05 -5.36219e-05 -2.65319e-05
0.000180761 -5.49537e-05 -5.39175e-05 -2.65321e-05
-0.000181248 5.36646e-05 5.46785e-05 -2.65269e-05
-5.00122e-07 -5.75537e-07 4.60997e-07 -2.70819e-05
0.000180262 -5.47989e-05 -5.37697e-05 -2.65319e-05
-5.08445e-07 -5.82025e-07 4.67344e-07 -2.70826e-05
-5.04325e-07 -5.78733e-07 4.64168e-07 -2.70821e-05
-0.00018074 5.35163e-05 5.45244e-05 -2.65266e-05
-0.000179724 5.32199e-05 5.42162e-05 -2.65265e-05
0.000178764 -5.43361e-05 -5.33261e-05 -2.65322e-05
0.000179762 -5.46444e-05 -5.36219e-05 -2.65319e-05
-0.000180232 5.33681e-05 5.43703e-05 -2.65265e-05
-4.91524e-07 -5.69397e-07 4.5468e-07 -2.7082e-05
0.000179263 -5.44902e-05 -5.3474e-05 -2.6532e-05
-5.00122e-07 -5.75537e-07 4.60997e-07 -2.70819e-05
-4.95851e-07 -5.72428e-07 4.57834e-07 -2.70819e-05
-0.000179724 5.32199e-05 5.42162e-05 -2.65265e-05
-0.000178709 5.29235e-05 5.39079e-05 -2.65267e-05
0.000177765 -5.40282e-05 -5.30302e-05 -2.65327e-05
0.000178764 -5.43361e-05 -5.33261e-05 -2.65322e-05
-0.000179217 5.30717e-05 5.40621e-05 -2.65266e-05
-4.82745e-07 -5.63531e-07 4.48404e-07 -2.70823e-05
0.000178265 -5.41821e-05 -5.31782e-05 -2.65325e-05
-4.91524e-07 -5.69397e-07 4.5468e-07 -2.7082e-05
-4.87152e-07 -5.66434e-07 4.51537e-07 -2.70821e-05
-0.000178709 5.29235e-05 5.39079e-05 -2.65267e-05
-0.000177693 5.26269e-05 5.35997e-05 -2.65269e-05
0.000176767 -5.37207e-05 -5.27342e-05 -2.6533e-05
0.000177765 -5.40282e-05 -5.30302e-05 -2.65327e-05
-0.000178201 5.27752e-05 5.37538e-05 -2.65268e-05
-4.73861e-07 -5.57878e-07 4.42174e-07 -2.70826e-05
0.000177266 -5.38744e-05 -5.28822e-05 -2.65328e-05
-4.82745e-07 -5.63531e-07 4.48404e-07 -2.70823e-05
-4.78312e-07 -5.60682e-07 4.45283e-07 -2.70824e-05
-0.000177693 5.26269e-05 5.35997e-05 -2.65269e-05
-0.000176677 5.23302e-05 5.32915e-05 -2.6527e-05
0.000175769 -5.34132e-05 -5.24382e-05 -2.65332e-05
0.000176767 -5.37207e-05 -5.27342e-05 -2.6533e-05
-0.000177185 5.24786e-05 5.34456e-05 -2.65269e-05
-4.64925e-07 -5.52384e-07 4.3599e-07 -2.70828e-05
0.000176268 -5.35669e-05 -5.25862e-05 -2.65331e-05
-4.73861e-07 -5.57878e-07 4.42174e-07 -2.70826e-05
-4.69397e-07 -5.55114e-07 4.39076e-07 -2.70827e-05
-0.000176677 5.23302e-05 5.32915e-05 -2.6527e-05
-0.000175661 5.20333e-05 5.29834e-05 -2.65271e-05
0.000174771 -5.31059e-05 -5.21421e-05 -2.65333e-05
0.000175769 -5.34132e-05 -5.24382e-05 -2.65332e-05
-0.000176169 5.21818e-05 5.31374e-05 -2.65271e-05
-4.55977e-07 -5.47008e-07 4.29851e-07 -2.70829e-05
0.00017527 -5.32595e-05 -5.22902e-05 -2.65332e-05
-4.64925e-07 -5.52384e-07 4.3599e-07 -2.70828e-05
-4.60451e-07 -5.49683e-07 4.32915e-07 -2.70828e-05
-0.000175661 5.20333e-05 5.29834e-05 -2.65271e-05
-0.000174645 5.17364e-05 5.26753e-05 -2.65271e-05
0.000173773 -5.27986e-05 -5.1846e-05 -2.65333e-05
0.000174771 -5.31059e-05 -5.21421e-05 -2.65333e-05
-0.000175153 5.18849e-05 5.28293e-05 -2.65271e-05
-4.47042e-07 -5.41721e-07 4.23755e-07 -2.70829e-05
0.000174272 -5.29522e-05 -5.19941e-05 -2.65333e-05
-4.55977e-07 -5.47008e-07 4.29851e-07 -2.70829e-05
-4.51506e-07 -5.44355e-07 4.26798e-07 -2.70829e-05
-0.000174645 5.17364e-05 5.26753e-05 -2.65271e-05
-0.000173629 5.14393e-05 5.23672e-05 -2.65272e-05
0.000172774 -5.24913e-05 -5.15498e-05 -2.65333e-05
0.000173773 -5.27986e-05 -5.1846e-05 -2.65333e-05
-0.000174137 5.15879e-05 5.25212e-05 -2.65272e-05
-4.38137e-07 -5.365e-07 4.17702e-07 -2.7083e-05
0.000173273 -5.2645e-05 -5.16979e-05 -2.65333e-05
-4.47042e-07 -5.41721e-07 4.23755e-07 -2.70829e-05
-4.42585e-07 -5.39103e-07 4.20723e-07 -2.70829e-05
-0.000173629 5.14393e-05 5.23672e-05 -2.65272e-05
-0.000172614 5.11422e-05 5.20591e-05 -2.65272e-05
0.000171776 -5.21841e-05 -5.12536e-05 -2.65333e-05
0.000172774 -5.24913e-05 -5.15498e-05 -2.65333e-05
-0.000173121 5.12908e-05 5.22132e-05 -2.65272e-05
-4.29273e-07 -5.3133e-07 4.11687e-07 -2.70829e-05
0.000172275 -5.23377e-05 -5.14017e-05 -2.65333e-05
-4.38137e-07 -5.365e-07 4.17702e-07 -2.7083e-05
-4.33699e-07 -5.33909e-07 4.14689e-07 -2.7083e-05
-0.000172614 5.11422e-05 5.20591e-05 -2.65272e-05
-0.000171598 5.08451e-05 5.17511e-05 -2.65272e-05
0.000170777 -5.1877e-05 -5.09573e-05 -2.65333e-05
0.000171776 -5.21841e-05 -5.12536e-05 -2.65333e-05
-0.000172106 5.09936e-05 5.19051e-05 -2.65272e-05
-4.20456e-07 -5.26202e-07 4.05711e-07 -2.70829e-05
0.000171277 -5.20305e-05 -5.11055e-05 -2.65333e-05
-4.29273e-07 -5.3133e-07 4.11687e-07 -2.70829e-05
-4.24859e-07 -5.28761e-07 4.08694e-07 -2.70829e-05
-0.000171598 5.08451e-05 5.17511e-05 -2.65272e-05
-0.000170582 5.05479e-05 5.14432e-05 -2.65272e-05
0.000169779 -5.15698e-05 -5.0661e-05 -2.65332e-05
0.000170777 -5.1877e-05 -5.09573e-05 -2.65333e-05
-0.00017109 5.06965e-05 5.15972e-05 -2.65272e-05
-4.11691e-07 -5.21108e-07 3.99771e-07 -2.70829e-05
0.000170278 -5.17234e-05 -5.08092e-05 -2.65332e-05
-4.20456e-07 -5.26202e-07 4.05711e-07 -2.70829e-05
-4.16067e-07 -5.23651e-07 4.02736e-07 -2.70829e-05
-0.000170582 5.05479e-05 5.14432e-05 -2.65272e-05
-0.000169566 5.02506e-05 5.11352e-05 -2.65272e-05
0.00016878 -5.12627e-05 -5.03647e-05 -2.65332e-05
0.000169779 -5.15698e-05 -5.0661e-05 -2.65332e-05
-0.000170074 5.03993e-05 5.12892e-05 -2.65272e-05
-4.02977e-07 -5.16045e-07 3.93867e-07 -2.70829e-05
0.00016928 -5.14163e-05 -5.05129e-05 -2.65332e-05
-4.11691e-07 -5.21108e-07 3.99771e-07 -2.70829e-05
-4.07327e-07 -5.18573e-07 3.96814e-07 -2.70829e-05
-0.000169566 5.02506e-05 5.11352e-05 -2.65272e-05
-0.000168551 4.99534e-05 5.08273e-05 -2.65271e-05
0.000167782 -5.09556e-05 -5.00683e-05 -2.65331e-05
0.00016878 -5.12627e-05 -5.03647e-05 -2.65332e-05
-0.000169058 5.0102e-05 5.09813e-05 -2.65271e-05
-3.94316e-07 -5.11011e-07 3.87998e-07 -2.70828e-05
0.000168281 -5.11092e-05 -5.02165e-05 -2.65331e-05
-4.02977e-07 -5.16045e-07 3.93867e-07 -2.70829e-05
-3.9864e-07 -5.13525e-07 3.90928e-07 -2.70828e-05
-0.000168551 4.99534e-05 5.08273e-05 -2.65271e-05
-0.000167535 4.96561e-05 5.05195e-05 -2.65271e-05
0.000166783 -5.06486e-05 -4.97719e-05 -2.6533e-05
0.000167782 -5.09556e-05 -5.00683e-05 -2.65331e-05
-0.000168043 4.98047e-05 5.06734e-05 -2.65271e-05
-3.85709e-07 -5.06005e-07 3.82163e-07 -2.70828e-05
0.000167282 -5.08021e-05 -4.99201e-05 -2.65331e-05
-3.94316e-07 -5.11011e-07 3.87998e-07 -2.70828e-05
-3.90006e-07 -5.08505e-07 3.85076e-07 -2.70828e-05
-0.000167535 4.96561e-05 5.05195e-05 -2.65271e-05
-0.000166519 4.93588e-05 5.02117e-05 -2.65271e-05
0.000165784 -5.03415e-05 -4.94755e-05 -2.6533e-05
0.000166783 -5.06486e-05 -4.97719e-05 -2.6533e-05
-0.000167027 4.95075e-05 5.03656e-05 -2.65271e-05
-3.77153e-07 -5.01027e-07 3.76363e-07 -2.70828e-05
0.000166284 -5.04951e-05 -4.96237e-05 -2.6533e-05
-3.85709e-07 -5.06005e-07 3.82163e-07 -2.70828e-05
-3.81424e-07 -5.03513e-07 3.79259e-07 -2.70828e-05
-0.000166519 4.93588e-05 5.02117e-05 -2.65271e-05
-0.000165504 4.90615e-05 4.99039e-05 -2.65271e-05
0.000164786 -5.00345e-05 -4.91791e-05 -2.65329e-05
0.000165784 -5.03415e-05 -4.94755e-05 -2.6533e-05
-0.000166012 4.92101e-05 5.00578e-05 -2.65271e-05
-3.6865e-07 -4.96076e-07 3.70597e-07 -2.70827e-05
0.000165285 -5.0188e-05 -4.93273e-05 -2.6533e-05
-3.77153e-07 -5.01027e-07 3.76363e-07 -2.70828e-05
-3.72895e-07 -4.98548e-07 3.73475e-07 -2.70827e-05
-0.000165504 4.90615e-05 4.99039e-05 -2.65271e-05
-0.000164488 4.87641e-05 4.95961e-05 -2.65271e-05
0.000163787 -4.97276e-05 -4.88826e-05 -2.65329e-05
0.000164786 -5.00345e-05 -4.91791e-05 -2.65329e-05
-0.000164996 4.89128e-05 4.975e-05 -2.65271e-05
-3.60198e-07 -4.91152e-07 3.64864e-07 -2.70827e-05
0.000164286 -4.98811e-05 -4.90308e-05 -2.65329e-05
-3.6865e-07 -4.96076e-07 3.70597e-07 -2.70827e-05
-3.64418e-07 -4.9361e-07 3.67726e-07 -2.70827e-05
-0.000164488 4.87641e-05 4.95961e-05 -2.65271e-05
-0.000163473 4.84667e-05 4.92884e-05 -2.6527e-05
0.000162788 -4.94206e-05 -4.8586e-05 -2.65328e-05
0.000163787 -4.97276e-05 -4.88826e-05 -2.65329e-05
-0.000163981 4.86154e-05 4.94422e-05 -2.65271e-05
-3.51798e-07 -4.86256e-07 3.59166e-07 -2.70826e-05
0.000163287 -4.95741e-05 -4.87343e-05 -2.65328e-05
-3.60198e-07 -4.91152e-07 3.64864e-07 -2.70827e-05
-3.55992e-07 -4.887e-07 3.62011e-07 -2.70827e-05
-0.000163473 4.84667e-05 4.92884e-05 -2.6527e-05
-0.000162458 4.81693e-05 4.89807e-05 -2.6527e-05
0.000161789 -4.91137e-05 -4.82895e-05 -2.65328e-05
0.000162788 -4.94206e-05 -4.8586e-05 -2.65328e-05
-0.000162965 4.8318e-05 4.91345e-05 -2.6527e-05
-3.43449e-07 -4.81388e-07 3.53501e-07 -2.70826e-05
0.000162289 -4.92672e-05 -4.84378e-05 -2.65328e-05
-3.51798e-07 -4.86256e-07 3.59166e-07 -2.70826e-05
-3.47617e-07 -4.83818e-07 3.56329e-07 -2.70826e-05
-0.000162458 4.81693e-05 4.89807e-05 -2.6527e-05
-0.000161442 4.78719e-05 4.8673e-05 -2.6527e-05
0.00016079 -4.88068e-05 -4.79929e-05 -2.65327e-05
0.000161789 -4.91137e-05 -4.82895e-05 -2.65328e-05
-0.00016195 4.80206e-05 4.88269e-05 -2.6527e-05
-3.3515e-07 -4.76548e-07 3.47871e-07 -2.70826e-05
0.00016129 -4.89602e-05 -4.81412e-05 -2.65327e-05
-3.43449e-07 -4.81388e-07 3.53501e-07 -2.70826e-05
-3.39293e-07 -4.78964e-07 3.50682e-07 -2.70826e-05
-0.000161442 4.78719e-05 4.8673e-05 -2.6527e-05
-0.000160427 4.75744e-05 4.83654e-05 -2.6527e-05
0.000159791 -4.84999e-05 -4.76963e-05 -2.65326e-05
0.00016079 -4.88068e-05 -4.79929e-05 -2.65327e-05
-0.000160935 4.77231e-05 4.85192e-05 -2.6527e-05
-3.26903e-07 -4.71736e-07 3.42274e-07 -2.70825e-05
0.000160291 -4.86534e-05 -4.78446e-05 -2.65327e-05
-3.3515e-07 -4.76548e-07 3.47871e-07 -2.70826e-05
-3.3102e-07 -4.74138e-07 3.45068e-07 -2.70825e-05
-0.000160427 4.75744e-05 4.83654e-05 -2.6527e-05
-0.000159412 4.72769e-05 4.80578e-05 -2.6527e-05
0.000158792 -4.81931e-05 -4.73996e-05 -2.65326e-05
0.000159791 -4.84999e-05 -4.76963e-05 -2.65326e-05
-0.000159919 4.74257e-05 4.82116e-05 -2.6527e-05
-3.18706e-07 -4.66953e-07 3.36711e-07 -2.70825e-05
0.000159292 -4.83465e-05 -4.75479e-05 -2.65326e-05
-3.26903e-07 -4.71736e-07 3.42274e-07 -2.70825e-05
-3.22798e-07 -4.69341e-07 3.39488e-07 -2.70825e-05
-0.000159412 4.72769e-05 4.80578e-05 -2.6527e-05
-0.000158397 4.69794e-05 4.77503e-05 -2.65269e-05
0.000157793 -4.78863e-05 -4.71029e-05 -2.65325e-05
0.000158792 -4.81931e-05 -4.73996e-05 -2.65326e-05
-0.000158904 4.71281e-05 4.7904e-05 -2.65269e-05
-3.10559e-07 -4.62198e-07 3.31182e-07 -2.70824e-05
0.000158293 -4.80397e-05 -4.72513e-05 -2.65326e-05
-3.18706e-07 -4.66953e-07 3.36711e-07 -2.70825e-05
-3.14626e-07 -4.64572e-07 3.33942e-07 -2.70825e-05
-0.000158397 4.69794e-05 4.77503e-05 -2.65269e-05
-0.000157382 4.66818e-05 4.74427e-05 -2.65269e-05
0.000156794 -4.75795e-05 -4.68062e-05 -2.65325e-05
0.000157793 -4.78863e-05 -4.71029e-05 -2.65325e-05
-0.000157889 4.68306e-05 4.75965e-05 -2.65269e-05
-3.02463e-07 -4.57472e-07 3.25687e-07 -2.70824e-05
0.000157294 -4.77329e-05 -4.69546e-05 -2.65325e-05
-3.10559e-07 -4.62198e-07 3.31182e-07 -2.70824e-05
-3.06505e-07 -4.59832e-07 3.2843e-07 -2.70824e-05
-0.000157382 4.66818e-05 4.74427e-05 -2.65269e-05
-0.000156367 4.63843e-05 4.71353e-05 -2.65269e-05
0.000155795 -4.72728e-05 -4.65094e-05 -2.65324e-05
0.000156794 -4.75795e-05 -4.68062e-05 -2.65325e-05
-0.000156874 4.6533e-05 4.7289e-05 -2.65269e-05
-2.94417e-07 -4.52775e-07 3.20225e-07 -2.70823e-05
0.000156294 -4.74261e-05 -4.66578e-05 -2.65324e-05
-3.02463e-07 -4.57472e-07 3.25687e-07 -2.70824e-05
-2.98434e-07 -4.5512e-07 3.22952e-07 -2.70824e-05
-0.000156367 4.63843e-05 4.71353e-05 -2.65269e-05
-0.000155352 4.60867e-05 4.68278e-05 -2.65269e-05
0.000154796 -4.69661e-05 -4.62126e-05 -2.65323e-05
0.000155795 -4.72728e-05 -4.65094e-05 -2.65324e-05
-0.000155859 4.62355e-05 4.69815e-05 -2.65269e-05
-2.86422e-07 -4.48107e-07 3.14798e-07 -2.70823e-05
0.000155295 -4.71194e-05 -4.6361e-05 -2.65324e-05
-2.94417e-07 -4.52775e-07 3.20225e-07 -2.70823e-05
-2.90413e-07 -4.50438e-07 3.17508e-07 -2.70823e-05
-0.000155352 4.60867e-05 4.68278e-05 -2.65269e-05
-0.000154337 4.5789e-05 4.65204e-05 -2.65268e-05
0.000153796 -4.66594e-05 -4.59158e-05 -2.65323e-05
0.000154796 -4.69661e-05 -4.62126e-05 -2.65323e-05
-0.000154844 4.59378e-05 4.66741e-05 -2.65268e-05
-2.78477e-07 -4.43468e-07 3.09405e-07 -2.70823e-05
0.000154296 -4.68127e-05 -4.60642e-05 -2.65323e-05
-2.86422e-07 -4.48107e-07 3.14798e-07 -2.70823e-05
-2.82444e-07 -4.45784e-07 3.12098e-07 -2.70823e-05
-0.000154337 4.5789e-05 4.65204e-05 -2.65268e-05
-0.000153322 4.54914e-05 4.6213e-05 -2.65268e-05
0.000152797 -4.63527e-05 -4.5619e-05 -2.65322e-05
0.000153796 -4.66594e-05 -4.59158e-05 -2.65323e-05
-0.000153829 4.56402e-05 4.63667e-05 -2.65268e-05
-2.70583e-07 -4.38858e-07 3.04046e-07 -2.70822e-05
0.000153297 -4.6506e-05 -4.57674e-05 -2.65322e-05
-2.78477e-07 -4.43468e-07 3.09405e-07 -2.70823e-05
-2.74524e-07 -4.41159e-07 3.06721e-07 -2.70822e-05
-0.000153322 4.54914e-05 4.6213e-05 -2.65268e-05
-0.000152307 4.51937e-05 4.59056e-05 -2.65268e-05
0.000151798 -4.60461e-05 -4.53221e-05 -2.65321e-05
0.000152797 -4.63527e-05 -4.5619e-05 -2.65322e-05
-0.000152814 4.53425e-05 4.60593e-05 -2.65268e-05
-2.6274e-07 -4.34277e-07 2.98721e-07 -2.70822e-05
0.000152297 -4.61994e-05 -4.54705e-05 -2.65322e-05
-2.70583e-07 -4.38858e-07 3.04046e-07 -2.70822e-05
-2.66655e-07 -4.36564e-07 3.01379e-07 -2.70822e-05
-0.000152307 4.51937e-05 4.59056e-05 -2.65268e-05
-0.000151292 4.4896e-05 4.55983e-05 -2.65267e-05
0.000150798 -4.57395e-05 -4.50252e-05 -2.65321e-05
0.000151798 -4.60461e-05 -4.53221e-05 -2.65321e-05
-0.000151799 4.50448e-05 4.5752e-05 -2.65268e-05
-2.54947e-07 -4.29724e-07 2.9343e-07 -2.70821e-05
0.000151298 -4.58928e-05 -4.51736e-05 -2.65321e-05
-2.6274e-07 -4.34277e-07 2.98721e-07 -2.70822e-05
-2.58837e-07 -4.31997e-07 2.96072e-07 -2.70821e-05
-0.000151292 4.4896e-05 4.55983e-05 -2.65267e-05
-0.000150277 4.45982e-05 4.5291e-05 -2.65267e-05
0.000149799 -4.54329e-05 -4.47282e-05 -2.6532e-05
0.000150798 -4.57395e-05 -4.50252e-05 -2.65321e-05
-0.000150785 4.47471e-05 4.54447e-05 -2.65267e-05
-2.47204e-07 -4.25201e-07 2.88174e-07 -2.70821e-05
0.000150298 -4.55862e-05 -4.48767e-05 -2.65321e-05
-2.54947e-07 -4.29724e-07 2.9343e-07 -2.70821e-05
-2.51069e-07 -4.27459e-07 2.90798e-07 -2.70821e-05
-0.000150277 4.45982e-05 4.5291e-05 -2.65267e-05
-0.000149263 4.43004e-05 4.49838e-05 -2.65267e-05
0.000148799 -4.51263e-05 -4.44312e-05 -2.6532e-05
0.000149799 -4.54329e-05 -4.47282e-05 -2.6532e-05
-0.00014977 4.44493e-05 4.51374e-05 -2.65267e-05
-2.39512e-07 -4.20707e-07 2.82951e-07 -2.7082e-05
0.000149299 -4.52796e-05 -4.45797e-05 -2.6532e-05
-2.47204e-07 -4.25201e-07 2.88174e-07 -2.70821e-05
-2.43352e-07 -4.2295e-07 2.85558e-07 -2.7082e-05
-0.000149263 4.43004e-05 4.49838e-05 -2.65267e-05
-0.000148248 4.40026e-05 4.46766e-05 -2.65267e-05
0.0001478 -4.48198e-05 -4.41342e-05 -2.65319e-05
0.000148799 -4.51263e-05 -4.44312e-05 -2.6532e-05
-0.000148755 4.41515e-05 4.48302e-05 -2.65267e-05
-2.31871e-07 -4.16242e-07 2.77763e-07 -2.7082e-05
0.000148299 -4.49731e-05 -4.42827e-05 -2.65319e-05
-2.39512e-07 -4.20707e-07 2.82951e-07 -2.7082e-05
-2.35685e-07 -4.18471e-07 2.80353e-07 -2.7082e-05
-0.000148248 4.40026e-05 4.46766e-05 -2.65267e-05
-0.000147233 4.37048e-05 4.43694e-05 -2.65266e-05
0.0001468 -4.45133e-05 -4.38371e-05 -2.65318e-05
0.0001478 -4.48198e-05 -4.41342e-05 -2.65319e-05
-0.000147741 4.38537e-05 4.4523e-05 -2.65266e-05
-2.2428e-07 -4.11806e-07 2.72608e-07 -2.70819e-05
0.0001473 -4.46666e-05 -4.39857e-05 -2.65319e-05
-2.31871e-07 -4.16242e-07 2.77763e-07 -2.7082e-05
-2.28069e-07 -4.1402e-07 2.75181e-07 -2.70819e-05
-0.000147233 4.37048e-05 4.43694e-05 -2.65266e-05
-0.000146219 4.3407e-05 4.40622e-05 -2.65266e-05
0.0001458 -4.42069e-05 -4.35401e-05 -2.65318e-05
0.0001468 -4.45133e-05 -4.38371e-05 -2.65318e-05
-0.000146726 4.35559e-05 4.42158e-05 -2.65266e-05
-2.1674e-07 -4.07399e-07 2.67488e-07 -2.70819e-05
0.0001463 -4.43601e-05 -4.36886e-05 -2.65318e-05
-2.2428e-07 -4.11806e-07 2.72608e-07 -2.70819e-05
-2.20504e-07 -4.09599e-07 2.70044e-07 -2.70819e-05
-0.000146219 4.3407e-05 4.40622e-05 -2.65266e-05
-0.000145204 4.31091e-05 4.37551e-05 -2.65266e-05
0.000144801 -4.39004e-05 -4.32429e-05 -2.65317e-05
0.0001458 -4.42069e-05 -4.35401e-05 -2.65318e-05
-0.000145712 4.3258e-05 4.39087e-05 -2.65266e-05
-2.09251e-07 -4.03022e-07 2.62402e-07 -2.70818e-05
0.0001453 -4.40536e-05 -4.33915e-05 -2.65317e-05
-2.1674e-07 -4.07399e-07 2.67488e-07 -2.70819e-05
-2.12989e-07 -4.05207e-07 2.64941e-07 -2.70818e-05
-0.000145204 4.31091e-05 4.37551e-05 -2.65266e-05
-0.00014419 4.28112e-05 4.3448e-05 -2.65265e-05
0.000143801 -4.3594e-05 -4.29458e-05 -2.65316e-05
0.000144801 -4.39004e-05 -4.32429e-05 -2.65317e-05
-0.000144697 4.29601e-05 4.36016e-05 -2.65265e-05
-2.01812e-07 -3.98673e-07 2.57351e-07 -2.70818e-05
0.000144301 -4.37472e-05 -4.30944e-05 -2.65317e-05
-2.09251e-07 -4.03022e-07 2.62402e-07 -2.70818e-05
-2.05525e-07 -4.00844e-07 2.59872e-07 -2.70818e-05
-0.00014419 4.28112e-05 4.3448e-05 -2.65265e-05
-0.000143176 4.25132e-05 4.3141e-05 -2.65265e-05
0.000142801 -4.32876e-05 -4.26486e-05 -2.65315e-05
0.000143801 -4.3594e-05 -4.29458e-05 -2.65316e-05
-0.000143683 4.26622e-05 4.32945e-05 -2.65265e-05
-1.94424e-07 -3.94354e-07 2.52334e-07 -2.70817e-05
0.000143301 -4.34408e-05 -4.27972e-05 -2.65316e-05
-2.01812e-07 -3.98673e-07 2.57351e-07 -2.70818e-05
-1.98112e-07 -3.9651e-07 2.54838e-07 -2.70817e-05
-0.000143176 4.25132e-05 4.3141e-05 -2.65265e-05
-0.000142161 4.22153e-05 4.2834e-05 -2.65265e-05
0.000141801 -4.29813e-05 -4.23514e-05 -2.65315e-05
0.000142801 -4.32876e-05 -4.26486e-05 -2.65315e-05
-0.000142668 4.23643e-05 4.29875e-05 -2.65265e-05
-1.87087e-07 -3.90064e-07 2.47351e-07 -2.70817e-05
0.000142301 -4.31345e-05 -4.25e-05 -2.65315e-05
-1.94424e-07 -3.94354e-07 2.52334e-07 -2.70817e-05
-1.9075e-07 -3.92205e-07 2.49838e-07 -2.70817e-05
-0.000142161 4.22153e-05 4.2834e-05 -2.65265e-05
-0.000141147 4.19173e-05 4.2527e-05 -2.65264e-05
0.000140801 -4.2675e-05 -4.20541e-05 -2.65314e-05
0.000141801 -4.29813e-05 -4.23514e-05 -2.65315e-05
-0.000141654 4.20663e-05 4.26805e-05 -2.65264e-05
-1.79801e-07 -3.85803e-07 2.42402e-07 -2.70816e-05
0.000141301 -4.28281e-05 -4.22028e-05 -2.65314e-05
-1.87087e-07 -3.90064e-07 2.47351e-07 -2.70817e-05
-1.83438e-07 -3.8793e-07 2.44872e-07 -2.70816e-05
-0.000141147 4.19173e-05 4.2527e-05 -2.65264e-05
-0.000140133 4.16193e-05 4.22201e-05 -2.65264e-05
0.000139801 -4.23687e-05 -4.17569e-05 -2.65313e-05
0.000140801 -4.2675e-05 -4.20541e-05 -2.65314e-05
-0.00014064 4.17683e-05 4.23735e-05 -2.65264e-05
-1.72566e-07 -3.81572e-07 2.37487e-07 -2.70816e-05
0.000140301 -4.25218e-05 -4.19055e-05 -2.65314e-05
-1.79801e-07 -3.85803e-07 2.42402e-07 -2.70816e-05
-1.76177e-07 -3.83684e-07 2.3994e-07 -2.70816e-05
-0.000140133 4.16193e-05 4.22201e-05 -2.65264e-05
-0.000139119 4.13212e-05 4.19131e-05 -2.65264e-05
0.000138801 -4.20624e-05 -4.14595e-05 -2.65313e-05
0.000139801 -4.23687e-05 -4.17569e-05 -2.65313e-05
-0.000139626 4.14702e-05 4.20666e-05 -2.65264e-05
-1.65381e-07 -3.77369e-07 2.32607e-07 -2.70815e-05
0.000139301 -4.22156e-05 -4.16082e-05 -2.65313e-05
-1.72566e-07 -3.81572e-07 2.37487e-07 -2.70816e-05
-1.68967e-07 -3.79467e-07 2.35043e-07 -2.70815e-05
-0.000139119 4.13212e-05 4.19131e-05 -2.65264e-05
-0.000138104 4.10231e-05 4.16063e-05 -2.65263e-05
0.000137801 -4.17562e-05 -4.11622e-05 -2.65312e-05
0.000138801 -4.20624e-05 -4.14595e-05 -2.65313e-05
-0.000138611 4.11722e-05 4.17597e-05 -2.65263e-05
-1.58247e-07 -3.73196e-07 2.27762e-07 -2.70814e-05
0.000138301 -4.19093e-05 -4.13109e-05 -2.65312e-05
-1.65381e-07 -3.77369e-07 2.32607e-07 -2.70815e-05
-1.61808e-07 -3.75279e-07 2.3018e-07 -2.70815e-05
-0.000138104 4.10231e-05 4.16063e-05 -2.65263e-05
-0.00013709 4.0725e-05 4.12994e-05 -2.65263e-05
0.000136801 -4.145e-05 -4.08648e-05 -2.65311e-05
0.000137801 -4.17562e-05 -4.11622e-05 -2.65312e-05
-0.000137597 4.08741e-05 4.14528e-05 -2.65263e-05
-1.51165e-07 -3.69053e-07 2.2295e-07 -2.70814e-05
0.000137301 -4.16031e-05 -4.10135e-05 -2.65312e-05
-1.58247e-07 -3.73196e-07 2.27762e-07 -2.70814e-05
-1.547e-07 -3.71121e-07 2.25352e-07 -2.70814e-05
-0.00013709 4.0725e-05 4.12994e-05 -2.65263e-05
-0.000136076 4.04269e-05 4.09926e-05 -2.65263e-05
0.000135801 -4.11438e-05 -4.05674e-05 -2.65311e-05
0.000136801 -4.145e-05 -4.08648e-05 -2.65311e-05
-0.000136583 4.0576e-05 4.1146e-05 -2.65263e-05
-1.44133e-07 -3.64939e-07 2.18173e-07 -2.70813e-05
0.000136301 -4.12969e-05 -4.07161e-05 -2.65311e-05
-1.51165e-07 -3.69053e-07 2.2295e-07 -2.70814e-05
-1.47642e-07 -3.66992e-07 2.20558e-07 -2.70814e-05
-0.000136076 4.04269e-05 4.09926e-05 -2.65263e-05
-0.000135062 4.01287e-05 4.06859e-05 -2.65262e-05
0.000134801 -4.08377e-05 -4.02699e-05 -2.6531e-05
0.000135801 -4.11438e-05 -4.05674e-05 -2.65311e-05
-0.000135569 4.02778e-05 4.08392e-05 -2.65262e-05
-1.37152e-07 -3.60854e-07 2.13431e-07 -2.70813e-05
0.000135301 -4.09908e-05 -4.04187e-05 -2.6531e-05
-1.44133e-07 -3.64939e-07 2.18173e-07 -2.70813e-05
-1.40636e-07 -3.62893e-07 2.15798e-07 -2.70813e-05
-0.000135062 4.01287e-05 4.06859e-05 -2.65262e-05
-0.000134048 3.98305e-05 4.03791e-05 -2.65262e-05
0.000133801 -4.05316e-05 -3.99724e-05 -2.65309e-05
0.000134801 -4.08377e-05 -4.02699e-05 -2.6531e-05
-0.000134555 3.99796e-05 4.05325e-05 -2.65262e-05
-1.30222e-07 -3.56799e-07 2.08723e-07 -2.70812e-05
0.000134301 -4.06846e-05 -4.01212e-05 -2.6531e-05
-1.37152e-07 -3.60854e-07 2.13431e-07 -2.70813e-05
-1.3368e-07 -3.58823e-07 2.11073e-07 -2.70813e-05
-0.000134048 3.98305e-05 4.03791e-05 -2.65262e-05
-0.000133035 3.95323e-05 4.00724e-05 -2.65261e-05
0.0001328 -4.02255e-05 -3.96749e-05 -2.65308e-05
0.000133801 -4.05316e-05 -3.99724e-05 -2.65309e-05
-0.000133542 3.96814e-05 4.02258e-05 -2.65262e-05
-1.23342e-07 -3.52773e-07 2.04049e-07 -2.70812e-05
0.000133301 -4.03786e-05 -3.98237e-05 -2.65309e-05
-1.30222e-07 -3.56799e-07 2.08723e-07 -2.70812e-05
-1.26776e-07 -3.54782e-07 2.06382e-07 -2.70812e-05
-0.000133035 3.95323e-05 4.00724e-05 -2.65261e-05
-0.000132021 3.92341e-05 3.97657e-05 -2.65261e-05
0.0001318 -3.99195e-05 -3.93774e-05 -2.65308e-05
0.0001328 -4.02255e-05 -3.96749e-05 -2.65308e-05
-0.000132528 3.93832e-05 3.99191e-05 -2.65261e-05
-1.16514e-07 -3.48776e-07 1.9941e-07 -2.70811e-05
0.0001323 -4.00725e-05 -3.95262e-05 -2.65308e-05
-1.23342e-07 -3.52773e-07 2.04049e-07 -2.70812e-05
-1.19922e-07 -3.50771e-07 2.01725e-07 -2.70811e-05
-0.000132021 3.92341e-05 3.97657e-05 -2.65261e-05
-0.000131007 3.89358e-05 3.94591e-05 -2.65261e-05
0.0001308 -3.96134e-05 -3.90798e-05 -2.65307e-05
0.0001318 -3.99195e-05 -3.93774e-05 -2.65308e-05
-0.000131514 3.90849e-05 3.96124e-05 -2.65261e-05
-1.09737e-07 -3.44809e-07 1.94806e-07 -2.70811e-05
0.0001313 -3.97664e-05 -3.92286e-05 -2.65307e-05
-1.16514e-07 -3.48776e-07 1.9941e-07 -2.70811e-05
-1.13119e-07 -3.46789e-07 1.97104e-07 -2.70811e-05
-0.000131007 3.89358e-05 3.94591e-05 -2.65261e-05
-0.000129993 3.86375e-05 3.91525e-05 -2.6526e-05
0.000129799 -3.93074e-05 -3.87822e-05 -2.65306e-05
0.0001308 -3.96134e-05 -3.90798e-05 -2.65307e-05
-0.0001305 3.87867e-05 3.93058e-05 -2.65261e-05
-1.03011e-07 -3.40872e-07 1.90235e-07 -2.7081e-05
0.000130299 -3.94604e-05 -3.8931e-05 -2.65307e-05
-1.09737e-07 -3.44809e-07 1.94806e-07 -2.70811e-05
-1.06368e-07 -3.42837e-07 1.92516e-07 -2.7081e-05
-0.000129993 3.86375e-05 3.91525e-05 -2.6526e-05
-0.00012898 3.83392e-05 3.88459e-05 -2.6526e-05
0.000128799 -3.90015e-05 -3.84845e-05 -2.65306e-05
0.000129799 -3.93074e-05 -3.87822e-05 -2.65306e-05
-0.000129487 3.84883e-05 3.89992e-05 -2.6526e-05
-9.63362e-08 -3.36964e-07 1.857e-07 -2.70809e-05
0.000129299 -3.91545e-05 -3.86334e-05 -2.65306e-05
-1.03011e-07 -3.40872e-07 1.90235e-07 -2.7081e-05
-9.96673e-08 -3.38914e-07 1.87963e-07 -2.7081e-05
-0.00012898 3.83392e-05 3.88459e-05 -2.6526e-05
-0.000127966 3.80408e-05 3.85394e-05 -2.6526e-05
0.000127798 -3.86955e-05 -3.81868e-05 -2.65305e-05
0.000128799 -3.90015e-05 -3.84845e-05 -2.65306e-05
-0.000128473 3.819e-05 3.86927e-05 -2.6526e-05
-8.97122e-08 -3.33085e-07 1.81199e-07 -2.70809e-05
0.000128298 -3.88485e-05 -3.83357e-05 -2.65305e-05
-9.63362e-08 -3.36964e-07 1.857e-07 -2.70809e-05
-9.30178e-08 -3.35021e-07 1.83445e-07 -2.70809e-05
-0.000127966 3.80408e-05 3.85394e-05 -2.6526e-05
-0.000126953 3.77424e-05 3.82329e-05 -2.65259e-05
0.000126798 -3.83896e-05 -3.78891e-05 -2.65304e-05
0.000127798 -3.86955e-05 -3.81868e-05 -2.65305e-05
-0.000127459 3.78916e-05 3.83862e-05 -2.65259e-05
-8.31394e-08 -3.29236e-07 1.76732e-07 -2.70808e-05
0.000127298 -3.85426e-05 -3.8038e-05 -2.65304e-05
-8.97122e-08 -3.33085e-07 1.81199e-07 -2.70809e-05
-8.64195e-08 -3.31157e-07 1.78961e-07 -2.70809e-05
-0.000126953 3.77424e-05 3.82329e-05 -2.65259e-05
-0.000125939 3.7444e-05 3.79265e-05 -2.65259e-05
0.000125797 -3.80838e-05 -3.75914e-05 -2.65303e-05
0.000126798 -3.83896e-05 -3.78891e-05 -2.65304e-05
-0.000126446 3.75932e-05 3.80797e-05 -2.65259e-05
-7.66177e-08 -3.25417e-07 1.723e-07 -2.70808e-05
0.000126297 -3.82367e-05 -3.77403e-05 -2.65304e-05
-8.31394e-08 -3.29236e-07 1.76732e-07 -2.70808e-05
-7.98722e-08 -3.27323e-07 1.74512e-07 -2.70808e-05
-0.000125939 3.7444e-05 3.79265e-05 -2.65259e-05
-0.000124926 3.71456e-05 3.762e-05 -2.65258e-05
0.000124796 -3.77779e-05 -3.72936e-05 -2.65303e-05
0.000125797 -3.80838e-05 -3.75914e-05 -2.65303e-05
-0.000125432 3.72948e-05 3.77732e-05 -2.65259e-05
-7.01471e-08 -3.21627e-07 1.67903e-07 -2.70807e-05
0.000125297 -3.79308e-05 -3.74425e-05 -2.65303e-05
-7.66177e-08 -3.25417e-07 1.723e-07 -2.70808e-05
-7.3376e-08 -3.23518e-07 1.70098e-07 -2.70808e-05
-0.000124926 3.71456e-05 3.762e-05 -2.65258e-05
-0.000123912 3.68471e-05 3.73136e-05 -2.65258e-05
0.000123796 -3.74721e-05 -3.69958e-05 -2.65302e-05
0.000124796 -3.77779e-05 -3.72936e-05 -2.65303e-05
-0.000124419 3.69963e-05 3.74668e-05 -2.65258e-05
-6.37277e-08 -3.17867e-07 1.63541e-07 -2.70807e-05
0.000124296 -3.7625e-05 -3.71447e-05 -2.65302e-05
-7.01471e-08 -3.21627e-07 1.67903e-07 -2.70807e-05
-6.6931e-08 -3.19743e-07 1.65718e-07 -2.70807e-05
-0.000123912 3.68471e-05 3.73136e-05 -2.65258e-05
-0.000122899 3.65486e-05 3.70073e-05 -2.65258e-05
0.000122795 -3.71663e-05 -3.66979e-05 -2.65301e-05
0.000123796 -3.74721e-05 -3.69958e-05 -2.65302e-05
-0.000123406 3.66978e-05 3.71605e-05 -2.65258e-05
-5.73595e-08 -3.14136e-07 1.59212e-07 -2.70806e-05
0.000123295 -3.73192e-05 -3.68469e-05 -2.65302e-05
-6.37277e-08 -3.17867e-07 1.63541e-07 -2.70807e-05
-6.05372e-08 -3.15998e-07 1.61372e-07 -2.70806e-05
-0.000122899 3.65486e-05 3.70073e-05 -2.65258e-05
-0.000121886 3.62501e-05 3.6701e-05 -2.65257e-05
0.000121794 -3.68606e-05 -3.64001e-05 -2.653e-05
0.000122795 -3.71663e-05 -3.66979e-05 -2.65301e-05
-0.000122392 3.63993e-05 3.68541e-05 -2.65258e-05
-5.10424e-08 -3.10435e-07 1.54919e-07 -2.70806e-05
0.000122294 -3.70134e-05 -3.6549e-05 -2.65301e-05
-5.73595e-08 -3.14136e-07 1.59212e-07 -2.70806e-05
-5.41946e-08 -3.12282e-07 1.57061e-07 -2.70806e-05
-0.000121886 3.62501e-05 3.6701e-05 -2.65257e-05
-0.000120872 3.59515e-05 3.63947e-05 -2.65257e-05
0.000120793 -3.65548e-05 -3.61021e-05 -2.653e-05
0.000121794 -3.68606e-05 -3.64001e-05 -2.653e-05
-0.000121379 3.61008e-05 3.65478e-05 -2.65257e-05
-4.47766e-08 -3.06764e-07 1.5066e-07 -2.70805e-05
0.000121294 -3.67077e-05 -3.62511e-05 -2.653e-05
-5.10424e-08 -3.10435e-07 1.54919e-07 -2.70806e-05
-4.79031e-08 -3.08596e-07 1.52785e-07 -2.70805e-05
-0.000120872 3.59515e-05 3.63947e-05 -2.65257e-05
-0.000119859 3.56529e-05 3.60884e-05 -2.65257e-05
0.000119792 -3.62491e-05 -3.58042e-05 -2.65299e-05
0.000120793 -3.65548e-05 -3.61021e-05 -2.653e-05
-0.000120366 3.58022e-05 3.62415e-05 -2.65257e-05
-3.8562e-08 -3.03123e-07 1.46436e-07 -2.70804e-05
0.000120293 -3.6402e-05 -3.59532e-05 -2.65299e-05
-4.47766e-08 -3.06764e-07 1.5066e-07 -2.70805e-05
-4.16629e-08 -3.0494e-07 1.48544e-07 -2.70805e-05
-0.000119859 3.56529e-05 3.60884e-05 -2.65257e-05
-0.000118846 3.53543e-05 3.57822e-05 -2.65256e-05
0.000118791 -3.59435e-05 -3.55062e-05 -2.65298e-05
0.000119792 -3.62491e-05 -3.58042e-05 -2.65299e-05
-0.000119353 3.55036e-05 3.59353e-05 -2.65256e-05
-3.23987e-08 -2.99511e-07 1.42247e-07 -2.70804e-05
0.000119292 -3.60963e-05 -3.56552e-05 -2.65299e-05
-3.8562e-08 -3.03123e-07 1.46436e-07 -2.70804e-05
-3.5474e-08 -3.01313e-07 1.44337e-07 -2.70804e-05
-0.000118846 3.53543e-05 3.57822e-05 -2.65256e-05
-0.000117833 3.50557e-05 3.5476e-05 -2.65256e-05
0.00011779 -3.56378e-05 -3.52082e-05 -2.65297e-05
0.000118791 -3.59435e-05 -3.55062e-05 -2.65298e-05
-0.00011834 3.5205e-05 3.56291e-05 -2.65256e-05
-2.62866e-08 -2.95929e-07 1.38092e-07 -2.70803e-05
0.000118291 -3.57906e-05 -3.53572e-05 -2.65298e-05
-3.23987e-08 -2.99511e-07 1.42247e-07 -2.70804e-05
-2.93363e-08 -2.97716e-07 1.40165e-07 -2.70804e-05
-0.000117833 3.50557e-05 3.5476e-05 -2.65256e-05
-0.00011682 3.4757e-05 3.51699e-05 -2.65255e-05
0.000116789 -3.53322e-05 -3.49101e-05 -2.65297e-05
0.00011779 -3.56378e-05 -3.52082e-05 -2.65297e-05
-0.000117327 3.49063e-05 3.53229e-05 -2.65256e-05
-2.02258e-08 -2.92377e-07 1.33973e-07 -2.70803e-05
0.00011729 -3.5485e-05 -3.50592e-05 -2.65297e-05
-2.62866e-08 -2.95929e-07 1.38092e-07 -2.70803e-05
-2.32498e-08 -2.94149e-07 1.36028e-07 -2.70803e-05
-0.00011682 3.4757e-05 3.51699e-05 -2.65255e-05
-0.000115807 3.44583e-05 3.48638e-05 -2.65255e-05
0.000115788 -3.50266e-05 -3.4612e-05 -2.65296e-05
0.000116789 -3.53322e-05 -3.49101e-05 -2.65297e-05
-0.000116314 3.46077e-05 3.50168e-05 -2.65255e-05
-1.42164e-08 -2.88854e-07 1.29887e-07 -2.70802e-05
0.000116289 -3.51794e-05 -3.47611e-05 -2.65296e-05
-2.02259e-08 -2.92377e-07 1.33973e-07 -2.70803e-05
-1.72147e-08 -2.90612e-07 1.31926e-07 -2.70802e-05
-0.000115807 3.44583e-05 3.48638e-05 -2.65255e-05
-0.000114794 3.41596e-05 3.45577e-05 -2.65255e-05
0.000114787 -3.47211e-05 -3.43139e-05 -2.65295e-05
0.000115788 -3.50266e-05 -3.4612e-05 -2.65296e-05
-0.000115301 3.43089e-05 3.47107e-05 -2.65255e-05
-8.25828e-09 -2.85362e-07 1.25837e-07 -2.70802e-05
0.000115288 -3.48739e-05 -3.4463e-05 -2.65296e-05
-1.42164e-08 -2.88854e-07 1.29887e-07 -2.70802e-05
-1.1231e-08 -2.87104e-07 1.27858e-07 -2.70802e-05
-0.000114794 3.41596e-05 3.45577e-05 -2.65255e-05
-0.000113781 3.38608e-05 3.42516e-05 -2.65254e-05
0.000113786 -3.44156e-05 -3.40158e-05 -2.65295e-05
0.000114787 -3.47211e-05 -3.43139e-05 -2.65295e-05
-0.000114288 3.40102e-05 3.44047e-05 -2.65254e-05
-2.3515e-09 -2.81899e-07 1.21822e-07 -2.70801e-05
0.000114286 -3.45683e-05 -3.41649e-05 -2.65295e-05
-8.25828e-09 -2.85362e-07 1.25837e-07 -2.70802e-05
-5.2985e-09 -2.83626e-07 1.23825e-07 -2.70801e-05
-0.000113781 3.38608e-05 3.42516e-05 -2.65254e-05
-0.000112769 3.3562e-05 3.39456e-05 -2.65254e-05
0.000112784 -3.41101e-05 -3.37176e-05 -2.65294e-05
0.000113786 -3.44156e-05 -3.40158e-05 -2.65295e-05
-0.000113275 3.37114e-05 3.40986e-05 -2.65254e-05
3.50391e-09 -2.78466e-07 1.17841e-07 -2.708e-05
0.000113285 -3.42628e-05 -3.38667e-05 -2.65294e-05
-2.3515e-09 -2.81899e-07 1.21822e-07 -2.70801e-05
5.82594e-10 -2.80178e-07 1.19827e-07 -2.70801e-05
-0.000112769 3.3562e-05 3.39456e-05 -2.65254e-05
-0.000111756 3.32632e-05 3.36397e-05 -2.65253e-05
0.000111783 -3.38046e-05 -3.34194e-05 -2.65293e-05
0.000112784 -3.41101e-05 -3.37176e-05 -2.65294e-05
-0.000112262 3.34126e-05 3.37926e-05 -2.65254e-05
9.30794e-09 -2.75062e-07 1.13895e-07 -2.708e-05
0.000112284 -3.39573e-05 -3.35685e-05 -2.65293e-05
3.50391e-09 -2.78466e-07 1.17841e-07 -2.708e-05
6.41231e-09 -2.7676e-07 1.15863e-07 -2.708e-05
-0.000111756 3.32632e-05 3.36397e-05 -2.65253e-05
-0.000110743 3.29644e-05 3.33337e-05 -2.65253e-05
0.000110782 -3.34992e-05 -3.31211e-05 -2.65292e-05
0.000111783 -3.38046e-05 -3.34194e-05 -2.65293e-05
-0.000111249 3.31138e-05 3.34867e-05 -2.65253e-05
1.50606e-08 -2.71689e-07 1.09984e-07 -2.70799e-05
0.000111282 -3.36519e-05 -3.32703e-05 -2.65293e-05
9.30794e-09 -2.75062e-07 1.13895e-07 -2.708e-05
1.21906e-08 -2.73372e-07 1.11935e-07 -2.708e-05
-0.000110743 3.29644e-05 3.33337e-05 -2.65253e-05
-0.00010973 3.26655e-05 3.30278e-05 -2.65253e-05
0.00010978 -3.31938e-05 -3.28228e-05 -2.65292e-05
0.000110782 -3.34992e-05 -3.31211e-05 -2.65292e-05
-0.000110237 3.2815e-05 3.31808e-05 -2.65253e-05
2.07618e-08 -2.68346e-07 1.06107e-07 -2.70799e-05
0.000110281 -3.33465e-05 -3.2972e-05 -2.65292e-05
1.50606e-08 -2.71689e-07 1.09984e-07 -2.70799e-05
1.79175e-08 -2.70014e-07 1.08041e-07 -2.70799e-05
-0.00010973 3.26655e-05 3.30278e-05 -2.65253e-05
-0.000108718 3.23666e-05 3.27219e-05 -2.65252e-05
0.000108779 -3.28884e-05 -3.25245e-05 -2.65291e-05
0.00010978 -3.31938e-05 -3.28228e-05 -2.65292e-05
-0.000109224 3.25161e-05 3.28749e-05 -2.65253e-05
2.64115e-08 -2.65032e-07 1.02266e-07 -2.70798e-05
0.00010928 -3.30411e-05 -3.26737e-05 -2.65291e-05
2.07618e-08 -2.68346e-07 1.06107e-07 -2.70799e-05
2.3593e-08 -2.66685e-07 1.04182e-07 -2.70798e-05
-0.000108718 3.23666e-05 3.27219e-05 -2.65252e-05
-0.000107705 3.20677e-05 3.24161e-05 -2.65252e-05
0.000107777 -3.25831e-05 -3.22262e-05 -2.6529e-05
0.000108779 -3.28884e-05 -3.25245e-05 -2.65291e-05
-0.000108212 3.22172e-05 3.2569e-05 -2.65252e-05
3.20098e-08 -2.61748e-07 9.84594e-08 -2.70798e-05
0.000108278 -3.27357e-05 -3.23754e-05 -2.6529e-05
2.64115e-08 -2.65032e-07 1.02266e-07 -2.70798e-05
2.92171e-08 -2.63386e-07 1.00358e-07 -2.70798e-05
-0.000107705 3.20677e-05 3.24161e-05 -2.65252e-05
-0.000106693 3.17687e-05 3.21103e-05 -2.65252e-05
0.000106776 -3.22778e-05 -3.19278e-05 -2.65289e-05
0.000107777 -3.25831e-05 -3.22262e-05 -2.6529e-05
-0.000107199 3.19182e-05 3.22632e-05 -2.65252e-05
3.75567e-08 -2.58495e-07 9.46877e-08 -2.70797e-05
0.000107277 -3.24304e-05 -3.2077e-05 -2.6529e-05
3.20098e-08 -2.61748e-07 9.84594e-08 -2.70798e-05
3.47896e-08 -2.60118e-07 9.65692e-08 -2.70797e-05
-0.000106693 3.17687e-05 3.21103e-05 -2.65252e-05
-0.00010568 3.14698e-05 3.18045e-05 -2.65251e-05
0.000105774 -3.19725e-05 -3.16294e-05 -2.65289e-05
0.000106776 -3.22778e-05 -3.19278e-05 -2.65289e-05
-0.000106187 3.16192e-05 3.19574e-05 -2.65251e-05
4.3052e-08 -2.55271e-07 9.09509e-08 -2.70796e-05
0.000106275 -3.21251e-05 -3.17786e-05 -2.65289e-05
3.75567e-08 -2.58495e-07 9.46877e-08 -2.70797e-05
4.03107e-08 -2.56879e-07 9.2815e-08 -2.70797e-05
-0.00010568 3.14698e-05 3.18045e-05 -2.65251e-05
-0.000104668 3.11707e-05 3.14988e-05 -2.65251e-05
0.000104773 -3.16672e-05 -3.13309e-05 -2.65288e-05
0.000105774 -3.19725e-05 -3.16294e-05 -2.65289e-05
-0.000105174 3.13202e-05 3.16517e-05 -2.65251e-05
4.84958e-08 -2.52077e-07 8.72491e-08 -2.70796e-05
0.000105274 -3.18199e-05 -3.14801e-05 -2.65288e-05
4.3052e-08 -2.55271e-07 9.09509e-08 -2.70796e-05
4.57803e-08 -2.5367e-07 8.90956e-08 -2.70796e-05
-0.000104668 3.11707e-05 3.14988e-05 -2.65251e-05
-0.000103656 3.08717e-05 3.11931e-05 -2.6525e-05
0.000103771 -3.1362e-05 -3.10324e-05 -2.65287e-05
0.000104773 -3.16672e-05 -3.13309e-05 -2.65288e-05
-0.000104162 3.10212e-05 3.1346e-05 -2.65251e-05
5.38881e-08 -2.48913e-07 8.35822e-08 -2.70795e-05
0.000104272 -3.15146e-05 -3.11817e-05 -2.65288e-05
4.84958e-08 -2.52077e-07 8.72491e-08 -2.70796e-05
5.11984e-08 -2.50491e-07 8.54113e-08 -2.70796e-05
-0.000103656 3.08717e-05 3.11931e-05 -2.6525e-05
-0.000102643 3.05726e-05 3.08875e-05 -2.6525e-05
0.000102769 -3.10568e-05 -3.07339e-05 -2.65286e-05
0.000103771 -3.1362e-05 -3.10324e-05 -2.65287e-05
-0.000103149 3.07222e-05 3.10403e-05 -2.6525e-05
5.92289e-08 -2.45779e-07 7.99502e-08 -2.70795e-05
0.00010327 -3.12094e-05 -3.08832e-05 -2.65287e-05
5.38881e-08 -2.48913e-07 8.35822e-08 -2.70795e-05
5.65649e-08 -2.47343e-07 8.17618e-08 -2.70795e-05
-0.000102643 3.05726e-05 3.08875e-05 -2.6525e-05
-0.000101631 3.02735e-05 3.05818e-05 -2.6525e-05
0.000101767 -3.07517e-05 -3.04353e-05 -2.65286e-05
0.000102769 -3.10568e-05 -3.07339e-05 -2.65286e-05
-0.000102137 3.04231e-05 3.07346e-05 -2.6525e-05
6.45181e-08 -2.42676e-07 7.63532e-08 -2.70794e-05
0.000102268 -3.09042e-05 -3.05846e-05 -2.65286e-05
5.92289e-08 -2.45779e-07 7.99502e-08 -2.70795e-05
6.18799e-08 -2.44224e-07 7.81473e-08 -2.70794e-05
-0.000101631 3.02735e-05 3.05818e-05 -2.6525e-05
-0.000100619 2.99744e-05 3.02762e-05 -2.65249e-05
0.000100766 -3.04465e-05 -3.01368e-05 -2.65285e-05
0.000101767 -3.07517e-05 -3.04353e-05 -2.65286e-05
-0.000101125 3.0124e-05 3.0429e-05 -2.6525e-05
6.97558e-08 -2.39602e-07 7.27912e-08 -2.70794e-05
0.000101267 -3.05991e-05 -3.02861e-05 -2.65285e-05
6.45181e-08 -2.42676e-07 7.63532e-08 -2.70794e-05
6.71434e-08 -2.41135e-07 7.45678e-08 -2.70794e-05
-0.000100619 2.99744e-05 3.02762e-05 -2.65249e-05
-9.96069e-05 2.96752e-05 2.99707e-05 -2.65249e-05
9.97637e-05 -3.01414e-05 -2.98381e-05 -2.65284e-05
0.000100766 -3.04465e-05 -3.01368e-05 -2.65285e-05
-0.000100113 2.98248e-05 3.01235e-05 -2.65249e-05
7.49418e-08 -2.36558e-07 6.92641e-08 -2.70793e-05
0.000100265 -3.0294e-05 -2.99875e-05 -2.65285e-05
6.97558e-08 -2.39602e-07 7.27912e-08 -2.70794e-05
7.23552e-08 -2.38076e-07 7.10233e-08 -2.70793e-05
-9.96069e-05 2.96752e-05 2.99707e-05 -2.65249e-05
-9.85948e-05 2.93761e-05 2.96652e-05 -2.65249e-05
9.87618e-05 -2.98364e-05 -2.95395e-05 -2.65283e-05
9.97637e-05 -3.01414e-05 -2.98381e-05 -2.65284e-05
-9.91008e-05 2.95257e-05 2.98179e-05 -2.65249e-05
8.00763e-08 -2.33544e-07 6.57721e-08 -2.70792e-05
9.92628e-05 -2.99889e-05 -2.96888e-05 -2.65284e-05
7.49418e-08 -2.36558e-07 6.92641e-08 -2.70793e-05
7.75155e-08 -2.35048e-07 6.75137e-08 -2.70793e-05
-9.85948e-05 2.93761e-05 2.96652e-05 -2.65249e-05
-9.75828e-05 2.90769e-05 2.93597e-05 -2.65248e-05
9.77598e-05 -2.95313e-05 -2.92408e-05 -2.65283e-05
9.87618e-05 -2.98364e-05 -2.95395e-05 -2.65283e-05
-9.80888e-05 2.92265e-05 2.95124e-05 -2.65248e-05
8.51591e-08 -2.30561e-07 6.23151e-08 -2.70792e-05
9.82608e-05 -2.96838e-05 -2.93901e-05 -2.65283e-05
8.00763e-08 -2.33544e-07 6.57721e-08 -2.70792e-05
8.26241e-08 -2.32049e-07 6.40392e-08 -2.70792e-05
-9.75828e-05 2.90769e-05 2.93597e-05 -2.65248e-05
-9.65708e-05 2.87776e-05 2.90542e-05 -2.65248e-05
9.67578e-05 -2.92263e-05 -2.89421e-05 -2.65282e-05
9.77598e-05 -2.95313e-05 -2.92408e-05 -2.65283e-05
-9.70768e-05 2.89272e-05 2.9207e-05 -2.65248e-05
9.01903e-08 -2.27607e-07 5.88931e-08 -2.70791e-05
9.72588e-05 -2.93788e-05 -2.90914e-05 -2.65282e-05
8.51591e-08 -2.30561e-07 6.2315e-08 -2.70792e-05
8.76811e-08 -2.2908e-07 6.05997e-08 -2.70792e-05
-9.65708e-05 2.87776e-05 2.90542e-05 -2.65248e-05
-9.55589e-05 2.84783e-05 2.87488e-05 -2.65247e-05
9.57557e-05 -2.89213e-05 -2.86433e-05 -2.65281e-05
9.67578e-05 -2.92263e-05 -2.89421e-05 -2.65282e-05
-9.60649e-05 2.8628e-05 2.89015e-05 -2.65248e-05
9.51698e-08 -2.24684e-07 5.55061e-08 -2.70791e-05
9.62568e-05 -2.90738e-05 -2.87927e-05 -2.65282e-05
9.01903e-08 -2.27607e-07 5.88931e-08 -2.70791e-05
9.26865e-08 -2.26142e-07 5.71952e-08 -2.70791e-05
-9.55589e-05 2.84783e-05 2.87488e-05 -2.65247e-05
-9.45471e-05 2.8179e-05 2.84434e-05 -2.65247e-05
9.47536e-05 -2.86164e-05 -2.83445e-05 -2.65281e-05
9.57557e-05 -2.89213e-05 -2.86433e-05 -2.65281e-05
-9.5053e-05 2.83287e-05 2.85961e-05 -2.65247e-05
1.00098e-07 -2.21791e-07 5.21542e-08 -2.7079e-05
9.52547e-05 -2.87688e-05 -2.84939e-05 -2.65281e-05
9.51698e-08 -2.24684e-07 5.55061e-08 -2.70791e-05
9.76402e-08 -2.23234e-07 5.38258e-08 -2.7079e-05
-9.45471e-05 2.8179e-05 2.84434e-05 -2.65247e-05
-9.35353e-05 2.78797e-05 2.81381e-05 -2.65247e-05
9.37514e-05 -2.83114e-05 -2.80457e-05 -2.6528e-05
9.47536e-05 -2.86164e-05 -2.83445e-05 -2.65281e-05
-9.40412e-05 2.80294e-05 2.82908e-05 -2.65247e-05
1.04974e-07 -2.18928e-07 4.88374e-08 -2.7079e-05
9.42525e-05 -2.84639e-05 -2.81951e-05 -2.6528e-05
1.00098e-07 -2.21791e-07 5.21542e-08 -2.7079e-05
1.02542e-07 -2.20356e-07 5.04914e-08 -2.7079e-05
-9.35353e-05 2.78797e-05 2.81381e-05 -2.65247e-05
-9.25235e-05 2.75804e-05 2.78328e-05 -2.65246e-05
9.27492e-05 -2.80066e-05 -2.77468e-05 -2.65279e-05
9.37514e-05 -2.83114e-05 -2.80457e-05 -2.6528e-05
-9.30294e-05 2.773e-05 2.79854e-05 -2.65247e-05
1.09798e-07 -2.16095e-07 4.55556e-08 -2.70789e-05
9.32503e-05 -2.8159e-05 -2.78963e-05 -2.6528e-05
1.04974e-07 -2.18928e-07 4.88374e-08 -2.7079e-05
1.07393e-07 -2.17508e-07 4.71921e-08 -2.70789e-05
-9.25235e-05 2.75804e-05 2.78328e-05 -2.65246e-05
-9.15118e-05 2.7281e-05 2.75275e-05 -2.65246e-05
9.17469e-05 -2.77017e-05 -2.74479e-05 -2.65278e-05
9.27492e-05 -2.80066e-05 -2.77468e-05 -2.65279e-05
-9.20177e-05 2.74307e-05 2.76801e-05 -2.65246e-05
1.14571e-07 -2.13292e-07 4.2309e-08 -2.70789e-05
9.2248e-05 -2.78541e-05 -2.75974e-05 -2.65279e-05
1.09798e-07 -2.16095e-07 4.55556e-08 -2.70789e-05
1.12191e-07 -2.1469e-07 4.39279e-08 -2.70789e-05
-9.15118e-05 2.7281e-05 2.75275e-05 -2.65246e-05
-9.05002e-05 2.69816e-05 2.72223e-05 -2.65246e-05
9.07446e-05 -2.73969e-05 -2.7149e-05 -2.65278e-05
9.17469e-05 -2.77017e-05 -2.74479e-05 -2.65278e-05
-9.1006e-05 2.71313e-05 2.73749e-05 -2.65246e-05
1.19292e-07 -2.1052e-07 3.90974e-08 -2.70788e-05
9.12457e-05 -2.75493e-05 -2.72985e-05 -2.65278e-05
1.14571e-07 -2.13292e-07 4.2309e-08 -2.70789e-05
1.16938e-07 -2.11902e-07 4.06988e-08 -2.70788e-05
-9.05002e-05 2.69816e-05 2.72223e-05 -2.65246e-05
-8.94886e-05 2.66821e-05 2.69171e-05 -2.65245e-05
8.97422e-05 -2.70921e-05 -2.68501e-05 -2.65277e-05
9.07446e-05 -2.73969e-05 -2.7149e-05 -2.65278e-05
-8.99944e-05 2.68318e-05 2.70697e-05 -2.65246e-05
1.23962e-07 -2.07777e-07 3.5921e-08 -2.70787e-05
9.02434e-05 -2.72445e-05 -2.69995e-05 -2.65277e-05
1.19292e-07 -2.1052e-07 3.90974e-08 -2.70788e-05
1.21633e-07 -2.09145e-07 3.75048e-08 -2.70788e-05
-8.94886e-05 2.66821e-05 2.69171e-05 -2.65245e-05
-8.84771e-05 2.63826e-05 2.66119e-05 -2.65245e-05
8.87398e-05 -2.67873e-05 -2.65511e-05 -2.65276e-05
8.97422e-05 -2.70921e-05 -2.68501e-05 -2.65277e-05
-8.89828e-05 2.65324e-05 2.67645e-05 -2.65245e-05
1.28579e-07 -2.05065e-07 3.27797e-08 -2.70787e-05
8.9241e-05 -2.69397e-05 -2.67006e-05 -2.65277e-05
1.23962e-07 -2.07777e-07 3.5921e-08 -2.70788e-05
1.26277e-07 -2.06417e-07 3.4346e-08 -2.70787e-05
-8.84771e-05 2.63826e-05 2.66119e-05 -2.65245e-05
-8.74656e-05 2.60831e-05 2.63068e-05 -2.65245e-05
8.77373e-05 -2.64825e-05 -2.6252e-05 -2.65276e-05
8.87398e-05 -2.67873e-05 -2.65511e-05 -2.65276e-05
-8.79713e-05 2.62329e-05 2.64593e-05 -2.65245e-05
1.33145e-07 -2.02383e-07 2.96736e-08 -2.70786e-05
8.82385e-05 -2.66349e-05 -2.64016e-05 -2.65276e-05
1.28579e-07 -2.05065e-07 3.27797e-08 -2.70787e-05
1.30868e-07 -2.0372e-07 3.12223e-08 -2.70787e-05
-8.74656e-05 2.60831e-05 2.63068e-05 -2.65245e-05
-8.64542e-05 2.57836e-05 2.60017e-05 -2.65244e-05
8.67348e-05 -2.61778e-05 -2.5953e-05 -2.65275e-05
8.77373e-05 -2.64825e-05 -2.6252e-05 -2.65276e-05
-8.69599e-05 2.59334e-05 2.61542e-05 -2.65245e-05
1.37659e-07 -1.99732e-07 2.66026e-08 -2.70786e-05
8.7236e-05 -2.63302e-05 -2.61025e-05 -2.65275e-05
1.33145e-07 -2.02383e-07 2.96736e-08 -2.70786e-05
1.35408e-07 -2.01054e-07 2.81337e-08 -2.70786e-05
-8.64542e-05 2.57836e-05 2.60017e-05 -2.65244e-05
-8.54428e-05 2.54841e-05 2.56966e-05 -2.65244e-05
8.57322e-05 -2.58732e-05 -2.56539e-05 -2.65274e-05
8.67348e-05 -2.61778e-05 -2.5953e-05 -2.65275e-05
-8.59485e-05 2.56338e-05 2.58491e-05 -2.65244e-05
1.42121e-07 -1.9711e-07 2.35667e-08 -2.70785e-05
8.62335e-05 -2.60255e-05 -2.58034e-05 -2.65275e-05
1.37659e-07 -1.99732e-07 2.66026e-08 -2.70786e-05
1.39896e-07 -1.98417e-07 2.50803e-08 -2.70786e-05
-8.54428e-05 2.54841e-05 2.56966e-05 -2.65244e-05
-8.44315e-05 2.51845e-05 2.53916e-05 -2.65244e-05
8.47296e-05 -2.55685e-05 -2.53547e-05 -2.65274e-05
8.57322e-05 -2.58732e-05 -2.56539e-05 -2.65274e-05
-8.49371e-05 2.53343e-05 2.55441e-05 -2.65244e-05
1.46532e-07 -1.94519e-07 2.05661e-08 -2.70785e-05
8.52309e-05 -2.57208e-05 -2.55043e-05 -2.65274e-05
1.42121e-07 -1.9711e-07 2.35667e-08 -2.70785e-05
1.44333e-07 -1.95811e-07 2.2062e-08 -2.70785e-05
-8.44315e-05 2.51845e-05 2.53916e-05 -2.65244e-05
-8.34202e-05 2.48848e-05 2.50866e-05 -2.65243e-05
8.37269e-05 -2.52639e-05 -2.50556e-05 -2.65273e-05
8.47296e-05 -2.55685e-05 -2.53547e-05 -2.65274e-05
-8.39258e-05 2.50347e-05 2.52391e-05 -2.65244e-05
1.5089e-07 -1.91958e-07 1.76006e-08 -2.70784e-05
8.42283e-05 -2.54162e-05 -2.52052e-05 -2.65273e-05
1.46532e-07 -1.94519e-07 2.05661e-08 -2.70785e-05
1.48717e-07 -1.93235e-07 1.9079e-08 -2.70785e-05
-8.34202e-05 2.48848e-05 2.50866e-05 -2.65243e-05
-8.2409e-05 2.45852e-05 2.47816e-05 -2.65243e-05
8.27242e-05 -2.49593e-05 -2.47564e-05 -2.65272e-05
8.37269e-05 -2.52639e-05 -2.50556e-05 -2.65273e-05
-8.29146e-05 2.4735e-05 2.49341e-05 -2.65243e-05
1.55197e-07 -1.89428e-07 1.46704e-08 -2.70784e-05
8.32256e-05 -2.51116e-05 -2.4906e-05 -2.65273e-05
1.5089e-07 -1.91958e-07 1.76006e-08 -2.70784e-05
1.5305e-07 -1.90689e-07 1.61311e-08 -2.70784e-05
-8.2409e-05 2.45852e-05 2.47816e-05 -2.65243e-05
-8.13978e-05 2.42855e-05 2.44767e-05 -2.65243e-05
8.17214e-05 -2.46547e-05 -2.44572e-05 -2.65272e-05
8.27242e-05 -2.49593e-05 -2.47564e-05 -2.65272e-05
-8.19034e-05 2.44354e-05 2.46292e-05 -2.65243e-05
1.59452e-07 -1.86928e-07 1.17753e-08 -2.70783e-05
8.22228e-05 -2.4807e-05 -2.46068e-05 -2.65272e-05
1.55197e-07 -1.89428e-07 1.46704e-08 -2.70784e-05
1.57331e-07 -1.88174e-07 1.32185e-08 -2.70784e-05
-8.13978e-05 2.42855e-05 2.44767e-05 -2.65243e-05
-8.03867e-05 2.39858e-05 2.41718e-05 -2.65242e-05
8.07186e-05 -2.43502e-05 -2.41579e-05 -2.65271e-05
8.17214e-05 -2.46547e-05 -2.44572e-05 -2.65272e-05
-8.08922e-05 2.41357e-05 2.43242e-05 -2.65243e-05
1.63655e-07 -1.84458e-07 8.91553e-09 -2.70783e-05
8.122e-05 -2.45025e-05 -2.43075e-05 -2.65271e-05
1.59452e-07 -1.86928e-07 1.17753e-08 -2.70783e-05
1.6156e-07 -1.85689e-07 1.0341e-08 -2.70783e-05
-8.03867e-05 2.39858e-05 2.41718e-05 -2.65242e-05
-7.93756e-05 2.36861e-05 2.3867e-05 -2.65242e-05
7.97157e-05 -2.40457e-05 -2.38586e-05 -2.6527e-05
8.07186e-05 -2.43502e-05 -2.41579e-05 -2.65271e-05
-7.98812e-05 2.3836e-05 2.40194e-05 -2.65242e-05
1.67806e-07 -1.82018e-07 6.09095e-09 -2.70782e-05
8.02172e-05 -2.4198e-05 -2.40082e-05 -2.65271e-05
1.63655e-07 -1.84458e-07 8.91553e-09 -2.70783e-05
1.65737e-07 -1.83234e-07 7.49885e-09 -2.70783e-05
-7.93756e-05 2.36861e-05 2.3867e-05 -2.65242e-05
-7.83646e-05 2.33863e-05 2.35621e-05 -2.65242e-05
7.87128e-05 -2.37412e-05 -2.35592e-05 -2.6527e-05
7.97157e-05 -2.40457e-05 -2.38586e-05 -2.6527e-05
-7.88701e-05 2.35362e-05 2.37145e-05 -2.65242e-05
1.71905e-07 -1.79609e-07 3.30161e-09 -2.70782e-05
7.92143e-05 -2.38935e-05 -2.37089e-05 -2.6527e-05
1.67806e-07 -1.82018e-07 6.09095e-09 -2.70782e-05
1.69862e-07 -1.8081e-07 4.69188e-09 -2.70782e-05
-7.83646e-05 2.33863e-05 2.35621e-05 -2.65242e-05
-7.73537e-05 2.30865e-05 2.32574e-05 -2.65241e-05
7.77099e-05 -2.34368e-05 -2.32599e-05 -2.65269e-05
7.87128e-05 -2.37412e-05 -2.35592e-05 -2.6527e-05
-7.78592e-05 2.32364e-05 2.34097e-05 -2.65242e-05
1.75953e-07 -1.7723e-07 5.47545e-10 -2.70781e-05
7.82113e-05 -2.3589e-05 -2.34096e-05 -2.65269e-05
1.71905e-07 -1.79609e-07 3.30161e-09 -2.70782e-05
1.73935e-07 -1.78416e-07 1.92018e-09 -2.70782e-05
-7.73537e-05 2.30865e-05 2.32574e-05 -2.65241e-05
-7.63428e-05 2.27867e-05 2.29526e-05 -2.65241e-05
7.67068e-05 -2.31324e-05 -2.29605e-05 -2.65268e-05
7.77099e-05 -2.34368e-05 -2.32599e-05 -2.65269e-05
-7.68482e-05 2.29366e-05 2.3105e-05 -2.65241e-05
1.79948e-07 -1.74882e-07 -2.17127e-09 -2.70781e-05
7.72084e-05 -2.32846e-05 -2.31102e-05 -2.65269e-05
1.75953e-07 -1.7723e-07 5.47543e-10 -2.70781e-05
1.77957e-07 -1.76052e-07 -8.16261e-10 -2.70781e-05
-7.63428e-05 2.27867e-05 2.29526e-05 -2.65241e-05
-7.53319e-05 2.24869e-05 2.26479e-05 -2.65241e-05
7.57038e-05 -2.2828e-05 -2.2661e-05 -2.65268e-05
7.67068e-05 -2.31324e-05 -2.29605e-05 -2.65268e-05
-7.58374e-05 2.26368e-05 2.28002e-05 -2.65241e-05
1.83892e-07 -1.72564e-07 -4.85479e-09 -2.7078e-05
7.62053e-05 -2.29802e-05 -2.28108e-05 -2.65268e-05
1.79948e-07 -1.74882e-07 -2.17127e-09 -2.70781e-05
1.81926e-07 -1.73719e-07 -3.51743e-09 -2.70781e-05
-7.53319e-05 2.24869e-05 2.26479e-05 -2.65241e-05
-7.43212e-05 2.2187e-05 2.23432e-05 -2.65241e-05
7.47007e-05 -2.25237e-05 -2.23616e-05 -2.65267e-05
7.57038e-05 -2.2828e-05 -2.2661e-05 -2.65268e-05
-7.48265e-05 2.23369e-05 2.24956e-05 -2.65241e-05
1.87783e-07 -1.70276e-07 -7.50303e-09 -2.7078e-05
7.52022e-05 -2.26758e-05 -2.25113e-05 -2.65267e-05
1.83892e-07 -1.72564e-07 -4.85479e-09 -2.7078e-05
1.85844e-07 -1.71416e-07 -6.18332e-09 -2.7078e-05
-7.43212e-05 2.2187e-05 2.23432e-05 -2.65241e-05
-7.33104e-05 2.18871e-05 2.20386e-05 -2.6524e-05
7.36975e-05 -2.22193e-05 -2.20621e-05 -2.65266e-05
7.47007e-05 -2.25237e-05 -2.23616e-05 -2.65267e-05
-7.38158e-05 2.2037e-05 2.21909e-05 -2.6524e-05
1.91623e-07 -1.68019e-07 -1.0116e-08 -2.70779e-05
7.41991e-05 -2.23715e-05 -2.22118e-05 -2.65267e-05
1.87783e-07 -1.70276e-07 -7.50303e-09 -2.7078e-05
1.89709e-07 -1.69144e-07 -8.81391e-09 -2.7078e-05
-7.33104e-05 2.18871e-05 2.20386e-05 -2.6524e-05
-7.22997e-05 2.15871e-05 2.1734e-05 -2.6524e-05
7.26943e-05 -2.19151e-05 -2.17625e-05 -2.65266e-05
7.36975e-05 -2.22193e-05 -2.20621e-05 -2.65266e-05
-7.28051e-05 2.17371e-05 2.18863e-05 -2.6524e-05
1.95411e-07 -1.65792e-07 -1.26936e-08 -2.70779e-05
7.31959e-05 -2.20672e-05 -2.19123e-05 -2.65266e-05
1.91623e-07 -1.68019e-07 -1.0116e-08 -2.70779e-05
1.93523e-07 -1.66902e-07 -1.14092e-08 -2.70779e-05
-7.22997e-05 2.15871e-05 2.1734e-05 -2.6524e-05
-7.12891e-05 2.12872e-05 2.14294e-05 -2.6524e-05
7.1691e-05 -2.16108e-05 -2.1463e-05 -2.65265e-05
7.26943e-05 -2.19151e-05 -2.17625e-05 -2.65266e-05
-7.17944e-05 2.14372e-05 2.15817e-05 -2.6524e-05
1.99146e-07 -1.63596e-07 -1.52359e-08 -2.70778e-05
7.21927e-05 -2.17629e-05 -2.16127e-05 -2.65265e-05
1.95411e-07 -1.65792e-07 -1.26936e-08 -2.70779e-05
1.97285e-07 -1.6469e-07 -1.39692e-08 -2.70779e-05
-7.12891e-05 2.12872e-05 2.14294e-05 -2.6524e-05
-7.02785e-05 2.09872e-05 2.11249e-05 -2.65239e-05
7.06877e-05 -2.13066e-05 -2.11633e-05 -2.65264e-05
7.1691e-05 -2.16108e-05 -2.1463e-05 -2.65265e-05
-7.07838e-05 2.11372e-05 2.12771e-05 -2.6524e-05
2.0283e-07 -1.6143e-07 -1.77429e-08 -2.70778e-05
7.11894e-05 -2.14587e-05 -2.13132e-05 -2.65265e-05
1.99146e-07 -1.63596e-07 -1.52359e-08 -2.70778e-05
2.00995e-07 -1.62509e-07 -1.64938e-08 -2.70778e-05
-7.02785e-05 2.09872e-05 2.11249e-05 -2.65239e-05
-6.9268e-05 2.06872e-05 2.08204e-05 -2.65239e-05
6.96844e-05 -2.10024e-05 -2.08637e-05 -2.65264e-05
7.06877e-05 -2.13066e-05 -2.11633e-05 -2.65264e-05
-6.97733e-05 2.08372e-05 2.09726e-05 -2.65239e-05
2.06462e-07 -1.59294e-07 -2.02145e-08 -2.70778e-05
7.0186e-05 -2.11545e-05 -2.10135e-05 -2.65264e-05
2.0283e-07 -1.6143e-07 -1.77429e-08 -2.70778e-05
2.04652e-07 -1.60358e-07 -1.89831e-08 -2.70778e-05
-6.9268e-05 2.06872e-05 2.08204e-05 -2.65239e-05
-6.82575e-05 2.03871e-05 2.05159e-05 -2.65239e-05
6.86809e-05 -2.06982e-05 -2.0564e-05 -2.65263e-05
6.96844e-05 -2.10024e-05 -2.08637e-05 -2.65264e-05
-6.87628e-05 2.05371e-05 2.06681e-05 -2.65239e-05
2.10041e-07 -1.57189e-07 -2.26508e-08 -2.70777e-05
6.91827e-05 -2.08503e-05 -2.07139e-05 -2.65263e-05
2.06462e-07 -1.59294e-07 -2.02145e-08 -2.70778e-05
2.08258e-07 -1.58238e-07 -2.14371e-08 -2.70777e-05
-6.82575e-05 2.03871e-05 2.05159e-05 -2.65239e-05
-6.72471e-05 2.0087e-05 2.02115e-05 -2.65239e-05
6.76775e-05 -2.03941e-05 -2.02643e-05 -2.65262e-05
6.86809e-05 -2.06982e-05 -2.0564e-05 -2.65263e-05
-6.77523e-05 2.02371e-05 2.03637e-05 -2.65239e-05
2.13569e-07 -1.55115e-07 -2.50518e-08 -2.70777e-05
6.81792e-05 -2.05461e-05 -2.04142e-05 -2.65263e-05
2.10041e-07 -1.57189e-07 -2.26508e-08 -2.70777e-05
2.11812e-07 -1.56148e-07 -2.38557e-08 -2.70777e-05
-6.72471e-05 2.0087e-05 2.02115e-05 -2.65239e-05
-6.62367e-05 1.97869e-05 1.99071e-05 -2.65238e-05
6.6674e-05 -2.009e-05 -1.99646e-05 -2.65262e-05
6.76775e-05 -2.03941e-05 -2.02643e-05 -2.65262e-05
-6.67419e-05 1.9937e-05 2.00593e-05 -2.65239e-05
2.17045e-07 -1.53071e-07 -2.74173e-08 -2.70776e-05
6.71757e-05 -2.0242e-05 -2.01144e-05 -2.65262e-05
2.13569e-07 -1.55115e-07 -2.50518e-08 -2.70777e-05
2.15313e-07 -1.54089e-07 -2.6239e-08 -2.70776e-05
-6.62367e-05 1.97869e-05 1.99071e-05 -2.65238e-05
-6.52264e-05 1.94868e-05 1.96027e-05 -2.65238e-05
6.56704e-05 -1.97859e-05 -1.96648e-05 -2.65261e-05
6.6674e-05 -2.009e-05 -1.99646e-05 -2.65262e-05
-6.57316e-05 1.96368e-05 1.97549e-05 -2.65238e-05
2.20468e-07 -1.51058e-07 -2.97475e-08 -2.70776e-05
6.61722e-05 -1.99379e-05 -1.98147e-05 -2.65262e-05
2.17045e-07 -1.53071e-07 -2.74173e-08 -2.70776e-05
2.18763e-07 -1.5206e-07 -2.85869e-08 -2.70776e-05
-6.52264e-05 1.94868e-05 1.96027e-05 -2.65238e-05
-6.42162e-05 1.91866e-05 1.92984e-05 -2.65238e-05
6.46668e-05 -1.94818e-05 -1.9365e-05 -2.65261e-05
6.56704e-05 -1.97859e-05 -1.96648e-05 -2.65261e-05
-6.47213e-05 1.93367e-05 1.94505e-05 -2.65238e-05
2.2384e-07 -1.49075e-07 -3.20424e-08 -2.70775e-05
6.51686e-05 -1.96339e-05 -1.95149e-05 -2.65261e-05
2.20468e-07 -1.51058e-07 -2.97475e-08 -2.70776e-05
2.22161e-07 -1.50062e-07 -3.08994e-08 -2.70776e-05
-6.42162e-05 1.91866e-05 1.92984e-05 -2.65238e-05
-6.3206e-05 1.88864e-05 1.89941e-05 -2.65238e-05
6.36631e-05 -1.91778e-05 -1.90651e-05 -2.6526e-05
6.46668e-05 -1.94818e-05 -1.9365e-05 -2.65261e-05
-6.37111e-05 1.90365e-05 1.91462e-05 -2.65238e-05
2.2716e-07 -1.47122e-07 -3.43018e-08 -2.70775e-05
6.4165e-05 -1.93298e-05 -1.92151e-05 -2.6526e-05
2.2384e-07 -1.49075e-07 -3.20424e-08 -2.70775e-05
2.25506e-07 -1.48094e-07 -3.31765e-08 -2.70775e-05
-6.3206e-05 1.88864e-05 1.89941e-05 -2.65238e-05
-6.21958e-05 1.85862e-05 1.86898e-05 -2.65237e-05
6.26594e-05 -1.88738e-05 -1.87653e-05 -2.65259e-05
6.36631e-05 -1.91778e-05 -1.90651e-05 -2.6526e-05
-6.27009e-05 1.87363e-05 1.8842e-05 -2.65238e-05
2.30427e-07 -1.452e-07 -3.65258e-08 -2.70774e-05
6.31613e-05 -1.90258e-05 -1.89152e-05 -2.6526e-05
2.2716e-07 -1.47122e-07 -3.43018e-08 -2.70775e-05
2.288e-07 -1.46157e-07 -3.54182e-08 -2.70775e-05
-6.21958e-05 1.85862e-05 1.86898e-05 -2.65237e-05
-6.11857e-05 1.82859e-05 1.83856e-05 -2.65237e-05
6.16557e-05 -1.85699e-05 -1.84653e-05 -2.65259e-05
6.26594e-05 -1.88738e-05 -1.87653e-05 -2.65259e-05
-6.16907e-05 1.8436e-05 1.85377e-05 -2.65237e-05
2.33642e-07 -1.43309e-07 -3.87144e-08 -2.70774e-05
6.21576e-05 -1.87219e-05 -1.86153e-05 -2.65259e-05
2.30427e-07 -1.452e-07 -3.65258e-08 -2.70774e-05
2.32041e-07 -1.44251e-07 -3.76245e-08 -2.70774e-05
-6.11857e-05 1.82859e-05 1.83856e-05 -2.65237e-05
-6.01756e-05 1.79856e-05 1.80814e-05 -2.65237e-05
6.06519e-05 -1.8266e-05 -1.81654e-05 -2.65258e-05
6.16557e-05 -1.85699e-05 -1.84653e-05 -2.65259e-05
-6.06807e-05 1.81358e-05 1.82335e-05 -2.65237e-05
2.36806e-07 -1.41448e-07 -4.08676e-08 -2.70774e-05
6.11538e-05 -1.84179e-05 -1.83154e-05 -2.65259e-05
2.33642e-07 -1.43309e-07 -3.87144e-08 -2.70774e-05
2.35231e-07 -1.42375e-07 -3.97954e-08 -2.70774e-05
-6.01756e-05 1.79856e-05 1.80814e-05 -2.65237e-05
-5.91657e-05 1.76853e-05 1.77773e-05 -2.65237e-05
5.9648e-05 -1.79621e-05 -1.78654e-05 -2.65258e-05
6.06519e-05 -1.8266e-05 -1.81654e-05 -2.65258e-05
-5.96706e-05 1.78355e-05 1.79294e-05 -2.65237e-05
2.39917e-07 -1.39618e-07 -4.29853e-08 -2.70773e-05
6.01499e-05 -1.8114e-05 -1.80154e-05 -2.65258e-05
2.36806e-07 -1.41448e-07 -4.08676e-08 -2.70774e-05
2.38368e-07 -1.40529e-07 -4.19309e-08 -2.70773e-05
-5.91657e-05 1.76853e-05 1.77773e-05 -2.65237e-05
-5.81557e-05 1.73849e-05 1.74732e-05 -2.65236e-05
5.86441e-05 -1.76582e-05 -1.75654e-05 -2.65257e-05
5.9648e-05 -1.79621e-05 -1.78654e-05 -2.65258e-05
-5.86607e-05 1.75351e-05 1.76252e-05 -2.65237e-05
2.42976e-07 -1.37818e-07 -4.50677e-08 -2.70773e-05
5.91461e-05 -1.78101e-05 -1.77154e-05 -2.65257e-05
2.39917e-07 -1.39618e-07 -4.29853e-08 -2.70773e-05
2.41453e-07 -1.38714e-07 -4.40309e-08 -2.70773e-05
-5.81557e-05 1.73849e-05 1.74732e-05 -2.65236e-05
-5.71458e-05 1.70846e-05 1.71691e-05 -2.65236e-05
5.76401e-05 -1.73544e-05 -1.72653e-05 -2.65257e-05
5.86441e-05 -1.76582e-05 -1.75654e-05 -2.65257e-05
-5.76508e-05 1.72348e-05 1.73211e-05 -2.65236e-05
2.45983e-07 -1.36049e-07 -4.71145e-08 -2.70772e-05
5.81421e-05 -1.75063e-05 -1.74154e-05 -2.65257e-05
2.42976e-07 -1.37818e-07 -4.50677e-08 -2.70773e-05
2.44486e-07 -1.3693e-07 -4.60955e-08 -2.70773e-05
-5.71458e-05 1.70846e-05 1.71691e-05 -2.65236e-05
-5.6136e-05 1.67842e-05 1.68651e-05 -2.65236e-05
5.66361e-05 -1.70506e-05 -1.69652e-05 -2.65256e-05
5.76401e-05 -1.73544e-05 -1.72653e-05 -2.65257e-05
-5.66409e-05 1.69344e-05 1.70171e-05 -2.65236e-05
2.48938e-07 -1.34311e-07 -4.9126e-08 -2.70772e-05
5.71381e-05 -1.72025e-05 -1.71153e-05 -2.65256e-05
2.45983e-07 -1.36049e-07 -4.71145e-08 -2.70772e-05
2.47467e-07 -1.35176e-07 -4.81247e-08 -2.70772e-05
-5.6136e-05 1.67842e-05 1.68651e-05 -2.65236e-05
-5.51262e-05 1.64837e-05 1.65611e-05 -2.65236e-05
5.56321e-05 -1.67468e-05 -1.66651e-05 -2.65255e-05
5.66361e-05 -1.70506e-05 -1.69652e-05 -2.65256e-05
-5.56311e-05 1.6634e-05 1.67131e-05 -2.65236e-05
2.51841e-07 -1.32603e-07 -5.11019e-08 -2.70772e-05
5.61341e-05 -1.68987e-05 -1.68152e-05 -2.65256e-05
2.48938e-07 -1.34311e-07 -4.9126e-08 -2.70772e-05
2.50396e-07 -1.33453e-07 -5.01184e-08 -2.70772e-05
-5.51262e-05 1.64837e-05 1.65611e-05 -2.65236e-05
-5.41165e-05 1.61833e-05 1.62571e-05 -2.65236e-05
5.4628e-05 -1.64431e-05 -1.6365e-05 -2.65255e-05
5.56321e-05 -1.67468e-05 -1.66651e-05 -2.65255e-05
-5.46213e-05 1.63335e-05 1.64091e-05 -2.65236e-05
2.54691e-07 -1.30925e-07 -5.30424e-08 -2.70771e-05
5.513e-05 -1.65949e-05 -1.6515e-05 -2.65255e-05
2.51841e-07 -1.32603e-07 -5.11019e-08 -2.70772e-05
2.53272e-07 -1.3176e-07 -5.20766e-08 -2.70771e-05
-5.41165e-05 1.61833e-05 1.62571e-05 -2.65236e-05
-5.31068e-05 1.58828e-05 1.59531e-05 -2.65236e-05
5.36238e-05 -1.61393e-05 -1.60648e-05 -2.65254e-05
5.4628e-05 -1.64431e-05 -1.6365e-05 -2.65255e-05
-5.36116e-05 1.6033e-05 1.61051e-05 -2.65236e-05
2.5749e-07 -1.29279e-07 -5.49475e-08 -2.70771e-05
5.41259e-05 -1.62912e-05 -1.62149e-05 -2.65255e-05
2.54691e-07 -1.30925e-07 -5.30424e-08 -2.70771e-05
2.56097e-07 -1.30098e-07 -5.39994e-08 -2.70771e-05
-5.31068e-05 1.58828e-05 1.59531e-05 -2.65236e-05
-5.20972e-05 1.55822e-05 1.56492e-05 -2.65235e-05
5.26196e-05 -1.58357e-05 -1.57645e-05 -2.65254e-05
5.36238e-05 -1.61393e-05 -1.60648e-05 -2.65254e-05
-5.2602e-05 1.57325e-05 1.58012e-05 -2.65235e-05
2.60236e-07 -1.27663e-07 -5.6817e-08 -2.70771e-05
5.31217e-05 -1.59875e-05 -1.59147e-05 -2.65254e-05
2.5749e-07 -1.29279e-07 -5.49475e-08 -2.70771e-05
2.58869e-07 -1.28467e-07 -5.58867e-08 -2.70771e-05
-5.20972e-05 1.55822e-05 1.56492e-05 -2.65235e-05
-5.10876e-05 1.52817e-05 1.53454e-05 -2.65235e-05
5.16153e-05 -1.5532e-05 -1.54643e-05 -2.65253e-05
5.26196e-05 -1.58357e-05 -1.57645e-05 -2.65254e-05
-5.15924e-05 1.5432e-05 1.54973e-05 -2.65235e-05
2.6293e-07 -1.26077e-07 -5.86511e-08 -2.7077e-05
5.21175e-05 -1.56838e-05 -1.56144e-05 -2.65254e-05
2.60236e-07 -1.27663e-07 -5.6817e-08 -2.70771e-05
2.61589e-07 -1.26866e-07 -5.77385e-08 -2.7077e-05
-5.10876e-05 1.52817e-05 1.53454e-05 -2.65235e-05
-5.00781e-05 1.49811e-05 1.50416e-05 -2.65235e-05
5.0611e-05 -1.52284e-05 -1.5164e-05 -2.65253e-05
5.16153e-05 -1.5532e-05 -1.54643e-05 -2.65253e-05
-5.05828e-05 1.51314e-05 1.51935e-05 -2.65235e-05
2.65572e-07 -1.24523e-07 -6.04496e-08 -2.7077e-05
5.11132e-05 -1.53802e-05 -1.53141e-05 -2.65253e-05
2.6293e-07 -1.26077e-07 -5.86511e-08 -2.7077e-05
2.64257e-07 -1.25296e-07 -5.95548e-08 -2.7077e-05
-5.00781e-05 1.49811e-05 1.50416e-05 -2.65235e-05
-4.90686e-05 1.46805e-05 1.47378e-05 -2.65235e-05
4.96067e-05 -1.49248e-05 -1.48637e-05 -2.65252e-05
5.0611e-05 -1.52284e-05 -1.5164e-05 -2.65253e-05
-4.95733e-05 1.48308e-05 1.48897e-05 -2.65235e-05
2.68162e-07 -1.22999e-07 -6.22127e-08 -2.70769e-05
5.01089e-05 -1.50766e-05 -1.50138e-05 -2.65253e-05
2.65572e-07 -1.24523e-07 -6.04496e-08 -2.7077e-05
2.66873e-07 -1.23757e-07 -6.13356e-08 -2.7077e-05
-4.90686e-05 1.46805e-05 1.47378e-05 -2.65235e-05
-4.80592e-05 1.43799e-05 1.4434e-05 -2.65235e-05
4.86023e-05 -1.46212e-05 -1.45633e-05 -2.65252e-05
4.96067e-05 -1.49248e-05 -1.48637e-05 -2.65252e-05
-4.85639e-05 1.45302e-05 1.45859e-05 -2.65235e-05
2.70699e-07 -1.21505e-07 -6.39402e-08 -2.70769e-05
4.91045e-05 -1.4773e-05 -1.47135e-05 -2.65252e-05
2.68162e-07 -1.22999e-07 -6.22127e-08 -2.70769e-05
2.69437e-07 -1.22248e-07 -6.30809e-08 -2.70769e-05
-4.80592e-05 1.43799e-05 1.4434e-05 -2.65235e-05
-4.70498e-05 1.40792e-05 1.41303e-05 -2.65234e-05
4.75978e-05 -1.43177e-05 -1.42629e-05 -2.65251e-05
4.86023e-05 -1.46212e-05 -1.45633e-05 -2.65252e-05
-4.75545e-05 1.42295e-05 1.42821e-05 -2.65235e-05
2.73184e-07 -1.20042e-07 -6.56323e-08 -2.70769e-05
4.81e-05 -1.44695e-05 -1.44131e-05 -2.65251e-05
2.70699e-07 -1.21505e-07 -6.39402e-08 -2.70769e-05
2.71948e-07 -1.2077e-07 -6.47907e-08 -2.70769e-05
-4.70498e-05 1.40792e-05 1.41303e-05 -2.65234e-05
-4.60405e-05 1.37785e-05 1.38266e-05 -2.65234e-05
4.65933e-05 -1.40142e-05 -1.39625e-05 -2.65251e-05
4.75978e-05 -1.43177e-05 -1.42629e-05 -2.65251e-05
-4.65452e-05 1.39288e-05 1.39784e-05 -2.65234e-05
2.75618e-07 -1.1861e-07 -6.72888e-08 -2.70768e-05
4.70956e-05 -1.4166e-05 -1.41127e-05 -2.65251e-05
2.73184e-07 -1.20042e-07 -6.56323e-08 -2.70769e-05
2.74408e-07 -1.19323e-07 -6.6465e-08 -2.70769e-05
-4.60405e-05 1.37785e-05 1.38266e-05 -2.65234e-05
-4.50313e-05 1.34778e-05 1.35229e-05 -2.65234e-05
4.55887e-05 -1.37107e-05 -1.3662e-05 -2.6525e-05
4.65933e-05 -1.40142e-05 -1.39625e-05 -2.65251e-05
-4.55359e-05 1.36281e-05 1.36748e-05 -2.65234e-05
2.77998e-07 -1.17209e-07 -6.89098e-08 -2.70768e-05
4.6091e-05 -1.38625e-05 -1.38122e-05 -2.6525e-05
2.75618e-07 -1.1861e-07 -6.72888e-08 -2.70768e-05
2.76815e-07 -1.17906e-07 -6.81037e-08 -2.70768e-05
-4.50313e-05 1.34778e-05 1.35229e-05 -2.65234e-05
-4.40221e-05 1.3177e-05 1.32193e-05 -2.65234e-05
4.45841e-05 -1.34073e-05 -1.33615e-05 -2.6525e-05
4.55887e-05 -1.37107e-05 -1.3662e-05 -2.6525e-05
-4.45266e-05 1.33274e-05 1.33711e-05 -2.65234e-05
2.80327e-07 -1.15838e-07 -7.04952e-08 -2.70768e-05
4.50864e-05 -1.3559e-05 -1.35118e-05 -2.6525e-05
2.77998e-07 -1.17209e-07 -6.89098e-08 -2.70768e-05
2.79169e-07 -1.1652e-07 -6.97069e-08 -2.70768e-05
-4.40221e-05 1.3177e-05 1.32193e-05 -2.65234e-05
-4.30129e-05 1.28762e-05 1.29157e-05 -2.65234e-05
4.35795e-05 -1.31039e-05 -1.3061e-05 -2.65249e-05
4.45841e-05 -1.34073e-05 -1.33615e-05 -2.6525e-05
-4.35175e-05 1.30266e-05 1.30675e-05 -2.65234e-05
2.82604e-07 -1.14498e-07 -7.20451e-08 -2.70767e-05
4.40818e-05 -1.32556e-05 -1.32112e-05 -2.6525e-05
2.80327e-07 -1.15838e-07 -7.04952e-08 -2.70768e-05
2.81472e-07 -1.15164e-07 -7.12746e-08 -2.70768e-05
-4.30129e-05 1.28762e-05 1.29157e-05 -2.65234e-05
-4.20038e-05 1.25754e-05 1.26122e-05 -2.65234e-05
4.25748e-05 -1.28005e-05 -1.27604e-05 -2.65249e-05
4.35795e-05 -1.31039e-05 -1.3061e-05 -2.65249e-05
-4.25083e-05 1.27258e-05 1.2764e-05 -2.65234e-05
2.84828e-07 -1.13189e-07 -7.35595e-08 -2.70767e-05
4.30771e-05 -1.29522e-05 -1.29107e-05 -2.65249e-05
2.82604e-07 -1.14498e-07 -7.20451e-08 -2.70767e-05
2.83722e-07 -1.1384e-07 -7.28067e-08 -2.70767e-05
-4.20038e-05 1.25754e-05 1.26122e-05 -2.65234e-05
-4.09948e-05 1.22745e-05 1.23087e-05 -2.65234e-05
4.157e-05 -1.24972e-05 -1.24598e-05 -2.65248e-05
4.25748e-05 -1.28005e-05 -1.27604e-05 -2.65249e-05
-4.14993e-05 1.2425e-05 1.24604e-05 -2.65234e-05
2.87e-07 -1.1191e-07 -7.50383e-08 -2.70767e-05
4.20724e-05 -1.26488e-05 -1.26101e-05 -2.65249e-05
2.84828e-07 -1.13189e-07 -7.35595e-08 -2.70767e-05
2.8592e-07 -1.12546e-07 -7.43033e-08 -2.70767e-05
-4.09948e-05 1.22745e-05 1.23087e-05 -2.65234e-05
-3.99858e-05 1.19737e-05 1.20052e-05 -2.65234e-05
4.05652e-05 -1.21939e-05 -1.21591e-05 -2.65248e-05
4.157e-05 -1.24972e-05 -1.24598e-05 -2.65248e-05
-4.04903e-05 1.21241e-05 1.21569e-05 -2.65234e-05
2.89119e-07 -1.10662e-07 -7.64815e-08 -2.70767e-05
4.10676e-05 -1.23455e-05 -1.23095e-05 -2.65248e-05
2.87e-07 -1.1191e-07 -7.50383e-08 -2.70767e-05
2.88066e-07 -1.11283e-07 -7.57643e-08 -2.70767e-05
-3.99858e-05 1.19737e-05 1.20052e-05 -2.65234e-05
-3.89768e-05 1.16727e-05 1.17017e-05 -2.65234e-05
3.95603e-05 -1.18906e-05 -1.18585e-05 -2.65247e-05
4.05652e-05 -1.21939e-05 -1.21591e-05 -2.65248e-05
-3.94813e-05 1.18232e-05 1.18535e-05 -2.65234e-05
2.91187e-07 -1.09445e-07 -7.78892e-08 -2.70766e-05
4.00628e-05 -1.20422e-05 -1.20088e-05 -2.65248e-05
2.89119e-07 -1.10662e-07 -7.64815e-08 -2.70767e-05
2.90159e-07 -1.1005e-07 -7.71898e-08 -2.70766e-05
-3.89768e-05 1.16727e-05 1.17017e-05 -2.65234e-05
-3.79679e-05 1.13718e-05 1.13983e-05 -2.65233e-05
3.85554e-05 -1.15873e-05 -1.15578e-05 -2.65247e-05
3.95603e-05 -1.18906e-05 -1.18585e-05 -2.65247e-05
-3.84724e-05 1.15223e-05 1.155e-05 -2.65233e-05
2.93202e-07 -1.08259e-07 -7.92612e-08 -2.70766e-05
3.90579e-05 -1.17389e-05 -1.17081e-05 -2.65247e-05
2.91187e-07 -1.09445e-07 -7.78892e-08 -2.70766e-05
2.92201e-07 -1.08848e-07 -7.85797e-08 -2.70766e-05
-3.79679e-05 1.13718e-05 1.13983e-05 -2.65233e-05
-3.69591e-05 1.10708e-05 1.1095e-05 -2.65233e-05
3.75505e-05 -1.12841e-05 -1.1257e-05 -2.65246e-05
3.85554e-05 -1.15873e-05 -1.15578e-05 -2.65247e-05
-3.74635e-05 1.12213e-05 1.12467e-05 -2.65233e-05
2.95164e-07 -1.07103e-07 -8.05977e-08 -2.70766e-05
3.80529e-05 -1.14357e-05 -1.14074e-05 -2.65247e-05
2.93202e-07 -1.08259e-07 -7.92613e-08 -2.70766e-05
2.9419e-07 -1.07677e-07 -7.99339e-08 -2.70766e-05
-3.69591e-05 1.10708e-05 1.1095e-05 -2.65233e-05
-3.59503e-05 1.07698e-05 1.07916e-05 -2.65233e-05
3.65454e-05 -1.09809e-05 -1.09562e-05 -2.65246e-05
3.75505e-05 -1.12841e-05 -1.1257e-05 -2.65246e-05
-3.64547e-05 1.09203e-05 1.09433e-05 -2.65233e-05
2.97075e-07 -1.05978e-07 -8.18986e-08 -2.70765e-05
3.7048e-05 -1.11325e-05 -1.11066e-05 -2.65246e-05
2.95164e-07 -1.07103e-07 -8.05977e-08 -2.70766e-05
2.96126e-07 -1.06537e-07 -8.12526e-08 -2.70766e-05
-3.59503e-05 1.07698e-05 1.07916e-05 -2.65233e-05
-3.49416e-05 1.04688e-05 1.04883e-05 -2.65233e-05
3.55404e-05 -1.06777e-05 -1.06554e-05 -2.65246e-05
3.65454e-05 -1.09809e-05 -1.09562e-05 -2.65246e-05
-3.54459e-05 1.06193e-05 1.064e-05 -2.65233e-05
2.98933e-07 -1.04884e-07 -8.31638e-08 -2.70765e-05
3.60429e-05 -1.08293e-05 -1.08058e-05 -2.65246e-05
2.97075e-07 -1.05978e-07 -8.18986e-08 -2.70765e-05
2.98011e-07 -1.05427e-07 -8.25356e-08 -2.70765e-05
-3.49416e-05 1.04688e-05 1.04883e-05 -2.65233e-05
-3.39329e-05 1.01678e-05 1.01851e-05 -2.65233e-05
3.45353e-05 -1.03746e-05 -1.03546e-05 -2.65245e-05
3.55404e-05 -1.06777e-05 -1.06554e-05 -2.65246e-05
-3.44372e-05 1.03183e-05 1.03367e-05 -2.65233e-05
3.00739e-07 -1.03822e-07 -8.43934e-08 -2.70765e-05
3.50378e-05 -1.05262e-05 -1.0505e-05 -2.65245e-05
2.98933e-07 -1.04884e-07 -8.31638e-08 -2.70765e-05
2.99843e-07 -1.04349e-07 -8.3783e-08 -2.70765e-05
-3.39329e-05 1.01678e-05 1.01851e-05 -2.65233e-05
-3.29243e-05 9.86666e-06 9.88184e-06 -2.65233e-05
3.35301e-05 -1.00715e-05 -1.00537e-05 -2.65245e-05
3.45353e-05 -1.03746e-05 -1.03546e-05 -2.65245e-05
-3.34286e-05 1.00172e-05 1.00334e-05 -2.65233e-05
3.02494e-07 -1.0279e-07 -8.55872e-08 -2.70765e-05
3.40327e-05 -1.0223e-05 -1.02041e-05 -2.65245e-05
3.00739e-07 -1.03822e-07 -8.43934e-08 -2.70765e-05
3.01623e-07 -1.03302e-07 -8.49948e-08 -2.70765e-05
-3.29243e-05 9.86666e-06 9.88184e-06 -2.65233e-05
-3.19157e-05 9.56554e-06 9.57864e-06 -2.65233e-05
3.25249e-05 -9.76841e-06 -9.75277e-06 -2.65244e-05
3.35301e-05 -1.00715e-05 -1.00537e-05 -2.65245e-05
-3.242e-05 9.71611e-06 9.73024e-06 -2.65233e-05
3.04196e-07 -1.0179e-07 -8.67454e-08 -2.70764e-05
3.30275e-05 -9.91994e-06 -9.90324e-06 -2.65245e-05
3.02494e-07 -1.0279e-07 -8.55872e-08 -2.70765e-05
3.03351e-07 -1.02286e-07 -8.61708e-08 -2.70765e-05
-3.19157e-05 9.56554e-06 9.57864e-06 -2.65233e-05
-3.09072e-05 9.26439e-06 9.27548e-06 -2.65233e-05
3.15196e-05 -9.46537e-06 -9.45182e-06 -2.65244e-05
3.25249e-05 -9.76841e-06 -9.75277e-06 -2.65244e-05
-3.14114e-05 9.41497e-06 9.42706e-06 -2.65233e-05
3.05847e-07 -1.00822e-07 -8.78679e-08 -2.70764e-05
3.20223e-05 -9.61689e-06 -9.6023e-06 -2.65244e-05
3.04196e-07 -1.0179e-07 -8.67454e-08 -2.70764e-05
3.05028e-07 -1.01302e-07 -8.73111e-08 -2.70764e-05
-3.09072e-05 9.26439e-06 9.27548e-06 -2.65233e-05
-2.98987e-05 8.96321e-06 8.97236e-06 -2.65233e-05
3.05143e-05 -9.16236e-06 -9.15083e-06 -2.65244e-05
3.15196e-05 -9.46537e-06 -9.45182e-06 -2.65244e-05
-3.04029e-05 9.11381e-06 9.12392e-06 -2.65233e-05
3.07447e-07 -9.98862e-08 -8.89546e-08 -2.70764e-05
3.1017e-05 -9.31386e-06 -9.30133e-06 -2.65244e-05
3.05847e-07 -1.00822e-07 -8.78679e-08 -2.70764e-05
3.06653e-07 -1.0035e-07 -8.84157e-08 -2.70764e-05
-2.98987e-05 8.96321e-06 8.97236e-06 -2.65233e-05
-2.88903e-05 8.662e-06 8.66927e-06 -2.65233e-05
2.95089e-05 -8.85938e-06 -8.84981e-06 -2.65243e-05
3.05143e-05 -9.16236e-06 -9.15083e-06 -2.65244e-05
-2.93945e-05 8.81261e-06 8.82081e-06 -2.65233e-05
3.08996e-07 -9.89834e-08 -9.00056e-08 -2.70764e-05
3.00116e-05 -9.01087e-06 -9.00033e-06 -2.65243e-05
3.07447e-07 -9.98862e-08 -8.89546e-08 -2.70764e-05
3.08228e-07 -9.94306e-08 -8.94845e-08 -2.70764e-05
-2.88903e-05 8.662e-06 8.66927e-06 -2.65233e-05
-2.78819e-05 8.36075e-06 8.36622e-06 -2.65233e-05
2.85035e-05 -8.55644e-06 -8.54875e-06 -2.65243e-05
2.95089e-05 -8.85938e-06 -8.84981e-06 -2.65243e-05
-2.83861e-05 8.51138e-06 8.51774e-06 -2.65233e-05
3.10497e-07 -9.81144e-08 -9.1021e-08 -2.70764e-05
2.90062e-05 -8.7079e-06 -8.69929e-06 -2.65243e-05
3.08996e-07 -9.89834e-08 -9.00056e-08 -2.70764e-05
3.09753e-07 -9.85447e-08 -9.05177e-08 -2.70764e-05
-2.78819e-05 8.36075e-06 8.36622e-06 -2.65233e-05
-2.68736e-05 8.05948e-06 8.0632e-06 -2.65233e-05
2.74981e-05 -8.25353e-06 -8.24766e-06 -2.65243e-05
2.85035e-05 -8.55644e-06 -8.54875e-06 -2.65243e-05
-2.73778e-05 8.21012e-06 8.2147e-06 -2.65233e-05
3.11948e-07 -9.72797e-08 -9.20009e-08 -2.70763e-05
2.80008e-05 -8.40498e-06 -8.39821e-06 -2.65243e-05
3.10497e-07 -9.81144e-08 -9.1021e-08 -2.70764e-05
3.11228e-07 -9.76927e-08 -9.15153e-08 -2.70763e-05
-2.68736e-05 8.05948e-06 8.0632e-06 -2.65233e-05
-2.58653e-05 7.75816e-06 7.76022e-06 -2.65233e-05
2.64926e-05 -7.95065e-06 -7.94653e-06 -2.65242e-05
2.74981e-05 -8.25353e-06 -8.24766e-06 -2.65243e-05
-2.63695e-05 7.90882e-06 7.9117e-06 -2.65233e-05
3.13353e-07 -9.64802e-08 -9.29456e-08 -2.70763e-05
2.69953e-05 -8.10208e-06 -8.0971e-06 -2.65242e-05
3.11948e-07 -9.72797e-08 -9.20009e-08 -2.70763e-05
3.12657e-07 -9.68755e-08 -9.24776e-08 -2.70763e-05
-2.58653e-05 7.75816e-06 7.76022e-06 -2.65233e-05
-2.48571e-05 7.45682e-06 7.45727e-06 -2.65232e-05
2.5487e-05 -7.64781e-06 -7.64537e-06 -2.65242e-05
2.64926e-05 -7.95065e-06 -7.94653e-06 -2.65242e-05
-2.53612e-05 7.6075e-06 7.60874e-06 -2.65233e-05
3.14713e-07 -9.5716e-08 -9.38557e-08 -2.70763e-05
2.59898e-05 -7.79923e-06 -7.79596e-06 -2.65242e-05
3.13353e-07 -9.64802e-08 -9.29456e-08 -2.70763e-05
3.14038e-07 -9.60937e-08 -9.34049e-08 -2.70763e-05
-2.48571e-05 7.45682e-06 7.45727e-06 -2.65232e-05
-2.38489e-05 7.15544e-06 7.15435e-06 -2.65232e-05
2.44814e-05 -7.34501e-06 -7.34418e-06 -2.65242e-05
2.5487e-05 -7.64781e-06 -7.64537e-06 -2.65242e-05
-2.4353e-05 7.30614e-06 7.3058e-06 -2.65232e-05
3.16028e-07 -9.49868e-08 -9.47319e-08 -2.70763e-05
2.49842e-05 -7.49641e-06 -7.49478e-06 -2.65242e-05
3.14713e-07 -9.5716e-08 -9.38557e-08 -2.70763e-05
3.15376e-07 -9.53471e-08 -9.4298e-08 -2.70763e-05
-2.38489e-05 7.15544e-06 7.15435e-06 -2.65232e-05
-2.28408e-05 6.85404e-06 6.85147e-06 -2.65232e-05
2.34758e-05 -7.04224e-06 -7.04295e-06 -2.65241e-05
2.44814e-05 -7.34501e-06 -7.34418e-06 -2.65242e-05
-2.33449e-05 7.00474e-06 7.00291e-06 -2.65232e-05
3.173e-07 -9.42907e-08 -9.55756e-08 -2.70762e-05
2.39786e-05 -7.19362e-06 -7.19357e-06 -2.65241e-05
3.16028e-07 -9.49868e-08 -9.47319e-08 -2.70763e-05
3.16669e-07 -9.46348e-08 -9.51577e-08 -2.70762e-05
-2.28408e-05 6.85404e-06 6.85147e-06 -2.65232e-05
-2.18327e-05 6.55261e-06 6.54862e-06 -2.65232e-05
2.24701e-05 -6.73951e-06 -6.7417e-06 -2.65241e-05
2.34758e-05 -7.04224e-06 -7.04295e-06 -2.65241e-05
-2.23368e-05 6.70333e-06 6.70004e-06 -2.65232e-05
3.1853e-07 -9.36233e-08 -9.63886e-08 -2.70762e-05
2.2973e-05 -6.89088e-06 -6.89233e-06 -2.65241e-05
3.173e-07 -9.42907e-08 -9.55756e-08 -2.70762e-05
3.17921e-07 -9.39538e-08 -9.59858e-08 -2.70762e-05
-2.18327e-05 6.55261e-06 6.54862e-06 -2.65232e-05
-2.08247e-05 6.25118e-06 6.24579e-06 -2.65231e-05
2.14645e-05 -6.43681e-06 -6.44042e-06 -2.6524e-05
2.24701e-05 -6.73951e-06 -6.7417e-06 -2.65241e-05
-2.13287e-05 6.4019e-06 6.3972e-06 -2.65231e-05
3.19714e-07 -9.29763e-08 -9.71734e-08 -2.70761e-05
2.19673e-05 -6.58816e-06 -6.59106e-06 -2.6524e-05
3.1853e-07 -9.36233e-08 -9.63886e-08 -2.70762e-05
3.19128e-07 -9.3298e-08 -9.67842e-08 -2.70761e-05
-2.08247e-05 6.25118e-06 6.24579e-06 -2.65231e-05
-1.98167e-05 5.94975e-06 5.943e-06 -2.6523e-05
2.04587e-05 -6.13413e-06 -6.13912e-06 -2.65239e-05
2.14645e-05 -6.43681e-06 -6.44042e-06 -2.6524e-05
-2.03207e-05 6.10046e-06 6.09439e-06 -2.65231e-05
3.20847e-07 -9.23351e-08 -9.79336e-08 -2.7076e-05
2.09616e-05 -6.28547e-06 -6.28977e-06 -2.6524e-05
3.19714e-07 -9.29763e-08 -9.71734e-08 -2.70761e-05
3.20287e-07 -9.26563e-08 -9.75562e-08 -2.70761e-05
-1.98167e-05 5.94975e-06 5.943e-06 -2.6523e-05
-1.88089e-05 5.64834e-06 5.64023e-06 -2.65229e-05
1.9453e-05 -5.83145e-06 -5.8378e-06 -2.65237e-05
2.04587e-05 -6.13413e-06 -6.13912e-06 -2.65239e-05
-1.93128e-05 5.79904e-06 5.79161e-06 -2.6523e-05
3.21915e-07 -9.16757e-08 -9.8674e-08 -2.70759e-05
1.99559e-05 -5.98279e-06 -5.98846e-06 -2.65238e-05
3.20847e-07 -9.23351e-08 -9.79336e-08 -2.7076e-05
3.2139e-07 -9.20097e-08 -9.83059e-08 -2.70759e-05
-1.88089e-05 5.64834e-06 5.64023e-06 -2.65229e-05
-1.78011e-05 5.34698e-06 5.33749e-06 -2.65228e-05
1.84472e-05 -5.5287e-06 -5.53648e-06 -2.65235e-05
1.9453e-05 -5.83145e-06 -5.8378e-06 -2.65237e-05
-1.8305e-05 5.49766e-06 5.48886e-06 -2.65229e-05
3.22895e-07 -9.09606e-08 -9.94003e-08 -2.70757e-05
1.89501e-05 -5.68009e-06 -5.68714e-06 -2.65236e-05
3.21915e-07 -9.16757e-08 -9.8674e-08 -2.70759e-05
3.22418e-07 -9.13281e-08 -9.90384e-08 -2.70758e-05
-1.78011e-05 5.34698e-06 5.33749e-06 -2.65228e-05
-1.67935e-05 5.04567e-06 5.03479e-06 -2.65227e-05
1.74412e-05 -5.22579e-06 -5.23519e-06 -2.65233e-05
1.84472e-05 -5.5287e-06 -5.53648e-06 -2.65235e-05
-1.72973e-05 5.19632e-06 5.18613e-06 -2.65227e-05
3.23746e-07 -9.01342e-08 -1.00119e-07 -2.70755e-05
1.79442e-05 -5.37728e-06 -5.38583e-06 -2.65234e-05
3.22895e-07 -9.09606e-08 -9.94003e-08 -2.70757e-05
3.23339e-07 -9.05658e-08 -9.97601e-08 -2.70756e-05
-1.67935e-05 5.04567e-06 5.03479e-06 -2.65227e-05
-1.57859e-05 4.74434e-06 4.73211e-06 -2.65229e-05
1.6435e-05 -4.92251e-06 -4.93393e-06 -2.65232e-05
1.74412e-05 -5.22579e-06 -5.23519e-06 -2.65233e-05
-1.62897e-05 4.89501e-06 4.88345e-06 -2.65228e-05
3.24405e-07 -8.91157e-08 -1.00838e-07 -2.70756e-05
1.69382e-05 -5.07422e-06 -5.08456e-06 -2.65232e-05
3.23746e-07 -9.01342e-08 -1.00119e-07 -2.70755e-05
3.24104e-07 -8.96552e-08 -1.00478e-07 -2.70755e-05
-1.57859e-05 4.74434e-06 4.73211e-06 -2.65229e-05
-1.47784e-05 4.44278e-06 4.42953e-06 -2.65237e-05
1.54282e-05 -4.61843e-06 -4.63277e-06 -2.65236e-05
1.6435e-05 -4.92251e-06 -4.93393e-06 -2.65232e-05
-1.52821e-05 4.59361e-06 4.5808e-06 -2.65232e-05
3.24775e-07 -8.77936e-08 -1.01564e-07 -2.70764e-05
1.59317e-05 -4.77061e-06 -4.78332e-06 -2.65233e-05
3.24405e-07 -8.91157e-08 -1.00838e-07 -2.70756e-05
3.24634e-07 -8.85012e-08 -1.012e-07 -2.70759e-05
-1.47784e-05 4.44278e-06 4.42953e-06 -2.65237e-05
-1.37701e-05 4.14051e-06 4.12698e-06 -2.65262e-05
1.442e-05 -4.31278e-06 -4.33168e-06 -2.65253e-05
1.54282e-05 -4.61843e-06 -4.63277e-06 -2.65236e-05
-1.42744e-05 4.29179e-06 4.27826e-06 -2.65247e-05
3.24714e-07 -8.60177e-08 -1.02299e-07 -2.70791e-05
1.49244e-05 -4.46588e-06 -4.48222e-06 -2.65242e-05
3.24775e-07 -8.77936e-08 -1.01564e-07 -2.70764e-05
3.24809e-07 -8.69733e-08 -1.0193e-07 -2.70774e-05
-1.37701e-05 4.14051e-06 4.12698e-06 -2.65262e-05
-1.27606e-05 3.83636e-06 3.82468e-06 -2.65323e-05
1.34093e-05 -4.00404e-06 -4.03085e-06 -2.65303e-05
1.442e-05 -4.31278e-06 -4.33168e-06 -2.65253e-05
-1.32655e-05 3.98876e-06 3.97576e-06 -2.65286e-05
3.24021e-07 -8.35988e-08 -1.03038e-07 -2.7086e-05
1.3915e-05 -4.15891e-06 -4.18119e-06 -2.65273e-05
3.24714e-07 -8.60177e-08 -1.02299e-07 -2.70791e-05
3.24461e-07 -8.49026e-08 -1.02668e-07 -2.70819e-05
-1.27606e-05 3.83636e-06 3.82468e-06 -2.65323e-05
-1.17469e-05 3.52825e-06 3.52227e-06 -2.65461e-05
1.23928e-05 -3.68967e-06 -3.72989e-06 -2.65425e-05
1.34093e-05 -4.00404e-06 -4.03085e-06 -2.65303e-05
-1.22546e-05 3.68304e-06 3.67355e-06 -2.65379e-05
3.22423e-07 -8.03044e-08 -1.03765e-07 -2.71018e-05
1.29022e-05 -3.84783e-06 -3.88044e-06 -2.65351e-05
3.24021e-07 -8.35988e-08 -1.03038e-07 -2.7086e-05
3.23355e-07 -8.20759e-08 -1.03405e-07 -2.70923e-05
-1.17469e-05 3.52825e-06 3.52227e-06 -2.65461e-05
-1.07261e-05 3.21191e-06 3.22038e-06 -2.65749e-05
1.13668e-05 -3.36494e-06 -3.42938e-06 -2.65688e-05
1.23928e-05 -3.68967e-06 -3.72989e-06 -2.65425e-05
-1.12374e-05 3.37138e-06 3.37113e-06 -2.6558e-05
3.19569e-07 -7.5888e-08 -1.04435e-07 -2.71352e-05
1.1881e-05 -3.52891e-06 -3.57946e-06 -2.65532e-05
3.22423e-07 -8.03044e-08 -1.03765e-07 -2.71018e-05
3.21177e-07 -7.82537e-08 -1.0411e-07 -2.71158e-05
-1.07261e-05 3.21191e-06 3.22038e-06 -2.65749e-05
-9.68764e-06 2.88115e-06 2.91707e-06 -2.6632e-05
1.032e-05 -3.02318e-06 -3.12721e-06 -2.66225e-05
1.13668e-05 -3.36494e-06 -3.42938e-06 -2.65688e-05
-1.02105e-05 3.04908e-06 3.06917e-06 -2.65987e-05
3.15023e-07 -7.01004e-08 -1.04967e-07 -2.72014e-05
1.08474e-05 -3.19696e-06 -3.27878e-06 -2.6591e-05
3.19569e-07 -7.5888e-08 -1.04435e-07 -2.71352e-05
3.17537e-07 -7.31748e-08 -1.04727e-07 -2.71625e-05
-9.68764e-06 2.88115e-06 2.91707e-06 -2.6632e-05
-8.6241e-06 2.52444e-06 2.61414e-06 -2.67382e-05
9.24406e-06 -2.65256e-06 -2.82493e-06 -2.67242e-05
1.032e-05 -3.02318e-06 -3.12721e-06 -2.66225e-05
-9.15855e-06 2.70644e-06 2.76519e-06 -2.66773e-05
3.08317e-07 -6.28265e-08 -1.0521e-07 -2.73252e-05
9.78527e-06 -2.84189e-06 -2.97573e-06 -2.66657e-05
3.15023e-07 -7.01004e-08 -1.04967e-07 -2.72014e-05
3.11969e-07 -6.66551e-08 -1.05134e-07 -2.72549e-05
-8.6241e-06 2.52444e-06 2.61414e-06 -2.67382e-05
-7.50482e-06 2.13143e-06 2.30288e-06 -2.69273e-05
8.1074e-06 -2.24288e-06 -2.51337e-06 -2.69077e-05
9.24406e-06 -2.65256e-06 -2.82493e-06 -2.67242e-05
-8.07572e-06 2.33413e-06 2.46068e-06 -2.68195e-05
2.98985e-07 -5.41289e-08 -1.04939e-07 -2.75429e-05
8.68766e-06 -2.45422e-06 -2.67148e-06 -2.68029e-05
3.08317e-07 -6.28265e-08 -1.0521e-07 -2.73252e-05
3.0401e-07 -5.86217e-08 -1.05166e-07 -2.74178e-05
-7.50482e-06 2.13143e-06 2.30288e-06 -2.69273e-05
-6.32496e-06 1.68498e-06 1.98857e-06 -2.72381e-05
6.90466e-06 -1.77801e-06 -2.19714e-06 -2.7212e-05
8.1074e-06 -2.24288e-06 -2.51337e-06 -2.69077e-05
-6.91878e-06 1.91343e-06 2.14515e-06 -2.7065e-05
2.86846e-07 -4.47208e-08 -1.03768e-07 -2.78996e-05
7.51061e-06 -2.01576e-06 -2.35494e-06 -2.70423e-05
2.98985e-07 -5.41289e-08 -1.04939e-07 -2.75429e-05
2.93259e-07 -4.94573e-08 -1.04487e-07 -2.77041e-05
-6.32496e-06 1.68498e-06 1.98857e-06 -2.72381e-05
-5.02741e-06 1.20581e-06 1.63783e-06 -2.77134e-05
5.57901e-06 -1.28144e-06 -1.84182e-06 -2.76811e-05
6.90466e-06 -1.77801e-06 -2.19714e-06 -2.7212e-05
-5.70172e-06 1.45061e-06 1.82191e-06 -2.74522e-05
2.72132e-07 -3.60048e-08 -1.01197e-07 -2.84286e-05
6.26798e-06 -1.53455e-06 -2.02861e-06 -2.74229e-05
2.86846e-07 -4.47208e-08 -1.03768e-07 -2.78996e-05
2.79788e-07 -4.00954e-08 -1.02726e-07 -2.8135e-05
-5.02741e-06 1.20581e-06 1.63783e-06 -2.77134e-05
-3.69016e-06 7.32157e-07 1.26772e-06 -2.83297e-05
4.21083e-06 -7.96898e-07 -1.46311e-06 -2.82932e-05
5.57901e-06 -1.28144e-06 -1.84182e-06 -2.76811e-05
-4.34317e-06 9.53094e-07 1.45289e-06 -2.80097e-05
2.56484e-07 -3.13543e-08 -9.64842e-08 -2.90937e-05
4.87941e-06 -1.02194e-06 -1.6532e-06 -2.79749e-05
2.72132e-07 -3.60048e-08 -1.01197e-07 -2.84286e-05
2.64242e-07 -3.29323e-08 -9.91326e-08 -2.87624e-05
-3.69016e-06 7.32157e-07 1.26772e-06 -2.83297e-05
-2.31832e-06 5.18249e-07 7.71459e-07 -2.8935e-05
2.8106e-06 -5.88535e-07 -9.52315e-07 -2.89002e-05
4.21083e-06 -7.96898e-07 -1.46311e-06 -2.82932e-05
-3.0285e-06 5.84073e-07 1.04761e-06 -2.86498e-05
2.42875e-07 -3.54685e-08 -8.88884e-08 -2.96611e-05
3.53424e-06 -6.48735e-07 -1.23664e-06 -2.86131e-05
2.56484e-07 -3.13543e-08 -9.64842e-08 -2.90937e-05
2.49236e-07 -3.18562e-08 -9.31629e-08 -2.93933e-05
-2.31832e-06 5.18249e-07 7.71459e-07 -2.8935e-05
-1.35443e-06 8.53178e-07 2.14822e-07 -2.89567e-05
1.83129e-06 -9.59741e-07 -3.73522e-07 -2.89328e-05
2.8106e-06 -5.88535e-07 -9.52315e-07 -2.89002e-05
-1.71012e-06 5.62903e-07 4.91667e-07 -2.9077e-05
2.37381e-07 -5.59203e-08 -7.7769e-08 -2.95132e-05
2.1922e-06 -6.46385e-07 -6.62491e-07 -2.90463e-05
2.42875e-07 -3.54685e-08 -8.88884e-08 -2.96611e-05
2.38542e-07 -4.32494e-08 -8.3697e-08 -2.97712e-05
-1.35443e-06 8.53178e-07 2.14822e-07 -2.89567e-05
-8.30681e-07 2.32816e-06 -6.41775e-07 -2.7337e-05
1.31735e-06 -2.51747e-06 5.14335e-07 -2.73343e-05
1.83129e-06 -9.59741e-07 -3.73522e-07 -2.89328e-05
-1.10877e-06 1.48971e-06 -1.63259e-07 -2.84377e-05
2.44771e-07 -9.80878e-08 -6.28643e-08 -2.76145e-05
1.58673e-06 -1.63131e-06 1.91084e-08 -2.84234e-05
2.37381e-07 -5.59203e-08 -7.7769e-08 -2.95132e-05
2.3944e-07 -7.40688e-08 -7.08735e-08 -2.87907e-05
-8.30681e-07 2.32816e-06 -6.41775e-07 -2.7337e-05
-1.26752e-06 4.24816e-06 -1.27742e-06 -2.23276e-05
1.79713e-06 -4.56557e-06 1.18648e-06 -2.2352e-05
1.31735e-06 -2.51747e-06 5.14335e-07 -2.73343e-05
-7.92742e-07 3.2204e-06 -1.04043e-06 -2.53724e-05
2.70309e-07 -1.65357e-07 -4.49797e-08 -2.26452e-05
1.2964e-06 -3.46959e-06 9.31369e-07 -2.53824e-05
2.44771e-07 -9.80878e-08 -6.28643e-08 -2.76145e-05
2.54636e-07 -1.28352e-07 -5.41216e-08 -2.57194e-05
-1.26752e-06 4.24816e-06 -1.27742e-06 -2.23276e-05
-2.50938e-06 7.00851e-06 -1.9282e-06 -1.27818e-05
3.10267e-06 -7.4603e-06 1.86755e-06 -1.27647e-05
1.79713e-06 -4.56557e-06 1.18648e-06 -2.2352e-05
-1.94355e-06 5.5183e-06 -1.53203e-06 -1.81582e-05
3.15374e-07 -2.13596e-07 -4.3619e-08 -1.24045e-05
2.50429e-06 -5.90656e-06 1.45811e-06 -1.81794e-05
2.70309e-07 -1.65357e-07 -4.49797e-08 -2.26452e-05
2.90861e-07 -2.03615e-07 -3.73911e-08 -1.82022e-05
0.000173962 0 -7.45553e-05 9.99778e-05
0.000177165 -2.4531e-05 -6.54148e-05 3.31061e-05
0.000550144 -7.29732e-05 -0.000204502 -2.39365e-06
0.000486273 0 -0.000208403 6.35396e-05
0.000169886 -1.04355e-05 -6.8336e-05 6.30597e-05
0.000363541 -4.88015e-05 -0.000134888 1.93937e-05
0.000527088 -4.10458e-05 -0.000208304 2.37074e-05
0.000322892 0 -0.000138382 9.12149e-05
0.000348326 -2.32347e-05 -0.000139325 4.50942e-05
0.000177165 -2.4531e-05 -6.54148e-05 3.31061e-05
0.000191174 -4.04054e-05 -6.46152e-05 -6.96765e-06
0.000578371 -0.000133451 -0.00019068 -2.28924e-05
0.000550144 -7.29732e-05 -0.000204502 -2.39365e-06
0.000187147 -3.40214e-05 -6.5625e-05 9.54119e-06
0.000382374 -8.3703e-05 -0.000128002 -1.26743e-05
0.000564288 -0.000105125 -0.000196784 -1.5603e-05
0.000363541 -4.88015e-05 -0.000134888 1.93937e-05
0.0003733 -6.86719e-05 -0.000130555 2.02987e-06
0.000191174 -4.04054e-05 -6.46152e-05 -6.96765e-06
0.000195375 -5.22039e-05 -6.13593e-05 -2.51232e-05
0.000592744 -0.000164062 -0.000183721 -2.68222e-05
0.000578371 -0.000133451 -0.00019068 -2.28924e-05
0.00019275 -4.66964e-05 -6.25943e-05 -1.79137e-05
0.000393436 -0.000106051 -0.000123165 -2.64806e-05
0.000588991 -0.000152432 -0.000187097 -2.6473e-05
0.000382374 -8.3703e-05 -0.000128002 -1.26743e-05
0.000389507 -9.62834e-05 -0.000125667 -2.22143e-05
0.000195375 -5.22039e-05 -6.13593e-05 -2.51232e-05
0.000197611 -5.7822e-05 -5.99097e-05 -3.15887e-05
0.000592292 -0.000176145 -0.000178348 -2.4778e-05
0.000592744 -0.000164062 -0.000183721 -2.68222e-05
0.00019751 -5.57391e-05 -6.07589e-05 -2.94571e-05
0.000395364 -0.000116058 -0.000119703 -2.95146e-05
0.00059279 -0.000171639 -0.000180494 -2.56817e-05
0.000393436 -0.000106051 -0.000123165 -2.64806e-05
0.000395082 -0.000112344 -0.000121174 -2.83893e-05
0.000197611 -5.7822e-05 -5.99097e-05 -3.15887e-05
0.000196366 -6.00382e-05 -5.84264e-05 -3.22647e-05
0.000588187 -0.000178504 -0.000175578 -2.33771e-05
0.000592292 -0.000176145 -0.000178348 -2.4778e-05
0.000196843 -5.92272e-05 -5.8978e-05 -3.22874e-05
0.0003931 -0.000119389 -0.000117305 -2.90248e-05
0.00059088 -0.000178106 -0.000176903 -2.40817e-05
0.000395364 -0.000116058 -0.000119703 -2.95146e-05
0.000394599 -0.000118289 -0.000118418 -2.96304e-05
0.000196366 -6.00382e-05 -5.84264e-05 -3.22647e-05
0.000194769 -6.00696e-05 -5.77285e-05 -3.11058e-05
0.000582358 -0.000177646 -0.000173448 -2.24376e-05
0.000588187 -0.000178504 -0.000175578 -2.33771e-05
0.000195802 -6.02345e-05 -5.81005e-05 -3.18019e-05
0.000389278 -0.000119194 -0.000115751 -2.77931e-05
0.000585063 -0.000178269 -0.00017434 -2.27638e-05
0.0003931 -0.000119389 -0.000117305 -2.90248e-05
0.000391213 -0.000119564 -0.000116421 -2.83262e-05
0.000194769 -6.00696e-05 -5.77285e-05 -3.11058e-05
0.000192697 -5.94925e-05 -5.70876e-05 -2.96163e-05
0.000577272 -0.000175697 -0.000172104 -2.21419e-05
0.000582358 -0.000177646 -0.000173448 -2.24376e-05
0.000193618 -5.98092e-05 -5.73465e-05 -3.033e-05
0.000385507 -0.000117973 -0.000114658 -2.66998e-05
0.000579838 -0.00017673 -0.000172761 -2.2275e-05
0.000389278 -0.000119194 -0.000115751 -2.77931e-05
0.000387357 -0.000118632 -0.000115168 -2.72501e-05
0.000192697 -5.94925e-05 -5.70876e-05 -2.96163e-05
0.000191004 -5.87256e-05 -5.66907e-05 -2.84356e-05
0.000572636 -0.000173778 -0.000170939 -2.2014e-05
0.000577272 -0.000175697 -0.000172104 -2.21419e-05
0.000191871 -5.91153e-05 -5.68953e-05 -2.89816e-05
0.000382147 -0.000116528 -0.000113837 -2.59346e-05
0.000574818 -0.000174706 -0.000171476 -2.2045e-05
0.000385507 -0.000117973 -0.000114658 -2.66998e-05
0.00038376 -0.00011725 -0.000114219 -2.62544e-05
0.000191004 -5.87256e-05 -5.66907e-05 -2.84356e-05
0.000189451 -5.80515e-05 -5.63139e-05 -2.76203e-05
0.000568682 -0.000172087 -0.000169969 -2.20176e-05
0.000572636 -0.000173778 -0.000170939 -2.2014e-05
0.000190172 -5.83718e-05 -5.64857e-05 -2.798e-05
0.000379256 -0.000115261 -0.000113141 -2.54505e-05
0.000570625 -0.000172901 -0.000170453 -2.20164e-05
0.000382147 -0.000116528 -0.000113837 -2.59346e-05
0.000380651 -0.000115865 -0.00011348 -2.5672e-05
0.000189451 -5.80515e-05 -5.63139e-05 -2.76203e-05
0.000188148 -5.74791e-05 -5.60008e-05 -2.71207e-05
0.000565078 -0.000170669 -0.000169032 -2.20335e-05
0.000568682 -0.000172087 -0.000169969 -2.20176e-05
0.000188792 -5.77533e-05 -5.61595e-05 -2.73388e-05
0.000376712 -0.000114193 -0.000112508 -2.5171e-05
0.000566826 -0.000171347 -0.000169491 -2.20211e-05
0.000379256 -0.000115261 -0.000113141 -2.54505e-05
0.000377948 -0.000114704 -0.000112819 -2.52856e-05
0.000188148 -5.74791e-05 -5.60008e-05 -2.71207e-05
0.000186953 -5.70078e-05 -5.56907e-05 -2.68314e-05
0.000561759 -0.000169448 -0.000168133 -2.20608e-05
0.000565078 -0.000170669 -0.000169032 -2.20335e-05
0.00018753 -5.72325e-05 -5.58419e-05 -2.69544e-05
0.000374402 -0.000113301 -0.000111901 -2.5017e-05
0.000563401 -0.000170039 -0.000168584 -2.20491e-05
0.000376712 -0.000114193 -0.000112508 -2.5171e-05
0.000375535 -0.000113728 -0.000112203 -2.50842e-05
0.000186953 -5.70078e-05 -5.56907e-05 -2.68314e-05
0.000185856 -5.66021e-05 -5.53946e-05 -2.66756e-05
0.000558577 -0.000168362 -0.000167235 -2.20795e-05
0.000561759 -0.000169448 -0.000168133 -2.20608e-05
0.0001864 -5.67985e-05 -5.55435e-05 -2.67413e-05
0.000372233 -0.000112526 -0.000111303 -2.49385e-05
0.000560151 -0.000168892 -0.000167682 -2.20702e-05
0.000374402 -0.000113301 -0.000111901 -2.5017e-05
0.000373305 -0.000112902 -0.000111601 -2.49698e-05
0.000185856 -5.66021e-05 -5.53946e-05 -2.66756e-05
0.000184802 -5.62401e-05 -5.50978e-05 -2.65957e-05
0.000555484 -0.000167357 -0.00016634 -2.20939e-05
0.000558577 -0.000168362 -0.000167235 -2.20795e-05
0.000185323 -5.64168e-05 -5.52454e-05 -2.66286e-05
0.000370145 -0.000111827 -0.000110708 -2.49005e-05
0.000557025 -0.000167852 -0.000166788 -2.20877e-05
0.000372233 -0.000112526 -0.000111303 -2.49385e-05
0.000371182 -0.000112169 -0.000111005 -2.49164e-05
0.000184802 -5.62401e-05 -5.50978e-05 -2.65957e-05
0.000183777 -5.5903e-05 -5.48033e-05 -2.65576e-05
0.000552432 -0.000166397 -0.000165443 -2.21028e-05
0.000555484 -0.000167357 -0.00016634 -2.20939e-05
0.000184288 -5.60693e-05 -5.49509e-05 -2.65731e-05
0.000368099 -0.00011117 -0.000110112 -2.4884e-05
0.000553954 -0.000166873 -0.000165892 -2.20988e-05
0.000370145 -0.000111827 -0.000110708 -2.49005e-05
0.000369118 -0.000111494 -0.00011041 -2.48902e-05
0.000183777 -5.5903e-05 -5.48033e-05 -2.65576e-05
0.000182766 -5.55803e-05 -5.45081e-05 -2.65407e-05
0.000549403 -0.000165463 -0.000164546 -2.21086e-05
0.000552432 -0.000166397 -0.000165443 -2.21028e-05
0.00018327 -5.57403e-05 -5.46556e-05 -2.65474e-05
0.000366075 -0.000110537 -0.000109516 -2.48775e-05
0.000550916 -0.000165928 -0.000164995 -2.21061e-05
0.000368099 -0.00011117 -0.000110112 -2.4884e-05
0.000367085 -0.000110851 -0.000109815 -2.488e-05
0.000182766 -5.55803e-05 -5.45081e-05 -2.65407e-05
0.000181762 -5.5265e-05 -5.4213e-05 -2.65342e-05
0.000546384 -0.000164541 -0.000163647 -2.2112e-05
0.000549403 -0.000165463 -0.000164546 -2.21086e-05
0.000182263 -5.5422e-05 -5.43606e-05 -2.65366e-05
0.000364062 -0.000109916 -0.00010892 -2.48758e-05
0.000547893 -0.000165001 -0.000164096 -2.21105e-05
0.000366075 -0.000110537 -0.000109516 -2.48775e-05
0.000365068 -0.000110225 -0.000109218 -2.48763e-05
0.000181762 -5.5265e-05 -5.4213e-05 -2.65342e-05
0.000180761 -5.49537e-05 -5.39175e-05 -2.65321e-05
0.000543369 -0.000163626 -0.000162747 -2.2114e-05
0.000546384 -0.000164541 -0.000163647 -2.2112e-05
0.000181261 -5.5109e-05 -5.40652e-05 -2.65328e-05
0.000362053 -0.000109302 -0.000108322 -2.48758e-05
0.000544876 -0.000164083 -0.000163197 -2.21132e-05
0.000364062 -0.000109916 -0.00010892 -2.48758e-05
0.000363057 -0.000109608 -0.000108621 -2.48757e-05
0.000180761 -5.49537e-05 -5.39175e-05 -2.65321e-05
0.000179762 -5.46444e-05 -5.36219e-05 -2.65319e-05
0.000540355 -0.000162713 -0.000161846 -2.21152e-05
0.000543369 -0.000163626 -0.000162747 -2.2114e-05
0.000180262 -5.47989e-05 -5.37697e-05 -2.65319e-05
0.000360047 -0.00010869 -0.000107724 -2.48764e-05
0.000541862 -0.000163169 -0.000162297 -2.21147e-05
0.000362053 -0.000109302 -0.000108322 -2.48758e-05
0.00036105 -0.000108996 -0.000108023 -2.48761e-05
0.000179762 -5.46444e-05 -5.36219e-05 -2.65319e-05
0.000178764 -5.43361e-05 -5.33261e-05 -2.65322e-05
0.000537342 -0.000161802 -0.000160946 -2.21159e-05
0.000540355 -0.000162713 -0.000161846 -2.21152e-05
0.000179263 -5.44902e-05 -5.3474e-05 -2.6532e-05
0.000358041 -0.00010808 -0.000107126 -2.4877e-05
0.000538849 -0.000162257 -0.000161396 -2.21156e-05
0.000360047 -0.00010869 -0.000107724 -2.48764e-05
0.000359044 -0.000108385 -0.000107425 -2.48767e-05
0.000178764 -5.43361e-05 -5.33261e-05 -2.65322e-05
0.000177765 -5.40282e-05 -5.30302e-05 -2.65327e-05
0.000534329 -0.000160891 -0.000160045 -2.21162e-05
0.000537342 -0.000161802 -0.000160946 -2.21159e-05
0.000178265 -5.41821e-05 -5.31782e-05 -2.65325e-05
0.000356036 -0.000107471 -0.000106528 -2.48774e-05
0.000535836 -0.000161346 -0.000160495 -2.21161e-05
0.000358041 -0.00010808 -0.000107126 -2.4877e-05
0.000357039 -0.000107775 -0.000106827 -2.48772e-05
0.000177765 -5.40282e-05 -5.30302e-05 -2.65327e-05
0.000176767 -5.37207e-05 -5.27342e-05 -2.6533e-05
0.000531316 -0.00015998 -0.000159144 -2.21164e-05
0.000534329 -0.000160891 -0.000160045 -2.21162e-05
0.000177266 -5.38744e-05 -5.28822e-05 -2.65328e-05
0.00035403 -0.000106861 -0.00010593 -2.48777e-05
0.000532822 -0.000160436 -0.000159594 -2.21163e-05
0.000356036 -0.000107471 -0.000106528 -2.48774e-05
0.000355033 -0.000107166 -0.000106229 -2.48776e-05
0.000176767 -5.37207e-05 -5.27342e-05 -2.6533e-05
0.000175769 -5.34132e-05 -5.24382e-05 -2.65332e-05
0.000528303 -0.00015907 -0.000158243 -2.21164e-05
0.000531316 -0.00015998 -0.000159144 -2.21164e-05
0.000176268 -5.35669e-05 -5.25862e-05 -2.65331e-05
0.000352025 -0.000106252 -0.000105331 -2.48779e-05
0.000529809 -0.000159525 -0.000158693 -2.21164e-05
0.00035403 -0.000106861 -0.00010593 -2.48777e-05
0.000353028 -0.000106557 -0.00010563 -2.48778e-05
0.000175769 -5.34132e-05 -5.24382e-05 -2.65332e-05
0.000174771 -5.31059e-05 -5.21421e-05 -2.65333e-05
0.000525289 -0.000158159 -0.000157341 -2.21164e-05
0.000528303 -0.00015907 -0.000158243 -2.21164e-05
0.00017527 -5.32595e-05 -5.22902e-05 -2.65332e-05
0.000350019 -0.000105643 -0.000104733 -2.48779e-05
0.000526796 -0.000158614 -0.000157792 -2.21164e-05
0.000352025 -0.000106252 -0.000105331 -2.48779e-05
0.000351022 -0.000105948 -0.000105032 -2.48779e-05
0.000174771 -5.31059e-05 -5.21421e-05 -2.65333e-05
0.000173773 -5.27986e-05 -5.1846e-05 -2.65333e-05
0.000522276 -0.000157249 -0.00015644 -2.21164e-05
0.000525289 -0.000158159 -0.000157341 -2.21164e-05
0.000174272 -5.29522e-05 -5.19941e-05 -2.65333e-05
0.000348013 -0.000105034 -0.000104134 -2.48779e-05
0.000523782 -0.000157704 -0.000156891 -2.21164e-05
0.000350019 -0.000105643 -0.000104733 -2.48779e-05
0.000349016 -0.000105339 -0.000104433 -2.48779e-05
0.000173773 -5.27986e-05 -5.1846e-05 -2.65333e-05
0.000172774 -5.24913e-05 -5.15498e-05 -2.65333e-05
0.000519262 -0.000156338 -0.000155539 -2.21163e-05
0.000522276 -0.000157249 -0.00015644 -2.21164e-05
0.000173273 -5.2645e-05 -5.16979e-05 -2.65333e-05
0.000346008 -0.000104425 -0.000103535 -2.48779e-05
0.000520769 -0.000156793 -0.00015599 -2.21163e-05
0.000348013 -0.000105034 -0.000104134 -2.48779e-05
0.000347011 -0.00010473 -0.000103835 -2.48779e-05
0.000172774 -5.24913e-05 -5.15498e-05 -2.65333e-05
0.000171776 -5.21841e-05 -5.12536e-05 -2.65333e-05
0.000516248 -0.000155427 -0.000154638 -2.21162e-05
0.000519262 -0.000156338 -0.000155539 -2.21163e-05
0.000172275 -5.23377e-05 -5.14017e-05 -2.65333e-05
0.000344002 -0.000103816 -0.000102937 -2.48779e-05
0.000517755 -0.000155883 -0.000155088 -2.21163e-05
0.000346008 -0.000104425 -0.000103535 -2.48779e-05
0.000345005 -0.000104121 -0.000103236 -2.48779e-05
0.000171776 -5.21841e-05 -5.12536e-05 -2.65333e-05
0.000170777 -5.1877e-05 -5.09573e-05 -2.65333e-05
0.000513235 -0.000154517 -0.000153736 -2.21161e-05
0.000516248 -0.000155427 -0.000154638 -2.21162e-05
0.000171277 -5.20305e-05 -5.11055e-05 -2.65333e-05
0.000341996 -0.000103207 -0.000102338 -2.48778e-05
0.000514742 -0.000154972 -0.000154187 -2.21162e-05
0.000344002 -0.000103816 -0.000102937 -2.48779e-05
0.000342999 -0.000103512 -0.000102637 -2.48778e-05
0.000170777 -5.1877e-05 -5.09573e-05 -2.65333e-05
0.000169779 -5.15698e-05 -5.0661e-05 -2.65332e-05
0.000510221 -0.000153606 -0.000152835 -2.21161e-05
0.000513235 -0.000154517 -0.000153736 -2.21161e-05
0.000170278 -5.17234e-05 -5.08092e-05 -2.65332e-05
0.00033999 -0.000102598 -0.000101739 -2.48777e-05
0.000511728 -0.000154062 -0.000153286 -2.21161e-05
0.000341996 -0.000103207 -0.000102338 -2.48778e-05
0.000340993 -0.000102903 -0.000102039 -2.48778e-05
0.000169779 -5.15698e-05 -5.0661e-05 -2.65332e-05
0.00016878 -5.12627e-05 -5.03647e-05 -2.65332e-05
0.000507207 -0.000152696 -0.000151933 -2.2116e-05
0.000510221 -0.000153606 -0.000152835 -2.21161e-05
0.00016928 -5.14163e-05 -5.05129e-05 -2.65332e-05
0.000337984 -0.000101989 -0.00010114 -2.48777e-05
0.000508714 -0.000153151 -0.000152384 -2.2116e-05
0.00033999 -0.000102598 -0.000101739 -2.48777e-05
0.000338987 -0.000102294 -0.00010144 -2.48777e-05
0.00016878 -5.12627e-05 -5.03647e-05 -2.65332e-05
0.000167782 -5.09556e-05 -5.00683e-05 -2.65331e-05
0.000504193 -0.000151785 -0.000151032 -2.21159e-05
0.000507207 -0.000152696 -0.000151933 -2.2116e-05
0.000168281 -5.11092e-05 -5.02165e-05 -2.65331e-05
0.000335978 -0.00010138 -0.000100542 -2.48776e-05
0.0005057 -0.000152241 -0.000151483 -2.21159e-05
0.000337984 -0.000101989 -0.00010114 -2.48777e-05
0.000336981 -0.000101685 -0.000100841 -2.48776e-05
0.000167782 -5.09556e-05 -5.00683e-05 -2.65331e-05
0.000166783 -5.06486e-05 -4.97719e-05 -2.6533e-05
0.00050118 -0.000150875 -0.000150131 -2.21158e-05
0.000504193 -0.000151785 -0.000151032 -2.21159e-05
0.000167282 -5.08021e-05 -4.99201e-05 -2.65331e-05
0.000333972 -0.000100772 -9.99428e-05 -2.48775e-05
0.000502686 -0.00015133 -0.000150581 -2.21158e-05
0.000335978 -0.00010138 -0.000100542 -2.48776e-05
0.000334975 -0.000101076 -0.000100242 -2.48775e-05
0.000166783 -5.06486e-05 -4.97719e-05 -2.6533e-05
0.000165784 -5.03415e-05 -4.94755e-05 -2.6533e-05
0.000498166 -0.000149965 -0.000149229 -2.21157e-05
0.00050118 -0.000150875 -0.000150131 -2.21158e-05
0.000166284 -5.04951e-05 -4.96237e-05 -2.6533e-05
0.000331965 -0.000100163 -9.9344e-05 -2.48774e-05
0.000499673 -0.00015042 -0.00014968 -2.21158e-05
0.000333972 -0.000100772 -9.99428e-05 -2.48775e-05
0.000332968 -0.000100467 -9.96434e-05 -2.48775e-05
0.000165784 -5.03415e-05 -4.94755e-05 -2.6533e-05
0.000164786 -5.00345e-05 -4.91791e-05 -2.65329e-05
0.000495152 -0.000149054 -0.000148328 -2.21156e-05
0.000498166 -0.000149965 -0.000149229 -2.21157e-05
0.000165285 -5.0188e-05 -4.93273e-05 -2.6533e-05
0.000329959 -9.95539e-05 -9.87451e-05 -2.48774e-05
0.000496659 -0.000149509 -0.000148778 -2.21157e-05
0.000331965 -0.000100163 -9.9344e-05 -2.48774e-05
0.000330962 -9.98583e-05 -9.90445e-05 -2.48774e-05
0.000164786 -5.00345e-05 -4.91791e-05 -2.65329e-05
0.000163787 -4.97276e-05 -4.88826e-05 -2.65329e-05
0.000492138 -0.000148144 -0.000147426 -2.21156e-05
0.000495152 -0.000149054 -0.000148328 -2.21156e-05
0.000164286 -4.98811e-05 -4.90308e-05 -2.65329e-05
0.000327953 -9.89451e-05 -9.81462e-05 -2.48773e-05
0.000493645 -0.000148599 -0.000147877 -2.21156e-05
0.000329959 -9.95539e-05 -9.87451e-05 -2.48774e-05
0.000328956 -9.92495e-05 -9.84456e-05 -2.48773e-05
0.000163787 -4.97276e-05 -4.88826e-05 -2.65329e-05
0.000162788 -4.94206e-05 -4.8586e-05 -2.65328e-05
0.000489124 -0.000147233 -0.000146524 -2.21155e-05
0.000492138 -0.000148144 -0.000147426 -2.21156e-05
0.000163287 -4.95741e-05 -4.87343e-05 -2.65328e-05
0.000325947 -9.83364e-05 -9.75472e-05 -2.48772e-05
0.000490631 -0.000147689 -0.000146975 -2.21155e-05
0.000327953 -9.89451e-05 -9.81462e-05 -2.48773e-05
0.00032695 -9.86407e-05 -9.78467e-05 -2.48773e-05
0.000162788 -4.94206e-05 -4.8586e-05 -2.65328e-05
0.000161789 -4.91137e-05 -4.82895e-05 -2.65328e-05
0.00048611 -0.000146323 -0.000145623 -2.21154e-05
0.000489124 -0.000147233 -0.000146524 -2.21155e-05
0.000162289 -4.92672e-05 -4.84378e-05 -2.65328e-05
0.00032394 -9.77276e-05 -9.69482e-05 -2.48772e-05
0.000487617 -0.000146778 -0.000146074 -2.21155e-05
0.000325947 -9.83364e-05 -9.75472e-05 -2.48772e-05
0.000324943 -9.8032e-05 -9.72477e-05 -2.48772e-05
0.000161789 -4.91137e-05 -4.82895e-05 -2.65328e-05
0.00016079 -4.88068e-05 -4.79929e-05 -2.65327e-05
0.000483096 -0.000145413 -0.000144721 -2.21153e-05
0.00048611 -0.000146323 -0.000145623 -2.21154e-05
0.00016129 -4.89602e-05 -4.81412e-05 -2.65327e-05
0.000321934 -9.71189e-05 -9.63492e-05 -2.48771e-05
0.000484603 -0.000145868 -0.000145172 -2.21154e-05
0.00032394 -9.77276e-05 -9.69482e-05 -2.48772e-05
0.000322937 -9.74233e-05 -9.66487e-05 -2.48771e-05
0.00016079 -4.88068e-05 -4.79929e-05 -2.65327e-05
0.000159791 -4.84999e-05 -4.76963e-05 -2.65326e-05
0.000480081 -0.000144503 -0.00014382 -2.21153e-05
0.000483096 -0.000145413 -0.000144721 -2.21153e-05
0.000160291 -4.86534e-05 -4.78446e-05 -2.65327e-05
0.000319927 -9.65102e-05 -9.57502e-05 -2.4877e-05
0.000481588 -0.000144958 -0.00014427 -2.21153e-05
0.000321934 -9.71189e-05 -9.63492e-05 -2.48771e-05
0.000320931 -9.68146e-05 -9.60497e-05 -2.4877e-05
0.000159791 -4.84999e-05 -4.76963e-05 -2.65326e-05
0.000158792 -4.81931e-05 -4.73996e-05 -2.65326e-05
0.000477067 -0.000143592 -0.000142918 -2.21152e-05
0.000480081 -0.000144503 -0.00014382 -2.21153e-05
0.000159292 -4.83465e-05 -4.75479e-05 -2.65326e-05
0.000317921 -9.59015e-05 -9.51511e-05 -2.48769e-05
0.000478574 -0.000144047 -0.000143369 -2.21152e-05
0.000319927 -9.65102e-05 -9.57502e-05 -2.4877e-05
0.000318924 -9.62059e-05 -9.54507e-05 -2.4877e-05
0.000158792 -4.81931e-05 -4.73996e-05 -2.65326e-05
0.000157793 -4.78863e-05 -4.71029e-05 -2.65325e-05
0.000474053 -0.000142682 -0.000142016 -2.21151e-05
0.000477067 -0.000143592 -0.000142918 -2.21152e-05
0.000158293 -4.80397e-05 -4.72513e-05 -2.65326e-05
0.000315914 -9.52929e-05 -9.4552e-05 -2.48769e-05
0.00047556 -0.000143137 -0.000142467 -2.21151e-05
0.000317921 -9.59015e-05 -9.51511e-05 -2.48769e-05
0.000316918 -9.55972e-05 -9.48516e-05 -2.48769e-05
0.000157793 -4.78863e-05 -4.71029e-05 -2.65325e-05
0.000156794 -4.75795e-05 -4.68062e-05 -2.65325e-05
0.000471039 -0.000141772 -0.000141114 -2.2115e-05
0.000474053 -0.000142682 -0.000142016 -2.21151e-05
0.000157294 -4.77329e-05 -4.69546e-05 -2.65325e-05
0.000313908 -9.46843e-05 -9.39529e-05 -2.48768e-05
0.000472546 -0.000142227 -0.000141565 -2.21151e-05
0.000315914 -9.52929e-05 -9.4552e-05 -2.48769e-05
0.000314911 -9.49886e-05 -9.42525e-05 -2.48768e-05
0.000156794 -4.75795e-05 -4.68062e-05 -2.65325e-05
0.000155795 -4.72728e-05 -4.65094e-05 -2.65324e-05
0.000468024 -0.000140862 -0.000140213 -2.21149e-05
0.000471039 -0.000141772 -0.000141114 -2.2115e-05
0.000156294 -4.74261e-05 -4.66578e-05 -2.65324e-05
0.000311901 -9.40757e-05 -9.33537e-05 -2.48767e-05
0.000469532 -0.000141317 -0.000140664 -2.2115e-05
0.000313908 -9.46843e-05 -9.39529e-05 -2.48768e-05
0.000312904 -9.438e-05 -9.36533e-05 -2.48767e-05
0.000155795 -4.72728e-05 -4.65094e-05 -2.65324e-05
0.000154796 -4.69661e-05 -4.62126e-05 -2.65323e-05
0.00046501 -0.000139951 -0.000139311 -2.21148e-05
0.000468024 -0.000140862 -0.000140213 -2.21149e-05
0.000155295 -4.71194e-05 -4.6361e-05 -2.65324e-05
0.000309894 -9.34672e-05 -9.27545e-05 -2.48766e-05
0.000466517 -0.000140407 -0.000139762 -2.21149e-05
0.000311901 -9.40757e-05 -9.33537e-05 -2.48767e-05
0.000310898 -9.37714e-05 -9.30541e-05 -2.48767e-05
0.000154796 -4.69661e-05 -4.62126e-05 -2.65323e-05
0.000153796 -4.66594e-05 -4.59158e-05 -2.65323e-05
0.000461996 -0.000139041 -0.000138409 -2.21148e-05
0.00046501 -0.000139951 -0.000139311 -2.21148e-05
0.000154296 -4.68127e-05 -4.60642e-05 -2.65323e-05
0.000307888 -9.28586e-05 -9.21553e-05 -2.48766e-05
0.000463503 -0.000139496 -0.00013886 -2.21148e-05
0.000309894 -9.34672e-05 -9.27545e-05 -2.48766e-05
0.000308891 -9.31629e-05 -9.24549e-05 -2.48766e-05
0.000153796 -4.66594e-05 -4.59158e-05 -2.65323e-05
0.000152797 -4.63527e-05 -4.5619e-05 -2.65322e-05
0.000458981 -0.000138131 -0.000137507 -2.21147e-05
0.000461996 -0.000139041 -0.000138409 -2.21148e-05
0.000153297 -4.6506e-05 -4.57674e-05 -2.65322e-05
0.000305881 -9.22501e-05 -9.15561e-05 -2.48765e-05
0.000460489 -0.000138586 -0.000137958 -2.21147e-05
0.000307888 -9.28586e-05 -9.21553e-05 -2.48766e-05
0.000306884 -9.25544e-05 -9.18557e-05 -2.48765e-05
0.000152797 -4.63527e-05 -4.5619e-05 -2.65322e-05
0.000151798 -4.60461e-05 -4.53221e-05 -2.65321e-05
0.000455967 -0.000137221 -0.000136605 -2.21146e-05
0.000458981 -0.000138131 -0.000137507 -2.21147e-05
0.000152297 -4.61994e-05 -4.54705e-05 -2.65322e-05
0.000303874 -9.16417e-05 -9.09568e-05 -2.48764e-05
0.000457474 -0.000137676 -0.000137056 -2.21146e-05
0.000305881 -9.22501e-05 -9.15561e-05 -2.48765e-05
0.000304878 -9.19459e-05 -9.12564e-05 -2.48764e-05
0.000151798 -4.60461e-05 -4.53221e-05 -2.65321e-05
0.000150798 -4.57395e-05 -4.50252e-05 -2.65321e-05
0.000452952 -0.000136311 -0.000135703 -2.21145e-05
0.000455967 -0.000137221 -0.000136605 -2.21146e-05
0.000151298 -4.58928e-05 -4.51736e-05 -2.65321e-05
0.000301867 -9.10332e-05 -9.03575e-05 -2.48763e-05
0.00045446 -0.000136766 -0.000136154 -2.21146e-05
0.000303874 -9.16417e-05 -9.09568e-05 -2.48764e-05
0.000302871 -9.13374e-05 -9.06571e-05 -2.48764e-05
0.000150798 -4.57395e-05 -4.50252e-05 -2.65321e-05
0.000149799 -4.54329e-05 -4.47282e-05 -2.6532e-05
0.000449938 -0.000135401 -0.000134802 -2.21144e-05
0.000452952 -0.000136311 -0.000135703 -2.21145e-05
0.000150298 -4.55862e-05 -4.48767e-05 -2.65321e-05
0.00029986 -9.04248e-05 -8.97581e-05 -2.48763e-05
0.000451445 -0.000135856 -0.000135253 -2.21145e-05
0.000301867 -9.10332e-05 -9.03575e-05 -2.48763e-05
0.000300864 -9.0729e-05 -9.00578e-05 -2.48763e-05
0.000149799 -4.54329e-05 -4.47282e-05 -2.6532e-05
0.000148799 -4.51263e-05 -4.44312e-05 -2.6532e-05
0.000446923 -0.000134491 -0.0001339 -2.21144e-05
0.000449938 -0.000135401 -0.000134802 -2.21144e-05
0.000149299 -4.52796e-05 -4.45797e-05 -2.6532e-05
0.000297853 -8.98164e-05 -8.91587e-05 -2.48762e-05
0.000448431 -0.000134946 -0.000134351 -2.21144e-05
0.00029986 -9.04248e-05 -8.97581e-05 -2.48763e-05
0.000298857 -9.01206e-05 -8.94584e-05 -2.48762e-05
0.000148799 -4.51263e-05 -4.44312e-05 -2.6532e-05
0.0001478 -4.48198e-05 -4.41342e-05 -2.65319e-05
0.000443909 -0.000133581 -0.000132998 -2.21143e-05
0.000446923 -0.000134491 -0.0001339 -2.21144e-05
0.000148299 -4.49731e-05 -4.42827e-05 -2.65319e-05
0.000295846 -8.9208e-05 -8.85593e-05 -2.48761e-05
0.000445416 -0.000134036 -0.000133449 -2.21143e-05
0.000297853 -8.98164e-05 -8.91587e-05 -2.48762e-05
0.00029685 -8.95122e-05 -8.8859e-05 -2.48761e-05
0.0001478 -4.48198e-05 -4.41342e-05 -2.65319e-05
0.0001468 -4.45133e-05 -4.38371e-05 -2.65318e-05
0.000440894 -0.000132671 -0.000132096 -2.21142e-05
0.000443909 -0.000133581 -0.000132998 -2.21143e-05
0.0001473 -4.46666e-05 -4.39857e-05 -2.65319e-05
0.000293839 -8.85997e-05 -8.79599e-05 -2.4876e-05
0.000442401 -0.000133126 -0.000132547 -2.21142e-05
0.000295846 -8.9208e-05 -8.85593e-05 -2.48761e-05
0.000294843 -8.89039e-05 -8.82596e-05 -2.48761e-05
0.0001468 -4.45133e-05 -4.38371e-05 -2.65318e-05
0.0001458 -4.42069e-05 -4.35401e-05 -2.65318e-05
0.000437879 -0.000131761 -0.000131194 -2.21141e-05
0.000440894 -0.000132671 -0.000132096 -2.21142e-05
0.0001463 -4.43601e-05 -4.36886e-05 -2.65318e-05
0.000291832 -8.79914e-05 -8.73604e-05 -2.48759e-05
0.000439387 -0.000132216 -0.000131645 -2.21141e-05
0.000293839 -8.85997e-05 -8.79599e-05 -2.4876e-05
0.000292836 -8.82956e-05 -8.76602e-05 -2.4876e-05
0.0001458 -4.42069e-05 -4.35401e-05 -2.65318e-05
0.000144801 -4.39004e-05 -4.32429e-05 -2.65317e-05
0.000434865 -0.000130851 -0.000130292 -2.2114e-05
0.000437879 -0.000131761 -0.000131194 -2.21141e-05
0.0001453 -4.40536e-05 -4.33915e-05 -2.65317e-05
0.000289825 -8.73831e-05 -8.67609e-05 -2.48759e-05
0.000436372 -0.000131306 -0.000130743 -2.21141e-05
0.000291832 -8.79914e-05 -8.73604e-05 -2.48759e-05
0.000290829 -8.76873e-05 -8.70607e-05 -2.48759e-05
0.000144801 -4.39004e-05 -4.32429e-05 -2.65317e-05
0.000143801 -4.3594e-05 -4.29458e-05 -2.65316e-05
0.00043185 -0.000129941 -0.000129389 -2.21139e-05
0.000434865 -0.000130851 -0.000130292 -2.2114e-05
0.000144301 -4.37472e-05 -4.30944e-05 -2.65317e-05
0.000287818 -8.67749e-05 -8.61614e-05 -2.48758e-05
0.000433357 -0.000130396 -0.00012984 -2.2114e-05
0.000289825 -8.73831e-05 -8.67609e-05 -2.48759e-05
0.000288822 -8.7079e-05 -8.64612e-05 -2.48758e-05
0.000143801 -4.3594e-05 -4.29458e-05 -2.65316e-05
0.000142801 -4.32876e-05 -4.26486e-05 -2.65315e-05
0.000428835 -0.000129031 -0.000128487 -2.21138e-05
0.00043185 -0.000129941 -0.000129389 -2.21139e-05
0.000143301 -4.34408e-05 -4.27972e-05 -2.65316e-05
0.000285811 -8.61666e-05 -8.55618e-05 -2.48757e-05
0.000430342 -0.000129486 -0.000128938 -2.21139e-05
0.000287818 -8.67749e-05 -8.61614e-05 -2.48758e-05
0.000286815 -8.64707e-05 -8.58616e-05 -2.48757e-05
0.000142801 -4.32876e-05 -4.26486e-05 -2.65315e-05
0.000141801 -4.29813e-05 -4.23514e-05 -2.65315e-05
0.00042582 -0.000128121 -0.000127585 -2.21137e-05
0.000428835 -0.000129031 -0.000128487 -2.21138e-05
0.000142301 -4.31345e-05 -4.25e-05 -2.65315e-05
0.000283804 -8.55584e-05 -8.49622e-05 -2.48756e-05
0.000427328 -0.000128576 -0.000128036 -2.21138e-05
0.000285811 -8.61666e-05 -8.55618e-05 -2.48757e-05
0.000284807 -8.58625e-05 -8.5262e-05 -2.48757e-05
0.000141801 -4.29813e-05 -4.23514e-05 -2.65315e-05
0.000140801 -4.2675e-05 -4.20541e-05 -2.65314e-05
0.000422805 -0.000127212 -0.000126683 -2.21137e-05
0.00042582 -0.000128121 -0.000127585 -2.21137e-05
0.000141301 -4.28281e-05 -4.22028e-05 -2.65314e-05
0.000281796 -8.49503e-05 -8.43626e-05 -2.48755e-05
0.000424313 -0.000127667 -0.000127134 -2.21137e-05
0.000283804 -8.55584e-05 -8.49622e-05 -2.48756e-05
0.0002828 -8.52544e-05 -8.46624e-05 -2.48756e-05
0.000140801 -4.2675e-05 -4.20541e-05 -2.65314e-05
0.000139801 -4.23687e-05 -4.17569e-05 -2.65313e-05
0.00041979 -0.000126302 -0.000125781 -2.21136e-05
0.000422805 -0.000127212 -0.000126683 -2.21137e-05
0.000140301 -4.25218e-05 -4.19055e-05 -2.65314e-05
0.000279789 -8.43421e-05 -8.3763e-05 -2.48755e-05
0.000421298 -0.000126757 -0.000126232 -2.21136e-05
0.000281796 -8.49503e-05 -8.43626e-05 -2.48755e-05
0.000280793 -8.46462e-05 -8.40628e-05 -2.48755e-05
0.000139801 -4.23687e-05 -4.17569e-05 -2.65313e-05
0.000138801 -4.20624e-05 -4.14595e-05 -2.65313e-05
0.000416776 -0.000125392 -0.000124879 -2.21135e-05
0.00041979 -0.000126302 -0.000125781 -2.21136e-05
0.000139301 -4.22156e-05 -4.16082e-05 -2.65313e-05
0.000277782 -8.3734e-05 -8.31633e-05 -2.48754e-05
0.000418283 -0.000125847 -0.00012533 -2.21135e-05
0.000279789 -8.43421e-05 -8.3763e-05 -2.48755e-05
0.000278785 -8.40381e-05 -8.34631e-05 -2.48754e-05
0.000138801 -4.20624e-05 -4.14595e-05 -2.65313e-05
0.000137801 -4.17562e-05 -4.11622e-05 -2.65312e-05
0.000413761 -0.000124482 -0.000123976 -2.21134e-05
0.000416776 -0.000125392 -0.000124879 -2.21135e-05
0.000138301 -4.19093e-05 -4.13109e-05 -2.65312e-05
0.000275774 -8.31259e-05 -8.25636e-05 -2.48753e-05
0.000415268 -0.000124937 -0.000124428 -2.21134e-05
0.000277782 -8.3734e-05 -8.31633e-05 -2.48754e-05
0.000276778 -8.343e-05 -8.28634e-05 -2.48753e-05
0.000137801 -4.17562e-05 -4.11622e-05 -2.65312e-05
0.000136801 -4.145e-05 -4.08648e-05 -2.65311e-05
0.000410745 -0.000123573 -0.000123074 -2.21133e-05
0.000413761 -0.000124482 -0.000123976 -2.21134e-05
0.000137301 -4.16031e-05 -4.10135e-05 -2.65312e-05
0.000273767 -8.25179e-05 -8.19638e-05 -2.48752e-05
0.000412253 -0.000124027 -0.000123525 -2.21134e-05
0.000275774 -8.31259e-05 -8.25636e-05 -2.48753e-05
0.000274771 -8.28219e-05 -8.22637e-05 -2.48752e-05
0.000136801 -4.145e-05 -4.08648e-05 -2.65311e-05
0.000135801 -4.11438e-05 -4.05674e-05 -2.65311e-05
0.00040773 -0.000122663 -0.000122172 -2.21132e-05
0.000410745 -0.000123573 -0.000123074 -2.21133e-05
0.000136301 -4.12969e-05 -4.07161e-05 -2.65311e-05
0.000271759 -8.19098e-05 -8.1364e-05 -2.48751e-05
0.000409238 -0.000123118 -0.000122623 -2.21133e-05
0.000273767 -8.25179e-05 -8.19638e-05 -2.48752e-05
0.000272763 -8.22138e-05 -8.16639e-05 -2.48752e-05
0.000135801 -4.11438e-05 -4.05674e-05 -2.65311e-05
0.000134801 -4.08377e-05 -4.02699e-05 -2.6531e-05
0.000404715 -0.000121753 -0.000121269 -2.21131e-05
0.00040773 -0.000122663 -0.000122172 -2.21132e-05
0.000135301 -4.09908e-05 -4.04187e-05 -2.6531e-05
0.000269752 -8.13018e-05 -8.07642e-05 -2.4875e-05
0.000406223 -0.000122208 -0.000121721 -2.21132e-05
0.000271759 -8.19098e-05 -8.1364e-05 -2.48751e-05
0.000270755 -8.16058e-05 -8.10641e-05 -2.48751e-05
0.000134801 -4.08377e-05 -4.02699e-05 -2.6531e-05
0.000133801 -4.05316e-05 -3.99724e-05 -2.65309e-05
0.0004017 -0.000120844 -0.000120367 -2.2113e-05
0.000404715 -0.000121753 -0.000121269 -2.21131e-05
0.000134301 -4.06846e-05 -4.01212e-05 -2.6531e-05
0.000267744 -8.06938e-05 -8.01644e-05 -2.4875e-05
0.000403208 -0.000121298 -0.000120818 -2.21131e-05
0.000269752 -8.13018e-05 -8.07642e-05 -2.4875e-05
0.000268748 -8.09978e-05 -8.04643e-05 -2.4875e-05
0.000133801 -4.05316e-05 -3.99724e-05 -2.65309e-05
0.0001328 -4.02255e-05 -3.96749e-05 -2.65308e-05
0.000398685 -0.000119934 -0.000119465 -2.2113e-05
0.0004017 -0.000120844 -0.000120367 -2.2113e-05
0.000133301 -4.03786e-05 -3.98237e-05 -2.65309e-05
0.000265736 -8.00859e-05 -7.95645e-05 -2.48749e-05
0.000400193 -0.000120389 -0.000119916 -2.2113e-05
0.000267744 -8.06938e-05 -8.01644e-05 -2.4875e-05
0.00026674 -8.03899e-05 -7.98645e-05 -2.48749e-05
0.0001328 -4.02255e-05 -3.96749e-05 -2.65308e-05
0.0001318 -3.99195e-05 -3.93774e-05 -2.65308e-05
0.00039567 -0.000119024 -0.000118562 -2.21129e-05
0.000398685 -0.000119934 -0.000119465 -2.2113e-05
0.0001323 -4.00725e-05 -3.95262e-05 -2.65308e-05
0.000263729 -7.9478e-05 -7.89646e-05 -2.48748e-05
0.000397177 -0.000119479 -0.000119014 -2.21129e-05
0.000265736 -8.00859e-05 -7.95645e-05 -2.48749e-05
0.000264733 -7.97819e-05 -7.92646e-05 -2.48748e-05
0.0001318 -3.99195e-05 -3.93774e-05 -2.65308e-05
0.0001308 -3.96134e-05 -3.90798e-05 -2.65307e-05
0.000392654 -0.000118115 -0.00011766 -2.21128e-05
0.00039567 -0.000119024 -0.000118562 -2.21129e-05
0.0001313 -3.97664e-05 -3.92286e-05 -2.65307e-05
0.000261721 -7.88701e-05 -7.83647e-05 -2.48747e-05
0.000394162 -0.00011857 -0.000118111 -2.21128e-05
0.000263729 -7.9478e-05 -7.89646e-05 -2.48748e-05
0.000262725 -7.9174e-05 -7.86647e-05 -2.48747e-05
0.0001308 -3.96134e-05 -3.90798e-05 -2.65307e-05
0.000129799 -3.93074e-05 -3.87822e-05 -2.65306e-05
0.000389639 -0.000117205 -0.000116757 -2.21127e-05
0.000392654 -0.000118115 -0.00011766 -2.21128e-05
0.000130299 -3.94604e-05 -3.8931e-05 -2.65307e-05
0.000259713 -7.82622e-05 -7.77647e-05 -2.48746e-05
0.000391147 -0.00011766 -0.000117209 -2.21127e-05
0.000261721 -7.88701e-05 -7.83647e-05 -2.48747e-05
0.000260717 -7.85661e-05 -7.80647e-05 -2.48747e-05
0.000129799 -3.93074e-05 -3.87822e-05 -2.65306e-05
0.000128799 -3.90015e-05 -3.84845e-05 -2.65306e-05
0.000386624 -0.000116296 -0.000115855 -2.21126e-05
0.000389639 -0.000117205 -0.000116757 -2.21127e-05
0.000129299 -3.91545e-05 -3.86334e-05 -2.65306e-05
0.000257705 -7.76544e-05 -7.71647e-05 -2.48745e-05
0.000388132 -0.00011675 -0.000116306 -2.21126e-05
0.000259713 -7.82622e-05 -7.77647e-05 -2.48746e-05
0.000258709 -7.79583e-05 -7.74647e-05 -2.48746e-05
0.000128799 -3.90015e-05 -3.84845e-05 -2.65306e-05
0.000127798 -3.86955e-05 -3.81868e-05 -2.65305e-05
0.000383608 -0.000115386 -0.000114952 -2.21125e-05
0.000386624 -0.000116296 -0.000115855 -2.21126e-05
0.000128298 -3.88485e-05 -3.83357e-05 -2.65305e-05
0.000255698 -7.70466e-05 -7.65647e-05 -2.48744e-05
0.000385116 -0.000115841 -0.000115404 -2.21125e-05
0.000257705 -7.76544e-05 -7.71647e-05 -2.48745e-05
0.000256702 -7.73505e-05 -7.68647e-05 -2.48745e-05
0.000127798 -3.86955e-05 -3.81868e-05 -2.65305e-05
0.000126798 -3.83896e-05 -3.78891e-05 -2.65304e-05
0.000380593 -0.000114477 -0.00011405 -2.21124e-05
0.000383608 -0.000115386 -0.000114952 -2.21125e-05
0.000127298 -3.85426e-05 -3.8038e-05 -2.65304e-05
0.00025369 -7.64388e-05 -7.59647e-05 -2.48744e-05
0.000382101 -0.000114931 -0.000114501 -2.21125e-05
0.000255698 -7.70466e-05 -7.65647e-05 -2.48744e-05
0.000254694 -7.67427e-05 -7.62647e-05 -2.48744e-05
0.000126798 -3.83896e-05 -3.78891e-05 -2.65304e-05
0.000125797 -3.80838e-05 -3.75914e-05 -2.65303e-05
0.000377578 -0.000113567 -0.000113147 -2.21123e-05
0.000380593 -0.000114477 -0.00011405 -2.21124e-05
0.000126297 -3.82367e-05 -3.77403e-05 -2.65304e-05
0.000251682 -7.5831e-05 -7.53646e-05 -2.48743e-05
0.000379085 -0.000114022 -0.000113599 -2.21124e-05
0.00025369 -7.64388e-05 -7.59647e-05 -2.48744e-05
0.000252686 -7.61349e-05 -7.56646e-05 -2.48743e-05
0.000125797 -3.80838e-05 -3.75914e-05 -2.65303e-05
0.000124796 -3.77779e-05 -3.72936e-05 -2.65303e-05
0.000374562 -0.000112658 -0.000112245 -2.21122e-05
0.000377578 -0.000113567 -0.000113147 -2.21123e-05
0.000125297 -3.79308e-05 -3.74425e-05 -2.65303e-05
0.000249674 -7.52233e-05 -7.47645e-05 -2.48742e-05
0.00037607 -0.000113112 -0.000112696 -2.21123e-05
0.000251682 -7.5831e-05 -7.53646e-05 -2.48743e-05
0.000250678 -7.55272e-05 -7.50645e-05 -2.48742e-05
0.000124796 -3.77779e-05 -3.72936e-05 -2.65303e-05
0.000123796 -3.74721e-05 -3.69958e-05 -2.65302e-05
0.000371547 -0.000111748 -0.000111342 -2.21121e-05
0.000374562 -0.000112658 -0.000112245 -2.21122e-05
0.000124296 -3.7625e-05 -3.71447e-05 -2.65302e-05
0.000247666 -7.46156e-05 -7.41643e-05 -2.48741e-05
0.000373054 -0.000112203 -0.000111793 -2.21122e-05
0.000249674 -7.52233e-05 -7.47645e-05 -2.48742e-05
0.00024867 -7.49195e-05 -7.44644e-05 -2.48741e-05
0.000123796 -3.74721e-05 -3.69958e-05 -2.65302e-05
0.000122795 -3.71663e-05 -3.66979e-05 -2.65301e-05
0.000368531 -0.000110839 -0.000110439 -2.2112e-05
0.000371547 -0.000111748 -0.000111342 -2.21121e-05
0.000123295 -3.73192e-05 -3.68469e-05 -2.65302e-05
0.000245658 -7.40079e-05 -7.35642e-05 -2.4874e-05
0.000370039 -0.000111294 -0.000110891 -2.21121e-05
0.000247666 -7.46156e-05 -7.41643e-05 -2.48741e-05
0.000246662 -7.43118e-05 -7.38642e-05 -2.48741e-05
0.000122795 -3.71663e-05 -3.66979e-05 -2.65301e-05
0.000121794 -3.68606e-05 -3.64001e-05 -2.653e-05
0.000365515 -0.00010993 -0.000109537 -2.2112e-05
0.000368531 -0.000110839 -0.000110439 -2.2112e-05
0.000122294 -3.70134e-05 -3.6549e-05 -2.65301e-05
0.00024365 -7.34003e-05 -7.29639e-05 -2.48739e-05
0.000367023 -0.000110384 -0.000109988 -2.2112e-05
0.000245658 -7.40079e-05 -7.35642e-05 -2.4874e-05
0.000244654 -7.37041e-05 -7.32641e-05 -2.4874e-05
0.000121794 -3.68606e-05 -3.64001e-05 -2.653e-05
0.000120793 -3.65548e-05 -3.61021e-05 -2.653e-05
0.0003625 -0.00010902 -0.000108634 -2.21119e-05
0.000365515 -0.00010993 -0.000109537 -2.2112e-05
0.000121294 -3.67077e-05 -3.62511e-05 -2.653e-05
0.000241641 -7.27927e-05 -7.23637e-05 -2.48738e-05
0.000364008 -0.000109475 -0.000109085 -2.21119e-05
0.00024365 -7.34003e-05 -7.29639e-05 -2.48739e-05
0.000242645 -7.30965e-05 -7.26638e-05 -2.48739e-05
0.000120793 -3.65548e-05 -3.61021e-05 -2.653e-05
0.000119792 -3.62491e-05 -3.58042e-05 -2.65299e-05
0.000359484 -0.000108111 -0.000107731 -2.21118e-05
0.0003625 -0.00010902 -0.000108634 -2.21119e-05
0.000120293 -3.6402e-05 -3.59532e-05 -2.65299e-05
0.000239633 -7.21851e-05 -7.17634e-05 -2.48738e-05
0.000360992 -0.000108566 -0.000108183 -2.21118e-05
0.000241641 -7.27927e-05 -7.23637e-05 -2.48738e-05
0.000240637 -7.24889e-05 -7.20636e-05 -2.48738e-05
0.000119792 -3.62491e-05 -3.58042e-05 -2.65299e-05
0.000118791 -3.59435e-05 -3.55062e-05 -2.65298e-05
0.000356468 -0.000107202 -0.000106829 -2.21117e-05
0.000359484 -0.000108111 -0.000107731 -2.21118e-05
0.000119292 -3.60963e-05 -3.56552e-05 -2.65299e-05
0.000237625 -7.15775e-05 -7.11631e-05 -2.48737e-05
0.000357976 -0.000107656 -0.00010728 -2.21117e-05
0.000239633 -7.21851e-05 -7.17634e-05 -2.48738e-05
0.000238629 -7.18813e-05 -7.14633e-05 -2.48737e-05
0.000118791 -3.59435e-05 -3.55062e-05 -2.65298e-05
0.00011779 -3.56378e-05 -3.52082e-05 -2.65297e-05
0.000353453 -0.000106292 -0.000105926 -2.21116e-05
0.000356468 -0.000107202 -0.000106829 -2.21117e-05
0.000118291 -3.57906e-05 -3.53572e-05 -2.65298e-05
0.000235617 -7.097e-05 -7.05628e-05 -2.48736e-05
0.000354961 -0.000106747 -0.000106377 -2.21116e-05
0.000237625 -7.15775e-05 -7.11631e-05 -2.48737e-05
0.000236621 -7.12738e-05 -7.0863e-05 -2.48736e-05
0.00011779 -3.56378e-05 -3.52082e-05 -2.65297e-05
0.000116789 -3.53322e-05 -3.49101e-05 -2.65297e-05
0.000350437 -0.000105383 -0.000105023 -2.21115e-05
0.000353453 -0.000106292 -0.000105926 -2.21116e-05
0.00011729 -3.5485e-05 -3.50592e-05 -2.65297e-05
0.000233608 -7.03625e-05 -6.99624e-05 -2.48735e-05
0.000351945 -0.000105838 -0.000105474 -2.21115e-05
0.000235617 -7.097e-05 -7.05628e-05 -2.48736e-05
0.000234612 -7.06663e-05 -7.02626e-05 -2.48735e-05
0.000116789 -3.53322e-05 -3.49101e-05 -2.65297e-05
0.000115788 -3.50266e-05 -3.4612e-05 -2.65296e-05
0.000347421 -0.000104474 -0.00010412 -2.21114e-05
0.000350437 -0.000105383 -0.000105023 -2.21115e-05
0.000116289 -3.51794e-05 -3.47611e-05 -2.65296e-05
0.0002316 -6.9755e-05 -6.9362e-05 -2.48734e-05
0.000348929 -0.000104929 -0.000104572 -2.21115e-05
0.000233608 -7.03625e-05 -6.99624e-05 -2.48735e-05
0.000232604 -7.00588e-05 -6.96622e-05 -2.48735e-05
0.000115788 -3.50266e-05 -3.4612e-05 -2.65296e-05
0.000114787 -3.47211e-05 -3.43139e-05 -2.65295e-05
0.000344405 -0.000103565 -0.000103217 -2.21113e-05
0.000347421 -0.000104474 -0.00010412 -2.21114e-05
0.000115288 -3.48739e-05 -3.4463e-05 -2.65296e-05
0.000229591 -6.91476e-05 -6.87616e-05 -2.48733e-05
0.000345913 -0.000104019 -0.000103669 -2.21114e-05
0.0002316 -6.9755e-05 -6.9362e-05 -2.48734e-05
0.000230596 -6.94513e-05 -6.90618e-05 -2.48734e-05
0.000114787 -3.47211e-05 -3.43139e-05 -2.65295e-05
0.000113786 -3.44156e-05 -3.40158e-05 -2.65295e-05
0.000341389 -0.000102656 -0.000102314 -2.21112e-05
0.000344405 -0.000103565 -0.000103217 -2.21113e-05
0.000114286 -3.45683e-05 -3.41649e-05 -2.65295e-05
0.000227583 -6.85402e-05 -6.81612e-05 -2.48732e-05
0.000342897 -0.00010311 -0.000102766 -2.21113e-05
0.000229591 -6.91476e-05 -6.87616e-05 -2.48733e-05
0.000228587 -6.88439e-05 -6.84614e-05 -2.48733e-05
0.000113786 -3.44156e-05 -3.40158e-05 -2.65295e-05
0.000112784 -3.41101e-05 -3.37176e-05 -2.65294e-05
0.000338373 -0.000101747 -0.000101411 -2.21111e-05
0.000341389 -0.000102656 -0.000102314 -2.21112e-05
0.000113285 -3.42628e-05 -3.38667e-05 -2.65294e-05
0.000225574 -6.79328e-05 -6.75607e-05 -2.48732e-05
0.000339881 -0.000102201 -0.000101863 -2.21112e-05
0.000227583 -6.85402e-05 -6.81612e-05 -2.48732e-05
0.000226579 -6.82365e-05 -6.78609e-05 -2.48732e-05
0.000112784 -3.41101e-05 -3.37176e-05 -2.65294e-05
0.000111783 -3.38046e-05 -3.34194e-05 -2.65293e-05
0.000335357 -0.000100838 -0.000100508 -2.2111e-05
0.000338373 -0.000101747 -0.000101411 -2.21111e-05
0.000112284 -3.39573e-05 -3.35685e-05 -2.65293e-05
0.000223566 -6.73254e-05 -6.69602e-05 -2.48731e-05
0.000336865 -0.000101292 -0.00010096 -2.21111e-05
0.000225574 -6.79328e-05 -6.75607e-05 -2.48732e-05
0.00022457 -6.76291e-05 -6.72604e-05 -2.48731e-05
0.000111783 -3.38046e-05 -3.34194e-05 -2.65293e-05
0.000110782 -3.34992e-05 -3.31211e-05 -2.65292e-05
0.000332341 -9.99284e-05 -9.96055e-05 -2.2111e-05
0.000335357 -0.000100838 -0.000100508 -2.2111e-05
0.000111282 -3.36519e-05 -3.32703e-05 -2.65293e-05
0.000221557 -6.67181e-05 -6.63596e-05 -2.4873e-05
0.000333849 -0.000100383 -0.000100057 -2.2111e-05
0.000223566 -6.73254e-05 -6.69602e-05 -2.48731e-05
0.000222562 -6.70218e-05 -6.66599e-05 -2.4873e-05
0.000110782 -3.34992e-05 -3.31211e-05 -2.65292e-05
0.00010978 -3.31938e-05 -3.28228e-05 -2.65292e-05
0.000329325 -9.90194e-05 -9.87025e-05 -2.21109e-05
0.000332341 -9.99284e-05 -9.96055e-05 -2.2111e-05
0.000110281 -3.33465e-05 -3.2972e-05 -2.65292e-05
0.000219549 -6.61108e-05 -6.5759e-05 -2.48729e-05
0.000330833 -9.94739e-05 -9.9154e-05 -2.21109e-05
0.000221557 -6.67181e-05 -6.63596e-05 -2.4873e-05
0.000220553 -6.64145e-05 -6.60593e-05 -2.48729e-05
0.00010978 -3.31938e-05 -3.28228e-05 -2.65292e-05
0.000108779 -3.28884e-05 -3.25245e-05 -2.65291e-05
0.000326309 -9.81104e-05 -9.77994e-05 -2.21108e-05
0.000329325 -9.90194e-05 -9.87025e-05 -2.21109e-05
0.00010928 -3.30411e-05 -3.26737e-05 -2.65291e-05
0.00021754 -6.55035e-05 -6.51584e-05 -2.48728e-05
0.000327817 -9.85649e-05 -9.8251e-05 -2.21108e-05
0.000219549 -6.61108e-05 -6.5759e-05 -2.48729e-05
0.000218544 -6.58072e-05 -6.54587e-05 -2.48729e-05
0.000108779 -3.28884e-05 -3.25245e-05 -2.65291e-05
0.000107777 -3.25831e-05 -3.22262e-05 -2.6529e-05
0.000323293 -9.72014e-05 -9.68964e-05 -2.21107e-05
0.000326309 -9.81104e-05 -9.77994e-05 -2.21108e-05
0.000108278 -3.27357e-05 -3.23754e-05 -2.6529e-05
0.000215531 -6.48963e-05 -6.45578e-05 -2.48727e-05
0.000324801 -9.76559e-05 -9.73479e-05 -2.21107e-05
0.00021754 -6.55035e-05 -6.51584e-05 -2.48728e-05
0.000216535 -6.51999e-05 -6.48581e-05 -2.48728e-05
0.000107777 -3.25831e-05 -3.22262e-05 -2.6529e-05
0.000106776 -3.22778e-05 -3.19278e-05 -2.65289e-05
0.000320277 -9.62924e-05 -9.59933e-05 -2.21106e-05
0.000323293 -9.72014e-05 -9.68964e-05 -2.21107e-05
0.000107277 -3.24304e-05 -3.2077e-05 -2.6529e-05
0.000213522 -6.42891e-05 -6.39571e-05 -2.48726e-05
0.000321785 -9.67469e-05 -9.64448e-05 -2.21106e-05
0.000215531 -6.48963e-05 -6.45578e-05 -2.48727e-05
0.000214527 -6.45927e-05 -6.42574e-05 -2.48727e-05
0.000106776 -3.22778e-05 -3.19278e-05 -2.65289e-05
0.000105774 -3.19725e-05 -3.16294e-05 -2.65289e-05
0.000317261 -9.53835e-05 -9.50902e-05 -2.21105e-05
0.000320277 -9.62924e-05 -9.59933e-05 -2.21106e-05
0.000106275 -3.21251e-05 -3.17786e-05 -2.65289e-05
0.000211513 -6.36819e-05 -6.33564e-05 -2.48726e-05
0.000318769 -9.58379e-05 -9.55417e-05 -2.21105e-05
0.000213522 -6.42891e-05 -6.39571e-05 -2.48726e-05
0.000212518 -6.39855e-05 -6.36568e-05 -2.48726e-05
0.000105774 -3.19725e-05 -3.16294e-05 -2.65289e-05
0.000104773 -3.16672e-05 -3.13309e-05 -2.65288e-05
0.000314244 -9.44745e-05 -9.4187e-05 -2.21104e-05
0.000317261 -9.53835e-05 -9.50902e-05 -2.21105e-05
0.000105274 -3.18199e-05 -3.14801e-05 -2.65288e-05
0.000209505 -6.30747e-05 -6.27557e-05 -2.48725e-05
0.000315752 -9.4929e-05 -9.46386e-05 -2.21105e-05
0.000211513 -6.36819e-05 -6.33564e-05 -2.48726e-05
0.000210509 -6.33783e-05 -6.3056e-05 -2.48725e-05
0.000104773 -3.16672e-05 -3.13309e-05 -2.65288e-05
0.000103771 -3.1362e-05 -3.10324e-05 -2.65287e-05
0.000311228 -9.35656e-05 -9.32838e-05 -2.21103e-05
0.000314244 -9.44745e-05 -9.4187e-05 -2.21104e-05
0.000104272 -3.15146e-05 -3.11817e-05 -2.65288e-05
0.000207496 -6.24676e-05 -6.21549e-05 -2.48724e-05
0.000312736 -9.40201e-05 -9.37354e-05 -2.21104e-05
0.000209505 -6.30747e-05 -6.27557e-05 -2.48725e-05
0.0002085 -6.27712e-05 -6.24553e-05 -2.48724e-05
0.000103771 -3.1362e-05 -3.10324e-05 -2.65287e-05
0.000102769 -3.10568e-05 -3.07339e-05 -2.65286e-05
0.000308212 -9.26568e-05 -9.23806e-05 -2.21102e-05
0.000311228 -9.35656e-05 -9.32838e-05 -2.21103e-05
0.00010327 -3.12094e-05 -3.08832e-05 -2.65287e-05
0.000205487 -6.18605e-05 -6.15541e-05 -2.48723e-05
0.00030972 -9.31112e-05 -9.28322e-05 -2.21103e-05
0.000207496 -6.24676e-05 -6.21549e-05 -2.48724e-05
0.000206491 -6.2164e-05 -6.18545e-05 -2.48723e-05
0.000102769 -3.10568e-05 -3.07339e-05 -2.65286e-05
0.000101767 -3.07517e-05 -3.04353e-05 -2.65286e-05
0.000305195 -9.17479e-05 -9.14774e-05 -2.21101e-05
0.000308212 -9.26568e-05 -9.23806e-05 -2.21102e-05
0.000102268 -3.09042e-05 -3.05846e-05 -2.65286e-05
0.000203478 -6.12534e-05 -6.09533e-05 -2.48722e-05
0.000306703 -9.22023e-05 -9.1929e-05 -2.21102e-05
0.000205487 -6.18605e-05 -6.15541e-05 -2.48723e-05
0.000204482 -6.15569e-05 -6.12537e-05 -2.48723e-05
0.000101767 -3.07517e-05 -3.04353e-05 -2.65286e-05
0.000100766 -3.04465e-05 -3.01368e-05 -2.65285e-05
0.000302179 -9.08391e-05 -9.05742e-05 -2.211e-05
0.000305195 -9.17479e-05 -9.14774e-05 -2.21101e-05
0.000101267 -3.05991e-05 -3.02861e-05 -2.65285e-05
0.000201469 -6.06464e-05 -6.03524e-05 -2.48721e-05
0.000303687 -9.12935e-05 -9.10258e-05 -2.21101e-05
0.000203478 -6.12534e-05 -6.09533e-05 -2.48722e-05
0.000202473 -6.09499e-05 -6.06528e-05 -2.48722e-05
0.000100766 -3.04465e-05 -3.01368e-05 -2.65285e-05
9.97637e-05 -3.01414e-05 -2.98381e-05 -2.65284e-05
0.000299162 -8.99303e-05 -8.96709e-05 -2.211e-05
0.000302179 -9.08391e-05 -9.05742e-05 -2.211e-05
0.000100265 -3.0294e-05 -2.99875e-05 -2.65285e-05
0.00019946 -6.00393e-05 -5.97515e-05 -2.4872e-05
0.000300671 -9.03847e-05 -9.01225e-05 -2.211e-05
0.000201469 -6.06464e-05 -6.03524e-05 -2.48721e-05
0.000200464 -6.03429e-05 -6.0052e-05 -2.48721e-05
9.97637e-05 -3.01414e-05 -2.98381e-05 -2.65284e-05
9.87618e-05 -2.98364e-05 -2.95395e-05 -2.65283e-05
0.000296146 -8.90216e-05 -8.87676e-05 -2.21099e-05
0.000299162 -8.99303e-05 -8.96709e-05 -2.211e-05
9.92628e-05 -2.99889e-05 -2.96888e-05 -2.65284e-05
0.00019745 -5.94324e-05 -5.91506e-05 -2.4872e-05
0.000297654 -8.94759e-05 -8.92192e-05 -2.21099e-05
0.00019946 -6.00393e-05 -5.97515e-05 -2.4872e-05
0.000198455 -5.97359e-05 -5.94511e-05 -2.4872e-05
9.87618e-05 -2.98364e-05 -2.95395e-05 -2.65283e-05
9.77598e-05 -2.95313e-05 -2.92408e-05 -2.65283e-05
0.000293129 -8.81128e-05 -8.78642e-05 -2.21098e-05
0.000296146 -8.90216e-05 -8.87676e-05 -2.21099e-05
9.82608e-05 -2.96838e-05 -2.93901e-05 -2.65283e-05
0.000195441 -5.88254e-05 -5.85496e-05 -2.48719e-05
0.000294638 -8.85672e-05 -8.83159e-05 -2.21098e-05
0.00019745 -5.94324e-05 -5.91506e-05 -2.4872e-05
0.000196446 -5.91289e-05 -5.88501e-05 -2.48719e-05
9.77598e-05 -2.95313e-05 -2.92408e-05 -2.65283e-05
9.67578e-05 -2.92263e-05 -2.89421e-05 -2.65282e-05
0.000290113 -8.72041e-05 -8.69609e-05 -2.21097e-05
0.000293129 -8.81128e-05 -8.78642e-05 -2.21098e-05
9.72588e-05 -2.93788e-05 -2.90914e-05 -2.65282e-05
0.000193432 -5.82185e-05 -5.79487e-05 -2.48718e-05
0.000291621 -8.76584e-05 -8.74125e-05 -2.21097e-05
0.000195441 -5.88254e-05 -5.85496e-05 -2.48719e-05
0.000194437 -5.85219e-05 -5.82491e-05 -2.48718e-05
9.67578e-05 -2.92263e-05 -2.89421e-05 -2.65282e-05
9.57557e-05 -2.89213e-05 -2.86433e-05 -2.65281e-05
0.000287096 -8.62954e-05 -8.60575e-05 -2.21096e-05
0.000290113 -8.72041e-05 -8.69609e-05 -2.21097e-05
9.62568e-05 -2.90738e-05 -2.87927e-05 -2.65282e-05
0.000191423 -5.76116e-05 -5.73476e-05 -2.48717e-05
0.000288604 -8.67497e-05 -8.65092e-05 -2.21096e-05
0.000193432 -5.82185e-05 -5.79487e-05 -2.48718e-05
0.000192427 -5.7915e-05 -5.76481e-05 -2.48718e-05
9.57557e-05 -2.89213e-05 -2.86433e-05 -2.65281e-05
9.47536e-05 -2.86164e-05 -2.83445e-05 -2.65281e-05
0.000284079 -8.53867e-05 -8.5154e-05 -2.21095e-05
0.000287096 -8.62954e-05 -8.60575e-05 -2.21096e-05
9.52547e-05 -2.87688e-05 -2.84939e-05 -2.65281e-05
0.000189413 -5.70047e-05 -5.67466e-05 -2.48716e-05
0.000285588 -8.58411e-05 -8.56058e-05 -2.21096e-05
0.000191423 -5.76116e-05 -5.73476e-05 -2.48717e-05
0.000190418 -5.73081e-05 -5.70471e-05 -2.48717e-05
9.47536e-05 -2.86164e-05 -2.83445e-05 -2.65281e-05
9.37514e-05 -2.83114e-05 -2.80457e-05 -2.6528e-05
0.000281063 -8.44781e-05 -8.42506e-05 -2.21094e-05
0.000284079 -8.53867e-05 -8.5154e-05 -2.21095e-05
9.42525e-05 -2.84639e-05 -2.81951e-05 -2.6528e-05
0.000187404 -5.63978e-05 -5.61455e-05 -2.48715e-05
0.000282571 -8.49324e-05 -8.47023e-05 -2.21095e-05
0.000189413 -5.70047e-05 -5.67466e-05 -2.48716e-05
0.000188409 -5.67013e-05 -5.6446e-05 -2.48716e-05
9.37514e-05 -2.83114e-05 -2.80457e-05 -2.6528e-05
9.27492e-05 -2.80066e-05 -2.77468e-05 -2.65279e-05
0.000278046 -8.35695e-05 -8.33471e-05 -2.21093e-05
0.000281063 -8.44781e-05 -8.42506e-05 -2.21094e-05
9.32503e-05 -2.8159e-05 -2.78963e-05 -2.6528e-05
0.000185395 -5.5791e-05 -5.55444e-05 -2.48715e-05
0.000279554 -8.40238e-05 -8.37989e-05 -2.21094e-05
0.000187404 -5.63978e-05 -5.61455e-05 -2.48715e-05
0.000186399 -5.60944e-05 -5.5845e-05 -2.48715e-05
9.27492e-05 -2.80066e-05 -2.77468e-05 -2.65279e-05
9.17469e-05 -2.77017e-05 -2.74479e-05 -2.65278e-05
0.000275029 -8.26609e-05 -8.24436e-05 -2.21092e-05
0.000278046 -8.35695e-05 -8.33471e-05 -2.21093e-05
9.2248e-05 -2.78541e-05 -2.75974e-05 -2.65279e-05
0.000183385 -5.51842e-05 -5.49432e-05 -2.48714e-05
0.000276538 -8.31152e-05 -8.28954e-05 -2.21093e-05
0.000185395 -5.5791e-05 -5.55444e-05 -2.48715e-05
0.00018439 -5.54876e-05 -5.52438e-05 -2.48714e-05
9.17469e-05 -2.77017e-05 -2.74479e-05 -2.65278e-05
9.07446e-05 -2.73969e-05 -2.7149e-05 -2.65278e-05
0.000272013 -8.17523e-05 -8.15401e-05 -2.21092e-05
0.000275029 -8.26609e-05 -8.24436e-05 -2.21092e-05
9.12457e-05 -2.75493e-05 -2.72985e-05 -2.65278e-05
0.000181376 -5.45775e-05 -5.43421e-05 -2.48713e-05
0.000273521 -8.22066e-05 -8.19918e-05 -2.21092e-05
0.000183385 -5.51842e-05 -5.49432e-05 -2.48714e-05
0.00018238 -5.48808e-05 -5.46427e-05 -2.48713e-05
9.07446e-05 -2.73969e-05 -2.7149e-05 -2.65278e-05
8.97422e-05 -2.70921e-05 -2.68501e-05 -2.65277e-05
0.000268996 -8.08438e-05 -8.06365e-05 -2.21091e-05
0.000272013 -8.17523e-05 -8.15401e-05 -2.21092e-05
9.02434e-05 -2.72445e-05 -2.69995e-05 -2.65277e-05
0.000179366 -5.39707e-05 -5.37409e-05 -2.48712e-05
0.000270504 -8.12981e-05 -8.10883e-05 -2.21091e-05
0.000181376 -5.45775e-05 -5.43421e-05 -2.48713e-05
0.000180371 -5.42741e-05 -5.40415e-05 -2.48713e-05
8.97422e-05 -2.70921e-05 -2.68501e-05 -2.65277e-05
8.87398e-05 -2.67873e-05 -2.65511e-05 -2.65276e-05
0.000265979 -7.99353e-05 -7.97329e-05 -2.2109e-05
0.000268996 -8.08438e-05 -8.06365e-05 -2.21091e-05
8.9241e-05 -2.69397e-05 -2.67006e-05 -2.65277e-05
0.000177357 -5.3364e-05 -5.31396e-05 -2.48711e-05
0.000267487 -8.03895e-05 -8.01847e-05 -2.2109e-05
0.000179366 -5.39707e-05 -5.37409e-05 -2.48712e-05
0.000178361 -5.36674e-05 -5.34403e-05 -2.48712e-05
8.87398e-05 -2.67873e-05 -2.65511e-05 -2.65276e-05
8.77373e-05 -2.64825e-05 -2.6252e-05 -2.65276e-05
0.000262962 -7.90268e-05 -7.88293e-05 -2.21089e-05
0.000265979 -7.99353e-05 -7.97329e-05 -2.2109e-05
8.82385e-05 -2.66349e-05 -2.64016e-05 -2.65276e-05
0.000175347 -5.27574e-05 -5.25384e-05 -2.4871e-05
0.00026447 -7.9481e-05 -7.92811e-05 -2.21089e-05
0.000177357 -5.3364e-05 -5.31396e-05 -2.48711e-05
0.000176352 -5.30607e-05 -5.2839e-05 -2.48711e-05
8.77373e-05 -2.64825e-05 -2.6252e-05 -2.65276e-05
8.67348e-05 -2.61778e-05 -2.5953e-05 -2.65275e-05
0.000259945 -7.81183e-05 -7.79257e-05 -2.21088e-05
0.000262962 -7.90268e-05 -7.88293e-05 -2.21089e-05
8.7236e-05 -2.63302e-05 -2.61025e-05 -2.65275e-05
0.000173337 -5.21507e-05 -5.19371e-05 -2.4871e-05
0.000261453 -7.85726e-05 -7.83775e-05 -2.21088e-05
0.000175347 -5.27574e-05 -5.25384e-05 -2.4871e-05
0.000174342 -5.2454e-05 -5.22377e-05 -2.4871e-05
8.67348e-05 -2.61778e-05 -2.5953e-05 -2.65275e-05
8.57322e-05 -2.58732e-05 -2.56539e-05 -2.65274e-05
0.000256928 -7.72099e-05 -7.7022e-05 -2.21087e-05
0.000259945 -7.81183e-05 -7.79257e-05 -2.21088e-05
8.62335e-05 -2.60255e-05 -2.58034e-05 -2.65275e-05
0.000171327 -5.15441e-05 -5.13357e-05 -2.48709e-05
0.000258436 -7.76641e-05 -7.74738e-05 -2.21088e-05
0.000173337 -5.21507e-05 -5.19371e-05 -2.4871e-05
0.000172332 -5.18474e-05 -5.16364e-05 -2.48709e-05
8.57322e-05 -2.58732e-05 -2.56539e-05 -2.65274e-05
8.47296e-05 -2.55685e-05 -2.53547e-05 -2.65274e-05
0.000253911 -7.63015e-05 -7.61183e-05 -2.21086e-05
0.000256928 -7.72099e-05 -7.7022e-05 -2.21087e-05
8.52309e-05 -2.57208e-05 -2.55043e-05 -2.65274e-05
0.000169318 -5.09375e-05 -5.07344e-05 -2.48708e-05
0.000255419 -7.67557e-05 -7.65701e-05 -2.21087e-05
0.000171327 -5.15441e-05 -5.13357e-05 -2.48709e-05
0.000170323 -5.12408e-05 -5.1035e-05 -2.48708e-05
8.47296e-05 -2.55685e-05 -2.53547e-05 -2.65274e-05
8.37269e-05 -2.52639e-05 -2.50556e-05 -2.65273e-05
0.000250894 -7.53931e-05 -7.52146e-05 -2.21085e-05
0.000253911 -7.63015e-05 -7.61183e-05 -2.21086e-05
8.42283e-05 -2.54162e-05 -2.52052e-05 -2.65273e-05
0.000167308 -5.03309e-05 -5.0133e-05 -2.48707e-05
0.000252402 -7.58473e-05 -7.56664e-05 -2.21086e-05
0.000169318 -5.09375e-05 -5.07344e-05 -2.48708e-05
0.000168313 -5.06342e-05 -5.04337e-05 -2.48708e-05
8.37269e-05 -2.52639e-05 -2.50556e-05 -2.65273e-05
8.27242e-05 -2.49593e-05 -2.47564e-05 -2.65272e-05
0.000247877 -7.44848e-05 -7.43108e-05 -2.21085e-05
0.000250894 -7.53931e-05 -7.52146e-05 -2.21085e-05
8.32256e-05 -2.51116e-05 -2.4906e-05 -2.65273e-05
0.000165298 -4.97244e-05 -4.95315e-05 -2.48706e-05
0.000249385 -7.49389e-05 -7.47627e-05 -2.21085e-05
0.000167308 -5.03309e-05 -5.0133e-05 -2.48707e-05
0.000166303 -5.00277e-05 -4.98323e-05 -2.48707e-05
8.27242e-05 -2.49593e-05 -2.47564e-05 -2.65272e-05
8.17214e-05 -2.46547e-05 -2.44572e-05 -2.65272e-05
0.000244859 -7.35764e-05 -7.3407e-05 -2.21084e-05
0.000247877 -7.44848e-05 -7.43108e-05 -2.21085e-05
8.22228e-05 -2.4807e-05 -2.46068e-05 -2.65272e-05
0.000163288 -4.91179e-05 -4.89301e-05 -2.48706e-05
0.000246368 -7.40306e-05 -7.38589e-05 -2.21084e-05
0.000165298 -4.97244e-05 -4.95315e-05 -2.48706e-05
0.000164293 -4.94212e-05 -4.92308e-05 -2.48706e-05
8.17214e-05 -2.46547e-05 -2.44572e-05 -2.65272e-05
8.07186e-05 -2.43502e-05 -2.41579e-05 -2.65271e-05
0.000241842 -7.26681e-05 -7.25032e-05 -2.21083e-05
0.000244859 -7.35764e-05 -7.3407e-05 -2.21084e-05
8.122e-05 -2.45025e-05 -2.43075e-05 -2.65271e-05
0.000161278 -4.85114e-05 -4.83286e-05 -2.48705e-05
0.000243351 -7.31223e-05 -7.29551e-05 -2.21083e-05
0.000163288 -4.91179e-05 -4.89301e-05 -2.48706e-05
0.000162283 -4.88147e-05 -4.86293e-05 -2.48705e-05
8.07186e-05 -2.43502e-05 -2.41579e-05 -2.65271e-05
7.97157e-05 -2.40457e-05 -2.38586e-05 -2.6527e-05
0.000238825 -7.17598e-05 -7.15994e-05 -2.21082e-05
0.000241842 -7.26681e-05 -7.25032e-05 -2.21083e-05
8.02172e-05 -2.4198e-05 -2.40082e-05 -2.65271e-05
0.000159268 -4.7905e-05 -4.77271e-05 -2.48704e-05
0.000240334 -7.2214e-05 -7.20513e-05 -2.21082e-05
0.000161278 -4.85114e-05 -4.83286e-05 -2.48705e-05
0.000160273 -4.82082e-05 -4.80278e-05 -2.48704e-05
7.97157e-05 -2.40457e-05 -2.38586e-05 -2.6527e-05
7.87128e-05 -2.37412e-05 -2.35592e-05 -2.6527e-05
0.000235808 -7.08516e-05 -7.06955e-05 -2.21081e-05
0.000238825 -7.17598e-05 -7.15994e-05 -2.21082e-05
7.92143e-05 -2.38935e-05 -2.37089e-05 -2.6527e-05
0.000157258 -4.72986e-05 -4.71255e-05 -2.48703e-05
0.000237316 -7.13057e-05 -7.11474e-05 -2.21082e-05
0.000159268 -4.7905e-05 -4.77271e-05 -2.48704e-05
0.000158263 -4.76018e-05 -4.74263e-05 -2.48704e-05
7.87128e-05 -2.37412e-05 -2.35592e-05 -2.6527e-05
7.77099e-05 -2.34368e-05 -2.32599e-05 -2.65269e-05
0.00023279 -6.99434e-05 -6.97916e-05 -2.2108e-05
0.000235808 -7.08516e-05 -7.06955e-05 -2.21081e-05
7.82113e-05 -2.3589e-05 -2.34096e-05 -2.65269e-05
0.000155248 -4.66922e-05 -4.65239e-05 -2.48702e-05
0.000234299 -7.03975e-05 -7.02436e-05 -2.21081e-05
0.000157258 -4.72986e-05 -4.71255e-05 -2.48703e-05
0.000156253 -4.69954e-05 -4.68247e-05 -2.48703e-05
7.77099e-05 -2.34368e-05 -2.32599e-05 -2.65269e-05
7.67068e-05 -2.31324e-05 -2.29605e-05 -2.65268e-05
0.000229773 -6.90352e-05 -6.88877e-05 -2.21079e-05
0.00023279 -6.99434e-05 -6.97916e-05 -2.2108e-05
7.72084e-05 -2.32846e-05 -2.31102e-05 -2.65269e-05
0.000153238 -4.60858e-05 -4.59223e-05 -2.48702e-05
0.000231282 -6.94893e-05 -6.93396e-05 -2.2108e-05
0.000155248 -4.66922e-05 -4.65239e-05 -2.48702e-05
0.000154243 -4.6389e-05 -4.62231e-05 -2.48702e-05
7.67068e-05 -2.31324e-05 -2.29605e-05 -2.65268e-05
7.57038e-05 -2.2828e-05 -2.2661e-05 -2.65268e-05
0.000226756 -6.8127e-05 -6.79837e-05 -2.21079e-05
0.000229773 -6.90352e-05 -6.88877e-05 -2.21079e-05
7.62053e-05 -2.29802e-05 -2.28108e-05 -2.65268e-05
0.000151228 -4.54795e-05 -4.53207e-05 -2.48701e-05
0.000228264 -6.85811e-05 -6.84357e-05 -2.21079e-05
0.000153238 -4.60858e-05 -4.59223e-05 -2.48702e-05
0.000152233 -4.57827e-05 -4.56215e-05 -2.48701e-05
7.57038e-05 -2.2828e-05 -2.2661e-05 -2.65268e-05
7.47007e-05 -2.25237e-05 -2.23616e-05 -2.65267e-05
0.000223738 -6.72188e-05 -6.70797e-05 -2.21078e-05
0.000226756 -6.8127e-05 -6.79837e-05 -2.21079e-05
7.52022e-05 -2.26758e-05 -2.25113e-05 -2.65267e-05
0.000149217 -4.48732e-05 -4.4719e-05 -2.487e-05
0.000225247 -6.76729e-05 -6.75317e-05 -2.21078e-05
0.000151228 -4.54795e-05 -4.53207e-05 -2.48701e-05
0.000150223 -4.51763e-05 -4.50198e-05 -2.487e-05
7.47007e-05 -2.25237e-05 -2.23616e-05 -2.65267e-05
7.36975e-05 -2.22193e-05 -2.20621e-05 -2.65266e-05
0.000220721 -6.63107e-05 -6.61757e-05 -2.21077e-05
0.000223738 -6.72188e-05 -6.70797e-05 -2.21078e-05
7.41991e-05 -2.23715e-05 -2.22118e-05 -2.65267e-05
0.000147207 -4.42669e-05 -4.41173e-05 -2.48699e-05
0.000222229 -6.67648e-05 -6.66277e-05 -2.21077e-05
0.000149217 -4.48732e-05 -4.4719e-05 -2.487e-05
0.000148212 -4.457e-05 -4.44181e-05 -2.487e-05
7.36975e-05 -2.22193e-05 -2.20621e-05 -2.65266e-05
7.26943e-05 -2.19151e-05 -2.17625e-05 -2.65266e-05
0.000217703 -6.54026e-05 -6.52717e-05 -2.21076e-05
0.000220721 -6.63107e-05 -6.61757e-05 -2.21077e-05
7.31959e-05 -2.20672e-05 -2.19123e-05 -2.65266e-05
0.000145197 -4.36607e-05 -4.35155e-05 -2.48699e-05
0.000219212 -6.58566e-05 -6.57237e-05 -2.21076e-05
0.000147207 -4.42669e-05 -4.41173e-05 -2.48699e-05
0.000146202 -4.39638e-05 -4.38164e-05 -2.48699e-05
7.26943e-05 -2.19151e-05 -2.17625e-05 -2.65266e-05
7.1691e-05 -2.16108e-05 -2.1463e-05 -2.65265e-05
0.000214686 -6.44945e-05 -6.43676e-05 -2.21075e-05
0.000217703 -6.54026e-05 -6.52717e-05 -2.21076e-05
7.21927e-05 -2.17629e-05 -2.16127e-05 -2.65265e-05
0.000143187 -4.30544e-05 -4.29137e-05 -2.48698e-05
0.000216194 -6.49486e-05 -6.48197e-05 -2.21076e-05
0.000145197 -4.36607e-05 -4.35155e-05 -2.48699e-05
0.000144192 -4.33576e-05 -4.32146e-05 -2.48698e-05
7.1691e-05 -2.16108e-05 -2.1463e-05 -2.65265e-05
7.06877e-05 -2.13066e-05 -2.11633e-05 -2.65264e-05
0.000211668 -6.35865e-05 -6.34635e-05 -2.21074e-05
0.000214686 -6.44945e-05 -6.43676e-05 -2.21075e-05
7.11894e-05 -2.14587e-05 -2.13132e-05 -2.65265e-05
0.000141176 -4.24483e-05 -4.23119e-05 -2.48697e-05
0.000213177 -6.40405e-05 -6.39156e-05 -2.21075e-05
0.000143187 -4.30544e-05 -4.29137e-05 -2.48698e-05
0.000142181 -4.27514e-05 -4.26128e-05 -2.48697e-05
7.06877e-05 -2.13066e-05 -2.11633e-05 -2.65264e-05
6.96844e-05 -2.10024e-05 -2.08637e-05 -2.65264e-05
0.00020865 -6.26784e-05 -6.25594e-05 -2.21074e-05
0.000211668 -6.35865e-05 -6.34635e-05 -2.21074e-05
7.0186e-05 -2.11545e-05 -2.10135e-05 -2.65264e-05
0.000139166 -4.18421e-05 -4.17101e-05 -2.48696e-05
0.000210159 -6.31325e-05 -6.30115e-05 -2.21074e-05
0.000141176 -4.24483e-05 -4.23119e-05 -2.48697e-05
0.000140171 -4.21452e-05 -4.2011e-05 -2.48697e-05
6.96844e-05 -2.10024e-05 -2.08637e-05 -2.65264e-05
6.86809e-05 -2.06982e-05 -2.0564e-05 -2.65263e-05
0.000205633 -6.17705e-05 -6.16553e-05 -2.21073e-05
0.00020865 -6.26784e-05 -6.25594e-05 -2.21074e-05
6.91827e-05 -2.08503e-05 -2.07139e-05 -2.65263e-05
0.000137155 -4.1236e-05 -4.11082e-05 -2.48696e-05
0.000207142 -6.22244e-05 -6.21073e-05 -2.21073e-05
0.000139166 -4.18421e-05 -4.17101e-05 -2.48696e-05
0.00013816 -4.1539e-05 -4.14092e-05 -2.48696e-05
6.86809e-05 -2.06982e-05 -2.0564e-05 -2.65263e-05
6.76775e-05 -2.03941e-05 -2.02643e-05 -2.65262e-05
0.000202615 -6.08625e-05 -6.07511e-05 -2.21072e-05
0.000205633 -6.17705e-05 -6.16553e-05 -2.21073e-05
6.81792e-05 -2.05461e-05 -2.04142e-05 -2.65263e-05
0.000135145 -4.06299e-05 -4.05063e-05 -2.48695e-05
0.000204124 -6.13165e-05 -6.12032e-05 -2.21072e-05
0.000137155 -4.1236e-05 -4.11082e-05 -2.48696e-05
0.00013615 -4.09329e-05 -4.08073e-05 -2.48695e-05
6.76775e-05 -2.03941e-05 -2.02643e-05 -2.65262e-05
6.6674e-05 -2.009e-05 -1.99646e-05 -2.65262e-05
0.000199597 -5.99545e-05 -5.98469e-05 -2.21071e-05
0.000202615 -6.08625e-05 -6.07511e-05 -2.21072e-05
6.71757e-05 -2.0242e-05 -2.01144e-05 -2.65262e-05
0.000133134 -4.00238e-05 -3.99044e-05 -2.48694e-05
0.000201106 -6.04085e-05 -6.0299e-05 -2.21072e-05
0.000135145 -4.06299e-05 -4.05063e-05 -2.48695e-05
0.000134139 -4.03268e-05 -4.02054e-05 -2.48694e-05
6.6674e-05 -2.009e-05 -1.99646e-05 -2.65262e-05
6.56704e-05 -1.97859e-05 -1.96648e-05 -2.65261e-05
0.000196579 -5.90466e-05 -5.89426e-05 -2.2107e-05
0.000199597 -5.99545e-05 -5.98469e-05 -2.21071e-05
6.61722e-05 -1.99379e-05 -1.98147e-05 -2.65262e-05
0.000131123 -3.94177e-05 -3.93024e-05 -2.48693e-05
0.000198088 -5.95006e-05 -5.93948e-05 -2.21071e-05
0.000133134 -4.00238e-05 -3.99044e-05 -2.48694e-05
0.000132129 -3.97208e-05 -3.96034e-05 -2.48694e-05
6.56704e-05 -1.97859e-05 -1.96648e-05 -2.65261e-05
6.46668e-05 -1.94818e-05 -1.9365e-05 -2.65261e-05
0.000193562 -5.81387e-05 -5.80384e-05 -2.2107e-05
0.000196579 -5.90466e-05 -5.89426e-05 -2.2107e-05
6.51686e-05 -1.96339e-05 -1.95149e-05 -2.65261e-05
0.000129113 -3.88117e-05 -3.87004e-05 -2.48693e-05
0.000195071 -5.85927e-05 -5.84905e-05 -2.2107e-05
0.000131123 -3.94177e-05 -3.93024e-05 -2.48693e-05
0.000130118 -3.91147e-05 -3.90014e-05 -2.48693e-05
6.46668e-05 -1.94818e-05 -1.9365e-05 -2.65261e-05
6.36631e-05 -1.91778e-05 -1.90651e-05 -2.6526e-05
0.000190544 -5.72308e-05 -5.71341e-05 -2.21069e-05
0.000193562 -5.81387e-05 -5.80384e-05 -2.2107e-05
6.4165e-05 -1.93298e-05 -1.92151e-05 -2.6526e-05
0.000127102 -3.82057e-05 -3.80984e-05 -2.48692e-05
0.000192053 -5.76848e-05 -5.75862e-05 -2.21069e-05
0.000129113 -3.88117e-05 -3.87004e-05 -2.48693e-05
0.000128107 -3.85087e-05 -3.83994e-05 -2.48692e-05
6.36631e-05 -1.91778e-05 -1.90651e-05 -2.6526e-05
6.26594e-05 -1.88738e-05 -1.87653e-05 -2.65259e-05
0.000187526 -5.6323e-05 -5.62298e-05 -2.21068e-05
0.000190544 -5.72308e-05 -5.71341e-05 -2.21069e-05
6.31613e-05 -1.90258e-05 -1.89152e-05 -2.6526e-05
0.000125091 -3.75998e-05 -3.74963e-05 -2.48691e-05
0.000189035 -5.67769e-05 -5.66819e-05 -2.21068e-05
0.000127102 -3.82057e-05 -3.80984e-05 -2.48692e-05
0.000126097 -3.79028e-05 -3.77974e-05 -2.48691e-05
6.26594e-05 -1.88738e-05 -1.87653e-05 -2.65259e-05
6.16557e-05 -1.85699e-05 -1.84653e-05 -2.65259e-05
0.000184508 -5.54152e-05 -5.53254e-05 -2.21067e-05
0.000187526 -5.6323e-05 -5.62298e-05 -2.21068e-05
6.21576e-05 -1.87219e-05 -1.86153e-05 -2.65259e-05
0.00012308 -3.69939e-05 -3.68942e-05 -2.4869e-05
0.000186017 -5.58691e-05 -5.57776e-05 -2.21068e-05
0.000125091 -3.75998e-05 -3.74963e-05 -2.48691e-05
0.000124086 -3.72968e-05 -3.71953e-05 -2.48691e-05
6.16557e-05 -1.85699e-05 -1.84653e-05 -2.65259e-05
6.06519e-05 -1.8266e-05 -1.81654e-05 -2.65258e-05
0.00018149 -5.45074e-05 -5.4421e-05 -2.21066e-05
0.000184508 -5.54152e-05 -5.53254e-05 -2.21067e-05
6.11538e-05 -1.84179e-05 -1.83154e-05 -2.65259e-05
0.00012107 -3.6388e-05 -3.62921e-05 -2.4869e-05
0.000182999 -5.49613e-05 -5.48732e-05 -2.21067e-05
0.00012308 -3.69939e-05 -3.68942e-05 -2.4869e-05
0.000122075 -3.66909e-05 -3.65932e-05 -2.4869e-05
6.06519e-05 -1.8266e-05 -1.81654e-05 -2.65258e-05
5.9648e-05 -1.79621e-05 -1.78654e-05 -2.65258e-05
0.000178472 -5.35996e-05 -5.35166e-05 -2.21066e-05
0.00018149 -5.45074e-05 -5.4421e-05 -2.21066e-05
6.01499e-05 -1.8114e-05 -1.80154e-05 -2.65258e-05
0.000119059 -3.57821e-05 -3.56899e-05 -2.48689e-05
0.000179981 -5.40535e-05 -5.39688e-05 -2.21066e-05
0.00012107 -3.6388e-05 -3.62921e-05 -2.4869e-05
0.000120064 -3.6085e-05 -3.5991e-05 -2.48689e-05
5.9648e-05 -1.79621e-05 -1.78654e-05 -2.65258e-05
5.86441e-05 -1.76582e-05 -1.75654e-05 -2.65257e-05
0.000175454 -5.26919e-05 -5.26122e-05 -2.21065e-05
0.000178472 -5.35996e-05 -5.35166e-05 -2.21066e-05
5.91461e-05 -1.78101e-05 -1.77154e-05 -2.65257e-05
0.000117048 -3.51762e-05 -3.50878e-05 -2.48688e-05
0.000176963 -5.31457e-05 -5.30644e-05 -2.21065e-05
0.000119059 -3.57821e-05 -3.56899e-05 -2.48689e-05
0.000118053 -3.54792e-05 -3.53889e-05 -2.48689e-05
5.86441e-05 -1.76582e-05 -1.75654e-05 -2.65257e-05
5.76401e-05 -1.73544e-05 -1.72653e-05 -2.65257e-05
0.000172436 -5.17842e-05 -5.17077e-05 -2.21064e-05
0.000175454 -5.26919e-05 -5.26122e-05 -2.21065e-05
5.81421e-05 -1.75063e-05 -1.74154e-05 -2.65257e-05
0.000115037 -3.45704e-05 -3.44855e-05 -2.48688e-05
0.000173945 -5.2238e-05 -5.216e-05 -2.21064e-05
0.000117048 -3.51762e-05 -3.50878e-05 -2.48688e-05
0.000116042 -3.48733e-05 -3.47866e-05 -2.48688e-05
5.76401e-05 -1.73544e-05 -1.72653e-05 -2.65257e-05
5.66361e-05 -1.70506e-05 -1.69652e-05 -2.65256e-05
0.000169417 -5.08765e-05 -5.08032e-05 -2.21063e-05
0.000172436 -5.17842e-05 -5.17077e-05 -2.21064e-05
5.71381e-05 -1.72025e-05 -1.71153e-05 -2.65256e-05
0.000113026 -3.39646e-05 -3.38833e-05 -2.48687e-05
0.000170926 -5.13303e-05 -5.12555e-05 -2.21064e-05
0.000115037 -3.45704e-05 -3.44855e-05 -2.48688e-05
0.000114031 -3.42675e-05 -3.41844e-05 -2.48687e-05
5.66361e-05 -1.70506e-05 -1.69652e-05 -2.65256e-05
5.56321e-05 -1.67468e-05 -1.66651e-05 -2.65255e-05
0.000166399 -4.99688e-05 -4.98987e-05 -2.21063e-05
0.000169417 -5.08765e-05 -5.08032e-05 -2.21063e-05
5.61341e-05 -1.68987e-05 -1.68152e-05 -2.65256e-05
0.000111015 -3.33589e-05 -3.3281e-05 -2.48686e-05
0.000167908 -5.04226e-05 -5.0351e-05 -2.21063e-05
0.000113026 -3.39646e-05 -3.38833e-05 -2.48687e-05
0.00011202 -3.36617e-05 -3.35821e-05 -2.48687e-05
5.56321e-05 -1.67468e-05 -1.66651e-05 -2.65255e-05
5.4628e-05 -1.64431e-05 -1.6365e-05 -2.65255e-05
0.000163381 -4.90612e-05 -4.89942e-05 -2.21062e-05
0.000166399 -4.99688e-05 -4.98987e-05 -2.21063e-05
5.513e-05 -1.65949e-05 -1.6515e-05 -2.65255e-05
0.000109003 -3.27531e-05 -3.26787e-05 -2.48685e-05
0.00016489 -4.9515e-05 -4.94464e-05 -2.21062e-05
0.000111015 -3.33589e-05 -3.3281e-05 -2.48686e-05
0.000110009 -3.3056e-05 -3.29798e-05 -2.48686e-05
5.4628e-05 -1.64431e-05 -1.6365e-05 -2.65255e-05
5.36238e-05 -1.61393e-05 -1.60648e-05 -2.65254e-05
0.000160363 -4.81535e-05 -4.80896e-05 -2.21061e-05
0.000163381 -4.90612e-05 -4.89942e-05 -2.21062e-05
5.41259e-05 -1.62912e-05 -1.62149e-05 -2.65255e-05
0.000106992 -3.21474e-05 -3.20763e-05 -2.48685e-05
0.000161872 -4.86074e-05 -4.85419e-05 -2.21061e-05
0.000109003 -3.27531e-05 -3.26787e-05 -2.48685e-05
0.000107998 -3.24503e-05 -3.23775e-05 -2.48685e-05
5.36238e-05 -1.61393e-05 -1.60648e-05 -2.65254e-05
5.26196e-05 -1.58357e-05 -1.57645e-05 -2.65254e-05
0.000157344 -4.7246e-05 -4.7185e-05 -2.2106e-05
0.000160363 -4.81535e-05 -4.80896e-05 -2.21061e-05
5.31217e-05 -1.59875e-05 -1.59147e-05 -2.65254e-05
0.000104981 -3.15418e-05 -3.14739e-05 -2.48684e-05
0.000158853 -4.76998e-05 -4.76373e-05 -2.21061e-05
0.000106992 -3.21474e-05 -3.20763e-05 -2.48685e-05
0.000105987 -3.18446e-05 -3.17751e-05 -2.48684e-05
5.26196e-05 -1.58357e-05 -1.57645e-05 -2.65254e-05
5.16153e-05 -1.5532e-05 -1.54643e-05 -2.65253e-05
0.000154326 -4.63384e-05 -4.62803e-05 -2.2106e-05
0.000157344 -4.7246e-05 -4.7185e-05 -2.2106e-05
5.21175e-05 -1.56838e-05 -1.56144e-05 -2.65254e-05
0.00010297 -3.09361e-05 -3.08715e-05 -2.48683e-05
0.000155835 -4.67922e-05 -4.67327e-05 -2.2106e-05
0.000104981 -3.15418e-05 -3.14739e-05 -2.48684e-05
0.000103975 -3.12389e-05 -3.11727e-05 -2.48684e-05
5.16153e-05 -1.5532e-05 -1.54643e-05 -2.65253e-05
5.0611e-05 -1.52284e-05 -1.5164e-05 -2.65253e-05
0.000151307 -4.54309e-05 -4.53757e-05 -2.21059e-05
0.000154326 -4.63384e-05 -4.62803e-05 -2.2106e-05
5.11132e-05 -1.53802e-05 -1.53141e-05 -2.65253e-05
0.000100958 -3.03305e-05 -3.02691e-05 -2.48683e-05
0.000152817 -4.58846e-05 -4.5828e-05 -2.21059e-05
0.00010297 -3.09361e-05 -3.08715e-05 -2.48683e-05
0.000101964 -3.06333e-05 -3.05703e-05 -2.48683e-05
5.0611e-05 -1.52284e-05 -1.5164e-05 -2.65253e-05
4.96067e-05 -1.49248e-05 -1.48637e-05 -2.65252e-05
0.000148289 -4.45233e-05 -4.4471e-05 -2.21058e-05
0.000151307 -4.54309e-05 -4.53757e-05 -2.21059e-05
5.01089e-05 -1.50766e-05 -1.50138e-05 -2.65253e-05
9.89469e-05 -2.97249e-05 -2.96666e-05 -2.48682e-05
0.000149798 -4.49771e-05 -4.49233e-05 -2.21058e-05
0.000100958 -3.03305e-05 -3.02691e-05 -2.48683e-05
9.99526e-05 -3.00277e-05 -2.99678e-05 -2.48682e-05
4.96067e-05 -1.49248e-05 -1.48637e-05 -2.65252e-05
4.86023e-05 -1.46212e-05 -1.45633e-05 -2.65252e-05
0.00014527 -4.36159e-05 -4.35663e-05 -2.21057e-05
0.000148289 -4.45233e-05 -4.4471e-05 -2.21058e-05
4.91045e-05 -1.4773e-05 -1.47135e-05 -2.65252e-05
9.69355e-05 -2.91194e-05 -2.90641e-05 -2.48682e-05
0.00014678 -4.40696e-05 -4.40186e-05 -2.21058e-05
9.89469e-05 -2.97249e-05 -2.96666e-05 -2.48682e-05
9.79412e-05 -2.94221e-05 -2.93653e-05 -2.48682e-05
4.86023e-05 -1.46212e-05 -1.45633e-05 -2.65252e-05
4.75978e-05 -1.43177e-05 -1.42629e-05 -2.65251e-05
0.000142252 -4.27084e-05 -4.26615e-05 -2.21057e-05
0.00014527 -4.36159e-05 -4.35663e-05 -2.21057e-05
4.81e-05 -1.44695e-05 -1.44131e-05 -2.65251e-05
9.49241e-05 -2.85138e-05 -2.84615e-05 -2.48681e-05
0.000143761 -4.31621e-05 -4.31139e-05 -2.21057e-05
9.69355e-05 -2.91194e-05 -2.90641e-05 -2.48682e-05
9.59298e-05 -2.88166e-05 -2.87628e-05 -2.48681e-05
4.75978e-05 -1.43177e-05 -1.42629e-05 -2.65251e-05
4.65933e-05 -1.40142e-05 -1.39625e-05 -2.65251e-05
0.000139233 -4.1801e-05 -4.17567e-05 -2.21056e-05
0.000142252 -4.27084e-05 -4.26615e-05 -2.21057e-05
4.70956e-05 -1.4166e-05 -1.41127e-05 -2.65251e-05
9.29125e-05 -2.79083e-05 -2.78589e-05 -2.4868e-05
0.000140743 -4.22547e-05 -4.22091e-05 -2.21056e-05
9.49241e-05 -2.85138e-05 -2.84615e-05 -2.48681e-05
9.39183e-05 -2.82111e-05 -2.81602e-05 -2.48681e-05
4.65933e-05 -1.40142e-05 -1.39625e-05 -2.65251e-05
4.55887e-05 -1.37107e-05 -1.3662e-05 -2.6525e-05
0.000136215 -4.08935e-05 -4.08519e-05 -2.21055e-05
0.000139233 -4.1801e-05 -4.17567e-05 -2.21056e-05
4.6091e-05 -1.38625e-05 -1.38122e-05 -2.6525e-05
9.0901e-05 -2.73029e-05 -2.72563e-05 -2.4868e-05
0.000137724 -4.13473e-05 -4.13043e-05 -2.21056e-05
9.29125e-05 -2.79083e-05 -2.78589e-05 -2.4868e-05
9.19068e-05 -2.76056e-05 -2.75576e-05 -2.4868e-05
4.55887e-05 -1.37107e-05 -1.3662e-05 -2.6525e-05
4.45841e-05 -1.34073e-05 -1.33615e-05 -2.6525e-05
0.000133196 -3.99862e-05 -3.99471e-05 -2.21055e-05
0.000136215 -4.08935e-05 -4.08519e-05 -2.21055e-05
4.50864e-05 -1.3559e-05 -1.35118e-05 -2.6525e-05
8.88894e-05 -2.66974e-05 -2.66537e-05 -2.48679e-05
0.000134705 -4.04399e-05 -4.03995e-05 -2.21055e-05
9.0901e-05 -2.73029e-05 -2.72563e-05 -2.4868e-05
8.98952e-05 -2.70001e-05 -2.6955e-05 -2.48679e-05
4.45841e-05 -1.34073e-05 -1.33615e-05 -2.6525e-05
4.35795e-05 -1.31039e-05 -1.3061e-05 -2.65249e-05
0.000130177 -3.90788e-05 -3.90422e-05 -2.21054e-05
0.000133196 -3.99862e-05 -3.99471e-05 -2.21055e-05
4.40818e-05 -1.32556e-05 -1.32112e-05 -2.6525e-05
8.68777e-05 -2.6092e-05 -2.6051e-05 -2.48678e-05
0.000131687 -3.95325e-05 -3.94946e-05 -2.21054e-05
8.88894e-05 -2.66974e-05 -2.66537e-05 -2.48679e-05
8.78835e-05 -2.63947e-05 -2.63524e-05 -2.48679e-05
4.35795e-05 -1.31039e-05 -1.3061e-05 -2.65249e-05
4.25748e-05 -1.28005e-05 -1.27604e-05 -2.65249e-05
0.000127159 -3.81715e-05 -3.81373e-05 -2.21053e-05
0.000130177 -3.90788e-05 -3.90422e-05 -2.21054e-05
4.30771e-05 -1.29522e-05 -1.29107e-05 -2.65249e-05
8.4866e-05 -2.54866e-05 -2.54483e-05 -2.48678e-05
0.000128668 -3.86251e-05 -3.85898e-05 -2.21053e-05
8.68777e-05 -2.6092e-05 -2.6051e-05 -2.48678e-05
8.58719e-05 -2.57893e-05 -2.57497e-05 -2.48678e-05
4.25748e-05 -1.28005e-05 -1.27604e-05 -2.65249e-05
4.157e-05 -1.24972e-05 -1.24598e-05 -2.65248e-05
0.00012414 -3.72642e-05 -3.72324e-05 -2.21052e-05
0.000127159 -3.81715e-05 -3.81373e-05 -2.21053e-05
4.20724e-05 -1.26488e-05 -1.26101e-05 -2.65249e-05
8.28542e-05 -2.48813e-05 -2.48456e-05 -2.48677e-05
0.000125649 -3.77178e-05 -3.76849e-05 -2.21053e-05
8.4866e-05 -2.54866e-05 -2.54483e-05 -2.48678e-05
8.38601e-05 -2.51839e-05 -2.51469e-05 -2.48677e-05
4.157e-05 -1.24972e-05 -1.24598e-05 -2.65248e-05
4.05652e-05 -1.21939e-05 -1.21591e-05 -2.65248e-05
0.000121121 -3.63569e-05 -3.63274e-05 -2.21052e-05
0.00012414 -3.72642e-05 -3.72324e-05 -2.21052e-05
4.10676e-05 -1.23455e-05 -1.23095e-05 -2.65248e-05
8.08424e-05 -2.42759e-05 -2.42428e-05 -2.48677e-05
0.00012263 -3.68105e-05 -3.67799e-05 -2.21052e-05
8.28542e-05 -2.48813e-05 -2.48456e-05 -2.48677e-05
8.18484e-05 -2.45786e-05 -2.45442e-05 -2.48677e-05
4.05652e-05 -1.21939e-05 -1.21591e-05 -2.65248e-05
3.95603e-05 -1.18906e-05 -1.18585e-05 -2.65247e-05
0.000118102 -3.54496e-05 -3.54224e-05 -2.21051e-05
0.000121121 -3.63569e-05 -3.63274e-05 -2.21052e-05
4.00628e-05 -1.20422e-05 -1.20088e-05 -2.65248e-05
7.88306e-05 -2.36706e-05 -2.364e-05 -2.48676e-05
0.000119611 -3.59032e-05 -3.58749e-05 -2.21051e-05
8.08424e-05 -2.42759e-05 -2.42428e-05 -2.48677e-05
7.98365e-05 -2.39733e-05 -2.39414e-05 -2.48676e-05
3.95603e-05 -1.18906e-05 -1.18585e-05 -2.65247e-05
3.85554e-05 -1.15873e-05 -1.15578e-05 -2.65247e-05
0.000115083 -3.45424e-05 -3.45174e-05 -2.2105e-05
0.000118102 -3.54496e-05 -3.54224e-05 -2.21051e-05
3.90579e-05 -1.17389e-05 -1.17081e-05 -2.65247e-05
7.68187e-05 -2.30654e-05 -2.30372e-05 -2.48675e-05
0.000116593 -3.4996e-05 -3.49699e-05 -2.21051e-05
7.88306e-05 -2.36706e-05 -2.364e-05 -2.48676e-05
7.78247e-05 -2.3368e-05 -2.33386e-05 -2.48676e-05
3.85554e-05 -1.15873e-05 -1.15578e-05 -2.65247e-05
3.75505e-05 -1.12841e-05 -1.1257e-05 -2.65246e-05
0.000112064 -3.36352e-05 -3.36124e-05 -2.2105e-05
0.000115083 -3.45424e-05 -3.45174e-05 -2.2105e-05
3.80529e-05 -1.14357e-05 -1.14074e-05 -2.65247e-05
7.48068e-05 -2.24601e-05 -2.24343e-05 -2.48675e-05
0.000113574 -3.40888e-05 -3.40649e-05 -2.2105e-05
7.68187e-05 -2.30654e-05 -2.30372e-05 -2.48675e-05
7.58127e-05 -2.27627e-05 -2.27357e-05 -2.48675e-05
3.75505e-05 -1.12841e-05 -1.1257e-05 -2.65246e-05
3.65454e-05 -1.09809e-05 -1.09562e-05 -2.65246e-05
0.000109045 -3.2728e-05 -3.27073e-05 -2.21049e-05
0.000112064 -3.36352e-05 -3.36124e-05 -2.2105e-05
3.7048e-05 -1.11325e-05 -1.11066e-05 -2.65246e-05
7.27948e-05 -2.18549e-05 -2.18314e-05 -2.48674e-05
0.000110555 -3.31816e-05 -3.31599e-05 -2.21049e-05
7.48068e-05 -2.24601e-05 -2.24343e-05 -2.48675e-05
7.38008e-05 -2.21575e-05 -2.21328e-05 -2.48674e-05
3.65454e-05 -1.09809e-05 -1.09562e-05 -2.65246e-05
3.55404e-05 -1.06777e-05 -1.06554e-05 -2.65246e-05
0.000106026 -3.18208e-05 -3.18022e-05 -2.21048e-05
0.000109045 -3.2728e-05 -3.27073e-05 -2.21049e-05
3.60429e-05 -1.08293e-05 -1.08058e-05 -2.65246e-05
7.07827e-05 -2.12497e-05 -2.12284e-05 -2.48674e-05
0.000107536 -3.22744e-05 -3.22548e-05 -2.21049e-05
7.27948e-05 -2.18549e-05 -2.18314e-05 -2.48674e-05
7.17888e-05 -2.15523e-05 -2.15299e-05 -2.48674e-05
3.55404e-05 -1.06777e-05 -1.06554e-05 -2.65246e-05
3.45353e-05 -1.03746e-05 -1.03546e-05 -2.65245e-05
0.000103007 -3.09137e-05 -3.08971e-05 -2.21048e-05
0.000106026 -3.18208e-05 -3.18022e-05 -2.21048e-05
3.50378e-05 -1.05262e-05 -1.0505e-05 -2.65245e-05
6.87707e-05 -2.06445e-05 -2.06255e-05 -2.48673e-05
0.000104516 -3.13673e-05 -3.13497e-05 -2.21048e-05
7.07827e-05 -2.12497e-05 -2.12284e-05 -2.48674e-05
6.97767e-05 -2.09471e-05 -2.0927e-05 -2.48673e-05
3.45353e-05 -1.03746e-05 -1.03546e-05 -2.65245e-05
3.35301e-05 -1.00715e-05 -1.00537e-05 -2.65245e-05
9.99878e-05 -3.00066e-05 -2.99919e-05 -2.21047e-05
0.000103007 -3.09137e-05 -3.08971e-05 -2.21048e-05
3.40327e-05 -1.0223e-05 -1.02041e-05 -2.65245e-05
6.67585e-05 -2.00394e-05 -2.00225e-05 -2.48672e-05
0.000101497 -3.04601e-05 -3.04445e-05 -2.21047e-05
6.87707e-05 -2.06445e-05 -2.06255e-05 -2.48673e-05
6.77646e-05 -2.0342e-05 -2.0324e-05 -2.48673e-05
3.35301e-05 -1.00715e-05 -1.00537e-05 -2.65245e-05
3.25249e-05 -9.76841e-06 -9.75277e-06 -2.65244e-05
9.69686e-05 -2.90995e-05 -2.90867e-05 -2.21046e-05
9.99878e-05 -3.00066e-05 -2.99919e-05 -2.21047e-05
3.30275e-05 -9.91994e-06 -9.90324e-06 -2.65245e-05
6.47463e-05 -1.94343e-05 -1.94194e-05 -2.48672e-05
9.84782e-05 -2.95531e-05 -2.95393e-05 -2.21047e-05
6.67585e-05 -2.00394e-05 -2.00225e-05 -2.48672e-05
6.57524e-05 -1.97369e-05 -1.9721e-05 -2.48672e-05
3.25249e-05 -9.76841e-06 -9.75277e-06 -2.65244e-05
3.15196e-05 -9.46537e-06 -9.45182e-06 -2.65244e-05
9.39493e-05 -2.81925e-05 -2.81815e-05 -2.21046e-05
9.69686e-05 -2.90995e-05 -2.90867e-05 -2.21046e-05
3.20223e-05 -9.61689e-06 -9.6023e-06 -2.65244e-05
6.27341e-05 -1.88292e-05 -1.88164e-05 -2.48671e-05
9.5459e-05 -2.8646e-05 -2.86341e-05 -2.21046e-05
6.47463e-05 -1.94343e-05 -1.94194e-05 -2.48672e-05
6.37402e-05 -1.91318e-05 -1.91179e-05 -2.48672e-05
3.15196e-05 -9.46537e-06 -9.45182e-06 -2.65244e-05
3.05143e-05 -9.16236e-06 -9.15083e-06 -2.65244e-05
9.09301e-05 -2.72854e-05 -2.72763e-05 -2.21045e-05
9.39493e-05 -2.81925e-05 -2.81815e-05 -2.21046e-05
3.1017e-05 -9.31386e-06 -9.30133e-06 -2.65244e-05
6.07218e-05 -1.82242e-05 -1.82133e-05 -2.48671e-05
9.24397e-05 -2.77389e-05 -2.77289e-05 -2.21046e-05
6.27341e-05 -1.88292e-05 -1.88164e-05 -2.48671e-05
6.1728e-05 -1.85267e-05 -1.85148e-05 -2.48671e-05
3.05143e-05 -9.16236e-06 -9.15083e-06 -2.65244e-05
2.95089e-05 -8.85938e-06 -8.84981e-06 -2.65243e-05
8.79108e-05 -2.63784e-05 -2.6371e-05 -2.21045e-05
9.09301e-05 -2.72854e-05 -2.72763e-05 -2.21045e-05
3.00116e-05 -9.01087e-06 -9.00033e-06 -2.65243e-05
5.87095e-05 -1.76192e-05 -1.76101e-05 -2.4867e-05
8.94204e-05 -2.68319e-05 -2.68236e-05 -2.21045e-05
6.07218e-05 -1.82242e-05 -1.82133e-05 -2.48671e-05
5.97157e-05 -1.79217e-05 -1.79117e-05 -2.48671e-05
2.95089e-05 -8.85938e-06 -8.84981e-06 -2.65243e-05
2.85035e-05 -8.55644e-06 -8.54875e-06 -2.65243e-05
8.48914e-05 -2.54714e-05 -2.54657e-05 -2.21044e-05
8.79108e-05 -2.63784e-05 -2.6371e-05 -2.21045e-05
2.90062e-05 -8.7079e-06 -8.69929e-06 -2.65243e-05
5.66972e-05 -1.70142e-05 -1.7007e-05 -2.4867e-05
8.64011e-05 -2.59249e-05 -2.59183e-05 -2.21044e-05
5.87095e-05 -1.76192e-05 -1.76101e-05 -2.4867e-05
5.77033e-05 -1.73167e-05 -1.73086e-05 -2.4867e-05
2.85035e-05 -8.55644e-06 -8.54875e-06 -2.65243e-05
2.74981e-05 -8.25353e-06 -8.24766e-06 -2.65243e-05
8.1872e-05 -2.45645e-05 -2.45604e-05 -2.21044e-05
8.48914e-05 -2.54714e-05 -2.54657e-05 -2.21044e-05
2.80008e-05 -8.40498e-06 -8.39821e-06 -2.65243e-05
5.46848e-05 -1.64093e-05 -1.64038e-05 -2.48669e-05
8.33817e-05 -2.5018e-05 -2.5013e-05 -2.21044e-05
5.66972e-05 -1.70142e-05 -1.7007e-05 -2.4867e-05
5.5691e-05 -1.67117e-05 -1.67054e-05 -2.4867e-05
2.74981e-05 -8.25353e-06 -8.24766e-06 -2.65243e-05
2.64926e-05 -7.95065e-06 -7.94653e-06 -2.65242e-05
7.88526e-05 -2.36576e-05 -2.3655e-05 -2.21043e-05
8.1872e-05 -2.45645e-05 -2.45604e-05 -2.21044e-05
2.69953e-05 -8.10208e-06 -8.0971e-06 -2.65242e-05
5.26723e-05 -1.58044e-05 -1.58005e-05 -2.48669e-05
8.03623e-05 -2.4111e-05 -2.41077e-05 -2.21043e-05
5.46848e-05 -1.64093e-05 -1.64038e-05 -2.48669e-05
5.36785e-05 -1.61068e-05 -1.61022e-05 -2.48669e-05
2.64926e-05 -7.95065e-06 -7.94653e-06 -2.65242e-05
2.5487e-05 -7.64781e-06 -7.64537e-06 -2.65242e-05
7.58331e-05 -2.27507e-05 -2.27496e-05 -2.21043e-05
7.88526e-05 -2.36576e-05 -2.3655e-05 -2.21043e-05
2.59898e-05 -7.79923e-06 -7.79596e-06 -2.65242e-05
5.06598e-05 -1.51995e-05 -1.51973e-05 -2.48669e-05
7.73428e-05 -2.32041e-05 -2.32023e-05 -2.21043e-05
5.26723e-05 -1.58044e-05 -1.58005e-05 -2.48669e-05
5.16661e-05 -1.55019e-05 -1.54989e-05 -2.48669e-05
2.5487e-05 -7.64781e-06 -7.64537e-06 -2.65242e-05
2.44814e-05 -7.34501e-06 -7.34418e-06 -2.65242e-05
7.28136e-05 -2.18438e-05 -2.18442e-05 -2.21042e-05
7.58331e-05 -2.27507e-05 -2.27496e-05 -2.21043e-05
2.49842e-05 -7.49641e-06 -7.49478e-06 -2.65242e-05
4.86473e-05 -1.45946e-05 -1.4594e-05 -2.48668e-05
7.43233e-05 -2.22973e-05 -2.22969e-05 -2.21043e-05
5.06598e-05 -1.51995e-05 -1.51973e-05 -2.48669e-05
4.96535e-05 -1.4897e-05 -1.48956e-05 -2.48668e-05
2.44814e-05 -7.34501e-06 -7.34418e-06 -2.65242e-05
2.34758e-05 -7.04224e-06 -7.04295e-06 -2.65241e-05
6.9794e-05 -2.0937e-05 -2.09387e-05 -2.21042e-05
7.28136e-05 -2.18438e-05 -2.18442e-05 -2.21042e-05
2.39786e-05 -7.19362e-06 -7.19357e-06 -2.65241e-05
4.66347e-05 -1.39898e-05 -1.39907e-05 -2.48668e-05
7.13038e-05 -2.13904e-05 -2.13914e-05 -2.21042e-05
4.86473e-05 -1.45946e-05 -1.4594e-05 -2.48668e-05
4.7641e-05 -1.42922e-05 -1.42923e-05 -2.48668e-05
2.34758e-05 -7.04224e-06 -7.04295e-06 -2.65241e-05
2.24701e-05 -6.73951e-06 -6.7417e-06 -2.65241e-05
6.67744e-05 -2.00302e-05 -2.00332e-05 -2.21042e-05
6.9794e-05 -2.0937e-05 -2.09387e-05 -2.21042e-05
2.2973e-05 -6.89088e-06 -6.89233e-06 -2.65241e-05
4.46221e-05 -1.33851e-05 -1.33873e-05 -2.48668e-05
6.82842e-05 -2.04836e-05 -2.0486e-05 -2.21042e-05
4.66347e-05 -1.39898e-05 -1.39907e-05 -2.48668e-05
4.56284e-05 -1.36874e-05 -1.3689e-05 -2.48668e-05
2.24701e-05 -6.73951e-06 -6.7417e-06 -2.65241e-05
2.14645e-05 -6.43681e-06 -6.44042e-06 -2.6524e-05
6.37548e-05 -1.91235e-05 -1.91277e-05 -2.21042e-05
6.67744e-05 -2.00302e-05 -2.00332e-05 -2.21042e-05
2.19673e-05 -6.58816e-06 -6.59106e-06 -2.6524e-05
4.26095e-05 -1.27803e-05 -1.27839e-05 -2.48667e-05
6.52646e-05 -1.95768e-05 -1.95805e-05 -2.21042e-05
4.46221e-05 -1.33851e-05 -1.33873e-05 -2.48668e-05
4.36158e-05 -1.30827e-05 -1.30856e-05 -2.48667e-05
2.14645e-05 -6.43681e-06 -6.44042e-06 -2.6524e-05
2.04587e-05 -6.13413e-06 -6.13912e-06 -2.65239e-05
6.07353e-05 -1.82168e-05 -1.82222e-05 -2.21041e-05
6.37548e-05 -1.91235e-05 -1.91277e-05 -2.21042e-05
2.09616e-05 -6.28547e-06 -6.28977e-06 -2.6524e-05
4.05969e-05 -1.21756e-05 -1.21805e-05 -2.48666e-05
6.2245e-05 -1.86701e-05 -1.8675e-05 -2.21042e-05
4.26095e-05 -1.27803e-05 -1.27839e-05 -2.48667e-05
4.16032e-05 -1.2478e-05 -1.24822e-05 -2.48667e-05
2.04587e-05 -6.13413e-06 -6.13912e-06 -2.65239e-05
1.9453e-05 -5.83145e-06 -5.8378e-06 -2.65237e-05
5.77157e-05 -1.73101e-05 -1.73167e-05 -2.21041e-05
6.07353e-05 -1.82168e-05 -1.82222e-05 -2.21041e-05
1.99559e-05 -5.98279e-06 -5.98846e-06 -2.65238e-05
3.85843e-05 -1.15709e-05 -1.15771e-05 -2.48665e-05
5.92255e-05 -1.77634e-05 -1.77694e-05 -2.21041e-05
4.05969e-05 -1.21756e-05 -1.21805e-05 -2.48666e-05
3.95906e-05 -1.18733e-05 -1.18788e-05 -2.48666e-05
1.9453e-05 -5.83145e-06 -5.8378e-06 -2.65237e-05
1.84472e-05 -5.5287e-06 -5.53648e-06 -2.65235e-05
5.46961e-05 -1.64034e-05 -1.64112e-05 -2.2104e-05
5.77157e-05 -1.73101e-05 -1.73167e-05 -2.21041e-05
1.89501e-05 -5.68009e-06 -5.68714e-06 -2.65236e-05
3.65716e-05 -1.09662e-05 -1.09737e-05 -2.48663e-05
5.62059e-05 -1.68567e-05 -1.68639e-05 -2.2104e-05
3.85843e-05 -1.15709e-05 -1.15771e-05 -2.48665e-05
3.75779e-05 -1.12686e-05 -1.12754e-05 -2.48664e-05
1.84472e-05 -5.5287e-06 -5.53648e-06 -2.65235e-05
1.74412e-05 -5.22579e-06 -5.23519e-06 -2.65233e-05
5.16765e-05 -1.54965e-05 -1.55057e-05 -2.21037e-05
5.46961e-05 -1.64034e-05 -1.64112e-05 -2.2104e-05
1.79442e-05 -5.37728e-06 -5.38583e-06 -2.65234e-05
3.45589e-05 -1.03613e-05 -1.03704e-05 -2.48661e-05
5.31863e-05 -1.595e-05 -1.59584e-05 -2.21039e-05
3.65716e-05 -1.09662e-05 -1.09737e-05 -2.48663e-05
3.55653e-05 -1.06638e-05 -1.06721e-05 -2.48662e-05
1.74412e-05 -5.22579e-06 -5.23519e-06 -2.65233e-05
1.6435e-05 -4.92251e-06 -4.93393e-06 -2.65232e-05
4.86568e-05 -1.45893e-05 -1.46004e-05 -2.21033e-05
5.16765e-05 -1.54965e-05 -1.55057e-05 -2.21037e-05
1.69382e-05 -5.07422e-06 -5.08456e-06 -2.65232e-05
3.25459e-05 -9.7559e-06 -9.76714e-06 -2.48657e-05
5.01667e-05 -1.5043e-05 -1.5053e-05 -2.21035e-05
3.45589e-05 -1.03613e-05 -1.03704e-05 -2.48661e-05
3.35524e-05 -1.00587e-05 -1.00688e-05 -2.48659e-05
1.6435e-05 -4.92251e-06 -4.93393e-06 -2.65232e-05
1.54282e-05 -4.61843e-06 -4.63277e-06 -2.65236e-05
4.56365e-05 -1.36811e-05 -1.36952e-05 -2.21024e-05
4.86568e-05 -1.45893e-05 -1.46004e-05 -2.21033e-05
1.59317e-05 -4.77061e-06 -4.78332e-06 -2.65233e-05
3.05322e-05 -9.14944e-06 -9.16404e-06 -2.48654e-05
4.71468e-05 -1.41354e-05 -1.41478e-05 -2.21029e-05
3.25459e-05 -9.7559e-06 -9.76714e-06 -2.48657e-05
3.15392e-05 -9.45286e-06 -9.46556e-06 -2.48656e-05
1.54282e-05 -4.61843e-06 -4.63277e-06 -2.65236e-05
1.442e-05 -4.31278e-06 -4.33168e-06 -2.65253e-05
4.2615e-05 -1.27707e-05 -1.27904e-05 -2.21009e-05
4.56365e-05 -1.36811e-05 -1.36952e-05 -2.21024e-05
1.49244e-05 -4.46588e-06 -4.48222e-06 -2.65242e-05
2.85168e-05 -8.5407e-06 -8.56121e-06 -2.48655e-05
4.4126e-05 -1.32263e-05 -1.32427e-05 -2.21018e-05
3.05322e-05 -9.14944e-06 -9.16404e-06 -2.48654e-05
2.95248e-05 -8.84547e-06 -8.86258e-06 -2.48654e-05
1.442e-05 -4.31278e-06 -4.33168e-06 -2.65253e-05
1.34093e-05 -4.00404e-06 -4.03085e-06 -2.65303e-05
3.95898e-05 -1.18557e-05 -1.1886e-05 -2.20983e-05
4.2615e-05 -1.27707e-05 -1.27904e-05 -2.21009e-05
1.3915e-05 -4.15891e-06 -4.18119e-06 -2.65273e-05
2.64977e-05 -7.92729e-06 -7.95876e-06 -2.48669e-05
4.11031e-05 -1.2314e-05 -1.23382e-05 -2.20997e-05
2.85168e-05 -8.5407e-06 -8.56121e-06 -2.48655e-05
2.75079e-05 -8.23478e-06 -8.25992e-06 -2.48659e-05
1.34093e-05 -4.00404e-06 -4.03085e-06 -2.65303e-05
1.23928e-05 -3.68967e-06 -3.72989e-06 -2.65425e-05
3.65577e-05 -1.09315e-05 -1.09826e-05 -2.20937e-05
3.95898e-05 -1.18557e-05 -1.1886e-05 -2.20983e-05
1.29022e-05 -3.84783e-06 -3.88044e-06 -2.65351e-05
2.44707e-05 -7.30502e-06 -7.35674e-06 -2.48713e-05
3.80748e-05 -1.13951e-05 -1.14341e-05 -2.20963e-05
2.64977e-05 -7.92729e-06 -7.95876e-06 -2.48669e-05
2.54856e-05 -7.61769e-06 -7.65766e-06 -2.48686e-05
1.23928e-05 -3.68967e-06 -3.72989e-06 -2.65425e-05
1.13668e-05 -3.36494e-06 -3.42938e-06 -2.65688e-05
3.35092e-05 -9.99034e-06 -1.00795e-05 -2.20869e-05
3.65577e-05 -1.09315e-05 -1.09826e-05 -2.20937e-05
1.1881e-05 -3.52891e-06 -3.57946e-06 -2.65532e-05
2.2428e-05 -6.66614e-06 -6.75511e-06 -2.48824e-05
3.50365e-05 -1.04639e-05 -1.05311e-05 -2.20906e-05
2.44707e-05 -7.30502e-06 -7.35674e-06 -2.48713e-05
2.3452e-05 -6.98823e-06 -7.0559e-06 -2.48755e-05
1.13668e-05 -3.36494e-06 -3.42938e-06 -2.65688e-05
1.032e-05 -3.02318e-06 -3.12721e-06 -2.66225e-05
3.04326e-05 -9.01803e-06 -9.17767e-06 -2.20758e-05
3.35092e-05 -9.99034e-06 -1.00795e-05 -2.20869e-05
1.08474e-05 -3.19696e-06 -3.27878e-06 -2.6591e-05
2.03558e-05 -5.99889e-06 -6.15296e-06 -2.49073e-05
3.19748e-05 -9.50906e-06 -9.62819e-06 -2.20821e-05
2.2428e-05 -6.66614e-06 -6.75511e-06 -2.48824e-05
2.13967e-05 -6.33726e-06 -6.45405e-06 -2.48929e-05
1.032e-05 -3.02318e-06 -3.12721e-06 -2.66225e-05
9.24406e-06 -2.65256e-06 -2.82493e-06 -2.67242e-05
2.72964e-05 -7.99442e-06 -8.27229e-06 -2.20622e-05
3.04326e-05 -9.01803e-06 -9.17767e-06 -2.20758e-05
9.78527e-06 -2.84189e-06 -2.97573e-06 -2.66657e-05
1.82301e-05 -5.28351e-06 -5.54853e-06 -2.49584e-05
2.88754e-05 -8.51473e-06 -8.72602e-06 -2.20689e-05
2.03558e-05 -5.99889e-06 -6.15296e-06 -2.49073e-05
1.93015e-05 -5.64825e-06 -5.8514e-06 -2.49277e-05
9.24406e-06 -2.65256e-06 -2.82493e-06 -2.67242e-05
8.1074e-06 -2.24288e-06 -2.51337e-06 -2.69077e-05
2.40703e-05 -6.88705e-06 -7.36427e-06 -2.20444e-05
2.72964e-05 -7.99442e-06 -8.27229e-06 -2.20622e-05
8.68766e-06 -2.45422e-06 -2.67148e-06 -2.68029e-05
1.60157e-05 -4.49909e-06 -4.93568e-06 -2.50565e-05
2.56949e-05 -7.45247e-06 -7.81819e-06 -2.20544e-05
1.82301e-05 -5.28351e-06 -5.54853e-06 -2.49584e-05
1.71365e-05 -4.9023e-06 -5.24322e-06 -2.50015e-05
8.1074e-06 -2.24288e-06 -2.51337e-06 -2.69077e-05
6.90466e-06 -1.77801e-06 -2.19714e-06 -2.7212e-05
2.06705e-05 -5.66884e-06 -6.42931e-06 -2.20415e-05
2.40703e-05 -6.88705e-06 -7.36427e-06 -2.20444e-05
7.51061e-06 -2.01576e-06 -2.35494e-06 -2.70423e-05
1.36603e-05 -3.61826e-06 -4.30374e-06 -2.52339e-05
2.24023e-05 -6.29545e-06 -6.90295e-06 -2.20384e-05
1.60157e-05 -4.49909e-06 -4.93568e-06 -2.50565e-05
1.48597e-05 -4.06969e-06 -4.62427e-06 -2.51294e-05
6.90466e-06 -1.77801e-06 -2.19714e-06 -2.7212e-05
5.57901e-06 -1.28144e-06 -1.84182e-06 -2.76811e-05
1.70606e-05 -4.3108e-06 -5.4642e-06 -2.20659e-05
2.06705e-05 -5.66884e-06 -6.42931e-06 -2.20415e-05
6.26798e-06 -1.53455e-06 -2.02861e-06 -2.74229e-05
1.1122e-05 -2.66241e-06 -3.62555e-06 -2.55325e-05
1.88862e-05 -5.00203e-06 -5.95037e-06 -2.20503e-05
1.36603e-05 -3.61826e-06 -4.30374e-06 -2.52339e-05
1.24152e-05 -3.14959e-06 -3.971e-06 -2.53714e-05
5.57901e-06 -1.28144e-06 -1.84182e-06 -2.76811e-05
4.21083e-06 -7.96898e-07 -1.46311e-06 -2.82932e-05
1.31082e-05 -2.90819e-06 -4.37141e-06 -2.2223e-05
1.70606e-05 -4.3108e-06 -5.4642e-06 -2.20659e-05
4.87941e-06 -1.02194e-06 -1.6532e-06 -2.79749e-05
8.37834e-06 -1.70801e-06 -2.85872e-06 -2.59935e-05
1.51493e-05 -3.61229e-06 -4.94445e-06 -2.21152e-05
1.1122e-05 -2.66241e-06 -3.62555e-06 -2.55325e-05
9.77747e-06 -2.16478e-06 -3.26258e-06 -2.57277e-05
4.21083e-06 -7.96898e-07 -1.46311e-06 -2.82932e-05
2.8106e-06 -5.88535e-07 -9.52315e-07 -2.89002e-05
9.00735e-06 -1.69256e-06 -3.13491e-06 -2.25874e-05
1.31082e-05 -2.90819e-06 -4.37141e-06 -2.2223e-05
3.53424e-06 -6.48735e-07 -1.23664e-06 -2.86131e-05
5.62045e-06 -1.14092e-06 -1.9198e-06 -2.65936e-05
1.10299e-05 -2.22358e-06 -3.77413e-06 -2.2376e-05
8.37834e-06 -1.70801e-06 -2.85872e-06 -2.59935e-05
6.97567e-06 -1.35113e-06 -2.41052e-06 -2.63048e-05
2.8106e-06 -5.88535e-07 -9.52315e-07 -2.89002e-05
1.83129e-06 -9.59741e-07 -3.73522e-07 -2.89328e-05
5.02314e-06 -1.66771e-06 -1.43804e-06 -2.34093e-05
9.00735e-06 -1.69256e-06 -3.13491e-06 -2.25874e-05
2.1922e-06 -6.46385e-07 -6.62491e-07 -2.90463e-05
3.27313e-06 -1.58733e-06 -7.22486e-07 -2.70481e-05
7.01397e-06 -1.46784e-06 -2.37691e-06 -2.29187e-05
5.62045e-06 -1.14092e-06 -1.9198e-06 -2.65936e-05
4.36787e-06 -1.15257e-06 -1.37799e-06 -2.68307e-05
1.83129e-06 -9.59741e-07 -3.73522e-07 -2.89328e-05
1.31735e-06 -2.51747e-06 5.14335e-07 -2.73343e-05
2.9087e-06 -4.61976e-06 7.33309e-07 -2.40512e-05
5.02314e-06 -1.66771e-06 -1.43804e-06 -2.34093e-05
1.58673e-06 -1.63131e-06 1.91084e-08 -2.84234e-05
2.43753e-06 -4.25102e-06 7.7721e-07 -2.62147e-05
3.49975e-06 -2.50682e-06 -4.25545e-07 -2.38436e-05
3.27313e-06 -1.58733e-06 -7.22486e-07 -2.70481e-05
2.55632e-06 -2.62719e-06 3.03714e-08 -2.69881e-05
1.31735e-06 -2.51747e-06 5.14335e-07 -2.73343e-05
1.79713e-06 -4.56557e-06 1.18648e-06 -2.2352e-05
3.95555e-06 -1.38859e-05 4.25585e-06 -2.21193e-05
2.9087e-06 -4.61976e-06 7.33309e-07 -2.40512e-05
1.2964e-06 -3.46959e-06 9.31369e-07 -2.53824e-05
3.03996e-06 -9.09244e-06 2.59392e-06 -2.18281e-05
3.10796e-06 -8.52865e-06 2.32315e-06 -2.37185e-05
2.43753e-06 -4.25102e-06 7.7721e-07 -2.62147e-05
2.67824e-06 -6.40311e-06 1.59637e-06 -2.45006e-05
1.79713e-06 -4.56557e-06 1.18648e-06 -2.2352e-05
3.10267e-06 -7.4603e-06 1.86755e-06 -1.27647e-05
7.09386e-06 -2.51702e-05 7.74702e-06 -1.17085e-05
3.95555e-06 -1.38859e-05 4.25585e-06 -2.21193e-05
2.50429e-06 -5.90656e-06 1.45811e-06 -1.81794e-05
4.45323e-06 -1.55173e-05 4.74175e-06 -1.29323e-05
5.32599e-06 -1.9937e-05 6.26187e-06 -1.82901e-05
3.03996e-06 -9.09244e-06 2.59392e-06 -2.18281e-05
3.60438e-06 -1.22609e-05 3.70994e-06 -1.80676e-05
0.000486273 0 -0.000208403 6.35396e-05
0.000550144 -7.29732e-05 -0.000204502 -2.39365e-06
0.000951142 -0.00018866 -0.000326778 -7.11199e-05
0.000844983 2.22045e-16 -0.000362136 -4.88949e-05
0.000527088 -4.10458e-05 -0.000208304 2.37074e-05
0.000734235 -0.000113957 -0.000265834 -2.95902e-05
0.000904488 -8.90261e-05 -0.000349484 -8.24832e-05
0.000691237 0 -0.000296244 9.49037e-06
0.000702989 -6.31994e-05 -0.000274195 -9.69994e-06
0.000550144 -7.29732e-05 -0.000204502 -2.39365e-06
0.000578371 -0.000133451 -0.00019068 -2.28924e-05
0.000988374 -0.000267892 -0.000308778 -3.39989e-05
0.000951142 -0.00018866 -0.000326778 -7.11199e-05
0.000564288 -0.000105125 -0.000196784 -1.5603e-05
0.000783187 -0.000193549 -0.000252702 -3.44846e-05
0.000980562 -0.000244516 -0.000315448 -5.13814e-05
0.000734235 -0.000113957 -0.000265834 -2.95902e-05
0.000766972 -0.000158652 -0.000260709 -3.8722e-05
0.000578371 -0.000133451 -0.00019068 -2.28924e-05
0.000592744 -0.000164062 -0.000183721 -2.68222e-05
0.000983676 -0.0002902 -0.000297204 -1.27376e-05
0.000988374 -0.000267892 -0.000308778 -3.39989e-05
0.000588991 -0.000152432 -0.000187097 -2.6473e-05
0.000791176 -0.000225644 -0.000242371 -2.31918e-05
0.000985703 -0.000281764 -0.000301688 -2.00586e-05
0.000783187 -0.000193549 -0.000252702 -3.44846e-05
0.000789159 -0.00021448 -0.000246291 -2.72989e-05
0.000592744 -0.000164062 -0.000183721 -2.68222e-05
0.000592292 -0.000176145 -0.000178348 -2.4778e-05
0.000976764 -0.000293322 -0.000292904 -7.94138e-06
0.000983676 -0.0002902 -0.000297204 -1.27376e-05
0.00059279 -0.000171639 -0.000180494 -2.56817e-05
0.000787411 -0.000235946 -0.000236342 -1.76101e-05
0.000981097 -0.000293191 -0.000294817 -9.52229e-06
0.000791176 -0.000225644 -0.000242371 -2.31918e-05
0.000790254 -0.000232346 -0.000239103 -2.01915e-05
0.000592292 -0.000176145 -0.000178348 -2.4778e-05
0.000588187 -0.000178504 -0.000175578 -2.33771e-05
0.000968766 -0.000292864 -0.000289672 -7.68516e-06
0.000976764 -0.000293322 -0.000292904 -7.94138e-06
0.00059088 -0.000178106 -0.000176903 -2.40817e-05
0.000780213 -0.000236593 -0.00023298 -1.58358e-05
0.000972159 -0.000293193 -0.000290985 -7.34206e-06
0.000787411 -0.000235946 -0.000236342 -1.76101e-05
0.000783709 -0.000236975 -0.000234315 -1.61444e-05
0.000588187 -0.000178504 -0.000175578 -2.33771e-05
0.000582358 -0.000177646 -0.000173448 -2.24376e-05
0.000962693 -0.000290736 -0.000287982 -9.26343e-06
0.000968766 -0.000292864 -0.000289672 -7.68516e-06
0.000585063 -0.000178269 -0.00017434 -2.27638e-05
0.000773568 -0.000234976 -0.000230825 -1.59367e-05
0.000965855 -0.000291939 -0.000288821 -8.51289e-06
0.000780213 -0.000236593 -0.00023298 -1.58358e-05
0.000776855 -0.000235882 -0.000231845 -1.58785e-05
0.000582358 -0.000177646 -0.000173448 -2.24376e-05
0.000577272 -0.000175697 -0.000172104 -2.21419e-05
0.000956824 -0.000288648 -0.000286361 -1.06012e-05
0.000962693 -0.000290736 -0.000287982 -9.26343e-06
0.000579838 -0.00017673 -0.000172761 -2.2275e-05
0.000767582 -0.000232608 -0.000229275 -1.65246e-05
0.000959583 -0.000289651 -0.000287114 -9.93279e-06
0.000773568 -0.000234976 -0.000230825 -1.59367e-05
0.000770446 -0.000233827 -0.000229979 -1.61607e-05
0.000577272 -0.000175697 -0.000172104 -2.21419e-05
0.000572636 -0.000173778 -0.000170939 -2.2014e-05
0.000951555 -0.000286612 -0.000284976 -1.16979e-05
0.000956824 -0.000288648 -0.000286361 -1.06012e-05
0.000574818 -0.000174706 -0.000171476 -2.2045e-05
0.000762372 -0.000230473 -0.000227957 -1.71208e-05
0.000954215 -0.000287624 -0.000285682 -1.12211e-05
0.000767582 -0.000232608 -0.000229275 -1.65246e-05
0.000764913 -0.000231494 -0.000228608 -1.68625e-05
0.000572636 -0.000173778 -0.000170939 -2.2014e-05
0.000568682 -0.000172087 -0.000169969 -2.20176e-05
0.000946351 -0.000284768 -0.000283535 -1.23682e-05
0.000951555 -0.000286612 -0.000284976 -1.16979e-05
0.000570625 -0.000172901 -0.000170453 -2.20164e-05
0.000757639 -0.000228574 -0.000226742 -1.75684e-05
0.000948912 -0.000285665 -0.000284249 -1.20656e-05
0.000762372 -0.000230473 -0.000227957 -1.71208e-05
0.000759951 -0.000229495 -0.000227338 -1.73549e-05
0.000568682 -0.000172087 -0.000169969 -2.20176e-05
0.000565078 -0.000170669 -0.000169032 -2.20335e-05
0.000941287 -0.000283044 -0.000282104 -1.27939e-05
0.000946351 -0.000284768 -0.000283535 -1.23682e-05
0.000566826 -0.000171347 -0.000169491 -2.20211e-05
0.000753233 -0.000226942 -0.000225554 -1.78609e-05
0.000943825 -0.000283895 -0.000282827 -1.2614e-05
0.000757639 -0.000228574 -0.000226742 -1.75684e-05
0.000755408 -0.000227728 -0.000226149 -1.77372e-05
0.000565078 -0.000170669 -0.000169032 -2.20335e-05
0.000561759 -0.000169448 -0.000168133 -2.20608e-05
0.000936233 -0.000281412 -0.000280638 -1.30247e-05
0.000941287 -0.000283044 -0.000282104 -1.27939e-05
0.000563401 -0.000170039 -0.000168584 -2.20491e-05
0.000749009 -0.000225476 -0.000224371 -1.80389e-05
0.000938751 -0.000282218 -0.000281371 -1.2925e-05
0.000753233 -0.000226942 -0.000225554 -1.78609e-05
0.000751103 -0.000226192 -0.000224962 -1.79596e-05
0.000561759 -0.000169448 -0.000168133 -2.20608e-05
0.000558577 -0.000168362 -0.000167235 -2.20795e-05
0.000931206 -0.000279833 -0.00027916 -1.31537e-05
0.000936233 -0.000281412 -0.000280638 -1.30247e-05
0.000560151 -0.000168892 -0.000167682 -2.20702e-05
0.000744888 -0.000224126 -0.000223184 -1.81395e-05
0.000933721 -0.000280617 -0.000279902 -1.31004e-05
0.000749009 -0.000225476 -0.000224371 -1.80389e-05
0.00074694 -0.000224789 -0.000223779 -1.80977e-05
0.000558577 -0.000168362 -0.000167235 -2.20795e-05
0.000555484 -0.000167357 -0.00016634 -2.20939e-05
0.000926178 -0.000278286 -0.000277668 -1.32175e-05
0.000931206 -0.000279833 -0.00027916 -1.31537e-05
0.000557025 -0.000167852 -0.000166788 -2.20877e-05
0.000740821 -0.00022284 -0.000221992 -1.81944e-05
0.00092869 -0.000279056 -0.000278415 -1.31908e-05
0.000744888 -0.000224126 -0.000223184 -1.81395e-05
0.00074285 -0.000223477 -0.000222588 -1.81708e-05
0.000555484 -0.000167357 -0.00016634 -2.20939e-05
0.000552432 -0.000166397 -0.000165443 -2.21028e-05
0.000921153 -0.000276756 -0.00027617 -1.32496e-05
0.000926178 -0.000278286 -0.000277668 -1.32175e-05
0.000553954 -0.000166873 -0.000165892 -2.20988e-05
0.00073678 -0.000221591 -0.000220795 -1.82226e-05
0.000923666 -0.00027752 -0.00027692 -1.32367e-05
0.000740821 -0.00022284 -0.000221992 -1.81944e-05
0.000738798 -0.000222212 -0.000221394 -1.82111e-05
0.000552432 -0.000166397 -0.000165443 -2.21028e-05
0.000549403 -0.000165463 -0.000164546 -2.21086e-05
0.000916126 -0.000275235 -0.000274667 -1.3264e-05
0.000921153 -0.000276756 -0.00027617 -1.32496e-05
0.000550916 -0.000165928 -0.000164995 -2.21061e-05
0.000732752 -0.000220361 -0.000219596 -1.82367e-05
0.000918639 -0.000275995 -0.000275419 -1.32582e-05
0.00073678 -0.000221591 -0.000220795 -1.82226e-05
0.000734765 -0.000220975 -0.000220196 -1.82308e-05
0.000549403 -0.000165463 -0.000164546 -2.21086e-05
0.000546384 -0.000164541 -0.000163647 -2.2112e-05
0.000911099 -0.000273719 -0.000273163 -1.32703e-05
0.000916126 -0.000275235 -0.000274667 -1.3264e-05
0.000547893 -0.000165001 -0.000164096 -2.21105e-05
0.000728729 -0.000219142 -0.000218394 -1.82434e-05
0.000913613 -0.000274477 -0.000273915 -1.32679e-05
0.000732752 -0.000220361 -0.000219596 -1.82367e-05
0.00073074 -0.000219751 -0.000218995 -1.82408e-05
0.000546384 -0.000164541 -0.000163647 -2.2112e-05
0.000543369 -0.000163626 -0.000162747 -2.2114e-05
0.00090607 -0.000272205 -0.000271657 -1.32727e-05
0.000911099 -0.000273719 -0.000273163 -1.32703e-05
0.000544876 -0.000164083 -0.000163197 -2.21132e-05
0.000724707 -0.000217927 -0.000217192 -1.82465e-05
0.000908585 -0.000272962 -0.00027241 -1.32718e-05
0.000728729 -0.000219142 -0.000218394 -1.82434e-05
0.000726718 -0.000218534 -0.000217793 -1.82452e-05
0.000543369 -0.000163626 -0.000162747 -2.2114e-05
0.000540355 -0.000162713 -0.000161846 -2.21152e-05
0.000901042 -0.000270692 -0.00027015 -1.32735e-05
0.00090607 -0.000272205 -0.000271657 -1.32727e-05
0.000541862 -0.000163169 -0.000162297 -2.21147e-05
0.000720686 -0.000216714 -0.000215988 -1.82478e-05
0.000903556 -0.000271448 -0.000270903 -1.32732e-05
0.000724707 -0.000217927 -0.000217192 -1.82465e-05
0.000722697 -0.00021732 -0.00021659 -1.82473e-05
0.000540355 -0.000162713 -0.000161846 -2.21152e-05
0.000537342 -0.000161802 -0.000160946 -2.21159e-05
0.000896012 -0.000269178 -0.000268643 -1.32736e-05
0.000901042 -0.000270692 -0.00027015 -1.32735e-05
0.000538849 -0.000162257 -0.000161396 -2.21156e-05
0.000716666 -0.000215501 -0.000214785 -1.82483e-05
0.000898527 -0.000269935 -0.000269397 -1.32736e-05
0.000720686 -0.000216714 -0.000215988 -1.82478e-05
0.000718676 -0.000216107 -0.000215387 -1.82481e-05
0.000537342 -0.000161802 -0.000160946 -2.21159e-05
0.000534329 -0.000160891 -0.000160045 -2.21162e-05
0.000890983 -0.000267665 -0.000267136 -1.32735e-05
0.000896012 -0.000269178 -0.000268643 -1.32736e-05
0.000535836 -0.000161346 -0.000160495 -2.21161e-05
0.000712645 -0.000214289 -0.000213581 -1.82484e-05
0.000893498 -0.000268422 -0.00026789 -1.32736e-05
0.000716666 -0.000215501 -0.000214785 -1.82483e-05
0.000714655 -0.000214895 -0.000214183 -1.82484e-05
0.000534329 -0.000160891 -0.000160045 -2.21162e-05
0.000531316 -0.00015998 -0.000159144 -2.21164e-05
0.000885953 -0.000266153 -0.000265629 -1.32733e-05
0.000890983 -0.000267665 -0.000267136 -1.32735e-05
0.000532822 -0.000160436 -0.000159594 -2.21163e-05
0.000708624 -0.000213077 -0.000212377 -1.82484e-05
0.000888468 -0.000266909 -0.000266383 -1.32734e-05
0.000712645 -0.000214289 -0.000213581 -1.82484e-05
0.000710634 -0.000213683 -0.000212979 -1.82484e-05
0.000531316 -0.00015998 -0.000159144 -2.21164e-05
0.000528303 -0.00015907 -0.000158243 -2.21164e-05
0.000880924 -0.00026464 -0.000264122 -1.32732e-05
0.000885953 -0.000266153 -0.000265629 -1.32733e-05
0.000529809 -0.000159525 -0.000158693 -2.21164e-05
0.000704602 -0.000211866 -0.000211173 -1.82483e-05
0.000883439 -0.000265396 -0.000264875 -1.32733e-05
0.000708624 -0.000213077 -0.000212377 -1.82484e-05
0.000706613 -0.000212471 -0.000211775 -1.82484e-05
0.000528303 -0.00015907 -0.000158243 -2.21164e-05
0.000525289 -0.000158159 -0.000157341 -2.21164e-05
0.000875894 -0.000263127 -0.000262615 -1.32731e-05
0.000880924 -0.00026464 -0.000264122 -1.32732e-05
0.000526796 -0.000158614 -0.000157792 -2.21164e-05
0.000700581 -0.000210654 -0.000209969 -1.82483e-05
0.000878409 -0.000263883 -0.000263368 -1.32731e-05
0.000704602 -0.000211866 -0.000211173 -1.82483e-05
0.000702591 -0.00021126 -0.000210571 -1.82483e-05
0.000525289 -0.000158159 -0.000157341 -2.21164e-05
0.000522276 -0.000157249 -0.00015644 -2.21164e-05
0.000870864 -0.000261614 -0.000261107 -1.3273e-05
0.000875894 -0.000263127 -0.000262615 -1.32731e-05
0.000523782 -0.000157704 -0.000156891 -2.21164e-05
0.000696559 -0.000209442 -0.000208765 -1.82482e-05
0.000873379 -0.00026237 -0.000261861 -1.3273e-05
0.000700581 -0.000210654 -0.000209969 -1.82483e-05
0.00069857 -0.000210048 -0.000209367 -1.82482e-05
0.000522276 -0.000157249 -0.00015644 -2.21164e-05
0.000519262 -0.000156338 -0.000155539 -2.21163e-05
0.000865834 -0.000260101 -0.0002596 -1.32729e-05
0.000870864 -0.000261614 -0.000261107 -1.3273e-05
0.000520769 -0.000156793 -0.00015599 -2.21163e-05
0.000692538 -0.00020823 -0.00020756 -1.82481e-05
0.000868349 -0.000260857 -0.000260354 -1.32729e-05
0.000696559 -0.000209442 -0.000208765 -1.82482e-05
0.000694548 -0.000208836 -0.000208163 -1.82481e-05
0.000519262 -0.000156338 -0.000155539 -2.21163e-05
0.000516248 -0.000155427 -0.000154638 -2.21162e-05
0.000860804 -0.000258588 -0.000258093 -1.32728e-05
0.000865834 -0.000260101 -0.0002596 -1.32729e-05
0.000517755 -0.000155883 -0.000155088 -2.21163e-05
0.000688516 -0.000207018 -0.000206356 -1.8248e-05
0.000863319 -0.000259344 -0.000258846 -1.32728e-05
0.000692538 -0.00020823 -0.00020756 -1.82481e-05
0.000690527 -0.000207624 -0.000206958 -1.8248e-05
0.000516248 -0.000155427 -0.000154638 -2.21162e-05
0.000513235 -0.000154517 -0.000153736 -2.21161e-05
0.000855774 -0.000257075 -0.000256586 -1.32727e-05
0.000860804 -0.000258588 -0.000258093 -1.32728e-05
0.000514742 -0.000154972 -0.000154187 -2.21162e-05
0.000684494 -0.000205806 -0.000205152 -1.82479e-05
0.000858289 -0.000257831 -0.000257339 -1.32728e-05
0.000688516 -0.000207018 -0.000206356 -1.8248e-05
0.000686505 -0.000206412 -0.000205754 -1.8248e-05
0.000513235 -0.000154517 -0.000153736 -2.21161e-05
0.000510221 -0.000153606 -0.000152835 -2.21161e-05
0.000850744 -0.000255562 -0.000255078 -1.32726e-05
0.000855774 -0.000257075 -0.000256586 -1.32727e-05
0.000511728 -0.000154062 -0.000153286 -2.21161e-05
0.000680473 -0.000204594 -0.000203948 -1.82478e-05
0.000853259 -0.000256318 -0.000255832 -1.32727e-05
0.000684494 -0.000205806 -0.000205152 -1.82479e-05
0.000682483 -0.0002052 -0.00020455 -1.82479e-05
0.000510221 -0.000153606 -0.000152835 -2.21161e-05
0.000507207 -0.000152696 -0.000151933 -2.2116e-05
0.000845714 -0.000254049 -0.000253571 -1.32726e-05
0.000850744 -0.000255562 -0.000255078 -1.32726e-05
0.000508714 -0.000153151 -0.000152384 -2.2116e-05
0.000676451 -0.000203382 -0.000202744 -1.82477e-05
0.000848229 -0.000254805 -0.000254325 -1.32726e-05
0.000680473 -0.000204594 -0.000203948 -1.82478e-05
0.000678462 -0.000203988 -0.000203346 -1.82478e-05
0.000507207 -0.000152696 -0.000151933 -2.2116e-05
0.000504193 -0.000151785 -0.000151032 -2.21159e-05
0.000840684 -0.000252536 -0.000252064 -1.32725e-05
0.000845714 -0.000254049 -0.000253571 -1.32726e-05
0.0005057 -0.000152241 -0.000151483 -2.21159e-05
0.000672429 -0.000202171 -0.000201539 -1.82477e-05
0.000843199 -0.000253292 -0.000252817 -1.32725e-05
0.000676451 -0.000203382 -0.000202744 -1.82477e-05
0.00067444 -0.000202777 -0.000202141 -1.82477e-05
0.000504193 -0.000151785 -0.000151032 -2.21159e-05
0.00050118 -0.000150875 -0.000150131 -2.21158e-05
0.000835654 -0.000251023 -0.000250556 -1.32724e-05
0.000840684 -0.000252536 -0.000252064 -1.32725e-05
0.000502686 -0.00015133 -0.000150581 -2.21158e-05
0.000668407 -0.000200959 -0.000200335 -1.82476e-05
0.000838169 -0.00025178 -0.00025131 -1.32725e-05
0.000672429 -0.000202171 -0.000201539 -1.82477e-05
0.000670418 -0.000201565 -0.000200937 -1.82476e-05
0.00050118 -0.000150875 -0.000150131 -2.21158e-05
0.000498166 -0.000149965 -0.000149229 -2.21157e-05
0.000830624 -0.00024951 -0.000249049 -1.32724e-05
0.000835654 -0.000251023 -0.000250556 -1.32724e-05
0.000499673 -0.00015042 -0.00014968 -2.21158e-05
0.000664385 -0.000199747 -0.000199131 -1.82475e-05
0.000833139 -0.000250267 -0.000249803 -1.32724e-05
0.000668407 -0.000200959 -0.000200335 -1.82476e-05
0.000666396 -0.000200353 -0.000199733 -1.82475e-05
0.000498166 -0.000149965 -0.000149229 -2.21157e-05
0.000495152 -0.000149054 -0.000148328 -2.21156e-05
0.000825594 -0.000247997 -0.000247542 -1.32723e-05
0.000830624 -0.00024951 -0.000249049 -1.32724e-05
0.000496659 -0.000149509 -0.000148778 -2.21157e-05
0.000660363 -0.000198535 -0.000197926 -1.82474e-05
0.000828109 -0.000248754 -0.000248295 -1.32723e-05
0.000664385 -0.000199747 -0.000199131 -1.82475e-05
0.000662374 -0.000199141 -0.000198529 -1.82475e-05
0.000495152 -0.000149054 -0.000148328 -2.21156e-05
0.000492138 -0.000148144 -0.000147426 -2.21156e-05
0.000820564 -0.000246484 -0.000246034 -1.32722e-05
0.000825594 -0.000247997 -0.000247542 -1.32723e-05
0.000493645 -0.000148599 -0.000147877 -2.21156e-05
0.000656342 -0.000197324 -0.000196722 -1.82473e-05
0.000823079 -0.000247241 -0.000246788 -1.32723e-05
0.000660363 -0.000198535 -0.000197926 -1.82474e-05
0.000658352 -0.000197929 -0.000197324 -1.82474e-05
0.000492138 -0.000148144 -0.000147426 -2.21156e-05
0.000489124 -0.000147233 -0.000146524 -2.21155e-05
0.000815534 -0.000244972 -0.000244527 -1.32722e-05
0.000820564 -0.000246484 -0.000246034 -1.32722e-05
0.000490631 -0.000147689 -0.000146975 -2.21155e-05
0.00065232 -0.000196112 -0.000195518 -1.82473e-05
0.000818049 -0.000245728 -0.00024528 -1.32722e-05
0.000656342 -0.000197324 -0.000196722 -1.82473e-05
0.000654331 -0.000196718 -0.00019612 -1.82473e-05
0.000489124 -0.000147233 -0.000146524 -2.21155e-05
0.00048611 -0.000146323 -0.000145623 -2.21154e-05
0.000810504 -0.000243459 -0.000243019 -1.32721e-05
0.000815534 -0.000244972 -0.000244527 -1.32722e-05
0.000487617 -0.000146778 -0.000146074 -2.21155e-05
0.000648298 -0.0001949 -0.000194313 -1.82472e-05
0.000813019 -0.000244215 -0.000243773 -1.32721e-05
0.00065232 -0.000196112 -0.000195518 -1.82473e-05
0.000650309 -0.000195506 -0.000194915 -1.82472e-05
0.00048611 -0.000146323 -0.000145623 -2.21154e-05
0.000483096 -0.000145413 -0.000144721 -2.21153e-05
0.000805474 -0.000241946 -0.000241512 -1.3272e-05
0.000810504 -0.000243459 -0.000243019 -1.32721e-05
0.000484603 -0.000145868 -0.000145172 -2.21154e-05
0.000644276 -0.000193689 -0.000193109 -1.82471e-05
0.000807989 -0.000242702 -0.000242266 -1.32721e-05
0.000648298 -0.0001949 -0.000194313 -1.82472e-05
0.000646287 -0.000194294 -0.000193711 -1.82471e-05
0.000483096 -0.000145413 -0.000144721 -2.21153e-05
0.000480081 -0.000144503 -0.00014382 -2.21153e-05
0.000800444 -0.000240433 -0.000240004 -1.3272e-05
0.000805474 -0.000241946 -0.000241512 -1.3272e-05
0.000481588 -0.000144958 -0.00014427 -2.21153e-05
0.000640253 -0.000192477 -0.000191904 -1.8247e-05
0.000802959 -0.00024119 -0.000240758 -1.3272e-05
0.000644276 -0.000193689 -0.000193109 -1.82471e-05
0.000642265 -0.000193083 -0.000192507 -1.82471e-05
0.000480081 -0.000144503 -0.00014382 -2.21153e-05
0.000477067 -0.000143592 -0.000142918 -2.21152e-05
0.000795413 -0.00023892 -0.000238497 -1.32719e-05
0.000800444 -0.000240433 -0.000240004 -1.3272e-05
0.000478574 -0.000144047 -0.000143369 -2.21152e-05
0.000636231 -0.000191265 -0.0001907 -1.82469e-05
0.000797928 -0.000239677 -0.000239251 -1.32719e-05
0.000640253 -0.000192477 -0.000191904 -1.8247e-05
0.000638242 -0.000191871 -0.000191302 -1.8247e-05
0.000477067 -0.000143592 -0.000142918 -2.21152e-05
0.000474053 -0.000142682 -0.000142016 -2.21151e-05
0.000790383 -0.000237408 -0.000236989 -1.32718e-05
0.000795413 -0.00023892 -0.000238497 -1.32719e-05
0.00047556 -0.000143137 -0.000142467 -2.21151e-05
0.000632209 -0.000190054 -0.000189495 -1.82469e-05
0.000792898 -0.000238164 -0.000237743 -1.32719e-05
0.000636231 -0.000191265 -0.0001907 -1.82469e-05
0.00063422 -0.000190659 -0.000190098 -1.82469e-05
0.000474053 -0.000142682 -0.000142016 -2.21151e-05
0.000471039 -0.000141772 -0.000141114 -2.2115e-05
0.000785353 -0.000235895 -0.000235482 -1.32718e-05
0.000790383 -0.000237408 -0.000236989 -1.32718e-05
0.000472546 -0.000142227 -0.000141565 -2.21151e-05
0.000628187 -0.000188842 -0.000188291 -1.82468e-05
0.000787868 -0.000236651 -0.000236236 -1.32718e-05
0.000632209 -0.000190054 -0.000189495 -1.82469e-05
0.000630198 -0.000189448 -0.000188893 -1.82468e-05
0.000471039 -0.000141772 -0.000141114 -2.2115e-05
0.000468024 -0.000140862 -0.000140213 -2.21149e-05
0.000780322 -0.000234382 -0.000233974 -1.32717e-05
0.000785353 -0.000235895 -0.000235482 -1.32718e-05
0.000469532 -0.000141317 -0.000140664 -2.2115e-05
0.000624165 -0.00018763 -0.000187086 -1.82467e-05
0.000782838 -0.000235138 -0.000234728 -1.32717e-05
0.000628187 -0.000188842 -0.000188291 -1.82468e-05
0.000626176 -0.000188236 -0.000187689 -1.82468e-05
0.000468024 -0.000140862 -0.000140213 -2.21149e-05
0.00046501 -0.000139951 -0.000139311 -2.21148e-05
0.000775292 -0.000232869 -0.000232467 -1.32716e-05
0.000780322 -0.000234382 -0.000233974 -1.32717e-05
0.000466517 -0.000140407 -0.000139762 -2.21149e-05
0.000620143 -0.000186419 -0.000185882 -1.82466e-05
0.000777807 -0.000233626 -0.000233221 -1.32717e-05
0.000624165 -0.00018763 -0.000187086 -1.82467e-05
0.000622154 -0.000187025 -0.000186484 -1.82467e-05
0.00046501 -0.000139951 -0.000139311 -2.21148e-05
0.000461996 -0.000139041 -0.000138409 -2.21148e-05
0.000770262 -0.000231357 -0.000230959 -1.32716e-05
0.000775292 -0.000232869 -0.000232467 -1.32716e-05
0.000463503 -0.000139496 -0.00013886 -2.21148e-05
0.00061612 -0.000185207 -0.000184677 -1.82466e-05
0.000772777 -0.000232113 -0.000231713 -1.32716e-05
0.000620143 -0.000186419 -0.000185882 -1.82466e-05
0.000618132 -0.000185813 -0.000185279 -1.82466e-05
0.000461996 -0.000139041 -0.000138409 -2.21148e-05
0.000458981 -0.000138131 -0.000137507 -2.21147e-05
0.000765231 -0.000229844 -0.000229452 -1.32715e-05
0.000770262 -0.000231357 -0.000230959 -1.32716e-05
0.000460489 -0.000138586 -0.000137958 -2.21147e-05
0.000612098 -0.000183996 -0.000183472 -1.82465e-05
0.000767747 -0.0002306 -0.000230206 -1.32715e-05
0.00061612 -0.000185207 -0.000184677 -1.82466e-05
0.000614109 -0.000184602 -0.000184075 -1.82465e-05
0.000458981 -0.000138131 -0.000137507 -2.21147e-05
0.000455967 -0.000137221 -0.000136605 -2.21146e-05
0.000760201 -0.000228331 -0.000227944 -1.32714e-05
0.000765231 -0.000229844 -0.000229452 -1.32715e-05
0.000457474 -0.000137676 -0.000137056 -2.21146e-05
0.000608076 -0.000182784 -0.000182268 -1.82464e-05
0.000762716 -0.000229088 -0.000228698 -1.32715e-05
0.000612098 -0.000183996 -0.000183472 -1.82465e-05
0.000610087 -0.00018339 -0.00018287 -1.82464e-05
0.000455967 -0.000137221 -0.000136605 -2.21146e-05
0.000452952 -0.000136311 -0.000135703 -2.21145e-05
0.000755171 -0.000226819 -0.000226437 -1.32714e-05
0.000760201 -0.000228331 -0.000227944 -1.32714e-05
0.00045446 -0.000136766 -0.000136154 -2.21146e-05
0.000604054 -0.000181573 -0.000181063 -1.82463e-05
0.000757686 -0.000227575 -0.00022719 -1.32714e-05
0.000608076 -0.000182784 -0.000182268 -1.82464e-05
0.000606065 -0.000182179 -0.000181666 -1.82464e-05
0.000452952 -0.000136311 -0.000135703 -2.21145e-05
0.000449938 -0.000135401 -0.000134802 -2.21144e-05
0.00075014 -0.000225306 -0.000224929 -1.32713e-05
0.000755171 -0.000226819 -0.000226437 -1.32714e-05
0.000451445 -0.000135856 -0.000135253 -2.21145e-05
0.000600031 -0.000180361 -0.000179859 -1.82462e-05
0.000752655 -0.000226062 -0.000225683 -1.32713e-05
0.000604054 -0.000181573 -0.000181063 -1.82463e-05
0.000602042 -0.000180967 -0.000180461 -1.82463e-05
0.000449938 -0.000135401 -0.000134802 -2.21144e-05
0.000446923 -0.000134491 -0.0001339 -2.21144e-05
0.00074511 -0.000223793 -0.000223421 -1.32712e-05
0.00075014 -0.000225306 -0.000224929 -1.32713e-05
0.000448431 -0.000134946 -0.000134351 -2.21144e-05
0.000596009 -0.00017915 -0.000178654 -1.82461e-05
0.000747625 -0.00022455 -0.000224175 -1.32713e-05
0.000600031 -0.000180361 -0.000179859 -1.82462e-05
0.00059802 -0.000179756 -0.000179256 -1.82462e-05
0.000446923 -0.000134491 -0.0001339 -2.21144e-05
0.000443909 -0.000133581 -0.000132998 -2.21143e-05
0.000740079 -0.000222281 -0.000221914 -1.32712e-05
0.00074511 -0.000223793 -0.000223421 -1.32712e-05
0.000445416 -0.000134036 -0.000133449 -2.21143e-05
0.000591986 -0.000177938 -0.000177449 -1.82461e-05
0.000742595 -0.000223037 -0.000222668 -1.32712e-05
0.000596009 -0.00017915 -0.000178654 -1.82461e-05
0.000593998 -0.000178544 -0.000178051 -1.82461e-05
0.000443909 -0.000133581 -0.000132998 -2.21143e-05
0.000440894 -0.000132671 -0.000132096 -2.21142e-05
0.000735049 -0.000220768 -0.000220406 -1.32711e-05
0.000740079 -0.000222281 -0.000221914 -1.32712e-05
0.000442401 -0.000133126 -0.000132547 -2.21142e-05
0.000587964 -0.000176727 -0.000176244 -1.8246e-05
0.000737564 -0.000221524 -0.00022116 -1.32711e-05
0.000591986 -0.000177938 -0.000177449 -1.82461e-05
0.000589975 -0.000177333 -0.000176847 -1.8246e-05
0.000440894 -0.000132671 -0.000132096 -2.21142e-05
0.000437879 -0.000131761 -0.000131194 -2.21141e-05
0.000730018 -0.000219255 -0.000218898 -1.3271e-05
0.000735049 -0.000220768 -0.000220406 -1.32711e-05
0.000439387 -0.000132216 -0.000131645 -2.21141e-05
0.000583941 -0.000175516 -0.00017504 -1.82459e-05
0.000732534 -0.000220012 -0.000219652 -1.32711e-05
0.000587964 -0.000176727 -0.000176244 -1.8246e-05
0.000585953 -0.000176121 -0.000175642 -1.82459e-05
0.000437879 -0.000131761 -0.000131194 -2.21141e-05
0.000434865 -0.000130851 -0.000130292 -2.2114e-05
0.000724988 -0.000217743 -0.000217391 -1.3271e-05
0.000730018 -0.000219255 -0.000218898 -1.3271e-05
0.000436372 -0.000131306 -0.000130743 -2.21141e-05
0.000579919 -0.000174304 -0.000173835 -1.82458e-05
0.000727503 -0.000218499 -0.000218145 -1.3271e-05
0.000583941 -0.000175516 -0.00017504 -1.82459e-05
0.00058193 -0.00017491 -0.000174437 -1.82459e-05
0.000434865 -0.000130851 -0.000130292 -2.2114e-05
0.00043185 -0.000129941 -0.000129389 -2.21139e-05
0.000719957 -0.00021623 -0.000215883 -1.32709e-05
0.000724988 -0.000217743 -0.000217391 -1.3271e-05
0.000433357 -0.000130396 -0.00012984 -2.2114e-05
0.000575896 -0.000173093 -0.00017263 -1.82457e-05
0.000722472 -0.000216986 -0.000216637 -1.32709e-05
0.000579919 -0.000174304 -0.000173835 -1.82458e-05
0.000577908 -0.000173699 -0.000173232 -1.82458e-05
0.00043185 -0.000129941 -0.000129389 -2.21139e-05
0.000428835 -0.000129031 -0.000128487 -2.21138e-05
0.000714926 -0.000214718 -0.000214375 -1.32708e-05
0.000719957 -0.00021623 -0.000215883 -1.32709e-05
0.000430342 -0.000129486 -0.000128938 -2.21139e-05
0.000571874 -0.000171882 -0.000171425 -1.82457e-05
0.000717442 -0.000215474 -0.000215129 -1.32709e-05
0.000575896 -0.000173093 -0.00017263 -1.82457e-05
0.000573885 -0.000172487 -0.000172028 -1.82457e-05
0.000428835 -0.000129031 -0.000128487 -2.21138e-05
0.00042582 -0.000128121 -0.000127585 -2.21137e-05
0.000709896 -0.000213205 -0.000212867 -1.32708e-05
0.000714926 -0.000214718 -0.000214375 -1.32708e-05
0.000427328 -0.000128576 -0.000128036 -2.21138e-05
0.000567851 -0.00017067 -0.00017022 -1.82456e-05
0.000712411 -0.000213961 -0.000213621 -1.32708e-05
0.000571874 -0.000171882 -0.000171425 -1.82457e-05
0.000569862 -0.000171276 -0.000170823 -1.82456e-05
0.00042582 -0.000128121 -0.000127585 -2.21137e-05
0.000422805 -0.000127212 -0.000126683 -2.21137e-05
0.000704865 -0.000211693 -0.00021136 -1.32707e-05
0.000709896 -0.000213205 -0.000212867 -1.32708e-05
0.000424313 -0.000127667 -0.000127134 -2.21137e-05
0.000563828 -0.000169459 -0.000169015 -1.82455e-05
0.000707381 -0.000212449 -0.000212114 -1.32707e-05
0.000567851 -0.00017067 -0.00017022 -1.82456e-05
0.00056584 -0.000170065 -0.000169618 -1.82455e-05
0.000422805 -0.000127212 -0.000126683 -2.21137e-05
0.00041979 -0.000126302 -0.000125781 -2.21136e-05
0.000699835 -0.00021018 -0.000209852 -1.32706e-05
0.000704865 -0.000211693 -0.00021136 -1.32707e-05
0.000421298 -0.000126757 -0.000126232 -2.21136e-05
0.000559806 -0.000168248 -0.000167811 -1.82454e-05
0.00070235 -0.000210936 -0.000210606 -1.32706e-05
0.000563828 -0.000169459 -0.000169015 -1.82455e-05
0.000561817 -0.000168853 -0.000168413 -1.82454e-05
0.00041979 -0.000126302 -0.000125781 -2.21136e-05
0.000416776 -0.000125392 -0.000124879 -2.21135e-05
0.000694804 -0.000208668 -0.000208344 -1.32705e-05
0.000699835 -0.00021018 -0.000209852 -1.32706e-05
0.000418283 -0.000125847 -0.00012533 -2.21135e-05
0.000555783 -0.000167037 -0.000166606 -1.82453e-05
0.000697319 -0.000209424 -0.000209098 -1.32706e-05
0.000559806 -0.000168248 -0.000167811 -1.82454e-05
0.000557794 -0.000167642 -0.000167208 -1.82454e-05
0.000416776 -0.000125392 -0.000124879 -2.21135e-05
0.000413761 -0.000124482 -0.000123976 -2.21134e-05
0.000689773 -0.000207155 -0.000206836 -1.32705e-05
0.000694804 -0.000208668 -0.000208344 -1.32705e-05
0.000415268 -0.000124937 -0.000124428 -2.21134e-05
0.00055176 -0.000165825 -0.000165401 -1.82452e-05
0.000692289 -0.000207911 -0.00020759 -1.32705e-05
0.000555783 -0.000167037 -0.000166606 -1.82453e-05
0.000553772 -0.000166431 -0.000166003 -1.82453e-05
0.000413761 -0.000124482 -0.000123976 -2.21134e-05
0.000410745 -0.000123573 -0.000123074 -2.21133e-05
0.000684742 -0.000205643 -0.000205329 -1.32704e-05
0.000689773 -0.000207155 -0.000206836 -1.32705e-05
0.000412253 -0.000124027 -0.000123525 -2.21134e-05
0.000547737 -0.000164614 -0.000164196 -1.82451e-05
0.000687258 -0.000206399 -0.000206082 -1.32704e-05
0.00055176 -0.000165825 -0.000165401 -1.82452e-05
0.000549749 -0.00016522 -0.000164798 -1.82452e-05
0.000410745 -0.000123573 -0.000123074 -2.21133e-05
0.00040773 -0.000122663 -0.000122172 -2.21132e-05
0.000679712 -0.00020413 -0.000203821 -1.32703e-05
0.000684742 -0.000205643 -0.000205329 -1.32704e-05
0.000409238 -0.000123118 -0.000122623 -2.21133e-05
0.000543715 -0.000163403 -0.000162991 -1.82451e-05
0.000682227 -0.000204886 -0.000204575 -1.32704e-05
0.000547737 -0.000164614 -0.000164196 -1.82451e-05
0.000545726 -0.000164009 -0.000163593 -1.82451e-05
0.00040773 -0.000122663 -0.000122172 -2.21132e-05
0.000404715 -0.000121753 -0.000121269 -2.21131e-05
0.000674681 -0.000202618 -0.000202313 -1.32703e-05
0.000679712 -0.00020413 -0.000203821 -1.32703e-05
0.000406223 -0.000122208 -0.000121721 -2.21132e-05
0.000539692 -0.000162192 -0.000161786 -1.8245e-05
0.000677196 -0.000203374 -0.000203067 -1.32703e-05
0.000543715 -0.000163403 -0.000162991 -1.82451e-05
0.000541703 -0.000162797 -0.000162388 -1.8245e-05
0.000404715 -0.000121753 -0.000121269 -2.21131e-05
0.0004017 -0.000120844 -0.000120367 -2.2113e-05
0.00066965 -0.000201105 -0.000200805 -1.32702e-05
0.000674681 -0.000202618 -0.000202313 -1.32703e-05
0.000403208 -0.000121298 -0.000120818 -2.21131e-05
0.000535669 -0.000160981 -0.000160581 -1.82449e-05
0.000672165 -0.000201861 -0.000201559 -1.32702e-05
0.000539692 -0.000162192 -0.000161786 -1.8245e-05
0.00053768 -0.000161586 -0.000161183 -1.82449e-05
0.0004017 -0.000120844 -0.000120367 -2.2113e-05
0.000398685 -0.000119934 -0.000119465 -2.2113e-05
0.000664619 -0.000199593 -0.000199297 -1.32701e-05
0.00066965 -0.000201105 -0.000200805 -1.32702e-05
0.000400193 -0.000120389 -0.000119916 -2.2113e-05
0.000531646 -0.00015977 -0.000159376 -1.82448e-05
0.000667135 -0.000200349 -0.000200051 -1.32702e-05
0.000535669 -0.000160981 -0.000160581 -1.82449e-05
0.000533657 -0.000160375 -0.000159978 -1.82448e-05
0.000398685 -0.000119934 -0.000119465 -2.2113e-05
0.00039567 -0.000119024 -0.000118562 -2.21129e-05
0.000659588 -0.00019808 -0.000197789 -1.327e-05
0.000664619 -0.000199593 -0.000199297 -1.32701e-05
0.000397177 -0.000119479 -0.000119014 -2.21129e-05
0.000527623 -0.000158558 -0.000158171 -1.82447e-05
0.000662104 -0.000198837 -0.000198543 -1.32701e-05
0.000531646 -0.00015977 -0.000159376 -1.82448e-05
0.000529634 -0.000159164 -0.000158773 -1.82448e-05
0.00039567 -0.000119024 -0.000118562 -2.21129e-05
0.000392654 -0.000118115 -0.00011766 -2.21128e-05
0.000654557 -0.000196568 -0.000196281 -1.327e-05
0.000659588 -0.00019808 -0.000197789 -1.327e-05
0.000394162 -0.00011857 -0.000118111 -2.21128e-05
0.0005236 -0.000157347 -0.000156965 -1.82446e-05
0.000657073 -0.000197324 -0.000197035 -1.327e-05
0.000527623 -0.000158558 -0.000158171 -1.82447e-05
0.000525611 -0.000157953 -0.000157568 -1.82447e-05
0.000392654 -0.000118115 -0.00011766 -2.21128e-05
0.000389639 -0.000117205 -0.000116757 -2.21127e-05
0.000649527 -0.000195056 -0.000194773 -1.32699e-05
0.000654557 -0.000196568 -0.000196281 -1.327e-05
0.000391147 -0.00011766 -0.000117209 -2.21127e-05
0.000519577 -0.000156136 -0.00015576 -1.82445e-05
0.000652042 -0.000195812 -0.000195527 -1.32699e-05
0.0005236 -0.000157347 -0.000156965 -1.82446e-05
0.000521588 -0.000156742 -0.000156363 -1.82446e-05
0.000389639 -0.000117205 -0.000116757 -2.21127e-05
0.000386624 -0.000116296 -0.000115855 -2.21126e-05
0.000644496 -0.000193543 -0.000193265 -1.32698e-05
0.000649527 -0.000195056 -0.000194773 -1.32699e-05
0.000388132 -0.00011675 -0.000116306 -2.21126e-05
0.000515554 -0.000154925 -0.000154555 -1.82445e-05
0.000647011 -0.000194299 -0.000194019 -1.32699e-05
0.000519577 -0.000156136 -0.00015576 -1.82445e-05
0.000517565 -0.000155531 -0.000155158 -1.82445e-05
0.000386624 -0.000116296 -0.000115855 -2.21126e-05
0.000383608 -0.000115386 -0.000114952 -2.21125e-05
0.000639465 -0.000192031 -0.000191757 -1.32698e-05
0.000644496 -0.000193543 -0.000193265 -1.32698e-05
0.000385116 -0.000115841 -0.000115404 -2.21125e-05
0.000511531 -0.000153714 -0.00015335 -1.82444e-05
0.00064198 -0.000192787 -0.000192511 -1.32698e-05
0.000515554 -0.000154925 -0.000154555 -1.82445e-05
0.000513542 -0.00015432 -0.000153953 -1.82444e-05
0.000383608 -0.000115386 -0.000114952 -2.21125e-05
0.000380593 -0.000114477 -0.00011405 -2.21124e-05
0.000634434 -0.000190519 -0.000190249 -1.32697e-05
0.000639465 -0.000192031 -0.000191757 -1.32698e-05
0.000382101 -0.000114931 -0.000114501 -2.21125e-05
0.000507508 -0.000152503 -0.000152145 -1.82443e-05
0.000636949 -0.000191275 -0.000191003 -1.32697e-05
0.000511531 -0.000153714 -0.00015335 -1.82444e-05
0.000509519 -0.000153109 -0.000152747 -1.82443e-05
0.000380593 -0.000114477 -0.00011405 -2.21124e-05
0.000377578 -0.000113567 -0.000113147 -2.21123e-05
0.000629403 -0.000189006 -0.000188741 -1.32696e-05
0.000634434 -0.000190519 -0.000190249 -1.32697e-05
0.000379085 -0.000114022 -0.000113599 -2.21124e-05
0.000503485 -0.000151292 -0.00015094 -1.82442e-05
0.000631918 -0.000189762 -0.000189495 -1.32697e-05
0.000507508 -0.000152503 -0.000152145 -1.82443e-05
0.000505496 -0.000151898 -0.000151542 -1.82442e-05
0.000377578 -0.000113567 -0.000113147 -2.21123e-05
0.000374562 -0.000112658 -0.000112245 -2.21122e-05
0.000624372 -0.000187494 -0.000187233 -1.32695e-05
0.000629403 -0.000189006 -0.000188741 -1.32696e-05
0.00037607 -0.000113112 -0.000112696 -2.21123e-05
0.000499461 -0.000150081 -0.000149734 -1.82441e-05
0.000626887 -0.00018825 -0.000187987 -1.32696e-05
0.000503485 -0.000151292 -0.00015094 -1.82442e-05
0.000501473 -0.000150687 -0.000150337 -1.82442e-05
0.000374562 -0.000112658 -0.000112245 -2.21122e-05
0.000371547 -0.000111748 -0.000111342 -2.21121e-05
0.000619341 -0.000185982 -0.000185725 -1.32695e-05
0.000624372 -0.000187494 -0.000187233 -1.32695e-05
0.000373054 -0.000112203 -0.000111793 -2.21122e-05
0.000495438 -0.00014887 -0.000148529 -1.8244e-05
0.000621856 -0.000186738 -0.000186479 -1.32695e-05
0.000499461 -0.000150081 -0.000149734 -1.82441e-05
0.00049745 -0.000149476 -0.000149132 -1.82441e-05
0.000371547 -0.000111748 -0.000111342 -2.21121e-05
0.000368531 -0.000110839 -0.000110439 -2.2112e-05
0.00061431 -0.000184469 -0.000184217 -1.32694e-05
0.000619341 -0.000185982 -0.000185725 -1.32695e-05
0.000370039 -0.000111294 -0.000110891 -2.21121e-05
0.000491415 -0.000147659 -0.000147324 -1.82439e-05
0.000616825 -0.000185226 -0.000184971 -1.32694e-05
0.000495438 -0.00014887 -0.000148529 -1.8244e-05
0.000493427 -0.000148265 -0.000147926 -1.8244e-05
0.000368531 -0.000110839 -0.000110439 -2.2112e-05
0.000365515 -0.00010993 -0.000109537 -2.2112e-05
0.000609279 -0.000182957 -0.000182709 -1.32693e-05
0.00061431 -0.000184469 -0.000184217 -1.32694e-05
0.000367023 -0.000110384 -0.000109988 -2.2112e-05
0.000487392 -0.000146449 -0.000146119 -1.82438e-05
0.000611794 -0.000183713 -0.000183463 -1.32694e-05
0.000491415 -0.000147659 -0.000147324 -1.82439e-05
0.000489403 -0.000147054 -0.000146721 -1.82439e-05
0.000365515 -0.00010993 -0.000109537 -2.2112e-05
0.0003625 -0.00010902 -0.000108634 -2.21119e-05
0.000604247 -0.000181445 -0.000181201 -1.32693e-05
0.000609279 -0.000182957 -0.000182709 -1.32693e-05
0.000364008 -0.000109475 -0.000109085 -2.21119e-05
0.000483368 -0.000145238 -0.000144913 -1.82438e-05
0.000606763 -0.000182201 -0.000181955 -1.32693e-05
0.000487392 -0.000146449 -0.000146119 -1.82438e-05
0.00048538 -0.000145843 -0.000145516 -1.82438e-05
0.0003625 -0.00010902 -0.000108634 -2.21119e-05
0.000359484 -0.000108111 -0.000107731 -2.21118e-05
0.000599216 -0.000179933 -0.000179693 -1.32692e-05
0.000604247 -0.000181445 -0.000181201 -1.32693e-05
0.000360992 -0.000108566 -0.000108183 -2.21118e-05
0.000479345 -0.000144027 -0.000143708 -1.82437e-05
0.000601732 -0.000180689 -0.000180447 -1.32692e-05
0.000483368 -0.000145238 -0.000144913 -1.82438e-05
0.000481357 -0.000144632 -0.000144311 -1.82437e-05
0.000359484 -0.000108111 -0.000107731 -2.21118e-05
0.000356468 -0.000107202 -0.000106829 -2.21117e-05
0.000594185 -0.00017842 -0.000178185 -1.32691e-05
0.000599216 -0.000179933 -0.000179693 -1.32692e-05
0.000357976 -0.000107656 -0.00010728 -2.21117e-05
0.000475322 -0.000142816 -0.000142502 -1.82436e-05
0.000596701 -0.000179177 -0.000178939 -1.32691e-05
0.000479345 -0.000144027 -0.000143708 -1.82437e-05
0.000477333 -0.000143421 -0.000143105 -1.82436e-05
0.000356468 -0.000107202 -0.000106829 -2.21117e-05
0.000353453 -0.000106292 -0.000105926 -2.21116e-05
0.000589154 -0.000176908 -0.000176677 -1.3269e-05
0.000594185 -0.00017842 -0.000178185 -1.32691e-05
0.000354961 -0.000106747 -0.000106377 -2.21116e-05
0.000471298 -0.000141605 -0.000141297 -1.82435e-05
0.00059167 -0.000177664 -0.000177431 -1.32691e-05
0.000475322 -0.000142816 -0.000142502 -1.82436e-05
0.00047331 -0.000142211 -0.0001419 -1.82435e-05
0.000353453 -0.000106292 -0.000105926 -2.21116e-05
0.000350437 -0.000105383 -0.000105023 -2.21115e-05
0.000584123 -0.000175396 -0.000175169 -1.3269e-05
0.000589154 -0.000176908 -0.000176677 -1.3269e-05
0.000351945 -0.000105838 -0.000105474 -2.21115e-05
0.000467275 -0.000140394 -0.000140092 -1.82434e-05
0.000586638 -0.000176152 -0.000175923 -1.3269e-05
0.000471298 -0.000141605 -0.000141297 -1.82435e-05
0.000469287 -0.000141 -0.000140694 -1.82435e-05
0.000350437 -0.000105383 -0.000105023 -2.21115e-05
0.000347421 -0.000104474 -0.00010412 -2.21114e-05
0.000579092 -0.000173884 -0.00017366 -1.32689e-05
0.000584123 -0.000175396 -0.000175169 -1.3269e-05
0.000348929 -0.000104929 -0.000104572 -2.21115e-05
0.000463252 -0.000139184 -0.000138886 -1.82433e-05
0.000581607 -0.00017464 -0.000174415 -1.32689e-05
0.000467275 -0.000140394 -0.000140092 -1.82434e-05
0.000465263 -0.000139789 -0.000139489 -1.82434e-05
0.000347421 -0.000104474 -0.00010412 -2.21114e-05
0.000344405 -0.000103565 -0.000103217 -2.21113e-05
0.00057406 -0.000172372 -0.000172152 -1.32688e-05
0.000579092 -0.000173884 -0.00017366 -1.32689e-05
0.000345913 -0.000104019 -0.000103669 -2.21114e-05
0.000459228 -0.000137973 -0.000137681 -1.82432e-05
0.000576576 -0.000173128 -0.000172906 -1.32689e-05
0.000463252 -0.000139184 -0.000138886 -1.82433e-05
0.00046124 -0.000138578 -0.000138284 -1.82433e-05
0.000344405 -0.000103565 -0.000103217 -2.21113e-05
0.000341389 -0.000102656 -0.000102314 -2.21112e-05
0.000569029 -0.00017086 -0.000170644 -1.32687e-05
0.00057406 -0.000172372 -0.000172152 -1.32688e-05
0.000342897 -0.00010311 -0.000102766 -2.21113e-05
0.000455205 -0.000136762 -0.000136475 -1.82431e-05
0.000571545 -0.000171616 -0.000171398 -1.32688e-05
0.000459228 -0.000137973 -0.000137681 -1.82432e-05
0.000457216 -0.000137368 -0.000137078 -1.82432e-05
0.000341389 -0.000102656 -0.000102314 -2.21112e-05
0.000338373 -0.000101747 -0.000101411 -2.21111e-05
0.000563998 -0.000169348 -0.000169136 -1.32687e-05
0.000569029 -0.00017086 -0.000170644 -1.32687e-05
0.000339881 -0.000102201 -0.000101863 -2.21112e-05
0.000451181 -0.000135552 -0.00013527 -1.82431e-05
0.000566513 -0.000170104 -0.00016989 -1.32687e-05
0.000455205 -0.000136762 -0.000136475 -1.82431e-05
0.000453193 -0.000136157 -0.000135873 -1.82431e-05
0.000338373 -0.000101747 -0.000101411 -2.21111e-05
0.000335357 -0.000100838 -0.000100508 -2.2111e-05
0.000558966 -0.000167835 -0.000167628 -1.32686e-05
0.000563998 -0.000169348 -0.000169136 -1.32687e-05
0.000336865 -0.000101292 -0.00010096 -2.21111e-05
0.000447157 -0.000134341 -0.000134064 -1.8243e-05
0.000561482 -0.000168591 -0.000168382 -1.32686e-05
0.000451181 -0.000135552 -0.00013527 -1.82431e-05
0.000449169 -0.000134946 -0.000134667 -1.8243e-05
0.000335357 -0.000100838 -0.000100508 -2.2111e-05
0.000332341 -9.99284e-05 -9.96055e-05 -2.2111e-05
0.000553935 -0.000166323 -0.000166119 -1.32685e-05
0.000558966 -0.000167835 -0.000167628 -1.32686e-05
0.000333849 -0.000100383 -0.000100057 -2.2111e-05
0.000443134 -0.00013313 -0.000132859 -1.82429e-05
0.000556451 -0.000167079 -0.000166873 -1.32686e-05
0.000447157 -0.000134341 -0.000134064 -1.8243e-05
0.000445146 -0.000133736 -0.000133461 -1.82429e-05
0.000332341 -9.99284e-05 -9.96055e-05 -2.2111e-05
0.000329325 -9.90194e-05 -9.87025e-05 -2.21109e-05
0.000548904 -0.000164811 -0.000164611 -1.32685e-05
0.000553935 -0.000166323 -0.000166119 -1.32685e-05
0.000330833 -9.94739e-05 -9.9154e-05 -2.21109e-05
0.00043911 -0.00013192 -0.000131653 -1.82428e-05
0.000551419 -0.000165567 -0.000165365 -1.32685e-05
0.000443134 -0.00013313 -0.000132859 -1.82429e-05
0.000441122 -0.000132525 -0.000132256 -1.82428e-05
0.000329325 -9.90194e-05 -9.87025e-05 -2.21109e-05
0.000326309 -9.81104e-05 -9.77994e-05 -2.21108e-05
0.000543872 -0.000163299 -0.000163103 -1.32684e-05
0.000548904 -0.000164811 -0.000164611 -1.32685e-05
0.000327817 -9.85649e-05 -9.8251e-05 -2.21108e-05
0.000435087 -0.000130709 -0.000130448 -1.82427e-05
0.000546388 -0.000164055 -0.000163857 -1.32684e-05
0.00043911 -0.00013192 -0.000131653 -1.82428e-05
0.000437098 -0.000131314 -0.00013105 -1.82428e-05
0.000326309 -9.81104e-05 -9.77994e-05 -2.21108e-05
0.000323293 -9.72014e-05 -9.68964e-05 -2.21107e-05
0.000538841 -0.000161787 -0.000161594 -1.32683e-05
0.000543872 -0.000163299 -0.000163103 -1.32684e-05
0.000324801 -9.76559e-05 -9.73479e-05 -2.21107e-05
0.000431063 -0.000129498 -0.000129242 -1.82426e-05
0.000541357 -0.000162543 -0.000162349 -1.32683e-05
0.000435087 -0.000130709 -0.000130448 -1.82427e-05
0.000433075 -0.000130104 -0.000129845 -1.82427e-05
0.000323293 -9.72014e-05 -9.68964e-05 -2.21107e-05
0.000320277 -9.62924e-05 -9.59933e-05 -2.21106e-05
0.00053381 -0.000160275 -0.000160086 -1.32682e-05
0.000538841 -0.000161787 -0.000161594 -1.32683e-05
0.000321785 -9.67469e-05 -9.64448e-05 -2.21106e-05
0.000427039 -0.000128288 -0.000128036 -1.82425e-05
0.000536325 -0.000161031 -0.00016084 -1.32683e-05
0.000431063 -0.000129498 -0.000129242 -1.82426e-05
0.000429051 -0.000128893 -0.000128639 -1.82426e-05
0.000320277 -9.62924e-05 -9.59933e-05 -2.21106e-05
0.000317261 -9.53835e-05 -9.50902e-05 -2.21105e-05
0.000528778 -0.000158763 -0.000158578 -1.32682e-05
0.00053381 -0.000160275 -0.000160086 -1.32682e-05
0.000318769 -9.58379e-05 -9.55417e-05 -2.21105e-05
0.000423015 -0.000127077 -0.000126831 -1.82424e-05
0.000531294 -0.000159519 -0.000159332 -1.32682e-05
0.000427039 -0.000128288 -0.000128036 -1.82425e-05
0.000425027 -0.000127682 -0.000127433 -1.82425e-05
0.000317261 -9.53835e-05 -9.50902e-05 -2.21105e-05
0.000314244 -9.44745e-05 -9.4187e-05 -2.21104e-05
0.000523747 -0.000157251 -0.00015707 -1.32681e-05
0.000528778 -0.000158763 -0.000158578 -1.32682e-05
0.000315752 -9.4929e-05 -9.46386e-05 -2.21105e-05
0.000418992 -0.000125867 -0.000125625 -1.82424e-05
0.000526262 -0.000158007 -0.000157824 -1.32681e-05
0.000423015 -0.000127077 -0.000126831 -1.82424e-05
0.000421003 -0.000126472 -0.000126228 -1.82424e-05
0.000314244 -9.44745e-05 -9.4187e-05 -2.21104e-05
0.000311228 -9.35656e-05 -9.32838e-05 -2.21103e-05
0.000518715 -0.000155739 -0.000155561 -1.3268e-05
0.000523747 -0.000157251 -0.00015707 -1.32681e-05
0.000312736 -9.40201e-05 -9.37354e-05 -2.21104e-05
0.000414968 -0.000124656 -0.000124419 -1.82423e-05
0.000521231 -0.000156495 -0.000156315 -1.32681e-05
0.000418992 -0.000125867 -0.000125625 -1.82424e-05
0.00041698 -0.000125261 -0.000125022 -1.82423e-05
0.000311228 -9.35656e-05 -9.32838e-05 -2.21103e-05
0.000308212 -9.26568e-05 -9.23806e-05 -2.21102e-05
0.000513684 -0.000154227 -0.000154053 -1.32679e-05
0.000518715 -0.000155739 -0.000155561 -1.3268e-05
0.00030972 -9.31112e-05 -9.28322e-05 -2.21103e-05
0.000410944 -0.000123446 -0.000123214 -1.82422e-05
0.000516199 -0.000154983 -0.000154807 -1.3268e-05
0.000414968 -0.000124656 -0.000124419 -1.82423e-05
0.000412956 -0.000124051 -0.000123816 -1.82422e-05
0.000308212 -9.26568e-05 -9.23806e-05 -2.21102e-05
0.000305195 -9.17479e-05 -9.14774e-05 -2.21101e-05
0.000508652 -0.000152715 -0.000152544 -1.32679e-05
0.000513684 -0.000154227 -0.000154053 -1.32679e-05
0.000306703 -9.22023e-05 -9.1929e-05 -2.21102e-05
0.00040692 -0.000122235 -0.000122008 -1.82421e-05
0.000511168 -0.000153471 -0.000153299 -1.32679e-05
0.000410944 -0.000123446 -0.000123214 -1.82422e-05
0.000408932 -0.00012284 -0.000122611 -1.82421e-05
0.000305195 -9.17479e-05 -9.14774e-05 -2.21101e-05
0.000302179 -9.08391e-05 -9.05742e-05 -2.211e-05
0.000503621 -0.000151203 -0.000151036 -1.32678e-05
0.000508652 -0.000152715 -0.000152544 -1.32679e-05
0.000303687 -9.12935e-05 -9.10258e-05 -2.21101e-05
0.000402896 -0.000121025 -0.000120802 -1.8242e-05
0.000506136 -0.000151959 -0.00015179 -1.32678e-05
0.00040692 -0.000122235 -0.000122008 -1.82421e-05
0.000404908 -0.00012163 -0.000121405 -1.82421e-05
0.000302179 -9.08391e-05 -9.05742e-05 -2.211e-05
0.000299162 -8.99303e-05 -8.96709e-05 -2.211e-05
0.000498589 -0.000149691 -0.000149528 -1.32677e-05
0.000503621 -0.000151203 -0.000151036 -1.32678e-05
0.000300671 -9.03847e-05 -9.01225e-05 -2.211e-05
0.000398872 -0.000119814 -0.000119596 -1.82419e-05
0.000501105 -0.000150447 -0.000150282 -1.32678e-05
0.000402896 -0.000121025 -0.000120802 -1.8242e-05
0.000400884 -0.00012042 -0.000120199 -1.8242e-05
0.000299162 -8.99303e-05 -8.96709e-05 -2.211e-05
0.000296146 -8.90216e-05 -8.87676e-05 -2.21099e-05
0.000493557 -0.000148179 -0.000148019 -1.32677e-05
0.000498589 -0.000149691 -0.000149528 -1.32677e-05
0.000297654 -8.94759e-05 -8.92192e-05 -2.21099e-05
0.000394848 -0.000118604 -0.00011839 -1.82418e-05
0.000496073 -0.000148935 -0.000148773 -1.32677e-05
0.000398872 -0.000119814 -0.000119596 -1.82419e-05
0.00039686 -0.000119209 -0.000118993 -1.82419e-05
0.000296146 -8.90216e-05 -8.87676e-05 -2.21099e-05
0.000293129 -8.81128e-05 -8.78642e-05 -2.21098e-05
0.000488526 -0.000146668 -0.000146511 -1.32676e-05
0.000493557 -0.000148179 -0.000148019 -1.32677e-05
0.000294638 -8.85672e-05 -8.83159e-05 -2.21098e-05
0.000390824 -0.000117394 -0.000117185 -1.82418e-05
0.000491042 -0.000147424 -0.000147265 -1.32676e-05
0.000394848 -0.000118604 -0.00011839 -1.82418e-05
0.000392836 -0.000117999 -0.000117787 -1.82418e-05
0.000293129 -8.81128e-05 -8.78642e-05 -2.21098e-05
0.000290113 -8.72041e-05 -8.69609e-05 -2.21097e-05
0.000483494 -0.000145156 -0.000145002 -1.32675e-05
0.000488526 -0.000146668 -0.000146511 -1.32676e-05
0.000291621 -8.76584e-05 -8.74125e-05 -2.21097e-05
0.0003868 -0.000116183 -0.000115979 -1.82417e-05
0.00048601 -0.000145912 -0.000145756 -1.32676e-05
0.000390824 -0.000117394 -0.000117185 -1.82418e-05
0.000388812 -0.000116788 -0.000116582 -1.82417e-05
0.000290113 -8.72041e-05 -8.69609e-05 -2.21097e-05
0.000287096 -8.62954e-05 -8.60575e-05 -2.21096e-05
0.000478462 -0.000143644 -0.000143494 -1.32674e-05
0.000483494 -0.000145156 -0.000145002 -1.32675e-05
0.000288604 -8.67497e-05 -8.65092e-05 -2.21096e-05
0.000382776 -0.000114973 -0.000114773 -1.82416e-05
0.000480978 -0.0001444 -0.000144248 -1.32675e-05
0.0003868 -0.000116183 -0.000115979 -1.82417e-05
0.000384788 -0.000115578 -0.000115376 -1.82416e-05
0.000287096 -8.62954e-05 -8.60575e-05 -2.21096e-05
0.000284079 -8.53867e-05 -8.5154e-05 -2.21095e-05
0.000473431 -0.000142132 -0.000141985 -1.32674e-05
0.000478462 -0.000143644 -0.000143494 -1.32674e-05
0.000285588 -8.58411e-05 -8.56058e-05 -2.21096e-05
0.000378752 -0.000113763 -0.000113567 -1.82415e-05
0.000475946 -0.000142888 -0.000142739 -1.32674e-05
0.000382776 -0.000114973 -0.000114773 -1.82416e-05
0.000380764 -0.000114368 -0.00011417 -1.82415e-05
0.000284079 -8.53867e-05 -8.5154e-05 -2.21095e-05
0.000281063 -8.44781e-05 -8.42506e-05 -2.21094e-05
0.000468399 -0.00014062 -0.000140477 -1.32673e-05
0.000473431 -0.000142132 -0.000141985 -1.32674e-05
0.000282571 -8.49324e-05 -8.47023e-05 -2.21095e-05
0.000374728 -0.000112552 -0.000112361 -1.82414e-05
0.000470915 -0.000141376 -0.000141231 -1.32673e-05
0.000378752 -0.000113763 -0.000113567 -1.82415e-05
0.00037674 -0.000113157 -0.000112964 -1.82414e-05
0.000281063 -8.44781e-05 -8.42506e-05 -2.21094e-05
0.000278046 -8.35695e-05 -8.33471e-05 -2.21093e-05
0.000463367 -0.000139108 -0.000138968 -1.32672e-05
0.000468399 -0.00014062 -0.000140477 -1.32673e-05
0.000279554 -8.40238e-05 -8.37989e-05 -2.21094e-05
0.000370704 -0.000111342 -0.000111155 -1.82413e-05
0.000465883 -0.000139864 -0.000139722 -1.32673e-05
0.000374728 -0.000112552 -0.000112361 -1.82414e-05
0.000372716 -0.000111947 -0.000111758 -1.82414e-05
0.000278046 -8.35695e-05 -8.33471e-05 -2.21093e-05
0.000275029 -8.26609e-05 -8.24436e-05 -2.21092e-05
0.000458335 -0.000137597 -0.000137459 -1.32672e-05
0.000463367 -0.000139108 -0.000138968 -1.32672e-05
0.000276538 -8.31152e-05 -8.28954e-05 -2.21093e-05
0.000366679 -0.000110132 -0.000109949 -1.82412e-05
0.000460851 -0.000138352 -0.000138214 -1.32672e-05
0.000370704 -0.000111342 -0.000111155 -1.82413e-05
0.000368692 -0.000110737 -0.000110552 -1.82413e-05
0.000275029 -8.26609e-05 -8.24436e-05 -2.21092e-05
0.000272013 -8.17523e-05 -8.15401e-05 -2.21092e-05
0.000453304 -0.000136085 -0.000135951 -1.32671e-05
0.000458335 -0.000137597 -0.000137459 -1.32672e-05
0.000273521 -8.22066e-05 -8.19918e-05 -2.21092e-05
0.000362655 -0.000108921 -0.000108743 -1.82411e-05
0.000455819 -0.000136841 -0.000136705 -1.32671e-05
0.000366679 -0.000110132 -0.000109949 -1.82412e-05
0.000364667 -0.000109527 -0.000109346 -1.82412e-05
0.000272013 -8.17523e-05 -8.15401e-05 -2.21092e-05
0.000268996 -8.08438e-05 -8.06365e-05 -2.21091e-05
0.000448272 -0.000134573 -0.000134442 -1.3267e-05
0.000453304 -0.000136085 -0.000135951 -1.32671e-05
0.000270504 -8.12981e-05 -8.10883e-05 -2.21091e-05
0.000358631 -0.000107711 -0.000107537 -1.82411e-05
0.000450788 -0.000135329 -0.000135197 -1.32671e-05
0.000362655 -0.000108921 -0.000108743 -1.82411e-05
0.000360643 -0.000108316 -0.00010814 -1.82411e-05
0.000268996 -8.08438e-05 -8.06365e-05 -2.21091e-05
0.000265979 -7.99353e-05 -7.97329e-05 -2.2109e-05
0.00044324 -0.000133061 -0.000132934 -1.32669e-05
0.000448272 -0.000134573 -0.000134442 -1.3267e-05
0.000267487 -8.03895e-05 -8.01847e-05 -2.2109e-05
0.000354607 -0.000106501 -0.000106331 -1.8241e-05
0.000445756 -0.000133817 -0.000133688 -1.3267e-05
0.000358631 -0.000107711 -0.000107537 -1.82411e-05
0.000356619 -0.000107106 -0.000106934 -1.8241e-05
0.000265979 -7.99353e-05 -7.97329e-05 -2.2109e-05
0.000262962 -7.90268e-05 -7.88293e-05 -2.21089e-05
0.000438208 -0.00013155 -0.000131425 -1.32669e-05
0.00044324 -0.000133061 -0.000132934 -1.32669e-05
0.00026447 -7.9481e-05 -7.92811e-05 -2.21089e-05
0.000350582 -0.000105291 -0.000105125 -1.82409e-05
0.000440724 -0.000132305 -0.000132179 -1.32669e-05
0.000354607 -0.000106501 -0.000106331 -1.8241e-05
0.000352594 -0.000105896 -0.000105728 -1.82409e-05
0.000262962 -7.90268e-05 -7.88293e-05 -2.21089e-05
0.000259945 -7.81183e-05 -7.79257e-05 -2.21088e-05
0.000433176 -0.000130038 -0.000129916 -1.32668e-05
0.000438208 -0.00013155 -0.000131425 -1.32669e-05
0.000261453 -7.85726e-05 -7.83775e-05 -2.21088e-05
0.000346558 -0.000104081 -0.000103919 -1.82408e-05
0.000435692 -0.000130794 -0.000130671 -1.32668e-05
0.000350582 -0.000105291 -0.000105125 -1.82409e-05
0.00034857 -0.000104686 -0.000104522 -1.82409e-05
0.000259945 -7.81183e-05 -7.79257e-05 -2.21088e-05
0.000256928 -7.72099e-05 -7.7022e-05 -2.21087e-05
0.000428144 -0.000128526 -0.000128408 -1.32667e-05
0.000433176 -0.000130038 -0.000129916 -1.32668e-05
0.000258436 -7.76641e-05 -7.74738e-05 -2.21088e-05
0.000342533 -0.000102871 -0.000102713 -1.82407e-05
0.00043066 -0.000129282 -0.000129162 -1.32668e-05
0.000346558 -0.000104081 -0.000103919 -1.82408e-05
0.000344546 -0.000103476 -0.000103316 -1.82408e-05
0.000256928 -7.72099e-05 -7.7022e-05 -2.21087e-05
0.000253911 -7.63015e-05 -7.61183e-05 -2.21086e-05
0.000423112 -0.000127014 -0.000126899 -1.32667e-05
0.000428144 -0.000128526 -0.000128408 -1.32667e-05
0.000255419 -7.67557e-05 -7.65701e-05 -2.21087e-05
0.000338509 -0.00010166 -0.000101507 -1.82406e-05
0.000425628 -0.00012777 -0.000127653 -1.32667e-05
0.000342533 -0.000102871 -0.000102713 -1.82407e-05
0.000340521 -0.000102266 -0.00010211 -1.82407e-05
0.000253911 -7.63015e-05 -7.61183e-05 -2.21086e-05
0.000250894 -7.53931e-05 -7.52146e-05 -2.21085e-05
0.00041808 -0.000125503 -0.00012539 -1.32666e-05
0.000423112 -0.000127014 -0.000126899 -1.32667e-05
0.000252402 -7.58473e-05 -7.56664e-05 -2.21086e-05
0.000334485 -0.00010045 -0.0001003 -1.82406e-05
0.000420596 -0.000126259 -0.000126145 -1.32666e-05
0.000338509 -0.00010166 -0.000101507 -1.82406e-05
0.000336497 -0.000101055 -0.000100903 -1.82406e-05
0.000250894 -7.53931e-05 -7.52146e-05 -2.21085e-05
0.000247877 -7.44848e-05 -7.43108e-05 -2.21085e-05
0.000413048 -0.000123991 -0.000123882 -1.32665e-05
0.00041808 -0.000125503 -0.00012539 -1.32666e-05
0.000249385 -7.49389e-05 -7.47627e-05 -2.21085e-05
0.00033046 -9.92403e-05 -9.90942e-05 -1.82405e-05
0.000415564 -0.000124747 -0.000124636 -1.32666e-05
0.000334485 -0.00010045 -0.0001003 -1.82406e-05
0.000332472 -9.98454e-05 -9.96973e-05 -1.82405e-05
0.000247877 -7.44848e-05 -7.43108e-05 -2.21085e-05
0.000244859 -7.35764e-05 -7.3407e-05 -2.21084e-05
0.000408016 -0.000122479 -0.000122373 -1.32665e-05
0.000413048 -0.000123991 -0.000123882 -1.32665e-05
0.000246368 -7.40306e-05 -7.38589e-05 -2.21084e-05
0.000326436 -9.80303e-05 -9.7888e-05 -1.82404e-05
0.000410532 -0.000123235 -0.000123127 -1.32665e-05
0.00033046 -9.92403e-05 -9.90942e-05 -1.82405e-05
0.000328448 -9.86353e-05 -9.84911e-05 -1.82404e-05
0.000244859 -7.35764e-05 -7.3407e-05 -2.21084e-05
0.000241842 -7.26681e-05 -7.25032e-05 -2.21083e-05
0.000402984 -0.000120968 -0.000120864 -1.32664e-05
0.000408016 -0.000122479 -0.000122373 -1.32665e-05
0.000243351 -7.31223e-05 -7.29551e-05 -2.21083e-05
0.000322411 -9.68203e-05 -9.66817e-05 -1.82403e-05
0.0004055 -0.000121724 -0.000121619 -1.32664e-05
0.000326436 -9.80303e-05 -9.7888e-05 -1.82404e-05
0.000324423 -9.74253e-05 -9.72848e-05 -1.82404e-05
0.000241842 -7.26681e-05 -7.25032e-05 -2.21083e-05
0.000238825 -7.17598e-05 -7.15994e-05 -2.21082e-05
0.000397952 -0.000119456 -0.000119355 -1.32663e-05
0.000402984 -0.000120968 -0.000120864 -1.32664e-05
0.000240334 -7.2214e-05 -7.20513e-05 -2.21082e-05
0.000318386 -9.56103e-05 -9.54755e-05 -1.82402e-05
0.000400468 -0.000120212 -0.00012011 -1.32664e-05
0.000322411 -9.68203e-05 -9.66817e-05 -1.82403e-05
0.000320399 -9.62153e-05 -9.60786e-05 -1.82403e-05
0.000238825 -7.17598e-05 -7.15994e-05 -2.21082e-05
0.000235808 -7.08516e-05 -7.06955e-05 -2.21081e-05
0.00039292 -0.000117945 -0.000117847 -1.32663e-05
0.000397952 -0.000119456 -0.000119355 -1.32663e-05
0.000237316 -7.13057e-05 -7.11474e-05 -2.21082e-05
0.000314362 -9.44003e-05 -9.42692e-05 -1.82401e-05
0.000395436 -0.0001187 -0.000118601 -1.32663e-05
0.000318386 -9.56103e-05 -9.54755e-05 -1.82402e-05
0.000316374 -9.50053e-05 -9.48723e-05 -1.82402e-05
0.000235808 -7.08516e-05 -7.06955e-05 -2.21081e-05
0.00023279 -6.99434e-05 -6.97916e-05 -2.2108e-05
0.000387888 -0.000116433 -0.000116338 -1.32662e-05
0.00039292 -0.000117945 -0.000117847 -1.32663e-05
0.000234299 -7.03975e-05 -7.02436e-05 -2.21081e-05
0.000310337 -9.31903e-05 -9.30629e-05 -1.82401e-05
0.000390404 -0.000117189 -0.000117092 -1.32662e-05
0.000314362 -9.44003e-05 -9.42692e-05 -1.82401e-05
0.000312349 -9.37953e-05 -9.3666e-05 -1.82401e-05
0.00023279 -6.99434e-05 -6.97916e-05 -2.2108e-05
0.000229773 -6.90352e-05 -6.88877e-05 -2.21079e-05
0.000382856 -0.000114922 -0.000114829 -1.32661e-05
0.000387888 -0.000116433 -0.000116338 -1.32662e-05
0.000231282 -6.94893e-05 -6.93396e-05 -2.2108e-05
0.000306312 -9.19804e-05 -9.18566e-05 -1.824e-05
0.000385372 -0.000115677 -0.000115583 -1.32661e-05
0.000310337 -9.31903e-05 -9.30629e-05 -1.82401e-05
0.000308325 -9.25854e-05 -9.24597e-05 -1.824e-05
0.000229773 -6.90352e-05 -6.88877e-05 -2.21079e-05
0.000226756 -6.8127e-05 -6.79837e-05 -2.21079e-05
0.000377824 -0.00011341 -0.00011332 -1.3266e-05
0.000382856 -0.000114922 -0.000114829 -1.32661e-05
0.000228264 -6.85811e-05 -6.84357e-05 -2.21079e-05
0.000302288 -9.07705e-05 -9.06502e-05 -1.82399e-05
0.00038034 -0.000114166 -0.000114075 -1.32661e-05
0.000306312 -9.19804e-05 -9.18566e-05 -1.824e-05
0.0003043 -9.13754e-05 -9.12534e-05 -1.82399e-05
0.000226756 -6.8127e-05 -6.79837e-05 -2.21079e-05
0.000223738 -6.72188e-05 -6.70797e-05 -2.21078e-05
0.000372791 -0.000111898 -0.000111811 -1.3266e-05
0.000377824 -0.00011341 -0.00011332 -1.3266e-05
0.000225247 -6.76729e-05 -6.75317e-05 -2.21078e-05
0.000298263 -8.95606e-05 -8.94438e-05 -1.82398e-05
0.000375308 -0.000112654 -0.000112566 -1.3266e-05
0.000302288 -9.07705e-05 -9.06502e-05 -1.82399e-05
0.000300275 -9.01655e-05 -9.0047e-05 -1.82399e-05
0.000223738 -6.72188e-05 -6.70797e-05 -2.21078e-05
0.000220721 -6.63107e-05 -6.61757e-05 -2.21077e-05
0.000367759 -0.000110387 -0.000110302 -1.32659e-05
0.000372791 -0.000111898 -0.000111811 -1.3266e-05
0.000222229 -6.67648e-05 -6.66277e-05 -2.21077e-05
0.000294238 -8.83507e-05 -8.82375e-05 -1.82397e-05
0.000370275 -0.000111143 -0.000111057 -1.32659e-05
0.000298263 -8.95606e-05 -8.94438e-05 -1.82398e-05
0.00029625 -8.89556e-05 -8.88407e-05 -1.82398e-05
0.000220721 -6.63107e-05 -6.61757e-05 -2.21077e-05
0.000217703 -6.54026e-05 -6.52717e-05 -2.21076e-05
0.000362727 -0.000108875 -0.000108794 -1.32658e-05
0.000367759 -0.000110387 -0.000110302 -1.32659e-05
0.000219212 -6.58566e-05 -6.57237e-05 -2.21076e-05
0.000290213 -8.71409e-05 -8.7031e-05 -1.82397e-05
0.000365243 -0.000109631 -0.000109548 -1.32659e-05
0.000294238 -8.83507e-05 -8.82375e-05 -1.82397e-05
0.000292226 -8.77458e-05 -8.76342e-05 -1.82397e-05
0.000217703 -6.54026e-05 -6.52717e-05 -2.21076e-05
0.000214686 -6.44945e-05 -6.43676e-05 -2.21075e-05
0.000357695 -0.000107364 -0.000107285 -1.32658e-05
0.000362727 -0.000108875 -0.000108794 -1.32658e-05
0.000216194 -6.49486e-05 -6.48197e-05 -2.21076e-05
0.000286188 -8.5931e-05 -8.58246e-05 -1.82396e-05
0.000360211 -0.00010812 -0.000108039 -1.32658e-05
0.000290213 -8.71409e-05 -8.7031e-05 -1.82397e-05
0.000288201 -8.65359e-05 -8.64278e-05 -1.82396e-05
0.000214686 -6.44945e-05 -6.43676e-05 -2.21075e-05
0.000211668 -6.35865e-05 -6.34635e-05 -2.21074e-05
0.000352662 -0.000105852 -0.000105776 -1.32657e-05
0.000357695 -0.000107364 -0.000107285 -1.32658e-05
0.000213177 -6.40405e-05 -6.39156e-05 -2.21075e-05
0.000282164 -8.47212e-05 -8.46181e-05 -1.82395e-05
0.000355179 -0.000106608 -0.00010653 -1.32657e-05
0.000286188 -8.5931e-05 -8.58246e-05 -1.82396e-05
0.000284176 -8.53261e-05 -8.52214e-05 -1.82395e-05
0.000211668 -6.35865e-05 -6.34635e-05 -2.21074e-05
0.00020865 -6.26784e-05 -6.25594e-05 -2.21074e-05
0.00034763 -0.000104341 -0.000104267 -1.32656e-05
0.000352662 -0.000105852 -0.000105776 -1.32657e-05
0.000210159 -6.31325e-05 -6.30115e-05 -2.21074e-05
0.000278139 -8.35114e-05 -8.34116e-05 -1.82394e-05
0.000350146 -0.000105097 -0.000105021 -1.32657e-05
0.000282164 -8.47212e-05 -8.46181e-05 -1.82395e-05
0.000280151 -8.41163e-05 -8.40149e-05 -1.82395e-05
0.00020865 -6.26784e-05 -6.25594e-05 -2.21074e-05
0.000205633 -6.17705e-05 -6.16553e-05 -2.21073e-05
0.000342598 -0.00010283 -0.000102758 -1.32656e-05
0.00034763 -0.000104341 -0.000104267 -1.32656e-05
0.000207142 -6.22244e-05 -6.21073e-05 -2.21073e-05
0.000274114 -8.23017e-05 -8.22051e-05 -1.82393e-05
0.000345114 -0.000103585 -0.000103512 -1.32656e-05
0.000278139 -8.35114e-05 -8.34116e-05 -1.82394e-05
0.000276126 -8.29065e-05 -8.28084e-05 -1.82394e-05
0.000205633 -6.17705e-05 -6.16553e-05 -2.21073e-05
0.000202615 -6.08625e-05 -6.07511e-05 -2.21072e-05
0.000337565 -0.000101318 -0.000101249 -1.32655e-05
0.000342598 -0.00010283 -0.000102758 -1.32656e-05
0.000204124 -6.13165e-05 -6.12032e-05 -2.21072e-05
0.000270089 -8.10919e-05 -8.09986e-05 -1.82393e-05
0.000340082 -0.000102074 -0.000102003 -1.32655e-05
0.000274114 -8.23017e-05 -8.22051e-05 -1.82393e-05
0.000272101 -8.16968e-05 -8.16019e-05 -1.82393e-05
0.000202615 -6.08625e-05 -6.07511e-05 -2.21072e-05
0.000199597 -5.99545e-05 -5.98469e-05 -2.21071e-05
0.000332533 -9.98067e-05 -9.97398e-05 -1.32654e-05
0.000337565 -0.000101318 -0.000101249 -1.32655e-05
0.000201106 -6.04085e-05 -6.0299e-05 -2.21072e-05
0.000266064 -7.98822e-05 -7.9792e-05 -1.82392e-05
0.000335049 -0.000100562 -0.000100494 -1.32655e-05
0.000270089 -8.10919e-05 -8.09986e-05 -1.82393e-05
0.000268076 -8.0487e-05 -8.03953e-05 -1.82392e-05
0.000199597 -5.99545e-05 -5.98469e-05 -2.21071e-05
0.000196579 -5.90466e-05 -5.89426e-05 -2.2107e-05
0.000327501 -9.82954e-05 -9.82308e-05 -1.32654e-05
0.000332533 -9.98067e-05 -9.97398e-05 -1.32654e-05
0.000198088 -5.95006e-05 -5.93948e-05 -2.21071e-05
0.000262039 -7.86725e-05 -7.85854e-05 -1.82391e-05
0.000330017 -9.9051e-05 -9.89853e-05 -1.32654e-05
0.000266064 -7.98822e-05 -7.9792e-05 -1.82392e-05
0.000264051 -7.92773e-05 -7.91887e-05 -1.82391e-05
0.000196579 -5.90466e-05 -5.89426e-05 -2.2107e-05
0.000193562 -5.81387e-05 -5.80384e-05 -2.2107e-05
0.000322468 -9.6784e-05 -9.67218e-05 -1.32653e-05
0.000327501 -9.82954e-05 -9.82308e-05 -1.32654e-05
0.000195071 -5.85927e-05 -5.84905e-05 -2.2107e-05
0.000258013 -7.74628e-05 -7.73788e-05 -1.8239e-05
0.000324984 -9.75397e-05 -9.74763e-05 -1.32653e-05
0.000262039 -7.86725e-05 -7.85854e-05 -1.82391e-05
0.000260026 -7.80676e-05 -7.79821e-05 -1.82391e-05
0.000193562 -5.81387e-05 -5.80384e-05 -2.2107e-05
0.000190544 -5.72308e-05 -5.71341e-05 -2.21069e-05
0.000317436 -9.52726e-05 -9.52127e-05 -1.32652e-05
0.000322468 -9.6784e-05 -9.67218e-05 -1.32653e-05
0.000192053 -5.76848e-05 -5.75862e-05 -2.21069e-05
0.000253988 -7.62531e-05 -7.61722e-05 -1.82389e-05
0.000319952 -9.60283e-05 -9.59673e-05 -1.32653e-05
0.000258013 -7.74628e-05 -7.73788e-05 -1.8239e-05
0.000256001 -7.6858e-05 -7.67755e-05 -1.8239e-05
0.000190544 -5.72308e-05 -5.71341e-05 -2.21069e-05
0.000187526 -5.6323e-05 -5.62298e-05 -2.21068e-05
0.000312403 -9.37613e-05 -9.37037e-05 -1.32652e-05
0.000317436 -9.52726e-05 -9.52127e-05 -1.32652e-05
0.000189035 -5.67769e-05 -5.66819e-05 -2.21068e-05
0.000249963 -7.50435e-05 -7.49655e-05 -1.82389e-05
0.000314919 -9.45169e-05 -9.44582e-05 -1.32652e-05
0.000253988 -7.62531e-05 -7.61722e-05 -1.82389e-05
0.000251976 -7.56483e-05 -7.55689e-05 -1.82389e-05
0.000187526 -5.6323e-05 -5.62298e-05 -2.21068e-05
0.000184508 -5.54152e-05 -5.53254e-05 -2.21067e-05
0.000307371 -9.22499e-05 -9.21946e-05 -1.32651e-05
0.000312403 -9.37613e-05 -9.37037e-05 -1.32652e-05
0.000186017 -5.58691e-05 -5.57776e-05 -2.21068e-05
0.000245938 -7.38339e-05 -7.37589e-05 -1.82388e-05
0.000309887 -9.30056e-05 -9.29491e-05 -1.32651e-05
0.000249963 -7.50435e-05 -7.49655e-05 -1.82389e-05
0.000247951 -7.44387e-05 -7.43622e-05 -1.82388e-05
0.000184508 -5.54152e-05 -5.53254e-05 -2.21067e-05
0.00018149 -5.45074e-05 -5.4421e-05 -2.21066e-05
0.000302338 -9.07386e-05 -9.06855e-05 -1.3265e-05
0.000307371 -9.22499e-05 -9.21946e-05 -1.32651e-05
0.000182999 -5.49613e-05 -5.48732e-05 -2.21067e-05
0.000241913 -7.26243e-05 -7.25522e-05 -1.82387e-05
0.000304854 -9.14943e-05 -9.144e-05 -1.32651e-05
0.000245938 -7.38339e-05 -7.37589e-05 -1.82388e-05
0.000243925 -7.32291e-05 -7.31555e-05 -1.82387e-05
0.00018149 -5.45074e-05 -5.4421e-05 -2.21066e-05
0.000178472 -5.35996e-05 -5.35166e-05 -2.21066e-05
0.000297306 -8.92273e-05 -8.91764e-05 -1.3265e-05
0.000302338 -9.07386e-05 -9.06855e-05 -1.3265e-05
0.000179981 -5.40535e-05 -5.39688e-05 -2.21066e-05
0.000237887 -7.14147e-05 -7.13454e-05 -1.82386e-05
0.000299822 -8.9983e-05 -8.99309e-05 -1.3265e-05
0.000241913 -7.26243e-05 -7.25522e-05 -1.82387e-05
0.0002399 -7.20195e-05 -7.19488e-05 -1.82387e-05
0.000178472 -5.35996e-05 -5.35166e-05 -2.21066e-05
0.000175454 -5.26919e-05 -5.26122e-05 -2.21065e-05
0.000292273 -8.7716e-05 -8.76672e-05 -1.32649e-05
0.000297306 -8.92273e-05 -8.91764e-05 -1.3265e-05
0.000176963 -5.31457e-05 -5.30644e-05 -2.21065e-05
0.000233862 -7.02051e-05 -7.01387e-05 -1.82386e-05
0.000294789 -8.84717e-05 -8.84218e-05 -1.3265e-05
0.000237887 -7.14147e-05 -7.13454e-05 -1.82386e-05
0.000235875 -7.08099e-05 -7.07421e-05 -1.82386e-05
0.000175454 -5.26919e-05 -5.26122e-05 -2.21065e-05
0.000172436 -5.17842e-05 -5.17077e-05 -2.21064e-05
0.00028724 -8.62047e-05 -8.61581e-05 -1.32649e-05
0.000292273 -8.7716e-05 -8.76672e-05 -1.32649e-05
0.000173945 -5.2238e-05 -5.216e-05 -2.21064e-05
0.000229837 -6.89956e-05 -6.89319e-05 -1.82385e-05
0.000289757 -8.69604e-05 -8.69127e-05 -1.32649e-05
0.000233862 -7.02051e-05 -7.01387e-05 -1.82386e-05
0.000231849 -6.96004e-05 -6.95353e-05 -1.82385e-05
0.000172436 -5.17842e-05 -5.17077e-05 -2.21064e-05
0.000169417 -5.08765e-05 -5.08032e-05 -2.21063e-05
0.000282208 -8.46935e-05 -8.46489e-05 -1.32648e-05
0.00028724 -8.62047e-05 -8.61581e-05 -1.32649e-05
0.000170926 -5.13303e-05 -5.12555e-05 -2.21064e-05
0.000225811 -6.77861e-05 -6.77251e-05 -1.82384e-05
0.000284724 -8.54491e-05 -8.54035e-05 -1.32648e-05
0.000229837 -6.89956e-05 -6.89319e-05 -1.82385e-05
0.000227824 -6.83908e-05 -6.83285e-05 -1.82384e-05
0.000169417 -5.08765e-05 -5.08032e-05 -2.21063e-05
0.000166399 -4.99688e-05 -4.98987e-05 -2.21063e-05
0.000277175 -8.31822e-05 -8.31397e-05 -1.32647e-05
0.000282208 -8.46935e-05 -8.46489e-05 -1.32648e-05
0.000167908 -5.04226e-05 -5.0351e-05 -2.21063e-05
0.000221786 -6.65766e-05 -6.65183e-05 -1.82383e-05
0.000279691 -8.39379e-05 -8.38943e-05 -1.32648e-05
0.000225811 -6.77861e-05 -6.77251e-05 -1.82384e-05
0.000223799 -6.71813e-05 -6.71217e-05 -1.82384e-05
0.000166399 -4.99688e-05 -4.98987e-05 -2.21063e-05
0.000163381 -4.90612e-05 -4.89942e-05 -2.21062e-05
0.000272142 -8.1671e-05 -8.16305e-05 -1.32647e-05
0.000277175 -8.31822e-05 -8.31397e-05 -1.32647e-05
0.00016489 -4.9515e-05 -4.94464e-05 -2.21062e-05
0.00021776 -6.53671e-05 -6.53114e-05 -1.82383e-05
0.000274659 -8.24266e-05 -8.23851e-05 -1.32647e-05
0.000221786 -6.65766e-05 -6.65183e-05 -1.82383e-05
0.000219773 -6.59719e-05 -6.59149e-05 -1.82383e-05
0.000163381 -4.90612e-05 -4.89942e-05 -2.21062e-05
0.000160363 -4.81535e-05 -4.80896e-05 -2.21061e-05
0.000267109 -8.01598e-05 -8.01213e-05 -1.32646e-05
0.000272142 -8.1671e-05 -8.16305e-05 -1.32647e-05
0.000161872 -4.86074e-05 -4.85419e-05 -2.21061e-05
0.000213735 -6.41577e-05 -6.41046e-05 -1.82382e-05
0.000269626 -8.09154e-05 -8.08759e-05 -1.32646e-05
0.00021776 -6.53671e-05 -6.53114e-05 -1.82383e-05
0.000215748 -6.47624e-05 -6.4708e-05 -1.82382e-05
0.000160363 -4.81535e-05 -4.80896e-05 -2.21061e-05
0.000157344 -4.7246e-05 -4.7185e-05 -2.2106e-05
0.000262077 -7.86486e-05 -7.8612e-05 -1.32645e-05
0.000267109 -8.01598e-05 -8.01213e-05 -1.32646e-05
0.000158853 -4.76998e-05 -4.76373e-05 -2.21061e-05
0.000209709 -6.29482e-05 -6.28977e-05 -1.82381e-05
0.000264593 -7.94042e-05 -7.93667e-05 -1.32646e-05
0.000213735 -6.41577e-05 -6.41046e-05 -1.82382e-05
0.000211722 -6.3553e-05 -6.35011e-05 -1.82381e-05
0.000157344 -4.7246e-05 -4.7185e-05 -2.2106e-05
0.000154326 -4.63384e-05 -4.62803e-05 -2.2106e-05
0.000257044 -7.71374e-05 -7.71028e-05 -1.32645e-05
0.000262077 -7.86486e-05 -7.8612e-05 -1.32645e-05
0.000155835 -4.67922e-05 -4.67327e-05 -2.2106e-05
0.000205684 -6.17388e-05 -6.16908e-05 -1.8238e-05
0.00025956 -7.7893e-05 -7.78574e-05 -1.32645e-05
0.000209709 -6.29482e-05 -6.28977e-05 -1.82381e-05
0.000207697 -6.23435e-05 -6.22942e-05 -1.82381e-05
0.000154326 -4.63384e-05 -4.62803e-05 -2.2106e-05
0.000151307 -4.54309e-05 -4.53757e-05 -2.21059e-05
0.000252011 -7.56263e-05 -7.55935e-05 -1.32644e-05
0.000257044 -7.71374e-05 -7.71028e-05 -1.32645e-05
0.000152817 -4.58846e-05 -4.5828e-05 -2.21059e-05
0.000201658 -6.05294e-05 -6.04838e-05 -1.8238e-05
0.000254527 -7.63818e-05 -7.63481e-05 -1.32644e-05
0.000205684 -6.17388e-05 -6.16908e-05 -1.8238e-05
0.000203671 -6.11341e-05 -6.10873e-05 -1.8238e-05
0.000151307 -4.54309e-05 -4.53757e-05 -2.21059e-05
0.000148289 -4.45233e-05 -4.4471e-05 -2.21058e-05
0.000246978 -7.41151e-05 -7.40842e-05 -1.32644e-05
0.000252011 -7.56263e-05 -7.55935e-05 -1.32644e-05
0.000149798 -4.49771e-05 -4.49233e-05 -2.21058e-05
0.000197633 -5.93201e-05 -5.92769e-05 -1.82379e-05
0.000249495 -7.48707e-05 -7.48388e-05 -1.32644e-05
0.000201658 -6.05294e-05 -6.04838e-05 -1.8238e-05
0.000199646 -5.99248e-05 -5.98803e-05 -1.82379e-05
0.000148289 -4.45233e-05 -4.4471e-05 -2.21058e-05
0.00014527 -4.36159e-05 -4.35663e-05 -2.21057e-05
0.000241945 -7.2604e-05 -7.25749e-05 -1.32643e-05
0.000246978 -7.41151e-05 -7.40842e-05 -1.32644e-05
0.00014678 -4.40696e-05 -4.40186e-05 -2.21058e-05
0.000193607 -5.81107e-05 -5.80699e-05 -1.82378e-05
0.000244462 -7.33595e-05 -7.33295e-05 -1.32643e-05
0.000197633 -5.93201e-05 -5.92769e-05 -1.82379e-05
0.00019562 -5.87154e-05 -5.86734e-05 -1.82379e-05
0.00014527 -4.36159e-05 -4.35663e-05 -2.21057e-05
0.000142252 -4.27084e-05 -4.26615e-05 -2.21057e-05
0.000236912 -7.10928e-05 -7.10655e-05 -1.32642e-05
0.000241945 -7.2604e-05 -7.25749e-05 -1.32643e-05
0.000143761 -4.31621e-05 -4.31139e-05 -2.21057e-05
0.000189581 -5.69014e-05 -5.68628e-05 -1.82377e-05
0.000239429 -7.18484e-05 -7.18202e-05 -1.32643e-05
0.000193607 -5.81107e-05 -5.80699e-05 -1.82378e-05
0.000191594 -5.75061e-05 -5.74664e-05 -1.82378e-05
0.000142252 -4.27084e-05 -4.26615e-05 -2.21057e-05
0.000139233 -4.1801e-05 -4.17567e-05 -2.21056e-05
0.00023188 -6.95817e-05 -6.95562e-05 -1.32642e-05
0.000236912 -7.10928e-05 -7.10655e-05 -1.32642e-05
0.000140743 -4.22547e-05 -4.22091e-05 -2.21056e-05
0.000185556 -5.56921e-05 -5.56558e-05 -1.82377e-05
0.000234396 -7.03373e-05 -7.03109e-05 -1.32642e-05
0.000189581 -5.69014e-05 -5.68628e-05 -1.82377e-05
0.000187569 -5.62967e-05 -5.62593e-05 -1.82377e-05
0.000139233 -4.1801e-05 -4.17567e-05 -2.21056e-05
0.000136215 -4.08935e-05 -4.08519e-05 -2.21055e-05
0.000226847 -6.80706e-05 -6.80468e-05 -1.32641e-05
0.00023188 -6.95817e-05 -6.95562e-05 -1.32642e-05
0.000137724 -4.13473e-05 -4.13043e-05 -2.21056e-05
0.00018153 -5.44828e-05 -5.44487e-05 -1.82376e-05
0.000229363 -6.88262e-05 -6.88015e-05 -1.32641e-05
0.000185556 -5.56921e-05 -5.56558e-05 -1.82377e-05
0.000183543 -5.50875e-05 -5.50523e-05 -1.82376e-05
0.000136215 -4.08935e-05 -4.08519e-05 -2.21055e-05
0.000133196 -3.99862e-05 -3.99471e-05 -2.21055e-05
0.000221814 -6.65596e-05 -6.65374e-05 -1.32641e-05
0.000226847 -6.80706e-05 -6.80468e-05 -1.32641e-05
0.000134705 -4.04399e-05 -4.03995e-05 -2.21055e-05
0.000177504 -5.32735e-05 -5.32417e-05 -1.82375e-05
0.00022433 -6.73151e-05 -6.72921e-05 -1.32641e-05
0.00018153 -5.44828e-05 -5.44487e-05 -1.82376e-05
0.000179517 -5.38782e-05 -5.38452e-05 -1.82376e-05
0.000133196 -3.99862e-05 -3.99471e-05 -2.21055e-05
0.000130177 -3.90788e-05 -3.90422e-05 -2.21054e-05
0.000216781 -6.50485e-05 -6.5028e-05 -1.3264e-05
0.000221814 -6.65596e-05 -6.65374e-05 -1.32641e-05
0.000131687 -3.95325e-05 -3.94946e-05 -2.21054e-05
0.000173478 -5.20643e-05 -5.20345e-05 -1.82375e-05
0.000219297 -6.5804e-05 -6.57827e-05 -1.3264e-05
0.000177504 -5.32735e-05 -5.32417e-05 -1.82375e-05
0.000175491 -5.26689e-05 -5.26381e-05 -1.82375e-05
0.000130177 -3.90788e-05 -3.90422e-05 -2.21054e-05
0.000127159 -3.81715e-05 -3.81373e-05 -2.21053e-05
0.000211747 -6.35374e-05 -6.35186e-05 -1.32639e-05
0.000216781 -6.50485e-05 -6.5028e-05 -1.3264e-05
0.000128668 -3.86251e-05 -3.85898e-05 -2.21053e-05
0.000169452 -5.08551e-05 -5.08274e-05 -1.82374e-05
0.000214264 -6.4293e-05 -6.42733e-05 -1.3264e-05
0.000173478 -5.20643e-05 -5.20345e-05 -1.82375e-05
0.000171465 -5.14597e-05 -5.1431e-05 -1.82374e-05
0.000127159 -3.81715e-05 -3.81373e-05 -2.21053e-05
0.00012414 -3.72642e-05 -3.72324e-05 -2.21052e-05
0.000206714 -6.20264e-05 -6.20091e-05 -1.32639e-05
0.000211747 -6.35374e-05 -6.35186e-05 -1.32639e-05
0.000125649 -3.77178e-05 -3.76849e-05 -2.21053e-05
0.000165426 -4.96459e-05 -4.96202e-05 -1.82373e-05
0.000209231 -6.27819e-05 -6.27639e-05 -1.32639e-05
0.000169452 -5.08551e-05 -5.08274e-05 -1.82374e-05
0.000167439 -5.02505e-05 -5.02238e-05 -1.82374e-05
0.00012414 -3.72642e-05 -3.72324e-05 -2.21052e-05
0.000121121 -3.63569e-05 -3.63274e-05 -2.21052e-05
0.000201681 -6.05154e-05 -6.04997e-05 -1.32638e-05
0.000206714 -6.20264e-05 -6.20091e-05 -1.32639e-05
0.00012263 -3.68105e-05 -3.67799e-05 -2.21052e-05
0.0001614 -4.84367e-05 -4.84131e-05 -1.82373e-05
0.000204198 -6.12709e-05 -6.12544e-05 -1.32638e-05
0.000165426 -4.96459e-05 -4.96202e-05 -1.82373e-05
0.000163413 -4.90413e-05 -4.90167e-05 -1.82373e-05
0.000121121 -3.63569e-05 -3.63274e-05 -2.21052e-05
0.000118102 -3.54496e-05 -3.54224e-05 -2.21051e-05
0.000196648 -5.90044e-05 -5.89902e-05 -1.32638e-05
0.000201681 -6.05154e-05 -6.04997e-05 -1.32638e-05
0.000119611 -3.59032e-05 -3.58749e-05 -2.21051e-05
0.000157375 -4.72275e-05 -4.72058e-05 -1.82372e-05
0.000199165 -5.97599e-05 -5.97449e-05 -1.32638e-05
0.0001614 -4.84367e-05 -4.84131e-05 -1.82373e-05
0.000159388 -4.78321e-05 -4.78095e-05 -1.82372e-05
0.000118102 -3.54496e-05 -3.54224e-05 -2.21051e-05
0.000115083 -3.45424e-05 -3.45174e-05 -2.2105e-05
0.000191615 -5.74934e-05 -5.74807e-05 -1.32637e-05
0.000196648 -5.90044e-05 -5.89902e-05 -1.32638e-05
0.000116593 -3.4996e-05 -3.49699e-05 -2.21051e-05
0.000153348 -4.60184e-05 -4.59986e-05 -1.82371e-05
0.000194132 -5.82489e-05 -5.82354e-05 -1.32637e-05
0.000157375 -4.72275e-05 -4.72058e-05 -1.82372e-05
0.000155362 -4.6623e-05 -4.66022e-05 -1.82372e-05
0.000115083 -3.45424e-05 -3.45174e-05 -2.2105e-05
0.000112064 -3.36352e-05 -3.36124e-05 -2.2105e-05
0.000186582 -5.59824e-05 -5.59712e-05 -1.32636e-05
0.000191615 -5.74934e-05 -5.74807e-05 -1.32637e-05
0.000113574 -3.40888e-05 -3.40649e-05 -2.2105e-05
0.000149322 -4.48093e-05 -4.47914e-05 -1.82371e-05
0.000189098 -5.67379e-05 -5.67259e-05 -1.32637e-05
0.000153348 -4.60184e-05 -4.59986e-05 -1.82371e-05
0.000151335 -4.54138e-05 -4.5395e-05 -1.82371e-05
0.000112064 -3.36352e-05 -3.36124e-05 -2.2105e-05
0.000109045 -3.2728e-05 -3.27073e-05 -2.21049e-05
0.000181549 -5.44715e-05 -5.44616e-05 -1.32636e-05
0.000186582 -5.59824e-05 -5.59712e-05 -1.32636e-05
0.000110555 -3.31816e-05 -3.31599e-05 -2.21049e-05
0.000145296 -4.36002e-05 -4.35841e-05 -1.8237e-05
0.000184065 -5.52269e-05 -5.52164e-05 -1.32636e-05
0.000149322 -4.48093e-05 -4.47914e-05 -1.82371e-05
0.000147309 -4.42047e-05 -4.41877e-05 -1.8237e-05
0.000109045 -3.2728e-05 -3.27073e-05 -2.21049e-05
0.000106026 -3.18208e-05 -3.18022e-05 -2.21048e-05
0.000176515 -5.29605e-05 -5.29521e-05 -1.32635e-05
0.000181549 -5.44715e-05 -5.44616e-05 -1.32636e-05
0.000107536 -3.22744e-05 -3.22548e-05 -2.21049e-05
0.00014127 -4.23911e-05 -4.23768e-05 -1.82369e-05
0.000179032 -5.3716e-05 -5.37068e-05 -1.32636e-05
0.000145296 -4.36002e-05 -4.35841e-05 -1.8237e-05
0.000143283 -4.29956e-05 -4.29804e-05 -1.8237e-05
0.000106026 -3.18208e-05 -3.18022e-05 -2.21048e-05
0.000103007 -3.09137e-05 -3.08971e-05 -2.21048e-05
0.000171482 -5.14496e-05 -5.14425e-05 -1.32635e-05
0.000176515 -5.29605e-05 -5.29521e-05 -1.32635e-05
0.000104516 -3.13673e-05 -3.13497e-05 -2.21048e-05
0.000137244 -4.1182e-05 -4.11694e-05 -1.82369e-05
0.000173999 -5.2205e-05 -5.21973e-05 -1.32635e-05
0.00014127 -4.23911e-05 -4.23768e-05 -1.82369e-05
0.000139257 -4.17866e-05 -4.17731e-05 -1.82369e-05
0.000103007 -3.09137e-05 -3.08971e-05 -2.21048e-05
9.99878e-05 -3.00066e-05 -2.99919e-05 -2.21047e-05
0.000166449 -4.99387e-05 -4.99329e-05 -1.32634e-05
0.000171482 -5.14496e-05 -5.14425e-05 -1.32635e-05
0.000101497 -3.04601e-05 -3.04445e-05 -2.21047e-05
0.000133218 -3.9973e-05 -3.99621e-05 -1.82368e-05
0.000168965 -5.06941e-05 -5.06877e-05 -1.32634e-05
0.000137244 -4.1182e-05 -4.11694e-05 -1.82369e-05
0.000135231 -4.05775e-05 -4.05657e-05 -1.82368e-05
9.99878e-05 -3.00066e-05 -2.99919e-05 -2.21047e-05
9.69686e-05 -2.90995e-05 -2.90867e-05 -2.21046e-05
0.000161415 -4.84278e-05 -4.84233e-05 -1.32634e-05
0.000166449 -4.99387e-05 -4.99329e-05 -1.32634e-05
9.84782e-05 -2.95531e-05 -2.95393e-05 -2.21047e-05
0.000129192 -3.8764e-05 -3.87547e-05 -1.82367e-05
0.000163932 -4.91832e-05 -4.91781e-05 -1.32634e-05
0.000133218 -3.9973e-05 -3.99621e-05 -1.82368e-05
0.000131205 -3.93685e-05 -3.93584e-05 -1.82368e-05
9.69686e-05 -2.90995e-05 -2.90867e-05 -2.21046e-05
9.39493e-05 -2.81925e-05 -2.81815e-05 -2.21046e-05
0.000156382 -4.69169e-05 -4.69136e-05 -1.32633e-05
0.000161415 -4.84278e-05 -4.84233e-05 -1.32634e-05
9.5459e-05 -2.8646e-05 -2.86341e-05 -2.21046e-05
0.000125165 -3.7555e-05 -3.75473e-05 -1.82367e-05
0.000158899 -4.76723e-05 -4.76684e-05 -1.32633e-05
0.000129192 -3.8764e-05 -3.87547e-05 -1.82367e-05
0.000127178 -3.81595e-05 -3.8151e-05 -1.82367e-05
9.39493e-05 -2.81925e-05 -2.81815e-05 -2.21046e-05
9.09301e-05 -2.72854e-05 -2.72763e-05 -2.21045e-05
0.000151349 -4.5406e-05 -4.5404e-05 -1.32632e-05
0.000156382 -4.69169e-05 -4.69136e-05 -1.32633e-05
9.24397e-05 -2.77389e-05 -2.77289e-05 -2.21046e-05
0.000121139 -3.6346e-05 -3.63398e-05 -1.82366e-05
0.000153865 -4.61614e-05 -4.61588e-05 -1.32633e-05
0.000125165 -3.7555e-05 -3.75473e-05 -1.82367e-05
0.000123152 -3.69505e-05 -3.69436e-05 -1.82366e-05
9.09301e-05 -2.72854e-05 -2.72763e-05 -2.21045e-05
8.79108e-05 -2.63784e-05 -2.6371e-05 -2.21045e-05
0.000146315 -4.38951e-05 -4.38943e-05 -1.32632e-05
0.000151349 -4.5406e-05 -4.5404e-05 -1.32632e-05
8.94204e-05 -2.68319e-05 -2.68236e-05 -2.21045e-05
0.000117113 -3.51371e-05 -3.51324e-05 -1.82365e-05
0.000148832 -4.46506e-05 -4.46491e-05 -1.32632e-05
0.000121139 -3.6346e-05 -3.63398e-05 -1.82366e-05
0.000119126 -3.57415e-05 -3.57361e-05 -1.82366e-05
8.79108e-05 -2.63784e-05 -2.6371e-05 -2.21045e-05
8.48914e-05 -2.54714e-05 -2.54657e-05 -2.21044e-05
0.000141282 -4.23843e-05 -4.23846e-05 -1.32631e-05
0.000146315 -4.38951e-05 -4.38943e-05 -1.32632e-05
8.64011e-05 -2.59249e-05 -2.59183e-05 -2.21044e-05
0.000113086 -3.39281e-05 -3.39249e-05 -1.82365e-05
0.000143798 -4.31397e-05 -4.31394e-05 -1.32632e-05
0.000117113 -3.51371e-05 -3.51324e-05 -1.82365e-05
0.000115099 -3.45326e-05 -3.45286e-05 -1.82365e-05
8.48914e-05 -2.54714e-05 -2.54657e-05 -2.21044e-05
8.1872e-05 -2.45645e-05 -2.45604e-05 -2.21044e-05
0.000136248 -4.08734e-05 -4.08749e-05 -1.32631e-05
0.000141282 -4.23843e-05 -4.23846e-05 -1.32631e-05
8.33817e-05 -2.5018e-05 -2.5013e-05 -2.21044e-05
0.00010906 -3.27192e-05 -3.27174e-05 -1.82364e-05
0.000138765 -4.16289e-05 -4.16297e-05 -1.32631e-05
0.000113086 -3.39281e-05 -3.39249e-05 -1.82365e-05
0.000111073 -3.33237e-05 -3.33211e-05 -1.82365e-05
8.1872e-05 -2.45645e-05 -2.45604e-05 -2.21044e-05
7.88526e-05 -2.36576e-05 -2.3655e-05 -2.21043e-05
0.000131215 -3.93626e-05 -3.93651e-05 -1.32631e-05
0.000136248 -4.08734e-05 -4.08749e-05 -1.32631e-05
8.03623e-05 -2.4111e-05 -2.41077e-05 -2.21043e-05
0.000105033 -3.15103e-05 -3.15099e-05 -1.82364e-05
0.000133731 -4.0118e-05 -4.012e-05 -1.32631e-05
0.00010906 -3.27192e-05 -3.27174e-05 -1.82364e-05
0.000107047 -3.21148e-05 -3.21136e-05 -1.82364e-05
7.88526e-05 -2.36576e-05 -2.3655e-05 -2.21043e-05
7.58331e-05 -2.27507e-05 -2.27496e-05 -2.21043e-05
0.000126181 -3.78518e-05 -3.78554e-05 -1.3263e-05
0.000131215 -3.93626e-05 -3.93651e-05 -1.32631e-05
7.73428e-05 -2.32041e-05 -2.32023e-05 -2.21043e-05
0.000101007 -3.03015e-05 -3.03023e-05 -1.82363e-05
0.000128698 -3.86072e-05 -3.86103e-05 -1.3263e-05
0.000105033 -3.15103e-05 -3.15099e-05 -1.82364e-05
0.00010302 -3.09059e-05 -3.09061e-05 -1.82364e-05
7.58331e-05 -2.27507e-05 -2.27496e-05 -2.21043e-05
7.28136e-05 -2.18438e-05 -2.18442e-05 -2.21042e-05
0.000121147 -3.6341e-05 -3.63456e-05 -1.3263e-05
0.000126181 -3.78518e-05 -3.78554e-05 -1.3263e-05
7.43233e-05 -2.22973e-05 -2.22969e-05 -2.21043e-05
9.69803e-05 -2.90926e-05 -2.90947e-05 -1.82363e-05
0.000123664 -3.70964e-05 -3.71005e-05 -1.3263e-05
0.000101007 -3.03015e-05 -3.03023e-05 -1.82363e-05
9.89936e-05 -2.96971e-05 -2.96985e-05 -1.82363e-05
7.28136e-05 -2.18438e-05 -2.18442e-05 -2.21042e-05
6.9794e-05 -2.0937e-05 -2.09387e-05 -2.21042e-05
0.000116114 -3.48303e-05 -3.48358e-05 -1.3263e-05
0.000121147 -3.6341e-05 -3.63456e-05 -1.3263e-05
7.13038e-05 -2.13904e-05 -2.13914e-05 -2.21042e-05
9.29537e-05 -2.78838e-05 -2.78871e-05 -1.82363e-05
0.000118631 -3.55856e-05 -3.55907e-05 -1.3263e-05
9.69803e-05 -2.90926e-05 -2.90947e-05 -1.82363e-05
9.4967e-05 -2.84882e-05 -2.84909e-05 -1.82363e-05
6.9794e-05 -2.0937e-05 -2.09387e-05 -2.21042e-05
6.67744e-05 -2.00302e-05 -2.00332e-05 -2.21042e-05
0.00011108 -3.33195e-05 -3.3326e-05 -1.3263e-05
0.000116114 -3.48303e-05 -3.48358e-05 -1.3263e-05
6.82842e-05 -2.04836e-05 -2.0486e-05 -2.21042e-05
8.89271e-05 -2.6675e-05 -2.66795e-05 -1.82363e-05
0.000113597 -3.40749e-05 -3.40809e-05 -1.3263e-05
9.29537e-05 -2.78838e-05 -2.78871e-05 -1.82363e-05
9.09404e-05 -2.72794e-05 -2.72833e-05 -1.82363e-05
6.67744e-05 -2.00302e-05 -2.00332e-05 -2.21042e-05
6.37548e-05 -1.91235e-05 -1.91277e-05 -2.21042e-05
0.000106046 -3.18088e-05 -3.18161e-05 -1.3263e-05
0.00011108 -3.33195e-05 -3.3326e-05 -1.3263e-05
6.52646e-05 -1.95768e-05 -1.95805e-05 -2.21042e-05
8.49005e-05 -2.54663e-05 -2.54718e-05 -1.82363e-05
0.000108563 -3.25641e-05 -3.25711e-05 -1.3263e-05
8.89271e-05 -2.6675e-05 -2.66795e-05 -1.82363e-05
8.69138e-05 -2.60707e-05 -2.60756e-05 -1.82363e-05
6.37548e-05 -1.91235e-05 -1.91277e-05 -2.21042e-05
6.07353e-05 -1.82168e-05 -1.82222e-05 -2.21041e-05
0.000101013 -3.02981e-05 -3.03063e-05 -1.32631e-05
0.000106046 -3.18088e-05 -3.18161e-05 -1.3263e-05
6.2245e-05 -1.86701e-05 -1.8675e-05 -2.21042e-05
8.08738e-05 -2.42576e-05 -2.42641e-05 -1.82363e-05
0.00010353 -3.10534e-05 -3.10612e-05 -1.3263e-05
8.49005e-05 -2.54663e-05 -2.54718e-05 -1.82363e-05
8.28872e-05 -2.48619e-05 -2.4868e-05 -1.82363e-05
6.07353e-05 -1.82168e-05 -1.82222e-05 -2.21041e-05
5.77157e-05 -1.73101e-05 -1.73167e-05 -2.21041e-05
9.59789e-05 -2.87874e-05 -2.87964e-05 -1.32631e-05
0.000101013 -3.02981e-05 -3.03063e-05 -1.32631e-05
5.92255e-05 -1.77634e-05 -1.77694e-05 -2.21041e-05
7.68472e-05 -2.30489e-05 -2.30564e-05 -1.82363e-05
9.84958e-05 -2.95427e-05 -2.95513e-05 -1.32631e-05
8.08738e-05 -2.42576e-05 -2.42641e-05 -1.82363e-05
7.88605e-05 -2.36532e-05 -2.36603e-05 -1.82363e-05
5.77157e-05 -1.73101e-05 -1.73167e-05 -2.21041e-05
5.46961e-05 -1.64034e-05 -1.64112e-05 -2.2104e-05
9.09452e-05 -2.72767e-05 -2.72865e-05 -1.32632e-05
9.59789e-05 -2.87874e-05 -2.87964e-05 -1.32631e-05
5.62059e-05 -1.68567e-05 -1.68639e-05 -2.2104e-05
7.28206e-05 -2.18402e-05 -2.18487e-05 -1.82363e-05
9.3462e-05 -2.8032e-05 -2.80414e-05 -1.32632e-05
7.68472e-05 -2.30489e-05 -2.30564e-05 -1.82363e-05
7.48339e-05 -2.24446e-05 -2.24526e-05 -1.82363e-05
5.46961e-05 -1.64034e-05 -1.64112e-05 -2.2104e-05
5.16765e-05 -1.54965e-05 -1.55057e-05 -2.21037e-05
8.59114e-05 -2.5766e-05 -2.57766e-05 -1.32633e-05
9.09452e-05 -2.72767e-05 -2.72865e-05 -1.32632e-05
5.31863e-05 -1.595e-05 -1.59584e-05 -2.21039e-05
6.87941e-05 -2.06315e-05 -2.06411e-05 -1.82362e-05
8.84283e-05 -2.65213e-05 -2.65316e-05 -1.32633e-05
7.28206e-05 -2.18402e-05 -2.18487e-05 -1.82363e-05
7.08073e-05 -2.12359e-05 -2.12449e-05 -1.82363e-05
5.16765e-05 -1.54965e-05 -1.55057e-05 -2.21037e-05
4.86568e-05 -1.45893e-05 -1.46004e-05 -2.21033e-05
8.08778e-05 -2.42552e-05 -2.42668e-05 -1.32631e-05
8.59114e-05 -2.5766e-05 -2.57766e-05 -1.32633e-05
5.01667e-05 -1.5043e-05 -1.5053e-05 -2.21035e-05
6.47675e-05 -1.94225e-05 -1.94336e-05 -1.82358e-05
8.33946e-05 -2.50106e-05 -2.50217e-05 -1.32632e-05
6.87941e-05 -2.06315e-05 -2.06411e-05 -1.82362e-05
6.67808e-05 -2.0027e-05 -2.00373e-05 -1.8236e-05
4.86568e-05 -1.45893e-05 -1.46004e-05 -2.21033e-05
4.56365e-05 -1.36811e-05 -1.36952e-05 -2.21024e-05
7.58444e-05 -2.27441e-05 -2.27573e-05 -1.32624e-05
8.08778e-05 -2.42552e-05 -2.42668e-05 -1.32631e-05
4.71468e-05 -1.41354e-05 -1.41478e-05 -2.21029e-05
6.07409e-05 -1.82129e-05 -1.82263e-05 -1.82348e-05
7.83611e-05 -2.34997e-05 -2.3512e-05 -1.32629e-05
6.47675e-05 -1.94225e-05 -1.94336e-05 -1.82358e-05
6.27542e-05 -1.88178e-05 -1.88299e-05 -1.82354e-05
4.56365e-05 -1.36811e-05 -1.36952e-05 -2.21024e-05
4.2615e-05 -1.27707e-05 -1.27904e-05 -2.21009e-05
7.08113e-05 -2.12324e-05 -2.12481e-05 -1.32604e-05
7.58444e-05 -2.27441e-05 -2.27573e-05 -1.32624e-05
4.4126e-05 -1.32263e-05 -1.32427e-05 -2.21018e-05
5.67137e-05 -1.70016e-05 -1.70194e-05 -1.82323e-05
7.33278e-05 -2.19884e-05 -2.20026e-05 -1.32616e-05
6.07409e-05 -1.82129e-05 -1.82263e-05 -1.82348e-05
5.87274e-05 -1.76075e-05 -1.76228e-05 -1.82338e-05
4.2615e-05 -1.27707e-05 -1.27904e-05 -2.21009e-05
3.95898e-05 -1.18557e-05 -1.1886e-05 -2.20983e-05
6.57788e-05 -1.97192e-05 -1.97398e-05 -1.32553e-05
7.08113e-05 -2.12324e-05 -2.12481e-05 -1.32604e-05
4.11031e-05 -1.2314e-05 -1.23382e-05 -2.20997e-05
5.26848e-05 -1.5787e-05 -1.58133e-05 -1.82271e-05
6.82949e-05 -2.04761e-05 -2.04938e-05 -1.32584e-05
5.67137e-05 -1.70016e-05 -1.70194e-05 -1.82323e-05
5.46995e-05 -1.6395e-05 -1.64163e-05 -1.82302e-05
3.95898e-05 -1.18557e-05 -1.1886e-05 -2.20983e-05
3.65577e-05 -1.09315e-05 -1.09826e-05 -2.20937e-05
6.07464e-05 -1.82028e-05 -1.8233e-05 -1.32443e-05
6.57788e-05 -1.97192e-05 -1.97398e-05 -1.32553e-05
3.80748e-05 -1.13951e-05 -1.14341e-05 -2.20963e-05
4.8652e-05 -1.45654e-05 -1.46085e-05 -1.82164e-05
6.32627e-05 -1.89616e-05 -1.89862e-05 -1.32508e-05
5.26848e-05 -1.5787e-05 -1.58133e-05 -1.82271e-05
5.06691e-05 -1.51774e-05 -1.52108e-05 -1.82226e-05
3.65577e-05 -1.09315e-05 -1.09826e-05 -2.20937e-05
3.35092e-05 -9.99034e-06 -1.00795e-05 -2.20869e-05
5.57153e-05 -1.66802e-05 -1.67293e-05 -1.32204e-05
6.07464e-05 -1.82028e-05 -1.8233e-05 -1.32443e-05
3.50365e-05 -1.04639e-05 -1.05311e-05 -2.20906e-05
4.46103e-05 -1.33307e-05 -1.34056e-05 -1.81956e-05
5.82304e-05 -1.74425e-05 -1.74805e-05 -1.32346e-05
4.8652e-05 -1.45654e-05 -1.46085e-05 -1.82164e-05
4.66326e-05 -1.39504e-05 -1.40067e-05 -1.82079e-05
3.35092e-05 -9.99034e-06 -1.00795e-05 -2.20869e-05
3.04326e-05 -9.01803e-06 -9.17767e-06 -2.20758e-05
5.06815e-05 -1.51461e-05 -1.52294e-05 -1.31746e-05
5.57153e-05 -1.66802e-05 -1.67293e-05 -1.32204e-05
3.19748e-05 -9.50906e-06 -9.62819e-06 -2.20821e-05
4.05497e-05 -1.20705e-05 -1.22054e-05 -1.81566e-05
5.31995e-05 -1.59153e-05 -1.59789e-05 -1.3201e-05
4.46103e-05 -1.33307e-05 -1.34056e-05 -1.81956e-05
4.25832e-05 -1.27044e-05 -1.28052e-05 -1.81787e-05
3.04326e-05 -9.01803e-06 -9.17767e-06 -2.20758e-05
2.72964e-05 -7.99442e-06 -8.27229e-06 -2.20622e-05
4.56481e-05 -1.35904e-05 -1.3739e-05 -1.30847e-05
5.06815e-05 -1.51461e-05 -1.52294e-05 -1.31746e-05
2.88754e-05 -8.51473e-06 -8.72602e-06 -2.20689e-05
3.64532e-05 -1.07689e-05 -1.10076e-05 -1.80871e-05
4.81636e-05 -1.43713e-05 -1.44824e-05 -1.31373e-05
4.05497e-05 -1.20705e-05 -1.22054e-05 -1.81566e-05
3.85071e-05 -1.14271e-05 -1.16057e-05 -1.81275e-05
2.72964e-05 -7.99442e-06 -8.27229e-06 -2.20622e-05
2.40703e-05 -6.88705e-06 -7.36427e-06 -2.20444e-05
4.05944e-05 -1.20012e-05 -1.22542e-05 -1.29285e-05
4.56481e-05 -1.35904e-05 -1.3739e-05 -1.30847e-05
2.56949e-05 -7.45247e-06 -7.81819e-06 -2.20544e-05
3.22855e-05 -9.3925e-06 -9.81127e-06 -1.79704e-05
4.31276e-05 -1.28026e-05 -1.29964e-05 -1.30163e-05
3.64532e-05 -1.07689e-05 -1.10076e-05 -1.80871e-05
3.43815e-05 -1.00906e-05 -1.04104e-05 -1.80342e-05
2.40703e-05 -6.88705e-06 -7.36427e-06 -2.20444e-05
2.06705e-05 -5.66884e-06 -6.42931e-06 -2.20415e-05
3.55275e-05 -1.0349e-05 -1.07908e-05 -1.26495e-05
4.05944e-05 -1.20012e-05 -1.22542e-05 -1.29285e-05
2.24023e-05 -6.29545e-06 -6.90295e-06 -2.20384e-05
2.80009e-05 -7.91674e-06 -8.60751e-06 -1.77875e-05
3.80579e-05 -1.11814e-05 -1.15185e-05 -1.28098e-05
3.22855e-05 -9.3925e-06 -9.81127e-06 -1.79704e-05
3.01602e-05 -8.67277e-06 -9.20891e-06 -1.78922e-05
2.06705e-05 -5.66884e-06 -6.42931e-06 -2.20415e-05
1.70606e-05 -4.3108e-06 -5.4642e-06 -2.20659e-05
3.0352e-05 -8.6264e-06 -9.31099e-06 -1.22262e-05
3.55275e-05 -1.0349e-05 -1.07908e-05 -1.26495e-05
1.88862e-05 -5.00203e-06 -5.95037e-06 -2.20503e-05
2.34942e-05 -6.28074e-06 -7.37718e-06 -1.75381e-05
3.29699e-05 -9.50594e-06 -1.0056e-05 -1.24561e-05
2.80009e-05 -7.91674e-06 -8.60751e-06 -1.77875e-05
2.57861e-05 -7.11357e-06 -8.00251e-06 -1.76624e-05
1.70606e-05 -4.3108e-06 -5.4642e-06 -2.20659e-05
1.31082e-05 -2.90819e-06 -4.37141e-06 -2.2223e-05
2.50743e-05 -6.76123e-06 -7.84845e-06 -1.15739e-05
3.0352e-05 -8.6264e-06 -9.31099e-06 -1.22262e-05
1.51493e-05 -3.61229e-06 -4.94445e-06 -2.21152e-05
1.86952e-05 -4.54381e-06 -6.0649e-06 -1.72667e-05
2.77086e-05 -7.69441e-06 -8.5775e-06 -1.19361e-05
2.34942e-05 -6.28074e-06 -7.37718e-06 -1.75381e-05
2.11292e-05 -5.43273e-06 -6.72706e-06 -1.74148e-05
1.31082e-05 -2.90819e-06 -4.37141e-06 -2.2223e-05
9.00735e-06 -1.69256e-06 -3.13491e-06 -2.25874e-05
1.93176e-05 -4.90407e-06 -6.17722e-06 -1.08707e-05
2.50743e-05 -6.76123e-06 -7.84845e-06 -1.15739e-05
1.10299e-05 -2.22358e-06 -3.77413e-06 -2.2376e-05
1.33769e-05 -2.77106e-06 -4.54535e-06 -1.71994e-05
2.23202e-05 -5.86246e-06 -7.05333e-06 -1.12093e-05
1.86952e-05 -4.54381e-06 -6.0649e-06 -1.72667e-05
1.61314e-05 -3.61204e-06 -5.36545e-06 -1.71523e-05
9.00735e-06 -1.69256e-06 -3.13491e-06 -2.25874e-05
5.02314e-06 -1.66771e-06 -1.43804e-06 -2.34093e-05
1.31151e-05 -3.06035e-06 -4.30918e-06 -1.04104e-05
1.93176e-05 -4.90407e-06 -6.17722e-06 -1.08707e-05
7.01397e-06 -1.46784e-06 -2.37691e-06 -2.29187e-05
7.84665e-06 -1.91925e-06 -2.54031e-06 -1.78248e-05
1.62035e-05 -3.85433e-06 -5.29251e-06 -1.05659e-05
1.33769e-05 -2.77106e-06 -4.54535e-06 -1.71994e-05
1.05694e-05 -2.17436e-06 -3.59786e-06 -1.74371e-05
5.02314e-06 -1.66771e-06 -1.43804e-06 -2.34093e-05
2.9087e-06 -4.61976e-06 7.33309e-07 -2.40512e-05
5.89232e-06 -3.22153e-06 -1.14463e-06 -1.21761e-05
1.31151e-05 -3.06035e-06 -4.30918e-06 -1.04104e-05
3.49975e-06 -2.50682e-06 -4.25545e-07 -2.38436e-05
2.78771e-06 -4.11339e-06 5.68147e-07 -2.00942e-05
9.77162e-06 -2.86581e-06 -2.95963e-06 -1.08237e-05
7.84665e-06 -1.91925e-06 -2.54031e-06 -1.78248e-05
5.24176e-06 -2.25733e-06 -1.27904e-06 -1.8568e-05
2.9087e-06 -4.61976e-06 7.33309e-07 -2.40512e-05
3.95555e-06 -1.38859e-05 4.25585e-06 -2.21193e-05
2.49366e-06 -1.15607e-05 3.88589e-06 -1.87343e-05
5.89232e-06 -3.22153e-06 -1.14463e-06 -1.21761e-05
3.10796e-06 -8.52865e-06 2.32315e-06 -2.37185e-05
4.26209e-06 -1.5768e-05 4.93112e-06 -2.19266e-05
2.96906e-06 -4.80096e-06 7.85101e-07 -1.45111e-05
2.78771e-06 -4.11339e-06 5.68147e-07 -2.00942e-05
1.967e-06 -8.45757e-06 2.78167e-06 -2.16601e-05
3.95555e-06 -1.38859e-05 4.25585e-06 -2.21193e-05
7.09386e-06 -2.51702e-05 7.74702e-06 -1.17085e-05
1.61306e-05 -5.08608e-05 1.48844e-05 -1.9053e-05
2.49366e-06 -1.15607e-05 3.88589e-06 -1.87343e-05
5.32599e-06 -1.9937e-05 6.26187e-06 -1.82901e-05
1.28893e-05 -3.68183e-05 1.02553e-05 -1.10521e-05
6.27714e-06 -2.71694e-05 8.95384e-06 -2.21443e-05
4.26209e-06 -1.5768e-05 4.93112e-06 -2.19266e-05
8.34536e-06 -2.59137e-05 7.52927e-06 -1.90006e-05
0.000844983 2.22045e-16 -0.000362136 -4.88949e-05
0.000951142 -0.00018866 -0.000326778 -7.11199e-05
0.00132672 -0.000420463 -0.000388397 2.40843e-05
0.00186033 -1.11022e-16 -0.000797284 -0.000632138
0.000904488 -8.90261e-05 -0.000349484 -8.24832e-05
0.00120373 -0.000292401 -0.000390571 -9.20832e-05
0.00147584 -0.000468406 -0.000431756 -8.92772e-05
0.000993653 0 -0.000425851 -0.000153593
0.00116124 -0.000197732 -0.000412931 -0.000144166
0.000951142 -0.00018866 -0.000326778 -7.11199e-05
0.000988374 -0.000267892 -0.000308778 -3.39989e-05
0.00131058 -0.000406067 -0.000387648 7.555e-06
0.00132672 -0.000420463 -0.000388397 2.40843e-05
0.000980562 -0.000244516 -0.000315448 -5.13814e-05
0.00117699 -0.000343168 -0.000357351 -1.56459e-05
0.00130689 -0.00038801 -0.000393807 1.06324e-05
0.00120373 -0.000292401 -0.000390571 -9.20832e-05
0.00118701 -0.000331405 -0.000366688 -3.74836e-05
0.000988374 -0.000267892 -0.000308778 -3.39989e-05
0.000983676 -0.0002902 -0.000297204 -1.27376e-05
0.00132892 -0.000394526 -0.000400457 3.51027e-06
0.00131058 -0.000406067 -0.000387648 7.555e-06
0.000985703 -0.000281764 -0.000301688 -2.00586e-05
0.0011646 -0.000349302 -0.000349415 -1.7134e-06
0.00132289 -0.00040517 -0.000393307 7.63772e-06
0.00117699 -0.000343168 -0.000357351 -1.56459e-05
0.00117056 -0.000347566 -0.00035271 -7.64852e-06
0.000983676 -0.0002902 -0.000297204 -1.27376e-05
0.000976764 -0.000293322 -0.000292904 -7.94138e-06
0.00133646 -0.000402159 -0.000400413 -3.93355e-07
0.00132892 -0.000394526 -0.000400457 3.51027e-06
0.000981097 -0.000293191 -0.000294817 -9.52229e-06
0.00115778 -0.000348612 -0.000346787 3.54647e-07
0.00133226 -0.000395843 -0.000401322 -6.7953e-07
0.0011646 -0.000349302 -0.000349415 -1.7134e-06
0.00116004 -0.00034931 -0.000347458 9.24693e-07
0.000976764 -0.000293322 -0.000292904 -7.94138e-06
0.000968766 -0.000292864 -0.000289672 -7.68516e-06
0.00134033 -0.000400716 -0.000402692 2.71217e-07
0.00133646 -0.000402159 -0.000400413 -3.93355e-07
0.000972159 -0.000293193 -0.000290985 -7.34206e-06
0.00115438 -0.000347508 -0.000345801 -1.65458e-06
0.00133974 -0.000402775 -0.000401555 6.75426e-07
0.00115778 -0.000348612 -0.000346787 3.54647e-07
0.00115637 -0.000348035 -0.000346431 -9.42126e-07
0.000968766 -0.000292864 -0.000289672 -7.68516e-06
0.000962693 -0.000290736 -0.000287982 -9.26343e-06
0.00133887 -0.000401862 -0.000401577 -2.46329e-07
0.00134033 -0.000400716 -0.000402692 2.71217e-07
0.000965855 -0.000291939 -0.000288821 -8.51289e-06
0.00115018 -0.000346005 -0.000344646 -3.52066e-06
0.00133959 -0.000400871 -0.000402309 -4.23002e-07
0.00115438 -0.000347508 -0.000345801 -1.65458e-06
0.00115218 -0.000346811 -0.000345159 -2.48044e-06
0.000962693 -0.000290736 -0.000287982 -9.26343e-06
0.000956824 -0.000288648 -0.000286361 -1.06012e-05
0.00133563 -0.000400394 -0.000400814 1.32326e-08
0.00133887 -0.000401862 -0.000401577 -2.46329e-07
0.000959583 -0.000289651 -0.000287114 -9.93279e-06
0.00114573 -0.000344387 -0.000343432 -4.99805e-06
0.00133771 -0.000401472 -0.000401244 7.77383e-08
0.00115018 -0.000346005 -0.000344646 -3.52066e-06
0.00114811 -0.000345199 -0.000344106 -4.40039e-06
0.000956824 -0.000288648 -0.000286361 -1.06012e-05
0.000951555 -0.000286612 -0.000284976 -1.16979e-05
0.00133036 -0.000399168 -0.000399082 -8.01229e-08
0.00133563 -0.000400394 -0.000400814 1.32326e-08
0.000954215 -0.000287624 -0.000285682 -1.12211e-05
0.00114058 -0.000342681 -0.000341958 -5.95301e-06
0.00133304 -0.000399714 -0.000399997 -1.35357e-07
0.00114573 -0.000344387 -0.000343432 -4.99805e-06
0.00114317 -0.000343546 -0.000342697 -5.50839e-06
0.000951555 -0.000286612 -0.000284976 -1.16979e-05
0.000946351 -0.000284768 -0.000283535 -1.23682e-05
0.00132438 -0.000397283 -0.000397329 -9.68225e-09
0.00133036 -0.000399168 -0.000399082 -8.01229e-08
0.000948912 -0.000285665 -0.000284249 -1.20656e-05
0.00113514 -0.000340921 -0.000340378 -6.52236e-06
0.0013275 -0.000398308 -0.000398225 3.1016e-09
0.00114058 -0.000342681 -0.000341958 -5.95301e-06
0.00113792 -0.000341805 -0.000341193 -6.28778e-06
0.000946351 -0.000284768 -0.000283535 -1.23682e-05
0.000941287 -0.000283044 -0.000282104 -1.27939e-05
0.0013178 -0.000395381 -0.000395324 -2.24458e-08
0.00132438 -0.000397283 -0.000397329 -9.68225e-09
0.000943825 -0.000283895 -0.000282827 -1.2614e-05
0.0011294 -0.000339136 -0.000338683 -6.85178e-06
0.00132112 -0.000396323 -0.00039634 -3.94703e-08
0.00113514 -0.000340921 -0.000340378 -6.52236e-06
0.00113228 -0.000340031 -0.000339534 -6.70806e-06
0.000941287 -0.000283044 -0.000282104 -1.27939e-05
0.000936233 -0.000281412 -0.000280638 -1.30247e-05
0.001311 -0.000393325 -0.000393291 -5.19998e-09
0.0013178 -0.000395381 -0.000395324 -2.24458e-08
0.000938751 -0.000282218 -0.000281371 -1.2925e-05
0.00112353 -0.000337335 -0.000336943 -7.02429e-06
0.00131443 -0.000394371 -0.000394312 -2.35379e-09
0.0011294 -0.000339136 -0.000338683 -6.85178e-06
0.00112649 -0.000338237 -0.000337821 -6.95361e-06
0.000936233 -0.000281412 -0.000280638 -1.30247e-05
0.000931206 -0.000279833 -0.00027916 -1.31537e-05
0.00130405 -0.000391252 -0.0003912 -5.51477e-09
0.001311 -0.000393325 -0.000393291 -5.19998e-09
0.000933721 -0.000280617 -0.000279902 -1.31004e-05
0.00111758 -0.000335527 -0.000335164 -7.11555e-06
0.00130754 -0.000392287 -0.000392249 -1.04051e-08
0.00112353 -0.000337335 -0.000336943 -7.02429e-06
0.00112056 -0.000336431 -0.000336055 -7.0773e-06
0.000931206 -0.000279833 -0.00027916 -1.31537e-05
0.000926178 -0.000278286 -0.000277668 -1.32175e-05
0.00129705 -0.000389148 -0.0003891 -1.67965e-09
0.00130405 -0.000391252 -0.0003912 -5.51477e-09
0.00092869 -0.000279056 -0.000278415 -1.31908e-05
0.00111158 -0.000333715 -0.000333371 -7.15837e-06
0.00130056 -0.000390204 -0.000390151 -9.9616e-10
0.00111758 -0.000335527 -0.000335164 -7.11555e-06
0.00111458 -0.000334622 -0.00033427 -7.14118e-06
0.000926178 -0.000278286 -0.000277668 -1.32175e-05
0.000921153 -0.000276756 -0.00027617 -1.32496e-05
0.00129001 -0.000387039 -0.000386989 -1.14408e-09
0.00129705 -0.000389148 -0.0003891 -1.67965e-09
0.000923666 -0.00027752 -0.00027692 -1.32367e-05
0.00110556 -0.000331902 -0.000331568 -7.17876e-06
0.00129353 -0.000388093 -0.000388045 -2.40046e-09
0.00111158 -0.000333715 -0.000333371 -7.15837e-06
0.00110857 -0.000332809 -0.00033247 -7.17054e-06
0.000921153 -0.000276756 -0.00027617 -1.32496e-05
0.000916126 -0.000275235 -0.000274667 -1.3264e-05
0.00128297 -0.000384925 -0.000384876 -4.01209e-10
0.00129001 -0.000387039 -0.000386989 -1.14408e-09
0.000918639 -0.000275995 -0.000275419 -1.32582e-05
0.00109953 -0.000330089 -0.000329761 -7.18702e-06
0.00128649 -0.000385983 -0.000385932 -2.24718e-10
0.00110556 -0.000331902 -0.000331568 -7.17876e-06
0.00110255 -0.000330996 -0.000330665 -7.18385e-06
0.000916126 -0.000275235 -0.000274667 -1.3264e-05
0.000911099 -0.000273719 -0.000273163 -1.32703e-05
0.00127592 -0.00038281 -0.000382761 -1.7884e-10
0.00128297 -0.000384925 -0.000384876 -4.01209e-10
0.000913613 -0.000274477 -0.000273915 -1.32679e-05
0.0010935 -0.000328275 -0.000327952 -7.19028e-06
0.00127944 -0.000383868 -0.000383819 -4.5803e-10
0.00109953 -0.000330089 -0.000329761 -7.18702e-06
0.00109651 -0.000329182 -0.000328857 -7.18905e-06
0.000911099 -0.000273719 -0.000273163 -1.32703e-05
0.00090607 -0.000272205 -0.000271657 -1.32727e-05
0.00126887 -0.000380695 -0.000380647 -7.01857e-11
0.00127592 -0.00038281 -0.000382761 -1.7884e-10
0.000908585 -0.000272962 -0.00027241 -1.32718e-05
0.00108746 -0.000326461 -0.000326142 -7.19117e-06
0.0012724 -0.000381753 -0.000381704 -2.07448e-11
0.0010935 -0.000328275 -0.000327952 -7.19028e-06
0.00109048 -0.000327368 -0.000327047 -7.19089e-06
0.00090607 -0.000272205 -0.000271657 -1.32727e-05
0.000901042 -0.000270692 -0.00027015 -1.32735e-05
0.00126182 -0.00037858 -0.000378532 -1.39287e-11
0.00126887 -0.000380695 -0.000380647 -7.01857e-11
0.000903556 -0.000271448 -0.000270903 -1.32732e-05
0.00108142 -0.000324647 -0.000324332 -7.19127e-06
0.00126535 -0.000379638 -0.00037959 -6.43255e-11
0.00108746 -0.000326461 -0.000326142 -7.19117e-06
0.00108444 -0.000325554 -0.000325237 -7.19127e-06
0.000901042 -0.000270692 -0.00027015 -1.32735e-05
0.000896012 -0.000269178 -0.000268643 -1.32736e-05
0.00125477 -0.000376466 -0.000376418 -1.04484e-11
0.00126182 -0.00037858 -0.000378532 -1.39287e-11
0.000898527 -0.000269935 -0.000269397 -1.32736e-05
0.00107538 -0.000322833 -0.000322521 -7.19108e-06
0.0012583 -0.000377523 -0.000377475 4.24458e-12
0.00108142 -0.000324647 -0.000324332 -7.19127e-06
0.0010784 -0.00032374 -0.000323426 -7.19119e-06
0.000896012 -0.000269178 -0.000268643 -1.32736e-05
0.000890983 -0.000267665 -0.000267136 -1.32735e-05
0.00124773 -0.000374351 -0.000374304 -1.23315e-12
0.00125477 -0.000376466 -0.000376418 -1.04484e-11
0.000893498 -0.000268422 -0.00026789 -1.32736e-05
0.00106934 -0.000321019 -0.00032071 -7.19088e-06
0.00125125 -0.000375408 -0.000375361 -7.16337e-12
0.00107538 -0.000322833 -0.000322521 -7.19108e-06
0.00107236 -0.000321926 -0.000321616 -7.19098e-06
0.000890983 -0.000267665 -0.000267136 -1.32735e-05
0.000885953 -0.000266153 -0.000265629 -1.32733e-05
0.00124068 -0.000372237 -0.00037219 -6.65595e-12
0.00124773 -0.000374351 -0.000374304 -1.23315e-12
0.000888468 -0.000266909 -0.000266383 -1.32734e-05
0.00106331 -0.000319206 -0.0003189 -7.1907e-06
0.0012442 -0.000373294 -0.000373247 -2.28235e-12
0.00106934 -0.000321019 -0.00032071 -7.19088e-06
0.00106632 -0.000320113 -0.000319805 -7.19078e-06
0.000885953 -0.000266153 -0.000265629 -1.32733e-05
0.000880924 -0.00026464 -0.000264122 -1.32732e-05
0.00123363 -0.000370122 -0.000370076 -6.31575e-12
0.00124068 -0.000372237 -0.00037219 -6.65595e-12
0.000883439 -0.000265396 -0.000264875 -1.32733e-05
0.00105727 -0.000317392 -0.000317089 -7.19057e-06
0.00123716 -0.000371179 -0.000371133 -6.02707e-12
0.00106331 -0.000319206 -0.0003189 -7.1907e-06
0.00106029 -0.000318299 -0.000317995 -7.19063e-06
0.000880924 -0.00026464 -0.000264122 -1.32732e-05
0.000875894 -0.000263127 -0.000262615 -1.32731e-05
0.00122658 -0.000368008 -0.000367962 -9.05766e-12
0.00123363 -0.000370122 -0.000370076 -6.31575e-12
0.000878409 -0.000263883 -0.000263368 -1.32731e-05
0.00105123 -0.000315578 -0.000315279 -7.19047e-06
0.00123011 -0.000369065 -0.000369019 -7.83338e-12
0.00105727 -0.000317392 -0.000317089 -7.19057e-06
0.00105425 -0.000316485 -0.000316184 -7.19051e-06
0.000875894 -0.000263127 -0.000262615 -1.32731e-05
0.000870864 -0.000261614 -0.000261107 -1.3273e-05
0.00121954 -0.000365893 -0.000365848 -9.43708e-12
0.00122658 -0.000368008 -0.000367962 -9.05766e-12
0.000873379 -0.00026237 -0.000261861 -1.3273e-05
0.00104519 -0.000313764 -0.000313468 -7.19039e-06
0.00122306 -0.00036695 -0.000366905 -9.00249e-12
0.00105123 -0.000315578 -0.000315279 -7.19047e-06
0.00104821 -0.000314671 -0.000314374 -7.19043e-06
0.000870864 -0.000261614 -0.000261107 -1.3273e-05
0.000865834 -0.000260101 -0.0002596 -1.32729e-05
0.00121249 -0.000363779 -0.000363733 -1.03329e-11
0.00121954 -0.000365893 -0.000365848 -9.43833e-12
0.000868349 -0.000260857 -0.000260354 -1.32729e-05
0.00103915 -0.00031195 -0.000311658 -7.19032e-06
0.00121601 -0.000364836 -0.00036479 -1.00367e-11
0.00104519 -0.000313764 -0.000313468 -7.19039e-06
0.00104217 -0.000312857 -0.000312563 -7.19035e-06
0.000865834 -0.000260101 -0.0002596 -1.32729e-05
0.000860804 -0.000258588 -0.000258093 -1.32728e-05
0.00120544 -0.000361665 -0.000361619 -1.04897e-11
0.00121249 -0.000363779 -0.000363733 -1.03329e-11
0.000863319 -0.000259344 -0.000258846 -1.32728e-05
0.00103311 -0.000310137 -0.000309847 -7.19027e-06
0.00120897 -0.000362722 -0.000362676 -1.03344e-11
0.00103915 -0.00031195 -0.000311658 -7.19032e-06
0.00103613 -0.000311043 -0.000310752 -7.19029e-06
0.000860804 -0.000258588 -0.000258093 -1.32728e-05
0.000855774 -0.000257075 -0.000256586 -1.32727e-05
0.0011984 -0.00035955 -0.000359505 -1.07052e-11
0.00120544 -0.000361665 -0.000361619 -1.04849e-11
0.000858289 -0.000257831 -0.000257339 -1.32728e-05
0.00102707 -0.000308323 -0.000308037 -7.19022e-06
0.00120192 -0.000360607 -0.000360562 -1.065e-11
0.00103311 -0.000310137 -0.000309847 -7.19027e-06
0.00103009 -0.00030923 -0.000308942 -7.19024e-06
0.000855774 -0.000257075 -0.000256586 -1.32727e-05
0.000850744 -0.000255562 -0.000255078 -1.32726e-05
0.00119135 -0.000357436 -0.000357391 -1.07127e-11
0.0011984 -0.00035955 -0.000359505 -1.07052e-11
0.000853259 -0.000256318 -0.000255832 -1.32727e-05
0.00102104 -0.000306509 -0.000306226 -7.19017e-06
0.00119487 -0.000358493 -0.000358448 -1.06843e-11
0.00102707 -0.000308323 -0.000308037 -7.19022e-06
0.00102406 -0.000307416 -0.000307131 -7.19019e-06
0.000850744 -0.000255562 -0.000255078 -1.32726e-05
0.000845714 -0.000254049 -0.000253571 -1.32726e-05
0.0011843 -0.000355321 -0.000355277 -1.0734e-11
0.00119135 -0.000357436 -0.000357391 -1.07186e-11
0.000848229 -0.000254805 -0.000254325 -1.32726e-05
0.001015 -0.000304695 -0.000304416 -7.19012e-06
0.00118783 -0.000356379 -0.000356334 -1.07366e-11
0.00102104 -0.000306509 -0.000306226 -7.19017e-06
0.00101802 -0.000305602 -0.000305321 -7.19014e-06
0.000845714 -0.000254049 -0.000253571 -1.32726e-05
0.000840684 -0.000252536 -0.000252064 -1.32725e-05
0.00117725 -0.000353207 -0.000353163 -1.07024e-11
0.0011843 -0.000355321 -0.000355277 -1.0734e-11
0.000843199 -0.000253292 -0.000252817 -1.32725e-05
0.00100896 -0.000302881 -0.000302605 -7.19008e-06
0.00118078 -0.000354264 -0.00035422 -1.07111e-11
0.001015 -0.000304695 -0.000304416 -7.19012e-06
0.00101198 -0.000303788 -0.00030351 -7.1901e-06
0.000840684 -0.000252536 -0.000252064 -1.32725e-05
0.000835654 -0.000251023 -0.000250556 -1.32724e-05
0.00117021 -0.000351093 -0.000351049 -1.0674e-11
0.00117725 -0.000353207 -0.000353163 -1.0705e-11
0.000838169 -0.00025178 -0.00025131 -1.32725e-05
0.00100292 -0.000301068 -0.000300794 -7.19004e-06
0.00117373 -0.00035215 -0.000352106 -1.06936e-11
0.00100896 -0.000302881 -0.000302605 -7.19008e-06
0.00100594 -0.000301975 -0.0003017 -7.19006e-06
0.000835654 -0.000251023 -0.000250556 -1.32724e-05
0.000830624 -0.00024951 -0.000249049 -1.32724e-05
0.00116316 -0.000348978 -0.000348935 -1.06392e-11
0.00117021 -0.000351093 -0.000351049 -1.0674e-11
0.000833139 -0.000250267 -0.000249803 -1.32724e-05
0.000996883 -0.000299254 -0.000298984 -7.18999e-06
0.00116668 -0.000350035 -0.000349992 -1.06538e-11
0.00100292 -0.000301068 -0.000300794 -7.19004e-06
0.000999902 -0.000300161 -0.000299889 -7.19002e-06
0.000830624 -0.00024951 -0.000249049 -1.32724e-05
0.000825594 -0.000247997 -0.000247542 -1.32723e-05
0.00115611 -0.000346864 -0.000346821 -1.0592e-11
0.00116316 -0.000348978 -0.000348935 -1.06391e-11
0.000828109 -0.000248754 -0.000248295 -1.32723e-05
0.000990844 -0.00029744 -0.000297173 -7.18995e-06
0.00115964 -0.000347921 -0.000347878 -1.06163e-11
0.000996883 -0.000299254 -0.000298984 -7.18999e-06
0.000993863 -0.000298347 -0.000298078 -7.18997e-06
0.000825594 -0.000247997 -0.000247542 -1.32723e-05
0.000820564 -0.000246484 -0.000246034 -1.32722e-05
0.00114907 -0.000344749 -0.000344707 -1.05347e-11
0.00115611 -0.000346864 -0.000346821 -1.0592e-11
0.000823079 -0.000247241 -0.000246788 -1.32723e-05
0.000984806 -0.000295626 -0.000295363 -7.18991e-06
0.00115259 -0.000345807 -0.000345764 -1.05681e-11
0.000990844 -0.00029744 -0.000297173 -7.18995e-06
0.000987825 -0.000296533 -0.000296268 -7.18993e-06
0.000820564 -0.000246484 -0.000246034 -1.32722e-05
0.000815534 -0.000244972 -0.000244527 -1.32722e-05
0.00114202 -0.000342635 -0.000342593 -1.04813e-11
0.00114907 -0.000344749 -0.000344707 -1.0535e-11
0.000818049 -0.000245728 -0.00024528 -1.32722e-05
0.000978767 -0.000293813 -0.000293552 -7.18987e-06
0.00114554 -0.000343692 -0.00034365 -1.05041e-11
0.000984806 -0.000295626 -0.000295363 -7.18991e-06
0.000981786 -0.00029472 -0.000294457 -7.18989e-06
0.000815534 -0.000244972 -0.000244527 -1.32722e-05
0.000810504 -0.000243459 -0.000243019 -1.32721e-05
0.00113497 -0.000340521 -0.000340479 -1.0434e-11
0.00114202 -0.000342635 -0.000342593 -1.04813e-11
0.000813019 -0.000244215 -0.000243773 -1.32721e-05
0.000972729 -0.000291999 -0.000291741 -7.18983e-06
0.0011385 -0.000341578 -0.000341536 -1.04632e-11
0.000978767 -0.000293813 -0.000293552 -7.18987e-06
0.000975748 -0.000292906 -0.000292647 -7.18985e-06
0.000810504 -0.000243459 -0.000243019 -1.32721e-05
0.000805474 -0.000241946 -0.000241512 -1.3272e-05
0.00112792 -0.000338406 -0.000338365 -1.03668e-11
0.00113497 -0.000340521 -0.000340479 -1.04307e-11
0.000807989 -0.000242702 -0.000242266 -1.32721e-05
0.00096669 -0.000290185 -0.000289931 -7.18979e-06
0.00113145 -0.000339463 -0.000339422 -1.03971e-11
0.000972729 -0.000291999 -0.000291741 -7.18983e-06
0.000969709 -0.000291092 -0.000290836 -7.18981e-06
0.000805474 -0.000241946 -0.000241512 -1.3272e-05
0.000800444 -0.000240433 -0.000240004 -1.3272e-05
0.00112088 -0.000336292 -0.000336251 -1.02975e-11
0.00112792 -0.000338406 -0.000338365 -1.03668e-11
0.000802959 -0.00024119 -0.000240758 -1.3272e-05
0.000960652 -0.000288371 -0.00028812 -7.18975e-06
0.0011244 -0.000337349 -0.000337308 -1.03315e-11
0.00096669 -0.000290185 -0.000289931 -7.18979e-06
0.000963671 -0.000289278 -0.000289025 -7.18977e-06
0.000800444 -0.000240433 -0.000240004 -1.3272e-05
0.000795413 -0.00023892 -0.000238497 -1.32719e-05
0.00111383 -0.000334177 -0.000334137 -1.02517e-11
0.00112088 -0.000336292 -0.000336251 -1.03012e-11
0.000797928 -0.000239677 -0.000239251 -1.32719e-05
0.000954613 -0.000286558 -0.000286309 -7.18971e-06
0.00111735 -0.000335235 -0.000335194 -1.02728e-11
0.000960652 -0.000288371 -0.00028812 -7.18975e-06
0.000957632 -0.000287465 -0.000287215 -7.18973e-06
0.000795413 -0.00023892 -0.000238497 -1.32719e-05
0.000790383 -0.000237408 -0.000236989 -1.32718e-05
0.00110678 -0.000332063 -0.000332023 -1.01693e-11
0.00111383 -0.000334177 -0.000334137 -1.02517e-11
0.000792898 -0.000238164 -0.000237743 -1.32719e-05
0.000948574 -0.000284744 -0.000284499 -7.18967e-06
0.00111031 -0.00033312 -0.00033308 -1.02121e-11
0.000954613 -0.000286558 -0.000286309 -7.18971e-06
0.000951594 -0.000285651 -0.000285404 -7.18969e-06
0.000790383 -0.000237408 -0.000236989 -1.32718e-05
0.000785353 -0.000235895 -0.000235482 -1.32718e-05
0.00109974 -0.000329949 -0.000329909 -1.01193e-11
0.00110678 -0.000332063 -0.000332023 -1.01693e-11
0.000787868 -0.000236651 -0.000236236 -1.32718e-05
0.000942536 -0.00028293 -0.000282688 -7.18963e-06
0.00110326 -0.000331006 -0.000330966 -1.01443e-11
0.000948574 -0.000284744 -0.000284499 -7.18967e-06
0.000945555 -0.000283837 -0.000283593 -7.18965e-06
0.000785353 -0.000235895 -0.000235482 -1.32718e-05
0.000780322 -0.000234382 -0.000233974 -1.32717e-05
0.00109269 -0.000327834 -0.000327795 -1.00514e-11
0.00109974 -0.000329949 -0.000329909 -1.01259e-11
0.000782838 -0.000235138 -0.000234728 -1.32717e-05
0.000936497 -0.000281117 -0.000280877 -7.18959e-06
0.00109621 -0.000328891 -0.000328852 -1.00998e-11
0.000942536 -0.00028293 -0.000282688 -7.18963e-06
0.000939516 -0.000282024 -0.000281783 -7.18961e-06
0.000780322 -0.000234382 -0.000233974 -1.32717e-05
0.000775292 -0.000232869 -0.000232467 -1.32716e-05
0.00108564 -0.00032572 -0.000325681 -9.9802e-12
0.00109269 -0.000327834 -0.000327795 -1.00514e-11
0.000777807 -0.000233626 -0.000233221 -1.32717e-05
0.000930458 -0.000279303 -0.000279067 -7.18955e-06
0.00108917 -0.000326777 -0.000326738 -1.00265e-11
0.000936497 -0.000281117 -0.000280877 -7.18959e-06
0.000933478 -0.00028021 -0.000279972 -7.18957e-06
0.000775292 -0.000232869 -0.000232467 -1.32716e-05
0.000770262 -0.000231357 -0.000230959 -1.32716e-05
0.00107859 -0.000323605 -0.000323567 -9.91166e-12
0.00108564 -0.00032572 -0.000325681 -9.99347e-12
0.000772777 -0.000232113 -0.000231713 -1.32716e-05
0.00092442 -0.000277489 -0.000277256 -7.18951e-06
0.00108212 -0.000324662 -0.000324624 -9.94058e-12
0.000930458 -0.000279303 -0.000279067 -7.18955e-06
0.000927439 -0.000278396 -0.000278161 -7.18953e-06
0.000770262 -0.000231357 -0.000230959 -1.32716e-05
0.000765231 -0.000229844 -0.000229452 -1.32715e-05
0.00107155 -0.000321491 -0.000321453 -9.85932e-12
0.00107859 -0.000323605 -0.000323567 -9.91166e-12
0.000767747 -0.0002306 -0.000230206 -1.32715e-05
0.000918381 -0.000275676 -0.000275445 -7.18947e-06
0.00107507 -0.000322548 -0.00032251 -9.87817e-12
0.00092442 -0.000277489 -0.000277256 -7.18951e-06
0.0009214 -0.000276582 -0.000276351 -7.18949e-06
0.000765231 -0.000229844 -0.000229452 -1.32715e-05
0.000760201 -0.000228331 -0.000227944 -1.32714e-05
0.0010645 -0.000319376 -0.000319339 -9.78319e-12
0.00107155 -0.000321491 -0.000321453 -9.84565e-12
0.000762716 -0.000229088 -0.000228698 -1.32715e-05
0.000912342 -0.000273862 -0.000273635 -7.18943e-06
0.00106802 -0.000320434 -0.000320396 -9.81944e-12
0.000918381 -0.000275676 -0.000275445 -7.18947e-06
0.000915362 -0.000274769 -0.00027454 -7.18945e-06
0.000760201 -0.000228331 -0.000227944 -1.32714e-05
0.000755171 -0.000226819 -0.000226437 -1.32714e-05
0.00105745 -0.000317262 -0.000317225 -9.72941e-12
0.0010645 -0.000319376 -0.000319339 -9.78319e-12
0.000757686 -0.000227575 -0.00022719 -1.32714e-05
0.000906304 -0.000272048 -0.000271824 -7.18938e-06
0.00106098 -0.000318319 -0.000318282 -9.74802e-12
0.000912342 -0.000273862 -0.000273635 -7.18943e-06
0.000909323 -0.000272955 -0.000272729 -7.18941e-06
0.000755171 -0.000226819 -0.000226437 -1.32714e-05
0.00075014 -0.000225306 -0.000224929 -1.32713e-05
0.00105041 -0.000315148 -0.000315111 -9.66106e-12
0.00105745 -0.000317262 -0.000317225 -9.72207e-12
0.000752655 -0.000226062 -0.000225683 -1.32713e-05
0.000900265 -0.000270235 -0.000270013 -7.18934e-06
0.00105393 -0.000316205 -0.000316168 -9.69642e-12
0.000906304 -0.000272048 -0.000271824 -7.18938e-06
0.000903284 -0.000271141 -0.000270918 -7.18936e-06
0.00075014 -0.000225306 -0.000224929 -1.32713e-05
0.00074511 -0.000223793 -0.000223421 -1.32712e-05
0.00104336 -0.000313033 -0.000312997 -9.57724e-12
0.00105041 -0.000315148 -0.000315111 -9.66106e-12
0.000747625 -0.00022455 -0.000224175 -1.32713e-05
0.000894226 -0.000268421 -0.000268202 -7.1893e-06
0.00104688 -0.00031409 -0.000314054 -9.61516e-12
0.000900265 -0.000270235 -0.000270013 -7.18934e-06
0.000897246 -0.000269328 -0.000269108 -7.18932e-06
0.00074511 -0.000223793 -0.000223421 -1.32712e-05
0.000740079 -0.000222281 -0.000221914 -1.32712e-05
0.00103631 -0.000310919 -0.000310883 -9.54386e-12
0.00104336 -0.000313033 -0.000312997 -9.57061e-12
0.000742595 -0.000223037 -0.000222668 -1.32712e-05
0.000888188 -0.000266607 -0.000266392 -7.18926e-06
0.00103983 -0.000311976 -0.00031194 -9.55403e-12
0.000894226 -0.000268421 -0.000268202 -7.1893e-06
0.000891207 -0.000267514 -0.000267297 -7.18928e-06
0.000740079 -0.000222281 -0.000221914 -1.32712e-05
0.000735049 -0.000220768 -0.000220406 -1.32711e-05
0.00102926 -0.000308804 -0.000308768 -9.46567e-12
0.00103631 -0.000310919 -0.000310883 -9.54386e-12
0.000737564 -0.000221524 -0.00022116 -1.32711e-05
0.000882149 -0.000264794 -0.000264581 -7.18922e-06
0.00103279 -0.000309861 -0.000309826 -9.51341e-12
0.000888188 -0.000266607 -0.000266392 -7.18926e-06
0.000885168 -0.000265701 -0.000265486 -7.18924e-06
0.000735049 -0.000220768 -0.000220406 -1.32711e-05
0.000730018 -0.000219255 -0.000218898 -1.3271e-05
0.00102222 -0.00030669 -0.000306654 -9.39204e-12
0.00102926 -0.000308804 -0.000308768 -9.46567e-12
0.000732534 -0.000220012 -0.000219652 -1.32711e-05
0.00087611 -0.00026298 -0.00026277 -7.18917e-06
0.00102574 -0.000307747 -0.000307711 -9.42672e-12
0.000882149 -0.000264794 -0.000264581 -7.18922e-06
0.000879129 -0.000263887 -0.000263675 -7.1892e-06
0.000730018 -0.000219255 -0.000218898 -1.3271e-05
0.000724988 -0.000217743 -0.000217391 -1.3271e-05
0.00101517 -0.000304575 -0.00030454 -9.33175e-12
0.00102222 -0.00030669 -0.000306654 -9.39373e-12
0.000727503 -0.000218499 -0.000218145 -1.3271e-05
0.000870071 -0.000261166 -0.000260959 -7.18913e-06
0.00101869 -0.000305633 -0.000305597 -9.38234e-12
0.00087611 -0.00026298 -0.00026277 -7.18917e-06
0.000873091 -0.000262073 -0.000261865 -7.18915e-06
0.000724988 -0.000217743 -0.000217391 -1.3271e-05
0.000719957 -0.00021623 -0.000215883 -1.32709e-05
0.00100812 -0.000302461 -0.000302426 -9.27536e-12
0.00101517 -0.000304575 -0.00030454 -9.34436e-12
0.000722472 -0.000216986 -0.000216637 -1.32709e-05
0.000864033 -0.000259353 -0.000259148 -7.18909e-06
0.00101165 -0.000303518 -0.000303483 -9.30271e-12
0.000870071 -0.000261166 -0.000260959 -7.18913e-06
0.000867052 -0.00026026 -0.000260054 -7.18911e-06
0.000719957 -0.00021623 -0.000215883 -1.32709e-05
0.000714926 -0.000214718 -0.000214375 -1.32708e-05
0.00100108 -0.000300346 -0.000300312 -9.20681e-12
0.00100812 -0.000302461 -0.000302426 -9.27536e-12
0.000717442 -0.000215474 -0.000215129 -1.32709e-05
0.000857994 -0.000257539 -0.000257338 -7.18905e-06
0.0010046 -0.000301404 -0.000301369 -9.23434e-12
0.000864033 -0.000259353 -0.000259148 -7.18909e-06
0.000861013 -0.000258446 -0.000258243 -7.18907e-06
0.000714926 -0.000214718 -0.000214375 -1.32708e-05
0.000709896 -0.000213205 -0.000212867 -1.32708e-05
0.000994028 -0.000298232 -0.000298198 -9.13323e-12
0.00100108 -0.000300346 -0.000300312 -9.20681e-12
0.000712411 -0.000213961 -0.000213621 -1.32708e-05
0.000851955 -0.000255726 -0.000255527 -7.189e-06
0.000997552 -0.000299289 -0.000299255 -9.16368e-12
0.000857994 -0.000257539 -0.000257338 -7.18905e-06
0.000854974 -0.000256632 -0.000256432 -7.18903e-06
0.000709896 -0.000213205 -0.000212867 -1.32708e-05
0.000704865 -0.000211693 -0.00021136 -1.32707e-05
0.000986981 -0.000296118 -0.000296084 -9.06132e-12
0.000994028 -0.000298232 -0.000298198 -9.14023e-12
0.000707381 -0.000212449 -0.000212114 -1.32707e-05
0.000845916 -0.000253912 -0.000253716 -7.18896e-06
0.000990504 -0.000297175 -0.000297141 -9.11199e-12
0.000851955 -0.000255726 -0.000255527 -7.189e-06
0.000848935 -0.000254819 -0.000254621 -7.18898e-06
0.000704865 -0.000211693 -0.00021136 -1.32707e-05
0.000699835 -0.00021018 -0.000209852 -1.32706e-05
0.000979934 -0.000294003 -0.00029397 -9.00735e-12
0.000986981 -0.000296118 -0.000296084 -9.07388e-12
0.00070235 -0.000210936 -0.000210606 -1.32706e-05
0.000839877 -0.000252098 -0.000251905 -7.18892e-06
0.000983457 -0.00029506 -0.000295027 -9.02859e-12
0.000845916 -0.000253912 -0.000253716 -7.18896e-06
0.000842897 -0.000253005 -0.000252811 -7.18894e-06
0.000699835 -0.00021018 -0.000209852 -1.32706e-05
0.000694804 -0.000208668 -0.000208344 -1.32705e-05
0.000972886 -0.000291889 -0.000291856 -8.93806e-12
0.000979934 -0.000294003 -0.00029397 -9.00735e-12
0.000697319 -0.000209424 -0.000209098 -1.32706e-05
0.000833838 -0.000250285 -0.000250094 -7.18888e-06
0.00097641 -0.000292946 -0.000292913 -8.98458e-12
0.000839877 -0.000252098 -0.000251905 -7.18892e-06
0.000836858 -0.000251192 -0.000251 -7.1889e-06
0.000694804 -0.000208668 -0.000208344 -1.32705e-05
0.000689773 -0.000207155 -0.000206836 -1.32705e-05
0.000965839 -0.000289774 -0.000289742 -8.87853e-12
0.000972886 -0.000291889 -0.000291856 -8.93806e-12
0.000692289 -0.000207911 -0.00020759 -1.32705e-05
0.000827799 -0.000248471 -0.000248283 -7.18883e-06
0.000969363 -0.000290831 -0.000290799 -8.92386e-12
0.000833838 -0.000250285 -0.000250094 -7.18888e-06
0.000830819 -0.000249378 -0.000249189 -7.18885e-06
0.000689773 -0.000207155 -0.000206836 -1.32705e-05
0.000684742 -0.000205643 -0.000205329 -1.32704e-05
0.000958792 -0.00028766 -0.000287628 -8.81126e-12
0.000965839 -0.000289774 -0.000289742 -8.8772e-12
0.000687258 -0.000206399 -0.000206082 -1.32704e-05
0.000821761 -0.000246658 -0.000246473 -7.18879e-06
0.000962315 -0.000288717 -0.000288685 -8.84356e-12
0.000827799 -0.000248471 -0.000248283 -7.18883e-06
0.00082478 -0.000247565 -0.000247378 -7.18881e-06
0.000684742 -0.000205643 -0.000205329 -1.32704e-05
0.000679712 -0.00020413 -0.000203821 -1.32703e-05
0.000951745 -0.000285545 -0.000285514 -8.75658e-12
0.000958792 -0.00028766 -0.000287628 -8.81292e-12
0.000682227 -0.000204886 -0.000204575 -1.32704e-05
0.000815722 -0.000244844 -0.000244662 -7.18875e-06
0.000955268 -0.000286603 -0.000286571 -8.78628e-12
0.000821761 -0.000246658 -0.000246473 -7.18879e-06
0.000818741 -0.000245751 -0.000245567 -7.18877e-06
0.000679712 -0.00020413 -0.000203821 -1.32703e-05
0.000674681 -0.000202618 -0.000202313 -1.32703e-05
0.000944697 -0.000283431 -0.0002834 -8.68415e-12
0.000951745 -0.000285545 -0.000285514 -8.75658e-12
0.000677196 -0.000203374 -0.000203067 -1.32703e-05
0.000809683 -0.000243031 -0.000242851 -7.1887e-06
0.000948221 -0.000284488 -0.000284457 -8.72506e-12
0.000815722 -0.000244844 -0.000244662 -7.18875e-06
0.000812702 -0.000243937 -0.000243756 -7.18872e-06
0.000674681 -0.000202618 -0.000202313 -1.32703e-05
0.00066965 -0.000201105 -0.000200805 -1.32702e-05
0.00093765 -0.000281316 -0.000281286 -8.61953e-12
0.000944697 -0.000283431 -0.0002834 -8.68415e-12
0.000672165 -0.000201861 -0.000201559 -1.32702e-05
0.000803644 -0.000241217 -0.00024104 -7.18866e-06
0.000941174 -0.000282374 -0.000282343 -8.63708e-12
0.000809683 -0.000243031 -0.000242851 -7.1887e-06
0.000806663 -0.000242124 -0.000241945 -7.18868e-06
0.00066965 -0.000201105 -0.000200805 -1.32702e-05
0.000664619 -0.000199593 -0.000199297 -1.32701e-05
0.000930603 -0.000279202 -0.000279172 -8.54573e-12
0.00093765 -0.000281316 -0.000281286 -8.61485e-12
0.000667135 -0.000200349 -0.000200051 -1.32702e-05
0.000797605 -0.000239404 -0.000239229 -7.18862e-06
0.000934127 -0.000280259 -0.000280229 -8.59377e-12
0.000803644 -0.000241217 -0.00024104 -7.18866e-06
0.000800624 -0.00024031 -0.000240135 -7.18864e-06
0.000664619 -0.000199593 -0.000199297 -1.32701e-05
0.000659588 -0.00019808 -0.000197789 -1.327e-05
0.000923556 -0.000277088 -0.000277058 -8.48122e-12
0.000930603 -0.000279202 -0.000279172 -8.55204e-12
0.000662104 -0.000198837 -0.000198543 -1.32701e-05
0.000791566 -0.00023759 -0.000237418 -7.18857e-06
0.000927079 -0.000278145 -0.000278115 -8.51404e-12
0.000797605 -0.000239404 -0.000239229 -7.18862e-06
0.000794585 -0.000238497 -0.000238324 -7.18859e-06
0.000659588 -0.00019808 -0.000197789 -1.327e-05
0.000654557 -0.000196568 -0.000196281 -1.327e-05
0.000916508 -0.000274973 -0.000274944 -8.422e-12
0.000923556 -0.000277088 -0.000277058 -8.48122e-12
0.000657073 -0.000197324 -0.000197035 -1.327e-05
0.000785527 -0.000235777 -0.000235607 -7.18853e-06
0.000920032 -0.00027603 -0.000276001 -8.44941e-12
0.000791566 -0.00023759 -0.000237418 -7.18857e-06
0.000788546 -0.000236683 -0.000236513 -7.18855e-06
0.000654557 -0.000196568 -0.000196281 -1.327e-05
0.000649527 -0.000195056 -0.000194773 -1.32699e-05
0.000909461 -0.000272859 -0.00027283 -8.34362e-12
0.000916508 -0.000274973 -0.000274944 -8.422e-12
0.000652042 -0.000195812 -0.000195527 -1.32699e-05
0.000779488 -0.000233963 -0.000233796 -7.18848e-06
0.000912985 -0.000273916 -0.000273887 -8.36584e-12
0.000785527 -0.000235777 -0.000235607 -7.18853e-06
0.000782507 -0.00023487 -0.000234702 -7.18851e-06
0.000649527 -0.000195056 -0.000194773 -1.32699e-05
0.000644496 -0.000193543 -0.000193265 -1.32698e-05
0.000902414 -0.000270744 -0.000270716 -8.28196e-12
0.000909461 -0.000272859 -0.00027283 -8.33703e-12
0.000647011 -0.000194299 -0.000194019 -1.32699e-05
0.000773449 -0.00023215 -0.000231985 -7.18844e-06
0.000905938 -0.000271801 -0.000271773 -8.32424e-12
0.000779488 -0.000233963 -0.000233796 -7.18848e-06
0.000776469 -0.000233056 -0.000232891 -7.18846e-06
0.000644496 -0.000193543 -0.000193265 -1.32698e-05
0.000639465 -0.000192031 -0.000191757 -1.32698e-05
0.000895367 -0.00026863 -0.000268602 -8.2299e-12
0.000902414 -0.000270744 -0.000270716 -8.28831e-12
0.00064198 -0.000192787 -0.000192511 -1.32698e-05
0.00076741 -0.000230336 -0.000230175 -7.1884e-06
0.00089889 -0.000269687 -0.000269659 -8.251e-12
0.000773449 -0.00023215 -0.000231985 -7.18844e-06
0.00077043 -0.000231243 -0.00023108 -7.18842e-06
0.000639465 -0.000192031 -0.000191757 -1.32698e-05
0.000634434 -0.000190519 -0.000190249 -1.32697e-05
0.00088832 -0.000266515 -0.000266488 -8.15249e-12
0.000895367 -0.00026863 -0.000268602 -8.2299e-12
0.000636949 -0.000191275 -0.000191003 -1.32697e-05
0.000761371 -0.000228523 -0.000228364 -7.18835e-06
0.000891843 -0.000267572 -0.000267545 -8.17987e-12
0.00076741 -0.000230336 -0.000230175 -7.1884e-06
0.00076439 -0.000229429 -0.000229269 -7.18838e-06
0.000634434 -0.000190519 -0.000190249 -1.32697e-05
0.000629403 -0.000189006 -0.000188741 -1.32696e-05
0.000881272 -0.000264401 -0.000264374 -8.08047e-12
0.00088832 -0.000266515 -0.000266488 -8.15249e-12
0.000631918 -0.000189762 -0.000189495 -1.32697e-05
0.000755332 -0.000226709 -0.000226553 -7.18831e-06
0.000884796 -0.000265458 -0.000265431 -8.12034e-12
0.000761371 -0.000228523 -0.000228364 -7.18835e-06
0.000758351 -0.000227616 -0.000227458 -7.18833e-06
0.000629403 -0.000189006 -0.000188741 -1.32696e-05
0.000624372 -0.000187494 -0.000187233 -1.32695e-05
0.000874225 -0.000262286 -0.000262259 -8.02248e-12
0.000881272 -0.000264401 -0.000264374 -8.09443e-12
0.000626887 -0.00018825 -0.000187987 -1.32696e-05
0.000749293 -0.000224896 -0.000224742 -7.18827e-06
0.000877749 -0.000263344 -0.000263316 -8.06206e-12
0.000755332 -0.000226709 -0.000226553 -7.18831e-06
0.000752312 -0.000225802 -0.000225647 -7.18829e-06
0.000624372 -0.000187494 -0.000187233 -1.32695e-05
0.000619341 -0.000185982 -0.000185725 -1.32695e-05
0.000867178 -0.000260172 -0.000260145 -7.97539e-12
0.000874225 -0.000262286 -0.000262259 -8.04238e-12
0.000621856 -0.000186738 -0.000186479 -1.32695e-05
0.000743254 -0.000223082 -0.000222931 -7.18822e-06
0.000870701 -0.000261229 -0.000261202 -7.99697e-12
0.000749293 -0.000224896 -0.000224742 -7.18827e-06
0.000746273 -0.000223989 -0.000223836 -7.18824e-06
0.000619341 -0.000185982 -0.000185725 -1.32695e-05
0.00061431 -0.000184469 -0.000184217 -1.32694e-05
0.000860131 -0.000258057 -0.000258031 -7.9176e-12
0.000867178 -0.000260172 -0.000260145 -7.97539e-12
0.000616825 -0.000185226 -0.000184971 -1.32694e-05
0.000737215 -0.000221269 -0.00022112 -7.18818e-06
0.000863654 -0.000259115 -0.000259088 -7.95104e-12
0.000743254 -0.000223082 -0.000222931 -7.18822e-06
0.000740234 -0.000222175 -0.000222025 -7.1882e-06
0.00061431 -0.000184469 -0.000184217 -1.32694e-05
0.000609279 -0.000182957 -0.000182709 -1.32693e-05
0.000853083 -0.000255943 -0.000255917 -7.83908e-12
0.000860131 -0.000258057 -0.000258031 -7.9176e-12
0.000611794 -0.000183713 -0.000183463 -1.32694e-05
0.000731176 -0.000219455 -0.000219309 -7.18813e-06
0.000856607 -0.000257 -0.000256974 -7.89087e-12
0.000737215 -0.000221269 -0.00022112 -7.18818e-06
0.000734195 -0.000220362 -0.000220214 -7.18816e-06
0.000609279 -0.000182957 -0.000182709 -1.32693e-05
0.000604247 -0.000181445 -0.000181201 -1.32693e-05
0.000846036 -0.000253828 -0.000253803 -7.76824e-12
0.000853083 -0.000255943 -0.000255917 -7.82616e-12
0.000606763 -0.000182201 -0.000181955 -1.32693e-05
0.000725137 -0.000217642 -0.000217498 -7.18809e-06
0.00084956 -0.000254886 -0.00025486 -7.79562e-12
0.000731176 -0.000219455 -0.000219309 -7.18813e-06
0.000728156 -0.000218549 -0.000218403 -7.18811e-06
0.000604247 -0.000181445 -0.000181201 -1.32693e-05
0.000599216 -0.000179933 -0.000179693 -1.32692e-05
0.000838989 -0.000251714 -0.000251689 -7.71005e-12
0.000846036 -0.000253828 -0.000253803 -7.76793e-12
0.000601732 -0.000180689 -0.000180447 -1.32692e-05
0.000719098 -0.000215828 -0.000215687 -7.18805e-06
0.000842512 -0.000252771 -0.000252746 -7.73803e-12
0.000725137 -0.000217642 -0.000217498 -7.18809e-06
0.000722117 -0.000216735 -0.000216592 -7.18807e-06
0.000599216 -0.000179933 -0.000179693 -1.32692e-05
0.000594185 -0.00017842 -0.000178185 -1.32691e-05
0.000831942 -0.000249599 -0.000249575 -7.64154e-12
0.000838989 -0.000251714 -0.000251689 -7.71005e-12
0.000596701 -0.000179177 -0.000178939 -1.32691e-05
0.000713058 -0.000214015 -0.000213876 -7.188e-06
0.000835465 -0.000250657 -0.000250632 -7.68125e-12
0.000719098 -0.000215828 -0.000215687 -7.18805e-06
0.000716078 -0.000214922 -0.000214781 -7.18802e-06
0.000594185 -0.00017842 -0.000178185 -1.32691e-05
0.000589154 -0.000176908 -0.000176677 -1.3269e-05
0.000824894 -0.000247485 -0.000247461 -7.58321e-12
0.000831942 -0.000249599 -0.000249575 -7.64154e-12
0.00059167 -0.000177664 -0.000177431 -1.32691e-05
0.000707019 -0.000212202 -0.000212065 -7.18796e-06
0.000828418 -0.000248542 -0.000248518 -7.62762e-12
0.000713058 -0.000214015 -0.000213876 -7.188e-06
0.000710039 -0.000213108 -0.00021297 -7.18798e-06
0.000589154 -0.000176908 -0.000176677 -1.3269e-05
0.000584123 -0.000175396 -0.000175169 -1.3269e-05
0.000817847 -0.000245371 -0.000245347 -7.5139e-12
0.000824894 -0.000247485 -0.000247461 -7.57657e-12
0.000586638 -0.000176152 -0.000175923 -1.3269e-05
0.00070098 -0.000210388 -0.000210254 -7.18791e-06
0.000821371 -0.000246428 -0.000246404 -7.56073e-12
0.000707019 -0.000212202 -0.000212065 -7.18796e-06
0.000704 -0.000211295 -0.000211159 -7.18794e-06
0.000584123 -0.000175396 -0.000175169 -1.3269e-05
0.000579092 -0.000173884 -0.00017366 -1.32689e-05
0.0008108 -0.000243256 -0.000243233 -7.45097e-12
0.000817847 -0.000245371 -0.000245347 -7.50823e-12
0.000581607 -0.00017464 -0.000174415 -1.32689e-05
0.000694941 -0.000208575 -0.000208443 -7.18787e-06
0.000814323 -0.000244313 -0.00024429 -7.47438e-12
0.00070098 -0.000210388 -0.000210254 -7.18791e-06
0.000697961 -0.000209481 -0.000209348 -7.18789e-06
0.000579092 -0.000173884 -0.00017366 -1.32689e-05
0.00057406 -0.000172372 -0.000172152 -1.32688e-05
0.000803752 -0.000241142 -0.000241119 -7.39587e-12
0.0008108 -0.000243256 -0.000243233 -7.45097e-12
0.000576576 -0.000173128 -0.000172906 -1.32689e-05
0.000688902 -0.000206761 -0.000206632 -7.18783e-06
0.000807276 -0.000242199 -0.000242176 -7.42707e-12
0.000694941 -0.000208575 -0.000208443 -7.18787e-06
0.000691921 -0.000207668 -0.000207537 -7.18785e-06
0.00057406 -0.000172372 -0.000172152 -1.32688e-05
0.000569029 -0.00017086 -0.000170644 -1.32687e-05
0.000796705 -0.000239027 -0.000239005 -7.33455e-12
0.000803752 -0.000241142 -0.000241119 -7.39587e-12
0.000571545 -0.000171616 -0.000171398 -1.32688e-05
0.000682863 -0.000204948 -0.000204821 -7.18778e-06
0.000800229 -0.000240084 -0.000240062 -7.36482e-12
0.000688902 -0.000206761 -0.000206632 -7.18783e-06
0.000685882 -0.000205855 -0.000205726 -7.1878e-06
0.000569029 -0.00017086 -0.000170644 -1.32687e-05
0.000563998 -0.000169348 -0.000169136 -1.32687e-05
0.000789658 -0.000236913 -0.000236891 -7.2568e-12
0.000796705 -0.000239027 -0.000239005 -7.32761e-12
0.000566513 -0.000170104 -0.00016989 -1.32687e-05
0.000676823 -0.000203135 -0.00020301 -7.18774e-06
0.000793182 -0.00023797 -0.000237948 -7.28689e-12
0.000682863 -0.000204948 -0.000204821 -7.18778e-06
0.000679843 -0.000204041 -0.000203915 -7.18776e-06
0.000563998 -0.000169348 -0.000169136 -1.32687e-05
0.000558966 -0.000167835 -0.000167628 -1.32686e-05
0.000782611 -0.000234798 -0.000234777 -7.19791e-12
0.000789658 -0.000236913 -0.000236891 -7.27101e-12
0.000561482 -0.000168591 -0.000168382 -1.32686e-05
0.000670784 -0.000201321 -0.000201198 -7.18769e-06
0.000786134 -0.000235855 -0.000235834 -7.22165e-12
0.000676823 -0.000203135 -0.00020301 -7.18774e-06
0.000673804 -0.000202228 -0.000202104 -7.18771e-06
0.000558966 -0.000167835 -0.000167628 -1.32686e-05
0.000553935 -0.000166323 -0.000166119 -1.32685e-05
0.000775563 -0.000232684 -0.000232663 -7.15297e-12
0.000782611 -0.000234798 -0.000234777 -7.19791e-12
0.000556451 -0.000167079 -0.000166873 -1.32686e-05
0.000664745 -0.000199508 -0.000199387 -7.18765e-06
0.000779087 -0.000233741 -0.00023372 -7.18143e-12
0.000670784 -0.000201321 -0.000201198 -7.18769e-06
0.000667765 -0.000200415 -0.000200293 -7.18767e-06
0.000553935 -0.000166323 -0.000166119 -1.32685e-05
0.000548904 -0.000164811 -0.000164611 -1.32685e-05
0.000768516 -0.000230569 -0.000230549 -7.08438e-12
0.000775563 -0.000232684 -0.000232663 -7.15297e-12
0.000551419 -0.000165567 -0.000165365 -1.32685e-05
0.000658706 -0.000197694 -0.000197576 -7.1876e-06
0.00077204 -0.000231627 -0.000231606 -7.11675e-12
0.000664745 -0.000199508 -0.000199387 -7.18765e-06
0.000661725 -0.000198601 -0.000198482 -7.18763e-06
0.000548904 -0.000164811 -0.000164611 -1.32685e-05
0.000543872 -0.000163299 -0.000163103 -1.32684e-05
0.000761469 -0.000228455 -0.000228435 -7.02194e-12
0.000768516 -0.000230569 -0.000230549 -7.08479e-12
0.000546388 -0.000164055 -0.000163857 -1.32684e-05
0.000652666 -0.000195881 -0.000195765 -7.18756e-06
0.000764993 -0.000229512 -0.000229492 -7.05926e-12
0.000658706 -0.000197694 -0.000197576 -7.1876e-06
0.000655686 -0.000196788 -0.000196671 -7.18758e-06
0.000543872 -0.000163299 -0.000163103 -1.32684e-05
0.000538841 -0.000161787 -0.000161594 -1.32683e-05
0.000754422 -0.00022634 -0.000226321 -6.92813e-12
0.000761469 -0.000228455 -0.000228435 -7.03654e-12
0.000541357 -0.000162543 -0.000162349 -1.32683e-05
0.000646627 -0.000194068 -0.000193954 -7.18752e-06
0.000757945 -0.000227398 -0.000227378 -6.96883e-12
0.000652666 -0.000195881 -0.000195765 -7.18756e-06
0.000649647 -0.000194974 -0.00019486 -7.18754e-06
0.000538841 -0.000161787 -0.000161594 -1.32683e-05
0.00053381 -0.000160275 -0.000160086 -1.32682e-05
0.000747374 -0.000224226 -0.000224207 -6.88696e-12
0.000754422 -0.00022634 -0.000226321 -6.92813e-12
0.000536325 -0.000161031 -0.00016084 -1.32683e-05
0.000640588 -0.000192254 -0.000192143 -7.18747e-06
0.000750898 -0.000225283 -0.000225264 -6.90143e-12
0.000646627 -0.000194068 -0.000193954 -7.18752e-06
0.000643608 -0.000193161 -0.000193048 -7.18749e-06
0.00053381 -0.000160275 -0.000160086 -1.32682e-05
0.000528778 -0.000158763 -0.000158578 -1.32682e-05
0.000740327 -0.000222111 -0.000222092 -6.81179e-12
0.000747374 -0.000224226 -0.000224207 -6.88696e-12
0.000531294 -0.000159519 -0.000159332 -1.32682e-05
0.000634549 -0.000190441 -0.000190332 -7.18743e-06
0.000743851 -0.000223169 -0.000223149 -6.85949e-12
0.000640588 -0.000192254 -0.000192143 -7.18747e-06
0.000637568 -0.000191348 -0.000191237 -7.18745e-06
0.000528778 -0.000158763 -0.000158578 -1.32682e-05
0.000523747 -0.000157251 -0.00015707 -1.32681e-05
0.00073328 -0.000219997 -0.000219978 -6.73062e-12
0.000740327 -0.000222111 -0.000222092 -6.81184e-12
0.000526262 -0.000158007 -0.000157824 -1.32681e-05
0.000628509 -0.000188628 -0.000188521 -7.18738e-06
0.000736803 -0.000221054 -0.000221035 -6.76393e-12
0.000634549 -0.000190441 -0.000190332 -7.18743e-06
0.000631529 -0.000189535 -0.000189426 -7.18741e-06
0.000523747 -0.000157251 -0.00015707 -1.32681e-05
0.000518715 -0.000155739 -0.000155561 -1.3268e-05
0.000726233 -0.000217882 -0.000217864 -6.67282e-12
0.00073328 -0.000219997 -0.000219978 -6.75157e-12
0.000521231 -0.000156495 -0.000156315 -1.32681e-05
0.00062247 -0.000186815 -0.000186709 -7.18734e-06
0.000729756 -0.00021894 -0.000218921 -6.70455e-12
0.000628509 -0.000188628 -0.000188521 -7.18738e-06
0.00062549 -0.000187721 -0.000187615 -7.18736e-06
0.000518715 -0.000155739 -0.000155561 -1.3268e-05
0.000513684 -0.000154227 -0.000154053 -1.32679e-05
0.000719185 -0.000215768 -0.00021575 -6.61842e-12
0.000726233 -0.000217882 -0.000217864 -6.67282e-12
0.000516199 -0.000154983 -0.000154807 -1.3268e-05
0.000616431 -0.000185001 -0.000184898 -7.1873e-06
0.000722709 -0.000216825 -0.000216807 -6.67189e-12
0.00062247 -0.000186815 -0.000186709 -7.18734e-06
0.00061945 -0.000185908 -0.000185804 -7.18732e-06
0.000513684 -0.000154227 -0.000154053 -1.32679e-05
0.000508652 -0.000152715 -0.000152544 -1.32679e-05
0.000712138 -0.000213653 -0.000213636 -6.5511e-12
0.000719185 -0.000215768 -0.00021575 -6.61842e-12
0.000511168 -0.000153471 -0.000153299 -1.32679e-05
0.000610391 -0.000183188 -0.000183087 -7.18725e-06
0.000715662 -0.000214711 -0.000214693 -6.58864e-12
0.000616431 -0.000185001 -0.000184898 -7.1873e-06
0.000613411 -0.000184095 -0.000183993 -7.18727e-06
0.000508652 -0.000152715 -0.000152544 -1.32679e-05
0.000503621 -0.000151203 -0.000151036 -1.32678e-05
0.000705091 -0.000211539 -0.000211522 -6.49318e-12
0.000712138 -0.000213653 -0.000213636 -6.55313e-12
0.000506136 -0.000151959 -0.00015179 -1.32678e-05
0.000604352 -0.000181375 -0.000181276 -7.18721e-06
0.000708614 -0.000212596 -0.000212579 -6.50901e-12
0.000610391 -0.000183188 -0.000183087 -7.18725e-06
0.000607372 -0.000182281 -0.000182182 -7.18723e-06
0.000503621 -0.000151203 -0.000151036 -1.32678e-05
0.000498589 -0.000149691 -0.000149528 -1.32677e-05
0.000698043 -0.000209425 -0.000209408 -6.45768e-12
0.000705091 -0.000211539 -0.000211522 -6.51182e-12
0.000501105 -0.000150447 -0.000150282 -1.32678e-05
0.000598313 -0.000179561 -0.000179465 -7.18717e-06
0.000701567 -0.000210482 -0.000210465 -6.45405e-12
0.000604352 -0.000181375 -0.000181276 -7.18721e-06
0.000601332 -0.000180468 -0.00018037 -7.18719e-06
0.000498589 -0.000149691 -0.000149528 -1.32677e-05
0.000493557 -0.000148179 -0.000148019 -1.32677e-05
0.000690996 -0.00020731 -0.000207294 -6.36661e-12
0.000698043 -0.000209425 -0.000209408 -6.45768e-12
0.000496073 -0.000148935 -0.000148773 -1.32677e-05
0.000592273 -0.000177748 -0.000177654 -7.18712e-06
0.00069452 -0.000208367 -0.000208351 -6.39082e-12
0.000598313 -0.000179561 -0.000179465 -7.18717e-06
0.000595293 -0.000178655 -0.000178559 -7.18714e-06
0.000493557 -0.000148179 -0.000148019 -1.32677e-05
0.000488526 -0.000146668 -0.000146511 -1.32676e-05
0.000683949 -0.000205196 -0.00020518 -6.30352e-12
0.000690996 -0.00020731 -0.000207294 -6.36661e-12
0.000491042 -0.000147424 -0.000147265 -1.32676e-05
0.000586234 -0.000175935 -0.000175842 -7.18708e-06
0.000687472 -0.000206253 -0.000206237 -6.31889e-12
0.000592273 -0.000177748 -0.000177654 -7.18712e-06
0.000589254 -0.000176842 -0.000176748 -7.1871e-06
0.000488526 -0.000146668 -0.000146511 -1.32676e-05
0.000483494 -0.000145156 -0.000145002 -1.32675e-05
0.000676902 -0.000203081 -0.000203066 -6.22539e-12
0.000683949 -0.000205196 -0.00020518 -6.28961e-12
0.00048601 -0.000145912 -0.000145756 -1.32676e-05
0.000580194 -0.000174122 -0.000174031 -7.18703e-06
0.000680425 -0.000204138 -0.000204123 -6.2862e-12
0.000586234 -0.000175935 -0.000175842 -7.18708e-06
0.000583214 -0.000175028 -0.000174937 -7.18706e-06
0.000483494 -0.000145156 -0.000145002 -1.32675e-05
0.000478462 -0.000143644 -0.000143494 -1.32674e-05
0.000669854 -0.000200967 -0.000200952 -6.1731e-12
0.000676902 -0.000203081 -0.000203066 -6.22543e-12
0.000480978 -0.0001444 -0.000144248 -1.32675e-05
0.000574155 -0.000172308 -0.00017222 -7.18699e-06
0.000673378 -0.000202024 -0.000202009 -6.19392e-12
0.000580194 -0.000174122 -0.000174031 -7.18703e-06
0.000577175 -0.000173215 -0.000173126 -7.18701e-06
0.000478462 -0.000143644 -0.000143494 -1.32674e-05
0.000473431 -0.000142132 -0.000141985 -1.32674e-05
0.000662807 -0.000198852 -0.000198838 -6.10846e-12
0.000669854 -0.000200967 -0.000200952 -6.1731e-12
0.000475946 -0.000142888 -0.000142739 -1.32674e-05
0.000568116 -0.000170495 -0.000170409 -7.18695e-06
0.000666331 -0.000199909 -0.000199895 -6.14954e-12
0.000574155 -0.000172308 -0.00017222 -7.18699e-06
0.000571135 -0.000171402 -0.000171314 -7.18697e-06
0.000473431 -0.000142132 -0.000141985 -1.32674e-05
0.000468399 -0.00014062 -0.000140477 -1.32673e-05
0.00065576 -0.000196738 -0.000196724 -6.06389e-12
0.000662807 -0.000198852 -0.000198838 -6.10846e-12
0.000470915 -0.000141376 -0.000141231 -1.32673e-05
0.000562076 -0.000168682 -0.000168598 -7.1869e-06
0.000659283 -0.000197795 -0.000197781 -6.08447e-12
0.000568116 -0.000170495 -0.000170409 -7.18695e-06
0.000565096 -0.000169589 -0.000169503 -7.18693e-06
0.000468399 -0.00014062 -0.000140477 -1.32673e-05
0.000463367 -0.000139108 -0.000138968 -1.32672e-05
0.000648712 -0.000194623 -0.00019461 -5.96518e-12
0.00065576 -0.000196738 -0.000196724 -6.06379e-12
0.000465883 -0.000139864 -0.000139722 -1.32673e-05
0.000556037 -0.000166869 -0.000166786 -7.18686e-06
0.000652236 -0.00019568 -0.000195667 -6.00703e-12
0.000562076 -0.000168682 -0.000168598 -7.1869e-06
0.000559056 -0.000167775 -0.000167692 -7.18688e-06
0.000463367 -0.000139108 -0.000138968 -1.32672e-05
0.000458335 -0.000137597 -0.000137459 -1.32672e-05
0.000641665 -0.000192509 -0.000192496 -5.90596e-12
0.000648712 -0.000194623 -0.00019461 -5.96461e-12
0.000460851 -0.000138352 -0.000138214 -1.32672e-05
0.000549997 -0.000165056 -0.000164975 -7.18682e-06
0.000645189 -0.000193566 -0.000193553 -5.90774e-12
0.000556037 -0.000166869 -0.000166786 -7.18686e-06
0.000553017 -0.000165962 -0.000165881 -7.18684e-06
0.000458335 -0.000137597 -0.000137459 -1.32672e-05
0.000453304 -0.000136085 -0.000135951 -1.32671e-05
0.000634618 -0.000190394 -0.000190381 -5.84041e-12
0.000641665 -0.000192509 -0.000192496 -5.90596e-12
0.000455819 -0.000136841 -0.000136705 -1.32671e-05
0.000543958 -0.000163242 -0.000163164 -7.18677e-06
0.000638141 -0.000191451 -0.000191439 -5.88583e-12
0.000549997 -0.000165056 -0.000164975 -7.18682e-06
0.000546978 -0.000164149 -0.000164069 -7.1868e-06
0.000453304 -0.000136085 -0.000135951 -1.32671e-05
0.000448272 -0.000134573 -0.000134442 -1.3267e-05
0.00062757 -0.00018828 -0.000188267 -5.76981e-12
0.000634618 -0.000190394 -0.000190381 -5.84041e-12
0.000450788 -0.000135329 -0.000135197 -1.32671e-05
0.000537918 -0.000161429 -0.000161352 -7.18673e-06
0.000631094 -0.000189337 -0.000189324 -5.82106e-12
0.000543958 -0.000163242 -0.000163164 -7.18677e-06
0.000540938 -0.000162336 -0.000162258 -7.18675e-06
0.000448272 -0.000134573 -0.000134442 -1.3267e-05
0.00044324 -0.000133061 -0.000132934 -1.32669e-05
0.000620523 -0.000186165 -0.000186153 -5.72784e-12
0.00062757 -0.00018828 -0.000188267 -5.7959e-12
0.000445756 -0.000133817 -0.000133688 -1.3267e-05
0.000531879 -0.000159616 -0.000159541 -7.18669e-06
0.000624047 -0.000187223 -0.00018721 -5.74558e-12
0.000537918 -0.000161429 -0.000161352 -7.18673e-06
0.000534899 -0.000160523 -0.000160447 -7.18671e-06
0.00044324 -0.000133061 -0.000132934 -1.32669e-05
0.000438208 -0.00013155 -0.000131425 -1.32669e-05
0.000613476 -0.000184051 -0.000184039 -5.68704e-12
0.000620523 -0.000186165 -0.000186153 -5.72749e-12
0.000440724 -0.000132305 -0.000132179 -1.32669e-05
0.000525839 -0.000157803 -0.00015773 -7.18664e-06
0.000616999 -0.000185108 -0.000185096 -5.69607e-12
0.000531879 -0.000159616 -0.000159541 -7.18669e-06
0.000528859 -0.000158709 -0.000158636 -7.18667e-06
0.000438208 -0.00013155 -0.000131425 -1.32669e-05
0.000433176 -0.000130038 -0.000129916 -1.32668e-05
0.000606428 -0.000181936 -0.000181925 -5.59365e-12
0.000613476 -0.000184051 -0.000184039 -5.68704e-12
0.000435692 -0.000130794 -0.000130671 -1.32668e-05
0.0005198 -0.00015599 -0.000155919 -7.1866e-06
0.000609952 -0.000182994 -0.000182982 -5.62904e-12
0.000525839 -0.000157803 -0.00015773 -7.18664e-06
0.000522819 -0.000156896 -0.000156824 -7.18662e-06
0.000433176 -0.000130038 -0.000129916 -1.32668e-05
0.000428144 -0.000128526 -0.000128408 -1.32667e-05
0.000599381 -0.000179822 -0.000179811 -5.51506e-12
0.000606428 -0.000181936 -0.000181925 -5.59365e-12
0.00043066 -0.000129282 -0.000129162 -1.32668e-05
0.00051376 -0.000154177 -0.000154107 -7.18656e-06
0.000602905 -0.000180879 -0.000180868 -5.53895e-12
0.0005198 -0.00015599 -0.000155919 -7.1866e-06
0.00051678 -0.000155083 -0.000155013 -7.18658e-06
0.000428144 -0.000128526 -0.000128408 -1.32667e-05
0.000423112 -0.000127014 -0.000126899 -1.32667e-05
0.000592334 -0.000177707 -0.000177697 -5.45492e-12
0.000599381 -0.000179822 -0.000179811 -5.51541e-12
0.000425628 -0.00012777 -0.000127653 -1.32667e-05
0.000507721 -0.000152363 -0.000152296 -7.18652e-06
0.000595857 -0.000178765 -0.000178754 -5.49127e-12
0.00051376 -0.000154177 -0.000154107 -7.18656e-06
0.00051074 -0.00015327 -0.000153202 -7.18654e-06
0.000423112 -0.000127014 -0.000126899 -1.32667e-05
0.00041808 -0.000125503 -0.00012539 -1.32666e-05
0.000585286 -0.000175593 -0.000175583 -5.41595e-12
0.000592334 -0.000177707 -0.000177697 -5.45445e-12
0.000420596 -0.000126259 -0.000126145 -1.32666e-05
0.000501681 -0.00015055 -0.000150485 -7.18647e-06
0.00058881 -0.00017665 -0.00017664 -5.44362e-12
0.000507721 -0.000152363 -0.000152296 -7.18652e-06
0.000504701 -0.000151457 -0.00015139 -7.18649e-06
0.00041808 -0.000125503 -0.00012539 -1.32666e-05
0.000413048 -0.000123991 -0.000123882 -1.32665e-05
0.000578239 -0.000173478 -0.000173469 -5.32311e-12
0.000585286 -0.000175593 -0.000175583 -5.41595e-12
0.000415564 -0.000124747 -0.000124636 -1.32666e-05
0.000495641 -0.000148737 -0.000148673 -7.18643e-06
0.000581763 -0.000174536 -0.000174526 -5.34505e-12
0.000501681 -0.00015055 -0.000150485 -7.18647e-06
0.000498661 -0.000149644 -0.000149579 -7.18645e-06
0.000413048 -0.000123991 -0.000123882 -1.32665e-05
0.000408016 -0.000122479 -0.000122373 -1.32665e-05
0.000571192 -0.000171364 -0.000171355 -5.25939e-12
0.000578239 -0.000173478 -0.000173469 -5.32311e-12
0.000410532 -0.000123235 -0.000123127 -1.32665e-05
0.000489602 -0.000146924 -0.000146862 -7.18639e-06
0.000574715 -0.000172421 -0.000172412 -5.3144e-12
0.000495641 -0.000148737 -0.000148673 -7.18643e-06
0.000492622 -0.000147831 -0.000147768 -7.18641e-06
0.000408016 -0.000122479 -0.000122373 -1.32665e-05
0.000402984 -0.000120968 -0.000120864 -1.32664e-05
0.000564144 -0.000169249 -0.000169241 -5.20988e-12
0.000571192 -0.000171364 -0.000171355 -5.28592e-12
0.0004055 -0.000121724 -0.000121619 -1.32664e-05
0.000483562 -0.000145111 -0.00014505 -7.18635e-06
0.000567668 -0.000170307 -0.000170298 -5.23531e-12
0.000489602 -0.000146924 -0.000146862 -7.18639e-06
0.000486582 -0.000146017 -0.000145956 -7.18637e-06
0.000402984 -0.000120968 -0.000120864 -1.32664e-05
0.000397952 -0.000119456 -0.000119355 -1.32663e-05
0.000557097 -0.000167135 -0.000167127 -5.16621e-12
0.000564144 -0.000169249 -0.000169241 -5.20988e-12
0.000400468 -0.000120212 -0.00012011 -1.32664e-05
0.000477522 -0.000143298 -0.000143239 -7.1863e-06
0.000560621 -0.000168192 -0.000168184 -5.16798e-12
0.000483562 -0.000145111 -0.00014505 -7.18635e-06
0.000480542 -0.000144204 -0.000144145 -7.18633e-06
0.000397952 -0.000119456 -0.000119355 -1.32663e-05
0.00039292 -0.000117945 -0.000117847 -1.32663e-05
0.00055005 -0.00016502 -0.000165013 -5.09249e-12
0.000557097 -0.000167135 -0.000167127 -5.16621e-12
0.000395436 -0.0001187 -0.000118601 -1.32663e-05
0.000471483 -0.000141485 -0.000141428 -7.18626e-06
0.000553573 -0.000166078 -0.00016607 -5.1194e-12
0.000477522 -0.000143298 -0.000143239 -7.1863e-06
0.000474503 -0.000142391 -0.000142333 -7.18628e-06
0.00039292 -0.000117945 -0.000117847 -1.32663e-05
0.000387888 -0.000116433 -0.000116338 -1.32662e-05
0.000543002 -0.000162906 -0.000162898 -5.01127e-12
0.00055005 -0.00016502 -0.000165013 -5.09249e-12
0.000390404 -0.000117189 -0.000117092 -1.32662e-05
0.000465443 -0.000139672 -0.000139616 -7.18622e-06
0.000546526 -0.000163963 -0.000163956 -5.06784e-12
0.000471483 -0.000141485 -0.000141428 -7.18626e-06
0.000468463 -0.000140578 -0.000140522 -7.18624e-06
0.000387888 -0.000116433 -0.000116338 -1.32662e-05
0.000382856 -0.000114922 -0.000114829 -1.32661e-05
0.000535955 -0.000160791 -0.000160784 -4.94831e-12
0.000543002 -0.000162906 -0.000162898 -5.01127e-12
0.000385372 -0.000115677 -0.000115583 -1.32661e-05
0.000459403 -0.000137859 -0.000137805 -7.18618e-06
0.000539479 -0.000161849 -0.000161841 -4.99507e-12
0.000465443 -0.000139672 -0.000139616 -7.18622e-06
0.000462423 -0.000138765 -0.000138711 -7.1862e-06
0.000382856 -0.000114922 -0.000114829 -1.32661e-05
0.000377824 -0.00011341 -0.00011332 -1.3266e-05
0.000528908 -0.000158677 -0.00015867 -4.86959e-12
0.000535955 -0.000160791 -0.000160784 -4.94805e-12
0.00038034 -0.000114166 -0.000114075 -1.32661e-05
0.000453364 -0.000136045 -0.000135994 -7.18614e-06
0.000532431 -0.000159734 -0.000159727 -4.92057e-12
0.000459403 -0.000137859 -0.000137805 -7.18618e-06
0.000456384 -0.000136952 -0.000136899 -7.18616e-06
0.000377824 -0.00011341 -0.00011332 -1.3266e-05
0.000372791 -0.000111898 -0.000111811 -1.3266e-05
0.00052186 -0.000156562 -0.000156556 -4.81848e-12
0.000528908 -0.000158677 -0.00015867 -4.86959e-12
0.000375308 -0.000112654 -0.000112566 -1.3266e-05
0.000447324 -0.000134232 -0.000134182 -7.18609e-06
0.000525384 -0.00015762 -0.000157613 -4.85734e-12
0.000453364 -0.000136045 -0.000135994 -7.18614e-06
0.000450344 -0.000135139 -0.000135088 -7.18612e-06
0.000372791 -0.000111898 -0.000111811 -1.3266e-05
0.000367759 -0.000110387 -0.000110302 -1.32659e-05
0.000514813 -0.000154448 -0.000154442 -4.76271e-12
0.00052186 -0.000156562 -0.000156556 -4.81848e-12
0.000370275 -0.000111143 -0.000111057 -1.32659e-05
0.000441284 -0.000132419 -0.000132371 -7.18605e-06
0.000518337 -0.000155505 -0.000155499 -4.80386e-12
0.000447324 -0.000134232 -0.000134182 -7.18609e-06
0.000444304 -0.000133326 -0.000133276 -7.18607e-06
0.000367759 -0.000110387 -0.000110302 -1.32659e-05
0.000362727 -0.000108875 -0.000108794 -1.32658e-05
0.000507766 -0.000152334 -0.000152328 -4.7119e-12
0.000514813 -0.000154448 -0.000154442 -4.78853e-12
0.000365243 -0.000109631 -0.000109548 -1.32659e-05
0.000435244 -0.000130606 -0.000130559 -7.18601e-06
0.000511289 -0.000153391 -0.000153385 -4.7324e-12
0.000441284 -0.000132419 -0.000132371 -7.18605e-06
0.000438264 -0.000131513 -0.000131465 -7.18603e-06
0.000362727 -0.000108875 -0.000108794 -1.32658e-05
0.000357695 -0.000107364 -0.000107285 -1.32658e-05
0.000500718 -0.000150219 -0.000150214 -4.65382e-12
0.000507766 -0.000152334 -0.000152328 -4.71201e-12
0.000360211 -0.00010812 -0.000108039 -1.32658e-05
0.000429205 -0.000128793 -0.000128748 -7.18597e-06
0.000504242 -0.000151276 -0.000151271 -4.68232e-12
0.000435244 -0.000130606 -0.000130559 -7.18601e-06
0.000432225 -0.0001297 -0.000129653 -7.18599e-06
0.000357695 -0.000107364 -0.000107285 -1.32658e-05
0.000352662 -0.000105852 -0.000105776 -1.32657e-05
0.000493671 -0.000148105 -0.0001481 -4.60051e-12
0.000500718 -0.000150219 -0.000150214 -4.65382e-12
0.000355179 -0.000106608 -0.00010653 -1.32657e-05
0.000423165 -0.00012698 -0.000126936 -7.18593e-06
0.000497195 -0.000149162 -0.000149157 -4.60503e-12
0.000429205 -0.000128793 -0.000128748 -7.18597e-06
0.000426185 -0.000127887 -0.000127842 -7.18595e-06
0.000352662 -0.000105852 -0.000105776 -1.32657e-05
0.00034763 -0.000104341 -0.000104267 -1.32656e-05
0.000486623 -0.00014599 -0.000145986 -4.51821e-12
0.000493671 -0.000148105 -0.0001481 -4.60051e-12
0.000350146 -0.000105097 -0.000105021 -1.32657e-05
0.000417125 -0.000125167 -0.000125125 -7.18589e-06
0.000490147 -0.000147047 -0.000147043 -4.53761e-12
0.000423165 -0.00012698 -0.000126936 -7.18593e-06
0.000420145 -0.000126074 -0.000126031 -7.18591e-06
0.00034763 -0.000104341 -0.000104267 -1.32656e-05
0.000342598 -0.00010283 -0.000102758 -1.32656e-05
0.000479576 -0.000143876 -0.000143872 -4.44455e-12
0.000486623 -0.00014599 -0.000145986 -4.51833e-12
0.000345114 -0.000103585 -0.000103512 -1.32656e-05
0.000411085 -0.000123354 -0.000123313 -7.18585e-06
0.0004831 -0.000144933 -0.000144929 -4.46199e-12
0.000417125 -0.000125167 -0.000125125 -7.18589e-06
0.000414105 -0.000124261 -0.000124219 -7.18587e-06
0.000342598 -0.00010283 -0.000102758 -1.32656e-05
0.000337565 -0.000101318 -0.000101249 -1.32655e-05
0.000472529 -0.000141761 -0.000141758 -4.3917e-12
0.000479576 -0.000143876 -0.000143872 -4.43103e-12
0.000340082 -0.000102074 -0.000102003 -1.32655e-05
0.000405045 -0.000121541 -0.000121502 -7.18581e-06
0.000476052 -0.000142818 -0.000142815 -4.42985e-12
0.000411085 -0.000123354 -0.000123313 -7.18585e-06
0.000408065 -0.000122448 -0.000122408 -7.18583e-06
0.000337565 -0.000101318 -0.000101249 -1.32655e-05
0.000332533 -9.98067e-05 -9.97398e-05 -1.32654e-05
0.000465481 -0.000139647 -0.000139643 -4.3195e-12
0.000472529 -0.000141761 -0.000141758 -4.3917e-12
0.000335049 -0.000100562 -0.000100494 -1.32655e-05
0.000399006 -0.000119728 -0.00011969 -7.18577e-06
0.000469005 -0.000140704 -0.0001407 -4.35433e-12
0.000405045 -0.000121541 -0.000121502 -7.18581e-06
0.000402026 -0.000120635 -0.000120596 -7.18579e-06
0.000332533 -9.98067e-05 -9.97398e-05 -1.32654e-05
0.000327501 -9.82954e-05 -9.82308e-05 -1.32654e-05
0.000458434 -0.000137532 -0.000137529 -4.26054e-12
0.000465481 -0.000139647 -0.000139643 -4.3195e-12
0.000330017 -9.9051e-05 -9.89853e-05 -1.32654e-05
0.000392966 -0.000117915 -0.000117879 -7.18572e-06
0.000461958 -0.000138589 -0.000138586 -4.28526e-12
0.000399006 -0.000119728 -0.00011969 -7.18577e-06
0.000395986 -0.000118822 -0.000118785 -7.18575e-06
0.000327501 -9.82954e-05 -9.82308e-05 -1.32654e-05
0.000322468 -9.6784e-05 -9.67218e-05 -1.32653e-05
0.000451386 -0.000135418 -0.000135415 -4.17362e-12
0.000458434 -0.000137532 -0.000137529 -4.26984e-12
0.000324984 -9.75397e-05 -9.74763e-05 -1.32653e-05
0.000386926 -0.000116102 -0.000116067 -7.18568e-06
0.00045491 -0.000136475 -0.000136472 -4.2463e-12
0.000392966 -0.000117915 -0.000117879 -7.18572e-06
0.000389946 -0.000117009 -0.000116973 -7.1857e-06
0.000322468 -9.6784e-05 -9.67218e-05 -1.32653e-05
0.000317436 -9.52726e-05 -9.52127e-05 -1.32652e-05
0.000444339 -0.000133303 -0.000133301 -4.12382e-12
0.000451386 -0.000135418 -0.000135415 -4.17362e-12
0.000319952 -9.60283e-05 -9.59673e-05 -1.32653e-05
0.000380886 -0.000114289 -0.000114256 -7.18564e-06
0.000447863 -0.00013436 -0.000134358 -4.15665e-12
0.000386926 -0.000116102 -0.000116067 -7.18568e-06
0.000383906 -0.000115196 -0.000115161 -7.18566e-06
0.000317436 -9.52726e-05 -9.52127e-05 -1.32652e-05
0.000312403 -9.37613e-05 -9.37037e-05 -1.32652e-05
0.000437292 -0.000131189 -0.000131187 -4.07387e-12
0.000444339 -0.000133303 -0.000133301 -4.12382e-12
0.000314919 -9.45169e-05 -9.44582e-05 -1.32652e-05
0.000374846 -0.000112476 -0.000112444 -7.1856e-06
0.000440815 -0.000132246 -0.000132244 -4.10727e-12
0.000380886 -0.000114289 -0.000114256 -7.18564e-06
0.000377866 -0.000113383 -0.00011335 -7.18562e-06
0.000312403 -9.37613e-05 -9.37037e-05 -1.32652e-05
0.000307371 -9.22499e-05 -9.21946e-05 -1.32651e-05
0.000430244 -0.000129074 -0.000129073 -4.01426e-12
0.000437292 -0.000131189 -0.000131187 -4.07387e-12
0.000309887 -9.30056e-05 -9.29491e-05 -1.32651e-05
0.000368806 -0.000110663 -0.000110633 -7.18556e-06
0.000433768 -0.000130131 -0.00013013 -4.0339e-12
0.000374846 -0.000112476 -0.000112444 -7.1856e-06
0.000371826 -0.00011157 -0.000111538 -7.18558e-06
0.000307371 -9.22499e-05 -9.21946e-05 -1.32651e-05
0.000302338 -9.07386e-05 -9.06855e-05 -1.3265e-05
0.000423197 -0.00012696 -0.000126959 -3.96931e-12
0.000430244 -0.000129074 -0.000129073 -4.01426e-12
0.000304854 -9.14943e-05 -9.144e-05 -1.32651e-05
0.000362766 -0.00010885 -0.000108821 -7.18552e-06
0.00042672 -0.000128017 -0.000128016 -3.95903e-12
0.000368806 -0.000110663 -0.000110633 -7.18556e-06
0.000365786 -0.000109757 -0.000109727 -7.18554e-06
0.000302338 -9.07386e-05 -9.06855e-05 -1.3265e-05
0.000297306 -8.92273e-05 -8.91764e-05 -1.3265e-05
0.000416149 -0.000124845 -0.000124845 -3.88506e-12
0.000423197 -0.00012696 -0.000126959 -3.98257e-12
0.000299822 -8.9983e-05 -8.99309e-05 -1.3265e-05
0.000356726 -0.000107037 -0.000107009 -7.18548e-06
0.000419673 -0.000125902 -0.000125902 -3.89177e-12
0.000362766 -0.00010885 -0.000108821 -7.18552e-06
0.000359746 -0.000107944 -0.000107915 -7.1855e-06
0.000297306 -8.92273e-05 -8.91764e-05 -1.3265e-05
0.000292273 -8.7716e-05 -8.76672e-05 -1.32649e-05
0.000409102 -0.000122731 -0.000122731 -3.78612e-12
0.000416149 -0.000124845 -0.000124845 -3.88506e-12
0.000294789 -8.84717e-05 -8.84218e-05 -1.3265e-05
0.000350686 -0.000105225 -0.000105198 -7.18544e-06
0.000412626 -0.000123788 -0.000123788 -3.8115e-12
0.000356726 -0.000107037 -0.000107009 -7.18548e-06
0.000353706 -0.000106131 -0.000106104 -7.18546e-06
0.000292273 -8.7716e-05 -8.76672e-05 -1.32649e-05
0.00028724 -8.62047e-05 -8.61581e-05 -1.32649e-05
0.000402054 -0.000120616 -0.000120616 -3.73925e-12
0.000409102 -0.000122731 -0.000122731 -3.78612e-12
0.000289757 -8.69604e-05 -8.69127e-05 -1.32649e-05
0.000344646 -0.000103412 -0.000103386 -7.18541e-06
0.000405578 -0.000121673 -0.000121673 -3.73392e-12
0.000350686 -0.000105225 -0.000105198 -7.18544e-06
0.000347666 -0.000104318 -0.000104292 -7.18543e-06
0.00028724 -8.62047e-05 -8.61581e-05 -1.32649e-05
0.000282208 -8.46935e-05 -8.46489e-05 -1.32648e-05
0.000395007 -0.000118502 -0.000118502 -3.68359e-12
0.000402054 -0.000120616 -0.000120616 -3.76531e-12
0.000284724 -8.54491e-05 -8.54035e-05 -1.32648e-05
0.000338606 -0.000101599 -0.000101575 -7.18537e-06
0.000398531 -0.000119559 -0.000119559 -3.70545e-12
0.000344646 -0.000103412 -0.000103386 -7.18541e-06
0.000341626 -0.000102505 -0.00010248 -7.18539e-06
0.000282208 -8.46935e-05 -8.46489e-05 -1.32648e-05
0.000277175 -8.31822e-05 -8.31397e-05 -1.32647e-05
0.000387959 -0.000116387 -0.000116388 -3.60575e-12
0.000395007 -0.000118502 -0.000118502 -3.68324e-12
0.000279691 -8.39379e-05 -8.38943e-05 -1.32648e-05
0.000332566 -9.97857e-05 -9.9763e-05 -7.18533e-06
0.000391483 -0.000117444 -0.000117445 -3.69207e-12
0.000338606 -0.000101599 -0.000101575 -7.18537e-06
0.000335586 -0.000100692 -0.000100669 -7.18535e-06
0.000277175 -8.31822e-05 -8.31397e-05 -1.32647e-05
0.000272142 -8.1671e-05 -8.16305e-05 -1.32647e-05
0.000380912 -0.000114273 -0.000114274 -3.5474e-12
0.000387959 -0.000116387 -0.000116388 -3.60575e-12
0.000274659 -8.24266e-05 -8.23851e-05 -1.32647e-05
0.000326526 -9.79728e-05 -9.79514e-05 -7.18529e-06
0.000384436 -0.00011533 -0.000115331 -3.59419e-12
0.000332566 -9.97857e-05 -9.9763e-05 -7.18533e-06
0.000329546 -9.88793e-05 -9.88572e-05 -7.18531e-06
0.000272142 -8.1671e-05 -8.16305e-05 -1.32647e-05
0.000267109 -8.01598e-05 -8.01213e-05 -1.32646e-05
0.000373864 -0.000112158 -0.00011216 -3.47608e-12
0.000380912 -0.000114273 -0.000114274 -3.5474e-12
0.000269626 -8.09154e-05 -8.08759e-05 -1.32646e-05
0.000320486 -9.61599e-05 -9.61397e-05 -7.18525e-06
0.000377388 -0.000113215 -0.000113217 -3.49154e-12
0.000326526 -9.79728e-05 -9.79514e-05 -7.18529e-06
0.000323506 -9.70664e-05 -9.70455e-05 -7.18527e-06
0.000267109 -8.01598e-05 -8.01213e-05 -1.32646e-05
0.000262077 -7.86486e-05 -7.8612e-05 -1.32645e-05
0.000366817 -0.000110044 -0.000110046 -3.44285e-12
0.000373864 -0.000112158 -0.00011216 -3.47573e-12
0.000264593 -7.94042e-05 -7.93667e-05 -1.32646e-05
0.000314446 -9.43471e-05 -9.43281e-05 -7.18521e-06
0.000370341 -0.000111101 -0.000111103 -3.43918e-12
0.000320486 -9.61599e-05 -9.61397e-05 -7.18525e-06
0.000317466 -9.52535e-05 -9.52339e-05 -7.18523e-06
0.000262077 -7.86486e-05 -7.8612e-05 -1.32645e-05
0.000257044 -7.71374e-05 -7.71028e-05 -1.32645e-05
0.000359769 -0.000107929 -0.000107932 -3.35171e-12
0.000366817 -0.000110044 -0.000110046 -3.44617e-12
0.00025956 -7.7893e-05 -7.78574e-05 -1.32645e-05
0.000308406 -9.25342e-05 -9.25164e-05 -7.18517e-06
0.000363293 -0.000108986 -0.000108989 -3.4148e-12
0.000314446 -9.43471e-05 -9.43281e-05 -7.18521e-06
0.000311426 -9.34406e-05 -9.34222e-05 -7.18519e-06
0.000257044 -7.71374e-05 -7.71028e-05 -1.32645e-05
0.000252011 -7.56263e-05 -7.55935e-05 -1.32644e-05
0.000352722 -0.000105815 -0.000105817 -3.31718e-12
0.000359769 -0.000107929 -0.000107932 -3.35171e-12
0.000254527 -7.63818e-05 -7.63481e-05 -1.32644e-05
0.000302366 -9.07213e-05 -9.07047e-05 -7.18513e-06
0.000356246 -0.000106872 -0.000106875 -3.35546e-12
0.000308406 -9.25342e-05 -9.25164e-05 -7.18517e-06
0.000305386 -9.16277e-05 -9.16105e-05 -7.18515e-06
0.000252011 -7.56263e-05 -7.55935e-05 -1.32644e-05
0.000246978 -7.41151e-05 -7.40842e-05 -1.32644e-05
0.000345674 -0.0001037 -0.000103703 -3.26145e-12
0.000352722 -0.000105815 -0.000105817 -3.26397e-12
0.000249495 -7.48707e-05 -7.48388e-05 -1.32644e-05
0.000296325 -8.89084e-05 -8.8893e-05 -7.1851e-06
0.000349198 -0.000104757 -0.00010476 -3.26428e-12
0.000302366 -9.07213e-05 -9.07047e-05 -7.18513e-06
0.000299346 -8.98149e-05 -8.97989e-05 -7.18511e-06
0.000246978 -7.41151e-05 -7.40842e-05 -1.32644e-05
0.000241945 -7.2604e-05 -7.25749e-05 -1.32643e-05
0.000338627 -0.000101586 -0.000101589 -3.13333e-12
0.000345674 -0.0001037 -0.000103703 -3.26145e-12
0.000244462 -7.33595e-05 -7.33295e-05 -1.32643e-05
0.000290285 -8.70956e-05 -8.70813e-05 -7.18506e-06
0.000342151 -0.000102643 -0.000102646 -3.20182e-12
0.000296325 -8.89084e-05 -8.8893e-05 -7.1851e-06
0.000293305 -8.8002e-05 -8.79872e-05 -7.18508e-06
0.000241945 -7.2604e-05 -7.25749e-05 -1.32643e-05
0.000236912 -7.10928e-05 -7.10655e-05 -1.32642e-05
0.000331579 -9.9471e-05 -9.9475e-05 -3.11999e-12
0.000338627 -0.000101586 -0.000101589 -3.13333e-12
0.000239429 -7.18484e-05 -7.18202e-05 -1.32643e-05
0.000284245 -8.52827e-05 -8.52696e-05 -7.18502e-06
0.000335103 -0.000100528 -0.000100532 -3.16609e-12
0.000290285 -8.70956e-05 -8.70813e-05 -7.18506e-06
0.000287265 -8.61891e-05 -8.61755e-05 -7.18504e-06
0.000236912 -7.10928e-05 -7.10655e-05 -1.32642e-05
0.00023188 -6.95817e-05 -6.95562e-05 -1.32642e-05
0.000324532 -9.73565e-05 -9.73608e-05 -3.03303e-12
0.000331579 -9.9471e-05 -9.9475e-05 -3.12011e-12
0.000234396 -7.03373e-05 -7.03109e-05 -1.32642e-05
0.000278205 -8.34699e-05 -8.34579e-05 -7.18498e-06
0.000328056 -9.84138e-05 -9.84179e-05 -3.08064e-12
0.000284245 -8.52827e-05 -8.52696e-05 -7.18502e-06
0.000281225 -8.43763e-05 -8.43637e-05 -7.185e-06
0.00023188 -6.95817e-05 -6.95562e-05 -1.32642e-05
0.000226847 -6.80706e-05 -6.80468e-05 -1.32641e-05
0.000317484 -9.5242e-05 -9.52467e-05 -2.97039e-12
0.000324532 -9.73565e-05 -9.73608e-05 -3.00614e-12
0.000229363 -6.88262e-05 -6.88015e-05 -1.32641e-05
0.000272165 -8.1657e-05 -8.16461e-05 -7.18494e-06
0.000321008 -9.62992e-05 -9.63038e-05 -3.04767e-12
0.000278205 -8.34699e-05 -8.34579e-05 -7.18498e-06
0.000275185 -8.25635e-05 -8.2552e-05 -7.18496e-06
0.000226847 -6.80706e-05 -6.80468e-05 -1.32641e-05
0.000221814 -6.65596e-05 -6.65374e-05 -1.32641e-05
0.000310437 -9.31275e-05 -9.31325e-05 -2.92186e-12
0.000317484 -9.5242e-05 -9.52467e-05 -2.97039e-12
0.00022433 -6.73151e-05 -6.72921e-05 -1.32641e-05
0.000266124 -7.98442e-05 -7.98344e-05 -7.18491e-06
0.00031396 -9.41847e-05 -9.41896e-05 -2.94568e-12
0.000272165 -8.1657e-05 -8.16461e-05 -7.18494e-06
0.000269145 -8.07506e-05 -8.07403e-05 -7.18493e-06
0.000221814 -6.65596e-05 -6.65374e-05 -1.32641e-05
0.000216781 -6.50485e-05 -6.5028e-05 -1.3264e-05
0.000303389 -9.10129e-05 -9.10184e-05 -2.84784e-12
0.000310437 -9.31275e-05 -9.31325e-05 -2.92186e-12
0.000219297 -6.5804e-05 -6.57827e-05 -1.3264e-05
0.000260084 -7.80314e-05 -7.80226e-05 -7.18487e-06
0.000306913 -9.20702e-05 -9.20754e-05 -2.84114e-12
0.000266124 -7.98442e-05 -7.98344e-05 -7.18491e-06
0.000263104 -7.89378e-05 -7.89285e-05 -7.18489e-06
0.000216781 -6.50485e-05 -6.5028e-05 -1.3264e-05
0.000211747 -6.35374e-05 -6.35186e-05 -1.32639e-05
0.000296342 -8.88984e-05 -8.89042e-05 -2.80673e-12
0.000303389 -9.10129e-05 -9.10184e-05 -2.84749e-12
0.000214264 -6.4293e-05 -6.42733e-05 -1.3264e-05
0.000254044 -7.62186e-05 -7.62108e-05 -7.18483e-06
0.000299865 -8.99557e-05 -8.99613e-05 -2.82621e-12
0.000260084 -7.80314e-05 -7.80226e-05 -7.18487e-06
0.000257064 -7.7125e-05 -7.71167e-05 -7.18485e-06
0.000211747 -6.35374e-05 -6.35186e-05 -1.32639e-05
0.000206714 -6.20264e-05 -6.20091e-05 -1.32639e-05
0.000289294 -8.67839e-05 -8.679e-05 -2.73042e-12
0.000296342 -8.88984e-05 -8.89042e-05 -2.80673e-12
0.000209231 -6.27819e-05 -6.27639e-05 -1.32639e-05
0.000248004 -7.44058e-05 -7.43991e-05 -7.1848e-06
0.000292818 -8.78412e-05 -8.78471e-05 -2.77603e-12
0.000254044 -7.62186e-05 -7.62108e-05 -7.18483e-06
0.000251024 -7.53122e-05 -7.5305e-05 -7.18481e-06
0.000206714 -6.20264e-05 -6.20091e-05 -1.32639e-05
0.000201681 -6.05154e-05 -6.04997e-05 -1.32638e-05
0.000282246 -8.46694e-05 -8.46758e-05 -2.66838e-12
0.000289294 -8.67839e-05 -8.679e-05 -2.73042e-12
0.000204198 -6.12709e-05 -6.12544e-05 -1.32638e-05
0.000241963 -7.2593e-05 -7.25873e-05 -7.18476e-06
0.00028577 -8.57266e-05 -8.57329e-05 -2.6797e-12
0.000248004 -7.44058e-05 -7.43991e-05 -7.1848e-06
0.000244983 -7.34994e-05 -7.34932e-05 -7.18478e-06
0.000201681 -6.05154e-05 -6.04997e-05 -1.32638e-05
0.000196648 -5.90044e-05 -5.89902e-05 -1.32638e-05
0.000275199 -8.25548e-05 -8.25617e-05 -2.58746e-12
0.000282246 -8.46694e-05 -8.46758e-05 -2.66838e-12
0.000199165 -5.97599e-05 -5.97449e-05 -1.32638e-05
0.000235923 -7.07802e-05 -7.07755e-05 -7.18472e-06
0.000278723 -8.36121e-05 -8.36188e-05 -2.61835e-12
0.000241963 -7.2593e-05 -7.25873e-05 -7.18476e-06
0.000238943 -7.16866e-05 -7.16814e-05 -7.18474e-06
0.000196648 -5.90044e-05 -5.89902e-05 -1.32638e-05
0.000191615 -5.74934e-05 -5.74807e-05 -1.32637e-05
0.000268151 -8.04403e-05 -8.04475e-05 -2.54449e-12
0.000275199 -8.25548e-05 -8.25617e-05 -2.58747e-12
0.000194132 -5.82489e-05 -5.82354e-05 -1.32637e-05
0.000229883 -6.89674e-05 -6.89636e-05 -7.18469e-06
0.000271675 -8.14976e-05 -8.15046e-05 -2.56625e-12
0.000235923 -7.07802e-05 -7.07755e-05 -7.18472e-06
0.000232903 -6.98738e-05 -6.98695e-05 -7.1847e-06
0.000191615 -5.74934e-05 -5.74807e-05 -1.32637e-05
0.000186582 -5.59824e-05 -5.59712e-05 -1.32636e-05
0.000261103 -7.83258e-05 -7.83333e-05 -2.45069e-12
0.000268151 -8.04403e-05 -8.04475e-05 -2.5013e-12
0.000189098 -5.67379e-05 -5.67259e-05 -1.32637e-05
0.000223842 -6.71546e-05 -6.71518e-05 -7.18465e-06
0.000264627 -7.9383e-05 -7.93904e-05 -2.5047e-12
0.000229883 -6.89674e-05 -6.89636e-05 -7.18469e-06
0.000226862 -6.8061e-05 -6.80577e-05 -7.18467e-06
0.000186582 -5.59824e-05 -5.59712e-05 -1.32636e-05
0.000181549 -5.44715e-05 -5.44616e-05 -1.32636e-05
0.000254056 -7.62112e-05 -7.62191e-05 -2.42656e-12
0.000261103 -7.83258e-05 -7.83333e-05 -2.45069e-12
0.000184065 -5.52269e-05 -5.52164e-05 -1.32636e-05
0.000217802 -6.53418e-05 -6.534e-05 -7.18461e-06
0.00025758 -7.72685e-05 -7.72762e-05 -2.41783e-12
0.000223842 -6.71546e-05 -6.71518e-05 -7.18465e-06
0.000220822 -6.62482e-05 -6.62459e-05 -7.18463e-06
0.000181549 -5.44715e-05 -5.44616e-05 -1.32636e-05
0.000176515 -5.29605e-05 -5.29521e-05 -1.32635e-05
0.000247008 -7.40967e-05 -7.41049e-05 -2.3813e-12
0.000254056 -7.62112e-05 -7.62191e-05 -2.42656e-12
0.000179032 -5.3716e-05 -5.37068e-05 -1.32636e-05
0.000211761 -6.3529e-05 -6.35281e-05 -7.18458e-06
0.000250532 -7.5154e-05 -7.5162e-05 -2.39677e-12
0.000217802 -6.53418e-05 -6.534e-05 -7.18461e-06
0.000214782 -6.44354e-05 -6.4434e-05 -7.1846e-06
0.000176515 -5.29605e-05 -5.29521e-05 -1.32635e-05
0.000171482 -5.14496e-05 -5.14425e-05 -1.32635e-05
0.000239961 -7.19822e-05 -7.19907e-05 -2.25582e-12
0.000247008 -7.40967e-05 -7.41049e-05 -2.34118e-12
0.000173999 -5.2205e-05 -5.21973e-05 -1.32635e-05
0.000205721 -6.17163e-05 -6.17162e-05 -7.18454e-06
0.000243484 -7.30394e-05 -7.30478e-05 -2.35622e-12
0.000211761 -6.3529e-05 -6.35281e-05 -7.18458e-06
0.000208741 -6.26227e-05 -6.26222e-05 -7.18456e-06
0.000171482 -5.14496e-05 -5.14425e-05 -1.32635e-05
0.000166449 -4.99387e-05 -4.99329e-05 -1.32634e-05
0.000232913 -6.98676e-05 -6.98765e-05 -2.17636e-12
0.000239961 -7.19822e-05 -7.19907e-05 -2.25617e-12
0.000168965 -5.06941e-05 -5.06877e-05 -1.32634e-05
0.00019968 -5.99035e-05 -5.99044e-05 -7.18451e-06
0.000236437 -7.09249e-05 -7.09336e-05 -2.22626e-12
0.000205721 -6.17163e-05 -6.17162e-05 -7.18454e-06
0.000202701 -6.08099e-05 -6.08103e-05 -7.18452e-06
0.000166449 -4.99387e-05 -4.99329e-05 -1.32634e-05
0.000161415 -4.84278e-05 -4.84233e-05 -1.32634e-05
0.000225865 -6.77531e-05 -6.77623e-05 -2.11799e-12
0.000232913 -6.98676e-05 -6.98765e-05 -2.17636e-12
0.000163932 -4.91832e-05 -4.91781e-05 -1.32634e-05
0.00019364 -5.80908e-05 -5.80925e-05 -7.18447e-06
0.000229389 -6.88104e-05 -6.88194e-05 -2.1884e-12
0.00019968 -5.99035e-05 -5.99044e-05 -7.18451e-06
0.00019666 -5.89972e-05 -5.89984e-05 -7.18449e-06
0.000161415 -4.84278e-05 -4.84233e-05 -1.32634e-05
0.000156382 -4.69169e-05 -4.69136e-05 -1.32633e-05
0.000218817 -6.56385e-05 -6.56481e-05 -2.00765e-12
0.000225865 -6.77531e-05 -6.77623e-05 -2.11799e-12
0.000158899 -4.76723e-05 -4.76684e-05 -1.32633e-05
0.000187599 -5.6278e-05 -5.62806e-05 -7.18444e-06
0.000222341 -6.66958e-05 -6.67052e-05 -2.08896e-12
0.00019364 -5.80908e-05 -5.80925e-05 -7.18447e-06
0.00019062 -5.71844e-05 -5.71865e-05 -7.18445e-06
0.000156382 -4.69169e-05 -4.69136e-05 -1.32633e-05
0.000151349 -4.5406e-05 -4.5404e-05 -1.32632e-05
0.00021177 -6.3524e-05 -6.35339e-05 -1.94781e-12
0.000218817 -6.56385e-05 -6.56481e-05 -2.00765e-12
0.000153865 -4.61614e-05 -4.61588e-05 -1.32633e-05
0.000181559 -5.44653e-05 -5.44686e-05 -7.1844e-06
0.000215294 -6.45813e-05 -6.4591e-05 -1.98282e-12
0.000187599 -5.6278e-05 -5.62806e-05 -7.18444e-06
0.000184579 -5.53717e-05 -5.53746e-05 -7.18442e-06
0.000151349 -4.5406e-05 -4.5404e-05 -1.32632e-05
0.000146315 -4.38951e-05 -4.38943e-05 -1.32632e-05
0.000204722 -6.14095e-05 -6.14197e-05 -1.85308e-12
0.00021177 -6.3524e-05 -6.35339e-05 -1.98686e-12
0.000148832 -4.46506e-05 -4.46491e-05 -1.32632e-05
0.000175518 -5.26526e-05 -5.26567e-05 -7.18437e-06
0.000208246 -6.24667e-05 -6.24768e-05 -1.932e-12
0.000181559 -5.44653e-05 -5.44686e-05 -7.1844e-06
0.000178539 -5.3559e-05 -5.35627e-05 -7.18439e-06
0.000146315 -4.38951e-05 -4.38943e-05 -1.32632e-05
0.000141282 -4.23843e-05 -4.23846e-05 -1.32631e-05
0.000197674 -5.92949e-05 -5.93055e-05 -1.74455e-12
0.000204722 -6.14095e-05 -6.14197e-05 -1.85308e-12
0.000143798 -4.31397e-05 -4.31394e-05 -1.32632e-05
0.000169478 -5.08399e-05 -5.08448e-05 -7.18434e-06
0.000201198 -6.03522e-05 -6.03626e-05 -1.82382e-12
0.000175518 -5.26526e-05 -5.26567e-05 -7.18437e-06
0.000172498 -5.17462e-05 -5.17508e-05 -7.18436e-06
0.000141282 -4.23843e-05 -4.23846e-05 -1.32631e-05
0.000136248 -4.08734e-05 -4.08749e-05 -1.32631e-05
0.000190627 -5.71803e-05 -5.71912e-05 -1.61279e-12
0.000197674 -5.92949e-05 -5.93055e-05 -1.74455e-12
0.000138765 -4.16289e-05 -4.16297e-05 -1.32631e-05
0.000163437 -4.90272e-05 -4.90328e-05 -7.18431e-06
0.00019415 -5.82376e-05 -5.82483e-05 -1.65795e-12
0.000169478 -5.08399e-05 -5.08448e-05 -7.18434e-06
0.000166457 -4.99335e-05 -4.99388e-05 -7.18433e-06
0.000136248 -4.08734e-05 -4.08749e-05 -1.32631e-05
0.000131215 -3.93626e-05 -3.93651e-05 -1.32631e-05
0.000183579 -5.50658e-05 -5.5077e-05 -1.42441e-12
0.000190627 -5.71803e-05 -5.71912e-05 -1.61221e-12
0.000133731 -4.0118e-05 -4.012e-05 -1.32631e-05
0.000157396 -4.72144e-05 -4.72209e-05 -7.18428e-06
0.000187103 -5.61231e-05 -5.61341e-05 -1.54223e-12
0.000163437 -4.90272e-05 -4.90328e-05 -7.18431e-06
0.000160417 -4.81208e-05 -4.81268e-05 -7.1843e-06
0.000131215 -3.93626e-05 -3.93651e-05 -1.32631e-05
0.000126181 -3.78518e-05 -3.78554e-05 -1.3263e-05
0.000176531 -5.29512e-05 -5.29627e-05 -1.2115e-12
0.000183579 -5.50658e-05 -5.5077e-05 -1.42441e-12
0.000128698 -3.86072e-05 -3.86103e-05 -1.3263e-05
0.000151356 -4.54017e-05 -4.54089e-05 -7.18426e-06
0.000180055 -5.40085e-05 -5.40199e-05 -1.30291e-12
0.000157396 -4.72144e-05 -4.72209e-05 -7.18428e-06
0.000154376 -4.63081e-05 -4.63149e-05 -7.18427e-06
0.000126181 -3.78518e-05 -3.78554e-05 -1.3263e-05
0.000121147 -3.6341e-05 -3.63456e-05 -1.3263e-05
0.000169483 -5.08366e-05 -5.08485e-05 -7.89134e-13
0.000176531 -5.29512e-05 -5.29627e-05 -1.2115e-12
0.000123664 -3.70964e-05 -3.71005e-05 -1.3263e-05
0.000145315 -4.3589e-05 -4.35969e-05 -7.18425e-06
0.000173007 -5.18939e-05 -5.19056e-05 -1.00977e-12
0.000151356 -4.54017e-05 -4.54089e-05 -7.18426e-06
0.000148335 -4.44954e-05 -4.45029e-05 -7.18425e-06
0.000121147 -3.6341e-05 -3.63456e-05 -1.3263e-05
0.000116114 -3.48303e-05 -3.48358e-05 -1.3263e-05
0.000162435 -4.87221e-05 -4.87342e-05 -4.52099e-13
0.000169483 -5.08366e-05 -5.08485e-05 -7.89134e-13
0.000118631 -3.55856e-05 -3.55907e-05 -1.3263e-05
0.000139274 -4.17763e-05 -4.17849e-05 -7.18424e-06
0.000165959 -4.97794e-05 -4.97914e-05 -6.16443e-13
0.000145315 -4.3589e-05 -4.35969e-05 -7.18425e-06
0.000142295 -4.26827e-05 -4.26909e-05 -7.18424e-06
0.000116114 -3.48303e-05 -3.48358e-05 -1.3263e-05
0.00011108 -3.33195e-05 -3.3326e-05 -1.3263e-05
0.000155387 -4.66075e-05 -4.662e-05 4.2144e-13
0.000162435 -4.87221e-05 -4.87342e-05 -4.52099e-13
0.000113597 -3.40749e-05 -3.40809e-05 -1.3263e-05
0.000133234 -3.99636e-05 -3.99728e-05 -7.18425e-06
0.000158911 -4.76648e-05 -4.76771e-05 -2.45206e-14
0.000139274 -4.17763e-05 -4.17849e-05 -7.18424e-06
0.000136254 -4.087e-05 -4.08788e-05 -7.18424e-06
0.00011108 -3.33195e-05 -3.3326e-05 -1.3263e-05
0.000106046 -3.18088e-05 -3.18161e-05 -1.3263e-05
0.000148339 -4.44929e-05 -4.45057e-05 1.00757e-12
0.000155387 -4.66075e-05 -4.662e-05 3.95283e-13
0.000108563 -3.25641e-05 -3.25711e-05 -1.3263e-05
0.000127193 -3.8151e-05 -3.81608e-05 -7.18427e-06
0.000151863 -4.55502e-05 -4.55628e-05 7.497e-13
0.000133234 -3.99636e-05 -3.99728e-05 -7.18425e-06
0.000130213 -3.90573e-05 -3.90668e-05 -7.18425e-06
0.000106046 -3.18088e-05 -3.18161e-05 -1.3263e-05
0.000101013 -3.02981e-05 -3.03063e-05 -1.32631e-05
0.000141291 -4.23782e-05 -4.23913e-05 2.71294e-12
0.000148339 -4.44929e-05 -4.45057e-05 1.00757e-12
0.00010353 -3.10534e-05 -3.10612e-05 -1.3263e-05
0.000121152 -3.63383e-05 -3.63487e-05 -7.18432e-06
0.000144815 -4.34355e-05 -4.34485e-05 2.21721e-12
0.000127193 -3.8151e-05 -3.81608e-05 -7.18427e-06
0.000124172 -3.72446e-05 -3.72547e-05 -7.18429e-06
0.000101013 -3.02981e-05 -3.03063e-05 -1.32631e-05
9.59789e-05 -2.87874e-05 -2.87964e-05 -1.32631e-05
0.000134243 -4.02635e-05 -4.0277e-05 3.10526e-12
0.000141291 -4.23782e-05 -4.23913e-05 2.71294e-12
9.84958e-05 -2.95427e-05 -2.95513e-05 -1.32631e-05
0.000115111 -3.45255e-05 -3.45366e-05 -7.1844e-06
0.000137767 -4.13209e-05 -4.13342e-05 2.57728e-12
0.000121152 -3.63383e-05 -3.63487e-05 -7.18432e-06
0.000118131 -3.54319e-05 -3.54426e-05 -7.18435e-06
9.59789e-05 -2.87874e-05 -2.87964e-05 -1.32631e-05
9.09452e-05 -2.72767e-05 -2.72865e-05 -1.32632e-05
0.000127195 -3.81488e-05 -3.81626e-05 3.8155e-12
0.000134243 -4.02635e-05 -4.0277e-05 3.0659e-12
9.3462e-05 -2.8032e-05 -2.80414e-05 -1.32632e-05
0.00010907 -3.27128e-05 -3.27244e-05 -7.18451e-06
0.000130719 -3.92062e-05 -3.92198e-05 6.21005e-12
0.000115111 -3.45255e-05 -3.45366e-05 -7.1844e-06
0.00011209 -3.36192e-05 -3.36305e-05 -7.18445e-06
9.09452e-05 -2.72767e-05 -2.72865e-05 -1.32632e-05
8.59114e-05 -2.5766e-05 -2.57766e-05 -1.32633e-05
0.000120146 -3.60339e-05 -3.60481e-05 1.82049e-13
0.000127195 -3.81488e-05 -3.81626e-05 3.81528e-12
8.84283e-05 -2.65213e-05 -2.65316e-05 -1.32633e-05
0.000103029 -3.09001e-05 -3.09122e-05 -7.18463e-06
0.00012367 -3.70914e-05 -3.71053e-05 -1.04732e-12
0.00010907 -3.27128e-05 -3.27244e-05 -7.18451e-06
0.000106049 -3.18065e-05 -3.18183e-05 -7.18457e-06
8.59114e-05 -2.5766e-05 -2.57766e-05 -1.32633e-05
8.08778e-05 -2.42552e-05 -2.42668e-05 -1.32631e-05
0.000113097 -3.3919e-05 -3.39335e-05 -1.68386e-11
0.000120146 -3.60339e-05 -3.60481e-05 1.82049e-13
8.33946e-05 -2.50106e-05 -2.50217e-05 -1.32632e-05
9.69875e-05 -2.90874e-05 -2.91001e-05 -7.18472e-06
0.000116622 -3.49765e-05 -3.49908e-05 7.19686e-12
0.000103029 -3.09001e-05 -3.09122e-05 -7.18463e-06
0.000100008 -2.99937e-05 -3.00061e-05 -7.18469e-06
8.08778e-05 -2.42552e-05 -2.42668e-05 -1.32631e-05
7.58444e-05 -2.27441e-05 -2.27573e-05 -1.32624e-05
0.000106048 -3.1804e-05 -3.18188e-05 -3.99225e-11
0.000113097 -3.3919e-05 -3.39335e-05 -1.68386e-11
7.83611e-05 -2.34997e-05 -2.3512e-05 -1.32629e-05
9.09465e-05 -2.72746e-05 -2.7288e-05 -7.18452e-06
0.000109573 -3.28615e-05 -3.28761e-05 -4.85743e-11
9.69875e-05 -2.90874e-05 -2.91001e-05 -7.18472e-06
9.3967e-05 -2.8181e-05 -2.8194e-05 -7.18467e-06
7.58444e-05 -2.27441e-05 -2.27573e-05 -1.32624e-05
7.08113e-05 -2.12324e-05 -2.12481e-05 -1.32604e-05
9.89985e-05 -2.96888e-05 -2.97041e-05 -1.71199e-10
0.000106048 -3.1804e-05 -3.18188e-05 -3.99225e-11
7.33278e-05 -2.19884e-05 -2.20026e-05 -1.32616e-05
8.49063e-05 -2.54619e-05 -2.54762e-05 -7.18364e-06
0.000102523 -3.07464e-05 -3.07615e-05 -2.93666e-11
9.09465e-05 -2.72746e-05 -2.7288e-05 -7.18452e-06
8.79262e-05 -2.63682e-05 -2.6382e-05 -7.18421e-06
7.08113e-05 -2.12324e-05 -2.12481e-05 -1.32604e-05
6.57788e-05 -1.97192e-05 -1.97398e-05 -1.32553e-05
9.19497e-05 -2.75742e-05 -2.75895e-05 -2.50977e-10
9.89985e-05 -2.96888e-05 -2.97041e-05 -1.71221e-10
6.82949e-05 -2.04761e-05 -2.04938e-05 -1.32584e-05
7.88674e-05 -2.36492e-05 -2.36649e-05 -7.18087e-06
9.5474e-05 -2.86316e-05 -2.86468e-05 -3.23719e-10
8.49063e-05 -2.54619e-05 -2.54762e-05 -7.18364e-06
8.18866e-05 -2.45555e-05 -2.45705e-05 -7.18258e-06
6.57788e-05 -1.97192e-05 -1.97398e-05 -1.32553e-05
6.07464e-05 -1.82028e-05 -1.8233e-05 -1.32443e-05
8.49048e-05 -2.546e-05 -2.54763e-05 -9.36062e-10
9.19497e-05 -2.75742e-05 -2.75895e-05 -2.50977e-10
6.32627e-05 -1.89616e-05 -1.89862e-05 -1.32508e-05
7.28327e-05 -2.18367e-05 -2.18554e-05 -7.17425e-06
8.84264e-05 -2.65166e-05 -2.65328e-05 -2.52547e-10
7.88674e-05 -2.36492e-05 -2.36649e-05 -7.18087e-06
7.58492e-05 -2.27429e-05 -2.27598e-05 -7.17829e-06
6.07464e-05 -1.82028e-05 -1.8233e-05 -1.32443e-05
5.57153e-05 -1.66802e-05 -1.67293e-05 -1.32204e-05
7.7867e-05 -2.33502e-05 -2.33643e-05 -1.06261e-09
8.49048e-05 -2.546e-05 -2.54763e-05 -9.36062e-10
5.82304e-05 -1.74425e-05 -1.74805e-05 -1.32346e-05
6.68052e-05 -2.00248e-05 -2.00487e-05 -7.1589e-06
8.1385e-05 -2.44053e-05 -2.44199e-05 -1.56838e-09
7.28327e-05 -2.18367e-05 -2.18554e-05 -7.17425e-06
6.98179e-05 -2.09306e-05 -2.09517e-05 -7.16795e-06
5.57153e-05 -1.66802e-05 -1.67293e-05 -1.32204e-05
5.06815e-05 -1.51461e-05 -1.52294e-05 -1.31746e-05
7.08536e-05 -2.12435e-05 -2.12615e-05 -4.04051e-09
7.7867e-05 -2.33502e-05 -2.33643e-05 -1.06261e-09
5.31995e-05 -1.59153e-05 -1.59789e-05 -1.3201e-05
6.07952e-05 -1.82141e-05 -1.82491e-05 -7.12719e-06
7.43551e-05 -2.2294e-05 -2.23119e-05 -1.09434e-09
6.68052e-05 -2.00248e-05 -2.00487e-05 -7.1589e-06
6.37968e-05 -1.91193e-05 -1.91475e-05 -7.14618e-06
5.06815e-05 -1.51461e-05 -1.52294e-05 -1.31746e-05
4.56481e-05 -1.35904e-05 -1.3739e-05 -1.30847e-05
6.38787e-05 -1.91615e-05 -1.91645e-05 -3.53386e-09
7.08536e-05 -2.12435e-05 -2.12615e-05 -4.04051e-09
4.81636e-05 -1.43713e-05 -1.44824e-05 -1.31373e-05
5.48129e-05 -1.64058e-05 -1.64602e-05 -7.06314e-06
6.73617e-05 -2.02033e-05 -2.02107e-05 -6.50252e-09
6.07952e-05 -1.82141e-05 -1.82491e-05 -7.12719e-06
5.78006e-05 -1.73093e-05 -1.73534e-05 -7.09976e-06
4.56481e-05 -1.35904e-05 -1.3739e-05 -1.30847e-05
4.05944e-05 -1.20012e-05 -1.22542e-05 -1.29285e-05
5.70128e-05 -1.70894e-05 -1.711e-05 -1.50123e-08
6.38787e-05 -1.91615e-05 -1.91645e-05 -3.53386e-09
4.31276e-05 -1.28026e-05 -1.29964e-05 -1.30163e-05
4.88936e-05 -1.46034e-05 -1.46958e-05 -6.94122e-06
6.04229e-05 -1.8112e-05 -1.81332e-05 -3.08928e-09
5.48129e-05 -1.64058e-05 -1.64602e-05 -7.06314e-06
5.1841e-05 -1.55044e-05 -1.55728e-05 -7.01388e-06
4.05944e-05 -1.20012e-05 -1.22542e-05 -1.29285e-05
3.55275e-05 -1.0349e-05 -1.07908e-05 -1.26495e-05
5.03059e-05 -1.51315e-05 -1.50747e-05 -9.40953e-09
5.70128e-05 -1.70894e-05 -1.711e-05 -1.50123e-08
3.80579e-05 -1.11814e-05 -1.15185e-05 -1.28098e-05
4.30566e-05 -1.28068e-05 -1.29642e-05 -6.72085e-06
5.36424e-05 -1.61169e-05 -1.60824e-05 -2.48528e-08
4.88936e-05 -1.46034e-05 -1.46958e-05 -6.94122e-06
4.59668e-05 -1.37023e-05 -1.38276e-05 -6.8423e-06
3.55275e-05 -1.0349e-05 -1.07908e-05 -1.26495e-05
3.0352e-05 -8.6264e-06 -9.31099e-06 -1.22262e-05
4.39988e-05 -1.31822e-05 -1.32071e-05 -4.97861e-08
5.03059e-05 -1.51315e-05 -1.50747e-05 -9.40953e-09
3.29699e-05 -9.50594e-06 -1.0056e-05 -1.24561e-05
3.74098e-05 -1.10321e-05 -1.13047e-05 -6.3273e-06
4.70694e-05 -1.40985e-05 -1.41304e-05 -2.72703e-09
4.30566e-05 -1.28068e-05 -1.29642e-05 -6.72085e-06
4.01939e-05 -1.19205e-05 -1.21172e-05 -6.56339e-06
3.0352e-05 -8.6264e-06 -9.31099e-06 -1.22262e-05
2.50743e-05 -6.76123e-06 -7.84845e-06 -1.15739e-05
3.82572e-05 -1.17163e-05 -1.13747e-05 -1.77065e-08
4.39988e-05 -1.31822e-05 -1.32071e-05 -4.97861e-08
2.77086e-05 -7.69441e-06 -8.5775e-06 -1.19361e-05
3.19236e-05 -9.25415e-06 -9.71549e-06 -5.70622e-06
4.10697e-05 -1.24917e-05 -1.22477e-05 -9.29318e-08
3.74098e-05 -1.10321e-05 -1.13047e-05 -6.3273e-06
3.46659e-05 -1.01349e-05 -1.05133e-05 -6.02712e-06
2.50743e-05 -6.76123e-06 -7.84845e-06 -1.15739e-05
1.93176e-05 -4.90407e-06 -6.17722e-06 -1.08707e-05
3.37468e-05 -1.01041e-05 -1.01326e-05 -1.36883e-07
3.82572e-05 -1.17163e-05 -1.13747e-05 -1.77065e-08
2.23202e-05 -5.86246e-06 -7.05333e-06 -1.12093e-05
2.68759e-05 -7.53419e-06 -8.28932e-06 -4.68503e-06
3.57526e-05 -1.06723e-05 -1.07487e-05 3.97289e-08
3.19236e-05 -9.25415e-06 -9.71549e-06 -5.70622e-06
2.9291e-05 -8.40562e-06 -8.95089e-06 -5.31141e-06
1.93176e-05 -4.90407e-06 -6.17722e-06 -1.08707e-05
1.31151e-05 -3.06035e-06 -4.30918e-06 -1.04104e-05
3.12061e-05 -1.03607e-05 -8.93375e-06 2.17066e-07
3.37468e-05 -1.01041e-05 -1.01326e-05 -1.36883e-07
1.62035e-05 -3.85433e-06 -5.29251e-06 -1.05659e-05
2.16174e-05 -5.67831e-06 -6.83104e-06 -3.57083e-06
3.22334e-05 -1.04954e-05 -9.31629e-06 -3.00696e-07
2.68759e-05 -7.53419e-06 -8.28932e-06 -4.68503e-06
2.44081e-05 -6.5979e-06 -7.63296e-06 -4.00515e-06
1.31151e-05 -3.06035e-06 -4.30918e-06 -1.04104e-05
5.89232e-06 -3.22153e-06 -1.14463e-06 -1.21761e-05
3.30544e-05 -9.02185e-06 -1.02997e-05 1.31867e-06
3.12061e-05 -1.03607e-05 -8.93375e-06 2.17066e-07
9.77162e-06 -2.86581e-06 -2.95963e-06 -1.08237e-05
1.6011e-05 -4.12919e-06 -5.09221e-06 -2.8705e-06
3.1276e-05 -8.77444e-06 -9.64351e-06 9.37512e-07
2.16174e-05 -5.67831e-06 -6.83104e-06 -3.57083e-06
1.87397e-05 -4.86162e-06 -5.94775e-06 -3.30691e-06
5.89232e-06 -3.22153e-06 -1.14463e-06 -1.21761e-05
2.49366e-06 -1.15607e-05 3.88589e-06 -1.87343e-05
4.50564e-05 -9.15421e-06 -1.53866e-05 1.03176e-05
3.30544e-05 -9.02185e-06 -1.02997e-05 1.31867e-06
2.96906e-06 -4.80096e-06 7.85101e-07 -1.45111e-05
4.30977e-06 -7.3331e-06 1.29571e-06 -1.076e-05
3.73712e-05 -1.25389e-05 -1.06424e-05 2.77099e-06
1.6011e-05 -4.12919e-06 -5.09221e-06 -2.8705e-06
1.17585e-05 -4.01059e-06 -3.32056e-06 -4.36066e-06
2.49366e-06 -1.15607e-05 3.88589e-06 -1.87343e-05
1.61306e-05 -5.08608e-05 1.48844e-05 -1.9053e-05
2.73774e-05 -6.71532e-05 1.70468e-05 -5.12445e-05
4.50564e-05 -9.15421e-06 -1.53866e-05 1.03176e-05
6.27714e-06 -2.71694e-05 8.95384e-06 -2.21443e-05
1.45693e-05 -6.25559e-05 2.05657e-05 -3.06356e-05
4.53177e-05 -3.01476e-06 -1.81298e-05 4.67857e-06
4.30977e-06 -7.3331e-06 1.29571e-06 -1.076e-05
2.3513e-06 -2.05795e-05 7.8121e-06 -2.01502e-05
      </DataArray> 
    </PointData>
    <CellData>
      <DataArray type="Float64" NumberOfComponents="1" Name="Process" format="ascii">
3
3
3
3
3
3
3
3
3
3
3
3
3
3
3
3
3
3
3
3
3
3
3
3
3
2
2
2
2
2
2
2
2
2
2
2
2
2
2
2
2
2
2
2
2
2
2
2
2
1
1
1
1
1
1
1
1
1
1
1
1
1
1
1
1
1
1
1
1
1
1
1
1
1
0
0
0
0
0
0
0
0
0
0
0
0
0
0
0
0
0
0
0
0
0
0
0
0
0
5
5
5
5
5
5
5
5
5
5
5
5
5
5
5
5
5
5
5
5
5
5
5
5
5
4
4
4
4
4
4
4
4
4
4
4
4
4
4
4
4
4
4
4
4
4
4
4
4
7
7
7
7
7
7
7
7
7
7
7
7
7
7
7
7
7
7
7
7
7
7
7
7
7
6
6
6
6
6
6
6
6
6
6
6
6
6
6
6
6
6
6
6
6
6
6
6
6
3
3
3
3
3
3
3
3
3
3
3
3
3
3
3
3
3
3
3
3
3
3
3
3
3
2
2
2
2
2
2
2
2
2
2
2
2
2
2
2
2
2
2
2
2
2
2
2
2
1
1
1
1
1
1
1
1
1
1
1
1
1
1
1
1
1
1
1
1
1
1
1
1
1
0
0
0
0
0
0
0
0
0
0
0
0
0
0
0
0
0
0
0
0
0
0
0
0
0
5
5
5
5
5
5
5
5
5
5
5
5
5
5
5
5
5
5
5
5
5
5
5
5
5
4
4
4
4
4
4
4
4
4
4
4
4
4
4
4
4
4
4
4
4
4
4
4
4
7
7
7
7
7
7
7
7
7
7
7
7
7
7
7
7
7
7
7
7
7
7
7
7
7
6
6
6
6
6
6
6
6
6
6
6
6
6
6
6
6
6
6
6
6
6
6
6
6
3
3
3
3
3
3
3
3
3
3
3
3
3
3
3
3
3
3
3
3
3
3
3
3
3
2
2
2
2
2
2
2
2
2
2
2
2
2
2
2
2
2
2
2
2
2
2
2
2
1
1
1
1
1
1
1
1
1
1
1
1
1
1
1
1
1
1
1
1
1
1
1
1
1
0
0
0
0
0
0
0
0
0
0
0
0
0
0
0
0
0
0
0
0
0
0
0
0
0
5
5
5
5
5
5
5
5
5
5
5
5
5
5
5
5
5
5
5
5
5
5
5
5
5
4
4
4
4
4
4
4
4
4
4
4
4
4
4
4
4
4
4
4
4
4
4
4
4
7
7
7
7
7
7
7
7
7
7
7
7
7
7
7
7
7
7
7
7
7
7
7
7
7
6
6
6
6
6
6
6
6
6
6
6
6
6
6
6
6
6
6
6
6
6
6
6
6
3
3
3
3
3
3
3
3
3
3
3
3
3
3
3
3
3
3
3
3
3
3
3
3
3
2
2
2
2
2
2
2
2
2
2
2
2
2
2
2
2
2
2
2
2
2
2
2
2
1
1
1
1
1
1
1
1
1
1
1
1
1
1
1
1
1
1
1
1
1
1
1
1
1
0
0
0
0
0
0
0
0
0
0
0
0
0
0
0
0
0
0
0
0
0
0
0
0
0
5
5
5
5
5
5
5
5
5
5
5
5
5
5
5
5
5
5
5
5
5
5
5
5
5
4
4
4
4
4
4
4
4
4
4
4
4
4
4
4
4
4
4
4
4
4
4
4
4
7
7
7
7
7
7
7
7
7
7
7
7
7
7
7
7
7
7
7
7
7
7
7
7
7
6
6
6
6
6
6
6
6
6
6
6
6
6
6
6
6
6
6
6
6
6
6
6
6
3
3
3
3
3
3
3
3
3
3
3
3
3
3
3
3
3
3
3
3
3
3
3
3
3
2
2
2
2
2
2
2
2
2
2
2
2
2
2
2
2
2
2
2
2
2
2
2
2
1
1
1
1
1
1
1
1
1
1
1
1
1
1
1
1
1
1
1
1
1
1
1
1
1
0
0
0
0
0
0
0
0
0
0
0
0
0
0
0
0
0
0
0
0
0
0
0
0
0
5
5
5
5
5
5
5
5
5
5
5
5
5
5
5
5
5
5
5
5
5
5
5
5
5
4
4
4
4
4
4
4
4
4
4
4
4
4
4
4
4
4
4
4
4
4
4
4
4
7
7
7
7
7
7
7
7
7
7
7
7
7
7
7
7
7
7
7
7
7
7
7
7
7
6
6
6
6
6
6
6
6
6
6
6
6
6
6
6
6
6
6
6
6
6
6
6
6
3
3
3
3
3
3
3
3
3
3
3
3
3
3
3
3
3
3
3
3
3
3
3
3
3
2
2
2
2
2
2
2
2
2
2
2
2
2
2
2
2
2
2
2
2
2
2
2
2
1
1
1
1
1
1
1
1
1
1
1
1
1
1
1
1
1
1
1
1
1
1
1
1
1
0
0
0
0
0
0
0
0
0
0
0
0
0
0
0
0
0
0
0
0
0
0
0
0
0
5
5
5
5
5
5
5
5
5
5
5
5
5
5
5
5
5
5
5
5
5
5
5
5
5
4
4
4
4
4
4
4
4
4
4
4
4
4
4
4
4
4
4
4
4
4
4
4
4
7
7
7
7
7
7
7
7
7
7
7
7
7
7
7
7
7
7
7
7
7
7
7
7
7
6
6
6
6
6
6
6
6
6
6
6
6
6
6
6
6
6
6
6
6
6
6
6
6
3
3
3
3
3
3
3
3
3
3
3
3
3
3
3
3
3
3
3
3
3
3
3
3
3
2
2
2
2
2
2
2
2
2
2
2
2
2
2
2
2
2
2
2
2
2
2
2
2
1
1
1
1
1
1
1
1
1
1
1
1
1
1
1
1
1
1
1
1
1
1
1
1
1
0
0
0
0
0
0
0
0
0
0
0
0
0
0
0
0
0
0
0
0
0
0
0
0
0
5
5
5
5
5
5
5
5
5
5
5
5
5
5
5
5
5
5
5
5
5
5
5
5
5
4
4
4
4
4
4
4
4
4
4
4
4
4
4
4
4
4
4
4
4
4
4
4
4
7
7
7
7
7
7
7
7
7
7
7
7
7
7
7
7
7
7
7
7
7
7
7
7
7
6
6
6
6
6
6
6
6
6
6
6
6
6
6
6
6
6
6
6
6
6
6
6
6
      </DataArray> 
    </CellData>
  </Piece>
  </UnstructuredGrid>
</VTKFile>
