<?xml version="1.0"?>
<VTKFile type="UnstructuredGrid">
  <UnstructuredGrid>
  <Piece NumberOfPoints="12411"  NumberOfCells="1379">
    <Points>
      <DataArray type="Float64" NumberOfComponents="3" format="ascii">
0 0 0
2.53268 -0.00268525 0
2.53486 4.28481 0
0 4.28571 0
1.2661 -0.00167438 0
2.53401 2.14123 0
1.26748 4.28539 0
0 2.14286 0
1.2671 2.14214 0
2.53268 -0.00268525 0
5.0661 -0.00466244 0
5.06945 4.2831 0
2.53486 4.28481 0
3.79938 -0.00363649 0
5.06786 2.13932 0
3.80217 4.28403 0
2.53401 2.14123 0
3.80092 2.14031 0
5.0661 -0.00466244 0
7.59946 -0.00704796 0
7.60402 4.28074 0
5.06945 4.2831 0
6.33279 -0.00578527 0
7.60176 2.13693 0
6.33673 4.282 0
5.06786 2.13932 0
6.33481 2.1382 0
7.59946 -0.00704796 0
10.1328 -0.0101182 0
10.1386 4.27768 0
7.60402 4.28074 0
8.86613 -0.00849027 0
10.1357 2.13386 0
8.8713 4.2793 0
7.60176 2.13693 0
8.86873 2.13548 0
10.1328 -0.0101182 0
12.6661 -0.0139365 0
12.6732 4.27385 0
10.1386 4.27768 0
11.3994 -0.0119312 0
12.6697 2.13004 0
11.4059 4.27586 0
10.1357 2.13386 0
11.4027 2.13205 0
12.6661 -0.0139365 0
15.1994 -0.0185458 0
15.2078 4.26923 0
12.6732 4.27385 0
13.9327 -0.0161413 0
15.2036 2.12543 0
13.9405 4.27164 0
12.6697 2.13004 0
13.9366 2.12783 0
15.1994 -0.0185458 0
17.7327 -0.0239518 0
17.7425 4.26381 0
15.2078 4.26923 0
16.4661 -0.0211489 0
17.7376 2.12002 0
16.4752 4.26662 0
15.2036 2.12543 0
16.4706 2.12282 0
17.7327 -0.0239518 0
20.266 -0.0301598 0
20.2772 4.25759 0
17.7425 4.26381 0
18.9994 -0.0269556 0
20.2716 2.1138 0
19.0098 4.2608 0
17.7376 2.12002 0
19.0046 2.11701 0
20.266 -0.0301598 0
22.7994 -0.0371667 0
22.8118 4.25057 0
20.2772 4.25759 0
21.5327 -0.0335636 0
22.8056 2.10679 0
21.5445 4.25418 0
20.2716 2.1138 0
21.5386 2.11039 0
22.7994 -0.0371667 0
25.3327 -0.0449697 0
25.3465 4.24275 0
22.8118 4.25057 0
24.0661 -0.0409689 0
25.3397 2.09898 0
24.0792 4.24676 0
22.8056 2.10679 0
24.0726 2.10298 0
25.3327 -0.0449697 0
27.8661 -0.0535641 0
27.8813 4.23414 0
25.3465 4.24275 0
26.5994 -0.0491682 0
27.8737 2.09037 0
26.6139 4.23855 0
25.3397 2.09898 0
26.6067 2.09477 0
27.8661 -0.0535641 0
30.3995 -0.0629459 0
30.416 4.22475 0
27.8813 4.23414 0
29.1328 -0.0581569 0
30.4078 2.08098 0
29.1486 4.22954 0
27.8737 2.09037 0
29.1407 2.08578 0
30.3995 -0.0629459 0
32.9329 -0.0731107 0
32.9507 4.21457 0
30.416 4.22475 0
31.6662 -0.0679307 0
32.9419 2.07081 0
31.6834 4.21975 0
30.4078 2.08098 0
31.6748 2.076 0
32.9329 -0.0731107 0
35.4664 -0.084054 0
35.4855 4.20361 0
32.9507 4.21457 0
34.1997 -0.0784853 0
35.476 2.05986 0
34.2181 4.20918 0
32.9419 2.07081 0
34.2089 2.06543 0
35.4664 -0.084054 0
37.9999 -0.0957715 0
38.0203 4.19187 0
35.4855 4.20361 0
36.7331 -0.0898162 0
38.0101 2.04813 0
36.7529 4.19784 0
35.476 2.05986 0
36.743 2.05409 0
37.9999 -0.0957715 0
40.5334 -0.108259 0
40.5551 4.17937 0
38.0203 4.19187 0
39.2666 -0.101919 0
40.5442 2.03564 0
39.2877 4.18572 0
38.0101 2.04813 0
39.2772 2.04198 0
40.5334 -0.108259 0
43.0669 -0.121512 0
43.0899 4.1661 0
40.5551 4.17937 0
41.8001 -0.11479 0
43.0784 2.02237 0
41.8225 4.17283 0
40.5442 2.03564 0
41.8113 2.0291 0
43.0669 -0.121512 0
45.6004 -0.135527 0
45.6247 4.15206 0
43.0899 4.1661 0
44.3336 -0.128425 0
45.6126 2.00835 0
44.3573 4.15917 0
43.0784 2.02237 0
44.3455 2.01546 0
45.6004 -0.135527 0
48.134 -0.150299 0
48.1595 4.13727 0
45.6247 4.15206 0
46.8672 -0.142819 0
48.1468 1.99357 0
46.8921 4.14476 0
45.6126 2.00835 0
46.8797 2.00105 0
48.134 -0.150299 0
50.6675 -0.165825 0
50.6944 4.12173 0
48.1595 4.13727 0
49.4007 -0.157968 0
50.681 1.97803 0
49.4269 4.12959 0
48.1468 1.99357 0
49.4139 1.98589 0
50.6675 -0.165825 0
53.2011 -0.182099 0
53.2292 4.10544 0
50.6944 4.12173 0
51.9343 -0.173868 0
53.2152 1.96175 0
51.9618 4.11368 0
50.681 1.97803 0
51.9481 1.96998 0
53.2011 -0.182099 0
55.7347 -0.199118 0
55.7641 4.0884 0
53.2292 4.10544 0
54.4679 -0.190515 0
55.7494 1.94472 0
54.4967 4.09701 0
53.2152 1.96175 0
54.4823 1.95333 0
55.7347 -0.199118 0
58.2684 -0.216877 0
58.299 4.07062 0
55.7641 4.0884 0
57.0016 -0.207905 0
58.2837 1.92695 0
57.0315 4.0796 0
55.7494 1.94472 0
57.0166 1.93593 0
58.2684 -0.216877 0
60.802 -0.235372 0
60.8339 4.0521 0
58.299 4.07062 0
59.5352 -0.226033 0
60.818 1.90844 0
59.5664 4.06145 0
58.2837 1.92695 0
59.5508 1.91779 0
60.802 -0.235372 0
63.3357 -0.254599 0
63.3688 4.03286 0
60.8339 4.0521 0
62.0689 -0.244895 0
63.3523 1.88921 0
62.1013 4.04257 0
60.818 1.90844 0
62.0851 1.89892 0
63.3357 -0.254599 0
65.8694 -0.274555 0
65.9037 4.01288 0
63.3688 4.03286 0
64.6025 -0.264486 0
65.8866 1.86924 0
64.6362 4.02296 0
63.3523 1.88921 0
64.6194 1.87931 0
65.8694 -0.274555 0
68.4031 -0.295233 0
68.4386 3.99218 0
65.9037 4.01288 0
67.1363 -0.284804 0
68.4209 1.84855 0
67.1712 4.00262 0
65.8866 1.86924 0
67.1537 1.85899 0
68.4031 -0.295233 0
70.9368 -0.316631 0
70.9736 3.97076 0
68.4386 3.99218 0
69.67 -0.305843 0
70.9552 1.82714 0
69.7061 3.98156 0
68.4209 1.84855 0
69.6881 1.83794 0
70.9368 -0.316631 0
73.4706 -0.338744 0
73.5085 3.94863 0
70.9736 3.97076 0
72.2037 -0.327599 0
73.4896 1.80502 0
72.2411 3.95978 0
70.9552 1.82714 0
72.2224 1.81617 0
73.4706 -0.338744 0
76.0044 -0.361568 0
76.0435 3.92578 0
73.5085 3.94863 0
74.7375 -0.350068 0
76.024 1.78218 0
74.776 3.93729 0
73.4896 1.80502 0
74.7568 1.79369 0
76.0044 -0.361568 0
78.5382 -0.385099 0
78.5785 3.90223 0
76.0435 3.92578 0
77.2713 -0.373246 0
78.5583 1.75864 0
77.311 3.91409 0
76.024 1.78218 0
77.2911 1.7705 0
78.5382 -0.385099 0
81.072 -0.409332 0
81.1135 3.87797 0
78.5785 3.90223 0
79.8051 -0.397128 0
81.0927 1.7344 0
79.846 3.89019 0
78.5583 1.75864 0
79.8255 1.74661 0
81.072 -0.409332 0
83.6058 -0.434264 0
83.6485 3.85302 0
81.1135 3.87797 0
82.3389 -0.421711 0
83.6272 1.70945 0
82.381 3.86558 0
81.0927 1.7344 0
82.3599 1.72201 0
83.6058 -0.434264 0
86.1396 -0.459889 0
86.1835 3.82737 0
83.6485 3.85302 0
84.8727 -0.44699 0
86.1616 1.68382 0
84.916 3.84028 0
83.6272 1.70945 0
84.8944 1.69672 0
86.1396 -0.459889 0
88.6735 -0.486204 0
88.7185 3.80103 0
86.1835 3.82737 0
87.4066 -0.472961 0
88.696 1.65749 0
87.451 3.81429 0
86.1616 1.68382 0
87.4288 1.67074 0
88.6735 -0.486204 0
91.2074 -0.513205 0
91.2536 3.77401 0
88.7185 3.80103 0
89.9404 -0.499619 0
91.2305 1.63048 0
89.986 3.78761 0
88.696 1.65749 0
89.9633 1.64407 0
91.2074 -0.513205 0
93.7413 -0.540887 0
93.7886 3.7463 0
91.2536 3.77401 0
92.4743 -0.526961 0
93.765 1.60278 0
92.5211 3.76024 0
91.2305 1.63048 0
92.4977 1.61671 0
93.7413 -0.540887 0
96.2752 -0.569246 0
96.3237 3.71792 0
93.7886 3.7463 0
95.0082 -0.554982 0
96.2994 1.57441 0
95.0561 3.7322 0
93.765 1.60278 0
95.0322 1.58868 0
96.2752 -0.569246 0
98.8091 -0.598279 0
98.8587 3.68887 0
96.3237 3.71792 0
97.5422 -0.583679 0
98.8339 1.54536 0
97.5912 3.70348 0
96.2994 1.57441 0
97.5667 1.55997 0
98.8091 -0.598279 0
101.343 -0.62798 0
101.394 3.65914 0
98.8587 3.68887 0
100.076 -0.613046 0
101.368 1.51565 0
100.126 3.67409 0
98.8339 1.54536 0
100.101 1.53059 0
101.343 -0.62798 0
103.877 -0.658345 0
103.929 3.62875 0
101.394 3.65914 0
102.61 -0.643079 0
103.903 1.48527 0
102.661 3.64403 0
101.368 1.51565 0
102.636 1.50055 0
103.877 -0.658345 0
106.411 -0.689371 0
106.464 3.5977 0
103.929 3.62875 0
105.144 -0.673775 0
106.438 1.45424 0
105.196 3.61331 0
103.903 1.48527 0
105.17 1.46984 0
106.411 -0.689371 0
108.945 -0.721052 0
108.999 3.56599 0
106.464 3.5977 0
107.678 -0.70513 0
108.972 1.42254 0
107.732 3.58193 0
106.438 1.45424 0
107.705 1.43847 0
108.945 -0.721052 0
111.479 -0.753386 0
111.534 3.53364 0
108.999 3.56599 0
110.212 -0.737138 0
111.507 1.39019 0
110.267 3.5499 0
108.972 1.42254 0
110.239 1.40645 0
111.479 -0.753386 0
114.013 -0.786367 0
114.069 3.50063 0
111.534 3.53364 0
112.746 -0.769795 0
114.041 1.3572 0
112.802 3.51721 0
111.507 1.39019 0
112.774 1.37378 0
114.013 -0.786367 0
116.547 -0.819991 0
116.604 3.46698 0
114.069 3.50063 0
115.28 -0.803099 0
116.576 1.32356 0
115.337 3.48389 0
114.041 1.3572 0
115.309 1.34046 0
116.547 -0.819991 0
119.081 -0.854255 0
119.14 3.43269 0
116.604 3.46698 0
117.814 -0.837043 0
119.11 1.28929 0
117.872 3.44992 0
116.576 1.32356 0
117.843 1.3065 0
119.081 -0.854255 0
121.615 -0.889153 0
121.675 3.39777 0
119.14 3.43269 0
120.348 -0.871625 0
121.645 1.25437 0
120.407 3.41531 0
119.11 1.28929 0
120.378 1.27191 0
121.615 -0.889153 0
124.149 -0.924682 0
124.21 3.36221 0
121.675 3.39777 0
122.882 -0.906839 0
124.18 1.21883 0
122.942 3.38007 0
121.645 1.25437 0
122.912 1.23668 0
124.149 -0.924682 0
126.684 -0.960838 0
126.745 3.32603 0
124.21 3.36221 0
125.416 -0.942682 0
126.714 1.18266 0
125.478 3.3442 0
124.18 1.21883 0
125.447 1.20083 0
126.684 -0.960838 0
129.218 -0.997616 0
129.28 3.28923 0
126.745 3.32603 0
127.951 -0.97915 0
129.249 1.14587 0
128.013 3.30771 0
126.714 1.18266 0
127.982 1.16434 0
129.218 -0.997616 0
131.752 -1.03501 0
131.815 3.2518 0
129.28 3.28923 0
130.485 -1.01624 0
131.784 1.10846 0
130.548 3.27059 0
129.249 1.14587 0
130.516 1.12724 0
131.752 -1.03501 0
134.286 -1.07302 0
134.351 3.21377 0
131.815 3.2518 0
133.019 -1.05394 0
134.318 1.07044 0
133.083 3.23286 0
131.784 1.10846 0
133.051 1.08953 0
134.286 -1.07302 0
136.82 -1.11164 0
136.886 3.17512 0
134.351 3.21377 0
135.553 -1.09226 0
136.853 1.0318 0
135.618 3.19452 0
134.318 1.07044 0
135.586 1.0512 0
136.82 -1.11164 0
139.354 -1.15087 0
139.421 3.13587 0
136.886 3.17512 0
138.087 -1.13118 0
139.388 0.992566 0
138.154 3.15557 0
136.853 1.0318 0
138.12 1.01226 0
139.354 -1.15087 0
141.889 -1.19069 0
141.956 3.09602 0
139.421 3.13587 0
140.621 -1.1707 0
141.922 0.952727 0
140.689 3.11602 0
139.388 0.992566 0
140.655 0.972721 0
141.889 -1.19069 0
144.423 -1.23112 0
144.492 3.05557 0
141.956 3.09602 0
143.156 -1.21083 0
144.457 0.91229 0
143.224 3.07587 0
141.922 0.952727 0
143.19 0.932583 0
144.423 -1.23112 0
146.957 -1.27213 0
147.027 3.01453 0
144.492 3.05557 0
145.69 -1.25155 0
146.992 0.87126 0
145.759 3.03512 0
144.457 0.91229 0
145.725 0.891849 0
146.957 -1.27213 0
149.491 -1.31373 0
149.562 2.97289 0
147.027 3.01453 0
148.224 -1.29286 0
149.527 0.829642 0
148.294 2.99378 0
146.992 0.87126 0
148.259 0.850524 0
149.491 -1.31373 0
152.026 -1.35592 0
152.097 2.93068 0
149.562 2.97289 0
150.758 -1.33476 0
152.061 0.78744 0
150.83 2.95186 0
149.527 0.829642 0
150.794 0.808614 0
152.026 -1.35592 0
154.56 -1.39869 0
154.633 2.88788 0
152.097 2.93068 0
153.293 -1.37724 0
154.596 0.744657 0
153.365 2.90935 0
152.061 0.78744 0
153.329 0.766121 0
154.56 -1.39869 0
157.094 -1.44204 0
157.168 2.84451 0
154.633 2.88788 0
155.827 -1.42029 0
157.131 0.701299 0
155.9 2.86627 0
154.596 0.744657 0
155.864 0.72305 0
157.094 -1.44204 0
159.628 -1.48595 0
159.703 2.80057 0
157.168 2.84451 0
158.361 -1.46392 0
159.666 0.657369 0
158.436 2.82261 0
157.131 0.701299 0
158.398 0.679405 0
159.628 -1.48595 0
162.163 -1.53043 0
162.238 2.75606 0
159.703 2.80057 0
160.896 -1.50812 0
162.201 0.612871 0
160.971 2.77838 0
159.666 0.657369 0
160.933 0.635191 0
162.163 -1.53043 0
164.697 -1.57548 0
164.774 2.71098 0
162.238 2.75606 0
163.43 -1.55289 0
164.735 0.567811 0
163.506 2.73359 0
162.201 0.612871 0
163.468 0.590411 0
164.697 -1.57548 0
167.232 -1.62109 0
167.309 2.66535 0
164.774 2.71098 0
165.964 -1.59821 0
167.27 0.522191 0
166.041 2.68824 0
164.735 0.567811 0
166.003 0.54507 0
167.232 -1.62109 0
169.766 -1.66725 0
169.844 2.61916 0
167.309 2.66535 0
168.499 -1.6441 0
169.805 0.476017 0
168.577 2.64233 0
167.27 0.522191 0
168.538 0.499173 0
169.766 -1.66725 0
172.3 -1.71396 0
172.38 2.57242 0
169.844 2.61916 0
171.033 -1.69053 0
172.34 0.429292 0
171.112 2.59586 0
169.805 0.476017 0
171.073 0.452723 0
172.3 -1.71396 0
174.835 -1.76121 0
174.915 2.52514 0
172.38 2.57242 0
173.568 -1.73752 0
174.875 0.382021 0
173.647 2.54885 0
172.34 0.429292 0
173.607 0.405724 0
174.835 -1.76121 0
177.369 -1.80901 0
177.45 2.47731 0
174.915 2.52514 0
176.102 -1.78505 0
177.41 0.334207 0
176.183 2.50129 0
174.875 0.382021 0
176.142 0.358181 0
177.369 -1.80901 0
179.904 -1.85735 0
179.986 2.42895 0
177.45 2.47731 0
178.636 -1.83311 0
179.945 0.285856 0
178.718 2.4532 0
177.41 0.334207 0
178.677 0.310099 0
179.904 -1.85735 0
182.438 -1.90622 0
182.521 2.38005 0
179.986 2.42895 0
181.171 -1.88172 0
182.48 0.236971 0
181.253 2.40456 0
179.945 0.285856 0
181.212 0.26148 0
182.438 -1.90622 0
184.973 -1.95562 0
185.056 2.33062 0
182.521 2.38005 0
183.705 -1.93085 0
185.014 0.187557 0
183.789 2.3554 0
182.48 0.236971 0
183.747 0.21233 0
184.973 -1.95562 0
187.507 -2.00554 0
187.592 2.28067 0
185.056 2.33062 0
186.24 -1.98052 0
187.549 0.137618 0
186.324 2.30571 0
185.014 0.187557 0
186.282 0.162653 0
187.507 -2.00554 0
190.041 -2.05599 0
190.127 2.23019 0
187.592 2.28067 0
188.774 -2.0307 0
190.084 0.0871579 0
188.859 2.2555 0
187.549 0.137618 0
188.817 0.112453 0
190.041 -2.05599 0
192.576 -2.10695 0
192.663 2.1792 0
190.127 2.23019 0
191.309 -2.08141 0
192.619 0.036181 0
191.395 2.20476 0
190.084 0.0871579 0
191.352 0.0617338 0
192.576 -2.10695 0
195.111 -2.15843 0
195.198 2.1277 0
192.663 2.1792 0
193.843 -2.13262 0
195.154 -0.0153083 0
193.93 2.15352 0
192.619 0.036181 0
193.887 0.0105001 0
195.111 -2.15843 0
197.645 -2.21041 0
197.733 2.07569 0
195.198 2.1277 0
196.378 -2.18435 0
197.689 -0.067306 0
196.466 2.10176 0
195.154 -0.0153083 0
196.422 -0.0412439 0
197.645 -2.21041 0
200.18 -2.2629 0
200.269 2.02317 0
197.733 2.07569 0
198.912 -2.23659 0
200.224 -0.119808 0
199.001 2.04949 0
197.689 -0.067306 0
198.957 -0.0934941 0
200.18 -2.2629 0
202.714 -2.31588 0
202.804 1.97016 0
200.269 2.02317 0
201.447 -2.28933 0
202.759 -0.172809 0
201.536 1.99673 0
200.224 -0.119808 0
201.492 -0.146246 0
202.714 -2.31588 0
205.249 -2.36937 0
205.34 1.91665 0
202.804 1.97016 0
203.982 -2.34256 0
205.294 -0.226306 0
204.072 1.94347 0
202.759 -0.172809 0
204.027 -0.199496 0
205.249 -2.36937 0
207.783 -2.42334 0
207.875 1.86265 0
205.34 1.91665 0
206.516 -2.39629 0
207.829 -0.280295 0
206.607 1.88971 0
205.294 -0.226306 0
206.562 -0.253239 0
207.783 -2.42334 0
210.318 -2.4778 0
210.41 1.80816 0
207.875 1.86265 0
209.051 -2.45051 0
210.364 -0.33477 0
209.143 1.83546 0
207.829 -0.280295 0
209.097 -0.307472 0
210.318 -2.4778 0
212.853 -2.53274 0
212.946 1.75318 0
210.41 1.80816 0
211.585 -2.50521 0
212.899 -0.389729 0
211.678 1.78073 0
210.364 -0.33477 0
211.632 -0.362189 0
212.853 -2.53274 0
215.387 -2.58817 0
215.481 1.69773 0
212.946 1.75318 0
214.12 -2.5604 0
215.434 -0.445166 0
214.214 1.72552 0
212.899 -0.389729 0
214.167 -0.417388 0
215.387 -2.58817 0
217.922 -2.64406 0
218.017 1.64181 0
215.481 1.69773 0
216.655 -2.61606 0
217.969 -0.501077 0
216.749 1.66983 0
215.434 -0.445166 0
216.702 -0.473062 0
217.922 -2.64406 0
220.457 -2.70043 0
220.552 1.58541 0
218.017 1.64181 0
219.189 -2.67219 0
220.504 -0.557459 0
219.285 1.61367 0
217.969 -0.501077 0
219.237 -0.52921 0
220.457 -2.70043 0
222.991 -2.75726 0
223.088 1.52855 0
220.552 1.58541 0
221.724 -2.72879 0
223.04 -0.614307 0
221.82 1.55704 0
220.504 -0.557459 0
221.772 -0.585825 0
222.991 -2.75726 0
225.526 -2.81456 0
225.623 1.47123 0
223.088 1.52855 0
224.259 -2.78585 0
225.575 -0.671616 0
224.355 1.49995 0
223.04 -0.614307 0
224.307 -0.642904 0
225.526 -2.81456 0
228.061 -2.87231 0
228.159 1.41345 0
225.623 1.47123 0
226.793 -2.84338 0
228.11 -0.729383 0
226.891 1.44239 0
225.575 -0.671616 0
226.842 -0.700443 0
228.061 -2.87231 0
230.596 -2.93052 0
230.694 1.35521 0
228.159 1.41345 0
229.328 -2.90136 0
230.645 -0.787604 0
229.426 1.38439 0
228.11 -0.729383 0
229.377 -0.758437 0
230.596 -2.93052 0
233.13 -2.98917 0
233.23 1.29653 0
230.694 1.35521 0
231.863 -2.95979 0
233.18 -0.846273 0
231.962 1.32593 0
230.645 -0.787604 0
231.912 -0.816883 0
233.13 -2.98917 0
235.665 -3.04827 0
235.765 1.2374 0
233.23 1.29653 0
234.398 -3.01867 0
235.715 -0.905388 0
234.497 1.26702 0
233.18 -0.846273 0
234.448 -0.875775 0
235.665 -3.04827 0
238.2 -3.10781 0
238.301 1.17783 0
235.765 1.2374 0
236.932 -3.07799 0
238.25 -0.964943 0
237.033 1.20767 0
235.715 -0.905388 0
236.983 -0.93511 0
238.2 -3.10781 0
240.735 -3.16779 0
240.836 1.11783 0
238.301 1.17783 0
239.467 -3.13775 0
240.785 -1.02493 0
239.569 1.14788 0
238.25 -0.964943 0
239.518 -0.994884 0
240.735 -3.16779 0
243.269 -3.2282 0
243.372 1.05739 0
240.836 1.11783 0
242.002 -3.19794 0
243.321 -1.08536 0
242.104 1.08766 0
240.785 -1.02493 0
242.053 -1.05509 0
243.269 -3.2282 0
245.804 -3.28903 0
245.907 0.996526 0
243.372 1.05739 0
244.537 -3.25856 0
245.856 -1.14621 0
244.64 1.02701 0
243.321 -1.08536 0
244.588 -1.11573 0
245.804 -3.28903 0
248.339 -3.35029 0
248.443 0.935237 0
245.907 0.996526 0
247.072 -3.31961 0
248.391 -1.20748 0
247.175 0.965934 0
245.856 -1.14621 0
247.123 -1.17679 0
248.339 -3.35029 0
250.874 -3.41197 0
250.978 0.873529 0
248.443 0.935237 0
249.606 -3.38108 0
250.926 -1.26918 0
249.711 0.904435 0
248.391 -1.20748 0
249.659 -1.23828 0
250.874 -3.41197 0
253.409 -3.47407 0
253.514 0.811405 0
250.978 0.873529 0
252.141 -3.44297 0
253.461 -1.33129 0
252.246 0.842519 0
250.926 -1.26918 0
252.194 -1.30018 0
253.409 -3.47407 0
255.944 -3.53658 0
256.05 0.748871 0
253.514 0.811405 0
254.676 -3.50527 0
255.997 -1.39381 0
254.782 0.780189 0
253.461 -1.33129 0
254.729 -1.3625 0
255.944 -3.53658 0
258.479 -3.59949 0
258.585 0.685929 0
256.05 0.748871 0
257.211 -3.56798 0
258.532 -1.45674 0
257.317 0.717451 0
255.997 -1.39381 0
257.264 -1.42522 0
258.479 -3.59949 0
261.013 -3.66281 0
261.121 0.622586 0
258.585 0.685929 0
259.746 -3.6311 0
261.067 -1.52007 0
259.853 0.654307 0
258.532 -1.45674 0
259.8 -1.48835 0
261.013 -3.66281 0
263.548 -3.72652 0
263.656 0.558843 0
261.121 0.622586 0
262.281 -3.69461 0
263.602 -1.5838 0
262.389 0.590764 0
261.067 -1.52007 0
262.335 -1.55188 0
263.548 -3.72652 0
266.083 -3.79063 0
266.192 0.494707 0
263.656 0.558843 0
264.816 -3.75853 0
266.138 -1.64792 0
264.924 0.526824 0
263.602 -1.5838 0
264.87 -1.61581 0
266.083 -3.79063 0
268.618 -3.85513 0
268.728 0.430181 0
266.192 0.494707 0
267.351 -3.82283 0
268.673 -1.71243 0
267.46 0.462492 0
266.138 -1.64792 0
267.405 -1.68013 0
268.618 -3.85513 0
271.153 -3.92001 0
271.263 0.365269 0
268.728 0.430181 0
269.886 -3.88752 0
271.208 -1.77733 0
269.995 0.397773 0
268.673 -1.71243 0
269.941 -1.74483 0
271.153 -3.92001 0
273.688 -3.98528 0
273.799 0.299976 0
271.263 0.365269 0
272.421 -3.9526 0
273.744 -1.84261 0
272.531 0.33267 0
271.208 -1.77733 0
272.476 -1.80992 0
273.688 -3.98528 0
276.223 -4.05092 0
276.335 0.234306 0
273.799 0.299976 0
274.956 -4.01805 0
276.279 -1.90827 0
275.067 0.267188 0
273.744 -1.84261 0
275.011 -1.87539 0
276.223 -4.05092 0
278.758 -4.11694 0
278.87 0.168262 0
276.335 0.234306 0
277.491 -4.08388 0
278.814 -1.9743 0
277.602 0.20133 0
276.279 -1.90827 0
277.547 -1.94124 0
278.758 -4.11694 0
281.293 -4.18332 0
281.406 0.10185 0
278.87 0.168262 0
280.026 -4.15008 0
281.35 -2.0407 0
280.138 0.135102 0
278.814 -1.9743 0
280.082 -2.00745 0
281.293 -4.18332 0
283.828 -4.25007 0
283.941 0.0350739 0
281.406 0.10185 0
282.561 -4.21665 0
283.885 -2.10746 0
282.674 0.0685074 0
281.35 -2.0407 0
282.617 -2.07403 0
283.828 -4.25007 0
286.363 -4.31718 0
286.477 -0.0320629 0
283.941 0.0350739 0
285.096 -4.28358 0
286.42 -2.17458 0
285.209 0.00155028 0
283.885 -2.10746 0
285.153 -2.14098 0
286.363 -4.31718 0
288.899 -4.38465 0
289.013 -0.0995556 0
286.477 -0.0320629 0
287.631 -4.35087 0
288.956 -2.24206 0
287.745 -0.065765 0
286.42 -2.17458 0
287.688 -2.20828 0
288.899 -4.38465 0
291.434 -4.45247 0
291.549 -0.1674 0
289.013 -0.0995556 0
290.166 -4.41851 0
291.491 -2.3099 0
290.281 -0.133434 0
288.956 -2.24206 0
290.223 -2.27594 0
291.434 -4.45247 0
293.969 -4.52063 0
294.084 -0.235592 0
291.549 -0.1674 0
292.701 -4.48651 0
294.027 -2.37808 0
292.816 -0.201453 0
291.491 -2.3099 0
292.759 -2.34394 0
293.969 -4.52063 0
296.504 -4.58914 0
296.62 -0.304128 0
294.084 -0.235592 0
295.236 -4.55484 0
296.562 -2.4466 0
295.352 -0.269817 0
294.027 -2.37808 0
295.294 -2.41229 0
296.504 -4.58914 0
299.039 -4.65799 0
299.156 -0.373002 0
296.62 -0.304128 0
297.771 -4.62352 0
299.097 -2.51546 0
297.888 -0.338523 0
296.562 -2.4466 0
297.83 -2.48099 0
299.039 -4.65799 0
301.574 -4.72717 0
301.691 -0.442212 0
299.156 -0.373002 0
300.307 -4.69254 0
301.633 -2.58466 0
300.423 -0.407566 0
299.097 -2.51546 0
300.365 -2.55002 0
301.574 -4.72717 0
304.109 -4.79669 0
304.227 -0.511752 0
301.691 -0.442212 0
302.842 -4.76189 0
304.168 -2.65418 0
302.959 -0.476941 0
301.633 -2.58466 0
302.901 -2.61938 0
304.109 -4.79669 0
306.645 -4.86653 0
306.763 -0.581619 0
304.227 -0.511752 0
305.377 -4.83157 0
306.704 -2.72404 0
305.495 -0.546645 0
304.168 -2.65418 0
305.436 -2.68907 0
306.645 -4.86653 0
309.18 -4.93669 0
309.299 -0.651807 0
306.763 -0.581619 0
307.912 -4.90157 0
309.239 -2.79422 0
308.031 -0.616673 0
306.704 -2.72404 0
307.971 -2.75909 0
309.18 -4.93669 0
311.715 -5.00717 0
311.834 -0.722314 0
309.299 -0.651807 0
310.447 -4.97189 0
311.775 -2.86471 0
310.566 -0.687021 0
309.239 -2.79422 0
310.507 -2.82942 0
311.715 -5.00717 0
314.25 -5.07797 0
314.37 -0.793134 0
311.834 -0.722314 0
312.983 -5.04253 0
314.31 -2.93552 0
313.102 -0.757685 0
311.775 -2.86471 0
313.042 -2.90007 0
314.25 -5.07797 0
316.786 -5.14907 0
316.906 -0.864264 0
314.37 -0.793134 0
315.518 -5.11348 0
316.846 -3.00664 0
315.638 -0.828661 0
314.31 -2.93552 0
315.578 -2.97104 0
316.786 -5.14907 0
319.321 -5.22048 0
319.442 -0.9357 0
316.906 -0.864264 0
318.053 -5.18474 0
319.381 -3.07806 0
318.174 -0.899944 0
316.846 -3.00664 0
318.113 -3.04231 0
319.321 -5.22048 0
321.856 -5.29219 0
321.977 -1.00744 0
319.442 -0.9357 0
320.588 -5.2563 0
321.917 -3.14978 0
320.71 -0.97153 0
319.381 -3.07806 0
320.649 -3.11388 0
321.856 -5.29219 0
324.391 -5.3642 0
324.513 -1.07947 0
321.977 -1.00744 0
323.124 -5.32816 0
324.452 -3.2218 0
323.245 -1.04342 0
321.917 -3.14978 0
323.185 -3.18576 0
324.391 -5.3642 0
326.927 -5.4365 0
327.049 -1.15179 0
324.513 -1.07947 0
325.659 -5.40031 0
326.988 -3.29412 0
325.781 -1.1156 0
324.452 -3.2218 0
325.72 -3.25792 0
326.927 -5.4365 0
329.462 -5.50909 0
329.585 -1.22441 0
327.049 -1.15179 0
328.194 -5.47276 0
329.524 -3.36672 0
328.317 -1.18807 0
326.988 -3.29412 0
328.256 -3.33038 0
329.462 -5.50909 0
331.997 -5.58196 0
332.121 -1.29731 0
329.585 -1.22441 0
330.73 -5.54549 0
332.059 -3.43961 0
330.853 -1.26082 0
329.524 -3.36672 0
330.791 -3.40313 0
331.997 -5.58196 0
334.533 -5.65512 0
334.657 -1.37048 0
332.121 -1.29731 0
333.265 -5.61851 0
334.595 -3.51277 0
333.389 -1.33386 0
332.059 -3.43961 0
333.327 -3.47615 0
334.533 -5.65512 0
337.068 -5.72855 0
337.192 -1.44394 0
334.657 -1.37048 0
335.801 -5.6918 0
337.13 -3.58621 0
335.925 -1.40718 0
334.595 -3.51277 0
335.863 -3.54946 0
337.068 -5.72855 0
339.604 -5.80225 0
339.728 -1.51766 0
337.192 -1.44394 0
338.336 -5.76536 0
339.666 -3.65993 0
338.46 -1.48077 0
337.13 -3.58621 0
338.398 -3.62304 0
339.604 -5.80225 0
342.139 -5.87622 0
342.264 -1.59166 0
339.728 -1.51766 0
340.871 -5.8392 0
342.202 -3.73391 0
340.996 -1.55463 0
339.666 -3.65993 0
340.934 -3.69688 0
342.139 -5.87622 0
344.674 -5.95045 0
344.8 -1.66591 0
342.264 -1.59166 0
343.407 -5.9133 0
344.737 -3.80815 0
343.532 -1.62875 0
342.202 -3.73391 0
343.469 -3.771 0
344.674 -5.95045 0
347.21 -6.02494 0
347.336 -1.74042 0
344.8 -1.66591 0
345.942 -5.98766 0
347.273 -3.88265 0
346.068 -1.70314 0
344.737 -3.80815 0
346.005 -3.84537 0
347.21 -6.02494 0
349.745 -6.09968 0
349.872 -1.81519 0
347.336 -1.74042 0
348.478 -6.06228 0
349.809 -3.95741 0
348.604 -1.77778 0
347.273 -3.88265 0
348.541 -3.92 0
349.745 -6.09968 0
352.281 -6.17468 0
352.408 -1.89021 0
349.872 -1.81519 0
351.013 -6.13715 0
352.344 -4.03242 0
351.14 -1.85267 0
349.809 -3.95741 0
351.077 -3.99488 0
352.281 -6.17468 0
354.816 -6.24992 0
354.944 -1.96548 0
352.408 -1.89021 0
353.549 -6.21227 0
354.88 -4.10767 0
353.676 -1.92781 0
352.344 -4.03242 0
353.612 -4.07002 0
354.816 -6.24992 0
357.352 -6.3254 0
357.48 -2.04098 0
354.944 -1.96548 0
356.084 -6.28763 0
357.416 -4.18317 0
356.212 -2.0032 0
354.88 -4.10767 0
356.148 -4.14539 0
357.352 -6.3254 0
359.888 -6.40113 0
360.016 -2.11673 0
357.48 -2.04098 0
358.62 -6.36323 0
359.952 -4.2589 0
358.748 -2.07883 0
357.416 -4.18317 0
358.684 -4.22101 0
359.888 -6.40113 0
362.423 -6.47708 0
362.552 -2.19271 0
360.016 -2.11673 0
361.155 -6.43907 0
362.487 -4.33487 0
361.284 -2.15469 0
359.952 -4.2589 0
361.219 -4.29686 0
362.423 -6.47708 0
364.959 -6.55326 0
365.088 -2.26891 0
362.552 -2.19271 0
363.691 -6.51514 0
365.023 -4.41106 0
363.82 -2.23078 0
362.487 -4.33487 0
363.755 -4.37294 0
364.959 -6.55326 0
367.494 -6.62967 0
367.624 -2.34534 0
365.088 -2.26891 0
366.226 -6.59144 0
367.559 -4.48749 0
366.356 -2.3071 0
365.023 -4.41106 0
366.291 -4.44925 0
367.494 -6.62967 0
370.03 -6.7063 0
370.16 -2.422 0
367.624 -2.34534 0
368.762 -6.66796 0
370.095 -4.56413 0
368.892 -2.38364 0
367.559 -4.48749 0
368.827 -4.52578 0
370.03 -6.7063 0
372.566 -6.78315 0
372.696 -2.49886 0
370.16 -2.422 0
371.298 -6.7447 0
372.631 -4.64099 0
371.428 -2.4604 0
370.095 -4.56413 0
371.363 -4.60253 0
372.566 -6.78315 0
375.101 -6.86021 0
375.232 -2.57595 0
372.696 -2.49886 0
373.833 -6.82165 0
375.166 -4.71806 0
373.964 -2.53738 0
372.631 -4.64099 0
373.898 -4.67949 0
375.101 -6.86021 0
377.637 -6.93748 0
377.768 -2.65323 0
375.232 -2.57595 0
376.369 -6.89882 0
377.702 -4.79533 0
376.5 -2.61456 0
375.166 -4.71806 0
376.434 -4.75667 0
377.637 -6.93748 0
380.173 -7.01495 0
380.304 -2.73073 0
377.768 -2.65323 0
378.905 -6.97619 0
380.238 -4.87282 0
379.036 -2.69196 0
377.702 -4.79533 0
378.97 -4.83405 0
380.173 -7.01495 0
382.708 -7.09262 0
382.84 -2.80842 0
380.304 -2.73073 0
381.44 -7.05376 0
382.774 -4.9505 0
381.572 -2.76955 0
380.238 -4.87282 0
381.506 -4.91163 0
382.708 -7.09262 0
385.244 -7.17049 0
385.376 -2.88631 0
382.84 -2.80842 0
383.976 -7.13153 0
385.31 -5.02838 0
384.108 -2.84734 0
382.774 -4.9505 0
384.042 -4.98941 0
385.244 -7.17049 0
387.78 -7.24854 0
387.912 -2.96438 0
385.376 -2.88631 0
386.512 -7.20949 0
387.846 -5.10644 0
386.644 -2.92532 0
385.31 -5.02838 0
386.578 -5.06739 0
387.78 -7.24854 0
390.316 -7.32679 0
390.448 -3.04265 0
387.912 -2.96438 0
389.048 -7.28764 0
390.382 -5.1847 0
389.18 -3.00349 0
387.846 -5.10644 0
389.114 -5.14555 0
390.316 -7.32679 0
392.851 -7.40522 0
392.984 -3.1211 0
390.448 -3.04265 0
391.583 -7.36598 0
392.918 -5.26314 0
391.716 -3.08185 0
390.382 -5.1847 0
391.65 -5.2239 0
392.851 -7.40522 0
395.387 -7.48382 0
395.52 -3.19972 0
392.984 -3.1211 0
394.119 -7.4445 0
395.454 -5.34176 0
394.252 -3.16039 0
392.918 -5.26314 0
394.186 -5.30242 0
395.387 -7.48382 0
397.923 -7.5626 0
398.056 -3.27852 0
395.52 -3.19972 0
396.655 -7.52319 0
397.99 -5.42055 0
396.788 -3.2391 0
395.454 -5.34176 0
396.722 -5.38113 0
397.923 -7.5626 0
400.459 -7.64155 0
400.592 -3.35749 0
398.056 -3.27852 0
399.191 -7.60206 0
400.526 -5.49951 0
399.324 -3.31799 0
397.99 -5.42055 0
399.258 -5.46001 0
400.459 -7.64155 0
402.995 -7.72067 0
403.128 -3.43663 0
400.592 -3.35749 0
401.727 -7.68109 0
403.062 -5.57863 0
401.86 -3.39704 0
400.526 -5.49951 0
401.794 -5.53905 0
402.995 -7.72067 0
405.531 -7.79995 0
405.665 -3.51593 0
403.128 -3.43663 0
404.263 -7.76029 0
405.598 -5.65792 0
404.397 -3.47626 0
403.062 -5.57863 0
404.33 -5.61826 0
405.531 -7.79995 0
408.067 -7.87938 0
408.201 -3.59538 0
405.665 -3.51593 0
406.799 -7.83965 0
408.134 -5.73737 0
406.933 -3.55563 0
405.598 -5.65792 0
406.866 -5.69762 0
408.067 -7.87938 0
410.603 -7.95897 0
410.737 -3.67499 0
408.201 -3.59538 0
409.335 -7.91916 0
410.67 -5.81697 0
409.469 -3.63517 0
408.134 -5.73737 0
409.402 -5.77715 0
410.603 -7.95897 0
413.138 -8.03871 0
413.273 -3.75474 0
410.737 -3.67499 0
411.87 -7.99882 0
413.206 -5.89671 0
412.005 -3.71485 0
410.67 -5.81697 0
411.938 -5.85682 0
413.138 -8.03871 0
415.674 -8.11859 0
415.809 -3.83465 0
413.273 -3.75474 0
414.406 -8.07863 0
415.742 -5.9766 0
414.541 -3.79468 0
413.206 -5.89671 0
414.474 -5.93664 0
415.674 -8.11859 0
418.21 -8.19861 0
418.346 -3.91469 0
415.809 -3.83465 0
416.942 -8.15859 0
418.278 -6.05664 0
417.078 -3.87465 0
415.742 -5.9766 0
417.01 -6.0166 0
418.21 -8.19861 0
420.746 -8.27877 0
420.882 -3.99486 0
418.346 -3.91469 0
419.478 -8.23868 0
420.814 -6.1368 0
419.614 -3.95476 0
418.278 -6.05664 0
419.546 -6.0967 0
420.746 -8.27877 0
423.283 -8.35906 0
423.418 -4.07517 0
420.882 -3.99486 0
422.014 -8.3189 0
423.35 -6.21711 0
422.15 -4.035 0
420.814 -6.1368 0
422.082 -6.17694 0
423.283 -8.35906 0
425.819 -8.43948 0
425.954 -4.15561 0
423.418 -4.07517 0
424.551 -8.39926 0
425.887 -6.29753 0
424.686 -4.11537 0
423.35 -6.21711 0
424.618 -6.2573 0
425.819 -8.43948 0
428.355 -8.52003 0
428.491 -4.23617 0
425.954 -4.15561 0
427.087 -8.47974 0
428.423 -6.37808 0
427.223 -4.19587 0
425.887 -6.29753 0
427.155 -6.33779 0
428.355 -8.52003 0
430.891 -8.60069 0
431.027 -4.31685 0
428.491 -4.23617 0
429.623 -8.56034 0
430.959 -6.45876 0
429.759 -4.27649 0
428.423 -6.37808 0
429.691 -6.41841 0
430.891 -8.60069 0
433.427 -8.68146 0
433.563 -4.39764 0
431.027 -4.31685 0
432.159 -8.64106 0
433.495 -6.53954 0
432.295 -4.35723 0
430.959 -6.45876 0
432.227 -6.49913 0
433.427 -8.68146 0
435.963 -8.76235 0
436.1 -4.47854 0
433.563 -4.39764 0
434.695 -8.72189 0
436.031 -6.62044 0
434.831 -4.43808 0
433.495 -6.53954 0
434.763 -6.57998 0
435.963 -8.76235 0
438.499 -8.84335 0
438.636 -4.55956 0
436.1 -4.47854 0
437.231 -8.80284 0
438.568 -6.70144 0
437.368 -4.51904 0
436.031 -6.62044 0
437.299 -6.66093 0
438.499 -8.84335 0
441.035 -8.92444 0
441.172 -4.64067 0
438.636 -4.55956 0
439.767 -8.88388 0
441.104 -6.78255 0
439.904 -4.6001 0
438.568 -6.70144 0
439.836 -6.74198 0
441.035 -8.92444 0
443.572 -9.00564 0
443.709 -4.72188 0
441.172 -4.64067 0
442.303 -8.96503 0
443.64 -6.86375 0
442.441 -4.68126 0
441.104 -6.78255 0
442.372 -6.82314 0
443.572 -9.00564 0
446.108 -9.08693 0
446.245 -4.80318 0
443.709 -4.72188 0
444.84 -9.04627 0
446.176 -6.94505 0
444.977 -4.76252 0
443.64 -6.86375 0
444.908 -6.90439 0
446.108 -9.08693 0
448.644 -9.1683 0
448.782 -4.88458 0
446.245 -4.80318 0
447.376 -9.1276 0
448.713 -7.02643 0
447.513 -4.84387 0
446.176 -6.94505 0
447.445 -6.98573 0
448.644 -9.1683 0
451.18 -9.24977 0
451.318 -4.96606 0
448.782 -4.88458 0
449.912 -9.20903 0
451.249 -7.1079 0
450.05 -4.92531 0
448.713 -7.02643 0
449.981 -7.06716 0
451.18 -9.24977 0
453.717 -9.33131 0
453.854 -5.04762 0
451.318 -4.96606 0
452.448 -9.29053 0
453.786 -7.18946 0
452.586 -5.00683 0
451.249 -7.1079 0
452.517 -7.14867 0
453.717 -9.33131 0
456.253 -9.41294 0
456.391 -5.12925 0
453.854 -5.04762 0
454.985 -9.37211 0
456.322 -7.27109 0
455.123 -5.08843 0
453.786 -7.18946 0
455.054 -7.23026 0
456.253 -9.41294 0
458.789 -9.49463 0
458.927 -5.21096 0
456.391 -5.12925 0
457.521 -9.45377 0
458.858 -7.35279 0
457.659 -5.1701 0
456.322 -7.27109 0
457.59 -7.31193 0
458.789 -9.49463 0
461.326 -9.57639 0
461.464 -5.29274 0
458.927 -5.21096 0
460.057 -9.5355 0
461.395 -7.43456 0
460.195 -5.25184 0
458.858 -7.35279 0
460.127 -7.39367 0
461.326 -9.57639 0
463.862 -9.65822 0
464 -5.37458 0
461.464 -5.29274 0
462.594 -9.6173 0
463.931 -7.5164 0
462.732 -5.33365 0
461.395 -7.43456 0
462.663 -7.47547 0
463.862 -9.65822 0
466.398 -9.74011 0
466.537 -5.45649 0
464 -5.37458 0
465.13 -9.69916 0
466.468 -7.59829 0
465.268 -5.41553 0
463.931 -7.5164 0
465.199 -7.55734 0
466.398 -9.74011 0
468.935 -9.82205 0
469.073 -5.53844 0
466.537 -5.45649 0
467.667 -9.78107 0
469.004 -7.68024 0
467.805 -5.49746 0
466.468 -7.59829 0
467.736 -7.63926 0
468.935 -9.82205 0
471.471 -9.90405 0
471.61 -5.62045 0
469.073 -5.53844 0
470.203 -9.86304 0
471.541 -7.76225 0
470.342 -5.57944 0
469.004 -7.68024 0
470.272 -7.72124 0
471.471 -9.90405 0
474.008 -9.98609 0
474.146 -5.70251 0
471.61 -5.62045 0
472.74 -9.94506 0
474.077 -7.8443 0
472.878 -5.66147 0
471.541 -7.76225 0
472.809 -7.80326 0
474.008 -9.98609 0
476.544 -10.0682 0
476.683 -5.78461 0
474.146 -5.70251 0
475.276 -10.0271 0
476.614 -7.92639 0
475.415 -5.74355 0
474.077 -7.8443 0
475.345 -7.88534 0
476.544 -10.0682 0
479.081 -10.1503 0
479.22 -5.86674 0
476.683 -5.78461 0
477.813 -10.1092 0
479.15 -8.00852 0
477.951 -5.82567 0
476.614 -7.92639 0
477.882 -7.96745 0
479.081 -10.1503 0
481.617 -10.2325 0
481.756 -5.94891 0
479.22 -5.86674 0
480.349 -10.1914 0
481.687 -8.09068 0
480.488 -5.90782 0
479.15 -8.00852 0
480.419 -8.0496 0
481.617 -10.2325 0
484.154 -10.3146 0
484.293 -6.03112 0
481.756 -5.94891 0
482.886 -10.2735 0
484.223 -8.17288 0
483.024 -5.99001 0
481.687 -8.09068 0
482.955 -8.13178 0
484.154 -10.3146 0
486.691 -10.3969 0
486.829 -6.11334 0
484.293 -6.03112 0
485.422 -10.3558 0
486.76 -8.2551 0
485.561 -6.07223 0
484.223 -8.17288 0
485.492 -8.21399 0
486.691 -10.3969 0
489.227 -10.4791 0
489.366 -6.19559 0
486.829 -6.11334 0
487.959 -10.438 0
489.297 -8.33735 0
488.098 -6.15447 0
486.76 -8.2551 0
488.028 -8.29622 0
489.227 -10.4791 0
491.764 -10.5614 0
491.903 -6.27787 0
489.366 -6.19559 0
490.496 -10.5202 0
491.833 -8.41961 0
490.634 -6.23673 0
489.297 -8.33735 0
490.565 -8.37848 0
491.764 -10.5614 0
494.3 -10.6437 0
494.439 -6.36018 0
491.903 -6.27787 0
493.032 -10.6025 0
494.37 -8.50192 0
493.171 -6.31902 0
491.833 -8.41961 0
493.102 -8.46076 0
494.3 -10.6437 0
496.837 -10.726 0
496.976 -6.44254 0
494.439 -6.36018 0
495.569 -10.6848 0
496.907 -8.58429 0
495.708 -6.40135 0
494.37 -8.50192 0
495.638 -8.54309 0
496.837 -10.726 0
499.374 -10.8087 0
499.513 -6.52493 0
496.976 -6.44254 0
498.105 -10.7673 0
499.443 -8.66683 0
498.245 -6.48374 0
496.907 -8.58429 0
498.175 -8.62554 0
0 4.28571 0
2.53486 4.28481 0
2.5362 8.57124 0
0 8.57143 0
1.26748 4.28539 0
2.53556 6.42811 0
1.26813 8.57149 0
0 6.42857 0
1.2678 6.42847 0
2.53486 4.28481 0
5.06945 4.2831 0
5.07226 8.56998 0
2.5362 8.57124 0
3.80217 4.28403 0
5.0709 6.42664 0
3.80424 8.57073 0
2.53556 6.42811 0
3.80325 6.42749 0
5.06945 4.2831 0
7.60402 4.28074 0
7.60824 8.56781 0
5.07226 8.56998 0
6.33673 4.282 0
7.60617 6.42437 0
6.34026 8.569 0
5.0709 6.42664 0
6.33854 6.4256 0
7.60402 4.28074 0
10.1386 4.27768 0
10.1442 8.5648 0
7.60824 8.56781 0
8.8713 4.2793 0
10.1414 6.42133 0
8.87622 8.56641 0
7.60617 6.42437 0
8.87379 6.42295 0
10.1386 4.27768 0
12.6732 4.27385 0
12.6802 8.56097 0
10.1442 8.5648 0
11.4059 4.27586 0
12.6767 6.4175 0
11.4122 8.56299 0
10.1414 6.42133 0
11.4091 6.41951 0
12.6732 4.27385 0
15.2078 4.26923 0
15.2161 8.55634 0
12.6802 8.56097 0
13.9405 4.27164 0
15.212 6.41287 0
13.9481 8.55876 0
12.6767 6.4175 0
13.9444 6.41529 0
15.2078 4.26923 0
17.7425 4.26381 0
17.7521 8.55091 0
15.2161 8.55634 0
16.4752 4.26662 0
17.7473 6.40745 0
16.4841 8.55372 0
15.212 6.41287 0
16.4797 6.41026 0
17.7425 4.26381 0
20.2772 4.25759 0
20.2882 8.54467 0
17.7521 8.55091 0
19.0098 4.2608 0
20.2827 6.40122 0
19.0201 8.54789 0
17.7473 6.40745 0
19.015 6.40443 0
20.2772 4.25759 0
22.8118 4.25057 0
22.8242 8.53763 0
20.2882 8.54467 0
21.5445 4.25418 0
22.818 6.39419 0
21.5562 8.54125 0
20.2827 6.40122 0
21.5503 6.3978 0
22.8118 4.25057 0
25.3465 4.24275 0
25.3602 8.5298 0
22.8242 8.53763 0
24.0792 4.24676 0
25.3534 6.38636 0
24.0922 8.53382 0
22.818 6.39419 0
24.0857 6.39037 0
25.3465 4.24275 0
27.8813 4.23414 0
27.8963 8.52118 0
25.3602 8.5298 0
26.6139 4.23855 0
27.8888 6.37775 0
26.6283 8.52559 0
25.3534 6.38636 0
26.6211 6.38215 0
27.8813 4.23414 0
30.416 4.22475 0
30.4323 8.51177 0
27.8963 8.52118 0
29.1486 4.22954 0
30.4242 6.36834 0
29.1643 8.51657 0
27.8888 6.37775 0
29.1565 6.37314 0
30.416 4.22475 0
32.9507 4.21457 0
32.9684 8.50157 0
30.4323 8.51177 0
31.6834 4.21975 0
32.9596 6.35815 0
31.7004 8.50677 0
30.4242 6.36834 0
31.6919 6.36335 0
32.9507 4.21457 0
35.4855 4.20361 0
35.5045 8.4906 0
32.9684 8.50157 0
34.2181 4.20918 0
35.495 6.34719 0
34.2364 8.49619 0
32.9596 6.35815 0
34.2273 6.35277 0
35.4855 4.20361 0
38.0203 4.19187 0
38.0406 8.47885 0
35.5045 8.4906 0
36.7529 4.19784 0
38.0304 6.33545 0
36.7725 8.48482 0
35.495 6.34719 0
36.7627 6.34141 0
38.0203 4.19187 0
40.5551 4.17937 0
40.5767 8.46634 0
38.0406 8.47885 0
39.2877 4.18572 0
40.5659 6.32293 0
39.3086 8.47269 0
38.0304 6.33545 0
39.2981 6.32929 0
40.5551 4.17937 0
43.0899 4.1661 0
43.1127 8.45305 0
40.5767 8.46634 0
41.8225 4.17283 0
43.1013 6.30965 0
41.8447 8.45979 0
40.5659 6.32293 0
41.8336 6.31639 0
43.0899 4.1661 0
45.6247 4.15206 0
45.6488 8.439 0
43.1127 8.45305 0
44.3573 4.15917 0
45.6368 6.29561 0
44.3808 8.44612 0
43.1013 6.30965 0
44.369 6.30273 0
45.6247 4.15206 0
48.1595 4.13727 0
48.185 8.4242 0
45.6488 8.439 0
46.8921 4.14476 0
48.1722 6.28082 0
46.9169 8.4317 0
45.6368 6.29561 0
46.9045 6.28831 0
48.1595 4.13727 0
50.6944 4.12173 0
50.7211 8.40864 0
48.185 8.4242 0
49.4269 4.12959 0
50.7077 6.26526 0
49.453 8.41651 0
48.1722 6.28082 0
49.44 6.27313 0
50.6944 4.12173 0
53.2292 4.10544 0
53.2572 8.39233 0
50.7211 8.40864 0
51.9618 4.11368 0
53.2432 6.24896 0
51.9891 8.40058 0
50.7077 6.26526 0
51.9755 6.25721 0
53.2292 4.10544 0
55.7641 4.0884 0
55.7933 8.37528 0
53.2572 8.39233 0
54.4967 4.09701 0
55.7787 6.23192 0
54.5253 8.3839 0
53.2432 6.24896 0
54.511 6.24053 0
55.7641 4.0884 0
58.299 4.07062 0
58.3295 8.35748 0
55.7933 8.37528 0
57.0315 4.0796 0
58.3142 6.21413 0
57.0614 8.36647 0
55.7787 6.23192 0
57.0465 6.22312 0
58.299 4.07062 0
60.8339 4.0521 0
60.8656 8.33895 0
58.3295 8.35748 0
59.5664 4.06145 0
60.8497 6.19561 0
59.5975 8.34831 0
58.3142 6.21413 0
59.582 6.20496 0
60.8339 4.0521 0
63.3688 4.03286 0
63.4017 8.31969 0
60.8656 8.33895 0
62.1013 4.04257 0
63.3853 6.17635 0
62.1337 8.32941 0
60.8497 6.19561 0
62.1175 6.18607 0
63.3688 4.03286 0
65.9037 4.01288 0
65.9379 8.29969 0
63.4017 8.31969 0
64.6362 4.02296 0
65.9208 6.15637 0
64.6698 8.30978 0
63.3853 6.17635 0
64.653 6.16645 0
65.9037 4.01288 0
68.4386 3.99218 0
68.474 8.27898 0
65.9379 8.29969 0
67.1712 4.00262 0
68.4564 6.13566 0
67.206 8.28943 0
65.9208 6.15637 0
67.1886 6.1461 0
68.4386 3.99218 0
70.9736 3.97076 0
71.0102 8.25754 0
68.474 8.27898 0
69.7061 3.98156 0
70.9919 6.11423 0
69.7421 8.26835 0
68.4564 6.13566 0
69.7241 6.12503 0
70.9736 3.97076 0
73.5085 3.94863 0
73.5464 8.23539 0
71.0102 8.25754 0
72.2411 3.95978 0
73.5275 6.09208 0
72.2783 8.24655 0
70.9919 6.11423 0
72.2597 6.10325 0
73.5085 3.94863 0
76.0435 3.92578 0
76.0825 8.21253 0
73.5464 8.23539 0
74.776 3.93729 0
76.063 6.06923 0
74.8144 8.22405 0
73.5275 6.09208 0
74.7952 6.08075 0
76.0435 3.92578 0
78.5785 3.90223 0
78.6187 8.18895 0
76.0825 8.21253 0
77.311 3.91409 0
78.5986 6.04567 0
77.3506 8.20083 0
76.063 6.06923 0
77.3308 6.05754 0
78.5785 3.90223 0
81.1135 3.87797 0
81.1549 8.16468 0
78.6187 8.18895 0
79.846 3.89019 0
81.1342 6.0214 0
79.8868 8.17691 0
78.5986 6.04567 0
79.8664 6.03362 0
81.1135 3.87797 0
83.6485 3.85302 0
83.6911 8.13971 0
81.1549 8.16468 0
82.381 3.86558 0
83.6698 5.99644 0
82.423 8.15228 0
81.1342 6.0214 0
82.402 6.00901 0
83.6485 3.85302 0
86.1835 3.82737 0
86.2272 8.11404 0
83.6911 8.13971 0
84.916 3.84028 0
86.2054 5.97078 0
84.9592 8.12696 0
83.6698 5.99644 0
84.9376 5.9837 0
86.1835 3.82737 0
88.7185 3.80103 0
88.7634 8.08768 0
86.2272 8.11404 0
87.451 3.81429 0
88.741 5.94443 0
87.4953 8.10095 0
86.2054 5.97078 0
87.4732 5.95769 0
88.7185 3.80103 0
91.2536 3.77401 0
91.2996 8.06064 0
88.7634 8.08768 0
89.986 3.78761 0
91.2766 5.9174 0
90.0315 8.07425 0
88.741 5.94443 0
90.0088 5.931 0
91.2536 3.77401 0
93.7886 3.7463 0
93.8358 8.03292 0
91.2996 8.06064 0
92.5211 3.76024 0
93.8122 5.88968 0
92.5677 8.04686 0
91.2766 5.9174 0
92.5444 5.90363 0
93.7886 3.7463 0
96.3237 3.71792 0
96.372 8.00451 0
93.8358 8.03292 0
95.0561 3.7322 0
96.3479 5.86129 0
95.1039 8.0188 0
93.8122 5.88968 0
95.08 5.87557 0
96.3237 3.71792 0
98.8587 3.68887 0
98.9082 7.97544 0
96.372 8.00451 0
97.5912 3.70348 0
98.8835 5.83222 0
97.6401 7.99006 0
96.3479 5.86129 0
97.6157 5.84684 0
98.8587 3.68887 0
101.394 3.65914 0
101.444 7.94569 0
98.9082 7.97544 0
100.126 3.67409 0
101.419 5.80249 0
100.176 7.96065 0
98.8835 5.83222 0
100.151 5.81744 0
101.394 3.65914 0
103.929 3.62875 0
103.981 7.91528 0
101.444 7.94569 0
102.661 3.64403 0
103.955 5.77209 0
102.713 7.93057 0
101.419 5.80249 0
102.687 5.78737 0
103.929 3.62875 0
106.464 3.5977 0
106.517 7.88421 0
103.981 7.91528 0
105.196 3.61331 0
106.49 5.74103 0
105.249 7.89983 0
103.955 5.77209 0
105.223 5.75664 0
106.464 3.5977 0
108.999 3.56599 0
109.053 7.85248 0
106.517 7.88421 0
107.732 3.58193 0
109.026 5.70931 0
107.785 7.86843 0
106.49 5.74103 0
107.758 5.72525 0
108.999 3.56599 0
111.534 3.53364 0
111.589 7.8201 0
109.053 7.85248 0
110.267 3.5499 0
111.562 5.67694 0
110.321 7.83637 0
109.026 5.70931 0
110.294 5.6932 0
111.534 3.53364 0
114.069 3.50063 0
114.125 7.78708 0
111.589 7.8201 0
112.802 3.51721 0
114.097 5.64392 0
112.857 7.80367 0
111.562 5.67694 0
112.83 5.66051 0
114.069 3.50063 0
116.604 3.46698 0
116.662 7.7534 0
114.125 7.78708 0
115.337 3.48389 0
116.633 5.61026 0
115.394 7.77032 0
114.097 5.64392 0
115.365 5.62717 0
116.604 3.46698 0
119.14 3.43269 0
119.198 7.71909 0
116.662 7.7534 0
117.872 3.44992 0
119.169 5.57596 0
117.93 7.73633 0
116.633 5.61026 0
117.901 5.59319 0
119.14 3.43269 0
121.675 3.39777 0
121.734 7.68415 0
119.198 7.71909 0
120.407 3.41531 0
121.704 5.54102 0
120.466 7.7017 0
119.169 5.57596 0
120.437 5.55857 0
121.675 3.39777 0
124.21 3.36221 0
124.27 7.64857 0
121.734 7.68415 0
122.942 3.38007 0
124.24 5.50546 0
123.002 7.66644 0
121.704 5.54102 0
122.972 5.52332 0
124.21 3.36221 0
126.745 3.32603 0
126.807 7.61237 0
124.27 7.64857 0
125.478 3.3442 0
126.776 5.46927 0
125.538 7.63055 0
124.24 5.50546 0
125.508 5.48744 0
126.745 3.32603 0
129.28 3.28923 0
129.343 7.57554 0
126.807 7.61237 0
128.013 3.30771 0
129.312 5.43245 0
128.075 7.59403 0
126.776 5.46927 0
128.044 5.45093 0
129.28 3.28923 0
131.815 3.2518 0
131.879 7.5381 0
129.343 7.57554 0
130.548 3.27059 0
131.847 5.39502 0
130.611 7.55689 0
129.312 5.43245 0
130.579 5.41381 0
131.815 3.2518 0
134.351 3.21377 0
134.415 7.50004 0
131.879 7.5381 0
133.083 3.23286 0
134.383 5.35697 0
133.147 7.51914 0
131.847 5.39502 0
133.115 5.37607 0
134.351 3.21377 0
136.886 3.17512 0
136.952 7.46137 0
134.415 7.50004 0
135.618 3.19452 0
136.919 5.31831 0
135.683 7.48078 0
134.383 5.35697 0
135.651 5.33771 0
136.886 3.17512 0
139.421 3.13587 0
139.488 7.42209 0
136.952 7.46137 0
138.154 3.15557 0
139.454 5.27905 0
138.22 7.44181 0
136.919 5.31831 0
138.187 5.29875 0
139.421 3.13587 0
141.956 3.09602 0
142.024 7.38222 0
139.488 7.42209 0
140.689 3.11602 0
141.99 5.23918 0
140.756 7.40223 0
139.454 5.27905 0
140.722 5.25919 0
141.956 3.09602 0
144.492 3.05557 0
144.56 7.34174 0
142.024 7.38222 0
143.224 3.07587 0
144.526 5.19872 0
143.292 7.36206 0
141.99 5.23918 0
143.258 5.21902 0
144.492 3.05557 0
147.027 3.01453 0
147.096 7.30068 0
144.56 7.34174 0
145.759 3.03512 0
147.062 5.15766 0
145.828 7.32129 0
144.526 5.19872 0
145.794 5.17827 0
147.027 3.01453 0
149.562 2.97289 0
149.633 7.25902 0
147.096 7.30068 0
148.294 2.99378 0
149.597 5.11602 0
148.365 7.27992 0
147.062 5.15766 0
148.33 5.13692 0
149.562 2.97289 0
152.097 2.93068 0
152.169 7.21678 0
149.633 7.25902 0
150.83 2.95186 0
152.133 5.07379 0
150.901 7.23798 0
149.597 5.11602 0
150.865 5.09498 0
152.097 2.93068 0
154.633 2.88788 0
154.705 7.17397 0
152.169 7.21678 0
153.365 2.90935 0
154.669 5.03099 0
153.437 7.19545 0
152.133 5.07379 0
153.401 5.05246 0
154.633 2.88788 0
157.168 2.84451 0
157.241 7.13057 0
154.705 7.17397 0
155.9 2.86627 0
157.205 4.9876 0
155.973 7.15234 0
154.669 5.03099 0
155.937 5.00937 0
157.168 2.84451 0
159.703 2.80057 0
159.778 7.0866 0
157.241 7.13057 0
158.436 2.82261 0
159.74 4.94365 0
158.51 7.10866 0
157.205 4.9876 0
158.473 4.9657 0
159.703 2.80057 0
162.238 2.75606 0
162.314 7.04207 0
159.778 7.0866 0
160.971 2.77838 0
162.276 4.89912 0
161.046 7.06441 0
159.74 4.94365 0
161.008 4.92145 0
162.238 2.75606 0
164.774 2.71098 0
164.85 6.99697 0
162.314 7.04207 0
163.506 2.73359 0
164.812 4.85404 0
163.582 7.01959 0
162.276 4.89912 0
163.544 4.87665 0
164.774 2.71098 0
167.309 2.66535 0
167.386 6.95131 0
164.85 6.99697 0
166.041 2.68824 0
167.348 4.80839 0
166.118 6.97421 0
164.812 4.85404 0
166.08 4.83128 0
167.309 2.66535 0
169.844 2.61916 0
169.923 6.9051 0
167.386 6.95131 0
168.577 2.64233 0
169.884 4.76219 0
168.655 6.92828 0
167.348 4.80839 0
168.616 4.78536 0
169.844 2.61916 0
172.38 2.57242 0
172.459 6.85834 0
169.923 6.9051 0
171.112 2.59586 0
172.419 4.71544 0
171.191 6.88179 0
169.884 4.76219 0
171.151 4.73888 0
172.38 2.57242 0
174.915 2.52514 0
174.995 6.81103 0
172.459 6.85834 0
173.647 2.54885 0
174.955 4.66814 0
173.727 6.83475 0
172.419 4.71544 0
173.687 4.69186 0
174.915 2.52514 0
177.45 2.47731 0
177.531 6.76318 0
174.995 6.81103 0
176.183 2.50129 0
177.491 4.6203 0
176.263 6.78717 0
174.955 4.66814 0
176.223 4.64429 0
177.45 2.47731 0
179.986 2.42895 0
180.068 6.71479 0
177.531 6.76318 0
178.718 2.4532 0
180.027 4.57193 0
178.8 6.73905 0
177.491 4.6203 0
178.759 4.59618 0
179.986 2.42895 0
182.521 2.38005 0
182.604 6.66587 0
180.068 6.71479 0
181.253 2.40456 0
182.563 4.52301 0
181.336 6.69039 0
180.027 4.57193 0
181.295 4.54754 0
182.521 2.38005 0
185.056 2.33062 0
185.14 6.61641 0
182.604 6.66587 0
183.789 2.3554 0
185.098 4.47357 0
183.872 6.64121 0
182.563 4.52301 0
183.83 4.49836 0
185.056 2.33062 0
187.592 2.28067 0
187.676 6.56644 0
185.14 6.61641 0
186.324 2.30571 0
187.634 4.42361 0
186.408 6.59149 0
185.098 4.47357 0
186.366 4.44866 0
187.592 2.28067 0
190.127 2.23019 0
190.213 6.51594 0
187.676 6.56644 0
188.859 2.2555 0
190.17 4.37312 0
188.945 6.54125 0
187.634 4.42361 0
188.902 4.39843 0
190.127 2.23019 0
192.663 2.1792 0
192.749 6.46492 0
190.213 6.51594 0
191.395 2.20476 0
192.706 4.32212 0
191.481 6.49049 0
190.17 4.37312 0
191.438 4.34768 0
192.663 2.1792 0
195.198 2.1277 0
195.285 6.41339 0
192.749 6.46492 0
193.93 2.15352 0
195.242 4.2706 0
194.017 6.43922 0
192.706 4.32212 0
193.974 4.29642 0
195.198 2.1277 0
197.733 2.07569 0
197.821 6.36136 0
195.285 6.41339 0
196.466 2.10176 0
197.777 4.21858 0
196.553 6.38744 0
195.242 4.2706 0
196.51 4.24465 0
197.733 2.07569 0
200.269 2.02317 0
200.358 6.30882 0
197.821 6.36136 0
199.001 2.04949 0
200.313 4.16605 0
199.09 6.33515 0
197.777 4.21858 0
199.045 4.19238 0
200.269 2.02317 0
202.804 1.97016 0
202.894 6.25578 0
200.358 6.30882 0
201.536 1.99673 0
202.849 4.11302 0
201.626 6.28236 0
200.313 4.16605 0
201.581 4.1396 0
202.804 1.97016 0
205.34 1.91665 0
205.43 6.20224 0
202.894 6.25578 0
204.072 1.94347 0
205.385 4.0595 0
204.162 6.22907 0
202.849 4.11302 0
204.117 4.08632 0
205.34 1.91665 0
207.875 1.86265 0
207.967 6.14822 0
205.43 6.20224 0
206.607 1.88971 0
207.921 4.00548 0
206.698 6.17529 0
205.385 4.0595 0
206.653 4.03255 0
207.875 1.86265 0
210.41 1.80816 0
210.503 6.0937 0
207.967 6.14822 0
209.143 1.83546 0
210.457 3.95098 0
209.235 6.12102 0
207.921 4.00548 0
209.189 3.97829 0
210.41 1.80816 0
212.946 1.75318 0
213.039 6.0387 0
210.503 6.0937 0
211.678 1.78073 0
212.992 3.896 0
211.771 6.06626 0
210.457 3.95098 0
211.725 3.92355 0
212.946 1.75318 0
215.481 1.69773 0
215.575 5.98323 0
213.039 6.0387 0
214.214 1.72552 0
215.528 3.84053 0
214.307 6.01103 0
212.992 3.896 0
214.26 3.86832 0
215.481 1.69773 0
218.017 1.64181 0
218.112 5.92728 0
215.575 5.98323 0
216.749 1.66983 0
218.064 3.78459 0
216.843 5.95531 0
215.528 3.84053 0
216.796 3.81262 0
218.017 1.64181 0
220.552 1.58541 0
220.648 5.87086 0
218.112 5.92728 0
219.285 1.61367 0
220.6 3.72819 0
219.38 5.89913 0
218.064 3.78459 0
219.332 3.75645 0
220.552 1.58541 0
223.088 1.52855 0
223.184 5.81397 0
220.648 5.87086 0
221.82 1.55704 0
223.136 3.67131 0
221.916 5.84247 0
220.6 3.72819 0
221.868 3.69981 0
223.088 1.52855 0
225.623 1.47123 0
225.72 5.75662 0
223.184 5.81397 0
224.355 1.49995 0
225.672 3.61397 0
224.452 5.78536 0
223.136 3.67131 0
224.404 3.6427 0
225.623 1.47123 0
228.159 1.41345 0
228.257 5.69882 0
225.72 5.75662 0
226.891 1.44239 0
228.208 3.55618 0
226.988 5.72778 0
225.672 3.61397 0
226.94 3.58513 0
228.159 1.41345 0
230.694 1.35521 0
230.793 5.64056 0
228.257 5.69882 0
229.426 1.38439 0
230.744 3.49793 0
229.525 5.66975 0
228.208 3.55618 0
229.476 3.52711 0
230.694 1.35521 0
233.23 1.29653 0
233.329 5.58185 0
230.793 5.64056 0
231.962 1.32593 0
233.279 3.43924 0
232.061 5.61126 0
230.744 3.49793 0
232.011 3.46864 0
233.23 1.29653 0
235.765 1.2374 0
235.865 5.5227 0
233.329 5.58185 0
234.497 1.26702 0
235.815 3.3801 0
234.597 5.55233 0
233.279 3.43924 0
234.547 3.40972 0
235.765 1.2374 0
238.301 1.17783 0
238.402 5.46311 0
235.865 5.5227 0
237.033 1.20767 0
238.351 3.32052 0
237.133 5.49296 0
235.815 3.3801 0
237.083 3.35036 0
238.301 1.17783 0
240.836 1.11783 0
240.938 5.40308 0
238.402 5.46311 0
239.569 1.14788 0
240.887 3.2605 0
239.67 5.43315 0
238.351 3.32052 0
239.619 3.29056 0
240.836 1.11783 0
243.372 1.05739 0
243.474 5.34261 0
240.938 5.40308 0
242.104 1.08766 0
243.423 3.20005 0
242.206 5.3729 0
240.887 3.2605 0
242.155 3.23033 0
243.372 1.05739 0
245.907 0.996526 0
246.01 5.28173 0
243.474 5.34261 0
244.64 1.02701 0
245.959 3.13917 0
244.742 5.31222 0
243.423 3.20005 0
244.691 3.16966 0
245.907 0.996526 0
248.443 0.935237 0
248.547 5.22041 0
246.01 5.28173 0
247.175 0.965934 0
248.495 3.07787 0
247.279 5.25112 0
245.959 3.13917 0
247.227 3.10857 0
248.443 0.935237 0
250.978 0.873529 0
251.083 5.15868 0
248.547 5.22041 0
249.711 0.904435 0
251.031 3.01615 0
249.815 5.1896 0
248.495 3.07787 0
249.763 3.04706 0
250.978 0.873529 0
253.514 0.811405 0
253.619 5.09653 0
251.083 5.15868 0
252.246 0.842519 0
253.567 2.95401 0
252.351 5.12766 0
251.031 3.01615 0
252.299 2.98513 0
253.514 0.811405 0
256.05 0.748871 0
256.155 5.03397 0
253.619 5.09653 0
254.782 0.780189 0
256.103 2.89147 0
254.887 5.0653 0
253.567 2.95401 0
254.835 2.92279 0
256.05 0.748871 0
258.585 0.685929 0
258.692 4.97101 0
256.155 5.03397 0
257.317 0.717451 0
258.638 2.82851 0
257.424 5.00254 0
256.103 2.89147 0
257.371 2.86004 0
258.585 0.685929 0
261.121 0.622586 0
261.228 4.90764 0
258.692 4.97101 0
259.853 0.654307 0
261.174 2.76515 0
259.96 4.93937 0
258.638 2.82851 0
259.906 2.79688 0
261.121 0.622586 0
263.656 0.558843 0
263.764 4.84387 0
261.228 4.90764 0
262.389 0.590764 0
263.71 2.7014 0
262.496 4.87581 0
261.174 2.76515 0
262.442 2.73333 0
263.656 0.558843 0
266.192 0.494707 0
266.301 4.77971 0
263.764 4.84387 0
264.924 0.526824 0
266.246 2.63725 0
265.032 4.81184 0
263.71 2.7014 0
264.978 2.66937 0
266.192 0.494707 0
268.728 0.430181 0
268.837 4.71516 0
266.301 4.77971 0
267.46 0.462492 0
268.782 2.57271 0
267.569 4.74749 0
266.246 2.63725 0
267.514 2.60503 0
268.728 0.430181 0
271.263 0.365269 0
271.373 4.65023 0
268.837 4.71516 0
269.995 0.397773 0
271.318 2.50779 0
270.105 4.68274 0
268.782 2.57271 0
270.05 2.5403 0
271.263 0.365269 0
273.799 0.299976 0
273.909 4.58491 0
271.373 4.65023 0
272.531 0.33267 0
273.854 2.44248 0
272.641 4.61762 0
271.318 2.50779 0
272.586 2.47518 0
273.799 0.299976 0
276.335 0.234306 0
276.446 4.51922 0
273.909 4.58491 0
275.067 0.267188 0
276.39 2.3768 0
275.177 4.55211 0
273.854 2.44248 0
275.122 2.40969 0
276.335 0.234306 0
278.87 0.168262 0
278.982 4.45315 0
276.446 4.51922 0
277.602 0.20133 0
278.926 2.31075 0
277.714 4.48623 0
276.39 2.3768 0
277.658 2.34382 0
278.87 0.168262 0
281.406 0.10185 0
281.518 4.38671 0
278.982 4.45315 0
280.138 0.135102 0
281.462 2.24432 0
280.25 4.41998 0
278.926 2.31075 0
280.194 2.27758 0
281.406 0.10185 0
283.941 0.0350739 0
284.054 4.31991 0
281.518 4.38671 0
282.674 0.0685074 0
283.998 2.17753 0
282.786 4.35336 0
281.462 2.24432 0
282.73 2.21097 0
283.941 0.0350739 0
286.477 -0.0320629 0
286.591 4.25275 0
284.054 4.31991 0
285.209 0.00155028 0
286.534 2.11038 0
285.323 4.28638 0
283.998 2.17753 0
285.266 2.144 0
286.477 -0.0320629 0
289.013 -0.0995556 0
289.127 4.18524 0
286.591 4.25275 0
287.745 -0.065765 0
289.07 2.04288 0
287.859 4.21904 0
286.534 2.11038 0
287.802 2.07668 0
289.013 -0.0995556 0
291.549 -0.1674 0
291.663 4.11737 0
289.127 4.18524 0
290.281 -0.133434 0
291.606 1.97502 0
290.395 4.15135 0
289.07 2.04288 0
290.338 2.00899 0
291.549 -0.1674 0
294.084 -0.235592 0
294.2 4.04916 0
291.663 4.11737 0
292.816 -0.201453 0
294.142 1.90682 0
292.931 4.08331 0
291.606 1.97502 0
292.874 1.94096 0
294.084 -0.235592 0
296.62 -0.304128 0
296.736 3.9806 0
294.2 4.04916 0
295.352 -0.269817 0
296.678 1.83827 0
295.468 4.01492 0
294.142 1.90682 0
295.41 1.87259 0
296.62 -0.304128 0
299.156 -0.373002 0
299.272 3.9117 0
296.736 3.9806 0
297.888 -0.338523 0
299.214 1.76938 0
298.004 3.94619 0
296.678 1.83827 0
297.946 1.80387 0
299.156 -0.373002 0
301.691 -0.442212 0
301.808 3.84247 0
299.272 3.9117 0
300.423 -0.407566 0
301.75 1.70016 0
300.54 3.87713 0
299.214 1.76938 0
300.482 1.73482 0
301.691 -0.442212 0
304.227 -0.511752 0
304.345 3.77291 0
301.808 3.84247 0
302.959 -0.476941 0
304.286 1.63061 0
303.077 3.80773 0
301.75 1.70016 0
303.018 1.66543 0
304.227 -0.511752 0
306.763 -0.581619 0
306.881 3.70302 0
304.345 3.77291 0
305.495 -0.546645 0
306.822 1.56073 0
305.613 3.738 0
304.286 1.63061 0
305.554 1.59571 0
306.763 -0.581619 0
309.299 -0.651807 0
309.417 3.63281 0
306.881 3.70302 0
308.031 -0.616673 0
309.358 1.49053 0
308.149 3.66795 0
306.822 1.56073 0
308.09 1.52567 0
309.299 -0.651807 0
311.834 -0.722314 0
311.954 3.56228 0
309.417 3.63281 0
310.566 -0.687021 0
311.894 1.42002 0
310.685 3.59758 0
309.358 1.49053 0
310.626 1.45531 0
311.834 -0.722314 0
314.37 -0.793134 0
314.49 3.49144 0
311.954 3.56228 0
313.102 -0.757685 0
314.43 1.34918 0
313.222 3.5269 0
311.894 1.42002 0
313.162 1.38464 0
314.37 -0.793134 0
316.906 -0.864264 0
317.026 3.42028 0
314.49 3.49144 0
315.638 -0.828661 0
316.966 1.27804 0
315.758 3.4559 0
314.43 1.34918 0
315.698 1.31365 0
316.906 -0.864264 0
319.442 -0.9357 0
319.562 3.34883 0
317.026 3.42028 0
318.174 -0.899944 0
319.502 1.2066 0
318.294 3.38459 0
316.966 1.27804 0
318.234 1.24236 0
319.442 -0.9357 0
321.977 -1.00744 0
322.099 3.27707 0
319.562 3.34883 0
320.71 -0.97153 0
322.038 1.13485 0
320.831 3.31299 0
319.502 1.2066 0
320.77 1.17076 0
321.977 -1.00744 0
324.513 -1.07947 0
324.635 3.20502 0
322.099 3.27707 0
323.245 -1.04342 0
324.574 1.0628 0
323.367 3.24108 0
322.038 1.13485 0
323.306 1.09886 0
324.513 -1.07947 0
327.049 -1.15179 0
327.171 3.13267 0
324.635 3.20502 0
325.781 -1.1156 0
327.11 0.990467 0
325.903 3.16888 0
324.574 1.0628 0
325.842 1.02667 0
327.049 -1.15179 0
329.585 -1.22441 0
329.708 3.06003 0
327.171 3.13267 0
328.317 -1.18807 0
329.646 0.917843 0
328.439 3.09639 0
327.11 0.990467 0
328.378 0.954191 0
329.585 -1.22441 0
332.121 -1.29731 0
332.244 2.98711 0
329.708 3.06003 0
330.853 -1.26082 0
332.182 0.844934 0
330.976 3.02361 0
329.646 0.917843 0
330.914 0.881423 0
332.121 -1.29731 0
334.657 -1.37048 0
334.78 2.91392 0
332.244 2.98711 0
333.389 -1.33386 0
334.718 0.771745 0
333.512 2.95055 0
332.182 0.844934 0
333.45 0.808374 0
334.657 -1.37048 0
337.192 -1.44394 0
337.317 2.84044 0
334.78 2.91392 0
335.925 -1.40718 0
337.255 0.69828 0
336.048 2.87721 0
334.718 0.771745 0
335.986 0.735047 0
337.192 -1.44394 0
339.728 -1.51766 0
339.853 2.7667 0
337.317 2.84044 0
338.46 -1.48077 0
339.791 0.624545 0
338.585 2.8036 0
337.255 0.69828 0
338.523 0.661446 0
339.728 -1.51766 0
342.264 -1.59166 0
342.389 2.69268 0
339.853 2.7667 0
340.996 -1.55463 0
342.327 0.550542 0
341.121 2.72972 0
339.791 0.624545 0
341.059 0.587576 0
342.264 -1.59166 0
344.8 -1.66591 0
344.926 2.61841 0
342.389 2.69268 0
343.532 -1.62875 0
344.863 0.476276 0
343.657 2.65558 0
342.327 0.550542 0
343.595 0.513441 0
344.8 -1.66591 0
347.336 -1.74042 0
347.462 2.54387 0
344.926 2.61841 0
346.068 -1.70314 0
347.399 0.401752 0
346.194 2.58117 0
344.863 0.476276 0
346.131 0.439046 0
347.336 -1.74042 0
349.872 -1.81519 0
349.998 2.46909 0
347.462 2.54387 0
348.604 -1.77778 0
349.935 0.326973 0
348.73 2.50651 0
347.399 0.401752 0
348.667 0.364394 0
349.872 -1.81519 0
352.408 -1.89021 0
352.535 2.39405 0
349.998 2.46909 0
351.14 -1.85267 0
352.471 0.251944 0
351.266 2.4316 0
349.935 0.326973 0
351.203 0.289489 0
352.408 -1.89021 0
354.944 -1.96548 0
355.071 2.31876 0
352.535 2.39405 0
353.676 -1.92781 0
355.007 0.176669 0
353.803 2.35644 0
352.471 0.251944 0
353.739 0.214337 0
354.944 -1.96548 0
357.48 -2.04098 0
357.607 2.24324 0
355.071 2.31876 0
356.212 -2.0032 0
357.543 0.101152 0
356.339 2.28103 0
355.007 0.176669 0
356.275 0.13894 0
357.48 -2.04098 0
360.016 -2.11673 0
360.144 2.16747 0
357.607 2.24324 0
358.748 -2.07883 0
360.08 0.0253979 0
358.875 2.20539 0
357.543 0.101152 0
358.812 0.0633045 0
360.016 -2.11673 0
362.552 -2.19271 0
362.68 2.09148 0
360.144 2.16747 0
361.284 -2.15469 0
362.616 -0.0505895 0
361.412 2.1295 0
360.08 0.0253979 0
361.348 -0.0125669 0
362.552 -2.19271 0
365.088 -2.26891 0
365.216 2.01525 0
362.68 2.09148 0
363.82 -2.23078 0
365.152 -0.126806 0
363.948 2.05339 0
362.616 -0.0505895 0
363.884 -0.0886694 0
365.088 -2.26891 0
367.624 -2.34534 0
367.753 1.9388 0
365.216 2.01525 0
366.356 -2.3071 0
367.688 -0.203247 0
366.484 1.97706 0
365.152 -0.126806 0
366.42 -0.164999 0
367.624 -2.34534 0
370.16 -2.422 0
370.289 1.86213 0
367.753 1.9388 0
368.892 -2.38364 0
370.224 -0.279909 0
369.021 1.90049 0
367.688 -0.203247 0
368.956 -0.241551 0
370.16 -2.422 0
372.696 -2.49886 0
372.825 1.78524 0
370.289 1.86213 0
371.428 -2.4604 0
372.76 -0.356787 0
371.557 1.82372 0
370.224 -0.279909 0
371.492 -0.318321 0
372.696 -2.49886 0
375.232 -2.57595 0
375.362 1.70815 0
372.825 1.78524 0
373.964 -2.53738 0
375.297 -0.433878 0
374.094 1.74672 0
372.76 -0.356787 0
374.029 -0.395306 0
375.232 -2.57595 0
377.768 -2.65323 0
377.898 1.63084 0
375.362 1.70815 0
376.5 -2.61456 0
377.833 -0.511176 0
376.63 1.66952 0
375.297 -0.433878 0
376.565 -0.472501 0
377.768 -2.65323 0
380.304 -2.73073 0
380.434 1.55333 0
377.898 1.63084 0
379.036 -2.69196 0
380.369 -0.588678 0
379.166 1.59211 0
377.833 -0.511176 0
379.101 -0.549902 0
380.304 -2.73073 0
382.84 -2.80842 0
382.971 1.47562 0
380.434 1.55333 0
381.572 -2.76955 0
382.905 -0.666379 0
381.703 1.5145 0
380.369 -0.588678 0
381.637 -0.627504 0
382.84 -2.80842 0
385.376 -2.88631 0
385.507 1.39772 0
382.971 1.47562 0
384.108 -2.84734 0
385.441 -0.744275 0
384.239 1.43669 0
382.905 -0.666379 0
384.173 -0.705303 0
385.376 -2.88631 0
387.912 -2.96438 0
388.044 1.31962 0
385.507 1.39772 0
386.644 -2.92532 0
387.978 -0.822363 0
386.775 1.35869 0
385.441 -0.744275 0
386.71 -0.783295 0
387.912 -2.96438 0
390.448 -3.04265 0
390.58 1.24134 0
388.044 1.31962 0
389.18 -3.00349 0
390.514 -0.900637 0
389.312 1.2805 0
387.978 -0.822363 0
389.246 -0.861477 0
390.448 -3.04265 0
392.984 -3.1211 0
393.116 1.16287 0
390.58 1.24134 0
391.716 -3.08185 0
393.05 -0.979093 0
391.848 1.20213 0
390.514 -0.900637 0
391.782 -0.939843 0
392.984 -3.1211 0
395.52 -3.19972 0
395.653 1.08423 0
393.116 1.16287 0
394.252 -3.16039 0
395.586 -1.05773 0
394.385 1.12357 0
393.05 -0.979093 0
394.318 -1.01839 0
395.52 -3.19972 0
398.056 -3.27852 0
398.189 1.00541 0
395.653 1.08423 0
396.788 -3.2391 0
398.123 -1.13654 0
396.921 1.04484 0
395.586 -1.05773 0
396.855 -1.09711 0
398.056 -3.27852 0
400.592 -3.35749 0
400.726 0.926428 0
398.189 1.00541 0
399.324 -3.31799 0
400.659 -1.21552 0
399.457 0.965942 0
398.123 -1.13654 0
399.391 -1.17601 0
400.592 -3.35749 0
403.128 -3.43663 0
403.262 0.847276 0
400.726 0.926428 0
401.86 -3.39704 0
403.195 -1.29466 0
401.994 0.886873 0
400.659 -1.21552 0
401.927 -1.25507 0
403.128 -3.43663 0
405.665 -3.51593 0
405.799 0.767964 0
403.262 0.847276 0
404.397 -3.47626 0
405.732 -1.37397 0
404.53 0.80764 0
403.195 -1.29466 0
404.463 -1.33429 0
405.665 -3.51593 0
408.201 -3.59538 0
408.335 0.688494 0
405.799 0.767964 0
406.933 -3.55563 0
408.268 -1.45343 0
407.067 0.728248 0
405.732 -1.37397 0
407 -1.41368 0
408.201 -3.59538 0
410.737 -3.67499 0
410.871 0.608871 0
408.335 0.688494 0
409.469 -3.63517 0
410.804 -1.53304 0
409.603 0.648701 0
408.268 -1.45343 0
409.536 -1.49322 0
410.737 -3.67499 0
413.273 -3.75474 0
413.408 0.5291 0
410.871 0.608871 0
412.005 -3.71485 0
413.341 -1.61281 0
412.14 0.569004 0
410.804 -1.53304 0
412.072 -1.57291 0
413.273 -3.75474 0
415.809 -3.83465 0
415.944 0.449185 0
413.408 0.5291 0
414.541 -3.79468 0
415.877 -1.69272 0
414.676 0.48916 0
413.341 -1.61281 0
414.609 -1.65274 0
415.809 -3.83465 0
418.346 -3.91469 0
418.481 0.369129 0
415.944 0.449185 0
417.078 -3.87465 0
418.413 -1.77276 0
417.213 0.409174 0
415.877 -1.69272 0
417.145 -1.73272 0
418.346 -3.91469 0
420.882 -3.99486 0
421.017 0.288938 0
418.481 0.369129 0
419.614 -3.95476 0
420.95 -1.85295 0
419.749 0.32905 0
418.413 -1.77276 0
419.681 -1.81284 0
420.882 -3.99486 0
423.418 -4.07517 0
423.554 0.208615 0
421.017 0.288938 0
422.15 -4.035 0
423.486 -1.93327 0
422.285 0.248793 0
420.95 -1.85295 0
422.218 -1.89309 0
423.418 -4.07517 0
425.954 -4.15561 0
426.09 0.128165 0
423.554 0.208615 0
424.686 -4.11537 0
426.022 -2.01371 0
424.822 0.168405 0
423.486 -1.93327 0
424.754 -1.97347 0
425.954 -4.15561 0
428.491 -4.23617 0
428.627 0.0475914 0
426.09 0.128165 0
427.223 -4.19587 0
428.559 -2.09428 0
427.358 0.0878932 0
426.022 -2.01371 0
427.291 -2.05398 0
428.491 -4.23617 0
431.027 -4.31685 0
431.163 -0.0331009 0
428.627 0.0475914 0
429.759 -4.27649 0
431.095 -2.17496 0
429.895 0.00725983 0
428.559 -2.09428 0
429.827 -2.1346 0
431.027 -4.31685 0
433.563 -4.39764 0
433.7 -0.113908 0
431.163 -0.0331009 0
432.295 -4.35723 0
433.632 -2.25576 0
432.431 -0.0734903 0
431.095 -2.17496 0
432.363 -2.21535 0
433.563 -4.39764 0
436.1 -4.47854 0
436.236 -0.194825 0
433.7 -0.113908 0
434.831 -4.43808 0
436.168 -2.33667 0
434.968 -0.154353 0
433.632 -2.25576 0
434.9 -2.2962 0
436.1 -4.47854 0
438.636 -4.55956 0
438.773 -0.275849 0
436.236 -0.194825 0
437.368 -4.51904 0
438.704 -2.41769 0
437.504 -0.235324 0
436.168 -2.33667 0
437.436 -2.37717 0
438.636 -4.55956 0
441.172 -4.64067 0
441.309 -0.356974 0
438.773 -0.275849 0
439.904 -4.6001 0
441.241 -2.49881 0
440.041 -0.316399 0
438.704 -2.41769 0
439.973 -2.45824 0
441.172 -4.64067 0
443.709 -4.72188 0
443.846 -0.438197 0
441.309 -0.356974 0
442.441 -4.68126 0
443.777 -2.58003 0
442.577 -0.397574 0
441.241 -2.49881 0
442.509 -2.53941 0
443.709 -4.72188 0
446.245 -4.80318 0
446.382 -0.519514 0
443.846 -0.438197 0
444.977 -4.76252 0
446.314 -2.66134 0
445.114 -0.478844 0
443.777 -2.58003 0
445.045 -2.62067 0
446.245 -4.80318 0
448.782 -4.88458 0
448.919 -0.60092 0
446.382 -0.519514 0
447.513 -4.84387 0
448.85 -2.74274 0
447.651 -0.560206 0
446.314 -2.66134 0
447.582 -2.70203 0
448.782 -4.88458 0
451.318 -4.96606 0
451.455 -0.682411 0
448.919 -0.60092 0
450.05 -4.92531 0
451.387 -2.82423 0
450.187 -0.641655 0
448.85 -2.74274 0
450.118 -2.78347 0
451.318 -4.96606 0
453.854 -5.04762 0
453.992 -0.763983 0
451.455 -0.682411 0
452.586 -5.00683 0
453.923 -2.90579 0
452.724 -0.723187 0
451.387 -2.82423 0
452.655 -2.865 0
453.854 -5.04762 0
456.391 -5.12925 0
456.529 -0.845631 0
453.992 -0.763983 0
455.123 -5.08843 0
456.46 -2.98744 0
455.26 -0.804797 0
453.923 -2.90579 0
455.191 -2.9466 0
456.391 -5.12925 0
458.927 -5.21096 0
459.065 -0.927352 0
456.529 -0.845631 0
457.659 -5.1701 0
458.996 -3.06915 0
457.797 -0.886482 0
456.46 -2.98744 0
457.728 -3.02828 0
458.927 -5.21096 0
461.464 -5.29274 0
461.602 -1.00914 0
459.065 -0.927352 0
460.195 -5.25184 0
461.533 -3.15093 0
460.333 -0.968238 0
458.996 -3.06915 0
460.264 -3.11003 0
461.464 -5.29274 0
464 -5.37458 0
464.138 -1.09099 0
461.602 -1.00914 0
462.732 -5.33365 0
464.069 -3.23278 0
462.87 -1.05006 0
461.533 -3.15093 0
462.801 -3.19185 0
464 -5.37458 0
466.537 -5.45649 0
466.675 -1.17291 0
464.138 -1.09099 0
465.268 -5.41553 0
466.606 -3.31469 0
465.407 -1.13194 0
464.069 -3.23278 0
465.338 -3.27373 0
466.537 -5.45649 0
469.073 -5.53844 0
469.212 -1.25487 0
466.675 -1.17291 0
467.805 -5.49746 0
469.142 -3.39665 0
467.943 -1.21388 0
466.606 -3.31469 0
467.874 -3.35566 0
469.073 -5.53844 0
471.61 -5.62045 0
471.748 -1.33689 0
469.212 -1.25487 0
470.342 -5.57944 0
471.679 -3.47867 0
470.48 -1.29588 0
469.142 -3.39665 0
470.411 -3.43765 0
471.61 -5.62045 0
474.146 -5.70251 0
474.285 -1.41896 0
471.748 -1.33689 0
472.878 -5.66147 0
474.216 -3.56073 0
473.016 -1.37792 0
471.679 -3.47867 0
472.947 -3.51969 0
474.146 -5.70251 0
476.683 -5.78461 0
476.821 -1.50107 0
474.285 -1.41896 0
475.415 -5.74355 0
476.752 -3.64283 0
475.553 -1.46001 0
474.216 -3.56073 0
475.484 -3.60178 0
476.683 -5.78461 0
479.22 -5.86674 0
479.358 -1.58321 0
476.821 -1.50107 0
477.951 -5.82567 0
479.289 -3.72497 0
478.09 -1.54213 0
476.752 -3.64283 0
478.02 -3.6839 0
479.22 -5.86674 0
481.756 -5.94891 0
481.895 -1.66539 0
479.358 -1.58321 0
480.488 -5.90782 0
481.825 -3.80715 0
480.626 -1.6243 0
479.289 -3.72497 0
480.557 -3.76606 0
481.756 -5.94891 0
484.293 -6.03112 0
484.431 -1.74761 0
481.895 -1.66539 0
483.024 -5.99001 0
484.362 -3.88936 0
483.163 -1.7065 0
481.825 -3.80715 0
483.094 -3.84825 0
484.293 -6.03112 0
486.829 -6.11334 0
486.968 -1.82985 0
484.431 -1.74761 0
485.561 -6.07223 0
486.899 -3.97159 0
485.7 -1.78872 0
484.362 -3.88936 0
485.63 -3.93047 0
486.829 -6.11334 0
489.366 -6.19559 0
489.505 -1.91211 0
486.968 -1.82985 0
488.098 -6.15447 0
489.435 -4.05385 0
488.236 -1.87097 0
486.899 -3.97159 0
488.167 -4.01272 0
489.366 -6.19559 0
491.903 -6.27787 0
492.041 -1.99439 0
489.505 -1.91211 0
490.634 -6.23673 0
491.972 -4.13613 0
490.773 -1.95325 0
489.435 -4.05385 0
490.704 -4.09499 0
491.903 -6.27787 0
494.439 -6.36018 0
494.578 -2.07669 0
492.041 -1.99439 0
493.171 -6.31902 0
494.509 -4.21844 0
493.31 -2.03554 0
491.972 -4.13613 0
493.241 -4.17728 0
494.439 -6.36018 0
496.976 -6.44254 0
497.115 -2.15898 0
494.578 -2.07669 0
495.708 -6.40135 0
497.046 -4.30076 0
495.847 -2.11784 0
494.509 -4.21844 0
495.777 -4.2596 0
496.976 -6.44254 0
499.513 -6.52493 0
499.652 -2.24124 0
497.115 -2.15898 0
498.245 -6.48374 0
499.582 -4.38307 0
498.383 -2.20012 0
497.046 -4.30076 0
498.314 -4.34192 0
0 8.57143 0
2.5362 8.57124 0
2.53745 12.8572 0
0 12.8571 0
1.26813 8.57149 0
2.53683 10.7143 0
1.26873 12.8573 0
0 10.7143 0
1.26843 10.7144 0
2.5362 8.57124 0
5.07226 8.56998 0
5.07486 12.8562 0
2.53745 12.8572 0
3.80424 8.57073 0
5.07357 10.7132 0
3.80616 12.8569 0
2.53683 10.7143 0
3.80521 10.7138 0
5.07226 8.56998 0
7.60824 8.56781 0
7.61223 12.8542 0
5.07486 12.8562 0
6.34026 8.569 0
7.61025 10.7111 0
6.34355 12.8553 0
5.07357 10.7132 0
6.34192 10.7122 0
7.60824 8.56781 0
10.1442 8.5648 0
10.1496 12.8512 0
7.61223 12.8542 0
8.87622 8.56641 0
10.1469 10.7081 0
8.88092 12.8528 0
7.61025 10.7111 0
8.87858 10.7097 0
10.1442 8.5648 0
12.6802 8.56097 0
12.687 12.8474 0
10.1496 12.8512 0
11.4122 8.56299 0
12.6836 10.7043 0
11.4183 12.8494 0
10.1469 10.7081 0
11.4152 10.7063 0
12.6802 8.56097 0
15.2161 8.55634 0
15.2243 12.8428 0
12.687 12.8474 0
13.9481 8.55876 0
15.2202 10.6996 0
13.9556 12.8452 0
12.6836 10.7043 0
13.9519 10.7021 0
15.2161 8.55634 0
17.7521 8.55091 0
17.7617 12.8373 0
15.2243 12.8428 0
16.4841 8.55372 0
17.7569 10.6942 0
16.493 12.8401 0
15.2202 10.6996 0
16.4886 10.697 0
17.7521 8.55091 0
20.2882 8.54467 0
20.2991 12.8311 0
17.7617 12.8373 0
19.0201 8.54789 0
20.2936 10.688 0
19.0304 12.8343 0
17.7569 10.6942 0
19.0253 10.6912 0
20.2882 8.54467 0
22.8242 8.53763 0
22.8365 12.824 0
20.2991 12.8311 0
21.5562 8.54125 0
22.8303 10.6809 0
21.5678 12.8276 0
20.2936 10.688 0
21.562 10.6845 0
22.8242 8.53763 0
25.3602 8.5298 0
25.3738 12.8162 0
22.8365 12.824 0
24.0922 8.53382 0
25.367 10.6731 0
24.1051 12.8202 0
22.8303 10.6809 0
24.0987 10.6771 0
25.3602 8.5298 0
27.8963 8.52118 0
27.9112 12.8075 0
25.3738 12.8162 0
26.6283 8.52559 0
27.9038 10.6644 0
26.6425 12.812 0
25.367 10.6731 0
26.6354 10.6689 0
27.8963 8.52118 0
30.4323 8.51177 0
30.4486 12.7981 0
27.9112 12.8075 0
29.1643 8.51657 0
30.4405 10.655 0
29.1799 12.8029 0
27.9038 10.6644 0
29.1721 10.6598 0
30.4323 8.51177 0
32.9684 8.50157 0
32.986 12.7879 0
30.4486 12.7981 0
31.7004 8.50677 0
32.9772 10.6448 0
31.7173 12.7931 0
30.4405 10.655 0
31.7088 10.65 0
32.9684 8.50157 0
35.5045 8.4906 0
35.5234 12.7769 0
32.986 12.7879 0
34.2364 8.49619 0
35.5139 10.6339 0
34.2547 12.7825 0
32.9772 10.6448 0
34.2456 10.6394 0
35.5045 8.4906 0
38.0406 8.47885 0
38.0608 12.7652 0
35.5234 12.7769 0
36.7725 8.48482 0
38.0507 10.6221 0
36.7921 12.7712 0
35.5139 10.6339 0
36.7823 10.6281 0
38.0406 8.47885 0
40.5767 8.46634 0
40.5982 12.7526 0
38.0608 12.7652 0
39.3086 8.47269 0
40.5874 10.6096 0
39.3295 12.759 0
38.0507 10.6221 0
39.319 10.6159 0
40.5767 8.46634 0
43.1127 8.45305 0
43.1356 12.7394 0
40.5982 12.7526 0
41.8447 8.45979 0
43.1242 10.5963 0
41.8669 12.7461 0
40.5874 10.6096 0
41.8558 10.603 0
43.1127 8.45305 0
45.6488 8.439 0
45.6729 12.7253 0
43.1356 12.7394 0
44.3808 8.44612 0
45.6609 10.5822 0
44.4042 12.7324 0
43.1242 10.5963 0
44.3925 10.5894 0
45.6488 8.439 0
48.185 8.4242 0
48.2103 12.7105 0
45.6729 12.7253 0
46.9169 8.4317 0
48.1976 10.5674 0
46.9416 12.718 0
45.6609 10.5822 0
46.9293 10.5749 0
48.185 8.4242 0
50.7211 8.40864 0
50.7477 12.6949 0
48.2103 12.7105 0
49.453 8.41651 0
50.7344 10.5519 0
49.479 12.7028 0
48.1976 10.5674 0
49.466 10.5597 0
50.7211 8.40864 0
53.2572 8.39233 0
53.2851 12.6786 0
50.7477 12.6949 0
51.9891 8.40058 0
53.2712 10.5355 0
52.0164 12.6868 0
50.7344 10.5519 0
52.0028 10.5438 0
53.2572 8.39233 0
55.7933 8.37528 0
55.8225 12.6615 0
53.2851 12.6786 0
54.5253 8.3839 0
55.8079 10.5185 0
54.5538 12.6701 0
53.2712 10.5355 0
54.5395 10.5271 0
55.7933 8.37528 0
58.3295 8.35748 0
58.3599 12.6437 0
55.8225 12.6615 0
57.0614 8.36647 0
58.3447 10.5007 0
57.0912 12.6527 0
55.8079 10.5185 0
57.0763 10.5097 0
58.3295 8.35748 0
60.8656 8.33895 0
60.8972 12.6252 0
58.3599 12.6437 0
59.5975 8.34831 0
60.8814 10.4821 0
59.6286 12.6345 0
58.3447 10.5007 0
59.613 10.4915 0
60.8656 8.33895 0
63.4017 8.31969 0
63.4346 12.6059 0
60.8972 12.6252 0
62.1337 8.32941 0
63.4182 10.4629 0
62.1659 12.6156 0
60.8814 10.4821 0
62.1498 10.4726 0
63.4017 8.31969 0
65.9379 8.29969 0
65.972 12.5859 0
63.4346 12.6059 0
64.6698 8.30978 0
65.9549 10.4429 0
64.7033 12.596 0
63.4182 10.4629 0
64.6866 10.453 0
65.9379 8.29969 0
68.474 8.27898 0
68.5094 12.5652 0
65.972 12.5859 0
67.206 8.28943 0
68.4917 10.4221 0
67.2407 12.5756 0
65.9549 10.4429 0
67.2233 10.4326 0
68.474 8.27898 0
71.0102 8.25754 0
71.0467 12.5437 0
68.5094 12.5652 0
69.7421 8.26835 0
71.0285 10.4007 0
69.7781 12.5545 0
68.4917 10.4221 0
69.7601 10.4115 0
71.0102 8.25754 0
73.5464 8.23539 0
73.5841 12.5215 0
71.0467 12.5437 0
72.2783 8.24655 0
73.5652 10.3785 0
72.3154 12.5327 0
71.0285 10.4007 0
72.2969 10.3897 0
73.5464 8.23539 0
76.0825 8.21253 0
76.1215 12.4987 0
73.5841 12.5215 0
74.8144 8.22405 0
76.102 10.3557 0
74.8528 12.5102 0
73.5652 10.3785 0
74.8336 10.3672 0
76.0825 8.21253 0
78.6187 8.18895 0
78.6588 12.4751 0
76.1215 12.4987 0
77.3506 8.20083 0
78.6388 10.3321 0
77.3902 12.487 0
76.102 10.3557 0
77.3704 10.344 0
78.6187 8.18895 0
81.1549 8.16468 0
81.1962 12.4508 0
78.6588 12.4751 0
79.8868 8.17691 0
81.1755 10.3078 0
79.9275 12.463 0
78.6388 10.3321 0
79.9072 10.32 0
81.1549 8.16468 0
83.6911 8.13971 0
83.7336 12.4258 0
81.1962 12.4508 0
82.423 8.15228 0
83.7123 10.2828 0
82.4649 12.4384 0
81.1755 10.3078 0
82.4439 10.2954 0
83.6911 8.13971 0
86.2272 8.11404 0
86.2709 12.4001 0
83.7336 12.4258 0
84.9592 8.12696 0
86.2491 10.2572 0
85.0022 12.413 0
83.7123 10.2828 0
84.9807 10.2701 0
86.2272 8.11404 0
88.7634 8.08768 0
88.8083 12.3737 0
86.2709 12.4001 0
87.4953 8.10095 0
88.7859 10.2308 0
87.5396 12.387 0
86.2491 10.2572 0
87.5175 10.2441 0
88.7634 8.08768 0
91.2996 8.06064 0
91.3456 12.3467 0
88.8083 12.3737 0
90.0315 8.07425 0
91.3226 10.2037 0
90.0769 12.3603 0
88.7859 10.2308 0
90.0542 10.2173 0
91.2996 8.06064 0
93.8358 8.03292 0
93.883 12.3189 0
91.3456 12.3467 0
92.5677 8.04686 0
93.8594 10.176 0
92.6143 12.3329 0
91.3226 10.2037 0
92.591 10.19 0
93.8358 8.03292 0
96.372 8.00451 0
96.4203 12.2905 0
93.883 12.3189 0
95.1039 8.0188 0
96.3962 10.1476 0
95.1516 12.3048 0
93.8594 10.176 0
95.1278 10.1619 0
96.372 8.00451 0
98.9082 7.97544 0
98.9576 12.2614 0
96.4203 12.2905 0
97.6401 7.99006 0
98.9329 10.1185 0
97.689 12.2761 0
96.3962 10.1476 0
97.6646 10.1331 0
98.9082 7.97544 0
101.444 7.94569 0
101.495 12.2317 0
98.9576 12.2614 0
100.176 7.96065 0
101.47 10.0888 0
100.226 12.2466 0
98.9329 10.1185 0
100.201 10.1037 0
101.444 7.94569 0
103.981 7.91528 0
104.032 12.2012 0
101.495 12.2317 0
102.713 7.93057 0
104.006 10.0583 0
102.764 12.2165 0
101.47 10.0888 0
102.738 10.0736 0
103.981 7.91528 0
106.517 7.88421 0
106.57 12.1702 0
104.032 12.2012 0
105.249 7.89983 0
106.543 10.0273 0
105.301 12.1858 0
104.006 10.0583 0
105.275 10.0429 0
106.517 7.88421 0
109.053 7.85248 0
109.107 12.1384 0
106.57 12.1702 0
107.785 7.86843 0
109.08 9.99552 0
107.838 12.1544 0
106.543 10.0273 0
107.812 10.0115 0
109.053 7.85248 0
111.589 7.8201 0
111.644 12.106 0
109.107 12.1384 0
110.321 7.83637 0
111.617 9.96313 0
110.376 12.1223 0
109.08 9.99552 0
110.348 9.9794 0
111.589 7.8201 0
114.125 7.78708 0
114.182 12.073 0
111.644 12.106 0
112.857 7.80367 0
114.154 9.93009 0
112.913 12.0896 0
111.617 9.96313 0
112.885 9.94669 0
114.125 7.78708 0
116.662 7.7534 0
116.719 12.0393 0
114.182 12.073 0
115.394 7.77032 0
116.69 9.89641 0
115.45 12.0562 0
114.154 9.93009 0
115.422 9.91333 0
116.662 7.7534 0
119.198 7.71909 0
119.256 12.005 0
116.719 12.0393 0
117.93 7.73633 0
119.227 9.86209 0
117.988 12.0222 0
116.69 9.89641 0
117.959 9.87933 0
119.198 7.71909 0
121.734 7.68415 0
121.793 11.97 0
119.256 12.005 0
120.466 7.7017 0
121.764 9.82714 0
120.525 11.9875 0
119.227 9.86209 0
120.495 9.84469 0
121.734 7.68415 0
124.27 7.64857 0
124.331 11.9344 0
121.793 11.97 0
123.002 7.66644 0
124.301 9.79155 0
123.062 11.9523 0
121.764 9.82714 0
123.032 9.80942 0
124.27 7.64857 0
126.807 7.61237 0
126.868 11.8982 0
124.331 11.9344 0
125.538 7.63055 0
126.837 9.75534 0
125.599 11.9164 0
124.301 9.79155 0
125.569 9.77352 0
126.807 7.61237 0
129.343 7.57554 0
129.405 11.8613 0
126.868 11.8982 0
128.075 7.59403 0
129.374 9.7185 0
128.137 11.8798 0
126.837 9.75534 0
128.106 9.73699 0
129.343 7.57554 0
131.879 7.5381 0
131.943 11.8239 0
129.405 11.8613 0
130.611 7.55689 0
131.911 9.68104 0
130.674 11.8427 0
129.374 9.7185 0
130.642 9.69985 0
131.879 7.5381 0
134.415 7.50004 0
134.48 11.7858 0
131.943 11.8239 0
133.147 7.51914 0
134.448 9.64298 0
133.211 11.8049 0
131.911 9.68104 0
133.179 9.66209 0
134.415 7.50004 0
136.952 7.46137 0
137.017 11.7471 0
134.48 11.7858 0
135.683 7.48078 0
136.984 9.6043 0
135.748 11.7665 0
134.448 9.64298 0
135.716 9.62371 0
136.952 7.46137 0
139.488 7.42209 0
139.554 11.7078 0
137.017 11.7471 0
138.22 7.44181 0
139.521 9.56501 0
138.286 11.7275 0
136.984 9.6043 0
138.253 9.58473 0
139.488 7.42209 0
142.024 7.38222 0
142.092 11.6679 0
139.554 11.7078 0
140.756 7.40223 0
142.058 9.52513 0
140.823 11.6879 0
139.521 9.56501 0
140.789 9.54514 0
142.024 7.38222 0
144.56 7.34174 0
144.629 11.6274 0
142.092 11.6679 0
143.292 7.36206 0
144.595 9.48464 0
143.36 11.6477 0
142.058 9.52513 0
143.326 9.50496 0
144.56 7.34174 0
147.096 7.30068 0
147.166 11.5863 0
144.629 11.6274 0
145.828 7.32129 0
147.131 9.44357 0
145.897 11.6069 0
144.595 9.48464 0
145.863 9.46418 0
147.096 7.30068 0
149.633 7.25902 0
149.703 11.5447 0
147.166 11.5863 0
148.365 7.27992 0
149.668 9.4019 0
148.435 11.5656 0
147.131 9.44357 0
148.4 9.42281 0
149.633 7.25902 0
152.169 7.21678 0
152.241 11.5024 0
149.703 11.5447 0
150.901 7.23798 0
152.205 9.35965 0
150.972 11.5236 0
149.668 9.4019 0
150.936 9.38085 0
152.169 7.21678 0
154.705 7.17397 0
154.778 11.4596 0
152.241 11.5024 0
153.437 7.19545 0
154.742 9.31682 0
153.509 11.481 0
152.205 9.35965 0
153.473 9.33831 0
154.705 7.17397 0
157.241 7.13057 0
157.315 11.4161 0
154.778 11.4596 0
155.973 7.15234 0
157.278 9.27342 0
156.046 11.4379 0
154.742 9.31682 0
156.01 9.29519 0
157.241 7.13057 0
159.778 7.0866 0
159.852 11.3722 0
157.315 11.4161 0
158.51 7.10866 0
159.815 9.22944 0
158.584 11.3942 0
157.278 9.27342 0
158.547 9.2515 0
159.778 7.0866 0
162.314 7.04207 0
162.389 11.3276 0
159.852 11.3722 0
161.046 7.06441 0
162.352 9.18489 0
161.121 11.3499 0
159.815 9.22944 0
161.083 9.20724 0
162.314 7.04207 0
164.85 6.99697 0
164.927 11.2825 0
162.389 11.3276 0
163.582 7.01959 0
164.888 9.13978 0
163.658 11.3051 0
162.352 9.18489 0
163.62 9.16241 0
164.85 6.99697 0
167.386 6.95131 0
167.464 11.2368 0
164.927 11.2825 0
166.118 6.97421 0
167.425 9.09412 0
166.195 11.2597 0
164.888 9.13978 0
166.157 9.11702 0
167.386 6.95131 0
169.923 6.9051 0
170.001 11.1906 0
167.464 11.2368 0
168.655 6.92828 0
169.962 9.04789 0
168.732 11.2138 0
167.425 9.09412 0
168.693 9.07107 0
169.923 6.9051 0
172.459 6.85834 0
172.538 11.1438 0
170.001 11.1906 0
171.191 6.88179 0
172.499 9.00112 0
171.27 11.1672 0
169.962 9.04789 0
171.23 9.02458 0
172.459 6.85834 0
174.995 6.81103 0
175.075 11.0965 0
172.538 11.1438 0
173.727 6.83475 0
175.035 8.9538 0
173.807 11.1202 0
172.499 9.00112 0
173.767 8.97753 0
174.995 6.81103 0
177.531 6.76318 0
177.612 11.0486 0
175.075 11.0965 0
176.263 6.78717 0
177.572 8.90594 0
176.344 11.0726 0
175.035 8.9538 0
176.304 8.92994 0
177.531 6.76318 0
180.068 6.71479 0
180.15 11.0002 0
177.612 11.0486 0
178.8 6.73905 0
180.109 8.85754 0
178.881 11.0244 0
177.572 8.90594 0
178.84 8.88181 0
180.068 6.71479 0
182.604 6.66587 0
182.687 10.9512 0
180.15 11.0002 0
181.336 6.69039 0
182.645 8.8086 0
181.418 10.9758 0
180.109 8.85754 0
181.377 8.83314 0
182.604 6.66587 0
185.14 6.61641 0
185.224 10.9018 0
182.687 10.9512 0
183.872 6.64121 0
185.182 8.75914 0
183.955 10.9266 0
182.645 8.8086 0
183.914 8.78394 0
185.14 6.61641 0
187.676 6.56644 0
187.761 10.8518 0
185.224 10.9018 0
186.408 6.59149 0
187.719 8.70915 0
186.492 10.8768 0
185.182 8.75914 0
186.45 8.73421 0
187.676 6.56644 0
190.213 6.51594 0
190.298 10.8012 0
187.761 10.8518 0
188.945 6.54125 0
190.255 8.65864 0
189.03 10.8266 0
187.719 8.70915 0
188.987 8.68396 0
190.213 6.51594 0
192.749 6.46492 0
192.835 10.7502 0
190.298 10.8012 0
191.481 6.49049 0
192.792 8.60762 0
191.567 10.7758 0
190.255 8.65864 0
191.524 8.63319 0
192.749 6.46492 0
195.285 6.41339 0
195.372 10.6987 0
192.835 10.7502 0
194.017 6.43922 0
195.329 8.55608 0
194.104 10.7245 0
192.792 8.60762 0
194.06 8.58191 0
195.285 6.41339 0
197.821 6.36136 0
197.91 10.6466 0
195.372 10.6987 0
196.553 6.38744 0
197.866 8.50403 0
196.641 10.6727 0
195.329 8.55608 0
196.597 8.53012 0
197.821 6.36136 0
200.358 6.30882 0
200.447 10.594 0
197.91 10.6466 0
199.09 6.33515 0
200.402 8.45148 0
199.178 10.6204 0
197.866 8.50403 0
199.134 8.47782 0
200.358 6.30882 0
202.894 6.25578 0
202.984 10.541 0
200.447 10.594 0
201.626 6.28236 0
202.939 8.39843 0
201.715 10.5676 0
200.402 8.45148 0
201.671 8.42502 0
202.894 6.25578 0
205.43 6.20224 0
205.521 10.4874 0
202.984 10.541 0
204.162 6.22907 0
205.476 8.34488 0
204.252 10.5143 0
202.939 8.39843 0
204.207 8.37172 0
205.43 6.20224 0
207.967 6.14822 0
208.058 10.4334 0
205.521 10.4874 0
206.698 6.17529 0
208.012 8.29084 0
206.789 10.4605 0
205.476 8.34488 0
206.744 8.31792 0
207.967 6.14822 0
210.503 6.0937 0
210.595 10.3788 0
208.058 10.4334 0
209.235 6.12102 0
210.549 8.23632 0
209.326 10.4062 0
208.012 8.29084 0
209.281 8.26364 0
210.503 6.0937 0
213.039 6.0387 0
213.132 10.3238 0
210.595 10.3788 0
211.771 6.06626 0
213.086 8.18131 0
211.864 10.3514 0
210.549 8.23632 0
211.817 8.20888 0
213.039 6.0387 0
215.575 5.98323 0
215.669 10.2683 0
213.132 10.3238 0
214.307 6.01103 0
215.622 8.12582 0
214.401 10.2961 0
213.086 8.18131 0
214.354 8.15363 0
215.575 5.98323 0
218.112 5.92728 0
218.206 10.2123 0
215.669 10.2683 0
216.843 5.95531 0
218.159 8.06986 0
216.938 10.2404 0
215.622 8.12582 0
216.891 8.0979 0
218.112 5.92728 0
220.648 5.87086 0
220.743 10.1559 0
218.206 10.2123 0
219.38 5.89913 0
220.696 8.01343 0
219.475 10.1842 0
218.159 8.06986 0
219.427 8.04171 0
220.648 5.87086 0
223.184 5.81397 0
223.28 10.099 0
220.743 10.1559 0
221.916 5.84247 0
223.232 7.95654 0
222.012 10.1275 0
220.696 8.01343 0
221.964 7.98504 0
223.184 5.81397 0
225.72 5.75662 0
225.817 10.0416 0
223.28 10.099 0
224.452 5.78536 0
225.769 7.89918 0
224.549 10.0704 0
223.232 7.95654 0
224.5 7.92791 0
225.72 5.75662 0
228.257 5.69882 0
228.354 9.9838 0
225.817 10.0416 0
226.988 5.72778 0
228.305 7.84136 0
227.086 10.0128 0
225.769 7.89918 0
227.037 7.87032 0
228.257 5.69882 0
230.793 5.64056 0
230.891 9.92552 0
228.354 9.9838 0
229.525 5.66975 0
230.842 7.78309 0
229.623 9.95472 0
228.305 7.84136 0
229.574 7.81228 0
230.793 5.64056 0
233.329 5.58185 0
233.428 9.8668 0
230.891 9.92552 0
232.061 5.61126 0
233.379 7.72437 0
232.16 9.89622 0
230.842 7.78309 0
232.11 7.75379 0
233.329 5.58185 0
235.865 5.5227 0
235.965 9.80762 0
233.428 9.8668 0
234.597 5.55233 0
235.915 7.66521 0
234.697 9.83726 0
233.379 7.72437 0
234.647 7.69484 0
235.865 5.5227 0
238.402 5.46311 0
238.502 9.74801 0
235.965 9.80762 0
237.133 5.49296 0
238.452 7.6056 0
237.234 9.77787 0
235.915 7.66521 0
237.184 7.63546 0
238.402 5.46311 0
240.938 5.40308 0
241.039 9.68796 0
238.502 9.74801 0
239.67 5.43315 0
240.989 7.54556 0
239.771 9.71804 0
238.452 7.6056 0
239.72 7.57564 0
240.938 5.40308 0
243.474 5.34261 0
243.576 9.62747 0
241.039 9.68796 0
242.206 5.3729 0
243.525 7.48509 0
242.308 9.65777 0
240.989 7.54556 0
242.257 7.51538 0
243.474 5.34261 0
246.01 5.28173 0
246.113 9.56656 0
243.576 9.62747 0
244.742 5.31222 0
246.062 7.42419 0
244.845 9.59707 0
243.525 7.48509 0
244.794 7.45469 0
246.01 5.28173 0
248.547 5.22041 0
248.65 9.50523 0
246.113 9.56656 0
247.279 5.25112 0
248.598 7.36287 0
247.382 9.53595 0
246.062 7.42419 0
247.33 7.39358 0
248.547 5.22041 0
251.083 5.15868 0
251.187 9.44348 0
248.65 9.50523 0
249.815 5.1896 0
251.135 7.30112 0
249.919 9.47441 0
248.598 7.36287 0
249.867 7.33205 0
251.083 5.15868 0
253.619 5.09653 0
253.724 9.38131 0
251.187 9.44348 0
252.351 5.12766 0
253.672 7.23896 0
252.456 9.41244 0
251.135 7.30112 0
252.403 7.27009 0
253.619 5.09653 0
256.155 5.03397 0
256.261 9.31873 0
253.724 9.38131 0
254.887 5.0653 0
256.208 7.17639 0
254.993 9.35007 0
253.672 7.23896 0
254.94 7.20773 0
256.155 5.03397 0
258.692 4.97101 0
258.798 9.25574 0
256.261 9.31873 0
257.424 5.00254 0
258.745 7.11342 0
257.53 9.28729 0
256.208 7.17639 0
257.477 7.14496 0
258.692 4.97101 0
261.228 4.90764 0
261.335 9.19235 0
258.798 9.25574 0
259.96 4.93937 0
261.282 7.05004 0
260.067 9.2241 0
258.745 7.11342 0
260.013 7.08178 0
261.228 4.90764 0
263.764 4.84387 0
263.872 9.12857 0
261.335 9.19235 0
262.496 4.87581 0
263.818 6.98626 0
262.604 9.16051 0
261.282 7.05004 0
262.55 7.0182 0
263.764 4.84387 0
266.301 4.77971 0
266.409 9.06439 0
263.872 9.12857 0
265.032 4.81184 0
266.355 6.92209 0
265.14 9.09653 0
263.818 6.98626 0
265.086 6.95423 0
266.301 4.77971 0
268.837 4.71516 0
268.946 8.99982 0
266.409 9.06439 0
267.569 4.74749 0
268.891 6.85753 0
267.677 9.03215 0
266.355 6.92209 0
267.623 6.88986 0
268.837 4.71516 0
271.373 4.65023 0
271.483 8.93486 0
268.946 8.99982 0
270.105 4.68274 0
271.428 6.79259 0
270.214 8.96739 0
268.891 6.85753 0
270.16 6.82511 0
271.373 4.65023 0
273.909 4.58491 0
274.02 8.86952 0
271.483 8.93486 0
272.641 4.61762 0
273.965 6.72726 0
272.751 8.90224 0
271.428 6.79259 0
272.696 6.75997 0
273.909 4.58491 0
276.446 4.51922 0
276.557 8.80381 0
274.02 8.86952 0
275.177 4.55211 0
276.501 6.66155 0
275.288 8.83671 0
273.965 6.72726 0
275.233 6.69445 0
276.446 4.51922 0
278.982 4.45315 0
279.093 8.73772 0
276.557 8.80381 0
277.714 4.48623 0
279.038 6.59548 0
277.825 8.77081 0
276.501 6.66155 0
277.769 6.62856 0
278.982 4.45315 0
281.518 4.38671 0
281.63 8.67127 0
279.093 8.73772 0
280.25 4.41998 0
281.574 6.52903 0
280.362 8.70454 0
279.038 6.59548 0
280.306 6.5623 0
281.518 4.38671 0
284.054 4.31991 0
284.167 8.60445 0
281.63 8.67127 0
282.786 4.35336 0
284.111 6.46222 0
282.899 8.6379 0
281.574 6.52903 0
282.843 6.49567 0
284.054 4.31991 0
286.591 4.25275 0
286.704 8.53727 0
284.167 8.60445 0
285.323 4.28638 0
286.647 6.39505 0
285.436 8.5709 0
284.111 6.46222 0
285.379 6.42868 0
286.591 4.25275 0
289.127 4.18524 0
289.241 8.46973 0
286.704 8.53727 0
287.859 4.21904 0
289.184 6.32752 0
287.973 8.50355 0
286.647 6.39505 0
287.916 6.36133 0
289.127 4.18524 0
291.663 4.11737 0
291.778 8.40185 0
289.241 8.46973 0
290.395 4.15135 0
291.721 6.25965 0
290.509 8.43583 0
289.184 6.32752 0
290.452 6.29363 0
291.663 4.11737 0
294.2 4.04916 0
294.315 8.33361 0
291.778 8.40185 0
292.931 4.08331 0
294.257 6.19142 0
293.046 8.36777 0
291.721 6.25965 0
292.989 6.22558 0
294.2 4.04916 0
296.736 3.9806 0
296.852 8.26504 0
294.315 8.33361 0
295.468 4.01492 0
296.794 6.12285 0
295.583 8.29937 0
294.257 6.19142 0
295.525 6.15718 0
296.736 3.9806 0
299.272 3.9117 0
299.388 8.19612 0
296.852 8.26504 0
298.004 3.94619 0
299.33 6.05395 0
298.12 8.23062 0
296.794 6.12285 0
298.062 6.08844 0
299.272 3.9117 0
301.808 3.84247 0
301.925 8.12687 0
299.388 8.19612 0
300.54 3.87713 0
301.867 5.9847 0
300.657 8.16154 0
299.33 6.05395 0
300.599 6.01937 0
301.808 3.84247 0
304.345 3.77291 0
304.462 8.05729 0
301.925 8.12687 0
303.077 3.80773 0
304.403 5.91513 0
303.194 8.09212 0
301.867 5.9847 0
303.135 5.94996 0
304.345 3.77291 0
306.881 3.70302 0
306.999 7.98738 0
304.462 8.05729 0
305.613 3.738 0
306.94 5.84523 0
305.731 8.02237 0
304.403 5.91513 0
305.672 5.88022 0
306.881 3.70302 0
309.417 3.63281 0
309.536 7.91715 0
306.999 7.98738 0
308.149 3.66795 0
309.477 5.77501 0
308.267 7.95231 0
306.94 5.84523 0
308.208 5.81016 0
309.417 3.63281 0
311.954 3.56228 0
312.073 7.8466 0
309.536 7.91715 0
310.685 3.59758 0
312.013 5.70447 0
310.804 7.88192 0
309.477 5.77501 0
310.745 5.73978 0
311.954 3.56228 0
314.49 3.49144 0
314.609 7.77574 0
312.073 7.8466 0
313.222 3.5269 0
314.55 5.63362 0
313.341 7.81121 0
312.013 5.70447 0
313.281 5.66909 0
314.49 3.49144 0
317.026 3.42028 0
317.146 7.70457 0
314.609 7.77574 0
315.758 3.4559 0
317.086 5.56246 0
315.878 7.7402 0
314.55 5.63362 0
315.818 5.59808 0
317.026 3.42028 0
319.562 3.34883 0
319.683 7.6331 0
317.146 7.70457 0
318.294 3.38459 0
319.623 5.49099 0
318.415 7.66887 0
317.086 5.56246 0
318.354 5.52677 0
319.562 3.34883 0
322.099 3.27707 0
322.22 7.56132 0
319.683 7.6331 0
320.831 3.31299 0
322.159 5.41923 0
320.951 7.59725 0
319.623 5.49099 0
320.891 5.45515 0
322.099 3.27707 0
324.635 3.20502 0
324.757 7.48925 0
322.22 7.56132 0
323.367 3.24108 0
324.696 5.34716 0
323.488 7.52532 0
322.159 5.41923 0
323.428 5.38323 0
324.635 3.20502 0
327.171 3.13267 0
327.293 7.41689 0
324.757 7.48925 0
325.903 3.16888 0
327.232 5.27481 0
326.025 7.45311 0
324.696 5.34716 0
325.964 5.31102 0
327.171 3.13267 0
329.708 3.06003 0
329.83 7.34423 0
327.293 7.41689 0
328.439 3.09639 0
329.769 5.20216 0
328.562 7.3806 0
327.232 5.27481 0
328.501 5.23852 0
329.708 3.06003 0
332.244 2.98711 0
332.367 7.2713 0
329.83 7.34423 0
330.976 3.02361 0
332.306 5.12924 0
331.099 7.3078 0
329.769 5.20216 0
331.037 5.16574 0
332.244 2.98711 0
334.78 2.91392 0
334.904 7.19808 0
332.367 7.2713 0
333.512 2.95055 0
334.842 5.05603 0
333.635 7.23472 0
332.306 5.12924 0
333.574 5.09267 0
334.78 2.91392 0
337.317 2.84044 0
337.441 7.12459 0
334.904 7.19808 0
336.048 2.87721 0
337.379 4.98255 0
336.172 7.16137 0
334.842 5.05603 0
336.11 5.01932 0
337.317 2.84044 0
339.853 2.7667 0
339.977 7.05083 0
337.441 7.12459 0
338.585 2.8036 0
339.915 4.90879 0
338.709 7.08774 0
337.379 4.98255 0
338.647 4.9457 0
339.853 2.7667 0
342.389 2.69268 0
342.514 6.9768 0
339.977 7.05083 0
341.121 2.72972 0
342.452 4.83477 0
341.246 7.01385 0
339.915 4.90879 0
341.183 4.87181 0
342.389 2.69268 0
344.926 2.61841 0
345.051 6.90251 0
342.514 6.9768 0
343.657 2.65558 0
344.988 4.76049 0
343.783 6.93969 0
342.452 4.83477 0
343.72 4.79766 0
344.926 2.61841 0
347.462 2.54387 0
347.588 6.82796 0
345.051 6.90251 0
346.194 2.58117 0
347.525 4.68594 0
346.319 6.86526 0
344.988 4.76049 0
346.257 4.72325 0
347.462 2.54387 0
349.998 2.46909 0
350.124 6.75315 0
347.588 6.82796 0
348.73 2.50651 0
350.061 4.61115 0
348.856 6.79059 0
347.525 4.68594 0
348.793 4.64858 0
349.998 2.46909 0
352.535 2.39405 0
352.661 6.6781 0
350.124 6.75315 0
351.266 2.4316 0
352.598 4.5361 0
351.393 6.71566 0
350.061 4.61115 0
351.33 4.57365 0
352.535 2.39405 0
355.071 2.31876 0
355.198 6.6028 0
352.661 6.6781 0
353.803 2.35644 0
355.134 4.46081 0
353.93 6.64048 0
352.598 4.5361 0
353.866 4.49848 0
355.071 2.31876 0
357.607 2.24324 0
357.735 6.52726 0
355.198 6.6028 0
356.339 2.28103 0
357.671 4.38527 0
356.466 6.56506 0
355.134 4.46081 0
356.403 4.42307 0
357.607 2.24324 0
360.144 2.16747 0
360.271 6.45148 0
357.735 6.52726 0
358.875 2.20539 0
360.207 4.3095 0
359.003 6.4894 0
357.671 4.38527 0
358.939 4.34742 0
360.144 2.16747 0
362.68 2.09148 0
362.808 6.37547 0
360.271 6.45148 0
361.412 2.1295 0
362.744 4.2335 0
361.54 6.4135 0
360.207 4.3095 0
361.476 4.27153 0
362.68 2.09148 0
365.216 2.01525 0
365.345 6.29923 0
362.808 6.37547 0
363.948 2.05339 0
365.281 4.15726 0
364.077 6.33738 0
362.744 4.2335 0
364.012 4.19541 0
365.216 2.01525 0
367.753 1.9388 0
367.882 6.22276 0
365.345 6.29923 0
366.484 1.97706 0
367.817 4.08081 0
366.613 6.26102 0
365.281 4.15726 0
366.549 4.11906 0
367.753 1.9388 0
370.289 1.86213 0
370.418 6.14608 0
367.882 6.22276 0
369.021 1.90049 0
370.354 4.00413 0
369.15 6.18445 0
367.817 4.08081 0
369.085 4.04249 0
370.289 1.86213 0
372.825 1.78524 0
372.955 6.06917 0
370.418 6.14608 0
371.557 1.82372 0
372.89 3.92723 0
371.687 6.10765 0
370.354 4.00413 0
371.622 3.96571 0
372.825 1.78524 0
375.362 1.70815 0
375.492 5.99206 0
372.955 6.06917 0
374.094 1.74672 0
375.427 3.85013 0
374.223 6.03064 0
372.89 3.92723 0
374.158 3.88871 0
375.362 1.70815 0
377.898 1.63084 0
378.029 5.91474 0
375.492 5.99206 0
376.63 1.66952 0
377.963 3.77281 0
376.76 5.95343 0
375.427 3.85013 0
376.695 3.81149 0
377.898 1.63084 0
380.434 1.55333 0
380.565 5.83722 0
378.029 5.91474 0
379.166 1.59211 0
380.5 3.69529 0
379.297 5.876 0
377.963 3.77281 0
379.232 3.73408 0
380.434 1.55333 0
382.971 1.47562 0
383.102 5.75949 0
380.565 5.83722 0
381.703 1.5145 0
383.036 3.61758 0
381.834 5.79838 0
380.5 3.69529 0
381.768 3.65646 0
382.971 1.47562 0
385.507 1.39772 0
385.639 5.68158 0
383.102 5.75949 0
384.239 1.43669 0
385.573 3.53967 0
384.37 5.72056 0
383.036 3.61758 0
384.305 3.57865 0
385.507 1.39772 0
388.044 1.31962 0
388.175 5.60347 0
385.639 5.68158 0
386.775 1.35869 0
388.11 3.46156 0
386.907 5.64254 0
385.573 3.53967 0
386.841 3.50064 0
388.044 1.31962 0
390.58 1.24134 0
390.712 5.52517 0
388.175 5.60347 0
389.312 1.2805 0
390.646 3.38327 0
389.444 5.56434 0
388.11 3.46156 0
389.378 3.42244 0
390.58 1.24134 0
393.116 1.16287 0
393.249 5.44669 0
390.712 5.52517 0
391.848 1.20213 0
393.183 3.3048 0
391.98 5.48596 0
390.646 3.38327 0
391.914 3.34406 0
393.116 1.16287 0
395.653 1.08423 0
395.786 5.36804 0
393.249 5.44669 0
394.385 1.12357 0
395.719 3.22615 0
394.517 5.40739 0
393.183 3.3048 0
394.451 3.2655 0
395.653 1.08423 0
398.189 1.00541 0
398.322 5.28921 0
395.786 5.36804 0
396.921 1.04484 0
398.256 3.14733 0
397.054 5.32865 0
395.719 3.22615 0
396.987 3.18676 0
398.189 1.00541 0
400.726 0.926428 0
400.859 5.21021 0
398.322 5.28921 0
399.457 0.965942 0
400.792 3.06834 0
399.591 5.24973 0
398.256 3.14733 0
399.524 3.10785 0
400.726 0.926428 0
403.262 0.847276 0
403.396 5.13105 0
400.859 5.21021 0
401.994 0.886873 0
403.329 2.98918 0
402.127 5.17065 0
400.792 3.06834 0
402.061 3.02878 0
403.262 0.847276 0
405.799 0.767964 0
405.932 5.05172 0
403.396 5.13105 0
404.53 0.80764 0
405.865 2.90986 0
404.664 5.0914 0
403.329 2.98918 0
404.597 2.94954 0
405.799 0.767964 0
408.335 0.688494 0
408.469 4.97224 0
405.932 5.05172 0
407.067 0.728248 0
408.402 2.83038 0
407.201 5.012 0
405.865 2.90986 0
407.134 2.87014 0
408.335 0.688494 0
410.871 0.608871 0
411.006 4.89261 0
408.469 4.97224 0
409.603 0.648701 0
410.939 2.75075 0
409.737 4.93244 0
408.402 2.83038 0
409.67 2.79059 0
410.871 0.608871 0
413.408 0.5291 0
413.542 4.81282 0
411.006 4.89261 0
412.14 0.569004 0
413.475 2.67098 0
412.274 4.85273 0
410.939 2.75075 0
412.207 2.71088 0
413.408 0.5291 0
415.944 0.449185 0
416.079 4.7329 0
413.542 4.81282 0
414.676 0.48916 0
416.012 2.59106 0
414.811 4.77288 0
413.475 2.67098 0
414.743 2.63103 0
415.944 0.449185 0
418.481 0.369129 0
418.616 4.65283 0
416.079 4.7329 0
417.213 0.409174 0
418.548 2.51099 0
417.347 4.69288 0
416.012 2.59106 0
417.28 2.55104 0
418.481 0.369129 0
421.017 0.288938 0
421.152 4.57263 0
418.616 4.65283 0
419.749 0.32905 0
421.085 2.4308 0
419.884 4.61275 0
418.548 2.51099 0
419.817 2.47091 0
421.017 0.288938 0
423.554 0.208615 0
423.689 4.4923 0
421.152 4.57263 0
422.285 0.248793 0
423.621 2.35047 0
422.421 4.53248 0
421.085 2.4308 0
422.353 2.39065 0
423.554 0.208615 0
426.09 0.128165 0
426.226 4.41184 0
423.689 4.4923 0
424.822 0.168405 0
426.158 2.27001 0
424.958 4.45208 0
423.621 2.35047 0
424.89 2.31026 0
426.09 0.128165 0
428.627 0.0475914 0
428.763 4.33125 0
426.226 4.41184 0
427.358 0.0878932 0
428.695 2.18943 0
427.494 4.37156 0
426.158 2.27001 0
427.426 2.22974 0
428.627 0.0475914 0
431.163 -0.0331009 0
431.299 4.25055 0
428.763 4.33125 0
429.895 0.00725983 0
431.231 2.10874 0
430.031 4.29092 0
428.695 2.18943 0
429.963 2.1491 0
431.163 -0.0331009 0
433.7 -0.113908 0
433.836 4.16973 0
431.299 4.25055 0
432.431 -0.0734903 0
433.768 2.02792 0
432.568 4.21016 0
431.231 2.10874 0
432.5 2.06834 0
433.7 -0.113908 0
436.236 -0.194825 0
436.373 4.08881 0
433.836 4.16973 0
434.968 -0.154353 0
436.304 1.947 0
435.104 4.12928 0
433.768 2.02792 0
435.036 1.98748 0
436.236 -0.194825 0
438.773 -0.275849 0
438.909 4.00777 0
436.373 4.08881 0
437.504 -0.235324 0
438.841 1.86597 0
437.641 4.0483 0
436.304 1.947 0
437.573 1.9065 0
438.773 -0.275849 0
441.309 -0.356974 0
441.446 3.92664 0
438.909 4.00777 0
440.041 -0.316399 0
441.378 1.78484 0
440.178 3.96722 0
438.841 1.86597 0
440.109 1.82542 0
441.309 -0.356974 0
443.846 -0.438197 0
443.983 3.84541 0
441.446 3.92664 0
442.577 -0.397574 0
443.914 1.70361 0
442.714 3.88604 0
441.378 1.78484 0
442.646 1.74424 0
443.846 -0.438197 0
446.382 -0.519514 0
446.519 3.76408 0
443.983 3.84541 0
445.114 -0.478844 0
446.451 1.62229 0
445.251 3.80476 0
443.914 1.70361 0
445.183 1.66297 0
446.382 -0.519514 0
448.919 -0.60092 0
449.056 3.68267 0
446.519 3.76408 0
447.651 -0.560206 0
448.987 1.54088 0
447.788 3.72339 0
446.451 1.62229 0
447.719 1.5816 0
448.919 -0.60092 0
451.455 -0.682411 0
451.593 3.60117 0
449.056 3.68267 0
450.187 -0.641655 0
451.524 1.45939 0
450.324 3.64193 0
448.987 1.54088 0
450.256 1.50015 0
451.455 -0.682411 0
453.992 -0.763983 0
454.129 3.51959 0
451.593 3.60117 0
452.724 -0.723187 0
454.061 1.37781 0
452.861 3.56039 0
451.524 1.45939 0
452.792 1.41861 0
453.992 -0.763983 0
456.529 -0.845631 0
456.666 3.43793 0
454.129 3.51959 0
455.26 -0.804797 0
456.597 1.29616 0
455.398 3.47877 0
454.061 1.37781 0
455.329 1.33699 0
456.529 -0.845631 0
459.065 -0.927352 0
459.203 3.35621 0
456.666 3.43793 0
457.797 -0.886482 0
459.134 1.21443 0
457.935 3.39708 0
456.597 1.29616 0
457.866 1.2553 0
459.065 -0.927352 0
461.602 -1.00914 0
461.74 3.27441 0
459.203 3.35621 0
460.333 -0.968238 0
461.671 1.13264 0
460.471 3.31532 0
459.134 1.21443 0
460.402 1.17355 0
461.602 -1.00914 0
464.138 -1.09099 0
464.276 3.19255 0
461.74 3.27441 0
462.87 -1.05006 0
464.207 1.05078 0
463.008 3.23349 0
461.671 1.13264 0
462.939 1.09172 0
464.138 -1.09099 0
466.675 -1.17291 0
466.813 3.11063 0
464.276 3.19255 0
465.407 -1.13194 0
466.744 0.968868 0
465.545 3.1516 0
464.207 1.05078 0
465.476 1.00983 0
466.675 -1.17291 0
469.212 -1.25487 0
469.35 3.02866 0
466.813 3.11063 0
467.943 -1.21388 0
469.281 0.886897 0
468.081 3.06965 0
466.744 0.968868 0
468.012 0.927889 0
469.212 -1.25487 0
471.748 -1.33689 0
471.886 2.94663 0
469.35 3.02866 0
470.48 -1.29588 0
471.817 0.804875 0
470.618 2.98765 0
469.281 0.886897 0
470.549 0.845892 0
471.748 -1.33689 0
474.285 -1.41896 0
474.423 2.86456 0
471.886 2.94663 0
473.016 -1.37792 0
474.354 0.722805 0
473.155 2.9056 0
471.817 0.804875 0
473.086 0.763846 0
474.285 -1.41896 0
476.821 -1.50107 0
476.96 2.78244 0
474.423 2.86456 0
475.553 -1.46001 0
476.891 0.640693 0
475.691 2.82351 0
474.354 0.722805 0
475.622 0.681754 0
476.821 -1.50107 0
479.358 -1.58321 0
479.497 2.70029 0
476.96 2.78244 0
478.09 -1.54213 0
479.427 0.558542 0
478.228 2.74137 0
476.891 0.640693 0
478.159 0.599622 0
479.358 -1.58321 0
481.895 -1.66539 0
482.033 2.6181 0
479.497 2.70029 0
480.626 -1.6243 0
481.964 0.476357 0
480.765 2.6592 0
479.427 0.558542 0
480.696 0.517453 0
481.895 -1.66539 0
484.431 -1.74761 0
484.57 2.53588 0
482.033 2.6181 0
483.163 -1.7065 0
484.501 0.39414 0
483.302 2.577 0
481.964 0.476357 0
483.232 0.435252 0
484.431 -1.74761 0
486.968 -1.82985 0
487.107 2.45364 0
484.57 2.53588 0
485.7 -1.78872 0
487.037 0.311897 0
485.838 2.49476 0
484.501 0.39414 0
485.769 0.353022 0
486.968 -1.82985 0
489.505 -1.91211 0
489.643 2.37137 0
487.107 2.45364 0
488.236 -1.87097 0
489.574 0.229631 0
488.375 2.41251 0
487.037 0.311897 0
488.306 0.270766 0
489.505 -1.91211 0
492.041 -1.99439 0
492.18 2.28909 0
489.643 2.37137 0
490.773 -1.95325 0
492.111 0.147348 0
490.912 2.33023 0
489.574 0.229631 0
490.842 0.188491 0
492.041 -1.99439 0
494.578 -2.07669 0
494.717 2.20681 0
492.18 2.28909 0
493.31 -2.03554 0
494.648 0.0650592 0
493.448 2.24795 0
492.111 0.147348 0
493.379 0.106204 0
494.578 -2.07669 0
497.115 -2.15898 0
497.254 2.12454 0
494.717 2.20681 0
495.847 -2.11784 0
497.184 -0.0172159 0
495.985 2.16567 0
494.648 0.0650592 0
495.916 0.0239183 0
497.115 -2.15898 0
499.652 -2.24124 0
499.79 2.04232 0
497.254 2.12454 0
498.383 -2.20012 0
499.721 -0.0994492 0
498.522 2.08342 0
497.184 -0.0172159 0
498.453 -0.0583399 0
0 12.8571 0
2.53745 12.8572 0
2.53868 17.143 0
0 17.1429 0
1.26873 12.8573 0
2.53807 15.0001 0
1.26934 17.1431 0
0 15 0
1.26903 15.0002 0
2.53745 12.8572 0
5.07486 12.8562 0
5.07741 17.1419 0
2.53868 17.143 0
3.80616 12.8569 0
5.07613 14.9991 0
3.80804 17.1426 0
2.53807 15.0001 0
3.8071 14.9998 0
5.07486 12.8562 0
7.61223 12.8542 0
7.61617 17.1399 0
5.07741 17.1419 0
6.34355 12.8553 0
7.6142 14.9971 0
6.34679 17.141 0
5.07613 14.9991 0
6.34517 14.9982 0
7.61223 12.8542 0
10.1496 12.8512 0
10.1549 17.1369 0
7.61617 17.1399 0
8.88092 12.8528 0
10.1523 14.9941 0
8.88555 17.1385 0
7.6142 14.9971 0
8.88323 14.9957 0
10.1496 12.8512 0
12.687 12.8474 0
12.6937 17.1331 0
10.1549 17.1369 0
11.4183 12.8494 0
12.6903 14.9903 0
11.4243 17.1351 0
10.1523 14.9941 0
11.4213 14.9923 0
12.687 12.8474 0
15.2243 12.8428 0
15.2325 17.1285 0
12.6937 17.1331 0
13.9556 12.8452 0
15.2284 14.9857 0
13.9631 17.1309 0
12.6903 14.9903 0
13.9594 14.9881 0
15.2243 12.8428 0
17.7617 12.8373 0
17.7712 17.123 0
15.2325 17.1285 0
16.493 12.8401 0
17.7665 14.9802 0
16.5018 17.1258 0
15.2284 14.9857 0
16.4974 14.9831 0
17.7617 12.8373 0
20.2991 12.8311 0
20.31 17.1168 0
17.7712 17.123 0
19.0304 12.8343 0
20.3045 14.974 0
19.0406 17.12 0
17.7665 14.9802 0
19.0355 14.9772 0
20.2991 12.8311 0
22.8365 12.824 0
22.8487 17.1097 0
20.31 17.1168 0
21.5678 12.8276 0
22.8426 14.9669 0
21.5793 17.1133 0
20.3045 14.974 0
21.5735 14.9706 0
22.8365 12.824 0
25.3738 12.8162 0
25.3874 17.1019 0
22.8487 17.1097 0
24.1051 12.8202 0
25.3806 14.9591 0
24.1181 17.1059 0
22.8426 14.9669 0
24.1116 14.9631 0
25.3738 12.8162 0
27.9112 12.8075 0
27.9261 17.0932 0
25.3874 17.1019 0
26.6425 12.812 0
27.9187 14.9505 0
26.6568 17.0976 0
25.3806 14.9591 0
26.6497 14.9549 0
27.9112 12.8075 0
30.4486 12.7981 0
30.4649 17.0838 0
27.9261 17.0932 0
29.1799 12.8029 0
30.4567 14.941 0
29.1955 17.0886 0
27.9187 14.9505 0
29.1877 14.9459 0
30.4486 12.7981 0
32.986 12.7879 0
33.0036 17.0736 0
30.4649 17.0838 0
31.7173 12.7931 0
32.9948 14.9308 0
31.7342 17.0788 0
30.4567 14.941 0
31.7258 14.936 0
32.986 12.7879 0
35.5234 12.7769 0
35.5423 17.0626 0
33.0036 17.0736 0
34.2547 12.7825 0
35.5328 14.9198 0
34.2729 17.0682 0
32.9948 14.9308 0
34.2638 14.9254 0
35.5234 12.7769 0
38.0608 12.7652 0
38.081 17.0508 0
35.5423 17.0626 0
36.7921 12.7712 0
38.0709 14.9081 0
36.8116 17.0568 0
35.5328 14.9198 0
36.8019 14.9141 0
38.0608 12.7652 0
40.5982 12.7526 0
40.6197 17.0383 0
38.081 17.0508 0
39.3295 12.759 0
40.6089 14.8956 0
39.3503 17.0447 0
38.0709 14.9081 0
39.3399 14.9019 0
40.5982 12.7526 0
43.1356 12.7394 0
43.1583 17.025 0
40.6197 17.0383 0
41.8669 12.7461 0
43.1469 14.8823 0
41.889 17.0317 0
40.6089 14.8956 0
41.8779 14.889 0
43.1356 12.7394 0
45.6729 12.7253 0
45.697 17.0109 0
43.1583 17.025 0
44.4042 12.7324 0
45.685 14.8682 0
44.4277 17.0181 0
43.1469 14.8823 0
44.416 14.8753 0
45.6729 12.7253 0
48.2103 12.7105 0
48.2357 16.9961 0
45.697 17.0109 0
46.9416 12.718 0
48.223 14.8534 0
46.9663 17.0036 0
45.685 14.8682 0
46.954 14.8609 0
48.2103 12.7105 0
50.7477 12.6949 0
50.7743 16.9805 0
48.2357 16.9961 0
49.479 12.7028 0
50.761 14.8378 0
49.505 16.9884 0
48.223 14.8534 0
49.492 14.8457 0
50.7477 12.6949 0
53.2851 12.6786 0
53.313 16.9642 0
50.7743 16.9805 0
52.0164 12.6868 0
53.299 14.8215 0
52.0436 16.9725 0
50.761 14.8378 0
52.03 14.8297 0
53.2851 12.6786 0
55.8225 12.6615 0
55.8516 16.9471 0
53.313 16.9642 0
54.5538 12.6701 0
55.837 14.8044 0
54.5823 16.9558 0
53.299 14.8215 0
54.568 14.813 0
55.8225 12.6615 0
58.3599 12.6437 0
58.3902 16.9293 0
55.8516 16.9471 0
57.0912 12.6527 0
58.3751 14.7866 0
57.1209 16.9383 0
55.837 14.8044 0
57.106 14.7956 0
58.3599 12.6437 0
60.8972 12.6252 0
60.9289 16.9108 0
58.3902 16.9293 0
59.6286 12.6345 0
60.9131 14.768 0
59.6596 16.9201 0
58.3751 14.7866 0
59.6441 14.7774 0
60.8972 12.6252 0
63.4346 12.6059 0
63.4675 16.8915 0
60.9289 16.9108 0
62.1659 12.6156 0
63.451 14.7488 0
62.1982 16.9012 0
60.9131 14.768 0
62.1821 14.7585 0
63.4346 12.6059 0
65.972 12.5859 0
66.0061 16.8715 0
63.4675 16.8915 0
64.7033 12.596 0
65.989 14.7288 0
64.7368 16.8816 0
63.451 14.7488 0
64.72 14.7388 0
65.972 12.5859 0
68.5094 12.5652 0
68.5447 16.8507 0
66.0061 16.8715 0
67.2407 12.5756 0
68.527 14.708 0
67.2754 16.8612 0
65.989 14.7288 0
67.258 14.7185 0
68.5094 12.5652 0
71.0467 12.5437 0
71.0833 16.8293 0
68.5447 16.8507 0
69.7781 12.5545 0
71.065 14.6866 0
69.814 16.8401 0
68.527 14.708 0
69.796 14.6974 0
71.0467 12.5437 0
73.5841 12.5215 0
73.6218 16.8071 0
71.0833 16.8293 0
72.3154 12.5327 0
73.603 14.6644 0
72.3525 16.8183 0
71.065 14.6866 0
72.334 14.6756 0
73.5841 12.5215 0
76.1215 12.4987 0
76.1604 16.7842 0
73.6218 16.8071 0
74.8528 12.5102 0
76.1409 14.6415 0
74.8911 16.7957 0
73.603 14.6644 0
74.872 14.653 0
76.1215 12.4987 0
78.6588 12.4751 0
78.699 16.7606 0
76.1604 16.7842 0
77.3902 12.487 0
78.6789 14.6179 0
77.4297 16.7725 0
76.1409 14.6415 0
77.4099 14.6298 0
78.6588 12.4751 0
81.1962 12.4508 0
81.2375 16.7363 0
78.699 16.7606 0
79.9275 12.463 0
81.2169 14.5936 0
79.9682 16.7485 0
78.6789 14.6179 0
79.9479 14.6059 0
81.1962 12.4508 0
83.7336 12.4258 0
83.776 16.7113 0
81.2375 16.7363 0
82.4649 12.4384 0
83.7548 14.5686 0
82.5068 16.7239 0
81.2169 14.5936 0
82.4858 14.5812 0
83.7336 12.4258 0
86.2709 12.4001 0
86.3146 16.6856 0
83.776 16.7113 0
85.0022 12.413 0
86.2927 14.5429 0
85.0453 16.6985 0
83.7548 14.5686 0
85.0238 14.5559 0
86.2709 12.4001 0
88.8083 12.3737 0
88.8531 16.6592 0
86.3146 16.6856 0
87.5396 12.387 0
88.8307 14.5166 0
87.5838 16.6725 0
86.2927 14.5429 0
87.5617 14.5298 0
88.8083 12.3737 0
91.3456 12.3467 0
91.3916 16.6322 0
88.8531 16.6592 0
90.0769 12.3603 0
91.3686 14.4895 0
90.1223 16.6458 0
88.8307 14.5166 0
90.0996 14.5031 0
91.3456 12.3467 0
93.883 12.3189 0
93.9301 16.6044 0
91.3916 16.6322 0
92.6143 12.3329 0
93.9065 14.4617 0
92.6608 16.6184 0
91.3686 14.4895 0
92.6376 14.4757 0
93.883 12.3189 0
96.4203 12.2905 0
96.4685 16.576 0
93.9301 16.6044 0
95.1516 12.3048 0
96.4444 14.4333 0
95.1993 16.5903 0
93.9065 14.4617 0
95.1755 14.4476 0
96.4203 12.2905 0
98.9576 12.2614 0
99.007 16.5469 0
96.4685 16.576 0
97.689 12.2761 0
98.9823 14.4042 0
97.7378 16.5615 0
96.4444 14.4333 0
97.7134 14.4189 0
98.9576 12.2614 0
101.495 12.2317 0
101.545 16.5171 0
99.007 16.5469 0
100.226 12.2466 0
101.52 14.3745 0
100.276 16.5321 0
98.9823 14.4042 0
100.251 14.3894 0
101.495 12.2317 0
104.032 12.2012 0
104.084 16.4866 0
101.545 16.5171 0
102.764 12.2165 0
104.058 14.344 0
102.815 16.5019 0
101.52 14.3745 0
102.789 14.3593 0
104.032 12.2012 0
106.57 12.1702 0
106.622 16.4555 0
104.084 16.4866 0
105.301 12.1858 0
106.596 14.3129 0
105.353 16.4712 0
104.058 14.344 0
105.327 14.3286 0
106.57 12.1702 0
109.107 12.1384 0
109.161 16.4238 0
106.622 16.4555 0
107.838 12.1544 0
109.134 14.2812 0
107.892 16.4397 0
106.596 14.3129 0
107.865 14.2971 0
109.107 12.1384 0
111.644 12.106 0
111.699 16.3914 0
109.161 16.4238 0
110.376 12.1223 0
111.672 14.2488 0
110.43 16.4077 0
109.134 14.2812 0
110.403 14.265 0
111.644 12.106 0
114.182 12.073 0
114.238 16.3583 0
111.699 16.3914 0
112.913 12.0896 0
114.21 14.2157 0
112.968 16.3749 0
111.672 14.2488 0
112.941 14.2323 0
114.182 12.073 0
116.719 12.0393 0
116.776 16.3246 0
114.238 16.3583 0
115.45 12.0562 0
116.747 14.182 0
115.507 16.3415 0
114.21 14.2157 0
115.478 14.1989 0
116.719 12.0393 0
119.256 12.005 0
119.314 16.2903 0
116.776 16.3246 0
117.988 12.0222 0
119.285 14.1477 0
118.045 16.3075 0
116.747 14.182 0
118.016 14.1649 0
119.256 12.005 0
121.793 11.97 0
121.853 16.2553 0
119.314 16.2903 0
120.525 11.9875 0
121.823 14.1127 0
120.584 16.2729 0
119.285 14.1477 0
120.554 14.1303 0
121.793 11.97 0
124.331 11.9344 0
124.391 16.2197 0
121.853 16.2553 0
123.062 11.9523 0
124.361 14.0771 0
123.122 16.2376 0
121.823 14.1127 0
123.092 14.095 0
124.331 11.9344 0
126.868 11.8982 0
126.929 16.1834 0
124.391 16.2197 0
125.599 11.9164 0
126.899 14.0409 0
125.66 16.2016 0
124.361 14.0771 0
125.63 14.0591 0
126.868 11.8982 0
129.405 11.8613 0
129.468 16.1466 0
126.929 16.1834 0
128.137 11.8798 0
129.437 14.004 0
128.199 16.1651 0
126.899 14.0409 0
128.168 14.0225 0
129.405 11.8613 0
131.943 11.8239 0
132.006 16.1091 0
129.468 16.1466 0
130.674 11.8427 0
131.974 13.9665 0
130.737 16.1279 0
129.437 14.004 0
130.705 13.9854 0
131.943 11.8239 0
134.48 11.7858 0
134.544 16.071 0
132.006 16.1091 0
133.211 11.8049 0
134.512 13.9285 0
133.275 16.0901 0
131.974 13.9665 0
133.243 13.9476 0
134.48 11.7858 0
137.017 11.7471 0
137.083 16.0323 0
134.544 16.071 0
135.748 11.7665 0
137.05 13.8898 0
135.813 16.0517 0
134.512 13.9285 0
135.781 13.9092 0
137.017 11.7471 0
139.554 11.7078 0
139.621 15.993 0
137.083 16.0323 0
138.286 11.7275 0
139.588 13.8505 0
138.352 16.0127 0
137.05 13.8898 0
138.319 13.8702 0
139.554 11.7078 0
142.092 11.6679 0
142.159 15.9531 0
139.621 15.993 0
140.823 11.6879 0
142.125 13.8106 0
140.89 15.9731 0
139.588 13.8505 0
140.857 13.8306 0
142.092 11.6679 0
144.629 11.6274 0
144.697 15.9126 0
142.159 15.9531 0
143.36 11.6477 0
144.663 13.7701 0
143.428 15.9329 0
142.125 13.8106 0
143.394 13.7904 0
144.629 11.6274 0
147.166 11.5863 0
147.236 15.8715 0
144.697 15.9126 0
145.897 11.6069 0
147.201 13.729 0
145.967 15.8921 0
144.663 13.7701 0
145.932 13.7496 0
147.166 11.5863 0
149.703 11.5447 0
149.774 15.8298 0
147.236 15.8715 0
148.435 11.5656 0
149.739 13.6873 0
148.505 15.8507 0
147.201 13.729 0
148.47 13.7082 0
149.703 11.5447 0
152.241 11.5024 0
152.312 15.7875 0
149.774 15.8298 0
150.972 11.5236 0
152.276 13.645 0
151.043 15.8087 0
149.739 13.6873 0
151.007 13.6662 0
152.241 11.5024 0
154.778 11.4596 0
154.85 15.7447 0
152.312 15.7875 0
153.509 11.481 0
154.814 13.6022 0
153.581 15.7662 0
152.276 13.645 0
153.545 13.6237 0
154.778 11.4596 0
157.315 11.4161 0
157.388 15.7012 0
154.85 15.7447 0
156.046 11.4379 0
157.352 13.5587 0
156.119 15.723 0
154.814 13.6022 0
156.083 13.5805 0
157.315 11.4161 0
159.852 11.3722 0
159.927 15.6572 0
157.388 15.7012 0
158.584 11.3942 0
159.889 13.5147 0
158.658 15.6793 0
157.352 13.5587 0
158.621 13.5368 0
159.852 11.3722 0
162.389 11.3276 0
162.465 15.6126 0
159.927 15.6572 0
161.121 11.3499 0
162.427 13.4702 0
161.196 15.635 0
159.889 13.5147 0
161.158 13.4925 0
162.389 11.3276 0
164.927 11.2825 0
165.003 15.5675 0
162.465 15.6126 0
163.658 11.3051 0
164.965 13.4251 0
163.734 15.5901 0
162.427 13.4702 0
163.696 13.4477 0
164.927 11.2825 0
167.464 11.2368 0
167.541 15.5218 0
165.003 15.5675 0
166.195 11.2597 0
167.502 13.3794 0
166.272 15.5447 0
164.965 13.4251 0
166.234 13.4023 0
167.464 11.2368 0
170.001 11.1906 0
170.079 15.4756 0
167.541 15.5218 0
168.732 11.2138 0
170.04 13.3331 0
168.81 15.4988 0
167.502 13.3794 0
168.771 13.3563 0
170.001 11.1906 0
172.538 11.1438 0
172.617 15.4288 0
170.079 15.4756 0
171.27 11.1672 0
172.578 13.2863 0
171.348 15.4522 0
170.04 13.3331 0
171.309 13.3098 0
172.538 11.1438 0
175.075 11.0965 0
175.155 15.3814 0
172.617 15.4288 0
173.807 11.1202 0
175.115 13.239 0
173.886 15.4052 0
172.578 13.2863 0
173.847 13.2627 0
175.075 11.0965 0
177.612 11.0486 0
177.693 15.3335 0
175.155 15.3814 0
176.344 11.0726 0
177.653 13.1911 0
176.424 15.3575 0
175.115 13.239 0
176.384 13.2151 0
177.612 11.0486 0
180.15 11.0002 0
180.232 15.2851 0
177.693 15.3335 0
178.881 11.0244 0
180.191 13.1427 0
178.962 15.3094 0
177.653 13.1911 0
178.922 13.167 0
180.15 11.0002 0
182.687 10.9512 0
182.77 15.2361 0
180.232 15.2851 0
181.418 10.9758 0
182.728 13.0937 0
181.501 15.2607 0
180.191 13.1427 0
181.459 13.1183 0
182.687 10.9512 0
185.224 10.9018 0
185.308 15.1867 0
182.77 15.2361 0
183.955 10.9266 0
185.266 13.0443 0
184.039 15.2115 0
182.728 13.0937 0
183.997 13.0691 0
185.224 10.9018 0
187.761 10.8518 0
187.846 15.1366 0
185.308 15.1867 0
186.492 10.8768 0
187.803 12.9943 0
186.577 15.1617 0
185.266 13.0443 0
186.535 13.0193 0
187.761 10.8518 0
190.298 10.8012 0
190.384 15.0861 0
187.846 15.1366 0
189.03 10.8266 0
190.341 12.9437 0
189.115 15.1114 0
187.803 12.9943 0
189.072 12.9691 0
190.298 10.8012 0
192.835 10.7502 0
192.922 15.035 0
190.384 15.0861 0
191.567 10.7758 0
192.878 12.8927 0
191.653 15.0606 0
190.341 12.9437 0
191.61 12.9183 0
192.835 10.7502 0
195.372 10.6987 0
195.46 14.9835 0
192.922 15.035 0
194.104 10.7245 0
195.416 12.8411 0
194.191 15.0093 0
192.878 12.8927 0
194.147 12.867 0
195.372 10.6987 0
197.91 10.6466 0
197.998 14.9314 0
195.46 14.9835 0
196.641 10.6727 0
197.954 12.7891 0
196.729 14.9575 0
195.416 12.8411 0
196.685 12.8152 0
197.91 10.6466 0
200.447 10.594 0
200.536 14.8788 0
197.998 14.9314 0
199.178 10.6204 0
200.491 12.7365 0
199.267 14.9052 0
197.954 12.7891 0
199.222 12.7628 0
200.447 10.594 0
202.984 10.541 0
203.073 14.8257 0
200.536 14.8788 0
201.715 10.5676 0
203.029 12.6834 0
201.804 14.8523 0
200.491 12.7365 0
201.76 12.71 0
202.984 10.541 0
205.521 10.4874 0
205.611 14.7722 0
203.073 14.8257 0
204.252 10.5143 0
205.566 12.6298 0
204.342 14.799 0
203.029 12.6834 0
204.297 12.6567 0
205.521 10.4874 0
208.058 10.4334 0
208.149 14.7181 0
205.611 14.7722 0
206.789 10.4605 0
208.104 12.5758 0
206.88 14.7452 0
205.566 12.6298 0
206.835 12.6029 0
208.058 10.4334 0
210.595 10.3788 0
210.687 14.6636 0
208.149 14.7181 0
209.326 10.4062 0
210.641 12.5212 0
209.418 14.6909 0
208.104 12.5758 0
209.372 12.5486 0
210.595 10.3788 0
213.132 10.3238 0
213.225 14.6085 0
210.687 14.6636 0
211.864 10.3514 0
213.179 12.4662 0
211.956 14.6361 0
210.641 12.5212 0
211.91 12.4938 0
213.132 10.3238 0
215.669 10.2683 0
215.763 14.553 0
213.225 14.6085 0
214.401 10.2961 0
215.716 12.4107 0
214.494 14.5808 0
213.179 12.4662 0
214.447 12.4385 0
215.669 10.2683 0
218.206 10.2123 0
218.301 14.497 0
215.763 14.553 0
216.938 10.2404 0
218.253 12.3547 0
217.032 14.5251 0
215.716 12.4107 0
216.985 12.3828 0
218.206 10.2123 0
220.743 10.1559 0
220.839 14.4406 0
218.301 14.497 0
219.475 10.1842 0
220.791 12.2983 0
219.57 14.4688 0
218.253 12.3547 0
219.522 12.3266 0
220.743 10.1559 0
223.28 10.099 0
223.376 14.3836 0
220.839 14.4406 0
222.012 10.1275 0
223.328 12.2414 0
222.108 14.4122 0
220.791 12.2983 0
222.06 12.2699 0
223.28 10.099 0
225.817 10.0416 0
225.914 14.3262 0
223.376 14.3836 0
224.549 10.0704 0
225.866 12.184 0
224.645 14.355 0
223.328 12.2414 0
224.597 12.2127 0
225.817 10.0416 0
228.354 9.9838 0
228.452 14.2684 0
225.914 14.3262 0
227.086 10.0128 0
228.403 12.1262 0
227.183 14.2974 0
225.866 12.184 0
227.134 12.1551 0
228.354 9.9838 0
230.891 9.92552 0
230.99 14.2101 0
228.452 14.2684 0
229.623 9.95472 0
230.941 12.0679 0
229.721 14.2393 0
228.403 12.1262 0
229.672 12.0971 0
230.891 9.92552 0
233.428 9.8668 0
233.528 14.1514 0
230.99 14.2101 0
232.16 9.89622 0
233.478 12.0091 0
232.259 14.1808 0
230.941 12.0679 0
232.209 12.0385 0
233.428 9.8668 0
235.965 9.80762 0
236.065 14.0922 0
233.528 14.1514 0
234.697 9.83726 0
236.015 11.9499 0
234.796 14.1218 0
233.478 12.0091 0
234.747 11.9796 0
235.965 9.80762 0
238.502 9.74801 0
238.603 14.0325 0
236.065 14.0922 0
237.234 9.77787 0
238.553 11.8903 0
237.334 14.0624 0
236.015 11.9499 0
237.284 11.9202 0
238.502 9.74801 0
241.039 9.68796 0
241.141 13.9725 0
238.603 14.0325 0
239.771 9.71804 0
241.09 11.8303 0
239.872 14.0026 0
238.553 11.8903 0
239.821 11.8603 0
241.039 9.68796 0
243.576 9.62747 0
243.679 13.912 0
241.141 13.9725 0
242.308 9.65777 0
243.627 11.7698 0
242.41 13.9423 0
241.09 11.8303 0
242.359 11.8001 0
243.576 9.62747 0
246.113 9.56656 0
246.216 13.851 0
243.679 13.912 0
244.845 9.59707 0
246.165 11.7088 0
244.947 13.8816 0
243.627 11.7698 0
244.896 11.7394 0
246.113 9.56656 0
248.65 9.50523 0
248.754 13.7897 0
246.216 13.851 0
247.382 9.53595 0
248.702 11.6475 0
247.485 13.8204 0
246.165 11.7088 0
247.433 11.6782 0
248.65 9.50523 0
251.187 9.44348 0
251.292 13.7279 0
248.754 13.7897 0
249.919 9.47441 0
251.239 11.5857 0
250.023 13.7589 0
248.702 11.6475 0
249.971 11.6167 0
251.187 9.44348 0
253.724 9.38131 0
253.829 13.6657 0
251.292 13.7279 0
252.456 9.41244 0
253.777 11.5236 0
252.56 13.6969 0
251.239 11.5857 0
252.508 11.5547 0
253.724 9.38131 0
256.261 9.31873 0
256.367 13.6031 0
253.829 13.6657 0
254.993 9.35007 0
256.314 11.461 0
255.098 13.6345 0
253.777 11.5236 0
255.045 11.4923 0
256.261 9.31873 0
258.798 9.25574 0
258.905 13.5401 0
256.367 13.6031 0
257.53 9.28729 0
258.851 11.398 0
257.636 13.5717 0
256.314 11.461 0
257.583 11.4295 0
258.798 9.25574 0
261.335 9.19235 0
261.442 13.4767 0
258.905 13.5401 0
260.067 9.2241 0
261.389 11.3346 0
260.173 13.5085 0
258.851 11.398 0
260.12 11.3663 0
261.335 9.19235 0
263.872 9.12857 0
263.98 13.4129 0
261.442 13.4767 0
262.604 9.16051 0
263.926 11.2708 0
262.711 13.4449 0
261.389 11.3346 0
262.657 11.3027 0
263.872 9.12857 0
266.409 9.06439 0
266.517 13.3487 0
263.98 13.4129 0
265.14 9.09653 0
266.463 11.2066 0
265.249 13.3809 0
263.926 11.2708 0
265.195 11.2387 0
266.409 9.06439 0
268.946 8.99982 0
269.055 13.2841 0
266.517 13.3487 0
267.677 9.03215 0
269 11.142 0
267.786 13.3165 0
266.463 11.2066 0
267.732 11.1744 0
268.946 8.99982 0
271.483 8.93486 0
271.592 13.2192 0
269.055 13.2841 0
270.214 8.96739 0
271.538 11.0771 0
270.324 13.2517 0
269 11.142 0
270.269 11.1096 0
271.483 8.93486 0
274.02 8.86952 0
274.13 13.1538 0
271.592 13.2192 0
272.751 8.90224 0
274.075 11.0117 0
272.861 13.1865 0
271.538 11.0771 0
272.806 11.0444 0
274.02 8.86952 0
276.557 8.80381 0
276.668 13.0881 0
274.13 13.1538 0
275.288 8.83671 0
276.612 10.946 0
275.399 13.121 0
274.075 11.0117 0
275.343 10.9789 0
276.557 8.80381 0
279.093 8.73772 0
279.205 13.022 0
276.668 13.0881 0
277.825 8.77081 0
279.149 10.8799 0
277.936 13.0551 0
276.612 10.946 0
277.881 10.913 0
279.093 8.73772 0
281.63 8.67127 0
281.743 12.9555 0
279.205 13.022 0
280.362 8.70454 0
281.686 10.8134 0
280.474 12.9888 0
279.149 10.8799 0
280.418 10.8467 0
281.63 8.67127 0
284.167 8.60445 0
284.28 12.8887 0
281.743 12.9555 0
282.899 8.6379 0
284.224 10.7466 0
283.011 12.9221 0
281.686 10.8134 0
282.955 10.7801 0
284.167 8.60445 0
286.704 8.53727 0
286.818 12.8215 0
284.28 12.8887 0
285.436 8.5709 0
286.761 10.6794 0
285.549 12.8551 0
284.224 10.7466 0
285.492 10.7131 0
286.704 8.53727 0
289.241 8.46973 0
289.355 12.7539 0
286.818 12.8215 0
287.973 8.50355 0
289.298 10.6119 0
288.086 12.7877 0
286.761 10.6794 0
288.029 10.6457 0
289.241 8.46973 0
291.778 8.40185 0
291.893 12.686 0
289.355 12.7539 0
290.509 8.43583 0
291.835 10.544 0
290.624 12.72 0
289.298 10.6119 0
290.567 10.578 0
291.778 8.40185 0
294.315 8.33361 0
294.43 12.6178 0
291.893 12.686 0
293.046 8.36777 0
294.372 10.4757 0
293.161 12.6519 0
291.835 10.544 0
293.104 10.5099 0
294.315 8.33361 0
296.852 8.26504 0
296.967 12.5492 0
294.43 12.6178 0
295.583 8.29937 0
296.909 10.4071 0
295.699 12.5835 0
294.372 10.4757 0
295.641 10.4415 0
296.852 8.26504 0
299.388 8.19612 0
299.505 12.4803 0
296.967 12.5492 0
298.12 8.23062 0
299.447 10.3382 0
298.236 12.5148 0
296.909 10.4071 0
298.178 10.3727 0
299.388 8.19612 0
301.925 8.12687 0
302.042 12.411 0
299.505 12.4803 0
300.657 8.16154 0
301.984 10.269 0
300.774 12.4457 0
299.447 10.3382 0
300.715 10.3036 0
301.925 8.12687 0
304.462 8.05729 0
304.58 12.3414 0
302.042 12.411 0
303.194 8.09212 0
304.521 10.1994 0
303.311 12.3762 0
301.984 10.269 0
303.252 10.2342 0
304.462 8.05729 0
306.999 7.98738 0
307.117 12.2715 0
304.58 12.3414 0
305.731 8.02237 0
307.058 10.1295 0
305.848 12.3065 0
304.521 10.1994 0
305.789 10.1645 0
306.999 7.98738 0
309.536 7.91715 0
309.654 12.2012 0
307.117 12.2715 0
308.267 7.95231 0
309.595 10.0592 0
308.386 12.2364 0
307.058 10.1295 0
308.327 10.0944 0
309.536 7.91715 0
312.073 7.8466 0
312.192 12.1307 0
309.654 12.2012 0
310.804 7.88192 0
312.132 9.98867 0
310.923 12.166 0
309.595 10.0592 0
310.864 10.024 0
312.073 7.8466 0
314.609 7.77574 0
314.729 12.0598 0
312.192 12.1307 0
313.341 7.81121 0
314.669 9.9178 0
313.46 12.0953 0
312.132 9.98867 0
313.401 9.95327 0
314.609 7.77574 0
317.146 7.70457 0
317.266 11.9886 0
314.729 12.0598 0
315.878 7.7402 0
317.206 9.84662 0
315.998 12.0242 0
314.669 9.9178 0
315.938 9.88225 0
317.146 7.70457 0
319.683 7.6331 0
319.804 11.9171 0
317.266 11.9886 0
318.415 7.66887 0
319.743 9.77514 0
318.535 11.9529 0
317.206 9.84662 0
318.475 9.81092 0
319.683 7.6331 0
322.22 7.56132 0
322.341 11.8453 0
319.804 11.9171 0
320.951 7.59725 0
322.28 9.70335 0
321.072 11.8813 0
319.743 9.77514 0
321.012 9.73928 0
322.22 7.56132 0
324.757 7.48925 0
324.878 11.7732 0
322.341 11.8453 0
323.488 7.52532 0
324.818 9.63128 0
323.61 11.8093 0
322.28 9.70335 0
323.549 9.66735 0
324.757 7.48925 0
327.293 7.41689 0
327.416 11.7009 0
324.878 11.7732 0
326.025 7.45311 0
327.355 9.5589 0
326.147 11.7371 0
324.818 9.63128 0
326.086 9.59513 0
327.293 7.41689 0
329.83 7.34423 0
329.953 11.6282 0
327.416 11.7009 0
328.562 7.3806 0
329.892 9.48624 0
328.684 11.6646 0
327.355 9.5589 0
328.623 9.52261 0
329.83 7.34423 0
332.367 7.2713 0
332.49 11.5552 0
329.953 11.6282 0
331.099 7.3078 0
332.429 9.4133 0
331.222 11.5918 0
329.892 9.48624 0
331.16 9.44981 0
332.367 7.2713 0
334.904 7.19808 0
335.027 11.482 0
332.49 11.5552 0
333.635 7.23472 0
334.966 9.34008 0
333.759 11.5187 0
332.429 9.4133 0
333.697 9.37672 0
334.904 7.19808 0
337.441 7.12459 0
337.565 11.4085 0
335.027 11.482 0
336.172 7.16137 0
337.503 9.26658 0
336.296 11.4453 0
334.966 9.34008 0
336.234 9.30336 0
337.441 7.12459 0
339.977 7.05083 0
340.102 11.3347 0
337.565 11.4085 0
338.709 7.08774 0
340.04 9.19281 0
338.833 11.3717 0
337.503 9.26658 0
338.771 9.22973 0
339.977 7.05083 0
342.514 6.9768 0
342.639 11.2607 0
340.102 11.3347 0
341.246 7.01385 0
342.577 9.11877 0
341.37 11.2977 0
340.04 9.19281 0
341.308 9.15582 0
342.514 6.9768 0
345.051 6.90251 0
345.176 11.1864 0
342.639 11.2607 0
343.783 6.93969 0
345.114 9.04448 0
343.908 11.2236 0
342.577 9.11877 0
343.845 9.08166 0
345.051 6.90251 0
347.588 6.82796 0
347.713 11.1118 0
345.176 11.1864 0
346.319 6.86526 0
347.651 8.96992 0
346.445 11.1491 0
345.114 9.04448 0
346.382 9.00723 0
347.588 6.82796 0
350.124 6.75315 0
350.251 11.037 0
347.713 11.1118 0
348.856 6.79059 0
350.188 8.89511 0
348.982 11.0744 0
347.651 8.96992 0
348.919 8.93254 0
350.124 6.75315 0
352.661 6.6781 0
352.788 10.9619 0
350.251 11.037 0
351.393 6.71566 0
352.725 8.82005 0
351.519 10.9995 0
350.188 8.89511 0
351.456 8.85761 0
352.661 6.6781 0
355.198 6.6028 0
355.325 10.8866 0
352.788 10.9619 0
353.93 6.64048 0
355.261 8.74474 0
354.056 10.9243 0
352.725 8.82005 0
353.993 8.78242 0
355.198 6.6028 0
357.735 6.52726 0
357.862 10.8111 0
355.325 10.8866 0
356.466 6.56506 0
357.798 8.66919 0
356.594 10.8489 0
355.261 8.74474 0
356.53 8.707 0
357.735 6.52726 0
360.271 6.45148 0
360.399 10.7353 0
357.862 10.8111 0
359.003 6.4894 0
360.335 8.59341 0
359.131 10.7732 0
357.798 8.66919 0
359.067 8.63133 0
360.271 6.45148 0
362.808 6.37547 0
362.936 10.6593 0
360.399 10.7353 0
361.54 6.4135 0
362.872 8.51739 0
361.668 10.6973 0
360.335 8.59341 0
361.604 8.55543 0
362.808 6.37547 0
365.345 6.29923 0
365.474 10.583 0
362.936 10.6593 0
364.077 6.33738 0
365.409 8.44114 0
364.205 10.6212 0
362.872 8.51739 0
364.141 8.47929 0
365.345 6.29923 0
367.882 6.22276 0
368.011 10.5065 0
365.474 10.583 0
366.613 6.26102 0
367.946 8.36467 0
366.742 10.5448 0
365.409 8.44114 0
366.678 8.40293 0
367.882 6.22276 0
370.418 6.14608 0
370.548 10.4298 0
368.011 10.5065 0
369.15 6.18445 0
370.483 8.28798 0
369.279 10.4682 0
367.946 8.36467 0
369.215 8.32635 0
370.418 6.14608 0
372.955 6.06917 0
373.085 10.3529 0
370.548 10.4298 0
371.687 6.10765 0
373.02 8.21107 0
371.816 10.3914 0
370.483 8.28798 0
371.751 8.24955 0
372.955 6.06917 0
375.492 5.99206 0
375.622 10.2758 0
373.085 10.3529 0
374.223 6.03064 0
375.557 8.13395 0
374.353 10.3144 0
373.02 8.21107 0
374.288 8.17254 0
375.492 5.99206 0
378.029 5.91474 0
378.159 10.1985 0
375.622 10.2758 0
376.76 5.95343 0
378.094 8.05663 0
376.89 10.2372 0
375.557 8.13395 0
376.825 8.09532 0
378.029 5.91474 0
380.565 5.83722 0
380.696 10.1209 0
378.159 10.1985 0
379.297 5.876 0
380.631 7.9791 0
379.427 10.1597 0
378.094 8.05663 0
379.362 8.01789 0
380.565 5.83722 0
383.102 5.75949 0
383.233 10.0432 0
380.696 10.1209 0
381.834 5.79838 0
383.168 7.90137 0
381.965 10.0821 0
380.631 7.9791 0
381.899 7.94026 0
383.102 5.75949 0
385.639 5.68158 0
385.77 9.96527 0
383.233 10.0432 0
384.37 5.72056 0
385.704 7.82344 0
384.502 10.0043 0
383.168 7.90137 0
384.436 7.86243 0
385.639 5.68158 0
388.175 5.60347 0
388.307 9.88715 0
385.77 9.96527 0
386.907 5.64254 0
388.241 7.74533 0
387.039 9.92624 0
385.704 7.82344 0
386.973 7.78441 0
388.175 5.60347 0
390.712 5.52517 0
390.844 9.80885 0
388.307 9.88715 0
389.444 5.56434 0
390.778 7.66703 0
389.576 9.84803 0
388.241 7.74533 0
389.51 7.7062 0
390.712 5.52517 0
393.249 5.44669 0
393.381 9.73036 0
390.844 9.80885 0
391.98 5.48596 0
393.315 7.58855 0
392.113 9.76963 0
390.778 7.66703 0
392.047 7.62781 0
393.249 5.44669 0
395.786 5.36804 0
395.918 9.6517 0
393.381 9.73036 0
394.517 5.40739 0
395.852 7.50989 0
394.65 9.69105 0
393.315 7.58855 0
394.583 7.54924 0
395.786 5.36804 0
398.322 5.28921 0
398.455 9.57286 0
395.918 9.6517 0
397.054 5.32865 0
398.389 7.43105 0
397.187 9.6123 0
395.852 7.50989 0
397.12 7.47049 0
398.322 5.28921 0
400.859 5.21021 0
400.992 9.49385 0
398.455 9.57286 0
399.591 5.24973 0
400.926 7.35205 0
399.724 9.53338 0
398.389 7.43105 0
399.657 7.39157 0
400.859 5.21021 0
403.396 5.13105 0
403.529 9.41468 0
400.992 9.49385 0
402.127 5.17065 0
403.462 7.27288 0
402.261 9.45429 0
400.926 7.35205 0
402.194 7.31249 0
403.396 5.13105 0
405.932 5.05172 0
406.066 9.33535 0
403.529 9.41468 0
404.664 5.0914 0
405.999 7.19355 0
404.798 9.37503 0
403.462 7.27288 0
404.731 7.23324 0
405.932 5.05172 0
408.469 4.97224 0
408.603 9.25586 0
406.066 9.33535 0
407.201 5.012 0
408.536 7.11407 0
407.335 9.29562 0
405.999 7.19355 0
407.268 7.15383 0
408.469 4.97224 0
411.006 4.89261 0
411.14 9.17622 0
408.603 9.25586 0
409.737 4.93244 0
411.073 7.03443 0
409.872 9.21606 0
408.536 7.11407 0
409.804 7.07426 0
411.006 4.89261 0
413.542 4.81282 0
413.677 9.09643 0
411.14 9.17622 0
412.274 4.85273 0
413.61 6.95464 0
412.408 9.13634 0
411.073 7.03443 0
412.341 6.99455 0
413.542 4.81282 0
416.079 4.7329 0
416.214 9.01649 0
413.677 9.09643 0
414.811 4.77288 0
416.146 6.87471 0
414.945 9.05648 0
413.61 6.95464 0
414.878 6.91469 0
416.079 4.7329 0
418.616 4.65283 0
418.751 8.93642 0
416.214 9.01649 0
417.347 4.69288 0
418.683 6.79464 0
417.482 8.97647 0
416.146 6.87471 0
417.415 6.83469 0
418.616 4.65283 0
421.152 4.57263 0
421.288 8.85621 0
418.751 8.93642 0
419.884 4.61275 0
421.22 6.71443 0
420.019 8.89633 0
418.683 6.79464 0
419.952 6.75455 0
421.152 4.57263 0
423.689 4.4923 0
423.825 8.77587 0
421.288 8.85621 0
422.421 4.53248 0
423.757 6.6341 0
422.556 8.81605 0
421.22 6.71443 0
422.488 6.67428 0
423.689 4.4923 0
426.226 4.41184 0
426.362 8.6954 0
423.825 8.77587 0
424.958 4.45208 0
426.294 6.55363 0
425.093 8.73565 0
423.757 6.6341 0
425.025 6.59388 0
426.226 4.41184 0
428.763 4.33125 0
428.898 8.61481 0
426.362 8.6954 0
427.494 4.37156 0
428.83 6.47304 0
427.63 8.65512 0
426.294 6.55363 0
427.562 6.51335 0
428.763 4.33125 0
431.299 4.25055 0
431.435 8.5341 0
428.898 8.61481 0
430.031 4.29092 0
431.367 6.39234 0
430.167 8.57447 0
428.83 6.47304 0
430.099 6.43271 0
431.299 4.25055 0
433.836 4.16973 0
433.972 8.45328 0
431.435 8.5341 0
432.568 4.21016 0
433.904 6.31152 0
432.704 8.49371 0
431.367 6.39234 0
432.636 6.35194 0
433.836 4.16973 0
436.373 4.08881 0
436.509 8.37235 0
433.972 8.45328 0
435.104 4.12928 0
436.441 6.23059 0
435.241 8.41283 0
433.904 6.31152 0
435.172 6.27107 0
436.373 4.08881 0
438.909 4.00777 0
439.046 8.29131 0
436.509 8.37235 0
437.641 4.0483 0
438.978 6.14955 0
437.777 8.33184 0
436.441 6.23059 0
437.709 6.19008 0
438.909 4.00777 0
441.446 3.92664 0
441.583 8.21017 0
439.046 8.29131 0
440.178 3.96722 0
441.514 6.06841 0
440.314 8.25075 0
438.978 6.14955 0
440.246 6.109 0
441.446 3.92664 0
443.983 3.84541 0
444.12 8.12893 0
441.583 8.21017 0
442.714 3.88604 0
444.051 5.98718 0
442.851 8.16956 0
441.514 6.06841 0
442.783 6.02781 0
443.983 3.84541 0
446.519 3.76408 0
446.656 8.0476 0
444.12 8.12893 0
445.251 3.80476 0
446.588 5.90585 0
445.388 8.08828 0
444.051 5.98718 0
445.32 5.94653 0
446.519 3.76408 0
449.056 3.68267 0
449.193 7.96618 0
446.656 8.0476 0
447.788 3.72339 0
449.125 5.82443 0
447.925 8.0069 0
446.588 5.90585 0
447.856 5.86515 0
449.056 3.68267 0
451.593 3.60117 0
451.73 7.88468 0
449.193 7.96618 0
450.324 3.64193 0
451.661 5.74293 0
450.462 7.92544 0
449.125 5.82443 0
450.393 5.78369 0
451.593 3.60117 0
454.129 3.51959 0
454.267 7.8031 0
451.73 7.88468 0
452.861 3.56039 0
454.198 5.66135 0
452.999 7.8439 0
451.661 5.74293 0
452.93 5.70215 0
454.129 3.51959 0
456.666 3.43793 0
456.804 7.72144 0
454.267 7.8031 0
455.398 3.47877 0
456.735 5.57969 0
455.535 7.76228 0
454.198 5.66135 0
455.467 5.62053 0
456.666 3.43793 0
459.203 3.35621 0
459.341 7.6397 0
456.804 7.72144 0
457.935 3.39708 0
459.272 5.49796 0
458.072 7.68058 0
456.735 5.57969 0
458.003 5.53884 0
459.203 3.35621 0
461.74 3.27441 0
461.877 7.5579 0
459.341 7.6397 0
460.471 3.31532 0
461.808 5.41616 0
460.609 7.59881 0
459.272 5.49796 0
460.54 5.45707 0
461.74 3.27441 0
464.276 3.19255 0
464.414 7.47604 0
461.877 7.5579 0
463.008 3.23349 0
464.345 5.3343 0
463.146 7.51698 0
461.808 5.41616 0
463.077 5.37524 0
464.276 3.19255 0
466.813 3.11063 0
466.951 7.39412 0
464.414 7.47604 0
465.545 3.1516 0
466.882 5.25238 0
465.683 7.43509 0
464.345 5.3343 0
465.614 5.29335 0
466.813 3.11063 0
469.35 3.02866 0
469.488 7.31214 0
466.951 7.39412 0
468.081 3.06965 0
469.419 5.17041 0
468.219 7.35314 0
466.882 5.25238 0
468.15 5.2114 0
469.35 3.02866 0
471.886 2.94663 0
472.025 7.23012 0
469.488 7.31214 0
470.618 2.98765 0
471.955 5.08838 0
470.756 7.27114 0
469.419 5.17041 0
470.687 5.1294 0
471.886 2.94663 0
474.423 2.86456 0
474.561 7.14804 0
472.025 7.23012 0
473.155 2.9056 0
474.492 5.0063 0
473.293 7.18908 0
471.955 5.08838 0
473.224 5.04735 0
474.423 2.86456 0
476.96 2.78244 0
477.098 7.06592 0
474.561 7.14804 0
475.691 2.82351 0
477.029 4.92419 0
475.83 7.10699 0
474.492 5.0063 0
475.761 4.96525 0
476.96 2.78244 0
479.497 2.70029 0
479.635 6.98377 0
477.098 7.06592 0
478.228 2.74137 0
479.566 4.84203 0
478.367 7.02485 0
477.029 4.92419 0
478.297 4.88311 0
479.497 2.70029 0
482.033 2.6181 0
482.172 6.90158 0
479.635 6.98377 0
480.765 2.6592 0
482.102 4.75984 0
480.903 6.94268 0
479.566 4.84203 0
480.834 4.80094 0
482.033 2.6181 0
484.57 2.53588 0
484.708 6.81936 0
482.172 6.90158 0
483.302 2.577 0
484.639 4.67762 0
483.44 6.86047 0
482.102 4.75984 0
483.371 4.71874 0
484.57 2.53588 0
487.107 2.45364 0
487.245 6.73711 0
484.708 6.81936 0
485.838 2.49476 0
487.176 4.59537 0
485.977 6.77824 0
484.639 4.67762 0
485.908 4.6365 0
487.107 2.45364 0
489.643 2.37137 0
489.782 6.65484 0
487.245 6.73711 0
488.375 2.41251 0
489.713 4.51311 0
488.514 6.69598 0
487.176 4.59537 0
488.444 4.55424 0
489.643 2.37137 0
492.18 2.28909 0
492.319 6.57256 0
489.782 6.65484 0
490.912 2.33023 0
492.249 4.43083 0
491.05 6.6137 0
489.713 4.51311 0
490.981 4.47197 0
492.18 2.28909 0
494.717 2.20681 0
494.855 6.49028 0
492.319 6.57256 0
493.448 2.24795 0
494.786 4.34854 0
493.587 6.53142 0
492.249 4.43083 0
493.518 4.38968 0
494.717 2.20681 0
497.254 2.12454 0
497.392 6.40801 0
494.855 6.49028 0
495.985 2.16567 0
497.323 4.26628 0
496.124 6.44914 0
494.786 4.34854 0
496.055 4.30741 0
497.254 2.12454 0
499.79 2.04232 0
499.929 6.32579 0
497.392 6.40801 0
498.522 2.08342 0
499.86 4.18406 0
498.661 6.36689 0
497.323 4.26628 0
498.591 4.22517 0
0 17.1429 0
2.53868 17.143 0
2.53993 21.4284 0
0 21.4286 0
1.26934 17.1431 0
2.5393 19.2857 0
1.26994 21.4286 0
0 19.2857 0
1.26963 19.2859 0
2.53868 17.143 0
5.07741 17.1419 0
5.08001 21.4271 0
2.53993 21.4284 0
3.80804 17.1426 0
5.0787 19.2846 0
3.80996 21.4279 0
2.5393 19.2857 0
3.80899 19.2853 0
5.07741 17.1419 0
7.61617 17.1399 0
7.62016 21.4249 0
5.08001 21.4271 0
6.34679 17.141 0
7.61815 19.2825 0
6.35008 21.4261 0
5.0787 19.2846 0
6.34842 19.2837 0
7.61617 17.1399 0
10.1549 17.1369 0
10.1603 21.4219 0
7.62016 21.4249 0
8.88555 17.1385 0
10.1576 19.2795 0
8.89025 21.4235 0
7.61815 19.2825 0
8.88788 19.2811 0
10.1549 17.1369 0
12.6937 17.1331 0
12.7005 21.4181 0
10.1603 21.4219 0
11.4243 17.1351 0
12.6971 19.2757 0
11.4304 21.4201 0
10.1576 19.2795 0
11.4274 19.2777 0
12.6937 17.1331 0
15.2325 17.1285 0
15.2406 21.4134 0
12.7005 21.4181 0
13.9631 17.1309 0
15.2365 19.271 0
13.9706 21.4159 0
12.6971 19.2757 0
13.9668 19.2735 0
15.2325 17.1285 0
17.7712 17.123 0
17.7808 21.408 0
15.2406 21.4134 0
16.5018 17.1258 0
17.776 19.2656 0
16.5107 21.4108 0
15.2365 19.271 0
16.5063 19.2684 0
17.7712 17.123 0
20.31 17.1168 0
20.3209 21.4018 0
17.7808 21.408 0
19.0406 17.12 0
20.3154 19.2593 0
19.0508 21.405 0
17.776 19.2656 0
19.0457 19.2626 0
20.31 17.1168 0
22.8487 17.1097 0
22.861 21.3947 0
20.3209 21.4018 0
21.5793 17.1133 0
22.8548 19.2523 0
21.5909 21.3983 0
20.3154 19.2593 0
21.5851 19.2559 0
22.8487 17.1097 0
25.3874 17.1019 0
25.401 21.3869 0
22.861 21.3947 0
24.1181 17.1059 0
25.3942 19.2444 0
24.131 21.3909 0
22.8548 19.2523 0
24.1245 19.2485 0
25.3874 17.1019 0
27.9261 17.0932 0
27.9411 21.3782 0
25.401 21.3869 0
26.6568 17.0976 0
27.9336 19.2358 0
26.6711 21.3826 0
25.3942 19.2444 0
26.6639 19.2402 0
27.9261 17.0932 0
30.4649 17.0838 0
30.4811 21.3688 0
27.9411 21.3782 0
29.1955 17.0886 0
30.473 19.2264 0
29.2111 21.3736 0
27.9336 19.2358 0
29.2033 19.2312 0
30.4649 17.0838 0
33.0036 17.0736 0
33.0212 21.3586 0
30.4811 21.3688 0
31.7342 17.0788 0
33.0124 19.2162 0
31.7511 21.3638 0
30.473 19.2264 0
31.7427 19.2214 0
33.0036 17.0736 0
35.5423 17.0626 0
35.5612 21.3476 0
33.0212 21.3586 0
34.2729 17.0682 0
35.5517 19.2052 0
34.2912 21.3532 0
33.0124 19.2162 0
34.282 19.2108 0
35.5423 17.0626 0
38.081 17.0508 0
38.1012 21.3358 0
35.5612 21.3476 0
36.8116 17.0568 0
38.0911 19.1934 0
36.8312 21.3418 0
35.5517 19.2052 0
36.8214 19.1994 0
38.081 17.0508 0
40.6197 17.0383 0
40.6412 21.3233 0
38.1012 21.3358 0
39.3503 17.0447 0
40.6304 19.1809 0
39.3712 21.3297 0
38.0911 19.1934 0
39.3607 19.1872 0
40.6197 17.0383 0
43.1583 17.025 0
43.1811 21.31 0
40.6412 21.3233 0
41.889 17.0317 0
43.1697 19.1676 0
41.9111 21.3167 0
40.6304 19.1809 0
41.9001 19.1743 0
43.1583 17.025 0
45.697 17.0109 0
45.7211 21.2959 0
43.1811 21.31 0
44.4277 17.0181 0
45.709 19.1535 0
44.4511 21.3031 0
43.1697 19.1676 0
44.4394 19.1606 0
45.697 17.0109 0
48.2357 16.9961 0
48.261 21.2811 0
45.7211 21.2959 0
46.9663 17.0036 0
48.2483 19.1387 0
46.9911 21.2886 0
45.709 19.1535 0
46.9787 19.1462 0
48.2357 16.9961 0
50.7743 16.9805 0
50.801 21.2655 0
48.261 21.2811 0
49.505 16.9884 0
50.7876 19.1231 0
49.531 21.2734 0
48.2483 19.1387 0
49.518 19.131 0
50.7743 16.9805 0
53.313 16.9642 0
53.3409 21.2492 0
50.801 21.2655 0
52.0436 16.9725 0
53.3269 19.1068 0
52.0709 21.2574 0
50.7876 19.1231 0
52.0573 19.115 0
53.313 16.9642 0
55.8516 16.9471 0
55.8808 21.2321 0
53.3409 21.2492 0
54.5823 16.9558 0
55.8662 19.0897 0
54.6108 21.2407 0
53.3269 19.1068 0
54.5965 19.0983 0
55.8516 16.9471 0
58.3902 16.9293 0
58.4206 21.2143 0
55.8808 21.2321 0
57.1209 16.9383 0
58.4054 19.0719 0
57.1507 21.2233 0
55.8662 19.0897 0
57.1358 19.0809 0
58.3902 16.9293 0
60.9289 16.9108 0
60.9605 21.1957 0
58.4206 21.2143 0
59.6596 16.9201 0
60.9447 19.0533 0
59.6906 21.2051 0
58.4054 19.0719 0
59.6751 19.0627 0
60.9289 16.9108 0
63.4675 16.8915 0
63.5003 21.1764 0
60.9605 21.1957 0
62.1982 16.9012 0
63.4839 19.034 0
62.2304 21.1862 0
60.9447 19.0533 0
62.2143 19.0438 0
63.4675 16.8915 0
66.0061 16.8715 0
66.0402 21.1564 0
63.5003 21.1764 0
64.7368 16.8816 0
66.0231 19.014 0
64.7703 21.1665 0
63.4839 19.034 0
64.7535 19.0241 0
66.0061 16.8715 0
68.5447 16.8507 0
68.58 21.1357 0
66.0402 21.1564 0
67.2754 16.8612 0
68.5623 18.9933 0
67.3101 21.1461 0
66.0231 19.014 0
67.2927 19.0037 0
68.5447 16.8507 0
71.0833 16.8293 0
71.1198 21.1142 0
68.58 21.1357 0
69.814 16.8401 0
71.1015 18.9718 0
69.8499 21.125 0
68.5623 18.9933 0
69.8319 18.9826 0
71.0833 16.8293 0
73.6218 16.8071 0
73.6596 21.092 0
71.1198 21.1142 0
72.3525 16.8183 0
73.6407 18.9496 0
72.3897 21.1032 0
71.1015 18.9718 0
72.3711 18.9608 0
73.6218 16.8071 0
76.1604 16.7842 0
76.1993 21.0691 0
73.6596 21.092 0
74.8911 16.7957 0
76.1799 18.9267 0
74.9295 21.0807 0
73.6407 18.9496 0
74.9103 18.9383 0
76.1604 16.7842 0
78.699 16.7606 0
78.7391 21.0455 0
76.1993 21.0691 0
77.4297 16.7725 0
78.719 18.9031 0
77.4692 21.0574 0
76.1799 18.9267 0
77.4494 18.915 0
78.699 16.7606 0
81.2375 16.7363 0
81.2788 21.0212 0
78.7391 21.0455 0
79.9682 16.7485 0
81.2581 18.8788 0
80.0089 21.0335 0
78.719 18.9031 0
79.9886 18.8911 0
81.2375 16.7363 0
83.776 16.7113 0
83.8185 20.9962 0
81.2788 21.0212 0
82.5068 16.7239 0
83.7973 18.8538 0
82.5487 21.0088 0
81.2581 18.8788 0
82.5277 18.8664 0
83.776 16.7113 0
86.3146 16.6856 0
86.3582 20.9705 0
83.8185 20.9962 0
85.0453 16.6985 0
86.3364 18.8281 0
85.0884 20.9834 0
83.7973 18.8538 0
85.0668 18.8411 0
86.3146 16.6856 0
88.8531 16.6592 0
88.8979 20.9441 0
86.3582 20.9705 0
87.5838 16.6725 0
88.8755 18.8017 0
87.6281 20.9574 0
86.3364 18.8281 0
87.6059 18.815 0
88.8531 16.6592 0
91.3916 16.6322 0
91.4375 20.917 0
88.8979 20.9441 0
90.1223 16.6458 0
91.4146 18.7747 0
90.1677 20.9307 0
88.8755 18.8017 0
90.145 18.7883 0
91.3916 16.6322 0
93.9301 16.6044 0
93.9772 20.8893 0
91.4375 20.917 0
92.6608 16.6184 0
93.9536 18.7469 0
92.7074 20.9032 0
91.4146 18.7747 0
92.6841 18.7609 0
93.9301 16.6044 0
96.4685 16.576 0
96.5168 20.8608 0
93.9772 20.8893 0
95.1993 16.5903 0
96.4927 18.7185 0
95.247 20.8751 0
93.9536 18.7469 0
95.2231 18.7328 0
96.4685 16.576 0
99.007 16.5469 0
99.0564 20.8317 0
96.5168 20.8608 0
97.7378 16.5615 0
99.0317 18.6894 0
97.7866 20.8464 0
96.4927 18.7185 0
97.7622 18.704 0
99.007 16.5469 0
101.545 16.5171 0
101.596 20.8019 0
99.0564 20.8317 0
100.276 16.5321 0
101.571 18.6596 0
100.326 20.8169 0
99.0317 18.6894 0
100.301 18.6746 0
101.545 16.5171 0
104.084 16.4866 0
104.136 20.7715 0
101.596 20.8019 0
102.815 16.5019 0
104.11 18.6291 0
102.866 20.7868 0
101.571 18.6596 0
102.84 18.6444 0
104.084 16.4866 0
106.622 16.4555 0
106.675 20.7404 0
104.136 20.7715 0
105.353 16.4712 0
106.649 18.598 0
105.405 20.756 0
104.11 18.6291 0
105.379 18.6137 0
106.622 16.4555 0
109.161 16.4238 0
109.215 20.7086 0
106.675 20.7404 0
107.892 16.4397 0
109.188 18.5663 0
107.945 20.7246 0
106.649 18.598 0
107.918 18.5822 0
109.161 16.4238 0
111.699 16.3914 0
111.754 20.6762 0
109.215 20.7086 0
110.43 16.4077 0
111.727 18.5338 0
110.484 20.6925 0
109.188 18.5663 0
110.457 18.5501 0
111.699 16.3914 0
114.238 16.3583 0
114.294 20.6431 0
111.754 20.6762 0
112.968 16.3749 0
114.266 18.5008 0
113.024 20.6597 0
111.727 18.5338 0
112.996 18.5174 0
114.238 16.3583 0
116.776 16.3246 0
116.833 20.6094 0
114.294 20.6431 0
115.507 16.3415 0
116.805 18.4671 0
115.563 20.6263 0
114.266 18.5008 0
115.535 18.484 0
116.776 16.3246 0
119.314 16.2903 0
119.373 20.575 0
116.833 20.6094 0
118.045 16.3075 0
119.343 18.4327 0
118.103 20.5923 0
116.805 18.4671 0
118.074 18.45 0
119.314 16.2903 0
121.853 16.2553 0
121.912 20.5401 0
119.373 20.575 0
120.584 16.2729 0
121.882 18.3977 0
120.642 20.5576 0
119.343 18.4327 0
120.613 18.4153 0
121.853 16.2553 0
124.391 16.2197 0
124.451 20.5044 0
121.912 20.5401 0
123.122 16.2376 0
124.421 18.3621 0
123.182 20.5223 0
121.882 18.3977 0
123.152 18.38 0
124.391 16.2197 0
126.929 16.1834 0
126.991 20.4682 0
124.451 20.5044 0
125.66 16.2016 0
126.96 18.3259 0
125.721 20.4864 0
124.421 18.3621 0
125.691 18.3441 0
126.929 16.1834 0
129.468 16.1466 0
129.53 20.4313 0
126.991 20.4682 0
128.199 16.1651 0
129.499 18.289 0
128.26 20.4498 0
126.96 18.3259 0
128.23 18.3075 0
129.468 16.1466 0
132.006 16.1091 0
132.07 20.3938 0
129.53 20.4313 0
130.737 16.1279 0
132.038 18.2515 0
130.8 20.4126 0
129.499 18.289 0
130.768 18.2703 0
132.006 16.1091 0
134.544 16.071 0
134.609 20.3557 0
132.07 20.3938 0
133.275 16.0901 0
134.577 18.2134 0
133.339 20.3748 0
132.038 18.2515 0
133.307 18.2326 0
134.544 16.071 0
137.083 16.0323 0
137.148 20.317 0
134.609 20.3557 0
135.813 16.0517 0
137.115 18.1747 0
135.879 20.3364 0
134.577 18.2134 0
135.846 18.1941 0
137.083 16.0323 0
139.621 15.993 0
139.687 20.2777 0
137.148 20.317 0
138.352 16.0127 0
139.654 18.1354 0
138.418 20.2974 0
137.115 18.1747 0
138.385 18.1551 0
139.621 15.993 0
142.159 15.9531 0
142.227 20.2378 0
139.687 20.2777 0
140.89 15.9731 0
142.193 18.0955 0
140.957 20.2578 0
139.654 18.1354 0
140.924 18.1155 0
142.159 15.9531 0
144.697 15.9126 0
144.766 20.1972 0
142.227 20.2378 0
143.428 15.9329 0
144.732 18.055 0
143.496 20.2176 0
142.193 18.0955 0
143.462 18.0753 0
144.697 15.9126 0
147.236 15.8715 0
147.305 20.1561 0
144.766 20.1972 0
145.967 15.8921 0
147.27 18.0139 0
146.036 20.1767 0
144.732 18.055 0
146.001 18.0345 0
147.236 15.8715 0
149.774 15.8298 0
149.844 20.1144 0
147.305 20.1561 0
148.505 15.8507 0
149.809 17.9722 0
148.575 20.1353 0
147.27 18.0139 0
148.54 17.9931 0
149.774 15.8298 0
152.312 15.7875 0
152.384 20.0721 0
149.844 20.1144 0
151.043 15.8087 0
152.348 17.9299 0
151.114 20.0933 0
149.809 17.9722 0
151.079 17.9511 0
152.312 15.7875 0
154.85 15.7447 0
154.923 20.0293 0
152.384 20.0721 0
153.581 15.7662 0
154.887 17.887 0
153.653 20.0508 0
152.348 17.9299 0
153.617 17.9085 0
154.85 15.7447 0
157.388 15.7012 0
157.462 19.9858 0
154.923 20.0293 0
156.119 15.723 0
157.425 17.8436 0
156.192 20.0076 0
154.887 17.887 0
156.156 17.8654 0
157.388 15.7012 0
159.927 15.6572 0
160.001 19.9418 0
157.462 19.9858 0
158.658 15.6793 0
159.964 17.7996 0
158.732 19.9639 0
157.425 17.8436 0
158.695 17.8216 0
159.927 15.6572 0
162.465 15.6126 0
162.54 19.8972 0
160.001 19.9418 0
161.196 15.635 0
162.503 17.755 0
161.271 19.9196 0
159.964 17.7996 0
161.233 17.7773 0
162.465 15.6126 0
165.003 15.5675 0
165.079 19.8521 0
162.54 19.8972 0
163.734 15.5901 0
165.041 17.7098 0
163.81 19.8747 0
162.503 17.755 0
163.772 17.7325 0
165.003 15.5675 0
167.541 15.5218 0
167.618 19.8064 0
165.079 19.8521 0
166.272 15.5447 0
167.58 17.6641 0
166.349 19.8293 0
165.041 17.7098 0
166.31 17.6871 0
167.541 15.5218 0
170.079 15.4756 0
170.157 19.7601 0
167.618 19.8064 0
168.81 15.4988 0
170.118 17.6179 0
168.888 19.7833 0
167.58 17.6641 0
168.849 17.6411 0
170.079 15.4756 0
172.617 15.4288 0
172.696 19.7133 0
170.157 19.7601 0
171.348 15.4522 0
172.657 17.5711 0
171.427 19.7368 0
170.118 17.6179 0
171.388 17.5946 0
172.617 15.4288 0
175.155 15.3814 0
175.235 19.6659 0
172.696 19.7133 0
173.886 15.4052 0
175.195 17.5237 0
173.966 19.6897 0
172.657 17.5711 0
173.926 17.5475 0
175.155 15.3814 0
177.693 15.3335 0
177.774 19.618 0
175.235 19.6659 0
176.424 15.3575 0
177.734 17.4758 0
176.505 19.642 0
175.195 17.5237 0
176.465 17.4998 0
177.693 15.3335 0
180.232 15.2851 0
180.313 19.5696 0
177.774 19.618 0
178.962 15.3094 0
180.272 17.4274 0
179.044 19.5939 0
177.734 17.4758 0
179.003 17.4517 0
180.232 15.2851 0
182.77 15.2361 0
182.852 19.5206 0
180.313 19.5696 0
181.501 15.2607 0
182.811 17.3784 0
181.583 19.5452 0
180.272 17.4274 0
181.542 17.403 0
182.77 15.2361 0
185.308 15.1867 0
185.391 19.4711 0
182.852 19.5206 0
184.039 15.2115 0
185.349 17.3289 0
184.122 19.4959 0
182.811 17.3784 0
184.08 17.3537 0
185.308 15.1867 0
187.846 15.1366 0
187.93 19.4211 0
185.391 19.4711 0
186.577 15.1617 0
187.888 17.2789 0
186.661 19.4461 0
185.349 17.3289 0
186.619 17.304 0
187.846 15.1366 0
190.384 15.0861 0
190.469 19.3705 0
187.93 19.4211 0
189.115 15.1114 0
190.426 17.2284 0
189.2 19.3959 0
187.888 17.2789 0
189.157 17.2537 0
190.384 15.0861 0
192.922 15.035 0
193.008 19.3194 0
190.469 19.3705 0
191.653 15.0606 0
192.965 17.1773 0
191.739 19.345 0
190.426 17.2284 0
191.696 17.2029 0
192.922 15.035 0
195.46 14.9835 0
195.547 19.2679 0
193.008 19.3194 0
194.191 15.0093 0
195.503 17.1257 0
194.277 19.2937 0
192.965 17.1773 0
194.234 17.1516 0
195.46 14.9835 0
197.998 14.9314 0
198.086 19.2158 0
195.547 19.2679 0
196.729 14.9575 0
198.042 17.0736 0
196.816 19.2419 0
195.503 17.1257 0
196.772 17.0998 0
197.998 14.9314 0
200.536 14.8788 0
200.624 19.1632 0
198.086 19.2158 0
199.267 14.9052 0
200.58 17.0211 0
199.355 19.1895 0
198.042 17.0736 0
199.311 17.0474 0
200.536 14.8788 0
203.073 14.8257 0
203.163 19.1101 0
200.624 19.1632 0
201.804 14.8523 0
203.118 16.968 0
201.894 19.1367 0
200.58 17.0211 0
201.849 16.9946 0
203.073 14.8257 0
205.611 14.7722 0
205.702 19.0565 0
203.163 19.1101 0
204.342 14.799 0
205.657 16.9144 0
204.433 19.0834 0
203.118 16.968 0
204.387 16.9412 0
205.611 14.7722 0
208.149 14.7181 0
208.241 19.0024 0
205.702 19.0565 0
206.88 14.7452 0
208.195 16.8603 0
206.971 19.0295 0
205.657 16.9144 0
206.926 16.8874 0
208.149 14.7181 0
210.687 14.6636 0
210.779 18.9479 0
208.241 19.0024 0
209.418 14.6909 0
210.733 16.8058 0
209.51 18.9752 0
208.195 16.8603 0
209.464 16.8331 0
210.687 14.6636 0
213.225 14.6085 0
213.318 18.8928 0
210.779 18.9479 0
211.956 14.6361 0
213.272 16.7507 0
212.049 18.9204 0
210.733 16.8058 0
212.002 16.7783 0
213.225 14.6085 0
215.763 14.553 0
215.857 18.8373 0
213.318 18.8928 0
214.494 14.5808 0
215.81 16.6952 0
214.587 18.8651 0
213.272 16.7507 0
214.541 16.723 0
215.763 14.553 0
218.301 14.497 0
218.395 18.7813 0
215.857 18.8373 0
217.032 14.5251 0
218.348 16.6392 0
217.126 18.8093 0
215.81 16.6952 0
217.079 16.6673 0
218.301 14.497 0
220.839 14.4406 0
220.934 18.7248 0
218.395 18.7813 0
219.57 14.4688 0
220.886 16.5827 0
219.665 18.7531 0
218.348 16.6392 0
219.617 16.611 0
220.839 14.4406 0
223.376 14.3836 0
223.473 18.6679 0
220.934 18.7248 0
222.108 14.4122 0
223.425 16.5258 0
222.203 18.6964 0
220.886 16.5827 0
222.155 16.5543 0
223.376 14.3836 0
225.914 14.3262 0
226.011 18.6105 0
223.473 18.6679 0
224.645 14.355 0
225.963 16.4684 0
224.742 18.6392 0
223.425 16.5258 0
224.694 16.4972 0
225.914 14.3262 0
228.452 14.2684 0
228.55 18.5526 0
226.011 18.6105 0
227.183 14.2974 0
228.501 16.4106 0
227.28 18.5816 0
225.963 16.4684 0
227.232 16.4395 0
228.452 14.2684 0
230.99 14.2101 0
231.088 18.4943 0
228.55 18.5526 0
229.721 14.2393 0
231.039 16.3523 0
229.819 18.5235 0
228.501 16.4106 0
229.77 16.3815 0
230.99 14.2101 0
233.528 14.1514 0
233.627 18.4355 0
231.088 18.4943 0
232.259 14.1808 0
233.577 16.2935 0
232.358 18.465 0
231.039 16.3523 0
232.308 16.3229 0
233.528 14.1514 0
236.065 14.0922 0
236.165 18.3763 0
233.627 18.4355 0
234.796 14.1218 0
236.115 16.2343 0
234.896 18.406 0
233.577 16.2935 0
234.846 16.264 0
236.065 14.0922 0
238.603 14.0325 0
238.704 18.3167 0
236.165 18.3763 0
237.334 14.0624 0
238.653 16.1747 0
237.435 18.3466 0
236.115 16.2343 0
237.384 16.2045 0
238.603 14.0325 0
241.141 13.9725 0
241.242 18.2566 0
238.704 18.3167 0
239.872 14.0026 0
241.192 16.1146 0
239.973 18.2867 0
238.653 16.1747 0
239.922 16.1447 0
241.141 13.9725 0
243.679 13.912 0
243.781 18.1961 0
241.242 18.2566 0
242.41 13.9423 0
243.73 16.0541 0
242.512 18.2264 0
241.192 16.1146 0
242.461 16.0844 0
243.679 13.912 0
246.216 13.851 0
246.319 18.1352 0
243.781 18.1961 0
244.947 13.8816 0
246.268 15.9931 0
245.05 18.1657 0
243.73 16.0541 0
244.999 16.0237 0
246.216 13.851 0
248.754 13.7897 0
248.858 18.0738 0
246.319 18.1352 0
247.485 13.8204 0
248.806 15.9318 0
247.588 18.1045 0
246.268 15.9931 0
247.537 15.9625 0
248.754 13.7897 0
251.292 13.7279 0
251.396 18.012 0
248.858 18.0738 0
250.023 13.7589 0
251.344 15.87 0
250.127 18.043 0
248.806 15.9318 0
250.075 15.9009 0
251.292 13.7279 0
253.829 13.6657 0
253.934 17.9498 0
251.396 18.012 0
252.56 13.6969 0
253.882 15.8078 0
252.665 17.981 0
251.344 15.87 0
252.613 15.839 0
253.829 13.6657 0
256.367 13.6031 0
256.473 17.8872 0
253.934 17.9498 0
255.098 13.6345 0
256.42 15.7452 0
255.203 17.9186 0
253.882 15.8078 0
255.151 15.7766 0
256.367 13.6031 0
258.905 13.5401 0
259.011 17.8242 0
256.473 17.8872 0
257.636 13.5717 0
258.958 15.6822 0
257.742 17.8557 0
256.42 15.7452 0
257.689 15.7138 0
258.905 13.5401 0
261.442 13.4767 0
261.549 17.7608 0
259.011 17.8242 0
260.173 13.5085 0
261.496 15.6188 0
260.28 17.7925 0
258.958 15.6822 0
260.227 15.6505 0
261.442 13.4767 0
263.98 13.4129 0
264.087 17.6969 0
261.549 17.7608 0
262.711 13.4449 0
264.034 15.555 0
262.818 17.7289 0
261.496 15.6188 0
262.765 15.5869 0
263.98 13.4129 0
266.517 13.3487 0
266.626 17.6327 0
264.087 17.6969 0
265.249 13.3809 0
266.572 15.4908 0
265.357 17.6649 0
264.034 15.555 0
265.303 15.5229 0
266.517 13.3487 0
269.055 13.2841 0
269.164 17.5681 0
266.626 17.6327 0
267.786 13.3165 0
269.109 15.4262 0
267.895 17.6005 0
266.572 15.4908 0
267.84 15.4585 0
269.055 13.2841 0
271.592 13.2192 0
271.702 17.5032 0
269.164 17.5681 0
270.324 13.2517 0
271.647 15.3612 0
270.433 17.5357 0
269.109 15.4262 0
270.378 15.3937 0
271.592 13.2192 0
274.13 13.1538 0
274.24 17.4378 0
271.702 17.5032 0
272.861 13.1865 0
274.185 15.2958 0
272.971 17.4705 0
271.647 15.3612 0
272.916 15.3286 0
274.13 13.1538 0
276.668 13.0881 0
276.779 17.372 0
274.24 17.4378 0
275.399 13.121 0
276.723 15.2301 0
275.509 17.405 0
274.185 15.2958 0
275.454 15.263 0
276.668 13.0881 0
279.205 13.022 0
279.317 17.3059 0
276.779 17.372 0
277.936 13.0551 0
279.261 15.164 0
278.048 17.339 0
276.723 15.2301 0
277.992 15.1971 0
279.205 13.022 0
281.743 12.9555 0
281.855 17.2394 0
279.317 17.3059 0
280.474 12.9888 0
281.799 15.0975 0
280.586 17.2727 0
279.261 15.164 0
280.53 15.1308 0
281.743 12.9555 0
284.28 12.8887 0
284.393 17.1726 0
281.855 17.2394 0
283.011 12.9221 0
284.337 15.0307 0
283.124 17.2061 0
281.799 15.0975 0
283.068 15.0641 0
284.28 12.8887 0
286.818 12.8215 0
286.931 17.1054 0
284.393 17.1726 0
285.549 12.8551 0
286.874 14.9635 0
285.662 17.139 0
284.337 15.0307 0
285.605 14.9971 0
286.818 12.8215 0
289.355 12.7539 0
289.469 17.0378 0
286.931 17.1054 0
288.086 12.7877 0
289.412 14.8959 0
288.2 17.0717 0
286.874 14.9635 0
288.143 14.9297 0
289.355 12.7539 0
291.893 12.686 0
292.007 16.9699 0
289.469 17.0378 0
290.624 12.72 0
291.95 14.828 0
290.738 17.0039 0
289.412 14.8959 0
290.681 14.862 0
291.893 12.686 0
294.43 12.6178 0
294.545 16.9016 0
292.007 16.9699 0
293.161 12.6519 0
294.488 14.7597 0
293.276 16.9358 0
291.95 14.828 0
293.219 14.7939 0
294.43 12.6178 0
296.967 12.5492 0
297.083 16.833 0
294.545 16.9016 0
295.699 12.5835 0
297.025 14.6912 0
295.814 16.8674 0
294.488 14.7597 0
295.756 14.7255 0
296.967 12.5492 0
299.505 12.4803 0
299.621 16.7641 0
297.083 16.833 0
298.236 12.5148 0
299.563 14.6222 0
298.352 16.7986 0
297.025 14.6912 0
298.294 14.6567 0
299.505 12.4803 0
302.042 12.411 0
302.159 16.6948 0
299.621 16.7641 0
300.774 12.4457 0
302.101 14.5529 0
300.89 16.7295 0
299.563 14.6222 0
300.832 14.5876 0
302.042 12.411 0
304.58 12.3414 0
304.697 16.6252 0
302.159 16.6948 0
303.311 12.3762 0
304.638 14.4833 0
303.428 16.6601 0
302.101 14.5529 0
303.37 14.5182 0
304.58 12.3414 0
307.117 12.2715 0
307.235 16.5553 0
304.697 16.6252 0
305.848 12.3065 0
307.176 14.4134 0
305.966 16.5903 0
304.638 14.4833 0
305.907 14.4484 0
307.117 12.2715 0
309.654 12.2012 0
309.773 16.485 0
307.235 16.5553 0
308.386 12.2364 0
309.714 14.3432 0
308.504 16.5202 0
307.176 14.4134 0
308.445 14.3783 0
309.654 12.2012 0
312.192 12.1307 0
312.311 16.4145 0
309.773 16.485 0
310.923 12.166 0
312.251 14.2726 0
311.042 16.4498 0
309.714 14.3432 0
310.982 14.3079 0
312.192 12.1307 0
314.729 12.0598 0
314.849 16.3436 0
312.311 16.4145 0
313.46 12.0953 0
314.789 14.2017 0
313.58 16.379 0
312.251 14.2726 0
313.52 14.2372 0
314.729 12.0598 0
317.266 11.9886 0
317.387 16.2724 0
314.849 16.3436 0
315.998 12.0242 0
317.326 14.1305 0
316.118 16.308 0
314.789 14.2017 0
316.058 14.1662 0
317.266 11.9886 0
319.804 11.9171 0
319.924 16.2009 0
317.387 16.2724 0
318.535 11.9529 0
319.864 14.059 0
318.655 16.2367 0
317.326 14.1305 0
318.595 14.0948 0
319.804 11.9171 0
322.341 11.8453 0
322.462 16.1291 0
319.924 16.2009 0
321.072 11.8813 0
322.402 13.9872 0
321.193 16.165 0
319.864 14.059 0
321.133 14.0232 0
322.341 11.8453 0
324.878 11.7732 0
325 16.057 0
322.462 16.1291 0
323.61 11.8093 0
324.939 13.9151 0
323.731 16.0931 0
322.402 13.9872 0
323.67 13.9512 0
324.878 11.7732 0
327.416 11.7009 0
327.538 15.9846 0
325 16.057 0
326.147 11.7371 0
327.477 13.8428 0
326.269 16.0208 0
324.939 13.9151 0
326.208 13.879 0
327.416 11.7009 0
329.953 11.6282 0
330.076 15.9119 0
327.538 15.9846 0
328.684 11.6646 0
330.014 13.7701 0
328.807 15.9483 0
327.477 13.8428 0
328.745 13.8065 0
329.953 11.6282 0
332.49 11.5552 0
332.613 15.8389 0
330.076 15.9119 0
331.222 11.5918 0
332.552 13.6971 0
331.344 15.8755 0
330.014 13.7701 0
331.283 13.7336 0
332.49 11.5552 0
335.027 11.482 0
335.151 15.7657 0
332.613 15.8389 0
333.759 11.5187 0
335.089 13.6239 0
333.882 15.8024 0
332.552 13.6971 0
333.82 13.6605 0
335.027 11.482 0
337.565 11.4085 0
337.689 15.6922 0
335.151 15.7657 0
336.296 11.4453 0
337.627 13.5504 0
336.42 15.729 0
335.089 13.6239 0
336.358 13.5872 0
337.565 11.4085 0
340.102 11.3347 0
340.226 15.6184 0
337.689 15.6922 0
338.833 11.3717 0
340.164 13.4766 0
338.958 15.6553 0
337.627 13.5504 0
338.895 13.5135 0
340.102 11.3347 0
342.639 11.2607 0
342.764 15.5444 0
340.226 15.6184 0
341.37 11.2977 0
342.702 13.4026 0
341.495 15.5814 0
340.164 13.4766 0
341.433 13.4396 0
342.639 11.2607 0
345.176 11.1864 0
345.302 15.47 0
342.764 15.5444 0
343.908 11.2236 0
345.239 13.3282 0
344.033 15.5072 0
342.702 13.4026 0
343.97 13.3654 0
345.176 11.1864 0
347.713 11.1118 0
347.839 15.3955 0
345.302 15.47 0
346.445 11.1491 0
347.776 13.2537 0
346.57 15.4328 0
345.239 13.3282 0
346.508 13.291 0
347.713 11.1118 0
350.251 11.037 0
350.377 15.3206 0
347.839 15.3955 0
348.982 11.0744 0
350.314 13.1789 0
349.108 15.3581 0
347.776 13.2537 0
349.045 13.2163 0
350.251 11.037 0
352.788 10.9619 0
352.914 15.2456 0
350.377 15.3206 0
351.519 10.9995 0
352.851 13.1038 0
351.646 15.2831 0
350.314 13.1789 0
351.582 13.1413 0
352.788 10.9619 0
355.325 10.8866 0
355.452 15.1703 0
352.914 15.2456 0
354.056 10.9243 0
355.389 13.0285 0
354.183 15.2079 0
352.851 13.1038 0
354.12 13.0662 0
355.325 10.8866 0
357.862 10.8111 0
357.99 15.0947 0
355.452 15.1703 0
356.594 10.8489 0
357.926 12.9529 0
356.721 15.1325 0
355.389 13.0285 0
356.657 12.9907 0
357.862 10.8111 0
360.399 10.7353 0
360.527 15.0189 0
357.99 15.0947 0
359.131 10.7732 0
360.463 12.8771 0
359.258 15.0568 0
357.926 12.9529 0
359.195 12.915 0
360.399 10.7353 0
362.936 10.6593 0
363.065 14.9429 0
360.527 15.0189 0
361.668 10.6973 0
363.001 12.8011 0
361.796 14.9809 0
360.463 12.8771 0
361.732 12.8391 0
362.936 10.6593 0
365.474 10.583 0
365.602 14.8666 0
363.065 14.9429 0
364.205 10.6212 0
365.538 12.7248 0
364.333 14.9048 0
363.001 12.8011 0
364.269 12.763 0
365.474 10.583 0
368.011 10.5065 0
368.14 14.7901 0
365.602 14.8666 0
366.742 10.5448 0
368.075 12.6483 0
366.871 14.8284 0
365.538 12.7248 0
366.806 12.6866 0
368.011 10.5065 0
370.548 10.4298 0
370.677 14.7134 0
368.14 14.7901 0
369.279 10.4682 0
370.612 12.5716 0
369.408 14.7518 0
368.075 12.6483 0
369.344 12.61 0
370.548 10.4298 0
373.085 10.3529 0
373.215 14.6365 0
370.677 14.7134 0
371.816 10.3914 0
373.15 12.4947 0
371.946 14.675 0
370.612 12.5716 0
371.881 12.5332 0
373.085 10.3529 0
375.622 10.2758 0
375.752 14.5594 0
373.215 14.6365 0
374.353 10.3144 0
375.687 12.4176 0
374.483 14.598 0
373.15 12.4947 0
374.418 12.4562 0
375.622 10.2758 0
378.159 10.1985 0
378.289 14.482 0
375.752 14.5594 0
376.89 10.2372 0
378.224 12.3403 0
377.021 14.5207 0
375.687 12.4176 0
376.956 12.379 0
378.159 10.1985 0
380.696 10.1209 0
380.827 14.4045 0
378.289 14.482 0
379.427 10.1597 0
380.761 12.2627 0
379.558 14.4433 0
378.224 12.3403 0
379.493 12.3015 0
380.696 10.1209 0
383.233 10.0432 0
383.364 14.3267 0
380.827 14.4045 0
381.965 10.0821 0
383.299 12.185 0
382.095 14.3656 0
380.761 12.2627 0
382.03 12.2239 0
383.233 10.0432 0
385.77 9.96527 0
385.902 14.2488 0
383.364 14.3267 0
384.502 10.0043 0
385.836 12.1071 0
384.633 14.2878 0
383.299 12.185 0
384.567 12.1461 0
385.77 9.96527 0
388.307 9.88715 0
388.439 14.1707 0
385.902 14.2488 0
387.039 9.92624 0
388.373 12.0289 0
387.17 14.2098 0
385.836 12.1071 0
387.104 12.068 0
388.307 9.88715 0
390.844 9.80885 0
390.976 14.0924 0
388.439 14.1707 0
389.576 9.84803 0
390.91 11.9506 0
389.708 14.1316 0
388.373 12.0289 0
389.642 11.9898 0
390.844 9.80885 0
393.381 9.73036 0
393.514 14.0139 0
390.976 14.0924 0
392.113 9.76963 0
393.447 11.8721 0
392.245 14.0531 0
390.91 11.9506 0
392.179 11.9114 0
393.381 9.73036 0
395.918 9.6517 0
396.051 13.9352 0
393.514 14.0139 0
394.65 9.69105 0
395.984 11.7935 0
394.782 13.9746 0
393.447 11.8721 0
394.716 11.8328 0
395.918 9.6517 0
398.455 9.57286 0
398.588 13.8564 0
396.051 13.9352 0
397.187 9.6123 0
398.522 11.7146 0
397.319 13.8958 0
395.984 11.7935 0
397.253 11.7541 0
398.455 9.57286 0
400.992 9.49385 0
401.125 13.7774 0
398.588 13.8564 0
399.724 9.53338 0
401.059 11.6356 0
399.857 13.8169 0
398.522 11.7146 0
399.79 11.6751 0
400.992 9.49385 0
403.529 9.41468 0
403.663 13.6982 0
401.125 13.7774 0
402.261 9.45429 0
403.596 11.5564 0
402.394 13.7378 0
401.059 11.6356 0
402.327 11.5961 0
403.529 9.41468 0
406.066 9.33535 0
406.2 13.6188 0
403.663 13.6982 0
404.798 9.37503 0
406.133 11.4771 0
404.931 13.6585 0
403.596 11.5564 0
404.864 11.5168 0
406.066 9.33535 0
408.603 9.25586 0
408.737 13.5393 0
406.2 13.6188 0
407.335 9.29562 0
408.67 11.3976 0
407.468 13.5791 0
406.133 11.4771 0
407.402 11.4374 0
408.603 9.25586 0
411.14 9.17622 0
411.274 13.4597 0
408.737 13.5393 0
409.872 9.21606 0
411.207 11.318 0
410.006 13.4995 0
408.67 11.3976 0
409.939 11.3578 0
411.14 9.17622 0
413.677 9.09643 0
413.811 13.3799 0
411.274 13.4597 0
412.408 9.13634 0
413.744 11.2382 0
412.543 13.4198 0
411.207 11.318 0
412.476 11.2781 0
413.677 9.09643 0
416.214 9.01649 0
416.349 13.3 0
413.811 13.3799 0
414.945 9.05648 0
416.281 11.1582 0
415.08 13.34 0
413.744 11.2382 0
415.013 11.1982 0
416.214 9.01649 0
418.751 8.93642 0
418.886 13.2199 0
416.349 13.3 0
417.482 8.97647 0
418.818 11.0782 0
417.617 13.2599 0
416.281 11.1582 0
417.55 11.1182 0
418.751 8.93642 0
421.288 8.85621 0
421.423 13.1397 0
418.886 13.2199 0
420.019 8.89633 0
421.355 10.998 0
420.154 13.1798 0
418.818 11.0782 0
420.087 11.0381 0
421.288 8.85621 0
423.825 8.77587 0
423.96 13.0593 0
421.423 13.1397 0
422.556 8.81605 0
423.892 10.9176 0
422.692 13.0995 0
421.355 10.998 0
422.624 10.9578 0
423.825 8.77587 0
426.362 8.6954 0
426.497 12.9789 0
423.96 13.0593 0
425.093 8.73565 0
426.429 10.8371 0
425.229 13.0191 0
423.892 10.9176 0
425.161 10.8774 0
426.362 8.6954 0
428.898 8.61481 0
429.034 12.8983 0
426.497 12.9789 0
427.63 8.65512 0
428.966 10.7566 0
427.766 12.9386 0
426.429 10.8371 0
427.698 10.7969 0
428.898 8.61481 0
431.435 8.5341 0
431.571 12.8176 0
429.034 12.8983 0
430.167 8.57447 0
431.503 10.6758 0
430.303 12.8579 0
428.966 10.7566 0
430.235 10.7162 0
431.435 8.5341 0
433.972 8.45328 0
434.108 12.7367 0
431.571 12.8176 0
432.704 8.49371 0
434.04 10.595 0
432.84 12.7772 0
431.503 10.6758 0
432.772 10.6354 0
433.972 8.45328 0
436.509 8.37235 0
436.645 12.6558 0
434.108 12.7367 0
435.241 8.41283 0
436.577 10.5141 0
435.377 12.6963 0
434.04 10.595 0
435.309 10.5546 0
436.509 8.37235 0
439.046 8.29131 0
439.183 12.5748 0
436.645 12.6558 0
437.777 8.33184 0
439.114 10.433 0
437.914 12.6153 0
436.577 10.5141 0
437.846 10.4736 0
439.046 8.29131 0
441.583 8.21017 0
441.72 12.4936 0
439.183 12.5748 0
440.314 8.25075 0
441.651 10.3519 0
440.451 12.5342 0
439.114 10.433 0
440.383 10.3925 0
441.583 8.21017 0
444.12 8.12893 0
444.257 12.4124 0
441.72 12.4936 0
442.851 8.16956 0
444.188 10.2707 0
442.988 12.453 0
441.651 10.3519 0
442.92 10.3113 0
444.12 8.12893 0
446.656 8.0476 0
446.794 12.331 0
444.257 12.4124 0
445.388 8.08828 0
446.725 10.1893 0
445.525 12.3717 0
444.188 10.2707 0
445.457 10.23 0
446.656 8.0476 0
449.193 7.96618 0
449.331 12.2496 0
446.794 12.331 0
447.925 8.0069 0
449.262 10.1079 0
448.062 12.2903 0
446.725 10.1893 0
447.993 10.1486 0
449.193 7.96618 0
451.73 7.88468 0
451.868 12.1681 0
449.331 12.2496 0
450.462 7.92544 0
451.799 10.0264 0
450.599 12.2089 0
449.262 10.1079 0
450.53 10.0672 0
451.73 7.88468 0
454.267 7.8031 0
454.404 12.0865 0
451.868 12.1681 0
452.999 7.8439 0
454.336 9.94483 0
453.136 12.1273 0
451.799 10.0264 0
453.067 9.98563 0
454.267 7.8031 0
456.804 7.72144 0
456.941 12.0049 0
454.404 12.0865 0
455.535 7.76228 0
456.873 9.86316 0
455.673 12.0457 0
454.336 9.94483 0
455.604 9.904 0
456.804 7.72144 0
459.341 7.6397 0
459.478 11.9231 0
456.941 12.0049 0
458.072 7.68058 0
459.409 9.78143 0
458.21 11.964 0
456.873 9.86316 0
458.141 9.82231 0
459.341 7.6397 0
461.877 7.5579 0
462.015 11.8413 0
459.478 11.9231 0
460.609 7.59881 0
461.946 9.69963 0
460.747 11.8823 0
459.409 9.78143 0
460.678 9.74054 0
461.877 7.5579 0
464.414 7.47604 0
464.552 11.7595 0
462.015 11.8413 0
463.146 7.51698 0
464.483 9.61777 0
463.284 11.8004 0
461.946 9.69963 0
463.215 9.65871 0
464.414 7.47604 0
466.951 7.39412 0
467.089 11.6776 0
464.552 11.7595 0
465.683 7.43509 0
467.02 9.53585 0
465.821 11.7185 0
464.483 9.61777 0
465.752 9.57682 0
466.951 7.39412 0
469.488 7.31214 0
469.626 11.5956 0
467.089 11.6776 0
468.219 7.35314 0
469.557 9.45387 0
468.358 11.6366 0
467.02 9.53585 0
468.288 9.49486 0
469.488 7.31214 0
472.025 7.23012 0
472.163 11.5136 0
469.626 11.5956 0
470.756 7.27114 0
472.094 9.37184 0
470.894 11.5546 0
469.557 9.45387 0
470.825 9.41286 0
472.025 7.23012 0
474.561 7.14804 0
474.7 11.4315 0
472.163 11.5136 0
473.293 7.18908 0
474.631 9.28977 0
473.431 11.4725 0
472.094 9.37184 0
473.362 9.33081 0
474.561 7.14804 0
477.098 7.06592 0
477.237 11.3494 0
474.7 11.4315 0
475.83 7.10699 0
477.167 9.20765 0
475.968 11.3904 0
474.631 9.28977 0
475.899 9.24871 0
477.098 7.06592 0
479.635 6.98377 0
479.773 11.2672 0
477.237 11.3494 0
478.367 7.02485 0
479.704 9.1255 0
478.505 11.3083 0
477.167 9.20765 0
478.436 9.16658 0
479.635 6.98377 0
482.172 6.90158 0
482.31 11.185 0
479.773 11.2672 0
480.903 6.94268 0
482.241 9.04331 0
481.042 11.2261 0
479.704 9.1255 0
480.973 9.08441 0
482.172 6.90158 0
484.708 6.81936 0
484.847 11.1028 0
482.31 11.185 0
483.44 6.86047 0
484.778 8.96109 0
483.579 11.1439 0
482.241 9.04331 0
483.509 9.0022 0
484.708 6.81936 0
487.245 6.73711 0
487.384 11.0206 0
484.847 11.1028 0
485.977 6.77824 0
487.315 8.87884 0
486.115 11.0617 0
484.778 8.96109 0
486.046 8.91997 0
487.245 6.73711 0
489.782 6.65484 0
489.921 10.9383 0
487.384 11.0206 0
488.514 6.69598 0
489.851 8.79658 0
488.652 10.9794 0
487.315 8.87884 0
488.583 8.83771 0
489.782 6.65484 0
492.319 6.57256 0
492.457 10.856 0
489.921 10.9383 0
491.05 6.6137 0
492.388 8.71429 0
491.189 10.8972 0
489.851 8.79658 0
491.12 8.75544 0
492.319 6.57256 0
494.855 6.49028 0
494.994 10.7737 0
492.457 10.856 0
493.587 6.53142 0
494.925 8.632 0
493.726 10.8149 0
492.388 8.71429 0
493.656 8.67315 0
494.855 6.49028 0
497.392 6.40801 0
497.531 10.6914 0
494.994 10.7737 0
496.124 6.44914 0
497.462 8.54973 0
496.262 10.7326 0
494.925 8.632 0
496.193 8.59086 0
497.392 6.40801 0
499.929 6.32579 0
500.068 10.6092 0
497.531 10.6914 0
498.661 6.36689 0
499.998 8.46749 0
498.799 10.6503 0
497.462 8.54973 0
498.73 8.5086 0
0 21.4286 0
2.53993 21.4284 0
2.54127 25.7134 0
0 25.7143 0
1.26994 21.4286 0
2.54058 23.571 0
1.27059 25.714 0
0 23.5714 0
1.27027 23.5713 0
2.53993 21.4284 0
5.08001 21.4271 0
5.08281 25.7117 0
2.54127 25.7134 0
3.80996 21.4279 0
5.08136 23.5695 0
3.81203 25.7126 0
2.54058 23.571 0
3.81095 23.5703 0
5.08001 21.4271 0
7.62016 21.4249 0
7.62438 25.7093 0
5.08281 25.7117 0
6.35008 21.4261 0
7.62223 23.5672 0
6.3536 25.7106 0
5.08136 23.5695 0
6.35179 23.5684 0
7.62016 21.4249 0
10.1603 21.4219 0
10.1659 25.7062 0
7.62438 25.7093 0
8.89025 21.4235 0
10.1631 23.5642 0
8.89516 25.7078 0
7.62223 23.5672 0
8.89267 23.5658 0
10.1603 21.4219 0
12.7005 21.4181 0
12.7075 25.7024 0
10.1659 25.7062 0
11.4304 21.4201 0
12.704 23.5603 0
11.4367 25.7044 0
10.1631 23.5642 0
11.4335 23.5623 0
12.7005 21.4181 0
15.2406 21.4134 0
15.2489 25.6977 0
12.7075 25.7024 0
13.9706 21.4159 0
15.2448 23.5557 0
13.9782 25.7002 0
12.704 23.5603 0
13.9744 23.5581 0
15.2406 21.4134 0
17.7808 21.408 0
17.7904 25.6923 0
15.2489 25.6977 0
16.5107 21.4108 0
17.7856 23.5502 0
16.5197 25.6951 0
15.2448 23.5557 0
16.5152 23.5531 0
17.7808 21.408 0
20.3209 21.4018 0
20.3319 25.6861 0
17.7904 25.6923 0
19.0508 21.405 0
20.3264 23.544 0
19.0611 25.6893 0
17.7856 23.5502 0
19.056 23.5472 0
20.3209 21.4018 0
22.861 21.3947 0
22.8733 25.679 0
20.3319 25.6861 0
21.5909 21.3983 0
22.8671 23.537 0
21.6026 25.6827 0
20.3264 23.544 0
21.5967 23.5406 0
22.861 21.3947 0
25.401 21.3869 0
25.4147 25.6712 0
22.8733 25.679 0
24.131 21.3909 0
25.4079 23.5291 0
24.144 25.6752 0
22.8671 23.537 0
24.1375 23.5331 0
25.401 21.3869 0
27.9411 21.3782 0
27.9561 25.6626 0
25.4147 25.6712 0
26.6711 21.3826 0
27.9486 23.5205 0
26.6854 25.667 0
25.4079 23.5291 0
26.6782 23.5249 0
27.9411 21.3782 0
30.4811 21.3688 0
30.4975 25.6531 0
27.9561 25.6626 0
29.2111 21.3736 0
30.4893 23.5111 0
29.2268 25.658 0
27.9486 23.5205 0
29.2189 23.5159 0
30.4811 21.3688 0
33.0212 21.3586 0
33.0388 25.6429 0
30.4975 25.6531 0
31.7511 21.3638 0
33.03 23.5008 0
31.7681 25.6481 0
30.4893 23.5111 0
31.7596 23.506 0
33.0212 21.3586 0
35.5612 21.3476 0
35.5801 25.6319 0
33.0388 25.6429 0
34.2912 21.3532 0
35.5706 23.4899 0
34.3095 25.6375 0
33.03 23.5008 0
34.3003 23.4955 0
35.5612 21.3476 0
38.1012 21.3358 0
38.1214 25.6202 0
35.5801 25.6319 0
36.8312 21.3418 0
38.1113 23.4781 0
36.8508 25.6262 0
35.5706 23.4899 0
36.841 23.4841 0
38.1012 21.3358 0
40.6412 21.3233 0
40.6627 25.6076 0
38.1214 25.6202 0
39.3712 21.3297 0
40.6519 23.4656 0
39.3921 25.614 0
38.1113 23.4781 0
39.3816 23.4719 0
40.6412 21.3233 0
43.1811 21.31 0
43.204 25.5943 0
40.6627 25.6076 0
41.9111 21.3167 0
43.1925 23.4523 0
41.9334 25.6011 0
40.6519 23.4656 0
41.9222 23.459 0
43.1811 21.31 0
45.7211 21.2959 0
45.7452 25.5803 0
43.204 25.5943 0
44.4511 21.3031 0
45.7331 23.4382 0
44.4746 25.5874 0
43.1925 23.4523 0
44.4629 23.4453 0
45.7211 21.2959 0
48.261 21.2811 0
48.2865 25.5654 0
45.7452 25.5803 0
46.9911 21.2886 0
48.2737 23.4234 0
47.0158 25.573 0
45.7331 23.4382 0
47.0034 23.4309 0
48.261 21.2811 0
50.801 21.2655 0
50.8276 25.5499 0
48.2865 25.5654 0
49.531 21.2734 0
50.8143 23.4078 0
49.5571 25.5578 0
48.2737 23.4234 0
49.544 23.4157 0
50.801 21.2655 0
53.3409 21.2492 0
53.3688 25.5335 0
50.8276 25.5499 0
52.0709 21.2574 0
53.3548 23.3914 0
52.0982 25.5418 0
50.8143 23.4078 0
52.0846 23.3997 0
53.3409 21.2492 0
55.8808 21.2321 0
55.91 25.5165 0
53.3688 25.5335 0
54.6108 21.2407 0
55.8954 23.3744 0
54.6394 25.5251 0
53.3548 23.3914 0
54.6251 23.383 0
55.8808 21.2321 0
58.4206 21.2143 0
58.4511 25.4986 0
55.91 25.5165 0
57.1507 21.2233 0
58.4359 23.3565 0
57.1805 25.5076 0
55.8954 23.3744 0
57.1656 23.3655 0
58.4206 21.2143 0
60.9605 21.1957 0
60.9922 25.4801 0
58.4511 25.4986 0
59.6906 21.2051 0
60.9763 23.338 0
59.7217 25.4894 0
58.4359 23.3565 0
59.7061 23.3474 0
60.9605 21.1957 0
63.5003 21.1764 0
63.5333 25.4608 0
60.9922 25.4801 0
62.2304 21.1862 0
63.5168 23.3187 0
62.2627 25.4705 0
60.9763 23.338 0
62.2466 23.3284 0
63.5003 21.1764 0
66.0402 21.1564 0
66.0743 25.4408 0
63.5333 25.4608 0
64.7703 21.1665 0
66.0572 23.2987 0
64.8038 25.4509 0
63.5168 23.3187 0
64.787 23.3088 0
66.0402 21.1564 0
68.58 21.1357 0
68.6154 25.42 0
66.0743 25.4408 0
67.3101 21.1461 0
68.5977 23.2779 0
67.3449 25.4305 0
66.0572 23.2987 0
67.3275 23.2884 0
68.58 21.1357 0
71.1198 21.1142 0
71.1564 25.3985 0
68.6154 25.42 0
69.8499 21.125 0
71.1381 23.2564 0
69.8859 25.4094 0
68.5977 23.2779 0
69.8679 23.2673 0
71.1198 21.1142 0
73.6596 21.092 0
73.6974 25.3763 0
71.1564 25.3985 0
72.3897 21.1032 0
73.6785 23.2343 0
72.4269 25.3875 0
71.1381 23.2564 0
72.4083 23.2454 0
73.6596 21.092 0
76.1993 21.0691 0
76.2383 25.3534 0
73.6974 25.3763 0
74.9295 21.0807 0
76.2188 23.2114 0
74.9679 25.365 0
73.6785 23.2343 0
74.9486 23.2229 0
76.1993 21.0691 0
78.7391 21.0455 0
78.7793 25.3298 0
76.2383 25.3534 0
77.4692 21.0574 0
78.7592 23.1878 0
77.5088 25.3417 0
76.2188 23.2114 0
77.489 23.1996 0
78.7391 21.0455 0
81.2788 21.0212 0
81.3202 25.3055 0
78.7793 25.3298 0
80.0089 21.0335 0
81.2995 23.1634 0
80.0497 25.3178 0
78.7592 23.1878 0
80.0293 23.1757 0
81.2788 21.0212 0
83.8185 20.9962 0
83.8611 25.2805 0
81.3202 25.3055 0
82.5487 21.0088 0
83.8398 23.1384 0
82.5906 25.2931 0
81.2995 23.1634 0
82.5696 23.151 0
83.8185 20.9962 0
86.3582 20.9705 0
86.4019 25.2548 0
83.8611 25.2805 0
85.0884 20.9834 0
86.3801 23.1127 0
85.1315 25.2678 0
83.8398 23.1384 0
85.1099 23.1257 0
86.3582 20.9705 0
88.8979 20.9441 0
88.9428 25.2284 0
86.4019 25.2548 0
87.6281 20.9574 0
88.9203 23.0863 0
87.6724 25.2417 0
86.3801 23.1127 0
87.6502 23.0996 0
88.8979 20.9441 0
91.4375 20.917 0
91.4836 25.2013 0
88.9428 25.2284 0
90.1677 20.9307 0
91.4606 23.0593 0
90.2132 25.215 0
88.9203 23.0863 0
90.1904 23.0729 0
91.4375 20.917 0
93.9772 20.8893 0
94.0244 25.1736 0
91.4836 25.2013 0
92.7074 20.9032 0
94.0008 23.0315 0
92.754 25.1875 0
91.4606 23.0593 0
92.7307 23.0455 0
93.9772 20.8893 0
96.5168 20.8608 0
96.5651 25.1451 0
94.0244 25.1736 0
95.247 20.8751 0
96.541 23.003 0
95.2948 25.1594 0
94.0008 23.0315 0
95.2709 23.0174 0
96.5168 20.8608 0
99.0564 20.8317 0
99.1059 25.116 0
96.5651 25.1451 0
97.7866 20.8464 0
99.0811 22.9739 0
97.8355 25.1306 0
96.541 23.003 0
97.811 22.9886 0
99.0564 20.8317 0
101.596 20.8019 0
101.647 25.0862 0
99.1059 25.116 0
100.326 20.8169 0
101.621 22.9441 0
100.376 25.1012 0
99.0811 22.9739 0
100.351 22.9591 0
101.596 20.8019 0
104.136 20.7715 0
104.187 25.0557 0
101.647 25.0862 0
102.866 20.7868 0
104.161 22.9137 0
102.917 25.0711 0
101.621 22.9441 0
102.891 22.929 0
104.136 20.7715 0
106.675 20.7404 0
106.728 25.0246 0
104.187 25.0557 0
105.405 20.756 0
106.702 22.8826 0
105.458 25.0403 0
104.161 22.9137 0
105.431 22.8982 0
106.675 20.7404 0
109.215 20.7086 0
109.269 24.9929 0
106.728 25.0246 0
107.945 20.7246 0
109.242 22.8508 0
107.998 25.0088 0
106.702 22.8826 0
107.972 22.8668 0
109.215 20.7086 0
111.754 20.6762 0
111.809 24.9604 0
109.269 24.9929 0
110.484 20.6925 0
111.782 22.8184 0
110.539 24.9767 0
109.242 22.8508 0
110.512 22.8347 0
111.754 20.6762 0
114.294 20.6431 0
114.35 24.9274 0
111.809 24.9604 0
113.024 20.6597 0
114.322 22.7853 0
113.079 24.944 0
111.782 22.8184 0
113.052 22.8019 0
114.294 20.6431 0
116.833 20.6094 0
116.89 24.8936 0
114.35 24.9274 0
115.563 20.6263 0
116.862 22.7516 0
115.62 24.9106 0
114.322 22.7853 0
115.592 22.7685 0
116.833 20.6094 0
119.373 20.575 0
119.431 24.8593 0
116.89 24.8936 0
118.103 20.5923 0
119.402 22.7172 0
118.161 24.8765 0
116.862 22.7516 0
118.132 22.7345 0
119.373 20.575 0
121.912 20.5401 0
121.971 24.8243 0
119.431 24.8593 0
120.642 20.5576 0
121.942 22.6822 0
120.701 24.8418 0
119.402 22.7172 0
120.672 22.6998 0
121.912 20.5401 0
124.451 20.5044 0
124.512 24.7886 0
121.971 24.8243 0
123.182 20.5223 0
124.482 22.6466 0
123.242 24.8065 0
121.942 22.6822 0
123.212 22.6645 0
124.451 20.5044 0
126.991 20.4682 0
127.052 24.7524 0
124.512 24.7886 0
125.721 20.4864 0
127.022 22.6103 0
125.782 24.7706 0
124.482 22.6466 0
125.752 22.6286 0
126.991 20.4682 0
129.53 20.4313 0
129.593 24.7155 0
127.052 24.7524 0
128.26 20.4498 0
129.561 22.5735 0
128.322 24.734 0
127.022 22.6103 0
128.291 22.592 0
129.53 20.4313 0
132.07 20.3938 0
132.133 24.678 0
129.593 24.7155 0
130.8 20.4126 0
132.101 22.536 0
130.863 24.6968 0
129.561 22.5735 0
130.831 22.5548 0
132.07 20.3938 0
134.609 20.3557 0
134.673 24.6399 0
132.133 24.678 0
133.339 20.3748 0
134.641 22.4979 0
133.403 24.659 0
132.101 22.536 0
133.371 22.517 0
134.609 20.3557 0
137.148 20.317 0
137.214 24.6012 0
134.673 24.6399 0
135.879 20.3364 0
137.181 22.4591 0
135.944 24.6206 0
134.641 22.4979 0
135.911 22.4786 0
137.148 20.317 0
139.687 20.2777 0
139.754 24.5618 0
137.214 24.6012 0
138.418 20.2974 0
139.721 22.4198 0
138.484 24.5816 0
137.181 22.4591 0
138.451 22.4396 0
139.687 20.2777 0
142.227 20.2378 0
142.294 24.5219 0
139.754 24.5618 0
140.957 20.2578 0
142.261 22.3799 0
141.024 24.5419 0
139.721 22.4198 0
140.991 22.3999 0
142.227 20.2378 0
144.766 20.1972 0
144.835 24.4814 0
142.294 24.5219 0
143.496 20.2176 0
144.8 22.3394 0
143.565 24.5017 0
142.261 22.3799 0
143.53 22.3597 0
144.766 20.1972 0
147.305 20.1561 0
147.375 24.4403 0
144.835 24.4814 0
146.036 20.1767 0
147.34 22.2982 0
146.105 24.4609 0
144.8 22.3394 0
146.07 22.3189 0
147.305 20.1561 0
149.844 20.1144 0
149.915 24.3985 0
147.375 24.4403 0
148.575 20.1353 0
149.88 22.2565 0
148.645 24.4195 0
147.34 22.2982 0
148.61 22.2775 0
149.844 20.1144 0
152.384 20.0721 0
152.455 24.3562 0
149.915 24.3985 0
151.114 20.0933 0
152.419 22.2142 0
151.185 24.3775 0
149.88 22.2565 0
151.15 22.2355 0
152.384 20.0721 0
154.923 20.0293 0
154.995 24.3134 0
152.455 24.3562 0
153.653 20.0508 0
154.959 22.1714 0
153.725 24.3349 0
152.419 22.2142 0
153.689 22.1929 0
154.923 20.0293 0
157.462 19.9858 0
157.536 24.2699 0
154.995 24.3134 0
156.192 20.0076 0
157.499 22.1279 0
156.265 24.2917 0
154.959 22.1714 0
156.229 22.1497 0
157.462 19.9858 0
160.001 19.9418 0
160.076 24.2259 0
157.536 24.2699 0
158.732 19.9639 0
160.038 22.0839 0
158.806 24.248 0
157.499 22.1279 0
158.769 22.106 0
160.001 19.9418 0
162.54 19.8972 0
162.616 24.1813 0
160.076 24.2259 0
161.271 19.9196 0
162.578 22.0393 0
161.346 24.2037 0
160.038 22.0839 0
161.308 22.0617 0
162.54 19.8972 0
165.079 19.8521 0
165.156 24.1361 0
162.616 24.1813 0
163.81 19.8747 0
165.118 21.9942 0
163.886 24.1588 0
162.578 22.0393 0
163.848 22.0168 0
165.079 19.8521 0
167.618 19.8064 0
167.696 24.0904 0
165.156 24.1361 0
166.349 19.8293 0
167.657 21.9484 0
166.426 24.1133 0
165.118 21.9942 0
166.387 21.9714 0
167.618 19.8064 0
170.157 19.7601 0
170.236 24.0441 0
167.696 24.0904 0
168.888 19.7833 0
170.197 21.9022 0
168.966 24.0674 0
167.657 21.9484 0
168.927 21.9254 0
170.157 19.7601 0
172.696 19.7133 0
172.776 23.9973 0
170.236 24.0441 0
171.427 19.7368 0
172.736 21.8554 0
171.506 24.0208 0
170.197 21.9022 0
171.466 21.8788 0
172.696 19.7133 0
175.235 19.6659 0
175.316 23.95 0
172.776 23.9973 0
173.966 19.6897 0
175.276 21.808 0
174.046 23.9737 0
172.736 21.8554 0
174.006 21.8317 0
175.235 19.6659 0
177.774 19.618 0
177.856 23.902 0
175.316 23.95 0
176.505 19.642 0
177.815 21.7601 0
176.586 23.9261 0
175.276 21.808 0
176.545 21.7841 0
177.774 19.618 0
180.313 19.5696 0
180.395 23.8536 0
177.856 23.902 0
179.044 19.5939 0
180.354 21.7116 0
179.125 23.8779 0
177.815 21.7601 0
179.085 21.7359 0
180.313 19.5696 0
182.852 19.5206 0
182.935 23.8046 0
180.395 23.8536 0
181.583 19.5452 0
182.894 21.6627 0
181.665 23.8292 0
180.354 21.7116 0
181.624 21.6872 0
182.852 19.5206 0
185.391 19.4711 0
185.475 23.7551 0
182.935 23.8046 0
184.122 19.4959 0
185.433 21.6132 0
184.205 23.7799 0
182.894 21.6627 0
184.163 21.638 0
185.391 19.4711 0
187.93 19.4211 0
188.015 23.7051 0
185.475 23.7551 0
186.661 19.4461 0
187.972 21.5631 0
186.745 23.7301 0
185.433 21.6132 0
186.703 21.5882 0
187.93 19.4211 0
190.469 19.3705 0
190.555 23.6545 0
188.015 23.7051 0
189.2 19.3959 0
190.512 21.5126 0
189.285 23.6798 0
187.972 21.5631 0
189.242 21.5379 0
190.469 19.3705 0
193.008 19.3194 0
193.094 23.6034 0
190.555 23.6545 0
191.739 19.345 0
193.051 21.4615 0
191.824 23.629 0
190.512 21.5126 0
191.781 21.4871 0
193.008 19.3194 0
195.547 19.2679 0
195.634 23.5518 0
193.094 23.6034 0
194.277 19.2937 0
195.59 21.4099 0
194.364 23.5777 0
193.051 21.4615 0
194.321 21.4358 0
195.547 19.2679 0
198.086 19.2158 0
198.174 23.4997 0
195.634 23.5518 0
196.816 19.2419 0
198.13 21.3578 0
196.904 23.5258 0
195.59 21.4099 0
196.86 21.3839 0
198.086 19.2158 0
200.624 19.1632 0
200.713 23.4471 0
198.174 23.4997 0
199.355 19.1895 0
200.669 21.3052 0
199.444 23.4735 0
198.13 21.3578 0
199.399 21.3316 0
200.624 19.1632 0
203.163 19.1101 0
203.253 23.394 0
200.713 23.4471 0
201.894 19.1367 0
203.208 21.2521 0
201.983 23.4206 0
200.669 21.3052 0
201.938 21.2787 0
203.163 19.1101 0
205.702 19.0565 0
205.793 23.3404 0
203.253 23.394 0
204.433 19.0834 0
205.747 21.1985 0
204.523 23.3673 0
203.208 21.2521 0
204.478 21.2254 0
205.702 19.0565 0
208.241 19.0024 0
208.332 23.2863 0
205.793 23.3404 0
206.971 19.0295 0
208.286 21.1444 0
207.062 23.3134 0
205.747 21.1985 0
207.017 21.1715 0
208.241 19.0024 0
210.779 18.9479 0
210.872 23.2318 0
208.332 23.2863 0
209.51 18.9752 0
210.825 21.0899 0
209.602 23.2591 0
208.286 21.1444 0
209.556 21.1172 0
210.779 18.9479 0
213.318 18.8928 0
213.411 23.1767 0
210.872 23.2318 0
212.049 18.9204 0
213.365 21.0348 0
212.141 23.2043 0
210.825 21.0899 0
212.095 21.0624 0
213.318 18.8928 0
215.857 18.8373 0
215.951 23.1212 0
213.411 23.1767 0
214.587 18.8651 0
215.904 20.9793 0
214.681 23.149 0
213.365 21.0348 0
214.634 21.0071 0
215.857 18.8373 0
218.395 18.7813 0
218.49 23.0651 0
215.951 23.1212 0
217.126 18.8093 0
218.443 20.9233 0
217.22 23.0932 0
215.904 20.9793 0
217.173 20.9513 0
218.395 18.7813 0
220.934 18.7248 0
221.029 23.0087 0
218.49 23.0651 0
219.665 18.7531 0
220.982 20.8668 0
219.76 23.037 0
218.443 20.9233 0
219.712 20.8951 0
220.934 18.7248 0
223.473 18.6679 0
223.569 22.9517 0
221.029 23.0087 0
222.203 18.6964 0
223.521 20.8098 0
222.299 22.9802 0
220.982 20.8668 0
222.251 20.8384 0
223.473 18.6679 0
226.011 18.6105 0
226.108 22.8943 0
223.569 22.9517 0
224.742 18.6392 0
226.06 20.7524 0
224.839 22.9231 0
223.521 20.8098 0
224.79 20.7812 0
226.011 18.6105 0
228.55 18.5526 0
228.648 22.8364 0
226.108 22.8943 0
227.28 18.5816 0
228.599 20.6946 0
227.378 22.8654 0
226.06 20.7524 0
227.329 20.7236 0
228.55 18.5526 0
231.088 18.4943 0
231.187 22.7781 0
228.648 22.8364 0
229.819 18.5235 0
231.138 20.6363 0
229.917 22.8073 0
228.599 20.6946 0
229.868 20.6655 0
231.088 18.4943 0
233.627 18.4355 0
233.726 22.7193 0
231.187 22.7781 0
232.358 18.465 0
233.676 20.5775 0
232.457 22.7488 0
231.138 20.6363 0
232.407 20.6069 0
233.627 18.4355 0
236.165 18.3763 0
236.265 22.6601 0
233.726 22.7193 0
234.896 18.406 0
236.215 20.5183 0
234.996 22.6898 0
233.676 20.5775 0
234.946 20.5479 0
236.165 18.3763 0
238.704 18.3167 0
238.805 22.6005 0
236.265 22.6601 0
237.435 18.3466 0
238.754 20.4586 0
237.535 22.6304 0
236.215 20.5183 0
237.485 20.4885 0
238.704 18.3167 0
241.242 18.2566 0
241.344 22.5404 0
238.805 22.6005 0
239.973 18.2867 0
241.293 20.3985 0
240.074 22.5705 0
238.754 20.4586 0
240.024 20.4286 0
241.242 18.2566 0
243.781 18.1961 0
243.883 22.4799 0
241.344 22.5404 0
242.512 18.2264 0
243.832 20.338 0
242.613 22.5102 0
241.293 20.3985 0
242.562 20.3683 0
243.781 18.1961 0
246.319 18.1352 0
246.422 22.4189 0
243.883 22.4799 0
245.05 18.1657 0
246.371 20.2771 0
245.153 22.4494 0
243.832 20.338 0
245.101 20.3076 0
246.319 18.1352 0
248.858 18.0738 0
248.961 22.3575 0
246.422 22.4189 0
247.588 18.1045 0
248.909 20.2157 0
247.692 22.3883 0
246.371 20.2771 0
247.64 20.2464 0
248.858 18.0738 0
251.396 18.012 0
251.5 22.2957 0
248.961 22.3575 0
250.127 18.043 0
251.448 20.1539 0
250.231 22.3267 0
248.909 20.2157 0
250.179 20.1849 0
251.396 18.012 0
253.934 17.9498 0
254.039 22.2335 0
251.5 22.2957 0
252.665 17.981 0
253.987 20.0917 0
252.77 22.2647 0
251.448 20.1539 0
252.717 20.1229 0
253.934 17.9498 0
256.473 17.8872 0
256.578 22.1709 0
254.039 22.2335 0
255.203 17.9186 0
256.525 20.0291 0
255.309 22.2023 0
253.987 20.0917 0
255.256 20.0605 0
256.473 17.8872 0
259.011 17.8242 0
259.117 22.1079 0
256.578 22.1709 0
257.742 17.8557 0
259.064 19.9661 0
257.848 22.1394 0
256.525 20.0291 0
257.795 19.9976 0
259.011 17.8242 0
261.549 17.7608 0
261.656 22.0445 0
259.117 22.1079 0
260.28 17.7925 0
261.603 19.9027 0
260.387 22.0762 0
259.064 19.9661 0
260.333 19.9344 0
261.549 17.7608 0
264.087 17.6969 0
264.195 21.9806 0
261.656 22.0445 0
262.818 17.7289 0
264.141 19.8388 0
262.926 22.0126 0
261.603 19.9027 0
262.872 19.8708 0
264.087 17.6969 0
266.626 17.6327 0
266.734 21.9164 0
264.195 21.9806 0
265.357 17.6649 0
266.68 19.7746 0
265.465 21.9486 0
264.141 19.8388 0
265.411 19.8068 0
266.626 17.6327 0
269.164 17.5681 0
269.273 21.8518 0
266.734 21.9164 0
267.895 17.6005 0
269.219 19.71 0
268.004 21.8842 0
266.68 19.7746 0
267.949 19.7424 0
269.164 17.5681 0
271.702 17.5032 0
271.812 21.7868 0
269.273 21.8518 0
270.433 17.5357 0
271.757 19.645 0
270.543 21.8194 0
269.219 19.71 0
270.488 19.6776 0
271.702 17.5032 0
274.24 17.4378 0
274.351 21.7214 0
271.812 21.7868 0
272.971 17.4705 0
274.296 19.5796 0
273.081 21.7542 0
271.757 19.645 0
273.026 19.6124 0
274.24 17.4378 0
276.779 17.372 0
276.89 21.6557 0
274.351 21.7214 0
275.509 17.405 0
276.834 19.5139 0
275.62 21.6886 0
274.296 19.5796 0
275.565 19.5468 0
276.779 17.372 0
279.317 17.3059 0
279.428 21.5896 0
276.89 21.6557 0
278.048 17.339 0
279.373 19.4478 0
278.159 21.6227 0
276.834 19.5139 0
278.103 19.4809 0
279.317 17.3059 0
281.855 17.2394 0
281.967 21.5231 0
279.428 21.5896 0
280.586 17.2727 0
281.911 19.3813 0
280.698 21.5564 0
279.373 19.4478 0
280.642 19.4146 0
281.855 17.2394 0
284.393 17.1726 0
284.506 21.4562 0
281.967 21.5231 0
283.124 17.2061 0
284.449 19.3144 0
283.236 21.4897 0
281.911 19.3813 0
283.18 19.3479 0
284.393 17.1726 0
286.931 17.1054 0
287.045 21.389 0
284.506 21.4562 0
285.662 17.139 0
286.988 19.2472 0
285.775 21.4226 0
284.449 19.3144 0
285.719 19.2809 0
286.931 17.1054 0
289.469 17.0378 0
289.583 21.3214 0
287.045 21.389 0
288.2 17.0717 0
289.526 19.1797 0
288.314 21.3552 0
286.988 19.2472 0
288.257 19.2135 0
289.469 17.0378 0
292.007 16.9699 0
292.122 21.2535 0
289.583 21.3214 0
290.738 17.0039 0
292.064 19.1117 0
290.853 21.2875 0
289.526 19.1797 0
290.795 19.1457 0
292.007 16.9699 0
294.545 16.9016 0
294.66 21.1852 0
292.122 21.2535 0
293.276 16.9358 0
294.603 19.0435 0
293.391 21.2194 0
292.064 19.1117 0
293.334 19.0776 0
294.545 16.9016 0
297.083 16.833 0
297.199 21.1166 0
294.66 21.1852 0
295.814 16.8674 0
297.141 18.9749 0
295.93 21.151 0
294.603 19.0435 0
295.872 19.0092 0
297.083 16.833 0
299.621 16.7641 0
299.738 21.0477 0
297.199 21.1166 0
298.352 16.7986 0
299.679 18.9059 0
298.468 21.0822 0
297.141 18.9749 0
298.41 18.9404 0
299.621 16.7641 0
302.159 16.6948 0
302.276 20.9784 0
299.738 21.0477 0
300.89 16.7295 0
302.218 18.8366 0
301.007 21.0131 0
299.679 18.9059 0
300.948 18.8713 0
302.159 16.6948 0
304.697 16.6252 0
304.815 20.9088 0
302.276 20.9784 0
303.428 16.6601 0
304.756 18.767 0
303.545 20.9436 0
302.218 18.8366 0
303.487 18.8019 0
304.697 16.6252 0
307.235 16.5553 0
307.353 20.8388 0
304.815 20.9088 0
305.966 16.5903 0
307.294 18.6971 0
306.084 20.8738 0
304.756 18.767 0
306.025 18.7321 0
307.235 16.5553 0
309.773 16.485 0
309.892 20.7686 0
307.353 20.8388 0
308.504 16.5202 0
309.832 18.6268 0
308.622 20.8037 0
307.294 18.6971 0
308.563 18.662 0
309.773 16.485 0
312.311 16.4145 0
312.43 20.698 0
309.892 20.7686 0
311.042 16.4498 0
312.37 18.5562 0
311.161 20.7333 0
309.832 18.6268 0
311.101 18.5916 0
312.311 16.4145 0
314.849 16.3436 0
314.968 20.6271 0
312.43 20.698 0
313.58 16.379 0
314.909 18.4854 0
313.699 20.6626 0
312.37 18.5562 0
313.639 18.5208 0
314.849 16.3436 0
317.387 16.2724 0
317.507 20.5559 0
314.968 20.6271 0
316.118 16.308 0
317.447 18.4142 0
316.238 20.5915 0
314.909 18.4854 0
316.178 18.4498 0
317.387 16.2724 0
319.924 16.2009 0
320.045 20.4844 0
317.507 20.5559 0
318.655 16.2367 0
319.985 18.3427 0
318.776 20.5202 0
317.447 18.4142 0
318.716 18.3784 0
319.924 16.2009 0
322.462 16.1291 0
322.583 20.4126 0
320.045 20.4844 0
321.193 16.165 0
322.523 18.2708 0
321.314 20.4485 0
319.985 18.3427 0
321.254 18.3068 0
322.462 16.1291 0
325 16.057 0
325.122 20.3405 0
322.583 20.4126 0
323.731 16.0931 0
325.061 18.1987 0
323.853 20.3765 0
322.523 18.2708 0
323.792 18.2348 0
325 16.057 0
327.538 15.9846 0
327.66 20.2681 0
325.122 20.3405 0
326.269 16.0208 0
327.599 18.1264 0
326.391 20.3043 0
325.061 18.1987 0
326.33 18.1626 0
327.538 15.9846 0
330.076 15.9119 0
330.198 20.1954 0
327.66 20.2681 0
328.807 15.9483 0
330.137 18.0537 0
328.929 20.2318 0
327.599 18.1264 0
328.868 18.0901 0
330.076 15.9119 0
332.613 15.8389 0
332.736 20.1224 0
330.198 20.1954 0
331.344 15.8755 0
332.675 17.9807 0
331.467 20.1589 0
330.137 18.0537 0
331.406 18.0172 0
332.613 15.8389 0
335.151 15.7657 0
335.275 20.0492 0
332.736 20.1224 0
333.882 15.8024 0
335.213 17.9075 0
334.006 20.0858 0
332.675 17.9807 0
333.944 17.9441 0
335.151 15.7657 0
337.689 15.6922 0
337.813 19.9756 0
335.275 20.0492 0
336.42 15.729 0
337.751 17.834 0
336.544 20.0124 0
335.213 17.9075 0
336.482 17.8707 0
337.689 15.6922 0
340.226 15.6184 0
340.351 19.9019 0
337.813 19.9756 0
338.958 15.6553 0
340.289 17.7602 0
339.082 19.9388 0
337.751 17.834 0
339.02 17.7971 0
340.226 15.6184 0
342.764 15.5444 0
342.889 19.8278 0
340.351 19.9019 0
341.495 15.5814 0
342.826 17.6861 0
341.62 19.8649 0
340.289 17.7602 0
341.558 17.7232 0
342.764 15.5444 0
345.302 15.47 0
345.427 19.7535 0
342.889 19.8278 0
344.033 15.5072 0
345.364 17.6118 0
344.158 19.7907 0
342.826 17.6861 0
344.095 17.649 0
345.302 15.47 0
347.839 15.3955 0
347.965 19.6789 0
345.427 19.7535 0
346.57 15.4328 0
347.902 17.5372 0
346.696 19.7162 0
345.364 17.6118 0
346.633 17.5745 0
347.839 15.3955 0
350.377 15.3206 0
350.503 19.6041 0
347.965 19.6789 0
349.108 15.3581 0
350.44 17.4624 0
349.234 19.6415 0
347.902 17.5372 0
349.171 17.4998 0
350.377 15.3206 0
352.914 15.2456 0
353.041 19.529 0
350.503 19.6041 0
351.646 15.2831 0
352.978 17.3873 0
351.772 19.5666 0
350.44 17.4624 0
351.709 17.4249 0
352.914 15.2456 0
355.452 15.1703 0
355.579 19.4537 0
353.041 19.529 0
354.183 15.2079 0
355.516 17.312 0
354.31 19.4914 0
352.978 17.3873 0
354.247 17.3497 0
355.452 15.1703 0
357.99 15.0947 0
358.117 19.3781 0
355.579 19.4537 0
356.721 15.1325 0
358.053 17.2364 0
356.848 19.4159 0
355.516 17.312 0
356.784 17.2742 0
357.99 15.0947 0
360.527 15.0189 0
360.655 19.3023 0
358.117 19.3781 0
359.258 15.0568 0
360.591 17.1606 0
359.386 19.3402 0
358.053 17.2364 0
359.322 17.1985 0
360.527 15.0189 0
363.065 14.9429 0
363.193 19.2263 0
360.655 19.3023 0
361.796 14.9809 0
363.129 17.0846 0
361.924 19.2643 0
360.591 17.1606 0
361.86 17.1226 0
363.065 14.9429 0
365.602 14.8666 0
365.731 19.15 0
363.193 19.2263 0
364.333 14.9048 0
365.666 17.0083 0
364.462 19.1882 0
363.129 17.0846 0
364.398 17.0465 0
365.602 14.8666 0
368.14 14.7901 0
368.269 19.0735 0
365.731 19.15 0
366.871 14.8284 0
368.204 16.9318 0
367 19.1118 0
365.666 17.0083 0
366.935 16.9701 0
368.14 14.7901 0
370.677 14.7134 0
370.807 18.9968 0
368.269 19.0735 0
369.408 14.7518 0
370.742 16.8551 0
369.538 19.0352 0
368.204 16.9318 0
369.473 16.8935 0
370.677 14.7134 0
373.215 14.6365 0
373.344 18.9199 0
370.807 18.9968 0
371.946 14.675 0
373.279 16.7782 0
372.075 18.9584 0
370.742 16.8551 0
372.011 16.8167 0
373.215 14.6365 0
375.752 14.5594 0
375.882 18.8427 0
373.344 18.9199 0
374.483 14.598 0
375.817 16.7011 0
374.613 18.8813 0
373.279 16.7782 0
374.548 16.7397 0
375.752 14.5594 0
378.289 14.482 0
378.42 18.7654 0
375.882 18.8427 0
377.021 14.5207 0
378.355 16.6237 0
377.151 18.8041 0
375.817 16.7011 0
377.086 16.6624 0
378.289 14.482 0
380.827 14.4045 0
380.958 18.6879 0
378.42 18.7654 0
379.558 14.4433 0
380.892 16.5462 0
379.689 18.7267 0
378.355 16.6237 0
379.623 16.585 0
380.827 14.4045 0
383.364 14.3267 0
383.495 18.6101 0
380.958 18.6879 0
382.095 14.3656 0
383.43 16.4684 0
382.226 18.649 0
380.892 16.5462 0
382.161 16.5073 0
383.364 14.3267 0
385.902 14.2488 0
386.033 18.5322 0
383.495 18.6101 0
384.633 14.2878 0
385.967 16.3905 0
384.764 18.5712 0
383.43 16.4684 0
384.699 16.4295 0
385.902 14.2488 0
388.439 14.1707 0
388.571 18.454 0
386.033 18.5322 0
387.17 14.2098 0
388.505 16.3124 0
387.302 18.4931 0
385.967 16.3905 0
387.236 16.3515 0
388.439 14.1707 0
390.976 14.0924 0
391.108 18.3757 0
388.571 18.454 0
389.708 14.1316 0
391.042 16.2341 0
389.84 18.4149 0
388.505 16.3124 0
389.774 16.2733 0
390.976 14.0924 0
393.514 14.0139 0
393.646 18.2972 0
391.108 18.3757 0
392.245 14.0531 0
393.58 16.1556 0
392.377 18.3365 0
391.042 16.2341 0
392.311 16.1948 0
393.514 14.0139 0
396.051 13.9352 0
396.184 18.2186 0
393.646 18.2972 0
394.782 13.9746 0
396.117 16.0769 0
394.915 18.2579 0
393.58 16.1556 0
394.848 16.1163 0
396.051 13.9352 0
398.588 13.8564 0
398.721 18.1397 0
396.184 18.2186 0
397.319 13.8958 0
398.655 15.9981 0
397.452 18.1792 0
396.117 16.0769 0
397.386 16.0375 0
398.588 13.8564 0
401.125 13.7774 0
401.259 18.0607 0
398.721 18.1397 0
399.857 13.8169 0
401.192 15.919 0
399.99 18.1002 0
398.655 15.9981 0
399.923 15.9586 0
401.125 13.7774 0
403.663 13.6982 0
403.796 17.9815 0
401.259 18.0607 0
402.394 13.7378 0
403.729 15.8399 0
402.527 18.0211 0
401.192 15.919 0
402.461 15.8795 0
403.663 13.6982 0
406.2 13.6188 0
406.334 17.9022 0
403.796 17.9815 0
404.931 13.6585 0
406.267 15.7605 0
405.065 17.9419 0
403.729 15.8399 0
404.998 15.8002 0
406.2 13.6188 0
408.737 13.5393 0
408.871 17.8227 0
406.334 17.9022 0
407.468 13.5791 0
408.804 15.681 0
407.602 17.8625 0
406.267 15.7605 0
407.535 15.7208 0
408.737 13.5393 0
411.274 13.4597 0
411.409 17.7431 0
408.871 17.8227 0
410.006 13.4995 0
411.341 15.6014 0
410.14 17.7829 0
408.804 15.681 0
410.073 15.6412 0
411.274 13.4597 0
413.811 13.3799 0
413.946 17.6633 0
411.409 17.7431 0
412.543 13.4198 0
413.879 15.5216 0
412.677 17.7032 0
411.341 15.6014 0
412.61 15.5615 0
413.811 13.3799 0
416.349 13.3 0
416.483 17.5833 0
413.946 17.6633 0
415.08 13.34 0
416.416 15.4417 0
415.215 17.6233 0
413.879 15.5216 0
415.147 15.4816 0
416.349 13.3 0
418.886 13.2199 0
419.021 17.5032 0
416.483 17.5833 0
417.617 13.2599 0
418.953 15.3616 0
417.752 17.5433 0
416.416 15.4417 0
417.685 15.4016 0
418.886 13.2199 0
421.423 13.1397 0
421.558 17.423 0
419.021 17.5032 0
420.154 13.1798 0
421.491 15.2814 0
420.29 17.4632 0
418.953 15.3616 0
420.222 15.3215 0
421.423 13.1397 0
423.96 13.0593 0
424.096 17.3427 0
421.558 17.423 0
422.692 13.0995 0
424.028 15.201 0
422.827 17.3829 0
421.491 15.2814 0
422.759 15.2412 0
423.96 13.0593 0
426.497 12.9789 0
426.633 17.2622 0
424.096 17.3427 0
425.229 13.0191 0
426.565 15.1206 0
425.364 17.3025 0
424.028 15.201 0
425.296 15.1608 0
426.497 12.9789 0
429.034 12.8983 0
429.17 17.1816 0
426.633 17.2622 0
427.766 12.9386 0
429.102 15.04 0
427.902 17.2219 0
426.565 15.1206 0
427.834 15.0803 0
429.034 12.8983 0
431.571 12.8176 0
431.708 17.1009 0
429.17 17.1816 0
430.303 12.8579 0
431.639 14.9592 0
430.439 17.1413 0
429.102 15.04 0
430.371 14.9996 0
431.571 12.8176 0
434.108 12.7367 0
434.245 17.0201 0
431.708 17.1009 0
432.84 12.7772 0
434.177 14.8784 0
432.976 17.0605 0
431.639 14.9592 0
432.908 14.9188 0
434.108 12.7367 0
436.645 12.6558 0
436.782 16.9392 0
434.245 17.0201 0
435.377 12.6963 0
436.714 14.7975 0
435.513 16.9796 0
434.177 14.8784 0
435.445 14.838 0
436.645 12.6558 0
439.183 12.5748 0
439.319 16.8581 0
436.782 16.9392 0
437.914 12.6153 0
439.251 14.7164 0
438.051 16.8986 0
436.714 14.7975 0
437.982 14.757 0
439.183 12.5748 0
441.72 12.4936 0
441.856 16.777 0
439.319 16.8581 0
440.451 12.5342 0
441.788 14.6353 0
440.588 16.8176 0
439.251 14.7164 0
440.519 14.6759 0
441.72 12.4936 0
444.257 12.4124 0
444.394 16.6957 0
441.856 16.777 0
442.988 12.453 0
444.325 14.5541 0
443.125 16.7364 0
441.788 14.6353 0
443.057 14.5947 0
444.257 12.4124 0
446.794 12.331 0
446.931 16.6144 0
444.394 16.6957 0
445.525 12.3717 0
446.862 14.4727 0
445.662 16.6551 0
444.325 14.5541 0
445.594 14.5134 0
446.794 12.331 0
449.331 12.2496 0
449.468 16.533 0
446.931 16.6144 0
448.062 12.2903 0
449.399 14.3913 0
448.199 16.5737 0
446.862 14.4727 0
448.131 14.432 0
449.331 12.2496 0
451.868 12.1681 0
452.005 16.4515 0
449.468 16.533 0
450.599 12.2089 0
451.936 14.3098 0
450.736 16.4923 0
449.399 14.3913 0
450.668 14.3506 0
451.868 12.1681 0
454.404 12.0865 0
454.542 16.3699 0
452.005 16.4515 0
453.136 12.1273 0
454.473 14.2282 0
453.274 16.4107 0
451.936 14.3098 0
453.205 14.269 0
454.404 12.0865 0
456.941 12.0049 0
457.079 16.2883 0
454.542 16.3699 0
455.673 12.0457 0
457.01 14.1466 0
455.811 16.3291 0
454.473 14.2282 0
455.742 14.1874 0
456.941 12.0049 0
459.478 11.9231 0
459.616 16.2065 0
457.079 16.2883 0
458.21 11.964 0
459.547 14.0648 0
458.348 16.2474 0
457.01 14.1466 0
458.279 14.1057 0
459.478 11.9231 0
462.015 11.8413 0
462.153 16.1247 0
459.616 16.2065 0
460.747 11.8823 0
462.084 13.983 0
460.885 16.1656 0
459.547 14.0648 0
460.816 14.024 0
462.015 11.8413 0
464.552 11.7595 0
464.69 16.0429 0
462.153 16.1247 0
463.284 11.8004 0
464.621 13.9012 0
463.422 16.0838 0
462.084 13.983 0
463.353 13.9421 0
464.552 11.7595 0
467.089 11.6776 0
467.227 15.961 0
464.69 16.0429 0
465.821 11.7185 0
467.158 13.8193 0
465.959 16.0019 0
464.621 13.9012 0
465.89 13.8602 0
467.089 11.6776 0
469.626 11.5956 0
469.764 15.879 0
467.227 15.961 0
468.358 11.6366 0
469.695 13.7373 0
468.496 15.92 0
467.158 13.8193 0
468.427 13.7783 0
469.626 11.5956 0
472.163 11.5136 0
472.301 15.797 0
469.764 15.879 0
470.894 11.5546 0
472.232 13.6553 0
471.033 15.838 0
469.695 13.7373 0
470.964 13.6963 0
472.163 11.5136 0
474.7 11.4315 0
474.838 15.7149 0
472.301 15.797 0
473.431 11.4725 0
474.769 13.5732 0
473.57 15.7559 0
472.232 13.6553 0
473.5 13.6142 0
474.7 11.4315 0
477.237 11.3494 0
477.375 15.6328 0
474.838 15.7149 0
475.968 11.3904 0
477.306 13.4911 0
476.107 15.6738 0
474.769 13.5732 0
476.037 13.5321 0
477.237 11.3494 0
479.773 11.2672 0
479.912 15.5506 0
477.375 15.6328 0
478.505 11.3083 0
479.843 13.4089 0
478.643 15.5917 0
477.306 13.4911 0
478.574 13.45 0
479.773 11.2672 0
482.31 11.185 0
482.449 15.4685 0
479.912 15.5506 0
481.042 11.2261 0
482.379 13.3267 0
481.18 15.5096 0
479.843 13.4089 0
481.111 13.3678 0
482.31 11.185 0
484.847 11.1028 0
484.986 15.3862 0
482.449 15.4685 0
483.579 11.1439 0
484.916 13.2445 0
483.717 15.4274 0
482.379 13.3267 0
483.648 13.2856 0
484.847 11.1028 0
487.384 11.0206 0
487.522 15.304 0
484.986 15.3862 0
486.115 11.0617 0
487.453 13.1623 0
486.254 15.3451 0
484.916 13.2445 0
486.185 13.2034 0
487.384 11.0206 0
489.921 10.9383 0
490.059 15.2218 0
487.522 15.304 0
488.652 10.9794 0
489.99 13.08 0
488.791 15.2629 0
487.453 13.1623 0
488.722 13.1212 0
489.921 10.9383 0
492.457 10.856 0
492.596 15.1395 0
490.059 15.2218 0
491.189 10.8972 0
492.527 12.9978 0
491.328 15.1806 0
489.99 13.08 0
491.258 13.0389 0
492.457 10.856 0
494.994 10.7737 0
495.133 15.0572 0
492.596 15.1395 0
493.726 10.8149 0
495.063 12.9154 0
493.864 15.0983 0
492.527 12.9978 0
493.795 12.9566 0
494.994 10.7737 0
497.531 10.6914 0
497.67 14.9748 0
495.133 15.0572 0
496.262 10.7326 0
497.6 12.8331 0
496.401 15.016 0
495.063 12.9154 0
496.332 12.8743 0
497.531 10.6914 0
500.068 10.6092 0
500.206 14.8924 0
497.67 14.9748 0
498.799 10.6503 0
500.137 12.7508 0
498.938 14.9336 0
497.6 12.8331 0
498.869 12.792 0
0 25.7143 0
2.54127 25.7134 0
2.54345 29.9973 0
0 30 0
1.27059 25.714 0
2.54212 27.8555 0
1.27196 29.9983 0
0 27.8571 0
1.27097 27.8564 0
2.54127 25.7134 0
5.08281 25.7117 0
5.08617 29.9953 0
2.54345 29.9973 0
3.81203 25.7126 0
5.08441 27.8536 0
3.81482 29.9964 0
2.54212 27.8555 0
3.81327 27.8546 0
5.08281 25.7117 0
7.62438 25.7093 0
7.62893 29.9929 0
5.08617 29.9953 0
6.3536 25.7106 0
7.62663 27.8512 0
6.35754 29.9942 0
5.08441 27.8536 0
6.35552 27.8525 0
7.62438 25.7093 0
10.1659 25.7062 0
10.1717 29.9898 0
7.62893 29.9929 0
8.89516 25.7078 0
10.1688 27.8481 0
8.90033 29.9915 0
7.62663 27.8512 0
8.89773 27.8497 0
10.1659 25.7062 0
12.7075 25.7024 0
12.7146 29.986 0
10.1717 29.9898 0
11.4367 25.7044 0
12.711 27.8443 0
11.4431 29.988 0
10.1688 27.8481 0
11.4399 27.8463 0
12.7075 25.7024 0
15.2489 25.6977 0
15.2574 29.9814 0
12.7146 29.986 0
13.9782 25.7002 0
15.2531 27.8396 0
13.986 29.9838 0
12.711 27.8443 0
13.9821 27.8421 0
15.2489 25.6977 0
17.7904 25.6923 0
17.8002 29.9759 0
15.2574 29.9814 0
16.5197 25.6951 0
17.7953 27.8342 0
16.5288 29.9788 0
15.2531 27.8396 0
16.5242 27.837 0
17.7904 25.6923 0
20.3319 25.6861 0
20.343 29.9697 0
17.8002 29.9759 0
19.0611 25.6893 0
20.3374 27.828 0
19.0716 29.9729 0
17.7953 27.8342 0
19.0664 27.8312 0
20.3319 25.6861 0
22.8733 25.679 0
22.8858 29.9627 0
20.343 29.9697 0
21.6026 25.6827 0
22.8795 27.8209 0
21.6144 29.9663 0
20.3374 27.828 0
21.6085 27.8246 0
22.8733 25.679 0
25.4147 25.6712 0
25.4285 29.9549 0
22.8858 29.9627 0
24.144 25.6752 0
25.4216 27.8131 0
24.1571 29.9589 0
22.8795 27.8209 0
24.1506 27.8171 0
25.4147 25.6712 0
27.9561 25.6626 0
27.9712 29.9462 0
25.4285 29.9549 0
26.6854 25.667 0
27.9636 27.8045 0
26.6999 29.9506 0
25.4216 27.8131 0
26.6926 27.8089 0
27.9561 25.6626 0
30.4975 25.6531 0
30.5139 29.9368 0
27.9712 29.9462 0
29.2268 25.658 0
30.5057 27.7951 0
29.2426 29.9416 0
27.9636 27.8045 0
29.2347 27.7999 0
30.4975 25.6531 0
33.0388 25.6429 0
33.0566 29.9266 0
30.5139 29.9368 0
31.7681 25.6481 0
33.0477 27.7849 0
31.7853 29.9318 0
30.5057 27.7951 0
31.7767 27.7901 0
33.0388 25.6429 0
35.5801 25.6319 0
35.5992 29.9156 0
33.0566 29.9266 0
34.3095 25.6375 0
35.5897 27.7739 0
34.3279 29.9212 0
33.0477 27.7849 0
34.3187 27.7795 0
35.5801 25.6319 0
38.1214 25.6202 0
38.1418 29.9039 0
35.5992 29.9156 0
36.8508 25.6262 0
38.1316 27.7621 0
36.8705 29.9098 0
35.5897 27.7739 0
36.8606 27.7681 0
38.1214 25.6202 0
40.6627 25.6076 0
40.6844 29.8913 0
38.1418 29.9039 0
39.3921 25.614 0
40.6736 27.7496 0
39.4131 29.8977 0
38.1316 27.7621 0
39.4026 27.7559 0
40.6627 25.6076 0
43.204 25.5943 0
43.227 29.878 0
40.6844 29.8913 0
41.9334 25.6011 0
43.2155 27.7363 0
41.9557 29.8848 0
40.6736 27.7496 0
41.9445 27.743 0
43.204 25.5943 0
45.7452 25.5803 0
45.7695 29.864 0
43.227 29.878 0
44.4746 25.5874 0
45.7573 27.7222 0
44.4982 29.8711 0
43.2155 27.7363 0
44.4864 27.7293 0
45.7452 25.5803 0
48.2865 25.5654 0
48.312 29.8491 0
45.7695 29.864 0
47.0158 25.573 0
48.2992 27.7074 0
47.0407 29.8567 0
45.7573 27.7222 0
47.0283 27.7149 0
48.2865 25.5654 0
50.8276 25.5499 0
50.8545 29.8336 0
48.312 29.8491 0
49.5571 25.5578 0
50.841 27.6918 0
49.5832 29.8415 0
48.2992 27.7074 0
49.5701 27.6997 0
50.8276 25.5499 0
53.3688 25.5335 0
53.3969 29.8172 0
50.8545 29.8336 0
52.0982 25.5418 0
53.3828 27.6755 0
52.1257 29.8255 0
50.841 27.6918 0
52.1119 27.6837 0
53.3688 25.5335 0
55.91 25.5165 0
55.9393 29.8002 0
53.3969 29.8172 0
54.6394 25.5251 0
55.9246 27.6584 0
54.6681 29.8088 0
53.3828 27.6755 0
54.6537 27.667 0
55.91 25.5165 0
58.4511 25.4986 0
58.4817 29.7823 0
55.9393 29.8002 0
57.1805 25.5076 0
58.4664 27.6406 0
57.2105 29.7913 0
55.9246 27.6584 0
57.1955 27.6496 0
58.4511 25.4986 0
60.9922 25.4801 0
61.024 29.7638 0
58.4817 29.7823 0
59.7217 25.4894 0
61.0081 27.622 0
59.7528 29.7732 0
58.4664 27.6406 0
59.7372 27.6314 0
60.9922 25.4801 0
63.5333 25.4608 0
63.5663 29.7445 0
61.024 29.7638 0
62.2627 25.4705 0
63.5498 27.6027 0
62.2952 29.7542 0
61.0081 27.622 0
62.2789 27.6125 0
63.5333 25.4608 0
66.0743 25.4408 0
66.1086 29.7245 0
63.5663 29.7445 0
64.8038 25.4509 0
66.0915 27.5827 0
64.8375 29.7346 0
63.5498 27.6027 0
64.8206 27.5928 0
66.0743 25.4408 0
68.6154 25.42 0
68.6509 29.7037 0
66.1086 29.7245 0
67.3449 25.4305 0
68.6331 27.5619 0
67.3797 29.7142 0
66.0915 27.5827 0
67.3623 27.5724 0
68.6154 25.42 0
71.1564 25.3985 0
71.1931 29.6823 0
68.6509 29.7037 0
69.8859 25.4094 0
71.1747 27.5405 0
69.922 29.6931 0
68.6331 27.5619 0
69.9039 27.5513 0
71.1564 25.3985 0
73.6974 25.3763 0
73.7353 29.6601 0
71.1931 29.6823 0
72.4269 25.3875 0
73.7163 27.5183 0
72.4642 29.6712 0
71.1747 27.5405 0
72.4455 27.5295 0
73.6974 25.3763 0
76.2383 25.3534 0
76.2774 29.6372 0
73.7353 29.6601 0
74.9679 25.365 0
76.2579 27.4954 0
75.0064 29.6487 0
73.7163 27.5183 0
74.9871 27.5069 0
76.2383 25.3534 0
78.7793 25.3298 0
78.8196 29.6136 0
76.2774 29.6372 0
77.5088 25.3417 0
78.7994 27.4718 0
77.5485 29.6255 0
76.2579 27.4954 0
77.5286 27.4837 0
78.7793 25.3298 0
81.3202 25.3055 0
81.3617 29.5892 0
78.8196 29.6136 0
80.0497 25.3178 0
81.3409 27.4475 0
80.0906 29.6015 0
78.7994 27.4718 0
80.0702 27.4597 0
81.3202 25.3055 0
83.8611 25.2805 0
83.9037 29.5642 0
81.3617 29.5892 0
82.5906 25.2931 0
83.8824 27.4225 0
82.6327 29.5768 0
81.3409 27.4475 0
82.6116 27.435 0
83.8611 25.2805 0
86.4019 25.2548 0
86.4458 29.5385 0
83.9037 29.5642 0
85.1315 25.2678 0
86.4238 27.3967 0
85.1747 29.5515 0
83.8824 27.4225 0
85.1531 27.4097 0
86.4019 25.2548 0
88.9428 25.2284 0
88.9878 29.5121 0
86.4458 29.5385 0
87.6724 25.2417 0
88.9652 27.3703 0
87.7168 29.5254 0
86.4238 27.3967 0
87.6945 27.3836 0
88.9428 25.2284 0
91.4836 25.2013 0
91.5297 29.485 0
88.9878 29.5121 0
90.2132 25.215 0
91.5066 27.3433 0
90.2588 29.4987 0
88.9652 27.3703 0
90.2359 27.3569 0
91.4836 25.2013 0
94.0244 25.1736 0
94.0717 29.4573 0
91.5297 29.485 0
92.754 25.1875 0
94.048 27.3155 0
92.8007 29.4712 0
91.5066 27.3433 0
92.7773 27.3295 0
94.0244 25.1736 0
96.5651 25.1451 0
96.6136 29.4288 0
94.0717 29.4573 0
95.2948 25.1594 0
96.5893 27.287 0
95.3426 29.4431 0
94.048 27.3155 0
95.3187 27.3014 0
96.5651 25.1451 0
99.1059 25.116 0
99.1554 29.3997 0
96.6136 29.4288 0
97.8355 25.1306 0
99.1306 27.2579 0
97.8845 29.4143 0
96.5893 27.287 0
97.86 27.2726 0
99.1059 25.116 0
101.647 25.0862 0
101.697 29.3699 0
99.1554 29.3997 0
100.376 25.1012 0
101.672 27.2281 0
100.426 29.3849 0
99.1306 27.2579 0
100.401 27.2431 0
101.647 25.0862 0
104.187 25.0557 0
104.239 29.3395 0
101.697 29.3699 0
102.917 25.0711 0
104.213 27.1977 0
102.968 29.3548 0
101.672 27.2281 0
102.943 27.213 0
104.187 25.0557 0
106.728 25.0246 0
106.781 29.3083 0
104.239 29.3395 0
105.458 25.0403 0
106.754 27.1666 0
105.51 29.324 0
104.213 27.1977 0
105.484 27.1822 0
106.728 25.0246 0
109.269 24.9929 0
109.323 29.2766 0
106.781 29.3083 0
107.998 25.0088 0
109.296 27.1348 0
108.052 29.2925 0
106.754 27.1666 0
108.025 27.1507 0
109.269 24.9929 0
111.809 24.9604 0
111.864 29.2441 0
109.323 29.2766 0
110.539 24.9767 0
111.837 27.1023 0
110.593 29.2604 0
109.296 27.1348 0
110.566 27.1186 0
111.809 24.9604 0
114.35 24.9274 0
114.406 29.211 0
111.864 29.2441 0
113.079 24.944 0
114.378 27.0693 0
113.135 29.2277 0
111.837 27.1023 0
113.107 27.0859 0
114.35 24.9274 0
116.89 24.8936 0
116.948 29.1773 0
114.406 29.211 0
115.62 24.9106 0
116.919 27.0355 0
115.677 29.1943 0
114.378 27.0693 0
115.648 27.0525 0
116.89 24.8936 0
119.431 24.8593 0
119.489 29.143 0
116.948 29.1773 0
118.161 24.8765 0
119.46 27.0012 0
118.218 29.1602 0
116.919 27.0355 0
118.189 27.0184 0
119.431 24.8593 0
121.971 24.8243 0
122.031 29.108 0
119.489 29.143 0
120.701 24.8418 0
122.001 26.9662 0
120.76 29.1255 0
119.46 27.0012 0
120.731 26.9838 0
121.971 24.8243 0
124.512 24.7886 0
124.572 29.0723 0
122.031 29.108 0
123.242 24.8065 0
124.542 26.9305 0
123.302 29.0902 0
122.001 26.9662 0
123.272 26.9484 0
124.512 24.7886 0
127.052 24.7524 0
127.114 29.0361 0
124.572 29.0723 0
125.782 24.7706 0
127.083 26.8943 0
125.843 29.0543 0
124.542 26.9305 0
125.813 26.9125 0
127.052 24.7524 0
129.593 24.7155 0
129.655 28.9992 0
127.114 29.0361 0
128.322 24.734 0
129.624 26.8574 0
128.385 29.0177 0
127.083 26.8943 0
128.354 26.8759 0
129.593 24.7155 0
132.133 24.678 0
132.197 28.9617 0
129.655 28.9992 0
130.863 24.6968 0
132.165 26.8199 0
130.926 28.9805 0
129.624 26.8574 0
130.894 26.8387 0
132.133 24.678 0
134.673 24.6399 0
134.738 28.9236 0
132.197 28.9617 0
133.403 24.659 0
134.706 26.7818 0
133.467 28.9427 0
132.165 26.8199 0
133.435 26.8009 0
134.673 24.6399 0
137.214 24.6012 0
137.28 28.8848 0
134.738 28.9236 0
135.944 24.6206 0
137.247 26.7431 0
136.009 28.9043 0
134.706 26.7818 0
135.976 26.7625 0
137.214 24.6012 0
139.754 24.5618 0
139.821 28.8455 0
137.28 28.8848 0
138.484 24.5816 0
139.787 26.7037 0
138.55 28.8652 0
137.247 26.7431 0
138.517 26.7235 0
139.754 24.5618 0
142.294 24.5219 0
142.362 28.8056 0
139.821 28.8455 0
141.024 24.5419 0
142.328 26.6638 0
141.091 28.8256 0
139.787 26.7037 0
141.058 26.6838 0
142.294 24.5219 0
144.835 24.4814 0
144.903 28.765 0
142.362 28.8056 0
143.565 24.5017 0
144.869 26.6233 0
143.633 28.7854 0
142.328 26.6638 0
143.599 26.6436 0
144.835 24.4814 0
147.375 24.4403 0
147.445 28.7239 0
144.903 28.765 0
146.105 24.4609 0
147.41 26.5821 0
146.174 28.7445 0
144.869 26.6233 0
146.139 26.6028 0
147.375 24.4403 0
149.915 24.3985 0
149.986 28.6822 0
147.445 28.7239 0
148.645 24.4195 0
149.95 26.5404 0
148.715 28.7031 0
147.41 26.5821 0
148.68 26.5614 0
149.915 24.3985 0
152.455 24.3562 0
152.527 28.6399 0
149.986 28.6822 0
151.185 24.3775 0
152.491 26.4981 0
151.256 28.6611 0
149.95 26.5404 0
151.221 26.5193 0
152.455 24.3562 0
154.995 24.3134 0
155.068 28.597 0
152.527 28.6399 0
153.725 24.3349 0
155.032 26.4552 0
153.798 28.6185 0
152.491 26.4981 0
153.761 26.4768 0
154.995 24.3134 0
157.536 24.2699 0
157.609 28.5535 0
155.068 28.597 0
156.265 24.2917 0
157.572 26.4118 0
156.339 28.5753 0
155.032 26.4552 0
156.302 26.4336 0
157.536 24.2699 0
160.076 24.2259 0
160.15 28.5095 0
157.609 28.5535 0
158.806 24.248 0
160.113 26.3678 0
158.88 28.5316 0
157.572 26.4118 0
158.843 26.3898 0
160.076 24.2259 0
162.616 24.1813 0
162.691 28.4649 0
160.15 28.5095 0
161.346 24.2037 0
162.653 26.3232 0
161.421 28.4873 0
160.113 26.3678 0
161.383 26.3455 0
162.616 24.1813 0
165.156 24.1361 0
165.232 28.4197 0
162.691 28.4649 0
163.886 24.1588 0
165.194 26.278 0
163.962 28.4424 0
162.653 26.3232 0
163.924 26.3006 0
165.156 24.1361 0
167.696 24.0904 0
167.773 28.374 0
165.232 28.4197 0
166.426 24.1133 0
167.734 26.2323 0
166.503 28.3969 0
165.194 26.278 0
166.464 26.2552 0
167.696 24.0904 0
170.236 24.0441 0
170.314 28.3277 0
167.773 28.374 0
168.966 24.0674 0
170.275 26.186 0
169.044 28.3509 0
167.734 26.2323 0
169.005 26.2092 0
170.236 24.0441 0
172.776 23.9973 0
172.855 28.2809 0
170.314 28.3277 0
171.506 24.0208 0
172.815 26.1392 0
171.585 28.3044 0
170.275 26.186 0
171.545 26.1627 0
172.776 23.9973 0
175.316 23.95 0
175.396 28.2335 0
172.855 28.2809 0
174.046 23.9737 0
175.356 26.0918 0
174.125 28.2573 0
172.815 26.1392 0
174.086 26.1156 0
175.316 23.95 0
177.856 23.902 0
177.937 28.1856 0
175.396 28.2335 0
176.586 23.9261 0
177.896 26.0439 0
176.666 28.2096 0
175.356 26.0918 0
176.626 26.0679 0
177.856 23.902 0
180.395 23.8536 0
180.477 28.1371 0
177.937 28.1856 0
179.125 23.8779 0
180.436 25.9954 0
179.207 28.1614 0
177.896 26.0439 0
179.166 26.0197 0
180.395 23.8536 0
182.935 23.8046 0
183.018 28.0882 0
180.477 28.1371 0
181.665 23.8292 0
182.977 25.9464 0
181.748 28.1127 0
180.436 25.9954 0
181.707 25.971 0
182.935 23.8046 0
185.475 23.7551 0
185.559 28.0386 0
183.018 28.0882 0
184.205 23.7799 0
185.517 25.8969 0
184.289 28.0635 0
182.977 25.9464 0
184.247 25.9217 0
185.475 23.7551 0
188.015 23.7051 0
188.1 27.9886 0
185.559 28.0386 0
186.745 23.7301 0
188.057 25.8469 0
186.829 28.0137 0
185.517 25.8969 0
186.787 25.872 0
188.015 23.7051 0
190.555 23.6545 0
190.64 27.938 0
188.1 27.9886 0
189.285 23.6798 0
190.597 25.7963 0
189.37 27.9634 0
188.057 25.8469 0
189.327 25.8217 0
190.555 23.6545 0
193.094 23.6034 0
193.181 27.8869 0
190.64 27.938 0
191.824 23.629 0
193.138 25.7452 0
191.911 27.9125 0
190.597 25.7963 0
191.867 25.7708 0
193.094 23.6034 0
195.634 23.5518 0
195.721 27.8353 0
193.181 27.8869 0
194.364 23.5777 0
195.678 25.6936 0
194.451 27.8612 0
193.138 25.7452 0
194.408 25.7195 0
195.634 23.5518 0
198.174 23.4997 0
198.262 27.7832 0
195.721 27.8353 0
196.904 23.5258 0
198.218 25.6415 0
196.992 27.8094 0
195.678 25.6936 0
196.948 25.6676 0
198.174 23.4997 0
200.713 23.4471 0
200.802 27.7306 0
198.262 27.7832 0
199.444 23.4735 0
200.758 25.5889 0
199.532 27.757 0
198.218 25.6415 0
199.488 25.6153 0
200.713 23.4471 0
203.253 23.394 0
203.343 27.6775 0
200.802 27.7306 0
201.983 23.4206 0
203.298 25.5358 0
202.073 27.7041 0
200.758 25.5889 0
202.028 25.5624 0
203.253 23.394 0
205.793 23.3404 0
205.883 27.6239 0
203.343 27.6775 0
204.523 23.3673 0
205.838 25.4822 0
204.613 27.6508 0
203.298 25.5358 0
204.568 25.5091 0
205.793 23.3404 0
208.332 23.2863 0
208.424 27.5698 0
205.883 27.6239 0
207.062 23.3134 0
208.378 25.4281 0
207.153 27.5969 0
205.838 25.4822 0
207.108 25.4552 0
208.332 23.2863 0
210.872 23.2318 0
210.964 27.5152 0
208.424 27.5698 0
209.602 23.2591 0
210.918 25.3735 0
209.694 27.5426 0
208.378 25.4281 0
209.648 25.4009 0
210.872 23.2318 0
213.411 23.1767 0
213.504 27.4602 0
210.964 27.5152 0
212.141 23.2043 0
213.458 25.3185 0
212.234 27.4878 0
210.918 25.3735 0
212.188 25.3461 0
213.411 23.1767 0
215.951 23.1212 0
216.045 27.4046 0
213.504 27.4602 0
214.681 23.149 0
215.998 25.2629 0
214.774 27.4325 0
213.458 25.3185 0
214.728 25.2908 0
215.951 23.1212 0
218.49 23.0651 0
218.585 27.3486 0
216.045 27.4046 0
217.22 23.0932 0
218.537 25.2069 0
217.315 27.3767 0
215.998 25.2629 0
217.268 25.235 0
218.49 23.0651 0
221.029 23.0087 0
221.125 27.2921 0
218.585 27.3486 0
219.76 23.037 0
221.077 25.1504 0
219.855 27.3204 0
218.537 25.2069 0
219.807 25.1787 0
221.029 23.0087 0
223.569 22.9517 0
223.665 27.2352 0
221.125 27.2921 0
222.299 22.9802 0
223.617 25.0935 0
222.395 27.2637 0
221.077 25.1504 0
222.347 25.122 0
223.569 22.9517 0
226.108 22.8943 0
226.205 27.1777 0
223.665 27.2352 0
224.839 22.9231 0
226.157 25.0361 0
224.935 27.2065 0
223.617 25.0935 0
224.887 25.0648 0
226.108 22.8943 0
228.648 22.8364 0
228.745 27.1199 0
226.205 27.1777 0
227.378 22.8654 0
228.697 24.9782 0
227.475 27.1489 0
226.157 25.0361 0
227.427 25.0072 0
228.648 22.8364 0
231.187 22.7781 0
231.286 27.0615 0
228.745 27.1199 0
229.917 22.8073 0
231.236 24.9199 0
230.016 27.0908 0
228.697 24.9782 0
229.966 24.9491 0
231.187 22.7781 0
233.726 22.7193 0
233.826 27.0028 0
231.286 27.0615 0
232.457 22.7488 0
233.776 24.8611 0
232.556 27.0322 0
231.236 24.9199 0
232.506 24.8905 0
233.726 22.7193 0
236.265 22.6601 0
236.366 26.9435 0
233.826 27.0028 0
234.996 22.6898 0
236.315 24.8019 0
235.096 26.9732 0
233.776 24.8611 0
235.046 24.8315 0
236.265 22.6601 0
238.805 22.6005 0
238.906 26.8839 0
236.366 26.9435 0
237.535 22.6304 0
238.855 24.7422 0
237.636 26.9138 0
236.315 24.8019 0
237.585 24.7721 0
238.805 22.6005 0
241.344 22.5404 0
241.445 26.8238 0
238.906 26.8839 0
240.074 22.5705 0
241.395 24.6821 0
240.176 26.8539 0
238.855 24.7422 0
240.125 24.7122 0
241.344 22.5404 0
243.883 22.4799 0
243.985 26.7632 0
241.445 26.8238 0
242.613 22.5102 0
243.934 24.6216 0
242.715 26.7936 0
241.395 24.6821 0
242.664 24.6519 0
243.883 22.4799 0
246.422 22.4189 0
246.525 26.7023 0
243.985 26.7632 0
245.153 22.4494 0
246.474 24.5606 0
245.255 26.7328 0
243.934 24.6216 0
245.204 24.5912 0
246.422 22.4189 0
248.961 22.3575 0
249.065 26.6409 0
246.525 26.7023 0
247.692 22.3883 0
249.013 24.4993 0
247.795 26.6717 0
246.474 24.5606 0
247.743 24.53 0
248.961 22.3575 0
251.5 22.2957 0
251.605 26.5791 0
249.065 26.6409 0
250.231 22.3267 0
251.553 24.4375 0
250.335 26.6101 0
249.013 24.4993 0
250.283 24.4684 0
251.5 22.2957 0
254.039 22.2335 0
254.145 26.5169 0
251.605 26.5791 0
252.77 22.2647 0
254.092 24.3753 0
252.875 26.5481 0
251.553 24.4375 0
252.822 24.4064 0
254.039 22.2335 0
256.578 22.1709 0
256.684 26.4543 0
254.145 26.5169 0
255.309 22.2023 0
256.631 24.3126 0
255.414 26.4856 0
254.092 24.3753 0
255.362 24.344 0
256.578 22.1709 0
259.117 22.1079 0
259.224 26.3912 0
256.684 26.4543 0
257.848 22.1394 0
259.171 24.2496 0
257.954 26.4228 0
256.631 24.3126 0
257.901 24.2812 0
259.117 22.1079 0
261.656 22.0445 0
261.764 26.3278 0
259.224 26.3912 0
260.387 22.0762 0
261.71 24.1862 0
260.494 26.3596 0
259.171 24.2496 0
260.44 24.2179 0
261.656 22.0445 0
264.195 21.9806 0
264.303 26.264 0
261.764 26.3278 0
262.926 22.0126 0
264.249 24.1223 0
263.033 26.2959 0
261.71 24.1862 0
262.98 24.1543 0
264.195 21.9806 0
266.734 21.9164 0
266.843 26.1997 0
264.303 26.264 0
265.465 21.9486 0
266.788 24.0581 0
265.573 26.2319 0
264.249 24.1223 0
265.519 24.0903 0
266.734 21.9164 0
269.273 21.8518 0
269.382 26.1351 0
266.843 26.1997 0
268.004 21.8842 0
269.328 23.9935 0
268.113 26.1675 0
266.788 24.0581 0
268.058 24.0259 0
269.273 21.8518 0
271.812 21.7868 0
271.922 26.0701 0
269.382 26.1351 0
270.543 21.8194 0
271.867 23.9285 0
270.652 26.1027 0
269.328 23.9935 0
270.597 23.9611 0
271.812 21.7868 0
274.351 21.7214 0
274.461 26.0048 0
271.922 26.0701 0
273.081 21.7542 0
274.406 23.8631 0
273.192 26.0375 0
271.867 23.9285 0
273.136 23.8959 0
274.351 21.7214 0
276.89 21.6557 0
277.001 25.939 0
274.461 26.0048 0
275.62 21.6886 0
276.945 23.7974 0
275.731 25.9719 0
274.406 23.8631 0
275.676 23.8303 0
276.89 21.6557 0
279.428 21.5896 0
279.54 25.8729 0
277.001 25.939 0
278.159 21.6227 0
279.484 23.7312 0
278.27 25.906 0
276.945 23.7974 0
278.215 23.7644 0
279.428 21.5896 0
281.967 21.5231 0
282.08 25.8064 0
279.54 25.8729 0
280.698 21.5564 0
282.023 23.6648 0
280.81 25.8397 0
279.484 23.7312 0
280.754 23.698 0
281.967 21.5231 0
284.506 21.4562 0
284.619 25.7395 0
282.08 25.8064 0
283.236 21.4897 0
284.562 23.5979 0
283.349 25.773 0
282.023 23.6648 0
283.293 23.6314 0
284.506 21.4562 0
287.045 21.389 0
287.158 25.6723 0
284.619 25.7395 0
285.775 21.4226 0
287.101 23.5307 0
285.888 25.7059 0
284.562 23.5979 0
285.832 23.5643 0
287.045 21.389 0
289.583 21.3214 0
289.697 25.6047 0
287.158 25.6723 0
288.314 21.3552 0
289.64 23.4631 0
288.428 25.6385 0
287.101 23.5307 0
288.371 23.4969 0
289.583 21.3214 0
292.122 21.2535 0
292.237 25.5368 0
289.697 25.6047 0
290.853 21.2875 0
292.179 23.3952 0
290.967 25.5708 0
289.64 23.4631 0
290.91 23.4292 0
292.122 21.2535 0
294.66 21.1852 0
294.776 25.4685 0
292.237 25.5368 0
293.391 21.2194 0
294.718 23.3269 0
293.506 25.5027 0
292.179 23.3952 0
293.449 23.3611 0
294.66 21.1852 0
297.199 21.1166 0
297.315 25.3999 0
294.776 25.4685 0
295.93 21.151 0
297.257 23.2583 0
296.045 25.4342 0
294.718 23.3269 0
295.988 23.2926 0
297.199 21.1166 0
299.738 21.0477 0
299.854 25.3309 0
297.315 25.3999 0
298.468 21.0822 0
299.796 23.1893 0
298.585 25.3654 0
297.257 23.2583 0
298.526 23.2238 0
299.738 21.0477 0
302.276 20.9784 0
302.393 25.2616 0
299.854 25.3309 0
301.007 21.0131 0
302.335 23.12 0
301.124 25.2963 0
299.796 23.1893 0
301.065 23.1547 0
302.276 20.9784 0
304.815 20.9088 0
304.932 25.192 0
302.393 25.2616 0
303.545 20.9436 0
304.873 23.0504 0
303.663 25.2269 0
302.335 23.12 0
303.604 23.0853 0
304.815 20.9088 0
307.353 20.8388 0
307.471 25.1221 0
304.932 25.192 0
306.084 20.8738 0
307.412 22.9805 0
306.202 25.1571 0
304.873 23.0504 0
306.143 23.0155 0
307.353 20.8388 0
309.892 20.7686 0
310.01 25.0518 0
307.471 25.1221 0
308.622 20.8037 0
309.951 22.9102 0
308.741 25.087 0
307.412 22.9805 0
308.682 22.9454 0
309.892 20.7686 0
312.43 20.698 0
312.549 24.9812 0
310.01 25.0518 0
311.161 20.7333 0
312.49 22.8396 0
311.28 25.0166 0
309.951 22.9102 0
311.22 22.875 0
312.43 20.698 0
314.968 20.6271 0
315.088 24.9103 0
312.549 24.9812 0
313.699 20.6626 0
315.028 22.7687 0
313.819 24.9458 0
312.49 22.8396 0
313.759 22.8042 0
314.968 20.6271 0
317.507 20.5559 0
317.627 24.8391 0
315.088 24.9103 0
316.238 20.5915 0
317.567 22.6975 0
316.358 24.8748 0
315.028 22.7687 0
316.298 22.7332 0
317.507 20.5559 0
320.045 20.4844 0
320.166 24.7676 0
317.627 24.8391 0
318.776 20.5202 0
320.105 22.626 0
318.896 24.8034 0
317.567 22.6975 0
318.836 22.6618 0
320.045 20.4844 0
322.583 20.4126 0
322.705 24.6958 0
320.166 24.7676 0
321.314 20.4485 0
322.644 22.5542 0
321.435 24.7317 0
320.105 22.626 0
321.375 22.5902 0
322.583 20.4126 0
325.122 20.3405 0
325.244 24.6237 0
322.705 24.6958 0
323.853 20.3765 0
325.183 22.4821 0
323.974 24.6598 0
322.644 22.5542 0
323.913 22.5182 0
325.122 20.3405 0
327.66 20.2681 0
327.782 24.5513 0
325.244 24.6237 0
326.391 20.3043 0
327.721 22.4097 0
326.513 24.5875 0
325.183 22.4821 0
326.452 22.4459 0
327.66 20.2681 0
330.198 20.1954 0
330.321 24.4786 0
327.782 24.5513 0
328.929 20.2318 0
330.26 22.337 0
329.052 24.515 0
327.721 22.4097 0
328.99 22.3734 0
330.198 20.1954 0
332.736 20.1224 0
332.86 24.4056 0
330.321 24.4786 0
331.467 20.1589 0
332.798 22.2641 0
331.59 24.4422 0
330.26 22.337 0
331.529 22.3006 0
332.736 20.1224 0
335.275 20.0492 0
335.398 24.3324 0
332.86 24.4056 0
334.006 20.0858 0
335.336 22.1908 0
334.129 24.369 0
332.798 22.2641 0
334.067 22.2275 0
335.275 20.0492 0
337.813 19.9756 0
337.937 24.2589 0
335.398 24.3324 0
336.544 20.0124 0
337.875 22.1173 0
336.668 24.2957 0
335.336 22.1908 0
336.606 22.1541 0
337.813 19.9756 0
340.351 19.9019 0
340.476 24.1851 0
337.937 24.2589 0
339.082 19.9388 0
340.413 22.0435 0
339.206 24.222 0
337.875 22.1173 0
339.144 22.0804 0
340.351 19.9019 0
342.889 19.8278 0
343.014 24.111 0
340.476 24.1851 0
341.62 19.8649 0
342.952 21.9694 0
341.745 24.1481 0
340.413 22.0435 0
341.682 22.0065 0
342.889 19.8278 0
345.427 19.7535 0
345.553 24.0367 0
343.014 24.111 0
344.158 19.7907 0
345.49 21.8951 0
344.283 24.0739 0
342.952 21.9694 0
344.221 21.9323 0
345.427 19.7535 0
347.965 19.6789 0
348.091 23.9621 0
345.553 24.0367 0
346.696 19.7162 0
348.028 21.8205 0
346.822 23.9994 0
345.49 21.8951 0
346.759 21.8579 0
347.965 19.6789 0
350.503 19.6041 0
350.63 23.8873 0
348.091 23.9621 0
349.234 19.6415 0
350.566 21.7457 0
349.36 23.9247 0
348.028 21.8205 0
349.297 21.7831 0
350.503 19.6041 0
353.041 19.529 0
353.168 23.8122 0
350.63 23.8873 0
351.772 19.5666 0
353.105 21.6706 0
351.899 23.8498 0
350.566 21.7457 0
351.835 21.7082 0
353.041 19.529 0
355.579 19.4537 0
355.706 23.7369 0
353.168 23.8122 0
354.31 19.4914 0
355.643 21.5953 0
354.437 23.7746 0
353.105 21.6706 0
354.374 21.633 0
355.579 19.4537 0
358.117 19.3781 0
358.245 23.6613 0
355.706 23.7369 0
356.848 19.4159 0
358.181 21.5197 0
356.976 23.6991 0
355.643 21.5953 0
356.912 21.5575 0
358.117 19.3781 0
360.655 19.3023 0
360.783 23.5855 0
358.245 23.6613 0
359.386 19.3402 0
360.719 21.4439 0
359.514 23.6234 0
358.181 21.5197 0
359.45 21.4819 0
360.655 19.3023 0
363.193 19.2263 0
363.321 23.5095 0
360.783 23.5855 0
361.924 19.2643 0
363.257 21.3679 0
362.052 23.5475 0
360.719 21.4439 0
361.988 21.4059 0
363.193 19.2263 0
365.731 19.15 0
365.86 23.4332 0
363.321 23.5095 0
364.462 19.1882 0
365.795 21.2916 0
364.591 23.4714 0
363.257 21.3679 0
364.526 21.3298 0
365.731 19.15 0
368.269 19.0735 0
368.398 23.3567 0
365.86 23.4332 0
367 19.1118 0
368.333 21.2151 0
367.129 23.395 0
365.795 21.2916 0
367.064 21.2534 0
368.269 19.0735 0
370.807 18.9968 0
370.936 23.28 0
368.398 23.3567 0
369.538 19.0352 0
370.871 21.1384 0
369.667 23.3184 0
368.333 21.2151 0
369.602 21.1768 0
370.807 18.9968 0
373.344 18.9199 0
373.474 23.2031 0
370.936 23.28 0
372.075 18.9584 0
373.409 21.0615 0
372.205 23.2416 0
370.871 21.1384 0
372.14 21.1 0
373.344 18.9199 0
375.882 18.8427 0
376.012 23.1259 0
373.474 23.2031 0
374.613 18.8813 0
375.947 20.9844 0
374.743 23.1645 0
373.409 21.0615 0
374.678 21.023 0
375.882 18.8427 0
378.42 18.7654 0
378.551 23.0486 0
376.012 23.1259 0
377.151 18.8041 0
378.485 20.907 0
377.281 23.0873 0
375.947 20.9844 0
377.216 20.9457 0
378.42 18.7654 0
380.958 18.6879 0
381.089 22.9711 0
378.551 23.0486 0
379.689 18.7267 0
381.023 20.8295 0
379.82 23.0099 0
378.485 20.907 0
379.754 20.8683 0
380.958 18.6879 0
383.495 18.6101 0
383.627 22.8933 0
381.089 22.9711 0
382.226 18.649 0
383.561 20.7517 0
382.358 22.9322 0
381.023 20.8295 0
382.292 20.7906 0
383.495 18.6101 0
386.033 18.5322 0
386.165 22.8154 0
383.627 22.8933 0
384.764 18.5712 0
386.099 20.6738 0
384.896 22.8544 0
383.561 20.7517 0
384.83 20.7128 0
386.033 18.5322 0
388.571 18.454 0
388.703 22.7373 0
386.165 22.8154 0
387.302 18.4931 0
388.637 20.5957 0
387.434 22.7763 0
386.099 20.6738 0
387.368 20.6348 0
388.571 18.454 0
391.108 18.3757 0
391.241 22.6589 0
388.703 22.7373 0
389.84 18.4149 0
391.174 20.5174 0
389.972 22.6981 0
388.637 20.5957 0
389.906 20.5565 0
391.108 18.3757 0
393.646 18.2972 0
393.779 22.5804 0
391.241 22.6589 0
392.377 18.3365 0
393.712 20.4389 0
392.51 22.6197 0
391.174 20.5174 0
392.443 20.4781 0
393.646 18.2972 0
396.184 18.2186 0
396.316 22.5018 0
393.779 22.5804 0
394.915 18.2579 0
396.25 20.3602 0
395.047 22.5411 0
393.712 20.4389 0
394.981 20.3996 0
396.184 18.2186 0
398.721 18.1397 0
398.854 22.4229 0
396.316 22.5018 0
397.452 18.1792 0
398.788 20.2813 0
397.585 22.4624 0
396.25 20.3602 0
397.519 20.3208 0
398.721 18.1397 0
401.259 18.0607 0
401.392 22.3439 0
398.854 22.4229 0
399.99 18.1002 0
401.325 20.2023 0
400.123 22.3834 0
398.788 20.2813 0
400.057 20.2419 0
401.259 18.0607 0
403.796 17.9815 0
403.93 22.2647 0
401.392 22.3439 0
402.527 18.0211 0
403.863 20.1232 0
402.661 22.3044 0
401.325 20.2023 0
402.594 20.1628 0
403.796 17.9815 0
406.334 17.9022 0
406.468 22.1854 0
403.93 22.2647 0
405.065 17.9419 0
406.401 20.0438 0
405.199 22.2251 0
403.863 20.1232 0
405.132 20.0835 0
406.334 17.9022 0
408.871 17.8227 0
409.005 22.1059 0
406.468 22.1854 0
407.602 17.8625 0
408.938 19.9643 0
407.737 22.1457 0
406.401 20.0438 0
407.669 20.0041 0
408.871 17.8227 0
411.409 17.7431 0
411.543 22.0263 0
409.005 22.1059 0
410.14 17.7829 0
411.476 19.8847 0
410.274 22.0661 0
408.938 19.9643 0
410.207 19.9245 0
411.409 17.7431 0
413.946 17.6633 0
414.081 21.9465 0
411.543 22.0263 0
412.677 17.7032 0
414.013 19.8049 0
412.812 21.9864 0
411.476 19.8847 0
412.745 19.8448 0
413.946 17.6633 0
416.483 17.5833 0
416.618 21.8665 0
414.081 21.9465 0
415.215 17.6233 0
416.551 19.7249 0
415.35 21.9065 0
414.013 19.8049 0
415.282 19.7649 0
416.483 17.5833 0
419.021 17.5032 0
419.156 21.7865 0
416.618 21.8665 0
417.752 17.5433 0
419.088 19.6449 0
417.887 21.8265 0
416.551 19.7249 0
417.82 19.6849 0
419.021 17.5032 0
421.558 17.423 0
421.694 21.7063 0
419.156 21.7865 0
420.29 17.4632 0
421.626 19.5647 0
420.425 21.7464 0
419.088 19.6449 0
420.357 19.6048 0
421.558 17.423 0
424.096 17.3427 0
424.231 21.6259 0
421.694 21.7063 0
422.827 17.3829 0
424.163 19.4843 0
422.962 21.6661 0
421.626 19.5647 0
422.895 19.5245 0
424.096 17.3427 0
426.633 17.2622 0
426.769 21.5455 0
424.231 21.6259 0
425.364 17.3025 0
426.701 19.4039 0
425.5 21.5857 0
424.163 19.4843 0
425.432 19.4441 0
426.633 17.2622 0
429.17 17.1816 0
429.306 21.4649 0
426.769 21.5455 0
427.902 17.2219 0
429.238 19.3233 0
428.038 21.5052 0
426.701 19.4039 0
427.97 19.3636 0
429.17 17.1816 0
431.708 17.1009 0
431.844 21.3842 0
429.306 21.4649 0
430.439 17.1413 0
431.776 19.2426 0
430.575 21.4245 0
429.238 19.3233 0
430.507 19.2829 0
431.708 17.1009 0
434.245 17.0201 0
434.381 21.3033 0
431.844 21.3842 0
432.976 17.0605 0
434.313 19.1617 0
433.112 21.3438 0
431.776 19.2426 0
433.044 19.2022 0
434.245 17.0201 0
436.782 16.9392 0
436.919 21.2224 0
434.381 21.3033 0
435.513 16.9796 0
436.85 19.0808 0
435.65 21.2629 0
434.313 19.1617 0
435.582 19.1213 0
436.782 16.9392 0
439.319 16.8581 0
439.456 21.1414 0
436.919 21.2224 0
438.051 16.8986 0
439.388 18.9998 0
438.187 21.1819 0
436.85 19.0808 0
438.119 19.0403 0
439.319 16.8581 0
441.856 16.777 0
441.993 21.0603 0
439.456 21.1414 0
440.588 16.8176 0
441.925 18.9186 0
440.725 21.1008 0
439.388 18.9998 0
440.656 18.9592 0
441.856 16.777 0
444.394 16.6957 0
444.531 20.979 0
441.993 21.0603 0
443.125 16.7364 0
444.462 18.8374 0
443.262 21.0196 0
441.925 18.9186 0
443.194 18.878 0
444.394 16.6957 0
446.931 16.6144 0
447.068 20.8977 0
444.531 20.979 0
445.662 16.6551 0
446.999 18.7561 0
445.799 20.9384 0
444.462 18.8374 0
445.731 18.7967 0
446.931 16.6144 0
449.468 16.533 0
449.605 20.8163 0
447.068 20.8977 0
448.199 16.5737 0
449.537 18.6746 0
448.337 20.857 0
446.999 18.7561 0
448.268 18.7154 0
449.468 16.533 0
452.005 16.4515 0
452.143 20.7348 0
449.605 20.8163 0
450.736 16.4923 0
452.074 18.5932 0
450.874 20.7755 0
449.537 18.6746 0
450.805 18.6339 0
452.005 16.4515 0
454.542 16.3699 0
454.68 20.6532 0
452.143 20.7348 0
453.274 16.4107 0
454.611 18.5116 0
453.411 20.694 0
452.074 18.5932 0
453.342 18.5524 0
454.542 16.3699 0
457.079 16.2883 0
457.217 20.5716 0
454.68 20.6532 0
455.811 16.3291 0
457.148 18.4299 0
455.948 20.6124 0
454.611 18.5116 0
455.879 18.4708 0
457.079 16.2883 0
459.616 16.2065 0
459.754 20.4898 0
457.217 20.5716 0
458.348 16.2474 0
459.685 18.3482 0
458.486 20.5307 0
457.148 18.4299 0
458.417 18.3891 0
459.616 16.2065 0
462.153 16.1247 0
462.291 20.4081 0
459.754 20.4898 0
460.885 16.1656 0
462.222 18.2664 0
461.023 20.449 0
459.685 18.3482 0
460.954 18.3073 0
462.153 16.1247 0
464.69 16.0429 0
464.828 20.3262 0
462.291 20.4081 0
463.422 16.0838 0
464.759 18.1845 0
463.56 20.3671 0
462.222 18.2664 0
463.491 18.2255 0
464.69 16.0429 0
467.227 15.961 0
467.366 20.2443 0
464.828 20.3262 0
465.959 16.0019 0
467.296 18.1026 0
466.097 20.2853 0
464.759 18.1845 0
466.028 18.1436 0
467.227 15.961 0
469.764 15.879 0
469.903 20.1623 0
467.366 20.2443 0
468.496 15.92 0
469.833 18.0207 0
468.634 20.2033 0
467.296 18.1026 0
468.565 18.0617 0
469.764 15.879 0
472.301 15.797 0
472.44 20.0803 0
469.903 20.1623 0
471.033 15.838 0
472.37 17.9386 0
471.171 20.1213 0
469.833 18.0207 0
471.102 17.9797 0
472.301 15.797 0
474.838 15.7149 0
474.977 19.9983 0
472.44 20.0803 0
473.57 15.7559 0
474.907 17.8566 0
473.708 20.0393 0
472.37 17.9386 0
473.639 17.8976 0
474.838 15.7149 0
477.375 15.6328 0
477.514 19.9162 0
474.977 19.9983 0
476.107 15.6738 0
477.444 17.7745 0
476.245 19.9572 0
474.907 17.8566 0
476.176 17.8155 0
477.375 15.6328 0
479.912 15.5506 0
480.051 19.834 0
477.514 19.9162 0
478.643 15.5917 0
479.981 17.6923 0
478.782 19.8751 0
477.444 17.7745 0
478.713 17.7334 0
479.912 15.5506 0
482.449 15.4685 0
482.587 19.7518 0
480.051 19.834 0
481.18 15.5096 0
482.518 17.6102 0
481.319 19.7929 0
479.981 17.6923 0
481.25 17.6512 0
482.449 15.4685 0
484.986 15.3862 0
485.124 19.6697 0
482.587 19.7518 0
483.717 15.4274 0
485.055 17.528 0
483.856 19.7108 0
482.518 17.6102 0
483.787 17.5691 0
484.986 15.3862 0
487.522 15.304 0
487.661 19.5874 0
485.124 19.6697 0
486.254 15.3451 0
487.592 17.4457 0
486.393 19.6285 0
485.055 17.528 0
486.323 17.4868 0
487.522 15.304 0
490.059 15.2218 0
490.198 19.5052 0
487.661 19.5874 0
488.791 15.2629 0
490.129 17.3635 0
488.93 19.5463 0
487.592 17.4457 0
488.86 17.4046 0
490.059 15.2218 0
492.596 15.1395 0
492.735 19.4229 0
490.198 19.5052 0
491.328 15.1806 0
492.666 17.2812 0
491.467 19.464 0
490.129 17.3635 0
491.397 17.3223 0
492.596 15.1395 0
495.133 15.0572 0
495.272 19.3406 0
492.735 19.4229 0
493.864 15.0983 0
495.202 17.1989 0
494.003 19.3818 0
492.666 17.2812 0
493.934 17.24 0
495.133 15.0572 0
497.67 14.9748 0
497.809 19.2582 0
495.272 19.3406 0
496.401 15.016 0
497.739 17.1165 0
496.54 19.2994 0
495.202 17.1989 0
496.471 17.1577 0
497.67 14.9748 0
500.206 14.8924 0
500.346 19.1755 0
497.809 19.2582 0
498.938 14.9336 0
500.276 17.034 0
499.077 19.2169 0
497.739 17.1165 0
499.007 17.0753 0
      </DataArray>
    </Points>
    <Cells>
      <DataArray type="Int32" Name="connectivity" format="ascii">
0 1 2 3 4 5 6 7 8 
9 10 11 12 13 14 15 16 17 
18 19 20 21 22 23 24 25 26 
27 28 29 30 31 32 33 34 35 
36 37 38 39 40 41 42 43 44 
45 46 47 48 49 50 51 52 53 
54 55 56 57 58 59 60 61 62 
63 64 65 66 67 68 69 70 71 
72 73 74 75 76 77 78 79 80 
81 82 83 84 85 86 87 88 89 
90 91 92 93 94 95 96 97 98 
99 100 101 102 103 104 105 106 107 
108 109 110 111 112 113 114 115 116 
117 118 119 120 121 122 123 124 125 
126 127 128 129 130 131 132 133 134 
135 136 137 138 139 140 141 142 143 
144 145 146 147 148 149 150 151 152 
153 154 155 156 157 158 159 160 161 
162 163 164 165 166 167 168 169 170 
171 172 173 174 175 176 177 178 179 
180 181 182 183 184 185 186 187 188 
189 190 191 192 193 194 195 196 197 
198 199 200 201 202 203 204 205 206 
207 208 209 210 211 212 213 214 215 
216 217 218 219 220 221 222 223 224 
225 226 227 228 229 230 231 232 233 
234 235 236 237 238 239 240 241 242 
243 244 245 246 247 248 249 250 251 
252 253 254 255 256 257 258 259 260 
261 262 263 264 265 266 267 268 269 
270 271 272 273 274 275 276 277 278 
279 280 281 282 283 284 285 286 287 
288 289 290 291 292 293 294 295 296 
297 298 299 300 301 302 303 304 305 
306 307 308 309 310 311 312 313 314 
315 316 317 318 319 320 321 322 323 
324 325 326 327 328 329 330 331 332 
333 334 335 336 337 338 339 340 341 
342 343 344 345 346 347 348 349 350 
351 352 353 354 355 356 357 358 359 
360 361 362 363 364 365 366 367 368 
369 370 371 372 373 374 375 376 377 
378 379 380 381 382 383 384 385 386 
387 388 389 390 391 392 393 394 395 
396 397 398 399 400 401 402 403 404 
405 406 407 408 409 410 411 412 413 
414 415 416 417 418 419 420 421 422 
423 424 425 426 427 428 429 430 431 
432 433 434 435 436 437 438 439 440 
441 442 443 444 445 446 447 448 449 
450 451 452 453 454 455 456 457 458 
459 460 461 462 463 464 465 466 467 
468 469 470 471 472 473 474 475 476 
477 478 479 480 481 482 483 484 485 
486 487 488 489 490 491 492 493 494 
495 496 497 498 499 500 501 502 503 
504 505 506 507 508 509 510 511 512 
513 514 515 516 517 518 519 520 521 
522 523 524 525 526 527 528 529 530 
531 532 533 534 535 536 537 538 539 
540 541 542 543 544 545 546 547 548 
549 550 551 552 553 554 555 556 557 
558 559 560 561 562 563 564 565 566 
567 568 569 570 571 572 573 574 575 
576 577 578 579 580 581 582 583 584 
585 586 587 588 589 590 591 592 593 
594 595 596 597 598 599 600 601 602 
603 604 605 606 607 608 609 610 611 
612 613 614 615 616 617 618 619 620 
621 622 623 624 625 626 627 628 629 
630 631 632 633 634 635 636 637 638 
639 640 641 642 643 644 645 646 647 
648 649 650 651 652 653 654 655 656 
657 658 659 660 661 662 663 664 665 
666 667 668 669 670 671 672 673 674 
675 676 677 678 679 680 681 682 683 
684 685 686 687 688 689 690 691 692 
693 694 695 696 697 698 699 700 701 
702 703 704 705 706 707 708 709 710 
711 712 713 714 715 716 717 718 719 
720 721 722 723 724 725 726 727 728 
729 730 731 732 733 734 735 736 737 
738 739 740 741 742 743 744 745 746 
747 748 749 750 751 752 753 754 755 
756 757 758 759 760 761 762 763 764 
765 766 767 768 769 770 771 772 773 
774 775 776 777 778 779 780 781 782 
783 784 785 786 787 788 789 790 791 
792 793 794 795 796 797 798 799 800 
801 802 803 804 805 806 807 808 809 
810 811 812 813 814 815 816 817 818 
819 820 821 822 823 824 825 826 827 
828 829 830 831 832 833 834 835 836 
837 838 839 840 841 842 843 844 845 
846 847 848 849 850 851 852 853 854 
855 856 857 858 859 860 861 862 863 
864 865 866 867 868 869 870 871 872 
873 874 875 876 877 878 879 880 881 
882 883 884 885 886 887 888 889 890 
891 892 893 894 895 896 897 898 899 
900 901 902 903 904 905 906 907 908 
909 910 911 912 913 914 915 916 917 
918 919 920 921 922 923 924 925 926 
927 928 929 930 931 932 933 934 935 
936 937 938 939 940 941 942 943 944 
945 946 947 948 949 950 951 952 953 
954 955 956 957 958 959 960 961 962 
963 964 965 966 967 968 969 970 971 
972 973 974 975 976 977 978 979 980 
981 982 983 984 985 986 987 988 989 
990 991 992 993 994 995 996 997 998 
999 1000 1001 1002 1003 1004 1005 1006 1007 
1008 1009 1010 1011 1012 1013 1014 1015 1016 
1017 1018 1019 1020 1021 1022 1023 1024 1025 
1026 1027 1028 1029 1030 1031 1032 1033 1034 
1035 1036 1037 1038 1039 1040 1041 1042 1043 
1044 1045 1046 1047 1048 1049 1050 1051 1052 
1053 1054 1055 1056 1057 1058 1059 1060 1061 
1062 1063 1064 1065 1066 1067 1068 1069 1070 
1071 1072 1073 1074 1075 1076 1077 1078 1079 
1080 1081 1082 1083 1084 1085 1086 1087 1088 
1089 1090 1091 1092 1093 1094 1095 1096 1097 
1098 1099 1100 1101 1102 1103 1104 1105 1106 
1107 1108 1109 1110 1111 1112 1113 1114 1115 
1116 1117 1118 1119 1120 1121 1122 1123 1124 
1125 1126 1127 1128 1129 1130 1131 1132 1133 
1134 1135 1136 1137 1138 1139 1140 1141 1142 
1143 1144 1145 1146 1147 1148 1149 1150 1151 
1152 1153 1154 1155 1156 1157 1158 1159 1160 
1161 1162 1163 1164 1165 1166 1167 1168 1169 
1170 1171 1172 1173 1174 1175 1176 1177 1178 
1179 1180 1181 1182 1183 1184 1185 1186 1187 
1188 1189 1190 1191 1192 1193 1194 1195 1196 
1197 1198 1199 1200 1201 1202 1203 1204 1205 
1206 1207 1208 1209 1210 1211 1212 1213 1214 
1215 1216 1217 1218 1219 1220 1221 1222 1223 
1224 1225 1226 1227 1228 1229 1230 1231 1232 
1233 1234 1235 1236 1237 1238 1239 1240 1241 
1242 1243 1244 1245 1246 1247 1248 1249 1250 
1251 1252 1253 1254 1255 1256 1257 1258 1259 
1260 1261 1262 1263 1264 1265 1266 1267 1268 
1269 1270 1271 1272 1273 1274 1275 1276 1277 
1278 1279 1280 1281 1282 1283 1284 1285 1286 
1287 1288 1289 1290 1291 1292 1293 1294 1295 
1296 1297 1298 1299 1300 1301 1302 1303 1304 
1305 1306 1307 1308 1309 1310 1311 1312 1313 
1314 1315 1316 1317 1318 1319 1320 1321 1322 
1323 1324 1325 1326 1327 1328 1329 1330 1331 
1332 1333 1334 1335 1336 1337 1338 1339 1340 
1341 1342 1343 1344 1345 1346 1347 1348 1349 
1350 1351 1352 1353 1354 1355 1356 1357 1358 
1359 1360 1361 1362 1363 1364 1365 1366 1367 
1368 1369 1370 1371 1372 1373 1374 1375 1376 
1377 1378 1379 1380 1381 1382 1383 1384 1385 
1386 1387 1388 1389 1390 1391 1392 1393 1394 
1395 1396 1397 1398 1399 1400 1401 1402 1403 
1404 1405 1406 1407 1408 1409 1410 1411 1412 
1413 1414 1415 1416 1417 1418 1419 1420 1421 
1422 1423 1424 1425 1426 1427 1428 1429 1430 
1431 1432 1433 1434 1435 1436 1437 1438 1439 
1440 1441 1442 1443 1444 1445 1446 1447 1448 
1449 1450 1451 1452 1453 1454 1455 1456 1457 
1458 1459 1460 1461 1462 1463 1464 1465 1466 
1467 1468 1469 1470 1471 1472 1473 1474 1475 
1476 1477 1478 1479 1480 1481 1482 1483 1484 
1485 1486 1487 1488 1489 1490 1491 1492 1493 
1494 1495 1496 1497 1498 1499 1500 1501 1502 
1503 1504 1505 1506 1507 1508 1509 1510 1511 
1512 1513 1514 1515 1516 1517 1518 1519 1520 
1521 1522 1523 1524 1525 1526 1527 1528 1529 
1530 1531 1532 1533 1534 1535 1536 1537 1538 
1539 1540 1541 1542 1543 1544 1545 1546 1547 
1548 1549 1550 1551 1552 1553 1554 1555 1556 
1557 1558 1559 1560 1561 1562 1563 1564 1565 
1566 1567 1568 1569 1570 1571 1572 1573 1574 
1575 1576 1577 1578 1579 1580 1581 1582 1583 
1584 1585 1586 1587 1588 1589 1590 1591 1592 
1593 1594 1595 1596 1597 1598 1599 1600 1601 
1602 1603 1604 1605 1606 1607 1608 1609 1610 
1611 1612 1613 1614 1615 1616 1617 1618 1619 
1620 1621 1622 1623 1624 1625 1626 1627 1628 
1629 1630 1631 1632 1633 1634 1635 1636 1637 
1638 1639 1640 1641 1642 1643 1644 1645 1646 
1647 1648 1649 1650 1651 1652 1653 1654 1655 
1656 1657 1658 1659 1660 1661 1662 1663 1664 
1665 1666 1667 1668 1669 1670 1671 1672 1673 
1674 1675 1676 1677 1678 1679 1680 1681 1682 
1683 1684 1685 1686 1687 1688 1689 1690 1691 
1692 1693 1694 1695 1696 1697 1698 1699 1700 
1701 1702 1703 1704 1705 1706 1707 1708 1709 
1710 1711 1712 1713 1714 1715 1716 1717 1718 
1719 1720 1721 1722 1723 1724 1725 1726 1727 
1728 1729 1730 1731 1732 1733 1734 1735 1736 
1737 1738 1739 1740 1741 1742 1743 1744 1745 
1746 1747 1748 1749 1750 1751 1752 1753 1754 
1755 1756 1757 1758 1759 1760 1761 1762 1763 
1764 1765 1766 1767 1768 1769 1770 1771 1772 
1773 1774 1775 1776 1777 1778 1779 1780 1781 
1782 1783 1784 1785 1786 1787 1788 1789 1790 
1791 1792 1793 1794 1795 1796 1797 1798 1799 
1800 1801 1802 1803 1804 1805 1806 1807 1808 
1809 1810 1811 1812 1813 1814 1815 1816 1817 
1818 1819 1820 1821 1822 1823 1824 1825 1826 
1827 1828 1829 1830 1831 1832 1833 1834 1835 
1836 1837 1838 1839 1840 1841 1842 1843 1844 
1845 1846 1847 1848 1849 1850 1851 1852 1853 
1854 1855 1856 1857 1858 1859 1860 1861 1862 
1863 1864 1865 1866 1867 1868 1869 1870 1871 
1872 1873 1874 1875 1876 1877 1878 1879 1880 
1881 1882 1883 1884 1885 1886 1887 1888 1889 
1890 1891 1892 1893 1894 1895 1896 1897 1898 
1899 1900 1901 1902 1903 1904 1905 1906 1907 
1908 1909 1910 1911 1912 1913 1914 1915 1916 
1917 1918 1919 1920 1921 1922 1923 1924 1925 
1926 1927 1928 1929 1930 1931 1932 1933 1934 
1935 1936 1937 1938 1939 1940 1941 1942 1943 
1944 1945 1946 1947 1948 1949 1950 1951 1952 
1953 1954 1955 1956 1957 1958 1959 1960 1961 
1962 1963 1964 1965 1966 1967 1968 1969 1970 
1971 1972 1973 1974 1975 1976 1977 1978 1979 
1980 1981 1982 1983 1984 1985 1986 1987 1988 
1989 1990 1991 1992 1993 1994 1995 1996 1997 
1998 1999 2000 2001 2002 2003 2004 2005 2006 
2007 2008 2009 2010 2011 2012 2013 2014 2015 
2016 2017 2018 2019 2020 2021 2022 2023 2024 
2025 2026 2027 2028 2029 2030 2031 2032 2033 
2034 2035 2036 2037 2038 2039 2040 2041 2042 
2043 2044 2045 2046 2047 2048 2049 2050 2051 
2052 2053 2054 2055 2056 2057 2058 2059 2060 
2061 2062 2063 2064 2065 2066 2067 2068 2069 
2070 2071 2072 2073 2074 2075 2076 2077 2078 
2079 2080 2081 2082 2083 2084 2085 2086 2087 
2088 2089 2090 2091 2092 2093 2094 2095 2096 
2097 2098 2099 2100 2101 2102 2103 2104 2105 
2106 2107 2108 2109 2110 2111 2112 2113 2114 
2115 2116 2117 2118 2119 2120 2121 2122 2123 
2124 2125 2126 2127 2128 2129 2130 2131 2132 
2133 2134 2135 2136 2137 2138 2139 2140 2141 
2142 2143 2144 2145 2146 2147 2148 2149 2150 
2151 2152 2153 2154 2155 2156 2157 2158 2159 
2160 2161 2162 2163 2164 2165 2166 2167 2168 
2169 2170 2171 2172 2173 2174 2175 2176 2177 
2178 2179 2180 2181 2182 2183 2184 2185 2186 
2187 2188 2189 2190 2191 2192 2193 2194 2195 
2196 2197 2198 2199 2200 2201 2202 2203 2204 
2205 2206 2207 2208 2209 2210 2211 2212 2213 
2214 2215 2216 2217 2218 2219 2220 2221 2222 
2223 2224 2225 2226 2227 2228 2229 2230 2231 
2232 2233 2234 2235 2236 2237 2238 2239 2240 
2241 2242 2243 2244 2245 2246 2247 2248 2249 
2250 2251 2252 2253 2254 2255 2256 2257 2258 
2259 2260 2261 2262 2263 2264 2265 2266 2267 
2268 2269 2270 2271 2272 2273 2274 2275 2276 
2277 2278 2279 2280 2281 2282 2283 2284 2285 
2286 2287 2288 2289 2290 2291 2292 2293 2294 
2295 2296 2297 2298 2299 2300 2301 2302 2303 
2304 2305 2306 2307 2308 2309 2310 2311 2312 
2313 2314 2315 2316 2317 2318 2319 2320 2321 
2322 2323 2324 2325 2326 2327 2328 2329 2330 
2331 2332 2333 2334 2335 2336 2337 2338 2339 
2340 2341 2342 2343 2344 2345 2346 2347 2348 
2349 2350 2351 2352 2353 2354 2355 2356 2357 
2358 2359 2360 2361 2362 2363 2364 2365 2366 
2367 2368 2369 2370 2371 2372 2373 2374 2375 
2376 2377 2378 2379 2380 2381 2382 2383 2384 
2385 2386 2387 2388 2389 2390 2391 2392 2393 
2394 2395 2396 2397 2398 2399 2400 2401 2402 
2403 2404 2405 2406 2407 2408 2409 2410 2411 
2412 2413 2414 2415 2416 2417 2418 2419 2420 
2421 2422 2423 2424 2425 2426 2427 2428 2429 
2430 2431 2432 2433 2434 2435 2436 2437 2438 
2439 2440 2441 2442 2443 2444 2445 2446 2447 
2448 2449 2450 2451 2452 2453 2454 2455 2456 
2457 2458 2459 2460 2461 2462 2463 2464 2465 
2466 2467 2468 2469 2470 2471 2472 2473 2474 
2475 2476 2477 2478 2479 2480 2481 2482 2483 
2484 2485 2486 2487 2488 2489 2490 2491 2492 
2493 2494 2495 2496 2497 2498 2499 2500 2501 
2502 2503 2504 2505 2506 2507 2508 2509 2510 
2511 2512 2513 2514 2515 2516 2517 2518 2519 
2520 2521 2522 2523 2524 2525 2526 2527 2528 
2529 2530 2531 2532 2533 2534 2535 2536 2537 
2538 2539 2540 2541 2542 2543 2544 2545 2546 
2547 2548 2549 2550 2551 2552 2553 2554 2555 
2556 2557 2558 2559 2560 2561 2562 2563 2564 
2565 2566 2567 2568 2569 2570 2571 2572 2573 
2574 2575 2576 2577 2578 2579 2580 2581 2582 
2583 2584 2585 2586 2587 2588 2589 2590 2591 
2592 2593 2594 2595 2596 2597 2598 2599 2600 
2601 2602 2603 2604 2605 2606 2607 2608 2609 
2610 2611 2612 2613 2614 2615 2616 2617 2618 
2619 2620 2621 2622 2623 2624 2625 2626 2627 
2628 2629 2630 2631 2632 2633 2634 2635 2636 
2637 2638 2639 2640 2641 2642 2643 2644 2645 
2646 2647 2648 2649 2650 2651 2652 2653 2654 
2655 2656 2657 2658 2659 2660 2661 2662 2663 
2664 2665 2666 2667 2668 2669 2670 2671 2672 
2673 2674 2675 2676 2677 2678 2679 2680 2681 
2682 2683 2684 2685 2686 2687 2688 2689 2690 
2691 2692 2693 2694 2695 2696 2697 2698 2699 
2700 2701 2702 2703 2704 2705 2706 2707 2708 
2709 2710 2711 2712 2713 2714 2715 2716 2717 
2718 2719 2720 2721 2722 2723 2724 2725 2726 
2727 2728 2729 2730 2731 2732 2733 2734 2735 
2736 2737 2738 2739 2740 2741 2742 2743 2744 
2745 2746 2747 2748 2749 2750 2751 2752 2753 
2754 2755 2756 2757 2758 2759 2760 2761 2762 
2763 2764 2765 2766 2767 2768 2769 2770 2771 
2772 2773 2774 2775 2776 2777 2778 2779 2780 
2781 2782 2783 2784 2785 2786 2787 2788 2789 
2790 2791 2792 2793 2794 2795 2796 2797 2798 
2799 2800 2801 2802 2803 2804 2805 2806 2807 
2808 2809 2810 2811 2812 2813 2814 2815 2816 
2817 2818 2819 2820 2821 2822 2823 2824 2825 
2826 2827 2828 2829 2830 2831 2832 2833 2834 
2835 2836 2837 2838 2839 2840 2841 2842 2843 
2844 2845 2846 2847 2848 2849 2850 2851 2852 
2853 2854 2855 2856 2857 2858 2859 2860 2861 
2862 2863 2864 2865 2866 2867 2868 2869 2870 
2871 2872 2873 2874 2875 2876 2877 2878 2879 
2880 2881 2882 2883 2884 2885 2886 2887 2888 
2889 2890 2891 2892 2893 2894 2895 2896 2897 
2898 2899 2900 2901 2902 2903 2904 2905 2906 
2907 2908 2909 2910 2911 2912 2913 2914 2915 
2916 2917 2918 2919 2920 2921 2922 2923 2924 
2925 2926 2927 2928 2929 2930 2931 2932 2933 
2934 2935 2936 2937 2938 2939 2940 2941 2942 
2943 2944 2945 2946 2947 2948 2949 2950 2951 
2952 2953 2954 2955 2956 2957 2958 2959 2960 
2961 2962 2963 2964 2965 2966 2967 2968 2969 
2970 2971 2972 2973 2974 2975 2976 2977 2978 
2979 2980 2981 2982 2983 2984 2985 2986 2987 
2988 2989 2990 2991 2992 2993 2994 2995 2996 
2997 2998 2999 3000 3001 3002 3003 3004 3005 
3006 3007 3008 3009 3010 3011 3012 3013 3014 
3015 3016 3017 3018 3019 3020 3021 3022 3023 
3024 3025 3026 3027 3028 3029 3030 3031 3032 
3033 3034 3035 3036 3037 3038 3039 3040 3041 
3042 3043 3044 3045 3046 3047 3048 3049 3050 
3051 3052 3053 3054 3055 3056 3057 3058 3059 
3060 3061 3062 3063 3064 3065 3066 3067 3068 
3069 3070 3071 3072 3073 3074 3075 3076 3077 
3078 3079 3080 3081 3082 3083 3084 3085 3086 
3087 3088 3089 3090 3091 3092 3093 3094 3095 
3096 3097 3098 3099 3100 3101 3102 3103 3104 
3105 3106 3107 3108 3109 3110 3111 3112 3113 
3114 3115 3116 3117 3118 3119 3120 3121 3122 
3123 3124 3125 3126 3127 3128 3129 3130 3131 
3132 3133 3134 3135 3136 3137 3138 3139 3140 
3141 3142 3143 3144 3145 3146 3147 3148 3149 
3150 3151 3152 3153 3154 3155 3156 3157 3158 
3159 3160 3161 3162 3163 3164 3165 3166 3167 
3168 3169 3170 3171 3172 3173 3174 3175 3176 
3177 3178 3179 3180 3181 3182 3183 3184 3185 
3186 3187 3188 3189 3190 3191 3192 3193 3194 
3195 3196 3197 3198 3199 3200 3201 3202 3203 
3204 3205 3206 3207 3208 3209 3210 3211 3212 
3213 3214 3215 3216 3217 3218 3219 3220 3221 
3222 3223 3224 3225 3226 3227 3228 3229 3230 
3231 3232 3233 3234 3235 3236 3237 3238 3239 
3240 3241 3242 3243 3244 3245 3246 3247 3248 
3249 3250 3251 3252 3253 3254 3255 3256 3257 
3258 3259 3260 3261 3262 3263 3264 3265 3266 
3267 3268 3269 3270 3271 3272 3273 3274 3275 
3276 3277 3278 3279 3280 3281 3282 3283 3284 
3285 3286 3287 3288 3289 3290 3291 3292 3293 
3294 3295 3296 3297 3298 3299 3300 3301 3302 
3303 3304 3305 3306 3307 3308 3309 3310 3311 
3312 3313 3314 3315 3316 3317 3318 3319 3320 
3321 3322 3323 3324 3325 3326 3327 3328 3329 
3330 3331 3332 3333 3334 3335 3336 3337 3338 
3339 3340 3341 3342 3343 3344 3345 3346 3347 
3348 3349 3350 3351 3352 3353 3354 3355 3356 
3357 3358 3359 3360 3361 3362 3363 3364 3365 
3366 3367 3368 3369 3370 3371 3372 3373 3374 
3375 3376 3377 3378 3379 3380 3381 3382 3383 
3384 3385 3386 3387 3388 3389 3390 3391 3392 
3393 3394 3395 3396 3397 3398 3399 3400 3401 
3402 3403 3404 3405 3406 3407 3408 3409 3410 
3411 3412 3413 3414 3415 3416 3417 3418 3419 
3420 3421 3422 3423 3424 3425 3426 3427 3428 
3429 3430 3431 3432 3433 3434 3435 3436 3437 
3438 3439 3440 3441 3442 3443 3444 3445 3446 
3447 3448 3449 3450 3451 3452 3453 3454 3455 
3456 3457 3458 3459 3460 3461 3462 3463 3464 
3465 3466 3467 3468 3469 3470 3471 3472 3473 
3474 3475 3476 3477 3478 3479 3480 3481 3482 
3483 3484 3485 3486 3487 3488 3489 3490 3491 
3492 3493 3494 3495 3496 3497 3498 3499 3500 
3501 3502 3503 3504 3505 3506 3507 3508 3509 
3510 3511 3512 3513 3514 3515 3516 3517 3518 
3519 3520 3521 3522 3523 3524 3525 3526 3527 
3528 3529 3530 3531 3532 3533 3534 3535 3536 
3537 3538 3539 3540 3541 3542 3543 3544 3545 
3546 3547 3548 3549 3550 3551 3552 3553 3554 
3555 3556 3557 3558 3559 3560 3561 3562 3563 
3564 3565 3566 3567 3568 3569 3570 3571 3572 
3573 3574 3575 3576 3577 3578 3579 3580 3581 
3582 3583 3584 3585 3586 3587 3588 3589 3590 
3591 3592 3593 3594 3595 3596 3597 3598 3599 
3600 3601 3602 3603 3604 3605 3606 3607 3608 
3609 3610 3611 3612 3613 3614 3615 3616 3617 
3618 3619 3620 3621 3622 3623 3624 3625 3626 
3627 3628 3629 3630 3631 3632 3633 3634 3635 
3636 3637 3638 3639 3640 3641 3642 3643 3644 
3645 3646 3647 3648 3649 3650 3651 3652 3653 
3654 3655 3656 3657 3658 3659 3660 3661 3662 
3663 3664 3665 3666 3667 3668 3669 3670 3671 
3672 3673 3674 3675 3676 3677 3678 3679 3680 
3681 3682 3683 3684 3685 3686 3687 3688 3689 
3690 3691 3692 3693 3694 3695 3696 3697 3698 
3699 3700 3701 3702 3703 3704 3705 3706 3707 
3708 3709 3710 3711 3712 3713 3714 3715 3716 
3717 3718 3719 3720 3721 3722 3723 3724 3725 
3726 3727 3728 3729 3730 3731 3732 3733 3734 
3735 3736 3737 3738 3739 3740 3741 3742 3743 
3744 3745 3746 3747 3748 3749 3750 3751 3752 
3753 3754 3755 3756 3757 3758 3759 3760 3761 
3762 3763 3764 3765 3766 3767 3768 3769 3770 
3771 3772 3773 3774 3775 3776 3777 3778 3779 
3780 3781 3782 3783 3784 3785 3786 3787 3788 
3789 3790 3791 3792 3793 3794 3795 3796 3797 
3798 3799 3800 3801 3802 3803 3804 3805 3806 
3807 3808 3809 3810 3811 3812 3813 3814 3815 
3816 3817 3818 3819 3820 3821 3822 3823 3824 
3825 3826 3827 3828 3829 3830 3831 3832 3833 
3834 3835 3836 3837 3838 3839 3840 3841 3842 
3843 3844 3845 3846 3847 3848 3849 3850 3851 
3852 3853 3854 3855 3856 3857 3858 3859 3860 
3861 3862 3863 3864 3865 3866 3867 3868 3869 
3870 3871 3872 3873 3874 3875 3876 3877 3878 
3879 3880 3881 3882 3883 3884 3885 3886 3887 
3888 3889 3890 3891 3892 3893 3894 3895 3896 
3897 3898 3899 3900 3901 3902 3903 3904 3905 
3906 3907 3908 3909 3910 3911 3912 3913 3914 
3915 3916 3917 3918 3919 3920 3921 3922 3923 
3924 3925 3926 3927 3928 3929 3930 3931 3932 
3933 3934 3935 3936 3937 3938 3939 3940 3941 
3942 3943 3944 3945 3946 3947 3948 3949 3950 
3951 3952 3953 3954 3955 3956 3957 3958 3959 
3960 3961 3962 3963 3964 3965 3966 3967 3968 
3969 3970 3971 3972 3973 3974 3975 3976 3977 
3978 3979 3980 3981 3982 3983 3984 3985 3986 
3987 3988 3989 3990 3991 3992 3993 3994 3995 
3996 3997 3998 3999 4000 4001 4002 4003 4004 
4005 4006 4007 4008 4009 4010 4011 4012 4013 
4014 4015 4016 4017 4018 4019 4020 4021 4022 
4023 4024 4025 4026 4027 4028 4029 4030 4031 
4032 4033 4034 4035 4036 4037 4038 4039 4040 
4041 4042 4043 4044 4045 4046 4047 4048 4049 
4050 4051 4052 4053 4054 4055 4056 4057 4058 
4059 4060 4061 4062 4063 4064 4065 4066 4067 
4068 4069 4070 4071 4072 4073 4074 4075 4076 
4077 4078 4079 4080 4081 4082 4083 4084 4085 
4086 4087 4088 4089 4090 4091 4092 4093 4094 
4095 4096 4097 4098 4099 4100 4101 4102 4103 
4104 4105 4106 4107 4108 4109 4110 4111 4112 
4113 4114 4115 4116 4117 4118 4119 4120 4121 
4122 4123 4124 4125 4126 4127 4128 4129 4130 
4131 4132 4133 4134 4135 4136 4137 4138 4139 
4140 4141 4142 4143 4144 4145 4146 4147 4148 
4149 4150 4151 4152 4153 4154 4155 4156 4157 
4158 4159 4160 4161 4162 4163 4164 4165 4166 
4167 4168 4169 4170 4171 4172 4173 4174 4175 
4176 4177 4178 4179 4180 4181 4182 4183 4184 
4185 4186 4187 4188 4189 4190 4191 4192 4193 
4194 4195 4196 4197 4198 4199 4200 4201 4202 
4203 4204 4205 4206 4207 4208 4209 4210 4211 
4212 4213 4214 4215 4216 4217 4218 4219 4220 
4221 4222 4223 4224 4225 4226 4227 4228 4229 
4230 4231 4232 4233 4234 4235 4236 4237 4238 
4239 4240 4241 4242 4243 4244 4245 4246 4247 
4248 4249 4250 4251 4252 4253 4254 4255 4256 
4257 4258 4259 4260 4261 4262 4263 4264 4265 
4266 4267 4268 4269 4270 4271 4272 4273 4274 
4275 4276 4277 4278 4279 4280 4281 4282 4283 
4284 4285 4286 4287 4288 4289 4290 4291 4292 
4293 4294 4295 4296 4297 4298 4299 4300 4301 
4302 4303 4304 4305 4306 4307 4308 4309 4310 
4311 4312 4313 4314 4315 4316 4317 4318 4319 
4320 4321 4322 4323 4324 4325 4326 4327 4328 
4329 4330 4331 4332 4333 4334 4335 4336 4337 
4338 4339 4340 4341 4342 4343 4344 4345 4346 
4347 4348 4349 4350 4351 4352 4353 4354 4355 
4356 4357 4358 4359 4360 4361 4362 4363 4364 
4365 4366 4367 4368 4369 4370 4371 4372 4373 
4374 4375 4376 4377 4378 4379 4380 4381 4382 
4383 4384 4385 4386 4387 4388 4389 4390 4391 
4392 4393 4394 4395 4396 4397 4398 4399 4400 
4401 4402 4403 4404 4405 4406 4407 4408 4409 
4410 4411 4412 4413 4414 4415 4416 4417 4418 
4419 4420 4421 4422 4423 4424 4425 4426 4427 
4428 4429 4430 4431 4432 4433 4434 4435 4436 
4437 4438 4439 4440 4441 4442 4443 4444 4445 
4446 4447 4448 4449 4450 4451 4452 4453 4454 
4455 4456 4457 4458 4459 4460 4461 4462 4463 
4464 4465 4466 4467 4468 4469 4470 4471 4472 
4473 4474 4475 4476 4477 4478 4479 4480 4481 
4482 4483 4484 4485 4486 4487 4488 4489 4490 
4491 4492 4493 4494 4495 4496 4497 4498 4499 
4500 4501 4502 4503 4504 4505 4506 4507 4508 
4509 4510 4511 4512 4513 4514 4515 4516 4517 
4518 4519 4520 4521 4522 4523 4524 4525 4526 
4527 4528 4529 4530 4531 4532 4533 4534 4535 
4536 4537 4538 4539 4540 4541 4542 4543 4544 
4545 4546 4547 4548 4549 4550 4551 4552 4553 
4554 4555 4556 4557 4558 4559 4560 4561 4562 
4563 4564 4565 4566 4567 4568 4569 4570 4571 
4572 4573 4574 4575 4576 4577 4578 4579 4580 
4581 4582 4583 4584 4585 4586 4587 4588 4589 
4590 4591 4592 4593 4594 4595 4596 4597 4598 
4599 4600 4601 4602 4603 4604 4605 4606 4607 
4608 4609 4610 4611 4612 4613 4614 4615 4616 
4617 4618 4619 4620 4621 4622 4623 4624 4625 
4626 4627 4628 4629 4630 4631 4632 4633 4634 
4635 4636 4637 4638 4639 4640 4641 4642 4643 
4644 4645 4646 4647 4648 4649 4650 4651 4652 
4653 4654 4655 4656 4657 4658 4659 4660 4661 
4662 4663 4664 4665 4666 4667 4668 4669 4670 
4671 4672 4673 4674 4675 4676 4677 4678 4679 
4680 4681 4682 4683 4684 4685 4686 4687 4688 
4689 4690 4691 4692 4693 4694 4695 4696 4697 
4698 4699 4700 4701 4702 4703 4704 4705 4706 
4707 4708 4709 4710 4711 4712 4713 4714 4715 
4716 4717 4718 4719 4720 4721 4722 4723 4724 
4725 4726 4727 4728 4729 4730 4731 4732 4733 
4734 4735 4736 4737 4738 4739 4740 4741 4742 
4743 4744 4745 4746 4747 4748 4749 4750 4751 
4752 4753 4754 4755 4756 4757 4758 4759 4760 
4761 4762 4763 4764 4765 4766 4767 4768 4769 
4770 4771 4772 4773 4774 4775 4776 4777 4778 
4779 4780 4781 4782 4783 4784 4785 4786 4787 
4788 4789 4790 4791 4792 4793 4794 4795 4796 
4797 4798 4799 4800 4801 4802 4803 4804 4805 
4806 4807 4808 4809 4810 4811 4812 4813 4814 
4815 4816 4817 4818 4819 4820 4821 4822 4823 
4824 4825 4826 4827 4828 4829 4830 4831 4832 
4833 4834 4835 4836 4837 4838 4839 4840 4841 
4842 4843 4844 4845 4846 4847 4848 4849 4850 
4851 4852 4853 4854 4855 4856 4857 4858 4859 
4860 4861 4862 4863 4864 4865 4866 4867 4868 
4869 4870 4871 4872 4873 4874 4875 4876 4877 
4878 4879 4880 4881 4882 4883 4884 4885 4886 
4887 4888 4889 4890 4891 4892 4893 4894 4895 
4896 4897 4898 4899 4900 4901 4902 4903 4904 
4905 4906 4907 4908 4909 4910 4911 4912 4913 
4914 4915 4916 4917 4918 4919 4920 4921 4922 
4923 4924 4925 4926 4927 4928 4929 4930 4931 
4932 4933 4934 4935 4936 4937 4938 4939 4940 
4941 4942 4943 4944 4945 4946 4947 4948 4949 
4950 4951 4952 4953 4954 4955 4956 4957 4958 
4959 4960 4961 4962 4963 4964 4965 4966 4967 
4968 4969 4970 4971 4972 4973 4974 4975 4976 
4977 4978 4979 4980 4981 4982 4983 4984 4985 
4986 4987 4988 4989 4990 4991 4992 4993 4994 
4995 4996 4997 4998 4999 5000 5001 5002 5003 
5004 5005 5006 5007 5008 5009 5010 5011 5012 
5013 5014 5015 5016 5017 5018 5019 5020 5021 
5022 5023 5024 5025 5026 5027 5028 5029 5030 
5031 5032 5033 5034 5035 5036 5037 5038 5039 
5040 5041 5042 5043 5044 5045 5046 5047 5048 
5049 5050 5051 5052 5053 5054 5055 5056 5057 
5058 5059 5060 5061 5062 5063 5064 5065 5066 
5067 5068 5069 5070 5071 5072 5073 5074 5075 
5076 5077 5078 5079 5080 5081 5082 5083 5084 
5085 5086 5087 5088 5089 5090 5091 5092 5093 
5094 5095 5096 5097 5098 5099 5100 5101 5102 
5103 5104 5105 5106 5107 5108 5109 5110 5111 
5112 5113 5114 5115 5116 5117 5118 5119 5120 
5121 5122 5123 5124 5125 5126 5127 5128 5129 
5130 5131 5132 5133 5134 5135 5136 5137 5138 
5139 5140 5141 5142 5143 5144 5145 5146 5147 
5148 5149 5150 5151 5152 5153 5154 5155 5156 
5157 5158 5159 5160 5161 5162 5163 5164 5165 
5166 5167 5168 5169 5170 5171 5172 5173 5174 
5175 5176 5177 5178 5179 5180 5181 5182 5183 
5184 5185 5186 5187 5188 5189 5190 5191 5192 
5193 5194 5195 5196 5197 5198 5199 5200 5201 
5202 5203 5204 5205 5206 5207 5208 5209 5210 
5211 5212 5213 5214 5215 5216 5217 5218 5219 
5220 5221 5222 5223 5224 5225 5226 5227 5228 
5229 5230 5231 5232 5233 5234 5235 5236 5237 
5238 5239 5240 5241 5242 5243 5244 5245 5246 
5247 5248 5249 5250 5251 5252 5253 5254 5255 
5256 5257 5258 5259 5260 5261 5262 5263 5264 
5265 5266 5267 5268 5269 5270 5271 5272 5273 
5274 5275 5276 5277 5278 5279 5280 5281 5282 
5283 5284 5285 5286 5287 5288 5289 5290 5291 
5292 5293 5294 5295 5296 5297 5298 5299 5300 
5301 5302 5303 5304 5305 5306 5307 5308 5309 
5310 5311 5312 5313 5314 5315 5316 5317 5318 
5319 5320 5321 5322 5323 5324 5325 5326 5327 
5328 5329 5330 5331 5332 5333 5334 5335 5336 
5337 5338 5339 5340 5341 5342 5343 5344 5345 
5346 5347 5348 5349 5350 5351 5352 5353 5354 
5355 5356 5357 5358 5359 5360 5361 5362 5363 
5364 5365 5366 5367 5368 5369 5370 5371 5372 
5373 5374 5375 5376 5377 5378 5379 5380 5381 
5382 5383 5384 5385 5386 5387 5388 5389 5390 
5391 5392 5393 5394 5395 5396 5397 5398 5399 
5400 5401 5402 5403 5404 5405 5406 5407 5408 
5409 5410 5411 5412 5413 5414 5415 5416 5417 
5418 5419 5420 5421 5422 5423 5424 5425 5426 
5427 5428 5429 5430 5431 5432 5433 5434 5435 
5436 5437 5438 5439 5440 5441 5442 5443 5444 
5445 5446 5447 5448 5449 5450 5451 5452 5453 
5454 5455 5456 5457 5458 5459 5460 5461 5462 
5463 5464 5465 5466 5467 5468 5469 5470 5471 
5472 5473 5474 5475 5476 5477 5478 5479 5480 
5481 5482 5483 5484 5485 5486 5487 5488 5489 
5490 5491 5492 5493 5494 5495 5496 5497 5498 
5499 5500 5501 5502 5503 5504 5505 5506 5507 
5508 5509 5510 5511 5512 5513 5514 5515 5516 
5517 5518 5519 5520 5521 5522 5523 5524 5525 
5526 5527 5528 5529 5530 5531 5532 5533 5534 
5535 5536 5537 5538 5539 5540 5541 5542 5543 
5544 5545 5546 5547 5548 5549 5550 5551 5552 
5553 5554 5555 5556 5557 5558 5559 5560 5561 
5562 5563 5564 5565 5566 5567 5568 5569 5570 
5571 5572 5573 5574 5575 5576 5577 5578 5579 
5580 5581 5582 5583 5584 5585 5586 5587 5588 
5589 5590 5591 5592 5593 5594 5595 5596 5597 
5598 5599 5600 5601 5602 5603 5604 5605 5606 
5607 5608 5609 5610 5611 5612 5613 5614 5615 
5616 5617 5618 5619 5620 5621 5622 5623 5624 
5625 5626 5627 5628 5629 5630 5631 5632 5633 
5634 5635 5636 5637 5638 5639 5640 5641 5642 
5643 5644 5645 5646 5647 5648 5649 5650 5651 
5652 5653 5654 5655 5656 5657 5658 5659 5660 
5661 5662 5663 5664 5665 5666 5667 5668 5669 
5670 5671 5672 5673 5674 5675 5676 5677 5678 
5679 5680 5681 5682 5683 5684 5685 5686 5687 
5688 5689 5690 5691 5692 5693 5694 5695 5696 
5697 5698 5699 5700 5701 5702 5703 5704 5705 
5706 5707 5708 5709 5710 5711 5712 5713 5714 
5715 5716 5717 5718 5719 5720 5721 5722 5723 
5724 5725 5726 5727 5728 5729 5730 5731 5732 
5733 5734 5735 5736 5737 5738 5739 5740 5741 
5742 5743 5744 5745 5746 5747 5748 5749 5750 
5751 5752 5753 5754 5755 5756 5757 5758 5759 
5760 5761 5762 5763 5764 5765 5766 5767 5768 
5769 5770 5771 5772 5773 5774 5775 5776 5777 
5778 5779 5780 5781 5782 5783 5784 5785 5786 
5787 5788 5789 5790 5791 5792 5793 5794 5795 
5796 5797 5798 5799 5800 5801 5802 5803 5804 
5805 5806 5807 5808 5809 5810 5811 5812 5813 
5814 5815 5816 5817 5818 5819 5820 5821 5822 
5823 5824 5825 5826 5827 5828 5829 5830 5831 
5832 5833 5834 5835 5836 5837 5838 5839 5840 
5841 5842 5843 5844 5845 5846 5847 5848 5849 
5850 5851 5852 5853 5854 5855 5856 5857 5858 
5859 5860 5861 5862 5863 5864 5865 5866 5867 
5868 5869 5870 5871 5872 5873 5874 5875 5876 
5877 5878 5879 5880 5881 5882 5883 5884 5885 
5886 5887 5888 5889 5890 5891 5892 5893 5894 
5895 5896 5897 5898 5899 5900 5901 5902 5903 
5904 5905 5906 5907 5908 5909 5910 5911 5912 
5913 5914 5915 5916 5917 5918 5919 5920 5921 
5922 5923 5924 5925 5926 5927 5928 5929 5930 
5931 5932 5933 5934 5935 5936 5937 5938 5939 
5940 5941 5942 5943 5944 5945 5946 5947 5948 
5949 5950 5951 5952 5953 5954 5955 5956 5957 
5958 5959 5960 5961 5962 5963 5964 5965 5966 
5967 5968 5969 5970 5971 5972 5973 5974 5975 
5976 5977 5978 5979 5980 5981 5982 5983 5984 
5985 5986 5987 5988 5989 5990 5991 5992 5993 
5994 5995 5996 5997 5998 5999 6000 6001 6002 
6003 6004 6005 6006 6007 6008 6009 6010 6011 
6012 6013 6014 6015 6016 6017 6018 6019 6020 
6021 6022 6023 6024 6025 6026 6027 6028 6029 
6030 6031 6032 6033 6034 6035 6036 6037 6038 
6039 6040 6041 6042 6043 6044 6045 6046 6047 
6048 6049 6050 6051 6052 6053 6054 6055 6056 
6057 6058 6059 6060 6061 6062 6063 6064 6065 
6066 6067 6068 6069 6070 6071 6072 6073 6074 
6075 6076 6077 6078 6079 6080 6081 6082 6083 
6084 6085 6086 6087 6088 6089 6090 6091 6092 
6093 6094 6095 6096 6097 6098 6099 6100 6101 
6102 6103 6104 6105 6106 6107 6108 6109 6110 
6111 6112 6113 6114 6115 6116 6117 6118 6119 
6120 6121 6122 6123 6124 6125 6126 6127 6128 
6129 6130 6131 6132 6133 6134 6135 6136 6137 
6138 6139 6140 6141 6142 6143 6144 6145 6146 
6147 6148 6149 6150 6151 6152 6153 6154 6155 
6156 6157 6158 6159 6160 6161 6162 6163 6164 
6165 6166 6167 6168 6169 6170 6171 6172 6173 
6174 6175 6176 6177 6178 6179 6180 6181 6182 
6183 6184 6185 6186 6187 6188 6189 6190 6191 
6192 6193 6194 6195 6196 6197 6198 6199 6200 
6201 6202 6203 6204 6205 6206 6207 6208 6209 
6210 6211 6212 6213 6214 6215 6216 6217 6218 
6219 6220 6221 6222 6223 6224 6225 6226 6227 
6228 6229 6230 6231 6232 6233 6234 6235 6236 
6237 6238 6239 6240 6241 6242 6243 6244 6245 
6246 6247 6248 6249 6250 6251 6252 6253 6254 
6255 6256 6257 6258 6259 6260 6261 6262 6263 
6264 6265 6266 6267 6268 6269 6270 6271 6272 
6273 6274 6275 6276 6277 6278 6279 6280 6281 
6282 6283 6284 6285 6286 6287 6288 6289 6290 
6291 6292 6293 6294 6295 6296 6297 6298 6299 
6300 6301 6302 6303 6304 6305 6306 6307 6308 
6309 6310 6311 6312 6313 6314 6315 6316 6317 
6318 6319 6320 6321 6322 6323 6324 6325 6326 
6327 6328 6329 6330 6331 6332 6333 6334 6335 
6336 6337 6338 6339 6340 6341 6342 6343 6344 
6345 6346 6347 6348 6349 6350 6351 6352 6353 
6354 6355 6356 6357 6358 6359 6360 6361 6362 
6363 6364 6365 6366 6367 6368 6369 6370 6371 
6372 6373 6374 6375 6376 6377 6378 6379 6380 
6381 6382 6383 6384 6385 6386 6387 6388 6389 
6390 6391 6392 6393 6394 6395 6396 6397 6398 
6399 6400 6401 6402 6403 6404 6405 6406 6407 
6408 6409 6410 6411 6412 6413 6414 6415 6416 
6417 6418 6419 6420 6421 6422 6423 6424 6425 
6426 6427 6428 6429 6430 6431 6432 6433 6434 
6435 6436 6437 6438 6439 6440 6441 6442 6443 
6444 6445 6446 6447 6448 6449 6450 6451 6452 
6453 6454 6455 6456 6457 6458 6459 6460 6461 
6462 6463 6464 6465 6466 6467 6468 6469 6470 
6471 6472 6473 6474 6475 6476 6477 6478 6479 
6480 6481 6482 6483 6484 6485 6486 6487 6488 
6489 6490 6491 6492 6493 6494 6495 6496 6497 
6498 6499 6500 6501 6502 6503 6504 6505 6506 
6507 6508 6509 6510 6511 6512 6513 6514 6515 
6516 6517 6518 6519 6520 6521 6522 6523 6524 
6525 6526 6527 6528 6529 6530 6531 6532 6533 
6534 6535 6536 6537 6538 6539 6540 6541 6542 
6543 6544 6545 6546 6547 6548 6549 6550 6551 
6552 6553 6554 6555 6556 6557 6558 6559 6560 
6561 6562 6563 6564 6565 6566 6567 6568 6569 
6570 6571 6572 6573 6574 6575 6576 6577 6578 
6579 6580 6581 6582 6583 6584 6585 6586 6587 
6588 6589 6590 6591 6592 6593 6594 6595 6596 
6597 6598 6599 6600 6601 6602 6603 6604 6605 
6606 6607 6608 6609 6610 6611 6612 6613 6614 
6615 6616 6617 6618 6619 6620 6621 6622 6623 
6624 6625 6626 6627 6628 6629 6630 6631 6632 
6633 6634 6635 6636 6637 6638 6639 6640 6641 
6642 6643 6644 6645 6646 6647 6648 6649 6650 
6651 6652 6653 6654 6655 6656 6657 6658 6659 
6660 6661 6662 6663 6664 6665 6666 6667 6668 
6669 6670 6671 6672 6673 6674 6675 6676 6677 
6678 6679 6680 6681 6682 6683 6684 6685 6686 
6687 6688 6689 6690 6691 6692 6693 6694 6695 
6696 6697 6698 6699 6700 6701 6702 6703 6704 
6705 6706 6707 6708 6709 6710 6711 6712 6713 
6714 6715 6716 6717 6718 6719 6720 6721 6722 
6723 6724 6725 6726 6727 6728 6729 6730 6731 
6732 6733 6734 6735 6736 6737 6738 6739 6740 
6741 6742 6743 6744 6745 6746 6747 6748 6749 
6750 6751 6752 6753 6754 6755 6756 6757 6758 
6759 6760 6761 6762 6763 6764 6765 6766 6767 
6768 6769 6770 6771 6772 6773 6774 6775 6776 
6777 6778 6779 6780 6781 6782 6783 6784 6785 
6786 6787 6788 6789 6790 6791 6792 6793 6794 
6795 6796 6797 6798 6799 6800 6801 6802 6803 
6804 6805 6806 6807 6808 6809 6810 6811 6812 
6813 6814 6815 6816 6817 6818 6819 6820 6821 
6822 6823 6824 6825 6826 6827 6828 6829 6830 
6831 6832 6833 6834 6835 6836 6837 6838 6839 
6840 6841 6842 6843 6844 6845 6846 6847 6848 
6849 6850 6851 6852 6853 6854 6855 6856 6857 
6858 6859 6860 6861 6862 6863 6864 6865 6866 
6867 6868 6869 6870 6871 6872 6873 6874 6875 
6876 6877 6878 6879 6880 6881 6882 6883 6884 
6885 6886 6887 6888 6889 6890 6891 6892 6893 
6894 6895 6896 6897 6898 6899 6900 6901 6902 
6903 6904 6905 6906 6907 6908 6909 6910 6911 
6912 6913 6914 6915 6916 6917 6918 6919 6920 
6921 6922 6923 6924 6925 6926 6927 6928 6929 
6930 6931 6932 6933 6934 6935 6936 6937 6938 
6939 6940 6941 6942 6943 6944 6945 6946 6947 
6948 6949 6950 6951 6952 6953 6954 6955 6956 
6957 6958 6959 6960 6961 6962 6963 6964 6965 
6966 6967 6968 6969 6970 6971 6972 6973 6974 
6975 6976 6977 6978 6979 6980 6981 6982 6983 
6984 6985 6986 6987 6988 6989 6990 6991 6992 
6993 6994 6995 6996 6997 6998 6999 7000 7001 
7002 7003 7004 7005 7006 7007 7008 7009 7010 
7011 7012 7013 7014 7015 7016 7017 7018 7019 
7020 7021 7022 7023 7024 7025 7026 7027 7028 
7029 7030 7031 7032 7033 7034 7035 7036 7037 
7038 7039 7040 7041 7042 7043 7044 7045 7046 
7047 7048 7049 7050 7051 7052 7053 7054 7055 
7056 7057 7058 7059 7060 7061 7062 7063 7064 
7065 7066 7067 7068 7069 7070 7071 7072 7073 
7074 7075 7076 7077 7078 7079 7080 7081 7082 
7083 7084 7085 7086 7087 7088 7089 7090 7091 
7092 7093 7094 7095 7096 7097 7098 7099 7100 
7101 7102 7103 7104 7105 7106 7107 7108 7109 
7110 7111 7112 7113 7114 7115 7116 7117 7118 
7119 7120 7121 7122 7123 7124 7125 7126 7127 
7128 7129 7130 7131 7132 7133 7134 7135 7136 
7137 7138 7139 7140 7141 7142 7143 7144 7145 
7146 7147 7148 7149 7150 7151 7152 7153 7154 
7155 7156 7157 7158 7159 7160 7161 7162 7163 
7164 7165 7166 7167 7168 7169 7170 7171 7172 
7173 7174 7175 7176 7177 7178 7179 7180 7181 
7182 7183 7184 7185 7186 7187 7188 7189 7190 
7191 7192 7193 7194 7195 7196 7197 7198 7199 
7200 7201 7202 7203 7204 7205 7206 7207 7208 
7209 7210 7211 7212 7213 7214 7215 7216 7217 
7218 7219 7220 7221 7222 7223 7224 7225 7226 
7227 7228 7229 7230 7231 7232 7233 7234 7235 
7236 7237 7238 7239 7240 7241 7242 7243 7244 
7245 7246 7247 7248 7249 7250 7251 7252 7253 
7254 7255 7256 7257 7258 7259 7260 7261 7262 
7263 7264 7265 7266 7267 7268 7269 7270 7271 
7272 7273 7274 7275 7276 7277 7278 7279 7280 
7281 7282 7283 7284 7285 7286 7287 7288 7289 
7290 7291 7292 7293 7294 7295 7296 7297 7298 
7299 7300 7301 7302 7303 7304 7305 7306 7307 
7308 7309 7310 7311 7312 7313 7314 7315 7316 
7317 7318 7319 7320 7321 7322 7323 7324 7325 
7326 7327 7328 7329 7330 7331 7332 7333 7334 
7335 7336 7337 7338 7339 7340 7341 7342 7343 
7344 7345 7346 7347 7348 7349 7350 7351 7352 
7353 7354 7355 7356 7357 7358 7359 7360 7361 
7362 7363 7364 7365 7366 7367 7368 7369 7370 
7371 7372 7373 7374 7375 7376 7377 7378 7379 
7380 7381 7382 7383 7384 7385 7386 7387 7388 
7389 7390 7391 7392 7393 7394 7395 7396 7397 
7398 7399 7400 7401 7402 7403 7404 7405 7406 
7407 7408 7409 7410 7411 7412 7413 7414 7415 
7416 7417 7418 7419 7420 7421 7422 7423 7424 
7425 7426 7427 7428 7429 7430 7431 7432 7433 
7434 7435 7436 7437 7438 7439 7440 7441 7442 
7443 7444 7445 7446 7447 7448 7449 7450 7451 
7452 7453 7454 7455 7456 7457 7458 7459 7460 
7461 7462 7463 7464 7465 7466 7467 7468 7469 
7470 7471 7472 7473 7474 7475 7476 7477 7478 
7479 7480 7481 7482 7483 7484 7485 7486 7487 
7488 7489 7490 7491 7492 7493 7494 7495 7496 
7497 7498 7499 7500 7501 7502 7503 7504 7505 
7506 7507 7508 7509 7510 7511 7512 7513 7514 
7515 7516 7517 7518 7519 7520 7521 7522 7523 
7524 7525 7526 7527 7528 7529 7530 7531 7532 
7533 7534 7535 7536 7537 7538 7539 7540 7541 
7542 7543 7544 7545 7546 7547 7548 7549 7550 
7551 7552 7553 7554 7555 7556 7557 7558 7559 
7560 7561 7562 7563 7564 7565 7566 7567 7568 
7569 7570 7571 7572 7573 7574 7575 7576 7577 
7578 7579 7580 7581 7582 7583 7584 7585 7586 
7587 7588 7589 7590 7591 7592 7593 7594 7595 
7596 7597 7598 7599 7600 7601 7602 7603 7604 
7605 7606 7607 7608 7609 7610 7611 7612 7613 
7614 7615 7616 7617 7618 7619 7620 7621 7622 
7623 7624 7625 7626 7627 7628 7629 7630 7631 
7632 7633 7634 7635 7636 7637 7638 7639 7640 
7641 7642 7643 7644 7645 7646 7647 7648 7649 
7650 7651 7652 7653 7654 7655 7656 7657 7658 
7659 7660 7661 7662 7663 7664 7665 7666 7667 
7668 7669 7670 7671 7672 7673 7674 7675 7676 
7677 7678 7679 7680 7681 7682 7683 7684 7685 
7686 7687 7688 7689 7690 7691 7692 7693 7694 
7695 7696 7697 7698 7699 7700 7701 7702 7703 
7704 7705 7706 7707 7708 7709 7710 7711 7712 
7713 7714 7715 7716 7717 7718 7719 7720 7721 
7722 7723 7724 7725 7726 7727 7728 7729 7730 
7731 7732 7733 7734 7735 7736 7737 7738 7739 
7740 7741 7742 7743 7744 7745 7746 7747 7748 
7749 7750 7751 7752 7753 7754 7755 7756 7757 
7758 7759 7760 7761 7762 7763 7764 7765 7766 
7767 7768 7769 7770 7771 7772 7773 7774 7775 
7776 7777 7778 7779 7780 7781 7782 7783 7784 
7785 7786 7787 7788 7789 7790 7791 7792 7793 
7794 7795 7796 7797 7798 7799 7800 7801 7802 
7803 7804 7805 7806 7807 7808 7809 7810 7811 
7812 7813 7814 7815 7816 7817 7818 7819 7820 
7821 7822 7823 7824 7825 7826 7827 7828 7829 
7830 7831 7832 7833 7834 7835 7836 7837 7838 
7839 7840 7841 7842 7843 7844 7845 7846 7847 
7848 7849 7850 7851 7852 7853 7854 7855 7856 
7857 7858 7859 7860 7861 7862 7863 7864 7865 
7866 7867 7868 7869 7870 7871 7872 7873 7874 
7875 7876 7877 7878 7879 7880 7881 7882 7883 
7884 7885 7886 7887 7888 7889 7890 7891 7892 
7893 7894 7895 7896 7897 7898 7899 7900 7901 
7902 7903 7904 7905 7906 7907 7908 7909 7910 
7911 7912 7913 7914 7915 7916 7917 7918 7919 
7920 7921 7922 7923 7924 7925 7926 7927 7928 
7929 7930 7931 7932 7933 7934 7935 7936 7937 
7938 7939 7940 7941 7942 7943 7944 7945 7946 
7947 7948 7949 7950 7951 7952 7953 7954 7955 
7956 7957 7958 7959 7960 7961 7962 7963 7964 
7965 7966 7967 7968 7969 7970 7971 7972 7973 
7974 7975 7976 7977 7978 7979 7980 7981 7982 
7983 7984 7985 7986 7987 7988 7989 7990 7991 
7992 7993 7994 7995 7996 7997 7998 7999 8000 
8001 8002 8003 8004 8005 8006 8007 8008 8009 
8010 8011 8012 8013 8014 8015 8016 8017 8018 
8019 8020 8021 8022 8023 8024 8025 8026 8027 
8028 8029 8030 8031 8032 8033 8034 8035 8036 
8037 8038 8039 8040 8041 8042 8043 8044 8045 
8046 8047 8048 8049 8050 8051 8052 8053 8054 
8055 8056 8057 8058 8059 8060 8061 8062 8063 
8064 8065 8066 8067 8068 8069 8070 8071 8072 
8073 8074 8075 8076 8077 8078 8079 8080 8081 
8082 8083 8084 8085 8086 8087 8088 8089 8090 
8091 8092 8093 8094 8095 8096 8097 8098 8099 
8100 8101 8102 8103 8104 8105 8106 8107 8108 
8109 8110 8111 8112 8113 8114 8115 8116 8117 
8118 8119 8120 8121 8122 8123 8124 8125 8126 
8127 8128 8129 8130 8131 8132 8133 8134 8135 
8136 8137 8138 8139 8140 8141 8142 8143 8144 
8145 8146 8147 8148 8149 8150 8151 8152 8153 
8154 8155 8156 8157 8158 8159 8160 8161 8162 
8163 8164 8165 8166 8167 8168 8169 8170 8171 
8172 8173 8174 8175 8176 8177 8178 8179 8180 
8181 8182 8183 8184 8185 8186 8187 8188 8189 
8190 8191 8192 8193 8194 8195 8196 8197 8198 
8199 8200 8201 8202 8203 8204 8205 8206 8207 
8208 8209 8210 8211 8212 8213 8214 8215 8216 
8217 8218 8219 8220 8221 8222 8223 8224 8225 
8226 8227 8228 8229 8230 8231 8232 8233 8234 
8235 8236 8237 8238 8239 8240 8241 8242 8243 
8244 8245 8246 8247 8248 8249 8250 8251 8252 
8253 8254 8255 8256 8257 8258 8259 8260 8261 
8262 8263 8264 8265 8266 8267 8268 8269 8270 
8271 8272 8273 8274 8275 8276 8277 8278 8279 
8280 8281 8282 8283 8284 8285 8286 8287 8288 
8289 8290 8291 8292 8293 8294 8295 8296 8297 
8298 8299 8300 8301 8302 8303 8304 8305 8306 
8307 8308 8309 8310 8311 8312 8313 8314 8315 
8316 8317 8318 8319 8320 8321 8322 8323 8324 
8325 8326 8327 8328 8329 8330 8331 8332 8333 
8334 8335 8336 8337 8338 8339 8340 8341 8342 
8343 8344 8345 8346 8347 8348 8349 8350 8351 
8352 8353 8354 8355 8356 8357 8358 8359 8360 
8361 8362 8363 8364 8365 8366 8367 8368 8369 
8370 8371 8372 8373 8374 8375 8376 8377 8378 
8379 8380 8381 8382 8383 8384 8385 8386 8387 
8388 8389 8390 8391 8392 8393 8394 8395 8396 
8397 8398 8399 8400 8401 8402 8403 8404 8405 
8406 8407 8408 8409 8410 8411 8412 8413 8414 
8415 8416 8417 8418 8419 8420 8421 8422 8423 
8424 8425 8426 8427 8428 8429 8430 8431 8432 
8433 8434 8435 8436 8437 8438 8439 8440 8441 
8442 8443 8444 8445 8446 8447 8448 8449 8450 
8451 8452 8453 8454 8455 8456 8457 8458 8459 
8460 8461 8462 8463 8464 8465 8466 8467 8468 
8469 8470 8471 8472 8473 8474 8475 8476 8477 
8478 8479 8480 8481 8482 8483 8484 8485 8486 
8487 8488 8489 8490 8491 8492 8493 8494 8495 
8496 8497 8498 8499 8500 8501 8502 8503 8504 
8505 8506 8507 8508 8509 8510 8511 8512 8513 
8514 8515 8516 8517 8518 8519 8520 8521 8522 
8523 8524 8525 8526 8527 8528 8529 8530 8531 
8532 8533 8534 8535 8536 8537 8538 8539 8540 
8541 8542 8543 8544 8545 8546 8547 8548 8549 
8550 8551 8552 8553 8554 8555 8556 8557 8558 
8559 8560 8561 8562 8563 8564 8565 8566 8567 
8568 8569 8570 8571 8572 8573 8574 8575 8576 
8577 8578 8579 8580 8581 8582 8583 8584 8585 
8586 8587 8588 8589 8590 8591 8592 8593 8594 
8595 8596 8597 8598 8599 8600 8601 8602 8603 
8604 8605 8606 8607 8608 8609 8610 8611 8612 
8613 8614 8615 8616 8617 8618 8619 8620 8621 
8622 8623 8624 8625 8626 8627 8628 8629 8630 
8631 8632 8633 8634 8635 8636 8637 8638 8639 
8640 8641 8642 8643 8644 8645 8646 8647 8648 
8649 8650 8651 8652 8653 8654 8655 8656 8657 
8658 8659 8660 8661 8662 8663 8664 8665 8666 
8667 8668 8669 8670 8671 8672 8673 8674 8675 
8676 8677 8678 8679 8680 8681 8682 8683 8684 
8685 8686 8687 8688 8689 8690 8691 8692 8693 
8694 8695 8696 8697 8698 8699 8700 8701 8702 
8703 8704 8705 8706 8707 8708 8709 8710 8711 
8712 8713 8714 8715 8716 8717 8718 8719 8720 
8721 8722 8723 8724 8725 8726 8727 8728 8729 
8730 8731 8732 8733 8734 8735 8736 8737 8738 
8739 8740 8741 8742 8743 8744 8745 8746 8747 
8748 8749 8750 8751 8752 8753 8754 8755 8756 
8757 8758 8759 8760 8761 8762 8763 8764 8765 
8766 8767 8768 8769 8770 8771 8772 8773 8774 
8775 8776 8777 8778 8779 8780 8781 8782 8783 
8784 8785 8786 8787 8788 8789 8790 8791 8792 
8793 8794 8795 8796 8797 8798 8799 8800 8801 
8802 8803 8804 8805 8806 8807 8808 8809 8810 
8811 8812 8813 8814 8815 8816 8817 8818 8819 
8820 8821 8822 8823 8824 8825 8826 8827 8828 
8829 8830 8831 8832 8833 8834 8835 8836 8837 
8838 8839 8840 8841 8842 8843 8844 8845 8846 
8847 8848 8849 8850 8851 8852 8853 8854 8855 
8856 8857 8858 8859 8860 8861 8862 8863 8864 
8865 8866 8867 8868 8869 8870 8871 8872 8873 
8874 8875 8876 8877 8878 8879 8880 8881 8882 
8883 8884 8885 8886 8887 8888 8889 8890 8891 
8892 8893 8894 8895 8896 8897 8898 8899 8900 
8901 8902 8903 8904 8905 8906 8907 8908 8909 
8910 8911 8912 8913 8914 8915 8916 8917 8918 
8919 8920 8921 8922 8923 8924 8925 8926 8927 
8928 8929 8930 8931 8932 8933 8934 8935 8936 
8937 8938 8939 8940 8941 8942 8943 8944 8945 
8946 8947 8948 8949 8950 8951 8952 8953 8954 
8955 8956 8957 8958 8959 8960 8961 8962 8963 
8964 8965 8966 8967 8968 8969 8970 8971 8972 
8973 8974 8975 8976 8977 8978 8979 8980 8981 
8982 8983 8984 8985 8986 8987 8988 8989 8990 
8991 8992 8993 8994 8995 8996 8997 8998 8999 
9000 9001 9002 9003 9004 9005 9006 9007 9008 
9009 9010 9011 9012 9013 9014 9015 9016 9017 
9018 9019 9020 9021 9022 9023 9024 9025 9026 
9027 9028 9029 9030 9031 9032 9033 9034 9035 
9036 9037 9038 9039 9040 9041 9042 9043 9044 
9045 9046 9047 9048 9049 9050 9051 9052 9053 
9054 9055 9056 9057 9058 9059 9060 9061 9062 
9063 9064 9065 9066 9067 9068 9069 9070 9071 
9072 9073 9074 9075 9076 9077 9078 9079 9080 
9081 9082 9083 9084 9085 9086 9087 9088 9089 
9090 9091 9092 9093 9094 9095 9096 9097 9098 
9099 9100 9101 9102 9103 9104 9105 9106 9107 
9108 9109 9110 9111 9112 9113 9114 9115 9116 
9117 9118 9119 9120 9121 9122 9123 9124 9125 
9126 9127 9128 9129 9130 9131 9132 9133 9134 
9135 9136 9137 9138 9139 9140 9141 9142 9143 
9144 9145 9146 9147 9148 9149 9150 9151 9152 
9153 9154 9155 9156 9157 9158 9159 9160 9161 
9162 9163 9164 9165 9166 9167 9168 9169 9170 
9171 9172 9173 9174 9175 9176 9177 9178 9179 
9180 9181 9182 9183 9184 9185 9186 9187 9188 
9189 9190 9191 9192 9193 9194 9195 9196 9197 
9198 9199 9200 9201 9202 9203 9204 9205 9206 
9207 9208 9209 9210 9211 9212 9213 9214 9215 
9216 9217 9218 9219 9220 9221 9222 9223 9224 
9225 9226 9227 9228 9229 9230 9231 9232 9233 
9234 9235 9236 9237 9238 9239 9240 9241 9242 
9243 9244 9245 9246 9247 9248 9249 9250 9251 
9252 9253 9254 9255 9256 9257 9258 9259 9260 
9261 9262 9263 9264 9265 9266 9267 9268 9269 
9270 9271 9272 9273 9274 9275 9276 9277 9278 
9279 9280 9281 9282 9283 9284 9285 9286 9287 
9288 9289 9290 9291 9292 9293 9294 9295 9296 
9297 9298 9299 9300 9301 9302 9303 9304 9305 
9306 9307 9308 9309 9310 9311 9312 9313 9314 
9315 9316 9317 9318 9319 9320 9321 9322 9323 
9324 9325 9326 9327 9328 9329 9330 9331 9332 
9333 9334 9335 9336 9337 9338 9339 9340 9341 
9342 9343 9344 9345 9346 9347 9348 9349 9350 
9351 9352 9353 9354 9355 9356 9357 9358 9359 
9360 9361 9362 9363 9364 9365 9366 9367 9368 
9369 9370 9371 9372 9373 9374 9375 9376 9377 
9378 9379 9380 9381 9382 9383 9384 9385 9386 
9387 9388 9389 9390 9391 9392 9393 9394 9395 
9396 9397 9398 9399 9400 9401 9402 9403 9404 
9405 9406 9407 9408 9409 9410 9411 9412 9413 
9414 9415 9416 9417 9418 9419 9420 9421 9422 
9423 9424 9425 9426 9427 9428 9429 9430 9431 
9432 9433 9434 9435 9436 9437 9438 9439 9440 
9441 9442 9443 9444 9445 9446 9447 9448 9449 
9450 9451 9452 9453 9454 9455 9456 9457 9458 
9459 9460 9461 9462 9463 9464 9465 9466 9467 
9468 9469 9470 9471 9472 9473 9474 9475 9476 
9477 9478 9479 9480 9481 9482 9483 9484 9485 
9486 9487 9488 9489 9490 9491 9492 9493 9494 
9495 9496 9497 9498 9499 9500 9501 9502 9503 
9504 9505 9506 9507 9508 9509 9510 9511 9512 
9513 9514 9515 9516 9517 9518 9519 9520 9521 
9522 9523 9524 9525 9526 9527 9528 9529 9530 
9531 9532 9533 9534 9535 9536 9537 9538 9539 
9540 9541 9542 9543 9544 9545 9546 9547 9548 
9549 9550 9551 9552 9553 9554 9555 9556 9557 
9558 9559 9560 9561 9562 9563 9564 9565 9566 
9567 9568 9569 9570 9571 9572 9573 9574 9575 
9576 9577 9578 9579 9580 9581 9582 9583 9584 
9585 9586 9587 9588 9589 9590 9591 9592 9593 
9594 9595 9596 9597 9598 9599 9600 9601 9602 
9603 9604 9605 9606 9607 9608 9609 9610 9611 
9612 9613 9614 9615 9616 9617 9618 9619 9620 
9621 9622 9623 9624 9625 9626 9627 9628 9629 
9630 9631 9632 9633 9634 9635 9636 9637 9638 
9639 9640 9641 9642 9643 9644 9645 9646 9647 
9648 9649 9650 9651 9652 9653 9654 9655 9656 
9657 9658 9659 9660 9661 9662 9663 9664 9665 
9666 9667 9668 9669 9670 9671 9672 9673 9674 
9675 9676 9677 9678 9679 9680 9681 9682 9683 
9684 9685 9686 9687 9688 9689 9690 9691 9692 
9693 9694 9695 9696 9697 9698 9699 9700 9701 
9702 9703 9704 9705 9706 9707 9708 9709 9710 
9711 9712 9713 9714 9715 9716 9717 9718 9719 
9720 9721 9722 9723 9724 9725 9726 9727 9728 
9729 9730 9731 9732 9733 9734 9735 9736 9737 
9738 9739 9740 9741 9742 9743 9744 9745 9746 
9747 9748 9749 9750 9751 9752 9753 9754 9755 
9756 9757 9758 9759 9760 9761 9762 9763 9764 
9765 9766 9767 9768 9769 9770 9771 9772 9773 
9774 9775 9776 9777 9778 9779 9780 9781 9782 
9783 9784 9785 9786 9787 9788 9789 9790 9791 
9792 9793 9794 9795 9796 9797 9798 9799 9800 
9801 9802 9803 9804 9805 9806 9807 9808 9809 
9810 9811 9812 9813 9814 9815 9816 9817 9818 
9819 9820 9821 9822 9823 9824 9825 9826 9827 
9828 9829 9830 9831 9832 9833 9834 9835 9836 
9837 9838 9839 9840 9841 9842 9843 9844 9845 
9846 9847 9848 9849 9850 9851 9852 9853 9854 
9855 9856 9857 9858 9859 9860 9861 9862 9863 
9864 9865 9866 9867 9868 9869 9870 9871 9872 
9873 9874 9875 9876 9877 9878 9879 9880 9881 
9882 9883 9884 9885 9886 9887 9888 9889 9890 
9891 9892 9893 9894 9895 9896 9897 9898 9899 
9900 9901 9902 9903 9904 9905 9906 9907 9908 
9909 9910 9911 9912 9913 9914 9915 9916 9917 
9918 9919 9920 9921 9922 9923 9924 9925 9926 
9927 9928 9929 9930 9931 9932 9933 9934 9935 
9936 9937 9938 9939 9940 9941 9942 9943 9944 
9945 9946 9947 9948 9949 9950 9951 9952 9953 
9954 9955 9956 9957 9958 9959 9960 9961 9962 
9963 9964 9965 9966 9967 9968 9969 9970 9971 
9972 9973 9974 9975 9976 9977 9978 9979 9980 
9981 9982 9983 9984 9985 9986 9987 9988 9989 
9990 9991 9992 9993 9994 9995 9996 9997 9998 
9999 10000 10001 10002 10003 10004 10005 10006 10007 
10008 10009 10010 10011 10012 10013 10014 10015 10016 
10017 10018 10019 10020 10021 10022 10023 10024 10025 
10026 10027 10028 10029 10030 10031 10032 10033 10034 
10035 10036 10037 10038 10039 10040 10041 10042 10043 
10044 10045 10046 10047 10048 10049 10050 10051 10052 
10053 10054 10055 10056 10057 10058 10059 10060 10061 
10062 10063 10064 10065 10066 10067 10068 10069 10070 
10071 10072 10073 10074 10075 10076 10077 10078 10079 
10080 10081 10082 10083 10084 10085 10086 10087 10088 
10089 10090 10091 10092 10093 10094 10095 10096 10097 
10098 10099 10100 10101 10102 10103 10104 10105 10106 
10107 10108 10109 10110 10111 10112 10113 10114 10115 
10116 10117 10118 10119 10120 10121 10122 10123 10124 
10125 10126 10127 10128 10129 10130 10131 10132 10133 
10134 10135 10136 10137 10138 10139 10140 10141 10142 
10143 10144 10145 10146 10147 10148 10149 10150 10151 
10152 10153 10154 10155 10156 10157 10158 10159 10160 
10161 10162 10163 10164 10165 10166 10167 10168 10169 
10170 10171 10172 10173 10174 10175 10176 10177 10178 
10179 10180 10181 10182 10183 10184 10185 10186 10187 
10188 10189 10190 10191 10192 10193 10194 10195 10196 
10197 10198 10199 10200 10201 10202 10203 10204 10205 
10206 10207 10208 10209 10210 10211 10212 10213 10214 
10215 10216 10217 10218 10219 10220 10221 10222 10223 
10224 10225 10226 10227 10228 10229 10230 10231 10232 
10233 10234 10235 10236 10237 10238 10239 10240 10241 
10242 10243 10244 10245 10246 10247 10248 10249 10250 
10251 10252 10253 10254 10255 10256 10257 10258 10259 
10260 10261 10262 10263 10264 10265 10266 10267 10268 
10269 10270 10271 10272 10273 10274 10275 10276 10277 
10278 10279 10280 10281 10282 10283 10284 10285 10286 
10287 10288 10289 10290 10291 10292 10293 10294 10295 
10296 10297 10298 10299 10300 10301 10302 10303 10304 
10305 10306 10307 10308 10309 10310 10311 10312 10313 
10314 10315 10316 10317 10318 10319 10320 10321 10322 
10323 10324 10325 10326 10327 10328 10329 10330 10331 
10332 10333 10334 10335 10336 10337 10338 10339 10340 
10341 10342 10343 10344 10345 10346 10347 10348 10349 
10350 10351 10352 10353 10354 10355 10356 10357 10358 
10359 10360 10361 10362 10363 10364 10365 10366 10367 
10368 10369 10370 10371 10372 10373 10374 10375 10376 
10377 10378 10379 10380 10381 10382 10383 10384 10385 
10386 10387 10388 10389 10390 10391 10392 10393 10394 
10395 10396 10397 10398 10399 10400 10401 10402 10403 
10404 10405 10406 10407 10408 10409 10410 10411 10412 
10413 10414 10415 10416 10417 10418 10419 10420 10421 
10422 10423 10424 10425 10426 10427 10428 10429 10430 
10431 10432 10433 10434 10435 10436 10437 10438 10439 
10440 10441 10442 10443 10444 10445 10446 10447 10448 
10449 10450 10451 10452 10453 10454 10455 10456 10457 
10458 10459 10460 10461 10462 10463 10464 10465 10466 
10467 10468 10469 10470 10471 10472 10473 10474 10475 
10476 10477 10478 10479 10480 10481 10482 10483 10484 
10485 10486 10487 10488 10489 10490 10491 10492 10493 
10494 10495 10496 10497 10498 10499 10500 10501 10502 
10503 10504 10505 10506 10507 10508 10509 10510 10511 
10512 10513 10514 10515 10516 10517 10518 10519 10520 
10521 10522 10523 10524 10525 10526 10527 10528 10529 
10530 10531 10532 10533 10534 10535 10536 10537 10538 
10539 10540 10541 10542 10543 10544 10545 10546 10547 
10548 10549 10550 10551 10552 10553 10554 10555 10556 
10557 10558 10559 10560 10561 10562 10563 10564 10565 
10566 10567 10568 10569 10570 10571 10572 10573 10574 
10575 10576 10577 10578 10579 10580 10581 10582 10583 
10584 10585 10586 10587 10588 10589 10590 10591 10592 
10593 10594 10595 10596 10597 10598 10599 10600 10601 
10602 10603 10604 10605 10606 10607 10608 10609 10610 
10611 10612 10613 10614 10615 10616 10617 10618 10619 
10620 10621 10622 10623 10624 10625 10626 10627 10628 
10629 10630 10631 10632 10633 10634 10635 10636 10637 
10638 10639 10640 10641 10642 10643 10644 10645 10646 
10647 10648 10649 10650 10651 10652 10653 10654 10655 
10656 10657 10658 10659 10660 10661 10662 10663 10664 
10665 10666 10667 10668 10669 10670 10671 10672 10673 
10674 10675 10676 10677 10678 10679 10680 10681 10682 
10683 10684 10685 10686 10687 10688 10689 10690 10691 
10692 10693 10694 10695 10696 10697 10698 10699 10700 
10701 10702 10703 10704 10705 10706 10707 10708 10709 
10710 10711 10712 10713 10714 10715 10716 10717 10718 
10719 10720 10721 10722 10723 10724 10725 10726 10727 
10728 10729 10730 10731 10732 10733 10734 10735 10736 
10737 10738 10739 10740 10741 10742 10743 10744 10745 
10746 10747 10748 10749 10750 10751 10752 10753 10754 
10755 10756 10757 10758 10759 10760 10761 10762 10763 
10764 10765 10766 10767 10768 10769 10770 10771 10772 
10773 10774 10775 10776 10777 10778 10779 10780 10781 
10782 10783 10784 10785 10786 10787 10788 10789 10790 
10791 10792 10793 10794 10795 10796 10797 10798 10799 
10800 10801 10802 10803 10804 10805 10806 10807 10808 
10809 10810 10811 10812 10813 10814 10815 10816 10817 
10818 10819 10820 10821 10822 10823 10824 10825 10826 
10827 10828 10829 10830 10831 10832 10833 10834 10835 
10836 10837 10838 10839 10840 10841 10842 10843 10844 
10845 10846 10847 10848 10849 10850 10851 10852 10853 
10854 10855 10856 10857 10858 10859 10860 10861 10862 
10863 10864 10865 10866 10867 10868 10869 10870 10871 
10872 10873 10874 10875 10876 10877 10878 10879 10880 
10881 10882 10883 10884 10885 10886 10887 10888 10889 
10890 10891 10892 10893 10894 10895 10896 10897 10898 
10899 10900 10901 10902 10903 10904 10905 10906 10907 
10908 10909 10910 10911 10912 10913 10914 10915 10916 
10917 10918 10919 10920 10921 10922 10923 10924 10925 
10926 10927 10928 10929 10930 10931 10932 10933 10934 
10935 10936 10937 10938 10939 10940 10941 10942 10943 
10944 10945 10946 10947 10948 10949 10950 10951 10952 
10953 10954 10955 10956 10957 10958 10959 10960 10961 
10962 10963 10964 10965 10966 10967 10968 10969 10970 
10971 10972 10973 10974 10975 10976 10977 10978 10979 
10980 10981 10982 10983 10984 10985 10986 10987 10988 
10989 10990 10991 10992 10993 10994 10995 10996 10997 
10998 10999 11000 11001 11002 11003 11004 11005 11006 
11007 11008 11009 11010 11011 11012 11013 11014 11015 
11016 11017 11018 11019 11020 11021 11022 11023 11024 
11025 11026 11027 11028 11029 11030 11031 11032 11033 
11034 11035 11036 11037 11038 11039 11040 11041 11042 
11043 11044 11045 11046 11047 11048 11049 11050 11051 
11052 11053 11054 11055 11056 11057 11058 11059 11060 
11061 11062 11063 11064 11065 11066 11067 11068 11069 
11070 11071 11072 11073 11074 11075 11076 11077 11078 
11079 11080 11081 11082 11083 11084 11085 11086 11087 
11088 11089 11090 11091 11092 11093 11094 11095 11096 
11097 11098 11099 11100 11101 11102 11103 11104 11105 
11106 11107 11108 11109 11110 11111 11112 11113 11114 
11115 11116 11117 11118 11119 11120 11121 11122 11123 
11124 11125 11126 11127 11128 11129 11130 11131 11132 
11133 11134 11135 11136 11137 11138 11139 11140 11141 
11142 11143 11144 11145 11146 11147 11148 11149 11150 
11151 11152 11153 11154 11155 11156 11157 11158 11159 
11160 11161 11162 11163 11164 11165 11166 11167 11168 
11169 11170 11171 11172 11173 11174 11175 11176 11177 
11178 11179 11180 11181 11182 11183 11184 11185 11186 
11187 11188 11189 11190 11191 11192 11193 11194 11195 
11196 11197 11198 11199 11200 11201 11202 11203 11204 
11205 11206 11207 11208 11209 11210 11211 11212 11213 
11214 11215 11216 11217 11218 11219 11220 11221 11222 
11223 11224 11225 11226 11227 11228 11229 11230 11231 
11232 11233 11234 11235 11236 11237 11238 11239 11240 
11241 11242 11243 11244 11245 11246 11247 11248 11249 
11250 11251 11252 11253 11254 11255 11256 11257 11258 
11259 11260 11261 11262 11263 11264 11265 11266 11267 
11268 11269 11270 11271 11272 11273 11274 11275 11276 
11277 11278 11279 11280 11281 11282 11283 11284 11285 
11286 11287 11288 11289 11290 11291 11292 11293 11294 
11295 11296 11297 11298 11299 11300 11301 11302 11303 
11304 11305 11306 11307 11308 11309 11310 11311 11312 
11313 11314 11315 11316 11317 11318 11319 11320 11321 
11322 11323 11324 11325 11326 11327 11328 11329 11330 
11331 11332 11333 11334 11335 11336 11337 11338 11339 
11340 11341 11342 11343 11344 11345 11346 11347 11348 
11349 11350 11351 11352 11353 11354 11355 11356 11357 
11358 11359 11360 11361 11362 11363 11364 11365 11366 
11367 11368 11369 11370 11371 11372 11373 11374 11375 
11376 11377 11378 11379 11380 11381 11382 11383 11384 
11385 11386 11387 11388 11389 11390 11391 11392 11393 
11394 11395 11396 11397 11398 11399 11400 11401 11402 
11403 11404 11405 11406 11407 11408 11409 11410 11411 
11412 11413 11414 11415 11416 11417 11418 11419 11420 
11421 11422 11423 11424 11425 11426 11427 11428 11429 
11430 11431 11432 11433 11434 11435 11436 11437 11438 
11439 11440 11441 11442 11443 11444 11445 11446 11447 
11448 11449 11450 11451 11452 11453 11454 11455 11456 
11457 11458 11459 11460 11461 11462 11463 11464 11465 
11466 11467 11468 11469 11470 11471 11472 11473 11474 
11475 11476 11477 11478 11479 11480 11481 11482 11483 
11484 11485 11486 11487 11488 11489 11490 11491 11492 
11493 11494 11495 11496 11497 11498 11499 11500 11501 
11502 11503 11504 11505 11506 11507 11508 11509 11510 
11511 11512 11513 11514 11515 11516 11517 11518 11519 
11520 11521 11522 11523 11524 11525 11526 11527 11528 
11529 11530 11531 11532 11533 11534 11535 11536 11537 
11538 11539 11540 11541 11542 11543 11544 11545 11546 
11547 11548 11549 11550 11551 11552 11553 11554 11555 
11556 11557 11558 11559 11560 11561 11562 11563 11564 
11565 11566 11567 11568 11569 11570 11571 11572 11573 
11574 11575 11576 11577 11578 11579 11580 11581 11582 
11583 11584 11585 11586 11587 11588 11589 11590 11591 
11592 11593 11594 11595 11596 11597 11598 11599 11600 
11601 11602 11603 11604 11605 11606 11607 11608 11609 
11610 11611 11612 11613 11614 11615 11616 11617 11618 
11619 11620 11621 11622 11623 11624 11625 11626 11627 
11628 11629 11630 11631 11632 11633 11634 11635 11636 
11637 11638 11639 11640 11641 11642 11643 11644 11645 
11646 11647 11648 11649 11650 11651 11652 11653 11654 
11655 11656 11657 11658 11659 11660 11661 11662 11663 
11664 11665 11666 11667 11668 11669 11670 11671 11672 
11673 11674 11675 11676 11677 11678 11679 11680 11681 
11682 11683 11684 11685 11686 11687 11688 11689 11690 
11691 11692 11693 11694 11695 11696 11697 11698 11699 
11700 11701 11702 11703 11704 11705 11706 11707 11708 
11709 11710 11711 11712 11713 11714 11715 11716 11717 
11718 11719 11720 11721 11722 11723 11724 11725 11726 
11727 11728 11729 11730 11731 11732 11733 11734 11735 
11736 11737 11738 11739 11740 11741 11742 11743 11744 
11745 11746 11747 11748 11749 11750 11751 11752 11753 
11754 11755 11756 11757 11758 11759 11760 11761 11762 
11763 11764 11765 11766 11767 11768 11769 11770 11771 
11772 11773 11774 11775 11776 11777 11778 11779 11780 
11781 11782 11783 11784 11785 11786 11787 11788 11789 
11790 11791 11792 11793 11794 11795 11796 11797 11798 
11799 11800 11801 11802 11803 11804 11805 11806 11807 
11808 11809 11810 11811 11812 11813 11814 11815 11816 
11817 11818 11819 11820 11821 11822 11823 11824 11825 
11826 11827 11828 11829 11830 11831 11832 11833 11834 
11835 11836 11837 11838 11839 11840 11841 11842 11843 
11844 11845 11846 11847 11848 11849 11850 11851 11852 
11853 11854 11855 11856 11857 11858 11859 11860 11861 
11862 11863 11864 11865 11866 11867 11868 11869 11870 
11871 11872 11873 11874 11875 11876 11877 11878 11879 
11880 11881 11882 11883 11884 11885 11886 11887 11888 
11889 11890 11891 11892 11893 11894 11895 11896 11897 
11898 11899 11900 11901 11902 11903 11904 11905 11906 
11907 11908 11909 11910 11911 11912 11913 11914 11915 
11916 11917 11918 11919 11920 11921 11922 11923 11924 
11925 11926 11927 11928 11929 11930 11931 11932 11933 
11934 11935 11936 11937 11938 11939 11940 11941 11942 
11943 11944 11945 11946 11947 11948 11949 11950 11951 
11952 11953 11954 11955 11956 11957 11958 11959 11960 
11961 11962 11963 11964 11965 11966 11967 11968 11969 
11970 11971 11972 11973 11974 11975 11976 11977 11978 
11979 11980 11981 11982 11983 11984 11985 11986 11987 
11988 11989 11990 11991 11992 11993 11994 11995 11996 
11997 11998 11999 12000 12001 12002 12003 12004 12005 
12006 12007 12008 12009 12010 12011 12012 12013 12014 
12015 12016 12017 12018 12019 12020 12021 12022 12023 
12024 12025 12026 12027 12028 12029 12030 12031 12032 
12033 12034 12035 12036 12037 12038 12039 12040 12041 
12042 12043 12044 12045 12046 12047 12048 12049 12050 
12051 12052 12053 12054 12055 12056 12057 12058 12059 
12060 12061 12062 12063 12064 12065 12066 12067 12068 
12069 12070 12071 12072 12073 12074 12075 12076 12077 
12078 12079 12080 12081 12082 12083 12084 12085 12086 
12087 12088 12089 12090 12091 12092 12093 12094 12095 
12096 12097 12098 12099 12100 12101 12102 12103 12104 
12105 12106 12107 12108 12109 12110 12111 12112 12113 
12114 12115 12116 12117 12118 12119 12120 12121 12122 
12123 12124 12125 12126 12127 12128 12129 12130 12131 
12132 12133 12134 12135 12136 12137 12138 12139 12140 
12141 12142 12143 12144 12145 12146 12147 12148 12149 
12150 12151 12152 12153 12154 12155 12156 12157 12158 
12159 12160 12161 12162 12163 12164 12165 12166 12167 
12168 12169 12170 12171 12172 12173 12174 12175 12176 
12177 12178 12179 12180 12181 12182 12183 12184 12185 
12186 12187 12188 12189 12190 12191 12192 12193 12194 
12195 12196 12197 12198 12199 12200 12201 12202 12203 
12204 12205 12206 12207 12208 12209 12210 12211 12212 
12213 12214 12215 12216 12217 12218 12219 12220 12221 
12222 12223 12224 12225 12226 12227 12228 12229 12230 
12231 12232 12233 12234 12235 12236 12237 12238 12239 
12240 12241 12242 12243 12244 12245 12246 12247 12248 
12249 12250 12251 12252 12253 12254 12255 12256 12257 
12258 12259 12260 12261 12262 12263 12264 12265 12266 
12267 12268 12269 12270 12271 12272 12273 12274 12275 
12276 12277 12278 12279 12280 12281 12282 12283 12284 
12285 12286 12287 12288 12289 12290 12291 12292 12293 
12294 12295 12296 12297 12298 12299 12300 12301 12302 
12303 12304 12305 12306 12307 12308 12309 12310 12311 
12312 12313 12314 12315 12316 12317 12318 12319 12320 
12321 12322 12323 12324 12325 12326 12327 12328 12329 
12330 12331 12332 12333 12334 12335 12336 12337 12338 
12339 12340 12341 12342 12343 12344 12345 12346 12347 
12348 12349 12350 12351 12352 12353 12354 12355 12356 
12357 12358 12359 12360 12361 12362 12363 12364 12365 
12366 12367 12368 12369 12370 12371 12372 12373 12374 
12375 12376 12377 12378 12379 12380 12381 12382 12383 
12384 12385 12386 12387 12388 12389 12390 12391 12392 
12393 12394 12395 12396 12397 12398 12399 12400 12401 
12402 12403 12404 12405 12406 12407 12408 12409 12410 
      </DataArray>
      <DataArray type="Int32" Name="offsets" format="ascii">
9
18
27
36
45
54
63
72
81
90
99
108
117
126
135
144
153
162
171
180
189
198
207
216
225
234
243
252
261
270
279
288
297
306
315
324
333
342
351
360
369
378
387
396
405
414
423
432
441
450
459
468
477
486
495
504
513
522
531
540
549
558
567
576
585
594
603
612
621
630
639
648
657
666
675
684
693
702
711
720
729
738
747
756
765
774
783
792
801
810
819
828
837
846
855
864
873
882
891
900
909
918
927
936
945
954
963
972
981
990
999
1008
1017
1026
1035
1044
1053
1062
1071
1080
1089
1098
1107
1116
1125
1134
1143
1152
1161
1170
1179
1188
1197
1206
1215
1224
1233
1242
1251
1260
1269
1278
1287
1296
1305
1314
1323
1332
1341
1350
1359
1368
1377
1386
1395
1404
1413
1422
1431
1440
1449
1458
1467
1476
1485
1494
1503
1512
1521
1530
1539
1548
1557
1566
1575
1584
1593
1602
1611
1620
1629
1638
1647
1656
1665
1674
1683
1692
1701
1710
1719
1728
1737
1746
1755
1764
1773
1782
1791
1800
1809
1818
1827
1836
1845
1854
1863
1872
1881
1890
1899
1908
1917
1926
1935
1944
1953
1962
1971
1980
1989
1998
2007
2016
2025
2034
2043
2052
2061
2070
2079
2088
2097
2106
2115
2124
2133
2142
2151
2160
2169
2178
2187
2196
2205
2214
2223
2232
2241
2250
2259
2268
2277
2286
2295
2304
2313
2322
2331
2340
2349
2358
2367
2376
2385
2394
2403
2412
2421
2430
2439
2448
2457
2466
2475
2484
2493
2502
2511
2520
2529
2538
2547
2556
2565
2574
2583
2592
2601
2610
2619
2628
2637
2646
2655
2664
2673
2682
2691
2700
2709
2718
2727
2736
2745
2754
2763
2772
2781
2790
2799
2808
2817
2826
2835
2844
2853
2862
2871
2880
2889
2898
2907
2916
2925
2934
2943
2952
2961
2970
2979
2988
2997
3006
3015
3024
3033
3042
3051
3060
3069
3078
3087
3096
3105
3114
3123
3132
3141
3150
3159
3168
3177
3186
3195
3204
3213
3222
3231
3240
3249
3258
3267
3276
3285
3294
3303
3312
3321
3330
3339
3348
3357
3366
3375
3384
3393
3402
3411
3420
3429
3438
3447
3456
3465
3474
3483
3492
3501
3510
3519
3528
3537
3546
3555
3564
3573
3582
3591
3600
3609
3618
3627
3636
3645
3654
3663
3672
3681
3690
3699
3708
3717
3726
3735
3744
3753
3762
3771
3780
3789
3798
3807
3816
3825
3834
3843
3852
3861
3870
3879
3888
3897
3906
3915
3924
3933
3942
3951
3960
3969
3978
3987
3996
4005
4014
4023
4032
4041
4050
4059
4068
4077
4086
4095
4104
4113
4122
4131
4140
4149
4158
4167
4176
4185
4194
4203
4212
4221
4230
4239
4248
4257
4266
4275
4284
4293
4302
4311
4320
4329
4338
4347
4356
4365
4374
4383
4392
4401
4410
4419
4428
4437
4446
4455
4464
4473
4482
4491
4500
4509
4518
4527
4536
4545
4554
4563
4572
4581
4590
4599
4608
4617
4626
4635
4644
4653
4662
4671
4680
4689
4698
4707
4716
4725
4734
4743
4752
4761
4770
4779
4788
4797
4806
4815
4824
4833
4842
4851
4860
4869
4878
4887
4896
4905
4914
4923
4932
4941
4950
4959
4968
4977
4986
4995
5004
5013
5022
5031
5040
5049
5058
5067
5076
5085
5094
5103
5112
5121
5130
5139
5148
5157
5166
5175
5184
5193
5202
5211
5220
5229
5238
5247
5256
5265
5274
5283
5292
5301
5310
5319
5328
5337
5346
5355
5364
5373
5382
5391
5400
5409
5418
5427
5436
5445
5454
5463
5472
5481
5490
5499
5508
5517
5526
5535
5544
5553
5562
5571
5580
5589
5598
5607
5616
5625
5634
5643
5652
5661
5670
5679
5688
5697
5706
5715
5724
5733
5742
5751
5760
5769
5778
5787
5796
5805
5814
5823
5832
5841
5850
5859
5868
5877
5886
5895
5904
5913
5922
5931
5940
5949
5958
5967
5976
5985
5994
6003
6012
6021
6030
6039
6048
6057
6066
6075
6084
6093
6102
6111
6120
6129
6138
6147
6156
6165
6174
6183
6192
6201
6210
6219
6228
6237
6246
6255
6264
6273
6282
6291
6300
6309
6318
6327
6336
6345
6354
6363
6372
6381
6390
6399
6408
6417
6426
6435
6444
6453
6462
6471
6480
6489
6498
6507
6516
6525
6534
6543
6552
6561
6570
6579
6588
6597
6606
6615
6624
6633
6642
6651
6660
6669
6678
6687
6696
6705
6714
6723
6732
6741
6750
6759
6768
6777
6786
6795
6804
6813
6822
6831
6840
6849
6858
6867
6876
6885
6894
6903
6912
6921
6930
6939
6948
6957
6966
6975
6984
6993
7002
7011
7020
7029
7038
7047
7056
7065
7074
7083
7092
7101
7110
7119
7128
7137
7146
7155
7164
7173
7182
7191
7200
7209
7218
7227
7236
7245
7254
7263
7272
7281
7290
7299
7308
7317
7326
7335
7344
7353
7362
7371
7380
7389
7398
7407
7416
7425
7434
7443
7452
7461
7470
7479
7488
7497
7506
7515
7524
7533
7542
7551
7560
7569
7578
7587
7596
7605
7614
7623
7632
7641
7650
7659
7668
7677
7686
7695
7704
7713
7722
7731
7740
7749
7758
7767
7776
7785
7794
7803
7812
7821
7830
7839
7848
7857
7866
7875
7884
7893
7902
7911
7920
7929
7938
7947
7956
7965
7974
7983
7992
8001
8010
8019
8028
8037
8046
8055
8064
8073
8082
8091
8100
8109
8118
8127
8136
8145
8154
8163
8172
8181
8190
8199
8208
8217
8226
8235
8244
8253
8262
8271
8280
8289
8298
8307
8316
8325
8334
8343
8352
8361
8370
8379
8388
8397
8406
8415
8424
8433
8442
8451
8460
8469
8478
8487
8496
8505
8514
8523
8532
8541
8550
8559
8568
8577
8586
8595
8604
8613
8622
8631
8640
8649
8658
8667
8676
8685
8694
8703
8712
8721
8730
8739
8748
8757
8766
8775
8784
8793
8802
8811
8820
8829
8838
8847
8856
8865
8874
8883
8892
8901
8910
8919
8928
8937
8946
8955
8964
8973
8982
8991
9000
9009
9018
9027
9036
9045
9054
9063
9072
9081
9090
9099
9108
9117
9126
9135
9144
9153
9162
9171
9180
9189
9198
9207
9216
9225
9234
9243
9252
9261
9270
9279
9288
9297
9306
9315
9324
9333
9342
9351
9360
9369
9378
9387
9396
9405
9414
9423
9432
9441
9450
9459
9468
9477
9486
9495
9504
9513
9522
9531
9540
9549
9558
9567
9576
9585
9594
9603
9612
9621
9630
9639
9648
9657
9666
9675
9684
9693
9702
9711
9720
9729
9738
9747
9756
9765
9774
9783
9792
9801
9810
9819
9828
9837
9846
9855
9864
9873
9882
9891
9900
9909
9918
9927
9936
9945
9954
9963
9972
9981
9990
9999
10008
10017
10026
10035
10044
10053
10062
10071
10080
10089
10098
10107
10116
10125
10134
10143
10152
10161
10170
10179
10188
10197
10206
10215
10224
10233
10242
10251
10260
10269
10278
10287
10296
10305
10314
10323
10332
10341
10350
10359
10368
10377
10386
10395
10404
10413
10422
10431
10440
10449
10458
10467
10476
10485
10494
10503
10512
10521
10530
10539
10548
10557
10566
10575
10584
10593
10602
10611
10620
10629
10638
10647
10656
10665
10674
10683
10692
10701
10710
10719
10728
10737
10746
10755
10764
10773
10782
10791
10800
10809
10818
10827
10836
10845
10854
10863
10872
10881
10890
10899
10908
10917
10926
10935
10944
10953
10962
10971
10980
10989
10998
11007
11016
11025
11034
11043
11052
11061
11070
11079
11088
11097
11106
11115
11124
11133
11142
11151
11160
11169
11178
11187
11196
11205
11214
11223
11232
11241
11250
11259
11268
11277
11286
11295
11304
11313
11322
11331
11340
11349
11358
11367
11376
11385
11394
11403
11412
11421
11430
11439
11448
11457
11466
11475
11484
11493
11502
11511
11520
11529
11538
11547
11556
11565
11574
11583
11592
11601
11610
11619
11628
11637
11646
11655
11664
11673
11682
11691
11700
11709
11718
11727
11736
11745
11754
11763
11772
11781
11790
11799
11808
11817
11826
11835
11844
11853
11862
11871
11880
11889
11898
11907
11916
11925
11934
11943
11952
11961
11970
11979
11988
11997
12006
12015
12024
12033
12042
12051
12060
12069
12078
12087
12096
12105
12114
12123
12132
12141
12150
12159
12168
12177
12186
12195
12204
12213
12222
12231
12240
12249
12258
12267
12276
12285
12294
12303
12312
12321
12330
12339
12348
12357
12366
12375
12384
12393
12402
12411
      </DataArray>
      <DataArray type="UInt8" Name="types" format="ascii">
70
70
70
70
70
70
70
70
70
70
70
70
70
70
70
70
70
70
70
70
70
70
70
70
70
70
70
70
70
70
70
70
70
70
70
70
70
70
70
70
70
70
70
70
70
70
70
70
70
70
70
70
70
70
70
70
70
70
70
70
70
70
70
70
70
70
70
70
70
70
70
70
70
70
70
70
70
70
70
70
70
70
70
70
70
70
70
70
70
70
70
70
70
70
70
70
70
70
70
70
70
70
70
70
70
70
70
70
70
70
70
70
70
70
70
70
70
70
70
70
70
70
70
70
70
70
70
70
70
70
70
70
70
70
70
70
70
70
70
70
70
70
70
70
70
70
70
70
70
70
70
70
70
70
70
70
70
70
70
70
70
70
70
70
70
70
70
70
70
70
70
70
70
70
70
70
70
70
70
70
70
70
70
70
70
70
70
70
70
70
70
70
70
70
70
70
70
70
70
70
70
70
70
70
70
70
70
70
70
70
70
70
70
70
70
70
70
70
70
70
70
70
70
70
70
70
70
70
70
70
70
70
70
70
70
70
70
70
70
70
70
70
70
70
70
70
70
70
70
70
70
70
70
70
70
70
70
70
70
70
70
70
70
70
70
70
70
70
70
70
70
70
70
70
70
70
70
70
70
70
70
70
70
70
70
70
70
70
70
70
70
70
70
70
70
70
70
70
70
70
70
70
70
70
70
70
70
70
70
70
70
70
70
70
70
70
70
70
70
70
70
70
70
70
70
70
70
70
70
70
70
70
70
70
70
70
70
70
70
70
70
70
70
70
70
70
70
70
70
70
70
70
70
70
70
70
70
70
70
70
70
70
70
70
70
70
70
70
70
70
70
70
70
70
70
70
70
70
70
70
70
70
70
70
70
70
70
70
70
70
70
70
70
70
70
70
70
70
70
70
70
70
70
70
70
70
70
70
70
70
70
70
70
70
70
70
70
70
70
70
70
70
70
70
70
70
70
70
70
70
70
70
70
70
70
70
70
70
70
70
70
70
70
70
70
70
70
70
70
70
70
70
70
70
70
70
70
70
70
70
70
70
70
70
70
70
70
70
70
70
70
70
70
70
70
70
70
70
70
70
70
70
70
70
70
70
70
70
70
70
70
70
70
70
70
70
70
70
70
70
70
70
70
70
70
70
70
70
70
70
70
70
70
70
70
70
70
70
70
70
70
70
70
70
70
70
70
70
70
70
70
70
70
70
70
70
70
70
70
70
70
70
70
70
70
70
70
70
70
70
70
70
70
70
70
70
70
70
70
70
70
70
70
70
70
70
70
70
70
70
70
70
70
70
70
70
70
70
70
70
70
70
70
70
70
70
70
70
70
70
70
70
70
70
70
70
70
70
70
70
70
70
70
70
70
70
70
70
70
70
70
70
70
70
70
70
70
70
70
70
70
70
70
70
70
70
70
70
70
70
70
70
70
70
70
70
70
70
70
70
70
70
70
70
70
70
70
70
70
70
70
70
70
70
70
70
70
70
70
70
70
70
70
70
70
70
70
70
70
70
70
70
70
70
70
70
70
70
70
70
70
70
70
70
70
70
70
70
70
70
70
70
70
70
70
70
70
70
70
70
70
70
70
70
70
70
70
70
70
70
70
70
70
70
70
70
70
70
70
70
70
70
70
70
70
70
70
70
70
70
70
70
70
70
70
70
70
70
70
70
70
70
70
70
70
70
70
70
70
70
70
70
70
70
70
70
70
70
70
70
70
70
70
70
70
70
70
70
70
70
70
70
70
70
70
70
70
70
70
70
70
70
70
70
70
70
70
70
70
70
70
70
70
70
70
70
70
70
70
70
70
70
70
70
70
70
70
70
70
70
70
70
70
70
70
70
70
70
70
70
70
70
70
70
70
70
70
70
70
70
70
70
70
70
70
70
70
70
70
70
70
70
70
70
70
70
70
70
70
70
70
70
70
70
70
70
70
70
70
70
70
70
70
70
70
70
70
70
70
70
70
70
70
70
70
70
70
70
70
70
70
70
70
70
70
70
70
70
70
70
70
70
70
70
70
70
70
70
70
70
70
70
70
70
70
70
70
70
70
70
70
70
70
70
70
70
70
70
70
70
70
70
70
70
70
70
70
70
70
70
70
70
70
70
70
70
70
70
70
70
70
70
70
70
70
70
70
70
70
70
70
70
70
70
70
70
70
70
70
70
70
70
70
70
70
70
70
70
70
70
70
70
70
70
70
70
70
70
70
70
70
70
70
70
70
70
70
70
70
70
70
70
70
70
70
70
70
70
70
70
70
70
70
70
70
70
70
70
70
70
70
70
70
70
70
70
70
70
70
70
70
70
70
70
70
70
70
70
70
70
70
70
70
70
70
70
70
70
70
70
70
70
70
70
70
70
70
70
70
70
70
70
70
70
70
70
70
70
70
70
70
70
70
70
70
70
70
70
70
70
70
70
70
70
70
70
70
70
70
70
70
70
70
70
70
70
70
70
70
70
70
70
70
70
70
70
70
70
70
70
70
70
70
70
70
70
70
70
70
70
70
70
70
70
70
70
70
70
70
70
70
70
70
70
70
70
70
70
70
70
70
70
70
70
70
70
70
70
70
70
70
70
70
70
70
70
70
70
70
70
70
70
70
70
70
70
70
70
70
70
70
70
70
70
70
70
70
70
70
70
70
70
70
70
70
70
70
70
70
70
70
70
70
70
70
70
70
70
70
70
70
70
70
70
70
70
70
70
70
70
70
70
70
70
70
70
70
70
70
70
70
70
70
70
70
70
70
70
70
70
70
70
70
70
70
70
70
70
70
70
70
70
70
70
70
70
70
70
70
70
70
70
70
70
70
70
70
70
70
70
70
70
70
70
70
70
70
70
70
70
70
70
70
70
70
70
70
70
70
70
70
70
70
70
70
70
70
70
70
70
70
70
70
70
70
70
70
70
70
70
70
70
70
70
70
70
70
70
70
70
70
70
70
70
70
70
70
70
70
70
70
70
70
70
70
70
70
70
70
70
70
70
70
70
70
70
70
70
70
70
70
70
70
70
70
70
70
70
70
70
70
70
70
70
70
70
70
70
70
70
70
70
70
70
70
70
70
70
70
70
70
70
70
70
70
70
70
70
70
70
70
70
70
70
70
70
70
70
70
      </DataArray>
    </Cells>
    <PointData>
      <DataArray type="Float64" NumberOfComponents="3" Name="Displacement" format="ascii">
0 0 0
-0.00538615 -0.00268525 -0.00268525
-0.00321145 -0.000906674 -0.000906674
0 0 0
-0.00293097 -0.00167438 -0.00167438
-0.0040567 -0.00162271 -0.00162271
-0.0015583 -0.000324794 -0.000324794
0 0 0
-0.00193467 -0.000715351 -0.000715351
-0.00538615 -0.00268525 -0.00268525
-0.0100466 -0.00466244 -0.00466244
-0.00668894 -0.0026185 -0.0026185
-0.00321145 -0.000906674 -0.000906674
-0.00772311 -0.00363649 -0.00363649
-0.00828334 -0.00353689 -0.00353689
-0.00493365 -0.0016799 -0.0016799
-0.0040567 -0.00162271 -0.00162271
-0.00618195 -0.00255101 -0.00255101
-0.0100466 -0.00466244 -0.00466244
-0.0147486 -0.00704796 -0.00704796
-0.0101979 -0.00497074 -0.00497074
-0.00668894 -0.0026185 -0.0026185
-0.0123892 -0.00578527 -0.00578527
-0.0124483 -0.00593085 -0.00593085
-0.00844547 -0.0037118 -0.0037118
-0.00828334 -0.00353689 -0.00353689
-0.0103712 -0.00465582 -0.00465582
-0.0147486 -0.00704796 -0.00704796
-0.0194895 -0.0101182 -0.0101182
-0.0136895 -0.00803484 -0.00803484
-0.0101979 -0.00497074 -0.00497074
-0.0171155 -0.00849027 -0.00849027
-0.0165779 -0.00899445 -0.00899445
-0.0119467 -0.00640963 -0.00640963
-0.0124483 -0.00593085 -0.00593085
-0.014516 -0.00737261 -0.00737261
-0.0194895 -0.0101182 -0.0101182
-0.0242561 -0.0139365 -0.0139365
-0.0171521 -0.0118616 -0.0118616
-0.0136895 -0.00803484 -0.00803484
-0.0218709 -0.0119312 -0.0119312
-0.0206939 -0.0128177 -0.0128177
-0.0154242 -0.00985072 -0.00985072
-0.0165779 -0.00899445 -0.00899445
-0.0186373 -0.0108083 -0.0108083
-0.0242561 -0.0139365 -0.0139365
-0.029025 -0.0185458 -0.0185458
-0.0205927 -0.0164804 -0.0164804
-0.0171521 -0.0118616 -0.0118616
-0.0266411 -0.0161413 -0.0161413
-0.0247968 -0.0174292 -0.0174292
-0.0188749 -0.0140711 -0.0140711
-0.0206939 -0.0128177 -0.0128177
-0.0227471 -0.015024 -0.015024
-0.029025 -0.0185458 -0.0185458
-0.0337881 -0.0239518 -0.0239518
-0.0240128 -0.0218994 -0.0218994
-0.0205927 -0.0164804 -0.0164804
-0.0314078 -0.0211489 -0.0211489
-0.0288865 -0.0228413 -0.0228413
-0.0223052 -0.0190896 -0.0190896
-0.0247968 -0.0174292 -0.0174292
-0.0268435 -0.0200349 -0.0200349
-0.0337881 -0.0239518 -0.0239518
-0.0385366 -0.0301598 -0.0301598
-0.0274154 -0.0281208 -0.0281208
-0.0240128 -0.0218994 -0.0218994
-0.0361645 -0.0269556 -0.0269556
-0.0329605 -0.0290554 -0.0290554
-0.0257163 -0.0249099 -0.0249099
-0.0288865 -0.0228413 -0.0228413
-0.0309256 -0.0258482 -0.0258482
-0.0385366 -0.0301598 -0.0301598
-0.0432672 -0.0371667 -0.0371667
-0.0308013 -0.0351422 -0.0351422
-0.0274154 -0.0281208 -0.0281208
-0.0409044 -0.0335636 -0.0335636
-0.0370177 -0.0360696 -0.0360696
-0.0291104 -0.0315317 -0.0315317
-0.0329605 -0.0290554 -0.0290554
-0.0349913 -0.0324627 -0.0324627
-0.0432672 -0.0371667 -0.0371667
-0.0479774 -0.0449697 -0.0449697
-0.0341712 -0.04296 -0.04296
-0.0308013 -0.0351422 -0.0351422
-0.045625 -0.0409689 -0.0409689
-0.0410571 -0.0438801 -0.0438801
-0.0324882 -0.0389518 -0.0389518
-0.0370177 -0.0360696 -0.0360696
-0.0390397 -0.0398756 -0.0398756
-0.0479774 -0.0449697 -0.0449697
-0.0526662 -0.0535641 -0.0535641
-0.0375256 -0.0515699 -0.0515699
-0.0341712 -0.04296 -0.04296
-0.0503245 -0.0491682 -0.0491682
-0.0450783 -0.0524827 -0.0524827
-0.0358503 -0.0471662 -0.0471662
-0.0410571 -0.0438801 -0.0438801
-0.04307 -0.0480827 -0.0480827
-0.0526662 -0.0535641 -0.0535641
-0.0573331 -0.0629459 -0.0629459
-0.0408648 -0.0609675 -0.0609675
-0.0375256 -0.0515699 -0.0515699
-0.0550024 -0.0581569 -0.0581569
-0.0490812 -0.0618728 -0.0618728
-0.0391971 -0.0561705 -0.0561705
-0.0450783 -0.0524827 -0.0524827
-0.047082 -0.0570795 -0.0570795
-0.0573331 -0.0629459 -0.0629459
-0.0619781 -0.0731107 -0.0731107
-0.044189 -0.0711484 -0.0711484
-0.0408648 -0.0609675 -0.0609675
-0.0596583 -0.0679307 -0.0679307
-0.0530657 -0.072046 -0.072046
-0.0425288 -0.0659603 -0.0659603
-0.0490812 -0.0618728 -0.0618728
-0.0510757 -0.0668618 -0.0668618
-0.0619781 -0.0731107 -0.0731107
-0.0666013 -0.084054 -0.084054
-0.0474986 -0.0821083 -0.0821083
-0.044189 -0.0711484 -0.0711484
-0.0642924 -0.0784853 -0.0784853
-0.057032 -0.082998 -0.082998
-0.0458456 -0.0765312 -0.0765312
-0.0530657 -0.072046 -0.072046
-0.0550511 -0.0774249 -0.0774249
-0.0666013 -0.084054 -0.084054
-0.0712028 -0.0957715 -0.0957715
-0.0507937 -0.0938427 -0.0938427
-0.0474986 -0.0821083 -0.0821083
-0.0689047 -0.0898162 -0.0898162
-0.0609802 -0.0947245 -0.0947245
-0.0491479 -0.0878789 -0.0878789
-0.057032 -0.082998 -0.082998
-0.0590083 -0.0887647 -0.0887647
-0.0712028 -0.0957715 -0.0957715
-0.0757829 -0.108259 -0.108259
-0.0540745 -0.106348 -0.106348
-0.0507937 -0.0938427 -0.0938427
-0.0734955 -0.101919 -0.101919
-0.0649106 -0.107221 -0.107221
-0.0524358 -0.0999991 -0.0999991
-0.0609802 -0.0947245 -0.0947245
-0.0629476 -0.100877 -0.100877
-0.0757829 -0.108259 -0.108259
-0.0803417 -0.121512 -0.121512
-0.0573412 -0.119619 -0.119619
-0.0540745 -0.106348 -0.106348
-0.0780649 -0.11479 -0.11479
-0.0688234 -0.120484 -0.120484
-0.0557096 -0.112888 -0.112888
-0.0649106 -0.107221 -0.107221
-0.0668692 -0.113757 -0.113757
-0.0803417 -0.121512 -0.121512
-0.0848795 -0.135527 -0.135527
-0.0605941 -0.133651 -0.133651
-0.0573412 -0.119619 -0.119619
-0.0826132 -0.128425 -0.128425
-0.0727187 -0.134508 -0.134508
-0.0589694 -0.12654 -0.12654
-0.0688234 -0.120484 -0.120484
-0.0707732 -0.127401 -0.127401
-0.0848795 -0.135527 -0.135527
-0.0893965 -0.150299 -0.150299
-0.0638334 -0.148442 -0.148442
-0.0605941 -0.133651 -0.133651
-0.0871406 -0.142819 -0.142819
-0.0765968 -0.14929 -0.14929
-0.0622155 -0.140952 -0.140952
-0.0727187 -0.134508 -0.134508
-0.0746599 -0.141805 -0.141805
-0.0893965 -0.150299 -0.150299
-0.0938929 -0.165825 -0.165825
-0.0670592 -0.163986 -0.163986
-0.0638334 -0.148442 -0.148442
-0.0916472 -0.157968 -0.157968
-0.0804579 -0.164825 -0.164825
-0.065448 -0.15612 -0.15612
-0.0765968 -0.14929 -0.14929
-0.0785295 -0.156963 -0.156963
-0.0938929 -0.165825 -0.165825
-0.0983688 -0.182099 -0.182099
-0.0702718 -0.180279 -0.180279
-0.0670592 -0.163986 -0.163986
-0.0961334 -0.173868 -0.173868
-0.0843022 -0.181109 -0.181109
-0.0686672 -0.172039 -0.172039
-0.0804579 -0.164825 -0.164825
-0.0823821 -0.172874 -0.172874
-0.0983688 -0.182099 -0.182099
-0.102825 -0.199118 -0.199118
-0.0734714 -0.197317 -0.197317
-0.0702718 -0.180279 -0.180279
-0.100599 -0.190515 -0.190515
-0.0881298 -0.198138 -0.198138
-0.0718732 -0.188705 -0.188705
-0.0843022 -0.181109 -0.181109
-0.0862181 -0.18953 -0.18953
-0.102825 -0.199118 -0.199118
-0.10726 -0.216877 -0.216877
-0.0766581 -0.215095 -0.215095
-0.0734714 -0.197317 -0.197317
-0.105045 -0.207905 -0.207905
-0.091941 -0.215907 -0.215907
-0.0750663 -0.206114 -0.206114
-0.0881298 -0.198138 -0.198138
-0.0900374 -0.20693 -0.20693
-0.10726 -0.216877 -0.216877
-0.111676 -0.235372 -0.235372
-0.0798321 -0.233611 -0.233611
-0.0766581 -0.215095 -0.215095
-0.109471 -0.226033 -0.226033
-0.0957359 -0.234413 -0.234413
-0.0782466 -0.224261 -0.224261
-0.091941 -0.215907 -0.215907
-0.0938405 -0.225068 -0.225068
-0.111676 -0.235372 -0.235372
-0.116072 -0.254599 -0.254599
-0.0829936 -0.252858 -0.252858
-0.0798321 -0.233611 -0.233611
-0.113877 -0.244895 -0.244895
-0.0995148 -0.253651 -0.253651
-0.0814144 -0.243143 -0.243143
-0.0957359 -0.234413 -0.234413
-0.0976273 -0.243941 -0.243941
-0.116072 -0.254599 -0.254599
-0.120449 -0.274555 -0.274555
-0.0861428 -0.272834 -0.272834
-0.0829936 -0.252858 -0.252858
-0.118263 -0.264486 -0.264486
-0.103278 -0.273617 -0.273617
-0.0845697 -0.262755 -0.262755
-0.0995148 -0.253651 -0.253651
-0.101398 -0.263543 -0.263543
-0.120449 -0.274555 -0.274555
-0.124807 -0.295233 -0.295233
-0.0892799 -0.293533 -0.293533
-0.0861428 -0.272834 -0.272834
-0.12263 -0.284804 -0.284804
-0.107025 -0.294306 -0.294306
-0.0877128 -0.283094 -0.283094
-0.103278 -0.273617 -0.273617
-0.105153 -0.283871 -0.283871
-0.124807 -0.295233 -0.295233
-0.129145 -0.316631 -0.316631
-0.092405 -0.314953 -0.314953
-0.0892799 -0.293533 -0.293533
-0.126978 -0.305843 -0.305843
-0.110757 -0.315715 -0.315715
-0.0908439 -0.304153 -0.304153
-0.107025 -0.294306 -0.294306
-0.108893 -0.304921 -0.304921
-0.129145 -0.316631 -0.316631
-0.133464 -0.338744 -0.338744
-0.0955183 -0.337087 -0.337087
-0.092405 -0.314953 -0.314953
-0.131307 -0.327599 -0.327599
-0.114473 -0.33784 -0.33784
-0.0939631 -0.325931 -0.325931
-0.110757 -0.315715 -0.315715
-0.112617 -0.326688 -0.326688
-0.133464 -0.338744 -0.338744
-0.137765 -0.361568 -0.361568
-0.09862 -0.359933 -0.359933
-0.0955183 -0.337087 -0.337087
-0.135617 -0.350068 -0.350068
-0.118174 -0.360675 -0.360675
-0.0970706 -0.348421 -0.348421
-0.114473 -0.33784 -0.33784
-0.116325 -0.349169 -0.349169
-0.137765 -0.361568 -0.361568
-0.142047 -0.385099 -0.385099
-0.10171 -0.383485 -0.383485
-0.09862 -0.359933 -0.359933
-0.139908 -0.373246 -0.373246
-0.12186 -0.384217 -0.384217
-0.100166 -0.371621 -0.371621
-0.118174 -0.360675 -0.360675
-0.120019 -0.372358 -0.372358
-0.142047 -0.385099 -0.385099
-0.14631 -0.409332 -0.409332
-0.104789 -0.407741 -0.407741
-0.10171 -0.383485 -0.383485
-0.144181 -0.397128 -0.397128
-0.125531 -0.408462 -0.408462
-0.103251 -0.395525 -0.395525
-0.12186 -0.384217 -0.384217
-0.123697 -0.396252 -0.396252
-0.14631 -0.409332 -0.409332
-0.150555 -0.434264 -0.434264
-0.107857 -0.432695 -0.432695
-0.104789 -0.407741 -0.407741
-0.148435 -0.421711 -0.421711
-0.129188 -0.433405 -0.433405
-0.106324 -0.420131 -0.420131
-0.125531 -0.408462 -0.408462
-0.127361 -0.420846 -0.420846
-0.150555 -0.434264 -0.434264
-0.154782 -0.459889 -0.459889
-0.110913 -0.458343 -0.458343
-0.107857 -0.432695 -0.432695
-0.152671 -0.44699 -0.44699
-0.132829 -0.459042 -0.459042
-0.109387 -0.445432 -0.445432
-0.129188 -0.433405 -0.433405
-0.13101 -0.446137 -0.446137
-0.154782 -0.459889 -0.459889
-0.158991 -0.486204 -0.486204
-0.113959 -0.484681 -0.484681
-0.110913 -0.458343 -0.458343
-0.156889 -0.472961 -0.472961
-0.136457 -0.485369 -0.485369
-0.112438 -0.471426 -0.471426
-0.132829 -0.459042 -0.459042
-0.134645 -0.47212 -0.47212
-0.158991 -0.486204 -0.486204
-0.163182 -0.513205 -0.513205
-0.116994 -0.511705 -0.511705
-0.113959 -0.484681 -0.484681
-0.161088 -0.499619 -0.499619
-0.14007 -0.512382 -0.512382
-0.115478 -0.498107 -0.498107
-0.136457 -0.485369 -0.485369
-0.138265 -0.49879 -0.49879
-0.163182 -0.513205 -0.513205
-0.167355 -0.540887 -0.540887
-0.120019 -0.53941 -0.53941
-0.116994 -0.511705 -0.511705
-0.16527 -0.526961 -0.526961
-0.143669 -0.540076 -0.540076
-0.118508 -0.525472 -0.525472
-0.14007 -0.512382 -0.512382
-0.141871 -0.526144 -0.526144
-0.167355 -0.540887 -0.540887
-0.17151 -0.569246 -0.569246
-0.123033 -0.567793 -0.567793
-0.120019 -0.53941 -0.53941
-0.169435 -0.554982 -0.554982
-0.147253 -0.568448 -0.568448
-0.121527 -0.553517 -0.553517
-0.143669 -0.540076 -0.540076
-0.145463 -0.554178 -0.554178
-0.17151 -0.569246 -0.569246
-0.175649 -0.598279 -0.598279
-0.126037 -0.596849 -0.596849
-0.123033 -0.567793 -0.567793
-0.173582 -0.583679 -0.583679
-0.150824 -0.597492 -0.597492
-0.124536 -0.582237 -0.582237
-0.147253 -0.568448 -0.568448
-0.149041 -0.582886 -0.582886
-0.175649 -0.598279 -0.598279
-0.179769 -0.62798 -0.62798
-0.12903 -0.626574 -0.626574
-0.126037 -0.596849 -0.596849
-0.177711 -0.613046 -0.613046
-0.154381 -0.627206 -0.627206
-0.127535 -0.611628 -0.611628
-0.150824 -0.597492 -0.597492
-0.152605 -0.612266 -0.612266
-0.179769 -0.62798 -0.62798
-0.183873 -0.658345 -0.658345
-0.132014 -0.656964 -0.656964
-0.12903 -0.626574 -0.626574
-0.181823 -0.643079 -0.643079
-0.157925 -0.657584 -0.657584
-0.130523 -0.641686 -0.641686
-0.154381 -0.627206 -0.627206
-0.156155 -0.642312 -0.642312
-0.183873 -0.658345 -0.658345
-0.187959 -0.689371 -0.689371
-0.134988 -0.688014 -0.688014
-0.132014 -0.656964 -0.656964
-0.185918 -0.673775 -0.673775
-0.161455 -0.688622 -0.688622
-0.133502 -0.672406 -0.672406
-0.157925 -0.657584 -0.657584
-0.159692 -0.673021 -0.673021
-0.187959 -0.689371 -0.689371
-0.192029 -0.721052 -0.721052
-0.137951 -0.71972 -0.71972
-0.134988 -0.688014 -0.688014
-0.189996 -0.70513 -0.70513
-0.164972 -0.720316 -0.720316
-0.136471 -0.703785 -0.703785
-0.161455 -0.688622 -0.688622
-0.163215 -0.704387 -0.704387
-0.192029 -0.721052 -0.721052
-0.196081 -0.753386 -0.753386
-0.140905 -0.752078 -0.752078
-0.137951 -0.71972 -0.71972
-0.194057 -0.737138 -0.737138
-0.168475 -0.752663 -0.752663
-0.13943 -0.735818 -0.735818
-0.164972 -0.720316 -0.720316
-0.166725 -0.736408 -0.736408
-0.196081 -0.753386 -0.753386
-0.200117 -0.786367 -0.786367
-0.14385 -0.785085 -0.785085
-0.140905 -0.752078 -0.752078
-0.198101 -0.769795 -0.769795
-0.171965 -0.785657 -0.785657
-0.142379 -0.768501 -0.768501
-0.168475 -0.752663 -0.752663
-0.170222 -0.769079 -0.769079
-0.200117 -0.786367 -0.786367
-0.204136 -0.819991 -0.819991
-0.146785 -0.818734 -0.818734
-0.14385 -0.785085 -0.785085
-0.202129 -0.803099 -0.803099
-0.175442 -0.819294 -0.819294
-0.145319 -0.801829 -0.801829
-0.171965 -0.785657 -0.785657
-0.173705 -0.802395 -0.802395
-0.204136 -0.819991 -0.819991
-0.208139 -0.854255 -0.854255
-0.149711 -0.853023 -0.853023
-0.146785 -0.818734 -0.818734
-0.20614 -0.837043 -0.837043
-0.178906 -0.853571 -0.853571
-0.148249 -0.835799 -0.835799
-0.175442 -0.819294 -0.819294
-0.177176 -0.836353 -0.836353
-0.208139 -0.854255 -0.854255
-0.212125 -0.889153 -0.889153
-0.152627 -0.887947 -0.887947
-0.149711 -0.853023 -0.853023
-0.210134 -0.871625 -0.871625
-0.182357 -0.888483 -0.888483
-0.15117 -0.870406 -0.870406
-0.178906 -0.853571 -0.853571
-0.180633 -0.870948 -0.870948
-0.212125 -0.889153 -0.889153
-0.216095 -0.924682 -0.924682
-0.155534 -0.923502 -0.923502
-0.152627 -0.887947 -0.887947
-0.214112 -0.906839 -0.906839
-0.185796 -0.924025 -0.924025
-0.154082 -0.905646 -0.905646
-0.182357 -0.888483 -0.888483
-0.184078 -0.906176 -0.906176
-0.216095 -0.924682 -0.924682
-0.220048 -0.960838 -0.960838
-0.158432 -0.959684 -0.959684
-0.155534 -0.923502 -0.923502
-0.218074 -0.942682 -0.942682
-0.189222 -0.960195 -0.960195
-0.156984 -0.941515 -0.941515
-0.185796 -0.924025 -0.924025
-0.18751 -0.942032 -0.942032
-0.220048 -0.960838 -0.960838
-0.223986 -0.997616 -0.997616
-0.161321 -0.996488 -0.996488
-0.158432 -0.959684 -0.959684
-0.222019 -0.97915 -0.97915
-0.192635 -0.996986 -0.996986
-0.159878 -0.978008 -0.978008
-0.189222 -0.960195 -0.960195
-0.19093 -0.978513 -0.978513
-0.223986 -0.997616 -0.997616
-0.227907 -1.03501 -1.03501
-0.164202 -1.03391 -1.03391
-0.161321 -0.996488 -0.996488
-0.225949 -1.01624 -1.01624
-0.196036 -1.0344 -1.0344
-0.162763 -1.01512 -1.01512
-0.192635 -0.996986 -0.996986
-0.194337 -1.01561 -1.01561
-0.227907 -1.03501 -1.03501
-0.231813 -1.07302 -1.07302
-0.167073 -1.07195 -1.07195
-0.164202 -1.03391 -1.03391
-0.229862 -1.05394 -1.05394
-0.199424 -1.07242 -1.07242
-0.165639 -1.05285 -1.05285
-0.196036 -1.0344 -1.0344
-0.197732 -1.05333 -1.05333
-0.231813 -1.07302 -1.07302
-0.235702 -1.11164 -1.11164
-0.169936 -1.11059 -1.11059
-0.167073 -1.07195 -1.07195
-0.233759 -1.09226 -1.09226
-0.2028 -1.11105 -1.11105
-0.168506 -1.09119 -1.09119
-0.199424 -1.07242 -1.07242
-0.201114 -1.09166 -1.09166
-0.235702 -1.11164 -1.11164
-0.239576 -1.15087 -1.15087
-0.17279 -1.14984 -1.14984
-0.169936 -1.11059 -1.11059
-0.237641 -1.13118 -1.13118
-0.206164 -1.15029 -1.15029
-0.171364 -1.13014 -1.13014
-0.2028 -1.11105 -1.11105
-0.204484 -1.1306 -1.1306
-0.239576 -1.15087 -1.15087
-0.243434 -1.19069 -1.19069
-0.175636 -1.1897 -1.1897
-0.17279 -1.14984 -1.14984
-0.241507 -1.1707 -1.1707
-0.209516 -1.19013 -1.19013
-0.174214 -1.1697 -1.1697
-0.206164 -1.15029 -1.15029
-0.207842 -1.17014 -1.17014
-0.243434 -1.19069 -1.19069
-0.247276 -1.23112 -1.23112
-0.178473 -1.23015 -1.23015
-0.175636 -1.1897 -1.1897
-0.245357 -1.21083 -1.21083
-0.212856 -1.23057 -1.23057
-0.177055 -1.20985 -1.20985
-0.209516 -1.19013 -1.19013
-0.211188 -1.21027 -1.21027
-0.247276 -1.23112 -1.23112
-0.251103 -1.27213 -1.27213
-0.181301 -1.27119 -1.27119
-0.178473 -1.23015 -1.23015
-0.249192 -1.25155 -1.25155
-0.216184 -1.2716 -1.2716
-0.179888 -1.25059 -1.25059
-0.212856 -1.23057 -1.23057
-0.214521 -1.25101 -1.25101
-0.251103 -1.27213 -1.27213
-0.254915 -1.31373 -1.31373
-0.184122 -1.31282 -1.31282
-0.181301 -1.27119 -1.27119
-0.253011 -1.29286 -1.29286
-0.219499 -1.31322 -1.31322
-0.182713 -1.29193 -1.29193
-0.216184 -1.2716 -1.2716
-0.217843 -1.29233 -1.29233
-0.254915 -1.31373 -1.31373
-0.25871 -1.35592 -1.35592
-0.186934 -1.35504 -1.35504
-0.184122 -1.31282 -1.31282
-0.256814 -1.33476 -1.33476
-0.222803 -1.35542 -1.35542
-0.185529 -1.33386 -1.33386
-0.219499 -1.31322 -1.31322
-0.221153 -1.33424 -1.33424
-0.25871 -1.35592 -1.35592
-0.262491 -1.39869 -1.39869
-0.189738 -1.39783 -1.39783
-0.186934 -1.35504 -1.35504
-0.260603 -1.37724 -1.37724
-0.226096 -1.3982 -1.3982
-0.188337 -1.37636 -1.37636
-0.222803 -1.35542 -1.35542
-0.224451 -1.37674 -1.37674
-0.262491 -1.39869 -1.39869
-0.266256 -1.44204 -1.44204
-0.192533 -1.4412 -1.4412
-0.189738 -1.39783 -1.39783
-0.264375 -1.42029 -1.42029
-0.229376 -1.44156 -1.44156
-0.191136 -1.41945 -1.41945
-0.226096 -1.3982 -1.3982
-0.227737 -1.41981 -1.41981
-0.266256 -1.44204 -1.44204
-0.270006 -1.48595 -1.48595
-0.195321 -1.48515 -1.48515
-0.192533 -1.4412 -1.4412
-0.268133 -1.46392 -1.46392
-0.232645 -1.48549 -1.48549
-0.193928 -1.4631 -1.4631
-0.229376 -1.44156 -1.44156
-0.231012 -1.46345 -1.46345
-0.270006 -1.48595 -1.48595
-0.273741 -1.53043 -1.53043
-0.198101 -1.52966 -1.52966
-0.195321 -1.48515 -1.48515
-0.271875 -1.50812 -1.50812
-0.235902 -1.52999 -1.52999
-0.196712 -1.50733 -1.50733
-0.232645 -1.48549 -1.48549
-0.234275 -1.50767 -1.50767
-0.273741 -1.53043 -1.53043
-0.27746 -1.57548 -1.57548
-0.200872 -1.57473 -1.57473
-0.198101 -1.52966 -1.52966
-0.275602 -1.55289 -1.55289
-0.239148 -1.57505 -1.57505
-0.199487 -1.55212 -1.55212
-0.235902 -1.52999 -1.52999
-0.237526 -1.55245 -1.55245
-0.27746 -1.57548 -1.57548
-0.281165 -1.62109 -1.62109
-0.203636 -1.62036 -1.62036
-0.200872 -1.57473 -1.57473
-0.279314 -1.59821 -1.59821
-0.242382 -1.62067 -1.62067
-0.202255 -1.59748 -1.59748
-0.239148 -1.57505 -1.57505
-0.240766 -1.59779 -1.59779
-0.281165 -1.62109 -1.62109
-0.284854 -1.66725 -1.66725
-0.206392 -1.66655 -1.66655
-0.203636 -1.62036 -1.62036
-0.283011 -1.6441 -1.6441
-0.245604 -1.66684 -1.66684
-0.205015 -1.64339 -1.64339
-0.242382 -1.62067 -1.62067
-0.243994 -1.64368 -1.64368
-0.284854 -1.66725 -1.66725
-0.288529 -1.71396 -1.71396
-0.20914 -1.71329 -1.71329
-0.206392 -1.66655 -1.66655
-0.286693 -1.69053 -1.69053
-0.248815 -1.71357 -1.71357
-0.207767 -1.68985 -1.68985
-0.245604 -1.66684 -1.66684
-0.247211 -1.69013 -1.69013
-0.288529 -1.71396 -1.71396
-0.292188 -1.76121 -1.76121
-0.21188 -1.76058 -1.76058
-0.20914 -1.71329 -1.71329
-0.29036 -1.73752 -1.73752
-0.252015 -1.76084 -1.76084
-0.210511 -1.73686 -1.73686
-0.248815 -1.71357 -1.71357
-0.250417 -1.73713 -1.73713
-0.292188 -1.76121 -1.76121
-0.295833 -1.80901 -1.80901
-0.214612 -1.8084 -1.8084
-0.21188 -1.76058 -1.76058
-0.294012 -1.78505 -1.78505
-0.255204 -1.80865 -1.80865
-0.213247 -1.78442 -1.78442
-0.252015 -1.76084 -1.76084
-0.253611 -1.78468 -1.78468
-0.295833 -1.80901 -1.80901
-0.299462 -1.85735 -1.85735
-0.217337 -1.85677 -1.85677
-0.214612 -1.8084 -1.8084
-0.297649 -1.83311 -1.83311
-0.258381 -1.857 -1.857
-0.215975 -1.83252 -1.83252
-0.255204 -1.80865 -1.80865
-0.256794 -1.83276 -1.83276
-0.299462 -1.85735 -1.85735
-0.303077 -1.90622 -1.90622
-0.220054 -1.90567 -1.90567
-0.217337 -1.85677 -1.85677
-0.301271 -1.88172 -1.88172
-0.261547 -1.90589 -1.90589
-0.218696 -1.88115 -1.88115
-0.258381 -1.857 -1.857
-0.259965 -1.88138 -1.88138
-0.303077 -1.90622 -1.90622
-0.306677 -1.95562 -1.95562
-0.222763 -1.95509 -1.95509
-0.220054 -1.90567 -1.90567
-0.304879 -1.93085 -1.93085
-0.264701 -1.9553 -1.9553
-0.221409 -1.93031 -1.93031
-0.261547 -1.90589 -1.90589
-0.263125 -1.93053 -1.93053
-0.306677 -1.95562 -1.95562
-0.310262 -2.00554 -2.00554
-0.225465 -2.00505 -2.00505
-0.222763 -1.95509 -1.95509
-0.308471 -1.98052 -1.98052
-0.267845 -2.00524 -2.00524
-0.224115 -1.98 -1.98
-0.264701 -1.9553 -1.9553
-0.266274 -1.9802 -1.9802
-0.310262 -2.00554 -2.00554
-0.313832 -2.05599 -2.05599
-0.228159 -2.05552 -2.05552
-0.225465 -2.00505 -2.00505
-0.312049 -2.0307 -2.0307
-0.270977 -2.0557 -2.0557
-0.226813 -2.03022 -2.03022
-0.267845 -2.00524 -2.00524
-0.269412 -2.0304 -2.0304
-0.313832 -2.05599 -2.05599
-0.317388 -2.10695 -2.10695
-0.230845 -2.10651 -2.10651
-0.228159 -2.05552 -2.05552
-0.315612 -2.08141 -2.08141
-0.274098 -2.10668 -2.10668
-0.229503 -2.08095 -2.08095
-0.270977 -2.0557 -2.0557
-0.272539 -2.08112 -2.08112
-0.317388 -2.10695 -2.10695
-0.320929 -2.15843 -2.15843
-0.233524 -2.15801 -2.15801
-0.230845 -2.10651 -2.10651
-0.31916 -2.13262 -2.13262
-0.277208 -2.15817 -2.15817
-0.232185 -2.1322 -2.1322
-0.274098 -2.10668 -2.10668
-0.275654 -2.13236 -2.13236
-0.320929 -2.15843 -2.15843
-0.324455 -2.21041 -2.21041
-0.236195 -2.21002 -2.21002
-0.233524 -2.15801 -2.15801
-0.322694 -2.18435 -2.18435
-0.280306 -2.21016 -2.21016
-0.234861 -2.18396 -2.18396
-0.277208 -2.15817 -2.15817
-0.278758 -2.1841 -2.1841
-0.324455 -2.21041 -2.21041
-0.327966 -2.2629 -2.2629
-0.238859 -2.26254 -2.26254
-0.236195 -2.21002 -2.21002
-0.326213 -2.23659 -2.23659
-0.283394 -2.26266 -2.26266
-0.237528 -2.23622 -2.23622
-0.280306 -2.21016 -2.21016
-0.281852 -2.23635 -2.23635
-0.327966 -2.2629 -2.2629
-0.331463 -2.31588 -2.31588
-0.241515 -2.31556 -2.31556
-0.238859 -2.26254 -2.26254
-0.329717 -2.28933 -2.28933
-0.286471 -2.31567 -2.31567
-0.240188 -2.28899 -2.28899
-0.283394 -2.26266 -2.26266
-0.284934 -2.2891 -2.2891
-0.331463 -2.31588 -2.31588
-0.334945 -2.36937 -2.36937
-0.244164 -2.36907 -2.36907
-0.241515 -2.31556 -2.31556
-0.333206 -2.34256 -2.34256
-0.289536 -2.36916 -2.36916
-0.242841 -2.34225 -2.34225
-0.286471 -2.31567 -2.31567
-0.288005 -2.34235 -2.34235
-0.334945 -2.36937 -2.36937
-0.338413 -2.42334 -2.42334
-0.246805 -2.42307 -2.42307
-0.244164 -2.36907 -2.36907
-0.336681 -2.39629 -2.39629
-0.29259 -2.42315 -2.42315
-0.245486 -2.39601 -2.39601
-0.289536 -2.36916 -2.36916
-0.291065 -2.3961 -2.3961
-0.338413 -2.42334 -2.42334
-0.341865 -2.4778 -2.4778
-0.249439 -2.47756 -2.47756
-0.246805 -2.42307 -2.42307
-0.340141 -2.45051 -2.45051
-0.295634 -2.47763 -2.47763
-0.248123 -2.45025 -2.45025
-0.29259 -2.42315 -2.42315
-0.294113 -2.45033 -2.45033
-0.341865 -2.4778 -2.4778
-0.345304 -2.53274 -2.53274
-0.252065 -2.53253 -2.53253
-0.249439 -2.47756 -2.47756
-0.343586 -2.50521 -2.50521
-0.298666 -2.53259 -2.53259
-0.250753 -2.50498 -2.50498
-0.295634 -2.47763 -2.47763
-0.297151 -2.50505 -2.50505
-0.345304 -2.53274 -2.53274
-0.348727 -2.58817 -2.58817
-0.254684 -2.58798 -2.58798
-0.252065 -2.53253 -2.53253
-0.347017 -2.5604 -2.5604
-0.301687 -2.58802 -2.58802
-0.253376 -2.5602 -2.5602
-0.298666 -2.53259 -2.53259
-0.300178 -2.56024 -2.56024
-0.348727 -2.58817 -2.58817
-0.352136 -2.64406 -2.64406
-0.257295 -2.64391 -2.64391
-0.254684 -2.58798 -2.58798
-0.350433 -2.61606 -2.61606
-0.304697 -2.64393 -2.64393
-0.255991 -2.61588 -2.61588
-0.301687 -2.58802 -2.58802
-0.303193 -2.61592 -2.61592
-0.352136 -2.64406 -2.64406
-0.35553 -2.70043 -2.70043
-0.259899 -2.7003 -2.7003
-0.257295 -2.64391 -2.64391
-0.353834 -2.67219 -2.67219
-0.307696 -2.70032 -2.70032
-0.258598 -2.67205 -2.67205
-0.304697 -2.64393 -2.64393
-0.306198 -2.67207 -2.67207
-0.35553 -2.70043 -2.70043
-0.358909 -2.75726 -2.75726
-0.262495 -2.75716 -2.75716
-0.259899 -2.7003 -2.7003
-0.357221 -2.72879 -2.72879
-0.310683 -2.75716 -2.75716
-0.261198 -2.72867 -2.72867
-0.307696 -2.70032 -2.70032
-0.309191 -2.72868 -2.72868
-0.358909 -2.75726 -2.75726
-0.362274 -2.81456 -2.81456
-0.265084 -2.81449 -2.81449
-0.262495 -2.75716 -2.75716
-0.360593 -2.78585 -2.78585
-0.31366 -2.81447 -2.81447
-0.26379 -2.78577 -2.78577
-0.310683 -2.75716 -2.75716
-0.312173 -2.78576 -2.78576
-0.362274 -2.81456 -2.81456
-0.365624 -2.87231 -2.87231
-0.267665 -2.87227 -2.87227
-0.265084 -2.81449 -2.81449
-0.363951 -2.84338 -2.84338
-0.316626 -2.87224 -2.87224
-0.266375 -2.84332 -2.84332
-0.31366 -2.81447 -2.81447
-0.315144 -2.8433 -2.8433
-0.365624 -2.87231 -2.87231
-0.368959 -2.93052 -2.93052
-0.270238 -2.9305 -2.9305
-0.267665 -2.87227 -2.87227
-0.367293 -2.90136 -2.90136
-0.31958 -2.93046 -2.93046
-0.268953 -2.90133 -2.90133
-0.316626 -2.87224 -2.87224
-0.318104 -2.90129 -2.90129
-0.368959 -2.93052 -2.93052
-0.372279 -2.98917 -2.98917
-0.272804 -2.98918 -2.98918
-0.270238 -2.9305 -2.9305
-0.370621 -2.95979 -2.95979
-0.322523 -2.98913 -2.98913
-0.271522 -2.95979 -2.95979
-0.31958 -2.93046 -2.93046
-0.321053 -2.95974 -2.95974
-0.372279 -2.98917 -2.98917
-0.375585 -3.04827 -3.04827
-0.275363 -3.04831 -3.04831
-0.272804 -2.98918 -2.98918
-0.373934 -3.01867 -3.01867
-0.325455 -3.04824 -3.04824
-0.274085 -3.01869 -3.01869
-0.322523 -2.98913 -2.98913
-0.323991 -3.01863 -3.01863
-0.375585 -3.04827 -3.04827
-0.378876 -3.10781 -3.10781
-0.277914 -3.10788 -3.10788
-0.275363 -3.04831 -3.04831
-0.377233 -3.07799 -3.07799
-0.328376 -3.1078 -3.1078
-0.276639 -3.07804 -3.07804
-0.325455 -3.04824 -3.04824
-0.326917 -3.07797 -3.07797
-0.378876 -3.10781 -3.10781
-0.382152 -3.16779 -3.16779
-0.280457 -3.16789 -3.16789
-0.277914 -3.10788 -3.10788
-0.380516 -3.13775 -3.13775
-0.331286 -3.16779 -3.16779
-0.279186 -3.13783 -3.13783
-0.328376 -3.1078 -3.1078
-0.329832 -3.13774 -3.13774
-0.382152 -3.16779 -3.16779
-0.385414 -3.2282 -3.2282
-0.282992 -3.22832 -3.22832
-0.280457 -3.16789 -3.16789
-0.383785 -3.19794 -3.19794
-0.334184 -3.22821 -3.22821
-0.281726 -3.19805 -3.19805
-0.331286 -3.16779 -3.16779
-0.332737 -3.19795 -3.19795
-0.385414 -3.2282 -3.2282
-0.38866 -3.28903 -3.28903
-0.28552 -3.28919 -3.28919
-0.282992 -3.22832 -3.22832
-0.387039 -3.25856 -3.25856
-0.337072 -3.28907 -3.28907
-0.284257 -3.2587 -3.2587
-0.334184 -3.22821 -3.22821
-0.335629 -3.25859 -3.25859
-0.38866 -3.28903 -3.28903
-0.391892 -3.35029 -3.35029
-0.28804 -3.35048 -3.35048
-0.28552 -3.28919 -3.28919
-0.390278 -3.31961 -3.31961
-0.339947 -3.35034 -3.35034
-0.286781 -3.31978 -3.31978
-0.337072 -3.28907 -3.28907
-0.338511 -3.31965 -3.31965
-0.391892 -3.35029 -3.35029
-0.395109 -3.41197 -3.41197
-0.290553 -3.41219 -3.41219
-0.28804 -3.35048 -3.35048
-0.393502 -3.38108 -3.38108
-0.342812 -3.41204 -3.41204
-0.289297 -3.38128 -3.38128
-0.339947 -3.35034 -3.35034
-0.341381 -3.38114 -3.38114
-0.395109 -3.41197 -3.41197
-0.398311 -3.47407 -3.47407
-0.293057 -3.47431 -3.47431
-0.290553 -3.41219 -3.41219
-0.396711 -3.44297 -3.44297
-0.345665 -3.47415 -3.47415
-0.291806 -3.4432 -3.4432
-0.342812 -3.41204 -3.41204
-0.34424 -3.44304 -3.44304
-0.398311 -3.47407 -3.47407
-0.401497 -3.53658 -3.53658
-0.295554 -3.53684 -3.53684
-0.293057 -3.47431 -3.47431
-0.399906 -3.50527 -3.50527
-0.348507 -3.53667 -3.53667
-0.294306 -3.50553 -3.50553
-0.345665 -3.47415 -3.47415
-0.347087 -3.50536 -3.50536
-0.401497 -3.53658 -3.53658
-0.404669 -3.59949 -3.59949
-0.298043 -3.59978 -3.59978
-0.295554 -3.53684 -3.53684
-0.403085 -3.56798 -3.56798
-0.351337 -3.5996 -3.5996
-0.296799 -3.56826 -3.56826
-0.348507 -3.53667 -3.53667
-0.349924 -3.56808 -3.56808
-0.404669 -3.59949 -3.59949
-0.407826 -3.66281 -3.66281
-0.300524 -3.66313 -3.66313
-0.298043 -3.59978 -3.59978
-0.406249 -3.6311 -3.6311
-0.354156 -3.66293 -3.66293
-0.299284 -3.63141 -3.63141
-0.351337 -3.5996 -3.5996
-0.352748 -3.63121 -3.63121
-0.407826 -3.66281 -3.66281
-0.410967 -3.72652 -3.72652
-0.302997 -3.72687 -3.72687
-0.300524 -3.66313 -3.66313
-0.409399 -3.69461 -3.69461
-0.356963 -3.72665 -3.72665
-0.301761 -3.69495 -3.69495
-0.354156 -3.66293 -3.66293
-0.355561 -3.69474 -3.69474
-0.410967 -3.72652 -3.72652
-0.414094 -3.79063 -3.79063
-0.305462 -3.79101 -3.79101
-0.302997 -3.72687 -3.72687
-0.412533 -3.75853 -3.75853
-0.359759 -3.79078 -3.79078
-0.30423 -3.75889 -3.75889
-0.356963 -3.72665 -3.72665
-0.358363 -3.75867 -3.75867
-0.414094 -3.79063 -3.79063
-0.417205 -3.85513 -3.85513
-0.307919 -3.85553 -3.85553
-0.305462 -3.79101 -3.79101
-0.415652 -3.82283 -3.82283
-0.362543 -3.85529 -3.85529
-0.306691 -3.82322 -3.82322
-0.359759 -3.79078 -3.79078
-0.361153 -3.82299 -3.82299
-0.417205 -3.85513 -3.85513
-0.420301 -3.92001 -3.92001
-0.310368 -3.92045 -3.92045
-0.307919 -3.85553 -3.85553
-0.418755 -3.88752 -3.88752
-0.365316 -3.92019 -3.92019
-0.309144 -3.88794 -3.88794
-0.362543 -3.85529 -3.85529
-0.363931 -3.88769 -3.88769
-0.420301 -3.92001 -3.92001
-0.423382 -3.98528 -3.98528
-0.312809 -3.98574 -3.98574
-0.310368 -3.92045 -3.92045
-0.421844 -3.9526 -3.9526
-0.368077 -3.98547 -3.98547
-0.311589 -3.95304 -3.95304
-0.365316 -3.92019 -3.92019
-0.366698 -3.95278 -3.95278
-0.423382 -3.98528 -3.98528
-0.426448 -4.05092 -4.05092
-0.315241 -4.05141 -4.05141
-0.312809 -3.98574 -3.98574
-0.424917 -4.01805 -4.01805
-0.370826 -4.05113 -4.05113
-0.314026 -4.01853 -4.01853
-0.368077 -3.98547 -3.98547
-0.369453 -4.01825 -4.01825
-0.426448 -4.05092 -4.05092
-0.429498 -4.11694 -4.11694
-0.317666 -4.11745 -4.11745
-0.315241 -4.05141 -4.05141
-0.427975 -4.08388 -4.08388
-0.373563 -4.11716 -4.11716
-0.316455 -4.08438 -4.08438
-0.370826 -4.05113 -4.05113
-0.372196 -4.08409 -4.08409
-0.429498 -4.11694 -4.11694
-0.432532 -4.18332 -4.18332
-0.320082 -4.18386 -4.18386
-0.317666 -4.11745 -4.11745
-0.431017 -4.15008 -4.15008
-0.376288 -4.18355 -4.18355
-0.318875 -4.15061 -4.15061
-0.373563 -4.11716 -4.11716
-0.374927 -4.15031 -4.15031
-0.432532 -4.18332 -4.18332
-0.435551 -4.25007 -4.25007
-0.32249 -4.25064 -4.25064
-0.320082 -4.18386 -4.18386
-0.434044 -4.21665 -4.21665
-0.379002 -4.25032 -4.25032
-0.321287 -4.21721 -4.21721
-0.376288 -4.18355 -4.18355
-0.377647 -4.21689 -4.21689
-0.435551 -4.25007 -4.25007
-0.438555 -4.31718 -4.31718
-0.324889 -4.31778 -4.31778
-0.32249 -4.25064 -4.25064
-0.437055 -4.28358 -4.28358
-0.381703 -4.31744 -4.31744
-0.32369 -4.28416 -4.28416
-0.379002 -4.25032 -4.25032
-0.380354 -4.28384 -4.28384
-0.438555 -4.31718 -4.31718
-0.441543 -4.38465 -4.38465
-0.32728 -4.38527 -4.38527
-0.324889 -4.31778 -4.31778
-0.440051 -4.35087 -4.35087
-0.384393 -4.38492 -4.38492
-0.326085 -4.35148 -4.35148
-0.381703 -4.31744 -4.31744
-0.38305 -4.35114 -4.35114
-0.441543 -4.38465 -4.38465
-0.444515 -4.45247 -4.45247
-0.329662 -4.45311 -4.45311
-0.32728 -4.38527 -4.38527
-0.443031 -4.41851 -4.41851
-0.38707 -4.45275 -4.45275
-0.328472 -4.41915 -4.41915
-0.384393 -4.38492 -4.38492
-0.385733 -4.41879 -4.41879
-0.444515 -4.45247 -4.45247
-0.447471 -4.52063 -4.52063
-0.332036 -4.52131 -4.52131
-0.329662 -4.45311 -4.45311
-0.445995 -4.48651 -4.48651
-0.389735 -4.52093 -4.52093
-0.33085 -4.48717 -4.48717
-0.38707 -4.45275 -4.45275
-0.388404 -4.4868 -4.4868
-0.447471 -4.52063 -4.52063
-0.450412 -4.58914 -4.58914
-0.334401 -4.58984 -4.58984
-0.332036 -4.52131 -4.52131
-0.448944 -4.55484 -4.55484
-0.392388 -4.58946 -4.58946
-0.33322 -4.55553 -4.55553
-0.389735 -4.52093 -4.52093
-0.391063 -4.55515 -4.55515
-0.450412 -4.58914 -4.58914
-0.453337 -4.65799 -4.65799
-0.336758 -4.65872 -4.65872
-0.334401 -4.58984 -4.58984
-0.451876 -4.62352 -4.62352
-0.395029 -4.65832 -4.65832
-0.33558 -4.62424 -4.62424
-0.392388 -4.58946 -4.58946
-0.39371 -4.62384 -4.62384
-0.453337 -4.65799 -4.65799
-0.456246 -4.72717 -4.72717
-0.339105 -4.72793 -4.72793
-0.336758 -4.65872 -4.65872
-0.454793 -4.69254 -4.69254
-0.397657 -4.72751 -4.72751
-0.337932 -4.69328 -4.69328
-0.395029 -4.65832 -4.65832
-0.396344 -4.69287 -4.69287
-0.456246 -4.72717 -4.72717
-0.459138 -4.79669 -4.79669
-0.341444 -4.79747 -4.79747
-0.339105 -4.72793 -4.72793
-0.457694 -4.76189 -4.76189
-0.400273 -4.79704 -4.79704
-0.340276 -4.76266 -4.76266
-0.397657 -4.72751 -4.72751
-0.398966 -4.76224 -4.76224
-0.459138 -4.79669 -4.79669
-0.462015 -4.86653 -4.86653
-0.343774 -4.86733 -4.86733
-0.341444 -4.79747 -4.79747
-0.460579 -4.83157 -4.83157
-0.402876 -4.8669 -4.8669
-0.34261 -4.83236 -4.83236
-0.400273 -4.79704 -4.79704
-0.401576 -4.83193 -4.83193
-0.462015 -4.86653 -4.86653
-0.464875 -4.93669 -4.93669
-0.346094 -4.93752 -4.93752
-0.343774 -4.86733 -4.86733
-0.463447 -4.90157 -4.90157
-0.405466 -4.93707 -4.93707
-0.344935 -4.90239 -4.90239
-0.402876 -4.8669 -4.8669
-0.404173 -4.90194 -4.90194
-0.464875 -4.93669 -4.93669
-0.46772 -5.00717 -5.00717
-0.348406 -5.00803 -5.00803
-0.346094 -4.93752 -4.93752
-0.4663 -4.97189 -4.97189
-0.408044 -5.00757 -5.00757
-0.347251 -4.97274 -4.97274
-0.405466 -4.93707 -4.93707
-0.406757 -4.97228 -4.97228
-0.46772 -5.00717 -5.00717
-0.470548 -5.07797 -5.07797
-0.350709 -5.07885 -5.07885
-0.348406 -5.00803 -5.00803
-0.469136 -5.04253 -5.04253
-0.41061 -5.07837 -5.07837
-0.349558 -5.0434 -5.0434
-0.408044 -5.00757 -5.00757
-0.409329 -5.04293 -5.04293
-0.470548 -5.07797 -5.07797
-0.473359 -5.14907 -5.14907
-0.353002 -5.14998 -5.14998
-0.350709 -5.07885 -5.07885
-0.471955 -5.11348 -5.11348
-0.413162 -5.14949 -5.14949
-0.351856 -5.11438 -5.11438
-0.41061 -5.07837 -5.07837
-0.411887 -5.1139 -5.1139
-0.473359 -5.14907 -5.14907
-0.476154 -5.22048 -5.22048
-0.355286 -5.22141 -5.22141
-0.353002 -5.14998 -5.14998
-0.474759 -5.18474 -5.18474
-0.415701 -5.22092 -5.22092
-0.354145 -5.18566 -5.18566
-0.413162 -5.14949 -5.14949
-0.414433 -5.18517 -5.18517
-0.476154 -5.22048 -5.22048
-0.478932 -5.29219 -5.29219
-0.35756 -5.29315 -5.29315
-0.355286 -5.22141 -5.22141
-0.477545 -5.2563 -5.2563
-0.418228 -5.29264 -5.29264
-0.356424 -5.25724 -5.25724
-0.415701 -5.22092 -5.22092
-0.416966 -5.25674 -5.25674
-0.478932 -5.29219 -5.29219
-0.481694 -5.3642 -5.3642
-0.359825 -5.36518 -5.36518
-0.35756 -5.29315 -5.29315
-0.480315 -5.32816 -5.32816
-0.420741 -5.36466 -5.36466
-0.358694 -5.32913 -5.32913
-0.418228 -5.29264 -5.29264
-0.419486 -5.32861 -5.32861
-0.481694 -5.3642 -5.3642
-0.484439 -5.4365 -5.4365
-0.362081 -5.43751 -5.43751
-0.359825 -5.36518 -5.36518
-0.483069 -5.40031 -5.40031
-0.423241 -5.43697 -5.43697
-0.360954 -5.40131 -5.40131
-0.420741 -5.36466 -5.36466
-0.421993 -5.40078 -5.40078
-0.484439 -5.4365 -5.4365
-0.487167 -5.50909 -5.50909
-0.364326 -5.51012 -5.51012
-0.362081 -5.43751 -5.43751
-0.485805 -5.47276 -5.47276
-0.425728 -5.50958 -5.50958
-0.363205 -5.47378 -5.47378
-0.423241 -5.43697 -5.43697
-0.424487 -5.47324 -5.47324
-0.487167 -5.50909 -5.50909
-0.489879 -5.58196 -5.58196
-0.366562 -5.58302 -5.58302
-0.364326 -5.51012 -5.51012
-0.488525 -5.54549 -5.54549
-0.428202 -5.58246 -5.58246
-0.365446 -5.54654 -5.54654
-0.425728 -5.50958 -5.50958
-0.426967 -5.54598 -5.54598
-0.489879 -5.58196 -5.58196
-0.492573 -5.65512 -5.65512
-0.368788 -5.6562 -5.6562
-0.366562 -5.58302 -5.58302
-0.491228 -5.61851 -5.61851
-0.430662 -5.65563 -5.65563
-0.367677 -5.61958 -5.61958
-0.428202 -5.58246 -5.58246
-0.429434 -5.61901 -5.61901
-0.492573 -5.65512 -5.65512
-0.49525 -5.72855 -5.72855
-0.371005 -5.72965 -5.72965
-0.368788 -5.6562 -5.6562
-0.493914 -5.6918 -5.6918
-0.433109 -5.72907 -5.72907
-0.369898 -5.69289 -5.69289
-0.430662 -5.65563 -5.65563
-0.431887 -5.69232 -5.69232
-0.49525 -5.72855 -5.72855
-0.49791 -5.80225 -5.80225
-0.373211 -5.80338 -5.80338
-0.371005 -5.72965 -5.72965
-0.496582 -5.76536 -5.76536
-0.435542 -5.80278 -5.80278
-0.372109 -5.76648 -5.76648
-0.433109 -5.72907 -5.72907
-0.434327 -5.76589 -5.76589
-0.49791 -5.80225 -5.80225
-0.500553 -5.87622 -5.87622
-0.375407 -5.87737 -5.87737
-0.373211 -5.80338 -5.80338
-0.499234 -5.8392 -5.8392
-0.437961 -5.87677 -5.87677
-0.37431 -5.84034 -5.84034
-0.435542 -5.80278 -5.80278
-0.436753 -5.83974 -5.83974
-0.500553 -5.87622 -5.87622
-0.503178 -5.95045 -5.95045
-0.377592 -5.95162 -5.95162
-0.375407 -5.87737 -5.87737
-0.501868 -5.9133 -5.9133
-0.440367 -5.95101 -5.95101
-0.376501 -5.91446 -5.91446
-0.437961 -5.87677 -5.87677
-0.439166 -5.91385 -5.91385
-0.503178 -5.95045 -5.95045
-0.505786 -6.02494 -6.02494
-0.379768 -6.02614 -6.02614
-0.377592 -5.95162 -5.95162
-0.504484 -5.98766 -5.98766
-0.442759 -6.02551 -6.02551
-0.378682 -5.98885 -5.98885
-0.440367 -5.95101 -5.95101
-0.441564 -5.98823 -5.98823
-0.505786 -6.02494 -6.02494
-0.508376 -6.09968 -6.09968
-0.381933 -6.10091 -6.10091
-0.379768 -6.02614 -6.02614
-0.507083 -6.06228 -6.06228
-0.445136 -6.10027 -6.10027
-0.380852 -6.06349 -6.06349
-0.442759 -6.02551 -6.02551
-0.443949 -6.06286 -6.06286
-0.508376 -6.09968 -6.09968
-0.510949 -6.17468 -6.17468
-0.384088 -6.17593 -6.17593
-0.381933 -6.10091 -6.10091
-0.509665 -6.13715 -6.13715
-0.4475 -6.17528 -6.17528
-0.383012 -6.13839 -6.13839
-0.445136 -6.10027 -6.10027
-0.44632 -6.13774 -6.13774
-0.510949 -6.17468 -6.17468
-0.513504 -6.24992 -6.24992
-0.386231 -6.25119 -6.25119
-0.384088 -6.17593 -6.17593
-0.512228 -6.21227 -6.21227
-0.449849 -6.25053 -6.25053
-0.385161 -6.21353 -6.21353
-0.4475 -6.17528 -6.17528
-0.448676 -6.21287 -6.21287
-0.513504 -6.24992 -6.24992
-0.516041 -6.3254 -6.3254
-0.388365 -6.3267 -6.3267
-0.386231 -6.25119 -6.25119
-0.514774 -6.28763 -6.28763
-0.452184 -6.32603 -6.32603
-0.387299 -6.28891 -6.28891
-0.449849 -6.25053 -6.25053
-0.451018 -6.28825 -6.28825
-0.516041 -6.3254 -6.3254
-0.518559 -6.40113 -6.40113
-0.390487 -6.40244 -6.40244
-0.388365 -6.3267 -6.3267
-0.517302 -6.36323 -6.36323
-0.454505 -6.40176 -6.40176
-0.389427 -6.36454 -6.36454
-0.452184 -6.32603 -6.32603
-0.453346 -6.36386 -6.36386
-0.518559 -6.40113 -6.40113
-0.52106 -6.47708 -6.47708
-0.392598 -6.47842 -6.47842
-0.390487 -6.40244 -6.40244
-0.519812 -6.43907 -6.43907
-0.456811 -6.47773 -6.47773
-0.391544 -6.4404 -6.4404
-0.454505 -6.40176 -6.40176
-0.45566 -6.43971 -6.43971
-0.52106 -6.47708 -6.47708
-0.523543 -6.55326 -6.55326
-0.394699 -6.55463 -6.55463
-0.392598 -6.47842 -6.47842
-0.522304 -6.51514 -6.51514
-0.459103 -6.55392 -6.55392
-0.39365 -6.51649 -6.51649
-0.456811 -6.47773 -6.47773
-0.457959 -6.5158 -6.5158
-0.523543 -6.55326 -6.55326
-0.526007 -6.62967 -6.62967
-0.396788 -6.63106 -6.63106
-0.394699 -6.55463 -6.55463
-0.524777 -6.59144 -6.59144
-0.461379 -6.63034 -6.63034
-0.395745 -6.59281 -6.59281
-0.459103 -6.55392 -6.55392
-0.460243 -6.5921 -6.5921
-0.526007 -6.62967 -6.62967
-0.528453 -6.7063 -6.7063
-0.398866 -6.70771 -6.70771
-0.396788 -6.63106 -6.63106
-0.527233 -6.66796 -6.66796
-0.463641 -6.70698 -6.70698
-0.397828 -6.66936 -6.66936
-0.461379 -6.63034 -6.63034
-0.462512 -6.66864 -6.66864
-0.528453 -6.7063 -6.7063
-0.530881 -6.78315 -6.78315
-0.400933 -6.78458 -6.78458
-0.398866 -6.70771 -6.70771
-0.529669 -6.7447 -6.7447
-0.465888 -6.78384 -6.78384
-0.399901 -6.74612 -6.74612
-0.463641 -6.70698 -6.70698
-0.464767 -6.74539 -6.74539
-0.530881 -6.78315 -6.78315
-0.53329 -6.86021 -6.86021
-0.402988 -6.86166 -6.86166
-0.400933 -6.78458 -6.78458
-0.532088 -6.82165 -6.82165
-0.46812 -6.86091 -6.86091
-0.401962 -6.82309 -6.82309
-0.465888 -6.78384 -6.78384
-0.467006 -6.82235 -6.82235
-0.53329 -6.86021 -6.86021
-0.53568 -6.93748 -6.93748
-0.405031 -6.93895 -6.93895
-0.402988 -6.86166 -6.86166
-0.534487 -6.89882 -6.89882
-0.470337 -6.93819 -6.93819
-0.404011 -6.90028 -6.90028
-0.46812 -6.86091 -6.86091
-0.469231 -6.89953 -6.89953
-0.53568 -6.93748 -6.93748
-0.538051 -7.01495 -7.01495
-0.407063 -7.01644 -7.01644
-0.405031 -6.93895 -6.93895
-0.536868 -6.97619 -6.97619
-0.472539 -7.01567 -7.01567
-0.406049 -6.97767 -6.97767
-0.470337 -6.93819 -6.93819
-0.47144 -6.97691 -6.97691
-0.538051 -7.01495 -7.01495
-0.540403 -7.09262 -7.09262
-0.409083 -7.09413 -7.09413
-0.407063 -7.01644 -7.01644
-0.53923 -7.05376 -7.05376
-0.474725 -7.09336 -7.09336
-0.408075 -7.05526 -7.05526
-0.472539 -7.01567 -7.01567
-0.473634 -7.05449 -7.05449
-0.540403 -7.09262 -7.09262
-0.542737 -7.17049 -7.17049
-0.411092 -7.17202 -7.17202
-0.409083 -7.09413 -7.09413
-0.541572 -7.13153 -7.13153
-0.476896 -7.17123 -7.17123
-0.410089 -7.13305 -7.13305
-0.474725 -7.09336 -7.09336
-0.475812 -7.13227 -7.13227
-0.542737 -7.17049 -7.17049
-0.545051 -7.24854 -7.24854
-0.413088 -7.2501 -7.2501
-0.411092 -7.17202 -7.17202
-0.543896 -7.20949 -7.20949
-0.479051 -7.2493 -7.2493
-0.412091 -7.21104 -7.21104
-0.476896 -7.17123 -7.17123
-0.477975 -7.21024 -7.21024
-0.545051 -7.24854 -7.24854
-0.547345 -7.32679 -7.32679
-0.415072 -7.32836 -7.32836
-0.413088 -7.2501 -7.2501
-0.5462 -7.28764 -7.28764
-0.48119 -7.32756 -7.32756
-0.414081 -7.28921 -7.28921
-0.479051 -7.2493 -7.2493
-0.480123 -7.28841 -7.28841
-0.547345 -7.32679 -7.32679
-0.549621 -7.40522 -7.40522
-0.417043 -7.40681 -7.40681
-0.415072 -7.32836 -7.32836
-0.548485 -7.36598 -7.36598
-0.483314 -7.406 -7.406
-0.416059 -7.36757 -7.36757
-0.48119 -7.32756 -7.32756
-0.482254 -7.36675 -7.36675
-0.549621 -7.40522 -7.40522
-0.551876 -7.48382 -7.48382
-0.419003 -7.48544 -7.48544
-0.417043 -7.40681 -7.40681
-0.550751 -7.4445 -7.4445
-0.485421 -7.48461 -7.48461
-0.418025 -7.4461 -7.4461
-0.483314 -7.406 -7.406
-0.48437 -7.44528 -7.44528
-0.551876 -7.48382 -7.48382
-0.554113 -7.5626 -7.5626
-0.42095 -7.56424 -7.56424
-0.419003 -7.48544 -7.48544
-0.552997 -7.52319 -7.52319
-0.487513 -7.5634 -7.5634
-0.419978 -7.52482 -7.52482
-0.485421 -7.48461 -7.48461
-0.486469 -7.52399 -7.52399
-0.554113 -7.5626 -7.5626
-0.556329 -7.64155 -7.64155
-0.422884 -7.64321 -7.64321
-0.42095 -7.56424 -7.56424
-0.555223 -7.60206 -7.60206
-0.489588 -7.64236 -7.64236
-0.421918 -7.6037 -7.6037
-0.487513 -7.5634 -7.5634
-0.488553 -7.60286 -7.60286
-0.556329 -7.64155 -7.64155
-0.558525 -7.72067 -7.72067
-0.424805 -7.72234 -7.72234
-0.422884 -7.64321 -7.64321
-0.55743 -7.68109 -7.68109
-0.491647 -7.72149 -7.72149
-0.423846 -7.68276 -7.68276
-0.489588 -7.64236 -7.64236
-0.49062 -7.68191 -7.68191
-0.558525 -7.72067 -7.72067
-0.560702 -7.79995 -7.79995
-0.426714 -7.80164 -7.80164
-0.424805 -7.72234 -7.72234
-0.559616 -7.76029 -7.76029
-0.49369 -7.80078 -7.80078
-0.425761 -7.76197 -7.76197
-0.491647 -7.72149 -7.72149
-0.492671 -7.76111 -7.76111
-0.560702 -7.79995 -7.79995
-0.562858 -7.87938 -7.87938
-0.42861 -7.8811 -7.8811
-0.426714 -7.80164 -7.80164
-0.561782 -7.83965 -7.83965
-0.495716 -7.88022 -7.88022
-0.427663 -7.84135 -7.84135
-0.49369 -7.80078 -7.80078
-0.494705 -7.84048 -7.84048
-0.562858 -7.87938 -7.87938
-0.564994 -7.95897 -7.95897
-0.430492 -7.9607 -7.9607
-0.42861 -7.8811 -7.8811
-0.563929 -7.91916 -7.91916
-0.497725 -7.95982 -7.95982
-0.429553 -7.92088 -7.92088
-0.495716 -7.88022 -7.88022
-0.496723 -7.92 -7.92
-0.564994 -7.95897 -7.95897
-0.56711 -8.03871 -8.03871
-0.432361 -8.04046 -8.04046
-0.430492 -7.9607 -7.9607
-0.566055 -7.99882 -7.99882
-0.499718 -8.03957 -8.03957
-0.431429 -8.00056 -8.00056
-0.497725 -7.95982 -7.95982
-0.498723 -7.99968 -7.99968
-0.56711 -8.03871 -8.03871
-0.569205 -8.11859 -8.11859
-0.434217 -8.12036 -8.12036
-0.432361 -8.04046 -8.04046
-0.56816 -8.07863 -8.07863
-0.501693 -8.11946 -8.11946
-0.433291 -8.08039 -8.08039
-0.499718 -8.03957 -8.03957
-0.500707 -8.0795 -8.0795
-0.569205 -8.11859 -8.11859
-0.57128 -8.19861 -8.19861
-0.43606 -8.2004 -8.2004
-0.434217 -8.12036 -8.12036
-0.570245 -8.15859 -8.15859
-0.503652 -8.19949 -8.19949
-0.43514 -8.16036 -8.16036
-0.501693 -8.11946 -8.11946
-0.502675 -8.15946 -8.15946
-0.57128 -8.19861 -8.19861
-0.573333 -8.27877 -8.27877
-0.437889 -8.28058 -8.28058
-0.43606 -8.2004 -8.2004
-0.572309 -8.23868 -8.23868
-0.505593 -8.27966 -8.27966
-0.436976 -8.24047 -8.24047
-0.503652 -8.19949 -8.19949
-0.504624 -8.23956 -8.23956
-0.573333 -8.27877 -8.27877
-0.575366 -8.35906 -8.35906
-0.439704 -8.36089 -8.36089
-0.437889 -8.28058 -8.28058
-0.574352 -8.3189 -8.3189
-0.507517 -8.35996 -8.35996
-0.438798 -8.32072 -8.32072
-0.505593 -8.27966 -8.27966
-0.506557 -8.3198 -8.3198
-0.575366 -8.35906 -8.35906
-0.577378 -8.43948 -8.43948
-0.441505 -8.44132 -8.44132
-0.439704 -8.36089 -8.36089
-0.576375 -8.39926 -8.39926
-0.509424 -8.44039 -8.44039
-0.440606 -8.40109 -8.40109
-0.507517 -8.35996 -8.35996
-0.508472 -8.40016 -8.40016
-0.577378 -8.43948 -8.43948
-0.579369 -8.52003 -8.52003
-0.443292 -8.52188 -8.52188
-0.441505 -8.44132 -8.44132
-0.578376 -8.47974 -8.47974
-0.511313 -8.52094 -8.52094
-0.442401 -8.48159 -8.48159
-0.509424 -8.44039 -8.44039
-0.51037 -8.48065 -8.48065
-0.579369 -8.52003 -8.52003
-0.581338 -8.60069 -8.60069
-0.445066 -8.60256 -8.60256
-0.443292 -8.52188 -8.52188
-0.580356 -8.56034 -8.56034
-0.513184 -8.60161 -8.60161
-0.444181 -8.56221 -8.56221
-0.511313 -8.52094 -8.52094
-0.51225 -8.56126 -8.56126
-0.581338 -8.60069 -8.60069
-0.583286 -8.68146 -8.68146
-0.446825 -8.68335 -8.68335
-0.445066 -8.60256 -8.60256
-0.582315 -8.64106 -8.64106
-0.515037 -8.6824 -8.6824
-0.445947 -8.64294 -8.64294
-0.513184 -8.60161 -8.60161
-0.514113 -8.64199 -8.64199
-0.583286 -8.68146 -8.68146
-0.585213 -8.76235 -8.76235
-0.448569 -8.76426 -8.76426
-0.446825 -8.68335 -8.68335
-0.584252 -8.72189 -8.72189
-0.516873 -8.76329 -8.76329
-0.447699 -8.72379 -8.72379
-0.515037 -8.6824 -8.6824
-0.515957 -8.72283 -8.72283
-0.585213 -8.76235 -8.76235
-0.587118 -8.84335 -8.84335
-0.450299 -8.84527 -8.84527
-0.448569 -8.76426 -8.76426
-0.586168 -8.80284 -8.80284
-0.51869 -8.8443 -8.8443
-0.449436 -8.80475 -8.80475
-0.516873 -8.76329 -8.76329
-0.517784 -8.80378 -8.80378
-0.587118 -8.84335 -8.84335
-0.589001 -8.92444 -8.92444
-0.452015 -8.92638 -8.92638
-0.450299 -8.84527 -8.84527
-0.588062 -8.88388 -8.88388
-0.52049 -8.9254 -8.9254
-0.451159 -8.88581 -8.88581
-0.51869 -8.8443 -8.8443
-0.519592 -8.88484 -8.88484
-0.589001 -8.92444 -8.92444
-0.590862 -9.00564 -9.00564
-0.453715 -9.00759 -9.00759
-0.452015 -8.92638 -8.92638
-0.589934 -8.96503 -8.96503
-0.522271 -9.00661 -9.00661
-0.452867 -8.96698 -8.96698
-0.52049 -8.9254 -8.9254
-0.521382 -8.96599 -8.96599
-0.590862 -9.00564 -9.00564
-0.592701 -9.08693 -9.08693
-0.455401 -9.0889 -9.0889
-0.453715 -9.00759 -9.00759
-0.591784 -9.04627 -9.04627
-0.524033 -9.0879 -9.0879
-0.45456 -9.04823 -9.04823
-0.522271 -9.00661 -9.00661
-0.523154 -9.04724 -9.04724
-0.592701 -9.08693 -9.08693
-0.594518 -9.1683 -9.1683
-0.457072 -9.17029 -9.17029
-0.455401 -9.0889 -9.0889
-0.593612 -9.1276 -9.1276
-0.525777 -9.16929 -9.16929
-0.456238 -9.12958 -9.12958
-0.524033 -9.0879 -9.0879
-0.524907 -9.12859 -9.12859
-0.594518 -9.1683 -9.1683
-0.596313 -9.24977 -9.24977
-0.458727 -9.25177 -9.25177
-0.457072 -9.17029 -9.17029
-0.595418 -9.20903 -9.20903
-0.527502 -9.25076 -9.25076
-0.457901 -9.21102 -9.21102
-0.525777 -9.16929 -9.16929
-0.526642 -9.21002 -9.21002
-0.596313 -9.24977 -9.24977
-0.598085 -9.33131 -9.33131
-0.460367 -9.33333 -9.33333
-0.458727 -9.25177 -9.25177
-0.597202 -9.29053 -9.29053
-0.529208 -9.33231 -9.33231
-0.459549 -9.29254 -9.29254
-0.527502 -9.25076 -9.25076
-0.528358 -9.29153 -9.29153
-0.598085 -9.33131 -9.33131
-0.599834 -9.41294 -9.41294
-0.461992 -9.41497 -9.41497
-0.460367 -9.33333 -9.33333
-0.598962 -9.37211 -9.37211
-0.530895 -9.41394 -9.41394
-0.461182 -9.37414 -9.37414
-0.529208 -9.33231 -9.33231
-0.530054 -9.37312 -9.37312
-0.599834 -9.41294 -9.41294
-0.601561 -9.49463 -9.49463
-0.463601 -9.49668 -9.49668
-0.461992 -9.41497 -9.41497
-0.600701 -9.45377 -9.45377
-0.532564 -9.49565 -9.49565
-0.462799 -9.45581 -9.45581
-0.530895 -9.41394 -9.41394
-0.531732 -9.45479 -9.45479
-0.601561 -9.49463 -9.49463
-0.603265 -9.57639 -9.57639
-0.465195 -9.57846 -9.57846
-0.463601 -9.49668 -9.49668
-0.602416 -9.5355 -9.5355
-0.534212 -9.57742 -9.57742
-0.4644 -9.53756 -9.53756
-0.532564 -9.49565 -9.49565
-0.53339 -9.53652 -9.53652
-0.603265 -9.57639 -9.57639
-0.604946 -9.65822 -9.65822
-0.466773 -9.6603 -9.6603
-0.465195 -9.57846 -9.57846
-0.604109 -9.6173 -9.6173
-0.535842 -9.65925 -9.65925
-0.465986 -9.61937 -9.61937
-0.534212 -9.57742 -9.57742
-0.53503 -9.61833 -9.61833
-0.604946 -9.65822 -9.65822
-0.606604 -9.74011 -9.74011
-0.468335 -9.7422 -9.7422
-0.466773 -9.6603 -9.6603
-0.605778 -9.69916 -9.69916
-0.537452 -9.74115 -9.74115
-0.467556 -9.70124 -9.70124
-0.535842 -9.65925 -9.65925
-0.536649 -9.70019 -9.70019
-0.606604 -9.74011 -9.74011
-0.608239 -9.82205 -9.82205
-0.46988 -9.82416 -9.82416
-0.468335 -9.7422 -9.7422
-0.607425 -9.78107 -9.78107
-0.539042 -9.8231 -9.8231
-0.469109 -9.78317 -9.78317
-0.537452 -9.74115 -9.74115
-0.538249 -9.78212 -9.78212
-0.608239 -9.82205 -9.82205
-0.60985 -9.90405 -9.90405
-0.47141 -9.90617 -9.90617
-0.46988 -9.82416 -9.82416
-0.609048 -9.86304 -9.86304
-0.540612 -9.9051 -9.9051
-0.470647 -9.86516 -9.86516
-0.539042 -9.8231 -9.8231
-0.53983 -9.8641 -9.8641
-0.60985 -9.90405 -9.90405
-0.611438 -9.98609 -9.98609
-0.472923 -9.98822 -9.98822
-0.47141 -9.90617 -9.90617
-0.610647 -9.94506 -9.94506
-0.542163 -9.98715 -9.98715
-0.472168 -9.94719 -9.94719
-0.540612 -9.9051 -9.9051
-0.54139 -9.94612 -9.94612
-0.611438 -9.98609 -9.98609
-0.613002 -10.0682 -10.0682
-0.474419 -10.0703 -10.0703
-0.472923 -9.98822 -9.98822
-0.612223 -10.0271 -10.0271
-0.543693 -10.0692 -10.0692
-0.473673 -10.0293 -10.0293
-0.542163 -9.98715 -9.98715
-0.542931 -10.0282 -10.0282
-0.613002 -10.0682 -10.0682
-0.614543 -10.1503 -10.1503
-0.475899 -10.1525 -10.1525
-0.474419 -10.0703 -10.0703
-0.613776 -10.1092 -10.1092
-0.545204 -10.1514 -10.1514
-0.475161 -10.1114 -10.1114
-0.543693 -10.0692 -10.0692
-0.544451 -10.1103 -10.1103
-0.614543 -10.1503 -10.1503
-0.616061 -10.2325 -10.2325
-0.477362 -10.2346 -10.2346
-0.475899 -10.1525 -10.1525
-0.615305 -10.1914 -10.1914
-0.546695 -10.2335 -10.2335
-0.476633 -10.1935 -10.1935
-0.545204 -10.1514 -10.1514
-0.545952 -10.1925 -10.1925
-0.616061 -10.2325 -10.2325
-0.617556 -10.3146 -10.3146
-0.478808 -10.3168 -10.3168
-0.477362 -10.2346 -10.2346
-0.616811 -10.2735 -10.2735
-0.548166 -10.3157 -10.3157
-0.478087 -10.2757 -10.2757
-0.546695 -10.2335 -10.2335
-0.547432 -10.2746 -10.2746
-0.617556 -10.3146 -10.3146
-0.619031 -10.3969 -10.3969
-0.480235 -10.3991 -10.3991
-0.478808 -10.3168 -10.3168
-0.618296 -10.3558 -10.3558
-0.549618 -10.398 -10.398
-0.479524 -10.3579 -10.3579
-0.548166 -10.3157 -10.3157
-0.548894 -10.3568 -10.3568
-0.619031 -10.3969 -10.3969
-0.620487 -10.4791 -10.4791
-0.481644 -10.4813 -10.4813
-0.480235 -10.3991 -10.3991
-0.619761 -10.438 -10.438
-0.551051 -10.4802 -10.4802
-0.480942 -10.4402 -10.4402
-0.549618 -10.398 -10.398
-0.550337 -10.4391 -10.4391
-0.620487 -10.4791 -10.4791
-0.621931 -10.5614 -10.5614
-0.483033 -10.5636 -10.5636
-0.481644 -10.4813 -10.4813
-0.62121 -10.5202 -10.5202
-0.552468 -10.5625 -10.5625
-0.482341 -10.5224 -10.5224
-0.551051 -10.4802 -10.4802
-0.551762 -10.5213 -10.5213
-0.621931 -10.5614 -10.5614
-0.623372 -10.6437 -10.6437
-0.484399 -10.6459 -10.6459
-0.483033 -10.5636 -10.5636
-0.622651 -10.6025 -10.6025
-0.553865 -10.6448 -10.6448
-0.483719 -10.6047 -10.6047
-0.552468 -10.5625 -10.5625
-0.553169 -10.6036 -10.6036
-0.623372 -10.6437 -10.6437
-0.624838 -10.726 -10.726
-0.485745 -10.7283 -10.7283
-0.484399 -10.6459 -10.6459
-0.6241 -10.6848 -10.6848
-0.555238 -10.7272 -10.7272
-0.485073 -10.6871 -10.6871
-0.553865 -10.6448 -10.6448
-0.554556 -10.6859 -10.6859
-0.624838 -10.726 -10.726
-0.626325 -10.8087 -10.8087
-0.487105 -10.8106 -10.8106
-0.485745 -10.7283 -10.7283
-0.625587 -10.7673 -10.7673
-0.556593 -10.8097 -10.8097
-0.486419 -10.7695 -10.7695
-0.555238 -10.7272 -10.7272
-0.55591 -10.7684 -10.7684
0 0 0
-0.00321145 -0.000906674 -0.000906674
-0.00186896 -0.000189976 -0.000189976
0 0 0
-0.0015583 -0.000324794 -0.000324794
-0.0025153 -0.00046122 -0.00046122
-0.000906134 5.77089e-05 5.77089e-05
0 0 0
-0.0012385 -9.72543e-05 -9.72543e-05
-0.00321145 -0.000906674 -0.000906674
-0.00668894 -0.0026185 -0.0026185
-0.00388065 -0.001446 -0.001446
-0.00186896 -0.000189976 -0.000189976
-0.00493365 -0.0016799 -0.0016799
-0.00523729 -0.00193125 -0.00193125
-0.00286224 -0.000697351 -0.000697351
-0.0025153 -0.00046122 -0.00046122
-0.0038545 -0.00108382 -0.00108382
-0.00668894 -0.0026185 -0.0026185
-0.0101979 -0.00497074 -0.00497074
-0.00597631 -0.00361993 -0.00361993
-0.00388065 -0.001446 -0.001446
-0.00844547 -0.0037118 -0.0037118
-0.00804566 -0.00420059 -0.00420059
-0.00492206 -0.00242421 -0.00242421
-0.00523729 -0.00193125 -0.00193125
-0.00663792 -0.00297088 -0.00297088
-0.0101979 -0.00497074 -0.00497074
-0.0136895 -0.00803484 -0.00803484
-0.00808956 -0.00663043 -0.00663043
-0.00597631 -0.00361993 -0.00361993
-0.0119467 -0.00640963 -0.00640963
-0.0108595 -0.00724457 -0.00724457
-0.00703307 -0.00502288 -0.00502288
-0.00804566 -0.00420059 -0.00420059
-0.00945416 -0.00562493 -0.00562493
-0.0136895 -0.00803484 -0.00803484
-0.0171521 -0.0118616 -0.0118616
-0.0101963 -0.0104554 -0.0104554
-0.00808956 -0.00663043 -0.00663043
-0.0154242 -0.00985072 -0.00985072
-0.013652 -0.0110725 -0.0110725
-0.00914465 -0.00844173 -0.00844173
-0.0108595 -0.00724457 -0.00724457
-0.0122588 -0.00905969 -0.00905969
-0.0171521 -0.0118616 -0.0118616
-0.0205927 -0.0164804 -0.0164804
-0.0122845 -0.0150864 -0.0150864
-0.0101963 -0.0104554 -0.0104554
-0.0188749 -0.0140711 -0.0140711
-0.0164213 -0.0156983 -0.0156983
-0.0112428 -0.0126703 -0.0126703
-0.013652 -0.0110725 -0.0110725
-0.0150395 -0.0132852 -0.0132852
-0.0205927 -0.0164804 -0.0164804
-0.0240128 -0.0218994 -0.0218994
-0.0143553 -0.020522 -0.020522
-0.0122845 -0.0150864 -0.0150864
-0.0223052 -0.0190896 -0.0190896
-0.0191694 -0.0211257 -0.0211257
-0.0133219 -0.0177038 -0.0177038
-0.0164213 -0.0156983 -0.0156983
-0.0177978 -0.0183117 -0.0183117
-0.0240128 -0.0218994 -0.0218994
-0.0274154 -0.0281208 -0.0281208
-0.0164102 -0.0267592 -0.0267592
-0.0143553 -0.020522 -0.020522
-0.0257163 -0.0249099 -0.0249099
-0.0218996 -0.0273551 -0.0273551
-0.0153845 -0.0235405 -0.0235405
-0.0191694 -0.0211257 -0.0211257
-0.0205366 -0.0241402 -0.0241402
-0.0274154 -0.0281208 -0.0281208
-0.0308013 -0.0351422 -0.0351422
-0.018452 -0.0337954 -0.0337954
-0.0164102 -0.0267592 -0.0267592
-0.0291104 -0.0315317 -0.0315317
-0.0246141 -0.034384 -0.034384
-0.0174326 -0.0301776 -0.0301776
-0.0218996 -0.0273551 -0.0273551
-0.0232587 -0.0307698 -0.0307698
-0.0308013 -0.0351422 -0.0351422
-0.0341712 -0.04296 -0.04296
-0.0204827 -0.0416269 -0.0416269
-0.018452 -0.0337954 -0.0337954
-0.0324882 -0.0389518 -0.0389518
-0.0273147 -0.0422089 -0.0422089
-0.0194687 -0.037612 -0.037612
-0.0246141 -0.034384 -0.034384
-0.0259661 -0.0381972 -0.0381972
-0.0341712 -0.04296 -0.04296
-0.0375256 -0.0515699 -0.0515699
-0.0225037 -0.0502499 -0.0502499
-0.0204827 -0.0416269 -0.0416269
-0.0358503 -0.0471662 -0.0471662
-0.0300025 -0.0508257 -0.0508257
-0.0214944 -0.0458397 -0.0458397
-0.0273147 -0.0422089 -0.0422089
-0.0286602 -0.0464185 -0.0464185
-0.0375256 -0.0515699 -0.0515699
-0.0408648 -0.0609675 -0.0609675
-0.0245159 -0.0596604 -0.0596604
-0.0225037 -0.0502499 -0.0502499
-0.0391971 -0.0561705 -0.0561705
-0.0326782 -0.0602301 -0.0602301
-0.0235108 -0.054857 -0.054857
-0.0300025 -0.0508257 -0.0508257
-0.0313419 -0.0554297 -0.0554297
-0.0408648 -0.0609675 -0.0609675
-0.044189 -0.0711484 -0.0711484
-0.0265199 -0.0698541 -0.0698541
-0.0245159 -0.0596604 -0.0596604
-0.0425288 -0.0659603 -0.0659603
-0.0353424 -0.0704178 -0.0704178
-0.0255189 -0.0646596 -0.0646596
-0.0326782 -0.0602301 -0.0602301
-0.0340117 -0.0652263 -0.0652263
-0.044189 -0.0711484 -0.0711484
-0.0474986 -0.0821083 -0.0821083
-0.0285162 -0.080827 -0.080827
-0.0265199 -0.0698541 -0.0698541
-0.0458456 -0.0765312 -0.0765312
-0.0379953 -0.0813846 -0.0813846
-0.027519 -0.0752434 -0.0752434
-0.0353424 -0.0704178 -0.0704178
-0.0366702 -0.0758041 -0.0758041
-0.0474986 -0.0821083 -0.0821083
-0.0507937 -0.0938427 -0.0938427
-0.0305051 -0.0925748 -0.0925748
-0.0285162 -0.080827 -0.080827
-0.0491479 -0.0878789 -0.0878789
-0.0406372 -0.0931262 -0.0931262
-0.0295115 -0.0866043 -0.0866043
-0.0379953 -0.0813846 -0.0813846
-0.0393176 -0.0871588 -0.0871588
-0.0507937 -0.0938427 -0.0938427
-0.0540745 -0.106348 -0.106348
-0.0324868 -0.105093 -0.105093
-0.0305051 -0.0925748 -0.0925748
-0.0524358 -0.0999991 -0.0999991
-0.0432685 -0.105638 -0.105638
-0.0314968 -0.0987379 -0.0987379
-0.0406372 -0.0931262 -0.0931262
-0.0419542 -0.0992862 -0.0992862
-0.0540745 -0.106348 -0.106348
-0.0573412 -0.119619 -0.119619
-0.0344617 -0.118378 -0.118378
-0.0324868 -0.105093 -0.105093
-0.0557096 -0.112888 -0.112888
-0.0458893 -0.118917 -0.118917
-0.0334751 -0.11164 -0.11164
-0.0432685 -0.105638 -0.105638
-0.0445802 -0.112182 -0.112182
-0.0573412 -0.119619 -0.119619
-0.0605941 -0.133651 -0.133651
-0.0364299 -0.132425 -0.132425
-0.0344617 -0.118378 -0.118378
-0.0589694 -0.12654 -0.12654
-0.0484998 -0.132957 -0.132957
-0.0354466 -0.125307 -0.125307
-0.0458893 -0.118917 -0.118917
-0.0471958 -0.125842 -0.125842
-0.0605941 -0.133651 -0.133651
-0.0638334 -0.148442 -0.148442
-0.0383916 -0.14723 -0.14723
-0.0364299 -0.132425 -0.132425
-0.0622155 -0.140952 -0.140952
-0.0511003 -0.147755 -0.147755
-0.0374116 -0.139733 -0.139733
-0.0484998 -0.132957 -0.132957
-0.0498013 -0.140262 -0.140262
-0.0638334 -0.148442 -0.148442
-0.0670592 -0.163986 -0.163986
-0.0403471 -0.162789 -0.162789
-0.0383916 -0.14723 -0.14723
-0.065448 -0.15612 -0.15612
-0.0536909 -0.163307 -0.163307
-0.0393701 -0.154916 -0.154916
-0.0511003 -0.147755 -0.147755
-0.0523968 -0.155437 -0.155437
-0.0670592 -0.163986 -0.163986
-0.0702718 -0.180279 -0.180279
-0.0422965 -0.179097 -0.179097
-0.0403471 -0.162789 -0.162789
-0.0686672 -0.172039 -0.172039
-0.0562719 -0.179608 -0.179608
-0.0413225 -0.17085 -0.17085
-0.0536909 -0.163307 -0.163307
-0.0549826 -0.171364 -0.171364
-0.0702718 -0.180279 -0.180279
-0.0734714 -0.197317 -0.197317
-0.04424 -0.196151 -0.196151
-0.0422965 -0.179097 -0.179097
-0.0718732 -0.188705 -0.188705
-0.0588434 -0.196655 -0.196655
-0.043269 -0.187531 -0.187531
-0.0562719 -0.179608 -0.179608
-0.0575588 -0.188038 -0.188038
-0.0734714 -0.197317 -0.197317
-0.0766581 -0.215095 -0.215095
-0.0461778 -0.213946 -0.213946
-0.04424 -0.196151 -0.196151
-0.0750663 -0.206114 -0.206114
-0.0614056 -0.214442 -0.214442
-0.0452096 -0.204956 -0.204956
-0.0588434 -0.196655 -0.196655
-0.0601256 -0.205456 -0.205456
-0.0766581 -0.215095 -0.215095
-0.0798321 -0.233611 -0.233611
-0.0481101 -0.232477 -0.232477
-0.0461778 -0.213946 -0.213946
-0.0782466 -0.224261 -0.224261
-0.0639588 -0.232966 -0.232966
-0.0471446 -0.22312 -0.22312
-0.0614056 -0.214442 -0.214442
-0.0626833 -0.223612 -0.223612
-0.0798321 -0.233611 -0.233611
-0.0829936 -0.252858 -0.252858
-0.0500371 -0.251741 -0.251741
-0.0481101 -0.232477 -0.232477
-0.0814144 -0.243143 -0.243143
-0.066503 -0.252222 -0.252222
-0.0490743 -0.242018 -0.242018
-0.0639588 -0.232966 -0.232966
-0.065232 -0.242502 -0.242502
-0.0829936 -0.252858 -0.252858
-0.0861428 -0.272834 -0.272834
-0.0519589 -0.271734 -0.271734
-0.0500371 -0.251741 -0.251741
-0.0845697 -0.262755 -0.262755
-0.0690385 -0.272206 -0.272206
-0.0509986 -0.261647 -0.261647
-0.066503 -0.252222 -0.252222
-0.0677718 -0.262123 -0.262123
-0.0861428 -0.272834 -0.272834
-0.0892799 -0.293533 -0.293533
-0.0538758 -0.29245 -0.29245
-0.0519589 -0.271734 -0.271734
-0.0877128 -0.283094 -0.283094
-0.0715654 -0.292915 -0.292915
-0.052918 -0.282002 -0.282002
-0.0690385 -0.272206 -0.272206
-0.070303 -0.28247 -0.28247
-0.0892799 -0.293533 -0.293533
-0.092405 -0.314953 -0.314953
-0.0557879 -0.313887 -0.313887
-0.0538758 -0.29245 -0.29245
-0.0908439 -0.304153 -0.304153
-0.074084 -0.314343 -0.314343
-0.0548324 -0.303079 -0.303079
-0.0715654 -0.292915 -0.292915
-0.0728258 -0.303539 -0.303539
-0.092405 -0.314953 -0.314953
-0.0955183 -0.337087 -0.337087
-0.0576953 -0.336039 -0.336039
-0.0557879 -0.313887 -0.313887
-0.0939631 -0.325931 -0.325931
-0.0765944 -0.336487 -0.336487
-0.0567422 -0.324874 -0.324874
-0.074084 -0.314343 -0.314343
-0.0753402 -0.325326 -0.325326
-0.0955183 -0.337087 -0.337087
-0.09862 -0.359933 -0.359933
-0.0595983 -0.358903 -0.358903
-0.0576953 -0.336039 -0.336039
-0.0970706 -0.348421 -0.348421
-0.0790967 -0.359342 -0.359342
-0.0586473 -0.347382 -0.347382
-0.0765944 -0.336487 -0.336487
-0.0778465 -0.347826 -0.347826
-0.09862 -0.359933 -0.359933
-0.10171 -0.383485 -0.383485
-0.0614969 -0.382474 -0.382474
-0.0595983 -0.358903 -0.358903
-0.100166 -0.371621 -0.371621
-0.0815911 -0.382904 -0.382904
-0.0605481 -0.3706 -0.3706
-0.0790967 -0.359342 -0.359342
-0.0803449 -0.371035 -0.371035
-0.10171 -0.383485 -0.383485
-0.104789 -0.407741 -0.407741
-0.0633914 -0.406747 -0.406747
-0.0614969 -0.382474 -0.382474
-0.103251 -0.395525 -0.395525
-0.0840778 -0.407169 -0.407169
-0.0624447 -0.394523 -0.394523
-0.0815911 -0.382904 -0.382904
-0.0828354 -0.394949 -0.394949
-0.104789 -0.407741 -0.407741
-0.107857 -0.432695 -0.432695
-0.065282 -0.43172 -0.43172
-0.0633914 -0.406747 -0.406747
-0.106324 -0.420131 -0.420131
-0.0865569 -0.432133 -0.432133
-0.0643372 -0.419147 -0.419147
-0.0840778 -0.407169 -0.407169
-0.0853183 -0.419564 -0.419564
-0.107857 -0.432695 -0.432695
-0.110913 -0.458343 -0.458343
-0.0671686 -0.457387 -0.457387
-0.065282 -0.43172 -0.43172
-0.109387 -0.445432 -0.445432
-0.0890285 -0.457791 -0.457791
-0.0662258 -0.444467 -0.444467
-0.0865569 -0.432133 -0.432133
-0.0877936 -0.444875 -0.444875
-0.110913 -0.458343 -0.458343
-0.113959 -0.484681 -0.484681
-0.0690516 -0.483744 -0.483744
-0.0671686 -0.457387 -0.457387
-0.112438 -0.471426 -0.471426
-0.0914929 -0.484139 -0.484139
-0.0681106 -0.47048 -0.47048
-0.0890285 -0.457791 -0.457791
-0.0902616 -0.470879 -0.470879
-0.113959 -0.484681 -0.484681
-0.116994 -0.511705 -0.511705
-0.070931 -0.510788 -0.510788
-0.0690516 -0.483744 -0.483744
-0.115478 -0.498107 -0.498107
-0.0939502 -0.511173 -0.511173
-0.0699917 -0.497181 -0.497181
-0.0914929 -0.484139 -0.484139
-0.0927224 -0.497571 -0.497571
-0.116994 -0.511705 -0.511705
-0.120019 -0.53941 -0.53941
-0.072807 -0.538513 -0.538513
-0.070931 -0.510788 -0.510788
-0.118508 -0.525472 -0.525472
-0.0964004 -0.538889 -0.538889
-0.0718694 -0.524566 -0.524566
-0.0939502 -0.511173 -0.511173
-0.0951762 -0.524946 -0.524946
-0.120019 -0.53941 -0.53941
-0.123033 -0.567793 -0.567793
-0.0746797 -0.566916 -0.566916
-0.072807 -0.538513 -0.538513
-0.121527 -0.553517 -0.553517
-0.0988438 -0.567283 -0.567283
-0.0737437 -0.55263 -0.55263
-0.0964004 -0.538889 -0.538889
-0.097623 -0.553001 -0.553001
-0.123033 -0.567793 -0.567793
-0.126037 -0.596849 -0.596849
-0.0765492 -0.595992 -0.595992
-0.0746797 -0.566916 -0.566916
-0.124536 -0.582237 -0.582237
-0.10128 -0.596349 -0.596349
-0.0756148 -0.58137 -0.58137
-0.0988438 -0.567283 -0.567283
-0.100063 -0.581732 -0.581732
-0.126037 -0.596849 -0.596849
-0.12903 -0.626574 -0.626574
-0.0784158 -0.625738 -0.625738
-0.0765492 -0.595992 -0.595992
-0.127535 -0.611628 -0.611628
-0.103711 -0.626085 -0.626085
-0.0774829 -0.610782 -0.610782
-0.10128 -0.596349 -0.596349
-0.102496 -0.611134 -0.611134
-0.12903 -0.626574 -0.626574
-0.132014 -0.656964 -0.656964
-0.0802794 -0.656148 -0.656148
-0.0784158 -0.625738 -0.625738
-0.130523 -0.641686 -0.641686
-0.106134 -0.656485 -0.656485
-0.079348 -0.64086 -0.64086
-0.103711 -0.626085 -0.626085
-0.104923 -0.641202 -0.641202
-0.132014 -0.656964 -0.656964
-0.134988 -0.688014 -0.688014
-0.0821403 -0.687219 -0.687219
-0.0802794 -0.656148 -0.656148
-0.133502 -0.672406 -0.672406
-0.108551 -0.687546 -0.687546
-0.0812102 -0.671601 -0.671601
-0.106134 -0.656485 -0.656485
-0.107343 -0.671933 -0.671933
-0.134988 -0.688014 -0.688014
-0.137951 -0.71972 -0.71972
-0.0839985 -0.718946 -0.718946
-0.0821403 -0.687219 -0.687219
-0.136471 -0.703785 -0.703785
-0.110962 -0.719263 -0.719263
-0.0830697 -0.703001 -0.703001
-0.108551 -0.687546 -0.687546
-0.109758 -0.703323 -0.703323
-0.137951 -0.71972 -0.71972
-0.140905 -0.752078 -0.752078
-0.0858542 -0.751326 -0.751326
-0.0839985 -0.718946 -0.718946
-0.13943 -0.735818 -0.735818
-0.113367 -0.751633 -0.751633
-0.0849267 -0.735055 -0.735055
-0.110962 -0.719263 -0.719263
-0.112165 -0.735367 -0.735367
-0.140905 -0.752078 -0.752078
-0.14385 -0.785085 -0.785085
-0.0877075 -0.784353 -0.784353
-0.0858542 -0.751326 -0.751326
-0.142379 -0.768501 -0.768501
-0.115766 -0.78465 -0.78465
-0.0867811 -0.767759 -0.767759
-0.113367 -0.751633 -0.751633
-0.114567 -0.768061 -0.768061
-0.14385 -0.785085 -0.785085
-0.146785 -0.818734 -0.818734
-0.0895584 -0.818024 -0.818024
-0.0877075 -0.784353 -0.784353
-0.145319 -0.801829 -0.801829
-0.118159 -0.818311 -0.818311
-0.0886332 -0.801108 -0.801108
-0.115766 -0.78465 -0.78465
-0.116963 -0.8014 -0.8014
-0.146785 -0.818734 -0.818734
-0.149711 -0.853023 -0.853023
-0.0914072 -0.852335 -0.852335
-0.0895584 -0.818024 -0.818024
-0.148249 -0.835799 -0.835799
-0.120546 -0.852611 -0.852611
-0.0904831 -0.8351 -0.8351
-0.118159 -0.818311 -0.818311
-0.119353 -0.835381 -0.835381
-0.149711 -0.853023 -0.853023
-0.152627 -0.887947 -0.887947
-0.0932538 -0.887281 -0.887281
-0.0914072 -0.852335 -0.852335
-0.15117 -0.870406 -0.870406
-0.122928 -0.887547 -0.887547
-0.0923308 -0.869729 -0.869729
-0.120546 -0.852611 -0.852611
-0.121738 -0.87 -0.87
-0.152627 -0.887947 -0.887947
-0.155534 -0.923502 -0.923502
-0.0950985 -0.922858 -0.922858
-0.0932538 -0.887281 -0.887281
-0.154082 -0.905646 -0.905646
-0.125304 -0.923113 -0.923113
-0.0941764 -0.904991 -0.904991
-0.122928 -0.887547 -0.887547
-0.124116 -0.905251 -0.905251
-0.155534 -0.923502 -0.923502
-0.158432 -0.959684 -0.959684
-0.0969412 -0.959062 -0.959062
-0.0950985 -0.922858 -0.922858
-0.156984 -0.941515 -0.941515
-0.127674 -0.959306 -0.959306
-0.0960201 -0.940882 -0.940882
-0.125304 -0.923113 -0.923113
-0.126489 -0.941132 -0.941132
-0.158432 -0.959684 -0.959684
-0.161321 -0.996488 -0.996488
-0.0987821 -0.995888 -0.995888
-0.0969412 -0.959062 -0.959062
-0.159878 -0.978008 -0.978008
-0.130039 -0.996122 -0.996122
-0.0978619 -0.977398 -0.977398
-0.127674 -0.959306 -0.959306
-0.128857 -0.977637 -0.977637
-0.161321 -0.996488 -0.996488
-0.164202 -1.03391 -1.03391
-0.100621 -1.03333 -1.03333
-0.0987821 -0.995888 -0.995888
-0.162763 -1.01512 -1.01512
-0.132399 -1.03356 -1.03356
-0.0997019 -1.01453 -1.01453
-0.130039 -0.996122 -0.996122
-0.13122 -1.01476 -1.01476
-0.164202 -1.03391 -1.03391
-0.167073 -1.07195 -1.07195
-0.102459 -1.07139 -1.07139
-0.100621 -1.03333 -1.03333
-0.165639 -1.05285 -1.05285
-0.134753 -1.0716 -1.0716
-0.10154 -1.05229 -1.05229
-0.132399 -1.03356 -1.03356
-0.133577 -1.0525 -1.0525
-0.167073 -1.07195 -1.07195
-0.169936 -1.11059 -1.11059
-0.104295 -1.11006 -1.11006
-0.102459 -1.07139 -1.07139
-0.168506 -1.09119 -1.09119
-0.137103 -1.11026 -1.11026
-0.103377 -1.09065 -1.09065
-0.134753 -1.0716 -1.0716
-0.135929 -1.09086 -1.09086
-0.169936 -1.11059 -1.11059
-0.17279 -1.14984 -1.14984
-0.106129 -1.14934 -1.14934
-0.104295 -1.11006 -1.11006
-0.171364 -1.13014 -1.13014
-0.139447 -1.14953 -1.14953
-0.105212 -1.12962 -1.12962
-0.137103 -1.11026 -1.11026
-0.138275 -1.12982 -1.12982
-0.17279 -1.14984 -1.14984
-0.175636 -1.1897 -1.1897
-0.107963 -1.18921 -1.18921
-0.106129 -1.14934 -1.14934
-0.174214 -1.1697 -1.1697
-0.141786 -1.18939 -1.18939
-0.107046 -1.1692 -1.1692
-0.139447 -1.14953 -1.14953
-0.140617 -1.16938 -1.16938
-0.175636 -1.1897 -1.1897
-0.178473 -1.23015 -1.23015
-0.109794 -1.22968 -1.22968
-0.107963 -1.18921 -1.18921
-0.177055 -1.20985 -1.20985
-0.144121 -1.22985 -1.22985
-0.108879 -1.20937 -1.20937
-0.141786 -1.18939 -1.18939
-0.142954 -1.20955 -1.20955
-0.178473 -1.23015 -1.23015
-0.181301 -1.27119 -1.27119
-0.111625 -1.27075 -1.27075
-0.109794 -1.22968 -1.22968
-0.179888 -1.25059 -1.25059
-0.14645 -1.27091 -1.27091
-0.11071 -1.25014 -1.25014
-0.144121 -1.22985 -1.22985
-0.145286 -1.25031 -1.25031
-0.181301 -1.27119 -1.27119
-0.184122 -1.31282 -1.31282
-0.113454 -1.3124 -1.3124
-0.111625 -1.27075 -1.27075
-0.182713 -1.29193 -1.29193
-0.148775 -1.31255 -1.31255
-0.11254 -1.2915 -1.2915
-0.14645 -1.27091 -1.27091
-0.147613 -1.29165 -1.29165
-0.184122 -1.31282 -1.31282
-0.186934 -1.35504 -1.35504
-0.115283 -1.35464 -1.35464
-0.113454 -1.3124 -1.3124
-0.185529 -1.33386 -1.33386
-0.151095 -1.35478 -1.35478
-0.114369 -1.33345 -1.33345
-0.148775 -1.31255 -1.31255
-0.149936 -1.33359 -1.33359
-0.186934 -1.35504 -1.35504
-0.189738 -1.39783 -1.39783
-0.11711 -1.39746 -1.39746
-0.115283 -1.35464 -1.35464
-0.188337 -1.37636 -1.37636
-0.153411 -1.39759 -1.39759
-0.116197 -1.37598 -1.37598
-0.151095 -1.35478 -1.35478
-0.152254 -1.37611 -1.37611
-0.189738 -1.39783 -1.39783
-0.192533 -1.4412 -1.4412
-0.118936 -1.44086 -1.44086
-0.11711 -1.39746 -1.39746
-0.191136 -1.41945 -1.41945
-0.155722 -1.44097 -1.44097
-0.118023 -1.41909 -1.41909
-0.153411 -1.39759 -1.39759
-0.154567 -1.41921 -1.41921
-0.192533 -1.4412 -1.4412
-0.195321 -1.48515 -1.48515
-0.120762 -1.48483 -1.48483
-0.118936 -1.44086 -1.44086
-0.193928 -1.4631 -1.4631
-0.158029 -1.48493 -1.48493
-0.119849 -1.46277 -1.46277
-0.155722 -1.44097 -1.44097
-0.156876 -1.46288 -1.46288
-0.195321 -1.48515 -1.48515
-0.198101 -1.52966 -1.52966
-0.122586 -1.52936 -1.52936
-0.120762 -1.48483 -1.48483
-0.196712 -1.50733 -1.50733
-0.160331 -1.52945 -1.52945
-0.121674 -1.50702 -1.50702
-0.158029 -1.48493 -1.48493
-0.15918 -1.50712 -1.50712
-0.198101 -1.52966 -1.52966
-0.200872 -1.57473 -1.57473
-0.12441 -1.57446 -1.57446
-0.122586 -1.52936 -1.52936
-0.199487 -1.55212 -1.55212
-0.162628 -1.57454 -1.57454
-0.123498 -1.55184 -1.55184
-0.160331 -1.52945 -1.52945
-0.16148 -1.55192 -1.55192
-0.200872 -1.57473 -1.57473
-0.203636 -1.62036 -1.62036
-0.126233 -1.62012 -1.62012
-0.12441 -1.57446 -1.57446
-0.202255 -1.59748 -1.59748
-0.164921 -1.62018 -1.62018
-0.125321 -1.59722 -1.59722
-0.162628 -1.57454 -1.57454
-0.163775 -1.59729 -1.59729
-0.203636 -1.62036 -1.62036
-0.206392 -1.66655 -1.66655
-0.128055 -1.66633 -1.66633
-0.126233 -1.62012 -1.62012
-0.205015 -1.64339 -1.64339
-0.16721 -1.66638 -1.66638
-0.127144 -1.64315 -1.64315
-0.164921 -1.62018 -1.62018
-0.166066 -1.64321 -1.64321
-0.206392 -1.66655 -1.66655
-0.20914 -1.71329 -1.71329
-0.129876 -1.71309 -1.71309
-0.128055 -1.66633 -1.66633
-0.207767 -1.68985 -1.68985
-0.169495 -1.71313 -1.71313
-0.128966 -1.68964 -1.68964
-0.16721 -1.66638 -1.66638
-0.168353 -1.68969 -1.68969
-0.20914 -1.71329 -1.71329
-0.21188 -1.76058 -1.76058
-0.131697 -1.7604 -1.7604
-0.129876 -1.71309 -1.71309
-0.210511 -1.73686 -1.73686
-0.171776 -1.76043 -1.76043
-0.130787 -1.73668 -1.73668
-0.169495 -1.71313 -1.71313
-0.170636 -1.73671 -1.73671
-0.21188 -1.76058 -1.76058
-0.214612 -1.8084 -1.8084
-0.133518 -1.80825 -1.80825
-0.131697 -1.7604 -1.7604
-0.213247 -1.78442 -1.78442
-0.174052 -1.80827 -1.80827
-0.132608 -1.78426 -1.78426
-0.171776 -1.76043 -1.76043
-0.172914 -1.78428 -1.78428
-0.214612 -1.8084 -1.8084
-0.217337 -1.85677 -1.85677
-0.135337 -1.85664 -1.85664
-0.133518 -1.80825 -1.80825
-0.215975 -1.83252 -1.83252
-0.176324 -1.85665 -1.85665
-0.134428 -1.83238 -1.83238
-0.174052 -1.80827 -1.80827
-0.175189 -1.83239 -1.83239
-0.217337 -1.85677 -1.85677
-0.220054 -1.90567 -1.90567
-0.137156 -1.90556 -1.90556
-0.135337 -1.85664 -1.85664
-0.218696 -1.88115 -1.88115
-0.178592 -1.90556 -1.90556
-0.136247 -1.88103 -1.88103
-0.176324 -1.85665 -1.85665
-0.177459 -1.88104 -1.88104
-0.220054 -1.90567 -1.90567
-0.222763 -1.95509 -1.95509
-0.138975 -1.95501 -1.95501
-0.137156 -1.90556 -1.90556
-0.221409 -1.93031 -1.93031
-0.180856 -1.955 -1.955
-0.138066 -1.93022 -1.93022
-0.178592 -1.90556 -1.90556
-0.179725 -1.93021 -1.93021
-0.222763 -1.95509 -1.95509
-0.225465 -2.00505 -2.00505
-0.140793 -2.00499 -2.00499
-0.138975 -1.95501 -1.95501
-0.224115 -1.98 -1.98
-0.183116 -2.00496 -2.00496
-0.139884 -1.97994 -1.97994
-0.180856 -1.955 -1.955
-0.181987 -1.97992 -1.97992
-0.225465 -2.00505 -2.00505
-0.228159 -2.05552 -2.05552
-0.142611 -2.05549 -2.05549
-0.140793 -2.00499 -2.00499
-0.226813 -2.03022 -2.03022
-0.185372 -2.05545 -2.05545
-0.141702 -2.03018 -2.03018
-0.183116 -2.00496 -2.00496
-0.184245 -2.03014 -2.03014
-0.228159 -2.05552 -2.05552
-0.230845 -2.10651 -2.10651
-0.144428 -2.10651 -2.10651
-0.142611 -2.05549 -2.05549
-0.229503 -2.08095 -2.08095
-0.187624 -2.10645 -2.10645
-0.14352 -2.08093 -2.08093
-0.185372 -2.05545 -2.05545
-0.186498 -2.08089 -2.08089
-0.230845 -2.10651 -2.10651
-0.233524 -2.15801 -2.15801
-0.146245 -2.15803 -2.15803
-0.144428 -2.10651 -2.10651
-0.232185 -2.1322 -2.1322
-0.189872 -2.15797 -2.15797
-0.145337 -2.13221 -2.13221
-0.187624 -2.10645 -2.10645
-0.188748 -2.13215 -2.13215
-0.233524 -2.15801 -2.15801
-0.236195 -2.21002 -2.21002
-0.148062 -2.21007 -2.21007
-0.146245 -2.15803 -2.15803
-0.234861 -2.18396 -2.18396
-0.192116 -2.20999 -2.20999
-0.147154 -2.18399 -2.18399
-0.189872 -2.15797 -2.15797
-0.190994 -2.18392 -2.18392
-0.236195 -2.21002 -2.21002
-0.238859 -2.26254 -2.26254
-0.149878 -2.26261 -2.26261
-0.148062 -2.21007 -2.21007
-0.237528 -2.23622 -2.23622
-0.194356 -2.26252 -2.26252
-0.14897 -2.23628 -2.23628
-0.192116 -2.20999 -2.20999
-0.193236 -2.2362 -2.2362
-0.238859 -2.26254 -2.26254
-0.241515 -2.31556 -2.31556
-0.151694 -2.31565 -2.31565
-0.149878 -2.26261 -2.26261
-0.240188 -2.28899 -2.28899
-0.196592 -2.31555 -2.31555
-0.150786 -2.28907 -2.28907
-0.194356 -2.26252 -2.26252
-0.195474 -2.28897 -2.28897
-0.241515 -2.31556 -2.31556
-0.244164 -2.36907 -2.36907
-0.153509 -2.36919 -2.36919
-0.151694 -2.31565 -2.31565
-0.242841 -2.34225 -2.34225
-0.198824 -2.36907 -2.36907
-0.152602 -2.34236 -2.34236
-0.196592 -2.31555 -2.31555
-0.197708 -2.34225 -2.34225
-0.244164 -2.36907 -2.36907
-0.246805 -2.42307 -2.42307
-0.155324 -2.42321 -2.42321
-0.153509 -2.36919 -2.36919
-0.245486 -2.39601 -2.39601
-0.201052 -2.42309 -2.42309
-0.154417 -2.39614 -2.39614
-0.198824 -2.36907 -2.36907
-0.199938 -2.39602 -2.39602
-0.246805 -2.42307 -2.42307
-0.249439 -2.47756 -2.47756
-0.157139 -2.47773 -2.47773
-0.155324 -2.42321 -2.42321
-0.248123 -2.45025 -2.45025
-0.203276 -2.47759 -2.47759
-0.156232 -2.45041 -2.45041
-0.201052 -2.42309 -2.42309
-0.202165 -2.45028 -2.45028
-0.249439 -2.47756 -2.47756
-0.252065 -2.53253 -2.53253
-0.158953 -2.53272 -2.53272
-0.157139 -2.47773 -2.47773
-0.250753 -2.50498 -2.50498
-0.205496 -2.53258 -2.53258
-0.158046 -2.50517 -2.50517
-0.203276 -2.47759 -2.47759
-0.204387 -2.50502 -2.50502
-0.252065 -2.53253 -2.53253
-0.254684 -2.58798 -2.58798
-0.160767 -2.5882 -2.5882
-0.158953 -2.53272 -2.53272
-0.253376 -2.5602 -2.5602
-0.207713 -2.58804 -2.58804
-0.15986 -2.5604 -2.5604
-0.205496 -2.53258 -2.53258
-0.206605 -2.56025 -2.56025
-0.254684 -2.58798 -2.58798
-0.257295 -2.64391 -2.64391
-0.162581 -2.64415 -2.64415
-0.160767 -2.5882 -2.5882
-0.255991 -2.61588 -2.61588
-0.209925 -2.64398 -2.64398
-0.161674 -2.61612 -2.61612
-0.207713 -2.58804 -2.58804
-0.20882 -2.61595 -2.61595
-0.257295 -2.64391 -2.64391
-0.259899 -2.7003 -2.7003
-0.164394 -2.70057 -2.70057
-0.162581 -2.64415 -2.64415
-0.258598 -2.67205 -2.67205
-0.212134 -2.70039 -2.70039
-0.163488 -2.6723 -2.6723
-0.209925 -2.64398 -2.64398
-0.21103 -2.67212 -2.67212
-0.259899 -2.7003 -2.7003
-0.262495 -2.75716 -2.75716
-0.166207 -2.75746 -2.75746
-0.164394 -2.70057 -2.70057
-0.261198 -2.72867 -2.72867
-0.214338 -2.75726 -2.75726
-0.165301 -2.72896 -2.72896
-0.212134 -2.70039 -2.70039
-0.213237 -2.72877 -2.72877
-0.262495 -2.75716 -2.75716
-0.265084 -2.81449 -2.81449
-0.16802 -2.8148 -2.8148
-0.166207 -2.75746 -2.75746
-0.26379 -2.78577 -2.78577
-0.216539 -2.8146 -2.8146
-0.167114 -2.78607 -2.78607
-0.214338 -2.75726 -2.75726
-0.215439 -2.78587 -2.78587
-0.265084 -2.81449 -2.81449
-0.267665 -2.87227 -2.87227
-0.169832 -2.87261 -2.87261
-0.16802 -2.8148 -2.8148
-0.266375 -2.84332 -2.84332
-0.218736 -2.87239 -2.87239
-0.168926 -2.84365 -2.84365
-0.216539 -2.8146 -2.8146
-0.217638 -2.84344 -2.84344
-0.267665 -2.87227 -2.87227
-0.270238 -2.9305 -2.9305
-0.171644 -2.93087 -2.93087
-0.169832 -2.87261 -2.87261
-0.268953 -2.90133 -2.90133
-0.220928 -2.93064 -2.93064
-0.170738 -2.90168 -2.90168
-0.218736 -2.87239 -2.87239
-0.219833 -2.90146 -2.90146
-0.270238 -2.9305 -2.9305
-0.272804 -2.98918 -2.98918
-0.173456 -2.98958 -2.98958
-0.171644 -2.93087 -2.93087
-0.271522 -2.95979 -2.95979
-0.223117 -2.98933 -2.98933
-0.17255 -2.96017 -2.96017
-0.220928 -2.93064 -2.93064
-0.222023 -2.95993 -2.95993
-0.272804 -2.98918 -2.98918
-0.275363 -3.04831 -3.04831
-0.175267 -3.04873 -3.04873
-0.173456 -2.98958 -2.98958
-0.274085 -3.01869 -3.01869
-0.225302 -3.04847 -3.04847
-0.174361 -3.0191 -3.0191
-0.223117 -2.98933 -2.98933
-0.22421 -3.01885 -3.01885
-0.275363 -3.04831 -3.04831
-0.277914 -3.10788 -3.10788
-0.177077 -3.10832 -3.10832
-0.175267 -3.04873 -3.04873
-0.276639 -3.07804 -3.07804
-0.227483 -3.10806 -3.10806
-0.176172 -3.07847 -3.07847
-0.225302 -3.04847 -3.04847
-0.226393 -3.07821 -3.07821
-0.277914 -3.10788 -3.10788
-0.280457 -3.16789 -3.16789
-0.178887 -3.16835 -3.16835
-0.177077 -3.10832 -3.10832
-0.279186 -3.13783 -3.13783
-0.229659 -3.16807 -3.16807
-0.177982 -3.13828 -3.13828
-0.227483 -3.10806 -3.10806
-0.228571 -3.13801 -3.13801
-0.280457 -3.16789 -3.16789
-0.282992 -3.22832 -3.22832
-0.180697 -3.22881 -3.22881
-0.178887 -3.16835 -3.16835
-0.281726 -3.19805 -3.19805
-0.231832 -3.22852 -3.22852
-0.179792 -3.19853 -3.19853
-0.229659 -3.16807 -3.16807
-0.230746 -3.19824 -3.19824
-0.282992 -3.22832 -3.22832
-0.28552 -3.28919 -3.28919
-0.182506 -3.2897 -3.2897
-0.180697 -3.22881 -3.22881
-0.284257 -3.2587 -3.2587
-0.234 -3.2894 -3.2894
-0.181601 -3.25921 -3.25921
-0.231832 -3.22852 -3.22852
-0.232916 -3.25891 -3.25891
-0.28552 -3.28919 -3.28919
-0.28804 -3.35048 -3.35048
-0.184314 -3.35102 -3.35102
-0.182506 -3.2897 -3.2897
-0.286781 -3.31978 -3.31978
-0.236165 -3.3507 -3.3507
-0.18341 -3.32031 -3.32031
-0.234 -3.2894 -3.2894
-0.235083 -3.32 -3.32
-0.28804 -3.35048 -3.35048
-0.290553 -3.41219 -3.41219
-0.186122 -3.41275 -3.41275
-0.184314 -3.35102 -3.35102
-0.289297 -3.38128 -3.38128
-0.238325 -3.41242 -3.41242
-0.185218 -3.38183 -3.38183
-0.236165 -3.3507 -3.3507
-0.237245 -3.38151 -3.38151
-0.290553 -3.41219 -3.41219
-0.293057 -3.47431 -3.47431
-0.18793 -3.4749 -3.4749
-0.186122 -3.41275 -3.41275
-0.291806 -3.4432 -3.4432
-0.240481 -3.47456 -3.47456
-0.187026 -3.44377 -3.44377
-0.238325 -3.41242 -3.41242
-0.239403 -3.44344 -3.44344
-0.293057 -3.47431 -3.47431
-0.295554 -3.53684 -3.53684
-0.189736 -3.53746 -3.53746
-0.18793 -3.4749 -3.4749
-0.294306 -3.50553 -3.50553
-0.242632 -3.53711 -3.53711
-0.188833 -3.50613 -3.50613
-0.240481 -3.47456 -3.47456
-0.241557 -3.50578 -3.50578
-0.295554 -3.53684 -3.53684
-0.298043 -3.59978 -3.59978
-0.191542 -3.60042 -3.60042
-0.189736 -3.53746 -3.53746
-0.296799 -3.56826 -3.56826
-0.24478 -3.60006 -3.60006
-0.190639 -3.56889 -3.56889
-0.242632 -3.53711 -3.53711
-0.243706 -3.56853 -3.56853
-0.298043 -3.59978 -3.59978
-0.300524 -3.66313 -3.66313
-0.193347 -3.66379 -3.66379
-0.191542 -3.60042 -3.60042
-0.299284 -3.63141 -3.63141
-0.246923 -3.66342 -3.66342
-0.192445 -3.63206 -3.63206
-0.24478 -3.60006 -3.60006
-0.245852 -3.63169 -3.63169
-0.300524 -3.66313 -3.66313
-0.302997 -3.72687 -3.72687
-0.195152 -3.72756 -3.72756
-0.193347 -3.66379 -3.66379
-0.301761 -3.69495 -3.69495
-0.249061 -3.72717 -3.72717
-0.19425 -3.69562 -3.69562
-0.246923 -3.66342 -3.66342
-0.247993 -3.69524 -3.69524
-0.302997 -3.72687 -3.72687
-0.305462 -3.79101 -3.79101
-0.196955 -3.79172 -3.79172
-0.195152 -3.72756 -3.72756
-0.30423 -3.75889 -3.75889
-0.251196 -3.79132 -3.79132
-0.196054 -3.75959 -3.75959
-0.249061 -3.72717 -3.72717
-0.250129 -3.7592 -3.7592
-0.305462 -3.79101 -3.79101
-0.307919 -3.85553 -3.85553
-0.198758 -3.85627 -3.85627
-0.196955 -3.79172 -3.79172
-0.306691 -3.82322 -3.82322
-0.253326 -3.85586 -3.85586
-0.197857 -3.82394 -3.82394
-0.251196 -3.79132 -3.79132
-0.252261 -3.82354 -3.82354
-0.307919 -3.85553 -3.85553
-0.310368 -3.92045 -3.92045
-0.20056 -3.9212 -3.9212
-0.198758 -3.85627 -3.85627
-0.309144 -3.88794 -3.88794
-0.255451 -3.92078 -3.92078
-0.199659 -3.88869 -3.88869
-0.253326 -3.85586 -3.85586
-0.254389 -3.88827 -3.88827
-0.310368 -3.92045 -3.92045
-0.312809 -3.98574 -3.98574
-0.202361 -3.98652 -3.98652
-0.20056 -3.9212 -3.9212
-0.311589 -3.95304 -3.95304
-0.257572 -3.98609 -3.98609
-0.20146 -3.95381 -3.95381
-0.255451 -3.92078 -3.92078
-0.256512 -3.95339 -3.95339
-0.312809 -3.98574 -3.98574
-0.315241 -4.05141 -4.05141
-0.204161 -4.05221 -4.05221
-0.202361 -3.98652 -3.98652
-0.314026 -4.01853 -4.01853
-0.259688 -4.05177 -4.05177
-0.203261 -4.01932 -4.01932
-0.257572 -3.98609 -3.98609
-0.258631 -4.01888 -4.01888
-0.315241 -4.05141 -4.05141
-0.317666 -4.11745 -4.11745
-0.205959 -4.11828 -4.11828
-0.204161 -4.05221 -4.05221
-0.316455 -4.08438 -4.08438
-0.2618 -4.11783 -4.11783
-0.20506 -4.0852 -4.0852
-0.259688 -4.05177 -4.05177
-0.260745 -4.08475 -4.08475
-0.317666 -4.11745 -4.11745
-0.320082 -4.18386 -4.18386
-0.207757 -4.18471 -4.18471
-0.205959 -4.11828 -4.11828
-0.318875 -4.15061 -4.15061
-0.263907 -4.18425 -4.18425
-0.206858 -4.15145 -4.15145
-0.2618 -4.11783 -4.11783
-0.262854 -4.15099 -4.15099
-0.320082 -4.18386 -4.18386
-0.32249 -4.25064 -4.25064
-0.209553 -4.25151 -4.25151
-0.207757 -4.18471 -4.18471
-0.321287 -4.21721 -4.21721
-0.266009 -4.25104 -4.25104
-0.208655 -4.21807 -4.21807
-0.263907 -4.18425 -4.18425
-0.264958 -4.2176 -4.2176
-0.32249 -4.25064 -4.25064
-0.324889 -4.31778 -4.31778
-0.211349 -4.31867 -4.31867
-0.209553 -4.25151 -4.25151
-0.32369 -4.28416 -4.28416
-0.268106 -4.31819 -4.31819
-0.210451 -4.28505 -4.28505
-0.266009 -4.25104 -4.25104
-0.267058 -4.28457 -4.28457
-0.324889 -4.31778 -4.31778
-0.32728 -4.38527 -4.38527
-0.213142 -4.38619 -4.38619
-0.211349 -4.31867 -4.31867
-0.326085 -4.35148 -4.35148
-0.270198 -4.38569 -4.38569
-0.212246 -4.35239 -4.35239
-0.268106 -4.31819 -4.31819
-0.269153 -4.3519 -4.3519
-0.32728 -4.38527 -4.38527
-0.329662 -4.45311 -4.45311
-0.214935 -4.45406 -4.45406
-0.213142 -4.38619 -4.38619
-0.328472 -4.41915 -4.41915
-0.272286 -4.45355 -4.45355
-0.214039 -4.42008 -4.42008
-0.270198 -4.38569 -4.38569
-0.271243 -4.41958 -4.41958
-0.329662 -4.45311 -4.45311
-0.332036 -4.52131 -4.52131
-0.216726 -4.52227 -4.52227
-0.214935 -4.45406 -4.45406
-0.33085 -4.48717 -4.48717
-0.274368 -4.52175 -4.52175
-0.215831 -4.48812 -4.48812
-0.272286 -4.45355 -4.45355
-0.273328 -4.48761 -4.48761
-0.332036 -4.52131 -4.52131
-0.334401 -4.58984 -4.58984
-0.218515 -4.59083 -4.59083
-0.216726 -4.52227 -4.52227
-0.33322 -4.55553 -4.55553
-0.276446 -4.5903 -4.5903
-0.217621 -4.55651 -4.55651
-0.274368 -4.52175 -4.52175
-0.275408 -4.55598 -4.55598
-0.334401 -4.58984 -4.58984
-0.336758 -4.65872 -4.65872
-0.220303 -4.65973 -4.65973
-0.218515 -4.59083 -4.59083
-0.33558 -4.62424 -4.62424
-0.278518 -4.65919 -4.65919
-0.21941 -4.62524 -4.62524
-0.276446 -4.5903 -4.5903
-0.277482 -4.6247 -4.6247
-0.336758 -4.65872 -4.65872
-0.339105 -4.72793 -4.72793
-0.22209 -4.72896 -4.72896
-0.220303 -4.65973 -4.65973
-0.337932 -4.69328 -4.69328
-0.280585 -4.72841 -4.72841
-0.221197 -4.6943 -4.6943
-0.278518 -4.65919 -4.65919
-0.279552 -4.69376 -4.69376
-0.339105 -4.72793 -4.72793
-0.341444 -4.79747 -4.79747
-0.223874 -4.79852 -4.79852
-0.22209 -4.72896 -4.72896
-0.340276 -4.76266 -4.76266
-0.282646 -4.79796 -4.79796
-0.222982 -4.7637 -4.7637
-0.280585 -4.72841 -4.72841
-0.281616 -4.76314 -4.76314
-0.341444 -4.79747 -4.79747
-0.343774 -4.86733 -4.86733
-0.225657 -4.86841 -4.86841
-0.223874 -4.79852 -4.79852
-0.34261 -4.83236 -4.83236
-0.284703 -4.86784 -4.86784
-0.224766 -4.83343 -4.83343
-0.282646 -4.79796 -4.79796
-0.283675 -4.83286 -4.83286
-0.343774 -4.86733 -4.86733
-0.346094 -4.93752 -4.93752
-0.227438 -4.93862 -4.93862
-0.225657 -4.86841 -4.86841
-0.344935 -4.90239 -4.90239
-0.286754 -4.93804 -4.93804
-0.226548 -4.90348 -4.90348
-0.284703 -4.86784 -4.86784
-0.285729 -4.9029 -4.9029
-0.346094 -4.93752 -4.93752
-0.348406 -5.00803 -5.00803
-0.229217 -5.00915 -5.00915
-0.227438 -4.93862 -4.93862
-0.347251 -4.97274 -4.97274
-0.288799 -5.00856 -5.00856
-0.228328 -4.97385 -4.97385
-0.286754 -4.93804 -4.93804
-0.287777 -4.97326 -4.97326
-0.348406 -5.00803 -5.00803
-0.350709 -5.07885 -5.07885
-0.230994 -5.07999 -5.07999
-0.229217 -5.00915 -5.00915
-0.349558 -5.0434 -5.0434
-0.290839 -5.07939 -5.07939
-0.230106 -5.04453 -5.04453
-0.288799 -5.00856 -5.00856
-0.28982 -5.04393 -5.04393
-0.350709 -5.07885 -5.07885
-0.353002 -5.14998 -5.14998
-0.232769 -5.15114 -5.15114
-0.230994 -5.07999 -5.07999
-0.351856 -5.11438 -5.11438
-0.292873 -5.15053 -5.15053
-0.231882 -5.11553 -5.11553
-0.290839 -5.07939 -5.07939
-0.291856 -5.11492 -5.11492
-0.353002 -5.14998 -5.14998
-0.355286 -5.22141 -5.22141
-0.234542 -5.2226 -5.2226
-0.232769 -5.15114 -5.15114
-0.354145 -5.18566 -5.18566
-0.294901 -5.22198 -5.22198
-0.233656 -5.18684 -5.18684
-0.292873 -5.15053 -5.15053
-0.293888 -5.18621 -5.18621
-0.355286 -5.22141 -5.22141
-0.35756 -5.29315 -5.29315
-0.236312 -5.29436 -5.29436
-0.234542 -5.2226 -5.2226
-0.356424 -5.25724 -5.25724
-0.296924 -5.29372 -5.29372
-0.235427 -5.25844 -5.25844
-0.294901 -5.22198 -5.22198
-0.295913 -5.25781 -5.25781
-0.35756 -5.29315 -5.29315
-0.359825 -5.36518 -5.36518
-0.23808 -5.36641 -5.36641
-0.236312 -5.29436 -5.29436
-0.358694 -5.32913 -5.32913
-0.29894 -5.36577 -5.36577
-0.237197 -5.33035 -5.33035
-0.296924 -5.29372 -5.29372
-0.297933 -5.32971 -5.32971
-0.359825 -5.36518 -5.36518
-0.362081 -5.43751 -5.43751
-0.239846 -5.43876 -5.43876
-0.23808 -5.36641 -5.36641
-0.360954 -5.40131 -5.40131
-0.300951 -5.4381 -5.4381
-0.238964 -5.40255 -5.40255
-0.29894 -5.36577 -5.36577
-0.299946 -5.4019 -5.4019
-0.362081 -5.43751 -5.43751
-0.364326 -5.51012 -5.51012
-0.241609 -5.5114 -5.5114
-0.239846 -5.43876 -5.43876
-0.363205 -5.47378 -5.47378
-0.302955 -5.51073 -5.51073
-0.240728 -5.47504 -5.47504
-0.300951 -5.4381 -5.4381
-0.301954 -5.47438 -5.47438
-0.364326 -5.51012 -5.51012
-0.366562 -5.58302 -5.58302
-0.24337 -5.58431 -5.58431
-0.241609 -5.5114 -5.5114
-0.365446 -5.54654 -5.54654
-0.304954 -5.58364 -5.58364
-0.24249 -5.54782 -5.54782
-0.302955 -5.51073 -5.51073
-0.303955 -5.54715 -5.54715
-0.366562 -5.58302 -5.58302
-0.368788 -5.6562 -5.6562
-0.245128 -5.65751 -5.65751
-0.24337 -5.58431 -5.58431
-0.367677 -5.61958 -5.61958
-0.306946 -5.65683 -5.65683
-0.244249 -5.62088 -5.62088
-0.304954 -5.58364 -5.58364
-0.30595 -5.6202 -5.6202
-0.368788 -5.6562 -5.6562
-0.371005 -5.72965 -5.72965
-0.246883 -5.73099 -5.73099
-0.245128 -5.65751 -5.65751
-0.369898 -5.69289 -5.69289
-0.308931 -5.73029 -5.73029
-0.246006 -5.69422 -5.69422
-0.306946 -5.65683 -5.65683
-0.307939 -5.69352 -5.69352
-0.371005 -5.72965 -5.72965
-0.373211 -5.80338 -5.80338
-0.248635 -5.80473 -5.80473
-0.246883 -5.73099 -5.73099
-0.372109 -5.76648 -5.76648
-0.31091 -5.80403 -5.80403
-0.247759 -5.76783 -5.76783
-0.308931 -5.73029 -5.73029
-0.309922 -5.76713 -5.76713
-0.373211 -5.80338 -5.80338
-0.375407 -5.87737 -5.87737
-0.250384 -5.87875 -5.87875
-0.248635 -5.80473 -5.80473
-0.37431 -5.84034 -5.84034
-0.312883 -5.87803 -5.87803
-0.24951 -5.84171 -5.84171
-0.31091 -5.80403 -5.80403
-0.311898 -5.841 -5.841
-0.375407 -5.87737 -5.87737
-0.377592 -5.95162 -5.95162
-0.252131 -5.95302 -5.95302
-0.250384 -5.87875 -5.87875
-0.376501 -5.91446 -5.91446
-0.314849 -5.9523 -5.9523
-0.251258 -5.91585 -5.91585
-0.312883 -5.87803 -5.87803
-0.313867 -5.91513 -5.91513
-0.377592 -5.95162 -5.95162
-0.379768 -6.02614 -6.02614
-0.253874 -6.02755 -6.02755
-0.252131 -5.95302 -5.95302
-0.378682 -5.98885 -5.98885
-0.316808 -6.02682 -6.02682
-0.253002 -5.99026 -5.99026
-0.314849 -5.9523 -5.9523
-0.315829 -5.98953 -5.98953
-0.379768 -6.02614 -6.02614
-0.381933 -6.10091 -6.10091
-0.255613 -6.10234 -6.10234
-0.253874 -6.02755 -6.02755
-0.380852 -6.06349 -6.06349
-0.318761 -6.1016 -6.1016
-0.254744 -6.06492 -6.06492
-0.316808 -6.02682 -6.02682
-0.317785 -6.06418 -6.06418
-0.381933 -6.10091 -6.10091
-0.384088 -6.17593 -6.17593
-0.25735 -6.17738 -6.17738
-0.255613 -6.10234 -6.10234
-0.383012 -6.13839 -6.13839
-0.320706 -6.17663 -6.17663
-0.256482 -6.13983 -6.13983
-0.318761 -6.1016 -6.1016
-0.319734 -6.13908 -6.13908
-0.384088 -6.17593 -6.17593
-0.386231 -6.25119 -6.25119
-0.259083 -6.25267 -6.25267
-0.25735 -6.17738 -6.17738
-0.385161 -6.21353 -6.21353
-0.322645 -6.2519 -6.2519
-0.258217 -6.21499 -6.21499
-0.320706 -6.17663 -6.17663
-0.321676 -6.21423 -6.21423
-0.386231 -6.25119 -6.25119
-0.388365 -6.3267 -6.3267
-0.260812 -6.32819 -6.32819
-0.259083 -6.25267 -6.25267
-0.387299 -6.28891 -6.28891
-0.324576 -6.32742 -6.32742
-0.259948 -6.2904 -6.2904
-0.322645 -6.2519 -6.2519
-0.323611 -6.28963 -6.28963
-0.388365 -6.3267 -6.3267
-0.390487 -6.40244 -6.40244
-0.262538 -6.40395 -6.40395
-0.260812 -6.32819 -6.32819
-0.389427 -6.36454 -6.36454
-0.3265 -6.40317 -6.40317
-0.261675 -6.36604 -6.36604
-0.324576 -6.32742 -6.32742
-0.325539 -6.36527 -6.36527
-0.390487 -6.40244 -6.40244
-0.392598 -6.47842 -6.47842
-0.26426 -6.47995 -6.47995
-0.262538 -6.40395 -6.40395
-0.391544 -6.4404 -6.4404
-0.328416 -6.47916 -6.47916
-0.263399 -6.44192 -6.44192
-0.3265 -6.40317 -6.40317
-0.327459 -6.44114 -6.44114
-0.392598 -6.47842 -6.47842
-0.394699 -6.55463 -6.55463
-0.265978 -6.55618 -6.55618
-0.26426 -6.47995 -6.47995
-0.39365 -6.51649 -6.51649
-0.330326 -6.55538 -6.55538
-0.265119 -6.51804 -6.51804
-0.328416 -6.47916 -6.47916
-0.329372 -6.51724 -6.51724
-0.394699 -6.55463 -6.55463
-0.396788 -6.63106 -6.63106
-0.267692 -6.63263 -6.63263
-0.265978 -6.55618 -6.55618
-0.395745 -6.59281 -6.59281
-0.332227 -6.63182 -6.63182
-0.266835 -6.59437 -6.59437
-0.330326 -6.55538 -6.55538
-0.331277 -6.59357 -6.59357
-0.396788 -6.63106 -6.63106
-0.398866 -6.70771 -6.70771
-0.269401 -6.7093 -6.7093
-0.267692 -6.63263 -6.63263
-0.397828 -6.66936 -6.66936
-0.334121 -6.70848 -6.70848
-0.268547 -6.67093 -6.67093
-0.332227 -6.63182 -6.63182
-0.333175 -6.67012 -6.67012
-0.398866 -6.70771 -6.70771
-0.400933 -6.78458 -6.78458
-0.271107 -6.78618 -6.78618
-0.269401 -6.7093 -6.7093
-0.399901 -6.74612 -6.74612
-0.336007 -6.78536 -6.78536
-0.270255 -6.74771 -6.74771
-0.334121 -6.70848 -6.70848
-0.335065 -6.74689 -6.74689
-0.400933 -6.78458 -6.78458
-0.402988 -6.86166 -6.86166
-0.272809 -6.86328 -6.86328
-0.271107 -6.78618 -6.78618
-0.401962 -6.82309 -6.82309
-0.337886 -6.86245 -6.86245
-0.271958 -6.82471 -6.82471
-0.336007 -6.78536 -6.78536
-0.336948 -6.82388 -6.82388
-0.402988 -6.86166 -6.86166
-0.405031 -6.93895 -6.93895
-0.274506 -6.94059 -6.94059
-0.272809 -6.86328 -6.86328
-0.404011 -6.90028 -6.90028
-0.339756 -6.93975 -6.93975
-0.273658 -6.90191 -6.90191
-0.337886 -6.86245 -6.86245
-0.338822 -6.90107 -6.90107
-0.405031 -6.93895 -6.93895
-0.407063 -7.01644 -7.01644
-0.276198 -7.0181 -7.0181
-0.274506 -6.94059 -6.94059
-0.406049 -6.97767 -6.97767
-0.341618 -7.01725 -7.01725
-0.275352 -6.97932 -6.97932
-0.339756 -6.93975 -6.93975
-0.340688 -6.97847 -6.97847
-0.407063 -7.01644 -7.01644
-0.409083 -7.09413 -7.09413
-0.277886 -7.09581 -7.09581
-0.276198 -7.0181 -7.0181
-0.408075 -7.05526 -7.05526
-0.343472 -7.09495 -7.09495
-0.277043 -7.05693 -7.05693
-0.341618 -7.01725 -7.01725
-0.342546 -7.05608 -7.05608
-0.409083 -7.09413 -7.09413
-0.411092 -7.17202 -7.17202
-0.279569 -7.17371 -7.17371
-0.277886 -7.09581 -7.09581
-0.410089 -7.13305 -7.13305
-0.345318 -7.17285 -7.17285
-0.278728 -7.13474 -7.13474
-0.343472 -7.09495 -7.09495
-0.344396 -7.13387 -7.13387
-0.411092 -7.17202 -7.17202
-0.413088 -7.2501 -7.2501
-0.281247 -7.25181 -7.25181
-0.279569 -7.17371 -7.17371
-0.412091 -7.21104 -7.21104
-0.347155 -7.25093 -7.25093
-0.280409 -7.21274 -7.21274
-0.345318 -7.17285 -7.17285
-0.346238 -7.21187 -7.21187
-0.413088 -7.2501 -7.2501
-0.415072 -7.32836 -7.32836
-0.28292 -7.33009 -7.33009
-0.281247 -7.25181 -7.25181
-0.414081 -7.28921 -7.28921
-0.348984 -7.32921 -7.32921
-0.282084 -7.29093 -7.29093
-0.347155 -7.25093 -7.25093
-0.34807 -7.29005 -7.29005
-0.415072 -7.32836 -7.32836
-0.417043 -7.40681 -7.40681
-0.284588 -7.40856 -7.40856
-0.28292 -7.33009 -7.33009
-0.416059 -7.36757 -7.36757
-0.350804 -7.40766 -7.40766
-0.283755 -7.3693 -7.3693
-0.348984 -7.32921 -7.32921
-0.349895 -7.36841 -7.36841
-0.417043 -7.40681 -7.40681
-0.419003 -7.48544 -7.48544
-0.286251 -7.4872 -7.4872
-0.284588 -7.40856 -7.40856
-0.418025 -7.4461 -7.4461
-0.352615 -7.4863 -7.4863
-0.28542 -7.44785 -7.44785
-0.350804 -7.40766 -7.40766
-0.35171 -7.44696 -7.44696
-0.419003 -7.48544 -7.48544
-0.42095 -7.56424 -7.56424
-0.287909 -7.56601 -7.56601
-0.286251 -7.4872 -7.4872
-0.419978 -7.52482 -7.52482
-0.354417 -7.56511 -7.56511
-0.28708 -7.52658 -7.52658
-0.352615 -7.4863 -7.4863
-0.353517 -7.52568 -7.52568
-0.42095 -7.56424 -7.56424
-0.422884 -7.64321 -7.64321
-0.289561 -7.645 -7.645
-0.287909 -7.56601 -7.56601
-0.421918 -7.6037 -7.6037
-0.35621 -7.64409 -7.64409
-0.288735 -7.60549 -7.60549
-0.354417 -7.56511 -7.56511
-0.355315 -7.60458 -7.60458
-0.422884 -7.64321 -7.64321
-0.424805 -7.72234 -7.72234
-0.291207 -7.72415 -7.72415
-0.289561 -7.645 -7.645
-0.423846 -7.68276 -7.68276
-0.357994 -7.72323 -7.72323
-0.290384 -7.68456 -7.68456
-0.35621 -7.64409 -7.64409
-0.357103 -7.68364 -7.68364
-0.424805 -7.72234 -7.72234
-0.426714 -7.80164 -7.80164
-0.292848 -7.80347 -7.80347
-0.291207 -7.72415 -7.72415
-0.425761 -7.76197 -7.76197
-0.359769 -7.80254 -7.80254
-0.292028 -7.76379 -7.76379
-0.357994 -7.72323 -7.72323
-0.358882 -7.76286 -7.76286
-0.426714 -7.80164 -7.80164
-0.42861 -7.8811 -7.8811
-0.294483 -7.88293 -7.88293
-0.292848 -7.80347 -7.80347
-0.427663 -7.84135 -7.84135
-0.361534 -7.882 -7.882
-0.293666 -7.84318 -7.84318
-0.359769 -7.80254 -7.80254
-0.360652 -7.84225 -7.84225
-0.42861 -7.8811 -7.8811
-0.430492 -7.9607 -7.9607
-0.296111 -7.96256 -7.96256
-0.294483 -7.88293 -7.88293
-0.429553 -7.92088 -7.92088
-0.36329 -7.96161 -7.96161
-0.295298 -7.92273 -7.92273
-0.361534 -7.882 -7.882
-0.362413 -7.92179 -7.92179
-0.430492 -7.9607 -7.9607
-0.432361 -8.04046 -8.04046
-0.297734 -8.04233 -8.04233
-0.296111 -7.96256 -7.96256
-0.431429 -8.00056 -8.00056
-0.365036 -8.04138 -8.04138
-0.296924 -8.00242 -8.00242
-0.36329 -7.96161 -7.96161
-0.364164 -8.00148 -8.00148
-0.432361 -8.04046 -8.04046
-0.434217 -8.12036 -8.12036
-0.299351 -8.12224 -8.12224
-0.297734 -8.04233 -8.04233
-0.433291 -8.08039 -8.08039
-0.366772 -8.12129 -8.12129
-0.298543 -8.08227 -8.08227
-0.365036 -8.04138 -8.04138
-0.365905 -8.08132 -8.08132
-0.434217 -8.12036 -8.12036
-0.43606 -8.2004 -8.2004
-0.300961 -8.2023 -8.2023
-0.299351 -8.12224 -8.12224
-0.43514 -8.16036 -8.16036
-0.368498 -8.20134 -8.20134
-0.300157 -8.16225 -8.16225
-0.366772 -8.12129 -8.12129
-0.367636 -8.16129 -8.16129
-0.43606 -8.2004 -8.2004
-0.437889 -8.28058 -8.28058
-0.302565 -8.28249 -8.28249
-0.300961 -8.2023 -8.2023
-0.436976 -8.24047 -8.24047
-0.370215 -8.28152 -8.28152
-0.301764 -8.24238 -8.24238
-0.368498 -8.20134 -8.20134
-0.369358 -8.24141 -8.24141
-0.437889 -8.28058 -8.28058
-0.439704 -8.36089 -8.36089
-0.304162 -8.36281 -8.36281
-0.302565 -8.28249 -8.28249
-0.438798 -8.32072 -8.32072
-0.371921 -8.36184 -8.36184
-0.303365 -8.32264 -8.32264
-0.370215 -8.28152 -8.28152
-0.371069 -8.32166 -8.32166
-0.439704 -8.36089 -8.36089
-0.441505 -8.44132 -8.44132
-0.305753 -8.44326 -8.44326
-0.304162 -8.36281 -8.36281
-0.440606 -8.40109 -8.40109
-0.373617 -8.44228 -8.44228
-0.304958 -8.40302 -8.40302
-0.371921 -8.36184 -8.36184
-0.37277 -8.40204 -8.40204
-0.441505 -8.44132 -8.44132
-0.443292 -8.52188 -8.52188
-0.307337 -8.52384 -8.52384
-0.305753 -8.44326 -8.44326
-0.442401 -8.48159 -8.48159
-0.375302 -8.52285 -8.52285
-0.306546 -8.48354 -8.48354
-0.373617 -8.44228 -8.44228
-0.374461 -8.48255 -8.48255
-0.443292 -8.52188 -8.52188
-0.445066 -8.60256 -8.60256
-0.308913 -8.60453 -8.60453
-0.307337 -8.52384 -8.52384
-0.444181 -8.56221 -8.56221
-0.376977 -8.60353 -8.60353
-0.308126 -8.56417 -8.56417
-0.375302 -8.52285 -8.52285
-0.376141 -8.56318 -8.56318
-0.445066 -8.60256 -8.60256
-0.446825 -8.68335 -8.68335
-0.310483 -8.68534 -8.68534
-0.308913 -8.60453 -8.60453
-0.445947 -8.64294 -8.64294
-0.378642 -8.68433 -8.68433
-0.309699 -8.64492 -8.64492
-0.376977 -8.60353 -8.60353
-0.377811 -8.64392 -8.64392
-0.446825 -8.68335 -8.68335
-0.448569 -8.76426 -8.76426
-0.312045 -8.76625 -8.76625
-0.310483 -8.68534 -8.68534
-0.447699 -8.72379 -8.72379
-0.380295 -8.76525 -8.76525
-0.311265 -8.72578 -8.72578
-0.378642 -8.68433 -8.68433
-0.37947 -8.72478 -8.72478
-0.448569 -8.76426 -8.76426
-0.450299 -8.84527 -8.84527
-0.313601 -8.84728 -8.84728
-0.312045 -8.76625 -8.76625
-0.449436 -8.80475 -8.80475
-0.381938 -8.84626 -8.84626
-0.312824 -8.80675 -8.80675
-0.380295 -8.76525 -8.76525
-0.381118 -8.80574 -8.80574
-0.450299 -8.84527 -8.84527
-0.452015 -8.92638 -8.92638
-0.315148 -8.9284 -8.9284
-0.313601 -8.84728 -8.84728
-0.451159 -8.88581 -8.88581
-0.383569 -8.92738 -8.92738
-0.314375 -8.88783 -8.88783
-0.381938 -8.84626 -8.84626
-0.382755 -8.88681 -8.88681
-0.452015 -8.92638 -8.92638
-0.453715 -9.00759 -9.00759
-0.316688 -9.00963 -9.00963
-0.315148 -8.9284 -8.9284
-0.452867 -8.96698 -8.96698
-0.38519 -9.0086 -9.0086
-0.315919 -8.969 -8.969
-0.383569 -8.92738 -8.92738
-0.384381 -8.96798 -8.96798
-0.453715 -9.00759 -9.00759
-0.455401 -9.0889 -9.0889
-0.31822 -9.09094 -9.09094
-0.316688 -9.00963 -9.00963
-0.45456 -9.04823 -9.04823
-0.386799 -9.08991 -9.08991
-0.317455 -9.05027 -9.05027
-0.38519 -9.0086 -9.0086
-0.385996 -9.04924 -9.04924
-0.455401 -9.0889 -9.0889
-0.457072 -9.17029 -9.17029
-0.319745 -9.17235 -9.17235
-0.31822 -9.09094 -9.09094
-0.456238 -9.12958 -9.12958
-0.388396 -9.17131 -9.17131
-0.318984 -9.13163 -9.13163
-0.386799 -9.08991 -9.08991
-0.387599 -9.1306 -9.1306
-0.457072 -9.17029 -9.17029
-0.458727 -9.25177 -9.25177
-0.321261 -9.25384 -9.25384
-0.319745 -9.17235 -9.17235
-0.457901 -9.21102 -9.21102
-0.389982 -9.2528 -9.2528
-0.320504 -9.21308 -9.21308
-0.388396 -9.17131 -9.17131
-0.389191 -9.21204 -9.21204
-0.458727 -9.25177 -9.25177
-0.460367 -9.33333 -9.33333
-0.322769 -9.33541 -9.33541
-0.321261 -9.25384 -9.25384
-0.459549 -9.29254 -9.29254
-0.391556 -9.33436 -9.33436
-0.322016 -9.29462 -9.29462
-0.389982 -9.2528 -9.2528
-0.390771 -9.29357 -9.29357
-0.460367 -9.33333 -9.33333
-0.461992 -9.41497 -9.41497
-0.324269 -9.41706 -9.41706
-0.322769 -9.33541 -9.33541
-0.461182 -9.37414 -9.37414
-0.393119 -9.41601 -9.41601
-0.32352 -9.37623 -9.37623
-0.391556 -9.33436 -9.33436
-0.392339 -9.37518 -9.37518
-0.461992 -9.41497 -9.41497
-0.463601 -9.49668 -9.49668
-0.325761 -9.49878 -9.49878
-0.324269 -9.41706 -9.41706
-0.462799 -9.45581 -9.45581
-0.394669 -9.49772 -9.49772
-0.325016 -9.45791 -9.45791
-0.393119 -9.41601 -9.41601
-0.393895 -9.45686 -9.45686
-0.463601 -9.49668 -9.49668
-0.465195 -9.57846 -9.57846
-0.327244 -9.58057 -9.58057
-0.325761 -9.49878 -9.49878
-0.4644 -9.53756 -9.53756
-0.396207 -9.57951 -9.57951
-0.326503 -9.53967 -9.53967
-0.394669 -9.49772 -9.49772
-0.39544 -9.53861 -9.53861
-0.465195 -9.57846 -9.57846
-0.466773 -9.6603 -9.6603
-0.328718 -9.66242 -9.66242
-0.327244 -9.58057 -9.58057
-0.465986 -9.61937 -9.61937
-0.397733 -9.66135 -9.66135
-0.327982 -9.62149 -9.62149
-0.396207 -9.57951 -9.57951
-0.396972 -9.62042 -9.62042
-0.466773 -9.6603 -9.6603
-0.468335 -9.7422 -9.7422
-0.330184 -9.74433 -9.74433
-0.328718 -9.66242 -9.66242
-0.467556 -9.70124 -9.70124
-0.399247 -9.74326 -9.74326
-0.329452 -9.70337 -9.70337
-0.397733 -9.66135 -9.66135
-0.398492 -9.7023 -9.7023
-0.468335 -9.7422 -9.7422
-0.46988 -9.82416 -9.82416
-0.33164 -9.8263 -9.8263
-0.330184 -9.74433 -9.74433
-0.469109 -9.78317 -9.78317
-0.400748 -9.82522 -9.82522
-0.330913 -9.78531 -9.78531
-0.399247 -9.74326 -9.74326
-0.399999 -9.78424 -9.78424
-0.46988 -9.82416 -9.82416
-0.47141 -9.90617 -9.90617
-0.333087 -9.90832 -9.90832
-0.33164 -9.8263 -9.8263
-0.470647 -9.86516 -9.86516
-0.402237 -9.90724 -9.90724
-0.332365 -9.8673 -9.8673
-0.400748 -9.82522 -9.82522
-0.401494 -9.86623 -9.86623
-0.47141 -9.90617 -9.90617
-0.472923 -9.98822 -9.98822
-0.334525 -9.99039 -9.99039
-0.333087 -9.90832 -9.90832
-0.472168 -9.94719 -9.94719
-0.403712 -9.9893 -9.9893
-0.333808 -9.94935 -9.94935
-0.402237 -9.90724 -9.90724
-0.402976 -9.94826 -9.94826
-0.472923 -9.98822 -9.98822
-0.474419 -10.0703 -10.0703
-0.335954 -10.0725 -10.0725
-0.334525 -9.99039 -9.99039
-0.473673 -10.0293 -10.0293
-0.405175 -10.0714 -10.0714
-0.335241 -10.0314 -10.0314
-0.403712 -9.9893 -9.9893
-0.404445 -10.0303 -10.0303
-0.474419 -10.0703 -10.0703
-0.475899 -10.1525 -10.1525
-0.337372 -10.1546 -10.1546
-0.335954 -10.0725 -10.0725
-0.475161 -10.1114 -10.1114
-0.406624 -10.1535 -10.1535
-0.336664 -10.1136 -10.1136
-0.405175 -10.0714 -10.0714
-0.405901 -10.1125 -10.1125
-0.475899 -10.1525 -10.1525
-0.477362 -10.2346 -10.2346
-0.33878 -10.2368 -10.2368
-0.337372 -10.1546 -10.1546
-0.476633 -10.1935 -10.1935
-0.408059 -10.2357 -10.2357
-0.338077 -10.1957 -10.1957
-0.406624 -10.1535 -10.1535
-0.407343 -10.1946 -10.1946
-0.477362 -10.2346 -10.2346
-0.478808 -10.3168 -10.3168
-0.340176 -10.319 -10.319
-0.33878 -10.2368 -10.2368
-0.478087 -10.2757 -10.2757
-0.409479 -10.3179 -10.3179
-0.339479 -10.2779 -10.2779
-0.408059 -10.2357 -10.2357
-0.408771 -10.2768 -10.2768
-0.478808 -10.3168 -10.3168
-0.480235 -10.3991 -10.3991
-0.34156 -10.4013 -10.4013
-0.340176 -10.319 -10.319
-0.479524 -10.3579 -10.3579
-0.410884 -10.4002 -10.4002
-0.34087 -10.3602 -10.3602
-0.409479 -10.3179 -10.3179
-0.410184 -10.359 -10.359
-0.480235 -10.3991 -10.3991
-0.481644 -10.4813 -10.4813
-0.34293 -10.4835 -10.4835
-0.34156 -10.4013 -10.4013
-0.480942 -10.4402 -10.4402
-0.412272 -10.4824 -10.4824
-0.342247 -10.4424 -10.4424
-0.410884 -10.4002 -10.4002
-0.41158 -10.4413 -10.4413
-0.481644 -10.4813 -10.4813
-0.483033 -10.5636 -10.5636
-0.344287 -10.5658 -10.5658
-0.34293 -10.4835 -10.4835
-0.482341 -10.5224 -10.5224
-0.413641 -10.5647 -10.5647
-0.343611 -10.5247 -10.5247
-0.412272 -10.4824 -10.4824
-0.412959 -10.5236 -10.5236
-0.483033 -10.5636 -10.5636
-0.484399 -10.6459 -10.6459
-0.345633 -10.6481 -10.6481
-0.344287 -10.5658 -10.5658
-0.483719 -10.6047 -10.6047
-0.414992 -10.647 -10.647
-0.344961 -10.607 -10.607
-0.413641 -10.5647 -10.5647
-0.414318 -10.6059 -10.6059
-0.484399 -10.6459 -10.6459
-0.485745 -10.7283 -10.7283
-0.346977 -10.7304 -10.7304
-0.345633 -10.6481 -10.6481
-0.485073 -10.6871 -10.6871
-0.416334 -10.7293 -10.7293
-0.346304 -10.6893 -10.6893
-0.414992 -10.647 -10.647
-0.415662 -10.6882 -10.6882
-0.485745 -10.7283 -10.7283
-0.487105 -10.8106 -10.8106
-0.348327 -10.8127 -10.8127
-0.346977 -10.7304 -10.7304
-0.486419 -10.7695 -10.7695
-0.417696 -10.8116 -10.8116
-0.347651 -10.7716 -10.7716
-0.416334 -10.7293 -10.7293
-0.417012 -10.7705 -10.7705
0 0 0
-0.00186896 -0.000189976 -0.000189976
-0.000617885 0.000100245 0.000100245
0 0 0
-0.000906134 5.77089e-05 5.77089e-05
-0.00123881 -8.40703e-06 -8.40703e-06
-0.000307627 0.000200901 0.000200901
0 0 0
-0.000601414 0.000152315 0.000152315
-0.00186896 -0.000189976 -0.000189976
-0.00388065 -0.001446 -0.001446
-0.00128638 -0.000942131 -0.000942131
-0.000617885 0.000100245 0.000100245
-0.00286224 -0.000697351 -0.000697351
-0.00257167 -0.0011241 -0.0011241
-0.000945931 -0.000287176 -0.000287176
-0.00123881 -8.40703e-06 -8.40703e-06
-0.00189688 -0.000438764 -0.000438764
-0.00388065 -0.001446 -0.001446
-0.00597631 -0.00361993 -0.00361993
-0.001979 -0.00298676 -0.00298676
-0.00128638 -0.000942131 -0.000942131
-0.00492206 -0.00242421 -0.00242421
-0.00396081 -0.00321931 -0.00321931
-0.00163079 -0.00184596 -0.00184596
-0.00257167 -0.0011241 -0.0011241
-0.00326129 -0.00205562 -0.00205562
-0.00597631 -0.00361993 -0.00361993
-0.00808956 -0.00663043 -0.00663043
-0.00268713 -0.00594227 -0.00594227
-0.001979 -0.00298676 -0.00298676
-0.00703307 -0.00502288 -0.00502288
-0.00537125 -0.0061975 -0.0061975
-0.002332 -0.00435477 -0.00435477
-0.00396081 -0.00321931 -0.00321931
-0.00466511 -0.00460178 -0.00460178
-0.00808956 -0.00663043 -0.00663043
-0.0101963 -0.0104554 -0.0104554
-0.00339501 -0.00975223 -0.00975223
-0.00268713 -0.00594227 -0.00594227
-0.00914465 -0.00844173 -0.00844173
-0.00678107 -0.0100149 -0.0100149
-0.00304151 -0.00774269 -0.00774269
-0.00537125 -0.0061975 -0.0061975
-0.00607705 -0.00800295 -0.00800295
-0.0101963 -0.0104554 -0.0104554
-0.0122845 -0.0150864 -0.0150864
-0.00409981 -0.0143878 -0.0143878
-0.00339501 -0.00975223 -0.00975223
-0.0112428 -0.0126703 -0.0126703
-0.00818033 -0.0146488 -0.0146488
-0.00374796 -0.011968 -0.011968
-0.00678107 -0.0100149 -0.0100149
-0.00748224 -0.0122305 -0.0122305
-0.0122845 -0.0150864 -0.0150864
-0.0143553 -0.020522 -0.020522
-0.00479866 -0.0198339 -0.0198339
-0.00409981 -0.0143878 -0.0143878
-0.0133219 -0.0177038 -0.0177038
-0.00956737 -0.0200906 -0.0200906
-0.00444996 -0.0170101 -0.0170101
-0.00818033 -0.0146488 -0.0146488
-0.00887533 -0.0172691 -0.0172691
-0.0143553 -0.020522 -0.020522
-0.0164102 -0.0267592 -0.0267592
-0.00549287 -0.026083 -0.026083
-0.00479866 -0.0198339 -0.0198339
-0.0153845 -0.0235405 -0.0235405
-0.0109434 -0.0263347 -0.0263347
-0.00514628 -0.0228584 -0.0228584
-0.00956737 -0.0200906 -0.0200906
-0.0102566 -0.0231126 -0.0231126
-0.0164102 -0.0267592 -0.0267592
-0.018452 -0.0337954 -0.0337954
-0.00618314 -0.0331303 -0.0331303
-0.00549287 -0.026083 -0.026083
-0.0174326 -0.0301776 -0.0301776
-0.0123104 -0.0333772 -0.0333772
-0.00583843 -0.0295071 -0.0295071
-0.0109434 -0.0263347 -0.0263347
-0.0116279 -0.0297563 -0.0297563
-0.018452 -0.0337954 -0.0337954
-0.0204827 -0.0416269 -0.0416269
-0.00687073 -0.0409721 -0.0409721
-0.00618314 -0.0331303 -0.0331303
-0.0194687 -0.037612 -0.037612
-0.01367 -0.0412145 -0.0412145
-0.00652722 -0.0369521 -0.0369521
-0.0123104 -0.0333772 -0.0333772
-0.012991 -0.0371967 -0.0371967
-0.0204827 -0.0416269 -0.0416269
-0.0225037 -0.0502499 -0.0502499
-0.00755638 -0.0496047 -0.0496047
-0.00687073 -0.0409721 -0.0409721
-0.0214944 -0.0458397 -0.0458397
-0.0150236 -0.0498428 -0.0498428
-0.00721376 -0.0451898 -0.0451898
-0.01367 -0.0412145 -0.0412145
-0.0143475 -0.04543 -0.04543
-0.0225037 -0.0502499 -0.0502499
-0.0245159 -0.0596604 -0.0596604
-0.00824076 -0.0590245 -0.0590245
-0.00755638 -0.0496047 -0.0496047
-0.0235108 -0.054857 -0.054857
-0.016372 -0.0592585 -0.0592585
-0.0078987 -0.0542165 -0.0542165
-0.0150236 -0.0498428 -0.0498428
-0.0156984 -0.0544525 -0.0544525
-0.0245159 -0.0596604 -0.0596604
-0.0265199 -0.0698541 -0.0698541
-0.00892429 -0.0692275 -0.0692275
-0.00824076 -0.0590245 -0.0590245
-0.0255189 -0.0646596 -0.0646596
-0.0177158 -0.0694574 -0.0694574
-0.00858261 -0.0640284 -0.0640284
-0.016372 -0.0592585 -0.0592585
-0.0170444 -0.0642603 -0.0642603
-0.0265199 -0.0698541 -0.0698541
-0.0285162 -0.080827 -0.080827
-0.00960735 -0.0802098 -0.0802098
-0.00892429 -0.0692275 -0.0692275
-0.027519 -0.0752434 -0.0752434
-0.0190555 -0.0804354 -0.0804354
-0.00926586 -0.0746215 -0.0746215
-0.0177158 -0.0694574 -0.0694574
-0.0183862 -0.0748493 -0.0748493
-0.0285162 -0.080827 -0.080827
-0.0305051 -0.0925748 -0.0925748
-0.0102902 -0.0919672 -0.0919672
-0.00960735 -0.0802098 -0.0802098
-0.0295115 -0.0866043 -0.0866043
-0.0203914 -0.0921885 -0.0921885
-0.00994879 -0.0859919 -0.0859919
-0.0190555 -0.0804354 -0.0804354
-0.0197239 -0.0862153 -0.0862153
-0.0305051 -0.0925748 -0.0925748
-0.0324868 -0.105093 -0.105093
-0.0109731 -0.104496 -0.104496
-0.0102902 -0.0919672 -0.0919672
-0.0314968 -0.0987379 -0.0987379
-0.0217237 -0.104712 -0.104712
-0.0106316 -0.0981353 -0.0981353
-0.0203914 -0.0921885 -0.0921885
-0.0210579 -0.0983543 -0.0983543
-0.0324868 -0.105093 -0.105093
-0.0344617 -0.118378 -0.118378
-0.0116563 -0.117791 -0.117791
-0.0109731 -0.104496 -0.104496
-0.0334751 -0.11164 -0.11164
-0.0230527 -0.118003 -0.118003
-0.0113147 -0.111048 -0.111048
-0.0217237 -0.104712 -0.104712
-0.0223886 -0.111262 -0.111262
-0.0344617 -0.118378 -0.118378
-0.0364299 -0.132425 -0.132425
-0.01234 -0.131848 -0.131848
-0.0116563 -0.117791 -0.117791
-0.0354466 -0.125307 -0.125307
-0.0243786 -0.132056 -0.132056
-0.0119981 -0.124725 -0.124725
-0.0230527 -0.118003 -0.118003
-0.023716 -0.124934 -0.124934
-0.0364299 -0.132425 -0.132425
-0.0383916 -0.14723 -0.14723
-0.0130243 -0.146665 -0.146665
-0.01234 -0.131848 -0.131848
-0.0374116 -0.139733 -0.139733
-0.0257016 -0.146867 -0.146867
-0.012682 -0.139162 -0.139162
-0.0243786 -0.132056 -0.132056
-0.0250405 -0.139367 -0.139367
-0.0383916 -0.14723 -0.14723
-0.0403471 -0.162789 -0.162789
-0.0137096 -0.162235 -0.162235
-0.0130243 -0.146665 -0.146665
-0.0393701 -0.154916 -0.154916
-0.027022 -0.162432 -0.162432
-0.0133668 -0.154356 -0.154356
-0.0257016 -0.146867 -0.146867
-0.0263621 -0.154555 -0.154555
-0.0403471 -0.162789 -0.162789
-0.0422965 -0.179097 -0.179097
-0.0143959 -0.178555 -0.178555
-0.0137096 -0.162235 -0.162235
-0.0413225 -0.17085 -0.17085
-0.0283398 -0.178746 -0.178746
-0.0140526 -0.170301 -0.170301
-0.027022 -0.162432 -0.162432
-0.0276812 -0.170495 -0.170495
-0.0422965 -0.179097 -0.179097
-0.04424 -0.196151 -0.196151
-0.0150836 -0.19562 -0.19562
-0.0143959 -0.178555 -0.178555
-0.043269 -0.187531 -0.187531
-0.0296553 -0.195806 -0.195806
-0.0147396 -0.186994 -0.186994
-0.0283398 -0.178746 -0.178746
-0.0289978 -0.187183 -0.187183
-0.04424 -0.196151 -0.196151
-0.0461778 -0.213946 -0.213946
-0.0157726 -0.213427 -0.213427
-0.0150836 -0.19562 -0.19562
-0.0452096 -0.204956 -0.204956
-0.0309688 -0.213608 -0.213608
-0.0154279 -0.204431 -0.204431
-0.0296553 -0.195806 -0.195806
-0.0303123 -0.204614 -0.204614
-0.0461778 -0.213946 -0.213946
-0.0481101 -0.232477 -0.232477
-0.0164634 -0.231971 -0.231971
-0.0157726 -0.213427 -0.213427
-0.0471446 -0.22312 -0.22312
-0.0322803 -0.232146 -0.232146
-0.0161178 -0.222607 -0.222607
-0.0309688 -0.213608 -0.213608
-0.0316248 -0.222785 -0.222785
-0.0481101 -0.232477 -0.232477
-0.0500371 -0.251741 -0.251741
-0.017156 -0.251248 -0.251248
-0.0164634 -0.231971 -0.231971
-0.0490743 -0.242018 -0.242018
-0.0335901 -0.251417 -0.251417
-0.0168095 -0.241518 -0.241518
-0.0322803 -0.232146 -0.232146
-0.0329354 -0.24169 -0.24169
-0.0500371 -0.251741 -0.251741
-0.0519589 -0.271734 -0.271734
-0.0178506 -0.271254 -0.271254
-0.017156 -0.251248 -0.251248
-0.0509986 -0.261647 -0.261647
-0.0348983 -0.271416 -0.271416
-0.017503 -0.26116 -0.26116
-0.0335901 -0.251417 -0.251417
-0.0342443 -0.261326 -0.261326
-0.0519589 -0.271734 -0.271734
-0.0538758 -0.29245 -0.29245
-0.0185474 -0.291984 -0.291984
-0.0178506 -0.271254 -0.271254
-0.052918 -0.282002 -0.282002
-0.0362051 -0.29214 -0.29214
-0.0181987 -0.281529 -0.281529
-0.0348983 -0.271416 -0.271416
-0.0355518 -0.281688 -0.281688
-0.0538758 -0.29245 -0.29245
-0.0557879 -0.313887 -0.313887
-0.0192466 -0.313434 -0.313434
-0.0185474 -0.291984 -0.291984
-0.0548324 -0.303079 -0.303079
-0.0375107 -0.313584 -0.313584
-0.0188967 -0.302619 -0.302619
-0.0362051 -0.29214 -0.29214
-0.036858 -0.302772 -0.302772
-0.0557879 -0.313887 -0.313887
-0.0576953 -0.336039 -0.336039
-0.0199483 -0.3356 -0.3356
-0.0192466 -0.313434 -0.313434
-0.0567422 -0.324874 -0.324874
-0.0388152 -0.335744 -0.335744
-0.0195971 -0.324428 -0.324428
-0.0375107 -0.313584 -0.313584
-0.0381631 -0.324575 -0.324575
-0.0576953 -0.336039 -0.336039
-0.0595983 -0.358903 -0.358903
-0.0206527 -0.358478 -0.358478
-0.0199483 -0.3356 -0.3356
-0.0586473 -0.347382 -0.347382
-0.0401189 -0.358615 -0.358615
-0.0203001 -0.346951 -0.346951
-0.0388152 -0.335744 -0.335744
-0.0394672 -0.347091 -0.347091
-0.0595983 -0.358903 -0.358903
-0.0614969 -0.382474 -0.382474
-0.0213599 -0.382064 -0.382064
-0.0206527 -0.358478 -0.358478
-0.0605481 -0.3706 -0.3706
-0.0414218 -0.382193 -0.382193
-0.0210059 -0.370183 -0.370183
-0.0401189 -0.358615 -0.358615
-0.0407704 -0.370316 -0.370316
-0.0614969 -0.382474 -0.382474
-0.0633914 -0.406747 -0.406747
-0.0220702 -0.406352 -0.406352
-0.0213599 -0.382064 -0.382064
-0.0624447 -0.394523 -0.394523
-0.0427242 -0.406475 -0.406475
-0.0217147 -0.39412 -0.39412
-0.0414218 -0.382193 -0.382193
-0.0420731 -0.394247 -0.394247
-0.0633914 -0.406747 -0.406747
-0.065282 -0.43172 -0.43172
-0.0227836 -0.43134 -0.43134
-0.0220702 -0.406352 -0.406352
-0.0643372 -0.419147 -0.419147
-0.0440261 -0.431456 -0.431456
-0.0224265 -0.418759 -0.418759
-0.0427242 -0.406475 -0.406475
-0.0433752 -0.418878 -0.418878
-0.065282 -0.43172 -0.43172
-0.0671686 -0.457387 -0.457387
-0.0235004 -0.457023 -0.457023
-0.0227836 -0.43134 -0.43134
-0.0662258 -0.444467 -0.444467
-0.0453278 -0.457131 -0.457131
-0.0231416 -0.444095 -0.444095
-0.0440261 -0.431456 -0.431456
-0.044677 -0.444207 -0.444207
-0.0671686 -0.457387 -0.457387
-0.0690516 -0.483744 -0.483744
-0.0242206 -0.483396 -0.483396
-0.0235004 -0.457023 -0.457023
-0.0681106 -0.47048 -0.47048
-0.0466294 -0.483497 -0.483497
-0.02386 -0.470123 -0.470123
-0.0453278 -0.457131 -0.457131
-0.0459786 -0.470228 -0.470228
-0.0690516 -0.483744 -0.483744
-0.070931 -0.510788 -0.510788
-0.0249444 -0.510455 -0.510455
-0.0242206 -0.483396 -0.483396
-0.0699917 -0.497181 -0.497181
-0.047931 -0.510548 -0.510548
-0.024582 -0.49684 -0.49684
-0.0466294 -0.483497 -0.483497
-0.0472802 -0.496937 -0.496937
-0.070931 -0.510788 -0.510788
-0.072807 -0.538513 -0.538513
-0.0256719 -0.538196 -0.538196
-0.0249444 -0.510455 -0.510455
-0.0718694 -0.524566 -0.524566
-0.0492328 -0.538282 -0.538282
-0.0253077 -0.52424 -0.52424
-0.047931 -0.510548 -0.510548
-0.0485819 -0.52433 -0.52433
-0.072807 -0.538513 -0.538513
-0.0746797 -0.566916 -0.566916
-0.0264034 -0.566615 -0.566615
-0.0256719 -0.538196 -0.538196
-0.0737437 -0.55263 -0.55263
-0.0505348 -0.566694 -0.566694
-0.0260371 -0.552321 -0.552321
-0.0492328 -0.538282 -0.538282
-0.0498837 -0.552403 -0.552403
-0.0746797 -0.566916 -0.566916
-0.0765492 -0.595992 -0.595992
-0.0271388 -0.595708 -0.595708
-0.0264034 -0.566615 -0.566615
-0.0756148 -0.58137 -0.58137
-0.0518373 -0.595779 -0.595779
-0.0267706 -0.581078 -0.581078
-0.0505348 -0.566694 -0.566694
-0.051186 -0.581152 -0.581152
-0.0765492 -0.595992 -0.595992
-0.0784158 -0.625738 -0.625738
-0.0278784 -0.62547 -0.62547
-0.0271388 -0.595708 -0.595708
-0.0774829 -0.610782 -0.610782
-0.0531404 -0.625533 -0.625533
-0.0275081 -0.610506 -0.610506
-0.0518373 -0.595779 -0.595779
-0.0524888 -0.610572 -0.610572
-0.0784158 -0.625738 -0.625738
-0.0802794 -0.656148 -0.656148
-0.0286223 -0.655897 -0.655897
-0.0278784 -0.62547 -0.62547
-0.079348 -0.64086 -0.64086
-0.0544441 -0.655952 -0.655952
-0.0282498 -0.640601 -0.640601
-0.0531404 -0.625533 -0.625533
-0.0537921 -0.640659 -0.640659
-0.0802794 -0.656148 -0.656148
-0.0821403 -0.687219 -0.687219
-0.0293705 -0.686985 -0.686985
-0.0286223 -0.655897 -0.655897
-0.0812102 -0.671601 -0.671601
-0.0557487 -0.687032 -0.687032
-0.0289958 -0.671359 -0.671359
-0.0544441 -0.655952 -0.655952
-0.0550963 -0.671409 -0.671409
-0.0821403 -0.687219 -0.687219
-0.0839985 -0.718946 -0.718946
-0.0301233 -0.71873 -0.71873
-0.0293705 -0.686985 -0.686985
-0.0830697 -0.703001 -0.703001
-0.0570541 -0.718768 -0.718768
-0.0297463 -0.702776 -0.702776
-0.0557487 -0.687032 -0.687032
-0.0564013 -0.702818 -0.702818
-0.0839985 -0.718946 -0.718946
-0.0858542 -0.751326 -0.751326
-0.0308807 -0.751127 -0.751127
-0.0301233 -0.71873 -0.71873
-0.0849267 -0.735055 -0.735055
-0.0583607 -0.751157 -0.751157
-0.0305014 -0.734847 -0.734847
-0.0570541 -0.718768 -0.718768
-0.0577073 -0.734881 -0.734881
-0.0858542 -0.751326 -0.751326
-0.0877075 -0.784353 -0.784353
-0.0316428 -0.784172 -0.784172
-0.0308807 -0.751127 -0.751127
-0.0867811 -0.767759 -0.767759
-0.0596684 -0.784194 -0.784194
-0.0312612 -0.767569 -0.767569
-0.0583607 -0.751157 -0.751157
-0.0590144 -0.767595 -0.767595
-0.0877075 -0.784353 -0.784353
-0.0895584 -0.818024 -0.818024
-0.0324098 -0.817861 -0.817861
-0.0316428 -0.784172 -0.784172
-0.0886332 -0.801108 -0.801108
-0.0609773 -0.817874 -0.817874
-0.0320257 -0.800937 -0.800937
-0.0596684 -0.784194 -0.784194
-0.0603227 -0.800954 -0.800954
-0.0895584 -0.818024 -0.818024
-0.0914072 -0.852335 -0.852335
-0.0331817 -0.85219 -0.85219
-0.0324098 -0.817861 -0.817861
-0.0904831 -0.8351 -0.8351
-0.0622876 -0.852195 -0.852195
-0.0327952 -0.834946 -0.834946
-0.0609773 -0.817874 -0.817874
-0.0616323 -0.834955 -0.834955
-0.0914072 -0.852335 -0.852335
-0.0932538 -0.887281 -0.887281
-0.0339587 -0.887154 -0.887154
-0.0331817 -0.85219 -0.85219
-0.0923308 -0.869729 -0.869729
-0.0635995 -0.88715 -0.88715
-0.0335696 -0.869593 -0.869593
-0.0622876 -0.852195 -0.852195
-0.0629434 -0.869593 -0.869593
-0.0932538 -0.887281 -0.887281
-0.0950985 -0.922858 -0.922858
-0.0347409 -0.92275 -0.92275
-0.0339587 -0.887154 -0.887154
-0.0941764 -0.904991 -0.904991
-0.0649128 -0.922737 -0.922737
-0.0343492 -0.904873 -0.904873
-0.0635995 -0.88715 -0.88715
-0.064256 -0.904865 -0.904865
-0.0950985 -0.922858 -0.922858
-0.0969412 -0.959062 -0.959062
-0.0355283 -0.958972 -0.958972
-0.0347409 -0.92275 -0.92275
-0.0960201 -0.940882 -0.940882
-0.0662279 -0.958951 -0.958951
-0.035134 -0.940783 -0.940783
-0.0649128 -0.922737 -0.922737
-0.0655702 -0.940766 -0.940766
-0.0969412 -0.959062 -0.959062
-0.0987821 -0.995888 -0.995888
-0.0363211 -0.995817 -0.995817
-0.0355283 -0.958972 -0.958972
-0.0978619 -0.977398 -0.977398
-0.0675447 -0.995787 -0.995787
-0.035924 -0.977317 -0.977317
-0.0662279 -0.958951 -0.958951
-0.0668861 -0.977291 -0.977291
-0.0987821 -0.995888 -0.995888
-0.100621 -1.03333 -1.03333
-0.0371193 -1.03328 -1.03328
-0.0363211 -0.995817 -0.995817
-0.0997019 -1.01453 -1.01453
-0.0688634 -1.03324 -1.03324
-0.0367195 -1.01447 -1.01447
-0.0675447 -0.995787 -0.995787
-0.0682039 -1.01444 -1.01444
-0.100621 -1.03333 -1.03333
-0.102459 -1.07139 -1.07139
-0.037923 -1.07136 -1.07136
-0.0371193 -1.03328 -1.03328
-0.10154 -1.05229 -1.05229
-0.0701841 -1.07131 -1.07131
-0.0375205 -1.05224 -1.05224
-0.0688634 -1.03324 -1.03324
-0.0695235 -1.0522 -1.0522
-0.102459 -1.07139 -1.07139
-0.104295 -1.11006 -1.11006
-0.0387324 -1.11005 -1.11005
-0.037923 -1.07136 -1.07136
-0.103377 -1.09065 -1.09065
-0.0715068 -1.10999 -1.10999
-0.038327 -1.09063 -1.09063
-0.0701841 -1.07131 -1.07131
-0.0708452 -1.09057 -1.09057
-0.104295 -1.11006 -1.11006
-0.106129 -1.14934 -1.14934
-0.0395474 -1.14934 -1.14934
-0.0387324 -1.11005 -1.11005
-0.105212 -1.12962 -1.12962
-0.0728315 -1.14927 -1.14927
-0.0391392 -1.12962 -1.12962
-0.0715068 -1.10999 -1.10999
-0.0721689 -1.12956 -1.12956
-0.106129 -1.14934 -1.14934
-0.107963 -1.18921 -1.18921
-0.0403682 -1.18924 -1.18924
-0.0395474 -1.14934 -1.14934
-0.107046 -1.1692 -1.1692
-0.0741585 -1.18916 -1.18916
-0.0399571 -1.16921 -1.16921
-0.0728315 -1.14927 -1.14927
-0.0734947 -1.16914 -1.16914
-0.107963 -1.18921 -1.18921
-0.109794 -1.22968 -1.22968
-0.0411949 -1.22973 -1.22973
-0.0403682 -1.18924 -1.18924
-0.108879 -1.20937 -1.20937
-0.0754878 -1.22964 -1.22964
-0.0407808 -1.20941 -1.20941
-0.0741585 -1.18916 -1.18916
-0.0748228 -1.20933 -1.20933
-0.109794 -1.22968 -1.22968
-0.111625 -1.27075 -1.27075
-0.0420275 -1.27081 -1.27081
-0.0411949 -1.22973 -1.22973
-0.11071 -1.25014 -1.25014
-0.0768193 -1.27072 -1.27072
-0.0416104 -1.2502 -1.2502
-0.0754878 -1.22964 -1.22964
-0.0761532 -1.25011 -1.25011
-0.111625 -1.27075 -1.27075
-0.113454 -1.3124 -1.3124
-0.042866 -1.31249 -1.31249
-0.0420275 -1.27081 -1.27081
-0.11254 -1.2915 -1.2915
-0.0781533 -1.31238 -1.31238
-0.042446 -1.29158 -1.29158
-0.0768193 -1.27072 -1.27072
-0.077486 -1.29148 -1.29148
-0.113454 -1.3124 -1.3124
-0.115283 -1.35464 -1.35464
-0.0437106 -1.35475 -1.35475
-0.042866 -1.31249 -1.31249
-0.114369 -1.33345 -1.33345
-0.0794898 -1.35463 -1.35463
-0.0432876 -1.33355 -1.33355
-0.0781533 -1.31238 -1.31238
-0.0788212 -1.33344 -1.33344
-0.115283 -1.35464 -1.35464
-0.11711 -1.39746 -1.39746
-0.0445614 -1.39759 -1.39759
-0.0437106 -1.35475 -1.35475
-0.116197 -1.37598 -1.37598
-0.0808288 -1.39746 -1.39746
-0.0441352 -1.3761 -1.3761
-0.0794898 -1.35463 -1.35463
-0.080159 -1.37598 -1.37598
-0.11711 -1.39746 -1.39746
-0.118936 -1.44086 -1.44086
-0.0454183 -1.441 -1.441
-0.0445614 -1.39759 -1.39759
-0.118023 -1.41909 -1.41909
-0.0821704 -1.44087 -1.44087
-0.0449891 -1.41922 -1.41922
-0.0808288 -1.39746 -1.39746
-0.0814993 -1.41909 -1.41909
-0.118936 -1.44086 -1.44086
-0.120762 -1.48483 -1.48483
-0.0462815 -1.48499 -1.48499
-0.0454183 -1.441 -1.441
-0.119849 -1.46277 -1.46277
-0.0835146 -1.48485 -1.48485
-0.0458491 -1.46293 -1.46293
-0.0821704 -1.44087 -1.44087
-0.0828422 -1.46279 -1.46279
-0.120762 -1.48483 -1.48483
-0.122586 -1.52936 -1.52936
-0.0471509 -1.52955 -1.52955
-0.0462815 -1.48499 -1.48499
-0.121674 -1.50702 -1.50702
-0.0848616 -1.52939 -1.52939
-0.0467154 -1.5072 -1.5072
-0.0835146 -1.48485 -1.48485
-0.0841878 -1.50705 -1.50705
-0.122586 -1.52936 -1.52936
-0.12441 -1.57446 -1.57446
-0.0480267 -1.57466 -1.57466
-0.0471509 -1.52955 -1.52955
-0.123498 -1.55184 -1.55184
-0.0862113 -1.5745 -1.5745
-0.047588 -1.55203 -1.55203
-0.0848616 -1.52939 -1.52939
-0.0855361 -1.55188 -1.55188
-0.12441 -1.57446 -1.57446
-0.126233 -1.62012 -1.62012
-0.0489089 -1.62034 -1.62034
-0.0480267 -1.57466 -1.57466
-0.125321 -1.59722 -1.59722
-0.0875639 -1.62017 -1.62017
-0.048467 -1.59743 -1.59743
-0.0862113 -1.5745 -1.5745
-0.0868872 -1.59727 -1.59727
-0.126233 -1.62012 -1.62012
-0.128055 -1.66633 -1.66633
-0.0497975 -1.66657 -1.66657
-0.0489089 -1.62034 -1.62034
-0.127144 -1.64315 -1.64315
-0.0889193 -1.66639 -1.66639
-0.0493524 -1.64339 -1.64339
-0.0875639 -1.62017 -1.62017
-0.0882412 -1.64321 -1.64321
-0.128055 -1.66633 -1.66633
-0.129876 -1.71309 -1.71309
-0.0506926 -1.71336 -1.71336
-0.0497975 -1.66657 -1.66657
-0.128966 -1.68964 -1.68964
-0.0902776 -1.71317 -1.71317
-0.0502442 -1.6899 -1.6899
-0.0889193 -1.66639 -1.66639
-0.0895981 -1.68971 -1.68971
-0.129876 -1.71309 -1.71309
-0.131697 -1.7604 -1.7604
-0.0515942 -1.76069 -1.76069
-0.0506926 -1.71336 -1.71336
-0.130787 -1.73668 -1.73668
-0.0916388 -1.76049 -1.76049
-0.0511426 -1.73695 -1.73695
-0.0902776 -1.71317 -1.71317
-0.0909578 -1.73676 -1.73676
-0.131697 -1.7604 -1.7604
-0.133518 -1.80825 -1.80825
-0.0525024 -1.80856 -1.80856
-0.0515942 -1.76069 -1.76069
-0.132608 -1.78426 -1.78426
-0.093003 -1.80835 -1.80835
-0.0520475 -1.78456 -1.78456
-0.0916388 -1.76049 -1.76049
-0.0923205 -1.78435 -1.78435
-0.133518 -1.80825 -1.80825
-0.135337 -1.85664 -1.85664
-0.0534172 -1.85697 -1.85697
-0.0525024 -1.80856 -1.80856
-0.134428 -1.83238 -1.83238
-0.0943703 -1.85675 -1.85675
-0.052959 -1.8327 -1.8327
-0.093003 -1.80835 -1.80835
-0.0936863 -1.83248 -1.83248
-0.135337 -1.85664 -1.85664
-0.137156 -1.90556 -1.90556
-0.0543386 -1.90591 -1.90591
-0.0534172 -1.85697 -1.85697
-0.136247 -1.88103 -1.88103
-0.0957406 -1.90568 -1.90568
-0.0538771 -1.88137 -1.88137
-0.0943703 -1.85675 -1.85675
-0.095055 -1.88115 -1.88115
-0.137156 -1.90556 -1.90556
-0.138975 -1.95501 -1.95501
-0.0552667 -1.95539 -1.95539
-0.0543386 -1.90591 -1.90591
-0.138066 -1.93022 -1.93022
-0.0971139 -1.95514 -1.95514
-0.0548018 -1.93058 -1.93058
-0.0957406 -1.90568 -1.90568
-0.0964269 -1.93035 -1.93035
-0.138975 -1.95501 -1.95501
-0.140793 -2.00499 -2.00499
-0.0562014 -2.00538 -2.00538
-0.0552667 -1.95539 -1.95539
-0.139884 -1.97994 -1.97994
-0.0984904 -2.00513 -2.00513
-0.0557332 -1.98032 -1.98032
-0.0971139 -1.95514 -1.95514
-0.0978018 -1.98007 -1.98007
-0.140793 -2.00499 -2.00499
-0.142611 -2.05549 -2.05549
-0.0571429 -2.0559 -2.0559
-0.0562014 -2.00538 -2.00538
-0.141702 -2.03018 -2.03018
-0.09987 -2.05564 -2.05564
-0.0566713 -2.03058 -2.03058
-0.0984904 -2.00513 -2.00513
-0.0991798 -2.03032 -2.03032
-0.142611 -2.05549 -2.05549
-0.144428 -2.10651 -2.10651
-0.0580911 -2.10694 -2.10694
-0.0571429 -2.0559 -2.0559
-0.14352 -2.08093 -2.08093
-0.101253 -2.10667 -2.10667
-0.0576162 -2.08136 -2.08136
-0.09987 -2.05564 -2.05564
-0.100561 -2.08109 -2.08109
-0.144428 -2.10651 -2.10651
-0.146245 -2.15803 -2.15803
-0.059046 -2.15849 -2.15849
-0.0580911 -2.10694 -2.10694
-0.145337 -2.13221 -2.13221
-0.102639 -2.15821 -2.15821
-0.0585677 -2.13265 -2.13265
-0.101253 -2.10667 -2.10667
-0.101945 -2.13237 -2.13237
-0.146245 -2.15803 -2.15803
-0.148062 -2.21007 -2.21007
-0.0600078 -2.21055 -2.21055
-0.059046 -2.15849 -2.15849
-0.147154 -2.18399 -2.18399
-0.104028 -2.21025 -2.21025
-0.0595261 -2.18445 -2.18445
-0.102639 -2.15821 -2.15821
-0.103333 -2.18417 -2.18417
-0.148062 -2.21007 -2.21007
-0.149878 -2.26261 -2.26261
-0.0609763 -2.26311 -2.26311
-0.0600078 -2.21055 -2.21055
-0.14897 -2.23628 -2.23628
-0.10542 -2.26281 -2.26281
-0.0604912 -2.23676 -2.23676
-0.104028 -2.21025 -2.21025
-0.104724 -2.23647 -2.23647
-0.149878 -2.26261 -2.26261
-0.151694 -2.31565 -2.31565
-0.0619516 -2.31617 -2.31617
-0.0609763 -2.26311 -2.26311
-0.150786 -2.28907 -2.28907
-0.106816 -2.31586 -2.31586
-0.0614631 -2.28958 -2.28958
-0.10542 -2.26281 -2.26281
-0.106118 -2.28927 -2.28927
-0.151694 -2.31565 -2.31565
-0.153509 -2.36919 -2.36919
-0.0629337 -2.36972 -2.36972
-0.0619516 -2.31617 -2.31617
-0.152602 -2.34236 -2.34236
-0.108214 -2.3694 -2.3694
-0.0624418 -2.34288 -2.34288
-0.106816 -2.31586 -2.31586
-0.107515 -2.34257 -2.34257
-0.153509 -2.36919 -2.36919
-0.155324 -2.42321 -2.42321
-0.0639226 -2.42377 -2.42377
-0.0629337 -2.36972 -2.36972
-0.154417 -2.39614 -2.39614
-0.109616 -2.42344 -2.42344
-0.0634273 -2.39669 -2.39669
-0.108214 -2.3694 -2.3694
-0.108915 -2.39636 -2.39636
-0.155324 -2.42321 -2.42321
-0.157139 -2.47773 -2.47773
-0.0649183 -2.47831 -2.47831
-0.0639226 -2.42377 -2.42377
-0.156232 -2.45041 -2.45041
-0.111022 -2.47797 -2.47797
-0.0644196 -2.45098 -2.45098
-0.109616 -2.42344 -2.42344
-0.110319 -2.45064 -2.45064
-0.157139 -2.47773 -2.47773
-0.158953 -2.53272 -2.53272
-0.0659209 -2.53333 -2.53333
-0.0649183 -2.47831 -2.47831
-0.158046 -2.50517 -2.50517
-0.11243 -2.53297 -2.53297
-0.0654187 -2.50576 -2.50576
-0.111022 -2.47797 -2.47797
-0.111725 -2.50541 -2.50541
-0.158953 -2.53272 -2.53272
-0.160767 -2.5882 -2.5882
-0.0669302 -2.58882 -2.58882
-0.0659209 -2.53333 -2.53333
-0.15986 -2.5604 -2.5604
-0.113842 -2.58846 -2.58846
-0.0664247 -2.56102 -2.56102
-0.11243 -2.53297 -2.53297
-0.113136 -2.56066 -2.56066
-0.160767 -2.5882 -2.5882
-0.162581 -2.64415 -2.64415
-0.0679464 -2.64479 -2.64479
-0.0669302 -2.58882 -2.58882
-0.161674 -2.61612 -2.61612
-0.115257 -2.64442 -2.64442
-0.0674375 -2.61675 -2.61675
-0.113842 -2.58846 -2.58846
-0.114549 -2.61638 -2.61638
-0.162581 -2.64415 -2.64415
-0.164394 -2.70057 -2.70057
-0.0689694 -2.70124 -2.70124
-0.0679464 -2.64479 -2.64479
-0.163488 -2.6723 -2.6723
-0.116675 -2.70085 -2.70085
-0.0684571 -2.67296 -2.67296
-0.115257 -2.64442 -2.64442
-0.115965 -2.67258 -2.67258
-0.164394 -2.70057 -2.70057
-0.166207 -2.75746 -2.75746
-0.0699992 -2.75814 -2.75814
-0.0689694 -2.70124 -2.70124
-0.165301 -2.72896 -2.72896
-0.118096 -2.75775 -2.75775
-0.0694835 -2.72963 -2.72963
-0.116675 -2.70085 -2.70085
-0.117385 -2.72924 -2.72924
-0.166207 -2.75746 -2.75746
-0.16802 -2.8148 -2.8148
-0.0710358 -2.81551 -2.81551
-0.0699992 -2.75814 -2.75814
-0.167114 -2.78607 -2.78607
-0.119521 -2.81511 -2.81511
-0.0705166 -2.78677 -2.78677
-0.118096 -2.75775 -2.75775
-0.118808 -2.78637 -2.78637
-0.16802 -2.8148 -2.8148
-0.169832 -2.87261 -2.87261
-0.0720792 -2.87334 -2.87334
-0.0710358 -2.81551 -2.81551
-0.168926 -2.84365 -2.84365
-0.120949 -2.87293 -2.87293
-0.0715566 -2.84437 -2.84437
-0.119521 -2.81511 -2.81511
-0.120234 -2.84396 -2.84396
-0.169832 -2.87261 -2.87261
-0.171644 -2.93087 -2.93087
-0.0731293 -2.93162 -2.93162
-0.0720792 -2.87334 -2.87334
-0.170738 -2.90168 -2.90168
-0.12238 -2.9312 -2.9312
-0.0726034 -2.90242 -2.90242
-0.120949 -2.87293 -2.87293
-0.121664 -2.902 -2.902
-0.171644 -2.93087 -2.93087
-0.173456 -2.98958 -2.98958
-0.0741862 -2.99035 -2.99035
-0.0731293 -2.93162 -2.93162
-0.17255 -2.96017 -2.96017
-0.123814 -2.98991 -2.98991
-0.0736569 -2.96093 -2.96093
-0.12238 -2.9312 -2.9312
-0.123096 -2.9605 -2.9605
-0.173456 -2.98958 -2.98958
-0.175267 -3.04873 -3.04873
-0.0752498 -3.04952 -3.04952
-0.0741862 -2.99035 -2.99035
-0.174361 -3.0191 -3.0191
-0.125251 -3.04908 -3.04908
-0.0747171 -3.01988 -3.01988
-0.123814 -2.98991 -2.98991
-0.124532 -3.01944 -3.01944
-0.175267 -3.04873 -3.04873
-0.177077 -3.10832 -3.10832
-0.0763201 -3.10914 -3.10914
-0.0752498 -3.04952 -3.04952
-0.176172 -3.07847 -3.07847
-0.126692 -3.10868 -3.10868
-0.0757841 -3.07927 -3.07927
-0.125251 -3.04908 -3.04908
-0.125971 -3.07883 -3.07883
-0.177077 -3.10832 -3.10832
-0.178887 -3.16835 -3.16835
-0.0773971 -3.16919 -3.16919
-0.0763201 -3.10914 -3.10914
-0.177982 -3.13828 -3.13828
-0.128135 -3.16872 -3.16872
-0.0768577 -3.13911 -3.13911
-0.126692 -3.10868 -3.10868
-0.127413 -3.13865 -3.13865
-0.178887 -3.16835 -3.16835
-0.180697 -3.22881 -3.22881
-0.0784807 -3.22967 -3.22967
-0.0773971 -3.16919 -3.16919
-0.179792 -3.19853 -3.19853
-0.129582 -3.2292 -3.2292
-0.0779381 -3.19937 -3.19937
-0.128135 -3.16872 -3.16872
-0.128858 -3.19891 -3.19891
-0.180697 -3.22881 -3.22881
-0.182506 -3.2897 -3.2897
-0.079571 -3.29058 -3.29058
-0.0784807 -3.22967 -3.22967
-0.181601 -3.25921 -3.25921
-0.131032 -3.2901 -3.2901
-0.079025 -3.26007 -3.26007
-0.129582 -3.2292 -3.2292
-0.130306 -3.25959 -3.25959
-0.182506 -3.2897 -3.2897
-0.184314 -3.35102 -3.35102
-0.0806679 -3.35191 -3.35191
-0.079571 -3.29058 -3.29058
-0.18341 -3.32031 -3.32031
-0.132484 -3.35142 -3.35142
-0.0801186 -3.32119 -3.32119
-0.131032 -3.2901 -3.2901
-0.131757 -3.32071 -3.32071
-0.184314 -3.35102 -3.35102
-0.186122 -3.41275 -3.41275
-0.0817714 -3.41367 -3.41367
-0.0806679 -3.35191 -3.35191
-0.185218 -3.38183 -3.38183
-0.13394 -3.41316 -3.41316
-0.0812188 -3.38274 -3.38274
-0.132484 -3.35142 -3.35142
-0.133212 -3.38224 -3.38224
-0.186122 -3.41275 -3.41275
-0.18793 -3.4749 -3.4749
-0.0828813 -3.47583 -3.47583
-0.0817714 -3.41367 -3.41367
-0.187026 -3.44377 -3.44377
-0.135399 -3.47532 -3.47532
-0.0823255 -3.4447 -3.4447
-0.13394 -3.41316 -3.41316
-0.134669 -3.44419 -3.44419
-0.18793 -3.4749 -3.4749
-0.189736 -3.53746 -3.53746
-0.0839978 -3.53841 -3.53841
-0.0828813 -3.47583 -3.47583
-0.188833 -3.50613 -3.50613
-0.13686 -3.53789 -3.53789
-0.0834388 -3.50707 -3.50707
-0.135399 -3.47532 -3.47532
-0.136129 -3.50656 -3.50656
-0.189736 -3.53746 -3.53746
-0.191542 -3.60042 -3.60042
-0.0851208 -3.6014 -3.6014
-0.0839978 -3.53841 -3.53841
-0.190639 -3.56889 -3.56889
-0.138325 -3.60087 -3.60087
-0.0845585 -3.56986 -3.56986
-0.13686 -3.53789 -3.53789
-0.137592 -3.56933 -3.56933
-0.191542 -3.60042 -3.60042
-0.193347 -3.66379 -3.66379
-0.0862502 -3.66479 -3.66479
-0.0851208 -3.6014 -3.6014
-0.192445 -3.63206 -3.63206
-0.139792 -3.66425 -3.66425
-0.0856847 -3.63304 -3.63304
-0.138325 -3.60087 -3.60087
-0.139058 -3.63251 -3.63251
-0.193347 -3.66379 -3.66379
-0.195152 -3.72756 -3.72756
-0.0873859 -3.72857 -3.72857
-0.0862502 -3.66479 -3.66479
-0.19425 -3.69562 -3.69562
-0.141262 -3.72802 -3.72802
-0.0868172 -3.69663 -3.69663
-0.139792 -3.66425 -3.66425
-0.140527 -3.69609 -3.69609
-0.195152 -3.72756 -3.72756
-0.196955 -3.79172 -3.79172
-0.088528 -3.79276 -3.79276
-0.0873859 -3.72857 -3.72857
-0.196054 -3.75959 -3.75959
-0.142735 -3.79219 -3.79219
-0.0879561 -3.76062 -3.76062
-0.141262 -3.72802 -3.72802
-0.141998 -3.76006 -3.76006
-0.196955 -3.79172 -3.79172
-0.198758 -3.85627 -3.85627
-0.0896763 -3.85733 -3.85733
-0.088528 -3.79276 -3.79276
-0.197857 -3.82394 -3.82394
-0.14421 -3.85675 -3.85675
-0.0891014 -3.82499 -3.82499
-0.142735 -3.79219 -3.79219
-0.143472 -3.82443 -3.82443
-0.198758 -3.85627 -3.85627
-0.20056 -3.9212 -3.9212
-0.0908309 -3.92228 -3.92228
-0.0896763 -3.85733 -3.85733
-0.199659 -3.88869 -3.88869
-0.145689 -3.9217 -3.9217
-0.0902529 -3.88976 -3.88976
-0.14421 -3.85675 -3.85675
-0.144949 -3.88918 -3.88918
-0.20056 -3.9212 -3.9212
-0.202361 -3.98652 -3.98652
-0.0919917 -3.98762 -3.98762
-0.0908309 -3.92228 -3.92228
-0.20146 -3.95381 -3.95381
-0.147169 -3.98703 -3.98703
-0.0914106 -3.9549 -3.9549
-0.145689 -3.9217 -3.9217
-0.146429 -3.95432 -3.95432
-0.202361 -3.98652 -3.98652
-0.204161 -4.05221 -4.05221
-0.0931587 -4.05333 -4.05333
-0.0919917 -3.98762 -3.98762
-0.203261 -4.01932 -4.01932
-0.148653 -4.05273 -4.05273
-0.0925744 -4.02043 -4.02043
-0.147169 -3.98703 -3.98703
-0.147911 -4.01983 -4.01983
-0.204161 -4.05221 -4.05221
-0.205959 -4.11828 -4.11828
-0.0943317 -4.11942 -4.11942
-0.0931587 -4.05333 -4.05333
-0.20506 -4.0852 -4.0852
-0.150139 -4.11881 -4.11881
-0.0937444 -4.08633 -4.08633
-0.148653 -4.05273 -4.05273
-0.149395 -4.08572 -4.08572
-0.205959 -4.11828 -4.11828
-0.207757 -4.18471 -4.18471
-0.0955107 -4.18587 -4.18587
-0.0943317 -4.11942 -4.11942
-0.206858 -4.15145 -4.15145
-0.151627 -4.18526 -4.18526
-0.0949204 -4.1526 -4.1526
-0.150139 -4.11881 -4.11881
-0.150882 -4.15199 -4.15199
-0.207757 -4.18471 -4.18471
-0.209553 -4.25151 -4.25151
-0.0966957 -4.25269 -4.25269
-0.0955107 -4.18587 -4.18587
-0.208655 -4.21807 -4.21807
-0.153118 -4.25207 -4.25207
-0.0961024 -4.21924 -4.21924
-0.151627 -4.18526 -4.18526
-0.152372 -4.21861 -4.21861
-0.209553 -4.25151 -4.25151
-0.211349 -4.31867 -4.31867
-0.0978866 -4.31987 -4.31987
-0.0966957 -4.25269 -4.25269
-0.210451 -4.28505 -4.28505
-0.154611 -4.31924 -4.31924
-0.0972904 -4.28624 -4.28624
-0.153118 -4.25207 -4.25207
-0.153864 -4.28561 -4.28561
-0.211349 -4.31867 -4.31867
-0.213142 -4.38619 -4.38619
-0.0990834 -4.38741 -4.38741
-0.0978866 -4.31987 -4.31987
-0.212246 -4.35239 -4.35239
-0.156106 -4.38676 -4.38676
-0.0984842 -4.3536 -4.3536
-0.154611 -4.31924 -4.31924
-0.155358 -4.35295 -4.35295
-0.213142 -4.38619 -4.38619
-0.214935 -4.45406 -4.45406
-0.100286 -4.4553 -4.4553
-0.0990834 -4.38741 -4.38741
-0.214039 -4.42008 -4.42008
-0.157604 -4.45464 -4.45464
-0.0996839 -4.42131 -4.42131
-0.156106 -4.38676 -4.38676
-0.156854 -4.42066 -4.42066
-0.214935 -4.45406 -4.45406
-0.216726 -4.52227 -4.52227
-0.101494 -4.52353 -4.52353
-0.100286 -4.4553 -4.4553
-0.215831 -4.48812 -4.48812
-0.159103 -4.52286 -4.52286
-0.100889 -4.48937 -4.48937
-0.157604 -4.45464 -4.45464
-0.158353 -4.48871 -4.48871
-0.216726 -4.52227 -4.52227
-0.218515 -4.59083 -4.59083
-0.102708 -4.59211 -4.59211
-0.101494 -4.52353 -4.52353
-0.217621 -4.55651 -4.55651
-0.160605 -4.59143 -4.59143
-0.1021 -4.55778 -4.55778
-0.159103 -4.52286 -4.52286
-0.159854 -4.55711 -4.55711
-0.218515 -4.59083 -4.59083
-0.220303 -4.65973 -4.65973
-0.103928 -4.66102 -4.66102
-0.102708 -4.59211 -4.59211
-0.21941 -4.62524 -4.62524
-0.162109 -4.66034 -4.66034
-0.103317 -4.62652 -4.62652
-0.160605 -4.59143 -4.59143
-0.161357 -4.62584 -4.62584
-0.220303 -4.65973 -4.65973
-0.22209 -4.72896 -4.72896
-0.105153 -4.73027 -4.73027
-0.103928 -4.66102 -4.66102
-0.221197 -4.6943 -4.6943
-0.163614 -4.72958 -4.72958
-0.104539 -4.69561 -4.69561
-0.162109 -4.66034 -4.66034
-0.162861 -4.69492 -4.69492
-0.22209 -4.72896 -4.72896
-0.223874 -4.79852 -4.79852
-0.106383 -4.79986 -4.79986
-0.105153 -4.73027 -4.73027
-0.222982 -4.7637 -4.7637
-0.165122 -4.79915 -4.79915
-0.105767 -4.76502 -4.76502
-0.163614 -4.72958 -4.72958
-0.164368 -4.76433 -4.76433
-0.223874 -4.79852 -4.79852
-0.225657 -4.86841 -4.86841
-0.107619 -4.86976 -4.86976
-0.106383 -4.79986 -4.79986
-0.224766 -4.83343 -4.83343
-0.166631 -4.86905 -4.86905
-0.107 -4.83477 -4.83477
-0.165122 -4.79915 -4.79915
-0.165876 -4.83406 -4.83406
-0.225657 -4.86841 -4.86841
-0.227438 -4.93862 -4.93862
-0.10886 -4.93999 -4.93999
-0.107619 -4.86976 -4.86976
-0.226548 -4.90348 -4.90348
-0.168142 -4.93927 -4.93927
-0.108239 -4.90484 -4.90484
-0.166631 -4.86905 -4.86905
-0.167387 -4.90412 -4.90412
-0.227438 -4.93862 -4.93862
-0.229217 -5.00915 -5.00915
-0.110106 -5.01054 -5.01054
-0.10886 -4.93999 -4.93999
-0.228328 -4.97385 -4.97385
-0.169655 -5.00981 -5.00981
-0.109482 -4.97523 -4.97523
-0.168142 -4.93927 -4.93927
-0.168898 -4.9745 -4.9745
-0.229217 -5.00915 -5.00915
-0.230994 -5.07999 -5.07999
-0.111358 -5.0814 -5.0814
-0.110106 -5.01054 -5.01054
-0.230106 -5.04453 -5.04453
-0.171169 -5.08066 -5.08066
-0.110731 -5.04593 -5.04593
-0.169655 -5.00981 -5.00981
-0.170412 -5.0452 -5.0452
-0.230994 -5.07999 -5.07999
-0.232769 -5.15114 -5.15114
-0.112614 -5.15257 -5.15257
-0.111358 -5.0814 -5.0814
-0.231882 -5.11553 -5.11553
-0.172685 -5.15182 -5.15182
-0.111985 -5.11695 -5.11695
-0.171169 -5.08066 -5.08066
-0.171927 -5.11621 -5.11621
-0.232769 -5.15114 -5.15114
-0.234542 -5.2226 -5.2226
-0.113876 -5.22404 -5.22404
-0.112614 -5.15257 -5.15257
-0.233656 -5.18684 -5.18684
-0.174202 -5.22329 -5.22329
-0.113244 -5.18827 -5.18827
-0.172685 -5.15182 -5.15182
-0.173443 -5.18752 -5.18752
-0.234542 -5.2226 -5.2226
-0.236312 -5.29436 -5.29436
-0.115142 -5.29582 -5.29582
-0.113876 -5.22404 -5.22404
-0.235427 -5.25844 -5.25844
-0.17572 -5.29506 -5.29506
-0.114508 -5.25989 -5.25989
-0.174202 -5.22329 -5.22329
-0.174961 -5.25914 -5.25914
-0.236312 -5.29436 -5.29436
-0.23808 -5.36641 -5.36641
-0.116413 -5.36789 -5.36789
-0.115142 -5.29582 -5.29582
-0.237197 -5.33035 -5.33035
-0.17724 -5.36712 -5.36712
-0.115777 -5.33182 -5.33182
-0.17572 -5.29506 -5.29506
-0.17648 -5.33105 -5.33105
-0.23808 -5.36641 -5.36641
-0.239846 -5.43876 -5.43876
-0.117689 -5.44026 -5.44026
-0.116413 -5.36789 -5.36789
-0.238964 -5.40255 -5.40255
-0.178761 -5.43948 -5.43948
-0.117051 -5.40404 -5.40404
-0.17724 -5.36712 -5.36712
-0.178 -5.40326 -5.40326
-0.239846 -5.43876 -5.43876
-0.241609 -5.5114 -5.5114
-0.11897 -5.51291 -5.51291
-0.117689 -5.44026 -5.44026
-0.240728 -5.47504 -5.47504
-0.180283 -5.51212 -5.51212
-0.118329 -5.47655 -5.47655
-0.178761 -5.43948 -5.43948
-0.179522 -5.47576 -5.47576
-0.241609 -5.5114 -5.5114
-0.24337 -5.58431 -5.58431
-0.120255 -5.58584 -5.58584
-0.11897 -5.51291 -5.51291
-0.24249 -5.54782 -5.54782
-0.181806 -5.58505 -5.58505
-0.119612 -5.54934 -5.54934
-0.180283 -5.51212 -5.51212
-0.181044 -5.54855 -5.54855
-0.24337 -5.58431 -5.58431
-0.245128 -5.65751 -5.65751
-0.121545 -5.65906 -5.65906
-0.120255 -5.58584 -5.58584
-0.244249 -5.62088 -5.62088
-0.183329 -5.65826 -5.65826
-0.120899 -5.62242 -5.62242
-0.181806 -5.58505 -5.58505
-0.182568 -5.62162 -5.62162
-0.245128 -5.65751 -5.65751
-0.246883 -5.73099 -5.73099
-0.122838 -5.73255 -5.73255
-0.121545 -5.65906 -5.65906
-0.246006 -5.69422 -5.69422
-0.184854 -5.73174 -5.73174
-0.122191 -5.69577 -5.69577
-0.183329 -5.65826 -5.65826
-0.184092 -5.69496 -5.69496
-0.246883 -5.73099 -5.73099
-0.248635 -5.80473 -5.80473
-0.124137 -5.80631 -5.80631
-0.122838 -5.73255 -5.73255
-0.247759 -5.76783 -5.76783
-0.186379 -5.8055 -5.8055
-0.123487 -5.7694 -5.7694
-0.184854 -5.73174 -5.73174
-0.185617 -5.76858 -5.76858
-0.248635 -5.80473 -5.80473
-0.250384 -5.87875 -5.87875
-0.125439 -5.88034 -5.88034
-0.124137 -5.80631 -5.80631
-0.24951 -5.84171 -5.84171
-0.187905 -5.87952 -5.87952
-0.124787 -5.8433 -5.8433
-0.186379 -5.8055 -5.8055
-0.187142 -5.84247 -5.84247
-0.250384 -5.87875 -5.87875
-0.252131 -5.95302 -5.95302
-0.126746 -5.95464 -5.95464
-0.125439 -5.88034 -5.88034
-0.251258 -5.91585 -5.91585
-0.189431 -5.9538 -5.9538
-0.126092 -5.91746 -5.91746
-0.187905 -5.87952 -5.87952
-0.188668 -5.91663 -5.91663
-0.252131 -5.95302 -5.95302
-0.253874 -6.02755 -6.02755
-0.128056 -6.02919 -6.02919
-0.126746 -5.95464 -5.95464
-0.253002 -5.99026 -5.99026
-0.190958 -6.02834 -6.02834
-0.1274 -5.99188 -5.99188
-0.189431 -5.9538 -5.9538
-0.190195 -5.99104 -5.99104
-0.253874 -6.02755 -6.02755
-0.255613 -6.10234 -6.10234
-0.12937 -6.10399 -6.10399
-0.128056 -6.02919 -6.02919
-0.254744 -6.06492 -6.06492
-0.192485 -6.10314 -6.10314
-0.128713 -6.06656 -6.06656
-0.190958 -6.02834 -6.02834
-0.191722 -6.06571 -6.06571
-0.255613 -6.10234 -6.10234
-0.25735 -6.17738 -6.17738
-0.130689 -6.17904 -6.17904
-0.12937 -6.10399 -6.10399
-0.256482 -6.13983 -6.13983
-0.194012 -6.17819 -6.17819
-0.130029 -6.14149 -6.14149
-0.192485 -6.10314 -6.10314
-0.193249 -6.14063 -6.14063
-0.25735 -6.17738 -6.17738
-0.259083 -6.25267 -6.25267
-0.13201 -6.25434 -6.25434
-0.130689 -6.17904 -6.17904
-0.258217 -6.21499 -6.21499
-0.19554 -6.25348 -6.25348
-0.131349 -6.21666 -6.21666
-0.194012 -6.17819 -6.17819
-0.194776 -6.2158 -6.2158
-0.259083 -6.25267 -6.25267
-0.260812 -6.32819 -6.32819
-0.133336 -6.32989 -6.32989
-0.13201 -6.25434 -6.25434
-0.259948 -6.2904 -6.2904
-0.197067 -6.32901 -6.32901
-0.132673 -6.29208 -6.29208
-0.19554 -6.25348 -6.25348
-0.196304 -6.29122 -6.29122
-0.260812 -6.32819 -6.32819
-0.262538 -6.40395 -6.40395
-0.134665 -6.40566 -6.40566
-0.133336 -6.32989 -6.32989
-0.261675 -6.36604 -6.36604
-0.198595 -6.40478 -6.40478
-0.134 -6.36775 -6.36775
-0.197067 -6.32901 -6.32901
-0.197831 -6.36687 -6.36687
-0.262538 -6.40395 -6.40395
-0.26426 -6.47995 -6.47995
-0.135997 -6.48168 -6.48168
-0.134665 -6.40566 -6.40566
-0.263399 -6.44192 -6.44192
-0.200122 -6.48079 -6.48079
-0.13533 -6.44364 -6.44364
-0.198595 -6.40478 -6.40478
-0.199358 -6.44276 -6.44276
-0.26426 -6.47995 -6.47995
-0.265978 -6.55618 -6.55618
-0.137332 -6.55792 -6.55792
-0.135997 -6.48168 -6.48168
-0.265119 -6.51804 -6.51804
-0.201648 -6.55702 -6.55702
-0.136664 -6.51977 -6.51977
-0.200122 -6.48079 -6.48079
-0.200885 -6.51888 -6.51888
-0.265978 -6.55618 -6.55618
-0.267692 -6.63263 -6.63263
-0.138671 -6.63438 -6.63438
-0.137332 -6.55792 -6.55792
-0.266835 -6.59437 -6.59437
-0.203175 -6.63348 -6.63348
-0.138001 -6.59612 -6.59612
-0.201648 -6.55702 -6.55702
-0.202412 -6.59522 -6.59522
-0.267692 -6.63263 -6.63263
-0.269401 -6.7093 -6.7093
-0.140013 -6.71107 -6.71107
-0.138671 -6.63438 -6.63438
-0.268547 -6.67093 -6.67093
-0.204701 -6.71016 -6.71016
-0.139342 -6.6727 -6.6727
-0.203175 -6.63348 -6.63348
-0.203938 -6.67179 -6.67179
-0.269401 -6.7093 -6.7093
-0.271107 -6.78618 -6.78618
-0.141358 -6.78797 -6.78797
-0.140013 -6.71107 -6.71107
-0.270255 -6.74771 -6.74771
-0.206226 -6.78705 -6.78705
-0.140685 -6.74949 -6.74949
-0.204701 -6.71016 -6.71016
-0.205463 -6.74858 -6.74858
-0.271107 -6.78618 -6.78618
-0.272809 -6.86328 -6.86328
-0.142705 -6.86508 -6.86508
-0.141358 -6.78797 -6.78797
-0.271958 -6.82471 -6.82471
-0.20775 -6.86416 -6.86416
-0.142031 -6.8265 -6.8265
-0.206226 -6.78705 -6.78705
-0.206988 -6.82558 -6.82558
-0.272809 -6.86328 -6.86328
-0.274506 -6.94059 -6.94059
-0.144056 -6.9424 -6.9424
-0.142705 -6.86508 -6.86508
-0.273658 -6.90191 -6.90191
-0.209274 -6.94147 -6.94147
-0.14338 -6.90372 -6.90372
-0.20775 -6.86416 -6.86416
-0.208512 -6.90279 -6.90279
-0.274506 -6.94059 -6.94059
-0.276198 -7.0181 -7.0181
-0.145408 -7.01993 -7.01993
-0.144056 -6.9424 -6.9424
-0.275352 -6.97932 -6.97932
-0.210797 -7.01899 -7.01899
-0.144732 -6.98114 -6.98114
-0.209274 -6.94147 -6.94147
-0.210035 -6.98021 -6.98021
-0.276198 -7.0181 -7.0181
-0.277886 -7.09581 -7.09581
-0.146764 -7.09765 -7.09765
-0.145408 -7.01993 -7.01993
-0.277043 -7.05693 -7.05693
-0.212318 -7.09671 -7.09671
-0.146086 -7.05876 -7.05876
-0.210797 -7.01899 -7.01899
-0.211558 -7.05783 -7.05783
-0.277886 -7.09581 -7.09581
-0.279569 -7.17371 -7.17371
-0.148122 -7.17557 -7.17557
-0.146764 -7.09765 -7.09765
-0.278728 -7.13474 -7.13474
-0.213839 -7.17462 -7.17462
-0.147442 -7.13658 -7.13658
-0.212318 -7.09671 -7.09671
-0.213079 -7.13564 -7.13564
-0.279569 -7.17371 -7.17371
-0.281247 -7.25181 -7.25181
-0.149482 -7.25368 -7.25368
-0.148122 -7.17557 -7.17557
-0.280409 -7.21274 -7.21274
-0.215358 -7.25272 -7.25272
-0.148801 -7.2146 -7.2146
-0.213839 -7.17462 -7.17462
-0.214598 -7.21365 -7.21365
-0.281247 -7.25181 -7.25181
-0.28292 -7.33009 -7.33009
-0.150844 -7.33197 -7.33197
-0.149482 -7.25368 -7.25368
-0.282084 -7.29093 -7.29093
-0.216876 -7.33101 -7.33101
-0.150163 -7.2928 -7.2928
-0.215358 -7.25272 -7.25272
-0.216117 -7.29184 -7.29184
-0.28292 -7.33009 -7.33009
-0.284588 -7.40856 -7.40856
-0.152208 -7.41045 -7.41045
-0.150844 -7.33197 -7.33197
-0.283755 -7.3693 -7.3693
-0.218392 -7.40948 -7.40948
-0.151526 -7.37119 -7.37119
-0.216876 -7.33101 -7.33101
-0.217634 -7.37023 -7.37023
-0.284588 -7.40856 -7.40856
-0.286251 -7.4872 -7.4872
-0.153574 -7.4891 -7.4891
-0.152208 -7.41045 -7.41045
-0.28542 -7.44785 -7.44785
-0.219906 -7.48813 -7.48813
-0.152891 -7.44975 -7.44975
-0.218392 -7.40948 -7.40948
-0.219149 -7.44879 -7.44879
-0.286251 -7.4872 -7.4872
-0.287909 -7.56601 -7.56601
-0.154942 -7.56793 -7.56793
-0.153574 -7.4891 -7.4891
-0.28708 -7.52658 -7.52658
-0.221419 -7.56696 -7.56696
-0.154258 -7.5285 -7.5285
-0.219906 -7.48813 -7.48813
-0.220663 -7.52752 -7.52752
-0.287909 -7.56601 -7.56601
-0.289561 -7.645 -7.645
-0.156312 -7.64693 -7.64693
-0.154942 -7.56793 -7.56793
-0.288735 -7.60549 -7.60549
-0.22293 -7.64595 -7.64595
-0.155627 -7.60741 -7.60741
-0.221419 -7.56696 -7.56696
-0.222175 -7.60643 -7.60643
-0.289561 -7.645 -7.645
-0.291207 -7.72415 -7.72415
-0.157683 -7.7261 -7.7261
-0.156312 -7.64693 -7.64693
-0.290384 -7.68456 -7.68456
-0.224439 -7.72511 -7.72511
-0.156997 -7.68649 -7.68649
-0.22293 -7.64595 -7.64595
-0.223685 -7.68551 -7.68551
-0.291207 -7.72415 -7.72415
-0.292848 -7.80347 -7.80347
-0.159056 -7.80542 -7.80542
-0.157683 -7.7261 -7.7261
-0.292028 -7.76379 -7.76379
-0.225945 -7.80443 -7.80443
-0.158369 -7.76574 -7.76574
-0.224439 -7.72511 -7.72511
-0.225192 -7.76475 -7.76475
-0.292848 -7.80347 -7.80347
-0.294483 -7.88293 -7.88293
-0.16043 -7.8849 -7.8849
-0.159056 -7.80542 -7.80542
-0.293666 -7.84318 -7.84318
-0.22745 -7.8839 -7.8839
-0.159743 -7.84514 -7.84514
-0.225945 -7.80443 -7.80443
-0.226698 -7.84415 -7.84415
-0.294483 -7.88293 -7.88293
-0.296111 -7.96256 -7.96256
-0.161805 -7.96454 -7.96454
-0.16043 -7.8849 -7.8849
-0.295298 -7.92273 -7.92273
-0.228952 -7.96353 -7.96353
-0.161117 -7.9247 -7.9247
-0.22745 -7.8839 -7.8839
-0.228201 -7.9237 -7.9237
-0.296111 -7.96256 -7.96256
-0.297734 -8.04233 -8.04233
-0.163181 -8.04432 -8.04432
-0.161805 -7.96454 -7.96454
-0.296924 -8.00242 -8.00242
-0.230451 -8.04331 -8.04331
-0.162493 -8.00441 -8.00441
-0.228952 -7.96353 -7.96353
-0.229702 -8.0034 -8.0034
-0.297734 -8.04233 -8.04233
-0.299351 -8.12224 -8.12224
-0.164559 -8.12425 -8.12425
-0.163181 -8.04432 -8.04432
-0.298543 -8.08227 -8.08227
-0.231948 -8.12323 -8.12323
-0.16387 -8.08426 -8.08426
-0.230451 -8.04331 -8.04331
-0.2312 -8.08325 -8.08325
-0.299351 -8.12224 -8.12224
-0.300961 -8.2023 -8.2023
-0.165937 -8.20431 -8.20431
-0.164559 -8.12425 -8.12425
-0.300157 -8.16225 -8.16225
-0.233443 -8.20329 -8.20329
-0.165247 -8.16426 -8.16426
-0.231948 -8.12323 -8.12323
-0.232696 -8.16324 -8.16324
-0.300961 -8.2023 -8.2023
-0.302565 -8.28249 -8.28249
-0.167315 -8.28451 -8.28451
-0.165937 -8.20431 -8.20431
-0.301764 -8.24238 -8.24238
-0.234934 -8.28349 -8.28349
-0.166626 -8.2444 -8.2444
-0.233443 -8.20329 -8.20329
-0.234189 -8.24337 -8.24337
-0.302565 -8.28249 -8.28249
-0.304162 -8.36281 -8.36281
-0.168695 -8.36485 -8.36485
-0.167315 -8.28451 -8.28451
-0.303365 -8.32264 -8.32264
-0.236422 -8.36382 -8.36382
-0.168005 -8.32466 -8.32466
-0.234934 -8.28349 -8.28349
-0.235678 -8.32364 -8.32364
-0.304162 -8.36281 -8.36281
-0.305753 -8.44326 -8.44326
-0.170074 -8.44531 -8.44531
-0.168695 -8.36485 -8.36485
-0.304958 -8.40302 -8.40302
-0.237907 -8.44427 -8.44427
-0.169384 -8.40506 -8.40506
-0.236422 -8.36382 -8.36382
-0.237165 -8.40403 -8.40403
-0.305753 -8.44326 -8.44326
-0.307337 -8.52384 -8.52384
-0.171454 -8.52589 -8.52589
-0.170074 -8.44531 -8.44531
-0.306546 -8.48354 -8.48354
-0.239389 -8.52485 -8.52485
-0.170764 -8.48558 -8.48558
-0.237907 -8.44427 -8.44427
-0.238649 -8.48455 -8.48455
-0.307337 -8.52384 -8.52384
-0.308913 -8.60453 -8.60453
-0.172835 -8.60659 -8.60659
-0.171454 -8.52589 -8.52589
-0.308126 -8.56417 -8.56417
-0.240868 -8.60555 -8.60555
-0.172144 -8.56623 -8.56623
-0.239389 -8.52485 -8.52485
-0.240129 -8.56519 -8.56519
-0.308913 -8.60453 -8.60453
-0.310483 -8.68534 -8.68534
-0.174215 -8.68741 -8.68741
-0.172835 -8.60659 -8.60659
-0.309699 -8.64492 -8.64492
-0.242343 -8.68636 -8.68636
-0.173525 -8.64699 -8.64699
-0.240868 -8.60555 -8.60555
-0.241606 -8.64594 -8.64594
-0.310483 -8.68534 -8.68534
-0.312045 -8.76625 -8.76625
-0.175595 -8.76834 -8.76834
-0.174215 -8.68741 -8.68741
-0.311265 -8.72578 -8.72578
-0.243814 -8.76728 -8.76728
-0.174905 -8.72786 -8.72786
-0.242343 -8.68636 -8.68636
-0.243079 -8.72681 -8.72681
-0.312045 -8.76625 -8.76625
-0.313601 -8.84728 -8.84728
-0.176975 -8.84937 -8.84937
-0.175595 -8.76834 -8.76834
-0.312824 -8.80675 -8.80675
-0.245282 -8.84831 -8.84831
-0.176285 -8.80884 -8.80884
-0.243814 -8.76728 -8.76728
-0.244548 -8.80779 -8.80779
-0.313601 -8.84728 -8.84728
-0.315148 -8.9284 -8.9284
-0.178355 -8.9305 -8.9305
-0.176975 -8.84937 -8.84937
-0.314375 -8.88783 -8.88783
-0.246745 -8.92944 -8.92944
-0.177665 -8.88992 -8.88992
-0.245282 -8.84831 -8.84831
-0.246014 -8.88887 -8.88887
-0.315148 -8.9284 -8.9284
-0.316688 -9.00963 -9.00963
-0.179734 -9.01174 -9.01174
-0.178355 -8.9305 -8.9305
-0.315919 -8.969 -8.969
-0.248205 -9.01067 -9.01067
-0.179045 -8.97111 -8.97111
-0.246745 -8.92944 -8.92944
-0.247476 -8.97005 -8.97005
-0.316688 -9.00963 -9.00963
-0.31822 -9.09094 -9.09094
-0.181113 -9.09306 -9.09306
-0.179734 -9.01174 -9.01174
-0.317455 -9.05027 -9.05027
-0.24966 -9.09199 -9.09199
-0.180423 -9.05239 -9.05239
-0.248205 -9.01067 -9.01067
-0.248933 -9.05132 -9.05132
-0.31822 -9.09094 -9.09094
-0.319745 -9.17235 -9.17235
-0.182491 -9.17448 -9.17448
-0.181113 -9.09306 -9.09306
-0.318984 -9.13163 -9.13163
-0.251112 -9.1734 -9.1734
-0.181802 -9.13376 -9.13376
-0.24966 -9.09199 -9.09199
-0.250387 -9.13269 -9.13269
-0.319745 -9.17235 -9.17235
-0.321261 -9.25384 -9.25384
-0.183868 -9.25597 -9.25597
-0.182491 -9.17448 -9.17448
-0.320504 -9.21308 -9.21308
-0.252558 -9.2549 -9.2549
-0.183179 -9.21521 -9.21521
-0.251112 -9.1734 -9.1734
-0.251835 -9.21414 -9.21414
-0.321261 -9.25384 -9.25384
-0.322769 -9.33541 -9.33541
-0.185244 -9.33755 -9.33755
-0.183868 -9.25597 -9.25597
-0.322016 -9.29462 -9.29462
-0.254 -9.33647 -9.33647
-0.184556 -9.29675 -9.29675
-0.252558 -9.2549 -9.2549
-0.25328 -9.29568 -9.29568
-0.322769 -9.33541 -9.33541
-0.324269 -9.41706 -9.41706
-0.186619 -9.41921 -9.41921
-0.185244 -9.33755 -9.33755
-0.32352 -9.37623 -9.37623
-0.255438 -9.41813 -9.41813
-0.185931 -9.37837 -9.37837
-0.254 -9.33647 -9.33647
-0.25472 -9.37729 -9.37729
-0.324269 -9.41706 -9.41706
-0.325761 -9.49878 -9.49878
-0.187992 -9.50094 -9.50094
-0.186619 -9.41921 -9.41921
-0.325016 -9.45791 -9.45791
-0.25687 -9.49985 -9.49985
-0.187306 -9.46007 -9.46007
-0.255438 -9.41813 -9.41813
-0.256155 -9.45898 -9.45898
-0.325761 -9.49878 -9.49878
-0.327244 -9.58057 -9.58057
-0.189365 -9.58273 -9.58273
-0.187992 -9.50094 -9.50094
-0.326503 -9.53967 -9.53967
-0.258298 -9.58164 -9.58164
-0.188679 -9.54183 -9.54183
-0.25687 -9.49985 -9.49985
-0.257585 -9.54074 -9.54074
-0.327244 -9.58057 -9.58057
-0.328718 -9.66242 -9.66242
-0.190735 -9.66459 -9.66459
-0.189365 -9.58273 -9.58273
-0.327982 -9.62149 -9.62149
-0.259721 -9.6635 -9.6635
-0.19005 -9.62366 -9.62366
-0.258298 -9.58164 -9.58164
-0.25901 -9.62257 -9.62257
-0.328718 -9.66242 -9.66242
-0.330184 -9.74433 -9.74433
-0.192104 -9.74651 -9.74651
-0.190735 -9.66459 -9.66459
-0.329452 -9.70337 -9.70337
-0.261138 -9.74542 -9.74542
-0.19142 -9.70555 -9.70555
-0.259721 -9.6635 -9.6635
-0.26043 -9.70445 -9.70445
-0.330184 -9.74433 -9.74433
-0.33164 -9.8263 -9.8263
-0.193472 -9.82849 -9.82849
-0.192104 -9.74651 -9.74651
-0.330913 -9.78531 -9.78531
-0.26255 -9.82739 -9.82739
-0.192788 -9.78749 -9.78749
-0.261138 -9.74542 -9.74542
-0.261844 -9.7864 -9.7864
-0.33164 -9.8263 -9.8263
-0.333087 -9.90832 -9.90832
-0.194837 -9.91051 -9.91051
-0.193472 -9.82849 -9.82849
-0.332365 -9.8673 -9.8673
-0.263956 -9.90941 -9.90941
-0.194155 -9.86949 -9.86949
-0.26255 -9.82739 -9.82739
-0.263254 -9.86839 -9.86839
-0.333087 -9.90832 -9.90832
-0.334525 -9.99039 -9.99039
-0.1962 -9.99258 -9.99258
-0.194837 -9.91051 -9.91051
-0.333808 -9.94935 -9.94935
-0.265357 -9.99148 -9.99148
-0.195519 -9.95154 -9.95154
-0.263956 -9.90941 -9.90941
-0.264657 -9.95044 -9.95044
-0.334525 -9.99039 -9.99039
-0.335954 -10.0725 -10.0725
-0.197561 -10.0747 -10.0747
-0.1962 -9.99258 -9.99258
-0.335241 -10.0314 -10.0314
-0.266751 -10.0736 -10.0736
-0.196881 -10.0336 -10.0336
-0.265357 -9.99148 -9.99148
-0.266055 -10.0325 -10.0325
-0.335954 -10.0725 -10.0725
-0.337372 -10.1546 -10.1546
-0.198919 -10.1569 -10.1569
-0.197561 -10.0747 -10.0747
-0.336664 -10.1136 -10.1136
-0.268139 -10.1557 -10.1557
-0.19824 -10.1158 -10.1158
-0.266751 -10.0736 -10.0736
-0.267446 -10.1147 -10.1147
-0.337372 -10.1546 -10.1546
-0.33878 -10.2368 -10.2368
-0.200274 -10.239 -10.239
-0.198919 -10.1569 -10.1569
-0.338077 -10.1957 -10.1957
-0.26952 -10.2379 -10.2379
-0.199597 -10.1979 -10.1979
-0.268139 -10.1557 -10.1557
-0.268831 -10.1968 -10.1968
-0.33878 -10.2368 -10.2368
-0.340176 -10.319 -10.319
-0.201626 -10.3213 -10.3213
-0.200274 -10.239 -10.239
-0.339479 -10.2779 -10.2779
-0.270894 -10.3201 -10.3201
-0.200951 -10.2801 -10.2801
-0.26952 -10.2379 -10.2379
-0.270208 -10.279 -10.279
-0.340176 -10.319 -10.319
-0.34156 -10.4013 -10.4013
-0.202974 -10.4035 -10.4035
-0.201626 -10.3213 -10.3213
-0.34087 -10.3602 -10.3602
-0.272259 -10.4024 -10.4024
-0.202301 -10.3624 -10.3624
-0.270894 -10.3201 -10.3201
-0.271578 -10.3613 -10.3613
-0.34156 -10.4013 -10.4013
-0.34293 -10.4835 -10.4835
-0.204318 -10.4858 -10.4858
-0.202974 -10.4035 -10.4035
-0.342247 -10.4424 -10.4424
-0.273615 -10.4847 -10.4847
-0.203647 -10.4446 -10.4446
-0.272259 -10.4024 -10.4024
-0.272938 -10.4435 -10.4435
-0.34293 -10.4835 -10.4835
-0.344287 -10.5658 -10.5658
-0.205658 -10.5681 -10.5681
-0.204318 -10.4858 -10.4858
-0.343611 -10.5247 -10.5247
-0.274963 -10.5669 -10.5669
-0.204989 -10.5269 -10.5269
-0.273615 -10.4847 -10.4847
-0.27429 -10.5258 -10.5258
-0.344287 -10.5658 -10.5658
-0.345633 -10.6481 -10.6481
-0.206996 -10.6503 -10.6503
-0.205658 -10.5681 -10.5681
-0.344961 -10.607 -10.607
-0.276305 -10.6492 -10.6492
-0.206327 -10.6092 -10.6092
-0.274963 -10.5669 -10.5669
-0.275634 -10.6081 -10.6081
-0.345633 -10.6481 -10.6481
-0.346977 -10.7304 -10.7304
-0.208332 -10.7326 -10.7326
-0.206996 -10.6503 -10.6503
-0.346304 -10.6893 -10.6893
-0.277646 -10.7315 -10.7315
-0.207664 -10.6915 -10.6915
-0.276305 -10.6492 -10.6492
-0.276975 -10.6904 -10.6904
-0.346977 -10.7304 -10.7304
-0.348327 -10.8127 -10.8127
-0.209671 -10.8148 -10.8148
-0.208332 -10.7326 -10.7326
-0.347651 -10.7716 -10.7716
-0.27899 -10.8137 -10.8137
-0.209001 -10.7737 -10.7737
-0.277646 -10.7315 -10.7315
-0.278318 -10.7726 -10.7726
0 0 0
-0.000617885 0.000100245 0.000100245
0.000608955 9.84212e-05 9.84212e-05
0 0 0
-0.000307627 0.000200901 0.000200901
-4.4857e-06 0.000135841 0.000135841
0.000303032 0.000199877 0.000199877
0 0 0
-2.31897e-06 0.000215883 0.000215883
-0.000617885 0.000100245 0.000100245
-0.00128638 -0.000942131 -0.000942131
0.00126888 -0.000945597 -0.000945597
0.000608955 9.84212e-05 9.84212e-05
-0.000945931 -0.000287176 -0.000287176
-8.76303e-06 -0.000883739 -0.000883739
0.000932738 -0.000289797 -0.000289797
-4.4857e-06 0.000135841 0.000135841
-6.61501e-06 -0.000237849 -0.000237849
-0.00128638 -0.000942131 -0.000942131
-0.001979 -0.00298676 -0.00298676
0.00195233 -0.00299209 -0.00299209
0.00126888 -0.000945597 -0.000945597
-0.00163079 -0.00184596 -0.00184596
-1.32964e-05 -0.00291174 -0.00291174
0.00160882 -0.00185033 -0.00185033
-8.76303e-06 -0.000883739 -0.000883739
-1.09731e-05 -0.00177866 -0.00177866
-0.001979 -0.00298676 -0.00298676
-0.00268713 -0.00594227 -0.00594227
0.00265005 -0.00594976 -0.00594976
0.00195233 -0.00299209 -0.00299209
-0.002332 -0.00435477 -0.00435477
-1.84625e-05 -0.00586003 -0.00586003
0.00230032 -0.00436114 -0.00436114
-1.32964e-05 -0.00291174 -0.00291174
-1.57818e-05 -0.00427504 -0.00427504
-0.00268713 -0.00594227 -0.00594227
-0.00339501 -0.00975223 -0.00975223
0.0033457 -0.00976218 -0.00976218
0.00265005 -0.00594976 -0.00594976
-0.00304151 -0.00774269 -0.00774269
-2.45386e-05 -0.00966798 -0.00966798
0.00299858 -0.00775138 -0.00775138
-1.84625e-05 -0.00586003 -0.00586003
-2.1369e-05 -0.00765899 -0.00765899
-0.00339501 -0.00975223 -0.00975223
-0.00409981 -0.0143878 -0.0143878
0.00403588 -0.0144005 -0.0144005
0.0033457 -0.00976218 -0.00976218
-0.00374796 -0.011968 -0.011968
-3.18174e-05 -0.014305 -0.014305
0.00369168 -0.0119793 -0.0119793
-2.45386e-05 -0.00966798 -0.00966798
-2.80097e-05 -0.0118841 -0.0118841
-0.00409981 -0.0143878 -0.0143878
-0.00479866 -0.0198339 -0.0198339
0.00471715 -0.0198497 -0.0198497
0.00403588 -0.0144005 -0.0144005
-0.00444996 -0.0170101 -0.0170101
-4.05837e-05 -0.0197535 -0.0197535
0.00437765 -0.0170243 -0.0170243
-3.18174e-05 -0.014305 -0.014305
-3.59967e-05 -0.0169284 -0.0169284
-0.00479866 -0.0198339 -0.0198339
-0.00549287 -0.026083 -0.026083
0.00539021 -0.0261021 -0.0261021
0.00471715 -0.0198497 -0.0198497
-0.00514628 -0.0228584 -0.0228584
-5.11234e-05 -0.0260054 -0.0260054
0.00505467 -0.0228758 -0.0228758
-4.05837e-05 -0.0197535 -0.0197535
-4.56147e-05 -0.0227794 -0.0227794
-0.00549287 -0.026083 -0.026083
-0.00618314 -0.0331303 -0.0331303
0.00605525 -0.0331531 -0.0331531
0.00539021 -0.0261021 -0.0261021
-0.00583843 -0.0295071 -0.0295071
-6.37064e-05 -0.0330556 -0.0330556
0.0057237 -0.029528 -0.029528
-5.11234e-05 -0.0260054 -0.0260054
-5.71431e-05 -0.029431 -0.029431
-0.00618314 -0.0331303 -0.0331303
-0.00687073 -0.0409721 -0.0409721
0.00671301 -0.0409989 -0.0409989
0.00605525 -0.0331531 -0.0331531
-0.00652722 -0.0369521 -0.0369521
-7.859e-05 -0.0409002 -0.0409002
0.00638502 -0.0369769 -0.0369769
-6.37064e-05 -0.0330556 -0.0330556
-7.08451e-05 -0.0368788 -0.0368788
-0.00687073 -0.0409721 -0.0409721
-0.00755638 -0.0496047 -0.0496047
0.00736374 -0.0496359 -0.0496359
0.00671301 -0.0409989 -0.0409989
-0.00721376 -0.0451898 -0.0451898
-9.60182e-05 -0.0495357 -0.0495357
0.00703924 -0.0452187 -0.0452187
-7.859e-05 -0.0409002 -0.0409002
-8.69712e-05 -0.0451193 -0.0451193
-0.00755638 -0.0496047 -0.0496047
-0.00824076 -0.0590245 -0.0590245
0.00800764 -0.0590605 -0.0590605
0.00736374 -0.0496359 -0.0496359
-0.0078987 -0.0542165 -0.0542165
-0.000116225 -0.0589585 -0.0589585
0.00768654 -0.05425 -0.05425
-9.60182e-05 -0.0495357 -0.0495357
-0.00010576 -0.054149 -0.054149
-0.00824076 -0.0590245 -0.0590245
-0.00892429 -0.0692275 -0.0692275
0.0086447 -0.0692687 -0.0692687
0.00800764 -0.0590605 -0.0590605
-0.00858261 -0.0640284 -0.0640284
-0.000139437 -0.0691647 -0.0691647
0.00832703 -0.0640669 -0.0640669
-0.000116225 -0.0589585 -0.0589585
-0.000127442 -0.0639639 -0.0639639
-0.00892429 -0.0692275 -0.0692275
-0.00960735 -0.0802098 -0.0802098
0.00927482 -0.0802565 -0.0802565
0.0086447 -0.0692687 -0.0692687
-0.00926586 -0.0746215 -0.0746215
-0.000165876 -0.0801502 -0.0801502
0.00896063 -0.0746654 -0.0746654
-0.000139437 -0.0691647 -0.0691647
-0.00015224 -0.0745603 -0.0745603
-0.00960735 -0.0802098 -0.0802098
-0.0102902 -0.0919672 -0.0919672
0.00989787 -0.0920198 -0.0920198
0.00927482 -0.0802565 -0.0802565
-0.00994879 -0.0859919 -0.0859919
-0.000195757 -0.091911 -0.091911
0.00958724 -0.0860414 -0.0860414
-0.000165876 -0.0801502 -0.0801502
-0.000180373 -0.085934 -0.085934
-0.0102902 -0.0919672 -0.0919672
-0.0109731 -0.104496 -0.104496
0.0105137 -0.104554 -0.104554
0.00989787 -0.0920198 -0.0920198
-0.0106316 -0.0981353 -0.0981353
-0.000229293 -0.104443 -0.104443
0.0102067 -0.0981909 -0.0981909
-0.000195757 -0.091911 -0.091911
-0.000212055 -0.0980809 -0.0980809
-0.0109731 -0.104496 -0.104496
-0.0116563 -0.117791 -0.117791
0.011122 -0.117856 -0.117856
0.0105137 -0.104554 -0.104554
-0.0113147 -0.111048 -0.111048
-0.000266694 -0.117742 -0.117742
0.0108188 -0.11111 -0.11111
-0.000229293 -0.104443 -0.104443
-0.000247497 -0.110997 -0.110997
-0.0116563 -0.117791 -0.117791
-0.01234 -0.131848 -0.131848
0.0117227 -0.131921 -0.131921
0.011122 -0.117856 -0.117856
-0.0119981 -0.124725 -0.124725
-0.000308165 -0.131804 -0.131804
0.0114233 -0.124793 -0.124793
-0.000266694 -0.117742 -0.117742
-0.000286908 -0.124678 -0.124678
-0.01234 -0.131848 -0.131848
-0.0130243 -0.146665 -0.146665
0.0123155 -0.146744 -0.146744
0.0117227 -0.131921 -0.131921
-0.012682 -0.139162 -0.139162
-0.00035391 -0.146624 -0.146624
0.0120201 -0.139238 -0.139238
-0.000308165 -0.131804 -0.131804
-0.000330491 -0.139119 -0.139119
-0.0130243 -0.146665 -0.146665
-0.0137096 -0.162235 -0.162235
0.0129003 -0.162322 -0.162322
0.0123155 -0.146744 -0.146744
-0.0133668 -0.154356 -0.154356
-0.000404128 -0.162198 -0.162198
0.0126089 -0.154439 -0.154439
-0.00035391 -0.146624 -0.146624
-0.000378448 -0.154317 -0.154317
-0.0137096 -0.162235 -0.162235
-0.0143959 -0.178555 -0.178555
0.0134768 -0.17865 -0.17865
0.0129003 -0.162322 -0.162322
-0.0140526 -0.170301 -0.170301
-0.000459015 -0.178522 -0.178522
0.0131896 -0.170392 -0.170392
-0.000404128 -0.162198 -0.162198
-0.000430976 -0.170267 -0.170267
-0.0143959 -0.178555 -0.178555
-0.0150836 -0.19562 -0.19562
0.0140449 -0.195724 -0.195724
0.0134768 -0.17865 -0.17865
-0.0147396 -0.186994 -0.186994
-0.000518765 -0.195593 -0.195593
0.0137619 -0.187094 -0.187094
-0.000459015 -0.178522 -0.178522
-0.00048827 -0.186965 -0.186965
-0.0150836 -0.19562 -0.19562
-0.0157726 -0.213427 -0.213427
0.0146043 -0.213539 -0.213539
0.0140449 -0.195724 -0.195724
-0.0154279 -0.204431 -0.204431
-0.000583565 -0.213404 -0.213404
0.0143257 -0.204539 -0.204539
-0.000518765 -0.195593 -0.195593
-0.000550522 -0.204406 -0.204406
-0.0157726 -0.213427 -0.213427
-0.0164634 -0.231971 -0.231971
0.015155 -0.232092 -0.232092
0.0146043 -0.213539 -0.213539
-0.0161178 -0.222607 -0.222607
-0.000653603 -0.231953 -0.231953
0.0148808 -0.222724 -0.222724
-0.000583565 -0.213404 -0.213404
-0.000617918 -0.222587 -0.222587
-0.0164634 -0.231971 -0.231971
-0.017156 -0.251248 -0.251248
0.0156966 -0.251379 -0.251379
0.015155 -0.232092 -0.232092
-0.0168095 -0.241518 -0.241518
-0.000729059 -0.251235 -0.251235
0.0154269 -0.241644 -0.241644
-0.000653603 -0.231953 -0.231953
-0.000690643 -0.241503 -0.241503
-0.017156 -0.251248 -0.251248
-0.0178506 -0.271254 -0.271254
0.0162291 -0.271394 -0.271394
0.0156966 -0.251379 -0.251379
-0.017503 -0.26116 -0.26116
-0.000810114 -0.271246 -0.271246
0.015964 -0.261295 -0.261295
-0.000729059 -0.251235 -0.251235
-0.000768876 -0.26115 -0.26115
-0.0178506 -0.271254 -0.271254
-0.0185474 -0.291984 -0.291984
0.0167522 -0.292134 -0.292134
0.0162291 -0.271394 -0.271394
-0.0181987 -0.281529 -0.281529
-0.00089694 -0.291982 -0.291982
0.0164918 -0.281673 -0.281673
-0.000810114 -0.271246 -0.271246
-0.000852794 -0.281524 -0.281524
-0.0185474 -0.291984 -0.291984
-0.0192466 -0.313434 -0.313434
0.0172658 -0.313594 -0.313594
0.0167522 -0.292134 -0.292134
-0.0188967 -0.302619 -0.302619
-0.00098971 -0.313438 -0.313438
0.0170102 -0.302774 -0.302774
-0.00089694 -0.291982 -0.291982
-0.000942572 -0.30262 -0.30262
-0.0192466 -0.313434 -0.313434
-0.0199483 -0.3356 -0.3356
0.0177697 -0.335771 -0.335771
0.0172658 -0.313594 -0.313594
-0.0195971 -0.324428 -0.324428
-0.00108859 -0.335609 -0.335609
0.017519 -0.324593 -0.324593
-0.00098971 -0.313438 -0.313438
-0.00103838 -0.324434 -0.324434
-0.0199483 -0.3356 -0.3356
-0.0206527 -0.358478 -0.358478
0.0182637 -0.358659 -0.358659
0.0177697 -0.335771 -0.335771
-0.0203001 -0.346951 -0.346951
-0.00119375 -0.358493 -0.358493
0.018018 -0.347126 -0.347126
-0.00108859 -0.335609 -0.335609
-0.00114038 -0.346963 -0.346963
-0.0206527 -0.358478 -0.358478
-0.0213599 -0.382064 -0.382064
0.0187478 -0.382256 -0.382256
0.0182637 -0.358659 -0.358659
-0.0210059 -0.370183 -0.370183
-0.00130534 -0.382085 -0.382085
0.018507 -0.370369 -0.370369
-0.00119375 -0.358493 -0.358493
-0.00124873 -0.370201 -0.370201
-0.0213599 -0.382064 -0.382064
-0.0220702 -0.406352 -0.406352
0.0192216 -0.406556 -0.406556
0.0187478 -0.382256 -0.382256
-0.0217147 -0.39412 -0.39412
-0.00142353 -0.406379 -0.406379
0.018986 -0.394318 -0.394318
-0.00130534 -0.382085 -0.382085
-0.0013636 -0.394144 -0.394144
-0.0220702 -0.406352 -0.406352
-0.0227836 -0.43134 -0.43134
0.0196852 -0.431555 -0.431555
0.0192216 -0.406556 -0.406556
-0.0224265 -0.418759 -0.418759
-0.00154846 -0.431373 -0.431373
0.0194547 -0.418968 -0.418968
-0.00142353 -0.406379 -0.406379
-0.00148514 -0.418789 -0.418789
-0.0227836 -0.43134 -0.43134
-0.0235004 -0.457023 -0.457023
0.0201382 -0.457249 -0.457249
0.0196852 -0.431555 -0.431555
-0.0231416 -0.444095 -0.444095
-0.00168029 -0.457062 -0.457062
0.019913 -0.444315 -0.444315
-0.00154846 -0.431373 -0.431373
-0.0016135 -0.444131 -0.444131
-0.0235004 -0.457023 -0.457023
-0.0242206 -0.483396 -0.483396
0.0205806 -0.483634 -0.483634
0.0201382 -0.457249 -0.457249
-0.02386 -0.470123 -0.470123
-0.00181916 -0.483441 -0.483441
0.0203608 -0.470355 -0.470355
-0.00168029 -0.457062 -0.457062
-0.00174884 -0.470165 -0.470165
-0.0242206 -0.483396 -0.483396
-0.0249444 -0.510455 -0.510455
0.0210123 -0.510705 -0.510705
0.0205806 -0.483634 -0.483634
-0.024582 -0.49684 -0.49684
-0.00196522 -0.510507 -0.510507
0.0207978 -0.497084 -0.497084
-0.00181916 -0.483441 -0.483441
-0.00189128 -0.496889 -0.496889
-0.0249444 -0.510455 -0.510455
-0.0256719 -0.538196 -0.538196
0.0214331 -0.538459 -0.538459
0.0210123 -0.510705 -0.510705
-0.0253077 -0.52424 -0.52424
-0.0021186 -0.538255 -0.538255
0.0212241 -0.524497 -0.524497
-0.00196522 -0.510507 -0.510507
-0.00204098 -0.524296 -0.524296
-0.0256719 -0.538196 -0.538196
-0.0264034 -0.566615 -0.566615
0.0218428 -0.566891 -0.566891
0.0214331 -0.538459 -0.538459
-0.0260371 -0.552321 -0.552321
-0.00227944 -0.566681 -0.566681
0.0216393 -0.55259 -0.55259
-0.0021186 -0.538255 -0.538255
-0.00219808 -0.552384 -0.552384
-0.0264034 -0.566615 -0.566615
-0.0271388 -0.595708 -0.595708
0.0222413 -0.595996 -0.595996
0.0218428 -0.566891 -0.566891
-0.0267706 -0.581078 -0.581078
-0.00244788 -0.595781 -0.595781
0.0220435 -0.58136 -0.58136
-0.00227944 -0.566681 -0.566681
-0.00236271 -0.581147 -0.581147
-0.0271388 -0.595708 -0.595708
-0.0278784 -0.62547 -0.62547
0.0226286 -0.625772 -0.625772
0.0222413 -0.595996 -0.595996
-0.0275081 -0.610506 -0.610506
-0.00262405 -0.62555 -0.62555
0.0224364 -0.610801 -0.610801
-0.00244788 -0.595781 -0.595781
-0.00253499 -0.610582 -0.610582
-0.0278784 -0.62547 -0.62547
-0.0286223 -0.655897 -0.655897
0.0230044 -0.656212 -0.656212
0.0226286 -0.625772 -0.625772
-0.0282498 -0.640601 -0.640601
-0.00280806 -0.655984 -0.655984
0.0228179 -0.640909 -0.640909
-0.00262405 -0.62555 -0.62555
-0.00271506 -0.640684 -0.640684
-0.0286223 -0.655897 -0.655897
-0.0293705 -0.686985 -0.686985
0.0233687 -0.687314 -0.687314
0.0230044 -0.656212 -0.656212
-0.0289958 -0.671359 -0.671359
-0.00300004 -0.687079 -0.687079
0.023188 -0.67168 -0.67168
-0.00280806 -0.655984 -0.655984
-0.00290305 -0.671449 -0.671449
-0.0293705 -0.686985 -0.686985
-0.0301233 -0.71873 -0.71873
0.0237213 -0.719072 -0.719072
0.0233687 -0.687314 -0.687314
-0.0297463 -0.702776 -0.702776
-0.00320012 -0.718831 -0.718831
0.0235464 -0.703111 -0.703111
-0.00300004 -0.687079 -0.687079
-0.00309906 -0.702873 -0.702873
-0.0301233 -0.71873 -0.71873
-0.0308807 -0.751127 -0.751127
0.0240621 -0.751483 -0.751483
0.0237213 -0.719072 -0.719072
-0.0305014 -0.734847 -0.734847
-0.0034084 -0.751236 -0.751236
0.0238931 -0.735196 -0.735196
-0.00320012 -0.718831 -0.718831
-0.00330323 -0.734952 -0.734952
-0.0308807 -0.751127 -0.751127
-0.0316428 -0.784172 -0.784172
0.024391 -0.784542 -0.784542
0.0240621 -0.751483 -0.751483
-0.0312612 -0.767569 -0.767569
-0.00362501 -0.784288 -0.784288
0.024228 -0.767932 -0.767932
-0.0034084 -0.751236 -0.751236
-0.00351566 -0.767681 -0.767681
-0.0316428 -0.784172 -0.784172
-0.0324098 -0.817861 -0.817861
0.0247079 -0.818246 -0.818246
0.024391 -0.784542 -0.784542
-0.0320257 -0.800937 -0.800937
-0.00385004 -0.817985 -0.817985
0.0245509 -0.801314 -0.801314
-0.00362501 -0.784288 -0.784288
-0.00373646 -0.801056 -0.801056
-0.0324098 -0.817861 -0.817861
-0.0331817 -0.85219 -0.85219
0.0250126 -0.852589 -0.852589
0.0247079 -0.818246 -0.818246
-0.0327952 -0.834946 -0.834946
-0.00408361 -0.852322 -0.852322
0.0248618 -0.835338 -0.835338
-0.00385004 -0.817985 -0.817985
-0.00396575 -0.835074 -0.835074
-0.0331817 -0.85219 -0.85219
-0.0339587 -0.887154 -0.887154
0.0253052 -0.887568 -0.887568
0.0250126 -0.852589 -0.852589
-0.0335696 -0.869593 -0.869593
-0.00432582 -0.887294 -0.887294
0.0251604 -0.869999 -0.869999
-0.00408361 -0.852322 -0.852322
-0.00420363 -0.869728 -0.869728
-0.0339587 -0.887154 -0.887154
-0.0347409 -0.92275 -0.92275
0.0255854 -0.923178 -0.923178
0.0253052 -0.887568 -0.887568
-0.0343492 -0.904873 -0.904873
-0.00457677 -0.922897 -0.922897
0.0254469 -0.905294 -0.905294
-0.00432582 -0.887294 -0.887294
-0.0044502 -0.905017 -0.905017
-0.0347409 -0.92275 -0.92275
-0.0355283 -0.958972 -0.958972
0.0258533 -0.959415 -0.959415
0.0255854 -0.923178 -0.923178
-0.035134 -0.940783 -0.940783
-0.00483656 -0.959127 -0.959127
0.0257209 -0.941219 -0.941219
-0.00457677 -0.922897 -0.922897
-0.00470555 -0.940934 -0.940934
-0.0355283 -0.958972 -0.958972
-0.0363211 -0.995817 -0.995817
0.0261086 -0.996276 -0.996276
0.0258533 -0.959415 -0.959415
-0.035924 -0.977317 -0.977317
-0.00510527 -0.99598 -0.99598
0.0259825 -0.977768 -0.977768
-0.00483656 -0.959127 -0.959127
-0.00496979 -0.977476 -0.977476
-0.0363211 -0.995817 -0.995817
-0.0371193 -1.03328 -1.03328
0.0263513 -1.03375 -1.03375
0.0261086 -0.996276 -0.996276
-0.0367195 -1.01447 -1.01447
-0.00538301 -1.03345 -1.03345
0.0262315 -1.01494 -1.01494
-0.00510527 -0.99598 -0.99598
-0.00524301 -1.01464 -1.01464
-0.0371193 -1.03328 -1.03328
-0.037923 -1.07136 -1.07136
0.0265813 -1.07185 -1.07185
0.0263513 -1.03375 -1.03375
-0.0375205 -1.05224 -1.05224
-0.00566986 -1.07154 -1.07154
0.0264679 -1.05272 -1.05272
-0.00538301 -1.03345 -1.03345
-0.00552529 -1.05242 -1.05242
-0.037923 -1.07136 -1.07136
-0.0387324 -1.11005 -1.11005
0.0267986 -1.11055 -1.11055
0.0265813 -1.07185 -1.07185
-0.038327 -1.09063 -1.09063
-0.00596589 -1.11023 -1.11023
0.0266915 -1.09112 -1.09112
-0.00566986 -1.07154 -1.07154
-0.00581672 -1.09081 -1.09081
-0.0387324 -1.11005 -1.11005
-0.0395474 -1.14934 -1.14934
0.027003 -1.14986 -1.14986
0.0267986 -1.11055 -1.11055
-0.0391392 -1.12962 -1.12962
-0.0062712 -1.14954 -1.14954
0.0269024 -1.13013 -1.13013
-0.00596589 -1.11023 -1.11023
-0.00611738 -1.12981 -1.12981
-0.0395474 -1.14934 -1.14934
-0.0403682 -1.18924 -1.18924
0.0271944 -1.18977 -1.18977
0.027003 -1.14986 -1.14986
-0.0399571 -1.16921 -1.16921
-0.00658587 -1.18944 -1.18944
0.0271003 -1.16974 -1.16974
-0.0062712 -1.14954 -1.14954
-0.00642736 -1.16941 -1.16941
-0.0403682 -1.18924 -1.18924
-0.0411949 -1.22973 -1.22973
0.0273729 -1.23028 -1.23028
0.0271944 -1.18977 -1.18977
-0.0407808 -1.20941 -1.20941
-0.00690996 -1.22994 -1.22994
0.0272853 -1.20995 -1.20995
-0.00658587 -1.18944 -1.18944
-0.00674673 -1.20962 -1.20962
-0.0411949 -1.22973 -1.22973
-0.0420275 -1.27081 -1.27081
0.0275383 -1.27138 -1.27138
0.0273729 -1.23028 -1.23028
-0.0416104 -1.2502 -1.2502
-0.00724355 -1.27104 -1.27104
0.0274572 -1.25076 -1.25076
-0.00690996 -1.22994 -1.22994
-0.00707556 -1.25041 -1.25041
-0.0420275 -1.27081 -1.27081
-0.042866 -1.31249 -1.31249
0.0276905 -1.31307 -1.31307
0.0275383 -1.27138 -1.27138
-0.042446 -1.29158 -1.29158
-0.0075867 -1.31272 -1.31272
0.027616 -1.29215 -1.29215
-0.00724355 -1.27104 -1.27104
-0.00741392 -1.2918 -1.2918
-0.042866 -1.31249 -1.31249
-0.0437106 -1.35475 -1.35475
0.0278295 -1.35535 -1.35535
0.0276905 -1.31307 -1.31307
-0.0432876 -1.33355 -1.33355
-0.0079395 -1.35499 -1.35499
0.0277617 -1.33414 -1.33414
-0.0075867 -1.31272 -1.31272
-0.00776189 -1.33378 -1.33378
-0.0437106 -1.35475 -1.35475
-0.0445614 -1.39759 -1.39759
0.0279553 -1.3982 -1.3982
0.0278295 -1.35535 -1.35535
-0.0441352 -1.3761 -1.3761
-0.00830199 -1.39783 -1.39783
0.0278941 -1.3767 -1.3767
-0.0079395 -1.35499 -1.35499
-0.00811952 -1.37634 -1.37634
-0.0445614 -1.39759 -1.39759
-0.0454183 -1.441 -1.441
0.0280677 -1.44164 -1.44164
0.0279553 -1.3982 -1.3982
-0.0449891 -1.41922 -1.41922
-0.00867424 -1.44126 -1.44126
0.0280132 -1.41985 -1.41985
-0.00830199 -1.39783 -1.39783
-0.00848689 -1.41947 -1.41947
-0.0454183 -1.441 -1.441
-0.0462815 -1.48499 -1.48499
0.0281667 -1.48564 -1.48564
0.0280677 -1.44164 -1.44164
-0.0458491 -1.46293 -1.46293
-0.0090563 -1.48525 -1.48525
0.0281189 -1.46357 -1.46357
-0.00867424 -1.44126 -1.44126
-0.00886404 -1.46318 -1.46318
-0.0462815 -1.48499 -1.48499
-0.0471509 -1.52955 -1.52955
0.0282523 -1.53021 -1.53021
0.0281667 -1.48564 -1.48564
-0.0467154 -1.5072 -1.5072
-0.00944824 -1.52982 -1.52982
0.0282112 -1.50785 -1.50785
-0.0090563 -1.48525 -1.48525
-0.00925103 -1.50747 -1.50747
-0.0471509 -1.52955 -1.52955
-0.0480267 -1.57466 -1.57466
0.0283243 -1.57535 -1.57535
0.0282523 -1.53021 -1.53021
-0.047588 -1.55203 -1.55203
-0.0098501 -1.57495 -1.57495
0.02829 -1.55271 -1.55271
-0.00944824 -1.52982 -1.52982
-0.00964792 -1.55231 -1.55231
-0.0480267 -1.57466 -1.57466
-0.0489089 -1.62034 -1.62034
0.0283828 -1.62104 -1.62104
0.0283243 -1.57535 -1.57535
-0.048467 -1.59743 -1.59743
-0.0102619 -1.62063 -1.62063
0.0283553 -1.59812 -1.59812
-0.0098501 -1.57495 -1.57495
-0.0100548 -1.59772 -1.59772
-0.0489089 -1.62034 -1.62034
-0.0497975 -1.66657 -1.66657
0.0284277 -1.66729 -1.66729
0.0283828 -1.62104 -1.62104
-0.0493524 -1.64339 -1.64339
-0.0106838 -1.66687 -1.66687
0.028407 -1.6441 -1.6441
-0.0102619 -1.62063 -1.62063
-0.0104716 -1.64368 -1.64368
-0.0497975 -1.66657 -1.66657
-0.0506926 -1.71336 -1.71336
0.028459 -1.71409 -1.71409
0.0284277 -1.66729 -1.66729
-0.0502442 -1.6899 -1.6899
-0.0111157 -1.71367 -1.71367
0.0284451 -1.69062 -1.69062
-0.0106838 -1.66687 -1.66687
-0.0108985 -1.6902 -1.6902
-0.0506926 -1.71336 -1.71336
-0.0515942 -1.76069 -1.76069
0.0284766 -1.76144 -1.76144
0.028459 -1.71409 -1.71409
-0.0511426 -1.73695 -1.73695
-0.0115577 -1.761 -1.761
0.0284695 -1.7377 -1.7377
-0.0111157 -1.71367 -1.71367
-0.0113354 -1.73727 -1.73727
-0.0515942 -1.76069 -1.76069
-0.0525024 -1.80856 -1.80856
0.0284805 -1.80933 -1.80933
0.0284766 -1.76144 -1.76144
-0.0520475 -1.78456 -1.78456
-0.0120099 -1.80889 -1.80889
0.0284802 -1.78531 -1.78531
-0.0115577 -1.761 -1.761
-0.0117825 -1.78488 -1.78488
-0.0525024 -1.80856 -1.80856
-0.0534172 -1.85697 -1.85697
0.0284706 -1.85775 -1.85775
0.0284805 -1.80933 -1.80933
-0.052959 -1.8327 -1.8327
-0.0124722 -1.8573 -1.8573
0.0284772 -1.83347 -1.83347
-0.0120099 -1.80889 -1.80889
-0.0122398 -1.83303 -1.83303
-0.0534172 -1.85697 -1.85697
-0.0543386 -1.90591 -1.90591
0.0284469 -1.90671 -1.90671
0.0284706 -1.85775 -1.85775
-0.0538771 -1.88137 -1.88137
-0.0129447 -1.90626 -1.90626
0.0284605 -1.88217 -1.88217
-0.0124722 -1.8573 -1.8573
-0.0127072 -1.88171 -1.88171
-0.0543386 -1.90591 -1.90591
-0.0552667 -1.95539 -1.95539
0.0284094 -1.95621 -1.95621
0.0284469 -1.90671 -1.90671
-0.0548018 -1.93058 -1.93058
-0.0134275 -1.95574 -1.95574
0.0284299 -1.93139 -1.93139
-0.0129447 -1.90626 -1.90626
-0.0131848 -1.93093 -1.93093
-0.0552667 -1.95539 -1.95539
-0.0562014 -2.00538 -2.00538
0.0283581 -2.00622 -2.00622
0.0284094 -1.95621 -1.95621
-0.0557332 -1.98032 -1.98032
-0.0139206 -2.00575 -2.00575
0.0283855 -1.98115 -1.98115
-0.0134275 -1.95574 -1.95574
-0.0136727 -1.98068 -1.98068
-0.0562014 -2.00538 -2.00538
-0.0571429 -2.0559 -2.0559
0.0282929 -2.05676 -2.05676
0.0283581 -2.00622 -2.00622
-0.0566713 -2.03058 -2.03058
-0.0144239 -2.05628 -2.05628
0.0283272 -2.03142 -2.03142
-0.0139206 -2.00575 -2.00575
-0.0141709 -2.03095 -2.03095
-0.0571429 -2.0559 -2.0559
-0.0580911 -2.10694 -2.10694
0.0282138 -2.10781 -2.10781
0.0282929 -2.05676 -2.05676
-0.0576162 -2.08136 -2.08136
-0.0149375 -2.10732 -2.10732
0.0282551 -2.08222 -2.08222
-0.0144239 -2.05628 -2.05628
-0.0146794 -2.08173 -2.08173
-0.0580911 -2.10694 -2.10694
-0.059046 -2.15849 -2.15849
0.0281208 -2.15938 -2.15938
0.0282138 -2.10781 -2.10781
-0.0585677 -2.13265 -2.13265
-0.0154615 -2.15888 -2.15888
0.028169 -2.13353 -2.13353
-0.0149375 -2.10732 -2.10732
-0.0151982 -2.13304 -2.13304
-0.059046 -2.15849 -2.15849
-0.0600078 -2.21055 -2.21055
0.0280138 -2.21145 -2.21145
0.0281208 -2.15938 -2.15938
-0.0595261 -2.18445 -2.18445
-0.0159958 -2.21095 -2.21095
0.028069 -2.18535 -2.18535
-0.0154615 -2.15888 -2.15888
-0.0157274 -2.18485 -2.18485
-0.0600078 -2.21055 -2.21055
-0.0609763 -2.26311 -2.26311
0.027893 -2.26403 -2.26403
0.0280138 -2.21145 -2.21145
-0.0604912 -2.23676 -2.23676
-0.0165405 -2.26352 -2.26352
0.0279551 -2.23768 -2.23768
-0.0159958 -2.21095 -2.21095
-0.0162669 -2.23717 -2.23717
-0.0609763 -2.26311 -2.26311
-0.0619516 -2.31617 -2.31617
0.0277581 -2.31711 -2.31711
0.027893 -2.26403 -2.26403
-0.0614631 -2.28958 -2.28958
-0.0170956 -2.31659 -2.31659
0.0278273 -2.29051 -2.29051
-0.0165405 -2.26352 -2.26352
-0.0168168 -2.28999 -2.28999
-0.0619516 -2.31617 -2.31617
-0.0629337 -2.36972 -2.36972
0.0276093 -2.37068 -2.37068
0.0277581 -2.31711 -2.31711
-0.0624418 -2.34288 -2.34288
-0.017661 -2.37015 -2.37015
0.0276855 -2.34384 -2.34384
-0.0170956 -2.31659 -2.31659
-0.017377 -2.34331 -2.34331
-0.0629337 -2.36972 -2.36972
-0.0639226 -2.42377 -2.42377
0.0274466 -2.42475 -2.42475
0.0276093 -2.37068 -2.37068
-0.0634273 -2.39669 -2.39669
-0.0182369 -2.42421 -2.42421
0.0275297 -2.39766 -2.39766
-0.017661 -2.37015 -2.37015
-0.0179477 -2.39712 -2.39712
-0.0639226 -2.42377 -2.42377
-0.0649183 -2.47831 -2.47831
0.0272699 -2.4793 -2.4793
0.0274466 -2.42475 -2.42475
-0.0644196 -2.45098 -2.45098
-0.0188231 -2.47875 -2.47875
0.02736 -2.45197 -2.45197
-0.0182369 -2.42421 -2.42421
-0.0185287 -2.45142 -2.45142
-0.0649183 -2.47831 -2.47831
-0.0659209 -2.53333 -2.53333
0.0270791 -2.53434 -2.53434
0.0272699 -2.4793 -2.4793
-0.0654187 -2.50576 -2.50576
-0.0194197 -2.53378 -2.53378
0.0271762 -2.50676 -2.50676
-0.0188231 -2.47875 -2.47875
-0.0191201 -2.50621 -2.50621
-0.0659209 -2.53333 -2.53333
-0.0669302 -2.58882 -2.58882
0.0268745 -2.58985 -2.58985
0.0270791 -2.53434 -2.53434
-0.0664247 -2.56102 -2.56102
-0.0200268 -2.58929 -2.58929
0.0269785 -2.56204 -2.56204
-0.0194197 -2.53378 -2.53378
-0.0197219 -2.56147 -2.56147
-0.0669302 -2.58882 -2.58882
-0.0679464 -2.64479 -2.64479
0.0266558 -2.64584 -2.64584
0.0268745 -2.58985 -2.58985
-0.0674375 -2.61675 -2.61675
-0.0206442 -2.64527 -2.64527
0.0267669 -2.61779 -2.61779
-0.0200268 -2.58929 -2.58929
-0.0203342 -2.61722 -2.61722
-0.0679464 -2.64479 -2.64479
-0.0689694 -2.70124 -2.70124
0.0264232 -2.7023 -2.7023
0.0266558 -2.64584 -2.64584
-0.0684571 -2.67296 -2.67296
-0.021272 -2.70172 -2.70172
0.0265412 -2.67401 -2.67401
-0.0206442 -2.64527 -2.64527
-0.0209568 -2.67343 -2.67343
-0.0689694 -2.70124 -2.70124
-0.0699992 -2.75814 -2.75814
0.0261766 -2.75922 -2.75922
0.0264232 -2.7023 -2.7023
-0.0694835 -2.72963 -2.72963
-0.0219102 -2.75863 -2.75863
0.0263016 -2.7307 -2.7307
-0.021272 -2.70172 -2.70172
-0.0215898 -2.73012 -2.73012
-0.0699992 -2.75814 -2.75814
-0.0710358 -2.81551 -2.81551
0.0259161 -2.81661 -2.81661
0.0261766 -2.75922 -2.75922
-0.0705166 -2.78677 -2.78677
-0.0225587 -2.81601 -2.81601
0.0260481 -2.78786 -2.78786
-0.0219102 -2.75863 -2.75863
-0.0222332 -2.78727 -2.78727
-0.0710358 -2.81551 -2.81551
-0.0720792 -2.87334 -2.87334
0.0256416 -2.87446 -2.87446
0.0259161 -2.81661 -2.81661
-0.0715566 -2.84437 -2.84437
-0.0232177 -2.87385 -2.87385
0.0257806 -2.84548 -2.84548
-0.0225587 -2.81601 -2.81601
-0.0228869 -2.84487 -2.84487
-0.0720792 -2.87334 -2.87334
-0.0731293 -2.93162 -2.93162
0.0253532 -2.93275 -2.93275
0.0256416 -2.87446 -2.87446
-0.0726034 -2.90242 -2.90242
-0.0238869 -2.93214 -2.93214
0.0254992 -2.90355 -2.90355
-0.0232177 -2.87385 -2.87385
-0.023551 -2.90294 -2.90294
-0.0731293 -2.93162 -2.93162
-0.0741862 -2.99035 -2.99035
0.0250509 -2.9915 -2.9915
0.0253532 -2.93275 -2.93275
-0.0736569 -2.96093 -2.96093
-0.0245665 -2.99088 -2.99088
0.0252038 -2.96207 -2.96207
-0.0238869 -2.93214 -2.93214
-0.0242254 -2.96145 -2.96145
-0.0741862 -2.99035 -2.99035
-0.0752498 -3.04952 -3.04952
0.0247347 -3.05069 -3.05069
0.0250509 -2.9915 -2.9915
-0.0747171 -3.01988 -3.01988
-0.0252564 -3.05006 -3.05006
0.0248946 -3.02104 -3.02104
-0.0245665 -2.99088 -2.99088
-0.0249102 -3.02041 -3.02041
-0.0752498 -3.04952 -3.04952
-0.0763201 -3.10914 -3.10914
0.0244047 -3.11032 -3.11032
0.0247347 -3.05069 -3.05069
-0.0757841 -3.07927 -3.07927
-0.0259566 -3.10968 -3.10968
0.0245715 -3.08045 -3.08045
-0.0252564 -3.05006 -3.05006
-0.0256052 -3.07982 -3.07982
-0.0763201 -3.10914 -3.10914
-0.0773971 -3.16919 -3.16919
0.0240608 -3.17039 -3.17039
0.0244047 -3.11032 -3.11032
-0.0768577 -3.13911 -3.13911
-0.026667 -3.16974 -3.16974
0.0242345 -3.1403 -3.1403
-0.0259566 -3.10968 -3.10968
-0.0263105 -3.13966 -3.13966
-0.0773971 -3.16919 -3.16919
-0.0784807 -3.22967 -3.22967
0.0237031 -3.23089 -3.23089
0.0240608 -3.17039 -3.17039
-0.0779381 -3.19937 -3.19937
-0.0273877 -3.23023 -3.23023
0.0238837 -3.20059 -3.20059
-0.026667 -3.16974 -3.16974
-0.0270261 -3.19993 -3.19993
-0.0784807 -3.22967 -3.22967
-0.079571 -3.29058 -3.29058
0.0233316 -3.29182 -3.29182
0.0237031 -3.23089 -3.23089
-0.079025 -3.26007 -3.26007
-0.0281186 -3.29115 -3.29115
0.0235191 -3.2613 -3.2613
-0.0273877 -3.23023 -3.23023
-0.0277519 -3.26064 -3.26064
-0.079571 -3.29058 -3.29058
-0.0806679 -3.35191 -3.35191
0.0229464 -3.35317 -3.35317
0.0233316 -3.29182 -3.29182
-0.0801186 -3.32119 -3.32119
-0.0288597 -3.3525 -3.3525
0.0231407 -3.32244 -3.32244
-0.0281186 -3.29115 -3.29115
-0.0284878 -3.32177 -3.32177
-0.0806679 -3.35191 -3.35191
-0.0817714 -3.41367 -3.41367
0.0225474 -3.41494 -3.41494
0.0229464 -3.35317 -3.35317
-0.0812188 -3.38274 -3.38274
-0.0296109 -3.41426 -3.41426
0.0227486 -3.384 -3.384
-0.0288597 -3.3525 -3.3525
-0.029234 -3.38332 -3.38332
-0.0817714 -3.41367 -3.41367
-0.0828813 -3.47583 -3.47583
0.0221348 -3.47712 -3.47712
0.0225474 -3.41494 -3.41494
-0.0823255 -3.4447 -3.4447
-0.0303722 -3.47644 -3.47644
0.0223428 -3.44598 -3.44598
-0.0296109 -3.41426 -3.41426
-0.0299903 -3.44529 -3.44529
-0.0828813 -3.47583 -3.47583
-0.0839978 -3.53841 -3.53841
0.0217085 -3.53972 -3.53972
0.0221348 -3.47712 -3.47712
-0.0834388 -3.50707 -3.50707
-0.0311436 -3.53902 -3.53902
0.0219233 -3.50837 -3.50837
-0.0303722 -3.47644 -3.47644
-0.0307566 -3.50768 -3.50768
-0.0839978 -3.53841 -3.53841
-0.0851208 -3.6014 -3.6014
0.0212685 -3.60272 -3.60272
0.0217085 -3.53972 -3.53972
-0.0845585 -3.56986 -3.56986
-0.031925 -3.60202 -3.60202
0.0214902 -3.57117 -3.57117
-0.0311436 -3.53902 -3.53902
-0.0315331 -3.57047 -3.57047
-0.0851208 -3.6014 -3.6014
-0.0862502 -3.66479 -3.66479
0.020815 -3.66613 -3.66613
0.0212685 -3.60272 -3.60272
-0.0856847 -3.63304 -3.63304
-0.0327165 -3.66542 -3.66542
0.0210435 -3.63438 -3.63438
-0.031925 -3.60202 -3.60202
-0.0323195 -3.63367 -3.63367
-0.0862502 -3.66479 -3.66479
-0.0873859 -3.72857 -3.72857
0.020348 -3.72993 -3.72993
0.020815 -3.66613 -3.66613
-0.0868172 -3.69663 -3.69663
-0.0335179 -3.72921 -3.72921
0.0205832 -3.69798 -3.69798
-0.0327165 -3.66542 -3.66542
-0.0331159 -3.69726 -3.69726
-0.0873859 -3.72857 -3.72857
-0.088528 -3.79276 -3.79276
0.0198675 -3.79413 -3.79413
0.020348 -3.72993 -3.72993
-0.0879561 -3.76062 -3.76062
-0.0343292 -3.7934 -3.7934
0.0201094 -3.76198 -3.76198
-0.0335179 -3.72921 -3.72921
-0.0339223 -3.76126 -3.76126
-0.088528 -3.79276 -3.79276
-0.0896763 -3.85733 -3.85733
0.0193735 -3.85872 -3.85872
0.0198675 -3.79413 -3.79413
-0.0891014 -3.82499 -3.82499
-0.0351503 -3.85798 -3.85798
0.0196222 -3.82637 -3.82637
-0.0343292 -3.7934 -3.7934
-0.0347385 -3.82564 -3.82564
-0.0896763 -3.85733 -3.85733
-0.0908309 -3.92228 -3.92228
0.0188662 -3.92369 -3.92369
0.0193735 -3.85872 -3.85872
-0.0902529 -3.88976 -3.88976
-0.0359813 -3.92294 -3.92294
0.0191215 -3.89115 -3.89115
-0.0351503 -3.85798 -3.85798
-0.0355646 -3.89041 -3.89041
-0.0908309 -3.92228 -3.92228
-0.0919917 -3.98762 -3.98762
0.0183455 -3.98904 -3.98904
0.0188662 -3.92369 -3.92369
-0.0914106 -3.9549 -3.9549
-0.0368221 -3.98829 -3.98829
0.0186075 -3.95632 -3.95632
-0.0359813 -3.92294 -3.92294
-0.0364005 -3.95557 -3.95557
-0.0919917 -3.98762 -3.98762
-0.0931587 -4.05333 -4.05333
0.0178115 -4.05477 -4.05477
0.0183455 -3.98904 -3.98904
-0.0925744 -4.02043 -4.02043
-0.0376725 -4.05401 -4.05401
0.0180801 -4.02186 -4.02186
-0.0368221 -3.98829 -3.98829
-0.0372461 -4.0211 -4.0211
-0.0931587 -4.05333 -4.05333
-0.0943317 -4.11942 -4.11942
0.0172642 -4.12087 -4.12087
0.0178115 -4.05477 -4.05477
-0.0937444 -4.08633 -4.08633
-0.0385327 -4.12011 -4.12011
0.0175395 -4.08778 -4.08778
-0.0376725 -4.05401 -4.05401
-0.0381014 -4.08701 -4.08701
-0.0943317 -4.11942 -4.11942
-0.0955107 -4.18587 -4.18587
0.0167038 -4.18734 -4.18734
0.0172642 -4.12087 -4.12087
-0.0949204 -4.1526 -4.1526
-0.0394024 -4.18657 -4.18657
0.0169857 -4.15406 -4.15406
-0.0385327 -4.12011 -4.12011
-0.0389663 -4.15329 -4.15329
-0.0955107 -4.18587 -4.18587
-0.0966957 -4.25269 -4.25269
0.0161303 -4.25418 -4.25418
0.0167038 -4.18734 -4.18734
-0.0961024 -4.21924 -4.21924
-0.0402817 -4.2534 -4.2534
0.0164187 -4.22072 -4.22072
-0.0394024 -4.18657 -4.18657
-0.0398408 -4.21994 -4.21994
-0.0966957 -4.25269 -4.25269
-0.0978866 -4.31987 -4.31987
0.0155437 -4.32138 -4.32138
0.0161303 -4.25418 -4.25418
-0.0972904 -4.28624 -4.28624
-0.0411704 -4.32059 -4.32059
0.0158386 -4.28773 -4.28773
-0.0402817 -4.2534 -4.2534
-0.0407249 -4.28695 -4.28695
-0.0978866 -4.31987 -4.31987
-0.0990834 -4.38741 -4.38741
0.0149441 -4.38893 -4.38893
0.0155437 -4.32138 -4.32138
-0.0984842 -4.3536 -4.3536
-0.0420686 -4.38813 -4.38813
0.0152455 -4.35511 -4.35511
-0.0411704 -4.32059 -4.32059
-0.0416183 -4.35431 -4.35431
-0.0990834 -4.38741 -4.38741
-0.100286 -4.4553 -4.4553
0.0143316 -4.45683 -4.45683
0.0149441 -4.38893 -4.38893
-0.0996839 -4.42131 -4.42131
-0.0429762 -4.45603 -4.45603
0.0146395 -4.42283 -4.42283
-0.0420686 -4.38813 -4.38813
-0.0425212 -4.42203 -4.42203
-0.100286 -4.4553 -4.4553
-0.101494 -4.52353 -4.52353
0.0137062 -4.52508 -4.52508
0.0143316 -4.45683 -4.45683
-0.100889 -4.48937 -4.48937
-0.043893 -4.52427 -4.52427
0.0140205 -4.49091 -4.49091
-0.0429762 -4.45603 -4.45603
-0.0434334 -4.4901 -4.4901
-0.101494 -4.52353 -4.52353
-0.102708 -4.59211 -4.59211
0.013068 -4.59367 -4.59367
0.0137062 -4.52508 -4.52508
-0.1021 -4.55778 -4.55778
-0.0448191 -4.59285 -4.59285
0.0133887 -4.55933 -4.55933
-0.043893 -4.52427 -4.52427
-0.0443549 -4.55852 -4.55852
-0.102708 -4.59211 -4.59211
-0.103928 -4.66102 -4.66102
0.012417 -4.6626 -4.6626
0.013068 -4.59367 -4.59367
-0.103317 -4.62652 -4.62652
-0.0457543 -4.66178 -4.66178
0.0127441 -4.6281 -4.6281
-0.0448191 -4.59285 -4.59285
-0.0452855 -4.62727 -4.62727
-0.103928 -4.66102 -4.66102
-0.105153 -4.73027 -4.73027
0.0117534 -4.73187 -4.73187
0.012417 -4.6626 -4.6626
-0.104539 -4.69561 -4.69561
-0.0466986 -4.73104 -4.73104
0.0120868 -4.6972 -4.6972
-0.0457543 -4.66178 -4.66178
-0.0462253 -4.69637 -4.69637
-0.105153 -4.73027 -4.73027
-0.106383 -4.79986 -4.79986
0.0110772 -4.80147 -4.80147
0.0117534 -4.73187 -4.73187
-0.105767 -4.76502 -4.76502
-0.047652 -4.80063 -4.80063
0.0114168 -4.76663 -4.76663
-0.0466986 -4.73104 -4.73104
-0.0471742 -4.76579 -4.76579
-0.106383 -4.79986 -4.79986
-0.107619 -4.86976 -4.86976
0.0103884 -4.87139 -4.87139
0.0110772 -4.80147 -4.80147
-0.107 -4.83477 -4.83477
-0.0486142 -4.87054 -4.87054
0.0107344 -4.83639 -4.83639
-0.047652 -4.80063 -4.80063
-0.048132 -4.83554 -4.83554
-0.107619 -4.86976 -4.86976
-0.10886 -4.93999 -4.93999
0.00968724 -4.94163 -4.94163
0.0103884 -4.87139 -4.87139
-0.108239 -4.90484 -4.90484
-0.0495854 -4.94078 -4.94078
0.0100394 -4.90647 -4.90647
-0.0486142 -4.87054 -4.87054
-0.0490987 -4.90562 -4.90562
-0.10886 -4.93999 -4.93999
-0.110106 -5.01054 -5.01054
0.00897369 -5.0122 -5.0122
0.00968724 -4.94163 -4.94163
-0.109482 -4.97523 -4.97523
-0.0505653 -5.01133 -5.01133
0.00933201 -4.97687 -4.97687
-0.0495854 -4.94078 -4.94078
-0.0500743 -4.97602 -4.97602
-0.110106 -5.01054 -5.01054
-0.111358 -5.0814 -5.0814
0.00824784 -5.08307 -5.08307
0.00897369 -5.0122 -5.0122
-0.110731 -5.04593 -5.04593
-0.051554 -5.0822 -5.0822
0.00861229 -5.04759 -5.04759
-0.0505653 -5.01133 -5.01133
-0.0510586 -5.04673 -5.04673
-0.111358 -5.0814 -5.0814
-0.112614 -5.15257 -5.15257
0.00750978 -5.15425 -5.15425
0.00824784 -5.08307 -5.08307
-0.111985 -5.11695 -5.11695
-0.0525513 -5.15338 -5.15338
0.00788033 -5.11862 -5.11862
-0.051554 -5.0822 -5.0822
-0.0520516 -5.11775 -5.11775
-0.112614 -5.15257 -5.15257
-0.113876 -5.22404 -5.22404
0.00675959 -5.22574 -5.22574
0.00750978 -5.15425 -5.15425
-0.113244 -5.18827 -5.18827
-0.0535572 -5.22486 -5.22486
0.00713619 -5.18996 -5.18996
-0.0525513 -5.15338 -5.15338
-0.0530532 -5.18908 -5.18908
-0.113876 -5.22404 -5.22404
-0.115142 -5.29582 -5.29582
0.00599735 -5.29753 -5.29753
0.00675959 -5.22574 -5.22574
-0.114508 -5.25989 -5.25989
-0.0545715 -5.29665 -5.29665
0.00637997 -5.2616 -5.2616
-0.0535572 -5.22486 -5.22486
-0.0540633 -5.26072 -5.26072
-0.115142 -5.29582 -5.29582
-0.116413 -5.36789 -5.36789
0.00522314 -5.36962 -5.36962
0.00599735 -5.29753 -5.29753
-0.115777 -5.33182 -5.33182
-0.0555942 -5.36872 -5.36872
0.00561173 -5.33354 -5.33354
-0.0545715 -5.29665 -5.29665
-0.0550818 -5.33265 -5.33265
-0.116413 -5.36789 -5.36789
-0.117689 -5.44026 -5.44026
0.00443706 -5.442 -5.442
0.00522314 -5.36962 -5.36962
-0.117051 -5.40404 -5.40404
-0.0566252 -5.4411 -5.4411
0.00483158 -5.40577 -5.40577
-0.0555942 -5.36872 -5.36872
-0.0561087 -5.40487 -5.40487
-0.117689 -5.44026 -5.44026
-0.11897 -5.51291 -5.51291
0.00363919 -5.51466 -5.51466
0.00443706 -5.442 -5.442
-0.118329 -5.47655 -5.47655
-0.0576645 -5.51376 -5.51376
0.00403959 -5.4783 -5.4783
-0.0566252 -5.4411 -5.4411
-0.0571438 -5.47739 -5.47739
-0.11897 -5.51291 -5.51291
-0.120255 -5.58584 -5.58584
0.00282962 -5.58761 -5.58761
0.00363919 -5.51466 -5.51466
-0.119612 -5.54934 -5.54934
-0.0587118 -5.5867 -5.5867
0.00323586 -5.5511 -5.5511
-0.0576645 -5.51376 -5.51376
-0.0581871 -5.55019 -5.55019
-0.120255 -5.58584 -5.58584
-0.121545 -5.65906 -5.65906
0.00200843 -5.66084 -5.66084
0.00282962 -5.58761 -5.58761
-0.120899 -5.62242 -5.62242
-0.0597672 -5.65992 -5.65992
0.00242047 -5.62419 -5.62419
-0.0587118 -5.5867 -5.5867
-0.0592385 -5.62328 -5.62328
-0.121545 -5.65906 -5.65906
-0.122838 -5.73255 -5.73255
0.00117573 -5.73435 -5.73435
0.00200843 -5.66084 -5.66084
-0.122191 -5.69577 -5.69577
-0.0608305 -5.73342 -5.73342
0.00159352 -5.69756 -5.69756
-0.0597672 -5.65992 -5.65992
-0.0602979 -5.69664 -5.69664
-0.122838 -5.73255 -5.73255
-0.124137 -5.80631 -5.80631
0.000331602 -5.80812 -5.80812
0.00117573 -5.73435 -5.73435
-0.123487 -5.7694 -5.7694
-0.0619017 -5.80719 -5.80719
0.000755089 -5.7712 -5.7712
-0.0608305 -5.73342 -5.73342
-0.0613651 -5.77027 -5.77027
-0.124137 -5.80631 -5.80631
-0.125439 -5.88034 -5.88034
-0.000523859 -5.88217 -5.88217
0.000331602 -5.80812 -5.80812
-0.124787 -5.8433 -5.8433
-0.0629806 -5.88123 -5.88123
-9.47181e-05 -5.84511 -5.84511
-0.0619017 -5.80719 -5.80719
-0.0624402 -5.84418 -5.84418
-0.125439 -5.88034 -5.88034
-0.126746 -5.95464 -5.95464
-0.00139056 -5.95647 -5.95647
-0.000523859 -5.88217 -5.88217
-0.126092 -5.91746 -5.91746
-0.0640672 -5.95552 -5.95552
-0.000955809 -5.91929 -5.91929
-0.0629806 -5.88123 -5.88123
-0.063523 -5.91834 -5.91834
-0.126746 -5.95464 -5.95464
-0.128056 -6.02919 -6.02919
-0.00226839 -6.03103 -6.03103
-0.00139056 -5.95647 -5.95647
-0.1274 -5.99188 -5.99188
-0.0651614 -6.03008 -6.03008
-0.00182809 -5.99372 -5.99372
-0.0640672 -5.95552 -5.95552
-0.0646134 -5.99277 -5.99277
-0.128056 -6.02919 -6.02919
-0.12937 -6.10399 -6.10399
-0.00315727 -6.10585 -6.10585
-0.00226839 -6.03103 -6.03103
-0.128713 -6.06656 -6.06656
-0.066263 -6.10489 -6.10489
-0.00271146 -6.06841 -6.06841
-0.0651614 -6.03008 -6.03008
-0.0657113 -6.06746 -6.06746
-0.12937 -6.10399 -6.10399
-0.130689 -6.17904 -6.17904
-0.00405709 -6.18092 -6.18092
-0.00315727 -6.10585 -6.10585
-0.130029 -6.14149 -6.14149
-0.067372 -6.17995 -6.17995
-0.00360582 -6.14335 -6.14335
-0.066263 -6.10489 -6.10489
-0.0668166 -6.14239 -6.14239
-0.130689 -6.17904 -6.17904
-0.13201 -6.25434 -6.25434
-0.00496774 -6.25623 -6.25623
-0.00405709 -6.18092 -6.18092
-0.131349 -6.21666 -6.21666
-0.0684883 -6.25526 -6.25526
-0.00451107 -6.21854 -6.21854
-0.067372 -6.17995 -6.17995
-0.0679292 -6.21758 -6.21758
-0.13201 -6.25434 -6.25434
-0.133336 -6.32989 -6.32989
-0.00588914 -6.33178 -6.33178
-0.00496774 -6.25623 -6.25623
-0.132673 -6.29208 -6.29208
-0.0696117 -6.33081 -6.33081
-0.0054271 -6.29398 -6.29398
-0.0684883 -6.25526 -6.25526
-0.0690491 -6.293 -6.293
-0.133336 -6.32989 -6.32989
-0.134665 -6.40566 -6.40566
-0.00682117 -6.40757 -6.40757
-0.00588914 -6.33178 -6.33178
-0.134 -6.36775 -6.36775
-0.0707422 -6.40659 -6.40659
-0.00635383 -6.36965 -6.36965
-0.0696117 -6.33081 -6.33081
-0.070176 -6.36867 -6.36867
-0.134665 -6.40566 -6.40566
-0.135997 -6.48168 -6.48168
-0.00776373 -6.4836 -6.4836
-0.00682117 -6.40757 -6.40757
-0.13533 -6.44364 -6.44364
-0.0718796 -6.48261 -6.48261
-0.00729114 -6.44556 -6.44556
-0.0707422 -6.40659 -6.40659
-0.07131 -6.44457 -6.44457
-0.135997 -6.48168 -6.48168
-0.137332 -6.55792 -6.55792
-0.00871671 -6.55985 -6.55985
-0.00776373 -6.4836 -6.4836
-0.136664 -6.51977 -6.51977
-0.0730239 -6.55886 -6.55886
-0.00823892 -6.52169 -6.52169
-0.0718796 -6.48261 -6.48261
-0.0724509 -6.52071 -6.52071
-0.137332 -6.55792 -6.55792
-0.138671 -6.63438 -6.63438
-0.00968002 -6.63632 -6.63632
-0.00871671 -6.55985 -6.55985
-0.138001 -6.59612 -6.59612
-0.0741749 -6.63533 -6.63533
-0.00919708 -6.59806 -6.59806
-0.0730239 -6.55886 -6.55886
-0.0735985 -6.59707 -6.59707
-0.138671 -6.63438 -6.63438
-0.140013 -6.71107 -6.71107
-0.0106535 -6.71302 -6.71302
-0.00968002 -6.63632 -6.63632
-0.139342 -6.6727 -6.6727
-0.0753325 -6.71202 -6.71202
-0.0101655 -6.67465 -6.67465
-0.0741749 -6.63533 -6.63533
-0.0747529 -6.67365 -6.67365
-0.140013 -6.71107 -6.71107
-0.141358 -6.78797 -6.78797
-0.0116371 -6.78993 -6.78993
-0.0106535 -6.71302 -6.71302
-0.140685 -6.74949 -6.74949
-0.0764967 -6.78893 -6.78893
-0.0111441 -6.75145 -6.75145
-0.0753325 -6.71202 -6.71202
-0.0759138 -6.75045 -6.75045
-0.141358 -6.78797 -6.78797
-0.142705 -6.86508 -6.86508
-0.0126307 -6.86706 -6.86706
-0.0116371 -6.78993 -6.78993
-0.142031 -6.8265 -6.8265
-0.0776673 -6.86605 -6.86605
-0.0121327 -6.82847 -6.82847
-0.0764967 -6.78893 -6.78893
-0.0770812 -6.82746 -6.82746
-0.142705 -6.86508 -6.86508
-0.144056 -6.9424 -6.9424
-0.0136342 -6.94439 -6.94439
-0.0126307 -6.86706 -6.86706
-0.14338 -6.90372 -6.90372
-0.0788442 -6.94337 -6.94337
-0.0131313 -6.9057 -6.9057
-0.0776673 -6.86605 -6.86605
-0.078255 -6.90468 -6.90468
-0.144056 -6.9424 -6.9424
-0.145408 -7.01993 -7.01993
-0.0146475 -7.02192 -7.02192
-0.0136342 -6.94439 -6.94439
-0.144732 -6.98114 -6.98114
-0.0800273 -7.0209 -7.0209
-0.0141396 -6.98313 -6.98313
-0.0788442 -6.94337 -6.94337
-0.079435 -6.98211 -6.98211
-0.145408 -7.01993 -7.01993
-0.146764 -7.09765 -7.09765
-0.0156704 -7.09966 -7.09966
-0.0146475 -7.02192 -7.02192
-0.146086 -7.05876 -7.05876
-0.0812165 -7.09863 -7.09863
-0.0151577 -7.06076 -7.06076
-0.0800273 -7.0209 -7.0209
-0.0806211 -7.05974 -7.05974
-0.146764 -7.09765 -7.09765
-0.148122 -7.17557 -7.17557
-0.0167028 -7.17758 -7.17758
-0.0156704 -7.09966 -7.09966
-0.147442 -7.13658 -7.13658
-0.0824116 -7.17656 -7.17656
-0.0161854 -7.1386 -7.1386
-0.0812165 -7.09863 -7.09863
-0.0818133 -7.13757 -7.13757
-0.148122 -7.17557 -7.17557
-0.149482 -7.25368 -7.25368
-0.0177447 -7.2557 -7.2557
-0.0167028 -7.17758 -7.17758
-0.148801 -7.2146 -7.2146
-0.0836126 -7.25467 -7.25467
-0.0172226 -7.21662 -7.21662
-0.0824116 -7.17656 -7.17656
-0.0830113 -7.21559 -7.21559
-0.149482 -7.25368 -7.25368
-0.150844 -7.33197 -7.33197
-0.0187959 -7.33401 -7.33401
-0.0177447 -7.2557 -7.2557
-0.150163 -7.2928 -7.2928
-0.0848193 -7.33297 -7.33297
-0.0182691 -7.29483 -7.29483
-0.0836126 -7.25467 -7.25467
-0.0842152 -7.2938 -7.2938
-0.150844 -7.33197 -7.33197
-0.152208 -7.41045 -7.41045
-0.0198562 -7.41249 -7.41249
-0.0187959 -7.33401 -7.33401
-0.151526 -7.37119 -7.37119
-0.0860316 -7.41145 -7.41145
-0.0193249 -7.37323 -7.37323
-0.0848193 -7.33297 -7.33297
-0.0854247 -7.37219 -7.37219
-0.152208 -7.41045 -7.41045
-0.153574 -7.4891 -7.4891
-0.0209257 -7.49116 -7.49116
-0.0198562 -7.41249 -7.41249
-0.152891 -7.44975 -7.44975
-0.0872494 -7.49011 -7.49011
-0.0203898 -7.4518 -7.4518
-0.0860316 -7.41145 -7.41145
-0.0866398 -7.45076 -7.45076
-0.153574 -7.4891 -7.4891
-0.154942 -7.56793 -7.56793
-0.0220041 -7.57 -7.57
-0.0209257 -7.49116 -7.49116
-0.154258 -7.5285 -7.5285
-0.0884726 -7.56895 -7.56895
-0.0214638 -7.53056 -7.53056
-0.0872494 -7.49011 -7.49011
-0.0878604 -7.52951 -7.52951
-0.154942 -7.56793 -7.56793
-0.156312 -7.64693 -7.64693
-0.0230913 -7.649 -7.649
-0.0220041 -7.57 -7.57
-0.155627 -7.60741 -7.60741
-0.0897011 -7.64795 -7.64795
-0.0225466 -7.60948 -7.60948
-0.0884726 -7.56895 -7.56895
-0.0890862 -7.60843 -7.60843
-0.156312 -7.64693 -7.64693
-0.157683 -7.7261 -7.7261
-0.0241872 -7.72818 -7.72818
-0.0230913 -7.649 -7.649
-0.156997 -7.68649 -7.68649
-0.0909347 -7.72712 -7.72712
-0.0236382 -7.68857 -7.68857
-0.0897011 -7.64795 -7.64795
-0.0903172 -7.68751 -7.68751
-0.157683 -7.7261 -7.7261
-0.159056 -7.80542 -7.80542
-0.0252918 -7.80751 -7.80751
-0.0241872 -7.72818 -7.72818
-0.158369 -7.76574 -7.76574
-0.0921733 -7.80645 -7.80645
-0.0247384 -7.76782 -7.76782
-0.0909347 -7.72712 -7.72712
-0.0915534 -7.76676 -7.76676
-0.159056 -7.80542 -7.80542
-0.16043 -7.8849 -7.8849
-0.0264048 -7.887 -7.887
-0.0252918 -7.80751 -7.80751
-0.159743 -7.84514 -7.84514
-0.0934168 -7.88593 -7.88593
-0.0258472 -7.84724 -7.84724
-0.0921733 -7.80645 -7.80645
-0.0927944 -7.84617 -7.84617
-0.16043 -7.8849 -7.8849
-0.161805 -7.96454 -7.96454
-0.0275261 -7.96664 -7.96664
-0.0264048 -7.887 -7.887
-0.161117 -7.9247 -7.9247
-0.0946651 -7.96557 -7.96557
-0.0269644 -7.9268 -7.9268
-0.0934168 -7.88593 -7.88593
-0.0940404 -7.92574 -7.92574
-0.161805 -7.96454 -7.96454
-0.163181 -8.04432 -8.04432
-0.0286557 -8.04643 -8.04643
-0.0275261 -7.96664 -7.96664
-0.162493 -8.00441 -8.00441
-0.095918 -8.04536 -8.04536
-0.0280899 -8.00652 -8.00652
-0.0946651 -7.96557 -7.96557
-0.095291 -8.00545 -8.00545
-0.163181 -8.04432 -8.04432
-0.164559 -8.12425 -8.12425
-0.0297934 -8.12637 -8.12637
-0.0286557 -8.04643 -8.04643
-0.16387 -8.08426 -8.08426
-0.0971755 -8.12529 -8.12529
-0.0292235 -8.08638 -8.08638
-0.095918 -8.04536 -8.04536
-0.0965462 -8.08531 -8.08531
-0.164559 -8.12425 -8.12425
-0.165937 -8.20431 -8.20431
-0.030939 -8.20644 -8.20644
-0.0297934 -8.12637 -8.12637
-0.165247 -8.16426 -8.16426
-0.0984373 -8.20536 -8.20536
-0.0303652 -8.16639 -8.16639
-0.0971755 -8.12529 -8.12529
-0.0978059 -8.16531 -8.16531
-0.165937 -8.20431 -8.20431
-0.167315 -8.28451 -8.28451
-0.0320925 -8.28665 -8.28665
-0.030939 -8.20644 -8.20644
-0.166626 -8.2444 -8.2444
-0.0997034 -8.28557 -8.28557
-0.0315148 -8.24653 -8.24653
-0.0984373 -8.20536 -8.20536
-0.0990699 -8.24545 -8.24545
-0.167315 -8.28451 -8.28451
-0.168695 -8.36485 -8.36485
-0.0332537 -8.36699 -8.36699
-0.0320925 -8.28665 -8.28665
-0.168005 -8.32466 -8.32466
-0.100974 -8.3659 -8.3659
-0.0326722 -8.3268 -8.3268
-0.0997034 -8.28557 -8.28557
-0.100338 -8.32572 -8.32572
-0.168695 -8.36485 -8.36485
-0.170074 -8.44531 -8.44531
-0.0344225 -8.44746 -8.44746
-0.0332537 -8.36699 -8.36699
-0.169384 -8.40506 -8.40506
-0.102248 -8.44637 -8.44637
-0.0338372 -8.40721 -8.40721
-0.100974 -8.3659 -8.3659
-0.10161 -8.40612 -8.40612
-0.170074 -8.44531 -8.44531
-0.171454 -8.52589 -8.52589
-0.0355988 -8.52805 -8.52805
-0.0344225 -8.44746 -8.44746
-0.170764 -8.48558 -8.48558
-0.103526 -8.52696 -8.52696
-0.0350098 -8.48774 -8.48774
-0.102248 -8.44637 -8.44637
-0.102887 -8.48665 -8.48665
-0.171454 -8.52589 -8.52589
-0.172835 -8.60659 -8.60659
-0.0367824 -8.60875 -8.60875
-0.0355988 -8.52805 -8.52805
-0.172144 -8.56623 -8.56623
-0.104808 -8.60766 -8.60766
-0.0361897 -8.56839 -8.56839
-0.103526 -8.52696 -8.52696
-0.104167 -8.56729 -8.56729
-0.172835 -8.60659 -8.60659
-0.174215 -8.68741 -8.68741
-0.0379733 -8.68958 -8.68958
-0.0367824 -8.60875 -8.60875
-0.173525 -8.64699 -8.64699
-0.106094 -8.68848 -8.68848
-0.0373769 -8.64915 -8.64915
-0.104808 -8.60766 -8.60766
-0.10545 -8.64806 -8.64806
-0.174215 -8.68741 -8.68741
-0.175595 -8.76834 -8.76834
-0.0391711 -8.77051 -8.77051
-0.0379733 -8.68958 -8.68958
-0.174905 -8.72786 -8.72786
-0.107383 -8.76941 -8.76941
-0.0385713 -8.73003 -8.73003
-0.106094 -8.68848 -8.68848
-0.106738 -8.72893 -8.72893
-0.175595 -8.76834 -8.76834
-0.176975 -8.84937 -8.84937
-0.040376 -8.85155 -8.85155
-0.0391711 -8.77051 -8.77051
-0.176285 -8.80884 -8.80884
-0.108675 -8.85045 -8.85045
-0.0397727 -8.81102 -8.81102
-0.107383 -8.76941 -8.76941
-0.108029 -8.80992 -8.80992
-0.176975 -8.84937 -8.84937
-0.178355 -8.9305 -8.9305
-0.0415877 -8.93269 -8.93269
-0.040376 -8.85155 -8.85155
-0.177665 -8.88992 -8.88992
-0.109971 -8.93159 -8.93159
-0.040981 -8.89211 -8.89211
-0.108675 -8.85045 -8.85045
-0.109323 -8.891 -8.891
-0.178355 -8.9305 -8.9305
-0.179734 -9.01174 -9.01174
-0.042806 -9.01392 -9.01392
-0.0415877 -8.93269 -8.93269
-0.179045 -8.97111 -8.97111
-0.11127 -9.01282 -9.01282
-0.042196 -8.97329 -8.97329
-0.109971 -8.93159 -8.93159
-0.11062 -8.97219 -8.97219
-0.179734 -9.01174 -9.01174
-0.181113 -9.09306 -9.09306
-0.0440309 -9.09525 -9.09525
-0.042806 -9.01392 -9.01392
-0.180423 -9.05239 -9.05239
-0.112571 -9.09415 -9.09415
-0.0434176 -9.05458 -9.05458
-0.11127 -9.01282 -9.01282
-0.11192 -9.05347 -9.05347
-0.181113 -9.09306 -9.09306
-0.182491 -9.17448 -9.17448
-0.0452622 -9.17667 -9.17667
-0.0440309 -9.09525 -9.09525
-0.181802 -9.13376 -9.13376
-0.113876 -9.17557 -9.17557
-0.0446458 -9.13595 -9.13595
-0.112571 -9.09415 -9.09415
-0.113223 -9.13485 -9.13485
-0.182491 -9.17448 -9.17448
-0.183868 -9.25597 -9.25597
-0.0464999 -9.25818 -9.25818
-0.0452622 -9.17667 -9.17667
-0.183179 -9.21521 -9.21521
-0.115183 -9.25707 -9.25707
-0.0458803 -9.21742 -9.21742
-0.113876 -9.17557 -9.17557
-0.114529 -9.21631 -9.21631
-0.183868 -9.25597 -9.25597
-0.185244 -9.33755 -9.33755
-0.0477436 -9.33976 -9.33976
-0.0464999 -9.25818 -9.25818
-0.184556 -9.29675 -9.29675
-0.116493 -9.33865 -9.33865
-0.047121 -9.29896 -9.29896
-0.115183 -9.25707 -9.25707
-0.115838 -9.29785 -9.29785
-0.185244 -9.33755 -9.33755
-0.186619 -9.41921 -9.41921
-0.0489934 -9.42142 -9.42142
-0.0477436 -9.33976 -9.33976
-0.185931 -9.37837 -9.37837
-0.117806 -9.42031 -9.42031
-0.0483678 -9.38058 -9.38058
-0.116493 -9.33865 -9.33865
-0.117149 -9.37947 -9.37947
-0.186619 -9.41921 -9.41921
-0.187992 -9.50094 -9.50094
-0.0502491 -9.50315 -9.50315
-0.0489934 -9.42142 -9.42142
-0.187306 -9.46007 -9.46007
-0.11912 -9.50204 -9.50204
-0.0496205 -9.46228 -9.46228
-0.117806 -9.42031 -9.42031
-0.118463 -9.46116 -9.46116
-0.187992 -9.50094 -9.50094
-0.189365 -9.58273 -9.58273
-0.0515105 -9.58495 -9.58495
-0.0502491 -9.50315 -9.50315
-0.188679 -9.54183 -9.54183
-0.120437 -9.58384 -9.58384
-0.0508791 -9.54404 -9.54404
-0.11912 -9.50204 -9.50204
-0.119779 -9.54293 -9.54293
-0.189365 -9.58273 -9.58273
-0.190735 -9.66459 -9.66459
-0.0527776 -9.66682 -9.66682
-0.0515105 -9.58495 -9.58495
-0.19005 -9.62366 -9.62366
-0.121756 -9.6657 -9.6657
-0.0521434 -9.62588 -9.62588
-0.120437 -9.58384 -9.58384
-0.121097 -9.62476 -9.62476
-0.190735 -9.66459 -9.66459
-0.192104 -9.74651 -9.74651
-0.0540502 -9.74874 -9.74874
-0.0527776 -9.66682 -9.66682
-0.19142 -9.70555 -9.70555
-0.123077 -9.74762 -9.74762
-0.0534132 -9.70777 -9.70777
-0.121756 -9.6657 -9.6657
-0.122416 -9.70665 -9.70665
-0.192104 -9.74651 -9.74651
-0.193472 -9.82849 -9.82849
-0.0553281 -9.83071 -9.83071
-0.0540502 -9.74874 -9.74874
-0.192788 -9.78749 -9.78749
-0.1244 -9.82959 -9.82959
-0.0546885 -9.78972 -9.78972
-0.123077 -9.74762 -9.74762
-0.123738 -9.7886 -9.7886
-0.193472 -9.82849 -9.82849
-0.194837 -9.91051 -9.91051
-0.0566113 -9.91274 -9.91274
-0.0553281 -9.83071 -9.83071
-0.194155 -9.86949 -9.86949
-0.125724 -9.91162 -9.91162
-0.0559691 -9.87172 -9.87172
-0.1244 -9.82959 -9.82959
-0.125062 -9.8706 -9.8706
-0.194837 -9.91051 -9.91051
-0.1962 -9.99258 -9.99258
-0.0578997 -9.99482 -9.99482
-0.0566113 -9.91274 -9.91274
-0.195519 -9.95154 -9.95154
-0.12705 -9.9937 -9.9937
-0.0572549 -9.95377 -9.95377
-0.125724 -9.91162 -9.91162
-0.126387 -9.95265 -9.95265
-0.1962 -9.99258 -9.99258
-0.197561 -10.0747 -10.0747
-0.0591933 -10.0769 -10.0769
-0.0578997 -9.99482 -9.99482
-0.196881 -10.0336 -10.0336
-0.128377 -10.0758 -10.0758
-0.0585459 -10.0359 -10.0359
-0.12705 -9.9937 -9.9937
-0.127713 -10.0347 -10.0347
-0.197561 -10.0747 -10.0747
-0.198919 -10.1569 -10.1569
-0.060492 -10.1591 -10.1591
-0.0591933 -10.0769 -10.0769
-0.19824 -10.1158 -10.1158
-0.129705 -10.158 -10.158
-0.059842 -10.118 -10.118
-0.128377 -10.0758 -10.0758
-0.129041 -10.1169 -10.1169
-0.198919 -10.1569 -10.1569
-0.200274 -10.239 -10.239
-0.061796 -10.2413 -10.2413
-0.060492 -10.1591 -10.1591
-0.199597 -10.1979 -10.1979
-0.131035 -10.2402 -10.2402
-0.0611434 -10.2002 -10.2002
-0.129705 -10.158 -10.158
-0.13037 -10.1991 -10.1991
-0.200274 -10.239 -10.239
-0.201626 -10.3213 -10.3213
-0.0631055 -10.3235 -10.3235
-0.061796 -10.2413 -10.2413
-0.200951 -10.2801 -10.2801
-0.132366 -10.3224 -10.3224
-0.0624501 -10.2824 -10.2824
-0.131035 -10.2402 -10.2402
-0.1317 -10.2813 -10.2813
-0.201626 -10.3213 -10.3213
-0.202974 -10.4035 -10.4035
-0.0644208 -10.4057 -10.4057
-0.0631055 -10.3235 -10.3235
-0.202301 -10.3624 -10.3624
-0.133698 -10.4046 -10.4046
-0.0637625 -10.3646 -10.3646
-0.132366 -10.3224 -10.3224
-0.133032 -10.3635 -10.3635
-0.202974 -10.4035 -10.4035
-0.204318 -10.4858 -10.4858
-0.0657416 -10.488 -10.488
-0.0644208 -10.4057 -10.4057
-0.203647 -10.4446 -10.4446
-0.13503 -10.4869 -10.4869
-0.0650805 -10.4469 -10.4469
-0.133698 -10.4046 -10.4046
-0.134364 -10.4458 -10.4458
-0.204318 -10.4858 -10.4858
-0.205658 -10.5681 -10.5681
-0.0670674 -10.5703 -10.5703
-0.0657416 -10.488 -10.488
-0.204989 -10.5269 -10.5269
-0.136363 -10.5692 -10.5692
-0.066404 -10.5292 -10.5292
-0.13503 -10.4869 -10.4869
-0.135696 -10.528 -10.528
-0.205658 -10.5681 -10.5681
-0.206996 -10.6503 -10.6503
-0.0683956 -10.6526 -10.6526
-0.0670674 -10.5703 -10.5703
-0.206327 -10.6092 -10.6092
-0.137696 -10.6515 -10.6515
-0.0677313 -10.6114 -10.6114
-0.136363 -10.5692 -10.5692
-0.137029 -10.6103 -10.6103
-0.206996 -10.6503 -10.6503
-0.208332 -10.7326 -10.7326
-0.069724 -10.7348 -10.7348
-0.0683956 -10.6526 -10.6526
-0.207664 -10.6915 -10.6915
-0.139028 -10.7337 -10.7337
-0.0690602 -10.6937 -10.6937
-0.137696 -10.6515 -10.6515
-0.138362 -10.6926 -10.6926
-0.208332 -10.7326 -10.7326
-0.209671 -10.8148 -10.8148
-0.0710469 -10.8171 -10.8171
-0.069724 -10.7348 -10.7348
-0.209001 -10.7737 -10.7737
-0.140359 -10.8159 -10.8159
-0.0703863 -10.776 -10.776
-0.139028 -10.7337 -10.7337
-0.139694 -10.7748 -10.7748
0 0 0
0.000608955 9.84212e-05 9.84212e-05
0.00186041 -0.000194813 -0.000194813
0 0 0
0.000303032 0.000199877 0.000199877
0.00123 -1.18887e-05 -1.18887e-05
0.00090186 5.52405e-05 5.52405e-05
0 0 0
0.000596945 0.000150505 0.000150505
0.000608955 9.84212e-05 9.84212e-05
0.00126888 -0.000945597 -0.000945597
0.00386311 -0.00145566 -0.00145566
0.00186041 -0.000194813 -0.000194813
0.000932738 -0.000289797 -0.000289797
0.00255419 -0.00113087 -0.00113087
0.00284928 -0.000704543 -0.000704543
0.00123 -1.18887e-05 -1.18887e-05
0.00188378 -0.000443873 -0.000443873
0.00126888 -0.000945597 -0.000945597
0.00195233 -0.00299209 -0.00299209
0.00594893 -0.00363525 -0.00363525
0.00386311 -0.00145566 -0.00145566
0.00160882 -0.00185033 -0.00185033
0.0039339 -0.00322979 -0.00322979
0.00489972 -0.00243658 -0.00243658
0.00255419 -0.00113087 -0.00113087
0.00323922 -0.00206418 -0.00206418
0.00195233 -0.00299209 -0.00299209
0.00265005 -0.00594976 -0.00594976
0.00805121 -0.00665239 -0.00665239
0.00594893 -0.00363525 -0.00363525
0.00230032 -0.00436114 -0.00436114
0.0053337 -0.00621234 -0.00621234
0.00700038 -0.00504141 -0.00504141
0.0039339 -0.00322979 -0.00322979
0.00463306 -0.00461436 -0.00461436
0.00265005 -0.00594976 -0.00594976
0.0033457 -0.00976218 -0.00976218
0.0101452 -0.0104849 -0.0104849
0.00805121 -0.00665239 -0.00665239
0.00299858 -0.00775138 -0.00775138
0.00673109 -0.0100347 -0.0100347
0.00910019 -0.00846732 -0.00846732
0.0053337 -0.00621234 -0.00621234
0.00603355 -0.00802019 -0.00802019
0.0033457 -0.00976218 -0.00976218
0.00403588 -0.0144005 -0.0144005
0.0122183 -0.0151241 -0.0151241
0.0101452 -0.0104849 -0.0104849
0.00369168 -0.0119793 -0.0119793
0.00811555 -0.0146741 -0.0146741
0.0111845 -0.0127038 -0.0127038
0.00673109 -0.0100347 -0.0100347
0.0074252 -0.012253 -0.012253
0.00403588 -0.0144005 -0.0144005
0.00471715 -0.0198497 -0.0198497
0.014271 -0.0205687 -0.0205687
0.0122183 -0.0151241 -0.0151241
0.00437765 -0.0170243 -0.0170243
0.00948481 -0.020122 -0.020122
0.0132471 -0.0177459 -0.0177459
0.00811555 -0.0146741 -0.0146741
0.00880207 -0.0172974 -0.0172974
0.00471715 -0.0198497 -0.0198497
0.00539021 -0.0261021 -0.0261021
0.0163042 -0.026816 -0.026816
0.014271 -0.0205687 -0.0205687
0.00505467 -0.0228758 -0.0228758
0.0108395 -0.0263728 -0.0263728
0.0152899 -0.0235922 -0.0235922
0.00948481 -0.020122 -0.020122
0.0101639 -0.0231473 -0.0231473
0.00539021 -0.0261021 -0.0261021
0.00605525 -0.0331531 -0.0331531
0.0183203 -0.0338632 -0.0338632
0.0163042 -0.026816 -0.026816
0.0057237 -0.029528 -0.029528
0.0121811 -0.0334226 -0.0334226
0.0173143 -0.0302398 -0.0302398
0.0108395 -0.0263728 -0.0263728
0.0115118 -0.029798 -0.029798
0.00605525 -0.0331531 -0.0331531
0.00671301 -0.0409989 -0.0409989
0.0203206 -0.0417068 -0.0417068
0.0183203 -0.0338632 -0.0338632
0.00638502 -0.0369769 -0.0369769
0.0135107 -0.0412679 -0.0412679
0.0193224 -0.0376856 -0.0376856
0.0121811 -0.0334226 -0.0334226
0.0128473 -0.0372461 -0.0372461
0.00671301 -0.0409989 -0.0409989
0.00736374 -0.0496359 -0.0496359
0.0223062 -0.050343 -0.050343
0.0203206 -0.0417068 -0.0417068
0.00703924 -0.0452187 -0.0452187
0.0148291 -0.0499051 -0.0499051
0.0213152 -0.045926 -0.045926
0.0135107 -0.0412679 -0.0412679
0.0141713 -0.0454878 -0.0454878
0.00736374 -0.0496359 -0.0496359
0.00800764 -0.0590605 -0.0590605
0.0242774 -0.0597677 -0.0597677
0.0223062 -0.050343 -0.050343
0.00768654 -0.05425 -0.05425
0.0161369 -0.0593303 -0.0593303
0.0232936 -0.054957 -0.054957
0.0148291 -0.0499051 -0.0499051
0.0154843 -0.0545195 -0.0545195
0.00800764 -0.0590605 -0.0590605
0.0086447 -0.0692687 -0.0692687
0.0262345 -0.069977 -0.069977
0.0242774 -0.0597677 -0.0597677
0.00832703 -0.0640669 -0.0640669
0.017434 -0.0695395 -0.0695395
0.0252577 -0.0647746 -0.0647746
0.0161369 -0.0593303 -0.0593303
0.0167868 -0.0643371 -0.0643371
0.0086447 -0.0692687 -0.0692687
0.00927482 -0.0802565 -0.0802565
0.0281774 -0.0809664 -0.0809664
0.0262345 -0.069977 -0.069977
0.00896063 -0.0746654 -0.0746654
0.0187206 -0.0805286 -0.0805286
0.0272077 -0.0753744 -0.0753744
0.017434 -0.0695395 -0.0695395
0.0180787 -0.0749368 -0.0749368
0.00927482 -0.0802565 -0.0802565
0.00989787 -0.0920198 -0.0920198
0.0301061 -0.0927319 -0.0927319
0.0281774 -0.0809664 -0.0809664
0.00958724 -0.0860414 -0.0860414
0.0199965 -0.0922934 -0.0922934
0.0291436 -0.0867524 -0.0867524
0.0187206 -0.0805286 -0.0805286
0.0193599 -0.0863143 -0.0863143
0.00989787 -0.0920198 -0.0920198
0.0105137 -0.104554 -0.104554
0.0320204 -0.105269 -0.105269
0.0301061 -0.0927319 -0.0927319
0.0102067 -0.0981909 -0.0981909
0.0212616 -0.10483 -0.10483
0.0310651 -0.0989043 -0.0989043
0.0199965 -0.0922934 -0.0922934
0.0206304 -0.0984654 -0.0984654
0.0105137 -0.104554 -0.104554
0.011122 -0.117856 -0.117856
0.03392 -0.118574 -0.118574
0.0320204 -0.105269 -0.105269
0.0108188 -0.11111 -0.11111
0.0225156 -0.118134 -0.118134
0.032972 -0.111826 -0.111826
0.0212616 -0.10483 -0.10483
0.02189 -0.111386 -0.111386
0.011122 -0.117856 -0.117856
0.0117227 -0.131921 -0.131921
0.0358049 -0.132642 -0.132642
0.03392 -0.118574 -0.118574
0.0114233 -0.124793 -0.124793
0.0237584 -0.1322 -0.1322
0.0348643 -0.125513 -0.125513
0.0225156 -0.118134 -0.118134
0.0231384 -0.125072 -0.125072
0.0117227 -0.131921 -0.131921
0.0123155 -0.146744 -0.146744
0.0376747 -0.147469 -0.147469
0.0358049 -0.132642 -0.132642
0.0120201 -0.139238 -0.139238
0.0249898 -0.147026 -0.147026
0.0367417 -0.139961 -0.139961
0.0237584 -0.1322 -0.1322
0.0243755 -0.139519 -0.139519
0.0123155 -0.146744 -0.146744
0.0129003 -0.162322 -0.162322
0.0395294 -0.163051 -0.163051
0.0376747 -0.147469 -0.147469
0.0126089 -0.154439 -0.154439
0.0262095 -0.162606 -0.162606
0.038604 -0.155166 -0.155166
0.0249898 -0.147026 -0.147026
0.0256011 -0.154722 -0.154722
0.0129003 -0.162322 -0.162322
0.0134768 -0.17865 -0.17865
0.0413686 -0.179383 -0.179383
0.0395294 -0.163051 -0.163051
0.0131896 -0.170392 -0.170392
0.0274174 -0.178937 -0.178937
0.0404509 -0.171123 -0.171123
0.0262095 -0.162606 -0.162606
0.0268149 -0.170678 -0.170678
0.0134768 -0.17865 -0.17865
0.0140449 -0.195724 -0.195724
0.0431923 -0.196462 -0.196462
0.0413686 -0.179383 -0.179383
0.0137619 -0.187094 -0.187094
0.0286133 -0.196013 -0.196013
0.0422824 -0.187829 -0.187829
0.0274174 -0.178937 -0.178937
0.0280168 -0.187382 -0.187382
0.0140449 -0.195724 -0.195724
0.0146043 -0.213539 -0.213539
0.0450001 -0.214282 -0.214282
0.0431923 -0.196462 -0.196462
0.0143257 -0.204539 -0.204539
0.0297969 -0.213832 -0.213832
0.0440982 -0.205279 -0.205279
0.0286133 -0.196013 -0.196013
0.0292066 -0.20483 -0.20483
0.0146043 -0.213539 -0.213539
0.015155 -0.232092 -0.232092
0.046792 -0.23284 -0.23284
0.0450001 -0.214282 -0.214282
0.0148808 -0.222724 -0.222724
0.0309682 -0.232388 -0.232388
0.0458981 -0.223469 -0.223469
0.0297969 -0.213832 -0.213832
0.0303841 -0.223018 -0.223018
0.015155 -0.232092 -0.232092
0.0156966 -0.251379 -0.251379
0.0485677 -0.252132 -0.252132
0.046792 -0.23284 -0.23284
0.0154269 -0.241644 -0.241644
0.0321269 -0.251678 -0.251678
0.0476819 -0.242395 -0.242395
0.0309682 -0.232388 -0.232388
0.0315492 -0.241941 -0.241941
0.0156966 -0.251379 -0.251379
0.0162291 -0.271394 -0.271394
0.0503271 -0.272153 -0.272153
0.0485677 -0.252132 -0.252132
0.015964 -0.261295 -0.261295
0.0332729 -0.271696 -0.271696
0.0494495 -0.262052 -0.262052
0.0321269 -0.251678 -0.251678
0.0327015 -0.261596 -0.261596
0.0162291 -0.271394 -0.271394
0.0167522 -0.292134 -0.292134
0.05207 -0.2929 -0.2929
0.0503271 -0.272153 -0.272153
0.0164918 -0.281673 -0.281673
0.0344059 -0.29244 -0.29244
0.0512006 -0.282436 -0.282436
0.0332729 -0.271696 -0.271696
0.033841 -0.281978 -0.281978
0.0167522 -0.292134 -0.292134
0.0172658 -0.313594 -0.313594
0.0537962 -0.314366 -0.314366
0.05207 -0.2929 -0.2929
0.0170102 -0.302774 -0.302774
0.0355258 -0.313904 -0.313904
0.0529352 -0.303543 -0.303543
0.0344059 -0.29244 -0.29244
0.0349675 -0.303082 -0.303082
0.0172658 -0.313594 -0.313594
0.0177697 -0.335771 -0.335771
0.0555056 -0.33655 -0.33655
0.0537962 -0.314366 -0.314366
0.017519 -0.324593 -0.324593
0.0366325 -0.336084 -0.336084
0.054653 -0.325369 -0.325369
0.0355258 -0.313904 -0.313904
0.0360808 -0.324905 -0.324905
0.0177697 -0.335771 -0.335771
0.0182637 -0.358659 -0.358659
0.0571979 -0.359446 -0.359446
0.0555056 -0.33655 -0.33655
0.018018 -0.347126 -0.347126
0.0377257 -0.358977 -0.358977
0.0563539 -0.347909 -0.347909
0.0366325 -0.336084 -0.336084
0.0371808 -0.347442 -0.347442
0.0182637 -0.358659 -0.358659
0.0187478 -0.382256 -0.382256
0.0588731 -0.383049 -0.383049
0.0571979 -0.359446 -0.359446
0.018507 -0.370369 -0.370369
0.0388053 -0.382577 -0.382577
0.0580377 -0.371159 -0.371159
0.0377257 -0.358977 -0.358977
0.0382672 -0.370689 -0.370689
0.0187478 -0.382256 -0.382256
0.0192216 -0.406556 -0.406556
0.0605309 -0.407357 -0.407357
0.0588731 -0.383049 -0.383049
0.018986 -0.394318 -0.394318
0.0398712 -0.406881 -0.406881
0.0597042 -0.395115 -0.395115
0.0388053 -0.382577 -0.382577
0.03934 -0.394642 -0.394642
0.0192216 -0.406556 -0.406556
0.0196852 -0.431555 -0.431555
0.0621713 -0.432364 -0.432364
0.0605309 -0.407357 -0.407357
0.0194547 -0.418968 -0.418968
0.0409231 -0.431885 -0.431885
0.0613533 -0.419773 -0.419773
0.0398712 -0.406881 -0.406881
0.0403989 -0.419296 -0.419296
0.0196852 -0.431555 -0.431555
0.0201382 -0.457249 -0.457249
0.063794 -0.458066 -0.458066
0.0621713 -0.432364 -0.432364
0.019913 -0.444315 -0.444315
0.041961 -0.457584 -0.457584
0.0629849 -0.445128 -0.445128
0.0409231 -0.431885 -0.431885
0.0414438 -0.444648 -0.444648
0.0201382 -0.457249 -0.457249
0.0205806 -0.483634 -0.483634
0.065399 -0.484459 -0.484459
0.063794 -0.458066 -0.458066
0.0203608 -0.470355 -0.470355
0.0429847 -0.483973 -0.483973
0.0645987 -0.471176 -0.471176
0.041961 -0.457584 -0.457584
0.0424747 -0.470692 -0.470692
0.0205806 -0.483634 -0.483634
0.0210123 -0.510705 -0.510705
0.066986 -0.511539 -0.511539
0.065399 -0.484459 -0.484459
0.0207978 -0.497084 -0.497084
0.0439941 -0.511049 -0.511049
0.0661947 -0.497914 -0.497914
0.0429847 -0.483973 -0.483973
0.0434912 -0.497426 -0.497426
0.0210123 -0.510705 -0.510705
0.0214331 -0.538459 -0.538459
0.068555 -0.539302 -0.539302
0.066986 -0.511539 -0.511539
0.0212241 -0.524497 -0.524497
0.044989 -0.538808 -0.538808
0.0677728 -0.525335 -0.525335
0.0439941 -0.511049 -0.511049
0.0444934 -0.524844 -0.524844
0.0214331 -0.538459 -0.538459
0.0218428 -0.566891 -0.566891
0.0701057 -0.567743 -0.567743
0.068555 -0.539302 -0.539302
0.0216393 -0.55259 -0.55259
0.0459692 -0.567245 -0.567245
0.0693326 -0.553438 -0.553438
0.044989 -0.538808 -0.538808
0.0454809 -0.552942 -0.552942
0.0218428 -0.566891 -0.566891
0.0222413 -0.595996 -0.595996
0.0716382 -0.596857 -0.596857
0.0701057 -0.567743 -0.567743
0.0220435 -0.58136 -0.58136
0.0469347 -0.596355 -0.596355
0.0708743 -0.582216 -0.582216
0.0459692 -0.567245 -0.567245
0.0464538 -0.581716 -0.581716
0.0222413 -0.595996 -0.595996
0.0226286 -0.625772 -0.625772
0.0731521 -0.626642 -0.626642
0.0716382 -0.596857 -0.596857
0.0224364 -0.610801 -0.610801
0.0478854 -0.626136 -0.626136
0.0723975 -0.611666 -0.611666
0.0469347 -0.596355 -0.596355
0.0474119 -0.611162 -0.611162
0.0226286 -0.625772 -0.625772
0.0230044 -0.656212 -0.656212
0.0746475 -0.657092 -0.657092
0.0731521 -0.626642 -0.626642
0.0228179 -0.640909 -0.640909
0.048821 -0.656581 -0.656581
0.0739022 -0.641784 -0.641784
0.0478854 -0.626136 -0.626136
0.0483551 -0.641276 -0.641276
0.0230044 -0.656212 -0.656212
0.0233687 -0.687314 -0.687314
0.0761242 -0.688204 -0.688204
0.0746475 -0.657092 -0.657092
0.023188 -0.67168 -0.67168
0.0497415 -0.687688 -0.687688
0.0753882 -0.672566 -0.672566
0.048821 -0.656581 -0.656581
0.0492831 -0.672053 -0.672053
0.0233687 -0.687314 -0.687314
0.0237213 -0.719072 -0.719072
0.0775821 -0.719972 -0.719972
0.0761242 -0.688204 -0.688204
0.0235464 -0.703111 -0.703111
0.0506467 -0.719452 -0.719452
0.0768555 -0.704006 -0.704006
0.0497415 -0.687688 -0.687688
0.050196 -0.703488 -0.703488
0.0237213 -0.719072 -0.719072
0.0240621 -0.751483 -0.751483
0.079021 -0.752393 -0.752393
0.0775821 -0.719972 -0.719972
0.0238931 -0.735196 -0.735196
0.0515366 -0.751869 -0.751869
0.0783039 -0.736101 -0.736101
0.0506467 -0.719452 -0.719452
0.0510936 -0.735579 -0.735579
0.0240621 -0.751483 -0.751483
0.024391 -0.784542 -0.784542
0.0804408 -0.785463 -0.785463
0.079021 -0.752393 -0.752393
0.024228 -0.767932 -0.767932
0.0524109 -0.784934 -0.784934
0.0797333 -0.768847 -0.768847
0.0515366 -0.751869 -0.751869
0.0519757 -0.768321 -0.768321
0.024391 -0.784542 -0.784542
0.0247079 -0.818246 -0.818246
0.0818415 -0.819177 -0.819177
0.0804408 -0.785463 -0.785463
0.0245509 -0.801314 -0.801314
0.0532697 -0.818643 -0.818643
0.0811436 -0.80224 -0.80224
0.0524109 -0.784934 -0.784934
0.0528423 -0.801708 -0.801708
0.0247079 -0.818246 -0.818246
0.0250126 -0.852589 -0.852589
0.0832229 -0.853531 -0.853531
0.0818415 -0.819177 -0.819177
0.0248618 -0.835338 -0.835338
0.0541129 -0.852992 -0.852992
0.0825346 -0.836275 -0.836275
0.0532697 -0.818643 -0.818643
0.0536933 -0.835738 -0.835738
0.0250126 -0.852589 -0.852589
0.0253052 -0.887568 -0.887568
0.0845849 -0.888521 -0.888521
0.0832229 -0.853531 -0.853531
0.0251604 -0.869999 -0.869999
0.0549402 -0.887977 -0.887977
0.0839064 -0.870947 -0.870947
0.0541129 -0.852992 -0.852992
0.0545285 -0.870405 -0.870405
0.0253052 -0.887568 -0.887568
0.0255854 -0.923178 -0.923178
0.0859275 -0.924143 -0.924143
0.0845849 -0.888521 -0.888521
0.0254469 -0.905294 -0.905294
0.0557516 -0.923593 -0.923593
0.0852587 -0.906253 -0.906253
0.0549402 -0.887977 -0.887977
0.0553479 -0.905706 -0.905706
0.0255854 -0.923178 -0.923178
0.0258533 -0.959415 -0.959415
0.0872505 -0.960391 -0.960391
0.0859275 -0.924143 -0.924143
0.0257209 -0.941219 -0.941219
0.056547 -0.959837 -0.959837
0.0865914 -0.942189 -0.942189
0.0557516 -0.923593 -0.923593
0.0561513 -0.941637 -0.941637
0.0258533 -0.959415 -0.959415
0.0261086 -0.996276 -0.996276
0.0885538 -0.997263 -0.997263
0.0872505 -0.960391 -0.960391
0.0259825 -0.977768 -0.977768
0.0573263 -0.996703 -0.996703
0.0879046 -0.97875 -0.97875
0.056547 -0.959837 -0.959837
0.0569387 -0.978192 -0.978192
0.0261086 -0.996276 -0.996276
0.0263513 -1.03375 -1.03375
0.0898374 -1.03475 -1.03475
0.0885538 -0.997263 -0.997263
0.0262315 -1.01494 -1.01494
0.0580894 -1.03419 -1.03419
0.0891981 -1.01593 -1.01593
0.0573263 -0.996703 -0.996703
0.0577099 -1.01537 -1.01537
0.0263513 -1.03375 -1.03375
0.0265813 -1.07185 -1.07185
0.0911011 -1.07286 -1.07286
0.0898374 -1.03475 -1.03475
0.0264679 -1.05272 -1.05272
0.0588363 -1.07229 -1.07229
0.0904717 -1.05373 -1.05373
0.0580894 -1.03419 -1.03419
0.0584649 -1.05316 -1.05316
0.0265813 -1.07185 -1.07185
0.0267986 -1.11055 -1.11055
0.0923449 -1.11157 -1.11157
0.0911011 -1.07286 -1.07286
0.0266915 -1.09112 -1.09112
0.0595669 -1.111 -1.111
0.0917255 -1.09214 -1.09214
0.0588363 -1.07229 -1.07229
0.0592036 -1.09157 -1.09157
0.0267986 -1.11055 -1.11055
0.027003 -1.14986 -1.14986
0.0935686 -1.1509 -1.1509
0.0923449 -1.11157 -1.11157
0.0269024 -1.13013 -1.13013
0.060281 -1.15031 -1.15031
0.0929593 -1.13116 -1.13116
0.0595669 -1.111 -1.111
0.059926 -1.13058 -1.13058
0.027003 -1.14986 -1.14986
0.0271944 -1.18977 -1.18977
0.0947723 -1.19082 -1.19082
0.0935686 -1.1509 -1.1509
0.0271003 -1.16974 -1.16974
0.0609785 -1.19023 -1.19023
0.094173 -1.17078 -1.17078
0.060281 -1.15031 -1.15031
0.0606318 -1.1702 -1.1702
0.0271944 -1.18977 -1.18977
0.0273729 -1.23028 -1.23028
0.0959558 -1.23134 -1.23134
0.0947723 -1.19082 -1.19082
0.0272853 -1.20995 -1.20995
0.0616595 -1.23075 -1.23075
0.0953666 -1.211 -1.211
0.0609785 -1.19023 -1.19023
0.0613211 -1.21041 -1.21041
0.0273729 -1.23028 -1.23028
0.0275383 -1.27138 -1.27138
0.0971191 -1.27245 -1.27245
0.0959558 -1.23134 -1.23134
0.0274572 -1.25076 -1.25076
0.0623239 -1.27185 -1.27185
0.09654 -1.25182 -1.25182
0.0616595 -1.23075 -1.23075
0.0619938 -1.25123 -1.25123
0.0275383 -1.27138 -1.27138
0.0276905 -1.31307 -1.31307
0.0982621 -1.31416 -1.31416
0.0971191 -1.27245 -1.27245
0.027616 -1.29215 -1.29215
0.0629715 -1.31355 -1.31355
0.0976932 -1.29323 -1.29323
0.0623239 -1.27185 -1.27185
0.0626498 -1.29263 -1.29263
0.0276905 -1.31307 -1.31307
0.0278295 -1.35535 -1.35535
0.0993847 -1.35644 -1.35644
0.0982621 -1.31416 -1.31416
0.0277617 -1.33414 -1.33414
0.0636023 -1.35583 -1.35583
0.098826 -1.33523 -1.33523
0.0629715 -1.31355 -1.31355
0.063289 -1.33462 -1.33462
0.0278295 -1.35535 -1.35535
0.0279553 -1.3982 -1.3982
0.100487 -1.39931 -1.39931
0.0993847 -1.35644 -1.35644
0.0278941 -1.3767 -1.3767
0.0642163 -1.3987 -1.3987
0.0999384 -1.37781 -1.37781
0.0636023 -1.35583 -1.35583
0.0639114 -1.37719 -1.37719
0.0279553 -1.3982 -1.3982
0.0280677 -1.44164 -1.44164
0.101569 -1.44276 -1.44276
0.100487 -1.39931 -1.39931
0.0280132 -1.41985 -1.41985
0.0648133 -1.44214 -1.44214
0.10103 -1.42096 -1.42096
0.0642163 -1.3987 -1.3987
0.0645169 -1.42034 -1.42034
0.0280677 -1.44164 -1.44164
0.0281667 -1.48564 -1.48564
0.10263 -1.48678 -1.48678
0.101569 -1.44276 -1.44276
0.0281189 -1.46357 -1.46357
0.0653934 -1.48615 -1.48615
0.102102 -1.4647 -1.4647
0.0648133 -1.44214 -1.44214
0.0651055 -1.46407 -1.46407
0.0281667 -1.48564 -1.48564
0.0282523 -1.53021 -1.53021
0.10367 -1.53136 -1.53136
0.10263 -1.48678 -1.48678
0.0282112 -1.50785 -1.50785
0.0659565 -1.53073 -1.53073
0.103153 -1.509 -1.509
0.0653934 -1.48615 -1.48615
0.0656771 -1.50837 -1.50837
0.0282523 -1.53021 -1.53021
0.0283243 -1.57535 -1.57535
0.10469 -1.57651 -1.57651
0.10367 -1.53136 -1.53136
0.02829 -1.55271 -1.55271
0.0665024 -1.57587 -1.57587
0.104183 -1.55386 -1.55386
0.0659565 -1.53073 -1.53073
0.0662316 -1.55323 -1.55323
0.0283243 -1.57535 -1.57535
0.0283828 -1.62104 -1.62104
0.105689 -1.62222 -1.62222
0.10469 -1.57651 -1.57651
0.0283553 -1.59812 -1.59812
0.0670313 -1.62157 -1.62157
0.105192 -1.59929 -1.59929
0.0665024 -1.57587 -1.57587
0.066769 -1.59865 -1.59865
0.0283828 -1.62104 -1.62104
0.0284277 -1.66729 -1.66729
0.106668 -1.66848 -1.66848
0.105689 -1.62222 -1.62222
0.028407 -1.6441 -1.6441
0.0675429 -1.66783 -1.66783
0.106181 -1.64528 -1.64528
0.0670313 -1.62157 -1.62157
0.0672893 -1.64463 -1.64463
0.0284277 -1.66729 -1.66729
0.028459 -1.71409 -1.71409
0.107625 -1.71529 -1.71529
0.106668 -1.66848 -1.66848
0.0284451 -1.69062 -1.69062
0.0680374 -1.71463 -1.71463
0.107149 -1.69182 -1.69182
0.0675429 -1.66783 -1.66783
0.0677923 -1.69116 -1.69116
0.028459 -1.71409 -1.71409
0.0284766 -1.76144 -1.76144
0.108562 -1.76265 -1.76265
0.107625 -1.71529 -1.71529
0.0284695 -1.7377 -1.7377
0.0685146 -1.76199 -1.76199
0.108096 -1.7389 -1.7389
0.0680374 -1.71463 -1.71463
0.0682781 -1.73824 -1.73824
0.0284766 -1.76144 -1.76144
0.0284805 -1.80933 -1.80933
0.109478 -1.81056 -1.81056
0.108562 -1.76265 -1.76265
0.0284802 -1.78531 -1.78531
0.0689744 -1.80988 -1.80988
0.109023 -1.78654 -1.78654
0.0685146 -1.76199 -1.76199
0.0687467 -1.78587 -1.78587
0.0284805 -1.80933 -1.80933
0.0284706 -1.85775 -1.85775
0.110373 -1.859 -1.859
0.109478 -1.81056 -1.81056
0.0284772 -1.83347 -1.83347
0.069417 -1.85832 -1.85832
0.109928 -1.83471 -1.83471
0.0689744 -1.80988 -1.80988
0.0691979 -1.83403 -1.83403
0.0284706 -1.85775 -1.85775
0.0284469 -1.90671 -1.90671
0.111247 -1.90797 -1.90797
0.110373 -1.859 -1.859
0.0284605 -1.88217 -1.88217
0.0698422 -1.90729 -1.90729
0.110813 -1.88342 -1.88342
0.069417 -1.85832 -1.85832
0.0696318 -1.88274 -1.88274
0.0284469 -1.90671 -1.90671
0.0284094 -1.95621 -1.95621
0.1121 -1.95747 -1.95747
0.111247 -1.90797 -1.90797
0.0284299 -1.93139 -1.93139
0.07025 -1.95678 -1.95678
0.111676 -1.93266 -1.93266
0.0698422 -1.90729 -1.90729
0.0700483 -1.93197 -1.93197
0.0284094 -1.95621 -1.95621
0.0283581 -2.00622 -2.00622
0.112932 -2.0075 -2.0075
0.1121 -1.95747 -1.95747
0.0283855 -1.98115 -1.98115
0.0706403 -2.00681 -2.00681
0.112519 -1.98242 -1.98242
0.07025 -1.95678 -1.95678
0.0704473 -1.98173 -1.98173
0.0283581 -2.00622 -2.00622
0.0282929 -2.05676 -2.05676
0.113743 -2.05805 -2.05805
0.112932 -2.0075 -2.0075
0.0283272 -2.03142 -2.03142
0.0710133 -2.05735 -2.05735
0.11334 -2.03271 -2.03271
0.0706403 -2.00681 -2.00681
0.070829 -2.03201 -2.03201
0.0282929 -2.05676 -2.05676
0.0282138 -2.10781 -2.10781
0.114533 -2.10912 -2.10912
0.113743 -2.05805 -2.05805
0.0282551 -2.08222 -2.08222
0.0713687 -2.10841 -2.10841
0.114141 -2.08352 -2.08352
0.0710133 -2.05735 -2.05735
0.0711932 -2.08282 -2.08282
0.0282138 -2.10781 -2.10781
0.0281208 -2.15938 -2.15938
0.115302 -2.1607 -2.1607
0.114533 -2.10912 -2.10912
0.028169 -2.13353 -2.13353
0.0717067 -2.15999 -2.15999
0.11492 -2.13485 -2.13485
0.0713687 -2.10841 -2.10841
0.0715399 -2.13413 -2.13413
0.0281208 -2.15938 -2.15938
0.0280138 -2.21145 -2.21145
0.11605 -2.21279 -2.21279
0.115302 -2.1607 -2.1607
0.028069 -2.18535 -2.18535
0.0720271 -2.21207 -2.21207
0.115679 -2.18668 -2.18668
0.0717067 -2.15999 -2.15999
0.0718691 -2.18596 -2.18596
0.0280138 -2.21145 -2.21145
0.027893 -2.26403 -2.26403
0.116777 -2.26538 -2.26538
0.11605 -2.21279 -2.21279
0.0279551 -2.23768 -2.23768
0.0723301 -2.26465 -2.26465
0.116416 -2.23902 -2.23902
0.0720271 -2.21207 -2.21207
0.0721808 -2.2383 -2.2383
0.027893 -2.26403 -2.26403
0.0277581 -2.31711 -2.31711
0.117482 -2.31848 -2.31848
0.116777 -2.26538 -2.26538
0.0278273 -2.29051 -2.29051
0.0726155 -2.31774 -2.31774
0.117132 -2.29187 -2.29187
0.0723301 -2.26465 -2.26465
0.072475 -2.29113 -2.29113
0.0277581 -2.31711 -2.31711
0.0276093 -2.37068 -2.37068
0.118167 -2.37206 -2.37206
0.117482 -2.31848 -2.31848
0.0276855 -2.34384 -2.34384
0.0728833 -2.37132 -2.37132
0.117827 -2.34521 -2.34521
0.0726155 -2.31774 -2.31774
0.0727516 -2.34447 -2.34447
0.0276093 -2.37068 -2.37068
0.0274466 -2.42475 -2.42475
0.11883 -2.42614 -2.42614
0.118167 -2.37206 -2.37206
0.0275297 -2.39766 -2.39766
0.0731336 -2.42539 -2.42539
0.118501 -2.39904 -2.39904
0.0728833 -2.37132 -2.37132
0.0730107 -2.3983 -2.3983
0.0274466 -2.42475 -2.42475
0.0272699 -2.4793 -2.4793
0.119472 -2.48071 -2.48071
0.11883 -2.42614 -2.42614
0.02736 -2.45197 -2.45197
0.0733664 -2.47995 -2.47995
0.119154 -2.45337 -2.45337
0.0731336 -2.42539 -2.42539
0.0732522 -2.45261 -2.45261
0.0272699 -2.4793 -2.4793
0.0270791 -2.53434 -2.53434
0.120094 -2.53576 -2.53576
0.119472 -2.48071 -2.48071
0.0271762 -2.50676 -2.50676
0.0735816 -2.535 -2.535
0.119786 -2.50817 -2.50817
0.0733664 -2.47995 -2.47995
0.0734762 -2.50742 -2.50742
0.0270791 -2.53434 -2.53434
0.0268745 -2.58985 -2.58985
0.120694 -2.59129 -2.59129
0.120094 -2.53576 -2.53576
0.0269785 -2.56204 -2.56204
0.0737793 -2.59052 -2.59052
0.120396 -2.56346 -2.56346
0.0735816 -2.535 -2.535
0.0736827 -2.5627 -2.5627
0.0268745 -2.58985 -2.58985
0.0266558 -2.64584 -2.64584
0.121272 -2.64729 -2.64729
0.120694 -2.59129 -2.59129
0.0267669 -2.61779 -2.61779
0.0739594 -2.64652 -2.64652
0.120986 -2.61923 -2.61923
0.0737793 -2.59052 -2.59052
0.0738715 -2.61846 -2.61846
0.0266558 -2.64584 -2.64584
0.0264232 -2.7023 -2.7023
0.12183 -2.70376 -2.70376
0.121272 -2.64729 -2.64729
0.0265412 -2.67401 -2.67401
0.074122 -2.70298 -2.70298
0.121554 -2.67547 -2.67547
0.0739594 -2.64652 -2.64652
0.0740429 -2.67469 -2.67469
0.0264232 -2.7023 -2.7023
0.0261766 -2.75922 -2.75922
0.122367 -2.7607 -2.7607
0.12183 -2.70376 -2.70376
0.0263016 -2.7307 -2.7307
0.074267 -2.75991 -2.75991
0.122101 -2.73217 -2.73217
0.074122 -2.70298 -2.70298
0.0741967 -2.73139 -2.73139
0.0261766 -2.75922 -2.75922
0.0259161 -2.81661 -2.81661
0.122882 -2.8181 -2.8181
0.122367 -2.7607 -2.7607
0.0260481 -2.78786 -2.78786
0.0743945 -2.81731 -2.81731
0.122627 -2.78934 -2.78934
0.074267 -2.75991 -2.75991
0.0743329 -2.78855 -2.78855
0.0259161 -2.81661 -2.81661
0.0256416 -2.87446 -2.87446
0.123377 -2.87596 -2.87596
0.122882 -2.8181 -2.8181
0.0257806 -2.84548 -2.84548
0.0745045 -2.87516 -2.87516
0.123132 -2.84697 -2.84697
0.0743945 -2.81731 -2.81731
0.0744517 -2.84618 -2.84618
0.0256416 -2.87446 -2.87446
0.0253532 -2.93275 -2.93275
0.12385 -2.93427 -2.93427
0.123377 -2.87596 -2.87596
0.0254992 -2.90355 -2.90355
0.074597 -2.93346 -2.93346
0.123616 -2.90506 -2.90506
0.0745045 -2.87516 -2.87516
0.0745529 -2.90426 -2.90426
0.0253532 -2.93275 -2.93275
0.0250509 -2.9915 -2.9915
0.124303 -2.99303 -2.99303
0.12385 -2.93427 -2.93427
0.0252038 -2.96207 -2.96207
0.074672 -2.99222 -2.99222
0.124079 -2.9636 -2.9636
0.074597 -2.93346 -2.93346
0.0746367 -2.96278 -2.96278
0.0250509 -2.9915 -2.9915
0.0247347 -3.05069 -3.05069
0.124734 -3.05224 -3.05224
0.124303 -2.99303 -2.99303
0.0248946 -3.02104 -3.02104
0.0747295 -3.05142 -3.05142
0.124521 -3.02258 -3.02258
0.074672 -2.99222 -2.99222
0.0747029 -3.02176 -3.02176
0.0247347 -3.05069 -3.05069
0.0244047 -3.11032 -3.11032
0.125144 -3.11188 -3.11188
0.124734 -3.05224 -3.05224
0.0245715 -3.08045 -3.08045
0.0747696 -3.11105 -3.11105
0.124942 -3.082 -3.082
0.0747295 -3.05142 -3.05142
0.0747517 -3.08118 -3.08118
0.0244047 -3.11032 -3.11032
0.0240608 -3.17039 -3.17039
0.125533 -3.17196 -3.17196
0.125144 -3.11188 -3.11188
0.0242345 -3.1403 -3.1403
0.0747923 -3.17113 -3.17113
0.125341 -3.14187 -3.14187
0.0747696 -3.11105 -3.11105
0.0747831 -3.14104 -3.14104
0.0240608 -3.17039 -3.17039
0.0237031 -3.23089 -3.23089
0.125902 -3.23248 -3.23248
0.125533 -3.17196 -3.17196
0.0238837 -3.20059 -3.20059
0.0747976 -3.23164 -3.23164
0.12572 -3.20217 -3.20217
0.0747923 -3.17113 -3.17113
0.0747971 -3.20133 -3.20133
0.0237031 -3.23089 -3.23089
0.0233316 -3.29182 -3.29182
0.126249 -3.29342 -3.29342
0.125902 -3.23248 -3.23248
0.0235191 -3.2613 -3.2613
0.0747855 -3.29257 -3.29257
0.126078 -3.26289 -3.26289
0.0747976 -3.23164 -3.23164
0.0747937 -3.26205 -3.26205
0.0233316 -3.29182 -3.29182
0.0229464 -3.35317 -3.35317
0.126575 -3.35478 -3.35478
0.126249 -3.29342 -3.29342
0.0231407 -3.32244 -3.32244
0.0747561 -3.35393 -3.35393
0.126415 -3.32405 -3.32405
0.0747855 -3.29257 -3.29257
0.074773 -3.3232 -3.3232
0.0229464 -3.35317 -3.35317
0.0225474 -3.41494 -3.41494
0.126881 -3.41657 -3.41657
0.126575 -3.35478 -3.35478
0.0227486 -3.384 -3.384
0.0747094 -3.41571 -3.41571
0.126731 -3.38562 -3.38562
0.0747561 -3.35393 -3.35393
0.0747349 -3.38477 -3.38477
0.0225474 -3.41494 -3.41494
0.0221348 -3.47712 -3.47712
0.127166 -3.47876 -3.47876
0.126881 -3.41657 -3.41657
0.0223428 -3.44598 -3.44598
0.0746454 -3.4779 -3.4779
0.127026 -3.44761 -3.44761
0.0747094 -3.41571 -3.41571
0.0746796 -3.44675 -3.44675
0.0221348 -3.47712 -3.47712
0.0217085 -3.53972 -3.53972
0.12743 -3.54137 -3.54137
0.127166 -3.47876 -3.47876
0.0219233 -3.50837 -3.50837
0.0745642 -3.5405 -3.5405
0.1273 -3.51002 -3.51002
0.0746454 -3.4779 -3.4779
0.074607 -3.50915 -3.50915
0.0217085 -3.53972 -3.53972
0.0212685 -3.60272 -3.60272
0.127673 -3.60439 -3.60439
0.12743 -3.54137 -3.54137
0.0214902 -3.57117 -3.57117
0.0744658 -3.60351 -3.60351
0.127554 -3.57283 -3.57283
0.0745642 -3.5405 -3.5405
0.0745172 -3.57196 -3.57196
0.0212685 -3.60272 -3.60272
0.020815 -3.66613 -3.66613
0.127895 -3.66781 -3.66781
0.127673 -3.60439 -3.60439
0.0210435 -3.63438 -3.63438
0.0743503 -3.66693 -3.66693
0.127786 -3.63605 -3.63605
0.0744658 -3.60351 -3.60351
0.0744102 -3.63517 -3.63517
0.020815 -3.66613 -3.66613
0.020348 -3.72993 -3.72993
0.128097 -3.73162 -3.73162
0.127895 -3.66781 -3.66781
0.0205832 -3.69798 -3.69798
0.0742176 -3.73074 -3.73074
0.127998 -3.69967 -3.69967
0.0743503 -3.66693 -3.66693
0.0742861 -3.69878 -3.69878
0.020348 -3.72993 -3.72993
0.0198675 -3.79413 -3.79413
0.128278 -3.79583 -3.79583
0.128097 -3.73162 -3.73162
0.0201094 -3.76198 -3.76198
0.0740679 -3.79494 -3.79494
0.12819 -3.76368 -3.76368
0.0742176 -3.73074 -3.73074
0.0741449 -3.76279 -3.76279
0.0198675 -3.79413 -3.79413
0.0193735 -3.85872 -3.85872
0.128438 -3.86043 -3.86043
0.128278 -3.79583 -3.79583
0.0196222 -3.82637 -3.82637
0.0739011 -3.85953 -3.85953
0.128361 -3.82809 -3.82809
0.0740679 -3.79494 -3.79494
0.0739866 -3.82719 -3.82719
0.0193735 -3.85872 -3.85872
0.0188662 -3.92369 -3.92369
0.128578 -3.92542 -3.92542
0.128438 -3.86043 -3.86043
0.0191215 -3.89115 -3.89115
0.0737174 -3.92451 -3.92451
0.128511 -3.89288 -3.89288
0.0739011 -3.85953 -3.85953
0.0738114 -3.89198 -3.89198
0.0188662 -3.92369 -3.92369
0.0183455 -3.98904 -3.98904
0.128698 -3.99079 -3.99079
0.128578 -3.92542 -3.92542
0.0186075 -3.95632 -3.95632
0.0735168 -3.98987 -3.98987
0.128641 -3.95806 -3.95806
0.0737174 -3.92451 -3.92451
0.0736192 -3.95715 -3.95715
0.0183455 -3.98904 -3.98904
0.0178115 -4.05477 -4.05477
0.128797 -4.05653 -4.05653
0.128698 -3.99079 -3.99079
0.0180801 -4.02186 -4.02186
0.0732992 -4.05561 -4.05561
0.12875 -4.02361 -4.02361
0.0735168 -3.98987 -3.98987
0.0734101 -4.02269 -4.02269
0.0178115 -4.05477 -4.05477
0.0172642 -4.12087 -4.12087
0.128875 -4.12264 -4.12264
0.128797 -4.05653 -4.05653
0.0175395 -4.08778 -4.08778
0.0730649 -4.12172 -4.12172
0.128839 -4.08954 -4.08954
0.0732992 -4.05561 -4.05561
0.0731842 -4.08862 -4.08862
0.0172642 -4.12087 -4.12087
0.0167038 -4.18734 -4.18734
0.128934 -4.18913 -4.18913
0.128875 -4.12264 -4.12264
0.0169857 -4.15406 -4.15406
0.0728139 -4.1882 -4.1882
0.128907 -4.15584 -4.15584
0.0730649 -4.12172 -4.12172
0.0729415 -4.15491 -4.15491
0.0167038 -4.18734 -4.18734
0.0161303 -4.25418 -4.25418
0.128972 -4.25598 -4.25598
0.128934 -4.18913 -4.18913
0.0164187 -4.22072 -4.22072
0.0725461 -4.25504 -4.25504
0.128955 -4.22251 -4.22251
0.0728139 -4.1882 -4.1882
0.072682 -4.22157 -4.22157
0.0161303 -4.25418 -4.25418
0.0155437 -4.32138 -4.32138
0.128989 -4.32318 -4.32318
0.128972 -4.25598 -4.25598
0.0158386 -4.28773 -4.28773
0.0722617 -4.32224 -4.32224
0.128983 -4.28954 -4.28954
0.0725461 -4.25504 -4.25504
0.0724059 -4.2886 -4.2886
0.0155437 -4.32138 -4.32138
0.0149441 -4.38893 -4.38893
0.128987 -4.39075 -4.39075
0.128989 -4.32318 -4.32318
0.0152455 -4.35511 -4.35511
0.0719607 -4.3898 -4.3898
0.128991 -4.35692 -4.35692
0.0722617 -4.32224 -4.32224
0.0721132 -4.35598 -4.35598
0.0149441 -4.38893 -4.38893
0.0143316 -4.45683 -4.45683
0.128964 -4.45866 -4.45866
0.128987 -4.39075 -4.39075
0.0146395 -4.42283 -4.42283
0.0716432 -4.45771 -4.45771
0.128978 -4.42466 -4.42466
0.0719607 -4.3898 -4.3898
0.071804 -4.42371 -4.42371
0.0143316 -4.45683 -4.45683
0.0137062 -4.52508 -4.52508
0.128922 -4.52692 -4.52692
0.128964 -4.45866 -4.45866
0.0140205 -4.49091 -4.49091
0.0713092 -4.52596 -4.52596
0.128946 -4.49275 -4.49275
0.0716432 -4.45771 -4.45771
0.0714782 -4.49179 -4.49179
0.0137062 -4.52508 -4.52508
0.013068 -4.59367 -4.59367
0.128859 -4.59553 -4.59553
0.128922 -4.52692 -4.52692
0.0133887 -4.55933 -4.55933
0.0709588 -4.59456 -4.59456
0.128893 -4.56118 -4.56118
0.0713092 -4.52596 -4.52596
0.0711361 -4.56022 -4.56022
0.013068 -4.59367 -4.59367
0.012417 -4.6626 -4.6626
0.128777 -4.66447 -4.66447
0.128859 -4.59553 -4.59553
0.0127441 -4.6281 -4.6281
0.0705922 -4.6635 -4.6635
0.128821 -4.62996 -4.62996
0.0709588 -4.59456 -4.59456
0.0707776 -4.62899 -4.62899
0.012417 -4.6626 -4.6626
0.0117534 -4.73187 -4.73187
0.128675 -4.73375 -4.73375
0.128777 -4.66447 -4.66447
0.0120868 -4.6972 -4.6972
0.0702093 -4.73277 -4.73277
0.128729 -4.69907 -4.69907
0.0705922 -4.6635 -4.6635
0.0704028 -4.6981 -4.6981
0.0117534 -4.73187 -4.73187
0.0110772 -4.80147 -4.80147
0.128553 -4.80336 -4.80336
0.128675 -4.73375 -4.73375
0.0114168 -4.76663 -4.76663
0.0698102 -4.80238 -4.80238
0.128616 -4.76851 -4.76851
0.0702093 -4.73277 -4.73277
0.0700118 -4.76753 -4.76753
0.0110772 -4.80147 -4.80147
0.0103884 -4.87139 -4.87139
0.128411 -4.87329 -4.87329
0.128553 -4.80336 -4.80336
0.0107344 -4.83639 -4.83639
0.069395 -4.87231 -4.87231
0.128485 -4.83828 -4.83828
0.0698102 -4.80238 -4.80238
0.0696046 -4.8373 -4.8373
0.0103884 -4.87139 -4.87139
0.00968724 -4.94163 -4.94163
0.12825 -4.94355 -4.94355
0.128411 -4.87329 -4.87329
0.0100394 -4.90647 -4.90647
0.0689638 -4.94256 -4.94256
0.128333 -4.90838 -4.90838
0.069395 -4.87231 -4.87231
0.0691814 -4.90739 -4.90739
0.00968724 -4.94163 -4.94163
0.00897369 -5.0122 -5.0122
0.12807 -5.01412 -5.01412
0.12825 -4.94355 -4.94355
0.00933201 -4.97687 -4.97687
0.0685167 -5.01312 -5.01312
0.128162 -4.97879 -4.97879
0.0689638 -4.94256 -4.94256
0.0687423 -4.9778 -4.9778
0.00897369 -5.0122 -5.0122
0.00824784 -5.08307 -5.08307
0.127869 -5.08501 -5.08501
0.12807 -5.01412 -5.01412
0.00861229 -5.04759 -5.04759
0.0680537 -5.08401 -5.08401
0.127972 -5.04952 -5.04952
0.0685167 -5.01312 -5.01312
0.0682872 -5.04853 -5.04853
0.00824784 -5.08307 -5.08307
0.00750978 -5.15425 -5.15425
0.12765 -5.1562 -5.1562
0.127869 -5.08501 -5.08501
0.00788033 -5.11862 -5.11862
0.0675749 -5.1552 -5.1552
0.127762 -5.12057 -5.12057
0.0680537 -5.08401 -5.08401
0.0678162 -5.11956 -5.11956
0.00750978 -5.15425 -5.15425
0.00675959 -5.22574 -5.22574
0.127411 -5.2277 -5.2277
0.12765 -5.1562 -5.1562
0.00713619 -5.18996 -5.18996
0.0670804 -5.22669 -5.22669
0.127533 -5.19191 -5.19191
0.0675749 -5.1552 -5.1552
0.0673296 -5.1909 -5.1909
0.00675959 -5.22574 -5.22574
0.00599735 -5.29753 -5.29753
0.127153 -5.2995 -5.2995
0.127411 -5.2277 -5.2277
0.00637997 -5.2616 -5.2616
0.0665702 -5.29849 -5.29849
0.127284 -5.26356 -5.26356
0.0670804 -5.22669 -5.22669
0.0668272 -5.26255 -5.26255
0.00599735 -5.29753 -5.29753
0.00522314 -5.36962 -5.36962
0.126876 -5.3716 -5.3716
0.127153 -5.2995 -5.2995
0.00561173 -5.33354 -5.33354
0.0660446 -5.37058 -5.37058
0.127017 -5.33551 -5.33551
0.0665702 -5.29849 -5.29849
0.0663093 -5.33449 -5.33449
0.00522314 -5.36962 -5.36962
0.00443706 -5.442 -5.442
0.12658 -5.44399 -5.44399
0.126876 -5.3716 -5.3716
0.00483158 -5.40577 -5.40577
0.0655034 -5.44296 -5.44296
0.12673 -5.40776 -5.40776
0.0660446 -5.37058 -5.37058
0.0657759 -5.40673 -5.40673
0.00443706 -5.442 -5.442
0.00363919 -5.51466 -5.51466
0.126265 -5.51666 -5.51666
0.12658 -5.44399 -5.44399
0.00403959 -5.4783 -5.4783
0.0649469 -5.51563 -5.51563
0.126425 -5.48029 -5.48029
0.0655034 -5.44296 -5.44296
0.0652271 -5.47926 -5.47926
0.00363919 -5.51466 -5.51466
0.00282962 -5.58761 -5.58761
0.125931 -5.58962 -5.58962
0.126265 -5.51666 -5.51666
0.00323586 -5.5511 -5.5511
0.0643752 -5.58859 -5.58859
0.1261 -5.55311 -5.55311
0.0649469 -5.51563 -5.51563
0.064663 -5.55208 -5.55208
0.00282962 -5.58761 -5.58761
0.00200843 -5.66084 -5.66084
0.125578 -5.66286 -5.66286
0.125931 -5.58962 -5.58962
0.00242047 -5.62419 -5.62419
0.0637882 -5.66182 -5.66182
0.125757 -5.62621 -5.62621
0.0643752 -5.58859 -5.58859
0.0640836 -5.62517 -5.62517
0.00200843 -5.66084 -5.66084
0.00117573 -5.73435 -5.73435
0.125207 -5.73638 -5.73638
0.125578 -5.66286 -5.66286
0.00159352 -5.69756 -5.69756
0.0631862 -5.73533 -5.73533
0.125395 -5.69959 -5.69959
0.0637882 -5.66182 -5.66182
0.0634891 -5.69854 -5.69854
0.00117573 -5.73435 -5.73435
0.000331602 -5.80812 -5.80812
0.124817 -5.81016 -5.81016
0.125207 -5.73638 -5.73638
0.000755089 -5.7712 -5.7712
0.0625691 -5.80911 -5.80911
0.125014 -5.77324 -5.77324
0.0631862 -5.73533 -5.73533
0.0628795 -5.77219 -5.77219
0.000331602 -5.80812 -5.80812
-0.000523859 -5.88217 -5.88217
0.124408 -5.88421 -5.88421
0.124817 -5.81016 -5.81016
-9.47181e-05 -5.84511 -5.84511
0.0619371 -5.88316 -5.88316
0.124615 -5.84715 -5.84715
0.0625691 -5.80911 -5.80911
0.062255 -5.8461 -5.8461
-0.000523859 -5.88217 -5.88217
-0.00139056 -5.95647 -5.95647
0.123981 -5.95853 -5.95853
0.124408 -5.88421 -5.88421
-0.000955809 -5.91929 -5.91929
0.0612904 -5.95747 -5.95747
0.124197 -5.92134 -5.92134
0.0619371 -5.88316 -5.88316
0.0616156 -5.92028 -5.92028
-0.00139056 -5.95647 -5.95647
-0.00226839 -6.03103 -6.03103
0.123536 -6.0331 -6.0331
0.123981 -5.95853 -5.95853
-0.00182809 -5.99372 -5.99372
0.0606289 -6.03204 -6.03204
0.123761 -5.99578 -5.99578
0.0612904 -5.95747 -5.95747
0.0609614 -5.99472 -5.99472
-0.00226839 -6.03103 -6.03103
-0.00315727 -6.10585 -6.10585
0.123073 -6.10792 -6.10792
0.123536 -6.0331 -6.0331
-0.00271146 -6.06841 -6.06841
0.0599528 -6.10686 -6.10686
0.123307 -6.07048 -6.07048
0.0606289 -6.03204 -6.03204
0.0602926 -6.06942 -6.06942
-0.00315727 -6.10585 -6.10585
-0.00405709 -6.18092 -6.18092
0.122592 -6.183 -6.183
0.123073 -6.10792 -6.10792
-0.00360582 -6.14335 -6.14335
0.0592621 -6.18193 -6.18193
0.122834 -6.14543 -6.14543
0.0599528 -6.10686 -6.10686
0.0596093 -6.14436 -6.14436
-0.00405709 -6.18092 -6.18092
-0.00496774 -6.25623 -6.25623
0.122092 -6.25832 -6.25832
0.122592 -6.183 -6.183
-0.00451107 -6.21854 -6.21854
0.0585571 -6.25725 -6.25725
0.122344 -6.22063 -6.22063
0.0592621 -6.18193 -6.18193
0.0589114 -6.21956 -6.21956
-0.00496774 -6.25623 -6.25623
-0.00588914 -6.33178 -6.33178
0.121575 -6.33388 -6.33388
0.122092 -6.25832 -6.25832
-0.0054271 -6.29398 -6.29398
0.0578377 -6.33281 -6.33281
0.121836 -6.29607 -6.29607
0.0585571 -6.25725 -6.25725
0.0581992 -6.295 -6.295
-0.00588914 -6.33178 -6.33178
-0.00682117 -6.40757 -6.40757
0.12104 -6.40968 -6.40968
0.121575 -6.33388 -6.33388
-0.00635383 -6.36965 -6.36965
0.0571042 -6.4086 -6.4086
0.12131 -6.37175 -6.37175
0.0578377 -6.33281 -6.33281
0.0574727 -6.37067 -6.37067
-0.00682117 -6.40757 -6.40757
-0.00776373 -6.4836 -6.4836
0.120487 -6.48571 -6.48571
0.12104 -6.40968 -6.40968
-0.00729114 -6.44556 -6.44556
0.0563565 -6.48463 -6.48463
0.120766 -6.44767 -6.44767
0.0571042 -6.4086 -6.4086
0.0567321 -6.44659 -6.44659
-0.00776373 -6.4836 -6.4836
-0.00871671 -6.55985 -6.55985
0.119917 -6.56197 -6.56197
0.120487 -6.48571 -6.48571
-0.00823892 -6.52169 -6.52169
0.0555948 -6.56089 -6.56089
0.120204 -6.52381 -6.52381
0.0563565 -6.48463 -6.48463
0.0559774 -6.52273 -6.52273
-0.00871671 -6.55985 -6.55985
-0.00968002 -6.63632 -6.63632
0.119329 -6.63846 -6.63846
0.119917 -6.56197 -6.56197
-0.00919708 -6.59806 -6.59806
0.0548193 -6.63737 -6.63737
0.119625 -6.60019 -6.60019
0.0555948 -6.56089 -6.56089
0.0552088 -6.5991 -6.5991
-0.00968002 -6.63632 -6.63632
-0.0106535 -6.71302 -6.71302
0.118724 -6.71516 -6.71516
0.119329 -6.63846 -6.63846
-0.0101655 -6.67465 -6.67465
0.0540299 -6.71407 -6.71407
0.119028 -6.67678 -6.67678
0.0548193 -6.63737 -6.63737
0.0544263 -6.67569 -6.67569
-0.0106535 -6.71302 -6.71302
-0.0116371 -6.78993 -6.78993
0.118101 -6.79208 -6.79208
0.118724 -6.71516 -6.71516
-0.0111441 -6.75145 -6.75145
0.0532269 -6.79098 -6.79098
0.118415 -6.75359 -6.75359
0.0540299 -6.71407 -6.71407
0.0536301 -6.7525 -6.7525
-0.0116371 -6.78993 -6.78993
-0.0126307 -6.86706 -6.86706
0.117462 -6.86921 -6.86921
0.118101 -6.79208 -6.79208
-0.0121327 -6.82847 -6.82847
0.0524103 -6.86811 -6.86811
0.117784 -6.83062 -6.83062
0.0532269 -6.79098 -6.79098
0.0528203 -6.82952 -6.82952
-0.0126307 -6.86706 -6.86706
-0.0136342 -6.94439 -6.94439
0.116805 -6.94655 -6.94655
0.117462 -6.86921 -6.86921
-0.0131313 -6.9057 -6.9057
0.0515803 -6.94545 -6.94545
0.117136 -6.90785 -6.90785
0.0524103 -6.86811 -6.86811
0.051997 -6.90675 -6.90675
-0.0136342 -6.94439 -6.94439
-0.0146475 -7.02192 -7.02192
0.116132 -7.02409 -7.02409
0.116805 -6.94655 -6.94655
-0.0141396 -6.98313 -6.98313
0.0507369 -7.02298 -7.02298
0.116471 -6.98529 -6.98529
0.0515803 -6.94545 -6.94545
0.0511602 -6.98419 -6.98419
-0.0146475 -7.02192 -7.02192
-0.0156704 -7.09966 -7.09966
0.115441 -7.10183 -7.10183
0.116132 -7.02409 -7.02409
-0.0151577 -7.06076 -7.06076
0.0498803 -7.10072 -7.10072
0.115789 -7.06294 -7.06294
0.0507369 -7.02298 -7.02298
0.0503102 -7.06183 -7.06183
-0.0156704 -7.09966 -7.09966
-0.0167028 -7.17758 -7.17758
0.114734 -7.17976 -7.17976
0.115441 -7.10183 -7.10183
-0.0161854 -7.1386 -7.1386
0.0490105 -7.17865 -7.17865
0.11509 -7.14077 -7.14077
0.0498803 -7.10072 -7.10072
0.049447 -7.13966 -7.13966
-0.0167028 -7.17758 -7.17758
-0.0177447 -7.2557 -7.2557
0.114011 -7.25789 -7.25789
0.114734 -7.17976 -7.17976
-0.0172226 -7.21662 -7.21662
0.0481278 -7.25678 -7.25678
0.114375 -7.2188 -7.2188
0.0490105 -7.17865 -7.17865
0.0485708 -7.21769 -7.21769
-0.0177447 -7.2557 -7.2557
-0.0187959 -7.33401 -7.33401
0.113271 -7.3362 -7.3362
0.114011 -7.25789 -7.25789
-0.0182691 -7.29483 -7.29483
0.0472322 -7.33508 -7.33508
0.113643 -7.29702 -7.29702
0.0481278 -7.25678 -7.25678
0.0476816 -7.29591 -7.29591
-0.0187959 -7.33401 -7.33401
-0.0198562 -7.41249 -7.41249
0.112514 -7.41469 -7.41469
0.113271 -7.3362 -7.3362
-0.0193249 -7.37323 -7.37323
0.0463238 -7.41357 -7.41357
0.112895 -7.37542 -7.37542
0.0472322 -7.33508 -7.33508
0.0467796 -7.37431 -7.37431
-0.0198562 -7.41249 -7.41249
-0.0209257 -7.49116 -7.49116
0.111742 -7.49336 -7.49336
0.112514 -7.41469 -7.41469
-0.0203898 -7.4518 -7.4518
0.0454028 -7.49224 -7.49224
0.11213 -7.45401 -7.45401
0.0463238 -7.41357 -7.41357
0.0458649 -7.45289 -7.45289
-0.0209257 -7.49116 -7.49116
-0.0220041 -7.57 -7.57
0.110953 -7.57221 -7.57221
0.111742 -7.49336 -7.49336
-0.0214638 -7.53056 -7.53056
0.0444692 -7.57108 -7.57108
0.111349 -7.53276 -7.53276
0.0454028 -7.49224 -7.49224
0.0449376 -7.53164 -7.53164
-0.0220041 -7.57 -7.57
-0.0230913 -7.649 -7.649
0.110148 -7.65122 -7.65122
0.110953 -7.57221 -7.57221
-0.0225466 -7.60948 -7.60948
0.0435232 -7.65009 -7.65009
0.110553 -7.61169 -7.61169
0.0444692 -7.57108 -7.57108
0.0439978 -7.61057 -7.61057
-0.0230913 -7.649 -7.649
-0.0241872 -7.72818 -7.72818
0.109328 -7.7304 -7.7304
0.110148 -7.65122 -7.65122
-0.0236382 -7.68857 -7.68857
0.042565 -7.72927 -7.72927
0.10974 -7.69079 -7.69079
0.0435232 -7.65009 -7.65009
0.0430456 -7.68966 -7.68966
-0.0241872 -7.72818 -7.72818
-0.0252918 -7.80751 -7.80751
0.108492 -7.80973 -7.80973
0.109328 -7.7304 -7.7304
-0.0247384 -7.76782 -7.76782
0.0415946 -7.8086 -7.8086
0.108912 -7.77004 -7.77004
0.042565 -7.72927 -7.72927
0.0420813 -7.76892 -7.76892
-0.0252918 -7.80751 -7.80751
-0.0264048 -7.887 -7.887
0.10764 -7.88923 -7.88923
0.108492 -7.80973 -7.80973
-0.0258472 -7.84724 -7.84724
0.0406121 -7.8881 -7.8881
0.108068 -7.84946 -7.84946
0.0415946 -7.8086 -7.8086
0.0411048 -7.84833 -7.84833
-0.0264048 -7.887 -7.887
-0.0275261 -7.96664 -7.96664
0.106772 -7.96887 -7.96887
0.10764 -7.88923 -7.88923
-0.0269644 -7.9268 -7.9268
0.0396177 -7.96774 -7.96774
0.107208 -7.92903 -7.92903
0.0406121 -7.8881 -7.8881
0.0401164 -7.9279 -7.9279
-0.0275261 -7.96664 -7.96664
-0.0286557 -8.04643 -8.04643
0.105889 -8.04867 -8.04867
0.106772 -7.96887 -7.96887
-0.0280899 -8.00652 -8.00652
0.0386115 -8.04753 -8.04753
0.106333 -8.00875 -8.00875
0.0396177 -7.96774 -7.96774
0.0391161 -8.00762 -8.00762
-0.0286557 -8.04643 -8.04643
-0.0297934 -8.12637 -8.12637
0.104991 -8.12861 -8.12861
0.105889 -8.04867 -8.04867
-0.0292235 -8.08638 -8.08638
0.0375936 -8.12747 -8.12747
0.105442 -8.08862 -8.08862
0.0386115 -8.04753 -8.04753
0.038104 -8.08748 -8.08748
-0.0297934 -8.12637 -8.12637
-0.030939 -8.20644 -8.20644
0.104078 -8.20868 -8.20868
0.104991 -8.12861 -8.12861
-0.0303652 -8.16639 -8.16639
0.0365642 -8.20755 -8.20755
0.104537 -8.16863 -8.16863
0.0375936 -8.12747 -8.12747
0.0370804 -8.16749 -8.16749
-0.030939 -8.20644 -8.20644
-0.0320925 -8.28665 -8.28665
0.10315 -8.2889 -8.2889
0.104078 -8.20868 -8.20868
-0.0315148 -8.24653 -8.24653
0.0355234 -8.28776 -8.28776
0.103616 -8.24877 -8.24877
0.0365642 -8.20755 -8.20755
0.0360452 -8.24764 -8.24764
-0.0320925 -8.28665 -8.28665
-0.0332537 -8.36699 -8.36699
0.102207 -8.36924 -8.36924
0.10315 -8.2889 -8.2889
-0.0326722 -8.3268 -8.3268
0.0344712 -8.3681 -8.3681
0.10268 -8.32905 -8.32905
0.0355234 -8.28776 -8.28776
0.0349987 -8.32791 -8.32791
-0.0332537 -8.36699 -8.36699
-0.0344225 -8.44746 -8.44746
0.101249 -8.44971 -8.44971
0.102207 -8.36924 -8.36924
-0.0338372 -8.40721 -8.40721
0.0334079 -8.44857 -8.44857
0.10173 -8.40946 -8.40946
0.0344712 -8.3681 -8.3681
0.033941 -8.40832 -8.40832
-0.0344225 -8.44746 -8.44746
-0.0355988 -8.52805 -8.52805
0.100277 -8.5303 -8.5303
0.101249 -8.44971 -8.44971
-0.0350098 -8.48774 -8.48774
0.0323336 -8.52916 -8.52916
0.100765 -8.48999 -8.48999
0.0334079 -8.44857 -8.44857
0.0328721 -8.48885 -8.48885
-0.0355988 -8.52805 -8.52805
-0.0367824 -8.60875 -8.60875
0.09929 -8.61101 -8.61101
0.100277 -8.5303 -8.5303
-0.0361897 -8.56839 -8.56839
0.0312483 -8.60987 -8.60987
0.0997853 -8.57064 -8.57064
0.0323336 -8.52916 -8.52916
0.0317923 -8.5695 -8.5695
-0.0367824 -8.60875 -8.60875
-0.0379733 -8.68958 -8.68958
0.0982888 -8.69184 -8.69184
0.09929 -8.61101 -8.61101
-0.0373769 -8.64915 -8.64915
0.0301523 -8.6907 -8.6907
0.0987912 -8.65141 -8.65141
0.0312483 -8.60987 -8.60987
0.0307017 -8.65027 -8.65027
-0.0379733 -8.68958 -8.68958
-0.0391711 -8.77051 -8.77051
0.0972734 -8.77277 -8.77277
0.0982888 -8.69184 -8.69184
-0.0385713 -8.73003 -8.73003
0.0290456 -8.77163 -8.77163
0.0977829 -8.73229 -8.73229
0.0301523 -8.6907 -8.6907
0.0296003 -8.73115 -8.73115
-0.0391711 -8.77051 -8.77051
-0.040376 -8.85155 -8.85155
0.0962438 -8.85381 -8.85381
0.0972734 -8.77277 -8.77277
-0.0397727 -8.81102 -8.81102
0.0279284 -8.85267 -8.85267
0.0967603 -8.81328 -8.81328
0.0290456 -8.77163 -8.77163
0.0284883 -8.81214 -8.81214
-0.040376 -8.85155 -8.85155
-0.0415877 -8.93269 -8.93269
0.0952003 -8.93496 -8.93496
0.0962438 -8.85381 -8.85381
-0.040981 -8.89211 -8.89211
0.0268008 -8.93381 -8.93381
0.0957238 -8.89437 -8.89437
0.0279284 -8.85267 -8.85267
0.0273659 -8.89323 -8.89323
-0.0415877 -8.93269 -8.93269
-0.042806 -9.01392 -9.01392
0.0941429 -9.01619 -9.01619
0.0952003 -8.93496 -8.93496
-0.042196 -8.97329 -8.97329
0.0256629 -9.01505 -9.01505
0.0946733 -8.97556 -8.97556
0.0268008 -8.93381 -8.93381
0.0262331 -8.97442 -8.97442
-0.042806 -9.01392 -9.01392
-0.0440309 -9.09525 -9.09525
0.0930719 -9.09753 -9.09753
0.0941429 -9.01619 -9.01619
-0.0434176 -9.05458 -9.05458
0.0245149 -9.09638 -9.09638
0.0936091 -9.05685 -9.05685
0.0256629 -9.01505 -9.01505
0.0250902 -9.0557 -9.0557
-0.0440309 -9.09525 -9.09525
-0.0452622 -9.17667 -9.17667
0.0919872 -9.17895 -9.17895
0.0930719 -9.09753 -9.09753
-0.0446458 -9.13595 -9.13595
0.0233569 -9.1778 -9.1778
0.0925312 -9.13822 -9.13822
0.0245149 -9.09638 -9.09638
0.0239372 -9.13708 -9.13708
-0.0452622 -9.17667 -9.17667
-0.0464999 -9.25818 -9.25818
0.0908891 -9.26045 -9.26045
0.0919872 -9.17895 -9.17895
-0.0458803 -9.21742 -9.21742
0.0221891 -9.2593 -9.2593
0.0914399 -9.21969 -9.21969
0.0233569 -9.1778 -9.1778
0.0227742 -9.21854 -9.21854
-0.0464999 -9.25818 -9.25818
-0.0477436 -9.33976 -9.33976
0.0897778 -9.34203 -9.34203
0.0908891 -9.26045 -9.26045
-0.047121 -9.29896 -9.29896
0.0210115 -9.34089 -9.34089
0.0903351 -9.30123 -9.30123
0.0221891 -9.2593 -9.2593
0.0216015 -9.30009 -9.30009
-0.0477436 -9.33976 -9.33976
-0.0489934 -9.42142 -9.42142
0.0886532 -9.42369 -9.42369
0.0897778 -9.34203 -9.34203
-0.0483678 -9.38058 -9.38058
0.0198243 -9.42255 -9.42255
0.0892171 -9.38285 -9.38285
0.0210115 -9.34089 -9.34089
0.0204191 -9.38171 -9.38171
-0.0489934 -9.42142 -9.42142
-0.0502491 -9.50315 -9.50315
0.0875156 -9.50543 -9.50543
0.0886532 -9.42369 -9.42369
-0.0496205 -9.46228 -9.46228
0.0186276 -9.50428 -9.50428
0.088086 -9.46455 -9.46455
0.0198243 -9.42255 -9.42255
0.0192271 -9.46341 -9.46341
-0.0502491 -9.50315 -9.50315
-0.0515105 -9.58495 -9.58495
0.0863651 -9.58723 -9.58723
0.0875156 -9.50543 -9.50543
-0.0508791 -9.54404 -9.54404
0.0174217 -9.58608 -9.58608
0.086942 -9.54632 -9.54632
0.0186276 -9.50428 -9.50428
0.0180258 -9.54517 -9.54517
-0.0515105 -9.58495 -9.58495
-0.0527776 -9.66682 -9.66682
0.0852019 -9.66909 -9.66909
0.0863651 -9.58723 -9.58723
-0.0521434 -9.62588 -9.62588
0.0162065 -9.66795 -9.66795
0.0857851 -9.62815 -9.62815
0.0174217 -9.58608 -9.58608
0.0168152 -9.62701 -9.62701
-0.0527776 -9.66682 -9.66682
-0.0540502 -9.74874 -9.74874
0.084026 -9.75101 -9.75101
0.0852019 -9.66909 -9.66909
-0.0534132 -9.70777 -9.70777
0.0149822 -9.74987 -9.74987
0.0846155 -9.71004 -9.71004
0.0162065 -9.66795 -9.66795
0.0155955 -9.7089 -9.7089
-0.0540502 -9.74874 -9.74874
-0.0553281 -9.83071 -9.83071
0.0828375 -9.83299 -9.83299
0.084026 -9.75101 -9.75101
-0.0546885 -9.78972 -9.78972
0.013749 -9.83184 -9.83184
0.0834333 -9.79199 -9.79199
0.0149822 -9.74987 -9.74987
0.0143667 -9.79085 -9.79085
-0.0553281 -9.83071 -9.83071
-0.0566113 -9.91274 -9.91274
0.0816366 -9.91501 -9.91501
0.0828375 -9.83299 -9.83299
-0.0559691 -9.87172 -9.87172
0.0125069 -9.91387 -9.91387
0.0822386 -9.87399 -9.87399
0.013749 -9.83184 -9.83184
0.0131291 -9.87285 -9.87285
-0.0566113 -9.91274 -9.91274
-0.0578997 -9.99482 -9.99482
0.0804234 -9.99709 -9.99709
0.0816366 -9.91501 -9.91501
-0.0572549 -9.95377 -9.95377
0.011256 -9.99595 -9.99595
0.0810316 -9.95604 -9.95604
0.0125069 -9.91387 -9.91387
0.0118826 -9.9549 -9.9549
-0.0578997 -9.99482 -9.99482
-0.0591933 -10.0769 -10.0769
0.0791978 -10.0792 -10.0792
0.0804234 -9.99709 -9.99709
-0.0585459 -10.0359 -10.0359
0.00999631 -10.0781 -10.0781
0.0798121 -10.0381 -10.0381
0.011256 -9.99595 -9.99595
0.0106273 -10.037 -10.037
-0.0591933 -10.0769 -10.0769
-0.060492 -10.1591 -10.1591
0.0779596 -10.1614 -10.1614
0.0791978 -10.0792 -10.0792
-0.059842 -10.118 -10.118
0.00872764 -10.1602 -10.1602
0.0785802 -10.1203 -10.1203
0.00999631 -10.0781 -10.0781
0.00936311 -10.1191 -10.1191
-0.060492 -10.1591 -10.1591
-0.061796 -10.2413 -10.2413
0.0767086 -10.2435 -10.2435
0.0779596 -10.1614 -10.1614
-0.0611434 -10.2002 -10.2002
0.00744975 -10.2424 -10.2424
0.0773357 -10.2024 -10.2024
0.00872764 -10.1602 -10.1602
0.00808988 -10.2013 -10.2013
-0.061796 -10.2413 -10.2413
-0.0631055 -10.3235 -10.3235
0.0754441 -10.3258 -10.3258
0.0767086 -10.2435 -10.2435
-0.0624501 -10.2824 -10.2824
0.00616218 -10.3246 -10.3246
0.0760781 -10.2846 -10.2846
0.00744975 -10.2424 -10.2424
0.00680721 -10.2835 -10.2835
-0.0631055 -10.3235 -10.3235
-0.0644208 -10.4057 -10.4057
0.0741655 -10.408 -10.408
0.0754441 -10.3258 -10.3258
-0.0637625 -10.3646 -10.3646
0.00486435 -10.4069 -10.4069
0.0748066 -10.3669 -10.3669
0.00616218 -10.3246 -10.3246
0.00551459 -10.3657 -10.3657
-0.0644208 -10.4057 -10.4057
-0.0657416 -10.488 -10.488
0.0728715 -10.4903 -10.4903
0.0741655 -10.408 -10.408
-0.0650805 -10.4469 -10.4469
0.00355589 -10.4891 -10.4891
0.0735204 -10.4491 -10.4491
0.00486435 -10.4069 -10.4069
0.00421143 -10.448 -10.448
-0.0657416 -10.488 -10.488
-0.0670674 -10.5703 -10.5703
0.0715626 -10.5725 -10.5725
0.0728715 -10.4903 -10.4903
-0.066404 -10.5292 -10.5292
0.00223768 -10.5714 -10.5714
0.0722189 -10.5314 -10.5314
0.00355589 -10.4891 -10.4891
0.00289788 -10.5303 -10.5303
-0.0670674 -10.5703 -10.5703
-0.0683956 -10.6526 -10.6526
0.0702413 -10.6548 -10.6548
0.0715626 -10.5725 -10.5725
-0.0677313 -10.6114 -10.6114
0.000913057 -10.6537 -10.6537
0.0709029 -10.6137 -10.6137
0.00223768 -10.5714 -10.5714
0.00157573 -10.6126 -10.6126
-0.0683956 -10.6526 -10.6526
-0.069724 -10.7348 -10.7348
0.0689184 -10.7371 -10.7371
0.0702413 -10.6548 -10.6548
-0.0690602 -10.6937 -10.6937
-0.000410964 -10.736 -10.736
0.0695793 -10.696 -10.696
0.000913057 -10.6537 -10.6537
0.00025067 -10.6949 -10.6949
-0.069724 -10.7348 -10.7348
-0.0710469 -10.8171 -10.8171
0.0676045 -10.8194 -10.8194
0.0689184 -10.7371 -10.7371
-0.0703863 -10.776 -10.776
-0.00173024 -10.8182 -10.8182
0.0682598 -10.7783 -10.7783
-0.000410964 -10.736 -10.736
-0.00107147 -10.7771 -10.7771
0 0 0
0.00186041 -0.000194813 -0.000194813
0.00320312 -0.000912504 -0.000912504
0 0 0
0.00090186 5.52405e-05 5.52405e-05
0.00250703 -0.000466945 -0.000466945
0.00155455 -0.000327679 -0.000327679
0 0 0
0.00123447 -0.000100289 -0.000100289
0.00186041 -0.000194813 -0.000194813
0.00386311 -0.00145566 -0.00145566
0.00667054 -0.0026324 -0.0026324
0.00320312 -0.000912504 -0.000912504
0.00284928 -0.000704543 -0.000704543
0.00521945 -0.00194319 -0.00194319
0.00492036 -0.00168942 -0.00168942
0.00250703 -0.000466945 -0.000466945
0.00384159 -0.00109246 -0.00109246
0.00386311 -0.00145566 -0.00145566
0.00594893 -0.00363525 -0.00363525
0.0101689 -0.00499477 -0.00499477
0.00667054 -0.0026324 -0.0026324
0.00489972 -0.00243658 -0.00243658
0.00801755 -0.00422039 -0.00422039
0.00842189 -0.00373059 -0.00373059
0.00521945 -0.00194319 -0.00194319
0.00661503 -0.00298657 -0.00298657
0.00594893 -0.00363525 -0.00363525
0.00805121 -0.00665239 -0.00665239
0.0136489 -0.00807011 -0.00807011
0.0101689 -0.00499477 -0.00499477
0.00700038 -0.00504141 -0.00504141
0.01082 -0.00727336 -0.00727336
0.0119121 -0.00643916 -0.00643916
0.00801755 -0.00422039 -0.00422039
0.00942056 -0.00564911 -0.00564911
0.00805121 -0.00665239 -0.00665239
0.0101452 -0.0104849 -0.0104849
0.0170978 -0.0119092 -0.0119092
0.0136489 -0.00807011 -0.00807011
0.00910019 -0.00846732 -0.00846732
0.0135995 -0.0111112 -0.0111112
0.015377 -0.009892 -0.009892
0.01082 -0.00727336 -0.00727336
0.0122131 -0.00909334 -0.00909334
0.0101452 -0.0104849 -0.0104849
0.0122183 -0.0151241 -0.0151241
0.0205221 -0.0165414 -0.0165414
0.0170978 -0.0119092 -0.0119092
0.0111845 -0.0127038 -0.0127038
0.0163532 -0.0157479 -0.0157479
0.0188128 -0.0141253 -0.0141253
0.0135995 -0.0111112 -0.0111112
0.0149795 -0.0133293 -0.0133293
0.0122183 -0.0151241 -0.0151241
0.014271 -0.0205687 -0.0205687
0.023923 -0.0219754 -0.0219754
0.0205221 -0.0165414 -0.0165414
0.0132471 -0.0177459 -0.0177459
0.0190828 -0.0211873 -0.0211873
0.0222254 -0.019158 -0.019158
0.0163532 -0.0157479 -0.0157479
0.0177209 -0.0183672 -0.0183672
0.014271 -0.0205687 -0.0205687
0.0163042 -0.026816 -0.026816
0.0273028 -0.0282134 -0.0282134
0.023923 -0.0219754 -0.0219754
0.0152899 -0.0235922 -0.0235922
0.0217907 -0.0274301 -0.0274301
0.0256155 -0.0249939 -0.0249939
0.0190828 -0.0211873 -0.0211873
0.0204393 -0.0242084 -0.0242084
0.0163042 -0.026816 -0.026816
0.0183203 -0.0338632 -0.0338632
0.0306618 -0.0352531 -0.0352531
0.0273028 -0.0282134 -0.0282134
0.0173143 -0.0302398 -0.0302398
0.024479 -0.0344736 -0.0344736
0.0289849 -0.0316332 -0.0316332
0.0217907 -0.0274301 -0.0274301
0.0231372 -0.030852 -0.030852
0.0183203 -0.0338632 -0.0338632
0.0203206 -0.0417068 -0.0417068
0.0340003 -0.0430911 -0.0430911
0.0306618 -0.0352531 -0.0352531
0.0193224 -0.0376856 -0.0376856
0.0271488 -0.0423147 -0.0423147
0.0323336 -0.0390726 -0.0390726
0.024479 -0.0344736 -0.0344736
0.0258162 -0.0382947 -0.0382947
0.0203206 -0.0417068 -0.0417068
0.0223062 -0.050343 -0.050343
0.0373182 -0.051723 -0.051723
0.0340003 -0.0430911 -0.0430911
0.0213152 -0.045926 -0.045926
0.0298007 -0.050949 -0.050949
0.0356618 -0.0473081 -0.0473081
0.0271488 -0.0423147 -0.0423147
0.028477 -0.0465329 -0.0465329
0.0223062 -0.050343 -0.050343
0.0242774 -0.0597677 -0.0597677
0.0406156 -0.0611446 -0.0611446
0.0373182 -0.051723 -0.051723
0.0232936 -0.054957 -0.054957
0.0324351 -0.0603726 -0.0603726
0.0389695 -0.0563354 -0.0563354
0.0298007 -0.050949 -0.050949
0.0311201 -0.0555624 -0.0555624
0.0242774 -0.0597677 -0.0597677
0.0262345 -0.069977 -0.069977
0.043892 -0.0713513 -0.0713513
0.0406156 -0.0611446 -0.0611446
0.0252577 -0.0647746 -0.0647746
0.0350519 -0.0705809 -0.0705809
0.0422564 -0.0661501 -0.0661501
0.0324351 -0.0603726 -0.0603726
0.0337457 -0.0653789 -0.0653789
0.0262345 -0.069977 -0.069977
0.0281774 -0.0809664 -0.0809664
0.0471474 -0.0823389 -0.0823389
0.043892 -0.0713513 -0.0713513
0.0272077 -0.0753744 -0.0753744
0.0376511 -0.0815699 -0.0815699
0.0455223 -0.0767478 -0.0767478
0.0350519 -0.0705809 -0.0705809
0.0363537 -0.0759781 -0.0759781
0.0281774 -0.0809664 -0.0809664
0.0301061 -0.0927319 -0.0927319
0.0503814 -0.0941029 -0.0941029
0.0471474 -0.0823389 -0.0823389
0.0291436 -0.0867524 -0.0867524
0.0402325 -0.0933351 -0.0933351
0.0487671 -0.0881241 -0.0881241
0.0376511 -0.0815699 -0.0815699
0.038944 -0.0873557 -0.0873557
0.0301061 -0.0927319 -0.0927319
0.0320204 -0.105269 -0.105269
0.053594 -0.106639 -0.106639
0.0503814 -0.0941029 -0.0941029
0.0310651 -0.0989043 -0.0989043
0.0427959 -0.105872 -0.105872
0.0519904 -0.100275 -0.100275
0.0402325 -0.0933351 -0.0933351
0.0415164 -0.0995074 -0.0995074
0.0320204 -0.105269 -0.105269
0.03392 -0.118574 -0.118574
0.0567848 -0.119943 -0.119943
0.053594 -0.106639 -0.106639
0.032972 -0.111826 -0.111826
0.0453411 -0.119177 -0.119177
0.0551921 -0.113196 -0.113196
0.0427959 -0.105872 -0.105872
0.0440708 -0.112429 -0.112429
0.03392 -0.118574 -0.118574
0.0358049 -0.132642 -0.132642
0.0599536 -0.134011 -0.134011
0.0567848 -0.119943 -0.119943
0.0348643 -0.125513 -0.125513
0.047868 -0.133245 -0.133245
0.058372 -0.126882 -0.126882
0.0453411 -0.119177 -0.119177
0.0466069 -0.126116 -0.126116
0.0358049 -0.132642 -0.132642
0.0376747 -0.147469 -0.147469
0.0631003 -0.148838 -0.148838
0.0599536 -0.134011 -0.134011
0.0367417 -0.139961 -0.139961
0.0503763 -0.148073 -0.148073
0.0615298 -0.14133 -0.14133
0.047868 -0.133245 -0.133245
0.0491245 -0.140565 -0.140565
0.0376747 -0.147469 -0.147469
0.0395294 -0.163051 -0.163051
0.0662247 -0.16442 -0.16442
0.0631003 -0.148838 -0.148838
0.038604 -0.155166 -0.155166
0.0528658 -0.163655 -0.163655
0.0646653 -0.156535 -0.156535
0.0503763 -0.148073 -0.148073
0.0516234 -0.15577 -0.15577
0.0395294 -0.163051 -0.163051
0.0413686 -0.179383 -0.179383
0.0693265 -0.180754 -0.180754
0.0662247 -0.16442 -0.16442
0.0404509 -0.171123 -0.171123
0.0553364 -0.179989 -0.179989
0.0677784 -0.172493 -0.172493
0.0528658 -0.163655 -0.163655
0.0541035 -0.171728 -0.171728
0.0413686 -0.179383 -0.179383
0.0431923 -0.196462 -0.196462
0.0724055 -0.197833 -0.197833
0.0693265 -0.180754 -0.180754
0.0422824 -0.187829 -0.187829
0.0577877 -0.197068 -0.197068
0.0708689 -0.1892 -0.1892
0.0553364 -0.179989 -0.179989
0.0565644 -0.188435 -0.188435
0.0431923 -0.196462 -0.196462
0.0450001 -0.214282 -0.214282
0.0754616 -0.215655 -0.215655
0.0724055 -0.197833 -0.197833
0.0440982 -0.205279 -0.205279
0.0602197 -0.21489 -0.21489
0.0739364 -0.206652 -0.206652
0.0577877 -0.197068 -0.197068
0.0590061 -0.205886 -0.205886
0.0450001 -0.214282 -0.214282
0.046792 -0.23284 -0.23284
0.0784946 -0.234215 -0.234215
0.0754616 -0.215655 -0.215655
0.0458981 -0.223469 -0.223469
0.0626322 -0.23345 -0.23345
0.076981 -0.224843 -0.224843
0.0602197 -0.21489 -0.21489
0.0614284 -0.224078 -0.224078
0.046792 -0.23284 -0.23284
0.0485677 -0.252132 -0.252132
0.0815043 -0.253509 -0.253509
0.0784946 -0.234215 -0.234215
0.0476819 -0.242395 -0.242395
0.0650249 -0.252743 -0.252743
0.0800023 -0.243771 -0.243771
0.0626322 -0.23345 -0.23345
0.063831 -0.243005 -0.243005
0.0485677 -0.252132 -0.252132
0.0503271 -0.272153 -0.272153
0.0844904 -0.273533 -0.273533
0.0815043 -0.253509 -0.253509
0.0494495 -0.262052 -0.262052
0.0673977 -0.272766 -0.272766
0.0830003 -0.26343 -0.26343
0.0650249 -0.252743 -0.252743
0.0662138 -0.262663 -0.262663
0.0503271 -0.272153 -0.272153
0.05207 -0.2929 -0.2929
0.0874529 -0.294281 -0.294281
0.0844904 -0.273533 -0.273533
0.0512006 -0.282436 -0.282436
0.0697504 -0.293513 -0.293513
0.0859747 -0.283817 -0.283817
0.0673977 -0.272766 -0.272766
0.0685766 -0.283049 -0.283049
0.05207 -0.2929 -0.2929
0.0537962 -0.314366 -0.314366
0.0903916 -0.315751 -0.315751
0.0874529 -0.294281 -0.294281
0.0529352 -0.303543 -0.303543
0.0720829 -0.314982 -0.314982
0.0889253 -0.304926 -0.304926
0.0697504 -0.293513 -0.293513
0.0709192 -0.304158 -0.304158
0.0537962 -0.314366 -0.314366
0.0555056 -0.33655 -0.33655
0.0933063 -0.337938 -0.337938
0.0903916 -0.315751 -0.315751
0.054653 -0.325369 -0.325369
0.0743949 -0.337168 -0.337168
0.091852 -0.326755 -0.326755
0.0720829 -0.314982 -0.314982
0.0732414 -0.325986 -0.325986
0.0555056 -0.33655 -0.33655
0.0571979 -0.359446 -0.359446
0.0961968 -0.360837 -0.360837
0.0933063 -0.337938 -0.337938
0.0563539 -0.347909 -0.347909
0.0766863 -0.360066 -0.360066
0.0947546 -0.349298 -0.349298
0.0743949 -0.337168 -0.337168
0.0755432 -0.348528 -0.348528
0.0571979 -0.359446 -0.359446
0.0588731 -0.383049 -0.383049
0.099063 -0.384444 -0.384444
0.0961968 -0.360837 -0.360837
0.0580377 -0.371159 -0.371159
0.078957 -0.383672 -0.383672
0.097633 -0.372552 -0.372552
0.0766863 -0.360066 -0.360066
0.0778243 -0.37178 -0.37178
0.0588731 -0.383049 -0.383049
0.0605309 -0.407357 -0.407357
0.101905 -0.408756 -0.408756
0.099063 -0.384444 -0.384444
0.0597042 -0.395115 -0.395115
0.0812068 -0.407981 -0.407981
0.100487 -0.396512 -0.396512
0.078957 -0.383672 -0.383672
0.0800846 -0.395739 -0.395739
0.0605309 -0.407357 -0.407357
0.0621713 -0.432364 -0.432364
0.104722 -0.433767 -0.433767
0.101905 -0.408756 -0.408756
0.0613533 -0.419773 -0.419773
0.0834356 -0.432991 -0.432991
0.103316 -0.421174 -0.421174
0.0812068 -0.407981 -0.407981
0.0823238 -0.420399 -0.420399
0.0621713 -0.432364 -0.432364
0.063794 -0.458066 -0.458066
0.107514 -0.459474 -0.459474
0.104722 -0.433767 -0.433767
0.0629849 -0.445128 -0.445128
0.0856431 -0.458696 -0.458696
0.106121 -0.446534 -0.446534
0.0834356 -0.432991 -0.432991
0.084542 -0.445757 -0.445757
0.063794 -0.458066 -0.458066
0.065399 -0.484459 -0.484459
0.110281 -0.485872 -0.485872
0.107514 -0.459474 -0.459474
0.0645987 -0.471176 -0.471176
0.0878292 -0.485092 -0.485092
0.108901 -0.472587 -0.472587
0.0856431 -0.458696 -0.458696
0.0867388 -0.471808 -0.471808
0.065399 -0.484459 -0.484459
0.066986 -0.511539 -0.511539
0.113024 -0.512957 -0.512957
0.110281 -0.485872 -0.485872
0.0661947 -0.497914 -0.497914
0.0899939 -0.512175 -0.512175
0.111656 -0.499329 -0.499329
0.0878292 -0.485092 -0.485092
0.0889143 -0.498548 -0.498548
0.066986 -0.511539 -0.511539
0.068555 -0.539302 -0.539302
0.115741 -0.540724 -0.540724
0.113024 -0.512957 -0.512957
0.0677728 -0.525335 -0.525335
0.0921369 -0.539941 -0.539941
0.114385 -0.526755 -0.526755
0.0899939 -0.512175 -0.512175
0.0910681 -0.525973 -0.525973
0.068555 -0.539302 -0.539302
0.0701057 -0.567743 -0.567743
0.118432 -0.569171 -0.569171
0.115741 -0.540724 -0.540724
0.0693326 -0.553438 -0.553438
0.0942582 -0.568385 -0.568385
0.11709 -0.554863 -0.554863
0.0921369 -0.539941 -0.539941
0.0932003 -0.554078 -0.554078
0.0701057 -0.567743 -0.567743
0.0716382 -0.596857 -0.596857
0.121099 -0.598291 -0.598291
0.118432 -0.569171 -0.569171
0.0708743 -0.582216 -0.582216
0.0963575 -0.597503 -0.597503
0.119769 -0.583647 -0.583647
0.0942582 -0.568385 -0.568385
0.0953106 -0.58286 -0.58286
0.0716382 -0.596857 -0.596857
0.0731521 -0.626642 -0.626642
0.123739 -0.628082 -0.628082
0.121099 -0.598291 -0.598291
0.0723975 -0.611666 -0.611666
0.0984348 -0.627291 -0.627291
0.122422 -0.613103 -0.613103
0.0963575 -0.597503 -0.597503
0.0973989 -0.612313 -0.612313
0.0731521 -0.626642 -0.626642
0.0746475 -0.657092 -0.657092
0.126354 -0.658538 -0.658538
0.123739 -0.628082 -0.628082
0.0739022 -0.641784 -0.641784
0.10049 -0.657744 -0.657744
0.12505 -0.643227 -0.643227
0.0984348 -0.627291 -0.627291
0.0994652 -0.642435 -0.642435
0.0746475 -0.657092 -0.657092
0.0761242 -0.688204 -0.688204
0.128943 -0.689656 -0.689656
0.126354 -0.658538 -0.658538
0.0753882 -0.672566 -0.672566
0.102523 -0.688859 -0.688859
0.127652 -0.674014 -0.674014
0.10049 -0.657744 -0.657744
0.101509 -0.67322 -0.67322
0.0761242 -0.688204 -0.688204
0.0775821 -0.719972 -0.719972
0.131506 -0.721431 -0.721431
0.128943 -0.689656 -0.689656
0.0768555 -0.704006 -0.704006
0.104533 -0.720632 -0.720632
0.130228 -0.705461 -0.705461
0.102523 -0.688859 -0.688859
0.103531 -0.704664 -0.704664
0.0775821 -0.719972 -0.719972
0.079021 -0.752393 -0.752393
0.134043 -0.753859 -0.753859
0.131506 -0.721431 -0.721431
0.0783039 -0.736101 -0.736101
0.106521 -0.753057 -0.753057
0.132778 -0.737563 -0.737563
0.104533 -0.720632 -0.720632
0.10553 -0.736763 -0.736763
0.079021 -0.752393 -0.752393
0.0804408 -0.785463 -0.785463
0.136554 -0.786935 -0.786935
0.134043 -0.753859 -0.753859
0.0797333 -0.768847 -0.768847
0.108486 -0.78613 -0.78613
0.135302 -0.770316 -0.770316
0.106521 -0.753057 -0.753057
0.107507 -0.769513 -0.769513
0.0804408 -0.785463 -0.785463
0.0818415 -0.819177 -0.819177
0.139038 -0.820656 -0.820656
0.136554 -0.786935 -0.786935
0.0811436 -0.80224 -0.80224
0.110429 -0.819848 -0.819848
0.137799 -0.803716 -0.803716
0.108486 -0.78613 -0.78613
0.109461 -0.802909 -0.802909
0.0818415 -0.819177 -0.819177
0.0832229 -0.853531 -0.853531
0.141496 -0.855018 -0.855018
0.139038 -0.820656 -0.820656
0.0825346 -0.836275 -0.836275
0.112349 -0.854206 -0.854206
0.14027 -0.837757 -0.837757
0.110429 -0.819848 -0.819848
0.111392 -0.836948 -0.836948
0.0832229 -0.853531 -0.853531
0.0845849 -0.888521 -0.888521
0.143927 -0.890015 -0.890015
0.141496 -0.855018 -0.855018
0.0839064 -0.870947 -0.870947
0.114245 -0.889201 -0.889201
0.142715 -0.872437 -0.872437
0.112349 -0.854206 -0.854206
0.1133 -0.871624 -0.871624
0.0845849 -0.888521 -0.888521
0.0859275 -0.924143 -0.924143
0.146332 -0.925644 -0.925644
0.143927 -0.890015 -0.890015
0.0852587 -0.906253 -0.906253
0.116119 -0.924826 -0.924826
0.145133 -0.907751 -0.907751
0.114245 -0.889201 -0.889201
0.115185 -0.906935 -0.906935
0.0859275 -0.924143 -0.924143
0.0872505 -0.960391 -0.960391
0.14871 -0.9619 -0.9619
0.146332 -0.925644 -0.925644
0.0865914 -0.942189 -0.942189
0.11797 -0.961079 -0.961079
0.147525 -0.943694 -0.943694
0.116119 -0.924826 -0.924826
0.117047 -0.942875 -0.942875
0.0872505 -0.960391 -0.960391
0.0885538 -0.997263 -0.997263
0.151062 -0.99878 -0.99878
0.14871 -0.9619 -0.9619
0.0879046 -0.97875 -0.97875
0.119797 -0.997955 -0.997955
0.149889 -0.980263 -0.980263
0.11797 -0.961079 -0.961079
0.118886 -0.97944 -0.97944
0.0885538 -0.997263 -0.997263
0.0898374 -1.03475 -1.03475
0.153386 -1.03628 -1.03628
0.151062 -0.99878 -0.99878
0.0891981 -1.01593 -1.01593
0.121601 -1.03545 -1.03545
0.152227 -1.01745 -1.01745
0.119797 -0.997955 -0.997955
0.120702 -1.01663 -1.01663
0.0898374 -1.03475 -1.03475
0.0911011 -1.07286 -1.07286
0.155683 -1.07439 -1.07439
0.153386 -1.03628 -1.03628
0.0904717 -1.05373 -1.05373
0.123381 -1.07356 -1.07356
0.154538 -1.05526 -1.05526
0.121601 -1.03545 -1.03545
0.122494 -1.05443 -1.05443
0.0911011 -1.07286 -1.07286
0.0923449 -1.11157 -1.11157
0.157953 -1.11312 -1.11312
0.155683 -1.07439 -1.07439
0.0917255 -1.09214 -1.09214
0.125138 -1.11228 -1.11228
0.156822 -1.09368 -1.09368
0.123381 -1.07356 -1.07356
0.124263 -1.09284 -1.09284
0.0923449 -1.11157 -1.11157
0.0935686 -1.1509 -1.1509
0.160197 -1.15245 -1.15245
0.157953 -1.11312 -1.11312
0.0929593 -1.13116 -1.13116
0.126872 -1.15161 -1.15161
0.159078 -1.13271 -1.13271
0.125138 -1.11228 -1.11228
0.126008 -1.13187 -1.13187
0.0935686 -1.1509 -1.1509
0.0947723 -1.19082 -1.19082
0.162412 -1.19238 -1.19238
0.160197 -1.15245 -1.15245
0.094173 -1.17078 -1.17078
0.128582 -1.19153 -1.19153
0.161308 -1.17234 -1.17234
0.126872 -1.15161 -1.15161
0.12773 -1.1715 -1.1715
0.0947723 -1.19082 -1.19082
0.0959558 -1.23134 -1.23134
0.164601 -1.23291 -1.23291
0.162412 -1.19238 -1.19238
0.0953666 -1.211 -1.211
0.130268 -1.23206 -1.23206
0.16351 -1.21257 -1.21257
0.128582 -1.19153 -1.19153
0.129428 -1.21172 -1.21172
0.0959558 -1.23134 -1.23134
0.0971191 -1.27245 -1.27245
0.166762 -1.27403 -1.27403
0.164601 -1.23291 -1.23291
0.09654 -1.25182 -1.25182
0.13193 -1.27318 -1.27318
0.165685 -1.25339 -1.25339
0.130268 -1.23206 -1.23206
0.131102 -1.25255 -1.25255
0.0971191 -1.27245 -1.27245
0.0982621 -1.31416 -1.31416
0.168896 -1.31574 -1.31574
0.166762 -1.27403 -1.27403
0.0976932 -1.29323 -1.29323
0.133568 -1.31489 -1.31489
0.167832 -1.29481 -1.29481
0.13193 -1.27318 -1.27318
0.132752 -1.29396 -1.29396
0.0982621 -1.31416 -1.31416
0.0993847 -1.35644 -1.35644
0.171002 -1.35804 -1.35804
0.168896 -1.31574 -1.31574
0.098826 -1.33523 -1.33523
0.135183 -1.35718 -1.35718
0.169952 -1.33682 -1.33682
0.133568 -1.31489 -1.31489
0.134378 -1.33596 -1.33596
0.0993847 -1.35644 -1.35644
0.100487 -1.39931 -1.39931
0.17308 -1.40092 -1.40092
0.171002 -1.35804 -1.35804
0.0999384 -1.37781 -1.37781
0.136773 -1.40005 -1.40005
0.172045 -1.37941 -1.37941
0.135183 -1.35718 -1.35718
0.135981 -1.37854 -1.37854
0.100487 -1.39931 -1.39931
0.101569 -1.44276 -1.44276
0.175131 -1.44437 -1.44437
0.17308 -1.40092 -1.40092
0.10103 -1.42096 -1.42096
0.138339 -1.4435 -1.4435
0.174109 -1.42257 -1.42257
0.136773 -1.40005 -1.40005
0.137559 -1.42171 -1.42171
0.101569 -1.44276 -1.44276
0.10263 -1.48678 -1.48678
0.177155 -1.4884 -1.4884
0.175131 -1.44437 -1.44437
0.102102 -1.4647 -1.4647
0.139881 -1.48753 -1.48753
0.176146 -1.46631 -1.46631
0.138339 -1.4435 -1.4435
0.139113 -1.46544 -1.46544
0.10263 -1.48678 -1.48678
0.10367 -1.53136 -1.53136
0.17915 -1.53299 -1.53299
0.177155 -1.4884 -1.4884
0.103153 -1.509 -1.509
0.141399 -1.53212 -1.53212
0.178156 -1.51062 -1.51062
0.139881 -1.48753 -1.48753
0.140643 -1.50975 -1.50975
0.10367 -1.53136 -1.53136
0.10469 -1.57651 -1.57651
0.181118 -1.57815 -1.57815
0.17915 -1.53299 -1.53299
0.104183 -1.55386 -1.55386
0.142893 -1.57727 -1.57727
0.180137 -1.5555 -1.5555
0.141399 -1.53212 -1.53212
0.142149 -1.55462 -1.55462
0.10469 -1.57651 -1.57651
0.105689 -1.62222 -1.62222
0.183057 -1.62387 -1.62387
0.181118 -1.57815 -1.57815
0.105192 -1.59929 -1.59929
0.144363 -1.62298 -1.62298
0.182091 -1.60094 -1.60094
0.142893 -1.57727 -1.57727
0.143631 -1.60006 -1.60006
0.105689 -1.62222 -1.62222
0.106668 -1.66848 -1.66848
0.184969 -1.67014 -1.67014
0.183057 -1.62387 -1.62387
0.106181 -1.64528 -1.64528
0.145808 -1.66925 -1.66925
0.184017 -1.64693 -1.64693
0.144363 -1.62298 -1.62298
0.145088 -1.64605 -1.64605
0.106668 -1.66848 -1.66848
0.107625 -1.71529 -1.71529
0.186853 -1.71696 -1.71696
0.184969 -1.67014 -1.67014
0.107149 -1.69182 -1.69182
0.147229 -1.71607 -1.71607
0.185915 -1.69348 -1.69348
0.145808 -1.66925 -1.66925
0.146521 -1.69259 -1.69259
0.107625 -1.71529 -1.71529
0.108562 -1.76265 -1.76265
0.188709 -1.76433 -1.76433
0.186853 -1.71696 -1.71696
0.108096 -1.7389 -1.7389
0.148625 -1.76343 -1.76343
0.187785 -1.74058 -1.74058
0.147229 -1.71607 -1.71607
0.14793 -1.73968 -1.73968
0.108562 -1.76265 -1.76265
0.109478 -1.81056 -1.81056
0.190537 -1.81224 -1.81224
0.188709 -1.76433 -1.76433
0.109023 -1.78654 -1.78654
0.149997 -1.81134 -1.81134
0.189627 -1.78822 -1.78822
0.148625 -1.76343 -1.76343
0.149314 -1.78732 -1.78732
0.109478 -1.81056 -1.81056
0.110373 -1.859 -1.859
0.192337 -1.8607 -1.8607
0.190537 -1.81224 -1.81224
0.109928 -1.83471 -1.83471
0.151344 -1.85979 -1.85979
0.19144 -1.8364 -1.8364
0.149997 -1.81134 -1.81134
0.150674 -1.8355 -1.8355
0.110373 -1.859 -1.859
0.111247 -1.90797 -1.90797
0.194109 -1.90968 -1.90968
0.192337 -1.8607 -1.8607
0.110813 -1.88342 -1.88342
0.152667 -1.90877 -1.90877
0.193226 -1.88512 -1.88512
0.151344 -1.85979 -1.85979
0.152009 -1.88421 -1.88421
0.111247 -1.90797 -1.90797
0.1121 -1.95747 -1.95747
0.195852 -1.95919 -1.95919
0.194109 -1.90968 -1.90968
0.111676 -1.93266 -1.93266
0.153965 -1.95828 -1.95828
0.194984 -1.93437 -1.93437
0.152667 -1.90877 -1.90877
0.153319 -1.93346 -1.93346
0.1121 -1.95747 -1.95747
0.112932 -2.0075 -2.0075
0.197568 -2.00923 -2.00923
0.195852 -1.95919 -1.95919
0.112519 -1.98242 -1.98242
0.155239 -2.00831 -2.00831
0.196713 -1.98415 -1.98415
0.153965 -1.95828 -1.95828
0.154605 -1.98323 -1.98323
0.112932 -2.0075 -2.0075
0.113743 -2.05805 -2.05805
0.199255 -2.05979 -2.05979
0.197568 -2.00923 -2.00923
0.11334 -2.03271 -2.03271
0.156488 -2.05887 -2.05887
0.198415 -2.03445 -2.03445
0.155239 -2.00831 -2.00831
0.155867 -2.03353 -2.03353
0.113743 -2.05805 -2.05805
0.114533 -2.10912 -2.10912
0.200914 -2.11087 -2.11087
0.199255 -2.05979 -2.05979
0.114141 -2.08352 -2.08352
0.157713 -2.10994 -2.10994
0.200088 -2.08527 -2.08527
0.156488 -2.05887 -2.05887
0.157104 -2.08434 -2.08434
0.114533 -2.10912 -2.10912
0.115302 -2.1607 -2.1607
0.202545 -2.16246 -2.16246
0.200914 -2.11087 -2.11087
0.11492 -2.13485 -2.13485
0.158913 -2.16153 -2.16153
0.201733 -2.1366 -2.1366
0.157713 -2.10994 -2.10994
0.158316 -2.13567 -2.13567
0.115302 -2.1607 -2.1607
0.11605 -2.21279 -2.21279
0.204147 -2.21456 -2.21456
0.202545 -2.16246 -2.16246
0.115679 -2.18668 -2.18668
0.160088 -2.21362 -2.21362
0.20335 -2.18845 -2.18845
0.158913 -2.16153 -2.16153
0.159503 -2.18751 -2.18751
0.11605 -2.21279 -2.21279
0.116777 -2.26538 -2.26538
0.205722 -2.26716 -2.26716
0.204147 -2.21456 -2.21456
0.116416 -2.23902 -2.23902
0.161239 -2.26622 -2.26622
0.204938 -2.2408 -2.2408
0.160088 -2.21362 -2.21362
0.160666 -2.23986 -2.23986
0.116777 -2.26538 -2.26538
0.117482 -2.31848 -2.31848
0.207268 -2.32027 -2.32027
0.205722 -2.26716 -2.26716
0.117132 -2.29187 -2.29187
0.162364 -2.31932 -2.31932
0.206498 -2.29365 -2.29365
0.161239 -2.26622 -2.26622
0.161805 -2.29271 -2.29271
0.117482 -2.31848 -2.31848
0.118167 -2.37206 -2.37206
0.208786 -2.37386 -2.37386
0.207268 -2.32027 -2.32027
0.117827 -2.34521 -2.34521
0.163466 -2.37291 -2.37291
0.20803 -2.347 -2.347
0.162364 -2.31932 -2.31932
0.162918 -2.34605 -2.34605
0.118167 -2.37206 -2.37206
0.11883 -2.42614 -2.42614
0.210275 -2.42795 -2.42795
0.208786 -2.37386 -2.37386
0.118501 -2.39904 -2.39904
0.164542 -2.427 -2.427
0.209534 -2.40085 -2.40085
0.163466 -2.37291 -2.37291
0.164007 -2.39989 -2.39989
0.11883 -2.42614 -2.42614
0.119472 -2.48071 -2.48071
0.211736 -2.48253 -2.48253
0.210275 -2.42795 -2.42795
0.119154 -2.45337 -2.45337
0.165594 -2.48157 -2.48157
0.211009 -2.45518 -2.45518
0.164542 -2.427 -2.427
0.165071 -2.45422 -2.45422
0.119472 -2.48071 -2.48071
0.120094 -2.53576 -2.53576
0.213169 -2.53759 -2.53759
0.211736 -2.48253 -2.48253
0.119786 -2.50817 -2.50817
0.166621 -2.53662 -2.53662
0.212456 -2.51 -2.51
0.165594 -2.48157 -2.48157
0.16611 -2.50904 -2.50904
0.120094 -2.53576 -2.53576
0.120694 -2.59129 -2.59129
0.214574 -2.59313 -2.59313
0.213169 -2.53759 -2.53759
0.120396 -2.56346 -2.56346
0.167623 -2.59216 -2.59216
0.213875 -2.5653 -2.5653
0.166621 -2.53662 -2.53662
0.167125 -2.56433 -2.56433
0.120694 -2.59129 -2.59129
0.121272 -2.64729 -2.64729
0.21595 -2.64914 -2.64914
0.214574 -2.59313 -2.59313
0.120986 -2.61923 -2.61923
0.168601 -2.64817 -2.64817
0.215266 -2.62108 -2.62108
0.167623 -2.59216 -2.59216
0.168115 -2.6201 -2.6201
0.121272 -2.64729 -2.64729
0.12183 -2.70376 -2.70376
0.217299 -2.70563 -2.70563
0.21595 -2.64914 -2.64914
0.121554 -2.67547 -2.67547
0.169554 -2.70464 -2.70464
0.216628 -2.67733 -2.67733
0.168601 -2.64817 -2.64817
0.16908 -2.67635 -2.67635
0.12183 -2.70376 -2.70376
0.122367 -2.7607 -2.7607
0.218619 -2.76257 -2.76257
0.217299 -2.70563 -2.70563
0.122101 -2.73217 -2.73217
0.170482 -2.76159 -2.76159
0.217962 -2.73404 -2.73404
0.169554 -2.70464 -2.70464
0.170021 -2.73306 -2.73306
0.122367 -2.7607 -2.7607
0.122882 -2.8181 -2.8181
0.21991 -2.81999 -2.81999
0.218619 -2.76257 -2.76257
0.122627 -2.78934 -2.78934
0.171386 -2.81899 -2.81899
0.219268 -2.79122 -2.79122
0.170482 -2.76159 -2.76159
0.170937 -2.79023 -2.79023
0.122882 -2.8181 -2.8181
0.123377 -2.87596 -2.87596
0.221173 -2.87785 -2.87785
0.21991 -2.81999 -2.81999
0.123132 -2.84697 -2.84697
0.172265 -2.87686 -2.87686
0.220545 -2.84886 -2.84886
0.171386 -2.81899 -2.81899
0.171828 -2.84787 -2.84787
0.123377 -2.87596 -2.87596
0.12385 -2.93427 -2.93427
0.222409 -2.93617 -2.93617
0.221173 -2.87785 -2.87785
0.123616 -2.90506 -2.90506
0.173119 -2.93517 -2.93517
0.221795 -2.90696 -2.90696
0.172265 -2.87686 -2.87686
0.172695 -2.90596 -2.90596
0.12385 -2.93427 -2.93427
0.124303 -2.99303 -2.99303
0.223616 -2.99495 -2.99495
0.222409 -2.93617 -2.93617
0.124079 -2.9636 -2.9636
0.173948 -2.99394 -2.99394
0.223016 -2.9655 -2.9655
0.173119 -2.93517 -2.93517
0.173537 -2.9645 -2.9645
0.124303 -2.99303 -2.99303
0.124734 -3.05224 -3.05224
0.224794 -3.05416 -3.05416
0.223616 -2.99495 -2.99495
0.124521 -3.02258 -3.02258
0.174753 -3.05315 -3.05315
0.224208 -3.0245 -3.0245
0.173948 -2.99394 -2.99394
0.174354 -3.02349 -3.02349
0.124734 -3.05224 -3.05224
0.125144 -3.11188 -3.11188
0.225945 -3.11382 -3.11382
0.224794 -3.05416 -3.05416
0.124942 -3.082 -3.082
0.175534 -3.1128 -3.1128
0.225373 -3.08393 -3.08393
0.174753 -3.05315 -3.05315
0.175147 -3.08292 -3.08292
0.125144 -3.11188 -3.11188
0.125533 -3.17196 -3.17196
0.227067 -3.17391 -3.17391
0.225945 -3.11382 -3.11382
0.125341 -3.14187 -3.14187
0.17629 -3.17289 -3.17289
0.22651 -3.14381 -3.14381
0.175534 -3.1128 -3.1128
0.175915 -3.14279 -3.14279
0.125533 -3.17196 -3.17196
0.125902 -3.23248 -3.23248
0.228162 -3.23443 -3.23443
0.227067 -3.17391 -3.17391
0.12572 -3.20217 -3.20217
0.177021 -3.23341 -3.23341
0.227618 -3.20411 -3.20411
0.17629 -3.17289 -3.17289
0.176658 -3.20309 -3.20309
0.125902 -3.23248 -3.23248
0.126249 -3.29342 -3.29342
0.229228 -3.29538 -3.29538
0.228162 -3.23443 -3.23443
0.126078 -3.26289 -3.26289
0.177728 -3.29435 -3.29435
0.228698 -3.26485 -3.26485
0.177021 -3.23341 -3.23341
0.177377 -3.26383 -3.26383
0.126249 -3.29342 -3.29342
0.126575 -3.35478 -3.35478
0.230266 -3.35676 -3.35676
0.229228 -3.29538 -3.29538
0.126415 -3.32405 -3.32405
0.17841 -3.35572 -3.35572
0.22975 -3.32602 -3.32602
0.177728 -3.29435 -3.29435
0.178072 -3.32499 -3.32499
0.126575 -3.35478 -3.35478
0.126881 -3.41657 -3.41657
0.231276 -3.41855 -3.41855
0.230266 -3.35676 -3.35676
0.126731 -3.38562 -3.38562
0.179068 -3.41751 -3.41751
0.230774 -3.3876 -3.3876
0.17841 -3.35572 -3.35572
0.178742 -3.38657 -3.38657
0.126881 -3.41657 -3.41657
0.127166 -3.47876 -3.47876
0.232258 -3.48076 -3.48076
0.231276 -3.41855 -3.41855
0.127026 -3.44761 -3.44761
0.179701 -3.47972 -3.47972
0.231771 -3.4496 -3.4496
0.179068 -3.41751 -3.41751
0.179388 -3.44856 -3.44856
0.127166 -3.47876 -3.47876
0.12743 -3.54137 -3.54137
0.233212 -3.54338 -3.54338
0.232258 -3.48076 -3.48076
0.1273 -3.51002 -3.51002
0.18031 -3.54233 -3.54233
0.232739 -3.51202 -3.51202
0.179701 -3.47972 -3.47972
0.180009 -3.51097 -3.51097
0.12743 -3.54137 -3.54137
0.127673 -3.60439 -3.60439
0.234138 -3.6064 -3.6064
0.233212 -3.54338 -3.54338
0.127554 -3.57283 -3.57283
0.180895 -3.60535 -3.60535
0.233679 -3.57484 -3.57484
0.18031 -3.54233 -3.54233
0.180606 -3.57379 -3.57379
0.127673 -3.60439 -3.60439
0.127895 -3.66781 -3.66781
0.235037 -3.66983 -3.66983
0.234138 -3.6064 -3.6064
0.127786 -3.63605 -3.63605
0.181455 -3.66878 -3.66878
0.234591 -3.63807 -3.63807
0.180895 -3.60535 -3.60535
0.181178 -3.63701 -3.63701
0.127895 -3.66781 -3.66781
0.128097 -3.73162 -3.73162
0.235907 -3.73366 -3.73366
0.235037 -3.66983 -3.66983
0.127998 -3.69967 -3.69967
0.181991 -3.7326 -3.7326
0.235476 -3.70169 -3.70169
0.181455 -3.66878 -3.66878
0.181726 -3.70064 -3.70064
0.128097 -3.73162 -3.73162
0.128278 -3.79583 -3.79583
0.23675 -3.79788 -3.79788
0.235907 -3.73366 -3.73366
0.12819 -3.76368 -3.76368
0.182503 -3.79681 -3.79681
0.236332 -3.76572 -3.76572
0.181991 -3.7326 -3.7326
0.18225 -3.76466 -3.76466
0.128278 -3.79583 -3.79583
0.128438 -3.86043 -3.86043
0.237565 -3.86249 -3.86249
0.23675 -3.79788 -3.79788
0.128361 -3.82809 -3.82809
0.182991 -3.86142 -3.86142
0.237161 -3.83013 -3.83013
0.182503 -3.79681 -3.79681
0.18275 -3.82907 -3.82907
0.128438 -3.86043 -3.86043
0.128578 -3.92542 -3.92542
0.238352 -3.92748 -3.92748
0.237565 -3.86249 -3.86249
0.128511 -3.89288 -3.89288
0.183455 -3.92641 -3.92641
0.237962 -3.89493 -3.89493
0.182991 -3.86142 -3.86142
0.183226 -3.89387 -3.89387
0.128578 -3.92542 -3.92542
0.128698 -3.99079 -3.99079
0.239112 -3.99286 -3.99286
0.238352 -3.92748 -3.92748
0.128641 -3.95806 -3.95806
0.183894 -3.99178 -3.99178
0.238736 -3.96012 -3.96012
0.183455 -3.92641 -3.92641
0.183677 -3.95905 -3.95905
0.128698 -3.99079 -3.99079
0.128797 -4.05653 -4.05653
0.239844 -4.05861 -4.05861
0.239112 -3.99286 -3.99286
0.12875 -4.02361 -4.02361
0.18431 -4.05753 -4.05753
0.239481 -4.02568 -4.02568
0.183894 -3.99178 -3.99178
0.184105 -4.02461 -4.02461
0.128797 -4.05653 -4.05653
0.128875 -4.12264 -4.12264
0.240548 -4.12473 -4.12473
0.239844 -4.05861 -4.05861
0.128839 -4.08954 -4.08954
0.184701 -4.12365 -4.12365
0.2402 -4.09162 -4.09162
0.18431 -4.05753 -4.05753
0.184508 -4.09054 -4.09054
0.128875 -4.12264 -4.12264
0.128934 -4.18913 -4.18913
0.241225 -4.19122 -4.19122
0.240548 -4.12473 -4.12473
0.128907 -4.15584 -4.15584
0.185069 -4.19014 -4.19014
0.24089 -4.15793 -4.15793
0.184701 -4.12365 -4.12365
0.184888 -4.15685 -4.15685
0.128934 -4.18913 -4.18913
0.128972 -4.25598 -4.25598
0.241875 -4.25808 -4.25808
0.241225 -4.19122 -4.19122
0.128955 -4.22251 -4.22251
0.185413 -4.25699 -4.25699
0.241554 -4.22461 -4.22461
0.185069 -4.19014 -4.19014
0.185244 -4.22352 -4.22352
0.128972 -4.25598 -4.25598
0.128989 -4.32318 -4.32318
0.242497 -4.3253 -4.3253
0.241875 -4.25808 -4.25808
0.128983 -4.28954 -4.28954
0.185732 -4.3242 -4.3242
0.242189 -4.29164 -4.29164
0.185413 -4.25699 -4.25699
0.185575 -4.29055 -4.29055
0.128989 -4.32318 -4.32318
0.128987 -4.39075 -4.39075
0.243092 -4.39287 -4.39287
0.242497 -4.3253 -4.3253
0.128991 -4.35692 -4.35692
0.186029 -4.39177 -4.39177
0.242798 -4.35904 -4.35904
0.185732 -4.3242 -4.3242
0.185884 -4.35794 -4.35794
0.128987 -4.39075 -4.39075
0.128964 -4.45866 -4.45866
0.24366 -4.46079 -4.46079
0.243092 -4.39287 -4.39287
0.128978 -4.42466 -4.42466
0.186301 -4.45969 -4.45969
0.243379 -4.42679 -4.42679
0.186029 -4.39177 -4.39177
0.186168 -4.42569 -4.42569
0.128964 -4.45866 -4.45866
0.128922 -4.52692 -4.52692
0.2442 -4.52906 -4.52906
0.24366 -4.46079 -4.46079
0.128946 -4.49275 -4.49275
0.18655 -4.52796 -4.52796
0.243933 -4.49488 -4.49488
0.186301 -4.45969 -4.45969
0.186429 -4.49378 -4.49378
0.128922 -4.52692 -4.52692
0.128859 -4.59553 -4.59553
0.244713 -4.59768 -4.59768
0.2442 -4.52906 -4.52906
0.128893 -4.56118 -4.56118
0.186776 -4.59657 -4.59657
0.24446 -4.56333 -4.56333
0.18655 -4.52796 -4.52796
0.186666 -4.56222 -4.56222
0.128859 -4.59553 -4.59553
0.128777 -4.66447 -4.66447
0.2452 -4.66663 -4.66663
0.244713 -4.59768 -4.59768
0.128821 -4.62996 -4.62996
0.186978 -4.66551 -4.66551
0.24496 -4.63211 -4.63211
0.186776 -4.59657 -4.59657
0.18688 -4.631 -4.631
0.128777 -4.66447 -4.66447
0.128675 -4.73375 -4.73375
0.245659 -4.73591 -4.73591
0.2452 -4.66663 -4.66663
0.128729 -4.69907 -4.69907
0.187156 -4.7348 -4.7348
0.245433 -4.70123 -4.70123
0.186978 -4.66551 -4.66551
0.18707 -4.70011 -4.70011
0.128675 -4.73375 -4.73375
0.128553 -4.80336 -4.80336
0.246092 -4.80553 -4.80553
0.245659 -4.73591 -4.73591
0.128616 -4.76851 -4.76851
0.187312 -4.80441 -4.80441
0.245879 -4.77068 -4.77068
0.187156 -4.7348 -4.7348
0.187237 -4.76956 -4.76956
0.128553 -4.80336 -4.80336
0.128411 -4.87329 -4.87329
0.246497 -4.87547 -4.87547
0.246092 -4.80553 -4.80553
0.128485 -4.83828 -4.83828
0.187444 -4.87435 -4.87435
0.246298 -4.84046 -4.84046
0.187312 -4.80441 -4.80441
0.18738 -4.83934 -4.83934
0.128411 -4.87329 -4.87329
0.12825 -4.94355 -4.94355
0.246876 -4.94573 -4.94573
0.246497 -4.87547 -4.87547
0.128333 -4.90838 -4.90838
0.187552 -4.94461 -4.94461
0.24669 -4.91056 -4.91056
0.187444 -4.87435 -4.87435
0.187501 -4.90944 -4.90944
0.12825 -4.94355 -4.94355
0.12807 -5.01412 -5.01412
0.247228 -5.01631 -5.01631
0.246876 -4.94573 -4.94573
0.128162 -4.97879 -4.97879
0.187638 -5.01518 -5.01518
0.247055 -4.98099 -4.98099
0.187552 -4.94461 -4.94461
0.187598 -4.97986 -4.97986
0.12807 -5.01412 -5.01412
0.127869 -5.08501 -5.08501
0.247554 -5.08721 -5.08721
0.247228 -5.01631 -5.01631
0.127972 -5.04952 -5.04952
0.187701 -5.08607 -5.08607
0.247394 -5.05172 -5.05172
0.187638 -5.01518 -5.01518
0.187672 -5.05059 -5.05059
0.127869 -5.08501 -5.08501
0.12765 -5.1562 -5.1562
0.247853 -5.15841 -5.15841
0.247554 -5.08721 -5.08721
0.127762 -5.12057 -5.12057
0.187741 -5.15727 -5.15727
0.247707 -5.12277 -5.12277
0.187701 -5.08607 -5.08607
0.187724 -5.12164 -5.12164
0.12765 -5.1562 -5.1562
0.127411 -5.2277 -5.2277
0.248126 -5.22992 -5.22992
0.247853 -5.15841 -5.15841
0.127533 -5.19191 -5.19191
0.187757 -5.22878 -5.22878
0.247993 -5.19413 -5.19413
0.187741 -5.15727 -5.15727
0.187752 -5.19299 -5.19299
0.127411 -5.2277 -5.2277
0.127153 -5.2995 -5.2995
0.248372 -5.30173 -5.30173
0.248126 -5.22992 -5.22992
0.127284 -5.26356 -5.26356
0.187752 -5.30058 -5.30058
0.248252 -5.26578 -5.26578
0.187757 -5.22878 -5.22878
0.187757 -5.26464 -5.26464
0.127153 -5.2995 -5.2995
0.126876 -5.3716 -5.3716
0.248592 -5.37383 -5.37383
0.248372 -5.30173 -5.30173
0.127017 -5.33551 -5.33551
0.187723 -5.37268 -5.37268
0.248485 -5.33774 -5.33774
0.187752 -5.30058 -5.30058
0.18774 -5.33659 -5.33659
0.126876 -5.3716 -5.3716
0.12658 -5.44399 -5.44399
0.248786 -5.44622 -5.44622
0.248592 -5.37383 -5.37383
0.12673 -5.40776 -5.40776
0.187672 -5.44507 -5.44507
0.248692 -5.40999 -5.40999
0.187723 -5.37268 -5.37268
0.1877 -5.40884 -5.40884
0.12658 -5.44399 -5.44399
0.126265 -5.51666 -5.51666
0.248953 -5.51891 -5.51891
0.248786 -5.44622 -5.44622
0.126425 -5.48029 -5.48029
0.187598 -5.51775 -5.51775
0.248873 -5.48253 -5.48253
0.187672 -5.44507 -5.44507
0.187638 -5.48138 -5.48138
0.126265 -5.51666 -5.51666
0.125931 -5.58962 -5.58962
0.249095 -5.59187 -5.59187
0.248953 -5.51891 -5.51891
0.1261 -5.55311 -5.55311
0.187502 -5.59072 -5.59072
0.249028 -5.55535 -5.55535
0.187598 -5.51775 -5.51775
0.187553 -5.5542 -5.5542
0.125931 -5.58962 -5.58962
0.125578 -5.66286 -5.66286
0.249211 -5.66512 -5.66512
0.249095 -5.59187 -5.59187
0.125757 -5.62621 -5.62621
0.187384 -5.66396 -5.66396
0.249156 -5.62846 -5.62846
0.187502 -5.59072 -5.59072
0.187446 -5.6273 -5.6273
0.125578 -5.66286 -5.66286
0.125207 -5.73638 -5.73638
0.249301 -5.73864 -5.73864
0.249211 -5.66512 -5.66512
0.125395 -5.69959 -5.69959
0.187243 -5.73748 -5.73748
0.249259 -5.70184 -5.70184
0.187384 -5.66396 -5.66396
0.187316 -5.70069 -5.70069
0.125207 -5.73638 -5.73638
0.124817 -5.81016 -5.81016
0.249365 -5.81243 -5.81243
0.249301 -5.73864 -5.73864
0.125014 -5.77324 -5.77324
0.18708 -5.81127 -5.81127
0.249336 -5.7755 -5.7755
0.187243 -5.73748 -5.73748
0.187164 -5.77434 -5.77434
0.124817 -5.81016 -5.81016
0.124408 -5.88421 -5.88421
0.249404 -5.88649 -5.88649
0.249365 -5.81243 -5.81243
0.124615 -5.84715 -5.84715
0.186895 -5.88532 -5.88532
0.249388 -5.84942 -5.84942
0.18708 -5.81127 -5.81127
0.18699 -5.84826 -5.84826
0.124408 -5.88421 -5.88421
0.123981 -5.95853 -5.95853
0.249417 -5.96081 -5.96081
0.249404 -5.88649 -5.88649
0.124197 -5.92134 -5.92134
0.186688 -5.95964 -5.95964
0.249414 -5.92361 -5.92361
0.186895 -5.88532 -5.88532
0.186795 -5.92245 -5.92245
0.123981 -5.95853 -5.95853
0.123536 -6.0331 -6.0331
0.249405 -6.03538 -6.03538
0.249417 -5.96081 -5.96081
0.123761 -5.99578 -5.99578
0.18646 -6.03421 -6.03421
0.249414 -5.99806 -5.99806
0.186688 -5.95964 -5.95964
0.186577 -5.99689 -5.99689
0.123536 -6.0331 -6.0331
0.123073 -6.10792 -6.10792
0.249367 -6.11021 -6.11021
0.249405 -6.03538 -6.03538
0.123307 -6.07048 -6.07048
0.186209 -6.10904 -6.10904
0.249389 -6.07277 -6.07277
0.18646 -6.03421 -6.03421
0.186337 -6.0716 -6.0716
0.123073 -6.10792 -6.10792
0.122592 -6.183 -6.183
0.249304 -6.18529 -6.18529
0.249367 -6.11021 -6.11021
0.122834 -6.14543 -6.14543
0.185937 -6.18412 -6.18412
0.249339 -6.14772 -6.14772
0.186209 -6.10904 -6.10904
0.186076 -6.14655 -6.14655
0.122592 -6.183 -6.183
0.122092 -6.25832 -6.25832
0.249216 -6.26062 -6.26062
0.249304 -6.18529 -6.18529
0.122344 -6.22063 -6.22063
0.185643 -6.25944 -6.25944
0.249263 -6.22293 -6.22293
0.185937 -6.18412 -6.18412
0.185793 -6.22175 -6.22175
0.122092 -6.25832 -6.25832
0.121575 -6.33388 -6.33388
0.249103 -6.33619 -6.33619
0.249216 -6.26062 -6.26062
0.121836 -6.29607 -6.29607
0.185328 -6.33501 -6.33501
0.249163 -6.29837 -6.29837
0.185643 -6.25944 -6.25944
0.185488 -6.2972 -6.2972
0.121575 -6.33388 -6.33388
0.12104 -6.40968 -6.40968
0.248965 -6.41199 -6.41199
0.249103 -6.33619 -6.33619
0.12131 -6.37175 -6.37175
0.184991 -6.41081 -6.41081
0.249037 -6.37406 -6.37406
0.185328 -6.33501 -6.33501
0.185162 -6.37288 -6.37288
0.12104 -6.40968 -6.40968
0.120487 -6.48571 -6.48571
0.248802 -6.48803 -6.48803
0.248965 -6.41199 -6.41199
0.120766 -6.44767 -6.44767
0.184634 -6.48684 -6.48684
0.248887 -6.44998 -6.44998
0.184991 -6.41081 -6.41081
0.184815 -6.4488 -6.4488
0.120487 -6.48571 -6.48571
0.119917 -6.56197 -6.56197
0.248615 -6.56429 -6.56429
0.248802 -6.48803 -6.48803
0.120204 -6.52381 -6.52381
0.184255 -6.56311 -6.56311
0.248711 -6.52613 -6.52613
0.184634 -6.48684 -6.48684
0.184447 -6.52495 -6.52495
0.119917 -6.56197 -6.56197
0.119329 -6.63846 -6.63846
0.248402 -6.64078 -6.64078
0.248615 -6.56429 -6.56429
0.119625 -6.60019 -6.60019
0.183855 -6.63959 -6.63959
0.248512 -6.60251 -6.60251
0.184255 -6.56311 -6.56311
0.184057 -6.60132 -6.60132
0.119329 -6.63846 -6.63846
0.118724 -6.71516 -6.71516
0.248166 -6.71749 -6.71749
0.248402 -6.64078 -6.64078
0.119028 -6.67678 -6.67678
0.183434 -6.7163 -6.7163
0.248287 -6.6791 -6.6791
0.183855 -6.63959 -6.63959
0.183647 -6.67792 -6.67792
0.118724 -6.71516 -6.71516
0.118101 -6.79208 -6.79208
0.247905 -6.79441 -6.79441
0.248166 -6.71749 -6.71749
0.118415 -6.75359 -6.75359
0.182992 -6.79322 -6.79322
0.248038 -6.75592 -6.75592
0.183434 -6.7163 -6.7163
0.183215 -6.75473 -6.75473
0.118101 -6.79208 -6.79208
0.117462 -6.86921 -6.86921
0.247619 -6.87154 -6.87154
0.247905 -6.79441 -6.79441
0.117784 -6.83062 -6.83062
0.182529 -6.87035 -6.87035
0.247765 -6.83295 -6.83295
0.182992 -6.79322 -6.79322
0.182763 -6.83176 -6.83176
0.117462 -6.86921 -6.86921
0.116805 -6.94655 -6.94655
0.24731 -6.94889 -6.94889
0.247619 -6.87154 -6.87154
0.117136 -6.90785 -6.90785
0.182046 -6.94769 -6.94769
0.247467 -6.91019 -6.91019
0.182529 -6.87035 -6.87035
0.18229 -6.909 -6.909
0.116805 -6.94655 -6.94655
0.116132 -7.02409 -7.02409
0.246976 -7.02643 -7.02643
0.24731 -6.94889 -6.94889
0.116471 -6.98529 -6.98529
0.181543 -7.02524 -7.02524
0.247146 -6.98763 -6.98763
0.182046 -6.94769 -6.94769
0.181797 -6.98644 -6.98644
0.116132 -7.02409 -7.02409
0.115441 -7.10183 -7.10183
0.246618 -7.10417 -7.10417
0.246976 -7.02643 -7.02643
0.115789 -7.06294 -7.06294
0.181019 -7.10298 -7.10298
0.2468 -7.06528 -7.06528
0.181543 -7.02524 -7.02524
0.181283 -7.06408 -7.06408
0.115441 -7.10183 -7.10183
0.114734 -7.17976 -7.17976
0.246237 -7.18211 -7.18211
0.246618 -7.10417 -7.10417
0.11509 -7.14077 -7.14077
0.180474 -7.18092 -7.18092
0.246431 -7.14312 -7.14312
0.181019 -7.10298 -7.10298
0.180749 -7.14192 -7.14192
0.114734 -7.17976 -7.17976
0.114011 -7.25789 -7.25789
0.245832 -7.26024 -7.26024
0.246237 -7.18211 -7.18211
0.114375 -7.2188 -7.2188
0.17991 -7.25904 -7.25904
0.246037 -7.22115 -7.22115
0.180474 -7.18092 -7.18092
0.180195 -7.21996 -7.21996
0.114011 -7.25789 -7.25789
0.113271 -7.3362 -7.3362
0.245403 -7.33855 -7.33855
0.245832 -7.26024 -7.26024
0.113643 -7.29702 -7.29702
0.179326 -7.33735 -7.33735
0.24562 -7.29937 -7.29937
0.17991 -7.25904 -7.25904
0.17962 -7.29818 -7.29818
0.113271 -7.3362 -7.3362
0.112514 -7.41469 -7.41469
0.244951 -7.41704 -7.41704
0.245403 -7.33855 -7.33855
0.112895 -7.37542 -7.37542
0.178721 -7.41585 -7.41585
0.24518 -7.37777 -7.37777
0.179326 -7.33735 -7.33735
0.179026 -7.37658 -7.37658
0.112514 -7.41469 -7.41469
0.111742 -7.49336 -7.49336
0.244475 -7.49572 -7.49572
0.244951 -7.41704 -7.41704
0.11213 -7.45401 -7.45401
0.178097 -7.49452 -7.49452
0.244716 -7.45636 -7.45636
0.178721 -7.41585 -7.41585
0.178412 -7.45516 -7.45516
0.111742 -7.49336 -7.49336
0.110953 -7.57221 -7.57221
0.243976 -7.57456 -7.57456
0.244475 -7.49572 -7.49572
0.111349 -7.53276 -7.53276
0.177453 -7.57337 -7.57337
0.244228 -7.53512 -7.53512
0.178097 -7.49452 -7.49452
0.177778 -7.53392 -7.53392
0.110953 -7.57221 -7.57221
0.110148 -7.65122 -7.65122
0.243454 -7.65358 -7.65358
0.243976 -7.57456 -7.57456
0.110553 -7.61169 -7.61169
0.17679 -7.65238 -7.65238
0.243718 -7.61405 -7.61405
0.177453 -7.57337 -7.57337
0.177124 -7.61285 -7.61285
0.110148 -7.65122 -7.65122
0.109328 -7.7304 -7.7304
0.242909 -7.73275 -7.73275
0.243454 -7.65358 -7.65358
0.10974 -7.69079 -7.69079
0.176107 -7.73156 -7.73156
0.243184 -7.69314 -7.69314
0.17679 -7.65238 -7.65238
0.176451 -7.69195 -7.69195
0.109328 -7.7304 -7.7304
0.108492 -7.80973 -7.80973
0.242341 -7.81209 -7.81209
0.242909 -7.73275 -7.73275
0.108912 -7.77004 -7.77004
0.175405 -7.8109 -7.8109
0.242628 -7.7724 -7.7724
0.176107 -7.73156 -7.73156
0.175759 -7.77121 -7.77121
0.108492 -7.80973 -7.80973
0.10764 -7.88923 -7.88923
0.24175 -7.89159 -7.89159
0.242341 -7.81209 -7.81209
0.108068 -7.84946 -7.84946
0.174684 -7.89039 -7.89039
0.242048 -7.85182 -7.85182
0.175405 -7.8109 -7.8109
0.175047 -7.85062 -7.85062
0.10764 -7.88923 -7.88923
0.106772 -7.96887 -7.96887
0.241137 -7.97124 -7.97124
0.24175 -7.89159 -7.89159
0.107208 -7.92903 -7.92903
0.173943 -7.97004 -7.97004
0.241446 -7.93139 -7.93139
0.174684 -7.89039 -7.89039
0.174316 -7.9302 -7.9302
0.106772 -7.96887 -7.96887
0.105889 -8.04867 -8.04867
0.240501 -8.05103 -8.05103
0.241137 -7.97124 -7.97124
0.106333 -8.00875 -8.00875
0.173184 -8.04983 -8.04983
0.240822 -8.01111 -8.01111
0.173943 -7.97004 -7.97004
0.173566 -8.00992 -8.00992
0.105889 -8.04867 -8.04867
0.104991 -8.12861 -8.12861
0.239843 -8.13097 -8.13097
0.240501 -8.05103 -8.05103
0.105442 -8.08862 -8.08862
0.172406 -8.12977 -8.12977
0.240175 -8.09098 -8.09098
0.173184 -8.04983 -8.04983
0.172797 -8.08979 -8.08979
0.104991 -8.12861 -8.12861
0.104078 -8.20868 -8.20868
0.239162 -8.21105 -8.21105
0.239843 -8.13097 -8.13097
0.104537 -8.16863 -8.16863
0.171609 -8.20985 -8.20985
0.239505 -8.17099 -8.17099
0.172406 -8.12977 -8.12977
0.17201 -8.16979 -8.16979
0.104078 -8.20868 -8.20868
0.10315 -8.2889 -8.2889
0.238459 -8.29126 -8.29126
0.239162 -8.21105 -8.21105
0.103616 -8.24877 -8.24877
0.170794 -8.29006 -8.29006
0.238814 -8.25114 -8.25114
0.171609 -8.20985 -8.20985
0.171204 -8.24994 -8.24994
0.10315 -8.2889 -8.2889
0.102207 -8.36924 -8.36924
0.237735 -8.3716 -8.3716
0.238459 -8.29126 -8.29126
0.10268 -8.32905 -8.32905
0.16996 -8.37041 -8.37041
0.2381 -8.33141 -8.33141
0.170794 -8.29006 -8.29006
0.170379 -8.33022 -8.33022
0.102207 -8.36924 -8.36924
0.101249 -8.44971 -8.44971
0.236988 -8.45207 -8.45207
0.237735 -8.3716 -8.3716
0.10173 -8.40946 -8.40946
0.169107 -8.45088 -8.45088
0.237364 -8.41182 -8.41182
0.16996 -8.37041 -8.37041
0.169536 -8.41063 -8.41063
0.101249 -8.44971 -8.44971
0.100277 -8.5303 -8.5303
0.23622 -8.53266 -8.53266
0.236988 -8.45207 -8.45207
0.100765 -8.48999 -8.48999
0.168237 -8.53147 -8.53147
0.236607 -8.49235 -8.49235
0.169107 -8.45088 -8.45088
0.168674 -8.49116 -8.49116
0.100277 -8.5303 -8.5303
0.09929 -8.61101 -8.61101
0.23543 -8.61337 -8.61337
0.23622 -8.53266 -8.53266
0.0997853 -8.57064 -8.57064
0.167349 -8.61218 -8.61218
0.235827 -8.573 -8.573
0.168237 -8.53147 -8.53147
0.167795 -8.57181 -8.57181
0.09929 -8.61101 -8.61101
0.0982888 -8.69184 -8.69184
0.234618 -8.6942 -8.6942
0.23543 -8.61337 -8.61337
0.0987912 -8.65141 -8.65141
0.166442 -8.69301 -8.69301
0.235027 -8.65377 -8.65377
0.167349 -8.61218 -8.61218
0.166898 -8.65258 -8.65258
0.0982888 -8.69184 -8.69184
0.0972734 -8.77277 -8.77277
0.233785 -8.77513 -8.77513
0.234618 -8.6942 -8.6942
0.0977829 -8.73229 -8.73229
0.165518 -8.77394 -8.77394
0.234204 -8.73465 -8.73465
0.166442 -8.69301 -8.69301
0.165982 -8.73346 -8.73346
0.0972734 -8.77277 -8.77277
0.0962438 -8.85381 -8.85381
0.232931 -8.85617 -8.85617
0.233785 -8.77513 -8.77513
0.0967603 -8.81328 -8.81328
0.164576 -8.85498 -8.85498
0.233361 -8.81564 -8.81564
0.165518 -8.77394 -8.77394
0.165049 -8.81445 -8.81445
0.0962438 -8.85381 -8.85381
0.0952003 -8.93496 -8.93496
0.232056 -8.93731 -8.93731
0.232931 -8.85617 -8.85617
0.0957238 -8.89437 -8.89437
0.163617 -8.93612 -8.93612
0.232496 -8.89673 -8.89673
0.164576 -8.85498 -8.85498
0.164099 -8.89554 -8.89554
0.0952003 -8.93496 -8.93496
0.0941429 -9.01619 -9.01619
0.23116 -9.01854 -9.01854
0.232056 -8.93731 -8.93731
0.0946733 -8.97556 -8.97556
0.16264 -9.01736 -9.01736
0.23161 -8.97791 -8.97791
0.163617 -8.93612 -8.93612
0.16313 -8.97673 -8.97673
0.0941429 -9.01619 -9.01619
0.0930719 -9.09753 -9.09753
0.230243 -9.09987 -9.09987
0.23116 -9.01854 -9.01854
0.0936091 -9.05685 -9.05685
0.161646 -9.09869 -9.09869
0.230704 -9.0592 -9.0592
0.16264 -9.01736 -9.01736
0.162145 -9.05801 -9.05801
0.0930719 -9.09753 -9.09753
0.0919872 -9.17895 -9.17895
0.229305 -9.18129 -9.18129
0.230243 -9.09987 -9.09987
0.0925312 -9.13822 -9.13822
0.160635 -9.18011 -9.18011
0.229776 -9.14057 -9.14057
0.161646 -9.09869 -9.09869
0.161142 -9.13939 -9.13939
0.0919872 -9.17895 -9.17895
0.0908891 -9.26045 -9.26045
0.228346 -9.26279 -9.26279
0.229305 -9.18129 -9.18129
0.0914399 -9.21969 -9.21969
0.159606 -9.26161 -9.26161
0.228828 -9.22203 -9.22203
0.160635 -9.18011 -9.18011
0.160123 -9.22085 -9.22085
0.0908891 -9.26045 -9.26045
0.0897778 -9.34203 -9.34203
0.227367 -9.34437 -9.34437
0.228346 -9.26279 -9.26279
0.0903351 -9.30123 -9.30123
0.158561 -9.3432 -9.3432
0.227859 -9.30357 -9.30357
0.159606 -9.26161 -9.26161
0.159086 -9.30239 -9.30239
0.0897778 -9.34203 -9.34203
0.0886532 -9.42369 -9.42369
0.226368 -9.42603 -9.42603
0.227367 -9.34437 -9.34437
0.0892171 -9.38285 -9.38285
0.157499 -9.42485 -9.42485
0.22687 -9.38519 -9.38519
0.158561 -9.3432 -9.3432
0.158032 -9.38402 -9.38402
0.0886532 -9.42369 -9.42369
0.0875156 -9.50543 -9.50543
0.225349 -9.50776 -9.50776
0.226368 -9.42603 -9.42603
0.088086 -9.46455 -9.46455
0.156421 -9.50659 -9.50659
0.225861 -9.46689 -9.46689
0.157499 -9.42485 -9.42485
0.156962 -9.46571 -9.46571
0.0875156 -9.50543 -9.50543
0.0863651 -9.58723 -9.58723
0.224309 -9.58956 -9.58956
0.225349 -9.50776 -9.50776
0.086942 -9.54632 -9.54632
0.155326 -9.58838 -9.58838
0.224832 -9.54865 -9.54865
0.156421 -9.50659 -9.50659
0.155875 -9.54748 -9.54748
0.0863651 -9.58723 -9.58723
0.0852019 -9.66909 -9.66909
0.22325 -9.67141 -9.67141
0.224309 -9.58956 -9.58956
0.0857851 -9.62815 -9.62815
0.154214 -9.67024 -9.67024
0.223782 -9.63048 -9.63048
0.155326 -9.58838 -9.58838
0.154772 -9.62931 -9.62931
0.0852019 -9.66909 -9.66909
0.084026 -9.75101 -9.75101
0.222171 -9.75333 -9.75333
0.22325 -9.67141 -9.67141
0.0846155 -9.71004 -9.71004
0.153087 -9.75216 -9.75216
0.222713 -9.71237 -9.71237
0.154214 -9.67024 -9.67024
0.153653 -9.7112 -9.7112
0.084026 -9.75101 -9.75101
0.0828375 -9.83299 -9.83299
0.221072 -9.8353 -9.8353
0.222171 -9.75333 -9.75333
0.0834333 -9.79199 -9.79199
0.151943 -9.83414 -9.83414
0.221624 -9.79431 -9.79431
0.153087 -9.75216 -9.75216
0.152517 -9.79315 -9.79315
0.0828375 -9.83299 -9.83299
0.0816366 -9.91501 -9.91501
0.219954 -9.91733 -9.91733
0.221072 -9.8353 -9.8353
0.0822386 -9.87399 -9.87399
0.150784 -9.91616 -9.91616
0.220515 -9.87631 -9.87631
0.151943 -9.83414 -9.83414
0.151365 -9.87515 -9.87515
0.0816366 -9.91501 -9.91501
0.0804234 -9.99709 -9.99709
0.218816 -9.99939 -9.99939
0.219954 -9.91733 -9.91733
0.0810316 -9.95604 -9.95604
0.149608 -9.99823 -9.99823
0.219387 -9.95835 -9.95835
0.150784 -9.91616 -9.91616
0.150198 -9.95719 -9.95719
0.0804234 -9.99709 -9.99709
0.0791978 -10.0792 -10.0792
0.217659 -10.0815 -10.0815
0.218816 -9.99939 -9.99939
0.0798121 -10.0381 -10.0381
0.148417 -10.0803 -10.0803
0.21824 -10.0404 -10.0404
0.149608 -9.99823 -9.99823
0.149015 -10.0393 -10.0393
0.0791978 -10.0792 -10.0792
0.0779596 -10.1614 -10.1614
0.216483 -10.1636 -10.1636
0.217659 -10.0815 -10.0815
0.0785802 -10.1203 -10.1203
0.14721 -10.1625 -10.1625
0.217074 -10.1226 -10.1226
0.148417 -10.0803 -10.0803
0.147815 -10.1214 -10.1214
0.0779596 -10.1614 -10.1614
0.0767086 -10.2435 -10.2435
0.215288 -10.2458 -10.2458
0.216483 -10.1636 -10.1636
0.0773357 -10.2024 -10.2024
0.145986 -10.2447 -10.2447
0.215888 -10.2047 -10.2047
0.14721 -10.1625 -10.1625
0.1466 -10.2036 -10.2036
0.0767086 -10.2435 -10.2435
0.0754441 -10.3258 -10.3258
0.214074 -10.328 -10.328
0.215288 -10.2458 -10.2458
0.0760781 -10.2846 -10.2846
0.144747 -10.3269 -10.3269
0.214684 -10.2869 -10.2869
0.145986 -10.2447 -10.2447
0.145369 -10.2858 -10.2858
0.0754441 -10.3258 -10.3258
0.0741655 -10.408 -10.408
0.212841 -10.4103 -10.4103
0.214074 -10.328 -10.328
0.0748066 -10.3669 -10.3669
0.143489 -10.4091 -10.4091
0.21346 -10.3692 -10.3692
0.144747 -10.3269 -10.3269
0.14412 -10.368 -10.368
0.0741655 -10.408 -10.408
0.0728715 -10.4903 -10.4903
0.211587 -10.4925 -10.4925
0.212841 -10.4103 -10.4103
0.0735204 -10.4491 -10.4491
0.142214 -10.4914 -10.4914
0.212216 -10.4514 -10.4514
0.143489 -10.4091 -10.4091
0.142854 -10.4503 -10.4503
0.0728715 -10.4903 -10.4903
0.0715626 -10.5725 -10.5725
0.210311 -10.5748 -10.5748
0.211587 -10.4925 -10.4925
0.0722189 -10.5314 -10.5314
0.140917 -10.5737 -10.5737
0.210952 -10.5337 -10.5337
0.142214 -10.4914 -10.4914
0.141568 -10.5325 -10.5325
0.0715626 -10.5725 -10.5725
0.0702413 -10.6548 -10.6548
0.209011 -10.6571 -10.6571
0.210311 -10.5748 -10.5748
0.0709029 -10.6137 -10.6137
0.139602 -10.656 -10.656
0.209664 -10.616 -10.616
0.140917 -10.5737 -10.5737
0.140262 -10.6148 -10.6148
0.0702413 -10.6548 -10.6548
0.0689184 -10.7371 -10.7371
0.207687 -10.7395 -10.7395
0.209011 -10.6571 -10.6571
0.0695793 -10.696 -10.696
0.138275 -10.7383 -10.7383
0.208351 -10.6983 -10.6983
0.139602 -10.656 -10.656
0.138938 -10.6971 -10.6971
0.0689184 -10.7371 -10.7371
0.0676045 -10.8194 -10.8194
0.206375 -10.8219 -10.8219
0.207687 -10.7395 -10.7395
0.0682598 -10.7783 -10.7783
0.136971 -10.8206 -10.8206
0.207025 -10.7807 -10.7807
0.138275 -10.7383 -10.7383
0.137619 -10.7795 -10.7795
0 0 0
0.00320312 -0.000912504 -0.000912504
0.0053761 -0.00269175 -0.00269175
0 0 0
0.00155455 -0.000327679 -0.000327679
0.00404762 -0.00162803 -0.00162803
0.00292408 -0.00167607 -0.00167607
0 0 0
0.00193074 -0.000717134 -0.000717134
0.00320312 -0.000912504 -0.000912504
0.00667054 -0.0026324 -0.0026324
0.0100285 -0.00468062 -0.00468062
0.0053761 -0.00269175 -0.00269175
0.00492036 -0.00168942 -0.00168942
0.0082644 -0.00355279 -0.00355279
0.00770953 -0.00364862 -0.00364862
0.00404762 -0.00162803 -0.00162803
0.00616788 -0.00256123 -0.00256123
0.00667054 -0.0026324 -0.0026324
0.0101689 -0.00499477 -0.00499477
0.0147192 -0.00707955 -0.00707955
0.0100285 -0.00468062 -0.00468062
0.00842189 -0.00373059 -0.00373059
0.0124187 -0.00595892 -0.00595892
0.0123658 -0.00580997 -0.00580997
0.0082644 -0.00355279 -0.00355279
0.0103471 -0.0046777 -0.0046777
0.0101689 -0.00499477 -0.00499477
0.0136489 -0.00807011 -0.00807011
0.0194466 -0.0101644 -0.0101644
0.0147192 -0.00707955 -0.00707955
0.0119121 -0.00643916 -0.00643916
0.016536 -0.00903569 -0.00903569
0.0170797 -0.00852901 -0.00852901
0.0124187 -0.00595892 -0.00595892
0.0144805 -0.00740712 -0.00740712
0.0136489 -0.00807011 -0.00807011
0.0170978 -0.0119092 -0.0119092
0.0241973 -0.0139992 -0.0139992
0.0194466 -0.0101644 -0.0101644
0.015377 -0.009892 -0.009892
0.0206376 -0.0128733 -0.0128733
0.0218204 -0.0119854 -0.0119854
0.016536 -0.00903569 -0.00903569
0.0185885 -0.0108566 -0.0108566
0.0170978 -0.0119092 -0.0119092
0.0205221 -0.0165414 -0.0165414
0.0289479 -0.0186268 -0.0186268
0.0241973 -0.0139992 -0.0139992
0.0188128 -0.0141253 -0.0141253
0.0247234 -0.0175008 -0.0175008
0.0265734 -0.0162129 -0.0162129
0.0206376 -0.0128733 -0.0128733
0.0226825 -0.0150874 -0.0150874
0.0205221 -0.0165414 -0.0165414
0.023923 -0.0219754 -0.0219754
0.0336896 -0.0240536 -0.0240536
0.0289479 -0.0186268 -0.0186268
0.0222254 -0.019158 -0.019158
0.0287928 -0.0229307 -0.0229307
0.0313204 -0.0212401 -0.0212401
0.0247234 -0.0175008 -0.0175008
0.0267603 -0.0201152 -0.0201152
0.023923 -0.0219754 -0.0219754
0.0273028 -0.0282134 -0.0282134
0.0384135 -0.0302848 -0.0302848
0.0336896 -0.0240536 -0.0240536
0.0256155 -0.0249939 -0.0249939
0.0328431 -0.0291647 -0.0291647
0.0360541 -0.0270687 -0.0270687
0.0287928 -0.0229307 -0.0229307
0.0308205 -0.0259473 -0.0259473
0.0273028 -0.0282134 -0.0282134
0.0306618 -0.0352531 -0.0352531
0.0431155 -0.0373175 -0.0373175
0.0384135 -0.0302848 -0.0302848
0.0289849 -0.0316332 -0.0316332
0.0368727 -0.0362009 -0.0362009
0.0407674 -0.0337012 -0.0337012
0.0328431 -0.0291647 -0.0291647
0.0348606 -0.0325828 -0.0325828
0.0306618 -0.0352531 -0.0352531
0.0340003 -0.0430911 -0.0430911
0.0477928 -0.0451488 -0.0451488
0.0431155 -0.0373175 -0.0373175
0.0323336 -0.0390726 -0.0390726
0.0408799 -0.0440357 -0.0440357
0.0454574 -0.0411336 -0.0411336
0.0368727 -0.0362009 -0.0362009
0.0388792 -0.0400188 -0.0400188
0.0340003 -0.0430911 -0.0430911
0.0373182 -0.051723 -0.051723
0.0524437 -0.0537744 -0.0537744
0.0477928 -0.0451488 -0.0451488
0.0356618 -0.0473081 -0.0473081
0.0448641 -0.0526648 -0.0526648
0.0501216 -0.0493626 -0.0493626
0.0408799 -0.0440357 -0.0440357
0.0428749 -0.0482512 -0.0482512
0.0373182 -0.051723 -0.051723
0.0406156 -0.0611446 -0.0611446
0.0570675 -0.0631899 -0.0631899
0.0524437 -0.0537744 -0.0537744
0.0389695 -0.0563354 -0.0563354
0.0488244 -0.0620837 -0.0620837
0.054759 -0.0583837 -0.0583837
0.0448641 -0.0526648 -0.0526648
0.0468473 -0.0572758 -0.0572758
0.0406156 -0.0611446 -0.0611446
0.043892 -0.0713513 -0.0713513
0.0616635 -0.073391 -0.073391
0.0570675 -0.0631899 -0.0631899
0.0422564 -0.0661501 -0.0661501
0.0527606 -0.072288 -0.072288
0.059369 -0.0681925 -0.0681925
0.0488244 -0.0620837 -0.0620837
0.0507956 -0.0670879 -0.0670879
0.043892 -0.0713513 -0.0713513
0.0471474 -0.0823389 -0.0823389
0.0662313 -0.0843733 -0.0843733
0.0616635 -0.073391 -0.073391
0.0455223 -0.0767478 -0.0767478
0.0566721 -0.0832734 -0.0832734
0.0639509 -0.0787848 -0.0787848
0.0527606 -0.072288 -0.072288
0.0547195 -0.0776833 -0.0776833
0.0471474 -0.0823389 -0.0823389
0.0503814 -0.0941029 -0.0941029
0.0707707 -0.0961325 -0.0961325
0.0662313 -0.0843733 -0.0843733
0.0487671 -0.0881241 -0.0881241
0.0605589 -0.0950354 -0.0950354
0.0685046 -0.0901561 -0.0901561
0.0566721 -0.0832734 -0.0832734
0.0586186 -0.0890576 -0.0890576
0.0503814 -0.0941029 -0.0941029
0.053594 -0.106639 -0.106639
0.0752814 -0.108664 -0.108664
0.0707707 -0.0961325 -0.0961325
0.0519904 -0.100275 -0.100275
0.0644205 -0.10757 -0.10757
0.0730296 -0.102302 -0.102302
0.0605589 -0.0950354 -0.0950354
0.0624928 -0.101206 -0.101206
0.053594 -0.106639 -0.106639
0.0567848 -0.119943 -0.119943
0.0797632 -0.121964 -0.121964
0.0752814 -0.108664 -0.108664
0.0551921 -0.113196 -0.113196
0.0682568 -0.120872 -0.120872
0.0775259 -0.115218 -0.115218
0.0644205 -0.10757 -0.10757
0.0663419 -0.114125 -0.114125
0.0567848 -0.119943 -0.119943
0.0599536 -0.134011 -0.134011
0.0842159 -0.136028 -0.136028
0.0797632 -0.121964 -0.121964
0.058372 -0.126882 -0.126882
0.0720677 -0.134939 -0.134939
0.0819932 -0.128901 -0.128901
0.0682568 -0.120872 -0.120872
0.0701655 -0.12781 -0.12781
0.0599536 -0.134011 -0.134011
0.0631003 -0.148838 -0.148838
0.0886393 -0.150852 -0.150852
0.0842159 -0.136028 -0.136028
0.0615298 -0.14133 -0.14133
0.0758527 -0.149764 -0.149764
0.0864313 -0.143345 -0.143345
0.0720677 -0.134939 -0.134939
0.0739634 -0.142257 -0.142257
0.0631003 -0.148838 -0.148838
0.0662247 -0.16442 -0.16442
0.0930332 -0.166431 -0.166431
0.0886393 -0.150852 -0.150852
0.0646653 -0.156535 -0.156535
0.0796119 -0.165346 -0.165346
0.09084 -0.158547 -0.158547
0.0758527 -0.149764 -0.149764
0.0777355 -0.157461 -0.157461
0.0662247 -0.16442 -0.16442
0.0693265 -0.180754 -0.180754
0.0973974 -0.182761 -0.182761
0.0930332 -0.166431 -0.166431
0.0677784 -0.172493 -0.172493
0.0833449 -0.181678 -0.181678
0.095219 -0.174502 -0.174502
0.0796119 -0.165346 -0.165346
0.0814816 -0.173418 -0.173418
0.0693265 -0.180754 -0.180754
0.0724055 -0.197833 -0.197833
0.101732 -0.199838 -0.199838
0.0973974 -0.182761 -0.182761
0.0708689 -0.1892 -0.1892
0.0870515 -0.198757 -0.198757
0.0995683 -0.191207 -0.191207
0.0833449 -0.181678 -0.181678
0.0852015 -0.190124 -0.190124
0.0724055 -0.197833 -0.197833
0.0754616 -0.215655 -0.215655
0.106036 -0.217658 -0.217658
0.101732 -0.199838 -0.199838
0.0739364 -0.206652 -0.206652
0.0907317 -0.216578 -0.216578
0.103888 -0.208656 -0.208656
0.0870515 -0.198757 -0.198757
0.0888949 -0.207575 -0.207575
0.0754616 -0.215655 -0.215655
0.0784946 -0.234215 -0.234215
0.11031 -0.236216 -0.236216
0.106036 -0.217658 -0.217658
0.076981 -0.224843 -0.224843
0.0943852 -0.235138 -0.235138
0.108177 -0.226845 -0.226845
0.0907317 -0.216578 -0.216578
0.0925618 -0.225766 -0.225766
0.0784946 -0.234215 -0.234215
0.0815043 -0.253509 -0.253509
0.114553 -0.255509 -0.255509
0.11031 -0.236216 -0.236216
0.0800023 -0.243771 -0.243771
0.0980117 -0.254431 -0.254431
0.112435 -0.245771 -0.245771
0.0943852 -0.235138 -0.235138
0.0962018 -0.244693 -0.244693
0.0815043 -0.253509 -0.253509
0.0844904 -0.273533 -0.273533
0.118766 -0.275531 -0.275531
0.114553 -0.255509 -0.255509
0.0830003 -0.26343 -0.26343
0.101611 -0.274454 -0.274454
0.116663 -0.265429 -0.265429
0.0980117 -0.254431 -0.254431
0.0998149 -0.264352 -0.264352
0.0844904 -0.273533 -0.273533
0.0874529 -0.294281 -0.294281
0.122948 -0.296279 -0.296279
0.118766 -0.275531 -0.275531
0.0859747 -0.283817 -0.283817
0.105184 -0.295203 -0.295203
0.120861 -0.285814 -0.285814
0.101611 -0.274454 -0.274454
0.103401 -0.284738 -0.284738
0.0874529 -0.294281 -0.294281
0.0903916 -0.315751 -0.315751
0.127099 -0.317748 -0.317748
0.122948 -0.296279 -0.296279
0.0889253 -0.304926 -0.304926
0.108728 -0.316673 -0.316673
0.125027 -0.306923 -0.306923
0.105184 -0.295203 -0.295203
0.106959 -0.305848 -0.305848
0.0903916 -0.315751 -0.315751
0.0933063 -0.337938 -0.337938
0.131219 -0.339934 -0.339934
0.127099 -0.317748 -0.317748
0.091852 -0.326755 -0.326755
0.112246 -0.33886 -0.33886
0.129163 -0.328752 -0.328752
0.108728 -0.316673 -0.316673
0.11049 -0.327677 -0.327677
0.0933063 -0.337938 -0.337938
0.0961968 -0.360837 -0.360837
0.135307 -0.362833 -0.362833
0.131219 -0.339934 -0.339934
0.0947546 -0.349298 -0.349298
0.115735 -0.361759 -0.361759
0.133267 -0.351295 -0.351295
0.112246 -0.33886 -0.33886
0.113994 -0.350221 -0.350221
0.0961968 -0.360837 -0.360837
0.099063 -0.384444 -0.384444
0.139364 -0.386441 -0.386441
0.135307 -0.362833 -0.362833
0.097633 -0.372552 -0.372552
0.119197 -0.385367 -0.385367
0.13734 -0.374549 -0.374549
0.115735 -0.361759 -0.361759
0.11747 -0.373475 -0.373475
0.099063 -0.384444 -0.384444
0.101905 -0.408756 -0.408756
0.14339 -0.410752 -0.410752
0.139364 -0.386441 -0.386441
0.100487 -0.396512 -0.396512
0.12263 -0.409679 -0.409679
0.141381 -0.398509 -0.398509
0.119197 -0.385367 -0.385367
0.120917 -0.397436 -0.397436
0.101905 -0.408756 -0.408756
0.104722 -0.433767 -0.433767
0.147384 -0.435764 -0.435764
0.14339 -0.410752 -0.410752
0.103316 -0.421174 -0.421174
0.126036 -0.434691 -0.434691
0.145391 -0.423171 -0.423171
0.12263 -0.409679 -0.409679
0.124337 -0.422098 -0.422098
0.104722 -0.433767 -0.433767
0.107514 -0.459474 -0.459474
0.151345 -0.461472 -0.461472
0.147384 -0.435764 -0.435764
0.106121 -0.446534 -0.446534
0.129413 -0.460399 -0.460399
0.149368 -0.448531 -0.448531
0.126036 -0.434691 -0.434691
0.127728 -0.447458 -0.447458
0.107514 -0.459474 -0.459474
0.110281 -0.485872 -0.485872
0.155275 -0.487871 -0.487871
0.151345 -0.461472 -0.461472
0.108901 -0.472587 -0.472587
0.132761 -0.486798 -0.486798
0.153314 -0.474585 -0.474585
0.129413 -0.460399 -0.460399
0.131091 -0.473512 -0.473512
0.110281 -0.485872 -0.485872
0.113024 -0.512957 -0.512957
0.159172 -0.514958 -0.514958
0.155275 -0.487871 -0.487871
0.111656 -0.499329 -0.499329
0.136081 -0.513884 -0.513884
0.157228 -0.501329 -0.501329
0.132761 -0.486798 -0.486798
0.134425 -0.500256 -0.500256
0.113024 -0.512957 -0.512957
0.115741 -0.540724 -0.540724
0.163037 -0.542727 -0.542727
0.159172 -0.514958 -0.514958
0.114385 -0.526755 -0.526755
0.139372 -0.541653 -0.541653
0.161109 -0.528757 -0.528757
0.136081 -0.513884 -0.513884
0.13773 -0.527684 -0.527684
0.115741 -0.540724 -0.540724
0.118432 -0.569171 -0.569171
0.16687 -0.571175 -0.571175
0.163037 -0.542727 -0.542727
0.11709 -0.554863 -0.554863
0.142634 -0.570101 -0.570101
0.164958 -0.556867 -0.556867
0.139372 -0.541653 -0.541653
0.141007 -0.555793 -0.555793
0.118432 -0.569171 -0.569171
0.121099 -0.598291 -0.598291
0.17067 -0.600298 -0.600298
0.16687 -0.571175 -0.571175
0.119769 -0.583647 -0.583647
0.145867 -0.599223 -0.599223
0.168774 -0.585652 -0.585652
0.142634 -0.570101 -0.570101
0.144254 -0.584578 -0.584578
0.121099 -0.598291 -0.598291
0.123739 -0.628082 -0.628082
0.174437 -0.630091 -0.630091
0.17067 -0.600298 -0.600298
0.122422 -0.613103 -0.613103
0.149071 -0.629015 -0.629015
0.172557 -0.615111 -0.615111
0.145867 -0.599223 -0.599223
0.147473 -0.614035 -0.614035
0.123739 -0.628082 -0.628082
0.126354 -0.658538 -0.658538
0.178171 -0.660549 -0.660549
0.174437 -0.630091 -0.630091
0.12505 -0.643227 -0.643227
0.152246 -0.659473 -0.659473
0.176308 -0.645237 -0.645237
0.149071 -0.629015 -0.629015
0.150662 -0.644161 -0.644161
0.126354 -0.658538 -0.658538
0.128943 -0.689656 -0.689656
0.181872 -0.69167 -0.69167
0.178171 -0.660549 -0.660549
0.127652 -0.674014 -0.674014
0.155391 -0.690592 -0.690592
0.180026 -0.676027 -0.676027
0.152246 -0.659473 -0.659473
0.153822 -0.67495 -0.67495
0.128943 -0.689656 -0.689656
0.131506 -0.721431 -0.721431
0.18554 -0.723448 -0.723448
0.181872 -0.69167 -0.69167
0.130228 -0.705461 -0.705461
0.158506 -0.722369 -0.722369
0.18371 -0.707477 -0.707477
0.155391 -0.690592 -0.690592
0.156952 -0.706399 -0.706399
0.131506 -0.721431 -0.721431
0.134043 -0.753859 -0.753859
0.189175 -0.755879 -0.755879
0.18554 -0.723448 -0.723448
0.132778 -0.737563 -0.737563
0.161592 -0.754799 -0.754799
0.187362 -0.739582 -0.739582
0.158506 -0.722369 -0.722369
0.160053 -0.738503 -0.738503
0.134043 -0.753859 -0.753859
0.136554 -0.786935 -0.786935
0.192777 -0.788959 -0.788959
0.189175 -0.755879 -0.755879
0.135302 -0.770316 -0.770316
0.164648 -0.787878 -0.787878
0.19098 -0.772338 -0.772338
0.161592 -0.754799 -0.754799
0.163124 -0.771258 -0.771258
0.136554 -0.786935 -0.786935
0.139038 -0.820656 -0.820656
0.196345 -0.822683 -0.822683
0.192777 -0.788959 -0.788959
0.137799 -0.803716 -0.803716
0.167675 -0.821601 -0.821601
0.194565 -0.805741 -0.805741
0.164648 -0.787878 -0.787878
0.166165 -0.804659 -0.804659
0.139038 -0.820656 -0.820656
0.141496 -0.855018 -0.855018
0.199879 -0.857048 -0.857048
0.196345 -0.822683 -0.822683
0.14027 -0.837757 -0.837757
0.170671 -0.855965 -0.855965
0.198116 -0.839786 -0.839786
0.167675 -0.821601 -0.821601
0.169176 -0.838703 -0.838703
0.141496 -0.855018 -0.855018
0.143927 -0.890015 -0.890015
0.20338 -0.892049 -0.892049
0.199879 -0.857048 -0.857048
0.142715 -0.872437 -0.872437
0.173637 -0.890965 -0.890965
0.201634 -0.874469 -0.874469
0.170671 -0.855965 -0.855965
0.172158 -0.873385 -0.873385
0.143927 -0.890015 -0.890015
0.146332 -0.925644 -0.925644
0.206847 -0.927682 -0.927682
0.20338 -0.892049 -0.892049
0.145133 -0.907751 -0.907751
0.176573 -0.926596 -0.926596
0.205117 -0.909787 -0.909787
0.173637 -0.890965 -0.890965
0.175109 -0.908702 -0.908702
0.146332 -0.925644 -0.925644
0.14871 -0.9619 -0.9619
0.21028 -0.963943 -0.963943
0.206847 -0.927682 -0.927682
0.147525 -0.943694 -0.943694
0.179478 -0.962855 -0.962855
0.208567 -0.945734 -0.945734
0.176573 -0.926596 -0.926596
0.178029 -0.944647 -0.944647
0.14871 -0.9619 -0.9619
0.151062 -0.99878 -0.99878
0.213679 -1.00083 -1.00083
0.21028 -0.963943 -0.963943
0.149889 -0.980263 -0.980263
0.182354 -0.999737 -0.999737
0.211984 -0.982307 -0.982307
0.179478 -0.962855 -0.962855
0.18092 -0.981218 -0.981218
0.151062 -0.99878 -0.99878
0.153386 -1.03628 -1.03628
0.217044 -1.03833 -1.03833
0.213679 -1.00083 -1.00083
0.152227 -1.01745 -1.01745
0.185198 -1.03724 -1.03724
0.215366 -1.0195 -1.0195
0.182354 -0.999737 -0.999737
0.18378 -1.01841 -1.01841
0.153386 -1.03628 -1.03628
0.155683 -1.07439 -1.07439
0.220375 -1.07645 -1.07645
0.217044 -1.03833 -1.03833
0.154538 -1.05526 -1.05526
0.188012 -1.07535 -1.07535
0.218714 -1.05731 -1.05731
0.185198 -1.03724 -1.03724
0.186609 -1.05622 -1.05622
0.155683 -1.07439 -1.07439
0.157953 -1.11312 -1.11312
0.223671 -1.11518 -1.11518
0.220375 -1.07645 -1.07645
0.156822 -1.09368 -1.09368
0.190796 -1.11408 -1.11408
0.222027 -1.09574 -1.09574
0.188012 -1.07535 -1.07535
0.189408 -1.09464 -1.09464
0.157953 -1.11312 -1.11312
0.160197 -1.15245 -1.15245
0.226934 -1.15451 -1.15451
0.223671 -1.11518 -1.11518
0.159078 -1.13271 -1.13271
0.193549 -1.15341 -1.15341
0.225307 -1.13477 -1.13477
0.190796 -1.11408 -1.11408
0.192176 -1.13367 -1.13367
0.160197 -1.15245 -1.15245
0.162412 -1.19238 -1.19238
0.230162 -1.19445 -1.19445
0.226934 -1.15451 -1.15451
0.161308 -1.17234 -1.17234
0.19627 -1.19335 -1.19335
0.228552 -1.1744 -1.1744
0.193549 -1.15341 -1.15341
0.194913 -1.17331 -1.17331
0.162412 -1.19238 -1.19238
0.164601 -1.23291 -1.23291
0.233355 -1.23498 -1.23498
0.230162 -1.19445 -1.19445
0.16351 -1.21257 -1.21257
0.198961 -1.23388 -1.23388
0.231763 -1.21464 -1.21464
0.19627 -1.19335 -1.19335
0.19762 -1.21354 -1.21354
0.164601 -1.23291 -1.23291
0.166762 -1.27403 -1.27403
0.236514 -1.27611 -1.27611
0.233355 -1.23498 -1.23498
0.165685 -1.25339 -1.25339
0.201621 -1.27501 -1.27501
0.234939 -1.25547 -1.25547
0.198961 -1.23388 -1.23388
0.200295 -1.25437 -1.25437
0.166762 -1.27403 -1.27403
0.168896 -1.31574 -1.31574
0.239638 -1.31783 -1.31783
0.236514 -1.27611 -1.27611
0.167832 -1.29481 -1.29481
0.20425 -1.31672 -1.31672
0.23808 -1.2969 -1.2969
0.201621 -1.27501 -1.27501
0.20294 -1.29579 -1.29579
0.168896 -1.31574 -1.31574
0.171002 -1.35804 -1.35804
0.242728 -1.36013 -1.36013
0.239638 -1.31783 -1.31783
0.169952 -1.33682 -1.33682
0.206848 -1.35902 -1.35902
0.241187 -1.33891 -1.33891
0.20425 -1.31672 -1.31672
0.205553 -1.3378 -1.3378
0.171002 -1.35804 -1.35804
0.17308 -1.40092 -1.40092
0.245783 -1.40301 -1.40301
0.242728 -1.36013 -1.36013
0.172045 -1.37941 -1.37941
0.209415 -1.4019 -1.4019
0.24426 -1.3815 -1.3815
0.206848 -1.35902 -1.35902
0.208136 -1.38039 -1.38039
0.17308 -1.40092 -1.40092
0.175131 -1.44437 -1.44437
0.248803 -1.44647 -1.44647
0.245783 -1.40301 -1.40301
0.174109 -1.42257 -1.42257
0.211951 -1.44536 -1.44536
0.247297 -1.42467 -1.42467
0.209415 -1.4019 -1.4019
0.210687 -1.42356 -1.42356
0.175131 -1.44437 -1.44437
0.177155 -1.4884 -1.4884
0.251788 -1.49051 -1.49051
0.248803 -1.44647 -1.44647
0.176146 -1.46631 -1.46631
0.214455 -1.48939 -1.48939
0.2503 -1.46842 -1.46842
0.211951 -1.44536 -1.44536
0.213207 -1.4673 -1.4673
0.177155 -1.4884 -1.4884
0.17915 -1.53299 -1.53299
0.254738 -1.53511 -1.53511
0.251788 -1.49051 -1.49051
0.178156 -1.51062 -1.51062
0.216928 -1.53399 -1.53399
0.253268 -1.51274 -1.51274
0.214455 -1.48939 -1.48939
0.215695 -1.51162 -1.51162
0.17915 -1.53299 -1.53299
0.181118 -1.57815 -1.57815
0.257654 -1.58027 -1.58027
0.254738 -1.53511 -1.53511
0.180137 -1.5555 -1.5555
0.219369 -1.57915 -1.57915
0.256201 -1.55762 -1.55762
0.216928 -1.53399 -1.53399
0.218152 -1.5565 -1.5565
0.181118 -1.57815 -1.57815
0.183057 -1.62387 -1.62387
0.260534 -1.62599 -1.62599
0.257654 -1.58027 -1.58027
0.182091 -1.60094 -1.60094
0.221779 -1.62487 -1.62487
0.259098 -1.60306 -1.60306
0.219369 -1.57915 -1.57915
0.220578 -1.60194 -1.60194
0.183057 -1.62387 -1.62387
0.184969 -1.67014 -1.67014
0.263379 -1.67227 -1.67227
0.260534 -1.62599 -1.62599
0.184017 -1.64693 -1.64693
0.224158 -1.67115 -1.67115
0.261961 -1.64906 -1.64906
0.221779 -1.62487 -1.62487
0.222972 -1.64794 -1.64794
0.184969 -1.67014 -1.67014
0.186853 -1.71696 -1.71696
0.26619 -1.7191 -1.7191
0.263379 -1.67227 -1.67227
0.185915 -1.69348 -1.69348
0.226505 -1.71797 -1.71797
0.264789 -1.69562 -1.69562
0.224158 -1.67115 -1.67115
0.225335 -1.69449 -1.69449
0.186853 -1.71696 -1.71696
0.188709 -1.76433 -1.76433
0.268965 -1.76648 -1.76648
0.26619 -1.7191 -1.7191
0.187785 -1.74058 -1.74058
0.22882 -1.76535 -1.76535
0.267582 -1.74272 -1.74272
0.226505 -1.71797 -1.71797
0.227667 -1.74159 -1.74159
0.188709 -1.76433 -1.76433
0.190537 -1.81224 -1.81224
0.271704 -1.8144 -1.8144
0.268965 -1.76648 -1.76648
0.189627 -1.78822 -1.78822
0.231104 -1.81326 -1.81326
0.270339 -1.79037 -1.79037
0.22882 -1.76535 -1.76535
0.229966 -1.78924 -1.78924
0.190537 -1.81224 -1.81224
0.192337 -1.8607 -1.8607
0.274409 -1.86285 -1.86285
0.271704 -1.8144 -1.8144
0.19144 -1.8364 -1.8364
0.233356 -1.86172 -1.86172
0.273061 -1.83856 -1.83856
0.231104 -1.81326 -1.81326
0.232234 -1.83742 -1.83742
0.192337 -1.8607 -1.8607
0.194109 -1.90968 -1.90968
0.277079 -1.91184 -1.91184
0.274409 -1.86285 -1.86285
0.193226 -1.88512 -1.88512
0.235577 -1.91071 -1.91071
0.275748 -1.88728 -1.88728
0.233356 -1.86172 -1.86172
0.234471 -1.88614 -1.88614
0.194109 -1.90968 -1.90968
0.195852 -1.95919 -1.95919
0.279713 -1.96136 -1.96136
0.277079 -1.91184 -1.91184
0.194984 -1.93437 -1.93437
0.237766 -1.96022 -1.96022
0.2784 -1.93654 -1.93654
0.235577 -1.91071 -1.91071
0.236675 -1.9354 -1.9354
0.195852 -1.95919 -1.95919
0.197568 -2.00923 -2.00923
0.282311 -2.01141 -2.01141
0.279713 -1.96136 -1.96136
0.196713 -1.98415 -1.98415
0.239923 -2.01027 -2.01027
0.281016 -1.98632 -1.98632
0.237766 -1.96022 -1.96022
0.238848 -1.98518 -1.98518
0.197568 -2.00923 -2.00923
0.199255 -2.05979 -2.05979
0.284875 -2.06198 -2.06198
0.282311 -2.01141 -2.01141
0.198415 -2.03445 -2.03445
0.242048 -2.06083 -2.06083
0.283598 -2.03663 -2.03663
0.239923 -2.01027 -2.01027
0.24099 -2.03548 -2.03548
0.199255 -2.05979 -2.05979
0.200914 -2.11087 -2.11087
0.287403 -2.11306 -2.11306
0.284875 -2.06198 -2.06198
0.200088 -2.08527 -2.08527
0.244142 -2.11191 -2.11191
0.286143 -2.08746 -2.08746
0.242048 -2.06083 -2.06083
0.243099 -2.08631 -2.08631
0.200914 -2.11087 -2.11087
0.202545 -2.16246 -2.16246
0.289896 -2.16466 -2.16466
0.287403 -2.11306 -2.11306
0.201733 -2.1366 -2.1366
0.246204 -2.16351 -2.16351
0.288654 -2.1388 -2.1388
0.244142 -2.11191 -2.11191
0.245177 -2.13765 -2.13765
0.202545 -2.16246 -2.16246
0.204147 -2.21456 -2.21456
0.292353 -2.21676 -2.21676
0.289896 -2.16466 -2.16466
0.20335 -2.18845 -2.18845
0.248234 -2.21561 -2.21561
0.291129 -2.19065 -2.19065
0.246204 -2.16351 -2.16351
0.247223 -2.18949 -2.18949
0.204147 -2.21456 -2.21456
0.205722 -2.26716 -2.26716
0.294775 -2.26937 -2.26937
0.292353 -2.21676 -2.21676
0.204938 -2.2408 -2.2408
0.250232 -2.26821 -2.26821
0.293569 -2.24301 -2.24301
0.248234 -2.21561 -2.21561
0.249237 -2.24185 -2.24185
0.205722 -2.26716 -2.26716
0.207268 -2.32027 -2.32027
0.297162 -2.32248 -2.32248
0.294775 -2.26937 -2.26937
0.206498 -2.29365 -2.29365
0.252198 -2.32132 -2.32132
0.295973 -2.29587 -2.29587
0.250232 -2.26821 -2.26821
0.251219 -2.29471 -2.29471
0.207268 -2.32027 -2.32027
0.208786 -2.37386 -2.37386
0.299513 -2.37609 -2.37609
0.297162 -2.32248 -2.32248
0.20803 -2.347 -2.347
0.254133 -2.37492 -2.37492
0.298342 -2.34922 -2.34922
0.252198 -2.32132 -2.32132
0.253169 -2.34806 -2.34806
0.208786 -2.37386 -2.37386
0.210275 -2.42795 -2.42795
0.301828 -2.43018 -2.43018
0.299513 -2.37609 -2.37609
0.209534 -2.40085 -2.40085
0.256035 -2.42902 -2.42902
0.300675 -2.40308 -2.40308
0.254133 -2.37492 -2.37492
0.255088 -2.40191 -2.40191
0.210275 -2.42795 -2.42795
0.211736 -2.48253 -2.48253
0.304109 -2.48477 -2.48477
0.301828 -2.43018 -2.43018
0.211009 -2.45518 -2.45518
0.257906 -2.4836 -2.4836
0.302973 -2.45742 -2.45742
0.256035 -2.42902 -2.42902
0.256975 -2.45625 -2.45625
0.211736 -2.48253 -2.48253
0.213169 -2.53759 -2.53759
0.306354 -2.53983 -2.53983
0.304109 -2.48477 -2.48477
0.212456 -2.51 -2.51
0.259745 -2.53866 -2.53866
0.305236 -2.51224 -2.51224
0.257906 -2.4836 -2.4836
0.25883 -2.51107 -2.51107
0.213169 -2.53759 -2.53759
0.214574 -2.59313 -2.59313
0.308563 -2.59538 -2.59538
0.306354 -2.53983 -2.53983
0.213875 -2.5653 -2.5653
0.261552 -2.5942 -2.5942
0.307463 -2.56755 -2.56755
0.259745 -2.53866 -2.53866
0.260652 -2.56637 -2.56637
0.214574 -2.59313 -2.59313
0.21595 -2.64914 -2.64914
0.310737 -2.6514 -2.6514
0.308563 -2.59538 -2.59538
0.215266 -2.62108 -2.62108
0.263327 -2.65022 -2.65022
0.309654 -2.62333 -2.62333
0.261552 -2.5942 -2.5942
0.262444 -2.62215 -2.62215
0.21595 -2.64914 -2.64914
0.217299 -2.70563 -2.70563
0.312875 -2.70789 -2.70789
0.310737 -2.6514 -2.6514
0.216628 -2.67733 -2.67733
0.265071 -2.70671 -2.70671
0.311811 -2.67959 -2.67959
0.263327 -2.65022 -2.65022
0.264203 -2.67841 -2.67841
0.217299 -2.70563 -2.70563
0.218619 -2.76257 -2.76257
0.314978 -2.76484 -2.76484
0.312875 -2.70789 -2.70789
0.217962 -2.73404 -2.73404
0.266782 -2.76366 -2.76366
0.313931 -2.73631 -2.73631
0.265071 -2.70671 -2.70671
0.26593 -2.73513 -2.73513
0.218619 -2.76257 -2.76257
0.21991 -2.81999 -2.81999
0.317046 -2.82226 -2.82226
0.314978 -2.76484 -2.76484
0.219268 -2.79122 -2.79122
0.268462 -2.82107 -2.82107
0.316017 -2.7935 -2.7935
0.266782 -2.76366 -2.76366
0.267626 -2.79231 -2.79231
0.21991 -2.81999 -2.81999
0.221173 -2.87785 -2.87785
0.319078 -2.88014 -2.88014
0.317046 -2.82226 -2.82226
0.220545 -2.84886 -2.84886
0.27011 -2.87895 -2.87895
0.318067 -2.85114 -2.85114
0.268462 -2.82107 -2.82107
0.26929 -2.84995 -2.84995
0.221173 -2.87785 -2.87785
0.222409 -2.93617 -2.93617
0.321075 -2.93846 -2.93846
0.319078 -2.88014 -2.88014
0.221795 -2.90696 -2.90696
0.271726 -2.93727 -2.93727
0.320081 -2.90924 -2.90924
0.27011 -2.87895 -2.87895
0.270922 -2.90805 -2.90805
0.222409 -2.93617 -2.93617
0.223616 -2.99495 -2.99495
0.323037 -2.99724 -2.99724
0.321075 -2.93846 -2.93846
0.223016 -2.9655 -2.9655
0.27331 -2.99605 -2.99605
0.322061 -2.9678 -2.9678
0.271726 -2.93727 -2.93727
0.272522 -2.9666 -2.9666
0.223616 -2.99495 -2.99495
0.224794 -3.05416 -3.05416
0.324963 -3.05646 -3.05646
0.323037 -2.99724 -2.99724
0.224208 -3.0245 -3.0245
0.274862 -3.05526 -3.05526
0.324005 -3.0268 -3.0268
0.27331 -2.99605 -2.99605
0.27409 -3.0256 -3.0256
0.224794 -3.05416 -3.05416
0.225945 -3.11382 -3.11382
0.326854 -3.11612 -3.11612
0.324963 -3.05646 -3.05646
0.225373 -3.08393 -3.08393
0.276383 -3.11492 -3.11492
0.325913 -3.08624 -3.08624
0.274862 -3.05526 -3.05526
0.275627 -3.08504 -3.08504
0.225945 -3.11382 -3.11382
0.227067 -3.17391 -3.17391
0.32871 -3.17622 -3.17622
0.326854 -3.11612 -3.11612
0.22651 -3.14381 -3.14381
0.277872 -3.17502 -3.17502
0.327786 -3.14612 -3.14612
0.276383 -3.11492 -3.11492
0.277131 -3.14492 -3.14492
0.227067 -3.17391 -3.17391
0.228162 -3.23443 -3.23443
0.33053 -3.23675 -3.23675
0.32871 -3.17622 -3.17622
0.227618 -3.20411 -3.20411
0.279329 -3.23555 -3.23555
0.329624 -3.20643 -3.20643
0.277872 -3.17502 -3.17502
0.278605 -3.20523 -3.20523
0.228162 -3.23443 -3.23443
0.229228 -3.29538 -3.29538
0.332315 -3.29771 -3.29771
0.33053 -3.23675 -3.23675
0.228698 -3.26485 -3.26485
0.280755 -3.2965 -3.2965
0.331427 -3.26718 -3.26718
0.279329 -3.23555 -3.23555
0.280046 -3.26597 -3.26597
0.229228 -3.29538 -3.29538
0.230266 -3.35676 -3.35676
0.334065 -3.35909 -3.35909
0.332315 -3.29771 -3.29771
0.22975 -3.32602 -3.32602
0.282149 -3.35788 -3.35788
0.333194 -3.32835 -3.32835
0.280755 -3.2965 -3.2965
0.281456 -3.32714 -3.32714
0.230266 -3.35676 -3.35676
0.231276 -3.41855 -3.41855
0.33578 -3.42089 -3.42089
0.334065 -3.35909 -3.35909
0.230774 -3.3876 -3.3876
0.283511 -3.41968 -3.41968
0.334927 -3.38994 -3.38994
0.282149 -3.35788 -3.35788
0.282834 -3.38872 -3.38872
0.231276 -3.41855 -3.41855
0.232258 -3.48076 -3.48076
0.337459 -3.48311 -3.48311
0.33578 -3.42089 -3.42089
0.231771 -3.4496 -3.4496
0.284842 -3.48189 -3.48189
0.336624 -3.45195 -3.45195
0.283511 -3.41968 -3.41968
0.284181 -3.45073 -3.45073
0.232258 -3.48076 -3.48076
0.233212 -3.54338 -3.54338
0.339104 -3.54573 -3.54573
0.337459 -3.48311 -3.48311
0.232739 -3.51202 -3.51202
0.286141 -3.54451 -3.54451
0.338286 -3.51437 -3.51437
0.284842 -3.48189 -3.48189
0.285496 -3.51315 -3.51315
0.233212 -3.54338 -3.54338
0.234138 -3.6064 -3.6064
0.340713 -3.60876 -3.60876
0.339104 -3.54573 -3.54573
0.233679 -3.57484 -3.57484
0.287409 -3.60754 -3.60754
0.339913 -3.5772 -3.5772
0.286141 -3.54451 -3.54451
0.286779 -3.57597 -3.57597
0.234138 -3.6064 -3.6064
0.235037 -3.66983 -3.66983
0.342287 -3.6722 -3.6722
0.340713 -3.60876 -3.60876
0.234591 -3.63807 -3.63807
0.288646 -3.67097 -3.67097
0.341504 -3.64043 -3.64043
0.287409 -3.60754 -3.60754
0.288031 -3.63921 -3.63921
0.235037 -3.66983 -3.66983
0.235907 -3.73366 -3.73366
0.343827 -3.73603 -3.73603
0.342287 -3.6722 -3.6722
0.235476 -3.70169 -3.70169
0.28985 -3.7348 -3.7348
0.343061 -3.70406 -3.70406
0.288646 -3.67097 -3.67097
0.289252 -3.70284 -3.70284
0.235907 -3.73366 -3.73366
0.23675 -3.79788 -3.79788
0.345331 -3.80025 -3.80025
0.343827 -3.73603 -3.73603
0.236332 -3.76572 -3.76572
0.291024 -3.79902 -3.79902
0.344583 -3.76809 -3.76809
0.28985 -3.7348 -3.7348
0.290441 -3.76686 -3.76686
0.23675 -3.79788 -3.79788
0.237565 -3.86249 -3.86249
0.3468 -3.86487 -3.86487
0.345331 -3.80025 -3.80025
0.237161 -3.83013 -3.83013
0.292166 -3.86364 -3.86364
0.34607 -3.83251 -3.83251
0.291024 -3.79902 -3.79902
0.291599 -3.83128 -3.83128
0.237565 -3.86249 -3.86249
0.238352 -3.92748 -3.92748
0.348235 -3.92987 -3.92987
0.3468 -3.86487 -3.86487
0.237962 -3.89493 -3.89493
0.293277 -3.92863 -3.92863
0.347522 -3.89732 -3.89732
0.292166 -3.86364 -3.86364
0.292726 -3.89609 -3.89609
0.238352 -3.92748 -3.92748
0.239112 -3.99286 -3.99286
0.349635 -3.99525 -3.99525
0.348235 -3.92987 -3.92987
0.238736 -3.96012 -3.96012
0.294357 -3.99401 -3.99401
0.348939 -3.96251 -3.96251
0.293277 -3.92863 -3.92863
0.293821 -3.96128 -3.96128
0.239112 -3.99286 -3.99286
0.239844 -4.05861 -4.05861
0.351 -4.06101 -4.06101
0.349635 -3.99525 -3.99525
0.239481 -4.02568 -4.02568
0.295405 -4.05977 -4.05977
0.350322 -4.02808 -4.02808
0.294357 -3.99401 -3.99401
0.294885 -4.02684 -4.02684
0.239844 -4.05861 -4.05861
0.240548 -4.12473 -4.12473
0.35233 -4.12714 -4.12714
0.351 -4.06101 -4.06101
0.2402 -4.09162 -4.09162
0.296423 -4.12589 -4.12589
0.35167 -4.09403 -4.09403
0.295405 -4.05977 -4.05977
0.295918 -4.09278 -4.09278
0.240548 -4.12473 -4.12473
0.241225 -4.19122 -4.19122
0.353626 -4.19364 -4.19364
0.35233 -4.12714 -4.12714
0.24089 -4.15793 -4.15793
0.297409 -4.19239 -4.19239
0.352983 -4.16034 -4.16034
0.296423 -4.12589 -4.12589
0.29692 -4.1591 -4.1591
0.241225 -4.19122 -4.19122
0.241875 -4.25808 -4.25808
0.354887 -4.2605 -4.2605
0.353626 -4.19364 -4.19364
0.241554 -4.22461 -4.22461
0.298365 -4.25925 -4.25925
0.354261 -4.22702 -4.22702
0.297409 -4.19239 -4.19239
0.297891 -4.22578 -4.22578
0.241875 -4.25808 -4.25808
0.242497 -4.3253 -4.3253
0.356114 -4.32772 -4.32772
0.354887 -4.2605 -4.2605
0.242189 -4.29164 -4.29164
0.299289 -4.32647 -4.32647
0.355505 -4.29406 -4.29406
0.298365 -4.25925 -4.25925
0.298831 -4.29282 -4.29282
0.242497 -4.3253 -4.3253
0.243092 -4.39287 -4.39287
0.357306 -4.3953 -4.3953
0.356114 -4.32772 -4.32772
0.242798 -4.35904 -4.35904
0.300183 -4.39404 -4.39404
0.356714 -4.36146 -4.36146
0.299289 -4.32647 -4.32647
0.29974 -4.36021 -4.36021
0.243092 -4.39287 -4.39287
0.24366 -4.46079 -4.46079
0.358464 -4.46322 -4.46322
0.357306 -4.3953 -4.3953
0.243379 -4.42679 -4.42679
0.301045 -4.46197 -4.46197
0.357889 -4.42922 -4.42922
0.300183 -4.39404 -4.39404
0.300618 -4.42796 -4.42796
0.24366 -4.46079 -4.46079
0.2442 -4.52906 -4.52906
0.359588 -4.5315 -4.5315
0.358464 -4.46322 -4.46322
0.243933 -4.49488 -4.49488
0.301877 -4.53024 -4.53024
0.35903 -4.49732 -4.49732
0.301045 -4.46197 -4.46197
0.301465 -4.49606 -4.49606
0.2442 -4.52906 -4.52906
0.244713 -4.59768 -4.59768
0.360677 -4.60012 -4.60012
0.359588 -4.5315 -4.5315
0.24446 -4.56333 -4.56333
0.302679 -4.59886 -4.59886
0.360136 -4.56577 -4.56577
0.301877 -4.53024 -4.53024
0.302282 -4.56451 -4.56451
0.244713 -4.59768 -4.59768
0.2452 -4.66663 -4.66663
0.361732 -4.66907 -4.66907
0.360677 -4.60012 -4.60012
0.24496 -4.63211 -4.63211
0.303449 -4.66781 -4.66781
0.361209 -4.63455 -4.63455
0.302679 -4.59886 -4.59886
0.303068 -4.63329 -4.63329
0.2452 -4.66663 -4.66663
0.245659 -4.73591 -4.73591
0.362753 -4.73836 -4.73836
0.361732 -4.66907 -4.66907
0.245433 -4.70123 -4.70123
0.304189 -4.7371 -4.7371
0.362247 -4.70368 -4.70368
0.303449 -4.66781 -4.66781
0.303823 -4.70242 -4.70242
0.245659 -4.73591 -4.73591
0.246092 -4.80553 -4.80553
0.36374 -4.80798 -4.80798
0.362753 -4.73836 -4.73836
0.245879 -4.77068 -4.77068
0.304899 -4.80672 -4.80672
0.36325 -4.77313 -4.77313
0.304189 -4.7371 -4.7371
0.304548 -4.77187 -4.77187
0.246092 -4.80553 -4.80553
0.246497 -4.87547 -4.87547
0.364692 -4.87793 -4.87793
0.36374 -4.80798 -4.80798
0.246298 -4.84046 -4.84046
0.305578 -4.87667 -4.87667
0.36422 -4.84292 -4.84292
0.304899 -4.80672 -4.80672
0.305242 -4.84165 -4.84165
0.246497 -4.87547 -4.87547
0.246876 -4.94573 -4.94573
0.365611 -4.9482 -4.9482
0.364692 -4.87793 -4.87793
0.24669 -4.91056 -4.91056
0.306227 -4.94693 -4.94693
0.365156 -4.91302 -4.91302
0.305578 -4.87667 -4.87667
0.305906 -4.91176 -4.91176
0.246876 -4.94573 -4.94573
0.247228 -5.01631 -5.01631
0.366497 -5.01878 -5.01878
0.365611 -4.9482 -4.9482
0.247055 -4.98099 -4.98099
0.306846 -5.01751 -5.01751
0.366058 -4.98345 -4.98345
0.306227 -4.94693 -4.94693
0.30654 -4.98218 -4.98218
0.247228 -5.01631 -5.01631
0.247554 -5.08721 -5.08721
0.367348 -5.08968 -5.08968
0.366497 -5.01878 -5.01878
0.247394 -5.05172 -5.05172
0.307434 -5.08841 -5.08841
0.366927 -5.05419 -5.05419
0.306846 -5.01751 -5.01751
0.307144 -5.05292 -5.05292
0.247554 -5.08721 -5.08721
0.247853 -5.15841 -5.15841
0.368166 -5.16088 -5.16088
0.367348 -5.08968 -5.08968
0.247707 -5.12277 -5.12277
0.307993 -5.15961 -5.15961
0.367761 -5.12524 -5.12524
0.307434 -5.08841 -5.08841
0.307717 -5.12397 -5.12397
0.247853 -5.15841 -5.15841
0.248126 -5.22992 -5.22992
0.36895 -5.23239 -5.23239
0.368166 -5.16088 -5.16088
0.247993 -5.19413 -5.19413
0.308521 -5.23112 -5.23112
0.368562 -5.1966 -5.1966
0.307993 -5.15961 -5.15961
0.308261 -5.19533 -5.19533
0.248126 -5.22992 -5.22992
0.248372 -5.30173 -5.30173
0.369701 -5.30421 -5.30421
0.36895 -5.23239 -5.23239
0.248252 -5.26578 -5.26578
0.30902 -5.30293 -5.30293
0.369329 -5.26826 -5.26826
0.308521 -5.23112 -5.23112
0.308774 -5.26699 -5.26699
0.248372 -5.30173 -5.30173
0.248592 -5.37383 -5.37383
0.370418 -5.37631 -5.37631
0.369701 -5.30421 -5.30421
0.248485 -5.33774 -5.33774
0.309488 -5.37504 -5.37504
0.370063 -5.34022 -5.34022
0.30902 -5.30293 -5.30293
0.309258 -5.33895 -5.33895
0.248592 -5.37383 -5.37383
0.248786 -5.44622 -5.44622
0.371102 -5.44871 -5.44871
0.370418 -5.37631 -5.37631
0.248692 -5.40999 -5.40999
0.309927 -5.44744 -5.44744
0.370764 -5.41247 -5.41247
0.309488 -5.37504 -5.37504
0.309711 -5.4112 -5.4112
0.248786 -5.44622 -5.44622
0.248953 -5.51891 -5.51891
0.371752 -5.5214 -5.5214
0.371102 -5.44871 -5.44871
0.248873 -5.48253 -5.48253
0.310336 -5.52012 -5.52012
0.371431 -5.48502 -5.48502
0.309927 -5.44744 -5.44744
0.310135 -5.48374 -5.48374
0.248953 -5.51891 -5.51891
0.249095 -5.59187 -5.59187
0.37237 -5.59436 -5.59436
0.371752 -5.5214 -5.5214
0.249028 -5.55535 -5.55535
0.310716 -5.59309 -5.59309
0.372065 -5.55785 -5.55785
0.310336 -5.52012 -5.52012
0.31053 -5.55657 -5.55657
0.249095 -5.59187 -5.59187
0.249211 -5.66512 -5.66512
0.372954 -5.66761 -5.66761
0.37237 -5.59436 -5.59436
0.249156 -5.62846 -5.62846
0.311066 -5.66634 -5.66634
0.372666 -5.63095 -5.63095
0.310716 -5.59309 -5.59309
0.310895 -5.62968 -5.62968
0.249211 -5.66512 -5.66512
0.249301 -5.73864 -5.73864
0.373506 -5.74114 -5.74114
0.372954 -5.66761 -5.66761
0.249259 -5.70184 -5.70184
0.311387 -5.73986 -5.73986
0.373234 -5.70434 -5.70434
0.311066 -5.66634 -5.66634
0.31123 -5.70306 -5.70306
0.249301 -5.73864 -5.73864
0.249365 -5.81243 -5.81243
0.374025 -5.81493 -5.81493
0.373506 -5.74114 -5.74114
0.249336 -5.7755 -5.7755
0.311678 -5.81365 -5.81365
0.373769 -5.778 -5.778
0.311387 -5.73986 -5.73986
0.311536 -5.77672 -5.77672
0.249365 -5.81243 -5.81243
0.249404 -5.88649 -5.88649
0.37451 -5.88899 -5.88899
0.374025 -5.81493 -5.81493
0.249388 -5.84942 -5.84942
0.31194 -5.88771 -5.88771
0.374272 -5.85193 -5.85193
0.311678 -5.81365 -5.81365
0.311813 -5.85065 -5.85065
0.249404 -5.88649 -5.88649
0.249417 -5.96081 -5.96081
0.374964 -5.96331 -5.96331
0.37451 -5.88899 -5.88899
0.249414 -5.92361 -5.92361
0.312174 -5.96203 -5.96203
0.374741 -5.92612 -5.92612
0.31194 -5.88771 -5.88771
0.312061 -5.92484 -5.92484
0.249417 -5.96081 -5.96081
0.249405 -6.03538 -6.03538
0.375384 -6.03789 -6.03789
0.374964 -5.96331 -5.96331
0.249414 -5.99806 -5.99806
0.312378 -6.03661 -6.03661
0.375178 -6.00057 -6.00057
0.312174 -5.96203 -5.96203
0.312279 -5.99929 -5.99929
0.249405 -6.03538 -6.03538
0.249367 -6.11021 -6.11021
0.375772 -6.11272 -6.11272
0.375384 -6.03789 -6.03789
0.249389 -6.07277 -6.07277
0.312553 -6.11144 -6.11144
0.375582 -6.07527 -6.07527
0.312378 -6.03661 -6.03661
0.312469 -6.07399 -6.07399
0.249367 -6.11021 -6.11021
0.249304 -6.18529 -6.18529
0.376128 -6.1878 -6.1878
0.375772 -6.11272 -6.11272
0.249339 -6.14772 -6.14772
0.312699 -6.18652 -6.18652
0.375954 -6.15023 -6.15023
0.312553 -6.11144 -6.11144
0.31263 -6.14895 -6.14895
0.249304 -6.18529 -6.18529
0.249216 -6.26062 -6.26062
0.376451 -6.26313 -6.26313
0.376128 -6.1878 -6.1878
0.249263 -6.22293 -6.22293
0.312817 -6.26185 -6.26185
0.376294 -6.22544 -6.22544
0.312699 -6.18652 -6.18652
0.312762 -6.22416 -6.22416
0.249216 -6.26062 -6.26062
0.249103 -6.33619 -6.33619
0.376742 -6.3387 -6.3387
0.376451 -6.26313 -6.26313
0.249163 -6.29837 -6.29837
0.312906 -6.33742 -6.33742
0.376601 -6.30088 -6.30088
0.312817 -6.26185 -6.26185
0.312865 -6.2996 -6.2996
0.249103 -6.33619 -6.33619
0.248965 -6.41199 -6.41199
0.377002 -6.4145 -6.4145
0.376742 -6.3387 -6.3387
0.249037 -6.37406 -6.37406
0.312966 -6.41322 -6.41322
0.376876 -6.37657 -6.37657
0.312906 -6.33742 -6.33742
0.31294 -6.37529 -6.37529
0.248965 -6.41199 -6.41199
0.248802 -6.48803 -6.48803
0.377229 -6.49054 -6.49054
0.377002 -6.4145 -6.4145
0.248887 -6.44998 -6.44998
0.312999 -6.48926 -6.48926
0.377119 -6.45249 -6.45249
0.312966 -6.41322 -6.41322
0.312986 -6.45121 -6.45121
0.248802 -6.48803 -6.48803
0.248615 -6.56429 -6.56429
0.377424 -6.5668 -6.5668
0.377229 -6.49054 -6.49054
0.248711 -6.52613 -6.52613
0.313002 -6.56552 -6.56552
0.37733 -6.52864 -6.52864
0.312999 -6.48926 -6.48926
0.313004 -6.52736 -6.52736
0.248615 -6.56429 -6.56429
0.248402 -6.64078 -6.64078
0.377587 -6.64329 -6.64329
0.377424 -6.5668 -6.5668
0.248512 -6.60251 -6.60251
0.312978 -6.64201 -6.64201
0.37751 -6.60502 -6.60502
0.313002 -6.56552 -6.56552
0.312994 -6.60374 -6.60374
0.248402 -6.64078 -6.64078
0.248166 -6.71749 -6.71749
0.377719 -6.72 -6.72
0.377587 -6.64329 -6.64329
0.248287 -6.6791 -6.6791
0.312926 -6.71872 -6.71872
0.377657 -6.68162 -6.68162
0.312978 -6.64201 -6.64201
0.312955 -6.68034 -6.68034
0.248166 -6.71749 -6.71749
0.247905 -6.79441 -6.79441
0.377819 -6.79692 -6.79692
0.377719 -6.72 -6.72
0.248038 -6.75592 -6.75592
0.312845 -6.79564 -6.79564
0.377773 -6.75843 -6.75843
0.312926 -6.71872 -6.71872
0.312889 -6.75715 -6.75715
0.247905 -6.79441 -6.79441
0.247619 -6.87154 -6.87154
0.377888 -6.87406 -6.87406
0.377819 -6.79692 -6.79692
0.247765 -6.83295 -6.83295
0.312737 -6.87278 -6.87278
0.377858 -6.83546 -6.83546
0.312845 -6.79564 -6.79564
0.312794 -6.83418 -6.83418
0.247619 -6.87154 -6.87154
0.24731 -6.94889 -6.94889
0.377926 -6.9514 -6.9514
0.377888 -6.87406 -6.87406
0.247467 -6.91019 -6.91019
0.312601 -6.95012 -6.95012
0.377911 -6.9127 -6.9127
0.312737 -6.87278 -6.87278
0.312672 -6.91142 -6.91142
0.24731 -6.94889 -6.94889
0.246976 -7.02643 -7.02643
0.377932 -7.02894 -7.02894
0.377926 -6.9514 -6.9514
0.247146 -6.98763 -6.98763
0.312437 -7.02766 -7.02766
0.377933 -6.99015 -6.99015
0.312601 -6.95012 -6.95012
0.312522 -6.98887 -6.98887
0.246976 -7.02643 -7.02643
0.246618 -7.10417 -7.10417
0.377907 -7.10668 -7.10668
0.377932 -7.02894 -7.02894
0.2468 -7.06528 -7.06528
0.312246 -7.10541 -7.10541
0.377924 -7.06779 -7.06779
0.312437 -7.02766 -7.02766
0.312345 -7.06651 -7.06651
0.246618 -7.10417 -7.10417
0.246237 -7.18211 -7.18211
0.377851 -7.18462 -7.18462
0.377907 -7.10668 -7.10668
0.246431 -7.14312 -7.14312
0.312027 -7.18334 -7.18334
0.377883 -7.14563 -7.14563
0.312246 -7.10541 -7.10541
0.31214 -7.14435 -7.14435
0.246237 -7.18211 -7.18211
0.245832 -7.26024 -7.26024
0.377765 -7.26275 -7.26275
0.377851 -7.18462 -7.18462
0.246037 -7.22115 -7.22115
0.311781 -7.26147 -7.26147
0.377812 -7.22366 -7.22366
0.312027 -7.18334 -7.18334
0.311908 -7.22238 -7.22238
0.245832 -7.26024 -7.26024
0.245403 -7.33855 -7.33855
0.377647 -7.34106 -7.34106
0.377765 -7.26275 -7.26275
0.24562 -7.29937 -7.29937
0.311508 -7.33978 -7.33978
0.37771 -7.30188 -7.30188
0.311781 -7.26147 -7.26147
0.311648 -7.3006 -7.3006
0.245403 -7.33855 -7.33855
0.244951 -7.41704 -7.41704
0.377499 -7.41955 -7.41955
0.377647 -7.34106 -7.34106
0.24518 -7.37777 -7.37777
0.311208 -7.41828 -7.41828
0.377577 -7.38028 -7.38028
0.311508 -7.33978 -7.33978
0.311361 -7.37901 -7.37901
0.244951 -7.41704 -7.41704
0.244475 -7.49572 -7.49572
0.377321 -7.49822 -7.49822
0.377499 -7.41955 -7.41955
0.244716 -7.45636 -7.45636
0.310881 -7.49695 -7.49695
0.377414 -7.45887 -7.45887
0.311208 -7.41828 -7.41828
0.311048 -7.45759 -7.45759
0.244475 -7.49572 -7.49572
0.243976 -7.57456 -7.57456
0.377112 -7.57707 -7.57707
0.377321 -7.49822 -7.49822
0.244228 -7.53512 -7.53512
0.310527 -7.5758 -7.5758
0.37722 -7.53762 -7.53762
0.310881 -7.49695 -7.49695
0.310707 -7.53635 -7.53635
0.243976 -7.57456 -7.57456
0.243454 -7.65358 -7.65358
0.376872 -7.65608 -7.65608
0.377112 -7.57707 -7.57707
0.243718 -7.61405 -7.61405
0.310146 -7.65481 -7.65481
0.376996 -7.61655 -7.61655
0.310527 -7.5758 -7.5758
0.31034 -7.61528 -7.61528
0.243454 -7.65358 -7.65358
0.242909 -7.73275 -7.73275
0.376603 -7.73525 -7.73525
0.376872 -7.65608 -7.65608
0.243184 -7.69314 -7.69314
0.309739 -7.73399 -7.73399
0.376741 -7.69565 -7.69565
0.310146 -7.65481 -7.65481
0.309946 -7.69438 -7.69438
0.242909 -7.73275 -7.73275
0.242341 -7.81209 -7.81209
0.376303 -7.81459 -7.81459
0.376603 -7.73525 -7.73525
0.242628 -7.7724 -7.7724
0.309305 -7.81332 -7.81332
0.376457 -7.7749 -7.7749
0.309739 -7.73399 -7.73399
0.309525 -7.77364 -7.77364
0.242341 -7.81209 -7.81209
0.24175 -7.89159 -7.89159
0.375974 -7.89408 -7.89408
0.376303 -7.81459 -7.81459
0.242048 -7.85182 -7.85182
0.308845 -7.89282 -7.89282
0.376142 -7.85432 -7.85432
0.309305 -7.81332 -7.81332
0.309078 -7.85305 -7.85305
0.24175 -7.89159 -7.89159
0.241137 -7.97124 -7.97124
0.375615 -7.97373 -7.97373
0.375974 -7.89408 -7.89408
0.241446 -7.93139 -7.93139
0.308359 -7.97247 -7.97247
0.375798 -7.93389 -7.93389
0.308845 -7.89282 -7.89282
0.308605 -7.93262 -7.93262
0.241137 -7.97124 -7.97124
0.240501 -8.05103 -8.05103
0.375226 -8.05352 -8.05352
0.375615 -7.97373 -7.97373
0.240822 -8.01111 -8.01111
0.307846 -8.05226 -8.05226
0.375424 -8.01361 -8.01361
0.308359 -7.97247 -7.97247
0.308106 -8.01234 -8.01234
0.240501 -8.05103 -8.05103
0.239843 -8.13097 -8.13097
0.374808 -8.13345 -8.13345
0.375226 -8.05352 -8.05352
0.240175 -8.09098 -8.09098
0.307308 -8.1322 -8.1322
0.37502 -8.09347 -8.09347
0.307846 -8.05226 -8.05226
0.30758 -8.09221 -8.09221
0.239843 -8.13097 -8.13097
0.239162 -8.21105 -8.21105
0.37436 -8.21353 -8.21353
0.374808 -8.13345 -8.13345
0.239505 -8.17099 -8.17099
0.306744 -8.21227 -8.21227
0.374587 -8.17347 -8.17347
0.307308 -8.1322 -8.1322
0.307029 -8.17222 -8.17222
0.239162 -8.21105 -8.21105
0.238459 -8.29126 -8.29126
0.373883 -8.29374 -8.29374
0.37436 -8.21353 -8.21353
0.238814 -8.25114 -8.25114
0.306154 -8.29248 -8.29248
0.374125 -8.25362 -8.25362
0.306744 -8.21227 -8.21227
0.306452 -8.25236 -8.25236
0.238459 -8.29126 -8.29126
0.237735 -8.3716 -8.3716
0.373376 -8.37408 -8.37408
0.373883 -8.29374 -8.29374
0.2381 -8.33141 -8.33141
0.305538 -8.37282 -8.37282
0.373633 -8.33389 -8.33389
0.306154 -8.29248 -8.29248
0.305849 -8.33264 -8.33264
0.237735 -8.3716 -8.3716
0.236988 -8.45207 -8.45207
0.372841 -8.45454 -8.45454
0.373376 -8.37408 -8.37408
0.237364 -8.41182 -8.41182
0.304897 -8.45329 -8.45329
0.373112 -8.41429 -8.41429
0.305538 -8.37282 -8.37282
0.305221 -8.41304 -8.41304
0.236988 -8.45207 -8.45207
0.23622 -8.53266 -8.53266
0.372277 -8.53513 -8.53513
0.372841 -8.45454 -8.45454
0.236607 -8.49235 -8.49235
0.304231 -8.53388 -8.53388
0.372562 -8.49482 -8.49482
0.304897 -8.45329 -8.45329
0.304567 -8.49357 -8.49357
0.23622 -8.53266 -8.53266
0.23543 -8.61337 -8.61337
0.371684 -8.61583 -8.61583
0.372277 -8.53513 -8.53513
0.235827 -8.573 -8.573
0.303539 -8.61459 -8.61459
0.371984 -8.57547 -8.57547
0.304231 -8.53388 -8.53388
0.303888 -8.57422 -8.57422
0.23543 -8.61337 -8.61337
0.234618 -8.6942 -8.6942
0.371062 -8.69665 -8.69665
0.371684 -8.61583 -8.61583
0.235027 -8.65377 -8.65377
0.302823 -8.69541 -8.69541
0.371376 -8.65623 -8.65623
0.303539 -8.61459 -8.61459
0.303184 -8.65499 -8.65499
0.234618 -8.6942 -8.6942
0.233785 -8.77513 -8.77513
0.370412 -8.77758 -8.77758
0.371062 -8.69665 -8.69665
0.234204 -8.73465 -8.73465
0.302081 -8.77634 -8.77634
0.37074 -8.7371 -8.7371
0.302823 -8.69541 -8.69541
0.302455 -8.73586 -8.73586
0.233785 -8.77513 -8.77513
0.232931 -8.85617 -8.85617
0.369733 -8.85861 -8.85861
0.370412 -8.77758 -8.77758
0.233361 -8.81564 -8.81564
0.301315 -8.85738 -8.85738
0.370076 -8.81809 -8.81809
0.302081 -8.77634 -8.77634
0.301701 -8.81685 -8.81685
0.232931 -8.85617 -8.85617
0.232056 -8.93731 -8.93731
0.369026 -8.93975 -8.93975
0.369733 -8.85861 -8.85861
0.232496 -8.89673 -8.89673
0.300524 -8.93852 -8.93852
0.369383 -8.89917 -8.89917
0.301315 -8.85738 -8.85738
0.300922 -8.89794 -8.89794
0.232056 -8.93731 -8.93731
0.23116 -9.01854 -9.01854
0.368291 -9.02098 -9.02098
0.369026 -8.93975 -8.93975
0.23161 -8.97791 -8.97791
0.299708 -9.01975 -9.01975
0.368662 -8.98035 -8.98035
0.300524 -8.93852 -8.93852
0.300119 -8.97912 -8.97912
0.23116 -9.01854 -9.01854
0.230243 -9.09987 -9.09987
0.367528 -9.1023 -9.1023
0.368291 -9.02098 -9.02098
0.230704 -9.0592 -9.0592
0.298868 -9.10108 -9.10108
0.367913 -9.06163 -9.06163
0.299708 -9.01975 -9.01975
0.299291 -9.0604 -9.0604
0.230243 -9.09987 -9.09987
0.229305 -9.18129 -9.18129
0.366737 -9.18371 -9.18371
0.367528 -9.1023 -9.1023
0.229776 -9.14057 -9.14057
0.298004 -9.18249 -9.18249
0.367136 -9.143 -9.143
0.298868 -9.10108 -9.10108
0.298439 -9.14177 -9.14177
0.229305 -9.18129 -9.18129
0.228346 -9.26279 -9.26279
0.365918 -9.26521 -9.26521
0.366737 -9.18371 -9.18371
0.228828 -9.22203 -9.22203
0.297115 -9.26399 -9.26399
0.366331 -9.22445 -9.22445
0.298004 -9.18249 -9.18249
0.297562 -9.22323 -9.22323
0.228346 -9.26279 -9.26279
0.227367 -9.34437 -9.34437
0.365072 -9.34678 -9.34678
0.365918 -9.26521 -9.26521
0.227859 -9.30357 -9.30357
0.296202 -9.34557 -9.34557
0.365499 -9.30599 -9.30599
0.297115 -9.26399 -9.26399
0.296662 -9.30477 -9.30477
0.227367 -9.34437 -9.34437
0.226368 -9.42603 -9.42603
0.364198 -9.42843 -9.42843
0.365072 -9.34678 -9.34678
0.22687 -9.38519 -9.38519
0.295266 -9.42722 -9.42722
0.364639 -9.3876 -9.3876
0.296202 -9.34557 -9.34557
0.295737 -9.38639 -9.38639
0.226368 -9.42603 -9.42603
0.225349 -9.50776 -9.50776
0.363297 -9.51016 -9.51016
0.364198 -9.42843 -9.42843
0.225861 -9.46689 -9.46689
0.294306 -9.50895 -9.50895
0.363751 -9.46929 -9.46929
0.295266 -9.42722 -9.42722
0.294789 -9.46808 -9.46808
0.225349 -9.50776 -9.50776
0.224309 -9.58956 -9.58956
0.362369 -9.59194 -9.59194
0.363297 -9.51016 -9.51016
0.224832 -9.54865 -9.54865
0.293322 -9.59074 -9.59074
0.362837 -9.55104 -9.55104
0.294306 -9.50895 -9.50895
0.293817 -9.54984 -9.54984
0.224309 -9.58956 -9.58956
0.22325 -9.67141 -9.67141
0.361414 -9.6738 -9.6738
0.362369 -9.59194 -9.59194
0.223782 -9.63048 -9.63048
0.292314 -9.6726 -9.6726
0.361895 -9.63286 -9.63286
0.293322 -9.59074 -9.59074
0.292821 -9.63166 -9.63166
0.22325 -9.67141 -9.67141
0.222171 -9.75333 -9.75333
0.360431 -9.7557 -9.7557
0.361414 -9.6738 -9.6738
0.222713 -9.71237 -9.71237
0.291284 -9.75451 -9.75451
0.360926 -9.71474 -9.71474
0.292314 -9.6726 -9.6726
0.291802 -9.71355 -9.71355
0.222171 -9.75333 -9.75333
0.221072 -9.8353 -9.8353
0.359422 -9.83767 -9.83767
0.360431 -9.7557 -9.7557
0.221624 -9.79431 -9.79431
0.29023 -9.83648 -9.83648
0.35993 -9.79668 -9.79668
0.291284 -9.75451 -9.75451
0.29076 -9.79549 -9.79549
0.221072 -9.8353 -9.8353
0.219954 -9.91733 -9.91733
0.358387 -9.91968 -9.91968
0.359422 -9.83767 -9.83767
0.220515 -9.87631 -9.87631
0.289153 -9.9185 -9.9185
0.358908 -9.87867 -9.87867
0.29023 -9.83648 -9.83648
0.289694 -9.87748 -9.87748
0.219954 -9.91733 -9.91733
0.218816 -9.99939 -9.99939
0.357324 -10.0017 -10.0017
0.358387 -9.91968 -9.91968
0.219387 -9.95835 -9.95835
0.288053 -10.0006 -10.0006
0.357859 -9.96071 -9.96071
0.289153 -9.9185 -9.9185
0.288606 -9.95952 -9.95952
0.218816 -9.99939 -9.99939
0.217659 -10.0815 -10.0815
0.356236 -10.0838 -10.0838
0.357324 -10.0017 -10.0017
0.21824 -10.0404 -10.0404
0.28693 -10.0827 -10.0827
0.356783 -10.0428 -10.0428
0.288053 -10.0006 -10.0006
0.287495 -10.0416 -10.0416
0.217659 -10.0815 -10.0815
0.216483 -10.1636 -10.1636
0.355122 -10.166 -10.166
0.356236 -10.0838 -10.0838
0.217074 -10.1226 -10.1226
0.285786 -10.1648 -10.1648
0.355682 -10.1249 -10.1249
0.28693 -10.0827 -10.0827
0.286361 -10.1237 -10.1237
0.216483 -10.1636 -10.1636
0.215288 -10.2458 -10.2458
0.353983 -10.2482 -10.2482
0.355122 -10.166 -10.166
0.215888 -10.2047 -10.2047
0.284619 -10.247 -10.247
0.354555 -10.2071 -10.2071
0.285786 -10.1648 -10.1648
0.285205 -10.2059 -10.2059
0.215288 -10.2458 -10.2458
0.214074 -10.328 -10.328
0.352819 -10.3303 -10.3303
0.353983 -10.2482 -10.2482
0.214684 -10.2869 -10.2869
0.283431 -10.3292 -10.3292
0.353404 -10.2892 -10.2892
0.284619 -10.247 -10.247
0.284027 -10.2881 -10.2881
0.214074 -10.328 -10.328
0.212841 -10.4103 -10.4103
0.351633 -10.4126 -10.4126
0.352819 -10.3303 -10.3303
0.21346 -10.3692 -10.3692
0.282222 -10.4114 -10.4114
0.352229 -10.3715 -10.3715
0.283431 -10.3292 -10.3292
0.282829 -10.3703 -10.3703
0.212841 -10.4103 -10.4103
0.211587 -10.4925 -10.4925
0.350428 -10.4948 -10.4948
0.351633 -10.4126 -10.4126
0.212216 -10.4514 -10.4514
0.280994 -10.4937 -10.4937
0.351033 -10.4537 -10.4537
0.282222 -10.4114 -10.4114
0.28161 -10.4525 -10.4525
0.211587 -10.4925 -10.4925
0.210311 -10.5748 -10.5748
0.34921 -10.5771 -10.5771
0.350428 -10.4948 -10.4948
0.210952 -10.5337 -10.5337
0.279747 -10.5759 -10.5759
0.34982 -10.536 -10.536
0.280994 -10.4937 -10.4937
0.280373 -10.5348 -10.5348
0.210311 -10.5748 -10.5748
0.209011 -10.6571 -10.6571
0.347988 -10.6594 -10.6594
0.34921 -10.5771 -10.5771
0.209664 -10.616 -10.616
0.278479 -10.6583 -10.6583
0.348599 -10.6182 -10.6182
0.279747 -10.5759 -10.5759
0.279116 -10.6171 -10.6171
0.209011 -10.6571 -10.6571
0.207687 -10.7395 -10.7395
0.346787 -10.7418 -10.7418
0.347988 -10.6594 -10.6594
0.208351 -10.6983 -10.6983
0.277183 -10.7406 -10.7406
0.347382 -10.7006 -10.7006
0.278479 -10.6583 -10.6583
0.277837 -10.6994 -10.6994
0.207687 -10.7395 -10.7395
0.206375 -10.8219 -10.8219
0.34559 -10.8245 -10.8245
0.346787 -10.7418 -10.7418
0.207025 -10.7807 -10.7807
0.275858 -10.8232 -10.8232
0.346199 -10.7831 -10.7831
0.277183 -10.7406 -10.7406
0.276516 -10.7819 -10.7819
      </DataArray> 
      <DataArray type="Float64" NumberOfComponents="4" Name="CauchyStress" format="ascii">
-5705.14 -1715.69 0 -1351.63
-3681.65 69.2852 0 55.1831
-2750.83 -298.038 0 -150.744
-2598.56 -781.389 0 -103.316
-4093.47 81.237 0 -187.479
-3427.49 -211.124 0 -194.816
-2699.6 -561.738 0 -175.658
-3052.81 -918.114 0 -329.051
-3384.78 -463.158 0 -307.387
-3681.65 69.2852 0 55.1831
-3648.13 39.646 0 19.2809
-2791.64 -89.4461 0 -70.0998
-2750.83 -298.038 0 -150.744
-3652.71 -13.06 0 25.6878
-3298.36 -31.1415 0 -30.1321
-2789.39 -153.621 0 -107.786
-3427.49 -211.124 0 -194.816
-3339.86 -76.0757 0 -77.1934
-3648.13 39.646 0 19.2809
-3715.91 -13.0226 0 11.4603
-2756.44 -17.1655 0 -23.917
-2791.64 -89.4461 0 -70.0998
-3687.2 25.5373 0 19.875
-3255.13 -1.4387 0 0.189928
-2770.5 -44.7005 0 -39.8838
-3298.36 -31.1415 0 -30.1321
-3274.81 -12.0437 0 -12.809
-3715.91 -13.0226 0 11.4603
-3732.11 3.75573 0 4.18647
-2732.39 -1.63196 0 -13.1193
-2756.44 -17.1655 0 -23.917
-3725.05 -11.9657 0 2.97672
-3235.12 2.46633 0 5.29168
-2745.78 -5.83597 0 -16.7769
-3255.13 -1.4387 0 0.189928
-3241.28 2.63202 0 6.16432
-3732.11 3.75573 0 4.18647
-3745.33 -4.33323 0 6.79774
-2708.32 4.13475 0 -11.9553
-2732.39 -1.63196 0 -13.1193
-3741.63 2.60973 0 7.08628
-3225.82 2.11623 0 1.81012
-2718.4 2.09469 0 -11.5382
-3235.12 2.46633 0 5.29168
-3231.42 1.92661 0 2.9047
-3745.33 -4.33323 0 6.79774
-3739.65 0.58904 0 6.85498
-2691.7 3.10016 0 -14.645
-2708.32 4.13475 0 -11.9553
-3742.85 -3.15469 0 5.88456
-3214.35 1.33914 0 -1.27604
-2700.27 3.91758 0 -13.3933
-3225.82 2.11623 0 1.81012
-3219.75 1.97755 0 0.490686
-3739.65 0.58904 0 6.85498
-3730.91 -0.959613 0 8.57925
-2675.62 2.07466 0 -16.7575
-2691.7 3.10016 0 -14.645
-3736.37 0.453537 0 8.14078
-3202.15 0.471763 0 -3.48665
-2683.16 2.6144 0 -15.707
-3214.35 1.33914 0 -1.27604
-3208.74 0.763884 0 -2.68703
-3730.91 -0.959613 0 8.57925
-3715.72 0.139215 0 9.51878
-2661.31 0.690204 0 -18.3242
-2675.62 2.07466 0 -16.7575
-3723.52 -0.663169 0 8.8306
-3187.87 -0.00971856 0 -4.56602
-2668.55 1.33688 0 -17.6971
-3202.15 0.471763 0 -3.48665
-3195.05 0.25261 0 -4.09719
-3715.72 0.139215 0 9.51878
-3699.01 -0.15955 0 10.7925
-2647 -0.142246 0 -18.9642
-2661.31 0.690204 0 -18.3242
-3707.68 0.126305 0 10.2627
-3172.7 -0.374697 0 -4.82071
-2654.05 0.233874 0 -18.7142
-3187.87 -0.00971856 0 -4.56602
-3180.47 -0.237044 0 -4.79958
-3699.01 -0.15955 0 10.7925
-3680.46 0.0582012 0 11.8641
-2633.01 -0.72983 0 -19.0812
-2647 -0.142246 0 -18.9642
-3689.81 -0.101061 0 11.2801
-3156.67 -0.544594 0 -4.57328
-2640.03 -0.476565 0 -19.0927
-3172.7 -0.374697 0 -4.82071
-3164.72 -0.462533 0 -4.74029
-3680.46 0.0582012 0 11.8641
-3661.42 -0.00239547 0 12.9808
-2618.96 -1.03947 0 -18.7891
-2633.01 -0.72983 0 -19.0812
-3671.02 0.05674 0 12.4499
-3140.27 -0.652856 0 -4.00478
-2625.96 -0.906698 0 -18.9672
-3156.67 -0.544594 0 -4.57328
-3148.53 -0.612166 0 -4.32021
-3661.42 -0.00239547 0 12.9808
-3641.95 0.0297754 0 14.0395
-2604.94 -1.21001 0 -18.292
-2618.96 -1.03947 0 -18.7891
-3651.71 0.00369135 0 13.5016
-3123.61 -0.694274 0 -3.27993
-2611.96 -1.14111 0 -18.5627
-3140.27 -0.652856 0 -4.00478
-3131.95 -0.675672 0 -3.65594
-3641.95 0.0297754 0 14.0395
-3622.36 0.0112621 0 15.0884
-2590.89 -1.28139 0 -17.6702
-2604.94 -1.21001 0 -18.292
-3632.17 0.0264588 0 14.572
-3106.84 -0.713937 0 -2.46927
-2597.91 -1.2536 0 -17.9902
-3123.61 -0.694274 0 -3.27993
-3115.24 -0.707813 0 -2.88134
-3622.36 0.0112621 0 15.0884
-3602.7 0.00747981 0 16.1116
-2576.83 -1.30445 0 -16.9963
-2590.89 -1.28139 0 -17.6702
-3612.53 0.00743113 0 15.6002
-3090 -0.715318 0 -1.62863
-2583.86 -1.29789 0 -17.3379
-3106.84 -0.713937 0 -2.46927
-3098.42 -0.715215 0 -2.05094
-3602.7 0.00747981 0 16.1116
-3583.02 -0.0044816 0 17.117
-2562.77 -1.29936 0 -16.3
-2576.83 -1.30445 0 -16.9963
-3592.86 0.00266752 0 16.6178
-3073.14 -0.711045 0 -0.779606
-2569.8 -1.30406 0 -16.6492
-3090 -0.715318 0 -1.62863
-3081.57 -0.714046 0 -1.20398
-3583.02 -0.0044816 0 17.117
-3563.33 -0.0147263 0 18.1033
-2548.7 -1.2818 0 -15.6021
-2562.77 -1.29936 0 -16.3
-3573.17 -0.0099415 0 17.612
-3056.26 -0.703053 0 0.0629449
-2555.74 -1.29174 0 -15.9507
-3073.14 -0.711045 0 -0.779606
-3064.7 -0.707097 0 -0.357082
-3563.33 -0.0147263 0 18.1033
-3543.65 -0.0261883 0 19.0715
-2534.63 -1.25822 0 -14.9104
-2548.7 -1.2818 0 -15.6021
-3553.49 -0.0202265 0 18.5898
-3039.38 -0.694315 0 0.893928
-2541.66 -1.27041 0 -15.255
-3056.26 -0.703053 0 0.0629449
-3047.82 -0.698807 0 0.480144
-3543.65 -0.0261883 0 19.0715
-3523.97 -0.0378291 0 20.0218
-2520.56 -1.23266 0 -14.2296
-2534.63 -1.25822 0 -14.9104
-3533.81 -0.0320321 0 19.5488
-3022.51 -0.685407 0 1.71036
-2527.59 -1.24559 0 -14.5685
-3039.38 -0.694315 0 0.893928
-3030.94 -0.689794 0 1.30404
-3523.97 -0.0378291 0 20.0218
-3504.29 -0.0498173 0 20.9544
-2506.48 -1.20664 0 -13.5612
-2520.56 -1.23266 0 -14.2296
-3514.13 -0.0437558 0 20.4903
-3005.63 -0.676872 0 2.51155
-2513.52 -1.21963 0 -13.8938
-3022.51 -0.685407 0 1.71036
-3014.07 -0.681103 0 2.1129
-3504.29 -0.0498173 0 20.9544
-3484.61 -0.0621889 0 21.8694
-2492.41 -1.18094 0 -12.9057
-2506.48 -1.20664 0 -13.5612
-3494.45 -0.0559686 0 21.4141
-2988.75 -0.668796 0 3.29724
-2499.44 -1.19374 0 -13.2318
-3005.63 -0.676872 0 2.51155
-2997.19 -0.672763 0 2.90633
-3484.61 -0.0621889 0 21.8694
-3464.94 -0.0748708 0 22.767
-2478.33 -1.15579 0 -12.2631
-2492.41 -1.18094 0 -12.9057
-3474.78 -0.0684859 0 22.3204
-2971.87 -0.66122 0 4.06758
-2485.37 -1.16829 0 -12.5828
-2988.75 -0.668796 0 3.29724
-2980.31 -0.664951 0 3.68432
-3464.94 -0.0748708 0 22.767
-3445.26 -0.0879207 0 23.6473
-2464.26 -1.13123 0 -11.6334
-2478.33 -1.15579 0 -12.2631
-3455.1 -0.0813537 0 23.2093
-2955 -0.65412 0 4.82274
-2471.29 -1.14343 0 -11.9467
-2971.87 -0.66122 0 4.06758
-2963.43 -0.657611 0 4.44705
-3445.26 -0.0879207 0 23.6473
-3425.59 -0.101289 0 24.5103
-2450.18 -1.10723 0 -11.0162
-2464.26 -1.13123 0 -11.6334
-3435.42 -0.0945648 0 24.0809
-2938.12 -0.647467 0 5.56291
-2457.22 -1.11916 0 -11.3232
-2955 -0.65412 0 4.82274
-2946.56 -0.650741 0 5.19469
-3425.59 -0.101289 0 24.5103
-3405.91 -0.114988 0 25.3562
-2436.11 -1.08376 0 -10.4115
-2450.18 -1.10723 0 -11.0162
-3415.75 -0.108099 0 24.9354
-2921.24 -0.641229 0 6.28824
-2443.14 -1.09544 0 -10.7123
-2938.12 -0.647467 0 5.56291
-2929.68 -0.644298 0 5.92742
-3405.91 -0.114988 0 25.3562
-3386.23 -0.128989 0 26.185
-2422.03 -1.06076 0 -9.81901
-2436.11 -1.08376 0 -10.4115
-3396.07 -0.121952 0 25.7727
-2904.36 -0.635379 0 6.99889
-2429.07 -1.0722 0 -10.1137
-2921.24 -0.641229 0 6.28824
-2912.8 -0.638258 0 6.64539
-3386.23 -0.128989 0 26.185
-3366.55 -0.143284 0 26.9968
-2407.95 -1.0382 0 -9.23873
-2422.03 -1.06076 0 -9.81901
-3376.39 -0.136101 0 26.593
-2887.48 -0.629894 0 7.69496
-2414.99 -1.04943 0 -9.52736
-2904.36 -0.635379 0 6.99889
-2895.92 -0.632592 0 7.34874
-3366.55 -0.143284 0 26.9968
-3346.88 -0.157851 0 27.7918
-2393.88 -1.01605 0 -8.67053
-2407.95 -1.0382 0 -9.23873
-3356.72 -0.150535 0 27.3964
-2870.6 -0.624753 0 8.37657
-2400.91 -1.02707 0 -8.95313
-2887.48 -0.629894 0 7.69496
-2879.04 -0.627282 0 8.03757
-3346.88 -0.157851 0 27.7918
-3327.2 -0.172677 0 28.57
-2379.8 -0.994278 0 -8.11431
-2393.88 -1.01605 0 -8.67053
-3337.04 -0.165233 0 28.183
-2853.72 -0.619938 0 9.04379
-2386.84 -1.00512 0 -8.39093
-2870.6 -0.624753 0 8.37657
-2862.16 -0.622306 0 8.71197
-3327.2 -0.172677 0 28.57
-3307.52 -0.187742 0 29.3316
-2365.72 -0.972876 0 -7.57
-2379.8 -0.994278 0 -8.11431
-3317.36 -0.180181 0 28.9529
-2836.84 -0.615433 0 9.69674
-2372.76 -0.983532 0 -7.84067
-2853.72 -0.619938 0 9.04379
-2845.28 -0.617648 0 9.37205
-3307.52 -0.187742 0 29.3316
-3287.84 -0.203031 0 30.0766
-2351.64 -0.951826 0 -7.03753
-2365.72 -0.972876 0 -7.57
-3297.68 -0.19536 0 29.7061
-2819.96 -0.611223 0 10.3355
-2358.68 -0.962308 0 -7.30229
-2836.84 -0.615433 0 9.69674
-2828.4 -0.613292 0 10.0179
-3287.84 -0.203031 0 30.0766
-3268.15 -0.218526 0 30.8051
-2337.56 -0.931113 0 -6.51681
-2351.64 -0.951826 0 -7.03753
-3278 -0.210754 0 30.4429
-2803.08 -0.607292 0 10.9601
-2344.6 -0.941428 0 -6.7757
-2819.96 -0.611223 0 10.3355
-2811.52 -0.609223 0 10.6496
-3268.15 -0.218526 0 30.8051
-3248.47 -0.234212 0 31.5173
-2323.49 -0.910726 0 -6.00779
-2337.56 -0.931113 0 -6.51681
-3258.31 -0.226346 0 31.1632
-2786.2 -0.603627 0 11.5707
-2330.52 -0.920879 0 -6.26084
-2803.08 -0.607292 0 10.9601
-2794.64 -0.605427 0 11.2672
-3248.47 -0.234212 0 31.5173
-3228.79 -0.250072 0 32.2131
-2309.41 -0.890652 0 -5.51039
-2323.49 -0.910726 0 -6.00779
-3238.63 -0.242121 0 31.8672
-2769.31 -0.600214 0 12.1674
-2316.45 -0.90065 0 -5.75764
-2786.2 -0.603627 0 11.5707
-2777.76 -0.60189 0 11.8708
-3228.79 -0.250072 0 32.2131
-3209.11 -0.26609 0 32.8929
-2295.33 -0.87088 0 -5.02454
-2309.41 -0.890652 0 -5.51039
-3218.95 -0.258062 0 32.555
-2752.43 -0.597039 0 12.7501
-2302.37 -0.880729 0 -5.26603
-2769.31 -0.600214 0 12.1674
-2760.87 -0.598598 0 12.4605
-3209.11 -0.26609 0 32.8929
-3189.42 -0.282251 0 33.5565
-2281.25 -0.851399 0 -4.55018
-2295.33 -0.87088 0 -5.02454
-3199.27 -0.274153 0 33.2267
-2735.55 -0.59409 0 13.3192
-2288.29 -0.861104 0 -4.78593
-2752.43 -0.597039 0 12.7501
-2743.99 -0.595537 0 13.0364
-3189.42 -0.282251 0 33.5565
-3169.74 -0.298539 0 34.2042
-2267.17 -0.832199 0 -4.08722
-2281.25 -0.851399 0 -4.55018
-3179.58 -0.29038 0 33.8823
-2718.66 -0.591352 0 13.8745
-2274.21 -0.841765 0 -4.31728
-2735.55 -0.59409 0 13.3192
-2727.11 -0.592695 0 13.5985
-3169.74 -0.298539 0 34.2042
-3150.06 -0.314941 0 34.8359
-2253.09 -0.813269 0 -3.63562
-2267.17 -0.832199 0 -4.08722
-3159.9 -0.306727 0 34.522
-2701.78 -0.588814 0 14.4162
-2260.13 -0.822701 0 -3.86001
-2718.66 -0.591352 0 13.8745
-2710.22 -0.590059 0 14.147
-3150.06 -0.314941 0 34.8359
-3130.37 -0.33144 0 35.452
-2239.01 -0.794598 0 -3.19528
-2253.09 -0.813269 0 -3.63562
-3140.21 -0.323179 0 35.1459
-2684.9 -0.586462 0 14.9443
-2246.05 -0.803902 0 -3.41405
-2701.78 -0.588814 0 14.4162
-2693.34 -0.587616 0 14.6819
-3130.37 -0.33144 0 35.452
-3110.68 -0.348022 0 36.0523
-2224.93 -0.776177 0 -2.76615
-2239.01 -0.794598 0 -3.19528
-3120.53 -0.339721 0 35.7541
-2668.01 -0.584285 0 15.4591
-2231.97 -0.785357 0 -2.97932
-2684.9 -0.586462 0 14.9443
-2676.45 -0.585353 0 15.2034
-3110.68 -0.348022 0 36.0523
-3091 -0.364673 0 36.637
-2210.85 -0.757995 0 -2.34816
-2224.93 -0.776177 0 -2.76615
-3100.84 -0.35634 0 36.3466
-2651.13 -0.58227 0 15.9604
-2217.89 -0.767057 0 -2.55577
-2668.01 -0.584285 0 15.4591
-2659.57 -0.583258 0 15.7114
-3091 -0.364673 0 36.637
-3071.31 -0.38138 0 37.2063
-2196.77 -0.740042 0 -1.94122
-2210.85 -0.757995 0 -2.34816
-3081.16 -0.373021 0 36.9236
-2634.24 -0.580405 0 16.4485
-2203.81 -0.74899 0 -2.14331
-2651.13 -0.58227 0 15.9604
-2642.68 -0.581319 0 16.2062
-3071.31 -0.38138 0 37.2063
-3051.63 -0.398128 0 37.7601
-2182.68 -0.722309 0 -1.54529
-2196.77 -0.740042 0 -1.94122
-3061.47 -0.38975 0 37.4851
-2617.36 -0.578678 0 16.9235
-2189.73 -0.731148 0 -1.74189
-2634.24 -0.580405 0 16.4485
-2625.8 -0.579525 0 16.6876
-3051.63 -0.398128 0 37.7601
-3031.94 -0.414904 0 38.2987
-2168.6 -0.704786 0 -1.16027
-2182.68 -0.722309 0 -1.54529
-3041.78 -0.406513 0 38.0313
-2600.47 -0.577079 0 17.3853
-2175.64 -0.713521 0 -1.35142
-2617.36 -0.578678 0 16.9235
-2608.91 -0.577863 0 17.156
-3031.94 -0.414904 0 38.2987
-3012.25 -0.431695 0 38.8221
-2154.52 -0.687463 0 -0.786106
-2168.6 -0.704786 0 -1.16027
-3022.09 -0.423298 0 38.5623
-2583.58 -0.575595 0 17.834
-2161.56 -0.6961 0 -0.971835
-2600.47 -0.577079 0 17.3853
-2592.03 -0.576323 0 17.6113
-3012.25 -0.431695 0 38.8221
-2992.56 -0.448488 0 39.3304
-2140.44 -0.670332 0 -0.422725
-2154.52 -0.687463 0 -0.786106
-3002.41 -0.440092 0 39.0782
-2566.7 -0.574215 0 18.2699
-2147.48 -0.678874 0 -0.603072
-2583.58 -0.575595 0 17.834
-2575.14 -0.574893 0 18.0536
-2992.56 -0.448488 0 39.3304
-2972.87 -0.46527 0 39.8237
-2126.36 -0.653383 0 -0.0700568
-2140.44 -0.670332 0 -0.422725
-2982.72 -0.456881 0 39.5789
-2549.81 -0.57293 0 18.6929
-2133.4 -0.661836 0 -0.245056
-2566.7 -0.574215 0 18.2699
-2558.26 -0.573561 0 18.483
-2972.87 -0.46527 0 39.8237
-2953.19 -0.482029 0 40.3022
-2112.28 -0.636608 0 0.27197
-2126.36 -0.653383 0 -0.0700568
-2963.03 -0.473653 0 40.0648
-2532.92 -0.571727 0 19.1031
-2119.32 -0.644975 0 0.102282
-2549.81 -0.57293 0 18.6929
-2541.37 -0.572319 0 18.8996
-2953.19 -0.482029 0 40.3022
-2933.5 -0.498752 0 40.7658
-2098.2 -0.619998 0 0.603425
-2112.28 -0.636608 0 0.27197
-2943.34 -0.490396 0 40.5358
-2516.04 -0.570598 0 19.5006
-2105.24 -0.628283 0 0.439014
-2532.92 -0.571727 0 19.1031
-2524.48 -0.571154 0 19.3034
-2933.5 -0.498752 0 40.7658
-2913.81 -0.515428 0 41.2147
-2084.11 -0.603544 0 0.924379
-2098.2 -0.619998 0 0.603425
-2923.65 -0.507097 0 40.9921
-2499.15 -0.56953 0 19.8856
-2091.15 -0.611752 0 0.76521
-2516.04 -0.570598 0 19.5006
-2507.59 -0.570057 0 19.6947
-2913.81 -0.515428 0 41.2147
-2894.12 -0.532046 0 41.649
-2070.03 -0.587238 0 1.2349
-2084.11 -0.603544 0 0.924379
-2903.96 -0.523745 0 41.4337
-2482.26 -0.568515 0 20.258
-2077.07 -0.595373 0 1.08094
-2499.15 -0.56953 0 19.8856
-2490.71 -0.569017 0 20.0733
-2894.12 -0.532046 0 41.649
-2874.43 -0.548592 0 42.0689
-2055.95 -0.571073 0 1.53506
-2070.03 -0.587238 0 1.2349
-2884.27 -0.540328 0 41.8607
-2465.38 -0.567543 0 20.618
-2062.99 -0.579139 0 1.38627
-2482.26 -0.568515 0 20.258
-2473.82 -0.568024 0 20.4395
-2874.43 -0.548592 0 42.0689
-2854.74 -0.565057 0 42.4743
-2041.87 -0.555039 0 1.82494
-2055.95 -0.571073 0 1.53506
-2864.58 -0.556836 0 42.2734
-2448.49 -0.566604 0 20.9656
-2048.91 -0.56304 0 1.68128
-2465.38 -0.567543 0 20.618
-2456.93 -0.56707 0 20.7933
-2854.74 -0.565057 0 42.4743
-2835.05 -0.58143 0 42.8654
-2027.78 -0.539129 0 2.10459
-2041.87 -0.555039 0 1.82494
-2844.89 -0.573256 0 42.6716
-2431.6 -0.565688 0 21.301
-2034.83 -0.547069 0 1.96604
-2448.49 -0.566604 0 20.9656
-2440.04 -0.566143 0 21.1348
-2835.05 -0.58143 0 42.8654
-2815.36 -0.597699 0 43.2423
-2013.7 -0.523335 0 2.37409
-2027.78 -0.539129 0 2.10459
-2825.2 -0.589578 0 43.0556
-2414.71 -0.564787 0 21.6242
-2020.74 -0.531218 0 2.24061
-2431.6 -0.565688 0 21.301
-2423.16 -0.565236 0 21.4641
-2815.36 -0.597699 0 43.2423
-2795.66 -0.613854 0 43.6051
-1999.62 -0.50765 0 2.63352
-2013.7 -0.523335 0 2.37409
-2805.51 -0.605791 0 43.4255
-2397.82 -0.563891 0 21.9353
-2006.66 -0.515479 0 2.50506
-2414.71 -0.564787 0 21.6242
-2406.27 -0.564339 0 21.7813
-2795.66 -0.613854 0 43.6051
-2775.97 -0.629885 0 43.9539
-1985.54 -0.492067 0 2.88293
-1999.62 -0.50765 0 2.63352
-2785.82 -0.621886 0 43.7813
-2380.93 -0.562992 0 22.2344
-1992.58 -0.499846 0 2.75947
-2397.82 -0.563891 0 21.9353
-2389.38 -0.563443 0 22.0864
-2775.97 -0.629885 0 43.9539
-2756.28 -0.645782 0 44.2888
-1971.45 -0.476579 0 3.12241
-1985.54 -0.492067 0 2.88293
-2766.13 -0.637851 0 44.1231
-2364.05 -0.562081 0 22.5216
-1978.5 -0.484312 0 3.00391
-2380.93 -0.562992 0 22.2344
-2372.49 -0.562539 0 22.3795
-2756.28 -0.645782 0 44.2888
-2736.59 -0.661535 0 44.6099
-1957.37 -0.461178 0 3.35202
-1971.45 -0.476579 0 3.12241
-2746.44 -0.653677 0 44.4511
-2347.16 -0.56115 0 22.797
-1964.41 -0.468868 0 3.23845
-2364.05 -0.562081 0 22.5216
-2355.6 -0.561619 0 22.6608
-2736.59 -0.661535 0 44.6099
-2716.9 -0.677135 0 44.9173
-1943.29 -0.445857 0 3.57184
-1957.37 -0.461178 0 3.35202
-2726.74 -0.669355 0 44.7653
-2330.27 -0.56019 0 23.0606
-1950.33 -0.453508 0 3.46315
-2347.16 -0.56115 0 22.797
-2338.71 -0.560674 0 22.9302
-2716.9 -0.677135 0 44.9173
-2697.21 -0.692572 0 45.2111
-1929.21 -0.430611 0 3.78192
-1943.29 -0.445857 0 3.57184
-2707.05 -0.684874 0 45.0659
-2313.38 -0.559194 0 23.3125
-1936.25 -0.438225 0 3.67809
-2330.27 -0.56019 0 23.0606
-2321.82 -0.559697 0 23.188
-2697.21 -0.692572 0 45.2111
-2677.51 -0.707837 0 45.4913
-1915.12 -0.415432 0 3.98235
-1929.21 -0.430611 0 3.78192
-2687.36 -0.700226 0 45.3529
-2296.49 -0.558153 0 23.5528
-1922.16 -0.423013 0 3.88334
-2313.38 -0.559194 0 23.3125
-2304.94 -0.55868 0 23.4341
-2677.51 -0.707837 0 45.4913
-2657.82 -0.722921 0 45.7582
-1901.04 -0.400314 0 4.1732
-1915.12 -0.415432 0 3.98235
-2667.67 -0.715402 0 45.6264
-2279.6 -0.557061 0 23.7816
-1908.08 -0.407866 0 4.07897
-2296.49 -0.558153 0 23.5528
-2288.05 -0.557614 0 23.6687
-2657.82 -0.722921 0 45.7582
-2638.13 -0.737815 0 46.0117
-1886.96 -0.385252 0 4.35452
-1901.04 -0.400314 0 4.1732
-2647.97 -0.730392 0 45.8866
-2262.71 -0.555909 0 23.999
-1894 -0.392776 0 4.26505
-2279.6 -0.557061 0 23.7816
-2271.16 -0.556493 0 23.8918
-2638.13 -0.737815 0 46.0117
-2618.43 -0.752512 0 46.252
-1872.88 -0.370238 0 4.52641
-1886.96 -0.385252 0 4.35452
-2628.28 -0.745189 0 46.1335
-2245.82 -0.554691 0 24.2051
-1879.92 -0.377739 0 4.44164
-2262.71 -0.555909 0 23.999
-2254.27 -0.555309 0 24.1035
-2618.43 -0.752512 0 46.252
-2598.74 -0.767003 0 46.4792
-1858.79 -0.355268 0 4.68892
-1872.88 -0.370238 0 4.52641
-2608.59 -0.759784 0 46.3672
-2228.93 -0.5534 0 24.4
-1865.83 -0.362748 0 4.60883
-2245.82 -0.554691 0 24.2051
-2237.38 -0.554055 0 24.3039
-2598.74 -0.767003 0 46.4792
-2579.05 -0.781279 0 46.6933
-1844.71 -0.340335 0 4.84212
-1858.79 -0.355268 0 4.68892
-2588.89 -0.774168 0 46.5879
-2212.04 -0.552027 0 24.5836
-1851.75 -0.347797 0 4.76668
-2228.93 -0.5534 0 24.4
-2220.49 -0.552724 0 24.4932
-2579.05 -0.781279 0 46.6933
-2559.35 -0.795334 0 46.8945
-1830.63 -0.325434 0 4.98609
-1844.71 -0.340335 0 4.84212
-2569.2 -0.788335 0 46.7955
-2195.16 -0.550568 0 24.7562
-1837.67 -0.332881 0 4.91525
-2212.04 -0.552027 0 24.5836
-2203.6 -0.551309 0 24.6713
-2559.35 -0.795334 0 46.8945
-2539.66 -0.809159 0 47.083
-1816.54 -0.310559 0 5.1209
-1830.63 -0.325434 0 4.98609
-2549.51 -0.802276 0 46.9903
-2178.27 -0.549016 0 24.9178
-1823.59 -0.317994 0 5.05463
-2195.16 -0.550568 0 24.7562
-2186.71 -0.549804 0 24.8384
-2539.66 -0.809159 0 47.083
-2519.97 -0.822748 0 47.2586
-1802.46 -0.295706 0 5.24661
-1816.54 -0.310559 0 5.1209
-2529.81 -0.815983 0 47.1724
-2161.38 -0.547363 0 25.0685
-1809.5 -0.30313 0 5.18489
-2178.27 -0.549016 0 24.9178
-2169.82 -0.548202 0 24.9945
-2519.97 -0.822748 0 47.2586
-2500.27 -0.836092 0 47.4217
-1788.38 -0.280869 0 5.3633
-1802.46 -0.295706 0 5.24661
-2510.12 -0.829451 0 47.3417
-2144.49 -0.545605 0 25.2084
-1795.42 -0.288286 0 5.30608
-2161.38 -0.547363 0 25.0685
-2152.93 -0.546497 0 25.1398
-2500.27 -0.836092 0 47.4217
-2480.58 -0.849186 0 47.5722
-1774.3 -0.266044 0 5.47104
-1788.38 -0.280869 0 5.3633
-2490.43 -0.842671 0 47.4985
-2127.6 -0.543734 0 25.3375
-1781.34 -0.273455 0 5.41828
-2144.49 -0.545605 0 25.2084
-2136.04 -0.544684 0 25.2743
-2480.58 -0.849186 0 47.5722
-2460.89 -0.862022 0 47.7103
-1760.21 -0.251224 0 5.5699
-1774.3 -0.266044 0 5.47104
-2470.73 -0.855636 0 47.6428
-2110.71 -0.541746 0 25.456
-1767.26 -0.258633 0 5.52157
-2127.6 -0.543734 0 25.3375
-2119.15 -0.542755 0 25.3981
-2460.89 -0.862022 0 47.7103
-2441.19 -0.874593 0 47.8361
-1746.13 -0.236407 0 5.65994
-1760.21 -0.251224 0 5.5699
-2451.04 -0.868341 0 47.7747
-2093.82 -0.539635 0 25.5639
-1753.17 -0.243816 0 5.61602
-2110.71 -0.541746 0 25.456
-2102.26 -0.540706 0 25.5112
-2441.19 -0.874593 0 47.8361
-2421.5 -0.886895 0 47.9496
-1732.05 -0.221587 0 5.74125
-1746.13 -0.236407 0 5.65994
-2431.34 -0.880778 0 47.8944
-2076.93 -0.537395 0 25.6613
-1739.09 -0.228998 0 5.70168
-2093.82 -0.539635 0 25.5639
-2085.37 -0.538531 0 25.6139
-2421.5 -0.886895 0 47.9496
-2401.8 -0.89892 0 48.051
-1717.97 -0.20676 0 5.81388
-1732.05 -0.221587 0 5.74125
-2411.65 -0.892942 0 48.0018
-2060.04 -0.535021 0 25.7483
-1725.01 -0.214175 0 5.77864
-2076.93 -0.537395 0 25.6613
-2068.48 -0.536225 0 25.7061
-2401.8 -0.89892 0 48.051
-2382.11 -0.910662 0 48.1404
-1703.88 -0.191922 0 5.87792
-1717.97 -0.20676 0 5.81388
-2391.96 -0.904827 0 48.0972
-2043.15 -0.532509 0 25.825
-1710.93 -0.199343 0 5.84697
-2060.04 -0.535021 0 25.7483
-2051.59 -0.533783 0 25.7879
-2382.11 -0.910662 0 48.1404
-2362.41 -0.922117 0 48.2178
-1689.8 -0.177068 0 5.93342
-1703.88 -0.191922 0 5.87792
-2372.26 -0.916426 0 48.1806
-2026.26 -0.529852 0 25.8914
-1696.84 -0.184497 0 5.90673
-2043.15 -0.532509 0 25.825
-2034.7 -0.531199 0 25.8595
-2362.41 -0.922117 0 48.2178
-2342.72 -0.933277 0 48.2834
-1675.72 -0.162196 0 5.98047
-1689.8 -0.177068 0 5.93342
-2352.57 -0.927734 0 48.2521
-2009.37 -0.527048 0 25.9477
-1682.76 -0.169635 0 5.958
-2026.26 -0.529852 0 25.8914
-2017.82 -0.528469 0 25.9208
-2342.72 -0.933277 0 48.2834
-2323.02 -0.944139 0 48.3373
-1661.64 -0.1473 0 6.01913
-1675.72 -0.162196 0 5.98047
-2332.87 -0.938746 0 48.3118
-1992.48 -0.52409 0 25.994
-1668.68 -0.154751 0 6.00084
-2009.37 -0.527048 0 25.9477
-2000.93 -0.525588 0 25.9721
-2323.02 -0.944139 0 48.3373
-2303.33 -0.954697 0 48.3795
-1647.56 -0.132378 0 6.04947
-1661.64 -0.1473 0 6.01913
-2313.18 -0.949456 0 48.3598
-1975.59 -0.520974 0 26.0302
-1654.6 -0.139843 0 6.03533
-1992.48 -0.52409 0 25.994
-1984.04 -0.522552 0 26.0133
-2303.33 -0.954697 0 48.3795
-2283.64 -0.964946 0 48.4102
-1633.47 -0.117426 0 6.07156
-1647.56 -0.132378 0 6.04947
-2293.48 -0.95986 0 48.3963
-1958.7 -0.517697 0 26.0566
-1640.52 -0.124906 0 6.06154
-1975.59 -0.520974 0 26.0302
-1967.15 -0.519356 0 26.0446
-2283.64 -0.964946 0 48.4102
-2263.94 -0.974881 0 48.4294
-1619.39 -0.10244 0 6.08547
-1633.47 -0.117426 0 6.07156
-2273.79 -0.969953 0 48.4212
-1941.81 -0.514255 0 26.0731
-1626.43 -0.109937 0 6.07954
-1958.7 -0.517697 0 26.0566
-1950.26 -0.515997 0 26.0661
-2263.94 -0.974881 0 48.4294
-2244.25 -0.984498 0 48.4373
-1605.31 -0.0874177 0 6.09128
-1619.39 -0.10244 0 6.08547
-2254.09 -0.979729 0 48.4348
-1924.92 -0.510643 0 26.08
-1612.35 -0.0949337 0 6.08939
-1941.81 -0.514255 0 26.0731
-1933.37 -0.51247 0 26.0778
-2244.25 -0.984498 0 48.4373
-2224.55 -0.993792 0 48.4339
-1591.23 -0.0723555 0 6.08906
-1605.31 -0.0874177 0 6.09128
-2234.4 -0.989185 0 48.437
-1908.03 -0.506857 0 26.0772
-1598.27 -0.0798918 0 6.09117
-1924.92 -0.510643 0 26.08
-1916.48 -0.508772 0 26.0798
-2224.55 -0.993792 0 48.4339
-2204.86 -1.00276 0 48.4194
-1577.15 -0.0572506 0 6.07886
-1591.23 -0.0723555 0 6.08906
-2214.7 -0.998317 0 48.4281
-1891.14 -0.502895 0 26.0648
-1584.19 -0.0648086 0 6.08495
-1908.03 -0.506857 0 26.0772
-1899.59 -0.504899 0 26.0722
-2204.86 -1.00276 0 48.4194
-2185.16 -1.0114 0 48.3939
-1563.07 -0.0421001 0 6.06077
-1577.15 -0.0572506 0 6.07886
-2195.01 -1.00712 0 48.408
-1874.25 -0.498753 0 26.0429
-1570.11 -0.0496812 0 6.0708
-1891.14 -0.502895 0 26.0648
-1882.7 -0.500847 0 26.055
-2185.16 -1.0114 0 48.3939
-2165.47 -1.0197 0 48.3574
-1548.99 -0.0269013 0 6.03486
-1563.07 -0.0421001 0 6.06077
-2175.31 -1.01559 0 48.377
-1857.37 -0.494427 0 26.0117
-1556.03 -0.0345069 0 6.04879
-1874.25 -0.498753 0 26.0429
-1865.81 -0.496613 0 26.0285
-2165.47 -1.0197 0 48.3574
-2145.77 -1.02766 0 48.31
-1534.9 -0.0116517 0 6.00119
-1548.99 -0.0269013 0 6.03486
-2155.62 -1.02372 0 48.335
-1840.48 -0.489914 0 25.9712
-1541.94 -0.019283 0 6.01899
-1857.37 -0.494427 0 26.0117
-1848.92 -0.492194 0 25.9926
-2145.77 -1.02766 0 48.31
-2126.08 -1.03529 0 48.2519
-1520.82 0.00365112 0 5.95984
-1534.9 -0.0116517 0 6.00119
-2135.92 -1.03152 0 48.2823
-1823.59 -0.485212 0 25.9214
-1527.86 -0.00400711 0 5.98147
-1840.48 -0.489914 0 25.9712
-1832.03 -0.487587 0 25.9475
-2126.08 -1.03529 0 48.2519
-2106.38 -1.04256 0 48.1831
-1506.74 0.0190095 0 5.91087
-1520.82 0.00365111 0 5.95984
-2116.23 -1.03897 0 48.2188
-1806.7 -0.480318 0 25.8625
-1513.78 0.0113232 0 5.9363
-1823.59 -0.485212 0 25.9214
-1815.14 -0.482789 0 25.8931
-2106.38 -1.04256 0 48.1831
-2086.69 -1.04949 0 48.1038
-1492.66 0.0344257 0 5.85436
-1506.74 0.0190095 0 5.91087
-2096.53 -1.04607 0 48.1448
-1789.81 -0.475229 0 25.7946
-1499.7 0.0267103 0 5.88356
-1806.7 -0.480318 0 25.8625
-1798.25 -0.477798 0 25.8297
-2086.69 -1.04949 0 48.1038
-2066.99 -1.05607 0 48.014
-1478.58 0.0499017 0 5.79038
-1492.66 0.0344257 0 5.85436
-2076.84 -1.05283 0 48.0602
-1772.92 -0.469943 0 25.7177
-1485.62 0.0421561 0 5.8233
-1789.81 -0.475229 0 25.7946
-1781.36 -0.472611 0 25.7573
-2066.99 -1.05607 0 48.014
-2047.3 -1.0623 0 47.9139
-1464.5 0.0654394 0 5.719
-1478.58 0.0499017 0 5.79038
-2057.14 -1.05923 0 47.9652
-1756.03 -0.464456 0 25.6319
-1471.54 0.0576627 0 5.75561
-1772.92 -0.469943 0 25.7177
-1764.48 -0.467225 0 25.6759
-2047.3 -1.0623 0 47.9139
-2027.6 -1.06817 0 47.8035
-1450.42 0.0810407 0 5.64028
-1464.5 0.0654394 0 5.719
-2037.45 -1.06528 0 47.86
-1739.14 -0.458768 0 25.5374
-1457.46 0.073232 0 5.68055
-1756.03 -0.464456 0 25.6319
-1747.59 -0.461638 0 25.5857
-2027.6 -1.06817 0 47.8035
-2007.91 -1.07368 0 47.6829
-1436.34 0.0967072 0 5.55431
-1450.42 0.0810407 0 5.64028
-2017.75 -1.07097 0 47.7445
-1722.25 -0.452877 0 25.4341
-1443.38 0.0888657 0 5.5982
-1739.14 -0.458768 0 25.5374
-1730.7 -0.455848 0 25.4868
-2007.91 -1.07368 0 47.6829
-1988.21 -1.07883 0 47.5523
-1422.26 0.112441 0 5.46114
-1436.34 0.0967072 0 5.55431
-1998.06 -1.0763 0 47.6189
-1705.37 -0.446779 0 25.3221
-1429.3 0.104565 0 5.50862
-1722.25 -0.452877 0 25.4341
-1713.81 -0.449853 0 25.3792
-1988.21 -1.07883 0 47.5523
-1968.52 -1.08362 0 47.4117
-1408.18 0.128242 0 5.36085
-1422.26 0.112441 0 5.46114
-1978.36 -1.08127 0 47.4832
-1688.48 -0.440474 0 25.2017
-1415.22 0.120333 0 5.41188
-1705.37 -0.446779 0 25.3221
-1696.92 -0.443652 0 25.263
-1968.52 -1.08362 0 47.4117
-1948.82 -1.08804 0 47.2613
-1394.1 0.144113 0 5.25352
-1408.18 0.128242 0 5.36085
-1958.67 -1.08588 0 47.3377
-1671.59 -0.433959 0 25.0728
-1401.14 0.136169 0 5.30806
-1688.48 -0.440474 0 25.2017
-1680.03 -0.437243 0 25.1383
-1948.82 -1.08804 0 47.2613
-1929.13 -1.0921 0 47.101
-1380.02 0.160055 0 5.1392
-1394.1 0.144113 0 5.25352
-1938.97 -1.09012 0 47.1824
-1654.7 -0.427234 0 24.9355
-1387.06 0.152075 0 5.19723
-1671.59 -0.433959 0 25.0728
-1663.14 -0.430623 0 25.0052
-1929.13 -1.0921 0 47.101
-1909.43 -1.09579 0 46.9312
-1365.94 0.176069 0 5.01797
-1380.02 0.160055 0 5.1392
-1919.28 -1.09399 0 47.0173
-1637.81 -0.420297 0 24.7899
-1372.98 0.168053 0 5.07944
-1654.7 -0.427234 0 24.9355
-1646.26 -0.423792 0 24.8637
-1909.43 -1.09579 0 46.9312
-1889.74 -1.09911 0 46.7517
-1351.86 0.192156 0 4.88991
-1365.94 0.176069 0 5.01797
-1899.58 -1.09749 0 46.8426
-1620.92 -0.413147 0 24.6361
-1358.9 0.184103 0 4.95479
-1637.81 -0.420297 0 24.7899
-1629.37 -0.416749 0 24.714
-1889.74 -1.09911 0 46.7517
-1870.04 -1.10206 0 46.5628
-1337.78 0.208316 0 4.75508
-1351.86 0.192156 0 4.88991
-1879.89 -1.10063 0 46.6584
-1604.03 -0.405783 0 24.4742
-1344.82 0.200227 0 4.82333
-1620.92 -0.413147 0 24.6361
-1612.48 -0.409492 0 24.5562
-1870.04 -1.10206 0 46.5628
-1850.35 -1.10464 0 46.3645
-1323.7 0.224551 0 4.61354
-1337.78 0.208316 0 4.75508
-1860.19 -1.10339 0 46.4648
-1587.15 -0.398204 0 24.3043
-1330.74 0.216425 0 4.68514
-1604.03 -0.405783 0 24.4742
-1595.59 -0.40202 0 24.3903
-1850.35 -1.10464 0 46.3645
-1830.65 -1.10684 0 46.1569
-1309.62 0.240861 0 4.46539
-1323.7 0.224551 0 4.61354
-1840.5 -1.10579 0 46.2619
-1570.26 -0.390409 0 24.1264
-1316.66 0.232697 0 4.54029
-1587.15 -0.398204 0 24.3043
-1578.7 -0.394333 0 24.2163
-1830.65 -1.10684 0 46.1569
-1810.96 -1.10868 0 45.9402
-1295.54 0.257247 0 4.31067
-1309.62 0.240861 0 4.46539
-1820.8 -1.10781 0 46.0497
-1553.37 -0.382397 0 23.9406
-1302.58 0.249045 0 4.38884
-1570.26 -0.390409 0 24.1264
-1561.81 -0.38643 0 24.0345
-1810.96 -1.10868 0 45.9402
-1791.26 -1.11014 0 45.7143
-1281.46 0.273709 0 4.14947
-1295.54 0.257247 0 4.31067
-1801.11 -1.10945 0 45.8284
-1536.48 -0.374169 0 23.7471
-1288.5 0.265469 0 4.23088
-1553.37 -0.382397 0 23.9406
-1544.93 -0.37831 0 23.8448
-1791.26 -1.11014 0 45.7143
-1771.57 -1.11122 0 45.4795
-1267.38 0.290248 0 3.98185
-1281.46 0.273709 0 4.14947
-1781.41 -1.11072 0 45.5981
-1519.59 -0.365723 0 23.5459
-1274.42 0.281969 0 4.06646
-1536.48 -0.374169 0 23.7471
-1528.04 -0.369973 0 23.6475
-1771.57 -1.11122 0 45.4795
-1751.87 -1.11193 0 45.2359
-1253.31 0.306862 0 3.80789
-1267.38 0.290248 0 3.98185
-1761.72 -1.11162 0 45.3588
-1502.71 -0.357059 0 23.337
-1260.34 0.298545 0 3.89566
-1519.59 -0.365723 0 23.5459
-1511.15 -0.361418 0 23.4424
-1751.87 -1.11193 0 45.2359
-1732.18 -1.11227 0 44.9834
-1239.23 0.323554 0 3.62765
-1253.31 0.306862 0 3.80789
-1742.03 -1.11215 0 45.1107
-1485.82 -0.348178 0 23.1207
-1246.27 0.315199 0 3.71855
-1502.71 -0.357059 0 23.337
-1494.26 -0.352646 0 23.2298
-1732.18 -1.11227 0 44.9834
-1712.48 -1.11223 0 44.7223
-1225.15 0.340323 0 3.44121
-1239.23 0.323554 0 3.62765
-1722.33 -1.11229 0 44.8539
-1468.93 -0.339078 0 22.8968
-1232.19 0.331929 0 3.5352
-1485.82 -0.348178 0 23.1207
-1477.38 -0.343655 0 23.0097
-1712.48 -1.11223 0 44.7223
-1692.79 -1.11181 0 44.4525
-1211.07 0.357168 0 3.24864
-1225.15 0.340323 0 3.44121
-1702.64 -1.11207 0 44.5885
-1452.04 -0.329761 0 22.6657
-1218.11 0.348736 0 3.34569
-1468.93 -0.339078 0 22.8968
-1460.49 -0.334447 0 22.7822
-1692.79 -1.11181 0 44.4525
-1673.09 -1.11103 0 44.1743
-1196.99 0.374089 0 3.05
-1211.07 0.357168 0 3.24864
-1682.94 -1.11147 0 44.3145
-1435.16 -0.320227 0 22.4272
-1204.03 0.365619 0 3.15007
-1452.04 -0.329761 0 22.6657
-1443.6 -0.325021 0 22.5474
-1673.09 -1.11103 0 44.1743
-1653.4 -1.10986 0 43.8877
-1182.91 0.391087 0 2.84536
-1196.99 0.374089 0 3.05
-1663.25 -1.11049 0 44.0321
-1418.27 -0.310476 0 22.1816
-1189.95 0.382578 0 2.94842
-1435.16 -0.320227 0 22.4272
-1426.71 -0.315378 0 22.3053
-1653.4 -1.10986 0 43.8877
-1633.7 -1.10833 0 43.5929
-1168.84 0.40816 0 2.6348
-1182.91 0.391087 0 2.84536
-1643.55 -1.10914 0 43.7413
-1401.38 -0.300508 0 21.9288
-1175.87 0.399614 0 2.74082
-1418.27 -0.310476 0 22.1816
-1409.83 -0.305519 0 22.0561
-1633.7 -1.10833 0 43.5929
-1614.01 -1.10642 0 43.2898
-1154.76 0.425309 0 2.4184
-1168.84 0.40816 0 2.6348
-1623.86 -1.10742 0 43.4423
-1384.5 -0.290323 0 21.6691
-1161.8 0.416725 0 2.52733
-1401.38 -0.300508 0 21.9288
-1392.94 -0.295442 0 21.7998
-1614.01 -1.10642 0 43.2898
-1594.31 -1.10414 0 42.9786
-1140.68 0.442532 0 2.1962
-1154.76 0.425309 0 2.4184
-1604.16 -1.10533 0 43.1352
-1367.61 -0.279924 0 21.4024
-1147.72 0.433911 0 2.30802
-1384.5 -0.290323 0 21.6691
-1376.05 -0.285151 0 21.5366
-1594.31 -1.10414 0 42.9786
-1574.62 -1.10149 0 42.6595
-1126.6 0.459829 0 1.9683
-1140.68 0.442532 0 2.1962
-1584.47 -1.10286 0 42.82
-1350.72 -0.26931 0 21.1288
-1133.64 0.451171 0 2.08296
-1367.61 -0.279924 0 21.4024
-1359.16 -0.274644 0 21.2664
-1574.62 -1.10149 0 42.6595
-1554.92 -1.09847 0 42.3324
-1112.52 0.477199 0 1.73476
-1126.6 0.459829 0 1.9683
-1564.77 -1.10003 0 42.4969
-1333.83 -0.258483 0 20.8485
-1119.56 0.468505 0 1.85223
-1350.72 -0.26931 0 21.1288
-1342.28 -0.263923 0 20.9895
-1554.92 -1.09847 0 42.3324
-1535.23 -1.09508 0 41.9976
-1098.45 0.494642 0 1.49564
-1112.52 0.477199 0 1.73476
-1545.08 -1.09682 0 42.166
-1316.95 -0.247443 0 20.5615
-1105.49 0.485911 0 1.61589
-1333.83 -0.258483 0 20.8485
-1325.39 -0.25299 0 20.7058
-1535.23 -1.09508 0 41.9976
-1515.53 -1.09133 0 41.655
-1084.37 0.512155 0 1.25102
-1098.45 0.494642 0 1.49564
-1525.38 -1.09325 0 41.8273
-1300.06 -0.236192 0 20.2679
-1091.41 0.50339 0 1.37402
-1316.95 -0.247443 0 20.5615
-1308.5 -0.241844 0 20.4155
-1515.53 -1.09133 0 41.655
-1495.84 -1.08721 0 41.3049
-1070.29 0.529739 0 1.00098
-1084.37 0.512155 0 1.25102
-1505.69 -1.08931 0 41.4809
-1283.17 -0.224731 0 19.9678
-1077.33 0.520939 0 1.12668
-1300.06 -0.236192 0 20.2679
-1291.62 -0.230488 0 20.1186
-1495.84 -1.08721 0 41.3049
-1476.15 -1.08272 0 40.9473
-1056.22 0.547392 0 0.745573
-1070.29 0.529739 0 1.00098
-1485.99 -1.08501 0 41.127
-1266.29 -0.213061 0 19.6612
-1063.25 0.538557 0 0.873941
-1283.17 -0.224731 0 19.9678
-1274.73 -0.218922 0 19.8153
-1476.15 -1.08272 0 40.9473
-1456.45 -1.07787 0 40.5822
-1042.14 0.565113 0 0.484878
-1056.22 0.547392 0 0.745573
-1466.3 -1.08034 0 40.7657
-1249.4 -0.201184 0 19.3483
-1049.18 0.556244 0 0.615882
-1266.29 -0.213061 0 19.6612
-1257.84 -0.207148 0 19.5056
-1456.45 -1.07787 0 40.5822
-1436.76 -1.07266 0 40.2099
-1028.06 0.5829 0 0.218964
-1042.14 0.565113 0 0.484878
-1446.6 -1.07531 0 40.397
-1232.51 -0.189102 0 19.0292
-1035.1 0.573999 0 0.352569
-1249.4 -0.201184 0 19.3483
-1240.96 -0.195168 0 19.1895
-1436.76 -1.07266 0 40.2099
-1417.06 -1.0671 0 39.8303
-1013.99 0.600753 0 -0.052099
-1028.06 0.5829 0 0.218964
-1426.91 -1.06992 0 40.021
-1215.63 -0.176815 0 18.7039
-1021.02 0.591819 0 0.0840714
-1232.51 -0.189102 0 19.0292
-1224.07 -0.182984 0 18.8673
-1417.06 -1.0671 0 39.8303
-1397.37 -1.06117 0 39.4437
-999.91 0.618669 0 -0.32824
-1013.99 0.600753 0 -0.052099
-1407.21 -1.06418 0 39.6379
-1198.74 -0.164327 0 18.3724
-1006.95 0.609703 0 -0.189539
-1215.63 -0.176815 0 18.7039
-1207.18 -0.170596 0 18.5389
-1397.37 -1.06117 0 39.4437
-1377.67 -1.0549 0 39.0501
-985.833 0.636646 0 -0.609388
-999.91 0.618669 0 -0.32824
-1387.52 -1.05808 0 39.2477
-1181.86 -0.151638 0 18.035
-992.872 0.62765 0 -0.468192
-1198.74 -0.164327 0 18.3724
-1190.3 -0.158007 0 18.2045
-1377.67 -1.0549 0 39.0501
-1357.98 -1.04827 0 38.6495
-971.757 0.654685 0 -0.895474
-985.833 0.636646 0 -0.609388
-1367.82 -1.05162 0 38.8506
-1164.97 -0.138751 0 17.6917
-978.795 0.645658 0 -0.751818
-1181.86 -0.151638 0 18.035
-1173.41 -0.145219 0 17.8641
-1357.98 -1.04827 0 38.6495
-1338.28 -1.04129 0 38.2421
-957.681 0.672781 0 -1.18643
-971.757 0.654685 0 -0.895474
-1348.13 -1.04482 0 38.4467
-1148.08 -0.125669 0 17.3425
-964.719 0.663726 0 -1.04035
-1164.97 -0.138751 0 17.6917
-1156.53 -0.132234 0 17.5178
-1338.28 -1.04129 0 38.2421
-1318.59 -1.03396 0 37.828
-943.605 0.690935 0 -1.48218
-957.681 0.672781 0 -1.18643
-1328.43 -1.03767 0 38.0359
-1131.2 -0.112392 0 16.9875
-950.643 0.681851 0 -1.33371
-1148.08 -0.125669 0 17.3425
-1139.64 -0.119054 0 17.1657
-1318.59 -1.03396 0 37.828
-1298.89 -1.02629 0 37.4073
-929.529 0.709143 0 -1.78265
-943.605 0.690935 0 -1.48218
-1308.74 -1.03017 0 37.6185
-1114.31 -0.0989237 0 16.6269
-936.567 0.700032 0 -1.63183
-1131.2 -0.112392 0 16.9875
-1122.75 -0.105682 0 16.8079
-1298.89 -1.02629 0 37.4073
-1279.2 -1.01828 0 36.9801
-915.453 0.727403 0 -2.08778
-929.529 0.709143 0 -1.78265
-1289.04 -1.02233 0 37.1946
-1097.42 -0.0852663 0 16.2607
-922.491 0.718267 0 -1.93464
-1114.31 -0.0989237 0 16.6269
-1105.87 -0.0921185 0 16.4445
-1279.2 -1.01828 0 36.9801
-1259.5 -1.00993 0 36.5465
-901.377 0.745715 0 -2.3975
-915.453 0.727403 0 -2.08778
-1269.35 -1.01415 0 36.7641
-1080.54 -0.0714222 0 15.889
-908.415 0.736553 0 -2.24207
-1097.42 -0.0852663 0 16.2607
-1088.98 -0.0783675 0 16.0756
-1259.5 -1.00993 0 36.5465
-1239.81 -1.00124 0 36.1066
-887.302 0.764075 0 -2.71173
-901.377 0.745715 0 -2.3975
-1249.65 -1.00563 0 36.3273
-1063.65 -0.0573941 0 15.5119
-894.339 0.754889 0 -2.55405
-1080.54 -0.0714222 0 15.889
-1072.1 -0.064431 0 15.7011
-1239.81 -1.00124 0 36.1066
-1220.11 -0.992226 0 35.6604
-873.226 0.782482 0 -3.03041
-887.302 0.764075 0 -2.71173
-1229.96 -0.996777 0 35.8843
-1046.77 -0.0431844 0 15.1295
-880.264 0.773273 0 -2.87052
-1063.65 -0.0573941 0 15.5119
-1055.21 -0.0503118 0 15.3214
-1220.11 -0.992226 0 35.6604
-1200.42 -0.982879 0 35.2082
-859.151 0.800932 0 -3.35346
-873.226 0.782482 0 -3.03041
-1210.26 -0.987594 0 35.4351
-1029.88 -0.0287961 0 14.7418
-866.188 0.791702 0 -3.19139
-1046.77 -0.0431844 0 15.1295
-1038.32 -0.0360124 0 14.9363
-1200.42 -0.982879 0 35.2082
-1180.72 -0.973206 0 34.7499
-845.075 0.819424 0 -3.68081
-859.151 0.800932 0 -3.35346
-1190.57 -0.978083 0 34.9798
-1012.99 -0.0142319 0 14.3489
-852.113 0.810173 0 -3.5166
-1029.88 -0.0287961 0 14.7418
-1021.44 -0.0215358 0 14.546
-1180.72 -0.973206 0 34.7499
-1161.03 -0.963211 0 34.2856
-831 0.837956 0 -4.0124
-845.075 0.819424 0 -3.68081
-1170.87 -0.968249 0 34.5185
-996.108 0.000505298 0 13.951
-838.037 0.828685 0 -3.84608
-1012.99 -0.0142319 0 14.3489
-1004.55 -0.00688471 0 14.1506
-1161.03 -0.963211 0 34.2856
-1141.33 -0.952896 0 33.8156
-816.925 0.856524 0 -4.34815
-831 0.837956 0 -4.0124
-1151.18 -0.958093 0 34.0513
-979.222 0.0154124 0 13.5481
-823.962 0.847235 0 -4.17976
-996.108 0.000505298 0 13.951
-987.665 0.00793778 0 13.7502
-1141.33 -0.952896 0 33.8156
-1121.64 -0.942266 0 33.3398
-802.849 0.875126 0 -4.68799
-816.925 0.856524 0 -4.34815
-1131.48 -0.94762 0 33.5784
-962.337 0.0304863 0 13.1402
-809.887 0.865821 0 -4.51757
-979.222 0.0154124 0 13.5481
-970.78 0.0229287 0 13.3448
-1121.64 -0.942266 0 33.3398
-1101.94 -0.931325 0 32.8584
-788.774 0.89376 0 -5.03186
-802.849 0.875126 0 -4.68799
-1111.79 -0.936834 0 33.0998
-945.451 0.0457239 0 12.7276
-795.812 0.884439 0 -4.85943
-962.337 0.0304863 0 13.1402
-953.894 0.0380849 0 12.9345
-1101.94 -0.931325 0 32.8584
-1082.24 -0.920075 0 32.3715
-774.699 0.912422 0 -5.37968
-788.774 0.89376 0 -5.03186
-1092.09 -0.925738 0 32.6157
-928.565 0.061122 0 12.3102
-781.737 0.903088 0 -5.20528
-945.451 0.0457239 0 12.7276
-937.008 0.0534031 0 12.5195
-1082.24 -0.920075 0 32.3715
-1062.55 -0.908521 0 31.8792
-760.624 0.931111 0 -5.73138
-774.699 0.912422 0 -5.37968
-1072.4 -0.914336 0 32.126
-911.679 0.0766771 0 11.8881
-767.662 0.921764 0 -5.55505
-928.565 0.061122 0 12.3102
-920.122 0.0688801 0 12.0997
-1062.55 -0.908521 0 31.8792
-1042.85 -0.896668 0 31.3815
-746.549 0.949823 0 -6.08689
-760.624 0.931111 0 -5.73138
-1052.7 -0.902632 0 31.631
-894.793 0.0923859 0 11.4615
-753.587 0.940464 0 -5.90866
-911.679 0.0766771 0 11.8881
-903.236 0.0845125 0 11.6754
-1042.85 -0.896668 0 31.3815
-1023.16 -0.884518 0 30.8786
-732.475 0.968555 0 -6.44614
-746.549 0.949823 0 -6.08689
-1033.01 -0.89063 0 31.1307
-877.907 0.108245 0 11.0304
-739.512 0.959186 0 -6.26605
-894.793 0.0923859 0 11.4615
-886.35 0.100297 0 11.2465
-1023.16 -0.884518 0 30.8786
-1003.46 -0.872076 0 30.3705
-718.4 0.987304 0 -6.80907
-732.475 0.968555 0 -6.44614
-1013.31 -0.878333 0 30.6252
-861.022 0.124251 0 10.5949
-725.437 0.977927 0 -6.62715
-877.907 0.108245 0 11.0304
-869.464 0.11623 0 10.8132
-1003.46 -0.872076 0 30.3705
-983.766 -0.859347 0 29.8574
-704.325 1.00607 0 -7.17559
-718.4 0.987304 0 -6.80907
-993.614 -0.865748 0 30.1146
-844.136 0.140399 0 10.155
-711.362 0.996684 0 -6.99188
-861.022 0.124251 0 10.5949
-852.579 0.132307 0 10.3755
-983.766 -0.859347 0 29.8574
-964.069 -0.846335 0 29.3394
-690.25 1.02484 0 -7.54564
-704.325 1.00607 0 -7.17559
-973.918 -0.852876 0 29.599
-827.25 0.156687 0 9.71097
-697.288 1.01545 0 -7.36018
-844.136 0.140399 0 10.155
-835.693 0.148526 0 9.93353
-964.069 -0.846335 0 29.3394
-944.373 -0.833043 0 28.8165
-676.176 1.04362 0 -7.91915
-690.25 1.02484 0 -7.54564
-954.221 -0.839724 0 29.0786
-810.364 0.173111 0 9.26276
-683.213 1.03423 0 -7.73197
-827.25 0.156687 0 9.71097
-818.807 0.164882 0 9.48738
-944.373 -0.833043 0 28.8165
-924.677 -0.819477 0 28.2889
-662.101 1.06241 0 -8.29606
-676.176 1.04362 0 -7.91915
-934.525 -0.826294 0 28.5533
-793.478 0.189666 0 8.81048
-669.138 1.05302 0 -8.10719
-810.364 0.173111 0 9.26276
-801.921 0.181372 0 9.03712
-924.677 -0.819477 0 28.2889
-904.981 -0.805642 0 27.7567
-648.027 1.0812 0 -8.67628
-662.101 1.06241 0 -8.29606
-914.829 -0.812593 0 28.0234
-776.592 0.206349 0 8.35421
-655.064 1.07181 0 -8.48576
-793.478 0.189666 0 8.81048
-785.035 0.197992 0 8.58284
-904.981 -0.805642 0 27.7567
-885.284 -0.791541 0 27.2199
-633.952 1.09999 0 -9.05975
-648.027 1.0812 0 -8.67628
-895.132 -0.798624 0 27.4889
-759.706 0.223156 0 7.89406
-640.989 1.0906 0 -8.86761
-776.592 0.206349 0 8.35421
-768.149 0.214737 0 8.12462
-885.284 -0.791541 0 27.2199
-865.587 -0.777179 0 26.6787
-619.878 1.11877 0 -9.44639
-633.952 1.09999 0 -9.05975
-875.436 -0.784392 0 26.9498
-742.82 0.240083 0 7.43009
-626.915 1.10938 0 -9.25268
-759.706 0.223156 0 7.89406
-751.263 0.231605 0 7.66254
-865.587 -0.777179 0 26.6787
-845.891 -0.762562 0 26.1331
-605.803 1.13754 0 -9.83615
-619.878 1.11877 0 -9.44639
-855.739 -0.769902 0 26.4064
-725.934 0.257125 0 6.96239
-612.84 1.12816 0 -9.64089
-742.82 0.240083 0 7.43009
-734.377 0.24859 0 7.1967
-845.891 -0.762562 0 26.1331
-826.194 -0.747694 0 25.5833
-591.729 1.15631 0 -10.2289
-605.803 1.13754 0 -9.83615
-836.042 -0.755159 0 25.8587
-709.048 0.274279 0 6.49105
-598.766 1.14693 0 -10.0322
-725.934 0.257125 0 6.96239
-717.491 0.265688 0 6.72717
-826.194 -0.747694 0 25.5833
-806.497 -0.73258 0 25.0293
-577.654 1.17505 0 -10.6247
-591.729 1.15631 0 -10.2289
-816.345 -0.740167 0 25.3068
-692.162 0.29154 0 6.01616
-584.692 1.16568 0 -10.4265
-709.048 0.274279 0 6.49105
-700.605 0.282896 0 6.25405
-806.497 -0.73258 0 25.0293
-786.8 -0.717224 0 24.4713
-563.58 1.19378 0 -11.0234
-577.654 1.17505 0 -10.6247
-796.648 -0.724932 0 24.7508
-675.275 0.308904 0 5.53779
-570.617 1.18442 0 -10.8237
-692.162 0.29154 0 6.01616
-683.719 0.300209 0 5.7774
-786.8 -0.717224 0 24.4713
-767.102 -0.701633 0 23.9093
-549.506 1.21248 0 -11.4248
-563.58 1.19378 0 -11.0234
-776.951 -0.709458 0 24.1908
-658.389 0.326367 0 5.05603
-556.543 1.20314 0 -11.2237
-675.275 0.308904 0 5.53779
-666.832 0.317623 0 5.29733
-767.102 -0.701633 0 23.9093
-747.405 -0.685811 0 23.3435
-535.431 1.23116 0 -11.8291
-549.506 1.21248 0 -11.4248
-757.253 -0.693751 0 23.6268
-641.503 0.343924 0 4.57096
-542.468 1.22183 0 -11.6266
-658.389 0.326367 0 5.05603
-649.946 0.335134 0 4.8139
-747.405 -0.685811 0 23.3435
-727.707 -0.669764 0 22.7739
-521.357 1.24981 0 -12.236
-535.431 1.23116 0 -11.8291
-737.556 -0.677816 0 23.0591
-624.616 0.361571 0 4.08268
-528.394 1.24049 0 -12.0322
-641.503 0.343924 0 4.57096
-633.06 0.352736 0 4.32722
-727.707 -0.669764 0 22.7739
-708.009 -0.653496 0 22.2006
-507.282 1.26842 0 -12.6455
-521.357 1.24981 0 -12.236
-717.858 -0.661657 0 22.4877
-607.73 0.379303 0 3.59125
-514.32 1.25912 0 -12.4404
-624.616 0.361571 0 4.08268
-616.173 0.370427 0 3.83735
-708.009 -0.653496 0 22.2006
-688.311 -0.637013 0 21.6238
-493.208 1.287 0 -13.0576
-507.282 1.26842 0 -12.6455
-698.16 -0.645281 0 21.9127
-590.843 0.397116 0 3.09678
-500.245 1.27772 0 -12.8513
-607.73 0.379303 0 3.59125
-599.287 0.3882 0 3.34439
-688.311 -0.637013 0 21.6238
-668.613 -0.620321 0 21.0436
-479.134 1.30553 0 -13.4722
-493.208 1.287 0 -13.0576
-678.462 -0.628693 0 21.3341
-573.957 0.415005 0 2.59934
-486.171 1.29627 0 -13.2646
-590.843 0.397116 0 3.09678
-582.4 0.406051 0 2.84843
-668.613 -0.620321 0 21.0436
-648.914 -0.603424 0 20.4599
-465.059 1.32402 0 -13.8891
-479.134 1.30553 0 -13.4722
-658.763 -0.611897 0 20.7522
-557.07 0.432965 0 2.09902
-472.096 1.31478 0 -13.6804
-573.957 0.415005 0 2.59934
-565.513 0.423977 0 2.34953
-648.914 -0.603424 0 20.4599
-629.216 -0.586328 0 19.873
-450.985 1.34246 0 -14.3084
-465.059 1.32402 0 -13.8891
-639.065 -0.5949 0 20.1669
-540.183 0.450992 0 1.5959
-458.022 1.33325 0 -14.0985
-557.07 0.432965 0 2.09902
-548.626 0.441971 0 1.8478
-629.216 -0.586328 0 19.873
-609.517 -0.569039 0 19.283
-436.91 1.36085 0 -14.73
-450.985 1.34246 0 -14.3084
-619.366 -0.577707 0 19.5784
-523.296 0.469081 0 1.09006
-443.947 1.35166 0 -14.5189
-540.183 0.450992 0 1.5959
-531.739 0.460029 0 1.34331
-609.517 -0.569039 0 19.283
-589.818 -0.551563 0 18.6899
-422.836 1.37917 0 -15.1537
-436.91 1.36085 0 -14.73
-599.667 -0.560324 0 18.9868
-506.409 0.487227 0 0.5816
-429.873 1.37002 0 -14.9416
-523.296 0.469081 0 1.09006
-514.852 0.478147 0 0.836154
-589.818 -0.551563 0 18.6899
-570.118 -0.533904 0 18.0938
-408.761 1.39743 0 -15.5796
-422.836 1.37917 0 -15.1537
-579.968 -0.542756 0 18.3922
-489.522 0.505424 0 0.0705957
-415.798 1.38831 0 -15.3664
-506.409 0.487227 0 0.5816
-497.965 0.496319 0 0.32641
-570.118 -0.533904 0 18.0938
-550.419 -0.516069 0 17.4948
-394.687 1.41563 0 -16.0075
-408.761 1.39743 0 -15.5796
-560.269 -0.525008 0 17.7947
-472.634 0.523668 0 -0.442866
-401.724 1.40654 0 -15.7933
-489.522 0.505424 0 0.0705957
-481.078 0.514541 0 -0.185833
-550.419 -0.516069 0 17.4948
-530.719 -0.498064 0 16.8931
-380.612 1.43375 0 -16.4374
-394.687 1.41563 0 -16.0075
-540.569 -0.507087 0 17.1943
-455.747 0.541954 0 -0.958698
-387.649 1.4247 0 -16.2222
-472.634 0.523668 0 -0.442866
-464.191 0.532806 0 -0.700491
-530.719 -0.498064 0 16.8931
-511.019 -0.479893 0 16.2887
-366.537 1.4518 0 -16.8692
-380.612 1.43375 0 -16.4374
-520.869 -0.488998 0 16.5912
-438.859 0.560277 0 -1.47682
-373.575 1.44279 0 -16.6531
-455.747 0.541954 0 -0.958698
-447.303 0.551111 0 -1.21748
-511.019 -0.479893 0 16.2887
-491.319 -0.461564 0 15.6817
-352.463 1.46977 0 -17.3028
-366.537 1.4518 0 -16.8692
-501.169 -0.470748 0 15.9855
-421.972 0.578631 0 -1.99713
-359.5 1.46079 0 -17.0858
-438.859 0.560277 0 -1.47682
-430.415 0.56945 0 -1.73671
-491.319 -0.461564 0 15.6817
-471.618 -0.443081 0 15.0723
-338.388 1.48766 0 -17.7382
-352.463 1.46977 0 -17.3028
-481.469 -0.452341 0 15.3773
-405.084 0.597013 0 -2.51957
-345.425 1.47872 0 -17.5203
-421.972 0.578631 0 -1.99713
-413.528 0.587819 0 -2.25809
-471.618 -0.443081 0 15.0723
-451.918 -0.424451 0 14.4605
-324.313 1.50546 0 -18.1753
-338.388 1.48766 0 -17.7382
-461.768 -0.433784 0 14.7667
-388.196 0.615419 0 -3.04403
-331.35 1.49657 0 -17.9565
-405.084 0.597013 0 -2.51957
-396.64 0.606213 0 -2.78155
-451.918 -0.424451 0 14.4605
-432.217 -0.40568 0 13.8464
-310.238 1.5232 0 -18.614
-324.313 1.50546 0 -18.1753
-442.068 -0.415083 0 14.1537
-371.308 0.633847 0 -3.57046
-317.276 1.51434 0 -18.3944
-388.196 0.615419 0 -3.04403
-379.752 0.62463 0 -3.30701
-432.217 -0.40568 0 13.8464
-412.516 -0.386779 0 13.2301
-296.163 1.54087 0 -19.0543
-310.238 1.5232 0 -18.614
-422.367 -0.396246 0 13.5385
-354.42 0.652298 0 -4.09877
-303.201 1.53204 0 -18.8339
-371.308 0.633847 0 -3.57046
-362.864 0.643069 0 -3.83438
-412.516 -0.386779 0 13.2301
-392.815 -0.367747 0 12.6118
-282.088 1.55849 0 -19.4961
-296.163 1.54087 0 -19.0543
-402.665 -0.377278 0 12.9212
-337.531 0.670775 0 -4.62891
-289.126 1.54968 0 -19.275
-354.42 0.652298 0 -4.09877
-345.975 0.661533 0 -4.36361
-392.815 -0.367747 0 12.6118
-373.113 -0.348607 0 11.9914
-268.013 1.57608 0 -19.9395
-282.088 1.55849 0 -19.4961
-382.964 -0.358189 0 12.3018
-320.643 0.689286 0 -5.16083
-275.051 1.56729 0 -19.7176
-337.531 0.670775 0 -4.62891
-329.087 0.680025 0 -4.89465
-373.113 -0.348607 0 11.9914
-353.411 -0.329355 0 11.3692
-253.938 1.59365 0 -20.3843
-268.013 1.57608 0 -19.9395
-363.262 -0.338996 0 11.6806
-303.754 0.707832 0 -5.69451
-260.976 1.58487 0 -20.1617
-320.643 0.689286 0 -5.16083
-312.198 0.698556 0 -5.42745
-353.411 -0.329355 0 11.3692
-333.708 -0.310016 0 10.7452
-239.863 1.61113 0 -20.8307
-253.938 1.59365 0 -20.3843
-343.559 -0.319687 0 11.0574
-286.864 0.72642 0 -6.22991
-246.901 1.60241 0 -20.6073
-303.754 0.707832 0 -5.69451
-295.309 0.717119 0 -5.962
-333.708 -0.310016 0 10.7452
-314.003 -0.290625 0 10.1194
-225.788 1.62835 0 -21.2783
-239.863 1.61113 0 -20.8307
-323.856 -0.30035 0 10.4325
-269.975 0.744982 0 -6.76695
-232.826 1.61979 0 -21.0543
-286.864 0.72642 0 -6.22991
-278.419 0.735715 0 -6.49823
-314.003 -0.290625 0 10.1194
-294.297 -0.271066 0 9.49198
-211.713 1.64473 0 -21.7268
-225.788 1.62835 0 -21.2783
-304.151 -0.280804 0 9.80585
-253.084 0.763441 0 -7.30527
-218.751 1.63672 0 -21.5025
-269.975 0.744982 0 -6.76695
-261.53 0.754225 0 -7.03597
-294.297 -0.271066 0 9.49198
-274.59 -0.251771 0 8.86282
-197.639 1.65913 0 -22.175
-211.713 1.64473 0 -21.7268
-284.444 -0.261559 0 9.17774
-236.194 0.781313 0 -7.84419
-204.676 1.65228 0 -21.9511
-253.084 0.763441 0 -7.30527
-244.639 0.772509 0 -7.57474
-274.59 -0.251771 0 8.86282
-254.881 -0.231394 0 8.23236
-183.565 1.66865 0 -22.6199
-197.639 1.65913 0 -22.175
-264.735 -0.241337 0 8.54753
-219.306 0.798059 0 -8.38147
-190.602 1.66479 0 -22.3982
-236.194 0.781313 0 -7.84419
-227.75 0.789834 0 -8.11319
-254.881 -0.231394 0 8.23236
-235.178 -0.213147 0 7.5995
-169.492 1.66873 0 -23.0562
-183.565 1.66865 0 -22.6199
-245.028 -0.223039 0 7.91674
-202.426 0.811432 0 -8.91326
-176.529 1.6703 0 -22.8395
-219.306 0.798059 0 -8.38147
-210.864 0.80545 0 -8.64856
-235.178 -0.213147 0 7.5995
-215.485 -0.187888 0 6.96718
-155.423 1.64816 0 -23.4708
-169.492 1.66873 0 -23.0562
-225.33 -0.199216 0 7.28226
-185.559 0.819113 0 -9.42968
-162.456 1.66198 0 -23.2676
-202.426 0.811432 0 -8.91326
-193.991 0.815914 0 -9.17395
-215.485 -0.187888 0 6.96718
-195.852 -0.175297 0 6.32927
-141.347 1.59385 0 -23.8459
-155.423 1.64816 0 -23.4708
-205.657 -0.185658 0 6.65098
-168.734 0.812861 0 -9.91462
-148.388 1.62669 0 -23.6646
-185.559 0.819113 0 -9.42968
-177.138 0.819053 0 -9.67841
-195.852 -0.175297 0 6.32927
-176.297 -0.123471 0 5.70155
-127.281 1.46905 0 -24.1367
-141.347 1.59385 0 -23.8459
-186.063 -0.142439 0 6.00957
-151.973 0.784717 0 -10.3343
-134.31 1.54238 0 -24.0063
-168.734 0.812861 0 -9.91462
-160.346 0.800444 0 -10.1338
-176.297 -0.123471 0 5.70155
-157.041 -0.139385 0 5.0549
-113.164 1.25366 0 -24.2995
-127.281 1.46905 0 -24.1367
-166.614 -0.152286 0 5.38914
-135.374 0.709811 0 -10.6331
-120.238 1.3772 0 -24.2367
-151.973 0.784717 0 -10.3343
-143.641 0.759266 0 -10.5085
-157.041 -0.139385 0 5.0549
-138.128 0.0438164 0 4.46169
-99.0375 0.843666 0 -24.2171
-113.164 1.25366 0 -24.2995
-147.534 -0.0109721 0 4.7309
-118.984 0.564636 0 -10.7243
-106.09 1.07311 0 -24.301
-135.374 0.709811 0 -10.6331
-127.161 0.637846 0 -10.7024
-138.128 0.0438164 0 4.46169
-120.388 -0.106795 0 3.79654
-84.6133 0.300812 0 -23.8511
-99.0375 0.843666 0 -24.2171
-129.061 -0.136446 0 4.17681
-103.099 0.288745 0 -10.4422
-91.9045 0.602359 0 -24.0681
-118.984 0.564636 0 -10.7243
-110.931 0.470817 0 -10.6681
-120.388 -0.106795 0 3.79654
-103.854 0.684543 0 3.35671
-69.9663 -0.610944 0 -23.0262
-84.6133 0.300812 0 -23.8511
-111.922 0.479438 0 3.4501
-87.6423 -0.172822 0 -9.67605
-77.2813 -0.144434 0 -23.5143
-103.099 0.288745 0 -10.4422
-95.3811 0.034992 0 -10.0804
-103.854 0.684543 0 3.35671
-91.1515 -0.0796565 0 2.66619
-53.8448 -1.06275 0 -22.1354
-69.9663 -0.610944 0 -23.0262
-96.9532 -0.207355 0 3.22627
-73.3667 -0.910743 0 -8.04044
-62.2545 -0.862745 0 -22.541
-87.6423 -0.172822 0 -9.67605
-80.1863 -0.392598 0 -9.1085
-91.1515 -0.0796565 0 2.66619
-82.5463 2.96714 0 3.25074
-36.4078 -1.02182 0 -21.7968
-53.8448 -1.06275 0 -22.1354
-85.9376 2.5133 0 2.23704
-58.522 -1.87037 0 -6.25411
-45.1893 -1.43161 0 -21.8171
-73.3667 -0.910743 0 -8.04044
-66.429 -1.58284 0 -6.87202
-82.5463 2.96714 0 3.25074
-88.5029 -2.98381 0 5.59725
-14.4055 6.37748 0 -26.1144
-36.4078 -1.02182 0 -21.7968
-83.7571 -2.03219 0 4.6625
-42.3353 -1.47502 0 -5.39308
-26.3968 1.52762 0 -22.9586
-58.522 -1.87037 0 -6.25411
-50.2649 -1.73079 0 -6.00733
-88.5029 -2.98381 0 5.59725
-122.152 -14.7218 0 25.2994
2.64463 35.8185 0 -39.6555
-14.4055 6.37748 0 -26.1144
-97.6379 3.56905 0 9.18672
-4.60405 20.2459 0 -22.9238
-4.37371 14.2133 0 -31.1795
-42.3353 -1.47502 0 -5.39308
-29.5181 2.32393 0 -8.94512
-122.152 -14.7218 0 25.2994
-19.1539 187.64 0 -104.503
-2.96746 142.586 0 -36.2748
2.64463 35.8185 0 -39.6555
-127.661 -32.5429 0 12.4164
11.1641 181.167 0 -60.3941
4.92437 80.2848 0 -45.4254
-4.60405 20.2459 0 -22.9238
12.0325 63.7012 0 -42.0878
-2598.56 -781.389 0 -103.316
-2750.83 -298.038 0 -150.744
-1629.14 -285.884 0 -3.97294
-1500.46 -450.705 0 137.881
-2699.6 -561.738 0 -175.658
-2155.56 -328.974 0 -62.1272
-1587.87 -362.618 0 52.1538
-2128.74 -639.861 0 22.1526
-2106.41 -456.369 0 -19.4579
-2750.83 -298.038 0 -150.744
-2791.64 -89.4461 0 -70.0998
-1659.88 -126.241 0 -47.6905
-1629.14 -285.884 0 -3.97294
-2789.39 -153.621 0 -107.786
-2232.25 -129.569 0 -71.9301
-1642.85 -200.19 0 -32.2501
-2155.56 -328.974 0 -62.1272
-2214.86 -221.766 0 -81.4156
-2791.64 -89.4461 0 -70.0998
-2756.44 -17.1655 0 -23.917
-1675.57 -45.8853 0 -55.6557
-1659.88 -126.241 0 -47.6905
-2770.5 -44.7005 0 -39.8838
-2226.82 -38.8556 0 -47.0703
-1674.89 -77.9144 0 -55.1377
-2232.25 -129.569 0 -71.9301
-2231.04 -70.9948 0 -56.1545
-2756.44 -17.1655 0 -23.917
-2732.39 -1.63196 0 -13.1193
-1662.84 -8.76896 0 -50.8403
-1675.57 -45.8853 0 -55.6557
-2745.78 -5.83597 0 -16.7769
-2205.62 -4.18877 0 -34.6077
-1668.61 -22.8756 0 -52.9839
-2226.82 -38.8556 0 -47.0703
-2217.73 -17.6681 0 -40.3895
-2732.39 -1.63196 0 -13.1193
-2708.32 4.13475 0 -11.9553
-1647.95 1.9433 0 -47.4507
-1662.84 -8.76896 0 -50.8403
-2718.4 2.09469 0 -11.5382
-2182.89 4.12406 0 -30.3197
-1656.63 -1.61936 0 -49.1544
-2205.62 -4.18877 0 -34.6077
-2193.27 2.21128 0 -31.2236
-2708.32 4.13475 0 -11.9553
-2691.7 3.10016 0 -14.645
-1630.79 4.49654 0 -45.038
-1647.95 1.9433 0 -47.4507
-2700.27 3.91758 0 -13.3933
-2163.98 5.13285 0 -30.0083
-1638.54 3.99342 0 -45.9385
-2182.89 4.12406 0 -30.3197
-2173.24 4.94385 0 -30.1558
-2691.7 3.10016 0 -14.645
-2675.62 2.07466 0 -16.7575
-1616.94 3.11266 0 -43.9839
-1630.79 4.49654 0 -45.038
-2683.16 2.6144 0 -15.707
-2147.8 3.31338 0 -30.6946
-1623.88 3.95267 0 -44.4833
-2163.98 5.13285 0 -30.0083
-2155.46 4.44301 0 -30.2058
-2675.62 2.07466 0 -16.7575
-2661.31 0.690204 0 -18.3242
-1604.47 1.4782 0 -43.2628
-1616.94 3.11266 0 -43.9839
-2668.55 1.33688 0 -17.6971
-2133.77 1.56221 0 -31.3645
-1610.31 2.3186 0 -43.5551
-2147.8 3.31338 0 -30.6946
-2140.63 2.35051 0 -31.1185
-2661.31 0.690204 0 -18.3242
-2647 -0.142246 0 -18.9642
-1593.87 -0.0403377 0 -42.8075
-1604.47 1.4782 0 -43.2628
-2654.05 0.233874 0 -18.7142
-2120.97 0.126477 0 -31.6974
-1599.09 0.649416 0 -43.0381
-2133.77 1.56221 0 -31.3645
-2127.23 0.804787 0 -31.5544
-2647 -0.142246 0 -18.9642
-2633.01 -0.72983 0 -19.0812
-1584.09 -1.01469 0 -42.3701
-1593.87 -0.0403377 0 -42.8075
-2640.03 -0.476565 0 -19.0927
-2108.92 -0.771993 0 -31.6918
-1588.84 -0.576527 0 -42.5795
-2120.97 0.126477 0 -31.6974
-2114.89 -0.389592 0 -31.7432
-2633.01 -0.72983 0 -19.0812
-2618.96 -1.03947 0 -18.7891
-1575 -1.6319 0 -41.9566
-1584.09 -1.01469 0 -42.3701
-2625.96 -0.906698 0 -18.9672
-2097.27 -1.31795 0 -31.4434
-1579.51 -1.36994 0 -42.1673
-2108.92 -0.771993 0 -31.6918
-2103.06 -1.07932 0 -31.5877
-2618.96 -1.03947 0 -18.7891
-2604.94 -1.21001 0 -18.292
-1566.2 -1.95287 0 -41.5294
-1575 -1.6319 0 -41.9566
-2611.96 -1.14111 0 -18.5627
-2085.83 -1.60086 0 -31.0372
-1570.56 -1.81834 0 -41.7425
-2097.27 -1.31795 0 -31.4434
-2091.54 -1.48659 0 -31.2574
-2604.94 -1.21001 0 -18.292
-2590.89 -1.28139 0 -17.6702
-1557.59 -2.10817 0 -41.1007
-1566.2 -1.95287 0 -41.5294
-2597.91 -1.2536 0 -17.9902
-2074.49 -1.73517 0 -30.5444
-1561.89 -2.04839 0 -41.3162
-2085.83 -1.60086 0 -31.0372
-2080.15 -1.6816 0 -30.7975
-2590.89 -1.28139 0 -17.6702
-2576.83 -1.30445 0 -16.9963
-1549.07 -2.15784 0 -40.6694
-1557.59 -2.10817 0 -41.1007
-2583.86 -1.29789 0 -17.3379
-2063.2 -1.77983 0 -30.0071
-1553.32 -2.14192 0 -40.8847
-2074.49 -1.73517 0 -30.5444
-2068.84 -1.76596 0 -30.2797
-2576.83 -1.30445 0 -16.9963
-2562.77 -1.29936 0 -16.3
-1540.59 -2.15431 0 -40.2413
-1549.07 -2.15784 0 -40.6694
-2569.8 -1.30406 0 -16.6492
-2051.92 -1.7789 0 -29.4527
-1544.83 -2.16127 0 -40.455
-2063.2 -1.77983 0 -30.0071
-2057.56 -1.7833 0 -29.7307
-2562.77 -1.29936 0 -16.3
-2548.7 -1.2818 0 -15.6021
-1532.12 -2.12181 0 -39.818
-1540.59 -2.15431 0 -40.2413
-2555.74 -1.29174 0 -15.9507
-2040.65 -1.75424 0 -28.8951
-1536.35 -2.14035 0 -40.0289
-2051.92 -1.7789 0 -29.4527
-2046.29 -1.76863 0 -29.1738
-2548.7 -1.2818 0 -15.6021
-2534.63 -1.25822 0 -14.9104
-1523.66 -2.07662 0 -39.4015
-1532.12 -2.12181 0 -39.818
-2541.66 -1.27041 0 -15.255
-2029.39 -1.71912 0 -28.3422
-1527.89 -2.10034 0 -39.6089
-2040.65 -1.75424 0 -28.8951
-2035.02 -1.73749 0 -28.6177
-2534.63 -1.25822 0 -14.9104
-2520.56 -1.23266 0 -14.2296
-1515.2 -2.02582 0 -38.9924
-1523.66 -2.07662 0 -39.4015
-2527.59 -1.24559 0 -14.5685
-2018.12 -1.67965 0 -27.7975
-1519.43 -2.05158 0 -39.196
-2029.39 -1.71912 0 -28.3422
-2023.75 -1.6997 0 -28.0687
-2520.56 -1.23266 0 -14.2296
-2506.48 -1.20664 0 -13.5612
-1506.75 -1.97343 0 -38.591
-1515.2 -2.02582 0 -38.9924
-2513.52 -1.21963 0 -13.8938
-2006.85 -1.63901 0 -27.2625
-1510.98 -1.99972 0 -38.7907
-2018.12 -1.67965 0 -27.7975
-2012.49 -1.65937 0 -27.5287
-2506.48 -1.20664 0 -13.5612
-2492.41 -1.18094 0 -12.9057
-1498.29 -1.92096 0 -38.1974
-1506.75 -1.97343 0 -38.591
-2499.44 -1.19374 0 -13.2318
-1995.59 -1.59845 0 -26.7378
-1502.52 -1.94714 0 -38.3932
-2006.85 -1.63901 0 -27.2625
-2001.22 -1.61868 0 -26.9988
-2492.41 -1.18094 0 -12.9057
-2478.33 -1.15579 0 -12.2631
-1489.83 -1.8691 0 -37.8115
-1498.29 -1.92096 0 -38.1974
-2485.37 -1.16829 0 -12.5828
-1984.32 -1.55848 0 -26.2234
-1494.06 -1.89494 0 -38.0034
-1995.59 -1.59845 0 -26.7378
-1989.95 -1.57838 0 -26.4793
-2478.33 -1.15579 0 -12.2631
-2464.26 -1.13123 0 -11.6334
-1481.37 -1.81799 0 -37.4333
-1489.83 -1.8691 0 -37.8115
-2471.29 -1.14343 0 -11.9467
-1973.05 -1.51922 0 -25.7193
-1485.6 -1.84345 0 -37.6214
-1984.32 -1.55848 0 -26.2234
-1978.68 -1.53876 0 -25.9701
-2464.26 -1.13123 0 -11.6334
-2450.18 -1.10723 0 -11.0162
-1472.91 -1.76763 0 -37.0626
-1481.37 -1.81799 0 -37.4333
-2457.22 -1.11916 0 -11.3232
-1961.78 -1.48063 0 -25.2253
-1477.14 -1.79273 0 -37.247
-1973.05 -1.51922 0 -25.7193
-1967.41 -1.49984 0 -25.471
-2450.18 -1.10723 0 -11.0162
-2436.11 -1.08376 0 -10.4115
-1464.45 -1.71795 0 -36.6994
-1472.91 -1.76763 0 -37.0626
-2443.14 -1.09544 0 -10.7123
-1950.51 -1.44266 0 -24.7412
-1468.68 -1.74271 0 -36.88
-1961.78 -1.48063 0 -25.2253
-1956.14 -1.46157 0 -24.982
-2436.11 -1.08376 0 -10.4115
-2422.03 -1.06076 0 -9.81901
-1455.99 -1.66886 0 -36.3435
-1464.45 -1.71795 0 -36.6994
-2429.07 -1.0722 0 -10.1137
-1939.24 -1.40524 0 -24.267
-1460.22 -1.69333 0 -36.5205
-1950.51 -1.44266 0 -24.7412
-1944.87 -1.42388 0 -24.5029
-2422.03 -1.06076 0 -9.81901
-2407.95 -1.0382 0 -9.23873
-1447.53 -1.62031 0 -35.995
-1455.99 -1.66886 0 -36.3435
-2414.99 -1.04943 0 -9.52736
-1927.97 -1.36832 0 -23.8026
-1451.76 -1.64452 0 -36.1684
-1939.24 -1.40524 0 -24.267
-1933.6 -1.38672 0 -24.0336
-2407.95 -1.0382 0 -9.23873
-2393.88 -1.01605 0 -8.67053
-1439.06 -1.57225 0 -35.6537
-1447.53 -1.62031 0 -35.995
-2400.91 -1.02707 0 -8.95313
-1916.7 -1.33185 0 -23.3478
-1443.29 -1.59622 0 -35.8235
-1927.97 -1.36832 0 -23.8026
-1922.33 -1.35003 0 -23.574
-2393.88 -1.01605 0 -8.67053
-2379.8 -0.994278 0 -8.11431
-1430.6 -1.52464 0 -35.3196
-1439.06 -1.57225 0 -35.6537
-2386.84 -1.00512 0 -8.39093
-1905.42 -1.29582 0 -22.9027
-1434.83 -1.54839 0 -35.4858
-1916.7 -1.33185 0 -23.3478
-1911.06 -1.31379 0 -23.1241
-2379.8 -0.994278 0 -8.11431
-2365.72 -0.972876 0 -7.57
-1422.14 -1.47747 0 -34.9927
-1430.6 -1.52464 0 -35.3196
-2372.76 -0.983532 0 -7.84067
-1894.15 -1.2602 0 -22.467
-1426.37 -1.501 0 -35.1553
-1905.42 -1.29582 0 -22.9027
-1899.79 -1.27796 0 -22.6837
-2365.72 -0.972876 0 -7.57
-2351.64 -0.951826 0 -7.03753
-1413.68 -1.43072 0 -34.6728
-1422.14 -1.47747 0 -34.9927
-2358.68 -0.962308 0 -7.30229
-1882.88 -1.22497 0 -22.0408
-1417.91 -1.45404 0 -34.8319
-1894.15 -1.2602 0 -22.467
-1888.52 -1.24253 0 -22.2527
-2351.64 -0.951826 0 -7.03753
-2337.56 -0.931113 0 -6.51681
-1405.22 -1.38437 0 -34.36
-1413.68 -1.43072 0 -34.6728
-2344.6 -0.941428 0 -6.7757
-1871.61 -1.19012 0 -21.6241
-1409.45 -1.40749 0 -34.5155
-1882.88 -1.22497 0 -22.0408
-1877.25 -1.2075 0 -21.8313
-2337.56 -0.931113 0 -6.51681
-2323.49 -0.910726 0 -6.00779
-1396.76 -1.33842 0 -34.0542
-1405.22 -1.38437 0 -34.36
-2330.52 -0.920879 0 -6.26084
-1860.34 -1.15563 0 -21.2166
-1400.99 -1.36135 0 -34.2063
-1871.61 -1.19012 0 -21.6241
-1865.97 -1.17283 0 -21.4192
-2323.49 -0.910726 0 -6.00779
-2309.41 -0.890652 0 -5.51039
-1388.29 -1.29286 0 -33.7554
-1396.76 -1.33842 0 -34.0542
-2316.45 -0.90065 0 -5.75764
-1849.07 -1.12151 0 -20.8185
-1392.52 -1.31559 0 -33.904
-1860.34 -1.15563 0 -21.2166
-1854.7 -1.13853 0 -21.0164
-2309.41 -0.890652 0 -5.51039
-2295.33 -0.87088 0 -5.02454
-1379.83 -1.24768 0 -33.4635
-1388.29 -1.29286 0 -33.7554
-2302.37 -0.880729 0 -5.26603
-1837.79 -1.08774 0 -20.4296
-1384.06 -1.27022 0 -33.6086
-1849.07 -1.12151 0 -20.8185
-1843.43 -1.10458 0 -20.6229
-2295.33 -0.87088 0 -5.02454
-2281.25 -0.851399 0 -4.55018
-1371.37 -1.20288 0 -33.1785
-1379.83 -1.24768 0 -33.4635
-2288.29 -0.861104 0 -4.78593
-1826.52 -1.05431 0 -20.0499
-1375.6 -1.22523 0 -33.3202
-1837.79 -1.08774 0 -20.4296
-1832.16 -1.07098 0 -20.2386
-2281.25 -0.851399 0 -4.55018
-2267.17 -0.832199 0 -4.08722
-1362.91 -1.15844 0 -32.9004
-1371.37 -1.20288 0 -33.1785
-2274.21 -0.841765 0 -4.31728
-1815.25 -1.02121 0 -19.6794
-1367.14 -1.18062 0 -33.0386
-1826.52 -1.05431 0 -20.0499
-1820.88 -1.03772 0 -19.8635
-2267.17 -0.832199 0 -4.08722
-2253.09 -0.813269 0 -3.63562
-1354.45 -1.11437 0 -32.629
-1362.91 -1.15844 0 -32.9004
-2260.13 -0.822701 0 -3.86001
-1803.98 -0.988433 0 -19.3179
-1358.68 -1.13636 0 -32.7639
-1815.25 -1.02121 0 -19.6794
-1809.61 -1.00478 0 -19.4975
-2253.09 -0.813269 0 -3.63562
-2239.01 -0.794598 0 -3.19528
-1345.98 -1.07066 0 -32.3645
-1354.45 -1.11437 0 -32.629
-2246.05 -0.803902 0 -3.41405
-1792.7 -0.955975 0 -18.9654
-1350.21 -1.09247 0 -32.4959
-1803.98 -0.988433 0 -19.3179
-1798.34 -0.972165 0 -19.1405
-2239.01 -0.794598 0 -3.19528
-2224.93 -0.776177 0 -2.76615
-1337.52 -1.0273 0 -32.1066
-1345.98 -1.07066 0 -32.3645
-2231.97 -0.785357 0 -2.97932
-1781.43 -0.923825 0 -18.6219
-1341.75 -1.04894 0 -32.2347
-1792.7 -0.955975 0 -18.9654
-1787.07 -0.939862 0 -18.7925
-2224.93 -0.776177 0 -2.76615
-2210.85 -0.757995 0 -2.34816
-1329.06 -0.984286 0 -31.8554
-1337.52 -1.0273 0 -32.1066
-2217.89 -0.767057 0 -2.55577
-1770.16 -0.891977 0 -18.2873
-1333.29 -1.00575 0 -31.9802
-1781.43 -0.923825 0 -18.6219
-1775.79 -0.907864 0 -18.4535
-2210.85 -0.757995 0 -2.34816
-2196.77 -0.740042 0 -1.94122
-1320.6 -0.94161 0 -31.6109
-1329.06 -0.984286 0 -31.8554
-2203.81 -0.74899 0 -2.14331
-1758.88 -0.86042 0 -17.9615
-1324.83 -0.962906 0 -31.7323
-1770.16 -0.891977 0 -18.2873
-1764.52 -0.876162 0 -18.1233
-2196.77 -0.740042 0 -1.94122
-2182.68 -0.722309 0 -1.54529
-1312.13 -0.899269 0 -31.3729
-1320.6 -0.94161 0 -31.6109
-2189.73 -0.731148 0 -1.74189
-1747.61 -0.829149 0 -17.6446
-1316.37 -0.920398 0 -31.4911
-1758.88 -0.86042 0 -17.9615
-1753.25 -0.844749 0 -17.802
-2182.68 -0.722309 0 -1.54529
-2168.6 -0.704786 0 -1.16027
-1303.67 -0.857257 0 -31.1415
-1312.13 -0.899269 0 -31.3729
-2175.64 -0.713521 0 -1.35142
-1736.34 -0.798154 0 -17.3364
-1307.9 -0.878222 0 -31.2564
-1747.61 -0.829149 0 -17.6446
-1741.97 -0.813617 0 -17.4894
-2168.6 -0.704786 0 -1.16027
-2154.52 -0.687463 0 -0.786106
-1295.21 -0.815567 0 -30.9166
-1303.67 -0.857257 0 -31.1415
-2161.56 -0.6961 0 -0.971835
-1725.06 -0.76743 0 -17.0368
-1299.44 -0.836372 0 -31.0283
-1736.34 -0.798154 0 -17.3364
-1730.7 -0.782759 0 -17.1855
-2154.52 -0.687463 0 -0.786106
-2140.44 -0.670332 0 -0.422725
-1286.75 -0.774195 0 -30.6982
-1295.21 -0.815567 0 -30.9166
-2147.48 -0.678874 0 -0.603072
-1713.79 -0.736968 0 -16.7459
-1290.98 -0.794842 0 -30.8066
-1725.06 -0.76743 0 -17.0368
-1719.43 -0.752167 0 -16.8903
-2140.44 -0.670332 0 -0.422725
-2126.36 -0.653383 0 -0.0700568
-1278.28 -0.733136 0 -30.4862
-1286.75 -0.774195 0 -30.6982
-2133.4 -0.661836 0 -0.245056
-1702.52 -0.706761 0 -16.4636
-1282.52 -0.753627 0 -30.5914
-1713.79 -0.736968 0 -16.7459
-1708.15 -0.721833 0 -16.6037
-2126.36 -0.653383 0 -0.0700568
-2112.28 -0.636608 0 0.27197
-1269.82 -0.692383 0 -30.2806
-1278.28 -0.733136 0 -30.4862
-2119.32 -0.644975 0 0.102282
-1691.24 -0.676803 0 -16.1898
-1274.05 -0.712721 0 -30.3826
-1702.52 -0.706761 0 -16.4636
-1696.88 -0.691751 0 -16.3256
-2112.28 -0.636608 0 0.27197
-2098.2 -0.619998 0 0.603425
-1261.36 -0.651932 0 -30.0814
-1269.82 -0.692383 0 -30.2806
-2105.24 -0.628283 0 0.439014
-1679.97 -0.647085 0 -15.9244
-1265.59 -0.67212 0 -30.1802
-1691.24 -0.676803 0 -16.1898
-1685.61 -0.661914 0 -16.056
-2098.2 -0.619998 0 0.603425
-2084.11 -0.603544 0 0.924379
-1252.9 -0.611777 0 -29.8884
-1261.36 -0.651932 0 -30.0814
-2091.15 -0.611752 0 0.76521
-1668.7 -0.617602 0 -15.6674
-1257.13 -0.631818 0 -29.9841
-1679.97 -0.647085 0 -15.9244
-1674.33 -0.632315 0 -15.7949
-2084.11 -0.603544 0 0.924379
-2070.03 -0.587238 0 1.2349
-1244.44 -0.571914 0 -29.7017
-1252.9 -0.611777 0 -29.8884
-2077.07 -0.595373 0 1.08094
-1657.42 -0.588347 0 -15.4188
-1248.67 -0.591809 0 -29.7943
-1668.7 -0.617602 0 -15.6674
-1663.06 -0.602946 0 -15.5421
-2070.03 -0.587238 0 1.2349
-2055.95 -0.571073 0 1.53506
-1235.97 -0.532338 0 -29.5212
-1244.44 -0.571914 0 -29.7017
-2062.99 -0.579139 0 1.38627
-1646.15 -0.559313 0 -15.1785
-1240.2 -0.552091 0 -29.6107
-1657.42 -0.588347 0 -15.4188
-1651.79 -0.573803 0 -15.2976
-2055.95 -0.571073 0 1.53506
-2041.87 -0.555039 0 1.82494
-1227.51 -0.493044 0 -29.3469
-1235.97 -0.532338 0 -29.5212
-2048.91 -0.56304 0 1.68128
-1634.87 -0.530494 0 -14.9464
-1231.74 -0.512656 0 -29.4333
-1646.15 -0.559313 0 -15.1785
-1640.51 -0.544877 0 -15.0614
-2041.87 -0.555039 0 1.82494
-2027.78 -0.539129 0 2.10459
-1219.05 -0.454028 0 -29.1788
-1227.51 -0.493044 0 -29.3469
-2034.83 -0.547069 0 1.96604
-1623.6 -0.501883 0 -14.7225
-1223.28 -0.473501 0 -29.2621
-1634.87 -0.530494 0 -14.9464
-1629.24 -0.516163 0 -14.8334
-2027.78 -0.539129 0 2.10459
-2013.7 -0.523335 0 2.37409
-1210.59 -0.415284 0 -29.0167
-1219.05 -0.454028 0 -29.1788
-2020.74 -0.531218 0 2.24061
-1612.33 -0.473476 0 -14.5067
-1214.82 -0.434622 0 -29.097
-1623.6 -0.501883 0 -14.7225
-1617.96 -0.487655 0 -14.6136
-2013.7 -0.523335 0 2.37409
-1999.62 -0.50765 0 2.63352
-1202.12 -0.376808 0 -28.8606
-1210.59 -0.415284 0 -29.0167
-2006.66 -0.515479 0 2.50506
-1601.05 -0.445264 0 -14.2989
-1206.36 -0.396013 0 -28.9379
-1612.33 -0.473476 0 -14.5067
-1606.69 -0.459346 0 -14.4018
-1999.62 -0.50765 0 2.63352
-1985.54 -0.492067 0 2.88293
-1193.66 -0.338596 0 -28.7106
-1202.12 -0.376808 0 -28.8606
-1992.58 -0.499846 0 2.75947
-1589.78 -0.417244 0 -14.0992
-1197.89 -0.35767 0 -28.7849
-1601.05 -0.445264 0 -14.2989
-1595.42 -0.43123 0 -14.1981
-1985.54 -0.492067 0 2.88293
-1971.45 -0.476579 0 3.12241
-1185.2 -0.300645 0 -28.5665
-1193.66 -0.338596 0 -28.7106
-1978.5 -0.484312 0 3.00391
-1578.51 -0.389408 0 -13.9074
-1189.43 -0.319588 0 -28.6378
-1589.78 -0.417244 0 -14.0992
-1584.14 -0.403303 0 -14.0023
-1971.45 -0.476579 0 3.12241
-1957.37 -0.461178 0 3.35202
-1176.74 -0.262948 0 -28.4284
-1185.2 -0.300645 0 -28.5665
-1964.41 -0.468868 0 3.23845
-1567.23 -0.361752 0 -13.7235
-1180.97 -0.281765 0 -28.4967
-1578.51 -0.389408 0 -13.9074
-1572.87 -0.375558 0 -13.8145
-1957.37 -0.461178 0 3.35202
-1943.29 -0.445857 0 3.57184
-1168.28 -0.225503 0 -28.2961
-1176.74 -0.262948 0 -28.4284
-1950.33 -0.453508 0 3.46315
-1555.96 -0.334269 0 -13.5475
-1172.51 -0.244194 0 -28.3615
-1567.23 -0.361752 0 -13.7235
-1561.59 -0.347989 0 -13.6345
-1943.29 -0.445857 0 3.57184
-1929.21 -0.430611 0 3.78192
-1159.81 -0.188306 0 -28.1697
-1168.28 -0.225503 0 -28.2961
-1936.25 -0.438225 0 3.67809
-1544.68 -0.306956 0 -13.3792
-1164.05 -0.206874 0 -28.2322
-1555.96 -0.334269 0 -13.5475
-1550.32 -0.320592 0 -13.4624
-1929.21 -0.430611 0 3.78192
-1915.12 -0.415432 0 3.98235
-1151.35 -0.151352 0 -28.0491
-1159.81 -0.188306 0 -28.1697
-1922.16 -0.423013 0 3.88334
-1533.41 -0.279806 0 -13.2187
-1155.58 -0.169798 0 -28.1087
-1544.68 -0.306956 0 -13.3792
-1539.05 -0.293361 0 -13.298
-1915.12 -0.415432 0 3.98235
-1901.04 -0.400314 0 4.1732
-1142.89 -0.114638 0 -27.9342
-1151.35 -0.151352 0 -28.0491
-1908.08 -0.407866 0 4.07897
-1522.14 -0.252814 0 -13.0658
-1147.12 -0.132965 0 -27.9909
-1533.41 -0.279806 0 -13.2187
-1527.77 -0.266291 0 -13.1413
-1901.04 -0.400314 0 4.1732
-1886.96 -0.385252 0 4.35452
-1134.43 -0.0781599 0 -27.825
-1142.89 -0.114638 0 -27.9342
-1894 -0.392776 0 4.26505
-1510.86 -0.225976 0 -12.9206
-1138.66 -0.0963695 0 -27.8789
-1522.14 -0.252814 0 -13.0658
-1516.5 -0.239376 0 -12.9923
-1886.96 -0.385252 0 4.35452
-1872.88 -0.370238 0 4.52641
-1125.97 -0.0419146 0 -27.7215
-1134.43 -0.0781599 0 -27.825
-1879.92 -0.377739 0 4.44164
-1499.59 -0.199287 0 -12.7829
-1130.2 -0.0600084 0 -27.7726
-1510.86 -0.225976 0 -12.9206
-1505.23 -0.212613 0 -12.8508
-1872.88 -0.370238 0 4.52641
-1858.79 -0.355268 0 4.68892
-1117.51 -0.00589831 0 -27.6236
-1125.97 -0.0419146 0 -27.7215
-1865.83 -0.362748 0 4.60883
-1488.32 -0.172742 0 -12.6527
-1121.74 -0.023878 0 -27.6719
-1499.59 -0.199287 0 -12.7829
-1493.95 -0.185997 0 -12.7169
-1858.79 -0.355268 0 4.68892
-1844.71 -0.340335 0 4.84212
-1109.05 0.0298923 0 -27.5313
-1117.51 -0.00589832 0 -27.6236
-1851.75 -0.347797 0 4.76668
-1477.04 -0.146336 0 -12.53
-1113.28 0.012025 0 -27.5768
-1488.32 -0.172742 0 -12.6527
-1482.68 -0.159522 0 -12.5904
-1844.71 -0.340335 0 4.84212
-1830.63 -0.325434 0 4.98609
-1100.58 0.0654604 0 -27.4446
-1109.05 0.0298923 0 -27.5313
-1837.67 -0.332881 0 4.91525
-1465.77 -0.120065 0 -12.4146
-1104.81 0.047704 0 -27.4873
-1477.04 -0.146336 0 -12.53
-1471.41 -0.133184 0 -12.4714
-1830.63 -0.325434 0 4.98609
-1816.54 -0.310559 0 5.1209
-1092.12 0.100809 0 -27.3633
-1100.58 0.0654604 0 -27.4446
-1823.59 -0.317994 0 5.05463
-1454.5 -0.0939252 0 -12.3066
-1096.35 0.0831622 0 -27.4033
-1465.77 -0.120065 0 -12.4146
-1460.13 -0.106979 0 -12.3597
-1816.54 -0.310559 0 5.1209
-1802.46 -0.295706 0 5.24661
-1083.66 0.135943 0 -27.2875
-1092.12 0.100809 0 -27.3633
-1809.5 -0.30313 0 5.18489
-1443.22 -0.0679118 0 -12.2058
-1087.89 0.118403 0 -27.3248
-1454.5 -0.0939252 0 -12.3066
-1448.86 -0.0809029 0 -12.2553
-1802.46 -0.295706 0 5.24661
-1788.38 -0.280869 0 5.3633
-1075.2 0.170863 0 -27.2171
-1083.66 0.135943 0 -27.2875
-1795.42 -0.288286 0 5.30608
-1431.95 -0.042021 0 -12.1123
-1079.43 0.153429 0 -27.2517
-1443.22 -0.0679118 0 -12.2058
-1437.59 -0.0549514 0 -12.1582
-1788.38 -0.280869 0 5.3633
-1774.3 -0.266044 0 5.47104
-1066.74 0.205572 0 -27.1521
-1075.2 0.170863 0 -27.2171
-1781.34 -0.273455 0 5.41828
-1420.68 -0.0162488 0 -12.0259
-1070.97 0.188244 0 -27.184
-1431.95 -0.042021 0 -12.1123
-1426.31 -0.0291203 0 -12.0682
-1774.3 -0.266044 0 5.47104
-1760.21 -0.251224 0 5.5699
-1058.28 0.240075 0 -27.0925
-1066.74 0.205572 0 -27.1521
-1767.26 -0.258633 0 5.52157
-1409.4 0.00940864 0 -11.9466
-1062.51 0.22285 0 -27.1216
-1420.68 -0.0162488 0 -12.0259
-1415.04 -0.00340597 0 -11.9854
-1760.21 -0.251224 0 5.5699
-1746.13 -0.236407 0 5.65994
-1049.82 0.274374 0 -27.0381
-1058.28 0.240075 0 -27.0925
-1753.17 -0.243816 0 5.61602
-1398.13 0.034955 0 -11.8744
-1054.05 0.25725 0 -27.0646
-1409.4 0.00940864 0 -11.9466
-1403.77 0.0221955 0 -11.9097
-1746.13 -0.236407 0 5.65994
-1732.05 -0.221587 0 5.74125
-1041.36 0.30847 0 -26.9889
-1049.82 0.274374 0 -27.0381
-1739.09 -0.228998 0 5.70168
-1386.86 0.0603939 0 -11.8092
-1045.59 0.291447 0 -27.0128
-1398.13 0.034955 0 -11.8744
-1392.5 0.0476877 0 -11.841
-1732.05 -0.221587 0 5.74125
-1717.97 -0.20676 0 5.81388
-1032.9 0.342367 0 -26.945
-1041.36 0.30847 0 -26.9889
-1725.01 -0.214175 0 5.77864
-1375.59 0.0857288 0 -11.7509
-1037.13 0.325444 0 -26.9663
-1386.86 0.0603939 0 -11.8092
-1381.22 0.0730742 0 -11.7792
-1717.97 -0.20676 0 5.81388
-1703.88 -0.191922 0 5.87792
-1024.44 0.376068 0 -26.9062
-1032.9 0.342367 0 -26.945
-1710.93 -0.199343 0 5.84697
-1364.31 0.110963 0 -11.6995
-1028.67 0.359242 0 -26.925
-1375.59 0.0857288 0 -11.7509
-1369.95 0.0983583 0 -11.7244
-1703.88 -0.191922 0 5.87792
-1689.8 -0.177068 0 5.93342
-1015.98 0.409575 0 -26.8725
-1024.44 0.376068 0 -26.9062
-1696.84 -0.184497 0 5.90673
-1353.04 0.1361 0 -11.6549
-1020.21 0.392846 0 -26.8887
-1364.31 0.110963 0 -11.6995
-1358.68 0.123543 0 -11.6764
-1689.8 -0.177068 0 5.93342
-1675.72 -0.162196 0 5.98047
-1007.52 0.442889 0 -26.844
-1015.98 0.409575 0 -26.8725
-1682.76 -0.169635 0 5.958
-1341.77 0.161142 0 -11.6171
-1011.75 0.426256 0 -26.8576
-1353.04 0.1361 0 -11.6549
-1347.41 0.148633 0 -11.6352
-1675.72 -0.162196 0 5.98047
-1661.64 -0.1473 0 6.01913
-999.059 0.476014 0 -26.8204
-1007.52 0.442889 0 -26.844
-1668.68 -0.154751 0 6.00084
-1330.5 0.186094 0 -11.586
-1003.29 0.459475 0 -26.8316
-1341.77 0.161142 0 -11.6171
-1336.13 0.173629 0 -11.6008
-1661.64 -0.1473 0 6.01913
-1647.56 -0.132378 0 6.04947
-990.599 0.508952 0 -26.8019
-999.059 0.476014 0 -26.8204
-1654.6 -0.139843 0 6.03533
-1319.23 0.210956 0 -11.5616
-994.829 0.492506 0 -26.8105
-1330.5 0.186094 0 -11.586
-1324.86 0.198536 0 -11.573
-1647.56 -0.132378 0 6.04947
-1633.47 -0.117426 0 6.07156
-982.14 0.541704 0 -26.7883
-990.599 0.508952 0 -26.8019
-1640.52 -0.124906 0 6.06154
-1307.95 0.235734 0 -11.5438
-986.37 0.525351 0 -26.7944
-1319.23 0.210956 0 -11.5616
-1313.59 0.223356 0 -11.5519
-1633.47 -0.117426 0 6.07156
-1619.39 -0.10244 0 6.08547
-973.68 0.574272 0 -26.7796
-982.14 0.541704 0 -26.7883
-1626.43 -0.109937 0 6.07954
-1296.68 0.260428 0 -11.5325
-977.91 0.558011 0 -26.7833
-1307.95 0.235734 0 -11.5438
-1302.32 0.248091 0 -11.5373
-1619.39 -0.10244 0 6.08547
-1605.31 -0.0874177 0 6.09128
-965.221 0.606659 0 -26.7757
-973.68 0.574272 0 -26.7796
-1612.35 -0.0949337 0 6.08939
-1285.41 0.285042 0 -11.5276
-969.451 0.590488 0 -26.777
-1296.68 0.260428 0 -11.5325
-1291.05 0.272745 0 -11.5292
-1605.31 -0.0874177 0 6.09128
-1591.23 -0.0723555 0 6.08906
-956.762 0.638867 0 -26.7767
-965.221 0.606659 0 -26.7757
-1598.27 -0.0798918 0 6.09117
-1274.14 0.309578 0 -11.5293
-960.992 0.622785 0 -26.7756
-1285.41 0.285042 0 -11.5276
-1279.77 0.29732 0 -11.5277
-1591.23 -0.0723555 0 6.08906
-1577.15 -0.0572506 0 6.07886
-948.303 0.670896 0 -26.7825
-956.762 0.638867 0 -26.7767
-1584.19 -0.0648086 0 6.08495
-1262.87 0.334039 0 -11.5373
-952.533 0.654904 0 -26.779
-1274.14 0.309578 0 -11.5293
-1268.5 0.321818 0 -11.5325
-1577.15 -0.0572506 0 6.07886
-1563.07 -0.0421001 0 6.06077
-939.845 0.70275 0 -26.793
-948.303 0.670896 0 -26.7825
-1570.11 -0.0496812 0 6.0708
-1251.6 0.358427 0 -11.5516
-944.074 0.686845 0 -26.7872
-1262.87 0.334039 0 -11.5373
-1257.23 0.346242 0 -11.5436
-1563.07 -0.0421001 0 6.06077
-1548.99 -0.0269013 0 6.03486
-931.386 0.734428 0 -26.8082
-939.845 0.70275 0 -26.793
-1556.03 -0.0345069 0 6.04879
-1240.33 0.382743 0 -11.5721
-935.615 0.718611 0 -26.8
-1251.6 0.358427 0 -11.5516
-1245.96 0.370593 0 -11.5611
-1548.99 -0.0269013 0 6.03486
-1534.9 -0.0116517 0 6.00119
-922.928 0.765934 0 -26.8281
-931.386 0.734428 0 -26.8082
-1541.94 -0.019283 0 6.01899
-1229.05 0.40699 0 -11.5989
-927.157 0.750203 0 -26.8176
-1240.33 0.382743 0 -11.5721
-1234.69 0.394875 0 -11.5848
-1534.9 -0.0116517 0 6.00119
-1520.82 0.00365112 0 5.95984
-914.469 0.797268 0 -26.8526
-922.928 0.765934 0 -26.8281
-1527.86 -0.00400711 0 5.98147
-1217.78 0.43117 0 -11.6318
-918.698 0.781622 0 -26.8398
-1229.05 0.40699 0 -11.5989
-1223.42 0.419089 0 -11.6146
-1520.82 0.00365112 0 5.95984
-1506.74 0.0190095 0 5.91087
-906.011 0.828432 0 -26.8816
-914.469 0.797268 0 -26.8526
-1513.78 0.0113232 0 5.9363
-1206.51 0.455285 0 -11.6709
-910.24 0.812871 0 -26.8665
-1217.78 0.43117 0 -11.6318
-1212.15 0.443236 0 -11.6506
-1506.74 0.0190095 0 5.91087
-1492.66 0.0344257 0 5.85436
-897.553 0.859426 0 -26.9152
-906.011 0.828432 0 -26.8816
-1499.7 0.0267103 0 5.88356
-1195.24 0.479337 0 -11.7159
-901.782 0.84395 0 -26.8978
-1206.51 0.455285 0 -11.6709
-1200.88 0.467319 0 -11.6926
-1492.66 0.0344257 0 5.85436
-1478.58 0.0499017 0 5.79038
-889.095 0.890253 0 -26.9533
-897.553 0.859426 0 -26.9152
-1485.62 0.0421561 0 5.8233
-1183.97 0.503326 0 -11.7669
-893.324 0.874861 0 -26.9337
-1195.24 0.479337 0 -11.7159
-1189.61 0.491339 0 -11.7407
-1478.58 0.0499017 0 5.79038
-1464.5 0.0654394 0 5.719
-880.638 0.920914 0 -26.9958
-889.095 0.890253 0 -26.9533
-1471.54 0.0576627 0 5.75561
-1172.7 0.527255 0 -11.8239
-884.866 0.905604 0 -26.974
-1183.97 0.503326 0 -11.7669
-1178.34 0.515298 0 -11.7947
-1464.5 0.0654394 0 5.719
-1450.42 0.0810407 0 5.64028
-872.18 0.951409 0 -27.0427
-880.638 0.920914 0 -26.9958
-1457.46 0.073232 0 5.68055
-1161.43 0.551125 0 -11.8867
-876.409 0.936182 0 -27.0187
-1172.7 0.527255 0 -11.8239
-1167.07 0.539198 0 -11.8546
-1450.42 0.0810407 0 5.64028
-1436.34 0.0967072 0 5.55431
-863.723 0.981739 0 -27.0939
-872.18 0.951409 0 -27.0427
-1443.38 0.0888657 0 5.5982
-1150.16 0.574938 0 -11.9554
-867.951 0.966594 0 -27.0678
-1161.43 0.551125 0 -11.8867
-1155.8 0.563039 0 -11.9203
-1436.34 0.0967072 0 5.55431
-1422.26 0.112441 0 5.46114
-855.266 1.01191 0 -27.1495
-863.723 0.981739 0 -27.0939
-1429.3 0.104565 0 5.50862
-1138.89 0.598694 0 -12.0297
-859.494 0.996843 0 -27.1212
-1150.16 0.574938 0 -11.9554
-1144.53 0.586823 0 -11.9918
-1422.26 0.112441 0 5.46114
-1408.18 0.128242 0 5.36085
-846.809 1.04191 0 -27.2094
-855.266 1.01191 0 -27.1495
-1415.22 0.120333 0 5.41188
-1127.62 0.622395 0 -12.1098
-851.037 1.02693 0 -27.1789
-1138.89 0.598694 0 -12.0297
-1133.26 0.610552 0 -12.0691
-1408.18 0.128242 0 5.36085
-1394.1 0.144113 0 5.25352
-838.352 1.07175 0 -27.2735
-846.809 1.04191 0 -27.2094
-1401.14 0.136169 0 5.30806
-1116.35 0.646042 0 -12.1956
-842.58 1.05685 0 -27.2409
-1127.62 0.622395 0 -12.1098
-1121.99 0.634225 0 -12.152
-1394.1 0.144113 0 5.25352
-1380.02 0.160055 0 5.1392
-829.895 1.10143 0 -27.3418
-838.352 1.07175 0 -27.2735
-1387.06 0.152075 0 5.19723
-1105.08 0.669636 0 -12.2869
-834.123 1.08661 0 -27.3071
-1116.35 0.646042 0 -12.1956
-1110.72 0.657846 0 -12.2405
-1380.02 0.160055 0 5.1392
-1365.94 0.176069 0 5.01797
-821.438 1.13095 0 -27.4142
-829.895 1.10143 0 -27.3418
-1372.98 0.168053 0 5.07944
-1093.81 0.693178 0 -12.3837
-825.667 1.11621 0 -27.3775
-1105.08 0.669636 0 -12.2869
-1099.45 0.681413 0 -12.3346
-1365.94 0.176069 0 5.01797
-1351.86 0.192156 0 4.88991
-812.982 1.16031 0 -27.4907
-821.438 1.13095 0 -27.4142
-1358.9 0.184103 0 4.95479
-1082.55 0.716668 0 -12.486
-817.21 1.14565 0 -27.4519
-1093.81 0.693178 0 -12.3837
-1088.18 0.704929 0 -12.4342
-1351.86 0.192156 0 4.88991
-1337.78 0.208316 0 4.75508
-804.526 1.18951 0 -27.5713
-812.982 1.16031 0 -27.4907
-1344.82 0.200227 0 4.82333
-1071.28 0.740107 0 -12.5937
-808.754 1.17493 0 -27.5305
-1082.55 0.716668 0 -12.486
-1076.91 0.728394 0 -12.5392
-1337.78 0.208316 0 4.75508
-1323.7 0.224551 0 4.61354
-796.07 1.21855 0 -27.6559
-804.526 1.18951 0 -27.5713
-1330.74 0.216425 0 4.68514
-1060.01 0.763496 0 -12.7068
-800.298 1.20405 0 -27.6131
-1071.28 0.740107 0 -12.5937
-1065.64 0.751808 0 -12.6496
-1323.7 0.224551 0 4.61354
-1309.62 0.240861 0 4.46539
-787.614 1.24744 0 -27.7445
-796.07 1.21855 0 -27.6559
-1316.66 0.232697 0 4.54029
-1048.74 0.786835 0 -12.8252
-791.842 1.23301 0 -27.6997
-1060.01 0.763496 0 -12.7068
-1054.37 0.775172 0 -12.7654
-1309.62 0.240861 0 4.46539
-1295.54 0.257247 0 4.31067
-779.158 1.27616 0 -27.8371
-787.614 1.24744 0 -27.7445
-1302.58 0.249045 0 4.38884
-1037.47 0.810125 0 -12.9489
-783.386 1.26182 0 -27.7903
-1048.74 0.786835 0 -12.8252
-1043.1 0.798486 0 -12.8864
-1295.54 0.257247 0 4.31067
-1281.46 0.273709 0 4.14947
-770.703 1.30473 0 -27.9335
-779.158 1.27616 0 -27.8371
-1288.5 0.265469 0 4.23088
-1026.2 0.833366 0 -13.0777
-774.931 1.29046 0 -27.8848
-1037.47 0.810125 0 -12.9489
-1031.84 0.821752 0 -13.0126
-1281.46 0.273709 0 4.14947
-1267.38 0.290248 0 3.98185
-762.247 1.33313 0 -28.0338
-770.703 1.30473 0 -27.9335
-1274.42 0.281969 0 4.06646
-1014.93 0.856558 0 -13.2117
-766.475 1.31895 0 -27.9832
-1026.2 0.833366 0 -13.0777
-1020.57 0.844968 0 -13.144
-1267.38 0.290248 0 3.98185
-1253.31 0.306862 0 3.80789
-753.792 1.36138 0 -28.1379
-762.247 1.33313 0 -28.0338
-1260.34 0.298545 0 3.89566
-1003.67 0.879702 0 -13.3507
-758.02 1.34728 0 -28.0854
-1014.93 0.856558 0 -13.2117
-1009.3 0.868136 0 -13.2806
-1253.31 0.306862 0 3.80789
-1239.23 0.323554 0 3.62765
-745.337 1.38948 0 -28.2457
-753.792 1.36138 0 -28.1379
-1246.27 0.315199 0 3.71855
-992.399 0.902797 0 -13.4948
-749.565 1.37545 0 -28.1914
-1003.67 0.879702 0 -13.3507
-998.033 0.891256 0 -13.4221
-1239.23 0.323554 0 3.62765
-1225.15 0.340323 0 3.44121
-736.882 1.41741 0 -28.3573
-745.337 1.38948 0 -28.2457
-1232.19 0.331929 0 3.5352
-981.131 0.925844 0 -13.6438
-741.11 1.40346 0 -28.3011
-992.399 0.902797 0 -13.4948
-986.765 0.914327 0 -13.5687
-1225.15 0.340323 0 3.44121
-1211.07 0.357168 0 3.24864
-728.428 1.44519 0 -28.4726
-736.882 1.41741 0 -28.3573
-1218.11 0.348736 0 3.34569
-969.864 0.948842 0 -13.7977
-732.655 1.43132 0 -28.4145
-981.131 0.925844 0 -13.6438
-975.498 0.937349 0 -13.7202
-1211.07 0.357168 0 3.24864
-1196.99 0.374089 0 3.05
-719.973 1.47281 0 -28.5915
-728.428 1.44519 0 -28.4726
-1204.03 0.365619 0 3.15007
-958.597 0.971792 0 -13.9565
-724.2 1.45902 0 -28.5316
-969.864 0.948842 0 -13.7977
-964.23 0.960323 0 -13.8765
-1196.99 0.374089 0 3.05
-1182.91 0.391087 0 2.84536
-711.519 1.50027 0 -28.714
-719.973 1.47281 0 -28.5915
-1189.95 0.382578 0 2.94842
-947.33 0.994692 0 -14.1201
-715.746 1.48656 0 -28.6523
-958.597 0.971792 0 -13.9565
-952.963 0.983248 0 -14.0377
-1182.91 0.391087 0 2.84536
-1168.84 0.40816 0 2.6348
-703.065 1.52757 0 -28.8401
-711.519 1.50027 0 -28.714
-1175.87 0.399614 0 2.74082
-936.063 1.01754 0 -14.2884
-707.292 1.51394 0 -28.7766
-947.33 0.994692 0 -14.1201
-941.696 1.00612 0 -14.2037
-1168.84 0.40816 0 2.6348
-1154.76 0.425309 0 2.4184
-694.611 1.55471 0 -28.9697
-703.065 1.52757 0 -28.8401
-1161.8 0.416725 0 2.52733
-924.796 1.04034 0 -14.4615
-698.838 1.54116 0 -28.9045
-936.063 1.01754 0 -14.2884
-930.429 1.02895 0 -14.3744
-1154.76 0.425309 0 2.4184
-1140.68 0.442532 0 2.1962
-686.157 1.5817 0 -29.1027
-694.611 1.55471 0 -28.9697
-1147.72 0.433911 0 2.30802
-913.529 1.0631 0 -14.6391
-690.384 1.56822 0 -29.0358
-924.796 1.04034 0 -14.4615
-919.163 1.05173 0 -14.5497
-1140.68 0.442532 0 2.1962
-1126.6 0.459829 0 1.9683
-677.703 1.60852 0 -29.2392
-686.157 1.5817 0 -29.1027
-1133.64 0.451171 0 2.08296
-902.263 1.0858 0 -14.8213
-681.93 1.59513 0 -29.1706
-913.529 1.0631 0 -14.6391
-907.896 1.07445 0 -14.7296
-1126.6 0.459829 0 1.9683
-1112.52 0.477199 0 1.73476
-669.249 1.63518 0 -29.3791
-677.703 1.60852 0 -29.2392
-1119.56 0.468505 0 1.85223
-890.997 1.10845 0 -15.008
-673.476 1.62187 0 -29.3088
-902.263 1.0858 0 -14.8213
-896.63 1.09713 0 -14.9141
-1112.52 0.477199 0 1.73476
-1098.45 0.494642 0 1.49564
-660.796 1.66169 0 -29.5223
-669.249 1.63518 0 -29.3791
-1105.49 0.485911 0 1.61589
-879.73 1.13104 0 -15.1992
-665.023 1.64846 0 -29.4503
-890.997 1.10845 0 -15.008
-885.363 1.11975 0 -15.1031
-1098.45 0.494642 0 1.49564
-1084.37 0.512155 0 1.25102
-652.343 1.68803 0 -29.6689
-660.796 1.66169 0 -29.5223
-1091.41 0.50339 0 1.37402
-868.464 1.15359 0 -15.3948
-656.569 1.67488 0 -29.5952
-879.73 1.13104 0 -15.1992
-874.097 1.14232 0 -15.2965
-1084.37 0.512155 0 1.25102
-1070.29 0.529739 0 1.00098
-643.89 1.71421 0 -29.8186
-652.343 1.68803 0 -29.6689
-1077.33 0.520939 0 1.12668
-857.199 1.17608 0 -15.5947
-648.116 1.70114 0 -29.7433
-868.464 1.15359 0 -15.3948
-862.831 1.16484 0 -15.4942
-1070.29 0.529739 0 1.00098
-1056.22 0.547392 0 0.745573
-635.437 1.74023 0 -29.9716
-643.89 1.71421 0 -29.8186
-1063.25 0.538557 0 0.873941
-845.933 1.19851 0 -15.799
-639.663 1.72724 0 -29.8947
-857.199 1.17608 0 -15.5947
-851.566 1.1873 0 -15.6963
-1056.22 0.547392 0 0.745573
-1042.14 0.565113 0 0.484878
-626.984 1.76608 0 -30.1278
-635.437 1.74023 0 -29.9716
-1049.18 0.556244 0 0.615882
-834.667 1.22089 0 -16.0074
-631.211 1.75318 0 -30.0493
-845.933 1.19851 0 -15.799
-840.3 1.20971 0 -15.9027
-1042.14 0.565113 0 0.484878
-1028.06 0.5829 0 0.218964
-618.532 1.79177 0 -30.2871
-626.984 1.76608 0 -30.1278
-1035.1 0.573999 0 0.352569
-823.402 1.24322 0 -16.2201
-622.758 1.77895 0 -30.2071
-834.667 1.22089 0 -16.0074
-829.035 1.23206 0 -16.1132
-1028.06 0.5829 0 0.218964
-1013.99 0.600753 0 -0.052099
-610.079 1.8173 0 -30.4496
-618.532 1.79177 0 -30.2871
-1021.02 0.591819 0 0.0840714
-812.137 1.26548 0 -16.4368
-614.305 1.80456 0 -30.368
-823.402 1.24322 0 -16.2201
-817.769 1.25436 0 -16.3279
-1013.99 0.600753 0 -0.052099
-999.91 0.618669 0 -0.32824
-601.627 1.84266 0 -30.615
-610.079 1.8173 0 -30.4496
-1006.95 0.609703 0 -0.189539
-800.871 1.28769 0 -16.6576
-605.853 1.83 0 -30.5319
-812.137 1.26548 0 -16.4368
-806.504 1.27659 0 -16.5467
-999.91 0.618669 0 -0.32824
-985.833 0.636646 0 -0.609388
-593.175 1.86785 0 -30.7835
-601.627 1.84266 0 -30.615
-992.872 0.62765 0 -0.468192
-789.607 1.30983 0 -16.8824
-597.401 1.85527 0 -30.6989
-800.871 1.28769 0 -16.6576
-795.239 1.29877 0 -16.7695
-985.833 0.636646 0 -0.609388
-971.757 0.654685 0 -0.895474
-584.723 1.89287 0 -30.9549
-593.175 1.86785 0 -30.7835
-978.795 0.645658 0 -0.751818
-778.342 1.33192 0 -17.1112
-588.949 1.88038 0 -30.8688
-789.607 1.30983 0 -16.8824
-783.974 1.32088 0 -16.9963
-971.757 0.654685 0 -0.895474
-957.681 0.672781 0 -1.18643
-576.271 1.91773 0 -31.1293
-584.723 1.89287 0 -30.9549
-964.719 0.663726 0 -1.04035
-767.077 1.35394 0 -17.3439
-580.497 1.90532 0 -31.0417
-778.342 1.33192 0 -17.1112
-772.709 1.34293 0 -17.2271
-957.681 0.672781 0 -1.18643
-943.605 0.690935 0 -1.48218
-567.819 1.94242 0 -31.3065
-576.271 1.91773 0 -31.1293
-950.643 0.681851 0 -1.33371
-755.812 1.37589 0 -17.5804
-572.045 1.93009 0 -31.2175
-767.077 1.35394 0 -17.3439
-761.445 1.36492 0 -17.4617
-943.605 0.690935 0 -1.48218
-929.529 0.709143 0 -1.78265
-559.368 1.96693 0 -31.4866
-567.819 1.94242 0 -31.3065
-936.567 0.700032 0 -1.63183
-744.548 1.39778 0 -17.8207
-563.594 1.95469 0 -31.3962
-755.812 1.37589 0 -17.5804
-750.18 1.38685 0 -17.7001
-929.529 0.709143 0 -1.78265
-915.453 0.727403 0 -2.08778
-550.917 1.99127 0 -31.6695
-559.368 1.96693 0 -31.4866
-922.491 0.718267 0 -1.93464
-733.284 1.41961 0 -18.0647
-555.142 1.97912 0 -31.5777
-744.548 1.39778 0 -17.8207
-738.916 1.4087 0 -17.9423
-915.453 0.727403 0 -2.08778
-901.377 0.745715 0 -2.3975
-542.465 2.01544 0 -31.8551
-550.917 1.99127 0 -31.6695
-908.415 0.736553 0 -2.24207
-722.02 1.44136 0 -18.3124
-546.691 2.00338 0 -31.762
-733.284 1.41961 0 -18.0647
-727.652 1.43049 0 -18.1881
-901.377 0.745715 0 -2.3975
-887.302 0.764075 0 -2.71173
-534.014 2.03943 0 -32.0435
-542.465 2.01544 0 -31.8551
-894.339 0.754889 0 -2.55405
-710.756 1.46304 0 -18.5637
-538.24 2.02746 0 -31.9489
-722.02 1.44136 0 -18.3124
-716.388 1.45221 0 -18.4376
-887.302 0.764075 0 -2.71173
-873.226 0.782482 0 -3.03041
-525.563 2.06325 0 -32.2345
-534.014 2.03943 0 -32.0435
-880.264 0.773273 0 -2.87052
-699.492 1.48465 0 -18.8186
-529.789 2.05136 0 -32.1386
-710.756 1.46304 0 -18.5637
-705.124 1.47385 0 -18.6907
-873.226 0.782482 0 -3.03041
-859.151 0.800932 0 -3.35346
-517.113 2.08689 0 -32.4281
-525.563 2.06325 0 -32.2345
-866.188 0.791702 0 -3.19139
-688.228 1.50618 0 -19.077
-521.338 2.07509 0 -32.331
-699.492 1.48465 0 -18.8186
-693.86 1.49542 0 -18.9473
-859.151 0.800932 0 -3.35346
-845.075 0.819424 0 -3.68081
-508.662 2.11035 0 -32.6243
-517.113 2.08689 0 -32.4281
-852.113 0.810173 0 -3.5166
-676.964 1.52764 0 -19.3388
-512.887 2.09864 0 -32.5259
-688.228 1.50618 0 -19.077
-682.596 1.51692 0 -19.2074
-845.075 0.819424 0 -3.68081
-831 0.837956 0 -4.0124
-500.211 2.13363 0 -32.8231
-508.662 2.11035 0 -32.6243
-838.037 0.828685 0 -3.84608
-665.701 1.54902 0 -19.604
-504.437 2.12201 0 -32.7234
-676.964 1.52764 0 -19.3388
-671.332 1.53834 0 -19.4709
-831 0.837956 0 -4.0124
-816.925 0.856524 0 -4.34815
-491.761 2.15673 0 -33.0244
-500.211 2.13363 0 -32.8231
-823.962 0.847235 0 -4.17976
-654.437 1.57032 0 -19.8725
-495.986 2.1452 0 -32.9234
-665.701 1.54902 0 -19.604
-660.069 1.55968 0 -19.7378
-816.925 0.856524 0 -4.34815
-802.849 0.875126 0 -4.68799
-483.311 2.17964 0 -33.2281
-491.761 2.15673 0 -33.0244
-809.887 0.865821 0 -4.51757
-643.174 1.59153 0 -20.1443
-487.536 2.16821 0 -33.126
-654.437 1.57032 0 -19.8725
-648.806 1.58093 0 -20.008
-802.849 0.875126 0 -4.68799
-788.774 0.89376 0 -5.03186
-474.861 2.20237 0 -33.4343
-483.311 2.17964 0 -33.2281
-795.812 0.884439 0 -4.85943
-631.911 1.61266 0 -20.4193
-479.086 2.19103 0 -33.3309
-643.174 1.59153 0 -20.1443
-637.542 1.60211 0 -20.2814
-788.774 0.89376 0 -5.03186
-774.699 0.912422 0 -5.37968
-466.411 2.22491 0 -33.6428
-474.861 2.20237 0 -33.4343
-781.737 0.903088 0 -5.20528
-620.648 1.63371 0 -20.6975
-470.636 2.21366 0 -33.5382
-631.911 1.61266 0 -20.4193
-626.279 1.62319 0 -20.558
-774.699 0.912422 0 -5.37968
-760.624 0.931111 0 -5.73138
-457.961 2.24726 0 -33.8537
-466.411 2.22491 0 -33.6428
-767.662 0.921764 0 -5.55505
-609.385 1.65466 0 -20.9788
-462.186 2.23611 0 -33.7479
-620.648 1.63371 0 -20.6975
-615.016 1.64419 0 -20.8378
-760.624 0.931111 0 -5.73138
-746.549 0.949823 0 -6.08689
-449.511 2.26942 0 -34.0668
-457.961 2.24726 0 -33.8537
-753.587 0.940464 0 -5.90866
-598.122 1.67552 0 -21.2632
-453.736 2.25837 0 -33.96
-609.385 1.65466 0 -20.9788
-603.753 1.6651 0 -21.1206
-746.549 0.949823 0 -6.08689
-732.475 0.968555 0 -6.44614
-441.062 2.29139 0 -34.2822
-449.511 2.26942 0 -34.0668
-739.512 0.959186 0 -6.26605
-586.859 1.69629 0 -21.5505
-445.286 2.28043 0 -34.1742
-598.122 1.67552 0 -21.2632
-592.491 1.68592 0 -21.4065
-732.475 0.968555 0 -6.44614
-718.4 0.987304 0 -6.80907
-432.612 2.31317 0 -34.4998
-441.062 2.29139 0 -34.2822
-725.437 0.977927 0 -6.62715
-575.597 1.71696 0 -21.8408
-436.837 2.30231 0 -34.3907
-586.859 1.69629 0 -21.5505
-581.228 1.70664 0 -21.6953
-718.4 0.987304 0 -6.80907
-704.325 1.00607 0 -7.17559
-424.163 2.33475 0 -34.7196
-432.612 2.31317 0 -34.4998
-711.362 0.996684 0 -6.99188
-564.334 1.73754 0 -22.134
-428.388 2.32399 0 -34.6094
-575.597 1.71696 0 -21.8408
-569.965 1.72726 0 -21.987
-704.325 1.00607 0 -7.17559
-690.25 1.02484 0 -7.54564
-415.714 2.35614 0 -34.9415
-424.163 2.33475 0 -34.7196
-697.288 1.01545 0 -7.36018
-553.072 1.75801 0 -22.43
-419.938 2.34547 0 -34.8303
-564.334 1.73754 0 -22.134
-558.703 1.74779 0 -22.2816
-690.25 1.02484 0 -7.54564
-676.176 1.04362 0 -7.91915
-407.265 2.37732 0 -35.1655
-415.714 2.35614 0 -34.9415
-683.213 1.03423 0 -7.73197
-541.809 1.77838 0 -22.7287
-411.489 2.36675 0 -35.0532
-553.072 1.75801 0 -22.43
-547.44 1.76821 0 -22.579
-676.176 1.04362 0 -7.91915
-662.101 1.06241 0 -8.29606
-398.816 2.3983 0 -35.3915
-407.265 2.37732 0 -35.1655
-669.138 1.05302 0 -8.10719
-530.547 1.79864 0 -23.0302
-403.04 2.38784 0 -35.2782
-541.809 1.77838 0 -22.7287
-536.178 1.78853 0 -22.8791
-662.101 1.06241 0 -8.29606
-648.027 1.0812 0 -8.67628
-390.367 2.41908 0 -35.6195
-398.816 2.3983 0 -35.3915
-655.064 1.07181 0 -8.48576
-519.285 1.8188 0 -23.3343
-394.591 2.40872 0 -35.5052
-530.547 1.79864 0 -23.0302
-524.916 1.80874 0 -23.1819
-648.027 1.0812 0 -8.67628
-633.952 1.09999 0 -9.05975
-381.918 2.43966 0 -35.8494
-390.367 2.41908 0 -35.6195
-640.989 1.0906 0 -8.86761
-508.023 1.83884 0 -23.6411
-386.142 2.42939 0 -35.7342
-519.285 1.8188 0 -23.3343
-513.654 1.82883 0 -23.4874
-633.952 1.09999 0 -9.05975
-619.878 1.11877 0 -9.44639
-373.469 2.46002 0 -36.0813
-381.918 2.43966 0 -35.8494
-626.915 1.10938 0 -9.25268
-496.761 1.85877 0 -23.9503
-377.694 2.44986 0 -35.9651
-508.023 1.83884 0 -23.6411
-502.392 1.84882 0 -23.7954
-619.878 1.11877 0 -9.44639
-605.803 1.13754 0 -9.83615
-365.021 2.48018 0 -36.315
-373.469 2.46002 0 -36.0813
-612.84 1.12816 0 -9.64089
-485.499 1.87858 0 -24.2621
-369.245 2.47013 0 -36.1979
-496.761 1.85877 0 -23.9503
-491.13 1.86869 0 -24.1059
-605.803 1.13754 0 -9.83615
-591.729 1.15631 0 -10.2289
-356.572 2.50013 0 -36.5506
-365.021 2.48018 0 -36.315
-598.766 1.14693 0 -10.0322
-474.237 1.89827 0 -24.5763
-360.797 2.49018 0 -36.4326
-485.499 1.87858 0 -24.2621
-479.868 1.88844 0 -24.4189
-591.729 1.15631 0 -10.2289
-577.654 1.17505 0 -10.6247
-348.124 2.51986 0 -36.7879
-356.572 2.50013 0 -36.5506
-584.692 1.16568 0 -10.4265
-462.975 1.91784 0 -24.8929
-352.348 2.51002 0 -36.6691
-474.237 1.89827 0 -24.5763
-468.606 1.90808 0 -24.7343
-577.654 1.17505 0 -10.6247
-563.58 1.19378 0 -11.0234
-339.676 2.53937 0 -37.027
-348.124 2.51986 0 -36.7879
-570.617 1.18442 0 -10.8237
-451.713 1.93729 0 -25.2118
-343.9 2.52964 0 -36.9073
-462.975 1.91784 0 -24.8929
-457.344 1.92758 0 -25.052
-563.58 1.19378 0 -11.0234
-549.506 1.21248 0 -11.4248
-331.228 2.55867 0 -37.2678
-339.676 2.53937 0 -37.027
-556.543 1.20314 0 -11.2237
-440.452 1.95661 0 -25.5329
-335.452 2.54905 0 -37.1472
-451.713 1.93729 0 -25.2118
-446.082 1.94696 0 -25.3721
-549.506 1.21248 0 -11.4248
-535.431 1.23116 0 -11.8291
-322.779 2.57775 0 -37.5103
-331.228 2.55867 0 -37.2678
-542.468 1.22183 0 -11.6266
-429.19 1.97579 0 -25.8563
-327.004 2.56824 0 -37.3889
-440.452 1.95661 0 -25.5329
-434.821 1.96621 0 -25.6943
-535.431 1.23116 0 -11.8291
-521.357 1.24981 0 -12.236
-314.332 2.59661 0 -37.7543
-322.779 2.57775 0 -37.5103
-528.394 1.24049 0 -12.0322
-417.928 1.99484 0 -26.1818
-318.555 2.58721 0 -37.6321
-429.19 1.97579 0 -25.8563
-423.559 1.98533 0 -26.0188
-521.357 1.24981 0 -12.236
-507.282 1.26842 0 -12.6455
-305.884 2.61524 0 -38
-314.332 2.59661 0 -37.7543
-514.32 1.25912 0 -12.4404
-406.667 2.01375 0 -26.5094
-310.108 2.60595 0 -37.877
-417.928 1.99484 0 -26.1818
-412.298 2.00432 0 -26.3453
-507.282 1.26842 0 -12.6455
-493.208 1.287 0 -13.0576
-297.436 2.63364 0 -38.2472
-305.884 2.61524 0 -38
-500.245 1.27772 0 -12.8513
-395.405 2.03253 0 -26.8391
-301.66 2.62447 0 -38.1234
-406.667 2.01375 0 -26.5094
-401.036 2.02316 0 -26.674
-493.208 1.287 0 -13.0576
-479.134 1.30553 0 -13.4722
-288.988 2.65182 0 -38.4958
-297.436 2.63364 0 -38.2472
-486.171 1.29627 0 -13.2646
-384.144 2.05116 0 -27.1707
-293.212 2.64276 0 -38.3713
-395.405 2.03253 0 -26.8391
-389.775 2.04186 0 -27.0046
-479.134 1.30553 0 -13.4722
-465.059 1.32402 0 -13.8891
-280.54 2.66976 0 -38.7459
-288.988 2.65182 0 -38.4958
-472.096 1.31478 0 -13.6804
-372.883 2.06964 0 -27.5042
-284.764 2.66082 0 -38.6207
-384.144 2.05116 0 -27.1707
-378.513 2.06042 0 -27.3372
-465.059 1.32402 0 -13.8891
-450.985 1.34246 0 -14.3084
-272.093 2.68746 0 -38.9974
-280.54 2.66976 0 -38.7459
-458.022 1.33325 0 -14.0985
-361.621 2.08797 0 -27.8397
-276.317 2.67864 0 -38.8715
-372.883 2.06964 0 -27.5042
-367.252 2.07882 0 -27.6717
-450.985 1.34246 0 -14.3084
-436.91 1.36085 0 -14.73
-263.645 2.70493 0 -39.2503
-272.093 2.68746 0 -38.9974
-443.947 1.35166 0 -14.5189
-350.36 2.10615 0 -28.1769
-267.869 2.69623 0 -39.1237
-361.621 2.08797 0 -27.8397
-355.991 2.09708 0 -28.008
-436.91 1.36085 0 -14.73
-422.836 1.37917 0 -15.1537
-255.198 2.72216 0 -39.5045
-263.645 2.70493 0 -39.2503
-429.873 1.37002 0 -14.9416
-339.099 2.12417 0 -28.5159
-259.422 2.71357 0 -39.3772
-350.36 2.10615 0 -28.1769
-344.729 2.11518 0 -28.3462
-422.836 1.37917 0 -15.1537
-408.761 1.39743 0 -15.5796
-246.751 2.73913 0 -39.7599
-255.198 2.72216 0 -39.5045
-415.798 1.38831 0 -15.3664
-327.837 2.14202 0 -28.8565
-250.974 2.73068 0 -39.632
-339.099 2.12417 0 -28.5159
-333.468 2.13311 0 -28.686
-408.761 1.39743 0 -15.5796
-394.687 1.41563 0 -16.0075
-238.303 2.75586 0 -40.0166
-246.751 2.73913 0 -39.7599
-401.724 1.40654 0 -15.7933
-316.576 2.15971 0 -29.1989
-242.527 2.74753 0 -39.8881
-327.837 2.14202 0 -28.8565
-322.207 2.15089 0 -29.0275
-394.687 1.41563 0 -16.0075
-380.612 1.43375 0 -16.4374
-229.856 2.77234 0 -40.2745
-238.303 2.75586 0 -40.0166
-387.649 1.4247 0 -16.2222
-305.315 2.17723 0 -29.5428
-234.08 2.76414 0 -40.1454
-316.576 2.15971 0 -29.1989
-310.946 2.16849 0 -29.3706
-380.612 1.43375 0 -16.4374
-366.537 1.4518 0 -16.8692
-221.409 2.78857 0 -40.5335
-229.856 2.77234 0 -40.2745
-373.575 1.44279 0 -16.6531
-294.054 2.19458 0 -29.8882
-225.632 2.78049 0 -40.4039
-305.315 2.17723 0 -29.5428
-299.684 2.18593 0 -29.7153
-366.537 1.4518 0 -16.8692
-352.463 1.46977 0 -17.3028
-212.962 2.80453 0 -40.7936
-221.409 2.78857 0 -40.5335
-359.5 1.46079 0 -17.0858
-282.793 2.21175 0 -30.2351
-217.185 2.79658 0 -40.6634
-294.054 2.19458 0 -29.8882
-288.423 2.20319 0 -30.0614
-352.463 1.46977 0 -17.3028
-338.388 1.48766 0 -17.7382
-204.515 2.82025 0 -41.0548
-212.962 2.80453 0 -40.7936
-345.425 1.47872 0 -17.5203
-271.531 2.22875 0 -30.5833
-208.738 2.81242 0 -40.9241
-282.793 2.21175 0 -30.2351
-277.162 2.22027 0 -30.409
-338.388 1.48766 0 -17.7382
-324.313 1.50546 0 -18.1753
-196.068 2.83573 0 -41.317
-204.515 2.82025 0 -41.0548
-331.35 1.49657 0 -17.9565
-260.27 2.24558 0 -30.933
-200.291 2.82802 0 -41.1857
-271.531 2.22875 0 -30.5833
-265.901 2.23718 0 -30.758
-324.313 1.50546 0 -18.1753
-310.238 1.5232 0 -18.614
-187.621 2.85098 0 -41.5801
-196.068 2.83573 0 -41.317
-317.276 1.51434 0 -18.3944
-249.009 2.26226 0 -31.2839
-191.844 2.84338 0 -41.4484
-260.27 2.24558 0 -30.933
-254.64 2.25394 0 -31.1083
-310.238 1.5232 0 -18.614
-296.163 1.54087 0 -19.0543
-179.174 2.86604 0 -41.8442
-187.621 2.85098 0 -41.5801
-303.201 1.53204 0 -18.8339
-237.748 2.2788 0 -31.6361
-183.397 2.85853 0 -41.712
-249.009 2.26226 0 -31.2839
-243.379 2.27054 0 -31.4599
-296.163 1.54087 0 -19.0543
-282.088 1.55849 0 -19.4961
-170.727 2.88094 0 -42.1092
-179.174 2.86604 0 -41.8442
-289.126 1.54968 0 -19.275
-226.487 2.29524 0 -31.9896
-174.95 2.8735 0 -41.9766
-237.748 2.2788 0 -31.6361
-232.117 2.28703 0 -31.8127
-282.088 1.55849 0 -19.4961
-268.013 1.57608 0 -19.9395
-162.28 2.89573 0 -42.3751
-170.727 2.88094 0 -42.1092
-275.051 1.56729 0 -19.7176
-215.226 2.31161 0 -32.3442
-166.504 2.88835 0 -42.242
-226.487 2.29524 0 -31.9896
-220.856 2.30344 0 -32.1668
-268.013 1.57608 0 -19.9395
-253.938 1.59365 0 -20.3843
-153.834 2.9104 0 -42.6418
-162.28 2.89573 0 -42.3751
-260.976 1.58487 0 -20.1617
-203.965 2.32791 0 -32.7001
-158.057 2.90308 0 -42.5083
-215.226 2.31161 0 -32.3442
-209.595 2.31977 0 -32.522
-253.938 1.59365 0 -20.3843
-239.863 1.61113 0 -20.8307
-145.388 2.92486 0 -42.9095
-153.834 2.9104 0 -42.6418
-246.901 1.60241 0 -20.6073
-192.704 2.34404 0 -33.0572
-149.611 2.91767 0 -42.7756
-203.965 2.32791 0 -32.7001
-198.335 2.33601 0 -32.8785
-239.863 1.61113 0 -20.8307
-225.788 1.62835 0 -21.2783
-136.942 2.93867 0 -43.1781
-145.388 2.92486 0 -42.9095
-232.826 1.61979 0 -21.0543
-181.444 2.35963 0 -33.4153
-141.165 2.9319 0 -43.0437
-192.704 2.34404 0 -33.0572
-187.074 2.35194 0 -33.2361
-225.788 1.62835 0 -21.2783
-211.713 1.64473 0 -21.7268
-128.495 2.95084 0 -43.4477
-136.942 2.93867 0 -43.1781
-218.751 1.63672 0 -21.5025
-170.183 2.37382 0 -33.774
-132.719 2.94507 0 -43.3128
-181.444 2.35963 0 -33.4153
-175.814 2.36702 0 -33.5946
-211.713 1.64473 0 -21.7268
-197.639 1.65913 0 -22.175
-120.047 2.9588 0 -43.7183
-128.495 2.95084 0 -43.4477
-204.676 1.65228 0 -21.9511
-158.922 2.3844 0 -34.1325
-124.271 2.95562 0 -43.5829
-170.183 2.37382 0 -33.774
-164.553 2.37974 0 -33.9534
-197.639 1.65913 0 -22.175
-183.565 1.66865 0 -22.6199
-111.593 2.95805 0 -43.9901
-120.047 2.9588 0 -43.7183
-190.602 1.66479 0 -22.3982
-147.658 2.38727 0 -34.4887
-115.822 2.95996 0 -43.854
-158.922 2.3844 0 -34.1325
-153.291 2.38733 0 -34.3112
-183.565 1.66865 0 -22.6199
-169.492 1.66873 0 -23.0562
-103.128 2.9383 0 -44.2628
-111.593 2.95805 0 -43.9901
-176.529 1.6703 0 -22.8395
-136.387 2.37346 0 -34.8382
-107.362 2.95152 0 -44.1265
-147.658 2.38727 0 -34.4887
-142.024 2.38303 0 -34.6645
-169.492 1.66873 0 -23.0562
-155.423 1.64816 0 -23.4708
-94.6298 2.88489 0 -44.5378
-103.128 2.9383 0 -44.2628
-162.456 1.66198 0 -23.2676
-125.099 2.32892 0 -35.1731
-98.8852 2.91723 0 -44.3998
-136.387 2.37346 0 -34.8382
-130.746 2.35696 0 -35.0085
-155.423 1.64816 0 -23.4708
-141.347 1.59385 0 -23.8459
-86.0774 2.76595 0 -44.8143
-94.6298 2.88489 0 -44.5378
-148.388 1.62669 0 -23.6646
-113.774 2.22477 0 -35.4794
-90.3609 2.8362 0 -44.6762
-125.099 2.32892 0 -35.1731
-119.443 2.28544 0 -35.3302
-141.347 1.59385 0 -23.8459
-127.281 1.46905 0 -24.1367
-77.3943 2.54937 0 -45.1009
-86.0774 2.76595 0 -44.8143
-134.31 1.54238 0 -24.0063
-102.372 2.02612 0 -35.7347
-81.7608 2.67301 0 -44.955
-113.774 2.22477 0 -35.4794
-108.084 2.1433 0 -35.6171
-127.281 1.46905 0 -24.1367
-113.164 1.25366 0 -24.2995
-68.5193 2.16318 0 -45.3991
-77.3943 2.54937 0 -45.1009
-120.238 1.3772 0 -24.2367
-90.8132 1.66201 0 -35.9093
-72.9805 2.38123 0 -45.2495
-102.372 2.02612 0 -35.7347
-96.6211 1.86356 0 -35.8307
-113.164 1.25366 0 -24.2995
-99.0375 0.843666 0 -24.2171
-59.2266 1.60254 0 -45.7572
-68.5193 2.16318 0 -45.3991
-106.09 1.07311 0 -24.301
-78.9807 1.0954 0 -35.9686
-63.9524 1.90628 0 -45.564
-90.8132 1.66201 0 -35.9093
-84.9341 1.41987 0 -35.9635
-99.0375 0.843666 0 -24.2171
-84.6133 0.300812 0 -23.8511
-49.4366 0.810461 0 -46.2037
-59.2266 1.60254 0 -45.7572
-91.9045 0.602359 0 -24.0681
-66.611 0.2372 0 -35.9221
-54.3811 1.22488 0 -45.9704
-78.9807 1.0954 0 -35.9686
-72.899 0.676073 0 -35.9398
-84.6133 0.300812 0 -23.8511
-69.9663 -0.610944 0 -23.0262
-38.6774 0.207053 0 -46.9582
-49.4366 0.810461 0 -46.2037
-77.2813 -0.144434 0 -23.5143
-53.4468 -0.664013 0 -35.8614
-44.2462 0.455115 0 -46.5148
-66.611 0.2372 0 -35.9221
-60.1161 -0.18113 0 -35.9139
-69.9663 -0.610944 0 -23.0262
-53.8448 -1.06275 0 -22.1354
-27.3469 0.319814 0 -48.1351
-38.6774 0.207053 0 -46.9582
-62.2545 -0.862745 0 -22.541
-38.7819 -1.17068 0 -36.2691
-32.9898 0.0541522 0 -47.4952
-53.4468 -0.664013 0 -35.8614
-46.4309 -1.1538 0 -35.8914
-53.8448 -1.06275 0 -22.1354
-36.4078 -1.02182 0 -21.7968
-15.3743 3.98151 0 -50.1516
-27.3469 0.319814 0 -48.1351
-45.1893 -1.43161 0 -21.8171
-22.7625 1.4116 0 -38.0769
-21.5361 1.50029 0 -48.9962
-38.7819 -1.17068 0 -36.2691
-30.7836 -0.36985 0 -37.0332
-36.4078 -1.02182 0 -21.7968
-14.4055 6.37748 0 -26.1144
-6.38444 14.8937 0 -51.366
-15.3743 3.98151 0 -50.1516
-26.3968 1.52762 0 -22.9586
-5.706 13.0268 0 -43.072
-10.0526 7.95522 0 -51.0908
-22.7625 1.4116 0 -38.0769
-14.6284 4.93207 0 -39.8114
-14.4055 6.37748 0 -26.1144
2.64463 35.8185 0 -39.6555
-0.907665 41.5978 0 -46.3682
-6.38444 14.8937 0 -51.366
-4.37371 14.2133 0 -31.1795
0.116427 47.2169 0 -45.8858
-3.40778 26.462 0 -50.2912
-5.706 13.0268 0 -43.072
0.504424 27.1748 0 -46.0958
2.64463 35.8185 0 -39.6555
-2.96746 142.586 0 -36.2748
1.1489 70.9639 0 -22.9695
-0.907665 41.5978 0 -46.3682
4.92437 80.2848 0 -45.4254
-5.14283 101.372 0 -20.5135
0.92315 57.9494 0 -37.592
0.116427 47.2169 0 -45.8858
-2.60603 73.6882 0 -38.557
-1500.46 -450.705 0 137.881
-1629.14 -285.884 0 -3.97294
-528.794 -91.3424 0 71.6398
-541.918 -162.535 0 215.783
-1587.87 -362.618 0 52.1538
-1078.88 -188.432 0 42.5356
-519.554 -127.424 0 136.139
-999.195 -299.93 0 197.165
-1055.84 -252.53 0 97.8387
-1629.14 -285.884 0 -3.97294
-1659.88 -126.241 0 -47.6905
-557.033 -56.164 0 -14.5189
-528.794 -91.3424 0 71.6398
-1642.85 -200.19 0 -32.2501
-1104.38 -99.0887 0 -26.2932
-550.628 -71.7742 0 20.9613
-1078.88 -188.432 0 42.5356
-1090.42 -136.677 0 5.23102
-1659.88 -126.241 0 -47.6905
-1675.57 -45.8853 0 -55.6557
-558.91 -24.2086 0 -53.4408
-557.033 -56.164 0 -14.5189
-1674.89 -77.9144 0 -55.1377
-1117.6 -40.988 0 -55.6723
-555.995 -38.5151 0 -38.0065
-1104.38 -99.0887 0 -26.2932
-1114.64 -67.2012 0 -46.6641
-1675.57 -45.8853 0 -55.6557
-1662.84 -8.76896 0 -50.8403
-560.457 -9.36379 0 -67.1983
-558.91 -24.2086 0 -53.4408
-1668.61 -22.8756 0 -52.9839
-1114.11 -12.3923 0 -61.8872
-562.139 -15.4994 0 -62.688
-1117.6 -40.988 0 -55.6723
-1116.74 -23.3569 0 -59.6147
-1662.84 -8.76896 0 -50.8403
-1647.95 1.9433 0 -47.4507
-554.457 -1.68839 0 -68.5066
-560.457 -9.36379 0 -67.1983
-1656.63 -1.61936 0 -49.1544
-1103.95 -0.361784 0 -60.5566
-556.729 -4.48852 0 -68.6264
-1114.11 -12.3923 0 -61.8872
-1109.63 -4.98956 0 -61.9958
-1647.95 1.9433 0 -47.4507
-1630.79 4.49654 0 -45.038
-549.426 -0.317138 0 -65.8781
-554.457 -1.68839 0 -68.5066
-1638.54 3.99342 0 -45.9385
-1092.3 2.36165 0 -57.6415
-552.492 -0.675285 0 -67.4434
-1103.95 -0.361784 0 -60.5566
-1097.94 1.8058 0 -58.9208
-1630.79 4.49654 0 -45.038
-1616.94 3.11266 0 -43.9839
-543.527 -0.287583 0 -62.5344
-549.426 -0.317138 0 -65.8781
-1623.88 3.95267 0 -44.4833
-1081.8 1.98574 0 -55.014
-546.092 -0.11995 0 -64.1399
-1092.3 2.36165 0 -57.6415
-1086.89 2.34602 0 -56.3378
-1616.94 3.11266 0 -43.9839
-1604.47 1.4782 0 -43.2628
-538.996 -1.11695 0 -59.8495
-543.527 -0.287583 0 -62.5344
-1610.31 2.3186 0 -43.5551
-1072.78 0.617226 0 -53.0771
-541.317 -0.710267 0 -61.0976
-1081.8 1.98574 0 -55.014
-1077.08 1.35351 0 -53.9122
-1604.47 1.4782 0 -43.2628
-1593.87 -0.0403377 0 -42.8075
-534.823 -1.73316 0 -57.9442
-538.996 -1.11695 0 -59.8495
-1599.09 0.649416 0 -43.0381
-1065.05 -0.5843 0 -51.7318
-536.753 -1.43136 0 -58.7943
-1072.78 0.617226 0 -53.0771
-1068.79 -0.0326169 0 -52.3616
-1593.87 -0.0403377 0 -42.8075
-1584.09 -1.01469 0 -42.3701
-531.33 -2.22977 0 -56.7141
-534.823 -1.73316 0 -57.9442
-1588.84 -0.576527 0 -42.5795
-1058.2 -1.46246 0 -50.8192
-533.066 -2.01579 0 -57.2614
-1065.05 -0.5843 0 -51.7318
-1061.54 -1.0643 0 -51.222
-1584.09 -1.01469 0 -42.3701
-1575 -1.6319 0 -41.9566
-528.076 -2.49214 0 -55.9349
-531.33 -2.22977 0 -56.7141
-1579.51 -1.36994 0 -42.1673
-1051.91 -1.99129 0 -50.1744
-529.652 -2.3785 0 -56.278
-1058.2 -1.46246 0 -50.8192
-1055.01 -1.76641 0 -50.4758
-1575 -1.6319 0 -41.9566
-1566.2 -1.95287 0 -41.5294
-525.06 -2.63054 0 -55.4439
-528.076 -2.49214 0 -55.9349
-1570.56 -1.81834 0 -41.7425
-1045.94 -2.28078 0 -49.6942
-526.561 -2.5781 0 -55.663
-1051.91 -1.99129 0 -50.1744
-1048.89 -2.16012 0 -49.9169
-1566.2 -1.95287 0 -41.5294
-1557.59 -2.10817 0 -41.1007
-522.127 -2.66736 0 -55.1181
-525.06 -2.63054 0 -55.4439
-1561.89 -2.04839 0 -41.3162
-1040.14 -2.40903 0 -49.3052
-523.579 -2.65688 0 -55.2655
-1045.94 -2.28078 0 -49.6942
-1043.02 -2.3608 0 -49.4923
-1557.59 -2.10817 0 -41.1007
-1549.07 -2.15784 0 -40.6694
-519.26 -2.6542 0 -54.8852
-522.127 -2.66736 0 -55.1181
-1553.32 -2.14192 0 -40.8847
-1034.42 -2.44496 0 -48.9685
-520.691 -2.66638 0 -54.9936
-1040.14 -2.40903 0 -49.3052
-1037.27 -2.43556 0 -49.1317
-1549.07 -2.15784 0 -40.6694
-1540.59 -2.15431 0 -40.2413
-516.413 -2.60935 0 -54.7011
-519.26 -2.6542 0 -54.8852
-1544.83 -2.16127 0 -40.455
-1028.75 -2.42879 0 -48.6601
-517.833 -2.63416 0 -54.7888
-1034.42 -2.44496 0 -48.9685
-1031.58 -2.44162 0 -48.8119
-1540.59 -2.15431 0 -40.2413
-1532.12 -2.12181 0 -39.818
-513.58 -2.55067 0 -54.5426
-516.413 -2.60935 0 -54.7011
-1536.35 -2.14035 0 -40.0289
-1023.1 -2.38643 0 -48.3684
-514.996 -2.58139 0 -54.6197
-1028.75 -2.42879 0 -48.6601
-1025.92 -2.40986 0 -48.5126
-1532.12 -2.12181 0 -39.818
-1523.66 -2.07662 0 -39.4015
-510.75 -2.48493 0 -54.3971
-513.58 -2.55067 0 -54.5426
-1527.89 -2.10034 0 -39.6089
-1017.45 -2.33154 0 -48.0871
-512.164 -2.51824 0 -54.4687
-1023.1 -2.38643 0 -48.3684
-1020.27 -2.36001 0 -48.2268
-1523.66 -2.07662 0 -39.4015
-1515.2 -2.02582 0 -38.9924
-507.921 -2.41705 0 -54.2588
-510.75 -2.48493 0 -54.3971
-1519.43 -2.05158 0 -39.196
-1011.8 -2.27157 0 -47.8133
-509.335 -2.45116 0 -54.3273
-1017.45 -2.33154 0 -48.0871
-1014.63 -2.30191 0 -47.9494
-1515.2 -2.02582 0 -38.9924
-1506.75 -1.97343 0 -38.591
-505.091 -2.34875 0 -54.1247
-507.921 -2.41705 0 -54.2588
-1510.98 -1.99972 0 -38.7907
-1006.16 -2.21003 0 -47.5455
-506.506 -2.38286 0 -54.1913
-1011.8 -2.27157 0 -47.8133
-1008.98 -2.24087 0 -47.6787
-1506.75 -1.97343 0 -38.591
-1498.29 -1.92096 0 -38.1974
-502.261 -2.28102 0 -53.9936
-505.091 -2.34875 0 -54.1247
-1502.52 -1.94714 0 -38.3932
-1000.51 -2.14853 0 -47.2831
-503.676 -2.3148 0 -54.0588
-1006.16 -2.21003 0 -47.5455
-1003.34 -2.17923 0 -47.4136
-1498.29 -1.92096 0 -38.1974
-1489.83 -1.8691 0 -37.8115
-499.431 -2.21406 0 -53.8651
-502.261 -2.28102 0 -53.9936
-1494.06 -1.89494 0 -38.0034
-994.866 -2.08767 0 -47.0259
-500.846 -2.24743 0 -53.9291
-1000.51 -2.14853 0 -47.2831
-997.69 -2.118 0 -47.1539
-1489.83 -1.8691 0 -37.8115
-1481.37 -1.81799 0 -37.4333
-496.6 -2.14794 0 -53.7391
-499.431 -2.21406 0 -53.8651
-1485.6 -1.84345 0 -37.6214
-989.219 -2.0276 0 -46.7737
-498.015 -2.1809 0 -53.8018
-994.866 -2.08767 0 -47.0259
-992.043 -2.05753 0 -46.8992
-1481.37 -1.81799 0 -37.4333
-1472.91 -1.76763 0 -37.0626
-493.768 -2.08257 0 -53.6154
-496.6 -2.14794 0 -53.7391
-1477.14 -1.79273 0 -37.247
-983.571 -1.9683 0 -46.5265
-495.184 -2.11517 0 -53.6769
-989.219 -2.0276 0 -46.7737
-986.395 -1.99785 0 -46.6495
-1472.91 -1.76763 0 -37.0626
-1464.45 -1.71795 0 -36.6994
-490.937 -2.01786 0 -53.4941
-493.768 -2.08257 0 -53.6154
-1468.68 -1.74271 0 -36.88
-977.924 -1.90969 0 -46.2842
-492.353 -2.05014 0 -53.5544
-983.571 -1.9683 0 -46.5265
-980.748 -1.93891 0 -46.4047
-1464.45 -1.71795 0 -36.6994
-1455.99 -1.66886 0 -36.3435
-488.105 -1.95375 0 -53.3752
-490.937 -2.01786 0 -53.4941
-1460.22 -1.69333 0 -36.5205
-972.276 -1.85169 0 -46.0468
-489.521 -1.98574 0 -53.4343
-977.924 -1.90969 0 -46.2842
-975.1 -1.88062 0 -46.1649
-1455.99 -1.66886 0 -36.3435
-1447.53 -1.62031 0 -35.995
-485.274 -1.89015 0 -53.2586
-488.105 -1.95375 0 -53.3752
-1451.76 -1.64452 0 -36.1684
-966.628 -1.79425 0 -45.8142
-486.69 -1.92189 0 -53.3166
-972.276 -1.85169 0 -46.0468
-969.452 -1.82291 0 -45.9299
-1447.53 -1.62031 0 -35.995
-1439.06 -1.57225 0 -35.6537
-482.443 -1.82704 0 -53.1445
-485.274 -1.89015 0 -53.2586
-1443.29 -1.59622 0 -35.8235
-960.979 -1.7373 0 -45.5865
-483.858 -1.85854 0 -53.2013
-966.628 -1.79425 0 -45.8142
-963.803 -1.76571 0 -45.6998
-1439.06 -1.57225 0 -35.6537
-1430.6 -1.52464 0 -35.3196
-479.611 -1.76437 0 -53.0327
-482.443 -1.82704 0 -53.1445
-1434.83 -1.54839 0 -35.4858
-955.331 -1.68082 0 -45.3635
-481.027 -1.79565 0 -53.0883
-960.979 -1.7373 0 -45.5865
-958.155 -1.709 0 -45.4744
-1430.6 -1.52464 0 -35.3196
-1422.14 -1.47747 0 -34.9927
-476.78 -1.70214 0 -52.9233
-479.611 -1.76437 0 -53.0327
-1426.37 -1.501 0 -35.1553
-949.683 -1.62478 0 -45.1453
-478.195 -1.7332 0 -52.9777
-955.331 -1.68082 0 -45.3635
-952.507 -1.65274 0 -45.2538
-1422.14 -1.47747 0 -34.9927
-1413.68 -1.43072 0 -34.6728
-473.948 -1.64032 0 -52.8163
-476.78 -1.70214 0 -52.9233
-1417.91 -1.45404 0 -34.8319
-944.035 -1.56916 0 -44.9319
-475.364 -1.67118 0 -52.8695
-949.683 -1.62478 0 -45.1453
-946.859 -1.59692 0 -45.038
-1413.68 -1.43072 0 -34.6728
-1405.22 -1.38437 0 -34.36
-471.117 -1.57892 0 -52.7116
-473.948 -1.64032 0 -52.8163
-1409.45 -1.40749 0 -34.5155
-938.386 -1.51396 0 -44.7231
-472.533 -1.60957 0 -52.7637
-944.035 -1.56916 0 -44.9319
-941.211 -1.54151 0 -44.8269
-1405.22 -1.38437 0 -34.36
-1396.76 -1.33842 0 -34.0542
-468.286 -1.51791 0 -52.6092
-471.117 -1.57892 0 -52.7116
-1400.99 -1.36135 0 -34.2063
-932.738 -1.45917 0 -44.519
-469.701 -1.54836 0 -52.6601
-938.386 -1.51396 0 -44.7231
-935.562 -1.48652 0 -44.6204
-1396.76 -1.33842 0 -34.0542
-1388.29 -1.29286 0 -33.7554
-465.454 -1.45731 0 -52.5092
-468.286 -1.51791 0 -52.6092
-1392.52 -1.31559 0 -33.904
-927.09 -1.40479 0 -44.3195
-466.87 -1.48756 0 -52.5589
-932.738 -1.45917 0 -44.519
-929.914 -1.43193 0 -44.4187
-1388.29 -1.29286 0 -33.7554
-1379.83 -1.24768 0 -33.4635
-462.623 -1.39711 0 -52.4114
-465.454 -1.45731 0 -52.5092
-1384.06 -1.27022 0 -33.6086
-921.442 -1.3508 0 -44.1247
-464.039 -1.42716 0 -52.46
-927.09 -1.40479 0 -44.3195
-924.266 -1.37774 0 -44.2215
-1379.83 -1.24768 0 -33.4635
-1371.37 -1.20288 0 -33.1785
-459.792 -1.3373 0 -52.316
-462.623 -1.39711 0 -52.4114
-1375.6 -1.22523 0 -33.3202
-915.793 -1.2972 0 -43.9344
-461.208 -1.36716 0 -52.3634
-921.442 -1.3508 0 -44.1247
-918.617 -1.32395 0 -44.029
-1371.37 -1.20288 0 -33.1785
-1362.91 -1.15844 0 -32.9004
-456.961 -1.27789 0 -52.2228
-459.792 -1.3373 0 -52.316
-1367.14 -1.18062 0 -33.0386
-910.145 -1.244 0 -43.7487
-458.376 -1.30755 0 -52.2691
-915.793 -1.2972 0 -43.9344
-912.969 -1.27055 0 -43.841
-1362.91 -1.15844 0 -32.9004
-1354.45 -1.11437 0 -32.629
-454.13 -1.21888 0 -52.1319
-456.961 -1.27789 0 -52.2228
-1358.68 -1.13636 0 -32.7639
-904.497 -1.19118 0 -43.5676
-455.545 -1.24834 0 -52.177
-910.145 -1.244 0 -43.7487
-907.321 -1.21754 0 -43.6576
-1354.45 -1.11437 0 -32.629
-1345.98 -1.07066 0 -32.3645
-451.299 -1.16025 0 -52.0432
-454.13 -1.21888 0 -52.1319
-1350.21 -1.09247 0 -32.4959
-898.848 -1.13875 0 -43.3909
-452.714 -1.18952 0 -52.0872
-904.497 -1.19118 0 -43.5676
-901.673 -1.16492 0 -43.4787
-1345.98 -1.07066 0 -32.3645
-1337.52 -1.0273 0 -32.1066
-448.468 -1.10202 0 -51.9568
-451.299 -1.16025 0 -52.0432
-1341.75 -1.04894 0 -32.2347
-893.2 -1.08669 0 -43.2187
-449.883 -1.13109 0 -51.9997
-898.848 -1.13875 0 -43.3909
-896.024 -1.11267 0 -43.3043
-1337.52 -1.0273 0 -32.1066
-1329.06 -0.984286 0 -31.8554
-445.637 -1.04418 0 -51.8725
-448.468 -1.10202 0 -51.9568
-1333.29 -1.00575 0 -31.9802
-887.552 -1.03501 0 -43.051
-447.052 -1.07305 0 -51.9144
-893.2 -1.08669 0 -43.2187
-890.376 -1.0608 0 -43.1343
-1329.06 -0.984286 0 -31.8554
-1320.6 -0.94161 0 -31.6109
-442.806 -0.986718 0 -51.7905
-445.637 -1.04418 0 -51.8725
-1324.83 -0.962906 0 -31.7323
-881.904 -0.983699 0 -42.8877
-444.221 -1.0154 0 -51.8312
-887.552 -1.03501 0 -43.051
-884.728 -1.00931 0 -42.9688
-1320.6 -0.94161 0 -31.6109
-1312.13 -0.899269 0 -31.3729
-439.975 -0.929645 0 -51.7107
-442.806 -0.986718 0 -51.7905
-1316.37 -0.920398 0 -31.4911
-876.256 -0.932758 0 -42.7288
-441.39 -0.958133 0 -51.7503
-881.904 -0.983699 0 -42.8877
-879.08 -0.958183 0 -42.8077
-1312.13 -0.899269 0 -31.3729
-1303.67 -0.857257 0 -31.1415
-437.144 -0.872956 0 -51.6331
-439.975 -0.929645 0 -51.7107
-1307.9 -0.878222 0 -31.2564
-870.607 -0.88218 0 -42.5743
-438.56 -0.901253 0 -51.6716
-876.256 -0.932758 0 -42.7288
-873.431 -0.907424 0 -42.651
-1303.67 -0.857257 0 -31.1415
-1295.21 -0.815567 0 -30.9166
-434.313 -0.81665 0 -51.5576
-437.144 -0.872956 0 -51.6331
-1299.44 -0.836372 0 -31.0283
-864.959 -0.831963 0 -42.4241
-435.729 -0.844755 0 -51.5951
-870.607 -0.88218 0 -42.5743
-867.783 -0.857027 0 -42.4986
-1295.21 -0.815567 0 -30.9166
-1286.75 -0.774195 0 -30.6982
-431.483 -0.760723 0 -51.4843
-434.313 -0.81665 0 -51.5576
-1290.98 -0.794842 0 -30.8066
-859.311 -0.782103 0 -42.2782
-432.898 -0.788639 0 -51.5207
-864.959 -0.831963 0 -42.4241
-862.135 -0.806989 0 -42.3506
-1286.75 -0.774195 0 -30.6982
-1278.28 -0.733136 0 -30.4862
-428.652 -0.705175 0 -51.4131
-431.483 -0.760723 0 -51.4843
-1282.52 -0.753627 0 -30.5914
-853.663 -0.732596 0 -42.1366
-430.067 -0.732902 0 -51.4484
-859.311 -0.782103 0 -42.2782
-856.487 -0.757306 0 -42.2068
-1278.28 -0.733136 0 -30.4862
-1269.82 -0.692383 0 -30.2806
-425.822 -0.650003 0 -51.344
-428.652 -0.705175 0 -51.4131
-1274.05 -0.712721 0 -30.3826
-848.015 -0.683439 0 -41.9992
-427.237 -0.677542 0 -51.3783
-853.663 -0.732596 0 -42.1366
-850.839 -0.707974 0 -42.0674
-1269.82 -0.692383 0 -30.2806
-1261.36 -0.651932 0 -30.0814
-422.991 -0.595207 0 -51.2771
-425.822 -0.650003 0 -51.344
-1265.59 -0.67212 0 -30.1802
-842.367 -0.634628 0 -41.8661
-424.406 -0.622558 0 -51.3103
-848.015 -0.683439 0 -41.9992
-845.191 -0.65899 0 -41.9321
-1261.36 -0.651932 0 -30.0814
-1252.9 -0.611777 0 -29.8884
-420.161 -0.540784 0 -51.2122
-422.991 -0.595207 0 -51.2771
-1257.13 -0.631818 0 -29.9841
-836.719 -0.58616 0 -41.7372
-421.576 -0.567949 0 -51.2444
-842.367 -0.634628 0 -41.8661
-839.543 -0.610351 0 -41.8011
-1252.9 -0.611777 0 -29.8884
-1244.44 -0.571914 0 -29.7017
-417.33 -0.486733 0 -51.1494
-420.161 -0.540784 0 -51.2122
-1248.67 -0.591809 0 -29.7943
-831.071 -0.538032 0 -41.6124
-418.746 -0.513712 0 -51.1806
-836.719 -0.58616 0 -41.7372
-833.895 -0.562053 0 -41.6743
-1244.44 -0.571914 0 -29.7017
-1235.97 -0.532338 0 -29.5212
-414.5 -0.433052 0 -51.0887
-417.33 -0.486733 0 -51.1494
-1240.2 -0.552091 0 -29.6107
-825.424 -0.49024 0 -41.4918
-415.915 -0.459846 0 -51.1188
-831.071 -0.538032 0 -41.6124
-828.247 -0.514094 0 -41.5516
-1235.97 -0.532338 0 -29.5212
-1227.51 -0.493044 0 -29.3469
-411.67 -0.379739 0 -51.0301
-414.5 -0.433052 0 -51.0887
-1231.74 -0.512656 0 -29.4333
-819.776 -0.442781 0 -41.3753
-413.085 -0.406349 0 -51.0591
-825.424 -0.49024 0 -41.4918
-822.6 -0.466469 0 -41.433
-1227.51 -0.493044 0 -29.3469
-1219.05 -0.454028 0 -29.1788
-408.84 -0.326794 0 -50.9735
-411.67 -0.379739 0 -51.0301
-1223.28 -0.473501 0 -29.2621
-814.128 -0.395653 0 -41.2629
-410.255 -0.353221 0 -51.0015
-819.776 -0.442781 0 -41.3753
-816.952 -0.419176 0 -41.3186
-1219.05 -0.454028 0 -29.1788
-1210.59 -0.415284 0 -29.0167
-406.01 -0.274215 0 -50.9189
-408.84 -0.326794 0 -50.9735
-1214.82 -0.434622 0 -29.097
-808.481 -0.348852 0 -41.1546
-407.425 -0.300459 0 -50.9459
-814.128 -0.395653 0 -41.2629
-811.304 -0.372212 0 -41.2082
-1210.59 -0.415284 0 -29.0167
-1202.12 -0.376808 0 -28.8606
-403.18 -0.221999 0 -50.8663
-406.01 -0.274215 0 -50.9189
-1206.36 -0.396013 0 -28.9379
-802.833 -0.302375 0 -41.0502
-404.595 -0.248062 0 -50.8923
-808.481 -0.348852 0 -41.1546
-805.657 -0.325573 0 -41.1019
-1202.12 -0.376808 0 -28.8606
-1193.66 -0.338596 0 -28.7106
-400.35 -0.170147 0 -50.8157
-403.18 -0.221999 0 -50.8663
-1197.89 -0.35767 0 -28.7849
-797.186 -0.256219 0 -40.9499
-401.765 -0.196028 0 -50.8408
-802.833 -0.302375 0 -41.0502
-800.009 -0.279257 0 -40.9996
-1193.66 -0.338596 0 -28.7106
-1185.2 -0.300645 0 -28.5665
-397.52 -0.118656 0 -50.7671
-400.35 -0.170147 0 -50.8157
-1189.43 -0.319588 0 -28.6378
-791.538 -0.210382 0 -40.8536
-398.935 -0.144356 0 -50.7912
-797.186 -0.256219 0 -40.9499
-794.362 -0.233261 0 -40.9012
-1185.2 -0.300645 0 -28.5665
-1176.74 -0.262948 0 -28.4284
-394.69 -0.0675249 0 -50.7205
-397.52 -0.118656 0 -50.7671
-1180.97 -0.281765 0 -28.4967
-785.891 -0.16486 0 -40.7612
-396.105 -0.0930454 0 -50.7436
-791.538 -0.210382 0 -40.8536
-788.715 -0.187582 0 -40.8069
-1176.74 -0.262948 0 -28.4284
-1168.28 -0.225503 0 -28.2961
-391.861 -0.0167526 0 -50.6759
-394.69 -0.0675249 0 -50.7205
-1172.51 -0.244194 0 -28.3615
-780.244 -0.119652 0 -40.6727
-393.276 -0.042094 0 -50.6979
-785.891 -0.16486 0 -40.7612
-783.067 -0.142217 0 -40.7165
-1168.28 -0.225503 0 -28.2961
-1159.81 -0.188306 0 -28.1697
-389.031 0.0336621 0 -50.6331
-391.861 -0.0167526 0 -50.6759
-1164.05 -0.206874 0 -28.2322
-774.597 -0.074754 0 -40.5881
-390.446 0.00849934 0 -50.6543
-780.244 -0.119652 0 -40.6727
-777.42 -0.0971644 0 -40.6299
-1159.81 -0.188306 0 -28.1697
-1151.35 -0.151352 0 -28.0491
-386.202 0.0837206 0 -50.5923
-389.031 0.0336621 0 -50.6331
-1155.58 -0.169798 0 -28.1087
-768.95 -0.0301639 0 -40.5074
-387.617 0.0587358 0 -50.6125
-774.597 -0.074754 0 -40.5881
-771.773 -0.0524207 0 -40.5473
-1151.35 -0.151352 0 -28.0491
-1142.89 -0.114638 0 -27.9342
-383.372 0.133424 0 -50.5535
-386.202 0.0837206 0 -50.5923
-1147.12 -0.132965 0 -27.9909
-763.303 0.0141208 0 -40.4305
-384.787 0.108617 0 -50.5727
-768.95 -0.0301639 0 -40.5074
-766.126 -0.00798353 0 -40.4685
-1142.89 -0.114638 0 -27.9342
-1134.43 -0.0781599 0 -27.825
-380.543 0.182774 0 -50.5165
-383.372 0.133424 0 -50.5535
-1138.66 -0.0963695 0 -27.8789
-757.656 0.0581027 0 -40.3574
-381.958 0.158143 0 -50.5348
-763.303 0.0141208 0 -40.4305
-760.479 0.0361495 0 -40.3935
-1134.43 -0.0781599 0 -27.825
-1125.97 -0.0419146 0 -27.7215
-377.714 0.231771 0 -50.4814
-380.543 0.182774 0 -50.5165
-1130.2 -0.0600084 0 -27.7726
-752.009 0.101784 0 -40.2881
-379.129 0.207316 0 -50.4987
-757.656 0.0581027 0 -40.3574
-754.833 0.0799808 0 -40.3223
-1125.97 -0.0419146 0 -27.7215
-1117.51 -0.00589831 0 -27.6236
-374.885 0.280416 0 -50.4482
-377.714 0.231771 0 -50.4814
-1121.74 -0.023878 0 -27.6719
-746.363 0.145167 0 -40.2226
-376.299 0.256138 0 -50.4646
-752.009 0.101784 0 -40.2881
-749.186 0.123513 0 -40.2549
-1117.51 -0.00589832 0 -27.6236
-1109.05 0.0298923 0 -27.5313
-372.056 0.328712 0 -50.4169
-374.885 0.280416 0 -50.4482
-1113.28 0.012025 0 -27.5768
-740.716 0.188254 0 -40.1607
-373.47 0.304608 0 -50.4323
-746.363 0.145167 0 -40.2226
-743.539 0.166747 0 -40.1912
-1109.05 0.0298923 0 -27.5313
-1100.58 0.0654604 0 -27.4446
-369.227 0.376657 0 -50.3873
-372.056 0.328712 0 -50.4169
-1104.81 0.047704 0 -27.4873
-735.07 0.231047 0 -40.1026
-370.641 0.352728 0 -50.4019
-740.716 0.188254 0 -40.1607
-737.893 0.209687 0 -40.1312
-1100.58 0.0654604 0 -27.4446
-1092.12 0.100809 0 -27.3633
-366.398 0.424255 0 -50.3597
-369.227 0.376657 0 -50.3873
-1096.35 0.0831622 0 -27.4033
-729.424 0.273549 0 -40.0481
-367.813 0.4005 0 -50.3733
-735.07 0.231047 0 -40.1026
-732.247 0.252335 0 -40.0749
-1092.12 0.100809 0 -27.3633
-1083.66 0.135943 0 -27.2875
-363.57 0.471505 0 -50.3338
-366.398 0.424255 0 -50.3597
-1087.89 0.118403 0 -27.3248
-723.777 0.315761 0 -39.9973
-364.984 0.447923 0 -50.3465
-729.424 0.273549 0 -40.0481
-726.6 0.294691 0 -40.0222
-1083.66 0.135943 0 -27.2875
-1075.2 0.170863 0 -27.2171
-360.741 0.518409 0 -50.3098
-363.57 0.471505 0 -50.3338
-1079.43 0.153429 0 -27.2517
-718.131 0.357685 0 -39.9501
-362.155 0.495 0 -50.3216
-723.777 0.315761 0 -39.9973
-720.954 0.336759 0 -39.9732
-1075.2 0.170863 0 -27.2171
-1066.74 0.205572 0 -27.1521
-357.912 0.564967 0 -50.2875
-360.741 0.518409 0 -50.3098
-1070.97 0.188244 0 -27.184
-712.485 0.399324 0 -39.9064
-359.327 0.541731 0 -50.2984
-718.131 0.357685 0 -39.9501
-715.308 0.37854 0 -39.9278
-1066.74 0.205572 0 -27.1521
-1058.28 0.240075 0 -27.0925
-355.084 0.611181 0 -50.267
-357.912 0.564967 0 -50.2875
-1062.51 0.22285 0 -27.1216
-706.84 0.440679 0 -39.8663
-356.498 0.588117 0 -50.277
-712.485 0.399324 0 -39.9064
-709.662 0.420037 0 -39.8859
-1058.28 0.240075 0 -27.0925
-1049.82 0.274374 0 -27.0381
-352.256 0.657051 0 -50.2483
-355.084 0.611181 0 -50.267
-1054.05 0.25725 0 -27.0646
-701.194 0.481752 0 -39.8298
-353.67 0.634159 0 -50.2574
-706.84 0.440679 0 -39.8663
-704.017 0.461251 0 -39.8476
-1049.82 0.274374 0 -27.0381
-1041.36 0.30847 0 -26.9889
-349.428 0.702579 0 -50.2313
-352.256 0.657051 0 -50.2483
-1045.59 0.291447 0 -27.0128
-695.548 0.522545 0 -39.7967
-350.842 0.679858 0 -50.2396
-701.194 0.481752 0 -39.8298
-698.371 0.502183 0 -39.8128
-1041.36 0.30847 0 -26.9889
-1032.9 0.342367 0 -26.945
-346.599 0.747765 0 -50.2161
-349.428 0.702579 0 -50.2313
-1037.13 0.325444 0 -26.9663
-689.903 0.563059 0 -39.7671
-348.013 0.725215 0 -50.2235
-695.548 0.522545 0 -39.7967
-692.726 0.542837 0 -39.7815
-1032.9 0.342367 0 -26.945
-1024.44 0.376068 0 -26.9062
-343.771 0.79261 0 -50.2025
-346.599 0.747765 0 -50.2161
-1028.67 0.359242 0 -26.925
-684.258 0.603297 0 -39.7409
-345.185 0.77023 0 -50.2091
-689.903 0.563059 0 -39.7671
-687.08 0.583213 0 -39.7536
-1024.44 0.376068 0 -26.9062
-1015.98 0.409575 0 -26.8725
-340.944 0.837114 0 -50.1907
-343.771 0.79261 0 -50.2025
-1020.21 0.392846 0 -26.8887
-678.612 0.643259 0 -39.7182
-342.358 0.814904 0 -50.1964
-684.258 0.603297 0 -39.7409
-681.435 0.623312 0 -39.7291
-1015.98 0.409575 0 -26.8725
-1007.52 0.442889 0 -26.844
-338.116 0.881279 0 -50.1806
-340.944 0.837114 0 -50.1907
-1011.75 0.426256 0 -26.8576
-672.967 0.682948 0 -39.6988
-339.53 0.859239 0 -50.1854
-678.612 0.643259 0 -39.7182
-675.79 0.663138 0 -39.7081
-1007.52 0.442889 0 -26.844
-999.059 0.476014 0 -26.8204
-335.288 0.925105 0 -50.1721
-338.116 0.881279 0 -50.1806
-1003.29 0.459475 0 -26.8316
-667.322 0.722364 0 -39.6828
-336.702 0.903234 0 -50.1762
-672.967 0.682948 0 -39.6988
-670.145 0.70269 0 -39.6904
-999.059 0.476014 0 -26.8204
-990.599 0.508952 0 -26.8019
-332.461 0.968593 0 -50.1654
-335.288 0.925105 0 -50.1721
-994.829 0.492506 0 -26.8105
-661.678 0.76151 0 -39.6702
-333.874 0.946891 0 -50.1685
-667.322 0.722364 0 -39.6828
-664.5 0.741971 0 -39.6761
-990.599 0.508952 0 -26.8019
-982.14 0.541704 0 -26.7883
-329.633 1.01174 0 -50.1602
-332.461 0.968593 0 -50.1654
-986.37 0.525351 0 -26.7944
-656.033 0.800387 0 -39.6608
-331.047 0.99021 0 -50.1626
-661.678 0.76151 0 -39.6702
-658.855 0.780982 0 -39.6651
-982.14 0.541704 0 -26.7883
-973.68 0.574272 0 -26.7796
-326.806 1.05456 0 -50.1567
-329.633 1.01174 0 -50.1602
-977.91 0.558011 0 -26.7833
-650.388 0.838995 0 -39.6547
-328.22 1.03319 0 -50.1583
-656.033 0.800387 0 -39.6608
-653.211 0.819724 0 -39.6573
-973.68 0.574272 0 -26.7796
-965.221 0.606659 0 -26.7757
-323.979 1.09703 0 -50.1549
-326.806 1.05456 0 -50.1567
-969.451 0.590488 0 -26.777
-644.744 0.877336 0 -39.6518
-325.392 1.07584 0 -50.1556
-650.388 0.838995 0 -39.6547
-647.566 0.858199 0 -39.6529
-965.221 0.606659 0 -26.7757
-956.762 0.638867 0 -26.7767
-321.152 1.13918 0 -50.1546
-323.979 1.09703 0 -50.1549
-960.992 0.622785 0 -26.7756
-639.1 0.915412 0 -39.6522
-322.565 1.11815 0 -50.1545
-644.744 0.877336 0 -39.6518
-641.922 0.896407 0 -39.6516
-956.762 0.638867 0 -26.7767
-948.303 0.670896 0 -26.7825
-318.325 1.18098 0 -50.1559
-321.152 1.13918 0 -50.1546
-952.533 0.654904 0 -26.779
-633.456 0.953224 0 -39.6557
-319.738 1.16012 0 -50.1551
-639.1 0.915412 0 -39.6522
-636.278 0.934351 0 -39.6536
-948.303 0.670896 0 -26.7825
-939.845 0.70275 0 -26.793
-315.498 1.22245 0 -50.1588
-318.325 1.18098 0 -50.1559
-944.074 0.686845 0 -26.7872
-627.812 0.990772 0 -39.6625
-316.911 1.20176 0 -50.1572
-633.456 0.953224 0 -39.6557
-630.634 0.972031 0 -39.6587
-939.845 0.70275 0 -26.793
-931.386 0.734428 0 -26.8082
-312.671 1.26359 0 -50.1633
-315.498 1.22245 0 -50.1588
-935.615 0.718611 0 -26.8
-622.168 1.02806 0 -39.6723
-314.084 1.24306 0 -50.1609
-627.812 0.990772 0 -39.6625
-624.99 1.00945 0 -39.667
-931.386 0.734428 0 -26.8082
-922.928 0.765934 0 -26.8281
-309.844 1.3044 0 -50.1693
-312.671 1.26359 0 -50.1633
-927.157 0.750203 0 -26.8176
-616.524 1.06508 0 -39.6853
-311.258 1.28404 0 -50.1661
-622.168 1.02806 0 -39.6723
-619.346 1.0466 0 -39.6784
-922.928 0.765934 0 -26.8281
-914.469 0.797268 0 -26.8526
-307.018 1.34487 0 -50.1769
-309.844 1.3044 0 -50.1693
-918.698 0.781622 0 -26.8398
-610.881 1.10185 0 -39.7013
-308.431 1.32467 0 -50.1729
-616.524 1.06508 0 -39.6853
-613.702 1.0835 0 -39.6929
-914.469 0.797268 0 -26.8526
-906.011 0.828432 0 -26.8816
-304.191 1.38501 0 -50.186
-307.018 1.34487 0 -50.1769
-910.24 0.812871 0 -26.8665
-605.237 1.13835 0 -39.7203
-305.605 1.36498 0 -50.1813
-610.881 1.10185 0 -39.7013
-608.059 1.12013 0 -39.7104
-906.011 0.828432 0 -26.8816
-897.553 0.859426 0 -26.9152
-301.365 1.42481 0 -50.1966
-304.191 1.38501 0 -50.186
-901.782 0.84395 0 -26.8978
-599.594 1.1746 0 -39.7424
-302.778 1.40495 0 -50.1911
-605.237 1.13835 0 -39.7203
-602.416 1.15651 0 -39.731
-897.553 0.859426 0 -26.9152
-889.095 0.890253 0 -26.9533
-298.539 1.46429 0 -50.2087
-301.365 1.42481 0 -50.1966
-893.324 0.874861 0 -26.9337
-593.951 1.21059 0 -39.7675
-299.952 1.44459 0 -50.2025
-599.594 1.1746 0 -39.7424
-596.772 1.19262 0 -39.7546
-889.095 0.890253 0 -26.9533
-880.638 0.920914 0 -26.9958
-295.713 1.50343 0 -50.2223
-298.539 1.46429 0 -50.2087
-884.866 0.905604 0 -26.974
-588.308 1.24632 0 -39.7956
-297.126 1.4839 0 -50.2153
-593.951 1.21059 0 -39.7675
-591.129 1.22848 0 -39.7812
-880.638 0.920914 0 -26.9958
-872.18 0.951409 0 -27.0427
-292.887 1.54224 0 -50.2373
-295.713 1.50343 0 -50.2223
-876.409 0.936182 0 -27.0187
-582.665 1.28179 0 -39.8265
-294.3 1.52288 0 -50.2296
-588.308 1.24632 0 -39.7956
-585.487 1.26409 0 -39.8107
-872.18 0.951409 0 -27.0427
-863.723 0.981739 0 -27.0939
-290.061 1.58072 0 -50.2539
-292.887 1.54224 0 -50.2373
-867.951 0.966594 0 -27.0678
-577.023 1.31701 0 -39.8604
-291.474 1.56152 0 -50.2454
-582.665 1.28179 0 -39.8265
-579.844 1.29944 0 -39.8431
-863.723 0.981739 0 -27.0939
-855.266 1.01191 0 -27.1495
-287.235 1.61887 0 -50.2718
-290.061 1.58072 0 -50.2539
-859.494 0.996843 0 -27.1212
-571.38 1.35198 0 -39.8972
-288.648 1.59984 0 -50.2627
-577.023 1.31701 0 -39.8604
-574.201 1.33453 0 -39.8785
-855.266 1.01191 0 -27.1495
-846.809 1.04191 0 -27.2094
-284.41 1.65669 0 -50.2912
-287.235 1.61887 0 -50.2718
-851.037 1.02693 0 -27.1789
-565.738 1.38669 0 -39.9368
-285.822 1.63782 0 -50.2813
-571.38 1.35198 0 -39.8972
-568.559 1.36936 0 -39.9167
-846.809 1.04191 0 -27.2094
-838.352 1.07175 0 -27.2735
-281.584 1.69418 0 -50.312
-284.41 1.65669 0 -50.2912
-842.58 1.05685 0 -27.2409
-560.096 1.42114 0 -39.9793
-282.997 1.67548 0 -50.3014
-565.738 1.38669 0 -39.9368
-562.917 1.40395 0 -39.9577
-838.352 1.07175 0 -27.2735
-829.895 1.10143 0 -27.3418
-278.759 1.73134 0 -50.3342
-281.584 1.69418 0 -50.312
-834.123 1.08661 0 -27.3071
-554.453 1.45535 0 -40.0245
-280.172 1.7128 0 -50.3229
-560.096 1.42114 0 -39.9793
-557.274 1.43828 0 -40.0015
-829.895 1.10143 0 -27.3418
-821.438 1.13095 0 -27.4142
-275.934 1.76817 0 -50.3577
-278.759 1.73134 0 -50.3342
-825.667 1.11621 0 -27.3775
-548.812 1.4893 0 -40.0725
-277.346 1.7498 0 -50.3458
-554.453 1.45535 0 -40.0245
-551.633 1.47235 0 -40.0482
-821.438 1.13095 0 -27.4142
-812.982 1.16031 0 -27.4907
-273.109 1.80467 0 -50.3827
-275.934 1.76817 0 -50.3577
-817.21 1.14565 0 -27.4519
-543.17 1.52299 0 -40.1233
-274.521 1.78646 0 -50.37
-548.812 1.4893 0 -40.0725
-545.991 1.50618 0 -40.0975
-812.982 1.16031 0 -27.4907
-804.526 1.18951 0 -27.5713
-270.284 1.84084 0 -50.409
-273.109 1.80467 0 -50.3827
-808.754 1.17493 0 -27.5305
-537.528 1.55644 0 -40.1767
-271.696 1.8228 0 -50.3957
-543.17 1.52299 0 -40.1233
-540.349 1.53975 0 -40.1496
-804.526 1.18951 0 -27.5713
-796.07 1.21855 0 -27.6559
-267.459 1.87669 0 -50.4366
-270.284 1.84084 0 -50.409
-800.298 1.20405 0 -27.6131
-531.887 1.58963 0 -40.2328
-268.871 1.85881 0 -50.4226
-537.528 1.55644 0 -40.1767
-534.708 1.57307 0 -40.2044
-796.07 1.21855 0 -27.6559
-787.614 1.24744 0 -27.7445
-264.634 1.9122 0 -50.4656
-267.459 1.87669 0 -50.4366
-791.842 1.23301 0 -27.6997
-526.246 1.62257 0 -40.2916
-266.046 1.89448 0 -50.4509
-531.887 1.58963 0 -40.2328
-529.066 1.60613 0 -40.2619
-787.614 1.24744 0 -27.7445
-779.158 1.27616 0 -27.8371
-261.809 1.94738 0 -50.4959
-264.634 1.9122 0 -50.4656
-783.386 1.26182 0 -27.7903
-520.604 1.65526 0 -40.3531
-263.222 1.92983 0 -50.4806
-526.246 1.62257 0 -40.2916
-523.425 1.63895 0 -40.322
-779.158 1.27616 0 -27.8371
-770.703 1.30473 0 -27.9335
-258.985 1.98224 0 -50.5275
-261.809 1.94738 0 -50.4959
-774.931 1.29046 0 -27.8848
-514.963 1.6877 0 -40.4171
-260.397 1.96485 0 -50.5115
-520.604 1.65526 0 -40.3531
-517.784 1.67151 0 -40.3847
-770.703 1.30473 0 -27.9335
-762.247 1.33313 0 -28.0338
-256.16 2.01676 0 -50.5604
-258.985 1.98224 0 -50.5275
-766.475 1.31895 0 -27.9832
-509.323 1.71988 0 -40.4837
-257.573 1.99954 0 -50.5438
-514.963 1.6877 0 -40.4171
-512.143 1.70382 0 -40.45
-762.247 1.33313 0 -28.0338
-753.792 1.36138 0 -28.1379
-253.336 2.05096 0 -50.5945
-256.16 2.01676 0 -50.5604
-758.02 1.34728 0 -28.0854
-503.682 1.75182 0 -40.5528
-254.748 2.0339 0 -50.5773
-509.323 1.71988 0 -40.4837
-506.502 1.73588 0 -40.5179
-753.792 1.36138 0 -28.1379
-745.337 1.38948 0 -28.2457
-250.512 2.08483 0 -50.6299
-253.336 2.05096 0 -50.5945
-749.565 1.37545 0 -28.1914
-498.041 1.7835 0 -40.6244
-251.924 2.06794 0 -50.6121
-503.682 1.75182 0 -40.5528
-500.862 1.76769 0 -40.5883
-745.337 1.38948 0 -28.2457
-736.882 1.41741 0 -28.3573
-247.688 2.11837 0 -50.6666
-250.512 2.08483 0 -50.6299
-741.11 1.40346 0 -28.3011
-492.401 1.81493 0 -40.6986
-249.1 2.10164 0 -50.6481
-498.041 1.7835 0 -40.6244
-495.221 1.79925 0 -40.6612
-736.882 1.41741 0 -28.3573
-728.428 1.44519 0 -28.4726
-244.864 2.15158 0 -50.7045
-247.688 2.11837 0 -50.6666
-732.655 1.43132 0 -28.4145
-486.761 1.84611 0 -40.7751
-246.276 2.13501 0 -50.6854
-492.401 1.81493 0 -40.6986
-489.581 1.83055 0 -40.7365
-728.428 1.44519 0 -28.4726
-719.973 1.47281 0 -28.5915
-242.04 2.18446 0 -50.7436
-244.864 2.15158 0 -50.7045
-724.2 1.45902 0 -28.5316
-481.121 1.87704 0 -40.8542
-243.452 2.16806 0 -50.7239
-486.761 1.84611 0 -40.7751
-483.941 1.86161 0 -40.8143
-719.973 1.47281 0 -28.5915
-711.519 1.50027 0 -28.714
-239.216 2.21701 0 -50.7839
-242.04 2.18446 0 -50.7436
-715.746 1.48656 0 -28.6523
-475.481 1.90772 0 -40.9356
-240.628 2.20077 0 -50.7636
-481.121 1.87704 0 -40.8542
-478.301 1.89241 0 -40.8946
-711.519 1.50027 0 -28.714
-703.065 1.52757 0 -28.8401
-236.393 2.24923 0 -50.8254
-239.216 2.21701 0 -50.7839
-707.292 1.51394 0 -28.7766
-469.841 1.93814 0 -41.0194
-237.805 2.23316 0 -50.8045
-475.481 1.90772 0 -40.9356
-472.661 1.92296 0 -40.9772
-703.065 1.52757 0 -28.8401
-694.611 1.55471 0 -28.9697
-233.569 2.28112 0 -50.8681
-236.393 2.24923 0 -50.8254
-698.838 1.54116 0 -28.9045
-464.202 1.96832 0 -41.1055
-234.981 2.26522 0 -50.8466
-469.841 1.93814 0 -41.0194
-467.021 1.95326 0 -41.0621
-694.611 1.55471 0 -28.9697
-686.157 1.5817 0 -29.1027
-230.746 2.31269 0 -50.9119
-233.569 2.28112 0 -50.8681
-690.384 1.56822 0 -29.0358
-458.562 1.99824 0 -41.1939
-232.158 2.29695 0 -50.8898
-464.202 1.96832 0 -41.1055
-461.382 1.98331 0 -41.1494
-686.157 1.5817 0 -29.1027
-677.703 1.60852 0 -29.2392
-227.923 2.34392 0 -50.9569
-230.746 2.31269 0 -50.9119
-681.93 1.59513 0 -29.1706
-452.923 2.02791 0 -41.2847
-229.335 2.32835 0 -50.9342
-458.562 1.99824 0 -41.1939
-455.743 2.0131 0 -41.239
-677.703 1.60852 0 -29.2392
-669.249 1.63518 0 -29.3791
-225.1 2.37483 0 -51.003
-227.923 2.34392 0 -50.9569
-673.476 1.62187 0 -29.3088
-447.284 2.05732 0 -41.3777
-226.511 2.35942 0 -50.9798
-452.923 2.02791 0 -41.2847
-450.103 2.04265 0 -41.3309
-669.249 1.63518 0 -29.3791
-660.796 1.66169 0 -29.5223
-222.277 2.4054 0 -51.0502
-225.1 2.37483 0 -51.003
-665.023 1.64846 0 -29.4503
-441.645 2.08648 0 -41.4729
-223.688 2.39015 0 -51.0265
-447.284 2.05732 0 -41.3777
-444.464 2.07194 0 -41.425
-660.796 1.66169 0 -29.5223
-652.343 1.68803 0 -29.6689
-219.454 2.43564 0 -51.0986
-222.277 2.4054 0 -51.0502
-656.569 1.67488 0 -29.5952
-436.006 2.11539 0 -41.5704
-220.866 2.42056 0 -51.0743
-441.645 2.08648 0 -41.4729
-438.825 2.10097 0 -41.5214
-652.343 1.68803 0 -29.6689
-643.89 1.71421 0 -29.8186
-216.631 2.46556 0 -51.148
-219.454 2.43564 0 -51.0986
-648.116 1.70114 0 -29.7433
-430.367 2.14405 0 -41.67
-218.043 2.45064 0 -51.1232
-436.006 2.11539 0 -41.5704
-433.187 2.12975 0 -41.6199
-643.89 1.71421 0 -29.8186
-635.437 1.74023 0 -29.9716
-213.809 2.49514 0 -51.1985
-216.631 2.46556 0 -51.148
-639.663 1.72724 0 -29.8947
-424.729 2.17245 0 -41.7717
-215.22 2.48039 0 -51.1731
-430.367 2.14405 0 -41.67
-427.548 2.15828 0 -41.7206
-635.437 1.74023 0 -29.9716
-626.984 1.76608 0 -30.1278
-210.986 2.52439 0 -51.2501
-213.809 2.49514 0 -51.1985
-631.211 1.75318 0 -30.0493
-419.09 2.20059 0 -41.8756
-212.398 2.50981 0 -51.2242
-424.729 2.17245 0 -41.7717
-421.91 2.18655 0 -41.8234
-626.984 1.76608 0 -30.1278
-618.532 1.79177 0 -30.2871
-208.164 2.55331 0 -51.3027
-210.986 2.52439 0 -51.2501
-622.758 1.77895 0 -30.2071
-413.452 2.22848 0 -41.9816
-209.575 2.53889 0 -51.2763
-419.09 2.20059 0 -41.8756
-416.271 2.21457 0 -41.9284
-618.532 1.79177 0 -30.2871
-610.079 1.8173 0 -30.4496
-205.342 2.5819 0 -51.3564
-208.164 2.55331 0 -51.3027
-614.305 1.80456 0 -30.368
-407.814 2.25611 0 -42.0897
-206.753 2.56765 0 -51.3294
-413.452 2.22848 0 -41.9816
-410.633 2.24233 0 -42.0354
-610.079 1.8173 0 -30.4496
-601.627 1.84266 0 -30.615
-202.52 2.61015 0 -51.4111
-205.342 2.5819 0 -51.3564
-605.853 1.83 0 -30.5319
-402.176 2.28349 0 -42.1997
-203.931 2.59607 0 -51.3836
-407.814 2.25611 0 -42.0897
-404.995 2.26984 0 -42.1444
-601.627 1.84266 0 -30.615
-593.175 1.86785 0 -30.7835
-199.698 2.63808 0 -51.4668
-202.52 2.61015 0 -51.4111
-597.401 1.85527 0 -30.6989
-396.538 2.31061 0 -42.3118
-201.109 2.62416 0 -51.4388
-402.176 2.28349 0 -42.1997
-399.357 2.29708 0 -42.2555
-593.175 1.86785 0 -30.7835
-584.723 1.89287 0 -30.9549
-196.876 2.66567 0 -51.5234
-199.698 2.63808 0 -51.4668
-588.949 1.88038 0 -30.8688
-390.901 2.33747 0 -42.4259
-198.287 2.65192 0 -51.495
-396.538 2.31061 0 -42.3118
-393.72 2.32407 0 -42.3686
-584.723 1.89287 0 -30.9549
-576.271 1.91773 0 -31.1293
-194.054 2.69293 0 -51.5811
-196.876 2.66567 0 -51.5234
-580.497 1.90532 0 -31.0417
-385.263 2.36407 0 -42.5419
-195.465 2.67934 0 -51.5522
-390.901 2.33747 0 -42.4259
-388.082 2.3508 0 -42.4837
-576.271 1.91773 0 -31.1293
-567.819 1.94242 0 -31.3065
-191.232 2.71985 0 -51.6397
-194.054 2.69293 0 -51.5811
-572.045 1.93009 0 -31.2175
-379.626 2.39041 0 -42.6599
-192.643 2.70643 0 -51.6103
-385.263 2.36407 0 -42.5419
-382.445 2.37727 0 -42.6006
-567.819 1.94242 0 -31.3065
-559.368 1.96693 0 -31.4866
-188.411 2.74645 0 -51.6993
-191.232 2.71985 0 -51.6397
-563.594 1.95469 0 -31.3962
-373.989 2.41649 0 -42.7797
-189.821 2.73319 0 -51.6694
-379.626 2.39041 0 -42.6599
-376.807 2.40349 0 -42.7195
-559.368 1.96693 0 -31.4866
-550.917 1.99127 0 -31.6695
-185.589 2.7727 0 -51.7598
-188.411 2.74645 0 -51.6993
-555.142 1.97912 0 -31.5777
-368.352 2.44231 0 -42.9014
-187 2.75962 0 -51.7295
-373.989 2.41649 0 -42.7797
-371.17 2.42944 0 -42.8403
-550.917 1.99127 0 -31.6695
-542.465 2.01544 0 -31.8551
-182.768 2.79863 0 -51.8213
-185.589 2.7727 0 -51.7598
-546.691 2.00338 0 -31.762
-362.715 2.46787 0 -43.0249
-184.179 2.78571 0 -51.7904
-368.352 2.44231 0 -42.9014
-365.533 2.45513 0 -42.9629
-542.465 2.01544 0 -31.8551
-534.014 2.03943 0 -32.0435
-179.947 2.82421 0 -51.8836
-182.768 2.79863 0 -51.8213
-538.24 2.02746 0 -31.9489
-357.078 2.49317 0 -43.1503
-181.357 2.81146 0 -51.8523
-362.715 2.46787 0 -43.0249
-359.896 2.48055 0 -43.0874
-534.014 2.03943 0 -32.0435
-525.563 2.06325 0 -32.2345
-177.126 2.84946 0 -51.9469
-179.947 2.82421 0 -51.8836
-529.789 2.05136 0 -32.1386
-351.441 2.5182 0 -43.2774
-178.536 2.83688 0 -51.9152
-357.078 2.49317 0 -43.1503
-354.26 2.50572 0 -43.2136
-525.563 2.06325 0 -32.2345
-517.113 2.08689 0 -32.4281
-174.305 2.87438 0 -52.011
-177.126 2.84946 0 -51.9469
-521.338 2.07509 0 -32.331
-345.805 2.54296 0 -43.4063
-175.715 2.86196 0 -51.9788
-351.441 2.5182 0 -43.2774
-348.623 2.53061 0 -43.3417
-517.113 2.08689 0 -32.4281
-508.662 2.11035 0 -32.6243
-171.484 2.89896 0 -52.076
-174.305 2.87438 0 -52.011
-512.887 2.09864 0 -32.5259
-340.168 2.56747 0 -43.537
-172.894 2.88671 0 -52.0434
-345.805 2.54296 0 -43.4063
-342.987 2.55525 0 -43.4714
-508.662 2.11035 0 -32.6243
-500.211 2.13363 0 -32.8231
-168.663 2.9232 0 -52.1419
-171.484 2.89896 0 -52.076
-504.437 2.12201 0 -32.7234
-334.532 2.5917 0 -43.6693
-170.073 2.91112 0 -52.1088
-340.168 2.56747 0 -43.537
-337.35 2.57962 0 -43.6029
-500.211 2.13363 0 -32.8231
-491.761 2.15673 0 -33.0244
-165.842 2.94711 0 -52.2086
-168.663 2.9232 0 -52.1419
-495.986 2.1452 0 -32.9234
-328.896 2.61567 0 -43.8033
-167.253 2.9352 0 -52.1751
-334.532 2.5917 0 -43.6693
-331.714 2.60372 0 -43.7361
-491.761 2.15673 0 -33.0244
-483.311 2.17964 0 -33.2281
-163.022 2.97067 0 -52.2761
-165.842 2.94711 0 -52.2086
-487.536 2.16821 0 -33.126
-323.26 2.63936 0 -43.9389
-164.432 2.95893 0 -52.2422
-328.896 2.61567 0 -43.8033
-326.078 2.62755 0 -43.8709
-483.311 2.17964 0 -33.2281
-474.861 2.20237 0 -33.4343
-160.201 2.9939 0 -52.3444
-163.022 2.97067 0 -52.2761
-479.086 2.19103 0 -33.3309
-317.624 2.66279 0 -44.0762
-161.612 2.98233 0 -52.3101
-323.26 2.63936 0 -43.9389
-320.442 2.65111 0 -44.0073
-474.861 2.20237 0 -33.4343
-466.411 2.22491 0 -33.6428
-157.381 3.01679 0 -52.4135
-160.201 2.9939 0 -52.3444
-470.636 2.21366 0 -33.5382
-311.989 2.68595 0 -44.215
-158.791 3.00539 0 -52.3789
-317.624 2.66279 0 -44.0762
-314.806 2.6744 0 -44.1454
-466.411 2.22491 0 -33.6428
-457.961 2.24726 0 -33.8537
-154.561 3.03934 0 -52.4834
-157.381 3.01679 0 -52.4135
-462.186 2.23611 0 -33.7479
-306.353 2.70883 0 -44.3554
-155.971 3.02811 0 -52.4484
-311.989 2.68595 0 -44.215
-309.171 2.69742 0 -44.285
-457.961 2.24726 0 -33.8537
-449.511 2.26942 0 -34.0668
-151.741 3.06155 0 -52.5541
-154.561 3.03934 0 -52.4834
-453.736 2.25837 0 -33.96
-300.717 2.73144 0 -44.4973
-153.151 3.05049 0 -52.5187
-306.353 2.70883 0 -44.3554
-303.535 2.72017 0 -44.4262
-449.511 2.26942 0 -34.0668
-441.062 2.29139 0 -34.2822
-148.921 3.08342 0 -52.6256
-151.741 3.06155 0 -52.5541
-445.286 2.28043 0 -34.1742
-295.082 2.75378 0 -44.6407
-150.331 3.07253 0 -52.5897
-300.717 2.73144 0 -44.4973
-297.9 2.74264 0 -44.5688
-441.062 2.29139 0 -34.2822
-432.612 2.31317 0 -34.4998
-146.101 3.10495 0 -52.6977
-148.921 3.08342 0 -52.6256
-436.837 2.30231 0 -34.3907
-289.447 2.77584 0 -44.7856
-147.511 3.09423 0 -52.6616
-295.082 2.75378 0 -44.6407
-292.265 2.76484 0 -44.713
-432.612 2.31317 0 -34.4998
-424.163 2.33475 0 -34.7196
-143.281 3.12613 0 -52.7706
-146.101 3.10495 0 -52.6977
-428.388 2.32399 0 -34.6094
-283.812 2.79762 0 -44.932
-144.691 3.11558 0 -52.7341
-289.447 2.77584 0 -44.7856
-286.629 2.78677 0 -44.8586
-424.163 2.33475 0 -34.7196
-415.714 2.35614 0 -34.9415
-140.461 3.14697 0 -52.8443
-143.281 3.12613 0 -52.7706
-419.938 2.34547 0 -34.8303
-278.177 2.81913 0 -45.0797
-141.871 3.13659 0 -52.8074
-283.812 2.79762 0 -44.932
-280.994 2.80841 0 -45.0057
-415.714 2.35614 0 -34.9415
-407.265 2.37732 0 -35.1655
-137.642 3.16747 0 -52.9186
-140.461 3.14697 0 -52.8443
-411.489 2.36675 0 -35.0532
-272.542 2.84036 0 -45.2289
-139.052 3.15727 0 -52.8813
-278.177 2.81913 0 -45.0797
-275.36 2.82978 0 -45.1541
-407.265 2.37732 0 -35.1655
-398.816 2.3983 0 -35.3915
-134.822 3.18763 0 -52.9936
-137.642 3.16747 0 -52.9186
-403.04 2.38784 0 -35.2782
-266.907 2.8613 0 -45.3794
-136.232 3.17759 0 -52.956
-272.542 2.84036 0 -45.2289
-269.725 2.85087 0 -45.304
-398.816 2.3983 0 -35.3915
-390.367 2.41908 0 -35.6195
-132.003 3.20744 0 -53.0693
-134.822 3.18763 0 -52.9936
-394.591 2.40872 0 -35.5052
-261.273 2.88197 0 -45.5313
-133.413 3.19757 0 -53.0313
-266.907 2.8613 0 -45.3794
-264.09 2.87167 0 -45.4552
-390.367 2.41908 0 -35.6195
-381.918 2.43966 0 -35.8494
-129.184 3.2269 0 -53.1456
-132.003 3.20744 0 -53.0693
-386.142 2.42939 0 -35.7342
-255.638 2.90235 0 -45.6844
-130.593 3.21721 0 -53.1073
-261.273 2.88197 0 -45.5313
-258.456 2.89219 0 -45.6077
-381.918 2.43966 0 -35.8494
-373.469 2.46002 0 -36.0813
-126.365 3.24602 0 -53.2226
-129.184 3.2269 0 -53.1456
-377.694 2.44986 0 -35.9651
-250.004 2.92245 0 -45.8389
-127.774 3.2365 0 -53.184
-255.638 2.90235 0 -45.6844
-252.821 2.91243 0 -45.7615
-373.469 2.46002 0 -36.0813
-365.021 2.48018 0 -36.315
-123.546 3.26479 0 -53.3002
-126.365 3.24602 0 -53.2226
-369.245 2.47013 0 -36.1979
-244.37 2.94226 0 -45.9945
-124.955 3.25545 0 -53.2613
-250.004 2.92245 0 -45.8389
-247.187 2.93239 0 -45.9165
-365.021 2.48018 0 -36.315
-356.572 2.50013 0 -36.5506
-120.727 3.28322 0 -53.3784
-123.546 3.26479 0 -53.3002
-360.797 2.49018 0 -36.4326
-238.736 2.96178 0 -46.1514
-122.136 3.27405 0 -53.3392
-244.37 2.94226 0 -45.9945
-241.553 2.95205 0 -46.0728
-356.572 2.50013 0 -36.5506
-348.124 2.51986 0 -36.7879
-117.908 3.30129 0 -53.4572
-120.727 3.28322 0 -53.3784
-352.348 2.51002 0 -36.6691
-233.102 2.98101 0 -46.3095
-119.317 3.2923 0 -53.4177
-238.736 2.96178 0 -46.1514
-235.919 2.97143 0 -46.2303
-348.124 2.51986 0 -36.7879
-339.676 2.53937 0 -37.027
-115.089 3.31902 0 -53.5366
-117.908 3.30129 0 -53.4572
-343.9 2.52964 0 -36.9073
-227.468 2.99996 0 -46.4688
-116.498 3.3102 0 -53.4968
-233.102 2.98101 0 -46.3095
-230.285 2.99052 0 -46.389
-339.676 2.53937 0 -37.027
-331.228 2.55867 0 -37.2678
-112.27 3.3364 0 -53.6166
-115.089 3.31902 0 -53.5366
-335.452 2.54905 0 -37.1472
-221.834 3.01861 0 -46.6292
-113.68 3.32775 0 -53.5765
-227.468 2.99996 0 -46.4688
-224.651 3.00932 0 -46.5489
-331.228 2.55867 0 -37.2678
-322.779 2.57775 0 -37.5103
-109.452 3.35343 0 -53.6972
-112.27 3.3364 0 -53.6166
-327.004 2.56824 0 -37.3889
-216.2 3.03697 0 -46.7907
-110.861 3.34496 0 -53.6568
-221.834 3.01861 0 -46.6292
-219.017 3.02783 0 -46.7098
-322.779 2.57775 0 -37.5103
-314.332 2.59661 0 -37.7543
-106.633 3.3701 0 -53.7782
-109.452 3.35343 0 -53.6972
-318.555 2.58721 0 -37.6321
-210.566 3.05504 0 -46.9533
-108.043 3.36181 0 -53.7376
-216.2 3.03697 0 -46.7907
-213.383 3.04604 0 -46.8719
-314.332 2.59661 0 -37.7543
-305.884 2.61524 0 -38
-103.815 3.38643 0 -53.8599
-106.633 3.3701 0 -53.7782
-310.108 2.60595 0 -37.877
-204.933 3.0728 0 -47.1169
-105.224 3.37831 0 -53.819
-210.566 3.05504 0 -46.9533
-207.75 3.06396 0 -47.035
-305.884 2.61524 0 -38
-297.436 2.63364 0 -38.2472
-100.997 3.4024 0 -53.942
-103.815 3.38643 0 -53.8599
-301.66 2.62447 0 -38.1234
-199.3 3.09027 0 -47.2816
-102.406 3.39446 0 -53.9009
-204.933 3.0728 0 -47.1169
-202.116 3.08158 0 -47.1991
-297.436 2.63364 0 -38.2472
-288.988 2.65182 0 -38.4958
-98.1785 3.41801 0 -54.0246
-100.997 3.4024 0 -53.942
-293.212 2.64276 0 -38.3713
-193.666 3.10744 0 -47.4472
-99.5876 3.41025 0 -53.9833
-199.3 3.09027 0 -47.2816
-196.483 3.0989 0 -47.3643
-288.988 2.65182 0 -38.4958
-280.54 2.66976 0 -38.7459
-95.3604 3.43327 0 -54.1078
-98.1785 3.41801 0 -54.0246
-284.764 2.66082 0 -38.6207
-188.033 3.12431 0 -47.6139
-96.7694 3.42569 0 -54.0661
-193.666 3.10744 0 -47.4472
-190.85 3.11591 0 -47.5304
-280.54 2.66976 0 -38.7459
-272.093 2.68746 0 -38.9974
-92.5424 3.44818 0 -54.1914
-95.3604 3.43327 0 -54.1078
-276.317 2.67864 0 -38.8715
-182.4 3.14087 0 -47.7814
-93.9514 3.44077 0 -54.1495
-188.033 3.12431 0 -47.6139
-185.216 3.13263 0 -47.6975
-272.093 2.68746 0 -38.9974
-263.645 2.70493 0 -39.2503
-89.7245 3.46272 0 -54.2754
-92.5424 3.44818 0 -54.1914
-267.869 2.69623 0 -39.1237
-176.767 3.15713 0 -47.9499
-91.1334 3.45549 0 -54.2334
-182.4 3.14087 0 -47.7814
-179.583 3.14904 0 -47.8656
-263.645 2.70493 0 -39.2503
-255.198 2.72216 0 -39.5045
-86.9066 3.4769 0 -54.36
-89.7245 3.46272 0 -54.2754
-259.422 2.71357 0 -39.3772
-171.134 3.17307 0 -48.1193
-88.3155 3.46986 0 -54.3176
-176.767 3.15713 0 -47.9499
-173.95 3.16514 0 -48.0345
-255.198 2.72216 0 -39.5045
-246.751 2.73913 0 -39.7599
-84.0889 3.49072 0 -54.4449
-86.9066 3.4769 0 -54.36
-250.974 2.73068 0 -39.632
-165.501 3.1887 0 -48.2895
-85.4978 3.48386 0 -54.4024
-171.134 3.17307 0 -48.1193
-168.317 3.18093 0 -48.2043
-246.751 2.73913 0 -39.7599
-238.303 2.75586 0 -40.0166
-81.2712 3.50417 0 -54.5303
-84.0889 3.49072 0 -54.4449
-242.527 2.74753 0 -39.8881
-159.868 3.20402 0 -48.4605
-82.6801 3.49749 0 -54.4875
-165.501 3.1887 0 -48.2895
-162.685 3.1964 0 -48.3749
-238.303 2.75586 0 -40.0166
-229.856 2.77234 0 -40.2745
-78.4536 3.51725 0 -54.616
-81.2712 3.50417 0 -54.5303
-234.08 2.76414 0 -40.1454
-154.236 3.21902 0 -48.6323
-79.8624 3.51076 0 -54.5731
-159.868 3.20402 0 -48.4605
-157.052 3.21156 0 -48.5463
-229.856 2.77234 0 -40.2745
-221.409 2.78857 0 -40.5335
-75.6361 3.52997 0 -54.7022
-78.4536 3.51725 0 -54.616
-225.632 2.78049 0 -40.4039
-148.603 3.2337 0 -48.8049
-77.0449 3.52366 0 -54.659
-154.236 3.21902 0 -48.6323
-151.419 3.2264 0 -48.7185
-221.409 2.78857 0 -40.5335
-212.962 2.80453 0 -40.7936
-72.8187 3.54231 0 -54.7887
-75.6361 3.52997 0 -54.7022
-217.185 2.79658 0 -40.6634
-142.97 3.24806 0 -48.9782
-74.2274 3.53618 0 -54.7454
-148.603 3.2337 0 -48.8049
-145.787 3.24092 0 -48.8915
-212.962 2.80453 0 -40.7936
-204.515 2.82025 0 -41.0548
-70.0013 3.55429 0 -54.8755
-72.8187 3.54231 0 -54.7887
-208.738 2.81242 0 -40.9241
-137.338 3.2621 0 -49.1523
-71.41 3.54834 0 -54.8321
-142.97 3.24806 0 -48.9782
-140.154 3.25512 0 -49.0652
-204.515 2.82025 0 -41.0548
-196.068 2.83573 0 -41.317
-67.1839 3.56591 0 -54.9627
-70.0013 3.55429 0 -54.8755
-200.291 2.82802 0 -41.1857
-131.705 3.27584 0 -49.327
-68.5926 3.56014 0 -54.9191
-137.338 3.2621 0 -49.1523
-134.522 3.26901 0 -49.2395
-196.068 2.83573 0 -41.317
-187.621 2.85098 0 -41.5801
-64.3666 3.57721 0 -55.0502
-67.1839 3.56591 0 -54.9627
-191.844 2.84338 0 -41.4484
-126.073 3.2893 0 -49.5023
-65.7753 3.5716 0 -55.0064
-131.705 3.27584 0 -49.327
-128.889 3.2826 0 -49.4145
-187.621 2.85098 0 -41.5801
-179.174 2.86604 0 -41.8442
-61.5494 3.5882 0 -55.138
-64.3666 3.57721 0 -55.0502
-183.397 2.85853 0 -41.712
-120.441 3.30251 0 -49.6782
-62.958 3.58274 0 -55.0941
-126.073 3.2893 0 -49.5023
-123.257 3.29593 0 -49.5902
-179.174 2.86604 0 -41.8442
-170.727 2.88094 0 -42.1092
-58.7323 3.59895 0 -55.226
-61.5494 3.5882 0 -55.138
-174.95 2.8735 0 -41.9766
-114.809 3.31552 0 -49.8547
-60.1408 3.5936 0 -55.182
-120.441 3.30251 0 -49.6782
-117.625 3.30903 0 -49.7664
-170.727 2.88094 0 -42.1092
-162.28 2.89573 0 -42.3751
-55.9153 3.60951 0 -55.3143
-58.7323 3.59895 0 -55.226
-166.504 2.88835 0 -42.242
-109.177 3.32837 0 -50.0318
-57.3238 3.60425 0 -55.2701
-114.809 3.31552 0 -49.8547
-111.993 3.32196 0 -49.9432
-162.28 2.89573 0 -42.3751
-153.834 2.9104 0 -42.6418
-53.0985 3.61999 0 -55.4028
-55.9153 3.60951 0 -55.3143
-158.057 2.90308 0 -42.5083
-103.545 3.3411 0 -50.2094
-54.5069 3.61476 0 -55.3585
-109.177 3.32837 0 -50.0318
-106.361 3.33476 0 -50.1205
-153.834 2.9104 0 -42.6418
-145.388 2.92486 0 -42.9095
-50.282 3.63039 0 -55.4917
-53.0985 3.61999 0 -55.4028
-149.611 2.91767 0 -42.7756
-97.9134 3.35363 0 -50.3877
-51.6902 3.6252 0 -55.4472
-103.545 3.3411 0 -50.2094
-100.729 3.34741 0 -50.2985
-145.388 2.92486 0 -42.9095
-136.942 2.93867 0 -43.1781
-47.4656 3.64072 0 -55.5814
-50.282 3.63039 0 -55.4917
-141.165 2.9319 0 -43.0437
-92.2821 3.36563 0 -50.5669
-48.8738 3.63557 0 -55.5364
-97.9134 3.35363 0 -50.3877
-95.0977 3.35974 0 -50.4772
-136.942 2.93867 0 -43.1781
-128.495 2.95084 0 -43.4477
-44.6496 3.65054 0 -55.6728
-47.4656 3.64072 0 -55.5814
-132.719 2.94507 0 -43.3128
-86.6506 3.37616 0 -50.7475
-46.0575 3.64575 0 -55.6268
-92.2821 3.36563 0 -50.5669
-89.4664 3.37117 0 -50.657
-128.495 2.95084 0 -43.4477
-120.047 2.9588 0 -43.7183
-41.8327 3.65918 0 -55.7682
-44.6496 3.65054 0 -55.6728
-124.271 2.95562 0 -43.5829
-81.0174 3.38318 0 -50.931
-43.2414 3.65509 0 -55.7198
-86.6506 3.37616 0 -50.7475
-83.8343 3.38035 0 -50.8388
-120.047 2.9588 0 -43.7183
-111.593 2.95805 0 -43.9901
-39.0143 3.66415 0 -55.872
-41.8327 3.65918 0 -55.7682
-115.822 2.95996 0 -43.854
-75.3792 3.38226 0 -51.1197
-40.4236 3.66237 0 -55.8187
-81.0174 3.38318 0 -50.931
-78.1992 3.3841 0 -51.0243
-111.593 2.95805 0 -43.9901
-103.128 2.9383 0 -44.2628
-36.1882 3.66244 0 -55.9933
-39.0143 3.66415 0 -55.872
-107.362 2.95152 0 -44.1265
-69.7287 3.36555 0 -51.319
-37.6031 3.66446 0 -55.9296
-75.3792 3.38226 0 -51.1197
-72.5561 3.37678 0 -51.2178
-103.128 2.9383 0 -44.2628
-94.6298 2.88489 0 -44.5378
-33.3512 3.64477 0 -56.1482
-36.1882 3.66244 0 -55.9933
-98.8852 2.91723 0 -44.3998
-64.051 3.31802 0 -51.5387
-34.7707 3.65637 0 -56.0652
-69.7287 3.36555 0 -51.319
-66.8945 3.34668 0 -51.4251
-94.6298 2.88489 0 -44.5378
-86.0774 2.76595 0 -44.8143
-30.4781 3.60397 0 -56.3666
-33.3512 3.64477 0 -56.1482
-90.3609 2.8362 0 -44.6762
-58.3174 3.2182 0 -51.7966
-31.9225 3.62811 0 -56.2468
-64.051 3.31802 0 -51.5387
-61.1933 3.27723 0 -51.6622
-86.0774 2.76595 0 -44.8143
-77.3943 2.54937 0 -45.1009
-27.5608 3.51433 0 -56.6948
-30.4781 3.60397 0 -56.3666
-81.7608 2.67301 0 -44.955
-52.4769 3.02967 0 -52.1231
-29.023 3.56671 0 -56.5135
-58.3174 3.2182 0 -51.7966
-55.4149 3.13624 0 -51.947
-77.3943 2.54937 0 -45.1009
-68.5193 2.16318 0 -45.3991
-24.5195 3.3769 0 -57.208
-27.5608 3.51433 0 -56.6948
-72.9805 2.38123 0 -45.2495
-46.447 2.72246 0 -52.5673
-26.0668 3.45235 0 -56.9218
-52.4769 3.02967 0 -52.1231
-49.491 2.89589 0 -52.33
-68.5193 2.16318 0 -45.3991
-59.2266 1.60254 0 -45.7572
-21.3613 3.14813 0 -57.9911
-24.5195 3.3769 0 -57.208
-63.9524 1.90628 0 -45.564
-40.1002 2.2627 0 -53.2026
-22.9447 3.2726 0 -57.5609
-46.447 2.72246 0 -52.5673
-43.3253 2.5044 0 -52.8483
-59.2266 1.60254 0 -45.7572
-49.4366 0.810461 0 -46.2037
-17.8976 2.94888 0 -59.1381
-21.3613 3.14813 0 -57.9911
-54.3811 1.22488 0 -45.9704
-33.2968 1.75235 0 -54.1174
-19.6995 3.03801 0 -58.5119
-40.1002 2.2627 0 -53.2026
-36.7599 2.01327 0 -53.6326
-49.4366 0.810461 0 -46.2037
-38.6774 0.207053 0 -46.9582
-14.3291 2.81821 0 -60.5895
-17.8976 2.94888 0 -59.1381
-44.2462 0.455115 0 -46.5148
-25.9057 1.4401 0 -55.3874
-16.0782 2.84837 0 -59.8407
-33.2968 1.75235 0 -54.1174
-29.6957 1.5075 0 -54.678
-38.6774 0.207053 0 -46.9582
-27.3469 0.319814 0 -48.1351
-10.4135 3.50645 0 -61.9999
-14.3291 2.81821 0 -60.5895
-32.9898 0.0541522 0 -47.4952
-18.1499 2.30204 0 -56.9074
-12.4864 3.01757 0 -61.3337
-25.9057 1.4401 0 -55.3874
-22.0231 1.67709 0 -56.1821
-27.3469 0.319814 0 -48.1351
-15.3743 3.98151 0 -50.1516
-7.16011 5.40572 0 -62.086
-10.4135 3.50645 0 -61.9999
-21.5361 1.50029 0 -48.9962
-10.7082 5.78847 0 -57.9728
-8.5313 4.21636 0 -62.3425
-18.1499 2.30204 0 -56.9074
-14.3818 3.48555 0 -57.4887
-15.3743 3.98151 0 -50.1516
-6.38444 14.8937 0 -51.366
-3.96912 10.1482 0 -58.5317
-7.16011 5.40572 0 -62.086
-10.0526 7.95522 0 -51.0908
-5.65154 14.356 0 -55.9637
-5.74955 7.49554 0 -60.94
-10.7082 5.78847 0 -57.9728
-7.59024 9.52307 0 -57.7803
-6.38444 14.8937 0 -51.366
-0.907665 41.5978 0 -46.3682
-2.83507 14.8744 0 -47.5945
-3.96912 10.1482 0 -58.5317
-3.40778 26.462 0 -50.2912
-2.46798 27.6213 0 -46.0726
-2.75397 12.6174 0 -54.2465
-5.65154 14.356 0 -55.9637
-4.19058 20.3005 0 -52.0658
-0.907665 41.5978 0 -46.3682
1.1489 70.9639 0 -22.9695
-2.75678 20.8083 0 -26.8246
-2.83507 14.8744 0 -47.5945
0.92315 57.9494 0 -37.592
0.166183 44.0677 0 -26.4188
-3.15176 17.5333 0 -38.5025
-2.46798 27.6213 0 -46.0726
-0.801134 36.0324 0 -37.7172
-541.918 -162.535 0 215.783
-528.794 -91.3424 0 71.6398
521.505 87.4548 0 71.1662
534.185 160.298 0 215.343
-519.554 -127.424 0 136.139
-3.87171 -1.98798 0 80.9476
512.077 124.221 0 135.768
-4.1328 -1.11396 0 220.038
-3.95894 -1.66689 0 152.223
-528.794 -91.3424 0 71.6398
-557.033 -56.164 0 -14.5189
549.963 51.4714 0 -15.3511
521.505 87.4548 0 71.1662
-550.628 -71.7742 0 20.9613
-3.78415 -2.39148 0 -10.4022
543.469 67.4128 0 20.3077
-3.87171 -1.98798 0 80.9476
-3.83271 -2.21612 0 24.7045
-557.033 -56.164 0 -14.5189
-558.91 -24.2086 0 -53.4408
551.967 19.0569 0 -54.6634
549.963 51.4714 0 -15.3511
-555.995 -38.5151 0 -38.0065
-3.73236 -2.65209 0 -52.7379
548.987 33.5711 0 -39.0294
-3.78415 -2.39148 0 -10.4022
-3.74731 -2.53487 0 -34.4623
-558.91 -24.2086 0 -53.4408
-560.457 -9.36379 0 -67.1983
553.631 3.84109 0 -68.7867
551.967 19.0569 0 -54.6634
-562.139 -15.4994 0 -62.688
-3.69001 -2.82899 0 -69.0937
555.256 10.1548 0 -64.1005
-3.73236 -2.65209 0 -52.7379
-3.71822 -2.74734 0 -63.9758
-560.457 -9.36379 0 -67.1983
-554.457 -1.68839 0 -68.5066
547.734 -4.12974 0 -70.4207
553.631 3.84109 0 -68.7867
-556.729 -4.48852 0 -68.6264
-3.64004 -2.97156 0 -71.8841
549.957 -1.19311 0 -70.3817
-3.69001 -2.82899 0 -69.0937
-3.66163 -2.90498 0 -71.1759
-554.457 -1.68839 0 -68.5066
-549.426 -0.317138 0 -65.8781
542.774 -5.70332 0 -68.0899
547.734 -4.12974 0 -70.4207
-552.492 -0.675285 0 -67.4434
-3.60013 -3.06692 0 -69.4634
545.808 -5.25638 0 -69.5085
-3.64004 -2.97156 0 -71.8841
-3.62004 -3.02514 0 -71.1479
-549.426 -0.317138 0 -65.8781
-543.527 -0.287583 0 -62.5344
536.91 -5.83479 0 -65.0393
542.774 -5.70332 0 -68.0899
-546.092 -0.11995 0 -64.1399
-3.57527 -3.11911 0 -66.0367
539.461 -5.96375 0 -66.4978
-3.60013 -3.06692 0 -69.4634
-3.58467 -3.09863 0 -67.6358
-543.527 -0.287583 0 -62.5344
-538.996 -1.11695 0 -59.8495
532.388 -5.02015 0 -62.6517
536.91 -5.83479 0 -65.0393
-541.317 -0.710267 0 -61.0976
-3.56529 -3.12739 0 -63.1411
534.707 -5.42913 0 -63.7504
-3.57527 -3.11911 0 -66.0367
-3.56922 -3.12815 0 -64.5249
-538.996 -1.11695 0 -59.8495
-534.823 -1.73316 0 -57.9442
528.206 -4.35193 0 -61.0499
532.388 -5.02015 0 -62.6517
-536.753 -1.43136 0 -58.7943
-3.56515 -3.103 0 -61.1267
530.142 -4.68683 0 -61.7475
-3.56529 -3.12739 0 -63.1411
-3.56408 -3.11876 0 -62.0027
-534.823 -1.73316 0 -57.9442
-531.33 -2.22977 0 -56.7141
524.698 -3.7573 0 -60.1274
528.206 -4.35193 0 -61.0499
-533.066 -2.01579 0 -57.2614
-3.56985 -3.05435 0 -59.8579
526.442 -4.02486 0 -60.5206
-3.56515 -3.103 0 -61.1267
-3.56732 -3.0811 0 -60.4223
-531.33 -2.22977 0 -56.7141
-528.076 -2.49214 0 -55.9349
521.429 -3.3682 0 -59.6565
524.698 -3.7573 0 -60.1274
-529.652 -2.3785 0 -56.278
-3.57555 -2.99079 0 -59.1211
523.012 -3.54794 0 -59.8454
-3.56985 -3.05435 0 -59.8579
-3.57272 -3.02402 0 -59.4314
-528.076 -2.49214 0 -55.9349
-525.06 -2.63054 0 -55.4439
518.401 -3.087 0 -59.4719
521.429 -3.3682 0 -59.6565
-526.561 -2.5781 0 -55.663
-3.57981 -2.91846 0 -58.7155
519.907 -3.21223 0 -59.5381
-3.57555 -2.99079 0 -59.1211
-3.578 -2.9554 0 -58.8891
-525.06 -2.63054 0 -55.4439
-522.127 -2.66736 0 -55.1181
515.463 -2.89988 0 -59.4485
518.401 -3.087 0 -59.4719
-523.579 -2.65688 0 -55.2655
-3.58152 -2.84205 0 -58.506
516.917 -2.98606 0 -59.4453
-3.57981 -2.91846 0 -58.7155
-3.58101 -2.88056 0 -58.5918
-522.127 -2.66736 0 -55.1181
-519.26 -2.6542 0 -54.8852
512.595 -2.76054 0 -59.5129
515.463 -2.89988 0 -59.4485
-520.691 -2.66638 0 -54.9936
-3.58033 -2.76427 0 -58.4031
514.026 -2.82466 0 -59.4733
-3.58152 -2.84205 0 -58.506
-3.58129 -2.80321 0 -58.4457
-519.26 -2.6542 0 -54.8852
-516.413 -2.60935 0 -54.7011
509.754 -2.65366 0 -59.6204
512.595 -2.76054 0 -59.5129
-517.833 -2.63416 0 -54.7888
-3.57647 -2.68681 0 -58.3562
511.171 -2.7045 0 -59.5631
-3.58033 -2.76427 0 -58.4031
-3.57871 -2.72544 0 -58.3747
-516.413 -2.60935 0 -54.7011
-513.58 -2.55067 0 -54.5426
506.93 -2.56285 0 -59.7475
509.754 -2.65366 0 -59.6204
-514.996 -2.58139 0 -54.6197
-3.57035 -2.61043 0 -58.3364
508.341 -2.60655 0 -59.6825
-3.57647 -2.68681 0 -58.3562
-3.57366 -2.64845 0 -58.3442
-513.58 -2.55067 0 -54.5426
-510.75 -2.48493 0 -54.3971
504.112 -2.48186 0 -59.8817
506.93 -2.56285 0 -59.7475
-512.164 -2.51824 0 -54.4687
-3.56245 -2.53545 0 -58.3292
505.52 -2.52155 0 -59.8142
-3.57035 -2.61043 0 -58.3364
-3.56659 -2.57276 0 -58.3318
-510.75 -2.48493 0 -54.3971
-507.921 -2.41705 0 -54.2588
501.298 -2.4058 0 -60.0172
504.112 -2.48186 0 -59.8817
-509.335 -2.45116 0 -54.3273
-3.55325 -2.4619 0 -58.3272
502.705 -2.44332 0 -59.9495
-3.56245 -2.53545 0 -58.3292
-3.55799 -2.4985 0 -58.3279
-507.921 -2.41705 0 -54.2588
-505.091 -2.34875 0 -54.1247
498.486 -2.3327 0 -60.1513
501.298 -2.4058 0 -60.0172
-506.506 -2.38286 0 -54.1913
-3.54314 -2.38966 0 -58.3271
499.892 -2.36899 0 -60.0845
-3.55325 -2.4619 0 -58.3272
-3.54829 -2.42563 0 -58.3271
-505.091 -2.34875 0 -54.1247
-502.261 -2.28102 0 -53.9936
495.674 -2.26125 0 -60.283
498.486 -2.3327 0 -60.1513
-503.676 -2.3148 0 -54.0588
-3.53242 -2.31857 0 -58.3274
497.08 -2.2968 0 -60.2175
-3.54314 -2.38966 0 -58.3271
-3.53784 -2.35399 0 -58.3273
-502.261 -2.28102 0 -53.9936
-499.431 -2.21406 0 -53.8651
492.862 -2.19091 0 -60.4119
495.674 -2.26125 0 -60.283
-500.846 -2.24743 0 -53.9291
-3.52133 -2.24846 0 -58.3277
494.268 -2.22597 0 -60.3478
-3.53242 -2.31857 0 -58.3274
-3.52691 -2.2834 0 -58.3276
-499.431 -2.21406 0 -53.8651
-496.6 -2.14794 0 -53.7391
490.05 -2.12132 0 -60.5381
492.862 -2.19091 0 -60.4119
-498.015 -2.1809 0 -53.8018
-3.51004 -2.17917 0 -58.3277
491.456 -2.15603 0 -60.4754
-3.52133 -2.24846 0 -58.3277
-3.5157 -2.21372 0 -58.3277
-496.6 -2.14794 0 -53.7391
-493.768 -2.08257 0 -53.6154
487.238 -2.05233 0 -60.6615
490.05 -2.12132 0 -60.5381
-495.184 -2.11517 0 -53.6769
-3.49865 -2.11057 0 -58.3276
488.644 -2.08676 0 -60.6001
-3.51004 -2.17917 0 -58.3277
-3.50435 -2.14479 0 -58.3277
-493.768 -2.08257 0 -53.6154
-490.937 -2.01786 0 -53.4941
484.426 -1.98382 0 -60.7823
487.238 -2.05233 0 -60.6615
-492.353 -2.05014 0 -53.5544
-3.48723 -2.04257 0 -58.3273
485.832 -2.01802 0 -60.7222
-3.49865 -2.11057 0 -58.3276
-3.49294 -2.0765 0 -58.3275
-490.937 -2.01786 0 -53.4941
-488.105 -1.95375 0 -53.3752
481.613 -1.91575 0 -60.9006
484.426 -1.98382 0 -60.7823
-489.521 -1.98574 0 -53.4343
-3.47584 -1.97509 0 -58.327
483.02 -1.94974 0 -60.8418
-3.48723 -2.04257 0 -58.3273
-3.48153 -2.00877 0 -58.3272
-488.105 -1.95375 0 -53.3752
-485.274 -1.89015 0 -53.2586
478.801 -1.84808 0 -61.0163
481.613 -1.91575 0 -60.9006
-486.69 -1.92189 0 -53.3166
-3.46451 -1.90809 0 -58.3266
480.207 -1.88187 0 -60.9587
-3.47584 -1.97509 0 -58.327
-3.47017 -1.94153 0 -58.3268
-485.274 -1.89015 0 -53.2586
-482.443 -1.82704 0 -53.1445
475.989 -1.78078 0 -61.1296
478.801 -1.84808 0 -61.0163
-483.858 -1.85854 0 -53.2013
-3.45323 -1.84153 0 -58.3261
477.395 -1.81438 0 -61.0733
-3.46451 -1.90809 0 -58.3266
-3.45886 -1.87476 0 -58.3263
-482.443 -1.82704 0 -53.1445
-479.611 -1.76437 0 -53.0327
473.176 -1.71384 0 -61.2404
475.989 -1.78078 0 -61.1296
-481.027 -1.79565 0 -53.0883
-3.44203 -1.77538 0 -58.3256
474.582 -1.74726 0 -61.1853
-3.45323 -1.84153 0 -58.3261
-3.44762 -1.8084 0 -58.3258
-479.611 -1.76437 0 -53.0327
-476.78 -1.70214 0 -52.9233
470.363 -1.64725 0 -61.3489
473.176 -1.71384 0 -61.2404
-478.195 -1.7332 0 -52.9777
-3.4309 -1.70963 0 -58.3251
471.77 -1.6805 0 -61.295
-3.44203 -1.77538 0 -58.3256
-3.43646 -1.74245 0 -58.3253
-476.78 -1.70214 0 -52.9233
-473.948 -1.64032 0 -52.8163
467.551 -1.58101 0 -61.4549
470.363 -1.64725 0 -61.3489
-475.364 -1.67118 0 -52.8695
-3.41985 -1.64427 0 -58.3245
468.957 -1.61409 0 -61.4022
-3.4309 -1.70963 0 -58.3251
-3.42537 -1.6769 0 -58.3248
-473.948 -1.64032 0 -52.8163
-471.117 -1.57892 0 -52.7116
464.738 -1.51512 0 -61.5586
467.551 -1.58101 0 -61.4549
-472.533 -1.60957 0 -52.7637
-3.40887 -1.5793 0 -58.324
466.144 -1.54802 0 -61.507
-3.41985 -1.64427 0 -58.3245
-3.41435 -1.61174 0 -58.3243
-471.117 -1.57892 0 -52.7116
-468.286 -1.51791 0 -52.6092
461.925 -1.44958 0 -61.6599
464.738 -1.51512 0 -61.5586
-469.701 -1.54836 0 -52.6601
-3.39795 -1.51471 0 -58.3234
463.331 -1.48231 0 -61.6095
-3.40887 -1.5793 0 -58.324
-3.4034 -1.54696 0 -58.3237
-468.286 -1.51791 0 -52.6092
-465.454 -1.45731 0 -52.5092
459.112 -1.38439 0 -61.7589
461.925 -1.44958 0 -61.6599
-466.87 -1.48756 0 -52.5589
-3.38711 -1.45051 0 -58.3228
460.518 -1.41694 0 -61.7097
-3.39795 -1.51471 0 -58.3234
-3.39252 -1.48256 0 -58.3231
-465.454 -1.45731 0 -52.5092
-462.623 -1.39711 0 -52.4114
456.299 -1.31955 0 -61.8555
459.112 -1.38439 0 -61.7589
-464.039 -1.42716 0 -52.46
-3.37633 -1.38669 0 -58.3222
457.705 -1.35192 0 -61.8075
-3.38711 -1.45051 0 -58.3228
-3.38171 -1.41855 0 -58.3225
-462.623 -1.39711 0 -52.4114
-459.792 -1.3373 0 -52.316
453.486 -1.25506 0 -61.9498
456.299 -1.31955 0 -61.8555
-461.208 -1.36716 0 -52.3634
-3.36562 -1.32325 0 -58.3216
454.892 -1.28726 0 -61.903
-3.37633 -1.38669 0 -58.3222
-3.37096 -1.35492 0 -58.3219
-459.792 -1.3373 0 -52.316
-456.961 -1.27789 0 -52.2228
450.673 -1.19094 0 -62.0419
453.486 -1.25506 0 -61.9498
-458.376 -1.30755 0 -52.2691
-3.35496 -1.2602 0 -58.321
452.079 -1.22295 0 -61.9961
-3.36562 -1.32325 0 -58.3216
-3.36028 -1.29168 0 -58.3213
-456.961 -1.27789 0 -52.2228
-454.13 -1.21888 0 -52.1319
447.859 -1.12717 0 -62.1316
450.673 -1.19094 0 -62.0419
-455.545 -1.24834 0 -52.177
-3.34438 -1.19754 0 -58.3204
449.266 -1.15901 0 -62.087
-3.35496 -1.2602 0 -58.321
-3.34966 -1.22882 0 -58.3207
-454.13 -1.21888 0 -52.1319
-451.299 -1.16025 0 -52.0432
445.046 -1.06377 0 -62.2191
447.859 -1.12717 0 -62.1316
-452.714 -1.18952 0 -52.0872
-3.33385 -1.13526 0 -58.3198
446.453 -1.09542 0 -62.1756
-3.34438 -1.19754 0 -58.3204
-3.33911 -1.16635 0 -58.3201
-451.299 -1.16025 0 -52.0432
-448.468 -1.10202 0 -51.9568
442.233 -1.00073 0 -62.3043
445.046 -1.06377 0 -62.2191
-449.883 -1.13109 0 -51.9997
-3.32339 -1.07336 0 -58.3191
443.639 -1.0322 0 -62.262
-3.33385 -1.13526 0 -58.3198
-3.32861 -1.10426 0 -58.3194
-448.468 -1.10202 0 -51.9568
-445.637 -1.04418 0 -51.8725
439.419 -0.938065 0 -62.3873
442.233 -1.00073 0 -62.3043
-447.052 -1.07305 0 -51.9144
-3.31299 -1.01186 0 -58.3185
440.826 -0.969352 0 -62.3461
-3.32339 -1.07336 0 -58.3191
-3.31818 -1.04256 0 -58.3188
-445.637 -1.04418 0 -51.8725
-442.806 -0.986718 0 -51.7905
436.606 -0.875768 0 -62.468
439.419 -0.938065 0 -62.3873
-444.221 -1.0154 0 -51.8312
-3.30265 -0.950736 0 -58.3178
438.013 -0.90687 0 -62.4279
-3.31299 -1.01186 0 -58.3185
-3.30781 -0.981248 0 -58.3181
-442.806 -0.986718 0 -51.7905
-439.975 -0.929645 0 -51.7107
433.792 -0.813845 0 -62.5465
436.606 -0.875768 0 -62.468
-441.39 -0.958133 0 -51.7503
-3.29238 -0.890003 0 -58.3171
435.199 -0.84476 0 -62.5075
-3.30265 -0.950736 0 -58.3178
-3.29751 -0.920321 0 -58.3174
-439.975 -0.929645 0 -51.7107
-437.144 -0.872956 0 -51.6331
430.979 -0.752297 0 -62.6228
433.792 -0.813845 0 -62.5465
-438.56 -0.901253 0 -51.6716
-3.28216 -0.829657 0 -58.3164
432.386 -0.783024 0 -62.585
-3.29238 -0.890003 0 -58.3171
-3.28726 -0.859781 0 -58.3168
-437.144 -0.872956 0 -51.6331
-434.313 -0.81665 0 -51.5576
428.165 -0.691126 0 -62.697
430.979 -0.752297 0 -62.6228
-435.729 -0.844755 0 -51.5951
-3.27201 -0.769699 0 -58.3157
429.572 -0.721664 0 -62.6602
-3.28216 -0.829657 0 -58.3164
-3.27708 -0.799629 0 -58.3161
-434.313 -0.81665 0 -51.5576
-431.483 -0.760723 0 -51.4843
425.352 -0.630334 0 -62.7689
428.165 -0.691126 0 -62.697
-432.898 -0.788639 0 -51.5207
-3.26192 -0.710128 0 -58.315
426.758 -0.660682 0 -62.7332
-3.27201 -0.769699 0 -58.3157
-3.26696 -0.739865 0 -58.3154
-431.483 -0.760723 0 -51.4843
-428.652 -0.705175 0 -51.4131
422.538 -0.569923 0 -62.8388
425.352 -0.630334 0 -62.7689
-430.067 -0.732902 0 -51.4484
-3.25189 -0.650945 0 -58.3143
423.945 -0.600081 0 -62.8041
-3.26192 -0.710128 0 -58.315
-3.2569 -0.680488 0 -58.3147
-428.652 -0.705175 0 -51.4131
-425.822 -0.650003 0 -51.344
419.724 -0.509895 0 -62.9064
422.538 -0.569923 0 -62.8388
-427.237 -0.677542 0 -51.3783
-3.24193 -0.59215 0 -58.3136
421.131 -0.539861 0 -62.8729
-3.25189 -0.650945 0 -58.3143
-3.2469 -0.621499 0 -58.3139
-425.822 -0.650003 0 -51.344
-422.991 -0.595207 0 -51.2771
416.91 -0.450252 0 -62.972
419.724 -0.509895 0 -62.9064
-424.406 -0.622558 0 -51.3103
-3.23202 -0.533743 0 -58.3128
418.317 -0.480025 0 -62.9395
-3.24193 -0.59215 0 -58.3136
-3.23697 -0.562898 0 -58.3132
-422.991 -0.595207 0 -51.2771
-420.161 -0.540784 0 -51.2122
414.097 -0.390996 0 -63.0354
416.91 -0.450252 0 -62.972
-421.576 -0.567949 0 -51.2444
-3.22218 -0.475723 0 -58.3121
415.503 -0.420575 0 -63.0039
-3.23202 -0.533743 0 -58.3128
-3.22709 -0.504684 0 -58.3125
-420.161 -0.540784 0 -51.2122
-417.33 -0.486733 0 -51.1494
411.283 -0.332128 0 -63.0967
414.097 -0.390996 0 -63.0354
-418.746 -0.513712 0 -51.1806
-3.2124 -0.418092 0 -58.3113
412.69 -0.361513 0 -63.0663
-3.22218 -0.475723 0 -58.3121
-3.21728 -0.446859 0 -58.3117
-417.33 -0.486733 0 -51.1494
-414.5 -0.433052 0 -51.0887
408.469 -0.27365 0 -63.1559
411.283 -0.332128 0 -63.0967
-415.915 -0.459846 0 -51.1188
-3.20269 -0.360849 0 -58.3106
409.876 -0.30284 0 -63.1266
-3.2124 -0.418092 0 -58.3113
-3.20754 -0.389422 0 -58.311
-414.5 -0.433052 0 -51.0887
-411.67 -0.379739 0 -51.0301
405.655 -0.215563 0 -63.2131
408.469 -0.27365 0 -63.1559
-413.085 -0.406349 0 -51.0591
-3.19303 -0.303994 0 -58.3098
407.062 -0.244557 0 -63.1848
-3.20269 -0.360849 0 -58.3106
-3.19785 -0.332373 0 -58.3102
-411.67 -0.379739 0 -51.0301
-408.84 -0.326794 0 -50.9735
402.841 -0.157871 0 -63.2682
405.655 -0.215563 0 -63.2131
-410.255 -0.353221 0 -51.0015
-3.18344 -0.247527 0 -58.309
404.248 -0.186668 0 -63.2409
-3.19303 -0.303994 0 -58.3098
-3.18823 -0.275712 0 -58.3094
-408.84 -0.326794 0 -50.9735
-406.01 -0.274215 0 -50.9189
400.027 -0.100573 0 -63.3213
402.841 -0.157871 0 -63.2682
-407.425 -0.300459 0 -50.9459
-3.17392 -0.191449 0 -58.3083
401.434 -0.129172 0 -63.295
-3.18344 -0.247527 0 -58.309
-3.17867 -0.219439 0 -58.3086
-406.01 -0.274215 0 -50.9189
-403.18 -0.221999 0 -50.8663
397.213 -0.0436713 0 -63.3724
400.027 -0.100573 0 -63.3213
-404.595 -0.248062 0 -50.8923
-3.16445 -0.135759 0 -58.3075
398.62 -0.0720723 0 -63.3471
-3.17392 -0.191449 0 -58.3083
-3.16918 -0.163555 0 -58.3079
-403.18 -0.221999 0 -50.8663
-400.35 -0.170147 0 -50.8157
394.399 0.0128319 0 -63.4214
397.213 -0.0436713 0 -63.3724
-401.765 -0.196028 0 -50.8408
-3.15505 -0.0804567 0 -58.3067
395.806 -0.0153698 0 -63.3971
-3.16445 -0.135759 0 -58.3075
-3.15974 -0.108059 0 -58.3071
-400.35 -0.170147 0 -50.8157
-397.52 -0.118656 0 -50.7671
391.585 0.0689356 0 -63.4684
394.399 0.0128319 0 -63.4214
-398.935 -0.144356 0 -50.7912
-3.14571 -0.0255435 0 -58.3059
392.992 0.0409338 0 -63.4452
-3.15505 -0.0804567 0 -58.3067
-3.15037 -0.0529515 0 -58.3063
-397.52 -0.118656 0 -50.7671
-394.69 -0.0675249 0 -50.7205
388.771 0.124638 0 -63.5135
391.585 0.0689356 0 -63.4684
-396.105 -0.0930454 0 -50.7436
-3.13644 0.0289813 0 -58.3051
390.178 0.0968371 0 -63.4912
-3.14571 -0.0255435 0 -58.3059
-3.14107 0.0017675 0 -58.3055
-394.69 -0.0675249 0 -50.7205
-391.861 -0.0167526 0 -50.6759
385.957 0.179938 0 -63.5566
388.771 0.124638 0 -63.5135
-393.276 -0.042094 0 -50.6979
-3.12722 0.0831175 0 -58.3043
387.364 0.152339 0 -63.5353
-3.13644 0.0289813 0 -58.3051
-3.13182 0.056098 0 -58.3047
-391.861 -0.0167526 0 -50.6759
-389.031 0.0336621 0 -50.6331
383.143 0.234834 0 -63.5977
385.957 0.179938 0 -63.5566
-390.446 0.00849934 0 -50.6543
-3.11808 0.136865 0 -58.3034
384.55 0.207437 0 -63.5774
-3.12722 0.0831175 0 -58.3043
-3.12264 0.11004 0 -58.3038
-389.031 0.0336621 0 -50.6331
-386.202 0.0837206 0 -50.5923
380.329 0.289325 0 -63.6369
383.143 0.234834 0 -63.5977
-387.617 0.0587358 0 -50.6125
-3.10899 0.190224 0 -58.3026
381.736 0.262131 0 -63.6175
-3.11808 0.136865 0 -58.3034
-3.11352 0.163593 0 -58.303
-386.202 0.0837206 0 -50.5923
-383.372 0.133424 0 -50.5535
377.515 0.34341 0 -63.6741
380.329 0.289325 0 -63.6369
-384.787 0.108617 0 -50.5727
-3.09997 0.243194 0 -58.3018
378.922 0.316418 0 -63.6557
-3.10899 0.190224 0 -58.3026
-3.10447 0.216758 0 -58.3022
-383.372 0.133424 0 -50.5535
-380.543 0.182774 0 -50.5165
374.701 0.397086 0 -63.7095
377.515 0.34341 0 -63.6741
-381.958 0.158143 0 -50.5348
-3.09101 0.295775 0 -58.301
376.108 0.370299 0 -63.692
-3.09997 0.243194 0 -58.3018
-3.09548 0.269533 0 -58.3014
-380.543 0.182774 0 -50.5165
-377.714 0.231771 0 -50.4814
371.886 0.450353 0 -63.7429
374.701 0.397086 0 -63.7095
-379.129 0.207316 0 -50.4987
-3.08211 0.347968 0 -58.3001
373.293 0.423771 0 -63.7264
-3.09101 0.295775 0 -58.301
-3.08655 0.32192 0 -58.3005
-377.714 0.231771 0 -50.4814
-374.885 0.280416 0 -50.4482
369.072 0.50321 0 -63.7745
371.886 0.450353 0 -63.7429
-376.299 0.256138 0 -50.4646
-3.07328 0.399771 0 -58.2993
370.479 0.476833 0 -63.7589
-3.08211 0.347968 0 -58.3001
-3.07769 0.373918 0 -58.2997
-374.885 0.280416 0 -50.4482
-372.056 0.328712 0 -50.4169
366.258 0.555655 0 -63.8042
369.072 0.50321 0 -63.7745
-373.47 0.304608 0 -50.4323
-3.06451 0.451186 0 -58.2984
367.665 0.529484 0 -63.7896
-3.07328 0.399771 0 -58.2993
-3.06889 0.425527 0 -58.2989
-372.056 0.328712 0 -50.4169
-369.227 0.376657 0 -50.3873
363.444 0.607687 0 -63.832
366.258 0.555655 0 -63.8042
-370.641 0.352728 0 -50.4019
-3.05581 0.502211 0 -58.2976
364.851 0.581723 0 -63.8184
-3.06451 0.451186 0 -58.2984
-3.06015 0.476747 0 -58.298
-369.227 0.376657 0 -50.3873
-366.398 0.424255 0 -50.3597
360.63 0.659306 0 -63.8581
363.444 0.607687 0 -63.832
-367.813 0.4005 0 -50.3733
-3.04717 0.552848 0 -58.2967
362.037 0.633548 0 -63.8453
-3.05581 0.502211 0 -58.2976
-3.05148 0.527578 0 -58.2972
-366.398 0.424255 0 -50.3597
-363.57 0.471505 0 -50.3338
357.815 0.710509 0 -63.8822
360.63 0.659306 0 -63.8581
-364.984 0.447923 0 -50.3465
-3.03859 0.603095 0 -58.2959
359.223 0.684959 0 -63.8704
-3.04717 0.552848 0 -58.2967
-3.04287 0.57802 0 -58.2963
-363.57 0.471505 0 -50.3338
-360.741 0.518409 0 -50.3098
355.001 0.761296 0 -63.9046
357.815 0.710509 0 -63.8822
-362.155 0.495 0 -50.3216
-3.03007 0.652953 0 -58.295
356.408 0.735955 0 -63.8936
-3.03859 0.603095 0 -58.2959
-3.03432 0.628073 0 -58.2954
-360.741 0.518409 0 -50.3098
-357.912 0.564967 0 -50.2875
352.187 0.811666 0 -63.9252
355.001 0.761296 0 -63.9046
-359.327 0.541731 0 -50.2984
-3.02162 0.702422 0 -58.2942
353.594 0.786533 0 -63.9151
-3.03007 0.652953 0 -58.295
-3.02584 0.677736 0 -58.2946
-357.912 0.564967 0 -50.2875
-355.084 0.611181 0 -50.267
349.373 0.861618 0 -63.944
352.187 0.811666 0 -63.9252
-356.498 0.588117 0 -50.277
-3.01324 0.751502 0 -58.2933
350.78 0.836695 0 -63.9348
-3.02162 0.702422 0 -58.2942
-3.01742 0.72701 0 -58.2937
-355.084 0.611181 0 -50.267
-352.256 0.657051 0 -50.2483
346.559 0.911151 0 -63.961
349.373 0.861618 0 -63.944
-353.67 0.634159 0 -50.2574
-3.00492 0.800192 0 -58.2924
347.966 0.886437 0 -63.9527
-3.01324 0.751502 0 -58.2933
-3.00907 0.775895 0 -58.2929
-352.256 0.657051 0 -50.2483
-349.428 0.702579 0 -50.2313
343.744 0.960263 0 -63.9763
346.559 0.911151 0 -63.961
-350.842 0.679858 0 -50.2396
-2.99666 0.848493 0 -58.2916
345.151 0.93576 0 -63.9689
-3.00492 0.800192 0 -58.2924
-3.00078 0.824391 0 -58.292
-349.428 0.702579 0 -50.2313
-346.599 0.747765 0 -50.2161
340.93 1.00895 0 -63.9898
343.744 0.960263 0 -63.9763
-348.013 0.725215 0 -50.2235
-2.98847 0.896404 0 -58.2907
342.337 0.984662 0 -63.9833
-2.99666 0.848493 0 -58.2916
-2.99256 0.872497 0 -58.2911
-346.599 0.747765 0 -50.2161
-343.771 0.79261 0 -50.2025
338.116 1.05722 0 -64.0016
340.93 1.00895 0 -63.9898
-345.185 0.77023 0 -50.2091
-2.98034 0.943926 0 -58.2898
339.523 1.03314 0 -63.9959
-2.98847 0.896404 0 -58.2907
-2.98439 0.920214 0 -58.2903
-343.771 0.79261 0 -50.2025
-340.944 0.837114 0 -50.1907
335.302 1.10507 0 -64.0117
338.116 1.05722 0 -64.0016
-342.358 0.814904 0 -50.1964
-2.97227 0.991059 0 -58.2889
336.709 1.0812 0 -64.0069
-2.98034 0.943926 0 -58.2898
-2.9763 0.967541 0 -58.2894
-340.944 0.837114 0 -50.1907
-338.116 0.881279 0 -50.1806
332.487 1.15249 0 -64.0201
335.302 1.10507 0 -64.0117
-339.53 0.859239 0 -50.1854
-2.96427 1.0378 0 -58.2881
333.895 1.12884 0 -64.0161
-2.97227 0.991059 0 -58.2889
-2.96827 1.01448 0 -58.2885
-338.116 0.881279 0 -50.1806
-335.288 0.925105 0 -50.1721
329.673 1.19949 0 -64.0268
332.487 1.15249 0 -64.0201
-336.702 0.903234 0 -50.1762
-2.95634 1.08415 0 -58.2872
331.08 1.17605 0 -64.0237
-2.96427 1.0378 0 -58.2881
-2.9603 1.06103 0 -58.2876
-335.288 0.925105 0 -50.1721
-332.461 0.968593 0 -50.1654
326.859 1.24606 0 -64.0319
329.673 1.19949 0 -64.0268
-333.874 0.946891 0 -50.1685
-2.94847 1.13012 0 -58.2863
328.266 1.22283 0 -64.0296
-2.95634 1.08415 0 -58.2872
-2.95239 1.10719 0 -58.2868
-332.461 0.968593 0 -50.1654
-329.633 1.01174 0 -50.1602
324.045 1.29221 0 -64.0353
326.859 1.24606 0 -64.0319
-331.047 0.99021 0 -50.1626
-2.94066 1.17569 0 -58.2854
325.452 1.26919 0 -64.0338
-2.94847 1.13012 0 -58.2863
-2.94455 1.15295 0 -58.2859
-329.633 1.01174 0 -50.1602
-326.806 1.05456 0 -50.1567
321.23 1.33793 0 -64.0371
324.045 1.29221 0 -64.0353
-328.22 1.03319 0 -50.1583
-2.93292 1.22088 0 -58.2846
322.638 1.31513 0 -64.0364
-2.94066 1.17569 0 -58.2854
-2.93678 1.19833 0 -58.285
-326.806 1.05456 0 -50.1567
-323.979 1.09703 0 -50.1549
318.416 1.38323 0 -64.0372
321.23 1.33793 0 -64.0371
-325.392 1.07584 0 -50.1556
-2.92524 1.26567 0 -58.2837
319.823 1.36063 0 -64.0373
-2.93292 1.22088 0 -58.2846
-2.92907 1.24332 0 -58.2841
-323.979 1.09703 0 -50.1549
-321.152 1.13918 0 -50.1546
315.602 1.42809 0 -64.0357
318.416 1.38323 0 -64.0372
-322.565 1.11815 0 -50.1545
-2.91763 1.31008 0 -58.2828
317.009 1.40571 0 -64.0367
-2.92524 1.26567 0 -58.2837
-2.92143 1.28792 0 -58.2832
-321.152 1.13918 0 -50.1546
-318.325 1.18098 0 -50.1559
312.788 1.47253 0 -64.0327
315.602 1.42809 0 -64.0357
-319.738 1.16012 0 -50.1551
-2.91008 1.35409 0 -58.2819
314.195 1.45036 0 -64.0344
-2.91763 1.31008 0 -58.2828
-2.91384 1.33213 0 -58.2824
-318.325 1.18098 0 -50.1559
-315.498 1.22245 0 -50.1588
309.974 1.51653 0 -64.028
312.788 1.47253 0 -64.0327
-316.911 1.20176 0 -50.1572
-2.9026 1.39772 0 -58.281
311.381 1.49458 0 -64.0305
-2.91008 1.35409 0 -58.2819
-2.90633 1.37595 0 -58.2815
-315.498 1.22245 0 -50.1588
-312.671 1.26359 0 -50.1633
307.159 1.56011 0 -64.0218
309.974 1.51653 0 -64.028
-314.084 1.24306 0 -50.1609
-2.89518 1.44095 0 -58.2802
308.566 1.53837 0 -64.0251
-2.9026 1.39772 0 -58.281
-2.89888 1.41938 0 -58.2806
-312.671 1.26359 0 -50.1633
-309.844 1.3044 0 -50.1693
304.345 1.60326 0 -64.0141
307.159 1.56011 0 -64.0218
-311.258 1.28404 0 -50.1661
-2.88782 1.48379 0 -58.2793
305.752 1.58174 0 -64.0181
-2.89518 1.44095 0 -58.2802
-2.89149 1.46242 0 -58.2797
-309.844 1.3044 0 -50.1693
-307.018 1.34487 0 -50.1769
301.531 1.64597 0 -64.0048
304.345 1.60326 0 -64.0141
-308.431 1.32467 0 -50.1729
-2.88054 1.52625 0 -58.2784
302.938 1.62467 0 -64.0096
-2.88782 1.48379 0 -58.2793
-2.88417 1.50507 0 -58.2789
-307.018 1.34487 0 -50.1769
-304.191 1.38501 0 -50.186
298.717 1.68825 0 -63.9939
301.531 1.64597 0 -64.0048
-305.605 1.36498 0 -50.1813
-2.87331 1.56831 0 -58.2775
300.124 1.66717 0 -63.9995
-2.88054 1.52625 0 -58.2784
-2.87692 1.54733 0 -58.278
-304.191 1.38501 0 -50.186
-301.365 1.42481 0 -50.1966
295.903 1.73011 0 -63.9816
298.717 1.68825 0 -63.9939
-302.778 1.40495 0 -50.1911
-2.86615 1.60999 0 -58.2767
297.31 1.70923 0 -63.988
-2.87331 1.56831 0 -58.2775
-2.86973 1.5892 0 -58.2771
-301.365 1.42481 0 -50.1966
-298.539 1.46429 0 -50.2087
293.088 1.77152 0 -63.9678
295.903 1.73011 0 -63.9816
-299.952 1.44459 0 -50.2025
-2.85906 1.65127 0 -58.2758
294.496 1.75087 0 -63.9749
-2.86615 1.60999 0 -58.2767
-2.8626 1.63068 0 -58.2762
-298.539 1.46429 0 -50.2087
-295.713 1.50343 0 -50.2223
290.274 1.81251 0 -63.9525
293.088 1.77152 0 -63.9678
-297.126 1.4839 0 -50.2153
-2.85203 1.69217 0 -58.2749
291.681 1.79207 0 -63.9603
-2.85906 1.65127 0 -58.2758
-2.85554 1.67177 0 -58.2754
-295.713 1.50343 0 -50.2223
-292.887 1.54224 0 -50.2373
287.46 1.85306 0 -63.9357
290.274 1.81251 0 -63.9525
-294.3 1.52288 0 -50.2296
-2.84507 1.73267 0 -58.2741
288.867 1.83284 0 -63.9443
-2.85203 1.69217 0 -58.2749
-2.84854 1.71247 0 -58.2745
-292.887 1.54224 0 -50.2373
-290.061 1.58072 0 -50.2539
284.646 1.89318 0 -63.9175
287.46 1.85306 0 -63.9357
-291.474 1.56152 0 -50.2454
-2.83817 1.77279 0 -58.2732
286.053 1.87318 0 -63.9268
-2.84507 1.73267 0 -58.2741
-2.84161 1.75278 0 -58.2736
-290.061 1.58072 0 -50.2539
-287.235 1.61887 0 -50.2718
281.832 1.93287 0 -63.8978
284.646 1.89318 0 -63.9175
-288.648 1.59984 0 -50.2627
-2.83134 1.81251 0 -58.2723
283.239 1.91308 0 -63.9078
-2.83817 1.77279 0 -58.2732
-2.83475 1.7927 0 -58.2728
-287.235 1.61887 0 -50.2718
-284.41 1.65669 0 -50.2912
279.018 1.97212 0 -63.8767
281.832 1.93287 0 -63.8978
-285.822 1.63782 0 -50.2813
-2.82458 1.85184 0 -58.2715
280.425 1.95255 0 -63.8875
-2.83134 1.81251 0 -58.2723
-2.82795 1.83222 0 -58.2719
-284.41 1.65669 0 -50.2912
-281.584 1.69418 0 -50.312
276.204 2.01093 0 -63.8542
279.018 1.97212 0 -63.8767
-282.997 1.67548 0 -50.3014
-2.81788 1.89079 0 -58.2706
277.611 1.99158 0 -63.8657
-2.82458 1.85184 0 -58.2715
-2.82122 1.87136 0 -58.271
-281.584 1.69418 0 -50.312
-278.759 1.73134 0 -50.3342
273.389 2.04931 0 -63.8304
276.204 2.01093 0 -63.8542
-280.172 1.7128 0 -50.3229
-2.81124 1.92934 0 -58.2698
274.796 2.03018 0 -63.8425
-2.81788 1.89079 0 -58.2706
-2.81455 1.91011 0 -58.2702
-278.759 1.73134 0 -50.3342
-275.934 1.76817 0 -50.3577
270.575 2.08726 0 -63.8051
273.389 2.04931 0 -63.8304
-277.346 1.7498 0 -50.3458
-2.80467 1.9675 0 -58.2689
271.982 2.06834 0 -63.8179
-2.81124 1.92934 0 -58.2698
-2.80795 1.94847 0 -58.2693
-275.934 1.76817 0 -50.3577
-273.109 1.80467 0 -50.3827
267.761 2.12477 0 -63.7785
270.575 2.08726 0 -63.8051
-274.521 1.78646 0 -50.37
-2.79817 2.00527 0 -58.2681
269.168 2.10607 0 -63.792
-2.80467 1.9675 0 -58.2689
-2.80141 1.98643 0 -58.2685
-273.109 1.80467 0 -50.3827
-270.284 1.84084 0 -50.409
264.947 2.16184 0 -63.7505
267.761 2.12477 0 -63.7785
-271.696 1.8228 0 -50.3957
-2.79173 2.04265 0 -58.2672
266.354 2.14336 0 -63.7646
-2.79817 2.00527 0 -58.2681
-2.79494 2.02401 0 -58.2676
-270.284 1.84084 0 -50.409
-267.459 1.87669 0 -50.4366
262.133 2.19848 0 -63.7212
264.947 2.16184 0 -63.7505
-268.871 1.85881 0 -50.4226
-2.78536 2.07964 0 -58.2664
263.54 2.18022 0 -63.736
-2.79173 2.04265 0 -58.2672
-2.78853 2.0612 0 -58.2668
-267.459 1.87669 0 -50.4366
-264.634 1.9122 0 -50.4656
259.319 2.23468 0 -63.6905
262.133 2.19848 0 -63.7212
-266.046 1.89448 0 -50.4509
-2.77905 2.11624 0 -58.2655
260.726 2.21664 0 -63.706
-2.78536 2.07964 0 -58.2664
-2.78219 2.09799 0 -58.266
-264.634 1.9122 0 -50.4656
-261.809 1.94738 0 -50.4959
256.505 2.27045 0 -63.6586
259.319 2.23468 0 -63.6905
-263.222 1.92983 0 -50.4806
-2.77281 2.15245 0 -58.2647
257.912 2.25262 0 -63.6747
-2.77905 2.11624 0 -58.2655
-2.77592 2.1344 0 -58.2651
-261.809 1.94738 0 -50.4959
-258.985 1.98224 0 -50.5275
253.691 2.30578 0 -63.6253
256.505 2.27045 0 -63.6586
-260.397 1.96485 0 -50.5115
-2.76663 2.18827 0 -58.2639
255.098 2.28817 0 -63.6421
-2.77281 2.15245 0 -58.2647
-2.76971 2.17041 0 -58.2643
-258.985 1.98224 0 -50.5275
-256.16 2.01676 0 -50.5604
250.877 2.34067 0 -63.5908
253.691 2.30578 0 -63.6253
-257.573 1.99954 0 -50.5438
-2.76052 2.2237 0 -58.263
252.284 2.32328 0 -63.6082
-2.76663 2.18827 0 -58.2639
-2.76357 2.20603 0 -58.2635
-256.16 2.01676 0 -50.5604
-253.336 2.05096 0 -50.5945
248.063 2.37513 0 -63.555
250.877 2.34067 0 -63.5908
-254.748 2.0339 0 -50.5773
-2.75448 2.25874 0 -58.2622
249.47 2.35795 0 -63.5731
-2.76052 2.2237 0 -58.263
-2.7575 2.24127 0 -58.2626
-253.336 2.05096 0 -50.5945
-250.512 2.08483 0 -50.6299
245.249 2.40915 0 -63.518
248.063 2.37513 0 -63.555
-251.924 2.06794 0 -50.6121
-2.74851 2.29338 0 -58.2614
246.656 2.39219 0 -63.5367
-2.75448 2.25874 0 -58.2622
-2.75149 2.27611 0 -58.2618
-250.512 2.08483 0 -50.6299
-247.688 2.11837 0 -50.6666
242.435 2.44273 0 -63.4797
245.249 2.40915 0 -63.518
-249.1 2.10164 0 -50.6481
-2.74259 2.32764 0 -58.2606
243.842 2.42599 0 -63.499
-2.74851 2.29338 0 -58.2614
-2.74554 2.31056 0 -58.261
-247.688 2.11837 0 -50.6666
-244.864 2.15158 0 -50.7045
239.621 2.47588 0 -63.4402
242.435 2.44273 0 -63.4797
-246.276 2.13501 0 -50.6854
-2.73675 2.36151 0 -58.2598
241.028 2.45936 0 -63.4601
-2.74259 2.32764 0 -58.2606
-2.73966 2.34462 0 -58.2602
-244.864 2.15158 0 -50.7045
-242.04 2.18446 0 -50.7436
236.807 2.50859 0 -63.3995
239.621 2.47588 0 -63.4402
-243.452 2.16806 0 -50.7239
-2.73097 2.39498 0 -58.259
238.214 2.49229 0 -63.42
-2.73675 2.36151 0 -58.2598
-2.73385 2.37829 0 -58.2594
-242.04 2.18446 0 -50.7436
-239.216 2.21701 0 -50.7839
233.993 2.54086 0 -63.3576
236.807 2.50859 0 -63.3995
-240.628 2.20077 0 -50.7636
-2.72526 2.42806 0 -58.2582
235.4 2.52478 0 -63.3787
-2.73097 2.39498 0 -58.259
-2.72811 2.41157 0 -58.2586
-239.216 2.21701 0 -50.7839
-236.393 2.24923 0 -50.8254
231.179 2.5727 0 -63.3146
233.993 2.54086 0 -63.3576
-237.805 2.23316 0 -50.8045
-2.71961 2.46076 0 -58.2574
232.586 2.55683 0 -63.3362
-2.72526 2.42806 0 -58.2582
-2.72243 2.44446 0 -58.2578
-236.393 2.24923 0 -50.8254
-233.569 2.28112 0 -50.8681
228.365 2.6041 0 -63.2703
231.179 2.5727 0 -63.3146
-234.981 2.26522 0 -50.8466
-2.71403 2.49306 0 -58.2566
229.772 2.58845 0 -63.2926
-2.71961 2.46076 0 -58.2574
-2.71682 2.47696 0 -58.257
-233.569 2.28112 0 -50.8681
-230.746 2.31269 0 -50.9119
225.551 2.63506 0 -63.2249
228.365 2.6041 0 -63.2703
-232.158 2.29695 0 -50.8898
-2.70852 2.52497 0 -58.2558
226.958 2.61964 0 -63.2478
-2.71403 2.49306 0 -58.2566
-2.71127 2.50906 0 -58.2562
-230.746 2.31269 0 -50.9119
-227.923 2.34392 0 -50.9569
222.737 2.66559 0 -63.1784
225.551 2.63506 0 -63.2249
-229.335 2.32835 0 -50.9342
-2.70307 2.55649 0 -58.255
224.144 2.65038 0 -63.2018
-2.70852 2.52497 0 -58.2558
-2.70579 2.54078 0 -58.2554
-227.923 2.34392 0 -50.9569
-225.1 2.37483 0 -51.003
219.923 2.69568 0 -63.1307
222.737 2.66559 0 -63.1784
-226.511 2.35942 0 -50.9798
-2.69769 2.58762 0 -58.2543
221.33 2.68069 0 -63.1547
-2.70307 2.55649 0 -58.255
-2.70038 2.5721 0 -58.2547
-225.1 2.37483 0 -51.003
-222.277 2.4054 0 -51.0502
217.109 2.72534 0 -63.082
219.923 2.69568 0 -63.1307
-223.688 2.39015 0 -51.0265
-2.69238 2.61836 0 -58.2535
218.516 2.71057 0 -63.1065
-2.69769 2.58762 0 -58.2543
-2.69503 2.60304 0 -58.2539
-222.277 2.4054 0 -51.0502
-219.454 2.43564 0 -51.0986
214.295 2.75456 0 -63.0321
217.109 2.72534 0 -63.082
-220.866 2.42056 0 -51.0743
-2.68713 2.6487 0 -58.2528
215.702 2.74 0 -63.0572
-2.69238 2.61836 0 -58.2535
-2.68975 2.63358 0 -58.2531
-219.454 2.43564 0 -51.0986
-216.631 2.46556 0 -51.148
211.481 2.78334 0 -62.9812
214.295 2.75456 0 -63.0321
-218.043 2.45064 0 -51.1232
-2.68195 2.67866 0 -58.252
212.888 2.76901 0 -63.0068
-2.68713 2.6487 0 -58.2528
-2.68454 2.66373 0 -58.2524
-216.631 2.46556 0 -51.148
-213.809 2.49514 0 -51.1985
208.667 2.81169 0 -62.9292
211.481 2.78334 0 -62.9812
-215.22 2.48039 0 -51.1731
-2.67684 2.70823 0 -58.2513
210.074 2.79757 0 -62.9553
-2.68195 2.67866 0 -58.252
-2.67939 2.69349 0 -58.2516
-213.809 2.49514 0 -51.1985
-210.986 2.52439 0 -51.2501
205.853 2.83961 0 -62.8761
208.667 2.81169 0 -62.9292
-212.398 2.50981 0 -51.2242
-2.67179 2.7374 0 -58.2505
207.26 2.8257 0 -62.9028
-2.67684 2.70823 0 -58.2513
-2.67431 2.72286 0 -58.2509
-210.986 2.52439 0 -51.2501
-208.164 2.55331 0 -51.3027
203.039 2.86708 0 -62.8221
205.853 2.83961 0 -62.8761
-209.575 2.53889 0 -51.2763
-2.66681 2.76618 0 -58.2498
204.446 2.8534 0 -62.8492
-2.67179 2.7374 0 -58.2505
-2.66929 2.75184 0 -58.2501
-208.164 2.55331 0 -51.3027
-205.342 2.5819 0 -51.3564
200.225 2.89413 0 -62.767
203.039 2.86708 0 -62.8221
-206.753 2.56765 0 -51.3294
-2.6619 2.79457 0 -58.2491
201.632 2.88066 0 -62.7946
-2.66681 2.76618 0 -58.2498
-2.66435 2.78043 0 -58.2494
-205.342 2.5819 0 -51.3564
-202.52 2.61015 0 -51.4111
197.411 2.92074 0 -62.7108
200.225 2.89413 0 -62.767
-203.931 2.59607 0 -51.3836
-2.65705 2.82258 0 -58.2483
198.818 2.90749 0 -62.739
-2.6619 2.79457 0 -58.2491
-2.65947 2.80862 0 -58.2487
-202.52 2.61015 0 -51.4111
-199.698 2.63808 0 -51.4668
194.597 2.94691 0 -62.6537
197.411 2.92074 0 -62.7108
-201.109 2.62416 0 -51.4388
-2.65227 2.85019 0 -58.2476
196.004 2.93388 0 -62.6824
-2.65705 2.82258 0 -58.2483
-2.65465 2.83643 0 -58.248
-199.698 2.63808 0 -51.4668
-196.876 2.66567 0 -51.5234
191.784 2.97265 0 -62.5956
194.597 2.94691 0 -62.6537
-198.287 2.65192 0 -51.495
-2.64756 2.8774 0 -58.2469
193.19 2.95984 0 -62.6248
-2.65227 2.85019 0 -58.2476
-2.64991 2.86384 0 -58.2473
-196.876 2.66567 0 -51.5234
-194.054 2.69293 0 -51.5811
188.97 2.99796 0 -62.5366
191.784 2.97265 0 -62.5956
-195.465 2.67934 0 -51.5522
-2.64291 2.90423 0 -58.2462
190.377 2.98536 0 -62.5662
-2.64756 2.8774 0 -58.2469
-2.64523 2.89087 0 -58.2466
-194.054 2.69293 0 -51.5811
-191.232 2.71985 0 -51.6397
186.156 3.02284 0 -62.4766
188.97 2.99796 0 -62.5366
-192.643 2.70643 0 -51.6103
-2.63833 2.93067 0 -58.2455
187.563 3.01045 0 -62.5067
-2.64291 2.90423 0 -58.2462
-2.64061 2.9175 0 -58.2459
-191.232 2.71985 0 -51.6397
-188.411 2.74645 0 -51.6993
183.342 3.04728 0 -62.4156
186.156 3.02284 0 -62.4766
-189.821 2.73319 0 -51.6694
-2.63382 2.95671 0 -58.2449
184.749 3.03511 0 -62.4462
-2.63833 2.93067 0 -58.2455
-2.63607 2.94374 0 -58.2452
-188.411 2.74645 0 -51.6993
-185.589 2.7727 0 -51.7598
180.528 3.07129 0 -62.3538
183.342 3.04728 0 -62.4156
-187 2.75962 0 -51.7295
-2.62938 2.98237 0 -58.2442
181.935 3.05934 0 -62.3848
-2.63382 2.95671 0 -58.2449
-2.63159 2.96959 0 -58.2445
-185.589 2.7727 0 -51.7598
-182.768 2.79863 0 -51.8213
177.714 3.09487 0 -62.291
180.528 3.07129 0 -62.3538
-184.179 2.78571 0 -51.7904
-2.625 3.00763 0 -58.2435
179.121 3.08313 0 -62.3225
-2.62938 2.98237 0 -58.2442
-2.62718 2.99505 0 -58.2438
-182.768 2.79863 0 -51.8213
-179.947 2.82421 0 -51.8836
174.9 3.11801 0 -62.2273
177.714 3.09487 0 -62.291
-181.357 2.81146 0 -51.8523
-2.62069 3.0325 0 -58.2429
176.307 3.10649 0 -62.2593
-2.625 3.00763 0 -58.2435
-2.62283 3.02011 0 -58.2432
-179.947 2.82421 0 -51.8836
-177.126 2.84946 0 -51.9469
172.086 3.14073 0 -62.1628
174.9 3.11801 0 -62.2273
-178.536 2.83688 0 -51.9152
-2.61644 3.05698 0 -58.2422
173.493 3.12942 0 -62.1952
-2.62069 3.0325 0 -58.2429
-2.61856 3.04479 0 -58.2425
-177.126 2.84946 0 -51.9469
-174.305 2.87438 0 -52.011
169.272 3.16301 0 -62.0974
172.086 3.14073 0 -62.1628
-175.715 2.86196 0 -51.9788
-2.61227 3.08107 0 -58.2416
170.679 3.15192 0 -62.1302
-2.61644 3.05698 0 -58.2422
-2.61435 3.06907 0 -58.2419
-174.305 2.87438 0 -52.011
-171.484 2.89896 0 -52.076
166.458 3.18486 0 -62.0311
169.272 3.16301 0 -62.0974
-172.894 2.88671 0 -52.0434
-2.60816 3.10476 0 -58.2409
167.865 3.17399 0 -62.0644
-2.61227 3.08107 0 -58.2416
-2.6102 3.09296 0 -58.2412
-171.484 2.89896 0 -52.076
-168.663 2.9232 0 -52.1419
163.645 3.20629 0 -61.964
166.458 3.18486 0 -62.0311
-170.073 2.91112 0 -52.1088
-2.60412 3.12807 0 -58.2403
165.051 3.19563 0 -61.9977
-2.60816 3.10476 0 -58.2409
-2.60613 3.11647 0 -58.2406
-168.663 2.9232 0 -52.1419
-165.842 2.94711 0 -52.2086
160.831 3.22728 0 -61.8961
163.645 3.20629 0 -61.964
-167.253 2.9352 0 -52.1751
-2.60014 3.15098 0 -58.2397
162.238 3.21684 0 -61.9302
-2.60412 3.12807 0 -58.2403
-2.60212 3.13958 0 -58.24
-165.842 2.94711 0 -52.2086
-163.022 2.97067 0 -52.2761
158.017 3.24785 0 -61.8274
160.831 3.22728 0 -61.8961
-164.432 2.95893 0 -52.2422
-2.59623 3.17351 0 -58.2391
159.424 3.23762 0 -61.8618
-2.60014 3.15098 0 -58.2397
-2.59818 3.16229 0 -58.2394
-163.022 2.97067 0 -52.2761
-160.201 2.9939 0 -52.3444
155.203 3.26799 0 -61.7578
158.017 3.24785 0 -61.8274
-161.612 2.98233 0 -52.3101
-2.59239 3.19564 0 -58.2385
156.61 3.25797 0 -61.7927
-2.59623 3.17351 0 -58.2391
-2.5943 3.18462 0 -58.2388
-160.201 2.9939 0 -52.3444
-157.381 3.01679 0 -52.4135
152.389 3.2877 0 -61.6875
155.203 3.26799 0 -61.7578
-158.791 3.00539 0 -52.3789
-2.58862 3.21738 0 -58.2379
153.796 3.27789 0 -61.7228
-2.59239 3.19564 0 -58.2385
-2.5905 3.20656 0 -58.2382
-157.381 3.01679 0 -52.4135
-154.561 3.03934 0 -52.4834
149.575 3.30698 0 -61.6165
152.389 3.2877 0 -61.6875
-155.971 3.02811 0 -52.4484
-2.58491 3.23873 0 -58.2373
150.982 3.29739 0 -61.6521
-2.58862 3.21738 0 -58.2379
-2.58676 3.2281 0 -58.2376
-154.561 3.03934 0 -52.4834
-151.741 3.06155 0 -52.5541
146.761 3.32583 0 -61.5446
149.575 3.30698 0 -61.6165
-153.151 3.05049 0 -52.5187
-2.58128 3.25968 0 -58.2367
148.168 3.31646 0 -61.5806
-2.58491 3.23873 0 -58.2373
-2.58309 3.24925 0 -58.237
-151.741 3.06155 0 -52.5541
-148.921 3.08342 0 -52.6256
143.947 3.34426 0 -61.4721
146.761 3.32583 0 -61.5446
-150.331 3.07253 0 -52.5897
-2.57771 3.28025 0 -58.2362
145.354 3.3351 0 -61.5085
-2.58128 3.25968 0 -58.2367
-2.57948 3.27002 0 -58.2365
-148.921 3.08342 0 -52.6256
-146.101 3.10495 0 -52.6977
141.133 3.36226 0 -61.3988
143.947 3.34426 0 -61.4721
-147.511 3.09423 0 -52.6616
-2.5742 3.30042 0 -58.2356
142.54 3.35332 0 -61.4355
-2.57771 3.28025 0 -58.2362
-2.57595 3.29039 0 -58.2359
-146.101 3.10495 0 -52.6977
-143.281 3.12613 0 -52.7706
138.319 3.37984 0 -61.3248
141.133 3.36226 0 -61.3988
-144.691 3.11558 0 -52.7341
-2.57077 3.32021 0 -58.2351
139.726 3.37111 0 -61.3619
-2.5742 3.30042 0 -58.2356
-2.57248 3.31036 0 -58.2353
-143.281 3.12613 0 -52.7706
-140.461 3.14697 0 -52.8443
135.505 3.397 0 -61.2501
138.319 3.37984 0 -61.3248
-141.871 3.13659 0 -52.8074
-2.5674 3.3396 0 -58.2345
136.912 3.38847 0 -61.2875
-2.57077 3.32021 0 -58.2351
-2.56907 3.32995 0 -58.2348
-140.461 3.14697 0 -52.8443
-137.642 3.16747 0 -52.9186
132.691 3.41373 0 -61.1747
135.505 3.397 0 -61.2501
-139.052 3.15727 0 -52.8813
-2.5641 3.3586 0 -58.234
134.098 3.40542 0 -61.2125
-2.5674 3.3396 0 -58.2345
-2.56574 3.34915 0 -58.2343
-137.642 3.16747 0 -52.9186
-134.822 3.18763 0 -52.9936
129.877 3.43003 0 -61.0987
132.691 3.41373 0 -61.1747
-136.232 3.17759 0 -52.956
-2.56087 3.37721 0 -58.2335
131.284 3.42193 0 -61.1368
-2.5641 3.3586 0 -58.234
-2.56247 3.36795 0 -58.2337
-134.822 3.18763 0 -52.9936
-132.003 3.20744 0 -53.0693
127.063 3.44592 0 -61.022
129.877 3.43003 0 -61.0987
-133.413 3.19757 0 -53.0313
-2.5577 3.39542 0 -58.233
128.47 3.43803 0 -61.0604
-2.56087 3.37721 0 -58.2335
-2.55928 3.38636 0 -58.2332
-132.003 3.20744 0 -53.0693
-129.184 3.2269 0 -53.1456
124.249 3.46138 0 -60.9447
127.063 3.44592 0 -61.022
-130.593 3.21721 0 -53.1073
-2.5546 3.41325 0 -58.2325
125.656 3.4537 0 -60.9834
-2.5577 3.39542 0 -58.233
-2.55614 3.40438 0 -58.2327
-129.184 3.2269 0 -53.1456
-126.365 3.24602 0 -53.2226
121.435 3.47642 0 -60.8667
124.249 3.46138 0 -60.9447
-127.774 3.2365 0 -53.184
-2.55157 3.43068 0 -58.232
122.842 3.46896 0 -60.9058
-2.5546 3.41325 0 -58.2325
-2.55308 3.42201 0 -58.2322
-126.365 3.24602 0 -53.2226
-123.546 3.26479 0 -53.3002
118.621 3.49104 0 -60.7882
121.435 3.47642 0 -60.8667
-124.955 3.25545 0 -53.2613
-2.54861 3.44772 0 -58.2315
120.028 3.48379 0 -60.8275
-2.55157 3.43068 0 -58.232
-2.55008 3.43925 0 -58.2318
-123.546 3.26479 0 -53.3002
-120.727 3.28322 0 -53.3784
115.807 3.50525 0 -60.709
118.621 3.49104 0 -60.7882
-122.136 3.27405 0 -53.3392
-2.54572 3.46437 0 -58.231
117.214 3.4982 0 -60.7487
-2.54861 3.44772 0 -58.2315
-2.54716 3.4561 0 -58.2313
-120.727 3.28322 0 -53.3784
-117.908 3.30129 0 -53.4572
112.993 3.51903 0 -60.6293
115.807 3.50525 0 -60.709
-119.317 3.2923 0 -53.4177
-2.54289 3.48063 0 -58.2306
114.4 3.51219 0 -60.6692
-2.54572 3.46437 0 -58.231
-2.5443 3.47255 0 -58.2308
-117.908 3.30129 0 -53.4572
-115.089 3.31902 0 -53.5366
110.179 3.53239 0 -60.549
112.993 3.51903 0 -60.6293
-116.498 3.3102 0 -53.4968
-2.54013 3.4965 0 -58.2301
111.586 3.52576 0 -60.5892
-2.54289 3.48063 0 -58.2306
-2.5415 3.48861 0 -58.2304
-115.089 3.31902 0 -53.5366
-112.27 3.3364 0 -53.6166
107.365 3.54534 0 -60.4681
110.179 3.53239 0 -60.549
-113.68 3.32775 0 -53.5765
-2.53744 3.51197 0 -58.2297
108.772 3.53892 0 -60.5086
-2.54013 3.4965 0 -58.2301
-2.53878 3.50429 0 -58.2299
-112.27 3.3364 0 -53.6166
-109.452 3.35343 0 -53.6972
104.551 3.55786 0 -60.3867
107.365 3.54534 0 -60.4681
-110.861 3.34496 0 -53.6568
-2.53482 3.52706 0 -58.2293
105.958 3.55165 0 -60.4275
-2.53744 3.51197 0 -58.2297
-2.53612 3.51957 0 -58.2295
-109.452 3.35343 0 -53.6972
-106.633 3.3701 0 -53.7782
101.737 3.56998 0 -60.3048
104.551 3.55786 0 -60.3867
-108.043 3.36181 0 -53.7376
-2.53227 3.54175 0 -58.2289
103.144 3.56397 0 -60.3458
-2.53482 3.52706 0 -58.2293
-2.53353 3.53445 0 -58.2291
-106.633 3.3701 0 -53.7782
-103.815 3.38643 0 -53.8599
98.9226 3.58167 0 -60.2223
101.737 3.56998 0 -60.3048
-105.224 3.37831 0 -53.819
-2.52978 3.55605 0 -58.2284
100.33 3.57588 0 -60.2636
-2.53227 3.54175 0 -58.2289
-2.53101 3.54895 0 -58.2287
-103.815 3.38643 0 -53.8599
-100.997 3.4024 0 -53.942
96.1084 3.59295 0 -60.1394
98.9226 3.58167 0 -60.2223
-102.406 3.39446 0 -53.9009
-2.52736 3.56996 0 -58.2281
97.5155 3.58736 0 -60.1809
-2.52978 3.55605 0 -58.2284
-2.52856 3.56305 0 -58.2282
-100.997 3.4024 0 -53.942
-98.1785 3.41801 0 -54.0246
93.2942 3.60382 0 -60.056
96.1084 3.59295 0 -60.1394
-99.5876 3.41025 0 -53.9833
-2.52501 3.58347 0 -58.2277
94.7013 3.59844 0 -60.0978
-2.52736 3.56996 0 -58.2281
-2.52618 3.57676 0 -58.2279
-98.1785 3.41801 0 -54.0246
-95.3604 3.43327 0 -54.1078
90.48 3.61427 0 -59.9721
93.2942 3.60382 0 -60.056
-96.7694 3.42569 0 -54.0661
-2.52273 3.59659 0 -58.2273
91.8871 3.60909 0 -60.0141
-2.52501 3.58347 0 -58.2277
-2.52386 3.59008 0 -58.2275
-95.3604 3.43327 0 -54.1078
-92.5424 3.44818 0 -54.1914
87.6657 3.6243 0 -59.8878
90.48 3.61427 0 -59.9721
-93.9514 3.44077 0 -54.1495
-2.52051 3.60932 0 -58.2269
89.0729 3.61934 0 -59.93
-2.52273 3.59659 0 -58.2273
-2.52161 3.60301 0 -58.2271
-92.5424 3.44818 0 -54.1914
-89.7245 3.46272 0 -54.2754
84.8515 3.63392 0 -59.803
87.6657 3.6243 0 -59.8878
-91.1334 3.45549 0 -54.2334
-2.51836 3.62165 0 -58.2266
86.2586 3.62917 0 -59.8454
-2.52051 3.60932 0 -58.2269
-2.51943 3.61553 0 -58.2267
-89.7245 3.46272 0 -54.2754
-86.9066 3.4769 0 -54.36
82.0372 3.64313 0 -59.7178
84.8515 3.63392 0 -59.803
-88.3155 3.46986 0 -54.3176
-2.51627 3.63359 0 -58.2262
83.4443 3.63858 0 -59.7604
-2.51836 3.62165 0 -58.2266
-2.51731 3.62767 0 -58.2264
-86.9066 3.4769 0 -54.36
-84.0889 3.49072 0 -54.4449
79.2229 3.65191 0 -59.6322
82.0372 3.64313 0 -59.7178
-85.4978 3.48386 0 -54.4024
-2.51425 3.64512 0 -58.2259
80.63 3.64757 0 -59.675
-2.51627 3.63359 0 -58.2262
-2.51525 3.6394 0 -58.2261
-84.0889 3.49072 0 -54.4449
-81.2712 3.50417 0 -54.5303
76.4085 3.66028 0 -59.5462
79.2229 3.65191 0 -59.6322
-82.6801 3.49749 0 -54.4875
-2.51228 3.65626 0 -58.2256
77.8157 3.65615 0 -59.5892
-2.51425 3.64512 0 -58.2259
-2.51326 3.65074 0 -58.2257
-81.2712 3.50417 0 -54.5303
-78.4536 3.51725 0 -54.616
73.5942 3.66823 0 -59.4598
76.4085 3.66028 0 -59.5462
-79.8624 3.51076 0 -54.5731
-2.51037 3.66699 0 -58.2253
75.0014 3.66431 0 -59.503
-2.51228 3.65626 0 -58.2256
-2.51132 3.66167 0 -58.2254
-78.4536 3.51725 0 -54.616
-75.6361 3.52997 0 -54.7022
70.7798 3.67576 0 -59.373
73.5942 3.66823 0 -59.4598
-77.0449 3.52366 0 -54.659
-2.50851 3.67732 0 -58.225
72.187 3.67205 0 -59.4165
-2.51037 3.66699 0 -58.2253
-2.50944 3.6722 0 -58.2251
-75.6361 3.52997 0 -54.7022
-72.8187 3.54231 0 -54.7887
67.9655 3.68287 0 -59.2859
70.7798 3.67576 0 -59.373
-74.2274 3.53618 0 -54.7454
-2.5067 3.68725 0 -58.2247
69.3727 3.67937 0 -59.3295
-2.50851 3.67732 0 -58.225
-2.5076 3.68233 0 -58.2248
-72.8187 3.54231 0 -54.7887
-70.0013 3.55429 0 -54.8755
65.1511 3.68957 0 -59.1985
67.9655 3.68287 0 -59.2859
-71.41 3.54834 0 -54.8321
-2.50492 3.69677 0 -58.2244
66.5583 3.68627 0 -59.2423
-2.5067 3.68725 0 -58.2247
-2.50581 3.69206 0 -58.2245
-70.0013 3.55429 0 -54.8755
-67.1839 3.56591 0 -54.9627
62.3368 3.69584 0 -59.1107
65.1511 3.68957 0 -59.1985
-68.5926 3.56014 0 -54.9191
-2.50317 3.70591 0 -58.2241
63.7439 3.69276 0 -59.1547
-2.50492 3.69677 0 -58.2244
-2.50404 3.70139 0 -58.2242
-67.1839 3.56591 0 -54.9627
-64.3666 3.57721 0 -55.0502
59.5224 3.70172 0 -59.0226
62.3368 3.69584 0 -59.1107
-65.7753 3.5716 0 -55.0064
-2.50145 3.71467 0 -58.2238
60.9296 3.69883 0 -59.0667
-2.50317 3.70591 0 -58.2241
-2.50231 3.71034 0 -58.2239
-64.3666 3.57721 0 -55.0502
-61.5494 3.5882 0 -55.138
56.7082 3.70723 0 -58.9342
59.5224 3.70172 0 -59.0226
-62.958 3.58274 0 -55.0941
-2.49974 3.72309 0 -58.2234
58.1153 3.70452 0 -58.9784
-2.50145 3.71467 0 -58.2238
-2.50059 3.71892 0 -58.2236
-61.5494 3.5882 0 -55.138
-58.7323 3.59895 0 -55.226
53.8939 3.71241 0 -58.8453
56.7082 3.70723 0 -58.9342
-60.1408 3.5936 0 -55.182
-2.49807 3.73123 0 -58.223
55.301 3.70986 0 -58.8898
-2.49974 3.72309 0 -58.2234
-2.4989 3.72719 0 -58.2232
-58.7323 3.59895 0 -55.226
-55.9153 3.60951 0 -55.3143
51.0798 3.71736 0 -58.7561
53.8939 3.71241 0 -58.8453
-57.3238 3.60425 0 -55.2701
-2.49644 3.73916 0 -58.2225
52.4868 3.71491 0 -58.8008
-2.49807 3.73123 0 -58.223
-2.49725 3.73521 0 -58.2227
-55.9153 3.60951 0 -55.3143
-53.0985 3.61999 0 -55.4028
48.2656 3.72225 0 -58.6665
51.0798 3.71736 0 -58.7561
-54.5069 3.61476 0 -55.3585
-2.49492 3.74702 0 -58.2219
49.6727 3.7198 0 -58.7114
-2.49644 3.73916 0 -58.2225
-2.49566 3.74309 0 -58.2222
-53.0985 3.61999 0 -55.4028
-50.282 3.63039 0 -55.4917
45.4514 3.72742 0 -58.5766
48.2656 3.72225 0 -58.6665
-51.6902 3.6252 0 -55.4472
-2.49362 3.75501 0 -58.2214
46.8585 3.72476 0 -58.6216
-2.49492 3.74702 0 -58.2219
-2.49424 3.75099 0 -58.2216
-50.282 3.63039 0 -55.4917
-47.4656 3.64072 0 -55.5814
42.6366 3.73342 0 -58.4866
45.4514 3.72742 0 -58.5766
-48.8738 3.63557 0 -55.5364
-2.49273 3.76342 0 -58.2213
44.0441 3.73026 0 -58.5316
-2.49362 3.75501 0 -58.2214
-2.49311 3.75914 0 -58.2212
-47.4656 3.64072 0 -55.5814
-44.6496 3.65054 0 -55.6728
39.8208 3.74147 0 -58.3972
42.6366 3.73342 0 -58.4866
-46.0575 3.64575 0 -55.6268
-2.49259 3.77267 0 -58.2228
41.2288 3.73707 0 -58.4417
-2.49273 3.76342 0 -58.2213
-2.49254 3.7679 0 -58.2218
-44.6496 3.65054 0 -55.6728
-41.8327 3.65918 0 -55.7682
37.0018 3.7534 0 -58.3102
39.8208 3.74147 0 -58.3972
-43.2414 3.65509 0 -55.7198
-2.49378 3.78338 0 -58.2282
38.412 3.74678 0 -58.3532
-2.49259 3.77267 0 -58.2228
-2.49297 3.77779 0 -58.2247
-41.8327 3.65918 0 -55.7682
-39.0143 3.66415 0 -55.872
34.1773 3.77331 0 -58.2294
37.0018 3.7534 0 -58.3102
-40.4236 3.66237 0 -55.8187
-2.49726 3.79643 0 -58.2426
35.5903 3.76199 0 -58.2687
-2.49378 3.78338 0 -58.2282
-2.49517 3.78955 0 -58.2339
-39.0143 3.66415 0 -55.872
-36.1882 3.66244 0 -55.9933
31.3384 3.80654 0 -58.1627
34.1773 3.77331 0 -58.2294
-37.6031 3.66446 0 -55.9296
-2.50452 3.81313 0 -58.2759
32.7607 3.78775 0 -58.1936
-2.49726 3.79643 0 -58.2426
-2.50028 3.80422 0 -58.2558
-36.1882 3.66244 0 -55.9933
-33.3512 3.64477 0 -56.1482
28.4776 3.8656 0 -58.1245
31.3384 3.80654 0 -58.1627
-34.7707 3.65637 0 -56.0652
-2.51799 3.8353 0 -58.3468
29.9107 3.83183 0 -58.1388
-2.50452 3.81313 0 -58.2759
-2.51032 3.82341 0 -58.3055
-33.3512 3.64477 0 -56.1482
-30.4781 3.60397 0 -56.3666
25.5633 3.96232 0 -58.1419
28.4776 3.8656 0 -58.1245
-31.9225 3.62811 0 -56.2468
-2.54131 3.86556 0 -58.4879
27.031 3.90804 0 -58.1239
-2.51799 3.8353 0 -58.3468
-2.52807 3.84918 0 -58.405
-30.4781 3.60397 0 -56.3666
-27.5608 3.51433 0 -56.6948
22.5778 4.12832 0 -58.2578
25.5633 3.96232 0 -58.1419
-29.023 3.56671 0 -56.5135
-2.57981 3.90727 0 -58.7524
24.0781 4.03482 0 -58.1841
-2.54131 3.86556 0 -58.4879
-2.55838 3.88482 0 -58.6021
-27.5608 3.51433 0 -56.6948
-24.5195 3.3769 0 -57.208
19.4281 4.3702 0 -58.5417
22.5778 4.12832 0 -58.2578
-26.0668 3.45235 0 -56.9218
-2.64064 3.96463 0 -59.2185
21.0358 4.23845 0 -58.373
-2.57981 3.90727 0 -58.7524
-2.60664 3.93355 0 -58.9506
-24.5195 3.3769 0 -57.208
-21.3613 3.14813 0 -57.9911
16.1067 4.73728 0 -59.0763
19.4281 4.3702 0 -58.5417
-22.9447 3.2726 0 -57.5609
-2.73172 4.04062 0 -59.9825
17.7794 4.5393 0 -58.7721
-2.64064 3.96463 0 -59.2185
-2.68238 4.00056 0 -59.5636
-21.3613 3.14813 0 -57.9911
-17.8976 2.94888 0 -59.1381
12.4108 5.10935 0 -59.9541
16.1067 4.73728 0 -59.0763
-19.6995 3.03801 0 -58.5119
-2.85855 4.13419 0 -61.1169
14.3384 4.92973 0 -59.4663
-2.73172 4.04062 0 -59.9825
-2.78949 4.0849 0 -60.4872
-17.8976 2.94888 0 -59.1381
-14.3291 2.81821 0 -60.5895
8.55029 5.4204 0 -61.1377
12.4108 5.10935 0 -59.9541
-16.0782 2.84837 0 -59.8407
-3.01337 4.22786 0 -62.5441
10.4508 5.30264 0 -60.5171
-2.85855 4.13419 0 -61.1169
-2.93548 4.18436 0 -61.8332
-14.3291 2.81821 0 -60.5895
-10.4135 3.50645 0 -61.9999
4.33515 4.84245 0 -62.3302
8.55029 5.4204 0 -61.1377
-12.4864 3.01757 0 -61.3337
-3.15692 4.27256 0 -63.7624
6.55349 5.29228 0 -61.7672
-3.01337 4.22786 0 -62.5441
-3.08728 4.25859 0 -63.1872
-10.4135 3.50645 0 -61.9999
-7.16011 5.40572 0 -62.086
0.959941 2.77551 0 -62.3627
4.33515 4.84245 0 -62.3302
-8.5313 4.21636 0 -62.3425
-3.18689 4.15715 0 -63.446
2.35129 4.10329 0 -62.6067
-3.15692 4.27256 0 -63.7624
-3.2012 4.2491 0 -63.9993
-7.16011 5.40572 0 -62.086
-3.96912 10.1482 0 -58.5317
-1.84854 -2.76005 0 -59.0106
0.959941 2.77551 0 -62.3627
-5.74955 7.49554 0 -60.94
-2.94569 3.71994 0 -59.3708
-0.348412 0.39271 0 -61.3023
-3.18689 4.15715 0 -63.446
-3.10112 3.98079 0 -61.8953
-3.96912 10.1482 0 -58.5317
-2.83507 14.8744 0 -47.5945
-1.57322 -9.37824 0 -48.4949
-1.84854 -2.76005 0 -59.0106
-2.75397 12.6174 0 -54.2465
-2.23137 2.76897 0 -48.7021
-2.52316 -6.01233 0 -54.8877
-2.94569 3.71994 0 -59.3708
-2.67873 3.33755 0 -55.3027
-2.83507 14.8744 0 -47.5945
-2.75678 20.8083 0 -26.8246
1.11194 -18.479 0 -28.1711
-1.57322 -9.37824 0 -48.4949
-3.15176 17.5333 0 -38.5025
-0.674532 1.19007 0 -26.7061
-0.0531226 -13.4667 0 -39.6715
-2.23137 2.76897 0 -48.7021
-1.5741 2.0104 0 -39.1607
534.185 160.298 0 215.343
521.505 87.4548 0 71.1662
1625.69 282.621 0 -5.70007
1496.14 448.279 0 136.875
512.077 124.221 0 135.768
1073.02 184.785 0 41.4613
1584.08 359.555 0 50.7988
992.786 297.667 0 196.516
1049.72 249.479 0 97.0021
521.505 87.4548 0 71.1662
549.963 51.4714 0 -15.3511
1656.91 122.712 0 -50.4555
1625.69 282.621 0 -5.70007
543.469 67.4128 0 20.3077
1098.82 94.771 0 -28.0072
1639.63 196.809 0 -34.4398
1073.02 184.785 0 41.4613
1084.75 132.635 0 3.87074
549.963 51.4714 0 -15.3511
551.967 19.0569 0 -54.6634
1672.98 41.8214 0 -59.5191
1656.91 122.712 0 -50.4555
548.987 33.5711 0 -39.0294
1112.25 36.254 0 -58.1645
1672.13 74.1411 0 -58.4796
1098.82 94.771 0 -28.0072
1109.16 62.6652 0 -48.7689
551.967 19.0569 0 -54.6634
553.631 3.84109 0 -68.7867
1660.45 4.20811 0 -55.6505
1672.98 41.8214 0 -59.5191
555.256 10.1548 0 -64.1005
1108.94 7.24271 0 -65.0805
1666.14 18.5458 0 -57.3335
1112.25 36.254 0 -58.1645
1111.51 18.412 0 -62.471
553.631 3.84109 0 -68.7867
547.734 -4.12974 0 -70.4207
1645.62 -6.86013 0 -53.1307
1660.45 4.20811 0 -55.6505
549.957 -1.19311 0 -70.3817
1098.88 -5.10484 0 -64.3731
1654.29 -3.13881 0 -54.4044
1108.94 7.24271 0 -65.0805
1104.52 -0.333328 0 -65.5075
547.734 -4.12974 0 -70.4207
542.774 -5.70332 0 -68.0899
1628.44 -9.60549 0 -51.5854
1645.62 -6.86013 0 -53.1307
545.808 -5.25638 0 -69.5085
1087.28 -8.03942 0 -62.0443
1636.21 -9.02537 0 -52.0491
1098.88 -5.10484 0 -64.3731
1092.9 -7.39242 0 -63.0322
542.774 -5.70332 0 -68.0899
536.91 -5.83479 0 -65.0393
1614.53 -8.29274 0 -51.4218
1628.44 -9.60549 0 -51.5854
539.461 -5.96375 0 -66.4978
1076.77 -7.75534 0 -60.0044
1621.5 -9.10946 0 -51.4727
1087.28 -8.03942 0 -62.0443
1081.87 -8.08293 0 -61.033
536.91 -5.83479 0 -65.0393
532.388 -5.02015 0 -62.6517
1601.99 -6.64477 0 -51.6167
1614.53 -8.29274 0 -51.4218
534.707 -5.42913 0 -63.7504
1067.73 -6.39337 0 -58.6675
1607.87 -7.50067 0 -51.4481
1076.77 -7.75534 0 -60.0044
1072.04 -7.13572 0 -59.2009
532.388 -5.02015 0 -62.6517
528.206 -4.35193 0 -61.0499
1591.33 -5.0593 0 -52.0934
1601.99 -6.64477 0 -51.6167
530.142 -4.68683 0 -61.7475
1059.97 -5.13324 0 -57.9348
1596.59 -5.78753 0 -51.8568
1067.73 -6.39337 0 -58.6675
1063.72 -5.72076 0 -58.257
528.206 -4.35193 0 -61.0499
524.698 -3.7573 0 -60.1274
1581.51 -3.98628 0 -52.5933
1591.33 -5.0593 0 -52.0934
526.442 -4.02486 0 -60.5206
1053.09 -4.15649 0 -57.641
1586.28 -4.47682 0 -52.334
1059.97 -5.13324 0 -57.9348
1056.44 -4.6079 0 -57.734
524.698 -3.7573 0 -60.1274
521.429 -3.3682 0 -59.6565
1572.38 -3.25296 0 -53.113
1581.51 -3.98628 0 -52.5933
523.012 -3.54794 0 -59.8454
1046.77 -3.50408 0 -57.6151
1576.91 -3.57446 0 -52.8581
1053.09 -4.15649 0 -57.641
1049.88 -3.79303 0 -57.6074
521.429 -3.3682 0 -59.6565
518.401 -3.087 0 -59.4719
1563.55 -2.80755 0 -53.6082
1572.38 -3.25296 0 -53.113
519.907 -3.21223 0 -59.5381
1040.78 -3.07832 0 -57.7486
1567.92 -3.00497 0 -53.3617
1046.77 -3.50408 0 -57.6151
1043.75 -3.2682 0 -57.6654
518.401 -3.087 0 -59.4719
515.463 -2.89988 0 -59.4485
1554.92 -2.52488 0 -54.0873
1563.55 -2.80755 0 -53.6082
516.917 -2.98606 0 -59.4453
1034.97 -2.80803 0 -57.9647
1559.22 -2.64848 0 -53.8509
1040.78 -3.07832 0 -57.7486
1037.86 -2.92765 0 -57.8506
515.463 -2.89988 0 -59.4485
512.595 -2.76054 0 -59.5129
1546.37 -2.34791 0 -54.5469
1554.92 -2.52488 0 -54.0873
514.026 -2.82466 0 -59.4733
1029.25 -2.6289 0 -58.2224
1550.64 -2.42735 0 -54.3189
1034.97 -2.80803 0 -57.9647
1032.1 -2.70987 0 -58.0899
512.595 -2.76054 0 -59.5129
509.754 -2.65366 0 -59.6204
1537.88 -2.22573 0 -54.9919
1546.37 -2.34791 0 -54.5469
511.171 -2.7045 0 -59.5631
1023.57 -2.50303 0 -58.4968
1542.12 -2.28136 0 -54.7713
1029.25 -2.6289 0 -58.2224
1026.4 -2.56099 0 -58.3587
509.754 -2.65366 0 -59.6204
506.93 -2.56285 0 -59.7475
1529.4 -2.13473 0 -55.4238
1537.88 -2.22573 0 -54.9919
508.341 -2.60655 0 -59.6825
1017.92 -2.40563 0 -58.776
1533.64 -2.17764 0 -55.2093
1023.57 -2.50303 0 -58.4968
1020.74 -2.45176 0 -58.6362
506.93 -2.56285 0 -59.7475
504.112 -2.48186 0 -59.8817
1520.93 -2.05873 0 -55.845
1529.4 -2.13473 0 -55.4238
505.52 -2.52155 0 -59.8142
1012.27 -2.32338 0 -59.0537
1525.16 -2.09532 0 -55.6357
1017.92 -2.40563 0 -58.776
1015.1 -2.36315 0 -58.9153
504.112 -2.48186 0 -59.8817
501.298 -2.4058 0 -60.0172
1512.46 -1.99053 0 -56.2563
1520.93 -2.05873 0 -55.845
502.705 -2.44332 0 -59.9495
1006.64 -2.24878 0 -59.3273
1516.69 -2.02401 0 -56.0518
1012.27 -2.32338 0 -59.0537
1009.45 -2.28541 0 -59.1911
501.298 -2.4058 0 -60.0172
498.486 -2.3327 0 -60.1513
1503.99 -1.92583 0 -56.6587
1512.46 -1.99053 0 -56.2563
499.892 -2.36899 0 -60.0845
1001 -2.17806 0 -59.5957
1508.22 -1.95786 0 -56.4586
1006.64 -2.24878 0 -59.3273
1003.82 -2.21308 0 -59.4622
498.486 -2.3327 0 -60.1513
495.674 -2.26125 0 -60.283
1495.52 -1.86287 0 -57.0528
1503.99 -1.92583 0 -56.6587
497.08 -2.2968 0 -60.2175
995.358 -2.1093 0 -59.8587
1499.76 -1.89421 0 -56.8568
1001 -2.17806 0 -59.5957
998.177 -2.1435 0 -59.7279
495.674 -2.26125 0 -60.283
492.862 -2.19091 0 -60.4119
1487.05 -1.80069 0 -57.4388
1495.52 -1.86287 0 -57.0528
494.268 -2.22597 0 -60.3478
989.719 -2.04161 0 -60.1162
1491.29 -1.83171 0 -57.2467
995.358 -2.1093 0 -59.8587
992.539 -2.07535 0 -59.9881
492.862 -2.19091 0 -60.4119
490.05 -2.12132 0 -60.5381
1478.58 -1.73895 0 -57.817
1487.05 -1.80069 0 -57.4388
491.456 -2.15603 0 -60.4754
984.08 -1.97455 0 -60.3684
1482.82 -1.76978 0 -57.6288
989.719 -2.04161 0 -60.1162
986.9 -2.00802 0 -60.243
490.05 -2.12132 0 -60.5381
487.238 -2.05233 0 -60.6615
1470.11 -1.67748 0 -58.1876
1478.58 -1.73895 0 -57.817
488.644 -2.08676 0 -60.6001
978.441 -1.90795 0 -60.6154
1474.35 -1.70819 0 -58.0032
984.08 -1.97455 0 -60.3684
981.261 -1.9412 0 -60.4926
487.238 -2.05233 0 -60.6615
484.426 -1.98382 0 -60.7823
1461.64 -1.61624 0 -58.5507
1470.11 -1.67748 0 -58.1876
485.832 -2.01802 0 -60.7222
972.802 -1.8417 0 -60.8573
1465.88 -1.64683 0 -58.37
978.441 -1.90795 0 -60.6154
975.622 -1.87478 0 -60.737
484.426 -1.98382 0 -60.7823
481.613 -1.91575 0 -60.9006
1453.17 -1.55519 0 -58.9063
1461.64 -1.61624 0 -58.5507
483.02 -1.94974 0 -60.8418
967.163 -1.77578 0 -61.0942
1457.41 -1.58569 0 -58.7294
972.802 -1.8417 0 -60.8573
969.982 -1.8087 0 -60.9764
481.613 -1.91575 0 -60.9006
478.801 -1.84808 0 -61.0163
1444.7 -1.49434 0 -59.2547
1453.17 -1.55519 0 -58.9063
480.207 -1.88187 0 -60.9587
961.523 -1.71016 0 -61.3262
1448.94 -1.52474 0 -59.0814
967.163 -1.77578 0 -61.0942
964.343 -1.74293 0 -61.2109
478.801 -1.84808 0 -61.0163
475.989 -1.78078 0 -61.1296
1436.23 -1.43369 0 -59.5957
1444.7 -1.49434 0 -59.2547
477.395 -1.81438 0 -61.0733
955.883 -1.64484 0 -61.5533
1440.47 -1.46399 0 -59.4261
961.523 -1.71016 0 -61.3262
958.703 -1.67746 0 -61.4404
475.989 -1.78078 0 -61.1296
473.176 -1.71384 0 -61.2404
1427.76 -1.37324 0 -59.9295
1436.23 -1.43369 0 -59.5957
474.582 -1.74726 0 -61.1853
950.243 -1.5798 0 -61.7756
1432 -1.40344 0 -59.7635
955.883 -1.64484 0 -61.5533
953.063 -1.61228 0 -61.6651
473.176 -1.71384 0 -61.2404
470.363 -1.64725 0 -61.3489
1419.29 -1.313 0 -60.2561
1427.76 -1.37324 0 -59.9295
471.77 -1.6805 0 -61.295
944.603 -1.51505 0 -61.9931
1423.52 -1.3431 0 -60.0937
950.243 -1.5798 0 -61.7756
947.423 -1.54739 0 -61.885
470.363 -1.64725 0 -61.3489
467.551 -1.58101 0 -61.4549
1410.82 -1.25299 0 -60.5756
1419.29 -1.313 0 -60.2561
468.957 -1.61409 0 -61.4022
938.963 -1.45059 0 -62.2058
1415.05 -1.28297 0 -60.4168
944.603 -1.51505 0 -61.9931
941.783 -1.48278 0 -62.1001
467.551 -1.58101 0 -61.4549
464.738 -1.51512 0 -61.5586
1402.35 -1.19319 0 -60.888
1410.82 -1.25299 0 -60.5756
466.144 -1.54802 0 -61.507
933.323 -1.38642 0 -62.4138
1406.58 -1.22306 0 -60.7327
938.963 -1.45059 0 -62.2058
936.143 -1.41847 0 -62.3104
464.738 -1.51512 0 -61.5586
461.925 -1.44958 0 -61.6599
1393.88 -1.13362 0 -61.1934
1402.35 -1.19319 0 -60.888
463.331 -1.48231 0 -61.6095
927.683 -1.32255 0 -62.6171
1398.11 -1.16338 0 -61.0416
933.323 -1.38642 0 -62.4138
930.503 -1.35445 0 -62.516
461.925 -1.44958 0 -61.6599
459.112 -1.38439 0 -61.7589
1385.41 -1.07429 0 -61.4917
1393.88 -1.13362 0 -61.1934
460.518 -1.41694 0 -61.7097
922.043 -1.25898 0 -62.8157
1389.64 -1.10393 0 -61.3434
927.683 -1.32255 0 -62.6171
924.863 -1.29073 0 -62.717
459.112 -1.38439 0 -61.7589
456.299 -1.31955 0 -61.8555
1376.94 -1.0152 0 -61.7831
1385.41 -1.07429 0 -61.4917
457.705 -1.35192 0 -61.8075
916.403 -1.19572 0 -63.0097
1381.17 -1.04472 0 -61.6383
922.043 -1.25898 0 -62.8157
919.223 -1.22732 0 -62.9133
456.299 -1.31955 0 -61.8555
453.486 -1.25506 0 -61.9498
1368.46 -0.956367 0 -62.0675
1376.94 -1.0152 0 -61.7831
454.892 -1.28726 0 -61.903
910.762 -1.13277 0 -63.199
1372.7 -0.985753 0 -61.9262
916.403 -1.19572 0 -63.0097
913.583 -1.16421 0 -63.1049
453.486 -1.25506 0 -61.9498
450.673 -1.19094 0 -62.0419
1359.99 -0.897789 0 -62.3451
1368.46 -0.956367 0 -62.0675
452.079 -1.22295 0 -61.9961
905.122 -1.07014 0 -63.3838
1364.23 -0.927045 0 -62.2072
910.762 -1.13277 0 -63.199
907.942 -1.10141 0 -63.292
450.673 -1.19094 0 -62.0419
447.859 -1.12717 0 -62.1316
1351.52 -0.839475 0 -62.6158
1359.99 -0.897789 0 -62.3451
449.266 -1.15901 0 -62.087
899.482 -1.00782 0 -63.5639
1355.76 -0.868599 0 -62.4813
905.122 -1.07014 0 -63.3838
902.302 -1.03894 0 -63.4744
447.859 -1.12717 0 -62.1316
445.046 -1.06377 0 -62.2191
1343.05 -0.781434 0 -62.8798
1351.52 -0.839475 0 -62.6158
446.453 -1.09542 0 -62.1756
893.841 -0.945831 0 -63.7396
1347.29 -0.81042 0 -62.7486
899.482 -1.00782 0 -63.5639
896.661 -0.976785 0 -63.6523
445.046 -1.06377 0 -62.2191
442.233 -1.00073 0 -62.3043
1334.58 -0.72367 0 -63.1369
1343.05 -0.781434 0 -62.8798
443.639 -1.0322 0 -62.262
888.201 -0.884172 0 -63.9107
1338.82 -0.752517 0 -63.0092
893.841 -0.945831 0 -63.7396
891.021 -0.91496 0 -63.8257
442.233 -1.00073 0 -62.3043
439.419 -0.938065 0 -62.3873
1326.11 -0.666192 0 -63.3874
1334.58 -0.72367 0 -63.1369
440.826 -0.969352 0 -62.3461
882.56 -0.822847 0 -64.0774
1330.35 -0.694895 0 -63.263
888.201 -0.884172 0 -63.9107
885.381 -0.853467 0 -63.9946
439.419 -0.938065 0 -62.3873
436.606 -0.875768 0 -62.468
1317.64 -0.609004 0 -63.6312
1326.11 -0.666192 0 -63.3874
438.013 -0.90687 0 -62.4279
876.92 -0.761861 0 -64.2396
1321.87 -0.637561 0 -63.5101
882.56 -0.822847 0 -64.0774
879.74 -0.792312 0 -64.1591
436.606 -0.875768 0 -62.468
433.792 -0.813845 0 -62.5465
1309.17 -0.552113 0 -63.8683
1317.64 -0.609004 0 -63.6312
435.199 -0.84476 0 -62.5075
871.279 -0.701219 0 -64.3974
1313.4 -0.580521 0 -63.7506
876.92 -0.761861 0 -64.2396
874.1 -0.731497 0 -64.3191
433.792 -0.813845 0 -62.5465
430.979 -0.752297 0 -62.6228
1300.7 -0.495526 0 -64.0989
1309.17 -0.552113 0 -63.8683
432.386 -0.783024 0 -62.585
865.639 -0.640923 0 -64.5508
1304.93 -0.523781 0 -63.9844
871.279 -0.701219 0 -64.3974
868.459 -0.671027 0 -64.4747
430.979 -0.752297 0 -62.6228
428.165 -0.691126 0 -62.697
1292.23 -0.439247 0 -64.3229
1300.7 -0.495526 0 -64.0989
429.572 -0.721664 0 -62.6602
859.998 -0.580978 0 -64.6999
1296.46 -0.467347 0 -64.2117
865.639 -0.640923 0 -64.5508
862.818 -0.610907 0 -64.6259
428.165 -0.691126 0 -62.697
425.352 -0.630334 0 -62.7689
1283.76 -0.383283 0 -64.5405
1292.23 -0.439247 0 -64.3229
426.758 -0.660682 0 -62.7332
854.358 -0.521388 0 -64.8446
1287.99 -0.411225 0 -64.4325
859.998 -0.580978 0 -64.6999
857.178 -0.551139 0 -64.7728
425.352 -0.630334 0 -62.7689
422.538 -0.569923 0 -62.8388
1275.29 -0.327638 0 -64.7516
1283.76 -0.383283 0 -64.5405
423.945 -0.600081 0 -62.8041
848.717 -0.462157 0 -64.985
1279.52 -0.35542 0 -64.6468
854.358 -0.521388 0 -64.8446
851.537 -0.491728 0 -64.9153
422.538 -0.569923 0 -62.8388
419.724 -0.509895 0 -62.9064
1266.82 -0.27232 0 -64.9562
1275.29 -0.327638 0 -64.7516
421.131 -0.539861 0 -62.8729
843.077 -0.403288 0 -65.1211
1271.05 -0.299938 0 -64.8547
848.717 -0.462157 0 -64.985
845.897 -0.432677 0 -65.0536
419.724 -0.509895 0 -62.9064
416.91 -0.450252 0 -62.972
1258.35 -0.217332 0 -65.1545
1266.82 -0.27232 0 -64.9562
418.317 -0.480025 0 -62.9395
837.436 -0.344784 0 -65.253
1262.58 -0.244784 0 -65.0562
843.077 -0.403288 0 -65.1211
840.256 -0.37399 0 -65.1876
416.91 -0.450252 0 -62.972
414.097 -0.390996 0 -63.0354
1249.88 -0.16268 0 -65.3465
1258.35 -0.217332 0 -65.1545
415.503 -0.420575 0 -63.0039
831.796 -0.286651 0 -65.3807
1254.11 -0.189964 0 -65.2513
837.436 -0.344784 0 -65.253
834.616 -0.315671 0 -65.3174
414.097 -0.390996 0 -63.0354
411.283 -0.332128 0 -63.0967
1241.4 -0.10837 0 -65.5322
1249.88 -0.16268 0 -65.3465
412.69 -0.361513 0 -63.0663
826.155 -0.228889 0 -65.5041
1245.64 -0.135482 0 -65.4401
831.796 -0.286651 0 -65.3807
828.975 -0.257723 0 -65.4429
411.283 -0.332128 0 -63.0967
408.469 -0.27365 0 -63.1559
1232.93 -0.0544053 0 -65.7116
1241.4 -0.10837 0 -65.5322
409.876 -0.30284 0 -63.1266
820.515 -0.171504 0 -65.6234
1237.17 -0.0813438 0 -65.6227
826.155 -0.228889 0 -65.5041
823.335 -0.200149 0 -65.5643
408.469 -0.27365 0 -63.1559
405.655 -0.215563 0 -63.2131
1224.46 -0.000792132 0 -65.8848
1232.93 -0.0544053 0 -65.7116
407.062 -0.244557 0 -63.1848
814.874 -0.114498 0 -65.7386
1228.7 -0.0275545 0 -65.799
820.515 -0.171504 0 -65.6234
817.694 -0.142954 0 -65.6815
405.655 -0.215563 0 -63.2131
402.841 -0.157871 0 -63.2682
1215.99 0.0524651 0 -66.0519
1224.46 -0.000792123 0 -65.8848
404.248 -0.186668 0 -63.2409
809.234 -0.0578752 0 -65.8497
1220.23 0.0258813 0 -65.9691
814.874 -0.114498 0 -65.7386
812.054 -0.0861387 0 -65.7946
402.841 -0.157871 0 -63.2682
400.027 -0.100573 0 -63.3213
1207.53 0.105362 0 -66.2129
1215.99 0.0524651 0 -66.0519
401.434 -0.129172 0 -63.295
803.593 -0.00163784 0 -65.9566
1211.76 0.0789588 0 -66.1332
809.234 -0.0578752 0 -65.8497
806.414 -0.0297081 0 -65.9037
400.027 -0.100573 0 -63.3213
397.213 -0.0436713 0 -63.3724
1199.06 0.157893 0 -66.3678
1207.53 0.105362 0 -66.2129
398.62 -0.0720723 0 -63.3471
797.953 0.0542107 0 -66.0596
1203.29 0.131673 0 -66.2911
803.593 -0.00163784 0 -65.9566
800.773 0.0263352 0 -66.0086
397.213 -0.0436713 0 -63.3724
394.399 0.0128319 0 -63.4214
1190.59 0.210055 0 -66.5166
1199.06 0.157893 0 -66.3678
395.806 -0.0153698 0 -63.3971
792.313 0.109667 0 -66.1585
1194.82 0.18402 0 -66.443
797.953 0.0542107 0 -66.0596
795.133 0.0819882 0 -66.1095
394.399 0.0128319 0 -63.4214
391.585 0.0689356 0 -63.4684
1182.12 0.261842 0 -66.6595
1190.59 0.210055 0 -66.5166
392.992 0.0409338 0 -63.4452
786.672 0.164729 0 -66.2534
1186.35 0.235996 0 -66.5888
792.313 0.109667 0 -66.1585
789.492 0.137248 0 -66.2065
391.585 0.0689356 0 -63.4684
388.771 0.124638 0 -63.5135
1173.65 0.313251 0 -66.7965
1182.12 0.261842 0 -66.6595
390.178 0.0968371 0 -63.4912
781.032 0.219393 0 -66.3444
1177.88 0.287594 0 -66.7287
786.672 0.164729 0 -66.2534
783.852 0.192111 0 -66.2994
388.771 0.124638 0 -63.5135
385.957 0.179938 0 -63.5566
1165.18 0.364278 0 -66.9275
1173.65 0.313251 0 -66.7965
387.364 0.152339 0 -63.5353
775.392 0.273657 0 -66.4314
1169.41 0.338813 0 -66.8627
781.032 0.219393 0 -66.3444
778.212 0.246575 0 -66.3884
385.957 0.179938 0 -63.5566
383.143 0.234834 0 -63.5977
1156.71 0.414918 0 -67.0527
1165.18 0.364278 0 -66.9275
384.55 0.207437 0 -63.5774
769.752 0.327517 0 -66.5145
1160.94 0.389646 0 -66.9908
775.392 0.273657 0 -66.4314
772.572 0.300638 0 -66.4735
383.143 0.234834 0 -63.5977
380.329 0.289325 0 -63.6369
1148.24 0.465167 0 -67.1721
1156.71 0.414918 0 -67.0527
381.736 0.262131 0 -63.6175
764.112 0.380972 0 -66.5938
1152.47 0.440091 0 -67.1131
769.752 0.327517 0 -66.5145
766.932 0.354295 0 -66.5546
380.329 0.289325 0 -63.6369
377.515 0.34341 0 -63.6741
1139.77 0.515021 0 -67.2857
1148.24 0.465167 0 -67.1721
378.922 0.316418 0 -63.6557
758.472 0.434017 0 -66.6692
1144.01 0.490144 0 -67.2296
764.112 0.380972 0 -66.5938
761.292 0.407546 0 -66.632
377.515 0.34341 0 -63.6741
374.701 0.397086 0 -63.7095
1131.3 0.564478 0 -67.3935
1139.77 0.515021 0 -67.2857
376.108 0.370299 0 -63.692
752.832 0.486652 0 -66.7408
1135.54 0.5398 0 -67.3403
758.472 0.434017 0 -66.6692
755.652 0.460386 0 -66.7055
374.701 0.397086 0 -63.7095
371.886 0.450353 0 -63.7429
1122.83 0.613532 0 -67.4957
1131.3 0.564478 0 -67.3935
373.293 0.423771 0 -63.7264
747.192 0.538873 0 -66.8086
1127.07 0.589055 0 -67.4453
752.832 0.486652 0 -66.7408
750.012 0.512815 0 -66.7751
371.886 0.450353 0 -63.7429
369.072 0.50321 0 -63.7745
1114.37 0.66218 0 -67.5923
1122.83 0.613532 0 -67.4957
370.479 0.476833 0 -63.7589
741.552 0.590678 0 -66.8726
1118.6 0.637907 0 -67.5447
747.192 0.538873 0 -66.8086
744.372 0.564828 0 -66.841
369.072 0.50321 0 -63.7745
366.258 0.555655 0 -63.8042
1105.9 0.710419 0 -67.6832
1114.37 0.66218 0 -67.5923
367.665 0.529484 0 -63.7896
735.912 0.642065 0 -66.9329
1110.13 0.686351 0 -67.6384
741.552 0.590678 0 -66.8726
738.732 0.616424 0 -66.9032
366.258 0.555655 0 -63.8042
363.444 0.607687 0 -63.832
1097.43 0.758246 0 -67.7686
1105.9 0.710419 0 -67.6832
364.851 0.581723 0 -63.8184
730.272 0.693031 0 -66.9895
1101.66 0.734384 0 -67.7266
735.912 0.642065 0 -66.9329
733.092 0.667601 0 -66.9616
363.444 0.607687 0 -63.832
360.63 0.659306 0 -63.8581
1088.96 0.805657 0 -67.8485
1097.43 0.758246 0 -67.7686
362.037 0.633548 0 -63.8453
724.632 0.743574 0 -67.0424
1093.2 0.782004 0 -67.8092
730.272 0.693031 0 -66.9895
727.452 0.718356 0 -67.0164
360.63 0.659306 0 -63.8581
357.815 0.710509 0 -63.8822
1080.49 0.852648 0 -67.9229
1088.96 0.805657 0 -67.8485
359.223 0.684959 0 -63.8704
718.993 0.793693 0 -67.0916
1084.73 0.829205 0 -67.8863
724.632 0.743574 0 -67.0424
721.813 0.768687 0 -67.0675
357.815 0.710509 0 -63.8822
355.001 0.761296 0 -63.9046
1072.03 0.899217 0 -67.9918
1080.49 0.852648 0 -67.9229
356.408 0.735955 0 -63.8936
713.353 0.843383 0 -67.1373
1076.26 0.875986 0 -67.958
718.993 0.793693 0 -67.0916
716.173 0.818592 0 -67.1149
355.001 0.761296 0 -63.9046
352.187 0.811666 0 -63.9252
1063.56 0.945361 0 -68.0554
1072.03 0.899217 0 -67.9918
353.594 0.786533 0 -63.9151
707.714 0.892645 0 -67.1793
1067.79 0.922342 0 -68.0243
713.353 0.843383 0 -67.1373
710.533 0.868068 0 -67.1588
352.187 0.811666 0 -63.9252
349.373 0.861618 0 -63.944
1055.09 0.991076 0 -68.1137
1063.56 0.945361 0 -68.0554
350.78 0.836695 0 -63.9348
702.074 0.941476 0 -67.2178
1059.32 0.968272 0 -68.0852
707.714 0.892645 0 -67.1793
704.894 0.917114 0 -67.199
349.373 0.861618 0 -63.944
346.559 0.911151 0 -63.961
1046.62 1.03636 0 -68.1666
1055.09 0.991076 0 -68.1137
347.966 0.886437 0 -63.9527
696.435 0.989873 0 -67.2528
1050.86 1.01377 0 -68.1408
702.074 0.941476 0 -67.2178
699.255 0.965728 0 -67.2357
346.559 0.911151 0 -63.961
343.744 0.960263 0 -63.9763
1038.16 1.08121 0 -68.2143
1046.62 1.03636 0 -68.1666
345.151 0.93576 0 -63.9689
690.796 1.03784 0 -67.2842
1042.39 1.05884 0 -68.1911
696.435 0.989873 0 -67.2528
693.615 1.01391 0 -67.2689
343.744 0.960263 0 -63.9763
340.93 1.00895 0 -63.9898
1029.69 1.12562 0 -68.2567
1038.16 1.08121 0 -68.2143
342.337 0.984662 0 -63.9833
685.156 1.08536 0 -67.3122
1033.92 1.10347 0 -68.2362
690.796 1.03784 0 -67.2842
687.976 1.06165 0 -67.2987
340.93 1.00895 0 -63.9898
338.116 1.05722 0 -64.0016
1021.22 1.1696 0 -68.294
1029.69 1.12562 0 -68.2567
339.523 1.03314 0 -63.9959
679.517 1.13245 0 -67.3367
1025.46 1.14767 0 -68.276
685.156 1.08536 0 -67.3122
682.337 1.10896 0 -67.3249
338.116 1.05722 0 -64.0016
335.302 1.10507 0 -64.0117
1012.76 1.21313 0 -68.3262
1021.22 1.1696 0 -68.294
336.709 1.0812 0 -64.0069
673.878 1.17909 0 -67.3579
1016.99 1.19142 0 -68.3108
679.517 1.13245 0 -67.3367
676.698 1.15583 0 -67.3477
335.302 1.10507 0 -64.0117
332.487 1.15249 0 -64.0201
1004.29 1.25622 0 -68.3533
1012.76 1.21313 0 -68.3262
333.895 1.12884 0 -64.0161
668.239 1.2253 0 -67.3756
1008.52 1.23473 0 -68.3404
673.878 1.17909 0 -67.3579
671.059 1.20225 0 -67.3671
332.487 1.15249 0 -64.0201
329.673 1.19949 0 -64.0268
995.826 1.29886 0 -68.3753
1004.29 1.25622 0 -68.3533
331.08 1.17605 0 -64.0237
662.6 1.27106 0 -67.3899
1000.06 1.2776 0 -68.3649
668.239 1.2253 0 -67.3756
665.42 1.24824 0 -67.3832
329.673 1.19949 0 -64.0268
326.859 1.24606 0 -64.0319
987.36 1.34105 0 -68.3924
995.826 1.29886 0 -68.3753
328.266 1.22283 0 -64.0296
656.962 1.31638 0 -67.401
991.593 1.32001 0 -68.3845
662.6 1.27106 0 -67.3899
659.781 1.29377 0 -67.3959
326.859 1.24606 0 -64.0319
324.045 1.29221 0 -64.0353
978.894 1.3828 0 -68.4044
987.36 1.34105 0 -68.3924
325.452 1.26919 0 -64.0338
651.323 1.36125 0 -67.4087
983.127 1.36198 0 -68.399
656.962 1.31638 0 -67.401
654.142 1.33887 0 -67.4052
324.045 1.29221 0 -64.0353
321.23 1.33793 0 -64.0371
970.429 1.42409 0 -68.4116
978.894 1.3828 0 -68.4044
322.638 1.31513 0 -64.0364
645.684 1.40567 0 -67.4131
974.662 1.4035 0 -68.4086
651.323 1.36125 0 -67.4087
648.504 1.38351 0 -67.4113
321.23 1.33793 0 -64.0371
318.416 1.38323 0 -64.0372
961.964 1.46492 0 -68.4139
970.429 1.42409 0 -68.4116
319.823 1.36063 0 -64.0373
640.046 1.44964 0 -67.4143
966.197 1.44456 0 -68.4134
645.684 1.40567 0 -67.4131
642.865 1.42771 0 -67.4141
318.416 1.38323 0 -64.0372
315.602 1.42809 0 -64.0357
953.499 1.5053 0 -68.4114
961.964 1.46492 0 -68.4139
317.009 1.40571 0 -64.0367
634.408 1.49316 0 -67.4123
957.732 1.48516 0 -68.4132
640.046 1.44964 0 -67.4143
637.227 1.47146 0 -67.4137
315.602 1.42809 0 -64.0357
312.788 1.47253 0 -64.0327
945.034 1.54521 0 -68.404
953.499 1.5053 0 -68.4114
314.195 1.45036 0 -64.0344
628.769 1.53623 0 -67.4071
949.267 1.52531 0 -68.4083
634.408 1.49316 0 -67.4123
631.588 1.51475 0 -67.4101
312.788 1.47253 0 -64.0327
309.974 1.51653 0 -64.028
936.57 1.58467 0 -68.392
945.034 1.54521 0 -68.404
311.381 1.49458 0 -64.0305
623.131 1.57885 0 -67.3987
940.802 1.565 0 -68.3986
628.769 1.53623 0 -67.4071
625.95 1.5576 0 -67.4033
309.974 1.51653 0 -64.028
307.159 1.56011 0 -64.0218
928.105 1.62367 0 -68.3752
936.57 1.58467 0 -68.392
308.566 1.53837 0 -64.0251
617.493 1.62101 0 -67.3872
932.338 1.60423 0 -68.3842
623.131 1.57885 0 -67.3987
620.312 1.59999 0 -67.3933
307.159 1.56011 0 -64.0218
304.345 1.60326 0 -64.0141
919.641 1.6622 0 -68.3538
928.105 1.62367 0 -68.3752
305.752 1.58174 0 -64.0181
611.855 1.66272 0 -67.3726
923.873 1.64299 0 -68.3651
617.493 1.62101 0 -67.3872
614.674 1.64192 0 -67.3803
304.345 1.60326 0 -64.0141
301.531 1.64597 0 -64.0048
911.177 1.70026 0 -68.3277
919.641 1.6622 0 -68.3538
302.938 1.62467 0 -64.0096
606.217 1.70397 0 -67.3549
915.409 1.68129 0 -68.3413
611.855 1.66272 0 -67.3726
609.036 1.68341 0 -67.3641
301.531 1.64597 0 -64.0048
298.717 1.68825 0 -63.9939
902.714 1.73786 0 -68.2971
911.177 1.70026 0 -68.3277
300.124 1.66717 0 -63.9995
600.579 1.74477 0 -67.3341
906.946 1.71912 0 -68.313
606.217 1.70397 0 -67.3549
603.398 1.72443 0 -67.3449
298.717 1.68825 0 -63.9939
295.903 1.73011 0 -63.9816
894.25 1.77499 0 -68.2619
902.714 1.73786 0 -68.2971
297.31 1.70923 0 -63.988
594.941 1.78511 0 -67.3104
898.482 1.75649 0 -68.2801
600.579 1.74477 0 -67.3341
597.76 1.76499 0 -67.3226
295.903 1.73011 0 -63.9816
293.088 1.77152 0 -63.9678
885.787 1.81165 0 -68.2223
894.25 1.77499 0 -68.2619
294.496 1.75087 0 -63.9749
589.304 1.82498 0 -67.2836
890.019 1.79338 0 -68.2427
594.941 1.78511 0 -67.3104
592.123 1.8051 0 -67.2974
293.088 1.77152 0 -63.9678
290.274 1.81251 0 -63.9525
877.324 1.84784 0 -68.1782
885.787 1.81165 0 -68.2223
291.681 1.79207 0 -63.9603
583.666 1.8644 0 -67.2539
881.555 1.82981 0 -68.2008
589.304 1.82498 0 -67.2836
586.485 1.84475 0 -67.2691
290.274 1.81251 0 -63.9525
287.46 1.85306 0 -63.9357
868.861 1.88356 0 -68.1297
877.324 1.84784 0 -68.1782
288.867 1.83284 0 -63.9443
578.029 1.90336 0 -67.2213
873.093 1.86576 0 -68.1545
583.666 1.8644 0 -67.2539
580.847 1.88394 0 -67.2379
287.46 1.85306 0 -63.9357
284.646 1.89318 0 -63.9175
860.399 1.91881 0 -68.0769
868.861 1.88356 0 -68.1297
286.053 1.87318 0 -63.9268
572.391 1.94185 0 -67.1857
864.63 1.90124 0 -68.1038
578.029 1.90336 0 -67.2213
575.21 1.92266 0 -67.2038
284.646 1.89318 0 -63.9175
281.832 1.93287 0 -63.8978
851.936 1.95358 0 -68.0197
860.399 1.91881 0 -68.0769
283.239 1.91308 0 -63.9078
566.754 1.97989 0 -67.1473
856.167 1.93625 0 -68.0488
572.391 1.94185 0 -67.1857
569.573 1.96093 0 -67.1668
281.832 1.93287 0 -63.8978
279.018 1.97212 0 -63.8767
843.474 1.98787 0 -67.9583
851.936 1.95358 0 -68.0197
280.425 1.95255 0 -63.8875
561.117 2.01746 0 -67.106
847.705 1.97078 0 -67.9895
566.754 1.97989 0 -67.1473
563.936 1.99873 0 -67.127
279.018 1.97212 0 -63.8767
276.204 2.01093 0 -63.8542
835.012 2.02169 0 -67.8926
843.474 1.98787 0 -67.9583
277.611 1.99158 0 -63.8657
555.48 2.05457 0 -67.0619
839.243 2.00484 0 -67.926
561.117 2.01746 0 -67.106
558.299 2.03607 0 -67.0843
276.204 2.01093 0 -63.8542
273.389 2.04931 0 -63.8304
826.55 2.05504 0 -67.8227
835.012 2.02169 0 -67.8926
274.796 2.03018 0 -63.8425
549.843 2.09121 0 -67.015
830.781 2.03843 0 -67.8582
555.48 2.05457 0 -67.0619
552.662 2.07295 0 -67.0388
273.389 2.04931 0 -63.8304
270.575 2.08726 0 -63.8051
818.089 2.0879 0 -67.7487
826.55 2.05504 0 -67.8227
271.982 2.06834 0 -63.8179
544.206 2.12739 0 -66.9654
822.319 2.07153 0 -67.7863
549.843 2.09121 0 -67.015
547.025 2.10936 0 -66.9905
270.575 2.08726 0 -63.8051
267.761 2.12477 0 -63.7785
809.627 2.12029 0 -67.6706
818.089 2.0879 0 -67.7487
269.168 2.10607 0 -63.792
538.57 2.16311 0 -66.913
813.858 2.10416 0 -67.7102
544.206 2.12739 0 -66.9654
541.388 2.14531 0 -66.9395
267.761 2.12477 0 -63.7785
264.947 2.16184 0 -63.7505
801.166 2.1522 0 -67.5885
809.627 2.12029 0 -67.6706
266.354 2.14336 0 -63.7646
532.933 2.19836 0 -66.8579
805.397 2.13631 0 -67.63
538.57 2.16311 0 -66.913
535.751 2.18079 0 -66.8858
264.947 2.16184 0 -63.7505
262.133 2.19848 0 -63.7212
792.705 2.18363 0 -67.5023
801.166 2.1522 0 -67.5885
263.54 2.18022 0 -63.736
527.297 2.23314 0 -66.8001
796.936 2.16798 0 -67.5459
532.933 2.19836 0 -66.8579
530.115 2.21581 0 -66.8293
262.133 2.19848 0 -63.7212
259.319 2.23468 0 -63.6905
784.245 2.21459 0 -67.4121
792.705 2.18363 0 -67.5023
260.726 2.21664 0 -63.706
521.66 2.26746 0 -66.7397
788.475 2.19917 0 -67.4577
527.297 2.23314 0 -66.8001
524.478 2.25036 0 -66.7702
259.319 2.23468 0 -63.6905
256.505 2.27045 0 -63.6586
775.784 2.24506 0 -67.318
784.245 2.21459 0 -67.4121
257.912 2.25262 0 -63.6747
516.024 2.30132 0 -66.6766
780.015 2.22988 0 -67.3655
521.66 2.26746 0 -66.7397
518.842 2.28445 0 -66.7085
256.505 2.27045 0 -63.6586
253.691 2.30578 0 -63.6253
767.324 2.27505 0 -67.22
775.784 2.24506 0 -67.318
255.098 2.28817 0 -63.6421
510.388 2.3347 0 -66.611
771.554 2.26011 0 -67.2695
516.024 2.30132 0 -66.6766
513.206 2.31807 0 -66.6442
253.691 2.30578 0 -63.6253
250.877 2.34067 0 -63.5908
758.864 2.30456 0 -67.1182
767.324 2.27505 0 -67.22
252.284 2.32328 0 -63.6082
504.752 2.36762 0 -66.5428
763.094 2.28987 0 -67.1696
510.388 2.3347 0 -66.611
507.57 2.35122 0 -66.5772
250.877 2.34067 0 -63.5908
248.063 2.37513 0 -63.555
750.404 2.33359 0 -67.0125
758.864 2.30456 0 -67.1182
249.47 2.35795 0 -63.5731
499.116 2.40008 0 -66.4721
754.634 2.31914 0 -67.0658
504.752 2.36762 0 -66.5428
501.934 2.38391 0 -66.5078
248.063 2.37513 0 -63.555
245.249 2.40915 0 -63.518
741.945 2.36214 0 -66.9031
750.404 2.33359 0 -67.0125
246.656 2.39219 0 -63.5367
493.48 2.43207 0 -66.3989
746.175 2.34793 0 -66.9583
499.116 2.40008 0 -66.4721
496.298 2.41613 0 -66.4358
245.249 2.40915 0 -63.518
242.435 2.44273 0 -63.4797
733.486 2.39021 0 -66.79
741.945 2.36214 0 -66.9031
243.842 2.42599 0 -63.499
487.844 2.46359 0 -66.3231
737.715 2.37624 0 -66.847
493.48 2.43207 0 -66.3989
490.662 2.44788 0 -66.3613
242.435 2.44273 0 -63.4797
239.621 2.47588 0 -63.4402
725.026 2.4178 0 -66.6732
733.486 2.39021 0 -66.79
241.028 2.45936 0 -63.4601
482.208 2.49464 0 -66.245
729.256 2.40407 0 -66.7321
487.844 2.46359 0 -66.3231
485.026 2.47917 0 -66.2844
239.621 2.47588 0 -63.4402
236.807 2.50859 0 -63.3995
716.568 2.44491 0 -66.5528
725.026 2.4178 0 -66.6732
238.214 2.49229 0 -63.42
476.573 2.52523 0 -66.1644
720.797 2.43142 0 -66.6134
482.208 2.49464 0 -66.245
479.391 2.50999 0 -66.205
236.807 2.50859 0 -63.3995
233.993 2.54086 0 -63.3576
708.109 2.47154 0 -66.4287
716.568 2.44491 0 -66.5528
235.4 2.52478 0 -63.3787
470.937 2.55535 0 -66.0814
712.338 2.45828 0 -66.4912
476.573 2.52523 0 -66.1644
473.755 2.54035 0 -66.1232
233.993 2.54086 0 -63.3576
231.179 2.5727 0 -63.3146
699.65 2.49768 0 -66.3011
708.109 2.47154 0 -66.4287
232.586 2.55683 0 -63.3362
465.302 2.58501 0 -65.9961
703.88 2.48467 0 -66.3654
470.937 2.55535 0 -66.0814
468.12 2.57024 0 -66.039
231.179 2.5727 0 -63.3146
228.365 2.6041 0 -63.2703
691.192 2.52335 0 -66.1701
699.65 2.49768 0 -66.3011
229.772 2.58845 0 -63.2926
459.667 2.61419 0 -65.9084
695.421 2.51058 0 -66.236
465.302 2.58501 0 -65.9961
462.484 2.59966 0 -65.9525
228.365 2.6041 0 -63.2703
225.551 2.63506 0 -63.2249
682.734 2.54854 0 -66.0355
691.192 2.52335 0 -66.1701
226.958 2.61964 0 -63.2478
454.032 2.64292 0 -65.8184
686.963 2.53601 0 -66.1032
459.667 2.61419 0 -65.9084
456.849 2.62861 0 -65.8637
225.551 2.63506 0 -63.2249
222.737 2.66559 0 -63.1784
674.276 2.57325 0 -65.8975
682.734 2.54854 0 -66.0355
224.144 2.65038 0 -63.2018
448.397 2.67118 0 -65.7261
678.505 2.56095 0 -65.9669
454.032 2.64292 0 -65.8184
451.214 2.6571 0 -65.7726
222.737 2.66559 0 -63.1784
219.923 2.69568 0 -63.1307
665.819 2.59748 0 -65.7562
674.276 2.57325 0 -65.8975
221.33 2.68069 0 -63.1547
442.762 2.69897 0 -65.6316
670.048 2.58542 0 -65.8273
448.397 2.67118 0 -65.7261
445.579 2.68513 0 -65.6792
219.923 2.69568 0 -63.1307
217.109 2.72534 0 -63.082
657.362 2.62123 0 -65.6115
665.819 2.59748 0 -65.7562
218.516 2.71057 0 -63.1065
437.127 2.72629 0 -65.5349
661.59 2.60941 0 -65.6842
442.762 2.69897 0 -65.6316
439.944 2.71269 0 -65.5835
217.109 2.72534 0 -63.082
214.295 2.75456 0 -63.0321
648.904 2.6445 0 -65.4635
657.362 2.62123 0 -65.6115
215.702 2.74 0 -63.0572
431.492 2.75316 0 -65.436
653.133 2.63293 0 -65.5379
437.127 2.72629 0 -65.5349
434.309 2.73978 0 -65.4857
214.295 2.75456 0 -63.0321
211.481 2.78334 0 -62.9812
640.448 2.6673 0 -65.3123
648.904 2.6445 0 -65.4635
212.888 2.76901 0 -63.0068
425.857 2.77955 0 -65.3349
644.676 2.65596 0 -65.3883
431.492 2.75316 0 -65.436
428.675 2.76641 0 -65.3857
211.481 2.78334 0 -62.9812
208.667 2.81169 0 -62.9292
631.991 2.68962 0 -65.1578
640.448 2.6673 0 -65.3123
210.074 2.79757 0 -62.9553
420.223 2.80549 0 -65.2316
636.219 2.67852 0 -65.2354
425.857 2.77955 0 -65.3349
423.04 2.79258 0 -65.2835
208.667 2.81169 0 -62.9292
205.853 2.83961 0 -62.8761
623.534 2.71146 0 -65.0002
631.991 2.68962 0 -65.1578
207.26 2.8257 0 -62.9028
414.588 2.83096 0 -65.1263
627.763 2.7006 0 -65.0794
420.223 2.80549 0 -65.2316
417.406 2.81828 0 -65.1792
205.853 2.83961 0 -62.8761
203.039 2.86708 0 -62.8221
615.078 2.73283 0 -64.8395
623.534 2.71146 0 -65.0002
204.446 2.8534 0 -62.8492
408.954 2.85596 0 -65.0189
619.306 2.72221 0 -64.9202
414.588 2.83096 0 -65.1263
411.771 2.84352 0 -65.0728
203.039 2.86708 0 -62.8221
200.225 2.89413 0 -62.767
606.622 2.75373 0 -64.6757
615.078 2.73283 0 -64.8395
201.632 2.88066 0 -62.7946
403.32 2.88051 0 -64.9094
610.85 2.74334 0 -64.758
408.954 2.85596 0 -65.0189
406.137 2.86829 0 -64.9644
200.225 2.89413 0 -62.767
197.411 2.92074 0 -62.7108
598.166 2.77415 0 -64.5088
606.622 2.75373 0 -64.6757
198.818 2.90749 0 -62.739
397.686 2.90459 0 -64.7979
602.394 2.764 0 -64.5926
403.32 2.88051 0 -64.9094
400.503 2.89261 0 -64.8539
197.411 2.92074 0 -62.7108
194.597 2.94691 0 -62.6537
589.71 2.7941 0 -64.339
598.166 2.77415 0 -64.5088
196.004 2.93388 0 -62.6824
392.052 2.92821 0 -64.6844
593.938 2.78418 0 -64.4243
397.686 2.90459 0 -64.7979
394.869 2.91646 0 -64.7414
194.597 2.94691 0 -62.6537
191.784 2.97265 0 -62.5956
581.255 2.81358 0 -64.1662
589.71 2.7941 0 -64.339
193.19 2.95984 0 -62.6248
386.418 2.95138 0 -64.5689
585.483 2.8039 0 -64.2529
392.052 2.92821 0 -64.6844
389.235 2.93985 0 -64.6269
191.784 2.97265 0 -62.5956
188.97 2.99796 0 -62.5366
572.8 2.83258 0 -63.9904
581.255 2.81358 0 -64.1662
190.377 2.98536 0 -62.5662
380.784 2.97408 0 -64.4516
577.027 2.82314 0 -64.0787
386.418 2.95138 0 -64.5689
383.601 2.96278 0 -64.5105
188.97 2.99796 0 -62.5366
186.156 3.02284 0 -62.4766
564.345 2.85112 0 -63.8119
572.8 2.83258 0 -63.9904
187.563 3.01045 0 -62.5067
375.15 2.99632 0 -64.3322
568.572 2.84191 0 -63.9015
380.784 2.97408 0 -64.4516
377.967 2.98525 0 -64.3921
186.156 3.02284 0 -62.4766
183.342 3.04728 0 -62.4156
555.89 2.86919 0 -63.6305
564.345 2.85112 0 -63.8119
184.749 3.03511 0 -62.4462
369.516 3.0181 0 -64.2111
560.117 2.86021 0 -63.7215
375.15 2.99632 0 -64.3322
372.333 3.00727 0 -64.2719
183.342 3.04728 0 -62.4156
180.528 3.07129 0 -62.3538
547.435 2.88679 0 -63.4463
555.89 2.86919 0 -63.6305
181.935 3.05934 0 -62.3848
363.883 3.03943 0 -64.088
551.662 2.87805 0 -63.5387
369.516 3.0181 0 -64.2111
366.7 3.02882 0 -64.1498
180.528 3.07129 0 -62.3538
177.714 3.09487 0 -62.291
538.981 2.90393 0 -63.2593
547.435 2.88679 0 -63.4463
179.121 3.08313 0 -62.3225
358.249 3.0603 0 -63.9632
543.208 2.89542 0 -63.3531
363.883 3.03943 0 -64.088
361.066 3.04992 0 -64.0258
177.714 3.09487 0 -62.291
174.9 3.11801 0 -62.2273
530.526 2.9206 0 -63.0697
538.981 2.90393 0 -63.2593
176.307 3.10649 0 -62.2593
352.616 3.08071 0 -63.8365
534.754 2.91232 0 -63.1648
358.249 3.0603 0 -63.9632
355.433 3.07056 0 -63.9
174.9 3.11801 0 -62.2273
172.086 3.14073 0 -62.1628
522.072 2.93681 0 -62.8774
530.526 2.9206 0 -63.0697
173.493 3.12942 0 -62.1952
346.982 3.10067 0 -63.7081
526.299 2.92876 0 -62.9739
352.616 3.08071 0 -63.8365
349.799 3.09074 0 -63.7725
172.086 3.14073 0 -62.1628
169.272 3.16301 0 -62.0974
513.619 2.95255 0 -62.6825
522.072 2.93681 0 -62.8774
170.679 3.15192 0 -62.1302
341.349 3.12017 0 -63.5779
517.845 2.94474 0 -62.7803
346.982 3.10067 0 -63.7081
344.166 3.11047 0 -63.6432
169.272 3.16301 0 -62.0974
166.458 3.18486 0 -62.0311
505.165 2.96784 0 -62.485
513.619 2.95255 0 -62.6825
167.865 3.17399 0 -62.0644
335.716 3.13922 0 -63.446
509.392 2.96025 0 -62.5841
341.349 3.12017 0 -63.5779
338.533 3.12975 0 -63.5122
166.458 3.18486 0 -62.0311
163.645 3.20629 0 -61.964
496.711 2.98266 0 -62.285
505.165 2.96784 0 -62.485
165.051 3.19563 0 -61.9977
330.083 3.15782 0 -63.3125
500.938 2.97531 0 -62.3853
335.716 3.13922 0 -63.446
332.9 3.14857 0 -63.3794
163.645 3.20629 0 -61.964
160.831 3.22728 0 -61.8961
488.258 2.99703 0 -62.0825
496.711 2.98266 0 -62.285
162.238 3.21684 0 -61.9302
324.45 3.17596 0 -63.1772
492.485 2.9899 0 -62.1841
330.083 3.15782 0 -63.3125
327.267 3.16694 0 -63.245
160.831 3.22728 0 -61.8961
158.017 3.24785 0 -61.8274
479.805 3.01094 0 -61.8776
488.258 2.99703 0 -62.0825
159.424 3.23762 0 -61.8618
318.817 3.19366 0 -63.0404
484.032 3.00405 0 -61.9804
324.45 3.17596 0 -63.1772
321.634 3.18487 0 -63.109
158.017 3.24785 0 -61.8274
155.203 3.26799 0 -61.7578
471.352 3.0244 0 -61.6703
479.805 3.01094 0 -61.8776
156.61 3.25797 0 -61.7927
313.184 3.2109 0 -62.9019
475.579 3.01773 0 -61.7742
318.817 3.19366 0 -63.0404
316.001 3.20234 0 -62.9714
155.203 3.26799 0 -61.7578
152.389 3.2877 0 -61.6875
462.899 3.03741 0 -61.4606
471.352 3.0244 0 -61.6703
153.796 3.27789 0 -61.7228
307.552 3.2277 0 -62.7619
467.126 3.03096 0 -61.5657
313.184 3.2109 0 -62.9019
310.368 3.21936 0 -62.8321
152.389 3.2877 0 -61.6875
149.575 3.30698 0 -61.6165
454.447 3.04996 0 -61.2486
462.899 3.03741 0 -61.4606
150.982 3.29739 0 -61.6521
301.919 3.24405 0 -62.6204
458.673 3.04374 0 -61.3548
307.552 3.2277 0 -62.7619
304.735 3.23593 0 -62.6914
149.575 3.30698 0 -61.6165
146.761 3.32583 0 -61.5446
445.994 3.06206 0 -61.0343
454.447 3.04996 0 -61.2486
148.168 3.31646 0 -61.5806
296.286 3.25995 0 -62.4773
450.221 3.05607 0 -61.1417
301.919 3.24405 0 -62.6204
299.103 3.25206 0 -62.549
146.761 3.32583 0 -61.5446
143.947 3.34426 0 -61.4721
437.542 3.07372 0 -60.8177
445.994 3.06206 0 -61.0343
145.354 3.3351 0 -61.5085
290.654 3.27541 0 -62.3328
441.768 3.06795 0 -60.9263
296.286 3.25995 0 -62.4773
293.47 3.26774 0 -62.4052
143.947 3.34426 0 -61.4721
141.133 3.36226 0 -61.3988
429.09 3.08493 0 -60.599
437.542 3.07372 0 -60.8177
142.54 3.35332 0 -61.4355
285.021 3.29043 0 -62.1868
433.316 3.07938 0 -60.7087
290.654 3.27541 0 -62.3328
287.837 3.28298 0 -62.2599
141.133 3.36226 0 -61.3988
138.319 3.37984 0 -61.3248
420.638 3.09569 0 -60.3782
429.09 3.08493 0 -60.599
139.726 3.37111 0 -61.3619
279.389 3.305 0 -62.0393
424.864 3.09037 0 -60.4889
285.021 3.29043 0 -62.1868
282.205 3.29777 0 -62.1132
138.319 3.37984 0 -61.3248
135.505 3.397 0 -61.2501
412.187 3.10602 0 -60.1552
420.638 3.09569 0 -60.3782
136.912 3.38847 0 -61.2875
273.757 3.31913 0 -61.8905
416.413 3.10091 0 -60.267
279.389 3.305 0 -62.0393
276.573 3.31212 0 -61.9651
135.505 3.397 0 -61.2501
132.691 3.41373 0 -61.1747
403.735 3.1159 0 -59.9302
412.187 3.10602 0 -60.1552
134.098 3.40542 0 -61.2125
268.124 3.33282 0 -61.7403
407.961 3.11101 0 -60.043
273.757 3.31913 0 -61.8905
270.94 3.32603 0 -61.8156
132.691 3.41373 0 -61.1747
129.877 3.43003 0 -61.0987
395.284 3.12534 0 -59.7032
403.735 3.1159 0 -59.9302
131.284 3.42193 0 -61.1368
262.492 3.34607 0 -61.5887
399.509 3.12068 0 -59.8169
268.124 3.33282 0 -61.7403
265.308 3.3395 0 -61.6647
129.877 3.43003 0 -61.0987
127.063 3.44592 0 -61.022
386.833 3.13435 0 -59.4742
395.284 3.12534 0 -59.7032
128.47 3.43803 0 -61.0604
256.86 3.35889 0 -61.4359
391.058 3.1299 0 -59.5889
262.492 3.34607 0 -61.5887
259.676 3.35254 0 -61.5125
127.063 3.44592 0 -61.022
124.249 3.46138 0 -60.9447
378.382 3.14292 0 -59.2432
386.833 3.13435 0 -59.4742
125.656 3.4537 0 -60.9834
251.228 3.37127 0 -61.2817
382.607 3.13869 0 -59.3589
256.86 3.35889 0 -61.4359
254.044 3.36513 0 -61.359
124.249 3.46138 0 -60.9447
121.435 3.47642 0 -60.8667
369.931 3.15106 0 -59.0104
378.382 3.14292 0 -59.2432
122.842 3.46896 0 -60.9058
245.596 3.38321 0 -61.1263
374.156 3.14704 0 -59.127
251.228 3.37127 0 -61.2817
248.412 3.37729 0 -61.2042
121.435 3.47642 0 -60.8667
118.621 3.49104 0 -60.7882
361.48 3.15877 0 -58.7757
369.931 3.15106 0 -59.0104
120.028 3.48379 0 -60.8275
239.964 3.39472 0 -60.9697
365.705 3.15497 0 -58.8933
245.596 3.38321 0 -61.1263
242.78 3.38902 0 -61.0482
118.621 3.49104 0 -60.7882
115.807 3.50525 0 -60.709
353.029 3.16605 0 -58.5392
361.48 3.15877 0 -58.7757
117.214 3.4982 0 -60.7487
234.332 3.4058 0 -60.8118
357.255 3.16246 0 -58.6577
239.964 3.39472 0 -60.9697
237.148 3.40031 0 -60.8909
115.807 3.50525 0 -60.709
112.993 3.51903 0 -60.6293
344.579 3.1729 0 -58.3009
353.029 3.16605 0 -58.5392
114.4 3.51219 0 -60.6692
228.7 3.41644 0 -60.6528
348.804 3.16952 0 -58.4203
234.332 3.4058 0 -60.8118
231.516 3.41117 0 -60.7325
112.993 3.51903 0 -60.6293
110.179 3.53239 0 -60.549
336.129 3.17933 0 -58.0609
344.579 3.1729 0 -58.3009
111.586 3.52576 0 -60.5892
223.069 3.42666 0 -60.4927
340.354 3.17616 0 -58.1811
228.7 3.41644 0 -60.6528
225.885 3.4216 0 -60.5729
110.179 3.53239 0 -60.549
107.365 3.54534 0 -60.4681
327.679 3.18533 0 -57.8193
336.129 3.17933 0 -58.0609
108.772 3.53892 0 -60.5086
217.437 3.43645 0 -60.3314
331.904 3.18238 0 -57.9403
223.069 3.42666 0 -60.4927
220.253 3.43161 0 -60.4122
107.365 3.54534 0 -60.4681
104.551 3.55786 0 -60.3867
319.229 3.19092 0 -57.576
327.679 3.18533 0 -57.8193
105.958 3.55165 0 -60.4275
211.805 3.44581 0 -60.169
323.454 3.18818 0 -57.6978
217.437 3.43645 0 -60.3314
214.621 3.44118 0 -60.2504
104.551 3.55786 0 -60.3867
101.737 3.56998 0 -60.3048
310.779 3.19608 0 -57.3311
319.229 3.19092 0 -57.576
103.144 3.56397 0 -60.3458
206.174 3.45475 0 -60.0056
315.004 3.19355 0 -57.4537
211.805 3.44581 0 -60.169
208.99 3.45033 0 -60.0875
101.737 3.56998 0 -60.3048
98.9226 3.58167 0 -60.2223
302.329 3.20083 0 -57.0846
310.779 3.19608 0 -57.3311
100.33 3.57588 0 -60.2636
200.542 3.46326 0 -59.8412
306.554 3.19851 0 -57.208
206.174 3.45475 0 -60.0056
203.358 3.45906 0 -59.9235
98.9226 3.58167 0 -60.2223
96.1084 3.59295 0 -60.1394
293.88 3.20517 0 -56.8366
302.329 3.20083 0 -57.0846
97.5155 3.58736 0 -60.1809
194.911 3.47135 0 -59.6757
298.104 3.20305 0 -56.9608
200.542 3.46326 0 -59.8412
197.726 3.46736 0 -59.7586
96.1084 3.59295 0 -60.1394
93.2942 3.60382 0 -60.056
285.43 3.20909 0 -56.5872
293.88 3.20517 0 -56.8366
94.7013 3.59844 0 -60.0978
189.279 3.47902 0 -59.5093
289.655 3.20718 0 -56.7121
194.911 3.47135 0 -59.6757
192.095 3.47524 0 -59.5926
93.2942 3.60382 0 -60.056
90.48 3.61427 0 -59.9721
276.981 3.21261 0 -56.3363
285.43 3.20909 0 -56.5872
91.8871 3.60909 0 -60.0141
183.648 3.48627 0 -59.3419
281.205 3.2109 0 -56.462
189.279 3.47902 0 -59.5093
186.463 3.48269 0 -59.4257
90.48 3.61427 0 -59.9721
87.6657 3.6243 0 -59.8878
268.532 3.21572 0 -56.0841
276.981 3.21261 0 -56.3363
89.0729 3.61934 0 -59.93
178.016 3.49309 0 -59.1736
272.756 3.21421 0 -56.2104
183.648 3.48627 0 -59.3419
180.832 3.48973 0 -59.2579
87.6657 3.6243 0 -59.8878
84.8515 3.63392 0 -59.803
260.083 3.21842 0 -55.8305
268.532 3.21572 0 -56.0841
86.2586 3.62917 0 -59.8454
172.385 3.4995 0 -59.0044
264.307 3.21712 0 -55.9575
178.016 3.49309 0 -59.1736
175.201 3.49635 0 -59.0891
84.8515 3.63392 0 -59.803
82.0372 3.64313 0 -59.7178
251.634 3.22071 0 -55.5757
260.083 3.21842 0 -55.8305
83.4443 3.63858 0 -59.7604
166.754 3.50549 0 -58.8344
255.858 3.21962 0 -55.7032
172.385 3.4995 0 -59.0044
169.569 3.50255 0 -58.9195
82.0372 3.64313 0 -59.7178
79.2229 3.65191 0 -59.6322
243.185 3.2226 0 -55.3195
251.634 3.22071 0 -55.5757
80.63 3.64757 0 -59.675
161.123 3.51107 0 -58.6635
247.409 3.22171 0 -55.4477
166.754 3.50549 0 -58.8344
163.938 3.50833 0 -58.749
79.2229 3.65191 0 -59.6322
76.4085 3.66028 0 -59.5462
234.736 3.22409 0 -55.0622
243.185 3.2226 0 -55.3195
77.8157 3.65615 0 -59.5892
155.491 3.51622 0 -58.4918
238.96 3.2234 0 -55.191
161.123 3.51107 0 -58.6635
158.307 3.5137 0 -58.5777
76.4085 3.66028 0 -59.5462
73.5942 3.66823 0 -59.4598
226.288 3.22518 0 -54.8037
234.736 3.22409 0 -55.0622
75.0014 3.66431 0 -59.503
149.86 3.52096 0 -58.3194
230.512 3.22469 0 -54.9331
155.491 3.51622 0 -58.4918
152.676 3.51864 0 -58.4057
73.5942 3.66823 0 -59.4598
70.7798 3.67576 0 -59.373
217.839 3.22586 0 -54.5441
226.288 3.22518 0 -54.8037
72.187 3.67205 0 -59.4165
144.229 3.52527 0 -58.1462
222.063 3.22557 0 -54.674
149.86 3.52096 0 -58.3194
147.045 3.52316 0 -58.2329
70.7798 3.67576 0 -59.373
67.9655 3.68287 0 -59.2859
209.391 3.22615 0 -54.2834
217.839 3.22586 0 -54.5441
69.3727 3.67937 0 -59.3295
138.598 3.52916 0 -57.9723
213.615 3.22605 0 -54.4139
144.229 3.52527 0 -58.1462
141.413 3.52727 0 -58.0593
67.9655 3.68287 0 -59.2859
65.1511 3.68957 0 -59.1985
200.942 3.22603 0 -54.0217
209.391 3.22615 0 -54.2834
66.5583 3.68627 0 -59.2423
132.967 3.53264 0 -57.7977
205.167 3.22614 0 -54.1527
138.598 3.52916 0 -57.9723
135.782 3.53095 0 -57.8851
65.1511 3.68957 0 -59.1985
62.3368 3.69584 0 -59.1107
192.494 3.22551 0 -53.759
200.942 3.22603 0 -54.0217
63.7439 3.69276 0 -59.1547
127.336 3.5357 0 -57.6224
196.718 3.22582 0 -53.8905
132.967 3.53264 0 -57.7977
130.151 3.53422 0 -57.7101
62.3368 3.69584 0 -59.1107
59.5224 3.70172 0 -59.0226
184.046 3.22459 0 -53.4953
192.494 3.22551 0 -53.759
60.9296 3.69883 0 -59.0667
121.705 3.53835 0 -57.4466
188.27 3.2251 0 -53.6273
127.336 3.5357 0 -57.6224
124.52 3.53707 0 -57.5346
59.5224 3.70172 0 -59.0226
56.7082 3.70723 0 -58.9342
175.599 3.22329 0 -53.2308
184.046 3.22459 0 -53.4953
58.1153 3.70452 0 -58.9784
116.074 3.5406 0 -57.27
179.823 3.22399 0 -53.3632
121.705 3.53835 0 -57.4466
118.89 3.53952 0 -57.3584
56.7082 3.70723 0 -58.9342
53.8939 3.71241 0 -58.8453
167.151 3.22162 0 -52.9653
175.599 3.22329 0 -53.2308
55.301 3.70986 0 -58.8898
110.444 3.54251 0 -57.0929
171.375 3.2225 0 -53.0982
116.074 3.5406 0 -57.27
113.259 3.5416 0 -57.1815
53.8939 3.71241 0 -58.8453
51.0798 3.71736 0 -58.7561
158.704 3.21967 0 -52.699
167.151 3.22162 0 -52.9653
52.4868 3.71491 0 -58.8008
104.813 3.54416 0 -56.9151
162.927 3.22068 0 -52.8323
110.444 3.54251 0 -57.0929
107.628 3.54336 0 -57.0041
51.0798 3.71736 0 -58.7561
48.2656 3.72225 0 -58.6665
150.257 3.21758 0 -52.4317
158.704 3.21967 0 -52.699
49.6727 3.7198 0 -58.7114
99.1829 3.54573 0 -56.7365
154.48 3.21862 0 -52.5654
104.813 3.54416 0 -56.9151
101.998 3.54494 0 -56.8259
48.2656 3.72225 0 -58.6665
45.4514 3.72742 0 -58.5766
141.81 3.21569 0 -52.1633
150.257 3.21758 0 -52.4317
46.8585 3.72476 0 -58.6216
93.5527 3.54763 0 -56.5573
146.034 3.21657 0 -52.2976
99.1829 3.54573 0 -56.7365
96.3678 3.5466 0 -56.647
45.4514 3.72742 0 -58.5766
42.6366 3.73342 0 -58.4866
133.364 3.21476 0 -51.8935
141.81 3.21569 0 -52.1633
44.0441 3.73026 0 -58.5316
87.9224 3.55062 0 -56.3772
137.587 3.21502 0 -52.0286
93.5527 3.54763 0 -56.5573
90.7376 3.5489 0 -56.4674
42.6366 3.73342 0 -58.4866
39.8208 3.74147 0 -58.3972
124.917 3.21621 0 -51.622
133.364 3.21476 0 -51.8935
41.2288 3.73707 0 -58.4417
82.291 3.5563 0 -56.1966
129.141 3.21505 0 -51.758
87.9224 3.55062 0 -56.3772
85.1069 3.55298 0 -56.287
39.8208 3.74147 0 -58.3972
37.0018 3.7534 0 -58.3102
116.468 3.22318 0 -51.3478
124.917 3.21621 0 -51.622
38.412 3.74678 0 -58.3532
76.6564 3.56759 0 -56.0159
120.693 3.2187 0 -51.4853
82.291 3.5563 0 -56.1966
79.4742 3.56093 0 -56.1062
37.0018 3.7534 0 -58.3102
34.1773 3.77331 0 -58.2294
108.013 3.24085 0 -51.0698
116.468 3.22318 0 -51.3478
35.5903 3.76199 0 -58.2687
71.0145 3.59016 0 -55.8364
112.242 3.23018 0 -51.2094
76.6564 3.56759 0 -56.0159
73.8367 3.57698 0 -55.9258
34.1773 3.77331 0 -58.2294
31.3384 3.80654 0 -58.1627
99.5456 3.28024 0 -50.7853
108.013 3.24085 0 -51.0698
32.7607 3.78775 0 -58.1936
65.3557 3.63351 0 -55.6616
103.781 3.25683 0 -50.9286
71.0145 3.59016 0 -55.8364
68.1879 3.60824 0 -55.7483
31.3384 3.80654 0 -58.1627
28.4776 3.8656 0 -58.1245
91.0436 3.35689 0 -50.4922
99.5456 3.28024 0 -50.7853
29.9107 3.83183 0 -58.1388
59.6627 3.7149 0 -55.498
95.3012 3.31242 0 -50.64
65.3557 3.63351 0 -55.6616
62.515 3.66821 0 -55.5774
28.4776 3.8656 0 -58.1245
25.5633 3.96232 0 -58.1419
82.4845 3.50316 0 -50.1844
91.0436 3.35689 0 -50.4922
27.031 3.90804 0 -58.1239
53.9023 3.85872 0 -55.3589
86.7716 3.41876 0 -50.3408
59.6627 3.7149 0 -55.498
56.7933 3.77629 0 -55.4251
25.5633 3.96232 0 -58.1419
22.5778 4.12832 0 -58.2578
73.7895 3.7522 0 -49.8619
82.4845 3.50316 0 -50.1844
24.0781 4.03482 0 -58.1841
48.0172 4.1054 0 -55.2677
78.1628 3.61156 0 -50.0245
53.9023 3.85872 0 -55.3589
50.9805 3.96753 0 -55.3035
22.5778 4.12832 0 -58.2578
19.4281 4.3702 0 -58.5417
64.8953 4.17544 0 -49.5162
73.7895 3.7522 0 -49.8619
21.0358 4.23845 0 -58.373
41.9151 4.48939 0 -55.2653
69.367 3.93851 0 -49.6933
48.0172 4.1054 0 -55.2677
44.9988 4.27528 0 -55.2556
19.4281 4.3702 0 -58.5417
16.1067 4.73728 0 -59.0763
55.566 4.78103 0 -49.181
64.8953 4.17544 0 -49.5162
17.7794 4.5393 0 -58.7721
35.4553 5.05048 0 -55.4154
60.3134 4.45325 0 -49.3423
41.9151 4.48939 0 -55.2653
38.7442 4.75398 0 -55.3087
16.1067 4.73728 0 -59.0763
12.4108 5.10935 0 -59.9541
45.7141 5.62556 0 -48.8786
55.566 4.78103 0 -49.181
14.3384 4.92973 0 -59.4663
28.4829 5.68871 0 -55.8078
50.6931 5.1845 0 -49.0249
35.4553 5.05048 0 -55.4154
32.0366 5.362 0 -55.5887
12.4108 5.10935 0 -59.9541
8.55029 5.4204 0 -61.1377
34.8283 6.30714 0 -48.8347
45.7141 5.62556 0 -48.8786
10.4508 5.30264 0 -60.5171
20.8514 6.15199 0 -56.5359
40.473 6.01407 0 -48.7983
28.4829 5.68871 0 -55.8078
24.7754 6.00412 0 -56.0962
8.55029 5.4204 0 -61.1377
4.33515 4.84245 0 -62.3302
23.2797 6.30185 0 -49.2422
34.8283 6.30714 0 -48.8347
6.55349 5.29228 0 -61.7672
12.7954 5.42315 0 -57.5926
29.0441 6.51146 0 -48.9678
20.8514 6.15199 0 -56.5359
16.817 5.99386 0 -57.0809
4.33515 4.84245 0 -62.3302
0.959941 2.77551 0 -62.3627
10.9171 2.79775 0 -50.7323
23.2797 6.30185 0 -49.2422
2.35129 4.10329 0 -62.6067
5.08174 1.92406 0 -58.4436
17.3031 5.1919 0 -49.7998
12.7954 5.42315 0 -57.5926
8.8907 4.25485 0 -58.0179
0.959941 2.77551 0 -62.3627
-1.84854 -2.76005 0 -59.0106
1.56931 -8.17506 0 -52.1878
10.9171 2.79775 0 -50.7323
-0.348412 0.39271 0 -61.3023
0.147336 -7.19734 0 -56.7968
5.38372 -1.14178 0 -51.6247
5.08174 1.92406 0 -58.4436
1.91435 -1.96229 0 -58.3445
-1.84854 -2.76005 0 -59.0106
-1.57322 -9.37824 0 -48.4949
-3.54347 -36.0462 0 -48.7799
1.56931 -8.17506 0 -52.1878
-2.52316 -6.01233 0 -54.8877
-1.88033 -22.2072 0 -47.7683
-1.40194 -20.087 0 -51.7726
0.147336 -7.19734 0 -56.7968
-0.871057 -13.8631 0 -53.29
-1.57322 -9.37824 0 -48.4949
1.11194 -18.479 0 -28.1711
-2.91831 -69.4417 0 -27.4265
-3.54347 -36.0462 0 -48.7799
-0.0531226 -13.4667 0 -39.6715
-2.27555 -42.0161 0 -29.2037
-4.41131 -53.9867 0 -41.0777
-1.88033 -22.2072 0 -47.7683
-2.56236 -31.9961 0 -39.9527
1496.14 448.279 0 136.875
1625.69 282.621 0 -5.70007
2755.86 297.104 0 -154.727
2602.34 778.888 0 -105.929
1584.08 359.555 0 50.7988
2155.5 326.488 0 -64.618
2703.74 560.241 0 -178.731
2127.95 637.155 0 20.1924
2105.97 453.67 0 -21.3978
1625.69 282.621 0 -5.70007
1656.91 122.712 0 -50.4555
2797.81 87.8124 0 -75.5642
2755.86 297.104 0 -154.727
1639.63 196.809 0 -34.4398
2233.08 126.992 0 -75.9821
2795.2 152.539 0 -112.648
2155.5 326.488 0 -64.618
2215.21 219.314 0 -84.7198
1656.91 122.712 0 -50.4555
1672.98 41.8214 0 -59.5191
2762.84 14.792 0 -30.461
2797.81 87.8124 0 -75.5642
1672.13 74.1411 0 -58.4796
2228.19 35.6166 0 -52.3466
2776.84 42.6401 0 -45.8705
2233.08 126.992 0 -75.9821
2232.24 68.1219 0 -60.8545
1672.98 41.8214 0 -59.5191
1660.45 4.20811 0 -55.6505
2738.64 -1.24913 0 -20.8736
2762.84 14.792 0 -30.461
1666.14 18.5458 0 -57.3335
2207.11 0.407357 0 -40.9769
2752.13 3.18073 0 -23.9058
2228.19 35.6166 0 -52.3466
2219.19 14.1265 0 -46.2148
1660.45 4.20811 0 -55.6505
1645.62 -6.86013 0 -53.1307
2714.36 -7.23876 0 -21.1006
2738.64 -1.24913 0 -20.8736
1654.29 -3.13881 0 -54.4044
2184.31 -8.25895 0 -37.7873
2724.54 -5.11633 0 -19.9657
2207.11 0.407357 0 -40.9769
2194.75 -6.19343 0 -38.1356
1645.62 -6.86013 0 -53.1307
1628.44 -9.60549 0 -51.5854
2697.55 -6.29059 0 -25.3028
2714.36 -7.23876 0 -21.1006
1636.21 -9.02537 0 -52.0491
2165.28 -9.41879 0 -38.6406
2706.21 -7.07636 0 -23.2848
2184.31 -8.25895 0 -37.7873
2174.6 -9.17449 0 -38.1974
1628.44 -9.60549 0 -51.5854
1614.53 -8.29274 0 -51.4218
2681.34 -5.26283 0 -28.9916
2697.55 -6.29059 0 -25.3028
1621.5 -9.10946 0 -51.4727
2148.98 -7.64165 0 -40.5422
2688.94 -5.81235 0 -27.1473
2165.28 -9.41879 0 -38.6406
2156.7 -8.76091 0 -39.4405
1614.53 -8.29274 0 -51.4218
1601.99 -6.64477 0 -51.6167
2666.93 -3.83335 0 -32.1597
2681.34 -5.26283 0 -28.9916
1607.87 -7.50067 0 -51.4481
2134.85 -5.85623 0 -42.4618
2674.22 -4.50564 0 -30.7308
2148.98 -7.64165 0 -40.5422
2141.76 -6.66857 0 -41.588
1601.99 -6.64477 0 -51.6167
1591.33 -5.0593 0 -52.0934
2652.55 -2.93508 0 -34.4012
2666.93 -3.83335 0 -32.1597
1596.59 -5.78753 0 -51.8568
2121.98 -4.34967 0 -44.0573
2659.63 -3.34607 0 -33.3516
2134.85 -5.85623 0 -42.4618
2128.28 -5.06677 0 -43.2825
1591.33 -5.0593 0 -52.0934
1581.51 -3.98628 0 -52.5933
2638.49 -2.27246 0 -36.1053
2652.55 -2.93508 0 -34.4012
1586.28 -4.47682 0 -52.334
2109.87 -3.35834 0 -45.313
2645.55 -2.56372 0 -35.3258
2121.98 -4.34967 0 -44.0573
2115.87 -3.78899 0 -44.7348
1581.51 -3.98628 0 -52.5933
1572.38 -3.25296 0 -53.113
2624.39 -1.88515 0 -37.3771
2638.49 -2.27246 0 -36.1053
1576.91 -3.57446 0 -52.8581
2098.17 -2.71065 0 -46.314
2631.42 -2.05697 0 -36.7765
2109.87 -3.35834 0 -45.313
2103.99 -3.00086 0 -45.8356
1572.38 -3.25296 0 -53.113
1563.55 -2.80755 0 -53.6082
2610.32 -1.63667 0 -38.4167
2624.39 -1.88515 0 -37.3771
1567.92 -3.00497 0 -53.3617
2086.69 -2.32206 0 -47.1389
2617.36 -1.74441 0 -37.9227
2098.17 -2.71065 0 -46.314
2092.42 -2.48939 0 -46.7461
1563.55 -2.80755 0 -53.6082
1554.92 -2.52488 0 -54.0873
2596.21 -1.4885 0 -39.3023
2610.32 -1.63667 0 -38.4167
1559.22 -2.64848 0 -53.8509
2075.31 -2.08187 0 -47.8553
2603.26 -1.55454 0 -38.8724
2086.69 -2.32206 0 -47.1389
2080.99 -2.1883 0 -47.5067
1554.92 -2.52488 0 -54.0873
1546.37 -2.34791 0 -54.5469
2582.1 -1.39005 0 -40.1062
2596.21 -1.4885 0 -39.3023
1550.64 -2.42735 0 -54.3189
2063.98 -1.9324 0 -48.5038
2589.16 -1.43411 0 -39.7127
2075.31 -2.08187 0 -47.8553
2069.64 -1.99848 0 -48.1865
1546.37 -2.34791 0 -54.5469
1537.88 -2.22573 0 -54.9919
2567.97 -1.32125 0 -40.8583
2582.1 -1.39005 0 -40.1062
1542.12 -2.28136 0 -54.7713
2052.67 -1.83037 0 -49.1112
2575.04 -1.35332 0 -40.4869
2063.98 -1.9324 0 -48.5038
2058.33 -1.87721 0 -48.8113
1537.88 -2.22573 0 -54.9919
1529.4 -2.13473 0 -55.4238
2553.84 -1.26627 0 -41.5798
2567.97 -1.32125 0 -40.8583
1533.64 -2.17764 0 -55.2093
2041.37 -1.75399 0 -49.6919
2560.91 -1.29244 0 -41.2223
2052.67 -1.83037 0 -49.1112
2047.02 -1.78988 0 -49.4044
1529.4 -2.13473 0 -55.4238
1520.93 -2.05873 0 -55.845
2539.71 -1.21849 0 -42.2796
2553.84 -1.26627 0 -41.5798
1525.16 -2.09532 0 -55.6357
2030.07 -1.68993 0 -50.2543
2546.78 -1.24185 0 -41.932
2041.37 -1.75399 0 -49.6919
2035.72 -1.72093 0 -49.975
1520.93 -2.05873 0 -55.845
1512.46 -1.99053 0 -56.2563
2525.57 -1.17372 0 -42.963
2539.71 -1.21849 0 -42.2796
1516.69 -2.02401 0 -56.0518
2018.77 -1.63188 0 -50.8023
2532.64 -1.19584 0 -42.6232
2030.07 -1.68993 0 -50.2543
2024.42 -1.6604 0 -50.5299
1512.46 -1.99053 0 -56.2563
1503.99 -1.92583 0 -56.6587
2511.43 -1.13028 0 -43.632
2525.57 -1.17372 0 -42.963
1508.22 -1.95786 0 -56.4586
2007.47 -1.57642 0 -51.3382
2518.5 -1.15192 0 -43.2992
2018.77 -1.63188 0 -50.8023
2013.12 -1.60394 0 -51.0717
1503.99 -1.92583 0 -56.6587
1495.52 -1.86287 0 -57.0528
2497.29 -1.08726 0 -44.2878
2511.43 -1.13028 0 -43.632
1499.76 -1.89421 0 -56.8568
1996.16 -1.52211 0 -51.8631
2504.36 -1.10874 0 -43.9615
2007.47 -1.57642 0 -51.3382
2001.81 -1.54918 0 -51.602
1495.52 -1.86287 0 -57.0528
1487.05 -1.80069 0 -57.4388
2483.14 -1.04434 0 -44.9308
2497.29 -1.08726 0 -44.2878
1491.29 -1.83171 0 -57.2467
1984.86 -1.46824 0 -52.3776
2490.21 -1.0658 0 -44.6109
1996.16 -1.52211 0 -51.8631
1990.51 -1.49514 0 -52.1217
1487.05 -1.80069 0 -57.4388
1478.58 -1.73895 0 -57.817
2469 -1.00138 0 -45.5613
2483.14 -1.04434 0 -44.9308
1482.82 -1.76978 0 -57.6288
1973.56 -1.41455 0 -52.8819
2476.07 -1.02286 0 -45.2476
1984.86 -1.46824 0 -52.3776
1979.21 -1.44138 0 -52.631
1478.58 -1.73895 0 -57.817
1470.11 -1.67748 0 -58.1876
2454.86 -0.958349 0 -46.1795
2469 -1.00138 0 -45.5613
1474.35 -1.70819 0 -58.0032
1962.25 -1.36095 0 -53.3762
2461.93 -0.979871 0 -45.8719
1973.56 -1.41455 0 -52.8819
1967.9 -1.38774 0 -53.1303
1470.11 -1.67748 0 -58.1876
1461.64 -1.61624 0 -58.5507
2440.71 -0.915259 0 -46.7853
2454.86 -0.958349 0 -46.1795
1465.88 -1.64683 0 -58.37
1950.95 -1.30743 0 -53.8605
2447.79 -0.936811 0 -46.4839
1962.25 -1.36095 0 -53.3762
1956.6 -1.33418 0 -53.6196
1461.64 -1.61624 0 -58.5507
1453.17 -1.55519 0 -58.9063
2426.57 -0.872121 0 -47.3788
2440.71 -0.915259 0 -46.7853
1457.41 -1.58569 0 -58.7294
1939.64 -1.25398 0 -54.3351
2433.64 -0.893695 0 -47.0836
1950.95 -1.30743 0 -53.8605
1945.29 -1.28069 0 -54.099
1453.17 -1.55519 0 -58.9063
1444.7 -1.49434 0 -59.2547
2412.43 -0.828952 0 -47.9602
2426.57 -0.872121 0 -47.3788
1448.94 -1.52474 0 -59.0814
1928.34 -1.20061 0 -54.7999
2419.5 -0.85054 0 -47.6711
1939.64 -1.25398 0 -54.3351
1933.99 -1.22728 0 -54.5687
1444.7 -1.49434 0 -59.2547
1436.23 -1.43369 0 -59.5957
2398.29 -0.785766 0 -48.5295
2412.43 -0.828952 0 -47.9602
1440.47 -1.46399 0 -59.4261
1917.03 -1.14734 0 -55.255
2405.36 -0.80736 0 -48.2464
1928.34 -1.20061 0 -54.7999
1922.68 -1.17396 0 -55.0286
1436.23 -1.43369 0 -59.5957
1427.76 -1.37324 0 -59.9295
2384.14 -0.742578 0 -49.0868
2398.29 -0.785766 0 -48.5295
1432 -1.40344 0 -59.7635
1905.73 -1.09418 0 -55.7004
2391.21 -0.764171 0 -48.8096
1917.03 -1.14734 0 -55.255
1911.38 -1.12075 0 -55.4789
1427.76 -1.37324 0 -59.9295
1419.29 -1.313 0 -60.2561
2370 -0.699401 0 -49.6321
2384.14 -0.742578 0 -49.0868
1423.52 -1.3431 0 -60.0937
1894.42 -1.04114 0 -56.1363
2377.07 -0.720987 0 -49.3609
1905.73 -1.09418 0 -55.7004
1900.07 -1.06764 0 -55.9196
1419.29 -1.313 0 -60.2561
1410.82 -1.25299 0 -60.5756
2355.86 -0.656248 0 -50.1655
2370 -0.699401 0 -49.6321
1415.05 -1.28297 0 -60.4168
1883.12 -0.988217 0 -56.5627
2362.93 -0.677821 0 -49.9002
1894.42 -1.04114 0 -56.1363
1888.77 -1.01466 0 -56.3507
1410.82 -1.25299 0 -60.5756
1402.35 -1.19319 0 -60.888
2341.72 -0.613131 0 -50.687
2355.86 -0.656248 0 -50.1655
1406.58 -1.22306 0 -60.7327
1871.81 -0.935437 0 -56.9797
2348.79 -0.634684 0 -50.4277
1883.12 -0.988217 0 -56.5627
1877.46 -0.961809 0 -56.7724
1402.35 -1.19319 0 -60.888
1393.88 -1.13362 0 -61.1934
2327.57 -0.570062 0 -51.1969
2341.72 -0.613131 0 -50.687
1398.11 -1.16338 0 -61.0416
1860.51 -0.882803 0 -57.3872
2334.64 -0.59159 0 -50.9434
1871.81 -0.935437 0 -56.9797
1866.16 -0.909101 0 -57.1846
1393.88 -1.13362 0 -61.1934
1385.41 -1.07429 0 -61.4917
2313.43 -0.527053 0 -51.695
2327.57 -0.570062 0 -51.1969
1389.64 -1.10393 0 -61.3434
1849.2 -0.830325 0 -57.7854
2320.5 -0.54855 0 -51.4474
1860.51 -0.882803 0 -57.3872
1854.85 -0.856544 0 -57.5874
1385.41 -1.07429 0 -61.4917
1376.94 -1.0152 0 -61.7831
2299.29 -0.484116 0 -52.1815
2313.43 -0.527053 0 -51.695
1381.17 -1.04472 0 -61.6383
1837.9 -0.778012 0 -58.1742
2306.36 -0.505575 0 -51.9397
1849.2 -0.830325 0 -57.7854
1843.55 -0.804147 0 -57.981
1376.94 -1.0152 0 -61.7831
1368.46 -0.956367 0 -62.0675
2285.15 -0.441262 0 -52.6565
2299.29 -0.484116 0 -52.1815
1372.7 -0.985753 0 -61.9262
1826.59 -0.725875 0 -58.5539
2292.22 -0.462678 0 -52.4204
1837.9 -0.778012 0 -58.1742
1832.24 -0.751921 0 -58.3652
1368.46 -0.956367 0 -62.0675
1359.99 -0.897789 0 -62.3451
2271 -0.398501 0 -53.12
2285.15 -0.441262 0 -52.6565
1364.23 -0.927045 0 -62.2072
1815.29 -0.673922 0 -58.9244
2278.08 -0.419869 0 -52.8897
1826.59 -0.725875 0 -58.5539
1820.94 -0.699875 0 -58.7403
1359.99 -0.897789 0 -62.3451
1351.52 -0.839475 0 -62.6158
2256.86 -0.355847 0 -53.5721
2271 -0.398501 0 -53.12
1355.76 -0.868599 0 -62.4813
1803.98 -0.622161 0 -59.2857
2263.93 -0.37716 0 -53.3475
1815.29 -0.673922 0 -58.9244
1809.64 -0.648017 0 -59.1062
1351.52 -0.839475 0 -62.6158
1343.05 -0.781434 0 -62.8798
2242.72 -0.313308 0 -54.0129
2256.86 -0.355847 0 -53.5721
1347.29 -0.81042 0 -62.7486
1792.68 -0.570603 0 -59.638
2249.79 -0.334562 0 -53.7939
1803.98 -0.622161 0 -59.2857
1798.33 -0.596356 0 -59.463
1343.05 -0.781434 0 -62.8798
1334.58 -0.72367 0 -63.1369
2228.58 -0.270896 0 -54.4424
2242.72 -0.313308 0 -54.0129
1338.82 -0.752517 0 -63.0092
1781.37 -0.519255 0 -59.9813
2235.65 -0.292086 0 -54.229
1792.68 -0.570603 0 -59.638
1787.03 -0.544902 0 -59.8108
1334.58 -0.72367 0 -63.1369
1326.11 -0.666192 0 -63.3874
2214.44 -0.228621 0 -54.8607
2228.58 -0.270896 0 -54.4424
1330.35 -0.694895 0 -63.263
1770.07 -0.468126 0 -60.3157
2221.51 -0.249741 0 -54.653
1781.37 -0.519255 0 -59.9813
1775.72 -0.493663 0 -60.1496
1326.11 -0.666192 0 -63.3874
1317.64 -0.609004 0 -63.6312
2200.3 -0.186494 0 -55.2679
2214.44 -0.228621 0 -54.8607
1321.87 -0.637561 0 -63.5101
1758.77 -0.417225 0 -60.6411
2207.37 -0.207538 0 -55.0657
1770.07 -0.468126 0 -60.3157
1764.42 -0.442647 0 -60.4795
1317.64 -0.609004 0 -63.6312
1309.17 -0.552113 0 -63.8683
2186.16 -0.144523 0 -55.6641
2200.3 -0.186494 0 -55.2679
1313.4 -0.580521 0 -63.7506
1747.46 -0.366558 0 -60.9577
2193.23 -0.165488 0 -55.4674
1758.77 -0.417225 0 -60.6411
1753.11 -0.391861 0 -60.8005
1309.17 -0.552113 0 -63.8683
1300.7 -0.495526 0 -64.0989
2172.02 -0.10272 0 -56.0493
2186.16 -0.144523 0 -55.6641
1304.93 -0.523781 0 -63.9844
1736.16 -0.316134 0 -61.2656
2179.09 -0.1236 0 -55.8581
1747.46 -0.366558 0 -60.9577
1741.81 -0.341315 0 -61.1127
1300.7 -0.495526 0 -64.0989
1292.23 -0.439247 0 -64.3229
2157.88 -0.0610937 0 -56.4236
2172.02 -0.10272 0 -56.0493
1296.46 -0.467347 0 -64.2117
1724.85 -0.265961 0 -61.5647
2164.95 -0.0818843 0 -56.2378
1736.16 -0.316134 0 -61.2656
1730.5 -0.291016 0 -61.4162
1292.23 -0.439247 0 -64.3229
1283.76 -0.383283 0 -64.5405
2143.74 -0.0196532 0 -56.7871
2157.88 -0.0610937 0 -56.4236
1287.99 -0.411225 0 -64.4325
1713.55 -0.216047 0 -61.8551
2150.81 -0.0403496 0 -56.6067
1724.85 -0.265961 0 -61.5647
1719.2 -0.240971 0 -61.711
1283.76 -0.383283 0 -64.5405
1275.29 -0.327638 0 -64.7516
2129.6 0.021592 0 -57.1397
2143.74 -0.0196532 0 -56.7871
1279.52 -0.35542 0 -64.6468
1702.25 -0.166398 0 -62.137
2136.67 0.000994376 0 -56.9647
1713.55 -0.216047 0 -61.8551
1707.9 -0.191189 0 -61.9971
1275.29 -0.327638 0 -64.7516
1266.82 -0.27232 0 -64.9562
2115.46 0.062633 0 -57.4818
2129.6 0.021592 0 -57.1397
1271.05 -0.299938 0 -64.8547
1690.94 -0.117022 0 -62.4102
2122.53 0.0421386 0 -57.3121
1702.25 -0.166398 0 -62.137
1696.59 -0.141675 0 -62.2747
1266.82 -0.27232 0 -64.9562
1258.35 -0.217332 0 -65.1545
2101.32 0.103461 0 -57.8131
2115.46 0.062633 0 -57.4818
1262.58 -0.244784 0 -65.0562
1679.64 -0.0679254 0 -62.675
2108.39 0.0830741 0 -57.6488
1690.94 -0.117022 0 -62.4102
1685.29 -0.092438 0 -62.5437
1258.35 -0.217332 0 -65.1545
1249.88 -0.16268 0 -65.3465
2087.18 0.144067 0 -58.134
2101.32 0.103461 0 -57.8131
1254.11 -0.189964 0 -65.2513
1668.34 -0.0191163 0 -62.9314
2094.25 0.123792 0 -57.9749
1679.64 -0.0679254 0 -62.675
1673.99 -0.0434845 0 -62.8043
1249.88 -0.16268 0 -65.3465
1241.4 -0.10837 0 -65.5322
2073.04 0.184442 0 -58.4443
2087.18 0.144067 0 -58.134
1245.64 -0.135482 0 -65.4401
1657.03 0.0293992 0 -63.1794
2080.11 0.164284 0 -58.2905
1668.34 -0.0191163 0 -62.9314
1662.68 0.00517852 0 -63.0564
1241.4 -0.10837 0 -65.5322
1232.93 -0.0544053 0 -65.7116
2058.9 0.22458 0 -58.7443
2073.04 0.184442 0 -58.4443
1237.17 -0.0813438 0 -65.6227
1645.73 0.0776144 0 -63.419
2065.97 0.204541 0 -58.5956
1657.03 0.0293992 0 -63.1794
1651.38 0.0535448 0 -63.3002
1232.93 -0.0544053 0 -65.7116
1224.46 -0.000792132 0 -65.8848
2044.76 0.26447 0 -59.0339
2058.9 0.22458 0 -58.7443
1228.7 -0.0275545 0 -65.799
1634.43 0.125522 0 -63.6504
2051.83 0.244556 0 -58.8904
1645.73 0.0776144 0 -63.419
1640.08 0.101607 0 -63.5357
1224.46 -0.000792123 0 -65.8848
1215.99 0.0524651 0 -66.0519
2030.62 0.304106 0 -59.3133
2044.76 0.26447 0 -59.0339
1220.23 0.0258813 0 -65.9691
1623.12 0.173117 0 -63.8736
2037.69 0.28432 0 -59.1749
1634.43 0.125522 0 -63.6504
1628.78 0.149359 0 -63.763
1215.99 0.0524651 0 -66.0519
1207.53 0.105362 0 -66.2129
2016.49 0.343479 0 -59.5825
2030.62 0.304106 0 -59.3133
1211.76 0.0789588 0 -66.1332
1611.82 0.220393 0 -64.0886
2023.55 0.323825 0 -59.4492
1623.12 0.173117 0 -63.8736
1617.47 0.196795 0 -63.9821
1207.53 0.105362 0 -66.2129
1199.06 0.157893 0 -66.3678
2002.35 0.382582 0 -59.8415
2016.49 0.343479 0 -59.5825
1203.29 0.131673 0 -66.2911
1600.52 0.267342 0 -64.2956
2009.42 0.363064 0 -59.7133
1611.82 0.220393 0 -64.0886
1606.17 0.243909 0 -64.1931
1199.06 0.157893 0 -66.3678
1190.59 0.210055 0 -66.5166
1988.21 0.421407 0 -60.0905
2002.35 0.382582 0 -59.8415
1194.82 0.18402 0 -66.443
1589.22 0.31396 0 -64.4944
1995.28 0.402029 0 -59.9673
1600.52 0.267342 0 -64.2956
1594.87 0.290693 0 -64.396
1190.59 0.210055 0 -66.5166
1182.12 0.261842 0 -66.6595
1974.08 0.459947 0 -60.3296
1988.21 0.421407 0 -60.0905
1186.35 0.235996 0 -66.5888
1577.92 0.360241 0 -64.6854
1981.14 0.440713 0 -60.2113
1589.22 0.31396 0 -64.4944
1583.57 0.337143 0 -64.5909
1182.12 0.261842 0 -66.6595
1173.65 0.313251 0 -66.7965
1959.94 0.498196 0 -60.5587
1974.08 0.459947 0 -60.3296
1177.88 0.287594 0 -66.7287
1566.62 0.406178 0 -64.8684
1967.01 0.479109 0 -60.4454
1577.92 0.360241 0 -64.6854
1572.27 0.383253 0 -64.7778
1173.65 0.313251 0 -66.7965
1165.18 0.364278 0 -66.9275
1945.8 0.536145 0 -60.778
1959.94 0.498196 0 -60.5587
1169.41 0.338813 0 -66.8627
1555.31 0.451767 0 -65.0435
1952.87 0.517209 0 -60.6696
1566.62 0.406178 0 -64.8684
1560.97 0.429016 0 -64.9569
1165.18 0.364278 0 -66.9275
1156.71 0.414918 0 -67.0527
1931.67 0.573789 0 -60.9875
1945.8 0.536145 0 -60.778
1160.94 0.389646 0 -66.9908
1544.01 0.497001 0 -65.2108
1938.74 0.555006 0 -60.884
1555.31 0.451767 0 -65.0435
1549.66 0.474428 0 -65.1281
1156.71 0.414918 0 -67.0527
1148.24 0.465167 0 -67.1721
1917.53 0.611121 0 -61.1874
1931.67 0.573789 0 -60.9875
1152.47 0.440091 0 -67.1131
1532.71 0.541876 0 -65.3704
1924.6 0.592494 0 -61.0887
1544.01 0.497001 0 -65.2108
1538.36 0.519484 0 -65.2915
1148.24 0.465167 0 -67.1721
1139.77 0.515021 0 -67.2857
1903.4 0.648133 0 -61.3776
1917.53 0.611121 0 -61.1874
1144.01 0.490144 0 -67.2296
1521.41 0.586386 0 -65.5222
1910.47 0.629667 0 -61.2837
1532.71 0.541876 0 -65.3704
1527.06 0.564177 0 -65.4473
1139.77 0.515021 0 -67.2857
1131.3 0.564478 0 -67.3935
1889.26 0.684821 0 -61.5583
1903.4 0.648133 0 -61.3776
1135.54 0.5398 0 -67.3403
1510.11 0.630527 0 -65.6665
1896.33 0.666518 0 -61.4691
1521.41 0.586386 0 -65.5222
1515.76 0.608503 0 -65.5953
1131.3 0.564478 0 -67.3935
1122.83 0.613532 0 -67.4957
1875.13 0.721177 0 -61.7294
1889.26 0.684821 0 -61.5583
1127.07 0.589055 0 -67.4453
1498.81 0.674293 0 -65.8031
1882.2 0.703041 0 -61.645
1510.11 0.630527 0 -65.6665
1504.46 0.652457 0 -65.7357
1122.83 0.613532 0 -67.4957
1114.37 0.66218 0 -67.5923
1861 0.757196 0 -61.8912
1875.13 0.721177 0 -61.7294
1118.6 0.637907 0 -67.5447
1487.51 0.717679 0 -65.9322
1868.06 0.739229 0 -61.8115
1498.81 0.674293 0 -65.8031
1493.16 0.696034 0 -65.8686
1114.37 0.66218 0 -67.5923
1105.9 0.710419 0 -67.6832
1846.86 0.792872 0 -62.0437
1861 0.757196 0 -61.8912
1110.13 0.686351 0 -67.6384
1476.21 0.760681 0 -66.0539
1853.93 0.775077 0 -61.9686
1487.51 0.717679 0 -65.9322
1481.86 0.739228 0 -65.994
1105.9 0.710419 0 -67.6832
1097.43 0.758246 0 -67.7686
1832.73 0.828199 0 -62.1869
1846.86 0.792872 0 -62.0437
1101.66 0.734384 0 -67.7266
1464.92 0.803295 0 -66.1681
1839.8 0.810579 0 -62.1164
1476.21 0.760681 0 -66.0539
1470.56 0.782037 0 -66.1119
1097.43 0.758246 0 -67.7686
1088.96 0.805657 0 -67.8485
1818.6 0.863172 0 -62.3209
1832.73 0.828199 0 -62.1869
1093.2 0.782004 0 -67.8092
1453.62 0.845516 0 -66.275
1825.66 0.84573 0 -62.255
1464.92 0.803295 0 -66.1681
1459.27 0.824455 0 -66.2225
1088.96 0.805657 0 -67.8485
1080.49 0.852648 0 -67.9229
1804.47 0.897785 0 -62.4457
1818.6 0.863172 0 -62.3209
1084.73 0.829205 0 -67.8863
1442.32 0.887339 0 -66.3746
1811.53 0.880524 0 -62.3844
1453.62 0.845516 0 -66.275
1447.97 0.866477 0 -66.3257
1080.49 0.852648 0 -67.9229
1072.03 0.899217 0 -67.9918
1790.33 0.932033 0 -62.5616
1804.47 0.897785 0 -62.4457
1076.26 0.875986 0 -67.958
1431.02 0.92876 0 -66.467
1797.4 0.914955 0 -62.5048
1442.32 0.887339 0 -66.3746
1436.67 0.9081 0 -66.4217
1072.03 0.899217 0 -67.9918
1063.56 0.945361 0 -68.0554
1776.2 0.965912 0 -62.6684
1790.33 0.932033 0 -62.5616
1067.79 0.922342 0 -68.0243
1419.72 0.969777 0 -66.5522
1783.27 0.949019 0 -62.6161
1431.02 0.92876 0 -66.467
1425.37 0.94932 0 -66.5105
1063.56 0.945361 0 -68.0554
1055.09 0.991076 0 -68.1137
1762.07 0.999416 0 -62.7663
1776.2 0.965912 0 -62.6684
1059.32 0.968272 0 -68.0852
1408.42 1.01038 0 -66.6302
1769.14 0.982711 0 -62.7185
1419.72 0.969777 0 -66.5522
1414.07 0.990131 0 -66.5921
1055.09 0.991076 0 -68.1137
1046.62 1.03636 0 -68.1666
1747.94 1.03254 0 -62.8554
1762.07 0.999416 0 -62.7663
1050.86 1.01377 0 -68.1408
1397.13 1.05058 0 -66.7012
1755.01 1.01603 0 -62.812
1408.42 1.01038 0 -66.6302
1402.78 1.03053 0 -66.6666
1046.62 1.03636 0 -68.1666
1038.16 1.08121 0 -68.2143
1733.81 1.06528 0 -62.9358
1747.94 1.03254 0 -62.8554
1042.39 1.05884 0 -68.1911
1385.83 1.09035 0 -66.7652
1740.88 1.04896 0 -62.8967
1397.13 1.05058 0 -66.7012
1391.48 1.07052 0 -66.7341
1038.16 1.08121 0 -68.2143
1029.69 1.12562 0 -68.2567
1719.68 1.09763 0 -63.0074
1733.81 1.06528 0 -62.9358
1033.92 1.10347 0 -68.2362
1374.53 1.12971 0 -66.8222
1726.75 1.08151 0 -62.9727
1385.83 1.09035 0 -66.7652
1380.18 1.11008 0 -66.7946
1029.69 1.12562 0 -68.2567
1021.22 1.1696 0 -68.294
1705.56 1.12959 0 -63.0704
1719.68 1.09763 0 -63.0074
1025.46 1.14767 0 -68.276
1363.24 1.16864 0 -66.8723
1712.62 1.11366 0 -63.04
1374.53 1.12971 0 -66.8222
1368.88 1.14923 0 -66.8481
1021.22 1.1696 0 -68.294
1012.76 1.21313 0 -68.3262
1691.43 1.16115 0 -63.1249
1705.56 1.12959 0 -63.0704
1016.99 1.19142 0 -68.3108
1351.94 1.20714 0 -66.9156
1698.49 1.14542 0 -63.0987
1363.24 1.16864 0 -66.8723
1357.59 1.18795 0 -66.8948
1012.76 1.21313 0 -68.3262
1004.29 1.25622 0 -68.3533
1677.3 1.19231 0 -63.1709
1691.43 1.16115 0 -63.1249
1008.52 1.23473 0 -68.3404
1340.64 1.24522 0 -66.9521
1684.36 1.17678 0 -63.149
1351.94 1.20714 0 -66.9156
1346.29 1.22624 0 -66.9347
1004.29 1.25622 0 -68.3533
995.826 1.29886 0 -68.3753
1663.17 1.22307 0 -63.2085
1677.3 1.19231 0 -63.1709
1000.06 1.2776 0 -68.3649
1329.35 1.28286 0 -66.9819
1670.23 1.20774 0 -63.1907
1340.64 1.24522 0 -66.9521
1335 1.26409 0 -66.9678
995.826 1.29886 0 -68.3753
987.36 1.34105 0 -68.3924
1649.04 1.25342 0 -63.2377
1663.17 1.22307 0 -63.2085
991.593 1.32001 0 -68.3845
1318.05 1.32006 0 -67.005
1656.11 1.23829 0 -63.2241
1329.35 1.28286 0 -66.9819
1323.7 1.30151 0 -66.9943
987.36 1.34105 0 -68.3924
978.894 1.3828 0 -68.4044
1634.92 1.28335 0 -63.2587
1649.04 1.25342 0 -63.2377
983.127 1.36198 0 -68.399
1306.76 1.35682 0 -67.0215
1641.98 1.26844 0 -63.2492
1318.05 1.32006 0 -67.005
1312.41 1.3385 0 -67.0141
978.894 1.3828 0 -68.4044
970.429 1.42409 0 -68.4116
1620.79 1.31287 0 -63.2715
1634.92 1.28335 0 -63.2587
974.662 1.4035 0 -68.4086
1295.46 1.39315 0 -67.0314
1627.85 1.29816 0 -63.2661
1306.76 1.35682 0 -67.0215
1301.11 1.37504 0 -67.0273
970.429 1.42409 0 -68.4116
961.964 1.46492 0 -68.4139
1606.67 1.34197 0 -63.2761
1620.79 1.31287 0 -63.2715
966.197 1.44456 0 -68.4134
1284.17 1.42902 0 -67.0349
1613.73 1.32747 0 -63.2748
1295.46 1.39315 0 -67.0314
1289.82 1.41114 0 -67.034
961.964 1.46492 0 -68.4139
953.499 1.5053 0 -68.4114
1592.54 1.37065 0 -63.2727
1606.67 1.34197 0 -63.2761
957.732 1.48516 0 -68.4132
1272.88 1.46445 0 -67.0319
1599.6 1.35636 0 -63.2754
1284.17 1.42902 0 -67.0349
1278.52 1.44679 0 -67.0342
953.499 1.5053 0 -68.4114
945.034 1.54521 0 -68.404
1578.42 1.3989 0 -63.2613
1592.54 1.37065 0 -63.2727
949.267 1.52531 0 -68.4083
1261.58 1.49943 0 -67.0225
1585.48 1.38483 0 -63.268
1272.88 1.46445 0 -67.0319
1267.23 1.482 0 -67.028
945.034 1.54521 0 -68.404
936.57 1.58467 0 -68.392
1564.29 1.42672 0 -63.242
1578.42 1.3989 0 -63.2613
940.802 1.565 0 -68.3986
1250.29 1.53396 0 -67.0068
1571.35 1.41287 0 -63.2527
1261.58 1.49943 0 -67.0225
1255.94 1.51675 0 -67.0154
936.57 1.58467 0 -68.392
928.105 1.62367 0 -68.3752
1550.17 1.45412 0 -63.2149
1564.29 1.42672 0 -63.242
932.338 1.60423 0 -68.3842
1239 1.56803 0 -66.9848
1557.23 1.44047 0 -63.2294
1250.29 1.53396 0 -67.0068
1244.64 1.55105 0 -66.9966
928.105 1.62367 0 -68.3752
919.641 1.6622 0 -68.3538
1536.05 1.48108 0 -63.18
1550.17 1.45412 0 -63.2149
923.873 1.64299 0 -68.3651
1227.7 1.60164 0 -66.9566
1543.11 1.46765 0 -63.1984
1239 1.56803 0 -66.9848
1233.35 1.58489 0 -66.9715
919.641 1.6622 0 -68.3538
911.177 1.70026 0 -68.3277
1521.92 1.5076 0 -63.1374
1536.05 1.48108 0 -63.18
915.409 1.68129 0 -68.3413
1216.41 1.6348 0 -66.9222
1528.98 1.49439 0 -63.1597
1227.7 1.60164 0 -66.9566
1222.06 1.61828 0 -66.9402
911.177 1.70026 0 -68.3277
902.714 1.73786 0 -68.2971
1507.8 1.53369 0 -63.0872
1521.92 1.5076 0 -63.1374
906.946 1.71912 0 -68.313
1205.12 1.66749 0 -66.8818
1514.86 1.5207 0 -63.1132
1216.41 1.6348 0 -66.9222
1210.77 1.6512 0 -66.9028
902.714 1.73786 0 -68.2971
894.25 1.77499 0 -68.2619
1493.68 1.55933 0 -63.0294
1507.8 1.53369 0 -63.0872
898.482 1.75649 0 -68.2801
1193.83 1.69973 0 -66.8353
1500.74 1.54656 0 -63.0592
1205.12 1.66749 0 -66.8818
1199.48 1.68367 0 -66.8593
894.25 1.77499 0 -68.2619
885.787 1.81165 0 -68.2223
1479.56 1.58453 0 -62.9641
1493.68 1.55933 0 -63.0294
890.019 1.79338 0 -68.2427
1182.54 1.7315 0 -66.7828
1486.62 1.57199 0 -62.9977
1193.83 1.69973 0 -66.8353
1188.18 1.71567 0 -66.8098
885.787 1.81165 0 -68.2223
877.324 1.84784 0 -68.1782
1465.44 1.60929 0 -62.8915
1479.56 1.58453 0 -62.9641
881.555 1.82981 0 -68.2008
1171.25 1.7628 0 -66.7244
1472.5 1.59696 0 -62.9287
1182.54 1.7315 0 -66.7828
1176.89 1.7472 0 -66.7543
877.324 1.84784 0 -68.1782
868.861 1.88356 0 -68.1297
1451.32 1.6336 0 -62.8114
1465.44 1.60929 0 -62.8915
873.093 1.86576 0 -68.1545
1159.96 1.79363 0 -66.6601
1458.38 1.6215 0 -62.8524
1171.25 1.7628 0 -66.7244
1165.6 1.77827 0 -66.693
868.861 1.88356 0 -68.1297
860.399 1.91881 0 -68.0769
1437.2 1.65746 0 -62.7242
1451.32 1.6336 0 -62.8114
864.63 1.90124 0 -68.1038
1148.67 1.824 0 -66.59
1444.26 1.64558 0 -62.7687
1159.96 1.79363 0 -66.6601
1154.31 1.80888 0 -66.6258
860.399 1.91881 0 -68.0769
851.936 1.95358 0 -68.0197
1423.08 1.68087 0 -62.6297
1437.2 1.65746 0 -62.7242
856.167 1.93625 0 -68.0488
1137.38 1.8539 0 -66.5142
1430.14 1.66922 0 -62.6778
1148.67 1.824 0 -66.59
1143.02 1.83901 0 -66.5528
851.936 1.95358 0 -68.0197
843.474 1.98787 0 -67.9583
1408.96 1.70382 0 -62.5281
1423.08 1.68087 0 -62.6297
847.705 1.97078 0 -67.9895
1126.09 1.88332 0 -66.4326
1416.02 1.6924 0 -62.5797
1137.38 1.8539 0 -66.5142
1131.73 1.86867 0 -66.4741
843.474 1.98787 0 -67.9583
835.012 2.02169 0 -67.8926
1394.84 1.72633 0 -62.4194
1408.96 1.70382 0 -62.5281
839.243 2.00484 0 -67.926
1114.8 1.91227 0 -66.3454
1401.9 1.71513 0 -62.4746
1126.09 1.88332 0 -66.4326
1120.44 1.89786 0 -66.3897
835.012 2.02169 0 -67.8926
826.55 2.05504 0 -67.8227
1380.73 1.74838 0 -62.3037
1394.84 1.72633 0 -62.4194
830.781 2.03843 0 -67.8582
1103.51 1.94075 0 -66.2526
1387.78 1.73741 0 -62.3624
1114.8 1.91227 0 -66.3454
1109.16 1.92657 0 -66.2997
826.55 2.05504 0 -67.8227
818.089 2.0879 0 -67.7487
1366.61 1.76998 0 -62.1811
1380.73 1.74838 0 -62.3037
822.319 2.07153 0 -67.7863
1092.22 1.96876 0 -66.1543
1373.67 1.75923 0 -62.2433
1103.51 1.94075 0 -66.2526
1097.87 1.95482 0 -66.2042
818.089 2.0879 0 -67.7487
809.627 2.12029 0 -67.6706
1352.49 1.79111 0 -62.0517
1366.61 1.76998 0 -62.1811
813.858 2.10416 0 -67.7102
1080.93 1.99629 0 -66.0505
1359.55 1.7806 0 -62.1173
1092.22 1.96876 0 -66.1543
1086.58 1.98258 0 -66.1031
809.627 2.12029 0 -67.6706
801.166 2.1522 0 -67.5885
1338.38 1.81179 0 -61.9155
1352.49 1.79111 0 -62.0517
805.397 2.13631 0 -67.63
1069.65 2.02334 0 -65.9413
1345.43 1.80151 0 -61.9845
1080.93 1.99629 0 -66.0505
1075.29 2.00987 0 -65.9966
801.166 2.1522 0 -67.5885
792.705 2.18363 0 -67.5023
1324.26 1.83202 0 -61.7726
1338.38 1.81179 0 -61.9155
796.936 2.16798 0 -67.5459
1058.36 2.04992 0 -65.8267
1331.32 1.82196 0 -61.8449
1069.65 2.02334 0 -65.9413
1064 2.03669 0 -65.8847
792.705 2.18363 0 -67.5023
784.245 2.21459 0 -67.4121
1310.15 1.85178 0 -61.6231
1324.26 1.83202 0 -61.7726
788.475 2.19917 0 -67.4577
1047.07 2.07602 0 -65.7069
1317.2 1.84196 0 -61.6987
1058.36 2.04992 0 -65.8267
1052.72 2.06303 0 -65.7675
784.245 2.21459 0 -67.4121
775.784 2.24506 0 -67.318
1296.03 1.87108 0 -61.467
1310.15 1.85178 0 -61.6231
780.015 2.22988 0 -67.3655
1035.79 2.10164 0 -65.5818
1303.09 1.86149 0 -61.5459
1047.07 2.07602 0 -65.7069
1041.43 2.08889 0 -65.645
775.784 2.24506 0 -67.318
767.324 2.27505 0 -67.22
1281.92 1.88993 0 -61.3044
1296.03 1.87108 0 -61.467
771.554 2.26011 0 -67.2695
1024.5 2.12678 0 -65.4514
1288.97 1.88056 0 -61.3865
1035.79 2.10164 0 -65.5818
1030.14 2.11427 0 -65.5172
767.324 2.27505 0 -67.22
758.864 2.30456 0 -67.1182
1267.8 1.90831 0 -61.1354
1281.92 1.88993 0 -61.3044
763.094 2.28987 0 -67.1696
1013.21 2.15145 0 -65.316
1274.86 1.89917 0 -61.2207
1024.5 2.12678 0 -65.4514
1018.86 2.13918 0 -65.3844
758.864 2.30456 0 -67.1182
750.404 2.33359 0 -67.0125
1253.69 1.92623 0 -60.9601
1267.8 1.90831 0 -61.1354
754.634 2.31914 0 -67.0658
1001.93 2.17564 0 -65.1755
1260.75 1.91733 0 -61.0486
1013.21 2.15145 0 -65.316
1007.57 2.1636 0 -65.2464
750.404 2.33359 0 -67.0125
741.945 2.36214 0 -66.9031
1239.58 1.94369 0 -60.7785
1253.69 1.92623 0 -60.9601
746.175 2.34793 0 -66.9583
990.644 2.19934 0 -65.03
1246.63 1.93502 0 -60.8701
1001.93 2.17564 0 -65.1755
996.287 2.18755 0 -65.1033
741.945 2.36214 0 -66.9031
733.486 2.39021 0 -66.79
1225.47 1.96069 0 -60.5907
1239.58 1.94369 0 -60.7785
737.715 2.37624 0 -66.847
979.36 2.22257 0 -64.8795
1232.52 1.95225 0 -60.6853
990.644 2.19934 0 -65.03
985.002 2.21102 0 -64.9553
733.486 2.39021 0 -66.79
725.026 2.4178 0 -66.6732
1211.36 1.97723 0 -60.3967
1225.47 1.96069 0 -60.5907
729.256 2.40407 0 -66.7321
968.075 2.24532 0 -64.724
1218.41 1.96902 0 -60.4944
979.36 2.22257 0 -64.8795
973.717 2.23401 0 -64.8024
725.026 2.4178 0 -66.6732
716.568 2.44491 0 -66.5528
1197.24 1.9933 0 -60.1967
1211.36 1.97723 0 -60.3967
720.797 2.43142 0 -66.6134
956.791 2.26759 0 -64.5638
1204.3 1.98532 0 -60.2975
968.075 2.24532 0 -64.724
962.433 2.25652 0 -64.6445
716.568 2.44491 0 -66.5528
708.109 2.47154 0 -66.4287
1183.13 2.00892 0 -59.9907
1197.24 1.9933 0 -60.1967
712.338 2.45828 0 -66.4912
945.508 2.28939 0 -64.3987
1190.19 2.00117 0 -60.0944
956.791 2.26759 0 -64.5638
951.149 2.27855 0 -64.4819
708.109 2.47154 0 -66.4287
699.65 2.49768 0 -66.3011
1169.02 2.02408 0 -59.7787
1183.13 2.00892 0 -59.9907
703.88 2.48467 0 -66.3654
934.224 2.3107 0 -64.229
1176.08 2.01656 0 -59.8854
945.508 2.28939 0 -64.3987
939.866 2.3001 0 -64.3144
699.65 2.49768 0 -66.3011
691.192 2.52335 0 -66.1701
1154.91 2.03877 0 -59.561
1169.02 2.02408 0 -59.7787
695.421 2.51058 0 -66.236
922.942 2.33154 0 -64.0545
1161.97 2.03148 0 -59.6706
934.224 2.3107 0 -64.229
928.583 2.32118 0 -64.1423
691.192 2.52335 0 -66.1701
682.734 2.54854 0 -66.0355
1140.81 2.05301 0 -59.3374
1154.91 2.03877 0 -59.561
686.963 2.53601 0 -66.1032
911.659 2.3519 0 -63.8754
1147.86 2.04595 0 -59.4499
922.942 2.33154 0 -64.0545
917.3 2.34178 0 -63.9655
682.734 2.54854 0 -66.0355
674.276 2.57325 0 -65.8975
1126.7 2.06679 0 -59.1081
1140.81 2.05301 0 -59.3374
678.505 2.56095 0 -65.9669
900.377 2.37178 0 -63.6918
1133.75 2.05996 0 -59.2235
911.659 2.3519 0 -63.8754
906.018 2.3619 0 -63.7842
674.276 2.57325 0 -65.8975
665.819 2.59748 0 -65.7562
1112.59 2.08011 0 -58.8732
1126.7 2.06679 0 -59.1081
670.048 2.58542 0 -65.8273
889.095 2.39118 0 -63.5036
1119.64 2.07351 0 -58.9914
900.377 2.37178 0 -63.6918
894.736 2.38154 0 -63.5983
665.819 2.59748 0 -65.7562
657.362 2.62123 0 -65.6115
1098.48 2.09297 0 -58.6327
1112.59 2.08011 0 -58.8732
661.59 2.60941 0 -65.6842
877.813 2.41011 0 -63.311
1105.54 2.0866 0 -58.7537
889.095 2.39118 0 -63.5036
883.454 2.40071 0 -63.4079
657.362 2.62123 0 -65.6115
648.904 2.6445 0 -65.4635
1084.38 2.10538 0 -58.3868
1098.48 2.09297 0 -58.6327
653.133 2.63293 0 -65.5379
866.532 2.42857 0 -63.114
1091.43 2.09923 0 -58.5104
877.813 2.41011 0 -63.311
872.173 2.4194 0 -63.2131
648.904 2.6445 0 -65.4635
640.448 2.6673 0 -65.3123
1070.27 2.11733 0 -58.1354
1084.38 2.10538 0 -58.3868
644.676 2.65596 0 -65.3883
855.252 2.44655 0 -62.9127
1077.32 2.11141 0 -58.2617
866.532 2.42857 0 -63.114
860.892 2.43762 0 -63.0139
640.448 2.6673 0 -65.3123
631.991 2.68962 0 -65.1578
1056.16 2.12883 0 -57.8786
1070.27 2.11733 0 -58.1354
636.219 2.67852 0 -65.2354
843.971 2.46406 0 -62.7071
1063.22 2.12314 0 -58.0077
855.252 2.44655 0 -62.9127
849.611 2.45536 0 -62.8104
631.991 2.68962 0 -65.1578
623.534 2.71146 0 -65.0002
1042.06 2.13987 0 -57.6166
1056.16 2.12883 0 -57.8786
627.763 2.7006 0 -65.0794
832.691 2.48109 0 -62.4972
1049.11 2.13441 0 -57.7483
843.971 2.46406 0 -62.7071
838.331 2.47264 0 -62.6027
623.534 2.71146 0 -65.0002
615.078 2.73283 0 -64.8395
1027.95 2.15046 0 -57.3493
1042.06 2.13987 0 -57.6166
619.306 2.72221 0 -64.9202
821.411 2.49766 0 -62.2832
1035.01 2.14522 0 -57.4836
832.691 2.48109 0 -62.4972
827.051 2.48944 0 -62.3907
615.078 2.73283 0 -64.8395
606.622 2.75373 0 -64.6757
1013.85 2.16061 0 -57.077
1027.95 2.15046 0 -57.3493
610.85 2.74334 0 -64.758
810.132 2.51375 0 -62.0651
1020.9 2.15559 0 -57.2138
821.411 2.49766 0 -62.2832
815.772 2.50576 0 -62.1747
606.622 2.75373 0 -64.6757
598.166 2.77415 0 -64.5088
999.746 2.1703 0 -56.7995
1013.85 2.16061 0 -57.077
602.394 2.764 0 -64.5926
798.853 2.52938 0 -61.8429
1006.8 2.16551 0 -56.9389
810.132 2.51375 0 -62.0651
804.492 2.52162 0 -61.9545
598.166 2.77415 0 -64.5088
589.71 2.7941 0 -64.339
985.643 2.17955 0 -56.517
999.746 2.1703 0 -56.7995
593.938 2.78418 0 -64.4243
787.574 2.54453 0 -61.6167
992.694 2.17498 0 -56.6589
798.853 2.52938 0 -61.8429
793.213 2.53701 0 -61.7303
589.71 2.7941 0 -64.339
581.255 2.81358 0 -64.1662
971.54 2.18835 0 -56.2297
985.643 2.17955 0 -56.517
585.483 2.8039 0 -64.2529
776.296 2.55922 0 -61.3866
978.591 2.184 0 -56.374
787.574 2.54453 0 -61.6167
781.935 2.55194 0 -61.5022
581.255 2.81358 0 -64.1662
572.8 2.83258 0 -63.9904
957.438 2.19671 0 -55.9374
971.54 2.18835 0 -56.2297
577.027 2.82314 0 -64.0787
765.018 2.57345 0 -61.1526
964.489 2.19258 0 -56.0841
776.296 2.55922 0 -61.3866
770.657 2.5664 0 -61.2701
572.8 2.83258 0 -63.9904
564.345 2.85112 0 -63.8119
943.336 2.20462 0 -55.6404
957.438 2.19671 0 -55.9374
568.572 2.84191 0 -63.9015
753.74 2.58721 0 -60.9148
950.387 2.20072 0 -55.7895
765.018 2.57345 0 -61.1526
759.379 2.58039 0 -61.0342
564.345 2.85112 0 -63.8119
555.89 2.86919 0 -63.6305
929.235 2.2121 0 -55.3386
943.336 2.20462 0 -55.6404
560.117 2.86021 0 -63.7215
742.463 2.60051 0 -60.6732
936.285 2.20841 0 -55.4901
753.74 2.58721 0 -60.9148
748.101 2.59392 0 -60.7945
555.89 2.86919 0 -63.6305
547.435 2.88679 0 -63.4463
915.134 2.21913 0 -55.0322
929.235 2.2121 0 -55.3386
551.662 2.87805 0 -63.5387
731.185 2.61335 0 -60.4279
922.184 2.21567 0 -55.186
742.463 2.60051 0 -60.6732
736.824 2.60699 0 -60.551
547.435 2.88679 0 -63.4463
538.981 2.90393 0 -63.2593
901.034 2.22574 0 -54.7213
915.134 2.21913 0 -55.0322
543.208 2.89542 0 -63.3531
719.909 2.62573 0 -60.1789
908.084 2.22249 0 -54.8773
731.185 2.61335 0 -60.4279
725.547 2.6196 0 -60.3038
538.981 2.90393 0 -63.2593
530.526 2.9206 0 -63.0697
886.934 2.2319 0 -54.4058
901.034 2.22574 0 -54.7213
534.754 2.91232 0 -63.1648
708.632 2.63765 0 -59.9263
893.984 2.22887 0 -54.5641
719.909 2.62573 0 -60.1789
714.271 2.63175 0 -60.0531
530.526 2.9206 0 -63.0697
522.072 2.93681 0 -62.8774
872.834 2.23764 0 -54.0859
886.934 2.2319 0 -54.4058
526.299 2.92876 0 -62.9739
697.356 2.64912 0 -59.6702
879.884 2.23482 0 -54.2464
708.632 2.63765 0 -59.9263
702.994 2.64344 0 -59.7987
522.072 2.93681 0 -62.8774
513.619 2.95255 0 -62.6825
858.735 2.24294 0 -53.7616
872.834 2.23764 0 -54.0859
517.845 2.94474 0 -62.7803
686.081 2.66013 0 -59.4106
865.785 2.24034 0 -53.9243
697.356 2.64912 0 -59.6702
691.718 2.65468 0 -59.5408
513.619 2.95255 0 -62.6825
505.165 2.96784 0 -62.485
844.637 2.24782 0 -53.4331
858.735 2.24294 0 -53.7616
509.392 2.96025 0 -62.5841
674.805 2.67069 0 -59.1476
851.686 2.24543 0 -53.5979
686.081 2.66013 0 -59.4106
680.443 2.66547 0 -59.2795
505.165 2.96784 0 -62.485
496.711 2.98266 0 -62.285
830.539 2.25227 0 -53.1003
844.637 2.24782 0 -53.4331
500.938 2.97531 0 -62.3853
663.53 2.68081 0 -58.8811
837.588 2.2501 0 -53.2672
674.805 2.67069 0 -59.1476
669.168 2.67581 0 -59.0148
496.711 2.98266 0 -62.285
488.258 2.99703 0 -62.0825
816.442 2.2563 0 -52.7633
830.539 2.25227 0 -53.1003
492.485 2.9899 0 -62.1841
652.255 2.69047 0 -58.6114
823.49 2.25434 0 -52.9323
663.53 2.68081 0 -58.8811
657.893 2.68569 0 -58.7467
488.258 2.99703 0 -62.0825
479.805 3.01094 0 -61.8776
802.344 2.25991 0 -52.4223
816.442 2.2563 0 -52.7633
484.032 3.00405 0 -61.9804
640.981 2.69969 0 -58.3384
809.393 2.25816 0 -52.5933
652.255 2.69047 0 -58.6114
646.618 2.69513 0 -58.4753
479.805 3.01094 0 -61.8776
471.352 3.0244 0 -61.6703
788.248 2.26311 0 -52.0773
802.344 2.25991 0 -52.4223
475.579 3.01773 0 -61.7742
629.707 2.70846 0 -58.0622
795.296 2.26156 0 -52.2503
640.981 2.69969 0 -58.3384
635.344 2.70413 0 -58.2007
471.352 3.0244 0 -61.6703
462.899 3.03741 0 -61.4606
774.152 2.26589 0 -51.7284
788.248 2.26311 0 -52.0773
467.126 3.03096 0 -61.5657
618.433 2.71679 0 -57.7829
781.2 2.26455 0 -51.9033
629.707 2.70846 0 -58.0622
624.07 2.71268 0 -57.9229
462.899 3.03741 0 -61.4606
454.447 3.04996 0 -61.2486
760.056 2.26825 0 -51.3755
774.152 2.26589 0 -51.7284
458.673 3.04374 0 -61.3548
607.159 2.72468 0 -57.5004
767.104 2.26712 0 -51.5524
618.433 2.71679 0 -57.7829
612.796 2.72079 0 -57.642
454.447 3.04996 0 -61.2486
445.994 3.06206 0 -61.0343
745.961 2.27021 0 -51.0189
760.056 2.26825 0 -51.3755
450.221 3.05607 0 -61.1417
595.886 2.73214 0 -57.215
753.008 2.26928 0 -51.1977
607.159 2.72468 0 -57.5004
601.522 2.72847 0 -57.3581
445.994 3.06206 0 -61.0343
437.542 3.07372 0 -60.8177
731.866 2.27176 0 -50.6586
745.961 2.27021 0 -51.0189
441.768 3.06795 0 -60.9263
584.613 2.73916 0 -56.9265
738.913 2.27104 0 -50.8392
595.886 2.73214 0 -57.215
590.249 2.7357 0 -57.0711
437.542 3.07372 0 -60.8177
429.09 3.08493 0 -60.599
717.772 2.27291 0 -50.2946
731.866 2.27176 0 -50.6586
433.316 3.07938 0 -60.7087
573.34 2.74575 0 -56.6351
724.819 2.27239 0 -50.477
584.613 2.73916 0 -56.9265
578.977 2.74251 0 -56.7812
429.09 3.08493 0 -60.599
420.638 3.09569 0 -60.3782
703.678 2.27366 0 -49.927
717.772 2.27291 0 -50.2946
424.864 3.09037 0 -60.4889
562.068 2.7519 0 -56.3409
710.725 2.27333 0 -50.1112
573.34 2.74575 0 -56.6351
567.704 2.74888 0 -56.4884
420.638 3.09569 0 -60.3782
412.187 3.10602 0 -60.1552
689.584 2.27401 0 -49.5559
703.678 2.27366 0 -49.927
416.413 3.10091 0 -60.267
550.796 2.75763 0 -56.0438
696.631 2.27388 0 -49.7418
562.068 2.7519 0 -56.3409
556.432 2.75482 0 -56.1927
412.187 3.10602 0 -60.1552
403.735 3.1159 0 -59.9302
675.491 2.27397 0 -49.1813
689.584 2.27401 0 -49.5559
407.961 3.11101 0 -60.043
539.524 2.76294 0 -55.744
682.538 2.27404 0 -49.369
550.796 2.75763 0 -56.0438
545.16 2.76034 0 -55.8943
403.735 3.1159 0 -59.9302
395.284 3.12534 0 -59.7032
661.398 2.27353 0 -48.8034
675.491 2.27397 0 -49.1813
399.509 3.12068 0 -59.8169
528.252 2.76782 0 -55.4415
668.445 2.2738 0 -48.9928
539.524 2.76294 0 -55.744
533.888 2.76543 0 -55.5931
395.284 3.12534 0 -59.7032
386.833 3.13435 0 -59.4742
647.306 2.27271 0 -48.4222
661.398 2.27353 0 -48.8034
391.058 3.1299 0 -59.5889
516.981 2.77228 0 -55.1364
654.352 2.27317 0 -48.6132
528.252 2.76782 0 -55.4415
522.617 2.7701 0 -55.2893
386.833 3.13435 0 -59.4742
378.382 3.14292 0 -59.2432
633.214 2.27151 0 -48.0377
647.306 2.27271 0 -48.4222
382.607 3.13869 0 -59.3589
505.71 2.77632 0 -54.8287
640.26 2.27216 0 -48.2304
516.981 2.77228 0 -55.1364
511.346 2.77435 0 -54.9829
378.382 3.14292 0 -59.2432
369.931 3.15106 0 -59.0104
619.123 2.26992 0 -47.6501
633.214 2.27151 0 -48.0377
374.156 3.14704 0 -59.127
494.44 2.77995 0 -54.5184
626.169 2.27076 0 -47.8443
505.71 2.77632 0 -54.8287
500.075 2.77819 0 -54.6739
369.931 3.15106 0 -59.0104
361.48 3.15877 0 -58.7757
605.032 2.26796 0 -47.2594
619.123 2.26992 0 -47.6501
365.705 3.15497 0 -58.8933
483.169 2.78317 0 -54.2057
612.077 2.26898 0 -47.4551
494.44 2.77995 0 -54.5184
488.804 2.78161 0 -54.3624
361.48 3.15877 0 -58.7757
353.029 3.16605 0 -58.5392
590.941 2.26562 0 -46.8657
605.032 2.26796 0 -47.2594
357.255 3.16246 0 -58.6577
471.899 2.78597 0 -53.8906
597.987 2.26683 0 -47.0629
483.169 2.78317 0 -54.2057
477.534 2.78462 0 -54.0485
353.029 3.16605 0 -58.5392
344.579 3.1729 0 -58.3009
576.851 2.26291 0 -46.469
590.941 2.26562 0 -46.8657
348.804 3.16952 0 -58.4203
460.629 2.78837 0 -53.5731
583.896 2.26431 0 -46.6677
471.899 2.78597 0 -53.8906
466.264 2.78722 0 -53.7321
344.579 3.1729 0 -58.3009
336.129 3.17933 0 -58.0609
562.761 2.25983 0 -46.0695
576.851 2.26291 0 -46.469
340.354 3.17616 0 -58.1811
449.36 2.79037 0 -53.2533
569.806 2.26142 0 -46.2696
460.629 2.78837 0 -53.5731
454.994 2.78942 0 -53.4135
336.129 3.17933 0 -58.0609
327.679 3.18533 0 -57.8193
548.672 2.25639 0 -45.6671
562.761 2.25983 0 -46.0695
331.904 3.18238 0 -57.9403
438.09 2.79197 0 -52.9313
555.717 2.25816 0 -45.8686
449.36 2.79037 0 -53.2533
443.725 2.79122 0 -53.0926
327.679 3.18533 0 -57.8193
319.229 3.19092 0 -57.576
534.583 2.25259 0 -45.262
548.672 2.25639 0 -45.6671
323.454 3.18818 0 -57.6978
426.821 2.79316 0 -52.6071
541.627 2.25454 0 -45.4649
438.09 2.79197 0 -52.9313
432.456 2.79261 0 -52.7695
319.229 3.19092 0 -57.576
310.779 3.19608 0 -57.3311
520.494 2.24844 0 -44.8543
534.583 2.25259 0 -45.262
315.004 3.19355 0 -57.4537
415.552 2.79397 0 -52.2807
527.539 2.25056 0 -45.0585
426.821 2.79316 0 -52.6071
421.187 2.79361 0 -52.4442
310.779 3.19608 0 -57.3311
302.329 3.20083 0 -57.0846
506.406 2.24393 0 -44.4439
520.494 2.24844 0 -44.8543
306.554 3.19851 0 -57.208
404.284 2.79438 0 -51.9523
513.45 2.24623 0 -44.6494
415.552 2.79397 0 -52.2807
409.918 2.79422 0 -52.1168
302.329 3.20083 0 -57.0846
293.88 3.20517 0 -56.8366
492.318 2.23907 0 -44.031
506.406 2.24393 0 -44.4439
298.104 3.20305 0 -56.9608
393.015 2.7944 0 -51.6219
499.362 2.24155 0 -44.2378
404.284 2.79438 0 -51.9523
398.649 2.79444 0 -51.7873
293.88 3.20517 0 -56.8366
285.43 3.20909 0 -56.5872
478.231 2.23387 0 -43.6157
492.318 2.23907 0 -44.031
289.655 3.20718 0 -56.7121
381.747 2.79403 0 -51.2895
485.274 2.23652 0 -43.8237
393.015 2.7944 0 -51.6219
387.381 2.79426 0 -51.4559
285.43 3.20909 0 -56.5872
276.981 3.21261 0 -56.3363
464.143 2.22833 0 -43.198
478.231 2.23387 0 -43.6157
281.205 3.2109 0 -56.462
370.479 2.79328 0 -50.9551
471.187 2.23114 0 -43.4071
381.747 2.79403 0 -51.2895
376.113 2.79371 0 -51.1225
276.981 3.21261 0 -56.3363
268.532 3.21572 0 -56.0841
450.057 2.22245 0 -42.7779
464.143 2.22833 0 -43.198
272.756 3.21421 0 -56.2104
359.212 2.79216 0 -50.619
457.1 2.22543 0 -42.9882
370.479 2.79328 0 -50.9551
364.845 2.79277 0 -50.7873
268.532 3.21572 0 -56.0841
260.083 3.21842 0 -55.8305
435.97 2.21624 0 -42.3557
450.057 2.22245 0 -42.7779
264.307 3.21712 0 -55.9575
347.944 2.79065 0 -50.281
443.013 2.21939 0 -42.5671
359.212 2.79216 0 -50.619
353.578 2.79145 0 -50.4502
260.083 3.21842 0 -55.8305
251.634 3.22071 0 -55.5757
421.884 2.20969 0 -41.9312
435.97 2.21624 0 -42.3557
255.858 3.21962 0 -55.7032
336.677 2.78877 0 -49.9414
428.927 2.21301 0 -42.1437
347.944 2.79065 0 -50.281
342.311 2.78975 0 -50.1114
251.634 3.22071 0 -55.5757
243.185 3.2226 0 -55.3195
407.798 2.20282 0 -41.5047
421.884 2.20969 0 -41.9312
247.409 3.22171 0 -55.4477
325.41 2.78651 0 -49.6
414.841 2.2063 0 -41.7182
336.677 2.78877 0 -49.9414
331.043 2.78768 0 -49.7709
243.185 3.2226 0 -55.3195
234.736 3.22409 0 -55.0622
393.713 2.19563 0 -41.0761
407.798 2.20282 0 -41.5047
238.96 3.2234 0 -55.191
314.143 2.78388 0 -49.2571
400.755 2.19927 0 -41.2907
325.41 2.78651 0 -49.6
319.777 2.78524 0 -49.4287
234.736 3.22409 0 -55.0622
226.288 3.22518 0 -54.8037
379.628 2.18812 0 -40.6456
393.713 2.19563 0 -41.0761
230.512 3.22469 0 -54.9331
302.877 2.78089 0 -48.9125
386.67 2.19191 0 -40.8611
314.143 2.78388 0 -49.2571
308.51 2.78243 0 -49.085
226.288 3.22518 0 -54.8037
217.839 3.22586 0 -54.5441
365.543 2.18029 0 -40.2132
379.628 2.18812 0 -40.6456
222.063 3.22557 0 -54.674
291.61 2.77752 0 -48.5665
372.585 2.18424 0 -40.4296
302.877 2.78089 0 -48.9125
297.243 2.77925 0 -48.7397
217.839 3.22586 0 -54.5441
209.391 3.22615 0 -54.2834
351.458 2.17214 0 -39.779
365.543 2.18029 0 -40.2132
213.615 3.22605 0 -54.4139
280.344 2.77379 0 -48.2191
358.501 2.17625 0 -39.9963
291.61 2.77752 0 -48.5665
285.977 2.7757 0 -48.393
209.391 3.22615 0 -54.2834
200.942 3.22603 0 -54.0217
337.374 2.16369 0 -39.3431
351.458 2.17214 0 -39.779
205.167 3.22614 0 -54.1527
269.078 2.7697 0 -47.8702
344.416 2.16796 0 -39.5613
280.344 2.77379 0 -48.2191
274.711 2.77179 0 -48.0448
200.942 3.22603 0 -54.0217
192.494 3.22551 0 -53.759
323.29 2.15493 0 -38.9055
337.374 2.16369 0 -39.3431
196.718 3.22582 0 -53.8905
257.812 2.76524 0 -47.5201
330.332 2.15935 0 -39.1245
269.078 2.7697 0 -47.8702
263.445 2.76751 0 -47.6953
192.494 3.22551 0 -53.759
184.046 3.22459 0 -53.4953
309.207 2.14586 0 -38.4664
323.29 2.15493 0 -38.9055
188.27 3.2251 0 -53.6273
246.547 2.76042 0 -47.1687
316.248 2.15043 0 -38.6861
257.812 2.76524 0 -47.5201
252.18 2.76287 0 -47.3445
184.046 3.22459 0 -53.4953
175.599 3.22329 0 -53.2308
295.123 2.13649 0 -38.0257
309.207 2.14586 0 -38.4664
179.823 3.22399 0 -53.3632
235.282 2.75523 0 -46.8161
302.165 2.14121 0 -38.2462
246.547 2.76042 0 -47.1687
240.914 2.75787 0 -46.9926
175.599 3.22329 0 -53.2308
167.151 3.22162 0 -52.9653
281.04 2.12682 0 -37.5837
295.123 2.13649 0 -38.0257
171.375 3.2225 0 -53.0982
224.017 2.7497 0 -46.4624
288.082 2.13169 0 -37.8049
235.282 2.75523 0 -46.8161
229.649 2.75251 0 -46.6394
167.151 3.22162 0 -52.9653
158.704 3.21967 0 -52.699
266.958 2.11687 0 -37.1403
281.04 2.12682 0 -37.5837
162.927 3.22068 0 -52.8323
212.752 2.74387 0 -46.1075
273.999 2.12188 0 -37.3622
224.017 2.7497 0 -46.4624
218.384 2.74682 0 -46.2851
158.704 3.21967 0 -52.699
150.257 3.21758 0 -52.4317
252.875 2.1067 0 -36.6956
266.958 2.11687 0 -37.1403
154.48 3.21862 0 -52.5654
201.488 2.73784 0 -45.7515
259.916 2.11181 0 -36.9181
212.752 2.74387 0 -46.1075
207.12 2.74087 0 -45.9297
150.257 3.21758 0 -52.4317
141.81 3.21569 0 -52.1633
238.794 2.09643 0 -36.2495
252.875 2.1067 0 -36.6956
146.034 3.21657 0 -52.2976
190.224 2.73184 0 -45.3942
245.834 2.10156 0 -36.4727
201.488 2.73784 0 -45.7515
195.856 2.73481 0 -45.573
141.81 3.21569 0 -52.1633
133.364 3.21476 0 -51.8935
224.713 2.08633 0 -35.8016
238.794 2.09643 0 -36.2495
137.587 3.21502 0 -52.0286
178.961 2.72644 0 -45.0352
231.753 2.09134 0 -36.0258
190.224 2.73184 0 -45.3942
184.592 2.72901 0 -45.2149
133.364 3.21476 0 -51.8935
124.917 3.21621 0 -51.622
210.633 2.07706 0 -35.3513
224.713 2.08633 0 -35.8016
129.141 3.21505 0 -51.758
167.698 2.72274 0 -44.6737
217.673 2.08152 0 -35.5769
178.961 2.72644 0 -45.0352
173.33 2.72425 0 -44.8548
124.917 3.21621 0 -51.622
116.468 3.22318 0 -51.3478
196.556 2.06979 0 -34.897
210.633 2.07706 0 -35.3513
120.693 3.2187 0 -51.4853
156.436 2.72319 0 -44.3079
203.595 2.07307 0 -35.1248
167.698 2.72274 0 -44.6737
162.067 2.72226 0 -44.4915
116.468 3.22318 0 -51.3478
108.013 3.24085 0 -51.0698
182.484 2.06725 0 -34.4346
196.556 2.06979 0 -34.897
112.242 3.23018 0 -51.2094
145.173 2.73206 0 -43.9346
189.519 2.06767 0 -34.6672
156.436 2.72319 0 -44.3079
150.805 2.72605 0 -44.1226
108.013 3.24085 0 -51.0698
99.5456 3.28024 0 -50.7853
168.416 2.07358 0 -33.9578
182.484 2.06725 0 -34.4346
103.781 3.25683 0 -50.9286
133.906 2.75828 0 -43.5474
175.449 2.06892 0 -34.1985
145.173 2.73206 0 -43.9346
139.54 2.74242 0 -43.7432
99.5456 3.28024 0 -50.7853
91.0436 3.35689 0 -50.4922
154.361 2.09858 0 -33.4517
168.416 2.07358 0 -33.9578
95.3012 3.31242 0 -50.64
122.625 2.81534 0 -43.1354
161.386 2.08295 0 -33.7098
133.906 2.75828 0 -43.5474
128.267 2.78112 0 -43.3459
91.0436 3.35689 0 -50.4922
82.4845 3.50316 0 -50.1844
140.312 2.15323 0 -32.8954
154.361 2.09858 0 -33.4517
86.7716 3.41876 0 -50.3408
111.312 2.93081 0 -42.6795
147.337 2.1209 0 -33.1815
122.625 2.81534 0 -43.1354
116.975 2.86469 0 -42.9137
82.4845 3.50316 0 -50.1844
73.7895 3.7522 0 -49.8619
126.293 2.26882 0 -32.2411
140.312 2.15323 0 -32.8954
78.1628 3.61156 0 -50.0245
99.933 3.13668 0 -42.1508
133.295 2.20187 0 -32.5851
111.312 2.93081 0 -42.6795
105.632 3.01682 0 -42.4286
73.7895 3.7522 0 -49.8619
64.8953 4.17544 0 -49.5162
112.254 2.45949 0 -31.4383
126.293 2.26882 0 -32.2411
69.367 3.93851 0 -49.6933
88.4104 3.50014 0 -41.5081
119.285 2.35058 0 -31.8619
99.933 3.13668 0 -42.1508
94.1991 3.29987 0 -41.8429
64.8953 4.17544 0 -49.5162
55.566 4.78103 0 -49.181
98.2512 2.81478 0 -30.3639
112.254 2.45949 0 -31.4383
60.3134 4.45325 0 -49.3423
76.6303 4.05222 0 -40.7059
105.234 2.61802 0 -30.9465
88.4104 3.50014 0 -41.5081
82.5541 3.73792 0 -41.1383
55.566 4.78103 0 -49.181
45.7141 5.62556 0 -48.8786
84.0025 3.2659 0 -28.9641
98.2512 2.81478 0 -30.3639
50.6931 5.1845 0 -49.0249
64.3239 4.88235 0 -39.7318
91.1999 3.01462 0 -29.7069
76.6303 4.05222 0 -40.7059
70.5821 4.4573 0 -40.2219
45.7141 5.62556 0 -48.8786
34.8283 6.30714 0 -48.8347
69.6052 4.02937 0 -27.0523
84.0025 3.2659 0 -28.9641
40.473 6.01407 0 -48.7983
51.2141 5.7492 0 -38.6816
76.784 3.64658 0 -28.0858
64.3239 4.88235 0 -39.7318
57.8546 5.28648 0 -39.2372
34.8283 6.30714 0 -48.8347
23.2797 6.30185 0 -49.2422
53.7338 4.31767 0 -24.9962
69.6052 4.02937 0 -27.0523
29.0441 6.51146 0 -48.9678
36.5065 6.27339 0 -38.0322
62.0264 4.19496 0 -26.0073
51.2141 5.7492 0 -38.6816
44.2079 6.22817 0 -38.1866
23.2797 6.30185 0 -49.2422
10.9171 2.79775 0 -50.7323
36.4405 4.18692 0 -23.4311
53.7338 4.31767 0 -24.9962
17.3031 5.1919 0 -49.7998
20.1901 3.86249 0 -38.9266
45.1774 4.62345 0 -24.043
36.5065 6.27339 0 -38.0322
28.3875 5.54412 0 -38.3023
10.9171 2.79775 0 -50.7323
1.56931 -8.17506 0 -52.1878
13.8257 -2.74821 0 -26.7264
36.4405 4.18692 0 -23.4311
5.38372 -1.14178 0 -51.6247
2.25647 -7.26407 0 -43.6152
26.2806 1.74856 0 -24.0675
20.1901 3.86249 0 -38.9266
11.7521 0.512489 0 -40.3683
1.56931 -8.17506 0 -52.1878
-3.54347 -36.0462 0 -48.7799
-5.28909 -30.6464 0 -41.1972
13.8257 -2.74821 0 -26.7264
-1.40194 -20.087 0 -51.7726
-4.28233 -41.5513 0 -48.5055
3.0367 -9.98839 0 -31.657
2.25647 -7.26407 0 -43.6152
-4.52445 -21.1862 0 -47.2417
-3.54347 -36.0462 0 -48.7799
-2.91831 -69.4417 0 -27.4265
0.217946 -139.015 0 -45.6508
-5.28909 -30.6464 0 -41.1972
-4.41131 -53.9867 0 -41.0777
4.32396 -99.9668 0 -27.2111
-8.58842 -74.7232 0 -49.915
-4.28233 -41.5513 0 -48.5055
-0.704499 -69.4543 0 -43.2242
2602.34 778.888 0 -105.929
2755.86 297.104 0 -154.727
3703.23 -68.8945 0 49.0209
5738.7 1717.52 0 -1371.39
2703.74 560.241 0 -178.731
3440.25 211.362 0 -200.911
4119.65 -78.0273 0 -196.419
3061.23 916.106 0 -332.153
3396.18 463.121 0 -312.776
2755.86 297.104 0 -154.727
2797.81 87.8124 0 -75.5642
3666.12 -39.5703 0 13.1514
3703.23 -68.8945 0 49.0209
2795.2 152.539 0 -112.648
3311.1 30.4718 0 -36.5524
3671.5 12.3827 0 20.05
3440.25 211.362 0 -200.911
3352.85 75.9636 0 -83.3576
2797.81 87.8124 0 -75.5642
2762.84 14.792 0 -30.461
3733.24 12.7376 0 3.59953
3666.12 -39.5703 0 13.1514
2776.84 42.6401 0 -45.8705
3267.19 0.0874377 0 -7.26098
3704.87 -25.4801 0 12.9597
3311.1 30.4718 0 -36.5524
3287.17 10.9587 0 -19.6679
2762.84 14.792 0 -30.461
2738.64 -1.24913 0 -20.8736
3749.43 -3.70361 0 -5.9407
3733.24 12.7376 0 3.59953
2752.13 3.18073 0 -23.9058
3246.72 -4.12992 0 -3.6702
3742.29 11.7973 0 -5.98043
3267.19 0.0874377 0 -7.26098
3253.09 -4.17245 0 -1.99019
2738.64 -1.24913 0 -20.8736
2714.36 -7.23876 0 -21.1006
3762.72 4.28284 0 -5.66214
3749.43 -3.70361 0 -5.9407
2724.54 -5.11633 0 -19.9657
3237.19 -3.87671 0 -8.95975
3759 -2.57936 0 -4.21231
3246.72 -4.12992 0 -3.6702
3242.88 -3.65543 0 -6.94118
2714.36 -7.23876 0 -21.1006
2697.55 -6.29059 0 -25.3028
3757.18 -0.561433 0 -7.95828
3762.72 4.28284 0 -5.66214
2706.21 -7.07636 0 -23.2848
3225.58 -3.11548 0 -13.961
3760.3 3.13586 0 -7.74788
3237.19 -3.87671 0 -8.95975
3231.04 -3.75244 0 -11.2269
2697.55 -6.29059 0 -25.3028
2681.34 -5.26283 0 -28.9916
3748.52 0.95417 0 -8.56181
3757.18 -0.561433 0 -7.95828
2688.94 -5.81235 0 -27.1473
3213.32 -2.22408 0 -18.1316
3753.95 -0.438317 0 -7.84421
3225.58 -3.11548 0 -13.961
3219.94 -2.53112 0 -16.3513
2681.34 -5.26283 0 -28.9916
2666.93 -3.83335 0 -32.1597
3733.39 -0.127633 0 -9.91093
3748.52 0.95417 0 -8.56181
2674.22 -4.50564 0 -30.7308
3199 -1.70274 0 -21.1663
3741.17 0.665322 0 -9.45802
3213.32 -2.22408 0 -18.1316
3206.19 -1.98601 0 -19.721
2666.93 -3.83335 0 -32.1597
2652.55 -2.93508 0 -34.4012
3716.69 0.161619 0 -10.8845
3733.39 -0.127633 0 -9.91093
2659.63 -3.34607 0 -33.3516
3183.79 -1.29361 0 -23.357
3725.36 -0.118998 0 -10.2972
3199 -1.70274 0 -21.1663
3191.58 -1.45354 0 -22.3717
2652.55 -2.93508 0 -34.4012
2638.49 -2.27246 0 -36.1053
3698.12 -0.0528411 0 -12.0171
3716.69 0.161619 0 -10.8845
2645.55 -2.56372 0 -35.3258
3167.71 -1.07848 0 -25.0143
3707.48 0.104671 0 -11.5037
3183.79 -1.29361 0 -23.357
3175.79 -1.18305 0 -24.2328
2638.49 -2.27246 0 -36.1053
2624.39 -1.88515 0 -37.3771
3679.01 0.00506413 0 -13.0642
3698.12 -0.0528411 0 -12.0171
2631.42 -2.05697 0 -36.7765
3151.26 -0.926463 0 -26.3169
3688.64 -0.0527008 0 -12.5185
3167.71 -1.07848 0 -25.0143
3159.55 -0.988859 0 -25.7013
2624.39 -1.88515 0 -37.3771
2610.32 -1.63667 0 -38.4167
3659.45 -0.0265938 0 -14.1295
3679.01 0.00506413 0 -13.0642
2617.36 -1.74441 0 -37.9227
3134.53 -0.842464 0 -27.4276
3669.25 -0.000801952 0 -13.6101
3151.26 -0.926463 0 -26.3169
3142.91 -0.882167 0 -26.8902
2610.32 -1.63667 0 -38.4167
2596.21 -1.4885 0 -39.3023
3639.75 -0.00879553 0 -15.1668
3659.45 -0.0265938 0 -14.1295
2603.26 -1.55454 0 -38.8724
3117.68 -0.781636 0 -28.4174
3649.61 -0.0236483 0 -14.6449
3134.53 -0.842464 0 -27.4276
3126.12 -0.808203 0 -27.9336
2596.21 -1.4885 0 -39.3023
2582.1 -1.39005 0 -40.1062
3619.95 -0.00490359 0 -16.1925
3639.75 -0.00879553 0 -15.1668
2589.16 -1.43411 0 -39.7127
3100.75 -0.740075 0 -29.3424
3629.86 -0.00493429 0 -15.6841
3117.68 -0.781636 0 -28.4174
3109.22 -0.760147 0 -28.8862
2582.1 -1.39005 0 -40.1062
2567.97 -1.32125 0 -40.8583
3600.14 0.00695985 0 -17.1994
3619.95 -0.00490359 0 -16.1925
2575.04 -1.35332 0 -40.4869
3083.8 -0.70502 0 -30.2253
3610.05 -0.00015071 0 -16.697
3100.75 -0.740075 0 -29.3424
3092.28 -0.721598 0 -29.7879
2567.97 -1.32125 0 -40.8583
2553.84 -1.26627 0 -41.5798
3580.3 0.0173381 0 -18.1892
3600.14 0.00695985 0 -17.1994
2560.91 -1.29244 0 -41.2223
3066.82 -0.674312 0 -31.0815
3590.22 0.0124719 0 -17.6969
3083.8 -0.70502 0 -30.2253
3075.31 -0.689547 0 -30.6562
2553.84 -1.26627 0 -41.5798
2539.71 -1.21849 0 -42.2796
3560.47 0.0289201 0 -19.1612
3580.3 0.0173381 0 -18.1892
2546.78 -1.24185 0 -41.932
3049.84 -0.644865 0 -31.917
3570.39 0.022892 0 -18.6772
3066.82 -0.674312 0 -31.0815
3058.33 -0.659411 0 -31.5015
2539.71 -1.21849 0 -42.2796
2525.57 -1.17372 0 -42.963
3540.63 0.040756 0 -20.1155
3560.47 0.0289201 0 -19.1612
2532.64 -1.19584 0 -42.6232
3032.86 -0.616001 0 -32.7352
3550.55 0.0348538 0 -19.6407
3049.84 -0.644865 0 -31.917
3041.35 -0.630453 0 -32.3281
2525.57 -1.17372 0 -42.963
2511.43 -1.13028 0 -43.632
3520.8 0.0529533 0 -21.0522
3540.63 0.040756 0 -20.1155
2518.5 -1.15192 0 -43.2992
3015.87 -0.587116 0 -33.5375
3530.72 0.0467836 0 -20.586
3032.86 -0.616001 0 -32.7352
3024.36 -0.601555 0 -33.1383
2511.43 -1.13028 0 -43.632
2497.29 -1.08726 0 -44.2878
3500.97 0.0655639 0 -21.9711
3520.8 0.0529533 0 -21.0522
2504.36 -1.10874 0 -43.9615
2998.89 -0.558074 0 -34.3245
3510.89 0.0592201 0 -21.5139
3015.87 -0.587116 0 -33.5375
3007.38 -0.572631 0 -33.9329
2497.29 -1.08726 0 -44.2878
2483.14 -1.04434 0 -44.9308
3481.14 0.0784979 0 -22.8726
3500.97 0.0655639 0 -21.9711
2490.21 -1.0658 0 -44.6109
2981.9 -0.528802 0 -35.0964
3491.05 0.0719847 0 -22.424
2998.89 -0.558074 0 -34.3245
2990.39 -0.543463 0 -34.7123
2483.14 -1.04434 0 -44.9308
2469 -1.00138 0 -45.5613
3461.31 0.0918155 0 -23.7565
3481.14 0.0784979 0 -22.8726
2476.07 -1.02286 0 -45.2476
2964.92 -0.4993 0 -35.8535
3471.22 0.0851126 0 -23.3167
2981.9 -0.528802 0 -35.0964
2973.41 -0.514081 0 -35.4768
2469 -1.00138 0 -45.5613
2454.86 -0.958349 0 -46.1795
3441.48 0.105462 0 -24.6231
3461.31 0.0918155 0 -23.7565
2461.93 -0.979871 0 -45.8719
2947.93 -0.469583 0 -36.5957
3451.39 0.0985971 0 -24.192
2964.92 -0.4993 0 -35.8535
2956.43 -0.484466 0 -36.2264
2454.86 -0.958349 0 -46.1795
2440.71 -0.915259 0 -46.7853
3421.65 0.11945 0 -25.4725
3441.48 0.105462 0 -24.6231
2447.79 -0.936811 0 -46.4839
2930.95 -0.439668 0 -37.3231
3431.56 0.112415 0 -25.05
2947.93 -0.469583 0 -36.5957
2939.44 -0.454649 0 -36.9613
2440.71 -0.915259 0 -46.7853
2426.57 -0.872121 0 -47.3788
3401.82 0.133748 0 -26.3046
3421.65 0.11945 0 -25.4725
2433.64 -0.893695 0 -47.0836
2913.96 -0.409576 0 -38.0359
3411.73 0.126561 0 -25.8907
2930.95 -0.439668 0 -37.3231
2922.46 -0.424643 0 -37.6814
2426.57 -0.872121 0 -47.3788
2412.43 -0.828952 0 -47.9602
3381.99 0.148349 0 -27.1197
3401.82 0.133748 0 -26.3046
2419.5 -0.85054 0 -47.6711
2896.98 -0.379326 0 -38.7341
3391.9 0.141012 0 -26.7143
2913.96 -0.409576 0 -38.0359
2905.47 -0.39447 0 -38.3868
2412.43 -0.828952 0 -47.9602
2398.29 -0.785766 0 -48.5295
3362.16 0.16323 0 -27.9179
3381.99 0.148349 0 -27.1197
2405.36 -0.80736 0 -48.2464
2879.99 -0.348934 0 -39.4177
3372.07 0.155756 0 -27.5209
2896.98 -0.379326 0 -38.7341
2888.49 -0.364147 0 -39.0777
2398.29 -0.785766 0 -48.5295
2384.14 -0.742578 0 -49.0868
3342.33 0.178378 0 -28.6992
3362.16 0.16323 0 -27.9179
2391.21 -0.764171 0 -48.8096
2863.01 -0.318417 0 -40.0869
3352.24 0.170772 0 -28.3106
2879.99 -0.348934 0 -39.4177
2871.5 -0.33369 0 -39.7541
2384.14 -0.742578 0 -49.0868
2370 -0.699401 0 -49.6321
3322.5 0.193772 0 -29.4637
3342.33 0.178378 0 -28.6992
2377.07 -0.720987 0 -49.3609
2846.03 -0.287789 0 -40.7417
3332.41 0.186045 0 -29.0835
2863.01 -0.318417 0 -40.0869
2854.52 -0.303116 0 -40.4161
2370 -0.699401 0 -49.6321
2355.86 -0.656248 0 -50.1655
3302.67 0.209398 0 -30.2115
3322.5 0.193772 0 -29.4637
2362.93 -0.677821 0 -49.9002
2829.04 -0.257066 0 -41.3823
3312.59 0.201557 0 -29.8397
2846.03 -0.287789 0 -40.7417
2837.53 -0.272439 0 -41.0638
2355.86 -0.656248 0 -50.1655
2341.72 -0.613131 0 -50.687
3282.84 0.225237 0 -30.9428
3302.67 0.209398 0 -30.2115
2348.79 -0.634684 0 -50.4277
2812.06 -0.226262 0 -42.0086
3292.76 0.217292 0 -30.5792
2829.04 -0.257066 0 -41.3823
2820.55 -0.241673 0 -41.6972
2341.72 -0.613131 0 -50.687
2327.57 -0.570062 0 -51.1969
3263.02 0.241274 0 -31.6576
3282.84 0.225237 0 -30.9428
2334.64 -0.59159 0 -50.9434
2795.08 -0.195392 0 -42.6208
3272.93 0.233232 0 -31.3022
2812.06 -0.226262 0 -42.0086
2803.57 -0.210834 0 -42.3165
2327.57 -0.570062 0 -51.1969
2313.43 -0.527053 0 -51.695
3243.19 0.257492 0 -32.356
3263.02 0.241274 0 -31.6576
2320.5 -0.54855 0 -51.4474
2778.09 -0.164469 0 -43.2191
3253.1 0.249362 0 -32.0088
2795.08 -0.195392 0 -42.6208
2786.58 -0.179936 0 -42.9217
2313.43 -0.527053 0 -51.695
2299.29 -0.484116 0 -52.1815
3223.36 0.273875 0 -33.0382
3243.19 0.257492 0 -32.356
2306.36 -0.505575 0 -51.9397
2761.11 -0.133508 0 -43.8033
3233.27 0.265664 0 -32.6991
2778.09 -0.164469 0 -43.2191
2769.6 -0.148993 0 -43.5129
2299.29 -0.484116 0 -52.1815
2285.15 -0.441262 0 -52.6565
3203.53 0.290407 0 -33.7042
3223.36 0.273875 0 -33.0382
2292.22 -0.462678 0 -52.4204
2744.13 -0.102522 0 -44.3738
3213.45 0.282123 0 -33.3732
2761.11 -0.133508 0 -43.8033
2752.62 -0.118017 0 -44.0903
2285.15 -0.441262 0 -52.6565
2271 -0.398501 0 -53.12
3183.71 0.307073 0 -34.3541
3203.53 0.290407 0 -33.7042
2278.08 -0.419869 0 -52.8897
2727.14 -0.0715238 0 -44.9304
3193.62 0.298725 0 -34.0312
2744.13 -0.102522 0 -44.3738
2735.64 -0.0870234 0 -44.6538
2271 -0.398501 0 -53.12
2256.86 -0.355847 0 -53.5721
3163.88 0.323858 0 -34.9881
3183.71 0.307073 0 -34.3541
2263.93 -0.37716 0 -53.3475
2710.16 -0.0405273 0 -45.4734
3173.79 0.315452 0 -34.6731
2727.14 -0.0715238 0 -44.9304
2718.65 -0.0560246 0 -45.2036
2256.86 -0.355847 0 -53.5721
2242.72 -0.313308 0 -54.0129
3144.06 0.340746 0 -35.6062
3163.88 0.323858 0 -34.9881
2249.79 -0.334562 0 -53.7939
2693.18 -0.00954515 0 -46.0028
3153.97 0.33229 0 -35.2991
2710.16 -0.0405273 0 -45.4734
2701.67 -0.0250336 0 -45.7398
2242.72 -0.313308 0 -54.0129
2228.58 -0.270896 0 -54.4424
3124.23 0.357724 0 -36.2085
3144.06 0.340746 0 -35.6062
2235.65 -0.292086 0 -54.229
2676.2 0.0214101 0 -46.5186
3134.14 0.349225 0 -35.9093
2693.18 -0.00954514 0 -46.0028
2684.69 0.00593661 0 -46.2624
2228.58 -0.270896 0 -54.4424
2214.44 -0.228621 0 -54.8607
3104.41 0.374775 0 -36.7952
3124.23 0.357724 0 -36.2085
2221.51 -0.249741 0 -54.653
2659.22 0.0523261 0 -47.0211
3114.32 0.366241 0 -36.5038
2676.2 0.0214101 0 -46.5186
2667.71 0.0368738 0 -46.7715
2214.44 -0.228621 0 -54.8607
2200.3 -0.186494 0 -55.2679
3084.58 0.391888 0 -37.3663
3104.41 0.374775 0 -36.7952
2207.37 -0.207538 0 -55.0657
2642.24 0.0831905 0 -47.5102
3094.49 0.383325 0 -37.0827
2659.22 0.0523261 0 -47.0211
2650.73 0.0677654 0 -47.2673
2200.3 -0.186494 0 -55.2679
2186.16 -0.144523 0 -55.6641
3064.76 0.409046 0 -37.9219
3084.58 0.391888 0 -37.3663
2193.23 -0.165488 0 -55.4674
2625.26 0.113992 0 -47.986
3074.67 0.400462 0 -37.646
2642.24 0.0831905 0 -47.5102
2633.75 0.0985997 0 -47.7497
2186.16 -0.144523 0 -55.6641
2172.02 -0.10272 0 -56.0493
3044.94 0.426238 0 -38.4621
3064.76 0.409046 0 -37.9219
2179.09 -0.1236 0 -55.8581
2608.27 0.144718 0 -48.4487
3054.85 0.417639 0 -38.1939
2625.26 0.113992 0 -47.986
2616.77 0.129365 0 -48.219
2172.02 -0.10272 0 -56.0493
2157.88 -0.0610937 0 -56.4236
3025.11 0.443449 0 -38.9871
3044.94 0.426238 0 -38.4621
2164.95 -0.0818843 0 -56.2378
2591.29 0.175357 0 -48.8982
3035.02 0.434842 0 -38.7265
2608.27 0.144717 0 -48.4487
2599.78 0.160049 0 -48.6751
2157.88 -0.0610937 0 -56.4236
2143.74 -0.0196532 0 -56.7871
3005.29 0.460666 0 -39.4969
3025.11 0.443449 0 -38.9871
2150.81 -0.0403496 0 -56.6067
2574.32 0.205898 0 -49.3348
3015.2 0.452057 0 -39.2439
2591.29 0.175357 0 -48.8982
2582.81 0.190641 0 -49.1181
2143.74 -0.0196532 0 -56.7871
2129.6 0.021592 0 -57.1397
2985.47 0.477877 0 -39.9917
3005.29 0.460666 0 -39.4969
2136.67 0.000994376 0 -56.9647
2557.34 0.236331 0 -49.7585
2995.38 0.469273 0 -39.7462
2574.32 0.205898 0 -49.3348
2565.83 0.221129 0 -49.5482
2129.6 0.021592 0 -57.1397
2115.46 0.062633 0 -57.4818
2965.65 0.495069 0 -40.4715
2985.47 0.477877 0 -39.9917
2122.53 0.0421386 0 -57.3121
2540.36 0.266644 0 -50.1693
2975.56 0.486476 0 -40.2334
2557.34 0.236331 0 -49.7585
2548.85 0.251503 0 -49.9655
2115.46 0.062633 0 -57.4818
2101.32 0.103461 0 -57.8131
2945.83 0.512229 0 -40.9364
2965.65 0.495069 0 -40.4715
2108.39 0.0830741 0 -57.6488
2523.38 0.296826 0 -50.5674
2955.74 0.503653 0 -40.7058
2540.36 0.266644 0 -50.1693
2531.87 0.281752 0 -50.3699
2101.32 0.103461 0 -57.8131
2087.18 0.144067 0 -58.134
2926.01 0.529345 0 -41.3865
2945.83 0.512229 0 -40.9364
2094.25 0.123792 0 -57.9749
2506.4 0.326868 0 -50.9528
2935.92 0.520793 0 -41.1633
2523.38 0.296826 0 -50.5674
2514.89 0.311866 0 -50.7617
2087.18 0.144067 0 -58.134
2073.04 0.184442 0 -58.4443
2906.19 0.546406 0 -41.822
2926.01 0.529345 0 -41.3865
2080.11 0.164284 0 -58.2905
2489.42 0.356759 0 -51.3257
2916.1 0.537883 0 -41.6061
2506.4 0.326868 0 -50.9528
2497.91 0.341833 0 -51.1408
2073.04 0.184442 0 -58.4443
2058.9 0.22458 0 -58.7443
2886.37 0.5634 0 -42.2429
2906.19 0.546406 0 -41.822
2065.97 0.204541 0 -58.5956
2472.45 0.386489 0 -51.686
2896.28 0.554912 0 -42.0342
2489.42 0.356759 0 -51.3257
2480.93 0.371645 0 -51.5074
2058.9 0.22458 0 -58.7443
2044.76 0.26447 0 -59.0339
2866.55 0.580315 0 -42.6493
2886.37 0.5634 0 -42.2429
2051.83 0.244556 0 -58.8904
2455.47 0.416049 0 -52.034
2876.46 0.571868 0 -42.4479
2472.45 0.386489 0 -51.686
2463.96 0.401291 0 -51.8616
2044.76 0.26447 0 -59.0339
2030.62 0.304106 0 -59.3133
2846.73 0.597141 0 -43.0413
2866.55 0.580315 0 -42.6493
2037.69 0.28432 0 -59.1749
2438.49 0.445428 0 -52.3697
2856.64 0.58874 0 -42.8471
2455.47 0.416049 0 -52.034
2446.98 0.430762 0 -52.2034
2030.62 0.304106 0 -59.3133
2016.49 0.343479 0 -59.5825
2826.91 0.613866 0 -43.4191
2846.73 0.597141 0 -43.0413
2023.55 0.323825 0 -59.4492
2421.52 0.474618 0 -52.6931
2836.82 0.605517 0 -43.232
2438.49 0.445428 0 -52.3697
2430 0.460047 0 -52.5329
2016.49 0.343479 0 -59.5825
2002.35 0.382582 0 -59.8415
2807.1 0.63048 0 -43.7827
2826.91 0.613866 0 -43.4191
2009.42 0.363064 0 -59.7133
2404.54 0.503609 0 -53.0044
2817.01 0.622188 0 -43.6027
2421.52 0.474618 0 -52.6931
2413.03 0.489139 0 -52.8502
2002.35 0.382582 0 -59.8415
1988.21 0.421407 0 -60.0905
2787.28 0.646972 0 -44.1322
2807.1 0.63048 0 -43.7827
1995.28 0.402029 0 -59.9673
2387.57 0.532393 0 -53.3036
2797.19 0.638742 0 -43.9592
2404.54 0.503609 0 -53.0044
2396.05 0.518027 0 -53.1555
1988.21 0.421407 0 -60.0905
1974.08 0.459947 0 -60.3296
2767.47 0.663333 0 -44.4678
2787.28 0.646972 0 -44.1322
1981.14 0.440713 0 -60.2113
2370.59 0.56096 0 -53.5908
2777.37 0.65517 0 -44.3018
2387.57 0.532393 0 -53.3036
2379.08 0.546704 0 -53.4487
1974.08 0.459947 0 -60.3296
1959.94 0.498196 0 -60.5587
2747.65 0.679551 0 -44.7895
2767.47 0.663333 0 -44.4678
1967.01 0.479109 0 -60.4454
2353.62 0.589302 0 -53.8662
2757.56 0.67146 0 -44.6304
2370.59 0.56096 0 -53.5908
2362.1 0.57516 0 -53.73
1959.94 0.498196 0 -60.5587
1945.8 0.536145 0 -60.778
2727.84 0.695619 0 -45.0974
2747.65 0.679551 0 -44.7895
1952.87 0.517209 0 -60.6696
2336.64 0.617411 0 -54.1297
2737.74 0.687605 0 -44.9452
2353.62 0.589302 0 -53.8662
2345.13 0.603386 0 -53.9994
1945.8 0.536145 0 -60.778
1931.67 0.573789 0 -60.9875
2708.02 0.711525 0 -45.3916
2727.84 0.695619 0 -45.0974
1938.74 0.555006 0 -60.884
2319.67 0.645279 0 -54.3816
2717.93 0.703592 0 -45.2462
2336.64 0.617411 0 -54.1297
2328.16 0.631376 0 -54.2571
1931.67 0.573789 0 -60.9875
1917.53 0.611121 0 -61.1874
2688.21 0.727261 0 -45.6723
2708.02 0.711525 0 -45.3916
1924.6 0.592494 0 -61.0887
2302.7 0.672898 0 -54.6218
2698.12 0.719415 0 -45.5337
2319.67 0.645279 0 -54.3816
2311.18 0.65912 0 -54.5031
1917.53 0.611121 0 -61.1874
1903.4 0.648133 0 -61.3776
2668.4 0.742818 0 -45.9395
2688.21 0.727261 0 -45.6723
1910.47 0.629667 0 -61.2837
2285.73 0.700259 0 -54.8504
2678.31 0.735062 0 -45.8076
2302.7 0.672898 0 -54.6218
2294.21 0.686611 0 -54.7376
1903.4 0.648133 0 -61.3776
1889.26 0.684821 0 -61.5583
2648.59 0.758186 0 -46.1933
2668.4 0.742818 0 -45.9395
1896.33 0.666518 0 -61.4691
2268.76 0.727356 0 -55.0676
2658.49 0.750526 0 -46.0681
2285.73 0.700259 0 -54.8504
2277.24 0.713841 0 -54.9605
1889.26 0.684821 0 -61.5583
1875.13 0.721177 0 -61.7294
2628.78 0.773358 0 -46.4339
2648.59 0.758186 0 -46.1933
1882.2 0.703041 0 -61.645
2251.78 0.754181 0 -55.2735
2638.68 0.765797 0 -46.3153
2268.76 0.727356 0 -55.0676
2260.27 0.740803 0 -55.172
1875.13 0.721177 0 -61.7294
1861 0.757196 0 -61.8912
2608.97 0.788325 0 -46.6613
2628.78 0.773358 0 -46.4339
1868.06 0.739229 0 -61.8115
2234.81 0.780727 0 -55.468
2618.87 0.780868 0 -46.5492
2251.78 0.754181 0 -55.2735
2243.3 0.767489 0 -55.3721
1861 0.757196 0 -61.8912
1846.86 0.792872 0 -62.0437
2589.16 0.803079 0 -46.8756
2608.97 0.788325 0 -46.6613
1853.93 0.775077 0 -61.9686
2217.84 0.806987 0 -55.6513
2599.06 0.795729 0 -46.7701
2234.81 0.780727 0 -55.468
2226.33 0.793893 0 -55.5611
1846.86 0.792872 0 -62.0437
1832.73 0.828199 0 -62.1869
2569.35 0.817612 0 -47.0769
2589.16 0.803079 0 -46.8756
1839.8 0.810579 0 -62.1164
2200.88 0.832953 0 -55.8235
2579.25 0.810374 0 -46.9779
2217.84 0.806987 0 -55.6513
2209.36 0.820007 0 -55.7388
1832.73 0.828199 0 -62.1869
1818.6 0.863172 0 -62.3209
2549.54 0.831916 0 -47.2654
2569.35 0.817612 0 -47.0769
1825.66 0.84573 0 -62.255
2183.91 0.858621 0 -55.9847
2559.45 0.824793 0 -47.1727
2200.88 0.832953 0 -55.8235
2192.39 0.845825 0 -55.9055
1818.6 0.863172 0 -62.3209
1804.47 0.897785 0 -62.4457
2529.74 0.845984 0 -47.441
2549.54 0.831916 0 -47.2654
1811.53 0.880524 0 -62.3844
2166.94 0.883982 0 -56.1349
2539.64 0.83898 0 -47.3548
2183.91 0.858621 0 -55.9847
2175.42 0.87134 0 -56.0612
1804.47 0.897785 0 -62.4457
1790.33 0.932033 0 -62.5616
2509.93 0.859808 0 -47.604
2529.74 0.845984 0 -47.441
1797.4 0.914955 0 -62.5048
2149.97 0.909032 0 -56.2743
2519.83 0.852927 0 -47.5241
2166.94 0.883982 0 -56.1349
2158.46 0.896546 0 -56.206
1790.33 0.932033 0 -62.5616
1776.2 0.965912 0 -62.6684
2490.13 0.873382 0 -47.7545
2509.93 0.859808 0 -47.604
1783.27 0.949019 0 -62.6161
2133 0.933763 0 -56.4029
2500.03 0.866627 0 -47.6808
2149.97 0.909032 0 -56.2743
2141.49 0.921437 0 -56.34
1776.2 0.965912 0 -62.6684
1762.07 0.999416 0 -62.7663
2470.32 0.886698 0 -47.8924
2490.13 0.873382 0 -47.7545
1769.14 0.982711 0 -62.7185
2116.04 0.95817 0 -56.5208
2480.22 0.880073 0 -47.825
2133 0.933763 0 -56.4029
2124.52 0.946007 0 -56.4632
1762.07 0.999416 0 -62.7663
1747.94 1.03254 0 -62.8554
2450.52 0.89975 0 -48.018
2470.32 0.886698 0 -47.8924
1755.01 1.01603 0 -62.812
2099.07 0.982247 0 -56.6281
2460.42 0.893258 0 -47.9568
2116.04 0.95817 0 -56.5208
2107.56 0.97025 0 -56.5758
1747.94 1.03254 0 -62.8554
1733.81 1.06528 0 -62.9358
2430.71 0.912532 0 -48.1313
2450.52 0.89975 0 -48.018
1740.88 1.04896 0 -62.8967
2082.11 1.00599 0 -56.7249
2440.62 0.906176 0 -48.0762
2099.07 0.982247 0 -56.6281
2090.59 0.994161 0 -56.6778
1733.81 1.06528 0 -62.9358
1719.68 1.09763 0 -63.0074
2410.91 0.925037 0 -48.2324
2430.71 0.912532 0 -48.1313
1726.75 1.08151 0 -62.9727
2065.14 1.02939 0 -56.8112
2420.81 0.91882 0 -48.1834
2082.11 1.00599 0 -56.7249
2073.63 1.01773 0 -56.7693
1719.68 1.09763 0 -63.0074
1705.56 1.12959 0 -63.0704
2391.11 0.93726 0 -48.3215
2410.91 0.925037 0 -48.2324
1712.62 1.11366 0 -63.04
2048.18 1.05245 0 -56.8872
2401.01 0.931184 0 -48.2785
2065.14 1.02939 0 -56.8112
2056.66 1.04096 0 -56.8505
1705.56 1.12959 0 -63.0704
1691.43 1.16115 0 -63.1249
2371.31 0.949193 0 -48.3986
2391.11 0.93726 0 -48.3215
1698.49 1.14542 0 -63.0987
2031.22 1.07515 0 -56.9529
2381.21 0.943263 0 -48.3615
2048.18 1.05245 0 -56.8872
2039.7 1.06384 0 -56.9214
1691.43 1.16115 0 -63.1249
1677.3 1.19231 0 -63.1709
2351.51 0.960833 0 -48.4638
2371.31 0.949193 0 -48.3986
1684.36 1.17678 0 -63.149
2014.25 1.0975 0 -57.0085
2361.41 0.95505 0 -48.4326
2031.22 1.07515 0 -56.9529
2022.74 1.08637 0 -56.982
1677.3 1.19231 0 -63.1709
1663.17 1.22307 0 -63.2085
2331.71 0.972173 0 -48.5172
2351.51 0.960833 0 -48.4638
1670.23 1.20774 0 -63.1907
1997.29 1.11949 0 -57.0539
2341.61 0.966541 0 -48.4919
2014.25 1.0975 0 -57.0085
2005.77 1.10854 0 -57.0325
1663.17 1.22307 0 -63.2085
1649.04 1.25342 0 -63.2377
2311.91 0.983208 0 -48.5589
2331.71 0.972173 0 -48.5172
1656.11 1.23829 0 -63.2241
1980.33 1.14111 0 -57.0894
2321.81 0.977729 0 -48.5395
1997.29 1.11949 0 -57.0539
1988.81 1.13035 0 -57.0729
1649.04 1.25342 0 -63.2377
1634.92 1.28335 0 -63.2587
2292.12 0.993934 0 -48.5891
2311.91 0.983208 0 -48.5589
1641.98 1.26844 0 -63.2492
1963.37 1.16237 0 -57.1149
2302.02 0.98861 0 -48.5754
1980.33 1.14111 0 -57.0894
1971.85 1.15179 0 -57.1034
1634.92 1.28335 0 -63.2587
1620.79 1.31287 0 -63.2715
2272.32 1.00434 0 -48.6078
2292.12 0.993934 0 -48.5891
1627.85 1.29816 0 -63.2661
1946.41 1.18325 0 -57.1306
2282.22 0.999179 0 -48.5999
1963.37 1.16237 0 -57.1149
1954.89 1.17286 0 -57.124
1620.79 1.31287 0 -63.2715
1606.67 1.34197 0 -63.2761
2252.53 1.01444 0 -48.6151
2272.32 1.00434 0 -48.6078
1613.73 1.32747 0 -63.2748
1929.45 1.20376 0 -57.1365
2262.42 1.00943 0 -48.6128
1946.41 1.18325 0 -57.1306
1937.93 1.19355 0 -57.1348
1606.67 1.34197 0 -63.2761
1592.54 1.37065 0 -63.2727
2232.73 1.0242 0 -48.6111
2252.53 1.01444 0 -48.6151
1599.6 1.35636 0 -63.2754
1912.49 1.22388 0 -57.1328
2242.63 1.01936 0 -48.6145
1929.45 1.20376 0 -57.1365
1920.97 1.21387 0 -57.1359
1592.54 1.37065 0 -63.2727
1578.42 1.3989 0 -63.2613
2212.94 1.03364 0 -48.596
2232.73 1.0242 0 -48.6111
1585.48 1.38483 0 -63.268
1895.53 1.24362 0 -57.1195
2222.83 1.02896 0 -48.6049
1912.49 1.22388 0 -57.1328
1904.01 1.2338 0 -57.1274
1578.42 1.3989 0 -63.2613
1564.29 1.42672 0 -63.242
2193.14 1.04275 0 -48.5697
2212.94 1.03364 0 -48.596
1571.35 1.41287 0 -63.2527
1878.58 1.26297 0 -57.0967
2203.04 1.03824 0 -48.5842
1895.53 1.24362 0 -57.1195
1887.06 1.25334 0 -57.1093
1564.29 1.42672 0 -63.242
1550.17 1.45412 0 -63.2149
2173.35 1.05152 0 -48.5325
2193.14 1.04275 0 -48.5697
1557.23 1.44047 0 -63.2294
1861.62 1.28193 0 -57.0645
2183.25 1.04718 0 -48.5525
1878.58 1.26297 0 -57.0967
1870.1 1.2725 0 -57.0818
1550.17 1.45412 0 -63.2149
1536.05 1.48108 0 -63.18
2153.56 1.05995 0 -48.4844
2173.35 1.05152 0 -48.5325
1543.11 1.46765 0 -63.1984
1844.66 1.3005 0 -57.023
2163.46 1.05578 0 -48.5098
1861.62 1.28193 0 -57.0645
1853.14 1.29126 0 -57.0449
1536.05 1.48108 0 -63.18
1521.92 1.5076 0 -63.1374
2133.77 1.06804 0 -48.4255
2153.56 1.05995 0 -48.4844
1528.98 1.49439 0 -63.1597
1827.71 1.31866 0 -56.9722
2143.67 1.06404 0 -48.4563
1844.66 1.3005 0 -57.023
1836.19 1.30963 0 -56.9987
1521.92 1.5076 0 -63.1374
1507.8 1.53369 0 -63.0872
2113.98 1.07579 0 -48.356
2133.77 1.06804 0 -48.4255
1514.86 1.5207 0 -63.1132
1810.75 1.33643 0 -56.9123
2123.88 1.07196 0 -48.3921
1827.71 1.31866 0 -56.9722
1819.23 1.3276 0 -56.9434
1507.8 1.53369 0 -63.0872
1493.68 1.55933 0 -63.0294
2094.19 1.08318 0 -48.2759
2113.98 1.07579 0 -48.356
1500.74 1.54656 0 -63.0592
1793.8 1.35379 0 -56.8433
2104.09 1.07953 0 -48.3172
1810.75 1.33643 0 -56.9123
1802.28 1.34516 0 -56.8789
1493.68 1.55933 0 -63.0294
1479.56 1.58453 0 -62.9641
2074.41 1.09022 0 -48.1852
2094.19 1.08318 0 -48.2759
1486.62 1.57199 0 -62.9977
1776.85 1.37075 0 -56.7653
2084.3 1.08674 0 -48.2318
1793.8 1.35379 0 -56.8433
1785.32 1.36232 0 -56.8054
1479.56 1.58453 0 -62.9641
1465.44 1.60929 0 -62.8915
2054.62 1.0969 0 -48.0842
2074.41 1.09022 0 -48.1852
1472.5 1.59696 0 -62.9287
1759.89 1.3873 0 -56.6784
2064.51 1.0936 0 -48.136
1776.85 1.37075 0 -56.7653
1768.37 1.37908 0 -56.7229
1465.44 1.60929 0 -62.8915
1451.32 1.6336 0 -62.8114
2034.83 1.10323 0 -47.9729
2054.62 1.0969 0 -48.0842
1458.38 1.6215 0 -62.8524
1742.94 1.40344 0 -56.5827
2044.73 1.10011 0 -48.0299
1759.89 1.3873 0 -56.6784
1751.42 1.39542 0 -56.6317
1451.32 1.6336 0 -62.8114
1437.2 1.65746 0 -62.7242
2015.05 1.10919 0 -47.8515
2034.83 1.10323 0 -47.9729
1444.26 1.64558 0 -62.7687
1725.99 1.41917 0 -56.4783
2024.94 1.10626 0 -47.9135
1742.94 1.40344 0 -56.5827
1734.47 1.41136 0 -56.5316
1437.2 1.65746 0 -62.7242
1423.08 1.68087 0 -62.6297
1995.26 1.1148 0 -47.7199
2015.05 1.10919 0 -47.8515
1430.14 1.66922 0 -62.6778
1709.04 1.43448 0 -56.3652
2005.16 1.11204 0 -47.787
1725.99 1.41917 0 -56.4783
1717.52 1.42688 0 -56.4228
1423.08 1.68087 0 -62.6297
1408.96 1.70382 0 -62.5281
1975.48 1.12003 0 -47.5784
1995.26 1.1148 0 -47.7199
1416.02 1.6924 0 -62.5797
1692.09 1.44938 0 -56.2436
1985.37 1.11746 0 -47.6504
1709.04 1.43448 0 -56.3652
1700.57 1.44198 0 -56.3055
1408.96 1.70382 0 -62.5281
1394.84 1.72633 0 -62.4194
1955.7 1.12491 0 -47.427
1975.48 1.12003 0 -47.5784
1401.9 1.71513 0 -62.4746
1675.14 1.46386 0 -56.1135
1965.59 1.12252 0 -47.5039
1692.09 1.44938 0 -56.2436
1683.62 1.45667 0 -56.1796
1394.84 1.72633 0 -62.4194
1380.73 1.74838 0 -62.3037
1935.92 1.12941 0 -47.2658
1955.7 1.12491 0 -47.427
1387.78 1.73741 0 -62.3624
1658.19 1.47791 0 -55.9751
1945.81 1.1272 0 -47.3476
1675.14 1.46386 0 -56.1135
1666.67 1.47094 0 -56.0453
1380.73 1.74838 0 -62.3037
1366.61 1.76998 0 -62.1811
1916.14 1.13354 0 -47.0949
1935.92 1.12941 0 -47.2658
1373.67 1.75923 0 -62.2433
1641.25 1.49155 0 -55.8283
1926.03 1.13152 0 -47.1815
1658.19 1.47791 0 -55.9751
1649.72 1.48478 0 -55.9027
1366.61 1.76998 0 -62.1811
1352.49 1.79111 0 -62.0517
1896.36 1.1373 0 -46.9144
1916.14 1.13354 0 -47.0949
1359.55 1.7806 0 -62.1173
1624.3 1.50477 0 -55.6733
1906.25 1.13547 0 -47.0058
1641.25 1.49155 0 -55.8283
1632.77 1.49821 0 -55.7518
1352.49 1.79111 0 -62.0517
1338.38 1.81179 0 -61.9155
1876.58 1.14069 0 -46.7244
1896.36 1.1373 0 -46.9144
1345.43 1.80151 0 -61.9845
1607.35 1.51756 0 -55.5102
1886.47 1.13904 0 -46.8206
1624.3 1.50477 0 -55.6733
1615.83 1.51121 0 -55.5928
1338.38 1.81179 0 -61.9155
1324.26 1.83202 0 -61.7726
1856.8 1.1437 0 -46.5251
1876.58 1.14069 0 -46.7244
1331.32 1.82196 0 -61.8449
1590.41 1.52992 0 -55.339
1866.69 1.14224 0 -46.6259
1607.35 1.51756 0 -55.5102
1598.88 1.52379 0 -55.4256
1324.26 1.83202 0 -61.7726
1310.15 1.85178 0 -61.6231
1837.02 1.14634 0 -46.3164
1856.8 1.1437 0 -46.5251
1317.2 1.84196 0 -61.6987
1573.46 1.54187 0 -55.1599
1846.91 1.14507 0 -46.4219
1590.41 1.52992 0 -55.339
1581.93 1.53595 0 -55.2505
1310.15 1.85178 0 -61.6231
1296.03 1.87108 0 -61.467
1817.25 1.1486 0 -46.0986
1837.02 1.14634 0 -46.3164
1303.09 1.86149 0 -61.5459
1556.52 1.55338 0 -54.9729
1827.13 1.14751 0 -46.2086
1573.46 1.54187 0 -55.1599
1564.99 1.54768 0 -55.0674
1296.03 1.87108 0 -61.467
1281.92 1.88993 0 -61.3044
1797.47 1.15048 0 -45.8717
1817.25 1.1486 0 -46.0986
1288.97 1.88056 0 -61.3865
1539.57 1.56447 0 -54.7781
1807.36 1.14959 0 -45.9862
1556.52 1.55338 0 -54.9729
1548.05 1.55898 0 -54.8765
1281.92 1.88993 0 -61.3044
1267.8 1.90831 0 -61.1354
1777.7 1.15199 0 -45.6357
1797.47 1.15048 0 -45.8717
1274.86 1.89917 0 -61.2207
1522.63 1.57514 0 -54.5756
1787.58 1.15128 0 -45.7548
1539.57 1.56447 0 -54.7781
1531.1 1.56986 0 -54.6778
1267.8 1.90831 0 -61.1354
1253.69 1.92623 0 -60.9601
1757.92 1.15312 0 -45.3909
1777.7 1.15199 0 -45.6357
1260.75 1.91733 0 -61.0486
1505.69 1.58537 0 -54.3655
1767.81 1.1526 0 -45.5145
1522.63 1.57514 0 -54.5756
1514.16 1.58031 0 -54.4715
1253.69 1.92623 0 -60.9601
1239.58 1.94369 0 -60.7785
1738.15 1.15387 0 -45.1374
1757.92 1.15312 0 -45.3909
1246.63 1.93502 0 -60.8701
1488.75 1.59518 0 -54.1479
1748.04 1.15354 0 -45.2652
1505.69 1.58537 0 -54.3655
1497.22 1.59033 0 -54.2577
1239.58 1.94369 0 -60.7785
1225.47 1.96069 0 -60.5907
1718.38 1.15425 0 -44.8751
1738.15 1.15387 0 -45.1374
1232.52 1.95225 0 -60.6853
1471.81 1.60456 0 -53.9228
1728.27 1.15411 0 -45.0073
1488.75 1.59518 0 -54.1479
1480.28 1.59992 0 -54.0363
1225.47 1.96069 0 -60.5907
1211.36 1.97723 0 -60.3967
1698.61 1.15424 0 -44.6042
1718.38 1.15425 0 -44.8751
1218.41 1.96902 0 -60.4944
1454.87 1.61351 0 -53.6904
1708.49 1.15429 0 -44.7407
1471.81 1.60456 0 -53.9228
1463.34 1.60909 0 -53.8075
1211.36 1.97723 0 -60.3967
1197.24 1.9933 0 -60.1967
1678.84 1.15386 0 -44.3248
1698.61 1.15424 0 -44.6042
1204.3 1.98532 0 -60.2975
1437.93 1.62204 0 -53.4506
1688.72 1.1541 0 -44.4656
1454.87 1.61351 0 -53.6904
1446.4 1.61783 0 -53.5714
1197.24 1.9933 0 -60.1967
1183.13 2.00892 0 -59.9907
1659.07 1.1531 0 -44.0371
1678.84 1.15386 0 -44.3248
1190.19 2.00117 0 -60.0944
1420.99 1.63014 0 -53.2037
1668.95 1.15353 0 -44.182
1437.93 1.62204 0 -53.4506
1429.46 1.62614 0 -53.3281
1183.13 2.00892 0 -59.9907
1169.02 2.02408 0 -59.7787
1639.3 1.15197 0 -43.741
1659.07 1.1531 0 -44.0371
1176.08 2.01656 0 -59.8854
1404.05 1.63781 0 -52.9497
1649.19 1.15258 0 -43.8901
1420.99 1.63014 0 -53.2037
1412.52 1.63403 0 -53.0776
1169.02 2.02408 0 -59.7787
1154.91 2.03877 0 -59.561
1619.53 1.15045 0 -43.4367
1639.3 1.15197 0 -43.741
1161.97 2.03148 0 -59.6706
1387.11 1.64506 0 -52.6886
1629.42 1.15126 0 -43.5899
1404.05 1.63781 0 -52.9497
1395.58 1.64149 0 -52.82
1154.91 2.03877 0 -59.561
1140.81 2.05301 0 -59.3374
1599.77 1.14857 0 -43.1244
1619.53 1.15045 0 -43.4367
1147.86 2.04595 0 -59.4499
1370.18 1.65188 0 -52.4206
1609.65 1.14956 0 -43.2816
1387.11 1.64506 0 -52.6886
1378.64 1.64852 0 -52.5555
1140.81 2.05301 0 -59.3374
1126.7 2.06679 0 -59.1081
1580 1.14631 0 -42.804
1599.77 1.14857 0 -43.1244
1133.75 2.05996 0 -59.2235
1353.24 1.65828 0 -52.1458
1589.89 1.14748 0 -42.9652
1370.18 1.65188 0 -52.4206
1361.71 1.65513 0 -52.2841
1126.7 2.06679 0 -59.1081
1112.59 2.08011 0 -58.8732
1560.24 1.14367 0 -42.4758
1580 1.14631 0 -42.804
1119.64 2.07351 0 -58.9914
1336.3 1.66425 0 -51.8642
1570.12 1.14504 0 -42.6409
1353.24 1.65828 0 -52.1458
1344.77 1.66132 0 -52.0058
1112.59 2.08011 0 -58.8732
1098.48 2.09297 0 -58.6327
1540.48 1.14066 0 -42.1398
1560.24 1.14367 0 -42.4758
1105.54 2.0866 0 -58.7537
1319.37 1.6698 0 -51.5759
1550.36 1.14221 0 -42.3087
1336.3 1.66425 0 -51.8642
1327.84 1.66708 0 -51.7209
1098.48 2.09297 0 -58.6327
1084.38 2.10538 0 -58.3868
1520.71 1.13729 0 -41.796
1540.48 1.14066 0 -42.1398
1091.43 2.09923 0 -58.5104
1302.44 1.67493 0 -51.281
1530.59 1.13902 0 -41.9688
1319.37 1.6698 0 -51.5759
1310.9 1.67242 0 -51.4293
1084.38 2.10538 0 -58.3868
1070.27 2.11733 0 -58.1354
1500.95 1.13354 0 -41.4447
1520.71 1.13729 0 -41.796
1077.32 2.11141 0 -58.2617
1285.5 1.67964 0 -50.9796
1510.83 1.13546 0 -41.6213
1302.44 1.67493 0 -51.281
1293.97 1.67734 0 -51.1311
1070.27 2.11733 0 -58.1354
1056.16 2.12883 0 -57.8786
1481.19 1.12942 0 -41.0858
1500.95 1.13354 0 -41.4447
1063.22 2.12314 0 -58.0077
1268.57 1.68393 0 -50.6718
1491.07 1.13153 0 -41.2662
1285.5 1.67964 0 -50.9796
1277.04 1.68184 0 -50.8265
1056.16 2.12883 0 -57.8786
1042.06 2.13987 0 -57.6166
1461.43 1.12494 0 -40.7196
1481.19 1.12942 0 -41.0858
1049.11 2.13441 0 -57.7483
1251.64 1.6878 0 -50.3576
1471.31 1.12723 0 -40.9036
1268.57 1.68393 0 -50.6718
1260.1 1.68592 0 -50.5155
1042.06 2.13987 0 -57.6166
1027.95 2.15046 0 -57.3493
1441.67 1.12009 0 -40.3461
1461.43 1.12494 0 -40.7196
1035.01 2.14522 0 -57.4836
1234.71 1.69126 0 -50.0372
1451.55 1.12256 0 -40.5337
1251.64 1.6878 0 -50.3576
1243.17 1.68958 0 -50.1982
1027.95 2.15046 0 -57.3493
1013.85 2.16061 0 -57.077
1421.91 1.11488 0 -39.9653
1441.67 1.12009 0 -40.3461
1020.9 2.15559 0 -57.2138
1217.78 1.6943 0 -49.7106
1431.79 1.11753 0 -40.1566
1234.71 1.69126 0 -50.0372
1226.24 1.69283 0 -49.8747
1013.85 2.16061 0 -57.077
999.746 2.1703 0 -56.7995
1402.15 1.10931 0 -39.5775
1421.91 1.11488 0 -39.9653
1006.8 2.16551 0 -56.9389
1200.85 1.69693 0 -49.3779
1412.03 1.11214 0 -39.7723
1217.78 1.6943 0 -49.7106
1209.31 1.69566 0 -49.545
999.746 2.1703 0 -56.7995
985.643 2.17955 0 -56.517
1382.4 1.10339 0 -39.1826
1402.15 1.10931 0 -39.5775
992.694 2.17498 0 -56.6589
1183.92 1.69915 0 -49.0392
1392.28 1.1064 0 -39.3809
1200.85 1.69693 0 -49.3779
1192.38 1.69809 0 -49.2093
985.643 2.17955 0 -56.517
971.54 2.18835 0 -56.2297
1362.64 1.0971 0 -38.7808
1382.4 1.10339 0 -39.1826
978.591 2.184 0 -56.374
1166.99 1.70096 0 -48.6946
1372.52 1.10029 0 -38.9826
1183.92 1.69915 0 -49.0392
1175.45 1.7001 0 -48.8676
971.54 2.18835 0 -56.2297
957.438 2.19671 0 -55.9374
1342.89 1.09047 0 -38.3723
1362.64 1.0971 0 -38.7808
964.489 2.19258 0 -56.0841
1150.06 1.70236 0 -48.3442
1352.76 1.09383 0 -38.5774
1166.99 1.70096 0 -48.6946
1158.52 1.70171 0 -48.5201
957.438 2.19671 0 -55.9374
943.336 2.20462 0 -55.6404
1323.13 1.08348 0 -37.957
1342.89 1.09047 0 -38.3723
950.387 2.20072 0 -55.7895
1133.13 1.70336 0 -47.988
1333.01 1.08702 0 -38.1655
1150.06 1.70236 0 -48.3442
1141.6 1.70291 0 -48.1668
943.336 2.20462 0 -55.6404
929.235 2.2121 0 -55.3386
1303.38 1.07614 0 -37.5351
1323.13 1.08348 0 -37.957
936.285 2.20841 0 -55.4901
1116.21 1.70395 0 -47.6262
1313.26 1.07985 0 -37.7469
1133.13 1.70336 0 -47.988
1124.67 1.7037 0 -47.8078
929.235 2.2121 0 -55.3386
915.134 2.21913 0 -55.0322
1283.63 1.06846 0 -37.1068
1303.38 1.07614 0 -37.5351
922.184 2.21567 0 -55.186
1099.28 1.70415 0 -47.2587
1293.5 1.07234 0 -37.3218
1116.21 1.70395 0 -47.6262
1107.74 1.7041 0 -47.4431
915.134 2.21913 0 -55.0322
901.034 2.22574 0 -54.7213
1263.88 1.06043 0 -36.672
1283.63 1.06846 0 -37.1068
908.084 2.22249 0 -54.8773
1082.36 1.70395 0 -46.8858
1273.75 1.06449 0 -36.8901
1099.28 1.70415 0 -47.2587
1090.82 1.7041 0 -47.073
901.034 2.22574 0 -54.7213
886.934 2.2319 0 -54.4058
1244.12 1.05207 0 -36.2308
1263.88 1.06043 0 -36.672
893.984 2.22887 0 -54.5641
1065.43 1.70335 0 -46.5075
1254 1.05629 0 -36.4522
1082.36 1.70395 0 -46.8858
1073.89 1.7037 0 -46.6973
886.934 2.2319 0 -54.4058
872.834 2.23764 0 -54.0859
1224.37 1.04336 0 -35.7835
1244.12 1.05207 0 -36.2308
879.884 2.23482 0 -54.2464
1048.51 1.70236 0 -46.1239
1234.25 1.04776 0 -36.008
1065.43 1.70335 0 -46.5075
1056.97 1.70291 0 -46.3163
872.834 2.23764 0 -54.0859
858.735 2.24294 0 -53.7616
1204.63 1.03433 0 -35.3301
1224.37 1.04336 0 -35.7835
865.785 2.24034 0 -53.9243
1031.58 1.70099 0 -45.735
1214.5 1.03889 0 -35.5576
1048.51 1.70236 0 -46.1239
1040.05 1.70172 0 -45.9301
858.735 2.24294 0 -53.7616
844.637 2.24782 0 -53.4331
1184.88 1.02496 0 -34.8707
1204.63 1.03433 0 -35.3301
851.686 2.24543 0 -53.5979
1014.66 1.69922 0 -45.3409
1194.75 1.02969 0 -35.1011
1031.58 1.70099 0 -45.735
1023.12 1.70015 0 -45.5386
844.637 2.24782 0 -53.4331
830.539 2.25227 0 -53.1003
1165.13 1.01527 0 -34.4053
1184.88 1.02496 0 -34.8707
837.588 2.2501 0 -53.2672
997.739 1.69707 0 -44.9418
1175 1.02016 0 -34.6387
1014.66 1.69922 0 -45.3409
1006.2 1.69819 0 -45.142
830.539 2.25227 0 -53.1003
816.442 2.2563 0 -52.7633
1145.38 1.00525 0 -33.9341
1165.13 1.01527 0 -34.4053
823.49 2.25434 0 -52.9323
980.817 1.69454 0 -44.5378
1155.26 1.0103 0 -34.1704
997.739 1.69707 0 -44.9418
989.278 1.69585 0 -44.7404
816.442 2.2563 0 -52.7633
802.344 2.25991 0 -52.4223
1125.64 0.994916 0 -33.4572
1145.38 1.00525 0 -33.9341
809.393 2.25816 0 -52.5933
963.897 1.69163 0 -44.1288
1135.51 1.00012 0 -33.6964
980.817 1.69454 0 -44.5378
972.357 1.69313 0 -44.3339
802.344 2.25991 0 -52.4223
788.248 2.26311 0 -52.0773
1105.89 0.984262 0 -32.9747
1125.64 0.994916 0 -33.4572
795.296 2.26156 0 -52.2503
946.976 1.68835 0 -43.715
1115.76 0.989628 0 -33.2167
963.897 1.69163 0 -44.1288
955.436 1.69004 0 -43.9225
788.248 2.26311 0 -52.0773
774.152 2.26589 0 -51.7284
1086.15 0.973297 0 -32.4867
1105.89 0.984262 0 -32.9747
781.2 2.26455 0 -51.9033
930.057 1.6847 0 -43.2965
1096.02 0.978818 0 -32.7314
946.976 1.68835 0 -43.715
938.517 1.68657 0 -43.5063
774.152 2.26589 0 -51.7284
760.056 2.26825 0 -51.3755
1066.41 0.962023 0 -31.9933
1086.15 0.973297 0 -32.4867
767.104 2.26712 0 -51.5524
913.138 1.68068 0 -42.8733
1076.28 0.967698 0 -32.2407
930.057 1.6847 0 -43.2965
921.597 1.68273 0 -43.0855
760.056 2.26825 0 -51.3755
745.961 2.27021 0 -51.0189
1046.66 0.950444 0 -31.4945
1066.41 0.962023 0 -31.9933
753.008 2.26928 0 -51.1977
896.22 1.67629 0 -42.4456
1056.53 0.956271 0 -31.7446
913.138 1.68068 0 -42.8733
904.679 1.67853 0 -42.66
745.961 2.27021 0 -51.0189
731.866 2.27176 0 -50.6586
1026.92 0.938564 0 -30.9905
1046.66 0.950444 0 -31.4945
738.913 2.27104 0 -50.8392
879.302 1.67154 0 -42.0134
1036.79 0.944541 0 -31.2432
896.22 1.67629 0 -42.4456
887.761 1.67396 0 -42.23
731.866 2.27176 0 -50.6586
717.772 2.27291 0 -50.2946
1007.18 0.926388 0 -30.4814
1026.92 0.938564 0 -30.9905
724.819 2.27239 0 -50.477
862.385 1.66643 0 -41.5768
1017.05 0.932512 0 -30.7366
879.302 1.67154 0 -42.0134
870.843 1.66903 0 -41.7956
717.772 2.27291 0 -50.2946
703.678 2.27366 0 -49.927
987.44 0.913919 0 -29.9673
1007.18 0.926388 0 -30.4814
710.725 2.27333 0 -50.1112
845.468 1.66097 0 -41.1359
997.31 0.920189 0 -30.225
862.385 1.66643 0 -41.5768
853.926 1.66375 0 -41.3569
703.678 2.27366 0 -49.927
689.584 2.27401 0 -49.5559
967.7 0.901162 0 -29.4483
987.44 0.913919 0 -29.9673
696.631 2.27388 0 -49.7418
828.552 1.65516 0 -40.6908
977.57 0.907576 0 -29.7084
845.468 1.66097 0 -41.1359
837.01 1.65811 0 -40.9139
689.584 2.27401 0 -49.5559
675.491 2.27397 0 -49.1813
947.961 0.888121 0 -28.9244
967.7 0.901162 0 -29.4483
682.538 2.27404 0 -49.369
811.637 1.64901 0 -40.2416
957.831 0.894677 0 -29.1869
828.552 1.65516 0 -40.6908
820.094 1.65213 0 -40.4667
675.491 2.27397 0 -49.1813
661.398 2.27353 0 -48.8034
928.224 0.874802 0 -28.3958
947.961 0.888121 0 -28.9244
668.445 2.2738 0 -48.9928
794.722 1.6425 0 -39.7883
938.092 0.881496 0 -28.6607
811.637 1.64901 0 -40.2416
803.179 1.6458 0 -40.0154
661.398 2.27353 0 -48.8034
647.306 2.27271 0 -48.4222
908.486 0.861207 0 -27.8626
928.224 0.874802 0 -28.3958
654.352 2.27317 0 -48.6132
777.808 1.63566 0 -39.331
918.355 0.868038 0 -28.1297
794.722 1.6425 0 -39.7883
786.265 1.63913 0 -39.5602
647.306 2.27271 0 -48.4222
633.214 2.27151 0 -48.0377
888.75 0.847343 0 -27.3248
908.486 0.861207 0 -27.8626
640.26 2.27216 0 -48.2304
760.894 1.62849 0 -38.8699
898.618 0.854308 0 -27.5942
777.808 1.63566 0 -39.331
769.351 1.63212 0 -39.101
633.214 2.27151 0 -48.0377
619.123 2.26992 0 -47.6501
869.014 0.833212 0 -26.7826
888.75 0.847343 0 -27.3248
626.169 2.27076 0 -47.8443
743.981 1.62098 0 -38.405
878.882 0.84031 0 -27.0543
760.894 1.62849 0 -38.8699
752.438 1.62478 0 -38.6379
619.123 2.26992 0 -47.6501
605.032 2.26796 0 -47.2594
849.28 0.818822 0 -26.2361
869.014 0.833212 0 -26.7826
612.077 2.26898 0 -47.4551
727.069 1.61315 0 -37.9363
859.147 0.826049 0 -26.5099
743.981 1.62098 0 -38.405
735.525 1.61711 0 -38.1711
605.032 2.26796 0 -47.2594
590.941 2.26562 0 -46.8657
829.545 0.804175 0 -25.6854
849.28 0.818822 0 -26.2361
597.987 2.26683 0 -47.0629
710.157 1.60499 0 -37.4641
839.412 0.81153 0 -25.9612
727.069 1.61315 0 -37.9363
718.613 1.60911 0 -37.7007
590.941 2.26562 0 -46.8657
576.851 2.26291 0 -46.469
809.812 0.789277 0 -25.1305
829.545 0.804175 0 -25.6854
583.896 2.26431 0 -46.6677
693.245 1.59652 0 -36.9883
819.679 0.796757 0 -25.4084
710.157 1.60499 0 -37.4641
701.701 1.6008 0 -37.2266
576.851 2.26291 0 -46.469
562.761 2.25983 0 -46.0695
790.079 0.774134 0 -24.5716
809.812 0.789277 0 -25.1305
569.806 2.26142 0 -46.2696
676.334 1.58773 0 -36.509
799.945 0.781736 0 -24.8515
693.245 1.59652 0 -36.9883
684.79 1.59216 0 -36.7491
562.761 2.25983 0 -46.0695
548.672 2.25639 0 -45.6671
770.347 0.75875 0 -24.0087
790.079 0.774134 0 -24.5716
555.717 2.25816 0 -45.8686
659.424 1.57863 0 -36.0264
780.213 0.766472 0 -24.2906
676.334 1.58773 0 -36.509
667.879 1.58322 0 -36.2681
548.672 2.25639 0 -45.6671
534.583 2.25259 0 -45.262
750.616 0.743129 0 -23.442
770.347 0.75875 0 -24.0087
541.627 2.25454 0 -45.4649
642.514 1.56922 0 -35.5405
760.482 0.750969 0 -23.7258
659.424 1.57863 0 -36.0264
650.969 1.57397 0 -35.7838
534.583 2.25259 0 -45.262
520.494 2.24844 0 -44.8543
730.885 0.727278 0 -22.8716
750.616 0.743129 0 -23.442
527.539 2.25056 0 -45.0585
625.605 1.55952 0 -35.0513
740.751 0.735232 0 -23.1573
642.514 1.56922 0 -35.5405
634.06 1.56441 0 -35.2963
520.494 2.24844 0 -44.8543
506.406 2.24393 0 -44.4439
711.156 0.711202 0 -22.2975
730.885 0.727278 0 -22.8716
513.45 2.24623 0 -44.6494
608.696 1.54951 0 -34.5591
721.02 0.719268 0 -22.585
625.605 1.55952 0 -35.0513
617.151 1.55455 0 -34.8056
506.406 2.24393 0 -44.4439
492.318 2.23907 0 -44.031
691.426 0.694906 0 -21.7199
711.156 0.711202 0 -22.2975
499.362 2.24155 0 -44.2378
591.788 1.53922 0 -34.0638
701.291 0.703081 0 -22.0092
608.696 1.54951 0 -34.5591
600.242 1.5444 0 -34.3118
492.318 2.23907 0 -44.031
478.231 2.23387 0 -43.6157
671.698 0.678394 0 -21.1389
691.426 0.694906 0 -21.7199
485.274 2.23652 0 -43.8237
574.881 1.52864 0 -33.5656
681.562 0.686677 0 -21.4298
591.788 1.53922 0 -34.0638
583.334 1.53396 0 -33.8151
478.231 2.23387 0 -43.6157
464.143 2.22833 0 -43.198
651.97 0.661674 0 -20.5545
671.698 0.678394 0 -21.1389
471.187 2.23114 0 -43.4071
557.974 1.51777 0 -33.0645
661.834 0.67006 0 -20.8471
574.881 1.52864 0 -33.5656
566.427 1.52324 0 -33.3154
464.143 2.22833 0 -43.198
450.057 2.22245 0 -42.7779
632.243 0.644749 0 -19.9669
651.97 0.661674 0 -20.5545
457.1 2.22543 0 -42.9882
541.067 1.50662 0 -32.5607
642.106 0.653237 0 -20.2611
557.974 1.51777 0 -33.0645
549.52 1.51223 0 -32.8129
450.057 2.22245 0 -42.7779
435.97 2.21624 0 -42.3557
612.517 0.627627 0 -19.3761
632.243 0.644749 0 -19.9669
443.013 2.21939 0 -42.5671
524.161 1.4952 0 -32.0541
622.38 0.636213 0 -19.6719
541.067 1.50662 0 -32.5607
532.614 1.50095 0 -32.3077
435.97 2.21624 0 -42.3557
421.884 2.20969 0 -41.9312
592.791 0.610311 0 -18.7823
612.517 0.627627 0 -19.3761
428.927 2.21301 0 -42.1437
507.255 1.48352 0 -31.545
602.654 0.618993 0 -19.0796
524.161 1.4952 0 -32.0541
515.708 1.48939 0 -31.7999
421.884 2.20969 0 -41.9312
407.798 2.20282 0 -41.5047
573.066 0.592809 0 -18.1855
592.791 0.610311 0 -18.7823
414.841 2.2063 0 -41.7182
490.35 1.47156 0 -31.0333
582.928 0.601583 0 -18.4843
507.255 1.48352 0 -31.545
498.802 1.47757 0 -31.2894
407.798 2.20282 0 -41.5047
393.713 2.19563 0 -41.0761
553.341 0.575125 0 -17.5859
573.066 0.592809 0 -18.1855
400.755 2.19927 0 -41.2907
473.445 1.45935 0 -30.5192
563.203 0.583989 0 -17.8861
490.35 1.47156 0 -31.0333
481.898 1.46549 0 -30.7765
393.713 2.19563 0 -41.0761
379.628 2.18812 0 -40.6456
533.617 0.557265 0 -16.9835
553.341 0.575125 0 -17.5859
386.67 2.19191 0 -40.8611
456.541 1.44688 0 -30.0027
543.479 0.566216 0 -17.285
473.445 1.45935 0 -30.5192
464.993 1.45315 0 -30.2612
379.628 2.18812 0 -40.6456
365.543 2.18029 0 -40.2132
513.894 0.539235 0 -16.3785
533.617 0.557265 0 -16.9835
372.585 2.18424 0 -40.4296
439.637 1.43417 0 -29.484
523.755 0.548271 0 -16.6813
456.541 1.44688 0 -30.0027
448.089 1.44056 0 -29.7436
365.543 2.18029 0 -40.2132
351.458 2.17214 0 -39.779
494.171 0.521042 0 -15.7709
513.894 0.539235 0 -16.3785
358.501 2.17625 0 -39.9963
422.734 1.4212 0 -28.963
504.032 0.530159 0 -16.075
439.637 1.43417 0 -29.484
431.186 1.42772 0 -29.2238
351.458 2.17214 0 -39.779
337.374 2.16369 0 -39.3431
474.449 0.50269 0 -15.1609
494.171 0.521042 0 -15.7709
344.416 2.16796 0 -39.5613
405.831 1.408 0 -28.4401
484.31 0.511885 0 -15.4662
422.734 1.4212 0 -28.963
414.282 1.41463 0 -28.7018
337.374 2.16369 0 -39.3431
323.29 2.15493 0 -38.9055
454.727 0.484188 0 -14.5485
474.449 0.50269 0 -15.1609
330.332 2.15935 0 -39.1245
388.929 1.39456 0 -27.9151
464.588 0.493458 0 -14.855
405.831 1.408 0 -28.4401
397.38 1.40131 0 -28.1778
323.29 2.15493 0 -38.9055
309.207 2.14586 0 -38.4664
435.006 0.465539 0 -13.9339
454.727 0.484188 0 -14.5485
316.248 2.15043 0 -38.6861
372.026 1.38089 0 -27.3882
444.867 0.474881 0 -14.2415
388.929 1.39456 0 -27.9151
380.477 1.38775 0 -27.6519
309.207 2.14586 0 -38.4664
295.123 2.13649 0 -38.0257
415.286 0.446755 0 -13.3171
435.006 0.465539 0 -13.9339
302.165 2.14121 0 -38.2462
355.125 1.36699 0 -26.8595
425.146 0.456164 0 -13.6257
372.026 1.38089 0 -27.3882
363.575 1.37397 0 -27.124
295.123 2.13649 0 -38.0257
281.04 2.12682 0 -37.5837
395.565 0.427838 0 -12.6982
415.286 0.446755 0 -13.3171
288.082 2.13169 0 -37.8049
338.223 1.35286 0 -26.3291
405.425 0.437312 0 -13.0079
355.125 1.36699 0 -26.8595
346.674 1.35995 0 -26.5945
281.04 2.12682 0 -37.5837
266.958 2.11687 0 -37.1403
375.845 0.408805 0 -12.0773
395.565 0.427838 0 -12.6982
273.999 2.12188 0 -37.3622
321.322 1.33852 0 -25.797
385.705 0.418335 0 -12.388
338.223 1.35286 0 -26.3291
329.772 1.34572 0 -26.0632
266.958 2.11687 0 -37.1403
252.875 2.1067 0 -36.6956
356.125 0.389658 0 -11.4546
375.845 0.408805 0 -12.0773
259.916 2.11181 0 -36.9181
304.421 1.32397 0 -25.2634
365.985 0.399247 0 -11.7662
321.322 1.33852 0 -25.797
312.871 1.33127 0 -25.5304
252.875 2.1067 0 -36.6956
238.794 2.09643 0 -36.2495
336.405 0.370415 0 -10.8301
356.125 0.389658 0 -11.4546
245.834 2.10156 0 -36.4727
287.52 1.30923 0 -24.7284
346.265 0.380041 0 -11.1426
304.421 1.32397 0 -25.2634
295.97 1.31662 0 -24.9961
238.794 2.09643 0 -36.2495
224.713 2.08633 0 -35.8016
316.684 0.35112 0 -10.2039
336.405 0.370415 0 -10.8301
231.753 2.09134 0 -36.0258
270.62 1.29439 0 -24.1917
326.544 0.360796 0 -10.5172
287.52 1.30923 0 -24.7284
279.07 1.30181 0 -24.4602
224.713 2.08633 0 -35.8016
210.633 2.07706 0 -35.3513
296.963 0.331638 0 -9.5762
316.684 0.35112 0 -10.2039
217.673 2.08152 0 -35.5769
253.721 1.27953 0 -23.653
306.824 0.341346 0 -9.89031
270.62 1.29439 0 -24.1917
262.17 1.28696 0 -23.9227
210.633 2.07706 0 -35.3513
196.556 2.06979 0 -34.897
277.243 0.312448 0 -8.94723
296.963 0.331638 0 -9.5762
203.595 2.07307 0 -35.1248
236.825 1.26508 0 -23.1116
287.103 0.322169 0 -9.26172
253.721 1.27953 0 -23.653
245.272 1.2722 0 -23.3828
196.556 2.06979 0 -34.897
182.484 2.06725 0 -34.4346
257.526 0.2921 0 -8.31686
277.243 0.312448 0 -8.94723
189.519 2.06767 0 -34.6672
219.934 1.25137 0 -22.5648
267.384 0.302064 0 -8.63245
236.825 1.26508 0 -23.1116
228.379 1.25814 0 -22.839
182.484 2.06725 0 -34.4346
168.416 2.07358 0 -33.9578
237.821 0.274076 0 -7.68685
257.526 0.2921 0 -8.31686
175.449 2.06892 0 -34.1985
203.058 1.24022 0 -22.0086
247.671 0.283781 0 -8.00117
219.934 1.25137 0 -22.5648
211.493 1.24525 0 -22.2884
168.416 2.07358 0 -33.9578
154.361 2.09858 0 -33.4517
218.136 0.248692 0 -7.05532
237.821 0.274076 0 -7.68685
161.386 2.08295 0 -33.7098
186.206 1.23279 0 -21.4329
227.975 0.26024 0 -7.37239
203.058 1.24022 0 -22.0086
194.629 1.23619 0 -21.7238
154.361 2.09858 0 -33.4517
140.312 2.15323 0 -32.8954
198.525 0.236943 0 -6.43083
218.136 0.248692 0 -7.05532
147.337 2.1209 0 -33.1815
169.412 1.23536 0 -20.8218
208.317 0.24654 0 -6.7395
186.206 1.23279 0 -21.4329
177.798 1.23177 0 -21.134
140.312 2.15323 0 -32.8954
126.293 2.26882 0 -32.2411
179.013 0.184295 0 -5.80236
198.525 0.236943 0 -6.43083
133.295 2.20187 0 -32.5851
152.707 1.25178 0 -20.1416
188.754 0.204368 0 -6.12228
169.412 1.23536 0 -20.8218
161.048 1.24311 0 -20.4915
126.293 2.26882 0 -32.2411
112.254 2.45949 0 -31.4383
159.831 0.203576 0 -5.20726
179.013 0.184295 0 -5.80236
119.285 2.35058 0 -31.8619
136.203 1.29993 0 -19.3402
169.365 0.213358 0 -5.48906
152.707 1.25178 0 -20.1416
144.415 1.26683 0 -19.7654
112.254 2.45949 0 -31.4383
98.2512 2.81478 0 -30.3639
141.042 0.0161996 0 -4.59391
159.831 0.203576 0 -5.20726
105.234 2.61802 0 -30.9465
119.964 1.39288 0 -18.3314
150.376 0.0761525 0 -4.92712
136.203 1.29993 0 -19.3402
128.058 1.34889 0 -18.8594
98.2512 2.81478 0 -30.3639
84.0025 3.2659 0 -28.9641
123.476 0.179017 0 -4.10762
141.042 0.0161996 0 -4.59391
91.1999 3.01462 0 -29.7069
104.32 1.57038 0 -16.9628
132.06 0.196599 0 -4.2831
119.964 1.39288 0 -18.3314
112.014 1.44759 0 -17.7293
84.0025 3.2659 0 -28.9641
69.6052 4.02937 0 -27.0523
107.225 -0.632432 0 -3.53866
123.476 0.179017 0 -4.10762
76.784 3.64658 0 -28.0858
89.2124 1.87508 0 -15.1137
115.122 -0.403238 0 -3.94944
104.32 1.57038 0 -16.9628
96.7692 1.74879 0 -16.0602
69.6052 4.02937 0 -27.0523
53.7338 4.31767 0 -24.9962
94.8914 0.167541 0 -3.37101
107.225 -0.632432 0 -3.53866
62.0264 4.19496 0 -26.0073
75.4647 2.35187 0 -12.4357
100.526 0.252665 0 -3.16875
89.2124 1.87508 0 -15.1137
81.9756 1.99347 0 -14.0175
53.7338 4.31767 0 -24.9962
36.4405 4.18692 0 -23.4311
86.9776 -3.0278 0 -2.45508
94.8914 0.167541 0 -3.37101
45.1774 4.62345 0 -24.043
61.214 3.04018 0 -9.52957
89.8911 -2.41756 0 -3.64806
75.4647 2.35187 0 -12.4357
68.8609 2.85392 0 -10.7296
36.4405 4.18692 0 -23.4311
13.8257 -2.74821 0 -26.7264
94.1872 2.64726 0 -0.124257
86.9776 -3.0278 0 -2.45508
26.2806 1.74856 0 -24.0675
45.5614 2.52621 0 -7.50454
88.8225 1.81832 0 -0.80028
61.214 3.04018 0 -9.52957
53.183 2.85444 0 -8.6958
13.8257 -2.74821 0 -26.7264
-5.28909 -30.6464 0 -41.1972
132.54 12.1119 0 18.4226
94.1872 2.64726 0 -0.124257
3.0367 -9.98839 0 -31.657
5.50873 -17.0526 0 -23.8663
104.522 -4.38367 0 2.45269
45.5614 2.52621 0 -7.50454
32.4022 -0.83233 0 -10.3948
-5.28909 -30.6464 0 -41.1972
0.217946 -139.015 0 -45.6508
16.5015 -173.992 0 -116.696
132.54 12.1119 0 18.4226
-8.58842 -74.7232 0 -49.915
-17.0062 -174.844 0 -71.2696
138.534 32.0884 0 6.75407
5.50873 -17.0526 0 -23.8663
-14.1385 -58.3252 0 -44.8693
      </DataArray> 
      <DataArray type="Float64" NumberOfComponents="4" Name="GreenStrain" format="ascii">
-0.00260262 -1.11022e-16 0.00111541 -0.000885139
-0.00185576 0.00058821 0.000543234 3.40959e-05
-0.00133291 0.000264407 0.000457928 -9.88842e-05
-0.00118375 0 0.00050732 -6.73836e-05
-0.00206428 0.000655981 0.000603558 -0.000124468
-0.0016856 0.00040969 0.00054682 -0.000128199
-0.0012675 0.000124955 0.00048966 -0.000114772
-0.00139096 0 0.000596127 -0.000214737
-0.00162613 0.000277317 0.000578064 -0.000201195
-0.00185576 0.00058821 0.000543234 3.40959e-05
-0.00183441 0.000568332 0.000542605 1.05092e-05
-0.00138482 0.000374768 0.00043288 -4.69784e-05
-0.00133291 0.000264407 0.000457928 -9.88842e-05
-0.00182877 0.00054272 0.000551164 1.48562e-05
-0.00164801 0.000480239 0.000500472 -2.1337e-05
-0.00137401 0.000342358 0.000442136 -7.12355e-05
-0.0016856 0.00040969 0.00054682 -0.000128199
-0.00166204 0.000464017 0.000513437 -5.17587e-05
-0.00183441 0.000568332 0.000542605 1.05092e-05
-0.00186052 0.000552253 0.000560684 4.88656e-06
-0.00137808 0.000405603 0.000416776 -1.74392e-05
-0.00138482 0.000374768 0.00043288 -4.69784e-05
-0.00185192 0.000567181 0.0005506 1.06612e-05
-0.00163081 0.000488587 0.000489523 -2.14073e-06
-0.00138097 0.000393954 0.000423007 -2.75666e-05
-0.00164801 0.000480239 0.000500472 -2.1337e-05
-0.00163908 0.000486242 0.000494071 -1.03269e-05
-0.00186052 0.000552253 0.000560684 4.88656e-06
-0.00187117 0.000563059 0.000560621 -5.76079e-07
-0.00136836 0.000409748 0.000410833 -1.09364e-05
-0.00137808 0.000405603 0.000416776 -1.74392e-05
-0.00186525 0.000554145 0.000561903 -9.90943e-07
-0.00162135 0.000487529 0.000485924 5.88387e-07
-0.00137444 0.000409662 0.000413477 -1.3057e-05
-0.00163081 0.000488587 0.000489523 -2.14073e-06
-0.00162447 0.000488542 0.000486828 1.46141e-06
-0.00187117 0.000563059 0.000560621 -5.76079e-07
-0.0018766 0.000561019 0.000563821 3.7861e-07
-0.00135715 0.000409 0.000406348 -1.07061e-05
-0.00136836 0.000409748 0.000410833 -1.09364e-05
-0.00187579 0.000563927 0.000562226 9.4071e-07
-0.00161662 0.000485947 0.000484576 -2.31362e-06
-0.0013619 0.000409503 0.00040817 -1.01686e-05
-0.00162135 0.000487529 0.000485924 5.88387e-07
-0.00161941 0.000486698 0.000485448 -1.28257e-06
-0.0018766 0.000561019 0.000563821 3.7861e-07
-0.00187449 0.000562621 0.000562231 -3.49998e-07
-0.00134863 0.000405967 0.000404 -1.29872e-05
-0.00135715 0.000409 0.000406348 -1.07061e-05
-0.00187553 0.000561231 0.000563271 -5.98312e-07
-0.00161074 0.000483821 0.000482964 -4.96246e-06
-0.00135307 0.000407673 0.000405169 -1.19085e-05
-0.00161662 0.000485947 0.000484576 -2.31362e-06
-0.00161355 0.000484958 0.000483682 -3.49155e-06
-0.00187449 0.000562621 0.000562231 -3.49998e-07
-0.00186987 0.000560534 0.000561143 1.93661e-08
-0.0013404 0.00040302 0.000401733 -1.48888e-05
-0.00134863 0.000405967 0.000404 -1.29872e-05
-0.00187282 0.000562061 0.000561756 1.08668e-07
-0.00160447 0.000481541 0.000481256 -7.04202e-06
-0.00134427 0.000404433 0.000402788 -1.39417e-05
-0.00161074 0.000483821 0.000482964 -4.96246e-06
-0.00160783 0.000482684 0.000482205 -6.20223e-06
-0.00186987 0.000560534 0.000561143 1.93661e-08
-0.00186241 0.000558796 0.00055869 -1.13148e-07
-0.001333 0.00040016 0.000399786 -1.6431e-05
-0.0013404 0.00040302 0.000401733 -1.48888e-05
-0.0018662 0.000559569 0.000559985 -1.90427e-07
-0.00159722 0.000479141 0.000479177 -8.37678e-06
-0.00133673 0.00040158 0.000400779 -1.57627e-05
-0.00160447 0.000481541 0.000481256 -7.04202e-06
-0.00160087 0.000480357 0.000480219 -7.75647e-06
-0.00186241 0.000558796 0.00055869 -1.13148e-07
-0.00185397 0.000556132 0.000556215 -1.29605e-08
-0.00132568 0.000397578 0.000397757 -1.73631e-05
-0.001333 0.00040016 0.000399786 -1.6431e-05
-0.00185837 0.00055758 0.00055748 4.72035e-09
-0.00158954 0.000476668 0.000476947 -9.1656e-06
-0.00132928 0.000398834 0.000398762 -1.69434e-05
-0.00159722 0.000479141 0.000479177 -8.37678e-06
-0.00159347 0.000477909 0.000478096 -8.84169e-06
-0.00185397 0.000556132 0.000556215 -1.29605e-08
-0.00184469 0.000553451 0.000553388 -3.14106e-08
-0.00131856 0.000395167 0.000395739 -1.79475e-05
-0.00132568 0.000397578 0.000397757 -1.73631e-05
-0.00184936 0.000554778 0.000554821 -5.51923e-08
-0.00158146 0.000474163 0.000474557 -9.61684e-06
-0.00132213 0.000396356 0.000396758 -1.77019e-05
-0.00158954 0.000476668 0.000476947 -9.1656e-06
-0.00158552 0.000475419 0.000475757 -9.42068e-06
-0.00184469 0.000553451 0.000553388 -3.14106e-08
-0.00183512 0.000550556 0.000550527 -6.90275e-09
-0.00131145 0.000392887 0.00039367 -1.82575e-05
-0.00131856 0.000395167 0.000395739 -1.79475e-05
-0.00183995 0.000552029 0.000551965 -2.932e-09
-0.00157321 0.000471637 0.000472104 -9.84856e-06
-0.00131499 0.000394013 0.000394705 -1.81244e-05
-0.00158146 0.000474163 0.000474557 -9.61684e-06
-0.00157736 0.000472902 0.000473341 -9.75434e-06
-0.00183512 0.000550556 0.000550527 -6.90275e-09
-0.00182535 0.000547642 0.000547588 -7.53269e-09
-0.00130438 0.000390683 0.000391585 -1.8426e-05
-0.00131145 0.000392887 0.00039367 -1.82575e-05
-0.00183024 0.000549097 0.000549062 -1.43452e-08
-0.00156484 0.000469103 0.0004696 -9.96786e-06
-0.00130792 0.000391778 0.000392632 -1.83573e-05
-0.00157321 0.000471637 0.000472104 -9.84856e-06
-0.00156903 0.00047037 0.000470854 -9.91835e-06
-0.00182535 0.000547642 0.000547588 -7.53269e-09
-0.00181551 0.000544686 0.000544638 -2.10822e-09
-0.00129732 0.000388525 0.000389481 -1.8505e-05
-0.00130438 0.000390683 0.000391585 -1.8426e-05
-0.00182044 0.000546169 0.000546114 -1.13051e-09
-0.00155641 0.000466566 0.000467077 -1.00209e-05
-0.00130085 0.0003896 0.000390534 -1.84725e-05
-0.00156484 0.000469103 0.0004696 -9.96786e-06
-0.00156063 0.000467835 0.000468342 -1.00001e-05
-0.00181551 0.000544686 0.000544638 -2.10822e-09
-0.00180564 0.000541727 0.000541675 -1.43458e-09
-0.00129025 0.000386391 0.00038737 -1.85418e-05
-0.00129732 0.000388525 0.000389481 -1.8505e-05
-0.00181057 0.000543206 0.000543158 -3.16932e-09
-0.00154796 0.000464028 0.000464541 -1.00442e-05
-0.00129379 0.000387456 0.000388427 -1.85275e-05
-0.00155641 0.000466566 0.000467077 -1.00209e-05
-0.00155219 0.000465297 0.00046581 -1.00351e-05
-0.00180564 0.000541727 0.000541675 -1.43458e-09
-0.00179575 0.000538761 0.000538711 -4.05786e-10
-0.00128319 0.00038427 0.000385252 -1.85556e-05
-0.00129025 0.000386391 0.00038737 -1.85418e-05
-0.0018007 0.000540245 0.000540193 -1.39756e-10
-0.00153949 0.000461489 0.000462001 -1.00519e-05
-0.00128672 0.000385329 0.000386311 -1.85504e-05
-0.00154796 0.000464028 0.000464541 -1.00442e-05
-0.00154373 0.000462759 0.000463272 -1.00492e-05
-0.00179575 0.000538761 0.000538711 -4.05786e-10
-0.00178587 0.000535796 0.000535746 -1.32469e-10
-0.00127613 0.000382155 0.000383132 -1.856e-05
-0.00128319 0.00038427 0.000385252 -1.85556e-05
-0.00179081 0.000537278 0.000537228 -5.07439e-10
-0.00153102 0.000458952 0.000459459 -1.00537e-05
-0.00127966 0.000383212 0.000384192 -1.85586e-05
-0.00153949 0.000461489 0.000462001 -1.00519e-05
-0.00153526 0.000460221 0.00046073 -1.00532e-05
-0.00178587 0.000535796 0.000535746 -1.32469e-10
-0.00177599 0.000532831 0.000532781 1.99717e-12
-0.00126907 0.000380043 0.000381011 -1.85601e-05
-0.00127613 0.000382155 0.000383132 -1.856e-05
-0.00178093 0.000534313 0.000534264 8.32961e-11
-0.00152255 0.000456414 0.000456916 -1.0053e-05
-0.0012726 0.000381098 0.000382072 -1.85603e-05
-0.00153102 0.000458952 0.000459459 -1.00537e-05
-0.00152679 0.000457683 0.000458187 -1.00535e-05
-0.00177599 0.000532831 0.000532781 1.99717e-12
-0.00176611 0.000529867 0.000529817 6.04183e-11
-0.00126201 0.000377931 0.000378889 -1.85591e-05
-0.00126907 0.000380043 0.000381011 -1.85601e-05
-0.00177105 0.000531349 0.000531299 -9.34537e-13
-0.00151408 0.000453877 0.000454372 -1.0052e-05
-0.00126554 0.000378987 0.00037995 -1.85597e-05
-0.00152255 0.000456414 0.000456916 -1.0053e-05
-0.00151831 0.000455146 0.000455644 -1.00525e-05
-0.00176611 0.000529867 0.000529817 6.04183e-11
-0.00175623 0.000526903 0.000526854 5.31144e-11
-0.00125494 0.000375821 0.000376767 -1.8558e-05
-0.00126201 0.000377931 0.000378889 -1.85591e-05
-0.00176117 0.000528385 0.000528336 8.0282e-11
-0.00150561 0.00045134 0.00045183 -1.0051e-05
-0.00125848 0.000376876 0.000377828 -1.85585e-05
-0.00151408 0.000453877 0.000454372 -1.0052e-05
-0.00150984 0.000452609 0.000453101 -1.00514e-05
-0.00175623 0.000526903 0.000526854 5.31144e-11
-0.00174635 0.00052394 0.000523891 5.55207e-11
-0.00124788 0.00037371 0.000374645 -1.85571e-05
-0.00125494 0.000375821 0.000376767 -1.8558e-05
-0.00175129 0.000525421 0.000525372 5.19362e-11
-0.00149714 0.000448803 0.000449287 -1.00503e-05
-0.00125141 0.000374765 0.000375706 -1.85575e-05
-0.00150561 0.00045134 0.00045183 -1.0051e-05
-0.00150137 0.000450072 0.000450558 -1.00506e-05
-0.00174635 0.00052394 0.000523891 5.55207e-11
-0.00173648 0.000520976 0.000520928 4.12537e-11
-0.00124082 0.000371599 0.000372524 -1.85564e-05
-0.00124788 0.00037371 0.000374645 -1.85571e-05
-0.00174141 0.000522458 0.000522409 5.05779e-11
-0.00148867 0.000446267 0.000446744 -1.00498e-05
-0.00124435 0.000372655 0.000373584 -1.85567e-05
-0.00149714 0.000448803 0.000449287 -1.00503e-05
-0.0014929 0.000447535 0.000448015 -1.005e-05
-0.00173648 0.000520976 0.000520928 4.12537e-11
-0.0017266 0.000518014 0.000517965 3.67396e-11
-0.00123376 0.000369489 0.000370402 -1.85561e-05
-0.00124082 0.000371599 0.000372524 -1.85564e-05
-0.00173154 0.000519495 0.000519447 3.92932e-11
-0.0014802 0.00044373 0.000444202 -1.00496e-05
-0.00123729 0.000370544 0.000371463 -1.85562e-05
-0.00148867 0.000446267 0.000446744 -1.00498e-05
-0.00148444 0.000444998 0.000445473 -1.00497e-05
-0.0017266 0.000518014 0.000517965 3.67396e-11
-0.00171672 0.000515051 0.000515003 2.97525e-11
-0.0012267 0.000367378 0.00036828 -1.85559e-05
-0.00123376 0.000369489 0.000370402 -1.85561e-05
-0.00172166 0.000516532 0.000516484 3.28363e-11
-0.00147173 0.000441193 0.000441659 -1.00495e-05
-0.00123023 0.000368433 0.000369341 -1.8556e-05
-0.0014802 0.00044373 0.000444202 -1.00496e-05
-0.00147597 0.000442462 0.000442931 -1.00495e-05
-0.00171672 0.000515051 0.000515003 2.97525e-11
-0.00170685 0.000512088 0.00051204 2.70545e-11
-0.00121964 0.000365267 0.000366158 -1.85559e-05
-0.0012267 0.000367378 0.00036828 -1.85559e-05
-0.00171179 0.000513569 0.000513521 2.85183e-11
-0.00146326 0.000438657 0.000439117 -1.00494e-05
-0.00122317 0.000366322 0.000367219 -1.85559e-05
-0.00147173 0.000441193 0.000441659 -1.00495e-05
-0.0014675 0.000439925 0.000440388 -1.00494e-05
-0.00170685 0.000512088 0.00051204 2.70512e-11
-0.00169697 0.000509125 0.000509077 2.44565e-11
-0.00121257 0.000363156 0.000364037 -1.85559e-05
-0.00121964 0.000365267 0.000366158 -1.85559e-05
-0.00170191 0.000510606 0.000510559 2.54005e-11
-0.00145479 0.00043612 0.000436575 -1.00494e-05
-0.00121611 0.000364211 0.000365098 -1.85559e-05
-0.00146326 0.000438657 0.000439117 -1.00494e-05
-0.00145903 0.000437388 0.000437846 -1.00494e-05
-0.00169697 0.000509125 0.000509077 2.44565e-11
-0.0016871 0.000506162 0.000506115 2.33951e-11
-0.00120551 0.000361045 0.000361915 -1.85559e-05
-0.00121257 0.000363156 0.000364037 -1.85559e-05
-0.00169203 0.000507644 0.000507596 2.39187e-11
-0.00144633 0.000433583 0.000434032 -1.00495e-05
-0.00120904 0.0003621 0.000362976 -1.85559e-05
-0.00145479 0.00043612 0.000436575 -1.00494e-05
-0.00145056 0.000434852 0.000435304 -1.00495e-05
-0.0016871 0.000506162 0.000506115 2.33992e-11
-0.00167722 0.0005032 0.000503152 2.25697e-11
-0.00119845 0.000358934 0.000359794 -1.8556e-05
-0.00120551 0.000361045 0.000361915 -1.85559e-05
-0.00168216 0.000504681 0.000504634 2.28296e-11
-0.00143786 0.000431047 0.00043149 -1.00495e-05
-0.00120198 0.000359989 0.000360855 -1.85559e-05
-0.00144633 0.000433583 0.000434032 -1.00495e-05
-0.00144209 0.000432315 0.000432761 -1.00495e-05
-0.00167722 0.0005032 0.000503152 2.25697e-11
-0.00166735 0.000500237 0.00050019 2.22092e-11
-0.00119139 0.000356823 0.000357672 -1.8556e-05
-0.00119845 0.000358934 0.000359794 -1.8556e-05
-0.00167228 0.000501718 0.000501671 2.23676e-11
-0.00142939 0.00042851 0.000428948 -1.00496e-05
-0.00119492 0.000357878 0.000358733 -1.8556e-05
-0.00143786 0.000431047 0.00043149 -1.00495e-05
-0.00143362 0.000429778 0.000430219 -1.00495e-05
-0.00166735 0.000500237 0.00050019 2.22133e-11
-0.00165747 0.000497274 0.000497227 2.19505e-11
-0.00118433 0.000354712 0.000355551 -1.85561e-05
-0.00119139 0.000356823 0.000357672 -1.8556e-05
-0.00166241 0.000498755 0.000498708 2.2022e-11
-0.00142092 0.000425973 0.000426406 -1.00496e-05
-0.00118786 0.000355767 0.000356612 -1.8556e-05
-0.00142939 0.00042851 0.000428948 -1.00496e-05
-0.00142515 0.000427242 0.000427677 -1.00496e-05
-0.00165747 0.000497274 0.000497227 2.19505e-11
-0.0016476 0.000494311 0.000494265 2.18113e-11
-0.00117727 0.0003526 0.00035343 -1.85561e-05
-0.00118433 0.000354712 0.000355551 -1.85561e-05
-0.00165253 0.000495793 0.000495746 2.18666e-11
-0.00141245 0.000423437 0.000423864 -1.00496e-05
-0.0011808 0.000353656 0.00035449 -1.85561e-05
-0.00142092 0.000425973 0.000426406 -1.00496e-05
-0.00141669 0.000424705 0.000425135 -1.00496e-05
-0.0016476 0.000494311 0.000494265 2.1808e-11
-0.00163772 0.000491349 0.000491302 2.16932e-11
-0.00117021 0.000350489 0.000351308 -1.85562e-05
-0.00117727 0.0003526 0.00035343 -1.85561e-05
-0.00164266 0.00049283 0.000492783 2.17298e-11
-0.00140398 0.0004209 0.000421322 -1.00497e-05
-0.00117374 0.000351545 0.000352369 -1.85561e-05
-0.00141245 0.000423437 0.000423864 -1.00496e-05
-0.00140822 0.000422168 0.000422593 -1.00497e-05
-0.00163772 0.000491349 0.000491302 2.16932e-11
-0.00162785 0.000488386 0.00048834 2.15921e-11
-0.00116315 0.000348378 0.000349187 -1.85562e-05
-0.00117021 0.000350489 0.000351308 -1.85562e-05
-0.00163278 0.000489867 0.000489821 2.16311e-11
-0.00139552 0.000418363 0.000418779 -1.00497e-05
-0.00116668 0.000349434 0.000350248 -1.85562e-05
-0.00140398 0.0004209 0.000421322 -1.00497e-05
-0.00139975 0.000419632 0.000420051 -1.00497e-05
-0.00162785 0.000488386 0.00048834 2.15921e-11
-0.00161797 0.000485423 0.000485377 2.14915e-11
-0.00115609 0.000346267 0.000347066 -1.85563e-05
-0.00116315 0.000348378 0.000349187 -1.85562e-05
-0.00162291 0.000486905 0.000486858 2.1537e-11
-0.00138705 0.000415827 0.000416237 -1.00498e-05
-0.00115962 0.000347323 0.000348126 -1.85562e-05
-0.00139552 0.000418363 0.000418779 -1.00497e-05
-0.00139128 0.000417095 0.000417508 -1.00497e-05
-0.00161797 0.000485423 0.000485377 2.14915e-11
-0.00160809 0.000482461 0.000482415 2.13968e-11
-0.00114903 0.000344156 0.000344945 -1.85563e-05
-0.00115609 0.000346267 0.000347066 -1.85563e-05
-0.00161303 0.000483942 0.000483896 2.14403e-11
-0.00137858 0.00041329 0.000413695 -1.00498e-05
-0.00115256 0.000345211 0.000346005 -1.85563e-05
-0.00138705 0.000415827 0.000416237 -1.00498e-05
-0.00138281 0.000414558 0.000414966 -1.00498e-05
-0.00160809 0.000482461 0.000482415 2.13968e-11
-0.00159822 0.000479498 0.000479452 2.12752e-11
-0.00114197 0.000342045 0.000342823 -1.85563e-05
-0.00114903 0.000344156 0.000344945 -1.85563e-05
-0.00160316 0.000480979 0.000480933 2.13312e-11
-0.00137011 0.000410753 0.000411153 -1.00498e-05
-0.0011455 0.0003431 0.000343884 -1.85563e-05
-0.00137858 0.00041329 0.000413695 -1.00498e-05
-0.00137435 0.000412022 0.000412424 -1.00498e-05
-0.00159822 0.000479498 0.000479452 2.12752e-11
-0.00158834 0.000476536 0.00047649 2.11621e-11
-0.00113491 0.000339934 0.000340702 -1.85564e-05
-0.00114197 0.000342045 0.000342823 -1.85563e-05
-0.00159328 0.000478017 0.000477971 2.12151e-11
-0.00136164 0.000408217 0.000408611 -1.00498e-05
-0.00113844 0.000340989 0.000341763 -1.85564e-05
-0.00137011 0.000410753 0.000411153 -1.00498e-05
-0.00136588 0.000409485 0.000409882 -1.00498e-05
-0.00158834 0.000476536 0.00047649 2.11622e-11
-0.00157847 0.000473573 0.000473527 2.10498e-11
-0.00112785 0.000337822 0.000338581 -1.85564e-05
-0.00113491 0.000339934 0.000340702 -1.85564e-05
-0.00158341 0.000475054 0.000475009 2.11013e-11
-0.00135318 0.00040568 0.00040607 -1.00499e-05
-0.00113138 0.000338878 0.000339642 -1.85564e-05
-0.00136164 0.000408217 0.000408611 -1.00498e-05
-0.00135741 0.000406948 0.00040734 -1.00499e-05
-0.00157847 0.000473573 0.000473527 2.10498e-11
-0.0015686 0.00047061 0.000470565 2.09147e-11
-0.00112078 0.000335711 0.00033646 -1.85564e-05
-0.00112785 0.000337822 0.000338581 -1.85564e-05
-0.00157353 0.000472092 0.000472046 2.09848e-11
-0.00134471 0.000403143 0.000403528 -1.00499e-05
-0.00112432 0.000336767 0.000337521 -1.85564e-05
-0.00135318 0.00040568 0.00040607 -1.00499e-05
-0.00134894 0.000404412 0.000404799 -1.00499e-05
-0.0015686 0.00047061 0.000470565 2.09147e-11
-0.00155872 0.000467648 0.000467603 2.07815e-11
-0.00111372 0.0003336 0.000334339 -1.85565e-05
-0.00112078 0.000335711 0.00033646 -1.85564e-05
-0.00156366 0.000469129 0.000469084 2.08377e-11
-0.00133624 0.000400607 0.000400986 -1.00499e-05
-0.00111725 0.000334655 0.0003354 -1.85565e-05
-0.00134471 0.000403143 0.000403528 -1.00499e-05
-0.00134047 0.000401875 0.000402257 -1.00499e-05
-0.00155872 0.000467648 0.000467603 2.07815e-11
-0.00154885 0.000464685 0.00046464 2.06668e-11
-0.00110666 0.000331489 0.000332218 -1.85565e-05
-0.00111372 0.0003336 0.000334339 -1.85565e-05
-0.00155378 0.000466167 0.000466121 2.07176e-11
-0.00132777 0.00039807 0.000398444 -1.00499e-05
-0.00111019 0.000332544 0.000333279 -1.85565e-05
-0.00133624 0.000400607 0.000400986 -1.00499e-05
-0.00133201 0.000399338 0.000399715 -1.00499e-05
-0.00154885 0.000464685 0.00046464 2.06668e-11
-0.00153897 0.000461723 0.000461678 2.05225e-11
-0.0010996 0.000329377 0.000330097 -1.85565e-05
-0.00110666 0.000331489 0.000332218 -1.85565e-05
-0.00154391 0.000463204 0.000463159 2.05961e-11
-0.0013193 0.000395533 0.000395902 -1.005e-05
-0.00110313 0.000330433 0.000331158 -1.85565e-05
-0.00132777 0.00039807 0.000398444 -1.00499e-05
-0.00132354 0.000396802 0.000397173 -1.005e-05
-0.00153897 0.000461723 0.000461678 2.05101e-11
-0.0015291 0.00045876 0.000458716 2.03888e-11
-0.00109254 0.000327266 0.000327977 -1.85566e-05
-0.0010996 0.000329377 0.000330097 -1.85565e-05
-0.00153403 0.000460242 0.000460197 2.04417e-11
-0.00131084 0.000392997 0.00039336 -1.005e-05
-0.00109607 0.000328322 0.000329037 -1.85565e-05
-0.0013193 0.000395533 0.000395902 -1.005e-05
-0.00131507 0.000394265 0.000394631 -1.005e-05
-0.0015291 0.00045876 0.000458716 2.03888e-11
-0.00151922 0.000455798 0.000455753 2.02502e-11
-0.00108548 0.000325155 0.000325856 -1.85566e-05
-0.00109254 0.000327266 0.000327977 -1.85566e-05
-0.00152416 0.000457279 0.000457234 2.03195e-11
-0.00130237 0.00039046 0.000390819 -1.005e-05
-0.00108901 0.00032621 0.000326916 -1.85566e-05
-0.00131084 0.000392997 0.00039336 -1.005e-05
-0.0013066 0.000391728 0.000392089 -1.005e-05
-0.00151922 0.000455798 0.000455753 2.02502e-11
-0.00150935 0.000452835 0.000452791 2.01111e-11
-0.00107843 0.000323043 0.000323735 -1.85566e-05
-0.00108548 0.000325155 0.000325856 -1.85566e-05
-0.00151428 0.000454317 0.000454272 2.01772e-11
-0.0012939 0.000387923 0.000388277 -1.005e-05
-0.00108195 0.000324099 0.000324795 -1.85566e-05
-0.00130237 0.00039046 0.000390819 -1.005e-05
-0.00129814 0.000389192 0.000389548 -1.005e-05
-0.00150935 0.000452835 0.000452791 2.01111e-11
-0.00149947 0.000449873 0.000449829 1.99706e-11
-0.00107137 0.000320932 0.000321614 -1.85566e-05
-0.00107843 0.000323043 0.000323735 -1.85566e-05
-0.00150441 0.000451354 0.00045131 2.00519e-11
-0.00128544 0.000385387 0.000385735 -1.00501e-05
-0.0010749 0.000321988 0.000322675 -1.85566e-05
-0.0012939 0.000387923 0.000388277 -1.005e-05
-0.00128967 0.000386655 0.000387006 -1.00501e-05
-0.00149947 0.000449873 0.000449829 1.99714e-11
-0.0014896 0.000446911 0.000446866 1.98504e-11
-0.00106431 0.000318821 0.000319494 -1.85567e-05
-0.00107137 0.000320932 0.000321614 -1.85566e-05
-0.00149454 0.000448392 0.000448348 1.99017e-11
-0.00127697 0.00038285 0.000383194 -1.00501e-05
-0.00106784 0.000319876 0.000320554 -1.85566e-05
-0.00128544 0.000385387 0.000385735 -1.00501e-05
-0.0012812 0.000384118 0.000384464 -1.00501e-05
-0.0014896 0.000446911 0.000446866 1.98504e-11
-0.00147972 0.000443948 0.000443904 1.96993e-11
-0.00105725 0.000316709 0.000317373 -1.85567e-05
-0.00106431 0.000318821 0.000319494 -1.85567e-05
-0.00148466 0.000445429 0.000445385 1.9793e-11
-0.0012685 0.000380313 0.000380652 -1.00501e-05
-0.00106078 0.000317765 0.000318433 -1.85567e-05
-0.00127697 0.00038285 0.000383194 -1.00501e-05
-0.00127273 0.000381582 0.000381923 -1.00501e-05
-0.00147972 0.000443948 0.000443904 1.9706e-11
-0.00146985 0.000440986 0.000440942 1.95715e-11
-0.00105019 0.000314598 0.000315252 -1.85567e-05
-0.00105725 0.000316709 0.000317373 -1.85567e-05
-0.00147479 0.000442467 0.000442423 1.96144e-11
-0.00126003 0.000377777 0.00037811 -1.00501e-05
-0.00105372 0.000315654 0.000316313 -1.85567e-05
-0.0012685 0.000380313 0.000380652 -1.00501e-05
-0.00126427 0.000379045 0.000379381 -1.00501e-05
-0.00146985 0.000440986 0.000440942 1.95715e-11
-0.00145998 0.000438024 0.00043798 1.94632e-11
-0.00104313 0.000312486 0.000313132 -1.85567e-05
-0.00105019 0.000314598 0.000315252 -1.85567e-05
-0.00146491 0.000439505 0.000439461 1.95283e-11
-0.00125157 0.00037524 0.000375569 -1.00502e-05
-0.00104666 0.000313542 0.000314192 -1.85567e-05
-0.00126003 0.000377777 0.00037811 -1.00501e-05
-0.0012558 0.000376508 0.00037684 -1.00501e-05
-0.00145998 0.000438024 0.00043798 1.94632e-11
-0.0014501 0.000435061 0.000435018 1.92765e-11
-0.00103607 0.000310375 0.000311011 -1.85567e-05
-0.00104313 0.000312486 0.000313132 -1.85567e-05
-0.00145504 0.000436542 0.000436499 1.93752e-11
-0.0012431 0.000372703 0.000373027 -1.00502e-05
-0.0010396 0.000311431 0.000312072 -1.85567e-05
-0.00125157 0.00037524 0.000375569 -1.00502e-05
-0.00124733 0.000373972 0.000374298 -1.00502e-05
-0.0014501 0.000435061 0.000435018 1.92765e-11
-0.00144023 0.000432099 0.000432055 1.91546e-11
-0.00102901 0.000308264 0.000308891 -1.85568e-05
-0.00103607 0.000310375 0.000311011 -1.85567e-05
-0.00144517 0.00043358 0.000433536 1.92056e-11
-0.00123463 0.000370167 0.000370486 -1.00502e-05
-0.00103254 0.000309319 0.000309951 -1.85568e-05
-0.0012431 0.000372703 0.000373027 -1.00502e-05
-0.00123887 0.000371435 0.000371757 -1.00502e-05
-0.00144023 0.000432099 0.000432055 1.91546e-11
-0.00143035 0.000429137 0.000429093 1.90337e-11
-0.00102195 0.000306152 0.000306771 -1.85568e-05
-0.00102901 0.000308264 0.000308891 -1.85568e-05
-0.00143529 0.000430618 0.000430574 1.91125e-11
-0.00122617 0.00036763 0.000367944 -1.00502e-05
-0.00102548 0.000307208 0.000307831 -1.85568e-05
-0.00123463 0.000370167 0.000370486 -1.00502e-05
-0.0012304 0.000368898 0.000369215 -1.00502e-05
-0.00143035 0.000429137 0.000429093 1.90354e-11
-0.00142048 0.000426174 0.000426131 1.88935e-11
-0.00101489 0.000304041 0.00030465 -1.85568e-05
-0.00102195 0.000306152 0.000306771 -1.85568e-05
-0.00142542 0.000427656 0.000427612 1.89532e-11
-0.0012177 0.000365093 0.000365403 -1.00502e-05
-0.00101842 0.000305096 0.00030571 -1.85568e-05
-0.00122617 0.00036763 0.000367944 -1.00502e-05
-0.00122193 0.000366362 0.000366674 -1.00502e-05
-0.00142048 0.000426174 0.000426131 1.88951e-11
-0.00141061 0.000423212 0.000423169 1.876e-11
-0.00100783 0.000301929 0.00030253 -1.85568e-05
-0.00101489 0.000304041 0.00030465 -1.85568e-05
-0.00141554 0.000424693 0.00042465 1.88282e-11
-0.00120923 0.000362557 0.000362862 -1.00503e-05
-0.00101136 0.000302985 0.00030359 -1.85568e-05
-0.0012177 0.000365093 0.000365403 -1.00502e-05
-0.00121347 0.000363825 0.000364132 -1.00502e-05
-0.00141061 0.000423212 0.000423169 1.876e-11
-0.00140073 0.00042025 0.000420207 1.8624e-11
-0.00100077 0.000299818 0.00030041 -1.85568e-05
-0.00100783 0.000301929 0.00030253 -1.85568e-05
-0.00140567 0.000421731 0.000421688 1.86814e-11
-0.00120077 0.00036002 0.00036032 -1.00503e-05
-0.0010043 0.000300874 0.00030147 -1.85568e-05
-0.00120923 0.000362557 0.000362862 -1.00503e-05
-0.001205 0.000361288 0.000361591 -1.00503e-05
-0.00140073 0.00042025 0.000420207 1.8624e-11
-0.00139086 0.000417288 0.000417245 1.84965e-11
-0.000993715 0.000297706 0.00029829 -1.85569e-05
-0.00100077 0.000299818 0.00030041 -1.85568e-05
-0.0013958 0.000418769 0.000418726 1.8559e-11
-0.0011923 0.000357483 0.000357779 -1.00503e-05
-0.000997245 0.000298762 0.00029935 -1.85568e-05
-0.00120077 0.00036002 0.00036032 -1.00503e-05
-0.00119653 0.000358752 0.00035905 -1.00503e-05
-0.00139086 0.000417288 0.000417245 1.84833e-11
-0.00138099 0.000414326 0.000414283 1.83566e-11
-0.000986657 0.000295595 0.000296169 -1.85569e-05
-0.000993715 0.000297706 0.00029829 -1.85569e-05
-0.00138592 0.000415807 0.000415764 1.84234e-11
-0.00118383 0.000354947 0.000355238 -1.00503e-05
-0.000990186 0.00029665 0.000297229 -1.85569e-05
-0.0011923 0.000357483 0.000357779 -1.00503e-05
-0.00118807 0.000356215 0.000356508 -1.00503e-05
-0.00138099 0.000414326 0.000414283 1.83566e-11
-0.00137111 0.000411364 0.000411321 1.82236e-11
-0.000979598 0.000293483 0.000294049 -1.85569e-05
-0.000986657 0.000295595 0.000296169 -1.85569e-05
-0.00137605 0.000412845 0.000412802 1.82883e-11
-0.00117537 0.00035241 0.000352697 -1.00503e-05
-0.000983127 0.000294539 0.000295109 -1.85569e-05
-0.00118383 0.000354947 0.000355238 -1.00503e-05
-0.0011796 0.000353678 0.000353967 -1.00503e-05
-0.00137111 0.000411364 0.000411321 1.82236e-11
-0.00136124 0.000408401 0.000408359 1.8107e-11
-0.00097254 0.000291372 0.000291929 -1.85569e-05
-0.000979598 0.000293483 0.000294049 -1.85569e-05
-0.00136618 0.000409882 0.00040984 1.81593e-11
-0.0011669 0.000349873 0.000350155 -1.00503e-05
-0.000976069 0.000292427 0.000292989 -1.85569e-05
-0.00117537 0.00035241 0.000352697 -1.00503e-05
-0.00117114 0.000351142 0.000351426 -1.00503e-05
-0.00136124 0.000408401 0.000408359 1.8107e-11
-0.00135137 0.000405439 0.000405397 1.79522e-11
-0.000965482 0.00028926 0.000289809 -1.85569e-05
-0.00097254 0.000291372 0.000291929 -1.85569e-05
-0.0013563 0.00040692 0.000406878 1.80233e-11
-0.00115844 0.000347337 0.000347614 -1.00504e-05
-0.000969011 0.000290316 0.000290869 -1.85569e-05
-0.0011669 0.000349873 0.000350155 -1.00503e-05
-0.00116267 0.000348605 0.000348885 -1.00504e-05
-0.00135137 0.000405439 0.000405397 1.79589e-11
-0.00134149 0.000402477 0.000402435 1.78135e-11
-0.000958423 0.000287148 0.000287689 -1.85569e-05
-0.000965482 0.00028926 0.000289809 -1.85569e-05
-0.00134643 0.000403958 0.000403916 1.78798e-11
-0.00114997 0.0003448 0.000345073 -1.00504e-05
-0.000961952 0.000288204 0.000288749 -1.85569e-05
-0.00115844 0.000347337 0.000347614 -1.00504e-05
-0.0011542 0.000346068 0.000346344 -1.00504e-05
-0.00134149 0.000402477 0.000402435 1.78202e-11
-0.00133162 0.000399515 0.000399473 1.76968e-11
-0.000951365 0.000285037 0.000285569 -1.8557e-05
-0.000958423 0.000287148 0.000287689 -1.85569e-05
-0.00133656 0.000400996 0.000400954 1.77532e-11
-0.0011415 0.000342263 0.000342532 -1.00504e-05
-0.000954894 0.000286093 0.000286629 -1.85569e-05
-0.00114997 0.0003448 0.000345073 -1.00504e-05
-0.00114574 0.000343532 0.000343803 -1.00504e-05
-0.00133162 0.000399515 0.000399473 1.76968e-11
-0.00132175 0.000396553 0.000396511 1.75474e-11
-0.000944307 0.000282925 0.000283449 -1.8557e-05
-0.000951365 0.000285037 0.000285569 -1.8557e-05
-0.00132668 0.000398034 0.000397992 1.76187e-11
-0.00113304 0.000339727 0.000339991 -1.00504e-05
-0.000947836 0.000283981 0.000284509 -1.8557e-05
-0.0011415 0.000342263 0.000342532 -1.00504e-05
-0.00113727 0.000340995 0.000341261 -1.00504e-05
-0.00132175 0.000396553 0.000396511 1.75474e-11
-0.00131187 0.000393591 0.000393549 1.74298e-11
-0.000937249 0.000280814 0.00028133 -1.8557e-05
-0.000944307 0.000282925 0.000283449 -1.8557e-05
-0.00131681 0.000395072 0.00039503 1.74732e-11
-0.00112457 0.00033719 0.00033745 -1.00504e-05
-0.000940778 0.000281869 0.000282389 -1.8557e-05
-0.00113304 0.000339727 0.000339991 -1.00504e-05
-0.00112881 0.000338458 0.00033872 -1.00504e-05
-0.00131187 0.000393591 0.000393549 1.741e-11
-0.001302 0.000390629 0.000390587 1.72762e-11
-0.000930191 0.000278702 0.00027921 -1.8557e-05
-0.000937249 0.000280814 0.00028133 -1.8557e-05
-0.00130694 0.00039211 0.000392068 1.73484e-11
-0.00111611 0.000334654 0.000334909 -1.00505e-05
-0.00093372 0.000279758 0.00028027 -1.8557e-05
-0.00112457 0.00033719 0.00033745 -1.00504e-05
-0.00112034 0.000335922 0.000336179 -1.00504e-05
-0.001302 0.000390629 0.000390587 1.72778e-11
-0.00129213 0.000387667 0.000387626 1.71429e-11
-0.000923134 0.00027659 0.00027709 -1.8557e-05
-0.000930191 0.000278702 0.00027921 -1.8557e-05
-0.00129706 0.000389148 0.000389106 1.72158e-11
-0.00110764 0.000332117 0.000332368 -1.00505e-05
-0.000926663 0.000277646 0.00027815 -1.8557e-05
-0.00111611 0.000334654 0.000334909 -1.00505e-05
-0.00111188 0.000333385 0.000333638 -1.00505e-05
-0.00129213 0.000387667 0.000387626 1.71429e-11
-0.00128225 0.000384705 0.000384664 1.70147e-11
-0.000916076 0.000274479 0.00027497 -1.8557e-05
-0.000923134 0.00027659 0.00027709 -1.8557e-05
-0.00128719 0.000386186 0.000386145 1.70693e-11
-0.00109918 0.00032958 0.000329827 -1.00505e-05
-0.000919605 0.000275535 0.00027603 -1.8557e-05
-0.00110764 0.000332117 0.000332368 -1.00505e-05
-0.00110341 0.000330849 0.000331098 -1.00505e-05
-0.00128225 0.000384705 0.000384664 1.70147e-11
-0.00127238 0.000381743 0.000381702 1.68656e-11
-0.000909019 0.000272367 0.000272851 -1.8557e-05
-0.000916076 0.000274479 0.00027497 -1.8557e-05
-0.00127732 0.000383224 0.000383183 1.69385e-11
-0.00109071 0.000327044 0.000327286 -1.00505e-05
-0.000912547 0.000273423 0.00027391 -1.8557e-05
-0.00109918 0.00032958 0.000329827 -1.00505e-05
-0.00109494 0.000328312 0.000328557 -1.00505e-05
-0.00127238 0.000381743 0.000381702 1.68804e-11
-0.00126251 0.000378781 0.00037874 1.67378e-11
-0.000901961 0.000270255 0.000270731 -1.8557e-05
-0.000909019 0.000272367 0.000272851 -1.8557e-05
-0.00126744 0.000380262 0.000380221 1.68135e-11
-0.00108225 0.000324507 0.000324745 -1.00505e-05
-0.00090549 0.000271311 0.000271791 -1.8557e-05
-0.00109071 0.000327044 0.000327286 -1.00505e-05
-0.00108648 0.000325775 0.000326016 -1.00505e-05
-0.00126251 0.000378781 0.00037874 1.67527e-11
-0.00125264 0.00037582 0.000375778 1.66065e-11
-0.000894904 0.000268144 0.000268612 -1.85571e-05
-0.000901961 0.000270255 0.000270731 -1.8557e-05
-0.00125757 0.0003773 0.000377259 1.66852e-11
-0.00107378 0.00032197 0.000322205 -1.00505e-05
-0.000898432 0.000269199 0.000269671 -1.85571e-05
-0.00108225 0.000324507 0.000324745 -1.00505e-05
-0.00107801 0.000323239 0.000323475 -1.00505e-05
-0.00125264 0.00037582 0.000375778 1.66065e-11
-0.00124276 0.000372858 0.000372817 1.64802e-11
-0.000887847 0.000266032 0.000266492 -1.85571e-05
-0.000894904 0.000268144 0.000268612 -1.85571e-05
-0.0012477 0.000374339 0.000374298 1.65416e-11
-0.00106532 0.000319434 0.000319664 -1.00506e-05
-0.000891375 0.000267088 0.000267552 -1.85571e-05
-0.00107378 0.00032197 0.000322205 -1.00505e-05
-0.00106955 0.000320702 0.000320934 -1.00505e-05
-0.00124276 0.000372858 0.000372817 1.64802e-11
-0.00123289 0.000369896 0.000369855 1.63379e-11
-0.000880789 0.00026392 0.000264373 -1.85571e-05
-0.000887847 0.000266032 0.000266492 -1.85571e-05
-0.00123783 0.000371377 0.000371336 1.64003e-11
-0.00105685 0.000316897 0.000317123 -1.00506e-05
-0.000884318 0.000264976 0.000265432 -1.85571e-05
-0.00106532 0.000319434 0.000319664 -1.00506e-05
-0.00106108 0.000318165 0.000318393 -1.00506e-05
-0.00123289 0.000369896 0.000369855 1.63312e-11
-0.00122302 0.000366934 0.000366893 1.62038e-11
-0.000873732 0.000261808 0.000262253 -1.85571e-05
-0.000880789 0.00026392 0.000264373 -1.85571e-05
-0.00122795 0.000368415 0.000368374 1.6276e-11
-0.00104839 0.000314361 0.000314582 -1.00506e-05
-0.000877261 0.000262864 0.000263313 -1.85571e-05
-0.00105685 0.000316897 0.000317123 -1.00506e-05
-0.00105262 0.000315629 0.000315853 -1.00506e-05
-0.00122302 0.000366934 0.000366893 1.62039e-11
-0.00121315 0.000363972 0.000363932 1.60681e-11
-0.000866675 0.000259697 0.000260134 -1.85571e-05
-0.000873732 0.000261808 0.000262253 -1.85571e-05
-0.00121808 0.000365453 0.000365412 1.61375e-11
-0.00103992 0.000311824 0.000312042 -1.00506e-05
-0.000870204 0.000260752 0.000261193 -1.85571e-05
-0.00104839 0.000314361 0.000314582 -1.00506e-05
-0.00104415 0.000313092 0.000313312 -1.00506e-05
-0.00121315 0.000363972 0.000363932 1.60681e-11
-0.00120327 0.00036101 0.00036097 1.59334e-11
-0.000859618 0.000257585 0.000258014 -1.85571e-05
-0.000866675 0.000259697 0.000260134 -1.85571e-05
-0.00120821 0.000362491 0.000362451 1.59994e-11
-0.00103146 0.000309287 0.000309501 -1.00506e-05
-0.000863147 0.000258641 0.000259074 -1.85571e-05
-0.00103992 0.000311824 0.000312042 -1.00506e-05
-0.00103569 0.000310556 0.000310771 -1.00506e-05
-0.00120327 0.00036101 0.00036097 1.59334e-11
-0.0011934 0.000358049 0.000358008 1.57953e-11
-0.000852562 0.000255473 0.000255895 -1.85571e-05
-0.000859618 0.000257585 0.000258014 -1.85571e-05
-0.00119834 0.00035953 0.000359489 1.58671e-11
-0.00102299 0.000306751 0.00030696 -1.00506e-05
-0.00085609 0.000256529 0.000256955 -1.85571e-05
-0.00103146 0.000309287 0.000309501 -1.00506e-05
-0.00102722 0.000308019 0.000308231 -1.00506e-05
-0.0011934 0.000358049 0.000358008 1.58035e-11
-0.00118353 0.000355087 0.000355047 1.5669e-11
-0.000845505 0.000253361 0.000253776 -1.85571e-05
-0.000852562 0.000255473 0.000255895 -1.85571e-05
-0.00118847 0.000356568 0.000356528 1.57344e-11
-0.00101453 0.000304214 0.00030442 -1.00506e-05
-0.000849033 0.000254417 0.000254836 -1.85571e-05
-0.00102299 0.000306751 0.00030696 -1.00506e-05
-0.00101876 0.000305482 0.00030569 -1.00506e-05
-0.00118353 0.000355087 0.000355047 1.56607e-11
-0.00117366 0.000352125 0.000352085 1.55443e-11
-0.000838448 0.000251249 0.000251657 -1.85571e-05
-0.000845505 0.000253361 0.000253776 -1.85571e-05
-0.00117859 0.000353606 0.000353566 1.56245e-11
-0.00100606 0.000301678 0.000301879 -1.00507e-05
-0.000841977 0.000252305 0.000252716 -1.85571e-05
-0.00101453 0.000304214 0.00030442 -1.00506e-05
-0.0010103 0.000302946 0.00030315 -1.00507e-05
-0.00117366 0.000352125 0.000352085 1.55443e-11
-0.00116379 0.000349164 0.000349124 1.54106e-11
-0.000831392 0.000249138 0.000249538 -1.85572e-05
-0.000838448 0.000251249 0.000251657 -1.85571e-05
-0.00116872 0.000350644 0.000350604 1.54862e-11
-0.000997598 0.000299141 0.000299339 -1.00507e-05
-0.00083492 0.000250193 0.000250597 -1.85572e-05
-0.00100606 0.000301678 0.000301879 -1.00507e-05
-0.00100183 0.000300409 0.000300609 -1.00507e-05
-0.00116379 0.000349164 0.000349124 1.54106e-11
-0.00115391 0.000346202 0.000346162 1.52629e-11
-0.000824336 0.000247026 0.000247419 -1.85572e-05
-0.000831392 0.000249138 0.000249538 -1.85572e-05
-0.00115885 0.000347683 0.000347643 1.53311e-11
-0.000989134 0.000296604 0.000296798 -1.00507e-05
-0.000827864 0.000248082 0.000248478 -1.85572e-05
-0.000997598 0.000299141 0.000299339 -1.00507e-05
-0.000993366 0.000297873 0.000298069 -1.00507e-05
-0.00115391 0.000346202 0.000346162 1.52711e-11
-0.00114404 0.00034324 0.000343201 1.51202e-11
-0.000817279 0.000244914 0.000245299 -1.85572e-05
-0.000824336 0.000247026 0.000247419 -1.85572e-05
-0.00114898 0.000344721 0.000344681 1.52087e-11
-0.00098067 0.000294068 0.000294258 -1.00507e-05
-0.000820807 0.00024597 0.000246359 -1.85572e-05
-0.000989134 0.000296604 0.000296798 -1.00507e-05
-0.000984902 0.000295336 0.000295528 -1.00507e-05
-0.00114404 0.00034324 0.000343201 1.51351e-11
-0.00113417 0.000340279 0.000340239 1.49957e-11
-0.000810223 0.000242802 0.00024318 -1.85572e-05
-0.000817279 0.000244914 0.000245299 -1.85572e-05
-0.00113911 0.00034176 0.00034172 1.5067e-11
-0.000972206 0.000291531 0.000291718 -1.00507e-05
-0.000813751 0.000243858 0.00024424 -1.85572e-05
-0.00098067 0.000294068 0.000294258 -1.00507e-05
-0.000976438 0.000292799 0.000292988 -1.00507e-05
-0.00113417 0.000340279 0.000340239 1.49957e-11
-0.0011243 0.000337317 0.000337278 1.4875e-11
-0.000803167 0.00024069 0.000241062 -1.85572e-05
-0.000810223 0.000242802 0.00024318 -1.85572e-05
-0.00112923 0.000338798 0.000338758 1.49265e-11
-0.000963742 0.000288995 0.000289177 -1.00507e-05
-0.000806695 0.000241746 0.000242121 -1.85572e-05
-0.000972206 0.000291531 0.000291718 -1.00507e-05
-0.000967974 0.000290263 0.000290447 -1.00507e-05
-0.0011243 0.000337317 0.000337278 1.4875e-11
-0.00111443 0.000334356 0.000334316 1.47472e-11
-0.000796111 0.000238578 0.000238943 -1.85572e-05
-0.000803167 0.00024069 0.000241062 -1.85572e-05
-0.00111936 0.000335836 0.000335797 1.47898e-11
-0.000955278 0.000286458 0.000286637 -1.00507e-05
-0.000799639 0.000239634 0.000240002 -1.85572e-05
-0.000963742 0.000288995 0.000289177 -1.00507e-05
-0.00095951 0.000287726 0.000287907 -1.00507e-05
-0.00111443 0.000334356 0.000334316 1.47339e-11
-0.00110456 0.000331394 0.000331355 1.45929e-11
-0.000789055 0.000236466 0.000236824 -1.85572e-05
-0.000796111 0.000238578 0.000238943 -1.85572e-05
-0.00110949 0.000332875 0.000332835 1.4663e-11
-0.000946814 0.000283921 0.000284097 -1.00508e-05
-0.000792583 0.000237522 0.000237883 -1.85572e-05
-0.000955278 0.000286458 0.000286637 -1.00507e-05
-0.000951046 0.00028519 0.000285367 -1.00508e-05
-0.00110456 0.000331394 0.000331355 1.45796e-11
-0.00109468 0.000328432 0.000328393 1.44493e-11
-0.000781999 0.000234354 0.000234705 -1.85572e-05
-0.000789055 0.000236466 0.000236824 -1.85572e-05
-0.00109962 0.000329913 0.000329874 1.45268e-11
-0.00093835 0.000281385 0.000281556 -1.00508e-05
-0.000785527 0.00023541 0.000235764 -1.85572e-05
-0.000946814 0.000283921 0.000284097 -1.00508e-05
-0.000942582 0.000282653 0.000282827 -1.00508e-05
-0.00109468 0.000328432 0.000328393 1.44493e-11
-0.00108481 0.000325471 0.000325432 1.43221e-11
-0.000774943 0.000232242 0.000232586 -1.85572e-05
-0.000781999 0.000234354 0.000234705 -1.85572e-05
-0.00108975 0.000326952 0.000326913 1.43971e-11
-0.000929886 0.000278848 0.000279016 -1.00508e-05
-0.000778471 0.000233298 0.000233646 -1.85572e-05
-0.00093835 0.000281385 0.000281556 -1.00508e-05
-0.000934118 0.000280117 0.000280286 -1.00508e-05
-0.00108481 0.000325471 0.000325432 1.43221e-11
-0.00107494 0.000322509 0.000322471 1.419e-11
-0.000767888 0.00023013 0.000230468 -1.85573e-05
-0.000774943 0.000232242 0.000232586 -1.85572e-05
-0.00107988 0.00032399 0.000323951 1.4259e-11
-0.000921423 0.000276312 0.000276476 -1.00508e-05
-0.000771416 0.000231186 0.000231527 -1.85572e-05
-0.000929886 0.000278848 0.000279016 -1.00508e-05
-0.000925654 0.00027758 0.000277746 -1.00508e-05
-0.00107494 0.000322509 0.000322471 1.41852e-11
-0.00106507 0.000319548 0.000319509 1.40675e-11
-0.000760832 0.000228018 0.000228349 -1.85573e-05
-0.000767888 0.00023013 0.000230468 -1.85573e-05
-0.00107001 0.000321029 0.00032099 1.41068e-11
-0.000912959 0.000273775 0.000273936 -1.00508e-05
-0.00076436 0.000229074 0.000229408 -1.85573e-05
-0.000921423 0.000276312 0.000276476 -1.00508e-05
-0.000917191 0.000275043 0.000275206 -1.00508e-05
-0.00106507 0.000319548 0.000319509 1.40675e-11
-0.0010552 0.000316587 0.000316548 1.39305e-11
-0.000753777 0.000225906 0.00022623 -1.85573e-05
-0.000760832 0.000228018 0.000228349 -1.85573e-05
-0.00106013 0.000318067 0.000318029 1.40142e-11
-0.000904496 0.000271239 0.000271396 -1.00508e-05
-0.000757305 0.000226962 0.00022729 -1.85573e-05
-0.000912959 0.000273775 0.000273936 -1.00508e-05
-0.000908727 0.000272507 0.000272666 -1.00508e-05
-0.0010552 0.000316587 0.000316548 1.39305e-11
-0.00104533 0.000313625 0.000313587 1.38024e-11
-0.000746721 0.000223794 0.000224112 -1.85573e-05
-0.000753777 0.000225906 0.00022623 -1.85573e-05
-0.00105026 0.000315106 0.000315067 1.38781e-11
-0.000896032 0.000268702 0.000268856 -1.00509e-05
-0.000750249 0.00022485 0.000225171 -1.85573e-05
-0.000904496 0.000271239 0.000271396 -1.00508e-05
-0.000900264 0.00026997 0.000270126 -1.00508e-05
-0.00104533 0.000313625 0.000313587 1.38024e-11
-0.00103546 0.000310664 0.000310625 1.36645e-11
-0.000739666 0.000221682 0.000221993 -1.85573e-05
-0.000746721 0.000223794 0.000224112 -1.85573e-05
-0.00104039 0.000312144 0.000312106 1.376e-11
-0.000887569 0.000266165 0.000266316 -1.00509e-05
-0.000743194 0.000222738 0.000223052 -1.85573e-05
-0.000896032 0.000268702 0.000268856 -1.00509e-05
-0.000891801 0.000267434 0.000267586 -1.00509e-05
-0.00103546 0.000310664 0.000310625 1.36645e-11
-0.00102559 0.000307702 0.000307664 1.35337e-11
-0.000732611 0.00021957 0.000219875 -1.85573e-05
-0.000739666 0.000221682 0.000221993 -1.85573e-05
-0.00103052 0.000309183 0.000309145 1.35994e-11
-0.000879106 0.000263629 0.000263776 -1.00509e-05
-0.000736139 0.000220626 0.000220934 -1.85573e-05
-0.000887569 0.000266165 0.000266316 -1.00509e-05
-0.000883337 0.000264897 0.000265046 -1.00509e-05
-0.00102559 0.000307702 0.000307664 1.35271e-11
-0.00101571 0.000304741 0.000304703 1.33875e-11
-0.000725556 0.000217458 0.000217756 -1.85573e-05
-0.000732611 0.00021957 0.000219875 -1.85573e-05
-0.00102065 0.000306222 0.000306183 1.34804e-11
-0.000870643 0.000261092 0.000261236 -1.00509e-05
-0.000729084 0.000218514 0.000218815 -1.85573e-05
-0.000879106 0.000263629 0.000263776 -1.00509e-05
-0.000874874 0.000262361 0.000262506 -1.00509e-05
-0.00101571 0.000304741 0.000304703 1.33875e-11
-0.00100584 0.00030178 0.000301742 1.32691e-11
-0.000718501 0.000215346 0.000215638 -1.85573e-05
-0.000725556 0.000217458 0.000217756 -1.85573e-05
-0.00101078 0.00030326 0.000303222 1.33242e-11
-0.00086218 0.000258556 0.000258696 -1.00509e-05
-0.000722028 0.000216402 0.000216697 -1.85573e-05
-0.000870643 0.000261092 0.000261236 -1.00509e-05
-0.000866411 0.000259824 0.000259966 -1.00509e-05
-0.00100584 0.00030178 0.000301742 1.32691e-11
-0.000995973 0.000298818 0.00029878 1.31335e-11
-0.000711446 0.000213234 0.00021352 -1.85573e-05
-0.000718501 0.000215346 0.000215638 -1.85573e-05
-0.00100091 0.000300299 0.000300261 1.32142e-11
-0.000853717 0.000256019 0.000256156 -1.00509e-05
-0.000714974 0.00021429 0.000214579 -1.85573e-05
-0.00086218 0.000258556 0.000258696 -1.00509e-05
-0.000857948 0.000257287 0.000257426 -1.00509e-05
-0.000995973 0.000298818 0.00029878 1.31352e-11
-0.000986102 0.000295857 0.000295819 1.30116e-11
-0.000704391 0.000211122 0.000211401 -1.85574e-05
-0.000711446 0.000213234 0.00021352 -1.85573e-05
-0.000991038 0.000297338 0.0002973 1.30844e-11
-0.000845254 0.000253483 0.000253616 -1.0051e-05
-0.000707919 0.000212178 0.00021246 -1.85573e-05
-0.000853717 0.000256019 0.000256156 -1.00509e-05
-0.000849485 0.000254751 0.000254886 -1.00509e-05
-0.000986102 0.000295857 0.000295819 1.30002e-11
-0.000976232 0.000292896 0.000292858 1.28463e-11
-0.000697337 0.00020901 0.000209283 -1.85574e-05
-0.000704391 0.000211122 0.000211401 -1.85574e-05
-0.000981167 0.000294377 0.000294339 1.29301e-11
-0.000836791 0.000250946 0.000251076 -1.0051e-05
-0.000700864 0.000210066 0.000210342 -1.85574e-05
-0.000845254 0.000253483 0.000253616 -1.0051e-05
-0.000841022 0.000252214 0.000252346 -1.0051e-05
-0.000976232 0.000292896 0.000292858 1.28463e-11
-0.000966361 0.000289935 0.000289897 1.27379e-11
-0.000690282 0.000206898 0.000207165 -1.85574e-05
-0.000697337 0.00020901 0.000209283 -1.85574e-05
-0.000971296 0.000291415 0.000291378 1.27843e-11
-0.000828328 0.000248409 0.000248537 -1.0051e-05
-0.000693809 0.000207954 0.000208224 -1.85574e-05
-0.000836791 0.000250946 0.000251076 -1.0051e-05
-0.00083256 0.000249678 0.000249807 -1.0051e-05
-0.000966361 0.000289935 0.000289897 1.27379e-11
-0.000956491 0.000286973 0.000286936 1.259e-11
-0.000683228 0.000204785 0.000205047 -1.85574e-05
-0.000690282 0.000206898 0.000207165 -1.85574e-05
-0.000961426 0.000288454 0.000288417 1.26486e-11
-0.000819866 0.000245873 0.000245997 -1.0051e-05
-0.000686755 0.000205841 0.000206106 -1.85574e-05
-0.000828328 0.000248409 0.000248537 -1.0051e-05
-0.000824097 0.000247141 0.000247267 -1.0051e-05
-0.000956491 0.000286973 0.000286936 1.26132e-11
-0.00094662 0.000284012 0.000283975 1.24722e-11
-0.000676173 0.000202673 0.000202929 -1.85574e-05
-0.000683228 0.000204785 0.000205047 -1.85574e-05
-0.000951556 0.000285493 0.000285455 1.25437e-11
-0.000811403 0.000243336 0.000243457 -1.0051e-05
-0.0006797 0.000203729 0.000203988 -1.85574e-05
-0.000819866 0.000245873 0.000245997 -1.0051e-05
-0.000815635 0.000244605 0.000244727 -1.0051e-05
-0.00094662 0.000284012 0.000283975 1.24722e-11
-0.00093675 0.000281051 0.000281014 1.23171e-11
-0.000669119 0.000200561 0.000200811 -1.85574e-05
-0.000676173 0.000202673 0.000202929 -1.85574e-05
-0.000941685 0.000282532 0.000282494 1.23839e-11
-0.000802941 0.0002408 0.000240918 -1.0051e-05
-0.000672646 0.000201617 0.00020187 -1.85574e-05
-0.000811403 0.000243336 0.000243457 -1.0051e-05
-0.000807172 0.000242068 0.000242187 -1.0051e-05
-0.00093675 0.000281051 0.000281014 1.23171e-11
-0.00092688 0.00027809 0.000278053 1.21964e-11
-0.000662065 0.000198449 0.000198693 -1.85574e-05
-0.000669119 0.000200561 0.000200811 -1.85574e-05
-0.000931815 0.00027957 0.000279533 1.22589e-11
-0.000794478 0.000238263 0.000238378 -1.0051e-05
-0.000665592 0.000199505 0.000199752 -1.85574e-05
-0.000802941 0.0002408 0.000240918 -1.0051e-05
-0.00079871 0.000239532 0.000239648 -1.0051e-05
-0.00092688 0.00027809 0.000278053 1.21964e-11
-0.00091701 0.000275129 0.000275092 1.20644e-11
-0.000655011 0.000196337 0.000196575 -1.85574e-05
-0.000662065 0.000198449 0.000198693 -1.85574e-05
-0.000921945 0.000276609 0.000276572 1.21111e-11
-0.000786016 0.000235727 0.000235838 -1.00511e-05
-0.000658538 0.000197393 0.000197634 -1.85574e-05
-0.000794478 0.000238263 0.000238378 -1.0051e-05
-0.000790247 0.000236995 0.000237108 -1.00511e-05
-0.00091701 0.000275129 0.000275092 1.20644e-11
-0.00090714 0.000272168 0.000272131 1.19432e-11
-0.000647957 0.000194224 0.000194457 -1.85575e-05
-0.000655011 0.000196337 0.000196575 -1.85574e-05
-0.000912075 0.000273648 0.000273611 1.20267e-11
-0.000777554 0.00023319 0.000233299 -1.00511e-05
-0.000651484 0.00019528 0.000195516 -1.85574e-05
-0.000786016 0.000235727 0.000235838 -1.00511e-05
-0.000781785 0.000234458 0.000234569 -1.00511e-05
-0.00090714 0.000272168 0.000272131 1.19434e-11
-0.00089727 0.000269207 0.00026917 1.1798e-11
-0.000640903 0.000192112 0.000192339 -1.85575e-05
-0.000647957 0.000194224 0.000194457 -1.85575e-05
-0.000902205 0.000270687 0.00027065 1.18842e-11
-0.000769092 0.000230654 0.000230759 -1.00511e-05
-0.00064443 0.000193168 0.000193398 -1.85575e-05
-0.000777554 0.00023319 0.000233299 -1.00511e-05
-0.000773323 0.000231922 0.000232029 -1.00511e-05
-0.00089727 0.000269207 0.00026917 1.1798e-11
-0.0008874 0.000266245 0.000266209 1.16699e-11
-0.000633849 0.00019 0.000190221 -1.85575e-05
-0.000640903 0.000192112 0.000192339 -1.85575e-05
-0.000892335 0.000267726 0.000267689 1.17425e-11
-0.00076063 0.000228117 0.00022822 -1.00511e-05
-0.000637376 0.000191056 0.00019128 -1.85575e-05
-0.000769092 0.000230654 0.000230759 -1.00511e-05
-0.000764861 0.000229385 0.00022949 -1.00511e-05
-0.0008874 0.000266245 0.000266209 1.16699e-11
-0.00087753 0.000263284 0.000263248 1.15145e-11
-0.000626795 0.000187888 0.000188103 -1.85575e-05
-0.000633849 0.00019 0.000190221 -1.85575e-05
-0.000882465 0.000264765 0.000264728 1.15928e-11
-0.000752168 0.000225581 0.00022568 -1.00511e-05
-0.000630322 0.000188944 0.000189162 -1.85575e-05
-0.00076063 0.000228117 0.00022822 -1.00511e-05
-0.000756399 0.000226849 0.00022695 -1.00511e-05
-0.00087753 0.000263284 0.000263248 1.15375e-11
-0.00086766 0.000260323 0.000260287 1.14087e-11
-0.000619741 0.000185775 0.000185986 -1.85575e-05
-0.000626795 0.000187888 0.000188103 -1.85575e-05
-0.000872595 0.000261804 0.000261768 1.14718e-11
-0.000743706 0.000223044 0.000223141 -1.00512e-05
-0.000623268 0.000186831 0.000187044 -1.85575e-05
-0.000752168 0.000225581 0.00022568 -1.00511e-05
-0.000747937 0.000224312 0.000224411 -1.00511e-05
-0.00086766 0.000260323 0.000260287 1.14087e-11
-0.00085779 0.000257362 0.000257326 1.12619e-11
-0.000612688 0.000183663 0.000183868 -1.85575e-05
-0.000619741 0.000185775 0.000185986 -1.85575e-05
-0.000862725 0.000258843 0.000258807 1.13457e-11
-0.000735244 0.000220507 0.000220602 -1.00512e-05
-0.000616215 0.000184719 0.000184927 -1.85575e-05
-0.000743706 0.000223044 0.000223141 -1.00512e-05
-0.000739475 0.000221776 0.000221871 -1.00512e-05
-0.00085779 0.000257362 0.000257326 1.12619e-11
-0.000847921 0.000254401 0.000254365 1.11372e-11
-0.000605634 0.000181551 0.00018175 -1.85575e-05
-0.000612688 0.000183663 0.000183868 -1.85575e-05
-0.000852856 0.000255882 0.000255846 1.12168e-11
-0.000726783 0.000217971 0.000218062 -1.00512e-05
-0.000609161 0.000182607 0.000182809 -1.85575e-05
-0.000735244 0.000220507 0.000220602 -1.00512e-05
-0.000731014 0.000219239 0.000219332 -1.00512e-05
-0.000847921 0.000254401 0.000254365 1.11372e-11
-0.000838051 0.00025144 0.000251405 1.09992e-11
-0.000598581 0.000179438 0.000179633 -1.85576e-05
-0.000605634 0.000181551 0.00018175 -1.85575e-05
-0.000842986 0.000252921 0.000252885 1.10431e-11
-0.000718321 0.000215434 0.000215523 -1.00512e-05
-0.000602108 0.000180494 0.000180691 -1.85576e-05
-0.000726783 0.000217971 0.000218062 -1.00512e-05
-0.000722552 0.000216703 0.000216793 -1.00512e-05
-0.000838051 0.00025144 0.000251405 1.09989e-11
-0.000828182 0.00024848 0.000248444 1.08626e-11
-0.000591528 0.000177326 0.000177515 -1.85576e-05
-0.000598581 0.000179438 0.000179633 -1.85576e-05
-0.000833116 0.00024996 0.000249924 1.09448e-11
-0.00070986 0.000212898 0.000212984 -1.00512e-05
-0.000595054 0.000178382 0.000178574 -1.85576e-05
-0.000718321 0.000215434 0.000215523 -1.00512e-05
-0.00071409 0.000214166 0.000214253 -1.00512e-05
-0.000828182 0.00024848 0.000248444 1.08596e-11
-0.000818312 0.000245519 0.000245483 1.07483e-11
-0.000584475 0.000175214 0.000175398 -1.85576e-05
-0.000591528 0.000177326 0.000177515 -1.85576e-05
-0.000823247 0.000246999 0.000246963 1.07872e-11
-0.000701398 0.000210361 0.000210444 -1.00512e-05
-0.000588001 0.00017627 0.000176456 -1.85576e-05
-0.00070986 0.000212898 0.000212984 -1.00512e-05
-0.000705629 0.00021163 0.000211714 -1.00512e-05
-0.000818312 0.000245519 0.000245483 1.07483e-11
-0.000808443 0.000242558 0.000242522 1.06041e-11
-0.000577421 0.000173101 0.00017328 -1.85576e-05
-0.000584475 0.000175214 0.000175398 -1.85576e-05
-0.000813377 0.000244038 0.000244003 1.0673e-11
-0.000692937 0.000207825 0.000207905 -1.00513e-05
-0.000580948 0.000174157 0.000174339 -1.85576e-05
-0.000701398 0.000210361 0.000210444 -1.00512e-05
-0.000697168 0.000209093 0.000209175 -1.00513e-05
-0.000808443 0.000242558 0.000242522 1.06041e-11
-0.000798574 0.000239597 0.000239561 1.04797e-11
-0.000570369 0.000170989 0.000171163 -1.85576e-05
-0.000577421 0.000173101 0.00017328 -1.85576e-05
-0.000803508 0.000241077 0.000241042 1.0568e-11
-0.000684476 0.000205288 0.000205366 -1.00513e-05
-0.000573895 0.000172045 0.000172221 -1.85576e-05
-0.000692937 0.000207825 0.000207905 -1.00513e-05
-0.000688706 0.000206556 0.000206636 -1.00513e-05
-0.000798574 0.000239597 0.000239561 1.05063e-11
-0.000788704 0.000236636 0.000236601 1.03685e-11
-0.000563316 0.000168876 0.000169045 -1.85577e-05
-0.000570369 0.000170989 0.000171163 -1.85576e-05
-0.000793639 0.000238116 0.000238081 1.04169e-11
-0.000676014 0.000202752 0.000202827 -1.00513e-05
-0.000566842 0.000169932 0.000170104 -1.85576e-05
-0.000684476 0.000205288 0.000205366 -1.00513e-05
-0.000680245 0.00020402 0.000204096 -1.00513e-05
-0.000788704 0.000236636 0.000236601 1.03686e-11
-0.000778835 0.000233675 0.00023364 1.01899e-11
-0.000556263 0.000166764 0.000166928 -1.85577e-05
-0.000563316 0.000168876 0.000169045 -1.85577e-05
-0.00078377 0.000235156 0.00023512 1.02749e-11
-0.000667553 0.000200215 0.000200288 -1.00513e-05
-0.000559789 0.00016782 0.000167987 -1.85577e-05
-0.000676014 0.000202752 0.000202827 -1.00513e-05
-0.000671784 0.000201483 0.000201557 -1.00513e-05
-0.000778835 0.000233675 0.00023364 1.01899e-11
-0.000768966 0.000230714 0.000230679 1.00814e-11
-0.00054921 0.000164651 0.000164811 -1.85577e-05
-0.000556263 0.000166764 0.000166928 -1.85577e-05
-0.000773901 0.000232195 0.00023216 1.01467e-11
-0.000659092 0.000197679 0.000197749 -1.00513e-05
-0.000552736 0.000165708 0.000165869 -1.85577e-05
-0.000667553 0.000200215 0.000200288 -1.00513e-05
-0.000663323 0.000198947 0.000199018 -1.00513e-05
-0.000768966 0.000230714 0.000230679 1.00814e-11
-0.000759097 0.000227753 0.000227719 9.96347e-12
-0.000542157 0.000162539 0.000162694 -1.85577e-05
-0.00054921 0.000164651 0.000164811 -1.85577e-05
-0.000764032 0.000229234 0.000229199 1.00143e-11
-0.000650631 0.000195142 0.00019521 -1.00514e-05
-0.000545684 0.000163595 0.000163752 -1.85577e-05
-0.000659092 0.000197679 0.000197749 -1.00513e-05
-0.000654862 0.00019641 0.000196479 -1.00514e-05
-0.000759097 0.000227753 0.000227719 9.96347e-12
-0.000749228 0.000224793 0.000224758 9.80357e-12
-0.000535105 0.000160426 0.000160577 -1.85577e-05
-0.000542157 0.000162539 0.000162694 -1.85577e-05
-0.000754163 0.000226273 0.000226238 9.88663e-12
-0.000642171 0.000192606 0.000192671 -1.00514e-05
-0.000538631 0.000161483 0.000161635 -1.85577e-05
-0.000650631 0.000195142 0.00019521 -1.00514e-05
-0.000646401 0.000193874 0.00019394 -1.00514e-05
-0.000749228 0.000224793 0.000224758 9.81343e-12
-0.000739359 0.000221832 0.000221797 9.67608e-12
-0.000528052 0.000158314 0.000158459 -1.85578e-05
-0.000535105 0.000160426 0.000160577 -1.85577e-05
-0.000744294 0.000223312 0.000223278 9.77134e-12
-0.00063371 0.000190069 0.000190132 -1.00514e-05
-0.000531579 0.00015937 0.000159518 -1.85578e-05
-0.000642171 0.000192606 0.000192671 -1.00514e-05
-0.00063794 0.000191337 0.000191401 -1.00514e-05
-0.000739359 0.000221832 0.000221797 9.67608e-12
-0.00072949 0.000218871 0.000218837 9.55475e-12
-0.000521 0.000156201 0.000156342 -1.85578e-05
-0.000528052 0.000158314 0.000158459 -1.85578e-05
-0.000734425 0.000220352 0.000220317 9.6213e-12
-0.000625249 0.000187532 0.000187593 -1.00514e-05
-0.000524526 0.000157258 0.000157401 -1.85578e-05
-0.00063371 0.000190069 0.000190132 -1.00514e-05
-0.000629479 0.000188801 0.000188862 -1.00514e-05
-0.00072949 0.000218871 0.000218837 9.55475e-12
-0.000719622 0.00021591 0.000215876 9.41533e-12
-0.000513948 0.000154089 0.000154225 -1.85578e-05
-0.000521 0.000156201 0.000156342 -1.85578e-05
-0.000724556 0.000217391 0.000217357 9.48757e-12
-0.000616789 0.000184996 0.000185054 -1.00515e-05
-0.000517474 0.000155145 0.000155284 -1.85578e-05
-0.000625249 0.000187532 0.000187593 -1.00514e-05
-0.000621019 0.000186264 0.000186323 -1.00514e-05
-0.000719622 0.00021591 0.000215876 9.41534e-12
-0.000709753 0.00021295 0.000212916 9.3078e-12
-0.000506896 0.000151976 0.000152108 -1.85578e-05
-0.000513948 0.000154089 0.000154225 -1.85578e-05
-0.000714687 0.00021443 0.000214396 9.36761e-12
-0.000608328 0.000182459 0.000182515 -1.00515e-05
-0.000510422 0.000153033 0.000153167 -1.85578e-05
-0.000616789 0.000184996 0.000185054 -1.00515e-05
-0.000612558 0.000183728 0.000183785 -1.00515e-05
-0.000709753 0.00021295 0.000212916 9.30764e-12
-0.000699884 0.000209989 0.000209955 9.16132e-12
-0.000499844 0.000149864 0.000149991 -1.85579e-05
-0.000506896 0.000151976 0.000152108 -1.85578e-05
-0.000704819 0.000211469 0.000211435 9.22822e-12
-0.000599868 0.000179923 0.000179976 -1.00515e-05
-0.00050337 0.00015092 0.00015105 -1.85578e-05
-0.000608328 0.000182459 0.000182515 -1.00515e-05
-0.000604098 0.000181191 0.000181246 -1.00515e-05
-0.000699884 0.000209989 0.000209955 9.16132e-12
-0.000690016 0.000207028 0.000206995 9.0411e-12
-0.000492792 0.000147751 0.000147875 -1.85579e-05
-0.000499844 0.000149864 0.000149991 -1.85579e-05
-0.00069495 0.000208509 0.000208475 9.08773e-12
-0.000591407 0.000177386 0.000177438 -1.00515e-05
-0.000496318 0.000148807 0.000148933 -1.85579e-05
-0.000599868 0.000179923 0.000179976 -1.00515e-05
-0.000595637 0.000178655 0.000178707 -1.00515e-05
-0.000690016 0.000207028 0.000206995 9.0411e-12
-0.000680147 0.000204068 0.000204034 8.89943e-12
-0.00048574 0.000145638 0.000145758 -1.85579e-05
-0.000492792 0.000147751 0.000147875 -1.85579e-05
-0.000685082 0.000205548 0.000205514 8.95346e-12
-0.000582947 0.00017485 0.000174899 -1.00515e-05
-0.000489266 0.000146695 0.000146816 -1.85579e-05
-0.000591407 0.000177386 0.000177438 -1.00515e-05
-0.000587177 0.000176118 0.000176168 -1.00515e-05
-0.000680147 0.000204068 0.000204034 8.89927e-12
-0.000670279 0.000201107 0.000201074 8.77958e-12
-0.000478688 0.000143526 0.000143641 -1.85579e-05
-0.00048574 0.000145638 0.000145758 -1.85579e-05
-0.000675213 0.000202587 0.000202554 8.818e-12
-0.000574487 0.000172313 0.00017236 -1.00516e-05
-0.000482214 0.000144582 0.000144699 -1.85579e-05
-0.000582947 0.00017485 0.000174899 -1.00515e-05
-0.000578717 0.000173582 0.000173629 -1.00516e-05
-0.000670279 0.000201107 0.000201074 8.76643e-12
-0.000660411 0.000198146 0.000198113 8.64178e-12
-0.000471636 0.000141413 0.000141524 -1.8558e-05
-0.000478688 0.000143526 0.000143641 -1.85579e-05
-0.000665345 0.000199627 0.000199593 8.71462e-12
-0.000566027 0.000169777 0.000169821 -1.00516e-05
-0.000475162 0.00014247 0.000142583 -1.85579e-05
-0.000574487 0.000172313 0.00017236 -1.00516e-05
-0.000570257 0.000171045 0.000171091 -1.00516e-05
-0.000660411 0.000198146 0.000198113 8.64178e-12
-0.000650542 0.000195186 0.000195153 8.48519e-12
-0.000464585 0.000139301 0.000139407 -1.8558e-05
-0.000471636 0.000141413 0.000141524 -1.8558e-05
-0.000655476 0.000196666 0.000196633 8.54524e-12
-0.000557567 0.00016724 0.000167283 -1.00516e-05
-0.00046811 0.000140357 0.000140466 -1.8558e-05
-0.000566027 0.000169777 0.000169821 -1.00516e-05
-0.000561797 0.000168508 0.000168552 -1.00516e-05
-0.000650542 0.000195186 0.000195153 8.48519e-12
-0.000640674 0.000192225 0.000192192 8.39922e-12
-0.000457533 0.000137188 0.000137291 -1.8558e-05
-0.000464585 0.000139301 0.000139407 -1.8558e-05
-0.000645608 0.000193706 0.000193673 8.42316e-12
-0.000549107 0.000164704 0.000164744 -1.00516e-05
-0.000461059 0.000138244 0.000138349 -1.8558e-05
-0.000557567 0.00016724 0.000167283 -1.00516e-05
-0.000553337 0.000165972 0.000166013 -1.00516e-05
-0.000640674 0.000192225 0.000192192 8.37273e-12
-0.000630806 0.000189265 0.000189232 8.24003e-12
-0.000450482 0.000135075 0.000135174 -1.8558e-05
-0.000457533 0.000137188 0.000137291 -1.8558e-05
-0.00063574 0.000190745 0.000190712 8.31395e-12
-0.000540647 0.000162167 0.000162206 -1.00517e-05
-0.000454007 0.000136132 0.000136232 -1.8558e-05
-0.000549107 0.000164704 0.000164744 -1.00516e-05
-0.000544877 0.000163435 0.000163475 -1.00517e-05
-0.000630806 0.000189265 0.000189232 8.24028e-12
-0.000620938 0.000186304 0.000186272 8.11531e-12
-0.00044343 0.000132962 0.000133058 -1.85581e-05
-0.000450482 0.000135075 0.000135174 -1.8558e-05
-0.000625872 0.000187784 0.000187752 8.17355e-12
-0.000532187 0.000159631 0.000159667 -1.00517e-05
-0.000446956 0.000134019 0.000134116 -1.85581e-05
-0.000540647 0.000162167 0.000162206 -1.00517e-05
-0.000536417 0.000160899 0.000160936 -1.00517e-05
-0.000620938 0.000186304 0.000186272 8.11531e-12
-0.00061107 0.000183344 0.000183311 7.96893e-12
-0.000436379 0.00013085 0.000130941 -1.85581e-05
-0.00044343 0.000132962 0.000133058 -1.85581e-05
-0.000616004 0.000184824 0.000184791 8.07398e-12
-0.000523727 0.000157094 0.000157128 -1.00517e-05
-0.000439905 0.000131906 0.000131999 -1.85581e-05
-0.000532187 0.000159631 0.000159667 -1.00517e-05
-0.000527957 0.000158362 0.000158398 -1.00517e-05
-0.00061107 0.000183344 0.000183311 7.96893e-12
-0.000601202 0.000180383 0.000180351 7.8506e-12
-0.000429328 0.000128737 0.000128825 -1.85581e-05
-0.000436379 0.00013085 0.000130941 -1.85581e-05
-0.000606136 0.000181863 0.000181831 7.90457e-12
-0.000515267 0.000154558 0.00015459 -1.00517e-05
-0.000432853 0.000129793 0.000129883 -1.85581e-05
-0.000523727 0.000157094 0.000157128 -1.00517e-05
-0.000519497 0.000155826 0.000155859 -1.00517e-05
-0.000601202 0.000180383 0.000180351 7.85085e-12
-0.000591334 0.000177423 0.000177391 7.69395e-12
-0.000422277 0.000126624 0.000126708 -1.85582e-05
-0.000429328 0.000128737 0.000128825 -1.85581e-05
-0.000596268 0.000178903 0.000178871 7.7598e-12
-0.000506808 0.000152021 0.000152052 -1.00518e-05
-0.000425802 0.000127681 0.000127766 -1.85582e-05
-0.000515267 0.000154558 0.00015459 -1.00517e-05
-0.000511038 0.000153289 0.000153321 -1.00518e-05
-0.000591334 0.000177423 0.000177391 7.70399e-12
-0.000581466 0.000174462 0.00017443 7.60477e-12
-0.000415226 0.000124511 0.000124592 -1.85582e-05
-0.000422277 0.000126624 0.000126708 -1.85582e-05
-0.0005864 0.000175942 0.00017591 7.61381e-12
-0.000498348 0.000149484 0.000149513 -1.00518e-05
-0.000418751 0.000125568 0.00012565 -1.85582e-05
-0.000506808 0.000152021 0.000152052 -1.00518e-05
-0.000502578 0.000150753 0.000150782 -1.00518e-05
-0.000581466 0.000174462 0.00017443 7.60477e-12
-0.000571598 0.000171502 0.00017147 7.46584e-12
-0.000408175 0.000122399 0.000122475 -1.85582e-05
-0.000415226 0.000124511 0.000124592 -1.85582e-05
-0.000576532 0.000172982 0.00017295 7.5121e-12
-0.000489889 0.000146948 0.000146975 -1.00518e-05
-0.0004117 0.000123455 0.000123534 -1.85582e-05
-0.000498348 0.000149484 0.000149513 -1.00518e-05
-0.000494119 0.000148216 0.000148244 -1.00518e-05
-0.000571598 0.000171502 0.00017147 7.46584e-12
-0.000561731 0.000168541 0.00016851 7.31888e-12
-0.000401124 0.000120286 0.000120359 -1.85583e-05
-0.000408175 0.000122399 0.000122475 -1.85582e-05
-0.000566664 0.000170022 0.00016999 7.39962e-12
-0.00048143 0.000144411 0.000144436 -1.00519e-05
-0.000404649 0.000121342 0.000121417 -1.85583e-05
-0.000489889 0.000146948 0.000146975 -1.00518e-05
-0.000485659 0.00014568 0.000145706 -1.00518e-05
-0.000561731 0.000168541 0.00016851 7.32884e-12
-0.000551863 0.000165581 0.000165549 7.18739e-12
-0.000394073 0.000118173 0.000118243 -1.85583e-05
-0.000401124 0.000120286 0.000120359 -1.85583e-05
-0.000556797 0.000167061 0.00016703 7.24372e-12
-0.00047297 0.000141875 0.000141898 -1.00519e-05
-0.000397599 0.000119229 0.000119301 -1.85583e-05
-0.00048143 0.000144411 0.000144436 -1.00519e-05
-0.0004772 0.000143143 0.000143167 -1.00519e-05
-0.000551863 0.000165581 0.000165549 7.1873e-12
-0.000541995 0.000162621 0.000162589 7.06e-12
-0.000387023 0.00011606 0.000116127 -1.85583e-05
-0.000394073 0.000118173 0.000118243 -1.85583e-05
-0.000546929 0.000164101 0.000164069 7.07538e-12
-0.000464511 0.000139338 0.00013936 -1.00519e-05
-0.000390548 0.000117117 0.000117185 -1.85583e-05
-0.00047297 0.000141875 0.000141898 -1.00519e-05
-0.000468741 0.000140607 0.000140629 -1.00519e-05
-0.000541995 0.000162621 0.000162589 7.06e-12
-0.000532128 0.00015966 0.000159629 6.92095e-12
-0.000379972 0.000113947 0.000114011 -1.85584e-05
-0.000387023 0.00011606 0.000116127 -1.85583e-05
-0.000537062 0.00016114 0.000161109 7.02121e-12
-0.000456052 0.000136802 0.000136822 -1.00519e-05
-0.000383497 0.000115004 0.000115069 -1.85584e-05
-0.000464511 0.000139338 0.00013936 -1.00519e-05
-0.000460282 0.00013807 0.000138091 -1.00519e-05
-0.000532128 0.00015966 0.000159629 6.92095e-12
-0.00052226 0.0001567 0.000156669 6.78664e-12
-0.000372921 0.000111834 0.000111894 -1.85584e-05
-0.000379972 0.000113947 0.000114011 -1.85584e-05
-0.000527194 0.00015818 0.000158149 6.83548e-12
-0.000447593 0.000134265 0.000134283 -1.0052e-05
-0.000376447 0.000112891 0.000112953 -1.85584e-05
-0.000456052 0.000136802 0.000136822 -1.00519e-05
-0.000451822 0.000135533 0.000135552 -1.0052e-05
-0.00052226 0.0001567 0.000156669 6.78647e-12
-0.000512393 0.000153739 0.000153709 6.64096e-12
-0.000365871 0.000109721 0.000109778 -1.85584e-05
-0.000372921 0.000111834 0.000111894 -1.85584e-05
-0.000517327 0.00015522 0.000155189 6.75769e-12
-0.000439134 0.000131729 0.000131745 -1.0052e-05
-0.000369396 0.000110778 0.000110836 -1.85584e-05
-0.000447593 0.000134265 0.000134283 -1.0052e-05
-0.000443363 0.000132997 0.000133014 -1.0052e-05
-0.000512393 0.000153739 0.000153709 6.64105e-12
-0.000502526 0.000150779 0.000150749 6.54164e-12
-0.000358821 0.000107608 0.000107662 -1.85585e-05
-0.000365871 0.000109721 0.000109778 -1.85584e-05
-0.000507459 0.000152259 0.000152229 6.59374e-12
-0.000430675 0.000129192 0.000129207 -1.0052e-05
-0.000362346 0.000108665 0.00010872 -1.85585e-05
-0.000439134 0.000131729 0.000131745 -1.0052e-05
-0.000434905 0.00013046 0.000130476 -1.0052e-05
-0.000502526 0.000150779 0.000150749 6.54164e-12
-0.000492658 0.000147819 0.000147788 6.41132e-12
-0.000351771 0.000105496 0.000105546 -1.85585e-05
-0.000358821 0.000107608 0.000107662 -1.85585e-05
-0.000497592 0.000149299 0.000149268 6.47798e-12
-0.000422216 0.000126655 0.000126669 -1.00521e-05
-0.000355296 0.000106552 0.000106604 -1.85585e-05
-0.000430675 0.000129192 0.000129207 -1.0052e-05
-0.000426446 0.000127924 0.000127938 -1.0052e-05
-0.000492658 0.000147819 0.000147788 6.42771e-12
-0.000482791 0.000144858 0.000144828 6.27353e-12
-0.00034472 0.000103383 0.00010343 -1.85586e-05
-0.000351771 0.000105496 0.000105546 -1.85585e-05
-0.000487725 0.000146339 0.000146308 6.37882e-12
-0.000413757 0.000124119 0.000124131 -1.00521e-05
-0.000348245 0.000104439 0.000104488 -1.85585e-05
-0.000422216 0.000126655 0.000126669 -1.00521e-05
-0.000417987 0.000125387 0.0001254 -1.00521e-05
-0.000482791 0.000144858 0.000144828 6.27353e-12
-0.000472924 0.000141898 0.000141868 6.13106e-12
-0.00033767 0.00010127 0.000101315 -1.85586e-05
-0.00034472 0.000103383 0.00010343 -1.85586e-05
-0.000477858 0.000143378 0.000143348 6.2051e-12
-0.000405299 0.000121582 0.000121593 -1.00521e-05
-0.000341195 0.000102326 0.000102373 -1.85586e-05
-0.000413757 0.000124119 0.000124131 -1.00521e-05
-0.000409528 0.000122851 0.000122862 -1.00521e-05
-0.000472924 0.000141898 0.000141868 6.13106e-12
-0.000463057 0.000138938 0.000138908 6.00373e-12
-0.00033062 9.91565e-05 9.91988e-05 -1.85587e-05
-0.00033767 0.00010127 0.000101315 -1.85586e-05
-0.00046799 0.000140418 0.000140388 6.10655e-12
-0.00039684 0.000119046 0.000119055 -1.00522e-05
-0.000334145 0.000100213 0.000100257 -1.85586e-05
-0.000405299 0.000121582 0.000121593 -1.00521e-05
-0.000401069 0.000120314 0.000120324 -1.00521e-05
-0.000463057 0.000138938 0.000138908 6.00356e-12
-0.00045319 0.000135978 0.000135948 5.86777e-12
-0.00032357 9.70435e-05 9.7083e-05 -1.85587e-05
-0.00033062 9.91565e-05 9.91988e-05 -1.85587e-05
-0.000458123 0.000137458 0.000137428 5.93495e-12
-0.000388382 0.000116509 0.000116517 -1.00522e-05
-0.000327095 9.81e-05 9.81409e-05 -1.85587e-05
-0.00039684 0.000119046 0.000119055 -1.00522e-05
-0.000392611 0.000117777 0.000117786 -1.00522e-05
-0.00045319 0.000135978 0.000135948 5.88113e-12
-0.000443323 0.000133017 0.000132988 5.75983e-12
-0.000316521 9.49305e-05 9.49672e-05 -1.85587e-05
-0.00032357 9.70435e-05 9.7083e-05 -1.85587e-05
-0.000448256 0.000134498 0.000134468 5.82576e-12
-0.000379923 0.000113973 0.000113979 -1.00522e-05
-0.000320046 9.5987e-05 9.60251e-05 -1.85587e-05
-0.000388382 0.000116509 0.000116517 -1.00522e-05
-0.000384152 0.000115241 0.000115248 -1.00522e-05
-0.000443323 0.000133017 0.000132988 5.75983e-12
-0.000433456 0.000130057 0.000130028 5.60978e-12
-0.000309471 9.28174e-05 9.28515e-05 -1.85588e-05
-0.000316521 9.49305e-05 9.49672e-05 -1.85587e-05
-0.000438389 0.000131537 0.000131508 5.66598e-12
-0.000371465 0.000111436 0.000111441 -1.00523e-05
-0.000312996 9.38739e-05 9.39093e-05 -1.85588e-05
-0.000379923 0.000113973 0.000113979 -1.00522e-05
-0.000375694 0.000112704 0.00011271 -1.00522e-05
-0.000433456 0.000130057 0.000130028 5.60978e-12
-0.000423589 0.000127097 0.000127068 5.50875e-12
-0.000302421 9.07043e-05 9.07358e-05 -1.85588e-05
-0.000309471 9.28174e-05 9.28515e-05 -1.85588e-05
-0.000428522 0.000128577 0.000128548 5.54131e-12
-0.000363006 0.000108899 0.000108903 -1.00523e-05
-0.000305946 9.17608e-05 9.17937e-05 -1.85588e-05
-0.000371465 0.000111436 0.000111441 -1.00523e-05
-0.000367236 0.000110168 0.000110172 -1.00523e-05
-0.000423589 0.000127097 0.000127068 5.49541e-12
-0.000413722 0.000124137 0.000124108 5.39412e-12
-0.000295372 8.85912e-05 8.86202e-05 -1.85589e-05
-0.000302421 9.07043e-05 9.07358e-05 -1.85588e-05
-0.000418656 0.000125617 0.000125588 5.42007e-12
-0.000354548 0.000106363 0.000106365 -1.00523e-05
-0.000298896 8.96477e-05 8.9678e-05 -1.85589e-05
-0.000363006 0.000108899 0.000108903 -1.00523e-05
-0.000358777 0.000107631 0.000107634 -1.00523e-05
-0.000413722 0.000124137 0.000124108 5.39394e-12
-0.000403855 0.000121177 0.000121148 5.20539e-12
-0.000288322 8.64781e-05 8.65046e-05 -1.85589e-05
-0.000295372 8.85912e-05 8.86202e-05 -1.85589e-05
-0.000408789 0.000122657 0.000122628 5.30524e-12
-0.00034609 0.000103826 0.000103827 -1.00524e-05
-0.000291847 8.75346e-05 8.75624e-05 -1.85589e-05
-0.000354548 0.000106363 0.000106365 -1.00523e-05
-0.000350319 0.000105095 0.000105096 -1.00523e-05
-0.000403855 0.000121177 0.000121148 5.20539e-12
-0.000393989 0.000118217 0.000118188 5.12192e-12
-0.000281273 8.43649e-05 8.43891e-05 -1.8559e-05
-0.000288322 8.64781e-05 8.65046e-05 -1.85589e-05
-0.000398922 0.000119697 0.000119668 5.20879e-12
-0.000337632 0.00010129 0.00010129 -1.00524e-05
-0.000284797 8.54215e-05 8.54469e-05 -1.85589e-05
-0.00034609 0.000103826 0.000103827 -1.00524e-05
-0.000341861 0.000102558 0.000102558 -1.00524e-05
-0.000393989 0.000118217 0.000118188 5.12192e-12
-0.000384122 0.000115256 0.000115228 4.99105e-12
-0.000274223 8.22517e-05 8.22736e-05 -1.8559e-05
-0.000281273 8.43649e-05 8.43891e-05 -1.8559e-05
-0.000389055 0.000116736 0.000116708 5.0337e-12
-0.000329174 9.8753e-05 9.87518e-05 -1.00524e-05
-0.000277748 8.33083e-05 8.33313e-05 -1.8559e-05
-0.000337632 0.00010129 0.00010129 -1.00524e-05
-0.000333403 0.000100021 0.000100021 -1.00524e-05
-0.000384122 0.000115256 0.000115228 4.99105e-12
-0.000374255 0.000112296 0.000112268 4.84187e-12
-0.000267174 8.01386e-05 8.01582e-05 -1.85591e-05
-0.000274223 8.22517e-05 8.22736e-05 -1.8559e-05
-0.000379189 0.000113776 0.000113748 4.9025e-12
-0.000320716 9.62164e-05 9.6214e-05 -1.00525e-05
-0.000270699 8.11952e-05 8.12159e-05 -1.8559e-05
-0.000329174 9.8753e-05 9.87518e-05 -1.00524e-05
-0.000324945 9.74847e-05 9.74829e-05 -1.00525e-05
-0.000374255 0.000112296 0.000112268 4.85192e-12
-0.000364389 0.000109336 0.000109308 4.70408e-12
-0.000260125 7.80253e-05 7.80427e-05 -1.85591e-05
-0.000267174 8.01386e-05 8.01582e-05 -1.85591e-05
-0.000369322 0.000110816 0.000110788 4.7774e-12
-0.000312258 9.36798e-05 9.36763e-05 -1.00525e-05
-0.00026365 7.9082e-05 7.91004e-05 -1.85591e-05
-0.000320716 9.62164e-05 9.6214e-05 -1.00525e-05
-0.000316487 9.49481e-05 9.49452e-05 -1.00525e-05
-0.000364389 0.000109336 0.000109308 4.70408e-12
-0.000354522 0.000106376 0.000106348 4.58405e-12
-0.000253076 7.59121e-05 7.59274e-05 -1.85592e-05
-0.000260125 7.80253e-05 7.80427e-05 -1.85591e-05
-0.000359456 0.000107856 0.000107828 4.67286e-12
-0.0003038 9.11432e-05 9.11387e-05 -1.00525e-05
-0.000256601 7.69687e-05 7.69851e-05 -1.85591e-05
-0.000312258 9.36798e-05 9.36763e-05 -1.00525e-05
-0.000308029 9.24115e-05 9.24075e-05 -1.00525e-05
-0.000354522 0.000106376 0.000106348 4.58405e-12
-0.000344656 0.000103416 0.000103389 4.40326e-12
-0.000246027 7.37989e-05 7.38121e-05 -1.85592e-05
-0.000253076 7.59121e-05 7.59274e-05 -1.85592e-05
-0.000349589 0.000104896 0.000104868 4.55079e-12
-0.000295342 8.86066e-05 8.8601e-05 -1.00526e-05
-0.000249552 7.48555e-05 7.48697e-05 -1.85592e-05
-0.0003038 9.11432e-05 9.11387e-05 -1.00525e-05
-0.000299571 8.98749e-05 8.98699e-05 -1.00526e-05
-0.000344656 0.000103416 0.000103389 4.48602e-12
-0.000334789 0.000100456 0.000100429 4.29155e-12
-0.000238978 7.16856e-05 7.16968e-05 -1.85593e-05
-0.000246027 7.37989e-05 7.38121e-05 -1.85592e-05
-0.000339723 0.000101936 0.000101909 4.35336e-12
-0.000286885 8.607e-05 8.60634e-05 -1.00526e-05
-0.000242503 7.27422e-05 7.27544e-05 -1.85592e-05
-0.000295342 8.86066e-05 8.8601e-05 -1.00526e-05
-0.000291113 8.73383e-05 8.73322e-05 -1.00526e-05
-0.000334789 0.000100456 0.000100429 4.29164e-12
-0.000324923 9.74959e-05 9.74688e-05 4.14671e-12
-0.000231929 6.95723e-05 6.95816e-05 -1.85593e-05
-0.000238978 7.16856e-05 7.16968e-05 -1.85593e-05
-0.000329856 9.89759e-05 9.89487e-05 4.23005e-12
-0.000278427 8.35333e-05 8.35259e-05 -1.00527e-05
-0.000235454 7.0629e-05 7.06392e-05 -1.85593e-05
-0.000286885 8.607e-05 8.60634e-05 -1.00526e-05
-0.000282656 8.48016e-05 8.47946e-05 -1.00526e-05
-0.000324923 9.74959e-05 9.74688e-05 4.14671e-12
-0.000315057 9.45358e-05 9.4509e-05 3.98599e-12
-0.000224881 6.7459e-05 6.74664e-05 -1.85594e-05
-0.000231929 6.95723e-05 6.95816e-05 -1.85593e-05
-0.00031999 9.60158e-05 9.59889e-05 4.0893e-12
-0.000269969 8.09967e-05 8.09883e-05 -1.00527e-05
-0.000228405 6.85157e-05 6.8524e-05 -1.85594e-05
-0.000278427 8.35333e-05 8.35259e-05 -1.00527e-05
-0.000274198 8.2265e-05 8.22571e-05 -1.00527e-05
-0.000315057 9.45358e-05 9.4509e-05 3.98599e-12
-0.000305191 9.15758e-05 9.15492e-05 3.86505e-12
-0.000217832 6.53457e-05 6.53512e-05 -1.85594e-05
-0.000224881 6.7459e-05 6.74664e-05 -1.85594e-05
-0.000310124 9.30558e-05 9.30291e-05 3.886e-12
-0.000261512 7.84601e-05 7.84508e-05 -1.00527e-05
-0.000221356 6.64023e-05 6.64088e-05 -1.85594e-05
-0.000269969 8.09967e-05 8.09883e-05 -1.00527e-05
-0.000265741 7.97284e-05 7.97195e-05 -1.00527e-05
-0.000305191 9.15758e-05 9.15492e-05 3.86504e-12
-0.000295324 8.86158e-05 8.85894e-05 3.65266e-12
-0.000210783 6.32323e-05 6.32361e-05 -1.85595e-05
-0.000217832 6.53457e-05 6.53512e-05 -1.85594e-05
-0.000300257 9.00958e-05 9.00693e-05 3.7715e-12
-0.000253054 7.59234e-05 7.59133e-05 -1.00528e-05
-0.000214308 6.4289e-05 6.42937e-05 -1.85595e-05
-0.000261512 7.84601e-05 7.84508e-05 -1.00527e-05
-0.000257283 7.71917e-05 7.7182e-05 -1.00528e-05
-0.000295324 8.86158e-05 8.85894e-05 3.71928e-12
-0.000285458 8.56558e-05 8.56296e-05 3.45667e-12
-0.000203735 6.11189e-05 6.11211e-05 -1.85595e-05
-0.000210783 6.32323e-05 6.32361e-05 -1.85595e-05
-0.000290391 8.71358e-05 8.71095e-05 3.55467e-12
-0.000244597 7.33868e-05 7.33758e-05 -1.00528e-05
-0.000207259 6.21756e-05 6.21786e-05 -1.85595e-05
-0.000253054 7.59234e-05 7.59133e-05 -1.00528e-05
-0.000248826 7.46551e-05 7.46446e-05 -1.00528e-05
-0.000285458 8.56558e-05 8.56296e-05 3.45667e-12
-0.000275592 8.26958e-05 8.26698e-05 3.29635e-12
-0.000196686 5.90055e-05 5.9006e-05 -1.85596e-05
-0.000203735 6.11189e-05 6.11211e-05 -1.85595e-05
-0.000280525 8.41758e-05 8.41497e-05 3.4014e-12
-0.00023614 7.08501e-05 7.08384e-05 -1.00528e-05
-0.000200211 6.00622e-05 6.00635e-05 -1.85596e-05
-0.000244597 7.33868e-05 7.33758e-05 -1.00528e-05
-0.000240368 7.21185e-05 7.21071e-05 -1.00528e-05
-0.000275592 8.26958e-05 8.26698e-05 3.29635e-12
-0.000265726 7.97358e-05 7.97101e-05 3.08113e-12
-0.000189638 5.68921e-05 5.68911e-05 -1.85596e-05
-0.000196686 5.90055e-05 5.9006e-05 -1.85596e-05
-0.000270659 8.12158e-05 8.119e-05 3.19242e-12
-0.000227683 6.83135e-05 6.8301e-05 -1.00529e-05
-0.000193162 5.79488e-05 5.79486e-05 -1.85596e-05
-0.00023614 7.08501e-05 7.08384e-05 -1.00528e-05
-0.000231911 6.95818e-05 6.95697e-05 -1.00529e-05
-0.000265726 7.97358e-05 7.97101e-05 3.09108e-12
-0.00025586 7.67759e-05 7.67504e-05 2.88015e-12
-0.00018259 5.47787e-05 5.47761e-05 -1.85597e-05
-0.000189638 5.68921e-05 5.68911e-05 -1.85596e-05
-0.000260793 7.82559e-05 7.82302e-05 2.95456e-12
-0.000219225 6.57768e-05 6.57637e-05 -1.00529e-05
-0.000186114 5.58354e-05 5.58336e-05 -1.85597e-05
-0.000227683 6.83135e-05 6.8301e-05 -1.00529e-05
-0.000223454 6.70452e-05 6.70324e-05 -1.00529e-05
-0.00025586 7.67759e-05 7.67504e-05 2.88015e-12
-0.000245994 7.3816e-05 7.37907e-05 2.7109e-12
-0.000175541 5.26652e-05 5.26613e-05 -1.85597e-05
-0.00018259 5.47787e-05 5.47761e-05 -1.85597e-05
-0.000250927 7.52959e-05 7.52705e-05 2.80774e-12
-0.000210768 6.32402e-05 6.32264e-05 -1.00529e-05
-0.000179066 5.37219e-05 5.37187e-05 -1.85597e-05
-0.000219225 6.57768e-05 6.57637e-05 -1.00529e-05
-0.000214997 6.45085e-05 6.4495e-05 -1.00529e-05
-0.000245994 7.3816e-05 7.37907e-05 2.7109e-12
-0.000236128 7.0856e-05 7.0831e-05 2.77544e-12
-0.000168493 5.05517e-05 5.05464e-05 -1.85597e-05
-0.000175541 5.26652e-05 5.26613e-05 -1.85597e-05
-0.000241061 7.2336e-05 7.23108e-05 2.70268e-12
-0.000202311 6.07035e-05 6.06891e-05 -1.0053e-05
-0.000172017 5.16085e-05 5.16038e-05 -1.85597e-05
-0.000210768 6.32402e-05 6.32264e-05 -1.00529e-05
-0.00020654 6.19718e-05 6.19577e-05 -1.00529e-05
-0.000236128 7.0856e-05 7.0831e-05 2.77544e-12
-0.000226263 6.78962e-05 6.78713e-05 2.99062e-12
-0.000161445 4.84382e-05 4.84316e-05 -1.85598e-05
-0.000168493 5.05517e-05 5.05464e-05 -1.85597e-05
-0.000231195 6.93761e-05 6.93511e-05 2.83927e-12
-0.000193854 5.81668e-05 5.81518e-05 -1.0053e-05
-0.000164969 4.9495e-05 4.9489e-05 -1.85597e-05
-0.000202311 6.07035e-05 6.06891e-05 -1.0053e-05
-0.000198083 5.94352e-05 5.94204e-05 -1.0053e-05
-0.000226263 6.78962e-05 6.78713e-05 2.99062e-12
-0.000216397 6.49363e-05 6.49117e-05 3.97875e-12
-0.000154397 4.63247e-05 4.63169e-05 -1.85598e-05
-0.000161445 4.84382e-05 4.84316e-05 -1.85598e-05
-0.00022133 6.64162e-05 6.63915e-05 3.28067e-12
-0.000185398 5.56302e-05 5.56146e-05 -1.0053e-05
-0.000157921 4.73815e-05 4.73742e-05 -1.85598e-05
-0.000193854 5.81668e-05 5.81518e-05 -1.0053e-05
-0.000189626 5.68985e-05 5.68832e-05 -1.0053e-05
-0.000216397 6.49363e-05 6.49117e-05 3.99185e-12
-0.000206531 6.19764e-05 6.19521e-05 5.05799e-12
-0.00014735 4.42112e-05 4.42022e-05 -1.85598e-05
-0.000154397 4.63247e-05 4.63169e-05 -1.85598e-05
-0.000211464 6.34564e-05 6.34319e-05 4.35012e-12
-0.000176941 5.30935e-05 5.30774e-05 -1.0053e-05
-0.000150874 4.5268e-05 4.52595e-05 -1.85598e-05
-0.000185398 5.56302e-05 5.56146e-05 -1.0053e-05
-0.000181169 5.43619e-05 5.4346e-05 -1.0053e-05
-0.000206531 6.19764e-05 6.19521e-05 5.05799e-12
-0.000196666 5.90166e-05 5.89925e-05 8.37509e-12
-0.000140302 4.20977e-05 4.20875e-05 -1.85599e-05
-0.00014735 4.42112e-05 4.42022e-05 -1.85598e-05
-0.000201598 6.04965e-05 6.04723e-05 6.92029e-12
-0.000168484 5.05569e-05 5.05402e-05 -1.00531e-05
-0.000143826 4.31545e-05 4.31448e-05 -1.85599e-05
-0.000176941 5.30935e-05 5.30774e-05 -1.0053e-05
-0.000172712 5.18252e-05 5.18088e-05 -1.00531e-05
-0.000196666 5.90166e-05 5.89925e-05 8.37509e-12
-0.0001868 5.60567e-05 5.60329e-05 1.10096e-11
-0.000133254 3.99842e-05 3.99728e-05 -1.85601e-05
-0.000140302 4.20977e-05 4.20875e-05 -1.85599e-05
-0.000191733 5.75367e-05 5.75127e-05 8.94159e-12
-0.000160027 4.80202e-05 4.80031e-05 -1.00532e-05
-0.000136778 4.1041e-05 4.10302e-05 -1.856e-05
-0.000168484 5.05569e-05 5.05402e-05 -1.00531e-05
-0.000164256 4.92885e-05 4.92716e-05 -1.00531e-05
-0.0001868 5.60567e-05 5.60329e-05 1.10031e-11
-0.000176934 5.30969e-05 5.30732e-05 1.64004e-11
-0.000126207 3.78708e-05 3.78582e-05 -1.85603e-05
-0.000133254 3.99842e-05 3.99728e-05 -1.85601e-05
-0.000181867 5.45768e-05 5.45531e-05 1.68633e-11
-0.000151571 4.54835e-05 4.54659e-05 -1.00534e-05
-0.00012973 3.89275e-05 3.89155e-05 -1.85602e-05
-0.000160027 4.80202e-05 4.80031e-05 -1.00532e-05
-0.000155799 4.67519e-05 4.67345e-05 -1.00533e-05
-0.000176934 5.30969e-05 5.30732e-05 1.64006e-11
-0.000167069 5.01369e-05 5.01136e-05 1.78382e-11
-0.000119159 3.57573e-05 3.57437e-05 -1.85607e-05
-0.000126207 3.78708e-05 3.78582e-05 -1.85603e-05
-0.000172002 5.16169e-05 5.15934e-05 1.22777e-11
-0.000143114 4.29468e-05 4.29288e-05 -1.00537e-05
-0.000122683 3.6814e-05 3.6801e-05 -1.85605e-05
-0.000151571 4.54835e-05 4.54659e-05 -1.00534e-05
-0.000147342 4.42152e-05 4.41974e-05 -1.00536e-05
-0.000167069 5.01369e-05 5.01136e-05 1.78382e-11
-0.000157202 4.71768e-05 4.71538e-05 5.91614e-12
-0.000112112 3.36437e-05 3.36292e-05 -1.85612e-05
-0.000119159 3.57573e-05 3.57437e-05 -1.85607e-05
-0.000162135 4.86569e-05 4.86337e-05 3.25325e-11
-0.000134657 4.04101e-05 4.03916e-05 -1.00542e-05
-0.000115636 3.47005e-05 3.46864e-05 -1.8561e-05
-0.000143114 4.29468e-05 4.29288e-05 -1.00537e-05
-0.000138886 4.16785e-05 4.16602e-05 -1.0054e-05
-0.000157202 4.71768e-05 4.71538e-05 5.91614e-12
-0.000147335 4.42165e-05 4.41937e-05 -1.09463e-11
-0.000105065 3.15298e-05 3.15149e-05 -1.85614e-05
-0.000112112 3.36437e-05 3.36292e-05 -1.85612e-05
-0.000152269 4.56967e-05 4.56738e-05 -3.13339e-11
-0.0001262 3.78732e-05 3.78544e-05 -1.00546e-05
-0.000108588 3.25868e-05 3.2572e-05 -1.85614e-05
-0.000134657 4.04101e-05 4.03916e-05 -1.00542e-05
-0.000130429 3.91417e-05 3.9123e-05 -1.00544e-05
-0.000147335 4.42165e-05 4.41937e-05 -1.09463e-11
-0.000137468 4.12559e-05 4.12336e-05 -1.67127e-10
-9.80174e-05 2.94151e-05 2.9401e-05 -1.85608e-05
-0.000105065 3.15298e-05 3.15149e-05 -1.85614e-05
-0.000142401 4.27361e-05 4.27137e-05 1.56962e-11
-0.000117744 3.53362e-05 3.53175e-05 -1.00545e-05
-0.000101541 3.04726e-05 3.04579e-05 -1.85613e-05
-0.0001262 3.78732e-05 3.78544e-05 -1.00546e-05
-0.000121972 3.66048e-05 3.65859e-05 -1.00547e-05
-0.000137468 4.12559e-05 4.12336e-05 -1.67157e-10
-0.0001276 3.82955e-05 3.82731e-05 -2.49177e-10
-9.09705e-05 2.72984e-05 2.72881e-05 -1.85572e-05
-9.80174e-05 2.94151e-05 2.9401e-05 -1.85608e-05
-0.000132534 3.97758e-05 3.97534e-05 -3.64917e-10
-0.000109288 3.27991e-05 3.2781e-05 -1.00526e-05
-9.44939e-05 2.83571e-05 2.83443e-05 -1.85596e-05
-0.000117744 3.53362e-05 3.53175e-05 -1.00545e-05
-0.000113516 3.40677e-05 3.40492e-05 -1.00539e-05
-0.0001276 3.82955e-05 3.82731e-05 -2.49177e-10
-0.000117735 3.53351e-05 3.53141e-05 -1.14974e-09
-8.39226e-05 2.51774e-05 2.51765e-05 -1.85474e-05
-9.09705e-05 2.72984e-05 2.72881e-05 -1.85572e-05
-0.000122666 3.68147e-05 3.67935e-05 -2.25493e-10
-0.000100836 3.02617e-05 3.02462e-05 -1.00466e-05
-8.74469e-05 2.62386e-05 2.62321e-05 -1.85534e-05
-0.000109288 3.27991e-05 3.2781e-05 -1.00526e-05
-0.000105061 3.15304e-05 3.15132e-05 -1.00504e-05
-0.000117735 3.53351e-05 3.53141e-05 -1.14974e-09
-0.000107876 3.23798e-05 3.23555e-05 -1.28132e-09
-7.68748e-05 2.30477e-05 2.30688e-05 -1.85225e-05
-8.39226e-05 2.51774e-05 2.51765e-05 -1.85474e-05
-0.000112805 3.38578e-05 3.38343e-05 -2.00552e-09
-9.23913e-05 2.77243e-05 2.77144e-05 -1.00301e-05
-8.03984e-05 2.41139e-05 2.41219e-05 -1.85377e-05
-0.000100836 3.02617e-05 3.02462e-05 -1.00466e-05
-9.66128e-05 2.89929e-05 2.89799e-05 -1.004e-05
-0.000107876 3.23798e-05 3.23555e-05 -1.28138e-09
-9.80453e-05 2.94269e-05 2.94079e-05 -5.33288e-09
-6.9821e-05 2.09021e-05 2.09653e-05 -1.84707e-05
-7.68748e-05 2.30477e-05 2.30688e-05 -1.85225e-05
-0.000102954 3.08997e-05 3.08806e-05 -1.27714e-09
-8.39665e-05 2.51875e-05 2.5191e-05 -9.99309e-06
-7.33498e-05 2.19778e-05 2.20166e-05 -1.85009e-05
-9.23913e-05 2.77243e-05 2.77144e-05 -1.00301e-05
-8.81748e-05 2.64559e-05 2.6451e-05 -1.00156e-05
-9.80453e-05 2.94269e-05 2.94079e-05 -5.33288e-09
-8.82597e-05 2.65056e-05 2.64661e-05 -4.56901e-09
-6.27644e-05 1.87261e-05 1.88736e-05 -1.83624e-05
-6.9821e-05 2.09021e-05 2.09653e-05 -1.84707e-05
-9.31476e-05 2.79678e-05 2.79342e-05 -8.72023e-09
-7.55737e-05 2.26523e-05 2.26806e-05 -9.91417e-06
-6.62915e-05 1.98182e-05 1.99171e-05 -1.84265e-05
-8.39665e-05 2.51875e-05 2.5191e-05 -9.99309e-06
-7.97662e-05 2.39192e-05 2.39344e-05 -9.95959e-06
-8.82597e-05 2.65056e-05 2.64661e-05 -4.56901e-09
-7.86133e-05 2.35946e-05 2.35794e-05 -2.03966e-08
-5.56752e-05 1.6503e-05 1.67881e-05 -1.81678e-05
-6.27644e-05 1.87261e-05 1.88736e-05 -1.83624e-05
-8.34066e-05 2.5032e-05 2.50177e-05 -3.88403e-09
-6.72597e-05 2.0123e-05 2.02015e-05 -9.75871e-06
-5.92292e-05 1.7624e-05 1.78308e-05 -1.82779e-05
-7.55737e-05 2.26523e-05 2.26806e-05 -9.91417e-06
-7.14009e-05 2.13876e-05 2.14343e-05 -9.85212e-06
-7.86133e-05 2.35946e-05 2.35794e-05 -2.03966e-08
-6.91705e-05 2.08366e-05 2.07146e-05 -1.24701e-08
-4.85623e-05 1.41917e-05 1.47303e-05 -1.78094e-05
-5.56752e-05 1.6503e-05 1.67881e-05 -1.81678e-05
-7.38708e-05 2.22252e-05 2.21338e-05 -3.39674e-08
-5.90486e-05 1.75986e-05 1.77643e-05 -9.47109e-06
-5.21153e-05 1.53561e-05 1.57539e-05 -1.80166e-05
-6.72597e-05 2.0123e-05 2.02015e-05 -9.75871e-06
-6.31442e-05 1.88574e-05 1.89801e-05 -9.62993e-06
-6.91705e-05 2.08366e-05 2.07146e-05 -1.24701e-08
-6.02602e-05 1.80839e-05 1.80756e-05 -6.84161e-08
-4.12931e-05 1.17816e-05 1.26478e-05 -1.72577e-05
-4.85623e-05 1.41917e-05 1.47303e-05 -1.78094e-05
-6.46033e-05 1.93804e-05 1.93812e-05 -3.198e-09
-5.10866e-05 1.51004e-05 1.54227e-05 -8.94885e-06
-4.49702e-05 1.3012e-05 1.36964e-05 -1.7558e-05
-5.90486e-05 1.75986e-05 1.77643e-05 -9.47109e-06
-5.50153e-05 1.63514e-05 1.65702e-05 -9.26364e-06
-6.02602e-05 1.80839e-05 1.80756e-05 -6.84161e-08
-5.21031e-05 1.59913e-05 1.54764e-05 -2.30952e-08
-3.3877e-05 9.17342e-06 1.05873e-05 -1.63956e-05
-4.12931e-05 1.17816e-05 1.26478e-05 -1.72577e-05
-5.61054e-05 1.70977e-05 1.67176e-05 -1.27693e-07
-4.33308e-05 1.25937e-05 1.3173e-05 -8.11746e-06
-3.75792e-05 1.04783e-05 1.16147e-05 -1.68758e-05
-5.10866e-05 1.51004e-05 1.54227e-05 -8.94885e-06
-4.72095e-05 1.38362e-05 1.43028e-05 -8.54671e-06
-5.21031e-05 1.59913e-05 1.54764e-05 -2.30952e-08
-4.56166e-05 1.36838e-05 1.36855e-05 -1.8811e-07
-2.57963e-05 6.5776e-06 8.2366e-06 -1.54693e-05
-3.3877e-05 9.17342e-06 1.05873e-05 -1.63956e-05
-4.85183e-05 1.451e-05 1.4575e-05 5.60309e-08
-3.61605e-05 1.01622e-05 1.11422e-05 -6.74092e-06
-3.00087e-05 7.91635e-06 9.46815e-06 -1.59135e-05
-4.33308e-05 1.25937e-05 1.3173e-05 -8.11746e-06
-3.95985e-05 1.13943e-05 1.20875e-05 -7.58798e-06
-4.56166e-05 1.36838e-05 1.36855e-05 -1.8811e-07
-4.1799e-05 1.39446e-05 1.19376e-05 3.07521e-07
-1.71093e-05 4.00818e-06 5.61475e-06 -1.48835e-05
-2.57963e-05 6.5776e-06 8.2366e-06 -1.54693e-05
-4.33821e-05 1.41818e-05 1.25144e-05 -4.1159e-07
-2.86794e-05 7.54134e-06 9.05919e-06 -5.24988e-06
-2.14324e-05 5.11417e-06 6.99351e-06 -1.50729e-05
-3.61605e-05 1.01622e-05 1.11422e-05 -6.74092e-06
-3.26448e-05 8.8397e-06 1.02022e-05 -5.82302e-06
-4.1799e-05 1.39446e-05 1.19376e-05 3.07521e-07
-4.39838e-05 1.19618e-05 1.37237e-05 1.82833e-06
-7.04548e-06 4.23496e-06 1.20451e-06 -1.73765e-05
-1.71093e-05 4.00818e-06 5.61475e-06 -1.48835e-05
-4.17165e-05 1.16888e-05 1.2869e-05 1.30265e-06
-2.06918e-05 5.35774e-06 6.57172e-06 -4.35919e-06
-1.2442e-05 3.73712e-06 3.73065e-06 -1.548e-05
-2.86794e-05 7.54134e-06 9.05919e-06 -5.24988e-06
-2.45874e-05 6.38832e-06 7.79959e-06 -4.91907e-06
-4.39838e-05 1.19618e-05 1.37237e-05 1.82833e-06
-5.9867e-05 1.19579e-05 2.05325e-05 1.41433e-05
-2.35719e-06 1.58176e-05 -5.76875e-06 -2.64202e-05
-7.04548e-06 4.23496e-06 1.20451e-06 -1.73765e-05
-4.96757e-05 1.67492e-05 1.41114e-05 3.82474e-06
-4.35504e-06 9.82905e-06 -2.34601e-06 -1.53931e-05
-2.99285e-06 6.43574e-06 -1.47552e-06 -2.06155e-05
-2.06918e-05 5.35774e-06 6.57172e-06 -4.35919e-06
-1.4709e-05 5.19079e-06 4.07925e-06 -6.47341e-06
-5.9867e-05 1.19579e-05 2.05325e-05 1.41433e-05
-3.31422e-05 9.20925e-05 -2.52644e-05 -7.2167e-05
-2.12427e-05 7.01032e-05 -2.09402e-05 -2.65928e-05
-2.35719e-06 1.58176e-05 -5.76875e-06 -2.64202e-05
-5.94133e-05 3.33975e-06 2.40315e-05 6.04139e-06
-1.89235e-05 8.62294e-05 -2.88454e-05 -4.27583e-05
-7.61502e-06 3.7435e-05 -1.278e-05 -3.10506e-05
-4.35504e-06 9.82905e-06 -2.34601e-06 -1.53931e-05
-1.72712e-06 2.82317e-05 -1.13591e-05 -2.83885e-05
-0.00118375 0 0.00050732 -6.73836e-05
-0.00133291 0.000264407 0.000457928 -9.88842e-05
-0.000772436 0.000101766 0.00028743 -2.84709e-06
-0.000683178 0 0.000292791 8.97982e-05
-0.0012675 0.000124955 0.00048966 -0.000114772
-0.00102975 0.000159398 0.000373008 -4.08654e-05
-0.000740228 5.72128e-05 0.000292721 3.38508e-05
-0.000969517 0 0.000415507 1.44392e-05
-0.000985951 8.83576e-05 0.000384683 -1.28506e-05
-0.00133291 0.000264407 0.000457928 -9.88842e-05
-0.00138482 0.000374768 0.00043288 -4.69784e-05
-0.000811813 0.000186132 0.000268149 -3.16844e-05
-0.000772436 0.000101766 0.00028743 -2.84709e-06
-0.00137401 0.000342358 0.000442136 -7.12355e-05
-0.00109818 0.000270532 0.000354707 -4.7783e-05
-0.000792178 0.000146638 0.00027666 -2.1434e-05
-0.00102975 0.000159398 0.000373008 -4.08654e-05
-0.00107559 0.000221862 0.000365885 -5.36936e-05
-0.00138482 0.000374768 0.00043288 -4.69784e-05
-0.00137808 0.000405603 0.000416776 -1.74392e-05
-0.000831727 0.00022861 0.000258479 -3.72647e-05
-0.000811813 0.000186132 0.000268149 -3.16844e-05
-0.00138097 0.000393954 0.000423007 -2.75666e-05
-0.00110911 0.000315035 0.00034032 -3.20856e-05
-0.000826582 0.000212517 0.000263171 -3.67347e-05
-0.00109818 0.000270532 0.000354707 -4.7783e-05
-0.0011064 0.000299615 0.000345763 -3.77596e-05
-0.00137808 0.000405603 0.000416776 -1.74392e-05
-0.00136836 0.000409748 0.000410833 -1.09364e-05
-0.000830913 0.000245225 0.000251009 -3.44961e-05
-0.000831727 0.00022861 0.000258479 -3.72647e-05
-0.00137444 0.000409662 0.000413477 -1.3057e-05
-0.0011037 0.000329163 0.000331945 -2.44335e-05
-0.000831692 0.000239052 0.000253988 -3.57105e-05
-0.00110911 0.000315035 0.00034032 -3.20856e-05
-0.00110775 0.000324251 0.000335784 -2.79708e-05
-0.00136836 0.000409748 0.000410833 -1.09364e-05
-0.00135715 0.000409 0.000406348 -1.07061e-05
-0.00082505 0.000248324 0.000247168 -3.2631e-05
-0.000830913 0.000245225 0.000251009 -3.44961e-05
-0.0013619 0.000409503 0.00040817 -1.01686e-05
-0.00109355 0.00032989 0.000327282 -2.20766e-05
-0.000828872 0.000247856 0.000249007 -3.3573e-05
-0.0011037 0.000329163 0.000331945 -2.44335e-05
-0.00109847 0.000330502 0.000329131 -2.24493e-05
-0.00135715 0.000409 0.000406348 -1.07061e-05
-0.00134863 0.000405967 0.000404 -1.29872e-05
-0.000816819 0.000247005 0.000244206 -3.1384e-05
-0.00082505 0.000248324 0.000247168 -3.2631e-05
-0.00135307 0.000407673 0.000405169 -1.19085e-05
-0.00108421 0.000327537 0.000324288 -2.23004e-05
-0.000820636 0.000247927 0.000245447 -3.18093e-05
-0.00109355 0.00032989 0.000327282 -2.20766e-05
-0.00108883 0.000328841 0.000325708 -2.21842e-05
-0.00134863 0.000405967 0.000404 -1.29872e-05
-0.0013404 0.00040302 0.000401733 -1.48888e-05
-0.000809657 0.000244216 0.000242332 -3.10128e-05
-0.000816819 0.000247005 0.000244206 -3.1384e-05
-0.00134427 0.000404433 0.000402788 -1.39417e-05
-0.0010758 0.000324177 0.000322125 -2.31656e-05
-0.000813269 0.000245687 0.000243249 -3.11816e-05
-0.00108421 0.000327537 0.000324288 -2.23004e-05
-0.00107982 0.000325902 0.000323109 -2.26388e-05
-0.0013404 0.00040302 0.000401733 -1.48888e-05
-0.001333 0.00040016 0.000399786 -1.6431e-05
-0.000803142 0.000241506 0.000240701 -3.08524e-05
-0.000809657 0.000244216 0.000242332 -3.10128e-05
-0.00133673 0.00040158 0.000400779 -1.57627e-05
-0.00106849 0.000321175 0.000320277 -2.4016e-05
-0.000806207 0.000242814 0.000241454 -3.08885e-05
-0.0010758 0.000324177 0.000322125 -2.31656e-05
-0.00107205 0.000322609 0.000321191 -2.36493e-05
-0.001333 0.00040016 0.000399786 -1.6431e-05
-0.00132568 0.000397578 0.000397757 -1.73631e-05
-0.000797586 0.000239137 0.000239335 -3.08614e-05
-0.000803142 0.000241506 0.000240701 -3.08524e-05
-0.00132928 0.000398834 0.000398762 -1.69434e-05
-0.00106184 0.000318517 0.000318567 -2.4642e-05
-0.000800316 0.000240276 0.000240017 -3.08594e-05
-0.00106849 0.000321175 0.000320277 -2.4016e-05
-0.00106509 0.000319805 0.000319407 -2.43449e-05
-0.00132568 0.000397578 0.000397757 -1.73631e-05
-0.00131856 0.000395167 0.000395739 -1.79475e-05
-0.000792523 0.000237163 0.000238011 -3.08785e-05
-0.000797586 0.000239137 0.000239335 -3.08614e-05
-0.00132213 0.000396356 0.000396758 -1.77019e-05
-0.00105565 0.000316241 0.000316889 -2.50427e-05
-0.000794979 0.000238105 0.00023866 -3.08643e-05
-0.00106184 0.000318517 0.000318567 -2.4642e-05
-0.00105871 0.000317337 0.00031773 -2.48747e-05
-0.00131856 0.000395167 0.000395739 -1.79475e-05
-0.00131145 0.000392887 0.00039367 -1.82575e-05
-0.000787857 0.000235471 0.000236737 -3.09075e-05
-0.000792523 0.000237163 0.000238011 -3.08785e-05
-0.00131499 0.000394013 0.000394705 -1.81244e-05
-0.00104971 0.000314201 0.000315219 -2.52798e-05
-0.000790166 0.000236288 0.000237376 -3.08961e-05
-0.00105565 0.000316241 0.000316889 -2.50427e-05
-0.00105266 0.000315198 0.000316053 -2.51751e-05
-0.00131145 0.000392887 0.00039367 -1.82575e-05
-0.00130438 0.000390683 0.000391585 -1.8426e-05
-0.000783382 0.000233971 0.000235462 -3.09235e-05
-0.000787857 0.000235471 0.000236737 -3.09075e-05
-0.00130792 0.000391778 0.000392632 -1.83573e-05
-0.00104392 0.000312325 0.00031354 -2.54083e-05
-0.000785597 0.000234702 0.000236098 -3.09157e-05
-0.00104971 0.000314201 0.000315219 -2.52798e-05
-0.0010468 0.000313247 0.000314381 -2.53559e-05
-0.00130438 0.000390683 0.000391585 -1.8426e-05
-0.00129732 0.000388525 0.000389481 -1.8505e-05
-0.000779032 0.000232583 0.000234192 -3.09341e-05
-0.000783382 0.000233971 0.000235462 -3.09235e-05
-0.00130085 0.0003896 0.000390534 -1.84725e-05
-0.0010382 0.000310539 0.000311854 -2.54742e-05
-0.000781199 0.000233266 0.000234828 -3.09301e-05
-0.00104392 0.000312325 0.00031354 -2.54083e-05
-0.00104105 0.000311424 0.000312698 -2.54464e-05
-0.00129732 0.000388525 0.000389481 -1.8505e-05
-0.00129025 0.000386391 0.00038737 -1.85418e-05
-0.000774736 0.00023126 0.000232918 -3.09384e-05
-0.000779032 0.000232583 0.000234192 -3.09341e-05
-0.00129379 0.000387456 0.000388427 -1.85275e-05
-0.00103252 0.000308806 0.000310162 -2.55046e-05
-0.000776878 0.000231916 0.000233555 -3.09366e-05
-0.0010382 0.000310539 0.000311854 -2.54742e-05
-0.00103536 0.000309668 0.000311009 -2.54928e-05
-0.00129025 0.000386391 0.00038737 -1.85418e-05
-0.00128319 0.00038427 0.000385252 -1.85556e-05
-0.000770472 0.000229971 0.000231643 -3.094e-05
-0.000774736 0.00023126 0.000232918 -3.09384e-05
-0.00128672 0.000385329 0.000386311 -1.85504e-05
-0.00102685 0.000307098 0.000308466 -2.55174e-05
-0.000772602 0.000230613 0.000232281 -3.09396e-05
-0.00103252 0.000308806 0.000310162 -2.55046e-05
-0.00102968 0.00030795 0.000309315 -2.55124e-05
-0.00128319 0.00038427 0.000385252 -1.85556e-05
-0.00127613 0.000382155 0.000383132 -1.856e-05
-0.000766219 0.000228699 0.000230366 -3.09399e-05
-0.000770472 0.000229971 0.000231643 -3.094e-05
-0.00127966 0.000383212 0.000384192 -1.85586e-05
-0.0010212 0.000305404 0.000306768 -2.55215e-05
-0.000768344 0.000229334 0.000231004 -3.094e-05
-0.00102685 0.000307098 0.000308466 -2.55174e-05
-0.00102402 0.00030625 0.000307618 -2.55202e-05
-0.00127613 0.000382155 0.000383132 -1.856e-05
-0.00126907 0.000380043 0.000381011 -1.85601e-05
-0.000761972 0.000227435 0.000229088 -3.09392e-05
-0.000766219 0.000228699 0.000230366 -3.09399e-05
-0.0012726 0.000381098 0.000382072 -1.85603e-05
-0.00101554 0.000303716 0.000305068 -2.5522e-05
-0.000764096 0.000228066 0.000229727 -3.09396e-05
-0.0010212 0.000305404 0.000306768 -2.55215e-05
-0.00101837 0.00030456 0.000305918 -2.5522e-05
-0.00126907 0.000380043 0.000381011 -1.85601e-05
-0.00126201 0.000377931 0.000378889 -1.85591e-05
-0.000757727 0.000226173 0.000227809 -3.09384e-05
-0.000761972 0.000227435 0.000229088 -3.09392e-05
-0.00126554 0.000378987 0.00037995 -1.85597e-05
-0.00100989 0.00030203 0.000303368 -2.55213e-05
-0.00075985 0.000226804 0.000228448 -3.09388e-05
-0.00101554 0.000303716 0.000305068 -2.5522e-05
-0.00101272 0.000302873 0.000304218 -2.55218e-05
-0.00126201 0.000377931 0.000378889 -1.85591e-05
-0.00125494 0.000375821 0.000376767 -1.8558e-05
-0.000753483 0.000224913 0.00022653 -3.09377e-05
-0.000757727 0.000226173 0.000227809 -3.09384e-05
-0.00125848 0.000376876 0.000377828 -1.85585e-05
-0.00100424 0.000300345 0.000301667 -2.55204e-05
-0.000755605 0.000225543 0.000227169 -3.0938e-05
-0.00100989 0.00030203 0.000303368 -2.55213e-05
-0.00100706 0.000301187 0.000302518 -2.55208e-05
-0.00125494 0.000375821 0.000376767 -1.8558e-05
-0.00124788 0.00037371 0.000374645 -1.85571e-05
-0.000749238 0.000223653 0.000225251 -3.09372e-05
-0.000753483 0.000224913 0.00022653 -3.09377e-05
-0.00125141 0.000374765 0.000375706 -1.85575e-05
-0.000998582 0.00029866 0.000299967 -2.55196e-05
-0.00075136 0.000224283 0.00022589 -3.09374e-05
-0.00100424 0.000300345 0.000301667 -2.55204e-05
-0.00100141 0.000299502 0.000300817 -2.552e-05
-0.00124788 0.00037371 0.000374645 -1.85571e-05
-0.00124082 0.000371599 0.000372524 -1.85564e-05
-0.000744993 0.000222393 0.000223971 -3.09369e-05
-0.000749238 0.000223653 0.000225251 -3.09372e-05
-0.00124435 0.000372655 0.000373584 -1.85567e-05
-0.000992929 0.000296975 0.000298266 -2.5519e-05
-0.000747116 0.000223023 0.000224611 -3.0937e-05
-0.000998582 0.00029866 0.000299967 -2.55196e-05
-0.000995755 0.000297817 0.000299116 -2.55193e-05
-0.00124082 0.000371599 0.000372524 -1.85564e-05
-0.00123376 0.000369489 0.000370402 -1.85561e-05
-0.000740748 0.000221132 0.000222692 -3.09367e-05
-0.000744993 0.000222393 0.000223971 -3.09369e-05
-0.00123729 0.000370544 0.000371463 -1.85562e-05
-0.000987275 0.000295289 0.000296565 -2.55187e-05
-0.000742871 0.000221763 0.000223332 -3.09367e-05
-0.000992929 0.000296975 0.000298266 -2.5519e-05
-0.000990102 0.000296132 0.000297416 -2.55189e-05
-0.00123376 0.000369489 0.000370402 -1.85561e-05
-0.0012267 0.000367378 0.00036828 -1.85559e-05
-0.000736503 0.000219872 0.000221413 -3.09365e-05
-0.000740748 0.000221132 0.000222692 -3.09367e-05
-0.00123023 0.000368433 0.000369341 -1.8556e-05
-0.000981621 0.000293604 0.000294865 -2.55185e-05
-0.000738625 0.000220502 0.000222053 -3.09366e-05
-0.000987275 0.000295289 0.000296565 -2.55187e-05
-0.000984448 0.000294447 0.000295715 -2.55186e-05
-0.0012267 0.000367378 0.00036828 -1.85559e-05
-0.00121964 0.000365267 0.000366158 -1.85559e-05
-0.000732258 0.000218611 0.000220134 -3.09365e-05
-0.000736503 0.000219872 0.000221413 -3.09365e-05
-0.00122317 0.000366322 0.000367219 -1.85559e-05
-0.000975968 0.000291918 0.000293164 -2.55185e-05
-0.00073438 0.000219241 0.000220774 -3.09365e-05
-0.000981621 0.000293604 0.000294865 -2.55185e-05
-0.000978795 0.000292761 0.000294014 -2.55185e-05
-0.00121964 0.000365267 0.000366158 -1.85559e-05
-0.00121257 0.000363156 0.000364037 -1.85559e-05
-0.000728012 0.00021735 0.000218855 -3.09365e-05
-0.000732258 0.000218611 0.000220134 -3.09365e-05
-0.00121611 0.000364211 0.000365098 -1.85559e-05
-0.000970314 0.000290232 0.000291464 -2.55185e-05
-0.000730135 0.00021798 0.000219495 -3.09365e-05
-0.000975968 0.000291918 0.000293164 -2.55185e-05
-0.000973141 0.000291075 0.000292314 -2.55185e-05
-0.00121257 0.000363156 0.000364037 -1.85559e-05
-0.00120551 0.000361045 0.000361915 -1.85559e-05
-0.000723767 0.000216089 0.000217577 -3.09365e-05
-0.000728012 0.00021735 0.000218855 -3.09365e-05
-0.00120904 0.0003621 0.000362976 -1.85559e-05
-0.000964661 0.000288546 0.000289763 -2.55185e-05
-0.00072589 0.000216719 0.000218216 -3.09365e-05
-0.000970314 0.000290232 0.000291464 -2.55185e-05
-0.000967488 0.000289389 0.000290614 -2.55185e-05
-0.00120551 0.000361045 0.000361915 -1.85559e-05
-0.00119845 0.000358934 0.000359794 -1.8556e-05
-0.000719522 0.000214827 0.000216298 -3.09365e-05
-0.000723767 0.000216089 0.000217577 -3.09365e-05
-0.00120198 0.000359989 0.000360855 -1.85559e-05
-0.000959008 0.000286861 0.000288063 -2.55185e-05
-0.000721645 0.000215458 0.000216937 -3.09365e-05
-0.000964661 0.000288546 0.000289763 -2.55185e-05
-0.000961834 0.000287704 0.000288913 -2.55185e-05
-0.00119845 0.000358934 0.000359794 -1.8556e-05
-0.00119139 0.000356823 0.000357672 -1.8556e-05
-0.000715277 0.000213566 0.000215019 -3.09366e-05
-0.000719522 0.000214827 0.000216298 -3.09365e-05
-0.00119492 0.000357878 0.000358733 -1.8556e-05
-0.000953354 0.000285175 0.000286363 -2.55186e-05
-0.0007174 0.000214197 0.000215658 -3.09366e-05
-0.000959008 0.000286861 0.000288063 -2.55185e-05
-0.000956181 0.000286018 0.000287213 -2.55186e-05
-0.00119139 0.000356823 0.000357672 -1.8556e-05
-0.00118433 0.000354712 0.000355551 -1.85561e-05
-0.000711032 0.000212305 0.00021374 -3.09366e-05
-0.000715277 0.000213566 0.000215019 -3.09366e-05
-0.00118786 0.000355767 0.000356612 -1.8556e-05
-0.000947701 0.000283489 0.000284662 -2.55186e-05
-0.000713155 0.000212936 0.00021438 -3.09366e-05
-0.000953354 0.000285175 0.000286363 -2.55186e-05
-0.000950528 0.000284332 0.000285513 -2.55186e-05
-0.00118433 0.000354712 0.000355551 -1.85561e-05
-0.00117727 0.0003526 0.00035343 -1.85561e-05
-0.000706788 0.000211044 0.000212462 -3.09366e-05
-0.000711032 0.000212305 0.00021374 -3.09366e-05
-0.0011808 0.000353656 0.00035449 -1.85561e-05
-0.000942048 0.000281803 0.000282962 -2.55187e-05
-0.00070891 0.000211674 0.000213101 -3.09366e-05
-0.000947701 0.000283489 0.000284662 -2.55186e-05
-0.000944875 0.000282646 0.000283812 -2.55187e-05
-0.00117727 0.0003526 0.00035343 -1.85561e-05
-0.00117021 0.000350489 0.000351308 -1.85562e-05
-0.000702543 0.000209782 0.000211183 -3.09366e-05
-0.000706788 0.000211044 0.000212462 -3.09366e-05
-0.00117374 0.000351545 0.000352369 -1.85561e-05
-0.000936395 0.000280117 0.000281262 -2.55187e-05
-0.000704665 0.000210413 0.000211823 -3.09366e-05
-0.000942048 0.000281803 0.000282962 -2.55187e-05
-0.000939222 0.00028096 0.000282112 -2.55187e-05
-0.00117021 0.000350489 0.000351308 -1.85562e-05
-0.00116315 0.000348378 0.000349187 -1.85562e-05
-0.000698299 0.000208521 0.000209905 -3.09367e-05
-0.000702543 0.000209782 0.000211183 -3.09366e-05
-0.00116668 0.000349434 0.000350248 -1.85562e-05
-0.000930742 0.000278431 0.000279562 -2.55188e-05
-0.000700421 0.000209151 0.000210544 -3.09367e-05
-0.000936395 0.000280117 0.000281262 -2.55187e-05
-0.000933569 0.000279274 0.000280412 -2.55188e-05
-0.00116315 0.000348378 0.000349187 -1.85562e-05
-0.00115609 0.000346267 0.000347066 -1.85563e-05
-0.000694054 0.000207259 0.000208626 -3.09367e-05
-0.000698299 0.000208521 0.000209905 -3.09367e-05
-0.00115962 0.000347323 0.000348126 -1.85562e-05
-0.000925089 0.000276745 0.000277862 -2.55188e-05
-0.000696176 0.00020789 0.000209266 -3.09367e-05
-0.000930742 0.000278431 0.000279562 -2.55188e-05
-0.000927916 0.000277588 0.000278712 -2.55188e-05
-0.00115609 0.000346267 0.000347066 -1.85563e-05
-0.00114903 0.000344156 0.000344945 -1.85563e-05
-0.00068981 0.000205998 0.000207348 -3.09367e-05
-0.000694054 0.000207259 0.000208626 -3.09367e-05
-0.00115256 0.000345211 0.000346005 -1.85563e-05
-0.000919437 0.000275058 0.000276162 -2.55188e-05
-0.000691932 0.000206629 0.000207987 -3.09367e-05
-0.000925089 0.000276745 0.000277862 -2.55188e-05
-0.000922263 0.000275902 0.000277012 -2.55188e-05
-0.00114903 0.000344156 0.000344945 -1.85563e-05
-0.00114197 0.000342045 0.000342823 -1.85563e-05
-0.000685566 0.000204736 0.00020607 -3.09367e-05
-0.00068981 0.000205998 0.000207348 -3.09367e-05
-0.0011455 0.0003431 0.000343884 -1.85563e-05
-0.000913784 0.000273372 0.000274462 -2.55189e-05
-0.000687688 0.000205367 0.000206709 -3.09367e-05
-0.000919437 0.000275058 0.000276162 -2.55188e-05
-0.00091661 0.000274215 0.000275312 -2.55188e-05
-0.00114197 0.000342045 0.000342823 -1.85563e-05
-0.00113491 0.000339934 0.000340702 -1.85564e-05
-0.000681321 0.000203475 0.000204791 -3.09367e-05
-0.000685566 0.000204736 0.00020607 -3.09367e-05
-0.00113844 0.000340989 0.000341763 -1.85564e-05
-0.000908132 0.000271686 0.000272762 -2.55189e-05
-0.000683443 0.000204105 0.000205431 -3.09367e-05
-0.000913784 0.000273372 0.000274462 -2.55189e-05
-0.000910958 0.000272529 0.000273612 -2.55189e-05
-0.00113491 0.000339934 0.000340702 -1.85564e-05
-0.00112785 0.000337822 0.000338581 -1.85564e-05
-0.000677077 0.000202213 0.000203513 -3.09367e-05
-0.000681321 0.000203475 0.000204791 -3.09367e-05
-0.00113138 0.000338878 0.000339642 -1.85564e-05
-0.000902479 0.00027 0.000271063 -2.55189e-05
-0.000679199 0.000202844 0.000204152 -3.09367e-05
-0.000908132 0.000271686 0.000272762 -2.55189e-05
-0.000905305 0.000270843 0.000271912 -2.55189e-05
-0.00112785 0.000337822 0.000338581 -1.85564e-05
-0.00112078 0.000335711 0.00033646 -1.85564e-05
-0.000672833 0.000200951 0.000202235 -3.09367e-05
-0.000677077 0.000202213 0.000203513 -3.09367e-05
-0.00112432 0.000336767 0.000337521 -1.85564e-05
-0.000896827 0.000268314 0.000269363 -2.55189e-05
-0.000674955 0.000201582 0.000202874 -3.09367e-05
-0.000902479 0.00027 0.000271063 -2.55189e-05
-0.000899653 0.000269157 0.000270213 -2.55189e-05
-0.00112078 0.000335711 0.00033646 -1.85564e-05
-0.00111372 0.0003336 0.000334339 -1.85565e-05
-0.00066859 0.00019969 0.000200957 -3.09367e-05
-0.000672833 0.000200951 0.000202235 -3.09367e-05
-0.00111725 0.000334655 0.0003354 -1.85565e-05
-0.000891175 0.000266627 0.000267663 -2.55189e-05
-0.000670712 0.000200321 0.000201596 -3.09367e-05
-0.000896827 0.000268314 0.000269363 -2.55189e-05
-0.000894001 0.000267471 0.000268513 -2.55189e-05
-0.00111372 0.0003336 0.000334339 -1.85565e-05
-0.00110666 0.000331489 0.000332218 -1.85565e-05
-0.000664346 0.000198428 0.000199679 -3.09366e-05
-0.00066859 0.00019969 0.000200957 -3.09367e-05
-0.00111019 0.000332544 0.000333279 -1.85565e-05
-0.000885522 0.000264941 0.000265963 -2.5519e-05
-0.000666468 0.000199059 0.000200318 -3.09367e-05
-0.000891175 0.000266627 0.000267663 -2.55189e-05
-0.000888349 0.000265784 0.000266813 -2.55189e-05
-0.00110666 0.000331489 0.000332218 -1.85565e-05
-0.0010996 0.000329377 0.000330097 -1.85565e-05
-0.000660102 0.000197166 0.000198401 -3.09366e-05
-0.000664346 0.000198428 0.000199679 -3.09366e-05
-0.00110313 0.000330433 0.000331158 -1.85565e-05
-0.00087987 0.000263255 0.000264264 -2.5519e-05
-0.000662224 0.000197797 0.00019904 -3.09366e-05
-0.000885522 0.000264941 0.000265963 -2.5519e-05
-0.000882696 0.000264098 0.000265114 -2.5519e-05
-0.0010996 0.000329377 0.000330097 -1.85565e-05
-0.00109254 0.000327266 0.000327977 -1.85566e-05
-0.000655859 0.000195904 0.000197123 -3.09366e-05
-0.000660102 0.000197166 0.000198401 -3.09366e-05
-0.00109607 0.000328322 0.000329037 -1.85565e-05
-0.000874218 0.000261569 0.000262564 -2.5519e-05
-0.00065798 0.000196535 0.000197762 -3.09366e-05
-0.00087987 0.000263255 0.000264264 -2.5519e-05
-0.000877044 0.000262412 0.000263414 -2.5519e-05
-0.00109254 0.000327266 0.000327977 -1.85566e-05
-0.00108548 0.000325155 0.000325856 -1.85566e-05
-0.000651615 0.000194642 0.000195845 -3.09366e-05
-0.000655859 0.000195904 0.000197123 -3.09366e-05
-0.00108901 0.00032621 0.000326916 -1.85566e-05
-0.000868567 0.000259882 0.000260865 -2.5519e-05
-0.000653737 0.000195273 0.000196484 -3.09366e-05
-0.000874218 0.000261569 0.000262564 -2.5519e-05
-0.000871393 0.000260725 0.000261715 -2.5519e-05
-0.00108548 0.000325155 0.000325856 -1.85566e-05
-0.00107843 0.000323043 0.000323735 -1.85566e-05
-0.000647372 0.000193381 0.000194568 -3.09366e-05
-0.000651615 0.000194642 0.000195845 -3.09366e-05
-0.00108195 0.000324099 0.000324795 -1.85566e-05
-0.000862915 0.000258196 0.000259165 -2.5519e-05
-0.000649494 0.000194012 0.000195207 -3.09366e-05
-0.000868567 0.000259882 0.000260865 -2.5519e-05
-0.000865741 0.000259039 0.000260015 -2.5519e-05
-0.00107843 0.000323043 0.000323735 -1.85566e-05
-0.00107137 0.000320932 0.000321614 -1.85566e-05
-0.000643129 0.000192119 0.00019329 -3.09366e-05
-0.000647372 0.000193381 0.000194568 -3.09366e-05
-0.0010749 0.000321988 0.000322675 -1.85566e-05
-0.000857263 0.000256509 0.000257466 -2.5519e-05
-0.00064525 0.00019275 0.000193929 -3.09366e-05
-0.000862915 0.000258196 0.000259165 -2.5519e-05
-0.000860089 0.000257353 0.000258316 -2.5519e-05
-0.00107137 0.000320932 0.000321614 -1.85566e-05
-0.00106431 0.000318821 0.000319494 -1.85567e-05
-0.000638886 0.000190857 0.000192012 -3.09366e-05
-0.000643129 0.000192119 0.00019329 -3.09366e-05
-0.00106784 0.000319876 0.000320554 -1.85566e-05
-0.000851612 0.000254823 0.000255767 -2.5519e-05
-0.000641007 0.000191488 0.000192651 -3.09366e-05
-0.000857263 0.000256509 0.000257466 -2.5519e-05
-0.000854437 0.000255666 0.000256616 -2.5519e-05
-0.00106431 0.000318821 0.000319494 -1.85567e-05
-0.00105725 0.000316709 0.000317373 -1.85567e-05
-0.000634643 0.000189595 0.000190735 -3.09365e-05
-0.000638886 0.000190857 0.000192012 -3.09366e-05
-0.00106078 0.000317765 0.000318433 -1.85567e-05
-0.00084596 0.000253136 0.000254067 -2.5519e-05
-0.000636764 0.000190226 0.000191374 -3.09365e-05
-0.000851612 0.000254823 0.000255767 -2.5519e-05
-0.000848786 0.00025398 0.000254917 -2.5519e-05
-0.00105725 0.000316709 0.000317373 -1.85567e-05
-0.00105019 0.000314598 0.000315252 -1.85567e-05
-0.0006304 0.000188333 0.000189457 -3.09365e-05
-0.000634643 0.000189595 0.000190735 -3.09365e-05
-0.00105372 0.000315654 0.000316313 -1.85567e-05
-0.000840309 0.00025145 0.000252368 -2.5519e-05
-0.000632521 0.000188964 0.000190096 -3.09365e-05
-0.00084596 0.000253136 0.000254067 -2.5519e-05
-0.000843135 0.000252293 0.000253218 -2.5519e-05
-0.00105019 0.000314598 0.000315252 -1.85567e-05
-0.00104313 0.000312486 0.000313132 -1.85567e-05
-0.000626157 0.00018707 0.00018818 -3.09365e-05
-0.0006304 0.000188333 0.000189457 -3.09365e-05
-0.00104666 0.000313542 0.000314192 -1.85567e-05
-0.000834658 0.000249763 0.000250669 -2.5519e-05
-0.000628278 0.000187701 0.000188819 -3.09365e-05
-0.000840309 0.00025145 0.000252368 -2.5519e-05
-0.000837483 0.000250607 0.000251519 -2.5519e-05
-0.00104313 0.000312486 0.000313132 -1.85567e-05
-0.00103607 0.000310375 0.000311011 -1.85567e-05
-0.000621914 0.000185808 0.000186903 -3.09365e-05
-0.000626157 0.00018707 0.00018818 -3.09365e-05
-0.0010396 0.000311431 0.000312072 -1.85567e-05
-0.000829006 0.000248077 0.00024897 -2.55191e-05
-0.000624035 0.000186439 0.000187541 -3.09365e-05
-0.000834658 0.000249763 0.000250669 -2.5519e-05
-0.000831832 0.00024892 0.000249819 -2.55191e-05
-0.00103607 0.000310375 0.000311011 -1.85567e-05
-0.00102901 0.000308264 0.000308891 -1.85568e-05
-0.000617672 0.000184546 0.000185625 -3.09364e-05
-0.000621914 0.000185808 0.000186903 -3.09365e-05
-0.00103254 0.000309319 0.000309951 -1.85568e-05
-0.000823355 0.00024639 0.000247271 -2.55191e-05
-0.000619793 0.000185177 0.000186264 -3.09365e-05
-0.000829006 0.000248077 0.00024897 -2.55191e-05
-0.000826181 0.000247233 0.00024812 -2.55191e-05
-0.00102901 0.000308264 0.000308891 -1.85568e-05
-0.00102195 0.000306152 0.000306771 -1.85568e-05
-0.000613429 0.000183284 0.000184348 -3.09364e-05
-0.000617672 0.000184546 0.000185625 -3.09364e-05
-0.00102548 0.000307208 0.000307831 -1.85568e-05
-0.000817704 0.000244703 0.000245572 -2.55191e-05
-0.00061555 0.000183915 0.000184987 -3.09364e-05
-0.000823355 0.00024639 0.000247271 -2.55191e-05
-0.00082053 0.000245547 0.000246421 -2.55191e-05
-0.00102195 0.000306152 0.000306771 -1.85568e-05
-0.00101489 0.000304041 0.00030465 -1.85568e-05
-0.000609187 0.000182022 0.000183071 -3.09364e-05
-0.000613429 0.000183284 0.000184348 -3.09364e-05
-0.00101842 0.000305096 0.00030571 -1.85568e-05
-0.000812054 0.000243017 0.000243873 -2.55191e-05
-0.000611308 0.000182653 0.000183709 -3.09364e-05
-0.000817704 0.000244703 0.000245572 -2.55191e-05
-0.000814879 0.00024386 0.000244722 -2.55191e-05
-0.00101489 0.000304041 0.00030465 -1.85568e-05
-0.00100783 0.000301929 0.00030253 -1.85568e-05
-0.000604944 0.000180759 0.000181794 -3.09364e-05
-0.000609187 0.000182022 0.000183071 -3.09364e-05
-0.00101136 0.000302985 0.00030359 -1.85568e-05
-0.000806403 0.00024133 0.000242174 -2.55191e-05
-0.000607065 0.00018139 0.000182432 -3.09364e-05
-0.000812054 0.000243017 0.000243873 -2.55191e-05
-0.000809228 0.000242173 0.000243023 -2.55191e-05
-0.00100783 0.000301929 0.00030253 -1.85568e-05
-0.00100077 0.000299818 0.00030041 -1.85568e-05
-0.000600702 0.000179497 0.000180517 -3.09363e-05
-0.000604944 0.000180759 0.000181794 -3.09364e-05
-0.0010043 0.000300874 0.00030147 -1.85568e-05
-0.000800752 0.000239643 0.000240475 -2.55191e-05
-0.000602823 0.000180128 0.000181155 -3.09364e-05
-0.000806403 0.00024133 0.000242174 -2.55191e-05
-0.000803577 0.000240487 0.000241325 -2.55191e-05
-0.00100077 0.000299818 0.00030041 -1.85568e-05
-0.000993715 0.000297706 0.00029829 -1.85569e-05
-0.00059646 0.000178235 0.000179239 -3.09363e-05
-0.000600702 0.000179497 0.000180517 -3.09363e-05
-0.000997245 0.000298762 0.00029935 -1.85568e-05
-0.000795101 0.000237957 0.000238776 -2.55191e-05
-0.000598581 0.000178866 0.000179878 -3.09363e-05
-0.000800752 0.000239643 0.000240475 -2.55191e-05
-0.000797927 0.0002388 0.000239626 -2.55191e-05
-0.000993715 0.000297706 0.00029829 -1.85569e-05
-0.000986657 0.000295595 0.000296169 -1.85569e-05
-0.000592218 0.000176972 0.000177963 -3.09363e-05
-0.00059646 0.000178235 0.000179239 -3.09363e-05
-0.000990186 0.00029665 0.000297229 -1.85569e-05
-0.000789451 0.00023627 0.000237078 -2.55191e-05
-0.000594339 0.000177603 0.000178601 -3.09363e-05
-0.000795101 0.000237957 0.000238776 -2.55191e-05
-0.000792276 0.000237113 0.000237927 -2.55191e-05
-0.000986657 0.000295595 0.000296169 -1.85569e-05
-0.000979598 0.000293483 0.000294049 -1.85569e-05
-0.000587976 0.00017571 0.000176686 -3.09363e-05
-0.000592218 0.000176972 0.000177963 -3.09363e-05
-0.000983127 0.000294539 0.000295109 -1.85569e-05
-0.000783801 0.000234583 0.000235379 -2.55191e-05
-0.000590097 0.000176341 0.000177324 -3.09363e-05
-0.000789451 0.00023627 0.000237078 -2.55191e-05
-0.000786626 0.000235426 0.000236228 -2.55191e-05
-0.000979598 0.000293483 0.000294049 -1.85569e-05
-0.00097254 0.000291372 0.000291929 -1.85569e-05
-0.000583734 0.000174447 0.000175409 -3.09362e-05
-0.000587976 0.00017571 0.000176686 -3.09363e-05
-0.000976069 0.000292427 0.000292989 -1.85569e-05
-0.00077815 0.000232896 0.00023368 -2.55191e-05
-0.000585855 0.000175078 0.000176047 -3.09362e-05
-0.000783801 0.000234583 0.000235379 -2.55191e-05
-0.000780975 0.00023374 0.00023453 -2.55191e-05
-0.00097254 0.000291372 0.000291929 -1.85569e-05
-0.000965482 0.00028926 0.000289809 -1.85569e-05
-0.000579493 0.000173185 0.000174132 -3.09362e-05
-0.000583734 0.000174447 0.000175409 -3.09362e-05
-0.000969011 0.000290316 0.000290869 -1.85569e-05
-0.0007725 0.000231209 0.000231982 -2.55191e-05
-0.000581613 0.000173816 0.00017477 -3.09362e-05
-0.00077815 0.000232896 0.00023368 -2.55191e-05
-0.000775325 0.000232053 0.000232831 -2.55191e-05
-0.000965482 0.00028926 0.000289809 -1.85569e-05
-0.000958423 0.000287148 0.000287689 -1.85569e-05
-0.000575251 0.000171922 0.000172855 -3.09362e-05
-0.000579493 0.000173185 0.000174132 -3.09362e-05
-0.000961952 0.000288204 0.000288749 -1.85569e-05
-0.00076685 0.000229522 0.000230283 -2.55191e-05
-0.000577372 0.000172553 0.000173494 -3.09362e-05
-0.0007725 0.000231209 0.000231982 -2.55191e-05
-0.000769675 0.000230366 0.000231133 -2.55191e-05
-0.000958423 0.000287148 0.000287689 -1.85569e-05
-0.000951365 0.000285037 0.000285569 -1.8557e-05
-0.00057101 0.000170659 0.000171579 -3.09361e-05
-0.000575251 0.000171922 0.000172855 -3.09362e-05
-0.000954894 0.000286093 0.000286629 -1.85569e-05
-0.0007612 0.000227836 0.000228585 -2.55191e-05
-0.00057313 0.000171291 0.000172217 -3.09361e-05
-0.00076685 0.000229522 0.000230283 -2.55191e-05
-0.000764025 0.000228679 0.000229434 -2.55191e-05
-0.000951365 0.000285037 0.000285569 -1.8557e-05
-0.000944307 0.000282925 0.000283449 -1.8557e-05
-0.000566768 0.000169397 0.000170302 -3.09361e-05
-0.00057101 0.000170659 0.000171579 -3.09361e-05
-0.000947836 0.000283981 0.000284509 -1.8557e-05
-0.00075555 0.000226149 0.000226886 -2.5519e-05
-0.000568889 0.000170028 0.00017094 -3.09361e-05
-0.0007612 0.000227836 0.000228585 -2.55191e-05
-0.000758375 0.000226992 0.000227736 -2.55191e-05
-0.000944307 0.000282925 0.000283449 -1.8557e-05
-0.000937249 0.000280814 0.00028133 -1.8557e-05
-0.000562527 0.000168134 0.000169026 -3.0936e-05
-0.000566768 0.000169397 0.000170302 -3.09361e-05
-0.000940778 0.000281869 0.000282389 -1.8557e-05
-0.0007499 0.000224462 0.000225188 -2.5519e-05
-0.000564648 0.000168765 0.000169664 -3.09361e-05
-0.00075555 0.000226149 0.000226886 -2.5519e-05
-0.000752725 0.000225305 0.000226037 -2.5519e-05
-0.000937249 0.000280814 0.00028133 -1.8557e-05
-0.000930191 0.000278702 0.00027921 -1.8557e-05
-0.000558286 0.000166871 0.000167749 -3.0936e-05
-0.000562527 0.000168134 0.000169026 -3.0936e-05
-0.00093372 0.000279758 0.00028027 -1.8557e-05
-0.000744251 0.000222775 0.00022349 -2.5519e-05
-0.000560406 0.000167503 0.000168387 -3.0936e-05
-0.0007499 0.000224462 0.000225188 -2.5519e-05
-0.000747076 0.000223618 0.000224339 -2.5519e-05
-0.000930191 0.000278702 0.00027921 -1.8557e-05
-0.000923134 0.00027659 0.00027709 -1.8557e-05
-0.000554045 0.000165608 0.000166473 -3.0936e-05
-0.000558286 0.000166871 0.000167749 -3.0936e-05
-0.000926663 0.000277646 0.00027815 -1.8557e-05
-0.000738601 0.000221088 0.000221792 -2.5519e-05
-0.000556165 0.00016624 0.000167111 -3.0936e-05
-0.000744251 0.000222775 0.00022349 -2.5519e-05
-0.000741426 0.000221931 0.000222641 -2.5519e-05
-0.000923134 0.00027659 0.00027709 -1.8557e-05
-0.000916076 0.000274479 0.00027497 -1.8557e-05
-0.000549804 0.000164346 0.000165196 -3.09359e-05
-0.000554045 0.000165608 0.000166473 -3.0936e-05
-0.000919605 0.000275535 0.00027603 -1.8557e-05
-0.000732952 0.0002194 0.000220093 -2.5519e-05
-0.000551924 0.000164977 0.000165835 -3.0936e-05
-0.000738601 0.000221088 0.000221792 -2.5519e-05
-0.000735776 0.000220244 0.000220943 -2.5519e-05
-0.000916076 0.000274479 0.00027497 -1.8557e-05
-0.000909019 0.000272367 0.000272851 -1.8557e-05
-0.000545563 0.000163083 0.00016392 -3.09359e-05
-0.000549804 0.000164346 0.000165196 -3.09359e-05
-0.000912547 0.000273423 0.00027391 -1.8557e-05
-0.000727302 0.000217713 0.000218395 -2.5519e-05
-0.000547683 0.000163714 0.000164558 -3.09359e-05
-0.000732952 0.0002194 0.000220093 -2.5519e-05
-0.000730127 0.000218557 0.000219244 -2.5519e-05
-0.000909019 0.000272367 0.000272851 -1.8557e-05
-0.000901961 0.000270255 0.000270731 -1.8557e-05
-0.000541322 0.00016182 0.000162644 -3.09359e-05
-0.000545563 0.000163083 0.00016392 -3.09359e-05
-0.00090549 0.000271311 0.000271791 -1.8557e-05
-0.000721653 0.000216026 0.000216697 -2.5519e-05
-0.000543443 0.000162451 0.000163282 -3.09359e-05
-0.000727302 0.000217713 0.000218395 -2.5519e-05
-0.000724478 0.00021687 0.000217546 -2.5519e-05
-0.000901961 0.000270255 0.000270731 -1.8557e-05
-0.000894904 0.000268144 0.000268612 -1.85571e-05
-0.000537082 0.000160557 0.000161368 -3.09358e-05
-0.000541322 0.00016182 0.000162644 -3.09359e-05
-0.000898432 0.000269199 0.000269671 -1.85571e-05
-0.000716004 0.000214339 0.000214999 -2.5519e-05
-0.000539202 0.000161188 0.000162006 -3.09358e-05
-0.000721653 0.000216026 0.000216697 -2.5519e-05
-0.000718829 0.000215183 0.000215848 -2.5519e-05
-0.000894904 0.000268144 0.000268612 -1.85571e-05
-0.000887847 0.000266032 0.000266492 -1.85571e-05
-0.000532841 0.000159294 0.000160092 -3.09358e-05
-0.000537082 0.000160557 0.000161368 -3.09358e-05
-0.000891375 0.000267088 0.000267552 -1.85571e-05
-0.000710355 0.000212652 0.000213301 -2.5519e-05
-0.000534961 0.000159925 0.00016073 -3.09358e-05
-0.000716004 0.000214339 0.000214999 -2.5519e-05
-0.000713179 0.000213495 0.00021415 -2.5519e-05
-0.000887847 0.000266032 0.000266492 -1.85571e-05
-0.000880789 0.00026392 0.000264373 -1.85571e-05
-0.000528601 0.000158031 0.000158816 -3.09357e-05
-0.000532841 0.000159294 0.000160092 -3.09358e-05
-0.000884318 0.000264976 0.000265432 -1.85571e-05
-0.000704706 0.000210965 0.000211603 -2.5519e-05
-0.000530721 0.000158662 0.000159454 -3.09358e-05
-0.000710355 0.000212652 0.000213301 -2.5519e-05
-0.00070753 0.000211808 0.000212452 -2.5519e-05
-0.000880789 0.00026392 0.000264373 -1.85571e-05
-0.000873732 0.000261808 0.000262253 -1.85571e-05
-0.00052436 0.000156768 0.00015754 -3.09357e-05
-0.000528601 0.000158031 0.000158816 -3.09357e-05
-0.000877261 0.000262864 0.000263313 -1.85571e-05
-0.000699057 0.000209277 0.000209906 -2.5519e-05
-0.00052648 0.000157399 0.000158178 -3.09357e-05
-0.000704706 0.000210965 0.000211603 -2.5519e-05
-0.000701881 0.000210121 0.000210754 -2.5519e-05
-0.000873732 0.000261808 0.000262253 -1.85571e-05
-0.000866675 0.000259697 0.000260134 -1.85571e-05
-0.00052012 0.000155505 0.000156264 -3.09357e-05
-0.00052436 0.000156768 0.00015754 -3.09357e-05
-0.000870204 0.000260752 0.000261193 -1.85571e-05
-0.000693408 0.00020759 0.000208208 -2.5519e-05
-0.00052224 0.000156136 0.000156902 -3.09357e-05
-0.000699057 0.000209277 0.000209906 -2.5519e-05
-0.000696233 0.000208434 0.000209057 -2.5519e-05
-0.000866675 0.000259697 0.000260134 -1.85571e-05
-0.000859618 0.000257585 0.000258014 -1.85571e-05
-0.00051588 0.000154241 0.000154988 -3.09356e-05
-0.00052012 0.000155505 0.000156264 -3.09357e-05
-0.000863147 0.000258641 0.000259074 -1.85571e-05
-0.00068776 0.000205903 0.00020651 -2.5519e-05
-0.000518 0.000154873 0.000155626 -3.09356e-05
-0.000693408 0.00020759 0.000208208 -2.5519e-05
-0.000690584 0.000206746 0.000207359 -2.5519e-05
-0.000859618 0.000257585 0.000258014 -1.85571e-05
-0.000852562 0.000255473 0.000255895 -1.85571e-05
-0.00051164 0.000152978 0.000153712 -3.09356e-05
-0.00051588 0.000154241 0.000154988 -3.09356e-05
-0.00085609 0.000256529 0.000256955 -1.85571e-05
-0.000682111 0.000204215 0.000204812 -2.5519e-05
-0.00051376 0.00015361 0.00015435 -3.09356e-05
-0.00068776 0.000205903 0.00020651 -2.5519e-05
-0.000684935 0.000205059 0.000205661 -2.5519e-05
-0.000852562 0.000255473 0.000255895 -1.85571e-05
-0.000845505 0.000253361 0.000253776 -1.85571e-05
-0.0005074 0.000151715 0.000152436 -3.09355e-05
-0.00051164 0.000152978 0.000153712 -3.09356e-05
-0.000849033 0.000254417 0.000254836 -1.85571e-05
-0.000676463 0.000202528 0.000203115 -2.55189e-05
-0.00050952 0.000152347 0.000153074 -3.09356e-05
-0.000682111 0.000204215 0.000204812 -2.5519e-05
-0.000679287 0.000203372 0.000203964 -2.55189e-05
-0.000845505 0.000253361 0.000253776 -1.85571e-05
-0.000838448 0.000251249 0.000251657 -1.85571e-05
-0.00050316 0.000150452 0.000151161 -3.09355e-05
-0.0005074 0.000151715 0.000152436 -3.09355e-05
-0.000841977 0.000252305 0.000252716 -1.85571e-05
-0.000670814 0.000200841 0.000201417 -2.55189e-05
-0.00050528 0.000151083 0.000151799 -3.09355e-05
-0.000676463 0.000202528 0.000203115 -2.55189e-05
-0.000673638 0.000201684 0.000202266 -2.55189e-05
-0.000838448 0.000251249 0.000251657 -1.85571e-05
-0.000831392 0.000249138 0.000249538 -1.85572e-05
-0.000498921 0.000149188 0.000149885 -3.09355e-05
-0.00050316 0.000150452 0.000151161 -3.09355e-05
-0.00083492 0.000250193 0.000250597 -1.85572e-05
-0.000665166 0.000199153 0.00019972 -2.55189e-05
-0.00050104 0.00014982 0.000150523 -3.09355e-05
-0.000670814 0.000200841 0.000201417 -2.55189e-05
-0.00066799 0.000199997 0.000200568 -2.55189e-05
-0.000831392 0.000249138 0.000249538 -1.85572e-05
-0.000824336 0.000247026 0.000247419 -1.85572e-05
-0.000494681 0.000147925 0.00014861 -3.09354e-05
-0.000498921 0.000149188 0.000149885 -3.09355e-05
-0.000827864 0.000248082 0.000248478 -1.85572e-05
-0.000659518 0.000197466 0.000198022 -2.55189e-05
-0.000496801 0.000148557 0.000149247 -3.09354e-05
-0.000665166 0.000199153 0.00019972 -2.55189e-05
-0.000662342 0.00019831 0.000198871 -2.55189e-05
-0.000824336 0.000247026 0.000247419 -1.85572e-05
-0.000817279 0.000244914 0.000245299 -1.85572e-05
-0.000490442 0.000146662 0.000147334 -3.09354e-05
-0.000494681 0.000147925 0.00014861 -3.09354e-05
-0.000820807 0.00024597 0.000246359 -1.85572e-05
-0.00065387 0.000195778 0.000196325 -2.55189e-05
-0.000492561 0.000147293 0.000147972 -3.09354e-05
-0.000659518 0.000197466 0.000198022 -2.55189e-05
-0.000656694 0.000196622 0.000197174 -2.55189e-05
-0.000817279 0.000244914 0.000245299 -1.85572e-05
-0.000810223 0.000242802 0.00024318 -1.85572e-05
-0.000486202 0.000145398 0.000146059 -3.09353e-05
-0.000490442 0.000146662 0.000147334 -3.09354e-05
-0.000813751 0.000243858 0.00024424 -1.85572e-05
-0.000648222 0.000194091 0.000194628 -2.55189e-05
-0.000488322 0.00014603 0.000146697 -3.09354e-05
-0.00065387 0.000195778 0.000196325 -2.55189e-05
-0.000651046 0.000194935 0.000195476 -2.55189e-05
-0.000810223 0.000242802 0.00024318 -1.85572e-05
-0.000803167 0.00024069 0.000241062 -1.85572e-05
-0.000481963 0.000144135 0.000144784 -3.09353e-05
-0.000486202 0.000145398 0.000146059 -3.09353e-05
-0.000806695 0.000241746 0.000242121 -1.85572e-05
-0.000642574 0.000192403 0.00019293 -2.55189e-05
-0.000484083 0.000144766 0.000145421 -3.09353e-05
-0.000648222 0.000194091 0.000194628 -2.55189e-05
-0.000645398 0.000193247 0.000193779 -2.55189e-05
-0.000803167 0.00024069 0.000241062 -1.85572e-05
-0.000796111 0.000238578 0.000238943 -1.85572e-05
-0.000477724 0.000142871 0.000143508 -3.09353e-05
-0.000481963 0.000144135 0.000144784 -3.09353e-05
-0.000799639 0.000239634 0.000240002 -1.85572e-05
-0.000636926 0.000190716 0.000191233 -2.55189e-05
-0.000479843 0.000143503 0.000144146 -3.09353e-05
-0.000642574 0.000192403 0.00019293 -2.55189e-05
-0.00063975 0.00019156 0.000192082 -2.55189e-05
-0.000796111 0.000238578 0.000238943 -1.85572e-05
-0.000789055 0.000236466 0.000236824 -1.85572e-05
-0.000473485 0.000141608 0.000142233 -3.09352e-05
-0.000477724 0.000142871 0.000143508 -3.09353e-05
-0.000792583 0.000237522 0.000237883 -1.85572e-05
-0.000631279 0.000189028 0.000189536 -2.55189e-05
-0.000475604 0.000142239 0.000142871 -3.09352e-05
-0.000636926 0.000190716 0.000191233 -2.55189e-05
-0.000634102 0.000189872 0.000190384 -2.55189e-05
-0.000789055 0.000236466 0.000236824 -1.85572e-05
-0.000781999 0.000234354 0.000234705 -1.85572e-05
-0.000469246 0.000140344 0.000140958 -3.09352e-05
-0.000473485 0.000141608 0.000142233 -3.09352e-05
-0.000785527 0.00023541 0.000235764 -1.85572e-05
-0.000625631 0.000187341 0.000187839 -2.55189e-05
-0.000471365 0.000140976 0.000141595 -3.09352e-05
-0.000631279 0.000189028 0.000189536 -2.55189e-05
-0.000628455 0.000188184 0.000188687 -2.55189e-05
-0.000781999 0.000234354 0.000234705 -1.85572e-05
-0.000774943 0.000232242 0.000232586 -1.85572e-05
-0.000465007 0.00013908 0.000139683 -3.09351e-05
-0.000469246 0.000140344 0.000140958 -3.09352e-05
-0.000778471 0.000233298 0.000233646 -1.85572e-05
-0.000619984 0.000185653 0.000186142 -2.55188e-05
-0.000467126 0.000139712 0.00014032 -3.09352e-05
-0.000625631 0.000187341 0.000187839 -2.55189e-05
-0.000622807 0.000186497 0.00018699 -2.55189e-05
-0.000774943 0.000232242 0.000232586 -1.85572e-05
-0.000767888 0.00023013 0.000230468 -1.85573e-05
-0.000460768 0.000137817 0.000138408 -3.09351e-05
-0.000465007 0.00013908 0.000139683 -3.09351e-05
-0.000771416 0.000231186 0.000231527 -1.85572e-05
-0.000614336 0.000183965 0.000184445 -2.55188e-05
-0.000462888 0.000138448 0.000139045 -3.09351e-05
-0.000619984 0.000185653 0.000186142 -2.55188e-05
-0.00061716 0.000184809 0.000185293 -2.55188e-05
-0.000767888 0.00023013 0.000230468 -1.85573e-05
-0.000760832 0.000228018 0.000228349 -1.85573e-05
-0.00045653 0.000136553 0.000137133 -3.09351e-05
-0.000460768 0.000137817 0.000138408 -3.09351e-05
-0.00076436 0.000229074 0.000229408 -1.85573e-05
-0.000608689 0.000182278 0.000182748 -2.55188e-05
-0.000458649 0.000137185 0.00013777 -3.09351e-05
-0.000614336 0.000183965 0.000184445 -2.55188e-05
-0.000611513 0.000183121 0.000183596 -2.55188e-05
-0.000760832 0.000228018 0.000228349 -1.85573e-05
-0.000753777 0.000225906 0.00022623 -1.85573e-05
-0.000452291 0.000135289 0.000135858 -3.0935e-05
-0.00045653 0.000136553 0.000137133 -3.09351e-05
-0.000757305 0.000226962 0.00022729 -1.85573e-05
-0.000603042 0.00018059 0.000181051 -2.55188e-05
-0.00045441 0.000135921 0.000136495 -3.0935e-05
-0.000608689 0.000182278 0.000182748 -2.55188e-05
-0.000605865 0.000181434 0.000181899 -2.55188e-05
-0.000753777 0.000225906 0.00022623 -1.85573e-05
-0.000746721 0.000223794 0.000224112 -1.85573e-05
-0.000448053 0.000134025 0.000134583 -3.0935e-05
-0.000452291 0.000135289 0.000135858 -3.0935e-05
-0.000750249 0.00022485 0.000225171 -1.85573e-05
-0.000597395 0.000178902 0.000179354 -2.55188e-05
-0.000450172 0.000134657 0.000135221 -3.0935e-05
-0.000603042 0.00018059 0.000181051 -2.55188e-05
-0.000600218 0.000179746 0.000180203 -2.55188e-05
-0.000746721 0.000223794 0.000224112 -1.85573e-05
-0.000739666 0.000221682 0.000221993 -1.85573e-05
-0.000443814 0.000132761 0.000133308 -3.09349e-05
-0.000448053 0.000134025 0.000134583 -3.0935e-05
-0.000743194 0.000222738 0.000223052 -1.85573e-05
-0.000591748 0.000177214 0.000177657 -2.55188e-05
-0.000445933 0.000133393 0.000133946 -3.0935e-05
-0.000597395 0.000178902 0.000179354 -2.55188e-05
-0.000594571 0.000178058 0.000178506 -2.55188e-05
-0.000739666 0.000221682 0.000221993 -1.85573e-05
-0.000732611 0.00021957 0.000219875 -1.85573e-05
-0.000439576 0.000131498 0.000132034 -3.09349e-05
-0.000443814 0.000132761 0.000133308 -3.09349e-05
-0.000736139 0.000220626 0.000220934 -1.85573e-05
-0.000586101 0.000175526 0.000175961 -2.55188e-05
-0.000441695 0.00013213 0.000132671 -3.09349e-05
-0.000591748 0.000177214 0.000177657 -2.55188e-05
-0.000588925 0.00017637 0.000176809 -2.55188e-05
-0.000732611 0.00021957 0.000219875 -1.85573e-05
-0.000725556 0.000217458 0.000217756 -1.85573e-05
-0.000435338 0.000130234 0.000130759 -3.09349e-05
-0.000439576 0.000131498 0.000132034 -3.09349e-05
-0.000729084 0.000218514 0.000218815 -1.85573e-05
-0.000580454 0.000173839 0.000174264 -2.55188e-05
-0.000437457 0.000130866 0.000131396 -3.09349e-05
-0.000586101 0.000175526 0.000175961 -2.55188e-05
-0.000583278 0.000174682 0.000175112 -2.55188e-05
-0.000725556 0.000217458 0.000217756 -1.85573e-05
-0.000718501 0.000215346 0.000215638 -1.85573e-05
-0.0004311 0.00012897 0.000129484 -3.09348e-05
-0.000435338 0.000130234 0.000130759 -3.09349e-05
-0.000722028 0.000216402 0.000216697 -1.85573e-05
-0.000574808 0.000172151 0.000172567 -2.55188e-05
-0.000433219 0.000129602 0.000130122 -3.09348e-05
-0.000580454 0.000173839 0.000174264 -2.55188e-05
-0.000577631 0.000172995 0.000173416 -2.55188e-05
-0.000718501 0.000215346 0.000215638 -1.85573e-05
-0.000711446 0.000213234 0.00021352 -1.85573e-05
-0.000426862 0.000127706 0.00012821 -3.09348e-05
-0.0004311 0.00012897 0.000129484 -3.09348e-05
-0.000714974 0.00021429 0.000214579 -1.85573e-05
-0.000569161 0.000170463 0.000170871 -2.55188e-05
-0.000428981 0.000128338 0.000128847 -3.09348e-05
-0.000574808 0.000172151 0.000172567 -2.55188e-05
-0.000571985 0.000171307 0.000171719 -2.55188e-05
-0.000711446 0.000213234 0.00021352 -1.85573e-05
-0.000704391 0.000211122 0.000211401 -1.85574e-05
-0.000422624 0.000126442 0.000126935 -3.09347e-05
-0.000426862 0.000127706 0.00012821 -3.09348e-05
-0.000707919 0.000212178 0.00021246 -1.85573e-05
-0.000563515 0.000168775 0.000169174 -2.55188e-05
-0.000424743 0.000127074 0.000127573 -3.09348e-05
-0.000569161 0.000170463 0.000170871 -2.55188e-05
-0.000566338 0.000169619 0.000170023 -2.55188e-05
-0.000704391 0.000211122 0.000211401 -1.85574e-05
-0.000697337 0.00020901 0.000209283 -1.85574e-05
-0.000418387 0.000125178 0.000125661 -3.09347e-05
-0.000422624 0.000126442 0.000126935 -3.09347e-05
-0.000700864 0.000210066 0.000210342 -1.85574e-05
-0.000557869 0.000167087 0.000167478 -2.55188e-05
-0.000420506 0.00012581 0.000126298 -3.09347e-05
-0.000563515 0.000168775 0.000169174 -2.55188e-05
-0.000560692 0.000167931 0.000168326 -2.55188e-05
-0.000697337 0.00020901 0.000209283 -1.85574e-05
-0.000690282 0.000206898 0.000207165 -1.85574e-05
-0.000414149 0.000123913 0.000124387 -3.09347e-05
-0.000418387 0.000125178 0.000125661 -3.09347e-05
-0.000693809 0.000207954 0.000208224 -1.85574e-05
-0.000552222 0.000165399 0.000165782 -2.55187e-05
-0.000416268 0.000124545 0.000125024 -3.09347e-05
-0.000557869 0.000167087 0.000167478 -2.55188e-05
-0.000555045 0.000166243 0.00016663 -2.55187e-05
-0.000690282 0.000206898 0.000207165 -1.85574e-05
-0.000683228 0.000204785 0.000205047 -1.85574e-05
-0.000409912 0.000122649 0.000123112 -3.09346e-05
-0.000414149 0.000123913 0.000124387 -3.09347e-05
-0.000686755 0.000205841 0.000206106 -1.85574e-05
-0.000546576 0.000163711 0.000164085 -2.55187e-05
-0.00041203 0.000123281 0.00012375 -3.09346e-05
-0.000552222 0.000165399 0.000165782 -2.55187e-05
-0.000549399 0.000164555 0.000164933 -2.55187e-05
-0.000683228 0.000204785 0.000205047 -1.85574e-05
-0.000676173 0.000202673 0.000202929 -1.85574e-05
-0.000405674 0.000121385 0.000121838 -3.09346e-05
-0.000409912 0.000122649 0.000123112 -3.09346e-05
-0.0006797 0.000203729 0.000203988 -1.85574e-05
-0.00054093 0.000162023 0.000162389 -2.55187e-05
-0.000407793 0.000122017 0.000122475 -3.09346e-05
-0.000546576 0.000163711 0.000164085 -2.55187e-05
-0.000543753 0.000162867 0.000163237 -2.55187e-05
-0.000676173 0.000202673 0.000202929 -1.85574e-05
-0.000669119 0.000200561 0.000200811 -1.85574e-05
-0.000401437 0.000120121 0.000120564 -3.09346e-05
-0.000405674 0.000121385 0.000121838 -3.09346e-05
-0.000672646 0.000201617 0.00020187 -1.85574e-05
-0.000535284 0.000160335 0.000160693 -2.55187e-05
-0.000403556 0.000120753 0.000121201 -3.09346e-05
-0.00054093 0.000162023 0.000162389 -2.55187e-05
-0.000538107 0.000161179 0.000161541 -2.55187e-05
-0.000669119 0.000200561 0.000200811 -1.85574e-05
-0.000662065 0.000198449 0.000198693 -1.85574e-05
-0.0003972 0.000118856 0.00011929 -3.09345e-05
-0.000401437 0.000120121 0.000120564 -3.09346e-05
-0.000665592 0.000199505 0.000199752 -1.85574e-05
-0.000529638 0.000158647 0.000158997 -2.55187e-05
-0.000399318 0.000119489 0.000119927 -3.09345e-05
-0.000535284 0.000160335 0.000160693 -2.55187e-05
-0.000532461 0.000159491 0.000159845 -2.55187e-05
-0.000662065 0.000198449 0.000198693 -1.85574e-05
-0.000655011 0.000196337 0.000196575 -1.85574e-05
-0.000392963 0.000117592 0.000118016 -3.09345e-05
-0.0003972 0.000118856 0.00011929 -3.09345e-05
-0.000658538 0.000197393 0.000197634 -1.85574e-05
-0.000523993 0.000156958 0.0001573 -2.55187e-05
-0.000395081 0.000118224 0.000118653 -3.09345e-05
-0.000529638 0.000158647 0.000158997 -2.55187e-05
-0.000526816 0.000157802 0.000158149 -2.55187e-05
-0.000655011 0.000196337 0.000196575 -1.85574e-05
-0.000647957 0.000194224 0.000194457 -1.85575e-05
-0.000388726 0.000116328 0.000116742 -3.09344e-05
-0.000392963 0.000117592 0.000118016 -3.09345e-05
-0.000651484 0.00019528 0.000195516 -1.85574e-05
-0.000518347 0.00015527 0.000155604 -2.55187e-05
-0.000390844 0.00011696 0.000117379 -3.09345e-05
-0.000523993 0.000156958 0.0001573 -2.55187e-05
-0.00052117 0.000156114 0.000156452 -2.55187e-05
-0.000647957 0.000194224 0.000194457 -1.85575e-05
-0.000640903 0.000192112 0.000192339 -1.85575e-05
-0.000384489 0.000115063 0.000115468 -3.09344e-05
-0.000388726 0.000116328 0.000116742 -3.09344e-05
-0.00064443 0.000193168 0.000193398 -1.85575e-05
-0.000512702 0.000153582 0.000153908 -2.55187e-05
-0.000386607 0.000115696 0.000116105 -3.09344e-05
-0.000518347 0.00015527 0.000155604 -2.55187e-05
-0.000515524 0.000154426 0.000154756 -2.55187e-05
-0.000640903 0.000192112 0.000192339 -1.85575e-05
-0.000633849 0.00019 0.000190221 -1.85575e-05
-0.000380252 0.000113799 0.000114194 -3.09344e-05
-0.000384489 0.000115063 0.000115468 -3.09344e-05
-0.000637376 0.000191056 0.00019128 -1.85575e-05
-0.000507056 0.000151894 0.000152213 -2.55187e-05
-0.000382371 0.000114431 0.000114831 -3.09344e-05
-0.000512702 0.000153582 0.000153908 -2.55187e-05
-0.000509879 0.000152738 0.00015306 -2.55187e-05
-0.000633849 0.00019 0.000190221 -1.85575e-05
-0.000626795 0.000187888 0.000188103 -1.85575e-05
-0.000376016 0.000112534 0.000112921 -3.09343e-05
-0.000380252 0.000113799 0.000114194 -3.09344e-05
-0.000630322 0.000188944 0.000189162 -1.85575e-05
-0.000501411 0.000150205 0.000150517 -2.55187e-05
-0.000378134 0.000113167 0.000113557 -3.09344e-05
-0.000507056 0.000151894 0.000152213 -2.55187e-05
-0.000504234 0.00015105 0.000151365 -2.55187e-05
-0.000626795 0.000187888 0.000188103 -1.85575e-05
-0.000619741 0.000185775 0.000185986 -1.85575e-05
-0.000371779 0.00011127 0.000111647 -3.09343e-05
-0.000376016 0.000112534 0.000112921 -3.09343e-05
-0.000623268 0.000186831 0.000187044 -1.85575e-05
-0.000495766 0.000148517 0.000148821 -2.55187e-05
-0.000373897 0.000111902 0.000112284 -3.09343e-05
-0.000501411 0.000150205 0.000150517 -2.55187e-05
-0.000498588 0.000149361 0.000149669 -2.55187e-05
-0.000619741 0.000185775 0.000185986 -1.85575e-05
-0.000612688 0.000183663 0.000183868 -1.85575e-05
-0.000367543 0.000110005 0.000110373 -3.09343e-05
-0.000371779 0.00011127 0.000111647 -3.09343e-05
-0.000616215 0.000184719 0.000184927 -1.85575e-05
-0.000490121 0.000146829 0.000147125 -2.55187e-05
-0.000369661 0.000110638 0.00011101 -3.09343e-05
-0.000495766 0.000148517 0.000148821 -2.55187e-05
-0.000492943 0.000147673 0.000147973 -2.55187e-05
-0.000612688 0.000183663 0.000183868 -1.85575e-05
-0.000605634 0.000181551 0.00018175 -1.85575e-05
-0.000363306 0.000108741 0.0001091 -3.09343e-05
-0.000367543 0.000110005 0.000110373 -3.09343e-05
-0.000609161 0.000182607 0.000182809 -1.85575e-05
-0.000484476 0.00014514 0.000145429 -2.55187e-05
-0.000365425 0.000109373 0.000109736 -3.09343e-05
-0.000490121 0.000146829 0.000147125 -2.55187e-05
-0.000487298 0.000145985 0.000146277 -2.55187e-05
-0.000605634 0.000181551 0.00018175 -1.85575e-05
-0.000598581 0.000179438 0.000179633 -1.85576e-05
-0.00035907 0.000107476 0.000107826 -3.09342e-05
-0.000363306 0.000108741 0.0001091 -3.09343e-05
-0.000602108 0.000180494 0.000180691 -1.85576e-05
-0.000478831 0.000143452 0.000143734 -2.55187e-05
-0.000361188 0.000108108 0.000108463 -3.09342e-05
-0.000484476 0.00014514 0.000145429 -2.55187e-05
-0.000481653 0.000144296 0.000144582 -2.55187e-05
-0.000598581 0.000179438 0.000179633 -1.85576e-05
-0.000591528 0.000177326 0.000177515 -1.85576e-05
-0.000354834 0.000106211 0.000106553 -3.09342e-05
-0.00035907 0.000107476 0.000107826 -3.09342e-05
-0.000595054 0.000178382 0.000178574 -1.85576e-05
-0.000473186 0.000141764 0.000142038 -2.55187e-05
-0.000356952 0.000106844 0.000107189 -3.09342e-05
-0.000478831 0.000143452 0.000143734 -2.55187e-05
-0.000476008 0.000142608 0.000142886 -2.55187e-05
-0.000591528 0.000177326 0.000177515 -1.85576e-05
-0.000584475 0.000175214 0.000175398 -1.85576e-05
-0.000350598 0.000104946 0.000105279 -3.09342e-05
-0.000354834 0.000106211 0.000106553 -3.09342e-05
-0.000588001 0.00017627 0.000176456 -1.85576e-05
-0.000467541 0.000140075 0.000140343 -2.55187e-05
-0.000352716 0.000105579 0.000105916 -3.09342e-05
-0.000473186 0.000141764 0.000142038 -2.55187e-05
-0.000470364 0.000140919 0.00014119 -2.55187e-05
-0.000584475 0.000175214 0.000175398 -1.85576e-05
-0.000577421 0.000173101 0.00017328 -1.85576e-05
-0.000346362 0.000103682 0.000104006 -3.09341e-05
-0.000350598 0.000104946 0.000105279 -3.09342e-05
-0.000580948 0.000174157 0.000174339 -1.85576e-05
-0.000461897 0.000138387 0.000138647 -2.55187e-05
-0.00034848 0.000104314 0.000104643 -3.09342e-05
-0.000467541 0.000140075 0.000140343 -2.55187e-05
-0.000464719 0.000139231 0.000139495 -2.55187e-05
-0.000577421 0.000173101 0.00017328 -1.85576e-05
-0.000570369 0.000170989 0.000171163 -1.85576e-05
-0.000342127 0.000102417 0.000102733 -3.09341e-05
-0.000346362 0.000103682 0.000104006 -3.09341e-05
-0.000573895 0.000172045 0.000172221 -1.85576e-05
-0.000456252 0.000136698 0.000136952 -2.55187e-05
-0.000344244 0.000103049 0.000103369 -3.09341e-05
-0.000461897 0.000138387 0.000138647 -2.55187e-05
-0.000459074 0.000137542 0.000137799 -2.55187e-05
-0.000570369 0.000170989 0.000171163 -1.85576e-05
-0.000563316 0.000168876 0.000169045 -1.85577e-05
-0.000337891 0.000101152 0.00010146 -3.09341e-05
-0.000342127 0.000102417 0.000102733 -3.09341e-05
-0.000566842 0.000169932 0.000170104 -1.85576e-05
-0.000450608 0.00013501 0.000135256 -2.55187e-05
-0.000340009 0.000101784 0.000102096 -3.09341e-05
-0.000456252 0.000136698 0.000136952 -2.55187e-05
-0.00045343 0.000135854 0.000136104 -2.55187e-05
-0.000563316 0.000168876 0.000169045 -1.85577e-05
-0.000556263 0.000166764 0.000166928 -1.85577e-05
-0.000333655 9.9887e-05 0.000100186 -3.09341e-05
-0.000337891 0.000101152 0.00010146 -3.09341e-05
-0.000559789 0.00016782 0.000167987 -1.85577e-05
-0.000444963 0.000133321 0.000133561 -2.55187e-05
-0.000335773 0.000100519 0.000100823 -3.09341e-05
-0.000450608 0.00013501 0.000135256 -2.55187e-05
-0.000447786 0.000134165 0.000134409 -2.55187e-05
-0.000556263 0.000166764 0.000166928 -1.85577e-05
-0.00054921 0.000164651 0.000164811 -1.85577e-05
-0.00032942 9.86221e-05 9.89133e-05 -3.0934e-05
-0.000333655 9.9887e-05 0.000100186 -3.09341e-05
-0.000552736 0.000165708 0.000165869 -1.85577e-05
-0.000439319 0.000131633 0.000131866 -2.55187e-05
-0.000331538 9.92545e-05 9.95499e-05 -3.0934e-05
-0.000444963 0.000133321 0.000133561 -2.55187e-05
-0.000442141 0.000132477 0.000132713 -2.55187e-05
-0.00054921 0.000164651 0.000164811 -1.85577e-05
-0.000542157 0.000162539 0.000162694 -1.85577e-05
-0.000325184 9.73571e-05 9.76403e-05 -3.0934e-05
-0.00032942 9.86221e-05 9.89133e-05 -3.0934e-05
-0.000545684 0.000163595 0.000163752 -1.85577e-05
-0.000433675 0.000129944 0.000130171 -2.55187e-05
-0.000327302 9.79896e-05 9.82768e-05 -3.0934e-05
-0.000439319 0.000131633 0.000131866 -2.55187e-05
-0.000436497 0.000130788 0.000131018 -2.55187e-05
-0.000542157 0.000162539 0.000162694 -1.85577e-05
-0.000535105 0.000160426 0.000160577 -1.85577e-05
-0.000320949 9.6092e-05 9.63674e-05 -3.0934e-05
-0.000325184 9.73571e-05 9.76403e-05 -3.0934e-05
-0.000538631 0.000161483 0.000161635 -1.85577e-05
-0.000428031 0.000128255 0.000128475 -2.55187e-05
-0.000323067 9.67245e-05 9.70038e-05 -3.0934e-05
-0.000433675 0.000129944 0.000130171 -2.55187e-05
-0.000430853 0.0001291 0.000129323 -2.55187e-05
-0.000535105 0.000160426 0.000160577 -1.85577e-05
-0.000528052 0.000158314 0.000158459 -1.85578e-05
-0.000316714 9.48269e-05 9.50945e-05 -3.0934e-05
-0.000320949 9.6092e-05 9.63674e-05 -3.0934e-05
-0.000531579 0.00015937 0.000159518 -1.85578e-05
-0.000422387 0.000126567 0.00012678 -2.55187e-05
-0.000318832 9.54595e-05 9.57309e-05 -3.0934e-05
-0.000428031 0.000128255 0.000128475 -2.55187e-05
-0.000425209 0.000127411 0.000127628 -2.55187e-05
-0.000528052 0.000158314 0.000158459 -1.85578e-05
-0.000521 0.000156201 0.000156342 -1.85578e-05
-0.000312479 9.35618e-05 9.38216e-05 -3.09339e-05
-0.000316714 9.48269e-05 9.50945e-05 -3.0934e-05
-0.000524526 0.000157258 0.000157401 -1.85578e-05
-0.000416743 0.000124878 0.000125085 -2.55187e-05
-0.000314596 9.41944e-05 9.4458e-05 -3.0934e-05
-0.000422387 0.000126567 0.00012678 -2.55187e-05
-0.000419565 0.000125722 0.000125933 -2.55187e-05
-0.000521 0.000156201 0.000156342 -1.85578e-05
-0.000513948 0.000154089 0.000154225 -1.85578e-05
-0.000308244 9.22966e-05 9.25489e-05 -3.09339e-05
-0.000312479 9.35618e-05 9.38216e-05 -3.09339e-05
-0.000517474 0.000155145 0.000155284 -1.85578e-05
-0.0004111 0.000123189 0.00012339 -2.55187e-05
-0.000310361 9.29292e-05 9.31853e-05 -3.09339e-05
-0.000416743 0.000124878 0.000125085 -2.55187e-05
-0.000413922 0.000124033 0.000124238 -2.55187e-05
-0.000513948 0.000154089 0.000154225 -1.85578e-05
-0.000506896 0.000151976 0.000152108 -1.85578e-05
-0.000304009 9.10314e-05 9.12762e-05 -3.09339e-05
-0.000308244 9.22966e-05 9.25489e-05 -3.09339e-05
-0.000510422 0.000153033 0.000153167 -1.85578e-05
-0.000405456 0.0001215 0.000121695 -2.55187e-05
-0.000306127 9.1664e-05 9.19125e-05 -3.09339e-05
-0.0004111 0.000123189 0.00012339 -2.55187e-05
-0.000408278 0.000122345 0.000122543 -2.55187e-05
-0.000506896 0.000151976 0.000152108 -1.85578e-05
-0.000499844 0.000149864 0.000149991 -1.85579e-05
-0.000299774 8.97662e-05 9.00035e-05 -3.09339e-05
-0.000304009 9.10314e-05 9.12762e-05 -3.09339e-05
-0.00050337 0.00015092 0.00015105 -1.85578e-05
-0.000399813 0.000119811 0.00012 -2.55188e-05
-0.000301892 9.03988e-05 9.06398e-05 -3.09339e-05
-0.000405456 0.0001215 0.000121695 -2.55187e-05
-0.000402634 0.000120656 0.000120848 -2.55188e-05
-0.000499844 0.000149864 0.000149991 -1.85579e-05
-0.000492792 0.000147751 0.000147875 -1.85579e-05
-0.00029554 8.85009e-05 8.8731e-05 -3.09339e-05
-0.000299774 8.97662e-05 9.00035e-05 -3.09339e-05
-0.000496318 0.000148807 0.000148933 -1.85579e-05
-0.000394169 0.000118123 0.000118306 -2.55188e-05
-0.000297657 8.91335e-05 8.93672e-05 -3.09339e-05
-0.000399813 0.000119811 0.00012 -2.55188e-05
-0.000396991 0.000118967 0.000119153 -2.55188e-05
-0.000492792 0.000147751 0.000147875 -1.85579e-05
-0.00048574 0.000145638 0.000145758 -1.85579e-05
-0.000291305 8.72355e-05 8.74584e-05 -3.09339e-05
-0.00029554 8.85009e-05 8.8731e-05 -3.09339e-05
-0.000489266 0.000146695 0.000146816 -1.85579e-05
-0.000388526 0.000116434 0.000116611 -2.55188e-05
-0.000293422 8.78682e-05 8.80947e-05 -3.09339e-05
-0.000394169 0.000118123 0.000118306 -2.55188e-05
-0.000391347 0.000117278 0.000117458 -2.55188e-05
-0.00048574 0.000145638 0.000145758 -1.85579e-05
-0.000478688 0.000143526 0.000143641 -1.85579e-05
-0.000287071 8.59701e-05 8.6186e-05 -3.09338e-05
-0.000291305 8.72355e-05 8.74584e-05 -3.09339e-05
-0.000482214 0.000144582 0.000144699 -1.85579e-05
-0.000382883 0.000114745 0.000114916 -2.55188e-05
-0.000289188 8.66028e-05 8.68222e-05 -3.09339e-05
-0.000388526 0.000116434 0.000116611 -2.55188e-05
-0.000385704 0.000115589 0.000115764 -2.55188e-05
-0.000478688 0.000143526 0.000143641 -1.85579e-05
-0.000471636 0.000141413 0.000141524 -1.8558e-05
-0.000282836 8.47047e-05 8.49136e-05 -3.09338e-05
-0.000287071 8.59701e-05 8.6186e-05 -3.09338e-05
-0.000475162 0.00014247 0.000142583 -1.85579e-05
-0.00037724 0.000113056 0.000113222 -2.55188e-05
-0.000284954 8.53374e-05 8.55498e-05 -3.09338e-05
-0.000382883 0.000114745 0.000114916 -2.55188e-05
-0.000380061 0.0001139 0.000114069 -2.55188e-05
-0.000471636 0.000141413 0.000141524 -1.8558e-05
-0.000464585 0.000139301 0.000139407 -1.8558e-05
-0.000278602 8.34393e-05 8.36413e-05 -3.09338e-05
-0.000282836 8.47047e-05 8.49136e-05 -3.09338e-05
-0.00046811 0.000140357 0.000140466 -1.8558e-05
-0.000371596 0.000111367 0.000111527 -2.55188e-05
-0.000280719 8.4072e-05 8.42774e-05 -3.09338e-05
-0.00037724 0.000113056 0.000113222 -2.55188e-05
-0.000374418 0.000112211 0.000112374 -2.55188e-05
-0.000464585 0.000139301 0.000139407 -1.8558e-05
-0.000457533 0.000137188 0.000137291 -1.8558e-05
-0.000274368 8.21737e-05 8.2369e-05 -3.09338e-05
-0.000278602 8.34393e-05 8.36413e-05 -3.09338e-05
-0.000461059 0.000138244 0.000138349 -1.8558e-05
-0.000365954 0.000109678 0.000109832 -2.55188e-05
-0.000276485 8.28065e-05 8.30051e-05 -3.09338e-05
-0.000371596 0.000111367 0.000111527 -2.55188e-05
-0.000368775 0.000110522 0.00011068 -2.55188e-05
-0.000457533 0.000137188 0.000137291 -1.8558e-05
-0.000450482 0.000135075 0.000135174 -1.8558e-05
-0.000270134 8.09082e-05 8.10968e-05 -3.09338e-05
-0.000274368 8.21737e-05 8.2369e-05 -3.09338e-05
-0.000454007 0.000136132 0.000136232 -1.8558e-05
-0.000360311 0.000107989 0.000108138 -2.55188e-05
-0.000272251 8.1541e-05 8.17329e-05 -3.09338e-05
-0.000365954 0.000109678 0.000109832 -2.55188e-05
-0.000363132 0.000108833 0.000108985 -2.55188e-05
-0.000450482 0.000135075 0.000135174 -1.8558e-05
-0.00044343 0.000132962 0.000133058 -1.85581e-05
-0.0002659 7.96426e-05 7.98247e-05 -3.09338e-05
-0.000270134 8.09082e-05 8.10968e-05 -3.09338e-05
-0.000446956 0.000134019 0.000134116 -1.85581e-05
-0.000354668 0.0001063 0.000106444 -2.55189e-05
-0.000268017 8.02754e-05 8.04607e-05 -3.09338e-05
-0.000360311 0.000107989 0.000108138 -2.55188e-05
-0.000357489 0.000107144 0.000107291 -2.55189e-05
-0.00044343 0.000132962 0.000133058 -1.85581e-05
-0.000436379 0.00013085 0.000130941 -1.85581e-05
-0.000261666 7.8377e-05 7.85526e-05 -3.09338e-05
-0.0002659 7.96426e-05 7.98247e-05 -3.09338e-05
-0.000439905 0.000131906 0.000131999 -1.85581e-05
-0.000349025 0.000104611 0.000104749 -2.55189e-05
-0.000263783 7.90098e-05 7.91886e-05 -3.09338e-05
-0.000354668 0.0001063 0.000106444 -2.55189e-05
-0.000351847 0.000105455 0.000105596 -2.55189e-05
-0.000436379 0.00013085 0.000130941 -1.85581e-05
-0.000429328 0.000128737 0.000128825 -1.85581e-05
-0.000257433 7.71113e-05 7.72806e-05 -3.09338e-05
-0.000261666 7.8377e-05 7.85526e-05 -3.09338e-05
-0.000432853 0.000129793 0.000129883 -1.85581e-05
-0.000343383 0.000102922 0.000103055 -2.55189e-05
-0.000259549 7.77441e-05 7.79166e-05 -3.09338e-05
-0.000349025 0.000104611 0.000104749 -2.55189e-05
-0.000346204 0.000103766 0.000103902 -2.55189e-05
-0.000429328 0.000128737 0.000128825 -1.85581e-05
-0.000422277 0.000126624 0.000126708 -1.85582e-05
-0.000253199 7.58456e-05 7.60086e-05 -3.09338e-05
-0.000257433 7.71113e-05 7.72806e-05 -3.09338e-05
-0.000425802 0.000127681 0.000127766 -1.85582e-05
-0.00033774 0.000101232 0.000101361 -2.55189e-05
-0.000255316 7.64784e-05 7.66446e-05 -3.09338e-05
-0.000343383 0.000102922 0.000103055 -2.55189e-05
-0.000340562 0.000102077 0.000102208 -2.55189e-05
-0.000422277 0.000126624 0.000126708 -1.85582e-05
-0.000415226 0.000124511 0.000124592 -1.85582e-05
-0.000248965 7.45798e-05 7.47367e-05 -3.09338e-05
-0.000253199 7.58456e-05 7.60086e-05 -3.09338e-05
-0.000418751 0.000125568 0.00012565 -1.85582e-05
-0.000332098 9.95432e-05 9.96664e-05 -2.55189e-05
-0.000251082 7.52127e-05 7.53727e-05 -3.09338e-05
-0.00033774 0.000101232 0.000101361 -2.55189e-05
-0.000334919 0.000100388 0.000100513 -2.55189e-05
-0.000415226 0.000124511 0.000124592 -1.85582e-05
-0.000408175 0.000122399 0.000122475 -1.85582e-05
-0.000244732 7.3314e-05 7.34649e-05 -3.09338e-05
-0.000248965 7.45798e-05 7.47367e-05 -3.09338e-05
-0.0004117 0.000123455 0.000123534 -1.85582e-05
-0.000326456 9.7854e-05 9.79722e-05 -2.5519e-05
-0.000246849 7.39469e-05 7.41008e-05 -3.09338e-05
-0.000332098 9.95432e-05 9.96664e-05 -2.55189e-05
-0.000329277 9.86986e-05 9.88193e-05 -2.5519e-05
-0.000408175 0.000122399 0.000122475 -1.85582e-05
-0.000401124 0.000120286 0.000120359 -1.85583e-05
-0.000240499 7.20481e-05 7.21931e-05 -3.09338e-05
-0.000244732 7.3314e-05 7.34649e-05 -3.09338e-05
-0.000404649 0.000121342 0.000121417 -1.85583e-05
-0.000320814 9.61647e-05 9.62781e-05 -2.5519e-05
-0.000242615 7.26811e-05 7.2829e-05 -3.09338e-05
-0.000326456 9.7854e-05 9.79722e-05 -2.5519e-05
-0.000323635 9.70094e-05 9.71251e-05 -2.5519e-05
-0.000401124 0.000120286 0.000120359 -1.85583e-05
-0.000394073 0.000118173 0.000118243 -1.85583e-05
-0.000236266 7.07822e-05 7.09214e-05 -3.09338e-05
-0.000240499 7.20481e-05 7.21931e-05 -3.09338e-05
-0.000397599 0.000119229 0.000119301 -1.85583e-05
-0.000315172 9.44754e-05 9.45841e-05 -2.5519e-05
-0.000238382 7.14152e-05 7.15572e-05 -3.09338e-05
-0.000320814 9.61647e-05 9.62781e-05 -2.5519e-05
-0.000317993 9.53201e-05 9.54311e-05 -2.5519e-05
-0.000394073 0.000118173 0.000118243 -1.85583e-05
-0.000387023 0.00011606 0.000116127 -1.85583e-05
-0.000232032 6.95163e-05 6.96498e-05 -3.09338e-05
-0.000236266 7.07822e-05 7.09214e-05 -3.09338e-05
-0.000390548 0.000117117 0.000117185 -1.85583e-05
-0.00030953 9.27861e-05 9.28901e-05 -2.5519e-05
-0.000234149 7.01493e-05 7.02856e-05 -3.09338e-05
-0.000315172 9.44754e-05 9.45841e-05 -2.5519e-05
-0.000312351 9.36308e-05 9.37371e-05 -2.5519e-05
-0.000387023 0.00011606 0.000116127 -1.85583e-05
-0.000379972 0.000113947 0.000114011 -1.85584e-05
-0.000227799 6.82503e-05 6.83782e-05 -3.09338e-05
-0.000232032 6.95163e-05 6.96498e-05 -3.09338e-05
-0.000383497 0.000115004 0.000115069 -1.85584e-05
-0.000303888 9.10968e-05 9.11961e-05 -2.55191e-05
-0.000229916 6.88833e-05 6.9014e-05 -3.09338e-05
-0.00030953 9.27861e-05 9.28901e-05 -2.5519e-05
-0.000306709 9.19414e-05 9.20431e-05 -2.5519e-05
-0.000379972 0.000113947 0.000114011 -1.85584e-05
-0.000372921 0.000111834 0.000111894 -1.85584e-05
-0.000223566 6.69843e-05 6.71066e-05 -3.09338e-05
-0.000227799 6.82503e-05 6.83782e-05 -3.09338e-05
-0.000376447 0.000112891 0.000112953 -1.85584e-05
-0.000298246 8.94074e-05 8.95023e-05 -2.55191e-05
-0.000225683 6.76173e-05 6.77424e-05 -3.09338e-05
-0.000303888 9.10968e-05 9.11961e-05 -2.55191e-05
-0.000301067 9.02521e-05 9.03492e-05 -2.55191e-05
-0.000372921 0.000111834 0.000111894 -1.85584e-05
-0.000365871 0.000109721 0.000109778 -1.85584e-05
-0.000219334 6.57182e-05 6.58352e-05 -3.09338e-05
-0.000223566 6.69843e-05 6.71066e-05 -3.09338e-05
-0.000369396 0.000110778 0.000110836 -1.85584e-05
-0.000292604 8.7718e-05 8.78084e-05 -2.55191e-05
-0.00022145 6.63513e-05 6.64709e-05 -3.09338e-05
-0.000298246 8.94074e-05 8.95023e-05 -2.55191e-05
-0.000295425 8.85627e-05 8.86553e-05 -2.55191e-05
-0.000365871 0.000109721 0.000109778 -1.85584e-05
-0.000358821 0.000107608 0.000107662 -1.85585e-05
-0.000215101 6.44521e-05 6.45638e-05 -3.09338e-05
-0.000219334 6.57182e-05 6.58352e-05 -3.09338e-05
-0.000362346 0.000108665 0.00010872 -1.85585e-05
-0.000286963 8.60285e-05 8.61147e-05 -2.55191e-05
-0.000217217 6.50852e-05 6.51995e-05 -3.09338e-05
-0.000292604 8.7718e-05 8.78084e-05 -2.55191e-05
-0.000289783 8.68732e-05 8.69615e-05 -2.55191e-05
-0.000358821 0.000107608 0.000107662 -1.85585e-05
-0.000351771 0.000105496 0.000105546 -1.85585e-05
-0.000210868 6.3186e-05 6.32924e-05 -3.09338e-05
-0.000215101 6.44521e-05 6.45638e-05 -3.09338e-05
-0.000355296 0.000106552 0.000106604 -1.85585e-05
-0.000281321 8.4339e-05 8.44209e-05 -2.55192e-05
-0.000212985 6.38191e-05 6.39281e-05 -3.09338e-05
-0.000286963 8.60285e-05 8.61147e-05 -2.55191e-05
-0.000284142 8.51838e-05 8.52678e-05 -2.55192e-05
-0.000351771 0.000105496 0.000105546 -1.85585e-05
-0.00034472 0.000103383 0.00010343 -1.85586e-05
-0.000206636 6.19198e-05 6.20212e-05 -3.09338e-05
-0.000210868 6.3186e-05 6.32924e-05 -3.09338e-05
-0.000348245 0.000104439 0.000104488 -1.85585e-05
-0.00027568 8.26495e-05 8.27273e-05 -2.55192e-05
-0.000208752 6.25529e-05 6.26568e-05 -3.09338e-05
-0.000281321 8.4339e-05 8.44209e-05 -2.55192e-05
-0.000278501 8.34943e-05 8.35741e-05 -2.55192e-05
-0.00034472 0.000103383 0.00010343 -1.85586e-05
-0.00033767 0.00010127 0.000101315 -1.85586e-05
-0.000202403 6.06535e-05 6.07499e-05 -3.09338e-05
-0.000206636 6.19198e-05 6.20212e-05 -3.09338e-05
-0.000341195 0.000102326 0.000102373 -1.85586e-05
-0.000270039 8.096e-05 8.10337e-05 -2.55192e-05
-0.00020452 6.12867e-05 6.13855e-05 -3.09338e-05
-0.00027568 8.26495e-05 8.27273e-05 -2.55192e-05
-0.000272859 8.18047e-05 8.18805e-05 -2.55192e-05
-0.00033767 0.00010127 0.000101315 -1.85586e-05
-0.00033062 9.91565e-05 9.91988e-05 -1.85587e-05
-0.000198171 5.93873e-05 5.94788e-05 -3.09338e-05
-0.000202403 6.06535e-05 6.07499e-05 -3.09338e-05
-0.000334145 0.000100213 0.000100257 -1.85586e-05
-0.000264397 7.92704e-05 7.93401e-05 -2.55193e-05
-0.000200287 6.00204e-05 6.01144e-05 -3.09338e-05
-0.000270039 8.096e-05 8.10337e-05 -2.55192e-05
-0.000267218 8.01152e-05 8.01869e-05 -2.55193e-05
-0.00033062 9.91565e-05 9.91988e-05 -1.85587e-05
-0.00032357 9.70435e-05 9.7083e-05 -1.85587e-05
-0.000193939 5.81209e-05 5.82077e-05 -3.09338e-05
-0.000198171 5.93873e-05 5.94788e-05 -3.09338e-05
-0.000327095 9.81e-05 9.81409e-05 -1.85587e-05
-0.000258756 7.75808e-05 7.76466e-05 -2.55193e-05
-0.000196055 5.87541e-05 5.88432e-05 -3.09338e-05
-0.000264397 7.92704e-05 7.93401e-05 -2.55193e-05
-0.000261577 7.84256e-05 7.84933e-05 -2.55193e-05
-0.00032357 9.70435e-05 9.7083e-05 -1.85587e-05
-0.000316521 9.49305e-05 9.49672e-05 -1.85587e-05
-0.000189707 5.68546e-05 5.69367e-05 -3.09338e-05
-0.000193939 5.81209e-05 5.82077e-05 -3.09338e-05
-0.000320046 9.5987e-05 9.60251e-05 -1.85587e-05
-0.000253115 7.58911e-05 7.59532e-05 -2.55193e-05
-0.000191823 5.74877e-05 5.75722e-05 -3.09338e-05
-0.000258756 7.75808e-05 7.76466e-05 -2.55193e-05
-0.000255936 7.67359e-05 7.67999e-05 -2.55193e-05
-0.000316521 9.49305e-05 9.49672e-05 -1.85587e-05
-0.000309471 9.28174e-05 9.28515e-05 -1.85588e-05
-0.000185475 5.55881e-05 5.56657e-05 -3.09339e-05
-0.000189707 5.68546e-05 5.69367e-05 -3.09338e-05
-0.000312996 9.38739e-05 9.39093e-05 -1.85588e-05
-0.000247474 7.42014e-05 7.42598e-05 -2.55194e-05
-0.000187591 5.62214e-05 5.63012e-05 -3.09339e-05
-0.000253115 7.58911e-05 7.59532e-05 -2.55193e-05
-0.000250295 7.50463e-05 7.51065e-05 -2.55194e-05
-0.000309471 9.28174e-05 9.28515e-05 -1.85588e-05
-0.000302421 9.07043e-05 9.07358e-05 -1.85588e-05
-0.000181243 5.43217e-05 5.43948e-05 -3.09339e-05
-0.000185475 5.55881e-05 5.56657e-05 -3.09339e-05
-0.000305946 9.17608e-05 9.17937e-05 -1.85588e-05
-0.000241833 7.25117e-05 7.25664e-05 -2.55194e-05
-0.000183359 5.49549e-05 5.50302e-05 -3.09339e-05
-0.000247474 7.42014e-05 7.42598e-05 -2.55194e-05
-0.000244654 7.33566e-05 7.34131e-05 -2.55194e-05
-0.000302421 9.07043e-05 9.07358e-05 -1.85588e-05
-0.000295372 8.85912e-05 8.86202e-05 -1.85589e-05
-0.000177011 5.30552e-05 5.31239e-05 -3.09339e-05
-0.000181243 5.43217e-05 5.43948e-05 -3.09339e-05
-0.000298896 8.96477e-05 8.9678e-05 -1.85589e-05
-0.000236193 7.0822e-05 7.08731e-05 -2.55195e-05
-0.000179127 5.36884e-05 5.37593e-05 -3.09339e-05
-0.000241833 7.25117e-05 7.25664e-05 -2.55194e-05
-0.000239013 7.16669e-05 7.17198e-05 -2.55194e-05
-0.000295372 8.85912e-05 8.86202e-05 -1.85589e-05
-0.000288322 8.64781e-05 8.65046e-05 -1.85589e-05
-0.000172779 5.17886e-05 5.18531e-05 -3.09339e-05
-0.000177011 5.30552e-05 5.31239e-05 -3.09339e-05
-0.000291847 8.75346e-05 8.75624e-05 -1.85589e-05
-0.000230552 6.91322e-05 6.91799e-05 -2.55195e-05
-0.000174895 5.24219e-05 5.24885e-05 -3.09339e-05
-0.000236193 7.0822e-05 7.08731e-05 -2.55195e-05
-0.000233372 6.99771e-05 7.00265e-05 -2.55195e-05
-0.000288322 8.64781e-05 8.65046e-05 -1.85589e-05
-0.000281273 8.43649e-05 8.43891e-05 -1.8559e-05
-0.000168548 5.0522e-05 5.05824e-05 -3.09339e-05
-0.000172779 5.17886e-05 5.18531e-05 -3.09339e-05
-0.000284797 8.54215e-05 8.54469e-05 -1.85589e-05
-0.000224911 6.74424e-05 6.74867e-05 -2.55195e-05
-0.000170663 5.11553e-05 5.12178e-05 -3.09339e-05
-0.000230552 6.91322e-05 6.91799e-05 -2.55195e-05
-0.000227732 6.82873e-05 6.83333e-05 -2.55195e-05
-0.000281273 8.43649e-05 8.43891e-05 -1.8559e-05
-0.000274223 8.22517e-05 8.22736e-05 -1.8559e-05
-0.000164316 4.92554e-05 4.93117e-05 -3.0934e-05
-0.000168548 5.0522e-05 5.05824e-05 -3.09339e-05
-0.000277748 8.33083e-05 8.33313e-05 -1.8559e-05
-0.000219271 6.57525e-05 6.57936e-05 -2.55196e-05
-0.000166432 4.98887e-05 4.99471e-05 -3.0934e-05
-0.000224911 6.74424e-05 6.74867e-05 -2.55195e-05
-0.000222091 6.65975e-05 6.66401e-05 -2.55196e-05
-0.000274223 8.22517e-05 8.22736e-05 -1.8559e-05
-0.000267174 8.01386e-05 8.01582e-05 -1.85591e-05
-0.000160085 4.79887e-05 4.80411e-05 -3.0934e-05
-0.000164316 4.92554e-05 4.93117e-05 -3.0934e-05
-0.000270699 8.11952e-05 8.12159e-05 -1.8559e-05
-0.000213631 6.40627e-05 6.41005e-05 -2.55196e-05
-0.0001622 4.86221e-05 4.86764e-05 -3.0934e-05
-0.000219271 6.57525e-05 6.57936e-05 -2.55196e-05
-0.000216451 6.49076e-05 6.4947e-05 -2.55196e-05
-0.000267174 8.01386e-05 8.01582e-05 -1.85591e-05
-0.000260125 7.80253e-05 7.80427e-05 -1.85591e-05
-0.000155853 4.6722e-05 4.67706e-05 -3.0934e-05
-0.000160085 4.79887e-05 4.80411e-05 -3.0934e-05
-0.00026365 7.9082e-05 7.91004e-05 -1.85591e-05
-0.00020799 6.23727e-05 6.24075e-05 -2.55197e-05
-0.000157969 4.73554e-05 4.74059e-05 -3.0934e-05
-0.000213631 6.40627e-05 6.41005e-05 -2.55196e-05
-0.00021081 6.32177e-05 6.3254e-05 -2.55197e-05
-0.000260125 7.80253e-05 7.80427e-05 -1.85591e-05
-0.000253076 7.59121e-05 7.59274e-05 -1.85592e-05
-0.000151622 4.54552e-05 4.55001e-05 -3.0934e-05
-0.000155853 4.6722e-05 4.67706e-05 -3.0934e-05
-0.000256601 7.69687e-05 7.69851e-05 -1.85591e-05
-0.00020235 6.06828e-05 6.07145e-05 -2.55197e-05
-0.000153738 4.60886e-05 4.61353e-05 -3.0934e-05
-0.00020799 6.23727e-05 6.24075e-05 -2.55197e-05
-0.00020517 6.15278e-05 6.1561e-05 -2.55197e-05
-0.000253076 7.59121e-05 7.59274e-05 -1.85592e-05
-0.000246027 7.37989e-05 7.38121e-05 -1.85592e-05
-0.000147391 4.41884e-05 4.42297e-05 -3.09341e-05
-0.000151622 4.54552e-05 4.55001e-05 -3.0934e-05
-0.000249552 7.48555e-05 7.48697e-05 -1.85592e-05
-0.00019671 5.89928e-05 5.90216e-05 -2.55198e-05
-0.000149507 4.48218e-05 4.48649e-05 -3.09341e-05
-0.00020235 6.06828e-05 6.07145e-05 -2.55197e-05
-0.00019953 5.98378e-05 5.98681e-05 -2.55197e-05
-0.000246027 7.37989e-05 7.38121e-05 -1.85592e-05
-0.000238978 7.16856e-05 7.16968e-05 -1.85593e-05
-0.00014316 4.29216e-05 4.29593e-05 -3.09341e-05
-0.000147391 4.41884e-05 4.42297e-05 -3.09341e-05
-0.000242503 7.27422e-05 7.27544e-05 -1.85592e-05
-0.00019107 5.73028e-05 5.73288e-05 -2.55198e-05
-0.000145275 4.3555e-05 4.35945e-05 -3.09341e-05
-0.00019671 5.89928e-05 5.90216e-05 -2.55198e-05
-0.00019389 5.81478e-05 5.81752e-05 -2.55198e-05
-0.000238978 7.16856e-05 7.16968e-05 -1.85593e-05
-0.000231929 6.95723e-05 6.95816e-05 -1.85593e-05
-0.000138929 4.16547e-05 4.1689e-05 -3.09341e-05
-0.00014316 4.29216e-05 4.29593e-05 -3.09341e-05
-0.000235454 7.0629e-05 7.06392e-05 -1.85593e-05
-0.00018543 5.56127e-05 5.56359e-05 -2.55199e-05
-0.000141044 4.22881e-05 4.23242e-05 -3.09341e-05
-0.00019107 5.73028e-05 5.73288e-05 -2.55198e-05
-0.00018825 5.64578e-05 5.64823e-05 -2.55198e-05
-0.000231929 6.95723e-05 6.95816e-05 -1.85593e-05
-0.000224881 6.7459e-05 6.74664e-05 -1.85594e-05
-0.000134698 4.03877e-05 4.04188e-05 -3.09342e-05
-0.000138929 4.16547e-05 4.1689e-05 -3.09341e-05
-0.000228405 6.85157e-05 6.8524e-05 -1.85594e-05
-0.00017979 5.39227e-05 5.39432e-05 -2.55199e-05
-0.000136814 4.10212e-05 4.10539e-05 -3.09342e-05
-0.00018543 5.56127e-05 5.56359e-05 -2.55199e-05
-0.00018261 5.47677e-05 5.47896e-05 -2.55199e-05
-0.000224881 6.7459e-05 6.74664e-05 -1.85594e-05
-0.000217832 6.53457e-05 6.53512e-05 -1.85594e-05
-0.000130467 3.91207e-05 3.91486e-05 -3.09342e-05
-0.000134698 4.03877e-05 4.04188e-05 -3.09342e-05
-0.000221356 6.64023e-05 6.64088e-05 -1.85594e-05
-0.00017415 5.22325e-05 5.22505e-05 -2.552e-05
-0.000132583 3.97542e-05 3.97837e-05 -3.09342e-05
-0.00017979 5.39227e-05 5.39432e-05 -2.55199e-05
-0.00017697 5.30776e-05 5.30968e-05 -2.55199e-05
-0.000217832 6.53457e-05 6.53512e-05 -1.85594e-05
-0.000210783 6.32323e-05 6.32361e-05 -1.85595e-05
-0.000126237 3.78537e-05 3.78785e-05 -3.09342e-05
-0.000130467 3.91207e-05 3.91486e-05 -3.09342e-05
-0.000214308 6.4289e-05 6.42937e-05 -1.85595e-05
-0.000168511 5.05424e-05 5.05578e-05 -2.552e-05
-0.000128352 3.84872e-05 3.85135e-05 -3.09342e-05
-0.00017415 5.22325e-05 5.22505e-05 -2.552e-05
-0.000171331 5.13875e-05 5.14042e-05 -2.552e-05
-0.000210783 6.32323e-05 6.32361e-05 -1.85595e-05
-0.000203735 6.11189e-05 6.11211e-05 -1.85595e-05
-0.000122006 3.65866e-05 3.66084e-05 -3.09343e-05
-0.000126237 3.78537e-05 3.78785e-05 -3.09342e-05
-0.000207259 6.21756e-05 6.21786e-05 -1.85595e-05
-0.000162871 4.88522e-05 4.88653e-05 -2.55201e-05
-0.000124121 3.72202e-05 3.72434e-05 -3.09342e-05
-0.000168511 5.05424e-05 5.05578e-05 -2.552e-05
-0.000165691 4.96973e-05 4.97115e-05 -2.552e-05
-0.000203735 6.11189e-05 6.11211e-05 -1.85595e-05
-0.000196686 5.90055e-05 5.9006e-05 -1.85596e-05
-0.000117776 3.53195e-05 3.53384e-05 -3.09343e-05
-0.000122006 3.65866e-05 3.66084e-05 -3.09343e-05
-0.000200211 6.00622e-05 6.00635e-05 -1.85596e-05
-0.000157232 4.7162e-05 4.71727e-05 -2.55201e-05
-0.000119891 3.5953e-05 3.59734e-05 -3.09343e-05
-0.000162871 4.88522e-05 4.88653e-05 -2.55201e-05
-0.000160051 4.80071e-05 4.8019e-05 -2.55201e-05
-0.000196686 5.90055e-05 5.9006e-05 -1.85596e-05
-0.000189638 5.68921e-05 5.68911e-05 -1.85596e-05
-0.000113545 3.40523e-05 3.40685e-05 -3.09343e-05
-0.000117776 3.53195e-05 3.53384e-05 -3.09343e-05
-0.000193162 5.79488e-05 5.79486e-05 -1.85596e-05
-0.000151592 4.54717e-05 4.54802e-05 -2.55202e-05
-0.000115661 3.46859e-05 3.47034e-05 -3.09343e-05
-0.000157232 4.7162e-05 4.71727e-05 -2.55201e-05
-0.000154412 4.63168e-05 4.63265e-05 -2.55201e-05
-0.000189638 5.68921e-05 5.68911e-05 -1.85596e-05
-0.00018259 5.47787e-05 5.47761e-05 -1.85597e-05
-0.000109315 3.27851e-05 3.27986e-05 -3.09343e-05
-0.000113545 3.40523e-05 3.40685e-05 -3.09343e-05
-0.000186114 5.58354e-05 5.58336e-05 -1.85597e-05
-0.000145953 4.37814e-05 4.37878e-05 -2.55202e-05
-0.00011143 3.34187e-05 3.34335e-05 -3.09343e-05
-0.000151592 4.54717e-05 4.54802e-05 -2.55202e-05
-0.000148773 4.46266e-05 4.4634e-05 -2.55202e-05
-0.00018259 5.47787e-05 5.47761e-05 -1.85597e-05
-0.000175541 5.26652e-05 5.26613e-05 -1.85597e-05
-0.000105085 3.15178e-05 3.15288e-05 -3.09343e-05
-0.000109315 3.27851e-05 3.27986e-05 -3.09343e-05
-0.000179066 5.37219e-05 5.37187e-05 -1.85597e-05
-0.000140314 4.20911e-05 4.20954e-05 -2.55202e-05
-0.0001072 3.21514e-05 3.21637e-05 -3.09343e-05
-0.000145953 4.37814e-05 4.37878e-05 -2.55202e-05
-0.000143133 4.29362e-05 4.29416e-05 -2.55202e-05
-0.000175541 5.26652e-05 5.26613e-05 -1.85597e-05
-0.000168493 5.05517e-05 5.05464e-05 -1.85597e-05
-0.000100855 3.02505e-05 3.0259e-05 -3.09343e-05
-0.000105085 3.15178e-05 3.15288e-05 -3.09343e-05
-0.000172017 5.16085e-05 5.16038e-05 -1.85597e-05
-0.000134675 4.04007e-05 4.04031e-05 -2.55202e-05
-0.00010297 3.08841e-05 3.08939e-05 -3.09343e-05
-0.000140314 4.20911e-05 4.20954e-05 -2.55202e-05
-0.000137494 4.12459e-05 4.12492e-05 -2.55202e-05
-0.000168493 5.05517e-05 5.05464e-05 -1.85597e-05
-0.000161445 4.84382e-05 4.84316e-05 -1.85598e-05
-9.66248e-05 2.89831e-05 2.89893e-05 -3.09343e-05
-0.000100855 3.02505e-05 3.0259e-05 -3.09343e-05
-0.000164969 4.9495e-05 4.9489e-05 -1.85597e-05
-0.000129036 3.87103e-05 3.87108e-05 -2.55202e-05
-9.87398e-05 2.96168e-05 2.96242e-05 -3.09343e-05
-0.000134675 4.04007e-05 4.04031e-05 -2.55202e-05
-0.000131855 3.95555e-05 3.95569e-05 -2.55202e-05
-0.000161445 4.84382e-05 4.84316e-05 -1.85598e-05
-0.000154397 4.63247e-05 4.63169e-05 -1.85598e-05
-9.23949e-05 2.77157e-05 2.77197e-05 -3.09343e-05
-9.66248e-05 2.89831e-05 2.89893e-05 -3.09343e-05
-0.000157921 4.73815e-05 4.73742e-05 -1.85598e-05
-0.000123397 3.70199e-05 3.70186e-05 -2.55203e-05
-9.45099e-05 2.83494e-05 2.83545e-05 -3.09343e-05
-0.000129036 3.87103e-05 3.87108e-05 -2.55202e-05
-0.000126216 3.78651e-05 3.78647e-05 -2.55203e-05
-0.000154397 4.63247e-05 4.63169e-05 -1.85598e-05
-0.00014735 4.42112e-05 4.42022e-05 -1.85598e-05
-8.81651e-05 2.64483e-05 2.64501e-05 -3.09343e-05
-9.23949e-05 2.77157e-05 2.77197e-05 -3.09343e-05
-0.000150874 4.5268e-05 4.52595e-05 -1.85598e-05
-0.000117758 3.53295e-05 3.53264e-05 -2.55203e-05
-9.028e-05 2.7082e-05 2.70849e-05 -3.09343e-05
-0.000123397 3.70199e-05 3.70186e-05 -2.55203e-05
-0.000120577 3.61747e-05 3.61725e-05 -2.55203e-05
-0.00014735 4.42112e-05 4.42022e-05 -1.85598e-05
-0.000140302 4.20977e-05 4.20875e-05 -1.85599e-05
-8.39355e-05 2.51809e-05 2.51805e-05 -3.09343e-05
-8.81651e-05 2.64483e-05 2.64501e-05 -3.09343e-05
-0.000143826 4.31545e-05 4.31448e-05 -1.85599e-05
-0.000112119 3.36391e-05 3.36343e-05 -2.55204e-05
-8.60503e-05 2.58146e-05 2.58153e-05 -3.09343e-05
-0.000117758 3.53295e-05 3.53264e-05 -2.55203e-05
-0.000114938 3.44843e-05 3.44803e-05 -2.55203e-05
-0.000140302 4.20977e-05 4.20875e-05 -1.85599e-05
-0.000133254 3.99842e-05 3.99728e-05 -1.85601e-05
-7.9706e-05 2.39136e-05 2.3911e-05 -3.09344e-05
-8.39355e-05 2.51809e-05 2.51805e-05 -3.09343e-05
-0.000136778 4.1041e-05 4.10302e-05 -1.856e-05
-0.00010648 3.19487e-05 3.19422e-05 -2.55205e-05
-8.18208e-05 2.45473e-05 2.45458e-05 -3.09343e-05
-0.000112119 3.36391e-05 3.36343e-05 -2.55204e-05
-0.0001093 3.27939e-05 3.27882e-05 -2.55204e-05
-0.000133254 3.99842e-05 3.99728e-05 -1.85601e-05
-0.000126207 3.78708e-05 3.78582e-05 -1.85603e-05
-7.54768e-05 2.26463e-05 2.26416e-05 -3.09345e-05
-7.9706e-05 2.39136e-05 2.3911e-05 -3.09344e-05
-0.00012973 3.89275e-05 3.89155e-05 -1.85602e-05
-0.000100842 3.02584e-05 3.02501e-05 -2.55207e-05
-7.75914e-05 2.328e-05 2.32763e-05 -3.09344e-05
-0.00010648 3.19487e-05 3.19422e-05 -2.55205e-05
-0.000103661 3.11035e-05 3.10961e-05 -2.55206e-05
-0.000126207 3.78708e-05 3.78582e-05 -1.85603e-05
-0.000119159 3.57573e-05 3.57437e-05 -1.85607e-05
-7.12477e-05 2.13791e-05 2.13723e-05 -3.09346e-05
-7.54768e-05 2.26463e-05 2.26416e-05 -3.09345e-05
-0.000122683 3.6814e-05 3.6801e-05 -1.85605e-05
-9.52038e-05 2.85681e-05 2.85582e-05 -2.5521e-05
-7.33622e-05 2.20127e-05 2.20069e-05 -3.09345e-05
-0.000100842 3.02584e-05 3.02501e-05 -2.55207e-05
-9.80229e-05 2.94132e-05 2.94042e-05 -2.55208e-05
-0.000119159 3.57573e-05 3.57437e-05 -1.85607e-05
-0.000112112 3.36437e-05 3.36292e-05 -1.85612e-05
-6.70188e-05 2.01116e-05 2.01031e-05 -3.0935e-05
-7.12477e-05 2.13791e-05 2.13723e-05 -3.09346e-05
-0.000115636 3.47005e-05 3.46864e-05 -1.8561e-05
-8.95657e-05 2.68776e-05 2.68664e-05 -2.55214e-05
-6.91332e-05 2.07454e-05 2.07377e-05 -3.09348e-05
-9.52038e-05 2.85681e-05 2.85582e-05 -2.5521e-05
-9.23848e-05 2.77229e-05 2.77123e-05 -2.55212e-05
-0.000112112 3.36437e-05 3.36292e-05 -1.85612e-05
-0.000105065 3.15298e-05 3.15149e-05 -1.85614e-05
-6.27895e-05 1.88433e-05 1.88341e-05 -3.09354e-05
-6.70188e-05 2.01116e-05 2.01031e-05 -3.0935e-05
-0.000108588 3.25868e-05 3.2572e-05 -1.85614e-05
-8.39276e-05 2.51864e-05 2.51748e-05 -2.55215e-05
-6.49042e-05 1.94776e-05 1.94686e-05 -3.09352e-05
-8.95657e-05 2.68776e-05 2.68664e-05 -2.55214e-05
-8.67467e-05 2.60321e-05 2.60205e-05 -2.55215e-05
-0.000105065 3.15298e-05 3.15149e-05 -1.85614e-05
-9.80174e-05 2.94151e-05 2.9401e-05 -1.85608e-05
-5.85589e-05 1.75728e-05 1.75655e-05 -3.0936e-05
-6.27895e-05 1.88433e-05 1.88341e-05 -3.09354e-05
-0.000101541 3.04726e-05 3.04579e-05 -1.85613e-05
-7.82887e-05 2.34935e-05 2.34836e-05 -2.55209e-05
-6.06744e-05 1.82084e-05 1.81997e-05 -3.09357e-05
-8.39276e-05 2.51864e-05 2.51748e-05 -2.55215e-05
-8.11083e-05 2.43403e-05 2.43291e-05 -2.55214e-05
-9.80174e-05 2.94151e-05 2.9401e-05 -1.85608e-05
-9.09705e-05 2.72984e-05 2.72881e-05 -1.85572e-05
-5.43242e-05 1.6297e-05 1.62973e-05 -3.09367e-05
-5.85589e-05 1.75728e-05 1.75655e-05 -3.0936e-05
-9.44939e-05 2.83571e-05 2.83443e-05 -1.85596e-05
-7.26477e-05 2.17966e-05 2.17933e-05 -2.5518e-05
-5.64424e-05 1.69359e-05 1.69314e-05 -3.09363e-05
-7.82887e-05 2.34935e-05 2.34836e-05 -2.55209e-05
-7.54686e-05 2.26459e-05 2.26383e-05 -2.55199e-05
-9.09705e-05 2.72984e-05 2.72881e-05 -1.85572e-05
-8.39226e-05 2.51774e-05 2.51765e-05 -1.85474e-05
-5.00809e-05 1.50102e-05 1.50303e-05 -3.0937e-05
-5.43242e-05 1.6297e-05 1.62973e-05 -3.09367e-05
-8.74469e-05 2.62386e-05 2.62321e-05 -1.85534e-05
-6.7001e-05 2.00907e-05 2.01044e-05 -2.55098e-05
-5.22038e-05 1.56555e-05 1.56635e-05 -3.0937e-05
-7.26477e-05 2.17966e-05 2.17933e-05 -2.5518e-05
-6.98253e-05 2.09451e-05 2.09487e-05 -2.55148e-05
-8.39226e-05 2.51774e-05 2.51765e-05 -1.85474e-05
-7.68748e-05 2.30477e-05 2.30688e-05 -1.85225e-05
-4.58164e-05 1.37017e-05 1.37634e-05 -3.0937e-05
-5.00809e-05 1.50102e-05 1.50303e-05 -3.0937e-05
-8.03984e-05 2.41139e-05 2.41219e-05 -1.85377e-05
-6.13421e-05 1.83676e-05 1.84176e-05 -2.54908e-05
-4.79527e-05 1.43597e-05 1.4397e-05 -3.09369e-05
-6.7001e-05 2.00907e-05 2.01044e-05 -2.55098e-05
-6.41736e-05 1.92323e-05 1.92606e-05 -2.55024e-05
-7.68748e-05 2.30477e-05 2.30688e-05 -1.85225e-05
-6.9821e-05 2.09021e-05 2.09653e-05 -1.84707e-05
-4.1515e-05 1.23524e-05 1.24983e-05 -3.09352e-05
-4.58164e-05 1.37017e-05 1.37634e-05 -3.0937e-05
-7.33498e-05 2.19778e-05 2.20166e-05 -1.85009e-05
-5.56567e-05 1.66104e-05 1.67341e-05 -2.54507e-05
-4.36709e-05 1.30335e-05 1.31303e-05 -3.09366e-05
-6.13421e-05 1.83676e-05 1.84176e-05 -2.54908e-05
-5.85039e-05 1.74941e-05 1.75756e-05 -2.54737e-05
-6.9821e-05 2.09021e-05 2.09653e-05 -1.84707e-05
-6.27644e-05 1.87261e-05 1.88736e-05 -1.83624e-05
-3.71336e-05 1.09345e-05 1.12282e-05 -3.09348e-05
-4.1515e-05 1.23524e-05 1.24983e-05 -3.09352e-05
-6.62915e-05 1.98182e-05 1.99171e-05 -1.84265e-05
-4.99215e-05 1.47969e-05 1.50534e-05 -2.53736e-05
-3.93391e-05 1.1655e-05 1.18646e-05 -3.09342e-05
-5.56567e-05 1.66104e-05 1.67341e-05 -2.54507e-05
-5.2797e-05 1.57138e-05 1.58928e-05 -2.54193e-05
-6.27644e-05 1.87261e-05 1.88736e-05 -1.83624e-05
-5.56752e-05 1.6503e-05 1.67881e-05 -1.81678e-05
-3.26306e-05 9.40297e-06 9.95471e-06 -3.09342e-05
-3.71336e-05 1.09345e-05 1.12282e-05 -3.09348e-05
-5.92292e-05 1.7624e-05 1.78308e-05 -1.82779e-05
-4.4087e-05 1.28809e-05 1.3374e-05 -2.5237e-05
-3.48976e-05 1.01848e-05 1.05912e-05 -3.09353e-05
-4.99215e-05 1.47969e-05 1.50534e-05 -2.53736e-05
-4.70211e-05 1.38526e-05 1.42151e-05 -2.5312e-05
-5.56752e-05 1.6503e-05 1.67881e-05 -1.81678e-05
-4.85623e-05 1.41917e-05 1.47303e-05 -1.78094e-05
-2.78907e-05 7.71951e-06 8.64479e-06 -3.09597e-05
-3.26306e-05 9.40297e-06 9.95471e-06 -3.09342e-05
-5.21153e-05 1.53561e-05 1.57539e-05 -1.80166e-05
-3.80904e-05 1.08279e-05 1.16839e-05 -2.50153e-05
-3.03044e-05 8.58537e-06 9.30814e-06 -3.09399e-05
-4.4087e-05 1.28809e-05 1.3374e-05 -2.5237e-05
-4.11123e-05 1.18795e-05 1.25284e-05 -2.51438e-05
-4.85623e-05 1.41917e-05 1.47303e-05 -1.78094e-05
-4.12931e-05 1.17816e-05 1.26478e-05 -1.72577e-05
-2.28643e-05 5.8426e-06 7.295e-06 -3.1027e-05
-2.78907e-05 7.71951e-06 8.64479e-06 -3.09597e-05
-4.49702e-05 1.3012e-05 1.36964e-05 -1.7558e-05
-3.17866e-05 8.55357e-06 9.957e-06 -2.47073e-05
-2.54054e-05 6.79804e-06 7.97457e-06 -3.09883e-05
-3.80904e-05 1.08279e-05 1.16839e-05 -2.50153e-05
-3.49916e-05 9.71123e-06 1.08345e-05 -2.48601e-05
-4.12931e-05 1.17816e-05 1.26478e-05 -1.72577e-05
-3.3877e-05 9.17342e-06 1.05873e-05 -1.63956e-05
-1.73693e-05 3.90233e-06 5.77156e-06 -3.12775e-05
-2.28643e-05 5.8426e-06 7.295e-06 -3.1027e-05
-3.75792e-05 1.04783e-05 1.16147e-05 -1.68758e-05
-2.50804e-05 6.13986e-06 8.11739e-06 -2.43723e-05
-2.0206e-05 4.87671e-06 6.5697e-06 -3.11122e-05
-3.17866e-05 8.55357e-06 9.957e-06 -2.47073e-05
-2.84809e-05 7.37491e-06 9.04544e-06 -2.45567e-05
-3.3877e-05 9.17342e-06 1.05873e-05 -1.63956e-05
-2.57963e-05 6.5776e-06 8.2366e-06 -1.54693e-05
-1.16784e-05 2.21665e-06 4.05503e-06 -3.18048e-05
-1.73693e-05 3.90233e-06 5.77156e-06 -3.12775e-05
-3.00087e-05 7.91635e-06 9.46815e-06 -1.59135e-05
-1.76643e-05 3.67941e-06 5.99353e-06 -2.43175e-05
-1.44836e-05 2.95381e-06 4.94133e-06 -3.15029e-05
-2.50804e-05 6.13986e-06 8.11739e-06 -2.43723e-05
-2.15025e-05 4.84616e-06 7.13841e-06 -2.42338e-05
-2.57963e-05 6.5776e-06 8.2366e-06 -1.54693e-05
-1.71093e-05 4.00818e-06 5.61475e-06 -1.48835e-05
-6.16176e-06 2.17191e-06 1.70994e-06 -3.29377e-05
-1.16784e-05 2.21665e-06 4.05503e-06 -3.18048e-05
-2.14324e-05 5.11417e-06 6.99351e-06 -1.50729e-05
-9.97444e-06 2.50016e-06 3.20326e-06 -2.52072e-05
-8.91678e-06 1.90193e-06 3.00636e-06 -3.22658e-05
-1.76643e-05 3.67941e-06 5.99353e-06 -2.43175e-05
-1.37577e-05 2.85255e-06 4.67365e-06 -2.46616e-05
-1.71093e-05 4.00818e-06 5.61475e-06 -1.48835e-05
-7.04548e-06 4.23496e-06 1.20451e-06 -1.73765e-05
-3.25107e-06 6.22681e-06 -1.27531e-06 -3.37654e-05
-6.16176e-06 2.17191e-06 1.70994e-06 -3.29377e-05
-1.2442e-05 3.73712e-06 3.73065e-06 -1.548e-05
-2.98155e-06 5.54205e-06 -1.09736e-06 -2.83322e-05
-4.05823e-06 3.3217e-06 3.15653e-07 -3.35183e-05
-9.97444e-06 2.50016e-06 3.20326e-06 -2.52072e-05
-6.36539e-06 2.97013e-06 1.45511e-06 -2.6235e-05
-7.04548e-06 4.23496e-06 1.20451e-06 -1.73765e-05
-2.35719e-06 1.58176e-05 -5.76875e-06 -2.64202e-05
-4.71403e-06 1.89532e-05 -6.10251e-06 -3.09697e-05
-3.25107e-06 6.22681e-06 -1.27531e-06 -3.37654e-05
-2.99285e-06 6.43574e-06 -1.47552e-06 -2.06155e-05
-5.06086e-06 2.16251e-05 -7.09896e-06 -3.07538e-05
-3.53734e-06 1.16038e-05 -3.45706e-06 -3.32488e-05
-2.98155e-06 5.54205e-06 -1.09736e-06 -2.83322e-05
-1.86575e-06 1.15514e-05 -4.15098e-06 -3.04603e-05
-2.35719e-06 1.58176e-05 -5.76875e-06 -2.64202e-05
-2.12427e-05 7.01032e-05 -2.09402e-05 -2.65928e-05
-9.05598e-06 3.42939e-05 -1.08162e-05 -1.63667e-05
-4.71403e-06 1.89532e-05 -6.10251e-06 -3.09697e-05
-7.61502e-06 3.7435e-05 -1.278e-05 -3.10506e-05
-1.68405e-05 5.05179e-05 -1.44331e-05 -1.55465e-05
-6.61049e-06 2.72139e-05 -8.83002e-06 -2.55823e-05
-5.06086e-06 2.16251e-05 -7.09896e-06 -3.07538e-05
-1.06811e-05 3.55572e-05 -1.06612e-05 -2.66143e-05
-0.000683178 0 0.000292791 8.97982e-05
-0.000772436 0.000101766 0.00028743 -2.84709e-06
-0.0002508 3.37036e-05 9.30412e-05 4.65161e-05
-0.000246634 -1.11022e-16 0.0001057 0.000140358
-0.000740228 5.72128e-05 0.000292721 3.38508e-05
-0.000511518 6.77778e-05 0.000190174 2.75178e-05
-0.000240752 1.4258e-05 9.70689e-05 8.85146e-05
-0.000454841 0 0.000194932 0.000128324
-0.00049035 3.2265e-05 0.000196322 6.36108e-05
-0.000772436 0.000101766 0.00028743 -2.84709e-06
-0.000811813 0.000186132 0.000268149 -3.16844e-05
-0.000270174 5.54977e-05 9.20042e-05 -9.63861e-06
-0.0002508 3.37036e-05 9.30412e-05 4.65161e-05
-0.000792178 0.000146638 0.00027666 -2.1434e-05
-0.000537676 0.000116232 0.000180619 -1.75103e-05
-0.000264649 4.67554e-05 9.33829e-05 1.34974e-05
-0.000511518 6.77778e-05 0.000190174 2.75178e-05
-0.00052506 9.53706e-05 0.000184153 3.12745e-06
-0.000811813 0.000186132 0.000268149 -3.16844e-05
-0.000831727 0.00022861 0.000258479 -3.72647e-05
-0.000275857 7.16976e-05 8.74968e-05 -3.50816e-05
-0.000270174 5.54977e-05 9.20042e-05 -9.63861e-06
-0.000826582 0.000212517 0.000263171 -3.67347e-05
-0.000552977 0.000147205 0.000173902 -3.68922e-05
-0.000272277 6.41367e-05 8.92032e-05 -2.49769e-05
-0.000537676 0.000116232 0.000180619 -1.75103e-05
-0.000547578 0.000133682 0.000177384 -3.0898e-05
-0.000831727 0.00022861 0.000258479 -3.72647e-05
-0.000830913 0.000245225 0.000251009 -3.44961e-05
-0.000278814 7.9303e-05 8.55045e-05 -4.41578e-05
-0.000275857 7.16976e-05 8.74968e-05 -3.50816e-05
-0.000831692 0.000239052 0.000253988 -3.57105e-05
-0.000555492 0.000160937 0.000169095 -4.11877e-05
-0.000278755 7.651e-05 8.66765e-05 -4.11621e-05
-0.000552977 0.000147205 0.000173902 -3.68922e-05
-0.000555181 0.00015587 0.000171133 -3.95854e-05
-0.000830913 0.000245225 0.000251009 -3.44961e-05
-0.00082505 0.000248324 0.000247168 -3.2631e-05
-0.000276932 8.22072e-05 8.34535e-05 -4.51276e-05
-0.000278814 7.9303e-05 8.55045e-05 -4.41578e-05
-0.000828872 0.000247856 0.000249007 -3.3573e-05
-0.000552188 0.000165399 0.000165767 -4.05573e-05
-0.000277663 8.11629e-05 8.42142e-05 -4.51464e-05
-0.000555492 0.000160937 0.000169095 -4.11877e-05
-0.000554348 0.00016395 0.000167313 -4.13782e-05
-0.00082505 0.000248324 0.000247168 -3.2631e-05
-0.000816819 0.000247005 0.000244206 -3.1384e-05
-0.000274598 8.2115e-05 8.24927e-05 -4.35298e-05
-0.000276932 8.22072e-05 8.34535e-05 -4.51276e-05
-0.000820636 0.000247927 0.000245447 -3.18093e-05
-0.000546747 0.000164992 0.000163609 -3.888e-05
-0.000276088 8.24064e-05 8.30065e-05 -4.44933e-05
-0.000552188 0.000165399 0.000165767 -4.05573e-05
-0.000549494 0.00016557 0.000164539 -3.96041e-05
-0.000816819 0.000247005 0.000244206 -3.1384e-05
-0.000809657 0.000244216 0.000242332 -3.10128e-05
-0.000271632 8.12265e-05 8.16026e-05 -4.14608e-05
-0.000274598 8.2115e-05 8.24927e-05 -4.35298e-05
-0.000813269 0.000245687 0.000243249 -3.11816e-05
-0.000541413 0.000163209 0.000162087 -3.73814e-05
-0.00027295 8.1704e-05 8.19625e-05 -4.24523e-05
-0.000546747 0.000164992 0.000163609 -3.888e-05
-0.000544026 0.000164162 0.000162799 -3.81381e-05
-0.000809657 0.000244216 0.000242332 -3.10128e-05
-0.000803142 0.000241506 0.000240701 -3.08524e-05
-0.000269223 8.01146e-05 8.10466e-05 -3.98179e-05
-0.000271632 8.12265e-05 8.16026e-05 -4.14608e-05
-0.000806207 0.000242814 0.000241454 -3.08885e-05
-0.000536675 0.000161153 0.000160938 -3.63269e-05
-0.000270454 8.06749e-05 8.13341e-05 -4.05784e-05
-0.000541413 0.000163209 0.000162087 -3.73814e-05
-0.000538948 0.000162176 0.000161474 -3.67679e-05
-0.000803142 0.000241506 0.000240701 -3.08524e-05
-0.000797586 0.000239137 0.000239335 -3.08614e-05
-0.000267025 7.91624e-05 8.05124e-05 -3.86799e-05
-0.000269223 8.01146e-05 8.10466e-05 -3.98179e-05
-0.000800316 0.000240276 0.000240017 -3.08594e-05
-0.000532606 0.000159374 0.000159957 -3.56546e-05
-0.000268045 7.96121e-05 8.0757e-05 -3.91822e-05
-0.000536675 0.000161153 0.000160938 -3.63269e-05
-0.000534569 0.00016022 0.000160435 -3.59632e-05
-0.000797586 0.000239137 0.000239335 -3.08614e-05
-0.000792523 0.000237163 0.000238011 -3.08785e-05
-0.000265183 7.83708e-05 8.00626e-05 -3.79801e-05
-0.000267025 7.91624e-05 8.05124e-05 -3.86799e-05
-0.000794979 0.000238105 0.00023866 -3.08643e-05
-0.000529028 0.000157888 0.00015906 -3.52613e-05
-0.000266094 7.8748e-05 8.0291e-05 -3.82861e-05
-0.000532606 0.000159374 0.000159957 -3.56546e-05
-0.000530766 0.000158597 0.000159501 -3.54234e-05
-0.000792523 0.000237163 0.000238011 -3.08785e-05
-0.000787857 0.000235471 0.000236737 -3.09075e-05
-0.000263496 7.77312e-05 7.96134e-05 -3.75723e-05
-0.000265183 7.83708e-05 8.00626e-05 -3.79801e-05
-0.000790166 0.000236288 0.000237376 -3.08961e-05
-0.000525779 0.00015666 0.000158194 -3.504e-05
-0.000264312 7.80347e-05 7.98329e-05 -3.7746e-05
-0.000529028 0.000157888 0.00015906 -3.52613e-05
-0.000527373 0.000157247 0.000158625 -3.51372e-05
-0.000787857 0.000235471 0.000236737 -3.09075e-05
-0.000783382 0.000233971 0.000235462 -3.09235e-05
-0.000261945 7.71884e-05 7.91814e-05 -3.73508e-05
-0.000263496 7.77312e-05 7.96134e-05 -3.75723e-05
-0.000785597 0.000234702 0.000236098 -3.09157e-05
-0.000522725 0.000155599 0.00015734 -3.49232e-05
-0.000262714 7.74504e-05 7.93988e-05 -3.74445e-05
-0.000525779 0.00015666 0.000158194 -3.504e-05
-0.000524234 0.000156113 0.000157766 -3.49706e-05
-0.000783382 0.000233971 0.000235462 -3.09235e-05
-0.000779032 0.000232583 0.000234192 -3.09341e-05
-0.000260451 7.67086e-05 7.87467e-05 -3.72353e-05
-0.000261945 7.71884e-05 7.91814e-05 -3.73508e-05
-0.000781199 0.000233266 0.000234828 -3.09301e-05
-0.000519782 0.000154644 0.000156488 -3.4863e-05
-0.00026119 7.69425e-05 7.89631e-05 -3.72831e-05
-0.000522725 0.000155599 0.00015734 -3.49232e-05
-0.000521244 0.000155111 0.000156914 -3.48887e-05
-0.000779032 0.000232583 0.000234192 -3.09341e-05
-0.000774736 0.00023126 0.000232918 -3.09384e-05
-0.000258997 7.62633e-05 7.83143e-05 -3.71788e-05
-0.000260451 7.67086e-05 7.87467e-05 -3.72353e-05
-0.000776878 0.000231916 0.000233555 -3.09366e-05
-0.000516896 0.000153748 0.000155635 -3.48339e-05
-0.000259722 7.64828e-05 7.8531e-05 -3.7202e-05
-0.000519782 0.000154644 0.000156488 -3.4863e-05
-0.000518334 0.000154191 0.000156062 -3.48455e-05
-0.000774736 0.00023126 0.000232918 -3.09384e-05
-0.000770472 0.000229971 0.000231643 -3.094e-05
-0.000257558 7.58369e-05 7.78803e-05 -3.71526e-05
-0.000258997 7.62633e-05 7.83143e-05 -3.71788e-05
-0.000772602 0.000230613 0.000232281 -3.09396e-05
-0.00051404 0.000152885 0.000154781 -3.482e-05
-0.000258275 7.60485e-05 7.80972e-05 -3.71631e-05
-0.000516896 0.000153748 0.000155635 -3.48339e-05
-0.000515466 0.000153314 0.000155208 -3.48258e-05
-0.000770472 0.000229971 0.000231643 -3.094e-05
-0.000766219 0.000228699 0.000230366 -3.09399e-05
-0.000256127 7.54196e-05 7.74462e-05 -3.71413e-05
-0.000257558 7.58369e-05 7.78803e-05 -3.71526e-05
-0.000768344 0.000229334 0.000231004 -3.094e-05
-0.000511196 0.000152038 0.000153925 -3.48138e-05
-0.000256842 7.56275e-05 7.76634e-05 -3.71457e-05
-0.00051404 0.000152885 0.000154781 -3.482e-05
-0.000512617 0.00015246 0.000154353 -3.48162e-05
-0.000766219 0.000228699 0.000230366 -3.09399e-05
-0.000761972 0.000227435 0.000229088 -3.09392e-05
-0.0002547 7.50062e-05 7.70115e-05 -3.7137e-05
-0.000256127 7.54196e-05 7.74462e-05 -3.71413e-05
-0.000764096 0.000228066 0.000229727 -3.09396e-05
-0.000508358 0.000151198 0.000153069 -3.48111e-05
-0.000255413 7.52126e-05 7.72289e-05 -3.71386e-05
-0.000511196 0.000152038 0.000153925 -3.48138e-05
-0.000509777 0.000151618 0.000153497 -3.48122e-05
-0.000761972 0.000227435 0.000229088 -3.09392e-05
-0.000757727 0.000226173 0.000227809 -3.09384e-05
-0.000253273 7.45943e-05 7.65767e-05 -3.71356e-05
-0.0002547 7.50062e-05 7.70115e-05 -3.7137e-05
-0.00075985 0.000226804 0.000228448 -3.09388e-05
-0.000505522 0.000150362 0.000152212 -3.481e-05
-0.000253987 7.48002e-05 7.67942e-05 -3.71361e-05
-0.000508358 0.000151198 0.000153069 -3.48111e-05
-0.00050694 0.00015078 0.00015264 -3.48104e-05
-0.000757727 0.000226173 0.000227809 -3.09384e-05
-0.000753483 0.000224913 0.00022653 -3.09377e-05
-0.000251847 7.41827e-05 7.61418e-05 -3.71354e-05
-0.000253273 7.45943e-05 7.65767e-05 -3.71356e-05
-0.000755605 0.000225543 0.000227169 -3.0938e-05
-0.000502687 0.000149526 0.000151355 -3.48095e-05
-0.00025256 7.43885e-05 7.63593e-05 -3.71354e-05
-0.000505522 0.000150362 0.000152212 -3.481e-05
-0.000504104 0.000149944 0.000151783 -3.48097e-05
-0.000753483 0.000224913 0.00022653 -3.09377e-05
-0.000749238 0.000223653 0.000225251 -3.09372e-05
-0.00025042 7.37709e-05 7.57069e-05 -3.71355e-05
-0.000251847 7.41827e-05 7.61418e-05 -3.71354e-05
-0.00075136 0.000224283 0.00022589 -3.09374e-05
-0.000499851 0.00014869 0.000150497 -3.48093e-05
-0.000251134 7.39768e-05 7.59243e-05 -3.71354e-05
-0.000502687 0.000149526 0.000151355 -3.48095e-05
-0.000501269 0.000149108 0.000150926 -3.48094e-05
-0.000749238 0.000223653 0.000225251 -3.09372e-05
-0.000744993 0.000222393 0.000223971 -3.09369e-05
-0.000248993 7.33588e-05 7.52719e-05 -3.71356e-05
-0.00025042 7.37709e-05 7.57069e-05 -3.71355e-05
-0.000747116 0.000223023 0.000224611 -3.0937e-05
-0.000497015 0.000147854 0.00014964 -3.48093e-05
-0.000249707 7.35649e-05 7.54894e-05 -3.71356e-05
-0.000499851 0.00014869 0.000150497 -3.48093e-05
-0.000498433 0.000148272 0.000150069 -3.48093e-05
-0.000744993 0.000222393 0.000223971 -3.09369e-05
-0.000740748 0.000221132 0.000222692 -3.09367e-05
-0.000247566 7.29463e-05 7.48371e-05 -3.71358e-05
-0.000248993 7.33588e-05 7.52719e-05 -3.71356e-05
-0.000742871 0.000221763 0.000223332 -3.09367e-05
-0.000494178 0.000147018 0.000148783 -3.48092e-05
-0.00024828 7.31526e-05 7.50545e-05 -3.71357e-05
-0.000497015 0.000147854 0.00014964 -3.48093e-05
-0.000495597 0.000147436 0.000149212 -3.48092e-05
-0.000740748 0.000221132 0.000222692 -3.09367e-05
-0.000736503 0.000219872 0.000221413 -3.09365e-05
-0.000246139 7.25336e-05 7.44023e-05 -3.71358e-05
-0.000247566 7.29463e-05 7.48371e-05 -3.71358e-05
-0.000738625 0.000220502 0.000222053 -3.09366e-05
-0.000491342 0.000146182 0.000147926 -3.48092e-05
-0.000246853 7.274e-05 7.46197e-05 -3.71358e-05
-0.000494178 0.000147018 0.000148783 -3.48092e-05
-0.00049276 0.0001466 0.000148354 -3.48092e-05
-0.000736503 0.000219872 0.000221413 -3.09365e-05
-0.000732258 0.000218611 0.000220134 -3.09365e-05
-0.000244712 7.21207e-05 7.39677e-05 -3.71359e-05
-0.000246139 7.25336e-05 7.44023e-05 -3.71358e-05
-0.00073438 0.000219241 0.000220774 -3.09365e-05
-0.000488506 0.000145345 0.000147069 -3.48092e-05
-0.000245425 7.23272e-05 7.4185e-05 -3.71359e-05
-0.000491342 0.000146182 0.000147926 -3.48092e-05
-0.000489924 0.000145763 0.000147497 -3.48092e-05
-0.000732258 0.000218611 0.000220134 -3.09365e-05
-0.000728012 0.00021735 0.000218855 -3.09365e-05
-0.000243285 7.17077e-05 7.35331e-05 -3.71359e-05
-0.000244712 7.21207e-05 7.39677e-05 -3.71359e-05
-0.000730135 0.00021798 0.000219495 -3.09365e-05
-0.000485669 0.000144508 0.000146212 -3.48092e-05
-0.000243998 7.19142e-05 7.37503e-05 -3.71359e-05
-0.000488506 0.000145345 0.000147069 -3.48092e-05
-0.000487087 0.000144927 0.00014664 -3.48092e-05
-0.000728012 0.00021735 0.000218855 -3.09365e-05
-0.000723767 0.000216089 0.000217577 -3.09365e-05
-0.000241858 7.12945e-05 7.30985e-05 -3.71358e-05
-0.000243285 7.17077e-05 7.35331e-05 -3.71359e-05
-0.00072589 0.000216719 0.000218216 -3.09365e-05
-0.000482833 0.000143671 0.000145355 -3.48092e-05
-0.000242571 7.15011e-05 7.33158e-05 -3.71359e-05
-0.000485669 0.000144508 0.000146212 -3.48092e-05
-0.000484251 0.00014409 0.000145783 -3.48092e-05
-0.000723767 0.000216089 0.000217577 -3.09365e-05
-0.000719522 0.000214827 0.000216298 -3.09365e-05
-0.000240431 7.08812e-05 7.26641e-05 -3.71358e-05
-0.000241858 7.12945e-05 7.30985e-05 -3.71358e-05
-0.000721645 0.000215458 0.000216937 -3.09365e-05
-0.000479997 0.000142834 0.000144498 -3.48092e-05
-0.000241144 7.10879e-05 7.28813e-05 -3.71358e-05
-0.000482833 0.000143671 0.000145355 -3.48092e-05
-0.000481415 0.000143253 0.000144927 -3.48092e-05
-0.000719522 0.000214827 0.000216298 -3.09365e-05
-0.000715277 0.000213566 0.000215019 -3.09366e-05
-0.000239004 7.04679e-05 7.22297e-05 -3.71358e-05
-0.000240431 7.08812e-05 7.26641e-05 -3.71358e-05
-0.0007174 0.000214197 0.000215658 -3.09366e-05
-0.000477161 0.000141997 0.000143641 -3.48092e-05
-0.000239717 7.06746e-05 7.24469e-05 -3.71358e-05
-0.000479997 0.000142834 0.000144498 -3.48092e-05
-0.000478579 0.000142416 0.00014407 -3.48092e-05
-0.000715277 0.000213566 0.000215019 -3.09366e-05
-0.000711032 0.000212305 0.00021374 -3.09366e-05
-0.000237577 7.00545e-05 7.17954e-05 -3.71357e-05
-0.000239004 7.04679e-05 7.22297e-05 -3.71358e-05
-0.000713155 0.000212936 0.00021438 -3.09366e-05
-0.000474324 0.00014116 0.000142785 -3.48092e-05
-0.00023829 7.02612e-05 7.20125e-05 -3.71357e-05
-0.000477161 0.000141997 0.000143641 -3.48092e-05
-0.000475742 0.000141579 0.000143213 -3.48092e-05
-0.000711032 0.000212305 0.00021374 -3.09366e-05
-0.000706788 0.000211044 0.000212462 -3.09366e-05
-0.00023615 6.96411e-05 7.13611e-05 -3.71357e-05
-0.000237577 7.00545e-05 7.17954e-05 -3.71357e-05
-0.00070891 0.000211674 0.000213101 -3.09366e-05
-0.000471489 0.000140323 0.000141928 -3.48092e-05
-0.000236864 6.98478e-05 7.15783e-05 -3.71357e-05
-0.000474324 0.00014116 0.000142785 -3.48092e-05
-0.000472907 0.000140742 0.000142356 -3.48092e-05
-0.000706788 0.000211044 0.000212462 -3.09366e-05
-0.000702543 0.000209782 0.000211183 -3.09366e-05
-0.000234724 6.92276e-05 7.0927e-05 -3.71356e-05
-0.00023615 6.96411e-05 7.13611e-05 -3.71357e-05
-0.000704665 0.000210413 0.000211823 -3.09366e-05
-0.000468653 0.000139486 0.000141072 -3.48092e-05
-0.000235437 6.94344e-05 7.1144e-05 -3.71356e-05
-0.000471489 0.000140323 0.000141928 -3.48092e-05
-0.000470071 0.000139904 0.0001415 -3.48092e-05
-0.000702543 0.000209782 0.000211183 -3.09366e-05
-0.000698299 0.000208521 0.000209905 -3.09367e-05
-0.000233297 6.88141e-05 7.04929e-05 -3.71355e-05
-0.000234724 6.92276e-05 7.0927e-05 -3.71356e-05
-0.000700421 0.000209151 0.000210544 -3.09367e-05
-0.000465817 0.000138649 0.000140215 -3.48092e-05
-0.000234011 6.90209e-05 7.07099e-05 -3.71356e-05
-0.000468653 0.000139486 0.000141072 -3.48092e-05
-0.000467235 0.000139067 0.000140643 -3.48092e-05
-0.000698299 0.000208521 0.000209905 -3.09367e-05
-0.000694054 0.000207259 0.000208626 -3.09367e-05
-0.000231871 6.84005e-05 7.00588e-05 -3.71355e-05
-0.000233297 6.88141e-05 7.04929e-05 -3.71355e-05
-0.000696176 0.00020789 0.000209266 -3.09367e-05
-0.000462981 0.000137811 0.000139359 -3.48091e-05
-0.000232584 6.86073e-05 7.02758e-05 -3.71355e-05
-0.000465817 0.000138649 0.000140215 -3.48092e-05
-0.000464399 0.00013823 0.000139787 -3.48091e-05
-0.000694054 0.000207259 0.000208626 -3.09367e-05
-0.00068981 0.000205998 0.000207348 -3.09367e-05
-0.000230445 6.79868e-05 6.96249e-05 -3.71354e-05
-0.000231871 6.84005e-05 7.00588e-05 -3.71355e-05
-0.000691932 0.000206629 0.000207987 -3.09367e-05
-0.000460146 0.000136974 0.000138502 -3.48091e-05
-0.000231158 6.81937e-05 6.98418e-05 -3.71354e-05
-0.000462981 0.000137811 0.000139359 -3.48091e-05
-0.000461564 0.000137393 0.00013893 -3.48091e-05
-0.00068981 0.000205998 0.000207348 -3.09367e-05
-0.000685566 0.000204736 0.00020607 -3.09367e-05
-0.000229019 6.75731e-05 6.9191e-05 -3.71353e-05
-0.000230445 6.79868e-05 6.96249e-05 -3.71354e-05
-0.000687688 0.000205367 0.000206709 -3.09367e-05
-0.00045731 0.000136137 0.000137646 -3.48091e-05
-0.000229732 6.778e-05 6.94079e-05 -3.71354e-05
-0.000460146 0.000136974 0.000138502 -3.48091e-05
-0.000458728 0.000136555 0.000138074 -3.48091e-05
-0.000685566 0.000204736 0.00020607 -3.09367e-05
-0.000681321 0.000203475 0.000204791 -3.09367e-05
-0.000227593 6.71594e-05 6.87571e-05 -3.71353e-05
-0.000229019 6.75731e-05 6.9191e-05 -3.71353e-05
-0.000683443 0.000204105 0.000205431 -3.09367e-05
-0.000454475 0.000135299 0.00013679 -3.4809e-05
-0.000228306 6.73663e-05 6.8974e-05 -3.71353e-05
-0.00045731 0.000136137 0.000137646 -3.48091e-05
-0.000455893 0.000135718 0.000137218 -3.48091e-05
-0.000681321 0.000203475 0.000204791 -3.09367e-05
-0.000677077 0.000202213 0.000203513 -3.09367e-05
-0.000226167 6.67456e-05 6.83234e-05 -3.71352e-05
-0.000227593 6.71594e-05 6.87571e-05 -3.71353e-05
-0.000679199 0.000202844 0.000204152 -3.09367e-05
-0.00045164 0.000134462 0.000135934 -3.4809e-05
-0.00022688 6.69525e-05 6.85402e-05 -3.71352e-05
-0.000454475 0.000135299 0.00013679 -3.4809e-05
-0.000453058 0.00013488 0.000136362 -3.4809e-05
-0.000677077 0.000202213 0.000203513 -3.09367e-05
-0.000672833 0.000200951 0.000202235 -3.09367e-05
-0.000224741 6.63317e-05 6.78897e-05 -3.71351e-05
-0.000226167 6.67456e-05 6.83234e-05 -3.71352e-05
-0.000674955 0.000201582 0.000202874 -3.09367e-05
-0.000448805 0.000133624 0.000135077 -3.4809e-05
-0.000225454 6.65386e-05 6.81065e-05 -3.71352e-05
-0.00045164 0.000134462 0.000135934 -3.4809e-05
-0.000450222 0.000134043 0.000135506 -3.4809e-05
-0.000672833 0.000200951 0.000202235 -3.09367e-05
-0.00066859 0.00019969 0.000200957 -3.09367e-05
-0.000223315 6.59178e-05 6.7456e-05 -3.7135e-05
-0.000224741 6.63317e-05 6.78897e-05 -3.71351e-05
-0.000670712 0.000200321 0.000201596 -3.09367e-05
-0.00044597 0.000132786 0.000134221 -3.48089e-05
-0.000224028 6.61247e-05 6.76728e-05 -3.71351e-05
-0.000448805 0.000133624 0.000135077 -3.4809e-05
-0.000447387 0.000133205 0.000134649 -3.48089e-05
-0.00066859 0.00019969 0.000200957 -3.09367e-05
-0.000664346 0.000198428 0.000199679 -3.09366e-05
-0.00022189 6.55038e-05 6.70225e-05 -3.7135e-05
-0.000223315 6.59178e-05 6.7456e-05 -3.7135e-05
-0.000666468 0.000199059 0.000200318 -3.09367e-05
-0.000443135 0.000131949 0.000133365 -3.48089e-05
-0.000222602 6.57108e-05 6.72392e-05 -3.7135e-05
-0.00044597 0.000132786 0.000134221 -3.48089e-05
-0.000444552 0.000132368 0.000133793 -3.48089e-05
-0.000664346 0.000198428 0.000199679 -3.09366e-05
-0.000660102 0.000197166 0.000198401 -3.09366e-05
-0.000220464 6.50898e-05 6.6589e-05 -3.71349e-05
-0.00022189 6.55038e-05 6.70225e-05 -3.7135e-05
-0.000662224 0.000197797 0.00019904 -3.09366e-05
-0.0004403 0.000131111 0.00013251 -3.48088e-05
-0.000221177 6.52968e-05 6.68057e-05 -3.71349e-05
-0.000443135 0.000131949 0.000133365 -3.48089e-05
-0.000441718 0.00013153 0.000132938 -3.48089e-05
-0.000660102 0.000197166 0.000198401 -3.09366e-05
-0.000655859 0.000195904 0.000197123 -3.09366e-05
-0.000219039 6.46757e-05 6.61555e-05 -3.71348e-05
-0.000220464 6.50898e-05 6.6589e-05 -3.71349e-05
-0.00065798 0.000196535 0.000197762 -3.09366e-05
-0.000437465 0.000130273 0.000131654 -3.48088e-05
-0.000219751 6.48828e-05 6.63722e-05 -3.71348e-05
-0.0004403 0.000131111 0.00013251 -3.48088e-05
-0.000438883 0.000130692 0.000132082 -3.48088e-05
-0.000655859 0.000195904 0.000197123 -3.09366e-05
-0.000651615 0.000194642 0.000195845 -3.09366e-05
-0.000217613 6.42616e-05 6.57222e-05 -3.71347e-05
-0.000219039 6.46757e-05 6.61555e-05 -3.71348e-05
-0.000653737 0.000195273 0.000196484 -3.09366e-05
-0.000434631 0.000129436 0.000130798 -3.48087e-05
-0.000218326 6.44686e-05 6.59388e-05 -3.71347e-05
-0.000437465 0.000130273 0.000131654 -3.48088e-05
-0.000436048 0.000129854 0.000131226 -3.48088e-05
-0.000651615 0.000194642 0.000195845 -3.09366e-05
-0.000647372 0.000193381 0.000194568 -3.09366e-05
-0.000216188 6.38474e-05 6.52889e-05 -3.71346e-05
-0.000217613 6.42616e-05 6.57222e-05 -3.71347e-05
-0.000649494 0.000194012 0.000195207 -3.09366e-05
-0.000431796 0.000128598 0.000129942 -3.48087e-05
-0.000216901 6.40545e-05 6.55055e-05 -3.71346e-05
-0.000434631 0.000129436 0.000130798 -3.48087e-05
-0.000433214 0.000129017 0.00013037 -3.48087e-05
-0.000647372 0.000193381 0.000194568 -3.09366e-05
-0.000643129 0.000192119 0.00019329 -3.09366e-05
-0.000214763 6.34331e-05 6.48557e-05 -3.71345e-05
-0.000216188 6.38474e-05 6.52889e-05 -3.71346e-05
-0.00064525 0.00019275 0.000193929 -3.09366e-05
-0.000428962 0.00012776 0.000129087 -3.48086e-05
-0.000215476 6.36403e-05 6.50723e-05 -3.71346e-05
-0.000431796 0.000128598 0.000129942 -3.48087e-05
-0.000430379 0.000128179 0.000129514 -3.48087e-05
-0.000643129 0.000192119 0.00019329 -3.09366e-05
-0.000638886 0.000190857 0.000192012 -3.09366e-05
-0.000213338 6.30188e-05 6.44225e-05 -3.71344e-05
-0.000214763 6.34331e-05 6.48557e-05 -3.71345e-05
-0.000641007 0.000191488 0.000192651 -3.09366e-05
-0.000426128 0.000126922 0.000128231 -3.48086e-05
-0.00021405 6.3226e-05 6.46391e-05 -3.71345e-05
-0.000428962 0.00012776 0.000129087 -3.48086e-05
-0.000427545 0.000127341 0.000128659 -3.48086e-05
-0.000638886 0.000190857 0.000192012 -3.09366e-05
-0.000634643 0.000189595 0.000190735 -3.09365e-05
-0.000211913 6.26045e-05 6.39894e-05 -3.71343e-05
-0.000213338 6.30188e-05 6.44225e-05 -3.71344e-05
-0.000636764 0.000190226 0.000191374 -3.09365e-05
-0.000423294 0.000126084 0.000127376 -3.48085e-05
-0.000212626 6.28117e-05 6.42059e-05 -3.71344e-05
-0.000426128 0.000126922 0.000128231 -3.48086e-05
-0.000424711 0.000126503 0.000127803 -3.48085e-05
-0.000634643 0.000189595 0.000190735 -3.09365e-05
-0.0006304 0.000188333 0.000189457 -3.09365e-05
-0.000210488 6.21901e-05 6.35564e-05 -3.71342e-05
-0.000211913 6.26045e-05 6.39894e-05 -3.71343e-05
-0.000632521 0.000188964 0.000190096 -3.09365e-05
-0.000420459 0.000125246 0.00012652 -3.48085e-05
-0.000211201 6.23973e-05 6.37729e-05 -3.71343e-05
-0.000423294 0.000126084 0.000127376 -3.48085e-05
-0.000421877 0.000125665 0.000126948 -3.48085e-05
-0.0006304 0.000188333 0.000189457 -3.09365e-05
-0.000626157 0.00018707 0.00018818 -3.09365e-05
-0.000209064 6.17756e-05 6.31234e-05 -3.71341e-05
-0.000210488 6.21901e-05 6.35564e-05 -3.71342e-05
-0.000628278 0.000187701 0.000188819 -3.09365e-05
-0.000417626 0.000124408 0.000125665 -3.48084e-05
-0.000209776 6.19829e-05 6.33399e-05 -3.71342e-05
-0.000420459 0.000125246 0.00012652 -3.48085e-05
-0.000419042 0.000124827 0.000126092 -3.48084e-05
-0.000626157 0.00018707 0.00018818 -3.09365e-05
-0.000621914 0.000185808 0.000186903 -3.09365e-05
-0.000207639 6.13611e-05 6.26905e-05 -3.7134e-05
-0.000209064 6.17756e-05 6.31234e-05 -3.71341e-05
-0.000624035 0.000186439 0.000187541 -3.09365e-05
-0.000414792 0.00012357 0.000124809 -3.48083e-05
-0.000208351 6.15684e-05 6.2907e-05 -3.71341e-05
-0.000417626 0.000124408 0.000125665 -3.48084e-05
-0.000416209 0.000123989 0.000125237 -3.48084e-05
-0.000621914 0.000185808 0.000186903 -3.09365e-05
-0.000617672 0.000184546 0.000185625 -3.09364e-05
-0.000206215 6.09465e-05 6.22577e-05 -3.71339e-05
-0.000207639 6.13611e-05 6.26905e-05 -3.7134e-05
-0.000619793 0.000185177 0.000186264 -3.09365e-05
-0.000411958 0.000122732 0.000123954 -3.48083e-05
-0.000206927 6.11538e-05 6.24741e-05 -3.7134e-05
-0.000414792 0.00012357 0.000124809 -3.48083e-05
-0.000413375 0.000123151 0.000124382 -3.48083e-05
-0.000617672 0.000184546 0.000185625 -3.09364e-05
-0.000613429 0.000183284 0.000184348 -3.09364e-05
-0.00020479 6.05319e-05 6.1825e-05 -3.71338e-05
-0.000206215 6.09465e-05 6.22577e-05 -3.71339e-05
-0.00061555 0.000183915 0.000184987 -3.09364e-05
-0.000409124 0.000121893 0.000123099 -3.48082e-05
-0.000205502 6.07392e-05 6.20413e-05 -3.71339e-05
-0.000411958 0.000122732 0.000123954 -3.48083e-05
-0.000410541 0.000122312 0.000123527 -3.48083e-05
-0.000613429 0.000183284 0.000184348 -3.09364e-05
-0.000609187 0.000182022 0.000183071 -3.09364e-05
-0.000203366 6.01172e-05 6.13923e-05 -3.71337e-05
-0.00020479 6.05319e-05 6.1825e-05 -3.71338e-05
-0.000611308 0.000182653 0.000183709 -3.09364e-05
-0.000406291 0.000121055 0.000122244 -3.48082e-05
-0.000204078 6.03246e-05 6.16086e-05 -3.71338e-05
-0.000409124 0.000121893 0.000123099 -3.48082e-05
-0.000407707 0.000121474 0.000122671 -3.48082e-05
-0.000609187 0.000182022 0.000183071 -3.09364e-05
-0.000604944 0.000180759 0.000181794 -3.09364e-05
-0.000201942 5.97025e-05 6.09597e-05 -3.71336e-05
-0.000203366 6.01172e-05 6.13923e-05 -3.71337e-05
-0.000607065 0.00018139 0.000182432 -3.09364e-05
-0.000403457 0.000120217 0.000121389 -3.48081e-05
-0.000202654 5.99099e-05 6.1176e-05 -3.71337e-05
-0.000406291 0.000121055 0.000122244 -3.48082e-05
-0.000404874 0.000120636 0.000121816 -3.48081e-05
-0.000604944 0.000180759 0.000181794 -3.09364e-05
-0.000600702 0.000179497 0.000180517 -3.09363e-05
-0.000200518 5.92877e-05 6.05271e-05 -3.71335e-05
-0.000201942 5.97025e-05 6.09597e-05 -3.71336e-05
-0.000602823 0.000180128 0.000181155 -3.09364e-05
-0.000400624 0.000119378 0.000120534 -3.4808e-05
-0.00020123 5.94951e-05 6.07434e-05 -3.71336e-05
-0.000403457 0.000120217 0.000121389 -3.48081e-05
-0.000402041 0.000119798 0.000120961 -3.48081e-05
-0.000600702 0.000179497 0.000180517 -3.09363e-05
-0.00059646 0.000178235 0.000179239 -3.09363e-05
-0.000199094 5.88728e-05 6.00946e-05 -3.71334e-05
-0.000200518 5.92877e-05 6.05271e-05 -3.71335e-05
-0.000598581 0.000178866 0.000179878 -3.09363e-05
-0.000397791 0.00011854 0.000119679 -3.4808e-05
-0.000199806 5.90803e-05 6.03109e-05 -3.71335e-05
-0.000400624 0.000119378 0.000120534 -3.4808e-05
-0.000399207 0.000118959 0.000120106 -3.4808e-05
-0.00059646 0.000178235 0.000179239 -3.09363e-05
-0.000592218 0.000176972 0.000177963 -3.09363e-05
-0.00019767 5.84579e-05 5.96622e-05 -3.71333e-05
-0.000199094 5.88728e-05 6.00946e-05 -3.71334e-05
-0.000594339 0.000177603 0.000178601 -3.09363e-05
-0.000394958 0.000117701 0.000118824 -3.48079e-05
-0.000198382 5.86654e-05 5.98784e-05 -3.71334e-05
-0.000397791 0.00011854 0.000119679 -3.4808e-05
-0.000396374 0.000118121 0.000119251 -3.48079e-05
-0.000592218 0.000176972 0.000177963 -3.09363e-05
-0.000587976 0.00017571 0.000176686 -3.09363e-05
-0.000196246 5.8043e-05 5.92299e-05 -3.71332e-05
-0.00019767 5.84579e-05 5.96622e-05 -3.71333e-05
-0.000590097 0.000176341 0.000177324 -3.09363e-05
-0.000392125 0.000116863 0.000117969 -3.48078e-05
-0.000196958 5.82505e-05 5.94461e-05 -3.71333e-05
-0.000394958 0.000117701 0.000118824 -3.48079e-05
-0.000393541 0.000117282 0.000118397 -3.48079e-05
-0.000587976 0.00017571 0.000176686 -3.09363e-05
-0.000583734 0.000174447 0.000175409 -3.09362e-05
-0.000194822 5.7628e-05 5.87976e-05 -3.71331e-05
-0.000196246 5.8043e-05 5.92299e-05 -3.71332e-05
-0.000585855 0.000175078 0.000176047 -3.09362e-05
-0.000389292 0.000116024 0.000117115 -3.48078e-05
-0.000195534 5.78355e-05 5.90137e-05 -3.71332e-05
-0.000392125 0.000116863 0.000117969 -3.48078e-05
-0.000390708 0.000116444 0.000117542 -3.48078e-05
-0.000583734 0.000174447 0.000175409 -3.09362e-05
-0.000579493 0.000173185 0.000174132 -3.09362e-05
-0.000193399 5.72129e-05 5.83654e-05 -3.7133e-05
-0.000194822 5.7628e-05 5.87976e-05 -3.71331e-05
-0.000581613 0.000173816 0.00017477 -3.09362e-05
-0.000386459 0.000115186 0.00011626 -3.48077e-05
-0.000194111 5.74204e-05 5.85815e-05 -3.71331e-05
-0.000389292 0.000116024 0.000117115 -3.48078e-05
-0.000387875 0.000115605 0.000116687 -3.48077e-05
-0.000579493 0.000173185 0.000174132 -3.09362e-05
-0.000575251 0.000171922 0.000172855 -3.09362e-05
-0.000191975 5.67978e-05 5.79333e-05 -3.71329e-05
-0.000193399 5.72129e-05 5.83654e-05 -3.7133e-05
-0.000577372 0.000172553 0.000173494 -3.09362e-05
-0.000383626 0.000114347 0.000115405 -3.48076e-05
-0.000192687 5.70054e-05 5.81493e-05 -3.71329e-05
-0.000386459 0.000115186 0.00011626 -3.48077e-05
-0.000385042 0.000114766 0.000115833 -3.48077e-05
-0.000575251 0.000171922 0.000172855 -3.09362e-05
-0.00057101 0.000170659 0.000171579 -3.09361e-05
-0.000190552 5.63826e-05 5.75012e-05 -3.71328e-05
-0.000191975 5.67978e-05 5.79333e-05 -3.71329e-05
-0.00057313 0.000171291 0.000172217 -3.09361e-05
-0.000380794 0.000113508 0.000114551 -3.48076e-05
-0.000191264 5.65902e-05 5.77172e-05 -3.71328e-05
-0.000383626 0.000114347 0.000115405 -3.48076e-05
-0.00038221 0.000113928 0.000114978 -3.48076e-05
-0.00057101 0.000170659 0.000171579 -3.09361e-05
-0.000566768 0.000169397 0.000170302 -3.09361e-05
-0.000189129 5.59674e-05 5.70692e-05 -3.71327e-05
-0.000190552 5.63826e-05 5.75012e-05 -3.71328e-05
-0.000568889 0.000170028 0.00017094 -3.09361e-05
-0.000377961 0.00011267 0.000113696 -3.48075e-05
-0.00018984 5.6175e-05 5.72852e-05 -3.71327e-05
-0.000380794 0.000113508 0.000114551 -3.48076e-05
-0.000379377 0.000113089 0.000114124 -3.48075e-05
-0.000566768 0.000169397 0.000170302 -3.09361e-05
-0.000562527 0.000168134 0.000169026 -3.0936e-05
-0.000187706 5.55521e-05 5.66373e-05 -3.71326e-05
-0.000189129 5.59674e-05 5.70692e-05 -3.71327e-05
-0.000564648 0.000168765 0.000169664 -3.09361e-05
-0.000375129 0.000111831 0.000112842 -3.48074e-05
-0.000188417 5.57597e-05 5.68532e-05 -3.71326e-05
-0.000377961 0.00011267 0.000113696 -3.48075e-05
-0.000376545 0.00011225 0.000113269 -3.48075e-05
-0.000562527 0.000168134 0.000169026 -3.0936e-05
-0.000558286 0.000166871 0.000167749 -3.0936e-05
-0.000186283 5.51368e-05 5.62054e-05 -3.71324e-05
-0.000187706 5.55521e-05 5.66373e-05 -3.71326e-05
-0.000560406 0.000167503 0.000168387 -3.0936e-05
-0.000372296 0.000110992 0.000111988 -3.48073e-05
-0.000186994 5.53444e-05 5.64213e-05 -3.71325e-05
-0.000375129 0.000111831 0.000112842 -3.48074e-05
-0.000373713 0.000111411 0.000112415 -3.48074e-05
-0.000558286 0.000166871 0.000167749 -3.0936e-05
-0.000554045 0.000165608 0.000166473 -3.0936e-05
-0.00018486 5.47214e-05 5.57736e-05 -3.71323e-05
-0.000186283 5.51368e-05 5.62054e-05 -3.71324e-05
-0.000556165 0.00016624 0.000167111 -3.0936e-05
-0.000369464 0.000110153 0.000111133 -3.48073e-05
-0.000185571 5.49291e-05 5.59895e-05 -3.71324e-05
-0.000372296 0.000110992 0.000111988 -3.48073e-05
-0.00037088 0.000110572 0.000111561 -3.48073e-05
-0.000554045 0.000165608 0.000166473 -3.0936e-05
-0.000549804 0.000164346 0.000165196 -3.09359e-05
-0.000183437 5.43059e-05 5.53419e-05 -3.71322e-05
-0.00018486 5.47214e-05 5.57736e-05 -3.71323e-05
-0.000551924 0.000164977 0.000165835 -3.0936e-05
-0.000366632 0.000109314 0.000110279 -3.48072e-05
-0.000184148 5.45136e-05 5.55577e-05 -3.71323e-05
-0.000369464 0.000110153 0.000111133 -3.48073e-05
-0.000368048 0.000109734 0.000110706 -3.48072e-05
-0.000549804 0.000164346 0.000165196 -3.09359e-05
-0.000545563 0.000163083 0.00016392 -3.09359e-05
-0.000182014 5.38904e-05 5.49102e-05 -3.71321e-05
-0.000183437 5.43059e-05 5.53419e-05 -3.71322e-05
-0.000547683 0.000163714 0.000164558 -3.09359e-05
-0.0003638 0.000108475 0.000109425 -3.48071e-05
-0.000182726 5.40982e-05 5.5126e-05 -3.71322e-05
-0.000366632 0.000109314 0.000110279 -3.48072e-05
-0.000365216 0.000108895 0.000109852 -3.48072e-05
-0.000545563 0.000163083 0.00016392 -3.09359e-05
-0.000541322 0.00016182 0.000162644 -3.09359e-05
-0.000180592 5.34748e-05 5.44786e-05 -3.7132e-05
-0.000182014 5.38904e-05 5.49102e-05 -3.71321e-05
-0.000543443 0.000162451 0.000163282 -3.09359e-05
-0.000360968 0.000107636 0.000108571 -3.4807e-05
-0.000181303 5.36826e-05 5.46944e-05 -3.7132e-05
-0.0003638 0.000108475 0.000109425 -3.48071e-05
-0.000362384 0.000108055 0.000108998 -3.48071e-05
-0.000541322 0.00016182 0.000162644 -3.09359e-05
-0.000537082 0.000160557 0.000161368 -3.09358e-05
-0.000179169 5.30592e-05 5.40471e-05 -3.71319e-05
-0.000180592 5.34748e-05 5.44786e-05 -3.7132e-05
-0.000539202 0.000161188 0.000162006 -3.09358e-05
-0.000358137 0.000106797 0.000107717 -3.4807e-05
-0.00017988 5.3267e-05 5.42628e-05 -3.71319e-05
-0.000360968 0.000107636 0.000108571 -3.4807e-05
-0.000359552 0.000107216 0.000108144 -3.4807e-05
-0.000537082 0.000160557 0.000161368 -3.09358e-05
-0.000532841 0.000159294 0.000160092 -3.09358e-05
-0.000177747 5.26436e-05 5.36156e-05 -3.71317e-05
-0.000179169 5.30592e-05 5.40471e-05 -3.71319e-05
-0.000534961 0.000159925 0.00016073 -3.09358e-05
-0.000355305 0.000105958 0.000106863 -3.48069e-05
-0.000178458 5.28514e-05 5.38314e-05 -3.71318e-05
-0.000358137 0.000106797 0.000107717 -3.4807e-05
-0.000356721 0.000106377 0.00010729 -3.48069e-05
-0.000532841 0.000159294 0.000160092 -3.09358e-05
-0.000528601 0.000158031 0.000158816 -3.09357e-05
-0.000176324 5.22278e-05 5.31843e-05 -3.71316e-05
-0.000177747 5.26436e-05 5.36156e-05 -3.71317e-05
-0.000530721 0.000158662 0.000159454 -3.09358e-05
-0.000352473 0.000105118 0.000106009 -3.48068e-05
-0.000177036 5.24357e-05 5.33999e-05 -3.71317e-05
-0.000355305 0.000105958 0.000106863 -3.48069e-05
-0.000353889 0.000105538 0.000106436 -3.48069e-05
-0.000528601 0.000158031 0.000158816 -3.09357e-05
-0.00052436 0.000156768 0.00015754 -3.09357e-05
-0.000174902 5.18121e-05 5.27529e-05 -3.71315e-05
-0.000176324 5.22278e-05 5.31843e-05 -3.71316e-05
-0.00052648 0.000157399 0.000158178 -3.09357e-05
-0.000349642 0.000104279 0.000105155 -3.48067e-05
-0.000175613 5.202e-05 5.29686e-05 -3.71316e-05
-0.000352473 0.000105118 0.000106009 -3.48068e-05
-0.000351058 0.000104699 0.000105582 -3.48068e-05
-0.00052436 0.000156768 0.00015754 -3.09357e-05
-0.00052012 0.000155505 0.000156264 -3.09357e-05
-0.00017348 5.13962e-05 5.23217e-05 -3.71314e-05
-0.000174902 5.18121e-05 5.27529e-05 -3.71315e-05
-0.00052224 0.000156136 0.000156902 -3.09357e-05
-0.000346811 0.00010344 0.000104302 -3.48067e-05
-0.000174191 5.16041e-05 5.25373e-05 -3.71315e-05
-0.000349642 0.000104279 0.000105155 -3.48067e-05
-0.000348226 0.00010386 0.000104729 -3.48067e-05
-0.00052012 0.000155505 0.000156264 -3.09357e-05
-0.00051588 0.000154241 0.000154988 -3.09356e-05
-0.000172058 5.09803e-05 5.18905e-05 -3.71313e-05
-0.00017348 5.13962e-05 5.23217e-05 -3.71314e-05
-0.000518 0.000154873 0.000155626 -3.09356e-05
-0.000343979 0.000102601 0.000103448 -3.48066e-05
-0.000172769 5.11883e-05 5.21061e-05 -3.71313e-05
-0.000346811 0.00010344 0.000104302 -3.48067e-05
-0.000345395 0.00010302 0.000103875 -3.48066e-05
-0.00051588 0.000154241 0.000154988 -3.09356e-05
-0.00051164 0.000152978 0.000153712 -3.09356e-05
-0.000170636 5.05644e-05 5.14594e-05 -3.71312e-05
-0.000172058 5.09803e-05 5.18905e-05 -3.71313e-05
-0.00051376 0.00015361 0.00015435 -3.09356e-05
-0.000341148 0.000101761 0.000102595 -3.48065e-05
-0.000171347 5.07724e-05 5.16749e-05 -3.71312e-05
-0.000343979 0.000102601 0.000103448 -3.48066e-05
-0.000342564 0.000102181 0.000103021 -3.48065e-05
-0.00051164 0.000152978 0.000153712 -3.09356e-05
-0.0005074 0.000151715 0.000152436 -3.09355e-05
-0.000169215 5.01484e-05 5.10284e-05 -3.7131e-05
-0.000170636 5.05644e-05 5.14594e-05 -3.71312e-05
-0.00050952 0.000152347 0.000153074 -3.09356e-05
-0.000338317 0.000100922 0.000101741 -3.48064e-05
-0.000169925 5.03564e-05 5.12439e-05 -3.71311e-05
-0.000341148 0.000101761 0.000102595 -3.48065e-05
-0.000339733 0.000101341 0.000102168 -3.48065e-05
-0.0005074 0.000151715 0.000152436 -3.09355e-05
-0.00050316 0.000150452 0.000151161 -3.09355e-05
-0.000167793 4.97323e-05 5.05974e-05 -3.71309e-05
-0.000169215 5.01484e-05 5.10284e-05 -3.7131e-05
-0.00050528 0.000151083 0.000151799 -3.09355e-05
-0.000335486 0.000100082 0.000100888 -3.48063e-05
-0.000168504 4.99404e-05 5.08129e-05 -3.7131e-05
-0.000338317 0.000100922 0.000101741 -3.48064e-05
-0.000336902 0.000100502 0.000101314 -3.48064e-05
-0.00050316 0.000150452 0.000151161 -3.09355e-05
-0.000498921 0.000149188 0.000149885 -3.09355e-05
-0.000166371 4.93162e-05 5.01665e-05 -3.71308e-05
-0.000167793 4.97323e-05 5.05974e-05 -3.71309e-05
-0.00050104 0.00014982 0.000150523 -3.09355e-05
-0.000332656 9.92426e-05 0.000100034 -3.48063e-05
-0.000167082 4.95243e-05 5.03819e-05 -3.71309e-05
-0.000335486 0.000100082 0.000100888 -3.48063e-05
-0.000334071 9.96624e-05 0.000100461 -3.48063e-05
-0.000498921 0.000149188 0.000149885 -3.09355e-05
-0.000494681 0.000147925 0.00014861 -3.09354e-05
-0.00016495 4.89001e-05 4.97356e-05 -3.71307e-05
-0.000166371 4.93162e-05 5.01665e-05 -3.71308e-05
-0.000496801 0.000148557 0.000149247 -3.09354e-05
-0.000329825 9.8403e-05 9.91808e-05 -3.48062e-05
-0.000165661 4.91081e-05 4.9951e-05 -3.71307e-05
-0.000332656 9.92426e-05 0.000100034 -3.48063e-05
-0.00033124 9.88228e-05 9.96075e-05 -3.48062e-05
-0.000494681 0.000147925 0.00014861 -3.09354e-05
-0.000490442 0.000146662 0.000147334 -3.09354e-05
-0.000163529 4.84838e-05 4.93049e-05 -3.71306e-05
-0.00016495 4.89001e-05 4.97356e-05 -3.71307e-05
-0.000492561 0.000147293 0.000147972 -3.09354e-05
-0.000326994 9.75634e-05 9.83276e-05 -3.48061e-05
-0.000164239 4.86919e-05 4.95202e-05 -3.71306e-05
-0.000329825 9.8403e-05 9.91808e-05 -3.48062e-05
-0.00032841 9.79832e-05 9.87542e-05 -3.48061e-05
-0.000490442 0.000146662 0.000147334 -3.09354e-05
-0.000486202 0.000145398 0.000146059 -3.09353e-05
-0.000162107 4.80676e-05 4.88742e-05 -3.71304e-05
-0.000163529 4.84838e-05 4.93049e-05 -3.71306e-05
-0.000488322 0.00014603 0.000146697 -3.09354e-05
-0.000324164 9.67237e-05 9.74744e-05 -3.4806e-05
-0.000162818 4.82757e-05 4.90895e-05 -3.71305e-05
-0.000326994 9.75634e-05 9.83276e-05 -3.48061e-05
-0.000325579 9.71435e-05 9.7901e-05 -3.48061e-05
-0.000486202 0.000145398 0.000146059 -3.09353e-05
-0.000481963 0.000144135 0.000144784 -3.09353e-05
-0.000160686 4.76512e-05 4.84435e-05 -3.71303e-05
-0.000162107 4.80676e-05 4.88742e-05 -3.71304e-05
-0.000484083 0.000144766 0.000145421 -3.09353e-05
-0.000321334 9.58839e-05 9.66213e-05 -3.4806e-05
-0.000161397 4.78594e-05 4.86588e-05 -3.71304e-05
-0.000324164 9.67237e-05 9.74744e-05 -3.4806e-05
-0.000322749 9.63038e-05 9.70478e-05 -3.4806e-05
-0.000481963 0.000144135 0.000144784 -3.09353e-05
-0.000477724 0.000142871 0.000143508 -3.09353e-05
-0.000159265 4.72348e-05 4.8013e-05 -3.71302e-05
-0.000160686 4.76512e-05 4.84435e-05 -3.71303e-05
-0.000479843 0.000143503 0.000144146 -3.09353e-05
-0.000318503 9.50441e-05 9.57682e-05 -3.48059e-05
-0.000159976 4.7443e-05 4.82282e-05 -3.71303e-05
-0.000321334 9.58839e-05 9.66213e-05 -3.4806e-05
-0.000319918 9.5464e-05 9.61948e-05 -3.48059e-05
-0.000477724 0.000142871 0.000143508 -3.09353e-05
-0.000473485 0.000141608 0.000142233 -3.09352e-05
-0.000157844 4.68184e-05 4.75825e-05 -3.71301e-05
-0.000159265 4.72348e-05 4.8013e-05 -3.71302e-05
-0.000475604 0.000142239 0.000142871 -3.09352e-05
-0.000315673 9.42043e-05 9.49153e-05 -3.48058e-05
-0.000158555 4.70266e-05 4.77977e-05 -3.71301e-05
-0.000318503 9.50441e-05 9.57682e-05 -3.48059e-05
-0.000317088 9.46242e-05 9.53417e-05 -3.48058e-05
-0.000473485 0.000141608 0.000142233 -3.09352e-05
-0.000469246 0.000140344 0.000140958 -3.09352e-05
-0.000156423 4.64019e-05 4.71521e-05 -3.713e-05
-0.000157844 4.68184e-05 4.75825e-05 -3.71301e-05
-0.000471365 0.000140976 0.000141595 -3.09352e-05
-0.000312843 9.33644e-05 9.40623e-05 -3.48057e-05
-0.000157134 4.66102e-05 4.73673e-05 -3.713e-05
-0.000315673 9.42043e-05 9.49153e-05 -3.48058e-05
-0.000314258 9.37843e-05 9.44888e-05 -3.48058e-05
-0.000469246 0.000140344 0.000140958 -3.09352e-05
-0.000465007 0.00013908 0.000139683 -3.09351e-05
-0.000155003 4.59853e-05 4.67217e-05 -3.71299e-05
-0.000156423 4.64019e-05 4.71521e-05 -3.713e-05
-0.000467126 0.000139712 0.00014032 -3.09352e-05
-0.000310013 9.25244e-05 9.32095e-05 -3.48056e-05
-0.000155713 4.61936e-05 4.69369e-05 -3.71299e-05
-0.000312843 9.33644e-05 9.40623e-05 -3.48057e-05
-0.000311428 9.29444e-05 9.36359e-05 -3.48057e-05
-0.000465007 0.00013908 0.000139683 -3.09351e-05
-0.000460768 0.000137817 0.000138408 -3.09351e-05
-0.000153582 4.55687e-05 4.62914e-05 -3.71297e-05
-0.000155003 4.59853e-05 4.67217e-05 -3.71299e-05
-0.000462888 0.000138448 0.000139045 -3.09351e-05
-0.000307183 9.16845e-05 9.23567e-05 -3.48056e-05
-0.000154292 4.5777e-05 4.65065e-05 -3.71298e-05
-0.000310013 9.25244e-05 9.32095e-05 -3.48056e-05
-0.000308598 9.21045e-05 9.27831e-05 -3.48056e-05
-0.000460768 0.000137817 0.000138408 -3.09351e-05
-0.00045653 0.000136553 0.000137133 -3.09351e-05
-0.000152162 4.51521e-05 4.58612e-05 -3.71296e-05
-0.000153582 4.55687e-05 4.62914e-05 -3.71297e-05
-0.000458649 0.000137185 0.00013777 -3.09351e-05
-0.000304354 9.08444e-05 9.1504e-05 -3.48055e-05
-0.000152872 4.53604e-05 4.60763e-05 -3.71297e-05
-0.000307183 9.16845e-05 9.23567e-05 -3.48056e-05
-0.000305769 9.12644e-05 9.19303e-05 -3.48055e-05
-0.00045653 0.000136553 0.000137133 -3.09351e-05
-0.000452291 0.000135289 0.000135858 -3.0935e-05
-0.000150741 4.47354e-05 4.5431e-05 -3.71295e-05
-0.000152162 4.51521e-05 4.58612e-05 -3.71296e-05
-0.00045441 0.000135921 0.000136495 -3.0935e-05
-0.000301524 9.00043e-05 9.06513e-05 -3.48054e-05
-0.000151451 4.49437e-05 4.56461e-05 -3.71296e-05
-0.000304354 9.08444e-05 9.1504e-05 -3.48055e-05
-0.000302939 9.04244e-05 9.10776e-05 -3.48054e-05
-0.000452291 0.000135289 0.000135858 -3.0935e-05
-0.000448053 0.000134025 0.000134583 -3.0935e-05
-0.000149321 4.43186e-05 4.5001e-05 -3.71294e-05
-0.000150741 4.47354e-05 4.5431e-05 -3.71295e-05
-0.000450172 0.000134657 0.000135221 -3.0935e-05
-0.000298695 8.91642e-05 8.97988e-05 -3.48053e-05
-0.000150031 4.4527e-05 4.5216e-05 -3.71294e-05
-0.000301524 9.00043e-05 9.06513e-05 -3.48054e-05
-0.000300109 8.95843e-05 9.0225e-05 -3.48054e-05
-0.000448053 0.000134025 0.000134583 -3.0935e-05
-0.000443814 0.000132761 0.000133308 -3.09349e-05
-0.000147901 4.39018e-05 4.45709e-05 -3.71293e-05
-0.000149321 4.43186e-05 4.5001e-05 -3.71294e-05
-0.000445933 0.000133393 0.000133946 -3.0935e-05
-0.000295865 8.8324e-05 8.89462e-05 -3.48052e-05
-0.000148611 4.41102e-05 4.47859e-05 -3.71293e-05
-0.000298695 8.91642e-05 8.97988e-05 -3.48053e-05
-0.00029728 8.87441e-05 8.93725e-05 -3.48053e-05
-0.000443814 0.000132761 0.000133308 -3.09349e-05
-0.000439576 0.000131498 0.000132034 -3.09349e-05
-0.000146481 4.34849e-05 4.4141e-05 -3.71291e-05
-0.000147901 4.39018e-05 4.45709e-05 -3.71293e-05
-0.000441695 0.00013213 0.000132671 -3.09349e-05
-0.000293036 8.74837e-05 8.80938e-05 -3.48052e-05
-0.000147191 4.36933e-05 4.4356e-05 -3.71292e-05
-0.000295865 8.8324e-05 8.89462e-05 -3.48052e-05
-0.000294451 8.79039e-05 8.852e-05 -3.48052e-05
-0.000439576 0.000131498 0.000132034 -3.09349e-05
-0.000435338 0.000130234 0.000130759 -3.09349e-05
-0.000145061 4.30679e-05 4.37111e-05 -3.7129e-05
-0.000146481 4.34849e-05 4.4141e-05 -3.71291e-05
-0.000437457 0.000130866 0.000131396 -3.09349e-05
-0.000290207 8.66434e-05 8.72414e-05 -3.48051e-05
-0.000145771 4.32764e-05 4.39261e-05 -3.71291e-05
-0.000293036 8.74837e-05 8.80938e-05 -3.48052e-05
-0.000291621 8.70636e-05 8.76676e-05 -3.48051e-05
-0.000435338 0.000130234 0.000130759 -3.09349e-05
-0.0004311 0.00012897 0.000129484 -3.09348e-05
-0.000143641 4.26509e-05 4.32813e-05 -3.71289e-05
-0.000145061 4.30679e-05 4.37111e-05 -3.7129e-05
-0.000433219 0.000129602 0.000130122 -3.09348e-05
-0.000287378 8.58031e-05 8.63891e-05 -3.4805e-05
-0.000144351 4.28594e-05 4.34962e-05 -3.7129e-05
-0.000290207 8.66434e-05 8.72414e-05 -3.48051e-05
-0.000288792 8.62233e-05 8.68152e-05 -3.48051e-05
-0.0004311 0.00012897 0.000129484 -3.09348e-05
-0.000426862 0.000127706 0.00012821 -3.09348e-05
-0.000142221 4.22339e-05 4.28516e-05 -3.71288e-05
-0.000143641 4.26509e-05 4.32813e-05 -3.71289e-05
-0.000428981 0.000128338 0.000128847 -3.09348e-05
-0.000284549 8.49627e-05 8.55368e-05 -3.48049e-05
-0.000142931 4.24424e-05 4.30664e-05 -3.71288e-05
-0.000287378 8.58031e-05 8.63891e-05 -3.4805e-05
-0.000285963 8.53829e-05 8.5963e-05 -3.4805e-05
-0.000426862 0.000127706 0.00012821 -3.09348e-05
-0.000422624 0.000126442 0.000126935 -3.09347e-05
-0.000140801 4.18168e-05 4.24219e-05 -3.71287e-05
-0.000142221 4.22339e-05 4.28516e-05 -3.71288e-05
-0.000424743 0.000127074 0.000127573 -3.09348e-05
-0.00028172 8.41223e-05 8.46847e-05 -3.48049e-05
-0.000141511 4.20253e-05 4.26367e-05 -3.71287e-05
-0.000284549 8.49627e-05 8.55368e-05 -3.48049e-05
-0.000283134 8.45425e-05 8.51107e-05 -3.48049e-05
-0.000422624 0.000126442 0.000126935 -3.09347e-05
-0.000418387 0.000125178 0.000125661 -3.09347e-05
-0.000139382 4.13996e-05 4.19923e-05 -3.71286e-05
-0.000140801 4.18168e-05 4.24219e-05 -3.71287e-05
-0.000420506 0.00012581 0.000126298 -3.09347e-05
-0.000278891 8.32818e-05 8.38325e-05 -3.48048e-05
-0.000140091 4.16082e-05 4.22071e-05 -3.71286e-05
-0.00028172 8.41223e-05 8.46847e-05 -3.48049e-05
-0.000280305 8.3702e-05 8.42586e-05 -3.48048e-05
-0.000418387 0.000125178 0.000125661 -3.09347e-05
-0.000414149 0.000123913 0.000124387 -3.09347e-05
-0.000137962 4.09824e-05 4.15628e-05 -3.71284e-05
-0.000139382 4.13996e-05 4.19923e-05 -3.71286e-05
-0.000416268 0.000124545 0.000125024 -3.09347e-05
-0.000276062 8.24412e-05 8.29805e-05 -3.48047e-05
-0.000138672 4.1191e-05 4.17775e-05 -3.71285e-05
-0.000278891 8.32818e-05 8.38325e-05 -3.48048e-05
-0.000277477 8.28615e-05 8.34065e-05 -3.48047e-05
-0.000414149 0.000123913 0.000124387 -3.09347e-05
-0.000409912 0.000122649 0.000123112 -3.09346e-05
-0.000136543 4.05651e-05 4.11333e-05 -3.71283e-05
-0.000137962 4.09824e-05 4.15628e-05 -3.71284e-05
-0.00041203 0.000123281 0.00012375 -3.09346e-05
-0.000273234 8.16007e-05 8.21285e-05 -3.48046e-05
-0.000137253 4.07738e-05 4.13481e-05 -3.71284e-05
-0.000276062 8.24412e-05 8.29805e-05 -3.48047e-05
-0.000274648 8.2021e-05 8.25545e-05 -3.48047e-05
-0.000409912 0.000122649 0.000123112 -3.09346e-05
-0.000405674 0.000121385 0.000121838 -3.09346e-05
-0.000135124 4.01478e-05 4.07039e-05 -3.71282e-05
-0.000136543 4.05651e-05 4.11333e-05 -3.71283e-05
-0.000407793 0.000122017 0.000122475 -3.09346e-05
-0.000270405 8.076e-05 8.12766e-05 -3.48046e-05
-0.000135833 4.03565e-05 4.09186e-05 -3.71283e-05
-0.000273234 8.16007e-05 8.21285e-05 -3.48046e-05
-0.00027182 8.11803e-05 8.17026e-05 -3.48046e-05
-0.000405674 0.000121385 0.000121838 -3.09346e-05
-0.000401437 0.000120121 0.000120564 -3.09346e-05
-0.000133705 3.97304e-05 4.02746e-05 -3.71281e-05
-0.000135124 4.01478e-05 4.07039e-05 -3.71282e-05
-0.000403556 0.000120753 0.000121201 -3.09346e-05
-0.000267577 7.99193e-05 8.04248e-05 -3.48045e-05
-0.000134414 3.99391e-05 4.04893e-05 -3.71282e-05
-0.000270405 8.076e-05 8.12766e-05 -3.48046e-05
-0.000268991 8.03397e-05 8.08507e-05 -3.48045e-05
-0.000401437 0.000120121 0.000120564 -3.09346e-05
-0.0003972 0.000118856 0.00011929 -3.09345e-05
-0.000132285 3.9313e-05 3.98454e-05 -3.7128e-05
-0.000133705 3.97304e-05 4.02746e-05 -3.71281e-05
-0.000399318 0.000119489 0.000119927 -3.09345e-05
-0.000264749 7.90786e-05 7.9573e-05 -3.48044e-05
-0.000132995 3.95217e-05 4.006e-05 -3.7128e-05
-0.000267577 7.99193e-05 8.04248e-05 -3.48045e-05
-0.000266163 7.9499e-05 7.99989e-05 -3.48045e-05
-0.0003972 0.000118856 0.00011929 -3.09345e-05
-0.000392963 0.000117592 0.000118016 -3.09345e-05
-0.000130867 3.88955e-05 3.94162e-05 -3.71279e-05
-0.000132285 3.9313e-05 3.98454e-05 -3.7128e-05
-0.000395081 0.000118224 0.000118653 -3.09345e-05
-0.000261921 7.82378e-05 7.87213e-05 -3.48043e-05
-0.000131576 3.91042e-05 3.96308e-05 -3.71279e-05
-0.000264749 7.90786e-05 7.9573e-05 -3.48044e-05
-0.000263335 7.86582e-05 7.91471e-05 -3.48044e-05
-0.000392963 0.000117592 0.000118016 -3.09345e-05
-0.000388726 0.000116328 0.000116742 -3.09344e-05
-0.000129448 3.84779e-05 3.89871e-05 -3.71278e-05
-0.000130867 3.88955e-05 3.94162e-05 -3.71279e-05
-0.000390844 0.00011696 0.000117379 -3.09345e-05
-0.000259093 7.7397e-05 7.78696e-05 -3.48043e-05
-0.000130157 3.86867e-05 3.92016e-05 -3.71278e-05
-0.000261921 7.82378e-05 7.87213e-05 -3.48043e-05
-0.000260507 7.78174e-05 7.82954e-05 -3.48043e-05
-0.000388726 0.000116328 0.000116742 -3.09344e-05
-0.000384489 0.000115063 0.000115468 -3.09344e-05
-0.000128029 3.80603e-05 3.8558e-05 -3.71277e-05
-0.000129448 3.84779e-05 3.89871e-05 -3.71278e-05
-0.000386607 0.000115696 0.000116105 -3.09344e-05
-0.000256265 7.65561e-05 7.7018e-05 -3.48042e-05
-0.000128738 3.82691e-05 3.87725e-05 -3.71277e-05
-0.000259093 7.7397e-05 7.78696e-05 -3.48043e-05
-0.000257679 7.69765e-05 7.74438e-05 -3.48042e-05
-0.000384489 0.000115063 0.000115468 -3.09344e-05
-0.000380252 0.000113799 0.000114194 -3.09344e-05
-0.00012661 3.76426e-05 3.8129e-05 -3.71275e-05
-0.000128029 3.80603e-05 3.8558e-05 -3.71277e-05
-0.000382371 0.000114431 0.000114831 -3.09344e-05
-0.000253437 7.57151e-05 7.61665e-05 -3.48041e-05
-0.00012732 3.78515e-05 3.83435e-05 -3.71276e-05
-0.000256265 7.65561e-05 7.7018e-05 -3.48042e-05
-0.000254851 7.61356e-05 7.65923e-05 -3.48042e-05
-0.000380252 0.000113799 0.000114194 -3.09344e-05
-0.000376016 0.000112534 0.000112921 -3.09343e-05
-0.000125192 3.72249e-05 3.77001e-05 -3.71274e-05
-0.00012661 3.76426e-05 3.8129e-05 -3.71275e-05
-0.000378134 0.000113167 0.000113557 -3.09344e-05
-0.000250609 7.48742e-05 7.53151e-05 -3.48041e-05
-0.000125901 3.74338e-05 3.79146e-05 -3.71275e-05
-0.000253437 7.57151e-05 7.61665e-05 -3.48041e-05
-0.000252023 7.52947e-05 7.57408e-05 -3.48041e-05
-0.000376016 0.000112534 0.000112921 -3.09343e-05
-0.000371779 0.00011127 0.000111647 -3.09343e-05
-0.000123773 3.68072e-05 3.72713e-05 -3.71273e-05
-0.000125192 3.72249e-05 3.77001e-05 -3.71274e-05
-0.000373897 0.000111902 0.000112284 -3.09343e-05
-0.000247782 7.40331e-05 7.44637e-05 -3.4804e-05
-0.000124483 3.7016e-05 3.74857e-05 -3.71274e-05
-0.000250609 7.48742e-05 7.53151e-05 -3.48041e-05
-0.000249196 7.44536e-05 7.48894e-05 -3.4804e-05
-0.000371779 0.00011127 0.000111647 -3.09343e-05
-0.000367543 0.000110005 0.000110373 -3.09343e-05
-0.000122355 3.63893e-05 3.68425e-05 -3.71272e-05
-0.000123773 3.68072e-05 3.72713e-05 -3.71273e-05
-0.000369661 0.000110638 0.00011101 -3.09343e-05
-0.000244954 7.3192e-05 7.36124e-05 -3.48039e-05
-0.000123064 3.65982e-05 3.70569e-05 -3.71273e-05
-0.000247782 7.40331e-05 7.44637e-05 -3.4804e-05
-0.000246368 7.36126e-05 7.40381e-05 -3.4804e-05
-0.000367543 0.000110005 0.000110373 -3.09343e-05
-0.000363306 0.000108741 0.0001091 -3.09343e-05
-0.000120937 3.59714e-05 3.64138e-05 -3.71271e-05
-0.000122355 3.63893e-05 3.68425e-05 -3.71272e-05
-0.000365425 0.000109373 0.000109736 -3.09343e-05
-0.000242127 7.23509e-05 7.27612e-05 -3.48039e-05
-0.000121646 3.61804e-05 3.66282e-05 -3.71272e-05
-0.000244954 7.3192e-05 7.36124e-05 -3.48039e-05
-0.000243541 7.27715e-05 7.31868e-05 -3.48039e-05
-0.000363306 0.000108741 0.0001091 -3.09343e-05
-0.00035907 0.000107476 0.000107826 -3.09342e-05
-0.000119519 3.55535e-05 3.59852e-05 -3.7127e-05
-0.000120937 3.59714e-05 3.64138e-05 -3.71271e-05
-0.000361188 0.000108108 0.000108463 -3.09342e-05
-0.0002393 7.15097e-05 7.191e-05 -3.48038e-05
-0.000120228 3.57625e-05 3.61995e-05 -3.71271e-05
-0.000242127 7.23509e-05 7.27612e-05 -3.48039e-05
-0.000240713 7.19303e-05 7.23356e-05 -3.48038e-05
-0.00035907 0.000107476 0.000107826 -3.09342e-05
-0.000354834 0.000106211 0.000106553 -3.09342e-05
-0.000118101 3.51355e-05 3.55566e-05 -3.71269e-05
-0.000119519 3.55535e-05 3.59852e-05 -3.7127e-05
-0.000356952 0.000106844 0.000107189 -3.09342e-05
-0.000236473 7.06685e-05 7.10589e-05 -3.48037e-05
-0.00011881 3.53445e-05 3.57709e-05 -3.7127e-05
-0.0002393 7.15097e-05 7.191e-05 -3.48038e-05
-0.000237886 7.10891e-05 7.14844e-05 -3.48038e-05
-0.000354834 0.000106211 0.000106553 -3.09342e-05
-0.000350598 0.000104946 0.000105279 -3.09342e-05
-0.000116683 3.47174e-05 3.51281e-05 -3.71268e-05
-0.000118101 3.51355e-05 3.55566e-05 -3.71269e-05
-0.000352716 0.000105579 0.000105916 -3.09342e-05
-0.000233645 6.98272e-05 7.02078e-05 -3.48037e-05
-0.000117392 3.49265e-05 3.53424e-05 -3.71269e-05
-0.000236473 7.06685e-05 7.10589e-05 -3.48037e-05
-0.000235059 7.02478e-05 7.06334e-05 -3.48037e-05
-0.000350598 0.000104946 0.000105279 -3.09342e-05
-0.000346362 0.000103682 0.000104006 -3.09341e-05
-0.000115265 3.42993e-05 3.46997e-05 -3.71267e-05
-0.000116683 3.47174e-05 3.51281e-05 -3.71268e-05
-0.00034848 0.000104314 0.000104643 -3.09342e-05
-0.000230819 6.89858e-05 6.93569e-05 -3.48036e-05
-0.000115974 3.45084e-05 3.49139e-05 -3.71267e-05
-0.000233645 6.98272e-05 7.02078e-05 -3.48037e-05
-0.000232232 6.94065e-05 6.97823e-05 -3.48036e-05
-0.000346362 0.000103682 0.000104006 -3.09341e-05
-0.000342127 0.000102417 0.000102733 -3.09341e-05
-0.000113848 3.38812e-05 3.42713e-05 -3.71266e-05
-0.000115265 3.42993e-05 3.46997e-05 -3.71267e-05
-0.000344244 0.000103049 0.000103369 -3.09341e-05
-0.000227992 6.81445e-05 6.8506e-05 -3.48035e-05
-0.000114556 3.40903e-05 3.44855e-05 -3.71266e-05
-0.000230819 6.89858e-05 6.93569e-05 -3.48036e-05
-0.000229405 6.85652e-05 6.89314e-05 -3.48036e-05
-0.000342127 0.000102417 0.000102733 -3.09341e-05
-0.000337891 0.000101152 0.00010146 -3.09341e-05
-0.00011243 3.34629e-05 3.3843e-05 -3.71265e-05
-0.000113848 3.38812e-05 3.42713e-05 -3.71266e-05
-0.000340009 0.000101784 0.000102096 -3.09341e-05
-0.000225165 6.7303e-05 6.76551e-05 -3.48035e-05
-0.000113139 3.36721e-05 3.40572e-05 -3.71265e-05
-0.000227992 6.81445e-05 6.8506e-05 -3.48035e-05
-0.000226578 6.77237e-05 6.80805e-05 -3.48035e-05
-0.000337891 0.000101152 0.00010146 -3.09341e-05
-0.000333655 9.9887e-05 0.000100186 -3.09341e-05
-0.000111013 3.30447e-05 3.34148e-05 -3.71264e-05
-0.00011243 3.34629e-05 3.3843e-05 -3.71265e-05
-0.000335773 0.000100519 0.000100823 -3.09341e-05
-0.000222338 6.64615e-05 6.68043e-05 -3.48034e-05
-0.000111721 3.32538e-05 3.36289e-05 -3.71264e-05
-0.000225165 6.7303e-05 6.76551e-05 -3.48035e-05
-0.000223752 6.68823e-05 6.72297e-05 -3.48034e-05
-0.000333655 9.9887e-05 0.000100186 -3.09341e-05
-0.00032942 9.86221e-05 9.89133e-05 -3.0934e-05
-0.000109595 3.26263e-05 3.29867e-05 -3.71263e-05
-0.000111013 3.30447e-05 3.34148e-05 -3.71264e-05
-0.000331538 9.92545e-05 9.95499e-05 -3.0934e-05
-0.000219512 6.562e-05 6.59536e-05 -3.48033e-05
-0.000110304 3.28355e-05 3.32007e-05 -3.71263e-05
-0.000222338 6.64615e-05 6.68043e-05 -3.48034e-05
-0.000220925 6.60408e-05 6.6379e-05 -3.48034e-05
-0.00032942 9.86221e-05 9.89133e-05 -3.0934e-05
-0.000325184 9.73571e-05 9.76403e-05 -3.0934e-05
-0.000108178 3.22079e-05 3.25586e-05 -3.71262e-05
-0.000109595 3.26263e-05 3.29867e-05 -3.71263e-05
-0.000327302 9.79896e-05 9.82768e-05 -3.0934e-05
-0.000216685 6.47784e-05 6.5103e-05 -3.48033e-05
-0.000108887 3.24171e-05 3.27726e-05 -3.71262e-05
-0.000219512 6.562e-05 6.59536e-05 -3.48033e-05
-0.000218099 6.51992e-05 6.55283e-05 -3.48033e-05
-0.000325184 9.73571e-05 9.76403e-05 -3.0934e-05
-0.000320949 9.6092e-05 9.63674e-05 -3.0934e-05
-0.000106761 3.17895e-05 3.21306e-05 -3.71261e-05
-0.000108178 3.22079e-05 3.25586e-05 -3.71262e-05
-0.000323067 9.67245e-05 9.70038e-05 -3.0934e-05
-0.000213859 6.39368e-05 6.42524e-05 -3.48032e-05
-0.000107469 3.19987e-05 3.23446e-05 -3.71261e-05
-0.000216685 6.47784e-05 6.5103e-05 -3.48033e-05
-0.000215272 6.43576e-05 6.46777e-05 -3.48033e-05
-0.000320949 9.6092e-05 9.63674e-05 -3.0934e-05
-0.000316714 9.48269e-05 9.50945e-05 -3.0934e-05
-0.000105344 3.1371e-05 3.17026e-05 -3.7126e-05
-0.000106761 3.17895e-05 3.21306e-05 -3.71261e-05
-0.000318832 9.54595e-05 9.57309e-05 -3.0934e-05
-0.000211033 6.30951e-05 6.34019e-05 -3.48032e-05
-0.000106052 3.15803e-05 3.19166e-05 -3.71261e-05
-0.000213859 6.39368e-05 6.42524e-05 -3.48032e-05
-0.000212446 6.35159e-05 6.38272e-05 -3.48032e-05
-0.000316714 9.48269e-05 9.50945e-05 -3.0934e-05
-0.000312479 9.35618e-05 9.38216e-05 -3.09339e-05
-0.000103927 3.09524e-05 3.12748e-05 -3.71259e-05
-0.000105344 3.1371e-05 3.17026e-05 -3.7126e-05
-0.000314596 9.41944e-05 9.4458e-05 -3.0934e-05
-0.000208207 6.22533e-05 6.25515e-05 -3.48031e-05
-0.000104635 3.11617e-05 3.14887e-05 -3.7126e-05
-0.000211033 6.30951e-05 6.34019e-05 -3.48032e-05
-0.00020962 6.26742e-05 6.29767e-05 -3.48031e-05
-0.000312479 9.35618e-05 9.38216e-05 -3.09339e-05
-0.000308244 9.22966e-05 9.25489e-05 -3.09339e-05
-0.00010251 3.05338e-05 3.0847e-05 -3.71258e-05
-0.000103927 3.09524e-05 3.12748e-05 -3.71259e-05
-0.000310361 9.29292e-05 9.31853e-05 -3.09339e-05
-0.000205381 6.14115e-05 6.17011e-05 -3.48031e-05
-0.000103218 3.07431e-05 3.10608e-05 -3.71259e-05
-0.000208207 6.22533e-05 6.25515e-05 -3.48031e-05
-0.000206794 6.18324e-05 6.21263e-05 -3.48031e-05
-0.000308244 9.22966e-05 9.25489e-05 -3.09339e-05
-0.000304009 9.10314e-05 9.12762e-05 -3.09339e-05
-0.000101093 3.01152e-05 3.04192e-05 -3.71257e-05
-0.00010251 3.05338e-05 3.0847e-05 -3.71258e-05
-0.000306127 9.1664e-05 9.19125e-05 -3.09339e-05
-0.000202555 6.05697e-05 6.08508e-05 -3.4803e-05
-0.000101802 3.03245e-05 3.06331e-05 -3.71258e-05
-0.000205381 6.14115e-05 6.17011e-05 -3.48031e-05
-0.000203968 6.09906e-05 6.12759e-05 -3.4803e-05
-0.000304009 9.10314e-05 9.12762e-05 -3.09339e-05
-0.000299774 8.97662e-05 9.00035e-05 -3.09339e-05
-9.96767e-05 2.96964e-05 2.99915e-05 -3.71256e-05
-0.000101093 3.01152e-05 3.04192e-05 -3.71257e-05
-0.000301892 9.03988e-05 9.06398e-05 -3.09339e-05
-0.000199729 5.97278e-05 6.00006e-05 -3.4803e-05
-0.000100385 2.99058e-05 3.02054e-05 -3.71257e-05
-0.000202555 6.05697e-05 6.08508e-05 -3.4803e-05
-0.000201142 6.01488e-05 6.04257e-05 -3.4803e-05
-0.000299774 8.97662e-05 9.00035e-05 -3.09339e-05
-0.00029554 8.85009e-05 8.8731e-05 -3.09339e-05
-9.82602e-05 2.92777e-05 2.95639e-05 -3.71255e-05
-9.96767e-05 2.96964e-05 2.99915e-05 -3.71256e-05
-0.000297657 8.91335e-05 8.93672e-05 -3.09339e-05
-0.000196903 5.88859e-05 5.91504e-05 -3.48029e-05
-9.89684e-05 2.9487e-05 2.97777e-05 -3.71256e-05
-0.000199729 5.97278e-05 6.00006e-05 -3.4803e-05
-0.000198316 5.93068e-05 5.95755e-05 -3.48029e-05
-0.00029554 8.85009e-05 8.8731e-05 -3.09339e-05
-0.000291305 8.72355e-05 8.74584e-05 -3.09339e-05
-9.68438e-05 2.88588e-05 2.91364e-05 -3.71255e-05
-9.82602e-05 2.92777e-05 2.95639e-05 -3.71255e-05
-0.000293422 8.78682e-05 8.80947e-05 -3.09339e-05
-0.000194078 5.80439e-05 5.83003e-05 -3.48029e-05
-9.7552e-05 2.90682e-05 2.93502e-05 -3.71255e-05
-0.000196903 5.88859e-05 5.91504e-05 -3.48029e-05
-0.000195491 5.84649e-05 5.87253e-05 -3.48029e-05
-0.000291305 8.72355e-05 8.74584e-05 -3.09339e-05
-0.000287071 8.59701e-05 8.6186e-05 -3.09338e-05
-9.54275e-05 2.84399e-05 2.8709e-05 -3.71254e-05
-9.68438e-05 2.88588e-05 2.91364e-05 -3.71255e-05
-0.000289188 8.66028e-05 8.68222e-05 -3.09339e-05
-0.000191252 5.72018e-05 5.74502e-05 -3.48028e-05
-9.61356e-05 2.86494e-05 2.89227e-05 -3.71254e-05
-0.000194078 5.80439e-05 5.83003e-05 -3.48029e-05
-0.000192665 5.76229e-05 5.78753e-05 -3.48028e-05
-0.000287071 8.59701e-05 8.6186e-05 -3.09338e-05
-0.000282836 8.47047e-05 8.49136e-05 -3.09338e-05
-9.40113e-05 2.8021e-05 2.82816e-05 -3.71253e-05
-9.54275e-05 2.84399e-05 2.8709e-05 -3.71254e-05
-0.000284954 8.53374e-05 8.55498e-05 -3.09338e-05
-0.000188427 5.63597e-05 5.66003e-05 -3.48028e-05
-9.47194e-05 2.82304e-05 2.84953e-05 -3.71253e-05
-0.000191252 5.72018e-05 5.74502e-05 -3.48028e-05
-0.00018984 5.67808e-05 5.70253e-05 -3.48028e-05
-0.000282836 8.47047e-05 8.49136e-05 -3.09338e-05
-0.000278602 8.34393e-05 8.36413e-05 -3.09338e-05
-9.25952e-05 2.7602e-05 2.78542e-05 -3.71252e-05
-9.40113e-05 2.8021e-05 2.82816e-05 -3.71253e-05
-0.000280719 8.4072e-05 8.42774e-05 -3.09338e-05
-0.000185602 5.55176e-05 5.57504e-05 -3.48027e-05
-9.33032e-05 2.78115e-05 2.80679e-05 -3.71252e-05
-0.000188427 5.63597e-05 5.66003e-05 -3.48028e-05
-0.000187014 5.59387e-05 5.61753e-05 -3.48027e-05
-0.000278602 8.34393e-05 8.36413e-05 -3.09338e-05
-0.000274368 8.21737e-05 8.2369e-05 -3.09338e-05
-9.11792e-05 2.71829e-05 2.7427e-05 -3.71251e-05
-9.25952e-05 2.7602e-05 2.78542e-05 -3.71252e-05
-0.000276485 8.28065e-05 8.30051e-05 -3.09338e-05
-0.000182777 5.46754e-05 5.49005e-05 -3.48027e-05
-9.18872e-05 2.73924e-05 2.76406e-05 -3.71252e-05
-0.000185602 5.55176e-05 5.57504e-05 -3.48027e-05
-0.000184189 5.50965e-05 5.53254e-05 -3.48027e-05
-0.000274368 8.21737e-05 8.2369e-05 -3.09338e-05
-0.000270134 8.09082e-05 8.10968e-05 -3.09338e-05
-8.97633e-05 2.67638e-05 2.69998e-05 -3.7125e-05
-9.11792e-05 2.71829e-05 2.7427e-05 -3.71251e-05
-0.000272251 8.1541e-05 8.17329e-05 -3.09338e-05
-0.000179952 5.38332e-05 5.40508e-05 -3.48026e-05
-9.04712e-05 2.69733e-05 2.72134e-05 -3.71251e-05
-0.000182777 5.46754e-05 5.49005e-05 -3.48027e-05
-0.000181364 5.42543e-05 5.44756e-05 -3.48026e-05
-0.000270134 8.09082e-05 8.10968e-05 -3.09338e-05
-0.0002659 7.96426e-05 7.98247e-05 -3.09338e-05
-8.83475e-05 2.63446e-05 2.65727e-05 -3.7125e-05
-8.97633e-05 2.67638e-05 2.69998e-05 -3.7125e-05
-0.000268017 8.02754e-05 8.04607e-05 -3.09338e-05
-0.000177127 5.29909e-05 5.32011e-05 -3.48026e-05
-8.90554e-05 2.65542e-05 2.67862e-05 -3.7125e-05
-0.000179952 5.38332e-05 5.40508e-05 -3.48026e-05
-0.000178539 5.3412e-05 5.36259e-05 -3.48026e-05
-0.0002659 7.96426e-05 7.98247e-05 -3.09338e-05
-0.000261666 7.8377e-05 7.85526e-05 -3.09338e-05
-8.69318e-05 2.59254e-05 2.61456e-05 -3.71249e-05
-8.83475e-05 2.63446e-05 2.65727e-05 -3.7125e-05
-0.000263783 7.90098e-05 7.91886e-05 -3.09338e-05
-0.000174302 5.21485e-05 5.23514e-05 -3.48025e-05
-8.76397e-05 2.6135e-05 2.63591e-05 -3.71249e-05
-0.000177127 5.29909e-05 5.32011e-05 -3.48026e-05
-0.000175714 5.25697e-05 5.27762e-05 -3.48026e-05
-0.000261666 7.8377e-05 7.85526e-05 -3.09338e-05
-0.000257433 7.71113e-05 7.72806e-05 -3.09338e-05
-8.55163e-05 2.55061e-05 2.57187e-05 -3.71248e-05
-8.69318e-05 2.59254e-05 2.61456e-05 -3.71249e-05
-0.000259549 7.77441e-05 7.79166e-05 -3.09338e-05
-0.000171477 5.13061e-05 5.15018e-05 -3.48025e-05
-8.6224e-05 2.57157e-05 2.59321e-05 -3.71248e-05
-0.000174302 5.21485e-05 5.23514e-05 -3.48025e-05
-0.000172889 5.17273e-05 5.19266e-05 -3.48025e-05
-0.000257433 7.71113e-05 7.72806e-05 -3.09338e-05
-0.000253199 7.58456e-05 7.60086e-05 -3.09338e-05
-8.41008e-05 2.50867e-05 2.52917e-05 -3.71247e-05
-8.55163e-05 2.55061e-05 2.57187e-05 -3.71248e-05
-0.000255316 7.64784e-05 7.66446e-05 -3.09338e-05
-0.000168652 5.04637e-05 5.06523e-05 -3.48025e-05
-8.48085e-05 2.52964e-05 2.55052e-05 -3.71248e-05
-0.000171477 5.13061e-05 5.15018e-05 -3.48025e-05
-0.000170065 5.08849e-05 5.10771e-05 -3.48025e-05
-0.000253199 7.58456e-05 7.60086e-05 -3.09338e-05
-0.000248965 7.45798e-05 7.47367e-05 -3.09338e-05
-8.26854e-05 2.46673e-05 2.48649e-05 -3.71246e-05
-8.41008e-05 2.50867e-05 2.52917e-05 -3.71247e-05
-0.000251082 7.52127e-05 7.53727e-05 -3.09338e-05
-0.000165828 4.96212e-05 4.98029e-05 -3.48024e-05
-8.33931e-05 2.4877e-05 2.50783e-05 -3.71247e-05
-0.000168652 5.04637e-05 5.06523e-05 -3.48025e-05
-0.00016724 5.00424e-05 5.02276e-05 -3.48024e-05
-0.000248965 7.45798e-05 7.47367e-05 -3.09338e-05
-0.000244732 7.3314e-05 7.34649e-05 -3.09338e-05
-8.12702e-05 2.42479e-05 2.44381e-05 -3.71246e-05
-8.26854e-05 2.46673e-05 2.48649e-05 -3.71246e-05
-0.000246849 7.39469e-05 7.41008e-05 -3.09338e-05
-0.000163004 4.87786e-05 4.89535e-05 -3.48024e-05
-8.19778e-05 2.44576e-05 2.46515e-05 -3.71246e-05
-0.000165828 4.96212e-05 4.98029e-05 -3.48024e-05
-0.000164416 4.91999e-05 4.93782e-05 -3.48024e-05
-0.000244732 7.3314e-05 7.34649e-05 -3.09338e-05
-0.000240499 7.20481e-05 7.21931e-05 -3.09338e-05
-7.9855e-05 2.38284e-05 2.40114e-05 -3.71245e-05
-8.12702e-05 2.42479e-05 2.44381e-05 -3.71246e-05
-0.000242615 7.26811e-05 7.2829e-05 -3.09338e-05
-0.000160179 4.7936e-05 4.81042e-05 -3.48024e-05
-8.05626e-05 2.40381e-05 2.42248e-05 -3.71245e-05
-0.000163004 4.87786e-05 4.89535e-05 -3.48024e-05
-0.000161591 4.83573e-05 4.85289e-05 -3.48024e-05
-0.000240499 7.20481e-05 7.21931e-05 -3.09338e-05
-0.000236266 7.07822e-05 7.09214e-05 -3.09338e-05
-7.844e-05 2.34088e-05 2.35848e-05 -3.71244e-05
-7.9855e-05 2.38284e-05 2.40114e-05 -3.71245e-05
-0.000238382 7.14152e-05 7.15572e-05 -3.09338e-05
-0.000157355 4.70934e-05 4.7255e-05 -3.48023e-05
-7.91475e-05 2.36186e-05 2.37981e-05 -3.71245e-05
-0.000160179 4.7936e-05 4.81042e-05 -3.48024e-05
-0.000158767 4.75147e-05 4.76796e-05 -3.48023e-05
-0.000236266 7.07822e-05 7.09214e-05 -3.09338e-05
-0.000232032 6.95163e-05 6.96498e-05 -3.09338e-05
-7.7025e-05 2.29892e-05 2.31582e-05 -3.71244e-05
-7.844e-05 2.34088e-05 2.35848e-05 -3.71244e-05
-0.000234149 7.01493e-05 7.02856e-05 -3.09338e-05
-0.000154531 4.62506e-05 4.64058e-05 -3.48023e-05
-7.77325e-05 2.3199e-05 2.33715e-05 -3.71244e-05
-0.000157355 4.70934e-05 4.7255e-05 -3.48023e-05
-0.000155943 4.6672e-05 4.68304e-05 -3.48023e-05
-0.000232032 6.95163e-05 6.96498e-05 -3.09338e-05
-0.000227799 6.82503e-05 6.83782e-05 -3.09338e-05
-7.56102e-05 2.25695e-05 2.27317e-05 -3.71243e-05
-7.7025e-05 2.29892e-05 2.31582e-05 -3.71244e-05
-0.000229916 6.88833e-05 6.9014e-05 -3.09338e-05
-0.000151707 4.54079e-05 4.55567e-05 -3.48023e-05
-7.63176e-05 2.27793e-05 2.2945e-05 -3.71243e-05
-0.000154531 4.62506e-05 4.64058e-05 -3.48023e-05
-0.000153119 4.58293e-05 4.59812e-05 -3.48023e-05
-0.000227799 6.82503e-05 6.83782e-05 -3.09338e-05
-0.000223566 6.69843e-05 6.71066e-05 -3.09338e-05
-7.41954e-05 2.21497e-05 2.23053e-05 -3.71242e-05
-7.56102e-05 2.25695e-05 2.27317e-05 -3.71243e-05
-0.000225683 6.76173e-05 6.77424e-05 -3.09338e-05
-0.000148883 4.45651e-05 4.47077e-05 -3.48022e-05
-7.49028e-05 2.23596e-05 2.25185e-05 -3.71243e-05
-0.000151707 4.54079e-05 4.55567e-05 -3.48023e-05
-0.000150295 4.49865e-05 4.51322e-05 -3.48022e-05
-0.000223566 6.69843e-05 6.71066e-05 -3.09338e-05
-0.000219334 6.57182e-05 6.58352e-05 -3.09338e-05
-7.27808e-05 2.17299e-05 2.18789e-05 -3.71242e-05
-7.41954e-05 2.21497e-05 2.23053e-05 -3.71242e-05
-0.00022145 6.63513e-05 6.64709e-05 -3.09338e-05
-0.000146059 4.37222e-05 4.38587e-05 -3.48022e-05
-7.34881e-05 2.19398e-05 2.20921e-05 -3.71242e-05
-0.000148883 4.45651e-05 4.47077e-05 -3.48022e-05
-0.000147471 4.41437e-05 4.42832e-05 -3.48022e-05
-0.000219334 6.57182e-05 6.58352e-05 -3.09338e-05
-0.000215101 6.44521e-05 6.45638e-05 -3.09338e-05
-7.13663e-05 2.13101e-05 2.14527e-05 -3.71241e-05
-7.27808e-05 2.17299e-05 2.18789e-05 -3.71242e-05
-0.000217217 6.50852e-05 6.51995e-05 -3.09338e-05
-0.000143235 4.28793e-05 4.30098e-05 -3.48022e-05
-7.20735e-05 2.152e-05 2.16658e-05 -3.71241e-05
-0.000146059 4.37222e-05 4.38587e-05 -3.48022e-05
-0.000144647 4.33008e-05 4.34342e-05 -3.48022e-05
-0.000215101 6.44521e-05 6.45638e-05 -3.09338e-05
-0.000210868 6.3186e-05 6.32924e-05 -3.09338e-05
-6.99518e-05 2.08902e-05 2.10264e-05 -3.7124e-05
-7.13663e-05 2.13101e-05 2.14527e-05 -3.71241e-05
-0.000212985 6.38191e-05 6.39281e-05 -3.09338e-05
-0.000140412 4.20363e-05 4.21609e-05 -3.48022e-05
-7.0659e-05 2.11001e-05 2.12395e-05 -3.71241e-05
-0.000143235 4.28793e-05 4.30098e-05 -3.48022e-05
-0.000141824 4.24578e-05 4.25854e-05 -3.48022e-05
-0.000210868 6.3186e-05 6.32924e-05 -3.09338e-05
-0.000206636 6.19198e-05 6.20212e-05 -3.09338e-05
-6.85375e-05 2.04702e-05 2.06003e-05 -3.7124e-05
-6.99518e-05 2.08902e-05 2.10264e-05 -3.7124e-05
-0.000208752 6.25529e-05 6.26568e-05 -3.09338e-05
-0.000137588 4.11933e-05 4.13122e-05 -3.48021e-05
-6.92447e-05 2.06802e-05 2.08133e-05 -3.7124e-05
-0.000140412 4.20363e-05 4.21609e-05 -3.48022e-05
-0.000139 4.16148e-05 4.17365e-05 -3.48021e-05
-0.000206636 6.19198e-05 6.20212e-05 -3.09338e-05
-0.000202403 6.06535e-05 6.07499e-05 -3.09338e-05
-6.71233e-05 2.00502e-05 2.01742e-05 -3.71239e-05
-6.85375e-05 2.04702e-05 2.06003e-05 -3.7124e-05
-0.00020452 6.12867e-05 6.13855e-05 -3.09338e-05
-0.000134765 4.03503e-05 4.04635e-05 -3.48021e-05
-6.78304e-05 2.02602e-05 2.03872e-05 -3.7124e-05
-0.000137588 4.11933e-05 4.13122e-05 -3.48021e-05
-0.000136177 4.07718e-05 4.08878e-05 -3.48021e-05
-0.000202403 6.06535e-05 6.07499e-05 -3.09338e-05
-0.000198171 5.93873e-05 5.94788e-05 -3.09338e-05
-6.57092e-05 1.96301e-05 1.97482e-05 -3.71239e-05
-6.71233e-05 2.00502e-05 2.01742e-05 -3.71239e-05
-0.000200287 6.00204e-05 6.01144e-05 -3.09338e-05
-0.000131942 3.95072e-05 3.96148e-05 -3.48021e-05
-6.64162e-05 1.98401e-05 1.99612e-05 -3.71239e-05
-0.000134765 4.03503e-05 4.04635e-05 -3.48021e-05
-0.000133353 3.99287e-05 4.00391e-05 -3.48021e-05
-0.000198171 5.93873e-05 5.94788e-05 -3.09338e-05
-0.000193939 5.81209e-05 5.82077e-05 -3.09338e-05
-6.42951e-05 1.92099e-05 1.93222e-05 -3.71238e-05
-6.57092e-05 1.96301e-05 1.97482e-05 -3.71239e-05
-0.000196055 5.87541e-05 5.88432e-05 -3.09338e-05
-0.000129119 3.8664e-05 3.87662e-05 -3.48021e-05
-6.50021e-05 1.942e-05 1.95352e-05 -3.71238e-05
-0.000131942 3.95072e-05 3.96148e-05 -3.48021e-05
-0.00013053 3.90856e-05 3.91905e-05 -3.48021e-05
-0.000193939 5.81209e-05 5.82077e-05 -3.09338e-05
-0.000189707 5.68546e-05 5.69367e-05 -3.09338e-05
-6.28812e-05 1.87897e-05 1.88963e-05 -3.71238e-05
-6.42951e-05 1.92099e-05 1.93222e-05 -3.71238e-05
-0.000191823 5.74877e-05 5.75722e-05 -3.09338e-05
-0.000126295 3.78208e-05 3.79177e-05 -3.48021e-05
-6.35882e-05 1.89999e-05 1.91093e-05 -3.71238e-05
-0.000129119 3.8664e-05 3.87662e-05 -3.48021e-05
-0.000127707 3.82424e-05 3.8342e-05 -3.48021e-05
-0.000189707 5.68546e-05 5.69367e-05 -3.09338e-05
-0.000185475 5.55881e-05 5.56657e-05 -3.09339e-05
-6.14674e-05 1.83695e-05 1.84705e-05 -3.71237e-05
-6.28812e-05 1.87897e-05 1.88963e-05 -3.71238e-05
-0.000187591 5.62214e-05 5.63012e-05 -3.09339e-05
-0.000123472 3.69775e-05 3.70693e-05 -3.4802e-05
-6.21743e-05 1.85796e-05 1.86834e-05 -3.71237e-05
-0.000126295 3.78208e-05 3.79177e-05 -3.48021e-05
-0.000124884 3.73991e-05 3.74935e-05 -3.4802e-05
-0.000185475 5.55881e-05 5.56657e-05 -3.09339e-05
-0.000181243 5.43217e-05 5.43948e-05 -3.09339e-05
-6.00537e-05 1.79492e-05 1.80448e-05 -3.71237e-05
-6.14674e-05 1.83695e-05 1.84705e-05 -3.71237e-05
-0.000183359 5.49549e-05 5.50302e-05 -3.09339e-05
-0.00012065 3.61342e-05 3.62209e-05 -3.4802e-05
-6.07606e-05 1.81593e-05 1.82577e-05 -3.71237e-05
-0.000123472 3.69775e-05 3.70693e-05 -3.4802e-05
-0.000122061 3.65558e-05 3.66451e-05 -3.4802e-05
-0.000181243 5.43217e-05 5.43948e-05 -3.09339e-05
-0.000177011 5.30552e-05 5.31239e-05 -3.09339e-05
-5.86401e-05 1.75288e-05 1.76191e-05 -3.71236e-05
-6.00537e-05 1.79492e-05 1.80448e-05 -3.71237e-05
-0.000179127 5.36884e-05 5.37593e-05 -3.09339e-05
-0.000117827 3.52908e-05 3.53726e-05 -3.4802e-05
-5.93469e-05 1.7739e-05 1.7832e-05 -3.71236e-05
-0.00012065 3.61342e-05 3.62209e-05 -3.4802e-05
-0.000119238 3.57125e-05 3.57967e-05 -3.4802e-05
-0.000177011 5.30552e-05 5.31239e-05 -3.09339e-05
-0.000172779 5.17886e-05 5.18531e-05 -3.09339e-05
-5.72266e-05 1.71084e-05 1.71935e-05 -3.71236e-05
-5.86401e-05 1.75288e-05 1.76191e-05 -3.71236e-05
-0.000174895 5.24219e-05 5.24885e-05 -3.09339e-05
-0.000115004 3.44474e-05 3.45243e-05 -3.4802e-05
-5.79334e-05 1.73186e-05 1.74063e-05 -3.71236e-05
-0.000117827 3.52908e-05 3.53726e-05 -3.4802e-05
-0.000116415 3.48691e-05 3.49485e-05 -3.4802e-05
-0.000172779 5.17886e-05 5.18531e-05 -3.09339e-05
-0.000168548 5.0522e-05 5.05824e-05 -3.09339e-05
-5.58132e-05 1.66879e-05 1.6768e-05 -3.71235e-05
-5.72266e-05 1.71084e-05 1.71935e-05 -3.71236e-05
-0.000170663 5.11553e-05 5.12178e-05 -3.09339e-05
-0.000112182 3.36039e-05 3.36762e-05 -3.4802e-05
-5.65199e-05 1.68982e-05 1.69807e-05 -3.71235e-05
-0.000115004 3.44474e-05 3.45243e-05 -3.4802e-05
-0.000113593 3.40256e-05 3.41002e-05 -3.4802e-05
-0.000168548 5.0522e-05 5.05824e-05 -3.09339e-05
-0.000164316 4.92554e-05 4.93117e-05 -3.0934e-05
-5.43999e-05 1.62674e-05 1.63425e-05 -3.71235e-05
-5.58132e-05 1.66879e-05 1.6768e-05 -3.71235e-05
-0.000166432 4.98887e-05 4.99471e-05 -3.0934e-05
-0.000109359 3.27604e-05 3.28281e-05 -3.4802e-05
-5.51066e-05 1.64777e-05 1.65552e-05 -3.71235e-05
-0.000112182 3.36039e-05 3.36762e-05 -3.4802e-05
-0.00011077 3.31821e-05 3.32521e-05 -3.4802e-05
-0.000164316 4.92554e-05 4.93117e-05 -3.0934e-05
-0.000160085 4.79887e-05 4.80411e-05 -3.0934e-05
-5.29867e-05 1.58468e-05 1.59171e-05 -3.71234e-05
-5.43999e-05 1.62674e-05 1.63425e-05 -3.71235e-05
-0.0001622 4.86221e-05 4.86764e-05 -3.0934e-05
-0.000106537 3.19168e-05 3.198e-05 -3.4802e-05
-5.36933e-05 1.60571e-05 1.61298e-05 -3.71235e-05
-0.000109359 3.27604e-05 3.28281e-05 -3.4802e-05
-0.000107948 3.23386e-05 3.2404e-05 -3.4802e-05
-0.000160085 4.79887e-05 4.80411e-05 -3.0934e-05
-0.000155853 4.6722e-05 4.67706e-05 -3.0934e-05
-5.15736e-05 1.54261e-05 1.54918e-05 -3.71234e-05
-5.29867e-05 1.58468e-05 1.59171e-05 -3.71234e-05
-0.000157969 4.73554e-05 4.74059e-05 -3.0934e-05
-0.000103715 3.10731e-05 3.1132e-05 -3.4802e-05
-5.22802e-05 1.56365e-05 1.57044e-05 -3.71234e-05
-0.000106537 3.19168e-05 3.198e-05 -3.4802e-05
-0.000105126 3.1495e-05 3.1556e-05 -3.4802e-05
-0.000155853 4.6722e-05 4.67706e-05 -3.0934e-05
-0.000151622 4.54552e-05 4.55001e-05 -3.0934e-05
-5.01607e-05 1.50054e-05 1.50665e-05 -3.71234e-05
-5.15736e-05 1.54261e-05 1.54918e-05 -3.71234e-05
-0.000153738 4.60886e-05 4.61353e-05 -3.0934e-05
-0.000100892 3.02294e-05 3.02841e-05 -3.4802e-05
-5.08671e-05 1.52158e-05 1.52792e-05 -3.71234e-05
-0.000103715 3.10731e-05 3.1132e-05 -3.4802e-05
-0.000102303 3.06513e-05 3.07081e-05 -3.4802e-05
-0.000151622 4.54552e-05 4.55001e-05 -3.0934e-05
-0.000147391 4.41884e-05 4.42297e-05 -3.09341e-05
-4.87478e-05 1.45847e-05 1.46413e-05 -3.71233e-05
-5.01607e-05 1.50054e-05 1.50665e-05 -3.71234e-05
-0.000149507 4.48218e-05 4.48649e-05 -3.09341e-05
-9.80703e-05 2.93857e-05 2.94363e-05 -3.4802e-05
-4.94542e-05 1.4795e-05 1.48539e-05 -3.71234e-05
-0.000100892 3.02294e-05 3.02841e-05 -3.4802e-05
-9.94813e-05 2.98076e-05 2.98602e-05 -3.4802e-05
-0.000147391 4.41884e-05 4.42297e-05 -3.09341e-05
-0.00014316 4.29216e-05 4.29593e-05 -3.09341e-05
-4.7335e-05 1.41638e-05 1.42162e-05 -3.71233e-05
-4.87478e-05 1.45847e-05 1.46413e-05 -3.71233e-05
-0.000145275 4.3555e-05 4.35945e-05 -3.09341e-05
-9.52483e-05 2.85419e-05 2.85885e-05 -3.4802e-05
-4.80414e-05 1.43743e-05 1.44288e-05 -3.71233e-05
-9.80703e-05 2.93857e-05 2.94363e-05 -3.4802e-05
-9.66593e-05 2.89638e-05 2.90124e-05 -3.4802e-05
-0.00014316 4.29216e-05 4.29593e-05 -3.09341e-05
-0.000138929 4.16547e-05 4.1689e-05 -3.09341e-05
-4.59223e-05 1.3743e-05 1.37912e-05 -3.71233e-05
-4.7335e-05 1.41638e-05 1.42162e-05 -3.71233e-05
-0.000141044 4.22881e-05 4.23242e-05 -3.09341e-05
-9.24265e-05 2.76981e-05 2.77408e-05 -3.4802e-05
-4.66287e-05 1.39534e-05 1.40037e-05 -3.71233e-05
-9.52483e-05 2.85419e-05 2.85885e-05 -3.4802e-05
-9.38374e-05 2.812e-05 2.81646e-05 -3.4802e-05
-0.000138929 4.16547e-05 4.1689e-05 -3.09341e-05
-0.000134698 4.03877e-05 4.04188e-05 -3.09342e-05
-4.45098e-05 1.3322e-05 1.33662e-05 -3.71232e-05
-4.59223e-05 1.3743e-05 1.37912e-05 -3.71233e-05
-0.000136814 4.10212e-05 4.10539e-05 -3.09342e-05
-8.96047e-05 2.68542e-05 2.68931e-05 -3.4802e-05
-4.5216e-05 1.35325e-05 1.35787e-05 -3.71233e-05
-9.24265e-05 2.76981e-05 2.77408e-05 -3.4802e-05
-9.10156e-05 2.72761e-05 2.73169e-05 -3.4802e-05
-0.000134698 4.03877e-05 4.04188e-05 -3.09342e-05
-0.000130467 3.91207e-05 3.91486e-05 -3.09342e-05
-4.30973e-05 1.2901e-05 1.29413e-05 -3.71232e-05
-4.45098e-05 1.3322e-05 1.33662e-05 -3.71232e-05
-0.000132583 3.97542e-05 3.97837e-05 -3.09342e-05
-8.67831e-05 2.60102e-05 2.60455e-05 -3.4802e-05
-4.38035e-05 1.31115e-05 1.31537e-05 -3.71232e-05
-8.96047e-05 2.68542e-05 2.68931e-05 -3.4802e-05
-8.81939e-05 2.64322e-05 2.64693e-05 -3.4802e-05
-0.000130467 3.91207e-05 3.91486e-05 -3.09342e-05
-0.000126237 3.78537e-05 3.78785e-05 -3.09342e-05
-4.16849e-05 1.24799e-05 1.25164e-05 -3.71232e-05
-4.30973e-05 1.2901e-05 1.29413e-05 -3.71232e-05
-0.000128352 3.84872e-05 3.85135e-05 -3.09342e-05
-8.39615e-05 2.51662e-05 2.5198e-05 -3.4802e-05
-4.23911e-05 1.26905e-05 1.27288e-05 -3.71232e-05
-8.67831e-05 2.60102e-05 2.60455e-05 -3.4802e-05
-8.53723e-05 2.55882e-05 2.56217e-05 -3.4802e-05
-0.000126237 3.78537e-05 3.78785e-05 -3.09342e-05
-0.000122006 3.65866e-05 3.66084e-05 -3.09343e-05
-4.02726e-05 1.20588e-05 1.20916e-05 -3.71232e-05
-4.16849e-05 1.24799e-05 1.25164e-05 -3.71232e-05
-0.000124121 3.72202e-05 3.72434e-05 -3.09342e-05
-8.11401e-05 2.43221e-05 2.43505e-05 -3.4802e-05
-4.09788e-05 1.22694e-05 1.2304e-05 -3.71232e-05
-8.39615e-05 2.51662e-05 2.5198e-05 -3.4802e-05
-8.25508e-05 2.47442e-05 2.47743e-05 -3.4802e-05
-0.000122006 3.65866e-05 3.66084e-05 -3.09343e-05
-0.000117776 3.53195e-05 3.53384e-05 -3.09343e-05
-3.88605e-05 1.16376e-05 1.16669e-05 -3.71231e-05
-4.02726e-05 1.20588e-05 1.20916e-05 -3.71232e-05
-0.000119891 3.5953e-05 3.59734e-05 -3.09343e-05
-7.83187e-05 2.3478e-05 2.35031e-05 -3.4802e-05
-3.95665e-05 1.18482e-05 1.18793e-05 -3.71231e-05
-8.11401e-05 2.43221e-05 2.43505e-05 -3.4802e-05
-7.97294e-05 2.39001e-05 2.39268e-05 -3.4802e-05
-0.000117776 3.53195e-05 3.53384e-05 -3.09343e-05
-0.000113545 3.40523e-05 3.40685e-05 -3.09343e-05
-3.74484e-05 1.12164e-05 1.12423e-05 -3.71231e-05
-3.88605e-05 1.16376e-05 1.16669e-05 -3.71231e-05
-0.000115661 3.46859e-05 3.47034e-05 -3.09343e-05
-7.54974e-05 2.26338e-05 2.26558e-05 -3.4802e-05
-3.81544e-05 1.1427e-05 1.14546e-05 -3.71231e-05
-7.83187e-05 2.3478e-05 2.35031e-05 -3.4802e-05
-7.69081e-05 2.30559e-05 2.30795e-05 -3.4802e-05
-0.000113545 3.40523e-05 3.40685e-05 -3.09343e-05
-0.000109315 3.27851e-05 3.27986e-05 -3.09343e-05
-3.60364e-05 1.07951e-05 1.08177e-05 -3.71231e-05
-3.74484e-05 1.12164e-05 1.12423e-05 -3.71231e-05
-0.00011143 3.34187e-05 3.34335e-05 -3.09343e-05
-7.26763e-05 2.17896e-05 2.18086e-05 -3.4802e-05
-3.67424e-05 1.10057e-05 1.103e-05 -3.71231e-05
-7.54974e-05 2.26338e-05 2.26558e-05 -3.4802e-05
-7.40868e-05 2.22117e-05 2.22322e-05 -3.4802e-05
-0.000109315 3.27851e-05 3.27986e-05 -3.09343e-05
-0.000105085 3.15178e-05 3.15288e-05 -3.09343e-05
-3.46245e-05 1.03737e-05 1.03932e-05 -3.7123e-05
-3.60364e-05 1.07951e-05 1.08177e-05 -3.71231e-05
-0.0001072 3.21514e-05 3.21637e-05 -3.09343e-05
-6.98552e-05 2.09453e-05 2.09614e-05 -3.4802e-05
-3.53304e-05 1.05844e-05 1.06054e-05 -3.71231e-05
-7.26763e-05 2.17896e-05 2.18086e-05 -3.4802e-05
-7.12657e-05 2.13675e-05 2.1385e-05 -3.4802e-05
-0.000105085 3.15178e-05 3.15288e-05 -3.09343e-05
-0.000100855 3.02505e-05 3.0259e-05 -3.09343e-05
-3.32127e-05 9.95227e-06 9.96875e-06 -3.7123e-05
-3.46245e-05 1.03737e-05 1.03932e-05 -3.7123e-05
-0.00010297 3.08841e-05 3.08939e-05 -3.09343e-05
-6.70342e-05 2.0101e-05 2.01142e-05 -3.4802e-05
-3.39186e-05 1.0163e-05 1.0181e-05 -3.7123e-05
-6.98552e-05 2.09453e-05 2.09614e-05 -3.4802e-05
-6.84447e-05 2.05232e-05 2.05378e-05 -3.4802e-05
-0.000100855 3.02505e-05 3.0259e-05 -3.09343e-05
-9.66248e-05 2.89831e-05 2.89893e-05 -3.09343e-05
-3.1801e-05 9.53077e-06 9.54437e-06 -3.71229e-05
-3.32127e-05 9.95227e-06 9.96875e-06 -3.7123e-05
-9.87398e-05 2.96168e-05 2.96242e-05 -3.09343e-05
-6.42133e-05 1.92566e-05 1.92672e-05 -3.48019e-05
-3.25068e-05 9.74153e-06 9.75655e-06 -3.7123e-05
-6.70342e-05 2.0101e-05 2.01142e-05 -3.4802e-05
-6.56237e-05 1.96788e-05 1.96907e-05 -3.4802e-05
-9.66248e-05 2.89831e-05 2.89893e-05 -3.09343e-05
-9.23949e-05 2.77157e-05 2.77197e-05 -3.09343e-05
-3.03893e-05 9.10923e-06 9.12005e-06 -3.71229e-05
-3.1801e-05 9.53077e-06 9.54437e-06 -3.71229e-05
-9.45099e-05 2.83494e-05 2.83545e-05 -3.09343e-05
-6.13925e-05 1.84122e-05 1.84202e-05 -3.48019e-05
-3.10951e-05 9.32001e-06 9.3322e-06 -3.71229e-05
-6.42133e-05 1.92566e-05 1.92672e-05 -3.48019e-05
-6.28029e-05 1.88344e-05 1.88437e-05 -3.48019e-05
-9.23949e-05 2.77157e-05 2.77197e-05 -3.09343e-05
-8.81651e-05 2.64483e-05 2.64501e-05 -3.09343e-05
-2.89778e-05 8.68767e-06 8.69578e-06 -3.71228e-05
-3.03893e-05 9.10923e-06 9.12005e-06 -3.71229e-05
-9.028e-05 2.7082e-05 2.70849e-05 -3.09343e-05
-5.85718e-05 1.75677e-05 1.75732e-05 -3.48018e-05
-2.96836e-05 8.89845e-06 8.90791e-06 -3.71228e-05
-6.13925e-05 1.84122e-05 1.84202e-05 -3.48019e-05
-5.99822e-05 1.79899e-05 1.79967e-05 -3.48019e-05
-8.81651e-05 2.64483e-05 2.64501e-05 -3.09343e-05
-8.39355e-05 2.51809e-05 2.51805e-05 -3.09343e-05
-2.75664e-05 8.26611e-06 8.27157e-06 -3.71226e-05
-2.89778e-05 8.68767e-06 8.69578e-06 -3.71228e-05
-8.60503e-05 2.58146e-05 2.58153e-05 -3.09343e-05
-5.57513e-05 1.67233e-05 1.67263e-05 -3.48018e-05
-2.82721e-05 8.47689e-06 8.48367e-06 -3.71227e-05
-5.85718e-05 1.75677e-05 1.75732e-05 -3.48018e-05
-5.71616e-05 1.71455e-05 1.71497e-05 -3.48018e-05
-8.39355e-05 2.51809e-05 2.51805e-05 -3.09343e-05
-7.9706e-05 2.39136e-05 2.3911e-05 -3.09344e-05
-2.61552e-05 7.8446e-06 7.84741e-06 -3.71225e-05
-2.75664e-05 8.26611e-06 8.27157e-06 -3.71226e-05
-8.18208e-05 2.45473e-05 2.45458e-05 -3.09343e-05
-5.2931e-05 1.58789e-05 1.58795e-05 -3.48017e-05
-2.68608e-05 8.05534e-06 8.05948e-06 -3.71226e-05
-5.57513e-05 1.67233e-05 1.67263e-05 -3.48018e-05
-5.43411e-05 1.63011e-05 1.63029e-05 -3.48017e-05
-7.9706e-05 2.39136e-05 2.3911e-05 -3.09344e-05
-7.54768e-05 2.26463e-05 2.26416e-05 -3.09345e-05
-2.47442e-05 7.42318e-06 7.42329e-06 -3.71223e-05
-2.61552e-05 7.8446e-06 7.84741e-06 -3.71225e-05
-7.75914e-05 2.328e-05 2.32763e-05 -3.09344e-05
-5.01108e-05 1.50346e-05 1.50327e-05 -3.48017e-05
-2.54497e-05 7.63387e-06 7.63534e-06 -3.71224e-05
-5.2931e-05 1.58789e-05 1.58795e-05 -3.48017e-05
-5.15209e-05 1.54567e-05 1.5456e-05 -3.48017e-05
-7.54768e-05 2.26463e-05 2.26416e-05 -3.09345e-05
-7.12477e-05 2.13791e-05 2.13723e-05 -3.09346e-05
-2.33334e-05 7.00188e-06 6.99922e-06 -3.71222e-05
-2.47442e-05 7.42318e-06 7.42329e-06 -3.71223e-05
-7.33622e-05 2.20127e-05 2.20069e-05 -3.09345e-05
-4.72909e-05 1.41903e-05 1.4186e-05 -3.48017e-05
-2.40387e-05 7.21251e-06 7.21124e-06 -3.71223e-05
-5.01108e-05 1.50346e-05 1.50327e-05 -3.48017e-05
-4.87008e-05 1.46125e-05 1.46093e-05 -3.48017e-05
-7.12477e-05 2.13791e-05 2.13723e-05 -3.09346e-05
-6.70188e-05 2.01116e-05 2.01031e-05 -3.0935e-05
-2.19228e-05 6.58066e-06 6.5752e-06 -3.71225e-05
-2.33334e-05 7.00188e-06 6.99922e-06 -3.71222e-05
-6.91332e-05 2.07454e-05 2.07377e-05 -3.09348e-05
-4.44711e-05 1.33459e-05 1.33394e-05 -3.4802e-05
-2.26281e-05 6.79127e-06 6.78721e-06 -3.71223e-05
-4.72909e-05 1.41903e-05 1.4186e-05 -3.48017e-05
-4.5881e-05 1.37682e-05 1.37626e-05 -3.48018e-05
-6.70188e-05 2.01116e-05 2.01031e-05 -3.0935e-05
-6.27895e-05 1.88433e-05 1.88341e-05 -3.09354e-05
-2.05123e-05 6.15929e-06 6.1513e-06 -3.71238e-05
-2.19228e-05 6.58066e-06 6.5752e-06 -3.71225e-05
-6.49042e-05 1.94776e-05 1.94686e-05 -3.09352e-05
-4.1651e-05 1.25008e-05 1.2493e-05 -3.4803e-05
-2.12175e-05 6.37002e-06 6.36322e-06 -3.7123e-05
-4.44711e-05 1.33459e-05 1.33394e-05 -3.4802e-05
-4.30611e-05 1.29235e-05 1.29161e-05 -3.48024e-05
-6.27895e-05 1.88433e-05 1.88341e-05 -3.09354e-05
-5.85589e-05 1.75728e-05 1.75655e-05 -3.0936e-05
-1.91012e-05 5.73715e-06 5.72744e-06 -3.71274e-05
-2.05123e-05 6.15929e-06 6.1513e-06 -3.71238e-05
-6.06744e-05 1.82084e-05 1.81997e-05 -3.09357e-05
-3.88296e-05 1.16536e-05 1.16468e-05 -3.48053e-05
-1.98069e-05 5.94839e-06 5.93938e-06 -3.71252e-05
-4.1651e-05 1.25008e-05 1.2493e-05 -3.4803e-05
-4.02406e-05 1.20776e-05 1.20698e-05 -3.48039e-05
-5.85589e-05 1.75728e-05 1.75655e-05 -3.0936e-05
-5.43242e-05 1.6297e-05 1.62973e-05 -3.09367e-05
-1.76886e-05 5.31274e-06 5.30392e-06 -3.71363e-05
-1.91012e-05 5.73715e-06 5.72744e-06 -3.71274e-05
-5.64424e-05 1.69359e-05 1.69314e-05 -3.09363e-05
-3.60045e-05 1.08017e-05 1.08012e-05 -3.48106e-05
-1.8395e-05 5.52535e-06 5.51558e-06 -3.7131e-05
-3.88296e-05 1.16536e-05 1.16468e-05 -3.48053e-05
-3.74177e-05 1.12285e-05 1.12239e-05 -3.48074e-05
-5.43242e-05 1.6297e-05 1.62973e-05 -3.09367e-05
-5.00809e-05 1.50102e-05 1.50303e-05 -3.0937e-05
-1.62705e-05 4.88323e-06 4.88025e-06 -3.71561e-05
-1.76886e-05 5.31274e-06 5.30392e-06 -3.71363e-05
-5.22038e-05 1.56555e-05 1.56635e-05 -3.0937e-05
-3.31705e-05 9.93974e-06 9.95603e-06 -3.48219e-05
-1.69807e-05 5.09895e-06 5.09218e-06 -3.71443e-05
-3.60045e-05 1.08017e-05 1.08012e-05 -3.48106e-05
-3.4589e-05 1.03725e-05 1.03785e-05 -3.48154e-05
-5.00809e-05 1.50102e-05 1.50303e-05 -3.0937e-05
-4.58164e-05 1.37017e-05 1.37634e-05 -3.0937e-05
-1.48432e-05 4.44282e-06 4.45732e-06 -3.7197e-05
-1.62705e-05 4.88323e-06 4.88025e-06 -3.71561e-05
-4.79527e-05 1.43597e-05 1.4397e-05 -3.09369e-05
-3.03176e-05 9.05757e-06 9.11143e-06 -3.4845e-05
-1.5558e-05 4.66477e-06 4.66851e-06 -3.71731e-05
-3.31705e-05 9.93974e-06 9.95603e-06 -3.48219e-05
-3.17472e-05 9.50193e-06 9.53369e-06 -3.48313e-05
-4.58164e-05 1.37017e-05 1.37634e-05 -3.0937e-05
-4.1515e-05 1.23524e-05 1.24983e-05 -3.09352e-05
-1.33921e-05 3.98295e-06 4.03248e-06 -3.72778e-05
-1.48432e-05 4.44282e-06 4.45732e-06 -3.7197e-05
-4.36709e-05 1.30335e-05 1.31303e-05 -3.09366e-05
-2.74275e-05 8.13945e-06 8.26629e-06 -3.48904e-05
-1.41225e-05 4.21635e-06 4.24551e-06 -3.72308e-05
-3.03176e-05 9.05757e-06 9.11143e-06 -3.4845e-05
-2.88786e-05 8.60464e-06 8.68885e-06 -3.48646e-05
-4.1515e-05 1.23524e-05 1.24983e-05 -3.09352e-05
-3.71336e-05 1.09345e-05 1.12282e-05 -3.09348e-05
-1.1907e-05 3.48757e-06 3.60831e-06 -3.74278e-05
-1.33921e-05 3.98295e-06 4.03248e-06 -3.72778e-05
-3.93391e-05 1.1655e-05 1.18646e-05 -3.09342e-05
-2.44681e-05 7.15833e-06 7.41845e-06 -3.4976e-05
-1.26531e-05 3.74027e-06 3.81979e-06 -3.73419e-05
-2.74275e-05 8.13945e-06 8.26629e-06 -3.48904e-05
-2.5959e-05 7.65822e-06 7.84318e-06 -3.49255e-05
-3.71336e-05 1.09345e-05 1.12282e-05 -3.09348e-05
-3.26306e-05 9.40297e-06 9.95471e-06 -3.09342e-05
-1.03452e-05 2.94217e-06 3.17274e-06 -3.7694e-05
-1.1907e-05 3.48757e-06 3.60831e-06 -3.74278e-05
-3.48976e-05 1.01848e-05 1.05912e-05 -3.09353e-05
-2.13915e-05 6.08482e-06 6.55999e-06 -3.51313e-05
-1.11417e-05 3.22346e-06 3.39352e-06 -3.75424e-05
-2.44681e-05 7.15833e-06 7.41845e-06 -3.4976e-05
-2.29478e-05 6.63644e-06 6.9906e-06 -3.50449e-05
-3.26306e-05 9.40297e-06 9.95471e-06 -3.09342e-05
-2.78907e-05 7.71951e-06 8.64479e-06 -3.09597e-05
-8.70026e-06 2.32246e-06 2.73335e-06 -3.81309e-05
-1.03452e-05 2.94217e-06 3.17274e-06 -3.7694e-05
-3.03044e-05 8.58537e-06 9.30814e-06 -3.09399e-05
-1.8126e-05 4.8799e-06 5.6769e-06 -3.54006e-05
-9.528e-06 2.6396e-06 2.95217e-06 -3.78877e-05
-2.13915e-05 6.08482e-06 6.55999e-06 -3.51313e-05
-1.97879e-05 5.49752e-06 6.12443e-06 -3.52435e-05
-2.78907e-05 7.71951e-06 8.64479e-06 -3.09597e-05
-2.28643e-05 5.8426e-06 7.295e-06 -3.1027e-05
-6.89202e-06 1.65667e-06 2.24372e-06 -3.87979e-05
-8.70026e-06 2.32246e-06 2.73335e-06 -3.81309e-05
-2.54054e-05 6.79804e-06 7.97457e-06 -3.09883e-05
-1.46134e-05 3.56989e-06 4.73294e-06 -3.58403e-05
-7.83171e-06 1.99698e-06 2.5006e-06 -3.84315e-05
-1.8126e-05 4.8799e-06 5.6769e-06 -3.54006e-05
-1.64024e-05 4.23807e-06 5.21327e-06 -3.56041e-05
-2.28643e-05 5.8426e-06 7.295e-06 -3.1027e-05
-1.73693e-05 3.90233e-06 5.77156e-06 -3.12775e-05
-5.02901e-06 9.9678e-07 1.7281e-06 -3.96616e-05
-6.89202e-06 1.65667e-06 2.24372e-06 -3.87979e-05
-2.0206e-05 4.87671e-06 6.5697e-06 -3.11122e-05
-1.08221e-05 2.25618e-06 3.6711e-06 -3.6502e-05
-5.93863e-06 1.30486e-06 1.9859e-06 -3.92133e-05
-1.46134e-05 3.56989e-06 4.73294e-06 -3.58403e-05
-1.27548e-05 2.88596e-06 4.22949e-06 -3.6123e-05
-1.73693e-05 3.90233e-06 5.77156e-06 -3.12775e-05
-1.16784e-05 2.21665e-06 4.05503e-06 -3.18048e-05
-3.11686e-06 6.95845e-07 1.03758e-06 -4.05084e-05
-5.02901e-06 9.9678e-07 1.7281e-06 -3.96616e-05
-1.44836e-05 2.95381e-06 4.94133e-06 -3.15029e-05
-7.01374e-06 1.46394e-06 2.37849e-06 -3.73428e-05
-4.1071e-06 7.89544e-07 1.42181e-06 -4.01097e-05
-1.08221e-05 2.25618e-06 3.6711e-06 -3.6502e-05
-8.88514e-06 1.76102e-06 3.05319e-06 -3.69408e-05
-1.16784e-05 2.21665e-06 4.05503e-06 -3.18048e-05
-6.16176e-06 2.17191e-06 1.70994e-06 -3.29377e-05
-1.77207e-06 1.15448e-06 2.64678e-07 -4.05357e-05
-3.11686e-06 6.95845e-07 1.03758e-06 -4.05084e-05
-8.91678e-06 1.90193e-06 3.00636e-06 -3.22658e-05
-3.77336e-06 2.04835e-06 7.39291e-07 -3.79504e-05
-2.26846e-06 7.54657e-07 6.48774e-07 -4.07059e-05
-7.01374e-06 1.46394e-06 2.37849e-06 -3.73428e-05
-5.28433e-06 1.46755e-06 1.63576e-06 -3.76654e-05
-6.16176e-06 2.17191e-06 1.70994e-06 -3.29377e-05
-3.25107e-06 6.22681e-06 -1.27531e-06 -3.37654e-05
-1.03624e-06 3.19577e-06 -9.25513e-07 -3.82627e-05
-1.77207e-06 1.15448e-06 2.64678e-07 -4.05357e-05
-4.05823e-06 3.3217e-06 3.15653e-07 -3.35183e-05
-2.61217e-06 5.65578e-06 -1.3044e-06 -3.67209e-05
-1.42792e-06 2.03559e-06 -2.60433e-07 -3.98065e-05
-3.77336e-06 2.04835e-06 7.39291e-07 -3.79504e-05
-2.78219e-06 3.45558e-06 -2.88594e-07 -3.78384e-05
-3.25107e-06 6.22681e-06 -1.27531e-06 -3.37654e-05
-4.71403e-06 1.89532e-05 -6.10251e-06 -3.09697e-05
-1.63561e-06 5.84726e-06 -1.80499e-06 -3.12438e-05
-1.03624e-06 3.19577e-06 -9.25513e-07 -3.82627e-05
-3.53734e-06 1.16038e-05 -3.45706e-06 -3.32488e-05
-3.41927e-06 1.22208e-05 -3.77208e-06 -3.05169e-05
-9.78376e-07 4.42785e-06 -1.47835e-06 -3.55094e-05
-2.61217e-06 5.65578e-06 -1.3044e-06 -3.67209e-05
-2.93423e-06 8.5701e-06 -2.41537e-06 -3.42867e-05
-4.71403e-06 1.89532e-05 -6.10251e-06 -3.09697e-05
-9.05598e-06 3.42939e-05 -1.08162e-05 -1.63667e-05
-3.3559e-06 9.67315e-06 -2.70739e-06 -1.78947e-05
-1.63561e-06 5.84726e-06 -1.80499e-06 -3.12438e-05
-6.61049e-06 2.72139e-05 -8.83002e-06 -2.55823e-05
-5.3862e-06 2.0867e-05 -6.63462e-06 -1.80589e-05
-2.57308e-06 7.60517e-06 -2.15661e-06 -2.54089e-05
-3.41927e-06 1.22208e-05 -3.77208e-06 -3.05169e-05
-4.19428e-06 1.65236e-05 -5.284e-06 -2.52389e-05
-0.000246634 0 0.0001057 0.000140358
-0.0002508 3.37036e-05 9.30412e-05 4.65161e-05
0.000247532 -3.44439e-05 -9.13236e-05 4.63078e-05
0.000242995 0 -0.000104141 0.000139876
-0.000240752 1.4258e-05 9.70689e-05 8.85146e-05
-1.66516e-06 -3.917e-07 8.8151e-07 5.26159e-05
0.000237319 -1.46656e-05 -9.54229e-05 8.82253e-05
-1.88043e-06 0 8.05898e-07 0.000143025
-1.74891e-06 -2.41222e-07 8.52913e-07 9.89454e-05
-0.0002508 3.37036e-05 9.30412e-05 4.65161e-05
-0.000270174 5.54977e-05 9.20042e-05 -9.63861e-06
0.000267181 -5.67357e-05 -9.01908e-05 -9.77772e-06
0.000247532 -3.44439e-05 -9.13236e-05 4.63078e-05
-0.000264649 4.67554e-05 9.33829e-05 1.34974e-05
-1.52526e-06 -6.36313e-07 9.26386e-07 -6.76197e-06
0.000261524 -4.77672e-05 -9.16101e-05 1.33269e-05
-1.66516e-06 -3.917e-07 8.8151e-07 5.26159e-05
-1.59774e-06 -5.19904e-07 9.07563e-07 1.60575e-05
-0.000270174 5.54977e-05 9.20042e-05 -9.63861e-06
-0.000275857 7.16976e-05 8.74968e-05 -3.50816e-05
0.000273095 -7.33035e-05 -8.56248e-05 -3.51873e-05
0.000267181 -5.67357e-05 -9.01908e-05 -9.77772e-06
-0.000272277 6.41367e-05 8.92032e-05 -2.49769e-05
-1.40447e-06 -8.32613e-07 9.58751e-07 -3.42804e-05
0.000269403 -6.55695e-05 -8.73573e-05 -2.50975e-05
-1.52526e-06 -6.36313e-07 9.26386e-07 -6.76197e-06
-1.45913e-06 -7.40716e-07 9.4279e-07 -2.24011e-05
-0.000275857 7.16976e-05 8.74968e-05 -3.50816e-05
-0.000278814 7.9303e-05 8.55045e-05 -4.41578e-05
0.000276253 -8.12109e-05 -8.35896e-05 -4.42335e-05
0.000273095 -7.33035e-05 -8.56248e-05 -3.51873e-05
-0.000278755 7.651e-05 8.66765e-05 -4.11621e-05
-1.30703e-06 -9.78958e-07 9.79711e-07 -4.49117e-05
0.000276097 -7.82748e-05 -8.4781e-05 -4.12515e-05
-1.40447e-06 -8.32613e-07 9.58751e-07 -3.42804e-05
-1.35562e-06 -9.11046e-07 9.7143e-07 -4.15851e-05
-0.000278814 7.9303e-05 8.55045e-05 -4.41578e-05
-0.000276932 8.22072e-05 8.34535e-05 -4.51276e-05
0.000274534 -8.43459e-05 -8.1509e-05 -4.5176e-05
0.000276253 -8.12109e-05 -8.35896e-05 -4.42335e-05
-0.000277663 8.11629e-05 8.42142e-05 -4.51464e-05
-1.2254e-06 -1.09336e-06 9.93755e-07 -4.67253e-05
0.000275189 -8.31956e-05 -8.22831e-05 -4.52098e-05
-1.30703e-06 -9.78958e-07 9.79711e-07 -4.49117e-05
-1.26279e-06 -1.04013e-06 9.86967e-07 -4.62651e-05
-0.000276932 8.22072e-05 8.34535e-05 -4.51276e-05
-0.000274598 8.2115e-05 8.24927e-05 -4.35298e-05
0.000272314 -8.44125e-05 -8.05294e-05 -4.35499e-05
0.000274534 -8.43459e-05 -8.1509e-05 -4.5176e-05
-0.000276088 8.24064e-05 8.30065e-05 -4.44933e-05
-1.16681e-06 -1.17105e-06 1.00194e-06 -4.51518e-05
0.000273753 -8.46332e-05 -8.10513e-05 -4.4526e-05
-1.2254e-06 -1.09336e-06 9.93755e-07 -4.67253e-05
-1.19382e-06 -1.1366e-06 9.98752e-07 -4.62467e-05
-0.000274598 8.2115e-05 8.24927e-05 -4.35298e-05
-0.000271632 8.12265e-05 8.16026e-05 -4.14608e-05
0.000269424 -8.3618e-05 -7.9631e-05 -4.14623e-05
0.000272314 -8.44125e-05 -8.05294e-05 -4.35499e-05
-0.00027295 8.1704e-05 8.19625e-05 -4.24523e-05
-1.12752e-06 -1.21948e-06 1.00586e-06 -4.29243e-05
0.000270708 -8.40557e-05 -7.99939e-05 -4.24625e-05
-1.16681e-06 -1.17105e-06 1.00194e-06 -4.51518e-05
-1.14473e-06 -1.19859e-06 1.00428e-06 -4.39637e-05
-0.000271632 8.12265e-05 8.16026e-05 -4.14608e-05
-0.000269223 8.01146e-05 8.10466e-05 -3.98179e-05
0.00026706 -8.25508e-05 -7.90755e-05 -3.9808e-05
0.000269424 -8.3618e-05 -7.9631e-05 -4.14623e-05
-0.000270454 8.06749e-05 8.13341e-05 -4.05784e-05
-1.10359e-06 -1.24247e-06 1.00546e-06 -4.10421e-05
0.000268271 -8.30939e-05 -7.93617e-05 -4.05729e-05
-1.12752e-06 -1.21948e-06 1.00586e-06 -4.29243e-05
-1.11417e-06 -1.2337e-06 1.00623e-06 -4.19416e-05
-0.000269223 8.01146e-05 8.10466e-05 -3.98179e-05
-0.000267025 7.91624e-05 8.05124e-05 -3.86799e-05
0.00026489 -8.16088e-05 -7.85491e-05 -3.86663e-05
0.00026706 -8.25508e-05 -7.90755e-05 -3.9808e-05
-0.000268045 7.96121e-05 8.0757e-05 -3.91822e-05
-1.08879e-06 -1.24846e-06 1.00168e-06 -3.97327e-05
0.000265898 -8.20568e-05 -7.87889e-05 -3.917e-05
-1.10359e-06 -1.24247e-06 1.00546e-06 -4.10421e-05
-1.09532e-06 -1.24717e-06 1.00393e-06 -4.03021e-05
-0.000267025 7.91624e-05 8.05124e-05 -3.86799e-05
-0.000265183 7.83708e-05 8.00626e-05 -3.79801e-05
0.000263068 -8.08059e-05 -7.81125e-05 -3.7967e-05
0.00026489 -8.16088e-05 -7.85491e-05 -3.86663e-05
-0.000266094 7.8748e-05 8.0291e-05 -3.82861e-05
-1.07877e-06 -1.24296e-06 9.95028e-07 -3.89081e-05
0.000263969 -8.11907e-05 -7.83337e-05 -3.82723e-05
-1.08879e-06 -1.24846e-06 1.00168e-06 -3.97327e-05
-1.08346e-06 -1.24681e-06 9.98688e-07 -3.92749e-05
-0.000265183 7.83708e-05 8.00626e-05 -3.79801e-05
-0.000263496 7.77312e-05 7.96134e-05 -3.75723e-05
0.000261398 -8.01427e-05 -7.76809e-05 -3.75624e-05
0.000263068 -8.08059e-05 -7.81125e-05 -3.7967e-05
-0.000264312 7.80347e-05 7.98329e-05 -3.7746e-05
-1.07026e-06 -1.23114e-06 9.86315e-07 -3.84292e-05
0.000262205 -8.0459e-05 -7.78912e-05 -3.77344e-05
-1.07877e-06 -1.24296e-06 9.95028e-07 -3.89081e-05
-1.07447e-06 -1.2376e-06 9.90887e-07 -3.86309e-05
-0.000263496 7.77312e-05 7.96134e-05 -3.75723e-05
-0.000261945 7.71884e-05 7.91814e-05 -3.73508e-05
0.000259865 -7.95705e-05 -7.72692e-05 -3.7345e-05
0.000261398 -8.01427e-05 -7.76809e-05 -3.75624e-05
-0.000262714 7.74504e-05 7.93988e-05 -3.74445e-05
-1.06143e-06 -1.2161e-06 9.76085e-07 -3.81658e-05
0.000260625 -7.98476e-05 -7.74762e-05 -3.74366e-05
-1.07026e-06 -1.23114e-06 9.86315e-07 -3.84292e-05
-1.06597e-06 -1.22387e-06 9.81362e-07 -3.82785e-05
-0.000261945 7.71884e-05 7.91814e-05 -3.73508e-05
-0.000260451 7.67086e-05 7.87467e-05 -3.72353e-05
0.000258392 -7.90593e-05 -7.68569e-05 -3.72337e-05
0.000259865 -7.95705e-05 -7.72692e-05 -3.7345e-05
-0.00026119 7.69425e-05 7.89631e-05 -3.72831e-05
-1.05135e-06 -1.20001e-06 9.6487e-07 -3.80298e-05
0.00025912 -7.93089e-05 -7.7062e-05 -3.72795e-05
-1.06143e-06 -1.2161e-06 9.76085e-07 -3.81658e-05
-1.05658e-06 -1.2081e-06 9.70576e-07 -3.80854e-05
-0.000260451 7.67086e-05 7.87467e-05 -3.72353e-05
-0.000258997 7.62633e-05 7.83143e-05 -3.71788e-05
0.000256962 -7.8583e-05 -7.6448e-05 -3.71809e-05
0.000258392 -7.90593e-05 -7.68569e-05 -3.72337e-05
-0.000259722 7.64828e-05 7.8531e-05 -3.7202e-05
-1.03971e-06 -1.184e-06 9.53021e-07 -3.7963e-05
0.000257675 -7.88179e-05 -7.66528e-05 -3.72023e-05
-1.05135e-06 -1.20001e-06 9.6487e-07 -3.80298e-05
-1.04573e-06 -1.19195e-06 9.59007e-07 -3.79906e-05
-0.000258997 7.62633e-05 7.83143e-05 -3.71788e-05
-0.000257558 7.58369e-05 7.78803e-05 -3.71526e-05
0.000255549 -7.81269e-05 -7.6038e-05 -3.71577e-05
0.000256962 -7.8583e-05 -7.6448e-05 -3.71809e-05
-0.000258275 7.60485e-05 7.80972e-05 -3.71631e-05
-1.02656e-06 -1.16869e-06 9.4082e-07 -3.79327e-05
0.000256253 -7.83531e-05 -7.62428e-05 -3.71668e-05
-1.03971e-06 -1.184e-06 9.53021e-07 -3.7963e-05
-1.03331e-06 -1.17624e-06 9.46952e-07 -3.79446e-05
-0.000257558 7.58369e-05 7.78803e-05 -3.71526e-05
-0.000256127 7.54196e-05 7.74462e-05 -3.71413e-05
0.000254148 -7.76816e-05 -7.56284e-05 -3.71488e-05
0.000255549 -7.81269e-05 -7.6038e-05 -3.71577e-05
-0.000256842 7.56275e-05 7.76634e-05 -3.71457e-05
-1.01209e-06 -1.15428e-06 9.28443e-07 -3.792e-05
0.000254848 -7.79033e-05 -7.58334e-05 -3.71521e-05
-1.02656e-06 -1.16869e-06 9.4082e-07 -3.79327e-05
-1.01947e-06 -1.16137e-06 9.34645e-07 -3.7925e-05
-0.000256127 7.54196e-05 7.74462e-05 -3.71413e-05
-0.0002547 7.50062e-05 7.70115e-05 -3.7137e-05
0.000252751 -7.72421e-05 -7.52182e-05 -3.71461e-05
0.000254148 -7.76816e-05 -7.56284e-05 -3.71488e-05
-0.000255413 7.52126e-05 7.72289e-05 -3.71386e-05
-9.96582e-07 -1.14078e-06 9.16012e-07 -3.79156e-05
0.000253449 -7.74613e-05 -7.54233e-05 -3.7147e-05
-1.01209e-06 -1.15428e-06 9.28443e-07 -3.792e-05
-1.00445e-06 -1.14742e-06 9.22229e-07 -3.79171e-05
-0.0002547 7.50062e-05 7.70115e-05 -3.7137e-05
-0.000253273 7.45943e-05 7.65767e-05 -3.71356e-05
0.000251357 -7.68055e-05 -7.48078e-05 -3.7146e-05
0.000252751 -7.72421e-05 -7.52182e-05 -3.71461e-05
-0.000253987 7.48002e-05 7.67942e-05 -3.71361e-05
-9.80302e-07 -1.1281e-06 9.036e-07 -3.79144e-05
0.000252054 -7.70235e-05 -7.5013e-05 -3.71459e-05
-9.96582e-07 -1.14078e-06 9.16012e-07 -3.79156e-05
-9.88523e-07 -1.13434e-06 9.098e-07 -3.79148e-05
-0.000253273 7.45943e-05 7.65767e-05 -3.71356e-05
-0.000251847 7.41827e-05 7.61418e-05 -3.71354e-05
0.000249964 -7.63706e-05 -7.43971e-05 -3.71465e-05
0.000251357 -7.68055e-05 -7.48078e-05 -3.7146e-05
-0.00025256 7.43885e-05 7.63593e-05 -3.71354e-05
-9.63483e-07 -1.11609e-06 8.91247e-07 -3.79145e-05
0.00025066 -7.65879e-05 -7.46025e-05 -3.71462e-05
-9.80302e-07 -1.1281e-06 9.036e-07 -3.79144e-05
-9.71947e-07 -1.12202e-06 8.97414e-07 -3.79144e-05
-0.000251847 7.41827e-05 7.61418e-05 -3.71354e-05
-0.00025042 7.37709e-05 7.57069e-05 -3.71355e-05
0.000248571 -7.59364e-05 -7.39863e-05 -3.71471e-05
0.000249964 -7.63706e-05 -7.43971e-05 -3.71465e-05
-0.000251134 7.39768e-05 7.59243e-05 -3.71354e-05
-9.46312e-07 -1.10463e-06 8.78976e-07 -3.79149e-05
0.000249267 -7.61534e-05 -7.41917e-05 -3.71468e-05
-9.63483e-07 -1.11609e-06 8.91247e-07 -3.79145e-05
-9.54931e-07 -1.1103e-06 8.85101e-07 -3.79147e-05
-0.00025042 7.37709e-05 7.57069e-05 -3.71355e-05
-0.000248993 7.33588e-05 7.52719e-05 -3.71356e-05
0.000247179 -7.55028e-05 -7.35753e-05 -3.71476e-05
0.000248571 -7.59364e-05 -7.39863e-05 -3.71471e-05
-0.000249707 7.35649e-05 7.54894e-05 -3.71356e-05
-9.28936e-07 -1.09359e-06 8.66796e-07 -3.79153e-05
0.000247875 -7.57196e-05 -7.37808e-05 -3.71474e-05
-9.46312e-07 -1.10463e-06 8.78976e-07 -3.79149e-05
-9.37642e-07 -1.09907e-06 8.72875e-07 -3.79151e-05
-0.000248993 7.33588e-05 7.52719e-05 -3.71356e-05
-0.000247566 7.29463e-05 7.48371e-05 -3.71358e-05
0.000245786 -7.50694e-05 -7.31642e-05 -3.71479e-05
0.000247179 -7.55028e-05 -7.35753e-05 -3.71476e-05
-0.00024828 7.31526e-05 7.50545e-05 -3.71357e-05
-9.1146e-07 -1.08286e-06 8.54708e-07 -3.79155e-05
0.000246482 -7.52861e-05 -7.33698e-05 -3.71478e-05
-9.28936e-07 -1.09359e-06 8.66796e-07 -3.79153e-05
-9.20205e-07 -1.08819e-06 8.6074e-07 -3.79154e-05
-0.000247566 7.29463e-05 7.48371e-05 -3.71358e-05
-0.000246139 7.25336e-05 7.44023e-05 -3.71358e-05
0.000244393 -7.46362e-05 -7.27531e-05 -3.7148e-05
0.000245786 -7.50694e-05 -7.31642e-05 -3.71479e-05
-0.000246853 7.274e-05 7.46197e-05 -3.71358e-05
-8.93961e-07 -1.07236e-06 8.42709e-07 -3.79157e-05
0.00024509 -7.48528e-05 -7.29587e-05 -3.71479e-05
-9.1146e-07 -1.08286e-06 8.54708e-07 -3.79155e-05
-9.0271e-07 -1.07758e-06 8.48697e-07 -3.79156e-05
-0.000246139 7.25336e-05 7.44023e-05 -3.71358e-05
-0.000244712 7.21207e-05 7.39677e-05 -3.71359e-05
0.000243001 -7.42032e-05 -7.23418e-05 -3.7148e-05
0.000244393 -7.46362e-05 -7.27531e-05 -3.7148e-05
-0.000245425 7.23272e-05 7.4185e-05 -3.71359e-05
-8.7649e-07 -1.06204e-06 8.30797e-07 -3.79157e-05
0.000243697 -7.44197e-05 -7.25474e-05 -3.7148e-05
-8.93961e-07 -1.07236e-06 8.42709e-07 -3.79157e-05
-8.8522e-07 -1.06718e-06 8.36743e-07 -3.79157e-05
-0.000244712 7.21207e-05 7.39677e-05 -3.71359e-05
-0.000243285 7.17077e-05 7.35331e-05 -3.71359e-05
0.000241608 -7.37702e-05 -7.19304e-05 -3.7148e-05
0.000243001 -7.42032e-05 -7.23418e-05 -3.7148e-05
-0.000243998 7.19142e-05 7.37503e-05 -3.71359e-05
-8.59079e-07 -1.05185e-06 8.18968e-07 -3.79157e-05
0.000242304 -7.39867e-05 -7.21361e-05 -3.7148e-05
-8.7649e-07 -1.06204e-06 8.30797e-07 -3.79157e-05
-8.67775e-07 -1.05693e-06 8.24872e-07 -3.79157e-05
-0.000243285 7.17077e-05 7.35331e-05 -3.71359e-05
-0.000241858 7.12945e-05 7.30985e-05 -3.71358e-05
0.000240215 -7.33374e-05 -7.1519e-05 -3.71479e-05
0.000241608 -7.37702e-05 -7.19304e-05 -3.7148e-05
-0.000242571 7.15011e-05 7.33158e-05 -3.71359e-05
-8.4175e-07 -1.04176e-06 8.07217e-07 -3.79156e-05
0.000240911 -7.35538e-05 -7.17247e-05 -3.71479e-05
-8.59079e-07 -1.05185e-06 8.18968e-07 -3.79157e-05
-8.50403e-07 -1.04679e-06 8.13082e-07 -3.79157e-05
-0.000241858 7.12945e-05 7.30985e-05 -3.71358e-05
-0.000240431 7.08812e-05 7.26641e-05 -3.71358e-05
0.000238822 -7.29046e-05 -7.11075e-05 -3.71477e-05
0.000240215 -7.33374e-05 -7.1519e-05 -3.71479e-05
-0.000241144 7.10879e-05 7.28813e-05 -3.71358e-05
-8.24515e-07 -1.03175e-06 7.95541e-07 -3.79156e-05
0.000239519 -7.3121e-05 -7.13132e-05 -3.71478e-05
-8.4175e-07 -1.04176e-06 8.07217e-07 -3.79156e-05
-8.3312e-07 -1.03674e-06 8.0137e-07 -3.79156e-05
-0.000240431 7.08812e-05 7.26641e-05 -3.71358e-05
-0.000239004 7.04679e-05 7.22297e-05 -3.71358e-05
0.000237429 -7.24719e-05 -7.06959e-05 -3.71476e-05
0.000238822 -7.29046e-05 -7.11075e-05 -3.71477e-05
-0.000239717 7.06746e-05 7.24469e-05 -3.71358e-05
-8.0738e-07 -1.02181e-06 7.83938e-07 -3.79155e-05
0.000238126 -7.26882e-05 -7.09017e-05 -3.71477e-05
-8.24515e-07 -1.03175e-06 7.95541e-07 -3.79156e-05
-8.15935e-07 -1.02677e-06 7.89731e-07 -3.79155e-05
-0.000239004 7.04679e-05 7.22297e-05 -3.71358e-05
-0.000237577 7.00545e-05 7.17954e-05 -3.71357e-05
0.000236036 -7.20392e-05 -7.02842e-05 -3.71475e-05
0.000237429 -7.24719e-05 -7.06959e-05 -3.71476e-05
-0.00023829 7.02612e-05 7.20125e-05 -3.71357e-05
-7.9035e-07 -1.01193e-06 7.72407e-07 -3.79154e-05
0.000236732 -7.22555e-05 -7.04901e-05 -3.71476e-05
-8.0738e-07 -1.02181e-06 7.83938e-07 -3.79155e-05
-7.98852e-07 -1.01686e-06 7.78164e-07 -3.79154e-05
-0.000237577 7.00545e-05 7.17954e-05 -3.71357e-05
-0.00023615 6.96411e-05 7.13611e-05 -3.71357e-05
0.000234642 -7.16066e-05 -6.98725e-05 -3.71474e-05
0.000236036 -7.20392e-05 -7.02842e-05 -3.71475e-05
-0.000236864 6.98478e-05 7.15783e-05 -3.71357e-05
-7.73424e-07 -1.00211e-06 7.60945e-07 -3.79153e-05
0.000235339 -7.18229e-05 -7.00784e-05 -3.71474e-05
-7.9035e-07 -1.01193e-06 7.72407e-07 -3.79154e-05
-7.81874e-07 -1.00702e-06 7.66667e-07 -3.79153e-05
-0.00023615 6.96411e-05 7.13611e-05 -3.71357e-05
-0.000234724 6.92276e-05 7.0927e-05 -3.71356e-05
0.000233249 -7.1174e-05 -6.94607e-05 -3.71472e-05
0.000234642 -7.16066e-05 -6.98725e-05 -3.71474e-05
-0.000235437 6.94344e-05 7.1144e-05 -3.71356e-05
-7.56603e-07 -9.92352e-07 7.49552e-07 -3.79152e-05
0.000233946 -7.13903e-05 -6.96666e-05 -3.71473e-05
-7.73424e-07 -1.00211e-06 7.60945e-07 -3.79153e-05
-7.65e-07 -9.97226e-07 7.5524e-07 -3.79152e-05
-0.000234724 6.92276e-05 7.0927e-05 -3.71356e-05
-0.000233297 6.88141e-05 7.04929e-05 -3.71355e-05
0.000231856 -7.07415e-05 -6.90489e-05 -3.71471e-05
0.000233249 -7.1174e-05 -6.94607e-05 -3.71472e-05
-0.000234011 6.90209e-05 7.07099e-05 -3.71356e-05
-7.39886e-07 -9.82644e-07 7.38227e-07 -3.79151e-05
0.000232552 -7.09578e-05 -6.92548e-05 -3.71471e-05
-7.56603e-07 -9.92352e-07 7.49552e-07 -3.79152e-05
-7.48231e-07 -9.87491e-07 7.43881e-07 -3.79151e-05
-0.000233297 6.88141e-05 7.04929e-05 -3.71355e-05
-0.000231871 6.84005e-05 7.00588e-05 -3.71355e-05
0.000230462 -7.03091e-05 -6.8637e-05 -3.71469e-05
0.000231856 -7.07415e-05 -6.90489e-05 -3.71471e-05
-0.000232584 6.86073e-05 7.02758e-05 -3.71355e-05
-7.23272e-07 -9.72991e-07 7.2697e-07 -3.7915e-05
0.000231159 -7.05253e-05 -6.88429e-05 -3.7147e-05
-7.39886e-07 -9.82644e-07 7.38227e-07 -3.79151e-05
-7.31566e-07 -9.77811e-07 7.3259e-07 -3.7915e-05
-0.000231871 6.84005e-05 7.00588e-05 -3.71355e-05
-0.000230445 6.79868e-05 6.96249e-05 -3.71354e-05
0.000229068 -6.98767e-05 -6.8225e-05 -3.71468e-05
0.000230462 -7.03091e-05 -6.8637e-05 -3.71469e-05
-0.000231158 6.81937e-05 6.98418e-05 -3.71354e-05
-7.0676e-07 -9.63393e-07 7.1578e-07 -3.79149e-05
0.000229765 -7.00929e-05 -6.8431e-05 -3.71469e-05
-7.23272e-07 -9.72991e-07 7.2697e-07 -3.7915e-05
-7.15003e-07 -9.68185e-07 7.21366e-07 -3.79149e-05
-0.000230445 6.79868e-05 6.96249e-05 -3.71354e-05
-0.000229019 6.75731e-05 6.9191e-05 -3.71353e-05
0.000227675 -6.94444e-05 -6.7813e-05 -3.71466e-05
0.000229068 -6.98767e-05 -6.8225e-05 -3.71468e-05
-0.000229732 6.778e-05 6.94079e-05 -3.71354e-05
-6.90351e-07 -9.5385e-07 7.04657e-07 -3.79148e-05
0.000228371 -6.96605e-05 -6.8019e-05 -3.71467e-05
-7.0676e-07 -9.63393e-07 7.1578e-07 -3.79149e-05
-6.98543e-07 -9.58614e-07 7.1021e-07 -3.79148e-05
-0.000229019 6.75731e-05 6.9191e-05 -3.71353e-05
-0.000227593 6.71594e-05 6.87571e-05 -3.71353e-05
0.000226281 -6.90121e-05 -6.74009e-05 -3.71465e-05
0.000227675 -6.94444e-05 -6.7813e-05 -3.71466e-05
-0.000228306 6.73663e-05 6.8974e-05 -3.71353e-05
-6.74042e-07 -9.44363e-07 6.93602e-07 -3.79147e-05
0.000226978 -6.92282e-05 -6.76069e-05 -3.71466e-05
-6.90351e-07 -9.5385e-07 7.04657e-07 -3.79148e-05
-6.82184e-07 -9.49099e-07 6.99121e-07 -3.79147e-05
-0.000227593 6.71594e-05 6.87571e-05 -3.71353e-05
-0.000226167 6.67456e-05 6.83234e-05 -3.71352e-05
0.000224887 -6.85799e-05 -6.69887e-05 -3.71464e-05
0.000226281 -6.90121e-05 -6.74009e-05 -3.71465e-05
-0.00022688 6.69525e-05 6.85402e-05 -3.71352e-05
-6.57834e-07 -9.34932e-07 6.82614e-07 -3.79145e-05
0.000225584 -6.8796e-05 -6.71948e-05 -3.71464e-05
-6.74042e-07 -9.44363e-07 6.93602e-07 -3.79147e-05
-6.65926e-07 -9.3964e-07 6.881e-07 -3.79146e-05
-0.000226167 6.67456e-05 6.83234e-05 -3.71352e-05
-0.000224741 6.63317e-05 6.78897e-05 -3.71351e-05
0.000223493 -6.81477e-05 -6.65764e-05 -3.71462e-05
0.000224887 -6.85799e-05 -6.69887e-05 -3.71464e-05
-0.000225454 6.65386e-05 6.81065e-05 -3.71352e-05
-6.41727e-07 -9.25558e-07 6.71693e-07 -3.79144e-05
0.00022419 -6.83638e-05 -6.67826e-05 -3.71463e-05
-6.57834e-07 -9.34932e-07 6.82614e-07 -3.79145e-05
-6.49768e-07 -9.30238e-07 6.77145e-07 -3.79145e-05
-0.000224741 6.63317e-05 6.78897e-05 -3.71351e-05
-0.000223315 6.59178e-05 6.7456e-05 -3.7135e-05
0.000222099 -6.77156e-05 -6.61641e-05 -3.71461e-05
0.000223493 -6.81477e-05 -6.65764e-05 -3.71462e-05
-0.000224028 6.61247e-05 6.76728e-05 -3.71351e-05
-6.25719e-07 -9.16241e-07 6.6084e-07 -3.79143e-05
0.000222796 -6.79316e-05 -6.63703e-05 -3.71461e-05
-6.41727e-07 -9.25558e-07 6.71693e-07 -3.79144e-05
-6.33711e-07 -9.20892e-07 6.66258e-07 -3.79144e-05
-0.000223315 6.59178e-05 6.7456e-05 -3.7135e-05
-0.00022189 6.55038e-05 6.70225e-05 -3.7135e-05
0.000220704 -6.72835e-05 -6.57518e-05 -3.71459e-05
0.000222099 -6.77156e-05 -6.61641e-05 -3.71461e-05
-0.000222602 6.57108e-05 6.72392e-05 -3.7135e-05
-6.09812e-07 -9.0698e-07 6.50054e-07 -3.79142e-05
0.000221401 -6.74995e-05 -6.5958e-05 -3.7146e-05
-6.25719e-07 -9.16241e-07 6.6084e-07 -3.79143e-05
-6.17753e-07 -9.11603e-07 6.55439e-07 -3.79142e-05
-0.00022189 6.55038e-05 6.70225e-05 -3.7135e-05
-0.000220464 6.50898e-05 6.6589e-05 -3.71349e-05
0.00021931 -6.68515e-05 -6.53393e-05 -3.71458e-05
0.000220704 -6.72835e-05 -6.57518e-05 -3.71459e-05
-0.000221177 6.52968e-05 6.68057e-05 -3.71349e-05
-5.94004e-07 -8.97777e-07 6.39335e-07 -3.79141e-05
0.000220007 -6.70675e-05 -6.55456e-05 -3.71458e-05
-6.09812e-07 -9.0698e-07 6.50054e-07 -3.79142e-05
-6.01896e-07 -9.02372e-07 6.44686e-07 -3.79141e-05
-0.000220464 6.50898e-05 6.6589e-05 -3.71349e-05
-0.000219039 6.46757e-05 6.61555e-05 -3.71348e-05
0.000217916 -6.64196e-05 -6.49268e-05 -3.71456e-05
0.00021931 -6.68515e-05 -6.53393e-05 -3.71458e-05
-0.000219751 6.48828e-05 6.63722e-05 -3.71348e-05
-5.78297e-07 -8.88632e-07 6.28684e-07 -3.79139e-05
0.000218613 -6.66356e-05 -6.51331e-05 -3.71457e-05
-5.94004e-07 -8.97777e-07 6.39335e-07 -3.79141e-05
-5.86138e-07 -8.93197e-07 6.34001e-07 -3.7914e-05
-0.000219039 6.46757e-05 6.61555e-05 -3.71348e-05
-0.000217613 6.42616e-05 6.57222e-05 -3.71347e-05
0.000216521 -6.59877e-05 -6.45143e-05 -3.71454e-05
0.000217916 -6.64196e-05 -6.49268e-05 -3.71456e-05
-0.000218326 6.44686e-05 6.59388e-05 -3.71347e-05
-5.62689e-07 -8.79544e-07 6.181e-07 -3.79138e-05
0.000217218 -6.62036e-05 -6.47206e-05 -3.71455e-05
-5.78297e-07 -8.88632e-07 6.28684e-07 -3.79139e-05
-5.7048e-07 -8.8408e-07 6.23383e-07 -3.79139e-05
-0.000217613 6.42616e-05 6.57222e-05 -3.71347e-05
-0.000216188 6.38474e-05 6.52889e-05 -3.71346e-05
0.000215126 -6.55559e-05 -6.41017e-05 -3.71453e-05
0.000216521 -6.59877e-05 -6.45143e-05 -3.71454e-05
-0.000216901 6.40545e-05 6.55055e-05 -3.71346e-05
-5.47181e-07 -8.70513e-07 6.07583e-07 -3.79137e-05
0.000215824 -6.57718e-05 -6.4308e-05 -3.71454e-05
-5.62689e-07 -8.79544e-07 6.181e-07 -3.79138e-05
-5.54922e-07 -8.75021e-07 6.12833e-07 -3.79138e-05
-0.000216188 6.38474e-05 6.52889e-05 -3.71346e-05
-0.000214763 6.34331e-05 6.48557e-05 -3.71345e-05
0.000213732 -6.51241e-05 -6.3689e-05 -3.71451e-05
0.000215126 -6.55559e-05 -6.41017e-05 -3.71453e-05
-0.000215476 6.36403e-05 6.50723e-05 -3.71346e-05
-5.31773e-07 -8.6154e-07 5.97134e-07 -3.79136e-05
0.000214429 -6.534e-05 -6.38953e-05 -3.71452e-05
-5.47181e-07 -8.70513e-07 6.07583e-07 -3.79137e-05
-5.39464e-07 -8.66019e-07 6.0235e-07 -3.79136e-05
-0.000214763 6.34331e-05 6.48557e-05 -3.71345e-05
-0.000213338 6.30188e-05 6.44225e-05 -3.71344e-05
0.000212337 -6.46924e-05 -6.32762e-05 -3.7145e-05
0.000213732 -6.51241e-05 -6.3689e-05 -3.71451e-05
-0.00021405 6.3226e-05 6.46391e-05 -3.71345e-05
-5.16464e-07 -8.52624e-07 5.86752e-07 -3.79134e-05
0.000213034 -6.49083e-05 -6.34826e-05 -3.7145e-05
-5.31773e-07 -8.6154e-07 5.97134e-07 -3.79136e-05
-5.24106e-07 -8.57075e-07 5.91935e-07 -3.79135e-05
-0.000213338 6.30188e-05 6.44225e-05 -3.71344e-05
-0.000211913 6.26045e-05 6.39894e-05 -3.71343e-05
0.000210942 -6.42608e-05 -6.28634e-05 -3.71448e-05
0.000212337 -6.46924e-05 -6.32762e-05 -3.7145e-05
-0.000212626 6.28117e-05 6.42059e-05 -3.71344e-05
-5.01256e-07 -8.43767e-07 5.76438e-07 -3.79133e-05
0.000211639 -6.44766e-05 -6.30698e-05 -3.71449e-05
-5.16464e-07 -8.52624e-07 5.86752e-07 -3.79134e-05
-5.08848e-07 -8.48188e-07 5.81587e-07 -3.79134e-05
-0.000211913 6.26045e-05 6.39894e-05 -3.71343e-05
-0.000210488 6.21901e-05 6.35564e-05 -3.71342e-05
0.000209547 -6.38292e-05 -6.24505e-05 -3.71446e-05
0.000210942 -6.42608e-05 -6.28634e-05 -3.71448e-05
-0.000211201 6.23973e-05 6.37729e-05 -3.71343e-05
-4.86147e-07 -8.34967e-07 5.66192e-07 -3.79132e-05
0.000210244 -6.4045e-05 -6.26569e-05 -3.71447e-05
-5.01256e-07 -8.43767e-07 5.76438e-07 -3.79133e-05
-4.93689e-07 -8.39359e-07 5.71306e-07 -3.79132e-05
-0.000210488 6.21901e-05 6.35564e-05 -3.71342e-05
-0.000209064 6.17756e-05 6.31234e-05 -3.71341e-05
0.000208152 -6.33976e-05 -6.20375e-05 -3.71445e-05
0.000209547 -6.38292e-05 -6.24505e-05 -3.71446e-05
-0.000209776 6.19829e-05 6.33399e-05 -3.71342e-05
-4.71139e-07 -8.26224e-07 5.56013e-07 -3.7913e-05
0.000208849 -6.36134e-05 -6.2244e-05 -3.71446e-05
-4.86147e-07 -8.34967e-07 5.66192e-07 -3.79132e-05
-4.7863e-07 -8.30588e-07 5.61094e-07 -3.79131e-05
-0.000209064 6.17756e-05 6.31234e-05 -3.71341e-05
-0.000207639 6.13611e-05 6.26905e-05 -3.7134e-05
0.000206757 -6.29662e-05 -6.16245e-05 -3.71443e-05
0.000208152 -6.33976e-05 -6.20375e-05 -3.71445e-05
-0.000208351 6.15684e-05 6.2907e-05 -3.71341e-05
-4.5623e-07 -8.1754e-07 5.45901e-07 -3.79129e-05
0.000207454 -6.31819e-05 -6.1831e-05 -3.71444e-05
-4.71139e-07 -8.26224e-07 5.56013e-07 -3.7913e-05
-4.63672e-07 -8.21875e-07 5.50948e-07 -3.7913e-05
-0.000207639 6.13611e-05 6.26905e-05 -3.7134e-05
-0.000206215 6.09465e-05 6.22577e-05 -3.71339e-05
0.000205361 -6.25347e-05 -6.12114e-05 -3.71441e-05
0.000206757 -6.29662e-05 -6.16245e-05 -3.71443e-05
-0.000206927 6.11538e-05 6.24741e-05 -3.7134e-05
-4.41421e-07 -8.08913e-07 5.35857e-07 -3.79128e-05
0.000206059 -6.27504e-05 -6.1418e-05 -3.71442e-05
-4.5623e-07 -8.1754e-07 5.45901e-07 -3.79129e-05
-4.48813e-07 -8.13219e-07 5.40871e-07 -3.79128e-05
-0.000206215 6.09465e-05 6.22577e-05 -3.71339e-05
-0.00020479 6.05319e-05 6.1825e-05 -3.71338e-05
0.000203966 -6.21034e-05 -6.07983e-05 -3.7144e-05
0.000205361 -6.25347e-05 -6.12114e-05 -3.71441e-05
-0.000205502 6.07392e-05 6.20413e-05 -3.71339e-05
-4.26712e-07 -8.00344e-07 5.25881e-07 -3.79126e-05
0.000204664 -6.23191e-05 -6.10049e-05 -3.7144e-05
-4.41421e-07 -8.08913e-07 5.35857e-07 -3.79128e-05
-4.34054e-07 -8.04621e-07 5.30861e-07 -3.79127e-05
-0.00020479 6.05319e-05 6.1825e-05 -3.71338e-05
-0.000203366 6.01172e-05 6.13923e-05 -3.71337e-05
0.000202571 -6.16721e-05 -6.03851e-05 -3.71438e-05
0.000203966 -6.21034e-05 -6.07983e-05 -3.7144e-05
-0.000204078 6.03246e-05 6.16086e-05 -3.71338e-05
-4.12104e-07 -7.91832e-07 5.15973e-07 -3.79125e-05
0.000203268 -6.18877e-05 -6.05917e-05 -3.71439e-05
-4.26712e-07 -8.00344e-07 5.25881e-07 -3.79126e-05
-4.19396e-07 -7.96081e-07 5.20918e-07 -3.79126e-05
-0.000203366 6.01172e-05 6.13923e-05 -3.71337e-05
-0.000201942 5.97025e-05 6.09597e-05 -3.71336e-05
0.000201175 -6.12408e-05 -5.99718e-05 -3.71436e-05
0.000202571 -6.16721e-05 -6.03851e-05 -3.71438e-05
-0.000202654 5.99099e-05 6.1176e-05 -3.71337e-05
-3.97595e-07 -7.83379e-07 5.06132e-07 -3.79124e-05
0.000201873 -6.14564e-05 -6.01785e-05 -3.71437e-05
-4.12104e-07 -7.91832e-07 5.15973e-07 -3.79125e-05
-4.04837e-07 -7.87598e-07 5.11044e-07 -3.79124e-05
-0.000201942 5.97025e-05 6.09597e-05 -3.71336e-05
-0.000200518 5.92877e-05 6.05271e-05 -3.71335e-05
0.000199779 -6.08096e-05 -5.95585e-05 -3.71434e-05
0.000201175 -6.12408e-05 -5.99718e-05 -3.71436e-05
-0.00020123 5.94951e-05 6.07434e-05 -3.71336e-05
-3.83186e-07 -7.74983e-07 4.96358e-07 -3.79122e-05
0.000200477 -6.10252e-05 -5.97651e-05 -3.71435e-05
-3.97595e-07 -7.83379e-07 5.06132e-07 -3.79124e-05
-3.90378e-07 -7.79174e-07 5.01237e-07 -3.79123e-05
-0.000200518 5.92877e-05 6.05271e-05 -3.71335e-05
-0.000199094 5.88728e-05 6.00946e-05 -3.71334e-05
0.000198384 -6.03785e-05 -5.91451e-05 -3.71433e-05
0.000199779 -6.08096e-05 -5.95585e-05 -3.71434e-05
-0.000199806 5.90803e-05 6.03109e-05 -3.71335e-05
-3.68878e-07 -7.66646e-07 4.86653e-07 -3.79121e-05
0.000199082 -6.05941e-05 -5.93518e-05 -3.71434e-05
-3.83186e-07 -7.74983e-07 4.96358e-07 -3.79122e-05
-3.7602e-07 -7.70807e-07 4.91497e-07 -3.79121e-05
-0.000199094 5.88728e-05 6.00946e-05 -3.71334e-05
-0.00019767 5.84579e-05 5.96622e-05 -3.71333e-05
0.000196988 -5.99474e-05 -5.87316e-05 -3.71431e-05
0.000198384 -6.03785e-05 -5.91451e-05 -3.71433e-05
-0.000198382 5.86654e-05 5.98784e-05 -3.71334e-05
-3.5467e-07 -7.58366e-07 4.77015e-07 -3.79119e-05
0.000197686 -6.0163e-05 -5.89383e-05 -3.71432e-05
-3.68878e-07 -7.66646e-07 4.86653e-07 -3.79121e-05
-3.61761e-07 -7.62498e-07 4.81826e-07 -3.7912e-05
-0.00019767 5.84579e-05 5.96622e-05 -3.71333e-05
-0.000196246 5.8043e-05 5.92299e-05 -3.71332e-05
0.000195592 -5.95164e-05 -5.83181e-05 -3.71429e-05
0.000196988 -5.99474e-05 -5.87316e-05 -3.71431e-05
-0.000196958 5.82505e-05 5.94461e-05 -3.71333e-05
-3.40561e-07 -7.50144e-07 4.67445e-07 -3.79118e-05
0.00019629 -5.97319e-05 -5.85248e-05 -3.7143e-05
-3.5467e-07 -7.58366e-07 4.77015e-07 -3.79119e-05
-3.47603e-07 -7.54247e-07 4.72222e-07 -3.79118e-05
-0.000196246 5.8043e-05 5.92299e-05 -3.71332e-05
-0.000194822 5.7628e-05 5.87976e-05 -3.71331e-05
0.000194196 -5.90855e-05 -5.79045e-05 -3.71427e-05
0.000195592 -5.95164e-05 -5.83181e-05 -3.71429e-05
-0.000195534 5.78355e-05 5.90137e-05 -3.71332e-05
-3.26553e-07 -7.4198e-07 4.57943e-07 -3.79116e-05
0.000194894 -5.9301e-05 -5.81113e-05 -3.71428e-05
-3.40561e-07 -7.50144e-07 4.67445e-07 -3.79118e-05
-3.33545e-07 -7.46055e-07 4.62685e-07 -3.79117e-05
-0.000194822 5.7628e-05 5.87976e-05 -3.71331e-05
-0.000193399 5.72129e-05 5.83654e-05 -3.7133e-05
0.0001928 -5.86546e-05 -5.74908e-05 -3.71426e-05
0.000194196 -5.90855e-05 -5.79045e-05 -3.71427e-05
-0.000194111 5.74204e-05 5.85815e-05 -3.71331e-05
-3.12646e-07 -7.33874e-07 4.48508e-07 -3.79115e-05
0.000193498 -5.887e-05 -5.76976e-05 -3.71426e-05
-3.26553e-07 -7.4198e-07 4.57943e-07 -3.79116e-05
-3.19587e-07 -7.37919e-07 4.53217e-07 -3.79116e-05
-0.000193399 5.72129e-05 5.83654e-05 -3.7133e-05
-0.000191975 5.67978e-05 5.79333e-05 -3.71329e-05
0.000191404 -5.82237e-05 -5.70771e-05 -3.71424e-05
0.0001928 -5.86546e-05 -5.74908e-05 -3.71426e-05
-0.000192687 5.70054e-05 5.81493e-05 -3.71329e-05
-2.98838e-07 -7.25826e-07 4.39142e-07 -3.79113e-05
0.000192102 -5.84392e-05 -5.72839e-05 -3.71425e-05
-3.12646e-07 -7.33874e-07 4.48508e-07 -3.79115e-05
-3.05729e-07 -7.29842e-07 4.43816e-07 -3.79114e-05
-0.000191975 5.67978e-05 5.79333e-05 -3.71329e-05
-0.000190552 5.63826e-05 5.75012e-05 -3.71328e-05
0.000190007 -5.7793e-05 -5.66633e-05 -3.71422e-05
0.000191404 -5.82237e-05 -5.70771e-05 -3.71424e-05
-0.000191264 5.65902e-05 5.77172e-05 -3.71328e-05
-2.85131e-07 -7.17836e-07 4.29843e-07 -3.79112e-05
0.000190705 -5.80084e-05 -5.68702e-05 -3.71423e-05
-2.98838e-07 -7.25826e-07 4.39142e-07 -3.79113e-05
-2.91972e-07 -7.21823e-07 4.34484e-07 -3.79113e-05
-0.000190552 5.63826e-05 5.75012e-05 -3.71328e-05
-0.000189129 5.59674e-05 5.70692e-05 -3.71327e-05
0.000188611 -5.73622e-05 -5.62494e-05 -3.7142e-05
0.000190007 -5.7793e-05 -5.66633e-05 -3.71422e-05
-0.00018984 5.6175e-05 5.72852e-05 -3.71327e-05
-2.71523e-07 -7.09904e-07 4.20612e-07 -3.7911e-05
0.000189309 -5.75776e-05 -5.64563e-05 -3.71421e-05
-2.85131e-07 -7.17836e-07 4.29843e-07 -3.79112e-05
-2.78314e-07 -7.13862e-07 4.25219e-07 -3.79111e-05
-0.000189129 5.59674e-05 5.70692e-05 -3.71327e-05
-0.000187706 5.55521e-05 5.66373e-05 -3.71326e-05
0.000187214 -5.69316e-05 -5.58355e-05 -3.71418e-05
0.000188611 -5.73622e-05 -5.62494e-05 -3.7142e-05
-0.000188417 5.57597e-05 5.68532e-05 -3.71326e-05
-2.58016e-07 -7.0203e-07 4.11448e-07 -3.79109e-05
0.000187913 -5.71469e-05 -5.60424e-05 -3.71419e-05
-2.71523e-07 -7.09904e-07 4.20612e-07 -3.7911e-05
-2.64757e-07 -7.05959e-07 4.16021e-07 -3.7911e-05
-0.000187706 5.55521e-05 5.66373e-05 -3.71326e-05
-0.000186283 5.51368e-05 5.62054e-05 -3.71324e-05
0.000185818 -5.6501e-05 -5.54215e-05 -3.71417e-05
0.000187214 -5.69316e-05 -5.58355e-05 -3.71418e-05
-0.000186994 5.53444e-05 5.64213e-05 -3.71325e-05
-2.4461e-07 -6.94214e-07 4.02353e-07 -3.79107e-05
0.000186516 -5.67163e-05 -5.56285e-05 -3.71417e-05
-2.58016e-07 -7.0203e-07 4.11448e-07 -3.79109e-05
-2.51301e-07 -6.98114e-07 4.06892e-07 -3.79108e-05
-0.000186283 5.51368e-05 5.62054e-05 -3.71324e-05
-0.00018486 5.47214e-05 5.57736e-05 -3.71323e-05
0.000184421 -5.60704e-05 -5.50074e-05 -3.71415e-05
0.000185818 -5.6501e-05 -5.54215e-05 -3.71417e-05
-0.000185571 5.49291e-05 5.59895e-05 -3.71324e-05
-2.31304e-07 -6.86456e-07 3.93326e-07 -3.79106e-05
0.000185119 -5.62857e-05 -5.52145e-05 -3.71416e-05
-2.4461e-07 -6.94214e-07 4.02353e-07 -3.79107e-05
-2.37944e-07 -6.90328e-07 3.97831e-07 -3.79107e-05
-0.00018486 5.47214e-05 5.57736e-05 -3.71323e-05
-0.000183437 5.43059e-05 5.53419e-05 -3.71322e-05
0.000183024 -5.564e-05 -5.45933e-05 -3.71413e-05
0.000184421 -5.60704e-05 -5.50074e-05 -3.71415e-05
-0.000184148 5.45136e-05 5.55577e-05 -3.71323e-05
-2.18098e-07 -6.78756e-07 3.84366e-07 -3.79104e-05
0.000183723 -5.58552e-05 -5.48004e-05 -3.71414e-05
-2.31304e-07 -6.86456e-07 3.93326e-07 -3.79106e-05
-2.24688e-07 -6.82599e-07 3.88837e-07 -3.79105e-05
-0.000183437 5.43059e-05 5.53419e-05 -3.71322e-05
-0.000182014 5.38904e-05 5.49102e-05 -3.71321e-05
0.000181627 -5.52095e-05 -5.41791e-05 -3.71411e-05
0.000183024 -5.564e-05 -5.45933e-05 -3.71413e-05
-0.000182726 5.40982e-05 5.5126e-05 -3.71322e-05
-2.04992e-07 -6.71115e-07 3.75474e-07 -3.79103e-05
0.000182326 -5.54247e-05 -5.43862e-05 -3.71412e-05
-2.18098e-07 -6.78756e-07 3.84366e-07 -3.79104e-05
-2.11532e-07 -6.74928e-07 3.79912e-07 -3.79104e-05
-0.000182014 5.38904e-05 5.49102e-05 -3.71321e-05
-0.000180592 5.34748e-05 5.44786e-05 -3.7132e-05
0.000180231 -5.47792e-05 -5.37649e-05 -3.71409e-05
0.000181627 -5.52095e-05 -5.41791e-05 -3.71411e-05
-0.000181303 5.36826e-05 5.46944e-05 -3.7132e-05
-1.91987e-07 -6.63531e-07 3.66651e-07 -3.79101e-05
0.000180929 -5.49943e-05 -5.3972e-05 -3.7141e-05
-2.04992e-07 -6.71115e-07 3.75474e-07 -3.79103e-05
-1.98477e-07 -6.67316e-07 3.71054e-07 -3.79102e-05
-0.000180592 5.34748e-05 5.44786e-05 -3.7132e-05
-0.000179169 5.30592e-05 5.40471e-05 -3.71319e-05
0.000178833 -5.43488e-05 -5.33506e-05 -3.71407e-05
0.000180231 -5.47792e-05 -5.37649e-05 -3.71409e-05
-0.00017988 5.3267e-05 5.42628e-05 -3.71319e-05
-1.79082e-07 -6.56006e-07 3.57895e-07 -3.791e-05
0.000179532 -5.4564e-05 -5.35577e-05 -3.71408e-05
-1.91987e-07 -6.63531e-07 3.66651e-07 -3.79101e-05
-1.85522e-07 -6.59761e-07 3.62264e-07 -3.791e-05
-0.000179169 5.30592e-05 5.40471e-05 -3.71319e-05
-0.000177747 5.26436e-05 5.36156e-05 -3.71317e-05
0.000177436 -5.39186e-05 -5.29362e-05 -3.71405e-05
0.000178833 -5.43488e-05 -5.33506e-05 -3.71407e-05
-0.000178458 5.28514e-05 5.38314e-05 -3.71318e-05
-1.66278e-07 -6.48539e-07 3.49207e-07 -3.79098e-05
0.000178135 -5.41337e-05 -5.31434e-05 -3.71406e-05
-1.79082e-07 -6.56006e-07 3.57895e-07 -3.791e-05
-1.72667e-07 -6.52265e-07 3.53542e-07 -3.79099e-05
-0.000177747 5.26436e-05 5.36156e-05 -3.71317e-05
-0.000176324 5.22278e-05 5.31843e-05 -3.71316e-05
0.000176039 -5.34884e-05 -5.25217e-05 -3.71404e-05
0.000177436 -5.39186e-05 -5.29362e-05 -3.71405e-05
-0.000177036 5.24357e-05 5.33999e-05 -3.71317e-05
-1.53574e-07 -6.4113e-07 3.40587e-07 -3.79097e-05
0.000176738 -5.37035e-05 -5.2729e-05 -3.71404e-05
-1.66278e-07 -6.48539e-07 3.49207e-07 -3.79098e-05
-1.59913e-07 -6.44827e-07 3.44889e-07 -3.79097e-05
-0.000176324 5.22278e-05 5.31843e-05 -3.71316e-05
-0.000174902 5.18121e-05 5.27529e-05 -3.71315e-05
0.000174642 -5.30583e-05 -5.21072e-05 -3.71402e-05
0.000176039 -5.34884e-05 -5.25217e-05 -3.71404e-05
-0.000175613 5.202e-05 5.29686e-05 -3.71316e-05
-1.4097e-07 -6.33779e-07 3.32036e-07 -3.79095e-05
0.00017534 -5.32733e-05 -5.23145e-05 -3.71403e-05
-1.53574e-07 -6.4113e-07 3.40587e-07 -3.79097e-05
-1.47259e-07 -6.37447e-07 3.36303e-07 -3.79096e-05
-0.000174902 5.18121e-05 5.27529e-05 -3.71315e-05
-0.00017348 5.13962e-05 5.23217e-05 -3.71314e-05
0.000173244 -5.26282e-05 -5.16926e-05 -3.714e-05
0.000174642 -5.30583e-05 -5.21072e-05 -3.71402e-05
-0.000174191 5.16041e-05 5.25373e-05 -3.71315e-05
-1.28467e-07 -6.26487e-07 3.23552e-07 -3.79094e-05
0.000173943 -5.28432e-05 -5.18999e-05 -3.71401e-05
-1.4097e-07 -6.33779e-07 3.32036e-07 -3.79095e-05
-1.34706e-07 -6.30126e-07 3.27785e-07 -3.79094e-05
-0.00017348 5.13962e-05 5.23217e-05 -3.71314e-05
-0.000172058 5.09803e-05 5.18905e-05 -3.71313e-05
0.000171847 -5.21982e-05 -5.1278e-05 -3.71398e-05
0.000173244 -5.26282e-05 -5.16926e-05 -3.714e-05
-0.000172769 5.11883e-05 5.21061e-05 -3.71313e-05
-1.16064e-07 -6.19253e-07 3.15136e-07 -3.79092e-05
0.000172546 -5.24132e-05 -5.14853e-05 -3.71399e-05
-1.28467e-07 -6.26487e-07 3.23552e-07 -3.79094e-05
-1.22253e-07 -6.22863e-07 3.19335e-07 -3.79093e-05
-0.000172058 5.09803e-05 5.18905e-05 -3.71313e-05
-0.000170636 5.05644e-05 5.14594e-05 -3.71312e-05
0.000170449 -5.17682e-05 -5.08633e-05 -3.71396e-05
0.000171847 -5.21982e-05 -5.1278e-05 -3.71398e-05
-0.000171347 5.07724e-05 5.16749e-05 -3.71312e-05
-1.03762e-07 -6.12077e-07 3.06788e-07 -3.7909e-05
0.000171148 -5.19832e-05 -5.10707e-05 -3.71397e-05
-1.16064e-07 -6.19253e-07 3.15136e-07 -3.79092e-05
-1.09901e-07 -6.15658e-07 3.10954e-07 -3.79091e-05
-0.000170636 5.05644e-05 5.14594e-05 -3.71312e-05
-0.000169215 5.01484e-05 5.10284e-05 -3.7131e-05
0.000169052 -5.13383e-05 -5.04485e-05 -3.71394e-05
0.000170449 -5.17682e-05 -5.08633e-05 -3.71396e-05
-0.000169925 5.03564e-05 5.12439e-05 -3.71311e-05
-9.15609e-08 -6.0496e-07 2.98509e-07 -3.79089e-05
0.00016975 -5.15533e-05 -5.06559e-05 -3.71395e-05
-1.03762e-07 -6.12077e-07 3.06788e-07 -3.7909e-05
-9.76492e-08 -6.08511e-07 3.0264e-07 -3.7909e-05
-0.000169215 5.01484e-05 5.10284e-05 -3.7131e-05
-0.000167793 4.97323e-05 5.05974e-05 -3.71309e-05
0.000167654 -5.09085e-05 -5.00337e-05 -3.71392e-05
0.000169052 -5.13383e-05 -5.04485e-05 -3.71394e-05
-0.000168504 4.99404e-05 5.08129e-05 -3.7131e-05
-7.946e-08 -5.979e-07 2.90297e-07 -3.79087e-05
0.000168353 -5.11234e-05 -5.02411e-05 -3.71393e-05
-9.15609e-08 -6.0496e-07 2.98509e-07 -3.79089e-05
-8.5498e-08 -6.01423e-07 2.94395e-07 -3.79088e-05
-0.000167793 4.97323e-05 5.05974e-05 -3.71309e-05
-0.000166371 4.93162e-05 5.01665e-05 -3.71308e-05
0.000166256 -5.04787e-05 -4.96188e-05 -3.7139e-05
0.000167654 -5.09085e-05 -5.00337e-05 -3.71392e-05
-0.000167082 4.95243e-05 5.03819e-05 -3.71309e-05
-6.74596e-08 -5.909e-07 2.82154e-07 -3.79086e-05
0.000166955 -5.06936e-05 -4.98262e-05 -3.71391e-05
-7.946e-08 -5.979e-07 2.90297e-07 -3.79087e-05
-7.34473e-08 -5.94393e-07 2.86217e-07 -3.79086e-05
-0.000166371 4.93162e-05 5.01665e-05 -3.71308e-05
-0.00016495 4.89001e-05 4.97356e-05 -3.71307e-05
0.000164858 -5.0049e-05 -4.92038e-05 -3.71389e-05
0.000166256 -5.04787e-05 -4.96188e-05 -3.7139e-05
-0.000165661 4.91081e-05 4.9951e-05 -3.71307e-05
-5.55598e-08 -5.83957e-07 2.74079e-07 -3.79084e-05
0.000165557 -5.02638e-05 -4.94113e-05 -3.71389e-05
-6.74596e-08 -5.909e-07 2.82154e-07 -3.79086e-05
-6.14972e-08 -5.87421e-07 2.78108e-07 -3.79085e-05
-0.00016495 4.89001e-05 4.97356e-05 -3.71307e-05
-0.000163529 4.84838e-05 4.93049e-05 -3.71306e-05
0.00016346 -4.96193e-05 -4.87888e-05 -3.71387e-05
0.000164858 -5.0049e-05 -4.92038e-05 -3.71389e-05
-0.000164239 4.86919e-05 4.95202e-05 -3.71306e-05
-4.37606e-08 -5.77073e-07 2.66072e-07 -3.79083e-05
0.000164159 -4.98341e-05 -4.89963e-05 -3.71388e-05
-5.55598e-08 -5.83957e-07 2.74079e-07 -3.79084e-05
-4.96477e-08 -5.80508e-07 2.70067e-07 -3.79083e-05
-0.000163529 4.84838e-05 4.93049e-05 -3.71306e-05
-0.000162107 4.80676e-05 4.88742e-05 -3.71304e-05
0.000162062 -4.91897e-05 -4.83737e-05 -3.71385e-05
0.00016346 -4.96193e-05 -4.87888e-05 -3.71387e-05
-0.000162818 4.82757e-05 4.90895e-05 -3.71305e-05
-3.2062e-08 -5.70247e-07 2.58133e-07 -3.79081e-05
0.000162761 -4.94045e-05 -4.85812e-05 -3.71386e-05
-4.37606e-08 -5.77073e-07 2.66072e-07 -3.79083e-05
-3.78988e-08 -5.73653e-07 2.62094e-07 -3.79082e-05
-0.000162107 4.80676e-05 4.88742e-05 -3.71304e-05
-0.000160686 4.76512e-05 4.84435e-05 -3.71303e-05
0.000160663 -4.87601e-05 -4.79585e-05 -3.71383e-05
0.000162062 -4.91897e-05 -4.83737e-05 -3.71385e-05
-0.000161397 4.78594e-05 4.86588e-05 -3.71304e-05
-2.0464e-08 -5.6348e-07 2.50262e-07 -3.79079e-05
0.000161363 -4.89749e-05 -4.81661e-05 -3.71384e-05
-3.2062e-08 -5.70247e-07 2.58133e-07 -3.79081e-05
-2.62505e-08 -5.66857e-07 2.54189e-07 -3.7908e-05
-0.000160686 4.76512e-05 4.84435e-05 -3.71303e-05
-0.000159265 4.72348e-05 4.8013e-05 -3.71302e-05
0.000159265 -4.83307e-05 -4.75433e-05 -3.71381e-05
0.000160663 -4.87601e-05 -4.79585e-05 -3.71383e-05
-0.000159976 4.7443e-05 4.82282e-05 -3.71303e-05
-8.96672e-09 -5.56771e-07 2.42459e-07 -3.79078e-05
0.000159964 -4.85454e-05 -4.77509e-05 -3.71382e-05
-2.0464e-08 -5.6348e-07 2.50262e-07 -3.79079e-05
-1.47029e-08 -5.60118e-07 2.46352e-07 -3.79079e-05
-0.000159265 4.72348e-05 4.8013e-05 -3.71302e-05
-0.000157844 4.68184e-05 4.75825e-05 -3.71301e-05
0.000157867 -4.79012e-05 -4.7128e-05 -3.71379e-05
0.000159265 -4.83307e-05 -4.75433e-05 -3.71381e-05
-0.000158555 4.70266e-05 4.77977e-05 -3.71301e-05
2.4299e-09 -5.50121e-07 2.34725e-07 -3.79076e-05
0.000158566 -4.81159e-05 -4.73357e-05 -3.7138e-05
-8.96673e-09 -5.56771e-07 2.42459e-07 -3.79078e-05
-3.25589e-09 -5.53439e-07 2.38583e-07 -3.79077e-05
-0.000157844 4.68184e-05 4.75825e-05 -3.71301e-05
-0.000156423 4.64019e-05 4.71521e-05 -3.713e-05
0.000156468 -4.74719e-05 -4.67126e-05 -3.71377e-05
0.000157867 -4.79012e-05 -4.7128e-05 -3.71379e-05
-0.000157134 4.66102e-05 4.73673e-05 -3.713e-05
1.37258e-08 -5.43529e-07 2.27059e-07 -3.79075e-05
0.000157167 -4.76865e-05 -4.69203e-05 -3.71378e-05
2.4299e-09 -5.50121e-07 2.34725e-07 -3.79076e-05
8.09038e-09 -5.46818e-07 2.30883e-07 -3.79075e-05
-0.000156423 4.64019e-05 4.71521e-05 -3.713e-05
-0.000155003 4.59853e-05 4.67217e-05 -3.71299e-05
0.000155069 -4.70425e-05 -4.62972e-05 -3.71375e-05
0.000156468 -4.74719e-05 -4.67126e-05 -3.71377e-05
-0.000155713 4.61936e-05 4.69369e-05 -3.71299e-05
2.49211e-08 -5.36996e-07 2.19461e-07 -3.79073e-05
0.000155769 -4.72572e-05 -4.65049e-05 -3.71376e-05
1.37258e-08 -5.43529e-07 2.27059e-07 -3.79075e-05
1.9336e-08 -5.40255e-07 2.23251e-07 -3.79074e-05
-0.000155003 4.59853e-05 4.67217e-05 -3.71299e-05
-0.000153582 4.55687e-05 4.62914e-05 -3.71297e-05
0.000153671 -4.66133e-05 -4.58817e-05 -3.71373e-05
0.000155069 -4.70425e-05 -4.62972e-05 -3.71375e-05
-0.000154292 4.5777e-05 4.65065e-05 -3.71298e-05
3.60156e-08 -5.30521e-07 2.11931e-07 -3.79072e-05
0.00015437 -4.68279e-05 -4.60895e-05 -3.71374e-05
2.49211e-08 -5.36996e-07 2.19461e-07 -3.79073e-05
3.04808e-08 -5.33751e-07 2.15687e-07 -3.79072e-05
-0.000153582 4.55687e-05 4.62914e-05 -3.71297e-05
-0.000152162 4.51521e-05 4.58612e-05 -3.71296e-05
0.000152272 -4.61841e-05 -4.54662e-05 -3.71372e-05
0.000153671 -4.66133e-05 -4.58817e-05 -3.71373e-05
-0.000152872 4.53604e-05 4.60763e-05 -3.71297e-05
4.70093e-08 -5.24104e-07 2.04469e-07 -3.7907e-05
0.000152971 -4.63987e-05 -4.5674e-05 -3.71372e-05
3.60156e-08 -5.30521e-07 2.11931e-07 -3.79072e-05
4.1525e-08 -5.27305e-07 2.08192e-07 -3.79071e-05
-0.000152162 4.51521e-05 4.58612e-05 -3.71296e-05
-0.000150741 4.47354e-05 4.5431e-05 -3.71295e-05
0.000150873 -4.5755e-05 -4.50506e-05 -3.7137e-05
0.000152272 -4.61841e-05 -4.54662e-05 -3.71372e-05
-0.000151451 4.49437e-05 4.56461e-05 -3.71296e-05
5.79023e-08 -5.17747e-07 1.97076e-07 -3.79068e-05
0.000151572 -4.59695e-05 -4.52584e-05 -3.71371e-05
4.70093e-08 -5.24104e-07 2.04469e-07 -3.7907e-05
5.24684e-08 -5.20918e-07 2.00764e-07 -3.79069e-05
-0.000150741 4.47354e-05 4.5431e-05 -3.71295e-05
-0.000149321 4.43186e-05 4.5001e-05 -3.71294e-05
0.000149474 -4.53259e-05 -4.46349e-05 -3.71368e-05
0.000150873 -4.5755e-05 -4.50506e-05 -3.7137e-05
-0.000150031 4.4527e-05 4.5216e-05 -3.71294e-05
6.86946e-08 -5.11447e-07 1.89751e-07 -3.79067e-05
0.000150173 -4.55404e-05 -4.48427e-05 -3.71369e-05
5.79023e-08 -5.17747e-07 1.97076e-07 -3.79068e-05
6.3311e-08 -5.1459e-07 1.93405e-07 -3.79068e-05
-0.000149321 4.43186e-05 4.5001e-05 -3.71294e-05
-0.000147901 4.39018e-05 4.45709e-05 -3.71293e-05
0.000148075 -4.48969e-05 -4.42191e-05 -3.71366e-05
0.000149474 -4.53259e-05 -4.46349e-05 -3.71368e-05
-0.000148611 4.41102e-05 4.47859e-05 -3.71293e-05
7.9386e-08 -5.05207e-07 1.82495e-07 -3.79065e-05
0.000148774 -4.51114e-05 -4.4427e-05 -3.71367e-05
6.86946e-08 -5.11447e-07 1.89751e-07 -3.79067e-05
7.40528e-08 -5.0832e-07 1.86114e-07 -3.79066e-05
-0.000147901 4.39018e-05 4.45709e-05 -3.71293e-05
-0.000146481 4.34849e-05 4.4141e-05 -3.71291e-05
0.000146676 -4.44679e-05 -4.38033e-05 -3.71364e-05
0.000148075 -4.48969e-05 -4.42191e-05 -3.71366e-05
-0.000147191 4.36933e-05 4.4356e-05 -3.71292e-05
8.99767e-08 -4.99025e-07 1.75306e-07 -3.79064e-05
0.000147375 -4.46824e-05 -4.40112e-05 -3.71365e-05
7.9386e-08 -5.05207e-07 1.82495e-07 -3.79065e-05
8.46939e-08 -5.02108e-07 1.78892e-07 -3.79064e-05
-0.000146481 4.34849e-05 4.4141e-05 -3.71291e-05
-0.000145061 4.30679e-05 4.37111e-05 -3.7129e-05
0.000145276 -4.4039e-05 -4.33874e-05 -3.71362e-05
0.000146676 -4.44679e-05 -4.38033e-05 -3.71364e-05
-0.000145771 4.32764e-05 4.39261e-05 -3.71291e-05
1.00466e-07 -4.92901e-07 1.68186e-07 -3.79062e-05
0.000145976 -4.42534e-05 -4.35954e-05 -3.71363e-05
8.99767e-08 -4.99025e-07 1.75306e-07 -3.79064e-05
9.52341e-08 -4.95956e-07 1.71738e-07 -3.79063e-05
-0.000145061 4.30679e-05 4.37111e-05 -3.7129e-05
-0.000143641 4.26509e-05 4.32813e-05 -3.71289e-05
0.000143877 -4.36102e-05 -4.29715e-05 -3.7136e-05
0.000145276 -4.4039e-05 -4.33874e-05 -3.71362e-05
-0.000144351 4.28594e-05 4.34962e-05 -3.7129e-05
1.10855e-07 -4.86836e-07 1.61135e-07 -3.79061e-05
0.000144577 -4.38246e-05 -4.31795e-05 -3.71361e-05
1.00466e-07 -4.92901e-07 1.68186e-07 -3.79062e-05
1.05674e-07 -4.89861e-07 1.64652e-07 -3.79061e-05
-0.000143641 4.26509e-05 4.32813e-05 -3.71289e-05
-0.000142221 4.22339e-05 4.28516e-05 -3.71288e-05
0.000142477 -4.31814e-05 -4.25555e-05 -3.71358e-05
0.000143877 -4.36102e-05 -4.29715e-05 -3.7136e-05
-0.000142931 4.24424e-05 4.30664e-05 -3.71288e-05
1.21144e-07 -4.8083e-07 1.54151e-07 -3.79059e-05
0.000143177 -4.33958e-05 -4.27635e-05 -3.71359e-05
1.10855e-07 -4.86836e-07 1.61135e-07 -3.79061e-05
1.16012e-07 -4.83826e-07 1.57634e-07 -3.7906e-05
-0.000142221 4.22339e-05 4.28516e-05 -3.71288e-05
-0.000140801 4.18168e-05 4.24219e-05 -3.71287e-05
0.000141078 -4.27527e-05 -4.21394e-05 -3.71357e-05
0.000142477 -4.31814e-05 -4.25555e-05 -3.71358e-05
-0.000141511 4.20253e-05 4.26367e-05 -3.71287e-05
1.31331e-07 -4.74882e-07 1.47236e-07 -3.79058e-05
0.000141778 -4.2967e-05 -4.23474e-05 -3.71357e-05
1.21144e-07 -4.8083e-07 1.54151e-07 -3.79059e-05
1.2625e-07 -4.77849e-07 1.50685e-07 -3.79058e-05
-0.000140801 4.18168e-05 4.24219e-05 -3.71287e-05
-0.000139382 4.13996e-05 4.19923e-05 -3.71286e-05
0.000139678 -4.2324e-05 -4.17233e-05 -3.71355e-05
0.000141078 -4.27527e-05 -4.21394e-05 -3.71357e-05
-0.000140091 4.16082e-05 4.22071e-05 -3.71286e-05
1.41417e-07 -4.68994e-07 1.4039e-07 -3.79056e-05
0.000140378 -4.25383e-05 -4.19313e-05 -3.71356e-05
1.31331e-07 -4.74882e-07 1.47236e-07 -3.79058e-05
1.36387e-07 -4.71931e-07 1.43805e-07 -3.79057e-05
-0.000139382 4.13996e-05 4.19923e-05 -3.71286e-05
-0.000137962 4.09824e-05 4.15628e-05 -3.71284e-05
0.000138278 -4.18954e-05 -4.1307e-05 -3.71353e-05
0.000139678 -4.2324e-05 -4.17233e-05 -3.71355e-05
-0.000138672 4.1191e-05 4.17775e-05 -3.71285e-05
1.51403e-07 -4.63163e-07 1.33612e-07 -3.79054e-05
0.000138978 -4.21097e-05 -4.15152e-05 -3.71354e-05
1.41417e-07 -4.68994e-07 1.4039e-07 -3.79056e-05
1.46423e-07 -4.66071e-07 1.36992e-07 -3.79055e-05
-0.000137962 4.09824e-05 4.15628e-05 -3.71284e-05
-0.000136543 4.05651e-05 4.11333e-05 -3.71283e-05
0.000136879 -4.14668e-05 -4.08908e-05 -3.71351e-05
0.000138278 -4.18954e-05 -4.1307e-05 -3.71353e-05
-0.000137253 4.07738e-05 4.13481e-05 -3.71284e-05
1.61287e-07 -4.57392e-07 1.26902e-07 -3.79053e-05
0.000137579 -4.16811e-05 -4.10989e-05 -3.71352e-05
1.51403e-07 -4.63163e-07 1.33612e-07 -3.79054e-05
1.56358e-07 -4.6027e-07 1.30248e-07 -3.79054e-05
-0.000136543 4.05651e-05 4.11333e-05 -3.71283e-05
-0.000135124 4.01478e-05 4.07039e-05 -3.71282e-05
0.000135479 -4.10384e-05 -4.04744e-05 -3.71349e-05
0.000136879 -4.14668e-05 -4.08908e-05 -3.71351e-05
-0.000135833 4.03565e-05 4.09186e-05 -3.71283e-05
1.71071e-07 -4.51679e-07 1.20261e-07 -3.79051e-05
0.000136179 -4.12526e-05 -4.06826e-05 -3.7135e-05
1.61287e-07 -4.57392e-07 1.26902e-07 -3.79053e-05
1.66192e-07 -4.54528e-07 1.23573e-07 -3.79052e-05
-0.000135124 4.01478e-05 4.07039e-05 -3.71282e-05
-0.000133705 3.97304e-05 4.02746e-05 -3.71281e-05
0.000134079 -4.06099e-05 -4.0058e-05 -3.71347e-05
0.000135479 -4.10384e-05 -4.04744e-05 -3.71349e-05
-0.000134414 3.99391e-05 4.04893e-05 -3.71282e-05
1.80754e-07 -4.46025e-07 1.13688e-07 -3.7905e-05
0.000134779 -4.08241e-05 -4.02662e-05 -3.71348e-05
1.71071e-07 -4.51679e-07 1.20261e-07 -3.79051e-05
1.75925e-07 -4.48845e-07 1.16966e-07 -3.79051e-05
-0.000133705 3.97304e-05 4.02746e-05 -3.71281e-05
-0.000132285 3.9313e-05 3.98454e-05 -3.7128e-05
0.000132679 -4.01816e-05 -3.96416e-05 -3.71345e-05
0.000134079 -4.06099e-05 -4.0058e-05 -3.71347e-05
-0.000132995 3.95217e-05 4.006e-05 -3.7128e-05
1.90335e-07 -4.4043e-07 1.07183e-07 -3.79048e-05
0.000133379 -4.03957e-05 -3.98498e-05 -3.71346e-05
1.80754e-07 -4.46025e-07 1.13688e-07 -3.7905e-05
1.85557e-07 -4.4322e-07 1.10427e-07 -3.79049e-05
-0.000132285 3.9313e-05 3.98454e-05 -3.7128e-05
-0.000130867 3.88955e-05 3.94162e-05 -3.71279e-05
0.000131278 -3.97533e-05 -3.9225e-05 -3.71344e-05
0.000132679 -4.01816e-05 -3.96416e-05 -3.71345e-05
-0.000131576 3.91042e-05 3.96308e-05 -3.71279e-05
1.99816e-07 -4.34893e-07 1.00747e-07 -3.79047e-05
0.000131978 -3.99674e-05 -3.94333e-05 -3.71345e-05
1.90335e-07 -4.4043e-07 1.07183e-07 -3.79048e-05
1.95088e-07 -4.37654e-07 1.03957e-07 -3.79048e-05
-0.000130867 3.88955e-05 3.94162e-05 -3.71279e-05
-0.000129448 3.84779e-05 3.89871e-05 -3.71278e-05
0.000129878 -3.9325e-05 -3.88084e-05 -3.71342e-05
0.000131278 -3.97533e-05 -3.9225e-05 -3.71344e-05
-0.000130157 3.86867e-05 3.92016e-05 -3.71278e-05
2.09196e-07 -4.29415e-07 9.43797e-08 -3.79045e-05
0.000130578 -3.95391e-05 -3.90167e-05 -3.71343e-05
1.99816e-07 -4.34893e-07 1.00747e-07 -3.79047e-05
2.04519e-07 -4.32147e-07 9.7555e-08 -3.79046e-05
-0.000129448 3.84779e-05 3.89871e-05 -3.71278e-05
-0.000128029 3.80603e-05 3.8558e-05 -3.71277e-05
0.000128478 -3.88968e-05 -3.83918e-05 -3.7134e-05
0.000129878 -3.9325e-05 -3.88084e-05 -3.71342e-05
-0.000128738 3.82691e-05 3.87725e-05 -3.71277e-05
2.18475e-07 -4.23996e-07 8.80807e-08 -3.79044e-05
0.000129178 -3.91109e-05 -3.86001e-05 -3.71341e-05
2.09196e-07 -4.29415e-07 9.43797e-08 -3.79045e-05
2.13848e-07 -4.26699e-07 9.12217e-08 -3.79045e-05
-0.000128029 3.80603e-05 3.8558e-05 -3.71277e-05
-0.00012661 3.76426e-05 3.8129e-05 -3.71275e-05
0.000127077 -3.84687e-05 -3.7975e-05 -3.71338e-05
0.000128478 -3.88968e-05 -3.83918e-05 -3.7134e-05
-0.00012732 3.78515e-05 3.83435e-05 -3.71276e-05
2.27653e-07 -4.18636e-07 8.18501e-08 -3.79042e-05
0.000127777 -3.86827e-05 -3.81834e-05 -3.71339e-05
2.18475e-07 -4.23996e-07 8.80807e-08 -3.79044e-05
2.23076e-07 -4.21309e-07 8.49568e-08 -3.79043e-05
-0.00012661 3.76426e-05 3.8129e-05 -3.71275e-05
-0.000125192 3.72249e-05 3.77001e-05 -3.71274e-05
0.000125676 -3.80406e-05 -3.75582e-05 -3.71336e-05
0.000127077 -3.84687e-05 -3.7975e-05 -3.71338e-05
-0.000125901 3.74338e-05 3.79146e-05 -3.71275e-05
2.36729e-07 -4.13335e-07 7.56881e-08 -3.79041e-05
0.000126377 -3.82546e-05 -3.77666e-05 -3.71337e-05
2.27653e-07 -4.18636e-07 8.18501e-08 -3.79042e-05
2.32204e-07 -4.15978e-07 7.87605e-08 -3.79042e-05
-0.000125192 3.72249e-05 3.77001e-05 -3.71274e-05
-0.000123773 3.68072e-05 3.72713e-05 -3.71273e-05
0.000124276 -3.76126e-05 -3.71414e-05 -3.71335e-05
0.000125676 -3.80406e-05 -3.75582e-05 -3.71336e-05
-0.000124483 3.7016e-05 3.74857e-05 -3.71274e-05
2.45705e-07 -4.08092e-07 6.95945e-08 -3.79039e-05
0.000124976 -3.78266e-05 -3.73498e-05 -3.71336e-05
2.36729e-07 -4.13335e-07 7.56881e-08 -3.79041e-05
2.4123e-07 -4.10706e-07 7.26327e-08 -3.7904e-05
-0.000123773 3.68072e-05 3.72713e-05 -3.71273e-05
-0.000122355 3.63893e-05 3.68425e-05 -3.71272e-05
0.000122875 -3.71846e-05 -3.67244e-05 -3.71333e-05
0.000124276 -3.76126e-05 -3.71414e-05 -3.71335e-05
-0.000123064 3.65982e-05 3.70569e-05 -3.71273e-05
2.5458e-07 -4.02909e-07 6.35695e-08 -3.79038e-05
0.000123575 -3.73986e-05 -3.69329e-05 -3.71334e-05
2.45705e-07 -4.08092e-07 6.95945e-08 -3.79039e-05
2.50155e-07 -4.05493e-07 6.65735e-08 -3.79039e-05
-0.000122355 3.63893e-05 3.68425e-05 -3.71272e-05
-0.000120937 3.59714e-05 3.64138e-05 -3.71271e-05
0.000121474 -3.67568e-05 -3.63074e-05 -3.71331e-05
0.000122875 -3.71846e-05 -3.67244e-05 -3.71333e-05
-0.000121646 3.61804e-05 3.66282e-05 -3.71272e-05
2.63354e-07 -3.97784e-07 5.7613e-08 -3.79037e-05
0.000122175 -3.69707e-05 -3.65159e-05 -3.71332e-05
2.5458e-07 -4.02909e-07 6.35695e-08 -3.79038e-05
2.58979e-07 -4.00339e-07 6.05827e-08 -3.79037e-05
-0.000120937 3.59714e-05 3.64138e-05 -3.71271e-05
-0.000119519 3.55535e-05 3.59852e-05 -3.7127e-05
0.000120073 -3.63289e-05 -3.58904e-05 -3.71329e-05
0.000121474 -3.67568e-05 -3.63074e-05 -3.71331e-05
-0.000120228 3.57625e-05 3.61995e-05 -3.71271e-05
2.72026e-07 -3.92718e-07 5.17251e-08 -3.79035e-05
0.000120774 -3.65428e-05 -3.60989e-05 -3.7133e-05
2.63354e-07 -3.97784e-07 5.7613e-08 -3.79037e-05
2.67702e-07 -3.95244e-07 5.46605e-08 -3.79036e-05
-0.000119519 3.55535e-05 3.59852e-05 -3.7127e-05
-0.000118101 3.51355e-05 3.55566e-05 -3.71269e-05
0.000118672 -3.59011e-05 -3.54732e-05 -3.71328e-05
0.000120073 -3.63289e-05 -3.58904e-05 -3.71329e-05
-0.00011881 3.53445e-05 3.57709e-05 -3.7127e-05
2.80598e-07 -3.87711e-07 4.59057e-08 -3.79034e-05
0.000119373 -3.6115e-05 -3.56818e-05 -3.71329e-05
2.72026e-07 -3.92718e-07 5.17251e-08 -3.79035e-05
2.76324e-07 -3.90207e-07 4.88068e-08 -3.79034e-05
-0.000118101 3.51355e-05 3.55566e-05 -3.71269e-05
-0.000116683 3.47174e-05 3.51281e-05 -3.71268e-05
0.000117271 -3.54734e-05 -3.5056e-05 -3.71326e-05
0.000118672 -3.59011e-05 -3.54732e-05 -3.71328e-05
-0.000117392 3.49265e-05 3.53424e-05 -3.71269e-05
2.89068e-07 -3.82763e-07 4.01549e-08 -3.79032e-05
0.000117971 -3.56873e-05 -3.52647e-05 -3.71327e-05
2.80598e-07 -3.87711e-07 4.59057e-08 -3.79034e-05
2.84845e-07 -3.85229e-07 4.30217e-08 -3.79033e-05
-0.000116683 3.47174e-05 3.51281e-05 -3.71268e-05
-0.000115265 3.42993e-05 3.46997e-05 -3.71267e-05
0.00011587 -3.50458e-05 -3.46388e-05 -3.71324e-05
0.000117271 -3.54734e-05 -3.5056e-05 -3.71326e-05
-0.000115974 3.45084e-05 3.49139e-05 -3.71267e-05
2.97437e-07 -3.77873e-07 3.44727e-08 -3.79031e-05
0.00011657 -3.52596e-05 -3.48474e-05 -3.71325e-05
2.89068e-07 -3.82763e-07 4.01549e-08 -3.79032e-05
2.93265e-07 -3.80311e-07 3.73052e-08 -3.79032e-05
-0.000115265 3.42993e-05 3.46997e-05 -3.71267e-05
-0.000113848 3.38812e-05 3.42713e-05 -3.71266e-05
0.000114468 -3.46182e-05 -3.42215e-05 -3.71322e-05
0.00011587 -3.50458e-05 -3.46388e-05 -3.71324e-05
-0.000114556 3.40903e-05 3.44855e-05 -3.71266e-05
3.05705e-07 -3.73043e-07 2.88591e-08 -3.79029e-05
0.000115169 -3.4832e-05 -3.44301e-05 -3.71323e-05
2.97437e-07 -3.77873e-07 3.44727e-08 -3.79031e-05
3.01584e-07 -3.75451e-07 3.16573e-08 -3.7903e-05
-0.000113848 3.38812e-05 3.42713e-05 -3.71266e-05
-0.00011243 3.34629e-05 3.3843e-05 -3.71265e-05
0.000113067 -3.41906e-05 -3.38041e-05 -3.71321e-05
0.000114468 -3.46182e-05 -3.42215e-05 -3.71322e-05
-0.000113139 3.36721e-05 3.40572e-05 -3.71265e-05
3.13872e-07 -3.68272e-07 2.3314e-08 -3.79028e-05
0.000113768 -3.44044e-05 -3.40128e-05 -3.71322e-05
3.05705e-07 -3.73043e-07 2.88591e-08 -3.79029e-05
3.09801e-07 -3.7065e-07 2.6078e-08 -3.79029e-05
-0.00011243 3.34629e-05 3.3843e-05 -3.71265e-05
-0.000111013 3.30447e-05 3.34148e-05 -3.71264e-05
0.000111665 -3.37631e-05 -3.33866e-05 -3.71319e-05
0.000113067 -3.41906e-05 -3.38041e-05 -3.71321e-05
-0.000111721 3.32538e-05 3.36289e-05 -3.71264e-05
3.21938e-07 -3.63559e-07 1.78376e-08 -3.79027e-05
0.000112366 -3.39769e-05 -3.35954e-05 -3.7132e-05
3.13872e-07 -3.68272e-07 2.3314e-08 -3.79028e-05
3.17918e-07 -3.65908e-07 2.05673e-08 -3.79027e-05
-0.000111013 3.30447e-05 3.34148e-05 -3.71264e-05
-0.000109595 3.26263e-05 3.29867e-05 -3.71263e-05
0.000110264 -3.33357e-05 -3.29691e-05 -3.71317e-05
0.000111665 -3.37631e-05 -3.33866e-05 -3.71319e-05
-0.000110304 3.28355e-05 3.32007e-05 -3.71263e-05
3.29903e-07 -3.58906e-07 1.24298e-08 -3.79025e-05
0.000110964 -3.35494e-05 -3.31779e-05 -3.71318e-05
3.21938e-07 -3.63559e-07 1.78376e-08 -3.79027e-05
3.25933e-07 -3.61225e-07 1.51252e-08 -3.79026e-05
-0.000109595 3.26263e-05 3.29867e-05 -3.71263e-05
-0.000108178 3.22079e-05 3.25586e-05 -3.71262e-05
0.000108862 -3.29084e-05 -3.25515e-05 -3.71316e-05
0.000110264 -3.33357e-05 -3.29691e-05 -3.71317e-05
-0.000108887 3.24171e-05 3.27726e-05 -3.71262e-05
3.37766e-07 -3.54311e-07 7.09068e-09 -3.79024e-05
0.000109563 -3.3122e-05 -3.27603e-05 -3.71317e-05
3.29903e-07 -3.58906e-07 1.24298e-08 -3.79025e-05
3.33847e-07 -3.56601e-07 9.7517e-09 -3.79025e-05
-0.000108178 3.22079e-05 3.25586e-05 -3.71262e-05
-0.000106761 3.17895e-05 3.21306e-05 -3.71261e-05
0.00010746 -3.24811e-05 -3.21339e-05 -3.71314e-05
0.000108862 -3.29084e-05 -3.25515e-05 -3.71316e-05
-0.000107469 3.19987e-05 3.23446e-05 -3.71261e-05
3.45529e-07 -3.49776e-07 1.82018e-09 -3.79023e-05
0.000108161 -3.26947e-05 -3.23427e-05 -3.71315e-05
3.37766e-07 -3.54311e-07 7.09068e-09 -3.79024e-05
3.4166e-07 -3.52036e-07 4.44687e-09 -3.79023e-05
-0.000106761 3.17895e-05 3.21306e-05 -3.71261e-05
-0.000105344 3.1371e-05 3.17026e-05 -3.7126e-05
0.000106058 -3.20538e-05 -3.17161e-05 -3.71312e-05
0.00010746 -3.24811e-05 -3.21339e-05 -3.71314e-05
-0.000106052 3.15803e-05 3.19166e-05 -3.71261e-05
3.5319e-07 -3.45299e-07 -3.38168e-09 -3.79021e-05
0.000106759 -3.22674e-05 -3.1925e-05 -3.71313e-05
3.45529e-07 -3.49776e-07 1.82017e-09 -3.79023e-05
3.49372e-07 -3.4753e-07 -7.89319e-10 -3.79022e-05
-0.000105344 3.1371e-05 3.17026e-05 -3.7126e-05
-0.000103927 3.09524e-05 3.12748e-05 -3.71259e-05
0.000104656 -3.16266e-05 -3.12983e-05 -3.71311e-05
0.000106058 -3.20538e-05 -3.17161e-05 -3.71312e-05
-0.000104635 3.11617e-05 3.14887e-05 -3.7126e-05
3.6075e-07 -3.40882e-07 -8.51488e-09 -3.7902e-05
0.000105357 -3.18402e-05 -3.15072e-05 -3.71312e-05
3.5319e-07 -3.45299e-07 -3.38168e-09 -3.79021e-05
3.56983e-07 -3.43083e-07 -5.95684e-09 -3.79021e-05
-0.000103927 3.09524e-05 3.12748e-05 -3.71259e-05
-0.00010251 3.05338e-05 3.0847e-05 -3.71258e-05
0.000103254 -3.11995e-05 -3.08805e-05 -3.71309e-05
0.000104656 -3.16266e-05 -3.12983e-05 -3.71311e-05
-0.000103218 3.07431e-05 3.10608e-05 -3.71259e-05
3.68209e-07 -3.36523e-07 -1.35794e-08 -3.79019e-05
0.000103955 -3.14131e-05 -3.10894e-05 -3.7131e-05
3.6075e-07 -3.40882e-07 -8.51488e-09 -3.7902e-05
3.64492e-07 -3.38695e-07 -1.10557e-08 -3.79019e-05
-0.00010251 3.05338e-05 3.0847e-05 -3.71258e-05
-0.000101093 3.01152e-05 3.04192e-05 -3.71257e-05
0.000101852 -3.07724e-05 -3.04626e-05 -3.71307e-05
0.000103254 -3.11995e-05 -3.08805e-05 -3.71309e-05
-0.000101802 3.03245e-05 3.06331e-05 -3.71258e-05
3.75566e-07 -3.32224e-07 -1.85752e-08 -3.79017e-05
0.000102553 -3.0986e-05 -3.06715e-05 -3.71308e-05
3.68209e-07 -3.36523e-07 -1.35794e-08 -3.79019e-05
3.719e-07 -3.34366e-07 -1.60859e-08 -3.79018e-05
-0.000101093 3.01152e-05 3.04192e-05 -3.71257e-05
-9.96767e-05 2.96964e-05 2.99915e-05 -3.71256e-05
0.000100449 -3.03454e-05 -3.00446e-05 -3.71306e-05
0.000101852 -3.07724e-05 -3.04626e-05 -3.71307e-05
-0.000100385 2.99058e-05 3.02054e-05 -3.71257e-05
3.82822e-07 -3.27983e-07 -2.35024e-08 -3.79016e-05
0.000101151 -3.05589e-05 -3.02536e-05 -3.71307e-05
3.75566e-07 -3.32224e-07 -1.85752e-08 -3.79017e-05
3.79207e-07 -3.30096e-07 -2.10474e-08 -3.79017e-05
-9.96767e-05 2.96964e-05 2.99915e-05 -3.71256e-05
-9.82602e-05 2.92777e-05 2.95639e-05 -3.71255e-05
9.90471e-05 -2.99185e-05 -2.96265e-05 -3.71304e-05
0.000100449 -3.03454e-05 -3.00446e-05 -3.71306e-05
-9.89684e-05 2.9487e-05 2.97777e-05 -3.71256e-05
3.89977e-07 -3.23802e-07 -2.83608e-08 -3.79015e-05
9.97483e-05 -3.01319e-05 -2.98356e-05 -3.71305e-05
3.82822e-07 -3.27983e-07 -2.35024e-08 -3.79016e-05
3.86413e-07 -3.25885e-07 -2.59402e-08 -3.79015e-05
-9.82602e-05 2.92777e-05 2.95639e-05 -3.71255e-05
-9.68438e-05 2.88588e-05 2.91364e-05 -3.71255e-05
9.76446e-05 -2.94916e-05 -2.92084e-05 -3.71303e-05
9.90471e-05 -2.99185e-05 -2.96265e-05 -3.71304e-05
-9.7552e-05 2.90682e-05 2.93502e-05 -3.71255e-05
3.97031e-07 -3.1968e-07 -3.31506e-08 -3.79014e-05
9.83458e-05 -2.9705e-05 -2.94175e-05 -3.71303e-05
3.89977e-07 -3.23802e-07 -2.83608e-08 -3.79015e-05
3.93517e-07 -3.21734e-07 -3.07643e-08 -3.79014e-05
-9.68438e-05 2.88588e-05 2.91364e-05 -3.71255e-05
-9.54275e-05 2.84399e-05 2.8709e-05 -3.71254e-05
9.6242e-05 -2.90647e-05 -2.87902e-05 -3.71301e-05
9.76446e-05 -2.94916e-05 -2.92084e-05 -3.71303e-05
-9.61356e-05 2.86494e-05 2.89227e-05 -3.71254e-05
4.03984e-07 -3.15617e-07 -3.78716e-08 -3.79012e-05
9.69433e-05 -2.92782e-05 -2.89993e-05 -3.71302e-05
3.97031e-07 -3.1968e-07 -3.31506e-08 -3.79014e-05
4.0052e-07 -3.17641e-07 -3.55197e-08 -3.79013e-05
-9.54275e-05 2.84399e-05 2.8709e-05 -3.71254e-05
-9.40113e-05 2.8021e-05 2.82816e-05 -3.71253e-05
9.48393e-05 -2.8638e-05 -2.8372e-05 -3.713e-05
9.6242e-05 -2.90647e-05 -2.87902e-05 -3.71301e-05
-9.47194e-05 2.82304e-05 2.84953e-05 -3.71253e-05
4.10835e-07 -3.11612e-07 -4.25239e-08 -3.79011e-05
9.55406e-05 -2.88514e-05 -2.85811e-05 -3.713e-05
4.03984e-07 -3.15617e-07 -3.78716e-08 -3.79012e-05
4.07422e-07 -3.13607e-07 -4.02063e-08 -3.79012e-05
-9.40113e-05 2.8021e-05 2.82816e-05 -3.71253e-05
-9.25952e-05 2.7602e-05 2.78542e-05 -3.71252e-05
9.34365e-05 -2.82113e-05 -2.79537e-05 -3.71298e-05
9.48393e-05 -2.8638e-05 -2.8372e-05 -3.713e-05
-9.33032e-05 2.78115e-05 2.80679e-05 -3.71252e-05
4.17585e-07 -3.07667e-07 -4.71075e-08 -3.7901e-05
9.41379e-05 -2.84246e-05 -2.81628e-05 -3.71299e-05
4.10835e-07 -3.11612e-07 -4.25239e-08 -3.79011e-05
4.14222e-07 -3.09633e-07 -4.48243e-08 -3.7901e-05
-9.25952e-05 2.7602e-05 2.78542e-05 -3.71252e-05
-9.11792e-05 2.71829e-05 2.7427e-05 -3.71251e-05
9.20336e-05 -2.77846e-05 -2.75353e-05 -3.71296e-05
9.34365e-05 -2.82113e-05 -2.79537e-05 -3.71298e-05
-9.18872e-05 2.73924e-05 2.76406e-05 -3.71252e-05
4.24233e-07 -3.03781e-07 -5.16223e-08 -3.79009e-05
9.27351e-05 -2.79979e-05 -2.77445e-05 -3.71297e-05
4.17585e-07 -3.07667e-07 -4.71075e-08 -3.7901e-05
4.20922e-07 -3.05717e-07 -4.93734e-08 -3.79009e-05
-9.11792e-05 2.71829e-05 2.7427e-05 -3.71251e-05
-8.97633e-05 2.67638e-05 2.69998e-05 -3.7125e-05
9.06307e-05 -2.7358e-05 -2.71168e-05 -3.71295e-05
9.20336e-05 -2.77846e-05 -2.75353e-05 -3.71296e-05
-9.04712e-05 2.69733e-05 2.72134e-05 -3.71251e-05
4.30781e-07 -2.99955e-07 -5.60683e-08 -3.79007e-05
9.13322e-05 -2.75713e-05 -2.73261e-05 -3.71296e-05
4.24233e-07 -3.03781e-07 -5.16223e-08 -3.79009e-05
4.2752e-07 -3.01861e-07 -5.38539e-08 -3.79008e-05
-8.97633e-05 2.67638e-05 2.69998e-05 -3.7125e-05
-8.83475e-05 2.63446e-05 2.65727e-05 -3.7125e-05
8.92276e-05 -2.69315e-05 -2.66983e-05 -3.71293e-05
9.06307e-05 -2.7358e-05 -2.71168e-05 -3.71295e-05
-8.90554e-05 2.65542e-05 2.67862e-05 -3.7125e-05
4.37227e-07 -2.96187e-07 -6.04457e-08 -3.79006e-05
8.99291e-05 -2.71447e-05 -2.69076e-05 -3.71294e-05
4.30781e-07 -2.99955e-07 -5.60683e-08 -3.79007e-05
4.34016e-07 -2.98063e-07 -5.82656e-08 -3.79007e-05
-8.83475e-05 2.63446e-05 2.65727e-05 -3.7125e-05
-8.69318e-05 2.59254e-05 2.61456e-05 -3.71249e-05
8.78244e-05 -2.6505e-05 -2.62798e-05 -3.71292e-05
8.92276e-05 -2.69315e-05 -2.66983e-05 -3.71293e-05
-8.76397e-05 2.6135e-05 2.63591e-05 -3.71249e-05
4.43572e-07 -2.92478e-07 -6.47542e-08 -3.79005e-05
8.8526e-05 -2.67182e-05 -2.64891e-05 -3.71293e-05
4.37227e-07 -2.96187e-07 -6.04457e-08 -3.79006e-05
4.40412e-07 -2.94325e-07 -6.26085e-08 -3.79006e-05
-8.69318e-05 2.59254e-05 2.61456e-05 -3.71249e-05
-8.55163e-05 2.55061e-05 2.57187e-05 -3.71248e-05
8.64212e-05 -2.60786e-05 -2.58611e-05 -3.7129e-05
8.78244e-05 -2.6505e-05 -2.62798e-05 -3.71292e-05
-8.6224e-05 2.57157e-05 2.59321e-05 -3.71248e-05
4.49815e-07 -2.88829e-07 -6.89939e-08 -3.79004e-05
8.71228e-05 -2.62918e-05 -2.60704e-05 -3.71291e-05
4.43572e-07 -2.92478e-07 -6.47542e-08 -3.79005e-05
4.46706e-07 -2.90646e-07 -6.68826e-08 -3.79005e-05
-8.55163e-05 2.55061e-05 2.57187e-05 -3.71248e-05
-8.41008e-05 2.50867e-05 2.52917e-05 -3.71247e-05
8.50178e-05 -2.56522e-05 -2.54424e-05 -3.71289e-05
8.64212e-05 -2.60786e-05 -2.58611e-05 -3.7129e-05
-8.48085e-05 2.52964e-05 2.55052e-05 -3.71248e-05
4.55957e-07 -2.85239e-07 -7.31649e-08 -3.79003e-05
8.57195e-05 -2.58654e-05 -2.56518e-05 -3.7129e-05
4.49815e-07 -2.88829e-07 -6.89939e-08 -3.79004e-05
4.52898e-07 -2.87026e-07 -7.1088e-08 -3.79003e-05
-8.41008e-05 2.50867e-05 2.52917e-05 -3.71247e-05
-8.26854e-05 2.46673e-05 2.48649e-05 -3.71246e-05
8.36144e-05 -2.52259e-05 -2.50236e-05 -3.71288e-05
8.50178e-05 -2.56522e-05 -2.54424e-05 -3.71289e-05
-8.33931e-05 2.4877e-05 2.50783e-05 -3.71247e-05
4.61998e-07 -2.81708e-07 -7.72671e-08 -3.79002e-05
8.43161e-05 -2.54391e-05 -2.5233e-05 -3.71288e-05
4.55957e-07 -2.85239e-07 -7.31649e-08 -3.79003e-05
4.5899e-07 -2.83466e-07 -7.52246e-08 -3.79002e-05
-8.26854e-05 2.46673e-05 2.48649e-05 -3.71246e-05
-8.12702e-05 2.42479e-05 2.44381e-05 -3.71246e-05
8.22108e-05 -2.47997e-05 -2.46048e-05 -3.71286e-05
8.36144e-05 -2.52259e-05 -2.50236e-05 -3.71288e-05
-8.19778e-05 2.44576e-05 2.46515e-05 -3.71246e-05
4.67937e-07 -2.78236e-07 -8.13005e-08 -3.79001e-05
8.29126e-05 -2.50128e-05 -2.48142e-05 -3.71287e-05
4.61998e-07 -2.81708e-07 -7.72671e-08 -3.79002e-05
4.6498e-07 -2.79964e-07 -7.92924e-08 -3.79001e-05
-8.12702e-05 2.42479e-05 2.44381e-05 -3.71246e-05
-7.9855e-05 2.38284e-05 2.40114e-05 -3.71245e-05
8.08072e-05 -2.43735e-05 -2.41859e-05 -3.71285e-05
8.22108e-05 -2.47997e-05 -2.46048e-05 -3.71286e-05
-8.05626e-05 2.40381e-05 2.42248e-05 -3.71245e-05
4.73775e-07 -2.74823e-07 -8.52651e-08 -3.79e-05
8.1509e-05 -2.45866e-05 -2.43953e-05 -3.71285e-05
4.67937e-07 -2.78236e-07 -8.13005e-08 -3.79001e-05
4.70868e-07 -2.76522e-07 -8.32914e-08 -3.79e-05
-7.9855e-05 2.38284e-05 2.40114e-05 -3.71245e-05
-7.844e-05 2.34088e-05 2.35848e-05 -3.71244e-05
7.94034e-05 -2.39474e-05 -2.37669e-05 -3.71283e-05
8.08072e-05 -2.43735e-05 -2.41859e-05 -3.71285e-05
-7.91475e-05 2.36186e-05 2.37981e-05 -3.71245e-05
4.79511e-07 -2.71469e-07 -8.91608e-08 -3.78998e-05
8.01053e-05 -2.41604e-05 -2.39764e-05 -3.71284e-05
4.73775e-07 -2.74823e-07 -8.52651e-08 -3.79e-05
4.76656e-07 -2.73139e-07 -8.72215e-08 -3.78999e-05
-7.844e-05 2.34088e-05 2.35848e-05 -3.71244e-05
-7.7025e-05 2.29892e-05 2.31582e-05 -3.71244e-05
7.79996e-05 -2.35213e-05 -2.33478e-05 -3.71282e-05
7.94034e-05 -2.39474e-05 -2.37669e-05 -3.71283e-05
-7.77325e-05 2.3199e-05 2.33715e-05 -3.71244e-05
4.85147e-07 -2.68175e-07 -9.29878e-08 -3.78997e-05
7.87015e-05 -2.37343e-05 -2.35574e-05 -3.71283e-05
4.79511e-07 -2.71469e-07 -8.91608e-08 -3.78998e-05
4.82342e-07 -2.69815e-07 -9.10829e-08 -3.78998e-05
-7.7025e-05 2.29892e-05 2.31582e-05 -3.71244e-05
-7.56102e-05 2.25695e-05 2.27317e-05 -3.71243e-05
7.65957e-05 -2.30953e-05 -2.29287e-05 -3.71281e-05
7.79996e-05 -2.35213e-05 -2.33478e-05 -3.71282e-05
-7.63176e-05 2.27793e-05 2.2945e-05 -3.71243e-05
4.9068e-07 -2.6494e-07 -9.67459e-08 -3.78996e-05
7.72977e-05 -2.33083e-05 -2.31383e-05 -3.71281e-05
4.85147e-07 -2.68175e-07 -9.29878e-08 -3.78997e-05
4.87926e-07 -2.6655e-07 -9.48754e-08 -3.78997e-05
-7.56102e-05 2.25695e-05 2.27317e-05 -3.71243e-05
-7.41954e-05 2.21497e-05 2.23053e-05 -3.71242e-05
7.51917e-05 -2.26694e-05 -2.25096e-05 -3.71279e-05
7.65957e-05 -2.30953e-05 -2.29287e-05 -3.71281e-05
-7.49028e-05 2.23596e-05 2.25185e-05 -3.71243e-05
4.96113e-07 -2.61764e-07 -1.00435e-07 -3.78995e-05
7.58937e-05 -2.28823e-05 -2.27191e-05 -3.7128e-05
4.9068e-07 -2.6494e-07 -9.67459e-08 -3.78996e-05
4.93409e-07 -2.63345e-07 -9.85991e-08 -3.78996e-05
-7.41954e-05 2.21497e-05 2.23053e-05 -3.71242e-05
-7.27808e-05 2.17299e-05 2.18789e-05 -3.71242e-05
7.37875e-05 -2.22435e-05 -2.20903e-05 -3.71278e-05
7.51917e-05 -2.26694e-05 -2.25096e-05 -3.71279e-05
-7.34881e-05 2.19398e-05 2.20921e-05 -3.71242e-05
5.01444e-07 -2.58647e-07 -1.04056e-07 -3.78994e-05
7.44896e-05 -2.24564e-05 -2.22999e-05 -3.71279e-05
4.96113e-07 -2.61764e-07 -1.00435e-07 -3.78995e-05
4.98791e-07 -2.60198e-07 -1.02254e-07 -3.78995e-05
-7.27808e-05 2.17299e-05 2.18789e-05 -3.71242e-05
-7.13663e-05 2.13101e-05 2.14527e-05 -3.71241e-05
7.23833e-05 -2.18177e-05 -2.1671e-05 -3.71277e-05
7.37875e-05 -2.22435e-05 -2.20903e-05 -3.71278e-05
-7.20735e-05 2.152e-05 2.16658e-05 -3.71241e-05
5.06673e-07 -2.5559e-07 -1.07607e-07 -3.78993e-05
7.30854e-05 -2.20306e-05 -2.18807e-05 -3.71277e-05
5.01444e-07 -2.58647e-07 -1.04056e-07 -3.78994e-05
5.04071e-07 -2.57111e-07 -1.0584e-07 -3.78994e-05
-7.13663e-05 2.13101e-05 2.14527e-05 -3.71241e-05
-6.99518e-05 2.08902e-05 2.10264e-05 -3.7124e-05
7.0979e-05 -2.13919e-05 -2.12516e-05 -3.71275e-05
7.23833e-05 -2.18177e-05 -2.1671e-05 -3.71277e-05
-7.0659e-05 2.11001e-05 2.12395e-05 -3.71241e-05
5.11801e-07 -2.52592e-07 -1.1109e-07 -3.78992e-05
7.16812e-05 -2.16048e-05 -2.14613e-05 -3.71276e-05
5.06673e-07 -2.5559e-07 -1.07607e-07 -3.78993e-05
5.0925e-07 -2.54083e-07 -1.09357e-07 -3.78993e-05
-6.99518e-05 2.08902e-05 2.10264e-05 -3.7124e-05
-6.85375e-05 2.04702e-05 2.06003e-05 -3.7124e-05
6.95746e-05 -2.09662e-05 -2.08322e-05 -3.71274e-05
7.0979e-05 -2.13919e-05 -2.12516e-05 -3.71275e-05
-6.92447e-05 2.06802e-05 2.08133e-05 -3.7124e-05
5.16828e-07 -2.49653e-07 -1.14504e-07 -3.78991e-05
7.02768e-05 -2.1179e-05 -2.10419e-05 -3.71275e-05
5.11801e-07 -2.52592e-07 -1.1109e-07 -3.78992e-05
5.14327e-07 -2.51115e-07 -1.12805e-07 -3.78992e-05
-6.85375e-05 2.04702e-05 2.06003e-05 -3.7124e-05
-6.71233e-05 2.00502e-05 2.01742e-05 -3.71239e-05
6.81701e-05 -2.05405e-05 -2.04127e-05 -3.71273e-05
6.95746e-05 -2.09662e-05 -2.08322e-05 -3.71274e-05
-6.78304e-05 2.02602e-05 2.03872e-05 -3.7124e-05
5.21753e-07 -2.46773e-07 -1.17849e-07 -3.7899e-05
6.88724e-05 -2.07534e-05 -2.06224e-05 -3.71273e-05
5.16828e-07 -2.49653e-07 -1.14504e-07 -3.78991e-05
5.19303e-07 -2.48205e-07 -1.16185e-07 -3.78991e-05
-6.71233e-05 2.00502e-05 2.01742e-05 -3.71239e-05
-6.57092e-05 1.96301e-05 1.97482e-05 -3.71239e-05
6.67655e-05 -2.01149e-05 -1.99931e-05 -3.71271e-05
6.81701e-05 -2.05405e-05 -2.04127e-05 -3.71273e-05
-6.64162e-05 1.98401e-05 1.99612e-05 -3.71239e-05
5.26577e-07 -2.43952e-07 -1.21125e-07 -3.7899e-05
6.74678e-05 -2.03277e-05 -2.02029e-05 -3.71272e-05
5.21753e-07 -2.46773e-07 -1.17849e-07 -3.7899e-05
5.24178e-07 -2.45355e-07 -1.19495e-07 -3.7899e-05
-6.57092e-05 1.96301e-05 1.97482e-05 -3.71239e-05
-6.42951e-05 1.92099e-05 1.93222e-05 -3.71238e-05
6.53608e-05 -1.96894e-05 -1.95734e-05 -3.7127e-05
6.67655e-05 -2.01149e-05 -1.99931e-05 -3.71271e-05
-6.50021e-05 1.942e-05 1.95352e-05 -3.71238e-05
5.313e-07 -2.41191e-07 -1.24332e-07 -3.78989e-05
6.60631e-05 -1.99022e-05 -1.97833e-05 -3.71271e-05
5.26577e-07 -2.43952e-07 -1.21125e-07 -3.7899e-05
5.28951e-07 -2.42564e-07 -1.22737e-07 -3.78989e-05
-6.42951e-05 1.92099e-05 1.93222e-05 -3.71238e-05
-6.28812e-05 1.87897e-05 1.88963e-05 -3.71238e-05
6.3956e-05 -1.92639e-05 -1.91537e-05 -3.71269e-05
6.53608e-05 -1.96894e-05 -1.95734e-05 -3.7127e-05
-6.35882e-05 1.89999e-05 1.91093e-05 -3.71238e-05
5.3592e-07 -2.38489e-07 -1.27471e-07 -3.78988e-05
6.46584e-05 -1.94767e-05 -1.93636e-05 -3.7127e-05
5.313e-07 -2.41191e-07 -1.24332e-07 -3.78989e-05
5.33623e-07 -2.39833e-07 -1.2591e-07 -3.78988e-05
-6.28812e-05 1.87897e-05 1.88963e-05 -3.71238e-05
-6.14674e-05 1.83695e-05 1.84705e-05 -3.71237e-05
6.25511e-05 -1.88385e-05 -1.8734e-05 -3.71268e-05
6.3956e-05 -1.92639e-05 -1.91537e-05 -3.71269e-05
-6.21743e-05 1.85796e-05 1.86834e-05 -3.71237e-05
5.4044e-07 -2.35846e-07 -1.3054e-07 -3.78987e-05
6.32536e-05 -1.90512e-05 -1.89439e-05 -3.71268e-05
5.3592e-07 -2.38489e-07 -1.27471e-07 -3.78988e-05
5.38193e-07 -2.3716e-07 -1.29014e-07 -3.78987e-05
-6.14674e-05 1.83695e-05 1.84705e-05 -3.71237e-05
-6.00537e-05 1.79492e-05 1.80448e-05 -3.71237e-05
6.11461e-05 -1.84132e-05 -1.83141e-05 -3.71267e-05
6.25511e-05 -1.88385e-05 -1.8734e-05 -3.71268e-05
-6.07606e-05 1.81593e-05 1.82577e-05 -3.71237e-05
5.44858e-07 -2.33263e-07 -1.33541e-07 -3.78986e-05
6.18486e-05 -1.86258e-05 -1.8524e-05 -3.71267e-05
5.4044e-07 -2.35846e-07 -1.3054e-07 -3.78987e-05
5.42661e-07 -2.34547e-07 -1.32049e-07 -3.78986e-05
-6.00537e-05 1.79492e-05 1.80448e-05 -3.71237e-05
-5.86401e-05 1.75288e-05 1.76191e-05 -3.71236e-05
5.9741e-05 -1.79879e-05 -1.78942e-05 -3.71265e-05
6.11461e-05 -1.84132e-05 -1.83141e-05 -3.71267e-05
-5.93469e-05 1.7739e-05 1.7832e-05 -3.71236e-05
5.49174e-07 -2.30739e-07 -1.36472e-07 -3.78985e-05
6.04436e-05 -1.82005e-05 -1.81042e-05 -3.71266e-05
5.44858e-07 -2.33263e-07 -1.33541e-07 -3.78986e-05
5.47029e-07 -2.31993e-07 -1.35015e-07 -3.78986e-05
-5.86401e-05 1.75288e-05 1.76191e-05 -3.71236e-05
-5.72266e-05 1.71084e-05 1.71935e-05 -3.71236e-05
5.83358e-05 -1.75626e-05 -1.74742e-05 -3.71264e-05
5.9741e-05 -1.79879e-05 -1.78942e-05 -3.71265e-05
-5.79334e-05 1.73186e-05 1.74063e-05 -3.71236e-05
5.53389e-07 -2.28274e-07 -1.39335e-07 -3.78984e-05
5.90384e-05 -1.77752e-05 -1.76842e-05 -3.71265e-05
5.49174e-07 -2.30739e-07 -1.36472e-07 -3.78985e-05
5.51294e-07 -2.29499e-07 -1.37912e-07 -3.78985e-05
-5.72266e-05 1.71084e-05 1.71935e-05 -3.71236e-05
-5.58132e-05 1.66879e-05 1.6768e-05 -3.71235e-05
5.69305e-05 -1.71375e-05 -1.70542e-05 -3.71263e-05
5.83358e-05 -1.75626e-05 -1.74742e-05 -3.71264e-05
-5.65199e-05 1.68982e-05 1.69807e-05 -3.71235e-05
5.57502e-07 -2.25868e-07 -1.42129e-07 -3.78984e-05
5.76332e-05 -1.735e-05 -1.72642e-05 -3.71264e-05
5.53389e-07 -2.28274e-07 -1.39335e-07 -3.78984e-05
5.55458e-07 -2.27064e-07 -1.40741e-07 -3.78984e-05
-5.58132e-05 1.66879e-05 1.6768e-05 -3.71235e-05
-5.43999e-05 1.62674e-05 1.63425e-05 -3.71235e-05
5.55252e-05 -1.67123e-05 -1.66341e-05 -3.71262e-05
5.69305e-05 -1.71375e-05 -1.70542e-05 -3.71263e-05
-5.51066e-05 1.64777e-05 1.65552e-05 -3.71235e-05
5.61514e-07 -2.23522e-07 -1.44854e-07 -3.78983e-05
5.62279e-05 -1.69249e-05 -1.68441e-05 -3.71263e-05
5.57502e-07 -2.25868e-07 -1.42129e-07 -3.78984e-05
5.59521e-07 -2.24688e-07 -1.435e-07 -3.78983e-05
-5.43999e-05 1.62674e-05 1.63425e-05 -3.71235e-05
-5.29867e-05 1.58468e-05 1.59171e-05 -3.71234e-05
5.41197e-05 -1.62873e-05 -1.62139e-05 -3.71261e-05
5.55252e-05 -1.67123e-05 -1.66341e-05 -3.71262e-05
-5.36933e-05 1.60571e-05 1.61298e-05 -3.71235e-05
5.65424e-07 -2.21235e-07 -1.4751e-07 -3.78982e-05
5.48224e-05 -1.64998e-05 -1.6424e-05 -3.71261e-05
5.61514e-07 -2.23522e-07 -1.44854e-07 -3.78983e-05
5.63482e-07 -2.22371e-07 -1.4619e-07 -3.78982e-05
-5.29867e-05 1.58468e-05 1.59171e-05 -3.71234e-05
-5.15736e-05 1.54261e-05 1.54918e-05 -3.71234e-05
5.27141e-05 -1.58623e-05 -1.57936e-05 -3.7126e-05
5.41197e-05 -1.62873e-05 -1.62139e-05 -3.71261e-05
-5.22802e-05 1.56365e-05 1.57044e-05 -3.71234e-05
5.69233e-07 -2.19007e-07 -1.50097e-07 -3.78981e-05
5.34169e-05 -1.60748e-05 -1.60038e-05 -3.7126e-05
5.65424e-07 -2.21235e-07 -1.4751e-07 -3.78982e-05
5.67341e-07 -2.20114e-07 -1.48812e-07 -3.78982e-05
-5.15736e-05 1.54261e-05 1.54918e-05 -3.71234e-05
-5.01607e-05 1.50054e-05 1.50665e-05 -3.71234e-05
5.13084e-05 -1.54373e-05 -1.53733e-05 -3.71259e-05
5.27141e-05 -1.58623e-05 -1.57936e-05 -3.7126e-05
-5.08671e-05 1.52158e-05 1.52792e-05 -3.71234e-05
5.7294e-07 -2.16839e-07 -1.52615e-07 -3.78981e-05
5.20113e-05 -1.56498e-05 -1.55835e-05 -3.71259e-05
5.69233e-07 -2.19007e-07 -1.50097e-07 -3.78981e-05
5.71099e-07 -2.17916e-07 -1.51364e-07 -3.78981e-05
-5.01607e-05 1.50054e-05 1.50665e-05 -3.71234e-05
-4.87478e-05 1.45847e-05 1.46413e-05 -3.71233e-05
4.99027e-05 -1.50124e-05 -1.4953e-05 -3.71258e-05
5.13084e-05 -1.54373e-05 -1.53733e-05 -3.71259e-05
-4.94542e-05 1.4795e-05 1.48539e-05 -3.71234e-05
5.76546e-07 -2.14731e-07 -1.55064e-07 -3.7898e-05
5.06056e-05 -1.52249e-05 -1.51632e-05 -3.71258e-05
5.7294e-07 -2.16839e-07 -1.52615e-07 -3.78981e-05
5.74756e-07 -2.15778e-07 -1.53848e-07 -3.7898e-05
-4.87478e-05 1.45847e-05 1.46413e-05 -3.71233e-05
-4.7335e-05 1.41638e-05 1.42162e-05 -3.71233e-05
4.84968e-05 -1.45876e-05 -1.45325e-05 -3.71257e-05
4.99027e-05 -1.50124e-05 -1.4953e-05 -3.71258e-05
-4.80414e-05 1.43743e-05 1.44288e-05 -3.71233e-05
5.80051e-07 -2.12683e-07 -1.57443e-07 -3.78979e-05
4.91998e-05 -1.48e-05 -1.47427e-05 -3.71257e-05
5.76546e-07 -2.14731e-07 -1.55064e-07 -3.7898e-05
5.78311e-07 -2.13699e-07 -1.56262e-07 -3.78979e-05
-4.7335e-05 1.41638e-05 1.42162e-05 -3.71233e-05
-4.59223e-05 1.3743e-05 1.37912e-05 -3.71233e-05
4.70909e-05 -1.41629e-05 -1.4112e-05 -3.71256e-05
4.84968e-05 -1.45876e-05 -1.45325e-05 -3.71257e-05
-4.66287e-05 1.39534e-05 1.40037e-05 -3.71233e-05
5.83454e-07 -2.10695e-07 -1.59754e-07 -3.78978e-05
4.77938e-05 -1.43752e-05 -1.43223e-05 -3.71256e-05
5.80051e-07 -2.12683e-07 -1.57443e-07 -3.78979e-05
5.81765e-07 -2.11681e-07 -1.58607e-07 -3.78979e-05
-4.59223e-05 1.3743e-05 1.37912e-05 -3.71233e-05
-4.45098e-05 1.3322e-05 1.33662e-05 -3.71232e-05
4.56848e-05 -1.37381e-05 -1.36914e-05 -3.71255e-05
4.70909e-05 -1.41629e-05 -1.4112e-05 -3.71256e-05
-4.5216e-05 1.35325e-05 1.35787e-05 -3.71233e-05
5.86758e-07 -2.08768e-07 -1.61996e-07 -3.78978e-05
4.63878e-05 -1.39505e-05 -1.39017e-05 -3.71255e-05
5.83454e-07 -2.10695e-07 -1.59754e-07 -3.78978e-05
5.85118e-07 -2.09724e-07 -1.60884e-07 -3.78978e-05
-4.45098e-05 1.3322e-05 1.33662e-05 -3.71232e-05
-4.30973e-05 1.2901e-05 1.29413e-05 -3.71232e-05
4.42786e-05 -1.33135e-05 -1.32708e-05 -3.71254e-05
4.56848e-05 -1.37381e-05 -1.36914e-05 -3.71255e-05
-4.38035e-05 1.31115e-05 1.31537e-05 -3.71232e-05
5.89961e-07 -2.06902e-07 -1.64168e-07 -3.78977e-05
4.49817e-05 -1.35258e-05 -1.34811e-05 -3.71254e-05
5.86758e-07 -2.08768e-07 -1.61996e-07 -3.78978e-05
5.88372e-07 -2.07827e-07 -1.6309e-07 -3.78977e-05
-4.30973e-05 1.2901e-05 1.29413e-05 -3.71232e-05
-4.16849e-05 1.24799e-05 1.25164e-05 -3.71232e-05
4.28724e-05 -1.28889e-05 -1.28501e-05 -3.71253e-05
4.42786e-05 -1.33135e-05 -1.32708e-05 -3.71254e-05
-4.23911e-05 1.26905e-05 1.27288e-05 -3.71232e-05
5.93065e-07 -2.05099e-07 -1.66271e-07 -3.78977e-05
4.35755e-05 -1.31012e-05 -1.30604e-05 -3.71253e-05
5.89961e-07 -2.06902e-07 -1.64168e-07 -3.78977e-05
5.91525e-07 -2.05993e-07 -1.65228e-07 -3.78977e-05
-4.16849e-05 1.24799e-05 1.25164e-05 -3.71232e-05
-4.02726e-05 1.20588e-05 1.20916e-05 -3.71232e-05
4.1466e-05 -1.24644e-05 -1.24293e-05 -3.71252e-05
4.28724e-05 -1.28889e-05 -1.28501e-05 -3.71253e-05
-4.09788e-05 1.22694e-05 1.2304e-05 -3.71232e-05
5.96072e-07 -2.0336e-07 -1.68305e-07 -3.78976e-05
4.21692e-05 -1.26767e-05 -1.26397e-05 -3.71252e-05
5.93065e-07 -2.05099e-07 -1.66271e-07 -3.78977e-05
5.9458e-07 -2.04221e-07 -1.67297e-07 -3.78976e-05
-4.02726e-05 1.20588e-05 1.20916e-05 -3.71232e-05
-3.88605e-05 1.16376e-05 1.16669e-05 -3.71231e-05
4.00596e-05 -1.20399e-05 -1.20084e-05 -3.71251e-05
4.1466e-05 -1.24644e-05 -1.24293e-05 -3.71252e-05
-3.95665e-05 1.18482e-05 1.18793e-05 -3.71231e-05
5.98982e-07 -2.01685e-07 -1.7027e-07 -3.78975e-05
4.07628e-05 -1.22522e-05 -1.22189e-05 -3.71252e-05
5.96072e-07 -2.0336e-07 -1.68305e-07 -3.78976e-05
5.97539e-07 -2.02514e-07 -1.69296e-07 -3.78976e-05
-3.88605e-05 1.16376e-05 1.16669e-05 -3.71231e-05
-3.74484e-05 1.12164e-05 1.12423e-05 -3.71231e-05
3.86531e-05 -1.16156e-05 -1.15875e-05 -3.7125e-05
4.00596e-05 -1.20399e-05 -1.20084e-05 -3.71251e-05
-3.81544e-05 1.1427e-05 1.14546e-05 -3.71231e-05
6.01799e-07 -2.00077e-07 -1.72167e-07 -3.78975e-05
3.93564e-05 -1.18277e-05 -1.1798e-05 -3.71251e-05
5.98982e-07 -2.01685e-07 -1.7027e-07 -3.78975e-05
6.00402e-07 -2.00873e-07 -1.71227e-07 -3.78975e-05
-3.74484e-05 1.12164e-05 1.12423e-05 -3.71231e-05
-3.60364e-05 1.07951e-05 1.08177e-05 -3.71231e-05
3.72465e-05 -1.11912e-05 -1.11665e-05 -3.71249e-05
3.86531e-05 -1.16156e-05 -1.15875e-05 -3.7125e-05
-3.67424e-05 1.10057e-05 1.103e-05 -3.71231e-05
6.04525e-07 -1.98537e-07 -1.73995e-07 -3.78974e-05
3.79498e-05 -1.14034e-05 -1.1377e-05 -3.7125e-05
6.01799e-07 -2.00077e-07 -1.72167e-07 -3.78975e-05
6.03173e-07 -1.99299e-07 -1.73089e-07 -3.78975e-05
-3.60364e-05 1.07951e-05 1.08177e-05 -3.71231e-05
-3.46245e-05 1.03737e-05 1.03932e-05 -3.7123e-05
3.58398e-05 -1.0767e-05 -1.07455e-05 -3.71249e-05
3.72465e-05 -1.11912e-05 -1.11665e-05 -3.71249e-05
-3.53304e-05 1.05844e-05 1.06054e-05 -3.71231e-05
6.07163e-07 -1.97066e-07 -1.75756e-07 -3.78974e-05
3.65431e-05 -1.09791e-05 -1.0956e-05 -3.71249e-05
6.04525e-07 -1.98537e-07 -1.73995e-07 -3.78974e-05
6.05855e-07 -1.97793e-07 -1.74884e-07 -3.78974e-05
-3.46245e-05 1.03737e-05 1.03932e-05 -3.7123e-05
-3.32127e-05 9.95227e-06 9.96875e-06 -3.7123e-05
3.4433e-05 -1.03428e-05 -1.03244e-05 -3.71248e-05
3.58398e-05 -1.0767e-05 -1.07455e-05 -3.71249e-05
-3.39186e-05 1.0163e-05 1.0181e-05 -3.7123e-05
6.09715e-07 -1.95661e-07 -1.77452e-07 -3.78973e-05
3.51364e-05 -1.05549e-05 -1.05349e-05 -3.71248e-05
6.07163e-07 -1.97066e-07 -1.75756e-07 -3.78974e-05
6.08449e-07 -1.96355e-07 -1.76612e-07 -3.78973e-05
-3.32127e-05 9.95227e-06 9.96875e-06 -3.7123e-05
-3.1801e-05 9.53077e-06 9.54437e-06 -3.71229e-05
3.30261e-05 -9.91868e-06 -9.90319e-06 -3.71247e-05
3.4433e-05 -1.03428e-05 -1.03244e-05 -3.71248e-05
-3.25068e-05 9.74153e-06 9.75655e-06 -3.7123e-05
6.12185e-07 -1.94321e-07 -1.79084e-07 -3.78972e-05
3.37296e-05 -1.01307e-05 -1.01138e-05 -3.71248e-05
6.09715e-07 -1.95661e-07 -1.77452e-07 -3.78973e-05
6.1096e-07 -1.94984e-07 -1.78276e-07 -3.78973e-05
-3.1801e-05 9.53077e-06 9.54437e-06 -3.71229e-05
-3.03893e-05 9.10923e-06 9.12005e-06 -3.71229e-05
3.16192e-05 -9.49463e-06 -9.48196e-06 -3.71246e-05
3.30261e-05 -9.91868e-06 -9.90319e-06 -3.71247e-05
-3.10951e-05 9.32001e-06 9.3322e-06 -3.71229e-05
6.14571e-07 -1.93036e-07 -1.80658e-07 -3.78971e-05
3.23227e-05 -9.70665e-06 -9.69258e-06 -3.71247e-05
6.12185e-07 -1.94321e-07 -1.79084e-07 -3.78972e-05
6.13388e-07 -1.93672e-07 -1.79878e-07 -3.78972e-05
-3.03893e-05 9.10923e-06 9.12005e-06 -3.71229e-05
-2.89778e-05 8.68767e-06 8.69578e-06 -3.71228e-05
3.02122e-05 -9.07063e-06 -9.06068e-06 -3.71245e-05
3.16192e-05 -9.49463e-06 -9.48196e-06 -3.71246e-05
-2.96836e-05 8.89845e-06 8.90791e-06 -3.71228e-05
6.1687e-07 -1.9179e-07 -1.82177e-07 -3.7897e-05
3.09157e-05 -9.28262e-06 -9.27133e-06 -3.71246e-05
6.14571e-07 -1.93036e-07 -1.80658e-07 -3.78971e-05
6.15732e-07 -1.9241e-07 -1.81424e-07 -3.78971e-05
-2.89778e-05 8.68767e-06 8.69578e-06 -3.71228e-05
-2.75664e-05 8.26611e-06 8.27157e-06 -3.71226e-05
2.88052e-05 -8.64666e-06 -8.63935e-06 -3.71243e-05
3.02122e-05 -9.07063e-06 -9.06068e-06 -3.71245e-05
-2.82721e-05 8.47689e-06 8.48367e-06 -3.71227e-05
6.19068e-07 -1.90554e-07 -1.83649e-07 -3.78969e-05
2.95087e-05 -8.85864e-06 -8.85002e-06 -3.71244e-05
6.1687e-07 -1.9179e-07 -1.82177e-07 -3.7897e-05
6.17982e-07 -1.91173e-07 -1.82918e-07 -3.78969e-05
-2.75664e-05 8.26611e-06 8.27157e-06 -3.71226e-05
-2.61552e-05 7.8446e-06 7.84741e-06 -3.71225e-05
2.7398e-05 -8.22268e-06 -8.218e-06 -3.71241e-05
2.88052e-05 -8.64666e-06 -8.63935e-06 -3.71243e-05
-2.68608e-05 8.05534e-06 8.05948e-06 -3.71226e-05
6.21141e-07 -1.89282e-07 -1.85082e-07 -3.78966e-05
2.81016e-05 -8.43468e-06 -8.42868e-06 -3.71242e-05
6.19068e-07 -1.90554e-07 -1.83649e-07 -3.78969e-05
6.20122e-07 -1.89927e-07 -1.8437e-07 -3.78967e-05
-2.61552e-05 7.8446e-06 7.84741e-06 -3.71225e-05
-2.47442e-05 7.42318e-06 7.42329e-06 -3.71223e-05
2.59907e-05 -7.79858e-06 -7.79664e-06 -3.71238e-05
2.7398e-05 -8.22268e-06 -8.218e-06 -3.71241e-05
-2.54497e-05 7.63387e-06 7.63534e-06 -3.71224e-05
6.23042e-07 -1.879e-07 -1.86489e-07 -3.78964e-05
2.66944e-05 -8.01065e-06 -8.00732e-06 -3.71239e-05
6.21141e-07 -1.89282e-07 -1.85082e-07 -3.78966e-05
6.22116e-07 -1.8861e-07 -1.85788e-07 -3.78965e-05
-2.47442e-05 7.42318e-06 7.42329e-06 -3.71223e-05
-2.33334e-05 7.00188e-06 6.99922e-06 -3.71222e-05
2.45832e-05 -7.3742e-06 -7.37531e-06 -3.71234e-05
2.59907e-05 -7.79858e-06 -7.79664e-06 -3.71238e-05
-2.40387e-05 7.21251e-06 7.21124e-06 -3.71223e-05
6.24692e-07 -1.86298e-07 -1.87883e-07 -3.78961e-05
2.5287e-05 -7.58644e-06 -7.58596e-06 -3.71236e-05
6.23042e-07 -1.879e-07 -1.86489e-07 -3.78964e-05
6.23904e-07 -1.87135e-07 -1.87187e-07 -3.78962e-05
-2.33334e-05 7.00188e-06 6.99922e-06 -3.71222e-05
-2.19228e-05 6.58066e-06 6.5752e-06 -3.71225e-05
2.31752e-05 -6.94919e-06 -6.95402e-06 -3.71232e-05
2.45832e-05 -7.3742e-06 -7.37531e-06 -3.71234e-05
-2.26281e-05 6.79127e-06 6.78721e-06 -3.71223e-05
6.25967e-07 -1.84319e-07 -1.89278e-07 -3.78962e-05
2.38793e-05 -7.1618e-06 -7.16466e-06 -3.71232e-05
6.24692e-07 -1.86298e-07 -1.87883e-07 -3.78961e-05
6.25386e-07 -1.85368e-07 -1.88579e-07 -3.78961e-05
-2.19228e-05 6.58066e-06 6.5752e-06 -3.71225e-05
-2.05123e-05 6.15929e-06 6.1513e-06 -3.71238e-05
2.17663e-05 -6.5229e-06 -6.53289e-06 -3.71235e-05
2.31752e-05 -6.94919e-06 -6.95402e-06 -3.71232e-05
-2.12175e-05 6.37002e-06 6.36322e-06 -3.7123e-05
6.26676e-07 -1.81744e-07 -1.90685e-07 -3.78974e-05
2.24709e-05 -6.73626e-06 -6.74342e-06 -3.71232e-05
6.25967e-07 -1.84319e-07 -1.89278e-07 -3.78962e-05
6.26406e-07 -1.83123e-07 -1.89979e-07 -3.78966e-05
-2.05123e-05 6.15929e-06 6.1513e-06 -3.71238e-05
-1.91012e-05 5.73715e-06 5.72744e-06 -3.71274e-05
2.03552e-05 -6.09417e-06 -6.11185e-06 -3.71258e-05
2.17663e-05 -6.5229e-06 -6.53289e-06 -3.71235e-05
-1.98069e-05 5.94839e-06 5.93938e-06 -3.71252e-05
6.26542e-07 -1.78279e-07 -1.92112e-07 -3.79011e-05
2.10612e-05 -6.30896e-06 -6.32237e-06 -3.71243e-05
6.26676e-07 -1.81744e-07 -1.90685e-07 -3.78974e-05
6.26735e-07 -1.80144e-07 -1.91396e-07 -3.78987e-05
-1.91012e-05 5.73715e-06 5.72744e-06 -3.71274e-05
-1.76886e-05 5.31274e-06 5.30392e-06 -3.71363e-05
1.89402e-05 -5.66078e-06 -5.69119e-06 -3.71324e-05
2.03552e-05 -6.09417e-06 -6.11185e-06 -3.71258e-05
-1.8395e-05 5.52535e-06 5.51558e-06 -3.7131e-05
6.2517e-07 -1.73553e-07 -1.9355e-07 -3.79108e-05
1.96482e-05 -5.87824e-06 -5.90141e-06 -3.71283e-05
6.26542e-07 -1.78279e-07 -1.92112e-07 -3.79011e-05
6.26039e-07 -1.76101e-07 -1.9283e-07 -3.79049e-05
-1.76886e-05 5.31274e-06 5.30392e-06 -3.71363e-05
-1.62705e-05 4.88323e-06 4.88025e-06 -3.71561e-05
1.75165e-05 -5.21905e-06 -5.27035e-06 -3.71489e-05
1.89402e-05 -5.66078e-06 -5.69119e-06 -3.71324e-05
-1.69807e-05 5.09895e-06 5.09218e-06 -3.71443e-05
6.22026e-07 -1.6711e-07 -1.94964e-07 -3.79328e-05
1.823e-05 -5.44134e-06 -5.48087e-06 -3.7139e-05
6.2517e-07 -1.73553e-07 -1.9355e-07 -3.79108e-05
6.23857e-07 -1.70575e-07 -1.94264e-07 -3.79195e-05
-1.62705e-05 4.88323e-06 4.88025e-06 -3.71561e-05
-1.48432e-05 4.44282e-06 4.45732e-06 -3.7197e-05
1.60791e-05 -4.76222e-06 -4.8501e-06 -3.71851e-05
1.75165e-05 -5.21905e-06 -5.27035e-06 -3.71489e-05
-1.5558e-05 4.66477e-06 4.66851e-06 -3.71731e-05
6.16421e-07 -1.58468e-07 -1.96265e-07 -3.79796e-05
1.67996e-05 -4.99296e-06 -5.05999e-06 -3.71637e-05
6.22026e-07 -1.6711e-07 -1.94964e-07 -3.79328e-05
6.19578e-07 -1.63098e-07 -1.95634e-07 -3.79524e-05
-1.48432e-05 4.44282e-06 4.45732e-06 -3.7197e-05
-1.33921e-05 3.98295e-06 4.03248e-06 -3.72778e-05
1.46116e-05 -4.28081e-06 -4.42747e-06 -3.72593e-05
1.60791e-05 -4.76222e-06 -4.8501e-06 -3.71851e-05
-1.41225e-05 4.21635e-06 4.24551e-06 -3.72308e-05
6.07503e-07 -1.47138e-07 -1.97299e-07 -3.80722e-05
1.53511e-05 -4.52567e-06 -4.63948e-06 -3.72158e-05
6.16421e-07 -1.58468e-07 -1.96265e-07 -3.79796e-05
6.12435e-07 -1.53157e-07 -1.96833e-07 -3.80178e-05
-1.33921e-05 3.98295e-06 4.03248e-06 -3.72778e-05
-1.1907e-05 3.48757e-06 3.60831e-06 -3.74278e-05
1.31022e-05 -3.75821e-06 -4.00456e-06 -3.74004e-05
1.46116e-05 -4.28081e-06 -4.42747e-06 -3.72593e-05
-1.26531e-05 3.74027e-06 3.81979e-06 -3.73419e-05
5.94353e-07 -1.32895e-07 -1.97768e-07 -3.82455e-05
1.38616e-05 -4.02523e-06 -4.21557e-06 -3.73192e-05
6.07503e-07 -1.47138e-07 -1.97299e-07 -3.80722e-05
6.01513e-07 -1.40392e-07 -1.97623e-07 -3.81471e-05
-1.1907e-05 3.48757e-06 3.60831e-06 -3.74278e-05
-1.03452e-05 2.94217e-06 3.17274e-06 -3.7694e-05
1.15064e-05 -3.18015e-06 -3.56839e-06 -3.76556e-05
1.31022e-05 -3.75821e-06 -4.00456e-06 -3.74004e-05
-1.11417e-05 3.22346e-06 3.39352e-06 -3.75424e-05
5.76058e-07 -1.15861e-07 -1.97227e-07 -3.85502e-05
1.23212e-05 -3.47836e-06 -3.78977e-06 -3.75097e-05
5.94353e-07 -1.32895e-07 -1.97768e-07 -3.82455e-05
5.85907e-07 -1.2466e-07 -1.97677e-07 -3.83751e-05
-1.03452e-05 2.94217e-06 3.17274e-06 -3.7694e-05
-8.70026e-06 2.32246e-06 2.73335e-06 -3.81309e-05
9.81656e-06 -2.52436e-06 -3.12523e-06 -3.80798e-05
1.15064e-05 -3.18015e-06 -3.56839e-06 -3.76556e-05
-9.528e-06 2.6396e-06 2.95217e-06 -3.78877e-05
5.52263e-07 -9.74339e-08 -1.94927e-07 -3.90493e-05
1.06681e-05 -2.85972e-06 -3.34644e-06 -3.78431e-05
5.76058e-07 -1.15861e-07 -1.97227e-07 -3.85502e-05
5.64834e-07 -1.06711e-07 -1.96338e-07 -3.87757e-05
-8.70026e-06 2.32246e-06 2.73335e-06 -3.81309e-05
-6.89202e-06 1.65667e-06 2.24372e-06 -3.87979e-05
7.95325e-06 -1.8245e-06 -2.62661e-06 -3.87346e-05
9.81656e-06 -2.52436e-06 -3.12523e-06 -3.80798e-05
-7.83171e-06 1.99698e-06 2.5006e-06 -3.84315e-05
5.23424e-07 -8.0362e-08 -1.89884e-07 -3.97898e-05
8.92166e-06 -2.18107e-06 -2.88882e-06 -3.83739e-05
5.52263e-07 -9.74339e-08 -1.94927e-07 -3.90493e-05
5.38431e-07 -8.83743e-08 -1.92881e-07 -3.93788e-05
-6.89202e-06 1.65667e-06 2.24372e-06 -3.87979e-05
-5.02901e-06 9.9678e-07 1.7281e-06 -3.96616e-05
6.02961e-06 -1.14328e-06 -2.09414e-06 -3.959e-05
7.95325e-06 -1.8245e-06 -2.62661e-06 -3.87346e-05
-5.93863e-06 1.30486e-06 1.9859e-06 -3.92133e-05
4.92758e-07 -7.12557e-08 -1.80644e-07 -4.07207e-05
6.96975e-06 -1.45939e-06 -2.36158e-06 -3.91451e-05
5.23424e-07 -8.0362e-08 -1.89884e-07 -3.97898e-05
5.07961e-07 -7.43448e-08 -1.85836e-07 -4.0257e-05
-5.02901e-06 9.9678e-07 1.7281e-06 -3.96616e-05
-3.11686e-06 6.95845e-07 1.03758e-06 -4.05084e-05
4.06184e-06 -8.53214e-07 -1.37512e-06 -4.04401e-05
6.02961e-06 -1.14328e-06 -2.09414e-06 -3.959e-05
-4.1071e-06 7.89544e-07 1.42181e-06 -4.01097e-05
4.66085e-07 -7.93222e-08 -1.65756e-07 -4.15149e-05
5.07844e-06 -9.35888e-07 -1.77538e-06 -4.00377e-05
4.92758e-07 -7.12557e-08 -1.80644e-07 -4.07207e-05
4.78553e-07 -7.22416e-08 -1.74133e-07 -4.114e-05
-3.11686e-06 6.95845e-07 1.03758e-06 -4.05084e-05
-1.77207e-06 1.15448e-06 2.64678e-07 -4.05357e-05
2.68682e-06 -1.38295e-06 -5.58801e-07 -4.04888e-05
4.06184e-06 -8.53214e-07 -1.37512e-06 -4.04401e-05
-2.26846e-06 7.54657e-07 6.48774e-07 -4.07059e-05
4.55317e-07 -1.19401e-07 -1.43964e-07 -4.13079e-05
3.19342e-06 -9.37888e-07 -9.66658e-07 -4.06457e-05
4.66085e-07 -7.93222e-08 -1.65756e-07 -4.15149e-05
4.57594e-07 -9.45706e-08 -1.55581e-07 -4.1669e-05
-1.77207e-06 1.15448e-06 2.64678e-07 -4.05357e-05
-1.03624e-06 3.19577e-06 -9.25513e-07 -3.82627e-05
1.97021e-06 -3.58638e-06 6.92647e-07 -3.82574e-05
2.68682e-06 -1.38295e-06 -5.58801e-07 -4.04888e-05
-1.42792e-06 2.03559e-06 -2.60433e-07 -3.98065e-05
4.69796e-07 -2.02029e-07 -1.14757e-07 -3.86503e-05
2.34481e-06 -2.33273e-06 -5.17915e-09 -3.97785e-05
4.55317e-07 -1.19401e-07 -1.43964e-07 -4.13079e-05
4.59351e-07 -1.54963e-07 -1.30452e-07 -4.02965e-05
-1.03624e-06 3.19577e-06 -9.25513e-07 -3.82627e-05
-1.63561e-06 5.84726e-06 -1.80499e-06 -3.12438e-05
2.65371e-06 -6.48888e-06 1.64364e-06 -3.12916e-05
1.97021e-06 -3.58638e-06 6.92647e-07 -3.82574e-05
-9.78376e-07 4.42785e-06 -1.47835e-06 -3.55094e-05
5.19837e-07 -3.33839e-07 -7.97136e-08 -3.16951e-05
1.94562e-06 -4.93579e-06 1.2815e-06 -3.5529e-05
4.69796e-07 -2.02029e-07 -1.14757e-07 -3.86503e-05
4.89125e-07 -2.61331e-07 -9.76261e-08 -3.59979e-05
-1.63561e-06 5.84726e-06 -1.80499e-06 -3.12438e-05
-3.3559e-06 9.67315e-06 -2.70739e-06 -1.78947e-05
4.49879e-06 -1.05781e-05 2.6054e-06 -1.78611e-05
2.65371e-06 -6.48888e-06 1.64364e-06 -3.12916e-05
-2.57308e-06 7.60517e-06 -2.15661e-06 -2.54089e-05
6.08145e-07 -4.28357e-07 -7.70522e-08 -1.73618e-05
3.65218e-06 -8.38561e-06 2.02861e-06 -2.54506e-05
5.19837e-07 -3.33839e-07 -7.97136e-08 -3.16951e-05
5.60109e-07 -4.08802e-07 -6.48457e-08 -2.54765e-05
0.000242995 0 -0.000104141 0.000139876
0.000247532 -3.44439e-05 -9.13236e-05 4.63078e-05
0.000769711 -0.00010221 -0.000286072 -3.43899e-06
0.000680279 0 -0.000291548 8.8796e-05
0.000237319 -1.46656e-05 -9.54229e-05 8.82253e-05
0.000508452 -6.84007e-05 -0.000188593 2.70807e-05
0.000737424 -5.74958e-05 -0.000291398 3.30703e-05
0.000451514 0 -0.000193506 0.000127571
0.000487132 -3.25667e-05 -0.000194814 6.30368e-05
0.000247532 -3.44439e-05 -9.13236e-05 4.63078e-05
0.000267181 -5.67357e-05 -9.01908e-05 -9.77772e-06
0.000809246 -0.000186915 -0.000266713 -3.21094e-05
0.000769711 -0.00010221 -0.000286072 -3.43899e-06
0.000261524 -4.77672e-05 -9.16101e-05 1.33269e-05
0.000534849 -0.000117322 -0.00017894 -1.77851e-05
0.000789518 -0.000147239 -0.000275263 -2.19133e-05
0.000508452 -6.84007e-05 -0.000188593 2.70807e-05
0.000522132 -9.62518e-05 -0.00018252 2.78881e-06
0.000267181 -5.67357e-05 -9.01908e-05 -9.77772e-06
0.000273095 -7.33035e-05 -8.56248e-05 -3.51873e-05
0.000829399 -0.000229826 -0.00025696 -3.75972e-05
0.000809246 -0.000186915 -0.000266713 -3.21094e-05
0.000269403 -6.55695e-05 -8.73573e-05 -2.50975e-05
0.000550364 -0.000148655 -0.000172161 -3.71019e-05
0.000824128 -0.000213514 -0.000261691 -3.71152e-05
0.000534849 -0.000117322 -0.00017894 -1.77851e-05
0.000544846 -0.000134958 -0.000175666 -3.11336e-05
0.000273095 -7.33035e-05 -8.56248e-05 -3.51873e-05
0.000276253 -8.12109e-05 -8.35896e-05 -4.42335e-05
0.000828795 -0.000246789 -0.000249431 -3.47204e-05
0.000829399 -0.000229826 -0.00025696 -3.75972e-05
0.000276097 -7.82748e-05 -8.4781e-05 -4.12515e-05
0.000553094 -0.000162709 -0.000167308 -4.13411e-05
0.00082948 -0.000240458 -0.000252438 -3.59937e-05
0.000550364 -0.000148655 -0.000172161 -3.71019e-05
0.000552685 -0.000157488 -0.00016937 -3.97703e-05
0.000276253 -8.12109e-05 -8.35896e-05 -4.42335e-05
0.000274534 -8.43459e-05 -8.1509e-05 -4.5176e-05
0.000823069 -0.000250124 -0.000245548 -3.27436e-05
0.000828795 -0.000246789 -0.000249431 -3.47204e-05
0.000275189 -8.31956e-05 -8.22831e-05 -4.52098e-05
0.000549947 -0.000167405 -0.000163947 -4.06463e-05
0.00082683 -0.000249552 -0.000247405 -3.37372e-05
0.000553094 -0.000162709 -0.000167308 -4.13411e-05
0.000552034 -0.000165851 -0.000165507 -4.14985e-05
0.000274534 -8.43459e-05 -8.1509e-05 -4.5176e-05
0.000272314 -8.44125e-05 -8.05294e-05 -4.35499e-05
0.000814921 -0.000248942 -0.000242562 -3.14172e-05
0.000823069 -0.000250124 -0.000245548 -3.27436e-05
0.000273753 -8.46332e-05 -8.10513e-05 -4.4526e-05
0.000544612 -0.000167154 -0.000161767 -3.89146e-05
0.000818703 -0.000249806 -0.000243813 -3.1879e-05
0.000549947 -0.000167405 -0.000163947 -4.06463e-05
0.000547313 -0.000167663 -0.000162707 -3.96644e-05
0.000272314 -8.44125e-05 -8.05294e-05 -4.35499e-05
0.000269424 -8.3618e-05 -7.9631e-05 -4.14623e-05
0.000807807 -0.000246223 -0.000240679 -3.09963e-05
0.000814921 -0.000248942 -0.000242562 -3.14172e-05
0.000270708 -8.40557e-05 -7.99939e-05 -4.24625e-05
0.000539341 -0.000165457 -0.000160236 -3.73789e-05
0.000811397 -0.000247665 -0.000241599 -3.11854e-05
0.000544612 -0.000167154 -0.000161767 -3.89146e-05
0.000541927 -0.000166375 -0.000160951 -3.81515e-05
0.000269424 -8.3618e-05 -7.9631e-05 -4.14623e-05
0.00026706 -8.25508e-05 -7.90755e-05 -3.9808e-05
0.000801322 -0.000243541 -0.000239049 -3.08142e-05
0.000807807 -0.000246223 -0.000240679 -3.09963e-05
0.000268271 -8.30939e-05 -7.93617e-05 -4.05729e-05
0.000534643 -0.00016344 -0.000159087 -3.63051e-05
0.000804374 -0.000244839 -0.000239801 -3.08588e-05
0.000539341 -0.000165457 -0.000160236 -3.73789e-05
0.000536898 -0.000164448 -0.000159621 -3.67538e-05
0.00026706 -8.25508e-05 -7.90755e-05 -3.9808e-05
0.00026489 -8.16088e-05 -7.85491e-05 -3.86663e-05
0.000795789 -0.000241174 -0.000237692 -3.08186e-05
0.000801322 -0.000243541 -0.000239049 -3.08142e-05
0.000265898 -8.20568e-05 -7.87889e-05 -3.917e-05
0.000530599 -0.000161668 -0.000158114 -3.56266e-05
0.000798508 -0.000242314 -0.000238369 -3.0817e-05
0.000534643 -0.00016344 -0.000159087 -3.63051e-05
0.000532551 -0.000162513 -0.000158587 -3.59369e-05
0.00026489 -8.16088e-05 -7.85491e-05 -3.86663e-05
0.000263068 -8.08059e-05 -7.81125e-05 -3.7967e-05
0.000790747 -0.000239188 -0.000236383 -3.08417e-05
0.000795789 -0.000241174 -0.000237692 -3.08186e-05
0.000263969 -8.11907e-05 -7.83337e-05 -3.82723e-05
0.000527041 -0.00016017 -0.00015723 -3.52357e-05
0.000793193 -0.000240137 -0.000237024 -3.08237e-05
0.000530599 -0.000161668 -0.000158114 -3.56266e-05
0.000528769 -0.000160887 -0.000157664 -3.53959e-05
0.000263068 -8.08059e-05 -7.81125e-05 -3.7967e-05
0.000261398 -8.01427e-05 -7.76809e-05 -3.75624e-05
0.000786103 -0.000237476 -0.000235126 -3.08813e-05
0.000790747 -0.000239188 -0.000236383 -3.08417e-05
0.000262205 -8.0459e-05 -7.78912e-05 -3.77344e-05
0.00052381 -0.000158919 -0.000156382 -3.5021e-05
0.000788401 -0.000238304 -0.000235756 -3.08642e-05
0.000527041 -0.00016017 -0.00015723 -3.52357e-05
0.000525394 -0.000159518 -0.000156804 -3.51146e-05
0.000261398 -8.01427e-05 -7.76809e-05 -3.75624e-05
0.000259865 -7.95705e-05 -7.72692e-05 -3.7345e-05
0.000781651 -0.000235952 -0.000233871 -3.09092e-05
0.000786103 -0.000237476 -0.000235126 -3.08813e-05
0.000260625 -7.98476e-05 -7.74762e-05 -3.74366e-05
0.000520776 -0.000157831 -0.000155548 -3.49124e-05
0.000783854 -0.000236695 -0.000234497 -3.08955e-05
0.00052381 -0.000158919 -0.000156382 -3.5021e-05
0.000522275 -0.000158359 -0.000155964 -3.49556e-05
0.000259865 -7.95705e-05 -7.72692e-05 -3.7345e-05
0.000258392 -7.90593e-05 -7.68569e-05 -3.72337e-05
0.000777326 -0.000234541 -0.000232622 -3.0931e-05
0.000781651 -0.000235952 -0.000233871 -3.09092e-05
0.00025912 -7.93089e-05 -7.7062e-05 -3.72795e-05
0.000517855 -0.000156847 -0.000154718 -3.48602e-05
0.000779481 -0.000235236 -0.000233248 -3.09216e-05
0.000520776 -0.000157831 -0.000155548 -3.49124e-05
0.000519305 -0.000157329 -0.000155133 -3.4882e-05
0.000258392 -7.90593e-05 -7.68569e-05 -3.72337e-05
0.000256962 -7.8583e-05 -7.6448e-05 -3.71809e-05
0.000773057 -0.000233195 -0.000231369 -3.09448e-05
0.000777326 -0.000234541 -0.000232622 -3.0931e-05
0.000257675 -7.88179e-05 -7.66528e-05 -3.72023e-05
0.000514994 -0.000155923 -0.000153888 -3.48381e-05
0.000775185 -0.000233862 -0.000231996 -3.09385e-05
0.000517855 -0.000156847 -0.000154718 -3.48602e-05
0.000516419 -0.00015638 -0.000154303 -3.48464e-05
0.000256962 -7.8583e-05 -7.6448e-05 -3.71809e-05
0.000255549 -7.81269e-05 -7.6038e-05 -3.71577e-05
0.00076882 -0.000231883 -0.000230116 -3.09539e-05
0.000773057 -0.000233195 -0.000231369 -3.09448e-05
0.000256253 -7.83531e-05 -7.62428e-05 -3.71668e-05
0.000512165 -0.000155033 -0.000153056 -3.48299e-05
0.000770936 -0.000232536 -0.000230743 -3.095e-05
0.000514994 -0.000155923 -0.000153888 -3.48381e-05
0.000513577 -0.000155475 -0.000153472 -3.4833e-05
0.000255549 -7.81269e-05 -7.6038e-05 -3.71577e-05
0.000254148 -7.76816e-05 -7.56284e-05 -3.71488e-05
0.000764597 -0.00023059 -0.00022886 -3.09595e-05
0.00076882 -0.000231883 -0.000230116 -3.09539e-05
0.000254848 -7.79033e-05 -7.58334e-05 -3.71521e-05
0.00050935 -0.000154161 -0.000152224 -3.48281e-05
0.000766707 -0.000231235 -0.000229488 -3.0957e-05
0.000512165 -0.000155033 -0.000153056 -3.48299e-05
0.000510756 -0.000154595 -0.00015264 -3.48285e-05
0.000254148 -7.76816e-05 -7.56284e-05 -3.71488e-05
0.000252751 -7.72421e-05 -7.52182e-05 -3.71461e-05
0.00076038 -0.000229306 -0.000227603 -3.09629e-05
0.000764597 -0.00023059 -0.00022886 -3.09595e-05
0.000253449 -7.74613e-05 -7.54233e-05 -3.7147e-05
0.000506543 -0.000153297 -0.000151391 -3.48285e-05
0.000762488 -0.000229947 -0.000228232 -3.09614e-05
0.00050935 -0.000154161 -0.000152224 -3.48281e-05
0.000507946 -0.000153728 -0.000151808 -3.48282e-05
0.000252751 -7.72421e-05 -7.52182e-05 -3.71461e-05
0.000251357 -7.68055e-05 -7.48078e-05 -3.7146e-05
0.000756165 -0.000228025 -0.000226346 -3.09649e-05
0.00076038 -0.000229306 -0.000227603 -3.09629e-05
0.000252054 -7.70235e-05 -7.5013e-05 -3.71459e-05
0.000503739 -0.000152438 -0.000150557 -3.48296e-05
0.000758272 -0.000228665 -0.000226975 -3.0964e-05
0.000506543 -0.000153297 -0.000151391 -3.48285e-05
0.000505141 -0.000152867 -0.000150974 -3.4829e-05
0.000251357 -7.68055e-05 -7.48078e-05 -3.7146e-05
0.000249964 -7.63706e-05 -7.43971e-05 -3.71465e-05
0.000751951 -0.000226747 -0.000225088 -3.09661e-05
0.000756165 -0.000228025 -0.000226346 -3.09649e-05
0.00025066 -7.65879e-05 -7.46025e-05 -3.71462e-05
0.000500935 -0.000151581 -0.000149723 -3.48306e-05
0.000754058 -0.000227386 -0.000225717 -3.09656e-05
0.000503739 -0.000152438 -0.000150557 -3.48296e-05
0.000502337 -0.000152009 -0.00015014 -3.48301e-05
0.000249964 -7.63706e-05 -7.43971e-05 -3.71465e-05
0.000248571 -7.59364e-05 -7.39863e-05 -3.71471e-05
0.000747737 -0.000225469 -0.000223829 -3.09667e-05
0.000751951 -0.000226747 -0.000225088 -3.09661e-05
0.000249267 -7.61534e-05 -7.41917e-05 -3.71468e-05
0.000498132 -0.000150725 -0.000148889 -3.48313e-05
0.000749844 -0.000226108 -0.000224458 -3.09664e-05
0.000500935 -0.000151581 -0.000149723 -3.48306e-05
0.000499534 -0.000151153 -0.000149306 -3.4831e-05
0.000248571 -7.59364e-05 -7.39863e-05 -3.71471e-05
0.000247179 -7.55028e-05 -7.35753e-05 -3.71476e-05
0.000743523 -0.000224192 -0.000222571 -3.0967e-05
0.000747737 -0.000225469 -0.000223829 -3.09667e-05
0.000247875 -7.57196e-05 -7.37808e-05 -3.71474e-05
0.000495329 -0.000149869 -0.000148054 -3.48317e-05
0.000745631 -0.000224831 -0.0002232 -3.09669e-05
0.000498132 -0.000150725 -0.000148889 -3.48313e-05
0.000496731 -0.000150297 -0.000148472 -3.48316e-05
0.000247179 -7.55028e-05 -7.35753e-05 -3.71476e-05
0.000245786 -7.50694e-05 -7.31642e-05 -3.71479e-05
0.000739309 -0.000222915 -0.000221312 -3.0967e-05
0.000743523 -0.000224192 -0.000222571 -3.0967e-05
0.000246482 -7.52861e-05 -7.33698e-05 -3.71478e-05
0.000492526 -0.000149013 -0.00014722 -3.4832e-05
0.000741416 -0.000223553 -0.000221941 -3.0967e-05
0.000495329 -0.000149869 -0.000148054 -3.48317e-05
0.000493928 -0.000149441 -0.000147637 -3.48319e-05
0.000245786 -7.50694e-05 -7.31642e-05 -3.71479e-05
0.000244393 -7.46362e-05 -7.27531e-05 -3.7148e-05
0.000735095 -0.000221638 -0.000220053 -3.0967e-05
0.000739309 -0.000222915 -0.000221312 -3.0967e-05
0.00024509 -7.48528e-05 -7.29587e-05 -3.71479e-05
0.000489723 -0.000148158 -0.000146385 -3.4832e-05
0.000737202 -0.000222276 -0.000220683 -3.0967e-05
0.000492526 -0.000149013 -0.00014722 -3.4832e-05
0.000491125 -0.000148586 -0.000146802 -3.4832e-05
0.000244393 -7.46362e-05 -7.27531e-05 -3.7148e-05
0.000243001 -7.42032e-05 -7.23418e-05 -3.7148e-05
0.00073088 -0.000220361 -0.000218794 -3.09669e-05
0.000735095 -0.000221638 -0.000220053 -3.0967e-05
0.000243697 -7.44197e-05 -7.25474e-05 -3.7148e-05
0.00048692 -0.000147303 -0.00014555 -3.4832e-05
0.000732988 -0.000220999 -0.000219424 -3.0967e-05
0.000489723 -0.000148158 -0.000146385 -3.4832e-05
0.000488321 -0.00014773 -0.000145968 -3.4832e-05
0.000243001 -7.42032e-05 -7.23418e-05 -3.7148e-05
0.000241608 -7.37702e-05 -7.19304e-05 -3.7148e-05
0.000726666 -0.000219084 -0.000217535 -3.09668e-05
0.00073088 -0.000220361 -0.000218794 -3.09669e-05
0.000242304 -7.39867e-05 -7.21361e-05 -3.7148e-05
0.000484116 -0.000146447 -0.000144715 -3.48319e-05
0.000728773 -0.000219722 -0.000218165 -3.09668e-05
0.00048692 -0.000147303 -0.00014555 -3.4832e-05
0.000485518 -0.000146875 -0.000145133 -3.4832e-05
0.000241608 -7.37702e-05 -7.19304e-05 -3.7148e-05
0.000240215 -7.33374e-05 -7.1519e-05 -3.71479e-05
0.000722451 -0.000217807 -0.000216276 -3.09666e-05
0.000726666 -0.000219084 -0.000217535 -3.09668e-05
0.000240911 -7.35538e-05 -7.17247e-05 -3.71479e-05
0.000481313 -0.000145592 -0.00014388 -3.48318e-05
0.000724558 -0.000218445 -0.000216906 -3.09667e-05
0.000484116 -0.000146447 -0.000144715 -3.48319e-05
0.000482714 -0.00014602 -0.000144298 -3.48318e-05
0.000240215 -7.33374e-05 -7.1519e-05 -3.71479e-05
0.000238822 -7.29046e-05 -7.11075e-05 -3.71477e-05
0.000718236 -0.00021653 -0.000215017 -3.09664e-05
0.000722451 -0.000217807 -0.000216276 -3.09666e-05
0.000239519 -7.3121e-05 -7.13132e-05 -3.71478e-05
0.000478509 -0.000144737 -0.000143045 -3.48316e-05
0.000720343 -0.000217168 -0.000215647 -3.09665e-05
0.000481313 -0.000145592 -0.00014388 -3.48318e-05
0.000479911 -0.000145165 -0.000143463 -3.48317e-05
0.000238822 -7.29046e-05 -7.11075e-05 -3.71477e-05
0.000237429 -7.24719e-05 -7.06959e-05 -3.71476e-05
0.000714021 -0.000215253 -0.000213758 -3.09662e-05
0.000718236 -0.00021653 -0.000215017 -3.09664e-05
0.000238126 -7.26882e-05 -7.09017e-05 -3.71477e-05
0.000475705 -0.000143882 -0.00014221 -3.48315e-05
0.000716129 -0.000215891 -0.000214387 -3.09663e-05
0.000478509 -0.000144737 -0.000143045 -3.48316e-05
0.000477107 -0.00014431 -0.000142627 -3.48315e-05
0.000237429 -7.24719e-05 -7.06959e-05 -3.71476e-05
0.000236036 -7.20392e-05 -7.02842e-05 -3.71475e-05
0.000709806 -0.000213976 -0.000212499 -3.0966e-05
0.000714021 -0.000215253 -0.000213758 -3.09662e-05
0.000236732 -7.22555e-05 -7.04901e-05 -3.71476e-05
0.000472901 -0.000143027 -0.000141375 -3.48313e-05
0.000711914 -0.000214614 -0.000213128 -3.09661e-05
0.000475705 -0.000143882 -0.00014221 -3.48315e-05
0.000474303 -0.000143455 -0.000141792 -3.48314e-05
0.000236036 -7.20392e-05 -7.02842e-05 -3.71475e-05
0.000234642 -7.16066e-05 -6.98725e-05 -3.71474e-05
0.000705591 -0.000212699 -0.000211239 -3.09659e-05
0.000709806 -0.000213976 -0.000212499 -3.0966e-05
0.000235339 -7.18229e-05 -7.00784e-05 -3.71474e-05
0.000470097 -0.000142172 -0.000140539 -3.48311e-05
0.000707699 -0.000213337 -0.000211869 -3.0966e-05
0.000472901 -0.000143027 -0.000141375 -3.48313e-05
0.000471499 -0.0001426 -0.000140957 -3.48312e-05
0.000234642 -7.16066e-05 -6.98725e-05 -3.71474e-05
0.000233249 -7.1174e-05 -6.94607e-05 -3.71472e-05
0.000701376 -0.000211422 -0.00020998 -3.09657e-05
0.000705591 -0.000212699 -0.000211239 -3.09659e-05
0.000233946 -7.13903e-05 -6.96666e-05 -3.71473e-05
0.000467293 -0.000141317 -0.000139704 -3.4831e-05
0.000703483 -0.000212061 -0.00021061 -3.09658e-05
0.000470097 -0.000142172 -0.000140539 -3.48311e-05
0.000468695 -0.000141745 -0.000140122 -3.4831e-05
0.000233249 -7.1174e-05 -6.94607e-05 -3.71472e-05
0.000231856 -7.07415e-05 -6.90489e-05 -3.71471e-05
0.000697161 -0.000210146 -0.000208721 -3.09655e-05
0.000701376 -0.000211422 -0.00020998 -3.09657e-05
0.000232552 -7.09578e-05 -6.92548e-05 -3.71471e-05
0.000464489 -0.000140463 -0.000138869 -3.48308e-05
0.000699268 -0.000210784 -0.00020935 -3.09656e-05
0.000467293 -0.000141317 -0.000139704 -3.4831e-05
0.000465891 -0.00014089 -0.000139286 -3.48309e-05
0.000231856 -7.07415e-05 -6.90489e-05 -3.71471e-05
0.000230462 -7.03091e-05 -6.8637e-05 -3.71469e-05
0.000692945 -0.000208869 -0.000207461 -3.09653e-05
0.000697161 -0.000210146 -0.000208721 -3.09655e-05
0.000231159 -7.05253e-05 -6.88429e-05 -3.7147e-05
0.000461685 -0.000139608 -0.000138033 -3.48306e-05
0.000695053 -0.000209507 -0.000208091 -3.09654e-05
0.000464489 -0.000140463 -0.000138869 -3.48308e-05
0.000463087 -0.000140035 -0.000138451 -3.48307e-05
0.000230462 -7.03091e-05 -6.8637e-05 -3.71469e-05
0.000229068 -6.98767e-05 -6.8225e-05 -3.71468e-05
0.00068873 -0.000207592 -0.000206202 -3.09651e-05
0.000692945 -0.000208869 -0.000207461 -3.09653e-05
0.000229765 -7.00929e-05 -6.8431e-05 -3.71469e-05
0.000458881 -0.000138753 -0.000137198 -3.48305e-05
0.000690837 -0.000208231 -0.000206831 -3.09652e-05
0.000461685 -0.000139608 -0.000138033 -3.48306e-05
0.000460283 -0.00013918 -0.000137615 -3.48305e-05
0.000229068 -6.98767e-05 -6.8225e-05 -3.71468e-05
0.000227675 -6.94444e-05 -6.7813e-05 -3.71466e-05
0.000684514 -0.000206316 -0.000204942 -3.0965e-05
0.00068873 -0.000207592 -0.000206202 -3.09651e-05
0.000228371 -6.96605e-05 -6.8019e-05 -3.71467e-05
0.000456076 -0.000137898 -0.000136362 -3.48303e-05
0.000686622 -0.000206954 -0.000205572 -3.0965e-05
0.000458881 -0.000138753 -0.000137198 -3.48305e-05
0.000457478 -0.000138326 -0.00013678 -3.48304e-05
0.000227675 -6.94444e-05 -6.7813e-05 -3.71466e-05
0.000226281 -6.90121e-05 -6.74009e-05 -3.71465e-05
0.000680299 -0.000205039 -0.000203683 -3.09648e-05
0.000684514 -0.000206316 -0.000204942 -3.0965e-05
0.000226978 -6.92282e-05 -6.76069e-05 -3.71466e-05
0.000453272 -0.000137044 -0.000135526 -3.48301e-05
0.000682406 -0.000205678 -0.000204312 -3.09649e-05
0.000456076 -0.000137898 -0.000136362 -3.48303e-05
0.000454674 -0.000137471 -0.000135944 -3.48302e-05
0.000226281 -6.90121e-05 -6.74009e-05 -3.71465e-05
0.000224887 -6.85799e-05 -6.69887e-05 -3.71464e-05
0.000676083 -0.000203763 -0.000202423 -3.09646e-05
0.000680299 -0.000205039 -0.000203683 -3.09648e-05
0.000225584 -6.8796e-05 -6.71948e-05 -3.71464e-05
0.000450467 -0.000136189 -0.000134691 -3.48299e-05
0.000678191 -0.000204401 -0.000203053 -3.09647e-05
0.000453272 -0.000137044 -0.000135526 -3.48301e-05
0.000451869 -0.000136616 -0.000135108 -3.483e-05
0.000224887 -6.85799e-05 -6.69887e-05 -3.71464e-05
0.000223493 -6.81477e-05 -6.65764e-05 -3.71462e-05
0.000671867 -0.000202486 -0.000201163 -3.09644e-05
0.000676083 -0.000203763 -0.000202423 -3.09646e-05
0.00022419 -6.83638e-05 -6.67826e-05 -3.71463e-05
0.000447662 -0.000135335 -0.000133855 -3.48298e-05
0.000673975 -0.000203125 -0.000201793 -3.09645e-05
0.000450467 -0.000136189 -0.000134691 -3.48299e-05
0.000449065 -0.000135762 -0.000134273 -3.48299e-05
0.000223493 -6.81477e-05 -6.65764e-05 -3.71462e-05
0.000222099 -6.77156e-05 -6.61641e-05 -3.71461e-05
0.000667652 -0.00020121 -0.000199904 -3.09642e-05
0.000671867 -0.000202486 -0.000201163 -3.09644e-05
0.000222796 -6.79316e-05 -6.63703e-05 -3.71461e-05
0.000444858 -0.00013448 -0.000133019 -3.48296e-05
0.000669759 -0.000201848 -0.000200533 -3.09643e-05
0.000447662 -0.000135335 -0.000133855 -3.48298e-05
0.00044626 -0.000134907 -0.000133437 -3.48297e-05
0.000222099 -6.77156e-05 -6.61641e-05 -3.71461e-05
0.000220704 -6.72835e-05 -6.57518e-05 -3.71459e-05
0.000663436 -0.000199934 -0.000198644 -3.0964e-05
0.000667652 -0.00020121 -0.000199904 -3.09642e-05
0.000221401 -6.74995e-05 -6.5958e-05 -3.7146e-05
0.000442053 -0.000133626 -0.000132183 -3.48294e-05
0.000665544 -0.000200572 -0.000199274 -3.09641e-05
0.000444858 -0.00013448 -0.000133019 -3.48296e-05
0.000443455 -0.000134053 -0.000132601 -3.48295e-05
0.000220704 -6.72835e-05 -6.57518e-05 -3.71459e-05
0.00021931 -6.68515e-05 -6.53393e-05 -3.71458e-05
0.00065922 -0.000198657 -0.000197384 -3.09639e-05
0.000663436 -0.000199934 -0.000198644 -3.0964e-05
0.000220007 -6.70675e-05 -6.55456e-05 -3.71458e-05
0.000439248 -0.000132771 -0.000131347 -3.48292e-05
0.000661328 -0.000199296 -0.000198014 -3.0964e-05
0.000442053 -0.000133626 -0.000132183 -3.48294e-05
0.00044065 -0.000133199 -0.000131765 -3.48293e-05
0.00021931 -6.68515e-05 -6.53393e-05 -3.71458e-05
0.000217916 -6.64196e-05 -6.49268e-05 -3.71456e-05
0.000655004 -0.000197381 -0.000196124 -3.09637e-05
0.00065922 -0.000198657 -0.000197384 -3.09639e-05
0.000218613 -6.66356e-05 -6.51331e-05 -3.71457e-05
0.000436443 -0.000131917 -0.000130511 -3.48291e-05
0.000657112 -0.000198019 -0.000196754 -3.09638e-05
0.000439248 -0.000132771 -0.000131347 -3.48292e-05
0.000437845 -0.000132344 -0.000130929 -3.48292e-05
0.000217916 -6.64196e-05 -6.49268e-05 -3.71456e-05
0.000216521 -6.59877e-05 -6.45143e-05 -3.71454e-05
0.000650788 -0.000196105 -0.000194864 -3.09635e-05
0.000655004 -0.000197381 -0.000196124 -3.09637e-05
0.000217218 -6.62036e-05 -6.47206e-05 -3.71455e-05
0.000433638 -0.000131063 -0.000129675 -3.48289e-05
0.000652896 -0.000196743 -0.000195494 -3.09636e-05
0.000436443 -0.000131917 -0.000130511 -3.48291e-05
0.00043504 -0.00013149 -0.000130093 -3.4829e-05
0.000216521 -6.59877e-05 -6.45143e-05 -3.71454e-05
0.000215126 -6.55559e-05 -6.41017e-05 -3.71453e-05
0.000646571 -0.000194829 -0.000193604 -3.09633e-05
0.000650788 -0.000196105 -0.000194864 -3.09635e-05
0.000215824 -6.57718e-05 -6.4308e-05 -3.71454e-05
0.000430833 -0.000130209 -0.000128839 -3.48287e-05
0.00064868 -0.000195467 -0.000194234 -3.09634e-05
0.000433638 -0.000131063 -0.000129675 -3.48289e-05
0.000432235 -0.000130636 -0.000129257 -3.48288e-05
0.000215126 -6.55559e-05 -6.41017e-05 -3.71453e-05
0.000213732 -6.51241e-05 -6.3689e-05 -3.71451e-05
0.000642355 -0.000193553 -0.000192344 -3.09631e-05
0.000646571 -0.000194829 -0.000193604 -3.09633e-05
0.000214429 -6.534e-05 -6.38953e-05 -3.71452e-05
0.000428027 -0.000129355 -0.000128003 -3.48285e-05
0.000644463 -0.000194191 -0.000192974 -3.09632e-05
0.000430833 -0.000130209 -0.000128839 -3.48287e-05
0.00042943 -0.000129782 -0.000128421 -3.48286e-05
0.000213732 -6.51241e-05 -6.3689e-05 -3.71451e-05
0.000212337 -6.46924e-05 -6.32762e-05 -3.7145e-05
0.000638139 -0.000192277 -0.000191084 -3.09629e-05
0.000642355 -0.000193553 -0.000192344 -3.09631e-05
0.000213034 -6.49083e-05 -6.34826e-05 -3.7145e-05
0.000425222 -0.0001285 -0.000127166 -3.48283e-05
0.000640247 -0.000192915 -0.000191714 -3.0963e-05
0.000428027 -0.000129355 -0.000128003 -3.48285e-05
0.000426625 -0.000128928 -0.000127585 -3.48284e-05
0.000212337 -6.46924e-05 -6.32762e-05 -3.7145e-05
0.000210942 -6.42608e-05 -6.28634e-05 -3.71448e-05
0.000633923 -0.000191001 -0.000189824 -3.09627e-05
0.000638139 -0.000192277 -0.000191084 -3.09629e-05
0.000211639 -6.44766e-05 -6.30698e-05 -3.71449e-05
0.000422417 -0.000127646 -0.00012633 -3.48282e-05
0.000636031 -0.000191639 -0.000190454 -3.09628e-05
0.000425222 -0.0001285 -0.000127166 -3.48283e-05
0.000423819 -0.000128073 -0.000126748 -3.48282e-05
0.000210942 -6.42608e-05 -6.28634e-05 -3.71448e-05
0.000209547 -6.38292e-05 -6.24505e-05 -3.71446e-05
0.000629706 -0.000189725 -0.000188563 -3.09625e-05
0.000633923 -0.000191001 -0.000189824 -3.09627e-05
0.000210244 -6.4045e-05 -6.26569e-05 -3.71447e-05
0.000419611 -0.000126792 -0.000125494 -3.4828e-05
0.000631814 -0.000190363 -0.000189194 -3.09626e-05
0.000422417 -0.000127646 -0.00012633 -3.48282e-05
0.000421014 -0.000127219 -0.000125912 -3.48281e-05
0.000209547 -6.38292e-05 -6.24505e-05 -3.71446e-05
0.000208152 -6.33976e-05 -6.20375e-05 -3.71445e-05
0.00062549 -0.000188449 -0.000187303 -3.09623e-05
0.000629706 -0.000189725 -0.000188563 -3.09625e-05
0.000208849 -6.36134e-05 -6.2244e-05 -3.71446e-05
0.000416805 -0.000125939 -0.000124657 -3.48278e-05
0.000627598 -0.000189087 -0.000187933 -3.09624e-05
0.000419611 -0.000126792 -0.000125494 -3.4828e-05
0.000418208 -0.000126366 -0.000125075 -3.48279e-05
0.000208152 -6.33976e-05 -6.20375e-05 -3.71445e-05
0.000206757 -6.29662e-05 -6.16245e-05 -3.71443e-05
0.000621273 -0.000187173 -0.000186043 -3.09621e-05
0.00062549 -0.000188449 -0.000187303 -3.09623e-05
0.000207454 -6.31819e-05 -6.1831e-05 -3.71444e-05
0.000414 -0.000125085 -0.000123821 -3.48276e-05
0.000623381 -0.000187811 -0.000186673 -3.09622e-05
0.000416805 -0.000125939 -0.000124657 -3.48278e-05
0.000415403 -0.000125512 -0.000124239 -3.48277e-05
0.000206757 -6.29662e-05 -6.16245e-05 -3.71443e-05
0.000205361 -6.25347e-05 -6.12114e-05 -3.71441e-05
0.000617056 -0.000185897 -0.000184782 -3.09619e-05
0.000621273 -0.000187173 -0.000186043 -3.09621e-05
0.000206059 -6.27504e-05 -6.1418e-05 -3.71442e-05
0.000411194 -0.000124231 -0.000122984 -3.48274e-05
0.000619165 -0.000186535 -0.000185413 -3.0962e-05
0.000414 -0.000125085 -0.000123821 -3.48276e-05
0.000412597 -0.000124658 -0.000123402 -3.48275e-05
0.000205361 -6.25347e-05 -6.12114e-05 -3.71441e-05
0.000203966 -6.21034e-05 -6.07983e-05 -3.7144e-05
0.00061284 -0.000184622 -0.000183522 -3.09617e-05
0.000617056 -0.000185897 -0.000184782 -3.09619e-05
0.000204664 -6.23191e-05 -6.10049e-05 -3.7144e-05
0.000408388 -0.000123377 -0.000122148 -3.48272e-05
0.000614948 -0.00018526 -0.000184152 -3.09618e-05
0.000411194 -0.000124231 -0.000122984 -3.48274e-05
0.000409791 -0.000123804 -0.000122566 -3.48273e-05
0.000203966 -6.21034e-05 -6.07983e-05 -3.7144e-05
0.000202571 -6.16721e-05 -6.03851e-05 -3.71438e-05
0.000608623 -0.000183346 -0.000182261 -3.09615e-05
0.00061284 -0.000184622 -0.000183522 -3.09617e-05
0.000203268 -6.18877e-05 -6.05917e-05 -3.71439e-05
0.000405582 -0.000122523 -0.000121311 -3.4827e-05
0.000610731 -0.000183984 -0.000182892 -3.09616e-05
0.000408388 -0.000123377 -0.000122148 -3.48272e-05
0.000406985 -0.00012295 -0.000121729 -3.48271e-05
0.000202571 -6.16721e-05 -6.03851e-05 -3.71438e-05
0.000201175 -6.12408e-05 -5.99718e-05 -3.71436e-05
0.000604406 -0.00018207 -0.000181001 -3.09613e-05
0.000608623 -0.000183346 -0.000182261 -3.09615e-05
0.000201873 -6.14564e-05 -6.01785e-05 -3.71437e-05
0.000402776 -0.00012167 -0.000120474 -3.48268e-05
0.000606514 -0.000182708 -0.000181631 -3.09614e-05
0.000405582 -0.000122523 -0.000121311 -3.4827e-05
0.000404179 -0.000122097 -0.000120893 -3.48269e-05
0.000201175 -6.12408e-05 -5.99718e-05 -3.71436e-05
0.000199779 -6.08096e-05 -5.95585e-05 -3.71434e-05
0.000600189 -0.000180795 -0.00017974 -3.09611e-05
0.000604406 -0.00018207 -0.000181001 -3.09613e-05
0.000200477 -6.10252e-05 -5.97651e-05 -3.71435e-05
0.00039997 -0.000120816 -0.000119637 -3.48266e-05
0.000602297 -0.000181433 -0.000180371 -3.09612e-05
0.000402776 -0.00012167 -0.000120474 -3.48268e-05
0.000401373 -0.000121243 -0.000120056 -3.48267e-05
0.000199779 -6.08096e-05 -5.95585e-05 -3.71434e-05
0.000198384 -6.03785e-05 -5.91451e-05 -3.71433e-05
0.000595972 -0.000179519 -0.00017848 -3.09609e-05
0.000600189 -0.000180795 -0.00017974 -3.09611e-05
0.000199082 -6.05941e-05 -5.93518e-05 -3.71434e-05
0.000397164 -0.000119963 -0.000118801 -3.48264e-05
0.00059808 -0.000180157 -0.00017911 -3.0961e-05
0.00039997 -0.000120816 -0.000119637 -3.48266e-05
0.000398567 -0.000120389 -0.000119219 -3.48265e-05
0.000198384 -6.03785e-05 -5.91451e-05 -3.71433e-05
0.000196988 -5.99474e-05 -5.87316e-05 -3.71431e-05
0.000591755 -0.000178244 -0.000177219 -3.09607e-05
0.000595972 -0.000179519 -0.00017848 -3.09609e-05
0.000197686 -6.0163e-05 -5.89383e-05 -3.71432e-05
0.000394358 -0.000119109 -0.000117964 -3.48262e-05
0.000593863 -0.000178882 -0.000177849 -3.09608e-05
0.000397164 -0.000119963 -0.000118801 -3.48264e-05
0.000395761 -0.000119536 -0.000118382 -3.48263e-05
0.000196988 -5.99474e-05 -5.87316e-05 -3.71431e-05
0.000195592 -5.95164e-05 -5.83181e-05 -3.71429e-05
0.000587538 -0.000176968 -0.000175958 -3.09605e-05
0.000591755 -0.000178244 -0.000177219 -3.09607e-05
0.00019629 -5.97319e-05 -5.85248e-05 -3.7143e-05
0.000391551 -0.000118256 -0.000117127 -3.4826e-05
0.000589646 -0.000177606 -0.000176589 -3.09606e-05
0.000394358 -0.000119109 -0.000117964 -3.48262e-05
0.000392955 -0.000118683 -0.000117545 -3.48261e-05
0.000195592 -5.95164e-05 -5.83181e-05 -3.71429e-05
0.000194196 -5.90855e-05 -5.79045e-05 -3.71427e-05
0.00058332 -0.000175693 -0.000174697 -3.09603e-05
0.000587538 -0.000176968 -0.000175958 -3.09605e-05
0.000194894 -5.9301e-05 -5.81113e-05 -3.71428e-05
0.000388745 -0.000117403 -0.00011629 -3.48258e-05
0.000585429 -0.000176331 -0.000175328 -3.09604e-05
0.000391551 -0.000118256 -0.000117127 -3.4826e-05
0.000390148 -0.000117829 -0.000116708 -3.48259e-05
0.000194196 -5.90855e-05 -5.79045e-05 -3.71427e-05
0.0001928 -5.86546e-05 -5.74908e-05 -3.71426e-05
0.000579103 -0.000174418 -0.000173437 -3.09601e-05
0.00058332 -0.000175693 -0.000174697 -3.09603e-05
0.000193498 -5.887e-05 -5.76976e-05 -3.71426e-05
0.000385938 -0.000116549 -0.000115452 -3.48256e-05
0.000581212 -0.000175055 -0.000174067 -3.09602e-05
0.000388745 -0.000117403 -0.00011629 -3.48258e-05
0.000387342 -0.000116976 -0.000115871 -3.48257e-05
0.0001928 -5.86546e-05 -5.74908e-05 -3.71426e-05
0.000191404 -5.82237e-05 -5.70771e-05 -3.71424e-05
0.000574886 -0.000173142 -0.000172176 -3.09599e-05
0.000579103 -0.000174418 -0.000173437 -3.09601e-05
0.000192102 -5.84392e-05 -5.72839e-05 -3.71425e-05
0.000383132 -0.000115696 -0.000114615 -3.48254e-05
0.000576994 -0.00017378 -0.000172806 -3.096e-05
0.000385938 -0.000116549 -0.000115452 -3.48256e-05
0.000384535 -0.000116123 -0.000115034 -3.48255e-05
0.000191404 -5.82237e-05 -5.70771e-05 -3.71424e-05
0.000190007 -5.7793e-05 -5.66633e-05 -3.71422e-05
0.000570668 -0.000171867 -0.000170915 -3.09597e-05
0.000574886 -0.000173142 -0.000172176 -3.09599e-05
0.000190705 -5.80084e-05 -5.68702e-05 -3.71423e-05
0.000380325 -0.000114843 -0.000113778 -3.48252e-05
0.000572777 -0.000172505 -0.000171545 -3.09598e-05
0.000383132 -0.000115696 -0.000114615 -3.48254e-05
0.000381728 -0.000115269 -0.000114197 -3.48253e-05
0.000190007 -5.7793e-05 -5.66633e-05 -3.71422e-05
0.000188611 -5.73622e-05 -5.62494e-05 -3.7142e-05
0.000566451 -0.000170592 -0.000169654 -3.09595e-05
0.000570668 -0.000171867 -0.000170915 -3.09597e-05
0.000189309 -5.75776e-05 -5.64563e-05 -3.71421e-05
0.000377518 -0.00011399 -0.000112941 -3.4825e-05
0.00056856 -0.00017123 -0.000170284 -3.09596e-05
0.000380325 -0.000114843 -0.000113778 -3.48252e-05
0.000378922 -0.000114416 -0.00011336 -3.48251e-05
0.000188611 -5.73622e-05 -5.62494e-05 -3.7142e-05
0.000187214 -5.69316e-05 -5.58355e-05 -3.71418e-05
0.000562233 -0.000169317 -0.000168393 -3.09593e-05
0.000566451 -0.000170592 -0.000169654 -3.09595e-05
0.000187913 -5.71469e-05 -5.60424e-05 -3.71419e-05
0.000374711 -0.000113137 -0.000112104 -3.48248e-05
0.000564342 -0.000169954 -0.000169023 -3.09594e-05
0.000377518 -0.00011399 -0.000112941 -3.4825e-05
0.000376115 -0.000113563 -0.000112522 -3.48249e-05
0.000187214 -5.69316e-05 -5.58355e-05 -3.71418e-05
0.000185818 -5.6501e-05 -5.54215e-05 -3.71417e-05
0.000558016 -0.000168042 -0.000167132 -3.0959e-05
0.000562233 -0.000169317 -0.000168393 -3.09593e-05
0.000186516 -5.67163e-05 -5.56285e-05 -3.71417e-05
0.000371905 -0.000112284 -0.000111266 -3.48246e-05
0.000560124 -0.000168679 -0.000167762 -3.09592e-05
0.000374711 -0.000113137 -0.000112104 -3.48248e-05
0.000373308 -0.00011271 -0.000111685 -3.48247e-05
0.000185818 -5.6501e-05 -5.54215e-05 -3.71417e-05
0.000184421 -5.60704e-05 -5.50074e-05 -3.71415e-05
0.000553798 -0.000166767 -0.00016587 -3.09588e-05
0.000558016 -0.000168042 -0.000167132 -3.0959e-05
0.000185119 -5.62857e-05 -5.52145e-05 -3.71416e-05
0.000369097 -0.000111431 -0.000110429 -3.48244e-05
0.000555907 -0.000167404 -0.000166501 -3.09589e-05
0.000371905 -0.000112284 -0.000111266 -3.48246e-05
0.000370501 -0.000111857 -0.000110847 -3.48245e-05
0.000184421 -5.60704e-05 -5.50074e-05 -3.71415e-05
0.000183024 -5.564e-05 -5.45933e-05 -3.71413e-05
0.00054958 -0.000165492 -0.000164609 -3.09586e-05
0.000553798 -0.000166767 -0.00016587 -3.09588e-05
0.000183723 -5.58552e-05 -5.48004e-05 -3.71414e-05
0.00036629 -0.000110578 -0.000109591 -3.48242e-05
0.000551689 -0.000166129 -0.00016524 -3.09587e-05
0.000369097 -0.000111431 -0.000110429 -3.48244e-05
0.000367694 -0.000111004 -0.00011001 -3.48243e-05
0.000183024 -5.564e-05 -5.45933e-05 -3.71413e-05
0.000181627 -5.52095e-05 -5.41791e-05 -3.71411e-05
0.000545362 -0.000164217 -0.000163348 -3.09584e-05
0.00054958 -0.000165492 -0.000164609 -3.09586e-05
0.000182326 -5.54247e-05 -5.43862e-05 -3.71412e-05
0.000363483 -0.000109725 -0.000108754 -3.4824e-05
0.000547471 -0.000164854 -0.000163979 -3.09585e-05
0.00036629 -0.000110578 -0.000109591 -3.48242e-05
0.000364887 -0.000110151 -0.000109172 -3.48241e-05
0.000181627 -5.52095e-05 -5.41791e-05 -3.71411e-05
0.000180231 -5.47792e-05 -5.37649e-05 -3.71409e-05
0.000541144 -0.000162942 -0.000162087 -3.09582e-05
0.000545362 -0.000164217 -0.000163348 -3.09584e-05
0.000180929 -5.49943e-05 -5.3972e-05 -3.7141e-05
0.000360676 -0.000108872 -0.000107916 -3.48238e-05
0.000543253 -0.000163579 -0.000162717 -3.09583e-05
0.000363483 -0.000109725 -0.000108754 -3.4824e-05
0.00036208 -0.000109298 -0.000108335 -3.48239e-05
0.000180231 -5.47792e-05 -5.37649e-05 -3.71409e-05
0.000178833 -5.43488e-05 -5.33506e-05 -3.71407e-05
0.000536926 -0.000161667 -0.000160825 -3.0958e-05
0.000541144 -0.000162942 -0.000162087 -3.09582e-05
0.000179532 -5.4564e-05 -5.35577e-05 -3.71408e-05
0.000357869 -0.000108019 -0.000107078 -3.48236e-05
0.000539035 -0.000162305 -0.000161456 -3.09581e-05
0.000360676 -0.000108872 -0.000107916 -3.48238e-05
0.000359272 -0.000108446 -0.000107497 -3.48237e-05
0.000178833 -5.43488e-05 -5.33506e-05 -3.71407e-05
0.000177436 -5.39186e-05 -5.29362e-05 -3.71405e-05
0.000532708 -0.000160392 -0.000159564 -3.09578e-05
0.000536926 -0.000161667 -0.000160825 -3.0958e-05
0.000178135 -5.41337e-05 -5.31434e-05 -3.71406e-05
0.000355061 -0.000107167 -0.000106241 -3.48234e-05
0.000534817 -0.00016103 -0.000160195 -3.09579e-05
0.000357869 -0.000108019 -0.000107078 -3.48236e-05
0.000356465 -0.000107593 -0.000106659 -3.48235e-05
0.000177436 -5.39186e-05 -5.29362e-05 -3.71405e-05
0.000176039 -5.34884e-05 -5.25217e-05 -3.71404e-05
0.00052849 -0.000159118 -0.000158302 -3.09576e-05
0.000532708 -0.000160392 -0.000159564 -3.09578e-05
0.000176738 -5.37035e-05 -5.2729e-05 -3.71404e-05
0.000352254 -0.000106314 -0.000105403 -3.48232e-05
0.000530599 -0.000159755 -0.000158933 -3.09577e-05
0.000355061 -0.000107167 -0.000106241 -3.48234e-05
0.000353657 -0.00010674 -0.000105822 -3.48233e-05
0.000176039 -5.34884e-05 -5.25217e-05 -3.71404e-05
0.000174642 -5.30583e-05 -5.21072e-05 -3.71402e-05
0.000524272 -0.000157843 -0.000157041 -3.09573e-05
0.00052849 -0.000159118 -0.000158302 -3.09576e-05
0.00017534 -5.32733e-05 -5.23145e-05 -3.71403e-05
0.000349446 -0.000105461 -0.000104565 -3.4823e-05
0.000526381 -0.00015848 -0.000157672 -3.09575e-05
0.000352254 -0.000106314 -0.000105403 -3.48232e-05
0.00035085 -0.000105888 -0.000104984 -3.48231e-05
0.000174642 -5.30583e-05 -5.21072e-05 -3.71402e-05
0.000173244 -5.26282e-05 -5.16926e-05 -3.714e-05
0.000520053 -0.000156568 -0.000155779 -3.09571e-05
0.000524272 -0.000157843 -0.000157041 -3.09573e-05
0.000173943 -5.28432e-05 -5.18999e-05 -3.71401e-05
0.000346638 -0.000104609 -0.000103727 -3.48228e-05
0.000522163 -0.000157206 -0.00015641 -3.09572e-05
0.000349446 -0.000105461 -0.000104565 -3.4823e-05
0.000348042 -0.000105035 -0.000104146 -3.48229e-05
0.000173244 -5.26282e-05 -5.16926e-05 -3.714e-05
0.000171847 -5.21982e-05 -5.1278e-05 -3.71398e-05
0.000515835 -0.000155294 -0.000154518 -3.09569e-05
0.000520053 -0.000156568 -0.000155779 -3.09571e-05
0.000172546 -5.24132e-05 -5.14853e-05 -3.71399e-05
0.000343831 -0.000103756 -0.000102889 -3.48225e-05
0.000517944 -0.000155931 -0.000155148 -3.0957e-05
0.000346638 -0.000104609 -0.000103727 -3.48228e-05
0.000345234 -0.000104183 -0.000103308 -3.48226e-05
0.000171847 -5.21982e-05 -5.1278e-05 -3.71398e-05
0.000170449 -5.17682e-05 -5.08633e-05 -3.71396e-05
0.000511617 -0.000154019 -0.000153256 -3.09567e-05
0.000515835 -0.000155294 -0.000154518 -3.09569e-05
0.000171148 -5.19832e-05 -5.10707e-05 -3.71397e-05
0.000341023 -0.000102904 -0.000102051 -3.48223e-05
0.000513726 -0.000154657 -0.000153887 -3.09568e-05
0.000343831 -0.000103756 -0.000102889 -3.48225e-05
0.000342427 -0.00010333 -0.00010247 -3.48224e-05
0.000170449 -5.17682e-05 -5.08633e-05 -3.71396e-05
0.000169052 -5.13383e-05 -5.04485e-05 -3.71394e-05
0.000507398 -0.000152745 -0.000151994 -3.09565e-05
0.000511617 -0.000154019 -0.000153256 -3.09567e-05
0.00016975 -5.15533e-05 -5.06559e-05 -3.71395e-05
0.000338215 -0.000102052 -0.000101213 -3.48221e-05
0.000509507 -0.000153382 -0.000152625 -3.09566e-05
0.000341023 -0.000102904 -0.000102051 -3.48223e-05
0.000339619 -0.000102478 -0.000101632 -3.48222e-05
0.000169052 -5.13383e-05 -5.04485e-05 -3.71394e-05
0.000167654 -5.09085e-05 -5.00337e-05 -3.71392e-05
0.000503179 -0.000151471 -0.000150732 -3.09563e-05
0.000507398 -0.000152745 -0.000151994 -3.09565e-05
0.000168353 -5.11234e-05 -5.02411e-05 -3.71393e-05
0.000335407 -0.000101199 -0.000100375 -3.48219e-05
0.000505289 -0.000152108 -0.000151363 -3.09564e-05
0.000338215 -0.000102052 -0.000101213 -3.48221e-05
0.000336811 -0.000101625 -0.000100794 -3.4822e-05
0.000167654 -5.09085e-05 -5.00337e-05 -3.71392e-05
0.000166256 -5.04787e-05 -4.96188e-05 -3.7139e-05
0.000498961 -0.000150196 -0.000149471 -3.09561e-05
0.000503179 -0.000151471 -0.000150732 -3.09563e-05
0.000166955 -5.06936e-05 -4.98262e-05 -3.71391e-05
0.000332599 -0.000100347 -9.95364e-05 -3.48217e-05
0.00050107 -0.000150833 -0.000150101 -3.09562e-05
0.000335407 -0.000101199 -0.000100375 -3.48219e-05
0.000334003 -0.000100773 -9.99555e-05 -3.48218e-05
0.000166256 -5.04787e-05 -4.96188e-05 -3.7139e-05
0.000164858 -5.0049e-05 -4.92038e-05 -3.71389e-05
0.000494742 -0.000148922 -0.000148209 -3.09558e-05
0.000498961 -0.000150196 -0.000149471 -3.09561e-05
0.000165557 -5.02638e-05 -4.94113e-05 -3.71389e-05
0.00032979 -9.94949e-05 -9.86981e-05 -3.48215e-05
0.000496851 -0.000149559 -0.00014884 -3.09559e-05
0.000332599 -0.000100347 -9.95364e-05 -3.48217e-05
0.000331195 -9.9921e-05 -9.91172e-05 -3.48216e-05
0.000164858 -5.0049e-05 -4.92038e-05 -3.71389e-05
0.00016346 -4.96193e-05 -4.87888e-05 -3.71387e-05
0.000490523 -0.000147648 -0.000146947 -3.09556e-05
0.000494742 -0.000148922 -0.000148209 -3.09558e-05
0.000164159 -4.98341e-05 -4.89963e-05 -3.71388e-05
0.000326982 -9.86428e-05 -9.78597e-05 -3.48213e-05
0.000492633 -0.000148285 -0.000147578 -3.09557e-05
0.00032979 -9.94949e-05 -9.86981e-05 -3.48215e-05
0.000328386 -9.90689e-05 -9.82789e-05 -3.48214e-05
0.00016346 -4.96193e-05 -4.87888e-05 -3.71387e-05
0.000162062 -4.91897e-05 -4.83737e-05 -3.71385e-05
0.000486304 -0.000146373 -0.000145685 -3.09554e-05
0.000490523 -0.000147648 -0.000146947 -3.09556e-05
0.000162761 -4.94045e-05 -4.85812e-05 -3.71386e-05
0.000324174 -9.77908e-05 -9.70213e-05 -3.48211e-05
0.000488414 -0.000147011 -0.000146316 -3.09555e-05
0.000326982 -9.86428e-05 -9.78597e-05 -3.48213e-05
0.000325578 -9.82168e-05 -9.74405e-05 -3.48212e-05
0.000162062 -4.91897e-05 -4.83737e-05 -3.71385e-05
0.000160663 -4.87601e-05 -4.79585e-05 -3.71383e-05
0.000482086 -0.000145099 -0.000144423 -3.09552e-05
0.000486304 -0.000146373 -0.000145685 -3.09554e-05
0.000161363 -4.89749e-05 -4.81661e-05 -3.71384e-05
0.000321365 -9.69387e-05 -9.61828e-05 -3.48209e-05
0.000484195 -0.000145736 -0.000145054 -3.09553e-05
0.000324174 -9.77908e-05 -9.70213e-05 -3.48211e-05
0.00032277 -9.73647e-05 -9.66021e-05 -3.4821e-05
0.000160663 -4.87601e-05 -4.79585e-05 -3.71383e-05
0.000159265 -4.83307e-05 -4.75433e-05 -3.71381e-05
0.000477867 -0.000143825 -0.000143161 -3.0955e-05
0.000482086 -0.000145099 -0.000144423 -3.09552e-05
0.000159964 -4.85454e-05 -4.77509e-05 -3.71382e-05
0.000318557 -9.60868e-05 -9.53443e-05 -3.48207e-05
0.000479976 -0.000144462 -0.000143792 -3.09551e-05
0.000321365 -9.69387e-05 -9.61828e-05 -3.48209e-05
0.000319961 -9.65128e-05 -9.57636e-05 -3.48208e-05
0.000159265 -4.83307e-05 -4.75433e-05 -3.71381e-05
0.000157867 -4.79012e-05 -4.7128e-05 -3.71379e-05
0.000473647 -0.000142551 -0.000141898 -3.09548e-05
0.000477867 -0.000143825 -0.000143161 -3.0955e-05
0.000158566 -4.81159e-05 -4.73357e-05 -3.7138e-05
0.000315748 -9.52349e-05 -9.45057e-05 -3.48204e-05
0.000475757 -0.000143188 -0.00014253 -3.09549e-05
0.000318557 -9.60868e-05 -9.53443e-05 -3.48207e-05
0.000317153 -9.56608e-05 -9.4925e-05 -3.48206e-05
0.000157867 -4.79012e-05 -4.7128e-05 -3.71379e-05
0.000156468 -4.74719e-05 -4.67126e-05 -3.71377e-05
0.000469428 -0.000141277 -0.000140636 -3.09545e-05
0.000473647 -0.000142551 -0.000141898 -3.09548e-05
0.000157167 -4.76865e-05 -4.69203e-05 -3.71378e-05
0.00031294 -9.43831e-05 -9.36671e-05 -3.48202e-05
0.000471538 -0.000141914 -0.000141267 -3.09547e-05
0.000315748 -9.52349e-05 -9.45057e-05 -3.48204e-05
0.000314344 -9.4809e-05 -9.40864e-05 -3.48203e-05
0.000156468 -4.74719e-05 -4.67126e-05 -3.71377e-05
0.000155069 -4.70425e-05 -4.62972e-05 -3.71375e-05
0.000465209 -0.000140003 -0.000139374 -3.09543e-05
0.000469428 -0.000141277 -0.000140636 -3.09545e-05
0.000155769 -4.72572e-05 -4.65049e-05 -3.71376e-05
0.000310131 -9.35313e-05 -9.28284e-05 -3.482e-05
0.000467319 -0.00014064 -0.000140005 -3.09544e-05
0.00031294 -9.43831e-05 -9.36671e-05 -3.48202e-05
0.000311535 -9.39572e-05 -9.32477e-05 -3.48201e-05
0.000155069 -4.70425e-05 -4.62972e-05 -3.71375e-05
0.000153671 -4.66133e-05 -4.58817e-05 -3.71373e-05
0.00046099 -0.000138729 -0.000138112 -3.09541e-05
0.000465209 -0.000140003 -0.000139374 -3.09543e-05
0.00015437 -4.68279e-05 -4.60895e-05 -3.71374e-05
0.000307322 -9.26795e-05 -9.19896e-05 -3.48198e-05
0.000463099 -0.000139366 -0.000138743 -3.09542e-05
0.000310131 -9.35313e-05 -9.28284e-05 -3.482e-05
0.000308726 -9.31054e-05 -9.2409e-05 -3.48199e-05
0.000153671 -4.66133e-05 -4.58817e-05 -3.71373e-05
0.000152272 -4.61841e-05 -4.54662e-05 -3.71372e-05
0.00045677 -0.000137455 -0.000136849 -3.09539e-05
0.00046099 -0.000138729 -0.000138112 -3.09541e-05
0.000152971 -4.63987e-05 -4.5674e-05 -3.71372e-05
0.000304513 -9.18279e-05 -9.11508e-05 -3.48196e-05
0.00045888 -0.000138092 -0.00013748 -3.0954e-05
0.000307322 -9.26795e-05 -9.19896e-05 -3.48198e-05
0.000305917 -9.22537e-05 -9.15702e-05 -3.48197e-05
0.000152272 -4.61841e-05 -4.54662e-05 -3.71372e-05
0.000150873 -4.5755e-05 -4.50506e-05 -3.7137e-05
0.000452551 -0.000136182 -0.000135587 -3.09537e-05
0.00045677 -0.000137455 -0.000136849 -3.09539e-05
0.000151572 -4.59695e-05 -4.52584e-05 -3.71371e-05
0.000301704 -9.09763e-05 -9.03119e-05 -3.48194e-05
0.000454661 -0.000136819 -0.000136218 -3.09538e-05
0.000304513 -9.18279e-05 -9.11508e-05 -3.48196e-05
0.000303109 -9.14021e-05 -9.07313e-05 -3.48195e-05
0.000150873 -4.5755e-05 -4.50506e-05 -3.7137e-05
0.000149474 -4.53259e-05 -4.46349e-05 -3.71368e-05
0.000448332 -0.000134908 -0.000134324 -3.09535e-05
0.000452551 -0.000136182 -0.000135587 -3.09537e-05
0.000150173 -4.55404e-05 -4.48427e-05 -3.71369e-05
0.000298895 -9.01247e-05 -8.94729e-05 -3.48192e-05
0.000450441 -0.000135545 -0.000134956 -3.09536e-05
0.000301704 -9.09763e-05 -9.03119e-05 -3.48194e-05
0.000300299 -9.05505e-05 -8.98924e-05 -3.48193e-05
0.000149474 -4.53259e-05 -4.46349e-05 -3.71368e-05
0.000148075 -4.48969e-05 -4.42191e-05 -3.71366e-05
0.000444112 -0.000133634 -0.000133062 -3.09533e-05
0.000448332 -0.000134908 -0.000134324 -3.09535e-05
0.000148774 -4.51114e-05 -4.4427e-05 -3.71367e-05
0.000296086 -8.92732e-05 -8.86339e-05 -3.4819e-05
0.000446222 -0.000134271 -0.000133693 -3.09534e-05
0.000298895 -9.01247e-05 -8.94729e-05 -3.48192e-05
0.00029749 -8.9699e-05 -8.90534e-05 -3.48191e-05
0.000148075 -4.48969e-05 -4.42191e-05 -3.71366e-05
0.000146676 -4.44679e-05 -4.38033e-05 -3.71364e-05
0.000439892 -0.000132361 -0.000131799 -3.0953e-05
0.000444112 -0.000133634 -0.000133062 -3.09533e-05
0.000147375 -4.46824e-05 -4.40112e-05 -3.71365e-05
0.000293276 -8.84218e-05 -8.77949e-05 -3.48188e-05
0.000442002 -0.000132997 -0.000132431 -3.09531e-05
0.000296086 -8.92732e-05 -8.86339e-05 -3.4819e-05
0.000294681 -8.88475e-05 -8.82144e-05 -3.48189e-05
0.000146676 -4.44679e-05 -4.38033e-05 -3.71364e-05
0.000145276 -4.4039e-05 -4.33874e-05 -3.71362e-05
0.000435673 -0.000131087 -0.000130537 -3.09528e-05
0.000439892 -0.000132361 -0.000131799 -3.0953e-05
0.000145976 -4.42534e-05 -4.35954e-05 -3.71363e-05
0.000290467 -8.75704e-05 -8.69557e-05 -3.48186e-05
0.000437782 -0.000131724 -0.000131168 -3.09529e-05
0.000293276 -8.84218e-05 -8.77949e-05 -3.48188e-05
0.000291872 -8.79961e-05 -8.73753e-05 -3.48187e-05
0.000145276 -4.4039e-05 -4.33874e-05 -3.71362e-05
0.000143877 -4.36102e-05 -4.29715e-05 -3.7136e-05
0.000431453 -0.000129813 -0.000129274 -3.09526e-05
0.000435673 -0.000131087 -0.000130537 -3.09528e-05
0.000144577 -4.38246e-05 -4.31795e-05 -3.71361e-05
0.000287658 -8.6719e-05 -8.61165e-05 -3.48184e-05
0.000433563 -0.00013045 -0.000129905 -3.09527e-05
0.000290467 -8.75704e-05 -8.69557e-05 -3.48186e-05
0.000289062 -8.71447e-05 -8.65361e-05 -3.48185e-05
0.000143877 -4.36102e-05 -4.29715e-05 -3.7136e-05
0.000142477 -4.31814e-05 -4.25555e-05 -3.71358e-05
0.000427233 -0.00012854 -0.000128011 -3.09524e-05
0.000431453 -0.000129813 -0.000129274 -3.09526e-05
0.000143177 -4.33958e-05 -4.27635e-05 -3.71359e-05
0.000284848 -8.58678e-05 -8.52773e-05 -3.48181e-05
0.000429343 -0.000129177 -0.000128643 -3.09525e-05
0.000287658 -8.6719e-05 -8.61165e-05 -3.48184e-05
0.000286253 -8.62934e-05 -8.56969e-05 -3.48183e-05
0.000142477 -4.31814e-05 -4.25555e-05 -3.71358e-05
0.000141078 -4.27527e-05 -4.21394e-05 -3.71357e-05
0.000423013 -0.000127267 -0.000126749 -3.09522e-05
0.000427233 -0.00012854 -0.000128011 -3.09524e-05
0.000141778 -4.2967e-05 -4.23474e-05 -3.71357e-05
0.000282038 -8.50166e-05 -8.4438e-05 -3.48179e-05
0.000425123 -0.000127903 -0.00012738 -3.09523e-05
0.000284848 -8.58678e-05 -8.52773e-05 -3.48181e-05
0.000283443 -8.54422e-05 -8.48576e-05 -3.4818e-05
0.000141078 -4.27527e-05 -4.21394e-05 -3.71357e-05
0.000139678 -4.2324e-05 -4.17233e-05 -3.71355e-05
0.000418793 -0.000125993 -0.000125486 -3.0952e-05
0.000423013 -0.000127267 -0.000126749 -3.09522e-05
0.000140378 -4.25383e-05 -4.19313e-05 -3.71356e-05
0.000279229 -8.41654e-05 -8.35986e-05 -3.48177e-05
0.000420903 -0.00012663 -0.000126117 -3.09521e-05
0.000282038 -8.50166e-05 -8.4438e-05 -3.48179e-05
0.000280634 -8.4591e-05 -8.40183e-05 -3.48178e-05
0.000139678 -4.2324e-05 -4.17233e-05 -3.71355e-05
0.000138278 -4.18954e-05 -4.1307e-05 -3.71353e-05
0.000414573 -0.00012472 -0.000124223 -3.09518e-05
0.000418793 -0.000125993 -0.000125486 -3.0952e-05
0.000138978 -4.21097e-05 -4.15152e-05 -3.71354e-05
0.000276419 -8.33143e-05 -8.27592e-05 -3.48175e-05
0.000416683 -0.000125356 -0.000124854 -3.09519e-05
0.000279229 -8.41654e-05 -8.35986e-05 -3.48177e-05
0.000277824 -8.37398e-05 -8.31789e-05 -3.48176e-05
0.000138278 -4.18954e-05 -4.1307e-05 -3.71353e-05
0.000136879 -4.14668e-05 -4.08908e-05 -3.71351e-05
0.000410353 -0.000123447 -0.00012296 -3.09516e-05
0.000414573 -0.00012472 -0.000124223 -3.09518e-05
0.000137579 -4.16811e-05 -4.10989e-05 -3.71352e-05
0.000273609 -8.24632e-05 -8.19197e-05 -3.48173e-05
0.000412463 -0.000124083 -0.000123591 -3.09517e-05
0.000276419 -8.33143e-05 -8.27592e-05 -3.48175e-05
0.000275014 -8.28888e-05 -8.23394e-05 -3.48174e-05
0.000136879 -4.14668e-05 -4.08908e-05 -3.71351e-05
0.000135479 -4.10384e-05 -4.04744e-05 -3.71349e-05
0.000406133 -0.000122173 -0.000121697 -3.09513e-05
0.000410353 -0.000123447 -0.00012296 -3.09516e-05
0.000136179 -4.12526e-05 -4.06826e-05 -3.7135e-05
0.000270799 -8.16123e-05 -8.10801e-05 -3.48171e-05
0.000408243 -0.00012281 -0.000122328 -3.09514e-05
0.000273609 -8.24632e-05 -8.19197e-05 -3.48173e-05
0.000272204 -8.20377e-05 -8.14999e-05 -3.48172e-05
0.000135479 -4.10384e-05 -4.04744e-05 -3.71349e-05
0.000134079 -4.06099e-05 -4.0058e-05 -3.71347e-05
0.000401912 -0.0001209 -0.000120434 -3.09511e-05
0.000406133 -0.000122173 -0.000121697 -3.09513e-05
0.000134779 -4.08241e-05 -4.02662e-05 -3.71348e-05
0.000267989 -8.07613e-05 -8.02405e-05 -3.48169e-05
0.000404023 -0.000121537 -0.000121065 -3.09512e-05
0.000270799 -8.16123e-05 -8.10801e-05 -3.48171e-05
0.000269394 -8.11868e-05 -8.06603e-05 -3.4817e-05
0.000134079 -4.06099e-05 -4.0058e-05 -3.71347e-05
0.000132679 -4.01816e-05 -3.96416e-05 -3.71345e-05
0.000397692 -0.000119627 -0.000119171 -3.09509e-05
0.000401912 -0.0001209 -0.000120434 -3.09511e-05
0.000133379 -4.03957e-05 -3.98498e-05 -3.71346e-05
0.000265179 -7.99104e-05 -7.94009e-05 -3.48167e-05
0.000399802 -0.000120264 -0.000119802 -3.0951e-05
0.000267989 -8.07613e-05 -8.02405e-05 -3.48169e-05
0.000266584 -8.03359e-05 -7.98207e-05 -3.48168e-05
0.000132679 -4.01816e-05 -3.96416e-05 -3.71345e-05
0.000131278 -3.97533e-05 -3.9225e-05 -3.71344e-05
0.000393472 -0.000118354 -0.000117908 -3.09507e-05
0.000397692 -0.000119627 -0.000119171 -3.09509e-05
0.000131978 -3.99674e-05 -3.94333e-05 -3.71345e-05
0.000262369 -7.90596e-05 -7.85611e-05 -3.48165e-05
0.000395582 -0.00011899 -0.000118539 -3.09508e-05
0.000265179 -7.99104e-05 -7.94009e-05 -3.48167e-05
0.000263774 -7.9485e-05 -7.8981e-05 -3.48166e-05
0.000131278 -3.97533e-05 -3.9225e-05 -3.71344e-05
0.000129878 -3.9325e-05 -3.88084e-05 -3.71342e-05
0.000389251 -0.000117081 -0.000116644 -3.09505e-05
0.000393472 -0.000118354 -0.000117908 -3.09507e-05
0.000130578 -3.95391e-05 -3.90167e-05 -3.71343e-05
0.000259559 -7.82089e-05 -7.77213e-05 -3.48163e-05
0.000391361 -0.000117717 -0.000117276 -3.09506e-05
0.000262369 -7.90596e-05 -7.85611e-05 -3.48165e-05
0.000260964 -7.86342e-05 -7.81412e-05 -3.48164e-05
0.000129878 -3.9325e-05 -3.88084e-05 -3.71342e-05
0.000128478 -3.88968e-05 -3.83918e-05 -3.7134e-05
0.000385031 -0.000115808 -0.000115381 -3.09503e-05
0.000389251 -0.000117081 -0.000116644 -3.09505e-05
0.000129178 -3.91109e-05 -3.86001e-05 -3.71341e-05
0.000256748 -7.73581e-05 -7.68815e-05 -3.48161e-05
0.000387141 -0.000116444 -0.000116013 -3.09504e-05
0.000259559 -7.82089e-05 -7.77213e-05 -3.48163e-05
0.000258153 -7.77835e-05 -7.73014e-05 -3.48162e-05
0.000128478 -3.88968e-05 -3.83918e-05 -3.7134e-05
0.000127077 -3.84687e-05 -3.7975e-05 -3.71338e-05
0.00038081 -0.000114535 -0.000114118 -3.09501e-05
0.000385031 -0.000115808 -0.000115381 -3.09503e-05
0.000127777 -3.86827e-05 -3.81834e-05 -3.71339e-05
0.000253938 -7.65075e-05 -7.60416e-05 -3.48159e-05
0.00038292 -0.000115171 -0.000114749 -3.09502e-05
0.000256748 -7.73581e-05 -7.68815e-05 -3.48161e-05
0.000255343 -7.69328e-05 -7.64615e-05 -3.4816e-05
0.000127077 -3.84687e-05 -3.7975e-05 -3.71338e-05
0.000125676 -3.80406e-05 -3.75582e-05 -3.71336e-05
0.000376589 -0.000113262 -0.000112854 -3.09499e-05
0.00038081 -0.000114535 -0.000114118 -3.09501e-05
0.000126377 -3.82546e-05 -3.77666e-05 -3.71337e-05
0.000251127 -7.56569e-05 -7.52016e-05 -3.48157e-05
0.0003787 -0.000113899 -0.000113486 -3.095e-05
0.000253938 -7.65075e-05 -7.60416e-05 -3.48159e-05
0.000252533 -7.60822e-05 -7.56216e-05 -3.48158e-05
0.000125676 -3.80406e-05 -3.75582e-05 -3.71336e-05
0.000124276 -3.76126e-05 -3.71414e-05 -3.71335e-05
0.000372368 -0.000111989 -0.000111591 -3.09497e-05
0.000376589 -0.000113262 -0.000112854 -3.09499e-05
0.000124976 -3.78266e-05 -3.73498e-05 -3.71336e-05
0.000248317 -7.48064e-05 -7.43616e-05 -3.48155e-05
0.000374479 -0.000112626 -0.000112223 -3.09498e-05
0.000251127 -7.56569e-05 -7.52016e-05 -3.48157e-05
0.000249722 -7.52316e-05 -7.47816e-05 -3.48156e-05
0.000124276 -3.76126e-05 -3.71414e-05 -3.71335e-05
0.000122875 -3.71846e-05 -3.67244e-05 -3.71333e-05
0.000368148 -0.000110717 -0.000110328 -3.09495e-05
0.000372368 -0.000111989 -0.000111591 -3.09497e-05
0.000123575 -3.73986e-05 -3.69329e-05 -3.71334e-05
0.000245506 -7.39559e-05 -7.35215e-05 -3.48153e-05
0.000370258 -0.000111353 -0.000110959 -3.09496e-05
0.000248317 -7.48064e-05 -7.43616e-05 -3.48155e-05
0.000246911 -7.43811e-05 -7.39415e-05 -3.48154e-05
0.000122875 -3.71846e-05 -3.67244e-05 -3.71333e-05
0.000121474 -3.67568e-05 -3.63074e-05 -3.71331e-05
0.000363927 -0.000109444 -0.000109064 -3.09493e-05
0.000368148 -0.000110717 -0.000110328 -3.09495e-05
0.000122175 -3.69707e-05 -3.65159e-05 -3.71332e-05
0.000242695 -7.31055e-05 -7.26813e-05 -3.48151e-05
0.000366037 -0.00011008 -0.000109696 -3.09494e-05
0.000245506 -7.39559e-05 -7.35215e-05 -3.48153e-05
0.000244101 -7.35307e-05 -7.31014e-05 -3.48152e-05
0.000121474 -3.67568e-05 -3.63074e-05 -3.71331e-05
0.000120073 -3.63289e-05 -3.58904e-05 -3.71329e-05
0.000359706 -0.000108171 -0.0001078 -3.09491e-05
0.000363927 -0.000109444 -0.000109064 -3.09493e-05
0.000120774 -3.65428e-05 -3.60989e-05 -3.7133e-05
0.000239884 -7.22551e-05 -7.18411e-05 -3.48149e-05
0.000361816 -0.000108808 -0.000108432 -3.09492e-05
0.000242695 -7.31055e-05 -7.26813e-05 -3.48151e-05
0.00024129 -7.26803e-05 -7.22612e-05 -3.4815e-05
0.000120073 -3.63289e-05 -3.58904e-05 -3.71329e-05
0.000118672 -3.59011e-05 -3.54732e-05 -3.71328e-05
0.000355485 -0.000106899 -0.000106537 -3.09488e-05
0.000359706 -0.000108171 -0.0001078 -3.09491e-05
0.000119373 -3.6115e-05 -3.56818e-05 -3.71329e-05
0.000237073 -7.14048e-05 -7.10008e-05 -3.48147e-05
0.000357595 -0.000107535 -0.000107169 -3.0949e-05
0.000239884 -7.22551e-05 -7.18411e-05 -3.48149e-05
0.000238479 -7.18299e-05 -7.1421e-05 -3.48148e-05
0.000118672 -3.59011e-05 -3.54732e-05 -3.71328e-05
0.000117271 -3.54734e-05 -3.5056e-05 -3.71326e-05
0.000351263 -0.000105626 -0.000105273 -3.09486e-05
0.000355485 -0.000106899 -0.000106537 -3.09488e-05
0.000117971 -3.56873e-05 -3.52647e-05 -3.71327e-05
0.000234262 -7.05545e-05 -7.01605e-05 -3.48145e-05
0.000353374 -0.000106262 -0.000105905 -3.09487e-05
0.000237073 -7.14048e-05 -7.10008e-05 -3.48147e-05
0.000235668 -7.09796e-05 -7.05807e-05 -3.48146e-05
0.000117271 -3.54734e-05 -3.5056e-05 -3.71326e-05
0.00011587 -3.50458e-05 -3.46388e-05 -3.71324e-05
0.000347042 -0.000104354 -0.000104009 -3.09484e-05
0.000351263 -0.000105626 -0.000105273 -3.09486e-05
0.00011657 -3.52596e-05 -3.48474e-05 -3.71325e-05
0.000231451 -6.97043e-05 -6.93201e-05 -3.48143e-05
0.000349153 -0.00010499 -0.000104641 -3.09485e-05
0.000234262 -7.05545e-05 -7.01605e-05 -3.48145e-05
0.000232857 -7.01294e-05 -6.97403e-05 -3.48144e-05
0.00011587 -3.50458e-05 -3.46388e-05 -3.71324e-05
0.000114468 -3.46182e-05 -3.42215e-05 -3.71322e-05
0.000342821 -0.000103081 -0.000102746 -3.09482e-05
0.000347042 -0.000104354 -0.000104009 -3.09484e-05
0.000115169 -3.4832e-05 -3.44301e-05 -3.71323e-05
0.00022864 -6.88542e-05 -6.84796e-05 -3.48141e-05
0.000344932 -0.000103717 -0.000103378 -3.09483e-05
0.000231451 -6.97043e-05 -6.93201e-05 -3.48143e-05
0.000230046 -6.92792e-05 -6.88999e-05 -3.48142e-05
0.000114468 -3.46182e-05 -3.42215e-05 -3.71322e-05
0.000113067 -3.41906e-05 -3.38041e-05 -3.71321e-05
0.0003386 -0.000101809 -0.000101482 -3.0948e-05
0.000342821 -0.000103081 -0.000102746 -3.09482e-05
0.000113768 -3.44044e-05 -3.40128e-05 -3.71322e-05
0.000225829 -6.80041e-05 -6.76391e-05 -3.48139e-05
0.00034071 -0.000102445 -0.000102114 -3.09481e-05
0.00022864 -6.88542e-05 -6.84796e-05 -3.48141e-05
0.000227234 -6.84291e-05 -6.80594e-05 -3.4814e-05
0.000113067 -3.41906e-05 -3.38041e-05 -3.71321e-05
0.000111665 -3.37631e-05 -3.33866e-05 -3.71319e-05
0.000334378 -0.000100536 -0.000100218 -3.09478e-05
0.0003386 -0.000101809 -0.000101482 -3.0948e-05
0.000112366 -3.39769e-05 -3.35954e-05 -3.7132e-05
0.000223017 -6.71541e-05 -6.67985e-05 -3.48137e-05
0.000336489 -0.000101172 -0.00010085 -3.09479e-05
0.000225829 -6.80041e-05 -6.76391e-05 -3.48139e-05
0.000224423 -6.75791e-05 -6.72188e-05 -3.48138e-05
0.000111665 -3.37631e-05 -3.33866e-05 -3.71319e-05
0.000110264 -3.33357e-05 -3.29691e-05 -3.71317e-05
0.000330157 -9.9264e-05 -9.8954e-05 -3.09476e-05
0.000334378 -0.000100536 -0.000100218 -3.09478e-05
0.000110964 -3.35494e-05 -3.31779e-05 -3.71318e-05
0.000220206 -6.63041e-05 -6.59579e-05 -3.48136e-05
0.000332267 -9.99002e-05 -9.9586e-05 -3.09477e-05
0.000223017 -6.71541e-05 -6.67985e-05 -3.48137e-05
0.000221612 -6.67291e-05 -6.63782e-05 -3.48136e-05
0.000110264 -3.33357e-05 -3.29691e-05 -3.71317e-05
0.000108862 -3.29084e-05 -3.25515e-05 -3.71316e-05
0.000325935 -9.79918e-05 -9.769e-05 -3.09474e-05
0.000330157 -9.9264e-05 -9.8954e-05 -3.09476e-05
0.000109563 -3.3122e-05 -3.27603e-05 -3.71317e-05
0.000217394 -6.54542e-05 -6.51172e-05 -3.48134e-05
0.000328046 -9.86279e-05 -9.8322e-05 -3.09475e-05
0.000220206 -6.63041e-05 -6.59579e-05 -3.48136e-05
0.0002188 -6.58791e-05 -6.55376e-05 -3.48135e-05
0.000108862 -3.29084e-05 -3.25515e-05 -3.71316e-05
0.00010746 -3.24811e-05 -3.21339e-05 -3.71314e-05
0.000321713 -9.67196e-05 -9.64259e-05 -3.09472e-05
0.000325935 -9.79918e-05 -9.769e-05 -3.09474e-05
0.000108161 -3.26947e-05 -3.23427e-05 -3.71315e-05
0.000214583 -6.46043e-05 -6.42764e-05 -3.48132e-05
0.000323824 -9.73557e-05 -9.7058e-05 -3.09473e-05
0.000217394 -6.54542e-05 -6.51172e-05 -3.48134e-05
0.000215988 -6.50292e-05 -6.46968e-05 -3.48133e-05
0.00010746 -3.24811e-05 -3.21339e-05 -3.71314e-05
0.000106058 -3.20538e-05 -3.17161e-05 -3.71312e-05
0.000317492 -9.54474e-05 -9.51618e-05 -3.09471e-05
0.000321713 -9.67196e-05 -9.64259e-05 -3.09472e-05
0.000106759 -3.22674e-05 -3.1925e-05 -3.71313e-05
0.000211771 -6.37545e-05 -6.34356e-05 -3.4813e-05
0.000319603 -9.60835e-05 -9.57939e-05 -3.09472e-05
0.000214583 -6.46043e-05 -6.42764e-05 -3.48132e-05
0.000213177 -6.41794e-05 -6.3856e-05 -3.48131e-05
0.000106058 -3.20538e-05 -3.17161e-05 -3.71312e-05
0.000104656 -3.16266e-05 -3.12983e-05 -3.71311e-05
0.00031327 -9.41753e-05 -9.38977e-05 -3.09469e-05
0.000317492 -9.54474e-05 -9.51618e-05 -3.09471e-05
0.000105357 -3.18402e-05 -3.15072e-05 -3.71312e-05
0.000208959 -6.29048e-05 -6.25947e-05 -3.48128e-05
0.000315381 -9.48114e-05 -9.45298e-05 -3.0947e-05
0.000211771 -6.37545e-05 -6.34356e-05 -3.4813e-05
0.000210365 -6.33296e-05 -6.30152e-05 -3.48129e-05
0.000104656 -3.16266e-05 -3.12983e-05 -3.71311e-05
0.000103254 -3.11995e-05 -3.08805e-05 -3.71309e-05
0.000309048 -9.29033e-05 -9.26335e-05 -3.09467e-05
0.00031327 -9.41753e-05 -9.38977e-05 -3.09469e-05
0.000103955 -3.14131e-05 -3.10894e-05 -3.7131e-05
0.000206147 -6.20551e-05 -6.17538e-05 -3.48126e-05
0.000311159 -9.35393e-05 -9.32656e-05 -3.09468e-05
0.000208959 -6.29048e-05 -6.25947e-05 -3.48128e-05
0.000207553 -6.24799e-05 -6.21743e-05 -3.48127e-05
0.000103254 -3.11995e-05 -3.08805e-05 -3.71309e-05
0.000101852 -3.07724e-05 -3.04626e-05 -3.71307e-05
0.000304826 -9.16313e-05 -9.13692e-05 -3.09465e-05
0.000309048 -9.29033e-05 -9.26335e-05 -3.09467e-05
0.000102553 -3.0986e-05 -3.06715e-05 -3.71308e-05
0.000203335 -6.12055e-05 -6.09128e-05 -3.48124e-05
0.000306937 -9.22673e-05 -9.20013e-05 -3.09466e-05
0.000206147 -6.20551e-05 -6.17538e-05 -3.48126e-05
0.000204741 -6.16303e-05 -6.13333e-05 -3.48125e-05
0.000101852 -3.07724e-05 -3.04626e-05 -3.71307e-05
0.000100449 -3.03454e-05 -3.00446e-05 -3.71306e-05
0.000300604 -9.03593e-05 -9.01049e-05 -3.09463e-05
0.000304826 -9.16313e-05 -9.13692e-05 -3.09465e-05
0.000101151 -3.05589e-05 -3.02536e-05 -3.71307e-05
0.000200523 -6.03559e-05 -6.00717e-05 -3.48122e-05
0.000302715 -9.09953e-05 -9.0737e-05 -3.09464e-05
0.000203335 -6.12055e-05 -6.09128e-05 -3.48124e-05
0.000201929 -6.07807e-05 -6.04923e-05 -3.48123e-05
0.000100449 -3.03454e-05 -3.00446e-05 -3.71306e-05
9.90471e-05 -2.99185e-05 -2.96265e-05 -3.71304e-05
0.000296382 -8.90874e-05 -8.88405e-05 -3.09461e-05
0.000300604 -9.03593e-05 -9.01049e-05 -3.09463e-05
9.97483e-05 -3.01319e-05 -2.98356e-05 -3.71305e-05
0.000197711 -5.95064e-05 -5.92306e-05 -3.48121e-05
0.000298493 -8.97234e-05 -8.94727e-05 -3.09462e-05
0.000200523 -6.03559e-05 -6.00717e-05 -3.48122e-05
0.000199117 -5.99311e-05 -5.96512e-05 -3.48122e-05
9.90471e-05 -2.99185e-05 -2.96265e-05 -3.71304e-05
9.76446e-05 -2.94916e-05 -2.92084e-05 -3.71303e-05
0.00029216 -8.78156e-05 -8.75761e-05 -3.09459e-05
0.000296382 -8.90874e-05 -8.88405e-05 -3.09461e-05
9.83458e-05 -2.9705e-05 -2.94175e-05 -3.71303e-05
0.000194899 -5.86569e-05 -5.83894e-05 -3.48119e-05
0.000294271 -8.84515e-05 -8.82083e-05 -3.0946e-05
0.000197711 -5.95064e-05 -5.92306e-05 -3.48121e-05
0.000196305 -5.90816e-05 -5.881e-05 -3.4812e-05
9.76446e-05 -2.94916e-05 -2.92084e-05 -3.71303e-05
9.6242e-05 -2.90647e-05 -2.87902e-05 -3.71301e-05
0.000287938 -8.65438e-05 -8.63116e-05 -3.09457e-05
0.00029216 -8.78156e-05 -8.75761e-05 -3.09459e-05
9.69433e-05 -2.92782e-05 -2.89993e-05 -3.71302e-05
0.000192086 -5.78075e-05 -5.75481e-05 -3.48117e-05
0.000290049 -8.71797e-05 -8.69438e-05 -3.09458e-05
0.000194899 -5.86569e-05 -5.83894e-05 -3.48119e-05
0.000193493 -5.82322e-05 -5.79688e-05 -3.48118e-05
9.6242e-05 -2.90647e-05 -2.87902e-05 -3.71301e-05
9.48393e-05 -2.8638e-05 -2.8372e-05 -3.713e-05
0.000283715 -8.52721e-05 -8.50471e-05 -3.09455e-05
0.000287938 -8.65438e-05 -8.63116e-05 -3.09457e-05
9.55406e-05 -2.88514e-05 -2.85811e-05 -3.713e-05
0.000189274 -5.69581e-05 -5.67068e-05 -3.48115e-05
0.000285826 -8.59079e-05 -8.56793e-05 -3.09456e-05
0.000192086 -5.78075e-05 -5.75481e-05 -3.48117e-05
0.00019068 -5.73828e-05 -5.71275e-05 -3.48116e-05
9.48393e-05 -2.8638e-05 -2.8372e-05 -3.713e-05
9.34365e-05 -2.82113e-05 -2.79537e-05 -3.71298e-05
0.000279493 -8.40004e-05 -8.37825e-05 -3.09453e-05
0.000283715 -8.52721e-05 -8.50471e-05 -3.09455e-05
9.41379e-05 -2.84246e-05 -2.81628e-05 -3.71299e-05
0.000186462 -5.61088e-05 -5.58655e-05 -3.48113e-05
0.000281604 -8.46362e-05 -8.44148e-05 -3.09454e-05
0.000189274 -5.69581e-05 -5.67068e-05 -3.48115e-05
0.000187868 -5.65335e-05 -5.62862e-05 -3.48114e-05
9.34365e-05 -2.82113e-05 -2.79537e-05 -3.71298e-05
9.20336e-05 -2.77846e-05 -2.75353e-05 -3.71296e-05
0.00027527 -8.27287e-05 -8.25178e-05 -3.09451e-05
0.000279493 -8.40004e-05 -8.37825e-05 -3.09453e-05
9.27351e-05 -2.79979e-05 -2.77445e-05 -3.71297e-05
0.000183649 -5.52596e-05 -5.5024e-05 -3.48112e-05
0.000277382 -8.33645e-05 -8.31502e-05 -3.09452e-05
0.000186462 -5.61088e-05 -5.58655e-05 -3.48113e-05
0.000185055 -5.56842e-05 -5.54448e-05 -3.48113e-05
9.20336e-05 -2.77846e-05 -2.75353e-05 -3.71296e-05
9.06307e-05 -2.7358e-05 -2.71168e-05 -3.71295e-05
0.000271048 -8.14571e-05 -8.12531e-05 -3.0945e-05
0.00027527 -8.27287e-05 -8.25178e-05 -3.09451e-05
9.13322e-05 -2.75713e-05 -2.73261e-05 -3.71296e-05
0.000180836 -5.44104e-05 -5.41825e-05 -3.4811e-05
0.000273159 -8.20929e-05 -8.18855e-05 -3.09451e-05
0.000183649 -5.52596e-05 -5.5024e-05 -3.48112e-05
0.000182243 -5.4835e-05 -5.46033e-05 -3.48111e-05
9.06307e-05 -2.7358e-05 -2.71168e-05 -3.71295e-05
8.92276e-05 -2.69315e-05 -2.66983e-05 -3.71293e-05
0.000266825 -8.01856e-05 -7.99884e-05 -3.09448e-05
0.000271048 -8.14571e-05 -8.12531e-05 -3.0945e-05
8.99291e-05 -2.71447e-05 -2.69076e-05 -3.71294e-05
0.000178024 -5.35613e-05 -5.3341e-05 -3.48108e-05
0.000268936 -8.08214e-05 -8.06208e-05 -3.09449e-05
0.000180836 -5.44104e-05 -5.41825e-05 -3.4811e-05
0.00017943 -5.39858e-05 -5.37618e-05 -3.48109e-05
8.92276e-05 -2.69315e-05 -2.66983e-05 -3.71293e-05
8.78244e-05 -2.6505e-05 -2.62798e-05 -3.71292e-05
0.000262602 -7.89141e-05 -7.87236e-05 -3.09446e-05
0.000266825 -8.01856e-05 -7.99884e-05 -3.09448e-05
8.8526e-05 -2.67182e-05 -2.64891e-05 -3.71293e-05
0.000175211 -5.27122e-05 -5.24994e-05 -3.48106e-05
0.000264714 -7.95498e-05 -7.9356e-05 -3.09447e-05
0.000178024 -5.35613e-05 -5.3341e-05 -3.48108e-05
0.000176617 -5.31367e-05 -5.29202e-05 -3.48107e-05
8.78244e-05 -2.6505e-05 -2.62798e-05 -3.71292e-05
8.64212e-05 -2.60786e-05 -2.58611e-05 -3.7129e-05
0.00025838 -7.76427e-05 -7.74587e-05 -3.09444e-05
0.000262602 -7.89141e-05 -7.87236e-05 -3.09446e-05
8.71228e-05 -2.62918e-05 -2.60704e-05 -3.71291e-05
0.000172398 -5.18632e-05 -5.16577e-05 -3.48105e-05
0.000260491 -7.82784e-05 -7.80912e-05 -3.09445e-05
0.000175211 -5.27122e-05 -5.24994e-05 -3.48106e-05
0.000173804 -5.22877e-05 -5.20785e-05 -3.48106e-05
8.64212e-05 -2.60786e-05 -2.58611e-05 -3.7129e-05
8.50178e-05 -2.56522e-05 -2.54424e-05 -3.71289e-05
0.000254157 -7.63713e-05 -7.61938e-05 -3.09442e-05
0.00025838 -7.76427e-05 -7.74587e-05 -3.09444e-05
8.57195e-05 -2.58654e-05 -2.56518e-05 -3.7129e-05
0.000169585 -5.10142e-05 -5.08159e-05 -3.48103e-05
0.000256268 -7.7007e-05 -7.68263e-05 -3.09443e-05
0.000172398 -5.18632e-05 -5.16577e-05 -3.48105e-05
0.000170991 -5.14387e-05 -5.12368e-05 -3.48104e-05
8.50178e-05 -2.56522e-05 -2.54424e-05 -3.71289e-05
8.36144e-05 -2.52259e-05 -2.50236e-05 -3.71288e-05
0.000249934 -7.50999e-05 -7.49289e-05 -3.09441e-05
0.000254157 -7.63713e-05 -7.61938e-05 -3.09442e-05
8.43161e-05 -2.54391e-05 -2.5233e-05 -3.71288e-05
0.000166772 -5.01653e-05 -4.99741e-05 -3.48101e-05
0.000252045 -7.57356e-05 -7.55613e-05 -3.09441e-05
0.000169585 -5.10142e-05 -5.08159e-05 -3.48103e-05
0.000168178 -5.05898e-05 -5.03951e-05 -3.48102e-05
8.36144e-05 -2.52259e-05 -2.50236e-05 -3.71288e-05
8.22108e-05 -2.47997e-05 -2.46048e-05 -3.71286e-05
0.000245711 -7.38286e-05 -7.36638e-05 -3.09439e-05
0.000249934 -7.50999e-05 -7.49289e-05 -3.09441e-05
8.29126e-05 -2.50128e-05 -2.48142e-05 -3.71287e-05
0.000163958 -4.93165e-05 -4.91323e-05 -3.481e-05
0.000247822 -7.44643e-05 -7.42963e-05 -3.0944e-05
0.000166772 -5.01653e-05 -4.99741e-05 -3.48101e-05
0.000165365 -4.97409e-05 -4.95532e-05 -3.48101e-05
8.22108e-05 -2.47997e-05 -2.46048e-05 -3.71286e-05
8.08072e-05 -2.43735e-05 -2.41859e-05 -3.71285e-05
0.000241488 -7.25574e-05 -7.23988e-05 -3.09437e-05
0.000245711 -7.38286e-05 -7.36638e-05 -3.09439e-05
8.1509e-05 -2.45866e-05 -2.43953e-05 -3.71285e-05
0.000161145 -4.84677e-05 -4.82904e-05 -3.48098e-05
0.000243599 -7.3193e-05 -7.30313e-05 -3.09438e-05
0.000163958 -4.93165e-05 -4.91323e-05 -3.481e-05
0.000162552 -4.88921e-05 -4.87113e-05 -3.48099e-05
8.08072e-05 -2.43735e-05 -2.41859e-05 -3.71285e-05
7.94034e-05 -2.39474e-05 -2.37669e-05 -3.71283e-05
0.000237265 -7.12862e-05 -7.11336e-05 -3.09435e-05
0.000241488 -7.25574e-05 -7.23988e-05 -3.09437e-05
8.01053e-05 -2.41604e-05 -2.39764e-05 -3.71284e-05
0.000158332 -4.7619e-05 -4.74484e-05 -3.48096e-05
0.000239376 -7.19218e-05 -7.17662e-05 -3.09436e-05
0.000161145 -4.84677e-05 -4.82904e-05 -3.48098e-05
0.000159739 -4.80433e-05 -4.78694e-05 -3.48097e-05
7.94034e-05 -2.39474e-05 -2.37669e-05 -3.71283e-05
7.79996e-05 -2.35213e-05 -2.33478e-05 -3.71282e-05
0.000233041 -7.00151e-05 -6.98684e-05 -3.09434e-05
0.000237265 -7.12862e-05 -7.11336e-05 -3.09435e-05
7.87015e-05 -2.37343e-05 -2.35574e-05 -3.71283e-05
0.000155518 -4.67703e-05 -4.66063e-05 -3.48095e-05
0.000235153 -7.06506e-05 -7.0501e-05 -3.09434e-05
0.000158332 -4.7619e-05 -4.74484e-05 -3.48096e-05
0.000156925 -4.71946e-05 -4.70274e-05 -3.48096e-05
7.79996e-05 -2.35213e-05 -2.33478e-05 -3.71282e-05
7.65957e-05 -2.30953e-05 -2.29287e-05 -3.71281e-05
0.000228818 -6.8744e-05 -6.86032e-05 -3.09432e-05
0.000233041 -7.00151e-05 -6.98684e-05 -3.09434e-05
7.72977e-05 -2.33083e-05 -2.31383e-05 -3.71281e-05
0.000152705 -4.59217e-05 -4.57642e-05 -3.48093e-05
0.00023093 -6.93795e-05 -6.92358e-05 -3.09433e-05
0.000155518 -4.67703e-05 -4.66063e-05 -3.48095e-05
0.000154112 -4.6346e-05 -4.61853e-05 -3.48094e-05
7.65957e-05 -2.30953e-05 -2.29287e-05 -3.71281e-05
7.51917e-05 -2.26694e-05 -2.25096e-05 -3.71279e-05
0.000224595 -6.7473e-05 -6.73379e-05 -3.0943e-05
0.000228818 -6.8744e-05 -6.86032e-05 -3.09432e-05
7.58937e-05 -2.28823e-05 -2.27191e-05 -3.7128e-05
0.000149891 -4.50731e-05 -4.4922e-05 -3.48092e-05
0.000226706 -6.81085e-05 -6.79706e-05 -3.09431e-05
0.000152705 -4.59217e-05 -4.57642e-05 -3.48093e-05
0.000151298 -4.54974e-05 -4.53431e-05 -3.48092e-05
7.51917e-05 -2.26694e-05 -2.25096e-05 -3.71279e-05
7.37875e-05 -2.22435e-05 -2.20903e-05 -3.71278e-05
0.000220371 -6.6202e-05 -6.60726e-05 -3.09428e-05
0.000224595 -6.7473e-05 -6.73379e-05 -3.0943e-05
7.44896e-05 -2.24564e-05 -2.22999e-05 -3.71279e-05
0.000147077 -4.42246e-05 -4.40798e-05 -3.4809e-05
0.000222483 -6.68375e-05 -6.67052e-05 -3.09429e-05
0.000149891 -4.50731e-05 -4.4922e-05 -3.48092e-05
0.000148484 -4.46489e-05 -4.45009e-05 -3.48091e-05
7.37875e-05 -2.22435e-05 -2.20903e-05 -3.71278e-05
7.23833e-05 -2.18177e-05 -2.1671e-05 -3.71277e-05
0.000216148 -6.4931e-05 -6.48072e-05 -3.09427e-05
0.000220371 -6.6202e-05 -6.60726e-05 -3.09428e-05
7.30854e-05 -2.20306e-05 -2.18807e-05 -3.71277e-05
0.000144264 -4.33762e-05 -4.32375e-05 -3.48088e-05
0.00021826 -6.55665e-05 -6.54399e-05 -3.09428e-05
0.000147077 -4.42246e-05 -4.40798e-05 -3.4809e-05
0.000145671 -4.38004e-05 -4.36587e-05 -3.48089e-05
7.23833e-05 -2.18177e-05 -2.1671e-05 -3.71277e-05
7.0979e-05 -2.13919e-05 -2.12516e-05 -3.71275e-05
0.000211924 -6.36602e-05 -6.35417e-05 -3.09425e-05
0.000216148 -6.4931e-05 -6.48072e-05 -3.09427e-05
7.16812e-05 -2.16048e-05 -2.14613e-05 -3.71276e-05
0.00014145 -4.25278e-05 -4.23952e-05 -3.48087e-05
0.000214036 -6.42956e-05 -6.41744e-05 -3.09426e-05
0.000144264 -4.33762e-05 -4.32375e-05 -3.48088e-05
0.000142857 -4.29519e-05 -4.28163e-05 -3.48088e-05
7.0979e-05 -2.13919e-05 -2.12516e-05 -3.71275e-05
6.95746e-05 -2.09662e-05 -2.08322e-05 -3.71274e-05
0.0002077 -6.23893e-05 -6.22762e-05 -3.09423e-05
0.000211924 -6.36602e-05 -6.35417e-05 -3.09425e-05
7.02768e-05 -2.1179e-05 -2.10419e-05 -3.71275e-05
0.000138636 -4.16794e-05 -4.15527e-05 -3.48085e-05
0.000209812 -6.30247e-05 -6.2909e-05 -3.09424e-05
0.00014145 -4.25278e-05 -4.23952e-05 -3.48087e-05
0.000140043 -4.21036e-05 -4.1974e-05 -3.48086e-05
6.95746e-05 -2.09662e-05 -2.08322e-05 -3.71274e-05
6.81701e-05 -2.05405e-05 -2.04127e-05 -3.71273e-05
0.000203477 -6.11185e-05 -6.10106e-05 -3.09422e-05
0.0002077 -6.23893e-05 -6.22762e-05 -3.09423e-05
6.88724e-05 -2.07534e-05 -2.06224e-05 -3.71273e-05
0.000135822 -4.08311e-05 -4.07103e-05 -3.48084e-05
0.000205589 -6.17539e-05 -6.16434e-05 -3.09423e-05
0.000138636 -4.16794e-05 -4.15527e-05 -3.48085e-05
0.000137229 -4.12553e-05 -4.11315e-05 -3.48085e-05
6.81701e-05 -2.05405e-05 -2.04127e-05 -3.71273e-05
6.67655e-05 -2.01149e-05 -1.99931e-05 -3.71271e-05
0.000199253 -5.98478e-05 -5.9745e-05 -3.0942e-05
0.000203477 -6.11185e-05 -6.10106e-05 -3.09422e-05
6.74678e-05 -2.03277e-05 -2.02029e-05 -3.71272e-05
0.000133008 -3.99829e-05 -3.98677e-05 -3.48082e-05
0.000201365 -6.04832e-05 -6.03778e-05 -3.09421e-05
0.000135822 -4.08311e-05 -4.07103e-05 -3.48084e-05
0.000134415 -4.0407e-05 -4.0289e-05 -3.48083e-05
6.67655e-05 -2.01149e-05 -1.99931e-05 -3.71271e-05
6.53608e-05 -1.96894e-05 -1.95734e-05 -3.7127e-05
0.000195029 -5.85771e-05 -5.84793e-05 -3.09419e-05
0.000199253 -5.98478e-05 -5.9745e-05 -3.0942e-05
6.60631e-05 -1.99022e-05 -1.97833e-05 -3.71271e-05
0.000130193 -3.91347e-05 -3.90251e-05 -3.48081e-05
0.000197141 -5.92124e-05 -5.91122e-05 -3.09419e-05
0.000133008 -3.99829e-05 -3.98677e-05 -3.48082e-05
0.0001316 -3.95588e-05 -3.94464e-05 -3.48082e-05
6.53608e-05 -1.96894e-05 -1.95734e-05 -3.7127e-05
6.3956e-05 -1.92639e-05 -1.91537e-05 -3.71269e-05
0.000190805 -5.73065e-05 -5.72136e-05 -3.09417e-05
0.000195029 -5.85771e-05 -5.84793e-05 -3.09419e-05
6.46584e-05 -1.94767e-05 -1.93636e-05 -3.7127e-05
0.000127379 -3.82866e-05 -3.81824e-05 -3.48079e-05
0.000192917 -5.79418e-05 -5.78465e-05 -3.09418e-05
0.000130193 -3.91347e-05 -3.90251e-05 -3.48081e-05
0.000128786 -3.87107e-05 -3.86038e-05 -3.4808e-05
6.3956e-05 -1.92639e-05 -1.91537e-05 -3.71269e-05
6.25511e-05 -1.88385e-05 -1.8734e-05 -3.71268e-05
0.000186581 -5.60359e-05 -5.59478e-05 -3.09415e-05
0.000190805 -5.73065e-05 -5.72136e-05 -3.09417e-05
6.32536e-05 -1.90512e-05 -1.89439e-05 -3.71268e-05
0.000124565 -3.74385e-05 -3.73397e-05 -3.48078e-05
0.000188693 -5.66712e-05 -5.65807e-05 -3.09416e-05
0.000127379 -3.82866e-05 -3.81824e-05 -3.48079e-05
0.000125972 -3.78626e-05 -3.77611e-05 -3.48079e-05
6.25511e-05 -1.88385e-05 -1.8734e-05 -3.71268e-05
6.11461e-05 -1.84132e-05 -1.83141e-05 -3.71267e-05
0.000182357 -5.47654e-05 -5.4682e-05 -3.09414e-05
0.000186581 -5.60359e-05 -5.59478e-05 -3.09415e-05
6.18486e-05 -1.86258e-05 -1.8524e-05 -3.71267e-05
0.00012175 -3.65905e-05 -3.64969e-05 -3.48076e-05
0.000184469 -5.54006e-05 -5.53149e-05 -3.09415e-05
0.000124565 -3.74385e-05 -3.73397e-05 -3.48078e-05
0.000123157 -3.70145e-05 -3.69183e-05 -3.48077e-05
6.11461e-05 -1.84132e-05 -1.83141e-05 -3.71267e-05
5.9741e-05 -1.79879e-05 -1.78942e-05 -3.71265e-05
0.000178132 -5.34949e-05 -5.34161e-05 -3.09412e-05
0.000182357 -5.47654e-05 -5.4682e-05 -3.09414e-05
6.04436e-05 -1.82005e-05 -1.81042e-05 -3.71266e-05
0.000118935 -3.57426e-05 -3.56541e-05 -3.48075e-05
0.000180244 -5.41301e-05 -5.4049e-05 -3.09413e-05
0.00012175 -3.65905e-05 -3.64969e-05 -3.48076e-05
0.000120343 -3.61666e-05 -3.60755e-05 -3.48076e-05
5.9741e-05 -1.79879e-05 -1.78942e-05 -3.71265e-05
5.83358e-05 -1.75626e-05 -1.74742e-05 -3.71264e-05
0.000173908 -5.22244e-05 -5.21501e-05 -3.09411e-05
0.000178132 -5.34949e-05 -5.34161e-05 -3.09412e-05
5.90384e-05 -1.77752e-05 -1.76842e-05 -3.71265e-05
0.000116121 -3.48947e-05 -3.48111e-05 -3.48074e-05
0.00017602 -5.28596e-05 -5.27831e-05 -3.09411e-05
0.000118935 -3.57426e-05 -3.56541e-05 -3.48075e-05
0.000117528 -3.53186e-05 -3.52326e-05 -3.48074e-05
5.83358e-05 -1.75626e-05 -1.74742e-05 -3.71264e-05
5.69305e-05 -1.71375e-05 -1.70542e-05 -3.71263e-05
0.000169684 -5.0954e-05 -5.08841e-05 -3.09409e-05
0.000173908 -5.22244e-05 -5.21501e-05 -3.09411e-05
5.76332e-05 -1.735e-05 -1.72642e-05 -3.71264e-05
0.000113306 -3.40469e-05 -3.39682e-05 -3.48072e-05
0.000171796 -5.15892e-05 -5.15171e-05 -3.0941e-05
0.000116121 -3.48947e-05 -3.48111e-05 -3.48074e-05
0.000114713 -3.44708e-05 -3.43897e-05 -3.48073e-05
5.69305e-05 -1.71375e-05 -1.70542e-05 -3.71263e-05
5.55252e-05 -1.67123e-05 -1.66341e-05 -3.71262e-05
0.000165459 -4.96837e-05 -4.9618e-05 -3.09408e-05
0.000169684 -5.0954e-05 -5.08841e-05 -3.09409e-05
5.62279e-05 -1.69249e-05 -1.68441e-05 -3.71263e-05
0.000110491 -3.31991e-05 -3.31251e-05 -3.48071e-05
0.000167571 -5.03189e-05 -5.02511e-05 -3.09408e-05
0.000113306 -3.40469e-05 -3.39682e-05 -3.48072e-05
0.000111898 -3.3623e-05 -3.35467e-05 -3.48072e-05
5.55252e-05 -1.67123e-05 -1.66341e-05 -3.71262e-05
5.41197e-05 -1.62873e-05 -1.62139e-05 -3.71261e-05
0.000161235 -4.84134e-05 -4.83519e-05 -3.09406e-05
0.000165459 -4.96837e-05 -4.9618e-05 -3.09408e-05
5.48224e-05 -1.64998e-05 -1.6424e-05 -3.71261e-05
0.000107676 -3.23513e-05 -3.2282e-05 -3.4807e-05
0.000163347 -4.90486e-05 -4.8985e-05 -3.09407e-05
0.000110491 -3.31991e-05 -3.31251e-05 -3.48071e-05
0.000109084 -3.27752e-05 -3.27036e-05 -3.4807e-05
5.41197e-05 -1.62873e-05 -1.62139e-05 -3.71261e-05
5.27141e-05 -1.58623e-05 -1.57936e-05 -3.7126e-05
0.00015701 -4.71432e-05 -4.70857e-05 -3.09405e-05
0.000161235 -4.84134e-05 -4.83519e-05 -3.09406e-05
5.34169e-05 -1.60748e-05 -1.60038e-05 -3.7126e-05
0.000104861 -3.15037e-05 -3.14389e-05 -3.48068e-05
0.000159122 -4.77783e-05 -4.77188e-05 -3.09405e-05
0.000107676 -3.23513e-05 -3.2282e-05 -3.4807e-05
0.000106269 -3.19275e-05 -3.18605e-05 -3.48069e-05
5.27141e-05 -1.58623e-05 -1.57936e-05 -3.7126e-05
5.13084e-05 -1.54373e-05 -1.53733e-05 -3.71259e-05
0.000152785 -4.5873e-05 -4.58195e-05 -3.09403e-05
0.00015701 -4.71432e-05 -4.70857e-05 -3.09405e-05
5.20113e-05 -1.56498e-05 -1.55835e-05 -3.71259e-05
0.000102046 -3.0656e-05 -3.05956e-05 -3.48067e-05
0.000154898 -4.65081e-05 -4.64526e-05 -3.09404e-05
0.000104861 -3.15037e-05 -3.14389e-05 -3.48068e-05
0.000103453 -3.10799e-05 -3.10173e-05 -3.48068e-05
5.13084e-05 -1.54373e-05 -1.53733e-05 -3.71259e-05
4.99027e-05 -1.50124e-05 -1.4953e-05 -3.71258e-05
0.00014856 -4.46028e-05 -4.45532e-05 -3.09402e-05
0.000152785 -4.5873e-05 -4.58195e-05 -3.09403e-05
5.06056e-05 -1.52249e-05 -1.51632e-05 -3.71258e-05
9.92306e-05 -2.98085e-05 -2.97523e-05 -3.48066e-05
0.000150673 -4.52379e-05 -4.51864e-05 -3.09403e-05
0.000102046 -3.0656e-05 -3.05956e-05 -3.48067e-05
0.000100638 -3.02323e-05 -3.0174e-05 -3.48066e-05
4.99027e-05 -1.50124e-05 -1.4953e-05 -3.71258e-05
4.84968e-05 -1.45876e-05 -1.45325e-05 -3.71257e-05
0.000144335 -4.33328e-05 -4.32869e-05 -3.094e-05
0.00014856 -4.46028e-05 -4.45532e-05 -3.09402e-05
4.91998e-05 -1.48e-05 -1.47427e-05 -3.71257e-05
9.64153e-05 -2.8961e-05 -2.8909e-05 -3.48064e-05
0.000146448 -4.39678e-05 -4.39201e-05 -3.09401e-05
9.92306e-05 -2.98085e-05 -2.97523e-05 -3.48066e-05
9.7823e-05 -2.93847e-05 -2.93307e-05 -3.48065e-05
4.84968e-05 -1.45876e-05 -1.45325e-05 -3.71257e-05
4.70909e-05 -1.41629e-05 -1.4112e-05 -3.71256e-05
0.00014011 -4.20627e-05 -4.20205e-05 -3.09399e-05
0.000144335 -4.33328e-05 -4.32869e-05 -3.094e-05
4.77938e-05 -1.43752e-05 -1.43223e-05 -3.71256e-05
9.35999e-05 -2.81135e-05 -2.80656e-05 -3.48063e-05
0.000142223 -4.26977e-05 -4.26537e-05 -3.094e-05
9.64153e-05 -2.8961e-05 -2.8909e-05 -3.48064e-05
9.50076e-05 -2.85372e-05 -2.84873e-05 -3.48064e-05
4.70909e-05 -1.41629e-05 -1.4112e-05 -3.71256e-05
4.56848e-05 -1.37381e-05 -1.36914e-05 -3.71255e-05
0.000135885 -4.07927e-05 -4.0754e-05 -3.09398e-05
0.00014011 -4.20627e-05 -4.20205e-05 -3.09399e-05
4.63878e-05 -1.39505e-05 -1.39017e-05 -3.71255e-05
9.07844e-05 -2.72661e-05 -2.72221e-05 -3.48062e-05
0.000137998 -4.14277e-05 -4.13873e-05 -3.09398e-05
9.35999e-05 -2.81135e-05 -2.80656e-05 -3.48063e-05
9.21921e-05 -2.76898e-05 -2.76438e-05 -3.48062e-05
4.56848e-05 -1.37381e-05 -1.36914e-05 -3.71255e-05
4.42786e-05 -1.33135e-05 -1.32708e-05 -3.71254e-05
0.00013166 -3.95228e-05 -3.94875e-05 -3.09396e-05
0.000135885 -4.07927e-05 -4.0754e-05 -3.09398e-05
4.49817e-05 -1.35258e-05 -1.34811e-05 -3.71254e-05
8.79687e-05 -2.64188e-05 -2.63785e-05 -3.48061e-05
0.000133773 -4.01577e-05 -4.01208e-05 -3.09397e-05
9.07844e-05 -2.72661e-05 -2.72221e-05 -3.48062e-05
8.93766e-05 -2.68425e-05 -2.68003e-05 -3.48061e-05
4.42786e-05 -1.33135e-05 -1.32708e-05 -3.71254e-05
4.28724e-05 -1.28889e-05 -1.28501e-05 -3.71253e-05
0.000127435 -3.82529e-05 -3.82209e-05 -3.09395e-05
0.00013166 -3.95228e-05 -3.94875e-05 -3.09396e-05
4.35755e-05 -1.31012e-05 -1.30604e-05 -3.71253e-05
8.51531e-05 -2.55715e-05 -2.55349e-05 -3.48059e-05
0.000129548 -3.88878e-05 -3.88542e-05 -3.09396e-05
8.79687e-05 -2.64188e-05 -2.63785e-05 -3.48061e-05
8.65609e-05 -2.59952e-05 -2.59568e-05 -3.4806e-05
4.28724e-05 -1.28889e-05 -1.28501e-05 -3.71253e-05
4.1466e-05 -1.24644e-05 -1.24293e-05 -3.71252e-05
0.00012321 -3.6983e-05 -3.69543e-05 -3.09394e-05
0.000127435 -3.82529e-05 -3.82209e-05 -3.09395e-05
4.21692e-05 -1.26767e-05 -1.26397e-05 -3.71252e-05
8.23373e-05 -2.47243e-05 -2.46913e-05 -3.48058e-05
0.000125322 -3.7618e-05 -3.75876e-05 -3.09394e-05
8.51531e-05 -2.55715e-05 -2.55349e-05 -3.48059e-05
8.37452e-05 -2.51479e-05 -2.51131e-05 -3.48059e-05
4.1466e-05 -1.24644e-05 -1.24293e-05 -3.71252e-05
4.00596e-05 -1.20399e-05 -1.20084e-05 -3.71251e-05
0.000118984 -3.57133e-05 -3.56876e-05 -3.09392e-05
0.00012321 -3.6983e-05 -3.69543e-05 -3.09394e-05
4.07628e-05 -1.22522e-05 -1.22189e-05 -3.71252e-05
7.95214e-05 -2.38771e-05 -2.38475e-05 -3.48057e-05
0.000121097 -3.63481e-05 -3.6321e-05 -3.09393e-05
8.23373e-05 -2.47243e-05 -2.46913e-05 -3.48058e-05
8.09294e-05 -2.43007e-05 -2.42694e-05 -3.48058e-05
4.00596e-05 -1.20399e-05 -1.20084e-05 -3.71251e-05
3.86531e-05 -1.16156e-05 -1.15875e-05 -3.7125e-05
0.000114759 -3.44435e-05 -3.44209e-05 -3.09391e-05
0.000118984 -3.57133e-05 -3.56876e-05 -3.09392e-05
3.93564e-05 -1.18277e-05 -1.1798e-05 -3.71251e-05
7.67055e-05 -2.303e-05 -2.30037e-05 -3.48056e-05
0.000116872 -3.50784e-05 -3.50543e-05 -3.09392e-05
7.95214e-05 -2.38771e-05 -2.38475e-05 -3.48057e-05
7.81134e-05 -2.34536e-05 -2.34257e-05 -3.48057e-05
3.86531e-05 -1.16156e-05 -1.15875e-05 -3.7125e-05
3.72465e-05 -1.11912e-05 -1.11665e-05 -3.71249e-05
0.000110533 -3.31739e-05 -3.31541e-05 -3.0939e-05
0.000114759 -3.44435e-05 -3.44209e-05 -3.09391e-05
3.79498e-05 -1.14034e-05 -1.1377e-05 -3.7125e-05
7.38894e-05 -2.2183e-05 -2.21599e-05 -3.48055e-05
0.000112646 -3.38087e-05 -3.37875e-05 -3.09391e-05
7.67055e-05 -2.303e-05 -2.30037e-05 -3.48056e-05
7.52974e-05 -2.26065e-05 -2.25818e-05 -3.48056e-05
3.72465e-05 -1.11912e-05 -1.11665e-05 -3.71249e-05
3.58398e-05 -1.0767e-05 -1.07455e-05 -3.71249e-05
0.000106308 -3.19042e-05 -3.18872e-05 -3.09389e-05
0.000110533 -3.31739e-05 -3.31541e-05 -3.0939e-05
3.65431e-05 -1.09791e-05 -1.0956e-05 -3.71249e-05
7.10733e-05 -2.1336e-05 -2.1316e-05 -3.48054e-05
0.000108421 -3.2539e-05 -3.25207e-05 -3.0939e-05
7.38894e-05 -2.2183e-05 -2.21599e-05 -3.48055e-05
7.24814e-05 -2.17595e-05 -2.17379e-05 -3.48055e-05
3.58398e-05 -1.0767e-05 -1.07455e-05 -3.71249e-05
3.4433e-05 -1.03428e-05 -1.03244e-05 -3.71248e-05
0.000102082 -3.06347e-05 -3.06203e-05 -3.09388e-05
0.000106308 -3.19042e-05 -3.18872e-05 -3.09389e-05
3.51364e-05 -1.05549e-05 -1.05349e-05 -3.71248e-05
6.82571e-05 -2.04891e-05 -2.0472e-05 -3.48053e-05
0.000104195 -3.12694e-05 -3.12538e-05 -3.09389e-05
7.10733e-05 -2.1336e-05 -2.1316e-05 -3.48054e-05
6.96652e-05 -2.09126e-05 -2.0894e-05 -3.48054e-05
3.4433e-05 -1.03428e-05 -1.03244e-05 -3.71248e-05
3.30261e-05 -9.91868e-06 -9.90319e-06 -3.71247e-05
9.78564e-05 -2.93652e-05 -2.93534e-05 -3.09388e-05
0.000102082 -3.06347e-05 -3.06203e-05 -3.09388e-05
3.37296e-05 -1.01307e-05 -1.01138e-05 -3.71248e-05
6.54409e-05 -1.96423e-05 -1.9628e-05 -3.48053e-05
9.99692e-05 -2.99999e-05 -2.99869e-05 -3.09388e-05
6.82571e-05 -2.04891e-05 -2.0472e-05 -3.48053e-05
6.6849e-05 -2.00657e-05 -2.005e-05 -3.48053e-05
3.30261e-05 -9.91868e-06 -9.90319e-06 -3.71247e-05
3.16192e-05 -9.49463e-06 -9.48196e-06 -3.71246e-05
9.36306e-05 -2.80957e-05 -2.80864e-05 -3.09387e-05
9.78564e-05 -2.93652e-05 -2.93534e-05 -3.09388e-05
3.23227e-05 -9.70665e-06 -9.69258e-06 -3.71247e-05
6.26245e-05 -1.87955e-05 -1.87839e-05 -3.48052e-05
9.57435e-05 -2.87304e-05 -2.87199e-05 -3.09387e-05
6.54409e-05 -1.96423e-05 -1.9628e-05 -3.48053e-05
6.40327e-05 -1.92189e-05 -1.92059e-05 -3.48052e-05
3.16192e-05 -9.49463e-06 -9.48196e-06 -3.71246e-05
3.02122e-05 -9.07063e-06 -9.06068e-06 -3.71245e-05
8.94047e-05 -2.68264e-05 -2.68193e-05 -3.09387e-05
9.36306e-05 -2.80957e-05 -2.80864e-05 -3.09387e-05
3.09157e-05 -9.28262e-06 -9.27133e-06 -3.71246e-05
5.98082e-05 -1.79488e-05 -1.79397e-05 -3.48051e-05
9.15176e-05 -2.7461e-05 -2.74528e-05 -3.09387e-05
6.26245e-05 -1.87955e-05 -1.87839e-05 -3.48052e-05
6.12164e-05 -1.83722e-05 -1.83618e-05 -3.48051e-05
3.02122e-05 -9.07063e-06 -9.06068e-06 -3.71245e-05
2.88052e-05 -8.64666e-06 -8.63935e-06 -3.71243e-05
8.51789e-05 -2.55571e-05 -2.55522e-05 -3.09386e-05
8.94047e-05 -2.68264e-05 -2.68193e-05 -3.09387e-05
2.95087e-05 -8.85864e-06 -8.85002e-06 -3.71244e-05
5.69918e-05 -1.71022e-05 -1.70955e-05 -3.4805e-05
8.72918e-05 -2.61917e-05 -2.61857e-05 -3.09386e-05
5.98082e-05 -1.79488e-05 -1.79397e-05 -3.48051e-05
5.84e-05 -1.75255e-05 -1.75176e-05 -3.4805e-05
2.88052e-05 -8.64666e-06 -8.63935e-06 -3.71243e-05
2.7398e-05 -8.22268e-06 -8.218e-06 -3.71241e-05
8.0953e-05 -2.42878e-05 -2.42851e-05 -3.09385e-05
8.51789e-05 -2.55571e-05 -2.55522e-05 -3.09386e-05
2.81016e-05 -8.43468e-06 -8.42868e-06 -3.71242e-05
5.41753e-05 -1.62555e-05 -1.62513e-05 -3.48048e-05
8.30659e-05 -2.49224e-05 -2.49186e-05 -3.09385e-05
5.69918e-05 -1.71022e-05 -1.70955e-05 -3.4805e-05
5.55835e-05 -1.66789e-05 -1.66734e-05 -3.48049e-05
2.7398e-05 -8.22268e-06 -8.218e-06 -3.71241e-05
2.59907e-05 -7.79858e-06 -7.79664e-06 -3.71238e-05
7.67271e-05 -2.30185e-05 -2.3018e-05 -3.09383e-05
8.0953e-05 -2.42878e-05 -2.42851e-05 -3.09385e-05
2.66944e-05 -8.01065e-06 -8.00732e-06 -3.71239e-05
5.13588e-05 -1.54088e-05 -1.54071e-05 -3.48044e-05
7.884e-05 -2.36531e-05 -2.36515e-05 -3.09384e-05
5.41753e-05 -1.62555e-05 -1.62513e-05 -3.48048e-05
5.27671e-05 -1.58322e-05 -1.58292e-05 -3.48046e-05
2.59907e-05 -7.79858e-06 -7.79664e-06 -3.71238e-05
2.45832e-05 -7.3742e-06 -7.37531e-06 -3.71234e-05
7.25012e-05 -2.17489e-05 -2.1751e-05 -3.09378e-05
7.67271e-05 -2.30185e-05 -2.3018e-05 -3.09383e-05
2.5287e-05 -7.58644e-06 -7.58596e-06 -3.71236e-05
4.85421e-05 -1.45618e-05 -1.4563e-05 -3.4804e-05
7.46142e-05 -2.23837e-05 -2.23845e-05 -3.09381e-05
5.13588e-05 -1.54088e-05 -1.54071e-05 -3.48044e-05
4.99505e-05 -1.49853e-05 -1.49851e-05 -3.48042e-05
2.45832e-05 -7.3742e-06 -7.37531e-06 -3.71234e-05
2.31752e-05 -6.94919e-06 -6.95402e-06 -3.71232e-05
6.8275e-05 -2.04788e-05 -2.04841e-05 -3.0937e-05
7.25012e-05 -2.17489e-05 -2.1751e-05 -3.09378e-05
2.38793e-05 -7.1618e-06 -7.16466e-06 -3.71232e-05
4.5725e-05 -1.3714e-05 -1.3719e-05 -3.48034e-05
7.03881e-05 -2.1114e-05 -2.11175e-05 -3.09375e-05
4.85421e-05 -1.45618e-05 -1.4563e-05 -3.4804e-05
4.71337e-05 -1.4138e-05 -1.4141e-05 -3.48037e-05
2.31752e-05 -6.94919e-06 -6.95402e-06 -3.71232e-05
2.17663e-05 -6.5229e-06 -6.53289e-06 -3.71235e-05
6.4048e-05 -1.92072e-05 -1.92175e-05 -3.09355e-05
6.8275e-05 -2.04788e-05 -2.04841e-05 -3.0937e-05
2.24709e-05 -6.73626e-06 -6.74342e-06 -3.71232e-05
4.29068e-05 -1.28646e-05 -1.28753e-05 -3.48027e-05
6.61617e-05 -1.98432e-05 -1.98508e-05 -3.09364e-05
4.5725e-05 -1.3714e-05 -1.3719e-05 -3.48034e-05
4.43161e-05 -1.32896e-05 -1.32971e-05 -3.4803e-05
2.17663e-05 -6.5229e-06 -6.53289e-06 -3.71235e-05
2.03552e-05 -6.09417e-06 -6.11185e-06 -3.71258e-05
5.98191e-05 -1.79323e-05 -1.79515e-05 -3.09329e-05
6.4048e-05 -1.92072e-05 -1.92175e-05 -3.09355e-05
2.10612e-05 -6.30896e-06 -6.32237e-06 -3.71243e-05
4.00861e-05 -1.20118e-05 -1.20319e-05 -3.48025e-05
6.19338e-05 -1.85703e-05 -1.85844e-05 -3.09344e-05
4.29068e-05 -1.28646e-05 -1.28753e-05 -3.48027e-05
4.14969e-05 -1.24388e-05 -1.24535e-05 -3.48025e-05
2.03552e-05 -6.09417e-06 -6.11185e-06 -3.71258e-05
1.89402e-05 -5.66078e-06 -5.69119e-06 -3.71324e-05
5.5585e-05 -1.66509e-05 -1.6686e-05 -3.09285e-05
5.98191e-05 -1.79323e-05 -1.79515e-05 -3.09329e-05
1.96482e-05 -5.87824e-06 -5.90141e-06 -3.71283e-05
3.72599e-05 -1.11522e-05 -1.1189e-05 -3.48037e-05
5.7703e-05 -1.72928e-05 -1.73187e-05 -3.0931e-05
4.00861e-05 -1.20118e-05 -1.20319e-05 -3.48025e-05
3.86739e-05 -1.15831e-05 -1.16104e-05 -3.48028e-05
1.89402e-05 -5.66078e-06 -5.69119e-06 -3.71324e-05
1.75165e-05 -5.21905e-06 -5.27035e-06 -3.71489e-05
5.13409e-05 -1.53563e-05 -1.5422e-05 -3.09211e-05
5.5585e-05 -1.66509e-05 -1.6686e-05 -3.09285e-05
1.823e-05 -5.44134e-06 -5.48087e-06 -3.7139e-05
3.44223e-05 -1.02797e-05 -1.03468e-05 -3.4809e-05
5.34644e-05 -1.60058e-05 -1.60537e-05 -3.09253e-05
3.72599e-05 -1.11522e-05 -1.1189e-05 -3.48037e-05
3.5843e-05 -1.07182e-05 -1.07678e-05 -3.48058e-05
1.75165e-05 -5.21905e-06 -5.27035e-06 -3.71489e-05
1.60791e-05 -4.76222e-06 -4.8501e-06 -3.71851e-05
4.70737e-05 -1.40376e-05 -1.41583e-05 -3.09098e-05
5.13409e-05 -1.53563e-05 -1.5422e-05 -3.09211e-05
1.67996e-05 -4.99296e-06 -5.05999e-06 -3.71637e-05
3.15622e-05 -9.38355e-06 -9.50514e-06 -3.48233e-05
4.92116e-05 -1.47011e-05 -1.47902e-05 -3.09159e-05
3.44223e-05 -1.02797e-05 -1.03468e-05 -3.4809e-05
3.2996e-05 -9.83543e-06 -9.92594e-06 -3.48143e-05
1.60791e-05 -4.76222e-06 -4.8501e-06 -3.71851e-05
1.46116e-05 -4.28081e-06 -4.42747e-06 -3.72593e-05
4.27667e-05 -1.26748e-05 -1.28966e-05 -3.0892e-05
4.70737e-05 -1.40376e-05 -1.41583e-05 -3.09098e-05
1.53511e-05 -4.52567e-06 -4.63948e-06 -3.72158e-05
2.86601e-05 -8.44704e-06 -8.66272e-06 -3.48564e-05
4.49258e-05 -1.33631e-05 -1.35269e-05 -3.09021e-05
3.15622e-05 -9.38355e-06 -9.50514e-06 -3.48233e-05
3.01179e-05 -8.92203e-06 -9.08396e-06 -3.48372e-05
1.46116e-05 -4.28081e-06 -4.42747e-06 -3.72593e-05
1.31022e-05 -3.75821e-06 -4.00456e-06 -3.74004e-05
3.83759e-05 -1.12397e-05 -1.16298e-05 -3.087e-05
4.27667e-05 -1.26748e-05 -1.28966e-05 -3.0892e-05
1.38616e-05 -4.02523e-06 -4.21557e-06 -3.73192e-05
2.56821e-05 -7.44244e-06 -7.81701e-06 -3.49255e-05
4.05867e-05 -1.19692e-05 -1.22646e-05 -3.08809e-05
2.86601e-05 -8.44704e-06 -8.66272e-06 -3.48564e-05
2.71832e-05 -7.9547e-06 -8.2408e-06 -3.48838e-05
1.31022e-05 -3.75821e-06 -4.00456e-06 -3.74004e-05
1.15064e-05 -3.18015e-06 -3.56839e-06 -3.76556e-05
3.38584e-05 -9.68672e-06 -1.03593e-05 -3.0841e-05
3.83759e-05 -1.12397e-05 -1.16298e-05 -3.087e-05
1.23212e-05 -3.47836e-06 -3.78977e-06 -3.75097e-05
2.2579e-05 -6.3405e-06 -6.95934e-06 -3.506e-05
3.61334e-05 -1.04797e-05 -1.09944e-05 -3.08571e-05
2.56821e-05 -7.44244e-06 -7.81701e-06 -3.49255e-05
2.41497e-05 -6.90695e-06 -7.38976e-06 -3.49845e-05
1.15064e-05 -3.18015e-06 -3.56839e-06 -3.76556e-05
9.81656e-06 -2.52436e-06 -3.12523e-06 -3.80798e-05
2.90968e-05 -7.9781e-06 -9.05087e-06 -3.0832e-05
3.38584e-05 -9.68672e-06 -1.03593e-05 -3.0841e-05
1.06681e-05 -2.85972e-06 -3.34644e-06 -3.78431e-05
1.92771e-05 -5.10303e-06 -6.07459e-06 -3.53046e-05
3.15224e-05 -8.85698e-06 -9.71374e-06 -3.08301e-05
2.2579e-05 -6.3405e-06 -6.95934e-06 -3.506e-05
2.09585e-05 -5.73722e-06 -6.52341e-06 -3.51602e-05
9.81656e-06 -2.52436e-06 -3.12523e-06 -3.80798e-05
7.95325e-06 -1.8245e-06 -2.62661e-06 -3.87346e-05
2.40397e-05 -6.07339e-06 -7.69986e-06 -3.08605e-05
2.90968e-05 -7.9781e-06 -9.05087e-06 -3.0832e-05
8.92166e-06 -2.18107e-06 -2.88882e-06 -3.83739e-05
1.57177e-05 -3.76057e-06 -5.12447e-06 -3.5719e-05
2.65973e-05 -7.04285e-06 -8.3805e-06 -3.08416e-05
1.92771e-05 -5.10303e-06 -6.07459e-06 -3.53046e-05
1.75312e-05 -4.44471e-06 -5.60851e-06 -3.54954e-05
7.95325e-06 -1.8245e-06 -2.62661e-06 -3.87346e-05
6.02961e-06 -1.14328e-06 -2.09414e-06 -3.959e-05
1.85015e-05 -4.10648e-06 -6.16931e-06 -3.10753e-05
2.40397e-05 -6.07339e-06 -7.69986e-06 -3.08605e-05
6.96975e-06 -1.45939e-06 -2.36158e-06 -3.91451e-05
1.18693e-05 -2.42109e-06 -4.04924e-06 -3.63615e-05
2.13618e-05 -5.09379e-06 -6.97202e-06 -3.09268e-05
1.57177e-05 -3.76057e-06 -5.12447e-06 -3.5719e-05
1.38319e-05 -3.06199e-06 -4.61566e-06 -3.59907e-05
6.02961e-06 -1.14328e-06 -2.09414e-06 -3.959e-05
4.06184e-06 -8.53214e-07 -1.37512e-06 -4.04401e-05
1.27537e-05 -2.40245e-06 -4.43626e-06 -3.15825e-05
1.85015e-05 -4.10648e-06 -6.16931e-06 -3.10753e-05
5.07844e-06 -9.35888e-07 -1.77538e-06 -4.00377e-05
8.00061e-06 -1.62716e-06 -2.73148e-06 -3.72012e-05
1.55888e-05 -3.14669e-06 -5.33235e-06 -3.12876e-05
1.18693e-05 -2.42109e-06 -4.04924e-06 -3.63615e-05
9.90169e-06 -1.92089e-06 -3.42034e-06 -3.67966e-05
4.06184e-06 -8.53214e-07 -1.37512e-06 -4.04401e-05
2.68682e-06 -1.38295e-06 -5.58801e-07 -4.04888e-05
7.16724e-06 -2.3694e-06 -2.05622e-06 -3.27356e-05
1.27537e-05 -2.40245e-06 -4.43626e-06 -3.15825e-05
3.19342e-06 -9.37888e-07 -9.66658e-07 -4.06457e-05
4.70768e-06 -2.25876e-06 -1.04954e-06 -3.78421e-05
9.95894e-06 -2.08799e-06 -3.37327e-06 -3.20467e-05
8.00061e-06 -1.62716e-06 -2.73148e-06 -3.72012e-05
6.24348e-06 -1.64561e-06 -1.97052e-06 -3.75347e-05
2.68682e-06 -1.38295e-06 -5.58801e-07 -4.04888e-05
1.97021e-06 -3.58638e-06 6.92647e-07 -3.82574e-05
4.19959e-06 -6.5141e-06 9.91935e-07 -3.3646e-05
7.16724e-06 -2.3694e-06 -2.05622e-06 -3.27356e-05
2.34481e-06 -2.33273e-06 -5.17915e-09 -3.97785e-05
3.5367e-06 -6.00714e-06 1.05876e-06 -3.66861e-05
5.03024e-06 -3.548e-06 -6.35247e-07 -3.33482e-05
4.70768e-06 -2.25876e-06 -1.04954e-06 -3.78421e-05
3.70237e-06 -3.72225e-06 8.5201e-09 -3.77628e-05
1.97021e-06 -3.58638e-06 6.92647e-07 -3.82574e-05
2.65371e-06 -6.48888e-06 1.64364e-06 -3.12916e-05
5.66507e-06 -1.95239e-05 5.93949e-06 -3.09573e-05
4.19959e-06 -6.5141e-06 9.91935e-07 -3.3646e-05
1.94562e-06 -4.93579e-06 1.2815e-06 -3.5529e-05
4.38584e-06 -1.28186e-05 3.61406e-06 -3.05572e-05
4.47721e-06 -1.20009e-05 3.22442e-06 -3.31888e-05
3.5367e-06 -6.00714e-06 1.05876e-06 -3.66861e-05
3.87605e-06 -9.03562e-06 2.21124e-06 -3.42929e-05
2.65371e-06 -6.48888e-06 1.64364e-06 -3.12916e-05
4.49879e-06 -1.05781e-05 2.6054e-06 -1.78611e-05
1.00659e-05 -3.53936e-05 1.08547e-05 -1.63912e-05
5.66507e-06 -1.95239e-05 5.93949e-06 -3.09573e-05
3.65218e-06 -8.38561e-06 2.02861e-06 -2.54506e-05
6.36567e-06 -2.18689e-05 6.64424e-06 -1.81074e-05
7.58674e-06 -2.80281e-05 8.7606e-06 -2.56024e-05
4.38584e-06 -1.28186e-05 3.61406e-06 -3.05572e-05
5.17828e-06 -1.72754e-05 5.18447e-06 -2.52963e-05
0.000680279 0 -0.000291548 8.8796e-05
0.000769711 -0.00010221 -0.000286072 -3.43899e-06
0.00133118 -0.000264031 -0.000457348 -9.96679e-05
0.00118267 2.22045e-16 -0.000506857 -6.8622e-05
0.000737424 -5.74958e-05 -0.000291398 3.30703e-05
0.00102747 -0.000159535 -0.000371971 -4.15166e-05
0.00126589 -0.000124562 -0.000489139 -0.000115577
0.000967284 0 -0.00041455 1.30889e-05
0.000983738 -8.84837e-05 -0.00038368 -1.37029e-05
0.000769711 -0.00010221 -0.000286072 -3.43899e-06
0.000809246 -0.000186915 -0.000266713 -3.21094e-05
0.00138333 -0.000375028 -0.000432128 -4.76965e-05
0.00133118 -0.000264031 -0.000457348 -9.96679e-05
0.000789518 -0.000147239 -0.000275263 -2.19133e-05
0.00109601 -0.000270993 -0.000353577 -4.83567e-05
0.00137237 -0.000342256 -0.000441478 -7.20411e-05
0.00102747 -0.000159535 -0.000371971 -4.15166e-05
0.00107329 -0.000222115 -0.000364789 -5.42918e-05
0.000809246 -0.000186915 -0.000266713 -3.21094e-05
0.000829399 -0.000229826 -0.00025696 -3.75972e-05
0.00137678 -0.000406319 -0.000415911 -1.7898e-05
0.00138333 -0.000375028 -0.000432128 -4.76965e-05
0.000824128 -0.000213514 -0.000261691 -3.71152e-05
0.00110723 -0.000315989 -0.000339103 -3.25308e-05
0.00137961 -0.000394484 -0.000422195 -2.8166e-05
0.00109601 -0.000270993 -0.000353577 -4.83567e-05
0.00110439 -0.000300327 -0.000344598 -3.82923e-05
0.000829399 -0.000229826 -0.00025696 -3.75972e-05
0.000828795 -0.000246789 -0.000249431 -3.47204e-05
0.00136711 -0.000410726 -0.000409879 -1.11493e-05
0.00137678 -0.000406319 -0.000415911 -1.7898e-05
0.00082948 -0.000240458 -0.000252438 -3.59937e-05
0.00110198 -0.000330458 -0.000330654 -2.46908e-05
0.00137317 -0.000410526 -0.000412562 -1.33776e-05
0.00110723 -0.000315989 -0.000339103 -3.25308e-05
0.00110595 -0.000325398 -0.000334523 -2.83168e-05
0.000828795 -0.000246789 -0.000249431 -3.47204e-05
0.000823069 -0.000250124 -0.000245548 -3.27436e-05
0.00135592 -0.000410103 -0.000405349 -1.07694e-05
0.00136711 -0.000410726 -0.000409879 -1.11493e-05
0.00082683 -0.000249552 -0.000247405 -3.37372e-05
0.00109192 -0.000331394 -0.00032594 -2.21861e-05
0.00136067 -0.000410556 -0.00040719 -1.02986e-05
0.00110198 -0.000330458 -0.000330654 -2.46908e-05
0.00109681 -0.000331915 -0.000327812 -2.26279e-05
0.000823069 -0.000250124 -0.000245548 -3.27436e-05
0.000814921 -0.000248942 -0.000242562 -3.14172e-05
0.00134742 -0.000407133 -0.000402979 -1.29667e-05
0.00135592 -0.000410103 -0.000405349 -1.07694e-05
0.000818703 -0.000249806 -0.000243813 -3.1879e-05
0.00108262 -0.000329144 -0.000322919 -2.23137e-05
0.00135184 -0.000408812 -0.000404155 -1.19208e-05
0.00109192 -0.000331394 -0.00032594 -2.21861e-05
0.00108722 -0.000330407 -0.000324349 -2.22381e-05
0.000814921 -0.000248942 -0.000242562 -3.14172e-05
0.000807807 -0.000246223 -0.000240679 -3.09963e-05
0.0013392 -0.000404214 -0.000400709 -1.48345e-05
0.00134742 -0.000407133 -0.000402979 -1.29667e-05
0.000811397 -0.000247665 -0.000241599 -3.11854e-05
0.00107425 -0.000325836 -0.000320748 -2.31297e-05
0.00134306 -0.000405616 -0.000401763 -1.39007e-05
0.00108262 -0.000329144 -0.000322919 -2.23137e-05
0.00107825 -0.000327541 -0.000321735 -2.26231e-05
0.000807807 -0.000246223 -0.000240679 -3.09963e-05
0.000801322 -0.000243541 -0.000239049 -3.08142e-05
0.00133183 -0.000401365 -0.000398771 -1.63684e-05
0.0013392 -0.000404214 -0.000400709 -1.48345e-05
0.000804374 -0.000244839 -0.000239801 -3.08588e-05
0.00106696 -0.00032285 -0.000318903 -2.39616e-05
0.00133555 -0.00040278 -0.000399759 -1.57011e-05
0.00107425 -0.000325836 -0.000320748 -2.31297e-05
0.00107051 -0.000324279 -0.000319814 -2.36009e-05
0.000801322 -0.000243541 -0.000239049 -3.08142e-05
0.000795789 -0.000241174 -0.000237692 -3.08186e-05
0.00132455 -0.000398784 -0.000396756 -1.73078e-05
0.00133183 -0.000401365 -0.000398771 -1.63684e-05
0.000798508 -0.000242314 -0.000238369 -3.0817e-05
0.00106033 -0.000320192 -0.000317204 -2.45882e-05
0.00132813 -0.00040004 -0.000397754 -1.68835e-05
0.00106696 -0.00032285 -0.000318903 -2.39616e-05
0.00106357 -0.000321482 -0.000318038 -2.42891e-05
0.000795789 -0.000241174 -0.000237692 -3.08186e-05
0.000790747 -0.000239188 -0.000236383 -3.08417e-05
0.00131746 -0.000396369 -0.000394755 -1.79055e-05
0.00132455 -0.000398784 -0.000396756 -1.73078e-05
0.000793193 -0.000240137 -0.000237024 -3.08237e-05
0.00105417 -0.000317905 -0.000315542 -2.49991e-05
0.00132102 -0.000397561 -0.000395766 -1.76527e-05
0.00106033 -0.000320192 -0.000317204 -2.45882e-05
0.00105721 -0.000319007 -0.000316374 -2.48251e-05
0.000790747 -0.000239188 -0.000236383 -3.08417e-05
0.000786103 -0.000237476 -0.000235126 -3.08813e-05
0.00131039 -0.000394083 -0.000392705 -1.82308e-05
0.00131746 -0.000396369 -0.000394755 -1.79055e-05
0.000788401 -0.000238304 -0.000235756 -3.08642e-05
0.00104826 -0.000315851 -0.00031389 -2.52503e-05
0.00131392 -0.000395213 -0.000393731 -1.80901e-05
0.00105417 -0.000317905 -0.000315542 -2.49991e-05
0.00105119 -0.000316855 -0.000314715 -2.51383e-05
0.000786103 -0.000237476 -0.000235126 -3.08813e-05
0.000781651 -0.000235952 -0.000233871 -3.09092e-05
0.00130336 -0.000391872 -0.000390638 -1.84134e-05
0.00131039 -0.000394083 -0.000392705 -1.82308e-05
0.000783854 -0.000236695 -0.000234497 -3.08955e-05
0.0010425 -0.000313958 -0.00031223 -2.53931e-05
0.00130688 -0.000392971 -0.000391676 -1.83377e-05
0.00104826 -0.000315851 -0.00031389 -2.52503e-05
0.00104537 -0.000314889 -0.000313062 -2.53337e-05
0.000781651 -0.000235952 -0.000233871 -3.09092e-05
0.000777326 -0.000234541 -0.000232622 -3.0931e-05
0.00129633 -0.000389705 -0.000388552 -1.85044e-05
0.00130336 -0.000391872 -0.000390638 -1.84134e-05
0.000779481 -0.000235236 -0.000233248 -3.09216e-05
0.00103681 -0.000312156 -0.000310564 -2.54717e-05
0.00129984 -0.000390784 -0.000389596 -1.84662e-05
0.0010425 -0.000313958 -0.00031223 -2.53931e-05
0.00103964 -0.000313049 -0.000311398 -2.54379e-05
0.000777326 -0.000234541 -0.000232622 -3.0931e-05
0.000773057 -0.000233195 -0.000231369 -3.09448e-05
0.0012893 -0.000387562 -0.000386457 -1.85507e-05
0.00129633 -0.000389705 -0.000388552 -1.85044e-05
0.000775185 -0.000233862 -0.000231996 -3.09385e-05
0.00103115 -0.000310405 -0.000308892 -2.55128e-05
0.00129281 -0.000388632 -0.000387506 -1.8532e-05
0.00103681 -0.000312156 -0.000310564 -2.54717e-05
0.00103398 -0.000311276 -0.000309729 -2.5496e-05
0.000773057 -0.000233195 -0.000231369 -3.09448e-05
0.00076882 -0.000231883 -0.000230116 -3.09539e-05
0.00128226 -0.000385432 -0.000384356 -1.85718e-05
0.0012893 -0.000387562 -0.000386457 -1.85507e-05
0.000770936 -0.000232536 -0.000230743 -3.095e-05
0.00102552 -0.000308682 -0.000307215 -2.55337e-05
0.00128578 -0.000386496 -0.000385407 -1.85632e-05
0.00103115 -0.000310405 -0.000308892 -2.55128e-05
0.00102833 -0.000309541 -0.000308054 -2.55249e-05
0.00076882 -0.000231883 -0.000230116 -3.09539e-05
0.000764597 -0.00023059 -0.00022886 -3.09595e-05
0.00127523 -0.000383308 -0.000382251 -1.85814e-05
0.00128226 -0.000385432 -0.000384356 -1.85718e-05
0.000766707 -0.000231235 -0.000229488 -3.0957e-05
0.00101989 -0.000306972 -0.000305536 -2.55439e-05
0.00127875 -0.00038437 -0.000383304 -1.85777e-05
0.00102552 -0.000308682 -0.000307215 -2.55337e-05
0.0010227 -0.000307825 -0.000306376 -2.55398e-05
0.000764597 -0.00023059 -0.00022886 -3.09595e-05
0.00076038 -0.000229306 -0.000227603 -3.09629e-05
0.00126819 -0.000381187 -0.000380145 -1.85853e-05
0.00127523 -0.000383308 -0.000382251 -1.85814e-05
0.000762488 -0.000229947 -0.000228232 -3.09614e-05
0.00101426 -0.000305269 -0.000303855 -2.55488e-05
0.00127171 -0.000382247 -0.000381198 -1.85838e-05
0.00101989 -0.000306972 -0.000305536 -2.55439e-05
0.00101708 -0.00030612 -0.000304695 -2.55468e-05
0.00076038 -0.000229306 -0.000227603 -3.09629e-05
0.000756165 -0.000228025 -0.000226346 -3.09649e-05
0.00126116 -0.000379067 -0.000378038 -1.85867e-05
0.00126819 -0.000381187 -0.000380145 -1.85853e-05
0.000758272 -0.000228665 -0.000226975 -3.0964e-05
0.00100864 -0.000303568 -0.000302173 -2.5551e-05
0.00126467 -0.000380127 -0.000379092 -1.85862e-05
0.00101426 -0.000305269 -0.000303855 -2.55488e-05
0.00101145 -0.000304418 -0.000303014 -2.55501e-05
0.000756165 -0.000228025 -0.000226346 -3.09649e-05
0.000751951 -0.000226747 -0.000225088 -3.09661e-05
0.00125412 -0.000376948 -0.00037593 -1.85871e-05
0.00126116 -0.000379067 -0.000378038 -1.85867e-05
0.000754058 -0.000227386 -0.000225717 -3.09656e-05
0.00100301 -0.000301869 -0.00030049 -2.55519e-05
0.00125764 -0.000378007 -0.000376984 -1.8587e-05
0.00100864 -0.000303568 -0.000302173 -2.5551e-05
0.00100582 -0.000302719 -0.000301331 -2.55516e-05
0.000751951 -0.000226747 -0.000225088 -3.09661e-05
0.000747737 -0.000225469 -0.000223829 -3.09667e-05
0.00124708 -0.000374828 -0.000373822 -1.8587e-05
0.00125412 -0.000376948 -0.00037593 -1.85871e-05
0.000749844 -0.000226108 -0.000224458 -3.09664e-05
0.000997387 -0.00030017 -0.000298807 -2.55523e-05
0.0012506 -0.000375888 -0.000374876 -1.85871e-05
0.00100301 -0.000301869 -0.00030049 -2.55519e-05
0.0010002 -0.00030102 -0.000299649 -2.55521e-05
0.000747737 -0.000225469 -0.000223829 -3.09667e-05
0.000743523 -0.000224192 -0.000222571 -3.0967e-05
0.00124004 -0.000372709 -0.000371714 -1.85869e-05
0.00124708 -0.000374828 -0.000373822 -1.8587e-05
0.000745631 -0.000224831 -0.0002232 -3.09669e-05
0.000991761 -0.000298472 -0.000297124 -2.55523e-05
0.00124356 -0.000373769 -0.000372768 -1.8587e-05
0.000997387 -0.00030017 -0.000298807 -2.55523e-05
0.000994574 -0.000299321 -0.000297965 -2.55523e-05
0.000743523 -0.000224192 -0.000222571 -3.0967e-05
0.000739309 -0.000222915 -0.000221312 -3.0967e-05
0.001233 -0.00037059 -0.000369606 -1.85867e-05
0.00124004 -0.000372709 -0.000371714 -1.85869e-05
0.000741416 -0.000223553 -0.000221941 -3.0967e-05
0.000986135 -0.000296774 -0.000295441 -2.55522e-05
0.00123652 -0.000371649 -0.00037066 -1.85868e-05
0.000991761 -0.000298472 -0.000297124 -2.55523e-05
0.000988948 -0.000297623 -0.000296282 -2.55523e-05
0.000739309 -0.000222915 -0.000221312 -3.0967e-05
0.000735095 -0.000221638 -0.000220053 -3.0967e-05
0.00122597 -0.00036847 -0.000367498 -1.85865e-05
0.001233 -0.00037059 -0.000369606 -1.85867e-05
0.000737202 -0.000222276 -0.000220683 -3.0967e-05
0.000980509 -0.000295075 -0.000293757 -2.55521e-05
0.00122948 -0.00036953 -0.000368552 -1.85866e-05
0.000986135 -0.000296774 -0.000295441 -2.55522e-05
0.000983322 -0.000295924 -0.000294599 -2.55522e-05
0.000735095 -0.000221638 -0.000220053 -3.0967e-05
0.00073088 -0.000220361 -0.000218794 -3.09669e-05
0.00121893 -0.000366351 -0.00036539 -1.85863e-05
0.00122597 -0.00036847 -0.000367498 -1.85865e-05
0.000732988 -0.000220999 -0.000219424 -3.0967e-05
0.000974883 -0.000293377 -0.000292074 -2.55519e-05
0.00122245 -0.000367411 -0.000366444 -1.85864e-05
0.000980509 -0.000295075 -0.000293757 -2.55521e-05
0.000977696 -0.000294226 -0.000292916 -2.5552e-05
0.00073088 -0.000220361 -0.000218794 -3.09669e-05
0.000726666 -0.000219084 -0.000217535 -3.09668e-05
0.00121189 -0.000364232 -0.000363281 -1.85861e-05
0.00121893 -0.000366351 -0.00036539 -1.85863e-05
0.000728773 -0.000219722 -0.000218165 -3.09668e-05
0.000969256 -0.000291678 -0.000290391 -2.55518e-05
0.00121541 -0.000365291 -0.000364336 -1.85862e-05
0.000974883 -0.000293377 -0.000292074 -2.55519e-05
0.00097207 -0.000292528 -0.000291232 -2.55519e-05
0.000726666 -0.000219084 -0.000217535 -3.09668e-05
0.000722451 -0.000217807 -0.000216276 -3.09666e-05
0.00120485 -0.000362113 -0.000361173 -1.8586e-05
0.00121189 -0.000364232 -0.000363281 -1.85861e-05
0.000724558 -0.000218445 -0.000216906 -3.09667e-05
0.00096363 -0.00028998 -0.000288707 -2.55516e-05
0.00120837 -0.000363172 -0.000362227 -1.85861e-05
0.000969256 -0.000291678 -0.000290391 -2.55518e-05
0.000966443 -0.000290829 -0.000289549 -2.55517e-05
0.000722451 -0.000217807 -0.000216276 -3.09666e-05
0.000718236 -0.00021653 -0.000215017 -3.09664e-05
0.00119781 -0.000359993 -0.000359065 -1.85858e-05
0.00120485 -0.000362113 -0.000361173 -1.8586e-05
0.000720343 -0.000217168 -0.000215647 -3.09665e-05
0.000958003 -0.000288282 -0.000287024 -2.55514e-05
0.00120133 -0.000361053 -0.000360119 -1.85859e-05
0.00096363 -0.00028998 -0.000288707 -2.55516e-05
0.000960817 -0.000289131 -0.000287865 -2.55515e-05
0.000718236 -0.00021653 -0.000215017 -3.09664e-05
0.000714021 -0.000215253 -0.000213758 -3.09662e-05
0.00119077 -0.000357874 -0.000356956 -1.85856e-05
0.00119781 -0.000359993 -0.000359065 -1.85858e-05
0.000716129 -0.000215891 -0.000214387 -3.09663e-05
0.000952377 -0.000286583 -0.00028534 -2.55512e-05
0.00119429 -0.000358934 -0.000358011 -1.85857e-05
0.000958003 -0.000288282 -0.000287024 -2.55514e-05
0.00095519 -0.000287433 -0.000286182 -2.55513e-05
0.000714021 -0.000215253 -0.000213758 -3.09662e-05
0.000709806 -0.000213976 -0.000212499 -3.0966e-05
0.00118373 -0.000355755 -0.000354848 -1.85855e-05
0.00119077 -0.000357874 -0.000356956 -1.85856e-05
0.000711914 -0.000214614 -0.000213128 -3.09661e-05
0.00094675 -0.000284885 -0.000283656 -2.5551e-05
0.00118725 -0.000356815 -0.000355902 -1.85856e-05
0.000952377 -0.000286583 -0.00028534 -2.55512e-05
0.000949564 -0.000285734 -0.000284498 -2.55511e-05
0.000709806 -0.000213976 -0.000212499 -3.0966e-05
0.000705591 -0.000212699 -0.000211239 -3.09659e-05
0.00117669 -0.000353636 -0.00035274 -1.85853e-05
0.00118373 -0.000355755 -0.000354848 -1.85855e-05
0.000707699 -0.000213337 -0.000211869 -3.0966e-05
0.000941123 -0.000283187 -0.000281973 -2.55508e-05
0.00118021 -0.000354696 -0.000353794 -1.85854e-05
0.00094675 -0.000284885 -0.000283656 -2.5551e-05
0.000943937 -0.000284036 -0.000282815 -2.55509e-05
0.000705591 -0.000212699 -0.000211239 -3.09659e-05
0.000701376 -0.000211422 -0.00020998 -3.09657e-05
0.00116966 -0.000351517 -0.000350631 -1.85852e-05
0.00117669 -0.000353636 -0.00035274 -1.85853e-05
0.000703483 -0.000212061 -0.00021061 -3.09658e-05
0.000935497 -0.000281489 -0.000280289 -2.55507e-05
0.00117318 -0.000352576 -0.000351685 -1.85853e-05
0.000941123 -0.000283187 -0.000281973 -2.55508e-05
0.00093831 -0.000282338 -0.000281131 -2.55508e-05
0.000701376 -0.000211422 -0.00020998 -3.09657e-05
0.000697161 -0.000210146 -0.000208721 -3.09655e-05
0.00116262 -0.000349398 -0.000348523 -1.8585e-05
0.00116966 -0.000351517 -0.000350631 -1.85852e-05
0.000699268 -0.000210784 -0.00020935 -3.09656e-05
0.00092987 -0.000279791 -0.000278605 -2.55505e-05
0.00116614 -0.000350457 -0.000349577 -1.85851e-05
0.000935497 -0.000281489 -0.000280289 -2.55507e-05
0.000932683 -0.00028064 -0.000279447 -2.55506e-05
0.000697161 -0.000210146 -0.000208721 -3.09655e-05
0.000692945 -0.000208869 -0.000207461 -3.09653e-05
0.00115558 -0.000347279 -0.000346414 -1.85849e-05
0.00116262 -0.000349398 -0.000348523 -1.8585e-05
0.000695053 -0.000209507 -0.000208091 -3.09654e-05
0.000924243 -0.000278093 -0.000276922 -2.55503e-05
0.0011591 -0.000348338 -0.000347468 -1.8585e-05
0.00092987 -0.000279791 -0.000278605 -2.55505e-05
0.000927056 -0.000278942 -0.000277763 -2.55504e-05
0.000692945 -0.000208869 -0.000207461 -3.09653e-05
0.00068873 -0.000207592 -0.000206202 -3.09651e-05
0.00114854 -0.00034516 -0.000344305 -1.85848e-05
0.00115558 -0.000347279 -0.000346414 -1.85849e-05
0.000690837 -0.000208231 -0.000206831 -3.09652e-05
0.000918616 -0.000276395 -0.000275238 -2.55501e-05
0.00115206 -0.000346219 -0.00034536 -1.85848e-05
0.000924243 -0.000278093 -0.000276922 -2.55503e-05
0.000921429 -0.000277244 -0.00027608 -2.55502e-05
0.00068873 -0.000207592 -0.000206202 -3.09651e-05
0.000684514 -0.000206316 -0.000204942 -3.0965e-05
0.0011415 -0.000343041 -0.000342197 -1.85846e-05
0.00114854 -0.00034516 -0.000344305 -1.85848e-05
0.000686622 -0.000206954 -0.000205572 -3.0965e-05
0.000912989 -0.000274697 -0.000273554 -2.555e-05
0.00114502 -0.0003441 -0.000343251 -1.85847e-05
0.000918616 -0.000276395 -0.000275238 -2.55501e-05
0.000915802 -0.000275546 -0.000274396 -2.55501e-05
0.000684514 -0.000206316 -0.000204942 -3.0965e-05
0.000680299 -0.000205039 -0.000203683 -3.09648e-05
0.00113446 -0.000340922 -0.000340088 -1.85845e-05
0.0011415 -0.000343041 -0.000342197 -1.85846e-05
0.000682406 -0.000205678 -0.000204312 -3.09649e-05
0.000907362 -0.000272999 -0.00027187 -2.55498e-05
0.00113798 -0.000341981 -0.000341143 -1.85845e-05
0.000912989 -0.000274697 -0.000273554 -2.555e-05
0.000910175 -0.000273848 -0.000272712 -2.55499e-05
0.000680299 -0.000205039 -0.000203683 -3.09648e-05
0.000676083 -0.000203763 -0.000202423 -3.09646e-05
0.00112742 -0.000338803 -0.00033798 -1.85843e-05
0.00113446 -0.000340922 -0.000340088 -1.85845e-05
0.000678191 -0.000204401 -0.000203053 -3.09647e-05
0.000901735 -0.000271301 -0.000270186 -2.55496e-05
0.00113094 -0.000339862 -0.000339034 -1.85844e-05
0.000907362 -0.000272999 -0.00027187 -2.55498e-05
0.000904548 -0.00027215 -0.000271028 -2.55497e-05
0.000676083 -0.000203763 -0.000202423 -3.09646e-05
0.000671867 -0.000202486 -0.000201163 -3.09644e-05
0.00112038 -0.000336684 -0.000335871 -1.85842e-05
0.00112742 -0.000338803 -0.00033798 -1.85843e-05
0.000673975 -0.000203125 -0.000201793 -3.09645e-05
0.000896107 -0.000269603 -0.000268502 -2.55494e-05
0.0011239 -0.000337743 -0.000336925 -1.85843e-05
0.000901735 -0.000271301 -0.000270186 -2.55496e-05
0.000898921 -0.000270452 -0.000269344 -2.55495e-05
0.000671867 -0.000202486 -0.000201163 -3.09644e-05
0.000667652 -0.00020121 -0.000199904 -3.09642e-05
0.00111334 -0.000334565 -0.000333762 -1.8584e-05
0.00112038 -0.000336684 -0.000335871 -1.85842e-05
0.000669759 -0.000201848 -0.000200533 -3.09643e-05
0.00089048 -0.000267905 -0.000266818 -2.55493e-05
0.00111686 -0.000335625 -0.000334817 -1.85841e-05
0.000896107 -0.000269603 -0.000268502 -2.55494e-05
0.000893294 -0.000268754 -0.00026766 -2.55494e-05
0.000667652 -0.00020121 -0.000199904 -3.09642e-05
0.000663436 -0.000199934 -0.000198644 -3.0964e-05
0.0011063 -0.000332446 -0.000331653 -1.85839e-05
0.00111334 -0.000334565 -0.000333762 -1.8584e-05
0.000665544 -0.000200572 -0.000199274 -3.09641e-05
0.000884853 -0.000266207 -0.000265134 -2.55491e-05
0.00110982 -0.000333506 -0.000332708 -1.8584e-05
0.00089048 -0.000267905 -0.000266818 -2.55493e-05
0.000887667 -0.000267056 -0.000265976 -2.55492e-05
0.000663436 -0.000199934 -0.000198644 -3.0964e-05
0.00065922 -0.000198657 -0.000197384 -3.09639e-05
0.00109927 -0.000330328 -0.000329545 -1.85837e-05
0.0011063 -0.000332446 -0.000331653 -1.85839e-05
0.000661328 -0.000199296 -0.000198014 -3.0964e-05
0.000879225 -0.000264509 -0.00026345 -2.55489e-05
0.00110278 -0.000331387 -0.000330599 -1.85838e-05
0.000884853 -0.000266207 -0.000265134 -2.55491e-05
0.000882039 -0.000265358 -0.000264292 -2.5549e-05
0.00065922 -0.000198657 -0.000197384 -3.09639e-05
0.000655004 -0.000197381 -0.000196124 -3.09637e-05
0.00109223 -0.000328209 -0.000327436 -1.85836e-05
0.00109927 -0.000330328 -0.000329545 -1.85837e-05
0.000657112 -0.000198019 -0.000196754 -3.09638e-05
0.000873598 -0.000262812 -0.000261766 -2.55487e-05
0.00109575 -0.000329268 -0.00032849 -1.85837e-05
0.000879225 -0.000264509 -0.00026345 -2.55489e-05
0.000876412 -0.000263661 -0.000262608 -2.55488e-05
0.000655004 -0.000197381 -0.000196124 -3.09637e-05
0.000650788 -0.000196105 -0.000194864 -3.09635e-05
0.00108519 -0.00032609 -0.000325327 -1.85834e-05
0.00109223 -0.000328209 -0.000327436 -1.85836e-05
0.000652896 -0.000196743 -0.000195494 -3.09636e-05
0.000867971 -0.000261114 -0.000260081 -2.55486e-05
0.00108871 -0.000327149 -0.000326381 -1.85835e-05
0.000873598 -0.000262812 -0.000261766 -2.55487e-05
0.000870784 -0.000261963 -0.000260923 -2.55487e-05
0.000650788 -0.000196105 -0.000194864 -3.09635e-05
0.000646571 -0.000194829 -0.000193604 -3.09633e-05
0.00107815 -0.000323971 -0.000323218 -1.85833e-05
0.00108519 -0.00032609 -0.000325327 -1.85834e-05
0.00064868 -0.000195467 -0.000194234 -3.09634e-05
0.000862343 -0.000259416 -0.000258397 -2.55484e-05
0.00108167 -0.000325031 -0.000324273 -1.85834e-05
0.000867971 -0.000261114 -0.000260081 -2.55486e-05
0.000865157 -0.000260265 -0.000259239 -2.55485e-05
0.000646571 -0.000194829 -0.000193604 -3.09633e-05
0.000642355 -0.000193553 -0.000192344 -3.09631e-05
0.00107111 -0.000321853 -0.000321109 -1.85831e-05
0.00107815 -0.000323971 -0.000323218 -1.85833e-05
0.000644463 -0.000194191 -0.000192974 -3.09632e-05
0.000856715 -0.000257719 -0.000256713 -2.55482e-05
0.00107463 -0.000322912 -0.000322164 -1.85832e-05
0.000862343 -0.000259416 -0.000258397 -2.55484e-05
0.000859529 -0.000258568 -0.000257555 -2.55483e-05
0.000642355 -0.000193553 -0.000192344 -3.09631e-05
0.000638139 -0.000192277 -0.000191084 -3.09629e-05
0.00106407 -0.000319734 -0.000319 -1.8583e-05
0.00107111 -0.000321853 -0.000321109 -1.85831e-05
0.000640247 -0.000192915 -0.000191714 -3.0963e-05
0.000851088 -0.000256021 -0.000255028 -2.5548e-05
0.00106759 -0.000320793 -0.000320055 -1.85831e-05
0.000856715 -0.000257719 -0.000256713 -2.55482e-05
0.000853902 -0.00025687 -0.000255871 -2.55481e-05
0.000638139 -0.000192277 -0.000191084 -3.09629e-05
0.000633923 -0.000191001 -0.000189824 -3.09627e-05
0.00105703 -0.000317615 -0.000316891 -1.85828e-05
0.00106407 -0.000319734 -0.000319 -1.8583e-05
0.000636031 -0.000191639 -0.000190454 -3.09628e-05
0.00084546 -0.000254324 -0.000253344 -2.55478e-05
0.00106055 -0.000318675 -0.000317946 -1.85829e-05
0.000851088 -0.000256021 -0.000255028 -2.5548e-05
0.000848274 -0.000255173 -0.000254186 -2.55479e-05
0.000633923 -0.000191001 -0.000189824 -3.09627e-05
0.000629706 -0.000189725 -0.000188563 -3.09625e-05
0.00104999 -0.000315497 -0.000314782 -1.85827e-05
0.00105703 -0.000317615 -0.000316891 -1.85828e-05
0.000631814 -0.000190363 -0.000189194 -3.09626e-05
0.000839832 -0.000252626 -0.00025166 -2.55476e-05
0.00105351 -0.000316556 -0.000315837 -1.85828e-05
0.00084546 -0.000254324 -0.000253344 -2.55478e-05
0.000842646 -0.000253475 -0.000252502 -2.55477e-05
0.000629706 -0.000189725 -0.000188563 -3.09625e-05
0.00062549 -0.000188449 -0.000187303 -3.09623e-05
0.00104295 -0.000313378 -0.000312673 -1.85825e-05
0.00104999 -0.000315497 -0.000314782 -1.85827e-05
0.000627598 -0.000189087 -0.000187933 -3.09624e-05
0.000834204 -0.000250929 -0.000249975 -2.55475e-05
0.00104647 -0.000314437 -0.000313728 -1.85826e-05
0.000839832 -0.000252626 -0.00025166 -2.55476e-05
0.000837018 -0.000251778 -0.000250817 -2.55476e-05
0.00062549 -0.000188449 -0.000187303 -3.09623e-05
0.000621273 -0.000187173 -0.000186043 -3.09621e-05
0.00103591 -0.00031126 -0.000310564 -1.85824e-05
0.00104295 -0.000313378 -0.000312673 -1.85825e-05
0.000623381 -0.000187811 -0.000186673 -3.09622e-05
0.000828576 -0.000249232 -0.000248291 -2.55473e-05
0.00103943 -0.000312319 -0.000311619 -1.85825e-05
0.000834204 -0.000250929 -0.000249975 -2.55475e-05
0.00083139 -0.00025008 -0.000249133 -2.55474e-05
0.000621273 -0.000187173 -0.000186043 -3.09621e-05
0.000617056 -0.000185897 -0.000184782 -3.09619e-05
0.00102887 -0.000309141 -0.000308455 -1.85822e-05
0.00103591 -0.00031126 -0.000310564 -1.85824e-05
0.000619165 -0.000186535 -0.000185413 -3.0962e-05
0.000822948 -0.000247534 -0.000246606 -2.55471e-05
0.00103239 -0.0003102 -0.00030951 -1.85823e-05
0.000828576 -0.000249232 -0.000248291 -2.55473e-05
0.000825762 -0.000248383 -0.000247448 -2.55472e-05
0.000617056 -0.000185897 -0.000184782 -3.09619e-05
0.00061284 -0.000184622 -0.000183522 -3.09617e-05
0.00102183 -0.000307023 -0.000306346 -1.85821e-05
0.00102887 -0.000309141 -0.000308455 -1.85822e-05
0.000614948 -0.00018526 -0.000184152 -3.09618e-05
0.00081732 -0.000245837 -0.000244921 -2.55469e-05
0.00102535 -0.000308082 -0.000307401 -1.85822e-05
0.000822948 -0.000247534 -0.000246606 -2.55471e-05
0.000820134 -0.000246686 -0.000245764 -2.5547e-05
0.00061284 -0.000184622 -0.000183522 -3.09617e-05
0.000608623 -0.000183346 -0.000182261 -3.09615e-05
0.00101479 -0.000304904 -0.000304237 -1.85819e-05
0.00102183 -0.000307023 -0.000306346 -1.85821e-05
0.000610731 -0.000183984 -0.000182892 -3.09616e-05
0.000811692 -0.00024414 -0.000243237 -2.55467e-05
0.00101831 -0.000305963 -0.000305292 -1.8582e-05
0.00081732 -0.000245837 -0.000244921 -2.55469e-05
0.000814506 -0.000244988 -0.000244079 -2.55468e-05
0.000608623 -0.000183346 -0.000182261 -3.09615e-05
0.000604406 -0.00018207 -0.000181001 -3.09613e-05
0.00100775 -0.000302786 -0.000302128 -1.85818e-05
0.00101479 -0.000304904 -0.000304237 -1.85819e-05
0.000606514 -0.000182708 -0.000181631 -3.09614e-05
0.000806064 -0.000242442 -0.000241552 -2.55465e-05
0.00101127 -0.000303845 -0.000303182 -1.85818e-05
0.000811692 -0.00024414 -0.000243237 -2.55467e-05
0.000808878 -0.000243291 -0.000242395 -2.55466e-05
0.000604406 -0.00018207 -0.000181001 -3.09613e-05
0.000600189 -0.000180795 -0.00017974 -3.09611e-05
0.00100071 -0.000300668 -0.000300019 -1.85816e-05
0.00100775 -0.000302786 -0.000302128 -1.85818e-05
0.000602297 -0.000181433 -0.000180371 -3.09612e-05
0.000800436 -0.000240745 -0.000239867 -2.55463e-05
0.00100423 -0.000301727 -0.000301073 -1.85817e-05
0.000806064 -0.000242442 -0.000241552 -2.55465e-05
0.00080325 -0.000241594 -0.00024071 -2.55464e-05
0.000600189 -0.000180795 -0.00017974 -3.09611e-05
0.000595972 -0.000179519 -0.00017848 -3.09609e-05
0.000993671 -0.000298549 -0.000297909 -1.85815e-05
0.00100071 -0.000300668 -0.000300019 -1.85816e-05
0.00059808 -0.000180157 -0.00017911 -3.0961e-05
0.000794808 -0.000239048 -0.000238183 -2.55461e-05
0.000997191 -0.000299608 -0.000298964 -1.85815e-05
0.000800436 -0.000240745 -0.000239867 -2.55463e-05
0.000797622 -0.000239897 -0.000239025 -2.55462e-05
0.000595972 -0.000179519 -0.00017848 -3.09609e-05
0.000591755 -0.000178244 -0.000177219 -3.09607e-05
0.000986631 -0.000296431 -0.0002958 -1.85813e-05
0.000993671 -0.000298549 -0.000297909 -1.85815e-05
0.000593863 -0.000178882 -0.000177849 -3.09608e-05
0.000789179 -0.000237351 -0.000236498 -2.55459e-05
0.000990151 -0.00029749 -0.000296855 -1.85814e-05
0.000794808 -0.000239048 -0.000238183 -2.55461e-05
0.000791994 -0.0002382 -0.00023734 -2.5546e-05
0.000591755 -0.000178244 -0.000177219 -3.09607e-05
0.000587538 -0.000176968 -0.000175958 -3.09605e-05
0.000979591 -0.000294313 -0.000293691 -1.85811e-05
0.000986631 -0.000296431 -0.0002958 -1.85813e-05
0.000589646 -0.000177606 -0.000176589 -3.09606e-05
0.000783551 -0.000235654 -0.000234813 -2.55457e-05
0.000983111 -0.000295372 -0.000294745 -1.85812e-05
0.000789179 -0.000237351 -0.000236498 -2.55459e-05
0.000786365 -0.000236502 -0.000235655 -2.55458e-05
0.000587538 -0.000176968 -0.000175958 -3.09605e-05
0.00058332 -0.000175693 -0.000174697 -3.09603e-05
0.000972551 -0.000292194 -0.000291582 -1.8581e-05
0.000979591 -0.000294313 -0.000293691 -1.85811e-05
0.000585429 -0.000176331 -0.000175328 -3.09604e-05
0.000777923 -0.000233957 -0.000233128 -2.55456e-05
0.000976071 -0.000293253 -0.000292636 -1.85811e-05
0.000783551 -0.000235654 -0.000234813 -2.55457e-05
0.000780737 -0.000234805 -0.000233971 -2.55456e-05
0.00058332 -0.000175693 -0.000174697 -3.09603e-05
0.000579103 -0.000174418 -0.000173437 -3.09601e-05
0.000965511 -0.000290076 -0.000289472 -1.85808e-05
0.000972551 -0.000292194 -0.000291582 -1.8581e-05
0.000581212 -0.000175055 -0.000174067 -3.09602e-05
0.000772294 -0.00023226 -0.000231443 -2.55454e-05
0.000969031 -0.000291135 -0.000290527 -1.85809e-05
0.000777923 -0.000233957 -0.000233128 -2.55456e-05
0.000775108 -0.000233108 -0.000232286 -2.55455e-05
0.000579103 -0.000174418 -0.000173437 -3.09601e-05
0.000574886 -0.000173142 -0.000172176 -3.09599e-05
0.000958471 -0.000287958 -0.000287363 -1.85807e-05
0.000965511 -0.000290076 -0.000289472 -1.85808e-05
0.000576994 -0.00017378 -0.000172806 -3.096e-05
0.000766666 -0.000230563 -0.000229758 -2.55452e-05
0.000961991 -0.000289017 -0.000288417 -1.85807e-05
0.000772294 -0.00023226 -0.000231443 -2.55454e-05
0.00076948 -0.000231412 -0.000230601 -2.55453e-05
0.000574886 -0.000173142 -0.000172176 -3.09599e-05
0.000570668 -0.000171867 -0.000170915 -3.09597e-05
0.000951431 -0.00028584 -0.000285253 -1.85805e-05
0.000958471 -0.000287958 -0.000287363 -1.85807e-05
0.000572777 -0.000172505 -0.000171545 -3.09598e-05
0.000761037 -0.000228866 -0.000228073 -2.5545e-05
0.000954951 -0.000286899 -0.000286308 -1.85806e-05
0.000766666 -0.000230563 -0.000229758 -2.55452e-05
0.000763851 -0.000229715 -0.000228916 -2.55451e-05
0.000570668 -0.000171867 -0.000170915 -3.09597e-05
0.000566451 -0.000170592 -0.000169654 -3.09595e-05
0.000944391 -0.000283722 -0.000283144 -1.85803e-05
0.000951431 -0.00028584 -0.000285253 -1.85805e-05
0.00056856 -0.00017123 -0.000170284 -3.09596e-05
0.000755408 -0.000227169 -0.000226388 -2.55448e-05
0.000947911 -0.000284781 -0.000284199 -1.85804e-05
0.000761037 -0.000228866 -0.000228073 -2.5545e-05
0.000758223 -0.000228018 -0.000227231 -2.55449e-05
0.000566451 -0.000170592 -0.000169654 -3.09595e-05
0.000562233 -0.000169317 -0.000168393 -3.09593e-05
0.000937351 -0.000281604 -0.000281034 -1.85802e-05
0.000944391 -0.000283722 -0.000283144 -1.85803e-05
0.000564342 -0.000169954 -0.000169023 -3.09594e-05
0.00074978 -0.000225473 -0.000224703 -2.55446e-05
0.000940871 -0.000282663 -0.000282089 -1.85803e-05
0.000755408 -0.000227169 -0.000226388 -2.55448e-05
0.000752594 -0.000226321 -0.000225546 -2.55447e-05
0.000562233 -0.000169317 -0.000168393 -3.09593e-05
0.000558016 -0.000168042 -0.000167132 -3.0959e-05
0.00093031 -0.000279485 -0.000278925 -1.858e-05
0.000937351 -0.000281604 -0.000281034 -1.85802e-05
0.000560124 -0.000168679 -0.000167762 -3.09592e-05
0.000744151 -0.000223776 -0.000223018 -2.55444e-05
0.000933831 -0.000280545 -0.00027998 -1.85801e-05
0.00074978 -0.000225473 -0.000224703 -2.55446e-05
0.000746965 -0.000224624 -0.00022386 -2.55445e-05
0.000558016 -0.000168042 -0.000167132 -3.0959e-05
0.000553798 -0.000166767 -0.00016587 -3.09588e-05
0.00092327 -0.000277367 -0.000276815 -1.85799e-05
0.00093031 -0.000279485 -0.000278925 -1.858e-05
0.000555907 -0.000167404 -0.000166501 -3.09589e-05
0.000738522 -0.000222079 -0.000221333 -2.55442e-05
0.00092679 -0.000278426 -0.00027787 -1.85799e-05
0.000744151 -0.000223776 -0.000223018 -2.55444e-05
0.000741336 -0.000222927 -0.000222175 -2.55443e-05
0.000553798 -0.000166767 -0.00016587 -3.09588e-05
0.00054958 -0.000165492 -0.000164609 -3.09586e-05
0.00091623 -0.000275249 -0.000274706 -1.85797e-05
0.00092327 -0.000277367 -0.000276815 -1.85799e-05
0.000551689 -0.000166129 -0.00016524 -3.09587e-05
0.000732893 -0.000220382 -0.000219647 -2.5544e-05
0.00091975 -0.000276308 -0.000275761 -1.85798e-05
0.000738522 -0.000222079 -0.000221333 -2.55442e-05
0.000735708 -0.000221231 -0.00022049 -2.55441e-05
0.00054958 -0.000165492 -0.000164609 -3.09586e-05
0.000545362 -0.000164217 -0.000163348 -3.09584e-05
0.00090919 -0.000273132 -0.000272596 -1.85795e-05
0.00091623 -0.000275249 -0.000274706 -1.85797e-05
0.000547471 -0.000164854 -0.000163979 -3.09585e-05
0.000727264 -0.000218686 -0.000217962 -2.55438e-05
0.00091271 -0.00027419 -0.000273651 -1.85796e-05
0.000732893 -0.000220382 -0.000219647 -2.5544e-05
0.000730079 -0.000219534 -0.000218805 -2.55439e-05
0.000545362 -0.000164217 -0.000163348 -3.09584e-05
0.000541144 -0.000162942 -0.000162087 -3.09582e-05
0.000902149 -0.000271014 -0.000270487 -1.85794e-05
0.00090919 -0.000273132 -0.000272596 -1.85795e-05
0.000543253 -0.000163579 -0.000162717 -3.09583e-05
0.000721635 -0.000216989 -0.000216277 -2.55436e-05
0.000905669 -0.000272073 -0.000271541 -1.85795e-05
0.000727264 -0.000218686 -0.000217962 -2.55438e-05
0.00072445 -0.000217838 -0.00021712 -2.55437e-05
0.000541144 -0.000162942 -0.000162087 -3.09582e-05
0.000536926 -0.000161667 -0.000160825 -3.0958e-05
0.000895109 -0.000268896 -0.000268377 -1.85792e-05
0.000902149 -0.000271014 -0.000270487 -1.85794e-05
0.000539035 -0.000162305 -0.000161456 -3.09581e-05
0.000716006 -0.000215293 -0.000214592 -2.55434e-05
0.000898629 -0.000269955 -0.000269432 -1.85793e-05
0.000721635 -0.000216989 -0.000216277 -2.55436e-05
0.000718821 -0.000216141 -0.000215434 -2.55435e-05
0.000536926 -0.000161667 -0.000160825 -3.0958e-05
0.000532708 -0.000160392 -0.000159564 -3.09578e-05
0.000888068 -0.000266778 -0.000266267 -1.8579e-05
0.000895109 -0.000268896 -0.000268377 -1.85792e-05
0.000534817 -0.00016103 -0.000160195 -3.09579e-05
0.000710377 -0.000213596 -0.000212906 -2.55432e-05
0.000891589 -0.000267837 -0.000267322 -1.85791e-05
0.000716006 -0.000215293 -0.000214592 -2.55434e-05
0.000713192 -0.000214444 -0.000213749 -2.55433e-05
0.000532708 -0.000160392 -0.000159564 -3.09578e-05
0.00052849 -0.000159118 -0.000158302 -3.09576e-05
0.000881028 -0.00026466 -0.000264158 -1.85789e-05
0.000888068 -0.000266778 -0.000266267 -1.8579e-05
0.000530599 -0.000159755 -0.000158933 -3.09577e-05
0.000704748 -0.0002119 -0.000211221 -2.5543e-05
0.000884548 -0.000265719 -0.000265213 -1.8579e-05
0.000710377 -0.000213596 -0.000212906 -2.55432e-05
0.000707563 -0.000212748 -0.000212063 -2.55431e-05
0.00052849 -0.000159118 -0.000158302 -3.09576e-05
0.000524272 -0.000157843 -0.000157041 -3.09573e-05
0.000873987 -0.000262542 -0.000262048 -1.85787e-05
0.000881028 -0.00026466 -0.000264158 -1.85789e-05
0.000526381 -0.00015848 -0.000157672 -3.09575e-05
0.000699119 -0.000210203 -0.000209535 -2.55428e-05
0.000877508 -0.000263601 -0.000263103 -1.85788e-05
0.000704748 -0.0002119 -0.000211221 -2.5543e-05
0.000701933 -0.000211052 -0.000210378 -2.55429e-05
0.000524272 -0.000157843 -0.000157041 -3.09573e-05
0.000520053 -0.000156568 -0.000155779 -3.09571e-05
0.000866947 -0.000260424 -0.000259938 -1.85786e-05
0.000873987 -0.000262542 -0.000262048 -1.85787e-05
0.000522163 -0.000157206 -0.00015641 -3.09572e-05
0.00069349 -0.000208507 -0.00020785 -2.55426e-05
0.000870467 -0.000261483 -0.000260993 -1.85786e-05
0.000699119 -0.000210203 -0.000209535 -2.55428e-05
0.000696304 -0.000209355 -0.000208692 -2.55427e-05
0.000520053 -0.000156568 -0.000155779 -3.09571e-05
0.000515835 -0.000155294 -0.000154518 -3.09569e-05
0.000859906 -0.000258307 -0.000257828 -1.85784e-05
0.000866947 -0.000260424 -0.000259938 -1.85786e-05
0.000517944 -0.000155931 -0.000155148 -3.0957e-05
0.00068786 -0.000206811 -0.000206164 -2.55424e-05
0.000863426 -0.000259366 -0.000258883 -1.85785e-05
0.00069349 -0.000208507 -0.00020785 -2.55426e-05
0.000690675 -0.000207659 -0.000207007 -2.55425e-05
0.000515835 -0.000155294 -0.000154518 -3.09569e-05
0.000511617 -0.000154019 -0.000153256 -3.09567e-05
0.000852866 -0.000256189 -0.000255719 -1.85782e-05
0.000859906 -0.000258307 -0.000257828 -1.85784e-05
0.000513726 -0.000154657 -0.000153887 -3.09568e-05
0.000682231 -0.000205114 -0.000204478 -2.55422e-05
0.000856386 -0.000257248 -0.000256773 -1.85783e-05
0.00068786 -0.000206811 -0.000206164 -2.55424e-05
0.000685046 -0.000205963 -0.000205321 -2.55423e-05
0.000511617 -0.000154019 -0.000153256 -3.09567e-05
0.000507398 -0.000152745 -0.000151994 -3.09565e-05
0.000845825 -0.000254071 -0.000253609 -1.85781e-05
0.000852866 -0.000256189 -0.000255719 -1.85782e-05
0.000509507 -0.000153382 -0.000152625 -3.09566e-05
0.000676601 -0.000203418 -0.000202793 -2.5542e-05
0.000849345 -0.00025513 -0.000254664 -1.85781e-05
0.000682231 -0.000205114 -0.000204478 -2.55422e-05
0.000679416 -0.000204266 -0.000203636 -2.55421e-05
0.000507398 -0.000152745 -0.000151994 -3.09565e-05
0.000503179 -0.000151471 -0.000150732 -3.09563e-05
0.000838784 -0.000251954 -0.000251499 -1.85779e-05
0.000845825 -0.000254071 -0.000253609 -1.85781e-05
0.000505289 -0.000152108 -0.000151363 -3.09564e-05
0.000670972 -0.000201722 -0.000201107 -2.55418e-05
0.000842305 -0.000253012 -0.000252554 -1.8578e-05
0.000676601 -0.000203418 -0.000202793 -2.5542e-05
0.000673787 -0.00020257 -0.00020195 -2.55419e-05
0.000503179 -0.000151471 -0.000150732 -3.09563e-05
0.000498961 -0.000150196 -0.000149471 -3.09561e-05
0.000831743 -0.000249836 -0.000249389 -1.85777e-05
0.000838784 -0.000251954 -0.000251499 -1.85779e-05
0.00050107 -0.000150833 -0.000150101 -3.09562e-05
0.000665342 -0.000200026 -0.000199421 -2.55416e-05
0.000835264 -0.000250895 -0.000250444 -1.85778e-05
0.000670972 -0.000201722 -0.000201107 -2.55418e-05
0.000668157 -0.000200874 -0.000200264 -2.55417e-05
0.000498961 -0.000150196 -0.000149471 -3.09561e-05
0.000494742 -0.000148922 -0.000148209 -3.09558e-05
0.000824703 -0.000247718 -0.000247279 -1.85776e-05
0.000831743 -0.000249836 -0.000249389 -1.85777e-05
0.000496851 -0.000149559 -0.00014884 -3.09559e-05
0.000659713 -0.00019833 -0.000197736 -2.55414e-05
0.000828223 -0.000248777 -0.000248334 -1.85777e-05
0.000665342 -0.000200026 -0.000199421 -2.55416e-05
0.000662528 -0.000199178 -0.000198579 -2.55415e-05
0.000494742 -0.000148922 -0.000148209 -3.09558e-05
0.000490523 -0.000147648 -0.000146947 -3.09556e-05
0.000817662 -0.000245601 -0.000245169 -1.85774e-05
0.000824703 -0.000247718 -0.000247279 -1.85776e-05
0.000492633 -0.000148285 -0.000147578 -3.09557e-05
0.000654083 -0.000196634 -0.00019605 -2.55412e-05
0.000821182 -0.00024666 -0.000246224 -1.85775e-05
0.000659713 -0.00019833 -0.000197736 -2.55414e-05
0.000656898 -0.000197482 -0.000196893 -2.55413e-05
0.000490523 -0.000147648 -0.000146947 -3.09556e-05
0.000486304 -0.000146373 -0.000145685 -3.09554e-05
0.000810621 -0.000243483 -0.000243059 -1.85772e-05
0.000817662 -0.000245601 -0.000245169 -1.85774e-05
0.000488414 -0.000147011 -0.000146316 -3.09555e-05
0.000648454 -0.000194938 -0.000194364 -2.5541e-05
0.000814141 -0.000244542 -0.000244114 -1.85773e-05
0.000654083 -0.000196634 -0.00019605 -2.55412e-05
0.000651268 -0.000195786 -0.000195207 -2.55411e-05
0.000486304 -0.000146373 -0.000145685 -3.09554e-05
0.000482086 -0.000145099 -0.000144423 -3.09552e-05
0.00080358 -0.000241366 -0.000240949 -1.85771e-05
0.000810621 -0.000243483 -0.000243059 -1.85772e-05
0.000484195 -0.000145736 -0.000145054 -3.09553e-05
0.000642824 -0.000193242 -0.000192678 -2.55408e-05
0.000807101 -0.000242425 -0.000242004 -1.85772e-05
0.000648454 -0.000194938 -0.000194364 -2.5541e-05
0.000645639 -0.00019409 -0.000193521 -2.55409e-05
0.000482086 -0.000145099 -0.000144423 -3.09552e-05
0.000477867 -0.000143825 -0.000143161 -3.0955e-05
0.000796539 -0.000239249 -0.000238839 -1.85769e-05
0.00080358 -0.000241366 -0.000240949 -1.85771e-05
0.000479976 -0.000144462 -0.000143792 -3.09551e-05
0.000637194 -0.000191546 -0.000190992 -2.55406e-05
0.00080006 -0.000240307 -0.000239894 -1.8577e-05
0.000642824 -0.000193242 -0.000192678 -2.55408e-05
0.000640009 -0.000192394 -0.000191835 -2.55407e-05
0.000477867 -0.000143825 -0.000143161 -3.0955e-05
0.000473647 -0.000142551 -0.000141898 -3.09548e-05
0.000789498 -0.000237131 -0.000236729 -1.85768e-05
0.000796539 -0.000239249 -0.000238839 -1.85769e-05
0.000475757 -0.000143188 -0.00014253 -3.09549e-05
0.000631564 -0.00018985 -0.000189306 -2.55404e-05
0.000793019 -0.00023819 -0.000237784 -1.85768e-05
0.000637194 -0.000191546 -0.000190992 -2.55406e-05
0.000634379 -0.000190698 -0.000190149 -2.55405e-05
0.000473647 -0.000142551 -0.000141898 -3.09548e-05
0.000469428 -0.000141277 -0.000140636 -3.09545e-05
0.000782457 -0.000235014 -0.000234619 -1.85766e-05
0.000789498 -0.000237131 -0.000236729 -1.85768e-05
0.000471538 -0.000141914 -0.000141267 -3.09547e-05
0.000625934 -0.000188154 -0.00018762 -2.55402e-05
0.000785978 -0.000236072 -0.000235674 -1.85767e-05
0.000631564 -0.00018985 -0.000189306 -2.55404e-05
0.000628749 -0.000189002 -0.000188463 -2.55403e-05
0.000469428 -0.000141277 -0.000140636 -3.09545e-05
0.000465209 -0.000140003 -0.000139374 -3.09543e-05
0.000775416 -0.000232896 -0.000232509 -1.85764e-05
0.000782457 -0.000235014 -0.000234619 -1.85766e-05
0.000467319 -0.00014064 -0.000140005 -3.09544e-05
0.000620304 -0.000186458 -0.000185934 -2.554e-05
0.000778937 -0.000233955 -0.000233564 -1.85765e-05
0.000625934 -0.000188154 -0.00018762 -2.55402e-05
0.000623119 -0.000187306 -0.000186777 -2.55401e-05
0.000465209 -0.000140003 -0.000139374 -3.09543e-05
0.00046099 -0.000138729 -0.000138112 -3.09541e-05
0.000768375 -0.000230779 -0.000230398 -1.85763e-05
0.000775416 -0.000232896 -0.000232509 -1.85764e-05
0.000463099 -0.000139366 -0.000138743 -3.09542e-05
0.000614674 -0.000184762 -0.000184248 -2.55398e-05
0.000771896 -0.000231838 -0.000231453 -1.85763e-05
0.000620304 -0.000186458 -0.000185934 -2.554e-05
0.000617489 -0.00018561 -0.000185091 -2.55399e-05
0.00046099 -0.000138729 -0.000138112 -3.09541e-05
0.00045677 -0.000137455 -0.000136849 -3.09539e-05
0.000761334 -0.000228662 -0.000228288 -1.85761e-05
0.000768375 -0.000230779 -0.000230398 -1.85763e-05
0.00045888 -0.000138092 -0.00013748 -3.0954e-05
0.000609044 -0.000183067 -0.000182562 -2.55396e-05
0.000764855 -0.00022972 -0.000229343 -1.85762e-05
0.000614674 -0.000184762 -0.000184248 -2.55398e-05
0.000611859 -0.000183915 -0.000183405 -2.55397e-05
0.00045677 -0.000137455 -0.000136849 -3.09539e-05
0.000452551 -0.000136182 -0.000135587 -3.09537e-05
0.000754293 -0.000226545 -0.000226178 -1.85759e-05
0.000761334 -0.000228662 -0.000228288 -1.85761e-05
0.000454661 -0.000136819 -0.000136218 -3.09538e-05
0.000603414 -0.000181371 -0.000180876 -2.55394e-05
0.000757814 -0.000227603 -0.000227233 -1.8576e-05
0.000609044 -0.000183067 -0.000182562 -2.55396e-05
0.000606229 -0.000182219 -0.000181719 -2.55395e-05
0.000452551 -0.000136182 -0.000135587 -3.09537e-05
0.000448332 -0.000134908 -0.000134324 -3.09535e-05
0.000747252 -0.000224427 -0.000224068 -1.85758e-05
0.000754293 -0.000226545 -0.000226178 -1.85759e-05
0.000450441 -0.000135545 -0.000134956 -3.09536e-05
0.000597784 -0.000179675 -0.000179189 -2.55392e-05
0.000750772 -0.000225486 -0.000225123 -1.85759e-05
0.000603414 -0.000181371 -0.000180876 -2.55394e-05
0.000600599 -0.000180523 -0.000180032 -2.55393e-05
0.000448332 -0.000134908 -0.000134324 -3.09535e-05
0.000444112 -0.000133634 -0.000133062 -3.09533e-05
0.000740211 -0.00022231 -0.000221957 -1.85756e-05
0.000747252 -0.000224427 -0.000224068 -1.85758e-05
0.000446222 -0.000134271 -0.000133693 -3.09534e-05
0.000592154 -0.00017798 -0.000177503 -2.5539e-05
0.000743731 -0.000223369 -0.000223013 -1.85757e-05
0.000597784 -0.000179675 -0.000179189 -2.55392e-05
0.000594969 -0.000178828 -0.000178346 -2.55391e-05
0.000444112 -0.000133634 -0.000133062 -3.09533e-05
0.000439892 -0.000132361 -0.000131799 -3.0953e-05
0.000733169 -0.000220193 -0.000219847 -1.85754e-05
0.000740211 -0.00022231 -0.000221957 -1.85756e-05
0.000442002 -0.000132997 -0.000132431 -3.09531e-05
0.000586523 -0.000176284 -0.000175817 -2.55387e-05
0.00073669 -0.000221252 -0.000220902 -1.85755e-05
0.000592154 -0.00017798 -0.000177503 -2.5539e-05
0.000589338 -0.000177132 -0.00017666 -2.55389e-05
0.000439892 -0.000132361 -0.000131799 -3.0953e-05
0.000435673 -0.000131087 -0.000130537 -3.09528e-05
0.000726128 -0.000218076 -0.000217737 -1.85753e-05
0.000733169 -0.000220193 -0.000219847 -1.85754e-05
0.000437782 -0.000131724 -0.000131168 -3.09529e-05
0.000580893 -0.000174589 -0.00017413 -2.55385e-05
0.000729649 -0.000219134 -0.000218792 -1.85754e-05
0.000586523 -0.000176284 -0.000175817 -2.55387e-05
0.000583708 -0.000175437 -0.000174974 -2.55386e-05
0.000435673 -0.000131087 -0.000130537 -3.09528e-05
0.000431453 -0.000129813 -0.000129274 -3.09526e-05
0.000719087 -0.000215959 -0.000215626 -1.85751e-05
0.000726128 -0.000218076 -0.000217737 -1.85753e-05
0.000433563 -0.00013045 -0.000129905 -3.09527e-05
0.000575263 -0.000172893 -0.000172444 -2.55383e-05
0.000722607 -0.000217017 -0.000216681 -1.85752e-05
0.000580893 -0.000174589 -0.00017413 -2.55385e-05
0.000578078 -0.000173741 -0.000173287 -2.55384e-05
0.000431453 -0.000129813 -0.000129274 -3.09526e-05
0.000427233 -0.00012854 -0.000128011 -3.09524e-05
0.000712045 -0.000213842 -0.000213516 -1.8575e-05
0.000719087 -0.000215959 -0.000215626 -1.85751e-05
0.000429343 -0.000129177 -0.000128643 -3.09525e-05
0.000569632 -0.000171198 -0.000170757 -2.55381e-05
0.000715566 -0.0002149 -0.000214571 -1.8575e-05
0.000575263 -0.000172893 -0.000172444 -2.55383e-05
0.000572447 -0.000172046 -0.000171601 -2.55382e-05
0.000427233 -0.00012854 -0.000128011 -3.09524e-05
0.000423013 -0.000127267 -0.000126749 -3.09522e-05
0.000705004 -0.000211725 -0.000211405 -1.85748e-05
0.000712045 -0.000213842 -0.000213516 -1.8575e-05
0.000425123 -0.000127903 -0.00012738 -3.09523e-05
0.000564002 -0.000169503 -0.000169071 -2.55379e-05
0.000708525 -0.000212783 -0.000212461 -1.85749e-05
0.000569632 -0.000171198 -0.000170757 -2.55381e-05
0.000566817 -0.00017035 -0.000169914 -2.5538e-05
0.000423013 -0.000127267 -0.000126749 -3.09522e-05
0.000418793 -0.000125993 -0.000125486 -3.0952e-05
0.000697963 -0.000209608 -0.000209295 -1.85746e-05
0.000705004 -0.000211725 -0.000211405 -1.85748e-05
0.000420903 -0.00012663 -0.000126117 -3.09521e-05
0.000558371 -0.000167807 -0.000167384 -2.55378e-05
0.000701483 -0.000210666 -0.00021035 -1.85747e-05
0.000564002 -0.000169503 -0.000169071 -2.55379e-05
0.000561186 -0.000168655 -0.000168228 -2.55378e-05
0.000418793 -0.000125993 -0.000125486 -3.0952e-05
0.000414573 -0.00012472 -0.000124223 -3.09518e-05
0.000690921 -0.000207491 -0.000207184 -1.85745e-05
0.000697963 -0.000209608 -0.000209295 -1.85746e-05
0.000416683 -0.000125356 -0.000124854 -3.09519e-05
0.00055274 -0.000166112 -0.000165698 -2.55376e-05
0.000694442 -0.000208549 -0.00020824 -1.85745e-05
0.000558371 -0.000167807 -0.000167384 -2.55378e-05
0.000555556 -0.00016696 -0.000166541 -2.55377e-05
0.000414573 -0.00012472 -0.000124223 -3.09518e-05
0.000410353 -0.000123447 -0.00012296 -3.09516e-05
0.00068388 -0.000205374 -0.000205074 -1.85743e-05
0.000690921 -0.000207491 -0.000207184 -1.85745e-05
0.000412463 -0.000124083 -0.000123591 -3.09517e-05
0.00054711 -0.000164417 -0.000164011 -2.55374e-05
0.0006874 -0.000206432 -0.000206129 -1.85744e-05
0.00055274 -0.000166112 -0.000165698 -2.55376e-05
0.000549925 -0.000165264 -0.000164855 -2.55375e-05
0.000410353 -0.000123447 -0.00012296 -3.09516e-05
0.000406133 -0.000122173 -0.000121697 -3.09513e-05
0.000676838 -0.000203257 -0.000202963 -1.85741e-05
0.00068388 -0.000205374 -0.000205074 -1.85743e-05
0.000408243 -0.00012281 -0.000122328 -3.09514e-05
0.000541479 -0.000162722 -0.000162325 -2.55372e-05
0.000680359 -0.000204315 -0.000204019 -1.85742e-05
0.00054711 -0.000164417 -0.000164011 -2.55374e-05
0.000544294 -0.000163569 -0.000163168 -2.55373e-05
0.000406133 -0.000122173 -0.000121697 -3.09513e-05
0.000401912 -0.0001209 -0.000120434 -3.09511e-05
0.000669797 -0.00020114 -0.000200853 -1.8574e-05
0.000676838 -0.000203257 -0.000202963 -1.85741e-05
0.000404023 -0.000121537 -0.000121065 -3.09512e-05
0.000535848 -0.000161026 -0.000160638 -2.5537e-05
0.000673317 -0.000202199 -0.000201908 -1.85741e-05
0.000541479 -0.000162722 -0.000162325 -2.55372e-05
0.000538664 -0.000161874 -0.000161481 -2.55371e-05
0.000401912 -0.0001209 -0.000120434 -3.09511e-05
0.000397692 -0.000119627 -0.000119171 -3.09509e-05
0.000662755 -0.000199023 -0.000198742 -1.85738e-05
0.000669797 -0.00020114 -0.000200853 -1.8574e-05
0.000399802 -0.000120264 -0.000119802 -3.0951e-05
0.000530217 -0.000159331 -0.000158951 -2.55368e-05
0.000666276 -0.000200082 -0.000199797 -1.85739e-05
0.000535848 -0.000161026 -0.000160638 -2.5537e-05
0.000533033 -0.000160179 -0.000159795 -2.55369e-05
0.000397692 -0.000119627 -0.000119171 -3.09509e-05
0.000393472 -0.000118354 -0.000117908 -3.09507e-05
0.000655713 -0.000196906 -0.000196631 -1.85737e-05
0.000662755 -0.000199023 -0.000198742 -1.85738e-05
0.000395582 -0.00011899 -0.000118539 -3.09508e-05
0.000524586 -0.000157636 -0.000157264 -2.55366e-05
0.000659234 -0.000197965 -0.000197687 -1.85737e-05
0.000530217 -0.000159331 -0.000158951 -2.55368e-05
0.000527402 -0.000158484 -0.000158108 -2.55367e-05
0.000393472 -0.000118354 -0.000117908 -3.09507e-05
0.000389251 -0.000117081 -0.000116644 -3.09505e-05
0.000648672 -0.00019479 -0.000194521 -1.85735e-05
0.000655713 -0.000196906 -0.000196631 -1.85737e-05
0.000391361 -0.000117717 -0.000117276 -3.09506e-05
0.000518955 -0.000155941 -0.000155578 -2.55364e-05
0.000652192 -0.000195848 -0.000195576 -1.85736e-05
0.000524586 -0.000157636 -0.000157264 -2.55366e-05
0.000521771 -0.000156789 -0.000156421 -2.55365e-05
0.000389251 -0.000117081 -0.000116644 -3.09505e-05
0.000385031 -0.000115808 -0.000115381 -3.09503e-05
0.00064163 -0.000192673 -0.00019241 -1.85733e-05
0.000648672 -0.00019479 -0.000194521 -1.85735e-05
0.000387141 -0.000116444 -0.000116013 -3.09504e-05
0.000513324 -0.000154246 -0.000153891 -2.55362e-05
0.000645151 -0.000193731 -0.000193465 -1.85734e-05
0.000518955 -0.000155941 -0.000155578 -2.55364e-05
0.00051614 -0.000155094 -0.000154734 -2.55363e-05
0.000385031 -0.000115808 -0.000115381 -3.09503e-05
0.00038081 -0.000114535 -0.000114118 -3.09501e-05
0.000634588 -0.000190556 -0.000190299 -1.85732e-05
0.00064163 -0.000192673 -0.00019241 -1.85733e-05
0.00038292 -0.000115171 -0.000114749 -3.09502e-05
0.000507693 -0.000152551 -0.000152204 -2.5536e-05
0.000638109 -0.000191615 -0.000191355 -1.85733e-05
0.000513324 -0.000154246 -0.000153891 -2.55362e-05
0.000510509 -0.000153399 -0.000153047 -2.55361e-05
0.00038081 -0.000114535 -0.000114118 -3.09501e-05
0.000376589 -0.000113262 -0.000112854 -3.09499e-05
0.000627546 -0.00018844 -0.000188189 -1.8573e-05
0.000634588 -0.000190556 -0.000190299 -1.85732e-05
0.0003787 -0.000113899 -0.000113486 -3.095e-05
0.000502062 -0.000150856 -0.000150517 -2.55358e-05
0.000631067 -0.000189498 -0.000189244 -1.85731e-05
0.000507693 -0.000152551 -0.000152204 -2.5536e-05
0.000504878 -0.000151704 -0.00015136 -2.55359e-05
0.000376589 -0.000113262 -0.000112854 -3.09499e-05
0.000372368 -0.000111989 -0.000111591 -3.09497e-05
0.000620504 -0.000186323 -0.000186078 -1.85729e-05
0.000627546 -0.00018844 -0.000188189 -1.8573e-05
0.000374479 -0.000112626 -0.000112223 -3.09498e-05
0.000496431 -0.000149162 -0.00014883 -2.55356e-05
0.000624025 -0.000187381 -0.000187133 -1.85729e-05
0.000502062 -0.000150856 -0.000150517 -2.55358e-05
0.000499247 -0.000150009 -0.000149673 -2.55357e-05
0.000372368 -0.000111989 -0.000111591 -3.09497e-05
0.000368148 -0.000110717 -0.000110328 -3.09495e-05
0.000613463 -0.000184206 -0.000183967 -1.85727e-05
0.000620504 -0.000186323 -0.000186078 -1.85729e-05
0.000370258 -0.000111353 -0.000110959 -3.09496e-05
0.0004908 -0.000147467 -0.000147143 -2.55354e-05
0.000616983 -0.000185265 -0.000185022 -1.85728e-05
0.000496431 -0.000149162 -0.00014883 -2.55356e-05
0.000493615 -0.000148314 -0.000147986 -2.55355e-05
0.000368148 -0.000110717 -0.000110328 -3.09495e-05
0.000363927 -0.000109444 -0.000109064 -3.09493e-05
0.000606421 -0.00018209 -0.000181856 -1.85725e-05
0.000613463 -0.000184206 -0.000183967 -1.85727e-05
0.000366037 -0.00011008 -0.000109696 -3.09494e-05
0.000485168 -0.000145772 -0.000145456 -2.55352e-05
0.000609942 -0.000183148 -0.000182911 -1.85726e-05
0.0004908 -0.000147467 -0.000147143 -2.55354e-05
0.000487984 -0.000146619 -0.000146299 -2.55353e-05
0.000363927 -0.000109444 -0.000109064 -3.09493e-05
0.000359706 -0.000108171 -0.0001078 -3.09491e-05
0.000599379 -0.000179973 -0.000179745 -1.85724e-05
0.000606421 -0.00018209 -0.000181856 -1.85725e-05
0.000361816 -0.000108808 -0.000108432 -3.09492e-05
0.000479537 -0.000144077 -0.000143768 -2.5535e-05
0.0006029 -0.000181032 -0.000180801 -1.85725e-05
0.000485168 -0.000145772 -0.000145456 -2.55352e-05
0.000482353 -0.000144925 -0.000144612 -2.55351e-05
0.000359706 -0.000108171 -0.0001078 -3.09491e-05
0.000355485 -0.000106899 -0.000106537 -3.09488e-05
0.000592337 -0.000177857 -0.000177634 -1.85722e-05
0.000599379 -0.000179973 -0.000179745 -1.85724e-05
0.000357595 -0.000107535 -0.000107169 -3.0949e-05
0.000473906 -0.000142383 -0.000142081 -2.55348e-05
0.000595858 -0.000178915 -0.00017869 -1.85723e-05
0.000479537 -0.000144077 -0.000143768 -2.5535e-05
0.000476721 -0.00014323 -0.000142925 -2.55349e-05
0.000355485 -0.000106899 -0.000106537 -3.09488e-05
0.000351263 -0.000105626 -0.000105273 -3.09486e-05
0.000585295 -0.00017574 -0.000175523 -1.85721e-05
0.000592337 -0.000177857 -0.000177634 -1.85722e-05
0.000353374 -0.000106262 -0.000105905 -3.09487e-05
0.000468274 -0.000140688 -0.000140394 -2.55346e-05
0.000588816 -0.000176799 -0.000176579 -1.85722e-05
0.000473906 -0.000142383 -0.000142081 -2.55348e-05
0.00047109 -0.000141535 -0.000141238 -2.55347e-05
0.000351263 -0.000105626 -0.000105273 -3.09486e-05
0.000347042 -0.000104354 -0.000104009 -3.09484e-05
0.000578253 -0.000173624 -0.000173412 -1.85719e-05
0.000585295 -0.00017574 -0.000175523 -1.85721e-05
0.000349153 -0.00010499 -0.000104641 -3.09485e-05
0.000462643 -0.000138993 -0.000138707 -2.55344e-05
0.000581774 -0.000174682 -0.000174468 -1.8572e-05
0.000468274 -0.000140688 -0.000140394 -2.55346e-05
0.000465458 -0.000139841 -0.00013955 -2.55345e-05
0.000347042 -0.000104354 -0.000104009 -3.09484e-05
0.000342821 -0.000103081 -0.000102746 -3.09482e-05
0.00057121 -0.000171507 -0.000171301 -1.85718e-05
0.000578253 -0.000173624 -0.000173412 -1.85719e-05
0.000344932 -0.000103717 -0.000103378 -3.09483e-05
0.000457011 -0.000137299 -0.00013702 -2.55342e-05
0.000574731 -0.000172566 -0.000172357 -1.85718e-05
0.000462643 -0.000138993 -0.000138707 -2.55344e-05
0.000459827 -0.000138146 -0.000137863 -2.55343e-05
0.000342821 -0.000103081 -0.000102746 -3.09482e-05
0.0003386 -0.000101809 -0.000101482 -3.0948e-05
0.000564168 -0.000169391 -0.00016919 -1.85716e-05
0.00057121 -0.000171507 -0.000171301 -1.85718e-05
0.00034071 -0.000102445 -0.000102114 -3.09481e-05
0.000451379 -0.000135604 -0.000135332 -2.55341e-05
0.000567689 -0.000170449 -0.000170246 -1.85717e-05
0.000457011 -0.000137299 -0.00013702 -2.55342e-05
0.000454195 -0.000136452 -0.000136176 -2.55341e-05
0.0003386 -0.000101809 -0.000101482 -3.0948e-05
0.000334378 -0.000100536 -0.000100218 -3.09478e-05
0.000557126 -0.000167275 -0.000167079 -1.85715e-05
0.000564168 -0.000169391 -0.00016919 -1.85716e-05
0.000336489 -0.000101172 -0.00010085 -3.09479e-05
0.000445748 -0.00013391 -0.000133645 -2.55339e-05
0.000560647 -0.000168333 -0.000168135 -1.85715e-05
0.000451379 -0.000135604 -0.000135332 -2.55341e-05
0.000448564 -0.000134757 -0.000134488 -2.5534e-05
0.000334378 -0.000100536 -0.000100218 -3.09478e-05
0.000330157 -9.9264e-05 -9.8954e-05 -3.09476e-05
0.000550084 -0.000165158 -0.000164968 -1.85713e-05
0.000557126 -0.000167275 -0.000167079 -1.85715e-05
0.000332267 -9.99002e-05 -9.9586e-05 -3.09477e-05
0.000440116 -0.000132215 -0.000131957 -2.55337e-05
0.000553605 -0.000166217 -0.000166024 -1.85714e-05
0.000445748 -0.00013391 -0.000133645 -2.55339e-05
0.000442932 -0.000133063 -0.000132801 -2.55338e-05
0.000330157 -9.9264e-05 -9.8954e-05 -3.09476e-05
0.000325935 -9.79918e-05 -9.769e-05 -3.09474e-05
0.000543041 -0.000163042 -0.000162857 -1.85711e-05
0.000550084 -0.000165158 -0.000164968 -1.85713e-05
0.000328046 -9.86279e-05 -9.8322e-05 -3.09475e-05
0.000434484 -0.000130521 -0.00013027 -2.55335e-05
0.000546563 -0.0001641 -0.000163912 -1.85712e-05
0.000440116 -0.000132215 -0.000131957 -2.55337e-05
0.0004373 -0.000131368 -0.000131114 -2.55336e-05
0.000325935 -9.79918e-05 -9.769e-05 -3.09474e-05
0.000321713 -9.67196e-05 -9.64259e-05 -3.09472e-05
0.000535999 -0.000160926 -0.000160746 -1.8571e-05
0.000543041 -0.000163042 -0.000162857 -1.85711e-05
0.000323824 -9.73557e-05 -9.7058e-05 -3.09473e-05
0.000428852 -0.000128827 -0.000128582 -2.55333e-05
0.00053952 -0.000161984 -0.000161801 -1.85711e-05
0.000434484 -0.000130521 -0.00013027 -2.55335e-05
0.000431668 -0.000129674 -0.000129426 -2.55334e-05
0.000321713 -9.67196e-05 -9.64259e-05 -3.09472e-05
0.000317492 -9.54474e-05 -9.51618e-05 -3.09471e-05
0.000528957 -0.00015881 -0.000158634 -1.85708e-05
0.000535999 -0.000160926 -0.000160746 -1.8571e-05
0.000319603 -9.60835e-05 -9.57939e-05 -3.09472e-05
0.00042322 -0.000127132 -0.000126895 -2.55331e-05
0.000532478 -0.000159868 -0.00015969 -1.85709e-05
0.000428852 -0.000128827 -0.000128582 -2.55333e-05
0.000426036 -0.00012798 -0.000127739 -2.55332e-05
0.000317492 -9.54474e-05 -9.51618e-05 -3.09471e-05
0.00031327 -9.41753e-05 -9.38977e-05 -3.09469e-05
0.000521914 -0.000156694 -0.000156523 -1.85707e-05
0.000528957 -0.00015881 -0.000158634 -1.85708e-05
0.000315381 -9.48114e-05 -9.45298e-05 -3.0947e-05
0.000417588 -0.000125438 -0.000125207 -2.55329e-05
0.000525436 -0.000157752 -0.000157579 -1.85708e-05
0.00042322 -0.000127132 -0.000126895 -2.55331e-05
0.000420404 -0.000126285 -0.000126051 -2.5533e-05
0.00031327 -9.41753e-05 -9.38977e-05 -3.09469e-05
0.000309048 -9.29033e-05 -9.26335e-05 -3.09467e-05
0.000514872 -0.000154577 -0.000154412 -1.85705e-05
0.000521914 -0.000156694 -0.000156523 -1.85707e-05
0.000311159 -9.35393e-05 -9.32656e-05 -3.09468e-05
0.000411956 -0.000123744 -0.00012352 -2.55327e-05
0.000518393 -0.000155635 -0.000155468 -1.85706e-05
0.000417588 -0.000125438 -0.000125207 -2.55329e-05
0.000414772 -0.000124591 -0.000124363 -2.55328e-05
0.000309048 -9.29033e-05 -9.26335e-05 -3.09467e-05
0.000304826 -9.16313e-05 -9.13692e-05 -3.09465e-05
0.000507829 -0.000152461 -0.000152301 -1.85704e-05
0.000514872 -0.000154577 -0.000154412 -1.85705e-05
0.000306937 -9.22673e-05 -9.20013e-05 -3.09466e-05
0.000406324 -0.00012205 -0.000121832 -2.55326e-05
0.000511351 -0.000153519 -0.000153356 -1.85705e-05
0.000411956 -0.000123744 -0.00012352 -2.55327e-05
0.00040914 -0.000122897 -0.000122676 -2.55327e-05
0.000304826 -9.16313e-05 -9.13692e-05 -3.09465e-05
0.000300604 -9.03593e-05 -9.01049e-05 -3.09463e-05
0.000500787 -0.000150345 -0.000150189 -1.85702e-05
0.000507829 -0.000152461 -0.000152301 -1.85704e-05
0.000302715 -9.09953e-05 -9.0737e-05 -3.09464e-05
0.000400692 -0.000120356 -0.000120144 -2.55324e-05
0.000504308 -0.000151403 -0.000151245 -1.85703e-05
0.000406324 -0.00012205 -0.000121832 -2.55326e-05
0.000403508 -0.000121203 -0.000120988 -2.55325e-05
0.000300604 -9.03593e-05 -9.01049e-05 -3.09463e-05
0.000296382 -8.90874e-05 -8.88405e-05 -3.09461e-05
0.000493744 -0.000148229 -0.000148078 -1.85701e-05
0.000500787 -0.000150345 -0.000150189 -1.85702e-05
0.000298493 -8.97234e-05 -8.94727e-05 -3.09462e-05
0.00039506 -0.000118662 -0.000118456 -2.55322e-05
0.000497266 -0.000149287 -0.000149134 -1.85702e-05
0.000400692 -0.000120356 -0.000120144 -2.55324e-05
0.000397876 -0.000119509 -0.0001193 -2.55323e-05
0.000296382 -8.90874e-05 -8.88405e-05 -3.09461e-05
0.00029216 -8.78156e-05 -8.75761e-05 -3.09459e-05
0.000486702 -0.000146113 -0.000145967 -1.85699e-05
0.000493744 -0.000148229 -0.000148078 -1.85701e-05
0.000294271 -8.84515e-05 -8.82083e-05 -3.0946e-05
0.000389427 -0.000116968 -0.000116768 -2.5532e-05
0.000490223 -0.000147171 -0.000147022 -1.857e-05
0.00039506 -0.000118662 -0.000118456 -2.55322e-05
0.000392244 -0.000117815 -0.000117612 -2.55321e-05
0.00029216 -8.78156e-05 -8.75761e-05 -3.09459e-05
0.000287938 -8.65438e-05 -8.63116e-05 -3.09457e-05
0.000479659 -0.000143997 -0.000143855 -1.85698e-05
0.000486702 -0.000146113 -0.000145967 -1.85699e-05
0.000290049 -8.71797e-05 -8.69438e-05 -3.09458e-05
0.000383795 -0.000115274 -0.000115081 -2.55318e-05
0.00048318 -0.000145055 -0.000144911 -1.85699e-05
0.000389427 -0.000116968 -0.000116768 -2.5532e-05
0.000386611 -0.000116121 -0.000115925 -2.55319e-05
0.000287938 -8.65438e-05 -8.63116e-05 -3.09457e-05
0.000283715 -8.52721e-05 -8.50471e-05 -3.09455e-05
0.000472616 -0.000141881 -0.000141744 -1.85696e-05
0.000479659 -0.000143997 -0.000143855 -1.85698e-05
0.000285826 -8.59079e-05 -8.56793e-05 -3.09456e-05
0.000378163 -0.00011358 -0.000113393 -2.55317e-05
0.000476138 -0.000142939 -0.000142799 -1.85697e-05
0.000383795 -0.000115274 -0.000115081 -2.55318e-05
0.000380979 -0.000114427 -0.000114237 -2.55317e-05
0.000283715 -8.52721e-05 -8.50471e-05 -3.09455e-05
0.000279493 -8.40004e-05 -8.37825e-05 -3.09453e-05
0.000465574 -0.000139765 -0.000139632 -1.85695e-05
0.000472616 -0.000141881 -0.000141744 -1.85696e-05
0.000281604 -8.46362e-05 -8.44148e-05 -3.09454e-05
0.00037253 -0.000111886 -0.000111705 -2.55315e-05
0.000469095 -0.000140823 -0.000140688 -1.85696e-05
0.000378163 -0.00011358 -0.000113393 -2.55317e-05
0.000375346 -0.000112733 -0.000112549 -2.55316e-05
0.000279493 -8.40004e-05 -8.37825e-05 -3.09453e-05
0.00027527 -8.27287e-05 -8.25178e-05 -3.09451e-05
0.000458531 -0.000137649 -0.000137521 -1.85694e-05
0.000465574 -0.000139765 -0.000139632 -1.85695e-05
0.000277382 -8.33645e-05 -8.31502e-05 -3.09452e-05
0.000366898 -0.000110192 -0.000110017 -2.55313e-05
0.000462052 -0.000138707 -0.000138576 -1.85694e-05
0.00037253 -0.000111886 -0.000111705 -2.55315e-05
0.000369714 -0.000111039 -0.000110861 -2.55314e-05
0.00027527 -8.27287e-05 -8.25178e-05 -3.09451e-05
0.000271048 -8.14571e-05 -8.12531e-05 -3.0945e-05
0.000451488 -0.000135533 -0.000135409 -1.85692e-05
0.000458531 -0.000137649 -0.000137521 -1.85694e-05
0.000273159 -8.20929e-05 -8.18855e-05 -3.09451e-05
0.000361265 -0.000108498 -0.000108329 -2.55311e-05
0.000455009 -0.000136591 -0.000136465 -1.85693e-05
0.000366898 -0.000110192 -0.000110017 -2.55313e-05
0.000364081 -0.000109345 -0.000109173 -2.55312e-05
0.000271048 -8.14571e-05 -8.12531e-05 -3.0945e-05
0.000266825 -8.01856e-05 -7.99884e-05 -3.09448e-05
0.000444445 -0.000133418 -0.000133297 -1.85691e-05
0.000451488 -0.000135533 -0.000135409 -1.85692e-05
0.000268936 -8.08214e-05 -8.06208e-05 -3.09449e-05
0.000355632 -0.000106804 -0.000106641 -2.5531e-05
0.000447967 -0.000134476 -0.000134353 -1.85691e-05
0.000361265 -0.000108498 -0.000108329 -2.55311e-05
0.000358449 -0.000107651 -0.000107485 -2.5531e-05
0.000266825 -8.01856e-05 -7.99884e-05 -3.09448e-05
0.000262602 -7.89141e-05 -7.87236e-05 -3.09446e-05
0.000437402 -0.000131302 -0.000131186 -1.85689e-05
0.000444445 -0.000133418 -0.000133297 -1.85691e-05
0.000264714 -7.95498e-05 -7.9356e-05 -3.09447e-05
0.00035 -0.000105111 -0.000104952 -2.55308e-05
0.000440924 -0.00013236 -0.000132242 -1.8569e-05
0.000355632 -0.000106804 -0.000106641 -2.5531e-05
0.000352816 -0.000105958 -0.000105796 -2.55309e-05
0.000262602 -7.89141e-05 -7.87236e-05 -3.09446e-05
0.00025838 -7.76427e-05 -7.74587e-05 -3.09444e-05
0.000430359 -0.000129186 -0.000129074 -1.85688e-05
0.000437402 -0.000131302 -0.000131186 -1.85689e-05
0.000260491 -7.82784e-05 -7.80912e-05 -3.09445e-05
0.000344367 -0.000103417 -0.000103264 -2.55306e-05
0.000433881 -0.000130244 -0.00013013 -1.85688e-05
0.00035 -0.000105111 -0.000104952 -2.55308e-05
0.000347183 -0.000104264 -0.000104108 -2.55307e-05
0.00025838 -7.76427e-05 -7.74587e-05 -3.09444e-05
0.000254157 -7.63713e-05 -7.61938e-05 -3.09442e-05
0.000423316 -0.00012707 -0.000126963 -1.85686e-05
0.000430359 -0.000129186 -0.000129074 -1.85688e-05
0.000256268 -7.7007e-05 -7.68263e-05 -3.09443e-05
0.000338734 -0.000101723 -0.000101576 -2.55304e-05
0.000426838 -0.000128128 -0.000128018 -1.85687e-05
0.000344367 -0.000103417 -0.000103264 -2.55306e-05
0.00034155 -0.00010257 -0.00010242 -2.55305e-05
0.000254157 -7.63713e-05 -7.61938e-05 -3.09442e-05
0.000249934 -7.50999e-05 -7.49289e-05 -3.09441e-05
0.000416273 -0.000124955 -0.000124851 -1.85685e-05
0.000423316 -0.00012707 -0.000126963 -1.85686e-05
0.000252045 -7.57356e-05 -7.55613e-05 -3.09441e-05
0.000333101 -0.00010003 -9.98877e-05 -2.55303e-05
0.000419795 -0.000126012 -0.000125907 -1.85686e-05
0.000338734 -0.000101723 -0.000101576 -2.55304e-05
0.000335918 -0.000100876 -0.000100732 -2.55303e-05
0.000249934 -7.50999e-05 -7.49289e-05 -3.09441e-05
0.000245711 -7.38286e-05 -7.36638e-05 -3.09439e-05
0.00040923 -0.000122839 -0.000122739 -1.85683e-05
0.000416273 -0.000124955 -0.000124851 -1.85685e-05
0.000247822 -7.44643e-05 -7.42963e-05 -3.0944e-05
0.000327468 -9.83361e-05 -9.81994e-05 -2.55301e-05
0.000412752 -0.000123897 -0.000123795 -1.85684e-05
0.000333101 -0.00010003 -9.98877e-05 -2.55303e-05
0.000330285 -9.91829e-05 -9.90436e-05 -2.55302e-05
0.000245711 -7.38286e-05 -7.36638e-05 -3.09439e-05
0.000241488 -7.25574e-05 -7.23988e-05 -3.09437e-05
0.000402187 -0.000120723 -0.000120627 -1.85682e-05
0.00040923 -0.000122839 -0.000122739 -1.85683e-05
0.000243599 -7.3193e-05 -7.30313e-05 -3.09438e-05
0.000321835 -9.66426e-05 -9.6511e-05 -2.55299e-05
0.000405708 -0.000121781 -0.000121683 -1.85683e-05
0.000327468 -9.83361e-05 -9.81994e-05 -2.55301e-05
0.000324652 -9.74894e-05 -9.73552e-05 -2.553e-05
0.000241488 -7.25574e-05 -7.23988e-05 -3.09437e-05
0.000237265 -7.12862e-05 -7.11336e-05 -3.09435e-05
0.000395144 -0.000118608 -0.000118515 -1.85681e-05
0.000402187 -0.000120723 -0.000120627 -1.85682e-05
0.000239376 -7.19218e-05 -7.17662e-05 -3.09436e-05
0.000316202 -9.49491e-05 -9.48226e-05 -2.55298e-05
0.000398665 -0.000119665 -0.000119571 -1.85681e-05
0.000321835 -9.66426e-05 -9.6511e-05 -2.55299e-05
0.000319019 -9.57959e-05 -9.56669e-05 -2.55298e-05
0.000237265 -7.12862e-05 -7.11336e-05 -3.09435e-05
0.000233041 -7.00151e-05 -6.98684e-05 -3.09434e-05
0.0003881 -0.000116492 -0.000116404 -1.85679e-05
0.000395144 -0.000118608 -0.000118515 -1.85681e-05
0.000235153 -7.06506e-05 -7.0501e-05 -3.09434e-05
0.000310569 -9.32557e-05 -9.31342e-05 -2.55296e-05
0.000391622 -0.00011755 -0.000117459 -1.8568e-05
0.000316202 -9.49491e-05 -9.48226e-05 -2.55298e-05
0.000313385 -9.41024e-05 -9.39784e-05 -2.55297e-05
0.000233041 -7.00151e-05 -6.98684e-05 -3.09434e-05
0.000228818 -6.8744e-05 -6.86032e-05 -3.09432e-05
0.000381057 -0.000114376 -0.000114292 -1.85678e-05
0.0003881 -0.000116492 -0.000116404 -1.85679e-05
0.00023093 -6.93795e-05 -6.92358e-05 -3.09433e-05
0.000304936 -9.15623e-05 -9.14457e-05 -2.55294e-05
0.000384579 -0.000115434 -0.000115348 -1.85679e-05
0.000310569 -9.32557e-05 -9.31342e-05 -2.55296e-05
0.000307752 -9.2409e-05 -9.22899e-05 -2.55295e-05
0.000228818 -6.8744e-05 -6.86032e-05 -3.09432e-05
0.000224595 -6.7473e-05 -6.73379e-05 -3.0943e-05
0.000374014 -0.000112261 -0.00011218 -1.85677e-05
0.000381057 -0.000114376 -0.000114292 -1.85678e-05
0.000226706 -6.81085e-05 -6.79706e-05 -3.09431e-05
0.000299302 -8.98689e-05 -8.97571e-05 -2.55293e-05
0.000377535 -0.000113319 -0.000113236 -1.85677e-05
0.000304936 -9.15623e-05 -9.14457e-05 -2.55294e-05
0.000302119 -9.07156e-05 -9.06014e-05 -2.55293e-05
0.000224595 -6.7473e-05 -6.73379e-05 -3.0943e-05
0.000220371 -6.6202e-05 -6.60726e-05 -3.09428e-05
0.00036697 -0.000110145 -0.000110068 -1.85675e-05
0.000374014 -0.000112261 -0.00011218 -1.85677e-05
0.000222483 -6.68375e-05 -6.67052e-05 -3.09429e-05
0.000293669 -8.81756e-05 -8.80686e-05 -2.55291e-05
0.000370492 -0.000111203 -0.000111124 -1.85676e-05
0.000299302 -8.98689e-05 -8.97571e-05 -2.55293e-05
0.000296486 -8.90223e-05 -8.89129e-05 -2.55292e-05
0.000220371 -6.6202e-05 -6.60726e-05 -3.09428e-05
0.000216148 -6.4931e-05 -6.48072e-05 -3.09427e-05
0.000359927 -0.00010803 -0.000107956 -1.85674e-05
0.00036697 -0.000110145 -0.000110068 -1.85675e-05
0.00021826 -6.55665e-05 -6.54399e-05 -3.09428e-05
0.000288035 -8.64823e-05 -8.63799e-05 -2.55289e-05
0.000363449 -0.000109088 -0.000109012 -1.85674e-05
0.000293669 -8.81756e-05 -8.80686e-05 -2.55291e-05
0.000290852 -8.7329e-05 -8.72243e-05 -2.5529e-05
0.000216148 -6.4931e-05 -6.48072e-05 -3.09427e-05
0.000211924 -6.36602e-05 -6.35417e-05 -3.09425e-05
0.000352883 -0.000105915 -0.000105844 -1.85672e-05
0.000359927 -0.00010803 -0.000107956 -1.85674e-05
0.000214036 -6.42956e-05 -6.41744e-05 -3.09426e-05
0.000282402 -8.47891e-05 -8.46912e-05 -2.55288e-05
0.000356405 -0.000106972 -0.0001069 -1.85673e-05
0.000288035 -8.64823e-05 -8.63799e-05 -2.55289e-05
0.000285219 -8.56357e-05 -8.55356e-05 -2.55288e-05
0.000211924 -6.36602e-05 -6.35417e-05 -3.09425e-05
0.0002077 -6.23893e-05 -6.22762e-05 -3.09423e-05
0.00034584 -0.000103799 -0.000103732 -1.85671e-05
0.000352883 -0.000105915 -0.000105844 -1.85672e-05
0.000209812 -6.30247e-05 -6.2909e-05 -3.09424e-05
0.000276768 -8.30959e-05 -8.30025e-05 -2.55286e-05
0.000349362 -0.000104857 -0.000104788 -1.85672e-05
0.000282402 -8.47891e-05 -8.46912e-05 -2.55288e-05
0.000279585 -8.39425e-05 -8.38469e-05 -2.55287e-05
0.0002077 -6.23893e-05 -6.22762e-05 -3.09423e-05
0.000203477 -6.11185e-05 -6.10106e-05 -3.09422e-05
0.000338796 -0.000101684 -0.00010162 -1.8567e-05
0.00034584 -0.000103799 -0.000103732 -1.85671e-05
0.000205589 -6.17539e-05 -6.16434e-05 -3.09423e-05
0.000271135 -8.14028e-05 -8.13138e-05 -2.55284e-05
0.000342318 -0.000102741 -0.000102676 -1.8567e-05
0.000276768 -8.30959e-05 -8.30025e-05 -2.55286e-05
0.000273952 -8.22493e-05 -8.21581e-05 -2.55285e-05
0.000203477 -6.11185e-05 -6.10106e-05 -3.09422e-05
0.000199253 -5.98478e-05 -5.9745e-05 -3.0942e-05
0.000331753 -9.95684e-05 -9.95075e-05 -1.85668e-05
0.000338796 -0.000101684 -0.00010162 -1.8567e-05
0.000201365 -6.04832e-05 -6.03778e-05 -3.09421e-05
0.000265501 -7.97096e-05 -7.96249e-05 -2.55283e-05
0.000335274 -0.000100626 -0.000100564 -1.85669e-05
0.000271135 -8.14028e-05 -8.13138e-05 -2.55284e-05
0.000268318 -8.05562e-05 -8.04694e-05 -2.55284e-05
0.000199253 -5.98478e-05 -5.9745e-05 -3.0942e-05
0.000195029 -5.85771e-05 -5.84793e-05 -3.09419e-05
0.000324709 -9.74531e-05 -9.73954e-05 -1.85667e-05
0.000331753 -9.95684e-05 -9.95075e-05 -1.85668e-05
0.000197141 -5.92124e-05 -5.91122e-05 -3.09419e-05
0.000259867 -7.80166e-05 -7.79361e-05 -2.55281e-05
0.000328231 -9.85108e-05 -9.84515e-05 -1.85668e-05
0.000265501 -7.97096e-05 -7.96249e-05 -2.55283e-05
0.000262684 -7.88631e-05 -7.87805e-05 -2.55282e-05
0.000195029 -5.85771e-05 -5.84793e-05 -3.09419e-05
0.000190805 -5.73065e-05 -5.72136e-05 -3.09417e-05
0.000317665 -9.53378e-05 -9.52832e-05 -1.85666e-05
0.000324709 -9.74531e-05 -9.73954e-05 -1.85667e-05
0.000192917 -5.79418e-05 -5.78465e-05 -3.09418e-05
0.000254234 -7.63235e-05 -7.62472e-05 -2.5528e-05
0.000321187 -9.63954e-05 -9.63393e-05 -1.85666e-05
0.000259867 -7.80166e-05 -7.79361e-05 -2.55281e-05
0.000257051 -7.71701e-05 -7.70916e-05 -2.55281e-05
0.000190805 -5.73065e-05 -5.72136e-05 -3.09417e-05
0.000186581 -5.60359e-05 -5.59478e-05 -3.09415e-05
0.000310621 -9.32225e-05 -9.3171e-05 -1.85665e-05
0.000317665 -9.53378e-05 -9.52832e-05 -1.85666e-05
0.000188693 -5.66712e-05 -5.65807e-05 -3.09416e-05
0.0002486 -7.46306e-05 -7.45582e-05 -2.55278e-05
0.000314143 -9.42802e-05 -9.42271e-05 -1.85665e-05
0.000254234 -7.63235e-05 -7.62472e-05 -2.5528e-05
0.000251417 -7.5477e-05 -7.54027e-05 -2.55279e-05
0.000186581 -5.60359e-05 -5.59478e-05 -3.09415e-05
0.000182357 -5.47654e-05 -5.4682e-05 -3.09414e-05
0.000303578 -9.11073e-05 -9.10587e-05 -1.85663e-05
0.000310621 -9.32225e-05 -9.3171e-05 -1.85665e-05
0.000184469 -5.54006e-05 -5.53149e-05 -3.09415e-05
0.000242966 -7.29376e-05 -7.28692e-05 -2.55277e-05
0.0003071 -9.21649e-05 -9.21148e-05 -1.85664e-05
0.0002486 -7.46306e-05 -7.45582e-05 -2.55278e-05
0.000245783 -7.37841e-05 -7.37137e-05 -2.55277e-05
0.000182357 -5.47654e-05 -5.4682e-05 -3.09414e-05
0.000178132 -5.34949e-05 -5.34161e-05 -3.09412e-05
0.000296534 -8.89921e-05 -8.89464e-05 -1.85662e-05
0.000303578 -9.11073e-05 -9.10587e-05 -1.85663e-05
0.000180244 -5.41301e-05 -5.4049e-05 -3.09413e-05
0.000237332 -7.12447e-05 -7.11802e-05 -2.55275e-05
0.000300056 -9.00497e-05 -9.00026e-05 -1.85663e-05
0.000242966 -7.29376e-05 -7.28692e-05 -2.55277e-05
0.000240149 -7.20912e-05 -7.20247e-05 -2.55276e-05
0.000178132 -5.34949e-05 -5.34161e-05 -3.09412e-05
0.000173908 -5.22244e-05 -5.21501e-05 -3.09411e-05
0.00028949 -8.68769e-05 -8.68341e-05 -1.85661e-05
0.000296534 -8.89921e-05 -8.89464e-05 -1.85662e-05
0.00017602 -5.28596e-05 -5.27831e-05 -3.09411e-05
0.000231698 -6.95518e-05 -6.94911e-05 -2.55274e-05
0.000293012 -8.79345e-05 -8.78903e-05 -1.85661e-05
0.000237332 -7.12447e-05 -7.11802e-05 -2.55275e-05
0.000234515 -7.03983e-05 -7.03356e-05 -2.55274e-05
0.000173908 -5.22244e-05 -5.21501e-05 -3.09411e-05
0.000169684 -5.0954e-05 -5.08841e-05 -3.09409e-05
0.000282446 -8.47618e-05 -8.47217e-05 -1.85659e-05
0.00028949 -8.68769e-05 -8.68341e-05 -1.85661e-05
0.000171796 -5.15892e-05 -5.15171e-05 -3.0941e-05
0.000226064 -6.7859e-05 -6.7802e-05 -2.55272e-05
0.000285968 -8.58194e-05 -8.57779e-05 -1.8566e-05
0.000231698 -6.95518e-05 -6.94911e-05 -2.55274e-05
0.000228881 -6.87054e-05 -6.86465e-05 -2.55273e-05
0.000169684 -5.0954e-05 -5.08841e-05 -3.09409e-05
0.000165459 -4.96837e-05 -4.9618e-05 -3.09408e-05
0.000275402 -8.26467e-05 -8.26093e-05 -1.85658e-05
0.000282446 -8.47618e-05 -8.47217e-05 -1.85659e-05
0.000167571 -5.03189e-05 -5.02511e-05 -3.09408e-05
0.000220429 -6.61662e-05 -6.61128e-05 -2.55271e-05
0.000278924 -8.37042e-05 -8.36655e-05 -1.85659e-05
0.000226064 -6.7859e-05 -6.7802e-05 -2.55272e-05
0.000223246 -6.70126e-05 -6.69574e-05 -2.55271e-05
0.000165459 -4.96837e-05 -4.9618e-05 -3.09408e-05
0.000161235 -4.84134e-05 -4.83519e-05 -3.09406e-05
0.000268358 -8.05316e-05 -8.04969e-05 -1.85657e-05
0.000275402 -8.26467e-05 -8.26093e-05 -1.85658e-05
0.000163347 -4.90486e-05 -4.8985e-05 -3.09407e-05
0.000214795 -6.44735e-05 -6.44235e-05 -2.55269e-05
0.00027188 -8.15891e-05 -8.15531e-05 -1.85658e-05
0.000220429 -6.61662e-05 -6.61128e-05 -2.55271e-05
0.000217612 -6.53199e-05 -6.52682e-05 -2.5527e-05
0.000161235 -4.84134e-05 -4.83519e-05 -3.09406e-05
0.00015701 -4.71432e-05 -4.70857e-05 -3.09405e-05
0.000261314 -7.84165e-05 -7.83844e-05 -1.85656e-05
0.000268358 -8.05316e-05 -8.04969e-05 -1.85657e-05
0.000159122 -4.77783e-05 -4.77188e-05 -3.09405e-05
0.000209161 -6.27808e-05 -6.27343e-05 -2.55268e-05
0.000264836 -7.94741e-05 -7.94407e-05 -1.85656e-05
0.000214795 -6.44735e-05 -6.44235e-05 -2.55269e-05
0.000211978 -6.36271e-05 -6.35789e-05 -2.55268e-05
0.00015701 -4.71432e-05 -4.70857e-05 -3.09405e-05
0.000152785 -4.5873e-05 -4.58195e-05 -3.09403e-05
0.000254269 -7.63015e-05 -7.62719e-05 -1.85654e-05
0.000261314 -7.84165e-05 -7.83844e-05 -1.85656e-05
0.000154898 -4.65081e-05 -4.64526e-05 -3.09404e-05
0.000203526 -6.10881e-05 -6.10449e-05 -2.55266e-05
0.000257791 -7.7359e-05 -7.73282e-05 -1.85655e-05
0.000209161 -6.27808e-05 -6.27343e-05 -2.55268e-05
0.000206344 -6.19345e-05 -6.18896e-05 -2.55267e-05
0.000152785 -4.5873e-05 -4.58195e-05 -3.09403e-05
0.00014856 -4.46028e-05 -4.45532e-05 -3.09402e-05
0.000247225 -7.41865e-05 -7.41594e-05 -1.85653e-05
0.000254269 -7.63015e-05 -7.62719e-05 -1.85654e-05
0.000150673 -4.52379e-05 -4.51864e-05 -3.09403e-05
0.000197892 -5.93955e-05 -5.93556e-05 -2.55265e-05
0.000250747 -7.5244e-05 -7.52157e-05 -1.85654e-05
0.000203526 -6.10881e-05 -6.10449e-05 -2.55266e-05
0.000200709 -6.02418e-05 -6.02003e-05 -2.55266e-05
0.00014856 -4.46028e-05 -4.45532e-05 -3.09402e-05
0.000144335 -4.33328e-05 -4.32869e-05 -3.094e-05
0.000240181 -7.20715e-05 -7.20468e-05 -1.85652e-05
0.000247225 -7.41865e-05 -7.41594e-05 -1.85653e-05
0.000146448 -4.39678e-05 -4.39201e-05 -3.09401e-05
0.000192257 -5.77029e-05 -5.76662e-05 -2.55263e-05
0.000243703 -7.3129e-05 -7.31031e-05 -1.85653e-05
0.000197892 -5.93955e-05 -5.93556e-05 -2.55265e-05
0.000195075 -5.85492e-05 -5.85109e-05 -2.55264e-05
0.000144335 -4.33328e-05 -4.32869e-05 -3.094e-05
0.00014011 -4.20627e-05 -4.20205e-05 -3.09399e-05
0.000233136 -6.99566e-05 -6.99342e-05 -1.85651e-05
0.000240181 -7.20715e-05 -7.20468e-05 -1.85652e-05
0.000142223 -4.26977e-05 -4.26537e-05 -3.094e-05
0.000186623 -5.60104e-05 -5.59767e-05 -2.55262e-05
0.000236659 -7.10141e-05 -7.09905e-05 -1.85651e-05
0.000192257 -5.77029e-05 -5.76662e-05 -2.55263e-05
0.00018944 -5.68567e-05 -5.68214e-05 -2.55263e-05
0.00014011 -4.20627e-05 -4.20205e-05 -3.09399e-05
0.000135885 -4.07927e-05 -4.0754e-05 -3.09398e-05
0.000226092 -6.78417e-05 -6.78216e-05 -1.8565e-05
0.000233136 -6.99566e-05 -6.99342e-05 -1.85651e-05
0.000137998 -4.14277e-05 -4.13873e-05 -3.09398e-05
0.000180988 -5.43179e-05 -5.42872e-05 -2.55261e-05
0.000229614 -6.88991e-05 -6.88779e-05 -1.8565e-05
0.000186623 -5.60104e-05 -5.59767e-05 -2.55262e-05
0.000183805 -5.51641e-05 -5.51319e-05 -2.55261e-05
0.000135885 -4.07927e-05 -4.0754e-05 -3.09398e-05
0.00013166 -3.95228e-05 -3.94875e-05 -3.09396e-05
0.000219048 -6.57268e-05 -6.57089e-05 -1.85648e-05
0.000226092 -6.78417e-05 -6.78216e-05 -1.8565e-05
0.000133773 -4.01577e-05 -4.01208e-05 -3.09397e-05
0.000175353 -5.26254e-05 -5.25976e-05 -2.55259e-05
0.00022257 -6.67842e-05 -6.67653e-05 -1.85649e-05
0.000180988 -5.43179e-05 -5.42872e-05 -2.55261e-05
0.000178171 -5.34717e-05 -5.34424e-05 -2.5526e-05
0.00013166 -3.95228e-05 -3.94875e-05 -3.09396e-05
0.000127435 -3.82529e-05 -3.82209e-05 -3.09395e-05
0.000212003 -6.36119e-05 -6.35962e-05 -1.85647e-05
0.000219048 -6.57268e-05 -6.57089e-05 -1.85648e-05
0.000129548 -3.88878e-05 -3.88542e-05 -3.09396e-05
0.000169718 -5.0933e-05 -5.0908e-05 -2.55258e-05
0.000215525 -6.46694e-05 -6.46526e-05 -1.85648e-05
0.000175353 -5.26254e-05 -5.25976e-05 -2.55259e-05
0.000172536 -5.17792e-05 -5.17528e-05 -2.55259e-05
0.000127435 -3.82529e-05 -3.82209e-05 -3.09395e-05
0.00012321 -3.6983e-05 -3.69543e-05 -3.09394e-05
0.000204958 -6.14971e-05 -6.14835e-05 -1.85646e-05
0.000212003 -6.36119e-05 -6.35962e-05 -1.85647e-05
0.000125322 -3.7618e-05 -3.75876e-05 -3.09394e-05
0.000164084 -4.92407e-05 -4.92184e-05 -2.55257e-05
0.000208481 -6.25545e-05 -6.25398e-05 -1.85647e-05
0.000169718 -5.0933e-05 -5.0908e-05 -2.55258e-05
0.000166901 -5.00868e-05 -5.00632e-05 -2.55257e-05
0.00012321 -3.6983e-05 -3.69543e-05 -3.09394e-05
0.000118984 -3.57133e-05 -3.56876e-05 -3.09392e-05
0.000197914 -5.93823e-05 -5.93707e-05 -1.85645e-05
0.000204958 -6.14971e-05 -6.14835e-05 -1.85646e-05
0.000121097 -3.63481e-05 -3.6321e-05 -3.09393e-05
0.000158449 -4.75483e-05 -4.75287e-05 -2.55255e-05
0.000201436 -6.04397e-05 -6.04271e-05 -1.85646e-05
0.000164084 -4.92407e-05 -4.92184e-05 -2.55257e-05
0.000161266 -4.83945e-05 -4.83735e-05 -2.55256e-05
0.000118984 -3.57133e-05 -3.56876e-05 -3.09392e-05
0.000114759 -3.44435e-05 -3.44209e-05 -3.09391e-05
0.000190869 -5.72675e-05 -5.72578e-05 -1.85644e-05
0.000197914 -5.93823e-05 -5.93707e-05 -1.85645e-05
0.000116872 -3.50784e-05 -3.50543e-05 -3.09392e-05
0.000152813 -4.5856e-05 -4.58389e-05 -2.55254e-05
0.000194392 -5.83249e-05 -5.83143e-05 -1.85645e-05
0.000158449 -4.75483e-05 -4.75287e-05 -2.55255e-05
0.000155631 -4.67022e-05 -4.66838e-05 -2.55255e-05
0.000114759 -3.44435e-05 -3.44209e-05 -3.09391e-05
0.000110533 -3.31739e-05 -3.31541e-05 -3.0939e-05
0.000183824 -5.51528e-05 -5.5145e-05 -1.85643e-05
0.000190869 -5.72675e-05 -5.72578e-05 -1.85644e-05
0.000112646 -3.38087e-05 -3.37875e-05 -3.09391e-05
0.000147178 -4.41638e-05 -4.41491e-05 -2.55253e-05
0.000187347 -5.62101e-05 -5.62014e-05 -1.85644e-05
0.000152813 -4.5856e-05 -4.58389e-05 -2.55254e-05
0.000149996 -4.50099e-05 -4.4994e-05 -2.55254e-05
0.000110533 -3.31739e-05 -3.31541e-05 -3.0939e-05
0.000106308 -3.19042e-05 -3.18872e-05 -3.09389e-05
0.00017678 -5.30381e-05 -5.30321e-05 -1.85643e-05
0.000183824 -5.51528e-05 -5.5145e-05 -1.85643e-05
0.000108421 -3.2539e-05 -3.25207e-05 -3.0939e-05
0.000141543 -4.24716e-05 -4.24593e-05 -2.55252e-05
0.000180302 -5.40954e-05 -5.40885e-05 -1.85643e-05
0.000147178 -4.41638e-05 -4.41491e-05 -2.55253e-05
0.000144361 -4.33177e-05 -4.33042e-05 -2.55253e-05
0.000106308 -3.19042e-05 -3.18872e-05 -3.09389e-05
0.000102082 -3.06347e-05 -3.06203e-05 -3.09388e-05
0.000169735 -5.09234e-05 -5.09191e-05 -1.85642e-05
0.00017678 -5.30381e-05 -5.30321e-05 -1.85643e-05
0.000104195 -3.12694e-05 -3.12538e-05 -3.09389e-05
0.000135908 -4.07794e-05 -4.07694e-05 -2.55252e-05
0.000173257 -5.19807e-05 -5.19756e-05 -1.85642e-05
0.000141543 -4.24716e-05 -4.24593e-05 -2.55252e-05
0.000138726 -4.16255e-05 -4.16143e-05 -2.55252e-05
0.000102082 -3.06347e-05 -3.06203e-05 -3.09388e-05
9.78564e-05 -2.93652e-05 -2.93534e-05 -3.09388e-05
0.00016269 -4.88087e-05 -4.88061e-05 -1.85642e-05
0.000169735 -5.09234e-05 -5.09191e-05 -1.85642e-05
9.99692e-05 -2.99999e-05 -2.99869e-05 -3.09388e-05
0.000130273 -3.90873e-05 -3.90794e-05 -2.55251e-05
0.000166212 -4.9866e-05 -4.98626e-05 -1.85642e-05
0.000135908 -4.07794e-05 -4.07694e-05 -2.55252e-05
0.00013309 -3.99334e-05 -3.99244e-05 -2.55251e-05
9.78564e-05 -2.93652e-05 -2.93534e-05 -3.09388e-05
9.36306e-05 -2.80957e-05 -2.80864e-05 -3.09387e-05
0.000155645 -4.66941e-05 -4.66931e-05 -1.85642e-05
0.00016269 -4.88087e-05 -4.88061e-05 -1.85642e-05
9.57435e-05 -2.87304e-05 -2.87199e-05 -3.09387e-05
0.000124637 -3.73953e-05 -3.73894e-05 -2.55251e-05
0.000159167 -4.77514e-05 -4.77496e-05 -1.85642e-05
0.000130273 -3.90873e-05 -3.90794e-05 -2.55251e-05
0.000127455 -3.82413e-05 -3.82344e-05 -2.55251e-05
9.36306e-05 -2.80957e-05 -2.80864e-05 -3.09387e-05
8.94047e-05 -2.68264e-05 -2.68193e-05 -3.09387e-05
0.0001486 -4.45795e-05 -4.45801e-05 -1.85642e-05
0.000155645 -4.66941e-05 -4.66931e-05 -1.85642e-05
9.15176e-05 -2.7461e-05 -2.74528e-05 -3.09387e-05
0.000119002 -3.57033e-05 -3.56994e-05 -2.55251e-05
0.000152122 -4.56368e-05 -4.56366e-05 -1.85642e-05
0.000124637 -3.73953e-05 -3.73894e-05 -2.55251e-05
0.00012182 -3.65492e-05 -3.65444e-05 -2.55251e-05
8.94047e-05 -2.68264e-05 -2.68193e-05 -3.09387e-05
8.51789e-05 -2.55571e-05 -2.55522e-05 -3.09386e-05
0.000141554 -4.24649e-05 -4.24669e-05 -1.85642e-05
0.0001486 -4.45795e-05 -4.45801e-05 -1.85642e-05
8.72918e-05 -2.61917e-05 -2.61857e-05 -3.09386e-05
0.000113366 -3.40113e-05 -3.40093e-05 -2.55251e-05
0.000145077 -4.35222e-05 -4.35235e-05 -1.85642e-05
0.000119002 -3.57033e-05 -3.56994e-05 -2.55251e-05
0.000116184 -3.48573e-05 -3.48544e-05 -2.55251e-05
8.51789e-05 -2.55571e-05 -2.55522e-05 -3.09386e-05
8.0953e-05 -2.42878e-05 -2.42851e-05 -3.09385e-05
0.000134509 -4.03504e-05 -4.03538e-05 -1.85643e-05
0.000141554 -4.24649e-05 -4.24669e-05 -1.85642e-05
8.30659e-05 -2.49224e-05 -2.49186e-05 -3.09385e-05
0.000107731 -3.23194e-05 -3.23192e-05 -2.55251e-05
0.000138032 -4.14077e-05 -4.14104e-05 -1.85643e-05
0.000113366 -3.40113e-05 -3.40093e-05 -2.55251e-05
0.000110549 -3.31654e-05 -3.31643e-05 -2.55251e-05
8.0953e-05 -2.42878e-05 -2.42851e-05 -3.09385e-05
7.67271e-05 -2.30185e-05 -2.3018e-05 -3.09383e-05
0.000127464 -3.82359e-05 -3.82407e-05 -1.85644e-05
0.000134509 -4.03504e-05 -4.03538e-05 -1.85643e-05
7.884e-05 -2.36531e-05 -2.36515e-05 -3.09384e-05
0.000102096 -3.06275e-05 -3.06291e-05 -2.5525e-05
0.000130987 -3.92931e-05 -3.92972e-05 -1.85644e-05
0.000107731 -3.23194e-05 -3.23192e-05 -2.55251e-05
0.000104913 -3.14735e-05 -3.14742e-05 -2.55251e-05
7.67271e-05 -2.30185e-05 -2.3018e-05 -3.09383e-05
7.25012e-05 -2.17489e-05 -2.1751e-05 -3.09378e-05
0.000120419 -3.61213e-05 -3.61275e-05 -1.85644e-05
0.000127464 -3.82359e-05 -3.82407e-05 -1.85644e-05
7.46142e-05 -2.23837e-05 -2.23845e-05 -3.09381e-05
9.64601e-05 -2.89355e-05 -2.89391e-05 -2.55247e-05
0.000123941 -3.71786e-05 -3.71841e-05 -1.85644e-05
0.000102096 -3.06275e-05 -3.06291e-05 -2.5525e-05
9.92778e-05 -2.97815e-05 -2.97841e-05 -2.55249e-05
7.25012e-05 -2.17489e-05 -2.1751e-05 -3.09378e-05
6.8275e-05 -2.04788e-05 -2.04841e-05 -3.0937e-05
0.000113374 -3.40067e-05 -3.40145e-05 -1.8564e-05
0.000120419 -3.61213e-05 -3.61275e-05 -1.85644e-05
7.03881e-05 -2.1114e-05 -2.11175e-05 -3.09375e-05
9.08248e-05 -2.72431e-05 -2.72493e-05 -2.5524e-05
0.000116896 -3.5064e-05 -3.5071e-05 -1.85643e-05
9.64601e-05 -2.89355e-05 -2.89391e-05 -2.55247e-05
9.36425e-05 -2.80894e-05 -2.80942e-05 -2.55245e-05
6.8275e-05 -2.04788e-05 -2.04841e-05 -3.0937e-05
6.4048e-05 -1.92072e-05 -1.92175e-05 -3.09355e-05
0.000106329 -3.18916e-05 -3.19019e-05 -1.85628e-05
0.000113374 -3.40067e-05 -3.40145e-05 -1.8564e-05
6.61617e-05 -1.98432e-05 -1.98508e-05 -3.09364e-05
8.51892e-05 -2.55498e-05 -2.55597e-05 -2.55223e-05
0.000109852 -3.29492e-05 -3.29581e-05 -1.85636e-05
9.08248e-05 -2.72431e-05 -2.72493e-05 -2.5524e-05
8.8007e-05 -2.63967e-05 -2.64044e-05 -2.55233e-05
6.4048e-05 -1.92072e-05 -1.92175e-05 -3.09355e-05
5.98191e-05 -1.79323e-05 -1.79515e-05 -3.09329e-05
9.9285e-05 -2.97756e-05 -2.97898e-05 -1.85596e-05
0.000106329 -3.18916e-05 -3.19019e-05 -1.85628e-05
6.19338e-05 -1.85703e-05 -1.85844e-05 -3.09344e-05
7.95529e-05 -2.38542e-05 -2.38709e-05 -2.55184e-05
0.000102807 -3.08338e-05 -3.08457e-05 -1.85616e-05
8.51892e-05 -2.55498e-05 -2.55597e-05 -2.55223e-05
8.23712e-05 -2.47024e-05 -2.47152e-05 -2.55207e-05
5.98191e-05 -1.79323e-05 -1.79515e-05 -3.09329e-05
5.5585e-05 -1.66509e-05 -1.6686e-05 -3.09285e-05
9.22418e-05 -2.76575e-05 -2.7679e-05 -1.85519e-05
9.9285e-05 -2.97756e-05 -2.97898e-05 -1.85596e-05
5.7703e-05 -1.72928e-05 -1.73187e-05 -3.0931e-05
7.39142e-05 -2.21537e-05 -2.21831e-05 -2.55104e-05
9.57632e-05 -2.87169e-05 -2.87341e-05 -1.85566e-05
7.95529e-05 -2.38542e-05 -2.38709e-05 -2.55184e-05
7.6734e-05 -2.30048e-05 -2.30268e-05 -2.55151e-05
5.5585e-05 -1.66509e-05 -1.6686e-05 -3.09285e-05
5.13409e-05 -1.53563e-05 -1.5422e-05 -3.09211e-05
8.51989e-05 -2.5535e-05 -2.55703e-05 -1.85355e-05
9.22418e-05 -2.76575e-05 -2.7679e-05 -1.85519e-05
5.34644e-05 -1.60058e-05 -1.60537e-05 -3.09253e-05
6.827e-05 -2.04433e-05 -2.04972e-05 -2.54942e-05
8.87205e-05 -2.6597e-05 -2.66244e-05 -1.85451e-05
7.39142e-05 -2.21537e-05 -2.21831e-05 -2.55104e-05
7.10931e-05 -2.13001e-05 -2.13399e-05 -2.55035e-05
5.13409e-05 -1.53563e-05 -1.5422e-05 -3.09211e-05
4.70737e-05 -1.40376e-05 -1.41583e-05 -3.09098e-05
7.81581e-05 -2.34036e-05 -2.34662e-05 -1.85007e-05
8.51989e-05 -2.5535e-05 -2.55703e-05 -1.85355e-05
4.92116e-05 -1.47011e-05 -1.47902e-05 -3.09159e-05
6.26134e-05 -1.87143e-05 -1.88139e-05 -2.54634e-05
8.16779e-05 -2.44707e-05 -2.45174e-05 -1.85214e-05
6.827e-05 -2.04433e-05 -2.04972e-05 -2.54942e-05
6.54438e-05 -1.95821e-05 -1.9655e-05 -2.54815e-05
4.70737e-05 -1.40376e-05 -1.41583e-05 -3.09098e-05
4.27667e-05 -1.26748e-05 -1.28966e-05 -3.0892e-05
7.1114e-05 -2.12563e-05 -2.13676e-05 -1.84345e-05
7.81581e-05 -2.34036e-05 -2.34662e-05 -1.85007e-05
4.49258e-05 -1.33631e-05 -1.35269e-05 -3.09021e-05
5.69302e-05 -1.69494e-05 -1.71346e-05 -2.54064e-05
7.46375e-05 -2.23329e-05 -2.24163e-05 -1.84726e-05
6.26134e-05 -1.87143e-05 -1.88139e-05 -2.54634e-05
5.97763e-05 -1.78372e-05 -1.79739e-05 -2.54386e-05
4.27667e-05 -1.26748e-05 -1.28966e-05 -3.0892e-05
3.83759e-05 -1.12397e-05 -1.16298e-05 -3.087e-05
6.4071e-05 -1.90787e-05 -1.92824e-05 -1.83057e-05
7.1114e-05 -2.12563e-05 -2.13676e-05 -1.84345e-05
4.05867e-05 -1.19692e-05 -1.22646e-05 -3.08809e-05
5.11969e-05 -1.51263e-05 -1.54588e-05 -2.53058e-05
6.75907e-05 -2.01717e-05 -2.03225e-05 -1.83809e-05
5.69302e-05 -1.69494e-05 -1.71346e-05 -2.54064e-05
5.40715e-05 -1.60483e-05 -1.62957e-05 -2.53642e-05
3.83759e-05 -1.12397e-05 -1.16298e-05 -3.087e-05
3.38584e-05 -9.68672e-06 -1.03593e-05 -3.0841e-05
5.70001e-05 -1.68542e-05 -1.72054e-05 -1.80831e-05
6.4071e-05 -1.90787e-05 -1.92824e-05 -1.83057e-05
3.61334e-05 -1.04797e-05 -1.09944e-05 -3.08571e-05
4.53637e-05 -1.31982e-05 -1.37852e-05 -2.51379e-05
6.05443e-05 -1.79759e-05 -1.82436e-05 -1.82082e-05
5.11969e-05 -1.51263e-05 -1.54588e-05 -2.53058e-05
4.82973e-05 -1.41762e-05 -1.46234e-05 -2.52296e-05
3.38584e-05 -9.68672e-06 -1.03593e-05 -3.0841e-05
2.90968e-05 -7.9781e-06 -9.05087e-06 -3.0832e-05
4.99117e-05 -1.45415e-05 -1.51586e-05 -1.76873e-05
5.70001e-05 -1.68542e-05 -1.72054e-05 -1.80831e-05
3.15224e-05 -8.85698e-06 -9.71374e-06 -3.08301e-05
3.93668e-05 -1.11306e-05 -1.21012e-05 -2.48763e-05
5.34516e-05 -1.57066e-05 -1.61764e-05 -1.79146e-05
4.53637e-05 -1.31982e-05 -1.37852e-05 -2.51379e-05
4.23891e-05 -1.21898e-05 -1.29425e-05 -2.50259e-05
2.90968e-05 -7.9781e-06 -9.05087e-06 -3.0832e-05
2.40397e-05 -6.07339e-06 -7.69986e-06 -3.08605e-05
4.26721e-05 -1.21304e-05 -1.30893e-05 -1.7088e-05
4.99117e-05 -1.45415e-05 -1.51586e-05 -1.76873e-05
2.65973e-05 -7.04285e-06 -8.3805e-06 -3.08416e-05
3.30582e-05 -8.83825e-06 -1.038e-05 -2.45204e-05
4.63341e-05 -1.33616e-05 -1.41311e-05 -1.74134e-05
3.93668e-05 -1.11306e-05 -1.21012e-05 -2.48763e-05
3.62666e-05 -1.00052e-05 -1.12549e-05 -2.46979e-05
2.40397e-05 -6.07339e-06 -7.69986e-06 -3.08605e-05
1.85015e-05 -4.10648e-06 -6.16931e-06 -3.10753e-05
3.529e-05 -9.51953e-06 -1.10445e-05 -1.61666e-05
4.26721e-05 -1.21304e-05 -1.30893e-05 -1.7088e-05
2.13618e-05 -5.09379e-06 -6.97202e-06 -3.09268e-05
2.63396e-05 -6.40432e-06 -8.5437e-06 -2.4133e-05
3.89746e-05 -1.08258e-05 -1.20638e-05 -1.6678e-05
3.30582e-05 -8.83825e-06 -1.038e-05 -2.45204e-05
2.97473e-05 -7.65e-06 -9.47029e-06 -2.4344e-05
1.85015e-05 -4.10648e-06 -6.16931e-06 -3.10753e-05
1.27537e-05 -2.40245e-06 -4.43626e-06 -3.15825e-05
2.72366e-05 -6.91965e-06 -8.70724e-06 -1.51728e-05
3.529e-05 -9.51953e-06 -1.10445e-05 -1.61666e-05
1.55888e-05 -3.14669e-06 -5.33235e-06 -3.12876e-05
1.88912e-05 -3.91973e-06 -6.41633e-06 -2.40322e-05
3.14375e-05 -8.26146e-06 -9.93261e-06 -1.56516e-05
2.63396e-05 -6.40432e-06 -8.5437e-06 -2.4133e-05
2.27494e-05 -5.09847e-06 -7.5647e-06 -2.39693e-05
1.27537e-05 -2.40245e-06 -4.43626e-06 -3.15825e-05
7.16724e-06 -2.3694e-06 -2.05622e-06 -3.27356e-05
1.85562e-05 -4.33733e-06 -6.0938e-06 -1.45188e-05
2.72366e-05 -6.91965e-06 -8.70724e-06 -1.51728e-05
9.95894e-06 -2.08799e-06 -3.37327e-06 -3.20467e-05
1.11424e-05 -2.72541e-06 -3.60727e-06 -2.49051e-05
2.28788e-05 -5.44945e-06 -7.46973e-06 -1.4741e-05
1.88912e-05 -3.91973e-06 -6.41633e-06 -2.40322e-05
1.49578e-05 -3.08321e-06 -5.08912e-06 -2.4363e-05
7.16724e-06 -2.3694e-06 -2.05622e-06 -3.27356e-05
4.19959e-06 -6.5141e-06 9.91935e-07 -3.3646e-05
8.43924e-06 -4.56284e-06 -1.66131e-06 -1.69864e-05
1.85562e-05 -4.33733e-06 -6.0938e-06 -1.45188e-05
5.03024e-06 -3.548e-06 -6.35247e-07 -3.33482e-05
4.04696e-06 -5.80137e-06 7.51891e-07 -2.809e-05
1.38744e-05 -4.06488e-06 -4.20409e-06 -1.50941e-05
1.11424e-05 -2.72541e-06 -3.60727e-06 -2.49051e-05
7.49028e-06 -3.19918e-06 -1.83904e-06 -2.59475e-05
4.19959e-06 -6.5141e-06 9.91935e-07 -3.3646e-05
5.66507e-06 -1.95239e-05 5.93949e-06 -3.09573e-05
3.67072e-06 -1.62498e-05 5.39104e-06 -2.61881e-05
8.43924e-06 -4.56284e-06 -1.66131e-06 -1.69864e-05
4.47721e-06 -1.20009e-05 3.22442e-06 -3.31888e-05
6.10777e-06 -2.2152e-05 6.87609e-06 -3.06786e-05
4.34118e-06 -6.77522e-06 1.04316e-06 -2.02594e-05
4.04696e-06 -5.80137e-06 7.51891e-07 -2.809e-05
2.89271e-06 -1.18935e-05 3.8575e-06 -3.02923e-05
5.66507e-06 -1.95239e-05 5.93949e-06 -3.09573e-05
1.00659e-05 -3.53936e-05 1.08547e-05 -1.63912e-05
2.27906e-05 -7.1376e-05 2.08223e-05 -2.66798e-05
3.67072e-06 -1.62498e-05 5.39104e-06 -2.61881e-05
7.58674e-06 -2.80281e-05 8.7606e-06 -2.56024e-05
1.82319e-05 -5.171e-05 1.43478e-05 -1.5456e-05
8.97234e-06 -3.81347e-05 1.24981e-05 -3.09846e-05
6.10777e-06 -2.2152e-05 6.87609e-06 -3.06786e-05
1.18386e-05 -3.63969e-05 1.0525e-05 -2.65906e-05
0.00118267 2.22045e-16 -0.000506857 -6.8622e-05
0.00133118 -0.000264031 -0.000457348 -9.96679e-05
0.00185741 -0.000588612 -0.000543769 3.36504e-05
0.00260434 -1.11022e-16 -0.00111614 -0.000884822
0.00126589 -0.000124562 -0.000489139 -0.000115577
0.0016849 -0.000409233 -0.000546715 -0.000129016
0.00206617 -0.00065562 -0.00060452 -0.000125054
0.00139093 0 -0.000596111 -0.000215045
0.00162542 -0.000276694 -0.000578023 -0.000201906
0.00133118 -0.000264031 -0.000457348 -9.96679e-05
0.00138333 -0.000375028 -0.000432128 -4.76965e-05
0.0018346 -0.000568416 -0.00054265 1.05861e-05
0.00185741 -0.000588612 -0.000543769 3.36504e-05
0.00137237 -0.000342256 -0.000441478 -7.20411e-05
0.00164749 -0.00048038 -0.000500191 -2.19966e-05
0.00182952 -0.000543194 -0.000551283 1.48873e-05
0.0016849 -0.000409233 -0.000546715 -0.000129016
0.00166152 -0.000463876 -0.000513277 -5.25892e-05
0.00138333 -0.000375028 -0.000432128 -4.76965e-05
0.00137678 -0.000406319 -0.000415911 -1.7898e-05
0.00186021 -0.000552247 -0.000560554 4.91831e-06
0.0018346 -0.000568416 -0.00054265 1.05861e-05
0.00137961 -0.000394484 -0.000422195 -2.8166e-05
0.00163014 -0.000489006 -0.000489056 -2.44296e-06
0.00185178 -0.000567143 -0.000550559 1.06965e-05
0.00164749 -0.00048038 -0.000500191 -2.19966e-05
0.00163848 -0.000486562 -0.000493678 -1.07712e-05
0.00137678 -0.000406319 -0.000415911 -1.7898e-05
0.00136711 -0.000410726 -0.000409879 -1.11493e-05
0.00187073 -0.000562912 -0.000560493 -5.46464e-07
0.00186021 -0.000552247 -0.000560554 4.91831e-06
0.00137317 -0.000410526 -0.000412562 -1.33776e-05
0.00162057 -0.000488055 -0.000485363 4.79419e-07
0.00186486 -0.000554082 -0.000561763 -9.4476e-07
0.00163014 -0.000489006 -0.000489056 -2.44296e-06
0.00162374 -0.000489025 -0.000486307 1.26492e-06
0.00136711 -0.000410726 -0.000409879 -1.11493e-05
0.00135592 -0.000410103 -0.000405349 -1.07694e-05
0.00187615 -0.000560895 -0.00056368 3.79864e-07
0.00187073 -0.000562912 -0.000560493 -5.46464e-07
0.00136067 -0.000410556 -0.00040719 -1.02986e-05
0.00161579 -0.000486516 -0.000483977 -2.3182e-06
0.00187532 -0.000563773 -0.00056209 9.46347e-07
0.00162057 -0.000488055 -0.000485363 4.79419e-07
0.00161859 -0.000487251 -0.000484861 -1.32654e-06
0.00135592 -0.000410103 -0.000405349 -1.07694e-05
0.00134742 -0.000407133 -0.000402979 -1.29667e-05
0.00187412 -0.000562499 -0.000562123 -3.43966e-07
0.00187615 -0.000560895 -0.00056368 3.79864e-07
0.00135184 -0.000408812 -0.000404155 -1.19208e-05
0.00160992 -0.000484415 -0.000482358 -4.92422e-06
0.00187512 -0.000561113 -0.000563146 -5.91141e-07
0.00161579 -0.000486516 -0.000483977 -2.3182e-06
0.00161272 -0.000485541 -0.000483077 -3.47059e-06
0.00134742 -0.000407133 -0.000402979 -1.29667e-05
0.0013392 -0.000404214 -0.000400709 -1.48345e-05
0.00186959 -0.00056045 -0.000561058 1.83957e-08
0.00187412 -0.000562499 -0.000562123 -3.43966e-07
0.00134306 -0.000405616 -0.000401763 -1.39007e-05
0.00160369 -0.000482153 -0.000480661 -6.99035e-06
0.00187249 -0.000561955 -0.000561659 1.0888e-07
0.00160992 -0.000484415 -0.000482358 -4.92422e-06
0.00160703 -0.000483288 -0.000481603 -6.15428e-06
0.0013392 -0.000404214 -0.000400709 -1.48345e-05
0.00133183 -0.000401365 -0.000398771 -1.63684e-05
0.00186222 -0.000558737 -0.000558637 -1.11995e-07
0.00186959 -0.00056045 -0.000561058 1.83957e-08
0.00133555 -0.00040278 -0.000399759 -1.57011e-05
0.0015965 -0.000479766 -0.000478599 -8.32743e-06
0.00186597 -0.000559499 -0.000559917 -1.89332e-07
0.00160369 -0.000482153 -0.000480661 -6.99035e-06
0.00160012 -0.000480976 -0.000479632 -7.7047e-06
0.00133183 -0.000401365 -0.000398771 -1.63684e-05
0.00132455 -0.000398784 -0.000396756 -1.73078e-05
0.00185387 -0.000556102 -0.000556187 -1.36478e-08
0.00186222 -0.000558737 -0.000558637 -1.11995e-07
0.00132813 -0.00040004 -0.000397754 -1.68835e-05
0.00158888 -0.000477303 -0.00047639 -9.12575e-06
0.00185823 -0.000557535 -0.000557439 4.29156e-09
0.0015965 -0.000479766 -0.000478599 -8.32743e-06
0.00159277 -0.00047854 -0.000477529 -8.79665e-06
0.00132455 -0.000398784 -0.000396756 -1.73078e-05
0.00131746 -0.000396369 -0.000394755 -1.79055e-05
0.00184467 -0.000553442 -0.000553382 -3.1422e-08
0.00185387 -0.000556102 -0.000556187 -1.36478e-08
0.00132102 -0.000397561 -0.000395766 -1.76527e-05
0.00158085 -0.000474806 -0.00047402 -9.58852e-06
0.0018493 -0.00055476 -0.000554805 -5.52658e-08
0.00158888 -0.000477303 -0.00047639 -9.12575e-06
0.00158488 -0.000476058 -0.00047521 -9.3865e-06
0.00131746 -0.000396369 -0.000394755 -1.79055e-05
0.00131039 -0.000394083 -0.000392705 -1.82308e-05
0.00183516 -0.000550566 -0.000550539 -7.34026e-09
0.00184467 -0.000553442 -0.000553382 -3.1422e-08
0.00131392 -0.000395213 -0.000393731 -1.80901e-05
0.00157265 -0.000472285 -0.000471585 -9.83161e-06
0.00183996 -0.00055203 -0.000551968 -3.351e-09
0.00158085 -0.000474806 -0.00047402 -9.58852e-06
0.00157678 -0.000473547 -0.000472813 -9.73189e-06
0.00131039 -0.000394083 -0.000392705 -1.82308e-05
0.00130336 -0.000391872 -0.000390638 -1.84134e-05
0.00182543 -0.000547667 -0.000547614 -7.7509e-09
0.00183516 -0.000550566 -0.000550539 -7.34026e-09
0.00130688 -0.000392971 -0.000391676 -1.83377e-05
0.00156432 -0.000469754 -0.000469098 -9.96075e-06
0.0018303 -0.000549115 -0.000549081 -1.46033e-08
0.00157265 -0.000472285 -0.000471585 -9.83161e-06
0.00156849 -0.00047102 -0.000470344 -9.90654e-06
0.00130336 -0.000391872 -0.000390638 -1.84134e-05
0.00129633 -0.000389705 -0.000388552 -1.85044e-05
0.00181563 -0.000544722 -0.000544675 -2.39116e-09
0.00182543 -0.000547667 -0.000547614 -7.7509e-09
0.00129984 -0.000390784 -0.000389596 -1.84662e-05
0.00155593 -0.000467218 -0.00046659 -1.00218e-05
0.00182054 -0.0005462 -0.000546146 -1.43702e-09
0.00156432 -0.000469754 -0.000469098 -9.96075e-06
0.00156013 -0.000468487 -0.000467847 -9.99723e-06
0.00129633 -0.000389705 -0.000388552 -1.85044e-05
0.0012893 -0.000387562 -0.000386457 -1.85507e-05
0.00180579 -0.000541771 -0.000541721 -1.6293e-09
0.00181563 -0.000544722 -0.000544675 -2.39116e-09
0.00129281 -0.000388632 -0.000387506 -1.8532e-05
0.0015475 -0.00046468 -0.000464067 -1.00512e-05
0.00181071 -0.000543246 -0.000543199 -3.39239e-09
0.00155593 -0.000467218 -0.00046659 -1.00218e-05
0.00155172 -0.000465949 -0.000465329 -1.00393e-05
0.0012893 -0.000387562 -0.000386457 -1.85507e-05
0.00128226 -0.000385432 -0.000384356 -1.85718e-05
0.00179593 -0.000538812 -0.000538763 -5.87319e-10
0.00180579 -0.000541771 -0.000541721 -1.6293e-09
0.00128578 -0.000386496 -0.000385407 -1.85632e-05
0.00153907 -0.000462141 -0.000461539 -1.00634e-05
0.00180086 -0.000540293 -0.000540242 -3.43195e-10
0.0015475 -0.00046468 -0.000464067 -1.00512e-05
0.00154329 -0.00046341 -0.000462804 -1.00587e-05
0.00128226 -0.000385432 -0.000384356 -1.85718e-05
0.00127523 -0.000383308 -0.000382251 -1.85814e-05
0.00178606 -0.000535853 -0.000535804 -2.69871e-10
0.00179593 -0.000538812 -0.000538763 -5.87319e-10
0.00127875 -0.00038437 -0.000383304 -1.85777e-05
0.00153062 -0.000459601 -0.000459008 -1.00685e-05
0.001791 -0.000537333 -0.000537284 -6.63451e-10
0.00153907 -0.000462141 -0.000461539 -1.00634e-05
0.00153484 -0.000460871 -0.000460274 -1.00665e-05
0.00127523 -0.000383308 -0.000382251 -1.85814e-05
0.00126819 -0.000381187 -0.000380145 -1.85853e-05
0.0017762 -0.000532893 -0.000532844 -1.14736e-10
0.00178606 -0.000535853 -0.000535804 -2.69871e-10
0.00127171 -0.000382247 -0.000381198 -1.85838e-05
0.00152217 -0.000457062 -0.000456475 -1.007e-05
0.00178113 -0.000534373 -0.000534324 -4.74976e-11
0.00153062 -0.000459601 -0.000459008 -1.00685e-05
0.0015264 -0.000458331 -0.000457742 -1.00695e-05
0.00126819 -0.000381187 -0.000380145 -1.85853e-05
0.00126116 -0.000379067 -0.000378038 -1.85867e-05
0.00176633 -0.000529933 -0.000529885 -3.2649e-11
0.0017762 -0.000532893 -0.000532844 -1.14736e-10
0.00126467 -0.000380127 -0.000379092 -1.85862e-05
0.00151372 -0.000454522 -0.000453942 -1.00703e-05
0.00177126 -0.000531413 -0.000531364 -1.04766e-10
0.00152217 -0.000457062 -0.000456475 -1.007e-05
0.00151795 -0.000455792 -0.000455209 -1.00703e-05
0.00126116 -0.000379067 -0.000378038 -1.85867e-05
0.00125412 -0.000376948 -0.00037593 -1.85871e-05
0.00175646 -0.000526973 -0.000526925 -2.57058e-11
0.00176633 -0.000529933 -0.000529885 -3.2649e-11
0.00125764 -0.000378007 -0.000376984 -1.8587e-05
0.00150527 -0.000451982 -0.000451409 -1.00702e-05
0.0017614 -0.000528453 -0.000528405 -6.23612e-12
0.00151372 -0.000454522 -0.000453942 -1.00703e-05
0.00150949 -0.000453252 -0.000452675 -1.00703e-05
0.00125412 -0.000376948 -0.00037593 -1.85871e-05
0.00124708 -0.000374828 -0.000373822 -1.8587e-05
0.0017466 -0.000524013 -0.000523966 -1.1075e-11
0.00175646 -0.000526973 -0.000526925 -2.57058e-11
0.0012506 -0.000375888 -0.000374876 -1.85871e-05
0.00149682 -0.000449442 -0.000448875 -1.007e-05
0.00175153 -0.000525493 -0.000525445 -2.01676e-11
0.00150527 -0.000451982 -0.000451409 -1.00702e-05
0.00150104 -0.000450712 -0.000450142 -1.00701e-05
0.00124708 -0.000374828 -0.000373822 -1.8587e-05
0.00124004 -0.000372709 -0.000371714 -1.85869e-05
0.00173673 -0.000521053 -0.000521006 -1.754e-11
0.0017466 -0.000524013 -0.000523966 -1.1075e-11
0.00124356 -0.000373769 -0.000372768 -1.8587e-05
0.00148837 -0.000446903 -0.000446342 -1.00697e-05
0.00174167 -0.000522533 -0.000522486 -1.19553e-11
0.00149682 -0.000449442 -0.000448875 -1.007e-05
0.00149259 -0.000448173 -0.000447608 -1.00698e-05
0.00124004 -0.000372709 -0.000371714 -1.85869e-05
0.001233 -0.00037059 -0.000369606 -1.85867e-05
0.00172687 -0.000518093 -0.000518047 -1.62333e-11
0.00173673 -0.000521053 -0.000521006 -1.754e-11
0.00123652 -0.000371649 -0.00037066 -1.85868e-05
0.00147992 -0.000444363 -0.000443808 -1.00696e-05
0.0017318 -0.000519573 -0.000519527 -1.61937e-11
0.00148837 -0.000446903 -0.000446342 -1.00697e-05
0.00148414 -0.000445633 -0.000445075 -1.00696e-05
0.001233 -0.00037059 -0.000369606 -1.85867e-05
0.00122597 -0.00036847 -0.000367498 -1.85865e-05
0.001717 -0.000515134 -0.000515088 -1.95425e-11
0.00172687 -0.000518093 -0.000518047 -1.62333e-11
0.00122948 -0.00036953 -0.000368552 -1.85866e-05
0.00147146 -0.000441823 -0.000441275 -1.00694e-05
0.00172194 -0.000516613 -0.000516567 -1.80627e-11
0.00147992 -0.000444363 -0.000443808 -1.00696e-05
0.00147569 -0.000443093 -0.000442541 -1.00695e-05
0.00122597 -0.00036847 -0.000367498 -1.85865e-05
0.00121893 -0.000366351 -0.00036539 -1.85863e-05
0.00170714 -0.000512174 -0.000512128 -1.97189e-11
0.001717 -0.000515134 -0.000515088 -1.95425e-11
0.00122245 -0.000367411 -0.000366444 -1.85864e-05
0.00146301 -0.000439284 -0.000438741 -1.00693e-05
0.00171207 -0.000513654 -0.000513608 -1.92622e-11
0.00147146 -0.000441823 -0.000441275 -1.00694e-05
0.00146724 -0.000440553 -0.000440008 -1.00693e-05
0.00121893 -0.000366351 -0.00036539 -1.85863e-05
0.00121189 -0.000364232 -0.000363281 -1.85861e-05
0.00169728 -0.000509215 -0.000509169 -2.07563e-11
0.00170714 -0.000512174 -0.000512128 -1.97156e-11
0.00121541 -0.000365291 -0.000364336 -1.85862e-05
0.00145456 -0.000436744 -0.000436208 -1.00691e-05
0.00170221 -0.000510694 -0.000510649 -2.04264e-11
0.00146301 -0.000439284 -0.000438741 -1.00693e-05
0.00145879 -0.000438014 -0.000437474 -1.00692e-05
0.00121189 -0.000364232 -0.000363281 -1.85861e-05
0.00120485 -0.000362113 -0.000361173 -1.8586e-05
0.00168741 -0.000506255 -0.00050621 -2.08205e-11
0.00169728 -0.000509215 -0.000509169 -2.07563e-11
0.00120837 -0.000363172 -0.000362227 -1.85861e-05
0.00144611 -0.000434204 -0.000433674 -1.0069e-05
0.00169234 -0.000507735 -0.00050769 -2.06683e-11
0.00145456 -0.000436744 -0.000436208 -1.00691e-05
0.00145034 -0.000435474 -0.000434941 -1.00691e-05
0.00120485 -0.000362113 -0.000361173 -1.8586e-05
0.00119781 -0.000359993 -0.000359065 -1.85858e-05
0.00167755 -0.000503295 -0.000503251 -2.10431e-11
0.00168741 -0.000506255 -0.00050621 -2.08204e-11
0.00120133 -0.000361053 -0.000360119 -1.85859e-05
0.00143766 -0.000431665 -0.00043114 -1.00689e-05
0.00168248 -0.000504775 -0.00050473 -2.09916e-11
0.00144611 -0.000434204 -0.000433674 -1.0069e-05
0.00144188 -0.000432934 -0.000432407 -1.0069e-05
0.00119781 -0.000359993 -0.000359065 -1.85858e-05
0.00119077 -0.000357874 -0.000356956 -1.85856e-05
0.00166768 -0.000500336 -0.000500291 -2.10063e-11
0.00167755 -0.000503295 -0.000503251 -2.10431e-11
0.00119429 -0.000358934 -0.000358011 -1.85857e-05
0.00142921 -0.000429125 -0.000428607 -1.00688e-05
0.00167261 -0.000501816 -0.000501771 -2.09838e-11
0.00143766 -0.000431665 -0.00043114 -1.00689e-05
0.00143343 -0.000430395 -0.000429874 -1.00689e-05
0.00119077 -0.000357874 -0.000356956 -1.85856e-05
0.00118373 -0.000355755 -0.000354848 -1.85855e-05
0.00165782 -0.000497376 -0.000497332 -2.10098e-11
0.00166768 -0.000500336 -0.000500291 -2.10159e-11
0.00118725 -0.000356815 -0.000355902 -1.85856e-05
0.00142076 -0.000426585 -0.000426073 -1.00687e-05
0.00166275 -0.000498856 -0.000498812 -2.1023e-11
0.00142921 -0.000429125 -0.000428607 -1.00688e-05
0.00142498 -0.000427855 -0.00042734 -1.00688e-05
0.00118373 -0.000355755 -0.000354848 -1.85855e-05
0.00117669 -0.000353636 -0.00035274 -1.85853e-05
0.00164795 -0.000494417 -0.000494373 -2.09376e-11
0.00165782 -0.000497376 -0.000497332 -2.10098e-11
0.00118021 -0.000354696 -0.000353794 -1.85854e-05
0.0014123 -0.000424046 -0.00042354 -1.00686e-05
0.00165289 -0.000495896 -0.000495853 -2.09629e-11
0.00142076 -0.000426585 -0.000426073 -1.00687e-05
0.00141653 -0.000425316 -0.000424806 -1.00687e-05
0.00117669 -0.000353636 -0.00035274 -1.85853e-05
0.00116966 -0.000351517 -0.000350631 -1.85852e-05
0.00163809 -0.000491457 -0.000491414 -2.08741e-11
0.00164795 -0.000494417 -0.000494373 -2.09405e-11
0.00117318 -0.000352576 -0.000351685 -1.85853e-05
0.00140385 -0.000421506 -0.000421006 -1.00685e-05
0.00164302 -0.000492937 -0.000492893 -2.09094e-11
0.0014123 -0.000424046 -0.00042354 -1.00686e-05
0.00140808 -0.000422776 -0.000422273 -1.00686e-05
0.00116966 -0.000351517 -0.000350631 -1.85852e-05
0.00116262 -0.000349398 -0.000348523 -1.8585e-05
0.00162823 -0.000488498 -0.000488455 -2.07962e-11
0.00163809 -0.000491457 -0.000491414 -2.08741e-11
0.00116614 -0.000350457 -0.000349577 -1.85851e-05
0.0013954 -0.000418967 -0.000418472 -1.00685e-05
0.00163316 -0.000489977 -0.000489934 -2.08329e-11
0.00140385 -0.000421506 -0.000421006 -1.00685e-05
0.00139963 -0.000420237 -0.000419739 -1.00685e-05
0.00116262 -0.000349398 -0.000348523 -1.8585e-05
0.00115558 -0.000347279 -0.000346414 -1.85849e-05
0.00161836 -0.000485538 -0.000485495 -2.0706e-11
0.00162823 -0.000488498 -0.000488455 -2.07959e-11
0.0011591 -0.000348338 -0.000347468 -1.8585e-05
0.00138695 -0.000416427 -0.000415939 -1.00684e-05
0.00162329 -0.000487018 -0.000486975 -2.07573e-11
0.0013954 -0.000418967 -0.000418472 -1.00685e-05
0.00139118 -0.000417697 -0.000417205 -1.00684e-05
0.00115558 -0.000347279 -0.000346414 -1.85849e-05
0.00114854 -0.00034516 -0.000344305 -1.85848e-05
0.0016085 -0.000482578 -0.000482536 -2.06098e-11
0.00161836 -0.000485538 -0.000485495 -2.0706e-11
0.00115206 -0.000346219 -0.00034536 -1.85848e-05
0.0013785 -0.000413888 -0.000413405 -1.00683e-05
0.00161343 -0.000484058 -0.000484016 -2.06601e-11
0.00138695 -0.000416427 -0.000415939 -1.00684e-05
0.00138273 -0.000415157 -0.000414672 -1.00683e-05
0.00114854 -0.00034516 -0.000344305 -1.85848e-05
0.0011415 -0.000343041 -0.000342197 -1.85846e-05
0.00159863 -0.000479619 -0.000479577 -2.05033e-11
0.0016085 -0.000482578 -0.000482536 -2.06035e-11
0.00114502 -0.0003441 -0.000343251 -1.85847e-05
0.00137005 -0.000411348 -0.000410871 -1.00682e-05
0.00160356 -0.000481099 -0.000481057 -2.05576e-11
0.0013785 -0.000413888 -0.000413405 -1.00683e-05
0.00137427 -0.000412618 -0.000412138 -1.00682e-05
0.0011415 -0.000343041 -0.000342197 -1.85846e-05
0.00113446 -0.000340922 -0.000340088 -1.85845e-05
0.00158877 -0.000476659 -0.000476618 -2.0406e-11
0.00159863 -0.000479619 -0.000479577 -2.05033e-11
0.00113798 -0.000341981 -0.000341143 -1.85845e-05
0.0013616 -0.000408809 -0.000408338 -1.00681e-05
0.0015937 -0.000478139 -0.000478097 -2.04623e-11
0.00137005 -0.000411348 -0.000410871 -1.00682e-05
0.00136582 -0.000410078 -0.000409604 -1.00681e-05
0.00113446 -0.000340922 -0.000340088 -1.85845e-05
0.00112742 -0.000338803 -0.00033798 -1.85843e-05
0.0015789 -0.0004737 -0.000473659 -2.02833e-11
0.00158877 -0.000476659 -0.000476618 -2.04053e-11
0.00113094 -0.000339862 -0.000339034 -1.85844e-05
0.00135314 -0.000406269 -0.000405804 -1.0068e-05
0.00158384 -0.00047518 -0.000475138 -2.03456e-11
0.0013616 -0.000408809 -0.000408338 -1.00681e-05
0.00135737 -0.000407539 -0.000407071 -1.00681e-05
0.00112742 -0.000338803 -0.00033798 -1.85843e-05
0.00112038 -0.000336684 -0.000335871 -1.85842e-05
0.00156904 -0.00047074 -0.000470699 -2.01715e-11
0.0015789 -0.0004737 -0.000473659 -2.02833e-11
0.0011239 -0.000337743 -0.000336925 -1.85843e-05
0.00134469 -0.00040373 -0.00040327 -1.00679e-05
0.00157397 -0.00047222 -0.000472179 -2.02262e-11
0.00135314 -0.000406269 -0.000405804 -1.0068e-05
0.00134892 -0.000405 -0.000404537 -1.0068e-05
0.00112038 -0.000336684 -0.000335871 -1.85842e-05
0.00111334 -0.000334565 -0.000333762 -1.8584e-05
0.00155917 -0.000467781 -0.00046774 -2.00543e-11
0.00156904 -0.00047074 -0.000470699 -2.01682e-11
0.00111686 -0.000335625 -0.000334817 -1.85841e-05
0.00133624 -0.00040119 -0.000400736 -1.00678e-05
0.00156411 -0.00046926 -0.00046922 -2.01135e-11
0.00134469 -0.00040373 -0.00040327 -1.00679e-05
0.00134047 -0.00040246 -0.000402003 -1.00679e-05
0.00111334 -0.000334565 -0.000333762 -1.8584e-05
0.0011063 -0.000332446 -0.000331653 -1.85839e-05
0.00154931 -0.000464821 -0.000464781 -1.99036e-11
0.00155917 -0.000467781 -0.00046774 -2.00543e-11
0.00110982 -0.000333506 -0.000332708 -1.8584e-05
0.00132779 -0.000398651 -0.000398203 -1.00678e-05
0.00155424 -0.000466301 -0.000466261 -1.99871e-11
0.00133624 -0.00040119 -0.000400736 -1.00678e-05
0.00133202 -0.000399921 -0.000399469 -1.00678e-05
0.0011063 -0.000332446 -0.000331653 -1.85839e-05
0.00109927 -0.000330328 -0.000329545 -1.85837e-05
0.00153945 -0.000461861 -0.000461822 -1.98045e-11
0.00154931 -0.000464821 -0.000464781 -1.99036e-11
0.00110278 -0.000331387 -0.000330599 -1.85838e-05
0.00131934 -0.000396112 -0.000395669 -1.00677e-05
0.00154438 -0.000463341 -0.000463302 -1.98567e-11
0.00132779 -0.000398651 -0.000398203 -1.00678e-05
0.00132356 -0.000397381 -0.000396936 -1.00677e-05
0.00109927 -0.000330328 -0.000329545 -1.85837e-05
0.00109223 -0.000328209 -0.000327436 -1.85836e-05
0.00152958 -0.000458902 -0.000458863 -1.96641e-11
0.00153945 -0.000461861 -0.000461822 -1.98053e-11
0.00109575 -0.000329268 -0.00032849 -1.85837e-05
0.00131089 -0.000393572 -0.000393135 -1.00676e-05
0.00153451 -0.000460382 -0.000460342 -1.97549e-11
0.00131934 -0.000396112 -0.000395669 -1.00677e-05
0.00131511 -0.000394842 -0.000394402 -1.00676e-05
0.00109223 -0.000328209 -0.000327436 -1.85836e-05
0.00108519 -0.00032609 -0.000325327 -1.85834e-05
0.00151972 -0.000455942 -0.000455904 -1.95374e-11
0.00152958 -0.000458902 -0.000458863 -1.96641e-11
0.00108871 -0.000327149 -0.000326381 -1.85835e-05
0.00130244 -0.000391033 -0.000390601 -1.00675e-05
0.00152465 -0.000457422 -0.000457383 -1.96143e-11
0.00131089 -0.000393572 -0.000393135 -1.00676e-05
0.00130666 -0.000392302 -0.000391868 -1.00675e-05
0.00108519 -0.00032609 -0.000325327 -1.85834e-05
0.00107815 -0.000323971 -0.000323218 -1.85833e-05
0.00150985 -0.000452983 -0.000452944 -1.94236e-11
0.00151972 -0.000455942 -0.000455904 -1.95508e-11
0.00108167 -0.000325031 -0.000324273 -1.85834e-05
0.00129398 -0.000388493 -0.000388067 -1.00674e-05
0.00151479 -0.000454463 -0.000454424 -1.94772e-11
0.00130244 -0.000391033 -0.000390601 -1.00675e-05
0.00129821 -0.000389763 -0.000389334 -1.00674e-05
0.00107815 -0.000323971 -0.000323218 -1.85833e-05
0.00107111 -0.000321853 -0.000321109 -1.85831e-05
0.00149999 -0.000450023 -0.000449985 -1.93e-11
0.00150985 -0.000452983 -0.000452944 -1.94236e-11
0.00107463 -0.000322912 -0.000322164 -1.85832e-05
0.00128553 -0.000385954 -0.000385533 -1.00673e-05
0.00150492 -0.000451503 -0.000451465 -1.93571e-11
0.00129398 -0.000388493 -0.000388067 -1.00674e-05
0.00128976 -0.000387224 -0.0003868 -1.00674e-05
0.00107111 -0.000321853 -0.000321109 -1.85831e-05
0.00106407 -0.000319734 -0.000319 -1.8583e-05
0.00149012 -0.000447064 -0.000447026 -1.91658e-11
0.00149999 -0.000450023 -0.000449985 -1.92929e-11
0.00106759 -0.000320793 -0.000320055 -1.85831e-05
0.00127708 -0.000383415 -0.000382999 -1.00672e-05
0.00149506 -0.000448543 -0.000448506 -1.9231e-11
0.00128553 -0.000385954 -0.000385533 -1.00673e-05
0.00128131 -0.000384684 -0.000384266 -1.00673e-05
0.00106407 -0.000319734 -0.000319 -1.8583e-05
0.00105703 -0.000317615 -0.000316891 -1.85828e-05
0.00148026 -0.000444104 -0.000444067 -1.90448e-11
0.00149012 -0.000447064 -0.000447026 -1.91658e-11
0.00106055 -0.000318675 -0.000317946 -1.85829e-05
0.00126863 -0.000380875 -0.000380466 -1.00671e-05
0.00148519 -0.000445584 -0.000445546 -1.90906e-11
0.00127708 -0.000383415 -0.000382999 -1.00672e-05
0.00127285 -0.000382145 -0.000381733 -1.00672e-05
0.00105703 -0.000317615 -0.000316891 -1.85828e-05
0.00104999 -0.000315497 -0.000314782 -1.85827e-05
0.0014704 -0.000441144 -0.000441108 -1.89215e-11
0.00148026 -0.000444104 -0.000444067 -1.90375e-11
0.00105351 -0.000316556 -0.000315837 -1.85828e-05
0.00126018 -0.000378336 -0.000377932 -1.0067e-05
0.00147533 -0.000442624 -0.000442587 -1.90005e-11
0.00126863 -0.000380875 -0.000380466 -1.00671e-05
0.0012644 -0.000379606 -0.000379199 -1.00671e-05
0.00104999 -0.000315497 -0.000314782 -1.85827e-05
0.00104295 -0.000313378 -0.000312673 -1.85825e-05
0.00146053 -0.000438185 -0.000438148 -1.87697e-11
0.0014704 -0.000441144 -0.000441108 -1.89215e-11
0.00104647 -0.000314437 -0.000313728 -1.85826e-05
0.00125173 -0.000375797 -0.000375398 -1.00669e-05
0.00146546 -0.000439665 -0.000439628 -1.88328e-11
0.00126018 -0.000378336 -0.000377932 -1.0067e-05
0.00125595 -0.000377067 -0.000376665 -1.0067e-05
0.00104295 -0.000313378 -0.000312673 -1.85825e-05
0.00103591 -0.00031126 -0.000310564 -1.85824e-05
0.00145067 -0.000435225 -0.000435189 -1.86891e-11
0.00146053 -0.000438185 -0.000438148 -1.87631e-11
0.00103943 -0.000312319 -0.000311619 -1.85825e-05
0.00124327 -0.000373258 -0.000372864 -1.00668e-05
0.0014556 -0.000436705 -0.000436669 -1.8731e-11
0.00125173 -0.000375797 -0.000375398 -1.00669e-05
0.0012475 -0.000374527 -0.000374131 -1.00669e-05
0.00103591 -0.00031126 -0.000310564 -1.85824e-05
0.00102887 -0.000309141 -0.000308455 -1.85822e-05
0.0014408 -0.000432266 -0.00043223 -1.85274e-11
0.00145067 -0.000435225 -0.000435189 -1.86891e-11
0.00103239 -0.0003102 -0.00030951 -1.85823e-05
0.00123482 -0.000370718 -0.00037033 -1.00668e-05
0.00144573 -0.000433745 -0.00043371 -1.86263e-11
0.00124327 -0.000373258 -0.000372864 -1.00668e-05
0.00123905 -0.000371988 -0.000371597 -1.00668e-05
0.00102887 -0.000309141 -0.000308455 -1.85822e-05
0.00102183 -0.000307023 -0.000306346 -1.85821e-05
0.00143094 -0.000429306 -0.000429271 -1.83905e-11
0.0014408 -0.000432266 -0.00043223 -1.85274e-11
0.00102535 -0.000308082 -0.000307401 -1.85822e-05
0.00122637 -0.000368179 -0.000367796 -1.00667e-05
0.00143587 -0.000430786 -0.00043075 -1.84574e-11
0.00123482 -0.000370718 -0.00037033 -1.00668e-05
0.0012306 -0.000369449 -0.000369063 -1.00667e-05
0.00102183 -0.000307023 -0.000306346 -1.85821e-05
0.00101479 -0.000304904 -0.000304237 -1.85819e-05
0.00142107 -0.000426347 -0.000426312 -1.82776e-11
0.00143094 -0.000429306 -0.000429271 -1.83905e-11
0.00101831 -0.000305963 -0.000305292 -1.8582e-05
0.00121792 -0.00036564 -0.000365262 -1.00666e-05
0.00142601 -0.000427826 -0.000427791 -1.83534e-11
0.00122637 -0.000368179 -0.000367796 -1.00667e-05
0.00122214 -0.00036691 -0.000366529 -1.00666e-05
0.00101479 -0.000304904 -0.000304237 -1.85819e-05
0.00100775 -0.000302786 -0.000302128 -1.85818e-05
0.00141121 -0.000423387 -0.000423352 -1.81502e-11
0.00142107 -0.000426347 -0.000426312 -1.82789e-11
0.00101127 -0.000303845 -0.000303182 -1.85818e-05
0.00120947 -0.000363101 -0.000362728 -1.00665e-05
0.00141614 -0.000424867 -0.000424832 -1.82178e-11
0.00121792 -0.00036564 -0.000365262 -1.00666e-05
0.00121369 -0.00036437 -0.000363995 -1.00665e-05
0.00100775 -0.000302786 -0.000302128 -1.85818e-05
0.00100071 -0.000300668 -0.000300019 -1.85816e-05
0.00140135 -0.000420427 -0.000420393 -1.80287e-11
0.00141121 -0.000423387 -0.000423352 -1.81502e-11
0.00100423 -0.000301727 -0.000301073 -1.85817e-05
0.00120101 -0.000360562 -0.000360194 -1.00664e-05
0.00140628 -0.000421907 -0.000421873 -1.80919e-11
0.00120947 -0.000363101 -0.000362728 -1.00665e-05
0.00120524 -0.000361831 -0.000361461 -1.00664e-05
0.00100071 -0.000300668 -0.000300019 -1.85816e-05
0.000993671 -0.000298549 -0.000297909 -1.85815e-05
0.00139148 -0.000417468 -0.000417434 -1.79027e-11
0.00140135 -0.000420427 -0.000420393 -1.80287e-11
0.000997191 -0.000299608 -0.000298964 -1.85815e-05
0.00119256 -0.000358022 -0.00035766 -1.00663e-05
0.00139641 -0.000418948 -0.000418914 -1.79607e-11
0.00120101 -0.000360562 -0.000360194 -1.00664e-05
0.00119679 -0.000359292 -0.000358927 -1.00663e-05
0.000993671 -0.000298549 -0.000297909 -1.85815e-05
0.000986631 -0.000296431 -0.0002958 -1.85813e-05
0.00138162 -0.000414508 -0.000414475 -1.77714e-11
0.00139148 -0.000417468 -0.000417434 -1.79223e-11
0.000990151 -0.00029749 -0.000296855 -1.85814e-05
0.00118411 -0.000355483 -0.000355126 -1.00662e-05
0.00138655 -0.000415988 -0.000415955 -1.78514e-11
0.00119256 -0.000358022 -0.00035766 -1.00663e-05
0.00118834 -0.000356753 -0.000356393 -1.00662e-05
0.000986631 -0.000296431 -0.0002958 -1.85813e-05
0.000979591 -0.000294313 -0.000293691 -1.85811e-05
0.00137175 -0.000411549 -0.000411516 -1.7638e-11
0.00138162 -0.000414508 -0.000414475 -1.77694e-11
0.000983111 -0.000295372 -0.000294745 -1.85812e-05
0.00117566 -0.000352944 -0.000352592 -1.00661e-05
0.00137668 -0.000413028 -0.000412995 -1.77063e-11
0.00118411 -0.000355483 -0.000355126 -1.00662e-05
0.00117988 -0.000354214 -0.000353859 -1.00661e-05
0.000979591 -0.000294313 -0.000293691 -1.85811e-05
0.000972551 -0.000292194 -0.000291582 -1.8581e-05
0.00136189 -0.000408589 -0.000408557 -1.75099e-11
0.00137175 -0.000411549 -0.000411516 -1.7638e-11
0.000976071 -0.000293253 -0.000292636 -1.85811e-05
0.00116721 -0.000350405 -0.000350058 -1.0066e-05
0.00136682 -0.000410069 -0.000410036 -1.76027e-11
0.00117566 -0.000352944 -0.000352592 -1.00661e-05
0.00117143 -0.000351675 -0.000351325 -1.0066e-05
0.000972551 -0.000292194 -0.000291582 -1.8581e-05
0.000965511 -0.000290076 -0.000289472 -1.85808e-05
0.00135202 -0.00040563 -0.000405597 -1.73932e-11
0.00136189 -0.000408589 -0.000408557 -1.75099e-11
0.000969031 -0.000291135 -0.000290527 -1.85809e-05
0.00115875 -0.000347866 -0.000347524 -1.00659e-05
0.00135696 -0.000407109 -0.000407077 -1.74636e-11
0.00116721 -0.000350405 -0.000350058 -1.0066e-05
0.00116298 -0.000349136 -0.000348791 -1.0066e-05
0.000965511 -0.000290076 -0.000289472 -1.85808e-05
0.000958471 -0.000287958 -0.000287363 -1.85807e-05
0.00134216 -0.00040267 -0.000402638 -1.72623e-11
0.00135202 -0.00040563 -0.000405597 -1.7394e-11
0.000961991 -0.000289017 -0.000288417 -1.85807e-05
0.0011503 -0.000345327 -0.000344989 -1.00658e-05
0.00134709 -0.00040415 -0.000404118 -1.73252e-11
0.00115875 -0.000347866 -0.000347524 -1.00659e-05
0.00115453 -0.000346596 -0.000346257 -1.00659e-05
0.000958471 -0.000287958 -0.000287363 -1.85807e-05
0.000951431 -0.00028584 -0.000285253 -1.85805e-05
0.0013323 -0.00039971 -0.000399679 -1.71584e-11
0.00134216 -0.00040267 -0.000402638 -1.72823e-11
0.000954951 -0.000286899 -0.000286308 -1.85806e-05
0.00114185 -0.000342788 -0.000342455 -1.00657e-05
0.00133723 -0.00040119 -0.000401159 -1.7213e-11
0.0011503 -0.000345327 -0.000344989 -1.00658e-05
0.00114608 -0.000344057 -0.000343722 -1.00658e-05
0.000951431 -0.00028584 -0.000285253 -1.85805e-05
0.000944391 -0.000283722 -0.000283144 -1.85803e-05
0.00132243 -0.000396751 -0.00039672 -1.70167e-11
0.0013323 -0.00039971 -0.000399679 -1.71584e-11
0.000947911 -0.000284781 -0.000284199 -1.85804e-05
0.0011334 -0.000340249 -0.000339921 -1.00656e-05
0.00132736 -0.000398231 -0.0003982 -1.70818e-11
0.00114185 -0.000342788 -0.000342455 -1.00657e-05
0.00113762 -0.000341518 -0.000341188 -1.00657e-05
0.000944391 -0.000283722 -0.000283144 -1.85803e-05
0.000937351 -0.000281604 -0.000281034 -1.85802e-05
0.00131257 -0.000393791 -0.000393761 -1.6899e-11
0.00132243 -0.000396751 -0.00039672 -1.70167e-11
0.000940871 -0.000282663 -0.000282089 -1.85803e-05
0.00112495 -0.00033771 -0.000337387 -1.00655e-05
0.0013175 -0.000395271 -0.00039524 -1.69515e-11
0.0011334 -0.000340249 -0.000339921 -1.00656e-05
0.00112917 -0.000338979 -0.000338654 -1.00656e-05
0.000937351 -0.000281604 -0.000281034 -1.85802e-05
0.00093031 -0.000279485 -0.000278925 -1.858e-05
0.0013027 -0.000390832 -0.000390802 -1.67699e-11
0.00131257 -0.000393791 -0.000393761 -1.68919e-11
0.000933831 -0.000280545 -0.00027998 -1.85801e-05
0.00111649 -0.000335171 -0.000334853 -1.00654e-05
0.00130763 -0.000392312 -0.000392281 -1.68337e-11
0.00112495 -0.00033771 -0.000337387 -1.00655e-05
0.00112072 -0.00033644 -0.00033612 -1.00655e-05
0.00093031 -0.000279485 -0.000278925 -1.858e-05
0.00092327 -0.000277367 -0.000276815 -1.85799e-05
0.00129284 -0.000387872 -0.000387843 -1.66351e-11
0.0013027 -0.000390832 -0.000390802 -1.67646e-11
0.00092679 -0.000278426 -0.00027787 -1.85799e-05
0.00110804 -0.000332632 -0.000332319 -1.00653e-05
0.00129777 -0.000389352 -0.000389322 -1.67015e-11
0.00111649 -0.000335171 -0.000334853 -1.00654e-05
0.00111227 -0.000333901 -0.000333586 -1.00654e-05
0.00092327 -0.000277367 -0.000276815 -1.85799e-05
0.00091623 -0.000275249 -0.000274706 -1.85797e-05
0.00128297 -0.000384913 -0.000384883 -1.65177e-11
0.00129284 -0.000387872 -0.000387843 -1.66351e-11
0.00091975 -0.000276308 -0.000275761 -1.85798e-05
0.00109959 -0.000330093 -0.000329785 -1.00652e-05
0.00128791 -0.000386392 -0.000386363 -1.65717e-11
0.00110804 -0.000332632 -0.000332319 -1.00653e-05
0.00110382 -0.000331362 -0.000331052 -1.00653e-05
0.00091623 -0.000275249 -0.000274706 -1.85797e-05
0.00090919 -0.000273132 -0.000272596 -1.85795e-05
0.00127311 -0.000381953 -0.000381924 -1.63705e-11
0.00128297 -0.000384913 -0.000384883 -1.65177e-11
0.00091271 -0.00027419 -0.000273651 -1.85796e-05
0.00109114 -0.000327554 -0.00032725 -1.00651e-05
0.00127804 -0.000383433 -0.000383404 -1.64299e-11
0.00109959 -0.000330093 -0.000329785 -1.00652e-05
0.00109536 -0.000328823 -0.000328517 -1.00652e-05
0.00090919 -0.000273132 -0.000272596 -1.85795e-05
0.000902149 -0.000271014 -0.000270487 -1.85794e-05
0.00126325 -0.000378994 -0.000378965 -1.62544e-11
0.00127311 -0.000381953 -0.000381924 -1.63692e-11
0.000905669 -0.000272073 -0.000271541 -1.85795e-05
0.00108269 -0.000325015 -0.000324716 -1.0065e-05
0.00126818 -0.000380473 -0.000380445 -1.63276e-11
0.00109114 -0.000327554 -0.00032725 -1.00651e-05
0.00108691 -0.000326284 -0.000325983 -1.00651e-05
0.000902149 -0.000271014 -0.000270487 -1.85794e-05
0.000895109 -0.000268896 -0.000268377 -1.85792e-05
0.00125338 -0.000376034 -0.000376006 -1.61318e-11
0.00126325 -0.000378994 -0.000378965 -1.62677e-11
0.000898629 -0.000269955 -0.000269432 -1.85793e-05
0.00107423 -0.000322476 -0.000322182 -1.00649e-05
0.00125831 -0.000377514 -0.000377486 -1.62012e-11
0.00108269 -0.000325015 -0.000324716 -1.0065e-05
0.00107846 -0.000323746 -0.000323449 -1.0065e-05
0.000895109 -0.000268896 -0.000268377 -1.85792e-05
0.000888068 -0.000266778 -0.000266267 -1.8579e-05
0.00124352 -0.000373074 -0.000373047 -1.60057e-11
0.00125338 -0.000376034 -0.000376006 -1.61318e-11
0.000891589 -0.000267837 -0.000267322 -1.85791e-05
0.00106578 -0.000319937 -0.000319648 -1.00648e-05
0.00124845 -0.000374554 -0.000374526 -1.6065e-11
0.00107423 -0.000322476 -0.000322182 -1.00649e-05
0.00107001 -0.000321207 -0.000320915 -1.00649e-05
0.000888068 -0.000266778 -0.000266267 -1.8579e-05
0.000881028 -0.00026466 -0.000264158 -1.85789e-05
0.00123365 -0.000370115 -0.000370088 -1.58695e-11
0.00124352 -0.000373074 -0.000373047 -1.60057e-11
0.000884548 -0.000265719 -0.000265213 -1.8579e-05
0.00105733 -0.000317398 -0.000317113 -1.00647e-05
0.00123858 -0.000371595 -0.000371567 -1.59486e-11
0.00106578 -0.000319937 -0.000319648 -1.00648e-05
0.00106156 -0.000318668 -0.00031838 -1.00648e-05
0.000881028 -0.00026466 -0.000264158 -1.85789e-05
0.000873987 -0.000262542 -0.000262048 -1.85787e-05
0.00122379 -0.000367155 -0.000367129 -1.57401e-11
0.00123365 -0.000370115 -0.000370088 -1.58895e-11
0.000877508 -0.000263601 -0.000263103 -1.85788e-05
0.00104888 -0.00031486 -0.000314579 -1.00646e-05
0.00122872 -0.000368635 -0.000368608 -1.58327e-11
0.00105733 -0.000317398 -0.000317113 -1.00647e-05
0.0010531 -0.000316129 -0.000315846 -1.00647e-05
0.000873987 -0.000262542 -0.000262048 -1.85787e-05
0.000866947 -0.000260424 -0.000259938 -1.85786e-05
0.00121392 -0.000364196 -0.000364169 -1.56258e-11
0.00122379 -0.000367155 -0.000367129 -1.57683e-11
0.000870467 -0.000261483 -0.000260993 -1.85786e-05
0.00104043 -0.000312321 -0.000312045 -1.00645e-05
0.00121886 -0.000365676 -0.000365649 -1.5686e-11
0.00104888 -0.00031486 -0.000314579 -1.00646e-05
0.00104465 -0.00031359 -0.000313312 -1.00646e-05
0.000866947 -0.000260424 -0.000259938 -1.85786e-05
0.000859906 -0.000258307 -0.000257828 -1.85784e-05
0.00120406 -0.000361236 -0.00036121 -1.55161e-11
0.00121392 -0.000364196 -0.000364169 -1.56258e-11
0.000863426 -0.000259366 -0.000258883 -1.85785e-05
0.00103197 -0.000309782 -0.00030951 -1.00644e-05
0.00120899 -0.000362716 -0.00036269 -1.55755e-11
0.00104043 -0.000312321 -0.000312045 -1.00645e-05
0.0010362 -0.000311051 -0.000310778 -1.00645e-05
0.000859906 -0.000258307 -0.000257828 -1.85784e-05
0.000852866 -0.000256189 -0.000255719 -1.85782e-05
0.0011942 -0.000358277 -0.000358251 -1.53721e-11
0.00120406 -0.000361236 -0.00036121 -1.55161e-11
0.000856386 -0.000257248 -0.000256773 -1.85783e-05
0.00102352 -0.000307243 -0.000306976 -1.00643e-05
0.00119913 -0.000359756 -0.000359731 -1.54573e-11
0.00103197 -0.000309782 -0.00030951 -1.00644e-05
0.00102775 -0.000308512 -0.000308243 -1.00644e-05
0.000852866 -0.000256189 -0.000255719 -1.85782e-05
0.000845825 -0.000254071 -0.000253609 -1.85781e-05
0.00118433 -0.000355317 -0.000355292 -1.5234e-11
0.0011942 -0.000358277 -0.000358251 -1.53738e-11
0.000849345 -0.00025513 -0.000254664 -1.85781e-05
0.00101507 -0.000304704 -0.000304442 -1.00643e-05
0.00118926 -0.000356797 -0.000356772 -1.5293e-11
0.00102352 -0.000307243 -0.000306976 -1.00643e-05
0.00101929 -0.000305974 -0.000305709 -1.00643e-05
0.000845825 -0.000254071 -0.000253609 -1.85781e-05
0.000838784 -0.000251954 -0.000251499 -1.85779e-05
0.00117447 -0.000352358 -0.000352333 -1.51054e-11
0.00118433 -0.000355317 -0.000355292 -1.52407e-11
0.000842305 -0.000253012 -0.000252554 -1.8578e-05
0.00100662 -0.000302166 -0.000301907 -1.00642e-05
0.0011794 -0.000353837 -0.000353812 -1.51418e-11
0.00101507 -0.000304704 -0.000304442 -1.00643e-05
0.00101084 -0.000303435 -0.000303175 -1.00642e-05
0.000838784 -0.000251954 -0.000251499 -1.85779e-05
0.000831743 -0.000249836 -0.000249389 -1.85777e-05
0.0011646 -0.000349398 -0.000349374 -1.50027e-11
0.00117447 -0.000352358 -0.000352333 -1.51054e-11
0.000835264 -0.000250895 -0.000250444 -1.85778e-05
0.000998164 -0.000299627 -0.000299373 -1.00641e-05
0.00116954 -0.000350878 -0.000350853 -1.50609e-11
0.00100662 -0.000302166 -0.000301907 -1.00642e-05
0.00100239 -0.000300896 -0.00030064 -1.00641e-05
0.000831743 -0.000249836 -0.000249389 -1.85777e-05
0.000824703 -0.000247718 -0.000247279 -1.85776e-05
0.00115474 -0.000346439 -0.000346415 -1.48748e-11
0.0011646 -0.000349398 -0.000349374 -1.50027e-11
0.000828223 -0.000248777 -0.000248334 -1.85777e-05
0.000989712 -0.000297088 -0.000296839 -1.0064e-05
0.00115967 -0.000347918 -0.000347894 -1.49497e-11
0.000998164 -0.000299627 -0.000299373 -1.00641e-05
0.000993938 -0.000298357 -0.000298106 -1.0064e-05
0.000824703 -0.000247718 -0.000247279 -1.85776e-05
0.000817662 -0.000245601 -0.000245169 -1.85774e-05
0.00114488 -0.000343479 -0.000343456 -1.47409e-11
0.00115474 -0.000346439 -0.000346415 -1.48681e-11
0.000821182 -0.00024666 -0.000246224 -1.85775e-05
0.000981259 -0.000294549 -0.000294304 -1.00639e-05
0.00114981 -0.000344959 -0.000344935 -1.48206e-11
0.000989712 -0.000297088 -0.000296839 -1.0064e-05
0.000985485 -0.000295819 -0.000295571 -1.00639e-05
0.000817662 -0.000245601 -0.000245169 -1.85774e-05
0.000810621 -0.000243483 -0.000243059 -1.85772e-05
0.00113501 -0.00034052 -0.000340496 -1.46097e-11
0.00114488 -0.000343479 -0.000343456 -1.47406e-11
0.000814141 -0.000244542 -0.000244114 -1.85773e-05
0.000972807 -0.000292011 -0.00029177 -1.00638e-05
0.00113994 -0.000341999 -0.000341976 -1.46825e-11
0.000981259 -0.000294549 -0.000294304 -1.00639e-05
0.000977033 -0.00029328 -0.000293037 -1.00638e-05
0.000810621 -0.000243483 -0.000243059 -1.85772e-05
0.00080358 -0.000241366 -0.000240949 -1.85771e-05
0.00112515 -0.00033756 -0.000337537 -1.44932e-11
0.00113501 -0.00034052 -0.000340496 -1.46097e-11
0.000807101 -0.000242425 -0.000242004 -1.85772e-05
0.000964355 -0.000289472 -0.000289235 -1.00637e-05
0.00113008 -0.00033904 -0.000339017 -1.45578e-11
0.000972807 -0.000292011 -0.00029177 -1.00638e-05
0.000968581 -0.000290741 -0.000290503 -1.00637e-05
0.00080358 -0.000241366 -0.000240949 -1.85771e-05
0.000796539 -0.000239249 -0.000238839 -1.85769e-05
0.00111528 -0.0003346 -0.000334578 -1.43533e-11
0.00112515 -0.00033756 -0.000337537 -1.44932e-11
0.00080006 -0.000240307 -0.000239894 -1.8577e-05
0.000955902 -0.000286933 -0.000286701 -1.00636e-05
0.00112022 -0.00033608 -0.000336058 -1.44283e-11
0.000964355 -0.000289472 -0.000289235 -1.00637e-05
0.000960128 -0.000288203 -0.000287968 -1.00636e-05
0.000796539 -0.000239249 -0.000238839 -1.85769e-05
0.000789498 -0.000237131 -0.000236729 -1.85768e-05
0.00110542 -0.000331641 -0.000331619 -1.42495e-11
0.00111528 -0.0003346 -0.000334578 -1.43667e-11
0.000793019 -0.00023819 -0.000237784 -1.85768e-05
0.00094745 -0.000284395 -0.000284166 -1.00635e-05
0.00111035 -0.000333121 -0.000333099 -1.4306e-11
0.000955902 -0.000286933 -0.000286701 -1.00636e-05
0.000951676 -0.000285664 -0.000285434 -1.00635e-05
0.000789498 -0.000237131 -0.000236729 -1.85768e-05
0.000782457 -0.000235014 -0.000234619 -1.85766e-05
0.00109555 -0.000328681 -0.00032866 -1.41237e-11
0.00110542 -0.000331641 -0.000331619 -1.42242e-11
0.000785978 -0.000236072 -0.000235674 -1.85767e-05
0.000938998 -0.000281856 -0.000281632 -1.00634e-05
0.00110049 -0.000330161 -0.00033014 -1.41673e-11
0.00094745 -0.000284395 -0.000284166 -1.00635e-05
0.000943224 -0.000283126 -0.000282899 -1.00634e-05
0.000782457 -0.000235014 -0.000234619 -1.85766e-05
0.000775416 -0.000232896 -0.000232509 -1.85764e-05
0.00108569 -0.000325722 -0.000325701 -1.39971e-11
0.00109555 -0.000328681 -0.00032866 -1.41237e-11
0.000778937 -0.000233955 -0.000233564 -1.85765e-05
0.000930545 -0.000279318 -0.000279098 -1.00633e-05
0.00109062 -0.000327202 -0.000327181 -1.40382e-11
0.000938998 -0.000281856 -0.000281632 -1.00634e-05
0.000934771 -0.000280587 -0.000280365 -1.00633e-05
0.000775416 -0.000232896 -0.000232509 -1.85764e-05
0.000768375 -0.000230779 -0.000230398 -1.85763e-05
0.00107583 -0.000322762 -0.000322742 -1.38794e-11
0.00108569 -0.000325722 -0.000325701 -1.39971e-11
0.000771896 -0.000231838 -0.000231453 -1.85763e-05
0.000922093 -0.000276779 -0.000276563 -1.00632e-05
0.00108076 -0.000324242 -0.000324221 -1.39258e-11
0.000930545 -0.000279318 -0.000279098 -1.00633e-05
0.000926319 -0.000278048 -0.00027783 -1.00632e-05
0.000768375 -0.000230779 -0.000230398 -1.85763e-05
0.000761334 -0.000228662 -0.000228288 -1.85761e-05
0.00106596 -0.000319803 -0.000319783 -1.37434e-11
0.00107583 -0.000322762 -0.000322742 -1.38794e-11
0.000764855 -0.00022972 -0.000229343 -1.85762e-05
0.00091364 -0.000274241 -0.000274028 -1.00631e-05
0.00107089 -0.000321283 -0.000321262 -1.37961e-11
0.000922093 -0.000276779 -0.000276563 -1.00632e-05
0.000917867 -0.00027551 -0.000275296 -1.00631e-05
0.000761334 -0.000228662 -0.000228288 -1.85761e-05
0.000754293 -0.000226545 -0.000226178 -1.85759e-05
0.0010561 -0.000316843 -0.000316824 -1.35978e-11
0.00106596 -0.000319803 -0.000319783 -1.37448e-11
0.000757814 -0.000227603 -0.000227233 -1.8576e-05
0.000905188 -0.000271702 -0.000271494 -1.0063e-05
0.00106103 -0.000318323 -0.000318303 -1.36762e-11
0.00091364 -0.000274241 -0.000274028 -1.00631e-05
0.000909414 -0.000272971 -0.000272761 -1.0063e-05
0.000754293 -0.000226545 -0.000226178 -1.85759e-05
0.000747252 -0.000224427 -0.000224068 -1.85758e-05
0.00104623 -0.000313884 -0.000313865 -1.3487e-11
0.0010561 -0.000316843 -0.000316824 -1.35978e-11
0.000750772 -0.000225486 -0.000225123 -1.85759e-05
0.000896735 -0.000269163 -0.000268959 -1.00629e-05
0.00105117 -0.000315364 -0.000315344 -1.35473e-11
0.000905188 -0.000271702 -0.000271494 -1.0063e-05
0.000900962 -0.000270433 -0.000270227 -1.00629e-05
0.000747252 -0.000224427 -0.000224068 -1.85758e-05
0.000740211 -0.00022231 -0.000221957 -1.85756e-05
0.00103637 -0.000310924 -0.000310906 -1.33656e-11
0.00104623 -0.000313884 -0.000313865 -1.3487e-11
0.000743731 -0.000223369 -0.000223013 -1.85757e-05
0.000888283 -0.000266625 -0.000266425 -1.00628e-05
0.0010413 -0.000312404 -0.000312385 -1.34253e-11
0.000896735 -0.000269163 -0.000268959 -1.00629e-05
0.000892509 -0.000267894 -0.000267692 -1.00628e-05
0.000740211 -0.00022231 -0.000221957 -1.85756e-05
0.000733169 -0.000220193 -0.000219847 -1.85754e-05
0.00102651 -0.000307965 -0.000307946 -1.32483e-11
0.00103637 -0.000310924 -0.000310906 -1.33394e-11
0.00073669 -0.000221252 -0.000220902 -1.85755e-05
0.000879831 -0.000264087 -0.00026389 -1.00627e-05
0.00103144 -0.000309445 -0.000309426 -1.32865e-11
0.000888283 -0.000266625 -0.000266425 -1.00628e-05
0.000884057 -0.000265356 -0.000265158 -1.00627e-05
0.000733169 -0.000220193 -0.000219847 -1.85754e-05
0.000726128 -0.000218076 -0.000217737 -1.85753e-05
0.00101664 -0.000305005 -0.000304987 -1.31178e-11
0.00102651 -0.000307965 -0.000307946 -1.32629e-11
0.000729649 -0.000219134 -0.000218792 -1.85754e-05
0.000871378 -0.000261548 -0.000261356 -1.00626e-05
0.00102157 -0.000306485 -0.000306467 -1.31708e-11
0.000879831 -0.000264087 -0.00026389 -1.00627e-05
0.000875604 -0.000262817 -0.000262623 -1.00626e-05
0.000726128 -0.000218076 -0.000217737 -1.85753e-05
0.000719087 -0.000215959 -0.000215626 -1.85751e-05
0.00100678 -0.000302046 -0.000302028 -1.29979e-11
0.00101664 -0.000305005 -0.000304987 -1.31178e-11
0.000722607 -0.000217017 -0.000216681 -1.85752e-05
0.000862926 -0.00025901 -0.000258821 -1.00625e-05
0.00101171 -0.000303526 -0.000303508 -1.30688e-11
0.000871378 -0.000261548 -0.000261356 -1.00626e-05
0.000867152 -0.000260279 -0.000260088 -1.00625e-05
0.000719087 -0.000215959 -0.000215626 -1.85751e-05
0.000712045 -0.000213842 -0.000213516 -1.8575e-05
0.000996915 -0.000299086 -0.000299069 -1.28691e-11
0.00100678 -0.000302046 -0.000302028 -1.29979e-11
0.000715566 -0.0002149 -0.000214571 -1.8575e-05
0.000854473 -0.000256471 -0.000256286 -1.00624e-05
0.00100185 -0.000300566 -0.000300549 -1.29429e-11
0.000862926 -0.00025901 -0.000258821 -1.00625e-05
0.000858699 -0.00025774 -0.000257554 -1.00624e-05
0.000712045 -0.000213842 -0.000213516 -1.8575e-05
0.000705004 -0.000211725 -0.000211405 -1.85748e-05
0.000987051 -0.000296127 -0.00029611 -1.2735e-11
0.000996915 -0.000299086 -0.000299069 -1.2856e-11
0.000708525 -0.000212783 -0.000212461 -1.85749e-05
0.00084602 -0.000253933 -0.000253752 -1.00623e-05
0.000991983 -0.000297607 -0.00029759 -1.2767e-11
0.000854473 -0.000256471 -0.000256286 -1.00624e-05
0.000850247 -0.000255202 -0.000255019 -1.00623e-05
0.000705004 -0.000211725 -0.000211405 -1.85748e-05
0.000697963 -0.000209608 -0.000209295 -1.85746e-05
0.000977187 -0.000293168 -0.000293151 -1.25954e-11
0.000987051 -0.000296127 -0.00029611 -1.27351e-11
0.000701483 -0.000210666 -0.00021035 -1.85747e-05
0.000837568 -0.000251394 -0.000251217 -1.00622e-05
0.000982119 -0.000294647 -0.000294631 -1.26594e-11
0.00084602 -0.000253933 -0.000253752 -1.00623e-05
0.000841794 -0.000252664 -0.000252484 -1.00622e-05
0.000697963 -0.000209608 -0.000209295 -1.85746e-05
0.000690921 -0.000207491 -0.000207184 -1.85745e-05
0.000967323 -0.000290208 -0.000290192 -1.24766e-11
0.000977187 -0.000293168 -0.000293151 -1.25954e-11
0.000694442 -0.000208549 -0.00020824 -1.85745e-05
0.000829115 -0.000248856 -0.000248683 -1.00621e-05
0.000972255 -0.000291688 -0.000291672 -1.254e-11
0.000837568 -0.000251394 -0.000251217 -1.00622e-05
0.000833342 -0.000250125 -0.00024995 -1.00621e-05
0.000690921 -0.000207491 -0.000207184 -1.85745e-05
0.00068388 -0.000205374 -0.000205074 -1.85743e-05
0.000957459 -0.000287249 -0.000287233 -1.23422e-11
0.000967323 -0.000290208 -0.000290192 -1.24766e-11
0.0006874 -0.000206432 -0.000206129 -1.85744e-05
0.000820663 -0.000246318 -0.000246148 -1.0062e-05
0.000962391 -0.000288728 -0.000288713 -1.24018e-11
0.000829115 -0.000248856 -0.000248683 -1.00621e-05
0.000824889 -0.000247587 -0.000247415 -1.0062e-05
0.00068388 -0.000205374 -0.000205074 -1.85743e-05
0.000676838 -0.000203257 -0.000202963 -1.85741e-05
0.000947595 -0.000284289 -0.000284274 -1.22386e-11
0.000957459 -0.000287249 -0.000287233 -1.23547e-11
0.000680359 -0.000204315 -0.000204019 -1.85742e-05
0.00081221 -0.000243779 -0.000243613 -1.00619e-05
0.000952527 -0.000285769 -0.000285753 -1.23112e-11
0.000820663 -0.000246318 -0.000246148 -1.0062e-05
0.000816436 -0.000245049 -0.00024488 -1.00619e-05
0.000676838 -0.000203257 -0.000202963 -1.85741e-05
0.000669797 -0.00020114 -0.000200853 -1.8574e-05
0.000937731 -0.00028133 -0.000281315 -1.21389e-11
0.000947595 -0.000284289 -0.000284274 -1.22382e-11
0.000673317 -0.000202199 -0.000201908 -1.85741e-05
0.000803757 -0.000241241 -0.000241078 -1.00618e-05
0.000942663 -0.000282809 -0.000282794 -1.2177e-11
0.00081221 -0.000243779 -0.000243613 -1.00619e-05
0.000807984 -0.00024251 -0.000242346 -1.00619e-05
0.000669797 -0.00020114 -0.000200853 -1.8574e-05
0.000662755 -0.000199023 -0.000198742 -1.85738e-05
0.000927867 -0.00027837 -0.000278356 -1.19633e-11
0.000937731 -0.00028133 -0.000281315 -1.21389e-11
0.000666276 -0.000200082 -0.000199797 -1.85739e-05
0.000795305 -0.000238703 -0.000238544 -1.00617e-05
0.000932799 -0.00027985 -0.000279835 -1.20643e-11
0.000803757 -0.000241241 -0.000241078 -1.00618e-05
0.000799531 -0.000239972 -0.000239811 -1.00618e-05
0.000662755 -0.000199023 -0.000198742 -1.85738e-05
0.000655713 -0.000196906 -0.000196631 -1.85737e-05
0.000918003 -0.000275411 -0.000275397 -1.18684e-11
0.000927867 -0.00027837 -0.000278356 -1.19633e-11
0.000659234 -0.000197965 -0.000197687 -1.85737e-05
0.000786852 -0.000236165 -0.000236009 -1.00616e-05
0.000922935 -0.00027689 -0.000276876 -1.19341e-11
0.000795305 -0.000238703 -0.000238544 -1.00617e-05
0.000791079 -0.000237434 -0.000237276 -1.00617e-05
0.000655713 -0.000196906 -0.000196631 -1.85737e-05
0.000648672 -0.00019479 -0.000194521 -1.85735e-05
0.000908139 -0.000272451 -0.000272438 -1.17234e-11
0.000918003 -0.000275411 -0.000275397 -1.18682e-11
0.000652192 -0.000195848 -0.000195576 -1.85736e-05
0.000778399 -0.000233626 -0.000233474 -1.00615e-05
0.000913071 -0.000273931 -0.000273917 -1.18096e-11
0.000786852 -0.000236165 -0.000236009 -1.00616e-05
0.000782626 -0.000234896 -0.000234742 -1.00616e-05
0.000648672 -0.00019479 -0.000194521 -1.85735e-05
0.00064163 -0.000192673 -0.00019241 -1.85733e-05
0.000898275 -0.000269492 -0.000269479 -1.16037e-11
0.000908139 -0.000272451 -0.000272438 -1.17363e-11
0.000645151 -0.000193731 -0.000193465 -1.85734e-05
0.000769947 -0.000231088 -0.000230939 -1.00614e-05
0.000903207 -0.000270971 -0.000270958 -1.16521e-11
0.000778399 -0.000233626 -0.000233474 -1.00615e-05
0.000774173 -0.000232357 -0.000232207 -1.00615e-05
0.00064163 -0.000192673 -0.00019241 -1.85733e-05
0.000634588 -0.000190556 -0.000190299 -1.85732e-05
0.000888411 -0.000266532 -0.00026652 -1.14508e-11
0.000898275 -0.000269492 -0.000269479 -1.16037e-11
0.000638109 -0.000191615 -0.000191355 -1.85733e-05
0.000761494 -0.00022855 -0.000228405 -1.00613e-05
0.000893343 -0.000268012 -0.000267999 -1.15436e-11
0.000769947 -0.000231088 -0.000230939 -1.00614e-05
0.00076572 -0.000229819 -0.000229672 -1.00614e-05
0.000634588 -0.000190556 -0.000190299 -1.85732e-05
0.000627546 -0.00018844 -0.000188189 -1.8573e-05
0.000878547 -0.000263573 -0.000263561 -1.13487e-11
0.000888411 -0.000266532 -0.00026652 -1.14508e-11
0.000631067 -0.000189498 -0.000189244 -1.85731e-05
0.000753041 -0.000226012 -0.00022587 -1.00612e-05
0.000883479 -0.000265053 -0.00026504 -1.14151e-11
0.000761494 -0.00022855 -0.000228405 -1.00613e-05
0.000757268 -0.000227281 -0.000227137 -1.00613e-05
0.000627546 -0.00018844 -0.000188189 -1.8573e-05
0.000620504 -0.000186323 -0.000186078 -1.85729e-05
0.000868684 -0.000260613 -0.000260601 -1.12334e-11
0.000878547 -0.000263573 -0.000263561 -1.13317e-11
0.000624025 -0.000187381 -0.000187133 -1.85729e-05
0.000744589 -0.000223474 -0.000223335 -1.00611e-05
0.000873616 -0.000262093 -0.000262081 -1.12802e-11
0.000753041 -0.000226012 -0.00022587 -1.00612e-05
0.000748815 -0.000224743 -0.000224602 -1.00612e-05
0.000620504 -0.000186323 -0.000186078 -1.85729e-05
0.000613463 -0.000184206 -0.000183967 -1.85727e-05
0.00085882 -0.000257654 -0.000257642 -1.10883e-11
0.000868684 -0.000260613 -0.000260601 -1.12333e-11
0.000616983 -0.000185265 -0.000185022 -1.85728e-05
0.000736136 -0.000220935 -0.0002208 -1.0061e-05
0.000863752 -0.000259134 -0.000259122 -1.1152e-11
0.000744589 -0.000223474 -0.000223335 -1.00611e-05
0.000740362 -0.000222205 -0.000222068 -1.00611e-05
0.000613463 -0.000184206 -0.000183967 -1.85727e-05
0.000606421 -0.00018209 -0.000181856 -1.85725e-05
0.000848956 -0.000254694 -0.000254683 -1.09537e-11
0.00085882 -0.000257654 -0.000257642 -1.10883e-11
0.000609942 -0.000183148 -0.000182911 -1.85726e-05
0.000727683 -0.000218397 -0.000218265 -1.00609e-05
0.000853888 -0.000256174 -0.000256163 -1.10245e-11
0.000736136 -0.000220935 -0.0002208 -1.0061e-05
0.000731909 -0.000219666 -0.000219533 -1.0061e-05
0.000606421 -0.00018209 -0.000181856 -1.85725e-05
0.000599379 -0.000179973 -0.000179745 -1.85724e-05
0.000839092 -0.000251735 -0.000251724 -1.08212e-11
0.000848956 -0.000254694 -0.000254683 -1.09537e-11
0.0006029 -0.000181032 -0.000180801 -1.85725e-05
0.00071923 -0.000215859 -0.00021573 -1.00608e-05
0.000844024 -0.000253215 -0.000253204 -1.08753e-11
0.000727683 -0.000218397 -0.000218265 -1.00609e-05
0.000723457 -0.000217128 -0.000216998 -1.00609e-05
0.000599379 -0.000179973 -0.000179745 -1.85724e-05
0.000592337 -0.000177857 -0.000177634 -1.85722e-05
0.000829228 -0.000248776 -0.000248765 -1.07145e-11
0.000839092 -0.000251735 -0.000251724 -1.08211e-11
0.000595858 -0.000178915 -0.00017869 -1.85723e-05
0.000710777 -0.000213321 -0.000213196 -1.00608e-05
0.00083416 -0.000250255 -0.000250245 -1.07581e-11
0.00071923 -0.000215859 -0.00021573 -1.00608e-05
0.000715004 -0.00021459 -0.000214463 -1.00608e-05
0.000592337 -0.000177857 -0.000177634 -1.85722e-05
0.000585295 -0.00017574 -0.000175523 -1.85721e-05
0.000819364 -0.000245816 -0.000245806 -1.05873e-11
0.000829228 -0.000248776 -0.000248765 -1.07101e-11
0.000588816 -0.000176799 -0.000176579 -1.85722e-05
0.000702325 -0.000210783 -0.000210661 -1.00607e-05
0.000824296 -0.000247296 -0.000247286 -1.06461e-11
0.000710777 -0.000213321 -0.000213196 -1.00608e-05
0.000706551 -0.000212052 -0.000211928 -1.00607e-05
0.000585295 -0.00017574 -0.000175523 -1.85721e-05
0.000578253 -0.000173624 -0.000173412 -1.85719e-05
0.0008095 -0.000242857 -0.000242847 -1.04635e-11
0.000819364 -0.000245816 -0.000245806 -1.05873e-11
0.000581774 -0.000174682 -0.000174468 -1.8572e-05
0.000693872 -0.000208245 -0.000208126 -1.00606e-05
0.000814432 -0.000244336 -0.000244327 -1.05287e-11
0.000702325 -0.000210783 -0.000210661 -1.00607e-05
0.000698098 -0.000209514 -0.000209393 -1.00606e-05
0.000578253 -0.000173624 -0.000173412 -1.85719e-05
0.00057121 -0.000171507 -0.000171301 -1.85718e-05
0.000799636 -0.000239897 -0.000239888 -1.0311e-11
0.0008095 -0.000242857 -0.000242847 -1.04635e-11
0.000574731 -0.000172566 -0.000172357 -1.85718e-05
0.000685419 -0.000205707 -0.000205591 -1.00605e-05
0.000804568 -0.000241377 -0.000241368 -1.03865e-11
0.000693872 -0.000208245 -0.000208126 -1.00606e-05
0.000689645 -0.000206976 -0.000206858 -1.00605e-05
0.00057121 -0.000171507 -0.000171301 -1.85718e-05
0.000564168 -0.000169391 -0.00016919 -1.85716e-05
0.000789773 -0.000236938 -0.000236929 -1.01899e-11
0.000799636 -0.000239897 -0.000239888 -1.03471e-11
0.000567689 -0.000170449 -0.000170246 -1.85717e-05
0.000676966 -0.000203169 -0.000203056 -1.00604e-05
0.000794704 -0.000238418 -0.000238409 -1.02624e-11
0.000685419 -0.000205707 -0.000205591 -1.00605e-05
0.000681192 -0.000204438 -0.000204323 -1.00604e-05
0.000564168 -0.000169391 -0.00016919 -1.85716e-05
0.000557126 -0.000167275 -0.000167079 -1.85715e-05
0.000779909 -0.000233978 -0.00023397 -1.00678e-11
0.000789773 -0.000236938 -0.000236929 -1.01897e-11
0.000560647 -0.000168333 -0.000168135 -1.85715e-05
0.000668513 -0.000200631 -0.000200521 -1.00603e-05
0.000784841 -0.000235458 -0.00023545 -1.01156e-11
0.000676966 -0.000203169 -0.000203056 -1.00604e-05
0.000672739 -0.0002019 -0.000201788 -1.00603e-05
0.000557126 -0.000167275 -0.000167079 -1.85715e-05
0.000550084 -0.000165158 -0.000164968 -1.85713e-05
0.000770045 -0.000231019 -0.000231011 -9.96247e-12
0.000779909 -0.000233978 -0.00023397 -1.00678e-11
0.000553605 -0.000166217 -0.000166024 -1.85714e-05
0.00066006 -0.000198093 -0.000197986 -1.00602e-05
0.000774977 -0.000232499 -0.000232491 -1.00211e-11
0.000668513 -0.000200631 -0.000200521 -1.00603e-05
0.000664287 -0.000199362 -0.000199253 -1.00602e-05
0.000550084 -0.000165158 -0.000164968 -1.85713e-05
0.000543041 -0.000163042 -0.000162857 -1.85711e-05
0.000760181 -0.00022806 -0.000228052 -9.82974e-12
0.000770045 -0.000231019 -0.000231011 -9.96247e-12
0.000546563 -0.0001641 -0.000163912 -1.85712e-05
0.000651607 -0.000195555 -0.000195451 -1.00601e-05
0.000765113 -0.000229539 -0.000229532 -9.90354e-12
0.00066006 -0.000198093 -0.000197986 -1.00602e-05
0.000655834 -0.000196824 -0.000196718 -1.00601e-05
0.000543041 -0.000163042 -0.000162857 -1.85711e-05
0.000535999 -0.000160926 -0.000160746 -1.8571e-05
0.000750317 -0.0002251 -0.000225093 -9.71814e-12
0.000760181 -0.00022806 -0.000228052 -9.82974e-12
0.00053952 -0.000161984 -0.000161801 -1.85711e-05
0.000643154 -0.000193017 -0.000192916 -1.006e-05
0.000755249 -0.00022658 -0.000226573 -9.75241e-12
0.000651607 -0.000195555 -0.000195451 -1.00601e-05
0.000647381 -0.000194286 -0.000194183 -1.00601e-05
0.000535999 -0.000160926 -0.000160746 -1.8571e-05
0.000528957 -0.00015881 -0.000158634 -1.85708e-05
0.000740453 -0.000222141 -0.000222134 -9.56186e-12
0.000750317 -0.0002251 -0.000225093 -9.71736e-12
0.000532478 -0.000159868 -0.00015969 -1.85709e-05
0.000634701 -0.000190479 -0.000190381 -1.00599e-05
0.000745385 -0.00022362 -0.000223614 -9.6456e-12
0.000643154 -0.000193017 -0.000192916 -1.006e-05
0.000638928 -0.000191748 -0.000191648 -1.006e-05
0.000528957 -0.00015881 -0.000158634 -1.85708e-05
0.000521914 -0.000156694 -0.000156523 -1.85707e-05
0.000730589 -0.000219181 -0.000219175 -9.48411e-12
0.000740453 -0.000222141 -0.000222134 -9.56186e-12
0.000525436 -0.000157752 -0.000157579 -1.85708e-05
0.000626248 -0.000187941 -0.000187846 -1.00598e-05
0.000735521 -0.000220661 -0.000220654 -9.52177e-12
0.000634701 -0.000190479 -0.000190381 -1.00599e-05
0.000630475 -0.00018921 -0.000189113 -1.00599e-05
0.000521914 -0.000156694 -0.000156523 -1.85707e-05
0.000514872 -0.000154577 -0.000154412 -1.85705e-05
0.000720726 -0.000216222 -0.000216216 -9.31478e-12
0.000730589 -0.000219181 -0.000219175 -9.48411e-12
0.000518393 -0.000155635 -0.000155468 -1.85706e-05
0.000617795 -0.000185403 -0.000185311 -1.00597e-05
0.000725658 -0.000217702 -0.000217695 -9.41014e-12
0.000626248 -0.000187941 -0.000187846 -1.00598e-05
0.000622022 -0.000186672 -0.000186578 -1.00598e-05
0.000514872 -0.000154577 -0.000154412 -1.85705e-05
0.000507829 -0.000152461 -0.000152301 -1.85704e-05
0.000710862 -0.000213262 -0.000213257 -9.19111e-12
0.000720726 -0.000216222 -0.000216216 -9.34137e-12
0.000511351 -0.000153519 -0.000153356 -1.85705e-05
0.000609342 -0.000182865 -0.000182776 -1.00596e-05
0.000715794 -0.000214742 -0.000214736 -9.26311e-12
0.000617795 -0.000185403 -0.000185311 -1.00597e-05
0.000613569 -0.000184134 -0.000184043 -1.00597e-05
0.000507829 -0.000152461 -0.000152301 -1.85704e-05
0.000500787 -0.000150345 -0.000150189 -1.85702e-05
0.000700998 -0.000210303 -0.000210298 -9.1053e-12
0.000710862 -0.000213262 -0.000213257 -9.19075e-12
0.000504308 -0.000151403 -0.000151245 -1.85703e-05
0.000600889 -0.000180328 -0.000180241 -1.00595e-05
0.00070593 -0.000211783 -0.000211777 -9.14808e-12
0.000609342 -0.000182865 -0.000182776 -1.00596e-05
0.000605115 -0.000181597 -0.000181508 -1.00596e-05
0.000500787 -0.000150345 -0.000150189 -1.85702e-05
0.000493744 -0.000148229 -0.000148078 -1.85701e-05
0.000691134 -0.000207344 -0.000207339 -8.95185e-12
0.000700998 -0.000210303 -0.000210298 -9.1053e-12
0.000497266 -0.000149287 -0.000149134 -1.85702e-05
0.000592436 -0.00017779 -0.000177705 -1.00595e-05
0.000696066 -0.000208823 -0.000208818 -9.01063e-12
0.000600889 -0.000180328 -0.000180241 -1.00595e-05
0.000596662 -0.000179059 -0.000178973 -1.00595e-05
0.000493744 -0.000148229 -0.000148078 -1.85701e-05
0.000486702 -0.000146113 -0.000145967 -1.85699e-05
0.00068127 -0.000204384 -0.00020438 -8.81206e-12
0.000691134 -0.000207344 -0.000207339 -8.95185e-12
0.000490223 -0.000147171 -0.000147022 -1.857e-05
0.000583983 -0.000175252 -0.00017517 -1.00594e-05
0.000686202 -0.000205864 -0.000205859 -8.87399e-12
0.000592436 -0.00017779 -0.000177705 -1.00595e-05
0.000588209 -0.000176521 -0.000176438 -1.00594e-05
0.000486702 -0.000146113 -0.000145967 -1.85699e-05
0.000479659 -0.000143997 -0.000143855 -1.85698e-05
0.000671406 -0.000201425 -0.000201421 -8.71194e-12
0.00068127 -0.000204384 -0.00020438 -8.81258e-12
0.00048318 -0.000145055 -0.000144911 -1.85699e-05
0.00057553 -0.000172714 -0.000172635 -1.00593e-05
0.000676338 -0.000202904 -0.0002029 -8.74447e-12
0.000583983 -0.000175252 -0.00017517 -1.00594e-05
0.000579756 -0.000173983 -0.000173903 -1.00593e-05
0.000479659 -0.000143997 -0.000143855 -1.85698e-05
0.000472616 -0.000141881 -0.000141744 -1.85696e-05
0.000661543 -0.000198465 -0.000198462 -8.57076e-12
0.000671406 -0.000201425 -0.000201421 -8.69869e-12
0.000476138 -0.000142939 -0.000142799 -1.85697e-05
0.000567076 -0.000170176 -0.0001701 -1.00592e-05
0.000666474 -0.000199945 -0.000199941 -8.64977e-12
0.00057553 -0.000172714 -0.000172635 -1.00593e-05
0.000571303 -0.000171445 -0.000171368 -1.00592e-05
0.000472616 -0.000141881 -0.000141744 -1.85696e-05
0.000465574 -0.000139765 -0.000139632 -1.85695e-05
0.000651679 -0.000195506 -0.000195503 -8.44017e-12
0.000661543 -0.000198465 -0.000198462 -8.57076e-12
0.000469095 -0.000140823 -0.000140688 -1.85696e-05
0.000558623 -0.000167639 -0.000167565 -1.00591e-05
0.000656611 -0.000196986 -0.000196982 -8.49271e-12
0.000567076 -0.000170176 -0.0001701 -1.00592e-05
0.00056285 -0.000168907 -0.000168832 -1.00591e-05
0.000465574 -0.000139765 -0.000139632 -1.85695e-05
0.000458531 -0.000137649 -0.000137521 -1.85694e-05
0.000641815 -0.000192546 -0.000192544 -8.30108e-12
0.000651679 -0.000195506 -0.000195503 -8.44017e-12
0.000462052 -0.000138707 -0.000138576 -1.85694e-05
0.00055017 -0.000165101 -0.00016503 -1.0059e-05
0.000646747 -0.000194026 -0.000194023 -8.37343e-12
0.000558623 -0.000167639 -0.000167565 -1.00591e-05
0.000554397 -0.00016637 -0.000166297 -1.00591e-05
0.000458531 -0.000137649 -0.000137521 -1.85694e-05
0.000451488 -0.000135533 -0.000135409 -1.85692e-05
0.000631951 -0.000189587 -0.000189585 -8.17957e-12
0.000641815 -0.000192546 -0.000192544 -8.33689e-12
0.000455009 -0.000136591 -0.000136465 -1.85693e-05
0.000541717 -0.000162563 -0.000162494 -1.00589e-05
0.000636883 -0.000191067 -0.000191064 -8.27813e-12
0.00055017 -0.000165101 -0.00016503 -1.0059e-05
0.000545943 -0.000163832 -0.000163762 -1.0059e-05
0.000451488 -0.000135533 -0.000135409 -1.85692e-05
0.000444445 -0.000133418 -0.000133297 -1.85691e-05
0.000622087 -0.000186628 -0.000186626 -8.07334e-12
0.000631951 -0.000189587 -0.000189585 -8.17957e-12
0.000447967 -0.000134476 -0.000134353 -1.85691e-05
0.000533263 -0.000160025 -0.000159959 -1.00588e-05
0.000627019 -0.000188107 -0.000188105 -8.13783e-12
0.000541717 -0.000162563 -0.000162494 -1.00589e-05
0.00053749 -0.000161294 -0.000161227 -1.00589e-05
0.000444445 -0.000133418 -0.000133297 -1.85691e-05
0.000437402 -0.000131302 -0.000131186 -1.85689e-05
0.000612223 -0.000183668 -0.000183667 -7.95489e-12
0.000622087 -0.000186628 -0.000186626 -8.07334e-12
0.000440924 -0.00013236 -0.000132242 -1.8569e-05
0.00052481 -0.000157488 -0.000157424 -1.00587e-05
0.000617155 -0.000185148 -0.000185146 -7.9961e-12
0.000533263 -0.000160025 -0.000159959 -1.00588e-05
0.000529037 -0.000158757 -0.000158692 -1.00588e-05
0.000437402 -0.000131302 -0.000131186 -1.85689e-05
0.000430359 -0.000129186 -0.000129074 -1.85688e-05
0.000602359 -0.000180709 -0.000180707 -7.81837e-12
0.000612223 -0.000183668 -0.000183667 -7.95489e-12
0.000433881 -0.000130244 -0.00013013 -1.85688e-05
0.000516357 -0.00015495 -0.000154889 -1.00587e-05
0.000607291 -0.000182188 -0.000182187 -7.85848e-12
0.00052481 -0.000157488 -0.000157424 -1.00587e-05
0.000520583 -0.000156219 -0.000156156 -1.00587e-05
0.000430359 -0.000129186 -0.000129074 -1.85688e-05
0.000423316 -0.00012707 -0.000126963 -1.85686e-05
0.000592496 -0.000177749 -0.000177748 -7.70214e-12
0.000602359 -0.000180709 -0.000180707 -7.81837e-12
0.000426838 -0.000128128 -0.000128018 -1.85687e-05
0.000507903 -0.000152412 -0.000152353 -1.00586e-05
0.000597428 -0.000179229 -0.000179228 -7.75046e-12
0.000516357 -0.00015495 -0.000154889 -1.00587e-05
0.00051213 -0.000153681 -0.000153621 -1.00586e-05
0.000423316 -0.00012707 -0.000126963 -1.85686e-05
0.000416273 -0.000124955 -0.000124851 -1.85685e-05
0.000582632 -0.00017479 -0.000174789 -7.54639e-12
0.000592496 -0.000177749 -0.000177748 -7.67225e-12
0.000419795 -0.000126012 -0.000125907 -1.85686e-05
0.00049945 -0.000149875 -0.000149818 -1.00585e-05
0.000587564 -0.00017627 -0.000176269 -7.6074e-12
0.000507903 -0.000152412 -0.000152353 -1.00586e-05
0.000503677 -0.000151143 -0.000151086 -1.00585e-05
0.000416273 -0.000124955 -0.000124851 -1.85685e-05
0.00040923 -0.000122839 -0.000122739 -1.85683e-05
0.000572768 -0.00017183 -0.00017183 -7.41708e-12
0.000582632 -0.00017479 -0.000174789 -7.54639e-12
0.000412752 -0.000123897 -0.000123795 -1.85684e-05
0.000490997 -0.000147337 -0.000147283 -1.00584e-05
0.0005777 -0.00017331 -0.00017331 -7.46112e-12
0.00049945 -0.000149875 -0.000149818 -1.00585e-05
0.000495223 -0.000148606 -0.00014855 -1.00584e-05
0.00040923 -0.000122839 -0.000122739 -1.85683e-05
0.000402187 -0.000120723 -0.000120627 -1.85682e-05
0.000562904 -0.000168871 -0.000168871 -7.31478e-12
0.000572768 -0.00017183 -0.00017183 -7.41708e-12
0.000405708 -0.000121781 -0.000121683 -1.85683e-05
0.000482543 -0.000144799 -0.000144747 -1.00583e-05
0.000567836 -0.000170351 -0.000170351 -7.34627e-12
0.000490997 -0.000147337 -0.000147283 -1.00584e-05
0.00048677 -0.000146068 -0.000146015 -1.00584e-05
0.000402187 -0.000120723 -0.000120627 -1.85682e-05
0.000395144 -0.000118608 -0.000118515 -1.85681e-05
0.00055304 -0.000165912 -0.000165912 -7.19209e-12
0.000562904 -0.000168871 -0.000168871 -7.29775e-12
0.000398665 -0.000119665 -0.000119571 -1.85681e-05
0.00047409 -0.000142262 -0.000142212 -1.00582e-05
0.000557972 -0.000167391 -0.000167392 -7.23627e-12
0.000482543 -0.000144799 -0.000144747 -1.00583e-05
0.000478316 -0.000143531 -0.00014348 -1.00583e-05
0.000395144 -0.000118608 -0.000118515 -1.85681e-05
0.0003881 -0.000116492 -0.000116404 -1.85679e-05
0.000543176 -0.000162952 -0.000162953 -7.04386e-12
0.00055304 -0.000165912 -0.000165912 -7.19158e-12
0.000391622 -0.00011755 -0.000117459 -1.8568e-05
0.000465636 -0.000139724 -0.000139677 -1.00581e-05
0.000548108 -0.000164432 -0.000164433 -7.14573e-12
0.00047409 -0.000142262 -0.000142212 -1.00582e-05
0.000469863 -0.000140993 -0.000140944 -1.00582e-05
0.0003881 -0.000116492 -0.000116404 -1.85679e-05
0.000381057 -0.000114376 -0.000114292 -1.85678e-05
0.000533312 -0.000159993 -0.000159994 -6.91198e-12
0.000543176 -0.000162952 -0.000162953 -7.04386e-12
0.000384579 -0.000115434 -0.000115348 -1.85679e-05
0.000457183 -0.000137187 -0.000137141 -1.00581e-05
0.000538244 -0.000161472 -0.000161474 -7.02941e-12
0.000465636 -0.000139724 -0.000139677 -1.00581e-05
0.000461409 -0.000138455 -0.000138409 -1.00581e-05
0.000381057 -0.000114376 -0.000114292 -1.85678e-05
0.000374014 -0.000112261 -0.00011218 -1.85677e-05
0.000523449 -0.000157033 -0.000157035 -6.80987e-12
0.000533312 -0.000159993 -0.000159994 -6.91198e-12
0.000377535 -0.000113319 -0.000113236 -1.85677e-05
0.000448729 -0.000134649 -0.000134606 -1.0058e-05
0.00052838 -0.000158513 -0.000158515 -6.84331e-12
0.000457183 -0.000137187 -0.000137141 -1.00581e-05
0.000452956 -0.000135918 -0.000135873 -1.0058e-05
0.000374014 -0.000112261 -0.00011218 -1.85677e-05
0.00036697 -0.000110145 -0.000110068 -1.85675e-05
0.000513585 -0.000154074 -0.000154076 -6.68016e-12
0.000523449 -0.000157033 -0.000157035 -6.8097e-12
0.000370492 -0.000111203 -0.000111124 -1.85676e-05
0.000440276 -0.000132112 -0.00013207 -1.00579e-05
0.000518517 -0.000155554 -0.000155556 -6.76033e-12
0.000448729 -0.000134649 -0.000134606 -1.0058e-05
0.000444502 -0.00013338 -0.000133338 -1.00579e-05
0.00036697 -0.000110145 -0.000110068 -1.85675e-05
0.000359927 -0.00010803 -0.000107956 -1.85674e-05
0.000503721 -0.000151114 -0.000151117 -6.51312e-12
0.000513585 -0.000154074 -0.000154076 -6.65273e-12
0.000363449 -0.000109088 -0.000109012 -1.85674e-05
0.000431822 -0.000129574 -0.000129535 -1.00578e-05
0.000508653 -0.000152594 -0.000152597 -6.61451e-12
0.000440276 -0.000132112 -0.00013207 -1.00579e-05
0.000436049 -0.000130843 -0.000130803 -1.00579e-05
0.000359927 -0.00010803 -0.000107956 -1.85674e-05
0.000352883 -0.000105915 -0.000105844 -1.85672e-05
0.000493857 -0.000148155 -0.000148158 -6.41867e-12
0.000503721 -0.000151114 -0.000151117 -6.51312e-12
0.000356405 -0.000106972 -0.0001069 -1.85673e-05
0.000423368 -0.000127037 -0.000126999 -1.00577e-05
0.000498789 -0.000149635 -0.000149637 -6.46611e-12
0.000431822 -0.000129574 -0.000129535 -1.00578e-05
0.000427595 -0.000128305 -0.000128267 -1.00578e-05
0.000352883 -0.000105915 -0.000105844 -1.85672e-05
0.00034584 -0.000103799 -0.000103732 -1.85671e-05
0.000483993 -0.000145196 -0.000145199 -6.34219e-12
0.000493857 -0.000148155 -0.000148158 -6.37885e-12
0.000349362 -0.000104857 -0.000104788 -1.85672e-05
0.000414915 -0.000124499 -0.000124464 -1.00576e-05
0.000488925 -0.000146675 -0.000146678 -6.35985e-12
0.000423368 -0.000127037 -0.000126999 -1.00577e-05
0.000419142 -0.000125768 -0.000125732 -1.00577e-05
0.00034584 -0.000103799 -0.000103732 -1.85671e-05
0.000338796 -0.000101684 -0.00010162 -1.8567e-05
0.000474129 -0.000142236 -0.00014224 -6.16784e-12
0.000483993 -0.000145196 -0.000145199 -6.34219e-12
0.000342318 -0.000102741 -0.000102676 -1.8567e-05
0.000406461 -0.000121962 -0.000121928 -1.00576e-05
0.000479061 -0.000143716 -0.000143719 -6.236e-12
0.000414915 -0.000124499 -0.000124464 -1.00576e-05
0.000410688 -0.00012323 -0.000123196 -1.00576e-05
0.000338796 -0.000101684 -0.00010162 -1.8567e-05
0.000331753 -9.95684e-05 -9.95075e-05 -1.85668e-05
0.000464265 -0.000139277 -0.000139281 -6.03202e-12
0.000474129 -0.000142236 -0.00014224 -6.16784e-12
0.000335274 -0.000100626 -0.000100564 -1.85669e-05
0.000398007 -0.000119424 -0.000119393 -1.00575e-05
0.000469197 -0.000140756 -0.00014076 -6.07554e-12
0.000406461 -0.000121962 -0.000121928 -1.00576e-05
0.000402234 -0.000120693 -0.000120661 -1.00575e-05
0.000331753 -9.95684e-05 -9.95075e-05 -1.85668e-05
0.000324709 -9.74531e-05 -9.73954e-05 -1.85667e-05
0.000454401 -0.000136317 -0.000136322 -5.92359e-12
0.000464265 -0.000139277 -0.000139281 -6.03202e-12
0.000328231 -9.85108e-05 -9.84515e-05 -1.85668e-05
0.000389554 -0.000116887 -0.000116857 -1.00574e-05
0.000459333 -0.000137797 -0.000137801 -5.99983e-12
0.000398007 -0.000119424 -0.000119393 -1.00575e-05
0.00039378 -0.000118155 -0.000118125 -1.00574e-05
0.000324709 -9.74531e-05 -9.73954e-05 -1.85667e-05
0.000317665 -9.53378e-05 -9.52832e-05 -1.85666e-05
0.000444537 -0.000133358 -0.000133363 -5.82531e-12
0.000454401 -0.000136317 -0.000136322 -5.92319e-12
0.000321187 -9.63954e-05 -9.63393e-05 -1.85666e-05
0.0003811 -0.000114349 -0.000114322 -1.00573e-05
0.000449469 -0.000134838 -0.000134842 -5.85739e-12
0.000389554 -0.000116887 -0.000116857 -1.00574e-05
0.000385327 -0.000115618 -0.000115589 -1.00574e-05
0.000317665 -9.53378e-05 -9.52832e-05 -1.85666e-05
0.000310621 -9.32225e-05 -9.3171e-05 -1.85665e-05
0.000434673 -0.000130398 -0.000130403 -5.66839e-12
0.000444537 -0.000133358 -0.000133363 -5.82531e-12
0.000314143 -9.42802e-05 -9.42271e-05 -1.85665e-05
0.000372646 -0.000111812 -0.000111786 -1.00572e-05
0.000439605 -0.000131878 -0.000131883 -5.71854e-12
0.0003811 -0.000114349 -0.000114322 -1.00573e-05
0.000376873 -0.000113081 -0.000113054 -1.00573e-05
0.000310621 -9.32225e-05 -9.3171e-05 -1.85665e-05
0.000303578 -9.11073e-05 -9.10587e-05 -1.85663e-05
0.000424809 -0.000127439 -0.000127444 -5.53566e-12
0.000434673 -0.000130398 -0.000130403 -5.66839e-12
0.0003071 -9.21649e-05 -9.21148e-05 -1.85664e-05
0.000364192 -0.000109274 -0.00010925 -1.00572e-05
0.000429741 -0.000128919 -0.000128924 -5.55672e-12
0.000372646 -0.000111812 -0.000111786 -1.00572e-05
0.000368419 -0.000110543 -0.000110518 -1.00572e-05
0.000303578 -9.11073e-05 -9.10587e-05 -1.85663e-05
0.000296534 -8.89921e-05 -8.89464e-05 -1.85662e-05
0.000414945 -0.00012448 -0.000124485 -5.42278e-12
0.000424809 -0.000127439 -0.000127444 -5.57563e-12
0.000300056 -9.00497e-05 -9.00026e-05 -1.85663e-05
0.000355738 -0.000106737 -0.000106715 -1.00571e-05
0.000419877 -0.000125959 -0.000125965 -5.52151e-12
0.000364192 -0.000109274 -0.00010925 -1.00572e-05
0.000359965 -0.000108006 -0.000107983 -1.00571e-05
0.000296534 -8.89921e-05 -8.89464e-05 -1.85662e-05
0.00028949 -8.68769e-05 -8.68341e-05 -1.85661e-05
0.000405081 -0.00012152 -0.000121526 -5.28118e-12
0.000414945 -0.00012448 -0.000124485 -5.42278e-12
0.000293012 -8.79345e-05 -8.78903e-05 -1.85661e-05
0.000347284 -0.0001042 -0.000104179 -1.0057e-05
0.000410013 -0.000123 -0.000123006 -5.34567e-12
0.000355738 -0.000106737 -0.000106715 -1.00571e-05
0.000351511 -0.000105468 -0.000105447 -1.0057e-05
0.00028949 -8.68769e-05 -8.68341e-05 -1.85661e-05
0.000282446 -8.47618e-05 -8.47217e-05 -1.85659e-05
0.000395217 -0.000118561 -0.000118567 -5.1383e-12
0.000405081 -0.00012152 -0.000121526 -5.28118e-12
0.000285968 -8.58194e-05 -8.57779e-05 -1.8566e-05
0.00033883 -0.000101662 -0.000101643 -1.00569e-05
0.000400149 -0.00012004 -0.000120047 -5.18471e-12
0.000347284 -0.0001042 -0.000104179 -1.0057e-05
0.000343057 -0.000102931 -0.000102911 -1.0057e-05
0.000282446 -8.47618e-05 -8.47217e-05 -1.85659e-05
0.000275402 -8.26467e-05 -8.26093e-05 -1.85658e-05
0.000385353 -0.000115601 -0.000115608 -5.03156e-12
0.000395217 -0.000118561 -0.000118567 -5.1383e-12
0.000278924 -8.37042e-05 -8.36655e-05 -1.85659e-05
0.000330376 -9.9125e-05 -9.91077e-05 -1.00569e-05
0.000390285 -0.000117081 -0.000117088 -5.08081e-12
0.00033883 -0.000101662 -0.000101643 -1.00569e-05
0.000334603 -0.000100394 -0.000100376 -1.00569e-05
0.000275402 -8.26467e-05 -8.26093e-05 -1.85658e-05
0.000268358 -8.05316e-05 -8.04969e-05 -1.85657e-05
0.000375489 -0.000112642 -0.000112649 -4.90635e-12
0.000385353 -0.000115601 -0.000115608 -5.03156e-12
0.00027188 -8.15891e-05 -8.15531e-05 -1.85658e-05
0.000321922 -9.65877e-05 -9.6572e-05 -1.00568e-05
0.000380421 -0.000114121 -0.000114128 -4.9707e-12
0.000330376 -9.9125e-05 -9.91077e-05 -1.00569e-05
0.000326149 -9.78563e-05 -9.78399e-05 -1.00568e-05
0.000268358 -8.05316e-05 -8.04969e-05 -1.85657e-05
0.000261314 -7.84165e-05 -7.83844e-05 -1.85656e-05
0.000365625 -0.000109682 -0.00010969 -4.7686e-12
0.000375489 -0.000112642 -0.000112649 -4.92884e-12
0.000264836 -7.94741e-05 -7.94407e-05 -1.85656e-05
0.000313468 -9.40504e-05 -9.40363e-05 -1.00567e-05
0.000370557 -0.000111162 -0.000111169 -4.80456e-12
0.000321922 -9.65877e-05 -9.6572e-05 -1.00568e-05
0.000317695 -9.5319e-05 -9.53042e-05 -1.00567e-05
0.000261314 -7.84165e-05 -7.83844e-05 -1.85656e-05
0.000254269 -7.63015e-05 -7.62719e-05 -1.85654e-05
0.000355761 -0.000106723 -0.000106731 -4.63912e-12
0.000365625 -0.000109682 -0.00010969 -4.7686e-12
0.000257791 -7.7359e-05 -7.73282e-05 -1.85655e-05
0.000305014 -9.15131e-05 -9.15005e-05 -1.00566e-05
0.000360693 -0.000108203 -0.00010821 -4.72226e-12
0.000313468 -9.40504e-05 -9.40363e-05 -1.00567e-05
0.000309241 -9.27817e-05 -9.27684e-05 -1.00567e-05
0.000254269 -7.63015e-05 -7.62719e-05 -1.85654e-05
0.000247225 -7.41865e-05 -7.41594e-05 -1.85653e-05
0.000345897 -0.000103763 -0.000103772 -4.51718e-12
0.000355761 -0.000106723 -0.000106731 -4.63912e-12
0.000250747 -7.5244e-05 -7.52157e-05 -1.85654e-05
0.00029656 -8.89758e-05 -8.89647e-05 -1.00565e-05
0.000350829 -0.000105243 -0.000105251 -4.60126e-12
0.000305014 -9.15131e-05 -9.15005e-05 -1.00566e-05
0.000300787 -9.02444e-05 -9.02326e-05 -1.00566e-05
0.000247225 -7.41865e-05 -7.41594e-05 -1.85653e-05
0.000240181 -7.20715e-05 -7.20468e-05 -1.85652e-05
0.000336033 -0.000100804 -0.000100812 -4.39525e-12
0.000345897 -0.000103763 -0.000103772 -4.54301e-12
0.000243703 -7.3129e-05 -7.31031e-05 -1.85653e-05
0.000288106 -8.64385e-05 -8.64289e-05 -1.00565e-05
0.000340965 -0.000102284 -0.000102292 -4.46519e-12
0.00029656 -8.89758e-05 -8.89647e-05 -1.00565e-05
0.000292333 -8.77071e-05 -8.76968e-05 -1.00565e-05
0.000240181 -7.20715e-05 -7.20468e-05 -1.85652e-05
0.000233136 -6.99566e-05 -6.99342e-05 -1.85651e-05
0.000326169 -9.78444e-05 -9.78533e-05 -4.22856e-12
0.000336033 -0.000100804 -0.000100812 -4.39525e-12
0.000236659 -7.10141e-05 -7.09905e-05 -1.85651e-05
0.000279652 -8.39013e-05 -8.38931e-05 -1.00564e-05
0.000331101 -9.93241e-05 -9.93328e-05 -4.29533e-12
0.000288106 -8.64385e-05 -8.64289e-05 -1.00565e-05
0.000283879 -8.51699e-05 -8.5161e-05 -1.00564e-05
0.000233136 -6.99566e-05 -6.99342e-05 -1.85651e-05
0.000226092 -6.78417e-05 -6.78216e-05 -1.8565e-05
0.000316305 -9.48849e-05 -9.48941e-05 -4.0562e-12
0.000326169 -9.78444e-05 -9.78533e-05 -4.22856e-12
0.000229614 -6.88991e-05 -6.88779e-05 -1.8565e-05
0.000271198 -8.1364e-05 -8.13572e-05 -1.00563e-05
0.000321237 -9.63647e-05 -9.63737e-05 -4.22161e-12
0.000279652 -8.39013e-05 -8.38931e-05 -1.00564e-05
0.000275425 -8.26326e-05 -8.26252e-05 -1.00564e-05
0.000226092 -6.78417e-05 -6.78216e-05 -1.8565e-05
0.000219048 -6.57268e-05 -6.57089e-05 -1.85648e-05
0.00030644 -9.19255e-05 -9.1935e-05 -3.9118e-12
0.000316305 -9.48849e-05 -9.48941e-05 -4.0562e-12
0.00022257 -6.67842e-05 -6.67653e-05 -1.85649e-05
0.000262743 -7.88268e-05 -7.88214e-05 -1.00563e-05
0.000311373 -9.34052e-05 -9.34146e-05 -3.99067e-12
0.000271198 -8.1364e-05 -8.13572e-05 -1.00563e-05
0.00026697 -8.00954e-05 -8.00893e-05 -1.00563e-05
0.000219048 -6.57268e-05 -6.57089e-05 -1.85648e-05
0.000212003 -6.36119e-05 -6.35962e-05 -1.85647e-05
0.000296576 -8.8966e-05 -8.89759e-05 -3.76695e-12
0.00030644 -9.19255e-05 -9.1935e-05 -3.91181e-12
0.000215525 -6.46694e-05 -6.46526e-05 -1.85648e-05
0.000254289 -7.62896e-05 -7.62855e-05 -1.00562e-05
0.000301508 -9.04457e-05 -9.04554e-05 -3.85001e-12
0.000262743 -7.88268e-05 -7.88214e-05 -1.00563e-05
0.000258516 -7.75582e-05 -7.75534e-05 -1.00562e-05
0.000212003 -6.36119e-05 -6.35962e-05 -1.85647e-05
0.000204958 -6.14971e-05 -6.14835e-05 -1.85646e-05
0.000286712 -8.60065e-05 -8.60167e-05 -3.54165e-12
0.000296576 -8.8966e-05 -8.89759e-05 -3.7367e-12
0.000208481 -6.25545e-05 -6.25398e-05 -1.85647e-05
0.000245835 -7.37524e-05 -7.37496e-05 -1.00561e-05
0.000291644 -8.74862e-05 -8.74963e-05 -3.68395e-12
0.000254289 -7.62896e-05 -7.62855e-05 -1.00562e-05
0.000250062 -7.5021e-05 -7.50175e-05 -1.00561e-05
0.000204958 -6.14971e-05 -6.14835e-05 -1.85646e-05
0.000197914 -5.93823e-05 -5.93707e-05 -1.85645e-05
0.000276848 -8.3047e-05 -8.30575e-05 -3.32119e-12
0.000286712 -8.60065e-05 -8.60167e-05 -3.54165e-12
0.000201436 -6.04397e-05 -6.04271e-05 -1.85646e-05
0.00023738 -7.12152e-05 -7.12136e-05 -1.0056e-05
0.00028178 -8.45267e-05 -8.45371e-05 -3.44772e-12
0.000245835 -7.37524e-05 -7.37496e-05 -1.00561e-05
0.000241608 -7.24838e-05 -7.24816e-05 -1.00561e-05
0.000197914 -5.93823e-05 -5.93707e-05 -1.85645e-05
0.000190869 -5.72675e-05 -5.72578e-05 -1.85644e-05
0.000266984 -8.00875e-05 -8.00984e-05 -3.04424e-12
0.000276848 -8.3047e-05 -8.30575e-05 -3.32119e-12
0.000194392 -5.83249e-05 -5.83143e-05 -1.85645e-05
0.000228926 -6.8678e-05 -6.86777e-05 -1.0056e-05
0.000271916 -8.15672e-05 -8.15779e-05 -3.1865e-12
0.00023738 -7.12152e-05 -7.12136e-05 -1.0056e-05
0.000233153 -6.99466e-05 -6.99456e-05 -1.0056e-05
0.000190869 -5.72675e-05 -5.72578e-05 -1.85644e-05
0.000183824 -5.51528e-05 -5.5145e-05 -1.85643e-05
0.000257119 -7.7128e-05 -7.71392e-05 -2.71973e-12
0.000266984 -8.00875e-05 -8.00984e-05 -3.07012e-12
0.000187347 -5.62101e-05 -5.62014e-05 -1.85644e-05
0.000220471 -6.61409e-05 -6.61417e-05 -1.00559e-05
0.000262052 -7.86077e-05 -7.86188e-05 -2.89187e-12
0.000228926 -6.8678e-05 -6.86777e-05 -1.0056e-05
0.000224699 -6.74094e-05 -6.74097e-05 -1.0056e-05
0.000183824 -5.51528e-05 -5.5145e-05 -1.85643e-05
0.00017678 -5.30381e-05 -5.30321e-05 -1.85643e-05
0.000247255 -7.41685e-05 -7.418e-05 -2.31515e-12
0.000257119 -7.7128e-05 -7.71392e-05 -2.71973e-12
0.000180302 -5.40954e-05 -5.40885e-05 -1.85643e-05
0.000212017 -6.36037e-05 -6.36056e-05 -1.00559e-05
0.000252187 -7.56482e-05 -7.56596e-05 -2.52701e-12
0.000220471 -6.61409e-05 -6.61417e-05 -1.00559e-05
0.000216244 -6.48723e-05 -6.48737e-05 -1.00559e-05
0.00017678 -5.30381e-05 -5.30321e-05 -1.85643e-05
0.000169735 -5.09234e-05 -5.09191e-05 -1.85642e-05
0.000237391 -7.12089e-05 -7.12208e-05 -1.6981e-12
0.000247255 -7.41685e-05 -7.418e-05 -2.31515e-12
0.000173257 -5.19807e-05 -5.19756e-05 -1.85642e-05
0.000203562 -6.10665e-05 -6.10696e-05 -1.00558e-05
0.000242323 -7.26887e-05 -7.27004e-05 -2.03386e-12
0.000212017 -6.36037e-05 -6.36056e-05 -1.00559e-05
0.00020779 -6.23351e-05 -6.23376e-05 -1.00559e-05
0.000169735 -5.09234e-05 -5.09191e-05 -1.85642e-05
0.00016269 -4.88087e-05 -4.88061e-05 -1.85642e-05
0.000227526 -6.82494e-05 -6.82616e-05 -1.13641e-12
0.000237391 -7.12089e-05 -7.12208e-05 -1.6981e-12
0.000166212 -4.9866e-05 -4.98626e-05 -1.85642e-05
0.000195108 -5.85294e-05 -5.85335e-05 -1.00558e-05
0.000232459 -6.97292e-05 -6.97412e-05 -1.40463e-12
0.000203562 -6.10665e-05 -6.10696e-05 -1.00558e-05
0.000199335 -5.9798e-05 -5.98016e-05 -1.00558e-05
0.00016269 -4.88087e-05 -4.88061e-05 -1.85642e-05
0.000155645 -4.66941e-05 -4.66931e-05 -1.85642e-05
0.000217662 -6.52898e-05 -6.53023e-05 1.01243e-13
0.000227526 -6.82494e-05 -6.82616e-05 -1.13641e-12
0.000159167 -4.77514e-05 -4.77496e-05 -1.85642e-05
0.000186653 -5.59923e-05 -5.59974e-05 -1.00558e-05
0.000222594 -6.67696e-05 -6.67819e-05 -5.35054e-13
0.000195108 -5.85294e-05 -5.85335e-05 -1.00558e-05
0.00019088 -5.72608e-05 -5.72655e-05 -1.00558e-05
0.000155645 -4.66941e-05 -4.66931e-05 -1.85642e-05
0.0001486 -4.45795e-05 -4.45801e-05 -1.85642e-05
0.000207797 -6.23302e-05 -6.2343e-05 9.10235e-13
0.000217662 -6.52898e-05 -6.53023e-05 7.52835e-14
0.000152122 -4.56368e-05 -4.56366e-05 -1.85642e-05
0.000178198 -5.34551e-05 -5.34613e-05 -1.00558e-05
0.00021273 -6.381e-05 -6.38227e-05 5.81205e-13
0.000186653 -5.59923e-05 -5.59974e-05 -1.00558e-05
0.000182425 -5.47237e-05 -5.47293e-05 -1.00558e-05
0.0001486 -4.45795e-05 -4.45801e-05 -1.85642e-05
0.000141554 -4.24649e-05 -4.24669e-05 -1.85642e-05
0.000197932 -5.93706e-05 -5.93837e-05 3.03613e-12
0.000207797 -6.23302e-05 -6.2343e-05 9.10235e-13
0.000145077 -4.35222e-05 -4.35235e-05 -1.85642e-05
0.000169743 -5.0918e-05 -5.09251e-05 -1.00559e-05
0.000202865 -6.08504e-05 -6.08634e-05 2.50577e-12
0.000178198 -5.34551e-05 -5.34613e-05 -1.00558e-05
0.000173971 -5.21866e-05 -5.21932e-05 -1.00559e-05
0.000141554 -4.24649e-05 -4.24669e-05 -1.85642e-05
0.000134509 -4.03504e-05 -4.03538e-05 -1.85643e-05
0.000188068 -5.64108e-05 -5.64243e-05 3.2258e-12
0.000197932 -5.93706e-05 -5.93837e-05 3.03613e-12
0.000138032 -4.14077e-05 -4.14104e-05 -1.85643e-05
0.000161288 -4.83808e-05 -4.83888e-05 -1.0056e-05
0.000193 -5.78907e-05 -5.7904e-05 2.74206e-12
0.000169743 -5.0918e-05 -5.09251e-05 -1.00559e-05
0.000165516 -4.96494e-05 -4.96569e-05 -1.0056e-05
0.000134509 -4.03504e-05 -4.03538e-05 -1.85643e-05
0.000127464 -3.82359e-05 -3.82407e-05 -1.85644e-05
0.000178202 -5.3451e-05 -5.34648e-05 3.61974e-12
0.000188068 -5.64108e-05 -5.64243e-05 3.22648e-12
0.000130987 -3.92931e-05 -3.92972e-05 -1.85644e-05
0.000152833 -4.58437e-05 -4.58525e-05 -1.00562e-05
0.000183135 -5.49309e-05 -5.49446e-05 7.33739e-12
0.000161288 -4.83808e-05 -4.83888e-05 -1.0056e-05
0.00015706 -4.71123e-05 -4.71207e-05 -1.00561e-05
0.000127464 -3.82359e-05 -3.82407e-05 -1.85644e-05
0.000120419 -3.61213e-05 -3.61275e-05 -1.85644e-05
0.000168337 -5.04911e-05 -5.05052e-05 -2.5789e-12
0.000178202 -5.3451e-05 -5.34648e-05 3.61957e-12
0.000123941 -3.71786e-05 -3.71841e-05 -1.85644e-05
0.000144378 -4.33065e-05 -4.33162e-05 -1.00563e-05
0.000173269 -5.19711e-05 -5.1985e-05 -3.69016e-12
0.000152833 -4.58437e-05 -4.58525e-05 -1.00562e-05
0.000148605 -4.45751e-05 -4.45843e-05 -1.00562e-05
0.000120419 -3.61213e-05 -3.61275e-05 -1.85644e-05
0.000113374 -3.40067e-05 -3.40145e-05 -1.8564e-05
0.00015847 -4.7531e-05 -4.75455e-05 -2.83451e-11
0.000168337 -5.04911e-05 -5.05052e-05 -2.5789e-12
0.000116896 -3.5064e-05 -3.5071e-05 -1.85643e-05
0.000135922 -4.07693e-05 -4.07799e-05 -1.00564e-05
0.000163404 -4.9011e-05 -4.90254e-05 6.47082e-12
0.000144378 -4.33065e-05 -4.33162e-05 -1.00563e-05
0.00014015 -4.20379e-05 -4.2048e-05 -1.00564e-05
0.000113374 -3.40067e-05 -3.40145e-05 -1.8564e-05
0.000106329 -3.18916e-05 -3.19019e-05 -1.85628e-05
0.000148604 -4.45708e-05 -4.45856e-05 -6.32289e-11
0.00015847 -4.7531e-05 -4.75455e-05 -2.83451e-11
0.000109852 -3.29492e-05 -3.29581e-05 -1.85636e-05
0.000127467 -3.82321e-05 -3.82436e-05 -1.0056e-05
0.000153537 -4.60509e-05 -4.60656e-05 -7.39889e-11
0.000135922 -4.07693e-05 -4.07799e-05 -1.00564e-05
0.000131695 -3.95007e-05 -3.95117e-05 -1.00562e-05
0.000106329 -3.18916e-05 -3.19019e-05 -1.85628e-05
9.9285e-05 -2.97756e-05 -2.97898e-05 -1.85596e-05
0.000138738 -4.16105e-05 -4.16259e-05 -2.51642e-10
0.000148604 -4.45708e-05 -4.45856e-05 -6.32289e-11
0.000102807 -3.08338e-05 -3.08457e-05 -1.85616e-05
0.000119013 -3.5695e-05 -3.57079e-05 -1.00545e-05
0.000143671 -4.30906e-05 -4.31058e-05 -5.05899e-11
0.000127467 -3.82321e-05 -3.82436e-05 -1.0056e-05
0.00012324 -3.69635e-05 -3.69757e-05 -1.00555e-05
9.9285e-05 -2.97756e-05 -2.97898e-05 -1.85596e-05
9.22418e-05 -2.76575e-05 -2.7679e-05 -1.85519e-05
0.000128872 -3.86509e-05 -3.86662e-05 -3.68225e-10
0.000138738 -4.16105e-05 -4.16259e-05 -2.51668e-10
9.57632e-05 -2.87169e-05 -2.87341e-05 -1.85566e-05
0.000110562 -3.31579e-05 -3.3173e-05 -1.00503e-05
0.000133805 -4.01308e-05 -4.0146e-05 -4.67677e-10
0.000119013 -3.5695e-05 -3.57079e-05 -1.00545e-05
0.000114787 -3.44264e-05 -3.44403e-05 -1.00529e-05
9.22418e-05 -2.76575e-05 -2.7679e-05 -1.85519e-05
8.51989e-05 -2.5535e-05 -2.55703e-05 -1.85355e-05
0.000119012 -3.56921e-05 -3.57087e-05 -1.33688e-09
0.000128872 -3.86509e-05 -3.86662e-05 -3.68225e-10
8.87205e-05 -2.6597e-05 -2.66244e-05 -1.85451e-05
0.000102116 -3.06213e-05 -3.06406e-05 -1.00405e-05
0.000123941 -3.71708e-05 -3.71872e-05 -3.74815e-10
0.000110562 -3.31579e-05 -3.3173e-05 -1.00503e-05
0.000106338 -3.18896e-05 -3.19063e-05 -1.00465e-05
8.51989e-05 -2.5535e-05 -2.55703e-05 -1.85355e-05
7.81581e-05 -2.34036e-05 -2.34662e-05 -1.85007e-05
0.000109163 -3.27397e-05 -3.2753e-05 -1.5215e-09
0.000119012 -3.56921e-05 -3.57087e-05 -1.33688e-09
8.16779e-05 -2.44707e-05 -2.45174e-05 -1.85214e-05
9.3681e-05 -2.80855e-05 -2.81123e-05 -1.00182e-05
0.000114087 -3.4216e-05 -3.42302e-05 -2.22672e-09
0.000102116 -3.06213e-05 -3.06406e-05 -1.00405e-05
9.7897e-05 -2.93532e-05 -2.93759e-05 -1.00313e-05
7.81581e-05 -2.34036e-05 -2.34662e-05 -1.85007e-05
7.1114e-05 -2.12563e-05 -2.13676e-05 -1.84345e-05
9.93494e-05 -2.97918e-05 -2.98104e-05 -5.70911e-09
0.000109163 -3.27397e-05 -3.2753e-05 -1.52153e-09
7.46375e-05 -2.23329e-05 -2.24163e-05 -1.84726e-05
8.52714e-05 -2.55517e-05 -2.55941e-05 -9.97257e-06
0.000104249 -3.12617e-05 -3.12802e-05 -1.57412e-09
9.3681e-05 -2.80855e-05 -2.81123e-05 -1.00182e-05
8.94713e-05 -2.68184e-05 -2.68512e-05 -9.99984e-06
7.1114e-05 -2.12563e-05 -2.13676e-05 -1.84345e-05
6.4071e-05 -1.90787e-05 -1.92824e-05 -1.83057e-05
8.95908e-05 -2.68789e-05 -2.68765e-05 -5.00879e-09
9.93494e-05 -2.97918e-05 -2.98104e-05 -5.70911e-09
6.75907e-05 -2.01717e-05 -2.03225e-05 -1.83809e-05
7.69015e-05 -2.30214e-05 -2.30914e-05 -9.88114e-06
9.44636e-05 -2.83365e-05 -2.83402e-05 -9.16442e-09
8.52714e-05 -2.55517e-05 -2.55941e-05 -9.97257e-06
8.10814e-05 -2.42856e-05 -2.43411e-05 -9.93337e-06
6.4071e-05 -1.90787e-05 -1.92824e-05 -1.83057e-05
5.70001e-05 -1.68542e-05 -1.72054e-05 -1.80831e-05
7.9987e-05 -2.39807e-05 -2.40027e-05 -2.11146e-08
8.95908e-05 -2.68789e-05 -2.68765e-05 -5.00879e-09
6.05443e-05 -1.79759e-05 -1.82436e-05 -1.82082e-05
6.86214e-05 -2.05e-05 -2.06234e-05 -9.70797e-06
8.47566e-05 -2.54109e-05 -2.54339e-05 -4.39767e-09
7.69015e-05 -2.30214e-05 -2.30914e-05 -9.88114e-06
7.2744e-05 -2.17603e-05 -2.18501e-05 -9.81104e-06
5.70001e-05 -1.68542e-05 -1.72054e-05 -1.80831e-05
4.99117e-05 -1.45415e-05 -1.51586e-05 -1.76873e-05
7.06091e-05 -2.12434e-05 -2.11567e-05 -1.32865e-08
7.9987e-05 -2.39807e-05 -2.40027e-05 -2.11146e-08
5.34516e-05 -1.57066e-05 -1.61764e-05 -1.79146e-05
6.04584e-05 -1.79871e-05 -1.8202e-05 -9.39606e-06
7.52739e-05 -2.26209e-05 -2.25656e-05 -3.49204e-08
6.86214e-05 -2.05e-05 -2.06234e-05 -9.70797e-06
6.4528e-05 -1.92396e-05 -1.94093e-05 -9.56789e-06
4.99117e-05 -1.45415e-05 -1.51586e-05 -1.76873e-05
4.26721e-05 -1.21304e-05 -1.30893e-05 -1.7088e-05
6.17951e-05 -1.85192e-05 -1.85468e-05 -6.98938e-08
7.06091e-05 -2.12434e-05 -2.11567e-05 -1.32865e-08
4.63341e-05 -1.33616e-05 -1.41311e-05 -1.74134e-05
5.25647e-05 -1.55056e-05 -1.58825e-05 -8.84045e-06
6.60852e-05 -1.97993e-05 -1.98368e-05 -3.92167e-09
6.04584e-05 -1.79871e-05 -1.8202e-05 -9.39606e-06
5.64561e-05 -1.67476e-05 -1.70179e-05 -9.17351e-06
4.26721e-05 -1.21304e-05 -1.30893e-05 -1.7088e-05
3.529e-05 -9.51953e-06 -1.10445e-05 -1.61666e-05
5.3779e-05 -1.64742e-05 -1.59878e-05 -2.50644e-08
6.17951e-05 -1.85192e-05 -1.85468e-05 -6.98938e-08
3.89746e-05 -1.08258e-05 -1.20638e-05 -1.6678e-05
4.48988e-05 -1.30201e-05 -1.36623e-05 -7.96486e-06
5.77044e-05 -1.7556e-05 -1.72065e-05 -1.30464e-07
5.25647e-05 -1.55056e-05 -1.58825e-05 -8.84045e-06
4.87302e-05 -1.42512e-05 -1.47767e-05 -8.41731e-06
3.529e-05 -9.51953e-06 -1.10445e-05 -1.61666e-05
2.72366e-05 -6.91965e-06 -8.70724e-06 -1.51728e-05
4.74949e-05 -1.42263e-05 -1.4258e-05 -1.92164e-07
5.3779e-05 -1.64742e-05 -1.59878e-05 -2.50644e-08
3.14375e-05 -8.26146e-06 -9.93261e-06 -1.56516e-05
3.78514e-05 -1.06169e-05 -1.16719e-05 -6.52676e-06
5.02866e-05 -1.50165e-05 -1.51158e-05 5.55304e-08
4.48988e-05 -1.30201e-05 -1.36623e-05 -7.96486e-06
4.1222e-05 -1.18345e-05 -1.25947e-05 -7.40841e-06
2.72366e-05 -6.91965e-06 -8.70724e-06 -1.51728e-05
1.85562e-05 -4.33733e-06 -6.0938e-06 -1.45188e-05
4.39824e-05 -1.46018e-05 -1.25917e-05 3.03192e-07
4.74949e-05 -1.42263e-05 -1.4258e-05 -1.92164e-07
2.28788e-05 -5.44945e-06 -7.46973e-06 -1.4741e-05
3.05114e-05 -8.02328e-06 -9.63777e-06 -4.95587e-06
4.53961e-05 -1.47823e-05 -1.31202e-05 -4.22402e-07
3.78514e-05 -1.06169e-05 -1.16719e-05 -6.52676e-06
3.44076e-05 -9.30847e-06 -1.07568e-05 -5.56957e-06
1.85562e-05 -4.33733e-06 -6.0938e-06 -1.45188e-05
8.43924e-06 -4.56284e-06 -1.66131e-06 -1.69864e-05
4.66363e-05 -1.27462e-05 -1.45244e-05 1.84856e-06
4.39824e-05 -1.46018e-05 -1.25917e-05 3.03192e-07
1.38744e-05 -4.06488e-06 -4.20409e-06 -1.50941e-05
2.26879e-05 -5.85772e-06 -7.21293e-06 -3.96077e-06
4.41102e-05 -1.23877e-05 -1.35954e-05 1.31376e-06
3.05114e-05 -8.02328e-06 -9.63777e-06 -4.95587e-06
2.64944e-05 -6.8819e-06 -8.40534e-06 -4.58005e-06
8.43924e-06 -4.56284e-06 -1.66131e-06 -1.69864e-05
3.67072e-06 -1.62498e-05 5.39104e-06 -2.61881e-05
6.35874e-05 -1.29628e-05 -2.16963e-05 1.44905e-05
4.66363e-05 -1.27462e-05 -1.45244e-05 1.84856e-06
4.34118e-06 -6.77522e-06 1.04316e-06 -2.02594e-05
6.30343e-06 -1.03444e-05 1.73185e-06 -1.50046e-05
5.27367e-05 -1.76911e-05 -1.50195e-05 3.88735e-06
2.26879e-05 -5.85772e-06 -7.21293e-06 -3.96077e-06
1.6741e-05 -5.69195e-06 -4.73533e-06 -6.04169e-06
3.67072e-06 -1.62498e-05 5.39104e-06 -2.61881e-05
2.27906e-05 -7.1376e-05 2.08223e-05 -2.66798e-05
3.91727e-05 -9.43149e-05 2.36324e-05 -7.16496e-05
6.35874e-05 -1.29628e-05 -2.16963e-05 1.44905e-05
8.97234e-06 -3.81347e-05 1.24981e-05 -3.09846e-05
2.06275e-05 -8.77854e-05 2.8782e-05 -4.28987e-05
6.40895e-05 -4.37419e-06 -2.55923e-05 6.63282e-06
6.30343e-06 -1.03444e-05 1.73185e-06 -1.50046e-05
3.54317e-06 -2.89077e-05 1.08705e-05 -2.8172e-05
      </DataArray> 
    </PointData>
    <CellData>
      <DataArray type="Float64" NumberOfComponents="1" Name="Process" format="ascii">
3
3
3
3
3
3
3
3
3
3
3
3
3
3
3
3
3
3
3
3
3
3
3
3
3
2
2
2
2
2
2
2
2
2
2
2
2
2
2
2
2
2
2
2
2
2
2
2
2
1
1
1
1
1
1
1
1
1
1
1
1
1
1
1
1
1
1
1
1
1
1
1
1
1
0
0
0
0
0
0
0
0
0
0
0
0
0
0
0
0
0
0
0
0
0
0
0
0
0
5
5
5
5
5
5
5
5
5
5
5
5
5
5
5
5
5
5
5
5
5
5
5
5
5
4
4
4
4
4
4
4
4
4
4
4
4
4
4
4
4
4
4
4
4
4
4
4
4
7
7
7
7
7
7
7
7
7
7
7
7
7
7
7
7
7
7
7
7
7
7
7
7
7
6
6
6
6
6
6
6
6
6
6
6
6
6
6
6
6
6
6
6
6
6
6
6
6
3
3
3
3
3
3
3
3
3
3
3
3
3
3
3
3
3
3
3
3
3
3
3
3
3
2
2
2
2
2
2
2
2
2
2
2
2
2
2
2
2
2
2
2
2
2
2
2
2
1
1
1
1
1
1
1
1
1
1
1
1
1
1
1
1
1
1
1
1
1
1
1
1
1
0
0
0
0
0
0
0
0
0
0
0
0
0
0
0
0
0
0
0
0
0
0
0
0
0
5
5
5
5
5
5
5
5
5
5
5
5
5
5
5
5
5
5
5
5
5
5
5
5
5
4
4
4
4
4
4
4
4
4
4
4
4
4
4
4
4
4
4
4
4
4
4
4
4
7
7
7
7
7
7
7
7
7
7
7
7
7
7
7
7
7
7
7
7
7
7
7
7
7
6
6
6
6
6
6
6
6
6
6
6
6
6
6
6
6
6
6
6
6
6
6
6
6
3
3
3
3
3
3
3
3
3
3
3
3
3
3
3
3
3
3
3
3
3
3
3
3
3
2
2
2
2
2
2
2
2
2
2
2
2
2
2
2
2
2
2
2
2
2
2
2
2
1
1
1
1
1
1
1
1
1
1
1
1
1
1
1
1
1
1
1
1
1
1
1
1
1
0
0
0
0
0
0
0
0
0
0
0
0
0
0
0
0
0
0
0
0
0
0
0
0
0
5
5
5
5
5
5
5
5
5
5
5
5
5
5
5
5
5
5
5
5
5
5
5
5
5
4
4
4
4
4
4
4
4
4
4
4
4
4
4
4
4
4
4
4
4
4
4
4
4
7
7
7
7
7
7
7
7
7
7
7
7
7
7
7
7
7
7
7
7
7
7
7
7
7
6
6
6
6
6
6
6
6
6
6
6
6
6
6
6
6
6
6
6
6
6
6
6
6
3
3
3
3
3
3
3
3
3
3
3
3
3
3
3
3
3
3
3
3
3
3
3
3
3
2
2
2
2
2
2
2
2
2
2
2
2
2
2
2
2
2
2
2
2
2
2
2
2
1
1
1
1
1
1
1
1
1
1
1
1
1
1
1
1
1
1
1
1
1
1
1
1
1
0
0
0
0
0
0
0
0
0
0
0
0
0
0
0
0
0
0
0
0
0
0
0
0
0
5
5
5
5
5
5
5
5
5
5
5
5
5
5
5
5
5
5
5
5
5
5
5
5
5
4
4
4
4
4
4
4
4
4
4
4
4
4
4
4
4
4
4
4
4
4
4
4
4
7
7
7
7
7
7
7
7
7
7
7
7
7
7
7
7
7
7
7
7
7
7
7
7
7
6
6
6
6
6
6
6
6
6
6
6
6
6
6
6
6
6
6
6
6
6
6
6
6
3
3
3
3
3
3
3
3
3
3
3
3
3
3
3
3
3
3
3
3
3
3
3
3
3
2
2
2
2
2
2
2
2
2
2
2
2
2
2
2
2
2
2
2
2
2
2
2
2
1
1
1
1
1
1
1
1
1
1
1
1
1
1
1
1
1
1
1
1
1
1
1
1
1
0
0
0
0
0
0
0
0
0
0
0
0
0
0
0
0
0
0
0
0
0
0
0
0
0
5
5
5
5
5
5
5
5
5
5
5
5
5
5
5
5
5
5
5
5
5
5
5
5
5
4
4
4
4
4
4
4
4
4
4
4
4
4
4
4
4
4
4
4
4
4
4
4
4
7
7
7
7
7
7
7
7
7
7
7
7
7
7
7
7
7
7
7
7
7
7
7
7
7
6
6
6
6
6
6
6
6
6
6
6
6
6
6
6
6
6
6
6
6
6
6
6
6
3
3
3
3
3
3
3
3
3
3
3
3
3
3
3
3
3
3
3
3
3
3
3
3
3
2
2
2
2
2
2
2
2
2
2
2
2
2
2
2
2
2
2
2
2
2
2
2
2
1
1
1
1
1
1
1
1
1
1
1
1
1
1
1
1
1
1
1
1
1
1
1
1
1
0
0
0
0
0
0
0
0
0
0
0
0
0
0
0
0
0
0
0
0
0
0
0
0
0
5
5
5
5
5
5
5
5
5
5
5
5
5
5
5
5
5
5
5
5
5
5
5
5
5
4
4
4
4
4
4
4
4
4
4
4
4
4
4
4
4
4
4
4
4
4
4
4
4
7
7
7
7
7
7
7
7
7
7
7
7
7
7
7
7
7
7
7
7
7
7
7
7
7
6
6
6
6
6
6
6
6
6
6
6
6
6
6
6
6
6
6
6
6
6
6
6
6
3
3
3
3
3
3
3
3
3
3
3
3
3
3
3
3
3
3
3
3
3
3
3
3
3
2
2
2
2
2
2
2
2
2
2
2
2
2
2
2
2
2
2
2
2
2
2
2
2
1
1
1
1
1
1
1
1
1
1
1
1
1
1
1
1
1
1
1
1
1
1
1
1
1
0
0
0
0
0
0
0
0
0
0
0
0
0
0
0
0
0
0
0
0
0
0
0
0
0
5
5
5
5
5
5
5
5
5
5
5
5
5
5
5
5
5
5
5
5
5
5
5
5
5
4
4
4
4
4
4
4
4
4
4
4
4
4
4
4
4
4
4
4
4
4
4
4
4
7
7
7
7
7
7
7
7
7
7
7
7
7
7
7
7
7
7
7
7
7
7
7
7
7
6
6
6
6
6
6
6
6
6
6
6
6
6
6
6
6
6
6
6
6
6
6
6
6
      </DataArray> 
    </CellData>
  </Piece>
  </UnstructuredGrid>
</VTKFile>
