<?xml version="1.0"?>
<VTKFile type="UnstructuredGrid">
  <UnstructuredGrid>
  <Piece NumberOfPoints="400"  NumberOfCells="25">
    <Points>
      <DataArray type="Float64" NumberOfComponents="3" format="ascii">
0 15 0
6.28889 13.7605 0
9.1404 23.2674 0
0 25 0
2.06943 14.7607 0
4.17142 14.3533 0
7.30115 17.0251 0
8.21793 20.1963 0
3.13591 24.6404 0
6.18627 24.0664 0
0 18.3333 0
0 21.6667 0
2.4635 18.1701 0
4.89942 17.718 0
2.77158 21.462 0
5.52239 20.9553 0
6.28889 13.7605 0
12.5907 10.8879 0
17.3548 19.6298 0
9.1404 23.2674 0
8.40574 12.9723 0
10.51 12.0064 0
14.2341 13.8588 0
15.7933 16.785 0
11.989 22.2407 0
14.728 21.0157 0
7.30115 17.0251 0
8.21793 20.1963 0
9.66205 16.1348 0
11.9753 15.0724 0
10.8298 19.2301 0
13.3542 18.0851 0
12.5907 10.8879 0
18.6376 6.80507 0
24.593 14.7976 0
17.3548 19.6298 0
14.6389 9.63929 0
16.6541 8.27449 0
20.6649 9.49872 0
22.6316 12.1752 0
19.8688 18.1174 0
22.2782 16.5004 0
14.2341 13.8588 0
15.7933 16.785 0
16.4334 12.514 0
18.5756 11.0552 0
18.1498 15.3531 0
20.4277 13.8098 0
18.6376 6.80507 0
24.4259 1.89183 0
31.0656 9.34055 0
24.593 14.7976 0
20.5915 5.2429 0
22.5195 3.60079 0
26.6656 4.38884 0
28.8632 6.88525 0
26.8231 13.027 0
28.9778 11.2033 0
20.6649 9.49872 0
22.6316 12.1752 0
22.7057 7.86036 0
24.7039 6.15299 0
24.7665 10.4676 0
26.8408 8.7003 0
24.4259 1.89183 0
30.0689 -3.52596 0
37.0223 3.63485 0
31.0656 9.34055 0
26.3154 0.128324 0
28.1942 -1.68044 0
32.3995 -1.13689 0
34.7052 1.26181 0
33.0957 7.45181 0
35.0779 5.54692 0
26.6656 4.38884 0
28.8632 6.88525 0
28.5972 2.57957 0
30.506 0.734675 0
30.8426 5.03393 0
32.7872 3.15628 0
30.0689 -3.52596 0
35.7345 -9.19797 0
42.718 -2.06251 0
37.0223 3.63485 0
31.9459 -5.39971 0
33.8322 -7.29321 0
38.0627 -6.82685 0
40.3795 -4.43747 0
38.9384 1.72431 0
40.8345 -0.177207 0
32.3995 -1.13689 0
34.7052 1.26181 0
34.2853 -3.02635 0
36.1706 -4.92564 0
36.6047 -0.640314 0
38.4936 -2.54249 0
35.7345 -9.19797 0
41.604 -14.8978 0
48.366 -7.55296 0
42.718 -2.06251 0
37.6596 -11.1056 0
39.614 -13.0082 0
43.8484 -12.4657 0
46.0921 -10.0083 0
44.5966 -3.92455 0
46.477 -5.75682 0
38.0627 -6.82685 0
40.3795 -4.43747 0
39.9687 -8.72219 0
41.8951 -10.6042 0
42.2702 -6.31809 0
44.1723 -8.17735 0
41.604 -14.8978 0
47.8454 -20.4078 0
54.1419 -12.6619 0
48.366 -7.55296 0
43.6357 -16.7666 0
45.7145 -18.6062 0
49.9271 -17.8513 0
52.0158 -15.2619 0
50.27 -9.30665 0
52.1938 -11.0117 0
43.8484 -12.4657 0
46.0921 -10.0083 0
45.8347 -14.2992 0
47.8593 -16.0969 0
48.036 -11.804 0
50.009 -13.5575 0
47.8454 -20.4078 0
54.5921 -25.4975 0
60.1687 -17.2215 0
54.1419 -12.6619 0
50.0331 -22.163 0
52.2811 -23.8626 0
56.4295 -22.7739 0
58.2786 -20.0102 0
56.1185 -14.2511 0
58.1266 -15.773 0
49.9271 -17.8513 0
52.0158 -15.2619 0
52.0426 -19.5543 0
54.2091 -21.1979 0
54.061 -16.9104 0
56.1477 -18.4955 0
54.5921 -25.4975 0
61.9201 -29.9194 0
66.5149 -21.0642 0
60.1687 -17.2215 0
56.9687 -27.0582 0
59.4114 -28.5354 0
63.4295 -27.0128 0
64.9521 -24.0585 0
62.2471 -18.5902 0
64.3624 -19.8731 0
56.4295 -22.7739 0
58.2786 -20.0102 0
58.706 -24.274 0
61.0393 -25.6898 0
60.4559 -21.4471 0
62.6804 -22.799 0
61.9201 -29.9194 0
69.8265 -33.419 0
73.1868 -24.0291 0
66.5149 -21.0642 0
64.4942 -31.2007 0
67.1309 -32.3702 0
70.9277 -30.3433 0
72.0405 -27.2135 0
68.7042 -22.1575 0
70.9289 -23.1476 0
63.4295 -27.0128 0
64.9521 -24.0585 0
65.876 -28.2346 0
68.3765 -29.3474 0
67.2708 -25.2186 0
69.6345 -26.2725 0
69.8265 -33.419 0
78.2166 -35.7605 0
80.1305 -25.9754 0
73.1868 -24.0291 0
72.577 -34.3384 0
75.376 -35.1212 0
78.8428 -32.5601 0
79.4762 -29.3006 0
75.4755 -24.7969 0
77.7914 -25.447 0
70.9277 -30.3433 0
72.0405 -27.2135 0
73.5263 -31.2149 0
76.1667 -31.9558 0
74.486 -28.0353 0
76.9663 -28.7326 0
78.2166 -35.7605 0
86.9076 -36.7643 0
87.2399 -26.8006 0
80.1305 -25.9754 0
81.0914 -36.25 0
83.9915 -36.5857 0
87.0163 -33.5078 0
87.1259 -30.1897 0
82.4883 -26.3785 0
84.8599 -26.6542 0
78.8428 -32.5601 0
79.4762 -29.3006 0
81.5483 -33.0224 0
84.2755 -33.3392 0
82.0105 -29.7345 0
84.5626 -30.0317 0
86.9076 -36.7643 0
95.6556 -36.3434 0
94.3752 -26.4564 0
87.2399 -26.8006 0
89.8302 -36.7831 0
92.7495 -36.6425 0
95.2371 -33.1114 0
94.8128 -29.8186 0
89.6228 -26.8163 0
92.0031 -26.7014 0
87.0163 -33.5078 0
87.1259 -30.1897 0
89.7624 -33.5257 0
92.5056 -33.3933 0
89.6934 -30.2067 0
92.2581 -30.0827 0
95.6556 -36.3434 0
104.203 -34.5231 0
101.389 -24.957 0
94.3752 -26.4564 0
98.539 -35.8873 0
101.391 -35.2789 0
103.282 -31.393 0
102.35 -28.2056 0
96.7336 -26.0823 0
99.0733 -25.5816 0
95.2371 -33.1114 0
94.8128 -29.8186 0
97.9486 -32.6814 0
100.633 -32.1072 0
97.3505 -29.4156 0
99.8647 -28.8767 0
104.203 -34.5231 0
112.327 -31.4353 0
108.153 -22.3765 0
101.389 -24.957 0
106.966 -33.6255 0
109.676 -32.5936 0
110.958 -28.4661 0
109.575 -25.4454 0
103.677 -24.2118 0
105.932 -23.3501 0
103.282 -31.393 0
102.35 -28.2056 0
105.889 -30.5437 0
108.45 -29.5657 0
104.799 -27.4064 0
107.209 -26.4844 0
112.327 -31.4353 0
119.883 -27.2879 0
114.582 -18.8356 0
108.153 -22.3765 0
114.913 -30.1588 0
117.433 -28.7731 0
118.14 -24.5115 0
116.382 -21.6903 0
110.336 -21.2958 0
112.479 -20.1136 0
110.958 -28.4661 0
109.575 -25.4454 0
113.411 -27.2518 0
115.806 -25.9309 0
111.894 -24.2955 0
114.163 -23.0414 0
119.883 -27.2879 0
126.818 -22.3274 0
120.645 -14.4853 0
114.582 -18.8356 0
122.264 -25.7124 0
124.575 -24.0559 0
124.783 -19.744 0
122.735 -17.1241 0
116.643 -17.4676 0
118.664 -16.0156 0
118.14 -24.5115 0
116.382 -21.6903 0
120.414 -23.0016 0
122.628 -21.4097 0
118.55 -20.249 0
120.667 -18.7246 0
126.818 -22.3274 0
133.166 -16.8014 0
126.375 -9.48495 0
120.645 -14.4853 0
128.995 -20.5362 0
131.11 -18.6912 0
130.919 -14.3851 0
128.664 -11.9375 0
122.589 -12.8825 0
124.497 -11.2137 0
124.783 -19.744 0
122.735 -17.1241 0
126.88 -18.0129 0
128.925 -16.2241 0
124.754 -15.4546 0
126.73 -13.7233 0
133.166 -16.8014 0
139.031 -10.9455 0
131.861 -3.9996 0
126.375 -9.48495 0
135.168 -14.8755 0
137.121 -12.9211 0
136.648 -8.64252 0
134.268 -6.31875 0
128.225 -7.7026 0
130.052 -5.87229 0
130.919 -14.3851 0
128.664 -11.9375 0
132.867 -12.5036 0
134.775 -10.5869 0
130.562 -10.1044 0
132.429 -8.2296 0
139.031 -10.9455 0
144.564 -4.96831 0
137.239 1.81624 0
131.861 -3.9996 0
140.904 -8.95622 0
142.746 -6.96115 0
142.121 -2.71313 0
139.689 -0.437611 0
133.656 -2.09014 0
135.446 -0.14961 0
136.648 -8.64252 0
134.268 -6.31875 0
138.493 -6.67763 0
140.315 -4.69897 0
136.087 -4.37782 0
137.892 -2.41466 0
144.564 -4.96831 0
149.944 0.921147 0
142.709 7.79475 0
137.239 1.81624 0
146.366 -2.98554 0
148.157 -1.02005 0
147.515 3.21716 0
145.116 5.51566 0
139.043 3.80117 0
140.865 5.79693 0
142.121 -2.71313 0
139.689 -0.437611 0
143.917 -0.726862 0
145.712 1.25243 0
141.487 1.5458 0
143.293 3.53136 0
149.944 0.921147 0
155.357 6.51815 0
148.479 13.7404 0
142.709 7.79475 0
151.734 2.83064 0
153.535 4.69943 0
153.038 8.93993 0
150.76 11.3696 0
144.585 9.7869 0
146.504 11.7697 0
147.515 3.21716 0
145.116 5.51566 0
149.334 5.15944 0
151.173 7.07016 0
146.963 7.49316 0
148.843 9.44985 0
155.357 6.51815 0
160.939 11.5585 0
154.828 19.385 0
148.479 13.7404 0
157.206 8.27662 0
159.071 9.96146 0
158.875 14.2237 0
156.863 16.8308 0
150.523 15.6901 0
152.639 17.585 0
153.038 8.93993 0
150.76 11.3696 0
154.934 10.7598 0
156.874 12.5232 0
152.723 13.2394 0
154.751 15.0588 0
160.939 11.5585 0
166.962 15 0
161.37 25 0
154.828 19.385 0
162.817 13.0284 0
164.789 14.2307 0
165.445 18.3333 0
163.461 21.6667 0
157.074 21.0939 0
159.29 22.8911 0
158.875 14.2237 0
156.863 16.8308 0
160.954 15.8347 0
163.136 17.2476 0
159.064 18.5498 0
161.29 20.1774 0
      </DataArray>
    </Points>
    <Cells>
      <DataArray type="Int32" Name="connectivity" format="ascii">
0 1 2 3 4 5 6 7 8 9 10 11 12 13 14 15 
16 17 18 19 20 21 22 23 24 25 26 27 28 29 30 31 
32 33 34 35 36 37 38 39 40 41 42 43 44 45 46 47 
48 49 50 51 52 53 54 55 56 57 58 59 60 61 62 63 
64 65 66 67 68 69 70 71 72 73 74 75 76 77 78 79 
80 81 82 83 84 85 86 87 88 89 90 91 92 93 94 95 
96 97 98 99 100 101 102 103 104 105 106 107 108 109 110 111 
112 113 114 115 116 117 118 119 120 121 122 123 124 125 126 127 
128 129 130 131 132 133 134 135 136 137 138 139 140 141 142 143 
144 145 146 147 148 149 150 151 152 153 154 155 156 157 158 159 
160 161 162 163 164 165 166 167 168 169 170 171 172 173 174 175 
176 177 178 179 180 181 182 183 184 185 186 187 188 189 190 191 
192 193 194 195 196 197 198 199 200 201 202 203 204 205 206 207 
208 209 210 211 212 213 214 215 216 217 218 219 220 221 222 223 
224 225 226 227 228 229 230 231 232 233 234 235 236 237 238 239 
240 241 242 243 244 245 246 247 248 249 250 251 252 253 254 255 
256 257 258 259 260 261 262 263 264 265 266 267 268 269 270 271 
272 273 274 275 276 277 278 279 280 281 282 283 284 285 286 287 
288 289 290 291 292 293 294 295 296 297 298 299 300 301 302 303 
304 305 306 307 308 309 310 311 312 313 314 315 316 317 318 319 
320 321 322 323 324 325 326 327 328 329 330 331 332 333 334 335 
336 337 338 339 340 341 342 343 344 345 346 347 348 349 350 351 
352 353 354 355 356 357 358 359 360 361 362 363 364 365 366 367 
368 369 370 371 372 373 374 375 376 377 378 379 380 381 382 383 
384 385 386 387 388 389 390 391 392 393 394 395 396 397 398 399 
      </DataArray>
      <DataArray type="Int32" Name="offsets" format="ascii">
16
32
48
64
80
96
112
128
144
160
176
192
208
224
240
256
272
288
304
320
336
352
368
384
400
      </DataArray>
      <DataArray type="UInt8" Name="types" format="ascii">
70
70
70
70
70
70
70
70
70
70
70
70
70
70
70
70
70
70
70
70
70
70
70
70
70
      </DataArray>
    </Cells>
    <PointData>
      <DataArray type="Float64" NumberOfComponents="2" Name="Displacement" format="ascii">
0 0
-1.71111 -1.23949
1.1404 -1.73258
0 0
-0.597241 -0.239273
-1.16191 -0.646716
-0.69885 -1.30819
0.217935 -1.4704
0.469245 -0.359625
0.852934 -0.933584
0 0
0 0
-0.20317 -0.163235
-0.433918 -0.615285
0.104908 -0.204675
0.189055 -0.71134
-1.71111 -1.23949
-3.40934 -4.11213
1.3548 -5.37019
1.1404 -1.73258
-2.26093 -2.02773
-2.82335 -2.99358
-1.76588 -4.47455
-0.20666 -4.88167
1.32232 -2.7593
1.39467 -3.98431
-0.69885 -1.30819
0.217935 -1.4704
-1.00461 -2.19851
-1.35801 -3.2609
0.16317 -2.43653
0.0208884 -3.58158
-3.40934 -4.11213
-5.3624 -8.19493
0.592954 -10.2024
1.3548 -5.37019
-4.02777 -5.36071
-4.67928 -6.72551
-3.33511 -8.83462
-1.36842 -9.49149
1.20218 -6.88257
0.944838 -8.49957
-1.76588 -4.47455
-0.20666 -4.88167
-2.23323 -5.81935
-2.7577 -7.27817
-0.516853 -6.31359
-0.905595 -7.85682
-5.3624 -8.19493
-7.57412 -13.1082
-0.934376 -15.6594
0.592954 -10.2024
-6.07521 -9.7571
-6.81388 -11.3992
-5.33438 -13.9445
-3.13679 -14.7814
0.156477 -11.973
-0.355566 -13.7967
-3.33511 -8.83462
-1.36842 -9.49149
-3.96095 -10.473
-4.62941 -12.1803
-1.90012 -11.1991
-2.49255 -12.9664
-7.57412 -13.1082
-9.93115 -18.526
-2.97773 -21.3651
-0.934376 -15.6594
-8.35125 -14.8717
-9.13911 -16.6804
-7.60051 -19.4702
-5.29479 -20.4049
-1.57094 -17.5482
-2.25542 -19.4531
-5.33438 -13.9445
-3.13679 -14.7814
-6.06947 -15.7538
-6.82737 -17.5987
-3.82408 -16.6327
-4.54613 -18.5104
-9.93115 -18.526
-12.2655 -24.198
-5.28197 -27.0625
-2.97773 -21.3651
-10.7208 -20.3997
-11.5012 -22.2932
-9.93725 -25.1602
-7.62046 -26.1041
-3.72822 -23.2757
-4.49885 -25.1772
-7.60051 -19.4702
-5.29479 -20.4049
-8.38138 -21.3597
-9.1627 -23.259
-6.06195 -22.307
-6.83977 -24.2092
-12.2655 -24.198
-14.396 -29.8978
-7.63401 -32.553
-5.28197 -27.0625
-13.0071 -26.1056
-13.7193 -28.0082
-12.1516 -30.799
-9.90786 -31.675
-6.0701 -28.9246
-6.85636 -30.7568
-9.93725 -25.1602
-7.62046 -26.1041
-10.6979 -27.0555
-11.4382 -28.9376
-8.39645 -27.9848
-9.16106 -29.844
-14.396 -29.8978
-16.1546 -35.4078
-9.8581 -37.6619
-7.63401 -32.553
-15.031 -31.7666
-15.6189 -33.6062
-14.0729 -36.1846
-11.9842 -36.9286
-8.3967 -34.3066
-9.13956 -36.0117
-12.1516 -30.799
-9.90786 -31.675
-12.8319 -32.6325
-13.474 -34.4303
-10.6307 -33.4706
-11.3244 -35.2242
-16.1546 -35.4078
-17.4079 -40.4975
-11.8313 -42.2215
-9.8581 -37.6619
-16.6335 -37.163
-17.0523 -38.8626
-15.5705 -41.1073
-13.7214 -41.6769
-10.5481 -39.2511
-11.2067 -40.773
-14.0729 -36.1846
-11.9842 -36.9286
-14.624 -37.8877
-15.1242 -39.5313
-12.6056 -38.577
-13.1856 -40.1622
-17.4079 -40.4975
-18.0799 -44.9194
-13.4851 -46.0642
-11.8313 -42.2215
-17.6979 -42.0582
-17.922 -43.5354
-16.5705 -45.3461
-15.0479 -45.7252
-12.4195 -43.5902
-12.9709 -44.8731
-15.5705 -41.1073
-13.7214 -41.6769
-15.9606 -42.6073
-16.294 -44.0231
-14.2107 -43.1138
-14.653 -44.4657
-18.0799 -44.9194
-18.1735 -48.419
-14.8132 -49.0291
-13.4851 -46.0642
-18.1725 -46.2007
-18.2025 -47.3702
-17.0723 -48.6767
-15.9595 -48.8801
-13.9624 -47.1575
-14.4045 -48.1476
-16.5705 -45.3461
-15.0479 -45.7252
-16.7907 -46.568
-16.9569 -47.6808
-15.3958 -46.8853
-15.6988 -47.9391
-18.1735 -48.419
-17.7834 -50.7605
-15.8695 -50.9754
-14.8132 -49.0291
-18.0897 -49.3384
-17.9573 -50.1212
-17.1572 -50.8934
-16.5238 -50.9672
-15.1912 -49.7969
-15.5419 -50.447
-17.0723 -48.6767
-15.9595 -48.8801
-17.1403 -49.5482
-17.1666 -50.2891
-16.1806 -49.7019
-16.3671 -50.3993
-17.7834 -50.7605
-17.0924 -51.7643
-16.7601 -51.8006
-15.8695 -50.9754
-17.5753 -51.25
-17.3418 -51.5857
-16.9837 -51.8411
-16.8741 -51.8564
-16.1783 -51.3785
-16.4734 -51.6542
-17.1572 -50.8934
-16.5238 -50.9672
-17.1183 -51.3557
-17.0578 -51.6726
-16.6562 -51.4012
-16.7707 -51.6984
-17.0924 -51.7643
-16.3444 -51.3434
-17.6248 -51.4564
-16.7601 -51.8006
-16.8365 -51.7831
-16.5838 -51.6425
-16.7629 -51.4447
-17.1872 -51.4853
-17.0439 -51.8163
-17.3302 -51.7014
-16.9837 -51.8411
-16.8741 -51.8564
-16.9042 -51.859
-16.8278 -51.7266
-16.9732 -51.8733
-17.0752 -51.7494
-16.3444 -51.3434
-15.7974 -49.5231
-18.6108 -49.957
-17.6248 -51.4564
-16.1277 -50.8873
-15.9426 -50.2789
-16.7183 -49.7263
-17.6505 -49.8723
-17.933 -51.0823
-18.2601 -50.5816
-16.7629 -51.4447
-17.1872 -51.4853
-16.7181 -51.0148
-16.7008 -50.4405
-17.3162 -51.0822
-17.4686 -50.5433
-15.7974 -49.5231
-15.6731 -46.4353
-19.8469 -47.3765
-18.6108 -49.957
-15.7003 -48.6255
-15.657 -47.5936
-17.0418 -46.7994
-18.425 -47.1121
-18.9899 -49.2118
-19.4009 -48.3501
-16.7183 -49.7263
-17.6505 -49.8723
-16.7776 -48.877
-16.8838 -47.8991
-17.8676 -49.073
-18.1244 -48.151
-15.6731 -46.4353
-16.1168 -42.2879
-21.418 -43.8356
-19.8469 -47.3765
-15.7536 -45.1588
-15.9008 -43.7731
-17.8597 -42.8448
-19.6179 -43.3569
-20.3308 -46.2958
-20.8541 -45.1136
-17.0418 -46.7994
-18.425 -47.1121
-17.2557 -45.5852
-17.5278 -44.2643
-18.7731 -45.9622
-19.1702 -44.7081
-16.1168 -42.2879
-17.1819 -37.3274
-23.3547 -39.4853
-21.418 -43.8356
-16.403 -40.7124
-16.7585 -39.0559
-19.2174 -38.0773
-21.2654 -38.7908
-22.0234 -42.4676
-22.6693 -41.0156
-17.8597 -42.8448
-19.6179 -43.3569
-18.2526 -41.3349
-18.7056 -39.743
-20.1168 -41.9157
-20.6663 -40.3913
-17.1819 -37.3274
-18.8338 -31.8014
-25.6252 -34.485
-23.3547 -39.4853
-17.6713 -35.5362
-18.2233 -33.6912
-21.0811 -32.7184
-23.3357 -33.6042
-24.078 -37.8825
-24.836 -36.2137
-19.2174 -38.0773
-21.2654 -38.7908
-19.7862 -36.3462
-20.4087 -34.5574
-21.9123 -37.1213
-22.6036 -35.3899
-18.8338 -31.8014
-20.9691 -25.9455
-28.1394 -28.9996
-25.6252 -34.485
-19.4986 -29.8755
-20.2123 -27.9211
-23.3516 -26.9759
-25.7315 -27.9854
-26.4418 -32.7026
-27.2814 -30.8723
-21.0811 -32.7184
-23.3357 -33.6042
-21.7995 -30.8369
-22.5583 -28.9203
-24.1044 -31.771
-24.9047 -29.8963
-20.9691 -25.9455
-23.4359 -19.9683
-30.7606 -23.1838
-28.1394 -28.9996
-21.7632 -23.9562
-22.5877 -21.9611
-25.879 -21.0465
-28.3109 -22.1043
-29.0105 -27.0901
-29.887 -25.1496
-23.3516 -26.9759
-25.7315 -27.9854
-24.1736 -25.011
-25.0181 -23.0323
-26.5794 -26.0445
-27.4416 -24.0813
-23.4359 -19.9683
-26.0556 -14.0789
-33.2907 -17.2052
-30.7606 -23.1838
-24.3008 -17.9855
-25.1761 -16.0201
-28.4853 -15.1162
-30.8844 -16.151
-31.6234 -21.1988
-32.4688 -19.2031
-25.879 -21.0465
-28.3109 -22.1043
-26.7497 -19.0602
-27.6214 -17.0809
-29.18 -20.1209
-30.0407 -18.1353
-26.0556 -14.0789
-28.6426 -8.48185
-35.5208 -11.2596
-33.2907 -17.2052
-26.9325 -12.1694
-27.798 -10.3006
-30.9618 -9.3934
-33.2401 -10.2971
-34.0818 -15.2131
-34.8297 -13.2303
-28.4853 -15.1162
-30.8844 -16.151
-29.3331 -13.1739
-30.1599 -11.2632
-31.7032 -14.1735
-32.4904 -12.2168
-28.6426 -8.48185
-31.0608 -3.44148
-37.1722 -5.61499
-35.5208 -11.2596
-29.4608 -6.72338
-30.2624 -5.03854
-33.1249 -4.10965
-35.137 -4.83587
-36.1437 -9.30987
-36.6947 -7.41497
-30.9618 -9.3934
-33.2401 -10.2971
-31.7329 -7.57348
-32.4593 -5.81016
-33.9436 -8.42731
-34.5828 -6.60784
-31.0608 -3.44148
-33.0379 0
-38.6298 0
-37.1722 -5.61499
-31.8498 -1.97161
-32.5439 -0.769264
-34.5551 0
-36.539 0
-37.5924 -3.90613
-38.0432 -2.10893
-33.1249 -4.10965
-35.137 -4.83587
-33.7122 -2.49864
-34.1975 -1.08574
-35.6025 -3.11685
-36.0429 -1.48931
      </DataArray> 
      <DataArray type="Float64" NumberOfComponents="4" Name="CauchyStress" format="ascii">
-343.277 -169.52 0 -19.4374
-214.92 -21.0295 0 74.0864
328.648 26.4227 0 -103.608
558.604 133.748 0 -118.897
-278.467 -14.1736 0 32.6056
-238.172 10.1703 0 66.5704
-116.548 -16.9467 0 5.16262
73.3965 7.13284 0 -57.1016
459.132 20.0049 0 -75.7943
389.251 3.21919 0 -81.9745
-141.289 -49.201 0 -0.657425
90.8201 25.5465 0 -11.9331
-138.93 -23.6086 0 -6.85085
-130.723 -16.2361 0 -2.81817
87.8787 -12.7446 0 -40.692
86.5257 -7.8364 0 -55.6699
-214.92 -21.0295 0 74.0864
-129.423 -39.9498 0 77.3182
197.364 58.3588 0 -110.513
328.648 26.4227 0 -103.608
-188.072 -37.018 0 75.3474
-157.042 -39.3516 0 76.945
-72.4565 -5.902 0 14.5559
33.734 28.2375 0 -47.4206
278.766 48.5658 0 -117.893
237.252 57.9955 0 -118.71
-116.548 -16.9467 0 5.16262
73.3965 7.13284 0 -57.1016
-99.4344 -14.7485 0 11.1183
-83.7355 -9.58393 0 13.5042
54.8945 16.437 0 -53.1762
42.7288 23.4189 0 -50.356
-129.423 -39.9498 0 77.3182
-75.1573 -45.2357 0 57.9915
102.659 59.6759 0 -80.7812
197.364 58.3588 0 -110.513
-108.098 -43.1506 0 73.9473
-90.392 -45.5126 0 66.7854
-44.2804 -1.84648 0 12.7261
16.2629 34.9922 0 -34.2509
159.591 58.1323 0 -100.041
128.226 59.9617 0 -90.6491
-72.4565 -5.902 0 14.5559
33.734 28.2375 0 -47.4206
-63.0398 -4.32114 0 14.902
-53.1602 -3.05396 0 14.0822
27.1678 32.229 0 -43.7906
21.9673 35.0333 0 -39.5595
-75.1573 -45.2357 0 57.9915
-35.076 -29.5433 0 33.2549
53.6876 40.9945 0 -48.3253
102.659 59.6759 0 -80.7812
-60.5208 -41.378 0 49.3172
-46.724 -35.5347 0 41.057
-25.422 6.25187 0 6.70173
3.94947 30.2658 0 -20.5441
83.0488 55.7647 0 -70.1304
67.4994 49.3773 0 -59.2869
-44.2804 -1.84648 0 12.7261
16.2629 34.9922 0 -34.2509
-36.7346 0.453092 0 10.9775
-30.3714 3.64085 0 8.81414
10.8964 33.4994 0 -28.8841
7.00673 32.1829 0 -24.4616
-35.076 -29.5433 0 33.2549
-9.178 -9.03561 0 9.3099
19.2197 16.8822 0 -19.9023
53.6876 40.9945 0 -48.3253
-25.5 -23.4358 0 25.4494
-17.003 -16.4845 0 17.3551
-13.471 12.4382 0 -0.299484
-3.48563 21.7142 0 -10.3592
40.6705 32.4945 0 -37.9357
29.0526 24.7247 0 -28.5675
-25.422 6.25187 0 6.70173
3.94947 30.2658 0 -20.5441
-21.1652 8.29138 0 4.556
-17.1275 10.402 0 2.15007
1.37568 27.8396 0 -16.9468
-1.05037 25.0858 0 -13.6188
-9.178 -9.03561 0 9.3099
13.5522 13.4099 0 -13.1801
-3.68081 -6.86267 0 3.87445
19.2197 16.8822 0 -19.9023
-1.50585 -1.33516 0 1.54711
6.08088 6.25076 0 -5.94012
-4.6957 18.5432 0 -7.36104
-10.221 11.9131 0 -1.77993
11.0262 8.81936 0 -11.6445
3.54536 0.847188 0 -3.70782
-13.471 12.4382 0 -0.299484
-3.48563 21.7142 0 -10.3592
-10.2237 14.5819 0 -2.6814
-7.3535 16.7309 0 -5.03296
-5.84215 18.227 0 -7.21259
-8.09316 15.0232 0 -4.35153
13.5522 13.4099 0 -13.1801
36.4445 32.0258 0 -33.9576
-26.0571 -25.6224 0 24.1791
-3.68081 -6.86267 0 3.87445
20.9343 20.1037 0 -20.2203
28.4254 26.3302 0 -27.1274
2.90865 21.8746 0 -14.2992
-17.4925 2.77307 0 4.91569
-11.0854 -13.9404 0 11.0726
-18.668 -20.2071 0 17.852
-4.6957 18.5432 0 -7.36104
-10.221 11.9131 0 -1.77993
-2.16592 19.9366 0 -9.65977
0.274291 21.0082 0 -11.9543
-12.4502 8.80314 0 0.597878
-14.963 5.70653 0 2.84627
36.4445 32.0258 0 -33.9576
63.985 43.5726 0 -52.6749
-49.5761 -36.7269 0 41.0443
-26.0571 -25.6224 0 24.1791
45.0021 36.8838 0 -40.5439
54.0262 40.6681 0 -46.7489
11.2386 22.3159 0 -20.6802
-26.1766 -4.52096 0 10.4117
-33.483 -30.2123 0 30.1809
-41.3856 -33.9759 0 35.8658
2.90865 21.8746 0 -14.2992
-17.4925 2.77307 0 4.91569
5.60738 22.4414 0 -16.5549
8.2385 22.5409 0 -18.6374
-20.1728 0.0758404 0 6.89219
-23.1819 -2.40133 0 8.7781
63.985 43.5726 0 -52.6749
97.8289 45.6745 0 -66.7559
-77.2584 -38.8645 0 52.9072
-49.5761 -36.7269 0 41.0443
74.613 45.4344 0 -58.0863
85.6691 46.051 0 -62.7479
21.1836 18.8534 0 -25.505
-36.5758 -9.45671 0 14.1528
-58.3026 -38.4427 0 45.6731
-67.6886 -39.1911 0 49.6891
11.2386 22.3159 0 -20.6802
-26.1766 -4.52096 0 10.4117
14.3989 21.6365 0 -22.5471
17.519 20.3942 0 -24.1119
-29.396 -6.38928 0 11.8555
-33.036 -8.10654 0 13.1556
97.8289 45.6745 0 -66.7559
137.291 37.8484 0 -72.1112
-107.971 -32.4266 0 56.9894
-77.2584 -38.8645 0 52.9072
110.621 44.1713 0 -69.8019
123.525 41.4383 0 -71.5691
32.9032 11.9166 0 -27.215
-48.0767 -11.7789 0 15.5319
-87.175 -37.5394 0 55.2685
-97.5915 -35.386 0 56.6858
21.1836 18.8534 0 -25.505
-36.5758 -9.45671 0 14.1528
25.0378 16.9444 0 -26.5551
28.7171 14.5508 0 -27.0932
-40.2515 -10.4752 0 14.8894
-44.2889 -11.2864 0 15.3935
137.291 37.8484 0 -72.1112
177.685 23.1973 0 -64.3439
-138.509 -20.5189 0 50.4195
-107.971 -32.4266 0 56.9894
151.191 33.517 0 -71.2038
164.409 28.5147 0 -68.618
45.0604 2.93273 0 -24.1646
-59.3081 -12.0645 0 13.7814
-118.364 -28.8193 0 56.0724
-128.75 -24.7977 0 53.8857
32.9032 11.9166 0 -27.215
-48.0767 -11.7789 0 15.5319
37.1462 9.07099 0 -26.8256
40.9661 6.00628 0 -25.8089
-51.8477 -12.0229 0 15.2952
-55.8118 -12.1324 0 14.7131
177.685 23.1973 0 -64.3439
210.675 8.08433 0 -41.703
-162.853 -8.46263 0 32.4186
-138.509 -20.5189 0 50.4195
190.202 17.8564 0 -58.4208
201.007 12.7183 0 -50.8979
55.1311 -5.23073 0 -15.7074
-68.1286 -11.3429 0 8.78208
-147.577 -16.212 0 45.6244
-155.872 -12.1186 0 39.5509
45.0604 2.93273 0 -24.1646
-59.3081 -12.0645 0 13.7814
48.9652 -0.0213589 0 -21.9397
52.1349 -2.78789 0 -19.1586
-62.5144 -11.8612 0 12.4507
-65.6378 -11.6089 0 10.7297
210.675 8.08433 0 -41.703
227.132 0.0460185 0 -7.70106
-174.805 -2.16449 0 5.98932
-162.853 -8.46263 0 32.4186
218.596 4.29314 0 -31.2409
223.986 1.55729 0 -19.9401
60.1524 -9.45224 0 -3.12599
-72.4355 -10.8739 0 1.40444
-168.417 -5.49258 0 24.3004
-172.495 -3.35113 0 15.3552
55.1311 -5.23073 0 -15.7074
-68.1286 -11.3429 0 8.78208
57.6366 -7.20737 0 -11.8164
59.2148 -8.63796 0 -7.69317
-70.0631 -11.1101 0 6.53434
-71.5938 -10.945 0 3.97082
227.132 0.0460185 0 -7.70106
221.788 3.61961 0 28.9806
-170.733 -4.89116 0 -22.4442
-174.805 -2.16449 0 5.98932
227.96 -0.0839948 0 4.83243
226.205 1.12662 0 17.0193
58.4399 -7.86086 0 10.4316
-71.0757 -11.3626 0 -6.52498
-175.264 -2.05318 0 -3.62339
-173.875 -2.97634 0 -13.2638
60.1524 -9.45224 0 -3.12599
-72.4355 -10.8739 0 1.40444
60.4315 -9.58495 0 1.54873
59.8859 -9.05104 0 5.99289
-72.5701 -10.9281 0 -1.23118
-72.0903 -11.1 0 -3.98975
221.788 3.61961 0 28.9806
196.306 17.1005 0 58.3512
-152.028 -15.655 0 -45.3463
-170.733 -4.89116 0 -22.4442
215.22 7.25939 0 40.1379
206.854 11.8045 0 49.9054
50.5724 -1.10554 0 21.2916
-64.3762 -12.539 0 -12.9557
-165.919 -7.7759 0 -30.9535
-159.555 -11.4402 0 -38.6853
58.4399 -7.86086 0 10.4316
-71.0757 -11.3626 0 -6.52498
56.3948 -6.06768 0 14.5776
53.9107 -3.79074 0 18.1389
-69.3947 -11.7066 0 -8.8712
-67.0215 -12.111 0 -11.0989
196.306 17.1005 0 58.3512
158.657 34.4707 0 73.8523
-123.622 -29.2835 0 -57.9617
-152.028 -15.655 0 -45.3463
184.511 22.9367 0 65.2377
172.195 28.876 0 70.3799
39.0431 8.16254 0 27.1239
-54.1883 -13.4361 0 -16.4395
-143.367 -20.1823 0 -50.8355
-133.676 -24.7817 0 -55.0935
50.5724 -1.10554 0 21.2916
-64.3762 -12.539 0 -12.9557
46.8797 1.89061 0 23.9137
43.2402 5.03282 0 25.8441
-61.3121 -12.9498 0 -14.4399
-57.7193 -13.2709 0 -15.623
158.657 34.4707 0 73.8523
117.761 47.1611 0 74.8601
-92.747 -40.1945 0 -58.9088
-123.622 -29.2835 0 -57.9617
144.756 39.4482 0 75.7584
131.338 43.7229 0 76.1301
26.9482 16.7776 0 27.6116
-42.5249 -12.5836 0 -16.7145
-113.383 -33.5102 0 -59.4309
-102.945 -37.2198 0 -59.6792
39.0431 8.16254 0 27.1239
-54.1883 -13.4361 0 -16.4395
34.8268 11.2532 0 27.8181
31.0384 14.2091 0 27.9919
-50.4679 -13.3291 0 -16.8779
-46.3515 -12.9866 0 -16.9526
117.761 47.1611 0 74.8601
81.4066 52.2261 0 64.5202
-63.3166 -43.161 0 -50.9862
-92.747 -40.1945 0 -58.9088
104.811 49.9844 0 72.2612
93.0016 51.9366 0 68.7903
16.0843 22.2441 0 24.1679
-31.6969 -9.5331 0 -14.0465
-82.6032 -42.1109 0 -57.2183
-72.5449 -42.9968 0 -54.561
26.9482 16.7776 0 27.6116
-42.5249 -12.5836 0 -16.7145
22.9545 18.9795 0 26.8301
19.517 20.8643 0 25.7409
-38.8588 -12.005 0 -16.1005
-35.0984 -10.9973 0 -15.1319
81.4066 52.2261 0 64.5202
50.7715 44.4419 0 48.464
-39.0427 -37.9282 0 -36.2532
-63.3166 -43.161 0 -50.9862
70.2318 50.6535 0 59.7807
60.0763 47.8728 0 54.5756
7.59097 24.341 0 18.2545
-21.9433 -3.45305 0 -9.95261
-54.9047 -42.6642 0 -46.5248
-46.8195 -41.0642 0 -41.4565
16.0843 22.2441 0 24.1679
-31.6969 -9.5331 0 -14.0465
12.9782 23.3485 0 22.274
10.3678 24.1957 0 20.32
-28.3247 -7.5284 0 -12.8802
-24.8526 -5.31718 0 -11.5055
50.7715 44.4419 0 48.464
28.4602 32.2172 0 28.0685
-17.8236 -21.9325 0 -19.5033
-39.0427 -37.9282 0 -36.2532
42.7901 41.2557 0 41.5524
35.7763 37.7071 0 34.5792
0.178774 21.8151 0 12.0059
-14.8276 4.57069 0 -3.48271
-31.3295 -32.9278 0 -31.112
-24.0196 -27.0949 0 -25.6535
7.59097 24.341 0 18.2545
-21.9433 -3.45305 0 -9.95261
4.78479 23.7519 0 16.2357
2.35444 22.8175 0 14.2572
-19.5677 -1.66798 0 -8.01863
-17.2416 0.880645 0 -5.73149
28.4602 32.2172 0 28.0685
6.18668 6.25851 0 9.57958
1.73396 -2.88286 0 3.37078
-17.8236 -21.9325 0 -19.5033
20.3063 23.8525 0 22.3532
12.4179 14.3439 0 16.5975
-6.39405 18.4226 0 4.19409
-7.96441 14.2136 0 1.84796
-12.1634 -17.8441 0 -12.1955
-5.77375 -12.4159 0 -4.21811
0.178774 21.8151 0 12.0059
-14.8276 4.57069 0 -3.48271
-1.71724 21.1374 0 9.37829
-3.71425 20.3045 0 6.67533
-12.046 8.88476 0 -1.61096
-9.44094 12.3857 0 0.0486305
6.18668 6.25851 0 9.57958
-9.97561 -9.78696 0 -16.4852
22.6367 28.093 0 22.6038
1.73396 -2.88286 0 3.37078
2.28795 1.46863 0 0.604195
-1.92973 -2.54077 0 -8.81274
-14.4123 9.66355 0 -0.887029
-2.29223 25.5962 0 13.2147
9.66745 10.9805 0 9.5213
16.7416 23.4014 0 15.2595
-6.39405 18.4226 0 4.19409
-7.96441 14.2136 0 1.84796
-9.47496 15.0377 0 2.3094
-12.2418 11.4632 0 0.807101
-7.31171 15.5933 0 4.60808
-5.83253 18.991 0 8.56399
-9.97561 -9.78696 0 -16.4852
-39.3293 -43.1776 0 -32.9507
59.4952 46.8161 0 61.6471
22.6367 28.093 0 22.6038
-23.0159 -22.9578 0 -21.0697
-35.1941 -36.8033 0 -25.2823
-28.909 5.07737 0 -11.2633
1.91471 30.1725 0 18.4542
30.0851 24.7987 0 33.9588
42.2392 26.4999 0 48.0013
-14.4123 9.66355 0 -0.887029
-2.29223 25.5962 0 13.2147
-17.1537 9.99628 0 -3.74663
-21.9565 9.47451 0 -7.58533
2.15673 32.0543 0 16.7246
4.14424 33.6969 0 18.1546
-39.3293 -43.1776 0 -32.9507
-106.768 -38.5581 0 -73.3998
99.7929 31.6509 0 60.5069
59.4952 46.8161 0 61.6471
-39.0753 -39.2739 0 -48.2746
-56.1253 -34.2081 0 -65.8139
-45.3441 1.83595 0 -2.22187
36.0817 42.5163 0 52.2274
75.6764 80.3441 0 67.9544
87.8699 87.7377 0 65.8959
-28.909 5.07737 0 -11.2633
1.91471 30.1725 0 18.4542
-35.2702 -2.80385 0 -12.4967
-40.2665 -6.75643 0 -9.70033
1.05725 28.2559 0 22.1862
10.8969 33.188 0 33.3421
-106.768 -38.5581 0 -73.3998
-92.8434 24.3563 0 -134.266
119.318 1138.2 0 51.5295
99.7929 31.6509 0 60.5069
-171.402 -76.1818 0 -68.8057
-191.367 -99.1953 0 -75.3525
184.507 199.448 0 -229.785
139.421 386.28 0 -206.977
99.212 -19.7859 0 72.9942
89.2143 145.04 0 93.619
-45.3441 1.83595 0 -2.22187
36.0817 42.5163 0 52.2274
-47.0795 8.94084 0 -5.23233
-2.47415 37.2598 0 -57.0349
47.5576 42.6367 0 55.0732
47.9252 89.3527 0 -5.38989
      </DataArray> 
    </PointData>
    <CellData>
      <DataArray type="Float64" NumberOfComponents="1" Name="Process" format="ascii">
0
1
0
1
1
0
1
1
1
0
0
0
2
0
2
2
2
2
2
3
3
3
3
3
3
      </DataArray> 
    </CellData>
  </Piece>
  </UnstructuredGrid>
</VTKFile>
