<?xml version="1.0"?>
<VTKFile type="UnstructuredGrid">
  <UnstructuredGrid>
  <Piece NumberOfPoints="193"  NumberOfCells="36">
    <Points>
      <DataArray type="Float64" NumberOfComponents="3" format="ascii">
0 0 0
183.644 0 0
179.038 10 0
0 10 0
19.2283 -5.15232 0
38.0302 -15.8204 0
57.5749 -27.2608 0
79.2678 -35.6905 0
102.716 -38.0876 0
125.784 -33.3856 0
146.613 -23.1846 0
165.3 -10.6293 0
6.39562 -0.779149 0
12.8488 -2.55353 0
25.5281 -8.35851 0
31.7733 -11.9726 0
44.3704 -19.7467 0
50.865 -23.6058 0
64.5403 -30.5773 0
71.7757 -33.4262 0
86.9724 -37.2673 0
94.8178 -38.0807 0
110.57 -37.28 0
118.284 -35.6912 0
133.016 -30.456 0
139.955 -27.0153 0
153.018 -19.0915 0
159.233 -14.8675 0
171.385 -6.57915 0
177.407 -2.76834 0
182.316 3.33333 0
180.707 6.66667 0
159.727 -2.4027 0
141.449 -14.6296 0
122.449 -23.9715 0
102.21 -28.1154 0
81.7065 -26.0061 0
62.0938 -18.3507 0
43.2443 -7.29761 0
23.3223 3.95172 0
172.515 5.80983 0
165.996 1.84447 0
153.606 -6.60884 0
147.543 -10.7342 0
135.26 -18.1975 0
128.933 -21.3405 0
115.815 -26.0151 0
109.054 -27.4108 0
95.3356 -28.1093 0
88.4834 -27.3966 0
75.04 -23.9871 0
68.503 -21.4073 0
55.7844 -14.9096 0
49.525 -11.1869 0
36.853 -3.36989 0
30.2469 0.443454 0
15.9821 6.91881 0
8.1955 9.01949 0
0 6.66667 0
0 3.33333 0
10.9073 3.34073 0
171.792 -0.36093 0
31.1298 -5.76318 0
153.364 -12.8469 0
50.1155 -17.3952 0
134.335 -24.3393 0
69.9245 -27.4489 0
113.46 -31.7357 0
91.3872 -32.8558 0
102.55 -34.809 0
102.382 -31.4864 0
98.772 -29.8958 0
95.1594 -31.4788 0
94.9885 -34.8013 0
98.7676 -36.5506 0
98.7699 -33.2457 0
106.488 -36.1569 0
110.071 -34.0336 0
109.568 -30.7447 0
105.813 -29.5365 0
106.153 -32.8688 0
80.0715 -32.5017 0
80.8798 -29.2736 0
77.8687 -26.6888 0
73.9356 -27.1661 0
72.8534 -30.3137 0
75.9643 -33.067 0
76.9105 -29.8958 0
128.821 -30.4689 0
131.667 -27.448 0
130.312 -24.4073 0
126.345 -24.2896 0
123.578 -27.1451 0
124.685 -30.2839 0
127.59 -27.3954 0
59.0724 -24.313 0
60.5711 -21.3396 0
58.127 -18.1463 0
54.1311 -17.819 0
52.4997 -20.7223 0
54.9776 -24.0144 0
56.547 -21.0886 0
148.954 -19.7652 0
151.197 -16.3171 0
149.38 -13.5263 0
145.406 -14.1314 0
143.186 -17.4962 0
144.899 -20.3519 0
147.185 -16.9545 0
23.1478 -5.1893 0
27.1207 -5.40613 0
28.6808 -2.46539 0
26.0912 0.779226 0
21.9687 0.95654 0
20.6211 -2.08474 0
24.6276 -2.1904 0
3.37299 1.4483 0
7.02527 2.56005 0
7.60285 5.82658 0
3.96894 8.06081 0
3.67132 4.78832 0
167.432 -7.21608 0
169.557 -3.77634 0
167.767 -0.950105 0
163.741 -1.61027 0
161.598 -5.12381 0
163.448 -7.8781 0
165.583 -4.40803 0
19.1027 4.00812 0
14.951 3.81332 0
13.9244 0.653032 0
16.6865 -2.19058 0
17.904 0.929571 0
176.646 6.41005 0
174.187 3.00054 0
175.8 0.148965 0
179.76 0.350421 0
178.263 3.4142 0
39.7738 -12.9807 0
41.5018 -10.1337 0
39.2022 -6.74706 0
35.1608 -6.2228 0
33.4793 -9.09687 0
35.7669 -12.4532 0
37.4864 -9.59638 0
157.597 -5.87638 0
155.487 -9.3623 0
157.353 -12.1209 0
161.335 -11.3726 0
159.468 -8.62157 0
42.0575 -16.3669 0
46.0883 -16.9016 0
47.7976 -14.0431 0
45.517 -10.6745 0
43.7864 -13.5215 0
139.208 -17.9178 0
136.843 -21.1583 0
138.401 -24.1003 0
142.498 -23.7092 0
140.859 -20.8233 0
61.7296 -27.4807 0
65.8507 -27.5486 0
67.1651 -24.4901 0
64.5604 -21.4525 0
63.1387 -24.4783 0
119.648 -26.6871 0
116.652 -29.281 0
117.471 -32.5058 0
121.585 -33.0556 0
120.623 -29.8901 0
83.4245 -34.9654 0
87.4698 -34.0193 0
87.9709 -30.7301 0
84.7433 -28.4412 0
84.0793 -31.7235 0
10.0685 0.0925067 0
173.505 -3.18171 0
170.095 2.44093 0
11.7247 6.52573 0
29.489 -8.67161 0
48.4384 -20.266 0
68.7252 -30.5365 0
91.0511 -36.1436 0
114.12 -34.9748 0
135.793 -27.3158 0
155.215 -15.6134 0
151.51 -10.0742 0
132.863 -21.3365 0
112.789 -28.454 0
91.7286 -29.5234 0
71.1377 -24.331 0
51.7998 -14.5152 0
32.7604 -2.87086 0
      </DataArray>
    </Points>
    <Cells>
      <DataArray type="Int32" Name="connectivity" format="ascii">
8 35 68 69 70 71 72 73 74 75 
8 67 35 76 77 78 79 70 69 80 
7 36 66 81 82 83 84 85 86 87 
9 65 34 88 89 90 91 92 93 94 
6 37 64 95 96 97 98 99 100 101 
10 63 33 102 103 104 105 106 107 108 
4 62 39 109 110 111 112 113 114 115 
0 60 3 116 117 118 119 58 59 120 
11 61 32 121 122 123 124 125 126 127 
4 39 60 114 113 128 129 130 131 132 
1 2 61 30 31 133 134 135 136 137 
5 38 62 138 139 140 141 142 143 144 
11 32 63 126 125 145 146 147 148 149 
5 64 38 150 151 152 153 139 138 154 
10 33 65 107 106 155 156 157 158 159 
6 66 37 160 161 162 163 96 95 164 
9 34 67 93 92 165 166 167 168 169 
7 68 36 170 171 172 173 82 81 174 
0 4 60 12 13 131 130 117 116 175 
1 61 11 136 135 122 121 28 29 176 
2 32 61 40 41 124 123 134 133 177 
3 60 39 119 118 129 128 56 57 178 
4 5 62 14 15 143 142 110 109 179 
5 6 64 16 17 100 99 151 150 180 
6 7 66 18 19 86 85 161 160 181 
7 8 68 20 21 74 73 171 170 182 
8 9 67 22 23 168 167 77 76 183 
9 10 65 24 25 158 157 89 88 184 
10 11 63 26 27 148 147 103 102 185 
32 33 63 42 43 105 104 146 145 186 
33 34 65 44 45 91 90 156 155 187 
34 35 67 46 47 79 78 166 165 188 
35 36 68 48 49 173 172 72 71 189 
36 37 66 50 51 163 162 84 83 190 
37 38 64 52 53 153 152 98 97 191 
38 39 62 54 55 112 111 141 140 192 
      </DataArray>
      <DataArray type="Int32" Name="offsets" format="ascii">
10
20
30
40
50
60
70
80
90
100
110
120
130
140
150
160
170
180
190
200
210
220
230
240
250
260
270
280
290
300
310
320
330
340
350
360
      </DataArray>
      <DataArray type="UInt8" Name="types" format="ascii">
69
69
69
69
69
69
69
69
69
69
69
69
69
69
69
69
69
69
69
69
69
69
69
69
69
69
69
69
69
69
69
69
69
69
69
69
      </DataArray>
    </Cells>
    <PointData>
      <DataArray type="Float64" NumberOfComponents="2" Name="Displacement" format="ascii">
0 0
-16.356 0
-20.962 0
0 0
-2.99392 -5.15232
-6.4142 -15.8204
-9.09173 -27.2608
-9.6211 -35.6905
-8.39463 -38.0876
-7.5493 -33.3856
-8.94305 -23.1846
-12.4778 -10.6293
-1.01179 -0.779149
-1.96601 -2.55353
-4.10154 -8.35851
-5.26375 -11.9726
-7.48149 -19.7467
-8.39425 -23.6058
-9.53382 -30.5773
-9.70581 -33.4262
-9.32386 -37.2673
-8.88586 -38.0807
-7.94863 -37.28
-7.64165 -35.6912
-7.72521 -30.456
-8.19265 -27.0153
-9.94513 -19.0915
-11.1376 -14.8675
-13.8 -6.57915
-15.1858 -2.76834
-17.6837 0
-19.2929 0
-18.0513 -12.4027
-14.1063 -24.6296
-10.8839 -33.9715
-8.90083 -38.1154
-7.18243 -36.0061
-4.57291 -28.3507
-1.20016 -17.2976
1.10005 -6.04828
-20.0779 -4.19017
-19.1895 -8.15553
-16.7642 -16.6088
-15.4204 -20.7342
-12.888 -28.1975
-11.8079 -31.3405
-10.1106 -36.0151
-9.46457 -37.4108
-8.36815 -38.1093
-7.81294 -37.3966
-6.44149 -33.9871
-5.57104 -31.4073
-3.47488 -24.9096
-2.32681 -21.1869
-0.18402 -13.3699
0.617229 -9.55655
1.16728 -3.08119
0.788089 -0.980511
0 0
0 0
-0.203791 -1.65927
-17.0965 -5.36093
-2.20349 -10.7632
-13.3022 -17.8469
-5.4401 -22.3952
-10.109 -29.3393
-7.8533 -32.4489
-8.76267 -36.7357
-8.61283 -37.8558
-8.56108 -38.1424
-8.72927 -38.153
-8.63539 -38.2292
-8.54427 -38.1455
-8.71518 -38.1346
-8.63977 -38.2173
-8.6375 -38.2457
-8.32644 -37.8235
-8.44776 -37.3669
-8.95046 -37.4114
-9.00204 -37.8698
-8.66191 -37.8688
-8.8174 -35.835
-8.00905 -35.9402
-7.31653 -35.0221
-7.54587 -33.8328
-8.62806 -33.6471
-9.22092 -34.7337
-8.27464 -34.8958
-8.21594 -32.1356
-9.07405 -30.7813
-10.4287 -31.074
-10.6921 -32.6229
-9.75516 -33.8118
-8.6488 -33.6172
-9.44685 -32.3954
-7.5943 -27.6464
-6.09561 -28.0063
-4.83592 -26.4797
-5.12813 -24.4856
-6.75953 -24.0557
-7.9854 -25.6811
-6.41592 -26.0886
-10.3052 -21.4319
-11.7662 -19.6505
-13.5827 -20.193
-13.8531 -22.4647
-12.3699 -24.1629
-10.6566 -23.6853
-12.0742 -21.9545
-2.77817 -6.85597
-2.50892 -8.73946
-0.948866 -9.13206
0.165322 -7.55411
-0.253554 -5.71013
-1.60116 -5.41807
-1.29832 -7.1904
-0.330713 -0.21837
-0.382136 -0.773278
0.195443 -0.840092
0.265232 -0.27252
-0.0323863 -0.211679
-14.0499 -8.88275
-15.6283 -7.10968
-17.4183 -7.61677
-17.7405 -9.94361
-16.1793 -11.7905
-14.33 -11.2114
-15.8988 -9.40803
0.584181 -4.32521
0.13617 -2.85335
-0.890434 -2.6803
-1.83207 -3.85725
-0.614511 -4.07043
-19.6505 -1.92328
-18.4052 -3.66613
-16.7923 -3.18437
-16.536 -1.31625
-18.033 -1.5858
-4.67063 -16.314
-2.94262 -16.8003
-1.53851 -15.0804
-1.87628 -12.8895
-3.55773 -12.4302
-4.97381 -14.1198
-3.25434 -14.5964
-16.477 -14.2097
-14.8838 -16.029
-13.0174 -15.4542
-12.7388 -13.0393
-14.6059 -13.6216
-6.09069 -18.0336
-5.76359 -20.2349
-4.0543 -20.7098
-2.63117 -19.0079
-4.36178 -18.5215
-12.644 -26.2511
-11.305 -27.8249
-9.74669 -27.4337
-9.35432 -25.3759
-10.9929 -25.8233
-8.64073 -29.1474
-8.22333 -30.882
-6.90895 -31.1568
-5.80997 -29.7859
-7.23166 -29.4783
-9.98212 -35.0204
-9.27431 -35.9476
-8.45478 -35.8392
-8.04465 -34.7222
-9.007 -34.8901
-9.16804 -36.6321
-8.82645 -37.3526
-8.32539 -37.3968
-7.84929 -36.7745
-8.51331 -36.7235
-1.04265 -1.57416
-15.3834 -4.84838
-18.7937 -5.8924
0.613612 -1.8076
-3.84432 -10.3383
-7.11715 -21.9327
-9.05254 -32.2032
-8.94894 -37.8103
-8.10236 -36.6415
-8.65192 -28.9825
-11.4517 -17.2801
-15.1572 -18.4076
-11.5815 -29.6698
-9.43286 -36.7874
-8.27137 -37.8567
-6.64006 -32.6643
-3.75571 -22.8485
-0.572945 -11.2042
      </DataArray> 
      <DataArray type="Float64" NumberOfComponents="4" Name="CauchyStress" format="ascii">
-228.473 -47.6701 0 -0.555302
-67.5868 81.1827 0 -95.8091
73.9047 292.87 0 9.3406
322.92 46.6946 0 -24.4215
-86.9774 -19.4876 0 38.7297
-1.19882 -0.74548 0 0.368241
62.4458 16.5785 0 -32.12
126.059 8.67099 0 -32.0476
151.81 1.06248 0 7.72264
112.512 14.8032 0 40.1529
47.9453 18.3229 0 30.0836
-4.14131 -5.48782 0 -8.94054
-176.225 -11.5594 0 35.2707
-121.677 -9.8873 0 45.1208
-52.021 -16.0781 0 27.6799
-22.7822 -7.97035 0 14.5669
20.5161 8.10378 0 -12.4393
40.6603 12.8743 0 -23.4464
84.6588 16.8014 0 -36.8239
104.541 11.9645 0 -36.7733
140.204 3.50158 0 -21.7436
148.336 -0.087551 0 -7.77591
142.598 2.81158 0 22.1118
130.067 8.89784 0 33.4832
89.8777 17.6571 0 41.0019
70.2638 20.936 0 37.558
31.265 12.9011 0 19.4023
10.2048 5.5011 0 7.04912
-36.0749 -22.6084 0 -13.6797
-84.311 -34.099 0 -40.9643
40.4245 148.603 0 -128.318
82.1739 245.378 0 -109.869
19.2448 23.9452 0 15.8468
-41.51 -17.9652 0 -25.4874
-94.335 -13.2121 0 -33.8842
-125.5 -0.981505 0 -6.44365
-105.53 -7.84735 0 27.0263
-53.2914 -15.6783 0 27.3203
5.97017 0.212067 0 -4.12772
105.743 22.4736 0 -50.6499
58.8864 19.3621 0 34.5884
31.9822 -13.5944 0 27.2106
-4.04314 -3.33268 0 -3.29696
-22.6778 -10.0247 0 -14.7932
-58.3972 -17.6088 0 -31.8355
-77.5819 -18.1047 0 -34.8641
-108.806 -7.90657 0 -27.9738
-120.177 -4.73115 0 -18.7455
-124.729 -2.00464 0 6.77366
-117.365 -3.63687 0 18.0327
-90.0569 -13.2139 0 31.3436
-71.0892 -14.1211 0 31.3856
-34.1595 -12.9812 0 19.3985
-13.7719 -6.20569 0 8.71822
33.0876 11.4948 0 -19.3129
63.066 16.9542 0 -34.941
165.056 17.8474 0 -54.3893
230.906 4.94569 0 -44.5874
80.081 22.5005 0 -5.08351
-98.6438 -32.675 0 -0.268675
-12.5151 -1.5749 0 -12.9047
-8.46283 -7.5732 0 22.6711
-7.87077 10.7184 0 -8.04616
-5.35814 10.0017 0 4.33521
-5.43798 7.65179 0 -5.67717
-5.34035 2.39578 0 4.54853
-5.07602 0.7671 0 -4.64493
-4.8975 -4.09964 0 2.40944
-4.69688 -4.99011 0 -1.75315
43.3914 -4.46549 0 2.81273
-48.8151 -5.08481 0 -1.94002
-88.5547 -3.94312 0 -0.454798
-47.9894 -5.28452 0 1.09262
42.2066 -4.1045 0 -3.59349
94.2017 -2.43124 0 -0.41738
-4.7777 -5.42444 0 -0.355291
92.3426 -1.20584 0 10.4629
40.3194 -2.56399 0 8.65749
-46.5302 -5.5377 0 -4.67784
-87.0361 -4.5249 0 -7.71407
-4.88432 -5.17277 0 1.12526
35.2165 0.571692 0 -13.4459
-41.6782 -4.9719 0 6.54483
-69.5356 -7.44846 0 17.7671
-35.8776 -4.36328 0 6.95345
28.5467 4.27532 0 -15.4071
71.9097 6.64302 0 -24.6663
-5.1688 -1.76806 0 -3.97859
62.6848 11.4088 0 28.6705
23.7497 7.48484 0 16.6873
-31.7644 -4.57685 0 -8.23052
-61.5138 -10.0329 0 -21.2874
-37.9207 -5.58117 0 -8.7264
30.668 3.87435 0 16.2647
-5.45507 -0.201801 0 4.12048
14.9575 9.43441 0 -15.022
-23.2708 -1.46184 0 5.11385
-32.598 -6.36759 0 13.009
-16.7379 1.75086 0 1.80151
7.95114 10.5752 0 -12.1598
30.3104 13.4876 0 -21.0194
-5.40539 5.30749 0 -5.47166
20.9124 14.2714 0 19.1266
3.85294 11.5304 0 10.4922
-13.2774 3.02082 0 -0.869659
-25.3026 -7.17401 0 -11.1428
-19.3837 -0.545625 0 -4.90192
10.3462 11.4502 0 13.7811
-5.6437 6.43317 0 5.43731
-51.1502 -6.34273 0 18.8666
-25.8671 3.5972 0 2.59808
12.8297 14.7617 0 -18.7312
49.4833 17.9021 0 -32.7957
22.132 14.8909 0 -26.6436
-40.5363 1.31928 0 4.14681
-10.0433 8.83685 0 -10.3292
-152.406 -9.31259 0 -1.37144
-78.0482 6.49884 0 -5.33052
58.0775 -10.1659 0 -33.2245
168.041 4.52005 0 -39.133
-17.5297 -9.20203 0 -15.1563
-10.7145 14.4853 0 -19.4796
-19.5929 12.4801 0 -5.91066
9.64557 21.6483 0 7.5898
20.4111 42.1732 0 6.76173
-1.11136 9.88857 0 14.6562
-8.57806 3.2286 0 7.42566
-5.90275 20.4273 0 -3.11232
79.9135 18.1639 0 -41.3328
39.2144 8.90983 0 -27.8357
-56.058 -5.42028 0 3.92479
-80.923 -11.6221 0 21.9106
-10.9688 6.97013 0 -12.2685
42.9473 77.0702 0 43.4668
16.2226 -9.20043 0 44.5363
-30.0682 -2.24436 0 17.6846
-59.2034 7.70123 0 -22.3387
24.1705 50.8038 0 -19.3082
-6.40334 8.31628 0 -5.2614
-4.03356 8.9426 0 -6.69797
8.12106 8.83312 0 -11.5263
3.4192 12.4721 0 -12.9224
-15.6311 6.52473 0 -1.29307
-13.2544 2.67472 0 1.58491
-6.44302 10.354 0 -7.05217
-1.53858 -0.239107 0 5.61591
-7.83828 6.68849 0 3.20886
-3.14305 9.56979 0 6.04327
-9.139 3.18412 0 4.06593
-5.74842 9.88164 0 7.69032
2.58344 7.24328 0 -6.74113
1.12369 9.85178 0 -8.7517
-10.1962 4.98613 0 -2.11812
-6.37463 2.88358 0 -1.68674
-5.75788 9.24919 0 -6.2183
-37.2192 -9.70677 0 -16.8428
-25.4001 -3.47961 0 -6.9056
17.2409 9.59874 0 15.7726
35.4624 15.2478 0 24.3468
-5.23198 5.09378 0 4.66376
44.3623 12.3573 0 -25.0445
21.9768 6.8211 0 -15.7116
-29.5709 -3.8116 0 6.58843
-45.5044 -9.24909 0 17.3346
-4.9328 3.48038 0 -5.02694
-72.5227 -9.22404 0 -19.6626
-42.6976 -6.17764 0 -7.39612
36.2053 -0.021386 0 12.7779
75.2056 6.29376 0 25.575
-4.95024 -1.94818 0 3.31884
83.0302 1.90674 0 -18.9096
39.5436 -2.56235 0 -8.6094
-45.4948 -5.56444 0 4.47609
-79.1904 -6.48881 0 14.2181
-4.73268 -3.26947 0 -2.91443
-111.751 -6.81596 0 21.6824
-48.4052 -15.792 0 -4.78929
27.7249 -9.41337 0 28.8637
116.313 6.07838 0 -43.783
-29.6631 -2.94401 0 10.5487
16.474 11.5051 0 -14.9371
58.4818 10.3294 0 -27.0891
91.3132 -1.6563 0 -10.8706
85.94 1.65237 0 19.8228
48.7278 14.5527 0 28.5364
10.5267 11.3076 0 11.2658
-12.5841 0.830866 0 -3.6184
-49.3659 -11.1928 0 -20.8708
-81.6723 -6.37764 0 -15.1509
-86.2025 -4.34856 0 7.85646
-57.917 -9.12201 0 19.4916
-19.5999 -2.60912 0 6.89905
25.7063 15.7355 0 -22.2194
      </DataArray> 
    </PointData>
    <CellData>
      <DataArray type="Float64" NumberOfComponents="1" Name="Process" format="ascii">
1
1
3
1
3
0
2
2
0
2
0
2
0
2
0
3
1
3
2
0
0
2
2
3
3
1
1
1
0
0
1
1
3
3
3
2
      </DataArray> 
    </CellData>
  </Piece>
  </UnstructuredGrid>
</VTKFile>
