<?xml version="1.0"?>
<VTKFile type="UnstructuredGrid">
  <UnstructuredGrid>
  <Piece NumberOfPoints="193"  NumberOfCells="36">
    <Points>
      <DataArray type="Float64" NumberOfComponents="3" format="ascii">
0 0 0
200 0 0
200 10 0
0 10 0
22.2222 0 0
44.4444 0 0
66.6667 0 0
88.8889 0 0
111.111 0 0
133.333 0 0
155.556 0 0
177.778 0 0
7.40741 0 0
14.8148 0 0
29.6296 0 0
37.037 0 0
51.8519 0 0
59.2593 0 0
74.0741 0 0
81.4815 0 0
96.2963 0 0
103.704 0 0
118.519 0 0
125.926 0 0
140.741 0 0
148.148 0 0
162.963 0 0
170.37 0 0
185.185 0 0
192.593 0 0
200 3.33333 0
200 6.66667 0
177.778 10 0
155.556 10 0
133.333 10 0
111.111 10 0
88.8889 10 0
66.6667 10 0
44.4444 10 0
22.2222 10 0
192.593 10 0
185.185 10 0
170.37 10 0
162.963 10 0
148.148 10 0
140.741 10 0
125.926 10 0
118.519 10 0
103.704 10 0
96.2963 10 0
81.4815 10 0
74.0741 10 0
59.2593 10 0
51.8519 10 0
37.037 10 0
29.6296 10 0
14.8148 10 0
7.40741 10 0
0 6.66667 0
0 3.33333 0
11.1111 5 0
188.889 5 0
33.3333 5 0
166.667 5 0
55.5556 5 0
144.444 5 0
77.7778 5 0
122.222 5 0
100 5 0
111.111 3.33333 0
111.111 6.66667 0
107.407 8.33333 0
103.704 6.66667 0
103.704 3.33333 0
107.407 1.66667 0
107.407 5 0
114.815 1.66667 0
118.519 3.33333 0
118.519 6.66667 0
114.815 8.33333 0
114.815 5 0
88.8889 3.33333 0
88.8889 6.66667 0
85.1852 8.33333 0
81.4815 6.66667 0
81.4815 3.33333 0
85.1852 1.66667 0
85.1852 5 0
137.037 1.66667 0
140.741 3.33333 0
140.741 6.66667 0
137.037 8.33333 0
133.333 6.66667 0
133.333 3.33333 0
137.037 5 0
66.6667 3.33333 0
66.6667 6.66667 0
62.963 8.33333 0
59.2593 6.66667 0
59.2593 3.33333 0
62.963 1.66667 0
62.963 5 0
159.259 1.66667 0
162.963 3.33333 0
162.963 6.66667 0
159.259 8.33333 0
155.556 6.66667 0
155.556 3.33333 0
159.259 5 0
25.9259 1.66667 0
29.6296 3.33333 0
29.6296 6.66667 0
25.9259 8.33333 0
22.2222 6.66667 0
22.2222 3.33333 0
25.9259 5 0
3.7037 1.66667 0
7.40741 3.33333 0
7.40741 6.66667 0
3.7037 8.33333 0
3.7037 5 0
181.481 1.66667 0
185.185 3.33333 0
185.185 6.66667 0
181.481 8.33333 0
177.778 6.66667 0
177.778 3.33333 0
181.481 5 0
18.5185 8.33333 0
14.8148 6.66667 0
14.8148 3.33333 0
18.5185 1.66667 0
18.5185 5 0
196.296 8.33333 0
192.593 6.66667 0
192.593 3.33333 0
196.296 1.66667 0
196.296 5 0
44.4444 3.33333 0
44.4444 6.66667 0
40.7407 8.33333 0
37.037 6.66667 0
37.037 3.33333 0
40.7407 1.66667 0
40.7407 5 0
174.074 8.33333 0
170.37 6.66667 0
170.37 3.33333 0
174.074 1.66667 0
174.074 5 0
48.1481 1.66667 0
51.8519 3.33333 0
51.8519 6.66667 0
48.1481 8.33333 0
48.1481 5 0
151.852 8.33333 0
148.148 6.66667 0
148.148 3.33333 0
151.852 1.66667 0
151.852 5 0
70.3704 1.66667 0
74.0741 3.33333 0
74.0741 6.66667 0
70.3704 8.33333 0
70.3704 5 0
129.63 8.33333 0
125.926 6.66667 0
125.926 3.33333 0
129.63 1.66667 0
129.63 5 0
92.5926 1.66667 0
96.2963 3.33333 0
96.2963 6.66667 0
92.5926 8.33333 0
92.5926 5 0
11.1111 1.66667 0
188.889 1.66667 0
188.889 8.33333 0
11.1111 8.33333 0
33.3333 1.66667 0
55.5556 1.66667 0
77.7778 1.66667 0
100 1.66667 0
122.222 1.66667 0
144.444 1.66667 0
166.667 1.66667 0
166.667 8.33333 0
144.444 8.33333 0
122.222 8.33333 0
100 8.33333 0
77.7778 8.33333 0
55.5556 8.33333 0
33.3333 8.33333 0
      </DataArray>
    </Points>
    <Cells>
      <DataArray type="Int32" Name="connectivity" format="ascii">
8 35 68 69 70 71 72 73 74 75 
8 67 35 76 77 78 79 70 69 80 
7 36 66 81 82 83 84 85 86 87 
9 65 34 88 89 90 91 92 93 94 
6 37 64 95 96 97 98 99 100 101 
10 63 33 102 103 104 105 106 107 108 
4 62 39 109 110 111 112 113 114 115 
0 60 3 116 117 118 119 58 59 120 
11 61 32 121 122 123 124 125 126 127 
4 39 60 114 113 128 129 130 131 132 
1 2 61 30 31 133 134 135 136 137 
5 38 62 138 139 140 141 142 143 144 
11 32 63 126 125 145 146 147 148 149 
5 64 38 150 151 152 153 139 138 154 
10 33 65 107 106 155 156 157 158 159 
6 66 37 160 161 162 163 96 95 164 
9 34 67 93 92 165 166 167 168 169 
7 68 36 170 171 172 173 82 81 174 
0 4 60 12 13 131 130 117 116 175 
1 61 11 136 135 122 121 28 29 176 
2 32 61 40 41 124 123 134 133 177 
3 60 39 119 118 129 128 56 57 178 
4 5 62 14 15 143 142 110 109 179 
5 6 64 16 17 100 99 151 150 180 
6 7 66 18 19 86 85 161 160 181 
7 8 68 20 21 74 73 171 170 182 
8 9 67 22 23 168 167 77 76 183 
9 10 65 24 25 158 157 89 88 184 
10 11 63 26 27 148 147 103 102 185 
32 33 63 42 43 105 104 146 145 186 
33 34 65 44 45 91 90 156 155 187 
34 35 67 46 47 79 78 166 165 188 
35 36 68 48 49 173 172 72 71 189 
36 37 66 50 51 163 162 84 83 190 
37 38 64 52 53 153 152 98 97 191 
38 39 62 54 55 112 111 141 140 192 
      </DataArray>
      <DataArray type="Int32" Name="offsets" format="ascii">
10
20
30
40
50
60
70
80
90
100
110
120
130
140
150
160
170
180
190
200
210
220
230
240
250
260
270
280
290
300
310
320
330
340
350
360
      </DataArray>
      <DataArray type="UInt8" Name="types" format="ascii">
69
69
69
69
69
69
69
69
69
69
69
69
69
69
69
69
69
69
69
69
69
69
69
69
69
69
69
69
69
69
69
69
69
69
69
69
      </DataArray>
    </Cells>
    <PointData>
      <DataArray type="Float64" NumberOfComponents="2" Name="Displacement" format="ascii">
0 0
0 0
0 0
0 0
0 0
0 0
0 0
0 0
0 0
0 0
0 0
0 0
0 0
0 0
0 0
0 0
0 0
0 0
0 0
0 0
0 0
0 0
0 0
0 0
0 0
0 0
0 0
0 0
0 0
0 0
0 0
0 0
0 0
0 0
0 0
0 0
0 0
0 0
0 0
0 0
0 0
0 0
0 0
0 0
0 0
0 0
0 0
0 0
0 0
0 0
0 0
0 0
0 0
0 0
0 0
0 0
0 0
0 0
0 0
0 0
0 0
0 0
0 0
0 0
0 0
0 0
0 0
0 0
0 0
0 0
0 0
0 0
0 0
0 0
0 0
0 0
0 0
0 0
0 0
0 0
0 0
0 0
0 0
0 0
0 0
0 0
0 0
0 0
0 0
0 0
0 0
0 0
0 0
0 0
0 0
0 0
0 0
0 0
0 0
0 0
0 0
0 0
0 0
0 0
0 0
0 0
0 0
0 0
0 0
0 0
0 0
0 0
0 0
0 0
0 0
0 0
0 0
0 0
0 0
0 0
0 0
0 0
0 0
0 0
0 0
0 0
0 0
0 0
0 0
0 0
0 0
0 0
0 0
0 0
0 0
0 0
0 0
0 0
0 0
0 0
0 0
0 0
0 0
0 0
0 0
0 0
0 0
0 0
0 0
0 0
0 0
0 0
0 0
0 0
0 0
0 0
0 0
0 0
0 0
0 0
0 0
0 0
0 0
0 0
0 0
0 0
0 0
0 0
0 0
0 0
0 0
0 0
0 0
0 0
0 0
0 0
0 0
0 0
0 0
0 0
0 0
0 0
0 0
0 0
0 0
0 0
0 0
0 0
0 0
0 0
0 0
0 0
0 0
      </DataArray> 
      <DataArray type="Float64" NumberOfComponents="4" Name="CauchyStress" format="ascii">
0 0 0 0
0 0 0 0
0 0 0 0
0 0 0 0
0 0 0 0
0 0 0 0
0 0 0 0
0 0 0 0
0 0 0 0
0 0 0 0
0 0 0 0
0 0 0 0
0 0 0 0
0 0 0 0
0 0 0 0
0 0 0 0
0 0 0 0
0 0 0 0
0 0 0 0
0 0 0 0
0 0 0 0
0 0 0 0
0 0 0 0
0 0 0 0
0 0 0 0
0 0 0 0
0 0 0 0
0 0 0 0
0 0 0 0
0 0 0 0
0 0 0 0
0 0 0 0
0 0 0 0
0 0 0 0
0 0 0 0
0 0 0 0
0 0 0 0
0 0 0 0
0 0 0 0
0 0 0 0
0 0 0 0
0 0 0 0
0 0 0 0
0 0 0 0
0 0 0 0
0 0 0 0
0 0 0 0
0 0 0 0
0 0 0 0
0 0 0 0
0 0 0 0
0 0 0 0
0 0 0 0
0 0 0 0
0 0 0 0
0 0 0 0
0 0 0 0
0 0 0 0
0 0 0 0
0 0 0 0
0 0 0 0
0 0 0 0
0 0 0 0
0 0 0 0
0 0 0 0
0 0 0 0
0 0 0 0
0 0 0 0
0 0 0 0
0 0 0 0
0 0 0 0
0 0 0 0
0 0 0 0
0 0 0 0
0 0 0 0
0 0 0 0
0 0 0 0
0 0 0 0
0 0 0 0
0 0 0 0
0 0 0 0
0 0 0 0
0 0 0 0
0 0 0 0
0 0 0 0
0 0 0 0
0 0 0 0
0 0 0 0
0 0 0 0
0 0 0 0
0 0 0 0
0 0 0 0
0 0 0 0
0 0 0 0
0 0 0 0
0 0 0 0
0 0 0 0
0 0 0 0
0 0 0 0
0 0 0 0
0 0 0 0
0 0 0 0
0 0 0 0
0 0 0 0
0 0 0 0
0 0 0 0
0 0 0 0
0 0 0 0
0 0 0 0
0 0 0 0
0 0 0 0
0 0 0 0
0 0 0 0
0 0 0 0
0 0 0 0
0 0 0 0
0 0 0 0
0 0 0 0
0 0 0 0
0 0 0 0
0 0 0 0
0 0 0 0
0 0 0 0
0 0 0 0
0 0 0 0
0 0 0 0
0 0 0 0
0 0 0 0
0 0 0 0
0 0 0 0
0 0 0 0
0 0 0 0
0 0 0 0
0 0 0 0
0 0 0 0
0 0 0 0
0 0 0 0
0 0 0 0
0 0 0 0
0 0 0 0
0 0 0 0
0 0 0 0
0 0 0 0
0 0 0 0
0 0 0 0
0 0 0 0
0 0 0 0
0 0 0 0
0 0 0 0
0 0 0 0
0 0 0 0
0 0 0 0
0 0 0 0
0 0 0 0
0 0 0 0
0 0 0 0
0 0 0 0
0 0 0 0
0 0 0 0
0 0 0 0
0 0 0 0
0 0 0 0
0 0 0 0
0 0 0 0
0 0 0 0
0 0 0 0
0 0 0 0
0 0 0 0
0 0 0 0
0 0 0 0
0 0 0 0
0 0 0 0
0 0 0 0
0 0 0 0
0 0 0 0
0 0 0 0
0 0 0 0
0 0 0 0
0 0 0 0
0 0 0 0
0 0 0 0
0 0 0 0
0 0 0 0
0 0 0 0
0 0 0 0
0 0 0 0
0 0 0 0
0 0 0 0
0 0 0 0
0 0 0 0
0 0 0 0
0 0 0 0
0 0 0 0
      </DataArray> 
    </PointData>
    <CellData>
      <DataArray type="Float64" NumberOfComponents="1" Name="Process" format="ascii">
1
1
3
1
3
0
2
2
0
2
0
2
0
2
0
3
1
3
2
0
0
2
2
3
3
1
1
1
0
0
1
1
3
3
3
2
      </DataArray> 
    </CellData>
  </Piece>
  </UnstructuredGrid>
</VTKFile>
