<?xml version="1.0"?>
<VTKFile type="UnstructuredGrid">
  <UnstructuredGrid>
  <Piece NumberOfPoints="400"  NumberOfCells="25">
    <Points>
      <DataArray type="Float64" NumberOfComponents="3" format="ascii">
0 15 0
7.23686 14.3465 0
8.63255 24.2295 0
0 25 0
2.39797 14.8733 0
4.81221 14.6588 0
7.719 17.6923 0
8.17086 20.9864 0
2.90746 24.845 0
5.78532 24.5915 0
0 18.3333 0
0 21.6667 0
2.58095 18.2529 0
5.1536 18.0331 0
2.73002 21.5764 0
5.45752 21.3435 0
7.23686 14.3465 0
14.5294 12.8166 0
16.9756 22.4998 0
8.63255 24.2295 0
9.66659 13.93 0
12.0983 13.4164 0
15.363 16.0811 0
16.1641 19.3115 0
11.448 23.753 0
14.2297 23.1718 0
7.719 17.6923 0
8.17086 20.9864 0
10.2775 17.247 0
12.8266 16.7072 0
10.8604 20.5221 0
13.5247 19.9608 0
14.5294 12.8166 0
21.8048 10.587 0
24.9956 20.0541 0
16.9756 22.4998 0
16.9577 12.1404 0
19.3829 11.3951 0
22.8836 13.7662 0
23.9368 16.925 0
19.6842 21.75 0
22.3568 20.9319 0
15.363 16.0811 0
16.1641 19.3115 0
17.8842 15.3767 0
20.3907 14.6023 0
18.7791 18.5828 0
21.3699 17.7842 0
21.8048 10.587 0
29.0558 7.85282 0
32.7289 17.1467 0
24.9956 20.0541 0
24.2237 9.72254 0
26.6404 8.80877 0
30.2916 10.9645 0
31.5058 14.0663 0
27.6023 19.1254 0
30.1794 18.1536 0
22.8836 13.7662 0
23.9368 16.925 0
25.3638 12.8765 0
27.8328 11.9403 0
26.4803 16.0141 0
29.0025 15.0588 0
29.0558 7.85282 0
36.3081 4.7973 0
40.2378 13.9866 0
32.7289 17.1467 0
31.4711 6.86162 0
33.8879 5.84118 0
37.6251 7.86553 0
38.9267 10.9322 0
35.2531 16.1123 0
37.7551 15.0568 0
30.2916 10.9645 0
31.5058 14.0663 0
32.7419 9.95603 0
35.1856 8.92101 0
33.9927 13.0434 0
36.4656 11.9966 0
36.3081 4.7973 0
43.6066 1.58191 0
47.5989 10.7451 0
40.2378 13.9866 0
38.7333 3.73572 0
41.1655 2.66206 0
44.9405 4.63415 0
46.2635 7.69194 0
42.7042 12.9076 0
45.1571 11.8254 0
37.6251 7.86553 0
38.9267 10.9322 0
40.0627 6.79555 0
42.5004 5.71662 0
41.3783 9.85633 0
43.8231 8.7745 0
43.6066 1.58191 0
51.001 -1.6442 0
54.8835 7.56595 0
47.5989 10.7451 0
46.0584 0.500752 0
48.5227 -0.576298 0
52.2948 1.41728 0
53.5822 4.49012 0
50.0323 9.67206 0
52.4597 8.61081 0
44.9405 4.63415 0
46.2635 7.69194 0
47.3849 3.55348 0
49.8357 2.47957 0
48.7021 6.61381 0
51.141 5.54495 0
51.001 -1.6442 0
58.5359 -4.74413 0
62.1544 4.57258 0
54.8835 7.56595 0
53.4952 -2.69799 0
56.0064 -3.73288 0
59.739 -1.65292 0
60.9392 1.45484 0
57.306 6.54194 0
59.7291 5.54284 0
52.2948 1.41728 0
53.5822 4.49012 0
54.7641 0.371423 0
57.245 -0.65347 0
56.0279 3.45398 0
58.4797 2.44082 0
58.5359 -4.74413 0
66.2434 -7.5905 0
69.4586 1.8723 0
62.1544 4.57258 0
61.0848 -5.72708 0
63.6538 -6.67733 0
67.3105 -4.45573 0
68.377 -1.29999 0
64.5836 3.63503 0
67.018 2.73378 0
59.739 -1.65292 0
60.9392 1.45484 0
62.2474 -2.62252 0
64.771 -3.55814 0
63.4079 0.500148 0
65.8868 -0.41939 0
66.2434 -7.5905 0
74.1384 -10.0661 0
76.8261 -0.440885 0
69.4586 1.8723 0
68.8541 -8.46232 0
71.4859 -9.28881 0
75.0291 -6.88171 0
75.9206 -3.67255 0
71.9065 1.054 0
74.3622 0.281948 0
67.3105 -4.45573 0
68.377 -1.29999 0
69.8666 -5.31129 0
72.4395 -6.12116 0
70.8791 -2.13796 0
73.3936 -2.92991 0
74.1384 -10.0661 0
82.2154 -12.066 0
84.2688 -2.28665 0
76.8261 -0.440885 0
76.8115 -10.7903 0
79.5041 -11.458 0
82.8951 -8.83405 0
83.5761 -5.57413 0
79.2986 -1.11161 0
81.7796 -1.72769 0
75.0291 -6.88171 0
75.9206 -3.67255 0
77.6354 -7.58945 0
80.2576 -8.24124 0
78.4603 -4.36268 0
81.0123 -4.99745 0
82.2154 -12.066 0
90.4475 -13.5018 0
91.7813 -3.59921 0
84.2688 -2.28665 0
84.9441 -12.6111 0
87.6887 -13.0905 0
90.8887 -10.2316 0
91.3309 -6.93115 0
86.7659 -2.78616 0
89.2704 -3.22429 0
82.8951 -8.83405 0
83.5761 -5.57413 0
85.547 -9.36499 0
88.212 -9.83162 0
86.1511 -6.09008 0
88.7364 -6.54311 0
90.4475 -13.5018 0
98.7894 -14.3058 0
99.3439 -4.32961 0
91.7813 -3.59921 0
93.2187 -13.8426 0
96 -14.1112 0
98.9727 -11.0129 0
99.1563 -7.68818 0
94.298 -3.90922 0
96.8192 -4.15307 0
90.8887 -10.2316 0
91.3309 -6.93115 0
93.5756 -10.5629 0
96.2709 -10.8238 0
93.9333 -7.25227 0
96.5423 -7.50504 0
98.7894 -14.3058 0
107.181 -14.4358 0
106.926 -4.44753 0
99.3439 -4.32961 0
101.584 -14.4253 0
104.382 -14.4688 0
107.097 -11.1394 0
107.012 -7.81079 0
101.871 -4.43785 0
104.399 -4.47728 0
98.9727 -11.0129 0
99.1563 -7.68818 0
101.679 -11.1289 0
104.388 -11.1712 0
101.774 -7.80054 0
104.393 -7.84155 0
107.181 -14.4358 0
115.556 -13.8777 0
114.492 -3.94301 0
106.926 -4.44753 0
109.978 -14.3259 0
112.771 -14.1397 0
115.204 -10.5986 0
114.851 -7.28764 0
109.452 -4.34837 0
111.974 -4.18007 0
107.097 -11.1394 0
107.012 -7.81079 0
109.804 -11.0331 0
112.507 -10.8526 0
109.629 -7.70798 0
112.243 -7.53344 0
115.556 -13.8777 0
123.847 -12.6473 0
122.005 -2.82657 0
114.492 -3.94301 0
118.332 -13.5406 0
121.097 -13.13 0
123.238 -9.4043 0
122.627 -6.13105 0
117.004 -3.63771 0
119.509 -3.26518 0
115.204 -10.5986 0
114.851 -7.28764 0
117.893 -10.2716 0
120.572 -9.87299 0
117.452 -6.97118 0
120.045 -6.58522 0
123.847 -12.6473 0
131.997 -10.7879 0
129.438 -1.12866 0
122.005 -2.82657 0
126.582 -12.0945 0
129.299 -11.4738 0
131.15 -7.59599 0
130.301 -4.37589 0
124.493 -2.32311 0
126.971 -1.75653 0
123.238 -9.4043 0
122.627 -6.13105 0
125.891 -8.86712 0
128.529 -8.2636 0
125.198 -5.61009 0
127.756 -5.02434 0
131.997 -10.7879 0
139.962 -8.36755 0
136.77 1.10212 0
129.438 -1.12866 0
134.674 -10.0394 0
137.329 -9.23159 0
138.905 -5.23488 0
137.845 -2.07759 0
131.894 -0.441406 0
134.338 0.302966 0
131.15 -7.59599 0
130.301 -4.37589 0
133.754 -6.86669 0
136.339 -6.07863 0
132.831 -3.66693 0
135.346 -2.89998 0
139.962 -8.36755 0
147.72 -5.47342 0
144 3.80213 0
136.77 1.10212 0
142.572 -7.45064 0
145.158 -6.48464 0
146.486 -2.40155 0
145.251 0.6924 0
139.191 1.95362 0
141.601 2.8546 0
138.905 -5.23488 0
137.845 -2.07759 0
141.452 -4.33857 0
143.978 -3.393 0
140.329 -1.2025 0
142.798 -0.278018 0
147.72 -5.47342 0
155.268 -2.20842 0
151.139 6.89291 0
144 3.80213 0
150.259 -4.42091 0
152.775 -3.33119 0
153.896 0.811027 0
152.526 3.84637 0
146.388 4.79318 0
148.768 5.82454 0
146.486 -2.40155 0
145.251 0.6924 0
148.974 -1.36771 0
151.444 -0.295476 0
147.689 1.70535 0
150.114 2.7577 0
155.268 -2.20842 0
162.627 1.31471 0
158.221 10.2865 0
151.139 6.89291 0
157.74 -1.05682 0
160.193 0.119096 0
161.16 4.29548 0
159.698 7.29072 0
153.504 7.995 0
155.864 9.12734 0
153.896 0.811027 0
152.526 3.84637 0
156.332 1.9477 0
158.753 3.11051 0
154.926 4.96796 0
157.316 6.11775 0
162.627 1.31471 0
169.832 4.97375 0
165.298 13.881 0
158.221 10.2865 0
165.044 2.52544 0
167.445 3.74665 0
168.317 7.93982 0
166.813 10.9098 0
160.578 11.4686 0
162.936 12.6686 0
161.16 4.29548 0
159.698 7.29072 0
163.555 5.49847 0
165.939 6.71484 0
162.073 8.48225 0
164.443 9.68943 0
169.832 4.97375 0
176.934 8.63922 0
172.431 17.5588 0
165.298 13.881 0
172.207 6.20193 0
174.572 7.42566 0
175.429 11.6157 0
173.936 14.5974 0
167.665 15.1012 0
170.041 16.3274 0
168.317 7.93982 0
166.813 10.9098 0
170.691 9.16853 0
173.061 10.3956 0
169.185 12.1397 0
171.559 13.3718 0
176.934 8.63922 0
183.98 12.1733 0
179.7 21.1794 0
172.431 17.5588 0
179.295 9.8373 0
181.646 11.0164 0
182.552 15.1968 0
181.137 18.1944 0
174.839 18.7908 0
177.262 20.005 0
175.429 11.6157 0
173.936 14.5974 0
177.795 12.824 0
180.167 14.0182 0
176.318 15.8096 0
178.714 17.0082 0
183.98 12.1733 0
191.024 15 0
186.847 25 0
179.7 21.1794 0
186.295 13.2872 0
188.627 14.266 0
189.853 18.3333 0
188.422 21.6667 0
182.142 22.3202 0
184.542 23.545 0
182.552 15.1968 0
181.137 18.1944 0
184.957 16.3474 0
187.389 17.4149 0
183.587 19.3687 0
186.031 20.5276 0
      </DataArray>
    </Points>
    <Cells>
      <DataArray type="Int32" Name="connectivity" format="ascii">
0 1 2 3 4 5 6 7 8 9 10 11 12 13 14 15 
16 17 18 19 20 21 22 23 24 25 26 27 28 29 30 31 
32 33 34 35 36 37 38 39 40 41 42 43 44 45 46 47 
48 49 50 51 52 53 54 55 56 57 58 59 60 61 62 63 
64 65 66 67 68 69 70 71 72 73 74 75 76 77 78 79 
80 81 82 83 84 85 86 87 88 89 90 91 92 93 94 95 
96 97 98 99 100 101 102 103 104 105 106 107 108 109 110 111 
112 113 114 115 116 117 118 119 120 121 122 123 124 125 126 127 
128 129 130 131 132 133 134 135 136 137 138 139 140 141 142 143 
144 145 146 147 148 149 150 151 152 153 154 155 156 157 158 159 
160 161 162 163 164 165 166 167 168 169 170 171 172 173 174 175 
176 177 178 179 180 181 182 183 184 185 186 187 188 189 190 191 
192 193 194 195 196 197 198 199 200 201 202 203 204 205 206 207 
208 209 210 211 212 213 214 215 216 217 218 219 220 221 222 223 
224 225 226 227 228 229 230 231 232 233 234 235 236 237 238 239 
240 241 242 243 244 245 246 247 248 249 250 251 252 253 254 255 
256 257 258 259 260 261 262 263 264 265 266 267 268 269 270 271 
272 273 274 275 276 277 278 279 280 281 282 283 284 285 286 287 
288 289 290 291 292 293 294 295 296 297 298 299 300 301 302 303 
304 305 306 307 308 309 310 311 312 313 314 315 316 317 318 319 
320 321 322 323 324 325 326 327 328 329 330 331 332 333 334 335 
336 337 338 339 340 341 342 343 344 345 346 347 348 349 350 351 
352 353 354 355 356 357 358 359 360 361 362 363 364 365 366 367 
368 369 370 371 372 373 374 375 376 377 378 379 380 381 382 383 
384 385 386 387 388 389 390 391 392 393 394 395 396 397 398 399 
      </DataArray>
      <DataArray type="Int32" Name="offsets" format="ascii">
16
32
48
64
80
96
112
128
144
160
176
192
208
224
240
256
272
288
304
320
336
352
368
384
400
      </DataArray>
      <DataArray type="UInt8" Name="types" format="ascii">
70
70
70
70
70
70
70
70
70
70
70
70
70
70
70
70
70
70
70
70
70
70
70
70
70
      </DataArray>
    </Cells>
    <PointData>
      <DataArray type="Float64" NumberOfComponents="2" Name="Displacement" format="ascii">
0 0
-0.763144 -0.653476
0.632553 -0.770531
0 0
-0.268698 -0.126726
-0.521123 -0.341221
-0.281002 -0.641083
0.170861 -0.680217
0.240796 -0.155038
0.451982 -0.408544
0 0
0 0
-0.0857183 -0.080445
-0.179736 -0.30025
0.0633517 -0.090272
0.124182 -0.323167
-0.763144 -0.653476
-1.47063 -2.18343
0.975568 -2.50019
0.632553 -0.770531
-1.00008 -1.07002
-1.23505 -1.58359
-0.637026 -2.25226
0.164122 -2.3552
0.781321 -1.24704
0.896362 -1.82821
-0.281002 -0.641083
0.170861 -0.680217
-0.38918 -1.08631
-0.50678 -1.62608
0.193773 -1.14457
0.191371 -1.70582
-1.47063 -2.18343
-2.1952 -4.413
0.995555 -4.94587
0.975568 -2.50019
-1.70896 -2.85956
-1.95048 -3.60487
-1.11643 -4.56713
-0.0631968 -4.74168
1.01751 -3.25002
1.02351 -4.06815
-0.637026 -2.25226
0.164122 -2.3552
-0.782421 -2.95667
-0.942588 -3.73105
0.11245 -3.08382
0.0366081 -3.88243
-2.1952 -4.413
-2.94422 -7.14718
0.728854 -7.85331
0.995555 -4.94587
-2.44298 -5.27746
-2.69298 -6.19123
-1.70836 -7.36881
-0.494192 -7.60032
0.935675 -5.87462
0.84604 -6.8464
-1.11643 -4.56713
-0.0631968 -4.74168
-1.30283 -5.45686
-1.50056 -6.39306
-0.186381 -5.65261
-0.330865 -6.60782
-2.94422 -7.14718
-3.69194 -10.2027
0.237815 -11.0134
0.728854 -7.85331
-3.19559 -8.13838
-3.44542 -9.15882
-2.37491 -10.4678
-1.07333 -10.7345
0.586463 -8.88774
0.421768 -9.9432
-1.70836 -7.36881
-0.494192 -7.60032
-1.9248 -8.3773
-2.14775 -9.41233
-0.67393 -8.62322
-0.867747 -9.67006
-3.69194 -10.2027
-4.39337 -13.4181
-0.401122 -14.2549
0.237815 -11.0134
-3.93336 -11.2643
-4.16779 -12.3379
-3.0595 -13.6992
-1.73648 -13.9747
0.0375733 -12.0924
-0.176275 -13.1746
-2.37491 -10.4678
-1.07333 -10.7345
-2.604 -11.5378
-2.8329 -12.6167
-1.28833 -11.8103
-1.51023 -12.8922
-4.39337 -13.4181
-4.99896 -16.6442
-1.1165 -17.4341
-0.401122 -14.2549
-4.60824 -14.4992
-4.81067 -15.5763
-3.7052 -16.9161
-2.41778 -17.1765
-0.634393 -15.3279
-0.873653 -16.3892
-3.0595 -13.6992
-1.73648 -13.9747
-3.28174 -14.7799
-3.49763 -15.8538
-1.96458 -15.0529
-2.19238 -16.1217
-4.99896 -16.6442
-5.46414 -19.7441
-1.8456 -20.4274
-1.1165 -17.4341
-5.1715 -17.698
-5.32697 -18.7329
-4.26096 -19.9863
-3.06084 -20.2118
-1.36065 -18.4581
-1.60426 -19.4572
-3.7052 -16.9161
-2.41778 -17.1765
-3.90259 -17.9619
-4.0883 -18.9868
-2.63877 -18.2127
-2.85366 -19.2258
-5.46414 -19.7441
-5.7566 -22.5905
-2.54141 -23.1277
-1.8456 -20.4274
-5.5819 -20.7271
-5.67958 -21.6773
-4.68952 -22.7891
-3.62304 -22.9667
-2.08304 -21.365
-2.31536 -22.2662
-4.26096 -19.9863
-3.06084 -20.2118
-4.41928 -20.9559
-4.56238 -21.8915
-3.2588 -21.1665
-3.44651 -22.0861
-5.7566 -22.5905
-5.86156 -25.0661
-3.17387 -25.4409
-2.54141 -23.1277
-5.81253 -23.4623
-5.84745 -24.2888
-4.97088 -25.215
-4.07942 -25.3392
-2.76019 -23.946
-2.97115 -24.7181
-4.68952 -22.7891
-3.62304 -22.9667
-4.80004 -23.6446
-4.89383 -24.4545
-3.78758 -23.8046
-3.93977 -24.5966
-5.86156 -25.0661
-5.78464 -27.066
-3.7312 -27.2867
-3.17387 -25.4409
-5.85519 -25.7903
-5.82921 -26.458
-5.10494 -27.1674
-4.42394 -27.2408
-3.36804 -26.1116
-3.55374 -26.7277
-4.97088 -25.215
-4.07942 -25.3392
-5.03132 -25.9228
-5.07575 -26.5746
-4.2064 -26.0293
-4.32108 -26.6641
-5.78464 -27.066
-5.5525 -28.5018
-4.21866 -28.5992
-3.7312 -27.2867
-5.72258 -27.6111
-5.64463 -28.0905
-5.11132 -28.565
-4.66912 -28.5978
-3.90072 -27.7862
-4.06295 -28.2243
-5.10494 -27.1674
-4.42394 -27.2408
-5.11971 -27.6983
-5.12137 -28.1649
-4.51555 -27.7567
-4.59692 -28.2098
-5.5525 -28.5018
-5.21064 -29.3058
-4.65611 -29.3296
-4.21866 -28.5992
-5.448 -28.8426
-5.33329 -29.1112
-5.02725 -29.3462
-4.84365 -29.3549
-4.36868 -28.9092
-4.51411 -29.1531
-5.11132 -28.565
-4.66912 -28.5978
-5.09106 -28.8962
-5.0624 -29.1571
-4.73332 -28.9189
-4.79099 -29.1717
-5.21064 -29.3058
-4.8188 -29.4358
-5.07406 -29.4475
-4.65611 -29.3296
-5.08235 -29.4253
-4.95089 -29.4688
-4.90299 -29.4727
-4.98808 -29.4775
-4.79589 -29.4378
-4.93476 -29.4773
-5.02725 -29.3462
-4.84365 -29.3549
-4.98754 -29.4622
-4.9454 -29.5046
-4.89289 -29.4672
-4.94045 -29.5082
-4.8188 -29.4358
-4.44398 -28.8777
-5.50825 -28.943
-5.07406 -29.4475
-4.6886 -29.3259
-4.56282 -29.1397
-4.79557 -28.9319
-5.14915 -28.9543
-5.21516 -29.3484
-5.35943 -29.1801
-4.90299 -29.4727
-4.98808 -29.4775
-4.86245 -29.3664
-4.82593 -29.1859
-5.03758 -29.3747
-5.09069 -29.2001
-4.44398 -28.8777
-4.15279 -27.6473
-5.99452 -27.8266
-5.50825 -28.943
-4.33456 -28.5406
-4.23678 -28.13
-4.76151 -27.7376
-5.37307 -27.7977
-5.66297 -28.6377
-5.8247 -28.2652
-4.79557 -28.9319
-5.14915 -28.9543
-4.77346 -28.6049
-4.76149 -28.2063
-5.21468 -28.6378
-5.28881 -28.2519
-4.15279 -27.6473
-4.00298 -25.7879
-6.56194 -26.1287
-5.99452 -27.8266
-4.08469 -27.0945
-4.0342 -26.4738
-4.84967 -25.9293
-5.69934 -26.0426
-6.17345 -27.3231
-6.36233 -26.7565
-4.76151 -27.7376
-5.37307 -27.7977
-4.7753 -27.2005
-4.80425 -26.5969
-5.46887 -27.2768
-5.57729 -26.691
-4.00298 -25.7879
-4.03778 -23.3675
-7.2297 -23.8979
-6.56194 -26.1287
-3.99256 -25.0394
-4.00389 -24.2316
-5.09492 -23.5682
-6.1546 -23.7443
-6.77294 -25.4414
-6.99551 -24.697
-4.84967 -25.9293
-5.69934 -26.0426
-4.91279 -25.2
-4.99432 -24.412
-5.83592 -25.3336
-5.98753 -24.5666
-4.03778 -23.3675
-4.27988 -20.4734
-8.00034 -21.1979
-7.2297 -23.8979
-4.09495 -22.4506
-4.17561 -21.4846
-5.51411 -20.7349
-6.74931 -20.9743
-7.47549 -23.0464
-7.73251 -22.1454
-5.09492 -23.5682
-6.1546 -23.7443
-5.21508 -22.6719
-5.35484 -21.7263
-6.3374 -22.8692
-6.53574 -21.9447
-4.27988 -20.4734
-4.73172 -17.2084
-8.86087 -18.1071
-8.00034 -21.1979
-4.40773 -19.4209
-4.55859 -18.3312
-6.10387 -17.5223
-7.47448 -17.8203
-8.2784 -20.2068
-8.56564 -19.1755
-5.51411 -20.7349
-6.74931 -20.9743
-5.69265 -19.701
-5.88958 -18.6288
-6.97765 -19.9613
-7.21976 -18.909
-4.73172 -17.2084
-5.37344 -13.6853
-9.77862 -14.7135
-8.86087 -18.1071
-4.92626 -16.0568
-5.14072 -14.8809
-6.8399 -14.0379
-8.30193 -14.3759
-9.16277 -17.005
-9.46939 -15.8727
-6.10387 -17.5223
-7.47448 -17.8203
-6.33449 -16.3856
-6.58023 -15.2228
-7.74063 -16.6987
-8.01689 -15.5489
-5.37344 -13.6853
-6.16751 -10.0263
-10.7021 -11.119
-9.77862 -14.7135
-5.6229 -12.4746
-5.88794 -11.2533
-7.68264 -10.3935
-9.18716 -10.7569
-10.0884 -13.5314
-10.3968 -12.3314
-6.8399 -14.0379
-8.30193 -14.3759
-7.11201 -12.8349
-7.3939 -11.6185
-8.59406 -13.1844
-8.89026 -11.9772
-6.16751 -10.0263
-7.06584 -6.36078
-11.5687 -7.44123
-10.7021 -11.119
-6.45994 -8.79807
-6.761 -7.57434
-8.57114 -6.71762
-10.0636 -7.06924
-11.0019 -9.89881
-11.2922 -8.67257
-7.68264 -10.3935
-9.18716 -10.7569
-7.97569 -9.1648
-8.27206 -7.93769
-9.48197 -9.52693
-9.77412 -8.29485
-7.06584 -6.36078
-8.02004 -2.82672
-12.2999 -3.82056
-11.5687 -7.44123
-7.37204 -5.1627
-7.68687 -3.98364
-9.44776 -3.13658
-10.8633 -3.47227
-11.828 -6.20922
-12.071 -4.99501
-8.57114 -6.71762
-10.0636 -7.06924
-8.8712 -5.50938
-9.16589 -4.31517
-10.3485 -5.85703
-10.619 -4.65849
-8.02004 -2.82672
-8.97605 0
-13.1535 0
-12.2999 -3.82056
-8.37196 -1.71284
-8.70595 -0.734005
-10.1473 0
-11.5781 0
-12.5251 -2.67984
-12.7918 -1.45495
-9.44776 -3.13658
-10.8633 -3.47227
-9.70953 -1.98591
-9.94478 -0.918386
-11.0792 -2.29797
-11.3024 -1.13907
      </DataArray> 
      <DataArray type="Float64" NumberOfComponents="4" Name="CauchyStress" format="ascii">
-193.968 -71.03 0 -17.8571
-133.564 -2.28184 0 21.1574
163.425 1.54731 0 -23.701
243.575 63.5544 0 -40.5817
-161.115 -6.00059 0 7.07951
-143.248 7.05923 0 19.0982
-56.7835 -3.87223 0 -3.58824
46.7043 -0.554085 0 -19.4175
203.934 5.91236 0 -17.6553
180.255 -5.73346 0 -16.042
-63.9084 -20.3914 0 -1.22757
51.8057 14.8931 0 -3.93686
-63.2456 -5.79424 0 -6.27388
-61.4046 -2.68833 0 -6.1744
51.5699 -3.31071 0 -14.1711
51.2485 -4.54449 0 -18.9253
-133.564 -2.28184 0 21.1574
-96.6229 -5.54421 0 26.0564
118.269 6.39488 0 -30.3734
163.425 1.54731 0 -23.701
-122.695 -7.25974 0 21.859
-109.545 -6.87272 0 23.9619
-40.3761 -0.0449026 0 -0.138541
30.0654 3.94356 0 -18.9942
148.548 7.15477 0 -29.9409
133.747 7.77881 0 -31.4318
-56.7835 -3.87223 0 -3.58824
46.7043 -0.554085 0 -19.4175
-50.3412 -3.42388 0 -1.41426
-44.5458 -1.59653 0 -0.52374
39.6434 1.65769 0 -18.7923
34.2356 2.9079 0 -18.8274
-96.6229 -5.54421 0 26.0564
-65.9833 -8.07952 0 22.607
76.8457 8.66278 0 -27.0993
118.269 6.39488 0 -30.3734
-85.4181 -5.92816 0 26.4086
-75.3566 -7.13905 0 24.9335
-28.517 1.01575 0 0.417903
19.8846 7.07802 0 -16.4381
103.012 6.26529 0 -29.2082
89.2968 7.53941 0 -28.4217
-40.3761 -0.0449026 0 -0.138541
30.0654 3.94356 0 -18.9942
-36.8175 0.575926 0 0.19799
-32.7172 0.812603 0 0.398076
26.7663 5.2833 0 -18.715
23.5967 6.49884 0 -17.8438
-65.9833 -8.07952 0 22.607
-38.237 -5.99214 0 15.7502
45.908 6.30354 0 -18.2602
76.8457 8.66278 0 -27.0993
-56.5226 -7.91543 0 20.2943
-47.0612 -7.01338 0 18.0691
-17.8646 3.0883 0 -1.12077
10.0873 7.27142 0 -12.5273
65.7288 8.64963 0 -24.7469
55.6144 7.7287 0 -21.6866
-28.517 1.01575 0 0.417903
19.8846 7.07802 0 -16.4381
-24.5153 1.61224 0 0.111262
-20.9045 2.44678 0 -0.486254
16.0816 7.22025 0 -14.9681
12.8746 7.31935 0 -13.7318
-38.237 -5.99214 0 15.7502
-15.532 -2.8232 0 6.73209
19.7785 2.89203 0 -8.84006
45.908 6.30354 0 -18.2602
-30.2231 -5.0334 0 13.0333
-22.7076 -3.97455 0 9.92912
-9.40543 4.11915 0 -3.20915
2.7572 6.23369 0 -8.53738
36.5384 5.02482 0 -14.9666
27.8102 3.99906 0 -11.9141
-17.8646 3.0883 0 -1.12077
10.0873 7.27142 0 -12.5273
-15.0672 3.48483 0 -1.74934
-12.2124 3.82152 0 -2.46238
7.58861 7.10162 0 -11.2596
5.191 6.78451 0 -9.94274
-15.532 -2.8232 0 6.73209
5.08897 1.08802 0 -2.13319
-1.23424 -1.23949 0 0.60014
19.7785 2.89203 0 -8.84006
-8.49193 -1.53883 0 3.65294
-1.5925 -0.196789 0 0.700715
-1.99116 5.12413 0 -5.62618
-3.94397 4.4155 0 -4.75773
12.4003 1.58822 0 -5.65175
5.44101 0.188485 0 -2.47917
-9.40543 4.11915 0 -3.20915
2.7572 6.23369 0 -8.53738
-6.74781 4.48103 0 -4.00363
-4.29025 4.86085 0 -4.83761
0.35768 5.60846 0 -7.16344
-1.88308 5.02738 0 -5.92449
5.08897 1.08802 0 -2.13319
23.7908 4.4739 0 -10.134
-20.0001 -4.61266 0 8.45311
-1.23424 -1.23949 0 0.60014
11.4928 2.30726 0 -4.90382
17.6762 3.45426 0 -7.60059
4.48655 5.32243 0 -7.74006
-9.81298 2.39018 0 -1.59857
-7.73578 -2.53287 0 3.45391
-14.034 -3.64092 0 6.04755
-1.99116 5.12413 0 -5.62618
-3.94397 4.4155 0 -4.75773
0.201134 5.26351 0 -6.36157
2.33135 5.32765 0 -7.07485
-5.91935 3.76538 0 -3.6455
-7.90219 3.08778 0 -2.59903
23.7908 4.4739 0 -10.134
41.6356 6.52514 0 -16.3139
-36.7327 -6.65847 0 14.4465
-20.0001 -4.61266 0 8.45311
29.8281 5.33312 0 -12.4389
35.7346 6.0138 0 -14.5029
10.5117 4.92812 0 -9.34703
-15.3627 0.578388 0 0.885233
-25.7178 -5.44902 0 10.6848
-31.3235 -6.13505 0 12.6903
4.48655 5.32243 0 -7.74006
-9.81298 2.39018 0 -1.59857
6.58049 5.26679 0 -8.34906
8.54008 5.13968 0 -8.8939
-11.6977 1.73165 0 -0.671231
-13.5919 1.13179 0 0.151352
41.6356 6.52514 0 -16.3139
58.6187 7.03316 0 -20.1158
-52.235 -7.15146 0 17.9306
-36.7327 -6.65847 0 14.4465
47.4272 6.87225 0 -17.8691
53.0262 7.03884 0 -19.1494
16.1064 3.81842 0 -10.1171
-20.5411 -0.867373 0 2.54105
-42.0281 -6.99939 0 15.9095
-47.2513 -7.16316 0 17.0628
10.5117 4.92812 0 -9.34703
-15.3627 0.578388 0 0.885233
12.4329 4.63037 0 -9.70317
14.2408 4.25189 0 -9.96609
-17.0979 0.0598097 0 1.52916
-18.879 -0.429589 0 2.07647
58.6187 7.03316 0 -20.1158
74.4665 6.01985 0 -20.9919
-66.1999 -6.23833 0 18.6971
-52.235 -7.15146 0 17.9306
64.0901 6.85069 0 -20.7519
69.3119 6.49807 0 -21.0531
21.2755 2.23037 0 -9.88012
-25.3018 -1.83786 0 3.33329
-57.0439 -6.97779 0 18.5012
-61.7516 -6.66976 0 18.7512
16.1064 3.81842 0 -10.1171
-20.5411 -0.867373 0 2.54105
17.9239 3.33626 0 -10.1581
19.5862 2.79897 0 -10.0887
-22.1578 -1.24335 0 2.90768
-23.8029 -1.5686 0 3.1633
74.4665 6.01985 0 -20.9919
88.3851 4.06554 0 -18.7421
-78.2248 -4.47831 0 16.6122
-66.1999 -6.23833 0 18.6971
79.4103 5.44149 0 -20.5874
83.9912 4.77701 0 -19.8523
25.7694 0.429898 0 -8.52083
-29.4201 -2.41243 0 3.24765
-70.4356 -5.71166 0 18.3176
-74.4981 -5.12097 0 17.6064
21.2755 2.23037 0 -9.88012
-25.3018 -1.83786 0 3.33329
22.8933 1.63864 0 -9.54916
24.3339 1.02913 0 -9.11008
-26.7281 -2.06383 0 3.40191
-28.1568 -2.25908 0 3.35885
88.3851 4.06554 0 -18.7421
99.3476 1.92001 0 -13.5174
-87.5099 -2.54769 0 11.9294
-78.2248 -4.47831 0 16.6122
92.4606 3.33464 0 -17.3015
96.0677 2.60704 0 -15.577
29.2948 -1.19124 0 -6.09738
-32.6263 -2.69221 0 2.376
-81.6411 -3.81343 0 15.3232
-84.78 -3.16179 0 13.7376
25.7694 0.429898 0 -8.52083
-29.4201 -2.41243 0 3.24765
27.1053 -0.146606 0 -7.81637
28.2336 -0.694133 0 -7.02775
-30.5755 -2.52977 0 3.04406
-31.6901 -2.62345 0 2.73173
99.3476 1.92001 0 -13.5174
106.292 0.396367 0 -5.98747
-93.3411 -1.22554 0 5.27424
-87.5099 -2.54769 0 11.9294
102.193 1.30284 0 -11.2039
104.476 0.782889 0 -8.71483
31.512 -2.2739 0 -2.84406
-34.6468 -2.83384 0 0.907722
-89.8484 -2.00963 0 9.89804
-91.822 -1.56757 0 7.64916
29.2948 -1.19124 0 -6.09738
-32.6263 -2.69221 0 2.376
30.2218 -1.62718 0 -5.07834
30.93 -1.99368 0 -4.01842
-33.4209 -2.74707 0 1.94986
-34.1245 -2.79526 0 1.43271
106.292 0.396367 0 -5.98747
108.51 0.158335 0 2.77083
-95.106 -0.954432 0 -2.43546
-93.3411 -1.22554 0 5.27424
107.601 0.166893 0 -3.12325
108.332 0.0897069 0 -0.225361
32.1874 -2.54154 0 0.847955
-35.2998 -2.93911 0 -0.872778
-94.3944 -0.997901 0 2.77405
-94.9901 -0.90136 0 0.164626
31.512 -2.2739 0 -2.84406
-34.6468 -2.83384 0 0.907722
31.9369 -2.46134 0 -1.62111
32.1518 -2.55337 0 -0.416064
-35.0044 -2.87086 0 0.345021
-35.2321 -2.90803 0 -0.28014
108.51 0.158335 0 2.77083
105.686 1.24836 0 11.3821
-92.7584 -2.03711 0 -9.9818
-95.106 -0.954432 0 -2.43546
108.139 0.360062 0 5.74988
107.205 0.711332 0 8.59822
31.2557 -1.91719 0 4.48105
-34.5084 -3.03149 0 -2.62481
-94.7588 -1.18218 0 -5.0075
-93.9692 -1.55871 0 -7.55233
32.1874 -2.54154 0 0.847955
-35.2998 -2.93911 0 -0.872778
32.0599 -2.42783 0 2.10349
31.7617 -2.21897 0 3.28707
-35.1922 -2.96727 0 -1.46062
-34.9159 -2.99714 0 -2.07456
105.686 1.24836 0 11.3821
98.3383 3.67393 0 18.5696
-86.3708 -3.94735 0 -16.3721
-92.7584 -2.03711 0 -9.9818
103.689 1.97982 0 14.01
101.279 2.82237 0 16.3868
28.814 -0.543772 0 7.58699
-32.3995 -3.09422 0 -4.01463
-91.0723 -2.57943 0 -12.2951
-88.901 -3.20128 0 -14.4659
31.2557 -1.91719 0 4.48105
-34.5084 -3.03149 0 -2.62481
30.593 -1.53503 0 5.62267
29.8088 -1.0786 0 6.638
-33.9446 -3.07548 0 -3.13317
-33.2118 -3.10685 0 -3.62344
98.3383 3.67393 0 18.5696
87.0843 6.11402 0 23.2504
-76.9731 -6.58558 0 -20.4886
-86.3708 -3.94735 0 -16.3721
94.9557 4.45154 0 20.4772
91.2388 5.22343 0 22.0241
25.1997 1.36367 0 9.7799
-29.146 -2.87689 0 -4.79592
-83.5308 -4.84619 0 -17.9913
-80.3748 -5.78033 0 -19.3676
28.814 -0.543772 0 7.58699
-32.3995 -3.09422 0 -4.01463
27.7075 0.067885 0 8.4313
26.5557 0.720231 0 9.14092
-31.4441 -3.02369 0 -4.3321
-30.3083 -2.93398 0 -4.61159
87.0843 6.11402 0 23.2504
73.4237 8.90079 0 24.897
-64.7737 -8.21114 0 -22.1689
-76.9731 -6.58558 0 -20.4886
82.7113 7.19628 0 24.1314
78.2426 8.23573 0 24.6601
20.6652 3.16619 0 10.8929
-25.0935 -2.48323 0 -4.70486
-73.1932 -7.13703 0 -21.3756
-69.0323 -7.59225 0 -21.9748
25.1997 1.36367 0 9.7799
-29.146 -2.87689 0 -4.79592
23.7324 1.95943 0 10.3135
22.2672 2.54063 0 10.6803
-27.9038 -2.85442 0 -4.87568
-26.5071 -2.75941 0 -4.85417
73.4237 8.90079 0 24.897
57.8401 8.99777 0 23.509
-51.5058 -9.93322 0 -20.6103
-64.7737 -8.21114 0 -22.1689
68.3161 8.99413 0 24.8323
63.1297 8.86258 0 24.3879
15.6739 5.09548 0 10.8194
-20.5101 -1.27321 0 -3.95801
-60.5074 -9.123 0 -21.932
-56.0985 -9.89025 0 -21.3771
20.6652 3.16619 0 10.8929
-25.0935 -2.48323 0 -4.70486
19.0469 3.89465 0 10.9592
17.4636 4.60516 0 10.9177
-23.5881 -2.00786 0 -4.49044
-21.9808 -1.53366 0 -4.25608
57.8401 8.99777 0 23.509
41.9676 9.91376 0 18.8954
-36.4121 -7.68465 0 -17.0538
-51.5058 -9.93322 0 -20.6103
52.6826 9.70482 0 22.1831
47.5617 10.3239 0 20.575
10.3326 5.56333 0 9.90603
-15.4701 -0.0398038 0 -1.85412
-46.5353 -8.9505 0 -19.714
-41.3475 -7.8159 0 -18.5853
15.6739 5.09548 0 10.8194
-20.5101 -1.27321 0 -3.95801
13.7948 5.24638 0 10.6541
12.0419 5.29011 0 10.3613
-19.0527 -1.18565 0 -3.4759
-17.3594 -0.881122 0 -2.75393
41.9676 9.91376 0 18.8954
24.8697 4.56675 0 12.9223
-21.0883 -8.07243 0 -9.82189
-36.4121 -7.68465 0 -17.0538
35.9008 7.98153 0 17.2685
30.0258 5.68128 0 15.4125
4.53883 6.93494 0 7.80556
-10.724 2.36224 0 -0.0531187
-31.7219 -9.00293 0 -14.9813
-26.7255 -9.8973 0 -12.4924
10.3326 5.56333 0 9.90603
-15.4701 -0.0398038 0 -1.85412
8.63514 6.27825 0 9.28721
6.78714 6.95857 0 8.56708
-13.505 1.20294 0 -1.05344
-11.8057 2.16248 0 -0.496854
24.8697 4.56675 0 12.9223
8.17527 4.97987 0 2.97079
-3.9978 1.48308 0 -2.98849
-21.0883 -8.07243 0 -9.82189
20.4352 5.46595 0 9.5452
15.3676 6.46194 0 5.91431
-0.786654 4.80775 0 5.92786
-4.16918 4.60991 0 4.59346
-14.8933 -2.81836 0 -7.37857
-8.9612 1.92324 0 -5.20423
4.53883 6.93494 0 7.80556
-10.724 2.36224 0 -0.0531187
2.28486 5.91062 0 7.08101
0.527417 4.8061 0 6.44868
-9.63254 2.21225 0 0.811601
-7.53077 2.78005 0 2.42057
8.17527 4.97987 0 2.97079
-9.76879 -6.81458 0 -3.82085
16.724 -1.60504 0 10.5555
-3.9978 1.48308 0 -2.98849
-0.590953 -0.213892 0 1.31603
-7.52438 -5.64878 0 -0.329945
-9.65488 5.68373 0 2.24085
-1.69198 5.66694 0 5.8858
0.82973 -5.09914 0 0.192169
7.43759 -9.26425 0 4.80183
-0.786654 4.80775 0 5.92786
-4.16918 4.60991 0 4.59346
-2.55248 6.20699 0 5.25814
-5.55532 7.16231 0 4.0751
-0.995402 6.56967 0 6.22403
-0.00445162 6.9846 0 6.53913
-9.76879 -6.81458 0 -3.82085
-52.1529 0.520189 0 -16.1444
30.7196 -4.85015 0 2.22625
16.724 -1.60504 0 10.5555
-11.2842 -2.05021 0 -10.4516
-23.1172 2.76633 0 -16.491
-12.5638 3.38885 0 8.04204
20.8218 6.53796 0 17.8441
25.6705 17.3714 0 14.1032
30.4745 24.4197 0 11.5846
-9.65488 5.68373 0 2.24085
-1.69198 5.66694 0 5.8858
-12.4093 2.13129 0 0.863065
-12.8177 0.271299 0 2.22491
-1.47736 5.24424 0 6.61565
5.796 6.484 0 10.6725
-52.1529 0.520189 0 -16.1444
-49.5807 38.399 0 -78.3429
45.0327 465.008 0 26.3032
30.7196 -4.85015 0 2.22625
-86.315 -20.5155 0 -15.9492
-95.7523 -31.3746 0 -31.8137
64.2939 125.306 0 -93.2286
43.9393 215.251 0 -74.279
19.4618 -43.5999 0 2.88608
12.4162 31.137 0 18.023
-12.5638 3.38885 0 8.04204
20.8218 6.53796 0 17.8441
-12.7559 7.70224 0 8.94746
2.35857 30.9571 0 -16.4251
26.0482 5.05448 0 20.315
21.3096 43.9049 0 -1.04278
      </DataArray> 
    </PointData>
    <CellData>
      <DataArray type="Float64" NumberOfComponents="1" Name="Process" format="ascii">
0
1
0
1
1
0
1
1
1
0
0
0
2
0
2
2
2
2
2
3
3
3
3
3
3
      </DataArray> 
    </CellData>
  </Piece>
  </UnstructuredGrid>
</VTKFile>
