<?xml version="1.0"?>
<VTKFile type="UnstructuredGrid">
  <UnstructuredGrid>
  <Piece NumberOfPoints="400"  NumberOfCells="25">
    <Points>
      <DataArray type="Float64" NumberOfComponents="3" format="ascii">
0 15 0
6.43691 13.8396 0
9.07757 23.4178 0
0 25 0
2.12114 14.7758 0
4.27182 14.3944 0
7.37046 17.1227 0
8.22043 20.3169 0
3.10426 24.6732 0
6.13305 24.1497 0
0 18.3333 0
0 21.6667 0
2.48261 18.1822 0
4.94113 17.7644 0
2.76725 21.4801 0
5.51761 21.0156 0
6.43691 13.8396 0
12.8933 11.1457 0
17.343 20.0578 0
9.07757 23.4178 0
8.60227 13.1014 0
10.7575 12.1959 0
14.4259 14.1719 0
15.8823 17.153 0
11.93 22.4733 0
14.6861 21.3422 0
7.37046 17.1227 0
8.22043 20.3169 0
9.76525 16.2956 0
12.1193 15.3057 0
10.8504 19.4241 0
13.4039 18.3624 0
12.8933 11.1457 0
19.137 7.29917 0
24.739 15.548 0
17.343 20.0578 0
15.0019 9.97118 0
17.0828 8.68536 0
21.0426 10.0786 0
22.8923 12.8389 0
19.8994 18.6509 0
22.3619 17.1418 0
14.4259 14.1719 0
15.8823 17.153 0
16.6805 12.9123 0
18.8848 11.5427 0
18.2876 15.8167 0
20.6231 14.3725 0
19.137 7.29917 0
25.1627 2.65445 0
31.4394 10.4148 0
24.739 15.548 0
21.1661 5.82384 0
23.1734 4.27148 0
27.2795 5.25596 0
29.3565 7.85472 0
27.0391 13.8862 0
29.2701 12.1707 0
21.0426 10.0786 0
22.8923 12.8389 0
23.1576 8.53469 0
25.2348 6.92324 0
25.0994 11.2331 0
27.2515 9.56792 0
25.1627 2.65445 0
31.0685 -2.47884 0
37.6611 5.0184 0
31.4394 10.4148 0
27.1379 0.984468 0
29.1045 -0.729425 0
33.2783 0.0230225 0
35.464 2.53263 0
33.5552 8.63107 0
35.6261 6.8293 0
27.2795 5.25596 0
29.3565 7.85472 0
29.2973 3.54404 0
31.2947 1.79679 0
31.422 6.10468 0
33.4554 4.32752 0
31.0685 -2.47884 0
37.0031 -7.85661 0
43.6317 -0.38767 0
37.6611 5.0184 0
33.0355 -4.25539 0
35.0117 -6.05075 0
39.2138 -5.37376 0
41.4123 -2.87435 0
39.6689 3.20701 0
41.6568 1.40259 0
33.2783 0.0230225 0
35.464 2.53263 0
35.2551 -1.76861 0
37.2314 -3.57014 0
37.4549 0.729043 0
39.4354 -1.07569 0
37.0031 -7.85661 0
43.1273 -13.2569 0
49.5438 -5.60581 0
43.6317 -0.38767 0
39.0157 -9.66474 0
41.0553 -11.4674 0
45.2582 -10.7221 0
47.387 -8.16358 0
45.6003 -2.15676 0
47.569 -3.89823 0
39.2138 -5.37376 0
41.4123 -2.87435 0
41.2084 -7.17179 0
43.2213 -8.95695 0
43.3926 -4.6598 0
45.3823 -6.42516 0
43.1273 -13.2569 0
49.589 -18.4682 0
55.5573 -10.4638 0
49.5438 -5.60581 0
45.2372 -15.0256 0
47.3897 -16.7654 0
51.5637 -15.8245 0
53.5435 -13.1499 0
51.5306 -7.27325 0
53.5337 -8.89457 0
45.2582 -10.7221 0
47.387 -8.16358 0
47.3245 -12.46 0
49.4249 -14.1632 0
49.4125 -9.86827 0
51.4632 -11.5326 0
49.589 -18.4682 0
56.504 -23.2713 0
61.7841 -14.8001 0
55.5573 -10.4638 0
51.8394 -20.1257 0
54.1436 -21.7296 0
58.2454 -20.4811 0
59.9963 -17.6529 0
57.6051 -11.9751 0
59.6799 -13.4225 0
51.5637 -15.8245 0
53.5435 -13.1499 0
53.745 -17.4363 0
55.9714 -18.991 0
55.6573 -14.7136 0
57.8074 -16.2168 0
56.504 -23.2713 0
63.9358 -27.4379 0
68.2871 -18.4572 0
61.7841 -14.8001 0
58.9228 -24.7424 0
61.4001 -26.1341 0
65.367 -24.4869 0
66.8091 -21.4912 0
63.9197 -16.1021 0
66.0872 -17.323 0
58.2454 -20.4811 0
59.9963 -17.6529 0
60.5692 -21.8989 0
62.943 -23.2367 0
62.2259 -19.0151 0
64.4968 -20.2967 0
63.9358 -27.4379 0
71.8791 -30.7383 0
75.074 -21.2871 0
68.2871 -18.4572 0
66.5294 -28.6452 0
69.1782 -29.748 0
72.9277 -27.6387 0
73.986 -24.4883 0
70.5191 -19.4992 0
72.782 -20.4441 0
65.367 -24.4869 0
66.8091 -21.4912 0
67.8406 -25.642 0
70.3618 -26.6949 0
69.1627 -22.5919 0
71.5557 -23.593 0
71.8791 -30.7383 0
80.2502 -32.9633 0
82.0999 -23.1618 0
75.074 -21.2871 0
74.6285 -31.6084 0
77.4208 -32.3521 0
80.8564 -29.7531 0
81.4687 -26.4878 0
77.3932 -22.0235 0
79.7363 -22.6496 0
72.9277 -27.6387 0
73.986 -24.4883 0
75.5353 -28.4666 0
78.1799 -29.1732 0
76.451 -25.2723 0
78.9467 -25.9403 0
80.2502 -32.9633 0
88.8913 -33.9541 0
89.2741 -23.9882 0
82.0999 -23.1618 0
83.1102 -33.4362 0
85.9932 -33.7675 0
89.0167 -30.6923 0
89.1431 -27.373 0
84.4804 -23.557 0
86.8733 -23.833 0
80.8564 -29.7531 0
81.4687 -26.4878 0
83.5591 -30.2016 0
86.2815 -30.5155 0
84.0125 -26.9108 0
86.5726 -27.2066 0
88.8913 -33.9541 0
97.5933 -33.631 0
96.4764 -23.7203 0
89.2741 -23.9882 0
91.7963 -33.9934 0
94.6998 -33.8856 0
97.2277 -30.387 0
96.8574 -27.086 0
91.6781 -24.0211 0
94.0805 -23.9317 0
89.0167 -30.6923 0
89.1431 -27.373 0
91.7577 -30.7297 0
94.4971 -30.6277 0
91.7182 -27.4083 0
94.2917 -27.3125 0
97.5933 -33.631 0
106.133 -32.0095 0
103.579 -22.3673 0
96.4764 -23.7203 0
100.468 -33.2311 0
103.317 -32.6892 0
105.296 -28.8508 0
104.449 -25.638 0
98.8611 -23.3878 0
101.23 -22.936 0
97.2277 -30.387 0
96.8574 -27.086 0
99.942 -30.0085 0
102.634 -29.4952 0
99.4093 -26.7296 0
101.942 -26.2459 0
106.133 -32.0095 0
114.314 -29.1969 0
110.468 -19.9909 0
103.579 -22.3673 0
108.908 -31.1967 0
111.636 -30.2569 0
113.051 -26.1765 0
111.776 -23.1072 0
105.904 -21.6844 0
108.201 -20.8909 0
105.296 -28.8508 0
104.449 -25.638 0
107.923 -28.0791 0
110.509 -27.1857 0
106.927 -24.9091 0
109.371 -24.0639 0
114.314 -29.1969 0
122.001 -25.3699 0
117.066 -16.6959 0
110.468 -19.9909 0
116.935 -28.0237 0
119.498 -26.7453 0
120.377 -22.5186 0
118.74 -19.6243 0
112.702 -18.9883 0
114.902 -17.8883 0
113.051 -26.1765 0
111.776 -23.1072 0
115.545 -25.0576 0
117.987 -23.836 0
114.141 -22.0444 0
116.463 -20.8813 0
122.001 -25.3699 0
129.136 -20.7454 0
123.341 -12.6171 0
117.066 -16.6959 0
124.441 -23.9059 0
126.819 -22.3616 0
127.224 -18.0665 0
125.302 -15.3522 0
119.193 -15.4163 0
121.285 -14.0549 0
120.377 -22.5186 0
118.74 -19.6243 0
122.713 -21.1129 0
124.995 -19.6263 0
120.972 -18.2795 0
123.159 -16.8533 0
129.136 -20.7454 0
135.737 -15.5485 0
129.318 -7.90085 0
123.341 -12.6171 0
131.392 -19.0655 0
133.592 -17.3304 0
133.613 -13.0221 0
131.482 -10.4653 0
125.364 -11.1082 0
127.355 -9.53412 0
127.224 -18.0665 0
125.302 -15.3522 0
129.402 -16.441 0
131.53 -14.7572 0
127.401 -13.7826 0
129.46 -12.1513 0
135.737 -15.5485 0
141.887 -10.0008 0
135.073 -2.70288 0
129.318 -7.90085 0
137.832 -13.7281 0
139.88 -11.8765 0
139.623 -7.5811 0
137.361 -5.14112 0
131.256 -6.21423 0
133.173 -4.47977 0
133.613 -13.0221 0
131.482 -10.4653 0
135.652 -11.243 0
137.654 -9.4269 0
133.47 -8.73118 0
135.428 -6.95468 0
141.887 -10.0008 0
147.715 -4.3043 0
140.724 2.82703 0
135.073 -2.70288 0
143.858 -8.10842 0
145.798 -6.20699 0
145.384 -1.93401 0
143.063 0.455748 0
136.96 -0.889018 0
138.841 0.956182 0
139.623 -7.5811 0
137.361 -5.14112 0
141.564 -5.71265 0
143.482 -3.82812 0
139.274 -3.29631 0
141.173 -1.42796 0
147.715 -4.3043 0
153.377 1.33715 0
146.449 8.52413 0
140.724 2.82703 0
149.613 -2.40801 0
151.498 -0.525213 0
151.052 3.73689 0
148.755 6.13878 0
142.616 4.71739 0
144.522 6.61925 0
145.384 -1.93401 0
143.063 0.455748 0
147.274 -0.0369368 0
149.161 1.85584 0
144.952 2.34745 0
146.847 4.24293 0
153.377 1.33715 0
159.04 6.72306 0
152.433 14.1986 0
146.449 8.52413 0
155.254 3.17178 0
157.139 4.97007 0
156.815 9.22844 0
154.626 11.7405 0
148.402 10.4246 0
150.392 12.3169 0
151.052 3.73689 0
148.755 6.13878 0
152.955 5.59855 0
154.875 7.43207 0
150.684 8.02958 0
152.639 9.90195 0
159.04 6.72306 0
164.829 11.6052 0
158.922 19.596 0
152.433 14.1986 0
160.962 8.42122 0
162.896 10.0527 0
162.838 14.3209 0
160.892 16.9821 0
154.533 16.0612 0
156.696 17.8729 0
156.815 9.22844 0
154.626 11.7405 0
158.78 10.9793 0
160.782 12.6786 0
156.652 13.5329 0
158.734 15.2791 0
164.829 11.6052 0
170.986 15 0
165.539 25 0
158.922 19.596 0
166.766 13.0417 0
168.785 14.2267 0
169.504 18.3333 0
167.579 21.6667 0
161.196 21.2352 0
163.435 22.9645 0
162.838 14.3209 0
160.892 16.9821 0
164.962 15.8818 0
167.176 17.2596 0
163.128 18.6375 0
165.383 20.2125 0
      </DataArray>
    </Points>
    <Cells>
      <DataArray type="Int32" Name="connectivity" format="ascii">
0 1 2 3 4 5 6 7 8 9 10 11 12 13 14 15 
16 17 18 19 20 21 22 23 24 25 26 27 28 29 30 31 
32 33 34 35 36 37 38 39 40 41 42 43 44 45 46 47 
48 49 50 51 52 53 54 55 56 57 58 59 60 61 62 63 
64 65 66 67 68 69 70 71 72 73 74 75 76 77 78 79 
80 81 82 83 84 85 86 87 88 89 90 91 92 93 94 95 
96 97 98 99 100 101 102 103 104 105 106 107 108 109 110 111 
112 113 114 115 116 117 118 119 120 121 122 123 124 125 126 127 
128 129 130 131 132 133 134 135 136 137 138 139 140 141 142 143 
144 145 146 147 148 149 150 151 152 153 154 155 156 157 158 159 
160 161 162 163 164 165 166 167 168 169 170 171 172 173 174 175 
176 177 178 179 180 181 182 183 184 185 186 187 188 189 190 191 
192 193 194 195 196 197 198 199 200 201 202 203 204 205 206 207 
208 209 210 211 212 213 214 215 216 217 218 219 220 221 222 223 
224 225 226 227 228 229 230 231 232 233 234 235 236 237 238 239 
240 241 242 243 244 245 246 247 248 249 250 251 252 253 254 255 
256 257 258 259 260 261 262 263 264 265 266 267 268 269 270 271 
272 273 274 275 276 277 278 279 280 281 282 283 284 285 286 287 
288 289 290 291 292 293 294 295 296 297 298 299 300 301 302 303 
304 305 306 307 308 309 310 311 312 313 314 315 316 317 318 319 
320 321 322 323 324 325 326 327 328 329 330 331 332 333 334 335 
336 337 338 339 340 341 342 343 344 345 346 347 348 349 350 351 
352 353 354 355 356 357 358 359 360 361 362 363 364 365 366 367 
368 369 370 371 372 373 374 375 376 377 378 379 380 381 382 383 
384 385 386 387 388 389 390 391 392 393 394 395 396 397 398 399 
      </DataArray>
      <DataArray type="Int32" Name="offsets" format="ascii">
16
32
48
64
80
96
112
128
144
160
176
192
208
224
240
256
272
288
304
320
336
352
368
384
400
      </DataArray>
      <DataArray type="UInt8" Name="types" format="ascii">
70
70
70
70
70
70
70
70
70
70
70
70
70
70
70
70
70
70
70
70
70
70
70
70
70
      </DataArray>
    </Cells>
    <PointData>
      <DataArray type="Float64" NumberOfComponents="2" Name="Displacement" format="ascii">
0 0
-1.56309 -1.16042
1.07757 -1.5822
0 0
-0.545525 -0.224188
-1.06152 -0.605562
-0.629543 -1.21065
0.220428 -1.34978
0.437588 -0.326788
0.799719 -0.850292
0 0
0 0
-0.184057 -0.151163
-0.392204 -0.568905
0.100585 -0.186559
0.184277 -0.651101
-1.56309 -1.16042
-3.10669 -3.85433
1.34302 -4.9422
1.07757 -1.5822
-2.06439 -1.8986
-2.5758 -2.80407
-1.57406 -4.16143
-0.117718 -4.51368
1.26329 -2.52667
1.35281 -3.65782
-0.629543 -1.21065
0.220428 -1.34978
-0.901412 -2.03778
-1.21408 -3.02762
0.183768 -2.24252
0.0705192 -3.30426
-3.10669 -3.85433
-4.863 -7.70083
0.739043 -9.45203
1.34302 -4.9422
-3.66473 -5.02882
-4.25054 -6.31464
-2.95743 -8.25473
-1.10768 -8.82779
1.23276 -6.34905
1.02859 -7.85818
-1.57406 -4.16143
-0.117718 -4.51368
-1.98617 -5.42107
-2.44849 -6.79062
-0.379023 -5.84996
-0.710187 -7.29416
-4.863 -7.70083
-6.83735 -12.3455
-0.560553 -14.5852
0.739043 -9.45203
-5.50055 -9.17616
-6.15991 -10.7285
-4.72046 -13.0774
-2.64354 -13.8119
0.372483 -11.1138
-0.0632744 -12.8293
-2.95743 -8.25473
-1.10768 -8.82779
-3.50911 -9.79865
-4.09854 -11.4101
-1.56726 -10.4335
-2.08181 -12.0987
-6.83735 -12.3455
-8.93154 -17.4788
-2.33886 -19.9816
-0.560553 -14.5852
-7.5288 -14.0155
-8.2288 -15.7294
-6.72166 -18.3103
-4.53604 -19.134
-1.11146 -16.3689
-1.70722 -18.1707
-4.72046 -13.0774
-2.64354 -13.8119
-5.36935 -14.7893
-6.03868 -16.5365
-3.2447 -15.562
-3.87796 -17.3391
-8.93154 -17.4788
-10.9969 -22.8566
-4.36834 -25.3877
-2.33886 -19.9816
-9.63117 -19.2554
-10.3216 -21.0508
-8.78624 -23.7071
-6.58766 -24.541
-2.99772 -21.793
-3.67653 -23.5974
-6.72166 -18.3103
-4.53604 -19.134
-7.41157 -20.1019
-8.10191 -21.9035
-5.21173 -20.9376
-5.89795 -22.7424
-10.9969 -22.8566
-12.8727 -28.2569
-6.45619 -30.6058
-4.36834 -25.3877
-11.6509 -24.6647
-12.2781 -26.4674
-10.7418 -29.0554
-8.61298 -29.8302
-5.06637 -27.1568
-5.76436 -28.8982
-8.78624 -23.7071
-6.58766 -24.541
-9.45822 -25.5051
-10.112 -27.2903
-7.27404 -26.3265
-7.95108 -28.0918
-12.8727 -28.2569
-14.411 -33.4682
-8.44273 -35.4638
-6.45619 -30.6058
-13.4295 -30.0256
-13.9437 -31.7654
-12.4363 -34.1578
-10.4565 -34.8166
-7.1361 -32.2733
-7.79964 -33.8946
-10.7418 -29.0554
-8.61298 -29.8302
-11.3421 -30.7933
-11.9084 -32.4966
-9.25419 -31.5349
-9.87015 -33.1992
-14.411 -33.4682
-15.496 -38.2713
-10.2159 -39.8001
-8.44273 -35.4638
-14.8272 -35.1257
-15.1897 -36.7296
-13.7546 -38.8144
-12.0037 -39.3196
-9.06153 -36.9751
-9.65339 -38.4225
-12.4363 -34.1578
-10.4565 -34.8166
-12.9217 -35.7696
-13.362 -37.3243
-11.0094 -36.3802
-11.5259 -37.8835
-15.496 -38.2713
-16.0642 -42.4379
-11.7129 -43.4572
-10.2159 -39.8001
-15.7439 -39.7424
-15.9333 -41.1341
-14.633 -42.8203
-13.1909 -43.1578
-10.747 -41.1021
-11.2461 -42.323
-13.7546 -38.8144
-12.0037 -39.3196
-14.0975 -40.2322
-14.3903 -41.57
-12.4408 -40.6818
-12.8366 -41.9634
-16.0642 -42.4379
-16.1209 -45.7383
-12.926 -46.2871
-11.7129 -43.4572
-16.1372 -43.6452
-16.1551 -44.748
-15.0723 -45.972
-14.014 -46.155
-12.1475 -44.4992
-12.5513 -45.4441
-14.633 -42.8203
-13.1909 -43.1578
-14.826 -43.9754
-14.9716 -45.0283
-13.5039 -44.2586
-13.7776 -45.2596
-16.1209 -45.7383
-15.7498 -47.9633
-13.9001 -48.1618
-12.926 -46.2871
-16.0382 -46.6084
-15.9125 -47.3521
-15.1436 -48.0865
-14.5313 -48.1545
-13.2735 -47.0235
-13.5971 -47.6496
-15.0723 -45.972
-14.014 -46.155
-15.1313 -46.7999
-15.1534 -47.5065
-14.2157 -46.939
-14.3867 -47.607
-15.7498 -47.9633
-15.1087 -48.9541
-14.7259 -48.9882
-13.9001 -48.1618
-15.5565 -48.4362
-15.3401 -48.7675
-14.9833 -49.0256
-14.8569 -49.0397
-14.1863 -48.557
-14.46 -48.833
-15.1436 -48.0865
-14.5313 -48.1545
-15.1076 -48.5349
-15.0518 -48.8489
-14.6541 -48.5774
-14.7607 -48.8732
-15.1087 -48.9541
-14.4067 -48.631
-15.5236 -48.7203
-14.7259 -48.9882
-14.8703 -48.9934
-14.6335 -48.8856
-14.7723 -48.7203
-15.1426 -48.7526
-14.9886 -49.0211
-15.2528 -48.9317
-14.9833 -49.0256
-14.8569 -49.0397
-14.909 -49.063
-14.8362 -48.9611
-14.9485 -49.075
-15.0416 -48.9792
-14.4067 -48.631
-13.8672 -47.0095
-16.4211 -47.3673
-15.5236 -48.7203
-14.1983 -48.2311
-14.016 -47.6892
-14.7042 -47.1841
-15.5507 -47.3047
-15.8056 -48.3878
-16.1033 -47.936
-14.7723 -48.7203
-15.1426 -48.7526
-14.7247 -48.3418
-14.6998 -47.8286
-15.2574 -48.3963
-15.3916 -47.9126
-13.8672 -47.0095
-13.6863 -44.1969
-17.5321 -44.9909
-16.4211 -47.3673
-13.7591 -46.1967
-13.6971 -45.2569
-14.9488 -44.5099
-16.2236 -44.7739
-16.7631 -46.6844
-17.1325 -45.8909
-14.7042 -47.1841
-15.5507 -47.3047
-14.744 -46.4125
-14.8241 -45.5191
-15.7397 -46.5758
-15.9628 -45.7305
-13.6863 -44.1969
-13.9992 -40.3699
-18.9343 -41.6959
-17.5321 -44.9909
-13.7314 -43.0237
-13.835 -41.7453
-15.623 -40.852
-17.2599 -41.2909
-17.9647 -43.9883
-18.4317 -42.8883
-14.9488 -44.5099
-16.2236 -44.7739
-15.122 -43.391
-15.3462 -42.1693
-16.5256 -43.711
-16.8706 -42.548
-13.9992 -40.3699
-14.8643 -35.7454
-20.6588 -37.6171
-18.9343 -41.6959
-14.2258 -38.9059
-14.5144 -37.3616
-16.776 -36.3998
-18.6984 -37.0189
-19.4734 -40.4163
-20.0486 -39.0549
-15.623 -40.852
-17.2599 -41.2909
-15.954 -39.4462
-16.3386 -37.9596
-17.6946 -39.9461
-18.1744 -38.52
-14.8643 -35.7454
-16.2628 -30.5485
-22.6818 -32.9008
-20.6588 -37.6171
-15.2742 -34.0655
-15.7414 -32.3304
-18.3875 -31.3555
-20.5182 -32.1319
-21.3029 -36.1082
-21.9782 -34.5341
-16.776 -36.3998
-18.6984 -37.0189
-17.2652 -34.7744
-17.8033 -33.0905
-19.2657 -35.4492
-19.8733 -33.8179
-16.2628 -30.5485
-18.1129 -25.0008
-24.9274 -27.7029
-22.6818 -32.9008
-16.835 -28.7281
-17.4533 -26.8765
-20.3771 -25.9144
-22.6387 -26.8078
-23.4105 -31.2142
-24.1604 -29.4798
-18.3875 -31.3555
-20.5182 -32.1319
-19.0144 -29.5763
-19.6792 -27.7602
-21.197 -30.3979
-21.9053 -28.6214
-18.1129 -25.0008
-20.2853 -19.3043
-27.2757 -22.173
-24.9274 -27.7029
-18.8088 -23.1084
-19.5349 -21.207
-22.6162 -20.2673
-24.9367 -21.2109
-25.7069 -25.889
-26.4921 -24.0438
-20.3771 -25.9144
-22.6387 -26.8078
-21.1028 -24.046
-21.851 -22.1615
-23.3924 -24.963
-24.1605 -23.0946
-20.2853 -19.3043
-22.6231 -13.6629
-29.5512 -16.4759
-27.2757 -22.173
-21.0538 -17.408
-21.8349 -15.5252
-24.948 -14.5964
-27.2453 -15.5279
-28.0505 -20.2826
-28.8109 -18.3808
-22.6162 -20.2673
-24.9367 -21.2109
-23.3927 -18.3703
-24.1727 -16.4775
-25.7147 -19.3192
-26.4868 -17.4237
-22.6231 -13.6629
-24.9601 -8.27694
-31.5673 -10.8014
-29.5512 -16.4759
-23.4123 -11.8282
-24.1943 -10.0299
-27.1853 -9.10489
-29.3738 -9.92616
-30.2649 -14.5754
-30.9409 -12.6831
-24.948 -14.5964
-27.2453 -15.5279
-25.7113 -12.7348
-26.4583 -10.9013
-27.9829 -13.6371
-28.6941 -11.7647
-24.9601 -8.27694
-27.1711 -3.39475
-33.0779 -5.40399
-31.5673 -10.8014
-25.7045 -6.57878
-26.4371 -4.94726
-29.1621 -4.01239
-31.1081 -4.68458
-32.1337 -8.93876
-32.6375 -7.12709
-27.1853 -9.10489
-29.3738 -9.92616
-27.8871 -7.35407
-28.5509 -5.65478
-30.0144 -8.13373
-30.599 -6.38753
-27.1711 -3.39475
-29.014 0
-34.4609 0
-33.0779 -5.40399
-27.9012 -1.95827
-28.5481 -0.773318
-30.496 0
-32.421 0
-33.4708 -3.76479
-33.8987 -2.03555
-29.1621 -4.01239
-31.1081 -4.68458
-29.7047 -2.45151
-30.157 -1.07377
-31.5383 -3.02912
-31.9503 -1.45418
      </DataArray> 
      <DataArray type="Float64" NumberOfComponents="4" Name="CauchyStress" format="ascii">
-325.459 -152.659 0 -20.1742
-207.421 -16.8272 0 65.3027
306.631 20.2556 0 -88.6368
508.698 122.841 0 -104.667
-265.074 -12.8934 0 27.9829
-228.439 10.1156 0 58.2974
-108.205 -14.4456 0 3.2519
71.3061 4.87897 0 -50.7586
419.746 16.9885 0 -64.1831
358.575 0.22557 0 -68.8515
-129.483 -44.4442 0 -0.870385
86.1986 24.2833 0 -10.5329
-127.422 -20.1506 0 -7.14253
-120.536 -13.5262 0 -3.85093
84.0134 -11.1675 0 -36.0367
82.8971 -7.92686 0 -49.2569
-207.421 -16.8272 0 65.3027
-129.124 -33.0117 0 70.2405
190.47 46.8653 0 -97.5861
306.631 20.2556 0 -88.6368
-183.129 -30.8792 0 66.9231
-154.794 -32.7587 0 69.1056
-68.9707 -4.5782 0 11.9097
35.0301 23.1434 0 -43.5925
263.438 39.1174 0 -102.316
226.54 46.7325 0 -103.915
-108.205 -14.4456 0 3.2519
71.3061 4.87897 0 -50.7586
-93.0096 -12.5729 0 8.63619
-79.0374 -7.963 0 10.866
54.7043 12.8909 0 -47.7629
43.474 18.8624 0 -45.7368
-129.124 -33.0117 0 70.2405
-77.1406 -38.4368 0 54.0859
102.914 49.4319 0 -73.6157
190.47 46.8653 0 -97.5861
-108.919 -35.8184 0 67.8168
-91.9373 -38.2136 0 61.7671
-43.225 -1.05896 0 10.7589
18.0116 29.8452 0 -32.4846
155.983 46.993 0 -89.305
126.981 49.0935 0 -81.8126
-68.9707 -4.5782 0 11.9097
35.0301 23.1434 0 -43.5925
-60.5092 -3.12605 0 12.3621
-51.484 -2.06066 0 11.8162
28.76 26.8709 0 -40.716
23.6609 29.5831 0 -37.1344
-77.1406 -38.4368 0 54.0859
-37.3393 -25.7032 0 31.9702
54.8654 34.3794 0 -44.8113
102.914 49.4319 0 -73.6157
-62.7883 -35.4766 0 46.4193
-49.0995 -30.6902 0 39.0438
-25.2038 5.96276 0 5.43395
5.32619 26.4202 0 -20.2302
83.9972 46.5235 0 -64.3791
68.6648 41.3381 0 -54.723
-43.225 -1.05896 0 10.7589
18.0116 29.8452 0 -32.4846
-36.0902 0.931107 0 9.26491
-30.0005 3.70127 0 7.33692
12.6063 28.8203 0 -27.732
8.56874 27.8952 0 -23.7841
-37.3393 -25.7032 0 31.9702
-10.5772 -8.46733 0 9.64506
20.0777 14.3368 0 -18.7409
54.8654 34.3794 0 -44.8113
-27.5144 -20.5924 0 24.7635
-18.7227 -14.7505 0 17.2024
-13.3181 11.1836 0 -0.932744
-2.57885 19.3552 0 -10.7013
41.8235 27.3326 0 -35.3599
30.1206 20.8982 0 -26.7793
-25.2038 5.96276 0 5.43395
5.32619 26.4202 0 -20.2302
-21.029 7.70189 0 3.49705
-17.0111 9.47881 0 1.30968
2.57539 24.4771 0 -16.9079
2.3627e-05 22.2065 0 -13.7911
-10.5772 -8.46733 0 9.64506
13.0344 10.6251 0 -11.475
-3.79282 -5.83754 0 3.59371
20.0777 14.3368 0 -18.7409
-2.58829 -1.93536 0 2.34557
5.2982 4.5252 0 -4.68869
-4.30416 16.3387 0 -7.47592
-9.69305 10.9764 0 -2.55026
11.5567 7.51778 0 -10.9981
3.73635 0.740487 0 -3.53613
-13.3181 11.1836 0 -0.932744
-2.57885 19.3552 0 -10.7013
-10.0036 12.9972 0 -3.13627
-7.04967 14.8226 0 -5.32396
-5.08571 16.3835 0 -7.71157
-7.46627 13.6505 0 -4.99869
13.0344 10.6251 0 -11.475
36.2698 26.4554 0 -30.7709
-26.6218 -21.7606 0 22.4858
-3.79282 -5.83754 0 3.59371
20.6197 16.3306 0 -18.0567
28.234 21.6332 0 -24.4814
3.54504 18.9965 0 -13.7844
-16.9872 3.04768 0 3.81987
-11.4212 -11.8628 0 10.3296
-19.1451 -17.1739 0 16.6311
-4.30416 16.3387 0 -7.47592
-9.69305 10.9764 0 -2.55026
-1.68649 17.4783 0 -9.5828
0.843533 18.3346 0 -11.673
-11.9743 8.28927 0 -0.283028
-14.4863 5.60748 0 1.85257
36.2698 26.4554 0 -30.7709
63.0799 36.1307 0 -47.5991
-49.8503 -31.1006 0 37.8088
-26.6218 -21.7606 0 22.4858
44.7286 30.5478 0 -36.7673
53.5273 33.7234 0 -42.3506
11.8773 19.1374 0 -19.4034
-25.34 -3.31436 0 8.94565
-34.0651 -25.639 0 27.998
-41.8696 -28.8002 0 33.1593
3.54504 18.9965 0 -13.7844
-16.9872 3.04768 0 3.81987
6.28318 19.4019 0 -15.7966
8.92709 19.4155 0 -17.6358
-19.6056 0.692983 0 5.68227
-22.498 -1.45986 0 7.43366
63.0799 36.1307 0 -47.5991
94.6391 37.8077 0 -59.7024
-76.0728 -32.8056 0 48.1317
-49.8503 -31.1006 0 37.8088
73.1312 37.6575 0 -52.3248
83.4528 38.1525 0 -56.3371
21.3788 15.9631 0 -23.4163
-34.952 -7.66539 0 12.3467
-58.2299 -32.518 0 41.9024
-67.1172 -33.1111 0 45.3898
11.8773 19.1374 0 -19.4034
-25.34 -3.31436 0 8.94565
14.9423 18.4725 0 -20.9896
17.9359 17.3449 0 -22.2943
-28.3501 -4.95563 0 10.2696
-31.7111 -6.46242 0 11.4441
94.6391 37.8077 0 -59.7024
130.152 31.2953 0 -63.8008
-104.181 -27.3743 0 51.2879
-76.0728 -32.8056 0 48.1317
106.274 36.5324 0 -62.1829
117.897 34.2627 0 -63.5374
32.1096 9.96455 0 -24.5733
-45.2941 -9.79888 0 13.5717
-85.2437 -31.6712 0 50.0828
-94.7726 -29.8523 0 51.176
21.3788 15.9631 0 -23.4163
-34.952 -7.66539 0 12.3467
24.9529 14.2832 0 -24.2243
28.3316 12.2202 0 -24.5878
-38.2841 -8.58697 0 13.0074
-41.9116 -9.32567 0 13.4475
130.152 31.2953 0 -63.8008
165.611 19.3202 0 -56.6287
-131.475 -17.4974 0 45.1583
-104.181 -27.3743 0 51.2879
142.426 27.7363 0 -62.8201
154.035 23.6517 0 -60.4362
42.9074 2.38156 0 -21.6345
-55.2113 -10.2157 0 12.0621
-113.523 -24.3729 0 50.3361
-122.801 -21.0394 0 48.2888
32.1096 9.96455 0 -24.5733
-45.2941 -9.79888 0 13.5717
35.9033 7.54497 0 -24.1188
39.3032 4.96166 0 -23.1438
-48.6375 -10.0656 0 13.369
-52.1331 -10.2164 0 12.8616
165.611 19.3202 0 -56.6287
194.334 6.98338 0 -37.1042
-153.069 -7.49262 0 29.3682
-131.475 -17.4974 0 45.1583
176.49 14.9697 0 -51.4528
185.9 10.7786 0 -44.9692
51.7475 -4.4672 0 -14.1994
-62.9755 -9.74802 0 7.79383
-139.51 -13.9326 0 40.9081
-146.861 -10.5395 0 35.5804
42.9074 2.38156 0 -21.6345
-55.2113 -10.2157 0 12.0621
46.3292 -0.0949111 0 -19.6423
49.116 -2.4141 0 -17.1995
-58.0299 -10.0985 0 10.9256
-60.7745 -9.93402 0 9.45382
194.334 6.98338 0 -37.1042
209.154 0.1755 0 -8.1605
-164.044 -2.07406 0 6.45732
-153.069 -7.49262 0 29.3682
201.294 3.84363 0 -28.1905
206.148 1.52758 0 -18.5764
56.2998 -8.13423 0 -3.3402
-66.9074 -9.40737 0 1.50234
-158.062 -4.99148 0 22.3271
-161.803 -3.15276 0 14.5779
51.7475 -4.4672 0 -14.1994
-62.9755 -9.74802 0 7.79383
53.9596 -6.14622 0 -10.8345
55.3923 -7.3883 0 -7.27735
-64.7056 -9.58063 0 5.88057
-66.1 -9.46072 0 3.69491
209.154 0.1755 0 -8.1605
205.828 2.55943 0 23.3871
-161.405 -3.89865 0 -18.4378
-164.044 -2.07406 0 6.45732
210.227 -0.0848694 0 2.54174
209.134 0.72286 0 13.0173
55.2055 -7.10535 0 8.46765
-66.0585 -9.7748 0 -5.33999
-164.714 -1.85218 0 -1.90609
-163.815 -2.46703 0 -10.342
56.2998 -8.13423 0 -3.3402
-66.9074 -9.40737 0 1.50234
56.6525 -8.33194 0 0.701318
56.3021 -7.98796 0 4.57041
-67.1204 -9.44757 0 -0.759016
-66.8222 -9.5769 0 -3.13884
205.828 2.55943 0 23.3871
185.258 13.0825 0 49.5624
-146.036 -12.4634 0 -39.1732
-161.405 -3.89865 0 -18.4378
200.675 5.32841 0 33.168
193.918 8.86742 0 41.8677
48.7961 -1.7595 0 18.2844
-60.6 -10.6834 0 -11.0575
-157.543 -6.14442 0 -26.0269
-152.32 -9.05944 0 -33.0257
55.2055 -7.10535 0 8.46765
-66.0585 -9.7748 0 -5.33999
53.5883 -5.72165 0 12.148
51.5614 -3.92214 0 15.3644
-64.7209 -10.0366 0 -7.39996
-62.7906 -10.348 0 -9.38242
185.258 13.0825 0 49.5624
153.382 27.4197 0 64.6984
-121.558 -23.8123 0 -51.6136
-146.036 -12.4634 0 -39.1732
175.429 17.8197 0 56.0168
164.997 22.7209 0 61.0353
38.9119 5.94288 0 24.0899
-51.9363 -11.4168 0 -14.3844
-138.684 -16.1681 0 -44.3837
-130.337 -19.9912 0 -48.5901
48.7961 -1.7595 0 18.2844
-60.6 -10.6834 0 -11.0575
45.6897 0.688359 0 20.7827
42.5631 3.29395 0 22.6992
-58.0234 -11.0163 0 -12.4319
-54.9716 -11.2828 0 -13.5693
153.382 27.4197 0 64.6984
117.219 38.5604 0 67.5372
-93.8816 -33.579 0 -54.0188
-121.558 -23.8123 0 -51.6136
141.287 31.6658 0 67.0331
129.413 35.3983 0 68.0045
28.0416 13.4984 0 25.347
-41.6575 -10.7488 0 -14.9657
-112.499 -27.5018 0 -53.4277
-103.147 -30.8325 0 -54.1801
38.9119 5.94288 0 24.0899
-51.9363 -11.4168 0 -14.3844
35.1929 8.60596 0 24.9808
31.7795 11.1915 0 25.4004
-48.6944 -11.3274 0 -14.8752
-45.0689 -11.0569 0 -15.0644
117.219 38.5604 0 67.5372
83.5749 44.0275 0 59.9797
-66.3069 -36.9801 0 -48.291
-93.8816 -33.579 0 -54.0188
105.416 41.3224 0 65.8552
94.473 43.3836 0 63.3088
17.7675 18.6641 0 22.9857
-31.7307 -8.30929 0 -12.8478
-84.5213 -35.4452 0 -53.0167
-75.0968 -36.4813 0 -51.1088
28.0416 13.4984 0 25.347
-41.6575 -10.7488 0 -14.9657
24.3368 15.5183 0 24.9261
21.076 17.2817 0 24.1851
-38.3389 -10.3157 0 -14.5227
-34.8901 -9.52534 0 -13.7557
83.5749 44.0275 0 59.9797
53.9431 38.4103 0 46.4279
-42.5777 -33.7777 0 -35.7261
-66.3069 -36.9801 0 -48.291
72.9343 43.0178 0 56.1308
63.1107 40.9499 0 51.739
9.28171 21.1581 0 18.0809
-22.4854 -3.1945 0 -9.29527
-58.1745 -37.0147 0 -44.5797
-50.2692 -36.1158 0 -40.2491
17.7675 18.6641 0 22.9857
-31.7307 -8.30929 0 -12.8478
14.7186 19.8529 0 21.4609
12.0943 20.8182 0 19.8346
-28.5682 -6.59968 0 -11.8448
-25.2826 -4.72959 0 -10.656
53.9431 38.4103 0 46.4279
31.1626 29.1363 0 28.0493
-20.9841 -20.6875 0 -20.6674
-42.5777 -33.7777 0 -35.7261
45.896 36.1882 0 40.2967
38.6898 33.6039 0 34.0096
1.66966 19.4419 0 12.5505
-15.288 3.55813 0 -3.32437
-34.8534 -29.6544 0 -31.1901
-27.4173 -24.7936 0 -26.2885
9.28171 21.1581 0 18.0809
-22.4854 -3.1945 0 -9.29527
6.43211 20.808 0 16.3376
3.93957 20.1314 0 14.5865
-20.1254 -1.76302 0 -7.5577
-17.7537 0.354782 0 -5.45116
31.1626 29.1363 0 28.0493
8.43213 6.8061 0 10.7343
-0.918683 -5.51554 0 0.487375
-20.9841 -20.6875 0 -20.6674
22.8818 21.9133 0 22.7351
14.8936 13.6442 0 17.3297
-5.22831 17.1185 0 5.34692
-8.39576 11.96 0 1.63711
-15.0799 -17.7765 0 -13.9331
-8.52357 -13.6532 0 -6.56265
1.66966 19.4419 0 12.5505
-15.288 3.55813 0 -3.32437
-0.357901 19.1169 0 10.1468
-2.47784 18.6434 0 7.65567
-12.5148 7.38259 0 -1.5358
-9.93076 10.4608 0 0.0108092
8.43213 6.8061 0 10.7343
-9.00452 -6.20306 0 -13.6881
20.4891 21.928 0 18.4173
-0.918683 -5.51554 0 0.487375
4.05322 3.13339 0 2.32956
-0.694468 0.101833 0 -6.482
-13.0904 9.43742 0 0.54103
-2.07995 21.7461 0 12.2982
7.14338 7.00115 0 6.26864
14.4182 18.2391 0 11.6613
-5.22831 17.1185 0 5.34692
-8.39576 11.96 0 1.63711
-8.29233 14.1014 0 3.56056
-10.9812 10.9065 0 2.12272
-7.53085 13.001 0 4.16551
-5.77815 15.893 0 7.87567
-9.00452 -6.20306 0 -13.6881
-37.3227 -36.4211 0 -29.1047
55.6265 36.2624 0 53.7773
20.4891 21.928 0 18.4173
-21.7217 -18.2502 0 -18.0214
-33.3257 -30.8952 0 -21.975
-26.9312 5.902 0 -8.9788
2.10474 25.6413 0 16.8898
27.796 17.6163 0 28.6765
39.3441 17.9484 0 41.3505
-13.0904 9.43742 0 0.54103
-2.07995 21.7461 0 12.2982
-15.773 10.0771 0 -2.04689
-20.3849 9.90493 0 -5.53306
2.3087 27.5259 0 15.6212
4.21366 28.9535 0 16.8625
-37.3227 -36.4211 0 -29.1047
-102.246 -30.9345 0 -65.3586
91.567 23.0002 0 50.4703
55.6265 36.2624 0 53.7773
-37.5967 -32.1218 0 -43.2042
-54.3075 -26.832 0 -59.0301
-40.9384 2.81149 0 -0.178527
35.4014 36.0173 0 47.4245
70.8542 68.1106 0 59.5325
81.8355 75.8322 0 57.0544
-26.9312 5.902 0 -8.9788
2.10474 25.6413 0 16.8898
-32.6514 -1.49923 0 -10.2576
-36.7789 -5.17402 0 -7.61154
1.5687 23.8365 0 20.0691
11.3539 28.166 0 30.1857
-102.246 -30.9345 0 -65.3586
-87.6681 26.7176 0 -127.958
110.637 1045.02 0 47.6731
91.567 23.0002 0 50.4703
-162.463 -67.0337 0 -61.6605
-180.22 -89.3955 0 -70.1716
166.556 190.858 0 -211.296
124.728 366.621 0 -189.283
88.3054 -28.0085 0 61.0023
78.5927 125.003 0 81.2589
-40.9384 2.81149 0 -0.178527
35.4014 36.0173 0 47.4245
-42.3143 9.9184 0 -2.62717
-1.73091 38.0205 0 -51.3701
45.7485 36.2047 0 50.2012
44.6303 83.6868 0 -5.10448
      </DataArray> 
    </PointData>
    <CellData>
      <DataArray type="Float64" NumberOfComponents="1" Name="Process" format="ascii">
0
1
0
1
1
0
1
1
1
0
0
0
2
0
2
2
2
2
2
3
3
3
3
3
3
      </DataArray> 
    </CellData>
  </Piece>
  </UnstructuredGrid>
</VTKFile>
